>compound MLS001148629-01!
>formula C27H25F2N3OS
>ionization [M+H]+
>parentmass 478.175293
#inchi InChI=1S/C27H25F2N3OS/c1-18-24(26(33)32-16-17-34-27(32)30-18)12-15-31-13-10-21(11-14-31)25(19-2-6-22(28)7-3-19)20-4-8-23(29)9-5-20/h2-9,16-17H,10-15H2,1H3
#inchikey JUQLTPCYUFPYKE
#Ion_Source LC-ESI
#Instrument qTof
#Compound_Source NIH Pharmacologically Active Library
#PI Dorrestein
#Data_Collector VP/LMS
#Scan -1
#Precursor_MZ 478.177
#ExactMass 477.169
#Charge 1
#CAS_Number N/A
#Pubmed_ID N/A
#Smiles Cc1nc2sccn2c(=O)c1CCN3CCC(=C(c4ccc(F)cc4)c5ccc(F)cc5)CC3
#INCHI_AUX N/A
#Library_Class 1
#SpectrumID CCMSLIB00000085045
#IonMode Positive
#UpdateWorkflowName UPDATE-SINGLE-ANNOTATED-GOLD
#LibraryQualityString Gold
#TaskID d252d724072548979f1f6f1ced849daf
##Scan# 1946
#SpectrumFile p3-E02_GE2_01_18271.mzXML
#LibraryName Pharm_Active_Library.mgf
#MQScore -1
#Organism Pharm_Active_Library
#TIC_Query 0
#RT_Query -1
#MZErrorPPM -1
#SharedPeaks 0
#MassDiff 0
#LibMZ -1
#SpecMZ 478.177
#SpecCharge 0
#internalFilename spec-00000.mgf

>collision 10
44.895855 176.0
44.906982 152.0
44.939316 220.0
44.967869 152.0
44.99963 276.0
45.021976 128.0
45.042679 108.0
45.153896 176.0
45.194221 92.0
45.228554 152.0
45.239265 124.0
45.25399 108.0
45.279453 160.0
45.323925 172.0
45.358772 96.0
45.423244 112.0
45.434811 216.0
45.449696 144.0
45.496998 132.0
45.527901 188.0
45.544666 136.0
45.594734 188.0
45.621616 152.0
45.64851 128.0
45.667988 256.0
45.681786 200.0
45.708614 212.0
45.735962 140.0
45.747936 248.0
45.761543 164.0
45.773663 172.0
45.800598 184.0
45.812721 148.0
45.838955 176.0
45.847755 252.0
45.885715 208.0
45.905727 144.0
45.939449 152.0
45.961037 60.0
45.98938 172.0
46.000538 132.0
46.010979 116.0
46.029331 176.0
46.066349 112.0
46.095329 188.0
46.142036 128.0
46.154205 180.0
46.166138 160.0
46.18531 148.0
46.200092 216.0
46.219585 108.0
46.240788 104.0
46.289005 180.0
46.30307 152.0
46.333874 184.0
46.345066 180.0
46.384369 156.0
46.439075 128.0
46.472527 92.0
46.490871 168.0
46.513241 172.0
46.545052 112.0
46.560764 208.0
46.596085 352.0
46.615887 192.0
46.638214 116.0
46.664043 264.0
46.696682 168.0
46.72525 104.0
46.783993 224.0
46.80011 272.0
46.815639 208.0
46.858753 148.0
46.87738 184.0
46.907303 148.0
46.93774 188.0
46.955471 220.0
46.998936 172.0
47.033379 204.0
47.088203 240.0
47.104256 108.0
47.132946 104.0
47.168484 172.0
47.182152 168.0
47.241276 104.0
47.331295 72.0
47.34362 212.0
47.375126 156.0
47.399788 128.0
47.447765 148.0
47.477932 396.0
47.487534 196.0
47.513599 188.0
47.523167 148.0
47.583817 148.0
47.619301 212.0
47.633774 112.0
47.69075 160.0
47.717796 172.0
47.726761 208.0
47.739456 188.0
47.762997 276.0
47.789768 136.0
47.814541 64.0
47.836563 200.0
47.866856 308.0
47.944294 196.0
47.980755 236.0
47.996391 148.0
48.075024 148.0
48.088135 144.0
48.112743 116.0
48.14267 228.0
48.182728 164.0
48.211746 168.0
48.221424 120.0
48.23801 76.0
48.254601 200.0
48.278156 240.0
48.322376 192.0
48.332062 124.0
48.359741 136.0
48.380505 228.0
48.398506 144.0
48.409584 324.0
48.428974 168.0
48.474693 176.0
48.488621 164.0
48.521824 148.0
48.531528 172.0
48.54401 116.0
48.5662 164.0
48.609772 224.0
48.624477 172.0
48.641132 160.0
48.72617 192.0
48.791061 148.0
48.821766 80.0
48.858665 152.0
48.874332 208.0
48.879719 164.0
48.89352 160.0
48.908031 184.0
48.929974 140.0
48.977654 184.0
49.001862 192.0
49.011482 100.0
49.036388 204.0
49.046753 108.0
49.069019 76.0
49.077999 188.0
49.089157 148.0
49.108807 220.0
49.126457 124.0
49.134056 148.0
49.149139 68.0
49.16449 132.0
49.18124 208.0
49.251057 108.0
49.272015 152.0
49.284588 104.0
49.328339 132.0
49.338501 184.0
49.370884 148.0
49.389931 276.0
49.416023 68.0
49.458012 160.0
49.547638 124.0
49.574261 180.0
49.599491 240.0
49.619118 100.0
49.670666 148.0
49.703392 176.0
49.722923 84.0
49.739769 176.0
49.784698 176.0
49.807171 104.0
49.847916 144.0
49.909771 108.0
49.929459 76.0
49.942116 200.0
49.98151 152.0
49.992092 156.0
50.01017 208.0
50.057526 68.0
50.074425 172.0
50.094147 28.0
50.104008 200.0
50.143467 124.0
50.154743 100.0
50.187168 140.0
50.208649 156.0
50.247822 108.0
50.280277 144.0
50.309921 220.0
50.324039 344.0
50.374882 124.0
50.384773 104.0
50.397488 272.0
50.473129 196.0
50.497433 144.0
50.524742 64.0
50.534645 172.0
50.578518 224.0
50.589844 196.0
50.644199 180.0
50.680489 132.0
50.700855 172.0
50.720741 260.0
50.731071 180.0
50.773457 228.0
50.791073 148.0
50.838463 220.0
50.849735 364.0
50.876221 232.0
50.891842 160.0
50.934448 148.0
50.962379 240.0
50.990757 308.0
51.028515 212.0
51.05489 212.0
51.08469 424.0
51.101788 204.0
51.119282 216.0
51.140633 168.0
51.163437 200.0
51.208977 100.0
51.268818 44.0
51.285465 188.0
51.319458 188.0
51.335823 44.0
51.439983 92.0
51.48996 152.0
51.517101 100.0
51.551392 252.0
51.562828 176.0
51.594055 156.0
51.628593 196.0
51.644325 84.0
51.6758 180.0
51.729057 148.0
51.740208 192.0
51.786034 120.0
51.815334 132.0
51.830444 172.0
51.882046 136.0
51.941711 152.0
51.969536 116.0
52.036999 160.0
52.058537 96.0
52.074337 160.0
52.101631 152.0
52.124619 52.0
52.144073 216.0
52.156239 172.0
52.174145 184.0
52.205124 168.0
52.25835 196.0
52.276516 128.0
52.310162 76.0
52.323116 148.0
52.354797 160.0
52.365391 192.0
52.387928 232.0
52.398014 152.0
52.470745 204.0
52.490265 492.0
52.501801 156.0
52.532093 128.0
52.568886 272.0
52.582886 140.0
52.594143 232.0
52.628792 152.0
52.672119 124.0
52.682232 212.0
52.706795 132.0
52.722691 136.0
52.764614 168.0
52.848583 144.0
52.875805 120.0
52.915085 48.0
52.933014 220.0
52.952103 180.0
52.962875 36.0
52.984608 68.0
53.026947 164.0
53.048374 144.0
53.06015 156.0
53.097675 152.0
53.135429 308.0
53.14555 256.0
53.169735 144.0
53.181831 76.0
53.223934 148.0
53.32999 180.0
53.349728 224.0
53.363426 128.0
53.411308 104.0
53.428944 176.0
53.444088 216.0
53.466709 188.0
53.497276 136.0
53.538048 152.0
53.558441 156.0
53.57592 184.0
53.591949 276.0
53.608692 232.0
53.646011 216.0
53.656734 156.0
53.674145 236.0
53.703434 188.0
53.73922 212.0
53.75235 144.0
53.784458 192.0
53.815117 120.0
53.850212 128.0
53.950954 140.0
53.997791 200.0
54.051922 96.0
54.111317 256.0
54.155685 160.0
54.17931 164.0
54.199821 184.0
54.220486 200.0
54.243614 368.0
54.276268 160.0
54.301788 116.0
54.312714 148.0
54.322979 108.0
54.353794 84.0
54.365532 56.0
54.380211 72.0
54.396355 180.0
54.4081 180.0
54.42572 104.0
54.44775 152.0
54.458031 32.0
54.46978 124.0
54.485241 252.0
54.506512 144.0
54.533138 172.0
54.547665 124.0
54.56329 204.0
54.64032 120.0
54.651276 124.0
54.675636 164.0
54.733047 116.0
54.75119 176.0
54.778706 216.0
54.812595 72.0
54.843544 136.0
54.863388 160.0
54.898098 152.0
54.909897 108.0
54.927597 100.0
54.940876 184.0
54.96891 144.0
54.983139 280.0
55.001381 128.0
55.022049 100.0
55.036812 144.0
55.057796 96.0
55.081699 180.0
55.09885 136.0
55.120537 224.0
55.174225 148.0
55.190487 108.0
55.205276 136.0
55.227383 196.0
55.242256 172.0
55.278042 172.0
55.301197 312.0
55.339935 72.0
55.362148 52.0
55.46735 160.0
55.47921 120.0
55.532593 264.0
55.556328 168.0
55.6036 240.0
55.633499 108.0
55.643894 108.0
55.660225 148.0
55.691414 156.0
55.801388 200.0
55.823692 92.0
55.83532 176.0
55.869213 152.0
55.887657 76.0
55.965668 196.0
55.991863 132.0
56.042515 84.0
56.093189 200.0
56.120026 84.0
56.13792 136.0
56.149849 196.0
56.206539 196.0
56.236389 128.0
56.303577 192.0
56.346897 116.0
56.360344 160.0
56.379227 164.0
56.394718 76.0
56.410824 136.0
56.477688 148.0
56.545788 228.0
56.560757 152.0
56.572731 144.0
56.585808 180.0
56.591061 132.0
56.597252 212.0
56.630505 248.0
56.649109 96.0
56.671581 116.0
56.710968 200.0
56.760715 144.0
56.812519 88.0
56.859642 168.0
56.874046 136.0
56.889194 176.0
56.92149 220.0
56.96534 156.0
56.96962 124.0
56.975372 236.0
57.013729 172.0
57.049805 304.0
57.096066 168.0
57.177666 92.0
57.200447 352.0
57.204384 48.0
57.210594 388.0
57.231861 168.0
57.245411 160.0
57.272522 44.0
57.310188 172.0
57.32375 236.0
57.347183 204.0
57.381351 300.0
57.409679 200.0
57.442863 168.0
57.494164 148.0
57.513786 160.0
57.569328 168.0
57.579029 172.0
57.641388 220.0
57.693554 180.0
57.709328 200.0
57.732868 220.0
57.763119 148.0
57.778561 156.0
57.80246 216.0
57.814564 168.0
57.840298 176.0
57.864807 184.0
57.955399 112.0
57.972267 152.0
57.987225 220.0
58.007717 100.0
58.046352 68.0
58.088821 128.0
58.15255 212.0
58.20417 176.0
58.229988 200.0
58.248215 136.0
58.278599 88.0
58.297394 228.0
58.345592 104.0
58.359161 100.0
58.386536 104.0
58.441265 184.0
58.458702 128.0
58.472378 360.0
58.541767 164.0
58.558521 180.0
58.581589 156.0
58.602699 48.0
58.623119 140.0
58.696445 128.0
58.710934 128.0
58.735336 180.0
58.767418 148.0
58.877567 196.0
58.884033 192.0
58.887108 196.0
58.900963 144.0
58.913582 148.0
58.97813 160.0
58.994946 188.0
59.013294 116.0
59.034702 100.0
59.062233 172.0
59.076 168.0
59.107674 240.0
59.131088 84.0
59.1418 128.0
59.170887 180.0
59.217918 180.0
59.249344 180.0
59.294971 132.0
59.308765 144.0
59.339619 160.0
59.428387 212.0
59.45908 124.0
59.477497 220.0
59.497456 136.0
59.518066 168.0
59.534309 68.0
59.572708 176.0
59.595963 148.0
59.612659 144.0
59.646473 180.0
59.661846 68.0
59.686447 208.0
59.697212 128.0
59.771049 196.0
59.787979 160.0
59.80645 104.0
59.818764 112.0
59.833324 176.0
59.861492 112.0
59.895004 196.0
59.906544 60.0
59.925678 144.0
59.938507 204.0
59.948658 200.0
59.959984 88.0
59.996723 132.0
60.022339 156.0
60.054527 56.0
60.110069 100.0
60.143948 156.0
60.179535 104.0
60.207329 96.0
60.225487 196.0
60.309303 144.0
60.339039 136.0
60.366508 168.0
60.385071 132.0
60.414459 136.0
60.440533 80.0
60.457787 148.0
60.501125 192.0
60.605087 132.0
60.654495 176.0
60.668446 168.0
60.679298 92.0
60.690155 104.0
60.701008 44.0
60.721169 76.0
60.756847 420.0
60.778976 152.0
60.809376 240.0
60.826294 240.0
60.842209 80.0
60.864254 100.0
60.885685 156.0
60.918304 148.0
60.935394 144.0
60.947826 136.0
60.959759 112.0
61.002224 116.0
61.030209 100.0
61.044205 268.0
61.098648 192.0
61.218502 136.0
61.248096 144.0
61.283928 160.0
61.304188 344.0
61.347828 72.0
61.366539 204.0
61.377453 176.0
61.397728 124.0
61.41547 128.0
61.447124 180.0
61.465939 188.0
61.528805 80.0
61.550663 128.0
61.574089 244.0
61.591225 136.0
61.61887 108.0
61.629066 188.0
61.658459 92.0
61.675652 164.0
61.6991 120.0
61.710964 136.0
61.747902 232.0
61.781269 104.0
61.790695 128.0
61.832066 152.0
61.843021 272.0
61.853977 56.0
61.875896 96.0
61.902515 256.0
61.944805 136.0
61.955772 156.0
61.977707 48.0
61.988678 152.0
62.024723 148.0
62.046673 260.0
62.078033 120.0
62.104 144.0
62.137642 180.0
62.167454 148.0
62.181786 152.0
62.222321 172.0
62.253334 108.0
62.283642 76.0
62.323212 192.0
62.333588 172.0
62.344917 144.0
62.368496 140.0
62.407627 184.0
62.448689 184.0
62.469135 148.0
62.497456 268.0
62.537655 180.0
62.558838 184.0
62.58231 204.0
62.602688 184.0
62.605957 156.0
62.629932 164.0
62.649258 164.0
62.692638 148.0
62.714775 184.0
62.764484 200.0
62.78101 180.0
62.817287 216.0
62.853577 108.0
62.866203 144.0
62.881985 72.0
62.904083 164.0
62.916714 76.0
62.945133 120.0
62.967243 144.0
63.017754 156.0
63.03791 148.0
63.051773 216.0
63.067146 176.0
63.093662 156.0
63.10722 160.0
63.145844 108.0
63.167992 176.0
63.199635 180.0
63.217041 148.0
63.229702 176.0
63.243706 132.0
63.278004 164.0
63.28986 316.0
63.338955 340.0
63.361423 196.0
63.392826 168.0
63.411842 192.0
63.441963 220.0
63.462574 100.0
63.480755 172.0
63.484455 80.0
63.490303 156.0
63.529186 196.0
63.54332 176.0
63.557468 160.0
63.572029 192.0
63.584724 188.0
63.614883 140.0
63.64257 164.0
63.669254 200.0
63.686344 308.0
63.710171 148.0
63.726059 120.0
63.745995 44.0
63.760067 144.0
63.780094 168.0
63.807117 148.0
63.826199 168.0
63.846874 92.0
63.892929 116.0
63.923237 112.0
63.949253 324.0
63.978947 56.0
63.993275 88.0
64.063354 140.0
64.082474 176.0
64.14785 196.0
64.186081 160.0
64.296158 232.0
64.321335 160.0
64.336067 172.0
64.35363 120.0
64.401535 184.0
64.41272 220.0
64.423904 188.0
64.483025 132.0
64.550171 128.0
64.571404 236.0
64.599754 144.0
64.638359 188.0
64.655762 128.0
64.752937 148.0
64.799881 124.0
64.87841 140.0
64.908875 88.0
64.938927 248.0
65.014755 172.0
65.035622 84.0
65.052956 176.0
65.077362 100.0
65.10627 164.0
65.131966 128.0
65.156891 148.0
65.180168 124.0
65.201057 100.0
65.247673 180.0
65.308929 132.0
65.32029 188.0
65.336136 292.0
65.349052 196.0
65.369926 128.0
65.398895 96.0
65.413383 132.0
65.439491 184.0
65.48584 120.0
65.497116 144.0
65.526451 152.0
65.566399 152.0
65.692169 56.0
65.784157 184.0
65.866516 164.0
65.87944 116.0
65.900444 220.0
65.958839 92.0
65.967491 140.0
66.020065 136.0
66.042099 224.0
66.100716 188.0
66.141418 88.0
66.163124 156.0
66.196465 204.0
66.222382 344.0
66.245056 180.0
66.266121 144.0
66.278038 384.0
66.338295 172.0
66.355263 164.0
66.374718 184.0
66.395805 160.0
66.407158 152.0
66.428246 152.0
66.446091 56.0
66.466789 164.0
66.486656 192.0
66.506134 56.0
66.533371 236.0
66.552155 116.0
66.582359 176.0
66.609505 164.0
66.63118 56.0
66.660423 180.0
66.690575 180.0
66.741707 132.0
66.75309 216.0
66.766884 132.0
66.791229 176.0
66.806763 160.0
66.832794 128.0
66.849243 188.0
66.868599 120.0
66.896675 176.0
66.913849 196.0
66.941864 188.0
66.972809 160.0
67.007019 120.0
67.028198 160.0
67.046921 140.0
67.051109 68.0
67.058258 144.0
67.096657 112.0
67.110519 112.0
67.139053 152.0
67.150475 144.0
67.179832 104.0
67.204308 180.0
67.22715 108.0
67.272858 108.0
67.284286 132.0
67.312042 120.0
67.341438 164.0
67.37738 172.0
67.402992 320.0
67.448196 160.0
67.462364 152.0
67.547348 128.0
67.658684 200.0
67.671783 88.0
67.684883 196.0
67.696342 140.0
67.71254 72.0
67.729103 164.0
67.764923 268.0
67.825783 176.0
67.856926 132.0
67.88446 152.0
67.925774 108.0
67.957932 256.0
67.972946 192.0
67.994728 112.0
68.083382 132.0
68.106377 256.0
68.129372 116.0
68.141518 164.0
68.191818 128.0
68.219765 176.0
68.235313 192.0
68.250999 80.0
68.269272 148.0
68.337761 156.0
68.369446 96.0
68.392487 164.0
68.423767 204.0
68.443527 48.0
68.461639 88.0
68.514725 160.0
68.540565 312.0
68.588509 88.0
68.628075 96.0
68.648621 216.0
68.677551 192.0
68.694046 256.0
68.720444 256.0
68.7584 120.0
68.769951 192.0
68.839294 68.0
68.865723 148.0
68.898758 196.0
68.910233 148.0
68.922791 176.0
68.936768 108.0
68.96817 204.0
68.979736 160.0
68.990456 132.0
69.011154 164.0
69.023888 176.0
69.055801 228.0
69.091873 164.0
69.19812 168.0
69.222282 216.0
69.251663 180.0
69.267677 180.0
69.296684 204.0
69.323471 228.0
69.368767 40.0
69.42514 156.0
69.453339 156.0
69.468567 200.0
69.48983 148.0
69.518044 252.0
69.606789 148.0
69.683754 176.0
69.705696 108.0
69.760544 124.0
69.807106 36.0
69.823112 96.0
69.847023 92.0
69.905251 192.0
69.950195 136.0
69.986824 264.0
70.018463 228.0
70.043449 244.0
70.063438 224.0
70.096664 208.0
70.106224 112.0
70.108925 160.0
70.150101 56.0
70.173439 216.0
70.185112 124.0
70.198448 160.0
70.240707 156.0
70.285194 164.0
70.296875 120.0
70.340271 124.0
70.375275 112.0
70.398712 168.0
70.445122 148.0
70.480568 164.0
70.492264 88.0
70.515015 128.0
70.546494 224.0
70.577515 188.0
70.599258 140.0
70.615982 56.0
70.627693 212.0
70.647766 80.0
70.661629 180.0
70.717262 128.0
70.740776 180.0
70.805199 148.0
70.828171 208.0
70.870445 156.0
70.882172 212.0
70.915695 48.0
70.93737 116.0
70.950897 160.0
70.962631 48.0
70.98745 196.0
71.012939 132.0
71.033073 36.0
71.078445 188.0
71.105225 216.0
71.176971 224.0
71.229477 216.0
71.260895 160.0
71.327164 152.0
71.395882 132.0
71.406967 188.0
71.439613 228.0
71.500191 244.0
71.515335 148.0
71.538261 188.0
71.560791 56.0
71.601204 104.0
71.687202 176.0
71.738426 240.0
71.761299 164.0
71.796707 100.0
71.818634 196.0
71.848999 152.0
71.869301 124.0
71.908058 156.0
71.923256 120.0
71.954605 180.0
71.967148 196.0
71.982285 116.0
72.017776 172.0
72.038963 196.0
72.070549 292.0
72.096802 176.0
72.14286 324.0
72.196968 84.0
72.22065 152.0
72.23587 196.0
72.261253 228.0
72.29171 96.0
72.317139 168.0
72.36657 384.0
72.39328 224.0
72.41922 340.0
72.445793 136.0
72.46273 204.0
72.528824 340.0
72.594948 180.0
72.618698 52.0
72.630569 68.0
72.676376 56.0
72.712013 116.0
72.727287 128.0
72.742805 84.0
72.762939 92.0
72.812965 244.0
72.846153 224.0
72.864845 188.0
72.880135 104.0
72.907326 228.0
73.048027 128.0
73.113113 140.0
73.128433 188.0
73.19342 136.0
73.215263 92.0
73.230759 160.0
73.245918 152.0
73.268066 160.0
73.307259 116.0
73.327408 136.0
73.389084 192.0
73.404427 148.0
73.444252 160.0
73.51088 96.0
73.538132 216.0
73.563995 140.0
73.581886 84.0
73.602371 104.0
73.654785 128.0
73.67411 148.0
73.713409 172.0
73.742462 180.0
73.755714 160.0
73.920326 188.0
74.001259 172.0
74.01619 180.0
74.040169 128.0
74.071884 132.0
74.120682 140.0
74.156021 72.0
74.178955 188.0
74.209015 120.0
74.224464 140.0
74.254402 176.0
74.278419 96.0
74.292145 160.0
74.316162 180.0
74.357491 200.0
74.395111 156.0
74.41143 164.0
74.451263 160.0
74.489563 192.0
74.513618 176.0
74.530357 172.0
74.536812 128.0
74.555611 128.0
74.582359 204.0
74.616737 92.0
74.661446 132.0
74.673485 192.0
74.694321 144.0
74.761559 168.0
74.787422 148.0
74.838699 180.0
74.855919 112.0
74.892082 200.0
74.903152 132.0
74.913773 136.0
74.929985 176.0
74.952385 180.0
74.971336 148.0
75.002365 148.0
75.023048 144.0
75.045464 96.0
75.088577 152.0
75.129257 268.0
75.160149 156.0
75.178291 280.0
75.189949 228.0
75.218689 148.0
75.238701 160.0
75.28878 184.0
75.330238 176.0
75.342331 236.0
75.37516 172.0
75.399353 164.0
75.441116 172.0
75.510002 344.0
75.52903 116.0
75.610352 124.0
75.64151 180.0
75.658821 124.0
75.686523 196.0
75.721161 204.0
75.755806 160.0
75.805962 156.0
75.826851 152.0
75.84938 192.0
75.871918 124.0
75.890991 168.0
75.910065 176.0
75.953026 156.0
75.97757 144.0
75.981346 212.0
76.048927 100.0
76.081841 164.0
76.113098 176.0
76.130463 80.0
76.156105 136.0
76.158676 180.0
76.194069 160.0
76.216949 224.0
76.222458 176.0
76.228615 208.0
76.257294 164.0
76.281586 268.0
76.318138 232.0
76.351181 116.0
76.377266 140.0
76.389442 128.0
76.408585 412.0
76.445122 124.0
76.462524 124.0
76.497337 148.0
76.532463 188.0
76.549576 164.0
76.579453 156.0
76.592667 184.0
76.6297 92.0
76.655968 204.0
76.692436 128.0
76.734177 132.0
76.769157 156.0
76.809273 292.0
76.845299 172.0
76.887787 168.0
76.907921 152.0
76.924446 144.0
76.962852 172.0
76.98381 148.0
77.022232 116.0
77.036209 168.0
77.051933 228.0
77.068848 208.0
77.093872 108.0
77.137566 188.0
77.179527 192.0
77.226746 124.0
77.272232 128.0
77.294655 196.0
77.343979 160.0
77.357208 216.0
77.386002 144.0
77.400009 204.0
77.41674 192.0
77.429138 120.0
77.449043 128.0
77.46656 200.0
77.485832 136.0
77.519127 152.0
77.552429 48.0
77.580841 172.0
77.609634 192.0
77.724648 180.0
77.754128 168.0
77.782211 136.0
77.801521 180.0
77.822594 160.0
77.83448 104.0
77.844421 140.0
77.860382 240.0
77.942039 168.0
77.970154 60.0
78.001793 152.0
78.02253 136.0
78.06427 172.0
78.091476 96.0
78.119614 120.0
78.153046 160.0
78.198799 44.0
78.239288 140.0
78.286835 196.0
78.317368 224.0
78.336151 132.0
78.362534 348.0
78.385483 84.0
78.410156 224.0
78.431305 132.0
78.454887 160.0
78.4842 204.0
78.507126 164.0
78.597008 88.0
78.708298 192.0
78.736557 156.0
78.748917 192.0
78.766579 72.0
78.788612 208.0
78.801918 164.0
78.835258 180.0
78.87027 260.0
78.968086 164.0
79.002495 204.0
79.044449 124.0
79.058319 140.0
79.077789 184.0
79.1185 92.0
79.154678 196.0
79.201736 188.0
79.245789 148.0
79.279694 140.0
79.308327 240.0
79.338387 216.0
79.408577 196.0
79.460564 184.0
79.487877 92.0
79.514153 160.0
79.547523 184.0
79.613274 144.0
79.656281 232.0
79.680717 212.0
79.698441 136.0
79.732254 120.0
79.780251 228.0
79.798027 164.0
79.815811 136.0
79.872719 80.0
79.899406 128.0
79.917198 100.0
79.950363 220.0
79.974144 120.0
79.990166 140.0
80.011528 164.0
80.032898 208.0
80.066734 124.0
80.100571 144.0
80.136208 156.0
80.148682 128.0
80.186104 164.0
80.216408 136.0
80.232452 384.0
80.264587 160.0
80.2994 272.0
80.321907 368.0
80.356232 208.0
80.373352 88.0
80.448318 136.0
80.464386 96.0
80.485596 164.0
80.505455 180.0
80.560829 176.0
80.591202 152.0
80.619789 68.0
80.687721 248.0
80.721184 176.0
80.725502 308.0
80.750801 116.0
80.77356 208.0
80.793236 160.0
80.846916 168.0
80.859444 180.0
80.90062 144.0
80.932846 156.0
80.972244 200.0
81.015236 140.0
81.038521 132.0
81.063614 148.0
81.114212 104.0
81.237534 252.0
81.253677 84.0
81.330902 124.0
81.394737 164.0
81.430954 196.0
81.450569 184.0
81.47451 96.0
81.503883 160.0
81.522255 176.0
81.617599 196.0
81.670021 200.0
81.681709 204.0
81.719681 232.0
81.738823 160.0
81.773056 196.0
81.789215 172.0
81.803619 120.0
81.865562 168.0
81.935081 128.0
81.960312 168.0
82.008972 196.0
82.08046 184.0
82.131584 168.0
82.256096 164.0
82.321091 200.0
82.351799 212.0
82.384308 32.0
82.399284 196.0
82.430206 100.0
82.445747 332.0
82.457123 136.0
82.48732 108.0
82.506752 160.0
82.5495 316.0
82.584961 160.0
82.621597 160.0
82.651665 180.0
82.679047 168.0
82.697151 108.0
82.725594 140.0
82.746025 108.0
82.782883 204.0
82.807594 116.0
82.85553 164.0
82.892746 188.0
82.905434 160.0
82.933907 152.0
83.013275 156.0
83.039597 144.0
83.059547 124.0
83.081161 184.0
83.110344 224.0
83.13443 176.0
83.17205 140.0
83.210175 60.0
83.237411 184.0
83.253754 96.0
83.286446 148.0
83.320251 224.0
83.355484 164.0
83.370026 128.0
83.397285 200.0
83.410011 200.0
83.469421 192.0
83.484558 364.0
83.514519 348.0
83.548225 192.0
83.590073 100.0
83.622276 132.0
83.626892 172.0
83.665733 180.0
83.71022 100.0
83.730255 304.0
83.75029 116.0
83.783081 128.0
83.816246 256.0
83.888779 132.0
83.914307 144.0
83.963539 160.0
83.979958 204.0
84.027885 248.0
84.045631 108.0
84.087967 200.0
84.112236 192.0
84.125938 76.0
84.142319 152.0
84.198975 308.0
84.242996 120.0
84.261086 152.0
84.298195 180.0
84.32103 204.0
84.350632 180.0
84.367088 48.0
84.421295 124.0
84.444649 116.0
84.465836 64.0
84.517967 292.0
84.529434 248.0
84.54187 188.0
84.572548 152.0
84.597 392.0
84.628723 52.0
84.651237 216.0
84.687325 172.0
84.702469 348.0
84.737854 144.0
84.758369 200.0
84.780762 132.0
84.801643 256.0
84.822922 152.0
84.850418 148.0
84.866821 148.0
84.890762 188.0
84.913315 108.0
84.940872 236.0
84.993492 176.0
85.008171 228.0
85.037537 132.0
85.057632 228.0
85.089119 348.0
85.151367 176.0
85.178925 144.0
85.197296 144.0
85.269249 100.0
85.296532 216.0
85.333237 124.0
85.379272 196.0
85.40686 148.0
85.434929 124.0
85.471085 132.0
85.481758 412.0
85.497017 196.0
85.531982 100.0
85.601486 176.0
85.690369 140.0
85.716164 292.0
85.739441 172.0
85.760391 200.0
85.791733 36.0
85.821228 40.0
85.857033 164.0
85.87355 208.0
85.910561 276.0
85.957985 188.0
86.003029 324.0
86.050026 196.0
86.070335 152.0
86.088806 148.0
86.131287 172.0
86.149757 196.0
86.234756 116.0
86.284668 168.0
86.297119 164.0
86.323502 136.0
86.352463 224.0
86.403038 188.0
86.417686 212.0
86.484459 152.0
86.521431 132.0
86.554817 396.0
86.583099 204.0
86.597412 148.0
86.610374 136.0
86.651131 168.0
86.667809 148.0
86.68634 196.0
86.703018 184.0
86.779022 148.0
86.817619 196.0
86.833603 220.0
86.856911 176.0
86.923706 40.0
86.943024 196.0
86.957108 124.0
87.055511 108.0
87.068512 160.0
87.183693 148.0
87.196709 160.0
87.232025 212.0
87.258049 216.0
87.280365 136.0
87.312248 136.0
87.332436 236.0
87.358475 184.0
87.385811 220.0
87.425461 176.0
87.438187 148.0
87.4571 204.0
87.528008 144.0
87.554314 152.0
87.642578 284.0
87.661972 216.0
87.69175 176.0
87.788742 148.0
87.803108 216.0
87.806953 152.0
87.813278 180.0
87.872681 160.0
87.898804 100.0
87.923065 128.0
87.969734 156.0
87.990265 84.0
88.019951 196.0
88.064964 112.0
88.08551 160.0
88.098587 160.0
88.163986 128.0
88.203712 332.0
88.281769 196.0
88.304253 164.0
88.322914 68.0
88.358391 336.0
88.382484 204.0
88.401497 204.0
88.435333 148.0
88.472626 140.0
88.504448 92.0
88.54406 160.0
88.566254 156.0
88.593552 176.0
88.633606 160.0
88.658058 212.0
88.688049 172.0
88.718857 240.0
88.758369 164.0
88.850014 304.0
88.868088 88.0
88.910332 172.0
88.946907 140.0
88.96756 148.0
89.01638 152.0
89.035866 180.0
89.072723 36.0
89.111137 152.0
89.166672 108.0
89.192986 136.0
89.21714 184.0
89.360367 296.0
89.399879 72.0
89.456345 128.0
89.479164 144.0
89.509064 56.0
89.522247 152.0
89.56427 168.0
89.589836 104.0
89.618317 124.0
89.655853 144.0
89.690956 208.0
89.706902 120.0
89.738953 168.0
89.810089 360.0
89.842224 148.0
89.908585 160.0
89.946472 124.0
90.001572 88.0
90.063545 140.0
90.082436 56.0
90.125893 176.0
90.157982 192.0
90.193413 176.0
90.227081 224.0
90.246864 180.0
90.284683 88.0
90.341431 236.0
90.383057 144.0
90.411392 160.0
90.451187 144.0
90.477066 48.0
90.519348 144.0
90.549652 68.0
90.564804 96.0
90.58564 192.0
90.602692 176.0
90.646271 160.0
90.705811 164.0
90.718292 168.0
90.742943 200.0
90.764641 140.0
90.786552 172.0
90.816902 164.0
90.835609 348.0
90.859024 136.0
90.894684 156.0
90.909233 144.0
90.930748 132.0
90.949722 44.0
90.974403 60.0
90.987694 176.0
91.146652 180.0
91.192856 212.0
91.208061 156.0
91.268898 144.0
91.286011 184.0
91.307693 200.0
91.350685 208.0
91.374466 212.0
91.396347 156.0
91.463737 244.0
91.480087 204.0
91.497223 184.0
91.541359 200.0
91.555099 156.0
91.582916 140.0
91.596252 132.0
91.615303 132.0
91.682114 188.0
91.737267 120.0
91.762054 180.0
91.795357 172.0
91.853592 264.0
91.884796 192.0
92.009041 168.0
92.046936 160.0
92.169418 152.0
92.199188 164.0
92.225952 136.0
92.266098 236.0
92.281387 180.0
92.298889 160.0
92.319633 128.0
92.334938 172.0
92.363625 256.0
92.377014 132.0
92.399971 128.0
92.413368 168.0
92.472694 108.0
92.497574 244.0
92.512886 80.0
92.620621 172.0
92.648865 116.0
92.66687 200.0
92.750427 104.0
92.800278 128.0
92.826118 144.0
92.850136 164.0
92.873154 228.0
92.890411 196.0
92.930702 196.0
92.961403 156.0
92.986359 136.0
93.036377 296.0
93.089127 128.0
93.12812 264.0
93.153412 132.0
93.173889 132.0
93.211052 192.0
93.224503 132.0
93.299248 160.0
93.315193 156.0
93.343689 64.0
93.362923 296.0
93.386002 156.0
93.399467 184.0
93.416779 144.0
93.44577 116.0
93.526466 180.0
93.53994 112.0
93.564964 156.0
93.589996 160.0
93.617287 116.0
93.737396 160.0
93.761444 172.0
93.77494 168.0
93.820801 172.0
93.842705 132.0
93.862747 224.0
93.897324 184.0
93.917618 172.0
93.944626 204.0
93.95813 172.0
94.012444 192.0
94.037254 196.0
94.060417 352.0
94.073929 36.0
94.10675 84.0
94.201843 200.0
94.218773 128.0
94.270943 44.0
94.307663 136.0
94.323128 124.0
94.343735 140.0
94.438736 152.0
94.456551 144.0
94.481705 128.0
94.511383 200.0
94.53479 284.0
94.576523 164.0
94.597084 148.0
94.622353 164.0
94.698509 144.0
94.717079 184.0
94.746941 192.0
94.81282 100.0
94.830269 180.0
94.856796 140.0
94.876793 52.0
94.894241 152.0
94.917511 88.0
94.938843 96.0
94.969872 208.0
95.006172 204.0
95.030014 208.0
95.136757 184.0
95.192207 136.0
95.243561 324.0
95.274643 52.0
95.311562 156.0
95.333809 320.0
95.354317 228.0
95.435966 156.0
95.500137 164.0
95.525429 196.0
95.544998 196.0
95.601311 236.0
95.663597 184.0
95.772644 140.0
95.836937 176.0
95.86422 44.0
95.883316 120.0
95.887199 96.0
95.897194 196.0
95.957779 152.0
95.996925 264.0
96.027779 116.0
96.090027 164.0
96.150902 60.0
96.23484 120.0
96.258278 168.0
96.284607 128.0
96.336983 108.0
96.393066 72.0
96.428246 176.0
96.481018 212.0
96.592491 152.0
96.635529 124.0
96.653061 204.0
96.658257 196.0
96.673241 176.0
96.690323 148.0
96.717728 128.0
96.795708 164.0
96.81562 124.0
96.831245 168.0
96.8638 208.0
96.967621 344.0
96.975967 200.0
96.980904 312.0
97.011566 248.0
97.03965 184.0
97.133148 168.0
97.179115 184.0
97.221443 116.0
97.269363 180.0
97.294067 52.0
97.307816 144.0
97.355698 204.0
97.410461 164.0
97.423691 176.0
97.50032 152.0
97.543564 116.0
97.578949 68.0
97.626144 144.0
97.647774 60.0
97.705132 128.0
97.767548 160.0
97.782097 268.0
97.815033 152.0
97.888496 140.0
97.901665 444.0
97.956635 132.0
98.003632 1196.0
98.033363 160.0
98.062355 228.0
98.079483 112.0
98.085457 156.0
98.132217 100.0
98.19545 120.0
98.218987 100.0
98.291756 136.0
98.335403 148.0
98.368965 140.0
98.401337 256.0
98.424248 100.0
98.443993 180.0
98.457817 172.0
98.481514 56.0
98.534859 80.0
98.560539 160.0
98.578323 156.0
98.605995 268.0
98.62326 76.0
98.638115 160.0
98.691505 140.0
98.704613 308.0
98.720665 100.0
98.742416 164.0
98.756264 312.0
98.770111 244.0
98.801758 124.0
98.826935 160.0
98.870728 412.0
98.902687 88.0
98.954155 160.0
98.971977 168.0
98.997559 192.0
99.005173 152.0
99.035576 140.0
99.051201 176.0
99.08609 188.0
99.09919 144.0
99.107224 200.0
99.130447 196.0
99.158195 132.0
99.172073 116.0
99.217667 136.0
99.235512 184.0
99.24939 144.0
99.263672 156.0
99.283104 172.0
99.322243 136.0
99.356491 152.0
99.372368 180.0
99.421974 192.0
99.479095 216.0
99.49939 132.0
99.62252 296.0
99.660744 184.0
99.673813 240.0
99.690079 148.0
99.813332 92.0
99.827248 236.0
99.870506 160.0
99.924713 240.0
99.985909 192.0
100.007751 604.0
100.036163 60.0
100.089821 152.0
100.125771 116.0
100.158043 176.0
100.199471 116.0
100.215416 176.0
100.247292 160.0
100.315063 32.0
100.348709 160.0
100.402306 184.0
100.430717 164.0
100.466629 204.0
100.500542 52.0
100.526489 128.0
100.556419 128.0
100.588356 244.0
100.628288 304.0
100.647736 160.0
100.737091 176.0
100.782089 188.0
100.806068 164.0
100.839973 272.0
100.926003 148.0
101.015892 756.0
101.053284 328.0
101.083794 232.0
101.116051 172.0
101.14061 192.0
101.153214 120.0
101.186707 200.0
101.229408 164.0
101.281616 128.0
101.394447 116.0
101.412483 180.0
101.449326 328.0
101.488663 112.0
101.519531 228.0
101.551468 216.0
101.607002 124.0
101.655159 144.0
101.705338 180.0
101.729424 228.0
101.749496 160.0
101.765564 300.0
101.843887 176.0
101.88607 192.0
101.91317 156.0
101.930275 136.0
101.972061 136.0
102.013947 184.0
102.087074 120.0
102.12529 180.0
102.139366 268.0
102.157471 128.0
102.187653 120.0
102.207771 148.0
102.221855 72.0
102.283943 104.0
102.336594 196.0
102.354721 180.0
102.378883 136.0
102.445351 132.0
102.521919 128.0
102.601341 180.0
102.616096 152.0
102.637009 132.0
102.667076 52.0
102.718773 216.0
102.745743 88.0
102.784081 88.0
102.80426 124.0
102.842606 168.0
102.949234 192.0
102.967339 144.0
102.990181 140.0
103.020309 160.0
103.04657 160.0
103.066292 184.0
103.095284 148.0
103.117744 236.0
103.147621 156.0
103.204857 172.0
103.253975 200.0
103.291191 256.0
103.344788 204.0
103.409409 180.0
103.444901 156.0
103.532051 120.0
103.594849 180.0
103.627823 188.0
103.658218 272.0
103.683998 176.0
103.720482 168.0
103.734673 168.0
103.81781 168.0
103.849174 124.0
103.911682 144.0
103.939522 136.0
103.961189 176.0
103.996346 56.0
104.024765 176.0
104.044685 192.0
104.093796 148.0
104.112076 192.0
104.168945 140.0
104.215607 120.0
104.24276 388.0
104.257507 152.0
104.284309 244.0
104.339661 164.0
104.364059 56.0
104.384392 288.0
104.402275 136.0
104.409401 108.0
104.413589 168.0
104.429138 148.0
104.459648 132.0
104.479988 60.0
104.506439 156.0
104.52211 160.0
104.572647 172.0
104.591019 208.0
104.625137 204.0
104.643669 176.0
104.750748 164.0
104.813614 164.0
104.837692 316.0
104.87632 148.0
104.903587 152.0
104.921936 216.0
105.046928 156.0
105.085098 188.0
105.101425 108.0
105.127953 180.0
105.164688 164.0
105.211639 168.0
105.279106 192.0
105.368904 116.0
105.399628 204.0
105.441612 96.0
105.489479 156.0
105.51461 260.0
105.530373 184.0
105.561043 200.0
105.632629 68.0
105.652321 120.0
105.683777 104.0
105.720612 160.0
105.759499 336.0
105.802483 160.0
105.835861 172.0
105.876816 308.0
105.952377 256.0
106.001167 108.0
106.029488 180.0
106.037575 188.0
106.053909 180.0
106.07827 200.0
106.090599 336.0
106.107552 164.0
106.115509 148.0
106.183456 148.0
106.220551 108.0
106.261581 232.0
106.308777 128.0
106.3293 120.0
106.374451 116.0
106.409355 180.0
106.456581 196.0
106.645599 172.0
106.684807 108.0
106.705215 188.0
106.729889 196.0
106.74675 200.0
106.809395 164.0
106.850487 152.0
106.873878 184.0
106.908859 108.0
106.938469 120.0
107.003548 104.0
107.035233 196.0
107.052711 288.0
107.070816 160.0
107.112694 128.0
107.14978 152.0
107.17244 148.0
107.224602 244.0
107.245544 212.0
107.272141 172.0
107.327034 136.0
107.380653 120.0
107.425903 124.0
107.446671 184.0
107.46936 88.0
107.486916 260.0
107.506508 136.0
107.5354 116.0
107.567764 236.0
107.57338 160.0
107.603523 192.0
107.620041 228.0
107.646889 152.0
107.669601 192.0
107.694389 120.0
107.710579 124.0
107.751556 200.0
107.772888 108.0
107.84729 168.0
107.863831 168.0
107.880363 116.0
107.915512 172.0
107.957901 176.0
107.993149 152.0
108.033401 168.0
108.04995 120.0
108.081352 384.0
108.107887 224.0
108.161705 48.0
108.238304 144.0
108.274002 136.0
108.291061 296.0
108.323219 164.0
108.375015 164.0
108.44133 136.0
108.480721 172.0
108.509743 148.0
108.538773 188.0
108.588547 196.0
108.646622 212.0
108.677567 140.0
108.692268 188.0
108.740761 176.0
108.761688 248.0
108.804352 100.0
108.837578 144.0
108.922729 48.0
108.947655 124.0
108.974663 204.0
108.988281 168.0
109.016228 132.0
109.044518 620.0
109.072342 76.0
109.153427 44.0
109.184624 116.0
109.225899 128.0
109.244942 60.0
109.311836 180.0
109.328171 172.0
109.380005 132.0
109.403107 184.0
109.523888 264.0
109.586388 96.0
109.615555 156.0
109.630142 232.0
109.686417 176.0
109.748962 40.0
109.786499 112.0
109.811531 180.0
109.831413 164.0
109.874107 64.0
109.897057 132.0
109.91375 136.0
110.020737 156.0
110.049431 160.0
110.068222 180.0
110.105812 140.0
110.135056 252.0
110.170296 156.0
110.17662 116.0
110.216972 172.0
110.231682 128.0
110.239967 168.0
110.249512 164.0
110.277138 120.0
110.346123 132.0
110.362854 116.0
110.40258 252.0
110.419952 316.0
110.454872 56.0
110.489655 188.0
110.549026 196.0
110.597656 220.0
110.665108 184.0
110.703941 92.0
110.722786 144.0
110.739548 152.0
110.770966 208.0
110.798203 156.0
110.812866 200.0
110.82753 176.0
110.842201 212.0
110.862946 160.0
110.892494 148.0
110.910347 120.0
110.926033 200.0
110.959579 92.0
111.002113 440.0
111.022865 176.0
111.052834 176.0
111.129471 52.0
111.188019 160.0
111.2407 172.0
111.380402 212.0
111.507469 196.0
111.536621 124.0
111.60627 256.0
111.684082 136.0
111.711433 172.0
111.726158 76.0
111.778763 140.0
111.796997 180.0
111.831375 100.0
111.873474 160.0
111.888214 196.0
111.951385 168.0
111.970337 184.0
111.999718 164.0
112.032608 164.0
112.052231 160.0
112.086205 88.0
112.105171 316.0
112.156105 232.0
112.181679 148.0
112.212112 196.0
112.230438 168.0
112.254845 116.0
112.302849 184.0
112.37986 200.0
112.415169 132.0
112.448936 44.0
112.4711 176.0
112.493263 192.0
112.572739 144.0
112.609406 148.0
112.624191 96.0
112.654121 188.0
112.683533 148.0
112.729828 128.0
112.748848 144.0
112.812256 132.0
112.82917 148.0
112.898628 132.0
112.905975 112.0
112.914459 168.0
112.949715 164.0
112.970253 220.0
112.998375 188.0
113.057617 152.0
113.072433 160.0
113.142532 316.0
113.167694 152.0
113.2164 172.0
113.231224 124.0
113.246056 160.0
113.263 200.0
113.278572 148.0
113.342072 272.0
113.365501 148.0
113.443123 196.0
113.468559 216.0
113.48764 168.0
113.504036 192.0
113.523201 292.0
113.540657 200.0
113.56823 204.0
113.603256 160.0
113.686424 164.0
113.708885 276.0
113.746475 40.0
113.765579 412.0
113.829277 108.0
113.848389 184.0
113.875519 144.0
113.920609 144.0
113.962067 168.0
114.00135 172.0
114.024727 172.0
114.052361 188.0
114.098267 148.0
114.114014 52.0
114.147141 372.0
114.18206 100.0
114.254379 184.0
114.282043 124.0
114.36557 208.0
114.378952 112.0
114.42485 168.0
114.444214 232.0
114.474037 144.0
114.505562 64.0
114.609955 76.0
114.629837 180.0
114.704765 344.0
114.725739 416.0
114.734512 136.0
114.739113 340.0
114.789009 140.0
114.831917 100.0
114.855125 132.0
114.897095 232.0
114.931877 180.0
114.951538 192.0
115.036507 124.0
115.081345 184.0
115.162498 148.0
115.183853 196.0
115.279434 180.0
115.341988 176.0
115.359085 208.0
115.374054 160.0
115.448235 144.0
115.476883 136.0
115.489975 152.0
115.507973 232.0
115.527336 196.0
115.56073 156.0
115.596497 220.0
115.709946 148.0
115.734306 116.0
115.787827 172.0
115.810593 172.0
115.829872 104.0
115.853439 164.0
115.941292 152.0
115.979874 76.0
116.000504 128.0
116.005165 80.0
116.012634 112.0
116.059196 136.0
116.093163 208.0
116.150742 204.0
116.187881 172.0
116.23848 172.0
116.257736 180.0
116.314499 192.0
116.354706 192.0
116.372467 192.0
116.402527 208.0
116.430443 208.0
116.554062 140.0
116.57653 240.0
116.608765 132.0
116.645309 344.0
116.692993 156.0
116.731796 180.0
116.780777 64.0
116.828964 240.0
116.863708 204.0
116.910889 336.0
116.93354 144.0
116.965828 168.0
116.98774 112.0
117.019646 224.0
117.048416 344.0
117.081963 128.0
117.096062 232.0
117.112251 168.0
117.1381 188.0
117.155334 212.0
117.17688 176.0
117.266891 140.0
117.281532 248.0
117.304031 180.0
117.338066 152.0
117.366371 140.0
117.372551 128.0
117.389465 300.0
117.419029 108.0
117.449142 276.0
117.467918 104.0
117.487335 132.0
117.593071 112.0
117.616814 140.0
117.631927 196.0
117.659325 152.0
117.69722 180.0
117.731445 388.0
117.764389 208.0
117.787567 212.0
117.826294 220.0
117.88031 160.0
117.911125 200.0
117.952545 212.0
118.016495 104.0
118.092178 144.0
118.121368 120.0
118.140663 116.0
118.206848 40.0
118.226318 236.0
118.242264 172.0
118.309708 176.0
118.328056 260.0
118.351715 108.0
118.386528 148.0
118.438507 160.0
118.477501 116.0
118.514328 176.0
118.562004 244.0
118.605354 72.0
118.626915 152.0
118.646545 248.0
118.683403 236.0
118.704018 132.0
118.728943 168.0
118.767982 184.0
118.804863 140.0
118.850426 108.0
118.874146 176.0
118.980652 168.0
119.011047 192.0
119.02459 152.0
119.057373 120.0
119.077286 272.0
119.11972 220.0
119.153229 156.0
119.174904 256.0
119.239151 168.0
119.258705 180.0
119.280449 188.0
119.297836 260.0
119.351799 312.0
119.395683 72.0
119.49575 412.0
119.522186 160.0
119.552322 100.0
119.595856 52.0
119.639389 204.0
119.675194 180.0
119.689362 168.0
119.694176 200.0
119.724312 160.0
119.75045 176.0
119.772232 60.0
119.794014 108.0
119.814034 212.0
119.848114 144.0
119.898605 48.0
119.914726 212.0
119.94873 200.0
119.966171 168.0
120.003235 160.0
120.040306 176.0
120.067268 324.0
120.164635 188.0
120.203201 184.0
120.221375 148.0
120.268127 152.0
120.299057 184.0
120.364441 164.0
120.371704 88.0
120.381081 152.0
120.386116 112.0
120.430969 120.0
120.507431 140.0
120.583916 240.0
120.607002 160.0
120.660423 132.0
120.749184 216.0
120.870407 112.0
120.905418 140.0
120.942627 120.0
120.973358 296.0
120.995163 184.0
121.017059 144.0
121.073463 348.0
121.129288 212.0
121.174828 132.0
121.233284 244.0
121.317215 204.0
121.374222 140.0
121.426857 152.0
121.464142 160.0
121.4795 132.0
121.551903 156.0
121.567261 48.0
121.608963 304.0
121.672623 216.0
121.780228 128.0
121.868103 108.0
121.898865 276.0
121.920837 120.0
121.960403 100.0
121.982384 128.0
122.006332 184.0
122.062248 132.0
122.127281 188.0
122.258194 172.0
122.304558 140.0
122.321152 212.0
122.33638 148.0
122.360779 144.0
122.398209 128.0
122.447762 176.0
122.469765 180.0
122.520058 112.0
122.555946 164.0
122.674721 168.0
122.706688 288.0
122.752991 140.0
122.781662 152.0
122.811859 168.0
122.841576 148.0
122.869896 164.0
122.89196 212.0
122.930603 180.0
122.9692 136.0
122.989059 104.0
123.011604 368.0
123.030754 248.0
123.060745 196.0
123.076691 156.0
123.124321 200.0
123.156876 160.0
123.182755 196.0
123.230621 200.0
123.256294 148.0
123.280602 92.0
123.304916 104.0
123.324806 148.0
123.405472 164.0
123.441978 104.0
123.479576 84.0
123.526024 168.0
123.559212 132.0
123.581337 132.0
123.687569 136.0
123.716019 164.0
123.7407 136.0
123.756195 124.0
123.791626 152.0
123.807129 152.0
123.877419 136.0
123.913193 204.0
123.945602 120.0
123.984062 232.0
124.01976 740.0
124.050858 284.0
124.084877 152.0
124.137886 144.0
124.161728 204.0
124.238251 192.0
124.281517 196.0
124.394707 44.0
124.435753 304.0
124.47908 136.0
124.51017 200.0
124.534599 200.0
124.562263 172.0
124.601944 216.0
124.636795 96.0
124.665497 192.0
124.70459 184.0
124.734779 136.0
124.754593 156.0
124.796837 296.0
124.814621 276.0
124.832413 184.0
124.853867 204.0
124.878296 204.0
124.896912 180.0
124.930428 244.0
124.959 392.0
125.016609 81000.0
125.054016 132.0
125.0728 104.0
125.099304 320.0
125.118126 108.0
125.138908 184.0
125.152596 36.0
125.187653 176.0
125.205894 200.0
125.234612 196.0
125.255142 60.0
125.28257 160.0
125.304306 48.0
125.348869 172.0
125.381683 208.0
125.421799 72.0
125.461082 208.0
125.485847 124.0
125.55571 132.0
125.561745 156.0
125.571648 168.0
125.596764 148.0
125.611961 316.0
125.651024 196.0
125.672195 40.0
125.698975 116.0
125.714592 148.0
125.765984 160.0
125.808342 40.0
125.82579 212.0
125.841827 60.0
125.859695 56.0
125.884254 64.0
125.956512 160.0
126.01828 5732.0
126.043755 180.0
126.080803 188.0
126.115173 72.0
126.152374 128.0
126.173363 176.0
126.179207 68.0
126.188507 176.0
126.232872 144.0
126.27536 36.0
126.291016 68.0
126.316048 84.0
126.414001 208.0
126.43869 64.0
126.505211 128.0
126.604355 132.0
126.626755 192.0
126.659065 188.0
126.700676 72.0
126.742226 132.0
126.77462 140.0
126.799271 184.0
126.818108 280.0
126.838348 140.0
126.878624 140.0
126.899529 172.0
126.947594 152.0
126.995796 22516.0
127.081825 64.0
127.127258 180.0
127.14785 152.0
127.175148 204.0
127.204376 192.0
127.251183 124.0
127.308548 160.0
127.324272 96.0
127.345734 36.0
127.382668 44.0
127.418617 112.0
127.480782 84.0
127.498589 332.0
127.519737 60.0
127.544464 152.0
127.607407 276.0
127.641136 120.0
127.674866 80.0
127.720398 148.0
127.759026 376.0
127.842529 84.0
127.867416 192.0
127.922379 160.0
127.967407 124.0
127.999123 1148.0
128.061981 140.0
128.08902 140.0
128.134079 192.0
128.163239 216.0
128.199417 144.0
128.226456 240.0
128.262527 152.0
128.297073 220.0
128.325653 92.0
128.361725 172.0
128.382019 72.0
128.412949 152.0
128.431168 152.0
128.456451 156.0
128.494812 140.0
128.580276 196.0
128.61441 224.0
128.663116 236.0
128.770218 76.0
128.797318 152.0
128.813126 200.0
128.847015 176.0
128.875458 156.0
128.912216 300.0
128.929626 136.0
128.956955 184.0
128.991241 1332.0
129.015244 156.0
129.109222 36.0
129.143158 152.0
129.173752 172.0
129.210953 148.0
129.235901 168.0
129.269852 120.0
129.321472 184.0
129.34227 144.0
129.394226 156.0
129.487808 176.0
129.506119 144.0
129.535767 152.0
129.606689 212.0
129.613037 160.0
129.620987 164.0
129.693375 172.0
129.73465 132.0
129.768417 76.0
129.800079 152.0
129.844086 224.0
129.940552 116.0
129.994141 164.0
130.060837 184.0
130.083542 164.0
130.110779 164.0
130.142563 192.0
130.165268 120.0
130.21524 132.0
130.269745 212.0
130.294739 200.0
130.32428 160.0
130.383362 128.0
130.403809 172.0
130.431091 136.0
130.512939 116.0
130.556732 156.0
130.582123 216.0
130.604935 176.0
130.655228 184.0
130.749374 124.0
130.774567 368.0
130.822556 144.0
130.84761 176.0
130.867905 176.0
130.89978 196.0
130.925735 140.0
130.96524 216.0
130.990875 116.0
131.013657 216.0
131.059052 316.0
131.081863 172.0
131.107086 140.0
131.123032 112.0
131.154953 148.0
131.217209 180.0
131.239304 312.0
131.325958 164.0
131.379257 132.0
131.418442 148.0
131.45372 180.0
131.471985 108.0
131.528076 132.0
131.556427 120.0
131.576981 160.0
131.592957 84.0
131.632172 140.0
131.640427 132.0
131.64978 244.0
131.68367 200.0
131.750549 144.0
131.773392 104.0
131.809647 148.0
131.853378 140.0
131.896591 44.0
131.929321 124.0
131.947098 104.0
131.976822 56.0
132.019913 128.0
132.045425 212.0
132.065979 268.0
132.08725 228.0
132.109482 172.0
132.146088 124.0
132.203293 120.0
132.262802 184.0
132.301712 152.0
132.402466 104.0
132.45285 164.0
132.470322 148.0
132.549957 116.0
132.581161 144.0
132.626999 112.0
132.690414 376.0
132.735703 176.0
132.757324 200.0
132.824203 160.0
132.868103 148.0
132.961868 228.0
132.987122 132.0
133.023849 168.0
133.049103 52.0
133.074707 324.0
133.11174 316.0
133.140945 116.0
133.249695 152.0
133.283371 88.0
133.340836 208.0
133.356918 152.0
133.405197 48.0
133.446579 128.0
133.568466 200.0
133.648987 164.0
133.676041 148.0
133.693359 156.0
133.729538 176.0
133.762817 196.0
133.788986 208.0
133.805496 116.0
133.823914 112.0
133.846939 180.0
133.929855 136.0
133.962097 116.0
134.001266 172.0
134.051956 124.0
134.081924 176.0
134.130066 180.0
134.135666 364.0
134.15799 104.0
134.190262 136.0
134.222549 196.0
134.294037 120.0
134.32634 172.0
134.363251 180.0
134.38205 160.0
134.432465 128.0
134.494781 156.0
134.522491 128.0
134.549652 104.0
134.577896 128.0
134.620377 180.0
134.661026 80.0
134.691055 72.0
134.758057 148.0
134.801956 148.0
134.852798 124.0
134.882492 52.0
134.897705 160.0
134.915558 248.0
134.954041 176.0
134.989212 144.0
135.012329 68.0
135.057571 200.0
135.111618 180.0
135.13031 304.0
135.23175 124.0
135.278427 36.0
135.329361 88.0
135.350204 148.0
135.426071 184.0
135.516968 124.0
135.549698 196.0
135.580215 248.0
135.635162 108.0
135.65834 64.0
135.71167 144.0
135.740326 196.0
135.788742 188.0
135.841553 176.0
135.874023 128.0
135.941315 100.0
135.990051 72.0
136.019897 612.0
136.054947 176.0
136.143295 64.0
136.173477 116.0
136.196701 136.0
136.226913 140.0
136.248322 204.0
136.268723 184.0
136.301254 80.0
136.357025 128.0
136.375626 44.0
136.437515 96.0
136.456985 80.0
136.498062 108.0
136.524429 116.0
136.563965 56.0
136.580246 176.0
136.654312 124.0
136.669189 188.0
136.774658 204.0
136.803635 80.0
136.82692 520.0
136.843216 192.0
136.887466 188.0
136.908417 240.0
136.927048 208.0
137.016052 644.0
137.05751 156.0
137.111099 164.0
137.157715 132.0
137.195023 44.0
137.237137 236.0
137.285233 152.0
137.418915 120.0
137.461349 132.0
137.488922 104.0
137.537933 168.0
137.566101 180.0
137.607971 148.0
137.647675 240.0
137.667892 148.0
137.745758 36.0
137.783142 148.0
137.836197 192.0
137.881287 72.0
138.009857 360.0
138.037094 1956.0
138.091034 180.0
138.103821 156.0
138.162766 160.0
138.20166 132.0
138.222717 144.0
138.280304 172.0
138.323364 152.0
138.348785 148.0
138.377197 164.0
138.40062 156.0
138.424042 160.0
138.454483 152.0
138.473221 52.0
138.507767 144.0
138.576385 192.0
138.604401 136.0
138.620804 120.0
138.65596 176.0
138.701248 260.0
138.733322 172.0
138.773178 188.0
138.832245 232.0
138.908859 168.0
138.952591 348.0
138.977234 200.0
139.008621 372.0
139.02832 188.0
139.034149 144.0
139.092239 156.0
139.148575 196.0
139.200241 144.0
139.316895 132.0
139.351913 292.0
139.414017 124.0
139.458328 164.0
139.501801 164.0
139.53154 176.0
139.562103 208.0
139.580917 180.0
139.604431 180.0
139.651474 104.0
139.717346 144.0
139.756256 148.0
139.771454 192.0
139.818527 44.0
139.834991 164.0
139.863235 140.0
139.927078 136.0
139.98587 192.0
140.006866 176.0
140.035324 384.0
140.054443 100.0
140.098724 372.0
140.124649 124.0
140.188263 136.0
140.261322 128.0
140.336777 184.0
140.362701 212.0
140.381577 176.0
140.399933 148.0
140.433456 88.0
140.472382 196.0
140.479156 160.0
140.486908 248.0
140.513672 124.0
140.600983 184.0
140.638733 152.0
140.768585 112.0
140.808746 184.0
140.947342 220.0
141.016663 140.0
141.153778 160.0
141.171539 96.0
141.19635 172.0
141.243652 84.0
141.288605 116.0
141.373779 132.0
141.418747 128.0
141.489761 196.0
141.548965 116.0
141.582108 132.0
141.598694 48.0
141.615265 84.0
141.636597 164.0
141.664658 132.0
141.681595 188.0
141.766907 96.0
141.811935 152.0
141.885422 196.0
141.92099 160.0
141.970078 160.0
141.999435 96.0
142.02771 152.0
142.060913 124.0
142.079895 216.0
142.096497 132.0
142.184296 120.0
142.236435 120.0
142.317245 216.0
142.338608 128.0
142.40036 120.0
142.466873 144.0
142.512009 64.0
142.550323 164.0
142.595184 68.0
142.657135 196.0
142.72319 132.0
142.754471 116.0
142.785385 104.0
142.816315 160.0
142.832962 172.0
142.863876 144.0
142.911469 44.0
142.932877 176.0
142.961441 196.0
143.017517 192.0
143.167511 172.0
143.192368 40.0
143.218567 104.0
143.259064 132.0
143.297195 80.0
143.327103 184.0
143.397278 40.0
143.43541 140.0
143.495758 168.0
143.505707 124.0
143.572449 160.0
143.636551 216.0
143.657471 200.0
143.685822 140.0
143.726379 100.0
143.765305 192.0
143.793198 112.0
143.898239 116.0
143.960312 216.0
143.979416 136.0
143.998535 116.0
144.022415 72.0
144.081238 268.0
144.125137 176.0
144.184067 164.0
144.192764 108.0
144.218185 152.0
144.294846 188.0
144.342667 148.0
144.361572 168.0
144.428772 72.0
144.46225 316.0
144.4814 80.0
144.588562 204.0
144.61496 284.0
144.670456 132.0
144.721985 196.0
144.791229 184.0
144.883606 92.0
144.912354 132.0
144.977051 176.0
145.044159 56.0
145.088943 188.0
145.125671 68.0
145.159241 124.0
145.207214 152.0
145.255188 184.0
145.322433 136.0
145.360748 104.0
145.492157 224.0
145.521454 156.0
145.60321 56.0
145.622437 144.0
145.663269 144.0
145.689697 152.0
145.713715 260.0
145.780991 52.0
145.850693 124.0
145.922821 100.0
145.946457 212.0
145.98053 136.0
146.009384 144.0
146.047867 344.0
146.095978 164.0
146.11763 156.0
146.185013 48.0
146.217865 260.0
146.252396 220.0
146.286102 208.0
146.331833 192.0
146.519699 188.0
146.549545 104.0
146.57753 112.0
146.611954 240.0
146.657059 116.0
146.726974 308.0
146.758316 240.0
146.787247 128.0
146.823425 120.0
146.895782 136.0
146.939209 136.0
146.971573 136.0
146.994705 128.0
147.031616 192.0
147.071243 168.0
147.07869 120.0
147.158844 132.0
147.175751 128.0
147.230576 332.0
147.290115 248.0
147.324692 96.0
147.353119 212.0
147.452698 168.0
147.48436 200.0
147.539795 208.0
147.627625 144.0
147.673584 180.0
147.710342 160.0
147.767929 124.0
147.863617 192.0
147.886505 156.0
147.913132 156.0
147.942291 148.0
148.02037 396.0
148.143188 140.0
148.181946 192.0
148.21344 188.0
148.232834 156.0
148.252213 148.0
148.306046 172.0
148.320374 204.0
148.412201 200.0
148.436462 44.0
148.467987 176.0
148.504364 176.0
148.565002 120.0
148.598969 200.0
148.652908 140.0
148.67662 68.0
148.71611 224.0
148.73465 176.0
148.740219 160.0
148.75 208.0
148.801819 328.0
148.86908 144.0
148.892181 172.0
148.901764 136.0
148.918503 160.0
148.946136 244.0
148.987427 188.0
149.019012 152.0
149.04332 132.0
149.114975 176.0
149.157013 164.0
149.164825 96.0
149.187271 248.0
149.221558 176.0
149.276672 156.0
149.313156 148.0
149.395859 120.0
149.434784 140.0
149.478577 136.0
149.629486 152.0
149.64653 104.0
149.678192 164.0
149.714722 176.0
149.761978 148.0
149.785355 104.0
149.809708 156.0
149.834167 100.0
149.873062 100.0
149.894989 60.0
149.953476 148.0
149.982727 124.0
150.025131 1356.0
150.084305 156.0
150.137421 176.0
150.163162 196.0
150.179047 132.0
150.246094 156.0
150.287582 180.0
150.304031 128.0
150.346741 220.0
150.375427 204.0
150.403702 212.0
150.443771 160.0
150.465744 108.0
150.592239 200.0
150.675797 184.0
150.692886 164.0
150.736877 76.0
150.755157 232.0
150.794922 160.0
150.867981 212.0
150.90065 152.0
150.931854 240.0
151.031387 5272.0
151.068527 192.0
151.124512 128.0
151.142792 208.0
151.159927 48.0
151.259964 128.0
151.365555 148.0
151.428284 172.0
151.446793 420.0
151.465332 140.0
151.474426 176.0
151.519485 104.0
151.625229 116.0
151.769867 92.0
151.797852 192.0
151.840988 172.0
151.858154 124.0
151.941559 200.0
151.966095 112.0
152.026688 468.0
152.083893 148.0
152.100647 116.0
152.155197 164.0
152.179626 60.0
152.2061 200.0
152.260666 168.0
152.32988 228.0
152.383484 148.0
152.427719 140.0
152.456345 192.0
152.481781 52.0
152.549393 148.0
152.59433 236.0
152.610764 276.0
152.692596 172.0
152.700302 128.0
152.70842 156.0
152.747345 116.0
152.789169 164.0
152.823608 192.0
152.862686 136.0
152.9245 124.0
152.949127 108.0
152.971268 64.0
152.996552 148.0
153.024521 520.0
153.084534 172.0
153.116043 96.0
153.187988 44.0
153.21814 132.0
153.298859 220.0
153.316101 204.0
153.350616 304.0
153.397064 208.0
153.45546 144.0
153.479752 280.0
153.552795 108.0
153.589691 192.0
153.636795 152.0
153.789658 164.0
153.816177 140.0
153.86618 120.0
153.890869 172.0
153.910629 152.0
153.969727 212.0
153.973343 192.0
154.011887 184.0
154.031647 176.0
154.075943 180.0
154.118118 84.0
154.153946 176.0
154.204605 132.0
154.246628 144.0
154.308426 132.0
154.35788 92.0
154.386047 200.0
154.464233 148.0
154.561188 320.0
154.602798 112.0
154.709229 92.0
154.738937 240.0
154.805084 168.0
154.820648 332.0
154.848969 120.0
154.88504 160.0
154.98349 180.0
155.010101 228.0
155.06192 324.0
155.117981 120.0
155.140289 200.0
155.187393 160.0
155.204758 140.0
155.2397 292.0
155.272995 232.0
155.302902 140.0
155.336197 160.0
155.363892 176.0
155.403183 148.0
155.539688 52.0
155.568344 148.0
155.592285 188.0
155.646439 128.0
155.668793 224.0
155.706299 192.0
155.758194 48.0
155.894852 160.0
155.955429 160.0
155.988846 152.0
156.021622 152.0
156.183395 140.0
156.210815 136.0
156.255402 200.0
156.332535 184.0
156.424957 160.0
156.531143 164.0
156.675125 136.0
156.76181 96.0
156.808228 192.0
156.845612 184.0
156.878021 124.0
156.900452 108.0
156.936401 172.0
156.96286 136.0
157.022644 188.0
157.087494 148.0
157.17981 164.0
157.199768 136.0
157.2397 168.0
157.262161 100.0
157.304993 104.0
157.382004 44.0
157.406967 140.0
157.517563 344.0
157.574326 104.0
157.629288 308.0
157.64679 140.0
157.664276 148.0
157.719269 212.0
157.736771 124.0
157.826767 176.0
157.934311 168.0
157.966827 116.0
158.031876 128.0
158.093536 136.0
158.119461 120.0
158.153229 308.0
158.234604 132.0
158.264648 180.0
158.284683 76.0
158.339783 172.0
158.379852 120.0
158.41243 148.0
158.444992 108.0
158.481796 128.0
158.503784 164.0
158.542709 232.0
158.572784 224.0
158.595352 140.0
158.698135 112.0
158.718185 132.0
158.765442 152.0
158.808472 232.0
158.918854 80.0
159.019241 120.0
159.052261 156.0
159.107101 140.0
159.167358 160.0
159.265442 212.0
159.348755 144.0
159.421082 180.0
159.444687 152.0
159.478882 88.0
159.514069 140.0
159.602921 212.0
159.657394 92.0
159.682541 40.0
159.701431 196.0
159.752975 160.0
159.788193 144.0
159.813354 88.0
159.88176 188.0
159.924088 76.0
159.960388 180.0
159.987015 152.0
160.059708 740.0
160.089462 140.0
160.106186 184.0
160.13559 232.0
160.164978 144.0
160.20108 164.0
160.247635 336.0
160.30275 148.0
160.377472 64.0
160.455627 168.0
160.483353 156.0
160.509277 152.0
160.579178 172.0
160.680801 184.0
160.700272 156.0
160.755783 88.0
160.790787 92.0
160.848785 180.0
160.929962 88.0
160.960266 100.0
161.023392 176.0
161.074142 268.0
161.096939 180.0
161.126968 112.0
161.207825 116.0
161.273529 60.0
161.33168 256.0
161.425232 260.0
161.463165 172.0
161.503403 180.0
161.614944 144.0
161.731354 140.0
161.753693 156.0
161.785339 208.0
161.814896 52.0
161.87851 196.0
161.905197 164.0
162.002304 92.0
162.02005 68.0
162.070892 180.0
162.10112 160.0
162.139145 120.0
162.242462 184.0
162.247345 140.0
162.260239 140.0
162.282532 220.0
162.325653 208.0
162.35936 204.0
162.379227 196.0
162.438339 136.0
162.502075 228.0
162.59819 344.0
162.648956 128.0
162.704803 64.0
162.775894 160.0
162.797073 284.0
162.816528 168.0
162.862244 168.0
162.948624 104.0
162.981659 156.0
163.001984 96.0
163.03212 500.0
163.105301 176.0
163.240845 160.0
163.263824 192.0
163.322327 140.0
163.356796 144.0
163.426102 192.0
163.461349 216.0
163.515701 132.0
163.58696 180.0
163.63414 212.0
163.679672 88.0
163.719376 148.0
163.738098 204.0
163.775406 52.0
163.821686 328.0
163.944397 196.0
163.966492 180.0
164.00473 140.0
164.041901 392.0
164.0914 168.0
164.1577 136.0
164.194031 180.0
164.231659 140.0
164.295441 156.0
164.373352 104.0
164.380539 56.0
164.388687 124.0
164.483215 140.0
164.603455 112.0
164.607773 76.0
164.61821 140.0
164.645142 192.0
164.745117 252.0
164.822815 140.0
164.848297 152.0
164.881973 220.0
164.89534 60.0
164.905029 216.0
164.923279 176.0
164.967087 220.0
165.000992 152.0
165.047226 23484.0
165.09436 340.0
165.133835 212.0
165.172424 148.0
165.205795 140.0
165.316635 152.0
165.329834 92.0
165.338898 192.0
165.361008 344.0
165.407074 188.0
165.434204 128.0
165.441574 176.0
165.454086 88.0
165.458817 132.0
165.501968 64.0
165.563263 120.0
165.586319 124.0
165.606812 160.0
165.640106 112.0
165.672318 188.0
165.69902 68.0
165.722092 160.0
165.742523 160.0
165.796402 172.0
165.814346 68.0
165.847656 140.0
165.880981 44.0
165.904022 172.0
165.978409 160.0
166.050507 2104.0
166.097992 204.0
166.131821 212.0
166.155396 152.0
166.237961 156.0
166.268295 80.0
166.388947 144.0
166.42569 192.0
166.455704 184.0
166.481384 140.0
166.581558 156.0
166.62355 208.0
166.666336 292.0
166.692947 124.0
166.734039 164.0
166.753708 180.0
166.792419 204.0
166.833725 124.0
166.856537 120.0
166.879684 72.0
166.905396 104.0
166.933929 124.0
167.039612 1000.0
167.109772 140.0
167.139465 172.0
167.180634 104.0
167.203796 200.0
167.238373 220.0
167.247192 56.0
167.256592 228.0
167.275879 124.0
167.304199 112.0
167.337189 348.0
167.390762 184.0
167.412338 136.0
167.432693 124.0
167.472321 152.0
167.507629 236.0
167.721878 144.0
167.878784 40.0
167.901993 176.0
167.968674 108.0
167.986069 176.0
168.022568 172.0
168.045227 92.0
168.100647 152.0
168.131851 212.0
168.205017 168.0
168.25293 168.0
168.296509 128.0
168.320679 184.0
168.405502 188.0
168.454361 184.0
168.47113 160.0
168.535446 156.0
168.545532 196.0
168.637833 192.0
168.676605 164.0
168.706924 176.0
168.746399 140.0
168.774841 180.0
168.865356 104.0
168.897507 140.0
168.92485 116.0
168.945557 108.0
169.003067 156.0
169.046326 156.0
169.078766 116.0
169.1241 172.0
169.173401 176.0
169.228226 180.0
169.307938 196.0
169.358093 172.0
169.476318 148.0
169.600708 156.0
169.646835 116.0
169.662018 264.0
169.738068 192.0
169.802887 180.0
169.812378 176.0
169.819534 292.0
169.87558 152.0
169.911896 104.0
169.961197 32.0
170.028671 140.0
170.160736 184.0
170.267517 136.0
170.361038 140.0
170.454575 124.0
170.485748 112.0
170.503937 156.0
170.581314 156.0
170.618317 272.0
170.680725 48.0
170.701523 152.0
170.744598 172.0
170.904419 164.0
170.939468 196.0
171.024124 196.0
171.060577 92.0
171.081406 220.0
171.117844 176.0
171.141281 72.0
171.182953 148.0
171.214203 128.0
171.26889 196.0
171.310577 156.0
171.358582 272.0
171.383514 140.0
171.511215 124.0
171.582932 292.0
171.632614 200.0
171.676071 284.0
171.722427 132.0
171.778595 232.0
171.847641 164.0
171.905045 252.0
171.972961 196.0
171.998077 56.0
172.022858 200.0
172.06543 288.0
172.234009 84.0
172.254913 156.0
172.286255 108.0
172.351578 52.0
172.466568 120.0
172.519165 204.0
172.544998 100.0
172.583115 152.0
172.656921 276.0
172.691437 116.0
172.796082 148.0
172.837936 184.0
172.856262 140.0
172.890274 232.0
172.921692 88.0
172.963562 108.0
172.984512 92.0
173.026398 188.0
173.07132 128.0
173.175659 260.0
173.269958 296.0
173.296158 360.0
173.33284 192.0
173.43219 204.0
173.477005 80.0
173.518951 124.0
173.558273 216.0
173.600754 184.0
173.621216 180.0
173.645691 204.0
173.678909 236.0
173.707764 52.0
173.762863 168.0
173.80365 140.0
173.819122 136.0
173.854065 196.0
173.970047 144.0
174.002502 104.0
174.038452 220.0
174.100937 156.0
174.106369 176.0
174.117157 132.0
174.12738 172.0
174.161896 112.0
174.25647 240.0
174.305328 148.0
174.367966 144.0
174.412704 408.0
174.511414 204.0
174.606079 128.0
174.627121 148.0
174.648163 216.0
174.671844 52.0
174.69809 164.0
174.789352 244.0
174.848129 80.0
174.893295 148.0
174.945526 208.0
175.030746 740.0
175.05481 320.0
175.090347 192.0
175.248398 120.0
175.306366 68.0
175.340637 140.0
175.360626 164.0
175.393341 56.0
175.462982 184.0
175.478622 116.0
175.514618 100.0
175.567368 212.0
175.590149 188.0
175.644867 136.0
175.719849 144.0
175.792816 140.0
175.844391 216.0
175.88504 140.0
175.923569 116.0
175.97374 196.0
176.014145 128.0
176.080551 120.0
176.113708 68.0
176.200882 92.0
176.259003 148.0
176.37001 140.0
176.411545 168.0
176.444031 168.0
176.549789 28.0
176.64389 160.0
176.671906 204.0
176.755814 192.0
176.787888 148.0
176.806412 160.0
176.999664 148.0
177.039398 140.0
177.074966 164.0
177.100311 108.0
177.132812 88.0
177.172348 184.0
177.248672 160.0
177.295532 140.0
177.34407 264.0
177.405472 176.0
177.487228 200.0
177.569931 220.0
177.65863 180.0
177.709991 180.0
177.802917 132.0
177.853134 100.0
177.878418 136.0
177.978134 156.0
178.044266 124.0
178.105606 152.0
178.124207 136.0
178.198593 168.0
178.26236 160.0
178.28096 88.0
178.325333 104.0
178.333298 164.0
178.371338 176.0
178.389938 368.0
178.43248 208.0
178.480331 156.0
178.56543 180.0
178.584045 140.0
178.607986 144.0
178.637253 168.0
178.68248 160.0
178.706421 48.0
178.768372 156.0
178.850128 152.0
178.895386 168.0
178.937592 80.0
179.023193 196.0
179.087112 160.0
179.114197 168.0
179.156372 152.0
179.199646 164.0
179.273605 124.0
179.324249 172.0
179.425552 172.0
179.484909 120.0
179.510223 180.0
179.542877 112.0
179.617737 244.0
179.645325 176.0
179.716263 128.0
179.757996 156.0
179.781464 176.0
179.804321 84.0
179.88179 188.0
179.937805 240.0
179.975174 140.0
180.034393 116.0
180.054947 156.0
180.150253 188.0
180.154846 104.0
180.215576 124.0
180.282379 248.0
180.325134 236.0
180.391205 168.0
180.425095 208.0
180.456131 84.0
180.504974 180.0
180.602631 164.0
180.662064 212.0
180.688812 132.0
180.714767 120.0
180.787827 48.0
180.872345 204.0
180.905594 160.0
180.937714 80.0
180.964493 188.0
180.992676 152.0
181.035492 164.0
181.074295 108.0
181.093033 272.0
181.119827 100.0
181.138565 128.0
181.184113 116.0
181.216064 212.0
181.245743 156.0
181.275223 92.0
181.37706 136.0
181.485779 160.0
181.536911 136.0
181.548523 84.0
181.558334 216.0
181.578156 164.0
181.596939 192.0
181.645218 168.0
181.706924 180.0
181.765945 156.0
181.830353 48.0
181.959213 180.0
181.988739 168.0
182.012909 72.0
182.045135 184.0
182.06662 244.0
182.117645 76.0
182.147186 192.0
182.228256 116.0
182.265717 172.0
182.292282 132.0
182.332596 132.0
182.371231 180.0
182.397095 272.0
182.481903 172.0
182.507324 216.0
182.54599 148.0
182.690216 156.0
182.755341 176.0
182.781693 200.0
182.846283 176.0
182.889343 156.0
182.951263 160.0
183.053574 160.0
183.093964 124.0
183.142456 64.0
183.169388 188.0
183.250214 196.0
183.271301 160.0
183.31488 44.0
183.349915 108.0
183.419998 196.0
183.50087 128.0
183.525131 124.0
183.546707 152.0
183.632874 168.0
183.654587 188.0
183.70314 104.0
183.746307 100.0
183.829956 76.0
183.908218 156.0
183.951416 120.0
183.989197 176.0
184.022705 128.0
184.056122 148.0
184.108017 52.0
184.145828 60.0
184.175537 208.0
184.224167 156.0
184.248474 104.0
184.280365 212.0
184.437637 192.0
184.488998 212.0
184.550568 128.0
184.607849 184.0
184.632248 168.0
184.654968 160.0
184.69722 72.0
184.737808 112.0
184.759445 176.0
184.792755 184.0
184.84874 128.0
184.869644 108.0
184.895157 128.0
184.954285 120.0
185.003006 152.0
185.057861 184.0
185.092361 172.0
185.146515 156.0
185.173599 180.0
185.207138 168.0
185.244034 132.0
185.297562 216.0
185.32666 96.0
185.436417 220.0
185.482498 224.0
185.533997 136.0
185.563828 120.0
185.601791 64.0
185.645172 48.0
185.66687 132.0
185.727264 152.0
185.816071 144.0
185.864899 80.0
185.89476 192.0
185.91954 88.0
185.951752 112.0
185.991562 156.0
186.028839 440.0
186.11058 244.0
186.218094 164.0
186.242264 200.0
186.26944 64.0
186.326477 140.0
186.361801 60.0
186.402557 144.0
186.444397 124.0
186.527588 132.0
186.586426 168.0
186.63089 124.0
186.731522 60.0
186.77655 164.0
186.818558 268.0
186.846222 168.0
186.962769 192.0
187.040009 300.0
187.150604 188.0
187.205063 208.0
187.235016 120.0
187.254089 144.0
187.3181 164.0
187.393021 296.0
187.41481 124.0
187.466583 176.0
187.521103 148.0
187.545624 80.0
187.576523 252.0
187.632004 128.0
187.660126 128.0
187.704117 152.0
187.747391 160.0
187.908325 44.0
187.954712 196.0
188.002838 188.0
188.107544 88.0
188.15004 180.0
188.189453 112.0
188.238602 208.0
188.263443 168.0
188.306885 60.0
188.342392 140.0
188.415817 168.0
188.51178 148.0
188.533646 168.0
188.662109 168.0
188.716797 152.0
188.774216 192.0
188.793365 48.0
188.91098 172.0
188.971161 212.0
189.051514 212.0
189.096725 140.0
189.15831 168.0
189.19928 80.0
189.283203 132.0
189.350555 236.0
189.398239 172.0
189.458496 180.0
189.49411 164.0
189.564987 116.0
189.592758 68.0
189.614685 56.0
189.646408 160.0
189.668167 188.0
189.736313 140.0
189.748428 168.0
189.776428 212.0
189.839493 196.0
189.89357 252.0
189.95195 208.0
189.98761 120.0
190.015045 124.0
190.056198 72.0
190.101501 264.0
190.152496 196.0
190.187927 140.0
190.212646 116.0
190.259308 132.0
190.293335 192.0
190.319717 196.0
190.375 272.0
190.477478 244.0
190.517456 124.0
190.544418 192.0
190.583878 140.0
190.634674 220.0
190.671341 132.0
190.698822 92.0
190.772415 176.0
190.822708 184.0
190.85553 180.0
190.919724 260.0
190.963272 176.0
190.994827 196.0
191.012756 148.0
191.059052 124.0
191.086349 252.0
191.119583 76.0
191.155365 100.0
191.177277 112.0
191.182007 76.0
191.232422 128.0
191.270599 156.0
191.277023 80.0
191.318405 152.0
191.342804 164.0
191.381073 104.0
191.411621 320.0
191.50058 152.0
191.524719 228.0
191.560318 160.0
191.595901 88.0
191.617477 164.0
191.643021 152.0
191.67305 196.0
191.713379 424.0
191.740738 164.0
191.764069 168.0
191.808365 280.0
191.845627 236.0
191.870438 216.0
191.90007 112.0
191.965256 136.0
191.98732 116.0
192.01387 248.0
192.031952 320.0
192.050385 184.0
192.0811 160.0
192.10466 148.0
192.15007 144.0
192.175873 148.0
192.195267 136.0
192.251877 76.0
192.265717 88.0
192.278473 216.0
192.303467 328.0
192.334152 300.0
192.381897 76.0
192.403717 220.0
192.426773 280.0
192.451935 216.0
192.474655 124.0
192.492172 300.0
192.521942 172.0
192.540634 420.0
192.571579 344.0
192.592789 256.0
192.646927 392.0
192.712433 392.0
192.785706 328.0
192.791718 420.0
192.80896 508.0
192.816635 372.0
192.833282 580.0
192.845047 640.0
192.851959 528.0
192.893433 404.0
192.948593 436.0
192.976227 608.0
193.008133 1076.0
193.043671 447980.0
193.133041 340.0
193.239807 480.0
193.268661 92.0
193.300354 548.0
193.352158 480.0
193.388214 460.0
193.432541 252.0
193.465561 832.0
193.499588 10352.0
193.537323 364.0
193.56572 264.0
193.591446 232.0
193.602707 200.0
193.613922 204.0
193.689301 296.0
193.698624 228.0
193.737137 296.0
193.761185 320.0
193.788788 292.0
193.823059 172.0
193.868805 232.0
193.909912 116.0
193.934341 300.0
193.976303 388.0
194.000076 336.0
194.045563 92264.0
194.104568 136.0
194.125366 212.0
194.159302 256.0
194.178238 332.0
194.206528 112.0
194.237442 152.0
194.259369 204.0
194.320862 132.0
194.343567 40.0
194.363892 60.0
194.404587 200.0
194.436295 248.0
194.466415 160.0
194.521515 80.0
194.533005 184.0
194.577652 128.0
194.61644 124.0
194.640594 288.0
194.65686 144.0
194.684601 76.0
194.712463 56.0
194.731445 76.0
194.77327 100.0
194.834259 96.0
194.843842 108.0
194.861618 216.0
194.872986 176.0
194.887497 240.0
194.921921 336.0
194.942108 300.0
194.984741 168.0
195.039108 35104.0
195.084488 72.0
195.117035 216.0
195.138596 172.0
195.168884 100.0
195.21225 176.0
195.222931 280.0
195.234909 124.0
195.242096 160.0
195.270264 216.0
195.29924 492.0
195.342514 360.0
195.374512 256.0
195.402496 172.0
195.409897 268.0
195.432892 236.0
195.436417 272.0
195.448166 160.0
195.457596 268.0
195.499542 416.0
195.503525 216.0
195.516266 196.0
195.524887 276.0
195.559387 444.0
195.578278 220.0
195.611557 264.0
195.636505 340.0
195.67984 132.0
195.688232 132.0
195.71875 44.0
195.742447 132.0
195.776932 240.0
195.803619 104.0
195.817337 52.0
195.822174 152.0
195.865402 68.0
195.888931 120.0
195.931396 60.0
195.96109 40.0
196.041321 2988.0
196.125305 80.0
196.159454 76.0
196.186646 140.0
196.209198 172.0
196.236816 80.0
196.25351 128.0
196.295334 100.0
196.349304 116.0
196.412125 268.0
196.469009 168.0
196.508972 96.0
196.527603 164.0
196.575653 116.0
196.617615 108.0
196.64386 88.0
196.680908 176.0
196.72937 68.0
196.762878 88.0
196.799164 84.0
196.832672 36.0
196.913055 72.0
196.93512 68.0
196.980698 84.0
197.003052 96.0
197.039322 272.0
197.11644 84.0
197.139969 52.0
197.162323 52.0
197.199982 84.0
197.229279 88.0
197.282516 144.0
197.337372 100.0
197.40274 48.0
197.450165 88.0
197.474182 132.0
197.502213 88.0
197.525803 96.0
197.560562 76.0
197.613113 152.0
197.643311 52.0
197.746857 72.0
197.836426 52.0
197.867233 80.0
197.970825 72.0
198.01004 88.0
198.068863 56.0
198.155701 52.0
198.190872 116.0
198.262192 28.0
198.293015 116.0
198.326645 56.0
198.38031 28.0
198.407944 48.0
198.427567 32.0
198.478043 52.0
198.604248 52.0
198.738907 152.0
198.761353 112.0
198.793045 68.0
198.96344 80.0
198.999939 64.0
199.255524 56.0
199.339813 84.0
199.460678 28.0
199.663116 48.0
199.837524 100.0
199.868469 84.0
199.908615 76.0
199.950089 72.0
200.026077 52.0
200.068314 96.0
200.096466 68.0
200.124619 64.0
200.186569 36.0
200.318954 72.0
200.398026 56.0
200.519012 44.0
200.569748 80.0
200.769928 148.0
200.950455 52.0
201.07843 92.0
201.193176 172.0
201.354126 68.0
201.430389 56.0
201.55188 44.0
201.571655 80.0
201.59314 96.0
201.676224 152.0
201.816452 60.0
201.860001 76.0
201.913727 104.0
202.140045 100.0
202.182495 88.0
202.218201 52.0
202.258926 44.0
202.321198 36.0
202.539246 60.0
202.567581 80.0
202.601578 68.0
202.873642 80.0
202.924667 52.0
202.992722 116.0
203.065216 156.0
203.103333 104.0
203.245178 52.0
203.33316 128.0
203.452377 52.0
203.685242 100.0
203.7108 48.0
203.775055 88.0
203.995422 104.0
204.040466 92.0
204.072662 184.0
204.125778 60.0
204.253754 112.0
204.309723 148.0
204.401703 88.0
204.432999 108.0
204.477692 80.0
204.60379 52.0
204.657883 64.0
204.677811 108.0
204.715546 80.0
204.740463 100.0
204.820221 32.0
204.854401 64.0
204.881683 132.0
204.91423 176.0
204.998489 116.0
205.051346 104.0
205.165024 88.0
205.196396 80.0
205.293335 36.0
205.361786 48.0
205.547226 116.0
205.570053 164.0
205.698502 128.0
205.905136 88.0
205.941208 48.0
206.121201 108.0
206.156296 112.0
206.224075 68.0
206.246445 92.0
206.306976 92.0
206.344147 48.0
206.384964 104.0
206.447083 72.0
206.472824 64.0
206.535751 44.0
206.57579 108.0
206.701691 116.0
206.824753 56.0
206.936401 104.0
207.03949 52.0
207.076721 48.0
207.145462 44.0
207.176971 100.0
207.197037 52.0
207.231415 108.0
207.260071 48.0
207.34407 88.0
207.380432 52.0
207.406219 156.0
207.534607 128.0
207.718781 36.0
207.763046 56.0
207.823975 48.0
207.914688 72.0
208.126328 96.0
208.439423 52.0
208.53714 36.0
208.560135 84.0
208.810272 40.0
209.037552 60.0
209.135406 76.0
209.239044 72.0
209.426224 52.0
209.719482 36.0
210.127563 124.0
210.337402 116.0
210.507751 92.0
210.69838 92.0
210.72728 68.0
210.937195 120.0
211.059677 48.0
211.302643 48.0
211.418381 92.0
211.456009 80.0
212.299088 88.0
212.449905 72.0
212.685211 96.0
212.78656 72.0
213.460678 88.0
213.71666 48.0
214.127121 56.0
214.17955 40.0
214.234909 96.0
214.354355 72.0
214.820251 76.0
214.969666 40.0
215.036789 108.0
215.474823 60.0
216.018585 80.0
216.498611 84.0
216.952774 76.0
217.008484 124.0
217.105255 76.0
217.207901 96.0
217.695114 64.0
218.087402 184.0
218.12114 144.0
218.162308 84.0
218.397552 64.0
218.659409 96.0
219.451843 56.0
220.518829 92.0
220.603256 140.0
220.668304 120.0
221.725082 60.0
221.891083 112.0
221.991913 44.0
222.069077 236.0
222.247009 44.0
222.362747 48.0
222.903244 128.0
223.066406 188.0
223.43251 176.0
223.480118 104.0
224.743469 36.0
225.125565 116.0
225.253998 84.0
225.516953 128.0
225.967789 84.0
226.163025 164.0
226.863983 96.0
226.884979 148.0
227.06189 120.0
228.133865 80.0
228.65123 48.0
230.13739 92.0
230.430374 72.0
231.013855 188.0
232.960098 52.0
233.07251 120.0
233.382553 156.0
233.966721 72.0
234.073288 164.0
234.094604 120.0
234.902298 68.0
235.073166 64.0
235.525024 188.0
236.061691 128.0
236.7668 160.0
238.567963 108.0
238.614075 152.0
239.056839 140.0
240.045883 68.0
240.070541 128.0
240.548782 212.0
240.622879 112.0
241.07283 256.0
241.107849 76.0
241.243851 40.0
241.345886 60.0
241.367538 156.0
241.404633 128.0
242.085464 124.0
242.488205 84.0
243.304031 80.0
244.382523 84.0
245.064407 180.0
246.062485 136.0
246.128052 92.0
246.693558 72.0
247.081345 104.0
247.194 76.0
248.055298 32.0
248.422211 52.0
248.591644 136.0
249.115982 52.0
249.260513 76.0
249.335938 172.0
250.09079 128.0
250.944519 176.0
253.463715 136.0
253.536606 52.0
253.650711 84.0
254.088348 96.0
256.569031 116.0
257.104919 136.0
257.692474 72.0
258.063232 60.0
259.350189 88.0
259.532928 120.0
259.850464 124.0
260.900665 80.0
261.032501 116.0
262.25589 56.0
263.330353 72.0
263.921722 72.0
264.510559 140.0
265.091309 204.0
266.122375 68.0
266.683838 72.0
266.96994 96.0
267.109802 136.0
267.588196 76.0
268.164795 40.0
268.588654 112.0
268.862732 72.0
269.107574 80.0
269.737366 128.0
269.809998 64.0
270.107605 152.0
270.20575 168.0
270.395538 116.0
270.988251 232.0
271.043945 160.0
272.119812 120.0
273.11557 56.0
273.339264 60.0
274.093353 44.0
275.964905 64.0
276.193085 156.0
276.365112 64.0
276.411438 124.0
276.653076 72.0
276.742462 136.0
276.878235 180.0
277.245972 52.0
277.58078 144.0
277.952332 92.0
278.672852 132.0
279.121582 96.0
279.850281 60.0
280.689972 96.0
281.360626 176.0
282.527008 48.0
283.652222 60.0
284.218994 108.0
284.25592 56.0
285.471985 100.0
285.690613 152.0
285.818481 132.0
285.899231 128.0
286.137207 392.0
286.276276 220.0
286.572693 84.0
286.815338 108.0
287.145264 132.0
287.523651 128.0
287.577667 160.0
288.692566 56.0
288.895508 68.0
288.96994 124.0
289.074829 140.0
289.792694 40.0
290.016357 48.0
290.993378 116.0
291.023926 148.0
291.482513 176.0
292.438141 64.0
292.713898 68.0
293.255585 116.0
293.354462 80.0
293.743195 64.0
293.900146 72.0
294.436096 108.0
295.32132 152.0
296.115387 120.0
296.718475 40.0
296.985962 64.0
297.586517 188.0
297.820068 80.0
298.135284 492.0
299.14212 292.0
299.457275 268.0
300.160339 36.0
300.484558 64.0
301.275177 60.0
301.651855 80.0
301.814331 92.0
302.734802 64.0
302.956482 164.0
304.559143 100.0
304.868347 40.0
305.508118 88.0
305.70993 68.0
306.120728 180.0
306.218231 100.0
306.793182 88.0
306.821075 76.0
306.988464 128.0
307.403809 120.0
307.623474 132.0
307.815491 128.0
309.816162 112.0
310.166595 112.0
312.152771 388.0
312.994812 60.0
313.1427 124.0
313.209625 132.0
314.531952 128.0
315.789856 64.0
315.885345 48.0
317.571442 80.0
318.526276 76.0
319.091339 84.0
320.005737 92.0
320.237213 56.0
320.753876 92.0
320.996307 32.0
321.734894 80.0
322.084839 112.0
322.352814 40.0
322.982056 96.0
323.16452 64.0
323.407867 112.0
323.454407 136.0
323.636993 40.0
323.712189 96.0
324.088287 48.0
326.090759 64.0
326.202179 84.0
326.763214 112.0
327.043915 44.0
327.479584 104.0
329.499725 100.0
329.796051 116.0
330.490387 76.0
332.214966 76.0
332.283905 28.0
332.625031 136.0
333.718567 144.0
334.133179 192.0
335.750519 120.0
336.783417 96.0
337.810577 48.0
338.476715 96.0
338.905273 84.0
341.206573 96.0
342.071106 120.0
342.124451 228.0
342.347229 72.0
342.489136 128.0
342.597717 120.0
342.722961 76.0
343.168976 84.0
343.357025 40.0
343.475067 132.0
344.117218 160.0
344.205811 76.0
344.357239 72.0
344.822784 52.0
345.658569 148.0
345.725189 100.0
345.776978 200.0
346.55835 140.0
346.910431 108.0
347.003143 76.0
348.149719 144.0
348.907745 76.0
349.220123 152.0
349.607056 136.0
349.726135 120.0
349.856445 32.0
349.930878 52.0
350.17807 224.0
350.862335 64.0
350.985352 68.0
352.137665 124.0
353.933594 108.0
354.177032 180.0
355.061584 152.0
355.147827 28.0
355.70694 140.0
357.435791 96.0
357.755737 132.0
357.823486 68.0
358.565582 128.0
359.278259 92.0
360.165375 136.0
361.250275 88.0
361.833069 112.0
362.829498 120.0
363.144226 104.0
363.561584 56.0
363.865234 104.0
364.005737 124.0
364.457764 220.0
365.716553 76.0
365.868835 40.0
365.944977 116.0
365.975433 40.0
366.245819 200.0
367.000397 64.0
367.1987 128.0
367.633636 88.0
370.646973 92.0
372.02005 108.0
372.692169 68.0
372.872803 124.0
372.980408 164.0
373.341827 40.0
374.723755 168.0
374.777679 104.0
374.831635 108.0
375.163086 136.0
376.139069 192.0
376.498169 56.0
377.236176 156.0
377.452667 68.0
377.638306 56.0
378.060028 128.0
378.170471 200.0
381.247833 132.0
382.188904 88.0
382.256165 120.0
382.457428 152.0
382.963623 52.0
383.119446 120.0
385.315918 128.0
385.65979 120.0
387.420715 140.0
388.212494 180.0
388.30661 84.0
389.295593 60.0
389.912384 220.0
390.79718 140.0
392.538239 164.0
393.015045 160.0
393.129974 116.0
394.318726 36.0
395.24411 164.0
395.394501 140.0
396.420197 160.0
397.082275 40.0
397.541718 84.0
398.344513 100.0
399.210999 96.0
400.038574 100.0
400.177917 48.0
400.552277 136.0
403.053802 68.0
403.391785 92.0
403.4375 128.0
403.577423 64.0
405.398773 72.0
406.525665 96.0
406.553741 96.0
406.589874 76.0
406.862823 144.0
407.549622 48.0
407.802795 120.0
409.464478 128.0
410.399414 40.0
413.626984 40.0
414.24292 76.0
415.065643 60.0
415.154877 80.0
415.30899 232.0
415.588928 112.0
416.205902 72.0
417.091553 280.0
417.551025 92.0
417.876434 84.0
418.124664 160.0
418.409607 80.0
418.69873 72.0
419.937744 40.0
424.124725 124.0
426.246521 80.0
429.758911 172.0
430.340881 204.0
430.915009 68.0
431.02243 52.0
432.349884 76.0
432.416107 196.0
434.342804 44.0
434.436615 72.0
435.463531 88.0
437.176392 132.0
438.267426 140.0
438.817596 48.0
439.255493 64.0
440.415924 136.0
440.520355 64.0
440.69165 196.0
441.138855 140.0
441.778687 64.0
441.899994 132.0
442.159454 84.0
442.39386 64.0
443.315338 76.0
443.462006 120.0
443.877075 84.0
444.443329 28.0
444.934418 56.0
446.985565 96.0
448.147736 140.0
449.03299 136.0
449.674316 180.0
449.838928 132.0
449.9487 112.0
450.168243 156.0
450.202026 88.0
450.920258 124.0
451.173889 164.0
453.349518 172.0
453.780365 152.0
456.648315 96.0
457.533417 96.0
457.882599 52.0
458.935181 88.0
460.561157 144.0
461.176453 76.0
461.847748 124.0
462.249908 152.0
462.956268 156.0
463.898895 112.0
464.413452 124.0
466.470276 96.0
466.758331 40.0
467.928711 68.0
468.088013 108.0
468.26889 72.0
468.400848 88.0
469.152252 76.0
470.239258 52.0
470.580292 104.0
471.206573 60.0
471.344849 184.0
471.396698 148.0
471.984589 92.0
472.161896 112.0
472.3349 80.0
472.650726 56.0
472.702667 128.0
472.945007 56.0
473.737457 292.0
474.053741 96.0
474.738708 124.0
474.769073 120.0
474.847137 160.0
475.176819 76.0
475.723633 88.0
475.871246 56.0
475.945068 116.0
476.057983 60.0
476.159058 308.0
476.553162 88.0
476.60965 116.0
476.640076 136.0
477.025604 96.0
477.083405 64.0
477.172089 140.0
477.283386 84.0
477.318176 120.0
477.377289 152.0
477.42691 200.0
477.579132 116.0
477.64209 92.0
477.720612 176.0
477.833588 220.0
477.890076 228.0
477.950226 172.0
477.996796 96.0
478.078094 368.0
478.175293 30360.0
478.260498 236.0
478.290558 140.0
478.306091 60.0
478.324829 128.0
478.41272 92.0
478.451263 116.0
478.519104 84.0
478.593445 160.0
478.645386 52.0
478.680206 92.0
478.760284 136.0
478.830353 144.0
478.863678 32.0
478.922241 140.0
478.979187 168.0
479.064545 140.0
479.176849 12316.0
479.303131 24.0
479.337982 292.0
479.412567 140.0
479.486389 76.0
479.535675 112.0
479.646698 72.0
479.738068 152.0
479.769501 72.0
479.891571 48.0
479.922089 216.0
479.985931 88.0
480.015442 176.0
480.174835 3052.0
480.270996 32.0
480.305878 136.0
480.412964 44.0
480.429474 68.0
480.456879 56.0
480.532745 36.0
480.663635 32.0
480.716003 80.0
480.86438 48.0
480.914703 128.0
480.956055 60.0
480.993134 88.0
481.01239 44.0
481.023987 68.0
481.073914 40.0
481.180481 516.0
481.322784 64.0
481.449402 68.0
481.615387 72.0
481.698364 164.0
481.768005 132.0
481.846924 72.0
481.947388 28.0
482.017303 124.0
482.08725 84.0
482.135071 156.0
482.184174 196.0
482.370331 104.0
482.419434 48.0
482.527008 92.0
482.699249 100.0
482.782349 84.0
482.852295 36.0
482.900421 88.0
482.974792 104.0
483.181885 76.0
483.224121 36.0
483.841248 80.0
483.976959 48.0
484.358002 52.0
484.419312 44.0
484.467499 64.0
484.704102 88.0
485.260773 68.0
485.484406 32.0
485.852844 108.0
486.822906 52.0
487.59613 60.0
487.666443 60.0
488.106079 96.0
488.14566 36.0
488.427124 44.0
489.985535 40.0
490.624573 76.0
490.690704 76.0
491.180206 76.0
491.855347 88.0
492.416107 60.0
492.617279 44.0
494.047211 116.0
495.517059 32.0
496.350372 124.0
496.439056 76.0
496.79834 48.0
500.843567 48.0
503.117828 44.0
503.332153 64.0
503.394653 48.0
505.222778 88.0
505.99704 56.0
506.211945 68.0
507.363495 84.0
507.524902 48.0
508.161804 96.0
509.167328 68.0
509.71991 88.0
520.584351 120.0
524.164429 132.0
530.490051 56.0
531.343079 124.0
536.669189 92.0
536.959717 128.0
550.394836 52.0
554.30072 36.0
557.097107 48.0
557.440125 76.0
564.48761 92.0
568.049316 100.0
568.19165 100.0
570.100464 72.0
571.760254 68.0
573.227051 108.0
574.815002 36.0
575.655151 96.0
576.142334 64.0
576.510254 88.0
583.479797 100.0
583.551941 164.0
587.313049 72.0
589.190918 96.0
595.056091 40.0
596.498962 48.0
599.16095 132.0
614.961121 40.0
615.914124 72.0
618.505188 108.0
621.950195 64.0
622.054443 64.0
622.089172 60.0
624.330078 76.0
627.990723 100.0
634.316101 96.0
638.976562 112.0
641.766907 40.0
646.869629 56.0
648.100281 72.0
648.373962 112.0
650.417969 48.0
650.463684 76.0
652.424561 108.0
654.240784 80.0
656.258362 52.0
659.448975 88.0
660.880859 40.0
662.44751 64.0
665.206482 80.0
669.582214 60.0
670.334351 48.0
672.237244 72.0
680.498596 68.0
680.602478 56.0
681.854431 88.0
691.110779 96.0
695.46582 172.0
702.332458 80.0
707.553589 68.0
709.964539 68.0
712.119324 48.0
716.246948 56.0
716.433411 104.0
719.825623 88.0
719.932434 216.0
721.145264 160.0
722.50885 248.0
725.550842 140.0
732.795776 36.0
733.949219 72.0
736.707214 116.0
741.116638 52.0
744.952454 92.0
745.84906 160.0
749.860535 160.0
751.938538 148.0
756.338562 76.0
763.108276 152.0
765.744202 112.0
773.175598 56.0
781.043274 108.0
785.293213 136.0
786.760803 72.0
790.33783 132.0
794.640991 52.0
796.577881 100.0
800.385498 160.0
800.667053 192.0
801.675476 128.0
811.696228 76.0
818.204102 136.0
819.491272 120.0
821.580566 80.0
821.920349 52.0
825.604919 104.0
835.344299 164.0
839.935364 64.0
842.047913 56.0
842.22699 200.0
845.783142 120.0
849.828247 76.0
852.633057 108.0
859.691528 76.0
862.647034 116.0
867.353455 112.0
869.441528 156.0
870.504089 32.0
875.626465 76.0
879.494385 152.0
883.140076 176.0
884.862122 120.0
888.222351 180.0
892.522217 52.0
892.932556 80.0
894.181946 208.0
894.277222 184.0
894.777222 144.0
897.023193 188.0
897.249756 92.0
899.534607 100.0
901.051514 68.0
901.511597 44.0
904.226807 188.0
905.939331 176.0
907.629517 60.0
912.559204 40.0
915.218689 240.0
918.479126 40.0
923.286926 68.0
924.902405 96.0
925.986206 168.0
927.567688 164.0
927.870789 84.0
930.042603 180.0
931.925171 56.0
934.259888 208.0
936.895935 156.0
942.405334 140.0
944.410522 160.0
944.954956 104.0
947.348755 68.0
949.24884 96.0
950.788635 136.0
951.611206 172.0
952.980896 64.0
953.048462 168.0
953.226685 48.0
954.868103 184.0
955.181824 176.0
957.816467 40.0
958.463318 40.0
959.474182 84.0
960.016785 184.0
964.585754 76.0
965.395691 44.0
965.575073 36.0
965.828674 52.0
965.890503 180.0
971.378906 216.0
972.675842 96.0
974.439575 132.0
975.01123 124.0
979.067566 144.0
979.852478 48.0
981.610229 80.0
982.776672 112.0
984.224792 120.0
985.292847 48.0
989.489441 80.0
991.550354 144.0
991.638123 44.0
992.390381 64.0
992.578491 72.0
994.046387 140.0
999.960205 136.0
1001.729553 72.0
1001.855591 148.0
1003.37439 216.0
1005.702209 180.0
1008.418152 48.0
1009.714294 168.0
1013.164124 172.0
1013.632996 156.0
1015.921875 168.0
1018.124451 148.0
1020.780823 212.0
1023.351501 76.0
1023.427917 124.0
1024.810181 196.0
1032.227417 196.0
1032.297729 88.0
1033.711426 88.0
1033.858643 96.0
1033.999512 32.0
1037.522583 176.0
1038.176636 244.0
1039.382568 112.0
1039.953735 128.0
1040.570068 212.0
1041.070923 152.0
1041.860962 76.0
1051.642578 156.0
1052.38501 80.0
1053.334351 172.0
1054.949951 164.0
1056.489014 184.0
1061.100342 72.0
1062.361816 172.0
1064.071777 56.0
1065.591553 148.0
1065.948975 96.0
1066.4104 76.0
1068.276611 120.0
1069.799438 52.0
1070.059814 180.0
1071.965332 208.0
1072.893921 92.0
1073.963379 184.0
1075.287964 176.0
1076.293213 240.0
1077.776001 160.0
1081.399048 224.0
1083.284912 160.0
1084.674194 160.0
1085.388794 140.0
1085.808472 180.0
1089.957397 164.0
1090.50293 156.0
1090.792114 116.0
1090.903931 132.0
1091.107666 160.0
1092.468994 92.0
1093.548218 64.0
1093.745605 76.0
1094.088013 124.0
1094.199951 92.0
1096.472534 84.0
1099.658081 40.0
1100.106934 188.0
1100.351318 184.0
1101.57959 140.0
1103.390381 176.0
1103.522705 96.0
1105.328491 204.0
1106.533081 160.0
1107.506592 172.0
1109.580811 164.0
1109.806274 172.0
1110.336792 152.0
1111.491089 80.0
1111.763062 192.0
1112.533081 176.0
1113.057617 148.0
1113.41626 212.0
1113.788208 68.0
1114.067139 84.0
1118.322998 164.0
1118.735718 184.0
1119.847778 160.0
1121.42688 148.0
1121.506836 132.0
1122.460205 180.0
1123.921021 144.0
1125.035645 180.0
1126.665161 124.0
1128.070679 148.0
1128.49646 180.0
1130.141846 128.0
1130.282349 220.0
1130.469727 124.0
1134.133301 172.0
1134.36792 112.0
1134.542236 204.0
1135.293213 164.0
1136.245728 168.0
1137.071045 52.0
1137.245605 96.0
1137.547607 224.0
1137.849731 168.0
1138.265991 196.0
1139.186157 212.0
1142.096924 356.0
1142.904175 72.0
1144.903564 124.0
1145.24707 144.0
1145.617554 184.0
1147.416992 232.0
1148.363892 152.0
1150.378662 76.0
1150.648682 168.0
1151.067261 196.0
1151.803467 248.0
1152.562134 148.0
1152.688477 168.0
1154.317627 148.0
1157.951904 156.0
1158.229614 124.0
1158.907104 140.0
1159.137451 128.0
1159.855835 52.0
1160.80896 132.0
1162.073486 92.0
1162.2771 164.0
1162.772461 204.0
1163.716064 100.0
1164.2771 160.0
1165.685913 180.0
1166.039307 108.0
1168.582642 156.0
1168.875122 168.0
1169.39917 168.0
1169.555786 136.0
1172.03479 108.0
1172.245972 200.0
1172.423218 76.0
1173.459351 184.0
1174.720947 80.0
1176.488525 180.0
1176.713867 200.0
1177.772339 112.0
1177.997803 104.0
1178.257324 176.0
1178.428101 200.0
1178.810791 128.0
1179.091064 164.0
1179.296021 248.0
1179.651489 192.0
1180.567749 36.0
1180.85498 160.0
1181.778442 180.0
1184.071777 136.0
1185.345947 176.0
1186.662109 172.0
1186.82666 124.0
1188.184692 192.0
1189.352173 160.0
1189.426758 144.0
1189.591553 192.0
1190.264404 220.0
1190.33313 132.0
1190.504761 208.0
1191.487061 176.0
1192.648315 180.0
1193.63147 100.0
1194.078491 148.0
1195.461304 68.0
1196.046387 92.0
1196.418091 136.0
1196.893188 140.0
1196.9552 160.0
1197.843628 236.0
1198.429199 48.0
1199.924927 212.0
1201.055908 132.0
1201.794067 156.0
1201.904419 196.0
1202.021729 160.0
1202.118408 136.0
1202.608398 184.0
1203.761353 120.0
1204.078979 144.0
1204.673096 148.0
1206.580444 160.0
1207.126709 136.0
1208.863037 96.0
1209.402954 168.0
1209.499878 116.0
1210.365234 252.0
1210.76001 160.0
1210.836182 212.0
1211.030151 52.0
1211.632812 268.0
1211.91687 124.0
1212.526611 148.0
1213.150513 144.0
1214.218384 200.0
1215.147949 164.0
1215.973633 224.0
1216.216553 132.0
1216.862183 196.0
1218.543091 156.0
1219.453369 64.0
1220.822754 128.0
1220.969116 228.0
1221.838623 120.0
1222.527466 196.0
1223.265259 136.0
1223.731689 32.0
1225.511475 120.0
1226.28833 160.0
1226.608887 164.0
1227.633911 140.0
1227.87793 184.0
1229.294189 224.0
1230.27832 164.0
1230.369141 244.0
1234.009155 184.0
1234.253906 104.0
1235.575806 76.0
1235.897705 188.0
1236.331543 132.0
1236.443481 48.0
1237.463623 184.0
1237.881592 136.0
1238.130737 132.0
1238.75415 192.0
1239.083496 188.0
1239.791138 28.0
1240.682495 120.0
1241.817383 168.0
1242.006714 176.0
1242.168091 224.0
1242.301392 80.0
1242.462769 148.0
1242.694336 108.0
1243.360962 100.0
1243.522339 88.0
1243.725952 168.0
1244.147095 164.0
1244.357666 48.0
1245.284668 116.0
1245.642944 128.0
1246.598511 120.0
1246.675781 204.0
1247.245117 116.0
1247.751221 176.0
1248.28479 144.0
1249.157349 128.0
1249.249146 168.0
1250.333496 168.0
1251.212646 128.0
1251.332397 152.0
1251.445068 104.0
1251.536621 164.0
1251.783081 68.0
1251.987305 108.0
1252.276001 160.0
1253.861328 108.0
1254.185547 104.0
1254.883423 160.0
1255.087891 216.0
1255.178345 188.0
1255.496948 96.0
1256.089355 148.0
1256.230469 144.0
1256.703247 220.0
1257.550049 48.0
1257.825317 36.0
1258.743164 72.0
1259.202148 168.0
1259.55542 160.0
1259.965088 232.0
1260.148804 152.0
1260.374878 120.0
1260.834229 120.0
1261.550293 208.0
1263.365601 192.0
1263.443481 96.0
1263.563721 136.0
1263.995361 104.0
1264.17627 228.0
1265.602173 264.0
1266.05542 216.0
1266.501587 96.0
1266.770752 96.0
1267.897461 112.0
1268.592041 112.0
1269.293945 116.0
1269.65564 52.0
1269.790405 160.0
1269.875488 156.0
1271.152466 96.0
1271.457642 188.0
1272.16748 212.0
1272.486938 172.0
1275.577393 32.0
1275.671631 192.0
1276.359375 168.0
1276.466064 252.0
1276.86438 168.0
1277.291138 152.0
1277.611206 192.0
1278.009644 152.0
1278.095093 156.0
1278.458008 152.0
1278.529175 136.0
1279.304932 208.0
1279.739258 156.0
1280.009888 108.0
1280.437134 184.0
1283.016724 108.0
1283.83667 172.0
1284.015015 160.0
1284.307373 132.0
1284.542847 192.0
1284.628418 184.0
1284.721191 112.0
1284.913818 160.0
1285.605957 172.0
1286.134033 184.0
1286.3125 76.0
1286.433838 76.0
1287.597778 140.0
1287.804932 180.0
1288.012085 180.0
1288.869385 44.0
1289.08374 144.0
1289.934326 192.0
1290.184448 176.0
1290.241699 172.0
1290.742188 60.0
1290.878052 76.0
1291.25 152.0
1291.593262 128.0
1292.415771 184.0
1293.024292 224.0
1293.332031 80.0
1293.539673 60.0
1293.83313 144.0
1294.069458 64.0
1294.148193 208.0
1294.413208 88.0
1294.463257 144.0
1294.935913 140.0
1295.401489 100.0
1296.053467 80.0
1296.856201 52.0
1297.071167 168.0
1297.379517 132.0
1297.436768 108.0
1297.608887 156.0
1299.027344 180.0
1299.66748 104.0
1300.435303 156.0
1301.950195 112.0
1302.251831 28.0
1302.431396 208.0
1302.52478 104.0
1303.494751 168.0
1303.87561 156.0
1305.061768 188.0
1305.21106 200.0
1305.773193 188.0
1305.881592 152.0
1306.475586 200.0
1306.845581 164.0
1306.939087 184.0
1307.615601 196.0
1307.925049 172.0
1308.56189 140.0
1308.817871 228.0
1309.437134 180.0
1309.645996 204.0
1309.797241 140.0
1310.380859 72.0
1310.978882 80.0
1311.324829 160.0
1311.505005 124.0
1312.139404 104.0
1312.370117 192.0
1313.480835 48.0
1313.632324 200.0
1314.093994 160.0
1314.143799 156.0
1314.324951 188.0
1315.869507 48.0
1316.050049 164.0
1317.465576 176.0
1317.834106 48.0
1318.260498 196.0
1318.405029 164.0
1318.831421 128.0
1318.925415 124.0
1319.792969 136.0
1320.01709 184.0
1320.667969 140.0
1321.123779 268.0
1321.316895 168.0
1321.988281 236.0
1322.317627 128.0
1322.418945 108.0
1322.696533 164.0
1323.005371 200.0
1323.475952 36.0
1324.019043 56.0
1324.583984 116.0
1324.736206 132.0
1325.120117 144.0
1325.518677 116.0
1326.14917 108.0
1326.562378 180.0
1326.794312 48.0
1326.932129 176.0
1327.062622 160.0
1327.207642 196.0
1327.352661 160.0
1327.876709 208.0
1328.368042 180.0
1328.440552 128.0
1328.991943 128.0
1329.318481 240.0
1329.543457 208.0
1329.833862 156.0
1330.283813 160.0
1330.588745 160.0
1330.70813 196.0
1330.821167 128.0
1331.17688 228.0
1331.271362 88.0
1332.20105 212.0
1332.302734 228.0
1332.629761 148.0
1333.501709 124.0
1333.79248 124.0
1334.56311 164.0
1334.701294 160.0
1335.406738 156.0
1336.061401 116.0
1336.163208 128.0
1336.483398 160.0
1336.708984 136.0
1337.247559 136.0
1337.727905 100.0
1337.822632 216.0
1339.380981 160.0
1339.446533 136.0
1341.08606 200.0
1341.74939 112.0
1341.938965 144.0
1342.48584 144.0
1343.674805 192.0
1344.134521 200.0
1344.25415 216.0
1344.754883 188.0
1345.024902 96.0
1345.090576 32.0
1345.462891 272.0
1345.61084 196.0
1345.944824 92.0
1346.09082 164.0
1346.762817 56.0
1347.193726 72.0
1347.390991 292.0
1347.83667 124.0
1347.90979 128.0
1348.04126 192.0
1348.713745 152.0
1348.896484 164.0
1349.028076 140.0
1349.38623 180.0
1349.877686 212.0
1350.285767 192.0
1350.352905 128.0
1350.432007 136.0
1351.097656 156.0
1351.247681 172.0
1351.573242 44.0
1351.831177 192.0
1352.180664 136.0
1352.561279 236.0
1354.150146 136.0
1354.523804 136.0
1354.692261 156.0
1355.087891 92.0
1355.175781 228.0
1355.417603 180.0
1355.520142 152.0
1356.223755 64.0
1358.188843 184.0
1358.320923 192.0
1358.41626 216.0
1359.06189 92.0
1359.817749 188.0
1359.869141 76.0
1360.052734 68.0
1360.250854 128.0
1360.529785 44.0
1360.830811 160.0
1360.892334 204.0
1361.278809 176.0
1361.623901 236.0
1361.675293 212.0
1362.064697 156.0
1362.314453 152.0
1362.865479 180.0
1363.041748 156.0
1363.681152 44.0
1364.313354 104.0
1364.886841 160.0
1365.298706 200.0
1365.857666 136.0
1365.990112 112.0
1366.424072 272.0
1366.659546 56.0
1366.762573 176.0
1367.527954 52.0
1367.822388 144.0
1368.14624 112.0
1368.470215 136.0
1368.75 200.0
1369.022461 196.0
1369.132935 164.0
1369.206665 212.0
1369.368652 120.0
1370.871582 172.0
1371.734009 140.0
1371.815063 216.0
1371.962524 144.0
1372.109741 184.0
1372.604736 160.0
1372.792603 204.0
1372.928467 152.0
1373.249023 156.0
1373.312012 236.0
1374.152954 72.0
1374.44812 160.0
1374.566162 120.0
1374.719116 220.0
1375.097534 160.0
1375.547729 168.0
1375.621582 148.0
1375.880005 140.0
1376.300781 180.0
1376.370972 156.0
1377.430786 224.0
1377.608154 156.0
1379.32251 128.0
1379.485107 136.0
1379.61084 104.0
1379.743896 136.0
1380.135742 200.0
1380.217163 200.0
1380.291016 176.0
1380.830444 164.0
1380.971436 152.0
1381.04541 248.0
1381.459717 108.0
1381.740845 148.0
1382.347534 164.0
1383.087646 156.0
1383.250488 128.0
1383.420776 88.0
1383.724365 164.0
1383.783569 40.0
1384.309326 140.0
1384.42041 132.0
1384.501831 188.0
1384.694336 208.0
1384.805542 212.0
1385.131348 204.0
1385.385376 184.0
1385.509277 80.0
1385.835205 124.0
1386.146484 188.0
1386.761597 124.0
1387.050659 200.0
1387.547363 176.0
1387.703003 48.0
1387.777222 164.0
1388.274048 136.0
1388.896973 164.0
1389.54248 136.0
1389.616577 156.0
1389.868896 188.0
1390.158325 104.0
1390.462646 32.0
1390.655518 48.0
1390.863403 108.0
1391.746826 196.0
1391.925537 176.0
1392.222168 204.0
1392.28894 128.0
1392.340942 148.0
1392.753174 228.0
1392.950073 144.0
1393.031738 180.0
1393.737549 124.0
1394.256714 172.0
1394.577393 180.0
1394.889526 148.0
1395.127441 204.0
1395.343018 160.0
1395.774292 200.0
1396.056885 160.0
1396.220459 128.0
1396.741089 124.0
1396.867554 56.0
1397.165161 180.0
1397.238159 208.0
1397.805054 148.0
1399.077881 140.0
1399.211792 152.0
1400.135254 160.0
1400.477783 224.0
1400.596924 128.0
1400.865112 96.0
1401.163208 100.0
1401.543091 176.0
1401.885986 152.0
1402.243652 152.0
1402.959229 116.0
1403.235107 172.0
1403.518433 188.0
1403.660156 140.0
1403.794312 172.0
1404.018066 124.0
1404.20459 116.0
1404.428345 124.0
1404.949341 160.0
1405.375732 156.0
1406.025024 188.0
1406.166748 184.0
1406.577393 152.0
1407.062622 172.0
1407.435913 80.0
1407.532959 44.0
1408.78772 124.0
1408.840088 152.0
1409.93103 212.0
1410.334595 152.0
1411.074707 156.0
1411.321411 112.0
1411.433594 212.0
1411.687866 224.0
1412.069214 116.0
1413.31543 192.0
1413.468262 140.0
1413.543091 56.0
1413.647827 80.0
1413.762085 224.0
1414.29895 172.0
1414.665771 84.0
1415.09668 116.0
1415.302124 84.0
1415.429443 64.0
1415.751465 92.0
1416.328247 160.0
1417.054932 56.0
1417.204712 132.0
1417.3396 148.0
1417.444458 124.0
1417.54187 136.0
1417.759277 84.0
1417.864136 132.0
1417.939087 168.0
1418.771118 116.0
1418.958618 184.0
1419.228516 156.0
1419.603516 60.0
1419.760986 188.0
1419.873413 196.0
1420.210938 32.0
1420.608521 212.0
1420.841064 200.0
1421.216309 144.0
1422.589722 212.0
1422.694824 208.0
1422.979004 168.0
1423.370605 136.0
1423.535767 180.0
1423.873779 232.0
1424.497192 92.0
1424.632446 96.0
1424.835205 204.0
1425.308594 176.0
1425.40625 144.0
1425.466431 148.0
1426.105225 156.0
1426.383301 168.0
1426.638916 128.0
1426.706543 244.0
1426.9021 212.0
1427.353271 160.0
1427.969849 240.0
1429.820679 132.0
1431.055298 192.0
1431.401611 112.0
1431.461914 172.0
1432.356079 112.0
1433.699341 152.0
1433.887695 136.0
1434.171753 148.0
1434.74707 176.0
1435.071289 144.0
1435.154175 96.0
1435.463379 144.0
1435.546387 172.0
1435.606689 148.0
1436.255249 236.0
1436.443848 204.0
1436.617432 204.0
1436.904053 96.0
1437.281372 92.0
1437.430908 284.0
1438.224731 56.0
1438.421021 208.0
1438.602173 180.0
1438.783325 172.0
1439.437622 184.0
1439.539429 140.0
1439.591309 192.0
1439.74231 124.0
1439.855591 132.0
1439.953735 116.0
1440.225708 168.0
1440.354126 296.0
1441.532715 120.0
1441.72168 168.0
1442.182739 220.0
1442.386841 100.0
1442.509888 188.0
1442.840454 112.0
1443.278931 104.0
1443.778076 292.0
1443.846069 120.0
1444.541992 152.0
1444.632812 140.0
1444.753784 108.0
1444.814331 116.0
1445.192627 148.0
1445.567139 136.0
1446.547363 148.0
1447.440796 232.0
1448.364746 184.0
1448.485962 344.0
1448.842041 184.0
1449.548706 200.0
1449.705811 220.0
1449.8573 148.0
1449.993774 92.0
1450.130249 240.0
1450.43335 92.0
1450.615356 116.0
1450.789673 148.0
1451.267334 424.0
1451.56311 104.0
1452.707397 236.0
1452.78418 60.0
1453.140747 400.0
1453.353271 160.0
1453.732666 112.0
1454.127319 236.0
1454.30188 180.0
1454.430908 192.0
1455.228027 200.0
1455.455811 176.0
1455.703125 84.0
1455.827881 112.0
1456.025391 164.0
1456.154541 160.0
1456.207642 148.0
1456.321655 116.0
1456.374756 120.0
1456.982544 140.0
1457.088867 152.0
1457.172485 80.0
1457.428345 172.0
1457.833496 160.0
1457.955078 132.0
1458.122314 180.0
1458.326538 152.0
1458.593628 220.0
1458.859619 168.0
1459.224609 144.0
1459.543945 140.0
1460.334839 116.0
1460.448975 168.0
1460.760864 208.0
1460.958618 224.0
1461.215454 228.0
1461.301025 124.0
1461.407471 120.0
1461.799316 132.0
1461.886841 116.0
1462.838257 132.0
1462.960083 176.0
1463.150391 124.0
1463.592041 164.0
1463.652954 156.0
1463.790039 144.0
1464.155518 180.0
1464.361206 44.0
1464.60498 140.0
1465.122925 88.0
1465.618164 96.0
1466.105957 152.0
1466.197388 128.0
1466.403198 116.0
1466.883423 156.0
1467.058716 140.0
1468.61438 172.0
1469.224609 120.0
1469.476318 64.0
1469.720581 216.0
1469.85022 132.0
1469.926514 140.0
1470.056274 184.0
1470.911133 120.0
1471.266479 80.0
1471.781494 116.0
1472.254883 128.0
1472.529907 108.0
1472.621582 96.0
1473.102783 184.0
1473.301392 152.0
1473.354858 176.0
1473.415527 184.0
1473.905029 188.0
1474.508667 156.0
1474.837402 84.0
1475.028442 84.0
1475.204346 168.0
1475.387817 184.0
1475.510132 124.0
1475.640137 232.0
1475.731812 108.0
1476.290039 116.0
1476.456421 196.0
1477.345581 184.0
1477.636353 176.0
1477.758667 136.0
1477.888794 184.0
1478.478027 76.0
1478.570801 168.0
1478.845459 112.0
1478.975586 116.0
1479.113281 56.0
1479.29248 188.0
1479.442505 156.0
1480.146851 176.0
1480.213135 192.0
1480.231323 124.0
1480.256958 196.0
1480.353638 92.0
1480.805542 160.0
1480.91272 112.0
1481.563843 204.0
1481.648193 156.0
1481.939331 248.0
1482.192139 80.0
1482.360718 184.0
1482.667236 120.0
1483.012207 164.0
1483.364746 140.0
1483.472046 184.0
1484.13916 116.0
1484.23877 196.0
1484.583862 168.0
1485.308716 96.0
1485.465942 48.0
1485.557983 156.0
1485.780518 168.0
1485.97229 168.0
1486.785645 224.0
1486.946899 204.0
1487.522583 140.0
1487.875732 128.0
1488.150391 204.0
1490.38623 172.0
1490.825317 172.0
1492.001343 164.0
1492.178101 160.0
1492.908691 96.0
1493.523926 180.0
1493.621704 140.0
1494.870361 192.0
1494.95752 196.0
1495.432129 168.0
1495.509155 136.0
1495.801636 128.0
1496.017212 136.0
1496.078735 44.0
1496.27124 80.0
1497.233765 176.0
1497.765259 196.0
1498.011719 36.0
1498.235229 136.0
1498.450928 208.0
1498.689697 124.0
1499.229126 104.0
1499.306274 68.0
1499.594849 144.0
1499.660767 92.0
1499.807251 64.0
1500.01062 72.0
1500.227905 92.0
1501.457275 160.0
1501.873779 132.0
1502.057617 128.0
1502.185791 220.0
1502.390625 128.0
1502.938354 128.0
1503.06958 140.0
1503.162109 72.0
1503.287354 140.0
1503.486328 192.0
1503.694702 212.0
1504.458862 216.0
1504.69812 136.0
1504.837158 168.0
1504.898926 144.0
1505.192383 168.0
1505.377686 152.0
