>compound MITOXANTRONE
>formula C22H28N4O6 
>ionization [M+H]+
>parentmass 445.209351
#inchi InChI=1S/C22H28N4O6/c27-11-9-23-5-7-25-13-1-2-14(26-8-6-24-10-12-28)18-17(13)21(31)19-15(29)3-4-16(30)20(19)22(18)32/h1-4,23-30H,5-12H2
#inchikey KKZJGLLVHKMTCM
#Ion_Source LC-ESI
#Instrument qTof
#Compound_Source Commercial
#PI Dorrestein
#Data_Collector Garg_Neha
#Scan -1
#Precursor_MZ 445.211
#ExactMass 444.201
#Charge 1
#CAS_Number N/A
#Pubmed_ID N/A
#Smiles N/A
#INCHI_AUX N/A
#Library_Class 1
#SpectrumID CCMSLIB00000077083
#IonMode Positive
#UpdateWorkflowName UPDATE-SINGLE-ANNOTATED-GOLD
#LibraryQualityString Gold
#TaskID 48f7f52fc6d249b5abbcc6e7b3df5969
##Scan# 1035
#SpectrumFile NCP003106_A2_B11_BB2_01_15705.mzXML
#LibraryName NIH_Clinical_Collection_2.mgf
#MQScore -1
#Organism NIHcollection2_04212014_2_mgf
#TIC_Query 0
#RT_Query -1
#MZErrorPPM -1
#SharedPeaks 0
#MassDiff 0
#LibMZ -1
#SpecMZ 445.211
#SpecCharge 0
#internalFilename spec-00000.mgf

>collision 10
47.663456 140.0
69.951057 176.0
88.074669 168.0
102.342445 164.0
109.146767 176.0
111.166748 188.0
125.577522 204.0
132.786285 180.0
138.839752 144.0
145.071274 144.0
159.087387 176.0
161.326065 244.0
162.948883 148.0
163.037827 184.0
169.036209 168.0
182.06366 204.0
186.780075 168.0
189.710144 156.0
198.94548 152.0
200.447754 144.0
206.194534 184.0
212.155869 148.0
212.936417 160.0
212.997406 172.0
213.791138 164.0
217.547012 196.0
219.141022 164.0
219.760178 144.0
223.103897 176.0
223.621475 212.0
232.578766 144.0
238.046783 168.0
241.057938 176.0
241.098068 136.0
244.442642 144.0
248.388596 152.0
250.085358 152.0
252.062012 144.0
253.055527 160.0
255.073212 112.0
256.059906 284.0
256.091766 168.0
259.802948 160.0
261.068451 148.0
263.088776 116.0
264.06488 224.0
265.067749 268.0
266.081909 172.0
267.048431 144.0
267.072937 448.0
268.061768 184.0
269.057465 860.0
269.10141 160.0
270.071106 252.0
271.070068 236.0
272.076843 132.0
274.110077 200.0
275.084839 116.0
276.58374 224.0
278.075562 136.0
279.076599 676.0
280.069977 296.0
281.072876 984.0
281.661255 164.0
282.075195 236.0
283.07309 2780.0
283.976929 124.0
284.077881 2140.0
285.050262 136.0
285.081573 348.0
286.084381 156.0
287.079437 160.0
288.059143 192.0
288.087982 168.0
290.514679 252.0
292.012634 192.0
293.09494 172.0
293.869171 164.0
294.090698 264.0
295.07074 1272.0
295.526276 168.0
295.963409 100.0
296.076477 1172.0
297.088135 4408.0
298.038452 112.0
298.092926 1088.0
299.096405 256.0
299.529205 200.0
303.059906 180.0
305.092102 1168.0
306.093842 420.0
306.130249 180.0
307.109894 224.0
307.954559 152.0
309.081146 284.0
309.234192 140.0
310.097015 240.0
311.098419 548.0
312.108826 148.0
313.156403 180.0
318.024689 164.0
322.096222 444.0
323.102386 2740.0
324.101654 504.0
324.510132 184.0
327.968414 148.0
328.111176 152.0
329.104797 176.0
337.344696 152.0
338.113861 300.0
339.113556 112.0
340.125763 144.0
341.057953 292.0
341.117371 168.0
342.122772 280.0
342.345642 212.0
343.114441 148.0
345.157501 280.0
355.040863 160.0
356.122559 1008.0
357.133972 196.0
357.953522 148.0
358.075256 108.0
358.140472 13740.0
358.215118 112.0
358.584808 104.0
358.690765 120.0
359.143677 3172.0
359.205719 196.0
360.147217 308.0
360.269012 168.0
361.14563 128.0
361.552582 104.0
363.756714 160.0
368.118866 280.0
369.121094 164.0
370.142944 128.0
371.147034 588.0
371.560913 180.0
372.152618 380.0
373.521637 96.0
377.059601 176.0
378.467712 204.0
384.154541 2300.0
385.158447 432.0
386.170105 336.0
387.327698 156.0
393.606262 164.0
393.991577 164.0
396.575531 140.0
402.172089 120.0
404.59024 144.0
409.754944 172.0
414.198669 196.0
419.081848 160.0
420.717285 156.0
422.004211 152.0
427.194824 192.0
428.193237 480.0
428.666138 248.0
430.790955 180.0
438.929871 148.0
440.006317 148.0
442.149811 116.0
442.19458 116.0
442.443909 152.0
443.174683 120.0
443.631409 132.0
443.934113 168.0
444.030304 172.0
444.198395 212.0
444.556152 172.0
444.624634 108.0
444.732422 204.0
444.798615 120.0
445.046509 108.0
445.130432 260.0
445.209351 100780.0
445.382446 252.0
445.778351 100.0
445.975128 188.0
446.122833 132.0
446.212219 21320.0
446.655487 160.0
446.708374 116.0
446.765198 116.0
446.934082 116.0
447.213959 4796.0
447.733032 100.0
448.22406 512.0
448.340302 120.0
448.417206 100.0
448.475006 120.0
448.631836 164.0
448.734497 180.0
448.845886 136.0
449.033173 184.0
449.12384 112.0
449.225006 216.0
449.926971 148.0
449.978668 96.0
591.551025 144.0
620.947205 148.0
636.99469 168.0
875.411865 140.0
1624.568237 224.0
1656.766602 184.0
