>compound FENOLDOPAM MESYLATE
>formula C16H16ClNO3
>ionization [M+H]+
>parentmass 306.090851
#inchi InChI=1S/C16H16ClNO3/c17-15-11-5-6-18-8-13(9-1-3-10(19)4-2-9)12(11)7-14(20)16(15)21/h1-4,7,13,18-21H,5-6,8H2
#inchikey TVURRHSHRRELCG
#Ion_Source LC-ESI
#Instrument qTof
#Compound_Source Commercial
#PI Dorrestein
#Data_Collector Garg_Neha
#Scan -1
#Precursor_MZ 306.089
#ExactMass 305.082
#Charge 1
#CAS_Number N/A
#Pubmed_ID N/A
#Smiles Oc1ccc(cc1)C2CNCCc3c(Cl)c(O)c(O)cc23
#INCHI_AUX N/A
#Library_Class 1
#SpectrumID CCMSLIB00000078960
#IonMode Positive
#UpdateWorkflowName UPDATE-SINGLE-ANNOTATED-GOLD
#LibraryQualityString Gold
#TaskID 278b19f5865741e282cec7349aa7e7a1
##Scan# 1000
#SpectrumFile NCP003272_G2_H11_BC3_01_15716.mzXML
#LibraryName NIHcollectionI_05062014.mgf
#MQScore -1
#Organism NIHcollectionI_05062014
#TIC_Query 0
#RT_Query -1
#MZErrorPPM -1
#SharedPeaks 0
#MassDiff 0
#LibMZ -1
#SpecMZ 306.089
#SpecCharge 0
#internalFilename spec-00000.mgf

>collision 10
45.998428 200.0
47.535061 212.0
47.820915 196.0
48.54623 152.0
48.783657 224.0
51.970215 144.0
52.075012 156.0
52.664101 152.0
52.912827 200.0
52.99538 200.0
53.089603 172.0
54.950272 184.0
55.493073 196.0
55.717178 152.0
57.404079 156.0
63.329609 204.0
63.889954 184.0
64.665459 148.0
64.998795 176.0
66.571083 140.0
67.535912 160.0
69.873489 256.0
70.008316 156.0
70.468697 144.0
71.368759 140.0
71.589195 148.0
71.973755 140.0
72.757568 144.0
77.357491 140.0
77.707993 228.0
78.861435 228.0
78.976364 164.0
82.172356 164.0
84.179901 164.0
84.287674 204.0
85.890419 204.0
86.304092 164.0
87.223625 168.0
89.077316 172.0
90.172043 184.0
90.739922 192.0
91.053696 324.0
91.229996 140.0
92.266808 144.0
93.188675 204.0
94.302505 268.0
94.644913 152.0
95.088837 184.0
95.407394 204.0
96.200272 204.0
96.497215 140.0
98.205673 200.0
99.398605 216.0
99.523659 152.0
100.884407 152.0
101.468987 228.0
103.051994 140.0
104.061737 156.0
104.826378 180.0
105.217995 140.0
105.287415 144.0
106.177666 180.0
107.049797 10532.0
107.492203 144.0
107.816414 180.0
108.051018 1172.0
108.803612 140.0
109.054466 132.0
109.401093 164.0
111.44651 148.0
113.062653 136.0
113.508759 144.0
115.029953 168.0
115.061974 204.0
116.453865 212.0
117.065994 184.0
118.83493 148.0
119.048584 464.0
121.064857 624.0
121.490059 168.0
123.353065 216.0
125.015747 1312.0
126.014648 256.0
127.011246 280.0
127.054276 144.0
128.803406 220.0
130.064102 204.0
130.564468 196.0
131.049042 928.0
132.378723 188.0
132.65596 196.0
133.027573 196.0
133.063721 516.0
134.870361 204.0
135.045639 312.0
135.777939 148.0
136.053726 356.0
136.075836 2576.0
137.013916 320.0
137.078934 324.0
140.94458 196.0
141.270844 196.0
142.045456 200.0
143.000626 152.0
143.028641 140.0
143.050613 144.0
145.064499 1108.0
145.30899 216.0
146.060913 116.0
147.043045 576.0
147.072922 164.0
148.05127 652.0
148.073883 148.0
148.153809 140.0
148.96405 176.0
149.016068 880.0
149.051315 196.0
151.014664 244.0
152.725998 196.0
153.01001 1256.0
153.068069 180.0
153.188751 200.0
153.978043 152.0
154.010162 312.0
155.005539 420.0
155.031937 196.0
155.086472 176.0
155.503143 184.0
156.154083 152.0
157.004959 1556.0
157.160492 176.0
158.007477 148.0
158.058792 144.0
159.003494 820.0
159.045578 980.0
159.743469 144.0
160.052994 2616.0
161.059647 224.0
161.418137 172.0
162.056 172.0
163.193375 160.0
163.358368 224.0
164.012787 156.0
164.068268 316.0
165.009354 484.0
165.750626 188.0
166.047134 216.0
166.746323 172.0
167.00943 196.0
168.083038 112.0
169.000122 148.0
171.021088 5664.0
172.023499 460.0
172.840668 144.0
173.018753 904.0
174.025085 104.0
176.069458 1720.0
176.970505 184.0
177.010773 3016.0
177.079788 2868.0
178.016495 240.0
178.079224 500.0
178.14006 144.0
178.783493 156.0
179.006256 280.0
179.087967 188.0
179.532074 168.0
180.011719 228.0
181.061447 160.0
181.090179 152.0
181.564545 160.0
181.746964 176.0
182.039536 156.0
182.070175 208.0
182.499023 144.0
183.02243 1064.0
183.053329 140.0
183.079666 332.0
184.027847 124.0
185.007965 164.0
185.040588 156.0
186.01799 200.0
189.086166 224.0
189.978882 172.0
190.078918 268.0
194.036697 352.0
194.202042 156.0
194.984985 164.0
195.020462 4032.0
195.079147 132.0
195.223343 140.0
196.027008 584.0
197.018997 1216.0
197.064392 176.0
197.636932 152.0
197.852448 152.0
198.032837 1056.0
198.068069 176.0
198.107285 208.0
198.819458 140.0
199.036331 424.0
199.901382 148.0
200.032593 764.0
204.275497 140.0
204.651154 212.0
206.063995 176.0
206.120102 160.0
207.079742 1080.0
208.089081 724.0
208.179718 164.0
208.314713 200.0
208.383652 188.0
210.02742 200.0
210.063049 248.0
211.984238 128.0
212.016556 204.0
212.047882 7400.0
213.049332 360.0
213.097198 328.0
214.045456 1512.0
217.061981 148.0
219.080841 200.0
219.754044 192.0
220.078705 148.0
220.929886 188.0
221.060059 364.0
222.058426 140.0
222.675751 156.0
224.079788 168.0
225.094589 428.0
225.21933 140.0
226.061554 164.0
226.089355 284.0
226.724243 160.0
228.068817 168.0
229.102509 148.0
229.631454 160.0
231.057922 380.0
233.055222 160.0
234.066605 164.0
234.275208 160.0
235.075974 1108.0
235.855865 160.0
236.083023 1088.0
237.094864 388.0
238.058685 364.0
238.090683 172.0
239.072769 1080.0
239.239349 204.0
239.944839 184.0
240.073792 192.0
240.271744 220.0
242.090469 296.0
242.457855 140.0
243.051041 260.0
245.05452 316.0
245.88945 268.0
246.694046 152.0
249.383484 160.0
250.64859 160.0
251.070999 200.0
252.071701 196.0
252.103302 180.0
252.966751 164.0
253.084854 1980.0
254.093857 4008.0
255.097961 276.0
256.094421 244.0
256.531342 168.0
257.667053 204.0
260.021271 380.0
260.056976 164.0
260.360901 188.0
261.03421 108.0
262.027069 168.0
262.281677 140.0
262.475098 156.0
262.710541 180.0
266.355469 172.0
268.141754 172.0
270.109924 356.0
271.051788 496.0
271.119751 212.0
273.049683 320.0
273.855743 168.0
274.04248 464.0
274.769318 136.0
275.042725 256.0
276.039856 428.0
279.0578 156.0
287.337189 156.0
287.411407 176.0
287.958282 140.0
288.864136 180.0
288.989288 164.0
289.06311 9568.0
289.194305 144.0
290.065826 1404.0
291.06073 1804.0
292.067078 340.0
294.373505 164.0
296.014862 220.0
301.432709 252.0
302.134583 152.0
302.878845 180.0
304.071716 572.0
304.252045 152.0
304.3479 112.0
304.941101 120.0
305.077271 132.0
305.157745 1812.0
305.236664 124.0
305.276001 176.0
305.40036 140.0
305.50885 204.0
305.699432 104.0
305.734375 104.0
305.799103 296.0
305.87915 140.0
305.910278 264.0
305.948578 160.0
305.982635 128.0
306.009308 172.0
306.090851 109032.0
306.359985 144.0
306.428925 212.0
306.483276 124.0
306.547638 96.0
306.628021 204.0
306.663635 312.0
306.700714 112.0
306.885529 128.0
306.912201 120.0
306.983368 140.0
307.093262 14652.0
307.311829 184.0
307.394257 124.0
307.49649 140.0
307.571991 112.0
307.614868 260.0
307.835449 140.0
308.087738 21104.0
308.141388 140.0
308.217651 128.0
308.255005 100.0
308.430847 192.0
308.585022 112.0
308.880096 112.0
308.977783 156.0
309.090973 2444.0
309.2388 104.0
309.331879 96.0
309.408234 140.0
309.441467 144.0
309.695374 160.0
310.09668 228.0
310.291107 144.0
310.937775 136.0
311.160034 96.0
311.193848 212.0
314.761902 108.0
322.168457 176.0
358.927734 196.0
397.192291 152.0
517.717224 144.0
542.571594 152.0
621.275513 140.0
737.378723 160.0
967.436707 144.0
1234.689941 160.0
1387.314209 160.0
1403.574097 228.0
1497.672729 152.0
1497.942261 212.0
1516.486694 200.0
1547.937256 160.0
1580.31189 176.0
1626.904053 152.0
1660.592773 200.0
1692.635254 144.0
1695.42981 152.0
1700.268433 188.0
1701.195923 160.0
1762.660645 204.0
1786.31189 148.0
1797.880127 244.0
1834.990845 156.0
1862.795532 176.0
1941.706787 152.0
1944.566895 208.0
1954.382812 176.0
1987.535156 156.0
1990.97937 176.0
