>compound MLS001157935-01!(3S)-N-[(2S)-1-[(4-methoxyphenyl)methylamino]-3-methyl-1-oxopentan-2-yl]-1,2,3,4-tetrahydroisoquinoline-3-carboxamide
>formula C24H31N3O3
>ionization [M+H]+
>parentmass 410.245575
#inchi InChI=1S/C24H31N3O3/c1-4-16(2)22(24(29)26-14-17-9-11-20(30-3)12-10-17)27-23(28)21-13-18-7-5-6-8-19(18)15-25-21/h5-12,16,21-22,25H,4,13-15H2,1-3H3,(H,26,29)(H,27,28)/t16?,21-,22-/m0/s1
#inchikey DOMWJOMKBNBKDW
#Ion_Source LC-ESI
#Instrument qTof
#Compound_Source NIH Natural Product Library
#PI Dorrestein
#Data_Collector VVP/LMS
#Scan -1
#Precursor_MZ 410.244
#ExactMass 409.237
#Charge 1
#CAS_Number N/A
#Pubmed_ID N/A
#Smiles CCC(C)[C@H](NC(=O)[C@@H]1Cc2ccccc2CN1)C(=O)NCc3ccc(OC)cc3
#INCHI_AUX N/A
#Library_Class 1
#SpectrumID CCMSLIB00000080441
#IonMode Positive
#UpdateWorkflowName UPDATE-SINGLE-ANNOTATED-GOLD
#LibraryQualityString Gold
#TaskID b1d8e8f6646f4e71acdff9ca3d919d08
##Scan# 1618
#SpectrumFile p2-A09_GA9_01_17985.mzXML
#LibraryName NIH_Natural_Products_Library.mgf
#MQScore -1
#Organism NIH_Natural_Products_Library
#TIC_Query 0
#RT_Query -1
#MZErrorPPM -1
#SharedPeaks 0
#MassDiff 0
#LibMZ -1
#SpecMZ 410.244
#SpecCharge 0
#internalFilename spec-00000.mgf

>collision 10
94.955276 148.0
94.992126 188.0
95.011528 180.0
95.032867 120.0
95.063919 172.0
95.084435 216.0
95.11438 148.0
95.129906 124.0
95.145439 212.0
95.19239 200.0
95.242538 164.0
95.362999 244.0
95.423264 124.0
95.43882 184.0
95.471878 204.0
95.5205 116.0
95.556709 144.0
95.627518 48.0
95.663414 236.0
95.685921 96.0
95.742386 144.0
95.783295 88.0
95.830048 160.0
95.9002 156.0
95.937241 168.0
95.976234 188.0
96.040588 156.0
96.083504 156.0
96.114723 140.0
96.139534 140.0
96.163513 124.0
96.182556 280.0
96.233788 164.0
96.29628 208.0
96.312874 168.0
96.347404 164.0
96.362694 172.0
96.376373 168.0
96.397873 48.0
96.436958 52.0
96.469521 224.0
96.490211 164.0
96.591431 116.0
96.612946 248.0
96.638382 144.0
96.677444 136.0
96.699646 196.0
96.737778 208.0
96.765602 172.0
96.78714 156.0
96.847565 224.0
96.906441 176.0
96.941895 172.0
96.962143 144.0
96.994812 152.0
97.045784 172.0
97.110497 68.0
97.137955 196.0
97.163361 80.0
97.192894 120.0
97.210548 88.0
97.237091 192.0
97.269432 236.0
97.307739 148.0
97.328331 128.0
97.363838 148.0
97.577866 116.0
97.605392 128.0
97.640785 168.0
97.687996 124.0
97.717506 136.0
97.809998 132.0
97.825066 220.0
97.900566 136.0
97.945869 124.0
97.981323 80.0
98.001602 192.0
98.157722 156.0
98.170547 180.0
98.19043 152.0
98.215912 140.0
98.261284 240.0
98.281013 56.0
98.35601 312.0
98.403389 156.0
98.419563 232.0
98.434982 144.0
98.487442 164.0
98.515961 212.0
98.563377 64.0
98.603767 192.0
98.69384 268.0
98.739319 188.0
98.786797 80.0
98.808556 160.0
98.822403 136.0
98.893005 172.0
98.945114 168.0
98.997139 204.0
99.046112 232.0
99.081772 200.0
99.140236 152.0
99.205406 196.0
99.226448 112.0
99.24765 104.0
99.294136 176.0
99.355362 180.0
99.383133 208.0
99.425316 188.0
99.458549 140.0
99.528038 112.0
99.55584 208.0
99.667076 176.0
99.686035 208.0
99.758499 220.0
99.792152 164.0
99.816162 148.0
99.844147 168.0
99.865875 192.0
99.951057 168.0
99.959007 128.0
99.966263 236.0
100.025063 136.0
100.072845 124.0
100.121895 196.0
100.127022 248.0
100.150505 144.0
100.186363 52.0
100.222229 92.0
100.250122 172.0
100.286736 120.0
100.357903 176.0
100.3797 316.0
100.470627 164.0
100.48159 212.0
100.54129 152.0
100.55526 152.0
100.587196 168.0
100.617439 188.0
100.643097 76.0
100.714989 124.0
100.817482 216.0
100.954826 128.0
101.004829 88.0
101.024834 144.0
101.044838 196.0
101.104607 216.0
101.158913 108.0
101.212967 76.0
101.238998 92.0
101.265038 384.0
101.285065 188.0
101.326263 176.0
101.345947 184.0
101.436211 112.0
101.457405 136.0
101.493492 140.0
101.541618 72.0
101.561676 136.0
101.585747 172.0
101.603531 148.0
101.633904 132.0
101.668015 196.0
101.690094 84.0
101.796494 156.0
101.886879 188.0
101.92305 200.0
102.039627 180.0
102.057617 160.0
102.062538 152.0
102.081848 148.0
102.106163 132.0
102.265938 160.0
102.29644 128.0
102.361565 172.0
102.3937 192.0
102.434067 96.0
102.458199 180.0
102.558998 36.0
102.573112 148.0
102.592522 108.0
102.643677 136.0
102.657791 208.0
102.675682 216.0
102.702164 132.0
102.734436 164.0
102.770752 116.0
102.88176 88.0
102.924156 128.0
102.946365 172.0
102.971985 152.0
103.01786 212.0
103.054054 2076.0
103.082695 192.0
103.178734 164.0
103.191315 140.0
103.219177 164.0
103.235352 176.0
103.323265 156.0
103.365105 196.0
103.39315 132.0
103.441727 120.0
103.471512 140.0
103.4981 180.0
103.523613 144.0
103.565247 164.0
103.579422 212.0
103.65641 216.0
103.684784 148.0
103.723297 52.0
103.756035 188.0
103.840897 204.0
103.885521 220.0
103.909019 152.0
103.93219 88.0
103.982918 200.0
104.023514 208.0
104.05938 208.0
104.10067 176.0
104.128624 188.0
104.185921 200.0
104.228645 64.0
104.265221 184.0
104.281487 116.0
104.322136 60.0
104.366867 156.0
104.393303 284.0
104.415672 156.0
104.452286 156.0
104.480461 80.0
104.504921 188.0
104.568634 132.0
104.582512 160.0
104.602867 48.0
104.617111 172.0
104.676163 88.0
104.753273 144.0
104.795151 200.0
104.814674 160.0
104.87989 164.0
104.898239 168.0
104.932983 184.0
104.953285 136.0
104.971634 60.0
105.030334 200.0
105.070618 2932.0
105.10347 148.0
105.106689 136.0
105.140961 172.0
105.161369 136.0
105.177696 124.0
105.200157 124.0
105.227509 80.0
105.296326 200.0
105.435051 140.0
105.451401 320.0
105.545441 44.0
105.61702 180.0
105.631332 140.0
105.684532 128.0
105.709084 148.0
105.745918 132.0
105.80938 124.0
105.838043 104.0
105.862617 40.0
105.911774 212.0
105.979378 108.0
106.012161 140.0
106.04174 1540.0
106.063156 208.0
106.079849 204.0
106.137009 124.0
106.169037 88.0
106.188477 220.0
106.211037 180.0
106.237701 184.0
106.375656 232.0
106.399452 196.0
106.41626 156.0
106.449112 160.0
106.466972 212.0
106.48439 180.0
106.523529 188.0
106.545647 132.0
106.576469 124.0
106.602386 124.0
106.617569 156.0
106.642227 52.0
106.663918 188.0
106.711098 180.0
106.765587 120.0
106.810837 160.0
106.849922 164.0
106.967224 156.0
107.006546 160.0
107.028992 84.0
107.048576 528.0
107.131538 116.0
107.136658 160.0
107.235001 104.0
107.307144 52.0
107.325706 180.0
107.344261 188.0
107.369759 84.0
107.399948 192.0
107.461838 292.0
107.520241 132.0
107.578751 376.0
107.605179 180.0
107.629028 140.0
107.653305 216.0
107.684052 116.0
107.707504 176.0
107.790146 124.0
107.829056 164.0
107.905891 168.0
107.950302 132.0
108.004265 148.0
108.03096 152.0
108.050018 192.0
108.096191 232.0
108.162415 192.0
108.179825 156.0
108.218964 140.0
108.363297 152.0
108.379875 128.0
108.396454 104.0
108.451935 244.0
108.485573 140.0
108.560219 140.0
108.59536 144.0
108.632812 152.0
108.672234 172.0
108.767693 180.0
108.782227 240.0
108.854897 72.0
108.900581 136.0
108.92218 192.0
108.975494 204.0
109.029396 200.0
109.100777 176.0
109.158287 104.0
109.210281 120.0
109.251884 184.0
109.310143 108.0
109.378349 176.0
109.435036 276.0
109.487091 116.0
109.531044 232.0
109.578743 44.0
109.594223 180.0
109.678711 136.0
109.716301 256.0
109.772591 176.0
109.801788 144.0
109.855576 112.0
109.887314 168.0
109.932472 208.0
109.949364 196.0
109.979141 172.0
110.000015 216.0
110.032211 208.0
110.052208 164.0
110.098145 80.0
110.127258 192.0
110.194237 192.0
110.217216 192.0
110.236023 172.0
110.263191 216.0
110.333473 148.0
110.463356 148.0
110.487633 184.0
110.509949 156.0
110.547173 172.0
110.551056 136.0
110.625923 140.0
110.709663 180.0
110.750694 168.0
110.777924 64.0
110.798874 100.0
110.8806 144.0
110.897362 204.0
111.049995 172.0
111.089981 184.0
111.117554 176.0
111.141403 200.0
111.163589 204.0
111.17189 192.0
111.193092 188.0
111.249794 300.0
111.278961 296.0
111.310402 196.0
111.360611 224.0
111.399513 208.0
111.453888 192.0
111.478706 164.0
111.533356 132.0
111.630066 144.0
111.653198 116.0
111.714195 156.0
111.745758 32.0
111.775818 196.0
111.794907 212.0
111.813095 84.0
111.84256 212.0
111.886269 236.0
111.926323 224.0
112.074806 468.0
112.120972 172.0
112.142937 164.0
112.169052 76.0
112.196465 96.0
112.234413 228.0
112.278694 156.0
112.293457 80.0
112.308228 84.0
112.344086 148.0
112.367294 160.0
112.393501 104.0
112.460144 188.0
112.474922 96.0
112.504471 200.0
112.580482 216.0
112.625732 180.0
112.660751 268.0
112.684166 224.0
112.73893 136.0
112.766403 164.0
112.78331 164.0
112.84462 116.0
112.975739 44.0
113.037102 148.0
113.064613 136.0
113.119644 72.0
113.151398 148.0
113.181274 180.0
113.199181 172.0
113.240341 264.0
113.280586 180.0
113.316597 188.0
113.342026 268.0
113.358978 172.0
113.4394 148.0
113.481918 136.0
113.540184 184.0
113.548813 88.0
113.557457 232.0
113.602615 224.0
113.609589 204.0
113.634628 152.0
113.668579 196.0
113.781075 112.0
113.802307 124.0
113.892845 208.0
113.988831 108.0
114.064705 140.0
114.092216 640.0
114.195442 144.0
114.291176 212.0
114.31646 148.0
114.374893 248.0
114.403976 132.0
114.42527 116.0
114.468483 248.0
114.489151 184.0
114.543877 156.0
114.651062 172.0
114.700081 124.0
114.729927 196.0
114.74485 140.0
114.798157 144.0
114.849342 136.0
114.903648 184.0
114.945343 212.0
114.963699 204.0
114.996567 180.0
115.022324 176.0
115.054535 6868.0
115.0905 328.0
115.116295 148.0
115.142868 44.0
115.205826 64.0
115.235741 152.0
115.25753 60.0
115.302895 84.0
115.340454 68.0
115.370384 44.0
115.417419 132.0
115.444557 260.0
115.486542 212.0
115.528633 152.0
115.614227 132.0
115.667732 160.0
115.688881 132.0
115.710022 196.0
115.735054 140.0
115.7705 44.0
115.791916 172.0
115.819763 152.0
115.846413 184.0
115.876503 148.0
115.909744 116.0
115.929031 120.0
115.950462 52.0
115.971893 112.0
116.023346 300.0
116.058586 1236.0
116.175606 164.0
116.19706 136.0
116.224953 112.0
116.257141 104.0
116.291481 164.0
116.315094 168.0
116.34729 200.0
116.408928 288.0
116.495476 140.0
116.521721 184.0
116.60894 392.0
116.630852 200.0
116.65699 124.0
116.699646 120.0
116.729752 136.0
116.776222 276.0
116.796417 176.0
116.852356 140.0
116.869568 208.0
116.905556 160.0
116.925514 168.0
116.947433 152.0
117.020515 152.0
117.058769 6152.0
117.113129 204.0
117.13868 156.0
117.179611 372.0
117.214088 156.0
117.246414 136.0
117.288078 132.0
117.305199 80.0
117.358505 164.0
117.381989 144.0
117.421043 236.0
117.46479 228.0
117.531059 164.0
117.563431 152.0
117.628181 132.0
117.656097 116.0
117.692947 128.0
117.735085 328.0
117.773361 172.0
117.809578 156.0
117.844147 140.0
117.896004 164.0
117.911133 96.0
117.956551 160.0
117.975983 52.0
118.059891 808.0
118.118706 152.0
118.135963 188.0
118.166298 56.0
118.196594 168.0
118.22905 68.0
118.282341 380.0
118.330788 176.0
118.363594 212.0
118.387085 128.0
118.449463 176.0
118.480225 216.0
118.522621 204.0
118.528641 116.0
118.670952 128.0
118.690468 164.0
118.725159 144.0
118.759865 204.0
118.789772 132.0
118.820602 168.0
118.842339 124.0
118.921028 172.0
118.946472 176.0
118.963837 84.0
119.020287 180.0
119.055412 184.0
119.081093 120.0
119.135399 232.0
119.186539 224.0
119.235825 184.0
119.280998 152.0
119.334114 180.0
119.387535 144.0
119.40493 100.0
119.420158 156.0
119.450798 140.0
119.470184 192.0
119.493065 116.0
119.511528 128.0
119.541229 128.0
119.598572 108.0
119.618164 152.0
119.653 248.0
119.676949 140.0
119.716141 188.0
119.750992 184.0
119.794556 108.0
119.929657 48.0
119.948608 144.0
120.012497 192.0
120.045204 184.0
120.110634 132.0
120.125908 168.0
120.186142 248.0
120.217545 76.0
120.29612 168.0
120.341965 92.0
120.402397 192.0
120.42495 288.0
120.477371 164.0
120.536369 160.0
120.570076 244.0
120.604118 168.0
120.625595 160.0
120.65715 184.0
120.675133 140.0
120.71402 164.0
120.74012 168.0
120.792168 172.0
120.821945 328.0
120.859718 64.0
120.912476 288.0
120.956047 172.0
120.974236 224.0
120.999809 172.0
121.008186 328.0
121.034584 360.0
121.066216 151364.0
121.137939 60.0
121.144608 24.0
121.177284 92.0
121.211891 192.0
121.255692 48.0
121.276726 176.0
121.307487 132.0
121.327965 132.0
121.361702 120.0
121.390648 180.0
121.425987 1452.0
121.461243 172.0
121.486382 164.0
121.494469 148.0
121.551552 112.0
121.610115 152.0
121.639557 180.0
121.660912 328.0
121.697968 152.0
121.713806 168.0
121.752357 52.0
121.77729 176.0
121.784706 144.0
121.79245 216.0
121.84005 100.0
121.858391 80.0
121.895714 60.0
121.9459 164.0
121.965309 60.0
121.999046 160.0
122.015869 124.0
122.045403 204.0
122.069023 14612.0
122.172012 96.0
122.194016 28.0
122.211617 152.0
122.242424 52.0
122.287231 156.0
122.315056 60.0
122.35688 124.0
122.387848 120.0
122.407524 188.0
122.431679 128.0
122.439201 124.0
122.45681 84.0
122.48082 144.0
122.549706 232.0
122.568329 40.0
122.603256 188.0
122.624153 136.0
122.641052 52.0
122.69352 160.0
122.699196 92.0
122.705544 172.0
122.727028 100.0
122.749077 40.0
122.77829 396.0
122.823914 244.0
122.853958 152.0
122.870392 132.0
122.906754 108.0
122.941841 168.0
122.999321 68.0
123.017654 236.0
123.033623 108.0
123.041321 196.0
123.070641 1192.0
123.101051 132.0
123.148537 40.0
123.188293 84.0
123.208176 48.0
123.239105 84.0
123.274979 172.0
123.30098 64.0
123.347923 236.0
123.411514 96.0
123.446892 160.0
123.464584 60.0
123.514679 80.0
123.553062 120.0
123.570267 108.0
123.650421 116.0
123.714615 80.0
123.748398 200.0
123.766624 156.0
123.785469 84.0
123.876274 156.0
123.89621 152.0
123.967827 124.0
124.04203 180.0
124.069595 144.0
124.084595 136.0
124.116783 116.0
124.209892 104.0
124.218124 132.0
124.244278 104.0
124.259995 48.0
124.28421 164.0
124.302544 136.0
124.333031 48.0
124.348572 140.0
124.431206 88.0
124.509071 136.0
124.575058 168.0
124.690598 108.0
124.712822 180.0
124.733475 208.0
124.774193 152.0
124.832878 128.0
124.947273 168.0
124.986732 220.0
125.037621 128.0
125.090973 204.0
125.113235 152.0
125.144402 184.0
125.222343 152.0
125.244614 52.0
125.304764 112.0
125.367157 132.0
125.5009 160.0
125.529892 148.0
125.679344 168.0
125.777542 44.0
125.828888 200.0
125.895874 48.0
125.949478 188.0
126.052246 64.0
126.102592 156.0
126.189041 228.0
126.19416 164.0
126.278046 56.0
126.32502 152.0
126.353012 152.0
126.414513 144.0
126.515236 52.0
126.535385 148.0
126.647354 116.0
126.68 132.0
126.732544 152.0
126.804192 40.0
127.059822 168.0
127.120407 100.0
127.164574 200.0
127.23645 80.0
127.270805 160.0
127.317963 164.0
127.351654 164.0
127.459488 176.0
127.60524 156.0
127.637955 172.0
127.677544 128.0
127.835022 188.0
127.87014 224.0
127.909294 112.0
128.054291 208.0
128.168289 216.0
128.207626 192.0
128.312607 120.0
128.335083 52.0
128.352844 160.0
128.40274 64.0
128.511337 140.0
128.549377 184.0
128.585022 156.0
128.657715 124.0
128.680298 96.0
128.702866 176.0
128.740692 64.0
128.768356 184.0
128.827087 152.0
128.903961 172.0
128.93663 192.0
128.967194 200.0
128.989502 156.0
129.066483 576.0
129.109314 196.0
129.118408 168.0
129.124588 176.0
129.234039 56.0
129.282852 132.0
129.304199 136.0
129.335876 40.0
129.399826 196.0
129.437759 128.0
129.458145 272.0
129.483047 120.0
129.519287 168.0
129.560074 116.0
129.587051 172.0
129.612183 200.0
129.643066 172.0
129.672638 196.0
129.721298 168.0
129.769608 208.0
129.80957 160.0
129.843414 40.0
129.902924 152.0
129.931229 348.0
129.97847 268.0
129.99762 176.0
130.014786 208.0
130.066193 65804.0
130.128769 116.0
130.167816 76.0
130.176483 104.0
130.20166 180.0
130.223724 416.0
130.275818 88.0
130.297394 88.0
130.331863 48.0
130.366135 112.0
130.391144 124.0
130.43898 496.0
130.470123 252.0
130.504227 156.0
130.531509 212.0
130.562485 116.0
130.617935 76.0
130.634537 96.0
130.685577 240.0
130.710876 152.0
130.723511 128.0
130.756729 48.0
130.774933 60.0
130.811356 200.0
130.827301 92.0
130.847778 216.0
130.863724 188.0
130.889206 164.0
130.898666 92.0
130.923889 188.0
130.967056 212.0
130.99353 384.0
131.011002 300.0
131.027512 128.0
131.069504 6996.0
131.14653 164.0
131.215271 176.0
131.246506 32.0
131.285278 180.0
131.337738 172.0
131.356339 204.0
131.38266 184.0
131.408463 160.0
131.457062 40.0
131.475006 48.0
131.503555 212.0
131.531021 164.0
131.553589 156.0
131.558838 112.0
131.566437 144.0
131.609314 56.0
131.631561 188.0
131.668579 180.0
131.704056 232.0
131.720749 184.0
131.744598 240.0
131.769196 120.0
131.789764 356.0
131.817062 236.0
131.85289 236.0
131.874878 176.0
131.898239 300.0
131.91423 192.0
131.937805 252.0
131.957489 272.0
131.981033 188.0
132.001785 484.0
132.035797 412.0
132.082214 212836.0
132.155228 228.0
132.17746 36.0
132.187378 88.0
132.20195 188.0
132.234802 136.0
132.259552 120.0
132.268906 112.0
132.27774 200.0
132.300858 220.0
132.317368 412.0
132.335754 128.0
132.339844 252.0
132.360077 48.0
132.398346 84.0
132.4366 192.0
132.457916 2952.0
132.492355 164.0
132.509186 76.0
132.539154 148.0
132.592728 172.0
132.637589 104.0
132.659454 152.0
132.697754 176.0
132.716705 124.0
132.732132 68.0
132.740616 180.0
132.757126 160.0
132.780853 72.0
132.809875 140.0
132.818375 144.0
132.846634 64.0
132.890366 204.0
132.923859 180.0
132.951447 208.0
132.971222 120.0
133.001923 152.0
133.038635 204.0
133.084641 25808.0
133.132599 132.0
133.149429 132.0
133.183456 100.0
133.219391 84.0
133.238861 84.0
133.256149 40.0
133.289459 40.0
133.353531 80.0
133.398636 64.0
133.42392 36.0
133.467758 60.0
133.527603 44.0
133.548096 32.0
133.567749 80.0
133.610367 112.0
133.637939 144.0
133.655823 116.0
133.681259 132.0
133.71701 116.0
133.754318 160.0
133.805832 64.0
133.838074 84.0
133.853683 172.0
133.871674 196.0
133.878204 84.0
133.888107 312.0
133.922394 156.0
133.953918 160.0
133.970596 148.0
133.993423 156.0
134.008713 252.0
134.023376 116.0
134.086975 1628.0
134.124786 184.0
134.145645 116.0
134.205826 112.0
134.238464 148.0
134.256241 128.0
134.28714 88.0
134.315521 144.0
134.365952 232.0
134.388947 188.0
134.444336 52.0
134.481262 208.0
134.595047 96.0
134.617477 48.0
134.63826 48.0
134.668289 32.0
134.684448 52.0
134.732956 132.0
134.74913 44.0
134.786957 76.0
134.813828 148.0
134.829178 156.0
134.891327 136.0
134.950211 92.0
135.041855 136.0
135.099091 192.0
135.116745 40.0
135.164597 88.0
135.216248 156.0
135.253281 44.0
135.275452 152.0
135.352829 184.0
135.379623 84.0
135.422302 104.0
135.521912 40.0
135.54509 56.0
135.607651 76.0
135.628525 108.0
135.804733 204.0
135.976425 148.0
136.041428 212.0
136.059998 40.0
136.143585 112.0
136.401489 28.0
136.517746 80.0
136.663361 180.0
136.850494 44.0
136.936661 32.0
137.202454 116.0
137.244263 64.0
137.370209 124.0
137.426193 72.0
137.547562 144.0
137.608246 36.0
137.774078 188.0
137.818466 84.0
137.88623 88.0
137.909607 104.0
138.017151 176.0
138.110687 56.0
138.148315 148.0
138.172272 172.0
138.199585 264.0
138.372787 44.0
138.407913 60.0
138.554901 148.0
138.670288 92.0
138.98349 96.0
139.247467 180.0
139.364914 164.0
139.543549 156.0
139.585114 136.0
139.602325 100.0
139.650421 80.0
139.792877 104.0
139.828186 72.0
139.905853 104.0
139.937286 80.0
140.025955 176.0
140.069733 164.0
140.094254 56.0
140.146088 172.0
140.268646 220.0
140.311081 44.0
140.43605 60.0
140.596497 104.0
140.655502 160.0
140.688553 64.0
140.719238 112.0
140.934906 44.0
140.955658 176.0
140.995621 76.0
141.069473 488.0
141.165833 160.0
141.258072 144.0
141.440277 72.0
141.570496 100.0
141.601868 48.0
141.797928 80.0
141.914917 92.0
141.952026 188.0
142.030289 60.0
142.080795 508.0
142.108582 76.0
142.277084 176.0
142.424316 44.0
142.45282 272.0
142.745163 48.0
142.799866 120.0
142.83316 112.0
142.883118 180.0
143.028275 132.0
143.077606 180.0
143.122559 240.0
143.349808 116.0
143.693161 208.0
143.733719 60.0
143.791 240.0
143.934235 68.0
143.974838 148.0
144.017822 72.0
144.056046 120.0
144.08609 120.0
144.196182 136.0
144.27829 72.0
144.424164 136.0
144.577286 196.0
144.845444 64.0
144.984406 88.0
145.065903 168.0
145.093216 212.0
145.226562 164.0
145.247742 188.0
145.435318 160.0
145.877304 76.0
145.905426 120.0
145.932587 100.0
146.0336 36.0
146.060883 180.0
146.221252 112.0
146.633102 112.0
146.956238 64.0
147.026215 44.0
147.117935 152.0
147.139664 176.0
147.412613 164.0
147.547974 188.0
147.685806 116.0
147.828552 72.0
147.995575 44.0
148.065796 176.0
148.441422 144.0
148.611221 140.0
148.878235 136.0
149.17952 200.0
149.371628 52.0
149.545212 132.0
149.681778 68.0
149.97551 76.0
150.073029 160.0
150.151062 160.0
150.341354 216.0
150.646561 136.0
150.749176 104.0
150.917847 104.0
151.605698 64.0
152.022598 172.0
152.059402 168.0
152.118317 140.0
152.238632 104.0
152.27301 120.0
152.408127 160.0
152.60968 88.0
152.986099 44.0
153.067627 156.0
153.160934 76.0
153.237305 188.0
153.48999 160.0
153.70578 116.0
153.883499 168.0
154.080475 152.0
154.140381 124.0
154.370285 224.0
154.570648 132.0
155.086731 288.0
155.862564 32.0
155.969421 164.0
156.164169 112.0
156.656219 64.0
156.875519 120.0
156.917908 176.0
156.970261 56.0
157.027618 132.0
157.064316 220.0
157.102692 460.0
157.267151 176.0
157.411957 116.0
157.484375 44.0
157.516846 100.0
157.839249 152.0
158.062698 232.0
158.105301 200.0
158.272141 160.0
158.372314 120.0
159.009155 140.0
159.061874 136.0
159.667404 124.0
159.757965 236.0
159.936829 240.0
159.994522 112.0
160.075607 176.0
160.640518 180.0
160.939987 152.0
161.038483 112.0
161.220383 32.0
161.430206 100.0
161.748993 120.0
162.270874 180.0
162.488983 152.0
162.53212 44.0
162.712326 112.0
162.788498 180.0
163.263718 152.0
163.319672 228.0
163.357834 108.0
163.429077 124.0
163.565598 204.0
163.599594 52.0
163.912872 136.0
164.206787 124.0
164.292694 136.0
164.496918 164.0
164.540329 92.0
164.63736 112.0
164.739517 132.0
164.790619 120.0
164.859604 92.0
164.995087 48.0
165.06633 228.0
165.558014 144.0
165.693771 96.0
165.883408 244.0
166.050079 44.0
166.381088 140.0
166.735565 216.0
166.884659 160.0
166.932098 144.0
167.084961 152.0
167.231964 192.0
167.255127 64.0
167.479141 32.0
167.561569 116.0
167.628571 52.0
168.115952 144.0
168.219284 124.0
168.330215 148.0
168.508438 48.0
168.782425 88.0
168.916916 132.0
168.937607 168.0
169.061966 124.0
169.101578 268.0
169.219696 192.0
169.271484 184.0
169.320694 92.0
169.662735 76.0
169.78978 144.0
169.873703 192.0
170.07489 280.0
170.101135 184.0
170.350433 40.0
170.65451 96.0
170.776733 80.0
170.880783 72.0
171.081421 348.0
171.118668 168.0
171.143661 28.0
171.164505 48.0
171.318161 136.0
171.430206 136.0
171.513611 48.0
171.591812 220.0
171.662216 52.0
171.740463 216.0
171.803055 116.0
171.894379 192.0
172.082321 148.0
172.395767 128.0
172.638885 36.0
172.714737 160.0
172.772293 112.0
172.939758 188.0
173.099457 112.0
173.217316 196.0
173.542297 156.0
173.615707 140.0
173.841324 96.0
174.022446 72.0
174.069702 116.0
174.348175 112.0
174.60318 108.0
174.803116 72.0
174.932083 116.0
174.95578 36.0
175.088455 524.0
175.153458 60.0
175.253387 128.0
175.485336 72.0
175.625107 112.0
175.717438 124.0
175.96553 152.0
176.060593 88.0
176.126617 216.0
176.319489 252.0
176.345917 180.0
176.544205 120.0
176.573303 100.0
176.697632 100.0
176.941116 36.0
176.97818 156.0
177.100006 64.0
177.895508 188.0
178.08934 152.0
178.341766 148.0
178.927002 136.0
179.083038 316.0
179.156036 120.0
179.27594 168.0
179.53186 148.0
179.726593 144.0
179.884048 160.0
179.929947 104.0
180.009537 60.0
180.031906 204.0
180.092331 124.0
180.29538 32.0
180.330124 104.0
180.38092 60.0
180.541336 112.0
180.71521 128.0
180.792816 192.0
180.85437 164.0
180.993576 172.0
181.020355 160.0
181.064957 292.0
181.459793 204.0
181.631424 128.0
181.846085 68.0
181.913193 148.0
182.072525 236.0
182.385956 112.0
182.40477 104.0
182.434341 140.0
182.536514 72.0
182.67099 208.0
183.034332 48.0
183.077026 140.0
183.175095 156.0
183.327957 108.0
183.694641 176.0
183.771667 116.0
184.085251 204.0
184.12381 208.0
184.818542 144.0
184.888901 80.0
184.972809 80.0
185.095154 980.0
185.13797 128.0
185.257141 52.0
185.311325 112.0
185.441406 212.0
185.738556 128.0
185.802063 160.0
185.929596 108.0
186.054459 156.0
186.098846 512.0
186.241821 88.0
186.309738 184.0
186.41571 240.0
186.603256 112.0
186.978653 80.0
187.100311 172.0
187.185547 48.0
187.207321 100.0
187.370758 76.0
187.449768 124.0
187.632401 172.0
187.854599 184.0
187.895096 248.0
188.161682 144.0
188.205368 164.0
188.238129 176.0
188.661636 152.0
188.779205 128.0
188.81749 80.0
188.894073 132.0
189.055496 176.0
189.266281 132.0
189.493622 108.0
189.699158 196.0
190.214874 116.0
190.445526 140.0
190.679077 132.0
190.731293 168.0
190.896255 144.0
191.003525 148.0
191.075043 152.0
191.201614 112.0
191.485199 136.0
191.879242 60.0
191.923355 64.0
192.041946 96.0
192.168839 176.0
192.229553 184.0
192.502838 116.0
192.541504 68.0
192.944931 112.0
193.102554 156.0
193.534256 132.0
193.827866 128.0
193.94426 80.0
193.991379 172.0
194.243729 104.0
194.551758 48.0
194.70726 120.0
195.001755 152.0
195.083115 120.0
195.193588 172.0
195.507935 136.0
195.638748 100.0
195.682114 180.0
196.04541 108.0
196.073273 32.0
196.179199 80.0
196.326981 140.0
196.480392 124.0
196.628281 156.0
196.73967 212.0
196.784607 136.0
197.002441 172.0
197.056747 372.0
197.096756 528.0
197.125381 160.0
197.150528 136.0
197.192444 32.0
197.583939 144.0
197.866608 136.0
198.067993 408.0
198.098495 204.0
198.129105 120.0
198.205505 80.0
198.309204 132.0
198.415726 124.0
198.55542 44.0
198.690567 156.0
198.929108 164.0
199.03186 220.0
199.075516 136.0
199.10881 160.0
199.20993 156.0
199.353226 192.0
199.485321 164.0
199.758102 192.0
200.035583 168.0
200.092987 192.0
200.142151 284.0
200.197174 164.0
201.322388 96.0
201.384521 56.0
201.500336 96.0
201.616196 176.0
201.705276 124.0
201.946991 188.0
202.589539 164.0
202.663208 180.0
203.079941 156.0
203.193405 160.0
203.216095 76.0
203.304062 40.0
203.392059 60.0
203.445984 140.0
203.673157 156.0
204.133575 72.0
204.292862 124.0
204.540436 36.0
204.642914 160.0
204.782455 148.0
205.18425 148.0
205.323975 128.0
205.406693 136.0
205.546478 76.0
205.614975 56.0
206.037582 100.0
206.403427 136.0
206.443466 232.0
206.489227 184.0
206.569305 128.0
206.623672 124.0
207.270752 60.0
207.328064 164.0
207.660645 108.0
207.769638 192.0
207.953293 152.0
208.125534 152.0
208.430008 204.0
208.769226 140.0
209.082794 128.0
209.454224 184.0
209.55217 128.0
209.575226 100.0
209.771194 112.0
209.854797 172.0
210.114639 172.0
210.126297 152.0
210.135178 192.0
210.48671 276.0
210.544464 112.0
210.694672 136.0
211.077057 216.0
211.611481 108.0
212.086823 132.0
212.333038 32.0
212.396835 48.0
212.47226 60.0
212.974472 84.0
213.091537 7092.0
213.186554 48.0
213.235962 152.0
213.256302 108.0
213.296997 152.0
213.317352 100.0
213.412003 100.0
213.468536 240.0
213.552872 180.0
213.730331 140.0
213.765259 40.0
213.835098 32.0
213.992294 80.0
214.047623 148.0
214.095413 868.0
214.158279 180.0
214.440903 260.0
214.500824 36.0
214.793716 84.0
214.91333 48.0
214.933762 180.0
214.960022 88.0
215.065079 180.0
215.100052 192.0
215.161423 152.0
215.336624 100.0
215.514267 128.0
215.713547 132.0
215.79541 244.0
216.149338 72.0
216.37178 152.0
216.562119 128.0
216.819946 136.0
216.896149 112.0
217.04567 144.0
217.748428 144.0
217.896851 108.0
218.370132 160.0
218.452484 132.0
218.523102 200.0
218.57312 156.0
218.649628 140.0
218.676117 164.0
219.268112 172.0
219.521637 92.0
219.645523 140.0
219.686813 108.0
219.83139 212.0
220.057739 188.0
220.70871 140.0
220.764893 48.0
220.933487 92.0
220.998581 180.0
221.099197 88.0
221.534454 172.0
221.617401 44.0
221.810043 236.0
221.857468 52.0
221.916763 212.0
222.822006 168.0
222.920059 56.0
223.208405 232.0
223.288696 144.0
223.312485 196.0
223.595139 60.0
224.402405 96.0
224.605194 128.0
224.739441 228.0
224.85582 136.0
224.95134 184.0
224.9991 184.0
225.131668 292.0
225.264893 80.0
225.306717 116.0
225.536804 100.0
225.883667 104.0
226.054214 148.0
226.090118 112.0
226.114059 260.0
226.722031 172.0
226.763977 140.0
226.991821 96.0
227.106689 616.0
227.685043 36.0
227.724091 56.0
227.895325 112.0
228.074448 196.0
228.114716 144.0
228.139069 116.0
228.280075 136.0
228.343231 152.0
228.50267 112.0
228.523727 40.0
229.074661 116.0
229.16806 124.0
229.209381 140.0
229.590073 80.0
229.683578 168.0
229.897781 124.0
230.036621 116.0
230.25705 80.0
230.317459 184.0
230.57428 120.0
230.628677 172.0
230.761688 156.0
230.81395 156.0
230.979431 184.0
231.266891 148.0
231.527267 152.0
231.936295 220.0
232.145493 208.0
232.447113 212.0
232.5672 52.0
232.694702 188.0
233.071335 36.0
233.463104 164.0
233.54863 144.0
233.603378 48.0
233.941162 140.0
233.962479 112.0
234.535172 128.0
234.574799 208.0
234.757736 272.0
234.864487 76.0
235.294754 132.0
235.435226 112.0
235.487137 84.0
235.820175 128.0
235.87825 44.0
235.927155 148.0
235.960785 92.0
236.109558 208.0
236.297211 204.0
236.486938 168.0
236.696655 128.0
237.029007 40.0
237.142395 52.0
237.390732 144.0
238.124207 144.0
238.212784 196.0
238.366913 28.0
238.477539 96.0
238.59436 168.0
238.649689 132.0
238.689667 168.0
238.788071 100.0
239.249634 112.0
239.366638 44.0
239.39743 144.0
239.45903 140.0
239.492905 112.0
239.563766 64.0
239.591492 204.0
239.622299 32.0
239.686996 132.0
239.754791 52.0
239.794861 140.0
239.825684 76.0
239.862671 112.0
239.90274 68.0
239.985992 60.0
240.056915 152.0
240.077271 196.0
240.124756 96.0
240.187729 184.0
240.263565 104.0
240.306763 112.0
240.325943 100.0
240.390076 152.0
240.442398 96.0
240.501175 56.0
240.646271 192.0
240.667877 112.0
240.695679 132.0
240.762756 116.0
240.813019 80.0
240.855698 176.0
240.874802 388.0
240.903656 212.0
240.935165 284.0
241.037369 372.0
241.045303 460.0
241.087891 87928.0
241.162964 304.0
241.196411 64.0
241.207764 48.0
241.220657 156.0
241.268814 76.0
241.282318 60.0
241.29245 84.0
241.319046 84.0
241.32869 60.0
241.364517 44.0
241.396652 52.0
241.424011 232.0
241.463715 60.0
241.482941 64.0
241.507431 120.0
241.547531 184.0
241.593903 436.0
241.635162 92.0
241.706055 92.0
241.739761 116.0
241.782898 196.0
241.839996 240.0
241.889008 200.0
241.897278 116.0
241.924149 120.0
241.966461 104.0
242.001801 140.0
242.024384 220.0
242.0327 156.0
242.048141 136.0
242.090027 16452.0
242.186249 140.0
242.238983 144.0
242.269958 104.0
242.306061 68.0
242.328827 80.0
242.37178 224.0
242.396698 84.0
242.427979 80.0
242.471375 72.0
242.51683 120.0
242.534744 80.0
242.601425 72.0
242.654251 116.0
242.675964 116.0
242.6996 112.0
242.737976 52.0
242.809311 136.0
242.854233 88.0
242.883743 44.0
242.946823 48.0
243.026443 64.0
243.091354 2300.0
243.14949 940.0
243.207062 40.0
243.26207 100.0
243.358566 152.0
243.44133 76.0
243.494492 140.0
243.540024 88.0
243.582169 100.0
243.618835 372.0
243.672256 84.0
243.707489 132.0
243.740616 96.0
243.809219 104.0
243.832489 120.0
243.864929 152.0
243.902695 52.0
243.911118 116.0
243.923981 260.0
243.964676 164.0
244.000351 92.0
244.019638 228.0
244.070099 96.0
244.100128 128.0
244.154129 252.0
244.188278 88.0
244.238037 256.0
244.266037 44.0
244.346924 56.0
244.44754 124.0
244.49472 60.0
244.531372 208.0
244.580322 60.0
244.679932 64.0
244.717285 88.0
244.762238 312.0
244.810715 64.0
244.905777 132.0
245.063019 168.0
245.165878 7124.0
245.29364 76.0
245.465118 96.0
245.572449 56.0
246.071014 44.0
246.10791 268.0
246.132889 140.0
246.168533 688.0
246.204269 168.0
246.298416 80.0
246.376511 64.0
246.629623 136.0
246.764053 172.0
246.796997 104.0
246.83284 52.0
246.951675 40.0
247.017365 124.0
247.136246 60.0
247.166687 184.0
247.26767 124.0
247.561966 120.0
247.80629 72.0
247.831345 124.0
248.044464 60.0
248.138504 88.0
248.29216 152.0
248.913513 112.0
249.394196 92.0
249.69603 148.0
250.020065 88.0
250.464005 40.0
250.500671 176.0
251.015549 116.0
251.075165 168.0
251.174545 604.0
251.447739 72.0
251.848724 108.0
252.145309 124.0
252.256348 76.0
252.294281 92.0
252.582047 120.0
252.705429 164.0
252.746567 32.0
252.949112 76.0
253.104248 68.0
253.139725 176.0
253.215088 72.0
253.607971 64.0
253.63649 88.0
254.120895 512.0
254.183533 80.0
254.38829 196.0
254.477188 232.0
254.550217 116.0
254.689957 76.0
254.880569 136.0
254.940948 188.0
255.023575 148.0
255.059204 136.0
255.102325 8452.0
255.162033 72.0
255.184891 156.0
255.22905 76.0
255.268387 36.0
255.309723 100.0
255.357422 104.0
255.382874 48.0
255.40831 64.0
255.742416 36.0
255.786453 72.0
255.798859 60.0
255.834732 44.0
255.923874 88.0
255.994583 76.0
256.044891 148.0
256.104553 2616.0
256.17865 160.0
256.357086 84.0
256.475006 176.0
256.551514 216.0
256.623444 36.0
256.787476 76.0
257.105469 488.0
257.13205 92.0
257.250153 180.0
257.349121 68.0
257.381042 88.0
257.569489 36.0
257.60141 120.0
257.703644 100.0
257.757965 68.0
258.117584 412.0
258.160767 52.0
258.394257 48.0
258.494812 160.0
258.66629 112.0
259.002502 112.0
259.390228 68.0
259.524872 84.0
259.646729 52.0
259.717285 48.0
259.935455 116.0
260.339935 140.0
260.799347 116.0
261.095154 108.0
261.903015 184.0
261.94165 64.0
262.399292 92.0
262.457306 152.0
262.492798 84.0
263.196228 152.0
263.619385 264.0
263.781006 92.0
264.107574 96.0
264.414948 56.0
264.787292 68.0
265.091797 152.0
265.133942 72.0
265.51001 76.0
265.753296 96.0
265.860382 108.0
266.084351 124.0
266.116821 192.0
266.26944 140.0
266.60733 136.0
266.737335 72.0
266.873871 156.0
267.16333 96.0
268.195587 180.0
268.596649 128.0
269.043732 112.0
269.236359 132.0
269.79837 76.0
269.89975 140.0
271.130585 140.0
271.173218 52.0
271.363342 132.0
272.022736 92.0
272.462799 104.0
272.577789 128.0
272.666534 92.0
273.133423 144.0
273.166595 108.0
273.900391 72.0
274.098053 104.0
274.163971 120.0
275.239349 32.0
275.625824 96.0
275.982819 136.0
277.35672 176.0
277.864075 124.0
278.222504 124.0
278.481537 112.0
278.564575 128.0
278.866943 176.0
279.149536 60.0
279.279236 44.0
279.532074 40.0
279.585327 104.0
279.611938 152.0
279.874939 72.0
280.054779 100.0
280.094727 136.0
280.171356 224.0
280.391266 72.0
280.641296 60.0
281.110962 100.0
281.221741 48.0
281.739349 56.0
281.926453 168.0
281.963226 156.0
282.013336 100.0
282.06015 108.0
282.113525 9908.0
282.182068 132.0
282.213928 56.0
282.250702 88.0
282.274109 48.0
282.304199 44.0
282.394501 64.0
282.454712 148.0
282.504883 128.0
282.550659 136.0
282.581848 60.0
282.705658 76.0
282.735779 148.0
282.772583 140.0
282.869659 176.0
282.939941 64.0
282.993683 156.0
283.027008 184.0
283.098969 15736.0
283.18631 164.0
283.234436 200.0
283.420197 52.0
283.46582 68.0
283.516083 84.0
283.58432 56.0
283.697632 48.0
283.824493 68.0
283.850555 216.0
283.970032 120.0
284.047119 124.0
284.102844 3104.0
284.247131 60.0
284.297455 96.0
284.408234 68.0
284.461945 84.0
284.584381 76.0
284.754059 48.0
284.791016 56.0
284.891785 60.0
284.935455 124.0
285.104401 560.0
285.22403 92.0
285.271515 88.0
285.328674 164.0
285.442993 48.0
285.513611 48.0
285.590973 72.0
285.64975 92.0
285.691864 32.0
285.745697 140.0
285.91394 60.0
286.06543 100.0
286.101959 140.0
286.27417 132.0
286.429108 52.0
286.452667 132.0
286.504089 76.0
286.890747 64.0
287.160522 76.0
287.241486 36.0
287.616028 52.0
287.869232 52.0
288.190125 68.0
288.318542 88.0
288.379364 76.0
288.538269 92.0
289.1539 76.0
289.201294 92.0
290.166748 60.0
290.628021 124.0
290.736603 112.0
290.770538 148.0
293.696625 48.0
294.713959 60.0
296.260376 64.0
297.15863 60.0
297.247833 180.0
298.43631 88.0
299.413605 180.0
299.913177 84.0
300.382141 136.0
301.594147 144.0
302.116302 180.0
302.358521 64.0
303.161957 80.0
303.577972 200.0
304.709534 40.0
304.796387 64.0
305.18222 68.0
307.914246 64.0
308.134338 200.0
309.302338 52.0
309.407379 44.0
309.86618 72.0
310.833893 108.0
311.170868 80.0
312.914734 96.0
313.83078 144.0
314.119995 76.0
314.21875 80.0
314.72702 68.0
315.893311 64.0
316.615356 44.0
316.732239 112.0
316.994415 168.0
317.983856 68.0
318.747375 96.0
321.293152 132.0
322.145508 420.0
322.185669 52.0
323.15097 60.0
323.240417 116.0
323.763062 144.0
324.08905 44.0
325.480774 80.0
325.764496 140.0
327.6604 84.0
330.523621 236.0
330.744385 128.0
331.399872 52.0
332.023376 20.0
332.324432 112.0
332.996033 88.0
335.040314 152.0
335.96994 76.0
336.590424 160.0
336.630585 108.0
336.802246 32.0
337.016571 96.0
337.697754 56.0
337.72702 104.0
337.770905 104.0
337.913574 100.0
338.24295 100.0
338.427002 72.0
338.521179 48.0
338.880157 64.0
339.092712 268.0
339.163818 188.0
339.323639 120.0
339.396271 148.0
339.477631 160.0
339.725342 120.0
339.880463 192.0
340.002258 116.0
340.052856 116.0
340.156281 18052.0
340.218811 124.0
340.273499 188.0
340.350983 80.0
340.445648 184.0
340.479523 144.0
340.534607 48.0
340.574127 84.0
340.723175 60.0
340.834045 92.0
340.883606 128.0
340.927704 100.0
340.969513 64.0
340.997528 116.0
341.041656 152.0
341.071289 116.0
341.104126 164.0
341.157959 5356.0
341.3284 56.0
341.401947 40.0
341.466309 64.0
341.641571 80.0
341.721954 72.0
341.795563 40.0
341.893158 76.0
342.082642 48.0
342.160004 716.0
342.233582 40.0
342.259338 68.0
342.34317 68.0
342.536499 64.0
342.700195 64.0
342.75293 92.0
343.109314 52.0
343.17392 168.0
343.260468 112.0
343.404236 120.0
343.493988 92.0
343.575134 64.0
343.641541 48.0
343.744873 48.0
344.017975 92.0
344.155701 200.0
344.483276 80.0
349.201904 56.0
349.276306 84.0
353.641907 56.0
354.064972 116.0
354.109894 72.0
354.836884 92.0
355.24942 108.0
355.684692 96.0
355.970032 80.0
357.372101 52.0
358.497986 108.0
359.576569 136.0
361.019745 60.0
361.859772 100.0
362.105896 64.0
367.981079 100.0
369.027954 40.0
369.819824 92.0
376.830322 108.0
377.885803 152.0
382.110931 92.0
382.542938 84.0
386.641296 68.0
387.036652 76.0
387.757477 100.0
388.373047 64.0
389.448517 52.0
390.147949 108.0
390.191223 172.0
392.22644 120.0
392.908691 104.0
396.887573 92.0
398.145508 140.0
403.065277 132.0
408.190002 244.0
409.190063 116.0
410.140747 148.0
410.245575 108.0
410.277832 176.0
411.807159 56.0
412.3526 136.0
417.765839 48.0
418.030304 44.0
422.068665 68.0
422.22406 56.0
426.167542 124.0
426.738861 96.0
428.858917 84.0
428.990814 52.0
429.172211 44.0
441.743988 48.0
441.831848 72.0
442.346588 104.0
445.537872 108.0
449.272064 56.0
450.73291 20.0
452.001465 44.0
454.900421 60.0
457.519135 120.0
468.390503 56.0
469.197906 40.0
469.516998 36.0
475.036102 36.0
476.807617 52.0
477.799042 108.0
482.05899 68.0
482.675323 88.0
486.131561 100.0
486.658295 36.0
489.115784 44.0
490.767853 52.0
490.904541 48.0
492.771667 64.0
493.938751 76.0
497.355103 36.0
498.55426 56.0
498.989868 72.0
500.409149 120.0
511.579285 136.0
511.682831 60.0
513.75592 52.0
514.315491 80.0
519.088501 64.0
519.687256 96.0
549.793701 64.0
555.703735 104.0
557.864075 92.0
565.955322 48.0
567.428833 76.0
569.29834 100.0
573.089478 76.0
573.880676 100.0
576.362732 48.0
583.778381 92.0
591.343018 68.0
592.534241 88.0
607.221619 40.0
608.24707 48.0
610.11377 172.0
619.812256 52.0
623.280701 48.0
623.946716 96.0
624.667847 52.0
625.921997 136.0
627.785706 96.0
628.553894 60.0
629.187805 156.0
632.82251 120.0
636.753967 120.0
638.975769 64.0
642.774841 92.0
645.184021 100.0
653.155701 160.0
654.529846 152.0
654.784424 196.0
656.6651 100.0
657.757019 68.0
657.813171 148.0
657.940796 188.0
659.570374 76.0
663.681274 176.0
665.051025 180.0
667.125183 112.0
678.312683 212.0
678.737854 156.0
679.448425 144.0
681.332947 212.0
682.93396 176.0
684.115173 164.0
684.599426 164.0
687.02832 68.0
696.776367 152.0
697.701355 44.0
699.800537 152.0
702.108582 92.0
703.517395 64.0
705.847351 184.0
705.974304 136.0
708.827515 128.0
711.155701 48.0
716.340088 152.0
716.521179 76.0
720.132507 104.0
721.211853 128.0
721.960327 144.0
725.585327 232.0
727.946167 48.0
728.880859 52.0
729.187195 152.0
729.902161 80.0
734.091553 52.0
734.733459 48.0
742.143066 80.0
742.609436 96.0
744.020264 184.0
744.280884 156.0
746.367432 68.0
746.590332 76.0
747.156067 156.0
747.776367 80.0
750.080383 80.0
755.853088 96.0
756.958801 80.0
760.665039 168.0
761.301941 56.0
762.900818 160.0
763.769653 164.0
765.25 152.0
765.54187 108.0
766.048584 128.0
766.23584 200.0
766.643616 64.0
767.685486 184.0
768.126709 60.0
768.926758 104.0
768.97644 208.0
770.539185 152.0
771.915466 72.0
772.214111 100.0
773.26532 168.0
774.6828 88.0
777.360779 128.0
779.404236 64.0
782.273987 100.0
782.791138 144.0
783.426758 84.0
783.878052 88.0
784.351746 136.0
785.383301 200.0
785.506042 176.0
786.393188 148.0
787.638367 48.0
788.306091 156.0
788.727966 200.0
789.963745 164.0
791.687622 144.0
792.298157 76.0
792.544678 132.0
792.819275 84.0
794.075073 116.0
798.123962 208.0
798.303894 60.0
798.52887 92.0
798.877625 168.0
799.260193 164.0
799.941162 144.0
801.754822 104.0
802.467285 184.0
804.332336 192.0
807.739685 140.0
810.700806 196.0
811.896973 60.0
814.246521 36.0
814.496399 20.0
814.814514 76.0
814.96228 140.0
818.300903 180.0
818.904541 72.0
820.249207 172.0
821.024597 144.0
823.775757 196.0
824.375671 148.0
825.604736 248.0
826.645874 224.0
829.320435 236.0
830.547424 140.0
831.494141 220.0
832.21167 108.0
833.228271 128.0
834.883667 44.0
835.441589 192.0
836.247192 212.0
838.043884 172.0
839.162048 120.0
839.859802 32.0
839.980957 136.0
843.127625 148.0
843.451294 208.0
844.000549 56.0
848.041321 216.0
848.081848 220.0
848.510864 92.0
849.508301 136.0
850.407715 220.0
851.17981 180.0
851.772217 64.0
853.88208 164.0
855.575378 32.0
856.128479 184.0
856.611938 216.0
857.841492 136.0
857.923096 228.0
859.836304 172.0
859.941345 180.0
860.110596 164.0
862.914673 144.0
864.71051 208.0
866.016174 188.0
867.340393 88.0
870.913757 144.0
871.601074 272.0
873.411804 184.0
875.077209 116.0
877.422058 60.0
877.764038 208.0
878.342041 144.0
878.436401 52.0
878.790405 132.0
882.718323 180.0
885.061584 192.0
888.078003 72.0
888.985718 160.0
891.259949 160.0
891.57489 196.0
892.097961 92.0
892.44873 108.0
893.917969 128.0
895.352661 160.0
895.418152 140.0
896.579895 148.0
897.611206 76.0
897.873596 172.0
898.655029 152.0
898.90564 176.0
900.165161 184.0
900.702637 232.0
901.389709 236.0
902.511292 56.0
903.428528 140.0
903.817383 176.0
904.577454 208.0
904.864807 104.0
905.33783 184.0
906.380188 140.0
906.523987 164.0
907.513 180.0
907.800842 128.0
908.526611 76.0
910.675537 212.0
910.78363 64.0
911.666809 104.0
913.590881 148.0
913.831543 40.0
913.897705 188.0
914.240723 156.0
914.860657 212.0
916.776001 156.0
920.902649 156.0
922.29834 152.0
922.56134 20.0
924.154907 152.0
924.784302 192.0
925.062744 60.0
926.504028 200.0
926.812988 164.0
926.855408 144.0
928.019165 184.0
929.02594 120.0
929.638733 192.0
931.393311 156.0
931.83075 208.0
932.529541 212.0
932.705811 164.0
934.420715 192.0
935.199646 136.0
936.813232 164.0
937.050842 192.0
937.635803 108.0
937.776001 148.0
938.044189 176.0
938.83075 188.0
939.288147 152.0
941.399902 164.0
941.546448 212.0
942.749939 136.0
946.199707 204.0
947.393921 96.0
948.196655 184.0
949.753967 144.0
951.337097 176.0
952.294983 196.0
952.663574 132.0
952.854004 152.0
953.357849 120.0
954.605774 156.0
954.648804 168.0
957.245667 208.0
958.66864 164.0
959.087769 144.0
959.519287 120.0
960.018738 268.0
960.826721 216.0
961.320312 188.0
962.351135 112.0
962.412903 72.0
964.309387 252.0
965.236694 188.0
966.399536 60.0
968.838867 124.0
970.121643 228.0
971.560364 176.0
972.193298 144.0
972.565674 164.0
972.677368 164.0
973.14917 184.0
975.87677 164.0
976.573242 160.0
978.620605 120.0
979.847534 192.0
980.071838 72.0
980.327332 140.0
980.713745 120.0
980.987976 180.0
983.408203 76.0
983.601685 192.0
983.757751 172.0
985.587646 176.0
986.631409 192.0
987.894653 112.0
988.051025 144.0
988.23877 188.0
988.758118 192.0
989.020996 88.0
992.134277 240.0
992.454041 164.0
993.984497 180.0
994.699951 120.0
994.787842 88.0
995.516174 96.0
996.728516 140.0
996.839905 200.0
998.081482 84.0
1000.061584 60.0
1000.124573 148.0
1000.40155 136.0
1000.565186 80.0
1000.678528 140.0
1001.289307 200.0
1001.585327 128.0
1001.673523 176.0
1002.64386 192.0
1002.826599 180.0
1003.501099 160.0
1003.557861 196.0
1003.967712 60.0
1005.866821 184.0
1008.722046 52.0
1008.785217 196.0
1009.733704 36.0
1009.841187 216.0
1011.442017 268.0
1012.59436 140.0
1012.835022 172.0
1013.272156 248.0
1013.514221 192.0
1013.73468 188.0
1013.842407 168.0
1014.279724 184.0
1014.52063 196.0
1015.528809 120.0
1017.838806 176.0
1018.68988 164.0
1019.102844 160.0
1019.93866 148.0
1021.099792 160.0
1021.754028 108.0
1022.549438 168.0
1022.670349 192.0
1024.892944 200.0
1026.020996 112.0
1026.862671 48.0
1027.060425 136.0
1027.11145 216.0
1027.168823 136.0
1028.406738 176.0
1028.630127 132.0
1029.236572 48.0
1029.476562 192.0
1029.709229 180.0
1029.864868 152.0
1029.971069 116.0
1030.986938 112.0
1031.255371 164.0
1031.728394 236.0
1032.163086 152.0
1033.787964 152.0
1036.438965 152.0
1036.573486 140.0
1036.778564 132.0
1037.111816 132.0
1038.541626 208.0
1039.760742 188.0
1039.805664 176.0
1040.794189 136.0
1041.076782 180.0
1041.182861 196.0
1041.751099 204.0
1042.599243 112.0
1043.949219 144.0
1044.097168 36.0
1044.920532 48.0
1046.639038 156.0
1046.825806 64.0
1047.572876 112.0
1048.017456 128.0
1048.455566 168.0
1049.480591 180.0
1049.633911 128.0
1049.886841 124.0
1050.241455 108.0
1050.480225 128.0
1051.886963 176.0
1052.493774 180.0
1052.719727 156.0
1053.120239 184.0
1053.636963 72.0
1053.940674 120.0
1054.153931 156.0
1054.231445 140.0
1054.31543 60.0
1054.392944 224.0
1055.175171 132.0
1056.941772 140.0
1057.018555 156.0
1057.225586 228.0
1057.406738 180.0
1057.950439 100.0
1058.157715 132.0
1058.429565 32.0
1058.792236 128.0
1058.882935 92.0
1059.303955 148.0
1059.763916 124.0
1060.405396 164.0
1060.787842 112.0
1060.846191 160.0
1061.07959 180.0
1061.193848 200.0
1062.078247 220.0
1062.208008 128.0
1062.298828 160.0
1062.765869 108.0
1063.317505 76.0
1063.7146 180.0
1064.051025 152.0
1064.239258 200.0
1064.882202 124.0
1064.979614 164.0
1065.271851 148.0
1065.830566 200.0
1066.019043 96.0
1066.383057 204.0
1066.57373 244.0
1066.909546 80.0
1067.00708 216.0
1067.533691 156.0
1068.053955 120.0
1068.489868 300.0
1068.542847 136.0
1069.894897 128.0
1070.012695 88.0
1070.312256 228.0
1070.839722 44.0
1071.126343 124.0
1071.35437 140.0
1071.777832 160.0
1072.644653 152.0
1072.931396 192.0
1073.296509 160.0
1073.616089 188.0
1073.707397 120.0
1074.235718 136.0
1074.640137 196.0
1075.207886 160.0
1075.769165 192.0
1076.559204 196.0
1077.179688 160.0
1077.584717 144.0
1077.734985 116.0
1078.231689 200.0
1078.506104 204.0
1078.715332 116.0
1079.035645 120.0
1079.970825 84.0
1080.271729 168.0
1080.323975 144.0
1080.533325 132.0
1080.795044 184.0
1081.109131 92.0
1081.554199 152.0
1081.822632 180.0
1082.097534 184.0
1082.156494 200.0
1082.313599 172.0
1083.361572 164.0
1084.147827 156.0
1084.266968 132.0
1084.698364 144.0
1085.078491 196.0
1085.380127 128.0
1085.701416 188.0
1086.331177 224.0
1086.77063 192.0
1086.829712 128.0
1087.564697 92.0
1088.063599 44.0
1088.490356 204.0
1089.127441 156.0
1089.35083 184.0
1089.547852 204.0
1090.053833 112.0
1090.257446 188.0
1090.58606 204.0
1090.697876 112.0
1090.862183 148.0
1091.565308 204.0
1091.841919 180.0
1091.953613 192.0
1092.282593 228.0
1092.387817 176.0
1093.131226 184.0
1093.289185 148.0
1093.55249 60.0
1093.986816 156.0
1094.246582 188.0
1094.994263 180.0
1095.811157 212.0
1096.180054 120.0
1096.456909 164.0
1096.509644 180.0
1096.674438 252.0
1096.984131 108.0
1097.80835 128.0
1097.867676 236.0
1098.296387 236.0
1098.408569 200.0
1098.777954 140.0
1099.583008 192.0
1099.642334 152.0
1099.800781 164.0
1099.926147 120.0
1100.130859 168.0
1100.196777 164.0
1100.665649 196.0
1101.0354 148.0
1101.352417 76.0
1102.237671 232.0
1102.944824 72.0
1103.143188 128.0
1103.665405 284.0
1104.273804 172.0
1104.796387 156.0
1106.086792 176.0
1106.477295 88.0
1107.139526 144.0
1107.192505 48.0
1107.828369 324.0
1108.437866 124.0
1108.590332 192.0
1108.881836 188.0
1109.113892 76.0
1109.319336 180.0
1109.487915 236.0
1109.776733 172.0
1109.856323 156.0
1110.269409 84.0
1110.433228 104.0
1110.744995 88.0
1111.063477 164.0
1111.109863 72.0
1111.362061 184.0
1112.11853 128.0
1112.178223 124.0
1112.662842 168.0
1113.526123 112.0
1113.685547 172.0
1114.017578 136.0
1114.27002 180.0
1114.34314 216.0
1114.735229 176.0
1114.95105 100.0
1115.340942 180.0
1116.603271 232.0
1117.574463 192.0
1118.459595 208.0
1118.898926 128.0
1118.952148 152.0
1119.078613 168.0
1119.311646 144.0
1119.464844 188.0
1119.604736 84.0
1119.804443 52.0
1120.343506 160.0
1120.877075 188.0
1121.276855 152.0
1121.456787 156.0
1121.716797 164.0
1122.230103 180.0
1123.030396 116.0
1123.724121 64.0
1124.137817 108.0
1124.411499 128.0
1124.771851 108.0
1125.032227 216.0
1125.105591 188.0
1125.446777 128.0
1125.753296 168.0
1125.853516 176.0
1125.960327 128.0
1126.174072 132.0
1127.047119 212.0
1127.463501 116.0
1127.655884 256.0
1128.499634 252.0
1129.623047 128.0
1130.292114 164.0
1130.827515 116.0
1132.226807 276.0
1133.982056 156.0
1134.947388 160.0
1135.369873 116.0
1135.752197 196.0
1135.859497 192.0
1135.980225 128.0
1136.483398 180.0
1136.825562 124.0
1137.174561 152.0
1137.409546 180.0
1138.577759 164.0
1138.71875 116.0
1139.061401 236.0
1139.739868 108.0
1141.312744 152.0
1141.662354 156.0
1141.850708 140.0
1142.281128 176.0
1143.451904 164.0
1143.519165 136.0
1143.674072 124.0
1143.99707 132.0
1144.25293 84.0
1144.966675 176.0
1145.067749 120.0
1147.345215 132.0
1147.952148 144.0
1148.215088 104.0
1148.909912 168.0
1149.429321 164.0
1149.618286 48.0
1149.948975 144.0
1150.293213 224.0
1150.4552 196.0
1150.637573 184.0
1150.988647 184.0
1151.177734 96.0
1151.359985 176.0
1151.528931 188.0
1151.873291 168.0
1152.609741 188.0
1152.900269 80.0
1153.265259 64.0
1153.407227 140.0
1154.529541 108.0
1155.003052 92.0
1155.050293 244.0
1155.26001 156.0
1155.51709 172.0
1156.098999 200.0
1156.173462 172.0
1156.315552 148.0
1156.511841 156.0
1156.640503 208.0
1157.07373 136.0
1157.168457 176.0
1157.459717 124.0
1157.879517 208.0
1158.292725 156.0
1158.340088 200.0
1158.489136 40.0
1158.617798 124.0
1158.814331 192.0
1159.200562 144.0
1159.600342 164.0
1159.715576 164.0
1159.88501 164.0
1160.562988 132.0
1160.702271 204.0
1160.793457 152.0
1161.369995 196.0
1161.593872 136.0
1161.770142 204.0
1162.03479 132.0
1163.093384 144.0
1163.222412 32.0
1163.278809 176.0
1163.331055 208.0
1164.234009 156.0
1164.45813 120.0
1164.621216 176.0
1165.337891 120.0
1165.53833 160.0
1165.789673 188.0
1166.333374 188.0
1166.598511 76.0
1167.033569 172.0
1167.285156 104.0
1167.563232 168.0
1167.849731 172.0
1167.93811 132.0
1168.808838 204.0
1169.087891 156.0
1169.203613 144.0
1169.414551 60.0
1169.97583 140.0
1170.102051 164.0
1170.36084 152.0
1170.462891 192.0
1171.225708 164.0
1172.377075 180.0
1172.765625 216.0
1172.874634 176.0
1172.973633 208.0
1173.310913 152.0
1173.447266 128.0
1173.617676 160.0
1173.98291 236.0
1174.313354 160.0
1174.715698 124.0
1174.859009 124.0
1175.432129 144.0
1175.68457 132.0
1175.752808 100.0
1176.210083 112.0
1176.510498 188.0
1176.769897 160.0
1176.824585 124.0
1177.275269 116.0
1177.527954 192.0
1177.760132 156.0
1178.156372 204.0
1178.333984 204.0
1178.440674 180.0
1178.593628 108.0
1178.661865 308.0
1179.024048 172.0
1179.386353 200.0
1179.700806 188.0
1179.946899 164.0
1180.09729 148.0
1181.560913 120.0
1182.046631 204.0
1182.511963 188.0
1182.625488 140.0
1183.319824 152.0
1183.634766 168.0
1183.826416 344.0
1183.888062 124.0
1184.018188 224.0
1184.100342 132.0
1184.422363 156.0
1184.757935 112.0
1185.479736 172.0
1185.689819 148.0
1186.471191 184.0
1186.70166 52.0
1187.383179 132.0
1187.495605 184.0
1187.925049 136.0
1188.110352 40.0
1188.844482 200.0
1189.414185 128.0
1189.482788 168.0
1189.619995 76.0
1190.038818 124.0
1190.320312 212.0
1190.567627 132.0
1190.6698 144.0
1190.835449 148.0
1190.906128 108.0
1191.034546 168.0
1191.0896 180.0
1191.213257 44.0
1191.405518 156.0
1191.611694 152.0
1191.769653 176.0
1192.085815 104.0
1192.285034 96.0
1192.814331 156.0
1192.931152 188.0
1193.075439 196.0
1193.329834 216.0
1193.426147 260.0
1193.549927 176.0
1193.598022 156.0
1194.168823 204.0
1194.230713 156.0
1194.416382 188.0
1195.08374 44.0
1195.135498 136.0
1195.262695 168.0
1195.352051 216.0
1195.400269 96.0
1195.682373 108.0
1196.162109 172.0
1196.191528 120.0
1196.200562 168.0
1196.563477 124.0
1196.652954 76.0
1196.997314 48.0
1197.070801 160.0
1197.258911 156.0
1197.431152 156.0
1197.512817 132.0
1197.555054 268.0
1197.610229 164.0
1197.899536 116.0
1198.230225 160.0
1198.643555 60.0
1198.691772 228.0
1198.932983 116.0
1199.284546 188.0
1199.587769 84.0
1199.911743 116.0
1200.125488 64.0
1200.580688 152.0
1200.877197 160.0
1201.035889 176.0
1201.325562 200.0
1201.477295 128.0
1201.735474 204.0
1201.808472 120.0
1202.207397 216.0
1202.7677 68.0
1202.871338 196.0
1203.016235 136.0
1203.40979 124.0
1203.520264 168.0
1204.210815 184.0
1204.431763 120.0
1204.811768 156.0
1204.873901 92.0
1205.744507 196.0
1205.889648 132.0
1206.235352 148.0
1206.332031 68.0
1206.78833 216.0
1206.871338 128.0
1206.961182 100.0
1207.052734 164.0
1207.445312 252.0
1207.874146 168.0
1208.607422 72.0
1208.905029 200.0
1209.396362 132.0
1209.645508 196.0
1209.901733 196.0
1210.102417 52.0
1210.157837 204.0
1210.545654 84.0
1210.628662 132.0
1210.884888 176.0
1210.955566 236.0
1211.148193 132.0
1211.220947 184.0
1211.633057 132.0
1211.806274 196.0
1212.658569 168.0
1212.804199 152.0
1213.081421 128.0
1213.351807 160.0
1213.462646 104.0
1213.691528 132.0
1214.017456 184.0
1214.287842 132.0
1214.419678 196.0
1214.578369 160.0
1214.913086 152.0
1215.050903 200.0
1215.321533 100.0
1215.500366 252.0
1216.383301 204.0
1216.542969 156.0
1216.619385 72.0
1216.667969 224.0
1216.987305 148.0
1217.056763 160.0
1217.501099 148.0
1218.170776 176.0
1218.563965 120.0
1218.661133 156.0
1218.834839 188.0
1219.043335 148.0
1219.135132 188.0
1219.432495 120.0
1219.495117 240.0
1219.599365 172.0
1219.967773 188.0
1220.23291 188.0
1220.656006 208.0
1220.739502 148.0
1220.795166 260.0
1220.962036 64.0
1221.05249 184.0
1221.14978 120.0
1221.344604 152.0
1221.532349 144.0
1221.588013 120.0
1221.650635 160.0
1222.395142 152.0
1222.722168 132.0
1222.868286 84.0
1223.146729 172.0
1223.459961 164.0
1223.815063 136.0
1224.100586 180.0
1224.204956 192.0
1224.323364 196.0
1224.400024 68.0
1224.476562 196.0
1224.684448 148.0
1224.859619 176.0
1225.166138 100.0
1225.451782 188.0
1225.542358 60.0
1226.058105 168.0
1226.38562 188.0
1226.441406 196.0
1226.755005 116.0
1227.089722 172.0
1227.438354 164.0
1227.515015 76.0
1227.598755 208.0
1227.793945 252.0
1228.045044 192.0
1228.128784 196.0
1228.484497 48.0
1228.815063 116.0
1229.000732 136.0
1229.077515 56.0
1229.133301 124.0
1229.354736 136.0
1229.531128 196.0
1229.719482 372.0
1229.842773 148.0
1230.759644 216.0
1230.923096 156.0
1231.63269 176.0
1231.737427 136.0
1231.835205 148.0
1231.99585 132.0
1232.295654 180.0
1232.421997 160.0
1233.70105 152.0
1234.106567 164.0
1234.162476 192.0
1234.351196 168.0
1234.498047 184.0
1234.616943 104.0
1235.155518 160.0
1235.306396 92.0
1235.407349 172.0
1235.582275 236.0
1235.806152 124.0
1236.042358 204.0
1236.114014 100.0
1236.631836 232.0
1236.896973 136.0
1237.093872 164.0
1237.471924 116.0
1237.64624 192.0
1237.968994 100.0
1238.179077 192.0
1238.455322 176.0
1238.956665 88.0
1239.095093 168.0
1239.376953 164.0
1239.559204 132.0
1239.674805 216.0
1239.769409 160.0
1239.853516 140.0
1239.923584 72.0
1240.056763 92.0
1240.189941 160.0
1240.498291 136.0
1240.827881 208.0
1241.026001 196.0
1241.136353 128.0
1241.837646 156.0
1242.188354 212.0
1242.356689 220.0
1242.550537 144.0
1242.714478 108.0
1242.798706 192.0
1242.910889 136.0
1242.987549 192.0
1243.324951 124.0
1243.47937 152.0
1243.682861 148.0
1244.026855 164.0
1244.125122 256.0
1244.453735 180.0
1245.368042 132.0
1245.540649 284.0
1246.292114 236.0
1246.344482 160.0
1246.695801 112.0
1246.962891 52.0
1247.286255 204.0
1247.616577 120.0
1248.010254 208.0
1248.115723 244.0
1248.33374 148.0
1248.460083 180.0
1248.931519 140.0
1249.374756 220.0
1249.480225 144.0
1249.656128 184.0
1249.733521 152.0
1249.791748 160.0
1249.860229 168.0
1249.95874 164.0
1250.071289 120.0
1250.247192 128.0
1250.387939 64.0
1250.465332 176.0
1251.155151 140.0
1251.345337 176.0
1251.756104 196.0
1252.286255 196.0
1252.362915 156.0
1252.457886 108.0
1252.718628 140.0
1253.070801 200.0
1253.585205 160.0
1254.036255 152.0
1254.318115 156.0
1254.42395 92.0
1254.621338 148.0
1255.023193 164.0
1255.128906 200.0
1255.446289 188.0
1255.502686 136.0
1256.130371 144.0
1256.426636 84.0
1256.835815 76.0
1256.94873 116.0
1257.026367 96.0
1257.809814 160.0
1258.233398 196.0
1258.353394 56.0
1258.536987 164.0
1259.179565 160.0
1259.348999 144.0
1259.560913 152.0
1260.06958 168.0
1260.140259 100.0
1260.210938 180.0
1260.313843 232.0
1260.535889 156.0
1260.825684 140.0
1261.483032 92.0
1262.359741 128.0
1262.890137 168.0
1262.967896 72.0
1263.073975 60.0
1263.392334 140.0
1263.583374 140.0
1263.696533 188.0
1264.418335 88.0
1264.588135 156.0
1265.359741 84.0
1265.685425 140.0
1265.855347 120.0
1266.237793 108.0
1266.315674 172.0
1267.027588 200.0
1267.321655 192.0
1267.668823 56.0
1267.94519 148.0
1268.136597 236.0
1268.214478 236.0
1268.650635 144.0
1268.732056 116.0
1268.880859 172.0
1269.072266 172.0
1269.144043 160.0
1270.668091 176.0
1270.781616 236.0
1271.100952 184.0
1271.164795 140.0
1271.657959 192.0
1272.009399 132.0
1272.186768 208.0
1272.577271 132.0
1272.843506 144.0
1272.953613 184.0
1273.294434 116.0
1273.365479 96.0
1274.180298 164.0
1274.402588 48.0
1274.750854 160.0
1274.956909 144.0
1275.027954 136.0
1275.134521 188.0
1275.333618 180.0
1275.625 180.0
1275.717407 220.0
1275.767212 192.0
1276.072876 312.0
1276.208008 188.0
1276.399902 176.0
1276.910645 212.0
1277.603271 168.0
1277.772705 180.0
1278.000366 180.0
1278.114258 168.0
1278.18335 124.0
1278.441528 48.0
1278.697754 168.0
1278.835938 188.0
1278.996704 84.0
1279.737061 156.0
1279.922119 80.0
1279.986206 52.0
1280.11438 216.0
1280.399292 148.0
1280.669922 164.0
1280.862183 36.0
1281.018921 204.0
1281.873901 236.0
1282.287231 140.0
1282.422607 116.0
1282.850342 232.0
1282.914551 160.0
1282.996338 152.0
1283.057129 184.0
1283.233521 164.0
1283.299438 120.0
1283.375854 204.0
1283.54187 176.0
1284.087769 204.0
1284.247925 188.0
1284.668823 196.0
1285.289429 124.0
1285.36084 216.0
1285.409058 244.0
1285.674805 136.0
1285.767822 152.0
1286.487183 192.0
1287.266724 168.0
1287.780884 196.0
1288.488159 172.0
1288.652466 112.0
1288.728638 168.0
1288.988281 128.0
1289.116943 160.0
1289.274048 152.0
1289.367065 148.0
1289.495605 128.0
1290.010254 172.0
1290.110352 88.0
1290.517822 56.0
1290.653687 216.0
1291.154297 228.0
1291.948242 100.0
1292.14856 180.0
1292.327393 176.0
1292.699463 88.0
1292.974731 184.0
1293.071655 180.0
1293.136108 112.0
1293.193359 236.0
1293.314941 192.0
1293.422363 100.0
1294.425415 184.0
1294.632324 208.0
1294.682495 124.0
1295.133667 204.0
1295.29126 128.0
1295.398682 264.0
1295.706787 352.0
1295.921631 156.0
1296.315796 160.0
1296.740845 116.0
1296.89624 128.0
1297.227417 140.0
1297.340698 112.0
1297.821045 144.0
1297.942993 220.0
1298.057617 136.0
1298.11499 188.0
1298.20105 100.0
1298.980835 200.0
1299.312866 176.0
1299.54248 80.0
1299.772095 180.0
1299.886841 196.0
1300.014648 172.0
1300.303101 196.0
1300.38208 156.0
1300.494873 256.0
1300.575806 172.0
1300.683472 180.0
1300.834229 212.0
1301.171631 148.0
1301.415771 220.0
1301.839355 168.0
1302.018921 68.0
1302.862793 184.0
1303.017334 232.0
1303.089233 156.0
1303.182617 204.0
1303.31189 152.0
1303.556274 208.0
1303.872437 156.0
1303.948364 220.0
1304.115723 152.0
1304.263672 264.0
1304.490601 164.0
1304.893188 144.0
1305.123291 120.0
1305.209595 132.0
1305.446777 156.0
1305.518799 152.0
1305.763306 148.0
1305.928711 204.0
1306.151611 140.0
1306.223633 136.0
1306.482544 56.0
1306.755981 156.0
1307.300171 236.0
1307.525879 136.0
1307.5979 148.0
1307.885742 196.0
1308.303223 180.0
1308.484131 168.0
1308.792847 108.0
1309.131226 136.0
1309.793823 160.0
1309.916382 176.0
1310.384644 56.0
1310.665649 152.0
1310.773682 172.0
1311.278076 148.0
1312.208008 96.0
1312.366577 144.0
1312.669434 240.0
1313.030029 208.0
1313.419556 232.0
1313.722534 200.0
1313.960571 60.0
1314.227539 72.0
1314.285278 152.0
1314.364624 104.0
1314.682129 200.0
1314.970825 208.0
1315.19458 68.0
1316.494019 124.0
1316.703491 136.0
1316.999634 128.0
1317.245239 152.0
1317.382446 188.0
1317.512451 32.0
1317.931519 172.0
1318.149658 112.0
1318.227783 160.0
1318.615723 212.0
1319.615601 144.0
1319.86145 144.0
1320.324219 200.0
1321.718506 196.0
1321.930176 224.0
1322.291504 228.0
1323.35791 164.0
1323.515503 152.0
1323.624023 164.0
1323.725464 228.0
1323.812378 164.0
1323.990723 272.0
1324.235229 184.0
1324.826294 168.0
1324.884277 156.0
1325.058228 156.0
1325.188599 120.0
1325.282715 348.0
1325.746582 108.0
1325.927734 140.0
1326.224487 204.0
1326.375732 212.0
1326.867554 248.0
1327.094727 256.0
1327.421021 84.0
1327.522583 44.0
1327.674927 100.0
1327.906982 104.0
1327.99707 172.0
1328.255127 184.0
1328.828247 164.0
1329.205444 128.0
1329.575562 120.0
1330.25647 148.0
1330.38855 196.0
1330.729736 220.0
1331.100098 136.0
1331.368774 208.0
1331.486328 208.0
1331.615723 84.0
1332.298462 96.0
1332.58313 148.0
1332.683472 128.0
1333.090454 184.0
1333.366577 132.0
1333.533691 156.0
1334.19519 132.0
1334.391479 164.0
1334.616943 100.0
1334.792847 168.0
1334.965942 144.0
1335.045898 116.0
1335.322266 124.0
1335.802368 172.0
1335.969604 88.0
1336.057007 224.0
1336.217041 184.0
1336.304321 104.0
1336.580811 48.0
1336.704468 176.0
1337.141113 128.0
1337.468628 228.0
1338.196655 140.0
1338.29126 164.0
1338.440308 244.0
1338.728149 200.0
1339.034058 144.0
1339.192871 340.0
1339.252563 148.0
1339.325439 148.0
1339.820679 88.0
1339.937256 160.0
1340.192261 124.0
1340.549316 180.0
1340.622192 244.0
1340.848145 184.0
1341.256104 176.0
1341.42395 144.0
1341.569702 224.0
1341.744751 100.0
1341.905151 140.0
1342.255127 84.0
1342.430054 44.0
1342.821655 264.0
1343.013062 116.0
1343.640869 120.0
1344.012939 188.0
1344.16626 140.0
1344.377808 188.0
1344.917847 224.0
1345.085815 148.0
1345.385132 208.0
1345.53833 148.0
1345.589478 232.0
1345.706299 164.0
1345.903442 96.0
1345.991089 28.0
1346.414673 164.0
1346.52417 176.0
1346.911255 168.0
1346.998901 148.0
1347.312988 140.0
1347.524902 136.0
1347.619873 164.0
1347.692993 168.0
1348.065552 96.0
1348.438354 148.0
1348.599121 184.0
1348.679565 72.0
1348.796509 204.0
1348.900757 168.0
1348.993774 144.0
1349.244507 208.0
1349.447144 132.0
1349.571411 180.0
1349.893066 172.0
1350.163696 160.0
1350.251465 356.0
1350.778076 128.0
1350.975586 240.0
1351.268188 228.0
1351.721802 108.0
1352.051147 164.0
1352.200806 144.0
1352.527832 160.0
1352.585449 188.0
1352.731812 116.0
1353.069214 184.0
1353.625244 248.0
1353.76416 128.0
1354.156006 160.0
1354.240234 152.0
1354.394043 164.0
1354.459961 184.0
1354.591797 32.0
1354.988281 168.0
1355.309814 148.0
1355.544312 176.0
1355.680542 172.0
1355.756836 196.0
1356.093872 164.0
1356.34314 156.0
1356.394409 152.0
1356.460449 172.0
1356.746338 132.0
1356.907593 164.0
1357.362183 200.0
1357.486816 156.0
1357.626099 144.0
1357.750854 140.0
1357.868164 116.0
1358.154175 48.0
1358.304565 200.0
1358.667725 176.0
1358.755737 216.0
1358.953857 60.0
1359.203857 196.0
1359.280396 180.0
1359.57019 100.0
1359.900513 136.0
1360.128052 144.0
1360.270264 232.0
1360.458374 148.0
1360.532104 152.0
1360.685913 180.0
1360.753174 172.0
1361.368774 156.0
1361.66626 164.0
1361.721313 100.0
1361.802124 48.0
1361.882812 132.0
1362.022461 192.0
1362.088501 156.0
1362.190796 188.0
1362.40271 240.0
1362.646851 136.0
1362.801147 80.0
1362.999512 172.0
1363.153809 176.0
1363.315552 184.0
1363.780884 184.0
1363.954956 204.0
1364.07251 68.0
1364.542969 124.0
1364.969482 92.0
1365.145996 100.0
1365.212158 168.0
1365.267944 192.0
1365.763672 168.0
1366.109497 240.0
1366.19043 136.0
1366.521484 212.0
1366.646484 200.0
1366.727417 184.0
1366.778931 208.0
1367.00708 224.0
1367.500122 156.0
1367.81665 124.0
1368.089722 220.0
1368.155273 224.0
1368.346191 168.0
1368.96521 232.0
1369.094482 172.0
1369.252441 172.0
1369.344971 112.0
1369.834229 132.0
1369.915283 140.0
1370.121582 204.0
1370.261353 188.0
1370.909912 160.0
1370.968506 156.0
1370.992554 148.0
1371.0271 188.0
1371.278442 192.0
1371.477417 348.0
1371.875488 212.0
1372.074585 248.0
1372.236694 52.0
1372.391602 92.0
1372.996216 252.0
1373.114258 172.0
1373.217896 128.0
1373.505127 216.0
1373.623169 132.0
1373.7854 160.0
1374.117432 188.0
1374.287109 68.0
1374.397827 88.0
1374.585693 260.0
1375.054565 112.0
1375.342407 180.0
1375.622925 164.0
1375.992065 76.0
1376.102783 136.0
1376.220947 216.0
1376.361206 184.0
1376.538452 168.0
1376.597534 180.0
1376.693481 144.0
1376.790283 160.0
1377.166138 184.0
1377.22522 144.0
1377.432007 164.0
1377.579834 224.0
1377.794067 124.0
1377.917969 176.0
1378.015625 72.0
1378.082153 160.0
1378.281616 140.0
1378.525513 116.0
1378.761963 144.0
1379.042847 164.0
1379.164917 212.0
1379.552124 200.0
1379.678589 156.0
1380.869019 196.0
1381.268433 132.0
1381.32019 200.0
1381.453369 128.0
1381.801025 212.0
1382.000854 284.0
1382.054077 228.0
1382.134033 204.0
1382.260986 108.0
1382.348633 244.0
1382.407837 176.0
1382.541016 168.0
1382.616211 156.0
1382.925903 296.0
1383.059082 120.0
1383.305298 220.0
1383.384766 152.0
1383.732788 132.0
1383.940063 40.0
1384.154785 68.0
1384.236206 184.0
1384.441406 176.0
1384.623413 208.0
1384.710205 152.0
1384.924927 192.0
1385.058228 152.0
1385.481689 188.0
1385.539795 144.0
1385.739868 184.0
1386.325195 168.0
1386.439819 128.0
1386.506348 232.0
1386.695801 224.0
1386.918091 180.0
1387.552002 236.0
1387.737305 176.0
1387.980713 196.0
1388.037598 160.0
1388.089478 132.0
1388.230347 176.0
1388.341553 56.0
1388.806641 204.0
1388.87561 136.0
1389.224243 140.0
1389.417114 128.0
1389.639648 184.0
1390.077393 148.0
1390.359497 160.0
1390.782471 156.0
1391.131348 112.0
1391.190796 76.0
1391.290649 180.0
1391.458008 132.0
1392.036499 192.0
1392.14856 76.0
1392.208008 200.0
1392.326782 204.0
1392.393677 160.0
1392.497559 108.0
1392.646118 92.0
1392.765747 180.0
1392.839233 136.0
1392.933838 160.0
1393.125 288.0
1393.493042 228.0
1393.708496 168.0
1393.760498 184.0
1393.886841 116.0
1394.102295 256.0
1394.161743 60.0
1394.288086 232.0
1394.384644 144.0
1394.577881 236.0
1394.667114 228.0
1394.723267 200.0
1395.180054 180.0
1395.358398 124.0
1395.630737 188.0
1395.841797 180.0
1396.197266 152.0
1396.296265 160.0
1396.65979 172.0
1396.987061 112.0
1397.046631 136.0
1397.22522 224.0
1397.366577 204.0
1397.440918 156.0
1397.798096 52.0
1397.887329 44.0
1397.939453 160.0
1398.103149 164.0
1398.259521 40.0
1398.445557 84.0
1398.780518 172.0
1398.895264 172.0
1399.097412 148.0
1399.197388 160.0
1399.688721 208.0
1399.748291 192.0
1399.807861 176.0
1399.934204 116.0
1400.381348 28.0
1400.476929 152.0
1401.170898 152.0
1401.468994 180.0
1401.565796 160.0
1401.759521 120.0
1402.027832 144.0
1402.102295 180.0
1402.355713 144.0
1402.512207 180.0
1402.639038 120.0
1402.857666 200.0
1402.929688 56.0
1403.101196 84.0
1403.183228 328.0
1403.290527 184.0
1403.884888 172.0
1403.981079 96.0
1404.166504 180.0
1404.398682 160.0
1404.450928 160.0
1404.64624 148.0
1404.685303 232.0
1404.871582 188.0
1405.264038 176.0
1405.547485 184.0
1405.691406 196.0
1405.771362 164.0
1405.958008 164.0
1406.010254 240.0
1406.204224 76.0
1406.380981 232.0
1406.525146 116.0
1406.644653 204.0
1406.876099 40.0
1406.943237 164.0
1407.062622 208.0
1407.256836 120.0
1407.480835 168.0
1407.540527 160.0
1407.824341 204.0
1408.421753 160.0
1408.630859 132.0
1408.750488 80.0
1408.802734 104.0
1408.869995 172.0
1408.959595 140.0
1409.08667 108.0
1409.407837 200.0
1409.826294 56.0
1410.02063 176.0
1410.151611 176.0
1410.22998 252.0
1410.395264 128.0
1410.623291 216.0
1410.678467 188.0
1410.820435 124.0
1410.999878 388.0
1411.508301 112.0
1411.672852 156.0
1411.83728 60.0
1412.001831 140.0
1412.054199 128.0
1412.36084 180.0
1412.465576 220.0
1412.734863 140.0
1412.955688 304.0
1413.146851 168.0
1413.43811 76.0
1413.864746 132.0
1414.044312 136.0
1414.171509 128.0
1414.298828 176.0
1414.433472 44.0
1414.545776 48.0
1414.613159 180.0
1414.864014 164.0
1414.942505 168.0
1415.099731 200.0
1415.152222 132.0
1415.309448 160.0
1415.45166 104.0
1415.821777 196.0
1416.020874 152.0
1416.185547 116.0
1416.335449 176.0
1416.395386 176.0
1416.447754 168.0
1416.561157 184.0
1416.829834 96.0
1416.897217 168.0
1417.121948 108.0
1417.668945 152.0
1417.818848 132.0
1417.923828 148.0
1418.658325 276.0
1418.995728 64.0
1419.075684 244.0
1419.15686 216.0
1419.269165 180.0
1419.715576 124.0
1419.873047 240.0
1419.946167 172.0
1420.038086 160.0
1420.110107 196.0
1420.397095 152.0
1420.493164 128.0
1420.915649 224.0
1421.058228 168.0
1421.118286 132.0
1421.365845 180.0
1421.605957 164.0
1421.700684 136.0
1422.048706 200.0
1422.206421 160.0
1422.484131 196.0
1422.701294 212.0
1423.279907 128.0
1423.33252 132.0
1423.655396 164.0
1424.098511 208.0
1424.173584 140.0
1424.308716 160.0
1424.541626 132.0
1424.999878 116.0
1425.067505 108.0
1425.120117 136.0
1425.217773 200.0
1425.548462 196.0
1425.886597 92.0
1426.104492 172.0
1426.209717 176.0
1426.660767 196.0
1426.856201 80.0
1427.38916 200.0
1428.014282 164.0
1428.093628 140.0
1428.322632 108.0
1428.593506 196.0
1428.751465 92.0
1429.069946 248.0
1429.1427 104.0
1429.323242 140.0
1429.481323 48.0
1429.880127 72.0
1429.962891 236.0
1430.179565 152.0
1430.496704 188.0
1430.647827 168.0
1430.748901 152.0
1430.994141 116.0
1431.408325 140.0
1431.566406 88.0
1432.078613 176.0
1432.199097 72.0
1432.259277 224.0
1432.394897 216.0
1432.771606 184.0
1432.831787 144.0
1432.994263 204.0
1433.072876 48.0
1433.268799 204.0
1433.449707 196.0
1433.698364 188.0
1433.95459 216.0
1434.061157 232.0
1434.286255 216.0
1434.575684 172.0
1434.636353 124.0
1434.79126 120.0
1434.859131 64.0
1435.90625 168.0
1436.052734 140.0
1436.133545 164.0
1436.314575 100.0
1436.540894 136.0
1436.601196 112.0
1436.684204 136.0
1436.804932 200.0
1436.902954 64.0
1436.985962 220.0
1437.536743 168.0
1437.665771 184.0
1437.838623 136.0
1437.929199 200.0
1438.465088 224.0
1438.570801 176.0
1438.759521 216.0
1439.002319 200.0
1439.287964 156.0
1439.73999 140.0
1439.837402 196.0
1439.944946 184.0
1440.00354 176.0
1440.07605 116.0
1440.148926 188.0
1440.277344 180.0
1440.428345 172.0
1440.522705 140.0
1440.622803 140.0
1440.904297 84.0
1441.002563 104.0
1441.161255 412.0
1441.622192 160.0
1442.02832 196.0
1442.340088 96.0
1442.952393 132.0
1443.035645 76.0
1443.096069 200.0
1443.27002 156.0
1443.397339 104.0
1443.83728 180.0
1444.389282 92.0
1444.47998 72.0
1444.532959 168.0
1445.077637 200.0
1445.531616 304.0
1445.811646 128.0
1446.515503 76.0
1446.598877 184.0
1447.090942 212.0
1447.212036 68.0
1447.555054 144.0
1447.666382 232.0
1448.113159 132.0
1448.287354 112.0
1448.46167 112.0
1449.438965 96.0
1449.499512 128.0
1449.901123 176.0
1449.96936 148.0
1451.097412 184.0
1451.341431 176.0
1451.500732 204.0
1451.553711 156.0
1451.637207 52.0
1451.697876 128.0
1451.987915 164.0
1452.191406 140.0
1452.630737 160.0
1452.964478 204.0
1453.085938 116.0
1453.177002 156.0
1453.35144 36.0
1453.503174 48.0
1453.886719 188.0
1454.079956 140.0
1454.360718 160.0
1454.563477 192.0
1454.732666 160.0
1454.861816 180.0
1454.914917 208.0
1455.256592 216.0
1455.575439 132.0
1455.651367 136.0
1455.73877 172.0
1455.962769 132.0
1456.39563 160.0
1456.471558 160.0
1456.950684 172.0
1457.182983 112.0
1457.307251 148.0
1457.515381 248.0
1457.667847 200.0
1457.983521 152.0
1458.181152 208.0
1458.561157 144.0
1458.781616 168.0
1459.078125 300.0
1459.17395 172.0
1459.306152 168.0
1459.374634 136.0
1459.625488 192.0
1459.747192 88.0
1459.838379 188.0
1460.58374 200.0
1460.766357 56.0
1461.047852 76.0
1461.139038 96.0
1461.671631 76.0
1461.877197 200.0
1462.036987 128.0
1462.569702 152.0
1462.645874 124.0
1462.729614 184.0
1463.025146 164.0
1463.392822 168.0
1463.666016 204.0
1463.757324 168.0
1463.917236 168.0
1464.151733 212.0
1464.35022 180.0
1464.998413 204.0
1465.143555 216.0
1465.501587 152.0
1465.760742 120.0
1465.989258 164.0
1466.149292 92.0
1466.309326 188.0
1466.507568 172.0
1467.201172 152.0
1467.387939 128.0
1467.485718 148.0
1467.635742 192.0
1468.070435 124.0
1468.238159 168.0
1468.314453 28.0
1468.497437 148.0
1468.821899 208.0
1468.993286 200.0
1469.100098 160.0
1469.493164 184.0
1469.56543 212.0
1469.725708 112.0
1470.000366 236.0
1470.267456 200.0
1470.458252 188.0
1470.572754 144.0
1471.152832 148.0
1471.374268 116.0
1471.435303 220.0
1471.862915 212.0
1471.974731 192.0
1472.046143 120.0
1472.26001 100.0
1472.56543 228.0
1472.72583 172.0
1472.807983 224.0
1472.915771 176.0
1473.031372 68.0
1473.25293 116.0
1473.405762 184.0
1473.459229 192.0
1473.705444 228.0
1473.925293 164.0
1474.353149 180.0
1474.77356 136.0
1475.125122 168.0
1475.209229 164.0
1475.331543 44.0
1475.583862 164.0
1475.65271 188.0
1475.744385 48.0
1475.836182 160.0
1476.394409 132.0
1476.554932 136.0
1476.608521 128.0
1476.952637 168.0
1477.219604 148.0
1477.373413 176.0
1477.648804 120.0
1477.717651 152.0
1477.863037 148.0
1478.016113 108.0
1478.314453 160.0
1478.41394 152.0
1478.574707 280.0
1478.651245 156.0
1478.911499 96.0
1479.395264 136.0
1479.531494 128.0
1480.021484 136.0
1480.090332 212.0
1480.366089 172.0
1480.488037 160.0
1480.615845 256.0
1481.185547 144.0
1481.262207 164.0
1481.331055 216.0
1481.987305 236.0
1482.763916 180.0
1482.817505 124.0
1483.239136 192.0
1483.331055 132.0
1483.474121 116.0
1483.630005 156.0
1483.699097 240.0
1483.752686 172.0
1483.906006 152.0
1484.230347 232.0
1484.50415 104.0
1484.64978 292.0
1484.764893 160.0
1484.918213 56.0
1485.263428 156.0
1485.362671 132.0
1485.424438 168.0
1485.499634 212.0
1485.700684 328.0
1485.946167 172.0
1486.18396 188.0
1486.391113 180.0
1486.513916 124.0
1486.621338 180.0
1486.838745 132.0
1486.900757 136.0
1487.057129 168.0
1487.181641 172.0
1487.527954 164.0
1487.795654 180.0
1487.9646 152.0
1488.079712 84.0
1488.450439 140.0
1488.70166 148.0
1488.901367 232.0
1489.275635 136.0
1489.500488 116.0
1489.644531 144.0
1490.222534 164.0
1490.291748 172.0
1490.36084 144.0
1490.798828 36.0
1491.275391 312.0
1491.375244 48.0
1491.498291 192.0
1492.091309 172.0
1492.197754 240.0
1492.358276 192.0
1492.520752 196.0
1493.066772 168.0
1493.289795 140.0
1493.55127 104.0
1493.635864 52.0
1493.74353 120.0
1493.905151 180.0
1494.228149 160.0
1494.828369 108.0
1495.113037 224.0
1495.174683 148.0
1495.289185 168.0
1495.404907 156.0
1495.497925 128.0
1495.559448 84.0
1495.705688 176.0
1495.782715 128.0
1495.959717 208.0
1496.28772 180.0
1496.421631 388.0
1496.699829 128.0
1496.845093 204.0
1497.078369 112.0
1497.19165 184.0
1497.241455 180.0
1497.445801 36.0
1497.815552 228.0
1498.038574 200.0
1498.200684 200.0
1498.408691 236.0
1498.470337 148.0
1498.531982 156.0
1498.609009 208.0
1498.806641 116.0
1498.850952 128.0
1498.917236 172.0
1499.042969 212.0
1499.135986 192.0
1499.279419 36.0
1499.381958 116.0
1500.104126 124.0
1500.25061 244.0
1500.845703 236.0
1501.067871 164.0
1501.229736 104.0
1501.476562 36.0
1501.615356 120.0
1501.75415 132.0
1501.851929 204.0
1502.093628 96.0
1502.169678 140.0
1502.273682 232.0
1502.541016 172.0
1502.718506 164.0
1503.03479 152.0
1503.088867 88.0
1503.166016 132.0
1503.297119 128.0
1503.55188 180.0
1503.659912 148.0
1503.875977 148.0
1503.945068 176.0
1504.053467 192.0
1504.130737 172.0
1504.308228 204.0
