>compound EthinylEstradiol
>formula C20H24O2 
>ionization [M+H]+
>parentmass 297.184
#inchi InChI=1S/C20H24O2/c1-3-20(22)11-9-18-17-6-4-13-12-14(21)5-7-15(13)16(17)8-10-19(18,20)2/h1,5,7,12,16-18,21-22H,4,6,8-11H2,2H3/t16-,17-,18+,19+,20+/m1/s1
#inchikey BFPYWIDHMRZLRN
#Ion_Source LC-ESI
#Instrument qTof
#Compound_Source Isolated
#PI Sirenas
#Data_Collector Ed Esquenazi 
#Scan -1
#Precursor_MZ 297.184
#ExactMass 0.0
#Charge 1
#CAS_Number N/A
#Pubmed_ID N/A
#Smiles N/A
#INCHI_AUX N/A
#Library_Class 3
#SpectrumID CCMSLIB00000004896
#IonMode Positive
#UpdateWorkflowName UPDATE-SINGLE-ANNOTATED-BRONZE
#LibraryQualityString Bronze
#TaskID d19310cd93df49b68e9fcbec27720eb5
##Scan# 5
#SpectrumFile EthinylEstradiol.mgf
#LibraryName fda_library.mgf
#MQScore -1
#Organism fda_library
#TIC_Query 0
#RT_Query -1
#MZErrorPPM -1
#SharedPeaks 0
#MassDiff 0
#LibMZ -1
#SpecMZ 297.184
#SpecCharge 0
#internalFilename spec-00000.mgf

>collision 10
105.06813 79.682716
106.467117 29.272249
107.048386 662.539001
107.083549 116.8125
107.25769 10.16329
107.294884 12.51852
107.38269 20.04545
109.062065 43.346939
109.098213 72.397217
117.068512 20.502979
119.048256 80.681099
119.082474 105.817902
121.047028 91.817902
121.06411 221.670303
123.08136 55.660519
123.116676 19.57658
127.051147 41.27615
129.068573 24.400761
130.073792 51.068371
131.083542 87.226189
133.065506 179.504898
133.104507 31.67593
133.117706 21.148331
141.067841 72.666832
143.082962 24.67864
144.053558 66.579201
145.062851 61.27354
145.100983 110.560501
147.078003 105.952698
147.207672 10.74755
157.062531 64.613441
159.116318 227.723694
159.518219 15.1405
165.065399 28.97127
171.082855 28.186689
171.114883 59.866379
172.12323 68.399277
185.09169 52.366871
185.12825 45.520351
187.109726 37.115742
195.080093 46.18792
197.091568 160.471298
209.090988 21.375
211.112427 30.227221
214.135757 47.74419
219.114059 29.963091
225.083389 30.528391
229.151093 10.01071
239.133881 36.529758
240.150406 20.0651
251.143951 78.836853
256.263672 23.43539
297.17746 53.5163
