>compound MILRINONE
>formula C12H9N3O
>ionization [M+H]+
>parentmass 212.083099
#inchi InChI=1S/C12H9N3O/c1-8-11(9-2-4-14-5-3-9)6-10(7-13)12(16)15-8/h2-6H,1H3,(H,15,16)
#inchikey PZRHRDRVRGEVNW
#Ion_Source LC-ESI
#Instrument qTof
#Compound_Source Commercial
#PI Dorrestein
#Data_Collector Garg_Neha
#Scan -1
#Precursor_MZ 212.082
#ExactMass 211.075
#Charge 1
#CAS_Number N/A
#Pubmed_ID N/A
#Smiles Cc1nc(O)c(C#N)cc1c2ccncc2
#INCHI_AUX N/A
#Library_Class 1
#SpectrumID CCMSLIB00000079129
#IonMode Positive
#UpdateWorkflowName UPDATE-SINGLE-ANNOTATED-GOLD
#LibraryQualityString Gold
#TaskID 278b19f5865741e282cec7349aa7e7a1
##Scan# 1046
#SpectrumFile NCP003512_E2_F11_BD6_01_15730.mzXML
#LibraryName NIHcollectionI_05062014.mgf
#MQScore -1
#Organism NIHcollectionI_05062014
#TIC_Query 0
#RT_Query -1
#MZErrorPPM -1
#SharedPeaks 0
#MassDiff 0
#LibMZ -1
#SpecMZ 212.082
#SpecCharge 0
#internalFilename spec-00000.mgf

>collision 10
48.774925 220.0
52.698349 220.0
53.076126 188.0
53.672291 208.0
53.730633 144.0
53.992096 176.0
54.958679 252.0
59.832458 152.0
60.837334 164.0
62.561676 280.0
62.591591 196.0
66.071327 140.0
68.383629 160.0
69.116348 204.0
69.690048 164.0
73.604881 148.0
75.739182 200.0
84.411293 180.0
85.052513 196.0
87.144875 168.0
92.097832 244.0
92.60038 344.0
95.072548 148.0
96.080452 144.0
98.096931 1412.0
99.095848 248.0
99.72747 232.0
100.118301 208.0
100.143311 176.0
101.005577 164.0
101.117622 180.0
106.023048 220.0
107.019318 260.0
107.931305 164.0
109.038284 184.0
110.096916 708.0
111.10759 180.0
111.636894 156.0
112.112282 836.0
112.54509 164.0
113.113777 168.0
115.054642 176.0
115.704552 172.0
117.227409 156.0
125.057793 196.0
126.088501 144.0
126.127724 244.0
126.540039 192.0
127.0914 160.0
127.518066 176.0
130.074936 164.0
130.932098 148.0
132.046616 224.0
132.549454 176.0
135.048294 196.0
136.048477 128.0
137.057709 164.0
137.321136 148.0
138.092972 376.0
138.126953 200.0
139.094727 312.0
139.56691 152.0
140.048294 496.0
140.103516 152.0
140.136505 156.0
140.516083 216.0
141.053497 220.0
141.189285 156.0
141.555618 204.0
142.069016 256.0
142.096497 228.0
144.039047 176.0
144.071198 148.0
145.037338 156.0
145.064255 184.0
146.062134 412.0
148.063736 12276.0
148.142929 240.0
148.564896 1628.0
148.792419 216.0
149.945847 160.0
151.619934 148.0
152.145782 484.0
154.064163 364.0
154.15538 128.0
154.566101 168.0
155.155899 296.0
156.038452 152.0
156.067993 160.0
156.108063 156.0
157.073227 456.0
158.056244 200.0
161.075699 224.0
161.568588 192.0
162.201675 252.0
163.766861 180.0
164.84346 152.0
166.121048 224.0
166.870926 140.0
167.020081 172.0
167.063385 416.0
168.068939 648.0
169.077423 812.0
170.071625 156.0
171.054153 304.0
171.183426 736.0
171.46048 164.0
172.190781 164.0
173.129837 152.0
173.832382 144.0
174.552124 232.0
174.581055 216.0
174.915192 188.0
174.933609 164.0
175.08757 9736.0
175.117935 200.0
175.459793 104.0
175.587799 2512.0
175.638901 140.0
176.090485 172.0
176.347427 140.0
179.06958 152.0
179.306686 156.0
181.078003 144.0
182.070007 760.0
182.150879 172.0
182.860718 140.0
183.079803 912.0
183.184784 1740.0
184.06485 168.0
184.086777 1540.0
184.186844 164.0
185.069504 700.0
192.360428 160.0
193.059448 172.0
193.540924 164.0
194.072983 664.0
195.055817 684.0
195.241959 156.0
195.609222 160.0
196.063171 1048.0
196.084625 724.0
197.066086 464.0
197.089066 276.0
201.134201 212.0
201.487183 216.0
202.626694 1048.0
203.127167 336.0
205.590164 192.0
206.070694 540.0
207.081818 148.0
208.626266 176.0
209.092224 144.0
209.276459 152.0
210.06546 356.0
210.816788 144.0
210.969971 200.0
211.074173 3440.0
211.421188 176.0
211.476166 188.0
211.630981 1580.0
212.025299 212.0
212.083099 39528.0
212.128815 616.0
212.178101 152.0
212.238861 148.0
212.639206 308.0
212.930786 224.0
213.011276 140.0
213.084656 6488.0
213.952927 144.0
214.086868 400.0
214.126923 288.0
214.633179 188.0
214.673126 104.0
222.066376 556.0
223.066895 132.0
224.083527 1720.0
225.086197 508.0
226.08754 200.0
228.054962 168.0
231.963837 168.0
232.643341 188.0
233.430252 184.0
235.07663 272.0
236.084747 332.0
238.063232 740.0
238.096497 124.0
239.072556 212.0
239.10199 156.0
240.075485 180.0
251.696945 228.0
252.077301 2676.0
253.002701 164.0
253.081329 480.0
254.077026 160.0
254.804047 140.0
254.854874 140.0
267.088806 152.0
267.116852 180.0
269.100555 584.0
281.099548 624.0
283.474884 152.0
292.138702 176.0
295.121796 488.0
296.111816 144.0
305.194611 192.0
319.148254 160.0
320.150635 152.0
321.173523 164.0
347.761444 192.0
349.165497 1312.0
350.171539 548.0
351.173248 256.0
1156.214722 216.0
1340.658325 144.0
1449.210938 164.0
1457.861206 152.0
1470.694092 188.0
1619.17749 244.0
1634.69519 180.0
1656.494263 140.0
1730.109497 152.0
1744.693726 164.0
1779.960571 284.0
1801.960938 152.0
1836.04187 144.0
1852.975098 164.0
1874.713989 256.0
1890.586426 164.0
1901.558228 208.0
1924.094482 160.0
1965.530884 188.0
1981.835571 184.0
1982.411499 196.0
1983.333252 212.0
