>compound MLS001140663-01!
>formula C34H35N5O4
>ionization [M+H]+
>parentmass 578.2761810520906
#inchi InChI=1S/C34H35N5O4/c1-22-9-2-3-10-23(22)31-30-26(24-11-4-6-13-27(24)36-30)21-29-33(41)39(34(42)38(29)31)28-14-7-5-12-25(28)32(40)35-15-8-16-37-17-19-43-20-18-37/h2-7,9-14,29,31,36H,8,15-21H2,1H3,(H,35,40)/t29-,31?/m0/s1
#inchikey YFPLUTJZUXLEEA
#Ion_Source LC-ESI
#Instrument qTof
#Compound_Source NIH Natural Product Library
#PI Dorrestein
#Data_Collector VVP/LMS
#Scan -1
#Precursor_MZ 578.277
#ExactMass 577.269
#Charge 1
#CAS_Number N/A
#Pubmed_ID N/A
#Smiles Cc1ccccc1C2N3[C@@H](Cc4c2[nH]c5ccccc45)C(=O)N(C3=O)c6ccccc6C(=O)NCCCN7CCOCC7
#INCHI_AUX N/A
#Library_Class 1
#SpectrumID CCMSLIB00000079958
#IonMode Positive
#UpdateWorkflowName UPDATE-SINGLE-ANNOTATED-GOLD
#LibraryQualityString Gold
#TaskID b1d8e8f6646f4e71acdff9ca3d919d08
##Scan# 1894
#SpectrumFile p2-C02_GC2_01_18002.mzXML
#LibraryName NIH_Natural_Products_Library.mgf
#MQScore -1
#Organism NIH_Natural_Products_Library
#TIC_Query 0
#RT_Query -1
#MZErrorPPM -1
#SharedPeaks 0
#MassDiff 0
#LibMZ -1
#SpecMZ 578.277
#SpecCharge 0
#internalFilename spec-00000.mgf

>collision 10
94.997612 160.0
95.03772 196.0
95.044762 132.0
95.060959 196.0
95.133453 88.0
95.166458 176.0
95.209175 116.0
95.275215 164.0
95.360718 96.0
95.613358 160.0
95.636902 160.0
95.730354 240.0
95.812157 120.0
95.829697 140.0
95.874512 108.0
95.903748 152.0
95.940781 76.0
96.044426 204.0
96.079796 396.0
96.172913 224.0
96.216263 172.0
96.249046 160.0
96.292007 104.0
96.356224 128.0
96.413132 48.0
96.450272 88.0
96.506966 136.0
96.530426 156.0
96.581276 176.0
96.610619 156.0
96.63018 76.0
96.669067 192.0
96.70063 212.0
96.757393 92.0
96.852371 112.0
96.88665 84.0
97.01207 132.0
97.082657 164.0
97.108147 144.0
97.167 204.0
97.239601 108.0
97.265114 172.0
97.300453 52.0
97.322052 116.0
97.369179 124.0
97.402565 184.0
97.461769 176.0
97.477226 28.0
97.536186 80.0
97.558601 168.0
97.640388 160.0
97.665955 140.0
97.701363 152.0
97.797791 68.0
97.815498 136.0
97.833221 204.0
97.880203 148.0
98.000626 80.0
98.016388 116.0
98.05368 216.0
98.061317 200.0
98.066307 132.0
98.101135 236.0
98.221764 160.0
98.306259 72.0
98.327965 68.0
98.37336 204.0
98.503693 156.0
98.544754 204.0
98.575378 168.0
98.594582 188.0
98.647232 156.0
98.728615 180.0
98.736259 144.0
98.772522 216.0
98.836258 92.0
98.853638 244.0
98.918953 96.0
99.015968 140.0
99.037758 92.0
99.084328 196.0
99.096954 136.0
99.152672 148.0
99.22998 172.0
99.25972 60.0
99.334297 212.0
99.368805 124.0
99.390633 232.0
99.535538 216.0
99.566589 204.0
99.609016 128.0
99.628883 124.0
99.668617 76.0
99.686501 148.0
99.7024 160.0
99.76004 192.0
99.829628 132.0
99.850548 208.0
99.899239 116.0
99.958931 156.0
99.976837 120.0
100.006187 204.0
100.022614 168.0
100.07695 2264.0
100.128265 128.0
100.201843 172.0
100.219948 180.0
100.270111 200.0
100.292122 120.0
100.329391 176.0
100.344315 124.0
100.430473 208.0
100.449043 188.0
100.468987 252.0
100.504898 192.0
100.519203 48.0
100.56723 224.0
100.644623 148.0
100.664589 108.0
100.76046 168.0
100.776443 52.0
100.800423 52.0
100.856384 144.0
100.896362 100.0
100.912216 172.0
100.948349 140.0
101.013664 176.0
101.035301 128.0
101.081421 320.0
101.102386 156.0
101.302559 172.0
101.348686 156.0
101.366005 168.0
101.421753 136.0
101.445984 212.0
101.499016 240.0
101.565155 176.0
101.605316 100.0
101.661499 176.0
101.681564 160.0
101.720955 180.0
101.73777 168.0
101.77993 136.0
101.836159 172.0
101.858253 112.0
101.882362 108.0
101.982834 116.0
101.996902 128.0
102.025047 124.0
102.051186 128.0
102.085365 140.0
102.108223 164.0
102.189964 160.0
102.276497 256.0
102.315887 180.0
102.405357 200.0
102.514145 116.0
102.576035 192.0
102.606865 132.0
102.639122 184.0
102.662384 336.0
102.695587 180.0
102.812607 184.0
102.854988 116.0
102.87796 116.0
102.903748 156.0
102.959976 72.0
103.022591 152.0
103.054008 688.0
103.105438 172.0
103.149902 188.0
103.182243 184.0
103.222687 208.0
103.2481 176.0
103.331909 220.0
103.441238 152.0
103.475601 156.0
103.49585 160.0
103.526833 224.0
103.5485 148.0
103.562675 52.0
103.595085 144.0
103.61129 140.0
103.661949 228.0
103.714638 104.0
103.74099 132.0
103.772652 208.0
103.778404 248.0
103.80587 132.0
103.820068 44.0
103.874832 172.0
103.939751 164.0
104.024353 152.0
104.065598 176.0
104.087929 144.0
104.132858 160.0
104.159012 100.0
104.237709 136.0
104.276855 152.0
104.293114 72.0
104.343941 108.0
104.366302 72.0
104.412056 184.0
104.433411 152.0
104.509956 140.0
104.557518 140.0
104.573799 224.0
104.647087 32.0
104.71225 120.0
104.731026 212.0
104.75502 196.0
104.875847 208.0
104.909897 76.0
105.005608 204.0
105.014366 136.0
105.031006 132.0
105.070885 14100.0
105.119972 212.0
105.17099 104.0
105.219887 172.0
105.354774 100.0
105.369072 64.0
105.420494 224.0
105.479424 144.0
105.501144 168.0
105.536667 268.0
105.55098 36.0
105.567337 72.0
105.591881 164.0
105.64711 80.0
105.68129 124.0
105.718719 196.0
105.805817 104.0
105.833351 88.0
105.872673 176.0
105.915268 216.0
105.952141 244.0
106.032562 192.0
106.073425 1760.0
106.118149 108.0
106.187866 192.0
106.210426 52.0
106.292488 136.0
106.364151 148.0
106.4133 224.0
106.43145 120.0
106.481041 132.0
106.506721 228.0
106.548615 172.0
106.579224 156.0
106.610779 72.0
106.62928 52.0
106.658867 200.0
106.750572 84.0
106.795815 112.0
106.836952 108.0
106.933662 148.0
106.948074 344.0
107.018066 108.0
107.03846 172.0
107.05925 184.0
107.074707 128.0
107.109734 164.0
107.12722 168.0
107.160179 128.0
107.182846 168.0
107.21653 220.0
107.251747 184.0
107.3395 220.0
107.41375 152.0
107.440231 180.0
107.483894 56.0
107.541679 44.0
107.558189 52.0
107.58709 100.0
107.609795 148.0
107.627716 200.0
107.631172 136.0
107.675873 168.0
107.703659 168.0
107.830826 108.0
107.847359 152.0
107.870102 80.0
107.923851 128.0
107.950729 36.0
108.000366 120.0
108.037598 152.0
108.068634 96.0
108.106194 160.0
108.175316 156.0
108.205231 156.0
108.362633 116.0
108.39164 200.0
108.449669 124.0
108.55748 148.0
108.603104 184.0
108.628387 148.0
108.673637 208.0
108.72966 164.0
108.777397 64.0
108.837608 108.0
108.859459 132.0
108.87291 184.0
108.939369 116.0
108.983002 176.0
109.001701 168.0
109.07444 44.0
109.098373 180.0
109.170082 180.0
109.186714 68.0
109.213753 96.0
109.251198 148.0
109.277954 172.0
109.304253 192.0
109.384377 276.0
109.434341 88.0
109.453079 72.0
109.473907 124.0
109.509308 116.0
109.537003 48.0
109.561386 148.0
109.596313 120.0
109.669739 144.0
109.692673 148.0
109.748962 324.0
109.851151 120.0
109.928345 204.0
109.94191 136.0
109.986786 148.0
110.029846 204.0
110.141296 148.0
110.206062 188.0
110.332809 124.0
110.446411 140.0
110.500862 196.0
110.559448 188.0
110.574097 208.0
110.630615 176.0
110.675552 176.0
110.730835 176.0
110.844246 168.0
110.875679 44.0
110.913406 132.0
110.936462 168.0
110.959526 136.0
111.116821 120.0
111.1399 104.0
111.165077 144.0
111.198654 324.0
111.225807 184.0
111.244835 128.0
111.297318 192.0
111.307175 144.0
111.333015 144.0
111.370819 300.0
111.40863 108.0
111.43174 40.0
111.463257 164.0
111.501083 232.0
111.519997 132.0
111.553635 176.0
111.693619 112.0
111.699318 156.0
111.770256 160.0
111.793404 176.0
111.826218 176.0
111.913383 132.0
111.944969 260.0
111.976562 40.0
111.999725 116.0
112.032661 252.0
112.062927 212.0
112.107178 176.0
112.136681 112.0
112.172516 124.0
112.187271 128.0
112.227325 180.0
112.2463 132.0
112.339104 112.0
112.365273 188.0
112.383408 228.0
112.453041 88.0
112.493149 132.0
112.607849 144.0
112.662086 128.0
112.795219 164.0
112.859695 168.0
112.911507 172.0
112.981308 128.0
113.146378 204.0
113.18026 184.0
113.254379 192.0
113.273438 100.0
113.322166 172.0
113.432365 128.0
113.512932 172.0
113.527779 196.0
113.574432 220.0
113.646561 120.0
113.66597 136.0
113.704895 180.0
113.729324 172.0
113.748428 164.0
113.865211 164.0
113.890694 168.0
114.016045 132.0
114.045799 88.0
114.100136 136.0
114.232681 144.0
114.390388 100.0
114.415932 48.0
114.467033 176.0
114.498978 236.0
114.558617 96.0
114.596962 196.0
114.722702 192.0
114.739761 84.0
114.754684 112.0
114.776215 120.0
114.863647 212.0
114.90184 100.0
114.997032 92.0
115.010742 120.0
115.042343 172.0
115.049042 144.0
115.058197 168.0
115.101982 104.0
115.128098 124.0
115.160133 140.0
115.181496 104.0
115.200722 116.0
115.260544 64.0
115.337479 164.0
115.360992 228.0
115.388779 244.0
115.45079 156.0
115.509964 192.0
115.564163 164.0
115.602676 112.0
115.673302 124.0
115.718262 164.0
115.761086 188.0
115.776077 128.0
115.855324 108.0
116.041779 60.0
116.056786 136.0
116.093941 216.0
116.121117 216.0
116.138275 132.0
116.204781 124.0
116.264862 232.0
116.350716 68.0
116.423721 140.0
116.453789 32.0
116.509644 172.0
116.537567 176.0
116.607552 148.0
116.632126 172.0
116.748222 192.0
116.76973 108.0
116.82135 180.0
116.85434 180.0
116.903114 136.0
116.933243 136.0
117.010735 152.0
117.038727 176.0
117.056633 360.0
117.072166 332.0
117.101295 140.0
117.156273 124.0
117.243362 116.0
117.301559 32.0
117.32312 120.0
117.359772 76.0
117.478386 52.0
117.575111 164.0
117.583672 136.0
117.593826 136.0
117.599937 204.0
117.62571 148.0
117.652176 188.0
117.689888 196.0
117.713638 232.0
117.834595 172.0
117.930298 224.0
118.011398 184.0
118.029739 292.0
118.058159 168.0
118.139427 148.0
118.156731 84.0
118.234627 200.0
118.256271 124.0
118.280083 52.0
118.295235 176.0
118.322182 196.0
118.392662 88.0
118.444641 108.0
118.505302 164.0
118.521294 104.0
118.553711 216.0
118.589813 40.0
118.646172 140.0
118.689537 116.0
118.709053 172.0
118.745918 72.0
118.776283 296.0
118.802315 328.0
118.832687 140.0
118.858727 264.0
118.893448 172.0
118.922195 212.0
118.945534 48.0
118.971588 116.0
119.05027 732.0
119.087532 208.0
119.1866 92.0
119.210503 64.0
119.262665 120.0
119.346512 252.0
119.408333 128.0
119.432259 144.0
119.456184 164.0
119.495346 100.0
119.527985 184.0
119.556274 160.0
119.599693 168.0
119.628098 132.0
119.719543 124.0
119.741325 152.0
119.756569 152.0
119.776169 96.0
119.827545 200.0
119.850243 124.0
119.902542 152.0
119.957893 196.0
119.974472 196.0
120.007172 44.0
120.044785 2460.0
120.128227 148.0
120.196388 272.0
120.229721 180.0
120.255859 164.0
120.303879 84.0
120.425354 192.0
120.472031 116.0
120.491287 172.0
120.520752 160.0
120.561615 176.0
120.579094 68.0
120.611885 128.0
120.758377 184.0
120.778061 64.0
120.810875 208.0
120.827187 140.0
120.894012 188.0
120.942162 192.0
120.957901 168.0
120.976929 200.0
121.049538 312.0
121.06942 140.0
121.126091 144.0
121.191818 104.0
121.233452 80.0
121.293404 124.0
121.338661 100.0
121.364967 264.0
121.398186 108.0
121.503143 116.0
121.603416 180.0
121.618347 144.0
121.685303 64.0
121.713844 192.0
121.733284 116.0
121.764359 140.0
121.779732 140.0
121.815948 328.0
121.911545 172.0
121.952232 180.0
121.996376 168.0
122.048286 116.0
122.083015 176.0
122.129387 140.0
122.146797 184.0
122.166595 48.0
122.199593 204.0
122.221596 224.0
122.236115 188.0
122.266502 152.0
122.366821 192.0
122.374214 188.0
122.485779 120.0
122.558479 160.0
122.582718 124.0
122.600479 68.0
122.659859 152.0
122.675285 144.0
122.719383 152.0
122.787743 204.0
122.825233 112.0
122.870438 204.0
122.92231 120.0
122.959824 160.0
122.997345 180.0
123.032661 176.0
123.207397 164.0
123.252289 300.0
123.286674 216.0
123.397194 144.0
123.423729 68.0
123.459106 156.0
123.491333 140.0
123.501617 72.0
123.508499 156.0
123.545364 164.0
123.652756 128.0
123.683693 192.0
123.711342 196.0
123.764473 196.0
123.814842 188.0
123.891624 188.0
123.92173 124.0
123.937241 176.0
124.034752 168.0
124.077454 168.0
124.14315 148.0
124.244705 224.0
124.386192 184.0
124.409645 200.0
124.442947 140.0
124.47625 68.0
124.524109 160.0
124.61396 40.0
124.676178 60.0
124.70285 156.0
124.740234 156.0
124.814003 144.0
124.856255 176.0
124.927429 148.0
124.961739 104.0
124.989723 140.0
125.008636 152.0
125.038681 156.0
125.05426 172.0
125.179535 236.0
125.283615 124.0
125.332626 172.0
125.363823 184.0
125.390564 236.0
125.490875 124.0
125.531471 136.0
125.65107 92.0
125.698875 168.0
125.722862 192.0
125.766487 160.0
125.783119 160.0
125.899223 96.0
125.950592 148.0
125.999733 112.0
126.019844 204.0
126.046654 160.0
126.092758 3252.0
126.116768 204.0
126.13382 148.0
126.16288 132.0
126.185883 124.0
126.225479 164.0
126.352966 176.0
126.395477 232.0
126.471573 200.0
126.509621 228.0
126.5271 184.0
126.556641 184.0
126.589333 140.0
126.600227 60.0
126.60894 168.0
126.677574 108.0
126.724625 96.0
126.755989 100.0
126.791847 220.0
126.820984 188.0
126.935318 108.0
126.962669 224.0
126.99649 188.0
127.100014 468.0
127.121193 144.0
127.166389 140.0
127.182098 160.0
127.199326 124.0
127.222504 176.0
127.323418 176.0
127.425949 88.0
127.433975 160.0
127.462822 260.0
127.514282 200.0
127.531059 132.0
127.555634 148.0
127.579689 144.0
127.605919 200.0
127.660637 112.0
127.677422 148.0
127.782097 132.0
127.8451 116.0
127.901367 172.0
127.938339 200.0
128.045471 88.0
128.108551 7016.0
128.221191 204.0
128.258759 348.0
128.305389 80.0
128.354202 208.0
128.385773 132.0
128.46019 144.0
128.494034 56.0
128.509827 132.0
128.62384 148.0
128.683624 128.0
128.794266 136.0
128.995377 312.0
129.0112 120.0
129.04393 712.0
129.067886 172.0
129.108932 320.0
129.131042 80.0
129.156555 128.0
129.19664 120.0
129.228317 92.0
129.277847 184.0
129.28566 164.0
129.292389 240.0
129.41391 88.0
129.429764 80.0
129.456924 136.0
129.493164 236.0
129.524872 172.0
129.549789 168.0
129.626663 200.0
129.670944 196.0
129.684113 128.0
129.709091 108.0
129.804825 96.0
129.8694 156.0
129.907959 132.0
129.926117 168.0
129.94426 176.0
130.034729 92.0
130.065689 2308.0
130.105392 144.0
130.139648 144.0
130.192993 88.0
130.215179 500.0
130.25528 116.0
130.309799 60.0
130.346146 160.0
130.487076 60.0
130.57164 208.0
130.596222 164.0
130.646271 244.0
130.680389 164.0
130.814667 200.0
130.894348 104.0
130.92395 68.0
131.065826 464.0
131.092529 300.0
131.131271 128.0
131.180771 256.0
131.217377 124.0
131.252518 152.0
131.371765 320.0
131.491623 300.0
131.51387 208.0
131.538605 144.0
131.560104 96.0
131.580643 132.0
131.631821 208.0
131.726074 176.0
131.761063 240.0
131.797836 208.0
131.834381 224.0
131.873032 148.0
131.909607 208.0
131.932465 144.0
131.996185 212.0
132.043182 716.0
132.080734 480.0
132.119995 148.0
132.136002 176.0
132.154312 40.0
132.220673 184.0
132.299591 136.0
132.32225 200.0
132.348862 124.0
132.364883 144.0
132.402695 180.0
132.436172 124.0
132.464722 176.0
132.493149 36.0
132.536255 152.0
132.616882 184.0
132.692535 200.0
132.717758 148.0
132.749863 144.0
132.834717 160.0
132.872086 124.0
132.910431 188.0
133.009109 132.0
133.027451 220.0
133.106628 176.0
133.153763 208.0
133.204285 112.0
133.223755 76.0
133.27092 80.0
133.287003 116.0
133.312271 116.0
133.376633 148.0
133.404709 148.0
133.577515 164.0
133.601974 128.0
133.638794 176.0
133.772278 252.0
133.926682 220.0
134.002563 140.0
134.094742 136.0
134.120667 192.0
134.13736 168.0
134.166199 216.0
134.222443 244.0
134.239975 244.0
134.348389 172.0
134.518204 160.0
134.750092 164.0
134.851761 116.0
134.907883 244.0
135.055222 120.0
135.080673 152.0
135.1362 172.0
135.22644 48.0
135.342194 168.0
135.376923 100.0
135.455673 160.0
135.496353 168.0
135.5298 132.0
135.562241 156.0
135.578461 168.0
135.601639 128.0
135.668869 168.0
135.705963 56.0
135.735352 160.0
135.753159 168.0
135.809219 72.0
135.916168 152.0
135.956482 236.0
135.975037 68.0
135.993607 148.0
136.010986 132.0
136.040695 168.0
136.05751 140.0
136.149872 156.0
136.245117 116.0
136.301819 228.0
136.344299 228.0
136.365219 140.0
136.388474 204.0
136.413376 184.0
136.500061 140.0
136.58844 164.0
136.612732 252.0
136.640152 172.0
136.679169 204.0
136.714066 204.0
136.753632 120.0
136.788132 156.0
136.83046 124.0
136.893326 188.0
136.937561 380.0
136.993469 96.0
137.06337 44.0
137.095993 164.0
137.114639 176.0
137.18222 112.0
137.221863 188.0
137.252167 68.0
137.275482 100.0
137.319794 220.0
137.377792 148.0
137.413101 120.0
137.431641 164.0
137.494781 144.0
137.515778 144.0
137.592804 116.0
137.609161 108.0
137.637177 236.0
137.688553 248.0
137.723587 160.0
137.742264 160.0
137.793655 112.0
137.821701 164.0
137.849731 116.0
137.938553 160.0
137.959686 184.0
138.031204 216.0
138.054977 136.0
138.207504 152.0
138.282379 84.0
138.333878 200.0
138.359634 168.0
138.406815 204.0
138.453293 200.0
138.493103 132.0
138.536316 84.0
138.576584 132.0
138.603043 220.0
138.680542 132.0
138.699295 176.0
138.718048 132.0
138.828247 180.0
138.891571 164.0
138.924408 60.0
138.980713 136.0
138.997147 160.0
139.025391 216.0
139.044067 172.0
139.087555 144.0
139.104431 168.0
139.128571 76.0
139.161438 132.0
139.273575 192.0
139.294525 196.0
139.365784 156.0
139.410431 160.0
139.523254 128.0
139.558517 136.0
139.638901 176.0
139.680801 88.0
139.70903 124.0
139.79657 136.0
139.856293 216.0
139.873764 88.0
139.904358 216.0
139.925552 112.0
139.960861 308.0
140.040939 128.0
140.062134 160.0
140.212112 152.0
140.238846 184.0
140.271851 252.0
140.31192 128.0
140.37558 188.0
140.45813 164.0
140.510025 180.0
140.602051 56.0
140.644531 56.0
140.687027 112.0
140.733307 120.0
140.763321 180.0
140.81926 300.0
140.861267 208.0
140.932648 84.0
140.963196 108.0
140.98439 160.0
141.050812 260.0
141.107544 76.0
141.185852 136.0
141.216324 152.0
141.305344 80.0
141.341705 212.0
141.358078 148.0
141.4198 200.0
141.49791 124.0
141.564682 140.0
141.603943 196.0
141.65184 64.0
141.671463 156.0
141.71344 140.0
141.789276 64.0
141.815598 188.0
141.917542 176.0
142.066757 128.0
142.123627 104.0
142.156845 144.0
142.266022 44.0
142.323563 188.0
142.427505 104.0
142.477386 52.0
142.517776 88.0
142.586685 116.0
142.646103 112.0
142.749237 212.0
142.814926 172.0
142.843781 184.0
142.872025 152.0
142.898193 168.0
142.929123 200.0
142.969574 60.0
142.986237 32.0
143.11972 156.0
143.181458 204.0
143.231476 128.0
143.248154 156.0
143.348495 136.0
143.369659 140.0
143.422989 148.0
143.4375 104.0
143.474167 180.0
143.507294 232.0
143.73407 108.0
143.77269 64.0
143.798935 124.0
143.841904 144.0
143.868164 136.0
143.951721 148.0
143.968445 140.0
144.009048 60.0
144.04361 364.0
144.080368 916.0
144.128494 112.0
144.176285 208.0
144.250809 196.0
144.274277 76.0
144.295792 304.0
144.317322 136.0
144.443695 228.0
144.610367 152.0
144.664215 124.0
144.70787 172.0
144.72673 180.0
144.767166 104.0
144.848602 132.0
144.882141 56.0
144.908493 208.0
144.982895 300.0
145.016769 332.0
145.040558 2284.0
145.063873 192.0
145.087173 400.0
145.101456 156.0
145.133545 384.0
145.217728 164.0
145.308884 60.0
145.373657 76.0
145.409653 152.0
145.469666 192.0
145.516556 144.0
145.55629 156.0
145.587311 136.0
145.607407 292.0
145.685791 172.0
145.789108 44.0
145.813141 136.0
145.854996 184.0
145.928528 92.0
145.961578 144.0
145.989609 236.0
146.024719 25852.0
146.086105 152.0
146.104172 164.0
146.132965 88.0
146.164246 128.0
146.184235 52.0
146.22406 136.0
146.248474 156.0
146.272537 160.0
146.29808 124.0
146.304977 76.0
146.315216 160.0
146.368835 84.0
146.402557 100.0
146.466461 60.0
146.496979 196.0
146.549484 180.0
146.598801 360.0
146.631424 236.0
146.716782 164.0
146.74231 112.0
146.766418 96.0
146.785706 48.0
146.836349 124.0
146.891815 80.0
146.936966 180.0
147.000397 36.0
147.026901 1896.0
147.052185 364.0
147.097488 376.0
147.121078 156.0
147.146423 136.0
147.203156 76.0
147.335999 116.0
147.352921 52.0
147.403656 68.0
147.420578 172.0
147.466492 164.0
147.536591 120.0
147.561935 132.0
147.602539 124.0
147.640564 196.0
147.680115 124.0
147.711792 124.0
147.734894 112.0
147.766342 96.0
147.783279 88.0
147.904282 244.0
147.932495 232.0
147.982864 164.0
148.039017 312.0
148.096115 176.0
148.165955 132.0
148.209686 108.0
148.238495 108.0
148.255463 64.0
148.272415 144.0
148.33786 136.0
148.35556 120.0
148.404953 160.0
148.428955 148.0
148.44696 76.0
148.536697 156.0
148.622833 56.0
148.687134 264.0
148.718689 296.0
148.73764 128.0
148.842499 80.0
148.8862 112.0
148.980927 132.0
149.049377 188.0
149.134018 68.0
149.192352 196.0
149.228821 140.0
149.248276 208.0
149.272598 72.0
149.31636 224.0
149.34494 144.0
149.414536 132.0
149.47345 308.0
149.530457 220.0
149.637573 216.0
149.654602 132.0
149.696793 136.0
149.747147 128.0
149.766632 76.0
149.834167 176.0
149.878693 128.0
149.912811 56.0
149.93718 124.0
149.961548 228.0
149.987625 132.0
150.051743 160.0
150.134644 112.0
150.15416 108.0
150.254166 168.0
150.361526 108.0
150.403015 112.0
150.436584 240.0
150.472672 172.0
150.49823 76.0
150.605682 136.0
150.664307 84.0
150.70546 228.0
150.732727 104.0
150.788925 72.0
150.815811 128.0
150.87204 144.0
150.938049 176.0
150.999176 184.0
151.018753 288.0
151.040543 180.0
151.109253 148.0
151.172882 172.0
151.206253 156.0
151.234055 68.0
151.298981 216.0
151.344223 324.0
151.368713 520.0
151.444626 168.0
151.471573 412.0
151.514725 104.0
151.549973 56.0
151.57692 44.0
151.647995 160.0
151.721527 56.0
151.795074 132.0
151.858185 180.0
151.903 140.0
151.927521 196.0
151.952057 152.0
151.991318 296.0
152.024551 212.0
152.144791 132.0
152.256729 200.0
152.301605 180.0
152.393997 144.0
152.451645 184.0
152.475082 80.0
152.551285 172.0
152.659454 248.0
152.679138 128.0
152.698807 272.0
152.718033 220.0
152.824265 56.0
152.960999 224.0
152.995407 152.0
153.060562 148.0
153.220657 148.0
153.245285 120.0
153.328384 144.0
153.388229 124.0
153.453293 172.0
153.513962 112.0
153.634827 132.0
153.68663 220.0
153.775787 184.0
153.871735 84.0
153.898895 176.0
153.919632 240.0
153.953217 348.0
153.980392 200.0
154.061829 132.0
154.129517 184.0
154.242294 188.0
154.318924 56.0
154.338699 136.0
154.462357 72.0
154.566269 68.0
154.605865 156.0
154.708817 188.0
154.744476 96.0
154.764282 144.0
154.821243 124.0
154.863342 140.0
154.898026 76.0
154.937653 180.0
154.964905 144.0
155.06073 268.0
155.125992 88.0
155.185486 72.0
155.230118 164.0
155.307007 120.0
155.36026 224.0
155.395126 176.0
155.423599 136.0
155.527588 40.0
155.617203 240.0
155.67305 188.0
155.689209 220.0
155.726471 172.0
155.815887 204.0
155.840393 176.0
155.923264 168.0
156.023514 244.0
156.067825 372.0
156.119141 192.0
156.216141 132.0
156.250961 156.0
156.283005 164.0
156.315338 128.0
156.333069 200.0
156.415787 132.0
156.450058 44.0
156.467484 124.0
156.487396 136.0
156.516266 140.0
156.621872 188.0
156.654251 80.0
156.673309 264.0
156.726501 88.0
156.768875 100.0
156.849136 136.0
156.891006 132.0
156.952408 140.0
157.018967 180.0
157.060562 52.0
157.092987 204.0
157.195282 100.0
157.235214 212.0
157.262665 164.0
157.388733 184.0
157.41246 104.0
157.472275 160.0
157.541092 152.0
157.5923 116.0
157.642273 220.0
157.742249 116.0
157.773575 180.0
157.847473 140.0
157.87677 212.0
157.929779 112.0
158.024841 144.0
158.067383 176.0
158.087402 100.0
158.149963 112.0
158.250107 144.0
158.300247 136.0
158.379242 148.0
158.405365 116.0
158.432922 188.0
158.513107 172.0
158.545685 100.0
158.645935 364.0
158.68605 100.0
158.746231 132.0
158.801407 128.0
158.921814 44.0
158.946899 152.0
158.97702 84.0
159.061066 216.0
159.110046 160.0
159.172806 228.0
159.288345 80.0
159.454178 144.0
159.470551 144.0
159.562256 112.0
159.625854 164.0
159.6866 168.0
159.713135 128.0
159.745834 56.0
159.763443 164.0
159.856094 152.0
159.963715 140.0
159.989944 148.0
160.02771 128.0
160.075668 256.0
160.12088 140.0
160.171249 172.0
160.196442 184.0
160.375351 244.0
160.448441 136.0
160.478699 132.0
160.544266 36.0
160.572006 168.0
160.61235 40.0
160.63002 120.0
160.687424 120.0
160.7854 212.0
160.804108 116.0
160.831879 144.0
160.920227 152.0
160.973251 148.0
161.023758 136.0
161.069046 436.0
161.116272 232.0
161.18544 96.0
161.243561 96.0
161.283997 132.0
161.359833 164.0
161.425583 124.0
161.493866 120.0
161.569748 180.0
161.589996 168.0
161.62999 172.0
161.636383 156.0
161.741821 52.0
161.787384 136.0
161.825363 124.0
161.856689 140.0
161.888672 64.0
161.945038 156.0
162.005173 120.0
162.067932 172.0
162.105194 236.0
162.178833 232.0
162.261139 228.0
162.299164 40.0
162.319458 88.0
162.385391 68.0
162.404587 232.0
162.461487 160.0
162.48877 148.0
162.556046 148.0
162.591721 160.0
162.626419 96.0
162.683563 180.0
162.705109 140.0
162.87764 168.0
162.901443 204.0
162.981949 184.0
163.051773 732.0
163.082474 408.0
163.125641 216.0
163.187836 112.0
163.217758 164.0
163.373489 140.0
163.46669 200.0
163.498154 288.0
163.608536 120.0
163.641388 152.0
163.714554 104.0
163.748505 84.0
163.793503 136.0
163.875015 248.0
163.908142 200.0
163.941147 164.0
164.017731 200.0
164.050552 196.0
164.081467 120.0
164.117157 100.0
164.181427 196.0
164.257416 104.0
164.295685 136.0
164.362015 220.0
164.410507 172.0
164.461548 44.0
164.481369 136.0
164.637711 188.0
164.667343 172.0
164.691345 204.0
164.719437 216.0
164.739883 164.0
164.798645 204.0
164.820786 132.0
164.954529 124.0
165.067978 160.0
165.152634 160.0
165.174438 88.0
165.207687 164.0
165.427765 248.0
165.461044 76.0
165.481537 168.0
165.528671 196.0
165.594208 104.0
165.618988 212.0
165.72464 192.0
165.731308 176.0
165.751114 144.0
165.770966 80.0
165.794037 152.0
165.850418 76.0
165.906815 152.0
165.94783 136.0
166.019699 148.0
166.060669 200.0
166.086319 184.0
166.158478 124.0
166.260056 212.0
166.356796 216.0
166.381607 164.0
166.429504 164.0
166.458435 128.0
166.51265 164.0
166.594345 48.0
166.622818 208.0
166.68045 140.0
166.725342 160.0
166.787292 180.0
166.915833 224.0
167.000702 224.0
167.067749 124.0
167.139618 124.0
167.183365 120.0
167.245132 40.0
167.301758 144.0
167.335236 116.0
167.424103 224.0
167.540833 220.0
167.613403 116.0
167.634018 140.0
167.695282 192.0
167.768036 112.0
167.791138 196.0
167.925323 44.0
167.98465 168.0
168.06955 168.0
168.16011 184.0
168.196716 156.0
168.240128 136.0
168.335663 112.0
168.407974 168.0
168.438965 116.0
168.469971 196.0
168.495132 156.0
168.505066 116.0
168.679276 96.0
168.707138 336.0
168.726456 112.0
168.796555 156.0
168.803955 200.0
168.900452 156.0
168.934631 204.0
168.965271 276.0
168.999969 188.0
169.077179 2568.0
169.165009 132.0
169.222549 128.0
169.248444 76.0
169.289612 240.0
169.304413 124.0
169.407852 224.0
169.51265 112.0
169.566177 144.0
169.613724 164.0
169.683716 120.0
169.71344 112.0
169.779663 76.0
169.836716 176.0
169.89119 108.0
169.974213 76.0
170.023117 156.0
170.061188 256.0
170.084915 272.0
170.140884 120.0
170.17926 148.0
170.264954 68.0
170.335083 152.0
170.379242 168.0
170.415619 380.0
170.485779 156.0
170.534058 140.0
170.597549 136.0
170.659943 68.0
170.756149 144.0
170.789963 136.0
170.886215 228.0
170.953873 144.0
170.972549 136.0
171.008514 136.0
171.031952 108.0
171.052521 168.0
171.059006 152.0
171.068436 228.0
171.107742 136.0
171.151703 96.0
171.30275 204.0
171.348434 164.0
171.39476 144.0
171.551117 196.0
171.644989 204.0
171.698608 160.0
171.818985 148.0
171.839798 100.0
171.876312 60.0
171.91188 140.0
171.949387 152.0
172.050415 324.0
172.075363 324.0
172.106018 180.0
172.189575 88.0
172.307129 128.0
172.364029 272.0
172.415741 352.0
172.443008 68.0
172.471756 212.0
172.51619 64.0
172.614334 116.0
172.646927 92.0
172.722778 64.0
172.81665 172.0
172.844498 128.0
172.926865 164.0
172.963501 160.0
173.002762 220.0
173.041794 188.0
173.07608 164.0
173.094406 284.0
173.131058 140.0
173.216843 128.0
173.248932 168.0
173.275131 116.0
173.301224 192.0
173.309296 184.0
173.385178 152.0
173.484787 72.0
173.563431 172.0
173.626022 120.0
173.660461 144.0
173.710297 124.0
173.757233 248.0
173.802124 152.0
173.844116 196.0
173.884781 208.0
174.058289 684.0
174.09613 132.0
174.132889 116.0
174.172287 164.0
174.190155 160.0
174.26091 152.0
174.311523 184.0
174.362778 144.0
174.461349 220.0
174.531204 204.0
174.561249 64.0
174.605957 120.0
174.703278 188.0
174.726959 148.0
174.795364 168.0
174.821686 180.0
174.856979 212.0
174.911163 172.0
174.97728 136.0
175.01384 420.0
175.051254 7800.0
175.113907 112.0
175.149704 176.0
175.20874 124.0
175.240341 48.0
175.310959 236.0
175.353653 164.0
175.391083 152.0
175.435364 144.0
175.482819 140.0
175.528549 200.0
175.567825 120.0
175.597916 152.0
175.662155 112.0
175.744812 204.0
175.787476 176.0
175.828384 112.0
175.873245 92.0
175.897003 140.0
175.926041 216.0
175.970917 64.0
175.999969 200.0
176.054077 1060.0
176.102951 360.0
176.126724 80.0
176.187485 124.0
176.237686 144.0
176.282272 128.0
176.351318 100.0
176.478943 144.0
176.568115 208.0
176.642166 104.0
176.700363 216.0
176.766525 104.0
176.798279 176.0
176.836472 156.0
176.864441 136.0
176.912094 60.0
177.031021 200.0
177.069153 176.0
177.103577 2120.0
177.142471 128.0
177.180038 128.0
177.198105 164.0
177.277588 60.0
177.309402 192.0
177.339005 164.0
177.376602 156.0
177.468445 68.0
177.555954 116.0
177.590424 172.0
177.614304 148.0
177.677963 100.0
177.744293 168.0
177.803604 180.0
177.826569 104.0
177.943497 164.0
178.033646 244.0
178.072205 100.0
178.108093 456.0
178.168411 108.0
178.190414 172.0
178.219589 72.0
178.259964 348.0
178.371063 180.0
178.466766 140.0
178.546417 156.0
178.575806 324.0
178.630905 208.0
178.655609 88.0
178.677689 120.0
178.730103 208.0
178.799286 72.0
178.847946 168.0
178.897614 212.0
178.919067 196.0
178.96965 56.0
178.992081 132.0
179.022903 140.0
179.081009 152.0
179.091446 180.0
179.148087 164.0
179.267502 156.0
179.321289 192.0
179.377258 156.0
179.409241 232.0
179.593246 160.0
179.673264 68.0
179.702606 44.0
179.73494 176.0
179.777328 112.0
179.867493 128.0
179.970016 172.0
180.007202 208.0
180.073822 196.0
180.114899 192.0
180.148453 156.0
180.193863 84.0
180.290054 208.0
180.335495 128.0
180.374924 80.0
180.437485 256.0
180.477173 164.0
180.501236 180.0
180.541351 164.0
180.573441 184.0
180.619019 112.0
180.680435 152.0
180.741974 136.0
180.878464 168.0
180.966812 52.0
181.02179 460.0
181.098587 192.0
181.278351 180.0
181.32309 88.0
181.422256 148.0
181.454422 200.0
181.577774 104.0
181.61264 112.0
181.650497 420.0
181.691299 148.0
181.749466 104.0
181.814774 140.0
181.855164 164.0
181.880966 156.0
181.940018 132.0
181.982971 132.0
182.02594 152.0
182.074265 248.0
182.098434 72.0
182.130676 196.0
182.170959 216.0
182.211258 168.0
182.298721 116.0
182.329498 112.0
182.348297 160.0
182.410126 168.0
182.474426 200.0
182.484634 184.0
182.514969 160.0
182.603012 92.0
182.657516 168.0
182.794724 136.0
182.821548 144.0
182.85173 152.0
182.948135 140.0
182.993896 196.0
183.085449 184.0
183.133926 180.0
183.214798 168.0
183.248077 248.0
183.263992 128.0
183.287491 152.0
183.31514 196.0
183.354858 196.0
183.375107 124.0
183.476151 112.0
183.495026 56.0
183.521988 148.0
183.557037 276.0
183.599197 180.0
183.691895 180.0
183.743149 152.0
183.791458 172.0
183.869965 124.0
183.950943 96.0
183.969833 192.0
184.010635 140.0
184.019135 168.0
184.063522 2644.0
184.117477 164.0
184.158844 192.0
184.179565 164.0
184.280411 76.0
184.311707 144.0
184.331757 152.0
184.353363 172.0
184.445251 180.0
184.464188 140.0
184.536011 148.0
184.619171 124.0
184.639923 172.0
184.672119 208.0
184.765594 96.0
184.833298 116.0
184.886108 176.0
184.92366 156.0
184.987701 120.0
185.017654 120.0
185.072617 392.0
185.108978 304.0
185.281433 184.0
185.31395 176.0
185.462769 176.0
185.564911 188.0
185.593124 208.0
185.671753 164.0
185.742279 44.0
185.822708 160.0
185.871033 200.0
185.913208 144.0
185.959335 156.0
186.076859 344.0
186.114075 176.0
186.412048 304.0
186.471405 176.0
186.517288 148.0
186.668396 236.0
186.696823 140.0
186.736374 132.0
186.766296 120.0
186.796448 48.0
186.873459 184.0
186.957199 192.0
187.051743 812.0
187.088379 1996.0
187.130951 208.0
187.196304 60.0
187.215363 48.0
187.277557 124.0
187.321579 308.0
187.371552 216.0
187.411484 156.0
187.433289 56.0
187.475281 216.0
187.546432 224.0
187.620255 180.0
187.70314 88.0
187.730408 324.0
187.817688 144.0
187.877701 104.0
187.915894 188.0
187.985931 108.0
188.092896 928.0
188.161514 184.0
188.202469 32.0
188.222107 168.0
188.284393 160.0
188.336288 180.0
188.377518 168.0
188.397629 100.0
188.423706 160.0
188.48381 132.0
188.512451 152.0
188.605515 132.0
188.657761 112.0
188.683334 104.0
188.7052 92.0
188.72435 88.0
188.746216 244.0
188.77356 136.0
188.806381 96.0
188.888428 232.0
188.915787 52.0
188.956818 112.0
189.003342 176.0
189.029099 372.0
189.069443 164.0
189.140167 148.0
189.159332 92.0
189.227768 188.0
189.298965 140.0
189.350998 84.0
189.419464 128.0
189.438644 36.0
189.470581 200.0
189.531799 136.0
189.561935 104.0
189.5923 244.0
189.624969 104.0
189.654526 176.0
189.704453 144.0
189.805893 152.0
189.837433 208.0
189.874451 84.0
189.901886 88.0
190.012054 148.0
190.03183 160.0
190.060989 148.0
190.100784 136.0
190.117355 148.0
190.159775 136.0
190.225662 100.0
190.244873 160.0
190.269577 120.0
190.324493 176.0
190.37767 196.0
190.444702 176.0
190.588181 144.0
190.678864 72.0
190.71489 144.0
190.747574 80.0
190.797058 120.0
190.827301 76.0
190.857544 148.0
190.928711 132.0
190.989548 144.0
191.041809 296.0
191.061066 168.0
191.151855 56.0
191.248184 120.0
191.30687 112.0
191.359421 128.0
191.385834 176.0
191.443649 112.0
191.4767 144.0
191.545563 108.0
191.592392 88.0
191.631638 164.0
191.702606 120.0
191.738434 144.0
191.76059 96.0
191.806534 324.0
192.088593 168.0
192.165833 96.0
192.229294 144.0
192.293182 136.0
192.345215 160.0
192.37558 88.0
192.461166 140.0
192.491531 160.0
192.537323 124.0
192.580856 176.0
192.607529 164.0
192.643448 176.0
192.722672 100.0
192.756714 208.0
192.778824 116.0
192.828491 156.0
192.947433 104.0
192.986893 112.0
193.011017 264.0
193.062164 652.0
193.087357 340.0
193.243362 188.0
193.271027 128.0
193.309769 132.0
193.378952 248.0
193.409912 152.0
193.459229 128.0
193.478607 60.0
193.547821 212.0
193.608734 144.0
193.641968 168.0
193.683517 168.0
193.705673 108.0
193.793365 172.0
193.86293 116.0
193.873932 88.0
193.935654 56.0
194.054855 160.0
194.095642 1068.0
194.160233 268.0
194.179642 112.0
194.229645 148.0
194.262772 140.0
194.31279 144.0
194.368286 100.0
194.468185 116.0
194.562561 136.0
194.582001 136.0
194.60144 164.0
194.734726 172.0
194.834732 36.0
194.868057 160.0
195.052765 256.0
195.104034 320.0
195.141266 148.0
195.168243 64.0
195.218292 80.0
195.26001 192.0
195.282257 140.0
195.424133 116.0
195.493698 160.0
195.515961 60.0
195.542969 164.0
195.602234 108.0
195.663483 216.0
195.804489 144.0
195.863983 136.0
195.955688 236.0
196.067886 172.0
196.114746 164.0
196.159348 104.0
196.241287 184.0
196.264679 168.0
196.305008 148.0
196.362106 156.0
196.39006 152.0
196.443771 132.0
196.519379 160.0
196.588867 144.0
196.613983 152.0
196.667007 140.0
196.686539 132.0
196.731201 204.0
196.756332 152.0
196.778671 236.0
196.837296 136.0
196.873596 60.0
196.95459 128.0
196.988495 148.0
197.016052 108.0
197.067886 208.0
197.097076 124.0
197.164139 152.0
197.182907 212.0
197.225632 140.0
197.250778 184.0
197.278732 112.0
197.423676 196.0
197.452103 140.0
197.499649 156.0
197.583557 136.0
197.650711 176.0
197.727829 144.0
197.779449 100.0
197.818497 156.0
197.855026 136.0
197.89444 204.0
197.975418 128.0
198.014633 112.0
198.079056 104.0
198.114487 328.0
198.154694 128.0
198.199524 160.0
198.342453 176.0
198.474045 132.0
198.512451 232.0
198.544312 48.0
198.707001 64.0
198.749084 96.0
198.780197 192.0
198.82486 216.0
198.844498 40.0
198.982559 220.0
199.055374 180.0
199.081573 168.0
199.116837 76.0
199.18985 184.0
199.23761 128.0
199.276947 124.0
199.345383 268.0
199.394958 216.0
199.496155 124.0
199.560822 324.0
199.742569 216.0
199.795151 124.0
199.829041 236.0
199.873016 196.0
199.895538 160.0
199.928284 332.0
199.94548 176.0
199.996857 168.0
200.047119 1228.0
200.150192 212.0
200.193924 116.0
200.25589 132.0
200.326294 204.0
200.3638 168.0
200.391098 184.0
200.438995 168.0
200.472809 68.0
200.498169 180.0
200.533142 148.0
200.53894 60.0
200.55542 228.0
200.647079 160.0
200.732147 184.0
200.783066 72.0
200.850601 188.0
200.887161 108.0
200.896317 136.0
200.920731 196.0
200.945877 124.0
200.984222 188.0
201.031021 10608.0
201.101074 52.0
201.113434 132.0
201.157272 112.0
201.221756 136.0
201.27272 56.0
201.295197 60.0
201.361465 156.0
201.396515 108.0
201.434906 160.0
201.480103 60.0
201.525314 96.0
201.547913 52.0
201.627121 120.0
201.734436 76.0
201.759491 88.0
201.779343 136.0
201.879974 160.0
201.904083 144.0
201.944565 168.0
201.980453 160.0
202.033264 1164.0
202.060059 316.0
202.083389 500.0
202.121902 72.0
202.15152 128.0
202.181335 164.0
202.252396 144.0
202.311111 108.0
202.342682 168.0
202.38797 152.0
202.432098 216.0
202.451096 160.0
202.5392 80.0
202.56073 196.0
202.606049 280.0
202.640518 132.0
202.681305 136.0
202.686035 176.0
202.717346 144.0
202.747528 152.0
202.770401 292.0
202.856567 160.0
202.891296 264.0
202.942886 192.0
202.957245 140.0
202.968704 180.0
203.004379 132.0
203.047897 1224.0
203.08342 65844.0
203.159012 232.0
203.198578 212.0
203.223541 68.0
203.266251 180.0
203.312073 120.0
203.357071 248.0
203.412048 176.0
203.436447 220.0
203.479141 84.0
203.499237 156.0
203.550262 156.0
203.596146 180.0
203.626694 44.0
203.666962 68.0
203.715897 172.0
203.802124 116.0
203.841385 172.0
203.902786 88.0
203.962479 156.0
203.982376 144.0
204.029709 184.0
204.086395 7844.0
204.141373 168.0
204.176804 228.0
204.218369 36.0
204.238281 80.0
204.286636 52.0
204.306549 36.0
204.364578 112.0
204.376129 44.0
204.385269 132.0
204.424942 72.0
204.450623 120.0
204.474426 32.0
204.497208 144.0
204.524292 116.0
204.593979 200.0
204.66127 252.0
204.710724 84.0
204.736343 68.0
204.81221 132.0
204.880951 52.0
204.907257 164.0
204.94429 156.0
204.994843 140.0
205.043259 192.0
205.062241 212.0
205.088959 1008.0
205.117508 244.0
205.135788 220.0
205.179932 288.0
205.209366 108.0
205.252136 56.0
205.283676 252.0
205.3134 148.0
205.362442 100.0
205.380035 108.0
205.433167 92.0
205.476196 244.0
205.531662 164.0
205.578522 180.0
205.663467 212.0
205.674347 56.0
205.683868 156.0
205.722885 92.0
205.817505 196.0
205.908478 184.0
205.942749 112.0
205.976273 136.0
206.06778 316.0
206.093994 300.0
206.15123 168.0
206.202744 144.0
206.222748 120.0
206.259903 96.0
206.282776 112.0
206.314224 64.0
206.402512 136.0
206.411331 120.0
206.446945 316.0
206.486923 100.0
206.51329 136.0
206.521744 84.0
206.533096 184.0
206.594482 92.0
206.620224 100.0
206.653931 172.0
206.674591 124.0
206.716354 120.0
206.755829 112.0
206.823395 148.0
206.874924 156.0
206.900681 156.0
207.069626 160.0
207.107651 216.0
207.144104 128.0
207.304535 96.0
207.347534 104.0
207.370453 160.0
207.54718 284.0
207.602676 256.0
207.670319 176.0
207.708786 176.0
207.757553 76.0
207.797729 148.0
207.831955 116.0
207.906128 200.0
207.95784 60.0
208.022873 216.0
208.069229 160.0
208.195663 208.0
208.215195 164.0
208.282867 48.0
208.524216 172.0
208.555832 108.0
208.729935 172.0
208.759964 172.0
208.921036 92.0
208.968689 120.0
208.990082 184.0
209.018845 96.0
209.07901 168.0
209.113815 120.0
209.142593 116.0
209.17514 352.0
209.259781 176.0
209.292297 204.0
209.335495 196.0
209.366791 156.0
209.393082 180.0
209.539993 68.0
209.765594 212.0
209.77684 260.0
209.934875 156.0
209.983902 80.0
210.035828 108.0
210.08197 120.0
210.105057 164.0
210.177185 164.0
210.304169 184.0
210.325806 152.0
210.367661 148.0
210.422516 140.0
210.481705 176.0
210.558228 144.0
210.61499 148.0
210.751129 144.0
210.78067 140.0
210.819199 180.0
210.867371 196.0
210.893372 136.0
210.912262 124.0
210.95874 176.0
211.063904 140.0
211.117722 160.0
211.142014 100.0
211.194077 60.0
211.227112 228.0
211.280853 96.0
211.356079 128.0
211.437546 156.0
211.494995 112.0
211.549988 152.0
211.593414 208.0
211.675293 172.0
211.726608 308.0
211.764267 140.0
211.813507 96.0
211.845367 100.0
211.874329 64.0
211.897507 184.0
211.921768 192.0
211.972839 172.0
211.996033 168.0
212.04892 144.0
212.117752 36.0
212.138046 188.0
212.252502 100.0
212.297516 168.0
212.352615 96.0
212.384521 148.0
212.410629 224.0
212.471115 136.0
212.51506 80.0
212.567291 128.0
212.651459 164.0
212.81691 112.0
212.848862 124.0
212.901123 144.0
213.017303 92.0
213.069595 136.0
213.112244 124.0
213.142227 96.0
213.201721 120.0
213.249756 160.0
213.302078 128.0
213.368942 172.0
213.493958 120.0
213.55925 152.0
213.570953 68.0
213.576599 116.0
213.63237 68.0
213.717941 92.0
213.799423 124.0
213.840485 184.0
213.894684 280.0
213.954819 164.0
213.991531 156.0
214.059982 156.0
214.098343 3212.0
214.169174 156.0
214.193695 44.0
214.245056 156.0
214.282791 136.0
214.321014 224.0
214.375336 152.0
214.406372 252.0
214.427994 72.0
214.495514 172.0
214.54274 120.0
214.57132 60.0
214.690125 348.0
214.725861 104.0
214.752106 44.0
214.781281 220.0
214.801697 204.0
214.833786 32.0
214.891846 204.0
214.959244 84.0
215.00885 184.0
215.043793 616.0
215.084457 280.0
215.100494 444.0
215.129898 160.0
215.210266 60.0
215.249466 172.0
215.361572 148.0
215.440979 124.0
215.483459 164.0
215.575394 120.0
215.601685 80.0
215.627991 44.0
215.663071 80.0
215.695221 48.0
215.73793 200.0
215.761459 168.0
215.874939 152.0
215.88623 132.0
215.895889 208.0
215.958374 72.0
216.065094 220.0
216.086899 304.0
216.109787 232.0
216.174866 164.0
216.211472 128.0
216.33876 236.0
216.377869 124.0
216.414886 108.0
216.485153 248.0
216.51152 116.0
216.552521 108.0
216.575943 200.0
216.710709 180.0
216.734146 152.0
216.757584 92.0
216.783966 124.0
216.832703 196.0
216.857224 152.0
216.877747 180.0
216.933441 164.0
217.027252 148.0
217.091095 2856.0
217.203217 184.0
217.267746 152.0
217.297089 176.0
217.422638 172.0
217.476532 144.0
217.503418 116.0
217.539536 128.0
217.575897 144.0
217.59938 76.0
217.625809 148.0
217.664215 148.0
217.719772 80.0
217.743256 172.0
217.830139 448.0
217.888702 124.0
217.916565 232.0
217.953796 276.0
217.983871 184.0
218.038559 480.0
218.098648 99084.0
218.172882 136.0
218.196762 192.0
218.217697 88.0
218.246628 192.0
218.269333 248.0
218.30072 140.0
218.309784 112.0
218.32074 144.0
218.330032 176.0
218.338455 208.0
218.370346 240.0
218.417923 152.0
218.451874 128.0
218.497604 260.0
218.548904 248.0
218.58139 344.0
218.615112 148.0
218.655136 196.0
218.666672 192.0
218.673691 136.0
218.701569 68.0
218.7061 108.0
218.754333 152.0
218.779922 108.0
218.850815 180.0
218.870071 188.0
218.919601 176.0
218.958923 80.0
218.984924 88.0
219.00795 172.0
219.036407 200.0
219.101593 16944.0
219.152298 136.0
219.205338 44.0
219.234879 168.0
219.28009 104.0
219.302597 156.0
219.344864 196.0
219.373337 44.0
219.444092 120.0
219.494354 136.0
219.523697 128.0
219.546356 88.0
219.603333 80.0
219.675903 212.0
219.712479 92.0
219.848206 48.0
219.894867 108.0
219.921982 160.0
219.963303 64.0
220.004639 72.0
220.06546 192.0
220.112473 2316.0
220.142044 156.0
220.182526 184.0
220.212463 132.0
220.277084 136.0
220.312576 96.0
220.342087 164.0
220.392807 96.0
220.414368 164.0
220.432892 252.0
220.451736 160.0
220.477219 136.0
220.50087 228.0
220.549393 156.0
220.589157 92.0
220.603622 68.0
220.632462 208.0
220.665421 204.0
220.686829 44.0
220.761703 160.0
220.792831 100.0
220.818848 108.0
220.851608 140.0
220.87854 136.0
220.902985 172.0
220.931183 128.0
220.976944 124.0
221.015793 152.0
221.075653 112.0
221.10907 892.0
221.14212 156.0
221.175217 148.0
221.208374 60.0
221.249222 48.0
221.269943 52.0
221.332977 276.0
221.367661 76.0
221.396255 164.0
221.428787 100.0
221.468353 104.0
221.494232 232.0
221.536469 100.0
221.589798 160.0
221.618393 184.0
221.626251 120.0
221.63855 220.0
221.743607 180.0
221.788345 128.0
221.8255 188.0
221.853714 240.0
221.910049 184.0
221.994492 308.0
222.033783 292.0
222.093475 42496.0
222.166626 176.0
222.218124 220.0
222.271744 140.0
222.298111 172.0
222.317276 92.0
222.348389 92.0
222.396027 96.0
222.402985 128.0
222.43483 80.0
222.476532 44.0
222.508408 100.0
222.557907 100.0
222.579865 60.0
222.625198 60.0
222.654694 136.0
222.678452 140.0
222.704453 244.0
222.725967 28.0
222.77269 204.0
222.799286 188.0
222.850739 180.0
222.895554 48.0
222.959869 72.0
222.980942 192.0
223.011215 148.0
223.049332 136.0
223.095139 7520.0
223.1427 156.0
223.201477 128.0
223.240128 152.0
223.287613 164.0
223.356125 68.0
223.383484 176.0
223.474731 124.0
223.501892 212.0
223.570343 68.0
223.594147 40.0
223.680298 216.0
223.742981 156.0
223.766785 76.0
223.79657 68.0
223.841232 80.0
223.876968 168.0
223.956451 156.0
224.00206 40.0
224.100418 816.0
224.191742 72.0
224.243408 192.0
224.297058 200.0
224.317917 232.0
224.383499 32.0
224.425247 96.0
224.456726 172.0
224.498184 112.0
224.52916 152.0
224.575287 244.0
224.625061 120.0
224.661484 152.0
224.718155 152.0
224.76236 180.0
224.864532 108.0
224.905533 128.0
224.965088 184.0
225.036041 56.0
225.099594 120.0
225.13353 76.0
225.180222 108.0
225.247986 192.0
225.278793 100.0
225.380371 212.0
225.455078 112.0
225.5298 144.0
225.590744 216.0
225.646378 156.0
225.784882 180.0
225.8573 128.0
225.960403 100.0
225.991653 160.0
226.074112 224.0
226.104034 196.0
226.145935 196.0
226.166885 92.0
226.232742 148.0
226.268661 104.0
226.313568 180.0
226.355774 172.0
226.520218 176.0
226.589111 404.0
226.78389 128.0
226.807877 104.0
226.894806 252.0
226.951767 160.0
227.041733 168.0
227.07016 192.0
227.164703 192.0
227.195541 128.0
227.2547 48.0
227.38002 168.0
227.572861 76.0
227.689972 224.0
227.73201 228.0
227.759048 112.0
227.825134 108.0
227.860031 84.0
227.91629 200.0
228.089951 188.0
228.191803 248.0
228.292938 180.0
228.42334 152.0
228.523041 112.0
228.582794 132.0
228.676086 140.0
228.706177 48.0
228.733276 148.0
228.862732 136.0
228.91391 44.0
228.962097 352.0
229.081345 380.0
229.148849 180.0
229.561798 156.0
229.607025 92.0
229.673386 144.0
229.82724 184.0
229.887589 140.0
229.935883 140.0
229.994736 160.0
230.055878 1080.0
230.098099 3140.0
230.263168 236.0
230.309021 136.0
230.353134 224.0
230.394516 112.0
230.494537 84.0
230.530609 60.0
230.600311 68.0
230.623337 156.0
230.663284 144.0
230.716354 196.0
230.796814 56.0
230.820999 132.0
230.860306 128.0
230.884506 148.0
230.908691 148.0
231.014832 224.0
231.056763 324.0
231.105774 10632.0
231.17189 40.0
231.202148 100.0
231.241501 176.0
231.271759 140.0
231.326248 36.0
231.350861 152.0
231.459457 52.0
231.480652 112.0
231.51683 168.0
231.563354 196.0
231.704788 32.0
231.729034 132.0
231.790848 136.0
231.841141 48.0
231.874481 92.0
231.903137 132.0
231.944183 132.0
232.006332 80.0
232.028778 124.0
232.113815 36208.0
232.189774 112.0
232.228195 156.0
232.260269 232.0
232.297485 164.0
232.318283 224.0
232.379532 140.0
232.38916 176.0
232.444595 104.0
232.477982 140.0
232.520828 200.0
232.560333 84.0
232.600571 92.0
232.628632 44.0
232.656509 180.0
232.696518 128.0
232.722656 164.0
232.757248 200.0
232.815521 188.0
232.868423 216.0
232.912125 344.0
232.950211 164.0
233.018448 128.0
233.041809 140.0
233.081039 120.0
233.12088 29152.0
233.167862 216.0
233.181396 116.0
233.192902 156.0
233.207367 72.0
233.218018 220.0
233.242493 148.0
233.276581 128.0
233.291458 160.0
233.354919 192.0
233.416626 44.0
233.445374 112.0
233.4711 148.0
233.515198 48.0
233.582611 132.0
233.62117 156.0
233.714706 184.0
233.740189 96.0
233.797836 152.0
233.819061 124.0
233.853439 116.0
233.913589 80.0
233.982544 120.0
234.028214 188.0
234.058929 92.0
234.128479 17424.0
234.194687 60.0
234.20697 40.0
234.227539 88.0
234.287079 188.0
234.326691 36.0
234.38942 164.0
234.424957 48.0
234.450043 64.0
234.481903 124.0
234.489182 96.0
234.533905 152.0
234.573868 68.0
234.597351 156.0
234.741226 156.0
234.773941 88.0
234.81987 88.0
234.87236 84.0
234.931061 248.0
234.960831 204.0
234.999283 152.0
235.060226 236.0
235.132095 3888.0
235.244629 48.0
235.266006 92.0
235.302643 120.0
235.34726 228.0
235.372864 84.0
235.407394 156.0
235.455322 84.0
235.485855 132.0
235.614151 132.0
235.6922 116.0
235.724136 124.0
235.773041 124.0
235.812775 100.0
235.840271 104.0
235.876953 112.0
235.917923 20.0
235.935577 88.0
235.999237 112.0
236.054276 64.0
236.090973 92.0
236.136612 548.0
236.167435 132.0
236.305099 52.0
236.356262 72.0
236.437454 128.0
236.552536 140.0
236.628738 160.0
236.656662 152.0
236.681564 132.0
236.731796 108.0
236.790787 84.0
236.917389 124.0
236.9664 68.0
237.018494 116.0
237.107895 148.0
237.153336 32.0
237.187057 80.0
237.275955 208.0
237.321945 108.0
237.392471 36.0
237.423126 64.0
237.509003 160.0
237.610245 96.0
237.696152 140.0
237.759842 164.0
237.93187 100.0
238.003098 96.0
238.083145 120.0
238.156647 124.0
238.202713 40.0
238.248718 168.0
238.393204 112.0
238.437149 148.0
238.467484 48.0
238.656265 280.0
238.742508 96.0
238.790482 88.0
238.845154 52.0
238.965134 124.0
239.100525 164.0
239.325241 120.0
239.405289 100.0
239.439163 164.0
239.5439 96.0
239.761337 244.0
239.805801 156.0
239.839279 148.0
239.848175 128.0
239.861923 116.0
239.870773 152.0
239.904434 164.0
239.932175 96.0
240.009262 228.0
240.075928 292.0
240.135696 156.0
240.185043 168.0
240.218979 124.0
240.388672 148.0
240.421341 136.0
240.509033 176.0
240.561508 100.0
240.641769 108.0
240.672638 84.0
240.87117 140.0
240.896393 116.0
241.082077 124.0
241.139099 88.0
241.193527 112.0
241.262741 84.0
241.315308 112.0
241.519409 116.0
241.593643 92.0
241.635056 104.0
241.686462 160.0
241.782394 120.0
241.819519 100.0
241.878342 160.0
241.955719 120.0
241.989777 204.0
242.020737 180.0
242.045517 216.0
242.093811 4876.0
242.169449 364.0
242.237534 116.0
242.398636 56.0
242.451324 32.0
242.562897 132.0
242.69931 108.0
242.855576 132.0
242.903992 152.0
242.956726 48.0
243.098755 1872.0
243.146393 96.0
243.18634 136.0
243.242218 120.0
243.291885 44.0
243.360001 196.0
243.432205 164.0
243.485489 256.0
243.577576 120.0
243.65834 128.0
243.73291 164.0
243.797943 180.0
243.902939 180.0
243.95047 88.0
243.990875 108.0
244.045059 180.0
244.113495 25772.0
244.177032 92.0
244.239655 152.0
244.267639 172.0
244.348526 44.0
244.379639 44.0
244.463654 136.0
244.519226 172.0
244.57515 112.0
244.600586 60.0
244.655594 144.0
244.698502 124.0
244.737579 176.0
244.778046 116.0
244.802963 84.0
244.835785 188.0
244.865768 48.0
244.872894 128.0
244.924576 84.0
245.011642 68.0
245.033463 188.0
245.117538 4192.0
245.169464 52.0
245.249634 96.0
245.334305 152.0
245.443878 112.0
245.488525 164.0
245.514771 56.0
245.550705 64.0
245.660065 172.0
245.696732 176.0
245.736771 108.0
245.763031 128.0
245.800461 172.0
245.865829 144.0
245.897202 156.0
245.932846 240.0
245.981613 180.0
246.024719 160.0
246.092407 1900.0
246.123276 1040.0
246.19841 176.0
246.335114 152.0
246.424942 108.0
246.449936 144.0
246.471802 72.0
246.50618 100.0
246.633209 236.0
246.665573 40.0
246.706207 200.0
246.755508 52.0
246.805359 168.0
246.850021 88.0
246.889481 176.0
246.917358 144.0
246.942291 80.0
246.98764 136.0
247.047073 36.0
247.091049 1416.0
247.131134 352.0
247.215286 136.0
247.268967 140.0
247.319305 112.0
247.359406 204.0
247.425735 112.0
247.466431 36.0
247.490692 152.0
247.613617 176.0
247.701309 80.0
247.726364 124.0
247.798431 92.0
247.892319 120.0
247.945694 112.0
248.045044 184.0
248.066528 160.0
248.093002 428.0
248.138397 332.0
248.196472 160.0
248.295761 124.0
248.353287 40.0
248.434143 164.0
248.50386 164.0
248.541504 112.0
248.619965 60.0
248.7612 104.0
248.792587 84.0
248.833405 168.0
248.879333 204.0
248.905624 72.0
249.021805 104.0
249.070633 152.0
249.12233 180.0
249.147461 184.0
249.214966 172.0
249.282562 100.0
249.376846 60.0
249.458572 236.0
249.504684 172.0
249.530869 192.0
249.578308 236.0
249.64325 184.0
249.7164 156.0
249.761047 208.0
249.829636 164.0
249.876831 192.0
250.00238 160.0
250.088455 48500.0
250.165359 176.0
250.208817 156.0
250.235291 76.0
250.297058 88.0
250.328781 116.0
250.361115 192.0
250.385269 44.0
250.448807 200.0
250.491989 88.0
250.5215 80.0
250.560013 84.0
250.585953 84.0
250.613678 108.0
250.673935 124.0
250.742767 56.0
250.811478 76.0
250.845016 136.0
250.906677 156.0
250.956772 148.0
250.990829 208.0
251.051712 212.0
251.091583 8444.0
251.141769 224.0
251.178879 100.0
251.215729 52.0
251.270782 88.0
251.297745 88.0
251.332581 100.0
251.389252 116.0
251.421417 68.0
251.449219 64.0
251.623947 56.0
251.872864 68.0
252.010254 84.0
252.093903 992.0
252.262711 80.0
252.346329 36.0
252.374771 136.0
252.402634 168.0
252.441177 136.0
252.490814 104.0
252.520111 176.0
252.557617 132.0
252.573349 96.0
252.579147 128.0
252.624176 200.0
252.675247 96.0
252.711365 144.0
252.744843 164.0
252.766998 124.0
252.832855 84.0
252.840897 68.0
252.850449 108.0
252.877762 84.0
252.889572 60.0
252.901489 196.0
252.934906 148.0
252.968231 124.0
253.011536 152.0
253.040039 60.0
253.064529 200.0
253.096191 212.0
253.156357 96.0
253.194351 40.0
253.311539 144.0
253.336884 124.0
253.441437 152.0
253.479462 156.0
253.508987 88.0
253.549179 92.0
253.63475 128.0
253.66011 120.0
253.698151 108.0
253.720337 204.0
253.796432 112.0
253.863022 248.0
253.932785 216.0
253.954987 112.0
254.012085 96.0
254.05838 108.0
254.089752 248.0
254.23735 120.0
254.294479 104.0
254.338913 36.0
254.441284 64.0
254.521179 116.0
255.03157 108.0
255.053589 156.0
255.113892 264.0
255.342926 64.0
255.43576 64.0
255.488647 64.0
255.56575 160.0
255.661057 60.0
255.848846 176.0
256.016357 176.0
256.073151 172.0
256.105408 112.0
256.27243 252.0
256.314789 68.0
256.358459 120.0
256.422211 140.0
256.559265 72.0
256.587952 96.0
256.629395 144.0
256.763336 156.0
256.798859 116.0
256.849457 88.0
256.881348 112.0
256.925995 116.0
256.99939 100.0
257.055786 100.0
257.084351 488.0
257.115753 352.0
257.187683 76.0
257.248322 152.0
257.296906 144.0
257.334503 96.0
257.395172 56.0
257.436676 188.0
257.514618 140.0
257.641022 140.0
257.648651 160.0
257.720978 148.0
257.823242 80.0
257.86264 132.0
257.896729 140.0
257.931915 188.0
257.974548 188.0
258.002136 152.0
258.023376 300.0
258.049957 476.0
258.089539 65676.0
258.201691 180.0
258.245239 48.0
258.295013 108.0
258.318176 60.0
258.355286 252.0
258.41925 100.0
258.443817 104.0
258.488373 76.0
258.510773 56.0
258.548645 184.0
258.631714 168.0
258.65799 120.0
258.683411 60.0
258.742676 124.0
258.864197 196.0
258.965668 180.0
259.00238 116.0
259.092255 11408.0
259.12323 1260.0
259.210876 108.0
259.239014 68.0
259.263824 124.0
259.330627 72.0
259.452454 60.0
259.483276 84.0
259.556671 164.0
259.612762 136.0
259.657654 88.0
259.69397 124.0
259.713257 84.0
259.756256 92.0
259.805206 84.0
259.837708 156.0
259.952789 148.0
260.010559 56.0
260.102417 2324.0
260.187988 188.0
260.222412 144.0
260.272034 92.0
260.305908 40.0
260.363708 252.0
260.397339 144.0
260.429749 148.0
260.453644 40.0
260.496063 108.0
260.550018 44.0
260.575714 96.0
260.596375 48.0
260.617462 64.0
260.661255 216.0
260.723511 284.0
260.789062 280.0
260.861725 64.0
260.921173 180.0
260.962311 80.0
260.984344 316.0
261.030457 140.0
261.103271 1080.0
261.139587 1264.0
261.263702 132.0
261.295868 44.0
261.360229 48.0
261.479279 128.0
261.501801 52.0
261.548309 96.0
261.582275 124.0
261.615326 76.0
261.656311 120.0
261.714264 180.0
261.74646 84.0
261.774567 132.0
261.814087 160.0
261.875275 104.0
261.988037 84.0
262.014435 240.0
262.109924 128.0
262.138489 148.0
262.145599 248.0
262.191925 172.0
262.255463 160.0
262.297394 116.0
262.47049 92.0
262.512146 72.0
262.531525 116.0
262.568207 36.0
262.642395 68.0
262.91626 212.0
262.938293 124.0
262.990875 48.0
263.032837 176.0
263.089935 296.0
263.156464 224.0
263.249146 164.0
263.274445 124.0
263.323425 60.0
263.417084 96.0
263.516327 72.0
263.565704 76.0
263.589783 80.0
263.640015 68.0
263.710999 96.0
263.788696 108.0
263.830719 116.0
263.875977 52.0
263.956818 116.0
264.044128 52.0
264.070007 120.0
264.112946 136.0
264.143036 104.0
264.173492 152.0
264.205841 172.0
264.289978 120.0
264.341736 108.0
264.409698 172.0
264.474426 132.0
264.519745 72.0
264.561829 152.0
264.594208 152.0
264.896545 144.0
264.927765 160.0
265.083282 132.0
265.235107 132.0
265.41391 212.0
265.46579 44.0
265.59552 48.0
265.770721 100.0
266.105011 136.0
266.377808 128.0
266.439514 128.0
266.504517 180.0
266.562988 96.0
266.836029 76.0
266.878296 216.0
267.018127 164.0
267.105927 112.0
267.255585 160.0
267.323914 160.0
267.349945 140.0
267.450836 156.0
267.538727 124.0
267.675476 76.0
267.7341 140.0
267.818756 56.0
267.93277 164.0
267.99469 88.0
268.017487 160.0
268.068909 180.0
268.170654 76.0
268.248871 64.0
268.327118 212.0
268.421692 112.0
268.539093 200.0
268.741333 44.0
268.862061 96.0
268.94693 80.0
268.982819 164.0
269.112701 272.0
269.168915 132.0
269.202942 200.0
269.302826 164.0
269.469421 128.0
269.538025 112.0
269.593567 200.0
269.658936 376.0
269.779877 80.0
269.819122 120.0
269.966248 120.0
270.025116 88.0
270.080658 248.0
270.092407 128.0
270.105713 160.0
270.172302 132.0
270.254089 148.0
270.35553 48.0
270.392944 112.0
270.509369 120.0
270.61084 156.0
270.826996 188.0
270.994049 64.0
271.094482 204.0
271.100525 628.0
271.123505 800.0
271.285736 176.0
271.315247 104.0
271.384094 104.0
271.515259 176.0
271.576202 124.0
271.623474 172.0
271.650085 188.0
271.692383 40.0
271.796204 136.0
271.842224 208.0
271.892944 156.0
271.927399 148.0
271.954437 148.0
272.108795 32188.0
272.180908 104.0
272.219513 112.0
272.245148 48.0
272.300476 152.0
272.343048 144.0
272.449799 116.0
272.489716 60.0
272.554291 208.0
272.594879 144.0
272.602661 132.0
272.700439 100.0
272.730042 76.0
272.835205 156.0
272.887817 160.0
272.932068 176.0
273.006195 96.0
273.11145 5748.0
273.190247 88.0
273.218018 152.0
273.275909 204.0
273.359314 92.0
273.394379 36.0
273.430573 48.0
273.585266 48.0
273.624786 72.0
273.687347 76.0
273.753204 80.0
273.789429 48.0
273.812469 40.0
273.855286 44.0
273.898102 48.0
274.088959 2608.0
274.177063 84.0
274.182495 140.0
274.224304 40.0
274.292236 144.0
274.55069 108.0
274.577057 104.0
274.611633 160.0
274.646332 32.0
274.769562 168.0
274.834381 52.0
274.891357 132.0
274.964142 124.0
275.081421 1664.0
275.157532 132.0
275.372467 136.0
275.431915 128.0
275.464935 48.0
275.497986 104.0
275.547516 84.0
275.673096 96.0
275.716034 148.0
275.759003 96.0
275.92099 192.0
275.957367 112.0
275.980499 84.0
276.026794 68.0
276.091064 440.0
276.14975 280.0
276.191162 68.0
276.203552 124.0
276.24649 144.0
276.3013 48.0
276.324463 116.0
276.42041 84.0
276.482178 72.0
276.534729 156.0
276.794464 240.0
276.837524 136.0
276.930237 136.0
276.994354 112.0
277.021881 120.0
277.105255 188.0
277.165466 268.0
277.2052 116.0
277.28476 104.0
277.427277 84.0
277.474609 164.0
277.606323 56.0
277.729034 116.0
277.772156 220.0
277.941345 136.0
278.04422 168.0
278.269928 128.0
278.366241 140.0
278.399445 148.0
278.555542 136.0
278.605377 36.0
278.671814 104.0
278.764832 108.0
279.073975 92.0
279.338135 156.0
279.363312 36.0
279.529663 96.0
279.572937 156.0
279.596222 136.0
279.656128 64.0
279.857422 144.0
279.929108 112.0
280.069 144.0
280.178925 108.0
280.255554 136.0
280.838928 204.0
280.912323 84.0
281.112488 84.0
281.165894 312.0
281.278656 152.0
281.35614 96.0
281.432953 80.0
281.596558 124.0
281.80368 100.0
281.950714 108.0
281.980774 92.0
282.027588 132.0
282.067688 112.0
282.105682 216.0
282.112305 80.0
282.126221 164.0
282.337219 168.0
282.763397 100.0
282.847046 104.0
283.074707 100.0
283.104858 100.0
283.212036 144.0
283.359436 80.0
283.52774 156.0
283.567169 136.0
283.627502 52.0
283.657684 148.0
283.724731 148.0
283.922546 152.0
284.110901 104.0
284.142883 208.0
284.27478 48.0
284.43924 116.0
284.479523 104.0
284.526031 56.0
284.838257 120.0
284.906006 220.0
284.966492 48.0
285.09082 136.0
285.302551 36.0
285.366455 120.0
285.517761 80.0
285.548035 112.0
285.696014 84.0
285.726288 48.0
285.855804 96.0
285.914734 232.0
285.992126 84.0
286.095642 144.0
286.121918 216.0
286.15918 168.0
286.217682 152.0
286.291779 204.0
286.332184 60.0
286.406281 116.0
286.497223 172.0
286.743225 56.0
286.810608 192.0
286.841827 180.0
286.911743 60.0
286.977753 180.0
287.02301 240.0
287.0466 152.0
287.118896 12996.0
287.228729 152.0
287.356934 68.0
287.623505 164.0
287.66983 128.0
287.749054 172.0
287.779938 104.0
287.859833 112.0
287.910492 56.0
288.005066 56.0
288.04361 200.0
288.07782 376.0
288.122162 2456.0
288.167999 240.0
288.271973 104.0
288.309143 96.0
288.405579 60.0
288.549591 120.0
288.576172 56.0
288.650543 116.0
288.73291 204.0
288.792603 136.0
288.834503 132.0
288.905792 96.0
289.061493 164.0
289.101013 752.0
289.126892 1028.0
289.171753 276.0
289.262909 64.0
289.303528 148.0
289.32724 48.0
289.452515 128.0
289.571045 160.0
289.740417 100.0
289.838104 124.0
289.896545 152.0
289.988892 84.0
290.038605 108.0
290.152435 656.0
290.187012 272.0
290.22168 60.0
290.265442 84.0
290.326782 128.0
290.418365 96.0
290.448883 144.0
290.649048 44.0
290.815338 76.0
290.842499 92.0
290.91037 248.0
291.116577 152.0
291.156708 428.0
291.182129 428.0
291.338257 212.0
291.382416 212.0
291.440186 104.0
291.471222 152.0
291.517975 116.0
291.661072 68.0
291.701874 108.0
291.786865 92.0
291.809387 108.0
291.980682 128.0
292.004486 56.0
292.039337 176.0
292.19162 352.0
292.256195 124.0
292.378693 128.0
292.499542 128.0
292.691895 100.0
292.72934 56.0
292.800842 72.0
293.066559 180.0
293.097229 160.0
293.238281 132.0
293.39032 68.0
293.448273 136.0
293.548859 136.0
293.592499 68.0
293.690399 140.0
293.86438 176.0
293.995758 128.0
294.099335 80.0
294.209076 132.0
294.30127 144.0
294.34906 132.0
294.699097 84.0
294.758972 164.0
294.810211 136.0
295.066559 128.0
295.100769 128.0
295.210175 184.0
295.374359 144.0
295.429077 108.0
295.678864 156.0
295.707611 148.0
295.867126 52.0
295.959564 68.0
295.997223 68.0
296.130768 120.0
296.72702 68.0
296.812744 120.0
297.049377 124.0
297.089264 172.0
297.121429 256.0
297.172882 128.0
297.372375 148.0
297.428345 100.0
297.667145 180.0
297.696198 140.0
297.752991 136.0
297.777039 48.0
297.828552 116.0
297.990021 112.0
298.085175 184.0
298.302734 112.0
298.708649 192.0
298.760101 92.0
298.939026 108.0
299.016693 128.0
299.042267 44.0
299.081177 1740.0
299.145325 132.0
299.155182 124.0
299.164856 232.0
299.372772 148.0
299.731018 128.0
299.799927 88.0
299.896423 140.0
300.006744 36.0
300.088989 596.0
300.144653 164.0
300.180908 200.0
300.275696 120.0
300.330872 132.0
300.479187 56.0
300.579254 132.0
300.603424 116.0
300.717285 32.0
300.758728 108.0
300.803589 148.0
300.889893 140.0
301.010742 116.0
301.091492 392.0
301.144348 232.0
301.17215 256.0
301.373657 176.0
301.421783 84.0
301.663727 140.0
301.694824 148.0
301.937469 68.0
302.094635 204.0
302.183533 156.0
302.217072 48.0
302.27243 144.0
302.30011 100.0
302.417786 104.0
302.45932 84.0
302.563171 148.0
302.622009 104.0
302.788239 96.0
302.835968 148.0
303.071075 284.0
303.134644 164.0
303.214355 136.0
303.280212 72.0
303.48822 116.0
303.685883 148.0
303.755249 188.0
303.800354 112.0
303.879395 132.0
303.998108 204.0
304.065033 168.0
304.109131 916.0
304.450317 168.0
304.511902 120.0
304.828033 88.0
304.942719 56.0
304.979706 200.0
305.106171 408.0
305.231689 128.0
305.387756 96.0
305.499054 92.0
305.558197 108.0
305.648682 44.0
305.801788 100.0
305.878357 152.0
305.920135 164.0
305.961914 132.0
306.041992 188.0
306.111633 120.0
306.363892 160.0
306.418152 116.0
306.491302 208.0
306.515686 32.0
306.72702 300.0
306.857269 124.0
306.881683 112.0
307.09787 132.0
307.279266 128.0
307.331604 124.0
307.356049 144.0
307.413757 148.0
307.554962 104.0
307.593353 100.0
307.651428 120.0
307.705048 60.0
307.83075 136.0
307.907593 180.0
307.973938 52.0
308.428162 60.0
308.552399 208.0
308.63443 192.0
309.085663 140.0
309.162628 84.0
309.341125 84.0
309.407654 156.0
309.558197 64.0
309.701782 160.0
309.782349 184.0
309.950531 156.0
310.055664 180.0
310.0802 152.0
310.106049 84.0
310.188843 212.0
310.279999 132.0
310.392181 192.0
310.557007 196.0
310.636871 120.0
310.792053 156.0
310.823639 240.0
311.11142 64.0
311.148376 168.0
311.155304 88.0
311.16861 124.0
311.195679 56.0
311.329895 160.0
311.392334 32.0
311.539856 148.0
311.620667 132.0
311.659302 68.0
311.810394 124.0
311.866638 176.0
311.933441 196.0
312.042419 120.0
312.070526 112.0
312.13031 156.0
312.172516 108.0
312.439819 116.0
312.53833 44.0
312.598145 204.0
312.756531 36.0
312.784668 148.0
312.812836 60.0
312.841003 136.0
312.886749 116.0
313.096741 164.0
313.249481 44.0
313.279755 128.0
313.425629 116.0
313.605347 80.0
313.795715 40.0
314.053131 152.0
314.096832 536.0
314.218933 208.0
314.257751 160.0
314.321259 156.0
314.589478 44.0
314.702454 68.0
314.81192 156.0
314.864899 144.0
314.955902 140.0
315.108582 892.0
315.172211 92.0
315.22876 148.0
315.331055 152.0
315.368774 188.0
315.423126 68.0
315.515045 164.0
315.567352 96.0
315.606964 48.0
315.663544 80.0
315.730286 152.0
315.797943 148.0
315.903076 192.0
316.033447 180.0
316.066803 152.0
316.114105 480.0
316.162323 136.0
316.339294 52.0
316.399475 96.0
316.470306 104.0
316.587158 76.0
316.718201 128.0
316.742981 144.0
316.792572 64.0
316.859894 156.0
317.049957 180.0
317.093506 896.0
317.260345 160.0
317.434082 72.0
317.501465 144.0
317.611389 184.0
317.749756 100.0
317.86792 104.0
317.909424 80.0
317.994598 136.0
318.085266 184.0
318.214691 156.0
318.271484 44.0
318.296356 132.0
318.445496 112.0
318.544952 120.0
318.584686 220.0
318.615997 120.0
318.701263 80.0
318.857635 140.0
319.134888 108.0
319.177551 172.0
319.287811 64.0
319.39093 104.0
319.540344 152.0
319.586609 168.0
319.618622 132.0
319.80368 144.0
319.928253 128.0
320.035065 116.0
320.132202 232.0
320.287903 116.0
320.43042 112.0
320.501678 36.0
320.654907 176.0
321.066345 244.0
321.132629 132.0
321.225372 152.0
321.271759 100.0
321.34668 184.0
321.521515 140.0
321.603607 64.0
321.671417 152.0
322.028473 228.0
322.089203 136.0
322.142792 184.0
322.196808 128.0
322.228516 188.0
322.309082 132.0
322.571594 148.0
322.610931 176.0
322.784393 108.0
322.930634 136.0
323.104431 100.0
323.184113 176.0
323.260101 164.0
323.387115 72.0
323.487427 152.0
323.541046 148.0
323.831085 176.0
323.938538 160.0
324.07782 96.0
324.110504 224.0
324.192932 192.0
324.221588 132.0
324.325531 108.0
324.433075 120.0
324.594391 72.0
324.852631 56.0
324.906433 100.0
324.966187 172.0
324.986816 188.0
325.081238 184.0
325.14325 156.0
325.365814 108.0
325.412476 104.0
325.477112 176.0
325.545319 176.0
325.66745 108.0
325.807526 84.0
325.847046 48.0
325.958435 176.0
326.092163 152.0
326.317871 88.0
326.375397 84.0
326.537201 116.0
326.619934 120.0
326.742249 112.0
326.814209 100.0
326.907379 152.0
327.084106 172.0
327.145935 1480.0
327.217316 80.0
327.256897 160.0
327.458557 164.0
327.487366 160.0
327.617065 84.0
327.707123 36.0
327.82962 60.0
327.869263 116.0
327.905304 112.0
328.006226 172.0
328.101593 488.0
328.157166 388.0
328.233368 184.0
328.30188 52.0
328.449738 52.0
328.500244 164.0
328.741058 188.0
328.776367 144.0
328.87912 72.0
329.080109 824.0
329.156067 112.0
329.305176 164.0
329.334045 40.0
329.366577 108.0
329.503845 120.0
329.586945 88.0
329.706177 60.0
329.731476 140.0
330.087494 980.0
330.123962 204.0
330.161682 148.0
330.259338 72.0
330.298889 124.0
330.310364 116.0
330.37149 132.0
330.606659 88.0
331.082367 164.0
331.129456 136.0
331.175049 252.0
331.396027 44.0
331.446777 148.0
331.600464 144.0
331.754822 184.0
331.838226 120.0
332.012268 76.0
332.168213 132.0
332.208618 148.0
332.303833 188.0
332.398712 136.0
332.451202 140.0
332.629059 72.0
332.666748 84.0
332.719818 112.0
332.850525 224.0
332.970367 156.0
333.105652 116.0
333.165955 160.0
333.344543 100.0
333.402679 152.0
333.446289 108.0
333.737091 148.0
334.03894 108.0
334.233215 152.0
334.340942 100.0
334.377319 64.0
334.471954 132.0
334.708588 128.0
334.846985 132.0
335.030548 132.0
335.154602 144.0
335.455475 148.0
335.479858 100.0
335.557526 108.0
335.78363 124.0
335.936798 56.0
335.976929 160.0
336.109253 228.0
336.144592 164.0
336.26886 148.0
336.42215 124.0
336.524384 84.0
336.633911 100.0
336.674103 52.0
336.864014 100.0
336.957123 140.0
337.214783 112.0
337.562073 104.0
337.821747 144.0
337.887054 80.0
338.033966 144.0
338.209625 132.0
338.237701 120.0
338.275513 172.0
338.352386 156.0
338.473206 168.0
338.777191 164.0
338.802856 148.0
338.907104 184.0
339.110321 140.0
339.120483 128.0
339.147766 180.0
339.30127 112.0
339.50293 132.0
339.627625 148.0
339.789032 132.0
339.829376 160.0
340.101685 376.0
340.148651 132.0
340.273468 88.0
340.343231 116.0
340.490112 200.0
340.53418 124.0
340.597839 184.0
340.728882 72.0
340.761932 60.0
340.881866 120.0
340.956696 88.0
340.988892 84.0
341.022827 156.0
341.105347 7508.0
341.228699 64.0
341.335327 60.0
341.405182 136.0
341.429535 132.0
341.460358 72.0
341.486084 56.0
341.820862 36.0
341.898163 36.0
341.986481 92.0
342.019592 96.0
342.098694 2368.0
342.21405 88.0
342.447571 120.0
342.55722 88.0
342.686157 140.0
343.092468 236.0
343.202148 68.0
343.264832 36.0
343.323822 248.0
343.393921 200.0
343.486115 136.0
343.544037 112.0
343.666901 156.0
343.782074 148.0
343.832947 88.0
343.936279 128.0
343.980591 56.0
344.092133 564.0
344.135803 140.0
344.179932 176.0
344.232788 128.0
344.506775 32.0
344.65271 92.0
344.807922 48.0
344.918793 96.0
345.059296 108.0
345.088867 108.0
345.158539 9732.0
345.253754 128.0
345.311218 156.0
345.362518 56.0
345.440613 144.0
345.471008 180.0
345.528961 72.0
345.636047 140.0
345.717072 120.0
345.809296 160.0
345.880524 96.0
345.976776 88.0
346.078064 88.0
346.160309 2428.0
346.240479 132.0
346.287811 36.0
346.313721 92.0
346.341736 220.0
346.395233 88.0
346.447083 120.0
346.487823 108.0
346.532288 112.0
346.58786 140.0
346.624939 140.0
346.879913 60.0
346.947388 192.0
347.110504 128.0
347.158081 440.0
347.247711 76.0
347.52594 136.0
347.644684 52.0
347.722626 56.0
347.77829 140.0
347.90448 60.0
347.94162 72.0
348.00473 84.0
348.133484 340.0
348.147278 300.0
348.160156 320.0
348.205261 152.0
348.29068 148.0
348.36496 76.0
348.480133 112.0
348.51358 124.0
348.885223 120.0
348.912872 164.0
349.007904 52.0
349.045105 140.0
349.133667 392.0
349.279388 36.0
349.491455 176.0
349.562134 100.0
349.588196 80.0
349.699829 68.0
349.740784 100.0
349.818939 188.0
349.845001 80.0
349.971588 124.0
350.157776 132.0
350.206207 132.0
350.239868 192.0
350.306763 152.0
350.739014 52.0
350.828491 132.0
350.865753 140.0
350.983765 232.0
351.164062 108.0
351.216278 40.0
351.242401 176.0
351.32074 36.0
351.414001 108.0
351.649078 200.0
351.772247 204.0
351.824524 104.0
352.123596 208.0
352.253967 84.0
352.336151 72.0
352.78833 160.0
352.825714 188.0
352.885529 72.0
352.956573 152.0
352.989777 128.0
353.017151 140.0
353.053802 152.0
353.08371 132.0
353.111877 200.0
353.446594 76.0
353.513947 132.0
353.644928 160.0
353.794647 160.0
353.921936 80.0
353.959381 128.0
354.111481 116.0
354.326447 104.0
354.453827 160.0
354.51004 116.0
354.693695 148.0
354.794891 60.0
354.821136 140.0
355.019867 88.0
355.120087 564.0
355.19989 72.0
355.226135 136.0
355.710205 44.0
355.740234 168.0
355.886658 188.0
355.999298 84.0
356.119934 164.0
356.277252 160.0
356.435059 56.0
356.922119 124.0
357.127319 140.0
357.162231 156.0
357.198242 48.0
357.412689 48.0
357.540619 128.0
357.582031 132.0
357.732574 244.0
357.788818 132.0
357.801666 124.0
357.80899 176.0
357.849274 136.0
358.003845 164.0
358.114014 736.0
358.327606 164.0
358.406708 40.0
358.519775 176.0
358.576294 112.0
358.636597 72.0
358.873901 76.0
358.919342 28.0
358.9646 40.0
359.073944 116.0
359.11908 108.0
359.177765 228.0
359.337982 124.0
359.379486 152.0
359.405914 48.0
359.485138 128.0
359.722931 48.0
359.975891 104.0
360.017426 60.0
360.111084 172.0
360.134888 160.0
360.213806 200.0
360.395172 128.0
360.466949 76.0
360.565002 144.0
360.759857 112.0
360.878937 36.0
360.912994 100.0
360.984833 60.0
361.090698 164.0
361.164276 288.0
361.215637 156.0
361.286163 136.0
361.552277 132.0
361.609039 212.0
361.635529 104.0
361.938385 68.0
361.972443 64.0
362.139282 156.0
362.163818 268.0
362.264069 40.0
362.529297 120.0
362.584564 124.0
362.616455 108.0
362.865479 116.0
363.065552 148.0
363.077423 68.0
363.088226 120.0
363.148315 3552.0
363.27243 48.0
363.345367 160.0
363.49118 128.0
363.519043 132.0
363.629089 28.0
363.65567 52.0
363.758148 180.0
363.898621 84.0
363.951752 72.0
364.058075 140.0
364.151764 1276.0
364.308777 100.0
364.347107 172.0
364.635529 92.0
364.66214 60.0
364.776184 60.0
364.80658 156.0
365.046112 76.0
365.154602 560.0
365.25528 112.0
365.635773 84.0
365.692841 144.0
365.944092 80.0
366.015289 160.0
366.336334 76.0
366.503967 212.0
366.528076 160.0
366.709747 136.0
366.961365 156.0
367.007111 52.0
367.075745 48.0
367.106232 108.0
367.15863 168.0
367.213013 140.0
367.453339 144.0
367.560181 100.0
367.675781 228.0
367.724274 164.0
367.834961 108.0
367.884583 116.0
367.996368 100.0
368.024017 100.0
368.113678 100.0
368.159485 152.0
368.23587 152.0
368.335175 28.0
368.445953 116.0
368.545288 140.0
368.797516 72.0
368.91983 148.0
368.992462 92.0
369.095703 152.0
369.130127 156.0
369.286896 108.0
369.432251 48.0
369.504944 128.0
369.761322 192.0
370.105835 108.0
370.139343 112.0
370.186249 72.0
370.381561 84.0
370.768555 136.0
370.929504 144.0
371.109833 116.0
371.159546 100.0
371.201721 156.0
371.428009 116.0
371.554596 124.0
371.615967 76.0
371.704224 52.0
371.97287 60.0
372.038147 168.0
372.111084 140.0
372.15036 136.0
372.260834 128.0
372.322266 128.0
372.594971 56.0
372.967712 116.0
373.134705 3492.0
373.28299 108.0
373.309906 72.0
373.390656 140.0
373.498352 188.0
373.621429 168.0
373.689972 84.0
373.78302 96.0
373.829224 156.0
373.85614 112.0
374.04895 220.0
374.136902 1812.0
374.383545 220.0
374.564575 152.0
375.119995 292.0
375.147705 640.0
375.21582 148.0
375.316071 44.0
375.354614 80.0
375.637848 152.0
375.667023 100.0
375.721039 172.0
375.771179 144.0
375.87149 56.0
376.124786 1704.0
376.462097 148.0
376.5065 88.0
376.755646 96.0
376.78656 244.0
376.893616 112.0
376.952698 96.0
377.125488 364.0
377.167084 248.0
377.636963 48.0
377.884521 84.0
378.045105 156.0
378.133698 196.0
378.166901 148.0
378.279266 48.0
378.352814 40.0
378.414764 44.0
379.135132 136.0
379.170105 156.0
379.197235 72.0
379.24762 48.0
379.468597 188.0
379.499603 48.0
379.674103 44.0
379.945618 140.0
380.030975 168.0
380.065887 136.0
380.149445 196.0
380.388 136.0
380.504456 80.0
380.675293 216.0
380.989899 144.0
381.098694 216.0
381.130188 376.0
381.203613 128.0
381.25412 76.0
381.413483 56.0
381.638947 76.0
381.763367 92.0
381.895599 180.0
382.219025 152.0
382.385834 124.0
382.413086 56.0
382.52597 52.0
382.557098 124.0
382.662201 140.0
382.817963 180.0
383.04776 116.0
383.098389 148.0
383.143219 156.0
383.211365 192.0
383.721924 56.0
383.764801 144.0
383.936401 64.0
384.01828 108.0
384.166504 104.0
384.264038 100.0
384.566711 64.0
384.646484 180.0
384.759674 96.0
384.790924 196.0
384.927582 104.0
385.091583 144.0
385.216583 60.0
385.427277 116.0
385.490082 68.0
385.685486 84.0
385.776794 276.0
386.076447 92.0
386.107422 148.0
386.144043 216.0
386.295471 200.0
386.330688 64.0
386.43631 80.0
386.682831 108.0
386.725525 168.0
386.847229 132.0
387.007751 152.0
387.148468 128.0
387.46991 132.0
387.53772 232.0
387.583527 144.0
387.669739 96.0
387.697174 180.0
387.818665 156.0
387.906311 120.0
387.983276 76.0
388.154724 276.0
388.257751 140.0
388.284027 132.0
388.48526 128.0
388.58725 40.0
388.669647 184.0
388.838379 64.0
388.873718 64.0
388.91153 132.0
388.975769 60.0
389.007172 60.0
389.142548 588.0
389.17334 632.0
389.200745 196.0
389.274139 136.0
389.313416 96.0
389.360535 88.0
389.431244 100.0
389.568695 184.0
389.635498 48.0
389.674774 172.0
389.710388 64.0
389.91449 232.0
389.955811 132.0
389.993073 68.0
390.073669 156.0
390.15799 652.0
390.299713 152.0
390.351166 160.0
390.417694 84.0
390.468811 56.0
390.553528 116.0
390.584595 100.0
390.665466 128.0
390.732361 104.0
390.767975 148.0
390.81427 228.0
390.851349 116.0
390.889069 160.0
390.94986 152.0
391.030548 516.0
391.056213 252.0
391.146515 65824.0
391.239471 168.0
391.283112 68.0
391.310883 160.0
391.351349 44.0
391.388092 132.0
391.429016 84.0
391.549774 144.0
391.597687 76.0
391.66629 52.0
391.719788 164.0
391.730804 124.0
391.807129 40.0
391.835144 216.0
391.911469 84.0
392.001709 212.0
392.072998 392.0
392.149719 19484.0
392.255402 232.0
392.380646 68.0
392.426453 56.0
392.460358 236.0
392.552063 144.0
392.632568 228.0
392.711121 48.0
392.782837 216.0
392.822388 88.0
392.855743 72.0
392.93576 172.0
392.974091 96.0
393.022583 60.0
393.098694 124.0
393.151611 3016.0
393.239502 172.0
393.305573 76.0
393.352966 40.0
393.392426 112.0
393.430786 56.0
393.480133 148.0
393.516602 140.0
393.568756 168.0
393.625366 84.0
393.660919 188.0
393.702759 80.0
393.840881 56.0
393.98761 56.0
394.048981 112.0
394.091461 116.0
394.164795 388.0
394.253448 40.0
394.289032 44.0
394.329559 124.0
394.380524 108.0
394.41803 44.0
394.455017 92.0
394.486664 124.0
394.565704 152.0
394.598999 76.0
394.629852 120.0
394.701141 132.0
394.742279 104.0
394.824371 300.0
394.898987 184.0
394.933472 72.0
394.961151 48.0
394.988861 188.0
395.056702 96.0
395.16687 112.0
395.269745 68.0
395.305359 96.0
395.489136 100.0
395.574493 52.0
395.614075 84.0
395.768463 144.0
395.823547 92.0
395.9823 56.0
396.03775 112.0
396.077362 48.0
396.120941 124.0
396.158295 112.0
396.216003 64.0
396.358643 56.0
396.394318 220.0
396.50528 76.0
396.571381 100.0
396.623993 164.0
396.822388 40.0
397.153259 92.0
397.290344 88.0
397.429199 44.0
397.631592 132.0
397.774475 108.0
397.853882 52.0
397.953125 152.0
398.028564 60.0
398.147705 312.0
398.243011 172.0
398.314514 236.0
398.398102 100.0
398.525055 132.0
398.632355 160.0
398.862854 92.0
399.14505 260.0
399.212738 48.0
399.244537 52.0
399.363861 88.0
399.709961 120.0
399.90097 100.0
399.952728 72.0
400.004456 160.0
400.135529 152.0
400.181824 116.0
400.386688 180.0
400.569916 96.0
400.649567 68.0
400.836823 124.0
400.976318 80.0
401.048065 104.0
401.103851 92.0
401.158264 188.0
401.18512 156.0
401.263306 124.0
401.402863 200.0
401.502563 144.0
401.73642 108.0
401.769806 208.0
402.168823 136.0
402.336487 172.0
402.639954 160.0
402.819672 96.0
403.011444 104.0
403.148987 244.0
403.287689 32.0
403.34314 220.0
403.437531 144.0
403.772156 132.0
403.797516 112.0
403.882935 128.0
404.126953 92.0
404.172028 60.0
404.243286 116.0
404.835449 172.0
404.879517 104.0
405.011658 100.0
405.159973 196.0
405.219971 160.0
405.318939 140.0
405.329132 116.0
405.347046 168.0
405.492462 48.0
405.56488 56.0
405.777069 40.0
405.809143 108.0
405.938171 132.0
405.981567 56.0
406.069794 84.0
406.155701 6584.0
406.233704 60.0
406.324677 136.0
406.352264 144.0
406.393188 156.0
406.607391 48.0
406.6716 52.0
406.703705 36.0
406.742401 88.0
406.856262 32.0
406.908447 112.0
407.052979 120.0
407.158783 2372.0
407.276337 188.0
407.456726 184.0
407.579193 72.0
407.731201 72.0
407.76001 140.0
407.805603 188.0
407.894012 144.0
407.931732 172.0
408.091644 164.0
408.165466 484.0
408.314819 108.0
408.523987 52.0
408.580292 176.0
408.801605 96.0
408.938416 84.0
409.026978 120.0
409.155151 176.0
409.192322 164.0
409.217926 84.0
409.385315 116.0
409.473907 260.0
409.582642 248.0
409.641418 236.0
409.788086 40.0
409.868683 48.0
410.122559 56.0
410.183044 168.0
410.2435 112.0
410.59201 108.0
410.699158 116.0
410.741302 168.0
410.795959 36.0
411.20752 180.0
411.401276 196.0
411.480469 168.0
411.521423 136.0
411.607178 100.0
411.821198 100.0
411.95047 128.0
411.982788 176.0
412.063568 128.0
412.184784 116.0
412.229248 88.0
412.346436 100.0
412.625336 136.0
412.706207 168.0
412.924561 60.0
413.102539 168.0
413.167267 100.0
413.21582 52.0
413.61618 124.0
413.877869 140.0
413.911987 72.0
414.021332 172.0
414.106354 136.0
414.159027 104.0
414.515533 124.0
414.665466 92.0
414.928955 164.0
415.135742 112.0
415.229004 76.0
415.302002 60.0
415.419647 52.0
415.626556 88.0
416.139252 1568.0
416.251648 124.0
416.284149 112.0
416.442535 136.0
416.483154 52.0
417.043854 132.0
417.142609 484.0
417.243042 32.0
417.535797 180.0
417.568329 96.0
418.150452 632.0
418.276306 132.0
418.353638 96.0
418.47171 128.0
418.870789 164.0
418.940033 140.0
419.151367 124.0
419.343445 176.0
419.408661 164.0
419.645081 96.0
419.861206 88.0
419.960693 140.0
420.114075 176.0
420.173035 460.0
420.20224 168.0
420.5466 116.0
420.595581 140.0
420.795624 160.0
421.097809 236.0
421.167236 52.0
421.346954 128.0
421.400085 164.0
421.502319 204.0
421.690216 160.0
421.729309 92.0
421.742706 52.0
421.753082 84.0
421.84552 180.0
421.919128 148.0
422.385284 188.0
422.434387 116.0
422.503937 96.0
422.880371 152.0
423.117798 172.0
423.461761 200.0
423.678864 132.0
423.711639 60.0
423.998444 64.0
424.051727 48.0
424.538666 108.0
424.781586 180.0
425.097473 136.0
425.167236 168.0
425.257538 36.0
425.507935 132.0
425.717346 112.0
425.889832 152.0
426.189728 96.0
426.469177 104.0
426.584259 200.0
426.756927 80.0
427.180511 60.0
427.361542 136.0
427.616669 180.0
427.645477 144.0
428.145233 140.0
428.543182 184.0
428.905853 164.0
428.988281 112.0
429.206787 96.0
429.510773 164.0
429.553223 120.0
429.780121 116.0
430.00296 84.0
430.05661 120.0
430.088837 148.0
430.142059 176.0
430.196808 124.0
430.465332 120.0
430.667694 92.0
431.022949 76.0
431.136383 152.0
431.153992 68.0
431.169586 132.0
431.199341 244.0
431.399048 128.0
431.47348 40.0
431.611847 128.0
431.721558 64.0
431.80426 80.0
431.833221 144.0
431.895264 156.0
432.069 292.0
432.118652 132.0
432.167206 348.0
432.215942 104.0
432.282562 104.0
432.342072 48.0
432.400024 56.0
432.449677 120.0
432.667511 96.0
432.697205 96.0
432.785004 100.0
432.826416 188.0
432.876099 104.0
432.917511 104.0
432.97287 120.0
433.005127 152.0
433.085205 204.0
433.167145 836.0
433.269562 148.0
433.314514 216.0
433.392334 128.0
433.447479 136.0
433.54776 144.0
433.610809 124.0
433.641602 112.0
433.730865 136.0
433.783417 108.0
433.840881 284.0
433.914673 72.0
433.925323 332.0
433.999847 132.0
434.069122 324.0
434.077087 392.0
434.153107 97452.0
434.246704 196.0
434.253784 224.0
434.274353 156.0
434.329468 72.0
434.36084 60.0
434.368958 152.0
434.406982 108.0
434.482513 168.0
434.521027 168.0
434.572083 196.0
434.629272 112.0
434.681458 164.0
434.727753 156.0
434.762726 176.0
434.83078 364.0
434.88443 252.0
434.931763 276.0
434.99353 380.0
435.155548 31128.0
435.219391 208.0
435.284058 292.0
435.3078 280.0
435.439148 208.0
435.473206 244.0
435.559387 124.0
435.677551 36.0
435.721405 68.0
435.772064 96.0
435.815674 104.0
435.859589 156.0
435.888977 48.0
435.953705 164.0
436.042206 108.0
436.156311 4184.0
436.246246 192.0
436.285919 124.0
436.373047 232.0
436.517761 108.0
436.573151 96.0
436.588623 88.0
436.607544 64.0
436.616577 100.0
436.648346 52.0
436.680084 76.0
436.714905 52.0
436.809509 96.0
436.863586 64.0
436.964478 32.0
437.043549 76.0
437.0867 64.0
437.157379 520.0
437.259918 60.0
437.330261 228.0
437.401428 128.0
437.434723 28.0
437.470673 120.0
437.482513 76.0
437.500916 92.0
437.5401 124.0
437.606445 104.0
437.646606 76.0
437.71109 116.0
437.760834 112.0
437.857544 228.0
437.916901 120.0
437.927094 160.0
437.98111 68.0
438.012939 112.0
438.073395 108.0
438.13327 172.0
438.200989 40.0
438.300354 52.0
438.397797 172.0
438.534363 96.0
438.578217 100.0
438.715607 64.0
438.753418 116.0
438.791229 116.0
438.910339 148.0
439.026886 88.0
439.197296 64.0
439.33078 64.0
439.392639 68.0
439.420776 84.0
439.451782 188.0
439.501831 80.0
439.542175 48.0
439.595978 100.0
439.679688 64.0
439.860748 48.0
439.894135 36.0
439.940063 56.0
439.977631 96.0
440.030975 124.0
440.148804 100.0
440.545807 72.0
440.675079 152.0
440.746124 60.0
440.875671 88.0
441.168243 52.0
441.218414 104.0
441.450836 148.0
441.494354 96.0
441.636566 48.0
442.088379 112.0
442.146973 48.0
442.239044 36.0
442.331146 88.0
442.632568 60.0
442.67865 88.0
442.737274 108.0
442.976013 168.0
443.045868 188.0
443.139374 196.0
443.248322 208.0
443.327942 76.0
443.814178 84.0
444.137085 76.0
444.195801 132.0
444.246155 64.0
444.539856 100.0
444.741302 104.0
445.135925 104.0
445.215698 208.0
445.260193 100.0
445.320709 56.0
445.405212 68.0
445.510651 108.0
445.543335 56.0
445.866882 112.0
445.929535 88.0
446.001373 100.0
446.03299 84.0
446.159668 152.0
446.299835 100.0
446.50589 84.0
447.082245 152.0
447.130066 44.0
447.222687 1092.0
447.40213 88.0
447.43161 88.0
447.802155 128.0
448.118073 100.0
448.20459 996.0
448.290833 84.0
448.349823 36.0
448.434113 40.0
448.514191 136.0
448.809296 48.0
448.864105 136.0
449.041229 76.0
449.220703 464.0
449.410767 100.0
449.656464 116.0
449.74585 68.0
449.982239 92.0
450.059631 144.0
450.206024 188.0
450.239807 52.0
450.35907 84.0
450.945343 36.0
451.01297 68.0
451.194733 64.0
451.511871 124.0
451.600677 52.0
451.795258 56.0
452.023743 56.0
452.091431 152.0
452.18454 72.0
452.654449 164.0
453.264404 72.0
453.41272 104.0
453.497498 116.0
453.819672 40.0
454.10379 72.0
454.175873 104.0
454.286163 64.0
454.863281 156.0
455.160461 188.0
455.309082 128.0
455.461975 152.0
455.491699 84.0
455.661621 52.0
455.925079 36.0
456.61142 144.0
456.741394 192.0
456.822205 44.0
457.664856 108.0
458.03537 196.0
458.176178 156.0
458.585022 120.0
458.938843 160.0
459.523163 96.0
460.005402 124.0
460.090759 48.0
460.150543 104.0
460.317047 136.0
460.569031 112.0
461.009064 112.0
461.610596 84.0
461.778595 64.0
462.163605 120.0
462.595856 120.0
462.651489 116.0
462.844147 36.0
462.886963 112.0
463.071136 180.0
463.214417 264.0
464.597076 112.0
464.734375 152.0
464.991852 140.0
465.090546 88.0
465.283722 68.0
465.541351 136.0
465.670197 44.0
466.026733 144.0
466.091187 88.0
466.314636 48.0
466.367218 68.0
466.400604 132.0
466.495178 44.0
467.660828 96.0
468.095642 252.0
468.522034 76.0
468.68576 124.0
469.065002 116.0
469.259003 96.0
469.904602 116.0
470.160522 136.0
470.484253 72.0
470.74762 56.0
471.132019 100.0
471.507935 100.0
471.64624 196.0
471.72406 100.0
472.100189 140.0
472.355621 68.0
473.200684 1004.0
473.256195 184.0
473.311798 88.0
473.433075 76.0
473.541321 44.0
473.844543 80.0
473.957214 56.0
474.177094 284.0
474.510315 136.0
474.577026 96.0
474.919586 112.0
475.041046 140.0
475.174377 164.0
475.210846 176.0
475.370789 48.0
475.791809 108.0
476.219147 196.0
476.321594 100.0
476.430176 160.0
476.864716 140.0
476.929901 140.0
477.142914 112.0
477.234192 96.0
477.273346 104.0
477.308136 208.0
477.455963 76.0
477.734344 72.0
477.91272 136.0
478.31308 76.0
478.591705 172.0
478.648315 88.0
478.717987 44.0
478.770233 84.0
478.970581 152.0
479.371399 108.0
479.460938 140.0
479.558807 108.0
479.87265 136.0
480.387268 116.0
481.059296 180.0
482.186188 104.0
482.286713 40.0
482.710785 128.0
482.868195 68.0
482.968811 88.0
483.196259 116.0
483.323151 180.0
483.380035 180.0
483.611969 192.0
483.647003 120.0
483.690765 88.0
483.773926 268.0
483.813324 156.0
484.076019 140.0
484.303772 152.0
484.474609 36.0
484.575348 224.0
484.680511 124.0
484.798828 136.0
485.04425 160.0
485.158752 152.0
485.263458 48.0
485.324829 60.0
485.412537 216.0
485.561646 92.0
485.763397 40.0
485.921326 176.0
485.960815 152.0
486.004669 120.0
486.136322 44.0
486.210938 120.0
486.522552 104.0
486.582764 140.0
486.711365 116.0
486.901917 116.0
487.075867 120.0
487.299896 76.0
487.352631 140.0
487.506409 152.0
487.538452 96.0
487.774506 152.0
487.849243 112.0
488.266937 104.0
488.297729 152.0
488.332916 52.0
488.379791 244.0
488.428772 152.0
488.504456 116.0
488.557251 64.0
488.68045 108.0
488.810028 116.0
488.878448 92.0
489.105164 132.0
489.168915 120.0
489.23999 112.0
489.274567 168.0
489.31311 144.0
489.34726 132.0
489.394043 140.0
489.546112 120.0
489.60376 116.0
489.640045 216.0
489.669403 192.0
489.71933 92.0
489.777191 100.0
489.820984 96.0
489.877899 160.0
489.935455 60.0
490.025208 140.0
490.068298 184.0
490.145599 80.0
490.189789 180.0
490.235931 168.0
490.296478 168.0
490.362579 44.0
490.439972 64.0
490.505493 56.0
490.546967 220.0
490.633392 100.0
490.709015 128.0
490.740295 244.0
490.788208 208.0
490.838684 180.0
490.878357 144.0
490.92688 228.0
490.961487 140.0
491.041687 136.0
491.119476 260.0
491.130737 276.0
491.145355 612.0
491.210632 95272.0
491.374268 312.0
491.443176 112.0
491.484131 80.0
491.536591 164.0
491.56842 140.0
491.619446 88.0
491.671844 132.0
491.730133 316.0
491.795258 136.0
491.82373 80.0
491.841217 48.0
491.874908 160.0
491.952057 160.0
492.048767 180.0
492.085938 140.0
492.125763 324.0
492.212677 36984.0
492.295868 192.0
492.382996 136.0
492.409027 256.0
492.462006 52.0
492.481964 96.0
492.514465 88.0
492.544067 104.0
492.58075 176.0
492.612122 248.0
492.666077 92.0
492.719147 144.0
492.752197 116.0
492.816956 68.0
492.871643 104.0
492.904449 148.0
492.950378 112.0
493.095795 40.0
493.14032 192.0
493.220367 11016.0
493.339203 44.0
493.366302 52.0
493.411255 60.0
493.46167 272.0
493.490967 92.0
493.556335 48.0
493.723694 172.0
493.78183 152.0
493.829773 76.0
493.869812 76.0
493.950012 32.0
493.986877 52.0
494.029663 64.0
494.089386 68.0
494.120331 40.0
494.160156 96.0
494.224609 3492.0
494.312439 96.0
494.393738 112.0
494.450958 156.0
494.489929 96.0
494.557953 112.0
494.674988 68.0
494.716675 48.0
494.742615 184.0
494.788605 136.0
494.828461 68.0
494.884644 196.0
494.942322 100.0
495.03363 108.0
495.078766 144.0
495.134552 64.0
495.16748 92.0
495.231659 600.0
495.361206 132.0
495.43161 124.0
495.482513 64.0
495.518616 72.0
495.54892 136.0
495.603546 56.0
495.650299 64.0
495.703247 52.0
495.749359 136.0
495.838165 164.0
495.926178 124.0
495.935364 100.0
495.968353 112.0
496.106201 128.0
496.138153 136.0
496.236359 108.0
496.273987 168.0
496.319519 60.0
496.425903 136.0
496.494507 40.0
496.558899 140.0
496.676361 84.0
496.818298 148.0
496.92923 64.0
497.049011 80.0
497.093384 32.0
497.167297 140.0
497.220367 176.0
497.294464 52.0
497.581635 72.0
497.639343 64.0
497.815857 220.0
498.110077 40.0
498.234467 72.0
498.294067 116.0
498.523254 108.0
498.58548 52.0
498.714386 44.0
498.901062 108.0
499.078888 164.0
499.287903 164.0
499.630402 44.0
499.866211 148.0
499.915161 84.0
500.27121 88.0
500.342438 92.0
500.784576 68.0
500.957001 160.0
501.050537 56.0
501.135193 176.0
501.294739 100.0
501.50061 84.0
501.934357 148.0
502.759491 108.0
502.802917 60.0
503.313507 96.0
503.450226 120.0
503.753937 100.0
505.045746 96.0
505.103882 92.0
506.301666 116.0
506.473572 64.0
506.912628 48.0
507.252747 76.0
507.396667 60.0
508.078339 52.0
508.76947 92.0
509.070282 40.0
509.110687 60.0
509.240936 96.0
509.955322 80.0
510.850098 80.0
510.908569 88.0
511.480072 96.0
511.625793 80.0
511.894257 140.0
512.011353 108.0
512.146484 116.0
512.241028 64.0
512.304138 180.0
513.151367 52.0
513.39032 72.0
513.588806 72.0
513.778259 216.0
513.845947 84.0
514.410034 136.0
514.441589 72.0
514.567993 212.0
514.708008 212.0
516.303162 100.0
516.515747 168.0
516.732849 180.0
517.249573 88.0
518.092102 116.0
518.136292 100.0
518.421753 92.0
518.530518 96.0
518.566772 56.0
519.664185 100.0
520.485718 56.0
521.129761 120.0
521.394226 148.0
522.076172 56.0
522.162537 136.0
524.507385 76.0
524.908569 204.0
525.104675 104.0
525.26886 64.0
525.501526 144.0
526.295654 100.0
527.195557 140.0
527.273254 80.0
527.779907 76.0
527.826355 104.0
529.217346 92.0
530.240784 124.0
530.32135 72.0
530.445068 72.0
531.064087 84.0
532.597107 76.0
532.895691 132.0
533.571289 48.0
533.695435 152.0
534.127747 124.0
534.178345 116.0
534.284119 104.0
534.555603 48.0
534.951416 136.0
535.043457 144.0
535.2276 132.0
535.71582 116.0
535.761902 140.0
536.158142 92.0
536.217346 104.0
536.46698 108.0
537.213989 52.0
537.947693 44.0
538.104675 140.0
539.070007 156.0
539.171692 112.0
540.258301 64.0
540.95575 72.0
541.142212 124.0
541.202393 116.0
541.46637 164.0
541.554382 140.0
542.235413 164.0
542.861267 80.0
543.158081 128.0
543.357544 108.0
543.473572 108.0
543.812317 48.0
544.211548 104.0
544.72699 52.0
544.875671 104.0
545.168396 60.0
545.586731 120.0
546.019165 68.0
546.074951 128.0
547.000854 52.0
548.132568 96.0
549.321411 60.0
550.080566 136.0
551.034729 144.0
551.109497 212.0
552.5495 52.0
552.605652 132.0
553.167175 44.0
553.822754 60.0
553.878967 168.0
554.380249 68.0
555.383545 64.0
555.819824 80.0
555.98877 168.0
556.594299 84.0
556.636597 180.0
556.786865 60.0
557.580811 120.0
557.721802 136.0
558.361206 52.0
558.450562 104.0
558.968079 196.0
559.052734 80.0
559.099792 148.0
559.208069 156.0
559.45282 112.0
559.490479 120.0
559.688232 188.0
560.264465 272.0
560.512512 64.0
560.635071 80.0
560.70575 100.0
560.913147 76.0
561.120544 104.0
561.252563 304.0
561.2901 104.0
561.818481 52.0
561.993042 44.0
562.272217 104.0
563.177979 124.0
563.593689 56.0
563.792114 64.0
564.4823 96.0
564.572144 76.0
565.016785 116.0
565.433167 124.0
565.684021 52.0
566.124329 160.0
566.223816 52.0
567.588562 72.0
568.157715 136.0
568.954956 96.0
569.472534 32.0
569.548523 88.0
569.952332 48.0
570.142456 92.0
571.373962 84.0
573.149841 104.0
573.249512 96.0
573.383301 164.0
573.874329 112.0
574.289185 136.0
574.432251 168.0
574.63739 80.0
574.761475 104.0
574.897461 60.0
575.458313 128.0
575.534729 148.0
575.685669 168.0
575.807129 108.0
575.933472 88.0
576.060059 76.0
576.217712 148.0
576.258057 116.0
576.308472 100.0
576.389709 172.0
576.487 152.0
576.523499 60.0
576.609497 88.0
576.663513 40.0
576.73114 136.0
576.80072 176.0
576.848511 252.0
576.886719 84.0
577.025391 104.0
577.082458 120.0
577.140137 176.0
577.197327 104.0
577.247559 100.0
577.329163 280.0
577.364868 104.0
577.477356 156.0
577.599243 76.0
577.648926 72.0
577.74292 156.0
577.795349 92.0
577.86908 184.0
577.953247 172.0
577.99115 164.0
578.009766 152.0
578.040283 168.0
578.093262 196.0
578.13031 160.0
578.191345 280.0
578.278625 33452.0
578.428894 216.0
578.470093 80.0
578.521301 180.0
578.589783 140.0
578.64325 80.0
578.715271 132.0
578.838379 100.0
578.924255 264.0
579.013184 124.0
579.075073 124.0
579.162048 208.0
579.176636 108.0
579.193848 188.0
579.281006 14000.0
579.412476 72.0
579.451843 112.0
579.504517 148.0
579.536377 64.0
579.577271 44.0
579.629089 36.0
579.681824 36.0
579.771545 220.0
579.841064 88.0
579.882507 132.0
579.895203 108.0
579.916443 136.0
579.929016 48.0
579.985779 204.0
580.068481 92.0
580.161133 196.0
580.198364 68.0
580.283325 2588.0
580.454712 152.0
580.505981 120.0
580.559082 60.0
580.63269 56.0
580.683777 76.0
580.813232 48.0
581.014709 76.0
581.091064 84.0
581.149048 36.0
581.291748 800.0
581.388977 116.0
581.43219 80.0
581.465759 52.0
581.535706 92.0
581.664185 72.0
581.809692 80.0
581.982788 48.0
582.037048 88.0
582.140747 96.0
582.2099 48.0
582.304504 148.0
582.34436 64.0
582.406311 124.0
582.463501 124.0
582.511292 112.0
582.609985 108.0
582.726685 96.0
582.871948 112.0
583.02179 76.0
583.156311 56.0
583.190002 60.0
583.242859 68.0
583.305725 100.0
583.37262 104.0
583.447571 192.0
583.49176 72.0
583.530945 64.0
583.588989 132.0
583.723328 76.0
583.73645 72.0
583.749695 124.0
583.934143 108.0
584.20459 76.0
584.291138 64.0
584.661682 64.0
584.8349 124.0
584.969666 88.0
585.070801 40.0
585.35968 64.0
585.470398 88.0
585.542664 48.0
585.855774 68.0
586.000244 52.0
586.04364 88.0
586.390564 68.0
586.549622 88.0
586.756958 72.0
586.957703 100.0
587.243958 68.0
587.692566 36.0
587.779419 96.0
588.653137 36.0
588.730408 56.0
588.826965 28.0
589.369385 152.0
589.798096 44.0
590.504028 72.0
590.861938 56.0
590.905518 72.0
593.099182 96.0
593.433655 76.0
593.579102 56.0
593.695496 48.0
594.438904 80.0
595.053833 72.0
595.923523 148.0
596.129761 72.0
596.263672 160.0
597.201965 44.0
598.49646 92.0
598.6474 68.0
599.295227 92.0
599.680176 52.0
600.079895 68.0
600.528564 72.0
601.050537 88.0
601.494629 60.0
601.743591 124.0
602.549438 84.0
602.867004 80.0
603.33136 76.0
604.627563 76.0
605.998596 48.0
607.439941 36.0
607.984497 60.0
608.038513 80.0
608.779785 40.0
609.138306 108.0
610.789917 52.0
610.962097 96.0
611.021118 68.0
611.183472 96.0
611.71991 44.0
612.261536 132.0
613.769409 76.0
614.667114 152.0
616.039612 108.0
616.672119 80.0
617.388977 92.0
617.433472 68.0
618.373474 120.0
622.364014 164.0
622.444458 76.0
623.670532 44.0
623.750061 32.0
626.82074 80.0
629.859009 108.0
630.903381 92.0
631.208374 88.0
631.59845 44.0
632.148743 52.0
633.119934 116.0
634.156982 44.0
634.999268 100.0
636.16333 32.0
636.861328 84.0
637.142578 28.0
637.74054 116.0
638.379028 64.0
638.841736 72.0
639.259338 44.0
641.944275 88.0
644.680298 60.0
645.337402 88.0
645.580139 84.0
645.706543 96.0
646.688049 44.0
647.006958 100.0
648.187073 52.0
648.942261 76.0
648.998047 136.0
652.155579 124.0
652.943665 68.0
653.080994 76.0
653.279358 60.0
653.345459 60.0
654.628113 64.0
654.770691 72.0
656.16687 36.0
656.32489 100.0
656.42688 28.0
656.503357 32.0
657.299133 136.0
657.518555 132.0
657.902588 84.0
658.299622 76.0
658.871704 72.0
659.41333 68.0
663.072632 96.0
665.745422 92.0
666.284729 100.0
667.235474 52.0
669.514893 44.0
672.634155 76.0
672.995483 80.0
674.348938 96.0
674.405823 60.0
675.264038 92.0
675.507141 80.0
675.858948 72.0
675.895142 124.0
678.500366 92.0
679.745117 52.0
679.880066 72.0
681.552124 96.0
682.336914 112.0
684.485718 116.0
684.605469 76.0
685.121155 76.0
686.356323 48.0
687.164795 60.0
688.260803 92.0
689.148743 100.0
689.195801 80.0
689.263733 136.0
690.037231 32.0
691.920654 72.0
693.743713 116.0
695.102112 36.0
698.57489 144.0
698.890564 36.0
699.674744 112.0
701.471069 80.0
704.082825 44.0
705.49884 64.0
707.059204 48.0
707.482605 80.0
708.202759 36.0
708.425232 68.0
708.944458 116.0
710.375977 92.0
710.620056 92.0
711.028625 44.0
711.161316 64.0
713.764404 52.0
714.157898 52.0
714.434509 112.0
714.929321 64.0
715.653259 116.0
717.336731 56.0
717.912537 64.0
718.723328 60.0
719.17157 104.0
719.732117 64.0
720.559998 32.0
720.773682 92.0
721.971069 60.0
723.688721 116.0
724.352783 64.0
726.025024 68.0
726.159058 100.0
727.038879 40.0
727.307251 48.0
728.708862 84.0
731.058594 48.0
733.218079 80.0
737.427673 140.0
738.277771 116.0
742.489685 52.0
744.872375 76.0
745.698303 64.0
747.389465 84.0
748.216736 92.0
754.884216 56.0
755.62262 164.0
757.144287 48.0
758.68396 120.0
759.104492 176.0
762.29541 136.0
762.850525 92.0
764.401428 100.0
764.517029 168.0
765.931946 40.0
768.721619 64.0
768.81543 152.0
769.074829 92.0
769.1521 48.0
769.439148 52.0
770.648682 56.0
773.369385 72.0
774.188782 88.0
775.773376 76.0
776.743774 148.0
776.954529 44.0
777.359558 40.0
778.614197 44.0
778.680847 76.0
779.497437 112.0
785.482361 60.0
786.620667 140.0
789.229614 92.0
789.369446 76.0
789.514832 72.0
789.867188 112.0
791.232605 104.0
791.434143 68.0
794.662476 88.0
795.689575 92.0
795.801819 80.0
800.356079 100.0
802.249084 144.0
806.691711 144.0
807.573792 88.0
808.75061 40.0
809.798035 124.0
810.296509 80.0
810.642151 76.0
813.165771 52.0
813.460022 100.0
814.471619 36.0
814.903381 56.0
815.125 64.0
816.341431 88.0
817.445007 80.0
817.757996 208.0
819.141602 72.0
819.656677 48.0
820.31543 48.0
824.436218 120.0
825.385132 100.0
827.078491 64.0
827.828491 104.0
829.266418 104.0
830.476196 48.0
830.78595 88.0
831.853271 112.0
832.163269 96.0
833.875061 76.0
835.433289 96.0
835.991394 112.0
836.077759 100.0
836.515137 36.0
836.814514 128.0
839.551514 64.0
841.068848 92.0
842.575989 44.0
842.755127 44.0
843.009338 40.0
846.8797 28.0
848.131226 64.0
849.992798 72.0
850.248108 80.0
851.165283 80.0
854.653503 64.0
854.763306 68.0
855.129944 220.0
856.119629 84.0
860.737976 140.0
861.719238 36.0
864.018311 64.0
865.228271 80.0
866.692444 100.0
868.580139 108.0
870.058899 100.0
872.555725 88.0
872.726196 36.0
873.09668 176.0
873.649536 132.0
874.526306 104.0
875.12085 76.0
875.692017 88.0
883.945007 124.0
884.045654 76.0
884.513184 36.0
885.71521 68.0
887.421875 40.0
889.096863 116.0
889.427002 88.0
889.486328 108.0
889.789062 48.0
892.456726 88.0
894.896118 160.0
895.837036 104.0
897.279236 100.0
897.93512 148.0
898.114075 44.0
900.883728 56.0
901.367676 92.0
901.809875 68.0
902.736511 64.0
904.471497 32.0
906.363953 100.0
906.639587 236.0
911.386047 56.0
912.509949 120.0
913.267639 84.0
915.500427 116.0
916.078613 88.0
919.919861 168.0
921.604797 88.0
923.648132 188.0
926.868835 96.0
927.753723 52.0
927.868896 48.0
931.740784 96.0
932.439575 208.0
934.537476 84.0
935.206848 28.0
937.679565 52.0
940.027405 32.0
940.240967 76.0
941.651245 52.0
943.087036 112.0
943.190918 52.0
947.639832 44.0
950.914368 40.0
951.429993 72.0
953.057495 228.0
957.006165 160.0
957.301758 48.0
958.373535 104.0
959.581543 80.0
968.473816 72.0
968.851624 96.0
971.424255 80.0
973.99408 120.0
976.586548 184.0
977.543945 96.0
981.742554 36.0
982.81543 92.0
984.300964 156.0
985.131592 84.0
985.556458 80.0
985.937622 60.0
986.550171 156.0
986.675171 136.0
988.401367 104.0
990.761719 52.0
992.817566 164.0
994.580566 68.0
996.169189 184.0
996.395325 44.0
996.753418 96.0
996.809998 104.0
998.337524 208.0
999.211792 220.0
999.526428 92.0
1002.725403 220.0
1004.04303 60.0
1005.430908 60.0
1005.847473 48.0
1006.396729 60.0
1008.15271 104.0
1009.828064 76.0
1010.055725 48.0
1010.390991 40.0
1010.852905 112.0
1012.144165 48.0
1013.277893 160.0
1014.513672 60.0
1015.667725 184.0
1015.877014 108.0
1017.152466 100.0
1017.634949 56.0
1023.828247 36.0
1025.102295 92.0
1032.053467 68.0
1035.150391 56.0
1035.85498 132.0
1037.110718 56.0
1039.188354 160.0
1040.247314 192.0
1046.399414 156.0
1046.515381 72.0
1047.127075 96.0
1049.085815 156.0
1050.421143 168.0
1062.413818 76.0
1062.86145 148.0
1064.906372 48.0
1065.763794 72.0
1068.754761 168.0
1069.919678 44.0
1070.381958 100.0
1072.753418 156.0
1074.442505 124.0
1076.570312 68.0
1079.746338 164.0
1080.269531 164.0
1081.460449 160.0
1081.755005 96.0
1082.874634 184.0
1083.280762 128.0
1083.86377 60.0
1084.112793 132.0
1089.092285 180.0
1091.523804 148.0
1092.247192 200.0
1095.499023 140.0
1098.201538 72.0
1098.438965 72.0
1099.791626 176.0
1100.022583 148.0
1103.338745 96.0
1106.567261 76.0
1108.064087 88.0
1109.382812 132.0
1110.27124 204.0
1110.569702 36.0
1112.547119 156.0
1114.71228 160.0
1115.73584 160.0
1117.2854 64.0
1118.862549 84.0
1121.633667 180.0
1121.712646 120.0
1124.02124 48.0
1130.48291 40.0
1133.94519 32.0
1134.548462 60.0
1135.30603 152.0
1138.043823 128.0
1139.689331 96.0
1139.817017 152.0
1139.991699 44.0
1140.855591 148.0
1142.250732 132.0
1142.990723 88.0
1145.091064 56.0
1146.189087 144.0
1149.061279 112.0
1149.182739 164.0
1152.491089 160.0
1152.660034 204.0
1153.018188 152.0
1153.666992 104.0
1154.782715 208.0
1154.857056 32.0
1155.533569 160.0
1156.088379 148.0
1156.169556 92.0
1156.717773 148.0
1158.085571 116.0
1158.952637 84.0
1159.16272 152.0
1160.030151 152.0
1160.281006 152.0
1160.748779 124.0
1161.081055 124.0
1163.530518 184.0
1164.148438 172.0
1166.125366 144.0
1166.476196 160.0
1169.696167 192.0
1169.907227 148.0
1170.649414 156.0
1170.989868 112.0
1171.35083 148.0
1172.509155 76.0
1172.945312 92.0
1177.612305 236.0
1184.013672 112.0
1184.630127 84.0
1184.80127 136.0
1185.407715 20.0
1185.81543 80.0
1186.274658 80.0
1187.7146 108.0
1188.558472 132.0
1189.134888 152.0
1189.594727 160.0
1189.965454 76.0
1190.398071 168.0
1191.421387 120.0
1194.349731 48.0
1194.59729 156.0
1194.858765 144.0
1195.037598 180.0
1195.464233 44.0
1196.833984 152.0
1197.515747 212.0
1198.156372 132.0
1198.211426 168.0
1199.624146 208.0
1199.858521 140.0
1203.287354 56.0
1204.97937 52.0
1205.041504 144.0
1205.269531 124.0
1205.559814 100.0
1205.882202 128.0
1209.238892 56.0
1209.619629 104.0
1210.3396 144.0
1211.64856 124.0
1211.752441 88.0
1211.835693 164.0
1212.223633 100.0
1212.805786 168.0
1215.225952 156.0
1215.475708 64.0
1215.86438 124.0
1217.329102 64.0
1218.482056 148.0
1220.393311 136.0
1221.199951 132.0
1221.798218 116.0
1223.746826 168.0
1226.275513 220.0
1227.328125 128.0
1227.844116 156.0
1229.057861 48.0
1229.83252 196.0
1229.936646 172.0
1230.153564 96.0
1231.126709 216.0
1232.535034 148.0
1233.667236 64.0
1233.863037 184.0
1233.960938 76.0
1234.233521 92.0
1236.353027 152.0
1238.929688 176.0
1239.160889 40.0
1241.985962 120.0
1243.424194 120.0
1243.985718 76.0
1244.055908 48.0
1244.140137 180.0
1244.456055 176.0
1248.728516 172.0
1250.240967 160.0
1251.46582 56.0
1252.662964 168.0
1253.163208 164.0
1255.453979 204.0
1258.17041 84.0
1258.629395 148.0
1259.490967 140.0
1259.822998 96.0
1261.193726 132.0
1261.405762 112.0
1263.875 124.0
1264.043823 56.0
1264.156982 104.0
1264.539185 80.0
1264.758545 108.0
1265.303589 164.0
1266.875732 120.0
1269.824341 108.0
1272.96814 152.0
1274.147217 164.0
1275.980713 188.0
1276.499756 64.0
1277.061646 132.0
1281.296875 216.0
1282.016602 68.0
1282.494019 96.0
1283.378052 136.0
1284.804443 164.0
1285.068359 128.0
1286.467163 48.0
1287.152466 80.0
1289.109741 156.0
1291.511841 144.0
1293.672729 44.0
1295.699463 56.0
1298.423218 116.0
1299.068726 128.0
1300.266968 136.0
1300.525269 52.0
1301.092407 52.0
1301.192871 112.0
1301.544678 220.0
1302.700928 176.0
1303.44812 60.0
1304.612427 112.0
1307.424683 200.0
1307.885376 156.0
1308.058105 148.0
1308.475586 160.0
1309.030029 164.0
1309.354004 164.0
1309.483643 216.0
1309.894287 124.0
1310.564209 204.0
1313.794067 112.0
1316.739014 104.0
1317.663574 76.0
1318.060913 168.0
1318.515991 136.0
1318.783569 136.0
1319.087158 132.0
1319.983643 240.0
1321.365112 164.0
1321.7052 128.0
1322.124878 84.0
1322.732788 40.0
1324.398193 220.0
1325.376099 68.0
1325.818115 212.0
1326.042847 140.0
1327.231689 244.0
1328.740234 100.0
1330.431152 128.0
1331.353271 196.0
1332.17395 172.0
1332.500854 188.0
1334.623169 132.0
1335.852173 176.0
1336.419678 100.0
1336.477905 48.0
1337.889771 224.0
1338.061646 180.0
1338.552246 256.0
1339.637451 160.0
1339.848755 192.0
1340.380615 144.0
1340.810547 64.0
1341.539429 116.0
1343.603149 156.0
1343.719849 160.0
1344.50061 172.0
1344.741455 184.0
1345.602783 240.0
1345.705078 192.0
1346.270996 148.0
1346.67627 176.0
1349.580933 136.0
1352.269287 92.0
1352.459595 148.0
1353.081787 164.0
1355.484131 200.0
1355.989746 68.0
1357.192017 156.0
1358.101318 180.0
1360.133667 100.0
1360.214478 180.0
1360.471436 100.0
1364.688354 156.0
1365.489868 224.0
1366.747803 120.0
1368.293335 220.0
1371.224976 120.0
1372.043213 116.0
1372.367554 108.0
1373.053345 168.0
1376.012207 144.0
1376.868774 128.0
1378.050659 180.0
1380.600708 156.0
1380.948242 160.0
1381.029663 220.0
1382.612915 128.0
1382.864502 156.0
1384.730225 164.0
1385.070923 64.0
1385.722778 144.0
1386.256348 112.0
1387.338379 160.0
1387.998169 144.0
1388.991943 248.0
1389.948975 160.0
1390.446167 64.0
1390.720825 152.0
1391.50769 144.0
1391.737793 192.0
1391.938232 92.0
1393.832397 188.0
1394.025635 72.0
1397.713745 140.0
1398.189941 128.0
1398.242065 148.0
1399.641602 52.0
1400.907593 248.0
1401.615356 212.0
1401.935791 176.0
1403.404297 80.0
1403.702515 156.0
1405.552368 124.0
1406.183228 140.0
1406.403076 148.0
1407.926147 144.0
1408.560913 136.0
1410.286987 132.0
1411.333496 136.0
1411.634277 176.0
1411.767212 240.0
1412.335571 56.0
1412.776978 132.0
1413.240723 48.0
1413.330566 80.0
1414.123779 192.0
1414.602783 76.0
1415.403931 176.0
1416.429932 132.0
1416.826904 184.0
1417.381348 212.0
1417.591064 128.0
1418.348022 60.0
1418.572876 128.0
1418.790283 116.0
1419.015259 80.0
1419.88501 56.0
1419.952515 208.0
1420.642578 44.0
1420.822632 144.0
1421.835571 208.0
1422.000732 172.0
1423.734863 172.0
1424.40332 156.0
1424.508545 40.0
1424.621216 152.0
1424.703857 132.0
1425.094482 200.0
1425.973633 116.0
1427.168823 72.0
1427.289185 172.0
1429.274902 76.0
1429.327515 68.0
1429.794067 128.0
1430.341797 64.0
1431.171631 204.0
1431.96228 136.0
1432.090332 48.0
1432.482056 252.0
1432.572388 144.0
1434.83313 176.0
1435.059326 120.0
1435.330811 148.0
1435.76062 184.0
1437.057983 84.0
1437.759766 140.0
1437.827637 120.0
1438.348511 64.0
1438.657959 120.0
1438.842529 220.0
1440.666626 204.0
1440.97644 52.0
1441.444824 84.0
1442.117432 36.0
1442.638916 176.0
1443.478149 116.0
1444.143677 200.0
1444.423584 240.0
1444.673096 200.0
1445.134644 188.0
1446.5271 44.0
1446.693604 144.0
1447.783936 76.0
1448.033813 152.0
1448.200439 156.0
1449.313965 112.0
1449.404907 152.0
1450.375 160.0
1450.829834 188.0
1453.582886 216.0
1454.212769 92.0
1457.227417 168.0
1457.341431 232.0
1457.652954 160.0
1457.949951 240.0
1458.504028 32.0
1458.838501 116.0
1459.043823 140.0
1461.234009 104.0
1461.340576 128.0
1461.850342 184.0
1462.657104 228.0
1462.733154 48.0
1463.418335 252.0
1463.623901 92.0
1463.928467 164.0
1464.065552 148.0
1464.118896 212.0
1464.865234 124.0
1465.109009 200.0
1465.200439 88.0
1465.368042 248.0
1467.768921 120.0
1468.119629 148.0
1468.760376 156.0
1468.912842 176.0
1468.973877 172.0
1470.446533 220.0
1470.904419 164.0
1471.492188 172.0
1471.996094 204.0
1472.866821 132.0
1473.485474 112.0
1473.714722 36.0
1474.32605 160.0
1474.570557 124.0
1475.204956 228.0
1475.701904 160.0
1476.015381 104.0
1477.162476 148.0
1478.026978 152.0
1478.478516 156.0
1478.70813 164.0
1479.220947 104.0
1479.297485 156.0
1480.360596 152.0
1480.415283 168.0
1481.954834 44.0
1482.069824 120.0
1482.460571 196.0
1482.65979 148.0
1483.265259 228.0
1484.139282 148.0
1485.373901 108.0
1485.573364 72.0
1486.394287 252.0
1486.969849 196.0
1487.698975 40.0
1488.965942 116.0
1489.53418 232.0
1490.125732 148.0
1490.44458 120.0
1490.632812 156.0
1490.840332 84.0
1491.747314 132.0
1492.762085 236.0
1493.477295 112.0
1493.584961 220.0
1493.810181 200.0
1494.457886 84.0
1495.031372 152.0
1495.231445 108.0
1496.062744 76.0
1496.909668 124.0
1497.873901 172.0
1499.528809 196.0
1500.294678 168.0
1500.916382 176.0
1501.147705 188.0
1501.201782 116.0
1501.988403 128.0
1502.366333 72.0
1503.32312 108.0
