>compound NCGC00160344-01!4N-butyl-ajmalinium
>formula C24H35N2O2+
>ionization [M+H]+
>parentmass 384.27712981209055
#inchi InChI=1S/C24H35N2O2/c1-4-6-11-26-18-12-15(14(5-2)23(26)28)20-19(26)13-24(22(20)27)16-9-7-8-10-17(16)25(3)21(18)24/h7-10,14-15,18-23,27-28H,4-6,11-13H2,1-3H3/q+1/t14?,15-,18?,19-,20-,21?,22-,23+,24?,26?/m0/s1
#inchikey LCYPYTJALPJIBU
#Ion_Source LC-ESI
#Instrument qTOF
#Compound_Source Prestwick Phytochem Lib
#PI Dorrestein
#Data_Collector VVP/LMS
#Scan -1
#Precursor_MZ 383.27
#ExactMass 383.27
#Charge 1
#CAS_Number N/A
#Pubmed_ID N/A
#Smiles CCCC[N+]12[C@H]3CC45[C@@H](O)[C@H]3[C@@H](CC1C4N(C)C6=CC=CC=C56)C(CC)[C@H]2O
#INCHI_AUX N/A
#Library_Class 1
#SpectrumID CCMSLIB00000078770
#IonMode Positive
#UpdateWorkflowName UPDATE-SINGLE-ANNOTATED-GOLD
#LibraryQualityString Gold
#TaskID 67c915c6594c435cadc1fe2b5358144d
##Scan# 1815
#SpectrumFile p1-F03_GF3_01_17935.mzXML
#LibraryName phytochem_lib.mgf
#MQScore -1
#Organism phytochem_lib
#TIC_Query 0
#RT_Query -1
#MZErrorPPM -1
#SharedPeaks 0
#MassDiff 0
#LibMZ -1
#SpecMZ 383.27
#SpecCharge 0
#internalFilename spec-00000.mgf

>collision 10
94.95369 180.0
95.008781 152.0
95.079376 136.0
95.158218 196.0
95.177635 176.0
95.212585 188.0
95.235893 224.0
95.253372 92.0
95.272797 160.0
95.286575 224.0
95.311661 160.0
95.424393 140.0
95.480782 160.0
95.574936 188.0
95.589722 156.0
95.648758 156.0
95.725983 108.0
95.743507 128.0
95.776619 104.0
95.89547 92.0
95.9403 60.0
95.985146 172.0
96.031509 176.0
96.039696 136.0
96.042114 172.0
96.083611 500.0
96.193901 208.0
96.352081 156.0
96.379433 136.0
96.398979 92.0
96.486931 92.0
96.645355 148.0
96.756912 156.0
96.814926 216.0
96.854828 164.0
96.93515 56.0
96.991982 68.0
97.023346 168.0
97.048836 160.0
97.064941 180.0
97.094131 204.0
97.12532 68.0
97.193985 176.0
97.224976 176.0
97.311752 144.0
97.385452 164.0
97.402084 116.0
97.531769 36.0
97.70285 80.0
97.740234 52.0
97.818001 116.0
97.854385 196.0
97.917404 244.0
97.981575 216.0
98.058945 384.0
98.093803 204.0
98.118385 164.0
98.282089 48.0
98.303795 140.0
98.34919 88.0
98.388664 128.0
98.471603 192.0
98.576302 244.0
98.639549 212.0
98.67131 176.0
98.696884 144.0
98.72654 68.0
98.754234 232.0
98.793793 148.0
98.829407 116.0
98.844833 180.0
98.902626 180.0
99.063019 256.0
99.084808 180.0
99.106606 200.0
99.124435 152.0
99.269142 80.0
99.394798 196.0
99.542984 148.0
99.598595 144.0
99.668129 192.0
99.719795 88.0
99.80925 104.0
99.884827 172.0
99.914665 128.0
100.012169 196.0
100.067909 156.0
100.108139 180.0
100.197365 120.0
100.247177 112.0
100.320923 76.0
100.382729 228.0
100.462509 216.0
100.550301 64.0
100.572258 156.0
100.680069 188.0
100.745979 148.0
100.807922 156.0
100.979019 164.0
101.023674 88.0
101.06987 232.0
101.087875 216.0
101.105888 132.0
101.149925 208.0
101.272064 88.0
101.288086 188.0
101.388268 108.0
101.488495 48.0
101.526588 212.0
101.598801 140.0
101.677444 200.0
101.743294 176.0
101.77742 164.0
101.799515 148.0
101.815575 64.0
101.84771 144.0
101.903961 160.0
101.940132 88.0
101.976303 216.0
102.040627 196.0
102.071182 184.0
102.263916 176.0
102.310417 148.0
102.344017 152.0
102.42701 136.0
102.49752 112.0
102.57209 164.0
102.725342 176.0
102.760956 220.0
102.908989 84.0
102.995827 188.0
103.053246 340.0
103.090782 224.0
103.136353 116.0
103.284874 72.0
103.362747 156.0
103.387321 176.0
103.578377 128.0
103.62294 172.0
103.768867 44.0
103.801308 112.0
103.937218 144.0
103.957504 176.0
104.069145 68.0
104.172722 196.0
104.186943 56.0
104.215385 152.0
104.286514 196.0
104.384094 144.0
104.41053 148.0
104.559044 216.0
104.634361 68.0
104.701553 156.0
104.915497 152.0
104.972588 92.0
105.033775 140.0
105.0709 468.0
105.158234 124.0
105.18885 164.0
105.213348 312.0
105.241928 196.0
105.313408 32.0
105.388992 144.0
105.421684 132.0
105.60601 176.0
105.650688 88.0
105.669098 188.0
105.761185 96.0
105.798027 172.0
105.847168 52.0
105.900414 108.0
105.941383 72.0
105.972115 188.0
105.98645 88.0
106.039879 168.0
106.063782 336.0
106.168892 156.0
106.28582 132.0
106.336441 108.0
106.390488 208.0
106.511642 248.0
106.530136 204.0
106.636978 120.0
106.667809 152.0
106.741829 108.0
106.842606 196.0
106.861122 104.0
106.887871 136.0
106.910507 192.0
106.96402 116.0
107.047478 164.0
107.083389 396.0
107.227661 184.0
107.277275 116.0
107.334854 164.0
107.376099 148.0
107.446236 108.0
107.51226 172.0
107.631989 232.0
107.819969 64.0
107.834442 120.0
107.873711 212.0
107.912994 172.0
107.975029 176.0
108.012253 196.0
108.046158 296.0
108.081375 920.0
108.130188 60.0
108.186081 48.0
108.254402 180.0
108.438118 212.0
108.455368 112.0
108.494751 172.0
108.523773 108.0
108.540367 36.0
108.629547 144.0
108.706306 144.0
108.797638 144.0
108.853691 164.0
108.891075 188.0
108.930542 56.0
109.020096 156.0
109.037773 216.0
109.06488 608.0
109.083855 212.0
109.109253 168.0
109.12381 100.0
109.194511 216.0
109.227791 136.0
109.2798 152.0
109.340141 188.0
109.358871 56.0
109.580238 172.0
109.604614 44.0
109.62545 172.0
109.657753 144.0
109.696312 136.0
109.710907 200.0
109.739174 136.0
109.769279 164.0
110.01757 92.0
110.060204 1384.0
110.09771 1544.0
110.13868 164.0
110.176285 60.0
110.192993 128.0
110.399216 192.0
110.496147 124.0
110.565704 148.0
110.623802 56.0
110.644737 184.0
110.713837 208.0
110.896103 64.0
111.017654 176.0
111.062286 228.0
111.082481 392.0
111.130974 136.0
111.382889 84.0
111.433311 180.0
111.479538 208.0
111.502655 192.0
111.627434 224.0
111.684967 224.0
111.765511 152.0
111.831779 164.0
111.868637 204.0
111.957069 188.0
112.04554 212.0
112.072601 192.0
112.075592 196.0
112.083778 256.0
112.112228 600.0
112.180412 104.0
112.197273 156.0
112.239441 144.0
112.25631 184.0
112.316719 112.0
112.330467 176.0
112.425072 108.0
112.566505 164.0
112.678452 148.0
112.746071 152.0
112.786224 144.0
112.872902 40.0
112.961731 164.0
113.055054 184.0
113.081436 212.0
113.122559 100.0
113.150078 108.0
113.179718 104.0
113.264427 100.0
113.298325 124.0
113.321625 148.0
113.340698 124.0
113.357651 64.0
113.461288 196.0
113.469353 148.0
113.493309 172.0
113.508148 136.0
113.630188 156.0
113.662994 92.0
113.737274 92.0
113.822197 140.0
113.845551 156.0
113.95388 100.0
113.983627 64.0
114.002754 228.0
114.058014 176.0
114.085648 140.0
114.123917 192.0
114.255775 148.0
114.426041 312.0
114.478775 156.0
114.528252 208.0
114.664612 120.0
114.69445 56.0
114.826645 184.0
114.958908 152.0
114.982994 56.0
115.02507 136.0
115.049828 268.0
115.227943 44.0
115.304871 184.0
115.439552 156.0
115.504898 188.0
115.52243 412.0
115.593575 144.0
115.704872 132.0
115.848351 112.0
115.908768 120.0
115.95443 180.0
116.004784 72.0
116.024078 132.0
116.180634 128.0
116.262367 128.0
116.494057 108.0
116.530579 204.0
116.627281 244.0
116.741226 96.0
116.782089 280.0
116.846619 140.0
116.868134 172.0
116.926239 164.0
116.99942 140.0
117.014488 152.0
117.058319 524.0
117.12001 192.0
117.277298 156.0
117.31179 128.0
117.395874 128.0
117.45195 164.0
117.626732 220.0
117.70266 144.0
117.77356 168.0
117.803802 120.0
117.84053 176.0
118.024246 240.0
118.041542 104.0
118.064423 596.0
118.1194 76.0
118.15834 152.0
118.253555 148.0
118.35746 208.0
118.381279 172.0
118.437592 144.0
118.487419 104.0
118.543747 200.0
118.587097 32.0
118.628281 132.0
118.651726 152.0
118.738861 196.0
118.890724 220.0
118.973198 224.0
119.082008 540.0
119.113968 160.0
119.192566 136.0
119.28167 120.0
119.403427 136.0
119.507843 136.0
119.62101 220.0
119.718987 80.0
119.85186 152.0
119.895447 132.0
119.930313 176.0
119.945572 160.0
120.010979 44.0
120.041504 160.0
120.079262 508.0
120.113472 176.0
120.136719 140.0
120.271225 256.0
120.379738 144.0
120.443077 116.0
120.497688 112.0
120.530464 40.0
120.547943 216.0
120.703522 160.0
120.835556 156.0
120.860634 40.0
120.932846 132.0
121.062904 176.0
121.093361 128.0
121.109566 260.0
121.208786 76.0
121.31398 112.0
121.338097 140.0
121.38195 144.0
121.441162 72.0
121.485031 160.0
121.55085 176.0
121.625473 128.0
121.646294 156.0
121.69133 196.0
121.783562 188.0
121.860443 244.0
122.012093 196.0
122.065041 148.0
122.098297 372.0
122.146233 164.0
122.174828 160.0
122.414742 196.0
122.496231 132.0
122.707794 44.0
122.769127 196.0
122.778297 160.0
122.78302 172.0
122.831284 160.0
122.84893 152.0
123.016052 164.0
123.043137 260.0
123.082878 140.0
123.09951 164.0
123.162384 68.0
123.445274 152.0
123.52536 244.0
123.54892 144.0
123.608963 36.0
123.693062 136.0
123.788261 84.0
124.073868 160.0
124.111511 1060.0
124.151695 44.0
124.227104 192.0
124.255943 152.0
124.32917 196.0
124.424614 128.0
124.449036 232.0
124.480721 104.0
124.520096 136.0
124.653389 168.0
124.671165 116.0
124.820099 212.0
124.844559 220.0
124.909065 128.0
124.940208 68.0
124.994827 116.0
125.026985 160.0
125.042564 180.0
125.062592 164.0
125.098335 136.0
125.149414 172.0
125.220673 56.0
125.245171 132.0
125.358978 144.0
125.412285 128.0
125.435555 200.0
125.472466 164.0
125.60627 208.0
125.838356 188.0
125.858452 148.0
125.880783 160.0
125.931625 204.0
125.973846 48.0
126.001396 136.0
126.02597 156.0
126.048317 164.0
126.071381 84.0
126.092499 520.0
126.125832 200.0
126.145798 208.0
126.210495 224.0
126.258446 180.0
126.300941 180.0
126.341209 60.0
126.387634 128.0
126.437424 76.0
126.500092 108.0
126.573975 400.0
126.59861 108.0
126.653091 172.0
126.70388 232.0
126.721802 168.0
126.849548 104.0
126.887657 176.0
126.952682 240.0
127.008751 200.0
127.074066 208.0
127.105217 52.0
127.260094 148.0
127.300507 72.0
127.329704 88.0
127.437531 192.0
127.467499 172.0
127.60582 100.0
127.658241 104.0
127.781517 172.0
127.851273 212.0
128.022369 176.0
128.044205 200.0
128.058899 128.0
128.10672 652.0
128.14473 340.0
128.211594 208.0
128.236389 164.0
128.261185 40.0
128.306274 128.0
128.431442 80.0
128.448334 104.0
128.505249 124.0
128.558884 40.0
128.703354 180.0
128.866638 68.0
128.89389 176.0
128.924728 396.0
129.001572 148.0
129.03096 124.0
129.06488 136.0
129.115433 180.0
129.141769 80.0
129.164383 172.0
129.193802 220.0
129.223206 140.0
129.306931 216.0
129.372574 160.0
129.456345 192.0
129.478989 188.0
129.509903 204.0
129.608109 136.0
129.730499 84.0
129.884705 124.0
129.970901 220.0
130.066513 1480.0
130.09346 168.0
130.120697 108.0
130.170654 112.0
130.209259 96.0
130.257355 136.0
130.322845 264.0
130.503387 172.0
130.622925 112.0
130.661606 128.0
130.8414 132.0
130.911972 144.0
130.980301 184.0
130.996246 120.0
131.049744 204.0
131.072495 5796.0
131.130692 64.0
131.16716 212.0
131.199066 44.0
131.253784 140.0
131.309601 152.0
131.340454 64.0
131.370102 160.0
131.399765 40.0
131.472778 136.0
131.525269 64.0
131.605164 88.0
131.625671 176.0
131.659973 176.0
131.744492 44.0
131.767334 36.0
131.863297 92.0
131.886154 108.0
132.079819 2500.0
132.194901 88.0
132.247543 136.0
132.355148 108.0
132.458206 176.0
132.52005 36.0
132.592087 120.0
132.618591 100.0
132.733215 132.0
132.77449 188.0
132.80661 60.0
132.824951 48.0
132.841019 68.0
132.85936 160.0
133.0625 128.0
133.083481 508.0
133.102509 380.0
133.488693 76.0
133.57608 136.0
133.679031 156.0
133.935165 32.0
134.06337 208.0
134.096375 688.0
134.144867 116.0
134.186356 140.0
134.262451 172.0
134.430847 108.0
134.509323 204.0
134.673264 148.0
134.75412 120.0
134.807266 112.0
134.832687 108.0
134.908951 36.0
134.959824 108.0
135.052322 176.0
135.07724 160.0
135.100891 164.0
135.135605 128.0
135.17453 116.0
135.253616 136.0
135.348541 80.0
135.381851 228.0
135.427277 80.0
135.457397 196.0
135.557022 200.0
135.663635 140.0
135.689133 52.0
135.723907 184.0
135.767975 164.0
135.805084 120.0
135.842575 196.0
135.881622 164.0
135.972122 144.0
136.075027 984.0
136.11145 6120.0
136.157852 108.0
136.201981 52.0
136.237671 128.0
136.362305 160.0
136.407135 176.0
136.466904 132.0
136.559784 196.0
136.590164 156.0
136.666931 60.0
136.687881 144.0
136.711151 156.0
136.843826 144.0
136.869431 56.0
136.955597 152.0
137.059235 332.0
137.113739 1048.0
137.158325 164.0
137.174637 52.0
137.214264 100.0
137.235245 156.0
137.28421 112.0
137.300537 80.0
137.316864 60.0
137.433502 44.0
137.545517 144.0
137.659927 144.0
137.692612 180.0
137.711304 140.0
137.781372 140.0
137.85849 76.0
137.898209 156.0
137.941879 288.0
137.966873 260.0
138.061874 140.0
138.09166 1452.0
138.127243 1812.0
138.185837 144.0
138.223282 136.0
138.249023 220.0
138.295822 48.0
138.370728 44.0
138.403519 148.0
138.494843 40.0
138.533051 220.0
138.553406 128.0
138.586212 140.0
138.701035 172.0
138.724472 92.0
138.970093 192.0
139.073578 216.0
139.097656 272.0
139.130768 252.0
139.310699 128.0
139.427643 200.0
139.476471 124.0
139.56723 112.0
139.677856 152.0
139.755493 156.0
139.866089 88.0
139.887283 120.0
139.934357 52.0
139.981461 316.0
140.049759 208.0
140.066238 300.0
140.1073 1400.0
140.144684 476.0
140.332535 28.0
140.351395 176.0
140.374985 240.0
140.456848 168.0
140.468796 108.0
140.477737 252.0
140.589645 172.0
140.624313 116.0
140.695862 148.0
140.724197 176.0
140.796616 84.0
140.847 136.0
141.028931 180.0
141.066345 188.0
141.109741 496.0
141.168411 160.0
141.265396 184.0
141.35466 132.0
141.431412 124.0
141.495834 96.0
141.537567 152.0
141.565979 172.0
141.869247 108.0
142.064911 256.0
142.115662 160.0
142.244049 224.0
142.272537 200.0
142.291534 140.0
142.336639 144.0
142.588455 180.0
142.685913 92.0
142.73822 76.0
142.911865 56.0
142.978485 72.0
143.074142 2048.0
143.137421 92.0
143.157028 176.0
143.31662 188.0
143.340454 128.0
143.416718 152.0
143.440552 320.0
143.469162 104.0
143.535919 72.0
143.659943 80.0
143.693329 196.0
143.72435 52.0
143.772079 204.0
143.82869 172.0
143.92485 368.0
143.950272 272.0
143.967834 96.0
144.001266 180.0
144.037094 164.0
144.080414 20868.0
144.144608 184.0
144.163727 76.0
144.194794 160.0
144.211517 28.0
144.267838 64.0
144.329483 172.0
144.354965 92.0
144.39801 80.0
144.447998 80.0
144.468552 92.0
144.503265 68.0
144.572647 56.0
144.613342 36.0
144.705902 120.0
144.738022 196.0
144.778534 164.0
144.829941 180.0
144.862366 52.0
144.888718 40.0
144.91507 108.0
145.009155 180.0
145.086258 4772.0
145.145172 128.0
145.224304 72.0
145.267487 68.0
145.363098 136.0
145.389847 84.0
145.490662 120.0
145.507462 68.0
145.615585 136.0
145.67366 96.0
145.754852 120.0
145.783691 116.0
145.823044 164.0
145.870209 88.0
145.89769 168.0
145.948349 80.0
145.997635 144.0
146.062729 456.0
146.095734 1984.0
146.135925 180.0
146.178055 108.0
146.21405 180.0
146.327286 244.0
146.38443 88.0
146.418793 76.0
146.441391 208.0
146.476608 68.0
146.691055 128.0
146.833313 192.0
146.898438 204.0
147.066208 196.0
147.094009 292.0
147.143204 168.0
147.190475 80.0
147.230011 32.0
147.25293 140.0
147.291901 124.0
147.312973 168.0
147.340225 80.0
147.44133 76.0
147.454956 124.0
147.540802 180.0
147.591583 212.0
147.659286 144.0
147.683472 208.0
147.756042 172.0
147.787491 236.0
147.955643 144.0
148.074966 456.0
148.109436 316.0
148.204559 64.0
148.300888 96.0
148.35907 148.0
148.414825 56.0
148.476852 132.0
148.509399 144.0
148.628281 236.0
148.754745 180.0
148.803024 40.0
148.824875 148.0
148.851593 100.0
148.871201 160.0
148.939026 100.0
148.96817 100.0
149.0755 160.0
149.096939 156.0
149.120743 192.0
149.262253 196.0
149.439804 128.0
149.780624 148.0
149.875641 200.0
149.921936 104.0
149.968246 112.0
150.089966 176.0
150.127533 864.0
150.158417 144.0
150.27063 160.0
150.407288 156.0
150.548889 216.0
150.663681 216.0
150.707092 172.0
150.732101 96.0
150.756699 172.0
150.854294 156.0
150.886078 100.0
151.026245 152.0
151.049927 148.0
151.074387 148.0
151.132721 156.0
151.249069 188.0
151.275055 176.0
151.333801 116.0
151.448898 108.0
151.559143 144.0
151.581192 172.0
151.706192 148.0
151.7901 264.0
151.89502 208.0
151.975967 152.0
152.03241 144.0
152.059402 104.0
152.107224 932.0
152.1409 984.0
152.164963 48.0
152.232056 172.0
152.329498 132.0
152.363007 100.0
152.380325 156.0
152.398285 164.0
152.494125 184.0
152.526077 160.0
152.60228 120.0
152.70311 80.0
152.771973 136.0
152.828064 196.0
153.032852 52.0
153.08902 180.0
153.110931 324.0
153.147232 232.0
153.281631 128.0
153.461563 96.0
153.518265 156.0
153.626801 68.0
153.686096 116.0
153.706345 212.0
153.826675 188.0
153.860352 148.0
153.890869 36.0
153.913086 160.0
154.036575 128.0
154.059784 508.0
154.090927 168.0
154.121353 1380.0
154.157303 416.0
154.234253 104.0
154.436996 216.0
154.490479 136.0
154.575546 124.0
154.662155 164.0
154.830521 164.0
154.894913 56.0
154.949417 136.0
154.976669 88.0
155.00145 68.0
155.043579 128.0
155.07579 120.0
155.127838 312.0
155.161072 164.0
155.236938 108.0
155.358475 168.0
155.403122 176.0
155.48671 88.0
155.542099 124.0
155.601685 192.0
155.658218 140.0
155.710938 136.0
155.795395 68.0
155.857498 112.0
155.971817 132.0
156.027725 156.0
156.080261 344.0
156.13591 132.0
156.190628 48.0
156.267746 192.0
156.315338 128.0
156.384705 112.0
156.446472 128.0
156.496735 80.0
156.519135 240.0
156.556488 184.0
156.865448 92.0
157.005066 68.0
157.062439 184.0
157.088181 3344.0
157.139771 132.0
157.189667 180.0
157.21962 52.0
157.275116 216.0
157.387527 104.0
157.435318 108.0
157.451782 208.0
157.494247 68.0
157.559189 80.0
157.594177 184.0
157.611664 124.0
157.659134 316.0
157.706619 248.0
157.731628 200.0
157.806625 92.0
157.855698 204.0
157.93013 388.0
157.984192 88.0
158.024216 160.0
158.061951 936.0
158.096161 32532.0
158.144638 164.0
158.17421 128.0
158.195312 68.0
158.234451 88.0
158.254272 48.0
158.292328 68.0
158.353699 96.0
158.377182 80.0
158.394714 160.0
158.45311 104.0
158.567596 168.0
158.600983 104.0
158.632767 188.0
158.655334 68.0
158.701065 224.0
158.765656 156.0
158.790741 128.0
158.818329 36.0
158.883545 216.0
158.931137 140.0
159.068237 348.0
159.099319 3552.0
159.139542 156.0
159.209854 144.0
159.280182 76.0
159.340469 108.0
159.368103 104.0
159.395737 96.0
159.41333 116.0
159.56163 60.0
159.586777 56.0
159.630142 176.0
159.669891 140.0
159.712509 120.0
159.777908 160.0
159.813141 80.0
159.858429 120.0
159.91127 192.0
159.936447 40.0
159.97168 72.0
160.024551 28.0
160.074066 1768.0
160.106247 292.0
160.132843 68.0
160.155502 124.0
160.189316 160.0
160.243546 168.0
160.250153 140.0
160.349503 72.0
160.366379 100.0
160.392349 104.0
160.470505 92.0
160.710114 108.0
160.737869 192.0
160.831238 136.0
160.858368 128.0
160.889297 92.0
160.952423 176.0
160.970093 204.0
161.080826 468.0
161.10199 304.0
161.126862 188.0
161.184814 148.0
161.232819 212.0
161.321289 68.0
161.369324 160.0
161.413391 112.0
161.478058 56.0
161.624771 156.0
161.844986 140.0
161.885498 148.0
161.979218 80.0
162.090775 544.0
162.126587 452.0
162.199661 164.0
162.270645 140.0
162.35939 32.0
162.62262 128.0
162.684174 148.0
162.877151 192.0
162.940659 168.0
163.100922 124.0
163.130463 368.0
163.212616 100.0
163.273651 68.0
163.327057 176.0
163.352493 148.0
163.520432 136.0
163.637527 132.0
163.690994 144.0
163.790314 108.0
163.829544 160.0
163.851456 144.0
163.976318 140.0
164.001801 108.0
164.104858 984.0
164.14325 1792.0
164.210876 152.0
164.259338 152.0
164.284851 184.0
164.320557 164.0
164.432846 236.0
164.58345 132.0
164.634521 148.0
164.677933 172.0
164.704483 204.0
164.882324 28.0
165.066391 76.0
165.08963 284.0
165.115295 472.0
165.146744 776.0
165.20961 184.0
165.260788 176.0
165.286377 148.0
165.306839 156.0
165.401535 220.0
165.668793 196.0
165.72934 188.0
165.783142 56.0
166.003601 196.0
166.044632 112.0
166.067017 296.0
166.120163 788.0
166.15686 1344.0
166.19342 156.0
166.229706 116.0
166.260681 152.0
166.277802 272.0
166.316605 180.0
166.486053 108.0
166.575943 192.0
166.611908 76.0
166.660721 184.0
166.68129 60.0
166.784637 164.0
166.830017 188.0
166.971771 188.0
167.024109 196.0
167.07283 2176.0
167.12323 472.0
167.161346 284.0
167.301117 136.0
167.350037 184.0
167.398956 196.0
167.458191 56.0
167.512283 132.0
167.540619 196.0
167.576691 128.0
167.674606 152.0
167.744202 148.0
167.826706 168.0
167.924698 128.0
167.9608 120.0
167.996918 144.0
168.048508 152.0
168.077194 1212.0
168.134964 376.0
168.167221 192.0
168.193024 48.0
168.415085 160.0
168.482254 168.0
168.518417 192.0
168.567505 148.0
168.608856 60.0
168.646378 116.0
168.682526 200.0
168.735519 172.0
168.831192 200.0
168.90361 76.0
168.939819 80.0
168.978622 96.0
169.02002 296.0
169.087051 1696.0
169.145447 260.0
169.174271 220.0
169.24205 168.0
169.268524 136.0
169.348801 64.0
169.462784 92.0
169.625031 164.0
169.680481 56.0
169.70813 188.0
169.768646 80.0
169.820511 72.0
169.941284 160.0
170.03302 200.0
170.058334 132.0
170.095551 3752.0
170.222763 56.0
170.38121 92.0
170.412384 56.0
170.453949 124.0
170.474747 176.0
170.581299 184.0
170.9142 188.0
170.959702 148.0
170.970428 72.0
170.978821 120.0
170.990463 172.0
171.072067 140.0
171.102448 1744.0
171.14064 80.0
171.375061 96.0
171.507965 160.0
171.575745 124.0
171.622665 156.0
171.86525 136.0
171.912216 148.0
171.977463 120.0
172.075226 2600.0
172.110703 1536.0
172.179565 136.0
172.221283 208.0
172.280365 200.0
172.31955 164.0
172.407196 88.0
172.608688 204.0
172.722519 136.0
172.769211 120.0
173.025681 184.0
173.081726 2076.0
173.313782 104.0
173.381912 76.0
173.594269 92.0
173.617859 232.0
173.746384 116.0
173.901199 192.0
173.95108 128.0
174.003586 52.0
174.024582 140.0
174.058716 128.0
174.090805 2452.0
174.126038 632.0
174.156433 252.0
174.197922 48.0
174.308258 80.0
174.32666 64.0
174.345047 72.0
174.41864 172.0
174.615845 184.0
174.689484 156.0
174.71843 232.0
175.057953 72.0
175.100296 208.0
175.12941 216.0
175.213364 236.0
175.278564 80.0
175.380478 144.0
175.405731 248.0
175.513824 60.0
175.592438 224.0
175.727463 248.0
175.774963 112.0
175.814545 80.0
175.859406 124.0
176.036285 200.0
176.070618 196.0
176.105972 388.0
176.139297 96.0
176.638885 60.0
176.742065 168.0
176.794983 56.0
176.824097 156.0
176.930222 176.0
177.004105 88.0
177.038528 76.0
177.072968 180.0
177.152191 176.0
177.262741 140.0
177.435989 84.0
177.560089 204.0
177.674667 64.0
177.725082 124.0
177.743652 184.0
177.796722 148.0
177.849808 256.0
177.924133 184.0
177.942719 112.0
178.118927 224.0
178.157425 544.0
178.204269 160.0
178.263138 208.0
178.349167 188.0
178.399261 132.0
178.452835 76.0
178.617722 120.0
178.668259 156.0
178.787994 160.0
178.814606 144.0
178.838562 84.0
178.897125 116.0
178.958359 216.0
179.000961 116.0
179.080551 208.0
179.163437 216.0
179.387726 216.0
179.509918 164.0
179.552597 156.0
179.651276 104.0
179.840729 140.0
179.915604 172.0
179.95018 136.0
180.006256 92.0
180.0858 1012.0
180.137772 920.0
180.174988 528.0
180.231003 144.0
180.340195 112.0
180.399002 120.0
180.440826 136.0
180.495255 152.0
180.594208 128.0
180.72261 216.0
180.792175 216.0
180.856415 156.0
180.888535 216.0
181.02507 172.0
181.087585 2288.0
181.143417 436.0
181.17775 132.0
181.217926 176.0
181.338516 176.0
181.410889 160.0
181.495132 204.0
181.523499 188.0
181.638824 172.0
181.69516 76.0
181.818588 108.0
182.011871 224.0
182.095871 8204.0
182.145187 212.0
182.191818 52.0
182.239929 80.0
182.280472 188.0
182.329987 180.0
182.36647 80.0
182.464905 52.0
182.497284 172.0
182.549286 72.0
182.608459 72.0
182.726807 92.0
182.82637 56.0
182.880203 200.0
182.980209 112.0
183.098419 2628.0
183.181778 56.0
183.281448 132.0
183.348816 128.0
183.373077 160.0
183.488983 176.0
183.580353 104.0
183.761383 112.0
183.845032 148.0
183.908691 164.0
184.042084 124.0
184.076813 452.0
184.111023 5464.0
184.172745 128.0
184.193314 60.0
184.322998 60.0
184.366241 204.0
184.406769 132.0
184.42569 52.0
184.460831 64.0
184.479752 48.0
184.524521 144.0
184.577087 44.0
184.703918 192.0
184.766418 124.0
184.802017 124.0
184.861115 44.0
184.93689 128.0
185.028931 172.0
185.108627 2204.0
185.215775 68.0
185.329559 76.0
185.530121 92.0
185.728073 68.0
185.768051 92.0
185.836578 120.0
185.958694 160.0
185.987488 148.0
186.034698 124.0
186.063812 336.0
186.091782 1544.0
186.126709 444.0
186.225723 92.0
186.262802 44.0
186.485611 72.0
186.515503 92.0
186.548126 80.0
186.567154 104.0
186.599777 140.0
186.659592 108.0
186.849991 72.0
187.08931 136.0
187.127487 228.0
187.16571 140.0
187.184769 116.0
187.288254 180.0
187.41629 140.0
187.451721 64.0
187.579819 140.0
187.680679 108.0
187.699875 100.0
187.767944 116.0
187.808853 148.0
187.904343 108.0
187.959686 180.0
188.059875 148.0
188.104782 140.0
188.144119 284.0
188.166336 84.0
188.270096 160.0
188.372681 120.0
188.43399 124.0
188.573349 56.0
188.630753 184.0
188.764725 52.0
188.800262 128.0
188.827621 96.0
189.103943 308.0
189.166107 220.0
189.227127 172.0
189.443481 72.0
189.555817 228.0
189.581955 192.0
189.60788 64.0
189.67366 112.0
189.723007 204.0
189.84639 112.0
189.975296 204.0
190.15625 328.0
190.200317 220.0
190.30188 240.0
190.378769 48.0
190.413345 88.0
190.565552 76.0
190.62326 144.0
190.653488 116.0
190.713943 132.0
190.768921 132.0
190.8349 112.0
191.016403 80.0
191.096191 168.0
191.138306 200.0
191.153152 148.0
191.195251 68.0
191.231033 200.0
191.374176 60.0
191.54216 184.0
191.590408 148.0
191.663391 148.0
191.707474 228.0
191.74054 84.0
191.939026 184.0
192.079681 160.0
192.101746 180.0
192.137848 956.0
192.170715 580.0
192.323547 156.0
192.404205 80.0
192.414627 128.0
192.449478 64.0
192.515747 84.0
192.568222 140.0
192.640045 96.0
192.838989 200.0
192.861099 36.0
192.927444 156.0
192.970596 200.0
193.090729 552.0
193.14566 680.0
193.176758 100.0
193.228348 164.0
193.30397 144.0
193.393585 232.0
193.453049 132.0
193.563797 80.0
193.627487 136.0
193.799225 192.0
193.839783 140.0
193.976593 104.0
194.096375 7540.0
194.152618 2440.0
194.190094 212.0
194.226151 88.0
194.247955 196.0
194.278854 168.0
194.298279 32.0
194.334167 64.0
194.349655 124.0
194.395386 200.0
194.431946 140.0
194.4953 64.0
194.533737 128.0
194.600449 160.0
194.634109 40.0
194.892426 164.0
194.914658 88.0
194.97023 236.0
194.995255 172.0
195.025818 108.0
195.058899 164.0
195.102234 3644.0
195.154419 432.0
195.202667 184.0
195.234344 48.0
195.303864 60.0
195.326126 132.0
195.345596 120.0
195.367844 56.0
195.406799 56.0
195.53479 56.0
195.609955 36.0
195.736771 116.0
195.790924 136.0
195.89119 156.0
195.927414 60.0
196.00264 156.0
196.066452 124.0
196.110535 3948.0
196.145828 136.0
196.168991 292.0
196.465454 48.0
196.504517 28.0
196.630081 72.0
196.808594 156.0
196.847824 68.0
196.881348 108.0
196.948364 64.0
196.995865 216.0
197.086151 576.0
197.114548 1152.0
197.214508 112.0
197.344101 256.0
197.524185 148.0
197.658463 124.0
197.750824 132.0
197.901978 144.0
197.991592 176.0
198.0336 56.0
198.092422 820.0
198.120346 692.0
198.215698 124.0
198.324997 148.0
198.396866 156.0
198.49881 96.0
198.63623 72.0
198.79335 84.0
199.009491 152.0
199.062836 44.0
199.099594 604.0
199.122284 416.0
199.265076 140.0
199.313187 136.0
199.358124 132.0
199.444916 52.0
199.487076 148.0
199.574234 176.0
199.683914 48.0
199.717651 176.0
199.849884 120.0
199.889267 76.0
199.925858 168.0
200.104233 704.0
200.135849 504.0
200.21019 184.0
200.308762 108.0
200.427094 56.0
200.556717 128.0
200.621552 132.0
200.641296 116.0
200.680756 44.0
200.723953 88.0
200.847153 84.0
200.951523 28.0
201.109894 360.0
201.13063 468.0
201.214005 36.0
201.259171 220.0
201.318466 140.0
201.363663 124.0
201.448395 64.0
201.615097 172.0
201.649002 176.0
201.767731 200.0
201.903458 116.0
201.962845 160.0
202.12265 304.0
202.154205 140.0
202.192017 136.0
202.545929 180.0
202.724426 176.0
202.75354 204.0
202.823624 128.0
203.078796 96.0
203.141205 368.0
203.168594 300.0
203.297256 148.0
203.342667 124.0
203.436325 28.0
203.48175 68.0
203.524338 140.0
203.578293 136.0
203.859528 100.0
203.933411 44.0
203.964691 160.0
204.080826 244.0
204.121048 212.0
204.142502 176.0
204.175079 124.0
204.416885 156.0
204.478607 168.0
204.585953 124.0
204.66275 96.0
204.772736 128.0
204.861038 100.0
204.952209 56.0
205.09021 660.0
205.120346 156.0
205.163116 132.0
205.21463 112.0
205.445435 68.0
205.736526 172.0
205.882141 180.0
205.94783 216.0
205.967819 144.0
205.990677 196.0
206.095032 724.0
206.15329 200.0
206.184967 248.0
206.204971 96.0
206.459412 164.0
206.573822 64.0
206.619598 100.0
206.667526 228.0
206.754074 192.0
206.88002 124.0
207.104416 868.0
207.172119 220.0
207.243744 88.0
207.470154 164.0
207.498825 136.0
207.622116 68.0
207.94516 100.0
207.986496 68.0
208.015198 128.0
208.078415 180.0
208.111862 4116.0
208.168564 1104.0
208.199432 180.0
208.242035 44.0
208.262131 136.0
208.501526 100.0
208.60408 132.0
208.690323 176.0
208.819717 120.0
208.862869 104.0
208.91893 204.0
209.078659 176.0
209.116287 2192.0
209.171616 340.0
209.265762 196.0
209.347717 60.0
209.401093 192.0
209.614273 56.0
209.660385 188.0
209.720917 68.0
209.743973 180.0
209.80162 124.0
209.85759 156.0
209.954437 108.0
209.977234 128.0
210.020767 80.0
210.091034 1532.0
210.126968 8544.0
210.185562 284.0
210.248703 44.0
210.300415 144.0
210.496964 132.0
210.539871 256.0
210.641373 48.0
210.756927 72.0
210.826279 132.0
210.915878 196.0
210.956345 140.0
211.01329 204.0
211.095795 772.0
211.130875 2816.0
211.18541 216.0
211.28891 172.0
211.364136 108.0
211.41333 48.0
211.453842 60.0
211.517517 244.0
211.613052 88.0
211.692566 140.0
211.737564 76.0
211.844742 52.0
211.86792 180.0
211.905579 48.0
211.951935 112.0
212.105438 4028.0
212.141937 2920.0
212.185822 132.0
212.285294 44.0
212.349091 40.0
212.392593 60.0
212.522873 176.0
212.601486 136.0
212.630508 180.0
212.714691 44.0
212.764038 72.0
212.810486 140.0
212.885986 156.0
212.923737 60.0
212.958588 68.0
213.025391 108.0
213.063156 128.0
213.108765 508.0
213.138855 512.0
213.27034 132.0
213.539871 140.0
213.691559 56.0
213.836639 88.0
213.871567 116.0
214.014206 136.0
214.057877 92.0
214.11972 496.0
214.273422 48.0
214.305466 128.0
214.343353 164.0
214.363739 92.0
214.404541 48.0
214.517395 100.0
214.608597 64.0
215.118835 152.0
215.154327 308.0
215.381943 64.0
215.539703 64.0
215.647827 164.0
215.671219 124.0
216.036728 152.0
216.160873 276.0
216.229843 212.0
216.42041 160.0
216.715942 124.0
216.921097 40.0
217.088272 192.0
217.393295 88.0
218.095718 172.0
218.19516 36.0
218.312775 160.0
218.439621 156.0
218.503967 124.0
218.616409 168.0
218.683456 216.0
218.739395 136.0
218.865982 172.0
219.036789 116.0
219.105545 452.0
219.228302 188.0
219.296082 92.0
219.558472 72.0
219.720703 120.0
219.791519 176.0
219.825089 228.0
219.936569 188.0
220.111252 3264.0
220.165619 668.0
220.296371 76.0
220.343643 148.0
220.463196 88.0
220.485474 144.0
220.541626 52.0
220.565277 152.0
220.588928 164.0
220.748581 64.0
220.801804 80.0
220.840256 144.0
220.869827 176.0
220.934906 108.0
221.116501 1772.0
221.170349 104.0
221.216232 124.0
221.248611 100.0
221.43515 144.0
221.461807 100.0
221.50032 88.0
221.521057 68.0
221.583267 156.0
221.663269 108.0
221.852951 52.0
221.882599 164.0
221.980438 124.0
222.008957 188.0
222.039749 208.0
222.060516 128.0
222.124695 1784.0
222.179703 244.0
222.440308 156.0
222.46109 60.0
222.484833 128.0
222.83429 144.0
222.858917 96.0
222.897675 204.0
222.945221 200.0
222.974945 104.0
223.100876 664.0
223.13092 828.0
223.180054 100.0
223.328751 108.0
223.35849 140.0
223.566757 140.0
223.784042 160.0
223.879333 156.0
224.070786 144.0
224.103958 416.0
224.143173 616.0
224.199112 116.0
224.248749 40.0
224.341156 36.0
224.534973 136.0
224.642349 212.0
224.708725 128.0
224.77449 232.0
224.943741 84.0
225.063156 284.0
225.127258 264.0
225.147491 740.0
225.209488 144.0
225.251297 112.0
225.358856 44.0
225.394699 120.0
225.499298 68.0
225.559082 124.0
225.702576 120.0
225.759399 92.0
225.992706 64.0
226.019638 52.0
226.121628 1412.0
226.155014 816.0
226.265854 56.0
226.374832 132.0
226.559555 204.0
226.636459 196.0
226.717361 168.0
226.951172 52.0
227.017136 176.0
227.041687 196.0
227.121613 180.0
227.151428 792.0
227.251099 148.0
227.353134 84.0
227.386139 52.0
227.734421 56.0
227.794495 68.0
227.932693 116.0
227.991547 136.0
228.137543 744.0
228.161194 680.0
228.398682 132.0
228.552109 88.0
228.660431 88.0
228.880188 164.0
229.096283 176.0
229.159744 340.0
229.262482 216.0
229.555161 128.0
229.5793 32.0
229.663742 180.0
229.820923 116.0
229.905106 148.0
230.052994 152.0
230.102509 200.0
230.170746 144.0
230.279465 132.0
230.348923 76.0
230.403305 96.0
230.478836 68.0
230.515106 156.0
230.747833 216.0
230.869064 220.0
230.923218 168.0
230.98674 148.0
231.010941 68.0
231.097229 300.0
231.147095 212.0
231.183395 124.0
231.231827 196.0
231.870956 112.0
231.925415 144.0
232.108643 304.0
232.168716 240.0
232.252472 152.0
232.277145 176.0
232.375946 140.0
232.6595 60.0
232.735397 96.0
232.765762 116.0
232.793091 152.0
232.935837 88.0
233.115326 548.0
233.175873 112.0
233.257935 52.0
233.376511 176.0
233.49205 112.0
233.542084 152.0
233.631973 160.0
233.653275 156.0
233.704987 60.0
233.753677 184.0
233.841934 68.0
233.945419 72.0
234.084641 136.0
234.121933 980.0
234.182266 204.0
234.329147 60.0
234.393127 176.0
234.502838 164.0
234.633911 124.0
234.740356 172.0
234.944031 64.0
234.963287 168.0
235.008331 204.0
235.036514 188.0
235.057877 188.0
235.125443 1016.0
235.247101 80.0
235.317322 52.0
235.40892 152.0
235.463898 56.0
235.494431 144.0
235.573853 164.0
235.70639 116.0
235.891647 136.0
235.940567 116.0
236.14035 896.0
236.188263 40.0
236.258621 176.0
236.322861 136.0
236.433029 28.0
236.488113 112.0
236.527908 156.0
236.602692 112.0
236.660965 144.0
236.696854 172.0
236.785095 64.0
236.822556 184.0
236.846344 196.0
237.01178 176.0
237.138596 2192.0
237.180344 272.0
237.207932 156.0
237.277206 60.0
237.324417 64.0
237.548447 172.0
237.919617 140.0
238.121719 6516.0
238.157791 2096.0
238.229782 60.0
238.260437 192.0
238.369156 144.0
238.435654 128.0
238.48175 52.0
238.516724 64.0
238.537079 100.0
238.583191 172.0
238.718475 140.0
238.783066 96.0
238.810745 120.0
239.053787 120.0
239.090714 64.0
239.127304 1956.0
239.154327 3524.0
239.296951 100.0
239.356842 132.0
239.475555 108.0
239.54332 96.0
239.56488 136.0
239.722015 84.0
239.826797 164.0
239.863785 116.0
240.091934 60.0
240.134445 972.0
240.159897 440.0
240.320206 36.0
240.406601 128.0
240.446716 156.0
240.499191 40.0
240.565308 96.0
240.675156 32.0
240.69986 156.0
240.780151 120.0
240.814117 188.0
240.891342 160.0
241.030365 60.0
241.169693 2124.0
241.216904 132.0
241.385849 220.0
241.416763 88.0
241.438416 68.0
241.460068 104.0
241.500275 120.0
241.531204 60.0
241.568329 68.0
241.639481 136.0
241.76944 96.0
241.859192 36.0
241.921097 196.0
241.948959 48.0
241.995407 28.0
242.054764 280.0
242.136139 268.0
242.171371 284.0
242.218369 64.0
242.326797 84.0
242.556122 152.0
242.787338 160.0
243.070953 68.0
243.095779 64.0
243.156906 240.0
243.417297 180.0
243.68573 160.0
243.872192 132.0
243.915695 124.0
244.058716 40.0
244.102234 120.0
244.148315 204.0
244.173187 152.0
244.298187 112.0
244.575119 164.0
244.819244 88.0
244.892715 128.0
244.917633 112.0
245.073395 144.0
245.11702 212.0
245.21051 40.0
245.612717 36.0
246.126663 296.0
246.20311 148.0
246.311905 132.0
246.480621 172.0
246.505615 172.0
246.658752 48.0
246.727524 76.0
247.076309 176.0
247.12648 324.0
247.159149 64.0
247.387604 76.0
247.70076 176.0
247.738342 164.0
247.788467 176.0
247.957672 104.0
248.101562 332.0
248.141479 432.0
248.205322 128.0
248.817154 108.0
249.036957 136.0
249.142029 560.0
249.284195 196.0
249.901443 100.0
250.117416 292.0
250.1586 148.0
250.197281 112.0
250.231918 124.0
250.294891 100.0
250.553162 184.0
250.616165 168.0
250.724915 188.0
250.931351 164.0
251.013321 68.0
251.125092 272.0
251.174393 316.0
251.20256 144.0
251.2341 152.0
251.31929 200.0
251.350845 132.0
251.520966 172.0
251.666473 28.0
251.742264 136.0
252.137054 408.0
252.168716 728.0
252.238297 100.0
252.403122 264.0
252.456451 92.0
252.53952 60.0
252.877213 172.0
252.946854 120.0
253.12558 344.0
253.172043 144.0
253.253983 40.0
253.311005 68.0
253.336349 128.0
253.621536 116.0
253.672241 192.0
253.827606 132.0
253.900543 152.0
254.154465 920.0
254.344727 136.0
254.557434 48.0
254.678116 204.0
254.938629 184.0
254.970413 176.0
255.149857 972.0
255.191757 384.0
255.323303 160.0
255.39386 64.0
255.48468 136.0
255.692719 172.0
255.752808 148.0
256.052094 128.0
256.164642 320.0
256.244324 172.0
256.300568 120.0
256.418488 228.0
256.64801 140.0
256.730896 168.0
256.845734 40.0
257.190338 180.0
257.340363 88.0
257.410614 92.0
257.519104 140.0
257.557526 196.0
257.598694 36.0
257.662933 124.0
258.185486 240.0
258.363068 180.0
258.401459 64.0
258.606262 64.0
258.727905 64.0
258.788727 148.0
258.900818 376.0
258.958466 132.0
258.980865 128.0
259.037476 128.0
259.064148 104.0
259.137085 368.0
259.187317 228.0
259.237183 68.0
259.275635 128.0
259.314087 100.0
259.48764 144.0
259.525665 76.0
259.573761 128.0
259.621857 164.0
259.7341 168.0
259.878479 148.0
259.90094 136.0
259.936218 32.0
260.138428 224.0
260.340698 48.0
260.418274 216.0
260.633026 144.0
260.77121 208.0
260.880493 52.0
260.986572 144.0
261.04126 176.0
261.135956 496.0
261.237427 140.0
261.527039 120.0
261.549561 204.0
261.607513 164.0
261.63327 108.0
261.762054 148.0
261.791046 120.0
261.955292 132.0
262.119843 176.0
262.153015 428.0
262.19696 180.0
262.599945 124.0
262.624695 140.0
262.674133 176.0
262.725739 200.0
262.861847 196.0
263.017548 104.0
263.051666 172.0
263.136688 236.0
263.160065 504.0
263.242157 116.0
263.319672 80.0
263.620117 48.0
263.681519 80.0
263.723541 176.0
263.918152 120.0
263.962769 176.0
264.075958 156.0
264.135101 292.0
264.172943 1248.0
264.231232 44.0
264.639038 144.0
264.924011 128.0
265.111938 140.0
265.173492 524.0
265.377747 100.0
265.497711 140.0
265.559357 108.0
265.617737 148.0
265.776703 72.0
265.958435 84.0
266.024292 68.0
266.154419 1656.0
266.177277 456.0
266.275635 128.0
266.400055 80.0
266.70224 112.0
266.786743 108.0
266.871277 208.0
266.920349 172.0
267.154053 296.0
267.178284 308.0
267.277863 88.0
267.316895 156.0
267.48288 164.0
267.528473 160.0
267.577301 44.0
267.808502 132.0
267.91925 68.0
268.136871 172.0
268.16217 152.0
268.195648 200.0
268.235352 136.0
268.313599 44.0
268.365753 164.0
268.639709 168.0
269.117615 100.0
269.16394 584.0
269.210876 112.0
269.240265 216.0
269.36438 124.0
269.438354 204.0
269.589813 80.0
269.834961 72.0
270.00174 68.0
270.155457 40.0
270.181641 156.0
270.250336 116.0
270.544891 120.0
270.882172 104.0
271.091858 52.0
271.154144 92.0
271.177063 156.0
271.301208 220.0
271.504913 240.0
271.563965 104.0
271.745911 148.0
272.161224 116.0
272.197327 80.0
272.290894 144.0
272.486359 184.0
272.509369 132.0
272.791992 136.0
272.993011 148.0
273.147125 112.0
273.265564 84.0
273.324799 148.0
273.423523 212.0
273.47406 68.0
273.627594 96.0
273.772491 160.0
273.808716 104.0
273.864685 104.0
274.03598 212.0
274.088715 136.0
274.157776 696.0
274.197449 36.0
274.457886 164.0
274.916382 100.0
275.158234 212.0
275.193665 200.0
275.742004 212.0
275.986633 212.0
276.042847 164.0
276.16687 144.0
276.208221 188.0
276.691345 104.0
276.724457 124.0
276.776398 292.0
277.009277 220.0
277.071503 112.0
277.157867 280.0
277.47345 124.0
277.891113 108.0
278.033783 152.0
278.155212 260.0
278.166931 172.0
278.199768 112.0
278.362457 148.0
278.43219 204.0
278.940521 224.0
278.997375 128.0
279.054077 156.0
279.085175 140.0
279.113403 168.0
279.148315 128.0
279.184875 932.0
279.256409 52.0
279.41275 72.0
279.612396 148.0
279.87204 120.0
280.125305 104.0
280.174835 188.0
280.182312 300.0
280.338409 168.0
280.431702 180.0
280.65506 152.0
280.698425 120.0
280.725098 132.0
280.788452 36.0
280.835144 188.0
280.931885 156.0
280.981903 36.0
281.058655 96.0
281.167236 464.0
281.194305 204.0
281.238861 44.0
281.275574 136.0
281.417847 52.0
281.485901 100.0
281.522644 188.0
281.620483 148.0
281.746429 148.0
281.796539 100.0
281.928345 104.0
282.03714 216.0
282.074554 104.0
282.15213 224.0
282.181854 1108.0
282.234406 112.0
282.452148 184.0
282.5354 100.0
282.662537 144.0
282.696014 164.0
282.900177 136.0
283.104401 52.0
283.137909 240.0
283.186249 404.0
283.219086 284.0
283.265167 100.0
283.291992 88.0
283.409241 84.0
283.482941 56.0
283.560028 80.0
284.042847 88.0
284.158661 948.0
284.202026 196.0
284.585297 164.0
284.620087 108.0
284.838379 256.0
284.949249 64.0
285.023163 60.0
285.16217 336.0
285.527405 120.0
285.742889 72.0
285.823425 108.0
285.917664 116.0
286.085968 104.0
286.166748 164.0
286.287964 60.0
286.351959 108.0
286.378906 124.0
286.537231 140.0
286.746155 48.0
286.783234 72.0
286.884338 76.0
287.103516 132.0
287.206146 204.0
287.332886 104.0
287.375244 144.0
287.423981 56.0
287.488098 208.0
287.552216 132.0
287.94046 132.0
288.085724 124.0
288.116119 172.0
288.146515 140.0
289.031433 144.0
289.052673 228.0
289.089874 52.0
289.166687 128.0
289.211731 52.0
289.248962 156.0
289.3573 172.0
289.4758 92.0
289.533356 140.0
289.695953 124.0
290.15683 148.0
290.166412 140.0
290.200897 180.0
290.377258 148.0
290.417938 140.0
290.5672 148.0
290.909973 144.0
290.971069 116.0
291.022003 120.0
291.055939 96.0
291.185059 676.0
291.327667 44.0
291.585876 44.0
291.616486 200.0
291.664062 68.0
291.868591 76.0
292.169922 1124.0
292.37149 96.0
292.538269 132.0
292.902618 148.0
292.984375 188.0
293.038879 80.0
293.093414 172.0
293.200714 1616.0
293.299438 96.0
293.539948 220.0
293.563812 68.0
293.737762 80.0
293.976593 124.0
294.058502 156.0
294.195404 676.0
294.379395 128.0
294.690216 56.0
294.75174 76.0
294.922607 156.0
294.994385 168.0
295.055908 100.0
295.205994 532.0
295.302124 80.0
295.647675 92.0
295.729797 152.0
295.907806 124.0
296.157776 84.0
296.221771 264.0
296.250275 136.0
296.315369 112.0
296.435303 148.0
296.490112 100.0
296.520599 116.0
296.59024 188.0
296.878448 124.0
297.03183 136.0
297.146973 212.0
297.195526 144.0
297.670197 116.0
298.185486 136.0
298.333313 160.0
298.388306 112.0
298.482697 168.0
298.598053 132.0
298.993713 160.0
299.180511 192.0
299.213989 100.0
299.47226 92.0
299.62384 152.0
300.037384 148.0
300.140808 188.0
300.195984 304.0
300.309814 116.0
300.805847 100.0
300.889526 36.0
300.941315 204.0
301.021973 92.0
301.203766 144.0
301.259033 120.0
301.303955 88.0
301.365845 144.0
301.670258 132.0
301.884644 132.0
302.04718 104.0
302.52124 156.0
302.592957 140.0
302.63205 164.0
302.742859 96.0
302.76709 140.0
302.950653 148.0
302.992249 56.0
303.044189 188.0
303.075378 156.0
303.188538 308.0
303.376923 80.0
303.47052 68.0
303.956116 112.0
304.105347 88.0
304.848541 196.0
304.881561 96.0
305.001465 160.0
305.2034 192.0
305.300446 144.0
305.693542 112.0
306.166992 52.0
306.205292 148.0
306.236664 120.0
306.274963 72.0
306.67218 92.0
306.741882 140.0
306.794159 104.0
307.175232 312.0
307.227997 208.0
307.394073 52.0
307.46991 164.0
307.579041 156.0
307.712708 196.0
307.879303 120.0
308.044922 200.0
308.141296 200.0
308.183197 324.0
308.21814 152.0
308.382385 92.0
308.567657 96.0
308.885895 72.0
308.9104 160.0
308.980347 100.0
309.194763 1492.0
309.292358 100.0
309.337311 212.0
309.393311 124.0
309.492737 172.0
309.571869 92.0
309.785522 196.0
309.995758 96.0
310.181335 1640.0
310.314728 208.0
310.403442 156.0
310.472504 144.0
310.949646 32.0
311.047913 108.0
311.21109 2644.0
311.26123 132.0
311.318268 180.0
311.346344 164.0
311.588715 56.0
311.687103 60.0
311.718719 52.0
311.852264 124.0
311.883881 176.0
311.971771 164.0
312.152161 144.0
312.2099 1256.0
312.288635 104.0
312.333954 64.0
312.487427 148.0
312.661163 168.0
312.692841 196.0
312.784363 104.0
312.960388 132.0
313.073059 136.0
313.104065 200.0
313.213623 368.0
313.22171 464.0
313.347809 164.0
313.618439 140.0
313.693176 116.0
313.823608 52.0
313.936432 72.0
314.035187 64.0
314.142456 256.0
314.335052 72.0
314.688019 44.0
314.790436 160.0
315.306183 120.0
315.772888 224.0
315.829468 144.0
315.988068 144.0
316.024048 64.0
316.3461 208.0
316.710815 116.0
316.841888 76.0
317.086365 56.0
317.201752 444.0
317.632385 88.0
317.951721 212.0
318.001404 180.0
318.040436 184.0
318.132751 40.0
318.164673 76.0
318.211273 300.0
318.292511 124.0
318.431 80.0
318.455872 148.0
318.680634 104.0
318.729401 228.0
318.875092 108.0
319.035065 144.0
319.21347 272.0
319.259064 184.0
319.372864 144.0
320.006317 88.0
320.225342 100.0
320.38739 76.0
320.447937 116.0
320.497833 124.0
320.626099 172.0
320.651062 140.0
320.733032 156.0
320.939789 132.0
321.082428 76.0
321.192993 116.0
321.23938 132.0
321.314301 164.0
321.481995 136.0
321.64975 56.0
321.678284 112.0
321.72113 196.0
321.871094 176.0
321.91037 124.0
322.115631 212.0
322.199677 124.0
322.225739 164.0
322.371185 120.0
322.45694 112.0
322.557037 180.0
322.978973 148.0
323.040833 148.0
323.212738 172.0
323.3797 132.0
323.508545 56.0
323.547943 124.0
323.590912 128.0
323.773529 196.0
323.938263 128.0
324.031433 100.0
324.164001 120.0
324.239258 164.0
324.533203 112.0
324.666382 188.0
324.701721 140.0
324.777039 104.0
324.834442 148.0
325.189087 528.0
325.269104 60.0
325.338623 144.0
325.441315 152.0
325.48761 112.0
325.588165 60.0
325.771362 180.0
325.846802 152.0
325.911469 104.0
325.968964 220.0
326.019257 136.0
326.055206 104.0
326.112701 128.0
326.195587 264.0
326.269073 372.0
326.315826 112.0
326.432678 116.0
326.479889 120.0
326.555969 256.0
326.644867 132.0
326.670044 52.0
326.895935 184.0
326.950531 92.0
327.004669 100.0
327.037079 84.0
327.062256 88.0
327.10907 68.0
327.205383 27720.0
327.28067 220.0
327.325073 148.0
327.415833 80.0
327.482941 48.0
327.54187 128.0
327.577179 56.0
327.628479 68.0
327.676178 144.0
327.75116 104.0
327.778137 72.0
327.833008 40.0
327.883148 144.0
327.920807 164.0
327.998779 44.0
328.049255 72.0
328.110535 44.0
328.139374 244.0
328.209503 6296.0
328.260742 164.0
328.312439 40.0
328.379639 108.0
328.430664 88.0
328.439972 136.0
328.478363 128.0
328.566895 52.0
328.600098 156.0
328.679688 208.0
328.730927 216.0
328.882507 216.0
328.929413 52.0
329.049225 84.0
329.065308 56.0
329.149658 36.0
329.209564 880.0
329.273895 128.0
329.458191 136.0
329.548004 56.0
329.583099 168.0
329.691498 124.0
329.825226 104.0
329.938995 196.0
330.052979 128.0
330.120148 140.0
330.175934 116.0
330.215637 284.0
330.262726 120.0
330.306152 100.0
330.389496 160.0
330.435944 104.0
330.537689 80.0
330.606445 68.0
330.696899 64.0
330.813904 148.0
330.975677 80.0
331.001007 144.0
331.060242 80.0
331.21106 88.0
331.23642 104.0
331.38028 96.0
331.457428 140.0
331.508148 100.0
331.689362 220.0
331.7836 132.0
331.95401 148.0
332.22464 200.0
332.425598 112.0
332.590149 188.0
332.737762 56.0
332.763153 56.0
332.839417 108.0
332.970154 124.0
333.039154 128.0
333.111786 108.0
333.234253 292.0
333.278015 168.0
333.304352 84.0
333.387939 52.0
333.427917 244.0
333.602356 168.0
333.904175 140.0
334.682892 92.0
334.839478 128.0
334.894135 40.0
334.919617 136.0
335.178284 104.0
335.21106 120.0
335.236572 104.0
335.283966 200.0
335.761536 152.0
336.173767 128.0
336.277039 284.0
336.374512 132.0
336.494965 108.0
336.710419 124.0
336.991699 192.0
337.024567 80.0
337.242188 196.0
337.865479 164.0
337.913025 44.0
337.95694 108.0
338.005157 112.0
338.180176 128.0
338.227753 84.0
338.319275 156.0
338.366852 84.0
338.604858 92.0
338.670807 148.0
338.740387 172.0
338.938232 172.0
338.98587 144.0
339.135559 160.0
339.203156 188.0
339.248688 148.0
339.297424 48.0
339.55777 124.0
339.80719 112.0
339.912842 176.0
340.192352 152.0
340.229248 136.0
340.306335 76.0
340.377106 232.0
340.412842 188.0
340.456879 108.0
340.519257 176.0
340.548706 160.0
340.677277 76.0
340.820557 140.0
340.908752 188.0
341.221466 156.0
341.244324 200.0
341.386627 64.0
341.629395 64.0
341.706635 240.0
341.971588 220.0
342.008392 72.0
342.214294 172.0
342.586517 184.0
342.641785 140.0
342.796539 116.0
342.977112 60.0
343.386383 176.0
343.452759 124.0
343.688873 192.0
343.788513 100.0
343.965668 104.0
344.002563 112.0
344.10965 168.0
344.231476 132.0
344.353363 108.0
344.386597 40.0
344.464172 256.0
344.523254 104.0
344.977814 140.0
345.022156 156.0
345.173767 220.0
345.225311 172.0
345.676819 68.0
345.810364 140.0
345.861877 116.0
346.219879 144.0
346.30423 204.0
346.706329 112.0
346.865692 156.0
347.245056 844.0
347.293121 176.0
347.319611 196.0
347.50354 72.0
347.536926 124.0
347.778168 132.0
347.930359 188.0
348.038025 140.0
348.067719 160.0
348.117737 140.0
348.249115 448.0
348.85907 164.0
349.119446 180.0
349.227203 116.0
349.268127 128.0
349.454132 140.0
349.688568 64.0
349.904449 120.0
349.941345 132.0
349.950378 120.0
349.961426 172.0
350.276855 156.0
350.478027 72.0
350.548828 40.0
350.738892 152.0
350.914124 116.0
351.033447 108.0
351.066986 120.0
351.253479 104.0
351.585541 108.0
351.634064 84.0
351.746033 128.0
352.007385 60.0
352.481842 180.0
352.709747 176.0
352.780762 116.0
352.956482 48.0
353.061188 100.0
353.154694 88.0
353.251617 132.0
353.323029 168.0
353.37915 104.0
353.46521 68.0
353.865692 188.0
353.963043 132.0
354.060394 228.0
354.22522 168.0
354.315125 104.0
354.539917 124.0
354.569916 48.0
354.644867 92.0
354.706848 180.0
355.102295 48.0
355.236725 316.0
355.383636 152.0
355.548737 96.0
355.792725 164.0
355.987976 140.0
356.018005 112.0
356.198273 84.0
356.249115 308.0
356.298828 168.0
356.329773 208.0
356.450012 156.0
356.492859 148.0
356.566498 128.0
357.006348 92.0
357.066528 152.0
357.262115 136.0
357.303497 104.0
357.341125 132.0
357.393799 116.0
357.694855 64.0
357.82663 80.0
358.037506 144.0
358.135406 48.0
358.24823 152.0
358.44809 156.0
358.776001 44.0
358.889099 176.0
358.955627 100.0
359.119141 200.0
359.25116 84.0
359.349274 124.0
359.417175 96.0
359.730408 144.0
359.76062 52.0
359.821014 56.0
359.851227 156.0
359.904083 160.0
360.036255 172.0
360.179779 92.0
360.346008 248.0
360.414001 108.0
360.655853 156.0
360.716339 116.0
361.079315 168.0
361.646851 140.0
362.35498 148.0
362.400421 156.0
362.544434 140.0
362.7453 124.0
362.802155 176.0
362.890259 288.0
363.037231 132.0
363.181366 48.0
363.242401 160.0
363.321716 152.0
363.71109 136.0
363.879608 68.0
364.733795 188.0
365.110748 144.0
365.255585 1940.0
365.350372 128.0
365.487335 160.0
365.53299 48.0
366.005005 108.0
366.039276 132.0
366.164948 196.0
366.256805 432.0
366.450623 160.0
366.744049 96.0
366.896545 408.0
367.238159 484.0
367.266022 152.0
367.323639 36.0
367.483856 168.0
367.529633 128.0
367.623566 216.0
367.686096 80.0
368.098389 132.0
368.128937 132.0
368.209137 32.0
368.26413 260.0
368.400116 160.0
368.491821 168.0
368.579681 104.0
369.118652 136.0
369.283081 204.0
369.382538 136.0
369.612091 200.0
369.753693 112.0
370.002472 176.0
370.174774 132.0
370.519501 64.0
370.569305 180.0
370.73407 104.0
370.776215 80.0
370.806885 172.0
370.929535 88.0
371.439514 108.0
371.850067 200.0
371.904297 156.0
371.960815 136.0
372.068878 100.0
372.42984 112.0
372.78714 204.0
372.814026 136.0
373.113831 148.0
373.28302 80.0
373.513763 140.0
373.809998 96.0
373.890808 128.0
374.044769 120.0
374.233429 72.0
374.37973 120.0
374.449066 88.0
374.564606 136.0
374.822723 64.0
375.393219 152.0
375.744232 220.0
375.802094 140.0
375.917847 136.0
376.141693 132.0
376.188629 128.0
376.23822 132.0
376.272949 80.0
376.299988 52.0
376.381073 152.0
376.481476 176.0
376.728668 104.0
376.857513 148.0
376.893127 96.0
377.022308 84.0
377.10733 116.0
377.348572 148.0
377.525848 108.0
377.567413 40.0
377.648621 112.0
377.80722 124.0
377.877991 164.0
377.989075 128.0
378.132263 188.0
378.471588 176.0
378.75174 56.0
378.879578 104.0
379.034546 180.0
379.069427 236.0
379.123688 172.0
379.19458 136.0
379.403412 120.0
379.499695 104.0
379.534576 164.0
379.643158 76.0
379.681183 228.0
379.964172 68.0
380.007782 100.0
380.034943 88.0
380.295807 144.0
380.329865 128.0
380.372559 188.0
380.508423 108.0
380.574432 52.0
380.632935 60.0
380.671509 60.0
380.707977 164.0
380.804321 152.0
380.842377 80.0
380.939514 72.0
381.032745 104.0
381.09021 96.0
381.157074 96.0
381.25885 232.0
381.448547 92.0
381.499084 40.0
381.540771 200.0
381.619598 76.0
381.66626 152.0
381.69574 124.0
381.732361 172.0
381.823792 92.0
381.867676 216.0
381.903473 100.0
381.953278 372.0
381.989136 176.0
382.037567 108.0
382.087372 176.0
382.121338 320.0
382.190155 128.0
382.205261 212.0
382.239655 252.0
382.276337 344.0
382.337463 352.0
382.38205 92.0
382.410645 136.0
382.448212 300.0
382.472351 232.0
382.503601 100.0
382.531738 208.0
382.574005 312.0
382.611389 144.0
382.653229 108.0
382.69223 200.0
382.704529 156.0
382.75174 168.0
382.827789 224.0
382.873657 276.0
382.885773 144.0
382.911346 192.0
382.977142 312.0
382.990906 140.0
383.041656 312.0
383.070648 240.0
383.080566 224.0
383.158844 468.0
383.269684 209092.0
383.382202 108.0
383.388519 216.0
383.422424 240.0
383.478455 164.0
383.549438 132.0
383.58783 348.0
383.629517 240.0
383.686707 128.0
383.70813 312.0
383.754974 212.0
383.781006 84.0
383.793335 160.0
383.806366 268.0
383.863373 84.0
383.913483 916.0
383.953094 124.0
383.992096 164.0
384.025543 88.0
384.050598 124.0
384.118347 172.0
384.182404 196.0
384.190552 200.0
384.209106 244.0
384.272186 56072.0
384.375366 132.0
384.423401 384.0
384.471222 180.0
384.533844 184.0
384.602783 112.0
384.61319 112.0
384.700409 92.0
384.754028 52.0
384.813019 76.0
384.856415 128.0
384.925476 168.0
384.960632 136.0
384.994415 140.0
385.045471 68.0
385.122559 172.0
385.131104 100.0
385.185089 84.0
385.215881 176.0
385.273987 7048.0
385.35495 164.0
385.3862 84.0
385.409058 68.0
385.494965 180.0
385.561371 108.0
385.617584 80.0
385.67511 64.0
385.751068 64.0
385.783752 64.0
385.818115 76.0
385.847626 80.0
385.895599 124.0
385.946167 148.0
386.02951 280.0
386.056396 76.0
386.083893 92.0
386.115448 184.0
386.213959 156.0
386.272522 604.0
386.357697 196.0
386.388062 132.0
386.44342 124.0
386.481293 104.0
386.543427 192.0
386.592834 240.0
386.664612 116.0
386.71051 120.0
386.75061 284.0
386.807648 108.0
386.815948 132.0
386.832275 136.0
386.88443 296.0
386.987274 144.0
387.013214 116.0
387.052917 44.0
387.099762 112.0
387.127136 88.0
387.152771 92.0
387.231964 72.0
387.301605 136.0
387.342194 84.0
387.417023 112.0
387.472198 72.0
387.563202 96.0
387.626556 80.0
387.662018 48.0
387.729645 100.0
387.781006 80.0
387.819977 92.0
387.858002 132.0
387.936401 60.0
388.002869 100.0
388.068695 48.0
388.120667 44.0
388.168396 68.0
388.253967 64.0
388.28717 88.0
388.328491 88.0
388.440948 96.0
388.534302 60.0
388.603088 96.0
388.624573 92.0
388.794159 52.0
388.893158 48.0
388.903839 44.0
388.918671 76.0
388.975922 124.0
389.062256 36.0
389.142181 96.0
389.235016 72.0
389.333191 88.0
389.364624 36.0
389.429749 108.0
389.513855 64.0
389.680115 60.0
389.74173 44.0
389.824249 124.0
389.910706 64.0
390.016815 72.0
390.201569 68.0
390.394257 44.0
390.457153 76.0
390.484711 72.0
390.567291 48.0
391.177216 28.0
391.24411 112.0
391.862427 108.0
391.929413 52.0
391.996399 76.0
392.054047 96.0
392.280182 56.0
392.30777 64.0
392.481232 96.0
392.516724 76.0
392.642914 96.0
393.045288 40.0
393.167633 128.0
393.522888 96.0
393.957306 72.0
394.016571 48.0
394.143005 52.0
394.285248 68.0
394.471039 96.0
394.842682 64.0
394.870392 100.0
395.123535 48.0
395.774323 56.0
395.855774 68.0
396.23999 88.0
396.380463 76.0
396.465851 56.0
396.765015 84.0
396.957397 40.0
397.378571 108.0
397.473083 40.0
397.881866 60.0
398.247192 64.0
398.92926 80.0
399.006195 68.0
399.256683 68.0
399.344177 44.0
399.451569 48.0
399.869354 76.0
399.897217 32.0
399.952942 120.0
400.032562 124.0
400.13208 56.0
400.414795 156.0
400.633881 60.0
401.104095 180.0
401.303436 68.0
401.682281 52.0
401.817902 56.0
402.045349 76.0
402.117188 72.0
402.232941 72.0
402.380646 44.0
403.435333 84.0
403.479309 100.0
403.55127 112.0
403.599243 48.0
403.64325 92.0
403.983185 48.0
404.135223 104.0
404.6315 44.0
405.408569 68.0
406.848511 64.0
408.966888 116.0
410.80838 144.0
411.546936 44.0
412.015411 88.0
415.744598 44.0
417.898193 216.0
420.698029 64.0
420.873596 100.0
421.326935 88.0
421.510803 44.0
424.658936 72.0
425.360596 52.0
427.526581 88.0
429.68158 84.0
430.428619 96.0
431.019318 152.0
432.458466 60.0
433.241058 60.0
433.518677 96.0
433.98291 72.0
436.486694 72.0
437.014954 112.0
437.501862 40.0
440.153534 52.0
440.884583 116.0
441.666412 112.0
441.925781 80.0
443.429108 80.0
443.948944 40.0
444.15509 80.0
445.388519 52.0
445.930511 108.0
445.989349 32.0
446.359314 40.0
447.760651 108.0
448.894287 56.0
448.965973 72.0
449.716949 52.0
451.11084 60.0
451.427948 64.0
452.227539 80.0
453.129486 88.0
454.808777 80.0
455.632599 112.0
457.325012 56.0
457.759247 96.0
458.662476 56.0
459.11441 44.0
461.527039 60.0
465.155731 124.0
467.244232 64.0
467.592773 124.0
468.320404 92.0
468.613342 64.0
468.983948 116.0
470.346954 72.0
470.692322 92.0
474.153076 32.0
475.740601 104.0
476.943848 56.0
477.613464 92.0
482.803558 56.0
484.935669 88.0
486.097809 52.0
486.958282 100.0
487.445892 68.0
488.342743 68.0
489.548584 72.0
490.174103 84.0
492.72879 60.0
497.04126 32.0
498.36441 104.0
499.667114 48.0
503.054016 80.0
508.344299 124.0
511.38681 44.0
511.737915 56.0
512.192749 60.0
512.620789 108.0
513.166199 96.0
514.39325 124.0
515.648926 100.0
517.517151 56.0
517.974548 68.0
518.463867 112.0
518.917175 52.0
521.591064 96.0
521.763794 104.0
523.943726 100.0
525.877136 64.0
533.094788 108.0
534.244263 96.0
537.796936 124.0
542.023865 56.0
542.223145 84.0
543.451965 48.0
544.41748 124.0
545.871948 72.0
548.777466 116.0
549.635681 96.0
550.896301 40.0
551.167236 36.0
555.117981 76.0
556.154785 84.0
556.638367 96.0
559.48291 96.0
568.320923 68.0
570.924011 112.0
573.051758 108.0
573.938293 96.0
577.979187 120.0
578.524841 36.0
580.287842 20.0
583.403564 56.0
584.697449 100.0
585.800049 96.0
585.843445 80.0
590.462708 72.0
592.423035 56.0
593.052917 84.0
594.546692 72.0
596.893005 68.0
597.685852 120.0
607.275574 80.0
608.070374 92.0
608.163635 36.0
608.855896 128.0
611.412292 76.0
612.180298 68.0
612.308289 52.0
616.190369 100.0
616.304016 52.0
616.644958 124.0
618.009827 48.0
619.212708 96.0
620.426697 100.0
620.684509 40.0
623.126526 68.0
624.787048 44.0
627.062622 40.0
627.795471 112.0
628.104675 48.0
632.10144 84.0
635.588989 56.0
637.386597 52.0
639.428284 76.0
642.850159 60.0
643.824463 96.0
646.225464 48.0
647.551758 88.0
647.784729 56.0
659.804932 56.0
661.27301 128.0
666.359863 80.0
672.668457 60.0
678.420837 116.0
686.505859 64.0
687.137024 40.0
688.473267 164.0
688.927673 48.0
689.81604 92.0
690.00946 68.0
690.53241 80.0
699.210022 76.0
699.357361 52.0
699.457397 116.0
700.847717 140.0
703.141602 76.0
706.147766 128.0
707.618835 88.0
708.439697 72.0
712.772583 84.0
717.394043 60.0
719.421204 52.0
720.109985 64.0
722.280029 52.0
735.509216 108.0
745.371277 32.0
751.971558 40.0
756.951843 76.0
762.690369 60.0
768.472656 80.0
771.366455 116.0
774.780823 112.0
776.01123 72.0
776.909668 64.0
778.974731 68.0
780.497498 60.0
782.773315 120.0
784.795959 68.0
788.530518 84.0
790.213684 84.0
797.273254 68.0
802.615356 36.0
804.49408 68.0
806.929016 88.0
811.838196 104.0
812.479187 68.0
814.437561 80.0
815.966187 224.0
819.910828 44.0
825.345276 68.0
828.647766 96.0
830.344482 208.0
834.708923 84.0
842.576416 164.0
842.830627 120.0
845.780029 72.0
846.185303 88.0
846.602173 68.0
847.013367 152.0
848.027405 60.0
861.667358 88.0
864.889526 76.0
869.349548 88.0
870.230042 112.0
880.842224 76.0
881.208496 52.0
881.941284 64.0
897.632324 200.0
901.757446 76.0
902.444885 180.0
908.319824 124.0
908.529785 88.0
912.878296 44.0
913.275208 48.0
914.713318 28.0
915.688721 80.0
915.803162 68.0
917.092529 200.0
918.093323 48.0
922.156433 84.0
924.781311 32.0
925.598633 156.0
927.046387 96.0
927.216064 60.0
928.216309 120.0
929.405151 80.0
930.048462 68.0
930.297302 128.0
930.412659 104.0
938.108215 160.0
940.780151 176.0
949.094604 192.0
950.388855 140.0
951.690063 160.0
954.461182 64.0
956.811462 188.0
957.673584 84.0
958.295776 220.0
964.42981 100.0
967.49176 220.0
976.414429 220.0
978.324646 72.0
981.639282 52.0
986.971924 184.0
991.804871 148.0
992.174744 196.0
992.613647 96.0
994.909973 108.0
996.235046 64.0
998.271423 104.0
999.057617 204.0
1008.901794 52.0
1010.843567 192.0
1011.495422 132.0
1015.100342 104.0
1015.366699 28.0
1015.474487 96.0
1022.711304 184.0
1025.201538 68.0
1025.309814 60.0
1027.554321 204.0
1032.466431 72.0
1036.339111 184.0
1038.121094 180.0
1038.679077 184.0
1041.779541 240.0
1042.190674 160.0
1043.360474 188.0
1043.508301 208.0
1051.353882 128.0
1052.22522 52.0
1057.897949 120.0
1060.174805 188.0
1062.859375 120.0
1064.644531 64.0
1066.561157 96.0
1074.708008 84.0
1077.992432 140.0
1085.277832 208.0
1089.478149 60.0
1090.411255 160.0
1092.502197 36.0
1095.984985 128.0
1097.507568 160.0
1100.476685 112.0
1100.536011 140.0
1101.394531 48.0
1102.372314 184.0
1104.197021 76.0
1105.943604 220.0
1106.779663 160.0
1108.466919 124.0
1109.235718 96.0
1112.744995 140.0
1113.741089 88.0
1124.614136 112.0
1128.782837 200.0
1132.162231 128.0
1132.724854 152.0
1134.078369 68.0
1134.239258 212.0
1134.386719 76.0
1135.814941 140.0
1136.968994 208.0
1141.059692 124.0
1142.882324 132.0
1144.161133 188.0
1145.945801 164.0
1148.913818 216.0
1150.396973 168.0
1152.105469 136.0
1154.362915 244.0
1155.898438 116.0
1156.189453 188.0
1156.90686 88.0
1162.077881 52.0
1162.932861 184.0
1163.475952 240.0
1167.920044 172.0
1171.003296 148.0
1172.563477 96.0
1176.881592 184.0
1177.04541 220.0
1178.206543 120.0
1179.381836 176.0
1180.421021 88.0
1181.665894 188.0
1182.740234 140.0
1183.27417 92.0
1183.452271 112.0
1184.595947 32.0
1184.794556 108.0
1186.64502 128.0
1188.249878 180.0
1198.811279 72.0
1200.845093 48.0
1201.093384 116.0
1203.156616 180.0
1203.93689 180.0
1204.917725 212.0
1205.594849 124.0
1206.576416 68.0
1207.288574 104.0
1210.707153 176.0
1213.319458 200.0
1214.026611 176.0
1216.05249 64.0
1216.524414 44.0
1218.045166 160.0
1218.121582 244.0
1218.858032 88.0
1218.92749 84.0
1219.292847 136.0
1221.193848 48.0
1222.634033 92.0
1224.207275 180.0
1224.896851 136.0
1226.248535 188.0
1226.799194 200.0
1232.906494 184.0
1234.171753 32.0
1235.150757 136.0
1235.689453 156.0
1239.247803 184.0
1245.005127 180.0
1245.187622 168.0
1246.831665 168.0
1247.436157 56.0
1255.194702 48.0
1257.374512 192.0
1261.683228 204.0
1262.496338 108.0
1267.869507 144.0
1269.166748 116.0
1269.854614 104.0
1271.159912 200.0
1272.281372 140.0
1272.551147 56.0
1275.25061 60.0
1276.572876 200.0
1277.077881 52.0
1277.689575 172.0
1279.47583 164.0
1280.073975 68.0
1281.690918 128.0
1282.588867 112.0
1282.681519 168.0
1283.387329 220.0
1284.614014 140.0
1285.941162 112.0
1286.762085 148.0
1287.133301 180.0
1289.283447 64.0
1289.726685 180.0
1290.57019 48.0
1291.793091 208.0
1292.859253 144.0
1293.789673 160.0
1295.44397 136.0
1297.010132 156.0
1297.13501 160.0
1297.981079 188.0
1299.250488 188.0
1302.940552 144.0
1307.096313 116.0
1309.709717 172.0
1313.594849 144.0
1314.655518 68.0
1315.896973 168.0
1316.806885 196.0
1316.915161 156.0
1317.464233 68.0
1318.598633 188.0
1320.934082 172.0
1321.715332 44.0
1323.640747 48.0
1325.335693 184.0
1326.785278 124.0
1326.9375 196.0
1327.213013 196.0
1331.886719 188.0
1333.121704 116.0
1333.26709 128.0
1334.946411 172.0
1335.062744 84.0
1336.837769 180.0
1336.939575 48.0
1340.078003 204.0
1343.745239 140.0
1345.109985 204.0
1345.993286 204.0
1346.146729 72.0
1346.270874 176.0
1346.343872 108.0
1346.942749 104.0
1347.388306 148.0
1348.060547 200.0
1348.462524 84.0
1348.667114 64.0
1350.034302 228.0
1355.319336 196.0
1355.480591 136.0
1356.469971 148.0
1357.100464 184.0
1357.357056 172.0
1357.709106 148.0
1357.83374 168.0
1358.794678 40.0
1362.281738 108.0
1364.802612 160.0
1365.332031 56.0
1368.172241 148.0
1369.291504 76.0
1369.350342 52.0
1372.283203 212.0
1373.256592 144.0
1374.023804 220.0
1374.931396 200.0
1376.075562 60.0
1377.877563 204.0
1378.077026 128.0
1378.276611 196.0
1378.653442 204.0
1380.006104 128.0
1381.026611 208.0
1381.485229 204.0
1382.010498 80.0
1382.713501 120.0
1383.120605 184.0
1383.239014 144.0
1383.749756 252.0
1384.031128 188.0
1384.37915 144.0
1384.830933 84.0
1385.450562 80.0
1385.571655 76.0
1385.712524 188.0
1386.045898 176.0
1387.654297 152.0
1389.256226 172.0
1389.315552 140.0
1393.302124 208.0
1393.391235 204.0
1394.513306 216.0
1394.654541 140.0
1396.550537 128.0
1396.624878 160.0
1397.443237 200.0
1398.351074 120.0
1399.006104 176.0
1399.408081 44.0
1399.929321 76.0
1402.633789 84.0
1402.842529 116.0
1403.140747 204.0
1404.123047 196.0
1404.691895 164.0
1407.512939 128.0
1407.781738 84.0
1408.394165 156.0
1409.865967 120.0
1410.905029 180.0
1411.533081 64.0
1412.969116 184.0
1413.10376 52.0
1414.363403 108.0
1414.689209 136.0
1416.472534 136.0
1417.04187 172.0
1417.498901 204.0
1418.465698 124.0
1419.425415 132.0
1420.085327 144.0
1420.520386 136.0
1421.420654 124.0
1422.020996 148.0
1422.771729 116.0
1423.469971 216.0
1423.860474 196.0
1424.566528 160.0
1426.144409 48.0
1426.445068 216.0
1427.83606 216.0
1429.761353 216.0
1430.176025 160.0
1431.574097 160.0
1432.495117 172.0
1432.909546 68.0
1433.549927 52.0
1434.401611 68.0
1436.135864 212.0
1437.999512 132.0
1438.444824 156.0
1440.959595 96.0
1442.433228 128.0
1442.796021 120.0
1443.310181 144.0
1443.968018 56.0
1445.435669 100.0
1447.67627 140.0
1448.054932 180.0
1448.524536 116.0
1449.911133 144.0
1450.123291 236.0
1454.18103 116.0
1456.018311 160.0
1456.200562 160.0
1456.79834 176.0
1457.25647 148.0
1458.084717 168.0
1458.639526 132.0
1459.141235 200.0
1460.381592 192.0
1461.590332 164.0
1462.50354 128.0
1462.602539 68.0
1462.891724 108.0
1463.386597 148.0
1463.516113 84.0
1464.292847 136.0
1464.621704 156.0
1466.060303 148.0
1467.028198 192.0
1468.141479 204.0
1469.087158 184.0
1471.040771 148.0
1472.140137 164.0
1473.362305 56.0
1477.414062 220.0
1477.578491 136.0
1479.097534 140.0
1479.227661 200.0
1479.648682 116.0
1479.76355 212.0
1480.092773 184.0
1482.229858 96.0
1482.513428 176.0
1483.034546 84.0
1483.402466 172.0
1483.939087 64.0
1484.966675 52.0
1485.703003 56.0
1485.841187 196.0
1486.048218 152.0
1486.232422 76.0
1486.319336 132.0
1486.424194 116.0
1487.706543 176.0
1487.775024 164.0
1488.158936 128.0
1488.827026 136.0
1489.088135 116.0
1490.828735 180.0
1491.908081 104.0
1492.28479 196.0
1494.061401 140.0
1495.623535 36.0
1496.508789 120.0
1496.639648 188.0
1496.901489 176.0
1496.955322 224.0
1497.217163 56.0
1498.650024 164.0
1498.818848 232.0
1500.322388 92.0
1500.977783 148.0
1501.093384 152.0
1503.615967 184.0
