>compound Quinic acid
>formula C7H12O6
>ionization [M+H]+
>parentmass 193.069946
#inchi InChI=1S/C7H12O6/c8-3-1-7(13,6(11)12)2-4(9)5(3)10/h3-5,8-10,13H,1-2H2,(H,11,12)/t3-,4-,5-,7+/m0/s1
#inchikey AAWZDTNXLSGCEK
#Ion_Source DI-ESI
#Instrument qTof
#Compound_Source Isolated
#PI Norberto Lopes
#Data_Collector Denise Silva
#Scan -1
#Precursor_MZ 193.07
#ExactMass 192.063
#Charge 1
#CAS_Number 36413-60-2
#Pubmed_ID N/A
#Smiles O[C@@]1(C(O)=O)C[C@H](O)[C@@H](O)[C@@H](O)C1
#INCHI_AUX N/A
#Library_Class 3
#SpectrumID CCMSLIB00000081718
#IonMode Positive
#UpdateWorkflowName UPDATE-SINGLE-ANNOTATED-BRONZE
#LibraryQualityString Bronze
#TaskID 52bd5f0db6314c93924d5ce5c86348eb
##Scan# 1
#SpectrumFile gnps_Quinic_acid_pos_MplusH.mgf
#LibraryName gnps_library.mgf
#MQScore -1
#Organism batch_27_05_V02
#TIC_Query 0
#RT_Query -1
#MZErrorPPM -1
#SharedPeaks 0
#MassDiff 0
#LibMZ -1
#SpecMZ 193.07
#SpecCharge 0
#internalFilename spec-00000.mgf

>collision 10
111.041687 414.0
121.025757 731.0
129.052505 9327.0
130.056274 341.0
139.036621 9733.0
140.040588 386.0
147.0634 8162.0
148.066055 255.0
157.04805 10303.0
158.051346 437.0
175.059082 886.0
193.069946 4740.0
194.072266 237.0
297.935852 264.0
504.892426 230.0
628.725525 138.0
766.113525 696.0
766.337769 182.0
775.365601 160.0
917.085876 190.0
927.196777 136.0
967.275024 135.0
997.896057 146.0
1008.201782 144.0
1039.45813 139.0
1081.391357 179.0
1081.615845 277.0
1081.87207 218.0
1092.600342 172.0
1114.226685 140.0
1124.87854 151.0
1125.128418 150.0
1125.801636 140.0
1136.068726 138.0
1158.122314 141.0
1168.735352 150.0
1168.971069 148.0
1169.232056 143.0
1180.386963 156.0
1202.863525 152.0
1213.933228 166.0
1214.190063 158.0
1225.554077 162.0
1248.453613 191.0
1259.485229 144.0
1259.720337 240.0
1259.992432 187.0
1271.568604 177.0
1283.206055 138.0
1294.892456 167.0
