>compound Riluzole (Rilutek)
>formula C8H5F3N2OS
>ionization [M+H]+
>parentmass 235.015
#inchi InChI=1S/C8H5F3N2OS/c9-8(10,11)14-4-1-2-5-6(3-4)15-7(12)13-5/h1-3H,(H2,12,13)
#inchikey FTALBRSUTCGOEG
#Ion_Source LC-ESI
#Instrument qTof
#Compound_Source Commercial
#PI Dorrestein
#Data_Collector Garg_Neha
#Scan -1
#Precursor_MZ 235.015
#ExactMass 234.007
#Charge 1
#CAS_Number 1744-22-5
#Pubmed_ID N/A
#Smiles C12=C(C=CC(=C1)OC(F)(F)F)N=C(S2)N
#INCHI_AUX N/A
#Library_Class 1
#SpectrumID CCMSLIB00000078205
#IonMode Positive
#UpdateWorkflowName UPDATE-SINGLE-ANNOTATED-GOLD
#LibraryQualityString Gold
#TaskID 77f51c88eb8b467eb4a01dd2d0cb90d2
##Scan# 1234
#SpectrumFile Plate3_41_60_GG11_01_16500.mzXML
#LibraryName FDALibrary_2_04302014.mgf
#MQScore -1
#Organism FDALibrary_2_04302014
#TIC_Query 0
#RT_Query -1
#MZErrorPPM -1
#SharedPeaks 0
#MassDiff 0
#LibMZ -1
#SpecMZ 235.015
#SpecCharge 0
#internalFilename spec-00000.mgf

>collision 10
45.16684 188.0
45.281948 220.0
45.347599 148.0
45.369045 140.0
45.484409 192.0
45.517971 156.0
45.626804 180.0
45.659077 148.0
45.703068 148.0
45.809826 160.0
45.864746 148.0
45.87635 208.0
46.001312 216.0
46.044518 196.0
46.076496 172.0
46.122883 184.0
46.275749 200.0
46.289291 216.0
46.335342 160.0
46.375996 180.0
46.449215 164.0
46.49263 176.0
46.665142 176.0
46.67466 232.0
46.692009 132.0
46.902401 196.0
47.005661 160.0
47.079376 172.0
47.202366 148.0
47.255707 156.0
47.812824 176.0
47.871605 172.0
47.943527 188.0
47.958817 140.0
48.049828 172.0
48.318977 196.0
48.619915 248.0
48.629631 160.0
48.747677 188.0
48.838043 176.0
48.871433 152.0
48.901646 180.0
48.929886 188.0
48.967484 156.0
49.087334 160.0
49.10128 156.0
49.138943 156.0
49.152214 148.0
49.256207 156.0
49.29253 204.0
49.306503 208.0
49.344246 188.0
49.501068 200.0
49.64249 268.0
49.767372 216.0
49.959919 172.0
50.052807 156.0
50.064072 160.0
50.140148 132.0
50.21064 200.0
50.415344 168.0
50.433716 156.0
50.500168 164.0
50.54303 148.0
50.604885 160.0
50.828838 188.0
50.904728 208.0
50.994991 188.0
51.034794 156.0
51.047592 232.0
51.409424 180.0
51.507435 148.0
51.532223 168.0
51.576523 216.0
51.623703 172.0
51.712402 156.0
51.740314 136.0
51.791153 200.0
51.832699 152.0
51.842728 364.0
51.863396 188.0
51.941109 168.0
52.187229 156.0
52.297016 228.0
52.348389 232.0
52.523994 204.0
52.701958 136.0
52.854462 204.0
52.960739 140.0
53.2029 184.0
53.21883 136.0
53.281284 148.0
53.331749 148.0
53.45871 192.0
53.614532 196.0
53.712219 168.0
53.758907 196.0
53.830433 148.0
53.907856 224.0
53.94001 140.0
53.950245 156.0
53.970711 152.0
54.051159 208.0
54.097996 208.0
54.154369 104.0
54.246746 148.0
54.357414 348.0
54.466053 156.0
54.555691 152.0
54.580685 192.0
54.601273 184.0
54.626278 216.0
54.724445 176.0
54.88401 216.0
55.145302 144.0
55.268044 164.0
55.384998 176.0
55.407219 200.0
55.520893 168.0
55.742542 176.0
55.788616 208.0
55.80497 212.0
55.913559 200.0
56.187733 212.0
56.216084 176.0
56.26683 152.0
56.337021 188.0
56.5284 224.0
56.574799 160.0
56.654167 156.0
56.808575 164.0
56.923119 176.0
56.999249 168.0
57.073059 152.0
57.122124 192.0
57.148693 144.0
57.188736 152.0
57.333321 160.0
57.428303 152.0
57.600376 208.0
57.736404 188.0
57.848824 160.0
58.159111 184.0
58.604687 196.0
58.918304 172.0
58.95565 140.0
58.980209 116.0
59.061142 176.0
59.085617 164.0
59.289268 192.0
59.408863 156.0
59.557762 160.0
59.697617 148.0
59.749912 140.0
59.840717 172.0
59.919418 160.0
60.064629 176.0
60.215431 148.0
60.241692 172.0
60.365334 228.0
60.537949 176.0
60.77116 268.0
60.839451 152.0
60.996346 192.0
61.084869 228.0
61.189247 184.0
61.312302 208.0
61.345032 148.0
61.399605 200.0
61.490093 152.0
61.607201 184.0
61.697842 204.0
61.807323 140.0
61.852707 276.0
61.896545 304.0
61.949795 144.0
61.970161 184.0
62.038349 112.0
62.197552 148.0
62.233662 144.0
62.514465 180.0
62.574841 148.0
62.609482 152.0
62.631531 188.0
62.65831 188.0
62.73238 208.0
63.046474 224.0
63.0686 220.0
63.090729 376.0
63.15398 148.0
63.201443 164.0
63.481201 184.0
63.627354 160.0
63.761215 184.0
63.786648 200.0
63.827984 160.0
63.859787 228.0
63.934563 152.0
63.964806 244.0
63.982315 160.0
64.15596 156.0
64.207863 156.0
64.520737 164.0
64.539139 192.0
64.636703 152.0
64.66391 208.0
64.735954 232.0
64.787209 152.0
64.949753 148.0
64.974777 176.0
65.119247 160.0
65.358437 172.0
65.399002 140.0
65.447304 152.0
65.479507 152.0
65.734222 216.0
65.748741 156.0
65.902145 176.0
65.931236 172.0
66.067055 160.0
66.099411 176.0
66.114502 148.0
66.162537 196.0
66.368294 208.0
66.576004 200.0
66.697853 164.0
66.850739 168.0
66.863029 260.0
67.042892 140.0
67.07386 196.0
67.170067 180.0
67.184753 168.0
67.214119 228.0
67.254913 176.0
67.379021 152.0
67.426483 176.0
67.454193 164.0
67.622665 184.0
67.635765 140.0
67.673416 144.0
67.701248 172.0
67.817574 208.0
67.829048 244.0
67.878235 140.0
67.911034 160.0
68.149063 180.0
68.204941 200.0
68.236168 188.0
68.375992 180.0
68.441833 152.0
68.697289 168.0
68.741936 340.0
68.989586 220.0
69.012733 164.0
69.057381 180.0
69.151688 200.0
69.196381 164.0
69.410126 176.0
69.426704 140.0
69.461533 168.0
69.52829 172.0
69.87352 244.0
69.92511 212.0
69.99884 180.0
70.041855 204.0
70.199989 140.0
70.320107 196.0
70.333458 156.0
70.537239 144.0
70.575691 156.0
70.639244 156.0
70.831306 168.0
70.882683 168.0
70.975876 164.0
71.05806 176.0
71.306351 176.0
71.338516 152.0
71.404099 192.0
71.62458 140.0
71.702087 156.0
71.911705 180.0
71.924721 144.0
72.061508 176.0
72.140938 140.0
72.320244 180.0
72.337166 184.0
72.369331 188.0
72.437073 180.0
72.560783 168.0
72.615051 172.0
72.754189 152.0
72.927452 188.0
73.005661 176.0
73.139336 196.0
73.240524 156.0
73.417778 140.0
73.429718 140.0
73.463829 140.0
73.755829 152.0
73.798569 192.0
73.889214 220.0
73.955948 208.0
73.998749 200.0
74.087234 120.0
74.30896 176.0
74.458298 180.0
74.549355 172.0
74.841698 176.0
74.869324 160.0
74.895164 172.0
75.036469 376.0
75.083023 188.0
75.20034 196.0
75.3853 168.0
75.490585 176.0
75.513062 152.0
75.552307 204.0
75.57534 196.0
75.73938 148.0
75.866302 344.0
75.920052 180.0
76.011993 148.0
76.326393 176.0
76.342041 208.0
76.355377 180.0
76.391418 124.0
76.418579 188.0
76.652275 220.0
76.729301 332.0
76.814041 176.0
77.107368 156.0
77.124847 156.0
77.305901 192.0
77.418777 144.0
77.471321 172.0
77.622047 304.0
77.720276 176.0
77.771172 144.0
77.901779 200.0
77.933228 128.0
78.010063 180.0
78.068535 156.0
78.112053 144.0
78.164833 144.0
78.189468 180.0
78.236992 140.0
78.316231 172.0
78.362038 164.0
78.488937 164.0
78.522446 224.0
78.561249 180.0
78.661903 204.0
78.686554 184.0
78.707741 180.0
78.793091 184.0
79.022354 144.0
79.037277 184.0
79.09845 148.0
79.179901 188.0
79.263161 180.0
79.341141 188.0
79.396111 208.0
79.413849 204.0
79.594856 144.0
79.635704 148.0
79.772522 316.0
79.909462 152.0
79.923698 168.0
80.016251 168.0
80.08213 164.0
80.189034 192.0
80.306709 168.0
80.376282 184.0
80.415543 196.0
80.470879 188.0
80.553032 148.0
80.569107 148.0
80.626289 140.0
80.735336 164.0
80.819824 192.0
80.880852 180.0
81.01947 140.0
81.048599 144.0
81.105949 152.0
81.134628 148.0
81.168694 208.0
81.205681 260.0
81.21891 196.0
81.354851 180.0
81.42778 204.0
81.591843 172.0
81.75071 160.0
81.963196 168.0
82.013657 224.0
82.161522 180.0
82.192192 212.0
82.245644 180.0
82.374535 180.0
82.4207 188.0
82.462036 132.0
82.493805 184.0
82.786461 144.0
83.129532 192.0
83.209396 196.0
83.355629 156.0
83.521957 144.0
83.587448 148.0
83.766678 136.0
83.807777 160.0
83.825996 148.0
83.9226 148.0
83.979134 140.0
84.030212 192.0
84.161621 156.0
84.278519 148.0
84.294373 160.0
84.432076 212.0
84.450363 204.0
84.572952 196.0
84.603691 176.0
84.631531 160.0
84.695625 168.0
85.268074 140.0
85.284615 196.0
85.360924 176.0
85.376541 160.0
85.407806 160.0
85.442757 180.0
85.545815 144.0
85.729492 176.0
85.887398 168.0
85.912537 288.0
85.984497 208.0
86.086029 140.0
86.143288 172.0
86.250465 260.0
86.439102 172.0
86.642769 236.0
86.850708 208.0
86.91346 140.0
86.972847 140.0
87.134407 168.0
87.147415 168.0
87.180862 160.0
87.197586 152.0
87.303551 216.0
87.340752 140.0
87.526237 180.0
87.562241 160.0
87.714508 136.0
87.748581 156.0
87.996719 144.0
88.190994 180.0
88.208763 160.0
88.434143 176.0
88.507156 196.0
88.634521 144.0
88.718864 152.0
88.788239 156.0
88.805122 216.0
88.855766 208.0
88.897049 144.0
88.928993 176.0
89.146805 184.0
89.22049 176.0
89.783104 228.0
90.009552 184.0
90.075653 200.0
90.277885 256.0
90.293015 180.0
90.342194 152.0
90.448158 232.0
90.482231 164.0
90.537148 176.0
90.618599 152.0
90.700455 184.0
90.838509 200.0
90.961853 144.0
91.071983 188.0
91.130867 156.0
91.165421 196.0
91.203087 160.0
91.241104 168.0
91.262016 176.0
91.448799 216.0
91.657928 436.0
91.775948 140.0
91.829498 156.0
91.935104 180.0
92.133003 176.0
92.433182 196.0
92.545677 160.0
92.593987 264.0
92.689766 164.0
92.845802 152.0
92.874413 216.0
92.927528 140.0
92.948631 152.0
93.044601 180.0
93.196327 180.0
93.227074 172.0
93.284729 164.0
93.478989 232.0
93.783272 192.0
93.918243 160.0
93.956825 156.0
94.062958 220.0
94.088058 160.0
94.153709 144.0
94.203926 164.0
94.380859 160.0
94.412666 148.0
94.534546 196.0
94.567444 184.0
94.722343 152.0
94.856812 264.0
95.018677 172.0
95.069397 204.0
95.185867 156.0
95.20723 168.0
95.319901 276.0
95.341278 360.0
95.364601 148.0
95.58046 164.0
95.636902 192.0
95.733093 196.0
96.004074 856.0
96.073387 152.0
96.14534 252.0
96.202187 240.0
96.286148 188.0
96.34758 180.0
96.508911 184.0
96.919952 156.0
96.949348 160.0
96.963066 144.0
97.003883 184.0
97.053238 168.0
97.09063 120.0
97.11599 176.0
97.290634 156.0
97.339722 204.0
97.355431 156.0
97.445152 212.0
97.589264 204.0
97.604988 232.0
97.618713 172.0
97.754486 188.0
97.780075 164.0
97.852646 152.0
97.95137 156.0
97.99865 172.0
98.115707 132.0
98.166199 192.0
98.186089 180.0
98.444435 160.0
98.818024 152.0
99.168526 152.0
99.186043 148.0
99.275581 184.0
99.297394 192.0
99.42437 152.0
99.487885 200.0
99.527596 144.0
99.843552 212.0
99.948982 188.0
100.084335 216.0
100.106239 180.0
100.171959 196.0
100.445053 144.0
100.614677 156.0
100.640427 176.0
100.664589 228.0
100.90036 224.0
101.018929 180.0
101.062363 160.0
101.424843 232.0
101.511497 144.0
101.569214 164.0
101.735764 180.0
101.924561 168.0
102.179909 140.0
102.389244 148.0
102.427513 188.0
102.447662 184.0
102.655258 236.0
102.710495 228.0
102.762306 168.0
102.817009 176.0
102.834808 208.0
102.857544 168.0
102.95594 168.0
103.184273 172.0
103.317749 176.0
103.499123 156.0
103.550529 140.0
103.740997 152.0
103.858612 248.0
104.05748 160.0
104.496483 192.0
104.792694 180.0
104.842644 300.0
104.867096 188.0
104.995537 172.0
105.045708 188.0
105.250618 144.0
105.450821 160.0
105.563255 140.0
105.635696 184.0
105.800598 164.0
105.870216 168.0
105.912926 164.0
106.021812 224.0
106.036163 140.0
106.308304 200.0
106.446457 152.0
106.596405 184.0
106.789658 160.0
106.859596 232.0
107.034546 144.0
107.081917 280.0
107.296219 188.0
107.370499 152.0
107.42614 172.0
107.460045 156.0
107.527245 176.0
107.572647 180.0
107.779175 176.0
107.808105 248.0
107.843239 220.0
108.050026 180.0
108.076927 192.0
108.097618 156.0
108.116241 228.0
108.147285 140.0
108.213715 176.0
108.236305 200.0
108.263573 196.0
108.386757 252.0
108.480774 140.0
108.628235 148.0
108.725525 168.0
109.018341 140.0
109.208336 196.0
109.407295 204.0
109.428116 160.0
109.673927 212.0
109.696266 268.0
109.84491 160.0
109.91584 180.0
109.939674 152.0
110.000984 212.0
110.040565 388.0
110.12252 160.0
110.261292 284.0
110.348206 172.0
110.373291 168.0
110.482048 240.0
110.530174 164.0
110.657852 168.0
110.682976 144.0
110.749992 148.0
111.013771 604.0
111.056854 164.0
111.093758 220.0
111.121033 148.0
111.219666 184.0
111.404633 184.0
111.822884 156.0
111.886032 180.0
111.946198 196.0
112.019913 480.0
112.366547 180.0
112.556107 148.0
112.748741 160.0
112.799469 152.0
112.968636 156.0
113.178162 164.0
113.642342 232.0
113.682846 180.0
113.894966 220.0
113.939575 256.0
114.058998 164.0
114.076721 164.0
114.194656 164.0
114.211678 168.0
114.258476 208.0
114.303101 148.0
114.539474 200.0
114.657814 148.0
114.827209 176.0
114.847023 216.0
115.051262 236.0
115.187927 200.0
115.248024 184.0
115.32682 152.0
115.343918 188.0
115.399498 212.0
115.425156 172.0
115.487175 144.0
115.56633 228.0
115.656212 148.0
115.836075 148.0
115.867233 140.0
115.904633 312.0
116.544044 176.0
116.565536 192.0
116.653656 156.0
116.709549 176.0
116.814934 228.0
116.843811 160.0
116.857269 212.0
116.877319 216.0
116.909599 196.0
116.950493 224.0
117.064598 192.0
117.145073 240.0
117.267105 176.0
117.372742 148.0
117.420601 144.0
117.47094 240.0
117.668335 192.0
117.694244 180.0
117.759026 176.0
117.858398 148.0
117.940521 144.0
117.957809 188.0
118.02916 220.0
118.044296 168.0
118.262794 216.0
118.345062 144.0
118.496674 140.0
118.522675 164.0
118.561676 148.0
118.61586 168.0
118.890228 144.0
118.919525 164.0
119.012871 180.0
119.608887 180.0
119.656433 204.0
119.765434 228.0
119.826317 140.0
119.877686 180.0
119.941811 148.0
120.194794 216.0
120.242805 148.0
120.25808 164.0
120.445854 216.0
120.474258 140.0
120.493271 216.0
120.539803 220.0
120.662201 156.0
120.710304 148.0
120.802162 156.0
120.99369 192.0
121.02758 144.0
121.07576 144.0
121.104996 228.0
121.264175 164.0
121.311348 168.0
121.803932 212.0
121.8237 168.0
121.850067 172.0
121.883026 188.0
121.933563 172.0
121.98201 168.0
122.006813 2720.0
122.122643 160.0
122.412674 204.0
122.468208 168.0
122.6026 180.0
122.761322 164.0
122.851753 156.0
122.902542 184.0
122.942215 204.0
123.009514 840.0
123.063622 168.0
123.12545 140.0
123.337555 212.0
123.596306 156.0
123.614006 148.0
123.678185 168.0
123.890762 204.0
123.961662 228.0
123.999306 2096.0
124.05999 184.0
124.096878 172.0
124.174492 192.0
124.229561 232.0
124.318687 152.0
124.438553 144.0
124.782921 208.0
124.956398 180.0
125.018745 200.0
125.384163 156.0
125.421822 148.0
125.49762 148.0
125.517685 188.0
125.560059 184.0
125.861313 164.0
125.961815 176.0
126.002861 388.0
126.178581 148.0
126.205414 240.0
126.388824 240.0
126.520874 232.0
126.561172 196.0
126.94883 160.0
127.00251 2272.0
127.07444 160.0
127.090141 164.0
127.294403 168.0
127.375259 208.0
127.456139 140.0
127.597733 164.0
127.764046 164.0
127.81366 192.0
127.941948 208.0
127.962204 200.0
128.004425 600.0
128.031769 288.0
128.385834 172.0
128.477585 176.0
128.536972 164.0
128.715286 144.0
128.900513 228.0
128.966782 136.0
128.999649 284.0
129.033875 176.0
129.180862 144.0
129.228378 152.0
129.479645 212.0
129.556656 196.0
129.683548 152.0
129.755234 148.0
129.851318 220.0
130.087234 148.0
130.166763 180.0
130.380295 200.0
130.739624 196.0
130.896698 152.0
130.953629 140.0
131.006012 328.0
131.243515 168.0
131.391296 160.0
131.6241 148.0
131.649216 172.0
131.765701 152.0
131.85939 192.0
131.937103 168.0
132.451996 156.0
132.701782 164.0
132.787842 160.0
132.809555 164.0
132.8302 204.0
132.857727 152.0
132.933914 140.0
133.041428 876.0
133.236526 172.0
133.291672 172.0
133.374405 196.0
133.397385 152.0
133.418076 176.0
133.604355 168.0
133.634262 168.0
134.039505 204.0
134.205475 204.0
134.242371 184.0
134.265427 180.0
135.018311 260.0
135.249664 168.0
135.780243 144.0
135.989044 172.0
136.046082 152.0
136.102798 172.0
136.388748 136.0
136.40715 140.0
136.439697 152.0
136.79097 144.0
136.82016 288.0
136.856155 164.0
136.886414 208.0
137.017853 320.0
137.11705 160.0
137.218506 144.0
137.265503 236.0
137.329208 232.0
137.385193 160.0
137.45752 168.0
137.662949 184.0
137.842819 164.0
137.894226 216.0
137.96109 192.0
138.025558 11908.0
138.108505 172.0
138.200562 208.0
138.37529 184.0
138.645477 140.0
138.81192 144.0
138.901047 140.0
138.985504 184.0
139.008698 256.0
139.027924 1240.0
139.08876 176.0
139.173279 156.0
139.340027 172.0
139.434021 152.0
139.622101 164.0
139.649094 184.0
139.782074 148.0
140.021927 376.0
140.114059 220.0
140.399261 152.0
140.420486 204.0
140.646317 128.0
140.806702 168.0
140.961105 180.0
141.024918 144.0
141.289749 184.0
141.30632 156.0
141.35614 140.0
141.451767 108.0
141.820175 152.0
141.881821 252.0
142.013306 380.0
142.058289 212.0
142.095459 184.0
142.206787 160.0
142.289871 208.0
142.326309 116.0
142.353973 196.0
142.432358 232.0
142.511917 156.0
142.641464 140.0
142.838821 156.0
142.863922 196.0
142.974442 144.0
142.996658 204.0
143.020264 220.0
143.42453 200.0
143.614822 448.0
143.694061 228.0
143.873047 160.0
144.024246 164.0
144.083206 148.0
144.133377 216.0
144.986938 232.0
145.133911 184.0
145.150696 164.0
145.337784 152.0
145.354584 144.0
145.534607 172.0
145.623459 184.0
145.64267 192.0
145.717133 152.0
145.735733 232.0
145.938263 164.0
146.026428 204.0
146.11142 160.0
146.234146 152.0
146.535156 216.0
146.706268 152.0
146.771057 196.0
146.907654 156.0
146.971558 176.0
147.01741 476.0
147.315781 144.0
147.340958 176.0
147.498032 224.0
147.591248 212.0
147.689056 140.0
147.705978 168.0
147.817276 184.0
147.94313 192.0
148.027878 168.0
148.078735 184.0
148.258011 148.0
148.294357 152.0
148.314819 200.0
148.489883 124.0
148.578064 176.0
148.750366 148.0
148.769791 168.0
148.786774 212.0
148.869583 196.0
148.905762 160.0
148.98204 188.0
149.019012 6280.0
149.126938 116.0
149.416229 160.0
149.614548 172.0
149.671783 180.0
149.778824 160.0
149.816986 136.0
149.876389 188.0
149.992874 180.0
150.025421 12140.0
150.159164 184.0
150.234787 148.0
150.26973 124.0
150.616684 196.0
150.704529 216.0
150.757294 204.0
150.848495 176.0
150.881943 168.0
151.027405 1180.0
151.179047 112.0
151.232224 124.0
151.493759 164.0
151.702774 164.0
151.765793 140.0
152.020859 244.0
152.220367 232.0
152.320816 152.0
152.382736 164.0
152.546509 180.0
152.639938 204.0
152.696228 264.0
152.762253 196.0
153.01123 132.0
153.196167 180.0
153.220795 180.0
153.408096 176.0
153.489456 276.0
153.880035 188.0
154.024994 180.0
154.185593 172.0
154.267151 180.0
154.296829 180.0
154.366058 160.0
154.433472 140.0
154.509506 176.0
154.578735 164.0
154.610962 172.0
154.88826 156.0
154.935333 212.0
155.0457 164.0
155.247635 172.0
155.274918 192.0
155.609909 144.0
155.926483 136.0
156.215271 172.0
156.292175 104.0
156.31459 188.0
156.387985 176.0
156.727905 176.0
156.774017 144.0
156.801422 208.0
156.870224 192.0
156.985184 176.0
157.485046 156.0
157.542709 140.0
157.709915 196.0
157.764908 168.0
157.799911 144.0
158.292831 184.0
158.473175 156.0
158.648605 212.0
158.728836 168.0
158.861771 200.0
159.095154 164.0
159.300049 176.0
159.474442 208.0
159.530792 140.0
160.007736 144.0
160.103424 156.0
160.156311 152.0
160.25708 184.0
160.506607 184.0
160.906937 192.0
160.94313 168.0
160.991104 168.0
161.117401 248.0
161.253845 220.0
162.058563 164.0
162.091507 204.0
162.307007 212.0
162.451523 148.0
162.819565 216.0
162.872894 172.0
162.956726 156.0
163.022858 160.0
163.11937 168.0
163.182922 148.0
163.237701 96.0
163.261749 188.0
163.561981 228.0
163.685486 184.0
163.824265 180.0
163.844635 192.0
164.032242 9028.0
164.249954 216.0
164.360565 224.0
164.447067 160.0
164.60025 252.0
164.883163 144.0
164.906158 144.0
164.931717 180.0
165.011658 932.0
165.03273 592.0
165.210449 152.0
165.236023 176.0
165.310699 124.0
165.331818 120.0
165.407486 184.0
165.725861 152.0
165.771225 176.0
165.803497 188.0
165.837799 172.0
165.869751 312.0
165.940338 148.0
165.958282 140.0
165.976242 272.0
166.020447 30820.0
166.090027 184.0
166.111862 172.0
166.186569 160.0
166.289734 392.0
166.350815 144.0
166.730942 160.0
166.800903 200.0
167.023636 3448.0
167.082245 244.0
167.305573 140.0
167.592987 200.0
167.897171 196.0
168.015396 1724.0
168.19313 124.0
168.219696 144.0
168.246872 108.0
168.299728 212.0
168.341034 200.0
168.36792 108.0
168.4823 116.0
168.601959 152.0
169.022949 1332.0
169.202057 204.0
169.423615 180.0
169.621719 168.0
169.782471 148.0
170.011826 312.0
170.060074 168.0
170.084824 180.0
170.182648 128.0
170.462616 212.0
170.886444 140.0
170.988052 168.0
171.052994 180.0
171.404648 168.0
171.516113 192.0
171.628754 212.0
171.764359 140.0
171.826447 120.0
172.001816 168.0
172.134964 176.0
172.168915 148.0
172.388351 168.0
172.440613 140.0
172.602707 228.0
172.694229 144.0
172.830261 188.0
172.923752 204.0
173.084167 216.0
173.238678 140.0
173.262268 152.0
173.485016 160.0
173.726273 148.0
173.778748 176.0
173.927795 116.0
174.018478 120.0
174.059601 144.0
174.311768 140.0
174.691345 172.0
175.024338 156.0
175.090439 272.0
175.148651 200.0
175.237961 176.0
175.39949 220.0
175.458023 184.0
175.690018 180.0
175.733627 256.0
175.876129 172.0
175.928925 204.0
175.966766 176.0
176.005203 144.0
176.032562 5848.0
176.211517 192.0
176.232651 168.0
176.285126 144.0
176.395081 120.0
176.630814 164.0
176.922928 164.0
176.975876 204.0
177.036255 672.0
177.124176 176.0
177.219559 200.0
177.840088 188.0
177.866638 156.0
177.996719 160.0
178.142792 212.0
178.233124 220.0
178.347397 148.0
178.449692 208.0
178.477661 180.0
178.605316 140.0
178.711731 216.0
178.775589 228.0
178.79422 196.0
178.953934 188.0
179.068436 176.0
179.358856 168.0
179.489502 156.0
179.620178 148.0
179.838974 272.0
179.980469 192.0
180.08194 348.0
180.314377 180.0
180.418625 180.0
180.696762 164.0
180.734222 164.0
180.999084 180.0
181.023315 164.0
181.570007 160.0
181.894653 192.0
182.144379 172.0
182.254318 208.0
182.296326 168.0
182.488373 164.0
182.649719 148.0
182.800385 180.0
183.016479 156.0
183.042648 188.0
183.101898 216.0
183.336273 200.0
183.767715 148.0
183.813583 172.0
183.886444 156.0
183.908035 196.0
184.030319 228.0
184.110519 200.0
184.215866 212.0
184.532059 164.0
184.737595 192.0
184.797104 240.0
184.826874 172.0
184.948654 144.0
185.000946 176.0
185.349472 204.0
185.419922 144.0
185.449738 184.0
185.514786 220.0
185.544617 168.0
185.60968 164.0
185.696457 176.0
185.818527 180.0
185.997635 224.0
186.220291 188.0
186.587128 144.0
186.652451 148.0
186.704041 216.0
186.899902 180.0
187.068649 164.0
187.403625 164.0
187.629837 192.0
187.931183 164.0
187.989868 140.0
188.031464 168.0
188.10434 128.0
188.18367 172.0
188.680908 228.0
188.765976 148.0
188.817627 196.0
189.020203 164.0
189.055649 180.0
189.280106 164.0
189.548553 152.0
189.751373 220.0
189.872025 184.0
189.976379 188.0
190.206757 200.0
190.451141 164.0
190.550034 140.0
190.681931 204.0
190.932114 172.0
190.998123 156.0
191.1577 216.0
191.474274 204.0
191.68364 160.0
191.70845 184.0
191.791122 148.0
191.860046 152.0
192.065643 180.0
192.467026 340.0
192.547104 156.0
192.61615 192.0
192.781921 204.0
192.804031 184.0
192.853226 180.0
192.99469 19016.0
193.309509 240.0
193.373749 188.0
193.400009 148.0
193.645081 144.0
193.744797 172.0
193.830688 208.0
193.998718 1260.0
194.052429 208.0
194.268753 156.0
194.373444 180.0
194.549026 168.0
194.873062 172.0
194.987198 1152.0
195.211166 140.0
195.243668 168.0
195.280502 184.0
195.591461 180.0
195.828888 188.0
195.99527 152.0
196.084442 152.0
196.207092 168.0
196.558517 164.0
196.954956 200.0
197.220398 176.0
197.427292 148.0
197.502808 184.0
197.763016 144.0
197.894592 188.0
198.361496 196.0
198.384857 140.0
198.438126 176.0
198.491409 196.0
198.670319 152.0
199.089127 168.0
199.330704 176.0
199.453934 264.0
199.488098 396.0
199.617432 188.0
199.926865 160.0
200.405563 256.0
200.597198 196.0
200.63385 184.0
200.701523 192.0
200.755096 204.0
200.84816 140.0
201.361847 204.0
201.811157 160.0
201.917496 192.0
202.035263 1796.0
202.518707 152.0
202.837891 208.0
202.868515 160.0
202.923874 168.0
203.038864 624.0
203.403305 192.0
203.644653 152.0
203.877609 156.0
203.937302 156.0
203.996994 140.0
204.043137 172.0
204.090805 172.0
204.61293 280.0
204.67981 204.0
204.788025 184.0
204.961792 140.0
205.30957 188.0
205.44223 292.0
205.470383 180.0
205.774689 168.0
205.997437 232.0
206.491928 192.0
206.531967 164.0
206.572006 152.0
206.872482 148.0
207.050003 164.0
207.236191 152.0
207.276306 200.0
207.343903 184.0
207.426422 180.0
207.471207 216.0
207.522812 152.0
207.554352 212.0
207.591629 200.0
207.617447 224.0
207.874359 164.0
207.971039 160.0
208.004898 21840.0
208.162674 160.0
208.573425 132.0
208.623901 204.0
208.746017 156.0
208.912827 188.0
209.007187 1588.0
209.171631 180.0
209.315765 152.0
209.586533 204.0
209.612457 172.0
209.819992 220.0
210.001602 860.0
210.310379 176.0
210.394089 168.0
210.427139 224.0
210.520615 176.0
210.577667 104.0
210.679443 128.0
210.709305 248.0
210.80423 164.0
210.90004 216.0
210.966095 144.0
211.001587 200.0
211.277283 212.0
211.559128 176.0
211.579391 164.0
211.660461 180.0
211.848709 248.0
212.018723 148.0
212.217682 180.0
212.405273 156.0
212.460129 340.0
212.52713 180.0
212.831894 164.0
213.084579 172.0
213.220139 148.0
213.366486 172.0
213.548538 212.0
213.572952 168.0
213.930862 156.0
214.067703 204.0
214.525146 148.0
214.991806 208.0
215.020996 248.0
215.164032 140.0
215.426865 208.0
215.850647 168.0
215.90036 148.0
215.959518 192.0
216.163635 204.0
216.210464 160.0
216.295334 172.0
216.668991 124.0
216.796173 156.0
216.878235 188.0
216.922195 220.0
217.051193 192.0
217.432556 212.0
217.614548 144.0
217.96701 188.0
217.987885 460.0
218.305069 232.0
218.39624 152.0
218.469772 176.0
218.637207 208.0
218.996872 264.0
219.096832 152.0
219.191116 156.0
219.25267 148.0
219.3591 212.0
219.570236 164.0
219.606781 140.0
219.828049 148.0
219.978577 156.0
220.202972 168.0
220.344757 168.0
220.681686 204.0
220.799881 124.0
220.867996 152.0
221.030716 204.0
221.199417 200.0
221.3741 200.0
221.433319 160.0
221.465897 200.0
221.711807 224.0
221.746552 232.0
221.865936 248.0
222.120972 184.0
222.352402 200.0
222.485962 164.0
222.530502 160.0
222.58989 196.0
222.699768 168.0
222.782944 156.0
222.984222 200.0
223.451996 156.0
223.597656 148.0
223.65123 168.0
223.758392 232.0
223.794128 188.0
224.440186 164.0
224.537964 220.0
225.509415 184.0
225.614044 152.0
225.844284 180.0
226.011826 168.0
227.000305 168.0
227.069275 168.0
227.512268 196.0
227.729568 180.0
227.831223 176.0
228.057068 200.0
228.09314 184.0
228.297592 144.0
228.42691 140.0
228.809097 152.0
228.974716 244.0
229.001816 156.0
229.053024 168.0
229.137375 156.0
229.330231 140.0
229.4478 216.0
229.520157 140.0
229.83989 144.0
229.966629 176.0
230.755066 184.0
231.184586 208.0
231.233002 140.0
231.711441 152.0
231.806549 204.0
232.005402 164.0
232.045578 208.0
232.482086 200.0
232.545334 168.0
232.633362 164.0
232.684967 312.0
232.827682 156.0
232.946136 164.0
233.087189 180.0
233.121704 148.0
233.23642 184.0
233.26178 184.0
233.298645 156.0
233.344254 196.0
233.494232 236.0
233.561234 160.0
233.596542 188.0
233.67485 160.0
233.692444 216.0
233.715317 140.0
233.870712 124.0
233.906265 164.0
234.007233 776.0
234.093521 144.0
234.144638 224.0
234.19487 428.0
234.215332 220.0
234.26123 192.0
234.299408 344.0
234.320038 364.0
234.337555 296.0
234.400543 212.0
234.460098 368.0
234.516464 436.0
234.535828 328.0
234.559799 552.0
234.595886 528.0
234.65004 224.0
234.68158 184.0
234.743835 128.0
234.773727 380.0
234.79628 216.0
234.828735 148.0
234.856491 176.0
234.8992 404.0
234.953949 512.0
234.965714 508.0
235.017273 300728.0
235.133163 1052.0
235.182877 148.0
235.216431 112.0
235.287186 264.0
235.320282 360.0
235.356216 280.0
235.476944 196.0
235.518814 6224.0
235.545166 216.0
235.601288 324.0
235.648651 272.0
235.695648 212.0
235.749817 172.0
235.780609 200.0
235.819305 308.0
235.845993 112.0
235.879105 232.0
235.909164 180.0
236.018127 38976.0
236.122986 420.0
236.16188 260.0
236.206955 184.0
236.322937 200.0
236.436508 188.0
236.487946 204.0
236.558304 164.0
236.613937 152.0
236.88739 156.0
237.012726 17684.0
237.098938 124.0
237.122833 128.0
237.150604 124.0
237.203827 164.0
237.235031 236.0
237.272491 156.0
237.292023 132.0
237.336166 108.0
237.36409 116.0
237.425354 344.0
237.469147 140.0
237.507553 232.0
237.538605 300.0
237.590073 268.0
237.624573 240.0
237.673981 260.0
237.71463 332.0
237.768448 160.0
237.80246 212.0
237.864914 200.0
237.876862 116.0
237.909668 156.0
238.012192 772.0
238.509003 196.0
238.546234 200.0
239.394104 128.0
239.42485 116.0
240.371399 232.0
241.229401 228.0
248.093735 192.0
248.378693 128.0
248.714828 148.0
249.754868 144.0
253.027054 504.0
259.357086 148.0
269.499725 148.0
301.592316 152.0
354.72168 140.0
516.447449 140.0
868.104919 192.0
1022.392517 192.0
1150.045776 236.0
1192.101807 160.0
1197.233765 200.0
1273.403564 172.0
1293.203125 148.0
1300.226807 256.0
1314.316772 160.0
1316.345093 168.0
1318.736328 172.0
1347.535034 216.0
1378.28125 148.0
1380.095459 172.0
1383.039795 164.0
1388.974976 216.0
1392.448608 148.0
1409.097168 184.0
1438.626831 212.0
1440.288086 144.0
1440.816895 188.0
1442.237549 200.0
1454.705688 184.0
1456.824341 148.0
1466.129883 212.0
1469.507812 208.0
1480.231689 148.0
1482.874634 240.0
1484.047485 228.0
1487.085327 144.0
1491.324951 144.0
1498.581787 176.0
1498.868408 240.0
1500.46228 252.0
1506.852661 180.0
1508.220459 168.0
1515.944336 148.0
1528.236084 212.0
1534.466919 256.0
1541.069824 164.0
1542.609375 212.0
1549.088745 196.0
1550.679321 168.0
1553.243286 148.0
1554.286743 208.0
1561.608398 144.0
1578.587769 168.0
1589.987549 168.0
1598.490601 196.0
1602.471802 224.0
1602.93396 188.0
1604.894775 164.0
1609.338989 176.0
1613.509521 152.0
1618.213867 212.0
1620.696777 204.0
1621.922852 144.0
1622.556152 152.0
1627.225464 156.0
1630.567139 160.0
1634.467285 200.0
1635.634277 140.0
1641.394653 152.0
1642.394653 156.0
1647.940674 144.0
1650.510986 220.0
1662.288696 260.0
1666.738525 160.0
1667.486206 164.0
1671.031494 180.0
1676.454468 160.0
1678.924561 144.0
1679.462891 212.0
1685.96167 148.0
1688.021729 144.0
1690.860474 180.0
1691.736206 164.0
1706.108887 140.0
1711.711914 156.0
1713.005005 164.0
1718.660645 188.0
1719.997559 188.0
1725.367065 176.0
1725.501953 172.0
1734.804443 188.0
1737.557739 180.0
1737.956055 188.0
1741.833008 148.0
1744.483765 144.0
1745.306885 180.0
1746.546021 212.0
1750.749023 176.0
1753.273193 168.0
1763.388306 248.0
1768.624146 140.0
1771.86499 192.0
1779.984009 208.0
1783.462036 140.0
1784.723022 204.0
1791.666504 172.0
1798.868286 212.0
1799.19751 212.0
1801.038452 204.0
1801.224243 148.0
1803.074585 208.0
1806.803589 180.0
1807.43811 280.0
1813.696533 216.0
1816.443848 164.0
1818.463379 168.0
1819.108398 160.0
1823.593262 148.0
1824.536743 144.0
1825.259521 176.0
1826.815918 212.0
1827.249756 180.0
1832.630615 148.0
1841.9552 228.0
1843.236694 168.0
1843.894653 176.0
1846.083252 160.0
1846.228638 204.0
1846.852905 144.0
1850.823853 160.0
1852.476685 160.0
1853.761841 216.0
1854.876099 164.0
1856.024902 140.0
1856.985352 176.0
1858.014648 192.0
1859.72229 140.0
1859.911133 176.0
1860.005615 180.0
1860.958496 152.0
1867.652954 156.0
1869.072388 212.0
1870.019043 228.0
1870.268677 156.0
1873.997437 180.0
1877.359131 160.0
1877.445435 148.0
1879.127441 192.0
1885.016113 176.0
1893.341064 164.0
1894.351562 184.0
1901.123047 164.0
1901.800049 208.0
1902.807007 184.0
1903.440796 148.0
1913.683472 184.0
1914.867798 148.0
1918.832642 164.0
1922.941162 144.0
1924.294189 200.0
1925.979614 168.0
1929.545044 160.0
1930.296875 236.0
1932.859863 240.0
1933.122437 192.0
1933.682495 180.0
1936.501709 216.0
1936.773193 156.0
1937.053467 448.0
1938.875977 204.0
1939.156372 184.0
1939.936523 160.0
1942.970825 244.0
1947.693604 180.0
1947.930664 176.0
1948.572021 144.0
1950.364746 140.0
1951.076782 188.0
1952.18457 216.0
1952.800171 176.0
1953.002563 140.0
1954.348511 176.0
1954.58606 204.0
1956.372681 232.0
1957.270752 160.0
1960.803223 192.0
1961.499512 184.0
1964.030151 160.0
1966.588989 152.0
1974.266479 172.0
1975.540039 224.0
1976.911499 204.0
1979.903687 180.0
1980.496826 148.0
1981.55127 216.0
1981.994263 152.0
1983.91748 144.0
1985.894897 200.0
1986.524658 180.0
1990.394287 180.0
1990.989258 160.0
1993.210083 144.0
1993.752075 196.0
1994.196411 156.0
1998.429321 164.0
1998.553955 176.0
1998.692261 136.0
1999.390381 192.0
