>compound MLS001056780-01!A-77636 hydrochloride
>formula C20H27NO3
>ionization [M+H]+
>parentmass 330.206665
#inchi InChI=1S/C20H27NO3/c21-10-17-14-1-2-16(22)19(23)15(14)6-18(24-17)20-7-11-3-12(8-20)5-13(4-11)9-20/h1-2,11-13,17-18,22-23H,3-10,21H2/t11?,12?,13?,17-,18-,20?/m0/s1
#inchikey QLJOSZATCBCBDR
#origInchi InChI=1S/C20H27NO3.ClH/c21-10-17-14-1-2-16(22)19(23)15(14)6-18(24-17)20-7-11-3-12(8-20)5-13(4-11)9-20;/h1-2,11-13,17-18,22-23H,3-10,21H2;1H/t11?,12?,13?,17-,18-,20?;/m0./s1
#Ion_Source LC-ESI
#Instrument qTof
#Compound_Source NIH Pharmacologically Active Library
#PI Dorrestein
#Data_Collector VP/LMS
#Scan -1
#Precursor_MZ 330.204
#ExactMass 329.199
#Charge 1
#CAS_Number N/A
#Pubmed_ID N/A
#Smiles NC[C@@H]1O[C@@H](Cc2c(O)c(O)ccc12)C3(CC4CC5CC(C4)C3)C5.Cl
#INCHI_AUX N/A
#Library_Class 1
#SpectrumID CCMSLIB00000085972
#IonMode Positive
#UpdateWorkflowName UPDATE-SINGLE-ANNOTATED-GOLD
#LibraryQualityString Gold
#TaskID d252d724072548979f1f6f1ced849daf
##Scan# 1696
#SpectrumFile p4-H10_GH10_01_18418.mzXML
#LibraryName Pharm_Active_Library.mgf
#MQScore -1
#Organism Pharm_Active_Library
#TIC_Query 0
#RT_Query -1
#MZErrorPPM -1
#SharedPeaks 0
#MassDiff 0
#LibMZ -1
#SpecMZ 330.204
#SpecCharge 0
#internalFilename spec-00000.mgf

>collision 10
44.900154 200.0
44.968197 120.0
45.018932 216.0
45.119831 156.0
45.136528 180.0
45.207424 160.0
45.314384 132.0
45.365475 196.0
45.4701 136.0
45.558723 128.0
45.624577 192.0
45.745655 204.0
45.802212 212.0
45.977489 184.0
46.020687 164.0
46.047695 224.0
46.219383 148.0
46.293598 228.0
46.312798 172.0
46.392719 192.0
46.541992 136.0
46.569153 148.0
46.597683 124.0
46.777199 52.0
46.823494 164.0
46.866772 156.0
46.914787 40.0
46.93251 112.0
46.997986 180.0
47.185062 132.0
47.223392 156.0
47.257595 156.0
47.276752 120.0
47.309601 224.0
47.339725 124.0
47.457569 132.0
47.535759 196.0
47.596157 128.0
47.849152 164.0
47.884953 128.0
47.918015 228.0
47.952465 188.0
47.997959 140.0
48.020023 208.0
48.124905 108.0
48.140739 196.0
48.30595 196.0
48.32217 216.0
48.382065 152.0
48.405605 200.0
48.427761 76.0
48.46101 140.0
48.47348 60.0
48.50536 168.0
48.533085 188.0
48.651016 184.0
48.669067 60.0
48.821926 60.0
48.834442 104.0
48.858299 188.0
48.979202 144.0
48.988953 64.0
49.030754 128.0
49.107437 60.0
49.126968 152.0
49.181389 92.0
49.28194 176.0
49.32666 200.0
49.353226 68.0
49.4062 228.0
49.448353 136.0
49.467949 172.0
49.497349 124.0
49.67675 204.0
49.6992 164.0
49.782021 148.0
49.966911 216.0
50.025261 152.0
50.086231 284.0
50.173363 224.0
50.336857 116.0
50.48241 144.0
50.499382 180.0
50.530506 160.0
50.751461 88.0
50.900452 172.0
51.089489 188.0
51.147831 128.0
51.160908 108.0
51.251797 116.0
51.290276 144.0
51.307384 188.0
51.364426 32.0
51.462898 100.0
51.511456 164.0
51.6115 216.0
51.6959 200.0
51.77034 160.0
51.866337 232.0
51.906479 240.0
51.950939 168.0
52.021259 188.0
52.05859 144.0
52.105141 196.0
52.120361 208.0
52.236816 244.0
52.249763 148.0
52.421108 136.0
52.451374 220.0
52.524918 164.0
52.623867 140.0
52.656265 196.0
52.669209 208.0
52.784885 140.0
52.86879 76.0
52.942623 224.0
52.972336 304.0
53.112198 172.0
53.189106 152.0
53.277687 124.0
53.418701 128.0
53.47049 108.0
53.526405 172.0
53.542423 176.0
53.571556 180.0
53.587582 280.0
53.645878 212.0
53.656082 136.0
53.700783 196.0
53.750889 172.0
53.844284 164.0
53.857468 204.0
54.015335 192.0
54.031425 132.0
54.167572 212.0
54.22765 160.0
54.237911 168.0
54.281895 196.0
54.42276 196.0
54.438911 68.0
54.478569 160.0
54.687378 192.0
54.766888 196.0
54.802246 92.0
54.903957 128.0
55.035294 148.0
55.120144 208.0
55.270317 196.0
55.296955 168.0
55.347286 68.0
55.372463 152.0
55.387276 128.0
55.403568 156.0
55.508804 124.0
55.545975 200.0
55.646801 100.0
55.738113 176.0
55.991791 156.0
56.213921 184.0
56.420044 168.0
56.433502 116.0
56.508286 180.0
56.56815 184.0
56.756927 160.0
56.786919 144.0
57.085785 128.0
57.096313 88.0
57.174545 44.0
57.185081 164.0
57.301033 180.0
57.320621 164.0
57.472919 160.0
57.492535 172.0
57.503536 180.0
57.521214 224.0
57.714596 112.0
57.820488 200.0
57.838654 176.0
57.862873 152.0
57.879528 348.0
57.893719 280.0
57.911331 136.0
58.081764 236.0
58.11599 148.0
58.204029 180.0
58.4305 28.0
58.518776 184.0
58.611687 164.0
58.649788 172.0
58.692474 224.0
58.831318 216.0
58.857273 192.0
58.999367 96.0
59.068184 212.0
59.130917 196.0
59.144691 176.0
59.186028 204.0
59.213593 124.0
59.376053 164.0
59.438198 196.0
59.4589 168.0
59.509556 200.0
59.520306 80.0
59.569454 140.0
59.627693 188.0
59.657047 188.0
59.750858 92.0
59.80164 108.0
59.857063 144.0
59.981857 144.0
60.021946 152.0
60.034283 140.0
60.074383 136.0
60.089306 208.0
60.117588 196.0
60.145367 108.0
60.165436 156.0
60.230293 208.0
60.264282 140.0
60.292099 132.0
60.313736 172.0
60.366302 148.0
60.525032 164.0
60.604687 48.0
60.936726 56.0
61.014435 140.0
61.12331 252.0
61.370979 232.0
61.397488 100.0
61.427124 240.0
61.56916 152.0
61.604897 132.0
61.636333 172.0
61.670715 156.0
61.85722 216.0
61.888168 104.0
61.971184 140.0
61.985287 44.0
62.002525 152.0
62.026035 148.0
62.297512 220.0
62.310081 204.0
62.426399 124.0
62.464146 156.0
62.538101 208.0
62.601078 132.0
62.667236 124.0
62.73196 116.0
62.753925 228.0
62.801235 148.0
62.865921 84.0
62.951168 204.0
63.096035 240.0
63.142391 128.0
63.172443 120.0
63.383018 104.0
63.46703 176.0
63.520954 148.0
63.566883 160.0
63.743229 256.0
63.762299 252.0
63.797272 64.0
63.833839 140.0
63.878372 136.0
63.889511 40.0
63.917786 176.0
63.973854 104.0
64.115616 124.0
64.128365 80.0
64.174599 144.0
64.201706 140.0
64.327759 196.0
64.392769 196.0
64.484291 48.0
64.600464 196.0
64.71946 128.0
64.772308 244.0
64.905327 168.0
65.01281 112.0
65.054543 196.0
65.072197 96.0
65.110741 56.0
65.186241 44.0
65.263405 128.0
65.319695 148.0
65.599693 200.0
65.646645 72.0
65.73053 140.0
65.772789 132.0
65.806396 168.0
65.819313 156.0
65.862915 84.0
65.90007 144.0
65.921082 144.0
66.039101 180.0
66.068214 48.0
66.152367 116.0
66.186371 144.0
66.238197 144.0
66.265221 200.0
66.369469 160.0
66.390549 164.0
66.457062 232.0
66.50737 208.0
66.590179 48.0
66.636681 172.0
66.653534 144.0
66.702293 192.0
66.806366 316.0
66.855873 200.0
66.921921 180.0
67.017418 156.0
67.050758 180.0
67.145782 216.0
67.292038 96.0
67.316528 48.0
67.349197 132.0
67.392677 208.0
67.440697 204.0
67.592789 228.0
67.795853 184.0
67.86544 188.0
67.935226 148.0
68.009064 224.0
68.030403 48.0
68.102654 132.0
68.19796 176.0
68.211105 136.0
68.262077 132.0
68.350906 200.0
68.385132 100.0
68.408508 168.0
68.522141 48.0
68.564987 108.0
68.576523 52.0
68.602493 196.0
68.635872 184.0
68.665558 188.0
68.782707 152.0
68.815727 200.0
68.873528 200.0
68.898308 172.0
69.088425 120.0
69.111588 216.0
69.174477 176.0
69.285431 160.0
69.331833 120.0
69.369949 168.0
69.427986 168.0
69.484383 80.0
69.498543 180.0
69.552422 140.0
69.59227 148.0
69.652054 180.0
69.686943 196.0
69.720177 168.0
69.828239 140.0
69.883141 140.0
69.981339 132.0
69.992996 148.0
70.092941 108.0
70.269684 252.0
70.291374 168.0
70.314743 172.0
70.327766 184.0
70.41658 60.0
70.473381 148.0
70.495102 168.0
70.669006 120.0
70.704147 160.0
70.806274 148.0
70.829727 168.0
70.952057 184.0
70.968826 156.0
71.073677 176.0
71.245758 148.0
71.366768 148.0
71.45591 224.0
71.540054 176.0
71.556892 220.0
71.617516 172.0
71.678169 220.0
71.861961 156.0
71.87883 168.0
71.921028 156.0
71.96154 144.0
72.047676 188.0
72.073021 156.0
72.122032 180.0
72.150764 116.0
72.240402 240.0
72.255623 132.0
72.391037 104.0
72.448502 164.0
72.499458 140.0
72.528267 232.0
72.630013 152.0
72.69278 96.0
73.279419 156.0
73.461601 176.0
73.528725 60.0
73.545448 212.0
73.784607 160.0
73.883804 128.0
73.912888 164.0
73.928291 32.0
73.991623 172.0
74.032005 204.0
74.051559 164.0
74.063545 144.0
74.075539 176.0
74.181786 108.0
74.325096 168.0
74.525032 164.0
74.623001 128.0
74.738243 176.0
74.807465 220.0
74.851852 172.0
74.929359 128.0
74.970718 192.0
75.039665 160.0
75.070328 184.0
75.358971 208.0
75.384895 104.0
75.504181 164.0
75.5578 176.0
75.602791 132.0
75.61837 116.0
75.777679 132.0
75.808868 64.0
75.865196 192.0
75.879944 152.0
75.921486 208.0
76.00135 160.0
76.027382 88.0
76.129807 184.0
76.19429 132.0
76.220139 212.0
76.291397 176.0
76.327911 144.0
76.416618 212.0
76.49511 240.0
76.616837 224.0
76.693512 152.0
76.780258 208.0
76.7929 172.0
76.826042 168.0
76.930748 68.0
76.94297 112.0
77.038094 224.0
77.082703 136.0
77.147377 112.0
77.16835 136.0
77.254051 144.0
77.268044 32.0
77.334541 108.0
77.355545 156.0
77.437843 140.0
77.47113 208.0
77.541222 180.0
77.625366 160.0
77.643227 180.0
77.656937 88.0
77.683174 184.0
77.751678 112.0
77.897415 172.0
78.249146 176.0
78.261467 148.0
78.372437 152.0
78.404152 148.0
78.449982 172.0
78.464088 176.0
78.479958 148.0
78.492302 220.0
78.556183 168.0
78.568138 128.0
78.598137 56.0
78.85067 208.0
78.864807 164.0
78.894859 148.0
78.931992 96.0
78.977974 128.0
79.105377 104.0
79.548553 52.0
79.681747 196.0
79.75914 240.0
79.80439 96.0
79.818611 100.0
79.976952 236.0
80.019676 144.0
80.063118 208.0
80.123665 172.0
80.183556 156.0
80.224556 136.0
80.338692 136.0
80.41185 148.0
80.449333 184.0
80.81572 152.0
80.84256 188.0
81.073578 48.0
81.337234 192.0
81.385712 200.0
81.506058 180.0
81.550987 116.0
81.595924 108.0
81.675049 36.0
81.83522 152.0
81.851425 196.0
82.019913 156.0
82.05864 60.0
82.125359 152.0
82.206551 124.0
82.246254 200.0
82.358757 208.0
82.3853 148.0
82.55159 240.0
82.637634 148.0
82.681847 164.0
82.716232 136.0
82.777794 156.0
82.808578 224.0
82.842995 192.0
82.933601 140.0
83.198441 68.0
83.496445 156.0
83.572845 56.0
83.658386 136.0
83.798622 156.0
83.900688 84.0
83.913445 164.0
84.039299 140.0
84.077621 164.0
84.152458 152.0
84.232819 200.0
84.267525 152.0
84.295128 152.0
84.316864 204.0
84.393646 220.0
84.602219 168.0
84.653481 168.0
84.677292 148.0
84.787216 192.0
84.831436 140.0
84.845871 68.0
84.987099 144.0
85.053169 76.0
85.163338 160.0
85.179871 40.0
85.192726 160.0
85.236824 120.0
85.366745 196.0
85.532928 220.0
85.707893 168.0
85.761337 244.0
85.857208 164.0
85.884872 188.0
85.930992 404.0
85.973434 204.0
86.204277 112.0
86.261574 156.0
86.281906 128.0
86.326279 64.0
86.357719 92.0
86.405823 224.0
86.453926 200.0
86.539078 164.0
86.648354 164.0
86.722481 128.0
86.84671 188.0
86.868965 140.0
86.937622 196.0
87.017433 116.0
87.047142 212.0
87.094597 172.0
87.179039 128.0
87.223648 156.0
87.407768 192.0
87.461746 168.0
87.480354 132.0
87.602997 56.0
87.692703 132.0
87.744904 192.0
87.780327 192.0
87.867996 144.0
87.933304 200.0
88.215363 160.0
88.260231 144.0
88.35936 168.0
88.559662 196.0
88.578392 152.0
88.68895 172.0
88.717064 180.0
89.041687 156.0
89.111191 184.0
89.160049 156.0
89.365013 100.0
89.44458 160.0
89.532555 116.0
89.632393 244.0
89.673851 148.0
89.868095 136.0
89.95491 104.0
89.97567 248.0
89.994293 204.0
90.03421 88.0
90.164566 160.0
90.191025 216.0
90.234505 160.0
90.259087 164.0
90.414207 176.0
90.707794 68.0
90.722961 148.0
90.884171 200.0
90.922127 140.0
91.055038 1524.0
91.075424 340.0
91.134804 140.0
91.159508 212.0
91.227936 172.0
91.273567 204.0
91.303993 236.0
91.334427 184.0
91.364861 52.0
91.419914 180.0
91.423889 168.0
91.513313 204.0
91.534256 144.0
91.639023 140.0
91.732407 112.0
91.783882 44.0
91.85672 168.0
92.035759 184.0
92.056908 320.0
92.119789 240.0
92.209595 240.0
92.276505 140.0
92.31163 140.0
92.54628 56.0
92.607567 152.0
92.80687 184.0
92.85865 192.0
92.943054 48.0
92.97184 116.0
93.004471 32.0
93.03331 160.0
93.070564 5360.0
93.100464 364.0
93.138878 184.0
93.184982 244.0
93.234947 156.0
93.282997 152.0
93.298378 228.0
93.40799 196.0
93.463783 140.0
93.479179 184.0
93.521523 144.0
93.823959 88.0
94.072685 384.0
94.240845 136.0
94.395485 188.0
94.409019 148.0
94.523155 200.0
94.563797 156.0
94.650909 128.0
94.726448 192.0
94.780693 160.0
94.856277 148.0
94.951286 116.0
94.99202 148.0
95.007538 160.0
95.085159 192.0
95.100685 64.0
95.143394 204.0
95.180283 128.0
95.211349 192.0
95.261856 104.0
95.300713 184.0
95.3629 44.0
95.448433 216.0
95.57682 156.0
95.827995 120.0
95.995628 264.0
96.079498 144.0
96.128281 200.0
96.153648 196.0
96.179024 164.0
96.241493 128.0
96.288361 120.0
96.320122 184.0
96.382133 168.0
96.438805 132.0
96.538513 144.0
96.57959 136.0
96.749832 40.0
96.794868 176.0
96.920235 152.0
96.985771 204.0
97.00843 228.0
97.122162 164.0
97.169289 168.0
97.235962 252.0
97.259514 196.0
97.526649 164.0
97.652489 216.0
97.697731 164.0
97.828438 184.0
97.872894 68.0
97.914253 252.0
98.194115 196.0
98.243431 196.0
98.361832 140.0
98.764938 156.0
98.905426 124.0
98.925217 132.0
99.022247 164.0
99.049973 172.0
99.063843 220.0
99.254112 188.0
99.319557 116.0
99.343498 172.0
99.37709 196.0
99.454483 132.0
99.518013 196.0
99.61731 168.0
99.659035 88.0
99.690826 192.0
99.774307 120.0
99.841919 168.0
99.857826 176.0
100.33329 176.0
100.387581 144.0
100.51725 140.0
100.531212 104.0
100.581116 144.0
100.601074 72.0
100.637009 140.0
100.826782 240.0
100.924736 136.0
101.038742 240.0
101.086761 180.0
101.200859 120.0
101.319031 132.0
101.373131 92.0
101.417221 128.0
101.51947 132.0
101.696022 52.0
101.884781 164.0
101.924965 172.0
101.965157 224.0
101.987267 128.0
102.025459 28.0
102.089806 216.0
102.200439 104.0
102.214523 44.0
102.28698 88.0
102.420998 140.0
102.460167 232.0
102.490387 60.0
102.740402 160.0
102.792862 100.0
102.861481 136.0
103.056358 1400.0
103.15641 128.0
103.217064 224.0
103.401154 84.0
103.4963 116.0
103.619858 176.0
103.749565 88.0
103.888077 160.0
104.007187 196.0
104.057518 212.0
104.13105 172.0
104.191986 156.0
104.397285 144.0
104.456268 116.0
104.480675 204.0
104.517303 176.0
104.676079 224.0
104.690331 196.0
104.733101 96.0
104.777916 144.0
104.914467 44.0
105.049057 164.0
105.069534 876.0
105.098022 160.0
105.142914 172.0
105.195984 76.0
105.267448 152.0
105.29808 188.0
105.324631 272.0
105.351189 116.0
105.410446 156.0
105.428833 180.0
105.727417 240.0
105.749931 96.0
105.782684 216.0
105.921928 40.0
106.022324 112.0
106.083817 128.0
106.210953 156.0
106.254036 76.0
106.360748 188.0
106.496269 144.0
106.541458 56.0
106.666817 176.0
106.751114 164.0
106.765503 72.0
106.835442 144.0
106.985672 132.0
107.031166 416.0
107.086136 14824.0
107.153519 172.0
107.30088 32.0
107.323563 64.0
107.350372 124.0
107.386833 212.0
107.418434 152.0
107.449379 80.0
107.555725 196.0
107.585587 168.0
107.765274 144.0
107.976128 180.0
108.069214 180.0
108.089462 1384.0
108.156128 52.0
108.183044 96.0
108.228592 52.0
108.271454 200.0
108.441971 188.0
108.46299 196.0
108.690826 76.0
108.73233 84.0
108.763512 188.0
108.796684 144.0
108.875587 196.0
108.892197 204.0
108.937897 160.0
108.96283 152.0
109.045021 4292.0
109.081284 152.0
109.100517 176.0
109.172768 152.0
109.360016 128.0
109.430794 68.0
109.472443 204.0
109.498047 176.0
109.514091 172.0
109.568253 176.0
109.591171 68.0
109.666199 176.0
109.699547 180.0
109.720398 88.0
109.968628 152.0
110.024994 180.0
110.048134 520.0
110.275658 148.0
110.33419 172.0
110.363464 192.0
110.390648 188.0
110.472725 164.0
110.52034 172.0
110.572655 88.0
110.655998 128.0
110.719208 244.0
110.782043 124.0
110.851189 132.0
110.874237 36.0
111.002121 168.0
111.069229 164.0
111.188828 96.0
111.318985 192.0
111.430313 156.0
111.447121 152.0
111.522774 108.0
111.587944 196.0
111.611076 160.0
111.625793 212.0
111.674164 120.0
111.703613 220.0
111.741478 156.0
111.798294 204.0
111.911964 156.0
111.953804 212.0
112.000412 120.0
112.125969 204.0
112.213264 168.0
112.249107 104.0
112.318703 160.0
112.441078 204.0
112.52552 160.0
112.639153 124.0
112.667023 168.0
112.683784 180.0
112.781136 192.0
112.986259 56.0
113.047615 152.0
113.080734 148.0
113.104759 132.0
113.119583 212.0
113.149216 272.0
113.185211 56.0
113.278923 148.0
113.325012 188.0
113.341965 224.0
113.392822 216.0
113.496696 176.0
113.520027 200.0
113.664268 136.0
113.708839 104.0
113.781013 44.0
113.822289 204.0
113.968536 232.0
114.278351 204.0
114.325165 120.0
114.399658 176.0
114.429466 168.0
114.516777 132.0
114.587074 144.0
114.670181 152.0
114.753723 84.0
114.909012 156.0
114.970894 160.0
115.002907 156.0
115.054642 1892.0
115.120331 40.0
115.192955 132.0
115.368187 184.0
115.502907 108.0
115.61203 192.0
115.759735 212.0
115.781151 128.0
115.80043 224.0
115.909691 144.0
116.014114 144.0
116.058464 108.0
116.207733 204.0
116.295715 176.0
116.529793 60.0
116.650139 144.0
116.783463 112.0
116.856598 216.0
116.893181 196.0
116.961754 144.0
117.030563 160.0
117.060394 432.0
117.068001 152.0
117.222656 140.0
117.377861 200.0
117.436089 104.0
117.708015 180.0
117.794403 176.0
118.064583 152.0
118.07972 228.0
118.133797 108.0
118.285278 172.0
118.343727 96.0
118.37188 168.0
118.410858 228.0
118.590691 180.0
118.653557 160.0
118.889992 88.0
118.968132 172.0
119.005035 92.0
119.031097 228.0
119.047836 220.0
119.070183 152.0
119.089539 136.0
119.133179 236.0
119.185318 120.0
119.359215 72.0
119.511475 164.0
119.526711 224.0
119.661659 144.0
119.731339 176.0
119.770546 208.0
119.992828 52.0
120.075691 192.0
120.138947 116.0
120.422722 128.0
120.444565 180.0
120.475143 152.0
120.501366 184.0
120.599701 204.0
120.794312 148.0
120.856201 236.0
120.978134 188.0
121.032074 180.0
121.044891 748.0
121.070091 344.0
121.103111 204.0
121.179619 144.0
121.223442 80.0
121.240974 156.0
121.640167 180.0
121.758736 140.0
121.788857 168.0
121.796509 120.0
121.80349 192.0
121.958672 112.0
122.046814 336.0
122.083992 140.0
122.191772 220.0
122.409683 144.0
122.460335 128.0
122.482368 72.0
122.497787 172.0
122.614563 220.0
122.676285 180.0
122.691711 132.0
122.801971 92.0
122.960823 144.0
123.002762 140.0
123.060135 3192.0
123.126411 160.0
123.393784 40.0
123.449066 52.0
123.502144 168.0
123.606125 200.0
123.78186 124.0
123.951569 104.0
123.98481 120.0
124.063805 188.0
124.457314 128.0
124.581688 40.0
124.692787 176.0
124.745644 180.0
124.812836 272.0
124.904022 200.0
124.964088 172.0
125.037521 168.0
125.206726 136.0
125.280228 68.0
125.413933 148.0
125.49292 168.0
125.606766 160.0
125.737335 52.0
125.770813 168.0
125.799835 32.0
125.99189 60.0
126.041046 84.0
126.132675 216.0
126.170685 160.0
126.327225 288.0
126.351837 140.0
126.448059 156.0
126.535355 144.0
126.654045 168.0
126.745903 68.0
126.835548 92.0
126.909531 180.0
126.990257 192.0
127.035126 156.0
127.073265 192.0
127.207916 160.0
127.339813 124.0
127.736 152.0
127.866501 152.0
127.94754 176.0
128.063034 220.0
128.09166 168.0
128.28096 156.0
128.407227 116.0
128.501968 128.0
128.538071 96.0
128.565155 148.0
128.583206 92.0
128.671249 176.0
129.067902 212.0
129.132233 220.0
129.245346 196.0
129.399246 184.0
129.752686 208.0
129.850204 68.0
129.918243 44.0
130.065643 832.0
130.101776 152.0
130.122498 116.0
130.465561 152.0
130.813629 172.0
130.884201 164.0
131.053421 268.0
131.063889 276.0
131.125671 436.0
131.260178 192.0
131.292114 148.0
131.355972 124.0
131.371948 228.0
131.397034 104.0
131.762329 192.0
131.865158 180.0
132.048065 176.0
132.219666 200.0
132.350143 116.0
132.444046 124.0
132.603973 120.0
132.612213 200.0
132.661728 172.0
132.722946 200.0
132.85437 152.0
133.021896 180.0
133.044754 1124.0
133.100967 556.0
133.195007 144.0
133.269928 124.0
133.407822 252.0
133.529694 224.0
133.617584 172.0
133.628357 36.0
133.63945 204.0
133.670029 68.0
133.713745 160.0
133.759781 168.0
133.856491 200.0
133.89563 36.0
133.93248 192.0
134.001755 184.0
134.05191 572.0
134.084549 152.0
134.105301 212.0
134.195206 96.0
134.338196 108.0
134.490494 200.0
134.518188 172.0
134.550507 200.0
134.587448 132.0
134.603622 180.0
134.633255 216.0
134.661301 164.0
134.693695 168.0
134.714478 156.0
134.735275 88.0
134.754044 168.0
134.786102 164.0
134.815918 164.0
134.819199 148.0
134.843872 108.0
134.874161 200.0
134.895218 416.0
134.910629 252.0
134.933853 156.0
134.966354 200.0
134.982407 100.0
135.060242 7516.0
135.091095 192.0
135.117935 116552.0
135.175934 164.0
135.219482 40.0
135.241989 72.0
135.274689 120.0
135.296524 52.0
135.322723 124.0
135.342407 40.0
135.375473 196.0
135.38559 148.0
135.409561 64.0
135.457047 120.0
135.475266 84.0
135.498306 1796.0
135.534653 64.0
135.581009 104.0
135.616516 68.0
135.625687 36.0
135.638229 84.0
135.671967 72.0
135.69072 68.0
135.716614 164.0
135.731384 144.0
135.764313 84.0
135.787506 140.0
135.818665 164.0
135.843506 96.0
135.862732 80.0
135.891418 132.0
135.916092 128.0
135.931259 64.0
135.959839 156.0
135.97876 144.0
136.013565 84.0
136.032135 56.0
136.067352 1672.0
136.120377 15512.0
136.161774 188.0
136.191498 256.0
136.208618 40.0
136.226318 52.0
136.243073 188.0
136.266708 52.0
136.29924 84.0
136.319199 88.0
136.32872 52.0
136.333115 124.0
136.367538 68.0
136.387543 88.0
136.418457 112.0
136.512054 80.0
136.552628 32.0
136.576859 68.0
136.617767 104.0
136.645676 224.0
136.67804 44.0
136.694824 160.0
136.719162 76.0
136.745743 188.0
136.766846 116.0
136.803543 72.0
136.812469 108.0
136.847778 92.0
136.88591 76.0
136.952972 48.0
136.99968 184.0
137.019318 140.0
137.064316 516.0
137.070648 200.0
137.124527 932.0
137.157059 168.0
137.172531 124.0
137.195312 68.0
137.217377 60.0
137.259857 100.0
137.266769 68.0
137.305267 52.0
137.381882 48.0
137.398209 92.0
137.447205 72.0
137.470551 80.0
137.696991 64.0
137.768875 200.0
137.811462 72.0
137.837173 200.0
137.8685 148.0
137.947021 44.0
137.982086 84.0
138.049896 172.0
138.07608 60.0
138.095215 148.0
138.1996 104.0
138.321289 116.0
138.577271 84.0
138.996277 160.0
139.038193 208.0
139.106583 96.0
139.249817 64.0
139.390778 56.0
139.644684 56.0
139.708191 192.0
139.905228 72.0
140.002411 132.0
140.278091 48.0
140.759399 72.0
140.915298 96.0
141.073639 160.0
141.345627 84.0
141.423721 92.0
141.594193 152.0
141.62973 48.0
141.667633 140.0
141.890396 212.0
142.372086 156.0
142.443344 208.0
142.785614 180.0
142.818909 116.0
142.937866 56.0
143.011642 204.0
143.048737 1736.0
143.083206 436.0
143.438019 180.0
143.845932 152.0
143.917557 60.0
144.051651 128.0
144.069366 184.0
144.087738 140.0
144.175537 84.0
144.310654 84.0
144.472031 100.0
144.699402 92.0
144.918549 88.0
144.953293 136.0
145.05098 248.0
145.082718 64.0
145.264984 76.0
145.526566 28.0
145.644241 80.0
146.050262 1024.0
146.182785 96.0
146.245361 68.0
146.37056 120.0
146.78743 160.0
146.826019 60.0
146.963516 64.0
147.06044 1188.0
147.11557 176.0
147.233887 124.0
147.521423 68.0
147.671341 116.0
147.947189 168.0
148.02951 164.0
148.066711 1204.0
148.116699 144.0
148.143356 72.0
148.160309 156.0
148.226395 44.0
148.383286 56.0
148.875854 176.0
149.074448 504.0
149.134338 536.0
149.177139 216.0
149.783066 124.0
149.848846 80.0
150.071198 796.0
150.129166 148.0
150.212097 152.0
150.673492 200.0
150.932571 100.0
150.991257 148.0
151.013275 180.0
151.038742 3344.0
151.074722 204.0
151.116837 156.0
151.152725 88.0
151.343643 44.0
151.519989 100.0
152.041229 544.0
152.065292 140.0
152.14209 304.0
152.501572 172.0
153.047714 152.0
153.15004 152.0
153.289108 44.0
153.451797 112.0
153.547974 60.0
153.873688 152.0
154.049042 64.0
154.093506 108.0
154.387665 148.0
154.447021 108.0
155.023895 76.0
155.085846 160.0
155.390869 48.0
155.790573 48.0
155.970749 40.0
156.088837 228.0
156.133591 160.0
156.681213 156.0
157.062622 124.0
157.514435 108.0
158.059174 236.0
158.112015 32.0
158.139542 64.0
158.192108 176.0
158.23967 204.0
158.961563 204.0
159.047501 376.0
159.094589 164.0
159.217636 208.0
159.285446 108.0
159.447983 180.0
159.73793 88.0
159.755539 88.0
159.97699 76.0
160.047485 132.0
160.068649 148.0
160.281738 100.0
160.349792 152.0
161.075806 1760.0
161.119415 152.0
161.144394 36.0
161.35791 120.0
161.587128 48.0
161.685822 28.0
162.054108 552.0
162.081116 344.0
162.192383 48.0
162.258301 128.0
162.50351 140.0
163.092224 3160.0
163.123993 44.0
163.146866 148.0
163.229492 88.0
163.332504 164.0
163.69136 60.0
163.958847 176.0
164.017471 92.0
164.092636 876.0
164.146118 676.0
164.185745 36.0
164.315842 132.0
164.389832 116.0
164.435776 96.0
164.875061 120.0
165.060852 364.0
165.090103 212.0
165.20491 68.0
165.261185 96.0
165.373795 44.0
165.48642 172.0
166.060455 92.0
167.067398 192.0
167.087967 212.0
168.170288 192.0
169.061935 144.0
169.095581 308.0
169.2043 132.0
170.501282 136.0
170.758667 72.0
171.623245 112.0
171.662354 56.0
172.233932 60.0
172.320145 112.0
172.759933 200.0
173.062546 152.0
173.091751 128.0
173.117935 204.0
173.419235 84.0
173.804749 208.0
174.061981 64.0
174.090866 208.0
174.887497 172.0
175.041855 164.0
175.089111 312.0
175.235107 76.0
175.459137 96.0
176.069489 684.0
176.099075 620.0
176.954514 52.0
177.056625 172.0
177.083038 172.0
177.10379 120.0
178.103989 1660.0
178.322449 96.0
178.876602 36.0
178.935165 128.0
179.106094 376.0
179.300095 112.0
179.574707 140.0
180.112045 192.0
180.226089 76.0
180.263504 112.0
182.109406 188.0
182.768051 168.0
182.864929 80.0
182.897217 120.0
183.061462 180.0
183.112625 156.0
183.872925 148.0
184.121307 136.0
184.686188 148.0
185.823975 56.0
186.891785 184.0
187.07164 340.0
187.10408 208.0
187.177597 196.0
187.629898 148.0
188.072464 168.0
188.768494 128.0
189.058472 180.0
189.154266 128.0
189.370575 120.0
189.518509 160.0
190.104874 168.0
191.042267 112.0
191.067032 140.0
191.105545 108.0
191.763718 176.0
192.118591 6284.0
192.174606 40.0
192.243591 132.0
192.268433 84.0
192.304306 60.0
192.334671 36.0
192.390259 148.0
192.411972 56.0
192.465607 252.0
192.771042 36.0
193.120682 928.0
193.166412 124.0
193.373947 88.0
194.124863 164.0
194.363281 60.0
194.854736 96.0
195.302307 188.0
195.472015 40.0
196.109772 92.0
196.586685 132.0
197.136826 176.0
197.911682 48.0
197.981689 112.0
198.102127 136.0
198.730133 248.0
199.115707 124.0
200.084839 192.0
200.107361 128.0
201.876587 40.0
203.094421 220.0
203.443451 196.0
204.028687 140.0
204.071335 156.0
204.415512 68.0
205.079102 120.0
205.103287 168.0
206.675491 140.0
207.970856 176.0
208.062714 116.0
208.082809 104.0
208.117752 208.0
208.930634 152.0
209.088776 192.0
209.123428 144.0
210.160889 184.0
210.21283 140.0
210.955124 184.0
211.067871 132.0
211.117035 212.0
211.171982 204.0
212.391403 168.0
212.542267 36.0
212.655441 60.0
213.102661 156.0
215.042114 164.0
215.322403 116.0
216.445374 156.0
217.098846 132.0
218.123917 188.0
218.885544 64.0
220.082703 128.0
221.096649 80.0
223.041 212.0
223.107742 48.0
223.277237 196.0
226.309097 104.0
226.662552 52.0
227.232239 144.0
227.40329 148.0
228.190338 168.0
229.017899 60.0
229.138397 100.0
230.928497 144.0
232.109589 164.0
232.216629 108.0
232.373474 160.0
234.086227 128.0
236.891663 224.0
237.928223 64.0
238.253754 56.0
239.173233 128.0
239.59819 84.0
241.076187 124.0
241.110184 148.0
241.784393 144.0
242.047531 116.0
245.169556 148.0
247.096176 196.0
248.311584 148.0
249.115143 80.0
249.172867 140.0
250.159195 168.0
250.401642 68.0
252.291763 128.0
252.870636 40.0
252.905441 152.0
253.133392 124.0
254.071594 116.0
256.341827 52.0
256.851959 168.0
257.598907 104.0
258.071899 160.0
258.196625 96.0
258.772614 60.0
259.554443 60.0
260.44342 112.0
260.861145 172.0
262.006805 124.0
262.267822 140.0
263.898132 132.0
265.112 136.0
266.202545 144.0
266.634064 252.0
267.144562 128.0
267.411377 204.0
268.313721 60.0
268.607208 100.0
269.015137 192.0
269.155334 156.0
270.064056 168.0
271.170258 232.0
271.331329 72.0
272.079346 100.0
272.128601 120.0
272.17572 136.0
273.139069 168.0
273.177002 160.0
274.125244 140.0
274.787994 136.0
276.155609 40.0
276.52951 80.0
277.12558 144.0
277.146332 108.0
277.36087 124.0
278.155823 116.0
278.751495 164.0
279.649445 132.0
280.228882 76.0
281.122528 184.0
282.158997 212.0
282.505798 84.0
282.9375 92.0
283.168579 1148.0
284.175354 448.0
285.176178 504.0
285.548157 76.0
286.197662 172.0
286.625427 88.0
287.80603 172.0
287.863434 136.0
289.544189 100.0
289.882965 148.0
292.413086 112.0
292.923828 124.0
293.155518 96.0
293.35321 112.0
294.878998 108.0
295.087524 92.0
295.169098 6116.0
295.257477 148.0
295.429504 36.0
295.75769 84.0
295.796814 84.0
296.107269 112.0
296.169952 952.0
296.261414 100.0
296.775513 48.0
296.830353 32.0
297.094452 140.0
297.174469 224.0
297.574951 64.0
297.681396 104.0
297.743195 80.0
298.062683 128.0
298.378906 140.0
298.402954 136.0
299.168945 368.0
299.321655 136.0
299.753357 76.0
300.49704 48.0
300.811096 80.0
301.13913 108.0
301.187469 320.0
302.12085 128.0
302.456512 136.0
303.138794 160.0
304.891327 52.0
305.485901 132.0
310.177673 188.0
310.721191 116.0
311.182556 156.0
312.194183 3032.0
312.254364 28.0
312.29303 52.0
312.366913 32.0
312.50058 28.0
312.578003 88.0
312.764526 128.0
312.947601 152.0
313.123413 364.0
313.181091 5072.0
313.59906 52.0
313.655701 60.0
313.698029 28.0
313.736786 64.0
313.934235 64.0
314.181641 1152.0
314.389343 48.0
314.513916 112.0
314.541107 40.0
314.869476 60.0
315.177795 144.0
315.261627 88.0
315.544403 52.0
316.188202 132.0
316.287292 60.0
316.418274 64.0
316.566986 160.0
316.609497 84.0
316.970825 44.0
319.705231 64.0
321.237335 40.0
322.462646 128.0
322.485718 52.0
323.409912 76.0
323.510132 144.0
327.488831 252.0
327.914001 52.0
328.183533 160.0
328.242065 160.0
328.469269 108.0
329.227234 180.0
329.306671 100.0
329.400604 80.0
329.425873 32.0
329.7005 72.0
329.740234 136.0
330.087311 120.0
330.147614 3148.0
330.206665 2400.0
330.257263 160.0
330.394745 64.0
330.438141 80.0
330.473816 120.0
330.524994 44.0
330.550323 68.0
330.734894 68.0
331.017303 52.0
331.149506 748.0
331.20752 864.0
331.252716 152.0
331.564331 116.0
331.76004 76.0
332.156799 148.0
332.210327 96.0
332.296814 108.0
333.34256 124.0
333.371613 84.0
334.888733 40.0
335.960449 104.0
338.790039 160.0
341.241638 128.0
344.063812 88.0
348.779602 136.0
348.872528 48.0
348.917145 56.0
357.814117 108.0
361.604095 56.0
369.175079 44.0
374.394318 72.0
380.31366 36.0
383.709747 128.0
391.23587 72.0
393.743683 100.0
400.793091 88.0
402.05722 76.0
413.908447 48.0
430.45816 84.0
439.194519 108.0
440.308929 48.0
448.271484 56.0
463.930389 104.0
473.613281 96.0
489.374695 84.0
495.584869 28.0
513.430603 56.0
514.585815 96.0
518.389893 76.0
525.570068 116.0
545.629395 64.0
552.559937 140.0
564.502808 80.0
572.165771 52.0
574.205261 256.0
574.276794 56.0
576.37738 88.0
619.42688 80.0
620.93866 192.0
629.548523 80.0
659.730591 128.0
666.989319 104.0
675.82373 68.0
680.831238 68.0
699.466125 188.0
717.600647 64.0
724.414734 76.0
725.250671 164.0
726.146057 112.0
730.701355 172.0
731.357849 156.0
732.133179 208.0
732.564087 220.0
735.292419 84.0
743.578552 128.0
748.139099 192.0
755.244019 112.0
769.322632 156.0
775.773071 188.0
782.723633 68.0
784.484253 260.0
790.091248 172.0
791.053772 180.0
793.647766 140.0
803.202881 152.0
803.620361 156.0
805.370422 172.0
806.291382 124.0
808.655457 40.0
815.0979 120.0
817.218872 192.0
818.926697 192.0
819.200073 112.0
823.341125 228.0
824.117981 128.0
825.427002 108.0
827.26355 164.0
835.504578 52.0
840.511536 244.0
840.748108 168.0
844.347412 156.0
849.61853 156.0
853.655396 240.0
853.998535 84.0
855.674438 92.0
861.033386 132.0
861.091797 140.0
862.803894 136.0
864.14325 144.0
865.957947 208.0
867.182495 252.0
868.859619 308.0
869.182312 180.0
870.039246 212.0
873.324097 140.0
876.780151 180.0
883.209961 176.0
883.902161 200.0
889.989746 60.0
893.068176 60.0
895.651428 108.0
897.051758 92.0
898.353882 204.0
908.413879 232.0
908.473877 56.0
908.761841 204.0
912.004761 148.0
915.018616 208.0
916.40387 152.0
921.598938 108.0
925.494263 200.0
926.390625 132.0
926.79657 144.0
926.966187 104.0
931.571289 140.0
933.984619 136.0
934.495605 152.0
934.61731 104.0
935.73114 64.0
935.907715 56.0
936.126953 272.0
941.255371 192.0
953.501526 148.0
954.060913 220.0
954.829529 136.0
955.081726 208.0
956.743225 232.0
958.806702 216.0
960.156921 164.0
961.100708 176.0
962.600708 204.0
964.19458 136.0
965.969177 148.0
969.442627 188.0
969.758667 152.0
973.245178 136.0
974.394226 176.0
974.996948 188.0
975.202087 152.0
979.47052 176.0
980.324097 200.0
981.608276 156.0
984.934814 212.0
985.372131 216.0
985.422119 244.0
986.709595 112.0
988.886536 132.0
990.395508 148.0
991.999634 176.0
994.841431 220.0
994.992126 220.0
1009.743774 112.0
1011.300232 132.0
1014.492798 168.0
1020.320801 140.0
1021.160156 92.0
1021.249207 204.0
1021.306458 136.0
1021.554504 100.0
1026.752075 176.0
1027.351685 128.0
1027.945068 132.0
1029.068481 200.0
1029.719849 120.0
1031.131836 148.0
1032.615112 272.0
1034.317139 136.0
1035.463257 216.0
1036.404907 140.0
1037.731689 92.0
1039.559814 136.0
1039.895996 256.0
1040.72168 128.0
1041.633667 112.0
1042.244019 160.0
1044.088989 168.0
1045.478638 196.0
1047.796631 184.0
1049.988403 144.0
1051.014038 236.0
1052.150024 84.0
1052.440552 96.0
1053.667725 148.0
1053.919678 208.0
1057.385864 192.0
1058.596558 52.0
1058.784302 212.0
1059.704224 220.0
1059.989258 144.0
1062.725586 100.0
1066.667725 52.0
1067.129395 288.0
1069.480835 180.0
1070.812622 240.0
1071.014526 60.0
1071.60083 132.0
1073.041138 40.0
1074.952393 112.0
1078.720947 156.0
1078.838623 228.0
1080.964355 204.0
1081.46167 156.0
1081.566406 68.0
1081.867554 204.0
1082.751587 196.0
1083.24939 192.0
1083.865234 152.0
1087.820068 148.0
1088.003906 244.0
1089.560303 172.0
1089.63916 164.0
1090.197754 120.0
1090.250244 172.0
1091.703125 224.0
1092.650391 160.0
1094.262817 40.0
1094.598633 200.0
1096.021484 84.0
1096.080811 216.0
1096.403687 216.0
1097.412231 136.0
1100.255859 176.0
1101.292603 148.0
1101.893799 116.0
1102.039062 160.0
1103.01062 196.0
1104.233887 164.0
1104.478638 124.0
1104.690308 180.0
1105.762207 108.0
1106.404297 180.0
1108.656372 64.0
1112.73584 220.0
1113.266968 68.0
1114.077393 136.0
1115.027588 192.0
1115.266846 152.0
1117.481323 168.0
1117.554565 228.0
1117.634399 132.0
1119.811279 100.0
1120.850586 124.0
1122.170288 220.0
1124.091309 92.0
1125.873779 156.0
1127.958374 108.0
1128.780762 152.0
1129.469604 176.0
1132.233887 164.0
1133.473267 152.0
1134.485229 160.0
1135.631958 136.0
1136.02771 160.0
1136.504028 84.0
1137.665161 148.0
1138.477661 208.0
1139.666626 184.0
1139.96228 120.0
1140.896606 132.0
1142.053223 108.0
1145.216675 176.0
1147.973145 156.0
1148.910767 132.0
1152.685059 256.0
1152.921631 360.0
1153.327148 104.0
1154.544067 148.0
1156.120361 52.0
1158.517334 104.0
1160.028564 180.0
1160.977783 216.0
1161.506836 148.0
1163.108276 220.0
1164.527344 204.0
1164.724365 208.0
1165.023193 112.0
1166.470703 184.0
1167.674194 136.0
1168.197998 32.0
1169.109741 156.0
1169.164185 228.0
1169.368408 184.0
1170.648315 136.0
1170.784424 124.0
1170.852539 192.0
1172.22876 236.0
1172.889771 148.0
1173.462402 172.0
1173.796509 180.0
1173.926147 128.0
1174.976562 188.0
1175.358643 196.0
1175.413208 136.0
1175.590698 140.0
1176.676025 152.0
1177.147095 244.0
1182.903931 152.0
1183.698242 192.0
1185.109253 180.0
1187.398926 180.0
1187.961304 180.0
1188.009399 64.0
1188.057373 244.0
1188.969971 188.0
1189.677002 148.0
1190.439087 140.0
1191.119019 180.0
1192.321533 96.0
1193.070679 88.0
1193.689575 168.0
1193.82019 176.0
1195.2854 160.0
1195.340454 152.0
1195.657104 132.0
1196.097534 76.0
1197.77771 188.0
1199.534912 148.0
1200.638062 156.0
1201.541748 192.0
1202.02478 140.0
1202.645874 60.0
1204.316772 64.0
1205.083618 136.0
1206.583374 156.0
1207.952759 120.0
1208.146362 184.0
1209.682739 140.0
1213.12561 104.0
1213.229614 200.0
1214.567993 204.0
1214.956543 192.0
1215.317261 224.0
1215.796143 172.0
1216.941406 184.0
1217.073364 108.0
1217.351196 36.0
1218.031738 112.0
1218.528198 192.0
1218.789062 188.0
1222.398071 40.0
1222.453735 48.0
1222.899048 160.0
1223.609131 200.0
1224.758911 188.0
1225.559326 140.0
1226.165649 192.0
1229.115479 100.0
1229.53418 180.0
1230.302002 136.0
1231.258667 224.0
1231.328491 140.0
1232.599976 140.0
1233.473633 184.0
1233.606445 200.0
1234.683228 156.0
1236.208252 184.0
1237.125244 176.0
1237.293213 164.0
1239.583618 212.0
1240.095215 204.0
1242.41626 128.0
1245.188965 212.0
1245.568237 128.0
1247.866333 176.0
1248.879028 128.0
1249.927246 180.0
1250.602905 164.0
1252.172974 156.0
1252.48999 204.0
1252.74353 180.0
1253.321289 184.0
1253.479126 108.0
1254.956543 148.0
1255.464233 152.0
1256.190674 104.0
1256.254272 216.0
1256.797485 176.0
1259.006958 48.0
1259.675903 200.0
1259.967651 176.0
1260.052368 216.0
1260.349121 136.0
1260.568237 132.0
1262.848999 164.0
1263.042725 140.0
1263.424805 192.0
1263.545044 104.0
1263.757324 204.0
1264.309204 196.0
1264.613525 136.0
1264.677246 56.0
1264.825928 144.0
1265.541016 120.0
1266.121582 124.0
1266.638672 184.0
1267.510132 112.0
1268.424438 68.0
1268.566162 132.0
1269.580078 232.0
1269.792847 32.0
1269.934692 124.0
1270.182983 192.0
1270.246826 208.0
1270.842773 168.0
1271.453003 176.0
1272.070557 128.0
1274.407104 140.0
1275.373657 236.0
1278.78064 160.0
1279.876953 168.0
1280.289917 212.0
1280.510742 152.0
1280.824097 220.0
1281.945801 112.0
1282.363281 156.0
1285.172974 152.0
1285.686768 176.0
1286.11499 120.0
1286.429077 148.0
1286.657593 196.0
1286.921753 220.0
1287.692993 148.0
1289.765015 248.0
1290.386963 132.0
1291.867432 136.0
1292.361084 200.0
1292.861938 32.0
1293.2771 172.0
1294.078857 172.0
1294.508545 52.0
1295.031372 56.0
1295.224731 192.0
1295.790649 144.0
1296.070068 156.0
1296.392578 68.0
1296.693604 188.0
1296.829712 196.0
1297.424683 172.0
1297.776001 88.0
1298.062866 196.0
1298.600708 124.0
1298.651001 144.0
1299.267822 156.0
1299.518921 132.0
1301.550293 120.0
1301.909302 88.0
1303.123291 220.0
1303.77002 204.0
1304.812256 228.0
1305.056763 212.0
1305.991699 136.0
1306.408936 172.0
1306.581543 224.0
1307.668091 152.0
1307.869629 160.0
1308.157593 220.0
1308.604004 128.0
1308.913574 120.0
1309.223267 204.0
1312.055054 164.0
1312.307373 104.0
1312.379517 76.0
1312.884277 184.0
1313.057373 196.0
1313.302612 148.0
1314.211548 196.0
1317.301514 172.0
1317.771118 132.0
1319.614258 172.0
1321.994019 176.0
1322.620972 216.0
1324.071777 148.0
1325.165649 124.0
1325.498901 160.0
1327.180664 104.0
1327.978394 180.0
1328.435303 148.0
1329.13916 172.0
1330.024536 168.0
1330.256836 236.0
1331.128052 100.0
1331.186157 144.0
1331.505737 224.0
1331.556519 40.0
1331.977783 188.0
1332.268433 152.0
1332.551758 176.0
1332.987671 96.0
1334.165161 120.0
1334.266968 136.0
1334.332397 204.0
1334.506958 192.0
1335.946899 152.0
1336.73999 176.0
1336.892822 168.0
1337.591553 224.0
1337.664307 68.0
1337.970093 120.0
1339.790771 44.0
1341.612793 68.0
1342.670044 120.0
1344.924561 192.0
1346.428589 200.0
1347.758179 180.0
1347.882446 112.0
1348.985962 184.0
1350.060791 212.0
1351.333618 380.0
1351.597046 196.0
1351.955566 208.0
1352.453247 204.0
1355.126343 120.0
1355.881104 216.0
1356.335449 136.0
1357.119873 168.0
1358.454712 212.0
1358.608765 148.0
1360.025024 208.0
1360.120483 176.0
1361.677124 56.0
1362.029663 156.0
1362.25 148.0
1362.352905 236.0
1362.521851 116.0
1363.932739 164.0
1364.51355 124.0
1364.785645 144.0
1366.293335 184.0
1367.213135 216.0
1367.308838 232.0
1367.794556 164.0
1367.985962 156.0
1368.486694 156.0
1368.899048 144.0
1369.274536 172.0
1369.849121 176.0
1369.9375 200.0
1369.99646 104.0
1370.269043 84.0
1371.293335 168.0
1371.853516 156.0
1371.919922 152.0
1372.789917 168.0
1373.564331 136.0
1374.036499 116.0
1374.58252 188.0
1374.936768 112.0
1375.158203 160.0
1375.815186 156.0
1375.940674 68.0
1376.442749 132.0
1376.7677 136.0
1376.871094 112.0
1377.033569 188.0
1378.156372 176.0
1378.281982 148.0
1379.649414 196.0
1379.804688 96.0
1380.107788 232.0
1380.566284 184.0
1381.069214 192.0
1382.904175 208.0
1383.237305 124.0
1384.17749 168.0
1384.807007 192.0
1385.266235 176.0
1386.147949 212.0
1386.711182 224.0
1387.281982 88.0
1388.082764 132.0
1391.502563 220.0
1392.268188 144.0
1392.476074 128.0
1393.196655 188.0
1394.080811 124.0
1395.567505 224.0
1396.065796 184.0
1397.546021 128.0
1398.483765 200.0
1398.803833 216.0
1399.727051 116.0
1400.166382 164.0
1400.672852 132.0
1400.829346 68.0
1400.94104 132.0
1401.395508 164.0
1402.394165 160.0
1402.848877 136.0
1403.355835 144.0
1403.721191 168.0
1405.414429 228.0
1405.466675 224.0
1405.683105 124.0
1406.212891 156.0
1406.556274 64.0
1406.675781 176.0
1406.854858 136.0
1407.653809 136.0
1408.602295 188.0
1408.669556 220.0
1408.791992 208.0
1409.020752 140.0
1409.371826 84.0
1410.083252 184.0
1412.257568 180.0
1412.900879 80.0
1413.634155 164.0
1413.821289 52.0
1413.972656 176.0
1415.745239 140.0
1416.366943 176.0
1416.42688 64.0
1416.666504 208.0
1417.648071 104.0
1417.917847 144.0
1419.019775 176.0
1420.894897 184.0
1421.164917 224.0
1421.390015 52.0
1421.65271 200.0
1421.787842 220.0
1422.343262 44.0
1423.146484 164.0
1423.897461 156.0
1424.145264 88.0
1425.264648 188.0
1425.595337 168.0
1425.745605 204.0
1426.144043 176.0
1426.331909 64.0
1428.663086 60.0
1428.783447 132.0
1429.114502 212.0
1430.220825 188.0
1430.943481 132.0
1431.078979 136.0
1431.854614 104.0
1432.118286 192.0
1432.502441 120.0
1433.316162 124.0
1433.790894 140.0
1434.454224 120.0
1437.886108 208.0
1439.312988 168.0
1440.559082 104.0
1440.717773 172.0
1441.397827 240.0
1442.281982 144.0
1442.425659 116.0
1442.886841 92.0
1443.506836 172.0
1443.832031 152.0
1443.96814 176.0
1444.769897 144.0
1444.838013 208.0
1445.307129 196.0
1445.443359 148.0
1445.71582 200.0
1446.010986 76.0
1447.070679 172.0
1447.207031 176.0
1447.668945 144.0
1447.752197 152.0
1448.418701 208.0
1448.638428 92.0
1449.684082 92.0
1449.759766 268.0
1450.68457 180.0
1450.767944 160.0
1451.799072 192.0
1452.125244 52.0
1452.512085 68.0
1452.663818 208.0
1452.952026 172.0
1453.027954 164.0
1453.187256 132.0
1453.335327 124.0
1454.151001 144.0
1454.272461 160.0
1454.917725 212.0
1456.140259 184.0
1458.282837 184.0
1458.776855 88.0
1460.001099 216.0
1460.9823 112.0
1461.111694 52.0
1462.34436 120.0
1462.808716 132.0
1463.029541 176.0
1463.600464 208.0
1463.859375 176.0
1465.207642 148.0
1466.137207 144.0
1466.266846 156.0
1467.242554 104.0
1467.822021 172.0
1467.982056 112.0
1468.096558 176.0
1468.157471 140.0
1468.317627 160.0
1469.416138 244.0
1470.453979 196.0
1470.873779 200.0
1471.362305 124.0
1471.441895 148.0
1471.546997 176.0
1473.271606 152.0
1473.974487 236.0
1474.562988 172.0
1474.73877 108.0
1475.633179 196.0
1476.130249 60.0
1476.634888 140.0
1476.986816 88.0
1477.835938 216.0
1478.096069 172.0
1478.570557 180.0
1478.838501 196.0
1479.366699 116.0
1479.672852 156.0
1479.963867 208.0
1481.595215 124.0
1482.008911 168.0
1482.552979 188.0
1482.614258 160.0
1485.804199 96.0
1486.057373 144.0
1486.118774 160.0
1487.271729 180.0
1487.709106 204.0
1488.651855 168.0
1489.212524 184.0
1489.995972 192.0
1490.057495 168.0
1491.094849 148.0
1491.286987 252.0
1492.109497 112.0
1493.59375 260.0
1494.255371 220.0
1496.248779 216.0
1497.665649 152.0
1497.727295 80.0
1498.620972 104.0
1499.206543 56.0
1500.532349 168.0
1500.617188 60.0
1500.871704 140.0
1501.025879 196.0
1501.295776 172.0
1502.892578 172.0
1503.841797 196.0
1504.86853 184.0
