>compound Quetiapine
>formula C21H25N3O2S
>ionization [M+H]+
>parentmass 384.17402449209055
#inchi InChI=1S/C21H25N3O2S/c25-14-16-26-15-13-23-9-11-24(12-10-23)21-17-5-1-3-7-19(17)27-20-8-4-2-6-18(20)22-21/h1-8,25H,9-16H2
#inchikey URKOMYMAXPYINW
#Ion_Source DI-ESI
#Instrument qTof
#Compound_Source Commercial
#PI Norberto Lopes
#Data_Collector Norberto Lopes
#Scan -1
#Precursor_MZ 384.165
#ExactMass 383.167
#Charge 1
#CAS_Number 111974-69-7
#Pubmed_ID N/A
#Smiles OCCOCCN(CC1)CCN1C2=NC3=CC=CC=C3SC4=C2C=CC=C4
#INCHI_AUX N/A
#Library_Class 3
#SpectrumID CCMSLIB00000081589
#IonMode Positive
#UpdateWorkflowName UPDATE-SINGLE-ANNOTATED-BRONZE
#LibraryQualityString Bronze
#TaskID 4a07f16a650f4095b43fe6b0b09ff8bb
##Scan# 1
#SpectrumFile gnps_Quetiapine_pos_MplusH.mgf
#LibraryName gnps_library.mgf
#MQScore -1
#Organism batch_27_05
#TIC_Query 0
#RT_Query -1
#MZErrorPPM -1
#SharedPeaks 0
#MassDiff 0
#LibMZ -1
#SpecMZ 384.165
#SpecCharge 0
#internalFilename spec-00000.mgf

>collision 10
132.096603 33611.0
158.112549 207354.0
159.113113 31911.0
210.030914 538142.0
211.03096 89137.0
212.034241 35065.0
219.085403 16282.0
221.101654 1024471.0
222.101974 201374.0
223.106415 16326.0
247.11615 297738.0
248.118423 54209.0
253.07753 1272086.0
254.074631 593462.0
255.069473 176479.0
279.088745 940903.0
281.08847 60175.0
384.165344 79285.0
