>compound Irinotecan
>formula C33H38N4O6
>ionization [M+H]+
>parentmass 587.286377
#inchi InChI=1S/C33H38N4O6/c1-3-22-23-16-21(43-32(40)36-14-10-20(11-15-36)35-12-6-5-7-13-35)8-9-27(23)34-29-24(22)18-37-28(29)17-26-25(30(37)38)19-42-31(39)33(26,41)4-2/h8-9,16-17,20,41H,3-7,10-15,18-19H2,1-2H3/t33-/m1/s1
#inchikey UWKQSNNFCGGAFS
#Ion_Source LC-ESI
#Instrument qTof
#Compound_Source Commercial
#PI Dorrestein
#Data_Collector Garg_Neha
#Scan -1
#Precursor_MZ 587.286
#ExactMass 586.279
#Charge 1
#CAS_Number 97682-44-5
#Pubmed_ID N/A
#Smiles N1(CCCCC1)C2CCN(CC2)C(=O)OC3=CC4=C(C5=C(N=C(C=C3)4)C6=CC7=C(C(N(C5)6)=O)COC([C@@]7(O)CC)=O)CC
#INCHI_AUX N/A
#Library_Class 1
#SpectrumID CCMSLIB00000078041
#IonMode Positive
#UpdateWorkflowName UPDATE-SINGLE-ANNOTATED-GOLD
#LibraryQualityString Gold
#TaskID 77f51c88eb8b467eb4a01dd2d0cb90d2
##Scan# 1093
#SpectrumFile Plate1_21_40_GG2_01_16489.mzXML
#LibraryName FDALibrary_2_04302014.mgf
#MQScore -1
#Organism FDALibrary_2_04302014
#TIC_Query 0
#RT_Query -1
#MZErrorPPM -1
#SharedPeaks 0
#MassDiff 0
#LibMZ -1
#SpecMZ 587.286
#SpecCharge 0
#internalFilename spec-00000.mgf

>collision 10
44.97007 176.0
45.076912 148.0
45.108036 140.0
45.419659 148.0
45.50922 180.0
45.548527 144.0
45.590176 192.0
45.8634 180.0
46.024921 160.0
46.111755 168.0
46.238888 172.0
46.458668 208.0
46.496399 240.0
46.595955 128.0
46.912632 156.0
46.945354 168.0
47.203457 176.0
47.214397 172.0
47.388248 148.0
47.433472 168.0
47.624207 156.0
48.179363 184.0
48.212524 148.0
48.359131 172.0
48.573906 184.0
48.596104 188.0
48.675224 232.0
48.921322 212.0
48.938408 148.0
49.195961 172.0
49.334267 168.0
49.358036 140.0
49.40559 164.0
49.69561 192.0
49.818695 216.0
49.890835 152.0
50.056866 204.0
50.367149 228.0
50.483047 156.0
50.498604 144.0
50.722328 156.0
50.901096 152.0
51.100094 164.0
51.255299 140.0
51.266388 184.0
51.332275 164.0
51.399323 168.0
51.448067 132.0
51.532837 212.0
51.705147 180.0
51.786755 176.0
52.17421 168.0
52.220222 172.0
52.289288 164.0
52.392963 176.0
52.473675 140.0
52.528477 172.0
52.578979 180.0
52.61734 132.0
52.724915 172.0
52.808704 188.0
52.847298 148.0
53.022991 144.0
53.083878 204.0
53.582451 244.0
53.928303 228.0
53.966312 192.0
54.270874 172.0
54.963688 180.0
54.988117 232.0
55.162849 180.0
55.260689 180.0
55.389488 212.0
55.454685 204.0
55.586678 168.0
55.751518 216.0
55.805035 144.0
55.863419 172.0
55.964241 160.0
56.243027 172.0
56.383598 212.0
56.411827 188.0
56.594357 140.0
56.613823 172.0
56.711208 204.0
56.832684 140.0
56.858131 180.0
57.271675 168.0
57.344925 208.0
57.458603 256.0
57.550674 176.0
57.599003 216.0
57.815216 208.0
57.825809 172.0
57.951504 180.0
58.067135 196.0
58.109192 164.0
58.250381 176.0
58.406952 144.0
58.521091 176.0
58.566975 156.0
58.697849 188.0
58.789379 204.0
59.327797 180.0
59.41061 144.0
59.564125 196.0
59.585632 208.0
59.630196 168.0
59.951859 140.0
60.105892 140.0
60.132305 140.0
60.15237 144.0
60.212589 144.0
60.272839 140.0
60.367138 176.0
60.494602 136.0
60.546658 164.0
60.599327 144.0
60.752815 180.0
60.811783 168.0
60.8242 208.0
61.004398 220.0
61.0215 220.0
61.039486 212.0
61.147507 164.0
61.454502 144.0
61.488834 152.0
61.89843 172.0
62.006527 184.0
62.654789 244.0
62.753231 232.0
62.817894 164.0
62.852604 144.0
62.873119 156.0
63.10059 152.0
63.326885 148.0
63.337971 144.0
63.369656 156.0
63.414028 200.0
63.437805 156.0
63.872921 188.0
64.079071 136.0
64.754745 184.0
64.90947 140.0
65.147629 168.0
65.298111 140.0
65.322243 196.0
65.352806 168.0
65.718575 140.0
65.936577 216.0
66.009331 180.0
66.153328 172.0
66.342873 164.0
66.511581 212.0
66.800835 176.0
66.867546 148.0
67.092339 168.0
67.196724 336.0
67.746056 144.0
67.888657 148.0
67.917313 184.0
67.972565 184.0
67.985443 164.0
68.024841 140.0
68.16938 164.0
68.190742 180.0
68.210922 188.0
68.506683 148.0
68.64843 220.0
68.784264 180.0
68.803535 188.0
69.059669 144.0
69.361038 160.0
69.889168 224.0
69.952759 156.0
70.200676 176.0
70.441025 144.0
70.921547 172.0
70.958153 216.0
71.075569 140.0
71.102028 188.0
71.177963 212.0
71.42234 188.0
71.903549 164.0
71.965134 176.0
72.048767 148.0
72.221191 148.0
72.517509 216.0
72.710861 160.0
72.858589 176.0
73.07962 244.0
73.18856 264.0
73.321434 160.0
73.386292 128.0
73.510735 200.0
73.768646 236.0
73.88665 144.0
73.977348 152.0
74.110283 188.0
74.236359 148.0
74.511574 160.0
74.668869 208.0
74.77726 196.0
74.930519 148.0
74.992561 228.0
75.016693 152.0
75.353226 144.0
75.410255 196.0
75.522644 156.0
75.600502 208.0
75.725159 144.0
75.808319 180.0
75.915802 344.0
75.953957 204.0
76.04245 172.0
76.075432 144.0
76.211769 192.0
76.56752 216.0
76.662392 132.0
76.747017 188.0
77.15683 156.0
77.269257 164.0
77.528473 128.0
77.551201 200.0
77.654648 192.0
77.782738 188.0
77.821365 148.0
77.861755 148.0
77.960136 144.0
78.009529 196.0
78.185249 168.0
78.199326 188.0
78.269745 148.0
78.312012 188.0
78.431831 188.0
78.54409 188.0
78.671745 184.0
78.687637 212.0
78.703529 216.0
78.763573 280.0
79.471733 172.0
79.560471 192.0
79.731453 188.0
79.834503 128.0
79.851898 172.0
79.910599 192.0
80.154549 224.0
80.439911 184.0
80.659637 148.0
80.683243 176.0
80.697182 236.0
80.802704 156.0
80.960228 236.0
81.065926 176.0
81.220116 160.0
81.314911 120.0
81.414238 128.0
81.585953 208.0
81.706955 144.0
81.823936 192.0
81.94281 172.0
82.040131 160.0
82.168182 144.0
82.180809 144.0
82.202469 152.0
82.37941 208.0
82.417351 168.0
82.441566 280.0
82.690422 156.0
82.720512 152.0
83.021973 184.0
83.361458 156.0
83.572853 220.0
83.588768 208.0
83.688881 152.0
83.738052 164.0
84.078995 156.0
84.16114 164.0
84.243332 164.0
84.429771 196.0
84.594452 160.0
84.753792 212.0
85.0252 156.0
85.208832 152.0
85.596939 172.0
85.612541 280.0
85.633545 224.0
85.878914 168.0
85.982239 168.0
86.096703 172.0
86.266701 164.0
86.395851 124.0
86.416504 160.0
86.581253 172.0
86.666473 160.0
86.760994 168.0
86.866699 204.0
87.130325 164.0
87.241829 180.0
87.580513 164.0
87.820961 156.0
87.893723 164.0
88.082291 220.0
88.102837 196.0
88.250488 184.0
88.454414 208.0
88.640274 164.0
88.778557 176.0
88.810448 196.0
88.945549 172.0
89.204048 164.0
89.343948 160.0
89.385338 192.0
89.434273 156.0
89.470039 148.0
89.541016 116.0
89.807358 164.0
89.847656 132.0
89.937553 188.0
89.950768 140.0
90.270073 244.0
90.425209 248.0
90.650574 224.0
90.71244 260.0
91.016693 188.0
91.092842 168.0
91.240898 180.0
91.385445 152.0
91.404472 252.0
91.417641 152.0
91.451324 188.0
91.619629 156.0
91.917587 208.0
92.050781 344.0
92.082481 188.0
92.158966 188.0
92.216911 168.0
92.30294 156.0
92.410812 204.0
92.777786 100.0
93.044464 292.0
93.311523 236.0
93.409599 152.0
93.573181 168.0
93.588585 156.0
93.851738 176.0
93.990555 120.0
94.013618 156.0
94.065285 172.0
94.11113 172.0
94.242477 188.0
94.337181 200.0
94.511246 248.0
94.795448 120.0
94.861359 140.0
95.133392 164.0
95.372581 184.0
95.389824 180.0
95.440376 152.0
95.492882 156.0
95.813591 208.0
95.877197 236.0
95.989502 288.0
96.081894 172.0
96.59893 176.0
96.767189 156.0
96.78286 208.0
97.114059 212.0
97.607002 280.0
97.723061 260.0
97.85099 256.0
98.06572 172.0
98.096985 2912.0
98.197426 140.0
98.282654 192.0
98.355293 208.0
98.569786 136.0
98.653961 168.0
98.673737 164.0
98.748878 172.0
99.102577 196.0
99.238022 160.0
99.2519 168.0
99.376862 204.0
99.573395 164.0
99.770119 144.0
100.282791 192.0
100.391365 160.0
100.662766 176.0
100.984535 164.0
101.177658 140.0
101.433067 180.0
101.499229 180.0
101.993118 152.0
102.011208 196.0
102.131859 204.0
102.170082 160.0
102.252586 168.0
102.422226 160.0
102.978432 152.0
103.407074 172.0
103.526253 152.0
103.769684 224.0
103.883255 160.0
104.021805 220.0
104.145119 196.0
104.200104 180.0
104.232475 356.0
104.342239 192.0
104.668701 144.0
104.724815 228.0
104.85318 208.0
104.889206 148.0
105.330635 204.0
105.438927 152.0
105.565781 164.0
105.585991 176.0
105.761765 148.0
105.829651 152.0
105.93383 120.0
106.327797 156.0
106.713997 240.0
107.306976 172.0
107.335793 168.0
107.42247 148.0
107.761055 180.0
107.781715 156.0
108.160194 168.0
108.199524 152.0
108.282356 148.0
108.347969 240.0
108.502014 160.0
108.628517 200.0
109.012634 156.0
109.458328 96.0
109.578621 196.0
109.612793 180.0
110.041344 164.0
110.060524 17404.0
110.094444 184.0
110.589363 144.0
110.81134 152.0
110.955956 216.0
111.062408 784.0
111.100822 164.0
111.207687 244.0
111.448647 136.0
111.879753 220.0
111.930901 168.0
112.075035 2080.0
112.105751 144.0
112.124718 160.0
112.394646 140.0
112.793816 372.0
112.898346 144.0
113.049736 196.0
113.080223 296.0
113.37944 188.0
113.526398 160.0
113.547607 148.0
113.585785 204.0
113.907219 172.0
113.953064 160.0
114.106094 220.0
114.269867 160.0
114.926125 168.0
115.058449 176.0
115.267776 152.0
115.608704 104.0
115.633476 172.0
115.657021 180.0
115.693413 144.0
115.716965 144.0
115.76622 156.0
116.633011 160.0
117.196533 180.0
117.438332 188.0
117.492256 168.0
117.703781 168.0
117.759933 220.0
117.956566 220.0
118.202644 160.0
118.235252 168.0
118.328674 204.0
118.489822 128.0
118.82283 208.0
119.042015 180.0
119.083328 140.0
119.098534 180.0
119.176743 168.0
119.259323 172.0
119.302803 216.0
119.337593 176.0
119.446327 292.0
119.539886 208.0
120.039429 128.0
120.242439 164.0
120.390099 156.0
120.473099 160.0
120.567055 144.0
120.779144 184.0
120.912613 148.0
121.070244 196.0
121.103264 160.0
121.210449 180.0
121.268806 216.0
122.38343 180.0
122.431877 204.0
122.58609 188.0
122.635681 144.0
122.819794 272.0
122.86171 140.0
123.065598 212.0
123.350342 168.0
123.718948 244.0
123.916321 160.0
123.948013 264.0
123.968559 132.0
124.007599 168.0
124.048843 196.0
124.06942 356.0
124.112534 45208.0
124.295525 212.0
124.318672 248.0
124.346527 96.0
124.410553 192.0
124.475876 168.0
124.52697 148.0
124.545532 232.0
124.833069 168.0
124.94783 164.0
124.968758 168.0
125.062225 332.0
125.115044 3292.0
125.255951 168.0
125.302734 144.0
125.399696 172.0
125.614845 164.0
125.925156 144.0
125.954155 184.0
125.999779 148.0
126.035583 152.0
126.120209 460.0
126.390121 156.0
126.564713 192.0
126.748398 140.0
127.410301 192.0
127.594589 140.0
128.13475 148.0
128.509033 160.0
128.603806 164.0
129.415405 236.0
129.517319 372.0
129.56041 164.0
129.974564 136.0
130.188675 160.0
130.702423 232.0
130.920975 228.0
130.955139 180.0
131.442169 120.0
131.598236 172.0
131.72612 184.0
131.746689 140.0
131.927231 148.0
132.105606 164.0
132.882263 168.0
132.941925 196.0
133.231247 184.0
133.323166 172.0
133.338547 204.0
133.378326 152.0
133.446121 204.0
133.511673 204.0
133.921356 224.0
134.001984 172.0
134.04808 204.0
134.218658 208.0
134.387039 196.0
134.548599 236.0
134.609222 188.0
134.668686 172.0
134.943695 156.0
135.020004 188.0
135.150009 160.0
135.459778 160.0
135.647827 168.0
135.693863 144.0
135.770386 152.0
135.897751 132.0
136.072037 148.0
136.098221 160.0
136.113831 508.0
136.160278 152.0
136.446106 204.0
136.806717 160.0
137.12117 216.0
137.60405 224.0
137.711472 196.0
137.753525 144.0
137.786224 176.0
138.126266 352.0
138.202408 148.0
138.256241 184.0
138.29837 168.0
138.317093 168.0
138.471634 140.0
138.880997 196.0
139.003815 172.0
139.043701 156.0
139.346634 172.0
139.576981 192.0
139.656937 148.0
139.774872 156.0
139.990509 148.0
140.110672 172.0
140.137192 184.0
140.849731 140.0
141.031616 184.0
141.178207 164.0
141.199493 188.0
141.237335 180.0
141.589996 228.0
141.710815 192.0
141.829315 164.0
141.93837 140.0
142.028915 164.0
142.227966 124.0
143.36232 152.0
143.483887 176.0
143.66684 124.0
144.059052 176.0
144.145065 180.0
144.207199 148.0
144.250229 148.0
144.602814 180.0
144.922745 232.0
145.325577 184.0
145.911621 212.0
146.287201 152.0
146.48822 184.0
146.614502 180.0
146.745941 168.0
146.809052 144.0
146.901443 220.0
146.973663 188.0
147.159683 204.0
147.528183 144.0
147.564301 120.0
147.734894 144.0
147.930923 180.0
148.180374 196.0
148.357285 152.0
148.399887 176.0
148.42276 172.0
148.454285 152.0
148.587692 212.0
148.61438 172.0
148.723587 168.0
148.772141 156.0
149.477005 180.0
149.535416 188.0
149.557312 264.0
149.727753 200.0
149.76387 116.0
150.127182 3556.0
150.588715 344.0
150.698654 172.0
150.802887 208.0
150.87706 200.0
150.984665 152.0
151.002533 136.0
151.067825 200.0
151.131912 800.0
151.598236 128.0
152.013596 152.0
152.106857 196.0
152.170685 228.0
152.58345 176.0
153.479706 204.0
153.65976 208.0
154.269775 196.0
154.603699 184.0
154.983749 144.0
155.091629 192.0
155.257736 160.0
155.632462 168.0
155.971832 100.0
156.099625 152.0
156.119507 160.0
156.156815 196.0
156.399597 124.0
156.670853 168.0
156.754318 180.0
157.356522 160.0
157.382935 220.0
157.785202 284.0
157.940247 228.0
158.26059 252.0
158.922318 160.0
159.000107 160.0
159.042786 180.0
159.236115 140.0
159.319016 224.0
159.892319 156.0
160.259995 144.0
160.570068 176.0
160.600327 148.0
160.6306 244.0
160.667984 268.0
160.989014 140.0
161.198685 216.0
161.858917 192.0
161.889313 176.0
162.000763 160.0
162.11731 188.0
162.695633 176.0
163.122437 140.0
163.168198 152.0
163.261307 220.0
163.407974 116.0
163.531967 180.0
163.903793 140.0
164.069458 144.0
164.286453 140.0
164.426575 176.0
164.452103 156.0
164.693893 104.0
164.753433 168.0
165.106003 196.0
165.208496 176.0
165.323639 148.0
165.428574 156.0
165.515625 156.0
165.728882 220.0
165.928162 192.0
166.120499 148.0
166.189774 288.0
166.434509 220.0
166.517517 112.0
166.591797 120.0
166.623688 224.0
166.651718 136.0
166.700775 140.0
166.809738 192.0
166.844711 196.0
166.90036 128.0
166.929565 180.0
166.967468 280.0
167.023773 224.0
167.049271 204.0
167.09111 412.0
167.118362 110536.0
167.259674 192.0
167.337677 108.0
167.391937 116.0
167.493225 160.0
167.539597 280.0
167.562454 128.0
167.651993 120.0
167.878342 152.0
168.021469 148.0
168.081848 180.0
168.120255 9120.0
168.274643 184.0
168.425659 112.0
168.585602 168.0
168.677658 196.0
168.712753 104.0
168.768143 164.0
168.836746 152.0
169.100647 128.0
169.125183 744.0
169.238541 96.0
169.289276 160.0
169.334396 136.0
169.409912 104.0
169.476822 168.0
169.511536 132.0
169.552979 184.0
169.726212 148.0
169.770294 184.0
170.090652 172.0
170.193283 172.0
170.221146 104.0
170.361343 136.0
171.668747 156.0
171.932236 176.0
171.981827 192.0
172.049698 148.0
172.096695 156.0
172.342224 164.0
172.967285 156.0
173.001312 176.0
173.030121 160.0
173.488602 140.0
173.659042 164.0
173.689758 180.0
174.126236 240.0
174.373215 144.0
174.841354 200.0
174.907166 216.0
174.967712 176.0
175.316177 220.0
175.421585 128.0
175.455109 168.0
175.486755 176.0
176.116089 148.0
176.398605 124.0
176.505981 164.0
176.708939 220.0
176.992874 176.0
177.139633 184.0
177.652832 216.0
177.682022 176.0
177.740387 180.0
177.788162 144.0
178.080933 116.0
178.14035 168.0
178.165207 144.0
178.207718 140.0
178.500122 152.0
178.548447 160.0
178.691284 212.0
179.106934 144.0
179.157547 220.0
179.291672 104.0
179.408066 160.0
179.98613 176.0
181.265701 172.0
182.014114 156.0
182.102737 256.0
182.409058 200.0
182.438629 200.0
182.659149 148.0
183.871658 228.0
183.996918 160.0
184.351425 212.0
184.441574 144.0
185.294037 124.0
185.445801 156.0
185.500015 148.0
185.953003 172.0
186.795349 200.0
186.885132 268.0
187.099808 164.0
187.157318 180.0
187.277878 208.0
188.016907 188.0
189.008026 208.0
189.062759 168.0
189.161301 180.0
189.986176 220.0
190.774353 156.0
191.712967 164.0
191.750336 152.0
193.096558 188.0
193.280731 244.0
193.500168 188.0
193.623962 136.0
193.871353 144.0
194.083527 548.0
194.326706 208.0
194.488327 168.0
194.547745 220.0
194.575211 144.0
194.868668 208.0
194.998154 192.0
195.027298 148.0
195.088638 240.0
195.118835 252.0
195.149246 43280.0
195.3479 136.0
195.411911 208.0
195.758423 116.0
195.81012 152.0
195.899719 156.0
196.097549 168.0
196.117065 156.0
196.151978 6228.0
196.681473 140.0
197.156876 564.0
197.216324 200.0
197.324478 188.0
197.446442 224.0
197.548233 124.0
197.686691 148.0
198.889069 212.0
199.259766 220.0
199.347061 112.0
199.59259 184.0
200.064117 164.0
201.16922 180.0
201.42717 164.0
201.590073 192.0
201.762497 144.0
201.822662 100.0
202.52655 144.0
202.79007 180.0
203.079285 184.0
203.15303 156.0
203.240982 148.0
204.312149 152.0
204.340591 184.0
204.406036 144.0
204.465805 144.0
204.827408 176.0
205.642822 116.0
205.711426 148.0
206.148422 144.0
206.20845 144.0
206.44574 196.0
206.563019 192.0
206.951447 216.0
207.09108 176.0
207.241531 152.0
207.359024 148.0
207.5905 136.0
207.726059 180.0
207.803513 140.0
208.09906 120.0
209.062134 172.0
209.105453 300.0
209.180405 128.0
209.391068 220.0
209.42778 140.0
209.506195 172.0
209.992126 244.0
210.113876 176.0
210.243729 160.0
211.081497 248.0
211.121979 148.0
211.296921 168.0
212.091919 148.0
212.161499 196.0
212.475464 156.0
212.721405 240.0
213.206467 160.0
213.289398 180.0
213.65863 96.0
213.988968 160.0
214.079239 144.0
214.624176 148.0
215.184387 320.0
215.98349 196.0
216.245544 144.0
216.304092 172.0
216.339218 180.0
216.556915 164.0
216.884079 168.0
216.943787 120.0
217.049362 172.0
217.127441 160.0
217.420837 156.0
217.80452 200.0
217.875977 160.0
218.093613 192.0
218.76413 232.0
218.817123 144.0
219.088074 192.0
219.715256 212.0
219.892059 184.0
220.008209 176.0
220.106247 276.0
220.401047 140.0
221.146301 140.0
221.184784 208.0
221.578659 168.0
222.079651 188.0
222.111511 140.0
222.324921 132.0
222.524796 164.0
222.667328 296.0
222.710815 112.0
222.777237 152.0
222.907532 136.0
223.119003 180.0
223.191895 140.0
223.249832 188.0
224.359741 108.0
224.721375 148.0
224.795975 168.0
225.106445 152.0
225.15123 152.0
225.769882 172.0
225.873795 108.0
225.90448 256.0
226.425308 208.0
226.500198 172.0
227.222687 164.0
227.33371 172.0
227.624893 144.0
228.032104 132.0
228.132675 140.0
228.361206 204.0
228.583832 204.0
229.077621 140.0
229.137878 144.0
229.492172 108.0
229.553848 144.0
229.635269 160.0
229.80722 160.0
229.964157 172.0
230.094223 208.0
230.485352 124.0
230.60173 172.0
230.628662 188.0
230.701202 200.0
231.087921 132.0
231.366776 176.0
231.42128 176.0
231.587845 148.0
231.709015 176.0
231.898117 168.0
232.084854 144.0
232.113541 408.0
232.236496 148.0
232.312332 256.0
232.656784 128.0
233.047058 140.0
233.127518 192.0
233.445267 148.0
233.539551 172.0
234.288406 212.0
234.456009 140.0
234.666504 144.0
234.732651 208.0
234.843216 144.0
235.07814 168.0
235.112701 168.0
236.10878 268.0
236.165787 192.0
236.242264 188.0
236.306519 168.0
236.590286 128.0
236.658508 160.0
237.446075 164.0
237.52301 100.0
237.651611 152.0
237.878723 180.0
238.070297 168.0
238.124374 148.0
238.357864 140.0
239.54248 152.0
240.161987 240.0
240.580093 168.0
240.6465 200.0
240.829422 120.0
240.902832 168.0
241.101105 168.0
241.313889 160.0
241.422119 200.0
242.352707 144.0
242.704224 160.0
243.014328 160.0
243.088806 164.0
243.225357 172.0
243.790634 176.0
244.216583 156.0
244.499725 196.0
245.105652 320.0
245.172424 148.0
245.212936 140.0
245.320236 152.0
245.861664 164.0
246.045837 160.0
246.113419 1460.0
246.736298 212.0
247.123154 284.0
247.161667 144.0
247.199219 148.0
247.596817 148.0
247.643799 168.0
248.048019 220.0
248.088104 132.0
248.122757 340.0
248.517639 156.0
249.074127 148.0
249.099258 140.0
249.215515 160.0
249.299423 204.0
249.384171 180.0
250.11496 192.0
250.401489 156.0
250.615707 152.0
251.084641 172.0
251.107498 140.0
251.448944 128.0
251.481232 268.0
251.835938 132.0
252.027969 196.0
252.569931 140.0
252.601562 152.0
252.65535 232.0
252.728119 172.0
252.959152 200.0
253.009811 156.0
253.339172 240.0
253.675003 144.0
253.716309 156.0
253.799423 168.0
253.881195 156.0
253.954147 172.0
254.163528 168.0
254.301758 144.0
254.630188 184.0
254.877991 192.0
255.3741 164.0
256.010468 152.0
256.05835 144.0
256.373657 212.0
256.588623 164.0
256.861481 140.0
257.107086 180.0
257.579712 196.0
258.036743 180.0
258.087891 152.0
258.129852 192.0
258.161438 144.0
258.32547 184.0
258.711792 168.0
258.819092 120.0
259.118683 176.0
259.301178 144.0
259.381317 268.0
259.81424 140.0
260.047211 148.0
260.131256 200.0
260.282166 204.0
260.493469 96.0
260.540466 220.0
260.915833 168.0
261.021027 124.0
261.102356 292.0
261.138519 180.0
261.673523 176.0
261.985382 148.0
262.105988 420.0
262.261536 160.0
262.729034 156.0
262.852997 172.0
262.945251 144.0
263.122192 132.0
263.268097 144.0
263.61377 160.0
263.888519 228.0
263.930542 160.0
264.015198 160.0
264.091766 188.0
264.205475 188.0
264.268372 136.0
264.355194 148.0
264.431976 148.0
264.525848 180.0
265.047302 172.0
265.283905 180.0
265.835297 156.0
266.020325 180.0
266.05603 172.0
266.093811 168.0
266.475006 148.0
266.510742 172.0
267.021118 160.0
267.740387 152.0
267.907776 156.0
268.119843 200.0
268.248688 176.0
268.675903 164.0
268.733093 152.0
268.973297 152.0
269.113251 160.0
269.516937 160.0
269.675171 140.0
269.839844 188.0
270.152588 160.0
270.335815 160.0
270.636963 160.0
270.70575 172.0
270.840668 144.0
270.9776 140.0
271.000549 148.0
271.426666 180.0
271.735901 116.0
271.869537 156.0
272.093872 548.0
272.348907 200.0
272.557678 196.0
272.661041 160.0
272.836273 164.0
272.894135 128.0
273.099274 496.0
273.175568 112.0
273.88385 112.0
274.026672 180.0
274.108734 2020.0
274.157196 164.0
274.248077 128.0
274.75531 180.0
274.907104 152.0
274.949341 140.0
275.116455 2612.0
275.152679 572.0
275.200897 144.0
275.821747 168.0
276.034698 156.0
276.086426 580.0
276.121674 292.0
276.215485 164.0
276.662231 148.0
276.940399 188.0
277.096527 284.0
277.144501 244.0
277.2883 140.0
277.79895 140.0
278.080078 144.0
278.11087 332.0
278.133667 152.0
279.104919 324.0
279.141174 180.0
279.190735 148.0
279.395721 156.0
279.547852 156.0
279.683105 192.0
279.852997 148.0
280.116089 152.0
280.625916 184.0
280.672607 144.0
280.881592 108.0
281.406677 148.0
281.536896 168.0
281.593689 228.0
281.925262 132.0
281.971222 148.0
282.193359 116.0
282.429291 200.0
283.591187 156.0
284.232391 124.0
284.312286 176.0
284.395569 152.0
284.498627 140.0
284.822632 288.0
284.917084 144.0
285.1008 112.0
285.135559 608.0
285.289764 168.0
285.558746 172.0
286.027039 136.0
286.213409 144.0
286.615845 224.0
286.814697 172.0
286.959656 148.0
287.07608 144.0
287.119843 156.0
287.152557 244.0
287.192352 168.0
287.428528 140.0
287.72049 168.0
287.884247 176.0
288.126404 680.0
288.178131 320.0
288.402649 104.0
288.447235 256.0
288.590485 140.0
288.766327 192.0
288.793396 168.0
289.004761 160.0
289.128204 188.0
289.430145 172.0
289.994049 120.0
290.106689 480.0
290.14566 124.0
290.643158 156.0
290.717804 176.0
290.776703 172.0
291.105255 272.0
291.147552 96.0
291.222229 172.0
291.259216 156.0
291.288239 140.0
291.60083 172.0
291.7771 108.0
291.872803 184.0
291.974823 156.0
292.136475 116.0
292.614563 196.0
293.097107 168.0
294.148285 160.0
294.261353 200.0
294.348846 148.0
294.477325 148.0
294.791138 132.0
294.859161 140.0
295.050476 108.0
295.103485 104.0
295.26944 152.0
295.385742 184.0
295.686859 328.0
295.899078 144.0
296.095642 120.0
296.327209 152.0
296.923492 140.0
296.948761 140.0
297.25531 164.0
297.75769 152.0
297.891663 192.0
297.980988 168.0
298.010925 404.0
298.112518 376.0
298.293701 156.0
298.656952 108.0
298.778625 172.0
299.098663 168.0
299.346558 160.0
299.389282 168.0
299.631348 112.0
299.884796 124.0
300.055756 148.0
300.09137 600.0
300.141327 176.0
300.691101 156.0
301.096832 860.0
301.481995 216.0
301.551117 148.0
301.685913 228.0
301.737762 140.0
301.764374 156.0
301.990204 184.0
302.103271 912.0
302.782806 164.0
302.979401 112.0
303.036652 116.0
303.147705 2808.0
303.217682 140.0
303.309479 220.0
303.576447 180.0
303.642334 144.0
304.027435 176.0
304.117035 372.0
304.124084 316.0
304.150604 752.0
304.689941 152.0
304.782928 112.0
304.808807 144.0
304.940765 132.0
305.090088 356.0
305.675873 212.0
305.729034 104.0
306.099701 532.0
306.259583 208.0
306.541779 288.0
306.730011 140.0
306.803192 192.0
306.875 176.0
307.029846 140.0
307.107056 604.0
307.163147 188.0
307.478577 260.0
307.514832 236.0
307.749481 168.0
308.104279 120.0
308.150909 272.0
308.419495 140.0
308.823212 156.0
309.172577 140.0
309.244965 144.0
309.36145 120.0
309.73056 164.0
310.0961 144.0
310.229279 152.0
310.395569 228.0
310.487091 172.0
310.629059 168.0
310.940033 240.0
311.116882 140.0
311.144958 200.0
311.286621 192.0
311.425903 176.0
311.49054 220.0
311.752625 156.0
312.037354 152.0
312.069 140.0
312.098785 116.0
312.132355 148.0
312.860626 96.0
313.133942 424.0
313.184601 196.0
313.576447 112.0
313.639435 100.0
313.955444 164.0
314.071198 152.0
314.11142 196.0
314.178802 152.0
314.211548 168.0
314.379822 144.0
314.644775 132.0
314.822479 176.0
315.109314 304.0
315.144135 348.0
315.358154 176.0
315.424164 188.0
315.474792 212.0
315.545349 96.0
315.695984 176.0
315.96991 148.0
316.03714 164.0
316.118591 3068.0
316.256561 164.0
316.381897 156.0
316.879822 124.0
317.021576 156.0
317.121063 1172.0
317.235229 156.0
317.281677 188.0
317.528564 188.0
317.565857 200.0
317.657867 192.0
317.804321 184.0
317.986237 164.0
318.135376 4504.0
318.264557 148.0
318.37323 160.0
318.738373 164.0
318.806488 124.0
319.141876 2188.0
319.215759 156.0
319.259583 128.0
319.290161 180.0
319.375519 148.0
319.436096 160.0
319.709961 232.0
319.914764 172.0
320.060638 104.0
320.108093 264.0
320.144653 512.0
320.561005 152.0
320.921143 160.0
321.005493 164.0
321.142181 296.0
321.423706 116.0
321.526886 188.0
321.701599 188.0
321.891724 156.0
321.959564 152.0
322.097443 720.0
322.138062 168.0
322.481201 144.0
322.930939 168.0
322.977692 164.0
323.094788 244.0
323.257294 148.0
323.511414 172.0
323.753265 160.0
323.875885 128.0
324.52533 148.0
324.579315 236.0
325.131592 148.0
325.303864 156.0
325.40799 204.0
325.56958 176.0
325.890472 216.0
325.988922 176.0
326.025848 168.0
326.09314 104.0
326.209137 148.0
326.466614 140.0
326.747009 200.0
326.976044 156.0
327.106415 112.0
327.269073 268.0
327.468567 188.0
327.669525 152.0
328.100189 184.0
328.13974 156.0
328.180389 168.0
328.33313 128.0
328.568024 148.0
328.654633 180.0
328.683502 168.0
329.029999 264.0
329.127075 3248.0
329.18512 860.0
329.427582 184.0
329.514099 104.0
329.645813 148.0
329.866791 96.0
330.131775 1128.0
330.192078 304.0
330.432312 152.0
330.485596 160.0
330.511932 196.0
330.58429 188.0
330.616272 168.0
330.709381 156.0
330.74353 444.0
330.840912 152.0
330.980804 188.0
331.012268 144.0
331.090912 248.0
331.143921 37744.0
331.266541 180.0
331.396179 192.0
331.69516 132.0
331.937775 136.0
331.96579 208.0
332.146149 6680.0
332.228699 128.0
332.2883 168.0
332.413422 152.0
332.442078 252.0
332.842712 172.0
332.984344 144.0
333.036346 176.0
333.084686 692.0
333.153748 2324.0
333.203979 160.0
333.293121 140.0
333.326813 272.0
333.49881 268.0
333.678406 172.0
333.737701 168.0
334.092987 280.0
334.12912 612.0
334.166901 132.0
334.264038 228.0
334.371765 160.0
334.433899 152.0
334.482422 156.0
334.668091 160.0
334.712982 256.0
334.861084 148.0
335.061462 144.0
335.095947 128.0
335.137543 2408.0
335.33429 132.0
335.382141 188.0
335.582642 172.0
335.772278 156.0
335.818634 120.0
336.059967 212.0
336.141388 652.0
336.335266 188.0
336.527344 140.0
336.640869 188.0
336.852692 232.0
337.06601 168.0
337.158905 164.0
337.210388 184.0
337.408203 164.0
337.627594 368.0
337.826385 160.0
337.900543 152.0
338.125153 196.0
338.242279 176.0
338.319183 168.0
338.467285 160.0
338.612122 156.0
338.691315 148.0
339.096008 700.0
339.14093 160.0
339.199982 128.0
339.264374 212.0
339.530975 208.0
339.793182 212.0
339.91214 176.0
340.028076 180.0
340.10202 160.0
340.340027 112.0
340.449554 172.0
340.591003 132.0
340.736053 156.0
340.798523 148.0
340.831604 168.0
341.094025 208.0
341.129517 196.0
341.289215 144.0
341.418518 128.0
341.618408 148.0
341.674072 124.0
341.726593 168.0
342.070648 148.0
342.162323 96.0
342.221985 144.0
342.33197 236.0
342.365051 284.0
342.507782 120.0
342.812836 160.0
342.851898 184.0
343.128448 688.0
343.204681 196.0
343.367462 132.0
343.449219 148.0
343.574646 156.0
343.644745 180.0
343.788635 144.0
344.095337 104.0
344.138153 124.0
344.209503 212.0
344.429993 152.0
344.525879 164.0
344.745148 200.0
344.810425 120.0
344.904968 176.0
345.022369 172.0
345.088318 892.0
345.159515 1108.0
345.265717 128.0
345.318207 188.0
345.938446 136.0
345.969452 140.0
346.012177 112.0
346.041992 136.0
346.093109 6060.0
346.160065 272.0
346.337006 96.0
346.395355 156.0
346.81778 204.0
347.02475 156.0
347.1008 2076.0
347.136932 2856.0
347.231842 124.0
347.654602 180.0
347.867554 196.0
347.972534 252.0
348.110016 5600.0
348.200012 236.0
348.260925 112.0
348.429657 112.0
348.636444 164.0
348.676239 332.0
348.774841 152.0
348.892914 152.0
349.01001 148.0
349.113464 1464.0
349.150513 948.0
349.223877 168.0
349.413574 140.0
349.493011 196.0
349.592194 152.0
349.737335 144.0
349.877808 256.0
350.1203 1440.0
350.254944 168.0
350.458588 168.0
350.750549 164.0
351.131073 712.0
351.696899 172.0
352.126038 144.0
352.166412 132.0
352.239441 180.0
352.344055 172.0
352.620453 116.0
352.728973 224.0
352.866211 176.0
353.070892 124.0
353.423981 120.0
353.669678 124.0
353.712769 192.0
354.073578 156.0
354.129852 308.0
354.191742 164.0
354.330719 204.0
354.585327 160.0
354.700806 172.0
355.194611 192.0
355.268738 160.0
355.373016 160.0
355.41806 148.0
355.515625 156.0
355.61322 252.0
355.729584 156.0
355.815918 188.0
356.028229 156.0
356.05249 308.0
356.160187 188.0
356.270508 100.0
356.601044 172.0
356.778931 136.0
357.027588 140.0
357.138031 200.0
357.145233 396.0
357.184875 1144.0
357.30542 292.0
357.499908 144.0
357.585114 180.0
357.748322 168.0
357.959167 140.0
357.996399 136.0
358.077637 112.0
358.12027 384.0
358.15213 972.0
358.174774 764.0
358.264282 160.0
358.523163 172.0
358.554413 152.0
358.592682 212.0
358.698059 108.0
358.729218 96.0
358.852112 144.0
359.031647 212.0
359.148438 408.0
359.215088 208.0
359.257599 144.0
359.438843 148.0
359.561401 140.0
359.599487 140.0
359.670868 160.0
359.868835 128.0
360.101776 136.0
360.149841 376.0
360.171051 484.0
360.210876 232.0
360.480316 140.0
360.644135 116.0
360.760803 244.0
360.847565 128.0
360.943176 116.0
361.003632 268.0
361.063568 168.0
361.118744 2416.0
361.153107 9016.0
361.352478 140.0
361.659119 144.0
361.715912 188.0
362.079071 180.0
362.157074 872.0
362.43808 112.0
362.484161 128.0
362.513855 208.0
362.702179 188.0
362.763885 132.0
363.075348 156.0
363.133514 14908.0
363.239258 152.0
363.278473 108.0
363.394165 136.0
363.584534 180.0
363.720886 196.0
363.89505 112.0
364.138 4528.0
364.261444 148.0
364.50943 104.0
364.649628 184.0
364.704987 280.0
364.847412 232.0
364.979126 132.0
365.05368 108.0
365.140198 768.0
365.417175 128.0
365.512024 160.0
365.756592 200.0
365.830994 172.0
365.881805 160.0
365.922363 264.0
366.022034 132.0
366.086761 116.0
366.132294 324.0
366.382233 112.0
366.473145 180.0
366.678711 224.0
366.89389 208.0
366.939636 156.0
367.027344 212.0
367.125397 128.0
367.205505 228.0
367.310547 172.0
367.424011 152.0
367.542297 144.0
367.726776 148.0
367.768982 172.0
367.920166 168.0
368.134277 104.0
368.220551 140.0
368.489227 200.0
368.622955 100.0
368.705597 128.0
368.798767 148.0
368.885468 176.0
368.928741 176.0
369.043427 160.0
369.253784 244.0
370.149078 316.0
370.207794 144.0
370.275665 144.0
370.30249 148.0
370.367584 208.0
370.509338 172.0
370.831238 192.0
371.128418 152.0
371.167694 124.0
371.308533 116.0
371.586578 212.0
371.751678 148.0
371.784729 144.0
371.832275 192.0
371.962769 196.0
371.99173 140.0
372.02124 164.0
372.169769 4088.0
372.405365 176.0
372.506622 224.0
372.580231 144.0
373.114807 348.0
373.173248 1600.0
373.430603 148.0
373.461395 156.0
374.117828 136.0
374.164368 216.0
374.178253 516.0
374.378387 140.0
374.426239 152.0
374.472107 128.0
374.643158 144.0
374.839661 216.0
374.997681 152.0
375.055359 116.0
375.132721 23872.0
375.284729 168.0
375.389435 104.0
375.456482 196.0
375.546814 124.0
375.578857 160.0
375.647522 176.0
375.817841 208.0
376.005585 124.0
376.047577 140.0
376.134979 5928.0
376.224365 184.0
376.43454 168.0
376.464874 180.0
376.755402 96.0
377.077454 128.0
377.141785 2020.0
377.298218 100.0
377.453033 144.0
377.488892 148.0
377.52005 280.0
377.559418 268.0
377.637451 156.0
377.979126 176.0
378.084869 3140.0
378.142731 564.0
378.184692 180.0
378.277161 140.0
378.532684 172.0
378.626678 148.0
378.779083 184.0
378.92392 176.0
378.958771 196.0
379.088654 2080.0
379.122192 612.0
379.252808 120.0
379.569733 156.0
379.872223 124.0
379.904175 104.0
380.099548 336.0
380.127167 292.0
380.507416 128.0
380.603851 172.0
380.748535 192.0
380.941315 164.0
381.032379 240.0
381.090179 212.0
381.13443 236.0
381.281708 112.0
381.37265 208.0
381.445923 168.0
381.648651 148.0
381.880829 316.0
382.095032 196.0
382.291992 188.0
382.326569 180.0
382.457031 112.0
382.470947 136.0
382.622375 108.0
382.707031 304.0
382.836487 292.0
382.948486 200.0
383.194153 120.0
383.470581 140.0
383.512756 132.0
383.76297 272.0
383.866852 180.0
384.105133 108.0
384.16748 396.0
384.340302 152.0
384.77124 172.0
384.833069 128.0
384.892273 248.0
385.181854 380.0
385.214844 380.0
385.64856 156.0
385.699371 192.0
385.941742 148.0
386.145996 228.0
386.188568 1068.0
386.297668 148.0
386.452545 180.0
386.880768 204.0
386.990387 168.0
387.021729 212.0
387.118011 504.0
387.198059 476.0
387.234894 128.0
387.351685 204.0
387.773895 140.0
387.820923 168.0
388.06189 100.0
388.12677 164.0
388.159119 168.0
388.216797 144.0
388.412292 108.0
388.647705 136.0
388.772217 104.0
388.844635 180.0
388.899445 128.0
388.952515 140.0
388.979462 132.0
389.099396 176.0
389.152466 1396.0
389.589478 128.0
389.637848 204.0
389.738556 172.0
390.04657 144.0
390.112488 136.0
390.151733 656.0
390.365021 140.0
390.898529 188.0
390.986145 164.0
391.130737 1016.0
391.210968 140.0
391.333252 128.0
391.544342 140.0
391.908081 212.0
391.945404 276.0
391.991302 204.0
392.128754 648.0
392.245178 196.0
392.316315 104.0
392.459564 128.0
392.555695 100.0
392.672882 152.0
392.716278 148.0
392.764221 180.0
392.808472 140.0
392.885895 140.0
393.087128 164.0
393.142761 1772.0
393.197296 208.0
393.31604 196.0
393.403961 176.0
393.620026 240.0
393.654358 128.0
394.146515 164.0
394.437988 112.0
394.489899 124.0
394.536713 140.0
394.564392 172.0
394.659271 164.0
394.777283 96.0
394.853058 168.0
394.896759 168.0
395.072632 204.0
395.140656 156.0
395.396149 104.0
395.555054 260.0
395.85614 132.0
396.012726 136.0
396.377228 148.0
396.423889 212.0
396.492157 180.0
396.625488 188.0
396.749786 272.0
396.793396 140.0
396.828186 136.0
396.997345 168.0
397.067017 128.0
397.154755 136.0
397.297241 112.0
397.380402 208.0
397.447754 132.0
397.483582 148.0
397.636017 136.0
397.826691 160.0
397.878845 260.0
397.941437 104.0
398.089966 112.0
398.181793 96.0
398.714661 140.0
398.793457 132.0
399.05365 148.0
399.111908 108.0
399.187622 376.0
399.265686 196.0
399.384338 140.0
399.462189 176.0
399.611481 208.0
399.81015 152.0
400.161804 208.0
400.248322 112.0
400.429443 152.0
400.463806 200.0
400.530548 160.0
400.660492 152.0
400.858093 128.0
401.001465 120.0
401.051025 168.0
401.126526 132.0
401.1716 540.0
401.292358 148.0
401.517517 148.0
401.556488 120.0
401.593292 144.0
401.708221 104.0
401.748993 144.0
401.816376 100.0
401.860382 144.0
402.060944 116.0
402.14325 1112.0
402.404388 192.0
402.495239 156.0
402.830139 132.0
402.88031 128.0
402.994537 172.0
403.105591 420.0
403.147339 464.0
403.450012 180.0
403.841675 160.0
403.962067 184.0
404.002075 152.0
404.080139 132.0
404.158356 928.0
404.216278 112.0
404.242157 276.0
404.271057 152.0
404.40625 168.0
404.436035 172.0
404.670441 180.0
404.78009 132.0
404.838745 136.0
404.975189 164.0
405.02597 176.0
405.144318 15984.0
405.432343 164.0
405.475647 180.0
405.532623 156.0
405.662903 132.0
405.904663 112.0
405.938293 160.0
406.021606 184.0
406.062378 100.0
406.145691 4508.0
406.253113 144.0
406.403931 132.0
406.696442 148.0
407.018738 172.0
407.122345 8432.0
407.408234 96.0
407.47403 144.0
407.545471 148.0
407.590546 152.0
407.661743 172.0
407.717804 96.0
407.898499 164.0
408.126129 3032.0
408.286041 352.0
408.337219 208.0
408.450653 108.0
408.511444 184.0
408.634796 108.0
408.661621 120.0
408.865356 172.0
408.917694 160.0
409.00589 120.0
409.129791 448.0
409.245392 160.0
409.414276 100.0
409.602203 192.0
409.662628 252.0
409.884216 180.0
410.141693 212.0
410.19696 128.0
410.24295 180.0
410.295502 116.0
410.383331 124.0
410.690979 112.0
410.845337 148.0
410.923798 108.0
411.122253 204.0
411.417297 124.0
411.474823 152.0
411.672119 140.0
411.832855 144.0
411.905548 176.0
412.195099 400.0
412.447113 148.0
412.482788 152.0
412.538239 100.0
412.655548 180.0
412.786652 220.0
412.984833 108.0
413.017181 196.0
413.156372 264.0
413.194885 488.0
413.324677 144.0
413.38739 136.0
413.583679 160.0
413.720795 120.0
413.777222 124.0
413.802765 136.0
413.873505 164.0
413.932831 100.0
413.999695 112.0
414.054901 148.0
414.096771 200.0
414.145355 244.0
414.21701 21776.0
414.467682 160.0
414.691315 132.0
414.724457 148.0
414.785706 156.0
414.861847 136.0
415.015137 112.0
415.139465 420.0
415.219727 5992.0
415.292603 212.0
415.406677 164.0
415.473145 124.0
415.594788 168.0
415.909424 120.0
416.05246 152.0
416.158264 3056.0
416.221558 1128.0
416.44101 128.0
416.596649 144.0
416.694489 120.0
417.15976 888.0
417.213287 164.0
417.25769 232.0
417.63913 212.0
417.720978 140.0
417.769745 164.0
417.80954 212.0
418.140991 332.0
418.253754 104.0
418.382812 140.0
418.566315 164.0
418.849274 140.0
419.031464 196.0
419.120209 528.0
419.284424 148.0
419.392029 144.0
419.543091 148.0
419.746948 156.0
419.868408 168.0
420.130066 112.0
420.318054 156.0
420.441925 112.0
420.517029 200.0
420.693542 204.0
420.860931 204.0
420.897675 144.0
420.99411 164.0
421.140259 700.0
421.210022 144.0
421.25119 128.0
421.414062 144.0
422.182861 172.0
422.659485 204.0
422.796906 96.0
422.881714 164.0
423.095917 160.0
423.138855 132.0
423.681763 184.0
423.779541 96.0
423.837311 112.0
424.282837 140.0
424.324829 172.0
424.434601 360.0
424.535675 144.0
424.650513 152.0
424.724335 152.0
424.802032 144.0
424.986603 116.0
425.058594 136.0
425.346252 96.0
425.579834 196.0
425.655975 164.0
425.691803 144.0
425.747345 144.0
425.865448 140.0
426.030365 108.0
426.104126 116.0
426.277191 144.0
426.439117 128.0
426.474762 136.0
426.702759 172.0
426.847839 112.0
427.014526 260.0
427.066528 112.0
427.234314 148.0
427.464081 152.0
427.555267 204.0
427.798889 128.0
427.911713 136.0
428.089783 156.0
428.157867 132.0
428.199188 140.0
428.275787 216.0
428.388367 160.0
428.939209 172.0
429.166016 1112.0
429.2547 140.0
429.392792 168.0
429.450531 152.0
429.692474 136.0
429.766785 152.0
429.986908 160.0
430.055603 164.0
430.167297 552.0
430.212952 900.0
430.341919 172.0
430.524384 152.0
430.785309 204.0
430.820038 216.0
430.929718 208.0
431.161804 412.0
431.179565 520.0
431.194336 400.0
431.283844 156.0
431.449188 164.0
431.482269 164.0
431.639404 280.0
431.748291 196.0
431.796539 176.0
431.978546 140.0
432.163239 156.0
432.237793 164.0
432.270264 140.0
432.450287 180.0
432.51474 168.0
432.752136 148.0
432.811371 168.0
433.034088 140.0
433.161011 252.0
433.218933 204.0
433.273163 112.0
433.394501 220.0
433.522156 168.0
433.651428 208.0
433.713623 192.0
433.933014 104.0
433.974518 188.0
434.117523 208.0
434.160706 340.0
434.223602 148.0
434.265076 116.0
434.398621 144.0
434.538879 152.0
434.701569 156.0
434.862732 120.0
434.912811 152.0
435.137695 144.0
435.170929 328.0
435.204254 144.0
435.31131 116.0
435.553894 116.0
435.587738 144.0
436.125977 164.0
436.50174 160.0
436.794739 224.0
436.9133 152.0
437.090149 168.0
437.134857 304.0
437.217255 120.0
437.572968 160.0
437.635437 176.0
438.002869 124.0
438.06781 156.0
438.110229 168.0
438.168396 204.0
438.389404 160.0
438.464417 172.0
438.829132 196.0
438.96225 112.0
439.059692 148.0
439.451782 104.0
439.49765 136.0
439.662506 132.0
439.867859 120.0
440.032898 184.0
440.194763 732.0
440.611633 104.0
440.818176 164.0
441.173035 472.0
441.192902 280.0
441.733826 140.0
441.825867 156.0
441.901184 144.0
442.051819 196.0
442.180389 128.0
442.19104 188.0
442.471649 148.0
442.589966 144.0
442.767853 220.0
442.821228 108.0
442.869812 152.0
443.140533 160.0
443.172974 132.0
443.46814 180.0
443.588959 176.0
443.876251 100.0
444.056091 136.0
444.155304 152.0
444.251556 176.0
444.317719 208.0
444.428986 136.0
444.536865 216.0
444.635071 128.0
444.80484 128.0
444.862457 244.0
445.161133 144.0
445.372375 200.0
445.838745 160.0
446.129883 788.0
446.172577 248.0
446.211365 312.0
446.299103 112.0
446.623596 204.0
447.001709 160.0
447.039398 240.0
447.152954 244.0
447.48349 212.0
447.733917 128.0
447.790619 136.0
448.149323 1240.0
448.244629 160.0
448.319946 148.0
448.360413 116.0
448.400299 272.0
448.566223 196.0
448.985687 116.0
449.155884 408.0
449.407562 136.0
449.44812 124.0
449.561951 132.0
449.744568 140.0
449.967255 132.0
450.03009 144.0
450.156128 156.0
450.38266 140.0
450.655334 152.0
450.719757 128.0
450.874451 140.0
451.084625 104.0
451.143677 124.0
451.308746 156.0
451.467377 160.0
451.530396 140.0
451.606506 164.0
451.739044 208.0
452.283661 128.0
452.452789 128.0
452.533295 232.0
452.56955 208.0
452.698456 152.0
452.73111 124.0
452.804321 140.0
452.874207 128.0
453.557648 136.0
453.923157 184.0
454.187988 112.0
454.220032 144.0
454.280518 172.0
454.484924 120.0
454.601898 160.0
454.704102 120.0
454.848358 144.0
454.898254 136.0
455.026367 148.0
455.088501 132.0
455.163757 140.0
455.289642 200.0
455.38324 204.0
455.459656 148.0
455.571716 200.0
455.690063 252.0
455.914154 168.0
455.970062 192.0
456.186493 664.0
456.296722 292.0
456.369019 100.0
456.415802 108.0
456.471069 208.0
456.590149 156.0
456.645782 144.0
456.847382 204.0
456.993134 312.0
457.1492 248.0
457.185333 248.0
457.272583 96.0
457.403442 140.0
457.429749 148.0
457.517792 168.0
457.614746 180.0
457.713623 140.0
457.76474 180.0
457.883087 152.0
457.927399 164.0
458.004974 196.0
458.036621 168.0
458.206635 42352.0
458.254791 1376.0
458.406982 100.0
458.47229 100.0
458.538116 112.0
458.587708 120.0
458.64978 104.0
458.901184 172.0
458.974457 112.0
459.051697 196.0
459.117737 296.0
459.208008 11700.0
459.264313 544.0
459.470825 284.0
459.849152 140.0
459.940247 216.0
460.008881 132.0
460.064972 152.0
460.147614 2104.0
460.211517 2160.0
460.407166 148.0
460.505249 224.0
460.639465 244.0
460.714966 116.0
460.760834 156.0
460.834045 164.0
460.923004 164.0
460.959412 100.0
461.108521 140.0
461.15564 804.0
461.211121 412.0
461.361298 128.0
461.449524 132.0
461.702332 140.0
461.799286 120.0
461.866058 140.0
462.07309 236.0
462.14328 140.0
462.21524 220.0
462.274597 112.0
462.405701 124.0
462.448212 192.0
462.767395 128.0
462.911774 160.0
463.024414 136.0
463.077637 248.0
463.141876 208.0
463.236877 316.0
463.295746 96.0
463.38855 124.0
463.49704 172.0
463.633148 204.0
463.676971 104.0
463.822968 144.0
463.872772 156.0
464.449249 208.0
464.537445 228.0
464.661377 112.0
464.702057 108.0
464.888458 272.0
464.934082 144.0
464.971558 180.0
465.23114 156.0
465.296143 172.0
465.341888 160.0
465.457825 144.0
465.513641 252.0
465.596161 296.0
465.87558 152.0
465.953918 104.0
466.058533 156.0
466.135376 192.0
466.179504 244.0
466.34964 172.0
466.394531 140.0
466.453949 136.0
466.569153 148.0
466.845856 140.0
466.906067 184.0
467.147949 128.0
467.267273 124.0
467.346161 160.0
467.777802 188.0
467.852722 160.0
468.088531 144.0
468.214417 176.0
468.246613 144.0
468.322235 148.0
468.369476 156.0
468.52887 152.0
468.675385 216.0
468.804657 152.0
468.978333 108.0
469.027161 108.0
469.231384 152.0
469.515991 164.0
469.566406 192.0
469.797913 152.0
469.848145 148.0
469.947815 152.0
470.124298 248.0
470.210602 140.0
470.385529 152.0
470.452332 192.0
470.495514 148.0
470.720032 188.0
470.795624 132.0
470.987823 296.0
471.028168 164.0
471.311218 232.0
471.508392 140.0
471.945465 164.0
472.083374 196.0
472.13446 148.0
472.211029 148.0
472.254303 160.0
472.42807 160.0
472.522491 216.0
472.597382 156.0
472.678284 148.0
472.818878 204.0
472.89032 208.0
472.968262 180.0
473.050507 184.0
473.156342 1164.0
473.35791 180.0
473.413696 140.0
473.574463 144.0
473.607239 132.0
473.675598 276.0
473.949036 216.0
474.040894 176.0
474.198883 600.0
474.263214 172.0
474.392914 136.0
474.569916 116.0
475.123047 120.0
475.167419 476.0
475.213959 188.0
475.276855 140.0
475.358368 128.0
475.706757 144.0
475.82077 140.0
475.985779 176.0
476.088898 204.0
476.162384 160.0
476.197693 136.0
476.34433 188.0
476.591064 104.0
476.772064 148.0
476.967651 152.0
477.103363 440.0
477.224182 188.0
477.319824 156.0
477.363312 172.0
477.710266 136.0
477.803253 112.0
478.019714 144.0
478.063721 292.0
478.105103 144.0
478.327454 148.0
478.534027 168.0
478.706604 128.0
478.917877 172.0
478.963409 220.0
479.336334 160.0
479.801544 112.0
480.005219 156.0
480.05896 200.0
480.325012 148.0
480.473328 248.0
480.755035 164.0
480.863281 168.0
481.114899 172.0
481.356323 164.0
481.411804 208.0
481.464203 236.0
481.570435 112.0
481.681946 104.0
481.861725 172.0
481.921387 116.0
482.114288 172.0
482.49939 164.0
482.591644 152.0
483.274902 216.0
483.396515 148.0
483.953552 156.0
484.010773 136.0
484.182617 552.0
484.24585 160.0
484.431671 104.0
484.76474 100.0
485.07605 276.0
485.172028 788.0
485.285553 288.0
485.394379 116.0
486.177734 324.0
486.260651 1648.0
486.347565 156.0
486.475769 156.0
486.556824 148.0
486.931915 112.0
487.145325 204.0
487.18045 144.0
487.220001 200.0
487.266235 348.0
487.345123 104.0
487.41333 172.0
487.844788 188.0
487.984741 176.0
488.059479 300.0
488.149384 108.0
488.513824 212.0
488.549988 132.0
488.772156 152.0
488.943726 356.0
489.047882 96.0
489.266174 140.0
489.704987 256.0
489.877197 168.0
489.938873 228.0
490.256134 172.0
490.335449 156.0
490.826843 376.0
490.862366 160.0
490.911407 144.0
490.94458 148.0
491.133514 144.0
491.35202 100.0
491.440002 128.0
491.543823 184.0
491.596771 172.0
491.676239 156.0
491.839539 164.0
491.928009 100.0
492.594635 172.0
492.709503 164.0
492.789032 160.0
492.972473 124.0
493.191193 248.0
493.448334 96.0
493.732971 164.0
493.807343 136.0
494.212799 144.0
494.363251 184.0
494.450287 180.0
494.523499 96.0
494.638184 376.0
494.669128 248.0
494.745667 192.0
495.190491 108.0
495.332886 188.0
495.40564 104.0
495.840637 156.0
495.889191 112.0
495.935516 144.0
496.064087 144.0
496.204742 132.0
496.285767 140.0
496.741882 204.0
496.910004 124.0
496.948822 112.0
497.452942 188.0
497.585083 176.0
497.65683 160.0
497.794159 108.0
497.841187 104.0
497.880737 332.0
498.058746 136.0
498.100922 144.0
498.297668 156.0
498.502899 108.0
498.617401 184.0
498.662781 124.0
498.733826 196.0
499.147552 132.0
499.241669 288.0
499.308014 112.0
499.514557 184.0
499.762726 148.0
499.992584 148.0
500.084625 140.0
500.139801 132.0
500.167236 208.0
500.33786 172.0
500.425049 196.0
500.502594 156.0
500.643341 204.0
500.737488 172.0
500.946136 276.0
501.089264 168.0
501.148132 224.0
501.22757 196.0
501.325623 316.0
501.449066 140.0
501.50705 292.0
501.549561 144.0
501.589661 192.0
501.637146 360.0
501.710022 200.0
501.836578 116.0
501.886871 176.0
501.949677 144.0
502.033813 212.0
502.19696 77316.0
502.410217 144.0
502.603546 128.0
502.675629 164.0
502.758057 184.0
502.848877 152.0
502.914185 188.0
502.978424 252.0
503.199036 23280.0
503.304016 152.0
503.395569 116.0
503.458221 256.0
503.505768 228.0
503.567261 160.0
503.613617 136.0
503.646759 108.0
503.691284 176.0
503.73822 156.0
503.788452 252.0
503.854187 128.0
503.949005 172.0
503.994965 132.0
504.051575 100.0
504.200592 4180.0
504.300995 172.0
504.346802 108.0
504.417328 104.0
504.460907 152.0
504.651855 152.0
504.725769 112.0
504.804077 140.0
504.887939 124.0
504.975128 168.0
505.07016 120.0
505.202515 680.0
505.289886 160.0
505.384552 208.0
505.455139 200.0
505.504333 120.0
505.608154 144.0
505.644226 200.0
505.786224 148.0
505.82132 160.0
505.859589 108.0
505.918915 108.0
506.127441 140.0
506.214905 268.0
506.253845 288.0
506.297089 232.0
506.395508 120.0
506.46875 164.0
506.508972 244.0
506.550049 112.0
506.697357 140.0
506.782501 136.0
506.863525 172.0
507.107513 100.0
507.196686 176.0
507.335571 176.0
507.413086 224.0
507.787048 152.0
508.206726 196.0
508.311951 184.0
508.379242 140.0
508.448975 120.0
508.523224 148.0
508.61145 104.0
508.667969 272.0
508.96994 124.0
509.086243 132.0
509.200226 100.0
509.254608 116.0
509.327667 132.0
509.41391 180.0
509.524017 136.0
509.598816 132.0
509.678619 176.0
509.780396 156.0
509.843384 128.0
510.070984 172.0
510.792572 136.0
510.845764 148.0
510.915527 336.0
510.966827 152.0
511.095337 284.0
511.291931 236.0
511.338165 172.0
511.461273 120.0
511.614471 148.0
512.034363 224.0
512.316406 148.0
512.396729 120.0
512.444275 216.0
512.516357 156.0
512.950684 172.0
512.989624 160.0
513.093323 200.0
513.124878 164.0
513.256836 120.0
513.530701 148.0
513.659973 152.0
513.790466 112.0
513.827942 140.0
514.247986 156.0
514.343323 208.0
514.889282 156.0
515.146179 104.0
515.191895 188.0
515.257202 128.0
515.299011 148.0
515.354858 168.0
515.489502 172.0
515.782104 152.0
515.859863 104.0
515.987305 144.0
516.285767 188.0
516.378113 124.0
516.71051 156.0
516.760742 176.0
516.996033 140.0
517.272156 148.0
517.353638 148.0
517.459717 188.0
517.598999 152.0
517.763 228.0
517.992615 124.0
518.032959 188.0
518.092468 116.0
518.17926 240.0
518.254333 828.0
518.45459 128.0
518.63562 156.0
518.727966 96.0
518.880432 176.0
518.980164 168.0
519.124146 128.0
519.252075 424.0
519.365173 148.0
519.515381 140.0
520.245728 184.0
520.317932 196.0
520.550232 156.0
520.677368 156.0
520.75354 136.0
520.885132 156.0
521.015015 116.0
521.273865 160.0
521.461426 120.0
521.49823 120.0
521.604309 172.0
521.676758 124.0
521.769287 96.0
521.836182 196.0
521.973877 164.0
522.121277 160.0
522.395569 148.0
522.457153 184.0
522.739563 132.0
522.959839 164.0
523.187744 112.0
523.237488 144.0
523.295532 144.0
523.34021 164.0
523.401428 140.0
523.536743 132.0
523.575806 120.0
523.619995 156.0
523.900024 164.0
524.041931 104.0
524.256165 144.0
524.524536 140.0
524.636169 152.0
524.800293 316.0
525.052979 184.0
525.144348 160.0
525.219849 164.0
525.280823 156.0
525.374512 120.0
525.452515 188.0
525.534119 100.0
525.666504 196.0
525.808472 164.0
525.858643 172.0
525.927612 160.0
526.066284 132.0
526.278137 180.0
526.34259 172.0
526.469238 228.0
526.534424 144.0
526.592957 116.0
526.826721 168.0
527.211731 112.0
527.288269 144.0
527.361389 144.0
527.607117 144.0
527.807434 188.0
528.023621 172.0
528.09668 156.0
528.213196 164.0
528.250183 120.0
528.340332 144.0
528.500122 156.0
528.535522 120.0
528.705078 160.0
528.765076 120.0
528.893677 168.0
529.195862 240.0
529.559875 132.0
529.997437 156.0
530.029785 144.0
530.146912 164.0
530.222717 228.0
530.364075 144.0
530.400757 188.0
530.501587 124.0
531.125244 184.0
531.197021 168.0
531.270996 192.0
531.366394 144.0
531.732544 152.0
531.998108 120.0
532.04303 144.0
532.371216 144.0
532.420288 124.0
532.537964 144.0
532.73468 212.0
532.888123 172.0
533.01239 180.0
533.218994 260.0
533.269531 180.0
533.526978 184.0
533.60437 188.0
533.715515 252.0
533.773193 132.0
533.961548 96.0
534.147522 136.0
534.377808 184.0
534.430664 140.0
534.71875 152.0
534.831421 188.0
535.003784 144.0
535.102783 100.0
535.146484 176.0
535.198853 152.0
535.289246 144.0
535.327881 172.0
535.720398 132.0
535.779602 216.0
536.460999 116.0
536.635681 116.0
536.721985 108.0
536.82843 184.0
536.869934 176.0
536.959778 148.0
537.066956 144.0
537.302002 112.0
537.700378 180.0
537.796509 144.0
537.934204 208.0
538.010803 124.0
538.041199 192.0
538.105164 116.0
538.173035 192.0
538.292908 160.0
538.452942 160.0
538.879272 128.0
538.951843 220.0
539.017029 108.0
539.229492 184.0
539.289185 204.0
539.389771 112.0
539.444153 156.0
539.585083 140.0
539.669861 132.0
539.766663 108.0
539.85675 136.0
539.88678 120.0
540.172424 156.0
540.278809 216.0
540.317993 208.0
540.6828 228.0
541.016907 96.0
541.137878 164.0
541.262878 208.0
541.329712 200.0
541.420776 164.0
541.487 188.0
541.825134 216.0
541.862183 196.0
542.039124 128.0
542.149963 164.0
542.260742 116.0
542.410583 120.0
542.457336 316.0
542.596313 128.0
542.687683 124.0
542.728027 100.0
542.783325 228.0
542.854492 136.0
542.925171 152.0
543.080383 256.0
543.206787 248.0
543.294495 24956.0
543.443726 200.0
543.615051 180.0
543.737915 164.0
543.787537 164.0
543.853699 140.0
543.893616 112.0
543.97998 144.0
544.027405 148.0
544.093323 196.0
544.139587 144.0
544.298157 7944.0
544.381104 112.0
544.430115 156.0
544.643738 184.0
544.673523 240.0
544.762207 172.0
544.804688 108.0
544.840881 148.0
545.019043 180.0
545.18927 200.0
545.301453 1392.0
545.527283 128.0
545.567017 120.0
545.640198 208.0
545.818726 180.0
546.18042 236.0
546.320129 280.0
546.43927 196.0
547.123779 240.0
547.196472 228.0
547.263977 104.0
547.310852 148.0
547.388184 136.0
547.512146 132.0
547.623291 160.0
547.689819 156.0
547.846191 116.0
548.133057 176.0
548.230347 160.0
548.312134 156.0
548.764282 140.0
548.973389 148.0
549.090759 192.0
549.24469 180.0
549.34729 192.0
549.522034 176.0
549.795959 124.0
549.882202 120.0
550.360107 144.0
550.693909 100.0
551.079407 360.0
551.256958 144.0
551.321106 148.0
551.379883 176.0
551.524292 104.0
551.858276 100.0
551.953491 216.0
552.192139 188.0
552.44458 156.0
552.740417 160.0
552.927795 152.0
553.348145 128.0
553.394653 184.0
553.596008 164.0
553.680298 152.0
553.727173 168.0
554.045715 200.0
554.344604 192.0
554.775818 184.0
554.886658 160.0
555.121033 160.0
555.189392 204.0
555.304382 148.0
555.462524 144.0
555.761719 168.0
555.835327 104.0
555.950134 344.0
556.029236 180.0
556.068909 156.0
556.132446 176.0
556.167603 224.0
556.278015 160.0
556.346252 140.0
556.390686 300.0
556.618286 136.0
556.880798 140.0
556.947083 148.0
556.987061 144.0
557.038757 160.0
557.218994 248.0
557.371582 144.0
557.419312 168.0
557.519043 276.0
557.630798 152.0
557.714294 100.0
557.733826 136.0
557.952393 160.0
558.011597 140.0
558.24353 552.0
558.467712 180.0
558.516541 116.0
558.585327 164.0
558.663391 120.0
559.055847 180.0
559.24115 332.0
559.501465 140.0
559.606567 168.0
560.240112 224.0
560.416748 156.0
560.503906 112.0
560.595825 164.0
560.638184 144.0
560.756104 428.0
561.232483 124.0
561.418396 148.0
561.645813 124.0
562.015198 184.0
562.264771 152.0
562.383301 168.0
562.774048 280.0
562.96875 204.0
563.072632 172.0
563.222473 232.0
563.304626 140.0
563.483765 120.0
563.604065 156.0
563.695679 144.0
563.977539 184.0
564.10498 176.0
564.183105 172.0
564.228271 188.0
564.471497 172.0
564.657654 112.0
564.728638 156.0
564.781006 108.0
565.312927 208.0
565.396362 184.0
565.524048 192.0
565.588074 144.0
565.727905 128.0
565.786499 144.0
565.900269 152.0
565.964539 148.0
566.070984 188.0
566.231995 164.0
566.368958 144.0
566.787354 188.0
566.923706 144.0
566.962158 108.0
567.147705 152.0
567.353088 136.0
567.403625 184.0
567.526672 140.0
567.779968 204.0
567.902039 164.0
568.047302 148.0
568.142334 176.0
568.181885 152.0
568.244019 128.0
568.284668 172.0
568.40802 140.0
568.47937 204.0
568.827332 156.0
569.081299 124.0
569.213379 148.0
569.298523 204.0
569.457703 180.0
569.506958 180.0
569.829529 140.0
569.958862 236.0
570.121155 252.0
570.172302 168.0
570.222168 176.0
570.286682 140.0
570.345032 124.0
570.474121 148.0
570.526428 188.0
570.595825 96.0
570.754517 168.0
570.809814 184.0
571.075623 120.0
571.40625 144.0
571.487793 208.0
571.585083 100.0
571.801208 180.0
572.010132 148.0
572.127808 112.0
572.275391 120.0
572.362549 164.0
572.474731 120.0
572.601501 100.0
572.761719 128.0
572.994934 276.0
573.115234 100.0
573.203613 112.0
573.258545 144.0
573.390564 124.0
573.51947 112.0
573.589966 128.0
573.757263 120.0
573.833984 156.0
573.985107 140.0
574.0849 120.0
574.202515 204.0
574.316772 160.0
574.465881 96.0
574.760681 144.0
574.794067 144.0
574.98175 196.0
575.037476 180.0
575.149292 196.0
575.231506 116.0
575.717285 124.0
575.839355 156.0
575.94751 156.0
575.994934 132.0
576.145325 148.0
576.270691 124.0
576.451111 184.0
576.522522 136.0
576.620117 100.0
576.71875 148.0
576.766541 144.0
576.859558 172.0
576.948242 152.0
577.055359 168.0
577.194275 184.0
577.325989 172.0
577.490295 140.0
577.536072 212.0
577.815186 128.0
577.885925 204.0
577.9505 164.0
578.007629 132.0
578.077026 148.0
578.168945 140.0
578.268799 124.0
578.340271 104.0
578.518127 128.0
578.586426 132.0
578.647339 128.0
578.83551 120.0
579.001038 148.0
579.050293 112.0
579.118042 192.0
579.199951 320.0
579.293213 140.0
579.336914 252.0
579.376038 100.0
579.461731 144.0
579.529114 168.0
579.602173 156.0
579.717468 132.0
579.810547 120.0
579.82196 168.0
579.957275 180.0
580.125427 108.0
580.4021 116.0
580.735291 96.0
580.810913 112.0
580.853516 304.0
581.00177 112.0
581.088745 120.0
581.206604 332.0
581.292603 104.0
581.400208 236.0
581.447815 300.0
581.5755 176.0
581.609497 116.0
581.651245 104.0
581.732849 120.0
581.775146 164.0
581.870361 124.0
582.026672 156.0
582.074646 128.0
582.140076 256.0
582.231445 112.0
582.3349 488.0
582.386902 236.0
582.455566 108.0
582.561646 128.0
582.649719 160.0
582.720947 192.0
582.785217 100.0
582.928528 148.0
583.035828 312.0
583.087402 100.0
583.132874 212.0
583.214966 116.0
583.293457 192.0
583.335449 224.0
583.399963 260.0
583.442566 112.0
583.453552 264.0
583.521362 144.0
583.58075 272.0
583.691895 220.0
583.745911 204.0
583.875854 228.0
583.973022 352.0
584.036499 260.0
584.094727 144.0
584.167236 372.0
584.208618 188.0
584.321533 212.0
584.405518 204.0
584.464111 252.0
584.517395 152.0
584.577332 188.0
584.624756 348.0
584.667419 396.0
584.710571 280.0
584.765259 240.0
584.803528 208.0
584.82428 212.0
584.911682 420.0
584.945923 364.0
584.989746 484.0
585.037659 412.0
585.173462 504.0
585.214966 352.0
585.274109 872.0
585.370117 320.0
585.439453 332.0
585.521667 252.0
585.567078 460.0
585.650818 280.0
585.705811 220.0
585.751526 516.0
585.791748 344.0
585.830017 268.0
585.917908 560.0
586.004822 288.0
586.095581 620.0
586.132935 396.0
586.186584 848.0
586.239868 412.0
586.328857 476.0
586.396545 484.0
586.466736 540.0
586.522827 688.0
586.575073 620.0
586.647888 612.0
586.727722 448.0
586.806335 704.0
586.873047 552.0
586.955627 416.0
586.982666 688.0
587.034424 1252.0
587.209473 2036.0
587.286377 316268.0
587.426147 232.0
587.460571 208.0
587.604065 544.0
587.633667 224.0
587.649658 412.0
587.736511 1620.0
587.826599 700.0
587.879211 540.0
587.925415 384.0
587.961182 216.0
588.010376 936.0
588.092712 16604.0
588.142517 1968.0
588.212708 1172.0
588.290588 256828.0
588.463684 428.0
588.532349 168.0
588.619629 428.0
588.745605 324.0
588.812134 604.0
588.908081 404.0
589.0224 372.0
589.090271 648.0
589.151733 672.0
589.291809 80276.0
589.42157 284.0
589.466919 200.0
589.587585 688.0
589.662537 396.0
589.723877 300.0
589.773376 368.0
589.86261 132.0
589.955566 284.0
590.031433 292.0
590.102234 316.0
590.140686 412.0
590.157776 332.0
590.293945 8884.0
590.443909 180.0
590.505798 204.0
590.586914 196.0
590.634399 224.0
590.74408 176.0
590.769775 148.0
590.821411 112.0
590.861145 200.0
590.928528 152.0
590.975952 320.0
591.047241 344.0
591.126526 292.0
591.217957 268.0
591.295715 1504.0
591.426575 580.0
591.546082 400.0
591.627869 860.0
591.677002 720.0
591.751099 732.0
591.882324 348.0
591.987122 340.0
592.037598 172.0
592.106506 236.0
592.215454 160.0
592.275208 212.0
592.322083 236.0
592.367371 388.0
592.461487 132.0
592.496216 144.0
592.555786 288.0
592.648682 116.0
592.664246 300.0
592.698181 276.0
592.737183 348.0
592.786682 340.0
592.84259 196.0
592.928467 196.0
592.983521 184.0
593.065369 108.0
593.12207 128.0
593.278503 140.0
593.345703 104.0
593.471924 264.0
593.596069 120.0
593.637695 160.0
593.7099 156.0
593.760803 140.0
593.852356 140.0
593.989807 96.0
594.356079 116.0
594.519653 112.0
594.591309 120.0
595.237976 120.0
595.612427 148.0
596.251465 172.0
596.661987 96.0
597.21344 228.0
599.04187 112.0
599.591309 108.0
599.833069 200.0
600.527771 112.0
601.09845 116.0
604.250488 176.0
604.838867 144.0
605.247009 140.0
605.379944 108.0
606.197021 128.0
606.590637 96.0
606.679016 120.0
607.221558 116.0
607.344299 160.0
607.561646 136.0
607.892273 172.0
608.459717 96.0
609.473694 104.0
609.588074 132.0
610.530396 148.0
611.216187 100.0
612.127625 96.0
612.908142 140.0
616.701721 168.0
622.966797 152.0
624.512268 128.0
628.319031 100.0
628.36499 100.0
630.69574 156.0
642.31427 104.0
687.06604 144.0
687.654053 160.0
690.409119 148.0
691.108521 96.0
707.547729 156.0
721.820374 120.0
722.374695 192.0
754.722595 96.0
764.64856 148.0
768.064758 220.0
775.224731 180.0
776.064514 112.0
778.646423 100.0
781.438354 152.0
782.546692 132.0
787.227051 120.0
788.665894 144.0
811.471924 140.0
815.591064 96.0
818.042419 148.0
824.538696 100.0
833.22168 108.0
845.85437 112.0
850.323914 132.0
864.753296 108.0
869.589233 148.0
880.04248 108.0
902.846069 172.0
905.632751 104.0
920.605103 140.0
921.287598 140.0
945.112915 108.0
947.044128 260.0
951.152466 168.0
951.499268 104.0
956.899353 136.0
975.268005 252.0
1027.356323 156.0
1054.512939 144.0
1057.248779 144.0
1059.249512 164.0
1068.780396 144.0
1079.059082 120.0
1092.13269 124.0
1104.193604 180.0
1107.668579 168.0
1108.179688 144.0
1111.062866 216.0
1128.061157 96.0
1142.692261 156.0
1168.290283 108.0
1171.840698 148.0
1179.69104 104.0
1208.678223 260.0
1232.203003 140.0
1233.838379 144.0
1240.91687 208.0
1245.302856 184.0
1246.047485 152.0
1258.839233 220.0
1260.633545 236.0
1269.702515 156.0
1279.323608 176.0
1288.516602 144.0
1295.51355 148.0
1297.893066 140.0
1305.087891 144.0
1313.095947 140.0
1317.181274 172.0
1317.513672 152.0
1320.59314 188.0
1331.399536 164.0
1337.609253 96.0
1347.680786 164.0
1363.64209 184.0
1386.359009 184.0
1390.779419 256.0
1392.687744 180.0
1393.155762 192.0
1395.035889 188.0
1399.023438 176.0
1401.630371 176.0
1408.105835 188.0
1409.697144 176.0
1419.316284 216.0
1424.187012 172.0
1427.080322 160.0
1431.31665 148.0
1433.169678 160.0
1434.37561 192.0
1438.01123 268.0
1443.934814 192.0
1452.235962 164.0
1453.793945 204.0
1466.507812 192.0
1468.696167 148.0
1470.023804 196.0
1478.62915 184.0
1479.991821 140.0
1481.70752 148.0
1483.562134 184.0
1488.695312 264.0
1491.468994 196.0
1495.180176 164.0
1501.740723 164.0
1503.808594 180.0
1503.878052 184.0
1504.256226 236.0
1509.038452 232.0
1509.216309 160.0
1509.904541 172.0
1511.978027 192.0
1518.051758 196.0
1520.689575 188.0
1521.760864 180.0
1525.458984 148.0
1534.957886 224.0
1538.726562 148.0
1538.789062 160.0
1539.343384 140.0
1541.351074 256.0
1542.257568 164.0
1548.250854 188.0
1550.281494 104.0
1555.856934 168.0
1558.181641 228.0
1559.659058 180.0
1560.90918 212.0
1564.024658 184.0
1564.418335 156.0
1564.884644 152.0
1564.945801 160.0
1566.760864 184.0
1568.522583 156.0
1569.55542 160.0
1570.091675 172.0
1570.383423 204.0
1571.99292 148.0
1573.38208 164.0
1574.155884 208.0
1576.273071 232.0
1576.510132 184.0
1577.46814 224.0
1578.984619 156.0
1579.040039 204.0
1580.424438 228.0
1587.307983 192.0
1587.609375 148.0
1588.767456 144.0
1591.759766 260.0
1593.221191 300.0
1593.960205 192.0
1597.848389 152.0
1602.163452 164.0
1603.924683 188.0
1606.189331 172.0
1606.548218 232.0
1609.868774 204.0
1613.384521 196.0
1614.104126 208.0
1615.250244 208.0
1620.115112 220.0
1622.97644 168.0
1623.513672 152.0
1623.765259 188.0
1627.590332 148.0
1627.742798 140.0
1629.710815 180.0
1629.799194 180.0
1630.868164 172.0
1633.216064 168.0
1638.569458 144.0
1639.124878 124.0
1640.068359 144.0
1640.963257 216.0
1642.638306 176.0
1644.545044 148.0
1650.77417 156.0
1655.281616 192.0
1655.767456 140.0
1655.864624 204.0
1657.452515 244.0
1658.360229 172.0
1660.946777 152.0
1662.756226 184.0
1664.324707 236.0
1666.532349 148.0
1666.816772 244.0
1669.092773 144.0
1670.752075 204.0
1672.95752 232.0
1673.478638 152.0
1674.203369 192.0
1674.667603 148.0
1674.993408 168.0
1677.112061 156.0
1677.618652 212.0
1679.052612 140.0
1681.998047 192.0
1682.550659 188.0
1684.596558 144.0
1684.831787 180.0
1685.51001 164.0
1685.575317 232.0
1687.038452 160.0
1688.53479 248.0
1689.000977 160.0
1691.243042 244.0
1697.726929 128.0
1699.315308 216.0
1700.734985 152.0
1701.030518 160.0
1701.720093 144.0
1702.122437 144.0
1702.508423 204.0
1704.141113 180.0
1707.51355 164.0
1708.237427 196.0
1708.508911 172.0
1708.870972 232.0
1709.101318 168.0
1710.689819 140.0
1711.80957 156.0
1713.020264 240.0
1723.614136 176.0
1729.262573 188.0
1736.537231 168.0
1741.641968 176.0
1742.505981 148.0
1744.492188 164.0
1745.25708 160.0
1746.953857 180.0
1747.810791 240.0
1753.240356 168.0
1754.765869 228.0
1755.566284 164.0
1756.956665 200.0
1757.142822 144.0
1762.344604 228.0
1762.871094 140.0
1766.248901 184.0
1768.0896 172.0
1770.618042 164.0
1770.894409 148.0
1771.321655 172.0
1772.578369 172.0
1775.462158 164.0
1777.072876 196.0
1777.710571 160.0
1780.405396 148.0
1783.194702 248.0
1783.305542 152.0
1786.768677 164.0
1787.685791 168.0
1787.870972 164.0
1788.401245 148.0
1791.44104 164.0
1796.735474 184.0
1797.056152 208.0
1798.110962 212.0
1798.380981 168.0
1799.039429 180.0
1802.055664 124.0
1803.690918 176.0
1803.956177 160.0
1804.734009 160.0
1805.249878 152.0
1805.925659 132.0
1808.007812 236.0
1809.370605 156.0
1809.760132 140.0
1809.904053 164.0
1811.902954 140.0
1812.021606 140.0
1812.614746 148.0
1812.801147 144.0
1812.962158 140.0
1814.148804 164.0
1814.216675 140.0
1815.471558 176.0
1816.896606 160.0
1819.884155 144.0
1821.43396 192.0
1825.169434 164.0
1825.36499 160.0
1825.960327 140.0
1827.814819 160.0
1829.089478 148.0
1831.910156 148.0
1832.949707 156.0
1833.972412 148.0
1835.910278 152.0
1841.156372 148.0
1841.634644 168.0
1844.634033 208.0
1844.804932 160.0
1845.266602 160.0
1845.942139 148.0
1848.807983 164.0
1853.183838 172.0
1854.50354 180.0
1855.043579 152.0
1856.252563 168.0
1856.372559 160.0
1856.852905 180.0
1857.22168 220.0
1858.384521 132.0
1859.46106 224.0
1860.161743 140.0
1860.637085 220.0
1862.60376 148.0
1863.144897 212.0
1863.651855 172.0
1865.344971 164.0
1865.61145 168.0
1865.998291 208.0
1866.290649 200.0
1867.470581 136.0
1867.726929 184.0
1869.155151 168.0
1869.258301 176.0
1870.179199 172.0
1870.446045 200.0
1871.703125 176.0
1875.261108 152.0
1877.123291 156.0
1878.511963 204.0
1878.796631 244.0
1880.099609 160.0
1882.785889 128.0
1883.0177 144.0
1887.520264 172.0
1888.488892 212.0
1895.180908 204.0
1897.894043 172.0
1900.175293 188.0
1904.467285 228.0
1907.817871 180.0
1908.165649 144.0
1908.252563 148.0
1909.052612 164.0
1913.020264 224.0
1918.107666 148.0
1919.755493 156.0
1920.584106 200.0
1921.517578 156.0
1921.596069 200.0
1927.35022 156.0
1929.168091 172.0
1929.360474 236.0
1931.82666 164.0
1932.334106 148.0
1934.268188 196.0
1935.064819 164.0
1936.422241 192.0
1937.576294 204.0
1938.700073 164.0
1938.866577 196.0
1939.278564 176.0
1940.032349 148.0
1940.619873 192.0
1941.400269 156.0
1941.996704 176.0
1942.172119 184.0
1942.408936 236.0
1944.040894 160.0
1946.908325 136.0
1947.025757 176.0
1948.72998 152.0
1949.746094 128.0
1953.679932 152.0
1955.237305 208.0
1956.818481 136.0
1958.776978 148.0
1961.367676 208.0
1961.64978 168.0
1962.03772 168.0
1963.316284 172.0
1964.533447 168.0
1967.066162 200.0
1967.940186 288.0
1968.637817 204.0
1970.298462 152.0
1971.67688 176.0
1973.064697 168.0
1973.551025 248.0
1973.931274 140.0
1976.089478 152.0
1979.1875 256.0
1980.028809 184.0
1981.233521 140.0
1981.472656 196.0
1981.649902 168.0
1982.110596 188.0
1982.660034 188.0
1986.064819 244.0
1987.333374 160.0
1988.478149 160.0
1988.806641 140.0
1988.904297 188.0
1990.173828 212.0
1993.59375 212.0
1993.984863 140.0
1995.416016 208.0
1995.816162 220.0
1997.523804 156.0
1999.312256 140.0
2002.704468 216.0
