>compound MLS002153305-01!SDZ-205,557 hydrochloride137196-67-9
>formula C14H21ClN2O3
>ionization [M+H]+
>parentmass 301.13134666409053
#inchi InChI=1S/C14H21ClN2O3/c1-4-17(5-2)6-7-20-14(18)10-8-11(15)12(16)9-13(10)19-3/h8-9H,4-7,16H2,1-3H3
#inchikey FFNWMBDISAYHDC
#origInchi InChI=1S/C14H21ClN2O3.ClH/c1-4-17(5-2)6-7-20-14(18)10-8-11(15)12(16)9-13(10)19-3;/h8-9H,4-7,16H2,1-3H3;1H
#Ion_Source LC-ESI
#Instrument qTof
#Compound_Source NIH Pharmacologically Active Library
#PI Dorrestein
#Data_Collector VP/LMS
#Scan -1
#Precursor_MZ 301.138
#ExactMass 300.124
#Charge 1
#CAS_Number N/A
#Pubmed_ID N/A
#Smiles CCN(CC)CCOC(=O)c1cc(Cl)c(N)cc1OC.Cl
#INCHI_AUX N/A
#Library_Class 1
#SpectrumID CCMSLIB00000086071
#IonMode Positive
#UpdateWorkflowName UPDATE-SINGLE-ANNOTATED-GOLD
#LibraryQualityString Gold
#TaskID d252d724072548979f1f6f1ced849daf
##Scan# 1293
#SpectrumFile p5-D03_GD3_01_18454.mzXML
#LibraryName Pharm_Active_Library.mgf
#MQScore -1
#Organism Pharm_Active_Library
#TIC_Query 0
#RT_Query -1
#MZErrorPPM -1
#SharedPeaks 0
#MassDiff 0
#LibMZ -1
#SpecMZ 301.138
#SpecCharge 0
#internalFilename spec-00000.mgf

>collision 10
44.980618 200.0
44.997974 200.0
45.056736 168.0
45.136929 128.0
45.173038 164.0
45.264046 64.0
45.348446 140.0
45.521503 224.0
45.551052 204.0
45.71373 112.0
45.828182 188.0
45.86861 172.0
45.891529 172.0
45.985958 136.0
46.003506 208.0
46.012955 296.0
46.1021 132.0
46.145355 128.0
46.172398 180.0
46.214333 204.0
46.319927 164.0
46.374123 212.0
46.402592 136.0
46.463619 156.0
46.579006 152.0
46.619766 96.0
46.630638 228.0
46.676857 124.0
46.735344 188.0
46.797955 44.0
46.915119 36.0
46.992855 192.0
47.010593 184.0
47.062294 164.0
47.111629 148.0
47.263386 200.0
47.327126 196.0
47.407162 48.0
47.454697 200.0
47.465714 476.0
47.483932 244.0
47.504509 176.0
47.639034 284.0
47.685753 200.0
47.74762 152.0
47.762749 148.0
47.863213 164.0
47.914169 200.0
47.938972 140.0
48.129326 244.0
48.169376 56.0
48.187336 140.0
48.212208 220.0
48.28133 132.0
48.31464 144.0
48.384941 148.0
48.444653 152.0
48.455738 116.0
48.473747 136.0
48.494919 160.0
48.530579 160.0
48.572182 224.0
48.620682 180.0
48.642948 172.0
48.668182 160.0
48.756721 188.0
48.790199 156.0
48.849995 180.0
48.905655 172.0
48.936279 144.0
49.012886 140.0
49.040756 152.0
49.173252 112.0
49.18721 136.0
49.216526 212.0
49.339474 100.0
49.382824 164.0
49.504578 256.0
49.543793 96.0
49.574619 264.0
49.636295 156.0
49.705029 116.0
49.717659 108.0
49.765385 80.0
49.886204 156.0
49.945259 36.0
50.022652 84.0
50.114189 112.0
50.1903 124.0
50.20158 156.0
50.259415 128.0
50.337048 128.0
50.380833 52.0
50.42746 280.0
50.452904 48.0
50.547665 132.0
50.577385 216.0
50.812622 152.0
50.841 120.0
50.877903 156.0
50.894939 176.0
50.907719 144.0
50.929024 112.0
50.9958 188.0
51.108143 76.0
51.135181 200.0
51.166496 156.0
51.326069 152.0
51.361721 180.0
51.400242 176.0
51.423073 196.0
51.57304 196.0
51.658833 172.0
51.809143 176.0
51.972584 216.0
52.00325 184.0
52.140594 204.0
52.267139 168.0
52.438507 188.0
52.458687 152.0
52.475986 184.0
52.54377 148.0
52.634697 92.0
52.644806 64.0
52.715588 180.0
52.890583 140.0
53.070217 196.0
53.110825 112.0
53.306816 180.0
53.443497 132.0
53.503166 248.0
53.535198 108.0
53.571609 132.0
53.645931 112.0
53.695503 160.0
53.783043 152.0
53.915695 160.0
54.000744 156.0
54.040241 100.0
54.0578 80.0
54.119274 120.0
54.138313 228.0
54.148563 156.0
54.188114 196.0
54.204231 184.0
54.217419 144.0
54.289249 116.0
54.394886 124.0
54.503563 176.0
54.51973 116.0
54.543243 172.0
54.562183 172.0
54.581467 216.0
54.592468 108.0
54.637177 132.0
54.693275 32.0
54.721245 120.0
54.755112 224.0
54.862675 140.0
54.895069 140.0
54.91428 100.0
54.930508 120.0
55.004284 216.0
55.070728 208.0
55.180943 236.0
55.334019 160.0
55.418362 188.0
55.459858 140.0
55.525093 168.0
55.593334 168.0
55.657162 252.0
55.685375 156.0
55.698742 52.0
55.753716 160.0
55.844406 48.0
56.026005 256.0
56.270584 160.0
56.321358 196.0
56.363186 120.0
56.387096 52.0
56.402042 208.0
56.677406 180.0
56.699883 184.0
56.710373 144.0
56.72686 164.0
56.758347 164.0
56.927906 184.0
57.001511 236.0
57.022552 100.0
57.060131 132.0
57.177456 172.0
57.245201 120.0
57.356686 184.0
57.367237 160.0
57.394375 124.0
57.493935 196.0
57.539215 156.0
57.566395 152.0
57.586025 144.0
57.955135 164.0
58.155308 168.0
58.263119 156.0
58.273754 144.0
58.301105 136.0
58.375591 160.0
58.466866 220.0
58.520142 144.0
58.562778 124.0
58.610004 68.0
58.735012 244.0
58.818935 140.0
58.85405 96.0
58.864738 252.0
59.011421 164.0
59.040474 92.0
59.176655 208.0
59.392773 144.0
59.52932 184.0
59.66914 168.0
59.804508 172.0
60.00322 144.0
60.089588 44.0
60.108101 152.0
60.142056 64.0
60.240875 168.0
60.32896 252.0
60.376892 192.0
60.452694 204.0
60.503769 76.0
60.526993 160.0
60.635429 144.0
60.675732 132.0
60.712334 152.0
60.73621 176.0
60.750168 148.0
60.771889 216.0
60.849937 208.0
60.954952 120.0
60.987743 172.0
61.029716 148.0
61.05304 36.0
61.303673 144.0
61.402004 208.0
61.451801 172.0
61.545448 148.0
61.559502 92.0
61.582928 144.0
61.61417 156.0
61.687614 96.0
61.700123 136.0
61.761108 168.0
61.795521 160.0
61.872208 200.0
62.055042 188.0
62.115101 160.0
62.170017 120.0
62.251644 108.0
62.328613 112.0
62.528328 160.0
62.67635 96.0
62.733089 172.0
62.941341 196.0
62.974506 164.0
63.002937 148.0
63.086693 148.0
63.129383 180.0
63.158756 244.0
63.232212 116.0
63.377895 184.0
63.492027 152.0
63.528507 132.0
63.599915 176.0
63.623726 144.0
63.773041 112.0
63.87162 148.0
63.912983 144.0
63.9464 148.0
63.994156 256.0
64.008484 148.0
64.046707 164.0
64.186951 152.0
64.268295 128.0
64.295425 128.0
64.327347 156.0
64.344902 236.0
64.533432 52.0
64.651794 136.0
64.663002 136.0
64.707817 184.0
64.744644 184.0
64.794304 184.0
64.836578 156.0
64.90329 160.0
64.932152 144.0
64.965836 140.0
65.08139 64.0
65.110291 120.0
65.225975 168.0
65.253304 112.0
65.580078 128.0
65.594582 52.0
65.733284 124.0
65.867279 196.0
65.88134 176.0
66.015968 72.0
66.03376 236.0
66.101707 140.0
66.113029 116.0
66.130836 168.0
66.189117 176.0
66.216736 144.0
66.237701 64.0
66.260376 132.0
66.289543 92.0
66.393295 168.0
66.430595 152.0
66.467911 128.0
66.481133 216.0
66.670891 128.0
66.765182 156.0
66.815605 120.0
66.909996 140.0
66.96373 116.0
66.975136 216.0
66.986534 176.0
67.085938 68.0
67.205917 180.0
67.239258 128.0
67.276802 120.0
67.360077 148.0
67.425705 144.0
67.490059 120.0
67.584053 184.0
67.626602 276.0
67.683899 152.0
67.792007 188.0
67.828064 48.0
67.864128 152.0
67.914963 160.0
67.931366 88.0
67.963242 248.0
68.133286 100.0
68.184219 172.0
68.230247 176.0
68.46225 176.0
68.486954 52.0
68.519897 88.0
68.559441 128.0
68.608887 168.0
68.631973 32.0
68.977005 52.0
69.064316 144.0
69.105995 112.0
69.182899 180.0
69.286453 120.0
69.351082 188.0
69.455536 180.0
69.483742 112.0
69.497009 184.0
69.729492 44.0
69.786011 152.0
69.827583 112.0
69.869164 168.0
69.90078 84.0
69.962357 140.0
70.044243 164.0
70.068939 72.0
70.125595 160.0
70.150597 216.0
70.277344 108.0
70.321541 228.0
70.460999 60.0
70.507782 188.0
70.576317 364.0
70.668289 152.0
70.730232 184.0
70.802223 156.0
70.993263 108.0
71.077141 168.0
71.127487 180.0
71.147629 124.0
71.20472 112.0
71.404709 220.0
71.562889 156.0
71.576355 168.0
71.674049 192.0
71.7145 184.0
71.8106 156.0
71.839272 164.0
71.852768 184.0
71.883141 236.0
71.896645 232.0
71.967537 172.0
72.074326 124.0
72.351929 156.0
72.366554 152.0
72.437683 100.0
72.539352 172.0
72.61396 240.0
72.664375 216.0
72.678421 188.0
72.790443 180.0
72.821014 160.0
72.94165 140.0
72.958649 208.0
73.007957 148.0
73.031769 348.0
73.099815 208.0
73.13726 148.0
73.198547 160.0
73.22068 112.0
73.273491 156.0
73.307564 224.0
73.32972 164.0
73.413254 176.0
73.556572 188.0
73.841904 208.0
74.040428 116.0
74.090103 200.0
74.120827 232.0
74.134651 144.0
74.184357 136.0
74.213501 144.0
74.240936 100.0
74.259796 172.0
74.286171 128.0
74.31469 104.0
74.359306 132.0
74.393639 164.0
74.472626 204.0
74.513847 132.0
74.661674 100.0
74.708115 124.0
74.821693 208.0
74.845131 160.0
74.866463 124.0
75.131897 128.0
75.149147 52.0
75.171295 192.0
75.390892 212.0
75.537849 96.0
75.593216 80.0
75.70134 208.0
75.749031 96.0
75.761154 152.0
75.796074 208.0
75.8218 140.0
75.883461 224.0
75.903275 76.0
75.962242 172.0
75.986526 148.0
76.101074 140.0
76.259155 124.0
76.281754 160.0
76.316521 172.0
76.354774 152.0
76.50441 156.0
76.781456 188.0
76.87915 172.0
76.893112 116.0
77.05201 180.0
77.076294 164.0
77.18309 128.0
77.200577 240.0
77.212822 152.0
77.260048 112.0
77.275787 216.0
77.393059 308.0
77.424576 172.0
77.450844 196.0
77.464859 84.0
77.512161 148.0
77.561234 100.0
77.577011 204.0
77.659424 156.0
77.68924 136.0
77.722572 208.0
77.751266 172.0
77.819107 124.0
78.110832 164.0
78.147377 212.0
78.181206 132.0
78.198807 124.0
78.24633 72.0
78.290352 128.0
78.413673 112.0
78.475372 40.0
78.512398 176.0
78.549438 192.0
78.58551 116.0
78.62001 164.0
78.635895 188.0
78.812485 180.0
78.829773 240.0
78.962738 132.0
78.989273 208.0
79.017578 224.0
79.083534 188.0
79.134384 188.0
79.158936 148.0
79.237106 164.0
79.274315 164.0
79.613403 132.0
79.634354 148.0
79.675301 232.0
79.717949 156.0
79.828156 112.0
79.863724 144.0
80.152122 252.0
80.219849 276.0
80.30365 128.0
80.33754 144.0
80.448181 116.0
80.476746 216.0
80.528534 152.0
80.541039 284.0
80.617859 124.0
80.844971 88.0
80.955956 168.0
80.993568 180.0
81.151268 168.0
81.201477 172.0
81.361176 136.0
81.395287 152.0
81.46389 220.0
81.573151 180.0
81.596519 164.0
81.754799 80.0
81.792595 132.0
81.976295 164.0
82.028564 136.0
82.064621 176.0
82.151634 176.0
82.194489 136.0
82.250427 120.0
82.36599 48.0
82.398773 192.0
82.483444 44.0
82.581078 136.0
82.714165 152.0
82.738503 188.0
82.817368 176.0
82.841728 156.0
82.941704 160.0
83.010284 156.0
83.044739 236.0
83.057434 132.0
83.349724 40.0
83.389702 120.0
83.442413 80.0
83.495148 112.0
83.566566 76.0
83.607941 292.0
83.620682 184.0
83.653442 244.0
83.721466 176.0
83.81189 164.0
83.856659 164.0
83.877495 100.0
84.010605 220.0
84.023376 132.0
84.13105 212.0
84.161797 176.0
84.176697 220.0
84.22966 120.0
84.286293 52.0
84.311874 208.0
84.467285 180.0
84.492889 220.0
84.641144 44.0
84.732719 228.0
84.934364 168.0
84.978394 168.0
85.083 240.0
85.105034 204.0
85.166786 204.0
85.330063 192.0
85.347565 144.0
85.380623 172.0
85.49688 212.0
85.520493 104.0
85.547096 228.0
85.599655 212.0
85.710175 176.0
85.745186 120.0
85.90744 116.0
85.922203 124.0
86.101242 160.0
86.20285 164.0
86.236115 176.0
86.286018 184.0
86.298965 136.0
86.345192 124.0
86.439537 168.0
86.550598 156.0
86.56356 80.0
86.604301 152.0
86.685814 48.0
86.698784 112.0
86.801834 136.0
86.902756 160.0
86.936554 188.0
87.149078 192.0
87.276085 204.0
87.376518 160.0
87.411865 108.0
87.467697 196.0
87.512383 172.0
87.571968 148.0
87.625992 60.0
87.644623 124.0
87.659531 92.0
87.700523 224.0
87.732216 172.0
87.894478 80.0
87.996857 164.0
88.027008 136.0
88.055534 104.0
88.068092 180.0
88.122261 36.0
88.146553 140.0
88.305458 152.0
88.320419 228.0
88.372795 64.0
88.425194 148.0
88.451393 212.0
88.511307 144.0
88.576225 128.0
88.620766 164.0
88.65554 204.0
88.741768 176.0
88.986427 148.0
89.045753 216.0
89.122772 140.0
89.211105 124.0
89.248703 172.0
89.276909 236.0
89.357796 132.0
89.382256 348.0
89.4086 172.0
89.565231 184.0
89.636452 212.0
89.97406 252.0
90.034172 1292.0
90.064705 196.0
90.361488 108.0
90.541313 116.0
90.596237 40.0
90.615189 104.0
90.694771 124.0
90.721313 172.0
90.810432 144.0
90.903389 104.0
90.950836 104.0
91.03627 140.0
91.116547 136.0
91.214859 108.0
91.396378 144.0
91.4412 144.0
91.585899 188.0
91.686874 212.0
91.723427 244.0
91.749771 168.0
91.820541 212.0
91.858467 100.0
91.881363 132.0
92.050911 352.0
92.167747 160.0
92.557953 120.0
92.609657 204.0
92.647964 156.0
92.693947 168.0
92.787865 224.0
92.935547 176.0
93.000793 148.0
93.057549 1324.0
93.125595 164.0
93.148643 128.0
93.203056 204.0
93.313446 200.0
93.331215 64.0
93.375443 208.0
93.400444 120.0
93.481247 100.0
93.656441 124.0
93.766258 172.0
93.95137 156.0
93.988022 168.0
94.059669 160.0
94.123138 152.0
94.175278 168.0
94.223572 48.0
94.244827 180.0
94.310532 184.0
94.438141 40.0
94.525192 212.0
94.559212 124.0
94.58519 164.0
94.652946 192.0
94.682983 156.0
94.926163 128.0
95.120178 136.0
95.151237 172.0
95.180359 108.0
95.261925 220.0
95.444656 200.0
95.493134 164.0
95.563263 44.0
95.746239 208.0
95.765709 184.0
95.94693 200.0
95.972275 200.0
96.024925 144.0
96.12442 168.0
96.182968 144.0
96.274727 168.0
96.313789 228.0
96.454475 144.0
96.771385 120.0
96.820343 160.0
96.849716 196.0
96.883018 96.0
96.977074 184.0
96.996674 28.0
97.061371 172.0
97.336075 204.0
97.542358 372.0
97.589539 32.0
97.831528 156.0
98.098953 180.0
98.146751 96.0
98.178299 92.0
98.284821 120.0
98.327538 284.0
98.484207 60.0
98.553345 184.0
98.74707 160.0
98.931091 216.0
99.001465 1112.0
99.042931 164.0
99.14698 192.0
99.186623 204.0
99.280655 164.0
99.311539 136.0
99.371048 160.0
99.422638 124.0
99.513947 132.0
99.557632 60.0
99.590302 176.0
99.649002 140.0
99.666885 204.0
99.706627 172.0
99.766258 192.0
99.804031 144.0
99.817947 152.0
99.845787 232.0
99.877609 128.0
99.911423 156.0
99.951218 244.0
99.969879 148.0
99.985046 172.0
100.002304 220.0
100.030388 128.0
100.060684 140.0
100.113098 26804.0
100.188339 120.0
100.195877 68.0
100.202873 112.0
100.216034 228.0
100.236084 252.0
100.273399 132.0
100.331627 40.0
100.345581 132.0
100.38546 120.0
100.44928 196.0
100.497162 88.0
100.513123 64.0
100.56102 176.0
100.656837 176.0
100.688789 28.0
100.742722 208.0
100.77269 144.0
100.822639 120.0
100.854622 52.0
100.874168 200.0
100.99588 380.0
101.01458 124.0
101.056595 136.0
101.0746 192.0
101.115608 1760.0
101.138641 56.0
101.156654 60.0
101.190689 124.0
101.204704 172.0
101.262779 128.0
101.290428 184.0
101.314857 44.0
101.362938 188.0
101.409035 36.0
101.44912 252.0
101.526276 108.0
101.543358 120.0
101.659714 160.0
101.766098 172.0
101.809639 76.0
101.828354 264.0
101.886604 156.0
101.922768 148.0
101.948891 148.0
101.991096 152.0
102.006973 160.0
102.06749 72.0
102.091621 156.0
102.121788 168.0
102.20829 56.0
102.306046 196.0
102.405571 204.0
102.472046 148.0
102.498238 76.0
102.522415 128.0
102.540558 88.0
102.613121 92.0
102.756317 92.0
102.774475 92.0
102.802727 108.0
102.822906 104.0
102.878983 148.0
102.91172 132.0
102.980385 156.0
103.017883 212.0
103.095535 140.0
103.178406 88.0
103.235023 216.0
103.301834 112.0
103.330086 116.0
103.425194 132.0
103.4758 80.0
103.514763 216.0
103.58313 160.0
103.61972 196.0
103.650925 172.0
103.686462 160.0
103.769569 140.0
103.860825 112.0
103.880959 216.0
103.94603 140.0
103.996628 172.0
104.0597 172.0
104.112488 240.0
104.189674 124.0
104.596375 108.0
104.614693 120.0
104.685959 76.0
104.73687 204.0
104.856377 220.0
104.868042 232.0
104.961044 164.0
105.248749 216.0
105.568413 172.0
105.626823 160.0
105.641144 164.0
105.774353 180.0
105.830574 64.0
106.083458 68.0
106.255722 108.0
106.471245 184.0
106.510269 152.0
106.590393 184.0
106.773346 140.0
106.938553 120.0
107.071754 216.0
107.34996 196.0
107.577904 100.0
107.59343 116.0
107.742119 56.0
107.950874 172.0
108.070847 140.0
108.143272 216.0
108.284058 160.0
108.342056 116.0
108.387634 160.0
108.472603 144.0
108.51133 188.0
108.679993 156.0
108.771301 288.0
108.89563 164.0
108.954659 228.0
109.078728 56.0
109.093277 132.0
109.114067 164.0
109.186844 192.0
109.249245 212.0
109.274208 216.0
109.503181 144.0
109.655273 44.0
109.709465 88.0
109.744904 136.0
109.813721 148.0
109.882561 164.0
109.920113 132.0
109.959763 148.0
110.020294 228.0
110.183189 252.0
110.21035 92.0
110.242546 144.0
110.319023 148.0
110.367111 136.0
110.469589 72.0
110.551186 148.0
110.59304 192.0
110.751373 232.0
110.775208 80.0
110.791969 48.0
110.885277 168.0
110.919792 144.0
110.972206 192.0
110.997169 332.0
111.018333 144.0
111.198753 132.0
111.24913 136.0
111.484367 196.0
111.623108 36.0
111.70723 140.0
111.76403 64.0
111.898735 108.0
111.915581 224.0
111.991386 440.0
112.048264 184.0
112.240059 72.0
112.349731 136.0
112.400368 196.0
112.508003 76.0
112.6157 228.0
112.712875 168.0
112.755348 160.0
112.788956 44.0
112.820663 176.0
112.884087 208.0
112.903122 264.0
112.943306 128.0
112.970062 148.0
113.003708 1544.0
113.036392 172.0
113.093529 220.0
113.165504 48.0
113.216324 184.0
113.243858 212.0
113.260803 32.0
113.303169 136.0
113.430313 176.0
113.542686 228.0
113.57238 140.0
113.636017 72.0
113.663605 168.0
113.723022 200.0
113.805809 104.0
113.848282 92.0
113.96936 144.0
114.008484 144.0
114.081993 180.0
114.147903 224.0
114.162788 172.0
114.209579 184.0
114.260635 216.0
114.288292 180.0
114.326591 176.0
114.388313 208.0
114.495926 212.0
114.567192 192.0
114.669464 160.0
114.744781 120.0
114.83252 200.0
114.91256 52.0
114.979416 180.0
114.999855 392.0
115.034203 152.0
115.05555 144.0
115.093979 188.0
115.248848 136.0
115.322556 144.0
115.356758 172.0
115.393097 148.0
115.735428 164.0
115.825371 176.0
115.839989 136.0
115.844574 112.0
115.941063 48.0
115.971069 172.0
115.989143 344.0
116.016617 160.0
116.041809 108.0
116.063248 144.0
116.10614 192.0
116.290642 160.0
116.380623 48.0
116.46241 220.0
116.653648 240.0
116.679169 156.0
116.778358 140.0
116.80265 136.0
116.829979 184.0
116.866554 176.0
116.900978 96.0
116.950478 44.0
116.992561 312.0
117.051659 168.0
117.108856 172.0
117.200287 120.0
117.499969 160.0
117.61866 56.0
117.638084 36.0
117.690491 204.0
117.895103 168.0
117.910233 272.0
117.985886 156.0
118.061752 176.0
118.120987 252.0
118.242653 208.0
118.338531 156.0
118.508896 188.0
118.557304 164.0
118.654846 164.0
118.813156 136.0
118.947701 136.0
119.008484 152.0
119.073631 156.0
119.117073 148.0
119.182243 184.0
119.240913 212.0
119.284386 76.0
119.410492 148.0
119.443123 108.0
119.538849 84.0
119.586723 148.0
119.649849 108.0
119.85894 124.0
120.04303 1012.0
120.216553 136.0
120.372124 420.0
120.410843 176.0
120.443604 44.0
120.487297 92.0
120.546288 220.0
120.865532 212.0
120.907112 156.0
121.051666 464.0
121.19178 192.0
121.299164 128.0
121.404396 196.0
121.52504 196.0
121.707214 112.0
121.766502 136.0
122.236946 72.0
122.34362 120.0
122.366806 52.0
122.867088 148.0
122.986244 148.0
123.072342 224.0
123.401543 176.0
123.472305 196.0
123.715698 176.0
123.857414 160.0
123.881783 84.0
123.900803 136.0
123.916428 256.0
124.016945 212.0
124.052406 188.0
124.172142 116.0
124.240906 108.0
124.305244 72.0
124.360725 144.0
124.39402 176.0
124.436203 212.0
124.658318 116.0
124.791679 116.0
125.020782 156.0
125.158798 92.0
125.290199 140.0
125.388245 112.0
125.419441 112.0
125.508614 160.0
125.635742 132.0
125.749031 176.0
125.83252 184.0
125.94825 156.0
125.970589 196.0
126.011124 5992.0
126.31707 204.0
126.364044 96.0
126.402084 164.0
126.433411 276.0
126.482651 144.0
126.541733 236.0
126.578918 204.0
126.624786 132.0
126.664017 56.0
126.715546 80.0
126.881386 144.0
126.915016 228.0
126.97332 180.0
126.997513 224.0
127.017136 172.0
127.063042 204.0
127.170753 188.0
127.206665 84.0
127.229118 144.0
127.27626 116.0
127.420006 76.0
127.541855 216.0
127.638023 144.0
127.725731 196.0
127.741478 88.0
127.799965 240.0
127.871979 256.0
127.901237 136.0
127.953011 204.0
128.009659 2304.0
128.026901 3928.0
128.103897 96.0
128.199738 56.0
128.295975 236.0
128.312866 208.0
128.335831 192.0
128.44426 48.0
128.505173 236.0
128.563843 88.0
128.613495 128.0
128.647354 172.0
128.762512 180.0
128.913864 96.0
128.943237 200.0
128.981674 48.0
129.029251 444.0
129.207794 140.0
129.230423 152.0
129.402435 84.0
129.43187 68.0
129.574554 120.0
129.626663 176.0
129.681061 200.0
129.701462 52.0
129.751328 160.0
129.944107 136.0
130.025223 1052.0
130.071182 168.0
130.141556 176.0
130.31871 196.0
130.439163 144.0
130.475082 120.0
130.496002 204.0
130.757584 232.0
130.807663 204.0
130.889618 148.0
130.996506 180.0
131.053619 140.0
131.121979 144.0
131.153885 192.0
131.249634 108.0
131.411575 60.0
131.541656 124.0
131.579803 180.0
131.679306 196.0
131.776871 144.0
131.859131 80.0
131.927704 148.0
132.006561 164.0
132.071762 60.0
132.813873 32.0
133.03186 180.0
133.201782 92.0
133.484467 144.0
133.530472 160.0
133.746735 112.0
133.76918 64.0
133.857239 208.0
133.898697 56.0
134.041519 248.0
134.059952 184.0
134.07608 92.0
134.10144 224.0
134.142929 160.0
134.191345 176.0
134.544327 208.0
134.652847 208.0
134.712891 136.0
134.837662 184.0
134.962494 140.0
135.045746 180.0
135.064255 232.0
135.416061 80.0
135.492493 64.0
135.562012 204.0
135.599579 208.0
135.647766 80.0
135.717316 132.0
135.78688 44.0
135.83522 176.0
136.007294 176.0
136.032822 148.0
136.109436 236.0
136.167496 196.0
136.38356 156.0
136.446335 192.0
136.555618 128.0
136.625397 156.0
136.660294 192.0
136.69986 192.0
136.725449 156.0
136.760361 164.0
136.874435 56.0
136.907028 140.0
136.986221 64.0
137.004852 124.0
137.03981 96.0
137.226257 48.0
137.345184 188.0
137.653244 152.0
137.786377 124.0
137.816757 124.0
137.833115 120.0
137.879852 120.0
137.903214 40.0
137.933609 224.0
137.973343 180.0
138.066864 216.0
138.115982 180.0
138.200195 260.0
138.230621 180.0
138.291473 200.0
138.441299 144.0
138.516251 156.0
138.596115 192.0
138.652145 272.0
138.687286 164.0
138.795135 164.0
138.863144 100.0
138.989807 112.0
139.067261 152.0
139.093079 136.0
139.142365 240.0
139.186981 196.0
139.297363 208.0
139.323196 240.0
139.349045 76.0
139.428543 164.0
139.544113 156.0
139.560577 196.0
139.621719 160.0
139.748734 200.0
140.033569 124.0
140.116013 148.0
140.637146 128.0
140.722122 176.0
140.877991 172.0
140.929977 212.0
140.963043 140.0
140.998672 28504.0
141.063309 76.0
141.088058 120.0
141.128113 140.0
141.180527 44.0
141.227829 156.0
141.268036 100.0
141.286972 48.0
141.323242 112.0
141.346115 36.0
141.383972 48.0
141.58284 92.0
141.706009 56.0
141.722595 256.0
141.7771 160.0
141.831604 216.0
141.935913 212.0
142.0009 1484.0
142.049759 60.0
142.071106 56.0
142.11618 124.0
142.230087 216.0
142.270447 60.0
142.30368 56.0
142.325043 224.0
142.486557 176.0
142.529312 144.0
142.557831 152.0
142.593475 64.0
142.651276 224.0
142.709167 204.0
142.805084 204.0
142.878815 156.0
142.945435 176.0
142.994583 6736.0
143.023911 148.0
143.045181 88.0
143.069199 140.0
143.106659 76.0
143.154633 120.0
143.198257 160.0
143.326416 40.0
143.416977 152.0
143.481339 184.0
143.500412 56.0
143.612488 168.0
143.712677 188.0
143.810516 180.0
143.996384 392.0
144.022018 948.0
144.152023 180.0
144.171143 176.0
144.230896 156.0
144.307388 152.0
144.371948 120.0
144.472412 116.0
144.886566 184.0
144.93927 144.0
144.993073 160.0
145.033524 136.0
145.048416 284.0
145.090256 144.0
145.116638 120.0
145.286911 128.0
145.344498 64.0
145.457291 152.0
145.695023 232.0
145.730118 192.0
146.017639 388.0
146.144608 136.0
146.394943 112.0
146.529816 304.0
146.686462 204.0
146.749146 76.0
146.785309 112.0
146.872131 212.0
146.932434 212.0
146.980682 144.0
147.004822 128.0
147.026535 68.0
147.236572 140.0
147.282455 168.0
147.591782 236.0
147.698196 100.0
147.889343 140.0
147.908707 116.0
148.034592 148.0
148.056396 160.0
148.170227 164.0
148.201736 168.0
148.255035 180.0
148.390778 136.0
148.424728 68.0
148.643021 104.0
148.686707 108.0
148.817795 236.0
148.854202 216.0
148.944061 48.0
148.980499 120.0
149.009659 44.0
149.029099 196.0
149.050964 268.0
149.07515 176.0
149.099564 84.0
149.328094 164.0
149.471619 152.0
149.634689 76.0
149.673859 180.0
149.757126 200.0
149.800293 140.0
150.322037 168.0
150.395248 116.0
150.507553 200.0
150.567947 152.0
150.63942 144.0
150.773804 168.0
150.842239 200.0
150.886246 152.0
150.952255 176.0
151.091675 108.0
151.272766 120.0
151.392731 168.0
151.520096 76.0
151.610764 172.0
151.893692 180.0
151.936874 432.0
151.968765 176.0
152.022751 156.0
152.120911 160.0
152.162643 100.0
152.18721 188.0
152.332092 108.0
152.468002 180.0
152.634384 188.0
153.003448 208.0
153.025604 80.0
153.237411 100.0
153.281754 108.0
153.400864 184.0
154.005264 3752.0
154.049042 116.0
154.113281 68.0
154.177521 156.0
154.236847 84.0
154.286285 204.0
154.31842 64.0
154.376709 132.0
154.442307 200.0
154.523926 180.0
154.588028 140.0
154.721512 164.0
154.793488 172.0
154.860352 156.0
154.930954 72.0
155.007446 388.0
155.090775 164.0
155.400757 188.0
155.629089 128.0
155.648956 60.0
155.743332 88.0
155.768173 76.0
155.845184 112.0
155.879959 148.0
156.020111 2736.0
156.121094 104.0
156.188248 100.0
156.223068 120.0
156.342499 244.0
156.419647 96.0
156.514252 132.0
156.591446 168.0
156.985199 204.0
157.02861 316.0
157.161316 172.0
157.449371 120.0
157.51181 52.0
157.749191 148.0
157.819199 216.0
157.924225 208.0
157.964249 140.0
158.017853 784.0
158.054306 156.0
158.146896 84.0
158.179443 156.0
158.322159 224.0
158.457413 40.0
158.52005 172.0
158.562653 56.0
158.6203 48.0
159.020172 216.0
159.338013 148.0
159.850922 80.0
159.926422 176.0
160.035828 244.0
160.179504 204.0
160.223557 240.0
160.274658 156.0
160.483154 80.0
160.889343 316.0
160.914581 128.0
161.293503 148.0
161.662766 180.0
161.82222 96.0
161.8526 164.0
161.919647 160.0
161.953903 144.0
161.986832 132.0
162.605362 148.0
162.742569 168.0
162.828903 36.0
163.014359 136.0
163.528061 124.0
163.805603 168.0
164.10376 148.0
164.162415 112.0
164.185364 172.0
164.269531 288.0
164.575775 260.0
164.619186 176.0
164.718796 172.0
164.84169 196.0
164.976883 192.0
165.258194 176.0
165.401505 176.0
166.011261 176.0
166.059998 200.0
166.106155 112.0
166.247269 204.0
166.529678 120.0
166.807175 132.0
166.904861 172.0
166.979675 128.0
167.079758 144.0
167.223846 184.0
167.352554 84.0
167.378311 80.0
167.800858 216.0
168.061356 32.0
168.097473 28.0
168.123276 156.0
168.265244 208.0
168.37706 236.0
168.502853 88.0
168.67598 52.0
168.859558 124.0
168.885422 200.0
168.992142 14332.0
169.140472 240.0
169.234772 68.0
169.320236 132.0
169.388184 136.0
169.422516 148.0
169.501572 72.0
169.561172 52.0
169.579315 104.0
169.719299 44.0
169.760788 176.0
169.830811 128.0
169.867111 184.0
169.931976 108.0
169.997757 1444.0
170.048752 192.0
170.139587 88.0
170.230469 48.0
170.30838 28.0
170.612396 96.0
170.680008 212.0
170.744202 204.0
170.988953 3768.0
171.057495 236.0
171.104095 44.0
171.156158 56.0
171.234283 184.0
171.406219 124.0
171.833817 180.0
171.852081 128.0
171.993927 208.0
172.084366 156.0
172.180984 104.0
172.210922 180.0
172.314194 152.0
172.366455 108.0
172.413498 128.0
172.556244 52.0
172.716766 128.0
172.78009 156.0
172.820007 104.0
173.046494 76.0
173.156479 64.0
173.345963 148.0
173.573151 204.0
173.622971 104.0
173.670181 228.0
173.688538 156.0
173.748871 160.0
173.845947 212.0
173.864319 164.0
174.113724 192.0
174.155746 224.0
174.355408 92.0
174.557831 152.0
174.676529 152.0
174.807724 124.0
175.020935 136.0
175.181595 156.0
175.231644 180.0
175.262543 248.0
175.30278 172.0
175.489929 164.0
175.893555 200.0
176.342575 168.0
176.604324 132.0
176.643997 132.0
177.292664 168.0
177.335068 176.0
177.438446 148.0
177.716919 228.0
177.820419 148.0
177.841644 152.0
178.363831 212.0
178.524429 160.0
178.566971 128.0
178.676025 128.0
178.731903 128.0
178.753189 136.0
178.833023 148.0
178.854324 188.0
178.904892 60.0
179.038025 148.0
179.077972 132.0
179.199158 196.0
179.536362 184.0
179.5737 156.0
179.661728 120.0
179.701752 152.0
179.755112 192.0
179.9366 92.0
180.123535 124.0
180.537796 64.0
180.829407 236.0
180.858841 248.0
180.880264 204.0
181.075714 144.0
181.220367 144.0
181.249832 132.0
181.29808 80.0
181.550064 68.0
181.638565 124.0
181.753937 180.0
181.882751 180.0
181.944489 136.0
181.963272 148.0
181.999664 152.0
182.057251 116.0
182.092163 108.0
182.274841 120.0
182.409225 148.0
182.551712 104.0
182.672745 164.0
182.901459 100.0
183.011841 172.0
183.146484 140.0
183.170731 180.0
183.192276 92.0
183.224594 180.0
183.274963 168.0
183.28508 116.0
183.293228 220.0
183.350296 236.0
183.370102 28.0
183.405151 96.0
183.452652 180.0
183.477921 152.0
183.496796 336.0
183.515671 164.0
183.554077 148.0
183.572296 184.0
183.613403 196.0
183.650024 180.0
183.690964 252.0
183.755432 240.0
183.778152 292.0
183.819901 116.0
183.825165 156.0
183.867477 268.0
183.909515 228.0
183.938751 568.0
184.01709 123896.0
184.078934 48.0
184.114792 252.0
184.168564 68.0
184.18425 148.0
184.210434 72.0
184.260666 200.0
184.300186 168.0
184.354065 92.0
184.372528 68.0
184.412155 92.0
184.437332 140.0
184.46109 744.0
184.50943 132.0
184.547913 208.0
184.585358 44.0
184.614655 84.0
184.663162 192.0
184.684967 60.0
184.720947 80.0
184.765182 104.0
184.771027 100.0
184.781525 156.0
184.807297 172.0
184.838837 64.0
184.883713 80.0
184.956512 184.0
184.982208 208.0
185.01886 8372.0
185.059113 92.0
185.095047 68.0
185.11412 68.0
185.141678 48.0
185.159332 48.0
185.190628 68.0
185.217545 168.0
185.256516 200.0
185.30191 44.0
185.337387 56.0
185.386154 68.0
185.424103 64.0
185.445602 60.0
185.468689 124.0
185.518967 48.0
185.546814 132.0
185.58403 60.0
185.629135 120.0
185.687073 192.0
185.719086 80.0
185.726807 68.0
185.810196 72.0
185.837479 152.0
185.903168 356.0
185.922699 148.0
185.93248 136.0
186.013885 37544.0
186.078369 116.0
186.129074 128.0
186.16394 112.0
186.191711 140.0
186.215897 104.0
186.249176 120.0
186.293274 144.0
186.338501 136.0
186.383636 228.0
186.436615 164.0
186.494247 80.0
186.528168 116.0
186.584229 92.0
186.602173 200.0
186.620605 108.0
186.64241 80.0
186.684464 120.0
186.71637 32.0
186.740601 44.0
186.792526 32.0
186.855103 136.0
186.875748 88.0
186.909515 116.0
186.939453 84.0
186.973648 100.0
187.011948 1900.0
187.054703 80.0
187.091095 232.0
187.110916 44.0
187.140869 52.0
187.217117 40.0
187.244339 72.0
187.266129 188.0
187.339478 116.0
187.364197 112.0
187.392044 36.0
187.465469 96.0
187.524963 40.0
187.544037 104.0
187.587662 56.0
187.623093 48.0
187.644897 64.0
187.666718 68.0
187.685806 108.0
187.74852 116.0
187.873978 60.0
187.947647 68.0
188.004974 384.0
188.051346 84.0
188.078644 88.0
188.17691 76.0
188.272476 76.0
188.340759 120.0
188.367508 96.0
188.450027 92.0
188.469162 60.0
188.493744 116.0
188.521072 96.0
188.818848 52.0
188.865555 84.0
188.914795 88.0
188.957047 108.0
189.000427 528.0
189.185699 132.0
189.25415 108.0
189.306808 172.0
189.673294 116.0
189.719894 44.0
190.000992 136.0
190.589905 124.0
191.977234 104.0
192.145737 168.0
192.559525 64.0
192.592667 104.0
193.433243 60.0
193.596588 64.0
194.123108 80.0
194.472656 48.0
194.739197 200.0
194.86203 92.0
195.097641 72.0
195.843384 96.0
195.965958 84.0
196.222366 116.0
196.378525 116.0
196.548691 108.0
196.908798 144.0
197.146255 48.0
197.177002 48.0
197.199356 68.0
197.364288 84.0
197.470551 140.0
198.033112 140.0
198.11586 80.0
198.276855 32.0
198.383362 36.0
198.433823 88.0
198.986511 52.0
199.098831 72.0
199.379761 44.0
200.008347 164.0
200.31105 108.0
200.423752 100.0
200.635117 108.0
200.945343 164.0
201.013062 84.0
201.487396 108.0
202.078278 32.0
202.106567 316.0
202.129211 52.0
202.82872 96.0
202.891083 112.0
203.398849 44.0
204.495987 144.0
204.581375 168.0
205.54184 108.0
207.174347 136.0
207.220184 76.0
207.426514 64.0
208.244263 144.0
211.068405 208.0
211.106003 140.0
212.925919 168.0
213.017517 376.0
213.66423 168.0
213.891205 68.0
214.030945 120.0
214.718658 180.0
215.015289 124.0
215.1651 68.0
215.357819 120.0
215.503891 56.0
216.123734 228.0
216.349091 72.0
217.583298 200.0
218.994751 108.0
219.950058 68.0
220.330994 100.0
223.36058 116.0
223.55397 172.0
224.343246 168.0
224.895081 92.0
225.713623 196.0
225.779419 72.0
226.347977 112.0
226.64151 88.0
226.674469 68.0
227.27417 100.0
227.361191 104.0
227.448227 44.0
227.55629 36.0
227.634369 176.0
227.670395 100.0
227.799545 128.0
227.82959 116.0
227.94075 148.0
227.967514 128.0
228.041702 13136.0
228.130096 100.0
228.163162 120.0
228.199249 40.0
228.29245 52.0
228.33757 48.0
228.391708 48.0
228.421783 36.0
228.475922 64.0
228.509018 44.0
228.5383 60.0
228.638412 44.0
228.70462 76.0
228.730301 120.0
228.758804 88.0
228.918365 60.0
228.963547 136.0
229.045792 1348.0
229.352203 44.0
229.548157 92.0
229.665771 40.0
229.698593 100.0
229.732132 112.0
229.814529 180.0
229.985596 224.0
230.039474 4064.0
230.08522 116.0
230.106949 128.0
230.444992 64.0
230.514099 104.0
230.595703 80.0
230.764984 152.0
230.822433 124.0
231.043045 348.0
231.227798 44.0
231.354919 52.0
231.51236 44.0
231.754211 76.0
231.860748 84.0
232.37439 132.0
232.582581 88.0
233.548798 44.0
233.588348 72.0
234.224518 92.0
236.667633 92.0
236.866699 128.0
237.24054 68.0
239.459015 72.0
239.871887 44.0
241.11264 144.0
241.724945 36.0
242.942551 64.0
244.486771 60.0
245.443069 56.0
250.923721 60.0
254.079956 204.0
254.292557 88.0
257.91394 72.0
263.689667 80.0
264.731384 76.0
266.677887 100.0
268.585876 176.0
268.886047 156.0
270.013153 128.0
270.926392 132.0
271.850983 92.0
276.954498 144.0
280.090027 136.0
282.427948 116.0
282.710876 60.0
284.12149 28.0
285.054871 124.0
287.881104 80.0
296.059784 44.0
299.008759 96.0
300.18692 200.0
301.122131 56.0
304.808075 112.0
310.645538 88.0
311.077148 136.0
314.37851 52.0
316.587921 64.0
318.091217 96.0
318.87616 60.0
322.86908 112.0
324.337006 76.0
324.770844 72.0
333.901398 136.0
339.331207 68.0
345.318695 52.0
345.655334 60.0
349.302246 80.0
355.447998 116.0
360.92099 36.0
362.150909 64.0
363.401855 96.0
369.868866 64.0
370.604156 88.0
371.754486 40.0
385.93988 48.0
392.824432 108.0
394.285309 36.0
405.961639 76.0
410.029999 76.0
419.302734 92.0
420.726257 56.0
433.257111 44.0
434.973877 80.0
440.215546 72.0
443.570923 68.0
448.594147 80.0
453.340515 56.0
472.852661 56.0
475.049408 68.0
476.760101 80.0
478.347595 44.0
478.469482 68.0
509.999725 56.0
516.931396 76.0
518.23999 64.0
523.887024 44.0
526.340759 120.0
542.517456 56.0
549.059509 44.0
565.115295 112.0
603.428162 80.0
617.115906 60.0
639.152527 40.0
642.336487 76.0
660.061279 128.0
661.263489 112.0
678.281311 28.0
679.152405 48.0
680.558716 168.0
696.434204 32.0
712.418335 168.0
735.897461 36.0
741.577393 148.0
778.312683 132.0
782.393555 168.0
786.083252 180.0
790.738342 216.0
801.503479 168.0
807.379761 220.0
818.103516 176.0
824.571655 192.0
832.35675 196.0
834.729919 168.0
845.876221 192.0
851.29126 172.0
857.009094 48.0
860.140747 120.0
862.330994 32.0
871.260986 212.0
881.057983 80.0
888.564697 180.0
889.169983 160.0
894.078796 72.0
897.241638 188.0
902.328125 204.0
917.474854 132.0
919.211853 116.0
926.255127 260.0
930.372559 160.0
937.190247 148.0
956.401062 44.0
959.715271 156.0
966.336304 64.0
966.942688 64.0
967.481201 156.0
969.72345 128.0
972.557922 200.0
976.664917 180.0
981.297974 164.0
986.423279 128.0
991.56189 104.0
992.075867 152.0
994.930237 212.0
996.450012 160.0
997.3172 172.0
997.61261 220.0
997.889221 72.0
998.499207 164.0
998.958313 220.0
1000.846375 192.0
1004.388062 144.0
1006.697937 136.0
1008.934631 172.0
1011.161133 152.0
1012.71228 184.0
1013.250671 216.0
1013.390076 240.0
1013.941345 104.0
1031.923706 176.0
1032.160278 124.0
1037.512695 184.0
1037.602417 168.0
1037.749878 60.0
1051.102783 132.0
1053.00708 176.0
1054.396118 140.0
1054.486572 128.0
1056.872803 184.0
1057.073364 236.0
1060.162231 80.0
1063.64502 140.0
1064.480347 228.0
1065.359253 176.0
1066.372925 176.0
1069.240967 180.0
1069.46228 176.0
1069.852783 212.0
1071.533081 184.0
1073.99707 168.0
1076.751343 148.0
1077.025635 132.0
1077.084473 164.0
1077.874878 124.0
1081.152832 196.0
1081.47168 212.0
1082.218018 96.0
1083.468872 208.0
1086.268066 128.0
1087.186646 52.0
1088.190918 176.0
1090.647705 116.0
1098.674683 164.0
1108.314087 172.0
1109.705933 196.0
1109.964478 144.0
1111.138428 188.0
1111.908203 212.0
1112.386108 176.0
1112.751221 88.0
1122.772095 220.0
1123.565796 204.0
1124.813721 136.0
1127.558838 124.0
1127.779297 236.0
1128.389282 208.0
1129.343872 180.0
1137.203003 64.0
1139.969849 136.0
1141.569702 144.0
1141.751343 172.0
1144.759399 240.0
1144.941162 188.0
1149.049194 152.0
1149.707397 240.0
1149.997559 144.0
1152.084106 156.0
1152.307007 164.0
1153.969604 112.0
1154.611938 192.0
1155.31543 148.0
1155.640137 140.0
1156.634888 128.0
1156.844727 184.0
1157.081665 236.0
1157.806152 160.0
1158.422607 108.0
1159.235596 164.0
1160.462402 256.0
1162.409058 136.0
1164.840088 228.0
1165.111328 184.0
1165.219971 124.0
1166.74231 196.0
1169.619751 112.0
1171.076782 216.0
1173.359497 60.0
1173.973145 188.0
1174.593872 180.0
1178.86084 180.0
1181.233276 172.0
1182.930298 68.0
1184.265503 64.0
1184.594238 168.0
1185.375244 144.0
1186.046875 204.0
1190.44458 96.0
1190.575073 84.0
1193.626099 180.0
1196.770508 192.0
1197.011475 124.0
1197.059692 132.0
1198.05835 148.0
1199.574463 48.0
1199.650269 188.0
1202.312622 116.0
1203.99707 176.0
1206.111206 108.0
1206.975342 164.0
1207.494019 64.0
1209.195923 144.0
1210.151123 112.0
1210.448853 180.0
1212.44397 72.0
1213.483643 196.0
1215.276489 192.0
1215.384033 176.0
1218.327759 120.0
1219.300537 204.0
1220.037354 208.0
1222.130615 192.0
1222.743042 180.0
1224.197998 156.0
1224.629761 152.0
1225.841919 152.0
1227.040771 152.0
1227.270874 172.0
1228.086792 164.0
1229.461182 156.0
1232.827148 192.0
1232.952881 52.0
1233.211548 188.0
1233.330322 104.0
1233.498047 176.0
1234.197144 128.0
1235.078369 192.0
1235.428101 152.0
1235.826904 136.0
1236.428589 136.0
1236.512573 92.0
1236.715576 100.0
1239.671021 216.0
1240.897583 208.0
1241.154175 128.0
1244.082642 160.0
1245.262207 184.0
1248.07312 72.0
1250.802734 148.0
1252.084106 96.0
1252.232056 52.0
1252.338745 132.0
1252.753174 88.0
1253.380249 152.0
1254.811035 184.0
1255.544312 168.0
1256.9552 132.0
1257.533813 212.0
1258.387939 116.0
1258.437378 36.0
1258.543335 164.0
1261.574097 128.0
1261.906372 188.0
1262.005371 212.0
1262.062012 92.0
1262.585205 48.0
1263.731201 144.0
1264.735962 204.0
1264.856323 172.0
1266.251099 136.0
1266.506104 160.0
1267.108276 128.0
1267.200317 240.0
1267.873535 200.0
1268.185303 148.0
1268.787842 48.0
1270.560791 124.0
1271.909058 112.0
1272.192993 164.0
1273.506592 132.0
1273.826294 160.0
1274.408813 136.0
1274.692993 136.0
1275.034058 236.0
1275.19751 236.0
1276.363403 192.0
1276.462891 228.0
1279.194946 168.0
1281.046387 156.0
1281.473755 196.0
1284.203979 156.0
1284.339478 108.0
1284.660522 64.0
1284.86731 172.0
1285.46228 180.0
1285.645142 216.0
1285.737915 116.0
1287.236938 276.0
1289.058472 180.0
1291.338989 136.0
1291.40332 180.0
1292.175903 96.0
1294.22998 184.0
1294.831543 156.0
1296.027832 168.0
1296.873413 136.0
1297.260498 128.0
1298.716064 220.0
1300.581543 208.0
1303.533203 128.0
1304.553833 160.0
1304.798218 216.0
1304.970703 32.0
1306.322754 168.0
1309.518555 220.0
1310.022827 204.0
1310.411743 220.0
1311.125488 176.0
1311.21167 76.0
1311.370239 184.0
1311.831543 108.0
1313.576538 164.0
1314.305176 160.0
1314.391724 184.0
1314.77417 148.0
1314.969116 172.0
1316.217896 176.0
1319.151123 188.0
1319.331909 156.0
1319.491333 152.0
1319.686157 160.0
1320.315186 128.0
1322.304688 112.0
1322.673828 156.0
1323.824951 140.0
1323.998779 152.0
1324.056641 144.0
1324.244995 156.0
1325.099731 88.0
1326.810059 188.0
1327.324829 220.0
1328.390991 128.0
1329.0802 100.0
1329.805908 176.0
1329.987305 72.0
1330.640625 140.0
1331.424805 192.0
1331.860596 64.0
1332.116455 272.0
1333.320923 208.0
1333.807861 164.0
1334.825684 192.0
1335.363892 140.0
1336.207642 196.0
1337.109863 160.0
1338.209106 104.0
1338.383789 100.0
1339.840454 184.0
1340.248413 180.0
1340.940674 136.0
1341.611328 196.0
1343.259277 204.0
1344.893799 184.0
1346.353882 232.0
1347.931763 164.0
1348.947632 148.0
1350.168701 152.0
1352.832886 164.0
1353.205322 172.0
1353.476196 152.0
1353.783813 124.0
1354.19751 144.0
1354.54541 188.0
1354.816528 120.0
1356.238037 48.0
1357.293701 156.0
1359.853882 184.0
1360.382446 200.0
1361.358887 240.0
1361.751099 232.0
1362.952881 148.0
1365.128662 168.0
1365.510986 100.0
1366.033203 140.0
1366.533569 40.0
1366.849854 180.0
1367.269287 184.0
1367.762451 144.0
1368.145264 104.0
1369.176025 140.0
1370.266235 140.0
1370.325195 44.0
1370.855713 100.0
1372.337158 152.0
1373.325317 192.0
1374.358154 80.0
1374.771362 80.0
1375.598022 152.0
1375.716064 212.0
1376.69812 128.0
1378.042358 152.0
1378.286255 156.0
1379.99353 176.0
1380.526001 176.0
1381.634644 200.0
1382.049683 208.0
1383.211548 136.0
1384.324707 188.0
1384.8479 168.0
1385.233032 108.0
1386.944702 96.0
1387.011475 216.0
1387.070801 96.0
1387.36731 32.0
1387.478516 164.0
1389.132202 196.0
1389.235962 148.0
1389.985352 196.0
1390.712646 156.0
1391.143188 156.0
1391.395508 112.0
1391.469727 164.0
1392.37561 144.0
1392.850952 48.0
1393.081299 192.0
1393.304077 232.0
1394.403809 164.0
1394.641724 104.0
1395.132324 28.0
1395.266113 264.0
1395.318115 172.0
1397.623779 124.0
1397.735352 196.0
1398.576294 220.0
1400.229126 196.0
1400.690918 172.0
1401.935181 120.0
1402.374878 216.0
1402.456787 140.0
1402.583496 172.0
1404.626587 200.0
1404.708618 144.0
1405.06665 164.0
1406.529297 136.0
1407.49231 188.0
1408.717163 132.0
1409.33728 76.0
1409.703369 152.0
1410.234009 124.0
1410.473145 200.0
1411.848877 132.0
1411.968506 176.0
1412.02832 100.0
1412.260132 212.0
1415.081299 256.0
1416.331909 140.0
1416.86377 84.0
1419.00708 96.0
1419.682007 180.0
1419.951904 80.0
1420.004395 260.0
1420.281982 148.0
1420.401978 200.0
1420.694458 192.0
1421.287231 124.0
1421.362183 176.0
1421.72998 132.0
1421.902588 160.0
1423.448975 148.0
1423.674194 208.0
1426.333862 52.0
1426.837524 176.0
1428.010498 44.0
1428.138428 148.0
1428.251221 148.0
1428.838013 156.0
1430.674194 164.0
1432.526733 148.0
1432.918457 204.0
1433.837646 136.0
1434.455688 272.0
1434.538696 80.0
1435.179443 136.0
1435.616821 112.0
1436.257935 164.0
1436.985718 220.0
1437.268799 120.0
1438.129028 168.0
1438.657471 208.0
1439.284058 144.0
1439.404907 176.0
1439.638916 240.0
1439.737183 56.0
1439.895752 124.0
1440.099609 188.0
1440.33374 204.0
1440.862549 168.0
1440.960815 108.0
1441.043945 136.0
1441.157227 48.0
1441.595459 172.0
1442.950439 160.0
1443.228149 196.0
1443.394531 128.0
1443.795288 196.0
1444.120483 140.0
1444.808838 168.0
1445.013062 108.0
1446.291992 196.0
1447.351807 240.0
1447.647095 244.0
1448.056152 96.0
1448.881714 36.0
1449.040771 212.0
1449.184814 132.0
1449.35144 144.0
1449.412109 180.0
1449.9729 160.0
1450.258179 168.0
1450.996094 40.0
1453.354858 200.0
1456.239502 68.0
1456.307861 48.0
1456.687622 120.0
1457.743652 164.0
1458.108521 132.0
1458.906616 180.0
1460.617432 204.0
1461.165161 128.0
1461.41626 184.0
1461.469482 84.0
1462.145996 212.0
1462.367432 212.0
1463.159058 208.0
1464.674438 228.0
1465.154419 164.0
1466.03064 192.0
1466.175415 236.0
1466.823242 144.0
1467.112915 52.0
1469.303467 148.0
1469.728882 144.0
1470.675171 128.0
1471.430786 196.0
1471.499512 180.0
1471.835449 220.0
1472.637329 200.0
1473.997192 208.0
1475.403442 40.0
1476.366821 228.0
1477.055176 212.0
1478.026733 272.0
1478.791992 52.0
1478.90686 100.0
1481.456665 48.0
1482.261108 156.0
1482.544556 152.0
1484.514771 116.0
1485.44043 172.0
1485.956665 48.0
1486.409424 248.0
1486.501465 80.0
1486.708618 228.0
1486.869873 168.0
1487.17688 184.0
1487.338013 192.0
1487.506836 188.0
1487.737183 244.0
1490.817139 164.0
1491.058228 220.0
1491.447266 132.0
1491.946899 52.0
1492.724731 152.0
1494.384888 172.0
1494.75415 216.0
1495.854736 164.0
1496.755493 200.0
1497.263672 144.0
1499.952637 108.0
1500.39978 156.0
1501.263306 172.0
1502.389404 224.0
1504.063843 140.0
1504.280029 148.0
1504.511597 140.0
1504.581055 220.0
1504.928467 156.0
