>compound MLS002695913-01!1405-53-4
>formula C46H77NO17
>ionization [M+H]+
>parentmass 916.527222
#inchi InChI=1S/C46H77NO17/c1-13-33-30(22-58-45-42(57-12)41(56-11)37(52)26(5)60-45)18-23(2)14-15-31(49)24(3)19-29(16-17-48)39(25(4)32(50)20-34(51)62-33)64-44-38(53)36(47(9)10)40(27(6)61-44)63-35-21-46(8,55)43(54)28(7)59-35/h14-15,17-18,24-30,32-33,35-45,50,52-55H,13,16,19-22H2,1-12H3/b15-14+,23-18+/t24-,25+,26-,27-,28+,29+,30-,32-,33-,35+,36-,37-,38-,39-,40-,41-,42-,43+,44+,45-,46-/m1/s1
#inchikey WBPYTXDJUQJLPQ
#origInchi InChI=1S/C46H77NO17.H3O4P/c1-13-33-30(22-58-45-42(57-12)41(56-11)37(52)26(5)60-45)18-23(2)14-15-31(49)24(3)19-29(16-17-48)39(25(4)32(50)20-34(51)62-33)64-44-38(53)36(47(9)10)40(27(6)61-44)63-35-21-46(8,55)43(54)28(7)59-35;1-5(2,3)4/h14-15,17-18,24-30,32-33,35-45,50,52-55H,13,16,19-22H2,1-12H3;(H3,1,2,3,4)/b15-14+,23-18+;/t24-,25+,26-,27-,28+,29+,30-,32-,33-,35+,36-,37-,38-,39-,40-,41-,42-,43+,44+,45-,46-;/m1./s1
#Ion_Source LC-ESI
#Instrument qTof
#Compound_Source NIH Pharmacologically Active Library
#PI Dorrestein
#Data_Collector VP/LMS
#Scan -1
#Precursor_MZ 916.538
#ExactMass 915.519
#Charge 1
#CAS_Number N/A
#Pubmed_ID N/A
#Smiles CC[C@H]1OC(=O)C[C@@H](O)[C@H](C)[C@@H](O[C@@H]2O[C@H](C)[C@@H](O[C@H]3C[C@@](C)(O)[C@@H](O)[C@H](C)O3)[C@@H]([C@H]2O)N(C)C)[C@@H](CC=O)C[C@@H](C)C(=O)\C=C\C(=C\[C@@H]1CO[C@@H]4O[C@H](C)[C@@H](O)[C@@H](OC)[C@H]4OC)\C.P(=O)(O)(O)O
#INCHI_AUX N/A
#Library_Class 1
#SpectrumID CCMSLIB00000085786
#IonMode Positive
#UpdateWorkflowName UPDATE-SINGLE-ANNOTATED-GOLD
#LibraryQualityString Gold
#TaskID d252d724072548979f1f6f1ced849daf
##Scan# 1696
#SpectrumFile p4-F06_GF6_01_18390.mzXML
#LibraryName Pharm_Active_Library.mgf
#MQScore -1
#Organism Pharm_Active_Library
#TIC_Query 0
#RT_Query -1
#MZErrorPPM -1
#SharedPeaks 0
#MassDiff 0
#LibMZ -1
#SpecMZ 916.538
#SpecCharge 0
#internalFilename spec-00000.mgf

>collision 10
44.926838 112.0
44.940182 196.0
44.989563 104.0
45.020275 84.0
45.03363 180.0
45.080391 200.0
45.119156 188.0
45.212791 156.0
45.333321 184.0
45.656868 240.0
45.808968 216.0
45.841305 132.0
45.90871 228.0
45.937035 228.0
45.969418 208.0
46.084194 160.0
46.162598 228.0
46.198833 172.0
46.301693 200.0
46.357536 144.0
46.441597 236.0
46.475513 136.0
46.491795 128.0
46.605572 240.0
46.654797 184.0
46.67519 140.0
46.854858 144.0
47.100418 204.0
47.222069 144.0
47.246693 128.0
47.295956 120.0
47.331551 160.0
47.424713 168.0
47.457615 152.0
47.467213 168.0
47.505024 212.0
47.544037 224.0
47.653893 132.0
47.691299 144.0
47.722618 140.0
47.737743 232.0
47.75425 212.0
47.791393 240.0
48.333683 144.0
48.3932 108.0
48.483242 168.0
48.506805 68.0
48.542854 148.0
48.553951 112.0
48.567822 100.0
48.596954 252.0
48.608055 152.0
48.820602 116.0
48.830338 192.0
48.869289 36.0
49.17622 212.0
49.210777 168.0
49.235912 164.0
49.39246 96.0
49.434772 164.0
49.552055 188.0
49.592693 152.0
49.608883 284.0
49.686649 208.0
49.748402 176.0
49.765251 192.0
49.78772 188.0
49.929665 216.0
49.973274 156.0
50.00705 76.0
50.087307 172.0
50.102806 156.0
50.149307 120.0
50.276855 168.0
50.317181 160.0
50.408993 128.0
50.425953 180.0
50.440086 164.0
50.580132 184.0
50.611279 180.0
50.637779 168.0
50.724621 132.0
50.785595 184.0
50.887772 396.0
50.930374 152.0
50.951683 204.0
51.027012 224.0
51.039547 88.0
51.100971 140.0
51.22768 152.0
51.267578 140.0
51.334579 152.0
51.378799 176.0
51.408764 156.0
51.428745 172.0
51.494427 152.0
51.653027 188.0
51.933842 176.0
51.995312 152.0
52.000607 128.0
52.003315 220.0
52.019939 152.0
52.048656 76.0
52.12048 368.0
52.165035 180.0
52.231182 180.0
52.388092 160.0
52.41835 176.0
52.493313 136.0
52.522156 152.0
52.538025 172.0
52.616383 212.0
52.676617 140.0
52.782124 240.0
52.906555 168.0
52.916691 180.0
52.961582 112.0
53.144249 132.0
53.166019 128.0
53.22118 172.0
53.327232 176.0
53.399593 276.0
53.484325 192.0
53.500336 116.0
53.564415 144.0
53.592094 156.0
53.809422 104.0
53.832783 176.0
53.843006 196.0
53.861996 204.0
53.875141 200.0
53.908749 172.0
53.926239 248.0
53.952599 212.0
53.992081 132.0
54.09304 184.0
54.192631 208.0
54.243324 156.0
54.30698 132.0
54.344673 352.0
54.378876 208.0
54.41264 40.0
54.434666 192.0
54.458164 132.0
54.508114 124.0
54.570156 192.0
54.681652 196.0
54.756741 176.0
54.812721 116.0
54.899696 56.0
55.001503 240.0
55.18026 208.0
55.237938 200.0
55.300083 128.0
55.333641 156.0
55.448196 216.0
55.503048 84.0
55.574245 120.0
55.670734 104.0
55.759876 48.0
55.965168 156.0
56.042622 264.0
56.105221 144.0
56.120132 236.0
56.14399 116.0
56.166363 192.0
56.193218 156.0
56.264858 44.0
56.321606 196.0
56.347 252.0
56.361942 268.0
56.474022 128.0
56.503986 140.0
56.542828 176.0
56.566845 76.0
56.602776 132.0
56.617752 132.0
56.728634 188.0
56.742126 140.0
56.782616 156.0
56.832119 232.0
56.875641 248.0
56.920685 168.0
56.947716 136.0
56.962738 236.0
57.057415 160.0
57.150669 212.0
57.18227 176.0
57.203346 160.0
57.253033 136.0
57.35347 172.0
57.442951 156.0
57.47916 160.0
57.675499 40.0
57.71632 64.0
57.819187 36.0
57.861572 156.0
57.935783 152.0
57.963055 132.0
58.005493 176.0
58.025204 56.0
58.052498 40.0
58.066147 136.0
58.137451 124.0
58.198174 164.0
58.367588 164.0
58.427677 128.0
58.43985 132.0
58.668308 104.0
58.785755 60.0
58.907906 136.0
58.959854 184.0
59.011829 180.0
59.120438 132.0
59.169422 152.0
59.221489 148.0
59.275108 156.0
59.417709 140.0
59.436119 140.0
59.509796 148.0
59.571232 160.0
59.631157 188.0
59.684967 160.0
59.714184 196.0
59.828056 220.0
59.861931 168.0
59.872711 176.0
59.900436 136.0
59.912762 120.0
59.963612 176.0
60.06538 196.0
60.13327 120.0
60.193481 104.0
60.24754 160.0
60.313992 112.0
60.363464 84.0
60.454739 52.0
60.50272 152.0
60.592548 184.0
60.828278 176.0
60.91058 260.0
60.925602 228.0
60.936989 56.0
61.027138 184.0
61.080017 176.0
61.108021 168.0
61.150036 116.0
61.293312 128.0
61.340069 164.0
61.414917 172.0
61.675682 192.0
61.725712 324.0
61.803925 240.0
61.852444 156.0
61.915157 148.0
61.938789 196.0
62.057178 216.0
62.302517 176.0
62.356628 156.0
62.406246 128.0
62.631294 176.0
62.662804 228.0
62.785759 140.0
62.960941 156.0
63.09486 192.0
63.257347 160.0
63.380157 80.0
63.459412 144.0
63.57045 176.0
63.603779 220.0
63.621243 80.0
63.726063 100.0
63.826202 164.0
63.856419 184.0
63.905735 232.0
63.948864 120.0
63.978947 112.0
64.010796 132.0
64.047424 72.0
64.109566 100.0
64.178108 128.0
64.208405 44.0
64.353622 188.0
64.521385 176.0
64.569359 152.0
64.650955 148.0
64.682961 116.0
64.741295 180.0
64.814293 132.0
64.944153 232.0
65.024376 248.0
65.10144 240.0
65.13517 124.0
65.146416 152.0
65.170517 348.0
65.196228 156.0
65.221939 168.0
65.300728 172.0
65.371521 116.0
65.485825 204.0
65.538986 220.0
65.598625 176.0
65.645378 144.0
65.676025 176.0
65.77607 144.0
66.02813 140.0
66.080391 184.0
66.133301 76.0
66.154343 156.0
66.481766 160.0
66.540199 148.0
66.574295 152.0
66.616531 164.0
66.670151 196.0
66.772575 180.0
66.975998 180.0
67.051514 136.0
67.106445 160.0
67.170174 200.0
67.209167 240.0
67.261391 128.0
67.395317 96.0
67.445976 60.0
67.478676 168.0
67.553902 152.0
67.620995 112.0
67.663559 172.0
67.709404 164.0
67.824852 128.0
67.860168 220.0
67.952019 76.0
67.984833 192.0
67.996323 104.0
68.011055 152.0
68.040642 124.0
68.078407 100.0
68.339783 144.0
68.402321 116.0
68.420425 184.0
68.581871 184.0
68.726219 144.0
68.773209 148.0
68.806221 228.0
68.958199 196.0
68.992912 136.0
69.062363 108.0
69.153366 220.0
69.192657 180.0
69.254372 124.0
69.295441 228.0
69.438347 184.0
69.458252 148.0
69.519646 156.0
69.546616 176.0
69.586044 204.0
69.625893 156.0
69.725578 156.0
69.768799 76.0
69.787086 148.0
70.131699 112.0
70.158371 112.0
70.178375 160.0
70.275116 172.0
70.345215 156.0
70.374832 124.0
70.403656 204.0
70.512253 216.0
70.528961 120.0
70.620934 100.0
70.647697 232.0
70.66275 176.0
70.70961 152.0
70.811737 108.0
70.861572 144.0
70.937408 168.0
70.962563 164.0
70.997772 160.0
71.069908 232.0
71.135361 196.0
71.217644 116.0
71.263687 180.0
71.288208 208.0
71.500107 168.0
71.617973 184.0
71.794945 104.0
71.904602 128.0
72.005905 232.0
72.027863 204.0
72.049828 140.0
72.227333 152.0
72.266464 184.0
72.281471 84.0
72.306854 140.0
72.384727 176.0
72.51004 124.0
72.555901 184.0
72.58461 172.0
72.611824 172.0
72.697685 392.0
72.756058 556.0
72.818886 168.0
72.839272 120.0
72.934433 164.0
73.007538 176.0
73.07048 136.0
73.136345 176.0
73.193031 172.0
73.244125 132.0
73.266266 120.0
73.438438 120.0
73.540817 104.0
73.636436 152.0
73.867188 40.0
73.90654 64.0
74.132576 80.0
74.15657 112.0
74.218697 236.0
74.336655 52.0
74.386429 116.0
74.615776 184.0
74.730148 72.0
74.811043 48.0
74.953995 172.0
75.147118 204.0
75.282005 168.0
75.392326 56.0
75.57563 168.0
75.592934 156.0
75.641396 128.0
75.655243 280.0
75.688141 104.0
75.826736 132.0
75.840599 96.0
76.005356 140.0
76.052216 228.0
76.13903 208.0
76.204636 172.0
76.326714 196.0
76.378105 160.0
76.439781 220.0
76.472847 148.0
76.486778 144.0
76.512886 112.0
76.526817 212.0
76.601707 196.0
76.669525 160.0
76.725441 168.0
76.739388 44.0
76.978447 228.0
77.025604 184.0
77.16716 200.0
77.19339 200.0
77.209129 168.0
77.284348 92.0
77.352608 144.0
77.419731 228.0
77.440155 168.0
77.482201 156.0
77.5504 148.0
77.583847 72.0
77.653992 172.0
77.666267 152.0
77.694336 168.0
77.73645 76.0
77.815437 156.0
77.882172 212.0
78.00869 172.0
78.059685 64.0
78.092178 196.0
78.18811 136.0
78.295502 164.0
78.492874 124.0
78.63578 132.0
78.686974 164.0
78.725815 152.0
78.819443 136.0
78.964409 44.0
78.982101 136.0
79.15023 160.0
79.192734 204.0
79.208679 176.0
79.272461 156.0
79.355774 188.0
79.387688 124.0
79.435577 56.0
79.462189 132.0
79.487038 240.0
79.570457 116.0
79.60952 204.0
79.625504 216.0
79.710785 144.0
79.79966 248.0
79.817436 184.0
79.897476 120.0
79.968658 160.0
80.034531 180.0
80.244781 196.0
80.259041 88.0
80.328598 208.0
80.478516 176.0
80.696503 248.0
80.709023 144.0
80.753731 180.0
80.871819 120.0
80.973335 172.0
81.029411 172.0
81.092133 164.0
81.120811 132.0
81.289406 120.0
81.508492 168.0
81.594765 160.0
81.618141 156.0
81.816055 88.0
81.961205 184.0
82.002464 176.0
82.055679 132.0
82.135025 184.0
82.284813 264.0
82.472694 56.0
82.510658 176.0
82.579369 148.0
82.649925 144.0
82.780258 128.0
82.988647 256.0
83.046677 184.0
83.141022 92.0
83.27356 132.0
83.338959 216.0
83.393478 124.0
83.497116 144.0
83.586258 160.0
83.61174 128.0
83.718056 228.0
83.795654 156.0
83.955231 164.0
83.99437 224.0
84.175056 164.0
84.206108 96.0
84.396164 224.0
84.476639 188.0
84.555428 200.0
84.599251 204.0
84.692642 120.0
84.716858 180.0
84.852074 132.0
84.869308 180.0
84.965782 148.0
85.035515 52.0
85.134659 204.0
85.26326 168.0
85.32576 112.0
85.388283 188.0
85.410355 116.0
85.478378 160.0
85.515236 176.0
85.56678 148.0
85.633072 160.0
85.725189 164.0
85.750992 80.0
85.780487 120.0
85.946472 196.0
86.009224 36.0
86.05294 224.0
86.078285 204.0
86.118164 156.0
86.173584 72.0
86.240112 80.0
86.258598 152.0
86.487976 184.0
86.582405 164.0
86.610184 164.0
86.749168 176.0
87.01075 64.0
87.04509 228.0
87.096176 36.0
87.216957 200.0
87.367584 56.0
87.417038 180.0
87.550003 184.0
87.652458 180.0
87.706505 180.0
87.730743 132.0
87.762436 168.0
87.790405 148.0
87.809059 144.0
87.920998 148.0
87.937798 208.0
88.001266 220.0
88.074287 456.0
88.395676 148.0
88.420006 172.0
88.493011 192.0
88.549942 240.0
88.582909 164.0
88.59977 136.0
88.616631 176.0
88.832237 184.0
88.851746 140.0
88.896027 172.0
89.076279 156.0
89.152878 192.0
89.18338 40.0
89.301842 172.0
89.322533 196.0
89.360161 108.0
89.407204 244.0
89.423965 172.0
89.546524 192.0
89.625648 188.0
89.880211 168.0
89.917953 160.0
89.944374 92.0
90.031227 192.0
90.1408 204.0
90.15403 196.0
90.282585 168.0
90.403664 164.0
90.490738 160.0
90.642441 216.0
90.674484 248.0
90.687752 100.0
90.919144 260.0
90.941917 148.0
91.027351 132.0
91.055008 168.0
91.082436 116.0
91.179337 176.0
91.207848 152.0
91.340958 156.0
91.436089 32.0
91.495102 104.0
91.575081 120.0
91.668434 392.0
91.702255 220.0
91.878174 256.0
92.153107 232.0
92.457161 180.0
92.493523 128.0
92.52224 204.0
92.566277 172.0
92.602669 172.0
92.884438 164.0
92.938156 208.0
93.066757 96.0
93.212746 32.0
93.281937 148.0
93.330002 172.0
93.381927 140.0
93.458878 152.0
93.503143 72.0
93.53009 160.0
93.699554 140.0
93.722679 180.0
93.740021 80.0
93.840256 160.0
94.08371 172.0
94.143211 112.0
94.226273 208.0
94.2939 168.0
94.338364 132.0
94.462128 224.0
94.498886 220.0
94.531784 148.0
94.601463 112.0
94.733147 164.0
94.793213 180.0
94.826157 200.0
94.909523 140.0
94.969643 200.0
95.046249 172.0
95.202545 216.0
95.256927 56.0
95.282181 148.0
95.317154 92.0
95.341461 132.0
95.356026 132.0
95.379349 188.0
95.408508 164.0
95.638054 168.0
95.72567 140.0
95.823059 188.0
95.941948 52.0
96.060905 136.0
96.137001 44.0
96.160423 108.0
96.254135 80.0
96.314674 252.0
96.33812 128.0
96.37133 40.0
96.386963 172.0
96.439728 96.0
96.54335 260.0
96.567177 220.0
96.607903 120.0
96.637245 124.0
96.733147 188.0
96.776222 104.0
96.887856 212.0
96.923126 140.0
97.062782 180.0
97.225128 204.0
97.315422 108.0
97.331131 148.0
97.360588 192.0
97.425407 184.0
97.439163 80.0
97.568878 156.0
97.58461 108.0
97.761642 52.0
97.802979 36.0
97.856125 200.0
97.944748 108.0
98.05735 136.0
98.076775 168.0
98.095573 3772.0
98.155632 204.0
98.228943 236.0
98.352928 180.0
98.422028 148.0
98.493126 160.0
98.593887 64.0
98.66703 152.0
98.765907 96.0
98.989555 184.0
99.044205 752.0
99.07534 176.0
99.099731 564.0
99.197594 40.0
99.229309 132.0
99.334869 176.0
99.415771 172.0
99.467377 112.0
99.755417 48.0
99.996101 128.0
100.075668 2276.0
100.108391 280.0
100.125519 84.0
100.173325 72.0
100.262985 184.0
100.284912 156.0
100.302849 208.0
100.366646 156.0
100.470367 172.0
100.541122 104.0
100.580124 188.0
100.602081 192.0
100.646004 132.0
100.687943 140.0
100.741875 84.0
100.929749 132.0
100.943748 172.0
100.989746 120.0
101.059647 12568.0
101.08252 1804.0
101.11351 224.0
101.176292 36.0
101.237923 88.0
101.275978 104.0
101.497398 108.0
101.624023 216.0
101.64286 184.0
101.702538 180.0
101.795425 148.0
101.822052 140.0
101.883804 40.0
101.91394 212.0
101.938057 52.0
101.998352 104.0
102.022476 268.0
102.062096 1276.0
102.086372 320.0
102.123787 148.0
102.207512 132.0
102.235687 60.0
102.296074 200.0
102.313217 176.0
102.348419 64.0
102.371376 240.0
102.443077 240.0
102.628502 80.0
102.672867 100.0
102.711189 116.0
102.781464 48.0
102.793289 52.0
102.878685 156.0
102.894836 128.0
102.927139 192.0
102.953392 128.0
103.062248 288.0
103.143318 104.0
103.16555 232.0
103.234749 196.0
103.294975 144.0
103.493317 204.0
103.541916 224.0
103.622948 164.0
103.762794 168.0
103.833771 60.0
103.930573 184.0
103.987968 184.0
104.014351 140.0
104.040749 84.0
104.056984 148.0
104.117859 172.0
104.217445 168.0
104.365829 208.0
104.388199 180.0
104.484192 164.0
104.787155 176.0
104.815681 160.0
104.831985 164.0
104.850327 116.0
104.954292 224.0
105.044037 148.0
105.211372 220.0
105.382935 204.0
105.423546 156.0
105.534195 160.0
105.751045 32.0
105.779701 92.0
105.863647 232.0
105.918945 176.0
105.978363 124.0
106.048035 204.0
106.123886 152.0
106.140289 152.0
106.1567 160.0
106.220276 188.0
106.443993 160.0
106.534363 136.0
106.616554 132.0
106.850975 220.0
107.082687 284.0
107.328827 188.0
107.372139 216.0
107.442268 216.0
107.460838 64.0
107.500046 244.0
107.526871 144.0
107.741631 208.0
107.799484 148.0
107.888359 160.0
107.902832 160.0
108.153152 148.0
108.186272 48.0
108.209045 32.0
108.28981 240.0
108.360245 124.0
108.397537 180.0
108.534889 276.0
108.615463 144.0
108.787476 76.0
108.824844 148.0
108.872604 76.0
108.959373 176.0
109.062843 744.0
109.094933 68.0
109.142754 76.0
109.195145 104.0
109.223869 64.0
109.394501 148.0
109.67572 128.0
109.740349 116.0
109.820152 180.0
109.967735 176.0
110.038712 40.0
110.076302 184.0
110.170288 132.0
110.339577 128.0
110.423218 200.0
110.439957 60.0
110.532005 28.0
110.598976 128.0
110.69738 144.0
110.714134 168.0
110.739761 260.0
110.814682 76.0
110.832909 252.0
111.045509 360.0
111.073624 140.0
111.118698 104.0
111.150177 152.0
111.223633 80.0
111.364311 184.0
111.423134 56.0
111.458855 100.0
111.536613 180.0
111.551331 56.0
111.632515 176.0
111.738503 80.0
111.826889 272.0
111.875305 212.0
112.018501 184.0
112.074646 976.0
112.233482 216.0
112.306 312.0
112.410667 128.0
112.507767 204.0
112.530991 52.0
112.575333 152.0
112.674606 156.0
112.759132 200.0
112.805176 444.0
112.911812 168.0
113.063324 536.0
113.078529 300.0
113.15683 212.0
113.171654 132.0
113.31144 164.0
113.595528 152.0
113.678276 204.0
113.78653 40.0
113.839615 60.0
113.899086 144.0
113.958572 168.0
113.977692 224.0
113.992569 100.0
114.013817 132.0
114.062706 140.0
114.090088 3800.0
114.130737 136.0
114.18692 124.0
114.33709 156.0
114.356247 276.0
114.411591 108.0
114.603279 180.0
114.634224 172.0
114.716232 152.0
114.765274 148.0
114.810051 184.0
114.918846 208.0
114.99295 160.0
115.017014 164.0
115.074883 152.0
115.098145 2488.0
115.226303 140.0
115.341705 148.0
115.534164 160.0
115.621895 140.0
115.644211 236.0
115.764465 236.0
115.788895 164.0
115.823166 140.0
115.887436 48.0
115.941963 144.0
116.00531 164.0
116.069756 6640.0
116.105408 528.0
116.145485 76.0
116.174728 164.0
116.294899 48.0
116.324951 164.0
116.350708 64.0
116.548309 192.0
116.565498 56.0
116.58699 88.0
116.617081 220.0
116.662224 160.0
116.789658 108.0
116.853638 176.0
116.890213 40.0
116.909584 100.0
116.941864 124.0
117.074966 392.0
117.103142 168.0
117.170128 124.0
117.226151 160.0
117.264946 156.0
117.288658 44.0
117.305901 192.0
117.363815 144.0
117.415871 116.0
117.465477 184.0
117.601418 96.0
117.689934 164.0
117.836807 48.0
117.959991 172.0
117.983772 132.0
118.08448 224.0
118.241188 212.0
118.280144 64.0
118.342934 160.0
118.524879 132.0
118.698296 212.0
118.715645 156.0
118.782883 212.0
119.00425 164.0
119.047676 36.0
119.085114 292.0
119.297554 184.0
119.58033 148.0
119.610802 112.0
119.774124 112.0
119.880882 132.0
120.029114 156.0
120.085815 128.0
120.125084 208.0
120.334595 192.0
120.432869 168.0
120.496216 156.0
120.655769 48.0
120.905128 200.0
120.937965 160.0
121.066772 192.0
121.100159 824.0
121.117516 32.0
121.158463 260.0
121.251167 176.0
121.316933 184.0
121.426567 192.0
121.700882 148.0
121.773354 176.0
121.788727 36.0
121.89418 396.0
121.922752 148.0
121.964508 180.0
122.001884 100.0
122.061249 180.0
122.076637 192.0
122.103035 144.0
122.147026 72.0
122.314262 164.0
122.38031 76.0
122.450775 64.0
122.547707 60.0
122.563133 192.0
122.587372 48.0
122.843132 60.0
122.909325 204.0
122.960083 168.0
123.005066 236.0
123.057213 228.0
123.081505 164.0
123.117226 180.0
123.185303 160.0
123.397469 92.0
123.415161 124.0
123.492561 184.0
123.645226 164.0
123.702774 124.0
123.775841 160.0
124.44104 132.0
124.569855 200.0
124.594292 192.0
124.632065 132.0
124.734299 176.0
124.792099 76.0
124.807663 160.0
124.825455 156.0
124.978943 152.0
125.054604 112.0
125.082161 180.0
125.152557 72.0
125.1726 120.0
125.238846 188.0
125.578217 148.0
125.747787 180.0
125.792427 88.0
125.859406 72.0
125.904068 176.0
126.090126 636.0
126.299683 140.0
126.377983 220.0
126.43129 180.0
126.449272 168.0
126.561523 128.0
126.610794 56.0
126.657829 56.0
126.684807 184.0
126.754166 200.0
126.855026 256.0
126.899864 212.0
126.935966 200.0
126.962654 156.0
127.043404 160.0
127.074173 9260.0
127.140106 116.0
127.198654 88.0
127.223289 76.0
127.247635 72.0
127.277946 152.0
127.438553 64.0
127.470009 76.0
127.490234 180.0
127.512711 48.0
127.611389 172.0
127.649849 32.0
127.746559 80.0
127.81897 176.0
127.924339 200.0
128.076889 656.0
128.105499 340.0
128.169846 36.0
128.187866 128.0
128.214905 76.0
128.430618 220.0
128.546417 68.0
128.787994 160.0
128.871582 96.0
128.939377 136.0
128.970642 144.0
128.978928 120.0
129.034317 100.0
129.063766 184.0
129.104416 260.0
129.14061 52.0
129.259003 160.0
129.309631 148.0
129.416702 52.0
129.443878 124.0
129.479935 164.0
129.550323 160.0
129.650024 124.0
129.733887 124.0
129.790573 152.0
129.849533 128.0
129.894897 44.0
129.938004 220.0
129.959671 204.0
130.026505 156.0
130.085144 1232.0
130.237671 168.0
130.30127 188.0
130.412628 48.0
130.435349 128.0
130.586472 160.0
130.621826 172.0
130.651398 120.0
130.717377 156.0
130.767441 52.0
130.806137 196.0
130.926819 64.0
130.972366 216.0
131.066528 168.0
131.089279 420.0
131.120468 200.0
131.136429 124.0
131.195694 56.0
131.31427 100.0
131.371292 44.0
131.558426 92.0
131.855377 60.0
131.91481 104.0
132.071228 220.0
132.100739 13372.0
132.149094 156.0
132.175552 164.0
132.193848 72.0
132.283112 84.0
132.317459 124.0
132.354095 164.0
132.388443 240.0
132.429672 56.0
132.594635 120.0
132.674866 248.0
132.716125 108.0
132.739059 88.0
133.038208 168.0
133.067184 144.0
133.103256 1052.0
133.269302 184.0
133.554382 128.0
133.593491 44.0
133.853577 192.0
133.984863 184.0
134.028641 84.0
134.106201 328.0
134.185379 48.0
134.291931 96.0
134.381424 196.0
134.686157 244.0
134.743912 188.0
134.864075 224.0
135.000488 104.0
135.041489 160.0
135.079132 224.0
135.115662 152.0
135.259628 76.0
135.275833 252.0
135.3013 108.0
135.811111 28.0
135.834305 160.0
135.889984 132.0
135.947998 128.0
135.979279 92.0
136.008347 140.0
136.082642 120.0
136.245209 200.0
136.335831 64.0
136.37767 100.0
136.39859 92.0
136.442764 204.0
136.815002 76.0
137.047913 88.0
137.093735 460.0
137.215729 28.0
137.387634 180.0
137.47464 52.0
137.490982 80.0
137.546997 48.0
137.572678 172.0
137.58902 72.0
137.661407 180.0
137.967499 96.0
138.095078 396.0
138.156937 120.0
138.213089 108.0
138.231812 64.0
138.561951 144.0
138.590073 76.0
138.608826 132.0
138.672104 108.0
138.906586 176.0
139.077881 184.0
139.110199 172.0
139.370178 112.0
139.486603 128.0
139.54538 204.0
139.658264 48.0
139.832367 100.0
139.851196 120.0
139.867676 88.0
139.961853 128.0
140.272842 144.0
140.466217 168.0
140.515762 192.0
140.546432 68.0
140.666794 212.0
140.813187 108.0
140.893509 240.0
141.084946 132.0
141.127502 176.0
141.222092 112.0
141.354584 140.0
141.480026 208.0
141.584213 72.0
141.652908 48.0
141.963394 180.0
142.297974 220.0
142.43335 132.0
142.612167 188.0
142.675735 60.0
142.749451 140.0
142.875519 132.0
142.924149 164.0
142.996185 224.0
143.068329 1272.0
143.101624 140.0
143.14209 140.0
143.270721 140.0
143.301682 132.0
143.385086 232.0
143.492371 140.0
143.547211 120.0
143.59729 48.0
143.831131 128.0
143.890808 180.0
144.076675 116.0
144.104477 548.0
144.12471 168.0
144.213303 72.0
144.258728 124.0
144.311325 104.0
144.328064 88.0
144.428497 148.0
144.473953 180.0
144.50267 236.0
144.574448 88.0
144.686951 164.0
144.764771 140.0
144.835434 120.0
144.87616 136.0
144.892929 220.0
144.921677 112.0
144.976791 156.0
145.046082 184.0
145.085556 13724.0
145.146988 64.0
145.197357 48.0
145.221344 72.0
145.319702 48.0
145.39888 212.0
145.437286 40.0
145.458893 160.0
145.552521 204.0
145.571732 44.0
145.601105 104.0
145.66301 60.0
145.836014 148.0
146.006729 136.0
146.04039 60.0
146.090454 1184.0
146.148651 104.0
146.167908 112.0
146.27861 68.0
146.427902 108.0
146.56282 56.0
146.62001 76.0
146.774933 88.0
146.836182 152.0
146.864166 120.0
146.890701 40.0
146.987213 120.0
147.08963 184.0
147.110947 196.0
147.153763 152.0
147.223785 56.0
147.273224 108.0
147.448471 112.0
147.535492 232.0
147.673325 152.0
147.70961 112.0
147.929825 100.0
148.101746 164.0
148.147781 140.0
148.186539 188.0
148.256805 232.0
148.35376 200.0
148.387711 64.0
148.528366 160.0
148.60527 160.0
148.755051 152.0
148.865738 180.0
148.885162 212.0
148.907013 208.0
149.04306 152.0
149.097763 284.0
149.12326 112.0
149.225357 40.0
149.563507 108.0
149.841141 204.0
150.101944 368.0
150.174561 232.0
150.27269 264.0
150.331253 160.0
150.384949 144.0
150.411789 192.0
150.858841 176.0
150.875946 48.0
150.922409 192.0
151.069153 192.0
151.112061 148.0
151.154785 132.0
151.235489 160.0
151.414291 188.0
151.490219 212.0
151.556366 168.0
151.637238 32.0
151.688721 132.0
151.772079 160.0
151.921539 140.0
152.024734 128.0
152.086105 144.0
152.230957 168.0
152.302185 252.0
152.400452 116.0
152.444595 216.0
152.806137 76.0
153.051865 192.0
153.249329 60.0
153.340515 220.0
153.485962 136.0
153.708984 252.0
153.791885 80.0
154.073395 80.0
154.09317 164.0
154.169769 104.0
154.315613 188.0
154.503586 160.0
154.548111 168.0
154.753555 140.0
154.817932 116.0
154.919495 208.0
155.067566 332.0
155.106216 300.0
155.401749 148.0
155.539444 176.0
155.760452 52.0
155.844925 176.0
155.894623 248.0
155.961731 132.0
156.043762 152.0
156.100357 14572.0
156.158157 132.0
156.186829 108.0
156.220337 124.0
156.237762 108.0
156.287521 100.0
156.34227 164.0
156.38707 104.0
156.404495 108.0
156.469208 80.0
156.528976 132.0
156.567123 220.0
156.66098 144.0
156.698349 68.0
156.725754 60.0
156.860336 36.0
156.912689 152.0
156.965057 92.0
157.042374 52.0
157.082809 344.0
157.103409 1288.0
157.212021 88.0
157.399246 272.0
157.574097 92.0
157.759033 144.0
157.78154 156.0
157.844604 144.0
157.919083 108.0
158.026642 216.0
158.046661 92.0
158.0867 44.0
158.114563 1280.0
158.224365 64.0
158.362915 544.0
158.447266 152.0
158.464813 164.0
158.580093 160.0
158.762314 152.0
158.893539 172.0
158.931183 68.0
159.076752 136.0
159.117462 188.0
159.175674 80.0
159.207321 76.0
159.232437 124.0
159.428391 148.0
159.546539 228.0
159.632019 224.0
159.815659 164.0
160.092422 208.0
160.372208 36.0
160.687439 204.0
160.750519 176.0
160.783325 228.0
160.851486 152.0
161.053482 160.0
161.091446 112.0
161.126526 352.0
161.172226 132.0
161.296066 184.0
161.326401 188.0
161.359268 168.0
161.442719 112.0
161.483185 60.0
161.531235 108.0
161.551483 188.0
161.817215 124.0
161.986893 256.0
162.104874 192.0
162.506622 124.0
162.582748 156.0
162.910309 228.0
163.014481 184.0
163.039886 112.0
163.075302 172.0
163.108521 96.0
163.149933 216.0
163.23819 156.0
163.309402 72.0
163.479858 120.0
163.640228 28.0
163.731903 36.0
163.838882 100.0
164.114426 224.0
164.188095 80.0
164.425369 160.0
164.453445 92.0
164.535126 168.0
164.581085 176.0
164.959213 168.0
164.987335 148.0
165.053818 148.0
165.086655 128.0
165.091507 108.0
165.101074 208.0
165.131393 180.0
165.855148 184.0
165.924377 84.0
165.95842 212.0
166.039764 96.0
166.134674 248.0
166.160324 116.0
166.239868 72.0
166.316864 176.0
166.643021 100.0
166.959198 240.0
167.177872 120.0
167.29628 212.0
167.370941 132.0
167.726486 204.0
167.955978 124.0
168.14949 172.0
168.167557 192.0
168.281143 184.0
168.322464 272.0
168.531693 180.0
168.549774 192.0
168.883286 40.0
169.090195 428.0
169.173096 156.0
169.276672 220.0
169.364731 112.0
169.421722 84.0
169.727554 232.0
169.787201 136.0
170.041458 160.0
170.114975 100.0
170.410217 160.0
170.449188 36.0
170.598831 160.0
170.688339 44.0
170.719543 72.0
170.83139 212.0
170.977112 152.0
171.086426 168.0
171.11554 380.0
171.21402 144.0
171.258301 40.0
171.320816 200.0
171.409409 168.0
171.432861 180.0
171.534515 52.0
171.591858 204.0
171.68573 204.0
171.745728 96.0
171.970123 108.0
171.988388 188.0
172.093918 1520.0
172.244293 60.0
172.32402 56.0
172.426254 144.0
172.576202 156.0
172.638016 204.0
172.832535 48.0
173.018372 216.0
173.092255 328.0
173.131485 344.0
173.18335 84.0
173.24884 132.0
173.272415 108.0
173.327698 288.0
173.364365 228.0
173.398193 132.0
173.461105 212.0
173.482071 44.0
173.508301 160.0
173.531891 160.0
173.57605 148.0
173.670883 208.0
173.704987 204.0
173.746964 200.0
173.76532 56.0
173.785736 224.0
173.807312 196.0
173.86618 284.0
173.901779 180.0
173.925949 116.0
174.013428 148.0
174.055893 136.0
174.111786 147576.0
174.182205 124.0
174.206604 124.0
174.245544 96.0
174.249496 104.0
174.289352 236.0
174.313843 156.0
174.337723 308.0
174.359314 80.0
174.364975 128.0
174.423508 32.0
174.459457 108.0
174.488525 56.0
174.508316 264.0
174.544098 1020.0
174.573822 220.0
174.605499 116.0
174.641205 152.0
174.682205 60.0
174.705872 72.0
174.747971 196.0
174.767517 84.0
174.797745 96.0
174.83345 164.0
174.87085 68.0
174.900345 192.0
174.940689 116.0
174.979584 88.0
175.007446 72.0
175.053314 108.0
175.114471 13756.0
175.176163 156.0
175.239807 40.0
175.267593 104.0
175.303574 56.0
175.334213 216.0
175.382462 56.0
175.392792 52.0
175.399734 100.0
175.42543 52.0
175.503067 160.0
175.530289 88.0
175.554016 108.0
175.594345 96.0
175.626251 72.0
175.701736 92.0
175.733398 80.0
175.799362 68.0
175.826508 56.0
175.902298 44.0
175.920776 92.0
175.965668 56.0
175.992065 64.0
176.015823 40.0
176.039597 104.0
176.073471 156.0
176.116577 1524.0
176.161102 48.0
176.191483 148.0
176.209198 116.0
176.266785 56.0
176.303986 52.0
176.335236 124.0
176.343903 116.0
176.383484 76.0
176.410934 148.0
176.433853 264.0
176.467667 120.0
176.507339 168.0
176.545593 112.0
176.573441 180.0
176.599731 132.0
176.67926 72.0
176.751846 52.0
176.803619 44.0
177.007462 68.0
177.092209 156.0
177.122681 256.0
177.166382 56.0
177.288269 124.0
177.346207 112.0
177.378204 56.0
177.497696 80.0
177.537476 64.0
177.582565 48.0
177.885056 160.0
178.190475 56.0
178.326004 36.0
178.35524 152.0
178.413727 80.0
178.448288 128.0
178.629135 84.0
178.722244 96.0
178.981415 88.0
179.072464 196.0
179.104736 396.0
179.569412 156.0
179.862915 72.0
179.900284 120.0
179.924316 40.0
180.05249 104.0
180.103241 48.0
180.124603 60.0
181.06662 64.0
181.086166 360.0
181.121033 160.0
181.486847 80.0
181.650452 64.0
182.106506 160.0
182.456116 84.0
182.870377 52.0
182.959213 164.0
183.098526 632.0
183.848724 68.0
184.507812 48.0
184.799911 52.0
184.826981 208.0
185.021851 68.0
185.127396 332.0
185.281845 124.0
185.698944 148.0
185.889221 40.0
186.318222 136.0
186.796692 72.0
187.10994 156.0
187.154022 124.0
187.506134 228.0
188.118378 184.0
188.853439 136.0
188.973816 108.0
189.086014 104.0
189.12674 272.0
189.168121 160.0
189.425537 68.0
190.050629 92.0
190.124725 152.0
190.352585 72.0
191.1026 452.0
191.144318 264.0
191.981735 80.0
192.123184 532.0
192.152756 176.0
192.500549 116.0
192.602737 104.0
193.083664 124.0
193.122894 744.0
193.152817 116.0
193.775711 56.0
194.080612 132.0
194.120377 188.0
194.346893 100.0
194.882782 44.0
194.930023 44.0
195.066208 136.0
195.101959 396.0
195.227478 40.0
195.31926 152.0
195.397156 40.0
195.633713 244.0
196.441879 56.0
197.125946 192.0
197.145508 76.0
197.30484 44.0
197.623688 76.0
197.987595 168.0
198.071625 92.0
198.318207 168.0
198.679947 180.0
198.879181 48.0
199.042023 76.0
199.109421 88.0
199.143127 128.0
199.775604 60.0
200.017609 76.0
200.128067 172.0
200.155563 112.0
201.07695 144.0
201.122589 300.0
201.170578 192.0
202.434448 36.0
203.106125 228.0
203.140198 144.0
205.124847 188.0
205.152771 148.0
205.453079 80.0
205.475906 100.0
206.612991 80.0
207.102509 136.0
207.13884 176.0
207.343185 96.0
207.518051 80.0
208.10051 140.0
208.272812 40.0
208.908112 140.0
209.11235 180.0
209.146942 112.0
209.210281 144.0
209.371521 84.0
209.607758 44.0
209.636566 216.0
209.921967 56.0
209.982529 124.0
210.12088 104.0
210.435593 52.0
210.542435 68.0
211.146805 172.0
213.119095 132.0
213.163391 196.0
214.141205 208.0
214.882187 120.0
215.15654 136.0
215.184158 196.0
216.416687 132.0
216.612915 188.0
217.158127 192.0
217.193314 144.0
218.127106 84.0
218.67128 212.0
219.101227 348.0
219.132889 260.0
221.0056 60.0
221.113556 124.0
221.248291 64.0
222.630066 128.0
222.745895 44.0
222.953888 132.0
223.099533 144.0
223.148697 156.0
223.176834 156.0
224.564606 60.0
224.645142 112.0
224.683929 72.0
225.003281 40.0
225.13765 244.0
225.159592 244.0
225.783188 132.0
226.025497 120.0
226.166168 148.0
227.104034 164.0
227.127792 104.0
227.175995 240.0
228.173096 172.0
229.109085 128.0
229.154282 192.0
229.389359 168.0
229.555176 64.0
229.766327 188.0
229.920212 188.0
230.959595 76.0
231.165329 176.0
232.102463 220.0
232.151962 2228.0
232.294022 152.0
232.450195 60.0
233.124374 224.0
233.152359 460.0
233.340179 168.0
233.708221 60.0
233.948654 112.0
234.152679 72.0
234.451248 60.0
234.805161 92.0
235.122192 136.0
235.156006 104.0
236.506775 140.0
237.113281 252.0
238.101135 184.0
238.134918 116.0
238.171783 136.0
238.512863 56.0
239.115723 128.0
239.183441 172.0
239.448242 132.0
240.126312 84.0
240.166397 172.0
241.674011 96.0
241.862793 36.0
241.912323 148.0
242.283951 84.0
243.103256 156.0
243.162323 116.0
243.211166 116.0
243.51236 136.0
244.171265 192.0
245.117661 80.0
247.122314 80.0
247.836227 144.0
248.08696 80.0
248.168472 204.0
248.814804 56.0
248.99379 124.0
249.116608 164.0
249.204269 100.0
249.902283 220.0
249.9841 76.0
251.138916 152.0
251.171906 204.0
252.179169 64.0
253.150528 156.0
253.19162 172.0
253.492584 112.0
254.590225 44.0
255.125687 276.0
255.174911 68.0
255.203522 128.0
255.72525 184.0
256.120087 144.0
256.175476 164.0
256.448273 44.0
256.805389 132.0
257.114868 188.0
257.14679 136.0
258.156372 148.0
258.220306 112.0
259.158783 128.0
260.795837 140.0
260.930023 56.0
261.103668 156.0
261.141754 124.0
261.647461 56.0
261.946991 48.0
262.943329 84.0
265.158813 196.0
265.209534 220.0
265.47345 72.0
265.726288 152.0
267.129456 124.0
267.194519 172.0
268.148956 168.0
268.178284 140.0
269.155457 176.0
269.80722 36.0
271.001862 148.0
271.129639 116.0
271.172272 184.0
271.205048 192.0
272.008698 100.0
273.191742 124.0
273.218048 148.0
274.670837 88.0
274.81601 76.0
274.855591 168.0
275.165863 124.0
275.188965 188.0
275.902618 116.0
276.178223 1708.0
276.239929 180.0
276.733063 92.0
276.868835 52.0
277.087463 36.0
277.184052 572.0
277.571381 160.0
277.760437 60.0
278.032532 56.0
278.178558 132.0
279.135437 148.0
279.162048 188.0
279.288452 56.0
279.328369 36.0
281.149139 188.0
281.189301 120.0
281.69519 80.0
282.166412 136.0
282.390442 76.0
282.634674 56.0
283.191101 136.0
283.247345 124.0
283.652802 220.0
284.19278 132.0
286.175873 36.0
286.49585 144.0
286.630615 60.0
287.001404 92.0
287.169586 184.0
288.18042 220.0
288.253754 56.0
288.56134 108.0
289.099182 60.0
289.183777 240.0
289.234558 192.0
289.383514 52.0
289.856049 128.0
289.870026 64.0
289.879364 104.0
290.010254 120.0
290.244171 80.0
290.865051 220.0
291.150238 104.0
291.21051 140.0
292.054352 164.0
292.179352 160.0
292.857635 120.0
293.12677 176.0
293.644989 36.0
295.170135 184.0
296.702057 96.0
296.743225 116.0
297.134216 136.0
297.175385 72.0
297.223419 204.0
297.78299 156.0
297.930725 204.0
298.841827 72.0
299.189423 164.0
301.184784 172.0
301.210144 164.0
302.230194 52.0
302.278625 104.0
303.181305 176.0
303.188232 116.0
303.244873 144.0
304.77533 172.0
305.150696 148.0
305.755981 56.0
305.83255 28.0
305.961365 96.0
307.111328 120.0
307.209015 208.0
308.15863 164.0
309.176239 88.0
309.214722 136.0
310.153412 136.0
310.202515 152.0
311.202393 108.0
311.258575 248.0
311.841766 60.0
312.203888 36.0
313.150635 116.0
313.182434 132.0
313.220398 372.0
313.337341 168.0
314.709351 188.0
314.910645 96.0
315.219452 324.0
315.331116 128.0
316.74646 108.0
317.178772 172.0
317.976837 132.0
318.187836 4224.0
318.338165 72.0
318.576935 56.0
319.192474 1140.0
319.312744 96.0
319.850037 64.0
319.921204 116.0
320.188446 148.0
320.840363 32.0
320.936646 60.0
321.209534 240.0
321.33255 48.0
321.564514 48.0
321.60376 92.0
321.92865 96.0
322.764862 64.0
323.19162 108.0
323.380188 64.0
324.20752 192.0
325.035919 72.0
325.172302 140.0
325.215179 236.0
326.185211 180.0
326.220001 136.0
326.418915 116.0
327.167297 84.0
327.20224 176.0
327.225616 292.0
328.233826 112.0
329.699493 120.0
330.183929 112.0
330.209259 164.0
330.520386 48.0
331.185303 740.0
331.226227 308.0
331.621338 72.0
331.965759 140.0
332.192749 96.0
332.219666 228.0
332.321228 60.0
332.422852 88.0
332.887512 108.0
333.130859 72.0
333.210785 104.0
333.29071 40.0
334.54187 132.0
335.199677 244.0
336.189392 120.0
336.276978 128.0
337.211975 152.0
340.20108 160.0
341.209869 232.0
341.255493 132.0
341.921326 136.0
342.213409 368.0
342.912079 140.0
343.226044 316.0
344.225464 56.0
345.234497 84.0
346.199646 124.0
347.209381 296.0
347.430847 164.0
347.731415 204.0
348.201508 336.0
349.20166 292.0
351.490173 48.0
352.184601 164.0
352.281738 32.0
352.401276 128.0
353.205566 420.0
353.249939 120.0
353.908661 108.0
353.972321 36.0
354.83786 40.0
355.225372 296.0
356.775146 68.0
357.248993 152.0
358.235321 156.0
358.883575 64.0
359.218506 596.0
360.2164 332.0
360.253601 120.0
361.230713 212.0
361.683014 64.0
362.232086 156.0
363.218933 304.0
363.253296 124.0
364.261566 104.0
364.417358 44.0
366.430084 104.0
367.201569 212.0
371.173584 68.0
371.219116 1012.0
372.220581 300.0
373.237885 832.0
373.277924 172.0
373.307739 144.0
373.570251 76.0
373.98584 64.0
374.197571 76.0
374.245148 168.0
374.705963 92.0
374.914062 120.0
375.233978 100.0
375.554077 48.0
377.223633 616.0
377.261566 156.0
377.922241 56.0
378.131226 188.0
378.227966 160.0
379.122528 104.0
379.243408 160.0
379.27771 52.0
381.245514 96.0
383.035309 104.0
383.218414 56.0
385.387848 208.0
385.720032 72.0
387.038513 52.0
388.088623 108.0
388.504364 124.0
389.229126 1620.0
389.289398 96.0
389.371857 64.0
389.446503 100.0
389.800079 132.0
390.234009 864.0
390.358276 72.0
390.38974 48.0
390.523468 48.0
390.779175 132.0
390.865753 100.0
391.243805 980.0
391.629517 40.0
391.858002 88.0
392.249054 168.0
392.303345 72.0
392.508362 40.0
393.775177 96.0
396.184204 108.0
396.711273 44.0
397.246643 192.0
398.811188 172.0
399.857239 56.0
401.028229 104.0
401.195648 144.0
406.366974 152.0
407.23941 2880.0
407.438965 176.0
407.832794 64.0
408.240662 844.0
409.168365 208.0
409.200562 68.0
409.255005 524.0
409.65567 180.0
410.235992 212.0
410.292419 168.0
411.595673 72.0
411.84201 92.0
411.886444 164.0
412.872681 128.0
412.929291 64.0
413.212463 112.0
413.313629 128.0
413.839813 164.0
417.30896 32.0
418.028961 80.0
422.419159 64.0
425.247711 824.0
426.261505 280.0
426.392426 208.0
427.334137 108.0
427.46579 76.0
430.235626 48.0
431.942383 60.0
432.095459 64.0
432.571381 88.0
433.888794 140.0
434.622925 80.0
434.705902 148.0
436.999634 136.0
437.232666 100.0
441.061646 160.0
442.211914 104.0
443.225372 160.0
444.412018 60.0
446.848999 136.0
447.324554 156.0
451.958679 128.0
453.938629 272.0
458.519806 104.0
460.230469 176.0
460.555023 80.0
461.589294 92.0
461.884399 140.0
463.96994 84.0
464.184357 100.0
466.159027 112.0
466.902771 80.0
468.42218 176.0
468.529877 112.0
468.900452 92.0
469.077179 60.0
469.266876 112.0
472.151489 204.0
472.406677 76.0
473.259308 180.0
475.973724 88.0
478.12561 96.0
480.696838 48.0
481.225006 76.0
481.762207 148.0
482.785034 96.0
487.207794 128.0
487.651611 160.0
487.932953 112.0
488.808258 64.0
489.248413 104.0
492.299683 144.0
492.940216 40.0
493.05954 152.0
496.641479 156.0
496.716888 96.0
503.5271 76.0
505.422577 32.0
508.878448 116.0
509.260162 132.0
510.93692 124.0
512.039795 92.0
513.279114 168.0
514.472595 108.0
516.825012 56.0
517.173462 128.0
517.263977 152.0
517.300232 112.0
518.083679 232.0
523.484314 180.0
527.083496 40.0
528.212769 172.0
530.383301 188.0
531.006897 60.0
531.185791 116.0
532.806335 84.0
533.914124 92.0
535.26709 232.0
536.225342 92.0
537.47052 180.0
538.028992 48.0
540.307434 124.0
542.192078 120.0
543.657593 84.0
545.955872 136.0
548.835144 64.0
549.292175 144.0
549.53479 132.0
550.239563 88.0
551.178406 84.0
551.500854 80.0
552.365906 160.0
553.189514 80.0
553.22229 96.0
554.271423 80.0
556.560547 176.0
558.2099 124.0
558.779053 56.0
559.842896 64.0
560.271545 196.0
563.489197 96.0
564.344666 260.0
564.566956 44.0
564.637878 104.0
565.969788 252.0
566.24707 40.0
566.706543 60.0
566.949219 212.0
567.317749 100.0
572.540039 204.0
574.127014 28.0
577.379395 32.0
577.479797 68.0
578.274109 200.0
578.408081 112.0
580.0224 56.0
580.335999 144.0
580.38678 112.0
581.338379 96.0
581.686951 132.0
582.366882 360.0
583.348328 112.0
584.343872 152.0
584.380371 156.0
584.580383 88.0
584.691101 112.0
585.10022 40.0
585.345825 132.0
585.422852 88.0
586.371948 112.0
587.707764 104.0
588.538025 76.0
589.644287 64.0
590.166382 76.0
591.124146 64.0
593.109863 84.0
594.654907 112.0
595.225159 48.0
595.934387 112.0
596.264832 100.0
596.341064 240.0
596.882202 164.0
597.086487 64.0
597.325989 116.0
597.480469 56.0
598.26886 80.0
598.355896 2652.0
598.43927 204.0
598.848389 80.0
598.907349 36.0
599.028564 48.0
599.173218 152.0
599.361572 1080.0
599.413086 144.0
599.637695 72.0
599.744934 40.0
599.779053 88.0
599.881409 84.0
599.934998 156.0
600.06665 64.0
600.166077 104.0
600.374878 260.0
600.486023 100.0
600.881165 56.0
601.095886 60.0
601.139771 48.0
601.310608 48.0
601.354553 252.0
601.386719 124.0
601.859009 96.0
601.935486 92.0
602.364807 116.0
602.49231 48.0
602.834351 76.0
602.946777 84.0
604.076233 36.0
604.198547 108.0
606.583496 76.0
606.975769 128.0
608.555725 168.0
609.100891 92.0
609.621704 52.0
610.411987 132.0
613.244019 64.0
617.134155 52.0
618.425293 56.0
619.757507 92.0
621.170471 136.0
621.259766 88.0
621.73114 132.0
622.297058 136.0
622.396362 128.0
627.157471 100.0
627.411743 140.0
627.680969 72.0
630.540405 144.0
638.483093 48.0
638.719482 104.0
639.091797 108.0
641.68573 96.0
642.285889 60.0
645.123901 88.0
647.203308 132.0
647.436279 176.0
648.860168 152.0
654.581543 84.0
655.360901 148.0
655.457764 100.0
656.105042 184.0
658.763916 116.0
660.097961 108.0
661.458923 104.0
661.894104 76.0
665.78125 92.0
665.971313 108.0
666.305176 88.0
666.372009 176.0
667.415405 144.0
668.454529 152.0
669.365662 100.0
669.803406 76.0
671.762329 68.0
672.21637 48.0
672.603455 60.0
675.59552 164.0
675.983582 96.0
677.174377 116.0
677.733826 76.0
677.811584 116.0
677.966431 260.0
677.9953 80.0
678.00708 116.0
678.583923 52.0
679.128418 112.0
679.517517 160.0
680.825623 112.0
681.121643 104.0
681.693176 148.0
682.358521 128.0
682.613281 104.0
682.925354 104.0
683.164612 104.0
683.37793 136.0
684.309631 52.0
687.63031 160.0
689.588928 92.0
690.498657 84.0
690.550964 200.0
690.660828 56.0
691.367126 100.0
691.744019 76.0
694.437378 112.0
695.024902 116.0
695.602234 88.0
696.359497 128.0
696.400391 88.0
698.324097 132.0
699.40802 124.0
699.671265 80.0
700.635071 112.0
701.9422 96.0
702.169006 168.0
703.335083 120.0
704.502136 112.0
705.453369 132.0
707.648987 140.0
707.707214 64.0
710.548157 132.0
711.184937 124.0
711.55127 52.0
711.763611 132.0
712.369141 140.0
712.969543 108.0
713.022705 152.0
713.400085 160.0
715.564819 176.0
715.719849 92.0
717.270203 168.0
718.347351 148.0
718.502075 96.0
719.436035 120.0
720.856812 84.0
720.899597 132.0
723.450928 152.0
723.809692 116.0
726.505676 136.0
727.670288 192.0
728.42218 112.0
729.808777 160.0
732.284302 116.0
732.742188 40.0
733.663757 96.0
734.12207 152.0
734.213745 76.0
734.823303 76.0
735.028381 112.0
736.054016 164.0
736.405029 136.0
736.853394 96.0
737.312744 44.0
738.129028 68.0
739.665588 116.0
740.429016 140.0
740.976135 140.0
742.443298 340.0
743.440186 144.0
743.584473 116.0
743.73645 144.0
744.349976 112.0
745.914673 168.0
746.018005 128.0
746.953308 92.0
747.034912 140.0
747.67157 132.0
748.589844 124.0
749.479492 64.0
750.427917 168.0
752.588623 160.0
753.233093 104.0
754.428101 596.0
754.69635 124.0
755.277466 40.0
755.348572 36.0
755.43866 552.0
755.660461 136.0
755.69873 100.0
755.791748 56.0
755.890259 84.0
756.054443 80.0
756.213135 52.0
756.344543 64.0
756.431885 276.0
756.815369 80.0
757.247986 40.0
757.478027 124.0
757.897583 124.0
758.415039 148.0
759.303284 48.0
759.73114 92.0
760.439026 92.0
762.427185 56.0
762.652588 76.0
763.191345 60.0
763.328796 76.0
763.517639 60.0
763.576294 64.0
764.258423 196.0
764.302429 60.0
764.588623 68.0
764.731689 92.0
765.406738 104.0
765.496948 108.0
766.345276 68.0
766.523193 232.0
766.78064 68.0
767.083801 96.0
767.16095 80.0
767.717834 88.0
767.809631 156.0
767.905396 64.0
767.94397 148.0
768.252869 48.0
768.468079 84.0
768.528748 52.0
768.755005 52.0
768.832275 128.0
769.151123 148.0
769.202087 124.0
769.362183 152.0
769.400818 112.0
769.759338 116.0
769.864624 68.0
770.011719 108.0
770.029236 104.0
770.091064 40.0
770.171997 188.0
770.306519 100.0
770.434082 616.0
770.560608 40.0
770.626953 72.0
770.722595 156.0
770.778076 56.0
770.818054 48.0
771.013733 144.0
771.074524 52.0
771.146423 116.0
771.196167 136.0
771.245911 128.0
771.301147 112.0
771.432922 204.0
771.445618 356.0
771.521729 120.0
771.588623 124.0
771.682617 136.0
771.732422 112.0
771.865112 128.0
771.931458 56.0
771.975464 96.0
772.103455 476.0
772.174133 132.0
772.24115 112.0
772.319885 132.0
772.44696 28280.0
772.572632 168.0
772.669922 136.0
772.745667 60.0
772.822021 56.0
772.880127 72.0
772.961304 48.0
773.073547 124.0
773.13031 68.0
773.209412 252.0
773.281372 100.0
773.337524 248.0
773.450378 9696.0
773.647644 92.0
773.67926 80.0
773.745239 136.0
773.833008 68.0
773.944824 100.0
774.001038 88.0
774.095215 36.0
774.185913 32.0
774.234924 96.0
774.318726 96.0
774.450928 2408.0
774.578247 84.0
774.662231 176.0
774.741516 140.0
774.77887 84.0
774.854065 80.0
774.948242 156.0
775.004089 52.0
775.169861 124.0
775.214233 92.0
775.319092 60.0
775.378662 232.0
775.457825 832.0
775.557861 112.0
775.607727 104.0
775.6521 104.0
775.768494 68.0
775.84613 36.0
776.045715 36.0
776.123596 88.0
776.226135 56.0
776.275574 80.0
776.361816 68.0
776.452942 248.0
776.708618 92.0
776.977722 128.0
777.019348 148.0
777.177246 64.0
777.241455 92.0
777.282654 88.0
777.368164 140.0
777.431091 216.0
777.487732 112.0
777.552185 120.0
777.611389 156.0
777.667969 80.0
777.870972 52.0
777.926514 96.0
777.970886 48.0
778.104126 144.0
778.187439 68.0
778.30957 44.0
778.368835 64.0
778.519531 84.0
778.700134 136.0
779.231628 64.0
779.337219 128.0
779.426086 76.0
779.581726 48.0
779.798462 120.0
779.88739 136.0
780.115295 76.0
780.326538 56.0
780.593445 56.0
781.005005 56.0
781.411133 48.0
782.190247 64.0
782.234802 80.0
782.557678 56.0
783.136841 64.0
783.387512 84.0
783.576965 96.0
783.760803 56.0
784.156494 132.0
784.541138 36.0
784.909119 160.0
785.165649 96.0
785.238159 52.0
785.5896 60.0
786.923462 100.0
787.370178 84.0
787.800293 120.0
789.913391 76.0
789.997437 492.0
791.021423 88.0
791.374146 48.0
793.660217 96.0
793.856506 136.0
794.602539 140.0
794.978516 108.0
795.584717 252.0
795.786804 116.0
799.496887 108.0
802.561401 92.0
803.587952 92.0
804.344177 124.0
805.665588 108.0
807.859131 80.0
807.904358 44.0
808.012146 88.0
808.651306 96.0
811.398743 120.0
813.401367 56.0
814.05426 236.0
817.044128 124.0
817.749695 132.0
819.338501 124.0
819.703125 104.0
821.402161 160.0
821.470642 180.0
821.801575 104.0
822.440735 132.0
822.560608 92.0
823.976929 64.0
824.182617 208.0
830.531677 128.0
833.712524 56.0
836.461853 140.0
837.797852 44.0
838.800598 124.0
840.040405 100.0
841.11377 140.0
841.448608 176.0
843.817444 176.0
844.806396 104.0
847.921692 112.0
855.513672 120.0
856.678406 88.0
857.278564 152.0
857.389282 96.0
860.854675 120.0
861.082397 188.0
862.367859 128.0
862.642578 152.0
863.355896 72.0
864.06958 64.0
864.198303 96.0
866.054077 108.0
866.30011 64.0
870.652405 144.0
871.298523 92.0
872.456299 152.0
873.32666 128.0
875.510193 60.0
876.959595 84.0
879.348389 160.0
880.180786 100.0
880.263428 108.0
881.338501 76.0
882.319702 128.0
885.065063 180.0
889.333557 88.0
890.449829 156.0
891.590576 156.0
894.522949 52.0
895.576904 196.0
895.696045 80.0
897.048767 124.0
898.229492 60.0
898.501221 120.0
898.647095 152.0
898.694824 60.0
898.808228 204.0
899.822937 92.0
900.12146 88.0
901.011414 92.0
901.280334 108.0
901.423706 92.0
901.865967 124.0
902.804688 128.0
903.325012 68.0
903.636169 52.0
903.76178 36.0
903.88147 72.0
903.95929 76.0
904.372192 80.0
904.438049 276.0
904.521851 56.0
904.940918 68.0
905.40802 104.0
905.575745 68.0
906.296997 148.0
906.458496 68.0
906.82196 120.0
906.935852 108.0
907.273499 88.0
907.558167 60.0
907.601318 132.0
907.697266 56.0
907.877197 68.0
908.069092 76.0
908.200256 120.0
908.752991 96.0
908.81897 100.0
909.323669 80.0
909.55719 44.0
909.647217 88.0
909.797302 76.0
909.950562 128.0
910.031128 72.0
910.07074 96.0
910.193604 72.0
910.583923 128.0
910.643982 100.0
910.758118 64.0
911.160645 112.0
911.244751 100.0
911.419006 48.0
911.61731 84.0
911.797607 36.0
911.971863 56.0
912.104126 88.0
912.242371 32.0
912.585083 44.0
912.693298 184.0
912.747437 76.0
913.132324 44.0
913.363281 80.0
913.637634 108.0
913.697754 32.0
913.770386 104.0
914.052795 100.0
914.09613 264.0
914.179138 132.0
914.382324 84.0
914.468018 152.0
914.570007 68.0
914.636536 80.0
914.750916 100.0
914.805115 120.0
914.847229 72.0
914.919495 124.0
914.973694 80.0
915.124207 64.0
915.178406 96.0
915.244629 168.0
915.322937 60.0
915.371582 96.0
915.455383 76.0
915.648132 92.0
915.720398 40.0
915.816772 148.0
915.895081 116.0
915.967346 72.0
916.172852 140.0
916.226379 92.0
916.274597 156.0
916.527222 19796.0
916.819641 144.0
916.869873 76.0
916.946045 56.0
917.007996 176.0
917.057983 120.0
917.246033 100.0
917.297424 132.0
917.372314 396.0
917.528503 11816.0
917.660217 152.0
917.682739 212.0
917.7771 172.0
917.830017 64.0
917.911011 76.0
917.995911 176.0
918.08136 124.0
918.132202 48.0
918.181946 256.0
918.254456 100.0
918.348328 84.0
918.532532 4180.0
918.66925 180.0
918.732605 120.0
918.817322 64.0
918.885193 168.0
918.956604 96.0
919.036072 80.0
919.103394 64.0
919.168823 100.0
919.222168 76.0
919.347168 60.0
919.421692 84.0
919.536133 1084.0
919.651611 44.0
919.69989 64.0
919.799561 80.0
919.875 28.0
919.965515 36.0
920.037964 68.0
920.092285 96.0
920.140625 40.0
920.230042 88.0
920.31366 72.0
920.395996 108.0
920.537903 408.0
920.6297 68.0
920.694702 104.0
920.800171 108.0
920.90802 120.0
921.022278 52.0
921.088745 72.0
921.279663 40.0
921.304138 112.0
921.327209 60.0
921.400391 144.0
921.516235 116.0
921.578125 208.0
921.624207 108.0
921.677124 52.0
921.759399 48.0
922.009033 1228.0
922.150513 180.0
922.242859 116.0
922.302917 124.0
922.407288 64.0
922.485657 96.0
922.684143 76.0
922.813782 120.0
922.901855 60.0
922.9552 112.0
923.031494 116.0
923.204224 52.0
923.329285 76.0
923.379578 52.0
923.482422 128.0
923.609436 44.0
923.758789 116.0
923.8302 44.0
923.96637 28.0
924.020813 96.0
924.347534 56.0
924.486755 76.0
925.661133 80.0
925.752014 32.0
925.92157 100.0
925.976074 68.0
926.32135 52.0
926.593933 40.0
926.642456 52.0
926.715149 36.0
927.412048 36.0
927.82428 60.0
928.903748 48.0
929.079712 48.0
929.911011 32.0
931.4776 164.0
932.006226 108.0
932.607849 156.0
932.84491 36.0
933.057678 96.0
933.452942 220.0
934.109802 140.0
937.2453 36.0
937.452454 300.0
938.587463 136.0
938.805847 56.0
939.489014 72.0
940.495911 112.0
941.503296 80.0
942.480713 88.0
942.651855 48.0
944.669556 172.0
946.536316 32.0
946.916016 76.0
947.945251 40.0
948.680725 96.0
950.551453 100.0
952.811035 212.0
952.89093 88.0
953.112122 92.0
957.70166 116.0
959.575073 116.0
960.703674 160.0
963.53125 144.0
965.527893 104.0
966.765198 116.0
970.178162 124.0
973.274231 92.0
973.938721 180.0
974.429504 172.0
974.945251 36.0
976.294312 124.0
976.623962 148.0
977.656799 72.0
980.814575 52.0
981.001587 96.0
985.007935 128.0
987.276794 196.0
991.816162 152.0
992.317688 92.0
993.082764 72.0
993.565796 240.0
997.358765 232.0
999.899841 80.0
1002.091309 136.0
1002.36853 152.0
1003.16272 268.0
1010.893677 52.0
1011.039246 32.0
1011.849487 128.0
1019.467651 40.0
1021.934937 172.0
1027.950195 200.0
1030.529907 88.0
1036.218018 76.0
1036.359009 68.0
1036.467896 92.0
1036.8396 212.0
1037.429321 160.0
1039.834717 204.0
1040.951904 204.0
1043.110596 104.0
1046.958374 208.0
1047.40918 36.0
1048.691528 196.0
1049.310303 240.0
1050.27771 164.0
1050.632446 180.0
1051.452026 88.0
1052.310547 184.0
1052.833618 144.0
1053.886597 192.0
1057.320435 88.0
1060.967285 192.0
1061.116333 204.0
1062.861206 116.0
1063.756836 76.0
1065.393433 168.0
1065.887207 172.0
1066.218628 168.0
1066.972656 80.0
1071.046387 156.0
1071.873901 96.0
1074.103638 80.0
1074.462402 80.0
1074.873535 128.0
1075.11499 148.0
1075.297729 128.0
1076.329224 100.0
1076.387939 28.0
1077.668213 36.0
1078.491699 160.0
1079.361206 188.0
1082.521851 92.0
1086.356201 40.0
1087.839355 84.0
1091.762085 208.0
1091.959351 204.0
1092.584229 152.0
1092.952759 92.0
1094.677368 164.0
1095.790649 176.0
1097.207642 112.0
1097.550537 192.0
1099.549438 56.0
1099.872803 172.0
1100.03125 208.0
1101.312256 72.0
1102.03894 180.0
1102.54126 36.0
1102.845215 200.0
1103.01709 28.0
1104.094849 144.0
1106.251953 84.0
1106.384399 52.0
1107.212036 48.0
1107.430664 84.0
1109.564453 88.0
1110.996948 184.0
1111.043457 136.0
1111.196045 136.0
1111.534424 196.0
1113.127563 216.0
1118.925781 120.0
1118.998901 184.0
1120.091187 68.0
1120.764038 96.0
1121.297241 108.0
1122.043823 160.0
1123.384277 160.0
1126.548584 80.0
1126.602051 176.0
1131.397217 136.0
1132.877197 104.0
1133.312744 184.0
1134.143799 232.0
1134.794067 168.0
1136.03479 72.0
1136.101929 172.0
1136.444092 200.0
1137.256104 52.0
1137.833374 168.0
1144.630615 152.0
1147.730957 108.0
1151.827637 164.0
1152.564087 80.0
1153.618408 68.0
1153.936157 228.0
1155.606812 84.0
1156.831787 200.0
1157.217651 232.0
1158.687378 212.0
1159.487061 68.0
1161.975708 32.0
1165.656006 152.0
1166.063721 156.0
1167.885986 128.0
1168.675049 168.0
1170.30188 140.0
1170.553833 176.0
1172.256836 144.0
1172.699829 188.0
1176.178589 52.0
1178.13855 52.0
1178.411743 96.0
1180.093262 200.0
1180.626587 252.0
1181.153198 224.0
1181.317383 128.0
1182.035889 204.0
1182.227417 120.0
1182.316406 180.0
1184.144409 212.0
1184.418457 100.0
1184.849976 272.0
1185.542114 152.0
1187.516602 112.0
1187.791016 148.0
1189.369263 56.0
1189.952759 176.0
1190.934814 184.0
1191.697388 144.0
1193.216309 188.0
1193.264404 256.0
1193.883301 112.0
1197.090332 116.0
1197.909912 104.0
1199.012451 172.0
1201.674194 132.0
1202.329712 176.0
1202.557495 168.0
1203.047607 96.0
1203.51709 144.0
1204.442505 196.0
1204.629028 92.0
1205.375244 160.0
1205.610229 152.0
1205.907471 196.0
1206.578003 136.0
1207.60144 152.0
1207.919556 156.0
1209.947266 168.0
1215.735229 176.0
1216.713989 52.0
1218.964478 52.0
1219.11731 192.0
1219.687256 200.0
1220.285156 36.0
1220.396362 40.0
1222.225708 152.0
1222.315674 204.0
1224.216675 204.0
1225.045532 160.0
1225.526245 44.0
1226.98291 136.0
1228.559082 116.0
1230.003662 136.0
1230.338745 108.0
1230.687866 40.0
1230.778687 148.0
1231.330322 152.0
1236.880493 216.0
1238.233521 132.0
1239.270264 176.0
1239.753784 172.0
1240.202393 172.0
1240.671997 196.0
1242.579712 180.0
1243.267334 152.0
1244.039429 224.0
1246.35022 56.0
1246.95459 88.0
1247.537964 140.0
1249.640869 124.0
1251.097778 188.0
1253.112061 168.0
1254.535645 128.0
1258.62793 64.0
1259.136353 236.0
1260.083008 152.0
1261.750977 228.0
1262.719727 212.0
1264.035645 236.0
1264.587646 188.0
1265.168091 92.0
1265.74353 176.0
1266.386108 68.0
1266.449829 180.0
1266.619873 156.0
1266.910278 180.0
1267.094482 44.0
1267.583374 128.0
1267.78186 116.0
1269.774048 64.0
1270.781372 156.0
1271.874268 68.0
1272.562866 40.0
1272.811401 136.0
1273.642334 148.0
1274.978149 132.0
1275.326416 48.0
1275.596558 168.0
1276.314575 104.0
1276.869263 232.0
1277.082642 80.0
1277.708618 184.0
1281.154419 184.0
1281.631836 112.0
1282.401489 160.0
1282.686646 52.0
1282.807861 96.0
1283.221313 140.0
1283.584961 176.0
1284.141235 152.0
1284.776123 132.0
1285.810791 172.0
1286.567383 148.0
1286.681641 160.0
1288.467163 156.0
1292.077637 188.0
1292.41394 244.0
1292.929199 156.0
1293.179688 160.0
1293.959961 148.0
1295.213257 156.0
1295.349365 188.0
1296.553101 136.0
1298.646729 132.0
1298.711182 240.0
1299.464478 148.0
1299.679688 168.0
1301.74707 96.0
1302.802979 132.0
1303.147827 184.0
1305.059814 100.0
1306.239258 232.0
1307.109863 136.0
1308.614258 48.0
1309.089478 140.0
1309.269531 180.0
1309.86731 76.0
1310.904907 180.0
1311.560791 204.0
1311.618408 84.0
1313.183105 168.0
1313.832275 180.0
1314.084839 64.0
1314.618774 216.0
1315.167358 84.0
1315.853149 196.0
1316.329712 96.0
1316.380249 116.0
1316.979736 212.0
1317.398682 188.0
1317.514282 128.0
1317.600952 144.0
1318.366943 196.0
1319.646362 60.0
1320.998779 120.0
1321.165161 212.0
1323.256836 96.0
1325.610962 132.0
1327.147705 156.0
1327.321777 200.0
1327.416016 152.0
1328.786987 128.0
1329.200562 156.0
1330.245728 176.0
1331.777832 92.0
1331.879517 64.0
1332.569702 268.0
1334.103271 148.0
1334.255859 124.0
1334.49585 96.0
1334.677612 188.0
1334.874023 196.0
1337.136475 128.0
1338.417847 120.0
1338.483276 88.0
1340.020264 76.0
1340.09314 140.0
1340.333496 184.0
1340.617798 104.0
1341.528809 172.0
1341.951782 244.0
1342.454834 44.0
1344.05249 168.0
1344.300537 172.0
1344.796875 132.0
1345.957642 164.0
1346.220459 184.0
1346.388428 148.0
1346.731812 108.0
1347.411133 68.0
1347.520752 112.0
1347.893433 56.0
1349.428345 40.0
1350.481445 196.0
1352.281372 196.0
1353.123291 116.0
1353.357544 136.0
1356.236694 132.0
1356.302734 136.0
1356.566528 112.0
1357.013794 112.0
1357.937744 120.0
1358.935425 200.0
1359.15564 136.0
1359.625244 188.0
1359.904175 52.0
1359.99231 80.0
1360.197754 100.0
1361.159546 80.0
1361.585571 220.0
1361.673706 176.0
1362.400879 112.0
1362.760864 120.0
1362.966675 56.0
1363.112915 188.0
1365.7677 148.0
1367.580566 160.0
1367.74707 152.0
1367.894287 64.0
1368.542236 176.0
1368.814697 144.0
1368.880981 192.0
1369.344971 180.0
1369.845825 132.0
1370.545776 64.0
1371.643921 36.0
1372.867798 124.0
1373.00061 216.0
1373.75293 56.0
1374.822876 196.0
1375.937378 196.0
1376.3479 192.0
1376.720093 100.0
1376.963867 36.0
1377.089478 164.0
1377.599121 176.0
1377.672974 208.0
1377.887207 108.0
1378.175415 176.0
1378.426636 220.0
1378.478394 92.0
1379.077026 212.0
1380.237671 228.0
1380.289429 104.0
1380.541626 196.0
1380.740601 196.0
1381.043823 180.0
1381.110352 220.0
1381.546875 252.0
1383.026855 68.0
1383.404419 128.0
1384.529907 124.0
1388.591431 160.0
1388.969604 300.0
1389.214478 132.0
1389.526001 124.0
1389.956421 168.0
1390.275513 204.0
1390.913818 148.0
1392.13147 172.0
1392.228027 136.0
1392.294922 40.0
1392.68103 68.0
1392.785034 196.0
1393.282837 40.0
1394.00354 136.0
1394.286011 128.0
1395.073853 144.0
1395.609131 176.0
1395.891724 200.0
1396.382568 212.0
1397.833374 148.0
1398.436157 100.0
1398.599854 136.0
1399.873047 136.0
1401.53418 192.0
1402.436035 112.0
1402.913086 140.0
1403.457275 72.0
1403.561768 216.0
1406.486328 116.0
1406.546021 236.0
1406.695312 192.0
1407.763062 160.0
1409.593262 124.0
1409.884766 168.0
1412.583984 100.0
1414.237671 140.0
1414.349976 196.0
1414.53479 52.0
1414.799072 116.0
1416.004761 208.0
1416.214478 208.0
1416.469116 80.0
1416.798706 140.0
1418.402466 60.0
1418.582397 196.0
1420.19458 156.0
1420.389648 152.0
1420.794678 140.0
1421.081787 208.0
1421.252441 160.0
1421.58252 220.0
1421.800171 84.0
1423.061401 48.0
1423.496826 136.0
1423.587036 212.0
1424.007568 48.0
1425.758179 184.0
1426.765381 172.0
1427.171387 192.0
1427.419556 148.0
1427.509766 172.0
1428.525146 200.0
1428.758423 60.0
1429.285034 152.0
1429.337769 116.0
1429.45813 148.0
1429.909668 184.0
1432.341797 148.0
1432.685181 156.0
1432.891724 172.0
1433.110229 164.0
1433.667847 80.0
1434.361328 136.0
1434.692993 144.0
1434.836304 40.0
1434.889038 152.0
1435.19812 180.0
1435.311279 164.0
1436.789673 200.0
1437.272461 180.0
1437.612061 140.0
1437.906372 172.0
1438.736816 132.0
1438.812256 184.0
1441.259399 100.0
1441.83374 60.0
1441.96228 60.0
1442.302368 164.0
1442.529175 100.0
1443.285278 52.0
1444.578491 188.0
1445.002197 128.0
1445.085449 108.0
1445.448608 144.0
1445.615112 136.0
1446.561279 244.0
1447.65918 40.0
1448.840698 192.0
1449.219604 144.0
1450.394287 280.0
1450.902222 168.0
1451.463257 108.0
1452.593384 112.0
1452.737427 156.0
1452.949951 148.0
1454.672607 116.0
1454.983887 132.0
1456.009033 180.0
1456.365967 116.0
1457.080078 160.0
1457.337158 328.0
1457.779175 192.0
1458.341553 136.0
1458.592407 172.0
1458.790039 156.0
1459.968628 164.0
1460.303223 60.0
1462.700073 108.0
1464.070679 140.0
1464.299194 160.0
1465.723755 180.0
1465.921875 36.0
1466.630737 180.0
1466.92041 40.0
1467.141479 140.0
1468.13269 100.0
1468.762329 132.0
1469.131958 48.0
1469.658325 196.0
1469.788086 52.0
1470.94812 140.0
1471.329834 128.0
1472.635742 120.0
1472.82666 256.0
1473.16272 212.0
1474.056763 68.0
1474.27832 40.0
1474.461792 80.0
1475.249023 136.0
1477.864746 132.0
1478.017822 132.0
1478.186157 120.0
1478.530518 60.0
1478.862793 224.0
1478.913208 256.0
1479.958618 248.0
1480.743164 68.0
1481.133789 136.0
1481.202759 96.0
1481.310059 188.0
1482.717651 148.0
1483.195068 96.0
1483.532349 168.0
1484.161133 124.0
1484.743896 72.0
1484.920288 124.0
1486.025024 212.0
1486.38562 132.0
1486.89209 140.0
1488.128052 152.0
1489.264648 204.0
1489.502686 168.0
1489.756226 108.0
1489.955933 180.0
1490.032837 44.0
1490.516846 168.0
1491.031738 192.0
1492.354004 132.0
1494.314331 156.0
1494.50769 128.0
1494.707764 228.0
1495.569702 100.0
1495.95459 124.0
1496.046997 188.0
1496.585938 164.0
1496.763062 52.0
1497.379272 180.0
1497.540894 136.0
1498.180298 220.0
1498.727295 368.0
1499.621216 196.0
1501.440796 164.0
1502.698242 224.0
1503.107178 144.0
1503.485352 136.0
1504.766724 84.0
