>compound Riboflavin (Vitamin B2)
>formula C17H20N4O6
>ionization [M+H]+
>parentmass 377.144928
#inchi InChI=1S/C17H20N4O6/c1-7-3-9-10(4-8(7)2)21(5-11(23)14(25)12(24)6-22)15-13(18-9)16(26)20-17(27)19-15/h3-4,11-12,14,22-25H,5-6H2,1-2H3,(H,20,26,27)/t11-,12+,14-/m0/s1
#inchikey AUNGANRZJHBGPY
#Ion_Source LC-ESI
#Instrument qTof
#Compound_Source Commercial
#PI Dorrestein
#Data_Collector Garg_Neha
#Scan -1
#Precursor_MZ 377.146
#ExactMass 376.138
#Charge 1
#CAS_Number 83-88-5
#Pubmed_ID N/A
#Smiles C1(=C(C=C2C(=C1)N=C3C(N2C[C@@H]([C@@H]([C@@H](CO)O)O)O)=NC(NC3=O)=O)C)C
#INCHI_AUX N/A
#Library_Class 1
#SpectrumID CCMSLIB00000078508
#IonMode Positive
#UpdateWorkflowName UPDATE-SINGLE-ANNOTATED-GOLD
#LibraryQualityString Gold
#TaskID 77f51c88eb8b467eb4a01dd2d0cb90d2
##Scan# 1005
#SpectrumFile Plate8_21_40_GC10_01_15763.mzXML
#LibraryName FDALibrary_2_04302014.mgf
#MQScore -1
#Organism FDALibrary_2_04302014
#TIC_Query 0
#RT_Query -1
#MZErrorPPM -1
#SharedPeaks 0
#MassDiff 0
#LibMZ -1
#SpecMZ 377.146
#SpecCharge 0
#internalFilename spec-00000.mgf

>collision 10
48.053082 140.0
49.29866 156.0
55.599266 140.0
56.65947 204.0
66.606583 172.0
68.558372 144.0
69.152939 160.0
69.182732 140.0
73.929977 156.0
92.584541 172.0
93.53495 188.0
97.026024 164.0
108.170547 144.0
109.466118 196.0
111.281113 216.0
112.35659 144.0
114.195297 140.0
115.039627 132.0
143.056686 144.0
144.373779 140.0
145.07341 268.0
145.620026 148.0
147.091232 164.0
148.467941 140.0
149.770676 144.0
154.365173 244.0
156.065918 172.0
157.029953 184.0
157.07486 208.0
161.784271 208.0
167.759857 172.0
170.069946 188.0
171.091385 228.0
172.086349 2572.0
173.086487 152.0
174.095673 168.0
174.169342 160.0
176.783585 156.0
179.150543 220.0
184.085831 188.0
185.100571 144.0
186.098267 172.0
187.125473 152.0
189.567444 180.0
190.092957 204.0
191.096512 204.0
195.007156 180.0
197.089737 276.0
198.064926 1688.0
198.101685 160.0
199.074188 148.0
199.1194 204.0
200.079987 952.0
201.08725 248.0
204.904785 176.0
208.898499 144.0
210.099792 160.0
213.087936 172.0
214.09668 276.0
215.100952 352.0
215.485443 168.0
216.076706 768.0
216.682068 148.0
217.08107 132.0
218.085251 148.0
224.116119 148.0
225.073593 172.0
227.105637 140.0
228.057465 172.0
230.897629 188.0
238.283813 196.0
240.084534 148.0
242.084671 128.0
243.086838 7712.0
243.134933 144.0
243.169968 124.0
244.089996 772.0
245.092621 288.0
245.81189 96.0
246.126511 180.0
247.621338 168.0
253.119965 188.0
254.089859 172.0
255.096573 144.0
255.252365 140.0
256.207214 144.0
257.107178 152.0
260.099731 292.0
268.117279 156.0
270.233276 168.0
273.844299 168.0
282.053406 144.0
285.093079 688.0
286.094147 412.0
288.125885 168.0
297.095978 188.0
298.120026 172.0
309.382874 148.0
316.130371 268.0
333.501129 168.0
339.104675 340.0
339.162445 204.0
340.10434 112.0
342.786224 156.0
345.11908 140.0
350.22934 260.0
357.018677 168.0
357.118408 664.0
358.03479 140.0
358.117096 344.0
359.132782 408.0
360.135956 172.0
367.443146 232.0
370.29483 192.0
373.419006 144.0
374.113953 116.0
374.122437 172.0
375.128845 6192.0
375.586029 156.0
376.13324 1284.0
376.334625 128.0
376.981262 140.0
377.066132 104.0
377.088348 152.0
377.144928 23412.0
377.434296 164.0
377.508118 124.0
377.607574 140.0
378.09433 172.0
378.146973 4380.0
378.336426 156.0
378.520874 180.0
378.744781 96.0
379.039948 144.0
379.150604 940.0
379.195038 160.0
380.140991 124.0
380.261536 148.0
380.35202 128.0
380.428436 108.0
381.58551 116.0
510.136383 176.0
619.477539 152.0
703.663086 172.0
1598.192139 208.0
1609.391113 140.0
1781.15918 184.0
