>compound Sotalol
>formula C12H20N2O3S 
>ionization [M+H]+
>parentmass 273.127
#inchi InChI=1S/C12H20N2O3S/c1-9(2)13-8-12(15)10-4-6-11(7-5-10)14-18(3,16)17/h4-7,9,12-15H,8H2,1-3H3
#inchikey ZBMZVLHSJCTVON
#Ion_Source LC-ESI
#Instrument qTof
#Compound_Source Isolated
#PI Sirenas
#Data_Collector Ed Esquenazi 
#Scan -1
#Precursor_MZ 273.127
#ExactMass 0.0
#Charge 1
#CAS_Number N/A
#Pubmed_ID N/A
#Smiles N/A
#INCHI_AUX N/A
#Library_Class 3
#SpectrumID CCMSLIB00000004507
#IonMode Positive
#UpdateWorkflowName UPDATE-SINGLE-ANNOTATED-BRONZE
#LibraryQualityString Bronze
#TaskID d19310cd93df49b68e9fcbec27720eb5
##Scan# 9
#SpectrumFile Sotalol.mgf
#LibraryName fda_library.mgf
#MQScore -1
#Organism fda_library
#TIC_Query 0
#RT_Query -1
#MZErrorPPM -1
#SharedPeaks 0
#MassDiff 0
#LibMZ -1
#SpecMZ 273.127
#SpecCharge 0
#internalFilename spec-00000.mgf

>collision 10
100.915306 255.171997
100.974045 5.333333
105.566689 18.245001
106.064857 485.579315
106.093285 13.01389
107.009819 763.872681
107.070793 301.372589
107.113441 5.333333
107.174057 29.680559
107.217323 60.214291
107.556198 13.09091
116.976303 202.421204
118.924309 79.803574
131.06398 135.770096
132.06633 112.092903
133.075928 645.101929
133.123764 15.125
133.187927 26.3689
133.750275 19.81818
181.073761 26.765631
592.385132 9.142858
