>compound EnalaprilatDihydrate
>formula C18H24N2O5 
>ionization [M+H]+
>parentmass 349.177
#inchi InChI=1S/C18H24N2O5/c1-12(16(21)20-11-5-8-15(20)18(24)25)19-14(17(22)23)10-9-13-6-3-2-4-7-13/h2-4,6-7,12,14-15,19H,5,8-11H2,1H3,(H,22,23)(H,24,25)/t12-,14-,15-/m0/s1
#inchikey LZFZMUMEGBBDTC
#Ion_Source LC-ESI
#Instrument qTof
#Compound_Source Isolated
#PI Sirenas
#Data_Collector Ed Esquenazi 
#Scan -1
#Precursor_MZ 349.177
#ExactMass 0.0
#Charge 1
#CAS_Number N/A
#Pubmed_ID N/A
#Smiles N/A
#INCHI_AUX N/A
#Library_Class 3
#SpectrumID CCMSLIB00000005439
#IonMode Positive
#UpdateWorkflowName UPDATE-SINGLE-ANNOTATED-BRONZE
#LibraryQualityString Bronze
#TaskID d19310cd93df49b68e9fcbec27720eb5
##Scan# 3
#SpectrumFile EnalaprilatDihydrate.mgf
#LibraryName fda_library.mgf
#MQScore -1
#Organism fda_library
#TIC_Query 0
#RT_Query -1
#MZErrorPPM -1
#SharedPeaks 0
#MassDiff 0
#LibMZ -1
#SpecMZ 349.177
#SpecCharge 0
#internalFilename spec-00000.mgf

>collision 10
102.038521 35.712059
102.055161 14103.530273
102.262421 32.322338
102.296654 30.026039
103.058746 129.346298
105.07003 425.563904
114.052696 46.32563
114.090263 49.63163
115.054131 487.815704
116.070251 2693.644043
116.419357 63.676601
116.535934 41.88763
117.069992 28721.509766
117.36129 36.49321
117.481415 49.240299
117.518501 29.258421
117.823715 29.76082
128.061707 193.296402
131.082321 138.752594
134.096176 6376.190918
134.145981 62.548
142.086792 194.878296
143.084061 203.875397
144.080276 254.130707
160.111954 8323.94043
160.334534 31.12281
160.483047 29.77733
160.577347 41.48917
178.123795 223.175995
188.107117 57.704659
206.116531 1746.719971
232.132477 213.138901
303.165344 71.597778
