>compound MLS000860051-01!Thioperamide maleate salt
>formula C15H24N4S
>ionization [M+H]+
>parentmass 293.17944422009055
#inchi InChI=1S/C15H24N4S/c20-15(18-13-4-2-1-3-5-13)19-8-6-12(7-9-19)14-10-16-11-17-14/h10-13H,1-9H2,(H,16,17)(H,18,20)
#inchikey QKDDJDBFONZGBW
#origInchi InChI=1S/C15H24N4S.C4H4O4/c20-15(18-13-4-2-1-3-5-13)19-8-6-12(7-9-19)14-10-16-11-17-14;5-3(6)1-2-4(7)8/h10-13H,1-9H2,(H,16,17)(H,18,20);1-2H,(H,5,6)(H,7,8)/b;2-1-
#Ion_Source LC-ESI
#Instrument qTof
#Compound_Source NIH Pharmacologically Active Library
#PI Dorrestein
#Data_Collector VP/LMS
#Scan -1
#Precursor_MZ 293.182
#ExactMass 292.172
#Charge 1
#CAS_Number N/A
#Pubmed_ID N/A
#Smiles S=C(NC1CCCCC1)N2CCC(CC2)c3c[nH]cn3.OC(=O)/C=C\C(=O)O
#INCHI_AUX N/A
#Library_Class 1
#SpectrumID CCMSLIB00000084769
#IonMode Positive
#UpdateWorkflowName UPDATE-SINGLE-ANNOTATED-GOLD
#LibraryQualityString Gold
#TaskID d252d724072548979f1f6f1ced849daf
##Scan# 1520
#SpectrumFile p3-A06_GA6_01_18228.mzXML
#LibraryName Pharm_Active_Library.mgf
#MQScore -1
#Organism Pharm_Active_Library
#TIC_Query 0
#RT_Query -1
#MZErrorPPM -1
#SharedPeaks 0
#MassDiff 0
#LibMZ -1
#SpecMZ 293.182
#SpecCharge 0
#internalFilename spec-00000.mgf

>collision 10
44.890755 152.0
44.932102 168.0
44.952118 132.0
45.235466 156.0
45.394905 136.0
45.416367 176.0
45.537167 132.0
45.872211 172.0
45.930199 104.0
46.161148 164.0
46.224728 176.0
46.251793 180.0
46.3046 88.0
46.407589 172.0
46.482193 128.0
46.834312 56.0
47.027931 176.0
47.159054 176.0
47.227421 128.0
47.242466 280.0
47.361561 200.0
47.438297 72.0
47.707367 140.0
47.787136 80.0
47.805023 176.0
47.831173 164.0
47.893135 148.0
48.159344 156.0
48.200333 228.0
48.218758 220.0
48.246403 116.0
48.257462 208.0
48.508045 44.0
48.530228 140.0
48.591221 164.0
48.628723 252.0
48.6912 156.0
48.844093 180.0
48.890007 120.0
48.935944 212.0
48.961006 140.0
49.312592 172.0
49.341949 128.0
49.376907 180.0
49.484657 152.0
49.498657 168.0
49.543476 136.0
49.557487 164.0
50.02235 184.0
50.113892 164.0
50.236549 228.0
50.352291 160.0
50.422935 220.0
50.510597 192.0
50.652153 164.0
50.877628 92.0
50.989845 180.0
51.096497 84.0
51.244564 104.0
51.314404 172.0
51.327236 124.0
51.441376 164.0
51.555641 140.0
51.694355 156.0
51.711529 68.0
51.744453 32.0
51.774525 152.0
51.840424 176.0
52.012531 256.0
52.111622 172.0
52.130302 212.0
52.304329 172.0
52.44405 200.0
52.552208 176.0
52.569523 160.0
52.849854 180.0
52.901958 184.0
53.186073 116.0
53.500065 224.0
53.727413 88.0
54.123501 248.0
54.415279 132.0
54.457867 188.0
54.568077 148.0
54.837467 168.0
54.930363 244.0
55.000805 184.0
55.265728 132.0
55.40638 100.0
55.499756 144.0
55.701591 188.0
56.03334 132.0
56.103386 148.0
56.188393 204.0
56.248089 168.0
56.346649 248.0
56.567982 200.0
56.684807 196.0
57.002934 188.0
57.048023 92.0
57.136753 72.0
57.279766 136.0
57.374706 40.0
57.504429 88.0
57.655293 180.0
57.791553 168.0
57.830902 116.0
57.874802 116.0
58.684658 48.0
58.721256 32.0
58.858601 120.0
58.870819 204.0
58.884563 100.0
58.918167 176.0
59.57539 220.0
59.633781 164.0
60.049488 56.0
60.378452 196.0
60.461998 172.0
60.655602 184.0
60.739338 132.0
60.939602 64.0
60.96291 240.0
61.004875 192.0
61.323975 116.0
61.598598 276.0
62.372688 144.0
62.448162 148.0
62.655949 132.0
62.707951 136.0
62.893509 192.0
63.347893 76.0
63.463589 196.0
63.52544 144.0
63.565105 144.0
63.598434 88.0
63.795403 164.0
64.077095 140.0
64.292358 156.0
64.333855 136.0
64.372177 140.0
64.530365 168.0
64.818474 236.0
65.041397 200.0
65.071899 160.0
65.112045 112.0
65.357025 252.0
65.457504 216.0
66.088936 156.0
66.268654 132.0
66.296204 152.0
66.362663 44.0
66.630463 180.0
66.645081 228.0
66.744232 92.0
66.886917 216.0
66.973701 128.0
67.017685 148.0
67.484489 76.0
67.580994 244.0
67.643181 140.0
67.697212 144.0
67.818451 52.0
68.168015 168.0
68.446014 168.0
68.470718 216.0
68.813705 164.0
69.08474 396.0
69.14431 136.0
69.169136 168.0
69.180725 204.0
69.222115 60.0
69.241989 52.0
69.415993 156.0
69.547943 196.0
69.600182 208.0
69.839493 224.0
69.972618 164.0
70.271286 180.0
70.366089 124.0
70.606712 104.0
70.733871 192.0
70.842712 208.0
71.058983 240.0
71.102608 104.0
71.278938 140.0
71.355133 96.0
71.408386 172.0
71.56514 236.0
71.603477 196.0
71.644043 56.0
71.665947 112.0
71.792366 64.0
71.812607 160.0
71.832588 156.0
72.09745 168.0
72.263641 196.0
72.280563 164.0
72.438019 220.0
72.697426 128.0
72.790787 172.0
72.858727 156.0
72.984497 176.0
73.294289 208.0
73.3386 176.0
73.369278 240.0
73.475021 120.0
73.524498 120.0
73.898727 100.0
73.994568 176.0
74.044228 204.0
74.06073 208.0
74.244743 224.0
74.348663 168.0
74.378571 184.0
74.426636 156.0
74.574379 168.0
74.641426 100.0
75.256561 200.0
75.275551 176.0
75.782364 152.0
75.874222 180.0
76.033798 116.0
76.061569 148.0
76.08519 284.0
76.203972 132.0
76.268272 152.0
76.478737 144.0
76.562302 64.0
76.590172 152.0
76.644066 188.0
77.295486 344.0
77.328735 104.0
77.463562 188.0
77.488091 212.0
77.63533 180.0
77.647606 216.0
77.8424 128.0
77.924957 208.0
77.961853 232.0
78.032166 108.0
78.081398 148.0
78.104263 184.0
78.48114 132.0
78.522369 252.0
78.601082 324.0
78.696396 128.0
79.343712 156.0
79.663376 160.0
79.700684 204.0
79.954971 180.0
80.161552 180.0
80.227501 64.0
80.245323 236.0
80.452278 156.0
80.471916 236.0
80.700607 168.0
80.759621 160.0
80.859818 176.0
81.072937 164.0
81.386848 116.0
81.58268 176.0
81.793152 164.0
81.836357 128.0
81.917397 128.0
82.738052 240.0
82.773483 148.0
82.816948 108.0
83.162262 140.0
83.263115 176.0
83.324867 164.0
83.50119 180.0
83.519379 144.0
83.548485 192.0
83.745079 148.0
83.932785 160.0
84.239395 192.0
84.341728 60.0
84.663734 164.0
84.903809 104.0
85.874878 136.0
86.072342 144.0
86.268181 104.0
86.547546 168.0
86.608665 176.0
86.62719 232.0
86.769882 192.0
86.897858 180.0
86.966515 124.0
87.261879 152.0
87.38649 132.0
87.5354 184.0
87.563332 148.0
87.690025 184.0
87.781372 52.0
87.990349 168.0
88.06691 112.0
88.091194 176.0
88.566315 192.0
88.763092 228.0
88.854996 164.0
88.978867 164.0
89.140396 240.0
89.39238 152.0
89.531685 156.0
89.812508 196.0
89.846458 124.0
89.963463 256.0
90.122108 264.0
90.137222 240.0
90.205261 92.0
90.269547 132.0
90.460632 228.0
90.532585 156.0
90.727745 92.0
90.856705 184.0
91.050369 136.0
91.251732 148.0
91.287857 128.0
91.71051 188.0
91.977547 104.0
92.053909 156.0
92.139862 176.0
92.218208 136.0
92.23732 124.0
92.493637 200.0
92.934418 164.0
92.991982 140.0
93.041893 160.0
93.057899 396.0
93.097572 320.0
93.124466 204.0
93.139832 44.0
93.235893 156.0
93.366623 140.0
93.510918 52.0
93.682281 168.0
93.736229 180.0
93.911667 168.0
93.946388 116.0
94.061722 168.0
94.280418 124.0
94.404144 80.0
94.50473 160.0
94.522141 168.0
94.753448 216.0
94.787422 168.0
94.812614 164.0
94.923111 128.0
94.992935 128.0
95.061371 6424.0
95.171486 88.0
95.22197 44.0
95.319107 88.0
95.449341 220.0
95.638046 144.0
95.652527 72.0
95.694504 96.0
95.721764 80.0
95.920486 68.0
96.059814 364.0
96.081261 496.0
96.181862 68.0
96.281441 60.0
96.299019 188.0
96.345894 184.0
96.457283 172.0
96.535492 184.0
96.614845 196.0
96.641113 112.0
96.878006 140.0
97.075966 220.0
97.208351 156.0
97.260384 176.0
97.280014 148.0
97.562897 100.0
97.612053 172.0
97.714325 172.0
97.816658 124.0
97.956467 184.0
97.995872 220.0
98.027397 160.0
98.091766 224.0
98.459427 196.0
98.5009 36.0
98.848869 160.0
98.862717 172.0
99.038925 128.0
99.159782 184.0
99.966072 180.0
100.003883 132.0
100.218956 152.0
100.378418 164.0
100.414314 132.0
100.46019 148.0
100.488121 228.0
100.683578 252.0
100.881546 132.0
101.223671 172.0
101.632584 184.0
101.815254 172.0
101.879524 148.0
101.9599 220.0
102.08371 224.0
102.267616 168.0
102.356194 128.0
102.374313 128.0
102.477043 152.0
102.634262 192.0
102.688705 120.0
102.745186 128.0
102.791595 180.0
102.900589 172.0
102.953087 164.0
103.509186 144.0
103.596275 208.0
103.707726 228.0
103.770569 104.0
104.011978 140.0
104.028214 164.0
104.131767 228.0
104.192711 172.0
104.206932 40.0
104.304474 144.0
104.416306 152.0
104.475288 180.0
104.504532 204.0
104.715477 240.0
104.752144 144.0
104.788811 76.0
104.829567 180.0
104.874397 88.0
105.035484 120.0
105.270187 168.0
105.315117 220.0
105.820221 176.0
106.056618 468.0
106.107048 172.0
106.123451 108.0
106.242401 208.0
106.420952 200.0
106.511314 212.0
106.570892 168.0
106.955452 184.0
107.061012 4388.0
107.101646 168.0
107.118126 144.0
107.171692 44.0
107.192291 164.0
107.237877 68.0
107.311844 84.0
107.351021 96.0
107.392265 32.0
107.51812 204.0
107.586235 120.0
107.703934 68.0
107.718399 56.0
107.757645 184.0
107.796906 76.0
107.844437 228.0
107.939537 164.0
108.013992 200.0
108.081223 2384.0
108.12986 68.0
108.225082 80.0
108.247856 92.0
108.278923 56.0
108.378349 96.0
108.473686 104.0
108.533806 184.0
108.591873 48.0
108.658249 72.0
108.672775 52.0
108.770309 160.0
109.078217 836.0
109.144264 132.0
109.248253 156.0
109.325241 212.0
109.539688 60.0
109.656372 120.0
109.796051 60.0
109.965042 192.0
110.079865 136.0
110.104927 124.0
110.684181 164.0
110.780518 164.0
110.841278 40.0
110.862236 128.0
110.929298 148.0
111.344742 152.0
111.422462 208.0
111.481293 136.0
111.502312 140.0
111.937775 112.0
112.059937 120.0
112.135803 116.0
112.19693 220.0
112.268616 92.0
112.34877 224.0
112.439499 200.0
112.640083 32.0
112.682335 116.0
113.310684 200.0
113.380608 240.0
113.520523 160.0
113.66053 156.0
113.693832 236.0
113.885559 76.0
114.249046 100.0
114.412048 236.0
114.506599 228.0
114.719681 168.0
114.866814 104.0
114.920151 200.0
115.088768 68.0
115.392159 96.0
115.422089 136.0
115.597496 124.0
115.631737 132.0
115.755905 128.0
115.94442 152.0
115.963707 188.0
116.111641 144.0
116.422821 108.0
116.508736 228.0
116.637665 40.0
116.906212 144.0
117.056274 192.0
117.138405 192.0
117.475319 204.0
117.555145 96.0
117.941734 164.0
117.976318 56.0
118.065308 1532.0
118.474052 124.0
118.494164 184.0
118.766685 140.0
118.961983 176.0
119.060966 768.0
119.092262 168.0
119.196541 160.0
119.24218 116.0
119.259567 176.0
119.50312 124.0
119.603226 132.0
119.633705 64.0
119.67289 44.0
119.872261 136.0
120.068192 1868.0
120.302948 48.0
120.755257 68.0
120.770561 48.0
120.814316 196.0
121.076675 492.0
121.150314 124.0
122.082863 332.0
123.091255 2120.0
123.162003 64.0
124.078133 140.0
124.096527 444.0
124.180138 184.0
124.526367 144.0
124.583046 124.0
124.890877 188.0
125.133438 200.0
125.40966 96.0
125.746445 172.0
125.808945 112.0
126.074738 160.0
126.137314 188.0
126.387794 224.0
126.501938 208.0
126.526558 116.0
126.988159 104.0
127.131744 148.0
127.342773 144.0
127.39444 72.0
127.500046 148.0
127.571968 32.0
127.801369 64.0
127.819366 156.0
127.873375 212.0
128.348694 220.0
128.648758 244.0
128.94014 196.0
129.010208 148.0
129.06221 220.0
129.171829 128.0
129.225281 168.0
129.707413 112.0
130.406509 40.0
130.688492 112.0
130.781784 44.0
131.182693 112.0
131.632141 152.0
131.901733 136.0
132.052643 112.0
132.128128 188.0
132.987427 84.0
133.078369 356.0
133.253815 168.0
133.442276 104.0
133.46756 52.0
133.550354 104.0
133.697647 188.0
133.764343 156.0
134.07988 120.0
134.10524 188.0
134.467346 140.0
134.573517 148.0
134.612778 196.0
134.682068 188.0
134.712204 168.0
134.772156 148.0
134.816055 124.0
134.87616 164.0
134.936264 168.0
134.973892 208.0
135.022797 208.0
135.055908 156.0
135.092438 34076.0
135.144913 108.0
135.180969 20.0
135.197632 104.0
135.24855 60.0
135.278381 84.0
135.304108 56.0
135.366623 88.0
135.386307 80.0
135.402512 80.0
135.500961 52.0
135.517181 100.0
135.558884 140.0
135.653915 116.0
135.751297 52.0
135.820862 32.0
135.87886 88.0
135.897415 72.0
135.929901 52.0
136.001846 72.0
136.018097 148.0
136.095596 3048.0
136.162048 64.0
136.234055 124.0
136.322342 144.0
136.378128 184.0
136.63623 52.0
136.689758 104.0
136.88028 164.0
136.899261 184.0
136.923859 184.0
137.043671 148.0
137.07164 136.0
137.098419 528.0
137.164856 84.0
137.216141 68.0
137.274429 152.0
137.965546 160.0
137.993591 100.0
138.06842 40.0
138.180695 84.0
138.515457 168.0
138.686508 192.0
138.742767 132.0
139.012497 140.0
139.113419 160.0
139.308334 112.0
139.418762 152.0
139.675034 84.0
139.971558 188.0
140.025726 160.0
140.315567 164.0
140.513672 160.0
140.910294 76.0
141.111603 176.0
141.48262 200.0
141.544189 40.0
141.570236 84.0
141.69577 372.0
142.072708 188.0
142.103546 192.0
142.507172 168.0
142.616486 112.0
142.702072 208.0
142.968475 224.0
143.15416 224.0
143.561646 200.0
144.018692 88.0
144.070038 52.0
144.555405 168.0
145.046371 160.0
145.073288 140.0
146.37735 152.0
146.736343 232.0
147.122345 140.0
147.293808 128.0
148.086212 252.0
149.021088 208.0
149.062393 132.0
149.084259 132.0
149.281158 184.0
149.507401 76.0
149.609634 124.0
149.670502 228.0
149.693512 180.0
149.879974 88.0
149.96283 164.0
150.043182 104.0
150.063751 132.0
150.103592 17980.0
150.193893 156.0
150.211533 48.0
150.230347 84.0
150.246536 92.0
150.277405 40.0
150.353043 116.0
150.396973 100.0
150.448242 104.0
150.482422 64.0
150.499512 32.0
150.663147 36.0
150.690018 140.0
150.71933 48.0
150.787766 60.0
150.934433 56.0
151.020035 48.0
151.105301 1524.0
151.176605 184.0
151.267166 56.0
151.377335 68.0
151.5047 36.0
151.61496 68.0
151.651718 164.0
151.686035 188.0
151.784103 152.0
151.815979 180.0
151.850311 124.0
151.869934 96.0
151.8871 208.0
151.904266 64.0
151.932068 264.0
152.029404 88.0
152.082321 156.0
152.119003 35016.0
152.160446 360.0
152.210724 60.0
152.227386 92.0
152.258133 60.0
152.297684 60.0
152.31987 116.0
152.343674 100.0
152.380692 60.0
152.402634 120.0
152.451782 52.0
152.468994 48.0
152.491104 56.0
152.510773 68.0
152.550095 64.0
152.621399 80.0
152.641068 88.0
152.739441 68.0
152.800934 72.0
152.83046 32.0
152.867371 64.0
152.921509 72.0
153.071686 212.0
153.091385 112.0
153.121964 2660.0
153.160339 64.0
153.261353 44.0
153.411682 88.0
153.43634 68.0
153.528061 60.0
153.54834 72.0
153.580353 220.0
153.781677 48.0
153.811295 52.0
153.881607 92.0
154.049545 100.0
154.087875 56.0
154.127914 212.0
154.18042 124.0
154.226257 44.0
154.273224 108.0
154.359756 136.0
154.424057 108.0
154.461166 60.0
154.495789 44.0
154.513107 56.0
154.607132 72.0
154.792801 128.0
154.946365 128.0
155.02565 68.0
155.419922 68.0
155.501801 176.0
155.59613 140.0
155.971237 76.0
157.87854 192.0
159.033493 56.0
159.737045 120.0
159.794907 72.0
159.988693 236.0
160.084991 368.0
160.98967 88.0
161.096436 148.0
161.262527 100.0
161.64946 108.0
161.869675 100.0
161.960846 164.0
162.026718 48.0
162.082458 192.0
162.424698 64.0
162.523636 68.0
162.71907 44.0
163.290817 164.0
163.937439 232.0
164.489426 112.0
164.684952 28.0
164.805008 132.0
165.046661 488.0
165.19873 56.0
165.61084 228.0
165.995255 132.0
166.043839 560.0
166.195328 124.0
166.369843 196.0
167.043777 200.0
167.062042 156.0
170.079285 172.0
170.286987 268.0
170.84845 180.0
172.269196 52.0
172.475189 120.0
174.538834 152.0
175.858658 144.0
177.046478 148.0
177.114304 1468.0
178.058792 104.0
178.114685 172.0
179.050018 340.0
179.141327 152.0
179.229248 60.0
181.209091 56.0
181.997635 148.0
182.086243 184.0
182.833618 164.0
184.089371 176.0
184.270828 180.0
185.09848 64.0
185.187851 36.0
185.485901 120.0
186.860016 124.0
186.889938 80.0
189.083908 28.0
190.05397 64.0
190.589386 164.0
191.073273 160.0
191.916061 92.0
192.067734 96.0
193.706879 192.0
193.798309 160.0
193.864807 36.0
193.909149 208.0
193.990616 236.0
194.036652 240.0
194.075134 18788.0
194.133759 208.0
194.168472 52.0
194.199188 112.0
194.272888 88.0
194.412445 100.0
194.502701 32.0
194.588745 92.0
194.672058 104.0
194.827591 52.0
194.913712 96.0
194.958176 72.0
194.985977 96.0
195.024887 152.0
195.078583 2508.0
195.117386 168.0
195.881882 48.0
196.001678 108.0
196.071671 1060.0
196.104797 148.0
196.280426 88.0
196.361298 88.0
196.383606 72.0
196.648666 132.0
196.67099 136.0
197.066483 148.0
197.705063 104.0
198.181091 44.0
201.891129 72.0
202.75174 44.0
202.896301 152.0
203.123154 76.0
205.028107 72.0
206.063889 168.0
206.598495 56.0
207.079376 192.0
214.919525 260.0
218.088135 64.0
220.626129 60.0
220.685257 64.0
221.890259 56.0
227.198807 64.0
236.887817 196.0
239.360153 80.0
241.276169 52.0
255.324829 52.0
257.080139 136.0
266.784973 112.0
267.067871 124.0
268.116211 172.0
280.106537 96.0
293.173889 192.0
300.542145 60.0
313.204468 124.0
314.554962 68.0
321.957825 68.0
324.476837 100.0
324.501923 60.0
367.251801 56.0
385.564911 108.0
402.348999 56.0
411.522888 56.0
416.658325 32.0
450.857056 104.0
500.013489 136.0
512.696533 56.0
576.801208 112.0
576.973328 104.0
582.690735 120.0
637.047852 64.0
646.52179 52.0
655.454041 176.0
757.813843 144.0
765.096313 136.0
797.730347 144.0
808.967407 144.0
811.913696 208.0
812.509277 160.0
815.393799 160.0
821.252319 200.0
839.38623 244.0
840.741821 124.0
844.716919 172.0
850.012268 200.0
853.776489 200.0
855.58606 140.0
858.540161 288.0
862.539551 208.0
870.190308 72.0
872.746094 176.0
880.128967 156.0
891.543762 148.0
906.00708 264.0
906.726135 48.0
910.115356 204.0
917.220215 172.0
920.912903 160.0
925.496765 152.0
927.902039 184.0
928.271912 48.0
937.377808 132.0
943.695251 148.0
950.91748 112.0
952.489319 152.0
954.000977 176.0
964.319397 156.0
965.704285 172.0
979.714172 180.0
981.415588 168.0
989.087158 176.0
991.805603 92.0
992.213013 224.0
998.152588 188.0
1001.223511 188.0
1002.659912 160.0
1010.198792 132.0
1013.066406 176.0
1016.420288 208.0
1017.391357 116.0
1019.811523 172.0
1027.038086 56.0
1028.767334 160.0
1038.358765 60.0
1040.944946 176.0
1042.114014 164.0
1042.383911 140.0
1047.537354 184.0
1048.245972 208.0
1048.574707 256.0
1048.793823 96.0
1053.291138 180.0
1057.791626 244.0
1058.458496 144.0
1062.872681 196.0
1063.898071 164.0
1067.543091 136.0
1068.805054 120.0
1069.058838 188.0
1070.341187 132.0
1071.858887 208.0
1075.595825 204.0
1079.81665 192.0
1086.091187 120.0
1088.059814 196.0
1088.171387 148.0
1091.371094 156.0
1092.390503 164.0
1093.272095 88.0
1095.787476 124.0
1095.985107 176.0
1098.859741 224.0
1100.001465 160.0
1101.289062 168.0
1105.376587 164.0
1105.546631 200.0
1106.77124 248.0
1119.600586 148.0
1119.647217 116.0
1120.326538 156.0
1122.692749 176.0
1124.881104 144.0
1125.36853 224.0
1126.610718 160.0
1129.498413 192.0
1134.882812 64.0
1137.841553 236.0
1138.398804 52.0
1139.057007 52.0
1139.923706 44.0
1149.391235 136.0
1150.207764 124.0
1151.808105 152.0
1152.27417 132.0
1152.922852 172.0
1155.160889 76.0
1155.688599 140.0
1159.189209 196.0
1161.114502 48.0
1177.741821 208.0
1181.419312 56.0
1181.918823 204.0
1181.987183 180.0
1182.048828 220.0
1183.643677 244.0
1183.712158 148.0
1185.52063 224.0
1185.870117 96.0
1186.932739 64.0
1192.390137 196.0
1192.658203 196.0
1194.22583 136.0
1196.448486 176.0
1197.095703 164.0
1197.481323 152.0
1198.831665 184.0
1201.148193 120.0
1202.624756 216.0
1203.15625 204.0
1204.116089 76.0
1207.827393 132.0
1208.083618 108.0
1208.540161 148.0
1209.211426 116.0
1211.101562 216.0
1211.420288 92.0
1211.641968 132.0
1212.300171 220.0
1218.20459 204.0
1220.442383 100.0
1222.647461 68.0
1222.793701 116.0
1227.809814 176.0
1228.137573 144.0
1228.339844 196.0
1231.725342 188.0
1233.549072 200.0
1237.543701 216.0
1239.855347 120.0
1243.200439 176.0
1243.403931 184.0
1245.805298 112.0
1254.228271 44.0
1254.376343 72.0
1255.476196 108.0
1256.922241 196.0
1257.564453 156.0
1259.442627 172.0
1262.32605 132.0
1263.394043 128.0
1264.271362 212.0
1264.943726 104.0
1265.588013 196.0
1265.779175 124.0
1266.281982 176.0
1272.59314 188.0
1276.067383 220.0
1276.671875 184.0
1276.942017 168.0
1280.600342 136.0
1283.971436 240.0
1288.075317 184.0
1288.854126 268.0
1289.189941 212.0
1290.304932 140.0
1294.57666 64.0
1294.626709 248.0
1294.748535 116.0
1295.794312 176.0
1295.959106 184.0
1296.188354 48.0
1296.274292 152.0
1298.82666 52.0
1300.046265 112.0
1301.137329 84.0
1301.848145 128.0
1301.991699 156.0
1302.487305 124.0
1303.241577 148.0
1304.930664 152.0
1308.708008 168.0
1308.895142 116.0
1311.113892 188.0
1313.175781 40.0
1314.647583 116.0
1315.015625 148.0
1318.055908 64.0
1319.27002 236.0
1320.072632 232.0
1321.656738 128.0
1321.721802 60.0
1325.45813 92.0
1325.581299 160.0
1325.863892 52.0
1326.987427 156.0
1328.85144 80.0
1330.019775 216.0
1330.128662 200.0
1331.297607 140.0
1332.416138 160.0
1332.815796 172.0
1332.997437 144.0
1333.251709 196.0
1335.62915 108.0
1340.077148 156.0
1340.390503 60.0
1345.021484 76.0
1345.963257 48.0
1346.29187 200.0
1346.44519 100.0
1347.562866 92.0
1350.442993 188.0
1351.328125 112.0
1351.950073 48.0
1352.7771 156.0
1353.549194 156.0
1356.197876 116.0
1356.623047 156.0
1362.552734 120.0
1362.706909 232.0
1365.441406 212.0
1367.921021 176.0
1373.359009 256.0
1374.251587 156.0
1374.62793 108.0
1376.820312 156.0
1378.113037 212.0
1380.885132 192.0
1383.223267 48.0
1384.215332 192.0
1385.304077 144.0
1386.400635 112.0
1386.971313 208.0
1390.175171 116.0
1391.563232 232.0
1393.197876 144.0
1398.30542 220.0
1400.174072 164.0
1403.005493 136.0
1403.78833 156.0
1409.715454 172.0
1410.956299 236.0
1411.300171 112.0
1412.53418 220.0
1413.588989 148.0
1414.247681 224.0
1414.427246 184.0
1416.935913 124.0
1417.730225 144.0
1418.194824 188.0
1419.739258 188.0
1421.839844 204.0
1422.537842 224.0
1423.288696 176.0
1425.692383 164.0
1426.827393 132.0
1427.947754 132.0
1428.519409 144.0
1428.865479 176.0
1429.061157 176.0
1429.678101 192.0
1430.001709 156.0
1431.228027 188.0
1431.733276 80.0
1433.586548 96.0
1434.400513 188.0
1436.466675 172.0
1436.617554 144.0
1437.530396 176.0
1438.88147 152.0
1439.27417 128.0
1439.787598 172.0
1440.61084 168.0
1441.585571 232.0
1442.961182 136.0
1443.694702 136.0
1446.569702 188.0
1447.660034 200.0
1447.887207 204.0
1450.038818 48.0
1451.289551 92.0
1452.040283 140.0
1452.578857 184.0
1452.631958 156.0
1454.688354 148.0
1456.480347 172.0
1456.548706 248.0
1456.66272 52.0
1458.113892 152.0
1458.379883 168.0
1460.28833 196.0
1460.493652 132.0
1462.928711 212.0
1463.179932 144.0
1464.085938 176.0
1466.112427 120.0
1467.164307 108.0
1467.629272 132.0
1468.521606 112.0
1470.116089 220.0
1471.306763 136.0
1471.505249 124.0
1471.780151 184.0
1472.133545 208.0
1472.474976 192.0
1474.109863 116.0
1474.16333 132.0
1476.242554 148.0
1477.72644 184.0
1477.879517 140.0
1478.43042 56.0
1481.486328 168.0
1482.121338 156.0
1483.033325 100.0
1483.999268 204.0
1487.520508 108.0
1488.963989 204.0
1489.209717 236.0
1491.230469 156.0
1492.029907 200.0
1492.314331 132.0
1493.767822 184.0
1495.591431 188.0
1497.654907 180.0
1498.956909 84.0
1499.627441 240.0
1500.05127 140.0
1501.724487 144.0
1502.49585 136.0
1504.116455 144.0
1504.301636 160.0
