>compound NCGC00160314-01!1,2,3,4-Tetrahydro-6,7-dimethoxy-1-methylisoquinolinyl-8,12dihydro-5,6-epoxy-2-hydroxyalantolactone
>formula C27H37NO5
>ionization [M+H]+
>parentmass 456.274933
#inchi InChI=1S/C27H37NO5/c1-15-7-6-9-26(3)13-22-23(24-27(15,26)33-24)19(25(29)32-22)14-28-10-8-17-11-20(30-4)21(31-5)12-18(17)16(28)2/h11-12,15-16,19,22-24H,6-10,13-14H2,1-5H3/t15-,16-,19+,22+,23+,24-,26+,27-/m0/s1
#inchikey ZFZHYNHHVLSRHQ
#Ion_Source LC-ESI
#Instrument qTOF
#Compound_Source Prestwick Phytochem Lib
#PI Dorrestein
#Data_Collector VVP/LMS
#Scan -1
#Precursor_MZ 456.275
#ExactMass 455.267
#Charge 1
#CAS_Number N/A
#Pubmed_ID N/A
#Smiles COC1=C(OC)C=C2[C@H](C)N(C[C@@H]3[C@H]4[C@@H]5O[C@@]56[C@@H](C)CCC[C@]6(C)C[C@H]4OC3=O)CCC2=C1
#INCHI_AUX N/A
#Library_Class 1
#SpectrumID CCMSLIB00000078799
#IonMode Positive
#UpdateWorkflowName UPDATE-SINGLE-ANNOTATED-GOLD
#LibraryQualityString Gold
#TaskID 67c915c6594c435cadc1fe2b5358144d
##Scan# 1873
#SpectrumFile p1-C04_GC4_01_17900.mzXML
#LibraryName phytochem_lib.mgf
#MQScore -1
#Organism phytochem_lib
#TIC_Query 0
#RT_Query -1
#MZErrorPPM -1
#SharedPeaks 0
#MassDiff 0
#LibMZ -1
#SpecMZ 456.275
#SpecCharge 0
#internalFilename spec-00000.mgf

>collision 10
94.957626 232.0
95.009995 152.0
95.047752 468.0
95.084503 340.0
95.291504 156.0
95.333252 168.0
95.386726 32.0
95.446991 140.0
95.481995 232.0
95.522842 180.0
95.604553 140.0
95.649323 40.0
95.766144 200.0
95.865501 104.0
96.001953 144.0
96.083832 176.0
96.138512 140.0
96.224396 40.0
96.454903 144.0
96.812943 60.0
96.830566 104.0
96.967705 204.0
97.028419 152.0
97.049599 160.0
97.064903 520.0
97.100044 308.0
97.173599 144.0
97.226578 44.0
97.360077 256.0
97.389534 372.0
97.456329 164.0
97.481873 188.0
97.722122 148.0
97.794563 176.0
97.84771 132.0
97.926476 192.0
98.017097 84.0
98.062416 144.0
98.103813 124.0
98.147186 132.0
98.2024 216.0
98.228043 144.0
98.297096 120.0
98.537979 152.0
98.551811 140.0
98.674347 140.0
98.715866 156.0
98.737617 180.0
98.779152 56.0
98.887978 160.0
98.929543 152.0
99.044395 268.0
99.072128 100.0
99.093918 124.0
99.153366 76.0
99.315941 184.0
99.329826 196.0
99.49453 208.0
99.691162 92.0
99.764702 100.0
99.969566 220.0
100.005386 48.0
100.039223 192.0
100.26828 148.0
100.302162 208.0
100.328079 176.0
100.361969 204.0
100.377922 140.0
100.491615 176.0
100.617348 112.0
100.683243 220.0
100.762459 132.0
100.861053 108.0
100.913033 220.0
101.011024 196.0
101.041031 176.0
101.077042 140.0
101.091049 160.0
101.207146 76.0
101.243187 172.0
101.437538 212.0
101.511719 220.0
101.537788 196.0
101.56456 80.0
101.808708 244.0
101.840843 100.0
102.053856 124.0
102.07798 172.0
102.342712 212.0
102.55764 156.0
102.611549 120.0
102.714394 192.0
102.764503 124.0
102.787025 136.0
102.944473 192.0
103.052589 480.0
103.466125 72.0
103.484344 192.0
103.500542 128.0
103.541039 148.0
103.583572 204.0
103.626114 160.0
103.683167 156.0
103.747711 212.0
103.80246 204.0
103.891693 148.0
104.062172 128.0
104.171837 200.0
104.432007 172.0
104.501175 220.0
104.523552 228.0
104.6231 224.0
104.653824 128.0
104.692513 40.0
104.837143 184.0
104.857529 112.0
105.032867 152.0
105.070312 2732.0
105.09407 128.0
105.112434 148.0
105.138962 240.0
105.161407 236.0
105.247147 52.0
105.276909 188.0
105.298203 108.0
105.423798 204.0
105.443253 180.0
105.553642 164.0
105.612953 144.0
105.6866 176.0
105.719337 148.0
105.836014 152.0
105.895561 152.0
105.965042 144.0
105.999878 140.0
106.04496 144.0
106.065987 192.0
106.38546 180.0
106.588783 180.0
106.660713 124.0
106.809662 204.0
106.845787 220.0
106.955505 172.0
107.004257 40.0
107.018669 56.0
107.047676 372.0
107.084618 1160.0
107.107216 144.0
107.123695 320.0
107.284431 100.0
107.550529 128.0
107.675758 140.0
107.775627 132.0
107.969933 208.0
108.000023 212.0
108.044395 308.0
108.080345 496.0
108.19133 184.0
108.238945 164.0
108.274147 176.0
108.305214 188.0
108.338364 160.0
108.429527 48.0
108.626503 120.0
108.692886 148.0
108.798737 236.0
108.883636 156.0
108.923332 132.0
108.939522 216.0
109.027023 228.0
109.062508 636.0
109.081253 168.0
109.102043 1360.0
109.183136 48.0
109.249695 220.0
109.278816 56.0
109.310028 60.0
109.32975 176.0
109.362053 160.0
109.380791 112.0
109.464066 32.0
109.599457 168.0
109.659889 120.0
109.942879 156.0
109.98735 112.0
110.033272 120.0
110.063873 276.0
110.089653 56.0
110.108444 80.0
110.141861 104.0
110.166931 196.0
110.200356 152.0
110.242142 176.0
110.279762 76.0
110.296486 56.0
110.350838 196.0
110.392654 160.0
110.505608 220.0
110.606049 188.0
110.723297 120.0
110.750755 180.0
110.800804 140.0
110.83223 124.0
110.85318 136.0
111.048042 160.0
111.07122 136.0
111.087402 224.0
111.113174 100.0
111.196579 60.0
111.295769 160.0
111.339867 40.0
111.432289 196.0
111.484818 96.0
111.505836 212.0
111.688751 180.0
111.749756 200.0
111.771484 208.0
112.002373 76.0
112.03186 140.0
112.137215 128.0
112.21521 88.0
112.248947 176.0
112.293236 144.0
112.396599 156.0
112.420135 208.0
112.510574 164.0
112.584473 104.0
112.647835 116.0
112.80632 196.0
112.830017 172.0
112.907806 228.0
113.005112 100.0
113.025787 160.0
113.12574 60.0
113.180779 60.0
113.206192 264.0
113.570709 52.0
114.022934 208.0
114.052696 92.0
114.129227 104.0
114.169624 144.0
114.275398 160.0
114.38501 172.0
114.456894 116.0
114.525047 108.0
114.618782 104.0
114.665375 60.0
114.682709 68.0
115.030327 136.0
115.052856 884.0
115.088028 84.0
115.137146 228.0
115.181992 272.0
115.256767 120.0
115.293091 224.0
115.399971 76.0
115.494064 68.0
115.594612 64.0
115.667381 60.0
115.748734 116.0
115.770142 196.0
115.827972 184.0
115.881523 56.0
115.904762 156.0
116.022972 220.0
116.062546 1020.0
116.166649 156.0
116.340469 144.0
116.357643 180.0
116.490791 180.0
116.538055 56.0
116.61734 156.0
116.77021 100.0
116.800323 168.0
116.910324 124.0
116.953094 84.0
116.97892 204.0
117.024132 140.0
117.068069 932.0
117.121033 48.0
117.153343 136.0
117.18351 148.0
117.267548 188.0
117.496117 132.0
117.526268 168.0
117.588898 132.0
117.653656 128.0
117.677406 216.0
117.698997 60.0
117.74218 188.0
117.893402 132.0
118.010124 68.0
118.058914 172.0
118.075302 172.0
118.094467 184.0
118.165848 64.0
118.204796 80.0
118.271523 168.0
118.369301 108.0
118.583771 36.0
118.598946 136.0
118.624954 132.0
118.655418 148.0
118.687828 236.0
118.707825 196.0
118.78759 108.0
119.0495 328.0
119.08596 1136.0
119.141426 88.0
119.16098 160.0
119.210953 148.0
119.260941 48.0
119.315285 68.0
119.373985 120.0
119.602425 52.0
119.787506 168.0
119.804932 176.0
120.057625 196.0
120.089096 152.0
120.225739 232.0
120.306496 220.0
120.38073 192.0
120.500862 136.0
120.544563 192.0
120.581459 136.0
120.625427 196.0
120.691017 120.0
120.723816 120.0
120.769012 80.0
120.844116 176.0
120.951347 164.0
120.999504 128.0
121.066231 2604.0
121.099052 468.0
121.183479 160.0
121.26017 112.0
121.389511 160.0
121.558418 72.0
121.863625 64.0
121.898827 176.0
121.916359 76.0
122.002075 172.0
122.043755 180.0
122.064568 336.0
122.102966 292.0
122.15271 176.0
122.349663 96.0
122.426132 184.0
122.495003 180.0
122.651451 212.0
122.691124 152.0
122.748451 100.0
122.827843 192.0
122.896233 172.0
122.970627 180.0
123.040092 196.0
123.080322 620.0
123.116608 868.0
123.194275 48.0
123.238457 136.0
123.306305 148.0
123.340118 120.0
123.386398 212.0
123.426331 152.0
123.490463 176.0
123.523643 60.0
123.554611 180.0
123.605499 132.0
123.67189 164.0
123.691811 120.0
123.731659 160.0
123.912567 216.0
123.964226 116.0
123.981949 216.0
124.012978 92.0
124.080696 476.0
124.120926 156.0
124.185913 184.0
124.234718 88.0
124.259117 72.0
124.401146 188.0
124.936707 28.0
125.062706 220.0
125.097862 432.0
125.373108 204.0
125.42878 180.0
125.566704 224.0
125.622826 152.0
125.651825 60.0
125.698685 160.0
125.723228 104.0
125.767868 52.0
125.912987 212.0
126.05442 376.0
126.116295 184.0
126.221367 188.0
126.252678 160.0
126.335434 236.0
126.498642 188.0
126.639854 144.0
126.747787 176.0
126.772034 132.0
126.795036 180.0
127.024956 344.0
127.042122 412.0
127.109474 136.0
127.207138 132.0
127.28347 148.0
127.33287 212.0
127.372414 212.0
127.589027 60.0
127.672226 128.0
127.717201 180.0
127.784691 264.0
127.849945 128.0
127.8927 168.0
128.063858 1116.0
128.226028 220.0
128.289154 84.0
128.316193 64.0
128.38385 52.0
128.399628 160.0
128.44249 212.0
128.514679 124.0
128.57785 160.0
128.623001 72.0
128.720078 96.0
129.007004 176.0
129.049957 36.0
129.071136 1144.0
129.15625 64.0
129.19017 140.0
129.224106 56.0
129.427811 72.0
129.518402 156.0
129.59996 108.0
129.674728 196.0
129.738205 44.0
129.790344 116.0
129.851578 160.0
129.901474 128.0
129.94458 144.0
129.999039 128.0
130.043243 200.0
130.073029 364.0
130.112518 96.0
130.196533 168.0
130.256454 224.0
130.341919 100.0
130.444183 196.0
130.698898 204.0
130.837723 144.0
130.878708 164.0
130.990295 188.0
131.006241 36.0
131.051102 328.0
131.08522 2340.0
131.238708 200.0
131.335831 232.0
131.428024 44.0
131.562668 192.0
131.722519 196.0
131.816193 52.0
131.905319 156.0
132.056732 220.0
132.086823 476.0
132.214081 272.0
132.280457 92.0
132.429291 132.0
132.603424 196.0
132.633209 220.0
132.736374 148.0
132.965775 180.0
132.993317 92.0
133.031448 184.0
133.065308 796.0
133.100922 1220.0
133.151733 80.0
133.259705 136.0
133.349319 72.0
133.434372 168.0
133.497971 232.0
133.583847 140.0
133.68277 156.0
133.763336 144.0
133.795563 156.0
133.812332 180.0
133.875275 232.0
134.037857 176.0
134.071838 508.0
134.101135 356.0
134.240234 160.0
134.424515 140.0
134.453598 156.0
134.512482 180.0
134.6689 208.0
134.741104 180.0
134.830765 144.0
134.923676 132.0
134.95372 68.0
134.991028 152.0
135.04425 164.0
135.079666 940.0
135.115097 988.0
135.143387 176.0
135.198914 196.0
135.219742 136.0
135.263504 124.0
135.467499 140.0
135.599564 140.0
135.83374 140.0
136.075134 148.0
136.120453 336.0
136.288773 164.0
136.393341 116.0
136.665436 136.0
136.765503 108.0
136.947113 96.0
137.028503 140.0
137.060059 1044.0
137.084564 204.0
137.114853 148.0
137.236069 52.0
137.345673 164.0
137.436661 164.0
137.468536 60.0
137.572021 156.0
137.588364 128.0
137.614044 128.0
137.72847 56.0
137.797546 184.0
137.834717 172.0
138.05368 264.0
138.083725 208.0
138.102432 140.0
138.142197 180.0
138.158569 32.0
138.298965 156.0
138.357498 192.0
138.662003 220.0
138.751068 148.0
138.779205 92.0
138.842514 160.0
138.861282 192.0
138.908188 148.0
138.929306 140.0
138.987946 160.0
139.018463 104.0
139.044266 208.0
139.072784 324.0
139.24382 204.0
139.389465 196.0
139.516388 144.0
139.593979 172.0
139.873947 160.0
139.962021 164.0
140.001083 180.0
140.034058 116.0
140.072617 692.0
140.107071 136.0
140.161255 48.0
140.309753 156.0
140.328613 144.0
140.423889 128.0
140.578629 176.0
140.880844 140.0
140.954956 224.0
140.989532 164.0
141.048965 108.0
141.070496 208.0
141.095901 40.0
141.133728 200.0
141.318207 68.0
141.393936 140.0
141.424698 164.0
141.557266 232.0
141.635422 236.0
141.709702 180.0
141.730194 156.0
141.758621 52.0
141.817871 192.0
141.92218 44.0
141.97197 152.0
142.079697 448.0
142.261871 176.0
142.307755 192.0
142.420532 188.0
142.513168 152.0
142.622421 160.0
142.746109 184.0
142.934021 176.0
142.958664 192.0
142.983994 192.0
143.019699 216.0
143.046463 164.0
143.086685 1312.0
143.393631 120.0
143.410309 156.0
143.539047 420.0
143.715561 144.0
143.746567 132.0
143.799072 148.0
143.975739 108.0
144.033066 228.0
144.057114 500.0
144.086884 388.0
144.212265 108.0
144.262451 136.0
144.370056 132.0
144.432999 212.0
144.468109 108.0
144.506393 164.0
144.547058 124.0
144.604492 108.0
144.661942 192.0
144.731369 132.0
144.827164 144.0
145.065186 1688.0
145.101379 2032.0
145.140305 192.0
145.52739 52.0
145.592026 140.0
145.671494 120.0
145.697906 172.0
145.863724 224.0
145.89978 120.0
145.943054 176.0
145.995483 204.0
146.069504 1064.0
146.098175 308.0
146.118622 168.0
146.176376 144.0
146.285416 220.0
146.347275 196.0
146.855606 216.0
146.887085 172.0
146.932922 140.0
146.951767 240.0
147.047501 236.0
147.080597 2376.0
147.11824 656.0
147.150131 208.0
147.169449 136.0
147.21106 156.0
147.239471 64.0
147.263626 44.0
147.350586 44.0
147.384415 172.0
147.491928 276.0
147.519745 44.0
147.536667 176.0
147.766418 112.0
147.906784 204.0
147.983032 88.0
148.031387 144.0
148.083954 732.0
148.120804 308.0
148.286377 160.0
148.362183 152.0
148.522217 96.0
148.621689 108.0
148.823135 200.0
148.934845 176.0
148.963989 92.0
149.019867 192.0
149.059052 1072.0
149.0952 424.0
149.133591 840.0
149.207001 112.0
149.22403 84.0
149.25563 172.0
149.287247 48.0
149.350479 112.0
149.445343 32.0
149.562164 60.0
149.664398 140.0
149.686325 160.0
149.747208 128.0
149.8349 96.0
149.893372 204.0
150.03717 40.0
150.06665 1392.0
150.128387 164.0
150.320099 192.0
150.598404 108.0
150.78653 164.0
150.835403 120.0
150.93808 144.0
150.96254 172.0
151.016342 176.0
151.076813 1196.0
151.11348 628.0
151.302643 104.0
151.415268 140.0
151.618607 204.0
151.773041 160.0
151.910385 180.0
151.927551 176.0
151.98555 244.0
152.069672 1484.0
152.116501 160.0
152.143509 232.0
152.222076 164.0
152.364532 56.0
152.396469 160.0
152.55867 124.0
152.644196 204.0
152.791016 180.0
152.821823 160.0
152.943588 108.0
153.055481 1832.0
153.074615 868.0
153.124603 144.0
153.237915 140.0
153.316757 140.0
153.361115 168.0
153.462189 116.0
153.560822 180.0
153.763138 132.0
153.827301 140.0
153.889023 128.0
153.918655 212.0
153.9384 124.0
154.050858 428.0
154.086639 448.0
154.304092 248.0
154.479675 156.0
154.60585 116.0
154.692474 260.0
154.71228 192.0
154.764282 112.0
154.798935 140.0
154.971176 172.0
154.997101 192.0
155.016922 112.0
155.080032 316.0
155.157715 80.0
155.175552 156.0
155.219559 140.0
155.272263 152.0
155.289627 100.0
155.378922 88.0
155.411179 164.0
155.43103 140.0
155.488098 180.0
155.519455 108.0
155.545181 192.0
155.577454 168.0
155.699127 176.0
155.786057 80.0
155.825806 52.0
155.994797 148.0
156.060699 200.0
156.091034 388.0
156.340515 188.0
156.457489 208.0
156.5504 128.0
156.701553 192.0
156.746399 132.0
156.885208 168.0
157.068802 288.0
157.102097 1440.0
157.280106 192.0
157.305542 148.0
157.335022 148.0
157.497269 152.0
157.579758 108.0
157.659729 128.0
157.8172 336.0
157.872208 80.0
158.009781 140.0
158.074753 904.0
158.095398 996.0
158.13739 60.0
158.17244 136.0
158.375259 44.0
158.402802 76.0
158.668213 176.0
158.84494 136.0
158.936798 260.0
159.017105 104.0
159.051971 188.0
159.080841 2156.0
159.116623 3668.0
159.192841 128.0
159.212921 164.0
159.233017 132.0
159.280731 112.0
159.421432 48.0
159.519455 60.0
159.572876 120.0
159.611069 160.0
159.645157 184.0
159.670303 104.0
159.725647 124.0
159.823761 40.0
160.088852 12856.0
160.11882 516.0
160.166443 96.0
160.18335 224.0
160.246735 84.0
160.297134 52.0
160.374664 68.0
160.410553 156.0
160.438278 180.0
160.45845 108.0
160.486176 200.0
160.521484 92.0
160.559311 80.0
160.685425 156.0
160.818405 240.0
160.840439 140.0
160.899948 132.0
160.989151 168.0
161.033768 112.0
161.060822 1208.0
161.092072 2792.0
161.133865 1232.0
161.255127 144.0
161.296539 68.0
161.334457 56.0
161.392609 144.0
161.435867 76.0
161.468475 48.0
161.625305 68.0
161.65062 52.0
161.678116 180.0
161.74678 256.0
161.764023 64.0
161.824463 248.0
161.886032 44.0
162.065262 944.0
162.093567 612.0
162.134567 228.0
162.177383 116.0
162.223007 96.0
162.248352 44.0
162.286377 52.0
162.323639 156.0
162.354843 80.0
162.395416 136.0
162.41571 172.0
162.580627 84.0
162.661835 160.0
162.755768 132.0
162.882751 48.0
162.958969 324.0
163.01741 184.0
163.042816 144.0
163.074463 1036.0
163.111069 324.0
163.147247 468.0
163.190247 184.0
163.228119 152.0
163.31485 140.0
163.365723 196.0
163.399811 140.0
163.436661 136.0
163.490402 36.0
163.518387 140.0
163.5755 212.0
163.62117 180.0
163.742432 136.0
163.915665 84.0
163.964081 172.0
164.08284 2648.0
164.110275 204.0
164.292908 240.0
164.338913 224.0
164.361877 220.0
164.438446 228.0
164.471619 116.0
164.504807 164.0
164.543091 68.0
164.60437 52.0
164.653915 160.0
164.686829 180.0
164.821487 92.0
164.870041 132.0
164.898148 168.0
165.054001 876.0
165.091461 6052.0
165.131104 172.0
165.208817 144.0
165.288284 120.0
165.315002 244.0
165.338257 92.0
165.457245 84.0
165.504684 200.0
165.62735 140.0
165.655518 40.0
165.745193 76.0
165.787827 156.0
165.988693 256.0
166.058243 544.0
166.095444 912.0
166.14772 164.0
166.181076 60.0
166.32991 148.0
166.363281 192.0
166.396652 48.0
166.432602 124.0
166.45314 140.0
166.589035 220.0
166.720291 116.0
166.761414 72.0
166.810257 64.0
166.843674 32.0
166.959381 136.0
167.033966 84.0
167.068497 772.0
167.095764 192.0
167.175461 48.0
167.239807 132.0
167.283569 140.0
167.577148 164.0
167.754974 52.0
167.984467 60.0
168.070663 300.0
168.093613 452.0
168.245102 64.0
168.428452 60.0
168.449112 48.0
168.521439 144.0
168.567963 140.0
168.803177 224.0
168.891113 172.0
168.986832 184.0
169.102478 364.0
169.162811 184.0
169.237885 56.0
169.346649 172.0
169.512451 80.0
169.592789 144.0
169.617447 232.0
169.743149 204.0
169.831314 216.0
169.849472 124.0
169.958725 176.0
170.072617 160.0
170.107025 384.0
170.220596 208.0
170.277725 152.0
170.340057 112.0
170.431 172.0
170.485565 192.0
170.558334 160.0
170.586929 164.0
170.852921 208.0
171.080261 476.0
171.11615 1116.0
171.153137 176.0
171.197296 40.0
171.237411 36.0
171.294708 40.0
171.331177 240.0
171.365051 204.0
171.407211 132.0
171.524017 48.0
171.620468 168.0
171.753464 68.0
171.823898 128.0
171.941315 184.0
171.983078 316.0
172.086609 360.0
172.116074 548.0
172.257248 108.0
172.338226 44.0
172.356522 132.0
172.374817 108.0
172.552551 84.0
172.589142 160.0
172.615295 108.0
172.693756 108.0
172.814087 128.0
172.955399 112.0
173.060104 152.0
173.099518 600.0
173.134323 420.0
173.185806 208.0
173.214615 172.0
173.264389 144.0
173.838593 144.0
173.938324 120.0
174.009216 200.0
174.066055 820.0
174.090118 1588.0
174.131882 324.0
174.190414 68.0
174.218018 140.0
174.416382 160.0
174.437408 216.0
174.568863 160.0
174.687225 124.0
174.929306 40.0
175.078217 1564.0
175.103409 380.0
175.149658 700.0
175.350739 132.0
175.454666 152.0
175.490448 164.0
175.524734 156.0
175.630219 68.0
175.675064 116.0
175.693527 64.0
175.814896 128.0
175.833374 76.0
176.082993 8060.0
176.149139 264.0
176.192474 116.0
176.215775 112.0
176.247955 36.0
176.277817 40.0
176.351013 88.0
176.464691 52.0
176.509644 172.0
176.544006 64.0
176.596909 228.0
176.711517 220.0
176.7789 96.0
176.848251 40.0
176.959442 124.0
176.983261 224.0
177.035843 140.0
177.088974 2072.0
177.126999 896.0
177.156998 404.0
177.242844 148.0
177.282593 48.0
177.319687 156.0
177.354141 80.0
177.375351 120.0
177.3992 36.0
177.417755 80.0
177.44957 124.0
177.486694 68.0
177.515869 84.0
177.538803 80.0
177.572388 64.0
177.653778 204.0
177.905884 436.0
177.959549 220.0
177.980225 168.0
178.020813 56.0
178.05722 152.0
178.098282 6796.0
178.169312 200.0
178.229889 152.0
178.248489 156.0
178.27507 40.0
178.357452 132.0
178.434692 140.0
178.523621 104.0
178.652618 172.0
178.727112 56.0
178.775009 164.0
178.812256 132.0
178.849518 108.0
178.873474 120.0
178.985291 296.0
179.017242 72.0
179.058746 172.0
179.106903 11612.0
179.166321 136.0
179.221664 188.0
179.355591 28.0
179.381104 120.0
179.415909 100.0
179.435577 64.0
179.567108 148.0
179.608902 228.0
179.640915 192.0
179.664917 64.0
179.782318 64.0
179.862381 64.0
179.929123 208.0
179.966507 140.0
179.998535 140.0
180.108627 2044.0
180.166809 88.0
180.268341 56.0
180.295059 68.0
180.313766 96.0
180.340485 156.0
180.621231 212.0
180.653336 76.0
180.771057 48.0
180.85495 220.0
181.08757 352.0
181.113007 348.0
181.156601 200.0
181.293243 88.0
181.329422 144.0
181.397766 80.0
181.467468 148.0
181.496964 104.0
181.932861 144.0
182.068527 144.0
182.113052 468.0
182.359375 108.0
182.396301 32.0
182.45813 112.0
182.563004 60.0
182.611404 184.0
182.821243 128.0
182.885834 156.0
183.066223 64.0
183.119354 512.0
183.219742 48.0
183.537766 84.0
183.87767 28.0
184.045029 136.0
184.068008 196.0
184.125458 308.0
184.21788 208.0
184.288116 204.0
184.36647 56.0
184.388092 184.0
184.448914 160.0
184.547577 352.0
184.807236 64.0
184.937119 116.0
184.968964 152.0
185.004791 88.0
185.104034 104.0
185.133408 3568.0
185.27832 48.0
185.310822 144.0
185.332504 276.0
185.362305 136.0
185.505951 176.0
185.58728 84.0
185.64151 116.0
185.828247 132.0
185.950775 204.0
186.091354 236.0
186.136719 600.0
186.19783 188.0
186.257584 40.0
186.352661 152.0
186.387985 88.0
186.453201 56.0
186.545609 128.0
186.583679 204.0
186.638046 88.0
186.689713 232.0
186.774979 44.0
186.803528 112.0
186.831146 124.0
187.057007 68.0
187.099243 304.0
187.149582 1288.0
187.312973 96.0
187.353836 120.0
187.601822 184.0
187.84996 136.0
187.93454 200.0
188.04097 76.0
188.107254 4172.0
188.147995 492.0
188.234787 176.0
188.341293 132.0
188.414307 236.0
188.570648 176.0
188.58963 332.0
188.647339 96.0
188.763046 148.0
188.855148 152.0
188.896179 152.0
188.92627 112.0
188.953629 120.0
188.976547 212.0
189.11554 4740.0
189.210876 232.0
189.251938 108.0
189.273163 240.0
189.545639 88.0
189.569687 72.0
189.610794 68.0
189.764297 104.0
189.80722 128.0
190.004791 224.0
190.024841 240.0
190.086823 4892.0
190.118256 2020.0
190.158768 204.0
190.186752 56.0
190.263611 132.0
190.299301 128.0
190.318512 60.0
190.36795 72.0
190.532745 156.0
190.605164 100.0
190.672882 232.0
190.719604 88.0
190.740738 220.0
190.780075 56.0
190.87355 100.0
190.897797 196.0
190.949142 204.0
190.980804 140.0
191.035812 212.0
191.106415 28920.0
191.175858 40.0
191.194275 88.0
191.230972 56.0
191.25676 284.0
191.292282 80.0
191.321228 112.0
191.401855 52.0
191.461349 132.0
191.498245 88.0
191.517517 60.0
191.557922 96.0
191.579819 84.0
191.606094 52.0
191.630463 48.0
191.655258 44.0
191.676971 144.0
191.779953 144.0
191.867477 232.0
191.89505 40.0
191.936646 140.0
192.010864 60.0
192.031357 176.0
192.107468 5604.0
192.159805 168.0
192.217712 216.0
192.244827 192.0
192.289505 64.0
192.329559 68.0
192.375076 104.0
192.40567 48.0
192.526138 152.0
192.637405 104.0
192.689896 172.0
192.717514 140.0
192.744659 68.0
192.781067 52.0
192.803177 32.0
192.95076 72.0
192.985626 252.0
193.0271 124.0
193.122208 10120.0
193.170914 96.0
193.203445 108.0
193.232925 96.0
193.25943 64.0
193.278809 60.0
193.342453 40.0
193.372894 32.0
193.407028 72.0
193.439316 92.0
193.472534 120.0
193.491913 64.0
193.524307 144.0
193.54657 184.0
193.598282 68.0
193.64975 132.0
193.705154 184.0
193.739563 180.0
193.892014 144.0
193.917725 228.0
194.01828 124.0
194.051559 48.0
194.094528 160.0
194.127365 1696.0
194.170792 128.0
194.292831 80.0
194.315033 80.0
194.339996 76.0
194.420471 52.0
194.542603 68.0
194.609222 48.0
194.631439 136.0
194.715927 104.0
194.750854 116.0
195.132294 416.0
195.189941 56.0
195.406891 56.0
195.490356 144.0
195.595184 128.0
195.640656 120.0
195.664749 128.0
195.701904 132.0
195.980423 108.0
196.052872 156.0
196.097275 232.0
196.133698 72.0
196.208969 64.0
196.40416 112.0
196.638535 104.0
196.755768 124.0
196.794846 232.0
196.831146 76.0
197.032242 152.0
197.071091 208.0
197.081528 188.0
197.102966 236.0
197.140167 140.0
197.356445 92.0
197.378815 124.0
197.510254 48.0
197.599777 88.0
197.683716 148.0
197.75087 316.0
198.105362 152.0
198.125229 348.0
198.420349 48.0
198.439972 128.0
198.462402 188.0
198.484833 172.0
198.66713 44.0
198.821793 164.0
198.992676 100.0
199.111496 412.0
199.144058 128.0
199.148865 168.0
199.192062 96.0
199.214539 96.0
199.245438 136.0
199.546158 124.0
199.678314 92.0
199.728943 56.0
199.889297 124.0
200.136566 156.0
200.232742 52.0
200.859665 140.0
200.945892 56.0
201.04747 148.0
201.072876 88.0
201.126602 424.0
201.151901 212.0
201.233765 136.0
201.343887 128.0
201.46817 80.0
201.487946 144.0
201.541626 104.0
201.960022 132.0
201.982651 196.0
202.027908 100.0
202.050537 144.0
202.091125 104.0
202.129761 164.0
202.165176 116.0
202.325043 184.0
202.48645 48.0
202.679077 40.0
202.871796 160.0
202.891632 144.0
203.030579 188.0
203.102753 1516.0
203.14328 6676.0
203.226303 112.0
203.348312 100.0
203.417801 116.0
203.468536 136.0
203.495926 64.0
203.527161 56.0
203.549866 72.0
203.673798 88.0
203.7771 112.0
204.032883 132.0
204.104233 572.0
204.146423 1660.0
204.172165 284.0
204.30304 88.0
204.348557 112.0
204.404907 204.0
204.570541 88.0
204.673035 48.0
204.752762 184.0
204.852448 56.0
204.889481 60.0
205.032333 148.0
205.109604 3160.0
205.156769 456.0
205.179031 268.0
205.244522 84.0
205.337006 124.0
205.364441 112.0
205.493881 64.0
205.687943 156.0
205.713623 160.0
205.804993 80.0
205.922073 84.0
206.114105 1736.0
206.160141 132.0
206.193481 120.0
206.419312 92.0
206.475159 68.0
206.556595 56.0
206.648132 36.0
206.708221 48.0
206.728256 176.0
206.805527 36.0
206.946976 212.0
206.991608 64.0
207.034561 92.0
207.125397 3020.0
207.248444 136.0
207.470078 48.0
207.708084 136.0
207.819962 52.0
207.885956 40.0
207.966309 84.0
208.133133 2344.0
208.224716 40.0
208.425797 112.0
208.526367 92.0
208.615479 108.0
208.661469 64.0
208.747726 152.0
208.819626 40.0
209.090057 192.0
209.137222 332.0
209.208496 136.0
209.302689 124.0
209.328995 100.0
209.686218 76.0
209.778442 156.0
209.864929 48.0
209.997589 68.0
210.023544 116.0
210.107193 156.0
210.21106 180.0
210.323624 80.0
210.670135 124.0
211.106125 136.0
211.126801 176.0
211.152832 132.0
211.355316 172.0
211.398727 116.0
211.659241 188.0
211.806946 144.0
211.876465 32.0
211.998154 96.0
212.067703 76.0
212.10701 172.0
212.143463 1208.0
212.250351 136.0
213.071716 156.0
213.128632 1764.0
213.51062 84.0
213.629883 164.0
213.650238 32.0
213.746246 44.0
214.124023 156.0
214.159164 1160.0
214.252853 192.0
214.812561 108.0
214.882568 116.0
214.938004 144.0
215.161209 504.0
215.226974 160.0
215.542435 136.0
215.630096 164.0
215.720261 132.0
215.770401 32.0
215.820969 68.0
215.863968 104.0
215.904907 124.0
216.097961 100.0
216.173676 348.0
216.437485 36.0
216.47847 92.0
216.941391 96.0
217.00882 140.0
217.124191 1408.0
217.178909 176.0
217.48111 44.0
217.788925 220.0
217.901978 200.0
217.956863 88.0
218.012695 96.0
218.074402 128.0
218.118607 2244.0
218.256668 96.0
218.291962 36.0
218.464432 152.0
218.513931 208.0
218.75386 92.0
218.945251 40.0
219.103287 240.0
219.129517 448.0
219.175018 188.0
219.322357 232.0
219.463867 140.0
219.656403 236.0
219.717499 252.0
219.770615 72.0
219.80011 132.0
219.889893 188.0
219.927109 120.0
219.980362 156.0
220.0569 188.0
220.079895 248.0
220.087326 196.0
220.133911 56700.0
220.221436 240.0
220.266617 200.0
220.325653 48.0
220.35643 76.0
220.384735 112.0
220.426102 44.0
220.486801 192.0
220.511902 120.0
220.545792 64.0
220.604889 232.0
220.636612 224.0
220.659393 56.0
220.695084 84.0
220.75705 96.0
220.837021 92.0
220.90802 128.0
220.928726 44.0
220.949432 36.0
220.996765 140.0
221.07666 160.0
221.136932 6100.0
221.189133 136.0
221.267334 76.0
221.325302 52.0
221.356888 84.0
221.49115 68.0
221.555008 40.0
221.582977 44.0
221.624466 152.0
221.689468 68.0
221.700211 64.0
221.746552 180.0
221.846741 88.0
221.941605 184.0
222.047272 76.0
222.099792 152.0
222.109726 52.0
222.143921 1144.0
222.275543 144.0
222.309418 52.0
222.407364 104.0
222.437042 60.0
222.532227 64.0
222.550751 80.0
222.604614 108.0
222.614532 148.0
222.653778 80.0
222.698334 40.0
222.721634 128.0
222.78421 120.0
222.925797 120.0
222.965714 100.0
223.086456 200.0
223.153732 448.0
223.200562 28.0
223.257065 64.0
223.329559 148.0
223.49205 56.0
223.530731 56.0
223.673584 84.0
223.727173 96.0
223.80159 44.0
224.105392 156.0
224.156052 56.0
224.340836 60.0
224.492889 60.0
224.54657 132.0
224.591309 84.0
225.009079 76.0
225.376434 200.0
225.959457 44.0
226.010315 184.0
226.082138 156.0
226.138992 184.0
226.213821 144.0
226.264709 60.0
226.474335 52.0
226.693024 48.0
227.100754 164.0
227.13974 208.0
227.253738 180.0
227.37677 92.0
227.692001 132.0
228.040497 236.0
228.136871 132.0
228.324112 180.0
228.708206 184.0
228.961105 168.0
229.081589 172.0
229.126266 464.0
229.190048 160.0
229.651276 176.0
229.723663 56.0
230.125046 104.0
230.156372 328.0
230.209595 220.0
230.287949 152.0
230.605347 180.0
230.880463 52.0
230.95607 44.0
231.034714 28.0
231.138672 2640.0
231.207184 40.0
231.252579 156.0
231.297989 64.0
231.340363 44.0
231.764359 176.0
232.025009 208.0
232.106873 168.0
232.14325 660.0
232.168915 1156.0
232.300964 68.0
232.373779 92.0
232.419281 188.0
232.819977 172.0
232.865524 52.0
233.117676 148.0
233.171295 128.0
233.202774 64.0
233.263565 156.0
233.439896 88.0
233.942749 148.0
234.113953 152.0
234.190689 108.0
234.761505 176.0
234.914001 32.0
234.935349 56.0
234.984161 176.0
235.075623 148.0
235.133926 1856.0
235.677231 144.0
235.832535 88.0
235.9095 204.0
236.138687 264.0
236.173965 136.0
236.255051 32.0
236.304001 120.0
236.698837 44.0
236.900986 92.0
237.112396 228.0
237.173691 164.0
237.833145 120.0
237.99585 60.0
238.094116 76.0
238.14325 180.0
238.170898 184.0
238.229263 108.0
238.548843 108.0
238.887817 224.0
239.133255 168.0
239.379532 160.0
239.8694 112.0
240.101898 136.0
240.140732 208.0
240.190079 104.0
240.520233 108.0
240.551102 68.0
240.683853 172.0
241.249237 100.0
241.345078 212.0
241.852417 120.0
241.908127 60.0
242.117889 128.0
242.162506 172.0
242.248764 68.0
242.301422 176.0
242.437759 168.0
243.113785 108.0
243.140259 128.0
243.16655 164.0
243.200684 188.0
243.272079 108.0
243.296921 152.0
243.414902 92.0
243.604355 136.0
243.852921 200.0
244.061203 56.0
244.132629 152.0
244.144653 148.0
244.150497 128.0
244.453125 84.0
244.960602 136.0
244.985535 44.0
245.097687 160.0
245.138199 140.0
245.160004 172.0
245.325195 92.0
245.4655 168.0
245.964661 136.0
246.10083 156.0
246.142883 188.0
246.492462 56.0
246.689362 60.0
247.134644 268.0
247.380676 100.0
247.449554 136.0
247.690689 216.0
248.136169 124.0
248.163589 172.0
248.264221 152.0
248.471237 124.0
248.521439 96.0
248.687759 148.0
248.766235 208.0
248.885529 132.0
249.102692 160.0
249.148834 5908.0
249.202759 140.0
249.262451 48.0
249.359879 64.0
249.419586 100.0
249.446167 92.0
249.617661 40.0
249.957901 120.0
250.153961 1152.0
250.181427 628.0
250.204102 184.0
250.300476 36.0
250.432739 44.0
250.498886 56.0
250.599686 136.0
250.842346 148.0
251.059906 136.0
251.156601 288.0
251.517365 92.0
251.72258 28.0
251.779419 168.0
251.801529 156.0
251.893127 80.0
251.93103 116.0
252.130081 64.0
252.802505 220.0
253.174057 176.0
253.300735 164.0
254.110352 144.0
254.950562 144.0
255.093582 164.0
255.131729 144.0
255.691544 196.0
256.089508 120.0
256.132477 156.0
256.599121 104.0
257.137787 80.0
257.40979 104.0
258.048828 160.0
258.109283 172.0
258.146973 476.0
258.288666 48.0
258.39743 132.0
258.698242 152.0
258.84552 236.0
259.12738 104.0
259.156128 140.0
259.752502 200.0
260.124054 156.0
260.164337 1648.0
260.269196 184.0
260.362305 112.0
260.522919 108.0
260.860321 112.0
260.921387 172.0
261.160004 240.0
261.278381 120.0
261.371674 44.0
261.854553 156.0
261.912537 204.0
262.109039 120.0
262.145386 208.0
262.757111 104.0
262.970062 84.0
263.137939 132.0
263.948914 104.0
264.000641 156.0
264.159119 124.0
264.651031 68.0
266.366577 152.0
267.091431 168.0
267.153259 88.0
267.215057 140.0
267.426575 104.0
267.80426 92.0
268.124725 144.0
268.831207 148.0
269.298035 128.0
269.598602 88.0
269.87973 200.0
269.922211 104.0
270.082458 52.0
270.145538 140.0
270.514404 100.0
270.550415 108.0
272.12323 168.0
272.161072 188.0
272.189697 196.0
272.399902 64.0
272.439331 120.0
272.666046 128.0
273.169098 256.0
273.491547 112.0
273.600189 164.0
273.649567 76.0
273.833954 212.0
274.14035 128.0
274.493042 96.0
274.5755 120.0
274.684326 104.0
275.110016 164.0
275.136444 176.0
275.2883 124.0
275.559174 104.0
275.700958 160.0
276.12439 172.0
276.155365 388.0
276.524719 160.0
276.597534 188.0
276.624359 196.0
276.733276 108.0
276.917175 172.0
277.157227 104.0
277.263245 100.0
277.296387 300.0
277.37262 172.0
277.432312 52.0
277.721222 236.0
277.81366 136.0
277.84021 124.0
277.917542 168.0
278.041382 152.0
278.088165 172.0
278.125946 148.0
278.17511 33676.0
278.259552 144.0
278.271118 52.0
278.282806 120.0
278.334717 76.0
278.440979 52.0
278.53067 68.0
278.577179 76.0
278.63031 184.0
278.735382 232.0
278.759888 60.0
278.827179 108.0
278.847504 108.0
278.892609 188.0
278.982574 80.0
279.065704 76.0
279.109283 144.0
279.137848 148.0
279.178528 6152.0
279.253235 172.0
279.378326 52.0
279.424896 220.0
279.46814 72.0
279.500092 60.0
279.522705 60.0
279.554657 48.0
279.601227 44.0
279.657806 120.0
279.691101 200.0
279.797302 80.0
279.928253 68.0
280.022552 124.0
280.059906 52.0
280.184143 400.0
280.293884 112.0
280.406219 136.0
280.437195 200.0
280.583862 68.0
280.610535 112.0
280.717224 84.0
280.767242 188.0
280.84729 36.0
280.925079 88.0
280.947357 136.0
280.980713 80.0
281.040771 32.0
281.097504 304.0
281.160889 164.0
281.191589 60.0
281.354492 112.0
281.421265 124.0
281.481354 48.0
281.845459 88.0
282.042633 36.0
282.162964 60.0
282.186371 232.0
282.353546 52.0
282.607788 124.0
282.704834 96.0
283.55545 120.0
283.977875 120.0
284.122101 148.0
284.645691 64.0
284.850555 92.0
284.98056 112.0
285.139526 156.0
285.196655 136.0
285.351288 112.0
285.795258 76.0
286.104889 180.0
286.172699 192.0
287.107544 164.0
288.077637 52.0
288.116852 288.0
288.164276 136.0
288.442596 72.0
288.479767 44.0
289.054718 156.0
289.15625 212.0
289.257782 120.0
289.484619 36.0
289.999573 184.0
290.140167 232.0
290.168091 156.0
290.484436 192.0
291.129303 80.0
291.89386 128.0
292.15744 232.0
292.186371 168.0
292.41095 120.0
292.434784 104.0
293.160156 196.0
293.739746 80.0
293.831879 88.0
293.964935 96.0
294.074127 188.0
294.234589 92.0
294.808411 76.0
296.04715 168.0
296.224854 212.0
296.307068 108.0
296.735474 92.0
296.930908 184.0
298.143066 184.0
298.218384 76.0
298.517487 136.0
299.147095 108.0
299.842865 176.0
300.127014 404.0
300.150757 228.0
300.187592 148.0
300.577362 108.0
300.932892 56.0
301.114166 132.0
301.140076 148.0
301.879639 160.0
302.12973 116.0
302.176697 172.0
302.222076 124.0
303.147583 184.0
303.444672 104.0
303.47934 108.0
304.150909 548.0
304.923401 44.0
305.159882 132.0
306.022614 56.0
306.235046 40.0
307.476196 116.0
308.041809 68.0
308.160614 52.0
308.475128 40.0
309.657776 76.0
310.425232 56.0
310.726868 176.0
311.162048 148.0
311.55188 48.0
311.790802 48.0
312.162842 116.0
313.353119 36.0
313.377777 64.0
313.652649 32.0
313.80072 180.0
313.82724 84.0
313.941742 192.0
314.120728 140.0
314.171021 160.0
314.774536 228.0
315.145416 68.0
315.180756 72.0
315.562469 128.0
316.152161 636.0
316.227509 48.0
316.262878 60.0
316.291199 108.0
317.162476 196.0
317.24408 152.0
317.297241 96.0
317.583282 84.0
317.662506 104.0
318.161102 112.0
318.194824 136.0
318.301331 112.0
318.326202 116.0
318.624542 164.0
318.827087 248.0
318.919495 100.0
319.168335 188.0
319.623627 96.0
320.160767 120.0
320.403351 64.0
321.073456 132.0
322.555145 60.0
322.673126 56.0
323.23465 132.0
323.538879 132.0
324.147736 156.0
324.253113 20.0
324.334106 156.0
325.162598 140.0
325.234375 104.0
325.460541 176.0
326.017334 168.0
326.527802 76.0
326.87677 104.0
327.207886 84.0
328.032837 128.0
328.180664 184.0
329.024902 176.0
329.667816 108.0
329.859344 80.0
330.168976 768.0
330.28241 132.0
330.398163 156.0
331.176758 168.0
331.357544 124.0
331.814209 156.0
332.180756 188.0
332.231262 40.0
334.393219 68.0
334.462372 108.0
335.329224 92.0
335.376617 136.0
336.157043 148.0
337.115448 96.0
337.929169 80.0
338.588074 60.0
339.224792 148.0
339.489563 180.0
339.603271 32.0
339.849396 212.0
340.205017 116.0
341.899445 196.0
342.739014 132.0
343.970795 104.0
344.177521 228.0
344.204956 196.0
344.598572 116.0
345.196564 184.0
345.463654 128.0
345.489563 148.0
345.730072 172.0
346.033569 40.0
346.175629 132.0
346.300201 160.0
346.788696 136.0
348.169373 120.0
350.226074 140.0
350.304291 84.0
351.046783 92.0
351.251099 140.0
352.217865 108.0
352.539154 108.0
352.778351 140.0
354.335144 92.0
354.432556 160.0
354.593719 104.0
355.024841 156.0
356.18454 132.0
356.421234 108.0
356.954987 148.0
357.096649 104.0
357.190247 80.0
357.349915 128.0
357.406372 104.0
357.824127 76.0
358.19696 124.0
358.607635 76.0
358.645325 56.0
359.018585 160.0
359.052521 188.0
360.169586 136.0
360.755371 172.0
360.849884 236.0
361.171326 196.0
361.231842 120.0
362.162994 108.0
362.238739 176.0
362.499786 156.0
362.761688 40.0
363.235657 128.0
364.18457 120.0
364.226349 128.0
364.59491 168.0
364.693726 116.0
365.52655 240.0
366.211792 152.0
366.367981 212.0
366.562286 188.0
367.641449 104.0
367.801758 128.0
368.231323 204.0
368.294312 64.0
368.617859 208.0
369.345428 200.0
369.44104 184.0
369.61322 48.0
370.248657 116.0
370.654724 36.0
371.041809 88.0
371.943298 176.0
372.288818 84.0
372.46933 160.0
372.926575 200.0
374.197174 120.0
374.419312 120.0
374.597717 100.0
374.727783 236.0
375.213074 132.0
375.668121 104.0
375.779999 148.0
376.17749 164.0
376.984711 188.0
377.22818 116.0
377.688324 100.0
377.877869 136.0
378.240662 140.0
378.725647 140.0
378.899963 96.0
379.243225 156.0
379.361115 40.0
379.399872 116.0
379.644165 72.0
379.818665 140.0
379.997131 88.0
380.097992 104.0
380.187256 112.0
380.259247 136.0
380.983215 36.0
381.441742 104.0
381.678894 108.0
381.974457 164.0
382.271851 128.0
383.002075 212.0
383.122833 116.0
383.243591 156.0
384.604584 68.0
384.651428 56.0
385.97583 208.0
386.190918 192.0
386.288696 108.0
386.464752 152.0
386.867859 112.0
388.211731 96.0
388.486267 152.0
389.781891 76.0
390.233887 128.0
390.366425 204.0
391.071777 160.0
391.229218 140.0
391.31189 96.0
392.166718 136.0
392.258728 364.0
393.042175 80.0
393.219757 120.0
393.251221 132.0
393.421051 100.0
393.4487 160.0
393.551331 160.0
393.752747 140.0
393.926514 132.0
393.95813 116.0
394.041077 116.0
394.212463 192.0
394.271576 296.0
394.752533 64.0
395.132263 108.0
395.646729 40.0
396.141724 64.0
396.490387 116.0
397.862793 108.0
397.906464 72.0
398.232086 112.0
398.510132 136.0
398.736633 172.0
398.804199 52.0
398.947296 84.0
399.086456 104.0
399.273346 168.0
399.305145 68.0
399.953674 104.0
400.833801 80.0
401.18454 124.0
401.675018 124.0
402.992401 68.0
404.496063 172.0
404.804352 76.0
404.840393 36.0
405.156799 148.0
405.285034 168.0
406.233124 172.0
406.351501 72.0
406.780914 232.0
407.102112 60.0
407.218567 124.0
407.592163 128.0
408.150879 120.0
408.255432 184.0
408.412262 132.0
409.225159 140.0
409.253326 104.0
410.026764 144.0
410.23941 304.0
410.270172 296.0
410.321014 132.0
410.675842 228.0
411.018768 132.0
411.19632 228.0
411.250549 100.0
411.624237 168.0
411.729218 148.0
412.206299 344.0
412.283966 760.0
412.972168 184.0
413.206879 232.0
413.257172 132.0
413.286438 168.0
413.605194 100.0
413.868347 124.0
414.155853 116.0
415.351562 172.0
415.400238 108.0
416.40686 52.0
416.821198 104.0
417.044708 184.0
417.19104 152.0
417.589539 168.0
418.216095 48.0
418.338226 80.0
419.641876 56.0
420.199066 144.0
420.249237 296.0
420.596436 112.0
421.037384 140.0
421.259399 288.0
422.18573 124.0
422.25116 160.0
422.746155 108.0
422.856659 156.0
422.92215 48.0
423.413452 128.0
423.691986 52.0
424.235962 236.0
424.68396 52.0
424.954712 72.0
425.044983 72.0
425.255219 272.0
425.412476 44.0
425.459503 44.0
425.627838 96.0
425.689423 72.0
426.231934 372.0
426.515198 56.0
427.11142 144.0
427.236481 896.0
427.354126 52.0
428.082672 120.0
428.234833 244.0
428.280518 312.0
428.663483 92.0
429.133392 140.0
429.23645 120.0
429.294708 156.0
429.867584 220.0
430.445465 40.0
430.85437 108.0
431.457733 64.0
433.125366 164.0
433.361511 72.0
433.614288 112.0
434.016388 180.0
434.066132 108.0
434.256897 160.0
434.899994 152.0
435.626648 84.0
436.241516 236.0
436.528534 112.0
436.565948 60.0
437.065094 88.0
437.246155 196.0
437.302307 152.0
438.130951 192.0
438.260742 1872.0
438.710205 32.0
438.760223 184.0
438.964508 116.0
439.265381 272.0
439.339905 60.0
439.682037 64.0
440.252899 160.0
440.909851 64.0
441.219147 120.0
441.25235 200.0
441.422028 92.0
441.608032 92.0
441.666595 132.0
441.771149 124.0
442.256531 184.0
442.524445 76.0
442.679382 148.0
443.475372 136.0
444.779785 144.0
445.061066 60.0
445.292023 160.0
446.300568 72.0
446.801056 132.0
447.082947 48.0
447.844971 72.0
447.941864 120.0
448.544434 72.0
449.704346 44.0
449.843628 116.0
450.215179 96.0
450.540405 76.0
450.717834 72.0
450.98407 140.0
451.161621 180.0
451.542175 164.0
451.630981 128.0
452.142914 88.0
452.25296 60.0
452.439209 164.0
452.498474 64.0
452.612793 132.0
452.909241 128.0
453.345612 76.0
453.434601 104.0
453.684692 128.0
453.735565 76.0
453.803375 28.0
453.858521 84.0
453.932922 104.0
454.028137 156.0
454.129913 28.0
454.262817 1368.0
454.314911 52.0
454.5047 148.0
454.609314 132.0
454.723877 176.0
454.893677 92.0
454.940369 148.0
455.059235 88.0
455.105011 92.0
455.148407 100.0
455.203583 92.0
455.263184 308.0
455.379242 164.0
455.423431 120.0
455.467834 92.0
455.588074 176.0
455.630585 204.0
455.796509 176.0
455.874756 256.0
455.931061 160.0
455.986572 180.0
456.03595 164.0
456.078766 128.0
456.151031 316.0
456.274933 68364.0
456.356384 184.0
456.459259 112.0
456.544495 120.0
456.580444 72.0
456.617065 124.0
456.646606 36.0
456.711121 132.0
456.757202 212.0
456.81012 88.0
456.919678 196.0
456.949829 120.0
457.012054 80.0
457.049438 80.0
457.085602 160.0
457.131836 84.0
457.179382 260.0
457.216095 324.0
457.27713 17124.0
457.392212 172.0
457.450287 128.0
457.489624 76.0
457.567596 40.0
457.597412 56.0
457.635742 48.0
457.679901 32.0
457.715454 112.0
457.81311 200.0
457.911743 44.0
458.006226 120.0
458.05246 68.0
458.087463 56.0
458.159576 80.0
458.206421 92.0
458.277679 3524.0
458.432251 28.0
458.468719 40.0
458.535706 72.0
458.577148 44.0
458.621918 64.0
458.687653 52.0
458.695801 48.0
458.743378 88.0
458.816772 132.0
458.965088 56.0
459.03067 52.0
459.216675 72.0
459.276855 460.0
459.35318 60.0
459.443634 96.0
459.511353 196.0
459.563904 80.0
459.617676 60.0
459.650208 128.0
459.73999 124.0
459.801971 84.0
459.892822 152.0
459.951935 136.0
459.977814 72.0
460.079742 144.0
460.149353 120.0
460.244263 100.0
460.32077 56.0
460.415924 52.0
460.545532 140.0
460.638031 104.0
460.796082 120.0
460.855896 160.0
460.898621 32.0
460.958435 40.0
461.009735 60.0
461.049591 184.0
461.164459 140.0
461.242218 40.0
461.334564 76.0
461.424316 44.0
461.548309 52.0
461.603912 44.0
461.765472 72.0
461.851959 92.0
461.958893 48.0
462.262665 144.0
462.682098 136.0
462.866211 48.0
462.947571 112.0
463.435883 60.0
463.808716 60.0
465.292938 104.0
465.41745 40.0
466.06604 80.0
466.293793 96.0
466.637665 124.0
467.209656 84.0
467.614105 48.0
467.700195 44.0
468.794098 180.0
468.996674 88.0
469.630463 68.0
470.48053 96.0
470.920959 36.0
470.981445 36.0
473.433655 72.0
473.845154 100.0
474.235138 60.0
474.833435 160.0
475.623077 80.0
476.22226 84.0
477.652283 56.0
478.51828 64.0
478.836151 92.0
479.733734 124.0
480.571045 68.0
481.077301 76.0
481.553253 80.0
486.031555 48.0
491.747955 44.0
493.457458 68.0
493.727173 108.0
495.47113 72.0
497.844086 72.0
507.724457 76.0
513.142761 92.0
514.374329 68.0
514.776123 60.0
520.831238 116.0
524.685547 108.0
525.981079 92.0
527.995911 56.0
528.727905 76.0
537.357361 68.0
538.682251 76.0
542.365479 32.0
548.361206 80.0
548.435791 68.0
556.256531 100.0
563.735657 92.0
566.531921 84.0
569.012146 80.0
573.884033 52.0
577.322021 140.0
581.230835 92.0
581.677124 104.0
587.335754 44.0
590.450989 104.0
595.535034 84.0
601.416687 108.0
604.402588 80.0
606.964294 72.0
619.338989 56.0
625.033203 56.0
627.189575 28.0
627.728027 100.0
635.174866 36.0
642.766541 60.0
652.130188 52.0
652.333496 60.0
668.418396 164.0
672.20575 72.0
674.028503 72.0
675.604492 116.0
677.054688 88.0
680.757324 52.0
691.705994 108.0
693.670288 60.0
715.711731 56.0
717.992432 108.0
720.757568 96.0
725.687073 120.0
729.187012 96.0
733.212585 108.0
734.765503 136.0
737.487061 52.0
739.742615 60.0
746.046021 64.0
749.327637 72.0
766.080566 68.0
797.026184 180.0
804.324829 68.0
809.163757 76.0
812.359985 60.0
813.619751 20.0
822.462158 88.0
823.853333 52.0
826.712158 112.0
828.355286 44.0
831.01532 76.0
832.955688 44.0
840.232056 88.0
842.269775 96.0
882.460388 64.0
889.783142 52.0
899.868469 128.0
909.218323 44.0
911.301941 116.0
918.513916 188.0
919.504639 80.0
924.107971 84.0
926.420593 40.0
937.417603 152.0
946.868164 116.0
948.277283 76.0
957.739136 132.0
958.170349 188.0
960.623901 132.0
971.815247 64.0
978.322144 264.0
982.909241 208.0
983.739319 196.0
985.462952 172.0
994.875793 56.0
996.584045 236.0
1000.168579 164.0
1006.40332 188.0
1010.657043 128.0
1016.391296 164.0
1017.080872 60.0
1020.195557 148.0
1020.341736 140.0
1023.803162 80.0
1028.265747 164.0
1031.523193 152.0
1038.778198 96.0
1043.164062 40.0
1052.324951 204.0
1052.815674 184.0
1055.05127 172.0
1057.133911 216.0
1058.00769 136.0
1058.985352 212.0
1060.352417 160.0
1062.096558 88.0
1067.756714 20.0
1069.256348 220.0
1075.891846 196.0
1077.112915 68.0
1080.626343 196.0
1085.201538 68.0
1086.895508 128.0
1087.182373 144.0
1089.960083 144.0
1091.392944 204.0
1091.695435 224.0
1092.603149 104.0
1093.544067 136.0
1095.493042 72.0
1096.969116 104.0
1099.495239 148.0
1100.5448 44.0
1105.806763 220.0
1111.213989 132.0
1116.754028 72.0
1118.696899 160.0
1119.029785 176.0
1120.974731 188.0
1123.368286 208.0
1126.532349 252.0
1128.905029 60.0
1130.082275 196.0
1131.969849 120.0
1135.26001 192.0
1140.321899 80.0
1140.718506 172.0
1152.856934 180.0
1164.292114 248.0
1166.37793 148.0
1167.010132 56.0
1168.880615 228.0
1170.187378 124.0
1170.929688 116.0
1171.052246 164.0
1173.566772 60.0
1176.807617 140.0
1181.728516 148.0
1183.460083 196.0
1184.829834 192.0
1185.015625 176.0
1187.606079 136.0
1187.818726 108.0
1190.557129 168.0
1192.900024 212.0
1193.683838 232.0
1196.669189 172.0
1199.522095 192.0
1199.75647 272.0
1202.108398 104.0
1202.348145 236.0
1203.923828 204.0
1204.200073 60.0
1204.483276 148.0
1204.780273 228.0
1204.883911 48.0
1205.208618 216.0
1205.630127 228.0
1205.768433 200.0
1207.227051 140.0
1207.275513 112.0
1207.863403 200.0
1209.773193 204.0
1218.761353 200.0
1221.340454 140.0
1223.31665 76.0
1225.928467 156.0
1230.511108 196.0
1232.67627 264.0
1232.72522 132.0
1234.207031 168.0
1235.563843 68.0
1235.864746 144.0
1240.879517 140.0
1241.159912 116.0
1241.545654 176.0
1244.029419 160.0
1247.197266 152.0
1252.974609 156.0
1256.774658 152.0
1258.33374 176.0
1258.814575 112.0
1259.421997 160.0
1262.680176 144.0
1263.663452 176.0
1264.951416 100.0
1271.649536 148.0
1273.332153 160.0
1276.444702 60.0
1276.793091 168.0
1276.842896 176.0
1278.464966 152.0
1278.514771 92.0
1279.069824 160.0
1280.17334 160.0
1282.788208 200.0
1286.133545 68.0
1287.011597 52.0
1289.483276 192.0
1289.733398 144.0
1290.419678 168.0
1291.234863 128.0
1293.474243 196.0
1294.061279 164.0
1294.483765 204.0
1295.328857 252.0
1296.116943 124.0
1296.47522 104.0
1297.105957 152.0
1297.414185 48.0
1297.786987 200.0
1301.137451 100.0
1301.281006 84.0
1301.826782 132.0
1302.365356 192.0
1306.606445 168.0
1306.973389 32.0
1311.020264 176.0
1311.935547 196.0
1313.284058 152.0
1313.810547 84.0
1313.997437 216.0
1315.621948 144.0
1315.766235 164.0
1316.68335 160.0
1317.06604 124.0
1318.662842 160.0
1319.293945 176.0
1320.137573 136.0
1320.846436 140.0
1322.539551 132.0
1323.466187 64.0
1324.132324 140.0
1326.813354 220.0
1327.415161 156.0
1327.647217 124.0
1334.025635 40.0
1335.563477 124.0
1335.992676 148.0
1337.236938 116.0
1337.571777 148.0
1338.066772 148.0
1338.29248 168.0
1346.196533 220.0
1350.822998 252.0
1356.0802 240.0
1356.13147 152.0
1359.248169 184.0
1360.312378 64.0
1360.517944 120.0
1361.428345 56.0
1362.089355 120.0
1363.661743 152.0
1367.30957 228.0
1367.581909 116.0
1367.773193 256.0
1368.170776 60.0
1368.597778 132.0
1368.686157 176.0
1368.906982 188.0
1371.573975 176.0
1372.421753 216.0
1374.30249 204.0
1381.091431 140.0
1381.527954 244.0
1381.64624 168.0
1388.81665 84.0
1390.307983 224.0
1391.480713 248.0
1392.022705 200.0
1392.275146 168.0
1392.668823 180.0
1392.720825 72.0
1393.188843 112.0
1395.35144 160.0
1395.455444 148.0
1398.497925 148.0
1399.115723 76.0
1400.992432 116.0
1401.432007 160.0
1401.715088 112.0
1402.206909 140.0
1403.220703 184.0
1405.057373 236.0
1405.182129 80.0
1405.659668 144.0
1407.092773 200.0
1407.443604 192.0
1408.01123 148.0
1408.10083 108.0
1411.433716 84.0
1411.949585 208.0
1412.353516 56.0
1412.488159 196.0
1413.56543 176.0
1413.745117 168.0
1415.68396 88.0
1416.582642 180.0
1418.800781 176.0
1419.352295 128.0
1419.408081 116.0
1420.060547 52.0
1420.435547 184.0
1420.78064 144.0
1422.048706 124.0
1425.841431 168.0
1429.737061 128.0
1429.834839 144.0
1430.625122 108.0
1432.266724 144.0
1435.371704 32.0
1436.72168 140.0
1437.227173 156.0
1438.540405 268.0
1440.435669 140.0
1441.085327 124.0
1442.982422 164.0
1444.457031 196.0
1446.030762 172.0
1446.227539 212.0
1447.522217 200.0
1447.74939 60.0
1448.029541 152.0
1448.196167 116.0
1449.256714 152.0
1450.810303 172.0
1451.924927 216.0
1452.721313 220.0
1452.789673 48.0
1454.868896 176.0
1455.165039 168.0
1455.878784 68.0
1458.553101 72.0
1459.389282 200.0
1459.54895 148.0
1460.515015 172.0
1461.869019 192.0
1462.805176 68.0
1466.407837 148.0
1467.10144 228.0
1467.368286 172.0
1469.717407 140.0
1470.030273 172.0
1471.709473 104.0
1472.832153 176.0
1473.786987 156.0
1475.009766 208.0
1476.118286 128.0
1479.997681 168.0
1480.281006 180.0
1481.981445 140.0
1486.643555 204.0
1487.096313 100.0
1488.048096 124.0
1489.123169 208.0
1491.251343 228.0
1491.305176 164.0
1492.119995 204.0
1492.227661 144.0
1493.265747 144.0
1493.565674 184.0
1493.773315 176.0
1493.842651 132.0
1495.5354 112.0
1496.297485 80.0
1496.359009 132.0
1498.423096 160.0
1498.623413 128.0
1499.902588 32.0
1503.026001 156.0
1503.195801 96.0
