>compound AMOXAPINE
>formula C17H16ClN3O 
>ionization [M+H]+
>parentmass 314.107025
#inchi InChI=1S/C17H16ClN3O/c18-12-5-6-15-13(11-12)17(21-9-7-19-8-10-21)20-14-3-1-2-4-16(14)22-15/h1-6,11,19H,7-10H2
#inchikey QWGDMFLQWFTERH
#Ion_Source LC-ESI
#Instrument qTof
#Compound_Source Commercial
#PI Dorrestein
#Data_Collector Garg_Neha
#Scan -1
#Precursor_MZ 314.108
#ExactMass 313.098
#Charge 1
#CAS_Number N/A
#Pubmed_ID N/A
#Smiles N/A
#INCHI_AUX N/A
#Library_Class 1
#SpectrumID CCMSLIB00000077043
#IonMode Positive
#UpdateWorkflowName UPDATE-SINGLE-ANNOTATED-GOLD
#LibraryQualityString Gold
#TaskID 48f7f52fc6d249b5abbcc6e7b3df5969
##Scan# 1135
#SpectrumFile NCP003017_C2_D11_BA7_01_15702.mzXML
#LibraryName NIH_Clinical_Collection_2.mgf
#MQScore -1
#Organism NIHcollection2_04212014_2_mgf
#TIC_Query 0
#RT_Query -1
#MZErrorPPM -1
#SharedPeaks 0
#MassDiff 0
#LibMZ -1
#SpecMZ 314.108
#SpecCharge 0
#internalFilename spec-00000.mgf

>collision 10
46.747524 192.0
47.759968 140.0
48.228779 196.0
48.24675 176.0
48.344955 168.0
49.266827 152.0
50.549149 164.0
50.869465 216.0
51.338997 188.0
53.041382 160.0
53.26775 196.0
53.986309 160.0
54.641983 200.0
54.761219 160.0
54.997131 232.0
55.048801 148.0
56.560875 180.0
56.803627 140.0
56.865147 144.0
57.658863 244.0
57.955463 168.0
58.784191 144.0
59.978958 156.0
60.988178 144.0
61.0597 164.0
61.639626 168.0
62.296104 224.0
63.498898 180.0
63.541725 156.0
64.356636 176.0
64.535591 164.0
65.321434 160.0
65.353607 148.0
65.863045 208.0
67.233383 148.0
68.64257 152.0
68.880234 180.0
69.110031 240.0
70.076363 196.0
70.291458 164.0
70.386604 176.0
71.990311 184.0
72.196487 240.0
72.526634 164.0
74.154404 172.0
74.832947 196.0
74.965584 140.0
75.658203 152.0
76.161095 188.0
76.244492 172.0
76.674355 176.0
77.604332 144.0
78.19809 148.0
79.107132 148.0
79.326797 172.0
79.493515 152.0
79.834595 160.0
80.000069 196.0
80.044579 156.0
80.31369 180.0
81.347969 168.0
81.475471 260.0
81.734375 172.0
82.421379 160.0
82.618454 144.0
83.336411 176.0
83.372757 184.0
83.800377 196.0
84.909325 296.0
85.707794 148.0
86.324333 164.0
86.663071 140.0
86.985764 160.0
88.007858 196.0
88.647583 168.0
89.90757 144.0
90.444336 148.0
91.718887 208.0
91.74939 192.0
92.138718 176.0
93.055122 188.0
93.082993 284.0
93.180954 164.0
93.542496 156.0
93.557899 200.0
93.804482 152.0
94.524879 168.0
96.10463 140.0
96.786797 140.0
97.561325 156.0
97.654198 164.0
97.768311 164.0
97.782089 232.0
97.880516 176.0
97.936066 176.0
98.454369 176.0
98.503746 156.0
101.018433 176.0
101.412903 164.0
101.613434 140.0
101.976898 152.0
102.492081 216.0
103.493942 152.0
103.694489 148.0
103.850609 160.0
104.049423 160.0
105.990189 224.0
106.067039 172.0
106.471237 188.0
107.327293 156.0
108.043983 148.0
108.095703 184.0
109.83049 180.0
110.268951 160.0
110.340027 148.0
110.716667 148.0
110.792076 156.0
111.163193 156.0
111.471878 180.0
111.74733 144.0
111.814667 140.0
112.535599 160.0
113.566193 200.0
113.676514 188.0
114.894966 152.0
115.025879 164.0
115.143311 148.0
115.613647 220.0
116.441185 172.0
117.086388 200.0
117.524315 132.0
118.066002 384.0
118.507774 164.0
119.072594 596.0
119.447403 152.0
119.619713 184.0
119.634949 140.0
120.042389 172.0
120.07946 140.0
120.80246 152.0
120.929367 192.0
125.284004 184.0
125.324112 160.0
125.694252 180.0
126.304161 148.0
126.339951 160.0
126.615273 172.0
127.011986 160.0
128.855698 180.0
130.876602 148.0
131.072495 172.0
132.0793 156.0
132.615082 144.0
132.759521 148.0
133.050018 200.0
135.062683 220.0
135.106644 196.0
135.44693 140.0
135.678665 156.0
135.79924 208.0
135.887619 212.0
136.158981 164.0
136.305344 180.0
136.493622 168.0
137.035614 156.0
137.05925 200.0
137.565353 152.0
139.654968 136.0
139.84845 204.0
139.902588 168.0
139.940262 176.0
140.34552 168.0
141.714844 192.0
141.891815 180.0
141.955826 140.0
141.993774 148.0
144.071793 180.0
144.131531 144.0
144.148254 184.0
144.533234 192.0
144.724716 212.0
144.760635 156.0
145.090134 152.0
146.179352 184.0
146.415268 180.0
146.972122 148.0
147.365677 224.0
148.666 172.0
149.012589 184.0
149.433838 180.0
150.291489 156.0
150.596649 400.0
151.009369 144.0
151.423325 172.0
151.874313 152.0
152.069031 220.0
152.463547 208.0
154.010803 140.0
154.185394 156.0
157.053909 180.0
157.21109 156.0
157.780579 156.0
158.015671 140.0
158.098251 156.0
158.478867 188.0
159.033081 172.0
159.050644 148.0
159.407272 156.0
159.661179 164.0
162.46492 176.0
163.013351 172.0
163.033676 172.0
163.725647 288.0
164.023972 272.0
164.049362 720.0
164.100235 180.0
164.327225 156.0
165.056137 412.0
165.472229 244.0
166.059052 156.0
166.156982 200.0
166.942749 128.0
167.073975 108.0
168.060959 260.0
168.140442 164.0
168.835403 232.0
169.443695 184.0
169.733978 180.0
170.367264 296.0
171.30899 240.0
172.188004 160.0
173.016907 148.0
173.077118 160.0
175.605209 152.0
176.006332 148.0
177.144806 192.0
177.997589 160.0
178.06929 156.0
178.598206 164.0
179.042679 148.0
179.069321 152.0
179.319763 140.0
179.599716 204.0
180.05307 168.0
180.080353 288.0
181.089218 188.0
181.509232 224.0
181.565414 168.0
182.08165 152.0
183.733551 192.0
183.812195 120.0
183.968338 156.0
183.998047 184.0
184.630325 248.0
184.706802 200.0
184.919815 188.0
185.068787 140.0
185.735382 160.0
186.131607 160.0
186.452164 200.0
186.748505 168.0
187.919891 156.0
189.023773 164.0
189.450897 208.0
190.062286 148.0
190.28186 208.0
190.405426 140.0
190.562012 192.0
190.71315 148.0
191.244003 236.0
191.26326 148.0
191.971329 140.0
192.043488 532.0
192.084412 164.0
192.426605 168.0
192.6586 160.0
192.767731 144.0
193.024017 148.0
193.052399 11652.0
193.131287 160.0
194.025726 292.0
194.055893 1756.0
194.095032 200.0
194.441803 188.0
194.488983 148.0
195.030609 164.0
195.057632 456.0
195.091064 204.0
195.172394 172.0
195.562698 120.0
195.586914 152.0
196.040146 196.0
196.152374 204.0
196.542816 156.0
196.998032 164.0
197.461899 148.0
197.649323 148.0
197.733276 260.0
197.811661 212.0
198.706863 132.0
199.520081 156.0
199.750687 140.0
200.027786 852.0
201.029297 264.0
201.258453 156.0
202.019791 416.0
202.046997 152.0
203.02977 204.0
204.020874 184.0
204.581268 140.0
204.723633 140.0
205.049484 120.0
205.075851 444.0
206.056015 144.0
206.08815 404.0
207.089981 544.0
208.097092 1024.0
208.531555 172.0
209.082001 676.0
209.105484 176.0
209.129807 160.0
210.032333 208.0
210.05809 260.0
210.083588 168.0
210.115326 156.0
210.764954 140.0
210.909454 140.0
211.803558 144.0
212.064331 184.0
212.275955 220.0
212.45578 180.0
213.030579 144.0
213.76326 172.0
213.841843 204.0
214.039917 144.0
214.710037 200.0
215.000671 116.0
216.043808 204.0
216.170456 228.0
216.773956 152.0
217.005508 144.0
217.03688 160.0
217.078827 148.0
217.706192 168.0
218.039871 348.0
218.084549 128.0
218.506317 196.0
219.027374 160.0
219.052582 144.0
219.095566 164.0
220.049637 212.0
220.082718 316.0
220.348984 184.0
220.582443 248.0
221.048645 564.0
221.073029 216.0
221.42868 184.0
222.038773 248.0
222.056458 224.0
222.083008 280.0
223.047974 248.0
224.970078 196.0
225.494568 196.0
226.04274 280.0
226.900314 172.0
227.896133 156.0
228.021454 13456.0
228.596741 156.0
229.025116 2388.0
229.60257 172.0
229.983078 220.0
230.01767 4768.0
230.511597 140.0
230.934845 140.0
231.024094 676.0
231.325089 144.0
231.634048 160.0
232.034866 316.0
232.437469 140.0
233.111481 304.0
234.0858 156.0
234.109375 140.0
234.566406 168.0
235.084167 1360.0
236.095627 912.0
236.157227 152.0
236.348145 148.0
237.101852 148.0
237.707413 140.0
240.030563 176.0
240.696365 144.0
240.943466 156.0
241.029755 172.0
241.227768 152.0
241.651459 188.0
242.062134 380.0
242.351196 256.0
243.063736 748.0
243.791 192.0
243.989212 172.0
244.050995 972.0
244.967102 152.0
245.048004 8852.0
245.140015 160.0
245.983688 140.0
246.006943 168.0
246.049942 1320.0
246.161636 220.0
246.483383 168.0
247.042801 2544.0
247.710556 128.0
248.04985 400.0
248.142273 164.0
248.892166 144.0
249.652618 208.0
250.108643 148.0
250.26622 144.0
251.079224 200.0
251.963058 152.0
252.712357 196.0
253.051636 272.0
253.12384 164.0
253.171005 184.0
253.753265 136.0
254.032715 544.0
255.042526 304.0
255.596603 140.0
256.039673 264.0
256.880554 160.0
257.047638 396.0
257.196442 208.0
257.795746 124.0
258.040375 140.0
258.244476 140.0
258.385223 216.0
259.03772 156.0
259.37793 192.0
260.067566 148.0
260.094757 136.0
261.101532 576.0
262.105835 136.0
262.400513 144.0
263.582428 188.0
264.208374 204.0
264.716522 236.0
265.471588 232.0
265.87384 148.0
265.925781 148.0
266.276428 244.0
266.3349 172.0
266.445343 160.0
266.617065 132.0
267.054626 100.0
267.20285 156.0
267.339508 324.0
267.503418 212.0
267.720398 144.0
267.918488 152.0
268.068604 168.0
268.535156 160.0
268.835297 148.0
269.051422 644.0
269.084229 120.0
270.062286 276.0
270.243622 240.0
270.348358 148.0
270.381439 144.0
270.581787 112.0
270.74118 152.0
270.821747 228.0
270.873474 124.0
270.898407 160.0
270.927002 116.0
271.064148 105544.0
271.275787 172.0
271.306274 156.0
271.385559 144.0
271.451385 152.0
271.468964 96.0
271.516937 236.0
271.667694 196.0
271.795135 216.0
271.919098 104.0
272.06546 13416.0
272.161957 136.0
272.215515 132.0
272.622009 316.0
272.724243 140.0
272.919373 132.0
273.001343 124.0
273.061035 24708.0
273.16391 116.0
273.191132 200.0
273.233704 136.0
273.277618 128.0
273.470947 112.0
273.599731 152.0
273.726105 100.0
273.816803 144.0
273.919617 188.0
273.987061 172.0
274.019226 104.0
274.063385 2236.0
274.970978 152.0
275.376282 96.0
275.444031 104.0
275.82196 164.0
276.037628 196.0
276.46286 192.0
276.638275 140.0
277.340546 204.0
278.156525 152.0
278.808777 168.0
280.067078 152.0
280.78894 164.0
281.005219 260.0
281.039612 172.0
281.400909 228.0
281.859985 164.0
282.053467 472.0
282.148926 192.0
282.54538 148.0
283.057617 276.0
284.053589 364.0
285.059509 200.0
285.6922 164.0
286.086182 112.0
287.07608 156.0
288.050537 180.0
288.700623 108.0
290.54007 188.0
290.848877 156.0
294.522888 256.0
294.898743 160.0
294.997864 148.0
295.063904 176.0
295.69223 184.0
296.064484 136.0
297.079132 16068.0
297.130035 400.0
297.265228 196.0
297.756134 208.0
298.02063 144.0
298.08136 2480.0
298.983459 152.0
299.077484 4368.0
299.234344 164.0
300.078735 752.0
304.657593 156.0
305.954742 172.0
307.826721 188.0
310.350128 96.0
311.100769 204.0
311.4151 100.0
311.697845 164.0
311.807709 120.0
311.917786 144.0
311.930542 172.0
311.968475 172.0
312.017242 96.0
312.094116 236.0
312.184174 160.0
312.251923 196.0
312.328979 164.0
312.450409 104.0
312.569061 100.0
312.647308 140.0
312.710968 140.0
312.950958 140.0
313.002747 124.0
313.035858 160.0
313.097382 340.0
313.16095 140.0
313.216583 128.0
313.265686 300.0
313.29895 328.0
313.43866 128.0
313.479248 168.0
313.523895 180.0
313.564728 120.0
313.670898 156.0
313.780151 124.0
313.825653 132.0
313.871185 296.0
313.927673 336.0
313.978821 264.0
314.020599 572.0
314.107025 193672.0
314.21283 1104.0
314.377258 176.0
314.452393 296.0
314.52475 164.0
314.650726 196.0
314.687286 3324.0
314.722198 412.0
314.777496 276.0
314.821564 156.0
314.843292 108.0
314.956024 228.0
315.050201 132.0
315.10907 51080.0
315.215698 360.0
315.310516 116.0
315.36499 124.0
315.469269 160.0
315.523193 244.0
315.551575 148.0
315.593079 192.0
315.71286 192.0
315.834167 312.0
315.909241 212.0
315.982208 248.0
316.009705 392.0
316.049927 256.0
316.103729 77464.0
316.218292 224.0
316.257019 212.0
316.689117 276.0
316.732605 156.0
316.796082 220.0
316.916107 224.0
316.986481 340.0
317.015045 164.0
317.105713 9504.0
317.18335 144.0
317.239227 168.0
317.412231 108.0
317.5354 160.0
317.626404 116.0
317.655884 124.0
317.803436 132.0
317.967773 180.0
318.008575 132.0
318.176056 160.0
318.309998 232.0
318.377045 108.0
318.458832 140.0
319.040314 156.0
319.109772 132.0
319.260193 100.0
319.296082 176.0
319.407593 140.0
320.081818 128.0
320.603516 148.0
324.091217 100.0
326.769379 148.0
326.940247 160.0
328.694061 116.0
329.334595 104.0
341.232697 140.0
356.691162 140.0
582.949951 140.0
596.205872 144.0
630.887512 104.0
670.872131 256.0
835.014038 140.0
1603.994263 176.0
1671.431152 208.0
1820.545532 144.0
1832.81189 248.0
1834.4823 164.0
1854.86145 184.0
1908.387817 184.0
1914.104492 200.0
1921.670288 144.0
1929.63562 200.0
1978.915649 148.0
1988.374023 148.0
1991.303833 160.0
