>compound Tropicamide
>formula C17H20N2O2
>ionization [M+H]+
>parentmass 285.16153
#inchi InChI=1S/C17H20N2O2/c1-2-19(12-14-8-10-18-11-9-14)17(21)16(13-20)15-6-4-3-5-7-15/h3-11,16,20H,2,12-13H2,1H3
#inchikey BGDKAVGWHJFAGW
#Ion_Source LC-ESI
#Instrument qTof
#Compound_Source Commercial
#PI Dorrestein
#Data_Collector Garg_Neha
#Scan -1
#Precursor_MZ 285.16
#ExactMass 284.152
#Charge 1
#CAS_Number 1508-75-4
#Pubmed_ID N/A
#Smiles C1=CC=CC(=C1)C(CO)C(=O)N(CC)CC2=CC=NC=C2
#INCHI_AUX N/A
#Library_Class 1
#SpectrumID CCMSLIB00000078342
#IonMode Positive
#UpdateWorkflowName UPDATE-SINGLE-ANNOTATED-GOLD
#LibraryQualityString Gold
#TaskID 77f51c88eb8b467eb4a01dd2d0cb90d2
##Scan# 1034
#SpectrumFile Plate5_61_88_GH9_01_16511.mzXML
#LibraryName FDALibrary_2_04302014.mgf
#MQScore -1
#Organism FDALibrary_2_04302014
#TIC_Query 0
#RT_Query -1
#MZErrorPPM -1
#SharedPeaks 0
#MassDiff 0
#LibMZ -1
#SpecMZ 285.16
#SpecCharge 0
#internalFilename spec-00000.mgf

>collision 10
44.909683 148.0
45.008583 164.0
45.176838 176.0
45.232735 212.0
45.468937 144.0
45.553925 188.0
45.620716 192.0
45.761978 176.0
45.914246 152.0
46.060013 148.0
46.091084 192.0
46.280449 144.0
46.370487 180.0
46.417301 140.0
46.437645 140.0
46.582878 216.0
46.623642 176.0
46.652184 224.0
46.921738 168.0
47.159256 140.0
47.239933 384.0
47.312965 200.0
47.323414 180.0
47.535873 196.0
47.663574 144.0
47.685959 180.0
47.72543 224.0
47.90572 144.0
47.985649 148.0
48.069786 140.0
48.102913 184.0
48.156761 196.0
48.368313 160.0
48.440315 200.0
48.501431 148.0
48.809486 232.0
48.94585 160.0
49.640335 152.0
49.71777 160.0
49.730122 144.0
49.741348 160.0
49.765919 160.0
49.961975 232.0
50.053459 144.0
50.39687 232.0
50.524868 168.0
50.608372 204.0
50.745808 148.0
50.80537 184.0
50.972908 176.0
50.987118 180.0
51.004669 184.0
51.303108 224.0
51.331146 156.0
51.511452 240.0
51.542965 136.0
51.784649 188.0
51.884953 192.0
51.993965 196.0
52.082985 176.0
52.124645 176.0
52.43837 160.0
52.484501 200.0
52.571049 140.0
52.628788 168.0
52.805088 160.0
52.825336 164.0
52.907822 160.0
52.949814 308.0
53.203564 172.0
53.37355 148.0
53.670589 176.0
53.734764 200.0
53.869072 152.0
53.929958 156.0
53.946522 144.0
53.974812 172.0
54.127941 152.0
54.223526 192.0
54.312599 152.0
54.380093 144.0
54.43441 156.0
54.472599 148.0
54.582825 220.0
54.676971 196.0
54.880253 152.0
55.042561 180.0
55.053883 168.0
55.293873 196.0
55.314068 260.0
55.393074 176.0
55.504414 160.0
55.572456 184.0
55.593231 148.0
55.707554 180.0
55.753616 172.0
55.891911 240.0
55.932091 184.0
56.169014 184.0
56.262299 156.0
56.634064 156.0
56.647354 192.0
56.683819 224.0
56.734268 184.0
56.761257 224.0
56.827251 140.0
56.939835 148.0
56.99091 144.0
57.016453 224.0
57.034489 208.0
57.075081 144.0
57.107098 180.0
57.291809 192.0
57.330982 140.0
57.370171 168.0
57.451607 280.0
57.462696 216.0
57.667534 224.0
57.797588 360.0
57.838451 164.0
58.116924 180.0
58.196224 164.0
58.20837 184.0
58.334473 204.0
58.413544 144.0
58.5452 160.0
58.575581 232.0
58.661755 196.0
58.737999 152.0
58.91217 204.0
58.97467 196.0
59.01136 228.0
59.052647 232.0
59.363533 204.0
59.676773 172.0
59.701378 240.0
59.795219 216.0
59.910706 188.0
59.986214 188.0
60.077198 160.0
60.16053 172.0
60.267094 144.0
60.290272 172.0
60.302635 184.0
60.658226 196.0
61.065445 164.0
61.17281 200.0
61.311432 184.0
61.440849 196.0
61.526684 156.0
61.644459 168.0
61.782978 212.0
61.963017 152.0
62.169994 176.0
62.226501 180.0
62.371025 184.0
62.41819 156.0
62.430771 184.0
62.534603 172.0
62.695244 156.0
62.720463 184.0
62.769333 152.0
62.890808 152.0
63.042423 156.0
63.390564 144.0
63.580864 188.0
63.866844 172.0
64.153473 172.0
64.266701 160.0
64.75106 144.0
64.775085 188.0
64.823151 184.0
64.868027 160.0
65.018799 168.0
65.073822 200.0
65.219559 148.0
65.267273 112.0
65.332123 196.0
65.385216 148.0
65.715553 196.0
65.864075 188.0
65.925468 164.0
66.040985 212.0
66.069374 192.0
66.291191 140.0
66.372238 160.0
66.502022 144.0
66.52475 316.0
66.719688 220.0
66.757088 180.0
66.982277 176.0
67.198502 200.0
67.283371 172.0
67.412407 144.0
67.471245 204.0
67.615189 196.0
67.85598 172.0
67.91758 156.0
68.12841 248.0
68.335556 236.0
68.368469 144.0
68.437599 156.0
68.478775 160.0
68.512604 144.0
68.722748 160.0
68.856453 156.0
68.973763 156.0
69.023888 180.0
69.192123 164.0
69.585045 204.0
70.065689 164.0
70.272423 168.0
70.290771 144.0
70.426003 176.0
70.628242 244.0
70.646645 204.0
70.712509 176.0
70.777191 144.0
71.058769 152.0
71.25856 224.0
71.319061 180.0
71.379578 164.0
71.41468 184.0
71.66404 212.0
71.731453 148.0
72.008163 164.0
72.173775 184.0
72.253265 184.0
72.380203 164.0
72.441177 208.0
72.498787 156.0
72.540741 148.0
72.653076 180.0
72.741325 168.0
72.797348 152.0
72.865295 260.0
72.877182 144.0
72.938644 168.0
73.038689 160.0
73.082916 212.0
73.12886 180.0
73.212288 248.0
73.382683 176.0
73.486725 160.0
73.503784 152.0
73.58271 148.0
73.647186 184.0
73.794151 148.0
73.806122 160.0
74.078239 212.0
74.206772 356.0
74.328552 164.0
74.427139 228.0
74.510551 176.0
74.731636 140.0
74.792564 192.0
75.05098 208.0
75.190392 220.0
75.313293 184.0
75.382393 200.0
75.429062 208.0
75.624512 180.0
75.648743 192.0
75.666061 180.0
75.780365 152.0
75.853668 148.0
76.132484 168.0
76.151588 152.0
76.227577 184.0
76.344498 172.0
76.404587 140.0
76.481949 164.0
76.602097 140.0
76.724075 164.0
76.755463 144.0
76.851395 248.0
77.13781 148.0
77.16053 148.0
77.317955 156.0
77.468536 172.0
77.486053 152.0
77.561409 228.0
77.642059 152.0
77.736794 200.0
77.824554 144.0
77.891289 176.0
77.984413 172.0
78.003754 156.0
78.07267 180.0
78.274689 216.0
78.315193 180.0
78.389191 208.0
78.587357 184.0
78.671387 228.0
78.795006 168.0
78.900696 180.0
78.970009 212.0
79.053162 184.0
79.168221 168.0
79.54232 192.0
79.599136 140.0
79.634651 140.0
79.672478 136.0
79.830147 224.0
79.855042 188.0
79.901291 168.0
79.96286 236.0
80.202232 144.0
80.214714 152.0
80.230759 168.0
80.489464 168.0
80.525177 164.0
80.741432 196.0
80.785812 172.0
81.009911 168.0
81.051117 184.0
81.065453 204.0
81.077995 168.0
81.217506 128.0
81.465561 160.0
81.486107 164.0
81.526649 180.0
81.641701 188.0
81.686668 172.0
81.755486 160.0
81.881058 208.0
81.999962 200.0
82.023392 168.0
82.081085 160.0
82.100151 176.0
82.242073 156.0
82.469742 168.0
82.543343 184.0
82.651878 196.0
82.726082 148.0
82.822052 148.0
82.914375 192.0
82.964508 208.0
83.199226 208.0
83.238052 220.0
83.292519 204.0
83.339806 188.0
83.476982 152.0
83.600922 256.0
83.630035 148.0
83.691933 176.0
83.726532 168.0
83.80304 176.0
83.820641 188.0
83.926979 236.0
84.103935 152.0
84.247147 140.0
84.398056 160.0
84.427315 156.0
84.496826 200.0
84.540733 220.0
84.72567 152.0
84.786133 180.0
84.958488 140.0
85.156563 128.0
85.221024 160.0
85.268806 180.0
85.283508 176.0
85.320274 176.0
85.450851 152.0
85.511574 148.0
85.595604 256.0
85.609146 172.0
85.636772 144.0
85.651505 192.0
85.680977 164.0
86.37693 184.0
86.667587 144.0
86.692604 264.0
86.839989 188.0
86.873375 156.0
86.897491 148.0
86.938316 164.0
87.08313 152.0
87.207611 172.0
87.50338 200.0
87.551796 140.0
87.734398 180.0
87.825768 144.0
88.02919 188.0
88.272118 144.0
88.322609 164.0
88.772095 140.0
88.786972 180.0
88.865883 148.0
89.029701 204.0
89.04985 184.0
89.078018 176.0
89.277252 148.0
89.349442 200.0
89.703377 172.0
89.742348 168.0
89.838531 152.0
89.987625 192.0
90.063164 164.0
90.116058 156.0
90.159515 168.0
90.201103 152.0
90.26506 164.0
90.297531 196.0
90.322121 160.0
90.553032 176.0
90.626907 140.0
90.740631 152.0
90.905373 120.0
90.944382 132.0
90.975876 164.0
91.017639 200.0
91.054321 300.0
91.093529 180.0
91.384476 160.0
91.750648 180.0
91.767303 144.0
91.839767 156.0
92.049202 396.0
92.296196 152.0
92.458794 164.0
92.476021 228.0
92.525787 204.0
92.592804 196.0
92.848839 188.0
93.018456 144.0
93.057083 4312.0
93.077972 300.0
93.116142 224.0
93.162483 148.0
93.208771 184.0
93.232239 144.0
93.562485 168.0
93.587227 160.0
93.83606 140.0
94.062012 352.0
94.185341 156.0
94.231705 248.0
94.428879 152.0
94.558502 164.0
94.835564 160.0
94.855125 196.0
94.930649 168.0
95.08654 160.0
95.126419 172.0
95.328407 164.0
95.588982 156.0
95.63958 160.0
95.984406 156.0
96.03511 144.0
96.052666 160.0
96.115097 156.0
96.214638 176.0
96.45491 152.0
96.69709 176.0
96.730721 192.0
96.883469 168.0
96.932449 240.0
97.030449 188.0
97.073586 352.0
97.252113 180.0
97.267815 152.0
97.574272 144.0
97.631294 164.0
97.863487 188.0
97.898926 148.0
98.095955 188.0
98.113701 148.0
98.366203 140.0
98.415916 196.0
98.431351 156.0
98.85833 152.0
99.107834 176.0
99.246574 152.0
99.26442 148.0
99.532303 180.0
99.929825 168.0
100.072433 172.0
100.206566 148.0
100.312187 156.0
100.529587 184.0
100.774292 152.0
100.84713 148.0
101.053101 152.0
101.117134 188.0
101.283318 188.0
101.353432 164.0
101.38636 148.0
101.427582 188.0
101.443619 140.0
101.594025 172.0
101.609985 184.0
101.672272 196.0
101.704384 140.0
101.720444 164.0
102.078064 152.0
102.206802 188.0
102.2229 168.0
102.389984 168.0
102.451378 160.0
102.682213 152.0
102.855736 144.0
102.931259 192.0
102.960724 204.0
103.021317 180.0
103.053284 4252.0
103.114609 212.0
103.411568 144.0
103.518867 176.0
103.732635 100.0
104.005363 208.0
104.021141 196.0
104.057198 480.0
104.085701 216.0
104.226799 140.0
104.464668 244.0
104.493866 148.0
104.761879 168.0
104.984039 180.0
105.006477 140.0
105.068604 256.0
105.125244 148.0
105.38208 188.0
105.450058 176.0
105.519302 200.0
105.617172 188.0
105.926628 176.0
105.942642 392.0
106.062836 256.0
106.669083 220.0
106.704025 168.0
106.722534 176.0
106.994568 216.0
107.011116 184.0
107.036224 188.0
107.060616 11368.0
107.106041 168.0
107.13765 112.0
107.162987 180.0
107.195961 196.0
107.217758 124.0
107.395302 144.0
107.54525 152.0
107.608482 152.0
107.643585 176.0
107.821083 252.0
108.041969 324.0
108.067543 3604.0
108.268105 208.0
108.298256 172.0
108.334381 216.0
108.482735 252.0
108.651566 164.0
108.699287 264.0
108.770439 120.0
108.964775 120.0
109.050964 256.0
109.070625 180.0
109.270676 144.0
109.418442 164.0
109.43718 232.0
109.468414 252.0
109.620018 128.0
109.899887 160.0
110.062691 180.0
110.096558 360.0
110.137878 140.0
110.555145 196.0
110.643929 140.0
110.736069 244.0
110.831291 228.0
110.857574 212.0
110.897392 164.0
110.96447 176.0
111.075615 200.0
111.169266 220.0
111.2183 196.0
111.256088 324.0
111.508148 176.0
111.829941 156.0
111.878349 208.0
111.964684 148.0
112.057205 148.0
112.094521 220.0
112.508682 188.0
112.554306 164.0
112.582588 244.0
112.600967 176.0
112.761429 160.0
113.070938 168.0
113.344116 172.0
113.394974 184.0
113.509453 156.0
113.547623 196.0
113.764046 204.0
113.889328 176.0
114.016808 196.0
114.103958 308.0
114.371994 208.0
114.457268 216.0
114.510101 148.0
114.887672 212.0
114.950943 104.0
114.98156 176.0
114.996498 168.0
115.054131 244.0
115.086487 128.0
115.111778 156.0
115.252312 192.0
115.353981 104.0
115.432304 152.0
115.449417 224.0
115.479355 168.0
115.798256 144.0
116.059692 148.0
116.119736 148.0
116.32872 152.0
116.701683 204.0
116.809212 184.0
116.865143 196.0
117.05851 164.0
117.069977 264.0
117.096558 216.0
117.367065 144.0
117.619873 168.0
117.744644 152.0
118.040375 360.0
118.063751 1988.0
118.116104 180.0
118.135422 176.0
118.250542 152.0
118.270027 164.0
118.844307 216.0
118.894791 180.0
119.041832 144.0
119.060829 400.0
119.089615 156.0
119.206924 204.0
119.266975 144.0
119.28376 284.0
119.34169 216.0
119.362305 144.0
119.535278 204.0
119.916389 156.0
120.043327 176.0
120.069069 356.0
120.099533 168.0
120.269722 280.0
120.413826 164.0
120.693542 152.0
120.848892 160.0
120.964821 268.0
120.980148 172.0
121.063942 4052.0
121.142197 180.0
121.234222 212.0
121.365746 200.0
121.585106 160.0
121.620216 160.0
121.670708 212.0
121.725601 144.0
121.791481 144.0
121.899132 140.0
122.067337 484.0
122.380844 188.0
122.494629 156.0
122.598923 152.0
122.773254 232.0
122.909843 176.0
123.00695 156.0
123.059227 212.0
123.274193 200.0
123.390465 136.0
123.442192 168.0
123.506325 144.0
123.532867 144.0
123.581543 172.0
123.744736 120.0
123.891495 156.0
124.102859 164.0
124.390442 228.0
124.588081 168.0
124.921532 164.0
125.046135 220.0
125.199753 140.0
125.400261 144.0
125.447067 140.0
125.915634 148.0
126.094368 168.0
126.381531 208.0
126.452209 168.0
126.582047 160.0
126.615639 144.0
126.685974 200.0
126.80159 140.0
126.994408 140.0
127.214302 148.0
127.295128 200.0
127.387215 176.0
127.441132 236.0
127.51754 144.0
127.818878 152.0
127.836884 176.0
127.904404 228.0
128.165634 156.0
128.181412 192.0
128.200119 120.0
128.214828 208.0
128.255783 172.0
128.375275 236.0
128.418121 176.0
128.600876 144.0
128.69014 160.0
128.766541 192.0
128.892197 216.0
129.102432 168.0
129.217789 216.0
129.534714 224.0
130.064301 172.0
130.134705 144.0
130.190201 168.0
130.283325 176.0
130.369598 152.0
130.647049 232.0
130.838211 160.0
131.049759 160.0
131.072815 264.0
131.175369 160.0
131.325851 156.0
131.364639 168.0
131.776581 168.0
131.926392 248.0
132.041916 176.0
132.07254 184.0
132.120789 144.0
132.244339 216.0
132.400024 212.0
132.63208 184.0
132.649765 184.0
132.877396 208.0
133.032852 196.0
133.055542 368.0
133.08107 152.0
133.175217 140.0
133.200485 200.0
133.237244 172.0
133.262512 152.0
133.540665 196.0
133.561371 200.0
133.580551 176.0
133.770767 148.0
133.832932 212.0
133.86824 236.0
133.930252 152.0
133.996445 184.0
134.02179 148.0
134.050095 404.0
134.093903 224.0
134.166992 220.0
134.266144 184.0
134.462234 192.0
134.600754 180.0
134.679276 204.0
134.769363 148.0
134.817383 180.0
134.875671 180.0
134.911804 196.0
135.053497 780.0
135.091446 22204.0
135.208725 148.0
135.278168 212.0
135.412048 160.0
135.482697 112.0
135.736893 140.0
135.765137 160.0
135.827957 180.0
135.862137 164.0
135.892731 244.0
135.917831 144.0
135.942932 220.0
136.060928 264.0
136.098663 4092.0
136.307922 256.0
136.738708 212.0
136.873169 248.0
136.901108 164.0
137.067688 204.0
137.10582 5528.0
137.243637 156.0
137.259964 176.0
137.276291 280.0
137.315933 196.0
137.404572 188.0
137.611496 152.0
137.643463 148.0
137.739273 224.0
138.044525 236.0
138.079636 268.0
138.111282 680.0
138.33017 160.0
138.379166 152.0
138.437698 180.0
138.498596 184.0
138.566528 196.0
138.988556 148.0
139.105896 164.0
139.171631 176.0
139.300812 228.0
139.58049 204.0
139.79689 192.0
140.04303 168.0
140.17366 312.0
140.366959 140.0
140.449493 176.0
140.701996 140.0
140.912186 140.0
140.99501 152.0
141.068832 440.0
141.184021 212.0
141.367493 180.0
141.458481 148.0
141.569122 164.0
141.739288 168.0
142.068695 128.0
142.143417 224.0
142.231232 156.0
142.644547 212.0
142.705185 108.0
143.486267 240.0
143.554031 204.0
143.689987 160.0
143.945374 164.0
144.040909 184.0
144.267929 176.0
144.401825 144.0
144.744034 144.0
145.062683 140.0
145.436874 172.0
145.496887 164.0
145.6035 160.0
145.684204 148.0
145.775497 228.0
146.064774 340.0
146.094025 992.0
146.169861 188.0
146.213181 168.0
146.244476 180.0
146.388916 148.0
146.420227 176.0
146.465302 168.0
146.832336 160.0
147.057892 136.0
147.08786 328.0
147.216049 184.0
147.3992 156.0
147.503265 132.0
147.747803 152.0
148.072464 508.0
148.113007 148.0
148.202972 152.0
148.43808 180.0
148.615158 184.0
148.644272 156.0
148.685532 360.0
148.726791 172.0
148.777756 176.0
148.829819 164.0
149.044922 156.0
149.068146 380.0
149.104721 224.0
149.263687 216.0
149.42421 172.0
149.808868 156.0
150.113525 148.0
150.14035 156.0
150.305923 196.0
150.523468 192.0
151.012238 208.0
151.058578 152.0
151.066254 144.0
151.14679 140.0
151.629211 188.0
151.793457 156.0
151.94194 200.0
152.019135 196.0
152.434998 192.0
152.490585 144.0
152.724228 156.0
153.034302 140.0
153.091461 228.0
153.174683 144.0
153.280609 184.0
153.639084 176.0
153.815796 180.0
154.080017 160.0
154.141418 208.0
154.176392 172.0
154.346954 152.0
154.507721 172.0
154.849319 156.0
155.083527 300.0
155.503845 212.0
155.615143 196.0
155.829147 212.0
155.852188 244.0
155.893753 276.0
156.177872 172.0
156.36377 148.0
156.670044 152.0
156.69957 136.0
156.880646 184.0
157.118774 176.0
157.201111 180.0
157.340897 172.0
157.790588 140.0
158.078232 176.0
158.096176 188.0
158.468842 188.0
158.501404 156.0
158.804749 144.0
158.862442 164.0
159.128464 156.0
159.238953 176.0
159.306763 144.0
159.339432 144.0
159.373016 184.0
159.458817 136.0
159.570648 140.0
159.593277 176.0
159.693863 148.0
159.868057 148.0
159.97316 168.0
160.109924 296.0
160.201645 180.0
160.303101 256.0
160.469452 208.0
160.517365 160.0
160.628342 144.0
160.893311 156.0
160.961472 176.0
161.034714 156.0
161.076111 236.0
161.477005 156.0
161.590836 184.0
161.63385 184.0
161.788239 184.0
161.879379 280.0
161.960434 184.0
162.090668 1000.0
162.145386 216.0
162.655182 172.0
162.851761 192.0
162.9142 176.0
163.094238 1376.0
163.231903 176.0
163.303116 140.0
163.572815 168.0
163.738312 216.0
164.094528 1284.0
164.268478 236.0
164.742661 148.0
164.851791 128.0
164.973282 192.0
165.068024 352.0
165.093216 152.0
165.252045 144.0
165.527496 188.0
165.638596 168.0
165.677032 168.0
165.702652 200.0
165.782074 176.0
165.810272 168.0
165.907669 164.0
166.079468 140.0
166.147781 140.0
166.205185 144.0
166.407944 204.0
166.711044 204.0
166.747025 212.0
166.783005 144.0
166.879059 232.0
167.039108 180.0
167.072723 196.0
167.261429 160.0
167.820465 152.0
167.87294 292.0
168.011307 144.0
168.029373 144.0
168.078766 516.0
168.172089 184.0
168.315872 208.0
168.398499 216.0
168.492538 196.0
169.088028 488.0
169.20787 160.0
169.304642 184.0
169.531647 148.0
169.609406 180.0
169.663849 196.0
169.976898 120.0
170.097061 160.0
170.164459 120.0
170.190521 156.0
170.42688 164.0
170.736206 172.0
170.965149 224.0
170.997131 152.0
171.095291 140.0
171.257507 256.0
171.465164 180.0
171.926773 172.0
172.185226 220.0
172.658249 168.0
172.734329 136.0
172.896317 144.0
173.131927 216.0
173.656097 176.0
173.69281 184.0
173.71904 168.0
173.932724 216.0
174.033691 144.0
174.085251 152.0
174.490112 288.0
174.575272 164.0
174.783417 160.0
174.877823 160.0
174.991013 164.0
175.084656 888.0
175.488968 140.0
175.676224 304.0
175.801636 188.0
176.04837 240.0
176.092331 2316.0
176.175156 140.0
176.709183 200.0
176.827744 204.0
177.098251 292.0
177.169846 148.0
177.225479 296.0
177.357986 200.0
177.376541 156.0
177.485229 164.0
177.540924 212.0
177.615189 172.0
177.885834 180.0
177.930969 184.0
178.01593 140.0
178.037186 168.0
178.390564 176.0
178.56604 168.0
178.946564 288.0
179.079514 176.0
179.424103 132.0
179.52478 204.0
179.98027 248.0
180.078644 328.0
180.285599 156.0
180.418854 188.0
180.625153 192.0
180.66658 156.0
180.708084 152.0
180.960464 160.0
181.083771 140.0
181.152481 168.0
181.191299 168.0
181.305206 184.0
181.377579 144.0
181.594757 164.0
181.806702 156.0
181.838913 228.0
181.871109 232.0
181.943588 168.0
182.096375 4440.0
182.672424 152.0
182.761795 388.0
182.876343 164.0
182.970566 148.0
182.990845 180.0
183.078201 164.0
183.101807 940.0
183.140213 164.0
183.234497 148.0
183.87001 192.0
184.111664 568.0
184.22728 204.0
184.285782 232.0
184.335342 172.0
184.421829 144.0
184.494812 156.0
184.800415 212.0
184.830185 264.0
185.112778 200.0
185.293167 176.0
185.642822 140.0
185.720627 140.0
185.794724 204.0
185.829987 228.0
186.132004 228.0
186.161133 280.0
186.305084 148.0
186.326828 184.0
186.457245 160.0
187.18631 164.0
187.333389 284.0
187.522263 164.0
187.807327 168.0
188.069122 156.0
188.108261 308.0
188.41095 220.0
188.454666 184.0
188.625671 188.0
188.645966 168.0
189.037079 148.0
189.096878 136.0
189.105164 164.0
189.395721 140.0
189.462952 236.0
189.598465 160.0
189.930222 144.0
189.963135 196.0
190.275986 156.0
190.954697 152.0
191.022507 160.0
191.147278 152.0
191.216064 176.0
191.544769 148.0
191.673203 176.0
191.706268 148.0
191.733826 216.0
191.930984 160.0
191.966797 196.0
192.19986 168.0
192.318527 160.0
192.625015 144.0
192.663696 160.0
192.754868 152.0
193.088089 164.0
193.640121 176.0
194.093796 1096.0
194.125107 168.0
194.241577 156.0
194.532944 208.0
194.596802 176.0
194.652328 140.0
194.685654 140.0
194.881042 164.0
194.929749 124.0
195.007935 244.0
195.102859 764.0
195.153488 144.0
195.263718 200.0
195.352722 152.0
195.411469 172.0
195.583679 176.0
196.034851 148.0
196.110596 2496.0
196.308044 164.0
196.352661 140.0
196.40007 200.0
196.422394 176.0
196.492126 212.0
196.58699 148.0
196.626068 180.0
196.704224 200.0
196.895721 156.0
196.959946 136.0
197.058884 164.0
197.111664 472.0
197.173447 156.0
197.311356 180.0
197.435196 176.0
197.456772 236.0
197.850357 344.0
198.091461 756.0
198.374207 144.0
198.491959 188.0
198.550003 200.0
198.766418 176.0
199.105759 256.0
199.468979 224.0
199.511139 236.0
199.826126 272.0
199.964874 156.0
200.003418 344.0
200.100571 292.0
200.16951 240.0
200.231476 176.0
200.600571 144.0
200.806412 188.0
200.961563 152.0
201.046219 288.0
201.113953 148.0
201.140549 180.0
201.308746 156.0
201.353928 164.0
201.947449 148.0
202.047867 116.0
202.244537 164.0
202.277283 148.0
202.405899 276.0
202.530518 164.0
203.225052 204.0
203.304504 200.0
203.335724 148.0
203.525925 212.0
203.545792 164.0
203.767334 140.0
203.827011 168.0
203.880997 200.0
204.048706 152.0
204.438385 176.0
204.528381 148.0
204.717361 176.0
204.936691 204.0
205.059235 176.0
205.133331 176.0
205.261627 160.0
205.358597 188.0
205.378555 176.0
205.418488 196.0
205.738724 148.0
206.509613 176.0
207.024765 144.0
207.104156 160.0
207.417267 160.0
207.496445 156.0
207.681061 192.0
207.996155 152.0
208.071335 140.0
208.115601 172.0
208.177567 180.0
208.415985 176.0
208.620041 164.0
209.112091 360.0
209.227036 144.0
209.275986 192.0
209.394043 200.0
209.915665 320.0
210.091507 628.0
210.461014 164.0
210.49646 144.0
210.829697 240.0
211.036209 220.0
211.120117 216.0
211.148773 152.0
211.171906 196.0
211.278931 176.0
211.464127 236.0
211.762329 144.0
211.822372 192.0
211.921661 148.0
212.108383 508.0
212.225983 192.0
212.344879 164.0
212.475418 164.0
212.53273 164.0
212.594376 140.0
212.821045 136.0
213.090576 176.0
213.247818 220.0
213.276886 184.0
213.817856 152.0
213.855698 160.0
214.009979 160.0
214.639343 184.0
215.19957 152.0
215.225845 188.0
216.141098 160.0
216.345596 172.0
216.497849 212.0
216.597427 140.0
216.663895 240.0
216.820114 144.0
216.910965 196.0
217.057556 204.0
217.300995 184.0
217.357971 144.0
217.482941 244.0
217.693726 156.0
218.052734 164.0
218.364365 144.0
218.424454 156.0
218.496735 192.0
218.626205 148.0
218.788086 168.0
219.10321 160.0
219.244644 168.0
219.415604 172.0
220.2005 180.0
220.420273 200.0
220.528458 160.0
220.605316 196.0
221.117569 212.0
221.318314 192.0
221.448608 240.0
221.484146 144.0
221.575989 140.0
222.026535 232.0
222.056183 176.0
222.090683 464.0
222.121948 176.0
222.176834 232.0
222.294281 156.0
222.56958 152.0
222.83638 140.0
223.058014 176.0
223.080887 340.0
223.138306 200.0
223.163818 140.0
223.34523 152.0
223.446365 172.0
223.495071 108.0
223.535629 256.0
223.591278 172.0
223.813889 324.0
223.897903 224.0
224.003052 148.0
224.110306 144.0
224.137131 180.0
224.253342 172.0
224.399414 200.0
224.662674 232.0
224.869736 216.0
224.909531 196.0
225.099167 620.0
225.148376 204.0
225.656357 168.0
225.761002 200.0
226.108276 3488.0
226.155212 180.0
226.22847 156.0
226.259949 256.0
226.287643 172.0
226.440353 156.0
226.472183 168.0
226.629074 148.0
226.823181 172.0
227.01387 216.0
227.116028 2908.0
228.120728 668.0
228.231888 188.0
228.283005 144.0
228.454437 180.0
228.52063 188.0
228.610901 104.0
228.676651 160.0
228.936493 124.0
229.032394 164.0
229.068527 152.0
229.194214 172.0
229.451248 180.0
229.605042 168.0
230.028137 156.0
230.127075 180.0
230.175385 164.0
230.2388 184.0
230.269638 112.0
230.534851 140.0
230.800858 140.0
230.985336 164.0
231.115417 156.0
231.384796 228.0
231.661179 152.0
231.93309 184.0
231.999786 168.0
232.296967 212.0
232.394043 140.0
232.536667 152.0
232.592819 112.0
232.6763 192.0
233.378128 216.0
233.459366 112.0
233.727921 160.0
233.873993 148.0
234.141922 356.0
234.38562 148.0
234.449615 192.0
234.524872 208.0
234.821548 248.0
234.966125 152.0
235.045395 120.0
235.073441 204.0
235.294525 160.0
235.447189 188.0
235.633514 156.0
235.826035 184.0
235.874939 172.0
236.241882 164.0
236.306137 140.0
236.399368 264.0
236.459137 160.0
236.551773 180.0
236.697922 168.0
237.12059 152.0
237.139755 156.0
237.227951 252.0
237.313782 144.0
237.804611 156.0
237.9673 188.0
238.110779 836.0
238.302078 156.0
238.489532 148.0
238.538712 172.0
238.796997 220.0
238.926178 168.0
239.113388 376.0
239.153351 888.0
239.196991 196.0
239.613998 96.0
239.751373 188.0
239.894455 180.0
239.979477 148.0
240.082214 176.0
240.122986 220.0
240.159897 368.0
240.335342 160.0
240.418762 184.0
240.452469 180.0
240.797455 156.0
240.832825 220.0
241.119583 152.0
241.169678 196.0
241.297806 176.0
241.408295 180.0
241.50351 216.0
241.758682 208.0
241.96608 152.0
242.00322 244.0
242.117798 188.0
242.158066 176.0
242.288162 156.0
242.31604 176.0
242.957794 160.0
242.998123 144.0
243.026047 176.0
243.057068 204.0
243.091202 168.0
243.367462 216.0
243.425858 124.0
243.528946 160.0
243.559998 364.0
243.597275 160.0
243.75795 168.0
243.841019 252.0
243.908005 148.0
243.963959 168.0
244.455383 192.0
244.800919 200.0
244.991852 172.0
245.103073 176.0
245.249542 144.0
245.477127 164.0
246.317719 192.0
246.502182 148.0
246.538498 188.0
246.607254 176.0
246.963684 168.0
247.085693 148.0
247.414291 152.0
247.552063 176.0
247.692993 148.0
247.946777 184.0
248.60849 192.0
248.753845 180.0
249.148544 140.0
249.289932 144.0
249.656769 144.0
249.695618 168.0
249.834991 224.0
250.036819 184.0
250.391006 152.0
250.510696 324.0
250.671371 148.0
250.873093 160.0
251.359146 176.0
251.459778 176.0
251.829178 156.0
252.132477 180.0
252.877106 108.0
252.932663 168.0
252.986481 152.0
253.261963 148.0
253.382339 168.0
253.862473 96.0
253.902176 160.0
254.144577 160.0
254.194031 232.0
254.235031 148.0
254.274811 184.0
254.57312 152.0
254.622589 156.0
254.698822 140.0
254.749649 236.0
255.077271 308.0
255.148987 38300.0
255.268021 124.0
255.366287 156.0
255.398727 136.0
255.457169 112.0
255.511856 140.0
255.611252 216.0
255.685791 160.0
255.797226 160.0
255.918457 132.0
256.11731 956.0
256.151703 7080.0
256.243652 136.0
256.289459 208.0
256.402832 152.0
256.441711 140.0
256.527954 104.0
256.822296 116.0
256.849915 160.0
257.007996 148.0
257.039886 172.0
257.125519 692.0
257.152985 572.0
257.282227 148.0
257.410309 124.0
257.476135 140.0
257.683746 148.0
257.706635 224.0
257.989716 260.0
258.057709 140.0
258.428711 192.0
258.518311 168.0
258.649506 200.0
258.835205 140.0
259.145905 232.0
259.274078 192.0
259.358459 180.0
259.540131 168.0
259.949036 228.0
259.995728 176.0
260.084351 156.0
260.371246 168.0
260.433624 180.0
260.459686 172.0
260.782501 168.0
261.927948 216.0
262.408112 148.0
262.766113 184.0
262.950043 168.0
263.434357 196.0
263.857727 180.0
264.187592 144.0
264.323456 140.0
264.553253 176.0
264.847931 148.0
265.107117 220.0
265.62262 152.0
265.898407 200.0
265.995789 212.0
266.32312 188.0
266.413879 112.0
266.596649 164.0
266.814423 144.0
266.853424 140.0
266.947723 148.0
266.97049 180.0
267.149231 6568.0
267.35434 204.0
267.422699 144.0
267.465027 144.0
267.66333 244.0
267.741211 144.0
267.952606 176.0
268.005615 156.0
268.115997 164.0
268.149445 552.0
268.475006 188.0
269.490173 164.0
269.819519 244.0
269.885651 216.0
270.019745 168.0
270.242157 148.0
270.356689 148.0
270.389435 140.0
271.17218 176.0
271.474457 176.0
271.801819 188.0
271.828064 144.0
271.998718 168.0
272.290924 172.0
272.443115 160.0
272.721344 144.0
272.74762 228.0
273.248871 196.0
273.533142 140.0
273.640747 220.0
273.79718 144.0
274.176056 148.0
274.271637 220.0
274.704071 140.0
274.842163 188.0
275.17923 152.0
275.409271 168.0
275.558624 224.0
275.657745 200.0
275.721161 172.0
275.826294 176.0
275.978363 152.0
276.079773 180.0
276.235168 148.0
276.312408 192.0
276.633423 164.0
277.346771 216.0
277.38205 156.0
277.411896 212.0
278.032135 160.0
278.378265 168.0
278.603241 164.0
278.656403 144.0
279.1716 196.0
279.555115 168.0
279.837097 140.0
280.333374 196.0
280.380035 168.0
280.730072 156.0
280.91684 144.0
280.986908 164.0
281.262146 180.0
281.330658 284.0
281.384888 208.0
281.460846 168.0
281.651215 152.0
281.931854 152.0
282.272827 172.0
282.314911 176.0
282.367371 132.0
282.551697 168.0
282.62265 124.0
282.834869 176.0
282.995575 160.0
283.159271 172.0
283.198181 120.0
283.211182 196.0
283.250092 244.0
283.366364 136.0
283.431854 124.0
283.561432 240.0
283.656281 152.0
283.743378 216.0
283.958954 268.0
283.992279 152.0
284.055939 336.0
284.109863 300.0
284.169647 120.0
284.224976 132.0
284.246429 220.0
284.285248 228.0
284.336212 328.0
284.391357 276.0
284.424591 236.0
284.476288 308.0
284.513123 208.0
284.598206 256.0
284.647919 316.0
284.704407 164.0
284.755859 276.0
284.768555 492.0
284.781647 304.0
284.793365 348.0
284.831329 372.0
284.869019 396.0
284.922729 304.0
284.933929 156.0
284.939484 332.0
284.977081 304.0
285.00116 476.0
285.115753 976.0
285.16153 221516.0
285.284729 368.0
285.409058 364.0
285.46994 412.0
285.512421 492.0
285.544403 348.0
285.671448 516.0
285.714935 7648.0
285.747192 412.0
285.819153 220.0
285.938354 192.0
285.97879 372.0
286.009155 380.0
286.045959 244.0
286.073639 176.0
286.11792 304.0
286.163361 79536.0
286.229309 236.0
286.313751 256.0
286.361847 164.0
286.42749 124.0
286.487244 144.0
286.534851 332.0
286.59903 100.0
286.630798 212.0
286.670715 100.0
286.73053 192.0
286.797211 160.0
286.901947 292.0
286.932404 300.0
287.028442 156.0
287.073273 216.0
287.124725 96.0
287.166199 6952.0
287.281128 188.0
287.33017 136.0
287.363586 112.0
287.397003 248.0
287.435608 176.0
287.521606 116.0
287.578217 144.0
287.623047 196.0
287.680237 204.0
287.739166 244.0
287.832764 284.0
287.872314 124.0
287.948059 216.0
287.974243 184.0
288.070374 236.0
288.076782 212.0
288.136963 100.0
288.168365 536.0
288.174591 208.0
288.221588 168.0
288.249084 204.0
288.280426 328.0
288.342224 116.0
288.417236 116.0
288.507568 208.0
288.943207 256.0
289.055542 112.0
289.154388 132.0
289.191437 200.0
289.23233 180.0
289.269806 252.0
290.020782 128.0
296.662506 128.0
298.62381 140.0
303.539825 164.0
304.552063 120.0
318.162781 160.0
424.382996 104.0
427.511627 152.0
474.527283 144.0
475.358612 108.0
510.366943 148.0
521.703064 124.0
580.154663 140.0
657.780334 144.0
752.414001 140.0
760.718689 140.0
1047.045776 140.0
1058.858032 208.0
1059.4021 184.0
1108.365479 168.0
1131.604248 192.0
1182.552734 240.0
1183.805664 180.0
1190.828125 172.0
1202.173706 144.0
1222.387451 172.0
1279.885376 156.0
1294.659546 144.0
1301.364014 184.0
1308.438599 256.0
1326.665405 172.0
1335.778809 208.0
1359.333374 168.0
1385.233887 176.0
1386.411865 220.0
1392.064575 156.0
1399.530029 152.0
1402.137207 192.0
1417.112061 176.0
1422.736816 208.0
1423.45752 148.0
1424.974854 172.0
1431.676758 172.0
1433.18335 184.0
1437.896362 180.0
1438.817261 172.0
1463.830566 176.0
1474.816406 176.0
1475.091553 216.0
1475.580811 256.0
1478.487549 220.0
1484.056274 168.0
1485.58252 196.0
1486.894531 204.0
1493.163574 176.0
1497.804688 204.0
1506.436279 144.0
1513.210815 256.0
1518.751465 196.0
1532.409912 164.0
1548.987305 184.0
1553.094604 224.0
1554.757812 172.0
1560.460449 168.0
1570.35083 220.0
1572.070679 232.0
1573.104614 172.0
1575.434204 272.0
1583.842773 160.0
1587.40918 184.0
1593.139526 156.0
1595.849609 172.0
1597.225342 168.0
1598.742432 188.0
1602.312134 220.0
1604.543579 180.0
1610.224976 208.0
1612.765625 156.0
1618.605713 148.0
1624.263672 188.0
1650.421021 148.0
1657.811401 196.0
1662.360718 184.0
1666.290527 164.0
1668.736816 152.0
1670.021729 184.0
1674.384033 204.0
1679.876343 160.0
1681.076904 172.0
1681.591064 192.0
1683.509644 160.0
1692.962891 160.0
1693.364258 192.0
1698.962646 164.0
1699.159546 184.0
1701.252197 204.0
1701.991089 180.0
1704.22522 176.0
1704.816895 212.0
1707.348877 180.0
1709.553589 200.0
1723.9104 152.0
1726.282959 236.0
1731.339111 160.0
1732.092773 216.0
1733.865845 200.0
1736.991577 208.0
1740.211548 176.0
1741.573486 192.0
1744.248901 140.0
1745.304688 140.0
1746.369141 144.0
1746.585449 176.0
1747.650269 164.0
1747.939209 188.0
1749.447876 164.0
1750.513672 192.0
1752.362671 224.0
1760.629028 144.0
1763.97937 180.0
1766.036255 176.0
1770.220703 160.0
1788.977417 148.0
1795.988037 152.0
1801.246704 196.0
1801.500122 188.0
1802.623779 240.0
1806.411377 232.0
1810.465576 268.0
1812.752808 152.0
1815.855469 180.0
1820.370239 184.0
1821.177124 144.0
1824.873657 196.0
1824.958618 140.0
1826.285278 184.0
1829.612427 208.0
1834.783569 176.0
1835.474121 156.0
1838.22937 140.0
1838.519409 216.0
1840.371704 156.0
1840.78772 184.0
1848.278076 172.0
1854.820923 164.0
1859.649902 148.0
1865.482178 148.0
1866.066772 148.0
1868.689941 148.0
1870.936157 144.0
1872.003784 208.0
1872.753052 200.0
1875.880859 156.0
1878.985352 252.0
1879.218262 164.0
1881.9198 216.0
1887.172974 140.0
1889.291748 220.0
1892.658447 180.0
1894.702515 200.0
1895.62085 152.0
1901.196777 176.0
1901.439819 140.0
1902.281738 212.0
1903.054321 144.0
1904.30481 164.0
1905.034424 204.0
1913.174072 152.0
1920.28418 168.0
1920.580811 156.0
1921.121582 184.0
1931.367798 228.0
1933.135132 156.0
1936.181519 176.0
1938.213867 188.0
1940.825806 168.0
1941.027466 212.0
1942.737671 216.0
1942.851807 176.0
1943.430786 188.0
1946.441406 176.0
1948.971069 160.0
1949.428101 164.0
1950.49353 220.0
1952.276245 156.0
1953.322876 168.0
1954.624878 140.0
1961.91748 192.0
1966.283569 160.0
1968.366943 188.0
1973.438599 168.0
1976.233521 144.0
1979.50647 240.0
1979.614746 244.0
1979.880493 180.0
1981.758301 176.0
1982.334351 160.0
1983.185059 176.0
1986.723145 176.0
1987.361816 148.0
1988.116089 164.0
1989.190063 152.0
1991.338745 168.0
1992.857788 192.0
1994.101807 140.0
2000.906616 156.0
2001.360718 140.0
2002.197754 156.0
2003.141846 172.0
