>compound MLS001401458-01!Buflomedil HCl35543-24-9
>formula C17H25NO4
>ionization [M+H]+
>parentmass 308.18563473209053
#inchi InChI=1S/C17H25NO4/c1-20-13-11-15(21-2)17(16(12-13)22-3)14(19)7-6-10-18-8-4-5-9-18/h11-12H,4-10H2,1-3H3
#inchikey OWYLAEYXIQKAOL
#origInchi InChI=1S/C17H25NO4.ClH/c1-20-13-11-15(21-2)17(16(12-13)22-3)14(19)7-6-10-18-8-4-5-9-18;/h11-12H,4-10H2,1-3H3;1H
#Ion_Source LC-ESI
#Instrument qTof
#Compound_Source NIH Pharmacologically Active Library
#PI Dorrestein
#Data_Collector VP/LMS
#Scan -1
#Precursor_MZ 308.186
#ExactMass 307.178
#Charge 1
#CAS_Number N/A
#Pubmed_ID N/A
#Smiles COc1cc(OC)c(C(=O)CCCN2CCCC2)c(OC)c1.Cl
#INCHI_AUX N/A
#Library_Class 1
#SpectrumID CCMSLIB00000085236
#IonMode Positive
#UpdateWorkflowName UPDATE-SINGLE-ANNOTATED-GOLD
#LibraryQualityString Gold
#TaskID d252d724072548979f1f6f1ced849daf
##Scan# 1421
#SpectrumFile p3-G04_GG4_01_18297.mzXML
#LibraryName Pharm_Active_Library.mgf
#MQScore -1
#Organism Pharm_Active_Library
#TIC_Query 0
#RT_Query -1
#MZErrorPPM -1
#SharedPeaks 0
#MassDiff 0
#LibMZ -1
#SpecMZ 308.186
#SpecCharge 0
#internalFilename spec-00000.mgf

>collision 10
44.903515 168.0
44.930195 140.0
44.943539 132.0
44.998764 172.0
45.018299 316.0
45.059307 200.0
45.093117 40.0
45.131889 100.0
45.141903 164.0
45.162651 116.0
45.185394 72.0
45.23893 164.0
45.26437 188.0
45.274796 132.0
45.296516 168.0
45.362083 160.0
45.389591 244.0
45.413139 116.0
45.429237 156.0
45.470837 252.0
45.488289 112.0
45.503998 188.0
45.525887 232.0
45.601711 276.0
45.621655 192.0
45.638771 212.0
45.661858 48.0
45.697956 140.0
45.727333 232.0
45.743298 192.0
45.767952 188.0
45.784115 224.0
45.802971 172.0
45.847435 36.0
45.875744 168.0
45.889225 152.0
45.905407 148.0
45.92252 192.0
45.926334 132.0
45.933228 128.0
45.953392 220.0
45.956642 184.0
45.960918 216.0
45.987713 140.0
46.00301 264.0
46.018761 140.0
46.03867 400.0
46.09306 264.0
46.144424 128.0
46.184998 160.0
46.25032 148.0
46.278381 196.0
46.314949 148.0
46.332561 220.0
46.343403 132.0
46.387955 220.0
46.413891 72.0
46.463249 176.0
46.473576 92.0
46.521183 212.0
46.542805 132.0
46.57233 148.0
46.587627 336.0
46.601902 180.0
46.622326 128.0
46.652866 124.0
46.678699 156.0
46.688389 160.0
46.729031 124.0
46.738068 64.0
46.749443 164.0
46.773945 116.0
46.788918 52.0
46.850208 184.0
46.901993 216.0
46.923809 180.0
46.945625 244.0
46.961994 136.0
46.994736 128.0
47.011608 176.0
47.018929 132.0
47.049332 188.0
47.084839 176.0
47.098499 132.0
47.109428 164.0
47.124561 156.0
47.140854 164.0
47.162724 180.0
47.203964 172.0
47.239841 316.0
47.263203 192.0
47.287197 180.0
47.307732 168.0
47.320026 188.0
47.325176 184.0
47.347645 136.0
47.399506 148.0
47.415878 156.0
47.431557 228.0
47.454044 132.0
47.485878 36.0
47.500965 44.0
47.557549 120.0
47.595673 112.0
47.615524 132.0
47.64196 196.0
47.66848 236.0
47.679474 124.0
47.694595 116.0
47.722092 112.0
47.731716 136.0
47.754448 152.0
47.767479 136.0
47.783951 288.0
47.807384 156.0
47.817017 148.0
47.851433 144.0
47.872963 180.0
47.891068 200.0
47.909283 140.0
47.96027 188.0
47.992893 208.0
48.016804 96.0
48.057167 156.0
48.069233 116.0
48.081654 132.0
48.116276 148.0
48.129936 152.0
48.157597 100.0
48.176781 144.0
48.191212 156.0
48.205772 252.0
48.228065 148.0
48.259865 236.0
48.28614 192.0
48.302303 152.0
48.335949 256.0
48.382473 144.0
48.405167 132.0
48.430096 160.0
48.486908 136.0
48.520176 180.0
48.534096 100.0
48.572079 160.0
48.582588 52.0
48.600628 228.0
48.615891 152.0
48.640877 124.0
48.678913 152.0
48.695847 232.0
48.70116 136.0
48.745049 184.0
48.767284 184.0
48.777016 72.0
48.813168 140.0
48.824295 252.0
48.847534 164.0
48.865421 248.0
48.882725 176.0
48.892467 172.0
48.902546 232.0
48.914738 128.0
48.940525 200.0
48.977406 52.0
48.995167 160.0
49.034534 140.0
49.046272 180.0
49.063271 176.0
49.092079 176.0
49.094906 200.0
49.115746 200.0
49.12936 156.0
49.156658 156.0
49.186577 160.0
49.204727 72.0
49.216667 172.0
49.241035 124.0
49.252686 188.0
49.278755 124.0
49.295525 148.0
49.320683 176.0
49.33746 316.0
49.348644 180.0
49.364029 136.0
49.38221 232.0
49.403194 120.0
49.424183 256.0
49.442375 176.0
49.452171 212.0
49.487312 160.0
49.506779 76.0
49.546001 212.0
49.56982 196.0
49.613274 180.0
49.630329 148.0
49.683399 148.0
49.719887 160.0
49.752171 184.0
49.80975 100.0
49.828014 40.0
49.865894 176.0
49.888451 156.0
49.902512 180.0
49.922199 296.0
49.932045 76.0
49.948925 36.0
49.964397 140.0
50.06012 200.0
50.091106 104.0
50.149338 236.0
50.173645 184.0
50.20528 204.0
50.223232 176.0
50.243366 240.0
50.277237 176.0
50.295765 156.0
50.316654 52.0
50.333706 84.0
50.355621 116.0
50.377491 136.0
50.394447 140.0
50.40575 132.0
50.415646 164.0
50.445328 212.0
50.46677 220.0
50.479263 92.0
50.496235 212.0
50.520679 272.0
50.538677 144.0
50.550888 432.0
50.565567 140.0
50.578518 192.0
50.61512 156.0
50.634945 104.0
50.680279 220.0
50.702011 180.0
50.718548 132.0
50.739811 212.0
50.78138 180.0
50.793705 132.0
50.81073 120.0
50.827759 240.0
50.847626 196.0
50.870338 100.0
50.882607 212.0
50.885788 136.0
50.890652 196.0
50.949871 188.0
50.996769 160.0
51.010983 184.0
51.061508 132.0
51.083511 100.0
51.129887 184.0
51.153244 132.0
51.198811 132.0
51.208782 316.0
51.231575 104.0
51.252949 80.0
51.265774 120.0
51.292854 180.0
51.30711 212.0
51.321369 68.0
51.364159 200.0
51.391266 140.0
51.413498 148.0
51.452641 188.0
51.482628 184.0
51.504055 188.0
51.518341 200.0
51.541203 184.0
51.561211 236.0
51.589798 140.0
51.602707 136.0
51.650707 156.0
51.689926 172.0
51.704235 160.0
51.738785 236.0
51.767231 196.0
51.785851 48.0
51.809681 176.0
51.831696 152.0
51.844593 176.0
51.870396 40.0
51.902142 176.0
51.943531 52.0
51.962185 284.0
51.976532 92.0
52.023766 128.0
52.084213 48.0
52.101456 316.0
52.116066 236.0
52.128757 108.0
52.148766 156.0
52.203579 180.0
52.255402 172.0
52.275444 100.0
52.285519 152.0
52.295597 76.0
52.31287 120.0
52.344398 116.0
52.36615 184.0
52.434959 180.0
52.45261 160.0
52.467026 192.0
52.494423 160.0
52.530396 128.0
52.532986 120.0
52.539059 216.0
52.588207 48.0
52.601196 140.0
52.624298 220.0
52.644516 184.0
52.654625 176.0
52.667625 68.0
52.686405 148.0
52.737583 176.0
52.756577 196.0
52.77602 144.0
52.791927 140.0
52.836769 48.0
52.883018 92.0
52.915806 192.0
52.92672 144.0
52.943676 188.0
52.956928 176.0
52.97768 160.0
52.998943 192.0
53.023579 88.0
53.060478 220.0
53.075539 176.0
53.100426 228.0
53.11348 120.0
53.126537 144.0
53.143356 236.0
53.155777 292.0
53.169044 204.0
53.183887 200.0
53.210594 188.0
53.222332 180.0
53.296417 88.0
53.331299 420.0
53.342415 136.0
53.363281 108.0
53.392368 136.0
53.425823 116.0
53.43684 128.0
53.449104 128.0
53.489105 232.0
53.507328 248.0
53.539631 132.0
53.556561 144.0
53.598572 200.0
53.662704 196.0
53.718658 180.0
53.729717 172.0
53.755135 84.0
53.797466 180.0
53.822289 204.0
53.833969 132.0
53.844193 152.0
53.908691 136.0
53.927479 176.0
53.949406 68.0
53.97541 160.0
53.988888 172.0
54.0079 164.0
54.067894 184.0
54.111206 204.0
54.154282 176.0
54.202629 196.0
54.22525 184.0
54.248066 104.0
54.269253 204.0
54.30941 176.0
54.324326 224.0
54.353672 160.0
54.387428 148.0
54.481247 104.0
54.506397 184.0
54.52697 44.0
54.541237 176.0
54.553432 192.0
54.579899 164.0
54.625427 176.0
54.674049 84.0
54.690243 224.0
54.732937 168.0
54.74472 160.0
54.768288 152.0
54.794804 164.0
54.82272 140.0
54.856705 160.0
54.868404 124.0
54.895042 188.0
54.906841 148.0
54.924187 216.0
54.946671 176.0
54.969894 168.0
55.035233 52.0
55.047047 204.0
55.067726 144.0
55.097271 228.0
55.107613 140.0
55.122391 108.0
55.133816 224.0
55.182995 160.0
55.203697 280.0
55.229504 268.0
55.240322 200.0
55.26564 156.0
55.317635 176.0
55.352295 156.0
55.400566 192.0
55.42131 136.0
55.440575 100.0
55.461231 124.0
55.47723 176.0
55.499382 252.0
55.51767 128.0
55.539921 232.0
55.560627 96.0
55.56282 128.0
55.64529 160.0
55.677959 196.0
55.704666 196.0
55.72847 184.0
55.795357 148.0
55.807251 104.0
55.854256 324.0
55.916679 108.0
55.950089 168.0
55.96331 100.0
55.982849 184.0
55.999954 124.0
56.049541 328.0
56.054855 180.0
56.093113 160.0
56.110737 184.0
56.136353 44.0
56.150715 184.0
56.199005 164.0
56.242287 140.0
56.255722 96.0
56.290726 196.0
56.308434 188.0
56.471905 144.0
56.485867 132.0
56.512798 176.0
56.532665 188.0
56.584644 120.0
56.603642 204.0
56.640057 148.0
56.654469 284.0
56.668522 152.0
56.716965 212.0
56.743469 140.0
56.753963 160.0
56.792305 160.0
56.821461 100.0
56.842319 160.0
56.87849 132.0
56.91753 64.0
56.935551 168.0
56.954288 84.0
56.978527 184.0
56.990562 120.0
57.011078 236.0
57.033218 80.0
57.081329 204.0
57.126453 60.0
57.1632 76.0
57.1731 188.0
57.195564 160.0
57.207436 216.0
57.219223 192.0
57.252895 180.0
57.266453 108.0
57.301102 124.0
57.387016 328.0
57.408127 164.0
57.421703 300.0
57.454891 120.0
57.486717 176.0
57.510727 144.0
57.530354 144.0
57.54092 76.0
57.553493 184.0
57.5667 112.0
57.571732 188.0
57.607376 140.0
57.639103 192.0
57.675377 256.0
57.704102 76.0
57.7994 116.0
57.814156 288.0
57.826641 108.0
57.840446 148.0
57.862972 40.0
57.897804 156.0
57.916813 152.0
57.920879 136.0
57.956886 244.0
57.979618 148.0
58.004627 160.0
58.04026 164.0
58.053905 136.0
58.084244 68.0
58.166862 180.0
58.191765 180.0
58.207184 328.0
58.225502 132.0
58.330254 156.0
58.342419 156.0
58.360928 160.0
58.421501 172.0
58.432152 260.0
58.474762 76.0
58.485416 208.0
58.51202 160.0
58.564602 128.0
58.620975 128.0
58.649933 152.0
58.698105 168.0
58.701225 100.0
58.706718 132.0
58.720074 140.0
58.734947 176.0
58.749058 152.0
58.764225 132.0
58.814507 176.0
58.883324 184.0
58.930645 172.0
58.959785 240.0
58.975071 120.0
58.994129 184.0
59.046116 172.0
59.124149 160.0
59.15099 172.0
59.175377 172.0
59.192329 224.0
59.207642 208.0
59.299572 152.0
59.31337 108.0
59.354599 184.0
59.385441 172.0
59.434536 160.0
59.467358 124.0
59.482113 104.0
59.492859 44.0
59.508213 148.0
59.545071 100.0
59.561871 128.0
59.565861 120.0
59.653267 332.0
59.678772 32.0
59.691074 164.0
59.703381 132.0
59.727989 132.0
59.74799 176.0
59.758995 156.0
59.776573 132.0
59.828022 84.0
59.844734 176.0
59.914555 88.0
59.943546 128.0
59.974369 196.0
59.988243 108.0
60.026791 220.0
60.039425 208.0
60.060726 172.0
60.12553 180.0
60.140965 160.0
60.170258 156.0
60.219116 372.0
60.240658 208.0
60.275333 104.0
60.295425 156.0
60.32423 404.0
60.337162 128.0
60.349533 156.0
60.402119 176.0
60.426872 116.0
60.443264 108.0
60.462463 112.0
60.496159 172.0
60.529034 144.0
60.560268 216.0
60.584797 152.0
60.616665 296.0
60.648335 104.0
60.67004 132.0
60.687595 360.0
60.708332 408.0
60.738388 164.0
60.76685 200.0
60.815861 164.0
60.830559 180.0
60.860886 152.0
60.87952 56.0
60.896488 160.0
60.935444 184.0
60.953281 192.0
60.985584 136.0
61.039593 208.0
61.103367 188.0
61.115814 112.0
61.132931 420.0
61.150726 120.0
61.190529 116.0
61.2061 256.0
61.227901 188.0
61.260616 76.0
61.282429 132.0
61.32748 176.0
61.368156 88.0
61.457069 128.0
61.467991 144.0
61.482037 144.0
61.508144 348.0
61.521461 156.0
61.535114 136.0
61.549168 144.0
61.607273 200.0
61.622169 136.0
61.641335 160.0
61.655399 160.0
61.724644 192.0
61.775803 196.0
61.849354 188.0
61.866577 156.0
61.880665 136.0
61.977783 160.0
61.993752 148.0
62.048409 140.0
62.076542 152.0
62.106342 156.0
62.122032 76.0
62.133015 160.0
62.143997 132.0
62.177296 164.0
62.19265 144.0
62.217766 164.0
62.230328 280.0
62.25074 200.0
62.282154 144.0
62.315147 136.0
62.403168 176.0
62.424622 168.0
62.441029 212.0
62.491253 232.0
62.549484 176.0
62.600334 176.0
62.612469 52.0
62.639961 168.0
62.672333 152.0
62.709557 220.0
62.725605 200.0
62.744255 116.0
62.776718 204.0
62.803188 108.0
62.820042 252.0
62.847366 56.0
62.883663 120.0
62.962608 100.0
62.981274 148.0
63.013161 128.0
63.049507 208.0
63.070053 164.0
63.104836 180.0
63.13488 52.0
63.174931 256.0
63.194439 296.0
63.218109 140.0
63.249508 144.0
63.255508 188.0
63.269386 168.0
63.302639 96.0
63.362831 96.0
63.428654 180.0
63.446835 140.0
63.461102 152.0
63.495144 124.0
63.505508 208.0
63.522957 184.0
63.54517 140.0
63.575321 108.0
63.686462 44.0
63.764217 180.0
63.766857 168.0
63.835335 168.0
63.905861 116.0
63.929729 120.0
63.971115 92.0
64.002281 216.0
64.022072 148.0
64.043839 156.0
64.058708 152.0
64.082603 156.0
64.206207 276.0
64.218117 172.0
64.28672 208.0
64.300339 156.0
64.330299 40.0
64.37133 172.0
64.383347 168.0
64.396889 200.0
64.408066 144.0
64.423698 204.0
64.451202 172.0
64.471977 48.0
64.499153 248.0
64.519936 140.0
64.5839 124.0
64.623795 180.0
64.638847 200.0
64.665787 184.0
64.687149 224.0
64.702332 164.0
64.716743 92.0
64.744797 112.0
64.766388 140.0
64.795036 136.0
64.806847 216.0
64.824066 116.0
64.835289 196.0
64.852051 304.0
64.865746 76.0
64.892853 132.0
64.930405 184.0
64.944077 80.0
64.950638 68.0
65.000473 220.0
65.011703 112.0
65.058258 132.0
65.120888 40.0
65.132126 136.0
65.170952 144.0
65.191948 208.0
65.21463 152.0
65.231766 104.0
65.246231 152.0
65.291542 180.0
65.298561 192.0
65.303421 164.0
65.316994 92.0
65.328255 236.0
65.347458 184.0
65.35392 172.0
65.382965 140.0
65.407112 148.0
65.429535 200.0
65.498306 196.0
65.55587 144.0
65.579048 168.0
65.674606 232.0
65.687508 136.0
65.710098 308.0
65.727844 220.0
65.74659 304.0
65.775467 168.0
65.810173 296.0
65.847313 84.0
65.85894 184.0
65.89093 56.0
65.928101 72.0
65.942642 68.0
65.971573 156.0
65.983139 156.0
66.009239 188.0
66.112801 176.0
66.144569 168.0
66.151085 140.0
66.167511 64.0
66.190178 168.0
66.217712 108.0
66.230667 116.0
66.248901 172.0
66.274414 100.0
66.305206 76.0
66.317383 192.0
66.345726 124.0
66.360321 328.0
66.379776 112.0
66.472252 180.0
66.487251 164.0
66.512825 184.0
66.55275 176.0
66.562256 188.0
66.585892 60.0
66.618515 148.0
66.649254 148.0
66.697281 136.0
66.727486 252.0
66.734222 192.0
66.760529 204.0
66.772087 208.0
66.831375 220.0
66.890175 192.0
66.921852 124.0
66.94207 380.0
66.958359 100.0
66.99511 224.0
67.011185 196.0
67.038193 148.0
67.071838 192.0
67.088722 156.0
67.158844 192.0
67.172455 152.0
67.207787 188.0
67.225739 128.0
67.274704 120.0
67.292267 180.0
67.330826 256.0
67.357994 176.0
67.371773 152.0
67.392189 172.0
67.416817 84.0
67.436432 108.0
67.449509 52.0
67.482208 196.0
67.496925 100.0
67.518181 176.0
67.536179 232.0
67.560913 132.0
67.604897 164.0
67.631081 420.0
67.652367 132.0
67.701485 208.0
67.721466 140.0
67.770294 76.0
67.789955 148.0
67.824371 96.0
67.849648 144.0
67.863724 164.0
67.8834 156.0
67.896942 156.0
67.916672 196.0
67.93261 180.0
67.954643 168.0
67.974335 84.0
68.003174 168.0
68.025436 128.0
68.032341 52.0
68.045052 148.0
68.08519 176.0
68.127975 72.0
68.145348 368.0
68.156944 180.0
68.178917 200.0
68.210144 100.0
68.223297 188.0
68.249603 136.0
68.277557 184.0
68.295609 152.0
68.318687 160.0
68.340073 160.0
68.410927 168.0
68.442894 144.0
68.484955 184.0
68.508011 116.0
68.544266 184.0
68.584656 172.0
68.601952 92.0
68.629456 212.0
68.638779 180.0
68.65802 116.0
68.67289 256.0
68.688934 156.0
68.711937 368.0
68.730606 108.0
68.747658 180.0
68.766273 132.0
68.81974 144.0
68.857185 156.0
68.908936 176.0
68.925461 96.0
68.949097 132.0
68.975044 236.0
69.019684 156.0
69.042839 180.0
69.062691 136.0
69.085846 136.0
69.099945 260.0
69.121834 160.0
69.210785 140.0
69.236481 68.0
69.26561 184.0
69.301086 172.0
69.325943 144.0
69.362411 188.0
69.402199 132.0
69.443169 200.0
69.462234 180.0
69.500069 72.0
69.513344 104.0
69.538239 44.0
69.56646 200.0
69.593948 180.0
69.607971 148.0
69.631226 172.0
69.662781 168.0
69.815704 136.0
69.840843 212.0
69.932892 232.0
69.977127 160.0
69.993774 220.0
70.012093 144.0
70.047073 196.0
70.068733 168.0
70.087059 136.0
70.152992 172.0
70.189301 108.0
70.241882 112.0
70.246078 128.0
70.267509 184.0
70.303856 176.0
70.348923 168.0
70.389763 376.0
70.407562 308.0
70.444115 52.0
70.467697 176.0
70.507614 160.0
70.527672 124.0
70.539375 152.0
70.556091 64.0
70.591209 240.0
70.681839 156.0
70.735016 164.0
70.798729 116.0
70.847305 132.0
70.952797 136.0
71.006554 124.0
71.035072 180.0
71.070305 120.0
71.147514 196.0
71.165985 184.0
71.219727 100.0
71.248581 204.0
71.261208 156.0
71.291977 116.0
71.344086 132.0
71.377716 176.0
71.406456 132.0
71.441628 248.0
71.520721 124.0
71.549339 152.0
71.565094 180.0
71.589699 116.0
71.603912 188.0
71.651207 176.0
71.664734 196.0
71.679039 172.0
71.692528 92.0
71.704323 188.0
71.734962 224.0
71.741997 92.0
71.745522 164.0
71.758514 220.0
71.79705 84.0
71.810547 112.0
71.824043 180.0
71.900093 56.0
71.987762 184.0
72.060402 52.0
72.121239 288.0
72.14119 120.0
72.200706 120.0
72.248863 172.0
72.283607 216.0
72.307297 72.0
72.319145 104.0
72.450523 324.0
72.46431 112.0
72.470726 80.0
72.492401 220.0
72.51902 216.0
72.54332 60.0
72.578362 52.0
72.605492 160.0
72.619064 120.0
72.63942 112.0
72.654686 168.0
72.669899 120.0
72.716515 156.0
72.758217 184.0
72.774567 216.0
72.798973 188.0
72.824562 236.0
72.844833 112.0
72.870316 116.0
72.907501 172.0
72.943504 128.0
72.989113 180.0
73.023956 288.0
73.038628 292.0
73.065849 132.0
73.089668 268.0
73.110092 240.0
73.132217 136.0
73.147537 164.0
73.168808 220.0
73.232681 232.0
73.268456 164.0
73.306175 144.0
73.347588 120.0
73.36219 68.0
73.392235 252.0
73.40686 184.0
73.444046 164.0
73.466225 112.0
73.484993 128.0
73.525948 176.0
73.552208 208.0
73.573746 168.0
73.595314 212.0
73.613228 192.0
73.67971 176.0
73.699608 360.0
73.732613 116.0
73.756538 120.0
73.891647 164.0
73.912178 48.0
73.924156 136.0
73.954651 44.0
74.002899 144.0
74.038864 128.0
74.067986 152.0
74.085114 120.0
74.107384 184.0
74.121094 56.0
74.133095 172.0
74.146805 244.0
74.160309 172.0
74.205009 180.0
74.230316 112.0
74.24453 164.0
74.26815 176.0
74.320015 188.0
74.355118 180.0
74.384399 196.0
74.407547 192.0
74.484833 168.0
74.517479 164.0
74.548409 160.0
74.587936 196.0
74.599976 168.0
74.64296 96.0
74.662239 152.0
74.682518 160.0
74.70433 240.0
74.724876 164.0
74.777153 188.0
74.790924 100.0
74.822838 164.0
74.849388 196.0
74.915367 304.0
74.938187 148.0
74.993164 180.0
75.023949 208.0
75.061081 160.0
75.064766 128.0
75.100616 556.0
75.125244 140.0
75.144218 144.0
75.191658 172.0
75.21843 136.0
75.230515 140.0
75.246056 116.0
75.261597 100.0
75.304771 196.0
75.351418 48.0
75.392883 132.0
75.410172 128.0
75.498421 196.0
75.539864 104.0
75.612541 172.0
75.633308 128.0
75.645424 136.0
75.664474 168.0
75.679474 228.0
75.718155 332.0
75.738831 216.0
75.76088 276.0
75.808243 244.0
75.85331 136.0
75.87487 248.0
75.902824 132.0
75.922668 192.0
75.954758 136.0
75.997391 216.0
76.015617 284.0
76.040649 168.0
76.099678 160.0
76.115845 116.0
76.155251 212.0
76.224747 172.0
76.259506 160.0
76.290794 148.0
76.302963 28.0
76.337746 196.0
76.349915 136.0
76.36731 264.0
76.389648 152.0
76.431969 168.0
76.457787 88.0
76.496529 160.0
76.551796 152.0
76.571175 220.0
76.606155 116.0
76.648979 244.0
76.679405 132.0
76.743484 116.0
76.771385 212.0
76.808014 208.0
76.832436 84.0
76.864006 164.0
76.888283 56.0
76.900497 152.0
76.923187 108.0
76.966888 144.0
76.988533 180.0
77.014694 100.0
77.063927 228.0
77.100403 212.0
77.132301 236.0
77.155548 204.0
77.212852 140.0
77.228996 204.0
77.24649 200.0
77.257637 176.0
77.281189 192.0
77.325233 136.0
77.336845 132.0
77.363052 148.0
77.385201 180.0
77.397789 228.0
77.419777 68.0
77.442543 108.0
77.489944 144.0
77.525948 300.0
77.559952 128.0
77.600273 124.0
77.663406 160.0
77.680946 156.0
77.696739 268.0
77.712532 148.0
77.765175 192.0
77.819603 108.0
77.860138 144.0
77.948639 96.0
77.968918 180.0
78.019897 148.0
78.033318 164.0
78.09024 88.0
78.106071 116.0
78.136566 224.0
78.16304 180.0
78.199333 172.0
78.231018 184.0
78.247627 240.0
78.302597 136.0
78.331398 132.0
78.366142 200.0
78.412453 152.0
78.440659 128.0
78.484909 204.0
78.527512 212.0
78.558815 152.0
78.579987 144.0
78.629402 128.0
78.652344 116.0
78.714729 228.0
78.735336 116.0
78.815254 116.0
78.834267 140.0
78.848412 232.0
78.860779 180.0
78.880226 44.0
78.92482 148.0
78.947418 224.0
78.963333 200.0
79.041122 136.0
79.060646 152.0
79.120827 172.0
79.133224 128.0
79.154472 48.0
79.195206 196.0
79.24836 56.0
79.283798 152.0
79.317734 136.0
79.377625 160.0
79.454033 548.0
79.551643 208.0
79.564072 104.0
79.587151 120.0
79.603134 136.0
79.626228 124.0
79.6744 132.0
79.747047 124.0
79.786156 180.0
79.816383 124.0
79.835945 172.0
79.85984 148.0
79.926712 184.0
79.948761 136.0
79.971169 32.0
79.98719 132.0
80.012115 180.0
80.029915 216.0
80.045944 152.0
80.085129 296.0
80.097595 60.0
80.158173 164.0
80.182014 128.0
80.227692 168.0
80.313286 160.0
80.329346 188.0
80.363243 204.0
80.384659 120.0
80.404289 128.0
80.418564 180.0
80.431061 52.0
80.478607 248.0
80.514984 152.0
80.529274 168.0
80.555489 160.0
80.578362 136.0
80.599312 236.0
80.621208 288.0
80.630951 176.0
80.675804 212.0
80.695473 272.0
80.752701 100.0
80.817101 168.0
80.909836 104.0
80.929871 152.0
81.000053 236.0
81.030182 84.0
81.138931 160.0
81.185974 180.0
81.287819 176.0
81.346214 168.0
81.38546 108.0
81.400452 228.0
81.412712 128.0
81.441002 180.0
81.483047 188.0
81.517647 188.0
81.55407 160.0
81.585335 140.0
81.66468 284.0
81.698746 192.0
81.732262 128.0
81.744858 356.0
81.809029 208.0
81.812302 136.0
81.847466 180.0
81.86187 160.0
81.879883 176.0
81.896667 112.0
81.939331 136.0
81.982574 136.0
82.049271 176.0
82.092552 148.0
82.10788 120.0
82.125816 108.0
82.151917 136.0
82.195335 176.0
82.220642 144.0
82.236275 188.0
82.271187 212.0
82.332581 92.0
82.348839 152.0
82.366898 172.0
82.395805 136.0
82.459053 144.0
82.481697 160.0
82.511475 132.0
82.544029 104.0
82.562111 180.0
82.610947 240.0
82.62542 164.0
82.649628 164.0
82.673416 136.0
82.689827 68.0
82.74144 196.0
82.757553 132.0
82.772041 108.0
82.808258 112.0
82.833618 136.0
82.856964 172.0
82.887978 56.0
82.909325 164.0
82.916801 128.0
82.951416 124.0
82.974983 224.0
83.091064 128.0
83.107391 112.0
83.158203 140.0
83.19088 40.0
83.265335 176.0
83.302254 196.0
83.329391 136.0
83.3489 140.0
83.38707 128.0
83.416153 112.0
83.431641 160.0
83.450691 212.0
83.481606 500.0
83.505249 188.0
83.58403 136.0
83.614876 152.0
83.642441 360.0
83.67495 208.0
83.694527 116.0
83.778305 152.0
83.80928 156.0
83.825684 156.0
83.85215 140.0
83.867599 100.0
83.89344 160.0
83.958771 100.0
83.982483 120.0
84.002548 144.0
84.016838 144.0
84.037209 164.0
84.085358 168.0
84.12117 120.0
84.145683 64.0
84.159508 184.0
84.248413 148.0
84.2892 144.0
84.301994 148.0
84.336685 156.0
84.378769 64.0
84.406197 48.0
84.428146 180.0
84.462204 132.0
84.486679 140.0
84.543404 144.0
84.59938 200.0
84.612762 152.0
84.626991 188.0
84.651817 200.0
84.687111 104.0
84.724174 216.0
84.762093 144.0
84.781494 156.0
84.828423 132.0
84.891487 108.0
84.964859 176.0
84.992386 64.0
85.012573 116.0
85.025421 120.0
85.037697 224.0
85.052101 52.0
85.106194 144.0
85.140831 200.0
85.143562 172.0
85.181496 188.0
85.210892 128.0
85.269699 136.0
85.292404 136.0
85.330406 156.0
85.370819 204.0
85.393219 132.0
85.449913 104.0
85.466476 100.0
85.486717 164.0
85.512108 156.0
85.543777 132.0
85.566887 168.0
85.587967 200.0
85.641785 180.0
85.656395 176.0
85.69799 148.0
85.711388 236.0
85.739029 60.0
85.754898 144.0
85.805397 140.0
85.835159 140.0
85.85334 228.0
85.882851 148.0
85.89576 112.0
85.916183 56.0
85.934509 228.0
85.971413 192.0
85.98748 268.0
85.998093 272.0
86.021248 100.0
86.048943 220.0
86.063713 164.0
86.080635 196.0
86.103027 208.0
86.130409 156.0
86.211502 172.0
86.232933 148.0
86.310188 52.0
86.369293 156.0
86.457474 156.0
86.514603 172.0
86.537079 152.0
86.555595 152.0
86.614861 332.0
86.638016 168.0
86.700607 204.0
86.728394 224.0
86.742729 168.0
86.761269 120.0
86.775101 200.0
86.822456 144.0
86.837296 68.0
86.887383 344.0
86.966591 176.0
86.978508 40.0
86.983292 124.0
87.004311 120.0
87.044998 208.0
87.063728 124.0
87.087875 120.0
87.106453 56.0
87.121315 140.0
87.147324 152.0
87.164055 200.0
87.178917 156.0
87.212372 128.0
87.226303 168.0
87.255135 104.0
87.27697 172.0
87.296043 148.0
87.313004 200.0
87.341225 192.0
87.358994 128.0
87.365273 164.0
87.379745 236.0
87.42627 156.0
87.452324 140.0
87.547279 188.0
87.58889 188.0
87.617455 220.0
87.637062 180.0
87.66407 128.0
87.688599 192.0
87.713112 176.0
87.73082 256.0
87.778366 228.0
87.821266 136.0
87.836189 92.0
87.885597 160.0
87.914558 172.0
87.970551 104.0
88.013496 44.0
88.056107 152.0
88.098969 152.0
88.13118 140.0
88.187241 136.0
88.207809 208.0
88.224052 168.0
88.269257 208.0
88.293411 184.0
88.312523 220.0
88.327484 76.0
88.372391 108.0
88.406845 188.0
88.42292 156.0
88.441635 36.0
88.483688 104.0
88.502663 168.0
88.585831 148.0
88.61393 236.0
88.634544 288.0
88.668274 160.0
88.700142 256.0
88.753708 224.0
88.782646 144.0
88.798973 192.0
88.820511 168.0
88.857681 160.0
88.879593 288.0
88.90715 132.0
88.933884 184.0
88.964661 152.0
88.977798 216.0
89.017235 108.0
89.052917 120.0
89.11274 128.0
89.139343 184.0
89.171288 212.0
89.234268 64.0
89.261353 164.0
89.266365 148.0
89.273544 152.0
89.301025 152.0
89.330185 96.0
89.376282 208.0
89.412041 160.0
89.434624 120.0
89.487343 176.0
89.500519 128.0
89.538597 216.0
89.557022 96.0
89.575859 128.0
89.644066 160.0
89.745483 80.0
89.799156 148.0
89.824699 112.0
89.854881 44.0
89.871437 160.0
89.87886 124.0
89.90583 156.0
89.928482 152.0
89.962135 164.0
89.981339 168.0
90.009521 208.0
90.047432 128.0
90.061005 368.0
90.073883 168.0
90.087105 144.0
90.104111 160.0
90.131264 140.0
90.176392 224.0
90.253433 88.0
90.278015 152.0
90.36692 128.0
90.418571 192.0
90.450195 136.0
90.516464 36.0
90.533508 124.0
90.57518 136.0
90.678734 188.0
90.717308 120.0
90.757973 224.0
90.804474 128.0
90.832985 164.0
90.888008 140.0
90.902344 268.0
90.96962 220.0
91.026909 140.0
91.053383 1744.0
91.079063 292.0
91.100662 160.0
91.137062 212.0
91.159569 176.0
91.202606 136.0
91.26136 168.0
91.292747 224.0
91.314156 256.0
91.349709 124.0
91.378326 184.0
91.414398 136.0
91.444847 96.0
91.486732 132.0
91.513382 148.0
91.570518 160.0
91.620667 164.0
91.74202 212.0
91.76461 80.0
91.789688 100.0
91.820198 160.0
91.865982 148.0
91.881248 140.0
91.896721 428.0
91.925133 156.0
91.939362 200.0
91.965134 192.0
92.002426 168.0
92.020699 372.0
92.039398 120.0
92.058678 396.0
92.116241 220.0
92.133713 204.0
92.154282 124.0
92.215858 144.0
92.268959 120.0
92.288078 52.0
92.333977 168.0
92.362671 164.0
92.396904 188.0
92.420425 148.0
92.441582 160.0
92.463234 240.0
92.485138 176.0
92.514832 204.0
92.537018 120.0
92.598854 144.0
92.632591 168.0
92.713066 188.0
92.737267 132.0
92.778236 116.0
92.806999 116.0
92.841515 116.0
92.85994 192.0
92.904663 168.0
92.939354 108.0
92.978401 92.0
93.004608 196.0
93.030746 436.0
93.065002 324.0
93.085243 188.0
93.102531 136.0
93.115974 136.0
93.137978 176.0
93.183212 184.0
93.208191 140.0
93.237015 140.0
93.271263 176.0
93.286995 96.0
93.360062 148.0
93.379013 164.0
93.40815 172.0
93.422035 92.0
93.516449 184.0
93.547836 116.0
93.576088 324.0
93.594841 100.0
93.645653 180.0
93.681519 164.0
93.695 124.0
93.721977 120.0
93.741249 176.0
93.824135 192.0
93.849197 128.0
93.876198 120.0
93.928276 28.0
93.953354 136.0
93.976036 192.0
94.021927 164.0
94.040222 692.0
94.068115 392.0
94.117416 152.0
94.165695 120.0
94.229446 180.0
94.255989 180.0
94.283554 144.0
94.366676 212.0
94.423912 248.0
94.465691 124.0
94.492401 176.0
94.520088 156.0
94.543121 152.0
94.565941 152.0
94.587234 168.0
94.61821 144.0
94.666389 136.0
94.722107 136.0
94.765411 84.0
94.786728 196.0
94.79892 164.0
94.822845 196.0
94.893631 180.0
94.947632 296.0
94.981506 164.0
94.998459 120.0
95.028183 172.0
95.050125 280.0
95.073097 108.0
95.076996 136.0
95.127571 164.0
95.227127 120.0
95.249451 128.0
95.285408 124.0
95.314552 56.0
95.34565 68.0
95.366806 176.0
95.403961 180.0
95.427292 172.0
95.452576 136.0
95.470078 144.0
95.5187 132.0
95.5401 152.0
95.580345 164.0
95.637405 136.0
95.660767 184.0
95.703941 184.0
95.749077 248.0
95.826309 204.0
95.841896 128.0
95.875702 196.0
95.931557 44.0
95.945206 112.0
95.966927 140.0
96.022736 132.0
96.056725 572.0
96.079147 600.0
96.100983 184.0
96.139114 208.0
96.25177 208.0
96.266617 184.0
96.298416 144.0
96.331627 136.0
96.353111 212.0
96.372261 200.0
96.443008 116.0
96.475067 160.0
96.491669 184.0
96.51535 116.0
96.565369 240.0
96.601402 168.0
96.622925 80.0
96.654388 152.0
96.673805 196.0
96.710663 184.0
96.728607 164.0
96.746223 224.0
96.775597 124.0
96.793419 232.0
96.820641 132.0
96.848061 188.0
96.869675 224.0
96.892372 168.0
96.912712 188.0
96.957779 108.0
97.00808 188.0
97.037247 200.0
97.063644 184.0
97.086807 800.0
97.106796 224.0
97.131714 148.0
97.157799 172.0
97.187546 236.0
97.21843 160.0
97.236717 288.0
97.255722 308.0
97.314819 208.0
97.361946 148.0
97.416359 188.0
97.43856 132.0
97.456627 164.0
97.576141 196.0
97.635132 60.0
97.648903 32.0
97.662666 180.0
97.680374 180.0
97.7453 124.0
97.779312 200.0
97.861443 168.0
97.888222 200.0
97.895294 248.0
97.914612 184.0
98.007576 148.0
98.022964 164.0
98.036598 240.0
98.059319 4328.0
98.093094 384.0
98.107727 264.0
98.145187 36.0
98.204353 160.0
98.234619 140.0
98.282974 256.0
98.31089 152.0
98.363426 260.0
98.395775 32.0
98.434517 360.0
98.455017 160.0
98.475029 152.0
98.502419 148.0
98.524155 152.0
98.563667 140.0
98.601219 192.0
98.643806 44.0
98.661354 76.0
98.68914 172.0
98.721817 128.0
98.735664 208.0
98.75544 124.0
98.804901 156.0
98.842674 184.0
98.870201 208.0
98.943443 160.0
98.977448 224.0
98.992134 144.0
99.015968 64.0
99.039032 148.0
99.061882 228.0
99.080101 88.0
99.123535 152.0
99.129471 140.0
99.16333 116.0
99.204353 136.0
99.246597 204.0
99.277992 192.0
99.351723 140.0
99.388535 180.0
99.486671 136.0
99.562149 224.0
99.593414 160.0
99.679344 140.0
99.756859 168.0
99.77597 144.0
99.812531 124.0
99.826454 84.0
99.84037 160.0
99.890099 176.0
99.939842 112.0
99.979637 320.0
100.001534 176.0
100.023094 188.0
100.087143 140.0
100.131317 196.0
100.152863 140.0
100.201706 116.0
100.219749 156.0
100.295761 124.0
100.326241 188.0
100.349228 112.0
100.431931 108.0
100.465118 224.0
100.490051 120.0
100.56562 152.0
100.593567 172.0
100.607544 120.0
100.669441 288.0
100.685425 100.0
100.755333 148.0
100.789307 176.0
100.859253 184.0
100.873245 208.0
100.979225 188.0
100.993233 224.0
101.038994 140.0
101.057747 144.0
101.089264 128.0
101.105278 128.0
101.139305 180.0
101.163948 116.0
101.239418 132.0
101.269455 60.0
101.345589 140.0
101.363625 156.0
101.384094 148.0
101.41478 256.0
101.457832 236.0
101.483894 128.0
101.501945 88.0
101.565651 204.0
101.581779 164.0
101.60424 172.0
101.628319 124.0
101.652397 128.0
101.672462 204.0
101.750755 68.0
101.806114 148.0
101.84333 216.0
101.871475 108.0
101.919479 232.0
101.95163 148.0
102.005898 148.0
102.048615 188.0
102.071823 132.0
102.095795 376.0
102.140633 164.0
102.16687 180.0
102.205017 136.0
102.266541 204.0
102.319748 108.0
102.346512 180.0
102.407509 192.0
102.470802 168.0
102.489494 204.0
102.549355 180.0
102.563705 212.0
102.5877 156.0
102.626007 168.0
102.653839 180.0
102.680458 196.0
102.759277 168.0
102.813622 168.0
102.849953 152.0
102.967178 272.0
103.01123 148.0
103.053207 2608.0
103.085838 144.0
103.116577 168.0
103.136284 208.0
103.201485 160.0
103.274292 276.0
103.296158 148.0
103.343658 152.0
103.372299 136.0
103.393669 52.0
103.462494 48.0
103.481964 220.0
103.565773 132.0
103.614334 148.0
103.620918 144.0
103.677254 196.0
103.717751 168.0
103.770462 100.0
103.809456 172.0
103.837379 192.0
103.857666 144.0
103.882004 96.0
103.957085 116.0
103.989075 136.0
104.006248 196.0
104.024857 184.0
104.057159 256.0
104.084976 48.0
104.09919 140.0
104.141846 64.0
104.158646 160.0
104.176376 180.0
104.21051 100.0
104.256798 76.0
104.280449 148.0
104.321274 148.0
104.361046 144.0
104.381668 136.0
104.417595 240.0
104.481331 168.0
104.511856 216.0
104.526718 144.0
104.546448 176.0
104.583084 236.0
104.597099 188.0
104.619667 132.0
104.652306 64.0
104.707291 164.0
104.782661 132.0
104.825455 260.0
104.929413 104.0
104.953812 208.0
104.978348 140.0
105.00486 64.0
105.033875 460.0
105.068878 5072.0
105.102791 192.0
105.125237 160.0
105.176262 64.0
105.231384 92.0
105.249825 120.0
105.286957 224.0
105.302284 156.0
105.343712 56.0
105.388664 216.0
105.415169 148.0
105.512039 220.0
105.525658 372.0
105.548317 172.0
105.591965 164.0
105.61969 100.0
105.639709 148.0
105.690453 136.0
105.711761 184.0
105.737427 188.0
105.758835 124.0
105.789757 188.0
105.807968 48.0
105.842773 272.0
105.859154 136.0
105.881439 148.0
105.919617 340.0
105.988213 208.0
106.040588 1232.0
106.071503 816.0
106.148109 136.0
106.16246 168.0
106.191177 80.0
106.236305 148.0
106.26503 240.0
106.304581 176.0
106.382912 340.0
106.410759 204.0
106.478531 168.0
106.494957 64.0
106.509338 112.0
106.525772 176.0
106.575081 88.0
106.638794 200.0
106.667572 60.0
106.690186 188.0
106.733894 124.0
106.790947 140.0
106.806854 372.0
106.858833 120.0
106.887596 188.0
106.92263 112.0
106.983009 180.0
107.01207 712.0
107.048149 1800.0
107.073372 168.0
107.11412 140.0
107.145088 132.0
107.180054 160.0
107.200661 124.0
107.223389 144.0
107.271088 192.0
107.293419 76.0
107.328918 184.0
107.351158 148.0
107.377968 176.0
107.426506 180.0
107.454086 156.0
107.483376 128.0
107.538857 156.0
107.559547 40.0
107.592575 212.0
107.623291 160.0
107.645935 124.0
107.681374 116.0
107.731384 192.0
107.747482 124.0
107.784676 176.0
107.815674 264.0
107.829559 196.0
107.852875 176.0
107.975075 164.0
107.996208 252.0
108.026581 176.0
108.055008 1828.0
108.079926 684.0
108.096542 428.0
108.125908 148.0
108.15873 168.0
108.181847 152.0
108.209053 168.0
108.254265 124.0
108.26944 160.0
108.312454 172.0
108.326515 168.0
108.353691 160.0
108.392044 160.0
108.412575 384.0
108.442047 196.0
108.474823 208.0
108.535973 136.0
108.575912 140.0
108.623207 184.0
108.664703 240.0
108.693184 160.0
108.726959 64.0
108.75502 228.0
108.78627 340.0
108.808495 156.0
108.898323 176.0
108.961403 160.0
108.980309 76.0
108.999008 212.0
109.028786 1272.0
109.063904 3328.0
109.087257 124.0
109.111252 156.0
109.167397 148.0
109.181953 156.0
109.20784 144.0
109.215103 64.0
109.222603 140.0
109.247162 208.0
109.315102 128.0
109.350487 116.0
109.365051 120.0
109.407784 204.0
109.468262 168.0
109.529106 204.0
109.556137 148.0
109.571228 60.0
109.62957 144.0
109.648445 128.0
109.664795 200.0
109.728912 164.0
109.752563 136.0
109.817215 380.0
109.899765 176.0
109.952209 120.0
109.986237 144.0
110.004089 188.0
110.023567 172.0
110.03447 152.0
110.064903 584.0
110.081711 136.0
110.097565 388.0
110.142845 188.0
110.186722 336.0
110.201347 204.0
110.234779 136.0
110.320602 188.0
110.353928 192.0
110.370659 204.0
110.409897 196.0
110.416153 164.0
110.504524 232.0
110.525452 188.0
110.567307 136.0
110.584053 188.0
110.634293 296.0
110.64994 172.0
110.743187 164.0
110.766228 124.0
110.791367 144.0
110.896141 44.0
110.934853 160.0
110.952744 100.0
111.040459 656.0
111.07975 292.0
111.102676 164.0
111.204483 148.0
111.256958 204.0
111.282158 136.0
111.319954 204.0
111.334656 180.0
111.357758 56.0
111.429222 228.0
111.495903 192.0
111.521004 364.0
111.546074 148.0
111.59523 100.0
111.634499 172.0
111.679352 148.0
111.712883 132.0
111.776131 112.0
111.799278 180.0
111.822433 64.0
111.866127 316.0
111.885101 156.0
111.923485 80.0
111.95182 196.0
112.055344 60.0
112.068565 156.0
112.108765 320.0
112.127838 172.0
112.155235 92.0
112.207939 136.0
112.226036 172.0
112.292297 48.0
112.312889 220.0
112.433655 208.0
112.45153 196.0
112.482201 224.0
112.496811 152.0
112.520203 140.0
112.542435 148.0
112.57933 152.0
112.604675 200.0
112.63002 180.0
112.714531 80.0
112.735664 92.0
112.802505 216.0
112.820213 116.0
112.86628 168.0
112.89325 104.0
112.93441 148.0
112.974602 116.0
112.98941 116.0
113.00563 144.0
113.01313 96.0
113.019913 164.0
113.05954 144.0
113.083252 152.0
113.116966 368.0
113.285408 188.0
113.317589 148.0
113.352966 140.0
113.374809 180.0
113.396606 196.0
113.425674 144.0
113.448997 124.0
113.476562 140.0
113.51754 232.0
113.586838 128.0
113.61866 108.0
113.656853 84.0
113.707787 360.0
113.78846 260.0
113.843666 44.0
113.872368 172.0
113.941277 164.0
113.964752 188.0
113.983879 220.0
114.061882 240.0
114.091202 380.0
114.143311 216.0
114.17453 200.0
114.220673 172.0
114.266685 120.0
114.287964 160.0
114.31514 216.0
114.336906 152.0
114.358192 136.0
114.37735 40.0
114.402893 168.0
114.439087 144.0
114.485939 60.0
114.534927 328.0
114.579666 120.0
114.605232 120.0
114.62867 132.0
114.662773 284.0
114.70327 132.0
114.728851 256.0
114.742821 192.0
114.765579 160.0
114.821869 268.0
114.863205 56.0
114.901611 132.0
114.931755 156.0
114.967758 220.0
114.989105 208.0
115.053787 1772.0
115.11615 140.0
115.147102 112.0
115.17173 136.0
115.210274 216.0
115.228279 156.0
115.247505 380.0
115.327721 192.0
115.343681 196.0
115.362923 140.0
115.409958 172.0
115.537247 188.0
115.572304 152.0
115.650177 128.0
115.688103 156.0
115.750198 132.0
115.790886 148.0
115.807426 184.0
115.88002 172.0
115.920593 156.0
115.940865 116.0
115.958008 124.0
115.992699 220.0
116.018341 260.0
116.058182 496.0
116.103806 132.0
116.150993 204.0
116.172447 120.0
116.230377 156.0
116.262566 188.0
116.294563 172.0
116.376343 112.0
116.414993 232.0
116.43914 248.0
116.477287 240.0
116.530998 68.0
116.569672 152.0
116.614807 156.0
116.65995 168.0
116.680298 236.0
116.707253 104.0
116.73951 160.0
116.803284 184.0
116.831367 232.0
116.838455 164.0
116.846596 112.0
116.863426 204.0
116.922104 184.0
116.953125 176.0
116.987305 172.0
117.029213 232.0
117.069016 1408.0
117.097168 176.0
117.116158 60.0
117.134186 240.0
117.185097 144.0
117.199196 160.0
117.254059 96.0
117.291405 160.0
117.338135 160.0
117.430862 140.0
117.508522 128.0
117.538734 208.0
117.633698 136.0
117.657448 220.0
117.683357 204.0
117.712303 148.0
117.774567 172.0
117.791344 184.0
117.817268 152.0
117.866966 192.0
117.949097 140.0
117.967621 196.0
118.039169 1036.0
118.078217 140.0
118.091698 240.0
118.124413 164.0
118.206474 208.0
118.223785 168.0
118.293053 172.0
118.353119 332.0
118.394821 160.0
118.420815 164.0
118.49086 180.0
118.513916 176.0
118.534668 164.0
118.558395 152.0
118.620171 180.0
118.696053 40.0
118.7416 128.0
118.765457 100.0
118.789322 184.0
118.830544 104.0
118.856575 220.0
118.882622 64.0
118.897812 108.0
118.936882 128.0
118.964897 268.0
119.048279 1752.0
119.08638 344.0
119.106255 156.0
119.180832 136.0
119.244209 160.0
119.284447 148.0
119.320221 160.0
119.355667 148.0
119.410568 204.0
119.430145 164.0
119.473656 160.0
119.558517 236.0
119.579994 184.0
119.621643 52.0
119.64872 256.0
119.710915 228.0
119.748329 144.0
119.819824 164.0
119.907738 160.0
119.946335 156.0
119.963669 128.0
120.015503 124.0
120.019897 96.0
120.028404 104.0
120.05455 972.0
120.084755 128.0
120.128548 132.0
120.150772 192.0
120.177406 128.0
120.217751 156.0
120.278099 180.0
120.304001 184.0
120.395706 224.0
120.417549 200.0
120.459366 168.0
120.504929 300.0
120.534874 108.0
120.559563 96.0
120.607368 188.0
120.630638 176.0
120.660118 124.0
120.725716 152.0
120.757851 156.0
120.786461 212.0
120.808838 172.0
120.843422 168.0
120.879547 240.0
120.921432 184.0
120.961639 160.0
121.026802 1288.0
121.064148 21136.0
121.104355 180.0
121.121284 216.0
121.149025 132.0
121.187057 132.0
121.209137 68.0
121.231178 168.0
121.26403 208.0
121.294998 116.0
121.31369 160.0
121.347618 36.0
121.412056 200.0
121.450691 156.0
121.494568 156.0
121.539818 192.0
121.558006 136.0
121.57795 200.0
121.603355 164.0
121.62468 184.0
121.641602 120.0
121.717468 148.0
121.738213 188.0
121.79705 188.0
121.821678 96.0
121.848045 120.0
121.882637 124.0
121.911766 76.0
121.955177 144.0
121.97551 208.0
121.993095 172.0
122.036049 1584.0
122.067528 1876.0
122.096802 244.0
122.142708 120.0
122.169037 180.0
122.21524 200.0
122.27504 344.0
122.301071 376.0
122.349503 168.0
122.375755 160.0
122.42437 204.0
122.486038 160.0
122.534508 132.0
122.554337 128.0
122.576378 60.0
122.627068 172.0
122.65863 88.0
122.682175 168.0
122.698578 188.0
122.720314 148.0
122.759346 80.0
122.781456 164.0
122.816696 252.0
122.850853 116.0
122.869614 160.0
122.891701 220.0
122.936005 160.0
122.97998 124.0
122.99543 320.0
123.043694 1260.0
123.079018 6232.0
123.120331 172.0
123.169884 188.0
123.194855 184.0
123.246956 104.0
123.27594 388.0
123.312347 208.0
123.333405 144.0
123.366562 32.0
123.401581 200.0
123.464607 164.0
123.50901 168.0
123.540512 268.0
123.544746 176.0
123.554596 192.0
123.5811 168.0
123.623146 120.0
123.698402 180.0
123.720535 176.0
123.778107 172.0
123.799286 176.0
123.815758 148.0
123.862274 164.0
123.919762 156.0
123.950897 168.0
123.977486 196.0
123.993004 196.0
124.051483 1628.0
124.082596 668.0
124.143761 80.0
124.214355 140.0
124.254669 260.0
124.273613 224.0
124.294609 216.0
124.338997 148.0
124.403374 108.0
124.443336 60.0
124.470856 148.0
124.497826 156.0
124.529663 188.0
124.545494 132.0
124.567223 92.0
124.621033 112.0
124.668716 96.0
124.694366 188.0
124.740402 128.0
124.771996 156.0
124.861122 64.0
124.979027 132.0
125.003502 220.0
125.019081 180.0
125.058243 1528.0
125.10144 164.0
125.119247 168.0
125.174919 156.0
125.192734 136.0
125.212776 136.0
125.230598 216.0
125.329308 208.0
125.428909 224.0
125.462761 220.0
125.587234 92.0
125.607147 168.0
125.667549 152.0
125.685966 152.0
125.798439 464.0
125.834953 164.0
125.894661 200.0
125.956978 144.0
125.980125 188.0
126.065842 308.0
126.125381 172.0
126.144768 196.0
126.187325 164.0
126.223755 128.0
126.249062 176.0
126.319931 188.0
126.380577 112.0
126.47657 232.0
126.501198 92.0
126.523582 108.0
126.563889 232.0
126.597481 120.0
126.656181 172.0
126.712585 184.0
126.754295 148.0
126.785667 224.0
126.827629 200.0
126.865417 208.0
126.933632 280.0
126.9897 240.0
127.012131 240.0
127.033646 156.0
127.056198 332.0
127.074371 140.0
127.13105 52.0
127.180428 216.0
127.214096 120.0
127.306786 216.0
127.342094 176.0
127.42746 156.0
127.490379 220.0
127.517693 104.0
127.562309 132.0
127.579826 148.0
127.676567 196.0
127.74958 212.0
127.76696 112.0
127.782707 160.0
127.807465 100.0
127.829964 172.0
127.865974 160.0
127.938004 196.0
127.972626 180.0
127.994293 148.0
128.012863 212.0
128.041595 124.0
128.062271 864.0
128.09935 188.0
128.197037 36.0
128.262405 352.0
128.291107 104.0
128.307495 260.0
128.368378 260.0
128.386414 184.0
128.406723 140.0
128.422501 256.0
128.458603 144.0
128.515762 96.0
128.582703 152.0
128.653839 140.0
128.749771 168.0
128.783661 188.0
128.826584 88.0
128.88533 128.0
128.92012 212.0
128.964417 168.0
128.98024 140.0
128.998337 156.0
129.025467 180.0
129.067841 708.0
129.113647 84.0
129.145309 164.0
129.181503 236.0
129.199615 108.0
129.301559 152.0
129.324066 176.0
129.354813 104.0
129.371384 412.0
129.462189 200.0
129.497025 220.0
129.510696 144.0
129.535416 112.0
129.552795 124.0
129.584503 152.0
129.616226 152.0
129.646393 116.0
129.663818 144.0
129.691025 196.0
129.723312 180.0
129.757401 184.0
129.870163 92.0
129.888306 384.0
129.947296 108.0
130.00856 112.0
130.03566 264.0
130.073837 200.0
130.115463 452.0
130.149887 480.0
130.181091 124.0
130.199265 180.0
130.232788 184.0
130.253784 196.0
130.303757 44.0
130.321945 176.0
130.395508 204.0
130.428757 116.0
130.496964 232.0
130.57428 100.0
130.601578 132.0
130.619766 168.0
130.738083 220.0
130.75946 132.0
130.791107 216.0
130.839401 160.0
130.87468 160.0
130.911118 56.0
130.949829 140.0
130.968048 80.0
130.990829 140.0
131.006775 124.0
131.047821 1340.0
131.081573 164.0
131.135529 248.0
131.171768 180.0
131.214172 192.0
131.230133 400.0
131.268906 52.0
131.314514 224.0
131.362991 220.0
131.38707 144.0
131.428589 124.0
131.466675 400.0
131.499329 144.0
131.547516 148.0
131.583801 156.0
131.666 60.0
131.727676 152.0
131.825928 128.0
131.926498 132.0
131.969269 176.0
131.9785 124.0
132.006088 184.0
132.056656 900.0
132.08429 192.0
132.16066 212.0
132.237595 216.0
132.25592 72.0
132.308563 84.0
132.358932 208.0
132.384125 200.0
132.416 144.0
132.457428 180.0
132.493454 176.0
132.5159 192.0
132.539902 180.0
132.643036 100.0
132.66597 220.0
132.682022 200.0
132.703659 200.0
132.749817 148.0
132.759766 84.0
132.766602 140.0
132.794388 152.0
132.847137 104.0
132.867798 184.0
132.913681 156.0
132.941223 120.0
132.971054 92.0
133.0009 232.0
133.026657 732.0
133.063431 2288.0
133.095459 208.0
133.100052 168.0
133.159332 44.0
133.191483 236.0
133.207565 148.0
133.242035 296.0
133.292648 136.0
133.337952 156.0
133.352325 196.0
133.380951 152.0
133.437393 228.0
133.478775 128.0
133.538574 108.0
133.575378 180.0
133.662811 140.0
133.713654 172.0
133.745667 176.0
133.770981 124.0
133.840973 156.0
133.867691 128.0
133.903442 156.0
133.973648 144.0
134.001297 204.0
134.033722 704.0
134.069901 1220.0
134.123444 64.0
134.178299 188.0
134.225937 44.0
134.246506 172.0
134.317139 172.0
134.337204 184.0
134.39328 192.0
134.424576 140.0
134.477966 304.0
134.51329 120.0
134.598724 136.0
134.674927 216.0
134.704224 136.0
134.712784 220.0
134.781204 140.0
134.808319 192.0
134.8228 304.0
134.882904 144.0
134.977692 168.0
135.000824 164.0
135.042923 5108.0
135.079361 3984.0
135.113861 228.0
135.174728 264.0
135.202103 64.0
135.22525 140.0
135.252457 196.0
135.276169 128.0
135.336365 152.0
135.353699 136.0
135.38736 172.0
135.408157 120.0
135.429001 136.0
135.46698 144.0
135.496185 80.0
135.530945 176.0
135.597672 188.0
135.648468 164.0
135.70372 384.0
135.721939 100.0
135.767395 148.0
135.790588 132.0
135.893463 148.0
135.919662 284.0
135.986298 104.0
136.051163 14600.0
136.085617 824.0
136.113174 92.0
136.130539 76.0
136.192841 280.0
136.231644 136.0
136.289719 148.0
136.338531 192.0
136.366409 152.0
136.44783 160.0
136.466766 72.0
136.474075 120.0
136.501266 148.0
136.539352 116.0
136.589645 216.0
136.632523 200.0
136.645126 52.0
136.649506 192.0
136.680679 152.0
136.708313 108.0
136.74321 188.0
136.78476 184.0
136.8237 136.0
136.881866 180.0
136.889053 56.0
136.948257 136.0
136.994949 212.0
137.022247 11280.0
137.057831 6732.0
137.120544 112.0
137.14151 56.0
137.17337 156.0
137.217178 132.0
137.261063 144.0
137.279068 120.0
137.307068 36.0
137.336716 180.0
137.410965 192.0
137.416794 104.0
137.424805 196.0
137.498383 128.0
137.528717 280.0
137.557602 172.0
137.672821 336.0
137.685776 224.0
137.713181 168.0
137.731873 132.0
137.752899 40.0
137.8078 104.0
137.838364 268.0
137.86972 120.0
137.911804 132.0
137.937515 72.0
137.972137 188.0
138.02594 1112.0
138.063522 1924.0
138.094986 420.0
138.128784 176.0
138.174728 112.0
138.204132 44.0
138.22052 156.0
138.250946 124.0
138.28064 128.0
138.302429 104.0
138.356491 168.0
138.411926 208.0
138.471024 140.0
138.494446 132.0
138.578339 172.0
138.597519 188.0
138.616272 84.0
138.656113 164.0
138.677216 68.0
138.712372 124.0
138.775665 212.0
138.792084 132.0
138.827255 108.0
138.855408 100.0
138.887283 196.0
138.909744 144.0
138.951584 168.0
138.97406 268.0
139.010025 216.0
139.01825 196.0
139.03627 168.0
139.074677 8580.0
139.121017 164.0
139.18161 148.0
139.206879 328.0
139.240936 124.0
139.313141 276.0
139.341904 164.0
139.375015 368.0
139.404785 152.0
139.510559 128.0
139.553467 176.0
139.562164 192.0
139.570343 168.0
139.577469 96.0
139.5896 116.0
139.639893 128.0
139.66925 204.0
139.710464 160.0
139.781052 56.0
139.805115 164.0
139.832825 184.0
139.867325 76.0
139.892578 156.0
139.916061 336.0
139.955246 216.0
139.986328 140.0
140.012695 152.0
140.042648 180.0
140.078995 624.0
140.106491 37728.0
140.133423 160.0
140.141388 244.0
140.183746 88.0
140.208267 128.0
140.238922 116.0
140.24762 160.0
140.265274 156.0
140.29689 36.0
140.332245 72.0
140.354492 176.0
140.396744 184.0
140.429932 76.0
140.450165 176.0
140.526245 64.0
140.547943 72.0
140.579315 152.0
140.628021 216.0
140.645325 188.0
140.756989 200.0
140.773514 188.0
140.808945 56.0
140.847214 196.0
140.867996 140.0
140.915253 28.0
140.96843 168.0
141.015854 144.0
141.035782 52.0
141.054688 156.0
141.085251 140.0
141.109726 1772.0
141.149261 48.0
141.175278 112.0
141.211868 120.0
141.237869 172.0
141.254486 188.0
141.291183 220.0
141.37793 140.0
141.418686 208.0
141.475784 160.0
141.516037 184.0
141.553925 152.0
141.587082 44.0
141.668106 176.0
141.736328 40.0
141.760025 140.0
141.857208 168.0
141.888031 44.0
141.942566 188.0
141.976868 152.0
142.020035 156.0
142.072281 180.0
142.108673 144.0
142.175049 52.0
142.207657 180.0
142.235703 116.0
142.279495 128.0
142.322235 136.0
142.343613 160.0
142.364975 248.0
142.383972 168.0
142.415192 112.0
142.44574 148.0
142.507507 92.0
142.576431 96.0
142.600357 60.0
142.628708 140.0
142.688156 140.0
142.74556 140.0
142.85939 100.0
142.933151 132.0
143.0159 192.0
143.053787 256.0
143.138733 88.0
143.161682 180.0
143.191086 128.0
143.225998 128.0
143.300949 112.0
143.349884 168.0
143.397552 132.0
143.433304 52.0
143.459534 208.0
143.514359 152.0
143.569214 284.0
143.694611 148.0
143.74176 188.0
143.8078 108.0
143.844772 180.0
143.884201 168.0
143.97493 152.0
144.054352 1104.0
144.120819 216.0
144.142166 156.0
144.201462 188.0
144.278412 140.0
144.297531 148.0
144.405151 172.0
144.472122 160.0
144.521225 116.0
144.567841 156.0
144.665985 76.0
144.694702 196.0
144.749786 136.0
144.766541 132.0
144.803925 132.0
144.852768 188.0
144.874329 204.0
144.946213 172.0
144.987625 216.0
145.025299 36.0
145.063324 1536.0
145.248306 132.0
145.272293 196.0
145.335831 252.0
145.340195 120.0
145.350739 168.0
145.423477 252.0
145.481094 144.0
145.509903 160.0
145.548325 104.0
145.607315 120.0
145.654282 168.0
145.742889 196.0
145.790955 152.0
145.812576 80.0
145.841431 160.0
145.896713 140.0
145.919098 180.0
145.947205 180.0
146.007324 108.0
146.032349 736.0
146.071564 2256.0
146.110764 144.0
146.175735 164.0
146.202881 176.0
146.234695 80.0
146.370728 196.0
146.442978 220.0
146.498383 208.0
146.582031 156.0
146.623672 56.0
146.667068 160.0
146.688385 176.0
146.72493 168.0
146.782791 212.0
146.806915 56.0
146.826202 120.0
146.855148 160.0
146.876862 160.0
146.938293 180.0
146.97435 252.0
147.00473 164.0
147.042114 2096.0
147.07811 4124.0
147.13472 192.0
147.2276 64.0
147.253403 76.0
147.295547 252.0
147.342789 152.0
147.435196 180.0
147.470123 220.0
147.487122 132.0
147.505371 144.0
147.531891 180.0
147.555481 180.0
147.575745 104.0
147.671555 200.0
147.710953 128.0
147.773163 64.0
147.816711 84.0
147.836075 116.0
147.932892 100.0
147.976471 228.0
148.011322 488.0
148.049026 1892.0
148.086868 1320.0
148.11969 148.0
148.170242 64.0
148.196884 184.0
148.214493 136.0
148.28656 112.0
148.354675 116.0
148.40921 88.0
148.444138 180.0
148.473251 76.0
148.582413 48.0
148.606674 116.0
148.633362 56.0
148.669754 136.0
148.733215 360.0
148.796356 236.0
148.802734 36.0
148.812607 228.0
148.832413 136.0
148.873901 144.0
148.890686 188.0
148.992538 164.0
149.019714 284.0
149.060837 2900.0
149.094009 472.0
149.129242 176.0
149.162903 112.0
149.238205 140.0
149.26738 96.0
149.303864 180.0
149.319901 148.0
149.326416 204.0
149.363953 312.0
149.427185 184.0
149.510666 148.0
149.549606 60.0
149.626038 164.0
149.654282 60.0
149.688187 152.0
149.7043 164.0
149.749268 196.0
149.78093 116.0
149.863007 64.0
149.877487 120.0
149.904373 216.0
149.916931 156.0
149.925095 188.0
149.953934 328.0
149.997803 112.0
150.030167 2624.0
150.066467 3916.0
150.094543 468.0
150.136795 172.0
150.269089 188.0
150.347336 148.0
150.367966 176.0
150.40274 212.0
150.434479 56.0
150.451569 124.0
150.537033 60.0
150.560913 144.0
150.633041 144.0
150.663361 204.0
150.681152 380.0
150.705582 36.0
150.756897 104.0
150.808228 156.0
150.831299 256.0
150.871063 108.0
150.954926 128.0
151.00174 168.0
151.037628 7068.0
151.07431 12700.0
151.10881 128.0
151.145248 180.0
151.210236 56.0
151.254715 148.0
151.293808 112.0
151.314621 48.0
151.331757 52.0
151.365097 72.0
151.412582 52.0
151.500153 128.0
151.546082 88.0
151.56691 100.0
151.606125 132.0
151.634918 64.0
151.655151 132.0
151.726242 64.0
151.743393 64.0
151.775269 48.0
151.802246 184.0
151.82663 136.0
151.915085 216.0
151.938721 132.0
151.970413 144.0
151.993591 268.0
152.017914 264.0
152.045944 37648.0
152.075455 1268.0
152.120468 208.0
152.140137 232.0
152.160507 48.0
152.201782 84.0
152.228012 152.0
152.255554 68.0
152.344559 144.0
152.397354 216.0
152.417648 128.0
152.44899 152.0
152.466934 156.0
152.533936 100.0
152.551132 204.0
152.576096 80.0
152.616028 112.0
152.645798 128.0
152.665771 168.0
152.691147 132.0
152.71344 168.0
152.730774 172.0
152.769958 116.0
152.80632 116.0
152.836899 280.0
152.894638 80.0
152.916992 196.0
152.953186 132.0
152.986694 172.0
153.022812 284.0
153.050827 3804.0
153.086975 1420.0
153.129944 84.0
153.148453 60.0
153.188522 244.0
153.221115 208.0
153.272293 132.0
153.32222 248.0
153.361023 44.0
153.378281 200.0
153.439972 160.0
153.497498 168.0
153.533508 96.0
153.543747 36.0
153.549988 100.0
153.607605 92.0
153.635178 256.0
153.653519 112.0
153.711243 124.0
153.735916 132.0
153.775406 36.0
153.832184 184.0
153.849457 148.0
153.876617 108.0
153.923538 100.0
153.958115 112.0
154.024796 196.0
154.057419 656.0
154.080994 128.0
154.099869 176.0
154.131027 104.0
154.148331 192.0
154.206299 188.0
154.254044 200.0
154.313461 144.0
154.343628 104.0
154.385666 184.0
154.402969 164.0
154.437607 224.0
154.463547 140.0
154.517593 204.0
154.53656 136.0
154.568939 136.0
154.687531 220.0
154.753052 156.0
154.782822 156.0
154.848892 172.0
154.880676 76.0
154.932709 204.0
154.962433 420.0
155.005386 128.0
155.032959 1780.0
155.067993 976.0
155.158249 96.0
155.299591 132.0
155.36409 100.0
155.383942 52.0
155.438538 56.0
155.469879 76.0
155.484116 76.0
155.510498 208.0
155.580017 124.0
155.612289 80.0
155.652023 84.0
155.674362 220.0
155.78862 112.0
155.806015 116.0
155.840805 136.0
155.865646 176.0
155.899719 164.0
155.920319 100.0
155.961441 132.0
155.996918 152.0
156.032761 196.0
156.091858 136.0
156.131653 156.0
156.186371 124.0
156.288376 252.0
156.328186 116.0
156.36055 168.0
156.380463 92.0
156.435226 160.0
156.472565 176.0
156.514893 132.0
156.569687 136.0
156.592102 92.0
156.619507 160.0
156.651886 68.0
156.686768 180.0
156.712982 228.0
156.727249 160.0
156.752701 164.0
156.786438 124.0
156.813858 124.0
156.833801 96.0
156.895676 160.0
156.959579 124.0
156.984299 188.0
157.005829 40.0
157.060593 472.0
157.08815 144.0
157.128067 228.0
157.144653 104.0
157.177963 200.0
157.207916 196.0
157.242859 124.0
157.26532 92.0
157.330231 164.0
157.355194 180.0
157.442596 80.0
157.494217 204.0
157.574982 72.0
157.627457 40.0
157.677444 120.0
157.732437 168.0
157.752441 156.0
157.848328 160.0
157.910934 196.0
157.955811 308.0
158.007538 76.0
158.035049 40.0
158.070694 300.0
158.112625 172.0
158.197327 216.0
158.206863 180.0
158.301666 160.0
158.347977 124.0
158.384384 140.0
158.448181 160.0
158.510834 152.0
158.565964 132.0
158.656204 84.0
158.764023 224.0
158.858231 108.0
158.874405 244.0
158.90451 160.0
159.044357 260.0
159.079071 976.0
159.121857 188.0
159.188156 144.0
159.205734 236.0
159.228333 120.0
159.270401 156.0
159.336365 96.0
159.426819 196.0
159.54747 40.0
159.590225 132.0
159.648056 132.0
159.665665 76.0
159.700867 244.0
159.726028 124.0
159.748672 40.0
159.7724 212.0
159.795151 260.0
159.835083 184.0
159.879517 168.0
159.965088 184.0
160.049088 180.0
160.086075 832.0
160.141357 204.0
160.186707 124.0
160.232056 148.0
160.28418 204.0
160.327805 184.0
160.355621 120.0
160.394836 188.0
160.412186 84.0
160.443756 76.0
160.461823 172.0
160.501755 172.0
160.519409 116.0
160.625336 144.0
160.66066 112.0
160.70607 148.0
160.78978 184.0
160.81073 136.0
160.816162 64.0
160.82576 112.0
160.87027 200.0
160.906479 180.0
160.983215 228.0
160.991837 136.0
161.002106 148.0
161.058487 3552.0
161.094879 588.0
161.180405 180.0
161.223755 196.0
161.337494 56.0
161.357727 168.0
161.37796 164.0
161.458878 176.0
161.489227 92.0
161.524643 76.0
161.572708 224.0
161.621155 160.0
161.678986 172.0
161.711884 172.0
161.729614 116.0
161.75737 128.0
161.782776 32.0
161.873917 180.0
161.899246 176.0
161.96904 180.0
161.995499 160.0
162.027451 292.0
162.067017 2332.0
162.109879 164.0
162.148315 156.0
162.188095 108.0
162.287857 148.0
162.337677 40.0
162.38736 224.0
162.426453 188.0
162.474655 332.0
162.5009 152.0
162.601532 132.0
162.65358 156.0
162.738617 152.0
162.771637 196.0
162.819885 56.0
162.838852 196.0
162.870682 228.0
162.908783 52.0
162.93927 188.0
162.979935 320.0
163.001389 152.0
163.03714 5640.0
163.074615 5152.0
163.130707 172.0
163.217896 136.0
163.251938 240.0
163.285492 208.0
163.315247 192.0
163.39035 48.0
163.414734 120.0
163.437637 56.0
163.529251 144.0
163.561676 184.0
163.600525 180.0
163.62854 80.0
163.651459 44.0
163.679459 104.0
163.71257 40.0
163.880692 100.0
163.921066 180.0
163.969894 184.0
163.998322 208.0
164.044373 628.0
164.080872 1444.0
164.122055 168.0
164.178253 236.0
164.261673 140.0
164.286087 48.0
164.337112 92.0
164.361191 180.0
164.446121 160.0
164.480026 188.0
164.559174 104.0
164.661331 168.0
164.730286 212.0
164.776016 152.0
164.878738 172.0
164.914276 196.0
164.967148 300.0
165.022476 204.0
165.053482 7532.0
165.089813 9100.0
165.158707 284.0
165.200684 180.0
165.238327 184.0
165.245819 56.0
165.296722 120.0
165.341415 52.0
165.406494 180.0
165.441101 204.0
165.469406 124.0
165.507812 56.0
165.553909 152.0
165.594894 52.0
165.612823 148.0
165.702484 180.0
165.742813 136.0
165.761414 204.0
165.781403 80.0
165.848557 196.0
165.866501 184.0
166.022217 244.0
166.058472 2868.0
166.094055 476.0
166.12294 76.0
166.205734 196.0
166.233276 192.0
166.29744 100.0
166.322632 128.0
166.405258 60.0
166.441086 156.0
166.465805 76.0
166.544876 120.0
166.590179 52.0
166.625122 96.0
166.644135 192.0
166.662125 92.0
166.731506 128.0
166.884079 160.0
166.950043 200.0
166.991913 172.0
167.038818 240.0
167.068405 6908.0
167.10701 180.0
167.189301 88.0
167.227905 136.0
167.245926 144.0
167.281967 140.0
167.334259 140.0
167.406799 236.0
167.449341 232.0
167.472519 84.0
167.5 168.0
167.531769 56.0
167.552155 136.0
167.585876 52.0
167.676071 172.0
167.727615 272.0
167.776596 208.0
167.815277 252.0
167.85817 196.0
167.877777 168.0
167.905533 116.0
167.926163 76.0
167.949387 200.0
167.977753 124.0
168.003555 172.0
168.044479 284.0
168.076828 3416.0
168.127411 40.0
168.165085 168.0
168.189362 132.0
168.243637 168.0
168.274078 44.0
168.304565 128.0
168.35202 120.0
168.370102 168.0
168.433228 184.0
168.463089 44.0
168.612961 252.0
168.643982 48.0
168.680176 132.0
168.731873 172.0
168.80687 140.0
168.858582 176.0
168.881866 176.0
168.90773 148.0
168.951706 144.0
169.045837 288.0
169.083664 2168.0
169.209396 128.0
169.241913 196.0
169.261887 72.0
169.342209 108.0
169.355545 160.0
169.385284 284.0
169.408386 160.0
169.522659 128.0
169.562836 212.0
169.599121 124.0
169.619858 228.0
169.645782 128.0
169.684677 108.0
169.754684 136.0
169.814331 164.0
169.837677 80.0
169.860428 104.0
169.897354 224.0
169.970001 56.0
169.988159 228.0
170.060837 140.0
170.088593 212.0
170.128326 212.0
170.193237 212.0
170.324966 100.0
170.350693 152.0
170.401947 124.0
170.429611 144.0
170.472946 148.0
170.479919 100.0
170.487976 184.0
170.523178 224.0
170.543961 176.0
170.582962 140.0
170.606354 180.0
170.650558 84.0
170.71817 144.0
170.788391 60.0
170.812546 140.0
170.837418 80.0
170.864563 284.0
170.892822 168.0
170.926285 100.0
170.964249 144.0
171.019974 44.0
171.080688 112.0
171.153305 280.0
171.176193 152.0
171.196014 104.0
171.234406 112.0
171.319443 136.0
171.353317 172.0
171.470581 144.0
171.499252 164.0
171.535751 96.0
171.557358 208.0
171.629608 120.0
171.663513 56.0
171.68959 48.0
171.731323 304.0
171.780884 152.0
171.80957 80.0
171.835114 112.0
171.98703 120.0
172.052185 284.0
172.074356 160.0
172.138458 132.0
172.280869 408.0
172.336761 140.0
172.394485 200.0
172.483643 176.0
172.543106 140.0
172.579529 192.0
172.587097 152.0
172.635757 124.0
172.71608 196.0
172.794556 124.0
172.857361 100.0
172.891388 116.0
172.990845 188.0
173.011795 88.0
173.057281 828.0
173.143082 88.0
173.169968 168.0
173.271072 180.0
173.32251 88.0
173.388992 148.0
173.451904 108.0
173.571976 156.0
173.601486 168.0
173.630203 184.0
173.680038 136.0
173.729919 252.0
173.782364 140.0
173.816467 156.0
173.868958 128.0
173.93457 80.0
174.031723 188.0
174.066299 420.0
174.132843 160.0
174.155151 128.0
174.199814 140.0
174.258881 196.0
174.441574 216.0
174.467865 244.0
174.562531 148.0
174.615128 124.0
174.636169 200.0
174.745453 336.0
174.813507 168.0
174.891403 164.0
174.91246 40.0
174.936157 172.0
174.95459 40.0
174.994965 188.0
175.033997 344.0
175.074173 3268.0
175.115219 132.0
175.18634 52.0
175.254837 136.0
175.344437 204.0
175.370804 168.0
175.402435 140.0
175.445694 292.0
175.524368 168.0
175.551483 188.0
175.681961 164.0
175.716263 184.0
175.798065 172.0
175.816544 176.0
175.873291 208.0
175.937973 128.0
175.984848 172.0
176.01178 96.0
176.046768 2824.0
176.081726 1688.0
176.135437 148.0
176.225861 108.0
176.248505 364.0
176.339493 112.0
176.404312 92.0
176.424088 44.0
176.445236 56.0
176.467194 108.0
176.516632 80.0
176.558945 56.0
176.64888 160.0
176.683258 128.0
176.746765 240.0
176.813354 148.0
176.858841 356.0
176.877197 172.0
176.92514 204.0
176.935944 136.0
176.948578 132.0
176.954361 168.0
176.969604 212.0
177.006195 276.0
177.013153 140.0
177.023743 232.0
177.053574 4664.0
177.089645 8444.0
177.157166 172.0
177.184937 132.0
177.225525 164.0
177.261047 176.0
177.308197 164.0
177.347961 156.0
177.369171 224.0
177.393021 92.0
177.41423 148.0
177.464615 292.0
177.518234 152.0
177.597214 68.0
177.668839 52.0
177.737686 152.0
177.787445 200.0
177.806824 180.0
177.833359 216.0
177.932526 124.0
177.974075 196.0
178.025726 88.0
178.03093 136.0
178.061249 16620.0
178.096207 3236.0
178.159698 316.0
178.195862 96.0
178.233398 248.0
178.260956 144.0
178.301361 156.0
178.374786 184.0
178.433746 228.0
178.470963 152.0
178.505539 120.0
178.558731 56.0
178.617249 216.0
178.659805 96.0
178.677231 116.0
178.710358 148.0
178.731644 216.0
178.781219 280.0
178.814148 220.0
178.840759 40.0
178.883362 92.0
178.90535 68.0
178.938782 136.0
178.963226 52.0
179.03331 584.0
179.067886 6812.0
179.104752 1928.0
179.166504 132.0
179.191406 132.0
179.244461 76.0
179.267532 68.0
179.293549 140.0
179.320206 72.0
179.349442 116.0
179.355682 168.0
179.396774 176.0
179.440536 172.0
179.485504 180.0
179.51683 64.0
179.529053 144.0
179.562836 140.0
179.588791 208.0
179.618851 172.0
179.653412 184.0
179.683594 160.0
179.71994 180.0
179.72522 60.0
179.752106 184.0
179.798965 108.0
179.86058 116.0
179.880096 196.0
179.884918 176.0
179.896027 144.0
179.939987 156.0
179.962875 204.0
179.993073 284.0
180.041306 57992.0
180.074493 2556.0
180.110611 644.0
180.15506 128.0
180.188446 56.0
180.221893 136.0
180.259262 56.0
180.290085 268.0
180.322357 164.0
180.351791 168.0
180.398636 48.0
180.421967 88.0
180.439331 196.0
180.459396 44.0
180.479645 60.0
180.533218 48.0
180.607285 232.0
180.636841 52.0
180.658142 112.0
180.677887 280.0
180.724899 160.0
180.748734 76.0
180.769302 56.0
180.786484 144.0
180.807388 148.0
180.863007 220.0
180.901367 100.0
180.969528 240.0
181.009933 180.0
181.01651 52.0
181.045456 4976.0
181.085052 58720.0
181.141586 128.0
181.148483 160.0
181.204926 76.0
181.233536 96.0
181.255508 28.0
181.280533 72.0
181.309143 76.0
181.346725 68.0
181.366959 196.0
181.391434 96.0
181.407181 60.0
181.432907 320.0
181.460526 68.0
181.496384 80.0
181.523651 164.0
181.554123 136.0
181.572281 116.0
181.591995 204.0
181.630478 44.0
181.659988 132.0
181.692856 100.0
181.753891 112.0
181.788788 60.0
181.811279 156.0
181.841217 156.0
181.859695 76.0
181.920303 64.0
181.95108 80.0
181.984451 112.0
182.042953 456.0
182.08757 6264.0
182.142075 192.0
182.179382 136.0
182.219971 76.0
182.244965 132.0
182.266724 176.0
182.295547 68.0
182.32695 72.0
182.35788 76.0
182.389496 128.0
182.413834 208.0
182.460953 84.0
182.540878 112.0
182.578629 96.0
182.626236 188.0
182.708557 172.0
182.742722 76.0
182.785782 76.0
182.85054 212.0
182.942307 280.0
182.966019 152.0
182.990524 64.0
183.028854 164.0
183.091156 952.0
183.180222 104.0
183.227371 56.0
183.26239 56.0
183.295074 124.0
183.314606 124.0
183.35672 72.0
183.402542 128.0
183.461838 80.0
183.480713 240.0
183.522507 96.0
183.577789 136.0
183.610153 164.0
183.628922 96.0
183.701859 160.0
183.739639 68.0
183.792725 148.0
183.836777 28.0
183.896149 148.0
183.936646 84.0
184.002106 144.0
184.025726 72.0
184.065735 172.0
184.090546 124.0
184.109451 280.0
184.144562 164.0
184.20668 104.0
184.244507 120.0
184.306656 52.0
184.366104 88.0
184.40863 256.0
184.441788 92.0
184.47963 92.0
184.521606 212.0
184.593384 276.0
184.633759 88.0
184.661469 216.0
184.775452 180.0
184.806183 76.0
184.866425 68.0
184.904312 224.0
184.95575 140.0
184.993637 48.0
185.03154 172.0
185.072159 180.0
185.294266 108.0
185.314407 88.0
185.34845 28.0
185.435181 52.0
185.467712 40.0
185.525711 212.0
185.559875 68.0
185.641235 104.0
185.714462 164.0
185.744293 244.0
185.793121 172.0
185.820267 116.0
185.945084 164.0
186.00209 176.0
186.029236 156.0
186.048248 212.0
186.069962 160.0
186.145996 184.0
186.167725 188.0
186.191299 104.0
186.214478 204.0
186.238327 64.0
186.279083 128.0
186.341568 92.0
186.412216 168.0
186.48288 120.0
186.553558 192.0
186.610657 128.0
186.675919 176.0
186.72644 152.0
186.779266 112.0
186.880112 120.0
186.907135 164.0
186.9534 80.0
186.975174 128.0
187.075272 988.0
187.170685 172.0
187.2883 128.0
187.374878 216.0
187.438141 188.0
187.541718 160.0
187.577148 116.0
187.620773 128.0
187.648026 156.0
187.684753 128.0
187.718018 200.0
187.758865 200.0
187.778931 180.0
187.799179 136.0
187.828033 144.0
187.888046 176.0
187.944687 132.0
187.975357 52.0
187.994461 52.0
188.02449 204.0
188.043594 100.0
188.081253 488.0
188.147934 140.0
188.215317 124.0
188.240463 224.0
188.311661 176.0
188.378098 128.0
188.464157 44.0
188.514648 92.0
188.54068 152.0
188.745712 116.0
188.833221 168.0
188.860382 128.0
188.935593 160.0
188.964539 144.0
188.983688 44.0
189.021057 116.0
189.053543 10872.0
189.087921 920.0
189.127014 148.0
189.167053 120.0
189.194244 144.0
189.243149 148.0
189.273834 64.0
189.301224 192.0
189.331345 172.0
189.358734 60.0
189.377914 32.0
189.45015 124.0
189.492966 76.0
189.516052 208.0
189.535797 204.0
189.545715 128.0
189.636383 132.0
189.682068 100.0
189.70401 144.0
189.734161 64.0
189.757843 244.0
189.789001 64.0
189.816422 76.0
189.901443 152.0
190.057129 1096.0
190.097397 796.0
190.134201 96.0
190.147339 180.0
190.177032 108.0
190.244446 40.0
190.297348 300.0
190.406464 36.0
190.444489 128.0
190.479248 208.0
190.498749 248.0
190.560974 180.0
190.623505 176.0
190.659225 60.0
190.709946 204.0
190.860352 100.0
190.901154 164.0
190.929047 256.0
190.96991 56.0
191.005676 104.0
191.026611 204.0
191.069443 37684.0
191.099731 552.0
191.147095 160.0
191.179245 48.0
191.203125 172.0
191.225739 180.0
191.257767 72.0
191.305634 100.0
191.338669 144.0
191.376633 264.0
191.402008 52.0
191.451569 120.0
191.472443 164.0
191.50264 220.0
191.520462 192.0
191.574371 128.0
191.605667 196.0
191.624466 68.0
191.676498 80.0
191.731949 120.0
191.785995 296.0
191.834579 44.0
191.856033 160.0
191.892471 132.0
191.928314 56.0
191.973907 204.0
192.000015 136.0
192.041397 180.0
192.072662 6212.0
192.111862 316.0
192.143326 84.0
192.208603 236.0
192.231384 144.0
192.262909 140.0
192.300751 204.0
192.331116 40.0
192.363495 128.0
192.429276 144.0
192.473648 192.0
192.505325 84.0
192.524399 188.0
192.58461 212.0
192.623825 148.0
192.643173 100.0
192.662506 40.0
192.728821 96.0
192.748444 40.0
192.811722 156.0
192.848602 60.0
192.883591 120.0
192.913208 112.0
192.983124 48.0
193.03775 132.0
193.044693 180.0
193.081604 1932.0
193.122849 168.0
193.226791 116.0
193.253296 148.0
193.309753 100.0
193.359711 156.0
193.381485 120.0
193.403641 172.0
193.435471 164.0
193.4673 92.0
193.497757 168.0
193.53804 188.0
193.569748 52.0
193.632172 408.0
193.680542 144.0
193.744247 52.0
193.766418 96.0
193.852325 108.0
193.879288 304.0
193.909622 112.0
193.938232 44.0
193.960419 60.0
193.995712 332.0
194.057755 432.0
194.092163 3060.0
194.18779 52.0
194.226532 232.0
194.250961 176.0
194.27655 172.0
194.295975 256.0
194.351013 164.0
194.399796 312.0
194.412292 332.0
194.454971 136.0
194.502243 152.0
194.523209 120.0
194.561722 176.0
194.593765 136.0
194.624039 212.0
194.683624 84.0
194.715759 236.0
194.741882 108.0
194.752609 164.0
194.790405 124.0
194.836227 176.0
194.886429 324.0
194.921143 400.0
194.94931 268.0
194.989044 184.0
195.018738 536.0
195.027573 860.0
195.065292 264560.0
195.10022 16292.0
195.135147 376.0
195.164886 304.0
195.18689 92.0
195.194168 88.0
195.241257 168.0
195.26767 236.0
195.30835 284.0
195.331772 296.0
195.346344 228.0
195.352478 164.0
195.405716 120.0
195.431824 300.0
195.485382 508.0
195.522491 2400.0
195.569717 152.0
195.576477 168.0
195.634247 68.0
195.639786 92.0
195.651138 120.0
195.662399 124.0
195.695496 96.0
195.73407 288.0
195.77507 172.0
195.839905 112.0
195.882217 116.0
195.892715 68.0
195.93454 68.0
195.976898 72.0
195.981796 164.0
196.020325 112.0
196.067551 29428.0
196.102859 2264.0
196.140015 140.0
196.184753 176.0
196.214691 160.0
196.220047 196.0
196.278198 136.0
196.308533 44.0
196.351685 192.0
196.364655 204.0
196.37912 144.0
196.384003 144.0
196.422501 44.0
196.432266 92.0
196.465454 112.0
196.483887 48.0
196.5121 112.0
196.542877 128.0
196.57309 364.0
196.659683 104.0
196.699783 80.0
196.737396 100.0
196.765503 76.0
196.796326 60.0
196.81958 132.0
196.861221 56.0
196.88826 72.0
196.951508 156.0
196.962036 48.0
196.971802 76.0
197.010468 256.0
197.069702 3148.0
197.108627 480.0
197.158554 68.0
197.186279 48.0
197.202255 44.0
197.214615 68.0
197.236069 180.0
197.277405 100.0
197.297928 152.0
197.334824 140.0
197.370377 144.0
197.396942 200.0
197.437439 204.0
197.468521 240.0
197.484146 124.0
197.506058 268.0
197.549469 260.0
197.583633 240.0
197.606827 172.0
197.61911 52.0
197.624863 208.0
197.694397 140.0
197.732941 116.0
197.789688 136.0
197.812836 136.0
197.848938 84.0
197.877472 112.0
197.932068 80.0
197.955826 208.0
198.052002 1056.0
198.102585 96.0
198.16037 60.0
198.202393 68.0
198.229019 80.0
198.287964 128.0
198.342529 136.0
198.401123 80.0
198.408875 72.0
198.449066 184.0
198.50795 72.0
198.537186 160.0
198.561646 108.0
198.662216 140.0
198.699829 168.0
198.743576 84.0
198.79129 40.0
198.869873 120.0
199.010239 104.0
199.052979 208.0
199.075577 164.0
199.221802 184.0
199.24617 92.0
199.277084 156.0
199.456955 100.0
199.479431 88.0
199.589508 168.0
199.67627 152.0
199.726898 128.0
199.783157 60.0
199.814392 80.0
200.018982 60.0
200.080521 124.0
200.151886 28.0
200.191299 32.0
200.257065 104.0
200.29834 120.0
200.405197 60.0
200.433563 76.0
200.692902 88.0
200.712646 60.0
200.769043 64.0
200.788788 196.0
200.823364 168.0
200.952499 124.0
200.983444 68.0
201.006012 148.0
201.118103 100.0
201.195129 144.0
201.237473 196.0
201.28653 76.0
201.375854 92.0
201.487946 148.0
201.553848 160.0
201.582108 72.0
201.664062 104.0
201.717773 96.0
201.757355 140.0
201.791275 148.0
201.850662 152.0
201.88176 156.0
201.997726 32.0
202.029617 168.0
202.044266 80.0
202.06514 116.0
202.113739 52.0
202.2043 72.0
202.306198 112.0
202.442108 108.0
202.494034 120.0
202.521408 52.0
202.680069 44.0
202.705566 48.0
202.735138 92.0
202.779266 84.0
202.844452 72.0
203.070114 1024.0
203.100876 160.0
203.249329 160.0
203.278412 204.0
203.383423 52.0
203.513565 124.0
203.548096 32.0
203.590698 160.0
203.667389 168.0
203.789551 112.0
203.934479 148.0
203.991333 156.0
204.016922 132.0
204.077011 10968.0
204.139786 112.0
204.176163 28.0
204.204605 68.0
204.24408 172.0
204.278564 40.0
204.353165 108.0
204.406601 64.0
204.489136 64.0
204.640015 100.0
204.665634 32.0
204.719574 132.0
204.727463 124.0
204.735229 220.0
204.789322 176.0
204.856461 68.0
204.967575 76.0
205.01033 144.0
205.079956 1076.0
205.244095 120.0
205.269745 36.0
205.292572 52.0
205.369568 108.0
205.458008 68.0
205.490112 64.0
205.592117 64.0
205.689163 112.0
205.760544 92.0
205.78624 168.0
205.816528 144.0
205.839706 116.0
205.880463 72.0
205.941757 96.0
205.991867 220.0
206.055099 148.0
206.09021 972.0
206.117584 108.0
206.171875 68.0
206.206177 56.0
206.246201 92.0
206.276306 112.0
206.30777 84.0
206.337128 104.0
206.406296 108.0
206.453125 64.0
206.535004 68.0
206.569321 132.0
206.606522 48.0
206.639755 168.0
206.670486 112.0
206.733566 168.0
206.783936 88.0
206.812561 112.0
206.838318 60.0
206.859436 192.0
206.914444 148.0
206.934753 52.0
206.955704 60.0
206.976654 164.0
207.01297 100.0
207.061539 684.0
207.099136 1988.0
207.199158 104.0
207.293716 64.0
207.49437 88.0
207.597595 96.0
207.68364 116.0
207.715195 72.0
207.77832 180.0
207.916046 36.0
207.98494 36.0
208.007904 124.0
208.071503 132.0
208.10614 280.0
208.277832 236.0
208.31517 56.0
208.338165 108.0
208.401764 116.0
208.50769 48.0
208.644684 92.0
208.737686 144.0
208.760696 72.0
208.843613 116.0
208.864243 68.0
208.947662 80.0
209.022476 144.0
209.057007 172.0
209.116272 5680.0
209.186539 96.0
209.321869 28.0
209.463898 204.0
209.488922 104.0
209.526718 164.0
209.560944 148.0
209.62146 92.0
209.644516 148.0
209.690628 64.0
209.803055 192.0
209.831879 124.0
209.903488 216.0
210.080826 88.0
210.122009 940.0
210.257675 68.0
210.316544 52.0
210.365616 48.0
210.385818 44.0
210.432022 44.0
210.455124 56.0
210.524429 116.0
210.551376 60.0
210.714584 140.0
210.76709 212.0
210.91449 56.0
211.055511 36.0
211.120148 152.0
211.192078 96.0
211.278854 44.0
211.400391 28.0
211.523956 116.0
211.655136 48.0
211.678299 64.0
211.744919 64.0
211.826019 116.0
211.907135 176.0
212.108444 104.0
212.191971 132.0
212.214386 172.0
212.246277 128.0
212.330383 28.0
212.521835 208.0
212.54216 84.0
212.566788 172.0
212.742432 48.0
212.936981 76.0
213.08223 120.0
213.114197 120.0
213.137436 128.0
213.253677 44.0
213.34816 40.0
213.401947 136.0
213.608444 84.0
213.841232 92.0
213.943115 208.0
214.010086 144.0
214.0392 148.0
214.126572 128.0
214.164429 60.0
214.385864 44.0
214.499542 124.0
214.601578 80.0
214.77948 196.0
214.963287 128.0
215.103394 112.0
215.211411 112.0
215.290253 44.0
215.512268 172.0
216.026855 136.0
216.08876 100.0
216.155594 300.0
216.334137 76.0
216.511444 36.0
216.653351 176.0
216.881927 164.0
217.084045 184.0
217.131165 64.0
217.18689 260.0
217.483261 68.0
217.694641 128.0
217.905075 132.0
217.982544 44.0
218.093979 328.0
218.117752 40.0
218.285339 44.0
218.370621 76.0
218.585388 112.0
218.730316 100.0
218.92099 172.0
218.976944 204.0
219.101822 1276.0
219.454361 164.0
219.749313 144.0
219.967712 56.0
220.105835 300.0
220.138962 184.0
220.395966 128.0
220.496445 268.0
220.568451 176.0
220.700424 60.0
220.90451 104.0
221.082855 420.0
221.115601 1536.0
221.188599 244.0
221.292221 164.0
221.354401 200.0
221.523224 108.0
221.71582 64.0
221.76622 96.0
221.816605 200.0
221.947052 148.0
221.979675 164.0
222.047882 104.0
222.087509 4452.0
222.160614 28.0
222.181381 44.0
222.273361 200.0
222.347549 76.0
222.433624 68.0
222.462616 84.0
222.504883 60.0
222.677124 52.0
222.947479 88.0
222.972046 228.0
222.990631 124.0
223.012878 88.0
223.089966 348.0
223.1147 252.0
223.12323 184.0
223.188278 108.0
223.334 116.0
223.390533 176.0
223.429199 124.0
223.470856 152.0
223.640488 64.0
223.950165 48.0
224.038513 108.0
224.298798 48.0
224.459793 164.0
224.585052 168.0
224.668579 208.0
224.943146 64.0
225.119308 144.0
225.268646 156.0
225.289566 92.0
225.361267 180.0
225.684097 112.0
225.8396 112.0
225.86055 420.0
225.914383 40.0
226.354385 112.0
226.492157 108.0
227.004669 208.0
227.124634 56.0
227.181641 164.0
227.205643 120.0
227.388687 124.0
227.598831 44.0
227.836121 144.0
227.947296 176.0
228.103592 136.0
228.136658 152.0
228.404297 200.0
228.446411 112.0
228.861755 44.0
228.95813 124.0
229.105728 112.0
229.13887 156.0
229.159958 220.0
229.184067 236.0
229.256393 64.0
229.603088 56.0
230.040619 216.0
230.236893 120.0
230.415115 120.0
230.472519 56.0
230.496704 132.0
230.520874 200.0
230.617584 120.0
230.687119 108.0
230.950195 76.0
231.267914 120.0
232.095001 116.0
232.135574 164.0
232.374054 56.0
232.829407 164.0
232.966782 176.0
233.06636 104.0
233.209198 160.0
233.333832 208.0
233.45546 152.0
233.498047 192.0
233.586258 108.0
233.747513 132.0
233.881424 120.0
234.106735 120.0
234.140228 104.0
234.277313 156.0
234.393097 212.0
234.493668 68.0
234.661331 60.0
234.929718 92.0
234.954132 80.0
235.16774 36.0
235.201324 40.0
235.353973 40.0
235.426559 88.0
235.674698 64.0
235.729706 64.0
235.752701 136.0
235.790833 224.0
235.818329 68.0
235.877548 148.0
235.917404 244.0
235.962021 84.0
236.035828 116.0
236.084335 168.0
236.114914 160.0
236.228088 120.0
236.264801 208.0
236.287018 160.0
236.316605 244.0
236.371887 176.0
236.444595 144.0
236.506226 112.0
236.510849 208.0
236.522369 168.0
236.57872 312.0
236.604523 164.0
236.631287 108.0
236.703674 168.0
236.735245 164.0
236.794388 92.0
236.851181 44.0
236.890244 124.0
236.91806 128.0
236.949799 292.0
236.95723 200.0
236.999374 276.0
237.035477 256.0
237.069382 324.0
237.112 146056.0
237.184662 208.0
237.213867 140.0
237.234329 48.0
237.269135 76.0
237.289673 64.0
237.323624 132.0
237.345398 84.0
237.355865 60.0
237.367264 60.0
237.378342 120.0
237.394577 24.0
237.404083 120.0
237.438385 72.0
237.462112 56.0
237.471634 64.0
237.479996 132.0
237.517685 104.0
237.528702 92.0
237.549881 200.0
237.58638 44.0
237.616806 716.0
237.651443 84.0
237.683258 196.0
237.70546 68.0
237.719391 56.0
237.730606 60.0
237.772751 80.0
237.80983 132.0
237.8461 156.0
237.934219 188.0
237.986771 216.0
238.048752 116.0
238.114227 18336.0
238.222382 152.0
238.267059 60.0
238.306778 44.0
238.328094 64.0
238.348511 128.0
238.399582 60.0
238.432007 64.0
238.477341 56.0
238.510895 148.0
238.5616 92.0
238.570755 72.0
238.587082 112.0
238.612991 160.0
238.647598 100.0
238.676437 80.0
238.774048 52.0
238.795578 40.0
238.82019 64.0
238.845352 52.0
238.875549 40.0
238.917984 116.0
238.940903 92.0
238.971115 64.0
239.041702 104.0
239.072479 108.0
239.116669 1620.0
239.174606 44.0
239.210983 160.0
239.246902 84.0
239.25563 160.0
239.342957 148.0
239.396317 228.0
239.443802 72.0
239.468048 108.0
239.497375 104.0
239.551315 104.0
239.594513 112.0
239.632263 168.0
239.653976 72.0
239.692703 100.0
239.713226 252.0
239.775482 168.0
239.821472 112.0
239.862671 104.0
239.917923 264.0
239.939407 256.0
239.978134 104.0
240.012894 88.0
240.040665 196.0
240.131897 172.0
240.158142 108.0
240.295135 128.0
240.354462 96.0
240.387375 72.0
240.43161 48.0
240.493332 60.0
240.627747 104.0
240.690918 104.0
240.718719 48.0
240.768127 40.0
240.799011 44.0
240.839615 112.0
240.934937 120.0
241.364563 80.0
241.488281 64.0
241.605835 176.0
241.717224 56.0
241.887451 76.0
242.135162 112.0
242.169235 100.0
242.389206 128.0
242.446426 180.0
242.646469 80.0
242.723984 100.0
242.826324 44.0
243.121078 60.0
243.279373 128.0
243.437729 160.0
243.568192 88.0
243.925552 36.0
244.087219 36.0
244.130539 168.0
244.174301 128.0
244.199188 32.0
244.264511 120.0
244.873215 36.0
245.105148 216.0
245.130066 92.0
245.354492 36.0
245.482346 32.0
245.51535 48.0
245.678848 76.0
245.822388 36.0
245.96283 80.0
246.034637 52.0
246.178268 68.0
246.240738 124.0
246.36673 72.0
246.403168 44.0
247.222443 80.0
247.629456 56.0
247.710892 40.0
247.73909 56.0
248.040802 72.0
248.319 52.0
248.431931 44.0
248.689255 68.0
248.974976 64.0
249.091187 80.0
249.345703 112.0
249.399139 112.0
249.638092 60.0
249.966766 100.0
250.14151 60.0
250.336731 100.0
250.591873 60.0
250.948044 156.0
251.030045 116.0
251.108887 92.0
251.449646 128.0
251.629578 108.0
252.140182 88.0
252.27092 68.0
252.527054 100.0
253.283569 80.0
253.819199 40.0
254.184006 40.0
254.332611 112.0
254.679291 80.0
255.467545 116.0
255.62355 108.0
256.062897 100.0
256.180756 100.0
256.273163 56.0
256.489868 72.0
257.32254 108.0
257.358002 72.0
257.571655 80.0
258.150635 156.0
259.15625 80.0
259.212982 116.0
259.328369 48.0
259.931305 192.0
260.129669 380.0
260.162415 132.0
260.255524 52.0
260.608856 132.0
260.782379 80.0
261.126434 164.0
261.406311 76.0
262.137329 148.0
263.001709 40.0
263.046906 112.0
266.544891 72.0
266.717133 120.0
266.99353 32.0
267.888641 68.0
268.28299 48.0
268.775482 100.0
268.994171 64.0
271.720337 56.0
271.920532 48.0
272.436066 96.0
272.935669 104.0
273.02774 68.0
273.899994 120.0
274.153687 56.0
274.216309 88.0
274.565796 40.0
275.155945 128.0
275.305054 120.0
276.153168 208.0
276.624359 64.0
277.084717 88.0
277.171234 180.0
277.233826 64.0
277.833984 88.0
278.351776 32.0
280.097931 32.0
280.88797 68.0
281.38858 32.0
282.391113 36.0
283.191071 64.0
283.231262 104.0
283.633392 76.0
283.777527 72.0
284.280701 80.0
286.975189 112.0
287.373199 36.0
287.882904 80.0
287.990997 48.0
288.70752 64.0
288.75824 56.0
289.706055 80.0
290.174866 1252.0
290.21106 60.0
290.25177 56.0
290.811554 44.0
290.991486 60.0
291.177643 356.0
292.170837 140.0
292.395416 84.0
292.538391 60.0
292.667786 64.0
293.373047 80.0
294.000671 76.0
296.127289 40.0
296.17868 160.0
297.169464 120.0
297.911041 44.0
298.271881 68.0
300.293121 92.0
303.232086 56.0
304.151276 148.0
304.898041 84.0
306.261963 72.0
306.484924 124.0
306.537201 100.0
306.89624 48.0
307.346222 60.0
308.179443 256.0
308.205231 156.0
308.491821 64.0
308.869507 112.0
309.975861 80.0
310.186157 116.0
310.70871 72.0
312.954681 84.0
313.303345 80.0
313.617004 52.0
316.397186 96.0
316.779663 92.0
317.013519 92.0
320.421204 76.0
321.284027 96.0
321.326843 88.0
321.940796 64.0
323.009521 84.0
324.373871 104.0
326.27301 80.0
327.172455 84.0
327.222839 80.0
327.482147 36.0
327.647858 40.0
327.815552 156.0
329.889038 80.0
330.163849 56.0
330.196381 92.0
330.420685 176.0
331.971008 120.0
332.16687 76.0
335.319458 52.0
335.932037 48.0
339.032745 44.0
339.150055 76.0
339.802826 76.0
340.698669 132.0
341.106598 128.0
341.404419 88.0
342.571228 60.0
343.806488 96.0
344.005798 132.0
345.210358 88.0
345.262115 48.0
345.402679 52.0
346.131805 124.0
348.572693 56.0
350.854401 64.0
351.600433 48.0
351.833466 104.0
352.014832 72.0
352.459381 68.0
352.687347 56.0
352.750885 112.0
352.889221 72.0
353.805878 96.0
354.068024 48.0
354.217834 76.0
354.858704 140.0
355.211243 20.0
357.251129 132.0
359.152374 80.0
360.886993 92.0
362.10553 56.0
363.390656 32.0
363.485535 48.0
364.263855 40.0
365.290283 176.0
365.651764 92.0
366.501007 96.0
368.190979 76.0
368.473663 56.0
370.202637 44.0
371.161469 76.0
372.968994 48.0
374.469635 76.0
376.633545 56.0
376.815094 76.0
377.267303 132.0
378.037018 36.0
379.237671 80.0
379.619293 140.0
383.528992 40.0
383.934479 92.0
385.074127 108.0
386.164642 52.0
387.135254 52.0
388.201202 76.0
390.514496 72.0
394.117828 92.0
394.264038 120.0
394.520996 64.0
395.616852 52.0
396.357513 52.0
397.067139 88.0
398.778412 44.0
399.116333 88.0
401.238586 60.0
401.701355 96.0
402.176056 96.0
403.634308 76.0
403.854279 56.0
408.18576 108.0
409.807983 92.0
410.594055 56.0
410.642456 72.0
410.953094 48.0
411.215424 44.0
411.46167 48.0
414.061829 76.0
414.439758 68.0
416.422394 56.0
417.296112 48.0
417.869598 128.0
418.528992 72.0
418.810028 68.0
418.989258 68.0
421.294342 104.0
423.560699 52.0
423.609863 48.0
423.921265 40.0
424.171265 72.0
424.560791 80.0
428.972778 156.0
429.030518 148.0
429.904968 56.0
430.321899 56.0
433.979614 56.0
435.585754 132.0
437.140778 132.0
438.844513 56.0
440.927612 52.0
441.8685 64.0
443.179047 76.0
445.255615 80.0
447.084473 68.0
447.345428 60.0
449.026733 112.0
449.42749 104.0
451.286041 44.0
452.41571 64.0
452.491913 56.0
453.326385 84.0
457.271912 76.0
461.294373 56.0
463.777161 44.0
463.841461 124.0
465.708069 36.0
468.301758 72.0
471.014954 124.0
471.425415 76.0
472.960846 72.0
473.30722 44.0
474.125977 40.0
478.182556 64.0
480.911102 96.0
481.766998 124.0
481.937408 132.0
482.308899 72.0
483.126648 64.0
484.444397 56.0
485.288086 40.0
488.289673 124.0
489.799438 92.0
490.279694 44.0
490.566223 68.0
491.351257 212.0
493.935669 44.0
494.528595 80.0
496.154388 56.0
500.93631 112.0
508.618958 96.0
510.23175 52.0
512.130798 84.0
514.015381 64.0
516.400818 72.0
518.120972 72.0
522.402161 48.0
522.90271 64.0
528.488525 48.0
529.491089 72.0
531.366028 76.0
535.438904 88.0
537.411926 44.0
540.706909 80.0
540.827209 60.0
547.657654 68.0
550.630859 56.0
550.834351 112.0
551.030579 156.0
556.815918 36.0
557.041382 68.0
557.384399 56.0
558.333984 40.0
558.959717 80.0
564.3797 48.0
573.981323 84.0
575.3125 128.0
577.022949 84.0
578.233215 176.0
581.055725 68.0
587.507507 52.0
592.27887 76.0
596.442322 52.0
596.977173 100.0
598.47113 84.0
603.619202 84.0
607.395386 48.0
610.642212 84.0
610.71106 72.0
613.902588 56.0
614.33667 52.0
619.265076 76.0
620.558533 92.0
623.209106 48.0
623.989441 80.0
624.481812 32.0
627.65918 144.0
632.70575 80.0
633.812683 52.0
635.141296 100.0
637.92334 68.0
641.588379 92.0
642.49115 56.0
644.59668 56.0
646.867676 92.0
650.345093 96.0
654.70752 44.0
657.787231 112.0
658.711548 60.0
660.019958 36.0
661.196594 68.0
661.437134 64.0
666.067688 84.0
674.870422 96.0
677.183716 64.0
682.529175 32.0
686.591187 64.0
686.872864 88.0
691.439636 112.0
695.528076 68.0
697.419067 104.0
705.521545 40.0
715.463928 116.0
723.88446 180.0
728.599304 44.0
728.674561 52.0
734.089722 88.0
734.235291 140.0
735.255005 124.0
741.106262 40.0
744.339233 68.0
747.775146 48.0
748.096313 100.0
753.670471 104.0
760.955505 60.0
765.778381 76.0
770.644165 40.0
771.804932 84.0
771.915527 124.0
772.723083 120.0
773.459167 72.0
773.630798 124.0
773.802429 156.0
774.367249 96.0
778.443604 120.0
781.640076 80.0
782.191101 104.0
785.997742 52.0
786.527954 128.0
790.837708 36.0
792.377686 96.0
792.999756 32.0
804.797058 44.0
811.66095 144.0
814.424866 160.0
815.629517 96.0
820.206238 116.0
827.307129 120.0
834.593811 148.0
835.600403 28.0
838.185791 88.0
845.051392 44.0
846.973511 88.0
847.442749 188.0
847.749878 76.0
852.706299 152.0
853.549255 116.0
854.113403 52.0
855.876892 36.0
859.724426 96.0
860.722656 128.0
862.796936 124.0
863.633179 124.0
865.59967 228.0
867.16394 164.0
867.339783 176.0
868.166504 236.0
868.981873 64.0
870.073547 60.0
871.136536 184.0
873.140991 180.0
874.982849 180.0
876.950439 208.0
877.150818 224.0
877.752258 168.0
879.327454 164.0
879.841003 56.0
885.654175 92.0
888.511597 68.0
891.510254 156.0
892.740906 88.0
893.026367 128.0
894.912903 108.0
897.248535 72.0
904.89624 152.0
906.531555 148.0
910.731384 156.0
911.722778 116.0
913.033936 188.0
913.719177 96.0
914.05011 152.0
916.302124 80.0
919.612854 76.0
927.621765 88.0
928.106812 172.0
932.046387 220.0
933.082764 136.0
934.819397 232.0
935.415833 128.0
935.580261 184.0
936.865295 72.0
938.748718 132.0
942.814697 88.0
944.722473 188.0
945.383301 152.0
946.675049 104.0
949.334778 148.0
950.647644 88.0
951.556091 36.0
953.435852 144.0
953.964478 228.0
954.819153 176.0
956.031189 232.0
959.486877 252.0
959.597839 196.0
960.208374 164.0
960.356384 172.0
963.869324 192.0
964.153564 196.0
964.753174 196.0
967.561951 164.0
968.38562 108.0
970.337646 128.0
970.877136 56.0
971.354736 92.0
971.826294 176.0
971.956604 208.0
974.30365 148.0
976.261658 164.0
977.46228 48.0
980.027832 140.0
981.473938 140.0
983.145813 116.0
983.576477 76.0
983.813721 128.0
984.675476 124.0
984.719177 72.0
985.018982 100.0
986.068787 104.0
986.25 40.0
987.619446 164.0
989.121216 64.0
990.004089 208.0
990.856018 148.0
990.962524 168.0
991.137939 72.0
993.332336 48.0
994.709106 52.0
994.96405 164.0
998.935974 188.0
1000.767456 180.0
1000.880798 216.0
1001.11377 132.0
1004.006531 120.0
1004.586853 160.0
1004.84552 236.0
1006.170959 132.0
1007.768921 132.0
1009.159485 208.0
1010.829468 152.0
1012.80481 144.0
1013.178589 136.0
1014.725037 176.0
1014.76947 156.0
1015.689026 148.0
1016.831177 44.0
1020.350403 92.0
1020.986328 184.0
1022.303284 64.0
1025.487793 176.0
1027.069092 152.0
1029.896851 156.0
1032.216919 172.0
1032.287231 128.0
1032.690186 148.0
1033.112305 144.0
1036.639771 112.0
1038.506104 120.0
1039.821533 188.0
1040.277222 120.0
1040.322144 48.0
1043.367432 152.0
1044.235596 236.0
1044.570068 96.0
1045.013916 136.0
1047.331665 124.0
1048.240112 60.0
1048.807251 168.0
1049.045776 132.0
1049.239136 204.0
1050.348389 220.0
1051.387207 240.0
1052.013306 196.0
1052.788208 60.0
1054.978638 124.0
1055.385986 84.0
1056.032715 104.0
1056.86731 148.0
1057.067871 168.0
1057.197266 192.0
1057.255615 164.0
1057.553345 76.0
1060.001465 140.0
1061.459961 168.0
1063.821777 152.0
1065.503906 68.0
1065.633789 116.0
1066.144043 236.0
1066.673706 40.0
1066.738647 48.0
1068.104248 208.0
1068.442627 128.0
1069.600952 136.0
1070.239014 148.0
1071.137817 40.0
1071.613403 48.0
1071.900146 176.0
1072.036987 204.0
1072.154297 224.0
1073.099487 36.0
1074.20166 148.0
1075.323975 124.0
1075.905029 92.0
1076.401245 36.0
1078.30896 148.0
1078.897217 184.0
1079.230713 240.0
1081.101562 208.0
1081.847778 204.0
1084.402588 188.0
1086.035278 128.0
1086.146729 164.0
1086.993164 168.0
1087.288452 92.0
1088.214111 132.0
1088.384766 128.0
1089.52771 40.0
1089.862793 32.0
1089.935059 212.0
1090.44104 196.0
1090.690796 180.0
1092.650635 180.0
1095.066528 132.0
1095.277344 148.0
1096.707275 152.0
1097.003906 284.0
1097.544556 160.0
1097.742432 176.0
1098.415161 244.0
1099.239868 188.0
1101.848145 80.0
1103.249268 224.0
1103.308716 140.0
1105.312866 128.0
1107.544067 152.0
1108.425293 176.0
1108.511353 152.0
1108.577637 128.0
1109.54541 156.0
1110.121826 168.0
1111.455688 172.0
1112.072876 156.0
1112.318481 144.0
1113.434082 168.0
1114.616577 204.0
1115.473999 176.0
1116.568237 176.0
1117.442505 180.0
1117.649048 124.0
1118.459839 224.0
1119.133179 196.0
1119.659302 120.0
1120.471924 148.0
1120.985107 128.0
1121.158325 108.0
1121.991577 264.0
1122.47168 132.0
1123.105225 208.0
1123.438843 200.0
1124.413086 140.0
1124.860229 116.0
1124.980469 112.0
1126.569824 44.0
1126.790283 128.0
1127.639038 164.0
1127.719238 48.0
1128.608398 156.0
1128.695312 132.0
1129.344116 108.0
1129.410889 124.0
1130.059937 120.0
1131.244507 124.0
1131.599365 80.0
1132.128418 96.0
1132.282349 96.0
1133.226929 144.0
1134.285889 160.0
1135.325195 192.0
1135.67395 116.0
1135.881836 200.0
1136.526001 168.0
1137.170288 120.0
1137.223877 68.0
1139.164551 152.0
1139.52063 168.0
1139.729004 168.0
1139.984375 140.0
1140.663208 120.0
1141.032959 180.0
1142.929688 216.0
1143.400879 204.0
1143.744141 168.0
1144.127808 244.0
1144.367065 76.0
1144.444336 224.0
1144.572266 188.0
1145.946289 32.0
1146.048828 220.0
1146.478638 88.0
1148.002319 136.0
1148.21814 148.0
1148.764526 168.0
1148.859009 124.0
1149.682129 180.0
1149.898193 160.0
1150.681274 168.0
1151.343018 128.0
1151.403809 168.0
1151.873535 144.0
1152.964478 148.0
1153.205566 236.0
1153.795898 96.0
1154.323364 192.0
1154.438354 168.0
1154.587036 140.0
1154.715576 236.0
1154.783203 236.0
1154.916138 144.0
1156.014526 72.0
1158.167603 156.0
1158.594482 156.0
1159.461792 156.0
1164.720337 196.0
1165.821045 48.0
1166.120117 220.0
1166.310425 128.0
1166.364746 164.0
1167.092285 84.0
1167.568237 184.0
1169.276001 168.0
1169.391724 128.0
1169.847778 140.0
1169.946289 176.0
1170.079224 156.0
1170.147339 180.0
1170.333862 176.0
1170.951416 160.0
1171.005371 148.0
1171.461792 196.0
1173.240479 128.0
1175.034302 144.0
1175.5802 156.0
1176.501709 196.0
1177.109375 168.0
1177.239136 212.0
1177.321045 112.0
1179.199951 48.0
1181.716553 80.0
1182.318726 228.0
1183.48938 116.0
1183.770142 104.0
1184.400269 156.0
1184.886597 164.0
1184.968872 236.0
1185.249756 180.0
1186.750977 216.0
1187.045776 120.0
1187.848267 160.0
1189.049072 152.0
1189.1521 164.0
1190.456543 236.0
1190.621338 192.0
1190.841187 176.0
1191.912842 136.0
1192.283936 176.0
1192.854492 180.0
1193.129517 140.0
1193.328857 56.0
1194.580566 148.0
1195.351196 172.0
1196.032593 140.0
1196.129028 180.0
1196.445679 120.0
1197.154907 196.0
1199.69751 64.0
1199.911255 52.0
1200.649048 112.0
1200.731812 156.0
1202.132324 84.0
1202.505005 76.0
1202.932983 60.0
1203.568237 160.0
1204.06543 184.0
1204.155151 240.0
1204.88855 156.0
1206.546143 40.0
1206.921631 196.0
1207.659546 184.0
1207.984741 180.0
1208.136841 156.0
1208.261475 160.0
1208.496704 184.0
1208.71814 96.0
1209.154053 144.0
1210.088623 140.0
1210.358643 192.0
1210.74646 164.0
1211.695557 168.0
1212.679565 176.0
1212.866699 116.0
1212.966309 112.0
1213.421387 108.0
1213.566895 132.0
1213.761108 160.0
1214.794556 172.0
1215.509155 228.0
1215.647949 76.0
1215.992188 116.0
1216.126831 188.0
1217.841919 136.0
1218.036499 36.0
1218.321289 196.0
1218.814575 128.0
1219.252441 180.0
1219.745972 176.0
1220.121338 80.0
1220.48291 204.0
1221.999268 148.0
1222.576782 164.0
1223.189331 108.0
1223.467773 124.0
1224.839722 216.0
1224.919312 140.0
1225.654907 92.0
1226.756104 172.0
1227.292969 200.0
1227.669556 152.0
1227.829956 228.0
1228.060181 52.0
1228.136841 224.0
1228.185669 164.0
1228.408936 124.0
1228.729858 188.0
1228.925171 124.0
1229.197388 176.0
1229.664917 84.0
1230.579468 148.0
1230.78894 140.0
1230.837769 200.0
1230.935547 164.0
1231.19397 156.0
1232.004272 180.0
1233.353027 140.0
1234.863281 108.0
1235.178101 216.0
1235.234009 48.0
1237.046509 204.0
1237.186523 196.0
1237.816772 196.0
1238.040894 172.0
1238.103882 132.0
1238.22998 196.0
1238.411987 176.0
1238.699219 172.0
1239.357788 292.0
1239.434937 164.0
1239.484009 76.0
1239.575073 148.0
1239.665283 220.0
1240.128784 192.0
1240.661499 40.0
1240.78064 96.0
1240.977051 148.0
1241.453857 212.0
1242.21582 236.0
1242.625366 216.0
1242.724365 164.0
1242.983154 176.0
1243.439331 164.0
1245.342163 168.0
1246.058716 204.0
1246.220337 116.0
1246.374878 200.0
1246.719238 164.0
1247.534668 116.0
1247.886108 172.0
1247.977539 116.0
1248.054932 176.0
1248.279907 184.0
1248.378418 208.0
1248.687866 192.0
1248.786255 104.0
1248.94812 108.0
1249.123901 152.0
1249.275757 124.0
1249.609375 156.0
1250.932495 184.0
1250.981812 136.0
1251.136719 124.0
1251.207153 52.0
1251.502808 192.0
1251.756348 200.0
1251.984741 172.0
1252.48877 184.0
1252.869263 188.0
1253.432861 220.0
1253.76416 72.0
1253.905029 140.0
1254.680542 144.0
1255.181152 216.0
1256.189697 116.0
1256.302612 136.0
1256.591919 92.0
1256.655396 36.0
1256.768311 160.0
1257.177612 188.0
1257.234009 104.0
1257.565796 144.0
1258.787109 168.0
1258.900146 144.0
1259.119141 216.0
1259.670044 104.0
1260.136353 164.0
1260.235229 192.0
1260.602661 160.0
1261.359009 128.0
1261.832642 172.0
1261.89624 76.0
1261.945801 108.0
1262.115479 52.0
1262.228638 116.0
1262.893433 204.0
1263.374512 124.0
1264.407593 196.0
1264.471313 96.0
1265.703125 120.0
1265.816406 108.0
1266.354736 204.0
1266.432617 124.0
1267.084351 116.0
1267.863892 160.0
1268.421021 84.0
1268.558472 200.0
1269.317139 36.0
1269.700073 216.0
1270.452026 152.0
1270.913208 160.0
1271.076416 40.0
1271.334106 176.0
1271.473877 236.0
1271.928101 88.0
1272.375366 172.0
1272.489624 164.0
1272.602539 116.0
1273.291382 172.0
1273.412109 132.0
1273.731812 188.0
1273.880981 148.0
1274.612793 64.0
1274.71228 132.0
1274.996582 172.0
1276.214966 188.0
1276.373657 140.0
1276.440063 248.0
1276.546387 200.0
1277.072754 200.0
1277.762817 164.0
1278.410278 180.0
1278.851562 100.0
1280.23999 160.0
1280.809814 104.0
1281.272827 196.0
1282.826416 144.0
1283.08313 196.0
1283.275635 148.0
1283.496704 176.0
1283.831909 176.0
1283.981567 176.0
1284.224121 156.0
1284.830444 160.0
1284.894653 140.0
1285.758179 148.0
1286.000854 112.0
1286.343506 128.0
1286.436279 136.0
1286.907471 164.0
1287.821655 60.0
1288.500244 144.0
1289.322021 140.0
1290.144043 180.0
1290.515869 144.0
1291.016479 56.0
1292.010742 224.0
1292.175293 152.0
1292.547363 128.0
1292.77832 236.0
1293.370483 60.0
1293.692505 124.0
1293.799927 192.0
1294.336914 160.0
1294.752319 200.0
1296.220947 116.0
1296.4646 104.0
1296.550659 176.0
1297.217285 156.0
1297.929565 152.0
1298.988525 272.0
1299.045898 132.0
1299.698853 148.0
1299.835205 128.0
1300.014648 160.0
1300.111938 212.0
1300.237061 96.0
1300.387817 160.0
1301.514893 160.0
1302.154053 168.0
1302.771851 112.0
1302.858032 220.0
1303.109497 124.0
1303.310791 144.0
1303.662842 160.0
1303.849731 216.0
1304.985596 152.0
1305.267456 172.0
1305.496094 108.0
1305.704712 132.0
1306.09436 228.0
1306.215332 124.0
1306.344849 100.0
1306.711792 124.0
1306.8125 232.0
1306.927612 188.0
1306.992432 108.0
1307.294678 160.0
1307.344971 204.0
1308.842407 160.0
1309.072876 100.0
1309.65625 248.0
1309.829102 164.0
1310.888306 124.0
1311.270264 236.0
1311.998291 56.0
1312.084839 164.0
1312.597412 180.0
1312.726562 204.0
1313.238647 180.0
1313.361206 196.0
1314.096558 172.0
1314.703247 120.0
1315.18689 156.0
1315.417847 168.0
1315.757202 240.0
1316.233765 156.0
1316.406982 84.0
1317.945679 160.0
1318.393921 156.0
1318.675659 176.0
1318.762329 132.0
1318.914185 80.0
1319.037109 120.0
1319.377197 140.0
1319.673218 140.0
1320.144653 168.0
1320.360229 136.0
1320.823242 148.0
1320.946167 212.0
1321.192139 156.0
1321.908447 108.0
1322.053223 148.0
1323.877563 44.0
1324.014771 120.0
1324.131104 168.0
1324.5802 52.0
1325.978638 116.0
1326.312866 176.0
1326.406372 108.0
1326.921021 108.0
1327.842041 104.0
1327.900024 140.0
1328.240967 220.0
1329.060791 148.0
1329.162354 148.0
1329.456299 252.0
1331.078857 144.0
1331.517212 176.0
1331.594482 188.0
1331.90686 176.0
1332.662354 132.0
1333.63623 220.0
1333.93335 160.0
1334.123291 200.0
1334.334106 168.0
1334.414062 124.0
1335.294067 116.0
1335.483154 120.0
1335.541382 88.0
1335.803223 188.0
1336.254272 112.0
1336.327026 148.0
1336.603516 144.0
1336.67627 168.0
1337.614136 132.0
1337.797241 92.0
1338.7948 232.0
1338.916016 208.0
1338.969604 176.0
1339.384766 180.0
1339.603271 120.0
1339.76355 236.0
1339.938477 128.0
1340.033203 124.0
1340.113281 188.0
1340.688965 208.0
1340.812866 72.0
1341.157471 176.0
1341.308594 40.0
1341.490845 156.0
1341.716797 176.0
1342.796021 84.0
1343.42334 180.0
1343.474487 204.0
1343.664185 184.0
1343.795532 60.0
1343.861084 140.0
1344.342773 116.0
1344.583618 216.0
1344.903809 148.0
1345.328125 200.0
1345.715088 156.0
1346.644043 232.0
1348.367188 100.0
1348.447266 96.0
1348.871338 60.0
1349.010132 144.0
1349.463501 108.0
1349.737671 160.0
1350.099731 136.0
1350.245972 360.0
1350.377563 144.0
1350.545776 140.0
1350.736084 120.0
1350.92627 124.0
1351.065186 104.0
1351.387207 216.0
1352.162842 128.0
1352.345825 192.0
1352.448364 136.0
1352.587402 156.0
1352.814331 48.0
1353.187378 188.0
1353.524536 80.0
1354.05188 184.0
1355.077393 196.0
1355.319214 156.0
1355.46582 132.0
1355.531738 40.0
1356.030151 220.0
1356.755859 184.0
1356.915161 240.0
1358.079102 188.0
1358.193237 108.0
1359.007568 164.0
1359.168945 184.0
1359.293701 224.0
1359.645996 140.0
1360.299316 264.0
1360.387329 108.0
1360.710449 172.0
1361.18042 100.0
1361.297852 156.0
1362.818481 228.0
1363.759155 164.0
1364.869263 152.0
1365.111938 148.0
1365.657959 360.0
1366.075562 176.0
1366.41394 40.0
1366.539062 164.0
1366.976562 200.0
1367.186646 108.0
1367.289673 216.0
1367.782837 116.0
1368.165649 160.0
1368.62207 184.0
1368.773438 176.0
1368.828247 200.0
1369.122925 224.0
1369.329102 92.0
1369.682617 84.0
1370.286743 124.0
1370.375244 64.0
1370.640503 180.0
1370.728882 128.0
1370.817261 208.0
1371.008911 152.0
1371.603271 212.0
1371.856567 168.0
1372.158936 184.0
1372.645508 168.0
1372.859375 224.0
1372.955322 128.0
1373.360962 136.0
1373.818359 144.0
1374.275757 76.0
1374.770142 184.0
1375.087524 112.0
1376.379517 144.0
1376.918579 116.0
1377.110596 196.0
1377.206665 104.0
1377.413452 220.0
1377.930664 180.0
1378.337036 220.0
1378.543945 136.0
1378.699219 76.0
1378.950439 184.0
1379.031738 128.0
1379.135254 92.0
1379.260864 104.0
1379.467896 144.0
1379.697021 148.0
1380.222046 156.0
1380.310791 140.0
1380.614014 148.0
1380.692993 192.0
1381.538574 128.0
1381.845337 156.0
1382.285889 228.0
1383.048218 180.0
1383.99585 160.0
1385.914429 232.0
1386.173706 60.0
1386.277466 164.0
1386.466797 188.0
1386.596191 192.0
1386.88208 300.0
1387.5896 184.0
1387.723022 172.0
1388.175293 196.0
1388.249512 208.0
1388.331055 208.0
1388.494263 204.0
1388.79834 148.0
1388.909668 256.0
1389.102539 96.0
1389.154419 164.0
1389.391846 220.0
1389.525391 112.0
1389.785034 120.0
1390.154297 140.0
1390.304565 204.0
1390.757324 248.0
1390.831543 164.0
1392.004639 152.0
1392.524536 124.0
1392.673096 96.0
1392.732422 132.0
1393.319336 136.0
1393.430786 148.0
1393.572021 128.0
1393.661133 160.0
1393.906372 208.0
1394.054932 140.0
1394.230591 104.0
1394.575195 156.0
1394.664429 112.0
1394.796387 192.0
1395.162476 116.0
1395.221924 148.0
1395.712769 144.0
1395.802002 188.0
1395.920898 180.0
1396.716797 188.0
1397.103638 136.0
1397.557495 164.0
1398.152832 188.0
1398.227783 116.0
1398.405884 40.0
1398.465454 44.0
1398.666382 220.0
1399.552368 96.0
1400.073608 236.0
1400.393921 156.0
1400.527954 156.0
1400.878052 108.0
1401.189941 168.0
1401.556152 212.0
1401.697754 160.0
1401.787109 124.0
1402.375854 140.0
1402.71875 160.0
1402.905151 40.0
1403.292847 64.0
1403.352539 80.0
1403.889404 196.0
1404.948608 192.0
1405.411255 84.0
1405.508301 172.0
1405.679932 204.0
1406.225098 176.0
1406.359009 184.0
1406.612915 212.0
1407.285645 172.0
1407.426636 60.0
1407.986694 104.0
1408.151123 120.0
1408.412476 184.0
1408.539551 156.0
1408.606689 208.0
1408.98584 252.0
1409.069946 124.0
1409.144653 152.0
1409.525757 224.0
1410.056396 200.0
1410.340332 160.0
1410.467407 104.0
1410.631958 76.0
1410.691772 172.0
1410.796387 124.0
1411.080444 108.0
1412.194702 220.0
1412.34436 148.0
1412.44165 132.0
1412.546387 152.0
1412.82312 216.0
1413.302002 116.0
1413.429199 104.0
1413.496582 124.0
1414.506958 112.0
1414.881348 228.0
1415.031006 176.0
1415.84729 96.0
1416.004517 248.0
1416.101929 260.0
1416.955933 136.0
1417.135742 56.0
1417.293091 140.0
1417.540405 164.0
1418.005005 200.0
1418.162476 168.0
1418.297363 148.0
1418.604736 132.0
1419.12207 160.0
1419.371094 212.0
1419.474487 52.0
1419.962036 188.0
1420.284546 112.0
1420.472046 136.0
1420.62207 172.0
1420.727173 80.0
1421.394897 216.0
1421.842407 148.0
1422.370605 144.0
1422.445679 164.0
1422.654663 240.0
1422.918701 220.0
1423.015869 204.0
1423.496826 184.0
1423.767212 28.0
1423.894897 112.0
1424.150269 116.0
1424.721191 48.0
1425.096924 164.0
1425.382446 176.0
1425.540283 160.0
1425.592773 152.0
1426.682739 116.0
1426.83313 148.0
1427.028564 232.0
1427.126343 244.0
1427.231567 184.0
1427.5625 180.0
1427.93103 180.0
1428.388794 144.0
1428.705811 112.0
1428.762085 124.0
1428.878906 116.0
1429.292725 116.0
1429.796875 160.0
1429.924927 192.0
1431.099243 204.0
1431.234863 184.0
1431.852295 180.0
1432.251587 36.0
1432.771362 176.0
1433.29126 208.0
1433.630371 152.0
1433.788696 116.0
1433.924316 124.0
1434.173096 104.0
1434.415649 212.0
1434.527344 116.0
1435.473145 128.0
1435.877075 172.0
1436.043091 116.0
1436.427734 200.0
1436.608765 152.0
1437.219971 144.0
1437.63501 120.0
1437.89917 128.0
1438.027466 172.0
1438.465332 168.0
1438.827637 184.0
1438.880493 176.0
1439.295776 164.0
1439.514771 128.0
1439.71875 124.0
1439.915039 48.0
1439.998169 120.0
1440.647827 68.0
1440.708252 176.0
1440.783813 68.0
1441.622559 188.0
1442.317871 188.0
1442.416138 56.0
1442.537109 160.0
1442.922729 60.0
1443.330933 228.0
1443.429321 144.0
1445.812378 144.0
1445.978882 120.0
1446.062134 136.0
1446.122681 124.0
1446.629883 156.0
1447.121948 152.0
1447.243164 36.0
1447.583862 128.0
1447.747559 212.0
1448.144287 220.0
1448.507935 76.0
1448.626343 208.0
1448.985229 100.0
1449.386841 188.0
1449.49292 92.0
1449.750488 184.0
1450.129517 192.0
1450.182617 160.0
1450.250732 172.0
1450.478149 140.0
1450.629761 92.0
1450.713135 108.0
1450.948242 68.0
1451.22876 184.0
1451.729248 104.0
1452.33606 112.0
1452.510498 60.0
1452.700073 132.0
1453.269165 148.0
1453.329834 124.0
1453.557495 140.0
1453.663696 272.0
1453.777588 224.0
1453.883789 144.0
1454.020508 120.0
1454.362061 36.0
1454.544189 212.0
1454.753052 148.0
1455.53125 180.0
1455.739014 164.0
1455.918579 160.0
1456.754028 100.0
1457.057983 200.0
1457.156738 132.0
1457.878662 160.0
1458.532227 128.0
1458.661499 176.0
1458.920044 272.0
1459.315308 148.0
1459.938965 216.0
1460.059692 160.0
1460.212769 176.0
1460.27356 144.0
1460.934082 120.0
1461.452759 128.0
1461.589722 140.0
1461.68103 168.0
1461.741943 208.0
1461.863647 200.0
1461.962646 112.0
1462.023438 140.0
1462.107178 112.0
1462.282227 144.0
1462.457642 160.0
1462.632446 180.0
1462.906494 136.0
1463.355591 160.0
1463.561279 120.0
1464.08667 140.0
1464.734131 180.0
1464.863647 136.0
1465.183594 96.0
1465.275024 108.0
1466.105591 208.0
1466.181885 156.0
1466.613403 124.0
1466.852661 108.0
1467.005127 160.0
1467.286377 152.0
1468.621704 168.0
1469.033691 120.0
1469.407471 120.0
1469.605835 68.0
1470.056152 212.0
1470.124756 84.0
1470.216309 68.0
1470.292725 120.0
1470.422485 200.0
1470.888062 160.0
1471.078857 56.0
1471.292725 244.0
1471.430054 140.0
1471.880615 148.0
1471.9646 60.0
1472.131714 164.0
1473.263062 176.0
1473.736816 192.0
1473.897217 72.0
1474.141846 144.0
1474.432251 224.0
1474.666748 220.0
1475.028442 180.0
1475.418335 140.0
1475.716553 148.0
1475.838867 160.0
1475.99939 124.0
1476.305298 88.0
1476.404785 112.0
1476.511841 148.0
1476.641846 184.0
1476.787109 140.0
1476.878906 164.0
1477.506226 188.0
1477.69751 60.0
1477.819946 224.0
1478.023315 148.0
1478.294434 176.0
1478.608154 152.0
1478.776611 180.0
1478.868408 124.0
1479.013794 68.0
1479.154419 196.0
1479.72583 224.0
1480.363281 128.0
1480.415039 200.0
1480.736694 76.0
1481.02771 160.0
1481.157959 136.0
1481.265259 76.0
1481.380127 196.0
1481.523193 152.0
1481.924072 176.0
1481.977661 140.0
1482.077393 184.0
1482.169312 212.0
1482.230591 144.0
1483.449219 148.0
1483.54126 124.0
1483.661255 224.0
1484.124023 168.0
1484.354004 184.0
1484.645386 132.0
1484.883179 112.0
1485.234497 176.0
1485.374146 136.0
1485.512207 164.0
1485.67334 88.0
1485.807983 160.0
1486.171997 124.0
1486.325439 248.0
1486.448242 132.0
1486.617065 176.0
1487.115967 224.0
1487.169678 148.0
1487.343018 224.0
1487.661011 168.0
1487.722412 124.0
1488.751343 164.0
1489.004761 140.0
1489.350464 144.0
1489.442627 204.0
1489.657715 140.0
1489.980347 84.0
1490.103271 172.0
1490.379883 208.0
1490.856323 136.0
1491.249023 140.0
1491.309814 220.0
1491.694214 176.0
1491.824829 156.0
1492.032471 116.0
1492.60144 136.0
1492.686035 96.0
1492.885986 164.0
1492.962891 232.0
1493.218994 132.0
1493.355103 144.0
1493.439819 100.0
1493.824341 192.0
1493.878296 148.0
1494.370605 144.0
1494.486084 120.0
1494.58606 148.0
1494.778442 152.0
1494.832397 176.0
1495.201782 176.0
1495.340332 120.0
1495.506104 268.0
1495.671265 168.0
1495.755981 204.0
1495.817505 104.0
1495.886841 156.0
1496.356445 128.0
1497.372925 180.0
1497.563354 172.0
1497.727295 244.0
1498.582397 152.0
1498.867554 352.0
1499.599731 132.0
1499.661377 212.0
1499.861816 228.0
1499.931152 128.0
1500.164307 200.0
1500.555664 80.0
1500.702148 32.0
1500.902588 124.0
1501.196289 176.0
1501.295898 132.0
1501.687866 208.0
1502.491577 116.0
1502.676636 108.0
1502.776978 236.0
1503.209106 188.0
1503.594971 112.0
1503.672241 152.0
1503.772583 76.0
1504.090576 180.0
1504.637085 56.0
1504.8302 120.0
1504.945923 172.0
1505.164917 136.0
1505.231689 136.0
1505.332031 196.0
