>compound NELFINAVIR MESYLATE
>formula C32H45N3O4S
>ionization [M+H]+
>parentmass 568.3203543720906
#inchi InChI=1S/C32H45N3O4S/c1-21-25(15-10-16-28(21)36)30(38)33-26(20-40-24-13-6-5-7-14-24)29(37)19-35-18-23-12-9-8-11-22(23)17-27(35)31(39)34-32(2,3)4/h5-7,10,13-16,22-23,26-27,29,36-37H,8-9,11-12,17-20H2,1-4H3,(H,33,38)(H,34,39)/t22-,23+,26-,27-,29+/m0/s1
#inchikey QAGYKUNXZHXKMR
#Ion_Source LC-ESI
#Instrument qTof
#Compound_Source Commercial
#PI Dorrestein
#Data_Collector Garg_Neha
#Scan -1
#Precursor_MZ 568.32
#ExactMass 567.313
#Charge 1
#CAS_Number N/A
#Pubmed_ID N/A
#Smiles Cc1c(O)cccc1C(=O)N[C@@H](CSc2ccccc2)[C@H](O)CN3C[C@H]4CCCC[C@H]4C[C@H]3C(=O)NC(C)(C)C
#INCHI_AUX N/A
#Library_Class 1
#SpectrumID CCMSLIB00000078950
#IonMode Positive
#UpdateWorkflowName UPDATE-SINGLE-ANNOTATED-GOLD
#LibraryQualityString Gold
#TaskID 278b19f5865741e282cec7349aa7e7a1
##Scan# 1298
#SpectrumFile NCP003272_G2_H11_BC3_01_15716.mzXML
#LibraryName NIHcollectionI_05062014.mgf
#MQScore -1
#Organism NIHcollectionI_05062014
#TIC_Query 0
#RT_Query -1
#MZErrorPPM -1
#SharedPeaks 0
#MassDiff 0
#LibMZ -1
#SpecMZ 568.32
#SpecCharge 0
#internalFilename spec-00000.mgf

>collision 10
45.138527 144.0
45.250923 224.0
45.260296 172.0
45.419777 148.0
45.50835 172.0
46.276886 144.0
47.036839 140.0
47.151573 140.0
47.588554 152.0
47.787849 200.0
47.975151 164.0
48.643311 224.0
48.67802 140.0
49.848652 216.0
49.883789 308.0
50.056843 192.0
50.189297 148.0
50.980595 180.0
51.412098 256.0
51.426369 156.0
51.715088 212.0
52.01466 140.0
53.74123 148.0
53.88512 116.0
54.727665 160.0
55.233864 160.0
55.266411 180.0
56.603096 144.0
56.925499 200.0
57.396488 160.0
57.973942 184.0
59.004425 184.0
59.628304 184.0
59.752861 140.0
59.922215 184.0
60.224571 172.0
60.346653 140.0
60.368507 128.0
61.043018 120.0
62.023323 168.0
62.3545 148.0
63.956734 148.0
64.053864 180.0
64.572609 228.0
65.719589 236.0
66.4785 204.0
66.844124 152.0
66.959709 168.0
68.89695 176.0
72.009064 152.0
72.059738 176.0
72.300613 160.0
72.908676 152.0
73.088928 232.0
74.005516 140.0
74.193977 148.0
74.883034 140.0
76.307198 148.0
76.39241 148.0
77.597435 152.0
77.651794 200.0
78.225014 224.0
78.328499 144.0
78.346115 196.0
79.534431 152.0
79.568161 148.0
81.079247 148.0
81.689476 176.0
82.47567 152.0
83.845985 140.0
84.809174 208.0
85.089836 200.0
85.534714 220.0
85.588104 144.0
85.665459 156.0
85.995514 180.0
86.622337 188.0
86.998779 152.0
88.155655 168.0
88.574524 236.0
89.421326 156.0
89.952858 248.0
91.009262 148.0
91.151726 164.0
91.452202 200.0
92.645653 160.0
92.852669 188.0
93.544373 200.0
93.966423 156.0
94.39135 188.0
95.681625 156.0
95.806267 144.0
95.856918 172.0
95.971924 156.0
96.223 216.0
96.534286 168.0
96.782799 160.0
97.064957 172.0
97.164986 168.0
97.408409 140.0
97.461456 160.0
97.764282 200.0
99.174423 180.0
99.408447 160.0
100.39315 160.0
100.622612 176.0
100.712479 148.0
101.416779 164.0
102.161751 212.0
102.996292 148.0
103.164009 160.0
104.291046 140.0
104.362198 152.0
105.017929 164.0
105.749382 224.0
105.872215 172.0
106.062759 156.0
106.651848 144.0
107.048447 520.0
107.556084 196.0
107.754333 256.0
107.774994 196.0
107.985855 152.0
108.11412 196.0
108.186562 208.0
109.009979 356.0
109.061592 96.0
109.132614 252.0
109.930397 188.0
110.069901 164.0
110.544769 204.0
111.028374 180.0
111.471634 156.0
112.398148 156.0
113.004547 140.0
113.237404 248.0
113.534103 176.0
113.958641 160.0
114.101044 164.0
114.601196 140.0
116.146019 180.0
116.94828 176.0
117.515038 156.0
117.551712 184.0
117.774086 200.0
117.802162 172.0
118.189156 184.0
118.858704 176.0
119.108368 168.0
119.902519 172.0
120.122734 180.0
120.504776 148.0
120.817413 160.0
121.108543 148.0
121.907127 140.0
122.033516 208.0
122.637794 168.0
123.0261 3768.0
123.853035 156.0
123.98819 192.0
124.029175 188.0
124.265366 216.0
124.369667 184.0
124.58062 160.0
125.383858 148.0
125.522072 172.0
127.204521 180.0
127.310051 140.0
127.467293 180.0
128.060486 376.0
129.067703 144.0
129.189835 180.0
130.653076 200.0
131.923309 144.0
132.522919 160.0
133.06369 200.0
134.061096 872.0
134.138519 140.0
134.34375 148.0
134.599945 184.0
134.634583 144.0
134.750137 144.0
134.830948 168.0
134.920258 156.0
134.943741 156.0
134.963638 220.0
134.973145 212.0
135.044586 61520.0
135.387436 96.0
135.46846 152.0
135.521194 192.0
135.805664 144.0
136.047852 5244.0
136.169449 124.0
136.758286 496.0
136.797852 152.0
136.924591 120.0
137.024963 312.0
137.04921 472.0
137.069122 176.0
137.092041 180.0
137.123734 180.0
137.220978 128.0
138.057785 264.0
138.128174 9672.0
138.268326 184.0
138.446259 156.0
138.718887 100.0
139.081619 144.0
139.133453 524.0
140.751434 128.0
143.283875 164.0
143.870544 176.0
144.346008 200.0
145.085831 188.0
145.33046 236.0
145.736237 156.0
146.136993 148.0
147.033508 188.0
147.060715 164.0
147.082397 256.0
147.205566 184.0
147.285278 212.0
148.073822 288.0
149.044281 732.0
149.080551 212.0
150.037109 156.0
150.095306 124.0
150.127853 784.0
151.022751 672.0
151.060547 648.0
152.020767 184.0
152.070908 2280.0
152.143829 4928.0
153.045135 372.0
153.072906 248.0
153.146942 300.0
153.74649 156.0
154.152374 136.0
154.175385 168.0
154.776672 176.0
155.624649 156.0
156.935883 144.0
157.130753 148.0
157.242706 144.0
157.554825 144.0
158.307693 152.0
158.803909 164.0
159.0802 248.0
159.172821 144.0
159.38382 160.0
160.083099 252.0
161.042404 2596.0
161.119751 144.0
161.577347 196.0
161.648972 168.0
162.048645 336.0
162.857483 152.0
162.900665 148.0
163.054047 184.0
163.134445 268.0
163.61525 232.0
164.04068 172.0
164.149582 224.0
164.711792 144.0
165.010788 180.0
165.141464 148.0
166.125458 260.0
166.944138 180.0
167.049576 176.0
167.122238 200.0
170.555969 192.0
171.858078 152.0
172.098206 156.0
174.090805 700.0
175.040192 140.0
175.074417 156.0
175.10968 204.0
176.071869 700.0
177.041855 152.0
178.068481 300.0
178.530609 140.0
178.629028 196.0
178.868515 196.0
179.052505 4048.0
179.12413 196.0
179.721313 156.0
180.055649 444.0
180.136612 164.0
181.050964 180.0
181.135132 128.0
181.167694 180.0
182.057968 144.0
182.359085 140.0
182.989609 172.0
183.150314 396.0
184.148071 280.0
186.03537 156.0
187.22084 148.0
188.140244 164.0
188.16716 148.0
189.152359 488.0
189.435944 164.0
190.093018 156.0
190.158981 6940.0
191.160355 900.0
192.026459 96.0
192.171997 164.0
194.52652 220.0
195.149445 812.0
195.866806 256.0
196.079041 524.0
196.127075 140.0
197.062592 2064.0
197.494095 176.0
198.068573 448.0
198.137924 176.0
198.631302 176.0
198.780869 108.0
199.060272 152.0
200.856293 140.0
201.415176 140.0
202.086151 5156.0
203.086136 480.0
203.146835 232.0
203.951157 168.0
204.133118 160.0
204.426117 148.0
205.101089 200.0
207.162949 200.0
208.06221 148.0
208.164322 148.0
209.164444 144.0
210.148392 152.0
210.174362 168.0
213.307953 280.0
214.017807 144.0
214.854279 148.0
215.146103 192.0
216.005249 148.0
216.093002 140.0
216.444244 180.0
216.719574 236.0
217.140793 288.0
217.596512 208.0
217.927002 168.0
219.220154 168.0
219.394714 124.0
220.096008 992.0
221.101715 152.0
221.912933 156.0
222.149292 172.0
222.770615 176.0
226.930878 164.0
228.27005 172.0
229.579987 140.0
231.029785 140.0
232.039062 136.0
233.157852 152.0
233.293091 252.0
234.053864 248.0
235.156052 252.0
236.158371 292.0
237.193298 184.0
237.44165 156.0
239.103714 164.0
239.211243 4136.0
239.744659 164.0
239.812088 160.0
240.153961 136.0
240.213379 512.0
240.45668 156.0
241.223099 148.0
241.915604 144.0
242.221954 116.0
243.24855 168.0
243.608368 188.0
244.486252 168.0
244.955704 176.0
246.060974 132.0
247.4384 156.0
247.532333 176.0
249.219864 160.0
249.408417 152.0
250.050034 164.0
251.171707 248.0
251.21048 560.0
252.215317 156.0
253.072906 100.0
253.613739 200.0
254.272415 160.0
257.401733 200.0
257.599731 176.0
258.312592 140.0
258.430939 140.0
261.144867 152.0
261.360382 176.0
261.421539 176.0
262.987823 168.0
265.227936 512.0
265.452667 148.0
265.473724 216.0
265.82605 156.0
266.124695 160.0
266.166901 192.0
266.229034 176.0
267.135406 152.0
272.142212 248.0
274.369537 140.0
275.333038 152.0
277.490479 160.0
277.861938 160.0
278.525879 160.0
278.582336 152.0
282.820526 164.0
286.020538 132.0
286.088135 168.0
286.137146 176.0
286.177338 128.0
287.089661 268.0
288.441193 176.0
288.998383 212.0
289.236084 160.0
292.467468 196.0
293.049805 168.0
294.610138 168.0
295.083954 148.0
295.696259 164.0
295.754425 264.0
296.192719 168.0
297.180023 156.0
298.160095 920.0
298.457733 176.0
299.16803 568.0
299.58316 156.0
300.11969 160.0
300.164703 240.0
300.693451 236.0
302.864746 148.0
304.866577 160.0
305.012543 160.0
305.422852 144.0
305.530701 156.0
305.812561 148.0
306.167664 140.0
306.414978 168.0
306.951721 176.0
308.009186 172.0
310.588898 176.0
311.347931 196.0
311.399689 188.0
311.600311 152.0
311.756104 116.0
312.105774 9528.0
312.234955 140.0
312.679443 148.0
313.106506 1544.0
313.637421 144.0
314.100677 548.0
314.367493 148.0
314.827942 136.0
315.11377 204.0
315.161987 140.0
315.191437 248.0
315.431915 104.0
315.547211 208.0
315.941986 128.0
316.169922 412.0
317.111847 148.0
318.161804 140.0
318.545319 192.0
320.165741 148.0
320.683777 176.0
320.848236 180.0
322.486206 252.0
324.340271 140.0
325.596008 144.0
325.773651 152.0
326.160645 124.0
327.222565 136.0
327.498596 156.0
328.453766 140.0
328.500641 140.0
328.607178 144.0
328.666626 148.0
328.766907 176.0
328.812561 160.0
328.894958 176.0
329.082977 168.0
329.410187 100.0
329.454865 120.0
329.478333 224.0
329.572266 276.0
329.643768 132.0
329.686523 260.0
329.819366 204.0
329.882599 300.0
329.952393 152.0
330.012054 112.0
330.117615 222412.0
330.253143 180.0
330.356903 112.0
330.427734 236.0
330.491638 396.0
330.537903 124.0
330.603851 140.0
330.660217 112.0
330.711914 2744.0
330.76004 284.0
330.799774 296.0
330.908539 200.0
330.952881 124.0
330.986847 152.0
331.068298 228.0
331.119568 57448.0
331.24823 176.0
331.288849 108.0
331.386993 176.0
331.55423 104.0
331.926819 100.0
331.965729 100.0
332.115204 13688.0
332.17984 384.0
332.300415 180.0
332.327728 156.0
332.446136 104.0
332.485443 124.0
332.544678 252.0
332.650787 120.0
332.758453 240.0
332.86087 196.0
332.921753 96.0
333.02002 172.0
333.115997 3020.0
333.2005 568.0
333.25946 244.0
333.356903 276.0
333.404419 240.0
333.460846 272.0
333.48526 232.0
333.606781 104.0
333.954926 124.0
334.007385 156.0
334.114105 140.0
334.20282 212.0
334.366638 108.0
334.52533 136.0
334.994324 132.0
335.155365 112.0
335.27002 172.0
335.344482 204.0
335.699066 108.0
337.120209 144.0
337.332214 160.0
338.064972 96.0
340.407715 128.0
340.766083 164.0
343.180145 448.0
343.545624 220.0
344.172607 512.0
346.171722 184.0
346.884857 172.0
348.649567 144.0
348.934052 196.0
349.153076 156.0
349.672852 112.0
349.808289 164.0
350.877472 140.0
351.296143 104.0
353.069305 144.0
354.904144 204.0
355.251129 140.0
355.947266 156.0
356.041168 176.0
357.217133 428.0
358.22226 300.0
360.127502 280.0
362.340424 148.0
363.039398 168.0
367.363007 124.0
367.808838 156.0
369.119263 268.0
370.945465 140.0
371.66037 148.0
373.237152 140.0
373.391296 160.0
374.757843 164.0
377.618286 148.0
378.036102 164.0
378.312592 192.0
382.945221 208.0
385.781189 160.0
391.347076 148.0
391.410065 140.0
392.773651 152.0
396.271179 164.0
396.430756 160.0
399.246338 2244.0
400.247894 1088.0
400.309082 116.0
400.419342 164.0
401.245178 128.0
401.531281 168.0
402.251678 116.0
406.696533 152.0
407.885468 148.0
407.99588 140.0
408.038239 180.0
409.869537 176.0
410.385468 196.0
411.196289 164.0
412.77179 156.0
413.23288 152.0
413.447357 156.0
414.439423 192.0
414.921722 168.0
416.983795 176.0
417.500092 168.0
417.849915 148.0
418.981689 188.0
420.625092 192.0
420.820892 104.0
420.919037 140.0
421.004791 188.0
422.140839 140.0
423.2211 208.0
423.761749 188.0
428.582794 128.0
430.235107 144.0
431.743256 184.0
432.405182 156.0
433.299896 112.0
434.298615 132.0
435.199127 152.0
435.896942 140.0
436.171265 196.0
437.294281 184.0
438.03125 152.0
439.023193 152.0
439.465363 172.0
440.174927 172.0
440.73465 148.0
445.338623 184.0
445.704102 152.0
448.018097 172.0
449.230347 816.0
450.21994 264.0
451.214661 292.0
452.960541 172.0
453.977722 148.0
454.042786 128.0
454.503723 224.0
454.855957 180.0
455.913513 180.0
456.797882 148.0
456.997833 188.0
457.657562 140.0
457.755493 180.0
458.287933 208.0
458.69278 156.0
459.596893 164.0
460.348175 184.0
461.745605 144.0
463.497894 156.0
464.058746 132.0
464.413879 148.0
464.606934 144.0
464.944458 144.0
465.113281 140.0
465.215363 276.0
465.471191 152.0
465.600433 172.0
465.714081 156.0
465.806244 116.0
465.996094 112.0
466.058807 96.0
466.129486 104.0
466.195038 228.0
466.33963 100.0
466.452454 104.0
466.556641 224.0
466.724304 208.0
466.831818 272.0
466.888611 132.0
466.927979 140.0
466.980652 164.0
467.012299 144.0
467.173187 240.0
467.236786 109688.0
467.337799 248.0
467.456635 100.0
467.490112 116.0
467.552948 184.0
467.859528 196.0
467.97406 104.0
468.01297 152.0
468.071808 212.0
468.108337 212.0
468.239594 31976.0
468.429901 244.0
468.633545 96.0
468.815948 112.0
469.23764 7048.0
469.37204 104.0
469.482056 136.0
469.771515 96.0
469.93515 212.0
469.979858 140.0
470.120605 216.0
470.180847 272.0
470.239655 1992.0
470.418976 180.0
470.678314 96.0
470.802826 180.0
470.852997 124.0
470.904022 236.0
471.02533 184.0
471.123566 328.0
471.235321 180.0
471.329071 124.0
471.414185 200.0
471.686646 96.0
471.880524 144.0
472.022766 104.0
472.119568 136.0
472.21701 108.0
472.259003 136.0
472.377594 112.0
472.478363 108.0
472.653564 168.0
472.979797 152.0
473.088013 140.0
473.27417 252.0
473.339539 124.0
474.234558 104.0
474.812531 184.0
475.23761 168.0
476.383759 140.0
476.836914 108.0
477.458344 120.0
478.225494 164.0
478.742645 196.0
481.933044 160.0
484.30957 172.0
484.429077 100.0
484.734528 232.0
485.370117 160.0
486.919189 144.0
488.193634 156.0
491.762177 240.0
492.967804 200.0
493.095184 156.0
493.909515 208.0
494.940674 156.0
495.227325 248.0
496.207306 168.0
496.728729 156.0
497.778534 152.0
499.329468 148.0
501.150146 144.0
502.835724 148.0
503.063385 180.0
504.568878 204.0
506.914246 140.0
507.214508 148.0
508.379333 112.0
512.261902 136.0
512.679749 172.0
512.765381 160.0
513.139526 192.0
514.289856 228.0
514.343994 160.0
514.605835 180.0
518.255859 148.0
519.999084 148.0
521.22406 100.0
521.286926 148.0
521.891479 184.0
523.160828 172.0
523.789185 140.0
524.094421 156.0
525.872925 152.0
526.411621 144.0
532.18866 148.0
532.585205 156.0
534.194031 208.0
534.368835 152.0
534.681702 164.0
534.861206 156.0
536.962219 144.0
537.097778 200.0
537.492737 220.0
537.672729 172.0
537.760376 144.0
538.767029 148.0
540.13855 132.0
542.265198 168.0
542.459839 168.0
546.247131 144.0
546.504944 176.0
548.418884 156.0
548.58667 144.0
549.32843 140.0
550.310181 624.0
551.341431 160.0
551.381653 164.0
551.508057 136.0
551.62207 188.0
552.319397 308.0
555.230896 152.0
555.49115 120.0
559.116089 152.0
559.257263 140.0
559.298401 156.0
559.405151 152.0
559.6698 140.0
559.859924 188.0
560.312073 168.0
560.402649 128.0
560.755005 176.0
560.796021 188.0
561.418945 112.0
562.15094 228.0
562.388367 168.0
562.54364 100.0
563.007812 124.0
563.441223 148.0
563.887085 108.0
564.062378 128.0
564.156067 164.0
564.335876 128.0
564.535034 168.0
564.641541 204.0
564.836975 132.0
564.899841 236.0
565.075562 104.0
565.543518 308.0
565.925293 104.0
566.194031 224.0
566.272583 280.0
566.322876 116.0
566.368835 236.0
566.434937 180.0
566.514526 132.0
566.55072 244.0
566.603882 152.0
566.653625 192.0
566.735291 200.0
566.796936 364.0
566.919189 240.0
566.977417 140.0
567.059753 256.0
567.114502 220.0
567.194275 232.0
567.235413 268.0
567.294617 312.0
567.351624 176.0
567.518799 228.0
567.569824 208.0
567.647156 188.0
567.718811 256.0
567.756775 148.0
567.808228 172.0
567.885132 164.0
567.948181 124.0
568.047119 528.0
568.091125 432.0
568.161072 472.0
568.322754 235064.0
568.613831 392.0
568.651123 432.0
568.705566 196.0
568.764587 356.0
568.819397 224.0
568.912354 240.0
568.974426 132.0
569.037659 468.0
569.10498 4304.0
569.157471 372.0
569.206787 396.0
569.325134 153452.0
569.449707 324.0
569.506409 116.0
569.545898 192.0
569.603455 336.0
569.656616 212.0
569.750183 260.0
569.860779 112.0
569.89447 368.0
569.995483 280.0
570.059509 124.0
570.108459 476.0
570.18927 348.0
570.256531 596.0
570.32312 46320.0
570.457581 132.0
570.47583 140.0
570.559875 272.0
570.614807 108.0
570.62561 100.0
570.674744 268.0
570.708984 288.0
570.794678 180.0
570.874451 308.0
570.934998 284.0
571.007324 188.0
571.080811 132.0
571.128967 96.0
571.322327 6932.0
571.44458 212.0
571.481201 96.0
571.539856 176.0
571.68927 128.0
571.768188 136.0
571.876221 276.0
571.968994 280.0
572.025146 104.0
572.110107 148.0
572.163696 188.0
572.238953 116.0
572.325684 1588.0
572.493225 232.0
572.54657 324.0
572.581665 264.0
572.658081 216.0
572.79718 180.0
572.886841 128.0
572.978149 116.0
573.051208 168.0
573.192505 156.0
573.270081 128.0
573.349609 188.0
573.418579 108.0
573.484863 176.0
573.543091 228.0
573.664185 276.0
573.718689 132.0
573.731201 208.0
573.792114 232.0
573.930481 188.0
574.097534 180.0
574.21759 128.0
574.274963 112.0
574.352051 104.0
574.459473 152.0
574.604431 212.0
576.039551 124.0
576.197815 104.0
578.276001 96.0
580.256104 96.0
580.638184 200.0
583.382874 128.0
585.429504 164.0
586.854187 132.0
586.953979 124.0
588.964661 152.0
589.29248 140.0
617.352173 140.0
680.852783 124.0
709.577087 108.0
711.914795 124.0
844.911987 148.0
889.374634 144.0
892.190308 180.0
1032.682617 128.0
1067.262939 152.0
1073.148193 160.0
1081.445312 156.0
1211.143311 156.0
1216.669922 156.0
1285.912354 212.0
1291.518311 204.0
1295.973877 236.0
1319.689941 164.0
1321.476318 272.0
1323.589844 204.0
1332.351318 232.0
1344.657104 204.0
1351.701904 216.0
1356.931641 168.0
1361.943604 180.0
1362.986816 176.0
1364.314819 168.0
1365.317139 152.0
1384.59375 236.0
1388.655151 168.0
1390.495117 144.0
1396.342041 248.0
1405.348145 152.0
1406.609375 160.0
1407.609863 164.0
1445.261475 156.0
1448.64563 204.0
1457.187866 172.0
1460.745728 212.0
1511.939209 196.0
1512.372681 156.0
1521.706055 164.0
1531.706909 172.0
1531.870483 160.0
1533.958862 168.0
1535.206299 164.0
1552.857422 168.0
1560.995728 164.0
1565.352905 216.0
1565.667847 176.0
1571.745605 188.0
1577.439819 184.0
1601.721313 184.0
1614.299438 172.0
1620.79126 148.0
1623.203979 140.0
1628.37207 184.0
1655.364258 140.0
1659.018311 160.0
1664.105103 224.0
1667.525024 164.0
1670.582275 168.0
1687.472046 148.0
1713.62915 168.0
1739.91272 176.0
1742.314819 132.0
1756.172485 152.0
1758.30835 180.0
1762.508789 200.0
1781.023193 216.0
1795.061035 148.0
1800.394287 164.0
1814.118408 148.0
1814.762573 148.0
1816.984619 168.0
1820.50708 148.0
1824.721558 164.0
1832.125732 156.0
1839.257812 152.0
1844.174438 168.0
1845.824341 140.0
1856.099731 180.0
1872.151733 180.0
1874.072632 160.0
1880.402222 200.0
1887.564209 140.0
1888.532349 148.0
1891.690674 168.0
1894.652344 164.0
1903.064941 196.0
1903.994141 156.0
1912.627686 148.0
1928.108887 172.0
1929.80481 168.0
1937.970825 196.0
1945.625244 164.0
1946.127808 140.0
1959.100098 156.0
1962.290405 180.0
1964.953857 160.0
1968.440308 160.0
1973.715576 184.0
1974.095825 208.0
1978.621704 124.0
1980.113647 152.0
1989.201904 176.0
1990.595825 140.0
1998.878174 168.0
