>compound MLS002154065-01!Thonzonium bromide553-08-2
>formula C32H55N4O
>ionization [M+H]+
>parentmass 512.4448638320905
#inchi InChI=1S/C32H55N4O/c1-5-6-7-8-9-10-11-12-13-14-15-16-17-18-27-36(2,3)28-26-35(32-33-24-19-25-34-32)29-30-20-22-31(37-4)23-21-30/h19-25H,5-18,26-29H2,1-4H3/q+1
#inchikey IOYZYMQFUSNATM
#origInchi InChI=1S/C32H55N4O.BrH/c1-5-6-7-8-9-10-11-12-13-14-15-16-17-18-27-36(2,3)28-26-35(32-33-24-19-25-34-32)29-30-20-22-31(37-4)23-21-30;/h19-25H,5-18,26-29H2,1-4H3;1H/q+1;/p-1
#Ion_Source LC-ESI
#Instrument qTof
#Compound_Source NIH Pharmacologically Active Library
#PI Dorrestein
#Data_Collector VP/LMS
#Scan -1
#Precursor_MZ 511.441
#ExactMass 511.438
#Charge 1
#CAS_Number N/A
#Pubmed_ID N/A
#Smiles CCCCCCCCCCCCCCCC[N+](C)(C)CCN(Cc1ccc(OC)cc1)c2ncccn2.[Br-]
#INCHI_AUX N/A
#Library_Class 1
#SpectrumID CCMSLIB00000084801
#IonMode Positive
#UpdateWorkflowName UPDATE-SINGLE-ANNOTATED-GOLD
#LibraryQualityString Gold
#TaskID d252d724072548979f1f6f1ced849daf
##Scan# 2871
#SpectrumFile p3-A10_GA10_01_18231.mzXML
#LibraryName Pharm_Active_Library.mgf
#MQScore -1
#Organism Pharm_Active_Library
#TIC_Query 0
#RT_Query -1
#MZErrorPPM -1
#SharedPeaks 0
#MassDiff 0
#LibMZ -1
#SpecMZ 511.441
#SpecCharge 0
#internalFilename spec-00000.mgf

>collision 10
44.89167 156.0
44.89534 116.0
44.899918 252.0
44.911369 144.0
44.923134 248.0
44.933094 144.0
44.937717 236.0
44.958263 160.0
44.97393 244.0
44.986107 168.0
45.004837 140.0
45.027443 152.0
45.040596 200.0
45.061962 144.0
45.076046 168.0
45.09399 136.0
45.11124 164.0
45.130165 288.0
45.14283 144.0
45.147751 96.0
45.158337 256.0
45.175732 196.0
45.189194 132.0
45.205128 184.0
45.225143 276.0
45.236076 180.0
45.244476 136.0
45.262001 120.0
45.281616 132.0
45.293362 144.0
45.303162 176.0
45.320362 144.0
45.331367 148.0
45.354218 204.0
45.371754 140.0
45.374615 144.0
45.387436 440.0
45.390457 160.0
45.407539 176.0
45.425201 104.0
45.449661 252.0
45.471668 200.0
45.501549 192.0
45.513397 188.0
45.515736 124.0
45.527779 308.0
45.551533 180.0
45.57991 128.0
45.594364 460.0
45.604843 160.0
45.616196 44.0
45.65189 348.0
45.674343 172.0
45.686745 96.0
45.690651 44.0
45.696026 112.0
45.700542 84.0
45.709862 100.0
45.736366 156.0
45.738914 140.0
45.760147 204.0
45.770145 160.0
45.782764 128.0
45.787548 172.0
45.794952 52.0
45.796692 136.0
45.806881 256.0
45.83633 356.0
45.87291 252.0
45.890636 228.0
45.903976 196.0
45.917889 68.0
45.937294 396.0
45.960014 296.0
45.977112 172.0
45.989429 100.0
46.012463 112.0
46.030106 228.0
46.054489 176.0
46.060593 148.0
46.067181 176.0
46.069302 144.0
46.082062 148.0
46.087254 116.0
46.115696 308.0
46.122475 152.0
46.144672 160.0
46.155647 172.0
46.166698 304.0
46.176556 76.0
46.18795 204.0
46.202328 108.0
46.221771 128.0
46.237511 152.0
46.246529 136.0
46.261238 272.0
46.278042 168.0
46.29002 48.0
46.312813 356.0
46.341988 240.0
46.356934 256.0
46.372547 204.0
46.37851 60.0
46.382469 116.0
46.411835 148.0
46.431206 20.0
46.460785 128.0
46.480186 244.0
46.489849 140.0
46.50613 148.0
46.519047 384.0
46.54031 108.0
46.551804 372.0
46.567471 172.0
46.589638 252.0
46.613632 212.0
46.626419 288.0
46.638714 120.0
46.649555 108.0
46.65353 180.0
46.663956 256.0
46.674831 72.0
46.695515 432.0
46.715633 148.0
46.733692 216.0
46.759773 264.0
46.768864 176.0
46.787064 140.0
46.802235 204.0
46.812336 172.0
46.82386 236.0
46.848228 148.0
46.860809 240.0
46.870274 316.0
46.878193 204.0
46.89386 228.0
46.913551 228.0
46.928349 240.0
46.946701 180.0
46.987366 140.0
46.998657 120.0
47.000698 156.0
47.026096 168.0
47.037991 216.0
47.048649 144.0
47.074486 156.0
47.095951 216.0
47.127426 224.0
47.140137 164.0
47.155407 132.0
47.173374 212.0
47.182396 244.0
47.20575 164.0
47.224937 108.0
47.242661 124.0
47.25436 132.0
47.258949 172.0
47.270603 140.0
47.287369 276.0
47.295933 128.0
47.309071 220.0
47.321251 176.0
47.330162 200.0
47.343021 148.0
47.357079 140.0
47.371742 252.0
47.390076 128.0
47.400856 152.0
47.413372 216.0
47.417751 284.0
47.430344 232.0
47.444931 300.0
47.453712 284.0
47.47237 108.0
47.495335 316.0
47.516022 316.0
47.530392 336.0
47.550808 208.0
47.566174 188.0
47.584801 176.0
47.597538 128.0
47.612286 220.0
47.624165 148.0
47.64312 168.0
47.656727 164.0
47.66251 160.0
47.667667 92.0
47.681477 68.0
47.689663 136.0
47.70628 152.0
47.721436 304.0
47.743671 196.0
47.75518 96.0
47.771446 92.0
47.785759 128.0
47.800049 176.0
47.811417 312.0
47.833668 120.0
47.854424 264.0
47.872562 148.0
47.880173 156.0
47.882954 136.0
47.90559 140.0
47.920914 160.0
47.925255 56.0
47.929493 132.0
47.945377 116.0
47.971947 312.0
47.994514 224.0
48.033024 320.0
48.047134 40.0
48.053249 60.0
48.066231 184.0
48.076801 176.0
48.090805 168.0
48.108913 336.0
48.124191 104.0
48.1399 148.0
48.151379 200.0
48.16803 164.0
48.188622 176.0
48.199547 252.0
48.212502 200.0
48.238567 104.0
48.247524 168.0
48.256847 124.0
48.269123 72.0
48.277946 164.0
48.294067 128.0
48.313225 264.0
48.336056 572.0
48.352123 272.0
48.366493 144.0
48.377594 204.0
48.394997 136.0
48.4053 180.0
48.418209 148.0
48.437084 184.0
48.442257 84.0
48.446335 244.0
48.472282 384.0
48.495308 200.0
48.507427 216.0
48.525757 172.0
48.540382 156.0
48.561127 180.0
48.571541 228.0
48.585041 156.0
48.594707 136.0
48.598316 188.0
48.615772 200.0
48.630001 180.0
48.640667 136.0
48.648464 136.0
48.673626 200.0
48.679596 240.0
48.684956 260.0
48.703754 88.0
48.719604 172.0
48.72327 188.0
48.744225 168.0
48.7565 160.0
48.774464 252.0
48.802086 272.0
48.818794 108.0
48.852856 204.0
48.866806 232.0
48.879074 120.0
48.90081 84.0
48.908497 160.0
48.92017 344.0
48.943508 188.0
48.956512 200.0
48.979576 184.0
49.008686 172.0
49.02124 296.0
49.043194 204.0
49.063927 188.0
49.081173 552.0
49.107082 248.0
49.117447 164.0
49.132996 132.0
49.145981 204.0
49.148067 180.0
49.171963 160.0
49.18259 184.0
49.202183 376.0
49.219925 264.0
49.2299 124.0
49.246731 216.0
49.275185 200.0
49.311848 148.0
49.331097 140.0
49.352261 120.0
49.366875 168.0
49.386848 148.0
49.400421 384.0
49.421005 84.0
49.423431 152.0
49.448101 212.0
49.462837 172.0
49.474892 260.0
49.486767 252.0
49.498943 192.0
49.515198 128.0
49.529049 320.0
49.55188 256.0
49.566597 232.0
49.589409 124.0
49.607903 124.0
49.62233 188.0
49.652573 208.0
49.672012 164.0
49.68718 180.0
49.707951 164.0
49.730053 324.0
49.75423 260.0
49.777157 364.0
49.790607 124.0
49.81115 108.0
49.828011 128.0
49.842838 296.0
49.86306 144.0
49.874382 108.0
49.885117 208.0
49.909634 232.0
49.934074 88.0
49.968689 324.0
49.985886 212.0
49.99572 184.0
50.007362 140.0
50.029121 152.0
50.041321 132.0
50.052101 112.0
50.075588 80.0
50.090977 160.0
50.118584 156.0
50.131832 256.0
50.154736 116.0
50.168148 180.0
50.193752 348.0
50.219997 244.0
50.240509 176.0
50.250385 152.0
50.285015 252.0
50.298367 72.0
50.30825 68.0
50.329044 148.0
50.333141 108.0
50.346684 236.0
50.368164 112.0
50.396168 160.0
50.412304 340.0
50.428215 112.0
50.444996 200.0
50.462856 176.0
50.476238 252.0
50.488773 184.0
50.502018 168.0
50.507195 112.0
50.518459 160.0
50.531288 176.0
50.543385 240.0
50.556423 224.0
50.567104 192.0
50.57579 244.0
50.599483 164.0
50.609394 164.0
50.6278 112.0
50.647461 620.0
50.656616 84.0
50.667461 36.0
50.683842 228.0
50.696671 124.0
50.706676 344.0
50.721226 128.0
50.732788 168.0
50.744644 96.0
50.756344 316.0
50.767921 128.0
50.780834 176.0
50.787285 320.0
50.806396 108.0
50.818962 144.0
50.833256 152.0
50.859062 248.0
50.872139 264.0
50.888733 164.0
50.905998 140.0
50.935825 116.0
50.945267 220.0
50.960953 316.0
50.973976 144.0
50.985291 200.0
51.002506 80.0
51.016579 120.0
51.030434 152.0
51.051338 188.0
51.063038 136.0
51.080162 216.0
51.090385 132.0
51.098862 96.0
51.111561 128.0
51.140865 204.0
51.150093 56.0
51.153496 212.0
51.164463 408.0
51.175259 248.0
51.197285 200.0
51.207253 256.0
51.220829 264.0
51.23859 196.0
51.25108 144.0
51.261574 124.0
51.284939 160.0
51.305832 176.0
51.312363 168.0
51.319332 136.0
51.327347 224.0
51.345623 140.0
51.370461 152.0
51.396313 264.0
51.399059 132.0
51.414906 160.0
51.429951 124.0
51.441689 228.0
51.456905 272.0
51.483292 192.0
51.501072 172.0
51.513969 144.0
51.530273 192.0
51.542446 100.0
51.551735 216.0
51.561497 132.0
51.591137 140.0
51.610332 176.0
51.625595 124.0
51.638069 180.0
51.657444 232.0
51.669754 176.0
51.678902 112.0
51.688862 152.0
51.703831 152.0
51.732849 136.0
51.750813 196.0
51.75626 164.0
51.758945 152.0
51.782471 112.0
51.78651 228.0
51.800499 280.0
51.808918 136.0
51.816074 188.0
51.828999 120.0
51.84251 260.0
51.855602 128.0
51.876236 156.0
51.8922 164.0
51.906086 88.0
51.934124 152.0
51.949112 168.0
51.959335 288.0
51.978649 232.0
52.002205 172.0
52.025414 152.0
52.038094 68.0
52.054157 212.0
52.082882 320.0
52.095539 176.0
52.113373 116.0
52.130207 124.0
52.144394 296.0
52.160114 128.0
52.176273 292.0
52.191181 360.0
52.204712 276.0
52.218605 208.0
52.243916 224.0
52.26469 164.0
52.283897 232.0
52.297211 336.0
52.308998 128.0
52.339413 144.0
52.371502 156.0
52.397541 172.0
52.420177 152.0
52.442326 188.0
52.458588 156.0
52.470638 200.0
52.488461 88.0
52.505875 156.0
52.526955 128.0
52.551277 160.0
52.564911 132.0
52.590088 96.0
52.603588 252.0
52.622646 172.0
52.64492 192.0
52.658833 68.0
52.675735 168.0
52.68811 196.0
52.703262 240.0
52.719429 148.0
52.732433 104.0
52.743557 144.0
52.76318 268.0
52.779472 164.0
52.79409 276.0
52.819218 216.0
52.830299 336.0
52.858795 128.0
52.878117 160.0
52.905197 288.0
52.92387 108.0
52.928276 96.0
52.942726 132.0
52.975704 168.0
53.000641 288.0
53.023037 152.0
53.039536 148.0
53.064987 132.0
53.082783 140.0
53.092384 148.0
53.095009 148.0
53.115444 284.0
53.126293 144.0
53.142254 164.0
53.159679 296.0
53.176704 156.0
53.188694 140.0
53.199924 152.0
53.202637 112.0
53.214169 240.0
53.238705 156.0
53.248878 284.0
53.263191 164.0
53.285923 100.0
53.290943 108.0
53.295086 108.0
53.301975 136.0
53.317646 260.0
53.335163 180.0
53.349751 124.0
53.354774 196.0
53.361042 188.0
53.366482 164.0
53.393372 508.0
53.395149 228.0
53.401066 296.0
53.430534 76.0
53.446568 148.0
53.473896 164.0
53.484657 72.0
53.496502 112.0
53.527443 280.0
53.537636 148.0
53.550743 128.0
53.566036 72.0
53.57827 140.0
53.592991 212.0
53.626854 152.0
53.640373 172.0
53.658577 192.0
53.690353 148.0
53.706879 132.0
53.730366 180.0
53.754669 144.0
53.791782 160.0
53.813232 104.0
53.835609 160.0
53.857342 300.0
53.873993 124.0
53.898033 140.0
53.920341 292.0
53.936432 36.0
53.958614 140.0
53.984501 156.0
54.003582 168.0
54.016041 104.0
54.022137 140.0
54.027584 188.0
54.033211 180.0
54.061317 172.0
54.070351 260.0
54.091366 144.0
54.112888 136.0
54.126862 260.0
54.138775 76.0
54.14571 240.0
54.169258 172.0
54.198406 324.0
54.222824 28.0
54.235519 260.0
54.254719 204.0
54.264278 188.0
54.291729 236.0
54.320251 380.0
54.340622 156.0
54.372574 148.0
54.397007 176.0
54.414555 312.0
54.425766 240.0
54.445465 184.0
54.476009 264.0
54.49226 128.0
54.512981 156.0
54.515888 144.0
54.527397 160.0
54.546467 120.0
54.563961 100.0
54.568573 112.0
54.578537 288.0
54.602428 236.0
54.628475 120.0
54.656456 240.0
54.661255 220.0
54.691257 60.0
54.699776 200.0
54.713436 208.0
54.724865 360.0
54.739941 144.0
54.754551 184.0
54.767178 240.0
54.784607 216.0
54.799702 112.0
54.820423 276.0
54.835453 144.0
54.845737 168.0
54.865181 84.0
54.8755 316.0
54.89312 252.0
54.902889 184.0
54.929241 176.0
54.944717 344.0
54.957005 200.0
54.975803 140.0
54.990299 252.0
55.000568 136.0
55.018253 116.0
55.022842 180.0
55.028301 92.0
55.047081 156.0
55.059956 216.0
55.075172 92.0
55.085358 160.0
55.101898 152.0
55.118473 124.0
55.143135 172.0
55.155991 72.0
55.16634 108.0
55.181931 88.0
55.203129 136.0
55.213169 176.0
55.238758 192.0
55.258633 148.0
55.269867 52.0
55.286999 160.0
55.305489 176.0
55.316681 260.0
55.331783 176.0
55.348022 120.0
55.353931 148.0
55.360802 232.0
55.363434 292.0
55.374977 140.0
55.39407 160.0
55.406876 364.0
55.42141 308.0
55.439945 136.0
55.460865 160.0
55.490486 156.0
55.503307 336.0
55.519211 112.0
55.544914 80.0
55.555321 160.0
55.561321 152.0
55.564411 136.0
55.571804 128.0
55.582951 152.0
55.58593 188.0
55.609657 196.0
55.62928 296.0
55.64267 84.0
55.65377 308.0
55.670353 24.0
55.687927 120.0
55.712437 152.0
55.722317 264.0
55.728474 120.0
55.732899 132.0
55.753227 148.0
55.777462 72.0
55.811611 140.0
55.816113 140.0
55.841724 140.0
55.868778 156.0
55.900162 176.0
55.912128 116.0
55.929543 152.0
55.959934 140.0
55.983345 188.0
56.003212 176.0
56.006145 148.0
56.022038 84.0
56.049667 184.0
56.066998 152.0
56.08754 192.0
56.11203 268.0
56.127068 104.0
56.14278 148.0
56.169987 292.0
56.191502 324.0
56.222309 340.0
56.258015 108.0
56.263767 68.0
56.274075 288.0
56.307346 148.0
56.322403 136.0
56.34087 176.0
56.358299 156.0
56.368313 296.0
56.383156 164.0
56.394699 164.0
56.414051 236.0
56.452667 152.0
56.462543 180.0
56.487644 292.0
56.500275 140.0
56.509003 96.0
56.52417 112.0
56.534431 168.0
56.54438 120.0
56.561405 128.0
56.571781 200.0
56.585644 112.0
56.600067 120.0
56.612869 132.0
56.615795 196.0
56.634628 248.0
56.651958 272.0
56.67807 96.0
56.700081 200.0
56.722031 96.0
56.736614 200.0
56.75135 160.0
56.764072 240.0
56.782825 116.0
56.812416 300.0
56.828449 172.0
56.853558 188.0
56.866676 344.0
56.879654 184.0
56.893745 308.0
56.919945 96.0
56.932877 280.0
56.948509 176.0
56.960167 184.0
56.971779 140.0
56.992943 144.0
57.02187 308.0
57.038258 140.0
57.050823 268.0
57.073608 172.0
57.079288 164.0
57.100342 156.0
57.11319 296.0
57.129543 196.0
57.172935 148.0
57.196079 132.0
57.216904 268.0
57.234207 268.0
57.244137 168.0
57.272163 252.0
57.278572 224.0
57.300549 124.0
57.315041 88.0
57.333389 136.0
57.346481 324.0
57.369663 228.0
57.381371 160.0
57.400642 256.0
57.413223 128.0
57.421082 104.0
57.42347 228.0
57.437103 144.0
57.454136 108.0
57.461731 44.0
57.464249 192.0
57.476959 104.0
57.491222 168.0
57.514553 364.0
57.537331 132.0
57.567078 40.0
57.590183 72.0
57.6068 76.0
57.629486 248.0
57.651699 184.0
57.663883 180.0
57.676743 140.0
57.699337 120.0
57.722275 176.0
57.734741 200.0
57.761578 188.0
57.777729 120.0
57.805374 224.0
57.832241 176.0
57.846764 152.0
57.869152 296.0
57.888298 168.0
57.904079 168.0
57.925873 224.0
57.947636 264.0
57.960922 148.0
57.975983 96.0
57.988621 144.0
58.000969 140.0
58.013409 168.0
58.029659 156.0
58.053818 128.0
58.080132 180.0
58.085678 160.0
58.09866 160.0
58.110249 220.0
58.136024 128.0
58.146538 148.0
58.1595 128.0
58.184914 296.0
58.195747 148.0
58.209881 152.0
58.238789 184.0
58.26976 184.0
58.285305 172.0
58.300697 128.0
58.318985 256.0
58.329708 148.0
58.341785 264.0
58.358608 312.0
58.375481 176.0
58.392876 180.0
58.421566 116.0
58.438519 228.0
58.449383 372.0
58.469734 172.0
58.499084 20.0
58.514576 152.0
58.543476 204.0
58.563953 92.0
58.601429 120.0
58.622566 116.0
58.632912 168.0
58.649326 132.0
58.669094 96.0
58.698147 164.0
58.724171 136.0
58.761044 132.0
58.775002 164.0
58.788933 152.0
58.816509 140.0
58.838436 136.0
58.86134 132.0
58.885773 164.0
58.901344 168.0
58.919609 132.0
58.934452 152.0
58.949707 132.0
58.973473 140.0
58.988403 124.0
59.015339 252.0
59.03788 288.0
59.051483 180.0
59.073784 188.0
59.084492 180.0
59.099155 240.0
59.121166 132.0
59.133339 156.0
59.136204 116.0
59.162663 180.0
59.180447 144.0
59.202053 308.0
59.224152 136.0
59.241314 128.0
59.256729 140.0
59.265587 296.0
59.28661 208.0
59.298428 180.0
59.318951 200.0
59.345783 312.0
59.37252 304.0
59.404194 164.0
59.418716 216.0
59.439533 168.0
59.457947 124.0
59.483273 64.0
59.487091 124.0
59.492569 236.0
59.508633 248.0
59.524693 160.0
59.541649 116.0
59.554379 128.0
59.560619 148.0
59.567116 68.0
59.571228 136.0
59.593681 244.0
59.607334 172.0
59.627621 140.0
59.640377 208.0
59.65498 140.0
59.684052 176.0
59.69796 176.0
59.721687 164.0
59.743488 180.0
59.757286 168.0
59.786556 176.0
59.80801 140.0
59.814228 364.0
59.829689 152.0
59.844833 168.0
59.85611 132.0
59.872814 264.0
59.877502 164.0
59.882523 232.0
59.902733 128.0
59.922894 124.0
59.941982 208.0
59.95295 276.0
59.973614 40.0
59.988911 104.0
59.997353 160.0
60.013008 152.0
60.026928 288.0
60.047424 120.0
60.059452 248.0
60.07658 124.0
60.087017 304.0
60.120132 156.0
60.136921 192.0
60.1632 180.0
60.188671 140.0
60.201683 216.0
60.207272 232.0
60.234386 108.0
60.244892 96.0
60.260777 96.0
60.292309 164.0
60.300449 148.0
60.326385 292.0
60.337925 116.0
60.351627 116.0
60.363106 92.0
60.402103 144.0
60.424282 320.0
60.451931 316.0
60.470428 188.0
60.495949 184.0
60.517235 228.0
60.520767 204.0
60.525494 264.0
60.549252 244.0
60.563793 196.0
60.580402 236.0
60.593288 256.0
60.606884 124.0
60.644428 272.0
60.666687 320.0
60.67857 160.0
60.689083 164.0
60.702721 228.0
60.719685 148.0
60.726292 80.0
60.737911 132.0
60.758556 200.0
60.775913 168.0
60.784149 128.0
60.802177 152.0
60.821182 92.0
60.827312 128.0
60.846344 148.0
60.863396 136.0
60.880215 356.0
60.896717 416.0
60.924603 280.0
60.940258 204.0
60.977421 168.0
61.005047 200.0
61.020016 196.0
61.037998 228.0
61.050415 172.0
61.069725 144.0
61.084408 180.0
61.130646 252.0
61.145302 304.0
61.156258 156.0
61.167671 272.0
61.171108 168.0
61.195049 196.0
61.208229 324.0
61.232288 220.0
61.239326 136.0
61.243763 164.0
61.268253 256.0
61.292873 224.0
61.322281 128.0
61.351238 240.0
61.356995 132.0
61.393974 260.0
61.400188 128.0
61.415272 328.0
61.428562 168.0
61.434277 160.0
61.444595 128.0
61.468636 164.0
61.482151 176.0
61.503628 184.0
61.517063 156.0
61.541534 172.0
61.554356 288.0
61.573051 392.0
61.585358 136.0
61.601257 140.0
61.606274 128.0
61.610195 156.0
61.633183 340.0
61.658062 208.0
61.68288 108.0
61.696716 68.0
61.711082 148.0
61.723541 128.0
61.743626 124.0
61.769733 252.0
61.801552 132.0
61.814022 52.0
61.833408 336.0
61.872765 256.0
61.894245 160.0
61.907475 132.0
61.920475 128.0
61.949539 188.0
61.965195 292.0
61.993214 160.0
62.012028 188.0
62.02467 136.0
62.039066 152.0
62.050327 260.0
62.084843 428.0
62.105206 144.0
62.124073 144.0
62.143154 88.0
62.157192 116.0
62.172173 308.0
62.193439 152.0
62.234028 116.0
62.256458 564.0
62.274784 248.0
62.281067 124.0
62.286247 132.0
62.300785 364.0
62.330097 124.0
62.342854 152.0
62.358902 132.0
62.38195 340.0
62.405712 256.0
62.420238 236.0
62.457062 156.0
62.472904 280.0
62.487911 324.0
62.506035 84.0
62.520199 76.0
62.554825 120.0
62.570065 288.0
62.587704 240.0
62.617523 132.0
62.645302 88.0
62.665154 116.0
62.689056 176.0
62.715889 96.0
62.721485 80.0
62.725834 140.0
62.731529 144.0
62.751751 196.0
62.764839 120.0
62.78511 136.0
62.798294 280.0
62.824299 212.0
62.833412 108.0
62.845371 276.0
62.860317 136.0
62.866692 152.0
62.875195 308.0
62.903816 268.0
62.940022 360.0
62.9632 76.0
62.992489 228.0
63.012169 176.0
63.023228 156.0
63.046684 128.0
63.054043 56.0
63.076019 296.0
63.089607 168.0
63.118816 152.0
63.130718 44.0
63.148731 164.0
63.17252 328.0
63.185646 176.0
63.207565 156.0
63.227219 184.0
63.242573 160.0
63.26231 376.0
63.273987 120.0
63.293831 200.0
63.321796 144.0
63.327778 248.0
63.361813 112.0
63.383461 252.0
63.399841 124.0
63.428371 144.0
63.443726 144.0
63.45628 180.0
63.475025 124.0
63.485699 228.0
63.504478 136.0
63.534088 172.0
63.547989 140.0
63.553982 176.0
63.579044 104.0
63.599007 132.0
63.618137 140.0
63.644691 124.0
63.663334 128.0
63.68346 204.0
63.707157 208.0
63.74445 128.0
63.76572 244.0
63.769005 136.0
63.779255 284.0
63.799831 300.0
63.83461 116.0
63.849728 240.0
63.881687 376.0
63.896446 128.0
63.902119 160.0
63.920067 252.0
63.943661 208.0
63.95639 152.0
63.969116 204.0
63.989368 148.0
64.019005 240.0
64.028809 280.0
64.046608 460.0
64.069069 244.0
64.103004 212.0
64.115524 144.0
64.136696 208.0
64.158287 284.0
64.17028 168.0
64.193382 72.0
64.211899 240.0
64.234367 184.0
64.272659 124.0
64.278122 108.0
64.284439 156.0
64.29184 148.0
64.294876 176.0
64.305977 144.0
64.321281 176.0
64.344688 144.0
64.355568 132.0
64.371346 324.0
64.38826 152.0
64.405548 108.0
64.425201 128.0
64.431503 144.0
64.440674 184.0
64.45575 172.0
64.47834 288.0
64.492874 120.0
64.512512 144.0
64.523819 388.0
64.55159 116.0
64.563995 128.0
64.586403 380.0
64.609421 140.0
64.633057 192.0
64.664093 144.0
64.678253 144.0
64.69725 244.0
64.709206 148.0
64.759956 124.0
64.779083 108.0
64.804466 156.0
64.834152 180.0
64.854904 156.0
64.865936 364.0
64.890205 132.0
64.903084 132.0
64.923233 412.0
64.946938 172.0
64.962067 400.0
64.980621 140.0
64.994461 176.0
65.010757 160.0
65.028862 296.0
65.058517 144.0
65.076828 136.0
65.085358 124.0
65.087898 176.0
65.100616 204.0
65.114288 156.0
65.128052 208.0
65.14563 96.0
65.172737 72.0
65.209557 144.0
65.231499 324.0
65.246643 324.0
65.265579 168.0
65.284302 332.0
65.295494 132.0
65.311607 156.0
65.335426 284.0
65.362946 216.0
65.397881 56.0
65.411377 52.0
65.446205 264.0
65.469208 144.0
65.484825 160.0
65.521873 220.0
65.542702 112.0
65.556984 168.0
65.57663 192.0
65.601013 136.0
65.614609 140.0
65.629974 112.0
65.668884 140.0
65.709831 124.0
65.749825 392.0
65.770287 172.0
65.790863 136.0
65.815323 140.0
65.826447 144.0
65.839638 56.0
65.856087 152.0
65.871941 132.0
65.892944 140.0
65.91198 148.0
65.934319 152.0
65.948883 156.0
65.963219 140.0
65.974937 232.0
65.995148 196.0
66.01255 116.0
66.028992 136.0
66.052155 124.0
66.076927 180.0
66.082756 300.0
66.105278 176.0
66.133255 112.0
66.138374 184.0
66.157669 128.0
66.171577 180.0
66.202484 152.0
66.22541 152.0
66.240005 180.0
66.252098 88.0
66.273895 160.0
66.299896 160.0
66.330399 176.0
66.35173 164.0
66.365067 148.0
66.375801 356.0
66.398506 184.0
66.417633 140.0
66.448524 152.0
66.477547 180.0
66.513 256.0
66.518707 228.0
66.54213 144.0
66.568527 180.0
66.609932 192.0
66.624367 188.0
66.654442 424.0
66.703499 288.0
66.723854 320.0
66.752007 124.0
66.765129 172.0
66.790878 124.0
66.793068 208.0
66.821945 112.0
66.835182 300.0
66.863678 372.0
66.877045 336.0
66.910461 144.0
66.942398 176.0
66.953796 72.0
66.971313 148.0
66.987938 176.0
67.009842 148.0
67.033424 128.0
67.036034 100.0
67.047264 264.0
67.06562 160.0
67.076691 168.0
67.093925 144.0
67.105339 244.0
67.123955 172.0
67.144608 300.0
67.166237 192.0
67.186195 148.0
67.199181 156.0
67.218292 208.0
67.243446 248.0
67.260849 172.0
67.264809 160.0
67.271248 236.0
67.304054 216.0
67.322952 176.0
67.333061 200.0
67.345016 188.0
67.359924 92.0
67.377007 88.0
67.400169 120.0
67.421295 132.0
67.43721 296.0
67.455978 172.0
67.472038 224.0
67.482056 104.0
67.517876 144.0
67.533768 384.0
67.551674 268.0
67.580383 132.0
67.593132 168.0
67.614288 248.0
67.627937 132.0
67.631844 180.0
67.668556 300.0
67.672501 204.0
67.678101 160.0
67.708313 160.0
67.722122 120.0
67.744019 156.0
67.770058 156.0
67.79422 200.0
67.805885 316.0
67.819084 400.0
67.844284 140.0
67.85524 164.0
67.893814 296.0
67.90387 160.0
67.914818 312.0
67.929779 200.0
67.942337 124.0
67.971405 172.0
67.989639 160.0
68.009987 152.0
68.024734 236.0
68.03196 124.0
68.046234 148.0
68.074898 140.0
68.091972 124.0
68.098724 88.0
68.11853 228.0
68.135612 332.0
68.161011 188.0
68.184807 328.0
68.204933 192.0
68.210342 116.0
68.231682 408.0
68.245949 120.0
68.250114 332.0
68.273247 148.0
68.289192 168.0
68.304405 336.0
68.335907 132.0
68.342911 192.0
68.357681 228.0
68.378464 96.0
68.393097 204.0
68.406441 416.0
68.417725 164.0
68.432472 160.0
68.444542 140.0
68.459343 164.0
68.478699 152.0
68.522964 128.0
68.527222 112.0
68.542175 136.0
68.565903 52.0
68.578545 148.0
68.59362 152.0
68.597633 252.0
68.612892 200.0
68.642815 140.0
68.656578 556.0
68.671387 124.0
68.694374 120.0
68.72744 192.0
68.754669 244.0
68.784683 224.0
68.801651 416.0
68.841774 196.0
68.861183 164.0
68.88192 508.0
68.899765 120.0
68.924171 492.0
68.94548 80.0
68.968681 316.0
68.992821 420.0
69.006805 200.0
69.03611 156.0
69.060112 132.0
69.075012 192.0
69.121841 232.0
69.139915 84.0
69.156952 164.0
69.162315 164.0
69.177872 148.0
69.201324 108.0
69.208038 72.0
69.218086 152.0
69.244392 112.0
69.26091 136.0
69.265999 272.0
69.270897 124.0
69.293579 108.0
69.305908 196.0
69.332436 156.0
69.347649 104.0
69.362572 92.0
69.375275 156.0
69.388832 172.0
69.413963 92.0
69.432449 108.0
69.438591 108.0
69.444931 184.0
69.457054 208.0
69.474899 144.0
69.499245 172.0
69.51992 128.0
69.54171 108.0
69.56694 140.0
69.59639 176.0
69.609886 160.0
69.641716 124.0
69.671524 168.0
69.685188 164.0
69.701454 104.0
69.72274 64.0
69.754829 156.0
69.79818 144.0
69.810844 100.0
69.82415 220.0
69.846008 28.0
69.863312 140.0
69.886307 220.0
69.898415 112.0
69.930336 152.0
69.944305 224.0
69.951256 248.0
69.968086 176.0
69.981613 152.0
70.009148 220.0
70.022896 192.0
70.057594 436.0
70.072113 132.0
70.097382 164.0
70.12027 148.0
70.152168 192.0
70.163834 276.0
70.182175 176.0
70.193848 140.0
70.219078 124.0
70.241447 192.0
70.265572 148.0
70.277252 188.0
70.293404 100.0
70.329437 192.0
70.342339 128.0
70.353371 112.0
70.388329 300.0
70.411095 112.0
70.428757 148.0
70.442528 96.0
70.454224 116.0
70.482628 128.0
70.494324 124.0
70.507309 108.0
70.520981 176.0
70.554001 220.0
70.575066 144.0
70.624153 344.0
70.635086 144.0
70.64711 320.0
70.669891 288.0
70.68663 180.0
70.706184 180.0
70.72123 336.0
70.736725 116.0
70.749367 140.0
70.767586 168.0
70.786682 352.0
70.811325 180.0
70.844879 156.0
70.8573 200.0
70.869698 120.0
70.895531 144.0
70.918488 148.0
70.958336 160.0
70.992126 116.0
71.008194 328.0
71.025047 164.0
71.050041 548.0
71.078354 140.0
71.092155 140.0
71.10894 280.0
71.123352 160.0
71.128662 112.0
71.134995 320.0
71.15834 392.0
71.178238 188.0
71.201065 184.0
71.2146 548.0
71.244385 340.0
71.272705 200.0
71.285576 248.0
71.305183 156.0
71.329353 192.0
71.355873 136.0
71.371735 120.0
71.384453 80.0
71.402954 188.0
71.421265 176.0
71.427345 168.0
71.464706 96.0
71.469589 124.0
71.476501 172.0
71.492119 172.0
71.518089 244.0
71.545639 196.0
71.566582 184.0
71.569786 204.0
71.578979 140.0
71.583725 260.0
71.612495 64.0
71.631119 120.0
71.663666 320.0
71.674774 128.0
71.702202 196.0
71.726318 332.0
71.739716 104.0
71.761627 168.0
71.77343 428.0
71.798729 312.0
71.815681 128.0
71.828575 96.0
71.834808 164.0
71.846397 228.0
71.862831 124.0
71.8946 164.0
71.913055 68.0
71.925217 128.0
71.940041 300.0
71.953552 240.0
71.97068 164.0
71.977554 144.0
71.998039 196.0
72.011559 300.0
72.031059 184.0
72.043472 120.0
72.057396 188.0
72.07811 184.0
72.113083 204.0
72.136688 108.0
72.165154 128.0
72.180374 72.0
72.209122 132.0
72.231888 408.0
72.256485 140.0
72.271599 172.0
72.296906 144.0
72.30069 160.0
72.320953 104.0
72.34079 196.0
72.356339 104.0
72.368195 104.0
72.393311 200.0
72.405556 244.0
72.424072 192.0
72.443878 104.0
72.471512 240.0
72.482681 176.0
72.509995 248.0
72.539825 180.0
72.559235 224.0
72.57428 284.0
72.596947 40.0
72.615601 104.0
72.651016 384.0
72.663254 128.0
72.676605 176.0
72.693642 92.0
72.706024 148.0
72.727585 156.0
72.738953 80.0
72.760887 108.0
72.771538 280.0
72.775909 188.0
72.803986 308.0
72.833542 164.0
72.850815 300.0
72.864441 196.0
72.88295 92.0
72.899117 136.0
72.919273 176.0
72.925766 152.0
72.930344 128.0
72.956749 88.0
72.966072 316.0
72.988602 224.0
73.002907 148.0
73.017548 228.0
73.064041 112.0
73.08429 284.0
73.098076 104.0
73.119209 180.0
73.13456 136.0
73.154381 96.0
73.189529 148.0
73.211182 132.0
73.228554 112.0
73.241852 112.0
73.272034 236.0
73.282822 80.0
73.308937 344.0
73.33078 112.0
73.347549 180.0
73.381699 224.0
73.40242 104.0
73.412773 92.0
73.415253 132.0
73.438683 184.0
73.461868 84.0
73.474625 132.0
73.488274 156.0
73.519279 152.0
73.547951 136.0
73.581329 268.0
73.611839 132.0
73.641663 56.0
73.655052 168.0
73.672935 196.0
73.691452 48.0
73.716812 128.0
73.728035 144.0
73.735458 148.0
73.740646 80.0
73.758186 220.0
73.787918 272.0
73.810349 292.0
73.84082 180.0
73.857445 120.0
73.882805 192.0
73.910782 284.0
73.923309 124.0
73.96788 212.0
73.990356 156.0
74.003479 192.0
74.021736 124.0
74.034546 104.0
74.045219 128.0
74.066849 192.0
74.10041 132.0
74.124634 260.0
74.152245 124.0
74.177528 248.0
74.211319 268.0
74.217613 116.0
74.223419 168.0
74.253326 388.0
74.267311 256.0
74.295609 212.0
74.301727 168.0
74.308609 180.0
74.328728 104.0
74.355133 76.0
74.361862 144.0
74.393646 232.0
74.410179 180.0
74.422806 248.0
74.443825 116.0
74.470917 416.0
74.489738 148.0
74.533798 336.0
74.561951 156.0
74.580856 128.0
74.590866 116.0
74.616753 104.0
74.64006 200.0
74.663498 188.0
74.683357 136.0
74.694832 208.0
74.724533 196.0
74.746254 212.0
74.775208 144.0
74.803291 352.0
74.826851 164.0
74.838898 120.0
74.860374 444.0
74.904228 180.0
74.936279 104.0
74.941887 136.0
74.955406 100.0
74.970467 276.0
74.985321 232.0
75.020889 192.0
75.031868 288.0
75.054283 104.0
75.07048 112.0
75.077606 176.0
75.085083 116.0
75.104424 104.0
75.122383 228.0
75.150871 156.0
75.171661 164.0
75.210342 168.0
75.233902 144.0
75.264328 212.0
75.275841 228.0
75.284843 152.0
75.298546 220.0
75.346619 212.0
75.382843 152.0
75.407959 196.0
75.426537 120.0
75.455482 276.0
75.470482 176.0
75.501076 152.0
75.514641 340.0
75.535622 152.0
75.549408 232.0
75.563148 180.0
75.616028 288.0
75.635788 152.0
75.660034 412.0
75.686134 112.0
75.700546 116.0
75.721779 360.0
75.737434 80.0
75.74295 156.0
75.754974 216.0
75.768539 124.0
75.784363 144.0
75.811813 168.0
75.832207 420.0
75.846077 136.0
75.863411 100.0
75.88163 220.0
75.908951 284.0
75.932152 124.0
75.964409 132.0
75.982895 204.0
76.006546 144.0
76.049187 200.0
76.068016 152.0
76.083801 380.0
76.105225 136.0
76.118523 208.0
76.146675 88.0
76.166069 152.0
76.180084 148.0
76.193222 240.0
76.208031 168.0
76.211426 76.0
76.223053 208.0
76.236359 156.0
76.272934 144.0
76.295952 76.0
76.316208 296.0
76.341148 156.0
76.356941 136.0
76.370506 120.0
76.386612 204.0
76.40094 68.0
76.418724 240.0
76.442085 248.0
76.465912 152.0
76.472046 132.0
76.489822 172.0
76.521843 160.0
76.544304 320.0
76.586464 148.0
76.602623 292.0
76.618904 272.0
76.669159 148.0
76.704857 148.0
76.719917 52.0
76.729767 116.0
76.75415 184.0
76.769539 104.0
76.805222 124.0
76.819481 192.0
76.846664 148.0
76.85022 296.0
76.882774 192.0
76.903145 136.0
76.927505 236.0
76.954819 360.0
76.98378 152.0
76.997162 48.0
77.009445 244.0
77.024391 276.0
77.044159 244.0
77.067619 144.0
77.085411 204.0
77.098686 176.0
77.10598 156.0
77.110992 228.0
77.143784 132.0
77.166512 304.0
77.181061 164.0
77.205612 148.0
77.236076 96.0
77.25631 132.0
77.277397 196.0
77.298958 316.0
77.32045 124.0
77.335373 148.0
77.387695 156.0
77.409889 216.0
77.424957 184.0
77.461128 132.0
77.463303 176.0
77.495537 336.0
77.508759 224.0
77.521988 148.0
77.554459 208.0
77.572418 144.0
77.59243 228.0
77.605865 156.0
77.625404 76.0
77.654839 388.0
77.702003 160.0
77.724373 176.0
77.736801 96.0
77.749985 208.0
77.76368 292.0
77.782761 148.0
77.796333 184.0
77.81662 280.0
77.835983 96.0
77.853539 144.0
77.876175 256.0
77.896477 136.0
77.925888 328.0
77.953339 152.0
77.959419 136.0
77.965836 356.0
77.971718 228.0
77.998657 396.0
78.020294 252.0
78.043007 168.0
78.061539 164.0
78.088013 152.0
78.111244 116.0
78.150452 228.0
78.156151 120.0
78.177139 224.0
78.194679 236.0
78.210045 112.0
78.235825 100.0
78.249908 144.0
78.292519 120.0
78.318024 176.0
78.337006 228.0
78.360451 188.0
78.389999 172.0
78.414276 372.0
78.437775 144.0
78.456032 100.0
78.480423 168.0
78.511299 116.0
78.546776 128.0
78.574188 140.0
78.595367 96.0
78.613007 208.0
78.631798 352.0
78.646027 124.0
78.652969 168.0
78.660591 96.0
78.664597 300.0
78.680664 216.0
78.709267 128.0
78.750473 144.0
78.763329 172.0
78.778564 144.0
78.807289 168.0
78.830215 176.0
78.850723 192.0
78.87056 92.0
78.893707 372.0
78.910881 176.0
78.932518 320.0
78.950638 228.0
78.9795 228.0
79.011642 140.0
79.019196 168.0
79.025276 216.0
79.038727 144.0
79.049133 340.0
79.072495 304.0
79.09127 184.0
79.096626 76.0
79.116608 104.0
79.128372 92.0
79.153152 300.0
79.182129 268.0
79.205002 76.0
79.209114 176.0
79.221519 196.0
79.23497 132.0
79.249168 116.0
79.263435 152.0
79.277802 160.0
79.30204 160.0
79.313377 236.0
79.32988 128.0
79.344299 196.0
79.360428 96.0
79.363708 132.0
79.37616 184.0
79.388245 356.0
79.410568 152.0
79.415871 124.0
79.43441 556.0
79.447136 120.0
79.470642 340.0
79.485687 124.0
79.518532 156.0
79.53894 120.0
79.57695 104.0
79.60006 108.0
79.607124 144.0
79.612099 140.0
79.618736 108.0
79.638481 140.0
79.678108 152.0
79.69146 212.0
79.724174 224.0
79.743858 208.0
79.774582 112.0
79.778656 324.0
79.806686 164.0
79.812614 164.0
79.828926 176.0
79.855865 224.0
79.873886 276.0
79.892929 140.0
79.915054 124.0
79.934967 188.0
79.946342 136.0
79.958893 144.0
79.989128 132.0
80.0177 156.0
80.039001 212.0
80.045898 292.0
80.060974 92.0
80.073235 84.0
80.094696 92.0
80.123703 128.0
80.150017 104.0
80.178963 276.0
80.221771 248.0
80.227432 176.0
80.240456 180.0
80.251328 164.0
80.279175 168.0
80.301323 332.0
80.323158 140.0
80.340157 144.0
80.359573 120.0
80.379776 148.0
80.395844 192.0
80.423943 152.0
80.447754 176.0
80.458984 208.0
80.478188 260.0
80.498993 104.0
80.513321 112.0
80.53624 144.0
80.558624 136.0
80.585358 116.0
80.599686 144.0
80.624451 176.0
80.651909 148.0
80.673798 164.0
80.695686 156.0
80.738182 188.0
80.754272 476.0
80.767403 132.0
80.782387 168.0
80.804695 288.0
80.828278 340.0
80.857552 316.0
80.888618 408.0
80.912895 268.0
80.935028 140.0
80.966156 148.0
80.987015 200.0
80.995232 192.0
81.00161 340.0
81.021629 256.0
81.037247 172.0
81.06987 188.0
81.090927 156.0
81.140045 100.0
81.144478 180.0
81.167503 120.0
81.199074 188.0
81.231171 276.0
81.248024 76.0
81.252289 164.0
81.269211 288.0
81.299568 252.0
81.314697 144.0
81.33638 304.0
81.358437 320.0
81.375954 116.0
81.388206 252.0
81.405266 260.0
81.425919 180.0
81.442184 216.0
81.453842 184.0
81.469963 92.0
81.486458 268.0
81.507408 388.0
81.522392 160.0
81.540771 264.0
81.568001 108.0
81.581909 172.0
81.587212 220.0
81.593262 292.0
81.631645 220.0
81.65876 152.0
81.672775 128.0
81.690544 180.0
81.753685 76.0
81.782974 264.0
81.800537 92.0
81.804604 92.0
81.817314 204.0
81.850967 152.0
81.888916 120.0
81.901413 168.0
81.936142 148.0
81.967491 160.0
81.999428 156.0
82.033371 140.0
82.050819 128.0
82.076714 200.0
82.089684 200.0
82.11895 156.0
82.142258 160.0
82.171898 240.0
82.187569 128.0
82.193192 128.0
82.218567 144.0
82.240623 144.0
82.260643 116.0
82.289162 180.0
82.309227 184.0
82.33638 112.0
82.357666 276.0
82.369759 236.0
82.395103 172.0
82.417244 256.0
82.431557 108.0
82.438332 140.0
82.444695 124.0
82.472313 228.0
82.483795 284.0
82.508919 168.0
82.528763 160.0
82.540001 240.0
82.549469 168.0
82.584053 300.0
82.597481 192.0
82.612724 236.0
82.627953 128.0
82.633064 132.0
82.641411 228.0
82.657928 136.0
82.671585 172.0
82.687256 188.0
82.743599 280.0
82.777725 236.0
82.796463 124.0
82.799171 120.0
82.812431 192.0
82.837456 164.0
82.86924 188.0
82.892212 116.0
82.895691 180.0
82.911064 156.0
82.93187 192.0
82.955406 176.0
82.9757 192.0
82.987282 296.0
82.998573 188.0
83.01722 196.0
83.030846 172.0
83.04541 176.0
83.079788 32.0
83.097481 152.0
83.122772 192.0
83.126396 64.0
83.165138 184.0
83.182167 180.0
83.189125 72.0
83.19442 184.0
83.216888 152.0
83.23455 112.0
83.278419 316.0
83.29377 216.0
83.319305 108.0
83.340775 96.0
83.358948 120.0
83.379913 108.0
83.402008 144.0
83.427238 132.0
83.447174 200.0
83.483337 112.0
83.506882 96.0
83.53347 344.0
83.547401 80.0
83.55397 108.0
83.57563 192.0
83.621788 204.0
83.648125 128.0
83.672112 428.0
83.693008 144.0
83.723999 172.0
83.752052 208.0
83.769058 360.0
83.795631 76.0
83.815735 132.0
83.837547 504.0
83.883049 148.0
83.928879 340.0
83.955528 128.0
83.983398 144.0
84.000809 212.0
84.01757 120.0
84.04554 248.0
84.061203 148.0
84.085884 140.0
84.118057 152.0
84.135696 164.0
84.175613 260.0
84.202415 148.0
84.223938 188.0
84.240631 156.0
84.264702 112.0
84.283546 200.0
84.298203 192.0
84.319458 240.0
84.335793 196.0
84.363396 160.0
84.410622 176.0
84.422234 188.0
84.455551 448.0
84.472412 128.0
84.507164 292.0
84.528122 120.0
84.533775 212.0
84.548294 168.0
84.553734 148.0
84.561783 192.0
84.565445 256.0
84.640961 256.0
84.656151 112.0
84.674866 172.0
84.711258 360.0
84.723724 348.0
84.757423 96.0
84.810341 148.0
84.83709 144.0
84.852325 288.0
84.870911 544.0
84.918808 168.0
84.957642 128.0
84.978256 192.0
85.007881 156.0
85.023682 108.0
85.058609 168.0
85.073456 180.0
85.088676 396.0
85.119888 104.0
85.141174 412.0
85.178825 88.0
85.206406 232.0
85.233475 196.0
85.254326 220.0
85.293564 356.0
85.315956 112.0
85.342949 336.0
85.362701 144.0
85.382507 128.0
85.405197 396.0
85.444847 296.0
85.473961 208.0
85.507179 232.0
85.510521 156.0
85.519264 152.0
85.53627 396.0
85.574692 292.0
85.59301 176.0
85.601097 168.0
85.608444 124.0
85.624001 128.0
85.643478 324.0
85.65593 268.0
85.675674 132.0
85.704292 148.0
85.723251 192.0
85.766716 496.0
85.823776 156.0
85.839806 260.0
85.880875 128.0
85.908318 296.0
85.924522 172.0
85.950462 228.0
85.969063 228.0
85.982544 296.0
85.999092 552.0
86.020836 216.0
86.046829 260.0
86.064148 148.0
86.076927 356.0
86.091003 288.0
86.095078 128.0
86.135178 496.0
86.152603 188.0
86.175789 204.0
86.200958 296.0
86.215393 64.0
86.238503 144.0
86.243858 224.0
86.27993 188.0
86.295128 92.0
86.312248 240.0
86.332802 212.0
86.366409 228.0
86.390739 172.0
86.406418 48.0
86.43158 308.0
86.458748 128.0
86.46463 176.0
86.492577 136.0
86.506393 320.0
86.533974 100.0
86.553215 128.0
86.568802 312.0
86.59565 196.0
86.617813 84.0
86.642197 316.0
86.655014 88.0
86.671059 116.0
86.688835 172.0
86.709511 284.0
86.734627 184.0
86.769287 224.0
86.782074 224.0
86.78891 140.0
86.806213 180.0
86.827682 236.0
86.844635 372.0
86.873856 316.0
86.898567 88.0
86.924561 212.0
86.947685 296.0
86.987007 124.0
87.016167 136.0
87.034119 312.0
87.051483 216.0
87.073166 168.0
87.095695 252.0
87.108925 212.0
87.144608 128.0
87.169922 252.0
87.190308 208.0
87.212074 188.0
87.251427 428.0
87.278992 132.0
87.293518 344.0
87.309761 328.0
87.329269 188.0
87.361893 128.0
87.387032 280.0
87.413933 244.0
87.437225 144.0
87.460457 116.0
87.475052 100.0
87.492844 332.0
87.522972 180.0
87.544243 52.0
87.557274 352.0
87.577766 112.0
87.611649 176.0
87.628944 180.0
87.646782 80.0
87.667747 176.0
87.690071 172.0
87.707718 288.0
87.738457 136.0
87.751999 136.0
87.765129 188.0
87.802307 360.0
87.809563 184.0
87.814087 136.0
87.85302 144.0
87.86528 284.0
87.872444 192.0
87.903069 212.0
87.927467 184.0
87.945076 156.0
87.978516 144.0
87.992111 168.0
88.008545 176.0
88.023483 132.0
88.041405 208.0
88.073524 232.0
88.088715 112.0
88.107536 132.0
88.131477 300.0
88.177315 104.0
88.195007 196.0
88.199806 320.0
88.221443 312.0
88.232605 52.0
88.239128 156.0
88.272011 388.0
88.283607 240.0
88.305672 236.0
88.326248 216.0
88.347847 212.0
88.371872 148.0
88.412048 112.0
88.437653 292.0
88.459785 308.0
88.475029 272.0
88.503799 188.0
88.527237 216.0
88.545494 144.0
88.577026 152.0
88.615616 256.0
88.651817 192.0
88.663727 128.0
88.689194 172.0
88.705536 108.0
88.745026 376.0
88.781364 164.0
88.797157 124.0
88.824081 124.0
88.853004 156.0
88.867706 144.0
88.887695 88.0
88.91803 208.0
88.937645 148.0
88.966438 160.0
88.990707 164.0
89.008072 128.0
89.033218 252.0
89.046989 180.0
89.062889 136.0
89.098709 176.0
89.125603 204.0
89.152328 152.0
89.169235 180.0
89.187164 244.0
89.201759 124.0
89.204353 112.0
89.215309 176.0
89.233017 196.0
89.248886 140.0
89.270691 120.0
89.301453 164.0
89.328506 204.0
89.353699 80.0
89.376678 140.0
89.388527 384.0
89.429085 184.0
89.455032 120.0
89.477951 100.0
89.483604 72.0
89.4963 284.0
89.527672 188.0
89.55619 168.0
89.57563 352.0
89.59713 156.0
89.621849 264.0
89.641808 216.0
89.658318 240.0
89.672768 168.0
89.687576 48.0
89.701355 240.0
89.726669 152.0
89.742126 192.0
89.758492 156.0
89.76387 120.0
89.796936 140.0
89.810585 84.0
89.825623 400.0
89.852325 284.0
89.870995 184.0
89.900414 160.0
89.917091 256.0
89.942802 128.0
89.962151 128.0
89.977943 200.0
89.997864 296.0
90.019623 348.0
90.048302 128.0
90.081329 244.0
90.114067 244.0
90.140869 172.0
90.159836 140.0
90.173775 140.0
90.195137 160.0
90.223351 88.0
90.242691 152.0
90.275681 144.0
90.301262 144.0
90.323067 180.0
90.33654 100.0
90.356308 156.0
90.374245 272.0
90.395386 200.0
90.416191 72.0
90.432068 192.0
90.471451 136.0
90.473862 132.0
90.481377 168.0
90.497314 344.0
90.514565 104.0
90.52681 168.0
90.56649 148.0
90.587227 184.0
90.59346 40.0
90.600677 404.0
90.614861 404.0
90.639198 200.0
90.672157 156.0
90.686798 164.0
90.705513 68.0
90.724915 136.0
90.755852 164.0
90.766563 140.0
90.770676 164.0
90.785843 120.0
90.802559 168.0
90.820915 216.0
90.844833 156.0
90.8619 112.0
90.902512 188.0
90.918381 136.0
90.943665 140.0
90.965309 172.0
90.994934 208.0
91.013107 156.0
91.054985 5908.0
91.085907 116.0
91.110092 324.0
91.146118 220.0
91.17614 212.0
91.182724 92.0
91.189941 176.0
91.219368 272.0
91.250687 288.0
91.273056 328.0
91.290184 140.0
91.32312 160.0
91.341026 208.0
91.364761 116.0
91.39653 140.0
91.417175 280.0
91.443985 152.0
91.470604 168.0
91.497574 284.0
91.510422 160.0
91.525032 240.0
91.550972 184.0
91.557434 96.0
91.565689 176.0
91.576881 144.0
91.616402 220.0
91.657936 184.0
91.690872 188.0
91.710014 60.0
91.728119 88.0
91.75386 52.0
91.792625 228.0
91.821579 124.0
91.847298 132.0
91.862366 132.0
91.901474 120.0
91.914497 272.0
91.945953 124.0
91.962288 120.0
91.987679 296.0
92.056648 708.0
92.082642 172.0
92.117348 160.0
92.138496 132.0
92.154007 452.0
92.198524 192.0
92.257713 164.0
92.290962 332.0
92.31134 148.0
92.318245 144.0
92.351097 220.0
92.356575 332.0
92.364494 292.0
92.416306 184.0
92.439552 136.0
92.454865 132.0
92.469109 292.0
92.493141 128.0
92.517273 112.0
92.539566 144.0
92.56826 216.0
92.593399 132.0
92.616898 172.0
92.63752 144.0
92.652016 132.0
92.656105 180.0
92.694885 348.0
92.715065 280.0
92.732559 92.0
92.759041 132.0
92.80719 104.0
92.821465 156.0
92.845978 308.0
92.875496 124.0
92.892952 192.0
92.919792 200.0
92.934532 124.0
92.950783 172.0
92.974266 136.0
93.015388 148.0
93.032753 140.0
93.043404 260.0
93.066658 260.0
93.106819 152.0
93.122826 204.0
93.138451 156.0
93.142998 208.0
93.149162 164.0
93.18351 168.0
93.213715 156.0
93.261322 204.0
93.274719 104.0
93.312439 168.0
93.342873 132.0
93.36956 76.0
93.388977 232.0
93.407501 140.0
93.423409 128.0
93.437645 332.0
93.454605 172.0
93.479683 120.0
93.51535 176.0
93.536629 148.0
93.55661 48.0
93.579056 360.0
93.593803 212.0
93.608559 228.0
93.615166 176.0
93.631935 124.0
93.651077 132.0
93.665771 368.0
93.700905 108.0
93.722794 116.0
93.735481 192.0
93.763824 360.0
93.815353 192.0
93.838127 188.0
93.85524 96.0
93.877602 252.0
93.911163 68.0
93.92807 136.0
93.933937 104.0
93.940338 220.0
93.968994 196.0
94.007812 164.0
94.011757 132.0
94.042358 156.0
94.077324 188.0
94.091423 280.0
94.124283 176.0
94.144684 160.0
94.161041 68.0
94.188171 124.0
94.196716 132.0
94.202003 136.0
94.23568 112.0
94.243095 152.0
94.255211 256.0
94.274872 192.0
94.29425 268.0
94.332588 388.0
94.346931 172.0
94.351982 140.0
94.383652 156.0
94.41214 200.0
94.432739 236.0
94.455757 156.0
94.475685 188.0
94.500351 168.0
94.522682 160.0
94.561234 156.0
94.583488 100.0
94.616165 160.0
94.646484 156.0
94.67701 288.0
94.696426 236.0
94.715233 264.0
94.729782 272.0
94.759125 104.0
94.788139 164.0
94.810036 280.0
94.833427 112.0
94.855202 156.0
94.874939 216.0
94.907555 184.0
94.941994 128.0
94.959396 312.0
94.997711 220.0
95.02121 196.0
95.027672 164.0
95.035614 224.0
95.041916 188.0
95.047806 132.0
95.060699 376.0
95.082207 176.0
95.098083 88.0
95.117584 72.0
95.135201 364.0
95.173943 236.0
95.190071 184.0
95.19281 228.0
95.209496 124.0
95.217087 128.0
95.237816 304.0
95.252716 108.0
95.278275 112.0
95.298546 300.0
95.312134 332.0
95.330833 148.0
95.350952 172.0
95.378838 68.0
95.410759 168.0
95.431328 116.0
95.454033 112.0
95.499733 176.0
95.516899 96.0
95.55114 304.0
95.590416 280.0
95.597992 164.0
95.616096 248.0
95.629593 208.0
95.642967 444.0
95.663383 328.0
95.678719 184.0
95.740723 312.0
95.765862 176.0
95.799858 184.0
95.83989 132.0
95.854584 236.0
95.889984 436.0
95.932213 236.0
95.94593 288.0
95.966759 112.0
95.999275 124.0
96.017456 140.0
96.033707 240.0
96.054794 196.0
96.087898 152.0
96.116158 136.0
96.142311 128.0
96.161491 320.0
96.183723 232.0
96.218437 112.0
96.244705 256.0
96.251572 256.0
96.256668 124.0
96.27198 124.0
96.305786 472.0
96.326279 200.0
96.377533 188.0
96.414696 84.0
96.42099 144.0
96.4496 144.0
96.480225 120.0
96.501312 264.0
96.52887 136.0
96.54583 212.0
96.572731 168.0
96.615494 212.0
96.634941 304.0
96.66848 312.0
96.704681 132.0
96.722588 116.0
96.73584 132.0
96.77607 156.0
96.804642 124.0
96.814415 224.0
96.841553 208.0
96.870537 144.0
96.903839 168.0
96.94606 224.0
96.975647 324.0
97.007835 160.0
97.027893 396.0
97.051048 188.0
97.081238 180.0
97.094032 192.0
97.108849 364.0
97.1539 112.0
97.167633 108.0
97.191177 104.0
97.222572 124.0
97.241928 116.0
97.264099 164.0
97.283844 480.0
97.322968 124.0
97.341377 100.0
97.35672 180.0
97.371773 156.0
97.391068 220.0
97.415657 176.0
97.444458 120.0
97.459259 152.0
97.473892 224.0
97.498039 164.0
97.540215 224.0
97.574371 172.0
97.589455 160.0
97.609154 336.0
97.643974 128.0
97.671257 148.0
97.696815 112.0
97.709869 176.0
97.731514 192.0
97.755989 308.0
97.800041 180.0
97.821312 160.0
97.840004 304.0
97.857193 212.0
97.868614 200.0
97.898109 144.0
97.911865 180.0
97.948723 168.0
97.970566 496.0
97.990089 160.0
98.01899 144.0
98.039604 136.0
98.085182 232.0
98.112961 212.0
98.126701 364.0
98.142784 164.0
98.186165 96.0
98.21138 320.0
98.22982 132.0
98.254044 144.0
98.292175 184.0
98.310837 308.0
98.33783 124.0
98.344292 84.0
98.354553 184.0
98.37162 236.0
98.386131 448.0
98.428619 120.0
98.448906 208.0
98.470085 152.0
98.494118 168.0
98.522842 120.0
98.567307 200.0
98.57473 176.0
98.611023 164.0
98.666046 148.0
98.689857 168.0
98.695229 168.0
98.71022 324.0
98.72464 120.0
98.732414 216.0
98.749092 140.0
98.756287 136.0
98.781639 144.0
98.796043 140.0
98.806412 204.0
98.811813 192.0
98.839928 128.0
98.865547 172.0
98.881645 140.0
98.898239 184.0
98.917511 176.0
98.920662 132.0
98.950249 124.0
98.977989 168.0
98.996063 236.0
99.013206 196.0
99.028488 340.0
99.045769 84.0
99.05397 180.0
99.090607 156.0
99.102203 188.0
99.147614 216.0
99.17907 92.0
99.210136 156.0
99.259483 144.0
99.279961 144.0
99.294067 56.0
99.311356 148.0
99.33223 212.0
99.380501 320.0
99.399208 168.0
99.427925 200.0
99.444847 116.0
99.461403 164.0
99.496857 156.0
99.529388 140.0
99.562561 164.0
99.584625 160.0
99.617355 132.0
99.635475 128.0
99.653999 148.0
99.681175 32.0
99.705315 268.0
99.721779 204.0
99.727737 204.0
99.741829 168.0
99.757942 120.0
99.780556 124.0
99.801376 152.0
99.844742 128.0
99.864304 136.0
99.87352 128.0
99.893112 100.0
99.900871 64.0
99.904724 156.0
99.930466 224.0
99.954254 176.0
99.961082 168.0
99.989998 96.0
100.022476 196.0
100.03064 304.0
100.038513 108.0
100.043396 140.0
100.061905 96.0
100.083107 124.0
100.110672 368.0
100.193123 144.0
100.209595 356.0
100.240967 264.0
100.269753 152.0
100.285507 168.0
100.306686 68.0
100.330757 152.0
100.358101 144.0
100.379524 236.0
100.397682 116.0
100.401337 328.0
100.410034 220.0
100.416351 216.0
100.434433 264.0
100.453278 312.0
100.473503 140.0
100.494316 320.0
100.513168 68.0
100.526329 256.0
100.556854 156.0
100.569008 144.0
100.600235 164.0
100.626862 156.0
100.659233 132.0
100.67849 152.0
100.702385 132.0
100.716713 304.0
100.74334 224.0
100.777328 224.0
100.800148 92.0
100.835449 144.0
100.862068 144.0
100.885902 160.0
100.922989 136.0
100.936981 212.0
100.961494 140.0
100.970673 104.0
100.983574 168.0
101.007462 116.0
101.02739 180.0
101.046989 148.0
101.064339 228.0
101.083031 288.0
101.109993 264.0
101.159248 212.0
101.19693 136.0
101.221634 284.0
101.244942 112.0
101.265877 116.0
101.27877 184.0
101.29467 144.0
101.298851 104.0
101.307442 228.0
101.34388 308.0
101.374931 240.0
101.395157 220.0
101.402542 264.0
101.41291 104.0
101.421753 340.0
101.437698 120.0
101.490723 184.0
101.528259 400.0
101.559235 276.0
101.577866 80.0
101.592964 220.0
101.596611 116.0
101.604332 144.0
101.632614 264.0
101.651176 268.0
101.670891 176.0
101.699097 164.0
101.729462 132.0
101.733253 148.0
101.740929 176.0
101.75071 156.0
101.754875 196.0
101.775963 384.0
101.790054 160.0
101.822739 96.0
101.853516 168.0
101.872482 120.0
101.899971 196.0
101.934181 436.0
101.964485 288.0
101.979294 244.0
102.002289 160.0
102.023567 148.0
102.044098 188.0
102.061676 156.0
102.091721 104.0
102.134193 332.0
102.16243 152.0
102.181473 120.0
102.197701 140.0
102.217628 284.0
102.245277 144.0
102.277969 144.0
102.298134 208.0
102.322952 284.0
102.344734 124.0
102.361687 92.0
102.382622 192.0
102.427475 136.0
102.453209 208.0
102.466949 164.0
102.473282 168.0
102.478943 148.0
102.49675 312.0
102.503166 152.0
102.512604 252.0
102.531143 276.0
102.54081 96.0
102.549728 248.0
102.582619 200.0
102.603577 144.0
102.626053 176.0
102.65416 112.0
102.680374 324.0
102.697235 164.0
102.74102 188.0
102.764351 264.0
102.796867 212.0
102.834007 152.0
102.852013 264.0
102.858452 160.0
102.867157 136.0
102.873955 144.0
102.901642 504.0
102.936378 68.0
102.954109 164.0
102.961182 128.0
102.9972 172.0
103.027267 256.0
103.054787 1636.0
103.094223 172.0
103.12645 188.0
103.146492 124.0
103.168503 144.0
103.17659 148.0
103.204391 156.0
103.211983 232.0
103.226555 100.0
103.247131 160.0
103.259911 252.0
103.282288 176.0
103.331902 140.0
103.359962 152.0
103.367584 128.0
103.383369 296.0
103.414902 332.0
103.429626 168.0
103.436241 164.0
103.458466 272.0
103.472435 172.0
103.489441 120.0
103.504135 144.0
103.518799 220.0
103.54937 136.0
103.586014 96.0
103.59198 104.0
103.598221 204.0
103.620102 208.0
103.639297 136.0
103.667847 100.0
103.688278 180.0
103.70607 172.0
103.731491 292.0
103.749596 268.0
103.781349 260.0
103.787445 60.0
103.796555 468.0
103.809174 152.0
103.835007 148.0
103.849098 168.0
103.853584 132.0
103.888016 124.0
103.917892 552.0
103.9422 188.0
103.970123 216.0
103.990517 108.0
104.024323 100.0
104.049576 184.0
104.074669 164.0
104.094872 132.0
104.111916 144.0
104.13324 100.0
104.172241 148.0
104.196243 300.0
104.222672 168.0
104.255455 152.0
104.291718 72.0
104.318146 228.0
104.350456 112.0
104.355125 208.0
104.377205 156.0
104.401306 288.0
104.426735 300.0
104.459045 180.0
104.511795 180.0
104.542404 92.0
104.562225 108.0
104.577896 272.0
104.59565 236.0
104.622498 144.0
104.639572 156.0
104.660362 152.0
104.682564 208.0
104.708199 188.0
104.73291 144.0
104.736099 120.0
104.754173 264.0
104.797394 216.0
104.818748 124.0
104.826683 116.0
104.832497 284.0
104.858162 248.0
104.877785 124.0
104.903931 156.0
104.93499 116.0
104.959122 96.0
104.986153 180.0
105.009811 104.0
105.033722 632.0
105.075356 108.0
105.08152 204.0
105.138062 180.0
105.1446 100.0
105.158676 360.0
105.178177 76.0
105.206985 136.0
105.248993 156.0
105.293221 332.0
105.309601 160.0
105.324867 164.0
105.345192 180.0
105.361534 264.0
105.375832 156.0
105.393951 280.0
105.436348 104.0
105.457489 92.0
105.480904 136.0
105.496414 76.0
105.521774 180.0
105.555626 204.0
105.583191 176.0
105.597359 300.0
105.648071 124.0
105.67881 128.0
105.696129 80.0
105.735954 176.0
105.780518 140.0
105.801224 156.0
105.833069 152.0
105.85965 172.0
105.890892 184.0
105.918755 132.0
105.929054 152.0
105.932747 196.0
105.959938 96.0
105.974747 88.0
105.982391 152.0
105.99707 156.0
106.040932 4268.0
106.089737 168.0
106.103363 116.0
106.133133 120.0
106.156242 236.0
106.17749 308.0
106.187294 232.0
106.222549 240.0
106.25441 240.0
106.27948 160.0
106.297745 176.0
106.317215 124.0
106.340958 156.0
106.3629 72.0
106.390198 260.0
106.422417 280.0
106.473488 116.0
106.477425 200.0
106.483055 136.0
106.525993 108.0
106.541443 76.0
106.554985 188.0
106.591537 144.0
106.609077 148.0
106.649055 76.0
106.666908 220.0
106.686844 212.0
106.714363 236.0
106.735886 116.0
106.771324 304.0
106.799637 312.0
106.829361 180.0
106.84993 136.0
106.874397 148.0
106.900055 96.0
106.921356 160.0
106.946205 204.0
106.97464 148.0
107.002571 196.0
107.048492 1344.0
107.066902 156.0
107.106049 144.0
107.139389 168.0
107.191238 172.0
107.218941 160.0
107.247871 220.0
107.265549 68.0
107.295532 120.0
107.337318 176.0
107.364532 112.0
107.397141 56.0
107.402573 284.0
107.427521 68.0
107.449898 176.0
107.476768 116.0
107.492622 184.0
107.506454 128.0
107.537048 204.0
107.568886 96.0
107.586159 124.0
107.612198 132.0
107.665459 228.0
107.690292 172.0
107.703453 416.0
107.731621 284.0
107.7612 116.0
107.780525 204.0
107.807579 180.0
107.831741 292.0
107.860519 200.0
107.891403 232.0
107.920349 72.0
107.951607 136.0
107.970795 172.0
107.987656 164.0
108.00988 176.0
108.054771 728.0
108.077606 144.0
108.104439 100.0
108.132599 300.0
108.167343 268.0
108.184731 248.0
108.188866 132.0
108.206139 120.0
108.225319 184.0
108.262863 144.0
108.282593 144.0
108.306061 156.0
108.357994 248.0
108.372787 128.0
108.418709 148.0
108.435486 292.0
108.460793 268.0
108.476364 264.0
108.499901 164.0
108.508812 124.0
108.515297 192.0
108.545891 268.0
108.575668 248.0
108.601097 296.0
108.618256 176.0
108.634224 180.0
108.671135 228.0
108.693634 240.0
108.771904 164.0
108.794472 160.0
108.824936 140.0
108.85762 120.0
108.887383 140.0
108.907463 196.0
108.93528 132.0
108.938629 156.0
108.946739 132.0
108.961639 264.0
108.995033 164.0
109.001846 120.0
109.036377 236.0
109.056923 120.0
109.075073 204.0
109.090248 160.0
109.113861 140.0
109.14077 144.0
109.145103 128.0
109.160484 48.0
109.184265 108.0
109.208504 188.0
109.228455 200.0
109.25518 216.0
109.281158 120.0
109.288063 172.0
109.297409 132.0
109.315567 132.0
109.364799 280.0
109.412071 160.0
109.432068 192.0
109.451263 228.0
109.488571 372.0
109.515053 88.0
109.542328 184.0
109.564095 148.0
109.581856 140.0
109.596748 336.0
109.618927 288.0
109.643929 168.0
109.662033 120.0
109.688171 156.0
109.722481 244.0
109.745415 124.0
109.766884 232.0
109.787872 212.0
109.827911 240.0
109.860214 180.0
109.879906 108.0
109.898911 108.0
109.916458 104.0
109.947525 256.0
109.976036 432.0
110.017677 176.0
110.043884 236.0
110.078888 108.0
110.094933 120.0
110.117561 204.0
110.165573 112.0
110.191071 252.0
110.222893 272.0
110.226143 508.0
110.256836 120.0
110.27565 180.0
110.294456 140.0
110.317619 348.0
110.338356 116.0
110.370316 256.0
110.401535 56.0
110.435318 120.0
110.481689 216.0
110.503578 128.0
110.520317 160.0
110.543335 80.0
110.565605 188.0
110.573181 92.0
110.579659 292.0
110.59967 148.0
110.607941 184.0
110.614792 168.0
110.634468 324.0
110.674858 72.0
110.699554 280.0
110.728439 200.0
110.743828 364.0
110.78524 112.0
110.808105 244.0
110.822701 200.0
110.84494 160.0
110.870018 128.0
110.887779 160.0
110.916443 132.0
110.958977 136.0
110.962585 200.0
110.986832 92.0
111.011543 172.0
111.041389 108.0
111.071297 72.0
111.094368 104.0
111.115303 176.0
111.151764 112.0
111.158424 68.0
111.166489 96.0
111.175049 176.0
111.195084 120.0
111.213882 356.0
111.234055 176.0
111.269669 176.0
111.302559 264.0
111.318542 336.0
111.34063 416.0
111.354362 60.0
111.387177 308.0
111.40593 180.0
111.432365 148.0
111.451149 132.0
111.470703 308.0
111.483475 144.0
111.508835 144.0
111.526802 220.0
111.554565 108.0
111.575073 120.0
111.588257 240.0
111.612991 156.0
111.644402 96.0
111.695435 344.0
111.715996 180.0
111.735374 384.0
111.75119 100.0
111.782967 104.0
111.786537 160.0
111.815826 156.0
111.835022 200.0
111.887177 188.0
111.907692 160.0
111.923737 168.0
111.932198 176.0
111.978012 112.0
111.992844 128.0
112.012833 160.0
112.024498 276.0
112.060684 172.0
112.082664 144.0
112.113609 164.0
112.126724 184.0
112.184807 164.0
112.205544 188.0
112.221626 176.0
112.275024 256.0
112.297615 108.0
112.314285 128.0
112.321121 156.0
112.341835 348.0
112.355232 52.0
112.372292 156.0
112.412033 352.0
112.445335 192.0
112.516785 360.0
112.53244 228.0
112.583702 148.0
112.617508 168.0
112.627602 244.0
112.646484 88.0
112.674225 116.0
112.682892 116.0
112.689659 124.0
112.720871 244.0
112.743057 148.0
112.762833 136.0
112.778618 108.0
112.792351 192.0
112.821671 220.0
112.843872 128.0
112.887589 244.0
112.928848 256.0
112.935471 212.0
112.960022 212.0
112.999992 328.0
113.023109 104.0
113.07225 220.0
113.094025 156.0
113.119659 380.0
113.16465 156.0
113.203209 228.0
113.223106 268.0
113.249062 144.0
113.266708 176.0
113.286865 96.0
113.310074 76.0
113.330696 120.0
113.344566 196.0
113.364693 340.0
113.378494 180.0
113.396957 168.0
113.422249 176.0
113.447067 164.0
113.476395 272.0
113.494766 172.0
113.524414 164.0
113.53997 352.0
113.569687 180.0
113.589905 176.0
113.609619 68.0
113.640068 136.0
113.694847 408.0
113.716263 304.0
113.74157 164.0
113.761787 140.0
113.785492 164.0
113.816132 244.0
113.844254 172.0
113.867012 208.0
113.874847 260.0
113.915649 136.0
113.930481 268.0
113.950966 148.0
113.978111 244.0
114.01503 52.0
114.052521 216.0
114.088402 352.0
114.105431 296.0
114.126297 56.0
114.135384 156.0
114.15609 352.0
114.182251 212.0
114.188011 128.0
114.207497 124.0
114.233124 172.0
114.258583 176.0
114.276169 104.0
114.294312 256.0
114.311028 76.0
114.323524 164.0
114.342056 148.0
114.368874 236.0
114.414108 292.0
114.433586 132.0
114.455849 228.0
114.482933 120.0
114.498634 124.0
114.509674 104.0
114.523277 244.0
114.561172 88.0
114.563873 212.0
114.608788 148.0
114.62635 144.0
114.650642 260.0
114.689522 140.0
114.70771 184.0
114.718452 84.0
114.74794 180.0
114.780785 116.0
114.830765 72.0
114.855339 92.0
114.894325 120.0
114.926125 140.0
114.947708 148.0
114.972168 172.0
115.008362 96.0
115.025276 160.0
115.049049 144.0
115.06929 96.0
115.111938 224.0
115.156479 416.0
115.189903 136.0
115.253891 164.0
115.262466 144.0
115.284668 256.0
115.311493 188.0
115.338791 196.0
115.3601 176.0
115.389084 136.0
115.419067 184.0
115.450081 204.0
115.469078 124.0
115.502182 368.0
115.518089 160.0
115.54705 140.0
115.584038 60.0
115.599953 356.0
115.608505 200.0
115.618675 172.0
115.623199 200.0
115.641815 104.0
115.68573 152.0
115.705727 248.0
115.713242 204.0
115.7453 340.0
115.784714 172.0
115.803764 156.0
115.819527 116.0
115.847015 188.0
115.894623 216.0
115.926651 136.0
115.94165 120.0
115.960938 268.0
115.975945 352.0
115.991776 124.0
116.015999 140.0
116.048828 128.0
116.070267 156.0
116.08522 152.0
116.135323 384.0
116.156052 172.0
116.194069 460.0
116.208458 144.0
116.242584 172.0
116.26548 108.0
116.28669 176.0
116.316986 136.0
116.362755 176.0
116.385704 276.0
116.4347 272.0
116.444458 292.0
116.499382 288.0
116.538017 208.0
116.544579 176.0
116.550682 368.0
116.560326 276.0
116.566406 336.0
116.583313 128.0
116.602654 292.0
116.629578 152.0
116.655518 184.0
116.688637 224.0
116.702606 120.0
116.724373 116.0
116.745514 220.0
116.77726 196.0
116.802032 140.0
116.823532 224.0
116.860046 172.0
116.896477 328.0
116.955383 332.0
116.982269 212.0
117.008812 196.0
117.037727 284.0
117.052261 168.0
117.069611 140.0
117.095154 260.0
117.12146 300.0
117.1576 144.0
117.18766 320.0
117.211838 340.0
117.249306 196.0
117.28688 168.0
117.300224 232.0
117.321869 148.0
117.361618 140.0
117.388412 188.0
117.407242 136.0
117.423714 168.0
117.453537 184.0
117.476624 120.0
117.486549 80.0
117.49453 120.0
117.514519 112.0
117.537254 256.0
117.563408 164.0
117.582329 152.0
117.647324 168.0
117.683243 176.0
117.707092 176.0
117.715187 120.0
117.722092 56.0
117.743294 252.0
117.768799 124.0
117.78965 220.0
117.81514 128.0
117.833282 148.0
117.863068 212.0
117.892639 76.0
117.913139 172.0
117.960876 196.0
117.979729 148.0
117.99939 152.0
118.006493 144.0
118.013229 188.0
118.030273 136.0
118.061745 364.0
118.085167 252.0
118.103264 460.0
118.122726 144.0
118.144363 136.0
118.159508 100.0
118.180984 144.0
118.196762 132.0
118.219711 228.0
118.240402 176.0
118.270882 224.0
118.287621 100.0
118.309441 96.0
118.328514 264.0
118.357056 240.0
118.373558 152.0
118.391006 172.0
118.407349 228.0
118.441338 216.0
118.450905 92.0
118.458099 256.0
118.463097 320.0
118.473732 164.0
118.478943 116.0
118.482384 132.0
118.528061 300.0
118.541763 120.0
118.582886 200.0
118.586632 308.0
118.636131 188.0
118.660706 152.0
118.68364 272.0
118.713684 136.0
118.770821 220.0
118.793816 160.0
118.818115 132.0
118.853592 136.0
118.890999 264.0
118.9198 148.0
118.936378 232.0
118.97583 188.0
118.99688 124.0
119.016838 328.0
119.051659 496.0
119.083832 240.0
119.089966 172.0
119.120338 128.0
119.135735 104.0
119.140152 200.0
119.172722 496.0
119.211494 248.0
119.253212 272.0
119.288895 160.0
119.317329 128.0
119.34079 600.0
119.386017 152.0
119.410591 204.0
119.41851 200.0
119.45018 296.0
119.473068 100.0
119.481354 152.0
119.487953 164.0
119.515266 152.0
119.533958 184.0
119.576508 236.0
119.602402 188.0
119.644577 148.0
119.65416 220.0
119.663574 220.0
119.715195 320.0
119.75209 120.0
119.759636 112.0
119.798683 540.0
119.815048 128.0
119.831924 204.0
119.856125 476.0
119.872467 176.0
119.876129 100.0
119.913254 136.0
119.944702 132.0
119.967697 200.0
119.99958 100.0
120.006889 144.0
120.016197 204.0
120.021538 240.0
120.055412 5484.0
120.088066 296.0
120.103546 276.0
120.13765 168.0
120.166878 228.0
120.186134 332.0
120.205429 332.0
120.228096 240.0
120.24337 188.0
120.266678 360.0
120.294968 488.0
120.316002 212.0
120.336227 200.0
120.343216 324.0
120.36039 148.0
120.375664 388.0
120.384178 328.0
120.391403 140.0
120.394714 272.0
120.425827 496.0
120.431458 140.0
120.44017 324.0
120.467094 396.0
120.481712 520.0
120.496292 312.0
120.531586 552.0
120.582634 188.0
120.590851 272.0
120.620338 252.0
120.645027 356.0
120.672432 280.0
120.694893 544.0
120.726738 644.0
120.742043 384.0
120.766678 432.0
120.777916 396.0
120.781937 512.0
120.804115 524.0
120.853371 412.0
120.868446 612.0
120.902313 716.0
120.937424 1248.0
120.958687 880.0
120.981033 1324.0
121.010857 1460.0
121.068199 248948.0
121.135155 144.0
121.14946 704.0
121.175697 76.0
121.213562 1264.0
121.269447 3440.0
121.30764 748.0
121.338928 900.0
121.365974 3112.0
121.402802 4928.0
121.428467 30804.0
121.443542 7448.0
121.495316 536.0
121.513527 692.0
121.533264 260.0
121.599411 540.0
121.634369 284.0
121.649078 524.0
121.671951 528.0
121.71019 136.0
121.741188 248.0
121.767548 1816.0
121.802094 228.0
121.827965 148.0
121.834892 252.0
121.870003 316.0
121.885109 200.0
121.917862 140.0
121.923134 164.0
121.965012 212.0
122.003822 412.0
122.017982 412.0
122.045441 220.0
122.069511 145828.0
122.1353 160.0
122.157982 116.0
122.189117 156.0
122.208717 84.0
122.21711 148.0
122.253456 172.0
122.2696 168.0
122.292152 224.0
122.310181 276.0
122.328522 388.0
122.3479 516.0
122.381851 108.0
122.403847 84.0
122.434509 116.0
122.460182 80.0
122.481133 100.0
122.499596 168.0
122.522491 92.0
122.555267 104.0
122.585045 100.0
122.606178 92.0
122.626602 152.0
122.646637 408.0
122.681946 312.0
122.70652 588.0
122.739212 272.0
122.760208 448.0
122.768623 248.0
122.775436 356.0
122.801987 432.0
122.819901 284.0
122.847786 296.0
122.878319 388.0
122.897484 164.0
122.921745 220.0
122.96138 360.0
122.984436 412.0
122.998184 468.0
123.041237 616.0
123.070999 6780.0
123.117218 188.0
123.147629 312.0
123.176872 240.0
123.201958 296.0
123.24379 212.0
123.254005 76.0
123.261261 216.0
123.288437 208.0
123.292519 192.0
123.322815 48.0
123.350136 72.0
123.375107 148.0
123.383873 40.0
123.419441 136.0
123.449463 48.0
123.472527 96.0
123.502441 100.0
123.539993 180.0
123.576004 264.0
123.643318 76.0
123.677406 160.0
123.708038 112.0
123.741699 216.0
123.794968 248.0
123.811569 164.0
123.839752 184.0
123.880379 188.0
123.898361 164.0
123.930481 76.0
123.947357 108.0
123.968063 376.0
123.991577 116.0
124.018265 68.0
124.036591 112.0
124.071114 348.0
124.102005 184.0
124.1455 88.0
124.160172 124.0
124.188232 84.0
124.200417 144.0
124.229462 52.0
124.245193 76.0
124.27491 104.0
124.29039 168.0
124.305923 64.0
124.340416 140.0
124.370277 140.0
124.437469 60.0
124.473717 152.0
124.496826 80.0
124.536606 132.0
124.557556 152.0
124.592339 72.0
124.618408 136.0
124.653763 104.0
124.769341 80.0
124.792358 100.0
124.823601 76.0
124.844757 156.0
124.865738 64.0
124.882904 128.0
124.919121 212.0
124.93914 108.0
124.977165 44.0
125.008438 196.0
125.030373 64.0
125.0504 52.0
125.091614 132.0
125.121986 168.0
125.159477 40.0
125.175064 92.0
125.200478 176.0
125.240929 124.0
125.256943 116.0
125.288658 188.0
125.30648 48.0
125.335449 32.0
125.37323 56.0
125.420128 80.0
125.437965 100.0
125.538055 152.0
125.580757 100.0
125.608109 224.0
125.683281 184.0
125.712288 200.0
125.727913 48.0
125.748001 228.0
125.772552 84.0
125.805412 188.0
125.82724 104.0
125.861847 28.0
125.89534 76.0
125.910973 160.0
125.937775 76.0
126.00032 88.0
126.062881 172.0
126.080765 40.0
126.124748 212.0
126.153008 136.0
126.167412 188.0
126.188538 112.0
126.221596 140.0
126.253647 160.0
126.314575 188.0
126.337898 116.0
126.380402 92.0
126.396065 236.0
126.417511 180.0
126.510208 132.0
126.525879 84.0
126.561119 168.0
126.59977 140.0
126.628883 76.0
126.646271 168.0
126.688019 80.0
126.715561 196.0
126.765541 48.0
126.80085 132.0
126.835014 108.0
126.87088 192.0
126.902267 144.0
126.924789 136.0
126.948509 172.0
126.976265 52.0
127.000938 112.0
127.023369 96.0
127.052528 172.0
127.076706 160.0
127.097404 176.0
127.133308 72.0
127.166969 40.0
127.184921 40.0
127.213264 96.0
127.234306 176.0
127.252274 120.0
127.292686 76.0
127.361 192.0
127.409477 160.0
127.442619 80.0
127.449173 48.0
127.481377 144.0
127.501015 192.0
127.538391 96.0
127.598259 112.0
127.630836 196.0
127.665718 200.0
127.7062 144.0
127.747894 268.0
127.805428 108.0
127.821609 292.0
127.872688 48.0
127.892944 32.0
127.911179 120.0
127.935715 84.0
127.973984 64.0
127.991173 132.0
128.044266 192.0
128.079834 104.0
128.104614 48.0
128.147415 52.0
128.172195 76.0
128.222458 292.0
128.259857 40.0
128.288803 168.0
128.317856 88.0
128.334488 92.0
128.35202 180.0
128.368301 244.0
128.412918 92.0
128.442184 132.0
128.465286 228.0
128.480896 152.0
128.549774 180.0
128.591095 148.0
128.600189 152.0
128.611572 116.0
128.643555 152.0
128.669556 316.0
128.702255 208.0
128.725433 76.0
128.76384 168.0
128.814423 48.0
128.862045 156.0
128.891998 60.0
128.910065 152.0
128.957901 48.0
128.986877 188.0
129.011383 148.0
129.038544 200.0
129.055573 76.0
129.096451 212.0
129.123611 84.0
129.140671 136.0
129.203339 68.0
129.211456 148.0
129.237946 112.0
129.258301 168.0
129.274139 144.0
129.308609 228.0
129.362411 48.0
129.378265 172.0
129.397797 108.0
129.437119 144.0
129.462036 220.0
129.489212 96.0
129.509598 88.0
129.527145 112.0
129.564041 136.0
129.586609 40.0
129.602478 44.0
129.625137 100.0
129.672729 64.0
129.690857 96.0
129.71225 64.0
129.726578 116.0
129.754028 120.0
129.75795 60.0
129.801941 104.0
129.826782 92.0
129.857788 164.0
129.897202 76.0
129.932129 40.0
129.976913 224.0
130.016403 112.0
130.06012 48.0
130.088852 140.0
130.115051 180.0
130.162582 128.0
130.191513 236.0
130.214966 56.0
130.232254 176.0
130.246796 256.0
130.271744 128.0
130.296738 92.0
130.330811 140.0
130.368317 200.0
130.400436 172.0
130.438812 100.0
130.456757 96.0
130.523834 104.0
130.564026 148.0
130.587692 156.0
130.674133 136.0
130.701675 192.0
130.726471 260.0
130.762222 124.0
130.797028 76.0
130.815231 92.0
130.853928 92.0
130.885803 120.0
130.903015 180.0
130.921646 108.0
130.959671 156.0
130.986496 172.0
131.039719 220.0
131.079468 132.0
131.096725 52.0
131.151627 76.0
131.159363 52.0
131.166824 80.0
131.20723 112.0
131.226547 92.0
131.249786 124.0
131.268021 136.0
131.276276 100.0
131.285538 172.0
131.301712 92.0
131.330444 156.0
131.374924 68.0
131.409317 172.0
131.435135 176.0
131.467911 144.0
131.505875 104.0
131.526428 112.0
131.542404 44.0
131.566086 160.0
131.599625 100.0
131.623505 84.0
131.639343 104.0
131.681686 188.0
131.710236 88.0
131.742386 104.0
131.766205 80.0
131.78447 68.0
131.805038 116.0
131.832458 196.0
131.850403 180.0
131.883713 84.0
131.905853 112.0
131.926376 320.0
131.948334 172.0
131.966675 140.0
132.017487 136.0
132.047363 84.0
132.06813 48.0
132.090317 176.0
132.132202 188.0
132.169403 108.0
132.17775 268.0
132.204086 204.0
132.245041 80.0
132.270569 96.0
132.292191 32.0
132.326523 36.0
132.359436 152.0
132.420883 136.0
132.457718 56.0
132.4832 120.0
132.500504 104.0
132.545471 136.0
132.580185 76.0
132.602432 140.0
132.630493 72.0
132.686218 44.0
132.741425 160.0
132.771378 284.0
132.823364 204.0
132.861481 172.0
132.871857 72.0
132.877213 128.0
132.906403 112.0
132.925461 144.0
132.994461 108.0
133.036636 112.0
133.069351 124.0
133.128143 172.0
133.170395 52.0
133.248505 76.0
133.301346 304.0
133.334641 128.0
133.372635 180.0
133.423157 72.0
133.485245 76.0
133.503632 128.0
133.557144 100.0
133.590057 132.0
133.61026 204.0
133.639435 104.0
133.669846 188.0
133.69458 128.0
133.724838 80.0
133.80275 64.0
133.834991 48.0
133.855713 96.0
133.887955 404.0
133.910309 176.0
133.963959 84.0
133.982391 140.0
134.015274 192.0
134.071609 404.0
134.095688 144.0
134.113739 32.0
134.131256 220.0
134.140976 132.0
134.148102 136.0
134.216766 52.0
134.255096 176.0
134.311447 160.0
134.372421 132.0
134.386902 96.0
134.438629 176.0
134.46431 128.0
134.568817 88.0
134.637451 120.0
134.658234 96.0
134.675354 156.0
134.700348 132.0
134.741394 80.0
134.758301 120.0
134.792236 104.0
134.820908 184.0
134.850006 280.0
134.882355 40.0
134.905472 208.0
134.928391 88.0
134.975479 200.0
135.042191 164.0
135.06041 320.0
135.076721 400.0
135.095108 108.0
135.111298 120.0
135.144897 76.0
135.163361 80.0
135.196899 124.0
135.240875 72.0
135.261719 156.0
135.284866 184.0
135.30246 120.0
135.328842 96.0
135.347366 136.0
135.389191 120.0
135.40625 184.0
135.437103 316.0
135.490387 48.0
135.51796 80.0
135.553162 180.0
135.620728 48.0
135.648544 128.0
135.686859 136.0
135.742935 140.0
135.757523 168.0
135.781311 136.0
135.820145 56.0
135.840652 76.0
135.866531 68.0
135.894089 168.0
135.897781 128.0
135.909866 228.0
135.947281 92.0
136.021866 192.0
136.04866 192.0
136.087753 12112.0
136.118149 156.0
136.127762 196.0
136.132355 128.0
136.163635 80.0
136.190536 96.0
136.20697 164.0
136.232407 92.0
136.275681 132.0
136.321609 48.0
136.348862 44.0
136.421555 64.0
136.480682 120.0
136.488617 52.0
136.497192 112.0
136.556412 96.0
136.572693 84.0
136.595963 84.0
136.635498 132.0
136.657867 104.0
136.702972 64.0
136.725204 80.0
136.761154 124.0
136.858047 116.0
136.952087 48.0
136.996338 148.0
137.024765 120.0
137.090805 1560.0
137.138931 104.0
137.176743 96.0
137.254028 140.0
137.282501 196.0
137.298859 116.0
137.359985 152.0
137.376312 452.0
137.46965 124.0
137.486938 156.0
137.516739 176.0
137.616547 128.0
137.624756 124.0
137.629364 184.0
137.673172 148.0
137.705429 72.0
137.721786 296.0
137.762115 180.0
137.82457 188.0
137.86261 72.0
137.895477 152.0
137.927002 240.0
137.95311 164.0
137.974152 192.0
137.999039 192.0
138.021515 188.0
138.05365 132.0
138.124832 64.0
138.150742 156.0
138.172943 88.0
138.219162 164.0
138.236115 84.0
138.296967 104.0
138.313339 100.0
138.390594 104.0
138.418701 100.0
138.481934 140.0
138.541931 252.0
138.5681 76.0
138.641235 104.0
138.737335 108.0
138.80838 184.0
138.834641 56.0
138.944138 156.0
138.992172 104.0
139.028183 160.0
139.053177 208.0
139.077469 172.0
139.110321 168.0
139.143188 136.0
139.173248 100.0
139.198044 132.0
139.274689 196.0
139.29924 224.0
139.320053 52.0
139.328278 104.0
139.338394 172.0
139.381027 124.0
139.395782 148.0
139.467361 156.0
139.495575 48.0
139.550552 176.0
139.616287 128.0
139.685059 168.0
139.702515 72.0
139.718979 60.0
139.744858 96.0
139.817795 100.0
139.848389 160.0
139.883698 44.0
139.936142 220.0
139.95668 124.0
140.001266 184.0
140.076797 80.0
140.145111 100.0
140.178101 56.0
140.289581 132.0
140.317169 156.0
140.387894 108.0
140.420914 152.0
140.479889 116.0
140.543579 96.0
140.560104 128.0
140.64978 72.0
140.678101 144.0
140.701721 44.0
140.787445 172.0
140.864655 112.0
140.901306 124.0
140.986069 164.0
141.013519 180.0
141.122253 80.0
141.185898 144.0
141.295547 160.0
141.451096 176.0
141.507904 48.0
141.531982 140.0
141.616837 104.0
141.633408 112.0
141.667526 248.0
141.716324 148.0
141.749496 64.0
141.773193 136.0
141.796692 144.0
141.819855 216.0
141.856155 156.0
141.910599 112.0
141.948624 128.0
141.974701 56.0
142.01265 156.0
142.042007 116.0
142.063431 156.0
142.098038 96.0
142.124146 136.0
142.166855 148.0
142.21907 60.0
142.242798 48.0
142.272369 124.0
142.291901 120.0
142.344894 60.0
142.385269 220.0
142.413757 120.0
142.436325 152.0
142.473145 84.0
142.489777 152.0
142.569977 112.0
142.621735 128.0
142.644241 88.0
142.673874 300.0
142.717484 228.0
142.76355 224.0
142.819016 120.0
142.844406 292.0
142.929642 156.0
142.991501 220.0
143.020538 264.0
143.051788 136.0
143.141479 204.0
143.165298 112.0
143.186722 104.0
143.2034 60.0
143.2267 128.0
143.234085 100.0
143.30484 116.0
143.32338 208.0
143.365402 132.0
143.391174 152.0
143.399612 124.0
143.455902 132.0
143.479401 160.0
143.501266 136.0
143.527496 48.0
143.54657 172.0
143.575195 40.0
143.606186 192.0
143.625656 124.0
143.711151 136.0
143.739792 196.0
143.842407 112.0
143.892548 196.0
143.937912 92.0
143.961792 244.0
144.006012 120.0
144.052551 128.0
144.112274 108.0
144.152893 184.0
144.204651 168.0
144.254013 128.0
144.381302 132.0
144.430222 136.0
144.449356 168.0
144.568985 112.0
144.595306 168.0
144.624756 260.0
144.68161 144.0
144.856293 140.0
144.877853 152.0
144.906601 184.0
144.923126 120.0
144.952118 212.0
144.968887 156.0
145.045593 104.0
145.086945 80.0
145.119049 168.0
145.227814 128.0
145.256592 72.0
145.280594 124.0
145.393356 128.0
145.459015 124.0
145.484573 188.0
145.554199 68.0
145.583008 176.0
145.607025 72.0
145.69075 112.0
145.767975 120.0
145.789612 68.0
145.898209 152.0
145.942444 124.0
145.98143 112.0
146.009918 180.0
146.032425 196.0
146.055603 188.0
146.097366 148.0
146.115005 340.0
146.219574 152.0
146.279694 292.0
146.307983 92.0
146.3284 132.0
146.369339 44.0
146.403381 168.0
146.424713 76.0
146.446396 160.0
146.518661 56.0
146.535522 108.0
146.585403 212.0
146.617447 100.0
146.781372 228.0
146.863373 188.0
146.880249 244.0
146.899551 100.0
146.930908 124.0
146.952621 108.0
146.991226 188.0
147.028168 196.0
147.086624 160.0
147.119141 104.0
147.136047 112.0
147.185074 104.0
147.23175 164.0
147.283844 116.0
147.334076 128.0
147.381409 216.0
147.447647 44.0
147.483047 184.0
147.609604 204.0
147.660385 164.0
147.703934 132.0
147.747467 204.0
147.783768 188.0
147.817642 136.0
147.873291 128.0
147.897491 108.0
147.943237 116.0
147.979797 160.0
148.030655 160.0
148.071869 180.0
148.100891 120.0
148.122787 144.0
148.199097 132.0
148.244446 140.0
148.272903 216.0
148.301987 152.0
148.335922 132.0
148.355316 152.0
148.39653 120.0
148.435318 112.0
148.461044 112.0
148.49437 148.0
148.526047 108.0
148.609955 64.0
148.729401 148.0
148.806549 148.0
148.900818 132.0
148.977936 140.0
149.006943 188.0
149.113815 148.0
149.168518 320.0
149.214706 104.0
149.363052 100.0
149.443008 128.0
149.517899 168.0
149.56102 256.0
149.598038 220.0
149.650208 104.0
149.691605 136.0
149.730576 204.0
149.813385 180.0
149.83287 116.0
149.85968 140.0
149.925461 116.0
149.957153 132.0
149.983963 180.0
150.005432 168.0
150.044907 220.0
150.113174 164.0
150.210724 124.0
150.227798 132.0
150.250198 140.0
150.281479 92.0
150.299469 180.0
150.362 164.0
150.381531 136.0
150.423019 160.0
150.452316 124.0
150.52153 284.0
150.579559 108.0
150.618362 52.0
150.64035 180.0
150.65744 92.0
150.689209 96.0
150.747849 188.0
150.773438 196.0
150.821167 32.0
150.872498 180.0
150.898331 184.0
150.955627 88.0
150.981384 240.0
151.036331 40.0
151.07547 80.0
151.137726 108.0
151.204666 140.0
151.244324 216.0
151.261444 156.0
151.31041 136.0
151.354477 108.0
151.393661 128.0
151.42305 92.0
151.440201 128.0
151.459366 232.0
151.496933 172.0
151.533279 160.0
151.550903 144.0
151.608017 120.0
151.641098 140.0
151.695023 180.0
151.72934 184.0
151.787277 268.0
151.820068 48.0
151.865509 188.0
151.893646 48.0
151.92308 172.0
151.942703 60.0
151.972153 112.0
152.013855 148.0
152.188141 300.0
152.276703 120.0
152.318298 108.0
152.337952 144.0
152.389542 44.0
152.454407 160.0
152.534073 140.0
152.576324 192.0
152.610733 44.0
152.656113 160.0
152.775513 96.0
152.839478 180.0
152.874542 128.0
152.942841 188.0
153.001923 116.0
153.071976 124.0
153.107803 72.0
153.126465 136.0
153.2211 188.0
153.314743 252.0
153.354172 92.0
153.373886 288.0
153.416931 112.0
153.459885 136.0
153.484818 108.0
153.529205 152.0
153.571671 128.0
153.699417 288.0
153.725525 76.0
153.785797 196.0
153.801682 108.0
153.830215 192.0
153.860611 104.0
153.93248 124.0
153.96199 184.0
154.003067 156.0
154.020355 172.0
154.073563 148.0
154.099411 112.0
154.157059 204.0
154.164978 164.0
154.195251 192.0
154.250153 92.0
154.297119 72.0
154.326782 164.0
154.358932 180.0
154.494965 132.0
154.524658 112.0
154.611252 88.0
154.668777 124.0
154.687988 92.0
154.796921 124.0
154.828781 128.0
154.853012 172.0
154.895981 124.0
154.943054 128.0
155.024811 92.0
155.055695 96.0
155.089249 48.0
155.117783 228.0
155.188995 136.0
155.205307 172.0
155.225601 152.0
155.340805 104.0
155.369461 132.0
155.397324 52.0
155.431488 156.0
155.469116 144.0
155.49353 144.0
155.574554 216.0
155.630051 356.0
155.667297 120.0
155.739319 56.0
155.779068 164.0
155.798935 132.0
155.818817 120.0
155.836197 76.0
155.933121 148.0
156.015137 160.0
156.040009 64.0
156.104645 120.0
156.14444 172.0
156.196609 164.0
156.221542 140.0
156.283508 88.0
156.370834 196.0
156.413513 168.0
156.438049 72.0
156.486389 172.0
156.515228 156.0
156.624802 60.0
156.650925 104.0
156.691116 180.0
156.71698 132.0
156.759338 132.0
156.796707 160.0
156.862701 152.0
156.904678 128.0
157.044662 160.0
157.067993 124.0
157.073166 100.0
157.083542 112.0
157.15477 216.0
157.215683 212.0
157.24147 144.0
157.296799 144.0
157.336731 152.0
157.374268 196.0
157.425369 208.0
157.447845 96.0
157.480316 116.0
157.50029 144.0
157.560532 72.0
157.648712 124.0
157.699295 112.0
157.757675 196.0
157.840179 132.0
157.863647 124.0
158.000244 120.0
158.102829 44.0
158.140381 196.0
158.185425 152.0
158.215469 120.0
158.243011 168.0
158.329941 100.0
158.370056 224.0
158.390381 132.0
158.41391 224.0
158.44838 64.0
158.501968 92.0
158.541092 128.0
158.564178 240.0
158.595169 184.0
158.63884 44.0
158.671417 88.0
158.70903 128.0
158.727676 92.0
158.77327 136.0
158.867035 196.0
158.932831 216.0
158.951309 156.0
159.030136 148.0
159.080338 52.0
159.107086 164.0
159.148117 104.0
159.178253 164.0
159.22258 116.0
159.243546 168.0
159.323929 172.0
159.396896 172.0
159.416885 84.0
159.464645 40.0
159.504852 160.0
159.527481 148.0
159.577759 144.0
159.59787 120.0
159.633072 148.0
159.672852 152.0
159.704529 252.0
159.746246 124.0
159.776443 184.0
159.826752 76.0
159.869537 160.0
159.945572 96.0
160.009537 180.0
160.125168 304.0
160.159058 84.0
160.238434 260.0
160.29895 244.0
160.348022 200.0
160.390869 160.0
160.436249 136.0
160.47406 128.0
160.49675 56.0
160.53186 104.0
160.603149 168.0
160.754044 56.0
160.771713 148.0
160.79631 256.0
160.806519 192.0
160.857529 92.0
160.875198 176.0
160.938309 104.0
160.955978 108.0
161.042038 156.0
161.104996 148.0
161.181519 220.0
161.202408 144.0
161.229309 60.0
161.307159 188.0
161.342545 96.0
161.44368 88.0
161.534729 216.0
161.570145 156.0
161.597977 96.0
161.65451 212.0
161.799255 136.0
161.833359 160.0
161.851089 228.0
161.876404 176.0
161.927048 144.0
161.971588 124.0
161.987839 152.0
162.043442 152.0
162.101852 80.0
162.156265 76.0
162.188019 152.0
162.253922 104.0
162.271667 192.0
162.349472 176.0
162.413681 104.0
162.489792 192.0
162.507538 96.0
162.540527 156.0
162.57605 164.0
162.714432 132.0
162.743103 164.0
162.786835 128.0
162.819763 120.0
162.856766 204.0
162.90094 100.0
162.961685 152.0
162.999664 176.0
163.064682 148.0
163.105499 148.0
163.131531 148.0
163.153732 64.0
163.237259 112.0
163.325806 116.0
163.374008 212.0
163.447647 212.0
163.512161 172.0
163.563507 152.0
163.618179 192.0
163.641098 232.0
163.680557 136.0
163.72258 148.0
163.811722 128.0
163.829544 160.0
163.85968 192.0
163.898331 152.0
163.916168 188.0
163.956955 160.0
163.98439 172.0
164.048431 188.0
164.084396 88.0
164.229752 60.0
164.260361 144.0
164.278214 192.0
164.347092 176.0
164.373398 116.0
164.423462 172.0
164.520645 96.0
164.538513 64.0
164.585007 208.0
164.62532 140.0
164.663635 140.0
164.689163 168.0
164.747925 140.0
164.816895 136.0
164.865875 172.0
164.916565 120.0
164.958344 116.0
164.983032 164.0
165.00499 156.0
165.023117 164.0
165.1315 132.0
165.173431 192.0
165.259232 88.0
165.295059 168.0
165.324448 148.0
165.359039 152.0
165.39415 184.0
165.484467 100.0
165.576645 120.0
165.599701 144.0
165.624817 84.0
165.648804 184.0
165.687531 152.0
165.696106 132.0
165.762817 208.0
165.804657 136.0
165.909637 188.0
165.966156 140.0
166.080414 108.0
166.112335 132.0
166.166199 196.0
166.247269 160.0
166.302216 184.0
166.332611 204.0
166.386917 84.0
166.434555 136.0
166.499893 88.0
166.543732 184.0
166.734894 264.0
166.764526 28.0
166.844208 116.0
166.86734 48.0
166.89563 116.0
166.952194 92.0
167.015274 200.0
167.048782 160.0
167.1091 152.0
167.131485 132.0
167.148575 140.0
167.17601 96.0
167.201736 148.0
167.227478 116.0
167.298538 148.0
167.335587 48.0
167.415405 80.0
167.462357 140.0
167.481705 92.0
167.549347 176.0
167.603455 124.0
167.694824 96.0
167.742615 108.0
167.856064 112.0
168.015518 160.0
168.023163 132.0
168.054276 104.0
168.088211 36.0
168.161942 336.0
168.194016 124.0
168.284378 160.0
168.316986 196.0
168.341187 132.0
168.391266 204.0
168.43541 132.0
168.52269 256.0
168.540878 176.0
168.572998 92.0
168.648621 104.0
168.669296 172.0
168.710648 64.0
168.749435 104.0
168.819794 168.0
168.858032 116.0
168.907181 120.0
168.98996 120.0
169.041718 208.0
169.05983 164.0
169.079605 196.0
169.11676 44.0
169.134888 212.0
169.203796 96.0
169.31871 140.0
169.36792 120.0
169.388641 96.0
169.476715 92.0
169.536316 272.0
169.554459 164.0
169.632217 164.0
169.665909 120.0
169.684067 164.0
169.716324 248.0
169.735916 128.0
169.772217 108.0
169.842255 40.0
169.913757 176.0
170.003098 136.0
170.023865 144.0
170.053925 116.0
170.088745 76.0
170.128525 172.0
170.171814 40.0
170.212967 80.0
170.241928 156.0
170.273087 148.0
170.293869 132.0
170.419876 136.0
170.438049 132.0
170.5121 196.0
170.544632 68.0
170.591125 120.0
170.631668 176.0
170.668076 116.0
170.738281 104.0
170.759094 48.0
170.803299 204.0
170.826035 136.0
170.930786 108.0
170.985428 108.0
171.003647 76.0
171.024475 32.0
171.049561 144.0
171.113205 140.0
171.183273 52.0
171.211929 100.0
171.266617 192.0
171.329132 124.0
171.391663 168.0
171.459412 144.0
171.497284 72.0
171.519363 84.0
171.544785 112.0
171.579315 88.0
171.597565 160.0
171.620346 212.0
171.650253 96.0
171.707092 168.0
171.74881 104.0
171.774902 104.0
171.837509 44.0
171.866211 288.0
171.941879 92.0
171.965378 128.0
172.003098 124.0
172.088181 176.0
172.1194 244.0
172.246628 232.0
172.310059 112.0
172.341415 100.0
172.359711 112.0
172.435486 104.0
172.460068 76.0
172.507965 132.0
172.545273 156.0
172.592331 104.0
172.624329 156.0
172.657135 184.0
172.666779 128.0
172.71524 136.0
172.736176 108.0
172.762329 56.0
172.84761 128.0
172.881622 100.0
172.906235 108.0
172.927185 92.0
172.957825 212.0
173.025101 176.0
173.128769 180.0
173.149719 164.0
173.189987 200.0
173.241394 200.0
173.264969 196.0
173.29863 176.0
173.308228 140.0
173.317368 168.0
173.395981 204.0
173.414322 104.0
173.469376 104.0
173.500824 48.0
173.555191 120.0
173.570526 212.0
173.59259 140.0
173.644363 324.0
173.672394 252.0
173.718491 52.0
173.818192 128.0
173.912659 92.0
173.996582 148.0
174.030792 168.0
174.051743 172.0
174.181198 164.0
174.209381 68.0
174.249771 160.0
174.306854 188.0
174.33812 116.0
174.372055 92.0
174.408768 68.0
174.440628 88.0
174.582596 208.0
174.614151 68.0
174.693069 128.0
174.711487 80.0
174.748428 88.0
174.785141 92.0
174.812897 88.0
174.91806 184.0
174.956223 148.0
174.976364 148.0
175.035202 144.0
175.058899 136.0
175.102325 164.0
175.109863 80.0
175.120224 112.0
175.177429 116.0
175.203766 196.0
175.224838 148.0
175.29599 120.0
175.351334 164.0
175.401413 36.0
175.435135 116.0
175.444153 92.0
175.452347 136.0
175.53743 128.0
175.604431 172.0
175.641357 76.0
175.72049 164.0
175.77063 176.0
175.804932 144.0
175.834106 136.0
175.894669 116.0
175.968582 140.0
175.992645 140.0
176.062668 104.0
176.133575 200.0
176.211563 112.0
176.24855 72.0
176.293472 164.0
176.32402 184.0
176.348969 192.0
176.391266 52.0
176.4785 132.0
176.515518 156.0
176.544601 124.0
176.588791 280.0
176.615814 308.0
176.682144 60.0
176.704758 88.0
176.798569 140.0
176.843552 220.0
176.960037 48.0
177.017807 180.0
177.063309 204.0
177.100388 112.0
177.349442 100.0
177.398941 196.0
177.622543 124.0
177.649078 36.0
177.699478 60.0
177.728668 88.0
177.786133 128.0
177.864014 124.0
177.920029 156.0
177.946304 112.0
177.977402 112.0
178.089691 144.0
178.14151 236.0
178.254059 120.0
178.334137 176.0
178.368683 140.0
178.424515 112.0
178.447067 116.0
178.472366 44.0
178.531113 44.0
178.597366 124.0
178.658539 196.0
178.67717 124.0
178.706421 92.0
178.748993 132.0
178.775604 176.0
178.804886 124.0
178.830383 144.0
178.863434 360.0
178.892715 152.0
178.925003 160.0
179.025391 164.0
179.047058 120.0
179.071121 212.0
179.169678 160.0
179.188324 120.0
179.249603 144.0
179.278915 164.0
179.312149 128.0
179.356201 100.0
179.392593 200.0
179.415848 128.0
179.484177 148.0
179.532166 88.0
179.6064 96.0
179.689545 152.0
179.718521 88.0
179.748245 356.0
179.857666 196.0
179.897705 136.0
179.924393 196.0
179.945755 92.0
179.964447 172.0
179.99115 128.0
180.028534 100.0
180.052567 124.0
180.078583 216.0
180.154068 124.0
180.183441 204.0
180.242233 100.0
180.314377 156.0
180.34111 88.0
180.385254 56.0
180.434662 140.0
180.512207 68.0
180.594025 128.0
180.623581 180.0
180.645935 128.0
180.664658 116.0
180.68959 124.0
180.734207 44.0
180.766327 148.0
180.786972 84.0
180.829285 68.0
180.884079 104.0
180.929596 144.0
180.961716 188.0
181.08522 164.0
181.111679 172.0
181.131989 208.0
181.173294 200.0
181.2108 172.0
181.237595 180.0
181.275101 228.0
181.395706 128.0
181.427872 200.0
181.452011 100.0
181.478821 64.0
181.510986 120.0
181.638779 148.0
181.719528 176.0
181.768494 108.0
181.811432 120.0
181.847656 128.0
181.882965 184.0
181.924164 168.0
181.945633 112.0
181.985916 136.0
182.047668 64.0
182.100357 188.0
182.151779 304.0
182.208832 92.0
182.38887 104.0
182.442627 48.0
182.469513 44.0
182.507156 136.0
182.571686 236.0
182.652618 136.0
182.67659 136.0
182.710709 140.0
182.87735 72.0
182.884552 180.0
182.893433 136.0
183.02449 164.0
183.073807 96.0
183.136871 92.0
183.271561 176.0
183.293121 120.0
183.323883 96.0
183.360199 148.0
183.485825 144.0
183.522232 132.0
183.59903 224.0
183.650375 92.0
183.675949 120.0
183.731079 192.0
183.773972 188.0
183.841522 108.0
183.878296 132.0
183.94577 44.0
183.991669 192.0
184.042969 172.0
184.067261 124.0
184.102371 32.0
184.121277 128.0
184.167191 140.0
184.195267 324.0
184.250931 128.0
184.310287 144.0
184.383331 100.0
184.495117 156.0
184.572754 152.0
184.599594 136.0
184.645874 180.0
184.704498 168.0
184.753769 68.0
184.775406 92.0
184.815308 128.0
184.851166 52.0
184.889618 208.0
184.951126 124.0
184.989197 56.0
185.100204 136.0
185.151657 120.0
185.23291 100.0
185.333725 148.0
185.399536 40.0
185.463928 184.0
185.503876 124.0
185.533691 108.0
185.582504 68.0
185.668747 228.0
185.696457 188.0
185.892715 184.0
186.051437 132.0
186.073578 216.0
186.098007 160.0
186.11702 80.0
186.176758 52.0
186.203903 36.0
186.228348 216.0
186.260941 96.0
186.314941 164.0
186.322815 88.0
186.388626 52.0
186.432114 156.0
186.494614 248.0
186.532669 124.0
186.581604 120.0
186.652298 36.0
186.682205 84.0
186.733871 112.0
186.75563 88.0
186.782837 136.0
186.831802 72.0
187.005951 140.0
187.040939 168.0
187.112106 100.0
187.138153 100.0
187.166885 128.0
187.188339 92.0
187.255173 148.0
187.32724 80.0
187.37767 172.0
187.415741 116.0
187.449783 160.0
187.56221 176.0
187.593643 116.0
187.632462 52.0
187.667908 136.0
187.726547 228.0
187.787888 196.0
187.812439 164.0
187.864258 108.0
187.888809 128.0
187.918823 120.0
187.957031 168.0
187.97612 148.0
187.997406 96.0
188.022522 160.0
188.06073 48.0
188.103134 276.0
188.156265 132.0
188.273682 56.0
188.292801 148.0
188.365128 148.0
188.396591 144.0
188.437119 200.0
188.464066 120.0
188.5168 272.0
188.538666 160.0
188.592087 264.0
188.612457 152.0
188.653458 84.0
188.680801 240.0
188.730011 88.0
188.751892 96.0
188.812042 76.0
188.844864 120.0
188.88414 156.0
188.91008 100.0
188.946075 132.0
188.973434 64.0
189.011963 148.0
189.126678 76.0
189.214996 284.0
189.255569 144.0
189.287872 100.0
189.310104 104.0
189.342972 148.0
189.388474 124.0
189.45253 132.0
189.474457 120.0
189.501846 120.0
189.603241 148.0
189.679977 68.0
189.922028 144.0
189.976135 124.0
190.022766 224.0
190.082352 112.0
190.151733 152.0
190.24231 132.0
190.280746 124.0
190.371353 224.0
190.394852 60.0
190.489456 120.0
190.533417 152.0
190.600784 100.0
190.640564 112.0
190.659805 164.0
190.69278 156.0
190.732986 172.0
190.772491 112.0
190.795776 164.0
190.840439 84.0
190.916443 148.0
190.941574 120.0
191.033737 204.0
191.063126 180.0
191.094269 160.0
191.13829 196.0
191.185059 160.0
191.251114 148.0
191.286896 176.0
191.314423 204.0
191.344711 140.0
191.465866 148.0
191.496155 152.0
191.515442 32.0
191.569901 176.0
191.60083 112.0
191.644913 240.0
191.686249 140.0
191.7117 136.0
191.732803 116.0
191.745209 132.0
191.821289 120.0
191.873672 116.0
191.937729 68.0
192.014297 72.0
192.071869 156.0
192.177704 100.0
192.273621 96.0
192.315018 164.0
192.344894 452.0
192.381897 140.0
192.440887 148.0
192.50827 164.0
192.54274 216.0
192.677704 188.0
192.712677 52.0
192.773468 140.0
192.792816 100.0
192.812149 160.0
192.86467 132.0
192.906509 148.0
192.937729 140.0
192.966949 232.0
192.986298 88.0
193.025345 160.0
193.146698 212.0
193.190964 184.0
193.252533 156.0
193.318237 84.0
193.384644 132.0
193.42894 96.0
193.511978 112.0
193.608902 128.0
193.661514 68.0
193.752014 60.0
193.791718 80.0
193.813889 116.0
193.847137 84.0
193.883438 164.0
193.930283 120.0
193.977402 92.0
193.996796 48.0
194.096603 124.0
194.11879 176.0
194.224182 168.0
194.246368 36.0
194.275269 124.0
194.299072 148.0
194.471115 172.0
194.503662 116.0
194.571045 108.0
194.621017 80.0
194.65712 144.0
194.682114 120.0
194.709457 132.0
194.829315 180.0
194.91922 112.0
195.006332 160.0
195.046066 164.0
195.07486 168.0
195.101669 196.0
195.135818 168.0
195.194366 232.0
195.30864 92.0
195.364456 192.0
195.407013 116.0
195.443756 176.0
195.532806 80.0
195.554596 188.0
195.603561 188.0
195.660843 188.0
195.716522 172.0
195.774994 156.0
195.835953 172.0
195.940262 48.0
195.979965 172.0
196.040451 152.0
196.078659 68.0
196.109314 88.0
196.132141 128.0
196.229187 184.0
196.254272 152.0
196.290924 136.0
196.360504 124.0
196.498825 176.0
196.521667 152.0
196.566269 192.0
196.611328 156.0
196.664352 344.0
196.69754 112.0
196.731339 168.0
196.762054 112.0
196.881424 132.0
196.937973 128.0
196.974289 124.0
197.066467 116.0
197.105591 156.0
197.161484 168.0
197.197815 108.0
197.270477 196.0
197.331985 108.0
197.519348 112.0
197.560181 148.0
197.606079 88.0
197.634048 132.0
197.690018 160.0
197.738525 216.0
197.801971 100.0
197.832764 80.0
197.870789 164.0
197.968109 152.0
198.000748 48.0
198.028763 40.0
198.12944 196.0
198.261292 116.0
198.289322 128.0
198.35379 44.0
198.384613 112.0
198.409851 124.0
198.458313 180.0
198.488358 112.0
198.53978 248.0
198.58931 156.0
198.666443 168.0
198.723953 104.0
198.839005 72.0
198.872681 148.0
198.90918 64.0
198.946533 168.0
198.970932 104.0
199.12001 180.0
199.196884 132.0
199.237732 136.0
199.261826 132.0
199.37822 80.0
199.411942 188.0
199.433502 220.0
199.470963 152.0
199.515945 88.0
199.583344 152.0
199.617157 48.0
199.639664 120.0
199.662155 124.0
199.724701 168.0
199.794357 144.0
199.90007 160.0
199.929916 112.0
200.011108 144.0
200.046494 240.0
200.157425 144.0
200.216568 160.0
200.27179 100.0
200.382751 216.0
200.433472 104.0
200.557465 112.0
200.60144 144.0
200.639847 176.0
200.659821 208.0
200.706879 180.0
200.72522 156.0
200.772171 132.0
200.799942 144.0
200.940979 176.0
200.984818 140.0
201.115936 144.0
201.172394 140.0
201.21756 120.0
201.31073 56.0
201.341263 188.0
201.434998 180.0
201.474548 56.0
201.515137 132.0
201.627136 68.0
201.646912 104.0
201.734543 240.0
201.799561 116.0
201.85817 176.0
201.904175 116.0
201.980545 72.0
202.042786 128.0
202.068237 104.0
202.193695 180.0
202.238022 204.0
202.269562 228.0
202.314453 184.0
202.36824 136.0
202.402222 284.0
202.459671 180.0
202.482651 140.0
202.526825 208.0
202.650803 152.0
202.697586 276.0
202.736481 128.0
202.804504 160.0
202.878189 104.0
202.940948 212.0
202.977432 228.0
202.995789 176.0
203.029663 172.0
203.096542 140.0
203.123016 224.0
203.216736 108.0
203.241898 168.0
203.300812 176.0
203.347519 148.0
203.370636 172.0
203.443802 188.0
203.57074 176.0
203.654755 136.0
203.715332 144.0
203.746582 128.0
203.860245 92.0
203.91423 136.0
203.958618 156.0
204.056366 64.0
204.101852 132.0
204.14035 216.0
204.189346 160.0
204.226135 244.0
204.255432 40.0
204.283157 144.0
204.349304 104.0
204.498123 252.0
204.548508 160.0
204.569305 104.0
204.61113 116.0
204.659531 116.0
204.709366 88.0
204.751602 144.0
204.804779 120.0
204.82756 204.0
204.847504 116.0
204.890228 196.0
204.932968 44.0
204.961456 136.0
204.9814 128.0
205.011169 108.0
205.084 128.0
205.115356 116.0
205.149551 168.0
205.174301 168.0
205.232239 144.0
205.260742 104.0
205.306381 160.0
205.357712 60.0
205.427872 188.0
205.483215 156.0
205.503189 112.0
205.565811 144.0
205.715561 144.0
205.74292 148.0
205.782898 156.0
205.829971 108.0
205.877121 100.0
205.928528 180.0
206.068497 176.0
206.159943 156.0
206.189468 204.0
206.214233 200.0
206.23996 108.0
206.319458 168.0
206.345734 176.0
206.396912 288.0
206.494415 76.0
206.571075 40.0
206.62886 124.0
206.750717 136.0
206.876923 100.0
207.000946 116.0
207.046768 168.0
207.069672 160.0
207.098038 160.0
207.15834 84.0
207.201447 160.0
207.267334 152.0
207.287399 84.0
207.336121 108.0
207.367676 176.0
207.462234 92.0
207.491562 396.0
207.53447 148.0
207.556839 208.0
207.589111 156.0
207.619934 200.0
207.665817 152.0
207.705963 128.0
207.728912 120.0
207.863754 52.0
207.889587 292.0
207.941849 172.0
207.979721 152.0
208.010132 156.0
208.041702 144.0
208.150803 248.0
208.216858 184.0
208.343231 100.0
208.416565 84.0
208.451355 192.0
208.482971 124.0
208.541504 48.0
208.581741 124.0
208.629807 156.0
208.679565 152.0
208.713989 168.0
208.748489 52.0
208.768631 144.0
208.815094 128.0
208.895172 116.0
209.028885 152.0
209.050934 244.0
209.134003 156.0
209.18869 172.0
209.234741 124.0
209.269302 108.0
209.318237 192.0
209.361435 124.0
209.427673 216.0
209.468002 80.0
209.510559 192.0
209.545792 128.0
209.57869 132.0
209.649521 112.0
209.695633 68.0
209.730209 76.0
209.879822 116.0
209.889557 160.0
209.978165 84.0
210.041611 124.0
210.115356 128.0
210.174332 196.0
210.211151 152.0
210.327271 100.0
210.428314 132.0
210.480286 84.0
210.561142 104.0
210.598694 132.0
210.618912 72.0
210.714233 72.0
210.847153 228.0
210.945419 88.0
211.006134 180.0
211.12468 168.0
211.170456 184.0
211.220123 144.0
211.247025 120.0
211.289413 168.0
211.338867 184.0
211.390823 60.0
211.474747 120.0
211.584747 196.0
211.619125 160.0
211.693008 184.0
211.732407 100.0
211.761368 164.0
211.781647 140.0
211.806915 260.0
211.858749 156.0
211.961258 92.0
212.010529 56.0
212.039047 200.0
212.091675 164.0
212.114868 112.0
212.152542 44.0
212.175735 124.0
212.302979 136.0
212.318436 152.0
212.343262 248.0
212.429962 156.0
212.44931 152.0
212.490097 172.0
212.53537 144.0
212.558594 176.0
212.581802 144.0
212.616623 176.0
212.654358 92.0
212.677582 140.0
212.697891 156.0
212.732727 36.0
212.816833 140.0
212.965027 144.0
212.999878 84.0
213.059769 188.0
213.098083 164.0
213.168381 136.0
213.237488 128.0
213.322952 132.0
213.488144 192.0
213.543396 104.0
213.5802 200.0
213.598801 188.0
213.627609 92.0
213.656845 180.0
213.697571 200.0
213.779053 56.0
213.830307 124.0
213.888138 108.0
213.950775 184.0
214.084702 148.0
214.131302 352.0
214.154602 112.0
214.218689 144.0
214.301849 120.0
214.327576 120.0
214.376007 88.0
214.433182 240.0
214.48967 180.0
214.565475 188.0
214.635437 108.0
214.667511 92.0
214.741089 192.0
214.821854 188.0
214.906708 108.0
214.953491 328.0
215.122665 156.0
215.158722 160.0
215.213165 136.0
215.259888 152.0
215.289093 128.0
215.359177 92.0
215.451324 176.0
215.473099 172.0
215.514008 124.0
215.713974 188.0
215.759506 168.0
215.809204 88.0
215.882309 40.0
215.905701 148.0
215.940796 216.0
216.005219 172.0
216.037323 132.0
216.069504 60.0
216.109131 184.0
216.155746 200.0
216.335815 104.0
216.359222 132.0
216.425537 268.0
216.488052 112.0
216.50856 104.0
216.575912 196.0
216.60228 140.0
216.634506 152.0
216.695236 228.0
216.716537 148.0
216.769272 148.0
216.868912 200.0
216.911591 148.0
216.971603 136.0
217.050674 164.0
217.151489 116.0
217.220779 164.0
217.258911 136.0
217.308777 84.0
217.443848 136.0
217.513626 60.0
217.634567 196.0
217.713852 112.0
217.73735 168.0
217.767899 140.0
217.875397 76.0
217.898895 124.0
217.945908 40.0
217.971115 160.0
218.02652 176.0
218.035156 76.0
218.047012 128.0
218.104599 208.0
218.134003 108.0
218.185913 304.0
218.248657 100.0
218.283936 52.0
218.333923 112.0
218.363693 68.0
218.395691 156.0
218.466202 128.0
218.539627 164.0
218.625168 80.0
218.648712 108.0
218.775284 152.0
218.813553 100.0
218.878326 152.0
218.925446 108.0
218.94606 144.0
219.002396 152.0
219.0401 172.0
219.063873 76.0
219.092987 104.0
219.142914 144.0
219.184662 76.0
219.243591 80.0
219.273071 104.0
219.320221 140.0
219.349701 200.0
219.414551 116.0
219.438141 64.0
219.615067 164.0
219.653412 176.0
219.700607 168.0
219.803253 76.0
219.859756 124.0
219.947662 168.0
220.046799 184.0
220.0961 60.0
220.141281 212.0
220.172867 136.0
220.264435 96.0
220.335327 136.0
220.435791 212.0
220.483063 128.0
220.506714 124.0
220.580597 92.0
220.655853 188.0
220.687988 112.0
220.709442 200.0
220.8116 124.0
221.001846 128.0
221.028748 188.0
221.086349 100.0
221.107071 56.0
221.151733 88.0
221.185028 340.0
221.234344 100.0
221.272827 148.0
221.386383 80.0
221.412003 104.0
221.509735 136.0
221.530472 124.0
221.568115 284.0
221.672516 212.0
221.704025 132.0
221.757874 152.0
221.790298 204.0
221.813583 104.0
221.859421 124.0
221.880173 256.0
221.939392 160.0
221.969116 140.0
222.00766 224.0
222.107681 188.0
222.147064 96.0
222.265732 96.0
222.392014 148.0
222.437866 48.0
222.467545 132.0
222.537109 168.0
222.577408 64.0
222.645462 372.0
222.682449 352.0
222.75856 100.0
222.857895 120.0
222.907928 188.0
222.94574 84.0
222.966553 148.0
223.011124 92.0
223.076523 136.0
223.106247 248.0
223.138535 144.0
223.177597 180.0
223.201385 232.0
223.339874 156.0
223.404236 132.0
223.475021 124.0
223.561325 288.0
223.602982 160.0
223.701202 172.0
223.742874 140.0
223.86496 128.0
223.947968 124.0
223.955063 172.0
224.004349 164.0
224.073456 52.0
224.176163 136.0
224.23735 36.0
224.341675 120.0
224.376114 144.0
224.453156 192.0
224.478821 64.0
224.505661 196.0
224.52951 160.0
224.565308 148.0
224.658035 136.0
224.714447 108.0
224.790573 204.0
224.854691 196.0
224.884537 168.0
224.932297 120.0
224.968124 156.0
225.036789 148.0
225.081573 196.0
225.162201 52.0
225.224915 116.0
225.263748 140.0
225.287735 128.0
225.368317 400.0
225.410141 148.0
225.526703 204.0
225.553604 124.0
225.607407 116.0
225.650604 116.0
225.673172 128.0
225.750916 136.0
225.789795 132.0
225.813721 140.0
225.868591 116.0
225.891388 128.0
225.927383 108.0
225.990219 64.0
226.011154 80.0
226.076981 136.0
226.103928 96.0
226.131943 132.0
226.194016 160.0
226.235626 80.0
226.287109 160.0
226.331421 132.0
226.355377 68.0
226.38533 176.0
226.418259 192.0
226.451202 136.0
226.484161 140.0
226.511108 316.0
226.556046 164.0
226.602158 188.0
226.639938 132.0
226.666901 316.0
226.69278 44.0
226.753799 124.0
226.789764 168.0
226.930374 164.0
226.972641 120.0
227.014618 192.0
227.10759 124.0
227.154297 112.0
227.209991 148.0
227.259369 248.0
227.296585 164.0
227.320602 116.0
227.398621 88.0
227.455643 84.0
227.527695 160.0
227.587738 128.0
227.635788 88.0
227.677826 116.0
227.767853 148.0
227.81485 164.0
227.866272 124.0
227.894104 60.0
227.966217 216.0
228.011292 40.0
228.032333 132.0
228.075333 144.0
228.122498 108.0
228.14476 168.0
228.19165 72.0
228.22171 136.0
228.248779 144.0
228.272827 168.0
228.29689 152.0
228.326965 168.0
228.390121 104.0
228.413498 160.0
228.507431 124.0
228.534515 52.0
228.567612 64.0
228.686676 128.0
228.730133 116.0
228.753799 208.0
228.853561 140.0
228.886673 124.0
228.970993 152.0
229.016174 132.0
229.052307 180.0
229.082443 140.0
229.112564 128.0
229.160767 88.0
229.195709 132.0
229.233078 192.0
229.257187 68.0
229.3358 92.0
229.395828 192.0
229.474213 140.0
229.513412 148.0
229.603867 468.0
229.706177 180.0
229.725616 188.0
229.808395 164.0
229.860291 96.0
229.965912 124.0
229.996094 136.0
230.086151 168.0
230.116837 116.0
230.279907 160.0
230.341904 112.0
230.395554 236.0
230.421875 164.0
230.479279 168.0
230.56691 124.0
230.642471 44.0
230.702927 204.0
230.739212 52.0
230.767639 136.0
230.787582 156.0
230.808746 80.0
230.873901 248.0
230.902496 156.0
230.934525 324.0
231.008347 148.0
231.053726 116.0
231.077927 48.0
231.119781 144.0
231.18779 144.0
231.226212 84.0
231.271606 192.0
231.304901 64.0
231.37149 84.0
231.460464 172.0
231.486557 96.0
231.53064 112.0
231.575943 220.0
231.62587 88.0
231.680389 112.0
231.713715 128.0
231.783401 160.0
231.853104 88.0
231.913712 104.0
231.968277 124.0
232.092575 128.0
232.135025 92.0
232.216904 232.0
232.426224 172.0
232.480835 120.0
232.532425 120.0
232.601898 144.0
232.74382 164.0
232.808701 104.0
232.876251 248.0
232.91803 112.0
232.969666 156.0
233.000046 120.0
233.024353 116.0
233.092026 192.0
233.179504 128.0
233.311356 160.0
233.335022 128.0
233.376923 112.0
233.407654 164.0
233.437729 144.0
233.460648 104.0
233.521774 188.0
233.577637 96.0
233.614136 136.0
233.65976 128.0
233.681061 92.0
233.723663 72.0
233.790604 304.0
233.82103 180.0
233.869736 104.0
233.945831 144.0
233.973221 192.0
234.000626 132.0
234.054337 144.0
234.0961 168.0
234.15593 136.0
234.196335 220.0
234.268616 36.0
234.289948 40.0
234.341736 140.0
234.399628 168.0
234.436203 52.0
234.472763 196.0
234.585541 144.0
234.625168 140.0
234.667847 28.0
234.713593 132.0
234.802017 240.0
234.856918 160.0
234.878265 96.0
234.917923 72.0
234.945389 44.0
234.977539 280.0
235.003281 180.0
235.012161 176.0
235.023483 120.0
235.052872 140.0
235.077789 312.0
235.119308 72.0
235.183395 164.0
235.281082 200.0
235.369614 72.0
235.421524 120.0
235.479553 196.0
235.589996 180.0
235.651093 388.0
235.723938 100.0
235.76062 188.0
235.800339 76.0
235.82785 92.0
235.879013 204.0
235.93483 44.0
235.962357 168.0
236.010254 84.0
236.015442 132.0
236.048569 220.0
236.070526 116.0
236.112183 104.0
236.176407 180.0
236.298767 104.0
236.329361 48.0
236.450943 164.0
236.548965 148.0
236.59256 92.0
236.6651 116.0
236.773788 204.0
236.836578 140.0
236.844681 96.0
236.854202 172.0
236.883484 124.0
236.938629 48.0
237.01828 136.0
237.047745 140.0
237.191208 132.0
237.218948 176.0
237.254272 108.0
237.307098 104.0
237.333984 124.0
237.355453 52.0
237.383057 132.0
237.435181 72.0
237.467545 192.0
237.527191 68.0
237.623322 180.0
237.6418 168.0
237.711273 160.0
237.778793 88.0
237.806412 144.0
237.968658 192.0
238.021301 124.0
238.042023 64.0
238.091934 136.0
238.171783 300.0
238.193283 108.0
238.245499 152.0
238.303986 112.0
238.334595 140.0
238.35611 72.0
238.395599 136.0
238.437607 508.0
238.472336 176.0
238.542358 172.0
238.588501 144.0
238.614288 108.0
238.680832 72.0
238.838776 116.0
238.863388 132.0
238.907867 164.0
238.920044 76.0
238.93219 120.0
238.958542 176.0
239.078751 128.0
239.149536 36.0
239.251114 96.0
239.297287 244.0
239.335495 88.0
239.361954 68.0
239.435852 100.0
239.500931 184.0
239.537491 124.0
239.577545 160.0
239.608124 332.0
239.618057 300.0
239.679214 192.0
239.699142 120.0
239.743927 40.0
239.790771 276.0
239.802887 212.0
239.829224 136.0
239.834717 104.0
239.882019 164.0
239.900558 132.0
239.957397 188.0
239.981277 76.0
240.019302 156.0
240.055527 100.0
240.10083 272.0
240.136292 180.0
240.160126 236.0
240.180603 176.0
240.212341 160.0
240.279953 152.0
240.314377 168.0
240.362762 308.0
240.496292 88.0
240.531433 128.0
240.557205 64.0
240.593033 304.0
240.637161 212.0
240.663132 252.0
240.697906 208.0
240.766922 160.0
240.794342 156.0
240.83371 120.0
240.860779 136.0
240.908585 136.0
240.9534 148.0
241.011642 204.0
241.051819 176.0
241.071548 276.0
241.103928 124.0
241.112656 488.0
241.168655 292.0
241.221558 352.0
241.267365 152.0
241.29097 328.0
241.304031 208.0
241.314774 148.0
241.362091 384.0
241.387253 324.0
241.447876 272.0
241.491486 140.0
241.533203 520.0
241.577744 132.0
241.604538 212.0
241.637909 272.0
241.705048 264.0
241.777496 504.0
241.810867 320.0
241.845001 308.0
241.874039 548.0
241.900177 468.0
241.910828 312.0
241.924225 280.0
241.959045 404.0
241.99202 652.0
242.025726 600.0
242.063248 1100.0
242.091599 1164.0
242.131699 306184.0
242.238358 124.0
242.319061 88.0
242.343857 148.0
242.417953 960.0
242.472702 748.0
242.52803 376.0
242.604401 592.0
242.64119 17508.0
242.683945 612.0
242.704208 340.0
242.762817 284.0
242.784042 180.0
242.822357 272.0
242.858795 648.0
242.892075 200.0
242.903275 256.0
242.915543 288.0
242.947006 304.0
242.954361 472.0
243.000427 212.0
243.051605 112.0
243.074615 444.0
243.13353 161888.0
243.188614 136.0
243.20842 136.0
243.245438 260.0
243.295059 60.0
243.318619 80.0
243.353546 132.0
243.388214 244.0
243.416443 188.0
243.448532 168.0
243.486633 216.0
243.498428 360.0
243.51413 172.0
243.598007 348.0
243.644485 476.0
243.666809 244.0
243.688736 224.0
243.697632 156.0
243.701965 180.0
243.716354 344.0
243.729172 184.0
243.748306 144.0
243.771072 112.0
243.776764 100.0
243.876358 260.0
243.906174 284.0
243.939499 116.0
243.969772 200.0
243.995377 64.0
244.033875 68.0
244.08316 220.0
244.135254 11960.0
244.199783 120.0
244.242126 164.0
244.297302 116.0
244.316757 128.0
244.353439 116.0
244.383194 80.0
244.4216 196.0
244.467377 368.0
244.489395 232.0
244.531647 260.0
244.589828 212.0
244.623169 164.0
244.657104 180.0
244.663528 276.0
244.708191 228.0
244.737213 504.0
244.764099 412.0
244.789444 252.0
244.842361 436.0
244.915359 476.0
244.926941 604.0
244.980209 312.0
245.023727 368.0
245.066055 240.0
245.1026 132.0
245.137909 1004.0
245.177689 128.0
245.21666 68.0
245.241623 136.0
245.296005 152.0
245.321777 92.0
245.36731 60.0
245.399734 248.0
245.488098 88.0
245.564514 184.0
245.611328 208.0
245.67688 108.0
245.69722 140.0
245.723969 132.0
245.764053 144.0
245.78894 80.0
245.837738 196.0
245.871414 324.0
245.909042 104.0
245.93187 172.0
245.973953 100.0
246.024109 112.0
246.060989 164.0
246.092957 40.0
246.112305 48.0
246.144531 220.0
246.178421 188.0
246.2341 44.0
246.311584 136.0
246.334045 72.0
246.355911 36.0
246.387817 56.0
246.433655 104.0
246.473389 60.0
246.509003 44.0
246.554382 92.0
246.63298 72.0
246.662247 120.0
246.736252 48.0
246.774689 72.0
246.815338 76.0
246.861267 124.0
246.892059 112.0
246.922577 176.0
246.952042 56.0
246.995026 124.0
247.061539 136.0
247.089005 48.0
247.146881 56.0
247.206329 68.0
247.229431 124.0
247.260376 104.0
247.3237 72.0
247.375946 84.0
247.42543 48.0
247.478653 44.0
247.503708 88.0
247.625839 68.0
247.650894 44.0
247.672821 72.0
247.697876 56.0
247.733109 80.0
247.773056 56.0
247.821732 104.0
247.851379 60.0
247.910538 164.0
247.949203 56.0
248.025375 108.0
248.057266 64.0
248.108383 40.0
248.186768 64.0
248.246338 40.0
248.271423 104.0
248.364929 64.0
248.399185 60.0
248.495667 100.0
248.529968 104.0
248.572571 48.0
248.607086 32.0
248.732635 84.0
248.815247 100.0
248.8582 68.0
248.955536 112.0
248.98381 84.0
249.081177 32.0
249.137711 76.0
249.169128 52.0
249.247925 52.0
249.489685 108.0
249.578308 84.0
249.672043 104.0
249.841888 72.0
249.870209 72.0
249.901672 100.0
249.974045 52.0
250.074753 44.0
250.172318 56.0
250.244736 56.0
250.600632 100.0
250.796005 48.0
250.833832 64.0
250.95047 84.0
251.006393 196.0
251.028809 128.0
251.089218 88.0
251.126724 72.0
251.158615 84.0
251.212234 144.0
251.272171 76.0
251.300568 36.0
251.333694 32.0
251.354202 76.0
251.576355 72.0
251.706329 92.0
251.821426 100.0
251.979355 68.0
252.010956 96.0
252.05835 52.0
252.096268 44.0
252.181595 84.0
252.377594 44.0
252.42543 92.0
252.568924 124.0
252.760315 92.0
252.788788 112.0
252.865692 120.0
252.899567 108.0
252.928055 52.0
253.013519 40.0
253.065918 116.0
253.190826 80.0
253.314362 72.0
253.350021 108.0
253.450592 80.0
253.475937 84.0
253.517136 108.0
253.583969 88.0
253.621719 112.0
253.710464 76.0
253.7612 40.0
253.808762 88.0
253.865829 40.0
253.907059 68.0
254.097382 68.0
254.119583 84.0
254.271896 60.0
254.300461 172.0
254.346573 68.0
254.462357 100.0
254.522675 64.0
254.557602 60.0
254.586182 132.0
254.608414 68.0
254.671936 100.0
254.706085 96.0
254.764053 112.0
254.910202 108.0
254.948334 60.0
255.043213 108.0
255.090347 112.0
255.154938 104.0
255.206924 80.0
255.240784 96.0
255.294846 84.0
255.339371 72.0
255.493103 132.0
255.597031 52.0
255.619308 116.0
255.847366 92.0
255.966263 60.0
255.989883 116.0
256.082031 80.0
256.265686 40.0
256.297546 76.0
256.338959 68.0
256.361267 68.0
256.415436 72.0
256.479187 48.0
256.502899 72.0
256.542938 64.0
256.605865 136.0
256.680023 88.0
256.715118 76.0
256.79483 28.0
256.847168 88.0
256.925629 80.0
257.116211 76.0
257.128448 56.0
257.135956 52.0
257.299011 52.0
257.32135 36.0
257.43631 52.0
257.548065 216.0
257.592804 76.0
257.666779 188.0
257.800476 76.0
257.829224 28.0
257.858002 76.0
257.969849 36.0
258.014618 140.0
258.246246 88.0
258.606384 64.0
258.676819 48.0
258.852905 72.0
258.907318 72.0
259.230865 28.0
259.275757 48.0
259.327026 96.0
259.375092 68.0
259.436005 104.0
259.458435 96.0
259.570648 36.0
259.638 52.0
259.714966 84.0
259.799316 68.0
259.852905 88.0
259.881805 100.0
260.170624 72.0
260.212372 96.0
260.58493 88.0
260.662048 76.0
260.851654 80.0
260.893433 84.0
260.932007 48.0
261.015625 132.0
261.086365 44.0
261.1539 28.0
261.234314 100.0
261.282562 108.0
261.308319 72.0
261.514252 48.0
262.464569 104.0
262.712921 88.0
262.751617 108.0
262.803253 64.0
262.858093 56.0
262.9646 76.0
263.056335 104.0
263.297119 64.0
263.381104 32.0
263.461853 56.0
263.788239 124.0
263.959595 60.0
264.033966 56.0
264.137482 96.0
264.645538 136.0
265.150879 72.0
265.715088 48.0
266.413055 56.0
267.173767 104.0
267.619629 72.0
267.756409 28.0
267.981171 40.0
268.088684 64.0
268.32663 36.0
268.414673 64.0
268.949677 44.0
269.246796 52.0
269.661713 88.0
269.727081 60.0
269.759766 36.0
270.279755 104.0
270.317474 412.0
270.607056 76.0
271.32373 236.0
271.508179 48.0
271.685272 64.0
271.99704 64.0
272.092224 88.0
272.144745 144.0
272.180878 60.0
272.456757 96.0
272.824829 132.0
273.203003 60.0
273.281952 56.0
273.304993 80.0
273.328033 124.0
273.551819 68.0
273.951721 136.0
274.065582 160.0
274.253418 44.0
274.283081 168.0
274.787628 84.0
274.959229 112.0
275.082642 92.0
276.244507 72.0
276.544556 88.0
276.668091 104.0
276.886627 80.0
277.144989 60.0
278.362335 120.0
278.47522 92.0
278.591492 60.0
278.794159 92.0
279.725433 112.0
279.848602 84.0
279.948486 56.0
280.151672 100.0
281.37558 76.0
282.431519 128.0
282.548615 96.0
282.608826 96.0
283.579956 76.0
283.898438 92.0
284.750854 72.0
286.422485 40.0
286.65155 84.0
287.400116 72.0
288.017914 56.0
288.126007 84.0
288.431641 80.0
288.670166 44.0
288.700592 140.0
290.085388 68.0
290.594055 84.0
290.722992 44.0
290.872345 52.0
291.106598 60.0
291.208466 76.0
291.425873 56.0
292.051392 76.0
292.422241 96.0
292.473297 64.0
292.912537 52.0
293.839783 40.0
294.314178 92.0
294.597656 80.0
294.642059 96.0
295.29837 60.0
295.442017 80.0
295.654175 88.0
295.928009 84.0
296.465759 88.0
296.969727 84.0
297.316254 124.0
298.552979 44.0
299.391693 152.0
300.305939 104.0
300.354218 88.0
300.751038 96.0
301.95993 76.0
301.973267 48.0
302.18512 72.0
302.659302 60.0
303.223938 60.0
303.560211 132.0
303.598358 52.0
304.219421 92.0
304.528442 80.0
304.584015 52.0
304.681305 64.0
304.736877 108.0
305.418243 32.0
305.56781 80.0
305.724396 32.0
305.975006 108.0
306.093384 40.0
306.156067 92.0
306.358826 76.0
306.420776 48.0
306.765778 52.0
308.008026 96.0
308.336456 116.0
308.36441 76.0
308.934357 32.0
309.228271 76.0
310.485992 128.0
311.166718 76.0
311.307159 60.0
311.38443 88.0
311.486267 60.0
311.577606 68.0
312.125916 60.0
312.424866 116.0
312.621887 68.0
312.959808 56.0
315.47879 92.0
315.50354 96.0
316.154327 76.0
316.788116 80.0
317.394135 44.0
317.450867 48.0
317.645935 68.0
317.787842 72.0
318.242157 96.0
318.29541 80.0
319.624786 116.0
320.094635 100.0
320.244843 112.0
320.668182 104.0
321.078186 56.0
321.649048 88.0
322.081085 56.0
322.416931 56.0
322.484833 80.0
323.314545 40.0
323.672516 116.0
324.66153 84.0
324.686646 92.0
324.776306 124.0
325.436615 44.0
326.582947 100.0
326.741241 68.0
326.895935 64.0
327.133484 60.0
327.234283 32.0
327.846619 84.0
328.098938 32.0
328.365753 44.0
328.849213 64.0
328.892517 72.0
329.14032 132.0
329.802734 56.0
329.878632 76.0
330.294464 48.0
331.666779 84.0
332.054718 72.0
332.196167 84.0
332.363068 60.0
334.489075 68.0
334.864105 88.0
334.9151 88.0
336.877533 20.0
337.107697 56.0
337.294098 68.0
338.109711 56.0
338.783417 56.0
338.944611 68.0
339.461456 52.0
341.003326 160.0
341.315796 84.0
342.279846 48.0
342.832642 56.0
342.972443 88.0
343.07196 80.0
343.665741 92.0
344.555481 60.0
345.246674 100.0
346.12738 108.0
346.56076 44.0
347.409729 76.0
347.528442 68.0
348.259766 116.0
349.408386 80.0
350.111877 60.0
350.737793 100.0
351.379181 88.0
351.453827 32.0
351.789703 28.0
352.712341 108.0
353.291931 48.0
354.066742 60.0
354.250275 124.0
354.463806 96.0
354.568756 44.0
355.404968 72.0
355.738983 88.0
355.870392 72.0
356.36615 72.0
356.704376 64.0
357.942139 80.0
360.095428 68.0
362.209747 88.0
362.285492 76.0
362.497681 48.0
362.5242 100.0
362.77301 128.0
362.963898 32.0
363.073883 100.0
363.878296 84.0
364.049164 44.0
364.254242 36.0
364.597717 100.0
365.109406 60.0
365.554504 36.0
366.411194 36.0
368.375824 64.0
368.532471 96.0
368.799957 88.0
370.062347 104.0
370.589569 76.0
370.974121 48.0
371.165833 136.0
372.489868 100.0
372.689636 40.0
373.066254 160.0
373.789307 44.0
374.077972 80.0
375.048645 64.0
375.80835 72.0
375.839203 52.0
375.981995 40.0
376.379791 76.0
376.943542 48.0
377.198608 60.0
377.233398 64.0
377.585236 96.0
377.712891 64.0
378.486877 56.0
378.713593 72.0
379.118286 48.0
379.591217 88.0
380.04892 84.0
381.404236 72.0
381.462524 40.0
382.220917 104.0
383.209869 72.0
383.322876 72.0
383.712646 84.0
384.063599 180.0
384.41861 44.0
385.383087 124.0
385.656616 52.0
386.051483 44.0
386.57959 28.0
388.130768 84.0
388.958527 44.0
389.139099 68.0
389.649689 64.0
390.102386 80.0
390.1409 64.0
390.923615 100.0
391.474731 128.0
391.691345 120.0
392.06955 52.0
393.043549 68.0
393.465881 124.0
394.516693 28.0
394.935852 128.0
395.640808 104.0
396.277832 48.0
396.971466 96.0
397.157867 44.0
397.209442 100.0
397.41571 96.0
397.542694 104.0
397.62207 76.0
397.72525 92.0
397.78479 56.0
399.425873 92.0
399.632751 48.0
399.708344 56.0
399.855591 72.0
400.138214 84.0
400.33728 112.0
400.373138 128.0
400.404999 100.0
401.289612 60.0
401.572723 36.0
402.231079 52.0
402.366791 32.0
402.834015 40.0
403.30368 60.0
403.501404 92.0
403.713318 132.0
404.511505 144.0
404.665619 48.0
404.705658 100.0
404.813782 244.0
405.098145 72.0
405.819519 72.0
405.963867 80.0
406.108246 56.0
406.517456 48.0
406.779663 144.0
407.448944 64.0
407.481079 100.0
407.54538 80.0
408.031677 96.0
408.787842 76.0
408.956879 68.0
411.290588 64.0
411.694305 88.0
412.312408 72.0
413.841431 52.0
414.351746 48.0
414.679962 100.0
415.020477 88.0
417.412048 36.0
417.696747 72.0
417.753693 80.0
417.932709 44.0
418.335602 60.0
419.700409 56.0
419.765656 48.0
421.120544 116.0
421.578094 72.0
422.170837 48.0
422.444885 60.0
423.267517 84.0
423.693451 72.0
423.795868 104.0
423.832764 116.0
423.976166 72.0
424.02536 108.0
424.993103 52.0
425.33783 60.0
427.902985 104.0
428.99469 104.0
429.629761 72.0
430.294189 88.0
430.649323 64.0
431.186432 68.0
431.376556 48.0
431.455109 40.0
432.658936 72.0
434.084229 72.0
434.976196 76.0
435.640625 92.0
436.733826 36.0
436.879395 96.0
437.020844 88.0
437.21228 84.0
437.524445 92.0
438.15329 36.0
438.845123 92.0
438.991058 56.0
439.241302 52.0
439.758667 28.0
440.684418 116.0
440.873749 48.0
441.229034 120.0
441.30011 108.0
441.764313 108.0
443.803864 84.0
444.130981 32.0
444.848511 84.0
445.373383 72.0
446.625916 108.0
447.720184 80.0
447.79599 108.0
447.869812 144.0
448.495392 52.0
449.035065 64.0
449.866272 40.0
451.087097 40.0
451.66214 92.0
452.288391 96.0
452.368805 80.0
453.520935 40.0
453.847351 108.0
454.784882 40.0
455.392029 100.0
455.714874 60.0
455.927338 76.0
456.125488 96.0
456.722382 88.0
457.343567 64.0
457.880035 152.0
458.808929 64.0
459.589386 40.0
460.319305 76.0
460.362 128.0
460.511475 52.0
461.011322 40.0
461.366058 44.0
461.72525 60.0
462.080261 68.0
462.769318 56.0
463.069092 104.0
464.016083 76.0
465.131409 56.0
465.42334 44.0
465.814148 84.0
465.900085 60.0
465.947327 52.0
466.230927 72.0
466.381805 76.0
466.858551 84.0
467.245667 88.0
468.089264 40.0
468.188324 40.0
468.248596 56.0
469.865021 92.0
470.046234 60.0
470.218842 80.0
470.279266 80.0
470.823242 84.0
471.065125 52.0
472.04187 104.0
472.253784 88.0
473.985413 104.0
474.154419 84.0
474.626923 48.0
475.250183 52.0
475.266052 80.0
476.62793 84.0
476.736542 56.0
477.014709 72.0
477.671326 140.0
478.149902 36.0
478.73761 56.0
479.456421 68.0
479.648193 52.0
480.310974 84.0
480.454926 64.0
480.494171 52.0
480.738525 80.0
481.161896 32.0
481.340912 44.0
482.997253 48.0
483.636078 48.0
484.58194 60.0
484.70462 136.0
484.801025 108.0
484.96756 64.0
485.399445 112.0
485.875275 60.0
486.182404 60.0
486.880432 44.0
488.031708 56.0
489.061096 52.0
491.167236 72.0
492.385376 252.0
492.491394 84.0
492.650391 92.0
494.038483 56.0
497.073395 32.0
500.362427 80.0
500.47821 148.0
500.941376 80.0
501.48941 140.0
502.760468 56.0
504.042053 88.0
504.444275 108.0
504.761719 56.0
504.810913 52.0
505.575867 76.0
505.804108 32.0
509.24762 96.0
509.377869 128.0
510.08783 44.0
510.514954 80.0
511.410919 108.0
511.450745 160.0
512.319824 112.0
512.447449 160.0
513.365479 56.0
514.628906 68.0
516.490784 96.0
517.853149 276.0
518.39679 32.0
520.460632 48.0
522.16925 52.0
524.072083 56.0
524.897034 56.0
525.079468 144.0
525.658813 48.0
526.093445 72.0
527.247986 32.0
527.947449 80.0
528.244751 44.0
530.227295 60.0
530.956177 68.0
531.112122 60.0
531.203857 52.0
532.04364 84.0
533.067871 88.0
533.596436 124.0
533.904541 60.0
534.341492 76.0
534.751038 64.0
537.506836 60.0
537.594482 52.0
537.631409 72.0
538.037598 136.0
539.164612 80.0
539.446594 28.0
540.047668 60.0
542.061523 68.0
543.656677 68.0
544.394775 92.0
544.441223 84.0
544.49231 48.0
544.613037 68.0
544.970764 32.0
545.170593 88.0
545.25885 60.0
546.039917 76.0
546.96582 56.0
547.869202 196.0
549.934875 252.0
550.527771 84.0
554.52301 68.0
555.20752 252.0
556.06604 76.0
557.503113 48.0
561.867615 76.0
563.222656 104.0
564.276428 56.0
565.274475 36.0
565.619934 76.0
568.382874 84.0
568.957153 36.0
570.279968 224.0
571.642578 52.0
572.532776 52.0
572.751831 88.0
573.051941 48.0
573.576172 100.0
574.563293 72.0
574.849548 72.0
575.646729 80.0
576.305908 120.0
576.669067 80.0
577.371826 92.0
577.749695 32.0
580.676331 128.0
580.959351 56.0
581.30481 76.0
582.178467 52.0
583.543091 100.0
584.15863 68.0
586.031372 32.0
589.408875 64.0
589.809998 84.0
590.211243 128.0
590.433655 36.0
591.933838 180.0
592.190491 40.0
595.687683 72.0
597.671204 132.0
599.536194 160.0
603.362915 108.0
604.125793 148.0
608.536499 88.0
609.115967 88.0
609.263367 48.0
610.649475 100.0
613.387085 208.0
615.928284 96.0
616.451965 32.0
616.644653 136.0
617.875916 216.0
619.078674 204.0
619.301575 68.0
620.039734 32.0
620.644531 64.0
620.837891 148.0
620.919617 100.0
621.472839 92.0
624.920959 88.0
625.602783 88.0
628.892578 180.0
631.595703 172.0
632.541382 80.0
632.831726 148.0
633.347534 60.0
633.993835 68.0
635.508179 76.0
636.853516 128.0
637.471436 76.0
639.191162 176.0
640.127441 136.0
640.318848 48.0
641.25592 112.0
642.647705 96.0
643.40979 144.0
646.857422 108.0
647.297852 60.0
647.824585 172.0
647.971497 100.0
648.493408 44.0
649.725586 56.0
652.778137 132.0
653.932983 64.0
654.487854 84.0
655.104065 56.0
655.353699 84.0
655.766479 120.0
656.643372 52.0
656.969849 152.0
657.296387 156.0
659.027283 76.0
660.100647 76.0
660.929321 84.0
661.768738 60.0
661.891602 100.0
662.280823 72.0
662.921204 76.0
663.115967 164.0
663.413208 152.0
664.638977 36.0
665.254822 56.0
667.674866 52.0
667.772583 72.0
668.194397 40.0
668.307556 56.0
669.630554 164.0
673.312866 52.0
673.95343 60.0
675.147461 52.0
675.375061 44.0
676.306396 52.0
676.539307 208.0
677.103699 52.0
678.04657 60.0
678.699707 48.0
680.910339 64.0
681.024597 52.0
681.170044 68.0
682.266541 176.0
683.670837 108.0
683.84259 76.0
686.515198 48.0
687.355042 72.0
688.576538 52.0
689.370605 168.0
689.992615 156.0
692.457214 188.0
693.253479 88.0
694.149841 28.0
694.391113 116.0
694.448792 56.0
694.611389 128.0
697.304932 36.0
698.209167 52.0
698.272278 52.0
699.135071 44.0
699.213989 76.0
701.600098 172.0
706.685974 176.0
707.823975 232.0
707.908691 156.0
713.535828 168.0
714.197632 52.0
715.293762 124.0
715.693054 80.0
717.531128 124.0
718.030701 140.0
718.336426 160.0
722.224976 196.0
722.361389 20.0
722.652954 96.0
722.808105 64.0
725.046509 88.0
725.142944 60.0
726.102661 60.0
726.403015 72.0
727.578247 36.0
728.668457 92.0
731.567078 140.0
732.423279 148.0
733.862122 80.0
736.635986 40.0
737.062805 80.0
737.689758 56.0
738.187134 48.0
738.246643 72.0
739.209534 120.0
739.252808 144.0
739.333984 84.0
743.311462 148.0
744.245056 224.0
744.657776 48.0
745.847656 80.0
747.435669 92.0
748.448059 52.0
749.030823 80.0
749.194214 80.0
750.513123 100.0
751.707703 112.0
752.788513 156.0
753.65155 148.0
753.722595 220.0
755.701904 36.0
756.106812 148.0
757.853638 44.0
759.218506 64.0
759.454346 148.0
759.723145 100.0
760.62854 40.0
760.815186 124.0
761.336792 40.0
762.897217 52.0
763.188599 52.0
764.321655 144.0
764.995361 176.0
765.081177 72.0
765.422546 124.0
765.516113 120.0
765.571228 80.0
766.739136 200.0
766.783203 88.0
767.935486 200.0
769.706909 144.0
770.157349 136.0
770.364136 148.0
770.634827 136.0
771.209534 136.0
771.331177 140.0
772.315369 72.0
772.426025 40.0
773.134216 60.0
774.706665 144.0
775.027954 128.0
775.936951 156.0
776.557983 92.0
777.795288 36.0
777.895203 44.0
778.800293 180.0
783.578674 252.0
784.291931 48.0
785.429443 76.0
786.132385 144.0
788.656738 208.0
789.389099 100.0
789.629578 52.0
790.132996 160.0
791.11792 136.0
791.761841 112.0
795.883362 80.0
796.714539 48.0
798.327698 128.0
798.805725 132.0
800.116943 96.0
800.291443 44.0
801.220764 168.0
801.401001 72.0
801.710938 96.0
802.127991 84.0
802.714355 144.0
803.955383 156.0
804.655273 108.0
805.700073 60.0
806.321655 152.0
807.531494 44.0
807.865234 52.0
808.249939 92.0
812.153198 228.0
813.867004 184.0
814.349731 40.0
817.254578 248.0
817.573242 92.0
817.630127 32.0
817.965942 44.0
818.546631 96.0
819.06488 96.0
821.458984 116.0
822.765808 188.0
823.405273 156.0
823.456726 92.0
823.525269 156.0
827.34491 148.0
827.734253 136.0
828.644958 184.0
829.6651 56.0
829.877197 48.0
830.450623 148.0
830.490784 72.0
831.974365 192.0
832.132019 152.0
833.016357 112.0
833.86676 64.0
836.414734 68.0
836.501099 172.0
837.151672 64.0
838.344116 260.0
839.070374 148.0
839.987244 152.0
840.321838 128.0
841.453064 44.0
842.099792 96.0
842.613892 116.0
842.758362 128.0
842.816101 192.0
843.035706 224.0
844.804932 44.0
846.547058 164.0
847.079895 152.0
847.42749 128.0
848.302551 124.0
848.44751 212.0
849.114319 148.0
849.183899 88.0
849.822021 116.0
849.920654 104.0
850.704102 120.0
850.982788 128.0
852.016541 180.0
852.173401 96.0
852.574341 176.0
852.818481 52.0
853.341614 228.0
853.481201 72.0
855.005249 88.0
855.272949 40.0
856.583069 192.0
856.740356 188.0
858.593872 140.0
860.461121 160.0
860.747192 116.0
861.488892 136.0
862.868103 204.0
863.043518 100.0
863.482056 32.0
863.52887 100.0
864.57605 160.0
864.915527 184.0
866.215454 80.0
866.543518 32.0
867.305298 128.0
868.501465 144.0
868.794739 144.0
869.000061 88.0
869.821655 160.0
870.256104 156.0
870.620117 128.0
871.35437 44.0
871.612854 172.0
872.335754 140.0
873.841248 148.0
874.388489 104.0
875.654297 92.0
876.349365 108.0
876.632202 140.0
876.767761 76.0
876.93866 100.0
877.327698 76.0
878.772583 164.0
879.403992 200.0
879.663757 40.0
879.722778 124.0
880.378113 152.0
880.448975 204.0
880.821106 124.0
880.998291 148.0
881.187378 168.0
881.405945 144.0
882.653137 156.0
883.705994 120.0
883.776978 132.0
883.81842 120.0
884.256287 104.0
884.74762 92.0
885.221252 144.0
885.434448 48.0
886.678589 108.0
886.915649 96.0
887.075684 232.0
887.152771 140.0
888.451477 112.0
889.662109 168.0
889.988586 136.0
892.026367 100.0
892.186829 148.0
892.632751 44.0
893.001465 136.0
893.1026 128.0
893.638 176.0
893.953308 92.0
895.012878 68.0
895.328491 108.0
895.376099 152.0
897.765869 120.0
897.861267 40.0
898.004395 120.0
898.058105 108.0
898.099854 68.0
898.430725 152.0
899.209595 68.0
899.663208 136.0
900.635315 192.0
901.054688 44.0
903.380188 132.0
903.990479 112.0
904.152039 88.0
904.43335 52.0
904.505127 124.0
904.696716 56.0
904.762573 108.0
905.281494 132.0
905.517029 188.0
906.653687 60.0
906.913025 108.0
906.984924 92.0
907.092834 164.0
907.266663 124.0
907.656372 156.0
907.762146 188.0
908.154114 132.0
908.442078 96.0
908.808044 116.0
909.882324 56.0
910.008423 160.0
910.338623 92.0
910.380676 56.0
911.179565 56.0
911.221619 100.0
911.942688 104.0
911.984741 144.0
912.153076 44.0
914.143799 52.0
914.559021 236.0
914.832336 140.0
915.154663 140.0
916.184875 124.0
916.66687 180.0
917.094727 132.0
917.763916 140.0
918.155884 140.0
918.336792 132.0
918.903809 164.0
919.084839 48.0
919.145142 204.0
919.247742 164.0
919.863342 44.0
920.195374 180.0
920.557678 56.0
920.624084 48.0
920.853577 100.0
921.169922 108.0
921.252258 40.0
921.421387 116.0
921.729492 176.0
922.466858 124.0
922.515198 64.0
922.986755 132.0
923.246826 84.0
924.074951 172.0
924.644287 76.0
924.704834 92.0
924.952942 108.0
925.688171 172.0
925.945923 80.0
926.194275 148.0
926.309326 176.0
926.539551 164.0
926.985291 148.0
927.121216 144.0
927.606079 48.0
927.690979 88.0
928.000122 96.0
928.27301 92.0
928.382141 76.0
928.75531 220.0
929.085754 152.0
929.32843 124.0
929.591553 132.0
929.844177 192.0
929.886658 148.0
930.008057 96.0
930.973389 184.0
931.356018 216.0
931.737305 124.0
932.066772 64.0
932.225098 152.0
932.285522 120.0
932.534729 104.0
932.75354 104.0
932.990601 140.0
933.28241 64.0
933.781067 152.0
934.0 68.0
934.115601 160.0
934.51709 76.0
934.693542 92.0
934.930908 72.0
934.997803 92.0
935.204773 84.0
935.283875 108.0
935.36908 156.0
935.697083 160.0
935.764771 136.0
935.977905 92.0
936.038757 92.0
936.958496 36.0
937.025513 148.0
937.452026 144.0
937.555603 188.0
937.951782 56.0
938.061462 136.0
938.280945 200.0
938.604065 120.0
938.933411 72.0
938.976074 136.0
939.104126 100.0
939.250549 96.0
939.372559 92.0
939.465759 140.0
939.58606 108.0
940.031433 72.0
940.220825 132.0
941.026367 100.0
941.423279 144.0
941.746948 56.0
941.850769 160.0
942.12207 88.0
942.247803 168.0
942.473877 64.0
942.532227 168.0
942.809998 228.0
942.956665 44.0
943.04834 96.0
943.213379 140.0
943.607422 148.0
943.98114 124.0
944.112122 144.0
944.252747 152.0
944.491272 92.0
944.555725 240.0
944.772705 96.0
944.956238 132.0
945.194824 148.0
945.861938 120.0
946.155762 132.0
946.431274 144.0
946.608826 68.0
946.994629 192.0
947.460205 48.0
947.539795 148.0
948.182983 196.0
948.434509 100.0
948.776428 92.0
948.96167 76.0
949.179749 124.0
949.286682 96.0
949.384766 160.0
949.525818 148.0
949.848816 140.0
950.783508 140.0
950.930786 88.0
951.164001 164.0
951.551758 128.0
951.679688 36.0
951.998047 180.0
952.078857 80.0
952.137085 188.0
952.416626 84.0
952.484192 112.0
952.668457 96.0
952.846619 40.0
952.920349 168.0
953.329041 132.0
953.405762 60.0
953.522522 124.0
953.639343 156.0
954.789001 108.0
954.979675 148.0
955.041138 104.0
955.213379 128.0
955.528259 288.0
955.674805 128.0
955.86554 40.0
955.967346 124.0
956.117859 72.0
956.40094 136.0
956.86261 80.0
957.74939 100.0
957.878723 148.0
958.180603 124.0
958.297668 108.0
958.732605 108.0
958.74231 140.0
958.920044 120.0
959.080261 136.0
959.425476 96.0
959.517944 64.0
960.042053 128.0
960.177734 112.0
960.418274 148.0
960.535461 136.0
960.680786 164.0
960.813049 148.0
960.959351 112.0
961.022827 124.0
961.362183 160.0
961.584351 136.0
961.788025 168.0
962.133728 176.0
962.50415 188.0
962.701782 116.0
962.819092 140.0
963.181641 188.0
963.436768 140.0
963.576294 184.0
963.739502 104.0
963.887756 140.0
964.110229 60.0
964.536682 140.0
964.61084 176.0
964.900024 108.0
965.38739 188.0
965.637268 120.0
965.699097 188.0
965.927979 116.0
966.008362 160.0
966.119751 84.0
966.177124 100.0
967.326416 112.0
967.462585 104.0
967.555481 148.0
967.623596 184.0
967.69165 76.0
967.79071 100.0
968.211792 68.0
968.267517 72.0
968.348083 140.0
968.391418 40.0
968.527649 144.0
968.855957 128.0
969.215332 184.0
969.277283 104.0
969.494202 64.0
969.630493 56.0
969.72345 148.0
969.859802 124.0
970.089172 144.0
970.510742 28.0
970.695923 172.0
970.839417 184.0
970.944824 120.0
971.062683 112.0
971.205322 76.0
971.292175 84.0
972.098694 80.0
972.266235 164.0
972.353088 148.0
972.440002 180.0
972.688293 104.0
972.744141 132.0
972.818604 44.0
972.886902 96.0
973.278076 72.0
973.321533 144.0
973.370605 88.0
973.380798 80.0
973.404663 132.0
973.65686 48.0
973.75116 128.0
974.023315 168.0
974.389832 156.0
974.988281 188.0
975.054688 112.0
975.127014 188.0
975.272217 168.0
975.732178 76.0
975.926392 156.0
976.17041 172.0
976.75824 152.0
976.81427 88.0
977.084412 148.0
977.324402 64.0
977.672852 104.0
977.791077 120.0
977.878235 116.0
978.108521 140.0
978.369995 72.0
978.482056 220.0
978.6875 60.0
979.017517 108.0
979.14209 132.0
979.285339 92.0
979.378723 152.0
979.428589 128.0
979.883301 172.0
980.001709 192.0
980.176147 48.0
980.375549 124.0
980.481506 176.0
980.64978 100.0
980.724548 116.0
981.04248 156.0
981.098572 168.0
981.175476 72.0
981.49762 200.0
981.609802 84.0
981.709595 132.0
981.930603 196.0
982.058838 92.0
982.208557 144.0
982.258423 180.0
982.726318 40.0
982.8255 116.0
982.957214 76.0
983.018921 72.0
983.356567 112.0
983.587524 148.0
983.66864 88.0
983.955811 160.0
984.043213 100.0
984.105652 100.0
984.47406 108.0
984.561523 60.0
984.686401 100.0
984.967468 128.0
985.017456 128.0
985.292297 232.0
985.998352 160.0
986.098389 128.0
986.242126 96.0
986.36145 136.0
986.513306 124.0
986.59845 176.0
986.854736 132.0
987.061096 128.0
987.117371 156.0
987.348755 120.0
987.454956 200.0
987.667725 144.0
987.830383 124.0
987.93042 80.0
988.387146 44.0
988.542297 176.0
988.894043 84.0
989.000427 220.0
989.066895 144.0
989.266052 176.0
989.305115 108.0
989.459106 188.0
989.526306 120.0
989.570129 84.0
989.720398 68.0
989.851868 80.0
989.983398 108.0
990.064758 152.0
990.572083 208.0
990.852234 84.0
991.148499 132.0
991.205505 80.0
991.455566 116.0
991.784424 148.0
991.963196 104.0
992.113647 112.0
992.176331 64.0
992.38623 176.0
992.57135 84.0
992.64032 208.0
992.807495 176.0
992.870605 72.0
992.941101 116.0
993.191162 144.0
993.280029 128.0
993.361572 88.0
993.480774 160.0
993.694031 132.0
993.761536 176.0
994.070557 100.0
994.509827 140.0
994.660461 84.0
994.704407 92.0
994.949219 112.0
995.049683 168.0
995.52063 68.0
995.652466 76.0
995.784668 164.0
996.244202 172.0
996.312012 164.0
996.454895 140.0
996.644958 104.0
996.988953 136.0
997.097412 88.0
997.375854 120.0
997.537415 132.0
997.631714 140.0
997.67572 112.0
997.889465 32.0
997.946045 160.0
998.040344 120.0
998.096924 144.0
998.436523 96.0
998.826477 124.0
998.994812 120.0
999.052917 172.0
999.213806 160.0
999.487 108.0
999.776489 96.0
999.940125 160.0
999.989075 300.0
1000.059692 128.0
1000.18866 156.0
1000.475159 92.0
1000.613647 208.0
1000.856384 256.0
1000.94104 148.0
1001.142578 196.0
1001.224426 64.0
1001.325195 132.0
1001.526123 124.0
1001.535889 96.0
1001.589722 132.0
1001.728271 156.0
1001.858154 156.0
1001.91095 144.0
1002.055908 148.0
1002.175598 164.0
1002.238586 64.0
1002.471741 128.0
1002.547363 148.0
1002.830933 152.0
1002.994812 120.0
1003.316345 64.0
1003.391968 84.0
1003.505493 96.0
1003.585754 168.0
1004.06665 100.0
1004.167603 200.0
1004.27478 108.0
1004.407227 52.0
1004.5271 192.0
1004.615417 136.0
1004.90564 168.0
1005.069641 144.0
1005.221497 124.0
1005.385193 116.0
1005.441956 128.0
1005.492432 140.0
1005.555542 112.0
1005.675476 184.0
1005.991089 216.0
1006.060547 112.0
1006.267029 136.0
1006.302734 152.0
1006.350952 96.0
1006.582458 132.0
1007.088379 128.0
1007.163025 168.0
1007.449829 292.0
1007.563538 124.0
1007.759399 140.0
1008.403931 132.0
1008.454529 128.0
1008.637817 260.0
1008.70105 136.0
1008.85907 108.0
1008.941223 56.0
1008.998169 176.0
1009.156189 92.0
1009.238403 176.0
1009.371155 116.0
1009.668396 76.0
1009.769592 88.0
1009.839172 140.0
1009.965271 144.0
1010.041565 116.0
1010.111145 148.0
1010.266846 168.0
1010.364136 60.0
1010.712158 72.0
1010.756409 132.0
1011.022217 152.0
1011.098328 152.0
1011.307007 116.0
1011.39563 128.0
1011.528564 80.0
1011.705811 132.0
1011.769104 124.0
1011.876709 132.0
1012.148987 104.0
1012.41217 148.0
1012.484619 48.0
1012.57959 144.0
1012.680908 120.0
1012.737915 92.0
1012.782288 72.0
1012.832947 144.0
1012.877258 88.0
1012.921631 56.0
1013.054626 100.0
1013.200317 92.0
1013.504456 88.0
1013.555176 116.0
1013.650208 144.0
1013.852966 112.0
1013.960693 68.0
1014.144531 136.0
1014.455078 84.0
1014.524841 164.0
1014.721558 152.0
1014.803772 200.0
1015.089111 72.0
1015.22229 152.0
1015.494995 48.0
1015.5755 144.0
1015.875549 68.0
1016.078552 88.0
1016.209839 128.0
1016.465576 96.0
1016.516357 76.0
1016.655945 144.0
1016.733948 164.0
1016.795593 156.0
1017.151001 96.0
1017.233521 136.0
1017.430298 208.0
1017.55426 168.0
1017.735046 80.0
1017.843018 164.0
1018.071594 164.0
1018.198608 136.0
1018.516174 92.0
1018.662292 120.0
1018.706726 132.0
1018.821106 116.0
1018.952515 88.0
1019.024414 144.0
1019.253113 180.0
1019.37384 92.0
1019.437378 108.0
1019.611145 196.0
1019.901367 144.0
1020.114624 116.0
1020.193726 112.0
1020.282776 80.0
1020.422607 292.0
1020.524353 72.0
1020.575195 240.0
1020.721436 44.0
1020.819275 136.0
1020.924927 168.0
1021.039429 96.0
1021.123535 148.0
1021.236572 156.0
1021.351074 148.0
1021.459167 180.0
1021.567322 204.0
1021.777283 148.0
1021.863281 168.0
1021.946899 200.0
1021.966797 132.0
1021.982361 172.0
1022.203552 100.0
1022.286255 148.0
1022.617188 28.0
1022.762268 132.0
1022.938965 196.0
1023.14447 144.0
1023.29834 80.0
1023.412964 192.0
1023.635803 96.0
1023.801086 96.0
1024.005127 136.0
1024.081543 144.0
1024.183472 116.0
1024.231323 128.0
1024.466064 96.0
1024.527466 128.0
1025.005371 148.0
1025.408325 164.0
1025.617065 164.0
1025.744263 196.0
1025.878418 168.0
1025.954956 80.0
1026.029297 132.0
1026.158936 104.0
1026.275879 212.0
1026.331177 88.0
1026.401245 156.0
1026.745605 128.0
1026.815796 52.0
1026.873169 80.0
1027.032593 160.0
1027.077271 96.0
1027.185669 88.0
1027.306885 136.0
1027.447266 148.0
1027.595825 68.0
1027.651367 92.0
1027.830078 136.0
1027.900269 148.0
1028.025269 216.0
1028.078979 204.0
1028.20459 168.0
1028.372437 204.0
1028.436279 108.0
1028.50647 128.0
1028.628906 132.0
1028.667969 96.0
1028.736328 88.0
1028.966187 120.0
1029.06189 112.0
1029.132202 140.0
1029.196045 136.0
1029.278076 164.0
1029.393921 68.0
1029.474609 212.0
1029.521606 112.0
1029.732422 212.0
1029.872925 76.0
1030.166748 192.0
1030.247559 180.0
1030.403076 80.0
1030.697021 56.0
1030.831177 176.0
1030.990967 76.0
1031.150757 80.0
1031.282593 224.0
1031.3479 108.0
1031.432007 116.0
1031.49585 132.0
1031.783569 148.0
1031.879395 88.0
1032.020508 116.0
1032.142822 172.0
1032.218628 200.0
1032.288696 128.0
1032.474121 144.0
1032.595581 176.0
1032.678711 108.0
1032.72998 144.0
1032.793945 104.0
1033.338745 68.0
1033.414429 212.0
1033.478394 100.0
1033.529541 160.0
1033.70874 108.0
1033.887939 100.0
1033.945557 212.0
1034.035156 108.0
1034.214355 64.0
1034.380737 124.0
1034.668213 132.0
1035.001709 100.0
1035.13623 172.0
1035.274536 80.0
1035.491211 164.0
1035.622925 60.0
1035.830811 164.0
1035.943237 88.0
1036.013672 140.0
1036.245361 272.0
1036.410889 124.0
1036.615967 76.0
1036.750488 100.0
1036.850342 180.0
1037.141479 88.0
1037.186279 80.0
1037.237549 124.0
1037.34021 112.0
1037.422363 128.0
1037.558228 172.0
1037.615845 132.0
1037.764771 148.0
1037.925049 100.0
1037.974854 160.0
1038.109497 212.0
1038.314697 108.0
1038.609619 132.0
1038.630249 128.0
1038.65625 156.0
1038.759644 76.0
1038.828857 128.0
1039.130615 152.0
1039.30896 192.0
1039.379639 160.0
1039.443726 128.0
1039.524536 104.0
1039.575928 152.0
1039.739014 124.0
1040.049316 124.0
1040.266724 72.0
1040.419312 124.0
1040.470703 80.0
1040.574463 156.0
1040.686523 220.0
1040.84314 72.0
1040.914429 176.0
1040.977905 116.0
1041.042114 100.0
1041.233276 244.0
1041.324707 92.0
1041.517456 132.0
1041.733154 168.0
1041.85791 140.0
1041.979858 104.0
1042.031372 96.0
1042.230469 108.0
1042.457764 180.0
1042.566528 172.0
1042.622437 112.0
1042.798218 248.0
1042.853027 172.0
1042.943848 104.0
1043.095947 108.0
1043.223877 132.0
1043.278076 124.0
1043.447998 176.0
1043.543701 260.0
1043.676636 84.0
1043.811768 148.0
1043.856689 116.0
1043.908203 128.0
1044.101074 160.0
1044.216797 76.0
1044.301147 40.0
1044.704834 116.0
1044.789307 160.0
1044.937256 140.0
1045.085327 92.0
1045.445557 168.0
1045.587158 232.0
1045.632202 136.0
1045.680786 144.0
1045.728516 164.0
1045.991699 100.0
1046.134277 108.0
1046.366089 68.0
1046.501221 96.0
1046.623535 132.0
1046.834229 204.0
1046.932739 148.0
1047.016968 48.0
1047.145264 164.0
1047.209595 116.0
1047.325562 48.0
1047.660522 108.0
1047.836914 148.0
1047.914062 168.0
1047.956909 144.0
1048.040649 52.0
1048.112915 176.0
1048.375732 100.0
1048.56897 132.0
1048.656616 136.0
1048.764648 248.0
1048.859009 100.0
1049.000854 108.0
1049.097534 160.0
1049.1427 176.0
1049.23291 120.0
1049.587524 120.0
1049.791382 104.0
1049.871338 164.0
1049.980957 60.0
1050.050903 168.0
1050.135742 124.0
1050.232422 76.0
1050.316284 132.0
1050.378784 108.0
1050.53772 236.0
1050.671143 68.0
1050.742065 108.0
1050.790894 140.0
1051.032349 116.0
1051.090454 116.0
1051.170532 180.0
1051.225952 128.0
1051.290527 80.0
1051.36145 112.0
1051.458252 68.0
1051.671631 132.0
1051.731934 72.0
1051.827881 140.0
1051.877808 264.0
1051.987549 100.0
1052.09082 96.0
1052.260132 148.0
1052.381348 132.0
1052.449097 196.0
1052.529053 152.0
1052.600952 88.0
1052.689209 120.0
1052.816406 140.0
1052.923462 184.0
1052.94165 176.0
1053.043335 132.0
1053.395264 64.0
1053.453369 68.0
1053.531006 132.0
1053.679565 112.0
1053.737671 168.0
1053.920898 188.0
1054.060791 148.0
1054.13623 164.0
1054.325684 124.0
1054.534424 160.0
1054.581665 124.0
1054.655273 136.0
1054.73291 160.0
1054.829834 136.0
1054.928955 132.0
1055.088379 128.0
1055.140137 164.0
1055.332764 140.0
1055.405151 160.0
1055.450439 68.0
1055.782349 112.0
1055.896606 136.0
1055.967773 124.0
1056.129517 116.0
1056.365479 148.0
1056.439941 136.0
1056.517578 80.0
1056.575806 96.0
1056.672852 132.0
1056.731079 104.0
1056.782837 48.0
1056.935425 172.0
1056.989868 160.0
1057.073975 192.0
1057.132324 92.0
1057.179199 344.0
1057.23584 160.0
1057.428467 136.0
1057.540039 76.0
1057.704346 180.0
1057.81189 164.0
1057.918579 116.0
1057.942749 56.0
1057.957886 128.0
1058.135498 92.0
1058.265015 80.0
1058.329712 80.0
1058.394531 160.0
1058.485107 132.0
1058.614624 140.0
1058.679443 240.0
1058.902954 176.0
1059.048218 224.0
1059.19104 92.0
1059.369507 156.0
1059.556763 108.0
1059.61145 144.0
1059.767578 128.0
1059.910156 140.0
1060.000854 216.0
1060.279541 40.0
1060.397461 128.0
1060.467529 96.0
1060.543701 184.0
1060.694336 76.0
1060.772095 180.0
1060.911987 204.0
1060.984131 184.0
1061.050903 172.0
1061.174072 164.0
1061.219482 80.0
1061.329712 152.0
1061.388062 84.0
1061.46582 108.0
1061.618652 100.0
1061.6604 136.0
1061.751465 104.0
1061.880859 96.0
1061.991211 148.0
1062.043091 68.0
1062.27002 116.0
1062.432251 124.0
1062.509888 104.0
1062.665771 156.0
1062.756592 112.0
1062.822266 104.0
1063.032715 288.0
1063.102661 160.0
1063.158936 148.0
1063.360107 120.0
1063.431519 164.0
1063.705933 156.0
1063.77832 156.0
1063.827515 132.0
1063.976807 244.0
1064.040649 160.0
1064.119629 192.0
1064.203979 272.0
1064.249512 140.0
1064.301392 124.0
1064.561157 172.0
1064.695068 156.0
1064.755249 168.0
1064.807861 168.0
1064.872803 132.0
1065.013306 136.0
1065.258545 168.0
1065.347046 148.0
1065.424927 120.0
1065.476929 136.0
1065.587402 128.0
1065.745239 80.0
1065.912231 148.0
1065.990234 100.0
1066.100708 140.0
1066.15271 96.0
1066.263184 100.0
1066.438721 92.0
1066.572754 128.0
1066.654053 120.0
1066.913208 128.0
1066.96936 160.0
1067.147217 172.0
1067.261475 184.0
1067.381348 100.0
1067.446289 68.0
1067.601196 88.0
1067.822266 152.0
1067.938721 180.0
1068.024048 144.0
1068.066528 188.0
1068.148315 120.0
1068.206909 192.0
1068.259277 52.0
1068.447998 132.0
1068.774414 172.0
1068.848999 120.0
1068.955444 96.0
1069.037964 144.0
1069.09436 128.0
1069.157227 100.0
1069.243774 128.0
1069.339355 100.0
1069.397949 84.0
1069.469604 164.0
1069.566162 156.0
1069.651855 116.0
1069.796875 140.0
1070.003418 112.0
1070.05542 156.0
1070.153076 324.0
1070.19873 76.0
1070.313477 172.0
1070.37085 136.0
1070.419312 136.0
1070.504761 68.0
1070.550293 116.0
1070.621948 136.0
1070.726196 88.0
1070.895508 64.0
1071.064819 100.0
1071.343506 196.0
1071.38623 212.0
1071.462158 156.0
1071.578613 128.0
1071.729248 128.0
1071.799927 104.0
1071.822021 88.0
1071.835449 124.0
1071.957397 208.0
1072.11377 168.0
1072.231079 200.0
1072.296265 148.0
1072.359863 136.0
1072.402588 144.0
1072.468872 156.0
1072.550415 164.0
1072.661987 112.0
1072.723267 328.0
1072.84375 108.0
1072.889404 172.0
1072.974121 116.0
1073.029663 84.0
1073.300171 152.0
1073.502319 192.0
1073.577271 164.0
1073.697876 208.0
1073.919678 64.0
1074.226196 192.0
1074.278442 128.0
1074.337158 168.0
1074.402344 136.0
1074.532837 64.0
1074.959473 280.0
1075.198364 164.0
1075.262939 100.0
1075.28833 88.0
1075.42688 52.0
1075.505127 96.0
1075.616089 44.0
1075.743896 120.0
1075.858521 156.0
1076.066528 112.0
1076.125366 176.0
1076.171021 104.0
1076.265747 88.0
1076.523682 148.0
1076.596558 116.0
1076.647705 144.0
1076.713013 76.0
1076.902222 128.0
1077.085327 100.0
1077.150635 160.0
1077.242065 112.0
1077.294312 200.0
1077.340088 84.0
1077.392334 132.0
1077.490356 132.0
1077.630615 176.0
1077.736206 184.0
1077.858154 208.0
1077.942505 148.0
1078.0 88.0
1078.139282 164.0
1078.209106 120.0
1078.294067 144.0
1078.380737 152.0
1078.477051 140.0
1078.588135 224.0
1078.714233 112.0
1078.784302 88.0
1078.901978 120.0
1078.960815 132.0
1079.135132 296.0
1079.294189 132.0
1079.450195 192.0
1079.481201 108.0
1079.505249 148.0
1079.61438 104.0
1079.817383 112.0
1079.935059 124.0
1080.078979 144.0
1080.249878 96.0
1080.406006 156.0
1080.785522 112.0
1080.853149 160.0
1080.916138 116.0
1081.00354 176.0
1081.171631 92.0
1081.223877 164.0
1081.326294 164.0
1081.416748 188.0
1081.511963 68.0
1081.570801 84.0
1081.642822 176.0
1081.70459 72.0
1081.844604 112.0
1081.904663 268.0
1081.957031 120.0
1082.050659 156.0
1082.207031 232.0
1082.284424 212.0
1082.355347 144.0
1082.44812 60.0
1082.592163 168.0
1082.739136 212.0
1082.971436 136.0
1083.109497 128.0
1083.322754 164.0
1083.47644 128.0
1083.71875 160.0
1083.862915 172.0
1084.013672 144.0
1084.06604 104.0
1084.387207 40.0
1084.459229 120.0
1084.786621 188.0
1084.835815 124.0
1085.313965 272.0
1085.442627 356.0
1085.560669 124.0
1085.626221 120.0
1085.83606 108.0
1085.934448 196.0
1086.107788 112.0
1086.183716 128.0
1086.262451 144.0
1086.30835 188.0
1086.365479 200.0
1086.472412 156.0
1086.557617 100.0
1086.649536 132.0
1086.732544 120.0
1086.807007 88.0
1086.852905 88.0
1086.90332 248.0
1087.001099 304.0
1087.072876 256.0
1087.141602 112.0
1087.190796 140.0
1087.284058 124.0
1087.338501 100.0
1087.390991 116.0
1087.544556 120.0
1087.57312 48.0
1087.591553 108.0
1087.718506 160.0
1087.834351 184.0
1087.948975 148.0
1088.204834 164.0
1088.32019 160.0
1088.447876 68.0
1088.894409 116.0
1088.973267 112.0
1089.096191 100.0
1089.157104 60.0
1089.2229 96.0
1089.288574 232.0
1089.334473 88.0
1089.400269 88.0
1089.508301 72.0
1089.623535 112.0
1089.741089 148.0
1089.787842 256.0
1089.921387 128.0
1089.995972 204.0
1090.178711 64.0
1090.458862 160.0
1090.677246 196.0
1090.760376 184.0
1090.892456 140.0
1091.016846 124.0
1091.12854 156.0
1091.283936 176.0
1091.353027 188.0
1091.453247 212.0
1091.641479 120.0
1091.746582 128.0
1091.851807 68.0
1091.935059 56.0
1091.968262 156.0
1092.036011 120.0
1092.108398 88.0
1092.167603 44.0
1092.318848 192.0
1092.424072 200.0
1092.476685 108.0
1092.582031 292.0
1092.628052 104.0
1092.687256 144.0
1092.76416 136.0
1092.976685 128.0
1093.13269 120.0
1093.193848 76.0
1093.259644 80.0
1093.415039 164.0
1093.618408 164.0
1093.759888 164.0
1093.858643 48.0
1093.917847 180.0
1094.136963 180.0
1094.418213 100.0
1094.566895 144.0
1094.658203 232.0
1094.800171 176.0
1094.859375 104.0
1094.976929 156.0
1095.0354 228.0
1095.122803 308.0
1095.188965 84.0
1095.311157 160.0
1095.42981 160.0
1095.564209 108.0
1095.630005 168.0
1095.768433 152.0
1095.827637 80.0
1095.946289 148.0
1096.046021 136.0
1096.203247 160.0
1096.24939 140.0
1096.335083 136.0
1096.505371 76.0
1096.616089 288.0
1096.684326 160.0
1096.79248 360.0
1096.853271 76.0
1096.872559 172.0
1096.995361 108.0
1097.100952 188.0
1097.21167 76.0
1097.28418 32.0
1097.369873 56.0
1097.453491 136.0
1097.656982 148.0
1097.775635 160.0
1097.910645 116.0
1097.996338 168.0
1098.068848 244.0
1098.227173 96.0
1098.37085 180.0
1098.468506 96.0
1098.520142 96.0
1098.597534 132.0
1098.887695 176.0
1099.005615 112.0
1099.078247 220.0
1099.13562 164.0
1099.216797 140.0
1099.334961 100.0
1099.480713 120.0
1099.553345 112.0
1099.880249 248.0
1099.986816 164.0
1100.04834 164.0
1100.153931 168.0
1100.213379 124.0
1100.464233 100.0
1100.529541 112.0
1100.609497 160.0
1100.67688 96.0
1100.737915 128.0
1100.838013 124.0
1100.990479 104.0
1101.234863 116.0
1101.30957 172.0
1101.428467 92.0
1101.519165 172.0
1101.672852 128.0
1101.904053 116.0
1101.983276 300.0
1102.043335 136.0
1102.128662 116.0
1102.250122 136.0
1102.268188 164.0
1102.419067 144.0
1102.568481 284.0
1102.615112 152.0
1102.725464 172.0
1102.802734 96.0
1102.88208 40.0
1102.934937 348.0
1102.981201 204.0
1103.026123 148.0
1103.146484 140.0
1103.239014 100.0
1103.358032 164.0
1103.549683 104.0
1103.642334 80.0
1103.748291 260.0
1104.003662 184.0
1104.082886 132.0
1104.138184 160.0
1104.197754 180.0
1104.25061 112.0
1104.343262 104.0
1104.389526 120.0
1104.508667 80.0
1104.627686 148.0
1104.720337 252.0
1104.940552 252.0
1105.034546 200.0
1105.137085 140.0
1105.252441 156.0
1105.335571 176.0
1105.385498 48.0
1105.474487 152.0
1105.529541 140.0
1105.631592 156.0
1105.76355 124.0
1105.884888 108.0
1105.984131 140.0
1106.130615 128.0
1106.209229 136.0
1106.623291 192.0
1106.820068 188.0
1106.884399 164.0
1107.038696 196.0
1107.149414 164.0
1107.195312 120.0
1107.478394 196.0
1107.544434 228.0
1107.648315 148.0
1107.784302 140.0
1107.853394 184.0
1107.975342 136.0
1108.135254 188.0
1108.1604 156.0
1108.29541 144.0
1108.365234 96.0
1108.421265 160.0
1108.500732 128.0
1108.553833 176.0
1108.61145 80.0
1108.661621 160.0
1108.741943 224.0
1108.79895 152.0
1108.86792 188.0
1109.11084 144.0
1109.243042 176.0
1109.382202 108.0
1109.457031 160.0
1109.641968 136.0
1109.821899 112.0
1109.837158 176.0
1110.05188 276.0
1110.123779 144.0
1110.247803 228.0
1110.350342 132.0
1110.443115 100.0
1110.734253 180.0
1110.900024 92.0
1111.046753 136.0
1111.159546 168.0
1111.271973 148.0
1111.351929 176.0
1111.425171 124.0
1111.555542 160.0
1111.614746 164.0
1111.714478 220.0
1111.86731 132.0
1111.916016 120.0
1112.008911 60.0
1112.05542 188.0
1112.105347 104.0
1112.184204 144.0
1112.42041 96.0
1112.483521 272.0
1112.533447 144.0
1112.588989 144.0
1112.675171 108.0
1112.779297 140.0
1112.870483 220.0
1112.967651 176.0
1112.992432 208.0
1113.129883 164.0
1113.323364 172.0
1113.425903 212.0
1113.484009 152.0
1113.565552 96.0
1113.662109 84.0
1113.747437 260.0
1113.845947 236.0
1113.907837 120.0
1113.997803 68.0
1114.059082 156.0
1114.138062 200.0
1114.226807 96.0
1114.315063 160.0
1114.419556 160.0
1114.512451 236.0
1114.593262 272.0
1114.725098 128.0
1114.831421 156.0
1114.942505 72.0
1114.988281 140.0
1115.110474 124.0
1115.196899 100.0
1115.303223 100.0
1115.376343 136.0
1115.462769 88.0
1115.522583 172.0
1115.758301 160.0
1115.852173 124.0
1115.916748 172.0
1115.994629 164.0
1116.061157 40.0
1116.107666 116.0
1116.158691 208.0
1116.460083 112.0
1116.559814 148.0
1116.629761 288.0
1116.674072 180.0
1116.878296 308.0
1117.038696 76.0
1117.235229 132.0
1117.411255 152.0
1117.464478 124.0
1117.531006 92.0
1117.577637 76.0
1117.653931 184.0
1117.763916 280.0
1117.906372 144.0
1117.976807 128.0
1118.09668 100.0
1118.179077 168.0
1118.296265 84.0
1118.472656 552.0
1118.662354 112.0
1118.748901 192.0
1118.872437 168.0
1118.949585 300.0
1119.035156 148.0
1119.188354 28.0
1119.308228 124.0
1119.443237 200.0
1119.537231 220.0
1119.661133 216.0
1119.738281 136.0
1119.847656 108.0
1119.897461 132.0
1119.94751 100.0
1120.01416 84.0
1120.134033 112.0
1120.231323 156.0
1120.342407 140.0
1120.493774 56.0
1120.560425 64.0
1120.625122 152.0
1120.793579 156.0
1120.90686 152.0
1120.960205 136.0
1121.280029 136.0
1121.345581 168.0
1121.371582 140.0
1121.573242 76.0
1121.655884 132.0
1121.702271 144.0
1121.773315 112.0
1121.902832 172.0
1122.070435 372.0
1122.108765 108.0
1122.199951 88.0
1122.266602 184.0
1122.378662 108.0
1122.446655 212.0
1122.615723 100.0
1122.747437 172.0
1122.826782 108.0
1122.886719 84.0
1122.994141 204.0
1123.060181 112.0
1123.115479 212.0
1123.173462 112.0
1123.287842 124.0
1123.340332 92.0
1123.427002 192.0
1123.512695 180.0
1123.526001 152.0
1123.550903 156.0
1123.597534 160.0
1123.717285 180.0
1123.871948 176.0
1124.000854 112.0
1124.078003 148.0
1124.185547 180.0
1124.28772 68.0
1124.381226 176.0
1124.456665 280.0
1124.594727 124.0
1124.641479 76.0
1124.701538 124.0
1124.754883 144.0
1124.821655 100.0
1124.879639 140.0
1124.959717 220.0
1125.07373 124.0
1125.167969 100.0
1125.279297 152.0
1125.56604 104.0
1125.736328 108.0
1125.803101 124.0
1125.852539 148.0
1125.943359 260.0
1126.03186 128.0
1126.209473 112.0
1126.300415 352.0
1126.49707 172.0
1126.818359 128.0
1126.95459 32.0
1127.061401 156.0
1127.135986 260.0
1127.190186 124.0
1127.279175 96.0
1127.493408 200.0
1127.747314 96.0
1127.82959 180.0
1127.880981 96.0
1127.94104 104.0
1128.041382 108.0
1128.143921 132.0
1128.234985 180.0
1128.348877 120.0
1128.469238 92.0
1128.522705 92.0
1128.837524 140.0
1129.040039 116.0
1129.245972 76.0
1129.298462 124.0
1129.385376 88.0
1129.450806 172.0
1129.490234 140.0
1129.550659 84.0
1129.626221 32.0
1129.709839 116.0
1129.786743 144.0
1129.960693 120.0
1130.181396 160.0
1130.325195 140.0
1130.435181 108.0
1130.529663 248.0
1130.609741 136.0
1130.672607 120.0
1130.715454 248.0
1130.947632 176.0
1131.040649 192.0
1131.162354 264.0
1131.252197 84.0
1131.52771 104.0
1131.710815 200.0
1131.839478 244.0
1131.995361 148.0
1132.293457 100.0
1132.383789 68.0
1132.487549 116.0
1132.639526 168.0
1132.784546 164.0
1132.855957 52.0
1132.973267 72.0
1133.089722 136.0
1133.147339 156.0
1133.281494 100.0
1133.55835 172.0
1133.670166 176.0
1133.759155 244.0
1133.799683 108.0
1133.857788 96.0
1133.951538 124.0
1133.998535 136.0
1134.087524 72.0
1134.172729 184.0
1134.219727 76.0
1134.320435 148.0
1134.366699 204.0
1134.467651 140.0
1134.786255 188.0
1134.892822 176.0
1134.970581 184.0
1135.049072 140.0
1135.305786 124.0
1135.453369 76.0
1135.5271 112.0
1135.616211 276.0
1135.684692 144.0
1135.825562 188.0
1135.963135 128.0
1136.152832 72.0
1136.197876 176.0
1136.244873 240.0
1136.319336 168.0
1136.39917 80.0
1136.543213 112.0
1136.607178 160.0
1136.667603 152.0
1136.721191 128.0
1136.854736 360.0
1136.946411 168.0
1136.996338 140.0
1137.043335 40.0
1137.157471 136.0
1137.305054 152.0
1137.422363 128.0
1137.563477 192.0
1137.667603 160.0
1137.775024 160.0
1137.909302 116.0
1137.963013 156.0
1138.141968 132.0
1138.295532 160.0
1138.384033 328.0
1138.506836 124.0
1138.560181 156.0
1138.697388 128.0
1138.78894 316.0
1138.835938 136.0
1138.990479 36.0
1139.071899 188.0
1139.185181 216.0
1139.333008 92.0
1139.393311 276.0
1139.527832 72.0
1139.611938 84.0
1139.700928 68.0
1139.73999 120.0
1139.840698 164.0
1139.917725 168.0
1139.991455 176.0
1140.052002 140.0
1140.159546 256.0
1140.238037 260.0
1140.300659 100.0
1140.35437 56.0
1140.5896 160.0
1140.650146 92.0
1140.750977 48.0
1140.823608 152.0
1140.979492 136.0
1141.066895 172.0
1141.120728 112.0
1141.241699 56.0
1141.315674 120.0
1141.364258 104.0
1141.477051 108.0
1141.564453 156.0
1141.706787 128.0
1141.788818 108.0
1141.884766 168.0
1141.90564 104.0
1141.929321 140.0
1141.981445 124.0
1142.035278 52.0
1142.082275 132.0
1142.251343 148.0
1142.305664 136.0
1142.490112 156.0
1142.59668 140.0
1142.626465 180.0
1142.791748 124.0
1142.853516 108.0
1142.970703 104.0
1143.002075 84.0
1143.122437 192.0
1143.336792 96.0
1143.434692 40.0
1143.515381 152.0
1143.591797 136.0
1143.714722 156.0
1143.875366 168.0
1143.963013 88.0
1144.040527 120.0
1144.124268 108.0
1144.212036 132.0
1144.323242 136.0
1144.469116 156.0
1144.585815 220.0
1144.636108 272.0
1144.896729 164.0
1145.015991 108.0
1145.155273 152.0
1145.255127 132.0
1145.420898 144.0
1145.474731 80.0
1145.521973 104.0
1145.637695 272.0
1145.838501 156.0
1145.919434 132.0
1146.067627 184.0
1146.16626 132.0
1146.276489 100.0
1146.397827 216.0
1146.460815 112.0
1146.517578 144.0
1146.599976 92.0
1146.706909 152.0
1146.816406 164.0
1146.925659 108.0
1147.041748 208.0
1147.125732 160.0
1147.172852 76.0
1147.236694 172.0
1147.321167 128.0
1147.622925 212.0
1147.752686 108.0
1147.820068 120.0
1147.92981 164.0
1148.096558 160.0
1148.17749 116.0
1148.332642 136.0
1148.379883 172.0
1148.467529 136.0
1148.528198 112.0
1148.629395 168.0
1148.719727 200.0
1148.79187 136.0
1148.857056 144.0
1148.916626 124.0
1148.986938 72.0
1149.175659 116.0
1149.26709 116.0
1149.327881 148.0
1149.594238 136.0
1149.681885 124.0
1149.809326 128.0
1149.922241 52.0
1150.098145 216.0
1150.237793 228.0
1150.30603 144.0
1150.407715 180.0
1150.626953 92.0
1150.72583 172.0
1150.842896 124.0
1150.889771 120.0
1151.025269 116.0
1151.161255 56.0
1151.345581 108.0
1151.507935 104.0
1151.585815 148.0
1151.646606 76.0
1151.714111 104.0
1151.761353 92.0
1151.808716 168.0
1152.064819 136.0
1152.153198 68.0
1152.200439 156.0
1152.284424 148.0
1152.393311 212.0
1152.469849 120.0
1152.519531 168.0
1152.639648 136.0
1152.739868 128.0
1152.808594 100.0
1152.930176 148.0
1152.990967 160.0
1153.153198 200.0
1153.200562 120.0
1153.261353 104.0
1153.37793 176.0
1153.599365 44.0
1153.758179 164.0
1153.80957 76.0
1153.864502 160.0
1153.988281 164.0
1154.054565 212.0
1154.126709 144.0
1154.248413 60.0
1154.371216 280.0
1154.437744 156.0
1154.54248 112.0
1154.590698 84.0
1154.70874 168.0
1154.809692 128.0
1154.95166 60.0
1155.002197 108.0
1155.202026 152.0
1155.289917 88.0
1155.343994 48.0
1155.641724 160.0
1155.726196 112.0
1155.817627 148.0
1155.932739 132.0
1156.108643 120.0
1156.169556 180.0
1156.293213 160.0
1156.352173 196.0
1156.419922 104.0
1156.501099 136.0
1156.562134 92.0
1156.636475 96.0
1156.697388 84.0
1156.774048 192.0
1156.85437 212.0
1156.914062 196.0
1156.961426 180.0
1157.06604 124.0
1157.187744 192.0
1157.347412 120.0
1157.494019 180.0
1157.561279 156.0
1157.732544 108.0
1157.855225 176.0
1158.017822 152.0
1158.119385 140.0
1158.288696 196.0
1158.366089 168.0
1158.513794 236.0
1158.613892 180.0
1158.803589 164.0
1158.864502 108.0
1158.959351 352.0
1159.061035 44.0
1159.182983 164.0
1159.292725 188.0
1159.359131 112.0
1159.413452 208.0
1159.467651 124.0
1159.517578 112.0
1159.571655 80.0
1159.759033 120.0
1159.88147 284.0
1159.948853 112.0
1160.012085 184.0
1160.070801 152.0
1160.118286 56.0
1160.179321 148.0
1160.277832 196.0
1160.382812 148.0
1160.55896 72.0
1160.735229 140.0
1161.132935 216.0
1161.237061 88.0
1161.312622 120.0
1161.379517 96.0
1161.423096 84.0
1161.506226 212.0
1161.592896 112.0
1161.711914 60.0
1161.781982 156.0
1161.88147 124.0
1162.00708 180.0
1162.116821 260.0
1162.199707 124.0
1162.32251 120.0
1162.447876 108.0
1162.546387 180.0
1162.641479 100.0
1162.726318 164.0
1162.845093 120.0
1162.912964 168.0
1163.027222 260.0
1163.096924 164.0
1163.143677 360.0
1163.204834 136.0
1163.311279 128.0
1163.345215 52.0
1163.533569 128.0
1163.709229 120.0
1163.836426 144.0
1163.931152 100.0
1164.019531 168.0
1164.09729 240.0
1164.19751 92.0
1164.313843 104.0
1164.488037 112.0
1164.609985 188.0
1164.735229 168.0
1164.840454 132.0
1164.872437 108.0
1164.893799 196.0
1164.968384 168.0
1165.033813 132.0
1165.146973 132.0
1165.238525 200.0
1165.323608 144.0
1165.539551 128.0
1165.602173 168.0
1165.656494 120.0
1165.710938 104.0
1165.973511 348.0
1166.07019 180.0
1166.150635 148.0
1166.174805 104.0
1166.206665 72.0
1166.222534 100.0
1166.286499 144.0
1166.522949 168.0
1166.619263 240.0
1166.703247 124.0
1166.924561 180.0
1166.992065 104.0
1167.056763 64.0
1167.156982 112.0
1167.223511 164.0
1167.412476 200.0
1167.550781 164.0
1167.634766 164.0
1167.791138 152.0
1167.904785 148.0
1167.954956 356.0
1168.253662 156.0
1168.369385 132.0
1168.461182 108.0
1168.540649 152.0
1168.605469 184.0
1168.661865 96.0
1168.857544 116.0
1168.938477 196.0
1169.008301 88.0
1169.124634 72.0
1169.240356 268.0
1169.408569 116.0
1169.430298 84.0
1169.485107 300.0
1169.592285 156.0
1169.707275 124.0
1169.755127 220.0
1169.866577 280.0
1169.93457 156.0
1170.060425 172.0
1170.200073 36.0
1170.268188 60.0
1170.355957 136.0
1170.452026 84.0
1170.533691 188.0
1170.608643 156.0
1170.717651 152.0
1170.806152 112.0
1170.995239 104.0
1171.256836 208.0
1171.357788 160.0
1171.450806 160.0
1171.513184 180.0
1171.635864 152.0
1171.717407 188.0
1171.762695 136.0
1171.841553 80.0
1171.923218 108.0
1171.970947 164.0
1172.025513 112.0
1172.098145 60.0
1172.192993 128.0
1172.345703 104.0
1172.400269 128.0
1172.606323 120.0
1172.679688 116.0
1172.727417 180.0
1172.78186 100.0
1172.82959 104.0
1172.953491 176.0
1173.055054 136.0
1173.10498 112.0
1173.24707 156.0
1173.347656 140.0
1173.409058 92.0
1173.490845 228.0
1173.54541 128.0
1173.613525 124.0
1173.708618 144.0
1173.804443 68.0
1173.866821 120.0
1173.940918 284.0
1174.063599 172.0
1174.213623 96.0
1174.28833 92.0
1174.370483 168.0
1174.425049 100.0
1174.596436 168.0
1174.784668 168.0
1174.998047 112.0
1175.134155 268.0
1175.185303 136.0
1175.236938 60.0
1175.29248 108.0
1175.401611 140.0
1175.500244 168.0
1175.576538 168.0
1175.702026 260.0
1175.823975 144.0
1175.912476 88.0
1176.113403 156.0
1176.212769 124.0
1176.398804 208.0
1176.465332 144.0
1176.610229 180.0
1176.702759 164.0
1176.815063 232.0
1176.91748 184.0
1176.990479 104.0
1177.151489 144.0
1177.282715 152.0
1177.356323 124.0
1177.403809 108.0
1177.570068 168.0
1177.646606 180.0
1177.714966 160.0
1177.762329 128.0
1177.856934 128.0
1177.916504 148.0
1177.954834 180.0
1178.127319 152.0
1178.235352 224.0
1178.297241 248.0
1178.347168 116.0
1178.501221 176.0
1178.616699 192.0
1178.710205 340.0
1178.770264 168.0
1178.905762 272.0
1179.060913 72.0
1179.119263 124.0
1179.145264 68.0
1179.160278 148.0
1179.252197 60.0
1179.320557 128.0
1179.375244 100.0
1179.477783 216.0
1179.571655 176.0
1179.725586 152.0
1179.773438 124.0
1179.844238 144.0
1179.871216 88.0
1180.052002 124.0
1180.11084 212.0
1180.264038 140.0
1180.31189 144.0
1180.359741 208.0
1180.47229 88.0
1180.515625 204.0
1180.616089 256.0
1180.708496 120.0
1180.813477 204.0
1180.879395 112.0
1180.952271 296.0
1181.023071 48.0
1181.130127 148.0
1181.189209 136.0
1181.306274 192.0
1181.452026 112.0
1181.512207 340.0
1181.651855 88.0
1181.830322 124.0
1181.878174 184.0
1181.994507 116.0
1182.049072 228.0
1182.163696 288.0
1182.280884 248.0
1182.39917 132.0
1182.453003 108.0
1182.548218 164.0
1182.713379 120.0
1182.800781 104.0
1182.884888 128.0
1182.986938 112.0
1183.249023 140.0
1183.348999 112.0
1183.360962 100.0
1183.452271 224.0
1183.572632 168.0
1183.633911 104.0
1183.708374 116.0
1183.808472 80.0
1184.015991 112.0
1184.150879 128.0
1184.233276 304.0
1184.315308 244.0
1184.385254 208.0
1184.473389 160.0
1184.56189 100.0
1184.745117 196.0
1184.829102 56.0
1184.94165 124.0
1185.012573 132.0
1185.136108 180.0
1185.22644 160.0
1185.362061 184.0
1185.466309 52.0
1185.548462 232.0
1185.6073 88.0
1185.692383 148.0
1185.952881 296.0
1186.046753 228.0
1186.114624 120.0
1186.169556 168.0
1186.223389 160.0
1186.322998 128.0
1186.388672 132.0
1186.473755 144.0
1186.627563 224.0
1186.719482 192.0
1186.802856 168.0
1186.863892 148.0
1187.029175 48.0
1187.090942 128.0
1187.144287 132.0
1187.218384 148.0
1187.358398 76.0
1187.493164 140.0
1187.646362 132.0
1187.824707 128.0
1187.886475 136.0
1187.996216 192.0
1188.071655 128.0
1188.12207 196.0
1188.240479 164.0
1188.378906 216.0
1188.425293 148.0
1188.574463 116.0
1188.666626 168.0
1188.721924 124.0
1188.886108 164.0
1188.967285 280.0
1189.087158 284.0
1189.286011 116.0
1189.410278 380.0
1189.492188 260.0
1189.626099 148.0
1189.71875 84.0
1189.818604 136.0
1189.931519 60.0
1189.98645 216.0
1190.096924 120.0
1190.322266 212.0
1190.480469 140.0
1190.59314 184.0
1190.669189 156.0
1190.745605 168.0
1190.980957 208.0
1191.066772 180.0
1191.202026 120.0
1191.282227 128.0
1191.307861 88.0
1191.335693 164.0
1191.451782 324.0
1191.540283 128.0
1191.6073 140.0
1191.655396 104.0
1191.711914 140.0
1191.810181 284.0
1191.88208 128.0
1191.974365 136.0
1192.026489 212.0
1192.163818 60.0
1192.239502 132.0
1192.315063 180.0
1192.372192 104.0
1192.47998 164.0
1192.576172 212.0
1192.638062 116.0
1192.686157 188.0
1192.773926 204.0
1192.943237 92.0
1193.009277 136.0
1193.057373 76.0
1193.145874 220.0
1193.244019 188.0
1193.304932 120.0
1193.355103 176.0
1193.483643 160.0
1193.538696 96.0
1193.600586 196.0
1193.694458 172.0
1193.768555 384.0
1193.87561 116.0
1193.934448 164.0
1194.047729 104.0
1194.186035 324.0
1194.274536 56.0
1194.361938 128.0
1194.48584 180.0
1194.571655 200.0
1194.694092 104.0
1194.770386 144.0
1194.892212 116.0
1194.967163 188.0
1195.134399 168.0
1195.236206 116.0
1195.319702 160.0
1195.345337 148.0
1195.416504 252.0
1195.498779 208.0
1195.561035 172.0
1195.609253 164.0
1195.664307 112.0
1195.747925 208.0
1195.853882 132.0
1195.94458 116.0
1195.966797 84.0
1196.012817 176.0
1196.128174 128.0
1196.252441 124.0
1196.385498 180.0
1196.459961 132.0
1196.58667 132.0
1196.72583 124.0
1196.751221 80.0
1196.767822 116.0
1196.907227 380.0
1196.989746 44.0
1197.011719 164.0
1197.086426 180.0
1197.243164 164.0
1197.364014 136.0
1197.4198 196.0
1197.584229 180.0
1197.660889 152.0
1197.714966 80.0
1197.792358 140.0
1198.032837 120.0
1198.087524 60.0
1198.177002 184.0
1198.22168 184.0
1198.314941 152.0
1198.357422 368.0
1198.418701 68.0
1198.469604 144.0
1198.601074 184.0
1198.65979 288.0
1198.832153 144.0
1198.894165 356.0
1198.952759 188.0
1199.018188 148.0
1199.219238 328.0
1199.310181 120.0
1199.390381 52.0
1199.52063 156.0
1199.746826 188.0
1199.873657 116.0
1199.921143 160.0
1199.96936 136.0
1200.077637 148.0
1200.09375 128.0
1200.252075 48.0
1200.321045 48.0
1200.390015 108.0
1200.599976 172.0
1200.741699 112.0
1201.11853 144.0
1201.355591 144.0
1201.496582 92.0
1201.554688 168.0
1201.642334 176.0
1201.799683 140.0
1201.873047 76.0
1201.95874 180.0
1202.063965 192.0
1202.134277 144.0
1202.224976 88.0
1202.300903 272.0
1202.387207 100.0
1202.511719 176.0
1202.618042 100.0
1202.783936 124.0
1202.884521 196.0
1202.980713 112.0
1203.151123 164.0
1203.349487 192.0
1203.595703 84.0
1203.648438 172.0
1203.766113 140.0
1203.82312 92.0
1203.903198 280.0
1204.029053 164.0
1204.131104 176.0
1204.185547 104.0
1204.272949 152.0
1204.400391 236.0
1204.459839 120.0
1204.488159 80.0
1204.609741 276.0
1204.720093 160.0
1204.879517 68.0
1204.931641 120.0
1205.031128 228.0
1205.10144 120.0
1205.166504 112.0
1205.219482 196.0
1205.268677 152.0
1205.455444 144.0
1205.557007 132.0
1205.653564 288.0
1205.791382 172.0
1205.89209 228.0
1205.939697 164.0
1206.093384 124.0
1206.240234 176.0
1206.334961 172.0
1206.415649 112.0
1206.479614 108.0
1206.619263 168.0
1206.735474 76.0
1206.790771 208.0
1206.879028 344.0
1206.994751 128.0
1207.022339 64.0
1207.050781 160.0
1207.205688 120.0
1207.329834 112.0
1207.387695 156.0
1207.505005 300.0
1207.59729 176.0
1207.769531 120.0
1207.832031 72.0
1207.915039 124.0
1208.004761 160.0
1208.120605 116.0
1208.204224 184.0
1208.312256 148.0
1208.358154 228.0
1208.444946 172.0
1208.599609 128.0
1208.679077 96.0
1208.793823 196.0
1208.935059 144.0
1209.094971 116.0
1209.165527 160.0
1209.226196 236.0
1209.30188 108.0
1209.367432 128.0
1209.415527 284.0
1209.549683 108.0
1209.574585 88.0
1209.664307 284.0
1209.687012 156.0
1209.704956 296.0
1209.782837 188.0
1209.910522 156.0
1210.009888 284.0
1210.088623 160.0
1210.155518 284.0
1210.20874 124.0
1210.34021 132.0
1210.394531 152.0
1210.489014 276.0
1210.598999 132.0
1210.656616 152.0
1210.811279 264.0
1210.894775 116.0
1210.948364 172.0
1210.974365 140.0
1211.068604 116.0
1211.126343 64.0
1211.190063 96.0
1211.224731 100.0
1211.448364 152.0
1211.531494 172.0
1211.600708 152.0
1211.734985 136.0
1211.867554 136.0
1211.887695 68.0
1211.916626 164.0
1212.016479 188.0
1212.124146 172.0
1212.272827 160.0
1212.336548 128.0
1212.421387 148.0
1212.468994 92.0
1212.522339 140.0
1212.599609 168.0
1212.64856 152.0
1212.763062 128.0
1212.945068 92.0
1213.030273 100.0
1213.093506 276.0
1213.146118 80.0
1213.21521 104.0
1213.312256 176.0
1213.416504 112.0
1213.499756 100.0
1213.559814 232.0
1213.621094 84.0
1213.846436 256.0
1213.922729 100.0
1213.973267 92.0
1214.039307 184.0
1214.189575 172.0
1214.241699 80.0
1214.321045 160.0
1214.387939 136.0
1214.403442 148.0
1214.483154 172.0
1214.575073 120.0
1214.630127 132.0
1214.704468 208.0
1214.817383 128.0
1214.942261 292.0
1215.034058 140.0
1215.177124 188.0
1215.323853 92.0
1215.407104 128.0
1215.475342 152.0
1215.531982 56.0
1215.639404 100.0
1215.727417 196.0
1216.139404 232.0
1216.258057 136.0
1216.305542 60.0
1216.383423 124.0
1216.545288 108.0
1216.697021 168.0
1216.795166 92.0
1216.84375 144.0
1216.899292 120.0
1217.010498 148.0
1217.058594 140.0
1217.120483 224.0
1217.173096 132.0
1217.27771 136.0
1217.420166 48.0
1217.475708 140.0
1217.591553 324.0
1217.78125 108.0
1217.836792 144.0
1218.027588 80.0
1218.343872 248.0
1218.423096 120.0
1218.614868 76.0
1218.752441 156.0
1218.816162 136.0
1218.923096 120.0
1219.036011 72.0
1219.161133 220.0
1219.229004 188.0
1219.309692 152.0
1219.369995 100.0
1219.434814 164.0
1219.504272 128.0
1219.6875 148.0
1219.742432 128.0
1219.831299 236.0
1219.882202 144.0
1219.934448 176.0
1220.040405 168.0
1220.091553 192.0
1220.106079 92.0
1220.13269 152.0
1220.185547 204.0
1220.262085 116.0
1220.387207 160.0
1220.442749 124.0
1220.489746 156.0
1220.580933 156.0
1220.731567 124.0
1220.850708 328.0
1221.006104 72.0
1221.072144 120.0
1221.174194 156.0
1221.318604 164.0
1221.52771 68.0
1221.583618 128.0
1221.73645 128.0
1221.854614 172.0
1222.017212 328.0
1222.093628 160.0
1222.147461 196.0
1222.223389 104.0
1222.327759 160.0
1222.399292 164.0
1222.487793 132.0
1222.675781 260.0
1222.73584 164.0
1222.787109 320.0
1222.8302 160.0
1222.954102 132.0
1223.027588 80.0
1223.135132 44.0
1223.229004 152.0
1223.329956 64.0
1223.385742 84.0
1223.447144 140.0
1223.491821 116.0
1223.60144 112.0
1223.664307 160.0
1223.775513 128.0
1223.893921 52.0
1223.970459 144.0
1224.05896 160.0
1224.120605 276.0
1224.216431 200.0
1224.269897 156.0
1224.381348 92.0
1224.475342 140.0
1224.659912 116.0
1224.720825 76.0
1224.86731 288.0
1224.952515 48.0
1225.018433 140.0
1225.217163 96.0
1225.315796 192.0
1225.382935 164.0
1225.435303 200.0
1225.537476 164.0
1225.670044 92.0
1225.753662 48.0
1225.837402 212.0
1225.901855 252.0
1226.011475 212.0
1226.115356 120.0
1226.185791 120.0
1226.251953 48.0
1226.341675 132.0
1226.392578 232.0
1226.439575 136.0
1226.624878 160.0
1226.680664 160.0
1226.805664 140.0
1226.966431 352.0
1227.036133 120.0
1227.137573 160.0
1227.259277 152.0
1227.310181 120.0
1227.35083 144.0
1227.417236 136.0
1227.437988 88.0
1227.462158 192.0
1227.614868 160.0
1227.677612 108.0
1227.800049 240.0
1227.847778 192.0
1227.970581 52.0
1228.047241 128.0
1228.104126 140.0
1228.171265 92.0
1228.240234 176.0
1228.326904 44.0
1228.48584 156.0
1228.505981 100.0
1228.634521 88.0
1228.859863 108.0
1228.905273 216.0
1228.975098 164.0
1229.04541 188.0
1229.062256 176.0
1229.11499 184.0
1229.196045 120.0
1229.289062 160.0
1229.386719 112.0
1229.507446 336.0
1229.577148 100.0
1229.598022 160.0
1229.689453 196.0
1229.742676 80.0
1229.805542 36.0
1229.880615 216.0
1229.956665 256.0
1230.069824 364.0
1230.203369 104.0
1230.273193 108.0
1230.363892 196.0
1230.50354 220.0
1230.573364 28.0
1230.632812 164.0
1230.726929 136.0
1230.785889 100.0
1230.882202 124.0
1231.097046 180.0
1231.158691 116.0
1231.222656 320.0
1231.293091 156.0
1231.4198 136.0
1231.528076 184.0
1231.641846 216.0
1231.777832 172.0
1231.957397 156.0
1232.022583 232.0
1232.200684 140.0
1232.289307 100.0
1232.389526 108.0
1232.522705 124.0
1232.643799 188.0
1232.797729 168.0
1232.991821 148.0
1233.109985 152.0
1233.237915 168.0
1233.343262 196.0
1233.44458 40.0
1233.498535 204.0
1233.570435 344.0
1233.647339 176.0
1233.717163 280.0
1233.836304 116.0
1233.922119 208.0
1233.968872 280.0
1234.084961 224.0
1234.228394 108.0
1234.351685 184.0
1234.443481 164.0
1234.528198 132.0
1234.577148 132.0
1234.65979 124.0
1234.717773 232.0
1234.822021 112.0
1234.884888 308.0
1234.952026 120.0
1235.083862 316.0
1235.15564 208.0
1235.297974 76.0
1235.346558 136.0
1235.436646 132.0
1235.522583 104.0
1235.815308 128.0
1235.943848 224.0
1236.007202 148.0
1236.055908 124.0
1236.144775 144.0
1236.361084 192.0
1236.424072 160.0
1236.473022 144.0
1236.522095 172.0
1236.799194 148.0
1237.020264 116.0
1237.147339 156.0
1237.222046 76.0
1237.278076 156.0
1237.354126 88.0
1237.401245 388.0
1237.481079 128.0
1237.598022 152.0
1237.720215 176.0
1237.796143 112.0
1237.939697 120.0
1237.994873 216.0
1238.081543 196.0
1238.149658 172.0
1238.202271 156.0
1238.265381 100.0
1238.375854 148.0
1238.49646 304.0
1238.580566 104.0
1238.636597 140.0
1238.74353 144.0
1238.866455 128.0
1239.05835 200.0
1239.111206 112.0
1239.205688 128.0
1239.26001 212.0
1239.342773 212.0
1239.498291 144.0
1239.579346 516.0
1239.626465 160.0
1239.643066 48.0
1239.692017 156.0
1239.855591 252.0
1239.946777 164.0
1240.121948 292.0
1240.227051 92.0
1240.294189 132.0
1240.647705 104.0
1240.815918 84.0
1240.86499 204.0
1240.984253 80.0
1241.06543 312.0
1241.126709 328.0
1241.242065 200.0
1241.320801 236.0
1241.389771 208.0
1241.47998 92.0
1241.620728 104.0
1241.69458 260.0
1241.751709 104.0
1241.812378 384.0
1241.855347 136.0
1241.928467 128.0
1242.020996 128.0
1242.113892 96.0
1242.191772 124.0
1242.316406 160.0
1242.336426 152.0
1242.385254 304.0
1242.41272 204.0
1242.422729 276.0
1242.548462 164.0
1242.611328 72.0
1242.688477 140.0
1242.751709 128.0
1242.891235 276.0
1243.011108 172.0
1243.025024 168.0
1243.053955 164.0
1243.144653 180.0
1243.193726 84.0
1243.260376 172.0
1243.309326 140.0
1243.367065 164.0
1243.452515 172.0
1243.483521 108.0
1243.541504 216.0
1243.607788 112.0
1243.727173 236.0
1243.799072 148.0
1243.893799 152.0
1243.993286 96.0
1244.155884 164.0
1244.258423 232.0
1244.351929 124.0
1244.421021 208.0
1244.572754 124.0
1244.649902 272.0
1244.717041 100.0
1244.810181 104.0
1244.874756 292.0
1244.899902 104.0
1244.916382 224.0
1244.978516 32.0
1245.133789 172.0
1245.233032 244.0
1245.300171 108.0
1245.454346 124.0
1245.51062 124.0
1245.590942 136.0
1245.775024 200.0
1245.886108 100.0
1246.184937 128.0
1246.248169 84.0
1246.347046 112.0
1246.370605 136.0
1246.407959 180.0
1246.515259 124.0
1246.580444 88.0
1246.754517 216.0
1246.885742 224.0
1246.911255 292.0
1246.991699 180.0
1247.076904 100.0
1247.210449 148.0
1247.335205 84.0
1247.367188 140.0
1247.418579 208.0
1247.495117 188.0
1247.593628 224.0
1247.7052 156.0
1247.750488 96.0
1247.766113 140.0
1247.868042 80.0
1247.956177 132.0
1248.013794 168.0
1248.115112 140.0
1248.167358 120.0
1248.279541 140.0
1248.414917 96.0
1248.43811 172.0
1248.528931 124.0
1248.652344 156.0
1248.705566 256.0
1248.771851 232.0
1248.892822 148.0
1249.067261 100.0
1249.317505 92.0
1249.33313 324.0
1249.461182 68.0
1249.547363 176.0
1249.772217 120.0
1249.845459 124.0
1249.859375 48.0
1249.87793 120.0
1249.981934 76.0
1250.038208 136.0
1250.108521 112.0
1250.209229 180.0
1250.397095 256.0
1250.486084 164.0
1250.603516 196.0
1250.657471 72.0
1250.75354 160.0
1250.868652 252.0
1250.988647 80.0
1251.176025 128.0
1251.269897 136.0
1251.36145 156.0
1251.408813 132.0
1251.477173 136.0
1251.59436 188.0
1251.650146 92.0
1251.726196 192.0
1251.765381 324.0
1251.860962 136.0
1252.054077 184.0
1252.105591 100.0
1252.167236 120.0
1252.226562 108.0
1252.27832 116.0
1252.343018 192.0
1252.430176 140.0
1252.524902 132.0
1252.579468 168.0
1252.65979 100.0
1252.766357 228.0
1252.938354 376.0
1253.068359 168.0
1253.157471 144.0
1253.258179 84.0
1253.340576 120.0
1253.401733 296.0
1253.467407 412.0
1253.633057 308.0
1253.725342 324.0
1253.777466 88.0
1253.908936 152.0
1254.03772 108.0
1254.108765 120.0
1254.228271 112.0
1254.351929 84.0
1254.373169 132.0
1254.403198 236.0
1254.491943 132.0
1254.688965 180.0
1254.853149 168.0
1254.919434 104.0
1255.035767 128.0
1255.14502 168.0
1255.29895 176.0
1255.378296 160.0
1255.526855 220.0
1255.647583 280.0
1255.760742 156.0
1255.829834 76.0
1255.913696 96.0
1255.963135 56.0
1256.062134 120.0
1256.300049 152.0
1256.478027 256.0
1256.548584 284.0
1256.613403 220.0
1256.683105 188.0
1256.761475 296.0
1256.898438 160.0
1257.019897 140.0
1257.08252 148.0
1257.232422 164.0
1257.293701 88.0
1257.362793 328.0
1257.500366 104.0
1257.526978 92.0
1257.593018 144.0
1257.66394 200.0
1257.76001 184.0
1257.868164 288.0
1257.938843 144.0
1257.988281 132.0
1258.040039 292.0
1258.245728 316.0
1258.3125 120.0
1258.440063 192.0
1258.548828 240.0
1258.628296 228.0
1258.743774 104.0
1258.800171 76.0
1258.983765 140.0
1259.098511 140.0
1259.191895 136.0
1259.280396 76.0
1259.332764 120.0
1259.383057 128.0
1259.545166 164.0
1259.733765 316.0
1259.796387 232.0
1259.95459 164.0
1260.079712 84.0
1260.182007 172.0
1260.245972 124.0
1260.352783 164.0
1260.453125 164.0
1260.502563 216.0
1260.569092 164.0
1260.64917 220.0
1260.797607 312.0
1260.863037 172.0
1260.945312 160.0
1260.973633 164.0
1260.985352 124.0
1261.084351 156.0
1261.181152 176.0
1261.296753 140.0
1261.435547 180.0
1261.502319 160.0
1261.525391 72.0
1261.552002 140.0
1261.696655 156.0
1261.918213 164.0
1261.993408 96.0
1262.066528 136.0
1262.093018 36.0
1262.112305 136.0
1262.240601 68.0
1262.323975 380.0
1262.416992 164.0
1262.489014 128.0
1262.570923 172.0
1262.734619 152.0
1262.892212 124.0
1262.940918 192.0
1262.998779 160.0
1263.125488 120.0
1263.223633 152.0
1263.307617 156.0
1263.353516 164.0
1263.408447 116.0
1263.494263 172.0
1263.526123 100.0
1263.665649 216.0
1263.714355 156.0
1263.79834 116.0
1263.877808 128.0
1264.094727 192.0
1264.267334 156.0
1264.356567 204.0
1264.427368 172.0
1264.612671 132.0
1264.686523 144.0
1264.829956 64.0
1264.87915 120.0
1265.019287 76.0
1265.101318 144.0
1265.154663 112.0
1265.253052 128.0
1265.340454 136.0
1265.431641 96.0
1265.545776 116.0
1265.662231 140.0
1265.794434 164.0
1265.944092 204.0
1266.00415 164.0
1266.051758 176.0
1266.073608 164.0
1266.206299 336.0
1266.315674 140.0
1266.42395 60.0
1266.480591 36.0
1266.650513 256.0
1266.697388 172.0
1266.813477 168.0
1266.9198 72.0
1266.986938 156.0
1267.050659 296.0
1267.23999 180.0
1267.302368 196.0
1267.400024 216.0
1267.526001 84.0
1267.567505 84.0
1267.628296 100.0
1267.850098 200.0
1268.021851 136.0
1268.079224 152.0
1268.14563 80.0
1268.266113 72.0
1268.376221 176.0
1268.509521 144.0
1268.563843 52.0
1268.688354 176.0
1268.812988 184.0
1268.861572 184.0
1269.065796 224.0
1269.162354 180.0
1269.216064 172.0
1269.308228 188.0
1269.447754 304.0
1269.506836 120.0
1269.623535 280.0
1269.812378 188.0
1269.924927 96.0
1270.059937 100.0
1270.201416 180.0
1270.34668 96.0
1270.450073 92.0
1270.520996 96.0
1270.585693 116.0
1270.721436 212.0
1270.81665 152.0
1270.832642 92.0
1270.907349 200.0
1270.968018 84.0
1271.021362 276.0
1271.080322 120.0
1271.269653 124.0
1271.346802 188.0
1271.434204 280.0
1271.5271 144.0
1271.684814 252.0
1271.73938 184.0
1271.768188 128.0
1271.927734 192.0
1272.025513 180.0
1272.114258 164.0
1272.20874 152.0
1272.298828 296.0
1272.392578 152.0
1272.497437 128.0
1272.572144 148.0
1272.628906 372.0
1272.721191 136.0
1272.899536 172.0
1272.952148 108.0
1273.033691 124.0
1273.097534 140.0
1273.147217 132.0
1273.204102 88.0
1273.280884 132.0
1273.452637 112.0
1273.548706 108.0
1273.660034 160.0
1273.786377 104.0
1273.836182 172.0
1273.88562 112.0
1273.897461 108.0
1273.971191 176.0
1274.04187 144.0
1274.098999 156.0
1274.164429 176.0
1274.268433 148.0
1274.394287 192.0
1274.46106 172.0
1274.481323 164.0
1274.688721 108.0
1274.901978 116.0
1274.997437 168.0
1275.054321 184.0
1275.140137 128.0
1275.190186 304.0
1275.349731 332.0
1275.420044 144.0
1275.485352 192.0
1275.5896 172.0
1275.647583 144.0
1275.66272 108.0
1275.75769 180.0
1275.800781 132.0
1276.12854 208.0
1276.288086 380.0
1276.437378 252.0
1276.497803 136.0
1276.62793 208.0
1276.640503 48.0
1276.764526 52.0
1276.817871 120.0
1277.03479 312.0
1277.108765 304.0
1277.212646 148.0
1277.294067 116.0
1277.387085 172.0
1277.461548 196.0
1277.539795 60.0
1277.626343 220.0
1277.696289 252.0
1277.77124 196.0
1277.865479 480.0
1277.974365 52.0
1278.045166 208.0
1278.156372 160.0
1278.215698 160.0
1278.408936 232.0
1278.543091 124.0
1278.598267 208.0
1278.677979 224.0
1278.750854 392.0
1278.920288 132.0
1279.005615 164.0
1279.083984 184.0
1279.174927 232.0
1279.226685 72.0
1279.243896 136.0
1279.301514 176.0
1279.368652 112.0
1279.480469 160.0
1279.52832 116.0
1279.681885 120.0
1279.798462 204.0
1279.876343 108.0
1279.959595 116.0
1280.014893 88.0
1280.062256 88.0
1280.137695 100.0
1280.258423 148.0
1280.491333 292.0
1280.557861 96.0
1280.700317 72.0
1280.778564 124.0
1280.899658 164.0
1280.978027 112.0
1281.032593 276.0
1281.167847 164.0
1281.320801 168.0
1281.376953 108.0
1281.580566 148.0
1281.809204 120.0
1281.911377 124.0
1281.978882 184.0
1282.007935 88.0
1282.031006 72.0
1282.102905 136.0
1282.18811 256.0
1282.253418 32.0
1282.472534 240.0
1282.554321 112.0
1282.594238 144.0
1282.748779 128.0
1282.796143 280.0
1282.922119 144.0
1283.000366 268.0
1283.05896 96.0
1283.130615 80.0
1283.25647 112.0
1283.329834 112.0
1283.415405 112.0
1283.536377 216.0
1283.660156 292.0
1283.68811 116.0
1283.711792 156.0
1283.841187 164.0
1283.933716 156.0
1283.990601 36.0
1284.093506 164.0
1284.206909 28.0
1284.263428 88.0
1284.287231 80.0
1284.301514 108.0
1284.392456 152.0
1284.555054 180.0
1284.699585 132.0
1284.770508 184.0
1284.899414 136.0
1284.955933 160.0
1285.057373 348.0
1285.177124 116.0
1285.258789 128.0
1285.324951 200.0
1285.387573 184.0
1285.469727 148.0
1285.546265 104.0
1285.574463 76.0
1285.607788 156.0
1285.726562 144.0
1285.776611 164.0
1285.826538 188.0
1285.883667 180.0
1285.937866 356.0
1285.965088 184.0
1286.076294 52.0
1286.160034 364.0
1286.171631 92.0
1286.234375 152.0
1286.383301 152.0
1286.58728 100.0
1286.709229 108.0
1286.825806 60.0
1286.940063 160.0
1287.042603 332.0
1287.125122 176.0
1287.291016 296.0
1287.37561 156.0
1287.453979 256.0
1287.564697 372.0
1287.641846 172.0
1287.72229 208.0
1287.862549 204.0
1287.953125 184.0
1288.068481 140.0
1288.175659 28.0
1288.2771 136.0
1288.332764 92.0
1288.404175 124.0
1288.528687 340.0
1288.608765 152.0
1288.703735 248.0
1288.835327 192.0
1288.932861 128.0
1288.997192 132.0
1289.064209 488.0
1289.247314 176.0
1289.361694 104.0
1289.486694 148.0
1289.589111 176.0
1289.733276 132.0
1289.797607 92.0
1289.870239 420.0
1289.938477 120.0
1290.072021 124.0
1290.254883 132.0
1290.369507 172.0
1290.419556 104.0
1290.480713 160.0
1290.50769 88.0
1290.53772 188.0
1290.655518 288.0
1290.864868 172.0
1290.936401 172.0
1291.005737 196.0
1291.104126 156.0
1291.294434 304.0
1291.344116 148.0
1291.405762 188.0
1291.563721 124.0
1291.61377 216.0
1291.713257 112.0
1291.776001 84.0
1291.928589 60.0
1292.045532 180.0
1292.145752 168.0
1292.250488 132.0
1292.307739 164.0
1292.395386 320.0
1292.493774 136.0
1292.622559 128.0
1292.676147 164.0
1292.780029 140.0
1292.804321 160.0
1292.878906 168.0
1292.973267 136.0
1293.102051 248.0
1293.1521 328.0
1293.216553 180.0
1293.273804 100.0
1293.332886 128.0
1293.385498 80.0
1293.431274 120.0
1293.507935 160.0
1293.57666 264.0
1293.670776 140.0
1293.692383 108.0
1293.774902 108.0
1293.844971 168.0
1293.894165 236.0
1294.008301 60.0
1294.088135 148.0
1294.164062 148.0
1294.258301 132.0
1294.419189 208.0
1294.490845 128.0
1294.556763 180.0
1294.612671 116.0
1294.747314 168.0
1294.791138 316.0
1295.042358 124.0
1295.151367 168.0
1295.215942 212.0
1295.237549 180.0
1295.270996 168.0
1295.287842 232.0
1295.34314 120.0
1295.449951 184.0
1295.592651 392.0
1295.657227 128.0
1295.758667 328.0
1295.815918 152.0
1295.880493 156.0
1296.038086 152.0
1296.284058 148.0
1296.397339 172.0
1296.49231 152.0
1296.561157 104.0
1296.733154 136.0
1296.871094 188.0
1297.031738 272.0
1297.083374 352.0
1297.116455 128.0
1297.142456 104.0
1297.270752 196.0
1297.414185 96.0
1297.554199 256.0
1297.654419 136.0
1297.736816 148.0
1297.866455 212.0
1297.951538 152.0
1298.050049 316.0
1298.13269 56.0
1298.219116 132.0
1298.281738 96.0
1298.42981 244.0
1298.518799 172.0
1298.633179 168.0
1298.68335 132.0
1298.820435 204.0
1298.890259 328.0
1299.03479 48.0
1299.14856 140.0
1299.210449 176.0
1299.238403 84.0
1299.278687 112.0
1299.354004 180.0
1299.529785 148.0
1299.608765 156.0
1299.713379 172.0
1299.825684 188.0
1299.885254 164.0
1299.942261 276.0
1300.006104 324.0
1300.123169 176.0
1300.14978 308.0
1300.358643 232.0
1300.587402 284.0
1300.6427 172.0
1300.756592 148.0
1300.859741 200.0
1300.958984 172.0
1301.054688 144.0
1301.148804 192.0
1301.207153 160.0
1301.327881 332.0
1301.379517 248.0
1301.481079 244.0
1301.627197 184.0
1301.81958 120.0
1301.918945 156.0
1302.01709 112.0
1302.1427 148.0
1302.192993 156.0
1302.311157 172.0
1302.415161 524.0
1302.496338 52.0
1302.565552 160.0
1302.622803 268.0
1302.71106 184.0
1302.792847 120.0
1302.911377 132.0
1302.997559 104.0
1303.069336 156.0
1303.134033 280.0
1303.194214 116.0
1303.310913 148.0
1303.339722 184.0
1303.373657 80.0
1303.431885 188.0
1303.612183 156.0
1303.682373 88.0
1303.849731 236.0
1303.974731 80.0
1304.135864 172.0
1304.264893 160.0
1304.334106 84.0
1304.414307 212.0
1304.485107 164.0
1304.557495 148.0
1304.69751 116.0
1304.758301 136.0
1304.881104 148.0
1305.012329 284.0
1305.138794 116.0
1305.280396 136.0
1305.369385 396.0
1305.44165 100.0
1305.525513 152.0
1305.639648 132.0
1305.684326 372.0
1305.936768 100.0
1305.950195 204.0
1305.977783 228.0
1306.172852 196.0
1306.278076 272.0
1306.307251 180.0
1306.334229 264.0
1306.457031 112.0
1306.523926 128.0
1306.641357 120.0
1306.689941 160.0
1306.779175 124.0
1306.865601 168.0
1306.965576 140.0
1307.196533 160.0
1307.325317 164.0
1307.434082 128.0
1307.484375 132.0
1307.592407 152.0
1307.729126 72.0
1307.851929 116.0
1307.91626 160.0
1307.973877 220.0
1308.056763 212.0
1308.197021 44.0
1308.34375 92.0
1308.416504 132.0
1308.595459 184.0
1308.67688 208.0
1308.812622 152.0
1308.921997 148.0
1309.035278 340.0
1309.158936 224.0
1309.240967 156.0
1309.362183 196.0
1309.449829 140.0
1309.514282 308.0
1309.622681 116.0
1309.706665 192.0
1309.8125 180.0
1309.973389 144.0
1310.071045 144.0
1310.181396 316.0
1310.204956 176.0
1310.223389 288.0
1310.28833 200.0
1310.344849 108.0
1310.429688 284.0
1310.489868 104.0
1310.537598 152.0
1310.613525 188.0
1310.739258 204.0
1310.840698 180.0
1310.909424 140.0
1310.977173 144.0
1311.114014 120.0
1311.256714 192.0
1311.305542 92.0
1311.319336 180.0
1311.425293 140.0
1311.517944 324.0
1311.653931 188.0
1311.784302 116.0
1311.849243 104.0
1311.944458 184.0
1312.025635 128.0
1312.192993 304.0
1312.327393 144.0
1312.411499 136.0
1312.488037 196.0
1312.521851 144.0
1312.670654 164.0
1312.680298 116.0
1312.742676 180.0
1312.909058 148.0
1313.004517 148.0
1313.063721 172.0
1313.171875 308.0
1313.269653 108.0
1313.35022 212.0
1313.366821 180.0
1313.525879 172.0
1313.637573 36.0
1313.760254 332.0
1313.81311 204.0
1313.897217 112.0
1313.976074 164.0
1314.120972 136.0
1314.200317 152.0
1314.304199 148.0
1314.425537 128.0
1314.553833 144.0
1314.795898 184.0
1314.849731 128.0
1314.921875 152.0
1314.980469 136.0
1315.161987 92.0
1315.280029 128.0
1315.356934 232.0
1315.463379 152.0
1315.534302 152.0
1315.605469 92.0
1315.71228 204.0
1315.756958 180.0
1315.824219 184.0
1316.026123 132.0
1316.049316 128.0
1316.169312 128.0
1316.231201 164.0
1316.333252 160.0
1316.448853 180.0
1316.61853 80.0
1316.669067 120.0
1316.734009 128.0
1316.818481 168.0
1316.932373 148.0
1317.122437 192.0
1317.150635 148.0
1317.273438 212.0
1317.354858 148.0
1317.393555 204.0
1317.540649 172.0
1317.614624 44.0
1317.724609 212.0
1317.791626 172.0
1317.880249 176.0
1317.971558 60.0
1318.033813 124.0
1318.106201 176.0
1318.183105 192.0
1318.265503 68.0
1318.381958 144.0
1318.504028 140.0
1318.641602 296.0
1318.724487 108.0
1318.79126 160.0
1318.916016 164.0
1319.020264 148.0
1319.098389 196.0
1319.183472 148.0
1319.367798 120.0
1319.429199 156.0
1319.515991 148.0
1319.595703 232.0
1319.750732 188.0
1319.897949 96.0
1320.000366 192.0
1320.065063 116.0
1320.210083 224.0
1320.289673 124.0
1320.347534 248.0
1320.551514 160.0
1320.683716 124.0
1320.926147 84.0
1320.991089 132.0
1321.129028 96.0
1321.193481 100.0
1321.368286 68.0
1321.433228 168.0
1321.537598 148.0
1321.649658 164.0
1321.704956 116.0
1321.794067 136.0
1321.97522 260.0
1322.076538 144.0
1322.267822 184.0
1322.322632 128.0
1322.438354 136.0
1322.587646 184.0
1322.649902 124.0
1322.769653 124.0
1322.829224 280.0
1322.905151 108.0
1323.021729 144.0
1323.158081 396.0
1323.266602 184.0
1323.328735 148.0
1323.410645 196.0
1323.492676 208.0
1323.589966 176.0
1323.660278 160.0
1323.770508 136.0
1323.857422 48.0
1323.914917 84.0
1323.973267 92.0
1324.055542 168.0
1324.294556 120.0
1324.413086 160.0
1324.465698 132.0
1324.516479 124.0
1324.588867 136.0
1324.662476 132.0
1324.687622 120.0
1324.707397 188.0
1324.77002 92.0
1324.929077 100.0
1325.045288 384.0
1325.139404 136.0
1325.211914 144.0
1325.262573 508.0
1325.325806 128.0
1325.380493 212.0
1325.472778 116.0
1325.617676 128.0
1325.71106 224.0
1325.74292 124.0
1325.860107 160.0
1325.974487 216.0
1326.084106 196.0
1326.197388 52.0
1326.277222 152.0
1326.342163 276.0
1326.3573 152.0
1326.550537 136.0
1326.605103 224.0
1326.703125 172.0
1326.759521 124.0
1326.816406 156.0
1326.951294 120.0
1327.028687 324.0
1327.165527 304.0
1327.229736 112.0
1327.263794 44.0
1327.289307 116.0
1327.430542 208.0
1327.567627 116.0
1327.737793 124.0
1327.869385 320.0
1327.927612 224.0
1328.002808 152.0
1328.059082 188.0
1328.169678 56.0
1328.327393 160.0
1328.512573 100.0
1328.611572 144.0
1328.699219 108.0
1328.754761 132.0
1328.832153 324.0
1328.89502 124.0
1328.982178 200.0
1329.07312 308.0
1329.22583 164.0
1329.245483 96.0
1329.276001 192.0
1329.347168 344.0
1329.443237 308.0
1329.538818 192.0
1329.585205 276.0
1329.646362 188.0
1329.712891 132.0
1329.814209 164.0
1329.879639 128.0
1330.05542 80.0
1330.194092 92.0
1330.279541 192.0
1330.394165 104.0
1330.450684 140.0
1330.533081 384.0
1330.615112 140.0
1330.686646 168.0
1331.03772 140.0
1331.23645 132.0
1331.262939 204.0
1331.286987 176.0
1331.402954 196.0
1331.553467 156.0
1331.618286 452.0
1331.680176 168.0
1331.753906 172.0
1331.819092 180.0
1331.934082 128.0
1331.946655 80.0
1332.005493 288.0
1332.198242 156.0
1332.249146 116.0
1332.352295 196.0
1332.411743 200.0
1332.50061 148.0
1332.597534 296.0
1332.680542 228.0
1332.750488 160.0
1332.800415 92.0
1332.845337 376.0
1332.905762 216.0
1332.953857 176.0
1333.09314 196.0
1333.141357 152.0
1333.290283 196.0
1333.375366 152.0
1333.480957 232.0
1333.593384 276.0
1333.664429 156.0
1333.901245 136.0
1334.06189 176.0
1334.124023 104.0
1334.282837 144.0
1334.321899 152.0
1334.407593 164.0
1334.528442 244.0
1334.619751 240.0
1334.670654 176.0
1334.749756 132.0
1334.880249 156.0
1334.931396 160.0
1335.02124 92.0
1335.173828 136.0
1335.295288 200.0
1335.37854 156.0
1335.514771 64.0
1335.615479 184.0
1335.723999 152.0
1335.815308 160.0
1335.834717 112.0
1335.920288 216.0
1336.007568 64.0
1336.094849 196.0
1336.193115 180.0
1336.283447 148.0
1336.312012 136.0
1336.331421 136.0
1336.441772 104.0
1336.471924 72.0
1336.491821 164.0
1336.593262 104.0
1336.742432 180.0
1336.800659 144.0
1336.94104 164.0
1337.155518 160.0
1337.251831 148.0
1337.339111 168.0
1337.421509 132.0
1337.490723 140.0
1337.515747 280.0
1337.681152 172.0
1337.8479 176.0
1337.959473 148.0
1338.045288 128.0
1338.219116 132.0
1338.34375 160.0
1338.420776 176.0
1338.518555 208.0
1338.598633 132.0
1338.688965 180.0
1338.772095 132.0
1338.964478 148.0
1339.055908 136.0
1339.137573 228.0
1339.221191 116.0
1339.324707 176.0
1339.412842 160.0
1339.471924 208.0
1339.618286 124.0
1339.682617 136.0
1339.742065 96.0
1339.823975 348.0
1339.902344 120.0
1340.057007 352.0
1340.177734 420.0
1340.262573 136.0
1340.323975 92.0
1340.348511 120.0
1340.377441 156.0
1340.510864 132.0
1340.57251 144.0
1340.660156 84.0
1340.733398 160.0
1340.81543 204.0
1340.900269 88.0
1340.966187 76.0
1341.060425 152.0
1341.139282 152.0
1341.188354 324.0
1341.230225 300.0
1341.317993 212.0
1341.432007 264.0
1341.46167 144.0
1341.484253 216.0
1341.546265 372.0
1341.644165 132.0
1341.702759 164.0
1341.777344 140.0
1341.864624 196.0
1341.887939 100.0
1341.915283 192.0
1342.081665 284.0
1342.181274 112.0
1342.238403 152.0
1342.28833 172.0
1342.373291 200.0
1342.497192 192.0
1342.603516 84.0
1342.623291 108.0
1342.678101 140.0
1342.702759 124.0
1342.796265 92.0
1342.865356 92.0
1342.965698 256.0
1343.116211 96.0
1343.18396 184.0
1343.306763 304.0
1343.392456 152.0
1343.506348 156.0
1343.622559 184.0
1343.755493 160.0
1343.906982 476.0
1344.057129 356.0
1344.152588 124.0
1344.224976 188.0
1344.421021 180.0
1344.551636 228.0
1344.651978 204.0
1344.720703 168.0
1344.790771 220.0
1344.855469 100.0
1344.963135 284.0
1345.033813 252.0
1345.132324 160.0
1345.189453 212.0
1345.25354 176.0
1345.280884 136.0
1345.313232 112.0
1345.39978 172.0
1345.470337 176.0
1345.580811 136.0
1345.64209 140.0
1345.727417 256.0
1345.777588 180.0
1345.944946 172.0
1346.0802 204.0
1346.180176 388.0
1346.306519 104.0
1346.357666 104.0
1346.494141 132.0
1346.669556 220.0
1346.784302 156.0
1346.942139 228.0
1346.998657 120.0
1347.057373 160.0
1347.136353 164.0
1347.225952 164.0
1347.285278 180.0
1347.404175 284.0
1347.496704 124.0
1347.675537 244.0
1347.72998 180.0
1347.75769 300.0
1347.812866 132.0
1347.883789 188.0
1348.011963 116.0
1348.128784 228.0
1348.21875 100.0
1348.291382 120.0
1348.318115 184.0
1348.377686 140.0
1348.506592 112.0
1348.624512 88.0
1348.763672 116.0
1349.037964 152.0
1349.159546 80.0
1349.226318 168.0
1349.304443 236.0
1349.368164 144.0
1349.496826 144.0
1349.580811 140.0
1349.645996 116.0
1349.799438 80.0
1349.850708 84.0
1349.960327 224.0
1350.121216 120.0
1350.260254 156.0
1350.311401 168.0
1350.416992 92.0
1350.491577 132.0
1350.582031 88.0
1350.652954 144.0
1350.738525 172.0
1350.803345 184.0
1350.893311 276.0
1350.991455 116.0
1351.08606 172.0
1351.105713 156.0
1351.164673 308.0
1351.244507 180.0
1351.386719 96.0
1351.550171 156.0
1351.606201 44.0
1351.751465 80.0
1351.924194 104.0
1352.007568 128.0
1352.081177 220.0
1352.164062 312.0
1352.232056 148.0
1352.308716 232.0
1352.543091 148.0
1352.633545 116.0
1352.721802 148.0
1352.79187 96.0
1352.967529 164.0
1353.069458 160.0
1353.082642 148.0
1353.120117 120.0
1353.223755 100.0
1353.324219 168.0
1353.372314 84.0
1353.516602 32.0
1353.60022 108.0
1353.773682 148.0
1353.893311 124.0
1353.960083 128.0
1354.042969 220.0
1354.070923 104.0
1354.081787 160.0
1354.146484 80.0
1354.215576 36.0
1354.349365 176.0
1354.405151 132.0
1354.492432 156.0
1354.580566 320.0
1354.639282 148.0
1354.700928 292.0
1354.76355 148.0
1354.868408 120.0
1355.003174 100.0
1355.191406 124.0
1355.259888 112.0
1355.337646 132.0
1355.387451 256.0
1355.552612 180.0
1355.572144 72.0
1355.598389 120.0
1355.819824 176.0
1355.87854 84.0
1355.898926 116.0
1356.026245 204.0
1356.153564 252.0
1356.251953 172.0
1356.305542 288.0
1356.420532 108.0
1356.495483 148.0
1356.590576 216.0
1356.665039 100.0
1356.679688 156.0
1356.730835 232.0
1356.90625 64.0
1357.018921 144.0
1357.186279 88.0
1357.275635 48.0
1357.443726 132.0
1357.461304 124.0
1357.492432 172.0
1357.635986 392.0
1357.774536 116.0
1357.862183 168.0
1357.979614 76.0
1358.052979 340.0
1358.134766 168.0
1358.197266 236.0
1358.23877 244.0
1358.396118 128.0
1358.466431 272.0
1358.5271 124.0
1358.617798 204.0
1358.764404 116.0
1358.82312 144.0
1358.891968 192.0
1358.969849 108.0
1359.043213 172.0
1359.116577 132.0
1359.212036 104.0
1359.303345 188.0
1359.444946 96.0
1359.514771 144.0
1359.589355 188.0
1359.68396 164.0
1359.887207 100.0
1359.973633 164.0
1360.227051 152.0
1360.436279 192.0
1360.482788 212.0
1360.591797 360.0
1360.643188 88.0
1360.775391 260.0
1360.834106 180.0
1360.924805 232.0
1361.057983 148.0
1361.188965 112.0
1361.26001 116.0
1361.327881 148.0
1361.386963 112.0
1361.454956 124.0
1361.601562 272.0
1361.675903 140.0
1361.788452 88.0
1361.830811 88.0
1361.886353 280.0
1361.979614 104.0
1362.0979 216.0
1362.345825 68.0
1362.369019 144.0
1362.422119 164.0
1362.515991 100.0
1362.672852 104.0
1362.741089 132.0
1362.770142 88.0
1362.800781 184.0
1362.829468 228.0
1362.916748 132.0
1362.967529 148.0
1363.036865 240.0
1363.204224 48.0
1363.264282 164.0
1363.409302 116.0
1363.496826 56.0
1363.581421 40.0
1363.632935 172.0
1363.803345 224.0
1363.827759 172.0
1363.966553 452.0
1364.021729 160.0
1364.07373 336.0
1364.156982 120.0
1364.233276 240.0
1364.395752 168.0
1364.46167 112.0
1364.517578 144.0
1364.645752 176.0
1364.852783 288.0
1364.980225 220.0
1365.063721 100.0
1365.126221 108.0
1365.223511 136.0
1365.272339 164.0
1365.38269 136.0
1365.470337 256.0
1365.570679 228.0
1365.653687 160.0
1365.809204 160.0
1365.882812 128.0
1366.01416 116.0
1366.131714 124.0
1366.191284 76.0
1366.27002 56.0
1366.368286 124.0
1366.442017 192.0
1366.518066 160.0
1366.632202 380.0
1366.771362 172.0
1366.819702 160.0
1366.898071 148.0
1366.97998 256.0
1367.132202 308.0
1367.179443 360.0
1367.280396 112.0
1367.413208 220.0
1367.514038 148.0
1367.623535 220.0
1367.678101 148.0
1367.743042 192.0
1367.772461 156.0
1367.803833 164.0
1367.965088 188.0
1368.143311 220.0
1368.215454 160.0
1368.339478 136.0
1368.493774 324.0
1368.62207 224.0
1368.70874 172.0
1368.776367 88.0
1368.922119 112.0
1368.990845 164.0
1369.091675 124.0
1369.143311 248.0
1369.244751 196.0
1369.30835 156.0
1369.375854 172.0
1369.430176 108.0
1369.442749 92.0
1369.636108 260.0
1369.820923 192.0
1370.018555 176.0
1370.176758 128.0
1370.38855 136.0
1370.50415 168.0
1370.616577 132.0
1370.734253 384.0
1370.782837 204.0
1370.881836 160.0
1370.967773 96.0
1371.079834 412.0
1371.204468 108.0
1371.353516 108.0
1371.513916 156.0
1371.530151 120.0
1371.562012 152.0
1371.648315 220.0
1371.722046 104.0
1371.799072 104.0
1371.891602 68.0
1371.969849 260.0
1372.047607 176.0
1372.156982 100.0
1372.239258 120.0
1372.270264 152.0
1372.322998 152.0
1372.50354 100.0
1372.59436 184.0
1372.661133 172.0
1372.787109 164.0
1372.872192 180.0
1372.966797 128.0
1373.020264 96.0
1373.069946 296.0
1373.123535 128.0
1373.249512 240.0
1373.412231 140.0
1373.466187 284.0
1373.676147 392.0
1373.822021 240.0
1373.904907 312.0
1373.993286 108.0
1374.148438 164.0
1374.244141 196.0
1374.335571 204.0
1374.40564 132.0
1374.482788 168.0
1374.620483 144.0
1374.694214 88.0
1374.827148 148.0
1374.896606 124.0
1374.967285 288.0
1375.048462 88.0
1375.132202 116.0
1375.214355 160.0
1375.336304 272.0
1375.413696 92.0
1375.473022 200.0
1375.617676 140.0
1375.845337 144.0
1375.980103 128.0
1376.096436 252.0
1376.11438 244.0
1376.143311 104.0
1376.164429 152.0
1376.226196 316.0
1376.27002 200.0
1376.333984 120.0
1376.428955 116.0
1376.570801 188.0
1376.623901 220.0
1376.77002 132.0
1376.871338 272.0
1376.971558 116.0
1377.142212 220.0
1377.300415 176.0
1377.380493 160.0
1377.485107 140.0
1377.577881 204.0
1377.632812 28.0
1377.790527 100.0
1377.89856 132.0
1377.9646 128.0
1378.042969 160.0
1378.209106 132.0
1378.29187 180.0
1378.364258 172.0
1378.425415 160.0
1378.495361 144.0
1378.588867 232.0
1378.674561 128.0
1378.819824 152.0
1378.992432 84.0
1379.121948 188.0
1379.163818 216.0
1379.232666 112.0
1379.335083 164.0
1379.4729 100.0
1379.581787 212.0
1379.702271 184.0
1379.938599 148.0
1380.02771 312.0
1380.118896 144.0
1380.352661 100.0
1380.414062 160.0
1380.531982 116.0
1380.577759 268.0
1380.663208 84.0
1380.781616 132.0
1380.888184 76.0
1381.067627 124.0
1381.19458 172.0
1381.299683 140.0
1381.349243 132.0
1381.439087 152.0
1381.534912 136.0
1381.562256 148.0
1381.589478 192.0
1381.661743 232.0
1381.79126 48.0
1381.873657 152.0
1381.890503 188.0
1382.005371 152.0
1382.113037 104.0
1382.224121 28.0
1382.318726 164.0
1382.414307 348.0
1382.518555 116.0
1382.587402 148.0
1382.659302 152.0
1382.792969 156.0
1382.816772 136.0
1382.832275 168.0
1382.904297 128.0
1383.041748 220.0
1383.126953 60.0
1383.178833 96.0
1383.233398 128.0
1383.34436 152.0
1383.442261 244.0
1383.525757 184.0
1383.619629 116.0
1383.709473 104.0
1383.72583 116.0
1383.817993 372.0
1383.876953 288.0
1383.970947 108.0
1384.068115 296.0
1384.210693 292.0
1384.28186 196.0
1384.371582 276.0
1384.420776 100.0
1384.611694 316.0
1384.711426 140.0
1384.830566 104.0
1384.930664 140.0
1385.029907 128.0
1385.081787 92.0
1385.178955 64.0
1385.229248 144.0
1385.308716 216.0
1385.378052 136.0
1385.463623 164.0
1385.577515 208.0
1385.670288 248.0
1385.724609 176.0
1385.889282 84.0
1385.967407 152.0
1386.030029 80.0
1386.101929 148.0
1386.122437 104.0
1386.144653 196.0
1386.399414 284.0
1386.564209 500.0
1386.652588 168.0
1386.704468 132.0
1386.762085 160.0
1386.845215 216.0
1386.911987 124.0
1386.967163 332.0
1387.023071 184.0
1387.160156 196.0
1387.212402 68.0
1387.24231 160.0
1387.311768 124.0
1387.364136 240.0
1387.416016 136.0
1387.512329 144.0
1387.600342 236.0
1387.642456 160.0
1387.662109 188.0
1387.695312 132.0
1387.836426 200.0
1387.942261 168.0
1388.019409 240.0
1388.113892 160.0
1388.171021 116.0
1388.239014 152.0
1388.390137 128.0
1388.512085 88.0
1388.63208 100.0
1388.708496 192.0
1388.780396 128.0
1388.954346 248.0
1389.049072 228.0
1389.114136 140.0
1389.173584 124.0
1389.296631 128.0
1389.328979 76.0
1389.354492 124.0
1389.418335 136.0
1389.5 216.0
1389.576538 196.0
1389.607544 184.0
1389.685425 164.0
1389.740234 144.0
1389.824707 124.0
1389.885742 132.0
1389.97876 108.0
1390.036499 480.0
1390.139648 128.0
1390.274292 356.0
1390.339111 124.0
1390.370605 140.0
1390.487305 188.0
1390.673706 360.0
1390.818604 156.0
1390.887207 152.0
1390.913208 100.0
1390.936157 96.0
1390.969116 152.0
1391.03125 220.0
1391.130249 172.0
1391.18335 120.0
1391.315918 292.0
1391.432373 84.0
1391.481567 128.0
1391.543945 176.0
1391.595947 228.0
1391.798462 224.0
1391.882568 184.0
1392.063477 136.0
1392.157227 32.0
1392.227905 116.0
1392.257202 184.0
1392.273926 116.0
1392.462769 200.0
1392.533569 176.0
1392.635498 196.0
1392.7323 120.0
1392.819214 148.0
1392.914917 292.0
1393.046631 136.0
1393.13916 288.0
1393.195679 240.0
1393.270508 104.0
1393.337402 160.0
1393.478149 152.0
1393.561035 120.0
1393.670044 120.0
1393.724487 220.0
1393.825195 96.0
1393.936035 208.0
1394.081177 120.0
1394.138306 288.0
1394.229004 36.0
1394.324829 168.0
1394.378418 60.0
1394.469971 64.0
1394.623291 144.0
1394.646484 160.0
1394.708618 192.0
1394.787231 140.0
1394.869873 204.0
1394.934082 204.0
1395.016968 152.0
1395.271729 188.0
1395.34314 216.0
1395.426636 176.0
1395.486084 120.0
1395.555298 128.0
1395.607178 140.0
1395.637939 152.0
1395.666504 116.0
1395.770996 136.0
1395.825928 364.0
1395.878418 280.0
1395.986084 96.0
1396.068115 188.0
1396.213135 124.0
1396.265625 100.0
1396.294067 116.0
1396.324585 176.0
1396.343506 252.0
1396.439697 316.0
1396.572876 236.0
1396.668457 96.0
1396.75354 92.0
1396.824707 128.0
1396.980225 140.0
1397.127686 152.0
1397.24585 120.0
1397.341309 240.0
1397.449585 80.0
1397.533203 180.0
1397.672729 96.0
1397.747192 44.0
1397.804688 244.0
1397.914551 236.0
1397.967163 144.0
1398.108887 120.0
1398.131958 180.0
1398.230835 116.0
1398.342529 176.0
1398.466064 280.0
1398.550903 124.0
1398.61792 212.0
1398.719727 140.0
1398.819092 116.0
1398.924194 212.0
1398.982666 172.0
1399.054321 120.0
1399.121704 120.0
1399.19104 104.0
1399.276855 188.0
1399.354492 112.0
1399.550903 136.0
1399.605957 172.0
1399.712646 284.0
1399.793213 128.0
1399.948853 220.0
1400.07605 152.0
1400.196289 168.0
1400.29541 156.0
1400.326172 176.0
1400.465332 132.0
1400.60437 144.0
1400.710205 188.0
1400.84436 176.0
1400.936035 224.0
1401.135742 148.0
1401.222656 168.0
1401.432373 112.0
1401.561279 368.0
1401.689331 164.0
1401.783691 204.0
1401.839233 164.0
1401.919434 120.0
1401.999146 120.0
1402.051392 116.0
1402.129761 248.0
1402.190918 384.0
1402.243896 144.0
1402.371826 192.0
1402.439697 148.0
1402.596924 160.0
1402.649902 104.0
1402.673096 160.0
1402.893555 168.0
1402.973633 396.0
1403.079956 152.0
1403.164917 320.0
1403.231567 188.0
1403.32605 116.0
1403.434082 128.0
1403.505005 244.0
1403.5802 180.0
1403.701172 124.0
1403.870117 164.0
1403.895874 256.0
1404.009521 120.0
1404.071655 164.0
1404.289307 132.0
1404.419922 116.0
1404.514893 164.0
1404.62085 184.0
1404.703735 188.0
1404.765381 140.0
1404.884644 196.0
1404.950073 188.0
1405.028076 284.0
1405.130859 240.0
1405.268433 160.0
1405.403564 288.0
1405.491577 148.0
1405.682373 144.0
1405.761475 156.0
1405.79126 116.0
1405.88269 160.0
1405.980469 200.0
1406.071045 152.0
1406.153687 148.0
1406.203613 232.0
1406.306274 124.0
1406.443359 164.0
1406.622437 144.0
1406.674194 312.0
1406.765259 160.0
1406.879028 268.0
1406.938354 192.0
1407.031494 196.0
1407.100952 124.0
1407.210083 104.0
1407.299927 180.0
1407.412109 68.0
1407.522705 160.0
1407.574585 184.0
1407.679443 140.0
1407.72937 128.0
1407.840332 316.0
1407.952393 136.0
1408.047729 248.0
1408.136841 80.0
1408.247681 140.0
1408.365234 172.0
1408.490112 120.0
1408.559204 128.0
1408.630981 152.0
1408.796387 140.0
1408.937012 116.0
1409.022461 108.0
1409.091675 128.0
1409.214722 180.0
1409.354736 252.0
1409.446411 168.0
1409.555664 132.0
1409.613159 168.0
1409.653442 68.0
1409.713379 344.0
1409.819214 292.0
1409.831665 128.0
1409.997437 136.0
1410.098022 320.0
1410.25354 56.0
1410.328247 84.0
1410.484131 216.0
1410.589844 224.0
1410.731934 52.0
1410.85144 152.0
1410.933716 140.0
1411.012817 104.0
1411.073853 204.0
1411.291382 124.0
1411.416138 124.0
1411.546875 112.0
1411.763672 88.0
1411.855347 284.0
1411.913208 148.0
1412.020142 148.0
1412.109253 216.0
1412.181885 132.0
1412.335327 260.0
1412.416016 156.0
1412.532593 324.0
1412.588623 156.0
1412.679565 208.0
1412.749023 196.0
1412.810791 160.0
1412.861694 124.0
1413.061768 160.0
1413.117065 120.0
1413.175903 148.0
1413.224365 128.0
1413.334473 276.0
1413.498413 44.0
1413.539062 104.0
1413.588989 200.0
1413.669922 280.0
1413.697388 232.0
1413.723999 224.0
1413.796143 112.0
1413.907837 144.0
1413.972778 96.0
1414.03772 240.0
1414.105347 116.0
1414.21936 216.0
1414.244873 104.0
1414.270996 156.0
1414.49353 144.0
1414.513794 164.0
1414.544312 92.0
1414.620483 176.0
1414.741089 124.0
1414.82312 336.0
1415.011108 164.0
1415.123413 96.0
1415.185547 204.0
1415.243164 160.0
1415.411377 128.0
1415.540283 160.0
1415.663208 128.0
1415.744873 128.0
1415.804077 128.0
1415.966187 244.0
1416.083008 160.0
1416.139526 208.0
1416.199341 100.0
1416.283081 168.0
1416.294312 144.0
1416.408325 88.0
1416.497925 276.0
1416.672607 144.0
1416.811646 148.0
1416.898315 120.0
1416.970215 296.0
1417.038818 176.0
1417.27771 376.0
1417.355347 144.0
1417.542725 116.0
1417.724365 176.0
1417.790039 260.0
1417.84436 208.0
1418.074829 92.0
1418.287598 220.0
1418.468384 280.0
1418.521851 68.0
1418.549561 120.0
1418.636963 160.0
1418.760498 224.0
1418.85437 148.0
1419.000732 152.0
1419.058838 144.0
1419.116821 108.0
1419.248413 160.0
1419.321655 140.0
1419.386719 152.0
1419.499878 124.0
1419.55542 144.0
1419.679199 56.0
1419.85437 144.0
1419.919067 64.0
1420.023926 124.0
1420.212646 176.0
1420.324097 76.0
1420.409058 208.0
1420.529297 200.0
1420.615967 168.0
1420.76062 212.0
1420.942871 152.0
1421.002441 108.0
1421.111816 208.0
1421.188965 276.0
1421.265381 204.0
1421.33252 132.0
1421.38147 136.0
1421.402832 108.0
1421.524536 96.0
1421.584595 268.0
1421.635498 152.0
1421.763184 104.0
1421.838013 152.0
1421.901367 468.0
1421.955811 76.0
1422.108765 304.0
1422.216919 220.0
1422.321411 156.0
1422.405762 112.0
1422.552002 256.0
1422.564331 232.0
1422.792969 144.0
1422.853027 184.0
1422.987427 124.0
1423.10791 80.0
1423.179321 176.0
1423.311035 64.0
1423.408691 76.0
1423.510376 188.0
1423.561279 156.0
1423.667358 280.0
1423.761597 168.0
1423.817871 128.0
1423.967529 180.0
1424.022217 196.0
1424.112671 156.0
1424.211792 192.0
1424.301636 44.0
1424.386719 160.0
1424.533447 312.0
1424.703491 80.0
1424.805664 128.0
1424.901978 96.0
1424.978394 132.0
1425.031006 108.0
1425.094849 104.0
1425.265137 200.0
1425.361328 104.0
1425.501709 188.0
1425.586792 124.0
1425.616333 120.0
1425.699829 88.0
1425.75769 212.0
1425.865112 180.0
1425.917725 168.0
1425.999268 184.0
1426.200806 140.0
1426.230103 92.0
1426.364502 296.0
1426.443848 140.0
1426.533203 172.0
1426.678711 176.0
1426.800903 88.0
1426.936035 200.0
1427.082886 152.0
1427.150513 176.0
1427.203125 140.0
1427.255859 116.0
1427.303467 104.0
1427.376099 152.0
1427.45105 140.0
1427.548706 168.0
1427.714111 328.0
1427.8302 176.0
1427.893555 148.0
1427.9552 344.0
1428.060425 212.0
1428.131714 168.0
1428.195801 72.0
1428.26355 164.0
1428.316162 100.0
1428.594482 120.0
1428.699829 128.0
1428.786621 252.0
1428.949829 120.0
1429.079346 136.0
1429.253906 280.0
1429.369507 104.0
1429.449219 172.0
1429.565063 128.0
1429.640381 148.0
1429.711548 104.0
1429.773804 176.0
1429.846069 368.0
1429.973022 152.0
1429.997803 104.0
1430.140015 132.0
1430.22583 132.0
1430.253174 228.0
1430.357178 116.0
1430.445435 128.0
1430.592896 140.0
1430.689941 116.0
1430.815186 156.0
1430.899658 144.0
1430.958984 196.0
1431.013428 136.0
1431.124878 164.0
1431.183472 124.0
1431.240479 192.0
1431.371704 304.0
1431.422485 232.0
1431.529785 120.0
1431.641602 200.0
1431.707642 132.0
1431.786865 148.0
1431.959106 184.0
1432.049438 112.0
1432.124512 180.0
1432.218018 476.0
1432.250122 192.0
1432.264893 168.0
1432.359863 264.0
1432.45874 192.0
1432.524048 156.0
1432.719849 168.0
1432.877686 276.0
1433.115356 284.0
1433.3302 136.0
1433.382935 388.0
1433.452637 196.0
1433.547363 140.0
1433.701416 136.0
1433.869263 104.0
1433.950684 252.0
1434.001465 104.0
1434.118652 184.0
1434.236206 192.0
1434.352417 168.0
1434.383301 248.0
1434.511353 192.0
1434.592529 112.0
1434.660034 120.0
1434.753662 284.0
1434.830078 56.0
1434.894897 136.0
1434.958008 152.0
1435.056152 140.0
1435.111328 188.0
1435.180908 148.0
1435.236938 152.0
1435.346802 180.0
1435.413696 188.0
1435.48999 164.0
1435.618408 116.0
1435.729736 160.0
1435.795166 136.0
1435.915894 236.0
1436.023682 296.0
1436.060303 176.0
1436.127075 132.0
1436.17981 152.0
1436.27002 108.0
1436.320435 168.0
1436.396362 176.0
1436.418823 76.0
1436.455322 152.0
1436.54187 156.0
1436.609375 272.0
1436.67981 388.0
1436.760864 136.0
1436.890625 144.0
1437.002075 116.0
1437.059814 104.0
1437.127075 164.0
1437.262207 280.0
1437.276855 104.0
1437.375977 160.0
1437.397827 380.0
1437.49231 144.0
1437.519531 140.0
1437.651001 164.0
1437.722412 320.0
1437.825928 128.0
1437.940308 292.0
1438.114258 152.0
1438.300781 192.0
1438.41333 124.0
1438.508057 252.0
1438.631958 112.0
1438.688354 100.0
1438.880005 164.0
1438.931396 136.0
1439.000122 216.0
1439.030884 280.0
1439.095337 212.0
1439.325562 252.0
1439.420776 188.0
1439.478027 128.0
1439.576172 128.0
1439.601196 104.0
1439.63147 160.0
1439.731812 156.0
1439.88562 144.0
1439.950073 184.0
1440.039551 168.0
1440.102417 152.0
1440.15979 140.0
1440.260132 152.0
1440.337524 120.0
1440.396362 216.0
1440.493042 312.0
1440.678711 184.0
1440.857666 324.0
1440.943237 172.0
1441.011597 408.0
1441.122681 140.0
1441.203003 180.0
1441.331909 148.0
1441.396484 112.0
1441.518677 272.0
1441.550781 132.0
1441.569458 268.0
1441.753296 140.0
1441.943115 164.0
1442.06665 280.0
1442.152222 144.0
1442.264526 148.0
1442.290405 140.0
1442.343872 156.0
1442.481812 164.0
1442.541626 144.0
1442.681274 180.0
1442.779541 192.0
1442.872192 180.0
1443.044189 100.0
1443.104614 136.0
1443.210571 152.0
1443.289673 260.0
1443.387573 176.0
1443.492432 100.0
1443.568359 128.0
1443.708374 172.0
1443.767212 52.0
1443.875244 132.0
1443.971069 160.0
1444.030762 136.0
1444.106934 152.0
1444.223877 28.0
1444.327881 164.0
1444.389282 152.0
1444.447754 160.0
1444.487061 140.0
1444.579346 144.0
1444.647095 228.0
1444.686279 152.0
1444.816895 148.0
1444.880615 132.0
1445.025513 200.0
1445.267822 232.0
1445.331055 208.0
1445.401245 352.0
1445.466309 120.0
1445.574585 480.0
1445.638428 180.0
1445.846436 132.0
1445.969116 168.0
1446.028931 172.0
1446.1521 140.0
1446.204834 132.0
1446.357056 184.0
1446.422974 100.0
1446.516602 160.0
1446.629272 108.0
1446.646973 140.0
1446.703247 156.0
1446.834229 172.0
1446.921509 180.0
1446.977417 132.0
1447.007202 124.0
1447.15564 140.0
1447.400024 196.0
1447.448608 228.0
1447.525146 112.0
1447.671265 232.0
1447.738159 132.0
1447.829468 160.0
1447.907471 136.0
1448.052124 124.0
1448.263672 388.0
1448.356567 280.0
1448.484863 156.0
1448.551758 124.0
1448.650269 156.0
1448.829956 192.0
1448.989502 208.0
1449.08252 224.0
1449.176514 148.0
1449.309937 164.0
1449.32666 252.0
1449.358765 196.0
1449.455078 108.0
1449.540649 244.0
1449.796997 164.0
1449.891113 140.0
1449.986328 80.0
1450.132202 124.0
1450.240723 144.0
1450.31189 216.0
1450.375732 100.0
1450.454224 128.0
1450.464111 124.0
1450.595459 188.0
1450.659912 192.0
1450.68335 172.0
1450.778931 184.0
1450.845337 120.0
1451.059448 168.0
1451.187134 148.0
1451.217896 76.0
1451.263062 160.0
1451.316895 208.0
1451.363892 320.0
1451.496338 200.0
1451.566284 144.0
1451.626099 212.0
1451.695801 216.0
1451.82019 220.0
1451.872925 104.0
1451.992676 156.0
1452.061279 140.0
1452.123535 128.0
1452.183838 160.0
1452.229614 308.0
1452.335938 140.0
1452.407471 192.0
1452.459106 132.0
1452.566895 164.0
1452.643555 328.0
1452.745483 96.0
1452.848755 132.0
1452.917969 124.0
1453.006714 120.0
1453.126953 88.0
1453.191406 196.0
1453.205078 132.0
1453.291748 180.0
1453.377441 240.0
1453.50415 156.0
1453.563843 184.0
1453.663574 148.0
1453.755615 124.0
1453.772827 160.0
1453.80127 188.0
1453.965698 156.0
1454.118896 132.0
1454.294434 152.0
1454.377563 148.0
1454.443604 116.0
1454.527222 184.0
1454.658569 180.0
1454.822388 312.0
1454.888062 168.0
1454.909546 152.0
1455.089355 192.0
1455.115479 120.0
1455.204956 96.0
1455.26355 180.0
1455.412842 224.0
1455.489136 108.0
1455.570312 160.0
1455.704346 244.0
1455.7323 128.0
1455.918091 84.0
1456.001709 144.0
1456.066284 128.0
1456.285522 32.0
1456.439941 344.0
1456.555176 260.0
1456.622803 192.0
1456.710693 112.0
1456.82959 120.0
1456.887573 132.0
1456.966309 164.0
1457.095093 188.0
1457.143433 212.0
1457.255249 140.0
1457.3125 300.0
1457.504761 96.0
1457.541626 212.0
1457.554932 112.0
1457.699097 108.0
1457.761841 220.0
1457.92627 188.0
1458.060547 188.0
1458.128906 252.0
1458.210327 308.0
1458.262451 176.0
1458.432129 124.0
1458.487793 160.0
1458.627686 172.0
1458.726807 332.0
1458.811523 148.0
1458.913208 124.0
1459.002197 200.0
1459.135742 352.0
1459.219604 164.0
1459.251953 80.0
1459.272461 144.0
1459.365356 404.0
1459.446655 128.0
1459.528076 144.0
1459.745361 216.0
1459.796509 112.0
1459.907837 196.0
1460.016602 124.0
1460.213379 268.0
1460.271362 180.0
1460.385254 272.0
1460.518066 60.0
1460.603394 140.0
1460.692871 148.0
1460.845337 140.0
1461.018311 348.0
1461.116089 84.0
1461.185669 208.0
1461.404053 116.0
1461.442383 76.0
1461.566528 204.0
1461.651733 172.0
1461.794312 200.0
1461.896851 268.0
1462.043579 276.0
1462.156616 188.0
1462.312744 316.0
1462.470337 160.0
1462.516357 212.0
1462.634644 68.0
1462.720703 332.0
1462.80188 172.0
1462.88269 164.0
1462.973511 212.0
1463.035034 156.0
1463.136475 188.0
1463.240479 84.0
1463.347168 80.0
1463.431519 144.0
1463.507446 132.0
1463.673096 148.0
1463.704468 120.0
1463.844849 320.0
1463.925171 244.0
1463.949951 292.0
1464.047607 168.0
1464.135742 200.0
1464.166138 144.0
1464.220337 292.0
1464.290649 184.0
1464.365479 60.0
1464.447021 164.0
1464.542725 348.0
1464.618896 96.0
1464.758667 204.0
1464.861694 104.0
1464.976074 176.0
1465.036621 124.0
1465.17041 136.0
1465.266479 192.0
1465.32605 216.0
1465.349609 180.0
1465.377686 204.0
1465.469971 288.0
1465.5625 120.0
1465.588867 180.0
1465.673096 148.0
1465.807739 168.0
1465.891113 188.0
1466.049438 184.0
1466.099854 136.0
1466.134277 176.0
1466.241699 192.0
1466.302612 116.0
1466.425415 156.0
1466.575195 168.0
1466.672729 220.0
1466.782837 156.0
1466.859131 64.0
1466.915771 136.0
1466.944946 60.0
1466.970459 152.0
1467.066528 448.0
1467.148804 124.0
1467.240234 104.0
1467.339355 68.0
1467.427124 228.0
1467.638306 204.0
1467.756104 284.0
1467.845703 204.0
1467.981812 312.0
1468.014404 128.0
1468.059082 576.0
1468.199463 144.0
1468.322998 152.0
1468.384033 84.0
1468.444824 136.0
1468.572266 300.0
1468.696045 96.0
1468.902832 160.0
1468.937134 132.0
1468.966919 96.0
1468.98999 172.0
1469.093384 252.0
1469.177246 156.0
1469.303589 284.0
1469.393677 112.0
1469.531372 256.0
1469.63501 128.0
1469.749023 200.0
1469.802856 184.0
1469.887573 124.0
1470.154297 148.0
1470.266968 104.0
1470.405396 240.0
1470.515747 228.0
1470.749268 136.0
1470.975952 120.0
1471.046875 156.0
1471.298828 56.0
1471.390503 112.0
1471.507446 196.0
1471.577026 72.0
1471.703491 216.0
1471.780396 116.0
1471.86377 104.0
1471.9198 120.0
1472.040527 144.0
1472.169312 96.0
1472.300171 88.0
1472.398315 88.0
1472.451782 148.0
1472.538696 124.0
1472.618896 196.0
1472.690796 168.0
1472.835938 108.0
1472.907715 156.0
1472.976074 156.0
1473.146851 216.0
1473.20459 356.0
1473.310547 220.0
1473.372437 176.0
1473.437012 228.0
1473.595215 180.0
1473.731201 68.0
1473.794312 296.0
1473.906738 164.0
1473.964355 112.0
1474.025513 168.0
1474.130371 204.0
1474.216553 164.0
1474.437378 124.0
1474.521729 136.0
1474.598633 180.0
1474.674927 84.0
1474.784424 140.0
1474.85083 92.0
1474.98291 160.0
1475.101807 448.0
1475.160522 164.0
1475.258545 144.0
1475.284302 68.0
1475.303345 144.0
1475.433716 164.0
1475.521973 120.0
1475.630371 152.0
1475.680786 272.0
1475.703125 328.0
1475.724487 100.0
1475.798096 124.0
1475.891968 172.0
1475.975464 140.0
1476.088013 196.0
1476.216187 232.0
1476.303467 80.0
1476.362061 92.0
1476.461548 120.0
1476.524902 248.0
1476.658936 108.0
1476.778687 172.0
1476.899414 244.0
1476.987793 124.0
1477.072021 212.0
1477.175415 152.0
1477.236572 176.0
1477.352295 268.0
1477.473755 112.0
1477.577515 108.0
1477.637573 116.0
1477.79126 132.0
1477.848633 72.0
1477.90979 160.0
1478.053223 140.0
1478.188843 204.0
1478.250977 336.0
1478.311646 84.0
1478.402344 164.0
1478.448608 204.0
1478.530884 192.0
1478.679199 128.0
1478.804443 160.0
1478.850464 168.0
1478.97168 380.0
1479.114502 304.0
1479.180176 80.0
1479.249878 180.0
1479.328491 236.0
1479.401733 172.0
1479.519043 172.0
1479.601318 76.0
1479.654907 104.0
1479.728516 244.0
1479.905884 96.0
1480.028198 200.0
1480.151245 172.0
1480.269775 156.0
1480.34021 156.0
1480.400146 120.0
1480.487305 312.0
1480.538086 128.0
1480.569946 92.0
1480.734497 440.0
1480.814941 136.0
1480.930908 140.0
1481.063599 144.0
1481.120728 224.0
1481.192383 376.0
1481.432983 284.0
1481.546509 192.0
1481.645996 68.0
1481.765137 140.0
1481.855713 192.0
1481.967773 176.0
1482.030762 144.0
1482.0802 216.0
1482.161377 180.0
1482.249146 212.0
1482.320679 148.0
1482.470947 176.0
1482.582642 208.0
1482.676392 268.0
1482.764771 152.0
1482.831543 140.0
1482.994873 172.0
1483.078613 196.0
1483.2323 52.0
1483.30127 180.0
1483.417358 108.0
1483.50708 188.0
1483.642212 248.0
1483.745483 140.0
1483.804321 280.0
1484.050171 148.0
1484.102661 164.0
1484.230225 132.0
1484.428345 120.0
1484.541992 304.0
1484.646362 200.0
1484.71582 232.0
1484.797729 120.0
1484.912231 148.0
1485.056152 156.0
1485.223877 168.0
1485.24353 116.0
1485.361084 280.0
1485.42688 108.0
1485.528931 204.0
1485.667969 164.0
1485.680908 240.0
1485.735107 160.0
1485.819214 260.0
1485.959595 132.0
1486.023682 152.0
1486.096924 104.0
1486.168457 200.0
1486.19519 172.0
1486.21814 260.0
1486.335571 308.0
1486.437988 120.0
1486.574219 168.0
1486.675903 356.0
1486.752441 132.0
1486.887207 264.0
1486.969238 248.0
1487.104126 176.0
1487.284424 144.0
1487.357422 192.0
1487.419678 152.0
1487.515625 148.0
1487.590942 76.0
1487.649902 112.0
1487.708008 256.0
1487.770996 136.0
1487.927002 148.0
1488.036743 164.0
1488.055786 100.0
1488.086792 172.0
1488.184204 136.0
1488.264282 144.0
1488.395142 108.0
1488.504883 168.0
1488.661987 172.0
1488.743652 160.0
1488.874023 144.0
1488.973877 340.0
1489.029541 76.0
1489.050903 120.0
1489.18457 172.0
1489.283081 164.0
1489.439819 108.0
1489.533325 188.0
1489.624146 192.0
1489.736816 136.0
1489.839355 220.0
1489.996826 136.0
1490.139282 172.0
1490.338623 180.0
1490.410278 188.0
1490.593506 176.0
1490.776611 88.0
1490.801514 148.0
1490.928711 144.0
1491.056763 136.0
1491.08667 128.0
1491.113159 116.0
1491.19165 188.0
1491.329102 64.0
1491.467407 184.0
1491.545166 168.0
1491.674683 200.0
1491.768188 228.0
1491.867065 128.0
1491.933472 128.0
1492.006348 236.0
1492.119751 180.0
1492.150391 132.0
1492.165527 276.0
1492.256226 148.0
1492.42395 120.0
1492.57373 92.0
1492.790649 100.0
1492.89624 192.0
1493.065918 156.0
1493.087402 124.0
1493.121216 228.0
1493.171387 64.0
1493.202759 152.0
1493.270142 104.0
1493.440552 320.0
1493.554443 136.0
1493.682861 288.0
1493.819336 136.0
1493.87854 164.0
1493.998535 144.0
1494.161255 372.0
1494.282837 104.0
1494.365845 56.0
1494.396118 56.0
1494.415161 168.0
1494.505981 88.0
1494.571045 204.0
1494.712524 152.0
1494.768677 172.0
1494.822754 168.0
1494.916626 124.0
1495.001587 200.0
1495.144653 100.0
1495.206299 208.0
1495.311401 400.0
1495.37793 80.0
1495.392578 156.0
1495.424561 244.0
1495.483398 88.0
1495.570312 244.0
1495.685425 108.0
1495.821289 172.0
1495.895508 148.0
1496.029053 152.0
1496.153076 164.0
1496.314697 280.0
1496.36853 76.0
1496.429077 196.0
1496.487305 160.0
1496.63916 116.0
1496.732666 352.0
1496.844727 124.0
1496.961426 164.0
1497.043091 100.0
1497.115479 156.0
1497.164917 144.0
1497.237061 312.0
1497.302368 176.0
1497.412109 340.0
1497.541748 104.0
1497.677124 112.0
1497.765625 192.0
1497.824097 72.0
1497.913086 192.0
1497.992798 120.0
1498.085938 108.0
1498.160889 136.0
1498.255493 124.0
1498.413696 292.0
1498.475952 136.0
1498.506714 84.0
1498.568726 116.0
1498.650391 76.0
1498.726318 128.0
1498.798828 180.0
1498.910034 204.0
1498.998657 148.0
1499.114746 308.0
1499.180054 148.0
1499.255981 160.0
1499.339722 184.0
1499.515991 184.0
1499.602417 168.0
1499.687866 176.0
1499.805664 200.0
1499.893311 196.0
1500.056519 248.0
1500.108521 248.0
1500.163086 96.0
1500.257935 164.0
1500.35498 116.0
1500.48291 116.0
1500.577881 220.0
1500.669678 108.0
1500.749756 272.0
1500.810303 260.0
1500.868164 104.0
1500.998413 180.0
1501.084106 204.0
1501.171509 104.0
1501.261475 172.0
1501.379395 344.0
1501.443359 124.0
1501.539307 184.0
1501.625122 144.0
1501.731934 156.0
1501.827637 224.0
1501.901611 184.0
1501.955566 44.0
1502.096436 300.0
1502.188843 144.0
1502.315186 128.0
1502.411255 156.0
1502.472656 112.0
1502.533203 268.0
1502.658691 168.0
1502.737061 192.0
1502.830444 216.0
1502.894165 160.0
1502.977783 156.0
1503.036133 296.0
1503.145386 144.0
1503.169067 160.0
1503.194336 192.0
1503.363159 128.0
1503.462769 164.0
1503.609863 172.0
1503.693726 156.0
1503.747925 164.0
1503.852295 156.0
1503.968384 116.0
1504.016602 104.0
1504.102661 316.0
1504.184448 304.0
1504.276123 148.0
1504.434448 200.0
1504.58252 152.0
1504.692017 276.0
1504.826294 392.0
1504.916504 260.0
1505.002563 196.0
1505.104248 164.0
1505.214111 300.0
