>compound Tropisetron
>formula C17H20N2O2
>ionization [M+H]+
>parentmass 285.160858
#inchi InChI=1S/C17H20N2O2/c1-19-11-6-7-12(19)9-13(8-11)21-17(20)15-10-18-16-5-3-2-4-14(15)16/h2-5,10-13,15H,6-9H2,1H3/t11-,12+,13?,15?
#inchikey RIJFNUHYNBVLOZ
#origInchi InChI=1S/C17H20N2O2.ClH/c1-19-11-6-7-12(19)9-13(8-11)21-17(20)15-10-18-16-5-3-2-4-14(15)16;/h2-5,10-13,15H,6-9H2,1H3;1H/t11-,12+,13?,15?;
#Ion_Source LC-ESI
#Instrument qTof
#Compound_Source Commercial
#PI Dorrestein
#Data_Collector Garg_Neha
#Scan -1
#Precursor_MZ 285.16
#ExactMass 284.152
#Charge 1
#CAS_Number 105826-92-4
#Pubmed_ID N/A
#Smiles C1(=CC=C2C(=C1)C(C=N2)C(OC3C[C@@]4(CC[C@@](N4C)(C3)[H])[H])=O).Cl
#INCHI_AUX N/A
#Library_Class 1
#SpectrumID CCMSLIB00000078335
#IonMode Positive
#UpdateWorkflowName UPDATE-SINGLE-ANNOTATED-GOLD
#LibraryQualityString Gold
#TaskID 77f51c88eb8b467eb4a01dd2d0cb90d2
##Scan# 1066
#SpectrumFile Plate5_41_60_GH8_01_16510.mzXML
#LibraryName FDALibrary_2_04302014.mgf
#MQScore -1
#Organism FDALibrary_2_04302014
#TIC_Query 0
#RT_Query -1
#MZErrorPPM -1
#SharedPeaks 0
#MassDiff 0
#LibMZ -1
#SpecMZ 285.16
#SpecCharge 0
#internalFilename spec-00000.mgf

>collision 10
45.025894 176.0
45.087345 192.0
45.241165 188.0
45.313484 164.0
45.4744 156.0
45.506618 160.0
45.813251 160.0
46.352734 204.0
46.447235 140.0
46.531372 176.0
46.866348 208.0
46.972294 152.0
47.114265 200.0
47.435852 184.0
47.577148 168.0
47.63345 184.0
47.662392 180.0
47.689785 164.0
47.724155 156.0
47.773666 192.0
47.908573 172.0
48.144432 172.0
48.268803 144.0
48.38364 156.0
48.815151 216.0
48.984947 152.0
49.162018 252.0
49.175976 196.0
49.361778 164.0
49.473709 160.0
49.486309 208.0
49.505913 152.0
50.205757 144.0
50.393494 176.0
50.66967 188.0
50.741661 176.0
51.105251 152.0
51.575859 188.0
51.671673 188.0
52.200943 200.0
52.376522 240.0
52.555286 140.0
52.815323 196.0
52.900696 204.0
53.004974 164.0
53.181904 152.0
53.237072 168.0
53.346043 176.0
53.587624 168.0
53.723209 196.0
53.740715 152.0
54.229141 148.0
54.374336 160.0
54.525608 176.0
54.772789 152.0
54.940701 172.0
54.988056 140.0
55.041203 188.0
55.314346 212.0
55.529556 236.0
55.600769 156.0
55.630455 148.0
55.854836 176.0
55.895004 144.0
56.125881 144.0
56.351261 208.0
56.397587 196.0
56.692421 176.0
56.926441 204.0
56.992531 140.0
57.031605 160.0
57.432117 152.0
57.536911 224.0
57.699402 168.0
57.765942 184.0
57.810757 180.0
58.322433 168.0
58.521721 184.0
58.919785 144.0
59.273636 220.0
59.342194 220.0
59.382061 188.0
59.657341 172.0
59.866165 168.0
60.403267 160.0
60.559601 160.0
60.621571 168.0
60.809219 152.0
61.472183 156.0
61.559601 168.0
61.718987 152.0
61.881706 176.0
61.996052 140.0
62.044643 160.0
62.443481 200.0
62.582611 160.0
62.618179 152.0
62.965149 160.0
63.034657 148.0
63.067844 152.0
63.078911 168.0
63.34 176.0
63.389114 148.0
63.546089 180.0
63.666725 172.0
63.693726 204.0
63.9529 160.0
63.976776 144.0
64.059586 160.0
64.190277 252.0
64.201439 220.0
64.511192 160.0
64.726479 184.0
64.821686 144.0
64.836113 140.0
64.929092 156.0
64.954758 148.0
65.121689 148.0
65.255066 232.0
65.483566 212.0
65.499672 156.0
65.644722 184.0
65.709244 176.0
65.72982 180.0
65.74958 208.0
65.878754 152.0
65.902985 188.0
66.129379 172.0
66.375626 176.0
66.497292 148.0
66.544365 184.0
67.05352 140.0
67.100792 176.0
67.123619 204.0
67.172546 168.0
67.252495 164.0
67.466484 180.0
67.525352 168.0
67.651344 164.0
67.679176 204.0
67.756149 168.0
67.780731 184.0
67.81514 156.0
67.828255 200.0
67.84465 156.0
67.864319 256.0
68.398239 208.0
68.485504 188.0
68.503624 144.0
68.571182 168.0
68.684944 180.0
69.119446 180.0
69.16082 160.0
69.344666 176.0
69.450775 228.0
69.616745 188.0
69.851089 152.0
69.947601 148.0
70.118202 184.0
70.149162 160.0
70.229195 164.0
70.459557 160.0
70.563179 156.0
70.641777 148.0
70.693642 152.0
70.920677 200.0
70.948235 184.0
71.050529 156.0
71.325935 212.0
71.339378 156.0
71.420097 172.0
71.435234 160.0
71.593445 212.0
72.025208 140.0
72.38205 164.0
72.514191 188.0
72.619308 196.0
72.758453 208.0
72.817886 152.0
73.043945 240.0
73.069458 180.0
73.295914 144.0
73.379425 228.0
73.579041 200.0
73.645638 152.0
73.68663 224.0
73.702888 168.0
74.290962 168.0
74.325279 160.0
74.412811 144.0
74.478065 192.0
74.783318 240.0
74.87365 188.0
75.456879 196.0
75.860245 228.0
75.922661 212.0
75.957352 164.0
76.069588 188.0
76.224716 152.0
76.253403 292.0
76.471664 188.0
76.602257 164.0
76.626648 172.0
76.833199 180.0
77.026138 220.0
77.157394 144.0
77.197411 156.0
77.220146 180.0
77.398643 156.0
77.426666 164.0
77.501991 200.0
77.517761 176.0
77.793121 148.0
77.917809 164.0
78.005676 148.0
78.048538 196.0
78.2062 164.0
78.551559 176.0
78.72805 196.0
79.13829 148.0
79.232155 152.0
79.32431 140.0
79.377495 212.0
79.952759 140.0
80.033165 344.0
80.127563 148.0
80.145378 144.0
80.41465 172.0
80.528923 164.0
80.734444 168.0
80.752327 232.0
80.848938 168.0
80.93486 152.0
81.449562 180.0
81.670647 164.0
81.843414 200.0
81.892036 188.0
81.908241 172.0
82.176857 152.0
82.43145 172.0
83.577438 140.0
83.894341 148.0
84.018349 144.0
84.100464 184.0
84.180756 220.0
84.464073 212.0
84.762489 228.0
84.833969 192.0
84.854134 228.0
84.929321 184.0
85.166092 180.0
85.209015 220.0
85.230392 144.0
85.366417 188.0
85.579865 200.0
85.659058 260.0
85.683006 232.0
85.699585 144.0
85.7733 236.0
85.802795 192.0
85.874908 152.0
86.072174 140.0
86.114647 188.0
86.149742 160.0
86.171913 148.0
86.201477 156.0
86.255173 120.0
86.280952 232.0
86.399315 188.0
86.460373 152.0
86.554779 184.0
86.708542 224.0
86.795662 200.0
86.84388 168.0
87.046165 144.0
87.102966 96.0
87.442139 188.0
87.47496 196.0
87.622765 140.0
87.656303 156.0
87.928566 148.0
88.227432 168.0
88.43132 192.0
88.710411 196.0
88.766655 152.0
88.86795 140.0
88.944893 148.0
89.055725 128.0
89.288719 172.0
89.680328 160.0
89.714417 96.0
89.780251 160.0
89.79911 176.0
89.938736 152.0
90.002922 192.0
90.027473 192.0
90.521027 172.0
90.610046 192.0
90.77874 156.0
90.801498 188.0
90.850815 204.0
90.87841 216.0
90.968475 328.0
91.004753 160.0
91.054352 2900.0
91.25724 144.0
91.28688 132.0
91.378967 176.0
91.495056 160.0
91.52552 160.0
91.683372 240.0
91.796097 204.0
91.860947 204.0
91.975433 144.0
92.018852 188.0
92.053574 108.0
92.212273 148.0
92.309776 192.0
92.598747 176.0
92.930374 192.0
93.040054 212.0
93.068932 5156.0
93.099297 160.0
93.209503 108.0
93.537659 156.0
93.605042 148.0
93.666672 140.0
93.7052 172.0
94.07267 564.0
94.239632 184.0
94.47937 172.0
94.502586 176.0
94.534805 184.0
94.583862 160.0
94.955872 180.0
94.998543 152.0
95.029587 148.0
95.083054 428.0
95.131645 136.0
95.245071 140.0
95.311127 156.0
95.329857 256.0
95.620323 172.0
95.832581 212.0
95.986557 148.0
96.08078 268.0
96.154327 160.0
96.547012 236.0
96.689819 204.0
96.794701 236.0
96.981644 180.0
97.114975 180.0
97.162048 164.0
97.256241 168.0
97.539093 176.0
97.641335 176.0
97.706245 164.0
97.737724 144.0
97.865662 168.0
97.936554 156.0
98.060196 244.0
98.09359 196.0
98.289001 252.0
98.376282 256.0
98.563904 188.0
98.684479 184.0
98.854416 212.0
99.148636 164.0
99.217049 236.0
99.37571 164.0
99.496773 164.0
99.66758 184.0
99.922073 204.0
100.031532 176.0
100.071342 176.0
100.172913 196.0
100.575699 156.0
100.9673 156.0
101.101334 140.0
101.311577 156.0
101.431808 204.0
101.592232 236.0
101.768845 140.0
102.120514 208.0
102.503014 188.0
102.557426 140.0
102.632019 176.0
103.003357 188.0
103.065979 176.0
103.326797 188.0
103.396141 164.0
103.486046 164.0
103.596054 220.0
103.790611 164.0
103.912308 156.0
104.025955 176.0
104.184357 180.0
104.420639 136.0
104.572731 180.0
104.593475 188.0
104.694885 164.0
104.756233 164.0
104.857864 152.0
105.069931 156.0
105.092377 144.0
105.149513 176.0
105.384346 200.0
105.603073 216.0
105.674675 156.0
106.066666 280.0
106.293465 148.0
106.443306 260.0
106.511086 144.0
106.675468 160.0
106.782394 156.0
107.074638 172.0
107.453918 196.0
107.751221 208.0
107.778076 144.0
107.947578 188.0
107.966187 188.0
107.980667 252.0
108.084503 140.0
108.361542 148.0
108.598228 136.0
108.745171 192.0
108.830284 208.0
109.031776 164.0
109.085915 180.0
109.395775 168.0
109.422836 152.0
109.957451 212.0
110.106781 176.0
110.24675 156.0
110.512314 188.0
111.122002 148.0
111.203842 148.0
111.577751 188.0
111.790184 212.0
111.815437 184.0
111.861748 232.0
111.91227 148.0
111.948067 152.0
112.130775 204.0
112.211601 184.0
112.232536 196.0
112.363304 172.0
112.43145 188.0
112.730698 140.0
112.872322 172.0
113.545212 176.0
113.694244 200.0
113.844971 148.0
113.985176 200.0
114.07869 216.0
114.106323 176.0
114.357285 172.0
114.380745 180.0
114.67112 172.0
114.724815 192.0
115.165413 152.0
115.240784 284.0
115.304283 152.0
115.366272 204.0
115.54377 152.0
115.56517 164.0
115.659332 164.0
115.680733 156.0
115.868652 128.0
116.050171 192.0
116.160736 220.0
116.222954 176.0
116.272308 368.0
116.317383 208.0
116.398964 168.0
116.469833 152.0
116.951469 184.0
117.031128 160.0
117.072037 148.0
117.187279 192.0
117.281021 208.0
117.479401 152.0
117.708176 184.0
117.749207 208.0
117.801048 160.0
117.954468 184.0
118.023651 160.0
118.064735 196.0
118.195702 192.0
118.276764 152.0
118.376358 180.0
118.621132 172.0
118.759956 140.0
118.81723 128.0
119.187622 164.0
119.241669 156.0
119.291939 152.0
119.415878 192.0
119.62912 184.0
119.653069 192.0
119.793465 144.0
120.272163 152.0
120.536415 152.0
120.72419 180.0
120.857841 176.0
120.98259 168.0
121.007507 168.0
121.061417 152.0
121.150093 232.0
121.746925 200.0
121.996101 232.0
122.0952 212.0
122.391754 172.0
122.438362 148.0
122.618401 188.0
122.86377 168.0
122.910103 264.0
122.940994 184.0
123.009415 184.0
123.093315 156.0
123.488892 224.0
123.526497 164.0
123.57959 140.0
123.707436 196.0
123.758873 140.0
123.867363 328.0
123.893967 152.0
123.942711 156.0
124.019035 212.0
124.040085 124.0
124.087929 364.0
124.111763 46140.0
124.150604 256.0
124.301117 208.0
124.34581 168.0
124.553856 172.0
124.837807 220.0
124.918488 172.0
125.015564 308.0
125.041946 148.0
125.057526 164.0
125.114838 4452.0
126.00383 216.0
126.061111 208.0
126.118553 376.0
126.157219 156.0
126.54425 256.0
126.564407 148.0
126.864616 188.0
126.88031 156.0
127.030121 204.0
127.196617 176.0
127.233932 160.0
127.369888 120.0
127.612221 164.0
127.925583 180.0
127.99247 188.0
128.069046 164.0
128.220001 144.0
128.552689 236.0
128.838852 180.0
129.116272 152.0
129.197693 164.0
129.424911 184.0
129.746094 204.0
129.912109 144.0
130.126892 176.0
130.531326 164.0
130.811172 172.0
130.845322 184.0
130.961456 168.0
130.988785 156.0
131.043457 176.0
131.248413 196.0
131.255035 180.0
131.321579 192.0
131.362625 160.0
131.793106 208.0
131.831894 212.0
132.068451 152.0
132.645462 164.0
132.682144 160.0
133.520248 140.0
133.612259 208.0
133.752625 148.0
133.805573 172.0
133.89769 180.0
134.001343 168.0
134.038208 196.0
134.176498 176.0
134.460144 132.0
134.82634 172.0
135.486862 152.0
136.363983 188.0
136.406174 160.0
136.677933 180.0
136.745407 220.0
136.861801 192.0
137.164673 200.0
137.269577 200.0
137.369873 216.0
137.554214 248.0
137.610245 204.0
137.902237 168.0
138.360672 204.0
138.646484 260.0
138.712112 160.0
139.107895 188.0
139.164886 160.0
139.40213 204.0
139.467926 144.0
140.044388 148.0
140.289444 152.0
140.471985 128.0
140.770767 148.0
141.075562 320.0
141.338074 220.0
142.01561 168.0
142.12146 1188.0
142.331543 160.0
142.382706 336.0
142.416733 148.0
142.504623 180.0
142.675751 148.0
143.124527 172.0
143.292145 144.0
143.358856 204.0
143.504257 172.0
143.59726 188.0
143.80722 176.0
143.991058 156.0
144.043991 7356.0
144.22998 264.0
144.29213 196.0
144.674911 156.0
144.804214 172.0
144.935959 140.0
145.044571 536.0
145.10614 180.0
145.465988 224.0
145.642715 140.0
145.677307 164.0
146.357925 172.0
146.422943 188.0
146.63736 144.0
146.731369 184.0
146.950851 208.0
147.003555 128.0
147.096939 168.0
147.259842 168.0
147.544968 176.0
147.648941 192.0
147.861847 192.0
147.883621 168.0
148.055511 188.0
148.247314 208.0
148.331726 208.0
148.50145 148.0
148.520859 168.0
149.582718 144.0
149.652954 240.0
149.731232 152.0
149.892014 200.0
150.528671 156.0
150.594131 184.0
150.626358 140.0
150.831619 172.0
151.450668 220.0
151.606308 160.0
151.749634 148.0
152.304626 208.0
152.404968 176.0
153.478134 200.0
153.650772 140.0
154.156937 292.0
154.507782 184.0
154.557526 208.0
154.63031 156.0
154.678802 176.0
154.973495 204.0
155.313126 172.0
155.645676 172.0
155.730118 160.0
155.851837 204.0
156.015869 168.0
156.152634 208.0
156.6604 140.0
156.752594 156.0
157.488556 152.0
157.747513 188.0
158.136124 156.0
158.256287 148.0
158.454147 156.0
158.6772 180.0
158.782516 180.0
158.965637 148.0
159.015839 200.0
159.1539 148.0
159.171478 192.0
159.287003 220.0
159.578522 156.0
159.787277 196.0
160.492493 156.0
160.691742 156.0
160.744736 164.0
160.858307 164.0
161.235199 164.0
161.40654 148.0
161.500107 228.0
161.843231 116.0
161.861465 320.0
162.051971 356.0
162.176147 168.0
162.253738 176.0
162.358688 224.0
162.698685 176.0
162.741852 160.0
162.81041 236.0
162.972977 176.0
162.989838 208.0
163.087341 180.0
163.133087 192.0
163.344147 140.0
163.487732 248.0
163.733566 196.0
163.916992 168.0
164.169357 192.0
164.28923 196.0
164.513794 188.0
164.587845 180.0
164.799957 180.0
165.109146 180.0
165.147507 160.0
165.219131 176.0
165.41362 164.0
165.623581 144.0
165.929062 216.0
165.949036 168.0
166.400589 156.0
166.464783 300.0
166.526413 280.0
167.032776 196.0
167.3004 196.0
167.326141 156.0
167.50383 192.0
167.542465 184.0
167.583694 156.0
167.655838 192.0
167.841446 228.0
167.882706 216.0
167.949753 172.0
168.049866 144.0
168.193527 220.0
168.752884 172.0
168.949432 224.0
168.985657 140.0
169.130569 184.0
169.856094 180.0
170.344101 148.0
170.916061 152.0
171.181564 156.0
171.303696 184.0
171.426437 292.0
171.525467 184.0
171.598465 164.0
171.696106 204.0
171.726242 164.0
171.841019 148.0
172.180359 224.0
172.682159 156.0
173.1035 204.0
173.144012 156.0
173.183777 188.0
173.604004 176.0
173.638336 136.0
173.804672 132.0
173.866348 216.0
173.916214 168.0
174.005463 168.0
174.454697 152.0
174.741348 188.0
174.786087 184.0
174.838715 204.0
174.975586 176.0
175.107254 160.0
175.273209 192.0
175.489349 160.0
175.763657 184.0
175.879776 148.0
175.927292 140.0
176.06987 152.0
176.323486 140.0
176.445084 172.0
176.508545 164.0
176.807465 164.0
177.053665 176.0
177.607605 212.0
177.761475 180.0
177.858627 152.0
177.926041 168.0
178.118683 196.0
178.279297 148.0
178.480789 160.0
178.651535 144.0
178.726028 256.0
178.746078 236.0
178.978897 140.0
179.26445 240.0
179.378525 184.0
179.762573 244.0
180.165741 160.0
180.221848 256.0
180.272629 184.0
180.55072 144.0
180.582733 164.0
180.74057 160.0
181.134125 228.0
181.345795 144.0
181.498596 180.0
181.560272 260.0
181.597824 152.0
181.835388 232.0
181.909073 180.0
182.386017 180.0
182.505493 140.0
182.806763 184.0
182.841751 220.0
182.913925 196.0
183.719681 164.0
183.855057 160.0
184.251984 168.0
184.295212 144.0
184.41951 144.0
184.54657 240.0
184.662857 184.0
184.773438 200.0
185.502228 248.0
185.570007 224.0
185.909073 264.0
186.006775 168.0
186.267456 228.0
186.308197 204.0
187.091415 140.0
187.163696 212.0
187.783524 192.0
188.621216 120.0
188.736588 176.0
189.034576 136.0
189.105896 220.0
189.13327 140.0
189.612579 152.0
189.659164 148.0
190.114441 160.0
190.26265 152.0
190.345032 192.0
190.933105 164.0
190.963348 160.0
191.26326 144.0
191.398163 156.0
191.42569 192.0
191.557892 176.0
191.699615 196.0
191.880325 144.0
192.056808 176.0
192.622665 164.0
193.396881 164.0
193.601761 144.0
193.856613 148.0
194.00351 204.0
194.213318 188.0
194.544952 160.0
195.173584 132.0
195.21962 176.0
195.915451 168.0
195.951675 164.0
196.06871 180.0
196.305664 180.0
196.718597 204.0
196.944763 208.0
197.077606 188.0
198.114014 160.0
198.346603 140.0
198.696045 164.0
198.924438 152.0
199.047974 212.0
199.067627 144.0
199.154694 160.0
199.891266 152.0
200.260056 164.0
200.395203 168.0
200.445984 192.0
200.739151 180.0
201.077682 172.0
201.631226 148.0
201.665146 160.0
201.693405 168.0
201.752762 144.0
201.831924 152.0
202.038391 164.0
202.058197 140.0
202.191605 164.0
202.213837 224.0
202.37236 224.0
202.542267 212.0
202.603531 240.0
202.665512 96.0
202.859634 156.0
202.897614 312.0
203.018417 164.0
203.497955 172.0
203.736526 140.0
203.830276 144.0
203.924057 240.0
204.043243 164.0
204.293701 228.0
204.34491 180.0
204.660843 200.0
204.834564 184.0
205.467422 140.0
205.564438 140.0
206.164124 328.0
206.527222 188.0
206.613037 152.0
206.653091 196.0
206.681702 176.0
206.721756 188.0
206.924988 152.0
206.967926 156.0
207.20607 216.0
207.813461 160.0
207.930038 212.0
207.982773 204.0
208.106216 164.0
208.471024 164.0
208.522751 144.0
208.574478 212.0
209.714294 144.0
209.734467 180.0
209.976654 180.0
210.037231 176.0
210.345978 184.0
210.392166 200.0
210.877441 188.0
210.946823 256.0
211.004639 172.0
211.299622 172.0
211.580353 204.0
211.609299 144.0
212.356934 152.0
212.507782 172.0
212.542603 264.0
212.856079 192.0
213.254089 264.0
213.376175 160.0
213.637009 180.0
213.70192 176.0
213.818314 152.0
213.911392 192.0
214.001694 152.0
214.205551 224.0
214.33374 152.0
214.607727 140.0
215.056976 188.0
215.200012 152.0
215.322662 144.0
215.386917 212.0
215.557114 124.0
215.842834 164.0
215.927628 204.0
215.978561 224.0
216.012451 204.0
216.085587 152.0
216.120697 152.0
216.161667 232.0
216.597885 156.0
216.855728 224.0
216.967117 148.0
217.093201 172.0
217.245712 152.0
217.298523 196.0
217.374817 160.0
217.968887 140.0
218.324951 188.0
218.538391 176.0
219.186172 192.0
219.793594 144.0
220.265945 148.0
220.292542 208.0
220.372299 156.0
220.611694 176.0
220.63533 168.0
220.963608 172.0
221.007996 204.0
221.357269 148.0
221.419464 192.0
222.54332 172.0
222.605682 152.0
222.635376 160.0
223.199966 148.0
223.238632 140.0
223.580734 164.0
223.824844 188.0
223.85759 264.0
225.021942 128.0
225.152847 180.0
225.229492 232.0
225.36731 180.0
225.405762 192.0
225.54921 172.0
225.76149 160.0
226.279129 140.0
226.434845 164.0
226.503738 192.0
226.637024 108.0
226.691376 152.0
226.818359 168.0
227.237534 216.0
227.943802 196.0
228.686615 216.0
228.996735 140.0
229.24678 168.0
229.372513 228.0
229.874237 160.0
230.027939 240.0
230.112457 188.0
230.480942 156.0
230.740875 164.0
231.321701 164.0
231.348953 164.0
231.80629 192.0
231.866898 152.0
232.373291 148.0
232.455215 164.0
232.591797 148.0
232.883286 152.0
233.075119 164.0
233.177994 144.0
233.342133 140.0
233.393829 156.0
233.853989 120.0
233.977982 200.0
234.191147 180.0
234.751907 152.0
234.846451 180.0
234.953201 180.0
235.041687 196.0
235.383957 188.0
235.594299 144.0
236.09726 156.0
236.153687 176.0
236.248505 192.0
236.386185 196.0
236.716782 152.0
237.084396 192.0
237.139557 232.0
237.266037 112.0
237.348022 192.0
238.005524 140.0
238.228851 208.0
238.462372 148.0
238.489883 168.0
239.157471 196.0
239.41301 160.0
239.640945 236.0
239.807358 200.0
240.681854 204.0
240.723618 148.0
241.013977 180.0
241.044876 172.0
241.085037 244.0
241.350876 152.0
241.428192 200.0
241.904663 224.0
242.051636 212.0
242.074951 200.0
242.208542 180.0
242.38472 224.0
242.685181 124.0
242.744293 156.0
242.964508 236.0
243.073105 200.0
243.287247 204.0
243.352448 176.0
243.604004 220.0
243.740707 200.0
243.843262 156.0
243.989349 140.0
244.328339 176.0
244.431 152.0
244.80455 164.0
245.281235 208.0
245.334229 140.0
245.504196 196.0
245.614868 196.0
246.098587 164.0
246.20787 140.0
246.492142 188.0
246.676544 156.0
246.80159 168.0
246.947952 200.0
247.229126 160.0
247.367859 160.0
247.41481 176.0
247.475494 136.0
247.59642 228.0
247.652802 156.0
247.762436 164.0
247.981781 196.0
248.09462 168.0
248.173004 204.0
248.201218 188.0
248.223175 196.0
248.310974 164.0
248.386261 184.0
248.445862 200.0
248.612152 232.0
248.772217 196.0
248.944916 184.0
249.057968 140.0
249.881592 184.0
249.909912 172.0
250.120758 156.0
250.312805 140.0
250.423019 160.0
250.936661 140.0
251.014008 196.0
251.091187 140.0
251.305679 168.0
251.37825 140.0
251.456818 164.0
251.706543 140.0
251.741272 232.0
252.133011 180.0
252.249954 168.0
252.433319 232.0
252.588684 164.0
252.871872 180.0
253.233444 116.0
253.45575 140.0
253.712463 208.0
253.779053 168.0
253.866699 224.0
254.080338 144.0
254.113678 292.0
254.337387 164.0
254.619949 232.0
254.851852 144.0
255.026627 192.0
255.356766 220.0
255.872787 208.0
256.000153 156.0
256.474121 180.0
256.729889 192.0
257.198914 220.0
257.254913 152.0
257.422394 188.0
258.010284 248.0
258.062042 168.0
258.096619 176.0
258.568848 160.0
258.81015 204.0
259.23938 172.0
259.553497 156.0
259.867065 152.0
259.97052 152.0
260.320435 220.0
260.558105 180.0
261.390869 200.0
261.564636 220.0
261.703064 192.0
261.728821 164.0
262.0896 192.0
262.205597 180.0
262.305511 164.0
262.360321 188.0
262.709381 196.0
262.760223 148.0
262.850555 140.0
262.873138 180.0
263.180695 144.0
263.305725 180.0
263.386475 156.0
263.496307 148.0
263.593231 208.0
263.732208 176.0
263.997314 176.0
264.142853 220.0
264.343445 168.0
264.379028 220.0
264.780487 164.0
264.969513 220.0
265.256775 188.0
265.50531 240.0
266.054779 152.0
266.13269 148.0
266.327545 180.0
267.153198 168.0
267.19223 156.0
267.28006 156.0
267.306091 148.0
267.341888 180.0
267.435211 196.0
267.530731 200.0
267.556641 168.0
267.654388 188.0
267.677185 144.0
268.156067 180.0
268.345154 176.0
268.423401 172.0
268.840942 168.0
268.935577 184.0
269.160858 212.0
269.938538 180.0
270.381042 152.0
270.622406 164.0
270.693787 160.0
271.44812 148.0
272.170013 280.0
272.314514 252.0
272.416321 140.0
272.547729 164.0
272.77121 188.0
272.797516 180.0
273.215149 188.0
273.468536 288.0
273.54425 172.0
273.616669 192.0
273.712158 176.0
273.899872 156.0
274.011871 212.0
274.43045 144.0
274.615112 280.0
274.859222 184.0
274.931824 240.0
276.399017 192.0
276.802856 148.0
276.894135 140.0
277.250061 140.0
277.482086 188.0
277.564972 216.0
277.629456 140.0
277.667786 168.0
277.820374 172.0
278.002869 164.0
278.597168 172.0
278.693542 344.0
279.022552 192.0
279.205444 152.0
279.464905 184.0
279.514801 152.0
279.727814 188.0
279.834351 212.0
279.867645 144.0
279.897614 148.0
280.050812 216.0
280.124084 208.0
280.296082 228.0
280.730682 164.0
280.847412 172.0
280.875824 172.0
281.214417 156.0
281.388 152.0
281.444763 164.0
281.621735 212.0
281.752014 148.0
281.922424 180.0
282.102905 216.0
282.165741 116.0
282.27536 140.0
282.596405 216.0
282.621307 152.0
282.822083 156.0
282.912476 140.0
283.073181 204.0
283.111938 148.0
283.154877 168.0
283.245087 144.0
283.38147 108.0
283.415955 164.0
283.465851 304.0
283.649506 164.0
283.752594 280.0
283.793579 160.0
283.822235 132.0
283.858093 240.0
283.928223 148.0
283.966125 168.0
284.067383 336.0
284.114258 292.0
284.140747 308.0
284.168549 160.0
284.216156 320.0
284.26413 324.0
284.299805 180.0
284.398621 256.0
284.436676 184.0
284.477417 144.0
284.527161 172.0
284.54126 188.0
284.587616 344.0
284.635559 112.0
284.671997 284.0
284.735138 144.0
284.759338 196.0
284.773376 204.0
284.826782 184.0
284.858795 244.0
284.913086 588.0
284.946259 172.0
284.999969 576.0
285.080078 484.0
285.117462 508.0
285.160858 208272.0
285.278534 348.0
285.390442 224.0
285.426025 140.0
285.480774 224.0
285.528259 460.0
285.598572 308.0
285.671936 232.0
285.71402 6448.0
285.740448 364.0
285.78952 272.0
285.845764 200.0
285.878601 160.0
285.952118 280.0
286.049805 360.0
286.092072 248.0
286.163177 69724.0
286.267456 104.0
286.386566 156.0
286.42337 136.0
286.459686 276.0
286.541412 192.0
286.607758 188.0
286.704407 172.0
286.796295 120.0
286.82663 220.0
286.870117 96.0
286.895721 172.0
286.974335 164.0
286.998199 256.0
287.074066 192.0
287.11319 100.0
287.165222 5680.0
287.286896 128.0
287.361542 160.0
287.582031 96.0
287.621368 140.0
287.649109 196.0
287.6875 116.0
287.742218 108.0
287.816742 312.0
287.863403 172.0
287.914246 140.0
287.992126 152.0
288.023926 348.0
288.069885 184.0
288.121552 528.0
288.176605 948.0
288.207886 300.0
288.25827 300.0
288.336365 132.0
288.357544 184.0
288.444305 104.0
288.475983 164.0
288.502777 112.0
288.66571 128.0
288.891205 168.0
288.95343 204.0
288.98938 160.0
289.014954 152.0
289.054688 112.0
289.11203 152.0
289.170471 240.0
289.237701 204.0
289.40448 108.0
290.359741 120.0
290.537292 108.0
295.353577 160.0
295.487915 124.0
295.872437 156.0
296.960358 104.0
298.245361 112.0
298.414673 144.0
303.178162 244.0
358.31485 152.0
364.299286 104.0
380.087769 152.0
426.469299 120.0
504.356293 164.0
635.280151 172.0
752.694092 152.0
1053.427002 172.0
1116.413086 204.0
1145.925659 156.0
1148.446899 144.0
1177.400391 208.0
1180.831177 144.0
1216.565674 172.0
1249.137207 144.0
1278.862915 156.0
1282.231689 148.0
1294.511963 224.0
1303.995972 140.0
1344.933472 152.0
1352.440063 152.0
1354.460938 152.0
1385.118286 196.0
1430.294556 184.0
1441.592285 176.0
1448.643677 140.0
1466.744019 204.0
1467.658813 156.0
1475.148193 200.0
1476.600952 164.0
1510.791748 184.0
1513.036011 156.0
1517.614746 144.0
1525.556885 196.0
1534.345947 156.0
1540.354858 184.0
1544.372437 264.0
1548.943481 168.0
1554.753296 192.0
1575.55603 196.0
1581.700317 188.0
1591.2052 164.0
1602.387207 200.0
1603.574585 204.0
1604.778198 160.0
1605.001465 192.0
1608.368042 152.0
1610.23877 176.0
1615.391724 152.0
1618.136719 160.0
1621.789551 168.0
1639.40625 168.0
1654.129883 232.0
1663.605957 160.0
1665.286743 224.0
1679.26123 204.0
1680.541992 192.0
1682.623169 192.0
1689.463379 208.0
1693.50708 208.0
1704.63147 152.0
1704.861572 164.0
1707.204468 168.0
1707.451172 164.0
1709.310303 144.0
1715.421265 156.0
1724.682617 172.0
1724.78186 180.0
1726.782715 192.0
1729.719971 176.0
1730.903931 140.0
1731.814819 144.0
1736.091309 216.0
1741.668457 188.0
1749.093628 172.0
1749.917847 152.0
1750.575562 164.0
1755.208618 156.0
1756.751587 160.0
1761.601562 240.0
1770.500854 152.0
1779.305054 192.0
1780.161377 204.0
1781.404419 160.0
1783.1521 220.0
1784.967896 208.0
1785.421997 152.0
1786.178955 164.0
1787.609253 232.0
1789.301025 172.0
1796.160522 176.0
1797.780396 140.0
1803.269897 152.0
1805.696289 220.0
1807.675903 144.0
1809.233154 168.0
1823.525879 180.0
1825.897827 172.0
1826.033936 216.0
1828.594849 144.0
1830.893433 188.0
1837.038696 140.0
1839.846313 212.0
1840.298828 196.0
1843.27124 164.0
1843.912109 200.0
1845.895386 188.0
1846.100708 156.0
1846.742065 168.0
1852.434204 196.0
1852.562622 200.0
1866.363037 148.0
1866.75 164.0
1867.567017 228.0
1867.721802 212.0
1869.012207 180.0
1869.235962 224.0
1870.105103 196.0
1870.371948 152.0
1872.739746 156.0
1875.6521 228.0
1881.958252 212.0
1882.200073 164.0
1882.700928 176.0
1889.667847 208.0
1895.789551 200.0
1897.193604 160.0
1902.966187 180.0
1903.101807 144.0
1904.057007 144.0
1905.551025 156.0
1905.811646 140.0
1906.567749 180.0
1909.210449 212.0
1917.672729 184.0
1933.655518 196.0
1934.338135 160.0
1935.931641 152.0
1938.778687 192.0
1944.426514 188.0
1944.724854 216.0
1946.524536 200.0
1947.490601 160.0
1952.261353 232.0
1953.186279 172.0
1953.564453 208.0
1955.421021 272.0
1955.509033 144.0
1955.887573 204.0
1957.075928 144.0
1958.123901 152.0
1963.349976 176.0
1964.920044 180.0
1967.117432 244.0
1968.777344 152.0
1970.543823 152.0
1973.920288 268.0
1976.945557 208.0
1977.078369 148.0
1978.954834 172.0
1981.310669 216.0
1988.856934 208.0
1988.998901 176.0
1995.092651 184.0
1997.306885 144.0
2002.914551 164.0
