>compound MLS002222322-01!110429-35-1
>formula C19H20FNO3
>ionization [M+H]+
>parentmass 330.150574
#inchi InChI=1S/C19H20FNO3/c20-15-3-1-13(2-4-15)17-7-8-21-10-14(17)11-22-16-5-6-18-19(9-16)24-12-23-18/h1-6,9,14,17,21H,7-8,10-12H2/t14-,17-/m0/s1
#inchikey AHOUBRCZNHFOSL
#origInchi InChI=1S/C19H20FNO3.ClH/c20-15-3-1-13(2-4-15)17-7-8-21-10-14(17)11-22-16-5-6-18-19(9-16)24-12-23-18;/h1-6,9,14,17,21H,7-8,10-12H2;1H/t14-,17-;/m0./s1
#Ion_Source LC-ESI
#Instrument qTof
#Compound_Source NIH Pharmacologically Active Library
#PI Dorrestein
#Data_Collector VP/LMS
#Scan -1
#Precursor_MZ 330.15
#ExactMass 329.143
#Charge 1
#CAS_Number N/A
#Pubmed_ID N/A
#Smiles Fc1ccc(cc1)[C@@H]2CCNC[C@H]2COc3ccc4OCOc4c3.Cl
#INCHI_AUX N/A
#Library_Class 1
#SpectrumID CCMSLIB00000085975
#IonMode Positive
#UpdateWorkflowName UPDATE-SINGLE-ANNOTATED-GOLD
#LibraryQualityString Gold
#TaskID d252d724072548979f1f6f1ced849daf
##Scan# 1718
#SpectrumFile p4-H10_GH10_01_18418.mzXML
#LibraryName Pharm_Active_Library.mgf
#MQScore -1
#Organism Pharm_Active_Library
#TIC_Query 0
#RT_Query -1
#MZErrorPPM -1
#SharedPeaks 0
#MassDiff 0
#LibMZ -1
#SpecMZ 330.15
#SpecCharge 0
#internalFilename spec-00000.mgf

>collision 10
44.949535 172.0
44.966885 100.0
44.981857 148.0
45.080406 160.0
45.113819 128.0
45.148586 180.0
45.171322 56.0
45.186039 180.0
45.205738 144.0
45.251335 188.0
45.263493 120.0
45.331833 172.0
45.364159 176.0
45.40163 152.0
45.43792 68.0
45.45536 72.0
45.486862 144.0
45.498314 184.0
45.513081 144.0
45.569988 200.0
45.578903 144.0
45.600403 132.0
45.624599 244.0
45.659763 160.0
45.673012 140.0
45.696854 220.0
45.766918 180.0
45.780685 40.0
45.857479 172.0
45.911407 204.0
45.935684 124.0
45.947205 136.0
46.00721 172.0
46.05711 168.0
46.076088 64.0
46.086895 124.0
46.132256 180.0
46.154659 152.0
46.174767 152.0
46.203663 220.0
46.223469 164.0
46.242413 204.0
46.254597 236.0
46.2687 172.0
46.274803 216.0
46.277889 156.0
46.301987 152.0
46.314175 76.0
46.323658 128.0
46.33823 148.0
46.368374 180.0
46.415306 200.0
46.468258 200.0
46.478142 140.0
46.522507 152.0
46.619446 144.0
46.646629 164.0
46.66478 160.0
46.724144 160.0
46.756802 52.0
46.772949 204.0
46.805813 156.0
46.835773 188.0
46.868469 176.0
46.906525 104.0
46.924355 28.0
46.968029 156.0
46.98027 216.0
47.000736 176.0
47.014381 108.0
47.078548 208.0
47.10173 160.0
47.116795 96.0
47.147419 204.0
47.181026 124.0
47.219315 124.0
47.235729 124.0
47.248039 160.0
47.28088 120.0
47.290462 300.0
47.310421 248.0
47.360825 304.0
47.373989 260.0
47.383476 160.0
47.430176 120.0
47.493824 184.0
47.506966 204.0
47.517944 280.0
47.549503 160.0
47.565975 184.0
47.582451 76.0
47.619526 136.0
47.663486 100.0
47.684101 144.0
47.728092 140.0
47.740471 148.0
47.788612 124.0
47.824394 176.0
47.835407 164.0
47.864319 96.0
47.924927 172.0
47.94453 212.0
47.973164 48.0
48.051205 252.0
48.064194 188.0
48.076614 164.0
48.094257 160.0
48.11388 180.0
48.140118 112.0
48.163597 92.0
48.184319 168.0
48.308506 164.0
48.354404 192.0
48.391781 188.0
48.453701 96.0
48.47905 120.0
48.513699 168.0
48.530338 120.0
48.553879 172.0
48.612179 136.0
48.652431 156.0
48.739933 176.0
48.75383 188.0
48.812859 156.0
48.836285 144.0
48.864441 256.0
48.876793 132.0
48.918465 208.0
48.930485 140.0
48.941624 76.0
48.977188 224.0
49.011269 264.0
49.043324 268.0
49.05587 148.0
49.093513 128.0
49.107464 140.0
49.138153 104.0
49.19677 176.0
49.275551 160.0
49.34383 228.0
49.376217 160.0
49.395073 212.0
49.451176 176.0
49.473694 184.0
49.507175 160.0
49.568817 108.0
49.585632 176.0
49.598248 80.0
49.608059 164.0
49.666954 124.0
49.711853 128.0
49.759575 80.0
49.783447 68.0
49.793278 180.0
49.860718 180.0
49.889297 60.0
49.911324 144.0
49.938046 148.0
49.980247 132.0
49.998543 180.0
50.014027 196.0
50.083458 360.0
50.118656 176.0
50.136562 148.0
50.154884 176.0
50.164436 140.0
50.214104 156.0
50.23526 188.0
50.25732 220.0
50.266598 76.0
50.290089 192.0
50.312534 164.0
50.366543 120.0
50.384907 156.0
50.430126 100.0
50.4464 164.0
50.466881 180.0
50.646614 132.0
50.676361 68.0
50.693367 120.0
50.742977 188.0
50.779049 356.0
50.823826 180.0
50.835945 236.0
50.853626 176.0
50.924618 168.0
50.945927 76.0
50.980026 88.0
51.004189 140.0
51.030506 196.0
51.035728 240.0
51.139351 164.0
51.167789 128.0
51.199116 188.0
51.213356 208.0
51.266071 176.0
51.296005 232.0
51.314537 140.0
51.328796 144.0
51.338779 128.0
51.348763 156.0
51.368732 120.0
51.381569 196.0
51.404381 192.0
51.52179 168.0
51.585793 184.0
51.600044 132.0
51.614693 112.0
51.654083 164.0
51.744591 228.0
51.787552 120.0
51.80331 108.0
51.829098 188.0
51.856327 180.0
51.883606 132.0
51.915108 56.0
51.957184 180.0
51.969337 164.0
51.983967 248.0
52.097397 80.0
52.109974 196.0
52.13763 156.0
52.151142 348.0
52.175003 228.0
52.193695 144.0
52.2052 160.0
52.239719 160.0
52.254105 120.0
52.265617 148.0
52.31023 68.0
52.354866 56.0
52.367828 168.0
52.393757 184.0
52.444908 208.0
52.461491 124.0
52.510517 144.0
52.524395 116.0
52.559566 128.0
52.588432 156.0
52.643291 148.0
52.677021 488.0
52.715523 136.0
52.731422 216.0
52.76033 100.0
52.82259 156.0
52.841324 240.0
52.873158 228.0
52.886185 124.0
52.915134 132.0
52.952785 176.0
52.973064 132.0
52.997696 56.0
53.013634 232.0
53.04697 176.0
53.08757 224.0
53.152847 116.0
53.181873 152.0
53.253181 180.0
53.274807 148.0
53.290882 192.0
53.303867 320.0
53.328575 180.0
53.361835 168.0
53.373642 44.0
53.38382 128.0
53.401272 144.0
53.456558 88.0
53.484211 132.0
53.527885 164.0
53.568668 92.0
53.603634 108.0
53.61821 168.0
53.693359 212.0
53.736324 192.0
53.754772 168.0
53.797623 192.0
53.84861 216.0
53.87064 156.0
53.919758 156.0
53.949795 204.0
53.991959 144.0
54.00951 228.0
54.019749 120.0
54.073891 168.0
54.084133 208.0
54.11195 180.0
54.133915 244.0
54.147095 212.0
54.160275 136.0
54.235004 144.0
54.283386 144.0
54.294334 184.0
54.309635 116.0
54.339127 160.0
54.372875 64.0
54.399296 188.0
54.433067 124.0
54.459499 232.0
54.490349 140.0
54.526878 84.0
54.545898 188.0
54.577068 128.0
54.600597 176.0
54.64473 164.0
54.671371 408.0
54.688168 232.0
54.727154 164.0
54.759789 128.0
54.774963 144.0
54.824375 88.0
54.834694 112.0
54.847958 144.0
54.896019 348.0
54.927586 120.0
54.948238 136.0
54.971848 172.0
55.003895 168.0
55.066334 176.0
55.081104 188.0
55.092922 180.0
55.180119 136.0
55.194904 120.0
55.206734 128.0
55.243713 152.0
55.294022 124.0
55.391747 132.0
55.442123 144.0
55.483208 128.0
55.495487 92.0
55.513283 116.0
55.538494 168.0
55.55043 176.0
55.580036 264.0
55.590424 288.0
55.605263 172.0
55.618622 128.0
55.663162 52.0
55.700291 204.0
55.71069 152.0
55.738918 52.0
55.771614 156.0
55.853397 216.0
55.94566 112.0
56.027569 88.0
56.050232 208.0
56.06929 164.0
56.088669 136.0
56.128284 192.0
56.213951 160.0
56.225632 140.0
56.256462 124.0
56.270672 152.0
56.287094 176.0
56.29895 128.0
56.36776 148.0
56.404724 224.0
56.472412 200.0
56.508091 188.0
56.550217 104.0
56.563686 228.0
56.596622 180.0
56.609707 168.0
56.686821 148.0
56.740459 104.0
56.753956 144.0
56.822948 128.0
56.837955 188.0
56.961063 192.0
56.982098 168.0
57.00391 232.0
57.150291 148.0
57.191128 120.0
57.201664 132.0
57.24081 184.0
57.263401 176.0
57.276958 180.0
57.407158 228.0
57.426182 220.0
57.460445 140.0
57.5303 112.0
57.556286 184.0
57.664738 184.0
57.805386 116.0
57.864418 128.0
57.875854 144.0
57.893188 200.0
57.923477 152.0
58.006824 208.0
58.038662 112.0
58.078091 176.0
58.103882 176.0
58.131191 160.0
58.156994 148.0
58.173691 180.0
58.19191 216.0
58.211651 180.0
58.230804 124.0
58.258736 128.0
58.307358 48.0
58.339279 64.0
58.403145 176.0
58.448788 180.0
58.472389 204.0
58.49749 128.0
58.555351 148.0
58.566013 160.0
58.582767 164.0
58.65979 192.0
58.675732 152.0
58.689121 164.0
58.69265 128.0
58.697495 176.0
58.783886 168.0
58.802345 172.0
58.822186 140.0
58.838978 124.0
58.855774 164.0
58.883263 204.0
58.918396 132.0
58.939785 84.0
58.959652 136.0
58.975372 168.0
58.987164 48.0
59.04221 300.0
59.10952 160.0
59.169216 184.0
59.219749 212.0
59.249325 156.0
59.282562 156.0
59.368412 152.0
59.385284 64.0
59.396019 48.0
59.411362 220.0
59.423302 184.0
59.485023 240.0
59.49884 44.0
59.520336 68.0
59.543369 156.0
59.560558 232.0
59.572556 120.0
59.624798 136.0
59.65554 172.0
59.673988 128.0
59.765579 112.0
59.793976 124.0
59.80574 180.0
59.82938 92.0
59.843235 124.0
59.859619 156.0
59.890217 252.0
59.909012 124.0
59.929489 216.0
59.952602 116.0
59.995762 220.0
60.010757 248.0
60.055904 80.0
60.068241 164.0
60.088379 156.0
60.114529 184.0
60.143852 184.0
60.157745 196.0
60.250408 184.0
60.295219 224.0
60.335407 144.0
60.349323 144.0
60.369427 128.0
60.400703 160.0
60.448318 152.0
60.48856 212.0
60.499397 140.0
60.531914 128.0
60.575279 108.0
60.62331 160.0
60.679111 168.0
60.69772 144.0
60.72253 184.0
60.738041 160.0
60.752003 168.0
60.79121 164.0
60.806942 148.0
60.81815 160.0
60.840557 152.0
60.858253 200.0
60.87928 168.0
60.913452 128.0
60.939861 156.0
60.97094 156.0
60.986485 120.0
60.998917 168.0
61.034676 140.0
61.06889 208.0
61.092194 212.0
61.110893 196.0
61.124897 216.0
61.151299 224.0
61.187157 136.0
61.226086 192.0
61.266586 220.0
61.328449 196.0
61.36607 192.0
61.377712 228.0
61.409996 104.0
61.46386 144.0
61.517666 240.0
61.533276 248.0
61.611366 76.0
61.643726 208.0
61.648487 148.0
61.684814 172.0
61.71452 204.0
61.753616 156.0
61.852192 164.0
61.863655 176.0
61.892899 52.0
61.952667 172.0
61.990017 128.0
62.010288 124.0
62.030769 148.0
62.095081 236.0
62.242573 180.0
62.259064 176.0
62.281837 188.0
62.292831 184.0
62.338394 188.0
62.413101 180.0
62.459457 112.0
62.517673 132.0
62.57106 192.0
62.615124 200.0
62.63813 164.0
62.659061 192.0
62.679871 100.0
62.701843 140.0
62.714542 208.0
62.744495 132.0
62.772877 264.0
62.823349 112.0
62.839127 120.0
62.860107 188.0
62.880154 192.0
62.978046 188.0
63.004902 120.0
63.015961 184.0
63.058628 168.0
63.096565 160.0
63.125027 168.0
63.167728 180.0
63.207695 216.0
63.264263 132.0
63.278511 124.0
63.311764 136.0
63.392559 36.0
63.409992 124.0
63.421085 148.0
63.455963 112.0
63.480755 132.0
63.497192 248.0
63.509834 132.0
63.557426 128.0
63.561722 124.0
63.567654 212.0
63.586601 260.0
63.616199 176.0
63.641602 192.0
63.660656 92.0
63.700363 124.0
63.726242 152.0
63.737995 140.0
63.843414 72.0
63.88636 136.0
63.899086 76.0
63.918179 104.0
63.98296 192.0
63.998245 200.0
64.018471 188.0
64.031212 176.0
64.093338 100.0
64.128403 128.0
64.252785 140.0
64.297462 56.0
64.317184 196.0
64.337364 144.0
64.36451 76.0
64.387611 168.0
64.473137 164.0
64.487518 100.0
64.554672 152.0
64.596252 128.0
64.637856 312.0
64.684265 216.0
64.700272 128.0
64.770737 116.0
64.792534 224.0
64.813995 156.0
64.830017 172.0
64.846046 124.0
64.894135 216.0
64.908928 212.0
64.932625 124.0
64.945457 128.0
64.95829 68.0
65.052963 180.0
65.07872 204.0
65.096916 128.0
65.192703 152.0
65.244141 132.0
65.292137 212.0
65.338882 176.0
65.413055 48.0
65.474609 176.0
65.495682 200.0
65.549957 200.0
65.582001 104.0
65.610329 220.0
65.628944 180.0
65.640228 144.0
65.654739 140.0
65.691841 136.0
65.705551 176.0
65.754768 108.0
65.780594 176.0
65.837105 56.0
65.87426 196.0
65.898491 64.0
65.922729 132.0
65.938889 156.0
65.974449 140.0
66.003555 168.0
66.029427 168.0
66.05854 172.0
66.100609 128.0
66.141518 204.0
66.178307 188.0
66.196121 128.0
66.26577 152.0
66.28035 168.0
66.307373 132.0
66.401939 212.0
66.416534 204.0
66.429512 164.0
66.499283 152.0
66.528503 96.0
66.608078 144.0
66.620148 168.0
66.647064 204.0
66.687157 204.0
66.739716 56.0
66.773865 132.0
66.792229 168.0
66.82267 56.0
66.866608 164.0
66.888657 204.0
66.917068 196.0
66.991982 144.0
67.089767 276.0
67.132401 164.0
67.165222 176.0
67.187614 164.0
67.221878 176.0
67.250412 176.0
67.368828 160.0
67.386803 196.0
67.450539 196.0
67.468521 188.0
67.502853 120.0
67.521278 136.0
67.59446 172.0
67.640289 192.0
67.67794 48.0
67.723793 160.0
67.750008 252.0
67.804077 44.0
67.913933 136.0
67.969711 172.0
67.981201 404.0
68.049789 188.0
68.124046 152.0
68.148689 168.0
68.196716 176.0
68.227577 144.0
68.280197 112.0
68.314743 244.0
68.339417 208.0
68.377266 148.0
68.388786 136.0
68.452995 128.0
68.505173 136.0
68.522179 44.0
68.564728 156.0
68.582802 208.0
68.603668 116.0
68.678787 144.0
68.690331 144.0
68.716728 220.0
68.753029 140.0
68.857758 120.0
68.890076 132.0
68.917458 196.0
68.937996 132.0
68.966087 68.0
68.979317 152.0
69.037186 96.0
69.068611 128.0
69.080185 80.0
69.095642 212.0
69.148026 144.0
69.172859 164.0
69.222527 216.0
69.256653 152.0
69.297066 196.0
69.379639 156.0
69.434654 176.0
69.47612 120.0
69.505989 176.0
69.554115 172.0
69.579071 136.0
69.602264 152.0
69.67202 148.0
69.693619 144.0
69.741814 188.0
69.806656 140.0
69.83493 80.0
69.883171 220.0
69.903137 132.0
69.923874 204.0
69.977623 188.0
70.030075 136.0
70.052986 288.0
70.085037 168.0
70.117973 56.0
70.132973 100.0
70.147972 48.0
70.160179 200.0
70.185226 164.0
70.243027 224.0
70.264717 128.0
70.299751 120.0
70.318115 68.0
70.343147 204.0
70.36409 104.0
70.391571 152.0
70.493469 192.0
70.544983 268.0
70.592094 164.0
70.615509 220.0
70.645622 200.0
70.6745 124.0
70.693947 172.0
70.807564 192.0
70.824738 120.0
70.866615 68.0
70.920929 108.0
70.947067 188.0
70.965858 172.0
71.017494 176.0
71.042656 236.0
71.056076 152.0
71.092995 196.0
71.104736 180.0
71.138313 216.0
71.166435 244.0
71.198761 120.0
71.259827 68.0
71.274139 188.0
71.286118 60.0
71.365578 132.0
71.39875 164.0
71.449211 204.0
71.464966 220.0
71.541779 48.0
71.577133 148.0
71.605759 164.0
71.634399 108.0
71.652931 168.0
71.668091 132.0
71.68676 312.0
71.730446 120.0
71.801689 144.0
71.821503 124.0
71.846809 104.0
71.86837 144.0
71.881241 188.0
71.939629 192.0
71.99028 188.0
72.008858 176.0
72.067986 116.0
72.10347 152.0
72.118156 180.0
72.17955 208.0
72.226669 144.0
72.261688 228.0
72.305862 192.0
72.336891 156.0
72.445778 320.0
72.468994 168.0
72.482544 100.0
72.50119 168.0
72.524918 160.0
72.568939 132.0
72.598671 152.0
72.715591 124.0
72.740341 64.0
72.809959 72.0
72.833733 144.0
72.87281 124.0
72.911896 164.0
72.932289 192.0
72.978188 140.0
72.997902 176.0
73.036011 208.0
73.061531 144.0
73.076843 68.0
73.088753 172.0
73.104065 164.0
73.162071 204.0
73.184067 212.0
73.243675 164.0
73.267525 92.0
73.296494 156.0
73.366371 160.0
73.397064 188.0
73.448227 152.0
73.471291 212.0
73.494286 192.0
73.590775 160.0
73.612068 168.0
73.651352 124.0
73.706024 220.0
73.726532 212.0
73.784645 152.0
73.817131 268.0
73.839363 360.0
73.914635 32.0
73.931747 164.0
73.959137 176.0
73.974991 156.0
73.996796 160.0
74.081741 80.0
74.097511 248.0
74.108871 360.0
74.126976 176.0
74.15097 156.0
74.183533 204.0
74.250404 120.0
74.353348 96.0
74.444885 88.0
74.463226 148.0
74.487274 108.0
74.593811 96.0
74.62648 180.0
74.640236 176.0
74.681511 132.0
74.748604 152.0
74.762108 128.0
74.810608 168.0
74.836395 144.0
74.848442 204.0
74.863945 156.0
74.882889 112.0
74.910446 184.0
74.938354 180.0
74.96907 184.0
75.017288 176.0
75.044876 120.0
75.131111 224.0
75.186325 128.0
75.224304 176.0
75.250198 240.0
75.308914 204.0
75.355553 176.0
75.367645 148.0
75.406258 140.0
75.412964 180.0
75.482819 148.0
75.530159 104.0
75.542267 268.0
75.586685 184.0
75.623596 140.0
75.653023 184.0
75.706696 196.0
75.724022 188.0
75.737877 144.0
75.751732 116.0
75.772522 184.0
75.81411 136.0
75.872353 164.0
75.919861 196.0
75.954552 180.0
75.975365 152.0
76.00193 180.0
76.032814 220.0
76.046249 184.0
76.060394 196.0
76.142235 180.0
76.166321 120.0
76.201889 160.0
76.243393 488.0
76.282745 156.0
76.296654 112.0
76.310562 120.0
76.335533 144.0
76.354034 76.0
76.377937 216.0
76.38121 160.0
76.401001 152.0
76.416092 160.0
76.467125 232.0
76.564621 144.0
76.592491 176.0
76.650566 192.0
76.72493 120.0
76.749336 236.0
76.791191 136.0
76.836548 144.0
76.901115 308.0
76.922058 124.0
77.009369 212.0
77.091476 160.0
77.140419 160.0
77.219101 108.0
77.250587 172.0
77.373909 180.0
77.394104 144.0
77.408661 204.0
77.423874 120.0
77.46241 116.0
77.500076 208.0
77.545464 220.0
77.550339 88.0
77.556374 236.0
77.595932 120.0
77.64119 200.0
77.660728 144.0
77.673531 100.0
77.74855 160.0
77.798553 176.0
77.814911 144.0
77.827202 144.0
77.948402 64.0
77.962463 64.0
78.004646 172.0
78.02047 108.0
78.034531 196.0
78.069702 144.0
78.103119 140.0
78.115433 140.0
78.129501 132.0
78.189331 116.0
78.210449 48.0
78.249184 112.0
78.300247 96.0
78.312576 232.0
78.333847 208.0
78.362061 44.0
78.390099 100.0
78.421066 220.0
78.464127 180.0
78.487045 368.0
78.51796 196.0
78.568176 196.0
78.652885 52.0
78.677597 196.0
78.691727 180.0
78.712914 116.0
78.737015 136.0
78.787094 56.0
78.817131 144.0
78.912575 184.0
78.948021 188.0
78.976242 280.0
78.987595 124.0
79.006317 132.0
79.036392 140.0
79.052315 156.0
79.101875 172.0
79.142593 88.0
79.190414 48.0
79.208305 184.0
79.309128 108.0
79.326851 144.0
79.356987 140.0
79.387131 52.0
79.42083 212.0
79.443893 120.0
79.462135 228.0
79.493576 132.0
79.530846 128.0
79.552147 120.0
79.573448 104.0
79.603508 208.0
79.615486 196.0
79.653954 156.0
79.676414 156.0
79.697777 140.0
79.719101 136.0
79.765312 56.0
79.848885 192.0
79.868446 180.0
79.909363 72.0
79.92807 188.0
79.973427 176.0
80.033958 212.0
80.051765 164.0
80.074921 120.0
80.103416 36.0
80.124794 228.0
80.153267 340.0
80.277122 96.0
80.297707 156.0
80.326241 104.0
80.351852 372.0
80.398415 196.0
80.508301 136.0
80.524368 40.0
80.561882 132.0
80.581535 196.0
80.622635 144.0
80.69854 208.0
80.717377 196.0
80.803238 192.0
80.837234 208.0
80.887344 160.0
80.922211 172.0
80.9431 196.0
80.992996 76.0
81.044952 64.0
81.082687 68.0
81.157875 168.0
81.187645 200.0
81.249344 108.0
81.270195 200.0
81.324715 32.0
81.351639 144.0
81.376457 160.0
81.409096 200.0
81.437828 112.0
81.51049 216.0
81.582138 220.0
81.599564 92.0
81.612152 232.0
81.637321 180.0
81.678688 160.0
81.715988 180.0
81.76741 168.0
81.801056 148.0
81.84066 132.0
81.94693 196.0
81.995583 164.0
82.069496 96.0
82.098633 76.0
82.11097 132.0
82.134422 196.0
82.192719 152.0
82.26976 200.0
82.340256 200.0
82.396179 208.0
82.500397 180.0
82.523262 180.0
82.560669 144.0
82.58445 108.0
82.60408 140.0
82.632759 164.0
82.69693 128.0
82.755821 240.0
82.838509 192.0
82.882896 128.0
82.901718 124.0
82.978958 164.0
83.022476 148.0
83.052811 232.0
83.096848 36.0
83.209373 116.0
83.227531 164.0
83.243874 140.0
83.260223 152.0
83.287468 156.0
83.32782 132.0
83.356369 272.0
83.407089 192.0
83.445572 232.0
83.492851 152.0
83.539207 192.0
83.565613 64.0
83.592903 164.0
83.644188 180.0
83.720337 136.0
83.733086 112.0
83.75312 120.0
83.791885 156.0
83.811905 164.0
83.856979 168.0
83.871559 168.0
83.926254 192.0
83.962723 200.0
84.03186 124.0
84.060196 260.0
84.09848 252.0
84.221901 152.0
84.259087 168.0
84.286613 256.0
84.300461 180.0
84.333359 116.0
84.404045 204.0
84.411377 136.0
84.433914 224.0
84.477814 172.0
84.556496 248.0
84.59127 200.0
84.613243 148.0
84.662682 132.0
84.706642 148.0
84.74511 204.0
84.759773 172.0
84.783592 60.0
84.880577 192.0
84.902756 172.0
84.915596 160.0
84.988632 164.0
85.075241 132.0
85.178078 192.0
85.217888 256.0
85.253212 152.0
85.279633 148.0
85.339806 108.0
85.372902 276.0
85.407845 148.0
85.467445 192.0
85.490639 156.0
85.540237 148.0
85.55748 192.0
85.646767 200.0
85.691597 180.0
85.770592 52.0
85.787186 128.0
85.803993 204.0
85.877541 128.0
85.89045 112.0
85.906059 164.0
85.945404 200.0
85.97316 208.0
85.983841 204.0
86.048195 144.0
86.071312 184.0
86.086411 160.0
86.115639 112.0
86.183357 176.0
86.213554 140.0
86.238632 232.0
86.339272 76.0
86.354065 148.0
86.378113 56.0
86.407715 36.0
86.489578 184.0
86.531715 280.0
86.548378 200.0
86.579857 140.0
86.607643 240.0
86.629868 176.0
86.6521 84.0
86.724373 136.0
86.841003 164.0
86.893127 88.0
86.911682 184.0
86.967354 208.0
87.025352 184.0
87.112671 156.0
87.140297 160.0
87.175369 148.0
87.232986 144.0
87.245995 216.0
87.285225 168.0
87.330917 252.0
87.359436 192.0
87.387344 128.0
87.450615 84.0
87.463646 148.0
87.55674 204.0
87.577232 124.0
87.590271 128.0
87.604485 120.0
87.649887 136.0
87.689674 216.0
87.725731 208.0
87.749168 152.0
87.780373 72.0
87.813942 200.0
87.847519 224.0
87.903488 180.0
87.940819 208.0
87.96508 112.0
87.993088 240.0
88.010254 124.0
88.105141 156.0
88.151855 204.0
88.172409 164.0
88.219139 172.0
88.239899 116.0
88.27523 132.0
88.329475 172.0
88.344437 156.0
88.368759 144.0
88.398468 172.0
88.430511 172.0
88.456718 108.0
88.482925 80.0
88.563454 156.0
88.582779 88.0
88.627151 160.0
88.642982 80.0
88.70623 164.0
88.778984 120.0
88.797134 172.0
88.818375 236.0
88.840881 180.0
88.910309 180.0
88.938461 136.0
88.968498 164.0
89.037971 148.0
89.107529 136.0
89.126266 220.0
89.197685 148.0
89.210838 136.0
89.246567 164.0
89.355652 128.0
89.452423 228.0
89.615791 220.0
89.658821 192.0
89.675133 256.0
89.694633 180.0
89.707825 160.0
89.754959 124.0
89.796448 232.0
89.830406 144.0
89.990044 116.0
90.023315 232.0
90.043694 200.0
90.070137 256.0
90.096336 180.0
90.127327 192.0
90.139297 132.0
90.164612 80.0
90.18351 136.0
90.211868 72.0
90.289391 108.0
90.302628 36.0
90.323433 76.0
90.357491 216.0
90.385872 192.0
90.399117 216.0
90.411469 76.0
90.424751 88.0
90.490089 196.0
90.594139 256.0
90.609291 148.0
90.686989 180.0
90.700256 136.0
90.715416 132.0
90.762184 168.0
90.851959 172.0
90.935066 156.0
91.00441 148.0
91.054375 1880.0
91.085457 152.0
91.138649 152.0
91.165817 176.0
91.214676 160.0
91.229881 148.0
91.309746 232.0
91.366806 124.0
91.395348 164.0
91.412842 164.0
91.448631 216.0
91.48423 160.0
91.500031 124.0
91.536209 72.0
91.616203 196.0
91.634895 340.0
91.665741 112.0
91.764862 48.0
91.807243 276.0
91.8564 240.0
91.906006 148.0
91.932724 104.0
91.965164 32.0
92.001434 164.0
92.026672 172.0
92.056808 288.0
92.156136 172.0
92.22493 112.0
92.239471 152.0
92.291847 116.0
92.332001 80.0
92.354958 144.0
92.372169 124.0
92.425743 132.0
92.450615 144.0
92.471672 236.0
92.565475 88.0
92.682327 128.0
92.726402 52.0
92.778152 120.0
92.823372 144.0
92.83992 136.0
92.870201 128.0
92.900894 196.0
93.03215 1136.0
93.070122 3076.0
93.112038 136.0
93.146606 128.0
93.176262 220.0
93.196556 60.0
93.231651 168.0
93.275352 228.0
93.290733 168.0
93.31559 164.0
93.3367 176.0
93.389999 232.0
93.413811 224.0
93.506172 120.0
93.529221 164.0
93.543129 200.0
93.560066 196.0
93.63131 40.0
93.654427 112.0
93.737267 128.0
93.791229 220.0
93.860634 124.0
93.87606 140.0
93.986015 176.0
94.03334 144.0
94.073357 648.0
94.10569 108.0
94.126549 144.0
94.16169 84.0
94.198387 156.0
94.242821 176.0
94.256348 44.0
94.279541 212.0
94.300797 124.0
94.363159 148.0
94.380058 164.0
94.399399 92.0
94.455482 180.0
94.536743 208.0
94.561905 200.0
94.662453 184.0
94.681946 96.0
94.738113 124.0
94.77243 200.0
94.836945 196.0
94.856323 180.0
94.884186 140.0
94.968788 196.0
94.984306 156.0
95.030869 164.0
95.050354 188.0
95.067741 40.0
95.102669 100.0
95.160912 220.0
95.207512 168.0
95.230042 220.0
95.249504 240.0
95.282158 224.0
95.314186 132.0
95.361 140.0
95.378494 272.0
95.413483 320.0
95.441353 192.0
95.554672 216.0
95.651512 124.0
95.689758 180.0
95.71669 192.0
95.805817 196.0
95.813431 160.0
95.817696 168.0
95.83947 208.0
95.896248 220.0
95.925484 56.0
95.964478 144.0
96.011459 220.0
96.039917 164.0
96.080437 624.0
96.108231 116.0
96.184929 140.0
96.204445 60.0
96.218117 148.0
96.253258 144.0
96.26693 180.0
96.284508 36.0
96.317894 168.0
96.343102 48.0
96.418495 192.0
96.437904 164.0
96.472084 188.0
96.485771 124.0
96.511185 208.0
96.58683 160.0
96.610931 144.0
96.642235 160.0
96.661804 184.0
96.675507 188.0
96.698853 176.0
96.724434 208.0
96.738136 144.0
96.759674 160.0
96.783257 184.0
96.824974 196.0
96.839958 188.0
96.867386 124.0
96.906265 156.0
96.930077 116.0
96.988876 344.0
97.040955 212.0
97.063377 104.0
97.089096 500.0
97.167328 124.0
97.264656 236.0
97.314194 164.0
97.369514 128.0
97.412727 120.0
97.460251 168.0
97.477341 248.0
97.625 156.0
97.685974 144.0
97.741478 172.0
97.783371 160.0
97.835541 164.0
97.849319 92.0
97.870979 240.0
97.896576 204.0
98.014931 100.0
98.052795 176.0
98.094292 276.0
98.109375 160.0
98.138084 200.0
98.158669 176.0
98.19783 140.0
98.217834 80.0
98.239479 144.0
98.294777 76.0
98.340172 172.0
98.357933 168.0
98.472458 140.0
98.506035 156.0
98.569992 184.0
98.650291 240.0
98.690475 184.0
98.755096 52.0
98.782784 204.0
98.80455 48.0
98.838181 112.0
98.909431 64.0
98.935165 148.0
98.949028 68.0
98.980705 180.0
99.032196 200.0
99.055389 152.0
99.123329 96.0
99.16098 164.0
99.20063 192.0
99.220451 160.0
99.277695 124.0
99.310402 156.0
99.328102 212.0
99.37912 164.0
99.478355 176.0
99.500191 208.0
99.571678 180.0
99.616058 164.0
99.636635 120.0
99.653122 64.0
99.724663 180.0
99.746529 96.0
99.76442 176.0
99.786285 172.0
99.824066 76.0
99.84594 152.0
99.913574 148.0
100.013069 220.0
100.042931 164.0
100.056427 108.0
100.088722 40.0
100.156441 352.0
100.304939 252.0
100.353729 156.0
100.413559 120.0
100.445473 104.0
100.543236 156.0
100.618568 160.0
100.64904 156.0
100.667015 144.0
100.733841 244.0
100.764885 124.0
100.784393 184.0
100.804848 136.0
100.824837 192.0
100.866806 168.0
100.882805 28.0
100.90786 232.0
100.944382 140.0
101.000732 168.0
101.037506 332.0
101.065331 156.0
101.088211 196.0
101.10482 104.0
101.118835 68.0
101.182892 196.0
101.196907 172.0
101.256577 136.0
101.298935 144.0
101.361153 136.0
101.387207 120.0
101.445335 132.0
101.467384 84.0
101.493454 100.0
101.561226 176.0
101.581696 132.0
101.672569 180.0
101.713318 344.0
101.810188 100.0
101.898758 176.0
101.947121 220.0
101.969383 152.0
102.048332 184.0
102.079796 208.0
102.124046 88.0
102.222626 204.0
102.244759 180.0
102.262878 124.0
102.287025 156.0
102.40358 208.0
102.41993 120.0
102.483276 272.0
102.51664 180.0
102.537659 184.0
102.575089 116.0
102.593231 132.0
102.642014 204.0
102.688004 196.0
102.734398 156.0
102.788147 200.0
102.829559 176.0
102.866577 120.0
102.877815 128.0
102.899887 136.0
102.920372 220.0
102.944313 184.0
102.978645 116.0
102.994804 156.0
103.017937 124.0
103.055038 7048.0
103.105927 216.0
103.13018 184.0
103.182739 136.0
103.247452 200.0
103.269699 76.0
103.333099 160.0
103.369675 176.0
103.380463 128.0
103.406227 308.0
103.448738 200.0
103.522675 128.0
103.619904 208.0
103.709068 76.0
103.798317 196.0
103.881432 84.0
103.919975 164.0
103.948387 164.0
104.017387 148.0
104.056572 796.0
104.112816 96.0
104.140236 168.0
104.159531 256.0
104.202194 52.0
104.216415 228.0
104.261124 196.0
104.279419 148.0
104.366829 152.0
104.409538 160.0
104.468521 140.0
104.526459 204.0
104.556015 124.0
104.570267 52.0
104.590614 192.0
104.625221 160.0
104.645584 100.0
104.66391 156.0
104.682236 164.0
104.70311 160.0
104.720001 228.0
104.742638 360.0
104.812019 196.0
104.828911 164.0
104.914513 168.0
104.949722 148.0
104.966957 72.0
104.970787 180.0
104.98996 180.0
105.041031 172.0
105.069855 1312.0
105.122284 176.0
105.136848 216.0
105.183792 160.0
105.200119 160.0
105.216454 92.0
105.245041 216.0
105.289963 184.0
105.342491 184.0
105.363503 88.0
105.3778 40.0
105.400276 200.0
105.437065 220.0
105.469765 148.0
105.496338 232.0
105.547455 128.0
105.571991 224.0
105.605995 224.0
105.647675 200.0
105.698822 200.0
105.753456 172.0
105.792084 200.0
105.880333 264.0
105.928131 112.0
106.019226 200.0
106.044922 152.0
106.067192 148.0
106.1987 112.0
106.246735 184.0
106.262291 184.0
106.276657 36.0
106.305382 184.0
106.369011 172.0
106.387489 168.0
106.473724 36.0
106.513374 184.0
106.566162 160.0
106.607262 144.0
106.629868 164.0
106.689476 168.0
106.715103 380.0
106.762344 156.0
106.800568 176.0
106.857681 224.0
106.969254 192.0
107.010063 156.0
107.028778 228.0
107.052971 312.0
107.056328 208.0
107.086372 12412.0
107.139053 204.0
107.147476 156.0
107.17292 72.0
107.199936 184.0
107.245766 128.0
107.274132 152.0
107.290123 164.0
107.321556 236.0
107.346298 148.0
107.39772 176.0
107.47213 128.0
107.622803 48.0
107.674431 140.0
107.701279 160.0
107.792183 156.0
107.825249 84.0
107.850052 164.0
107.864525 192.0
107.939743 136.0
107.945625 176.0
108.009048 184.0
108.036163 148.0
108.06675 204.0
108.088966 1872.0
108.114189 152.0
108.137558 160.0
108.197586 180.0
108.254364 332.0
108.3032 292.0
108.328056 72.0
108.355835 156.0
108.442024 80.0
108.467644 188.0
108.529091 48.0
108.560196 132.0
108.585693 216.0
108.653534 136.0
108.69088 120.0
108.719933 152.0
108.79258 56.0
108.842415 140.0
108.858101 216.0
108.908142 148.0
108.940025 232.0
108.954575 248.0
108.969116 160.0
108.994797 240.0
109.045456 32040.0
109.084595 84.0
109.11673 156.0
109.149948 56.0
109.179062 44.0
109.19986 112.0
109.22274 160.0
109.238029 224.0
109.362625 88.0
109.387978 188.0
109.435379 124.0
109.444321 68.0
109.482155 184.0
109.516228 216.0
109.551643 40.0
109.56665 340.0
109.608658 176.0
109.65583 36.0
109.701897 40.0
109.744057 224.0
109.7994 204.0
109.818771 160.0
109.870605 88.0
109.892464 160.0
109.930077 96.0
109.994591 144.0
110.015533 208.0
110.049194 3012.0
110.070984 164.0
110.127983 124.0
110.146164 28.0
110.236008 52.0
110.252724 188.0
110.286163 344.0
110.304771 152.0
110.321815 148.0
110.358383 220.0
110.409523 60.0
110.442986 136.0
110.465996 136.0
110.487068 108.0
110.514114 124.0
110.557892 152.0
110.572197 244.0
110.599922 236.0
110.654449 80.0
110.692665 132.0
110.717171 72.0
110.782097 52.0
110.809334 128.0
110.837502 180.0
110.868004 156.0
110.884773 172.0
110.903641 220.0
110.970718 92.0
111.006371 224.0
111.050407 144.0
111.092361 136.0
111.169991 156.0
111.190979 240.0
111.222466 84.0
111.268646 108.0
111.33448 148.0
111.36525 104.0
111.396751 116.0
111.453484 144.0
111.478157 172.0
111.538719 100.0
111.583794 148.0
111.627831 72.0
111.688942 96.0
111.712082 100.0
111.745743 172.0
111.770996 220.0
111.804665 52.0
111.821503 92.0
111.862053 196.0
111.947815 204.0
111.963615 148.0
111.977905 188.0
112.055244 140.0
112.075325 128.0
112.194344 136.0
112.25618 196.0
112.305122 180.0
112.322975 48.0
112.337746 60.0
112.365173 156.0
112.445358 300.0
112.498131 176.0
112.60582 56.0
112.677643 160.0
112.698769 220.0
112.772736 204.0
112.812897 192.0
112.855179 112.0
112.884781 156.0
112.950348 124.0
112.981911 152.0
113.034119 124.0
113.135536 180.0
113.424347 132.0
113.464012 208.0
113.510689 140.0
113.546844 200.0
113.592194 148.0
113.640991 332.0
113.719627 140.0
113.785309 192.0
113.846893 188.0
113.980721 224.0
113.997719 112.0
114.069984 208.0
114.135338 152.0
114.141029 260.0
114.184807 64.0
114.199692 168.0
114.235855 216.0
114.280899 184.0
114.306068 196.0
114.361397 168.0
114.403976 140.0
114.444069 248.0
114.504051 192.0
114.548782 116.0
114.586349 196.0
114.618141 164.0
114.755508 204.0
114.78109 200.0
114.80687 136.0
114.849342 188.0
114.894135 136.0
114.959053 236.0
114.963318 180.0
115.025864 336.0
115.054794 6636.0
115.096901 192.0
115.138313 184.0
115.155724 100.0
115.190872 72.0
115.210098 168.0
115.257103 192.0
115.272064 120.0
115.291893 172.0
115.382065 164.0
115.447357 112.0
115.462326 52.0
115.505104 192.0
115.569283 72.0
115.639908 92.0
115.68486 148.0
115.72982 152.0
115.828331 76.0
115.854042 120.0
115.9226 176.0
115.937607 196.0
115.961182 188.0
115.993332 92.0
116.012627 168.0
116.038353 136.0
116.060585 1132.0
116.130562 116.0
116.174675 284.0
116.205765 144.0
116.233536 180.0
116.261436 196.0
116.285042 120.0
116.308655 164.0
116.370911 40.0
116.39238 140.0
116.486885 220.0
116.527702 128.0
116.564232 104.0
116.583572 92.0
116.613655 76.0
116.669022 164.0
116.688896 248.0
116.749237 128.0
116.789322 120.0
116.811478 176.0
116.832993 160.0
116.87056 156.0
116.901848 168.0
116.931976 128.0
116.980339 136.0
117.069733 356.0
117.108528 36.0
117.132957 176.0
117.221748 124.0
117.317543 164.0
117.356354 136.0
117.390854 124.0
117.405952 120.0
117.425224 192.0
117.490074 148.0
117.507332 196.0
117.569908 120.0
117.628189 160.0
117.68441 184.0
117.727509 164.0
117.781502 172.0
117.820389 352.0
117.893852 68.0
118.044937 160.0
118.065147 212.0
118.081055 88.0
118.118713 216.0
118.153717 176.0
118.192719 192.0
118.263687 188.0
118.332962 148.0
118.387093 204.0
118.410866 160.0
118.497566 116.0
118.527901 108.0
118.549568 208.0
118.618927 188.0
118.740349 204.0
118.755531 128.0
118.776115 344.0
118.818443 188.0
118.85434 168.0
118.878487 304.0
118.942139 152.0
118.979149 164.0
119.020241 156.0
119.054092 324.0
119.087616 132.0
119.133232 352.0
119.215218 104.0
119.267967 136.0
119.313614 140.0
119.38102 132.0
119.450623 64.0
119.4702 144.0
119.508728 204.0
119.533295 188.0
119.724869 228.0
119.875183 148.0
119.894798 144.0
119.92749 136.0
120.034088 156.0
120.052963 272.0
120.0728 192.0
120.095383 196.0
120.114342 156.0
120.186897 136.0
120.248108 52.0
120.283035 176.0
120.337616 132.0
120.363815 128.0
120.394386 236.0
120.420593 132.0
120.45784 152.0
120.57135 160.0
120.618347 272.0
120.654411 144.0
120.674088 176.0
120.746246 88.0
120.782082 136.0
120.809685 208.0
120.844688 132.0
120.939476 216.0
120.965057 128.0
121.00106 144.0
121.030472 988.0
121.044884 2456.0
121.095963 620.0
121.140244 128.0
121.221313 48.0
121.282677 164.0
121.302406 152.0
121.376953 144.0
121.409843 80.0
121.480034 208.0
121.517326 76.0
121.55024 36.0
121.574379 176.0
121.621803 204.0
121.730247 144.0
121.744415 136.0
121.796135 168.0
121.833481 140.0
121.90818 160.0
121.933815 260.0
122.01149 84.0
122.034935 284.0
122.053551 564.0
122.107185 108.0
122.189636 48.0
122.23584 172.0
122.306267 172.0
122.32608 92.0
122.341492 132.0
122.358757 204.0
122.391685 140.0
122.475815 224.0
122.538116 172.0
122.619034 184.0
122.648346 120.0
122.678123 208.0
122.731461 144.0
122.793205 80.0
122.834518 280.0
122.861588 196.0
122.877037 540.0
122.925575 132.0
122.949699 116.0
122.952843 180.0
123.060959 26376.0
123.111488 152.0
123.159424 168.0
123.203178 112.0
123.216278 232.0
123.251526 184.0
123.296585 56.0
123.315742 84.0
123.338577 84.0
123.354057 112.0
123.425232 144.0
123.443565 336.0
123.464607 104.0
123.519905 32.0
123.544235 56.0
123.591942 128.0
123.61998 188.0
123.643806 80.0
123.668152 144.0
123.726921 212.0
123.832001 144.0
123.860794 64.0
123.885307 124.0
123.911819 116.0
123.984871 84.0
124.002602 120.0
124.01812 176.0
124.063484 2880.0
124.094742 180.0
124.157799 36.0
124.204376 184.0
124.222122 132.0
124.239868 180.0
124.315308 160.0
124.349716 180.0
124.381889 208.0
124.401871 60.0
124.448494 40.0
124.483002 140.0
124.517944 160.0
124.594925 228.0
124.598122 76.0
124.635071 180.0
124.677292 100.0
124.699516 176.0
124.726189 124.0
124.755089 148.0
124.771706 172.0
124.801781 92.0
124.89296 40.0
124.913162 148.0
125.034317 120.0
125.053162 192.0
125.09568 200.0
125.175606 108.0
125.197502 192.0
125.231285 56.0
125.2491 156.0
125.266212 176.0
125.298111 160.0
125.313705 160.0
125.335136 52.0
125.375572 84.0
125.40062 132.0
125.521439 148.0
125.536613 184.0
125.586876 336.0
125.697227 152.0
125.746323 140.0
125.770103 128.0
125.84008 148.0
125.883728 196.0
125.909309 48.0
125.927406 116.0
126.042252 196.0
126.091118 180.0
126.123802 192.0
126.188629 332.0
126.220367 204.0
126.293732 80.0
126.378746 180.0
126.407837 208.0
126.43499 180.0
126.474976 156.0
126.517509 144.0
126.535423 148.0
126.551094 168.0
126.610077 176.0
126.688698 172.0
126.70787 156.0
126.734756 152.0
126.784058 192.0
126.878204 116.0
126.927528 144.0
127.006027 108.0
127.032944 224.0
127.052246 252.0
127.124931 120.0
127.18428 172.0
127.333717 216.0
127.381676 172.0
127.450539 188.0
127.56897 144.0
127.612373 240.0
127.682083 112.0
127.715736 224.0
127.745064 140.0
127.952103 128.0
127.979126 236.0
128.036728 240.0
128.062714 1676.0
128.10524 120.0
128.148056 176.0
128.166077 180.0
128.184097 148.0
128.235641 144.0
128.276505 88.0
128.328369 44.0
128.37619 212.0
128.393753 84.0
128.441116 48.0
128.575394 156.0
128.619385 148.0
128.720978 56.0
128.750336 132.0
128.829391 340.0
128.922028 132.0
128.994354 164.0
129.042435 152.0
129.067398 652.0
129.093842 136.0
129.143295 176.0
129.182159 164.0
129.222778 124.0
129.254456 196.0
129.304245 220.0
129.415161 44.0
129.614487 72.0
129.657547 120.0
129.676971 68.0
129.76004 188.0
129.827576 148.0
129.847992 132.0
129.944717 176.0
129.995453 144.0
130.028885 176.0
130.037659 128.0
130.064651 1404.0
130.156631 176.0
130.192963 72.0
130.230682 216.0
130.252014 100.0
130.290634 172.0
130.313354 216.0
130.34874 196.0
130.367889 324.0
130.393082 192.0
130.473312 84.0
130.501999 172.0
130.520187 180.0
130.536102 176.0
130.55748 160.0
130.597519 180.0
130.622375 172.0
130.652115 176.0
130.689026 212.0
130.711273 64.0
130.795471 180.0
130.81369 56.0
130.82962 180.0
130.85466 128.0
130.938919 188.0
131.047165 888.0
131.066986 164.0
131.086014 292.0
131.112076 56.0
131.178162 188.0
131.297272 152.0
131.333221 112.0
131.479248 108.0
131.537933 196.0
131.584244 120.0
131.600235 144.0
131.6185 104.0
131.659607 116.0
131.697632 68.0
131.78981 100.0
131.84465 164.0
131.881226 168.0
132.024582 108.0
132.054993 524.0
132.099945 136.0
132.375397 36.0
132.3983 128.0
132.586151 204.0
132.60907 120.0
132.625122 172.0
132.664963 136.0
132.820023 160.0
132.87738 104.0
132.930984 164.0
133.045334 9048.0
133.099533 720.0
133.125687 256.0
133.160873 168.0
133.178101 80.0
133.224045 148.0
133.26976 40.0
133.31366 92.0
133.334335 196.0
133.38031 56.0
133.476868 56.0
133.561768 140.0
133.582657 124.0
133.603363 88.0
133.651688 140.0
133.702713 440.0
133.74144 144.0
133.76445 208.0
133.794388 172.0
133.822006 112.0
133.86203 176.0
134.015488 56.0
134.052811 2092.0
134.078415 208.0
134.107239 224.0
134.15097 132.0
134.201767 152.0
134.250412 228.0
134.30365 80.0
134.347488 128.0
134.363632 152.0
134.379791 80.0
134.430557 104.0
134.471756 140.0
134.537766 160.0
134.566742 52.0
134.585205 140.0
134.608307 128.0
134.632401 192.0
134.670654 48.0
134.69458 136.0
134.728806 208.0
134.749313 172.0
134.790741 176.0
134.831772 344.0
134.851669 220.0
134.871506 164.0
134.876846 152.0
134.888245 200.0
134.909683 196.0
134.93956 328.0
134.988327 188.0
134.998123 180.0
135.013092 536.0
135.060837 52396.0
135.118118 140316.0
135.179855 164.0
135.203857 224.0
135.233902 208.0
135.264252 116.0
135.319244 272.0
135.353928 156.0
135.399841 200.0
135.438477 128.0
135.466385 204.0
135.497955 1180.0
135.536453 188.0
135.565216 232.0
135.597931 140.0
135.636032 112.0
135.663742 72.0
135.690063 108.0
135.718582 44.0
135.736664 220.0
135.750748 336.0
135.772842 88.0
135.797226 120.0
135.830322 120.0
135.872543 40.0
135.880402 76.0
135.889267 196.0
135.942612 140.0
135.964523 64.0
135.982025 168.0
136.067215 15072.0
136.120941 14172.0
136.174622 48.0
136.211014 176.0
136.230606 96.0
136.267914 196.0
136.334991 56.0
136.351761 104.0
136.381622 144.0
136.399796 132.0
136.421997 116.0
136.447571 248.0
136.475174 132.0
136.517807 208.0
136.536423 48.0
136.561874 76.0
136.586807 160.0
136.605576 88.0
136.638382 96.0
136.655762 236.0
136.694946 56.0
136.734177 84.0
136.770447 140.0
136.791168 248.0
136.819 76.0
136.841248 120.0
136.870148 180.0
136.885986 208.0
136.914825 148.0
136.944366 144.0
136.985931 160.0
136.996292 112.0
137.00412 112.0
137.02298 460.0
137.069855 1348.0
137.122589 920.0
137.160324 124.0
137.187393 76.0
137.215195 192.0
137.239685 144.0
137.258331 96.0
137.276718 92.0
137.312241 280.0
137.351624 164.0
137.390244 72.0
137.398743 40.0
137.416946 144.0
137.551926 176.0
137.643585 124.0
137.690063 56.0
137.725525 44.0
137.757797 128.0
137.778824 108.0
137.818542 144.0
137.898285 72.0
137.93306 148.0
137.986832 132.0
138.007874 56.0
138.02951 1076.0
138.071945 1848.0
138.121552 92.0
138.154541 152.0
138.202286 68.0
138.262848 128.0
138.296448 112.0
138.374237 48.0
138.396286 164.0
138.417358 108.0
138.436096 72.0
138.48761 56.0
138.574295 28.0
138.663345 116.0
138.925079 192.0
138.97757 28.0
139.039154 3184.0
139.076508 152.0
139.101959 128.0
139.132477 92.0
139.188828 104.0
139.360306 116.0
139.527176 80.0
139.564789 72.0
139.604767 36.0
139.792969 216.0
139.897614 80.0
140.038574 296.0
140.186234 68.0
140.252228 116.0
140.280518 200.0
140.306442 164.0
140.374817 164.0
140.436142 84.0
140.577698 240.0
140.594223 84.0
140.624893 128.0
140.7146 212.0
140.809067 112.0
140.825592 80.0
140.912994 264.0
140.986252 68.0
141.06987 340.0
141.10817 132.0
141.246338 160.0
141.449829 56.0
141.506653 124.0
141.655853 192.0
141.696121 56.0
141.755356 144.0
141.935516 172.0
142.042236 180.0
142.074142 188.0
142.305664 76.0
142.36528 156.0
142.431534 168.0
142.474304 144.0
142.526566 56.0
142.635895 208.0
142.652527 148.0
142.773788 140.0
142.809464 184.0
142.849915 120.0
142.871323 144.0
142.963882 160.0
142.995056 120.0
143.049515 2612.0
143.086227 1916.0
143.125778 132.0
143.159332 76.0
143.204575 124.0
143.23793 60.0
143.287949 80.0
143.316544 116.0
143.354675 124.0
143.388031 28.0
143.419022 84.0
143.459549 72.0
143.502457 32.0
143.564453 68.0
143.6017 104.0
143.643158 136.0
143.75769 104.0
143.810196 64.0
143.874649 60.0
143.986877 120.0
144.027481 48.0
144.053711 344.0
144.088364 364.0
144.113388 104.0
144.197113 40.0
144.266434 200.0
144.287231 120.0
144.390778 64.0
144.417084 136.0
144.524734 160.0
144.910233 276.0
144.950241 176.0
144.993774 116.0
145.039124 184.0
145.061096 148.0
145.09436 224.0
145.12355 96.0
145.205078 108.0
145.224274 144.0
145.296234 148.0
145.358627 192.0
145.385025 40.0
145.442627 160.0
145.581879 52.0
145.641922 124.0
145.783661 112.0
145.849686 68.0
145.940201 164.0
146.013809 148.0
146.052994 6456.0
146.108276 124.0
146.127518 40.0
146.175644 140.0
146.194901 72.0
146.228592 120.0
146.31044 60.0
146.353775 80.0
146.37767 160.0
146.435181 164.0
146.548874 44.0
146.570557 48.0
146.664551 36.0
146.693481 60.0
146.712769 120.0
146.780884 156.0
146.818863 124.0
146.928207 72.0
146.949112 112.0
146.992554 108.0
147.060944 12284.0
147.087936 236.0
147.109772 64.0
147.144608 48.0
147.161514 64.0
147.209808 44.0
147.229126 88.0
147.330231 140.0
147.378891 92.0
147.477982 52.0
147.520386 88.0
147.600037 196.0
147.635132 44.0
147.678665 108.0
147.727051 60.0
147.848831 48.0
147.897537 132.0
147.956955 104.0
148.067963 11036.0
148.104248 92.0
148.110565 156.0
148.146393 184.0
148.201569 64.0
148.245193 208.0
148.299683 148.0
148.361526 84.0
148.390625 108.0
148.424576 60.0
148.458527 52.0
148.482773 52.0
148.524002 108.0
148.571365 92.0
148.664719 52.0
148.730255 36.0
148.764297 168.0
148.783493 60.0
148.863785 188.0
148.899719 156.0
148.939072 140.0
149.029007 204.0
149.07579 6156.0
149.110886 68.0
149.132965 352.0
149.20639 104.0
149.234238 124.0
149.271072 100.0
149.301422 152.0
149.353241 236.0
149.374191 116.0
149.417984 76.0
149.443237 240.0
149.520187 56.0
149.562393 104.0
149.593201 56.0
149.610245 80.0
149.634583 104.0
149.700562 124.0
149.734421 188.0
149.858658 84.0
149.92305 180.0
149.982956 120.0
150.071869 5924.0
150.116119 252.0
150.136551 140.0
150.174988 132.0
150.236313 116.0
150.24379 104.0
150.398743 192.0
150.581528 212.0
150.622269 44.0
150.697998 156.0
150.742905 200.0
150.82019 104.0
150.854416 160.0
150.908188 140.0
150.930206 244.0
150.970261 188.0
150.99762 144.0
151.03952 27736.0
151.07663 616.0
151.110931 180.0
151.130768 180.0
151.158569 72.0
151.189499 56.0
151.207489 160.0
151.33638 100.0
151.3638 184.0
151.388748 104.0
151.500473 60.0
151.721039 72.0
151.801956 40.0
151.883652 64.0
152.043198 1452.0
152.114655 124.0
152.145462 260.0
152.211746 48.0
152.361572 60.0
152.415634 56.0
152.447571 72.0
152.671295 68.0
152.690964 80.0
152.804123 84.0
152.831177 164.0
152.991165 80.0
153.041321 512.0
153.076004 248.0
153.146301 92.0
153.219162 128.0
153.237442 156.0
153.262085 120.0
153.279327 152.0
153.414886 60.0
153.552979 164.0
153.572708 216.0
153.663986 80.0
153.705933 108.0
153.814514 92.0
154.029358 224.0
154.13559 76.0
154.427307 120.0
154.570801 208.0
154.68959 100.0
154.756439 128.0
154.875305 84.0
154.919907 124.0
154.981842 176.0
155.026672 128.0
155.05925 316.0
155.084274 168.0
155.278397 140.0
155.599426 68.0
155.890045 148.0
156.010895 180.0
156.058746 124.0
156.088913 156.0
156.180923 164.0
156.414825 156.0
156.50943 172.0
156.567764 188.0
156.706207 40.0
156.731125 112.0
156.883163 80.0
156.952103 160.0
157.065506 160.0
157.100113 192.0
157.21489 200.0
157.313293 132.0
157.412109 60.0
157.709412 208.0
157.726913 76.0
157.976974 124.0
158.061127 836.0
158.102081 124.0
158.124603 64.0
158.15715 108.0
158.204712 100.0
158.242264 144.0
158.465164 156.0
158.512772 180.0
158.565399 32.0
158.613937 100.0
158.888885 132.0
158.941574 52.0
159.056168 464.0
159.118896 188.0
159.594116 164.0
159.617279 156.0
159.654999 228.0
159.695236 88.0
159.715363 152.0
159.813477 216.0
159.92421 156.0
160.009796 116.0
160.06749 1308.0
160.118073 44.0
160.186081 196.0
160.226395 152.0
160.30954 116.0
160.407974 148.0
160.571732 216.0
160.629745 120.0
160.748322 112.0
160.861908 124.0
160.919968 136.0
161.02005 228.0
161.076416 14660.0
161.149811 140.0
161.202484 232.0
161.259705 172.0
161.372894 100.0
161.40004 152.0
161.443039 96.0
161.708679 44.0
161.840317 88.0
161.873245 172.0
161.916565 72.0
161.964417 144.0
161.994812 132.0
162.015076 88.0
162.078171 1792.0
162.131638 156.0
162.177582 188.0
162.19754 88.0
162.278656 68.0
162.32811 56.0
162.391815 116.0
162.471405 144.0
162.534836 84.0
162.575439 84.0
162.595749 48.0
162.643967 148.0
162.684586 164.0
162.704895 80.0
162.773453 68.0
162.84964 140.0
162.874695 88.0
162.920761 184.0
162.956329 140.0
163.042038 400.0
163.09201 30620.0
163.164749 148.0
163.182541 48.0
163.220673 112.0
163.263916 92.0
163.309692 108.0
163.347092 136.0
163.373291 68.0
163.399002 72.0
163.424164 48.0
163.441986 44.0
163.515778 132.0
163.546326 148.0
163.566681 36.0
163.592148 48.0
163.612503 164.0
163.670013 48.0
163.711807 44.0
163.747467 132.0
163.896927 60.0
163.930893 168.0
164.002258 160.0
164.089951 6144.0
164.143082 528.0
164.361847 60.0
164.443512 180.0
164.494568 120.0
164.537964 68.0
164.657974 44.0
164.706512 116.0
164.847031 104.0
164.893021 56.0
164.918747 64.0
164.959488 88.0
165.053894 492.0
165.092499 904.0
165.141037 480.0
165.187073 104.0
165.251755 128.0
165.297089 56.0
165.33197 96.0
165.349411 136.0
165.355957 60.0
165.365067 136.0
165.404587 68.0
165.466019 76.0
165.535355 156.0
165.604309 60.0
165.868225 60.0
165.919495 52.0
165.98616 128.0
166.03746 144.0
166.091827 140.0
166.129791 108.0
166.204193 96.0
166.222153 92.0
166.275955 200.0
166.353058 84.0
166.375137 160.0
166.412109 108.0
166.537933 136.0
166.622711 68.0
166.648407 124.0
167.095779 132.0
167.139511 100.0
167.394348 72.0
167.523132 104.0
167.605576 184.0
167.716599 108.0
168.077454 168.0
168.131195 160.0
168.237473 168.0
168.28653 144.0
168.62236 56.0
168.878326 172.0
168.99733 76.0
169.071716 212.0
169.108597 128.0
169.21991 132.0
169.481522 144.0
169.512619 132.0
169.852249 108.0
169.922302 80.0
170.11174 152.0
170.174057 148.0
170.252884 56.0
170.860199 100.0
170.881012 244.0
170.998108 176.0
171.055374 200.0
171.224625 140.0
171.391342 160.0
172.069489 160.0
172.220947 80.0
172.24968 56.0
172.315002 84.0
172.403839 36.0
172.429977 92.0
172.495316 52.0
172.524078 72.0
172.628662 132.0
172.748978 72.0
172.780365 64.0
172.856247 104.0
172.966171 52.0
173.05545 348.0
173.105881 144.0
173.175644 76.0
173.272568 64.0
173.296158 120.0
173.324966 132.0
173.348557 184.0
173.374756 132.0
173.615952 116.0
174.062698 168.0
174.085709 180.0
174.395721 152.0
174.548203 168.0
174.571869 148.0
174.656036 188.0
174.816528 104.0
174.916534 44.0
175.038605 876.0
175.091995 1472.0
175.185135 76.0
175.285263 176.0
175.304672 140.0
175.358002 220.0
175.39859 136.0
175.509308 144.0
175.628189 216.0
176.043716 136.0
176.073364 1480.0
176.098862 2544.0
176.187622 44.0
176.240463 44.0
176.346176 144.0
176.399048 84.0
176.475708 64.0
176.494217 48.0
176.515366 208.0
176.576202 92.0
176.84343 152.0
177.055084 432.0
177.097641 760.0
177.145294 44.0
177.312225 124.0
177.405701 148.0
177.633057 36.0
177.757751 204.0
177.797638 140.0
177.874527 124.0
178.017899 136.0
178.057587 168.0
178.102829 9744.0
178.211807 40.0
178.270264 108.0
178.347351 52.0
178.379242 76.0
178.416458 108.0
178.560043 100.0
178.626541 184.0
178.83548 200.0
178.871368 144.0
179.009811 52.0
179.105133 1348.0
179.14032 148.0
179.185608 108.0
179.308182 176.0
179.356155 100.0
179.47879 64.0
179.563751 84.0
179.703644 104.0
179.724197 204.0
180.117401 412.0
180.199463 156.0
180.239548 244.0
180.485458 160.0
181.05867 200.0
181.095627 160.0
181.167953 48.0
181.20813 48.0
181.390366 52.0
182.106796 124.0
182.202072 60.0
182.294861 68.0
182.609406 156.0
182.956543 96.0
183.075699 156.0
183.363281 164.0
183.417191 44.0
183.463013 124.0
183.765076 128.0
184.070084 268.0
184.088989 104.0
184.632187 220.0
184.813431 64.0
184.924377 148.0
185.065155 144.0
185.149094 72.0
185.176178 80.0
185.683014 124.0
185.742676 108.0
186.082336 180.0
186.16066 64.0
186.45134 116.0
186.663391 60.0
186.712341 44.0
186.758575 120.0
186.859222 104.0
186.94902 136.0
187.00618 156.0
187.056686 252.0
187.074997 708.0
187.145004 184.0
187.352005 136.0
187.785416 80.0
187.886353 64.0
187.919083 200.0
188.091019 108.0
188.181107 156.0
188.301254 76.0
188.481567 160.0
188.65181 184.0
188.949112 72.0
189.059265 536.0
189.099152 192.0
189.517456 172.0
189.55423 84.0
189.639191 60.0
189.817383 128.0
189.924347 108.0
190.020355 160.0
190.064255 196.0
190.102982 1956.0
190.220703 148.0
190.492554 64.0
190.602463 88.0
190.910339 188.0
191.071945 176.0
191.108017 280.0
191.273514 216.0
191.320312 72.0
191.397415 184.0
191.485535 136.0
191.587448 172.0
191.612244 96.0
191.661835 160.0
191.684097 52.0
191.754196 172.0
191.78862 104.0
191.857529 104.0
191.886749 180.0
191.90773 136.0
191.931976 176.0
191.956787 108.0
191.99353 160.0
192.052811 232.0
192.057861 124.0
192.1194 70900.0
192.194458 148.0
192.230103 200.0
192.290604 240.0
192.316818 40.0
192.376221 148.0
192.415131 108.0
192.44017 44.0
192.473175 176.0
192.490601 144.0
192.572311 76.0
192.614273 104.0
192.633911 132.0
192.661148 104.0
192.776672 148.0
192.812592 144.0
192.845764 80.0
192.889099 184.0
192.925919 76.0
192.948044 32.0
193.008865 164.0
193.06842 220.0
193.122696 8528.0
193.176376 68.0
193.225677 104.0
193.255035 44.0
193.277176 120.0
193.31868 72.0
193.34082 80.0
193.374481 108.0
193.407257 72.0
193.425415 64.0
193.490295 44.0
193.529694 120.0
193.559525 132.0
193.615509 92.0
193.717392 84.0
193.753403 52.0
193.789429 60.0
193.955704 48.0
193.99173 92.0
194.062759 136.0
194.126923 456.0
194.188614 64.0
194.264191 132.0
194.296799 88.0
194.335632 36.0
194.355057 124.0
194.374481 68.0
194.416565 184.0
194.438309 68.0
194.463287 72.0
194.55632 124.0
194.58075 128.0
194.606094 104.0
194.648407 136.0
194.681625 100.0
194.710388 188.0
194.74649 148.0
194.815948 56.0
194.87706 72.0
194.982666 76.0
195.125275 132.0
195.149445 120.0
195.19339 120.0
195.255127 76.0
195.28212 68.0
195.310745 124.0
195.46933 84.0
195.678085 80.0
195.973328 104.0
196.071182 136.0
196.327347 132.0
196.486328 92.0
196.575623 128.0
196.715179 104.0
196.762634 52.0
196.838028 100.0
197.075455 276.0
197.408096 252.0
197.71022 160.0
198.084915 200.0
198.500214 124.0
198.651672 52.0
198.988449 208.0
199.060837 164.0
199.086731 300.0
199.109192 124.0
199.496948 172.0
199.766922 136.0
200.059601 160.0
200.082123 148.0
200.817596 116.0
200.967102 152.0
201.006607 172.0
201.111038 196.0
201.235245 64.0
201.896469 84.0
202.06337 152.0
202.408676 68.0
202.9272 44.0
203.04631 112.0
203.072067 192.0
203.608246 40.0
204.017426 148.0
204.081863 264.0
204.122208 164.0
204.703125 184.0
205.030746 76.0
205.0849 164.0
205.161865 104.0
205.241699 72.0
205.858063 124.0
206.103729 48.0
206.126587 136.0
206.378128 192.0
207.107895 144.0
207.127945 76.0
207.394424 252.0
207.709839 128.0
208.112549 320.0
208.321274 124.0
208.522415 84.0
209.07814 180.0
209.737061 128.0
209.843719 104.0
210.137909 196.0
210.207153 104.0
210.862717 32.0
210.888733 76.0
211.09111 152.0
211.183655 128.0
211.588791 48.0
211.90448 48.0
211.947937 184.0
212.063858 100.0
212.084152 104.0
212.620728 208.0
213.078644 160.0
213.570801 128.0
214.077209 164.0
214.458878 152.0
214.654205 92.0
214.762115 192.0
214.805878 104.0
215.065567 148.0
215.129791 116.0
215.50946 68.0
216.114716 248.0
216.542114 108.0
216.635849 136.0
216.659286 188.0
217.082718 120.0
217.148819 112.0
217.671188 168.0
217.759293 296.0
218.885651 152.0
218.90921 84.0
218.985779 136.0
219.124237 160.0
219.351151 144.0
220.540726 76.0
220.794998 216.0
221.067169 356.0
222.032944 120.0
222.087967 88.0
222.113037 192.0
222.305878 84.0
222.74234 188.0
222.988953 168.0
223.131638 148.0
223.875534 136.0
224.063187 104.0
224.253891 56.0
224.68927 128.0
224.984726 168.0
225.058304 160.0
225.112259 124.0
225.477585 60.0
226.087692 164.0
226.252319 156.0
226.671646 132.0
226.827499 84.0
226.84848 100.0
227.082367 120.0
227.868866 112.0
228.936691 120.0
229.072235 152.0
229.638916 32.0
229.693207 128.0
230.082504 168.0
230.233475 164.0
230.668564 104.0
230.822769 60.0
231.394638 120.0
232.248474 224.0
232.458557 176.0
232.528351 220.0
232.97168 72.0
233.096252 72.0
233.217819 76.0
233.868729 96.0
234.108261 148.0
234.154938 148.0
234.889511 112.0
235.113297 212.0
235.154968 32.0
235.243484 84.0
235.707733 156.0
236.05954 136.0
236.395767 108.0
236.478409 92.0
236.968369 76.0
237.072556 144.0
237.409775 204.0
237.507919 48.0
238.081299 152.0
238.398285 40.0
238.585785 140.0
238.748749 72.0
238.797958 88.0
239.041 164.0
239.087463 164.0
239.182571 164.0
239.284164 116.0
240.097672 120.0
240.119263 96.0
240.403091 120.0
240.708694 40.0
241.067337 196.0
241.305038 112.0
241.490585 132.0
242.072418 160.0
242.159134 104.0
242.43486 72.0
242.599136 124.0
242.943375 68.0
243.312683 88.0
243.368576 148.0
243.617035 128.0
243.890488 176.0
244.537445 68.0
245.060608 236.0
245.086609 128.0
245.266296 204.0
246.078232 144.0
246.395966 164.0
247.008698 168.0
247.118195 140.0
247.14949 204.0
247.177643 72.0
247.424911 176.0
248.095352 208.0
248.126694 132.0
248.568954 124.0
249.046158 32.0
249.080811 128.0
249.10585 120.0
249.134109 152.0
249.159256 76.0
249.262939 72.0
249.423218 152.0
250.039703 64.0
250.074326 152.0
250.86496 176.0
251.079376 172.0
251.107758 188.0
251.84317 108.0
252.671402 176.0
252.97522 120.0
253.067032 248.0
253.114517 144.0
253.279205 256.0
253.580215 92.0
254.074234 136.0
254.789215 136.0
255.030731 120.0
255.084763 144.0
255.116699 152.0
256.115753 80.0
256.227234 104.0
256.370636 36.0
256.431183 108.0
256.542755 148.0
256.571442 56.0
256.638397 84.0
256.711731 72.0
257.093079 188.0
258.001709 220.0
258.41748 80.0
258.709717 168.0
258.958466 44.0
259.302063 112.0
259.500061 116.0
259.560974 44.0
259.596252 188.0
259.763031 104.0
259.910614 104.0
260.286163 84.0
261.022034 88.0
261.440216 108.0
262.280853 76.0
262.79361 180.0
263.394104 80.0
264.260498 124.0
265.103394 264.0
265.144531 132.0
266.091888 176.0
266.13269 116.0
266.155884 300.0
266.192383 88.0
266.790222 60.0
267.076385 184.0
267.105652 64.0
267.138184 164.0
267.174347 108.0
267.284607 172.0
267.714294 76.0
268.095459 208.0
269.106659 180.0
269.230743 136.0
269.982422 64.0
270.555023 144.0
271.07254 164.0
271.16748 280.0
271.58725 120.0
271.82019 108.0
272.140381 372.0
272.440735 164.0
272.871277 244.0
273.091614 92.0
273.134369 160.0
275.346008 136.0
275.478119 96.0
276.238464 152.0
276.575958 88.0
277.156158 156.0
277.6362 276.0
280.072449 128.0
280.185699 192.0
281.109314 132.0
281.171021 184.0
281.299561 64.0
281.476501 156.0
282.124695 116.0
282.850616 72.0
283.103241 184.0
283.168213 1396.0
283.284637 52.0
283.587494 128.0
283.97644 156.0
284.070374 120.0
284.11734 352.0
284.140808 244.0
284.165375 192.0
284.183411 80.0
284.190063 136.0
284.298523 184.0
285.091858 288.0
285.40033 28.0
286.032837 84.0
286.703094 92.0
287.046936 132.0
287.107635 160.0
287.610352 180.0
288.870758 92.0
289.290405 192.0
290.103424 76.0
290.384857 88.0
290.595184 52.0
291.858734 48.0
291.909729 140.0
291.943726 196.0
292.416626 108.0
292.498322 140.0
293.926331 152.0
293.974121 60.0
294.189148 120.0
294.61261 108.0
295.003967 172.0
295.070557 140.0
295.112915 124.0
295.168549 9296.0
295.358887 52.0
295.433075 68.0
295.575073 72.0
295.604156 44.0
295.693146 32.0
295.787079 80.0
295.864288 48.0
295.912903 40.0
295.997833 36.0
296.171967 1660.0
296.250214 64.0
296.347198 76.0
296.402008 104.0
296.597382 156.0
296.631653 68.0
296.659088 156.0
296.734497 60.0
296.799652 72.0
297.063721 68.0
297.159973 148.0
297.36911 148.0
297.539032 84.0
297.571655 80.0
297.607574 96.0
297.712433 112.0
297.77771 64.0
298.215637 112.0
298.265594 36.0
298.66449 68.0
298.939728 60.0
298.974121 136.0
299.160858 644.0
299.848907 104.0
300.143372 288.0
300.266083 52.0
300.638672 72.0
300.721497 104.0
300.921722 76.0
301.001129 144.0
301.146179 156.0
301.906525 180.0
302.145966 92.0
302.178345 152.0
302.238617 104.0
303.159729 120.0
303.502899 132.0
303.752625 124.0
304.266235 172.0
305.635651 72.0
306.342407 116.0
308.797455 60.0
309.111145 176.0
309.202148 44.0
309.457672 80.0
309.485687 40.0
309.594238 68.0
310.168854 148.0
310.461823 200.0
311.09845 116.0
311.358307 204.0
312.195251 4888.0
312.2453 156.0
312.286163 92.0
312.32132 64.0
312.550018 104.0
312.609833 108.0
312.752777 124.0
312.823181 176.0
312.905487 112.0
313.131073 660.0
313.180389 8528.0
313.342224 60.0
313.366882 52.0
313.465546 72.0
313.493744 80.0
313.902649 80.0
313.934387 76.0
314.057831 48.0
314.126129 300.0
314.177246 836.0
314.235535 128.0
314.417725 32.0
314.509491 40.0
314.548309 80.0
314.700134 100.0
314.779388 160.0
314.887299 140.0
315.000305 72.0
315.109833 40.0
315.186615 280.0
315.463226 40.0
315.760254 76.0
316.135254 112.0
316.170654 144.0
316.195435 60.0
316.344086 136.0
316.372406 48.0
316.482178 92.0
316.942657 52.0
317.087952 108.0
317.34317 48.0
318.16983 140.0
318.429047 164.0
319.862 120.0
320.723999 32.0
321.405182 120.0
321.708557 112.0
323.606964 100.0
324.542145 364.0
325.266846 32.0
325.701324 112.0
326.650299 168.0
326.736633 88.0
327.305328 96.0
327.420563 44.0
327.463776 44.0
327.561035 252.0
327.795227 136.0
327.849274 168.0
328.007874 128.0
328.134033 132.0
328.191742 104.0
328.267456 136.0
328.718384 244.0
328.873566 128.0
328.985474 216.0
329.306854 108.0
329.411591 148.0
329.49469 60.0
329.519989 96.0
329.548889 160.0
329.595856 164.0
329.631989 136.0
329.755707 156.0
329.863312 128.0
330.026642 240.0
330.067535 228.0
330.150574 28564.0
330.206116 2936.0
330.32254 68.0
330.380432 48.0
330.434143 180.0
330.485931 100.0
330.544006 116.0
330.579437 64.0
330.626465 132.0
330.673523 60.0
330.755371 72.0
330.841309 68.0
330.888916 128.0
330.928345 132.0
331.042816 92.0
331.152161 3760.0
331.209747 1004.0
331.367035 64.0
331.459381 76.0
331.528229 48.0
331.568115 84.0
331.602142 92.0
331.676056 56.0
331.746948 152.0
331.814606 64.0
331.927002 32.0
332.153046 652.0
332.220795 128.0
332.376801 60.0
332.442108 84.0
332.474762 64.0
332.536469 60.0
332.565521 76.0
332.708527 92.0
332.805115 48.0
332.841431 76.0
332.870483 88.0
333.117462 92.0
333.159363 164.0
333.190094 96.0
333.222809 92.0
333.257843 68.0
333.444458 112.0
333.537079 48.0
333.666199 100.0
333.749847 96.0
333.789825 92.0
333.818909 60.0
334.240875 60.0
334.273651 172.0
334.375549 64.0
334.488373 92.0
334.634003 104.0
335.267822 96.0
335.548492 156.0
336.77829 68.0
337.436066 124.0
338.032288 64.0
338.955078 88.0
341.56543 80.0
341.675812 76.0
343.894165 72.0
344.473907 80.0
344.821228 72.0
345.538605 48.0
345.668121 60.0
345.916077 72.0
346.204895 176.0
346.582733 80.0
348.333862 124.0
348.716583 80.0
351.35675 76.0
351.931519 28.0
353.056305 44.0
355.247467 72.0
355.712799 68.0
360.496155 40.0
363.1008 80.0
366.190765 104.0
367.742554 76.0
372.598175 184.0
373.374664 40.0
374.706512 176.0
376.898102 64.0
378.879059 60.0
386.811829 68.0
391.121887 104.0
399.491364 68.0
399.94104 60.0
402.752106 72.0
403.291534 112.0
403.587372 84.0
405.961945 80.0
412.96167 68.0
415.777496 48.0
416.488007 32.0
426.038849 92.0
431.491333 80.0
435.303375 92.0
443.522491 96.0
443.614716 48.0
443.677612 44.0
444.755707 60.0
450.981201 84.0
451.932709 60.0
452.52951 76.0
452.681946 40.0
453.380951 76.0
457.90564 60.0
459.056305 104.0
462.148926 112.0
462.341492 36.0
463.536285 44.0
464.282227 88.0
465.436584 64.0
465.977753 72.0
467.590332 140.0
492.311707 56.0
504.164581 84.0
506.119446 64.0
509.007202 136.0
510.269775 80.0
514.820862 48.0
514.924744 100.0
516.276062 72.0
519.809509 84.0
521.567139 96.0
525.711792 32.0
528.458069 52.0
528.618225 56.0
530.917908 48.0
538.960022 56.0
555.291199 52.0
562.71698 32.0
579.377625 116.0
584.31781 36.0
584.635437 72.0
587.960754 60.0
621.07782 48.0
623.918335 68.0
626.018066 64.0
627.792175 84.0
637.157471 96.0
637.981628 64.0
651.6427 92.0
659.485535 96.0
661.521362 64.0
663.893677 60.0
667.946106 112.0
670.974182 140.0
671.50531 48.0
674.820618 76.0
676.584839 92.0
678.211487 176.0
681.517273 112.0
681.605591 212.0
682.02655 200.0
686.222534 176.0
688.309631 108.0
691.095703 40.0
696.674133 104.0
698.193176 164.0
699.608582 144.0
700.298401 132.0
714.756653 140.0
715.049377 176.0
715.48053 188.0
715.66687 112.0
719.964905 236.0
734.364807 156.0
742.320312 52.0
749.920715 88.0
755.25531 124.0
761.805908 240.0
776.083923 212.0
777.204346 248.0
780.448181 120.0
781.922363 84.0
785.270874 208.0
790.058044 104.0
794.169739 56.0
794.326782 76.0
794.910278 80.0
796.679504 196.0
797.656738 84.0
797.982788 48.0
799.507202 160.0
800.942932 188.0
801.252747 196.0
805.190063 148.0
806.879639 92.0
807.365967 152.0
808.904968 220.0
815.450684 240.0
816.667419 200.0
823.849854 116.0
826.331116 212.0
828.226013 104.0
831.144104 120.0
831.419556 140.0
832.142822 188.0
833.044495 128.0
833.756958 188.0
836.581177 204.0
840.558105 184.0
842.284363 252.0
843.399597 124.0
850.530029 116.0
851.313843 128.0
855.948547 100.0
860.525757 76.0
860.578308 172.0
861.092163 80.0
862.564636 204.0
863.734131 104.0
864.436218 80.0
865.033203 128.0
871.26123 52.0
872.759949 116.0
874.048157 176.0
875.218994 140.0
876.085327 176.0
877.493835 120.0
878.095337 132.0
880.166748 108.0
880.662842 148.0
881.283142 56.0
882.376526 52.0
883.529846 196.0
886.52594 156.0
887.883545 136.0
889.449951 104.0
890.720703 172.0
891.184082 184.0
894.175232 192.0
894.484741 148.0
898.775879 176.0
900.214478 144.0
901.905273 156.0
901.947083 172.0
902.437317 264.0
903.101135 160.0
903.316467 152.0
903.998535 128.0
905.046082 204.0
905.728088 160.0
906.214111 36.0
906.417786 228.0
906.645508 180.0
906.999146 160.0
909.50647 160.0
909.740601 64.0
910.911621 72.0
911.127869 216.0
912.323792 176.0
913.37616 184.0
913.971802 184.0
914.651855 112.0
915.290039 184.0
919.745361 172.0
920.186035 272.0
921.110046 236.0
921.460449 160.0
921.871338 40.0
922.179565 156.0
922.832397 104.0
923.225464 196.0
925.08905 56.0
927.984985 72.0
928.37915 144.0
929.871582 236.0
933.802612 104.0
933.930298 128.0
934.015442 156.0
934.459595 204.0
934.922058 136.0
935.128967 68.0
935.634216 128.0
937.741882 124.0
937.924744 176.0
939.34552 160.0
939.449219 96.0
942.880859 188.0
944.115784 188.0
944.317627 80.0
945.700378 156.0
947.672302 128.0
947.800964 56.0
949.106628 44.0
949.450012 156.0
949.781189 32.0
950.805847 220.0
951.327576 176.0
951.708252 164.0
954.190491 116.0
955.451294 148.0
958.004944 120.0
958.080811 248.0
958.400452 108.0
958.49292 112.0
959.528381 156.0
960.934631 144.0
962.74939 52.0
962.971741 180.0
963.033508 96.0
963.960205 188.0
964.603027 192.0
964.936829 140.0
965.660339 184.0
966.198547 48.0
966.297485 40.0
966.854431 44.0
967.937744 120.0
968.024475 168.0
968.625244 204.0
968.817261 212.0
968.916382 220.0
969.052734 152.0
970.484497 84.0
971.973145 152.0
973.593384 36.0
973.916382 200.0
974.612183 224.0
975.954773 172.0
976.551758 176.0
976.844116 176.0
978.182007 180.0
978.455933 88.0
980.673584 120.0
981.839539 244.0
982.363464 76.0
983.361816 176.0
984.329468 180.0
985.066467 80.0
986.503784 156.0
988.386353 148.0
989.945068 156.0
991.680481 84.0
993.285645 268.0
994.170349 208.0
995.777527 88.0
995.896912 172.0
996.286377 156.0
996.581665 232.0
996.789001 128.0
998.272583 180.0
999.606201 124.0
1000.235535 92.0
1000.405518 148.0
1000.789551 56.0
1001.998901 44.0
1002.389526 152.0
1003.259338 200.0
1005.02533 168.0
1005.17041 168.0
1005.435486 140.0
1007.07074 128.0
1007.178101 168.0
1007.367615 232.0
1007.784607 112.0
1009.194092 136.0
1009.466003 136.0
1010.345215 52.0
1010.631104 148.0
1010.769104 136.0
1012.130066 272.0
1012.256714 200.0
1012.750671 152.0
1016.250061 44.0
1017.208374 192.0
1020.72821 152.0
1022.032227 180.0
1022.203979 56.0
1022.484009 108.0
1023.254272 128.0
1023.744568 232.0
1024.152222 72.0
1025.343628 176.0
1028.04126 96.0
1028.52002 196.0
1028.62854 136.0
1029.324463 144.0
1030.934204 116.0
1032.084839 164.0
1032.506958 304.0
1032.570923 204.0
1032.78833 188.0
1033.831177 188.0
1034.055176 144.0
1034.439209 28.0
1034.701782 104.0
1035.182007 172.0
1036.879639 168.0
1038.116943 200.0
1038.630127 180.0
1039.958252 112.0
1040.048096 132.0
1040.388428 176.0
1041.358032 144.0
1042.340942 156.0
1042.514404 144.0
1044.67627 84.0
1044.790649 120.0
1045.009399 188.0
1045.318237 200.0
1045.395508 48.0
1045.852417 68.0
1046.927612 100.0
1049.279541 204.0
1050.124268 208.0
1050.595215 180.0
1051.20166 188.0
1051.434082 128.0
1051.969727 148.0
1052.208618 132.0
1052.395874 140.0
1052.5896 232.0
1052.660645 148.0
1053.306519 68.0
1053.894409 196.0
1054.288574 136.0
1055.646118 192.0
1056.377075 128.0
1056.441772 208.0
1056.97876 220.0
1057.036987 164.0
1057.418823 116.0
1057.640015 188.0
1057.917236 144.0
1057.968994 180.0
1058.642334 208.0
1058.726562 188.0
1059.179932 80.0
1060.391602 180.0
1061.247314 68.0
1061.325073 96.0
1061.590942 156.0
1062.855957 68.0
1063.024658 136.0
1063.160889 156.0
1064.725586 136.0
1065.557007 132.0
1066.28479 184.0
1067.611084 180.0
1068.183472 224.0
1068.450195 260.0
1069.335083 212.0
1070.604736 104.0
1071.334229 144.0
1071.640381 144.0
1071.790283 40.0
1071.861938 80.0
1072.077026 176.0
1072.917847 180.0
1073.145996 132.0
1073.485107 192.0
1073.654663 124.0
1074.102539 132.0
1074.274292 172.0
1074.965942 172.0
1075.938477 40.0
1076.52002 200.0
1076.787354 120.0
1077.048584 56.0
1077.120483 96.0
1077.708496 284.0
1078.375 228.0
1078.669189 124.0
1078.789429 152.0
1079.100708 172.0
1079.231445 184.0
1080.105469 168.0
1080.415283 148.0
1080.683838 168.0
1080.781616 164.0
1081.030273 148.0
1081.207031 140.0
1081.691284 248.0
1082.922363 188.0
1083.321899 144.0
1083.714966 176.0
1084.062256 180.0
1084.462158 160.0
1085.307739 72.0
1086.429321 172.0
1087.604004 164.0
1088.142212 260.0
1088.641235 300.0
1089.055054 216.0
1089.771118 56.0
1091.322266 160.0
1091.605103 164.0
1091.651123 84.0
1091.736572 140.0
1092.144409 136.0
1092.453491 212.0
1092.914062 132.0
1093.519531 152.0
1093.578735 72.0
1094.046143 248.0
1094.11853 152.0
1095.600342 112.0
1095.686035 176.0
1096.094482 156.0
1096.318481 56.0
1096.483276 140.0
1096.536011 144.0
1099.069824 192.0
1099.85376 196.0
1100.328979 200.0
1100.421509 132.0
1101.25354 148.0
1101.312988 144.0
1101.748901 132.0
1101.914185 56.0
1102.515503 148.0
1102.892212 128.0
1103.077271 204.0
1103.493774 132.0
1103.619385 160.0
1104.426147 124.0
1104.637939 140.0
1105.081177 52.0
1105.279663 212.0
1105.517822 172.0
1105.623779 188.0
1105.928223 100.0
1106.106934 108.0
1106.947754 156.0
1107.159668 240.0
1107.464355 212.0
1108.093628 180.0
1108.464722 144.0
1108.590698 128.0
1109.021484 76.0
1109.140747 188.0
1109.359497 160.0
1109.578247 140.0
1109.657837 116.0
1109.850098 180.0
1110.214844 164.0
1110.26123 164.0
1110.599487 128.0
1111.640015 184.0
1111.667114 152.0
1112.397827 104.0
1113.72583 100.0
1114.0979 180.0
1115.054688 164.0
1115.20752 132.0
1115.440186 132.0
1116.27124 168.0
1116.331177 160.0
1118.080811 192.0
1118.393555 172.0
1118.493408 48.0
1119.359009 104.0
1120.244751 152.0
1120.53125 168.0
1120.744507 160.0
1121.230957 172.0
1121.550903 164.0
1121.664185 136.0
1122.490967 108.0
1123.417969 164.0
1123.671509 200.0
1123.771606 176.0
1123.965088 124.0
1124.432251 164.0
1125.533691 156.0
1126.034668 152.0
1126.609009 148.0
1127.624756 124.0
1127.912109 108.0
1128.012451 128.0
1128.721069 148.0
1129.001953 132.0
1129.062134 156.0
1129.302979 168.0
1129.570557 192.0
1129.697632 124.0
1129.884888 80.0
1130.353271 136.0
1130.574097 144.0
1131.062744 212.0
1133.306274 180.0
1133.755249 136.0
1134.197632 176.0
1134.653442 40.0
1134.800903 108.0
1134.9552 200.0
1135.920898 180.0
1135.967896 92.0
1136.07666 160.0
1136.611938 172.0
1137.081787 176.0
1137.417358 204.0
1138.088745 168.0
1138.350586 224.0
1138.787109 156.0
1139.096069 156.0
1139.452148 104.0
1139.505859 84.0
1139.606689 156.0
1139.841919 196.0
1140.144287 232.0
1140.4198 156.0
1141.051758 164.0
1141.307251 200.0
1141.77124 244.0
1142.208496 144.0
1142.443848 52.0
1142.760132 40.0
1142.995605 256.0
1143.325317 196.0
1143.74939 156.0
1144.018677 124.0
1144.099365 196.0
1144.759277 216.0
1145.365479 136.0
1145.924561 104.0
1146.554443 156.0
1146.773682 96.0
1146.901733 160.0
1147.393921 156.0
1147.54895 200.0
1147.690552 124.0
1147.81189 176.0
1148.256958 168.0
1148.337891 156.0
1148.405396 136.0
1148.459351 36.0
1149.214966 164.0
1149.444336 156.0
1149.997681 176.0
1150.065186 184.0
1150.207031 144.0
1150.342041 228.0
1151.449341 148.0
1151.510132 156.0
1151.719482 192.0
1151.895142 124.0
1151.942383 140.0
1152.597778 48.0
1152.814209 164.0
1152.881592 184.0
1153.496704 188.0
1153.787354 128.0
1154.490601 140.0
1154.673218 148.0
1155.139893 200.0
1156.5 196.0
1157.011108 200.0
1157.068604 176.0
1158.030151 172.0
1158.274048 172.0
1158.409546 124.0
1158.626343 136.0
1159.150879 348.0
1159.486938 120.0
1159.669922 184.0
1159.947754 120.0
1160.239258 124.0
1161.019043 108.0
1161.066528 112.0
1161.161499 188.0
1161.331055 164.0
1161.37854 92.0
1162.294434 236.0
1162.938599 148.0
1163.183472 76.0
1163.434692 56.0
1163.679077 152.0
1166.165405 148.0
1166.27417 228.0
1166.763672 92.0
1167.028809 212.0
1167.110352 36.0
1167.497925 196.0
1167.715576 152.0
1167.838013 152.0
1168.055664 180.0
1168.164551 104.0
1168.212158 96.0
1168.280151 172.0
1168.341431 76.0
1168.73877 196.0
1169.008179 196.0
1169.192017 40.0
1169.26001 176.0
1169.532349 184.0
1169.607178 168.0
1169.981567 184.0
1170.30835 192.0
1170.982544 168.0
1171.118774 168.0
1171.922607 128.0
1172.113403 152.0
1172.965332 252.0
1173.74939 408.0
1173.967651 120.0
1174.247192 216.0
1175.154541 140.0
1175.215942 140.0
1175.331909 112.0
1175.468384 104.0
1175.679932 132.0
1175.911987 160.0
1176.109985 160.0
1176.273804 196.0
1176.89502 144.0
1177.222778 100.0
1177.550659 224.0
1177.639404 184.0
1178.52063 84.0
1178.582153 164.0
1178.869141 160.0
1178.9375 220.0
1179.511597 188.0
1180.509888 192.0
1180.626099 156.0
1180.872314 136.0
1180.920166 164.0
1181.084351 160.0
1181.460571 144.0
1181.789062 144.0
1182.090088 80.0
1182.425415 100.0
1182.507568 168.0
1182.864258 148.0
1184.068604 140.0
1184.77417 148.0
1184.931641 160.0
1185.034424 132.0
1185.562134 100.0
1185.740234 212.0
1186.130981 168.0
1186.178955 216.0
1186.247559 220.0
1186.501221 192.0
1186.699951 192.0
1186.90564 80.0
1187.11145 228.0
1187.67749 180.0
1187.762939 196.0
1188.243164 72.0
1188.805908 156.0
1189.06665 44.0
1190.631958 152.0
1191.147095 224.0
1191.380737 168.0
1192.328979 236.0
1192.748169 124.0
1193.215698 136.0
1193.490723 240.0
1194.315918 156.0
1194.453491 248.0
1194.880127 168.0
1194.942017 200.0
1195.0177 160.0
1195.320435 116.0
1195.581909 192.0
1196.449219 180.0
1197.068481 276.0
1198.915161 156.0
1199.232178 52.0
1199.514771 112.0
1199.797485 172.0
1200.604248 228.0
1201.011108 164.0
1201.211182 168.0
1201.776855 160.0
1201.997681 172.0
1202.142578 164.0
1202.680908 108.0
1203.012329 68.0
1203.654419 108.0
1204.075684 152.0
1204.248291 192.0
1204.591919 136.0
1204.729492 164.0
1204.853638 232.0
1205.015137 144.0
1205.782104 164.0
1205.899658 164.0
1207.109497 140.0
1207.980957 160.0
1208.029419 136.0
1208.153931 128.0
1208.610596 164.0
1208.776611 160.0
1209.579468 172.0
1210.161011 156.0
1210.756592 88.0
1211.068237 128.0
1211.546143 156.0
1212.14209 180.0
1212.266846 160.0
1212.558472 140.0
1213.257935 40.0
1213.576904 168.0
1213.9375 156.0
1214.013794 160.0
1214.076172 116.0
1214.554688 124.0
1214.800903 188.0
1214.915527 196.0
1215.158325 156.0
1215.373413 192.0
1215.539917 200.0
1215.734253 140.0
1215.974487 256.0
1216.497681 172.0
1216.790161 144.0
1217.004517 140.0
1218.094971 48.0
1218.796631 300.0
1218.914795 160.0
1219.144043 240.0
1219.859985 176.0
1220.471802 160.0
1220.54834 152.0
1220.762329 228.0
1220.930786 216.0
1221.808716 208.0
1221.967163 140.0
1222.022827 164.0
1222.8927 184.0
1223.045898 140.0
1223.094604 192.0
1223.609741 136.0
1223.985718 144.0
1224.675171 184.0
1225.090088 204.0
1225.552979 188.0
1225.978027 216.0
1226.410156 156.0
1227.090454 188.0
1227.194946 196.0
1227.713989 156.0
1228.068115 188.0
1228.578857 200.0
1228.760254 216.0
1229.220825 96.0
1229.476929 200.0
1230.288696 108.0
1230.370605 168.0
1230.533081 188.0
1230.9729 192.0
1231.231323 100.0
1231.34314 180.0
1231.454834 148.0
1231.764404 196.0
1232.095825 168.0
1232.663452 108.0
1233.2854 140.0
1233.439209 188.0
1233.809692 164.0
1234.27124 148.0
1234.397095 160.0
1234.592896 104.0
1236.012939 240.0
1237.076782 196.0
1237.209839 136.0
1237.265869 88.0
1237.37085 112.0
1237.496826 160.0
1237.860962 96.0
1238.071045 192.0
1238.148071 132.0
1238.232178 236.0
1238.463257 200.0
1238.554321 128.0
1238.869629 112.0
1238.925659 188.0
1240.067749 352.0
1240.285156 208.0
1240.362183 40.0
1240.614624 116.0
1241.119385 160.0
1241.182495 220.0
1241.294678 92.0
1241.575195 92.0
1241.645752 124.0
1241.883789 176.0
1242.272949 160.0
1243.017944 132.0
1243.223877 208.0
1243.346436 220.0
1243.593872 288.0
1243.729126 112.0
1243.834473 188.0
1244.410156 172.0
1244.669922 192.0
1244.824463 148.0
1244.887573 176.0
1245.217651 180.0
1245.56189 160.0
1246.053589 204.0
1246.334717 116.0
1246.4823 164.0
1246.643921 148.0
1246.700073 212.0
1246.777344 132.0
1247.08667 104.0
1247.381836 208.0
1247.845825 200.0
1247.89502 156.0
1248.19043 244.0
1248.541992 232.0
1248.816284 156.0
1249.088501 188.0
1249.723755 208.0
1250.350098 152.0
1250.511963 208.0
1251.2323 132.0
1251.779175 152.0
1251.941162 140.0
1252.082031 148.0
1252.2229 136.0
1253.15979 116.0
1253.343018 132.0
1253.716553 120.0
1253.864502 132.0
1254.872559 152.0
1255.048828 152.0
1255.218018 188.0
1255.612915 124.0
1256.050293 232.0
1256.374756 140.0
1256.536987 212.0
1256.699341 164.0
1256.762817 76.0
1257.320312 196.0
1257.489624 76.0
1257.546143 156.0
1257.687256 168.0
1258.202637 168.0
1258.37207 140.0
1259.071167 112.0
1259.191284 164.0
1259.272949 160.0
1259.593872 108.0
1259.643311 172.0
1259.699829 144.0
1259.869385 32.0
1260.095459 188.0
1260.632446 184.0
1260.787964 180.0
1261.062134 196.0
1262.180542 144.0
1262.251221 120.0
1262.3573 160.0
1262.41394 212.0
1262.569458 148.0
1262.732178 136.0
1262.956177 208.0
1263.015137 88.0
1263.071655 180.0
1263.177734 288.0
1263.467773 132.0
1265.109741 164.0
1265.315063 172.0
1265.385864 152.0
1265.569946 80.0
1266.129395 160.0
1266.526001 148.0
1266.853394 88.0
1267.198975 260.0
1267.480225 128.0
1267.737549 144.0
1268.013916 204.0
1268.786499 152.0
1268.963745 144.0
1269.020508 148.0
1269.495605 160.0
1269.552368 92.0
1269.942383 156.0
1270.013306 136.0
1270.112671 224.0
1271.027222 144.0
1271.254883 64.0
1271.511719 168.0
1272.021484 212.0
1272.184692 232.0
1272.29834 192.0
1272.555664 160.0
1273.335083 100.0
1273.420288 188.0
1273.654663 176.0
1273.755737 160.0
1274.05249 152.0
1274.393555 104.0
1274.48584 108.0
1274.653687 192.0
1274.717773 224.0
1275.267578 136.0
1275.502197 176.0
1275.696289 216.0
1275.772339 228.0
1276.191772 140.0
1276.476196 128.0
1276.732056 148.0
1276.874512 80.0
1277.002441 136.0
1277.393677 200.0
1277.500366 144.0
1277.695923 272.0
1277.848999 184.0
1278.034058 208.0
1278.083862 60.0
1278.297363 192.0
1278.539307 72.0
1278.712158 156.0
1278.930664 120.0
1279.065918 76.0
1279.201172 108.0
1279.400513 156.0
1279.450439 280.0
1279.744995 232.0
1280.340454 132.0
1280.727539 160.0
1280.888916 152.0
1280.953003 220.0
1281.608398 160.0
1282.164307 180.0
1283.661377 180.0
1284.79541 80.0
1285.159302 156.0
1285.708862 188.0
1285.922974 196.0
1286.251221 140.0
1286.344116 112.0
1286.408325 144.0
1286.693848 148.0
1286.929443 128.0
1287.729248 116.0
1287.872192 216.0
1288.093628 196.0
1288.179321 176.0
1288.300781 160.0
1288.35791 164.0
1288.708008 160.0
1288.807129 164.0
1288.893799 132.0
1288.993774 176.0
1289.115234 120.0
1289.329712 40.0
1289.880005 136.0
1289.980103 112.0
1290.852417 116.0
1290.981079 148.0
1291.278564 148.0
1291.305176 216.0
1292.032593 180.0
1292.540527 144.0
1293.578369 160.0
1294.108154 248.0
1294.194092 36.0
1294.573608 36.0
1294.645264 48.0
1294.766968 160.0
1294.895874 68.0
1295.017578 180.0
1295.41748 132.0
1295.547729 180.0
1295.626465 224.0
1295.956055 120.0
1296.042114 132.0
1296.386597 164.0
1296.57959 212.0
1296.945068 148.0
1297.34668 180.0
1297.927246 156.0
1298.041992 136.0
1298.242798 48.0
1298.436401 128.0
1298.500977 92.0
1299.577026 204.0
1299.663086 164.0
1299.820923 132.0
1299.899902 184.0
1300.093628 280.0
1300.646362 200.0
1300.754028 100.0
1301.077026 188.0
1301.342651 132.0
1301.439575 140.0
1301.981812 224.0
1302.175659 60.0
1302.811279 200.0
1302.886841 144.0
1303.159912 172.0
1303.511963 124.0
1303.749146 52.0
1303.943115 92.0
1304.086914 144.0
1304.834961 184.0
1305.985107 128.0
1306.280029 144.0
1306.34668 140.0
1306.495361 196.0
1306.930054 212.0
1307.157837 148.0
1307.256104 180.0
1307.69751 220.0
1307.963867 212.0
1308.208618 124.0
1308.424561 216.0
1308.806152 208.0
1308.878174 176.0
1309.094238 180.0
1309.792847 112.0
1309.864868 144.0
1310.117065 176.0
1310.369141 120.0
1310.599731 168.0
1310.888062 52.0
1311.442993 192.0
1311.529419 192.0
1311.774536 180.0
1312.442993 160.0
1312.472168 116.0
1312.553223 56.0
1312.884888 120.0
1313.310425 128.0
1313.386841 184.0
1313.66394 140.0
1313.750488 176.0
1313.844238 188.0
1313.952515 112.0
1314.394165 220.0
1314.5802 180.0
1314.630737 148.0
1315.200928 280.0
1315.590698 140.0
1316.023926 116.0
1316.153931 180.0
1316.255005 120.0
1316.59436 168.0
1316.789429 188.0
1317.396118 164.0
1317.497314 80.0
1317.717041 216.0
1318.060791 148.0
1318.161987 132.0
1318.630005 212.0
1318.922729 152.0
1319.441406 176.0
1319.496826 208.0
1319.571045 172.0
1319.737793 176.0
1319.932983 204.0
1319.981445 188.0
1320.008423 132.0
1320.200562 132.0
1321.206055 140.0
1321.328979 132.0
1322.327637 168.0
1322.595459 156.0
1322.703979 104.0
1323.134033 212.0
1323.232666 132.0
1323.362793 172.0
1323.444946 184.0
1323.761108 188.0
1323.833496 128.0
1324.224609 100.0
1325.137329 108.0
1325.217041 156.0
1325.282227 196.0
1325.44165 116.0
1325.876465 212.0
1326.108398 224.0
1326.383789 160.0
1326.492554 148.0
1326.912964 128.0
1327.032227 100.0
1327.123291 216.0
1327.355347 156.0
1327.710693 244.0
1328.06604 152.0
1328.116821 168.0
1328.243896 184.0
1328.61731 216.0
1328.80603 176.0
1329.277588 168.0
1329.328491 124.0
1329.727539 188.0
1330.3396 100.0
1330.693115 172.0
1330.787476 124.0
1330.896362 120.0
1331.077881 176.0
1331.426514 148.0
1331.89856 116.0
1332.363525 184.0
1332.851318 172.0
1333.235474 144.0
1333.482544 176.0
1333.867798 132.0
1334.107666 124.0
1334.347656 196.0
1334.747559 252.0
1335.263428 156.0
1335.431152 160.0
1335.598389 164.0
1336.202271 140.0
1336.324219 168.0
1336.47876 208.0
1336.616943 140.0
1336.908081 136.0
1337.140259 200.0
1337.257446 184.0
1337.621338 60.0
1337.694092 188.0
1338.079956 168.0
1338.269287 180.0
1338.37854 164.0
1338.46582 116.0
1339.35437 156.0
1339.820557 220.0
1339.944458 204.0
1340.155762 72.0
1340.716919 176.0
1340.884521 48.0
1341.081299 208.0
1341.176025 200.0
1341.314575 168.0
1341.453003 200.0
1341.861328 104.0
1341.963379 144.0
1342.055786 260.0
1342.189453 176.0
1342.342529 160.0
1342.415527 184.0
1342.714478 100.0
1342.838501 232.0
1342.977051 228.0
1343.071899 116.0
1343.312622 60.0
1344.180786 52.0
1344.385132 168.0
1344.47998 144.0
1345.194214 200.0
1345.450806 176.0
1345.604126 172.0
1345.74292 108.0
1346.062866 132.0
1346.436646 164.0
1346.531494 144.0
1346.670288 136.0
1346.801758 184.0
1346.933228 148.0
1347.080566 168.0
1347.788086 160.0
1347.846558 224.0
1347.970703 188.0
1348.380005 144.0
1348.847778 76.0
1349.154785 148.0
1349.330322 220.0
1349.578857 72.0
1350.317505 136.0
1350.573486 120.0
1350.822144 92.0
1350.931885 156.0
1351.231812 204.0
1351.590332 124.0
1351.831909 96.0
1351.890381 84.0
1352.088013 152.0
1352.141357 156.0
1352.336914 160.0
1352.483276 104.0
1352.739502 160.0
1353.215332 172.0
1353.266602 144.0
1354.138062 76.0
1354.474976 192.0
1354.680054 180.0
1354.833862 156.0
1354.89978 56.0
1355.251465 184.0
1355.317505 128.0
1355.420044 268.0
1355.61792 176.0
1355.705811 124.0
1355.969727 220.0
1356.231323 188.0
1356.292236 132.0
1356.387451 120.0
1356.460815 76.0
1356.607422 268.0
1356.73938 212.0
1356.856689 160.0
1356.929932 164.0
1357.501953 136.0
1357.743896 200.0
1357.861206 84.0
1357.927246 144.0
1357.985962 216.0
1358.095947 136.0
1358.198608 232.0
1358.330688 188.0
1358.543457 224.0
1358.836914 152.0
1359.447876 108.0
1359.55603 148.0
1359.636719 152.0
1359.849609 172.0
1360.011108 60.0
1360.267944 156.0
1360.7677 176.0
1361.002197 156.0
1361.149048 68.0
1361.743896 156.0
1361.978882 152.0
1362.067017 200.0
1362.221313 144.0
1362.280029 156.0
1362.397583 196.0
1362.559204 116.0
1362.621582 196.0
1363.286743 168.0
1363.403931 232.0
1363.815918 36.0
1363.970215 152.0
1364.036377 176.0
1364.639282 104.0
1364.690674 184.0
1364.906982 168.0
1365.028931 152.0
1365.109863 156.0
1365.161255 44.0
1365.514282 184.0
1365.609985 172.0
1365.748779 172.0
1365.823242 188.0
1366.338135 168.0
1366.632446 208.0
1366.69873 256.0
1366.897339 196.0
1366.956299 120.0
1367.007812 144.0
1367.096069 108.0
1367.338989 124.0
1367.397827 76.0
1367.501465 160.0
1368.310669 196.0
1369.091187 156.0
1369.1427 212.0
1369.429932 116.0
1369.488892 96.0
1370.144409 108.0
1370.343384 80.0
1370.800293 188.0
1370.895996 176.0
1371.065552 140.0
1371.964844 88.0
1372.274414 136.0
1372.377686 164.0
1372.446411 140.0
1373.151978 132.0
1373.262695 76.0
1373.380615 192.0
1373.579834 152.0
1373.771606 148.0
1373.93396 168.0
1374.170044 184.0
1374.23645 88.0
1374.331543 200.0
1374.642212 120.0
1374.760376 136.0
1375.306519 84.0
1375.365479 48.0
1375.57959 136.0
1375.678589 240.0
1375.786255 160.0
1375.889648 36.0
1376.096436 256.0
1376.162842 96.0
1376.797852 240.0
1377.100708 244.0
1377.182007 172.0
1377.255859 184.0
1377.536499 176.0
1377.905884 192.0
1377.994507 192.0
1378.475708 208.0
1378.724976 156.0
1378.822144 196.0
1379.265625 104.0
1379.450439 148.0
1379.820068 180.0
1380.078857 200.0
1380.138062 76.0
1380.189819 192.0
1380.63269 188.0
1380.766602 52.0
1381.139038 148.0
1381.683838 184.0
1381.757812 68.0
1381.987183 60.0
1382.187012 240.0
1382.394165 180.0
1382.616211 148.0
1382.704956 128.0
1382.919678 168.0
1383.16394 224.0
1383.608765 204.0
1383.704346 116.0
1383.787964 188.0
1383.904297 120.0
1384.030151 148.0
1384.081909 180.0
1384.13916 156.0
1384.31897 104.0
1384.526245 72.0
1384.689209 104.0
1385.570679 176.0
1385.837402 108.0
1386.052368 216.0
1386.148682 108.0
1386.304321 124.0
1386.467285 140.0
1386.652588 180.0
1387.104736 120.0
1387.260376 144.0
1387.319702 128.0
1387.379028 156.0
1388.046265 164.0
1388.12793 168.0
1388.17981 160.0
1388.740112 128.0
1388.928833 256.0
1389.397949 180.0
1389.537231 200.0
1389.960083 104.0
1390.182739 184.0
1390.531616 160.0
1390.731934 228.0
1390.858154 192.0
1391.036255 172.0
1391.162476 224.0
1391.44458 128.0
1391.585693 180.0
1391.853027 196.0
1392.231689 68.0
1392.560059 228.0
1392.803589 140.0
1393.137939 172.0
1393.420166 164.0
1393.866089 196.0
1393.97876 172.0
1394.034302 220.0
1394.401123 188.0
1395.226196 184.0
1395.352661 160.0
1395.560791 184.0
1395.672363 136.0
1395.731812 36.0
1395.880493 72.0
1396.177979 140.0
1396.237427 160.0
1396.289551 132.0
1396.512695 128.0
1396.810181 92.0
1397.115234 168.0
1397.197021 168.0
1397.293823 76.0
1397.643433 36.0
1397.695557 176.0
1397.874146 160.0
1398.075073 140.0
1398.320679 152.0
1398.469482 156.0
1399.079956 140.0
1399.310791 192.0
1399.95105 120.0
1400.241577 140.0
1400.374756 184.0
1400.811768 248.0
1401.038574 164.0
1401.411133 152.0
1401.679321 80.0
1401.739014 48.0
1401.880615 72.0
1401.984863 120.0
1402.372437 108.0
1402.432129 128.0
1402.779541 144.0
1403.125366 188.0
1403.319214 96.0
1403.430542 108.0
1403.498169 168.0
1403.587646 44.0
1403.744263 76.0
1403.826294 164.0
1403.900879 72.0
1404.691406 140.0
1405.250977 96.0
1405.318115 120.0
1405.765869 148.0
1406.17627 200.0
1407.049683 124.0
1407.151733 132.0
1407.228882 196.0
1407.333374 212.0
1407.549927 136.0
1407.67688 116.0
1407.729126 124.0
1408.147339 168.0
1408.24939 264.0
1408.543335 136.0
1409.028809 180.0
1409.282837 136.0
1409.604248 192.0
1410.037598 208.0
1410.33667 192.0
1410.468262 192.0
1410.538452 208.0
1410.63562 196.0
1411.039307 196.0
1411.510376 188.0
1411.57019 188.0
1411.651245 180.0
1411.749634 108.0
1411.802002 212.0
1411.899292 132.0
1412.220825 200.0
1412.482666 152.0
1412.669678 168.0
1412.973511 144.0
1413.088623 52.0
1413.268188 280.0
1413.335571 200.0
1413.485229 168.0
1413.60498 132.0
1413.721191 204.0
1413.897705 168.0
1414.113892 132.0
1414.216797 212.0
1414.530396 168.0
1414.645264 140.0
1414.720215 152.0
1415.049561 200.0
1415.266724 160.0
1415.32666 116.0
1415.618652 172.0
1415.79541 212.0
1416.328613 20.0
1416.667236 132.0
1417.284912 136.0
1417.334106 180.0
1417.663086 140.0
1417.873657 180.0
1418.27832 160.0
1418.765625 184.0
1418.945557 152.0
1419.020508 228.0
1419.477905 132.0
1419.590454 188.0
1419.650391 204.0
1419.830444 132.0
1419.92041 140.0
1420.05542 116.0
1420.445435 204.0
1420.768066 120.0
1420.820557 180.0
1420.873047 156.0
1420.933105 136.0
1421.134766 108.0
1421.750977 192.0
1422.126221 156.0
1422.283813 144.0
1422.373901 164.0
1422.546631 136.0
1422.749268 148.0
1422.87915 172.0
1423.094604 120.0
1423.244873 200.0
1423.545166 108.0
1423.68042 184.0
1423.73291 188.0
1424.040894 152.0
1424.45105 312.0
1424.641846 152.0
1424.82959 128.0
1425.160156 136.0
1425.340576 152.0
1425.535889 204.0
1426.046997 124.0
1426.362671 188.0
1426.84375 324.0
1426.941528 160.0
1427.075195 180.0
1427.257324 204.0
1427.48291 284.0
1428.295166 204.0
1428.460693 28.0
1428.520874 172.0
1428.754028 124.0
1428.84436 112.0
1429.011597 188.0
1429.123169 128.0
1430.070923 140.0
1430.387085 128.0
1430.477417 56.0
1430.552734 144.0
1430.688232 196.0
1430.944214 108.0
1431.079712 116.0
1431.591797 164.0
1431.908081 204.0
1432.134033 128.0
1432.344971 180.0
1432.405151 68.0
1432.977905 156.0
1433.286743 164.0
1433.555908 196.0
1434.711182 184.0
1434.784058 232.0
1434.958984 188.0
1435.729126 88.0
1436.075562 224.0
1436.155029 180.0
1436.249512 180.0
1436.317505 132.0
1437.049194 132.0
1437.298218 116.0
1437.482056 272.0
1437.637817 184.0
1438.513306 236.0
1438.807739 144.0
1438.97876 168.0
1439.230591 216.0
1439.713867 200.0
1439.849854 204.0
1440.008423 180.0
1440.348267 152.0
1440.779541 192.0
1440.975342 148.0
1441.029785 160.0
1441.428711 180.0
1441.511841 116.0
1441.813232 176.0
1441.919922 180.0
1442.012329 160.0
1442.25415 164.0
1442.367065 188.0
1442.426392 136.0
1442.592651 156.0
1442.706055 76.0
1443.201294 168.0
1443.386475 188.0
1443.471069 180.0
1443.821411 148.0
1443.961304 208.0
1444.176514 212.0
1444.377319 196.0
1444.513428 164.0
1444.884521 176.0
1445.020386 156.0
1445.171631 180.0
1445.338135 256.0
1445.444092 144.0
1445.49707 140.0
1446.094849 76.0
1446.208374 88.0
1446.392212 208.0
1446.450684 204.0
1446.79126 136.0
1446.950317 152.0
1447.343994 132.0
1447.411377 204.0
1447.642822 180.0
1447.699951 116.0
1447.821045 84.0
1447.889282 228.0
1448.199829 184.0
1448.539795 188.0
1448.798218 176.0
1449.351318 180.0
1450.131836 172.0
1450.412354 208.0
1450.54126 204.0
1450.654907 148.0
1450.95813 228.0
1451.11731 172.0
1451.193237 376.0
1451.572266 144.0
1452.012207 136.0
1452.216919 136.0
1452.429321 132.0
1452.520386 84.0
1452.593018 168.0
1452.679688 100.0
1452.860596 196.0
1453.021118 40.0
1453.172852 340.0
1453.423218 244.0
1453.597778 128.0
1453.681152 168.0
1453.764648 116.0
1454.007568 308.0
1454.111572 136.0
1454.242798 196.0
1454.364258 180.0
1454.424927 144.0
1454.698242 128.0
1454.96582 208.0
1455.814331 176.0
1456.025757 244.0
1457.12085 76.0
1457.196899 204.0
1457.439941 236.0
1457.515991 208.0
1457.637573 272.0
1458.06311 196.0
1458.230347 144.0
1458.309814 172.0
1458.830811 172.0
1459.378296 164.0
1459.560791 340.0
1459.674805 160.0
1459.735596 160.0
1460.252808 188.0
1460.38208 224.0
1460.465698 72.0
1460.602661 172.0
1460.792847 160.0
1461.546021 168.0
1461.959229 152.0
1462.105835 208.0
1462.314697 108.0
1462.641968 112.0
1462.710449 92.0
1463.098755 144.0
1463.349976 140.0
1463.739624 116.0
1464.02002 192.0
1464.423706 176.0
1464.646118 188.0
1464.94165 132.0
1465.032837 216.0
1465.177856 140.0
1465.24646 176.0
1465.551147 96.0
1465.722778 132.0
1465.909302 128.0
1465.962646 116.0
1466.153198 64.0
1466.534302 184.0
1466.60083 120.0
1466.85437 156.0
1467.105957 140.0
1467.357544 152.0
1467.555786 160.0
1467.639648 176.0
1467.815063 144.0
1467.929443 92.0
1468.688477 256.0
1469.050659 192.0
1469.180298 180.0
1469.393921 132.0
1469.498047 256.0
1469.797607 172.0
1470.363037 208.0
1470.493408 160.0
1470.637817 96.0
1470.737061 244.0
1471.002563 196.0
1471.266968 212.0
1471.447021 76.0
1471.538696 172.0
1471.637939 132.0
1471.799438 208.0
1472.057861 80.0
1472.243286 144.0
1472.309937 148.0
1472.523682 220.0
1472.897949 136.0
1472.959106 248.0
1473.043091 172.0
1473.476929 180.0
1473.944702 56.0
1474.120483 172.0
1474.395874 180.0
1474.693604 188.0
1474.846558 60.0
1474.953491 112.0
1475.141968 212.0
1475.379761 236.0
1475.403198 180.0
1475.725708 192.0
1475.929321 200.0
1476.054443 124.0
1476.237915 124.0
1476.628052 164.0
1476.735107 164.0
1477.109863 128.0
1477.210449 168.0
1477.477051 164.0
1477.84436 264.0
1477.982056 60.0
1478.116943 152.0
1478.165771 236.0
1478.276978 152.0
1478.479492 188.0
1478.755615 160.0
1479.038208 32.0
1479.177368 168.0
1479.551147 120.0
1479.616089 156.0
1479.742554 160.0
1479.987549 180.0
1480.109985 192.0
1480.378052 140.0
1480.439331 180.0
1480.563232 208.0
1480.89502 160.0
1481.128662 48.0
1481.611206 64.0
1481.756836 144.0
1481.848755 92.0
1481.902344 140.0
1481.979004 180.0
1482.454102 232.0
1482.745361 116.0
1482.82959 140.0
1482.990601 156.0
1483.38916 196.0
1483.45813 116.0
1483.926025 128.0
1484.140747 220.0
1484.546997 124.0
1485.329224 224.0
1485.60791 208.0
1485.843262 188.0
1485.919922 136.0
1486.372681 224.0
1486.675903 144.0
1486.817749 244.0
1487.109375 132.0
1487.319702 288.0
1487.431763 108.0
1487.961548 228.0
1488.230225 136.0
1488.629517 164.0
1488.806152 112.0
1488.990479 180.0
1489.251587 148.0
1489.567749 188.0
1489.958374 208.0
1490.027466 52.0
1490.120239 176.0
1490.286255 124.0
1490.407715 180.0
1490.680664 112.0
1490.742065 156.0
1491.118652 140.0
1491.456909 244.0
1491.545898 132.0
1491.567871 152.0
1491.650879 164.0
1491.725952 144.0
1491.787354 188.0
1491.933472 68.0
1492.475464 148.0
1492.535522 128.0
1492.912598 180.0
1493.041382 140.0
1493.440674 140.0
1493.511353 144.0
1493.586792 196.0
1493.771484 196.0
1493.865234 204.0
1494.025269 160.0
1494.209961 144.0
1494.356323 184.0
1494.502319 48.0
1494.594604 140.0
1495.422241 116.0
1495.479614 88.0
1495.718262 120.0
1495.995361 140.0
1496.057007 52.0
1496.180176 84.0
1496.549683 140.0
1496.619019 272.0
1496.927002 156.0
1497.28894 108.0
1497.414795 192.0
1497.592041 220.0
1497.897461 212.0
1498.267212 132.0
1498.498413 144.0
1498.849243 96.0
1499.34314 188.0
1499.532593 188.0
1499.746826 136.0
1500.30188 60.0
1500.602539 96.0
1500.926392 148.0
1501.180786 144.0
1501.520142 68.0
1501.60498 192.0
1501.716309 100.0
1501.97522 152.0
1502.1604 152.0
1502.237549 200.0
1502.299194 88.0
1502.391846 108.0
1502.499756 172.0
1502.816162 132.0
1503.140259 172.0
1503.34082 236.0
1503.881104 184.0
1503.966064 176.0
1504.066406 136.0
1504.174438 192.0
1504.259399 124.0
1505.085449 208.0
1505.21167 220.0
1505.33252 148.0
