>compound MLS001242385-01![6-ethyl-2-methyl-3-(1-methylbenzimidazol-2-yl)-4-oxochromen-7-yl] acetate210639-90-0
>formula C22H20N2O4
>ionization [M+H]+
>parentmass 377.150085
#inchi InChI=1S/C22H20N2O4/c1-5-14-10-15-19(11-18(14)28-13(3)25)27-12(2)20(21(15)26)22-23-16-8-6-7-9-17(16)24(22)4/h6-11H,5H2,1-4H3
#inchikey HTTVYKXJCQENKW
#Ion_Source LC-ESI
#Instrument qTof
#Compound_Source NIH Pharmacologically Active Library
#PI Dorrestein
#Data_Collector VP/LMS
#Scan -1
#Precursor_MZ 377.154
#ExactMass 376.142
#Charge 1
#CAS_Number N/A
#Pubmed_ID N/A
#Smiles CCc1cc2c(=O)c(c3nc4ccccc4n3C)c(C)oc2cc1OC(=O)C
#INCHI_AUX N/A
#Library_Class 1
#SpectrumID CCMSLIB00000084870
#IonMode Positive
#UpdateWorkflowName UPDATE-SINGLE-ANNOTATED-GOLD
#LibraryQualityString Gold
#TaskID d252d724072548979f1f6f1ced849daf
##Scan# 1738
#SpectrumFile p3-B10_GB10_01_18243.mzXML
#LibraryName Pharm_Active_Library.mgf
#MQScore -1
#Organism Pharm_Active_Library
#TIC_Query 0
#RT_Query -1
#MZErrorPPM -1
#SharedPeaks 0
#MassDiff 0
#LibMZ -1
#SpecMZ 377.154
#SpecCharge 0
#internalFilename spec-00000.mgf

>collision 10
45.063305 132.0
45.493217 180.0
45.719028 140.0
45.817326 116.0
45.917824 184.0
45.971107 160.0
46.007484 172.0
46.138531 168.0
46.20615 164.0
46.566734 180.0
46.576244 224.0
46.623798 224.0
46.717617 104.0
46.781582 172.0
46.825153 208.0
46.849384 208.0
46.897366 64.0
46.924629 144.0
46.939629 200.0
46.98737 104.0
47.052879 92.0
47.138931 56.0
47.182671 168.0
47.394817 92.0
47.534687 160.0
47.582726 112.0
47.696751 208.0
48.016186 176.0
48.053432 204.0
48.127968 92.0
48.221581 220.0
48.259232 108.0
48.361603 128.0
48.372677 276.0
48.394829 168.0
48.515366 148.0
48.597191 244.0
48.613842 136.0
48.634663 164.0
48.681614 240.0
48.698532 112.0
48.723537 148.0
48.742989 136.0
48.755497 100.0
48.857002 168.0
48.965576 128.0
49.123085 180.0
49.145405 172.0
49.269669 152.0
49.367512 156.0
49.385693 152.0
49.47805 360.0
49.576099 216.0
49.597122 248.0
49.609741 64.0
49.682663 184.0
49.740154 124.0
49.792152 104.0
50.007267 136.0
50.112885 156.0
50.166439 192.0
50.245415 140.0
50.332294 180.0
50.337215 100.0
50.34063 184.0
50.380169 176.0
50.390835 64.0
50.405361 128.0
50.434643 180.0
50.477058 56.0
50.54071 136.0
50.571846 112.0
50.624229 136.0
50.734749 208.0
50.889393 156.0
50.995937 332.0
51.033928 232.0
51.051384 388.0
51.109707 216.0
51.156673 252.0
51.180878 224.0
51.20224 168.0
51.26635 220.0
51.311962 68.0
51.329071 156.0
51.517471 152.0
51.534554 184.0
51.577095 232.0
51.659 120.0
51.673306 128.0
51.750595 128.0
51.764912 168.0
51.80645 164.0
51.903912 120.0
51.955544 112.0
52.117786 168.0
52.164494 112.0
52.206402 248.0
52.229191 236.0
52.301582 180.0
52.532429 136.0
52.71146 180.0
52.80109 188.0
52.916855 192.0
52.971889 36.0
52.997967 248.0
53.047245 136.0
53.06464 156.0
53.082039 144.0
53.100895 124.0
53.177792 104.0
53.189404 108.0
53.325939 136.0
53.410271 168.0
53.46265 220.0
53.580593 120.0
53.62431 184.0
54.118073 132.0
54.178123 160.0
54.230877 60.0
54.492088 144.0
54.512657 168.0
54.5494 144.0
54.609688 112.0
54.731834 168.0
54.75687 128.0
54.818745 236.0
54.857067 248.0
54.923424 56.0
54.972111 152.0
55.088753 128.0
55.23658 212.0
55.380157 52.0
55.473511 128.0
55.509094 232.0
55.543205 84.0
55.559525 56.0
55.641151 56.0
55.661938 128.0
55.804581 168.0
55.870022 148.0
56.090416 88.0
56.144093 144.0
56.161991 124.0
56.332424 136.0
56.412857 180.0
56.439766 160.0
56.480148 164.0
56.501091 176.0
56.551968 272.0
56.593884 176.0
56.605865 104.0
56.6478 124.0
56.67474 200.0
56.700245 220.0
56.785702 164.0
56.923771 120.0
56.949303 144.0
56.962822 140.0
56.979347 160.0
57.089073 160.0
57.26516 120.0
57.323914 216.0
57.46867 176.0
57.541119 144.0
57.568298 232.0
57.631046 160.0
57.708828 48.0
57.736046 176.0
57.829849 168.0
57.946453 136.0
58.014652 152.0
58.117783 208.0
58.146618 116.0
58.254421 180.0
58.337654 156.0
58.356247 224.0
58.435337 148.0
58.500778 156.0
58.625675 176.0
58.694275 68.0
58.731384 180.0
58.7384 60.0
58.742558 176.0
58.792362 80.0
58.965302 104.0
59.026211 112.0
59.063862 248.0
59.333385 124.0
59.505219 132.0
59.583546 148.0
59.791134 132.0
59.857758 216.0
59.88813 176.0
59.898911 128.0
59.928001 168.0
60.05151 148.0
60.083904 56.0
60.153347 104.0
60.215111 196.0
60.247547 216.0
60.295448 80.0
60.309361 180.0
60.560017 48.0
60.575508 180.0
60.589451 176.0
60.604946 32.0
60.690193 44.0
60.724312 88.0
60.736721 92.0
60.832928 40.0
61.098671 212.0
61.149063 104.0
61.199837 128.0
61.282387 56.0
61.321346 184.0
61.377468 152.0
61.407101 136.0
61.444538 208.0
61.45858 128.0
61.485107 188.0
61.581905 148.0
61.639709 124.0
61.874229 192.0
61.896248 132.0
61.940098 148.0
62.10939 64.0
62.179993 172.0
62.331951 184.0
62.39048 80.0
62.561958 160.0
62.572979 64.0
62.658764 176.0
62.698994 168.0
62.717907 196.0
62.760471 112.0
62.839584 152.0
62.949825 192.0
62.970356 160.0
63.047771 172.0
63.144211 172.0
63.155285 104.0
63.20116 152.0
63.388008 76.0
63.683094 128.0
63.76889 220.0
63.908833 108.0
63.932701 124.0
64.219482 164.0
64.272125 184.0
64.447762 32.0
64.537743 164.0
64.598045 168.0
64.641243 168.0
64.899139 72.0
64.926399 120.0
65.022659 112.0
65.045128 76.0
65.094902 164.0
65.110962 128.0
65.133919 136.0
65.199318 144.0
65.241608 208.0
65.279701 44.0
65.301941 164.0
65.31073 192.0
65.442223 156.0
65.471207 132.0
65.492142 128.0
65.585594 176.0
65.611389 52.0
65.633965 192.0
65.906746 144.0
66.09108 136.0
66.181725 164.0
66.199532 76.0
66.272423 140.0
66.613121 160.0
66.626114 84.0
66.71225 140.0
66.782173 156.0
66.938408 196.0
67.018219 136.0
67.029625 124.0
67.112755 148.0
67.272644 120.0
67.287338 144.0
67.329788 116.0
67.386963 196.0
67.409836 240.0
67.445107 180.0
67.468681 164.0
67.514465 200.0
67.581528 156.0
67.658455 112.0
67.745247 188.0
67.93705 56.0
67.991203 124.0
68.222801 240.0
68.252396 136.0
68.3116 144.0
68.351089 188.0
68.532211 136.0
68.58989 112.0
68.604729 168.0
68.644302 172.0
68.690475 40.0
68.733871 172.0
68.797745 128.0
68.852234 168.0
68.865448 112.0
68.936485 144.0
68.969536 96.0
68.992683 160.0
69.108452 140.0
69.133278 76.0
69.277328 88.0
69.385109 208.0
69.418205 100.0
69.521057 192.0
69.545387 152.0
69.66053 100.0
69.698738 192.0
69.921577 44.0
70.113098 92.0
70.141434 40.0
70.211464 100.0
70.431778 112.0
70.537048 156.0
70.64782 216.0
70.766243 164.0
70.808105 168.0
71.026001 128.0
71.121643 164.0
71.161926 204.0
71.237503 136.0
71.286232 112.0
71.402229 192.0
71.482979 148.0
71.619347 104.0
71.658676 104.0
71.70359 216.0
71.772705 192.0
71.819923 64.0
72.029236 156.0
72.147522 136.0
72.242226 140.0
72.452148 164.0
72.569092 80.0
72.609787 152.0
72.689522 108.0
72.942581 144.0
72.956177 132.0
73.065018 152.0
73.083733 164.0
73.141594 96.0
73.165428 180.0
73.236946 140.0
73.248871 72.0
73.269318 212.0
73.281242 180.0
73.328484 84.0
73.407379 116.0
73.514847 44.0
73.92498 248.0
73.998581 140.0
74.151039 204.0
74.190468 120.0
74.277924 136.0
74.348267 148.0
74.401482 180.0
74.447838 124.0
74.554352 92.0
74.61795 60.0
74.643738 156.0
74.659218 76.0
74.717697 160.0
74.789978 72.0
74.834732 188.0
74.857117 52.0
75.122437 192.0
75.587303 116.0
75.677315 148.0
75.763908 212.0
75.812424 76.0
75.921967 168.0
75.991028 212.0
76.095161 148.0
76.117737 176.0
76.168098 204.0
76.322777 84.0
76.359291 136.0
76.39756 136.0
76.435837 152.0
76.507195 124.0
76.641182 116.0
76.728447 108.0
76.772041 148.0
76.962242 192.0
76.990181 168.0
77.0653 112.0
77.108986 168.0
77.14045 164.0
77.191147 184.0
77.275108 128.0
77.301353 148.0
77.430901 192.0
77.500969 116.0
77.628929 188.0
77.66671 168.0
77.688568 172.0
77.748222 164.0
77.778061 116.0
77.830727 196.0
77.890442 180.0
78.096092 136.0
78.20166 128.0
78.235107 32.0
78.326675 132.0
78.458839 36.0
78.640533 180.0
78.711151 84.0
78.73587 220.0
78.876579 176.0
78.891365 104.0
79.036392 176.0
79.059395 96.0
79.082397 164.0
79.098328 192.0
79.156754 204.0
79.291389 208.0
79.303802 120.0
79.406631 136.0
79.42614 124.0
79.442108 368.0
79.491791 136.0
79.545029 184.0
79.558578 216.0
79.724419 88.0
79.914688 144.0
80.162193 152.0
80.208527 120.0
80.262016 144.0
80.321198 192.0
80.513626 176.0
80.556496 108.0
80.645515 156.0
80.652481 128.0
80.676224 168.0
80.704834 220.0
80.846146 156.0
80.966095 164.0
81.041824 172.0
81.091507 100.0
81.170982 132.0
81.294159 124.0
81.324669 156.0
81.398277 160.0
81.437782 236.0
81.468323 80.0
81.6157 124.0
81.64447 100.0
81.775803 104.0
81.885628 48.0
81.912651 180.0
81.927063 212.0
82.018959 100.0
82.109474 20.0
82.148796 184.0
82.290794 152.0
82.419609 88.0
82.432259 164.0
82.797684 64.0
83.069565 88.0
83.096771 228.0
83.11129 92.0
83.193237 104.0
83.323715 92.0
83.367325 100.0
83.385498 228.0
83.401855 60.0
83.478218 120.0
83.660164 172.0
83.685654 152.0
83.703857 144.0
83.74939 168.0
83.778534 96.0
83.838661 184.0
84.06662 156.0
84.150581 148.0
84.289398 156.0
84.309502 160.0
84.329605 124.0
84.364334 192.0
84.393585 160.0
84.444786 52.0
84.554565 160.0
84.616798 160.0
84.657082 156.0
84.869644 188.0
84.930161 204.0
84.968681 64.0
85.10083 176.0
85.130211 32.0
85.404053 144.0
85.514442 164.0
85.736755 164.0
85.741737 116.0
85.836838 188.0
85.962273 132.0
86.056412 160.0
86.071182 120.0
86.114288 200.0
86.159836 124.0
86.22821 212.0
86.285507 104.0
86.377975 148.0
86.566757 188.0
86.644547 164.0
86.67234 184.0
86.762283 164.0
86.82991 152.0
86.842896 208.0
86.964264 176.0
87.028473 124.0
87.361145 168.0
87.441154 244.0
87.492828 168.0
87.532372 132.0
87.711227 168.0
87.728004 180.0
87.769997 160.0
87.872482 196.0
87.893997 188.0
87.910789 132.0
87.949982 136.0
88.011589 108.0
88.054543 184.0
88.082481 192.0
88.11058 136.0
88.241402 160.0
88.310593 116.0
88.376068 156.0
88.681313 208.0
88.724426 172.0
88.760048 168.0
88.982529 184.0
89.007736 156.0
89.114799 180.0
89.152382 148.0
89.253891 220.0
89.308914 372.0
89.673698 156.0
89.750984 92.0
89.784439 184.0
89.843407 92.0
89.994156 128.0
90.01516 180.0
90.035934 168.0
90.1455 212.0
90.185188 144.0
90.213272 56.0
90.29863 144.0
90.328896 216.0
90.391396 108.0
90.442429 76.0
90.476501 148.0
90.504898 196.0
90.578117 176.0
90.616646 128.0
90.648857 188.0
90.817589 144.0
90.832764 172.0
90.874504 212.0
90.89537 148.0
90.923836 156.0
91.187828 72.0
91.216339 128.0
91.246758 220.0
91.292389 84.0
91.416039 116.0
91.517792 196.0
91.549294 160.0
91.695992 156.0
91.720772 180.0
91.787498 120.0
91.837082 80.0
91.969383 164.0
92.052734 232.0
92.094749 80.0
92.337486 128.0
92.363167 196.0
92.402519 48.0
92.607605 148.0
92.973534 164.0
93.044556 100.0
93.069511 128.0
93.088715 136.0
93.127129 108.0
93.228951 144.0
93.255295 136.0
93.266342 176.0
93.315445 232.0
93.475098 116.0
93.499512 352.0
93.521286 144.0
93.571335 184.0
93.604065 112.0
93.686882 156.0
93.729271 176.0
93.777451 176.0
93.833351 192.0
93.929771 32.0
93.985725 216.0
94.039757 208.0
94.06485 232.0
94.091873 52.0
94.296631 128.0
94.402962 200.0
94.449379 160.0
94.468719 136.0
94.488068 116.0
94.633224 228.0
94.74749 56.0
94.770744 64.0
94.83857 144.0
94.933563 144.0
95.016975 128.0
95.065483 60.0
95.094589 212.0
95.216904 144.0
95.240211 64.0
95.261581 64.0
95.294609 116.0
95.314034 140.0
95.492889 148.0
95.508446 120.0
95.557076 116.0
95.62542 168.0
95.66996 212.0
95.732262 148.0
95.817963 136.0
95.839394 64.0
96.032394 48.0
96.10067 188.0
96.119423 124.0
96.194344 116.0
96.250961 168.0
96.274399 196.0
96.303566 184.0
96.377922 76.0
96.406227 116.0
96.46978 136.0
96.495193 164.0
96.535446 196.0
96.587112 96.0
96.684937 108.0
96.894455 200.0
96.941475 188.0
97.053207 180.0
97.072815 156.0
97.115959 120.0
97.318092 144.0
97.36129 212.0
97.398605 36.0
97.415581 212.0
97.461472 160.0
97.508636 160.0
97.581367 156.0
97.622314 184.0
97.697342 128.0
97.925735 172.0
98.014389 200.0
98.049858 108.0
98.099792 152.0
98.280579 112.0
98.325966 200.0
98.37941 152.0
98.515518 156.0
98.537247 132.0
98.597412 148.0
98.659782 36.0
98.675598 224.0
98.776451 184.0
98.827271 180.0
98.873405 216.0
98.892342 176.0
99.202194 88.0
99.249779 184.0
99.39061 188.0
99.404503 112.0
99.493515 184.0
99.573242 204.0
99.618927 72.0
99.680519 104.0
99.769958 124.0
99.828438 136.0
99.87336 196.0
99.897331 80.0
99.982552 168.0
100.046486 168.0
100.317413 148.0
100.351303 72.0
100.421097 148.0
100.512863 68.0
100.594688 232.0
100.68055 232.0
100.896347 156.0
100.910339 156.0
100.994331 100.0
101.026337 188.0
101.120377 128.0
101.148399 196.0
101.188438 88.0
101.280556 192.0
101.378723 96.0
101.448875 180.0
101.49807 216.0
101.589256 200.0
101.665497 132.0
101.823158 292.0
101.838158 104.0
101.860252 132.0
101.95256 148.0
102.04715 172.0
102.063232 72.0
102.135323 104.0
102.244278 100.0
102.26239 128.0
102.300636 184.0
102.445625 160.0
102.603668 236.0
102.661293 136.0
102.781174 144.0
102.847084 176.0
102.897369 112.0
102.93573 112.0
102.961983 212.0
102.980164 208.0
103.006424 84.0
103.04425 176.0
103.05777 220.0
103.07309 228.0
103.095322 140.0
103.111488 212.0
103.157974 48.0
103.3582 168.0
103.403343 196.0
103.507988 100.0
103.599129 112.0
103.617363 44.0
103.678154 128.0
103.712608 144.0
103.803833 164.0
103.921486 140.0
104.012802 88.0
104.045372 188.0
104.075737 216.0
104.144783 156.0
104.163071 128.0
104.177284 104.0
104.205727 236.0
104.319534 176.0
104.354095 96.0
104.411034 144.0
104.630791 72.0
104.722427 224.0
104.81002 92.0
104.867081 196.0
104.962898 184.0
104.985329 160.0
105.024078 136.0
105.06488 84.0
105.117928 144.0
105.253365 240.0
105.283279 160.0
105.297577 136.0
105.318001 156.0
105.344551 148.0
105.407562 176.0
105.428329 88.0
105.442635 188.0
105.484573 184.0
105.499863 124.0
105.51622 148.0
105.636879 184.0
105.708488 104.0
105.827202 112.0
105.85997 60.0
105.917313 128.0
105.948044 112.0
106.064049 1224.0
106.153 68.0
106.349953 96.0
106.374588 160.0
106.588181 144.0
106.713562 124.0
107.058784 168.0
107.083961 56.0
107.189026 180.0
107.219887 148.0
107.525169 196.0
107.621071 132.0
107.7771 116.0
107.7957 56.0
107.855637 184.0
107.905251 40.0
107.985893 152.0
108.043808 136.0
108.06662 188.0
108.093468 128.0
108.253128 124.0
108.298866 168.0
108.70295 160.0
108.721367 128.0
108.928993 144.0
108.94561 144.0
109.003784 152.0
109.047432 216.0
109.066132 140.0
109.101471 180.0
109.151375 156.0
109.28241 200.0
109.307869 120.0
109.36982 92.0
109.434349 208.0
109.471832 132.0
109.515564 152.0
109.589211 136.0
109.611397 132.0
109.743584 216.0
109.955978 204.0
109.983849 160.0
110.06826 172.0
110.124596 100.0
110.203979 64.0
110.262489 144.0
110.327286 216.0
110.360107 212.0
110.424171 168.0
110.51133 128.0
110.655746 96.0
110.71019 84.0
110.84845 160.0
111.035027 100.0
111.078461 180.0
111.102142 112.0
111.133034 144.0
111.162994 160.0
111.211258 188.0
111.349129 144.0
111.39814 240.0
111.446465 232.0
111.559952 188.0
111.585182 176.0
111.633537 36.0
111.776581 132.0
111.867081 72.0
111.900764 84.0
111.978676 72.0
112.161987 232.0
112.176743 144.0
112.225235 160.0
112.242104 188.0
112.292709 64.0
112.442505 176.0
112.537498 48.0
112.662102 124.0
112.682571 180.0
112.791008 88.0
112.966515 132.0
113.038452 112.0
113.089241 128.0
113.341255 180.0
113.415428 156.0
113.597786 168.0
113.656227 212.0
113.676285 160.0
113.69326 148.0
113.737831 116.0
113.816383 116.0
113.854607 116.0
113.894363 128.0
114.058571 152.0
114.113846 172.0
114.158501 132.0
114.239319 172.0
114.330811 76.0
114.345711 100.0
114.384026 116.0
114.420799 216.0
114.467468 204.0
114.607635 84.0
115.054306 212.0
115.134239 120.0
115.160156 128.0
115.200737 132.0
115.242722 132.0
115.303299 144.0
115.322533 80.0
115.418739 188.0
115.487167 116.0
115.521393 108.0
115.559906 148.0
115.579163 112.0
115.825356 212.0
115.887482 148.0
115.934624 124.0
116.033226 172.0
116.055534 128.0
116.11042 200.0
116.170479 160.0
116.25415 252.0
116.363625 212.0
116.462402 72.0
116.493927 196.0
116.539169 136.0
116.567673 180.0
116.655792 156.0
116.683739 216.0
116.823532 120.0
116.862251 176.0
116.888077 112.0
117.056305 184.0
117.170128 136.0
117.195984 284.0
117.253799 140.0
117.452522 76.0
117.534508 128.0
117.676956 140.0
117.705032 120.0
117.733101 140.0
117.767654 308.0
117.845428 64.0
117.86055 112.0
117.923218 128.0
117.942673 180.0
117.962128 52.0
118.068581 172.0
118.381859 148.0
118.412178 156.0
118.464394 116.0
118.518326 180.0
118.566002 136.0
118.676552 48.0
118.743484 208.0
118.949905 164.0
119.061378 996.0
119.085289 160.0
119.20401 120.0
119.284424 48.0
119.312744 152.0
119.382263 148.0
119.406189 280.0
119.447517 32.0
119.465309 236.0
119.5019 192.0
119.547592 144.0
119.571533 128.0
119.591125 108.0
119.621597 140.0
119.636833 192.0
119.709793 196.0
119.823036 248.0
120.162056 176.0
120.273346 128.0
120.367226 104.0
120.450218 148.0
120.578644 180.0
120.754028 132.0
120.861221 108.0
120.880913 124.0
121.021004 124.0
121.058228 224.0
121.082321 132.0
121.097649 176.0
121.134056 116.0
121.177429 248.0
121.195595 208.0
121.211891 108.0
121.340881 100.0
121.399467 156.0
121.432983 136.0
121.483078 104.0
121.520729 104.0
121.5382 108.0
121.588753 180.0
121.628258 232.0
121.733055 120.0
121.743889 156.0
121.821495 124.0
121.86763 148.0
121.887405 208.0
121.961464 160.0
122.030273 132.0
122.074249 320.0
122.208427 52.0
122.303055 208.0
122.39772 160.0
122.426346 172.0
122.507843 168.0
122.538681 92.0
122.657684 160.0
122.893066 224.0
123.040298 192.0
123.056984 88.0
123.088501 160.0
123.145309 176.0
123.162979 164.0
123.211578 176.0
123.260544 148.0
123.397224 172.0
123.583015 200.0
123.609566 120.0
123.700462 116.0
123.780006 44.0
123.853096 60.0
124.019272 216.0
124.055183 160.0
124.103508 168.0
124.31424 144.0
124.46962 184.0
124.50515 156.0
124.620659 104.0
124.749557 116.0
124.767349 112.0
124.821945 108.0
124.841545 140.0
124.878525 152.0
125.009789 176.0
125.049843 132.0
125.06765 68.0
125.242714 220.0
125.372772 120.0
125.457237 152.0
125.522125 124.0
125.567436 176.0
125.720665 128.0
125.756371 68.0
125.774231 180.0
125.910423 180.0
125.964088 144.0
126.010941 152.0
126.035522 180.0
126.109268 128.0
126.170349 172.0
126.26577 156.0
126.30603 144.0
126.451035 188.0
126.547722 152.0
126.626091 172.0
126.868088 108.0
127.056473 168.0
127.074417 168.0
127.11705 124.0
127.137245 160.0
127.260704 160.0
127.355026 128.0
127.388718 60.0
127.411179 176.0
127.46286 112.0
127.732643 148.0
127.95993 100.0
127.991455 132.0
128.101807 148.0
128.162643 100.0
128.23024 172.0
128.306885 148.0
128.376785 164.0
128.42865 108.0
128.516632 120.0
128.613678 168.0
128.706238 184.0
128.884674 160.0
128.984116 168.0
129.011246 208.0
129.042892 136.0
129.16275 176.0
129.269073 192.0
129.300766 152.0
129.384506 204.0
129.522644 320.0
129.581543 128.0
129.70166 164.0
129.842224 212.0
129.869446 152.0
129.973801 256.0
130.030533 180.0
130.064453 196.0
130.094086 180.0
130.191711 128.0
130.241348 164.0
130.289383 116.0
130.403 148.0
130.48938 252.0
130.675873 204.0
130.830643 148.0
130.860229 104.0
130.887558 80.0
131.060715 1672.0
131.122192 112.0
131.190567 172.0
131.210327 216.0
131.284058 164.0
131.354767 148.0
131.404953 176.0
131.46199 152.0
131.507965 140.0
131.681152 120.0
131.735977 216.0
131.7771 96.0
131.83194 196.0
131.939362 180.0
131.965942 128.0
132.030762 164.0
132.064758 388.0
132.123444 220.0
132.22757 152.0
132.261902 148.0
132.371796 156.0
132.427322 164.0
132.447372 144.0
132.589432 44.0
132.628387 156.0
132.660477 172.0
132.736145 148.0
132.910461 148.0
132.928818 164.0
133.038986 132.0
133.075226 820.0
133.107986 152.0
133.156097 224.0
133.17218 164.0
133.380142 176.0
133.482422 148.0
133.532684 136.0
133.558945 176.0
133.783829 112.0
133.845993 208.0
133.90126 228.0
134.039474 204.0
134.062515 200.0
134.078278 196.0
134.256165 136.0
134.330215 148.0
134.419952 148.0
134.791855 140.0
134.811539 132.0
134.904968 108.0
134.946579 108.0
135.044571 336.0
135.080414 348.0
135.110352 148.0
135.203339 272.0
135.244995 200.0
135.272781 72.0
135.30246 112.0
135.334259 72.0
135.37001 180.0
135.407074 184.0
135.495087 76.0
135.548386 180.0
135.620224 192.0
135.651825 152.0
135.794113 116.0
135.943924 200.0
136.021729 200.0
136.054001 140.0
136.105087 200.0
136.121338 176.0
136.20726 164.0
136.232819 88.0
136.249084 72.0
136.293228 120.0
136.388504 180.0
136.499039 192.0
136.56987 200.0
136.61174 168.0
136.681534 108.0
136.711792 116.0
136.930618 124.0
137.042435 180.0
137.329163 196.0
137.361816 136.0
137.455139 144.0
137.482803 160.0
137.648895 60.0
137.665237 44.0
137.68158 68.0
137.79837 176.0
137.849777 124.0
137.890045 148.0
137.952393 168.0
138.074203 124.0
138.19632 96.0
138.226257 60.0
138.305832 164.0
138.362015 204.0
138.530624 112.0
138.549362 96.0
138.579819 136.0
138.626678 148.0
138.666519 204.0
138.725128 124.0
138.795135 148.0
138.823593 52.0
138.865814 132.0
138.929138 64.0
138.968613 112.0
138.992493 136.0
139.098099 116.0
139.236374 152.0
139.267166 100.0
139.401077 132.0
139.43132 64.0
139.469223 116.0
139.549149 160.0
139.654388 176.0
139.822021 188.0
139.984451 160.0
140.017502 196.0
140.066879 116.0
140.132843 52.0
140.184692 208.0
140.260101 188.0
140.394485 76.0
140.469971 200.0
140.571411 108.0
140.696518 128.0
140.81694 128.0
140.942139 144.0
140.982315 144.0
141.067398 148.0
141.098129 52.0
141.242386 116.0
141.277863 136.0
141.31572 80.0
141.4151 196.0
141.464813 84.0
141.49559 152.0
141.531097 120.0
141.620819 176.0
141.749023 180.0
141.767975 76.0
141.935471 200.0
142.05249 336.0
142.089874 360.0
142.111801 52.0
142.285065 172.0
142.354736 272.0
142.438446 176.0
142.54158 168.0
142.562958 124.0
142.584351 192.0
142.627136 132.0
142.691315 44.0
142.772156 120.0
142.837662 148.0
142.857788 172.0
142.876816 112.0
142.906693 188.0
142.931549 256.0
143.014832 44.0
143.061676 448.0
143.086243 196.0
143.195786 60.0
143.229126 168.0
143.293457 108.0
143.372086 124.0
143.39592 144.0
143.420715 196.0
143.460266 160.0
143.543716 148.0
143.600952 140.0
143.62999 140.0
143.798981 176.0
143.830002 172.0
143.861038 140.0
143.884918 160.0
143.987595 76.0
144.063034 200.0
144.096573 148.0
144.159592 208.0
144.212173 176.0
144.281967 128.0
144.300613 116.0
144.374741 192.0
144.479996 148.0
144.549377 144.0
144.587662 72.0
144.62117 164.0
144.669037 128.0
144.685806 132.0
144.767822 220.0
144.795944 168.0
145.04512 176.0
145.074677 1564.0
145.106155 136.0
145.253738 124.0
145.301712 348.0
145.460098 172.0
145.586853 152.0
145.661804 200.0
145.707458 240.0
145.726669 156.0
145.772324 196.0
145.830002 164.0
145.861252 80.0
145.916534 228.0
145.998291 160.0
146.078308 432.0
146.154648 240.0
146.424057 92.0
146.441208 180.0
146.559158 160.0
146.576035 120.0
146.60495 112.0
146.68689 160.0
146.800217 160.0
146.884628 260.0
146.94252 104.0
146.976303 200.0
147.003876 208.0
147.039047 204.0
147.089981 348.0
147.13559 76.0
147.208023 240.0
147.244247 92.0
147.26358 108.0
147.517288 132.0
147.548721 192.0
147.672043 128.0
147.688965 108.0
147.717987 220.0
147.776062 72.0
147.800064 152.0
147.877182 116.0
148.063477 108.0
148.112549 156.0
148.197342 136.0
148.236115 136.0
148.286438 156.0
148.354874 152.0
148.4664 204.0
148.49794 204.0
148.74057 168.0
148.809036 136.0
148.854675 124.0
148.973679 156.0
149.00769 244.0
149.059921 528.0
149.092743 112.0
149.135056 160.0
149.272629 124.0
149.311539 152.0
149.360184 124.0
149.488297 128.0
149.511032 220.0
149.565308 212.0
149.605957 160.0
149.64978 164.0
149.681427 132.0
149.798386 184.0
149.922592 128.0
149.96402 92.0
149.981079 112.0
150.005463 108.0
150.033997 164.0
150.193222 192.0
150.302902 188.0
150.415268 184.0
150.473846 116.0
150.542221 152.0
150.661896 120.0
150.752304 200.0
150.810959 32.0
150.903854 172.0
150.969879 120.0
151.076614 56.0
151.128876 152.0
151.187592 164.0
151.213043 160.0
151.261017 184.0
151.461884 148.0
151.67009 108.0
151.687241 120.0
151.738724 192.0
151.819641 88.0
151.947693 168.0
151.970383 168.0
151.996262 116.0
152.035522 128.0
152.058365 116.0
152.136002 152.0
152.194 164.0
152.254013 204.0
152.552917 228.0
152.62999 168.0
152.762802 164.0
152.799698 132.0
152.841522 148.0
152.939957 160.0
153.016281 84.0
153.057861 184.0
153.112305 52.0
153.319611 188.0
153.38826 148.0
153.440033 184.0
153.467148 76.0
153.513992 200.0
153.553452 292.0
153.586044 56.0
153.659363 124.0
153.689133 112.0
153.775497 100.0
153.819931 88.0
153.886581 140.0
153.908813 132.0
154.064255 144.0
154.215134 48.0
154.378311 120.0
154.63559 192.0
154.739563 156.0
154.903 96.0
154.932739 76.0
154.955032 152.0
155.060394 172.0
155.126022 144.0
155.163208 96.0
155.302078 132.0
155.366577 80.0
155.463333 168.0
155.503052 144.0
155.609787 172.0
155.642059 208.0
155.70166 200.0
155.830826 152.0
155.848221 56.0
155.896255 160.0
155.909073 148.0
155.974503 196.0
155.992371 188.0
156.019714 64.0
156.041382 156.0
156.068588 4564.0
156.130066 136.0
156.167542 168.0
156.195755 196.0
156.24353 160.0
156.325638 144.0
156.352371 124.0
156.473694 60.0
156.489929 176.0
156.527267 232.0
156.566437 200.0
156.714081 208.0
156.761429 196.0
156.8013 172.0
156.973312 120.0
157.040649 140.0
157.073349 816.0
157.160385 180.0
157.320114 60.0
157.340088 228.0
157.40506 168.0
157.424973 276.0
157.452454 156.0
157.469925 72.0
157.494904 60.0
157.589951 84.0
157.664795 208.0
157.782272 200.0
157.899796 168.0
157.949829 244.0
157.98735 232.0
158.017365 100.0
158.047394 152.0
158.082565 212.0
158.122467 164.0
158.205063 128.0
158.27034 168.0
158.422928 192.0
158.470535 136.0
158.593323 136.0
158.61087 148.0
158.643463 128.0
158.761307 48.0
158.811462 168.0
158.854111 96.0
158.890091 220.0
158.93689 176.0
158.997116 172.0
159.055908 328.0
159.086639 84.0
159.167816 212.0
159.313492 128.0
159.542175 160.0
159.559769 184.0
159.637726 124.0
159.75766 140.0
159.874191 200.0
159.901611 128.0
159.964798 60.0
159.982422 316.0
160.007599 68.0
160.048706 680.0
160.113342 188.0
160.153641 168.0
160.256927 176.0
160.304932 168.0
160.514023 176.0
160.582123 116.0
160.698151 140.0
160.771332 148.0
160.809189 164.0
160.87886 332.0
160.964111 184.0
161.001068 124.0
161.056259 352.0
161.0979 152.0
161.187988 132.0
161.241058 128.0
161.281509 168.0
161.359863 168.0
161.438248 88.0
161.455948 52.0
161.779816 152.0
161.815262 156.0
161.883636 168.0
161.95694 220.0
161.998077 148.0
162.106552 68.0
162.324554 184.0
162.486877 164.0
162.547775 228.0
162.623901 184.0
162.654373 136.0
162.725449 140.0
162.745758 160.0
162.943863 180.0
163.07605 1300.0
163.152267 32.0
163.17514 248.0
163.19548 160.0
163.225998 140.0
163.370956 164.0
163.437119 204.0
163.518539 184.0
163.625458 156.0
163.88269 128.0
163.971878 184.0
163.994812 212.0
164.023911 136.0
164.085541 144.0
164.114624 124.0
164.140137 136.0
164.216629 144.0
164.38501 140.0
164.413086 132.0
164.550919 140.0
164.636627 184.0
164.655609 96.0
164.693924 184.0
164.740784 116.0
164.812958 168.0
164.890656 124.0
164.973724 168.0
165.018463 252.0
165.054764 6668.0
165.18544 232.0
165.235855 132.0
165.292145 64.0
165.310059 160.0
165.361237 56.0
165.473877 60.0
165.507156 192.0
165.592575 136.0
165.665939 168.0
165.729996 124.0
165.784821 132.0
165.870941 176.0
165.93248 172.0
165.965805 112.0
165.986313 180.0
166.034531 200.0
166.056015 576.0
166.124817 120.0
166.204346 64.0
166.222305 88.0
166.268494 88.0
166.306992 140.0
166.366028 188.0
166.401978 320.0
166.443054 112.0
166.502121 144.0
166.586884 264.0
166.625412 84.0
166.693695 76.0
166.715347 88.0
166.854141 132.0
166.903 104.0
166.931274 200.0
166.94928 112.0
166.972427 72.0
166.992996 80.0
167.029007 44.0
167.065094 140.0
167.105225 160.0
167.224564 76.0
167.440826 124.0
167.706192 92.0
167.826889 132.0
167.836426 108.0
168.002731 204.0
168.063995 328.0
168.134323 208.0
168.19548 156.0
168.232407 120.0
168.37442 168.0
168.513901 196.0
168.599182 176.0
168.650864 132.0
168.68927 228.0
168.749924 176.0
168.842194 144.0
168.880981 172.0
168.956879 176.0
168.9767 72.0
169.01033 128.0
169.036209 56.0
169.075912 4560.0
169.190552 132.0
169.252792 140.0
169.443726 164.0
169.523041 68.0
169.6604 80.0
169.701889 140.0
169.784866 124.0
169.852295 188.0
169.886017 168.0
169.928375 148.0
169.980087 140.0
170.007965 108.0
170.051819 232.0
170.083328 1192.0
170.119019 132.0
170.175385 88.0
170.215637 136.0
170.332504 80.0
170.407837 68.0
170.5186 212.0
170.577179 160.0
170.748703 156.0
170.769653 128.0
170.802048 160.0
170.83313 188.0
170.914856 80.0
170.980331 172.0
171.003326 88.0
171.052994 484.0
171.092026 38428.0
171.125397 152.0
171.160553 316.0
171.180359 164.0
171.226135 204.0
171.256409 160.0
171.266983 76.0
171.27562 180.0
171.328079 140.0
171.357483 80.0
171.391342 96.0
171.416687 148.0
171.446075 148.0
171.46431 80.0
171.518524 120.0
171.545685 164.0
171.588699 184.0
171.662445 52.0
171.691116 40.0
171.741898 196.0
171.78241 152.0
171.829376 100.0
171.852844 164.0
171.885391 68.0
171.978104 208.0
171.997787 164.0
172.064255 204.0
172.094101 3184.0
172.151337 80.0
172.218079 44.0
172.262726 44.0
172.295761 68.0
172.317581 36.0
172.456085 44.0
172.495926 152.0
172.521439 80.0
172.565872 124.0
172.664627 152.0
172.696625 72.0
172.727402 104.0
172.788391 148.0
172.869293 52.0
172.926865 164.0
173.070297 5336.0
173.123215 36.0
173.181839 152.0
173.230606 116.0
173.256821 240.0
173.293472 116.0
173.42189 116.0
173.448959 180.0
173.46994 84.0
173.5215 84.0
173.576553 92.0
173.619247 228.0
173.659409 108.0
173.686707 164.0
173.715561 104.0
173.750809 52.0
173.804764 100.0
173.827835 192.0
173.866608 120.0
173.965652 172.0
173.988281 160.0
174.073074 888.0
174.172302 76.0
174.272125 188.0
174.345703 208.0
174.408783 52.0
174.466614 84.0
174.500793 140.0
174.592819 112.0
174.650681 64.0
174.822815 200.0
174.961197 316.0
175.005951 148.0
175.075012 1796.0
175.121811 72.0
175.152786 100.0
175.181046 132.0
175.219284 48.0
175.258804 132.0
175.324677 120.0
175.427017 164.0
175.540848 160.0
175.558823 196.0
175.580399 128.0
175.672714 152.0
175.77034 188.0
175.825745 148.0
175.897018 132.0
175.944534 100.0
176.078171 452.0
176.162079 204.0
176.25354 72.0
176.338348 172.0
176.359253 240.0
176.402039 212.0
176.459702 156.0
176.634247 160.0
176.667191 224.0
176.901505 64.0
176.989334 116.0
177.03389 136.0
177.089508 124.0
177.174271 152.0
177.250687 128.0
177.277603 124.0
177.351807 152.0
177.49762 68.0
177.561829 148.0
177.609009 124.0
177.762878 52.0
177.858414 176.0
177.98851 96.0
178.060211 132.0
178.108017 228.0
178.17485 148.0
178.200989 276.0
178.25679 144.0
178.283371 128.0
178.341827 128.0
178.379913 164.0
178.461456 140.0
178.567749 144.0
178.764694 152.0
178.787537 128.0
178.897766 132.0
178.959 108.0
179.089493 108.0
179.124695 220.0
179.157364 168.0
179.273315 164.0
179.295151 168.0
179.382599 84.0
179.422577 100.0
179.529236 184.0
179.57457 80.0
179.642014 196.0
179.748413 168.0
179.836044 88.0
179.884079 140.0
179.916122 104.0
180.004288 172.0
180.223251 236.0
180.31424 88.0
180.340836 176.0
180.375595 84.0
180.404999 156.0
180.565689 160.0
180.597519 196.0
180.616241 60.0
180.731277 128.0
180.874695 284.0
180.951202 140.0
180.996262 120.0
181.017685 96.0
181.087311 176.0
181.151596 120.0
181.223938 92.0
181.304321 156.0
181.524139 168.0
181.671661 160.0
181.897064 48.0
181.918533 56.0
181.969543 180.0
182.03186 224.0
182.074265 28.0
182.103806 164.0
182.136047 68.0
182.189972 156.0
182.219193 172.0
182.267685 52.0
182.321426 72.0
182.364426 156.0
182.506912 212.0
182.531097 84.0
182.700546 172.0
182.738205 156.0
182.773193 200.0
182.853928 140.0
182.918015 148.0
182.942749 100.0
183.050446 156.0
183.096542 348.0
183.22699 168.0
183.333298 76.0
183.376419 208.0
183.399414 156.0
183.451889 88.0
183.476151 116.0
183.585434 120.0
183.664902 160.0
183.845673 224.0
183.867264 260.0
183.921234 56.0
183.953629 80.0
184.018417 112.0
184.044678 144.0
184.097824 368.0
184.126434 180.0
184.218262 132.0
184.270004 160.0
184.388489 168.0
184.507431 56.0
184.631805 156.0
184.715652 172.0
184.76976 136.0
184.825378 216.0
184.868637 152.0
184.937317 52.0
185.018738 152.0
185.075699 164.0
185.105438 172.0
185.143295 152.0
185.4142 144.0
185.51178 120.0
185.579559 184.0
185.709717 68.0
185.910477 140.0
185.964355 136.0
185.991898 212.0
186.078766 128.0
186.160233 44.0
186.187378 136.0
186.282455 100.0
186.353088 120.0
186.396561 164.0
186.640549 288.0
186.720047 52.0
186.946808 136.0
187.041107 108.0
187.070938 188.0
187.102036 160.0
187.234421 156.0
187.253479 220.0
187.337921 240.0
187.367065 160.0
187.389679 56.0
187.47142 80.0
187.539551 100.0
187.825851 152.0
188.044479 216.0
188.076157 120.0
188.112366 192.0
188.257309 140.0
188.334549 196.0
188.358124 132.0
188.3909 196.0
188.459213 152.0
188.576706 204.0
188.613876 244.0
188.669647 180.0
188.701675 208.0
188.773544 112.0
188.809097 64.0
188.869278 112.0
188.957718 132.0
188.984161 168.0
189.057358 236.0
189.08992 1784.0
189.175735 36.0
189.225021 160.0
189.450424 128.0
189.596451 80.0
189.671539 236.0
189.78923 56.0
189.933548 260.0
189.984146 88.0
190.006104 184.0
190.058228 148.0
190.093979 240.0
190.143295 148.0
190.231125 100.0
190.329971 180.0
190.390381 120.0
190.579773 244.0
190.607391 68.0
190.695328 328.0
190.742065 68.0
190.85202 156.0
191.069107 176.0
191.08313 144.0
191.158173 172.0
191.248169 112.0
191.278442 36.0
191.361038 112.0
191.396225 200.0
191.457413 156.0
191.477448 188.0
191.603394 220.0
191.865204 48.0
191.895523 116.0
191.997559 56.0
192.049957 168.0
192.067596 104.0
192.098221 216.0
192.176849 104.0
192.215485 192.0
192.26239 88.0
192.306549 188.0
192.477707 128.0
192.560562 128.0
192.626846 136.0
192.784332 104.0
193.078064 160.0
193.109741 216.0
193.235031 140.0
193.326996 136.0
193.439819 172.0
193.497955 128.0
193.650253 88.0
193.69458 80.0
193.747208 112.0
193.880203 136.0
193.913467 164.0
193.960587 160.0
193.993851 208.0
194.057236 152.0
194.087646 120.0
194.110291 108.0
194.223999 180.0
194.351608 120.0
194.379364 56.0
194.506165 328.0
194.595856 76.0
194.615295 56.0
194.756927 196.0
194.801361 124.0
194.848587 128.0
195.01532 212.0
195.090363 324.0
195.11261 220.0
195.168213 124.0
195.262756 156.0
195.321167 48.0
195.371246 196.0
195.40184 184.0
195.446365 144.0
195.474945 148.0
195.546539 232.0
195.674591 132.0
195.719131 88.0
195.744202 40.0
195.96907 136.0
195.992096 188.0
196.050613 196.0
196.095444 148.0
196.148163 196.0
196.180481 140.0
196.228607 196.0
196.29953 220.0
196.354019 164.0
196.474442 156.0
196.597198 124.0
196.645828 180.0
196.817719 240.0
196.840057 136.0
196.865189 156.0
196.953796 116.0
197.031448 148.0
197.066177 656.0
197.102631 356.0
197.124985 148.0
197.271484 116.0
197.474442 112.0
197.628296 92.0
197.654938 100.0
197.807404 176.0
197.849396 120.0
197.947388 168.0
198.039688 1032.0
198.061646 324.0
198.149063 52.0
198.221909 148.0
198.303177 180.0
198.605988 108.0
198.649643 128.0
198.966827 208.0
199.050491 1032.0
199.081009 264.0
199.167542 180.0
199.237579 96.0
199.369644 104.0
199.408981 112.0
199.439896 148.0
199.50174 232.0
199.546722 164.0
199.622635 36.0
199.704193 124.0
199.872986 196.0
199.996811 140.0
200.051392 176.0
200.089706 28.0
200.222046 168.0
200.295273 196.0
200.469955 148.0
200.644714 168.0
200.678543 156.0
200.819534 36.0
200.839279 124.0
200.873138 52.0
200.938019 108.0
201.005737 68.0
201.033951 112.0
201.062164 120.0
201.08902 172.0
201.149673 132.0
201.186371 128.0
201.2146 156.0
201.30777 160.0
201.638306 116.0
201.762665 92.0
201.839005 144.0
201.85881 120.0
201.906876 120.0
202.048782 144.0
202.105469 280.0
202.270599 180.0
202.351135 228.0
202.390762 176.0
202.472885 164.0
202.522308 328.0
202.611679 80.0
202.798706 136.0
202.878067 124.0
202.993088 148.0
203.062027 448.0
203.067139 248.0
203.103027 156.0
203.175842 120.0
203.309204 120.0
203.417053 128.0
203.57605 160.0
203.638519 108.0
203.675446 200.0
203.695328 200.0
203.749313 192.0
203.808975 72.0
203.843063 176.0
203.880005 112.0
203.959595 140.0
204.024963 184.0
204.229706 268.0
204.340652 168.0
204.436249 208.0
204.494308 160.0
204.562622 184.0
204.593933 48.0
204.793259 148.0
204.887268 160.0
204.969894 96.0
205.088562 424.0
205.149445 132.0
205.192215 160.0
205.220718 244.0
205.286301 104.0
205.311966 100.0
205.377563 128.0
205.507202 136.0
205.55159 76.0
205.814941 200.0
205.868454 76.0
205.959839 132.0
206.05983 124.0
206.083221 128.0
206.194122 140.0
206.231277 148.0
206.397079 180.0
206.502899 168.0
206.552979 136.0
206.582993 156.0
206.677399 156.0
206.728897 128.0
206.751083 176.0
206.756653 132.0
206.837662 136.0
206.957901 176.0
207.006577 148.0
207.095352 148.0
207.146912 100.0
207.175568 132.0
207.200241 136.0
207.227127 124.0
207.267242 144.0
207.36467 72.0
207.442062 168.0
207.579681 80.0
207.602554 164.0
207.692474 208.0
207.836334 132.0
207.883759 80.0
207.903839 108.0
208.01004 164.0
208.030136 136.0
208.090424 128.0
208.130615 120.0
208.32016 140.0
208.402405 88.0
208.429337 120.0
208.452332 176.0
208.57016 184.0
208.66214 196.0
208.736908 256.0
208.805923 176.0
208.926727 140.0
209.076355 140.0
209.104309 492.0
209.218246 108.0
209.263458 108.0
209.319046 168.0
209.406128 124.0
209.462158 172.0
209.508255 144.0
209.600449 140.0
209.629257 180.0
209.660965 76.0
209.770493 220.0
209.805084 148.0
209.859848 44.0
209.914642 176.0
209.98909 88.0
210.1082 184.0
210.168472 52.0
210.223297 144.0
210.272354 204.0
210.295456 148.0
210.338745 232.0
210.396484 344.0
210.497528 260.0
210.613052 156.0
210.691879 180.0
210.725708 104.0
210.754608 168.0
210.884644 168.0
210.951126 168.0
211.054825 184.0
211.136169 196.0
211.228729 64.0
211.309738 164.0
211.347351 136.0
211.47757 160.0
211.515198 244.0
211.697586 112.0
211.723663 156.0
211.760513 132.0
211.790268 140.0
211.880066 240.0
211.961197 120.0
212.062622 124.0
212.082916 256.0
212.161179 112.0
212.227859 164.0
212.468582 104.0
212.500504 180.0
212.546921 144.0
212.668808 120.0
212.689117 104.0
212.892349 148.0
213.025955 116.0
213.057907 156.0
213.084976 216.0
213.233658 116.0
213.267136 116.0
213.302017 32.0
213.40593 204.0
213.416733 148.0
213.465683 148.0
213.534622 36.0
213.685883 188.0
213.712067 128.0
213.9711 192.0
214.001389 128.0
214.076584 168.0
214.169113 176.0
214.2565 132.0
214.297287 216.0
214.36795 192.0
214.40802 152.0
214.585831 200.0
214.676224 152.0
214.763702 88.0
214.787048 56.0
214.819138 104.0
214.921234 144.0
214.947495 136.0
215.052322 144.0
215.078201 432.0
215.198517 164.0
215.280273 128.0
215.312408 160.0
215.417557 144.0
215.457626 156.0
215.69133 156.0
215.730225 120.0
216.027069 188.0
216.052536 416.0
216.092865 76.0
216.142609 132.0
216.206985 228.0
216.292648 120.0
216.467529 128.0
216.514587 108.0
216.552444 80.0
216.633041 148.0
216.675476 268.0
216.711182 152.0
216.778931 144.0
216.824921 52.0
216.854233 116.0
216.936295 100.0
217.029678 136.0
217.086243 4884.0
217.156204 36.0
217.197281 124.0
217.216599 68.0
217.259369 68.0
217.376236 64.0
217.420258 116.0
217.4496 48.0
217.496567 92.0
217.572891 144.0
217.628662 180.0
217.678589 160.0
217.746124 72.0
217.822495 208.0
217.872437 84.0
217.916504 172.0
217.948822 212.0
217.984085 120.0
218.019348 152.0
218.088058 724.0
218.112549 124.0
218.280975 56.0
218.330963 112.0
218.363235 164.0
218.610428 164.0
218.695786 152.0
218.782288 216.0
218.807632 96.0
218.859497 204.0
218.893021 184.0
218.91658 96.0
219.093903 224.0
219.119827 140.0
219.172852 168.0
219.199371 156.0
219.243576 156.0
219.374893 144.0
219.435165 72.0
219.505936 60.0
219.546906 148.0
219.620285 160.0
219.854019 108.0
219.948471 56.0
219.991272 240.0
220.096085 96.0
220.116745 208.0
220.143326 92.0
220.224579 204.0
220.373718 132.0
220.506699 248.0
220.562332 160.0
220.799286 112.0
220.84967 148.0
220.917694 172.0
221.000534 92.0
221.052109 200.0
221.10466 1408.0
221.157379 44.0
221.228424 72.0
221.260986 144.0
221.303818 140.0
221.349808 96.0
221.385345 164.0
221.573212 168.0
221.613419 140.0
221.646011 156.0
221.714172 112.0
221.871277 132.0
222.031387 196.0
222.114136 596.0
222.176727 44.0
222.227158 116.0
222.331024 68.0
222.550674 144.0
222.645706 152.0
222.693222 224.0
222.722916 152.0
222.861115 116.0
222.879227 156.0
222.975464 140.0
222.996277 80.0
223.070587 172.0
223.120743 256.0
223.368973 184.0
223.424454 180.0
223.535736 100.0
223.59108 172.0
223.638702 220.0
223.680374 112.0
223.763733 116.0
223.987274 120.0
224.049637 140.0
224.094727 116.0
224.168808 56.0
224.189667 156.0
224.246292 136.0
224.338699 212.0
224.416214 176.0
224.454971 48.0
224.722748 216.0
224.809021 128.0
224.905457 108.0
225.005829 152.0
225.060684 176.0
225.098557 164.0
225.356384 56.0
225.472916 112.0
225.493835 232.0
225.541656 168.0
225.610413 108.0
225.637329 204.0
225.852707 156.0
225.966309 156.0
226.056061 116.0
226.141235 96.0
226.166794 124.0
226.223679 176.0
226.389999 196.0
226.60701 176.0
226.630554 196.0
226.690903 116.0
226.786804 84.0
226.816772 100.0
226.975677 212.0
227.080627 68.0
227.128616 80.0
227.179611 184.0
227.20961 140.0
227.242615 340.0
227.333038 204.0
227.36264 140.0
227.401657 132.0
227.422668 112.0
227.593781 176.0
227.614807 148.0
227.713898 264.0
227.777664 280.0
227.80954 124.0
227.86409 184.0
227.909164 156.0
228.06543 184.0
228.098495 136.0
228.164627 140.0
228.209732 104.0
228.366104 112.0
228.387146 112.0
228.530411 148.0
228.675995 180.0
228.802414 144.0
228.823486 84.0
228.931885 192.0
229.034286 144.0
229.079468 116.0
229.177536 188.0
229.251205 148.0
229.317505 48.0
229.43808 156.0
229.46521 104.0
229.591858 180.0
229.628052 192.0
229.695465 160.0
229.736633 120.0
229.7668 308.0
229.902588 68.0
229.938797 96.0
230.01123 68.0
230.038406 148.0
230.080643 856.0
230.264862 188.0
230.337341 108.0
230.397766 120.0
230.424957 236.0
230.482361 116.0
230.554886 120.0
230.693924 204.0
230.926743 172.0
230.947922 72.0
230.980103 100.0
231.081802 308.0
231.174973 156.0
231.229294 132.0
231.301926 112.0
231.386688 112.0
231.429077 176.0
231.483582 132.0
231.51387 136.0
231.535065 132.0
231.586548 104.0
231.70166 156.0
231.74408 208.0
231.780441 168.0
231.816803 88.0
231.925903 148.0
231.996323 188.0
232.053223 104.0
232.104385 156.0
232.141159 208.0
232.165421 200.0
232.232132 84.0
232.265503 88.0
232.295837 180.0
232.344376 132.0
232.526428 52.0
232.559814 168.0
232.702499 168.0
232.850494 148.0
232.87558 156.0
232.90596 140.0
232.957596 68.0
233.012283 172.0
233.063919 160.0
233.08519 132.0
233.106461 148.0
233.221863 152.0
233.416519 236.0
233.507751 88.0
233.571625 188.0
233.626373 164.0
233.764709 112.0
233.863724 56.0
233.947723 228.0
233.976349 152.0
234.037247 132.0
234.0616 144.0
234.116318 136.0
234.290024 124.0
234.494186 116.0
234.521606 140.0
234.786865 132.0
234.829559 156.0
234.883499 152.0
235.055298 148.0
235.091644 216.0
235.12381 1540.0
235.162109 196.0
235.201797 168.0
235.22316 240.0
235.302536 100.0
235.399155 192.0
235.461319 144.0
235.506744 64.0
235.537674 96.0
235.559052 128.0
235.601822 188.0
235.662933 124.0
235.699585 224.0
235.782104 180.0
235.82489 156.0
235.977737 96.0
236.010468 96.0
236.051117 136.0
236.087753 316.0
236.09549 172.0
236.127594 744.0
236.259094 52.0
236.381485 140.0
236.442688 160.0
236.465637 200.0
236.5345 60.0
236.574524 264.0
236.620224 52.0
236.716064 144.0
236.782501 128.0
236.871323 124.0
237.09964 116.0
237.136459 804.0
237.168549 92.0
237.248245 120.0
237.32489 156.0
237.358627 192.0
237.407684 136.0
237.481293 156.0
237.745132 144.0
237.828293 208.0
237.858688 156.0
237.999908 112.0
238.039825 44.0
238.067474 160.0
238.103989 300.0
238.181107 64.0
238.27327 224.0
238.356216 120.0
238.40538 160.0
238.471619 152.0
238.765076 100.0
238.792007 248.0
238.826584 52.0
239.017319 128.0
239.075485 168.0
239.110199 176.0
239.157532 164.0
239.427444 156.0
239.48526 112.0
239.522217 64.0
239.667007 156.0
239.740967 44.0
239.947479 184.0
240.317581 140.0
240.413788 180.0
240.473785 196.0
240.536697 144.0
240.644974 52.0
240.709579 104.0
240.755905 136.0
240.87944 64.0
240.946594 424.0
241.012283 68.0
241.037003 80.0
241.092636 156.0
241.169891 140.0
241.330643 144.0
241.435776 96.0
241.652298 168.0
241.806168 172.0
242.078461 188.0
242.086136 128.0
242.09613 208.0
242.1259 120.0
242.208115 148.0
242.249802 220.0
242.280777 216.0
242.31369 200.0
242.532028 244.0
242.553162 200.0
242.640274 212.0
242.90387 132.0
243.009338 136.0
243.05278 96.0
243.099884 180.0
243.124146 160.0
243.198639 388.0
243.331787 112.0
243.46875 168.0
243.639572 184.0
243.745209 152.0
243.818481 152.0
243.84111 144.0
243.975204 228.0
244.003189 64.0
244.074692 192.0
244.133774 92.0
244.164886 152.0
244.311066 148.0
244.385742 160.0
244.416855 184.0
244.665833 164.0
244.715652 144.0
244.785263 124.0
244.824631 188.0
244.955444 116.0
245.080063 136.0
245.109543 184.0
245.148621 88.0
245.179779 204.0
245.341858 120.0
245.450989 96.0
245.507111 108.0
245.532059 204.0
245.553894 120.0
245.728577 176.0
245.766022 88.0
245.819061 168.0
246.006332 120.0
246.031296 112.0
246.056274 100.0
246.120026 280.0
246.149948 80.0
246.218643 136.0
246.290482 132.0
246.402939 132.0
246.615433 196.0
246.671692 96.0
246.724838 108.0
246.783981 144.0
246.860718 236.0
246.984375 152.0
247.009399 124.0
247.095245 504.0
247.119293 444.0
247.164413 160.0
247.209641 240.0
247.269104 168.0
247.469437 124.0
247.49971 160.0
247.682388 172.0
247.88916 256.0
247.926758 220.0
248.096313 544.0
248.12825 600.0
248.174393 152.0
248.259064 72.0
248.393921 152.0
248.499283 164.0
248.553925 100.0
248.583633 132.0
248.670044 120.0
248.701431 152.0
248.764206 136.0
248.805008 192.0
248.826996 56.0
248.914902 208.0
248.965149 124.0
248.993622 124.0
249.10083 2556.0
249.219589 200.0
249.317612 180.0
249.357849 108.0
249.439575 104.0
249.521301 120.0
249.621918 164.0
249.747711 200.0
249.816925 152.0
249.901855 136.0
249.930176 168.0
249.98996 200.0
250.106445 1276.0
250.137756 212.0
250.186493 172.0
250.210297 52.0
250.241776 116.0
250.301605 160.0
250.329437 208.0
250.364578 116.0
250.575623 60.0
250.616577 148.0
250.676453 120.0
250.890778 156.0
250.98851 108.0
251.013733 128.0
251.054733 160.0
251.114655 936.0
251.15213 244.0
251.187195 64.0
251.22821 212.0
251.329163 200.0
251.408051 104.0
251.442764 112.0
251.518509 52.0
251.647949 164.0
251.704773 156.0
251.748566 152.0
251.812149 120.0
251.840576 96.0
251.944809 140.0
252.004837 248.0
252.055389 384.0
252.093765 328.0
252.12149 328.0
252.156525 144.0
252.210251 152.0
252.399933 156.0
252.42749 268.0
252.501129 136.0
252.630814 124.0
252.684586 192.0
252.744705 172.0
253.03273 132.0
253.089722 124.0
253.111877 52.0
253.143539 120.0
253.197372 224.0
253.237076 180.0
253.286057 184.0
253.333572 112.0
253.387436 104.0
253.904099 152.0
253.951675 124.0
254.059601 168.0
254.104553 168.0
254.195953 96.0
254.234039 144.0
254.262604 136.0
254.338776 60.0
254.434006 148.0
254.456223 228.0
254.521439 164.0
254.551483 208.0
254.583237 112.0
254.851135 188.0
254.881836 148.0
254.929489 128.0
254.977158 96.0
255.142456 120.0
255.17424 200.0
255.454102 180.0
255.571808 144.0
255.65773 164.0
255.778671 96.0
255.880539 212.0
256.011078 164.0
256.042938 92.0
256.087799 140.0
256.11618 176.0
256.1716 160.0
256.230865 148.0
256.262726 64.0
256.326447 112.0
256.386993 172.0
256.508118 88.0
256.555939 52.0
256.673889 124.0
256.795074 152.0
257.085388 164.0
257.267334 80.0
257.302429 168.0
257.452515 176.0
257.494019 124.0
257.593048 232.0
257.688873 116.0
257.775146 144.0
257.807098 196.0
258.06601 184.0
258.136353 172.0
258.216309 188.0
258.347443 176.0
258.401855 208.0
258.427429 52.0
258.494629 124.0
258.558624 140.0
258.62265 160.0
258.65921 192.0
258.683472 132.0
258.753876 152.0
258.808319 104.0
258.923584 156.0
258.994049 84.0
259.083618 368.0
259.094482 352.0
259.535645 124.0
259.558105 116.0
259.617554 168.0
259.724854 72.0
259.805054 180.0
260.007202 128.0
260.029663 124.0
260.066467 232.0
260.097046 280.0
260.235107 120.0
260.325012 48.0
260.55307 64.0
260.575562 132.0
260.655884 192.0
260.707306 60.0
260.768341 144.0
260.835846 52.0
260.87442 172.0
260.896942 116.0
261.0159 196.0
261.041626 196.0
261.105682 700.0
261.143219 464.0
261.182587 124.0
261.379364 100.0
261.462402 164.0
261.613129 220.0
261.688354 164.0
261.752747 180.0
261.779297 184.0
261.826813 80.0
261.859039 164.0
262.036194 172.0
262.108032 504.0
262.144226 128.0
262.348785 212.0
262.422943 148.0
262.458405 116.0
262.540558 148.0
262.600708 196.0
262.642242 76.0
262.725372 160.0
262.910004 84.0
263.000397 176.0
263.079865 224.0
263.117279 1748.0
263.232819 48.0
263.365234 60.0
263.507385 100.0
263.546143 144.0
263.590332 140.0
263.626923 236.0
263.817627 196.0
264.043976 152.0
264.086975 344.0
264.124359 1364.0
264.184845 168.0
264.259277 128.0
264.302765 256.0
264.344818 80.0
264.423737 144.0
264.463074 96.0
264.519592 164.0
264.619934 104.0
264.717072 96.0
264.835663 216.0
264.904938 72.0
264.947937 200.0
264.982666 72.0
265.05719 232.0
265.097961 416.0
265.131653 860.0
265.179901 184.0
265.241943 124.0
265.361877 180.0
265.525879 160.0
265.556427 40.0
265.579132 160.0
265.631042 180.0
265.689423 32.0
265.741333 196.0
265.87439 64.0
265.90036 76.0
266.100189 148.0
266.134155 776.0
266.216156 144.0
266.257477 64.0
266.377625 68.0
266.431641 172.0
266.523834 192.0
266.624573 144.0
266.650574 120.0
266.702576 52.0
267.063477 132.0
267.094421 192.0
267.127899 160.0
267.151001 396.0
267.420197 156.0
267.486481 52.0
267.538574 188.0
267.675293 96.0
267.717651 140.0
267.753448 136.0
267.812073 136.0
267.886993 52.0
267.914032 144.0
267.981476 224.0
268.049896 136.0
268.079224 164.0
268.147736 204.0
268.27478 64.0
268.304138 200.0
268.54306 188.0
268.59436 168.0
269.067535 36.0
269.090393 84.0
269.137054 216.0
269.181793 120.0
269.240601 84.0
269.340485 156.0
269.520752 208.0
269.590149 176.0
269.643524 72.0
269.773163 132.0
269.864716 132.0
269.900665 172.0
269.93338 144.0
270.201569 144.0
270.322632 128.0
270.365173 116.0
270.479736 52.0
270.519012 156.0
270.558289 164.0
270.739502 128.0
270.822479 160.0
270.849731 172.0
270.997162 196.0
271.082336 164.0
271.136047 156.0
271.193787 148.0
271.232849 204.0
271.380615 160.0
271.419556 128.0
271.469147 232.0
271.53476 124.0
271.557709 68.0
271.667023 160.0
271.728271 156.0
271.770935 152.0
271.869385 104.0
271.97113 216.0
272.250183 144.0
272.447266 120.0
272.496338 128.0
272.545807 120.0
272.664124 140.0
272.756134 112.0
272.781158 184.0
272.930389 96.0
272.973145 112.0
273.059509 60.0
273.103149 164.0
273.190216 176.0
273.232849 108.0
273.262573 236.0
273.31192 156.0
273.387604 184.0
273.527283 128.0
273.749725 148.0
273.776062 148.0
273.80899 108.0
273.901215 168.0
273.985931 196.0
274.105499 260.0
274.140137 140.0
274.20105 76.0
274.355957 72.0
274.451569 184.0
274.636261 232.0
274.695618 232.0
274.731903 128.0
274.860596 144.0
275.007019 152.0
275.117157 660.0
275.198181 116.0
275.213501 48.0
275.349152 124.0
275.435699 136.0
275.464752 164.0
275.520905 112.0
275.585876 212.0
275.688141 68.0
275.861298 80.0
275.910889 192.0
275.987946 176.0
276.016693 104.0
276.049744 136.0
276.124146 640.0
276.241577 160.0
276.263031 156.0
276.3797 176.0
276.391846 132.0
276.403564 100.0
276.453339 172.0
276.483124 124.0
276.644348 172.0
276.678406 156.0
276.764465 48.0
276.824097 212.0
276.857208 108.0
276.910187 72.0
277.048309 200.0
277.096619 4128.0
277.190277 204.0
277.220306 136.0
277.450287 72.0
277.576294 244.0
277.609436 104.0
277.63266 188.0
277.705627 104.0
277.778595 80.0
277.851593 116.0
278.034088 56.0
278.057312 184.0
278.104187 3688.0
278.309601 152.0
278.339478 152.0
278.394745 124.0
278.498291 208.0
278.519714 160.0
278.578613 52.0
278.618866 68.0
278.766083 232.0
278.801208 156.0
278.841095 212.0
278.960754 116.0
279.033875 156.0
279.111816 708.0
279.14743 412.0
279.220093 172.0
279.366455 100.0
279.406372 40.0
279.429657 104.0
279.476227 172.0
279.522827 136.0
279.621613 152.0
279.702545 56.0
279.745819 148.0
279.905609 148.0
280.012177 168.0
280.088776 96.0
280.112762 288.0
280.153442 280.0
280.661987 168.0
280.701996 144.0
280.815399 164.0
280.905457 72.0
281.085602 60.0
281.110352 116.0
281.147888 124.0
281.209076 208.0
281.419403 52.0
281.506195 80.0
281.595123 144.0
281.669006 220.0
281.763397 116.0
281.836884 144.0
282.080872 52.0
282.213593 200.0
282.236816 172.0
282.349304 180.0
282.743103 156.0
282.796661 100.0
282.910461 200.0
283.027649 40.0
283.101318 224.0
283.148193 84.0
283.181702 128.0
283.221893 232.0
283.503296 88.0
283.5737 116.0
283.741302 156.0
283.781525 136.0
284.002838 160.0
284.104889 308.0
284.252777 280.0
284.301453 148.0
284.462555 184.0
284.486053 124.0
284.539764 152.0
284.660645 140.0
284.690857 156.0
284.744598 128.0
284.835266 136.0
284.91925 244.0
285.023407 80.0
285.100708 116.0
285.144379 212.0
285.177979 324.0
285.214966 140.0
285.473846 128.0
285.641998 140.0
285.790039 116.0
285.907806 92.0
286.042419 100.0
286.069366 100.0
286.106293 136.0
286.156891 128.0
286.247803 120.0
286.301666 64.0
286.358917 144.0
286.517242 100.0
286.564423 128.0
286.586517 88.0
286.641907 88.0
286.705933 140.0
286.830658 120.0
287.049774 136.0
287.073395 48.0
287.117035 144.0
287.201538 184.0
287.474823 304.0
287.541077 176.0
287.714447 140.0
287.775238 64.0
287.940704 156.0
288.00824 120.0
288.086487 564.0
288.150116 80.0
288.19928 124.0
288.254852 168.0
288.363007 132.0
288.386658 108.0
288.464417 88.0
288.488068 100.0
288.589478 192.0
288.775482 156.0
288.883728 200.0
288.941223 108.0
288.998749 184.0
289.091522 1260.0
289.138275 284.0
289.174713 68.0
289.225494 160.0
289.288879 252.0
289.324951 160.0
289.672455 244.0
289.737457 212.0
289.841827 164.0
290.051971 152.0
290.09726 288.0
290.118378 156.0
290.132111 156.0
290.211304 108.0
290.251984 72.0
290.343536 96.0
290.513123 92.0
290.665802 168.0
290.689545 52.0
290.791382 128.0
290.826904 144.0
290.855865 156.0
290.957703 200.0
291.07663 2620.0
291.112305 4256.0
291.290497 156.0
291.336548 184.0
291.395264 112.0
291.45697 56.0
291.503601 72.0
291.515686 100.0
291.562317 144.0
291.592896 152.0
291.70166 76.0
291.728851 124.0
291.764465 184.0
291.796265 48.0
291.864838 100.0
291.90564 80.0
291.932861 112.0
292.000854 144.0
292.119873 10552.0
292.194763 44.0
292.237335 180.0
292.277802 92.0
292.381897 120.0
292.426147 52.0
292.455322 64.0
292.569641 168.0
292.627594 196.0
292.725739 44.0
292.785797 136.0
292.855133 44.0
292.955475 148.0
292.982361 104.0
293.045898 236.0
293.080475 332.0
293.128418 9060.0
293.281036 184.0
293.366241 184.0
293.396942 56.0
293.454895 120.0
293.480377 92.0
293.68338 48.0
293.717468 208.0
293.852234 120.0
293.904114 152.0
293.946075 240.0
293.994598 304.0
294.131195 1556.0
294.211151 180.0
294.254852 152.0
294.277161 204.0
294.321533 52.0
294.362518 80.0
294.421875 136.0
294.492279 136.0
294.577667 100.0
294.632324 216.0
294.73642 112.0
294.780762 108.0
294.851013 84.0
294.926208 148.0
294.977203 148.0
294.999023 184.0
295.134949 180.0
295.175781 124.0
295.290039 164.0
295.322815 132.0
295.428864 96.0
295.46991 128.0
295.552032 108.0
295.582825 212.0
295.647827 72.0
295.679779 96.0
295.842926 208.0
295.897705 144.0
295.973022 96.0
296.010712 96.0
296.036255 104.0
296.1203 252.0
296.209351 160.0
296.293182 120.0
296.325806 124.0
296.356659 104.0
296.418335 180.0
296.514282 216.0
296.579407 148.0
296.678802 52.0
296.814117 172.0
296.846802 196.0
296.92569 132.0
297.035431 124.0
297.176086 132.0
297.237854 100.0
297.311249 176.0
297.351929 148.0
297.412872 116.0
298.027588 152.0
298.091614 120.0
298.209717 188.0
298.281891 124.0
298.319702 124.0
298.429718 136.0
298.522583 120.0
298.735809 104.0
298.778046 144.0
298.959442 120.0
299.124664 120.0
299.214172 172.0
299.26236 128.0
299.555084 164.0
299.634308 72.0
299.772156 152.0
299.878967 152.0
300.005249 140.0
300.044434 108.0
300.116852 120.0
300.199585 208.0
300.259766 160.0
300.378937 76.0
300.41687 136.0
300.458282 116.0
300.617004 212.0
300.758484 120.0
300.824158 156.0
300.871307 100.0
300.955261 108.0
300.986359 140.0
301.109039 196.0
301.172821 148.0
301.20047 160.0
301.42157 148.0
301.466492 116.0
301.649658 140.0
301.819061 220.0
301.933197 100.0
302.030029 112.0
302.103973 128.0
302.182251 168.0
302.272217 84.0
302.324097 160.0
302.500824 208.0
302.612762 268.0
302.722198 144.0
302.776978 172.0
303.109314 1032.0
303.429047 80.0
303.500275 156.0
303.585083 140.0
303.696045 100.0
303.775848 96.0
303.869507 148.0
303.945831 124.0
304.01178 204.0
304.056305 120.0
304.11499 460.0
304.240845 148.0
304.303345 188.0
304.34848 136.0
304.421387 100.0
304.445709 136.0
304.487366 116.0
304.567261 60.0
304.751373 220.0
304.872986 72.0
304.916412 192.0
304.987671 36.0
305.091003 5808.0
305.134613 308.0
305.186859 132.0
305.224091 32.0
305.265808 124.0
305.307526 92.0
305.333099 136.0
305.46405 48.0
305.540588 64.0
305.607788 100.0
305.630249 140.0
305.712402 156.0
305.812012 264.0
305.87326 60.0
305.949524 148.0
305.982574 188.0
306.098175 7436.0
306.179169 156.0
306.229797 204.0
306.25766 136.0
306.306427 132.0
306.349976 200.0
306.417908 244.0
306.442291 60.0
306.470184 96.0
306.498047 140.0
306.581665 148.0
306.616516 172.0
306.644409 156.0
306.668793 76.0
306.731537 40.0
306.902374 124.0
306.929565 60.0
307.105377 3820.0
307.142792 2544.0
307.20578 100.0
307.239319 92.0
307.282532 96.0
307.345337 72.0
307.389526 120.0
307.446533 120.0
307.477936 72.0
307.56192 196.0
307.624542 52.0
307.652466 60.0
307.691956 128.0
307.72229 88.0
307.81308 136.0
307.868927 80.0
307.954315 108.0
308.028961 84.0
308.112396 784.0
308.146606 908.0
308.354553 112.0
308.396484 156.0
308.455902 64.0
308.504944 144.0
308.56427 124.0
308.595734 88.0
308.690155 148.0
308.756592 144.0
308.802063 148.0
308.848877 220.0
308.919983 264.0
308.952454 120.0
309.018463 236.0
309.111481 396.0
309.135712 172.0
309.17569 236.0
309.253387 112.0
309.281403 152.0
309.369568 64.0
309.656036 184.0
309.69104 80.0
309.848694 148.0
309.894226 156.0
309.972046 176.0
310.013367 48.0
310.096649 296.0
310.125519 100.0
310.3078 92.0
310.362701 128.0
310.640961 224.0
310.783386 148.0
310.886566 148.0
310.957397 44.0
310.988342 132.0
311.069855 108.0
311.223541 168.0
311.283234 84.0
311.318329 180.0
311.385071 160.0
311.458832 172.0
311.739899 232.0
311.764496 180.0
311.936707 152.0
312.031616 244.0
312.123047 136.0
312.225006 192.0
312.307678 168.0
312.429016 136.0
312.49939 124.0
312.533813 112.0
312.643646 156.0
312.812592 140.0
313.009766 132.0
313.041443 64.0
313.108368 36.0
313.224579 108.0
313.619385 168.0
313.791962 88.0
314.176361 140.0
314.271606 152.0
314.328064 128.0
314.372955 168.0
314.412781 112.0
314.446167 208.0
314.486877 100.0
314.589233 176.0
314.635132 116.0
314.818756 156.0
314.871704 28.0
314.945892 80.0
314.977661 120.0
315.118988 96.0
315.168457 180.0
315.359283 40.0
315.384003 160.0
315.475922 156.0
315.567841 104.0
315.681 40.0
315.719879 84.0
315.818909 72.0
315.88623 120.0
315.963318 176.0
316.24704 148.0
316.27536 144.0
316.374481 72.0
316.590454 140.0
316.671906 132.0
316.902161 132.0
316.962402 124.0
317.128418 1012.0
317.192749 148.0
317.288483 72.0
317.401917 64.0
317.469299 96.0
317.517273 120.0
317.611176 80.0
317.639526 204.0
317.750854 212.0
317.788544 144.0
317.92337 180.0
318.053772 168.0
318.129181 476.0
318.171692 96.0
318.27124 128.0
318.317413 136.0
318.526947 52.0
318.651276 168.0
318.743652 128.0
318.784943 168.0
318.885803 140.0
318.924896 52.0
318.956909 104.0
319.024445 196.0
319.107941 7020.0
319.182648 320.0
319.239105 96.0
319.274292 88.0
319.32785 228.0
319.360596 168.0
319.416901 88.0
319.449432 72.0
319.53299 80.0
319.589905 120.0
319.636169 88.0
319.703613 128.0
319.71582 272.0
319.722931 232.0
319.796997 124.0
319.888855 108.0
319.957275 148.0
320.009247 196.0
320.034821 192.0
320.115448 45724.0
320.205322 328.0
320.263397 136.0
320.348389 168.0
320.384705 84.0
320.41922 152.0
320.446259 104.0
320.480042 60.0
320.508545 76.0
320.546295 88.0
320.589478 80.0
320.627319 80.0
320.654663 128.0
320.712402 20.0
320.777771 80.0
320.802185 164.0
320.827881 140.0
320.875641 72.0
320.919495 120.0
320.950531 76.0
320.985901 52.0
321.042053 88.0
321.055328 92.0
321.11792 9036.0
321.237335 76.0
321.252777 68.0
321.259033 136.0
321.304779 116.0
321.357147 56.0
321.428497 96.0
321.498291 72.0
321.549835 64.0
321.6026 192.0
321.656891 92.0
321.696167 224.0
321.750824 260.0
321.77829 172.0
321.810425 32.0
321.848877 164.0
321.888977 64.0
321.964386 68.0
322.017517 156.0
322.056824 76.0
322.115051 832.0
322.196136 192.0
322.22113 44.0
322.274719 132.0
322.307922 108.0
322.338257 72.0
322.381927 96.0
322.460541 72.0
322.499878 104.0
322.527039 140.0
322.571045 92.0
322.689087 224.0
322.750092 36.0
322.853516 52.0
322.893158 116.0
322.963135 48.0
323.002228 120.0
323.066071 208.0
323.135742 264.0
323.175873 176.0
323.218689 124.0
323.308136 96.0
323.354492 88.0
323.397217 108.0
323.411926 76.0
323.421478 108.0
323.442047 176.0
323.504547 128.0
323.513428 112.0
323.569427 116.0
323.683746 160.0
323.812927 64.0
323.927551 156.0
324.049347 148.0
324.112152 176.0
324.138824 136.0
324.21817 156.0
324.32016 140.0
324.328857 80.0
324.341156 140.0
324.3862 192.0
324.52243 132.0
324.597748 124.0
324.676636 136.0
324.705322 104.0
324.744781 184.0
324.784241 172.0
324.816498 56.0
324.841614 236.0
325.067657 116.0
325.110718 136.0
325.16095 240.0
325.397858 68.0
325.44455 228.0
325.523529 164.0
325.602539 152.0
325.64563 172.0
325.721069 116.0
325.802521 160.0
325.897095 68.0
326.015686 116.0
326.191803 136.0
326.224152 108.0
326.296051 96.0
326.332001 84.0
326.48407 108.0
326.54776 184.0
326.600494 60.0
326.673645 124.0
326.907501 140.0
326.983093 148.0
327.02298 48.0
327.105469 132.0
327.134247 132.0
327.188263 160.0
327.278259 104.0
327.379089 360.0
327.861816 160.0
327.96994 72.0
328.074463 148.0
328.132141 196.0
328.182617 156.0
328.255585 104.0
328.287201 192.0
328.344208 104.0
328.705627 44.0
328.779388 184.0
328.900513 208.0
329.125397 168.0
329.21463 156.0
329.290466 184.0
329.328613 208.0
329.342621 72.0
329.353424 140.0
329.471069 76.0
329.543335 128.0
329.644623 132.0
329.69281 104.0
329.727631 112.0
329.81073 56.0
329.901123 144.0
330.05658 196.0
330.166809 320.0
330.204834 72.0
330.447205 184.0
330.508698 120.0
330.536621 152.0
330.686035 148.0
330.72583 192.0
330.759155 120.0
330.867004 204.0
330.928558 104.0
330.95752 156.0
331.022705 56.0
331.058929 220.0
331.129272 160.0
331.16394 128.0
331.240021 144.0
331.26535 220.0
331.296417 112.0
331.38855 136.0
331.522614 136.0
331.555237 204.0
331.609589 36.0
331.645844 104.0
331.760681 176.0
331.812592 56.0
331.856079 344.0
331.912781 76.0
332.004761 216.0
332.061218 168.0
332.153442 76.0
332.276794 76.0
332.331207 168.0
332.371124 120.0
332.458221 52.0
332.515747 316.0
332.556213 132.0
332.599762 92.0
332.640411 360.0
332.68689 36.0
332.726807 104.0
332.796814 156.0
332.838806 132.0
332.875671 244.0
332.913971 136.0
332.97171 296.0
333.013672 92.0
333.053162 92.0
333.122314 928.0
333.22879 260.0
333.260712 116.0
333.297028 124.0
333.329681 228.0
333.42746 76.0
333.475098 56.0
333.508148 136.0
333.565979 168.0
333.591187 60.0
333.644745 260.0
333.701447 164.0
333.754211 272.0
333.78775 68.0
333.844177 132.0
333.886292 116.0
333.937286 272.0
334.002319 132.0
334.029114 140.0
334.037079 108.0
334.124634 404.0
334.180786 164.0
334.216644 184.0
334.235657 196.0
334.273773 208.0
334.332153 460.0
334.338348 172.0
334.394043 228.0
334.449341 240.0
334.513824 204.0
334.543884 208.0
334.590729 168.0
334.644623 192.0
334.673279 156.0
334.722443 316.0
334.733398 284.0
334.803558 288.0
334.834869 96.0
334.841461 256.0
334.882324 212.0
334.891907 396.0
334.906067 220.0
334.942169 396.0
334.993408 292.0
335.043152 584.0
335.078522 1148.0
335.140167 316928.0
335.254089 468.0
335.337769 160.0
335.378357 224.0
335.43573 168.0
335.48587 380.0
335.534576 328.0
335.565002 212.0
335.61853 256.0
335.685059 272.0
335.73996 1984.0
335.776001 312.0
335.810211 440.0
335.852722 288.0
335.88092 252.0
335.939117 272.0
335.999756 112.0
336.026123 364.0
336.063354 200.0
336.142273 77332.0
336.234253 312.0
336.259125 128.0
336.29657 248.0
336.347443 68.0
336.386597 104.0
336.405121 156.0
336.437988 108.0
336.471954 116.0
336.486969 36.0
336.536285 88.0
336.564972 64.0
336.6091 96.0
336.637909 276.0
336.684357 216.0
336.712433 144.0
336.784485 104.0
336.822723 156.0
336.87735 192.0
336.917023 144.0
336.947235 212.0
336.97879 96.0
337.01947 204.0
337.061035 144.0
337.14447 9908.0
337.244171 212.0
337.2677 68.0
337.307129 84.0
337.370819 244.0
337.405975 160.0
337.478699 120.0
337.517212 188.0
337.552124 140.0
337.584229 128.0
337.642212 156.0
337.654205 92.0
337.667633 184.0
337.715332 128.0
337.757355 60.0
337.786407 316.0
337.830902 300.0
337.869049 60.0
337.910553 116.0
337.923737 68.0
337.978516 412.0
338.083221 328.0
338.101593 220.0
338.147247 1148.0
338.186523 208.0
338.231812 228.0
338.275818 316.0
338.357758 296.0
338.400787 112.0
338.441223 320.0
338.470947 228.0
338.516846 288.0
338.578339 48.0
338.593079 40.0
338.615906 56.0
338.668976 96.0
338.697083 40.0
338.730225 96.0
338.77533 112.0
338.791962 40.0
338.80014 108.0
338.834778 76.0
338.885223 36.0
338.930634 104.0
338.95578 168.0
338.977631 84.0
339.026611 84.0
339.112 128.0
339.144501 156.0
339.175049 100.0
339.225067 108.0
339.265747 104.0
339.317596 72.0
339.365295 52.0
339.406036 92.0
339.468597 108.0
339.517334 108.0
339.576019 140.0
339.623688 112.0
339.671387 44.0
339.706177 140.0
339.780396 140.0
339.873749 188.0
339.899139 96.0
340.016266 80.0
340.074982 40.0
340.124451 84.0
340.191406 100.0
340.282745 100.0
340.317261 84.0
340.346649 48.0
340.376007 88.0
340.420074 116.0
340.486176 76.0
340.581665 92.0
340.622314 64.0
340.68454 88.0
340.721252 48.0
340.76535 28.0
340.802246 100.0
340.890289 84.0
340.917084 76.0
340.989502 60.0
341.044647 76.0
341.129181 68.0
341.199036 72.0
341.324036 84.0
341.387268 80.0
341.415955 32.0
341.504242 56.0
341.570435 60.0
341.677124 44.0
341.905243 60.0
341.986206 76.0
342.262329 48.0
342.39856 84.0
342.509064 36.0
342.630615 112.0
342.759583 56.0
342.851715 72.0
342.884857 88.0
343.065491 80.0
343.192291 80.0
343.279327 84.0
343.618652 148.0
343.740417 64.0
343.862213 72.0
343.991394 48.0
344.386475 188.0
344.441895 88.0
344.600739 36.0
344.977692 80.0
345.070099 32.0
345.160767 116.0
345.280884 64.0
345.76181 60.0
345.795135 96.0
345.865448 68.0
346.069061 80.0
346.272736 64.0
346.369019 120.0
346.513519 68.0
346.607758 136.0
346.691376 76.0
346.728424 96.0
346.802551 96.0
346.872986 68.0
346.913757 88.0
346.939697 64.0
347.088013 100.0
347.254883 40.0
347.388397 124.0
347.418091 72.0
347.54422 96.0
347.889374 64.0
348.197571 120.0
348.390717 116.0
348.457581 36.0
348.517029 100.0
348.591339 96.0
348.680542 48.0
348.863342 108.0
348.980957 68.0
349.041107 140.0
349.09317 32.0
349.122925 44.0
349.157623 156.0
349.204742 40.0
349.53125 52.0
349.565613 76.0
349.636322 68.0
349.666077 60.0
350.090485 92.0
350.12027 80.0
350.217102 68.0
350.280426 48.0
350.354919 96.0
350.403351 72.0
350.649292 96.0
350.910217 72.0
350.951233 32.0
351.08548 52.0
351.130249 80.0
351.182465 172.0
351.283173 56.0
351.499542 144.0
351.589111 76.0
351.794403 64.0
351.973602 168.0
352.105499 1872.0
352.335876 112.0
352.466644 92.0
352.548859 56.0
352.795563 104.0
352.967529 80.0
353.063141 84.0
353.109497 380.0
353.214355 56.0
353.541534 72.0
353.745728 68.0
353.854767 32.0
353.88797 44.0
354.108917 248.0
354.151184 80.0
354.273712 68.0
354.311188 40.0
354.348663 68.0
354.483551 44.0
354.536011 48.0
354.993347 64.0
355.203369 72.0
355.304657 68.0
355.612366 48.0
355.687439 104.0
355.857391 160.0
355.92395 120.0
356.06665 32.0
356.40097 64.0
356.686584 120.0
357.29953 148.0
357.653259 72.0
358.240692 44.0
358.478058 56.0
358.647644 64.0
358.681549 96.0
358.949249 132.0
361.430908 44.0
361.877533 68.0
362.608612 76.0
363.021851 52.0
363.74649 40.0
364.604858 28.0
364.707489 56.0
365.239807 28.0
366.069489 48.0
366.23703 80.0
367.178436 44.0
369.083954 124.0
371.43924 60.0
373.036652 108.0
373.094299 140.0
373.332703 164.0
374.437195 116.0
375.045929 148.0
375.238678 148.0
375.543335 128.0
375.708679 92.0
375.778625 60.0
375.99472 120.0
376.149109 48.0
376.249481 120.0
376.415497 120.0
376.496582 92.0
376.605652 116.0
376.790161 64.0
376.844238 144.0
376.92038 136.0
377.014252 148.0
377.053253 176.0
377.083008 172.0
377.150085 20656.0
377.273224 64.0
377.327332 152.0
377.400024 140.0
377.431732 132.0
377.4776 56.0
377.555481 140.0
377.659912 68.0
377.71405 92.0
377.777283 92.0
377.841705 60.0
378.011963 128.0
378.153503 4396.0
378.277252 80.0
378.378296 136.0
378.429993 64.0
378.488068 72.0
378.592621 56.0
378.863739 64.0
378.956726 124.0
379.156067 840.0
379.2435 92.0
379.433441 72.0
379.505249 44.0
379.542816 56.0
379.906555 60.0
380.085022 48.0
380.159149 156.0
380.275177 60.0
380.442078 80.0
380.504211 112.0
380.54303 108.0
380.593506 124.0
380.752716 84.0
380.911957 36.0
380.985748 56.0
381.032379 60.0
381.129517 60.0
381.249969 28.0
381.599792 32.0
382.241577 52.0
382.393341 84.0
384.373016 80.0
385.396027 76.0
386.095734 76.0
386.623871 104.0
387.406952 108.0
387.587189 104.0
387.673401 88.0
389.886719 116.0
390.791107 48.0
391.078369 56.0
392.536011 36.0
392.808167 32.0
394.217651 44.0
394.413086 88.0
396.691315 36.0
397.234558 64.0
398.806946 96.0
399.101135 116.0
399.789276 60.0
400.18335 112.0
402.052856 116.0
402.176575 64.0
406.221954 96.0
406.671356 88.0
408.009003 100.0
411.554443 48.0
411.998688 112.0
414.495026 72.0
416.710388 104.0
422.192841 84.0
427.867554 88.0
428.86441 92.0
429.718018 100.0
430.989685 96.0
432.172211 84.0
434.25177 144.0
435.168823 76.0
436.012054 104.0
436.614868 108.0
438.034149 160.0
439.960724 100.0
440.365784 56.0
441.39798 76.0
443.973328 72.0
444.296295 76.0
449.749878 108.0
450.184723 92.0
450.594452 56.0
451.460938 32.0
451.583588 36.0
452.036255 72.0
453.014282 56.0
453.1922 44.0
455.283447 60.0
455.529785 88.0
458.065033 116.0
458.584869 104.0
459.011169 60.0
459.740601 40.0
460.615845 52.0
460.654297 76.0
460.765381 80.0
461.432068 104.0
461.560364 92.0
461.680084 120.0
463.225159 116.0
463.542206 88.0
463.735077 60.0
464.099426 100.0
466.959412 108.0
467.492859 124.0
469.069183 36.0
470.147461 36.0
473.740448 64.0
474.030731 88.0
477.33844 92.0
477.416718 80.0
480.3479 80.0
480.504944 88.0
481.041718 60.0
481.605011 32.0
482.496429 60.0
482.789398 32.0
483.366821 88.0
485.294067 64.0
486.851807 72.0
489.48584 116.0
489.899841 36.0
492.228577 48.0
494.204346 52.0
494.748718 80.0
494.943512 132.0
497.080048 40.0
498.834351 100.0
501.995422 116.0
502.066772 96.0
503.23587 84.0
505.269409 64.0
507.656738 60.0
507.889954 112.0
508.495667 48.0
509.326294 68.0
511.687164 128.0
514.694458 84.0
514.766724 68.0
514.911194 44.0
516.266968 48.0
517.325745 72.0
517.697021 92.0
519.156189 36.0
521.547791 104.0
522.148987 84.0
524.033508 88.0
525.278015 84.0
525.843811 76.0
527.387573 44.0
528.974792 72.0
530.018982 128.0
531.064209 64.0
531.646851 52.0
532.069092 88.0
533.024475 60.0
533.907043 40.0
534.118652 28.0
536.158264 96.0
537.555542 120.0
538.090942 76.0
538.73291 108.0
540.559143 84.0
542.504395 68.0
542.713013 76.0
542.745483 96.0
545.503174 88.0
546.349548 64.0
546.647339 40.0
546.907959 48.0
548.193359 96.0
549.442932 88.0
549.531555 92.0
550.315674 48.0
550.843384 100.0
551.390015 76.0
554.375793 96.0
554.506958 60.0
554.788208 128.0
555.355591 144.0
555.472839 28.0
557.064209 72.0
557.223877 56.0
557.477661 64.0
557.938232 40.0
559.236511 76.0
559.547241 72.0
560.479797 28.0
560.866211 56.0
561.314087 52.0
562.229248 80.0
562.682373 64.0
563.593933 96.0
563.850098 76.0
566.588806 128.0
567.16217 84.0
568.053589 56.0
569.278137 104.0
571.902405 56.0
572.102356 64.0
572.516602 100.0
573.841248 68.0
574.318115 72.0
576.012573 84.0
576.103394 80.0
577.164368 76.0
578.743347 100.0
579.634277 80.0
579.86908 36.0
580.521057 52.0
581.063049 40.0
581.422913 68.0
582.114197 100.0
584.565796 68.0
585.85614 76.0
593.768677 56.0
595.948242 92.0
605.122437 48.0
607.352112 56.0
611.434998 104.0
614.692383 104.0
616.400879 124.0
616.494751 40.0
617.142334 72.0
617.948486 52.0
618.280029 48.0
618.854248 80.0
619.225647 128.0
619.344482 108.0
620.88092 96.0
625.645935 80.0
625.800293 68.0
626.14386 48.0
626.298279 72.0
633.361023 100.0
633.932129 52.0
634.669006 52.0
635.035095 96.0
635.822754 32.0
635.908081 88.0
637.268921 56.0
638.123352 88.0
638.993408 56.0
639.199707 40.0
642.017212 64.0
643.554688 52.0
644.585083 60.0
649.977844 60.0
650.505615 88.0
650.673157 72.0
654.354004 80.0
656.366577 84.0
656.866394 104.0
657.539856 68.0
657.805298 72.0
657.922729 84.0
661.439697 88.0
668.712769 96.0
671.474243 68.0
673.363159 100.0
677.775818 76.0
680.519592 64.0
683.086853 48.0
687.04071 80.0
690.420166 76.0
691.047852 92.0
692.356445 68.0
694.30072 140.0
695.859131 48.0
696.163696 140.0
697.156555 72.0
702.585083 64.0
702.622009 80.0
705.325745 52.0
705.679932 72.0
713.749817 36.0
714.281677 108.0
716.123291 32.0
718.788818 40.0
718.826172 140.0
720.550781 84.0
724.097229 44.0
724.35968 36.0
724.911499 72.0
725.726257 48.0
728.989807 40.0
736.408203 44.0
736.829529 44.0
739.213989 172.0
740.887024 92.0
741.526367 136.0
741.596863 60.0
741.970886 132.0
742.45343 52.0
742.822266 48.0
743.391968 52.0
744.521118 72.0
754.689209 76.0
755.843323 84.0
757.014709 104.0
758.943481 72.0
759.963684 52.0
762.379761 96.0
762.995361 84.0
764.695068 108.0
765.730103 60.0
766.716248 72.0
767.339172 108.0
768.513916 48.0
770.125854 100.0
774.329285 92.0
776.579468 108.0
778.483032 76.0
784.988159 100.0
785.579346 52.0
787.594482 76.0
791.542786 84.0
797.613098 116.0
806.784607 60.0
806.99939 48.0
807.745911 144.0
808.01178 108.0
808.155823 44.0
815.633362 108.0
816.332642 196.0
816.526001 92.0
818.36969 68.0
823.953247 88.0
824.867554 32.0
833.280273 84.0
837.450806 44.0
838.159363 116.0
839.542847 120.0
839.704346 76.0
845.238525 100.0
845.307983 200.0
848.163208 96.0
849.792725 104.0
850.106079 84.0
856.530457 112.0
859.392822 60.0
864.692993 80.0
866.935974 108.0
868.759399 64.0
878.607361 60.0
879.734497 56.0
880.106445 60.0
880.395813 68.0
883.617188 100.0
885.280457 124.0
885.446289 48.0
894.852173 120.0
896.049255 76.0
898.33252 128.0
900.206604 104.0
900.803833 48.0
908.136292 64.0
908.538147 60.0
909.654358 112.0
911.215759 64.0
912.910767 56.0
915.251526 92.0
915.582703 72.0
923.132141 108.0
929.352966 72.0
929.698792 72.0
931.076904 28.0
933.325256 108.0
941.41748 76.0
942.547607 84.0
945.201355 72.0
949.483337 72.0
950.010803 52.0
952.810181 160.0
956.561462 204.0
958.672241 84.0
963.406372 156.0
965.322388 108.0
969.76123 92.0
973.943115 56.0
978.233643 140.0
981.435852 100.0
986.174072 80.0
991.970215 152.0
1006.541199 48.0
1010.118286 88.0
1012.776794 60.0
1014.519348 108.0
1019.749695 152.0
1020.092957 32.0
1024.999878 84.0
1026.000488 80.0
1034.964355 128.0
1038.726318 76.0
1043.516968 168.0
1045.060669 148.0
1045.717041 52.0
1053.44812 72.0
1056.350586 48.0
1057.372925 40.0
1057.974854 112.0
1065.06897 64.0
1068.611816 64.0
1070.252075 72.0
1074.390625 128.0
1077.844482 40.0
1079.393555 112.0
1088.134155 72.0
1088.587158 76.0
1090.689575 152.0
1092.807129 36.0
1106.740356 44.0
1106.786743 52.0
1109.993774 164.0
1112.090088 132.0
1113.643799 44.0
1117.958496 116.0
1119.096802 112.0
1130.009155 40.0
1131.280762 36.0
1133.812622 264.0
1135.307495 84.0
1139.140015 60.0
1146.716431 84.0
1148.725708 192.0
1150.041504 160.0
1162.989502 56.0
1168.119629 104.0
1172.477173 112.0
1174.98645 32.0
1183.653076 160.0
1184.961304 164.0
1185.598633 152.0
1191.382812 92.0
1209.463379 124.0
1211.838623 176.0
1213.495117 112.0
1215.527344 104.0
1225.581909 200.0
1227.296509 84.0
1229.682373 128.0
1231.022705 44.0
1231.700195 92.0
1233.013672 36.0
1233.635742 48.0
1238.337891 100.0
1239.388672 80.0
1241.505615 132.0
1247.825195 72.0
1252.702148 52.0
1257.009888 176.0
1259.092407 144.0
1262.116943 124.0
1271.354004 84.0
1272.965454 88.0
1273.661377 148.0
1278.588623 104.0
1279.264771 184.0
1291.895752 140.0
1295.031006 84.0
1296.700317 228.0
1299.604614 92.0
1305.243042 200.0
1308.444824 56.0
1308.819214 60.0
1310.093994 168.0
1311.448608 128.0
1311.736938 156.0
1312.731934 120.0
1313.691162 52.0
1314.181763 156.0
1319.251709 192.0
1320.922119 140.0
1321.066772 204.0
1321.262085 64.0
1323.79541 100.0
1324.012695 60.0
1324.316772 32.0
1327.019775 144.0
1329.159546 80.0
1329.362671 212.0
1331.395386 192.0
1332.942627 188.0
1333.53125 184.0
1336.942139 60.0
1338.5 148.0
1339.148071 28.0
1346.521729 172.0
1346.908813 152.0
1347.069458 96.0
1347.887817 224.0
1348.87439 120.0
1349.985718 52.0
1350.673218 208.0
1351.704712 40.0
1353.293091 136.0
1354.494141 112.0
1356.010864 160.0
1359.795288 116.0
1363.004395 184.0
1363.717285 96.0
1363.908325 160.0
1363.967163 96.0
1370.575928 88.0
1371.194946 168.0
1375.34729 144.0
1377.333618 112.0
1379.402588 120.0
1381.865234 176.0
1382.538574 136.0
1384.439087 136.0
1386.359741 144.0
1386.485718 52.0
1386.960083 248.0
1388.984375 220.0
1392.859131 208.0
1392.940796 192.0
1394.709229 112.0
1395.088379 180.0
1404.828857 72.0
1407.090088 160.0
1410.466675 56.0
1412.09668 128.0
1413.734985 124.0
1414.708008 224.0
1415.119751 168.0
1416.280518 76.0
1417.749023 72.0
1418.371094 176.0
1418.71582 152.0
1418.940796 88.0
1419.128174 216.0
1421.348389 160.0
1421.460938 216.0
1427.553101 240.0
1427.628296 68.0
1435.610718 168.0
1437.232544 180.0
1438.991089 64.0
1439.995483 172.0
1443.373413 92.0
1450.80835 132.0
1450.876587 136.0
1451.270874 180.0
1452.992432 132.0
1453.113892 44.0
1459.668823 104.0
1462.643433 188.0
1467.755371 160.0
1469.914062 148.0
1478.0979 76.0
1478.648926 180.0
1481.509155 168.0
1481.665771 116.0
1484.701172 216.0
1488.115845 156.0
1491.004028 32.0
1497.297241 52.0
1497.874878 168.0
1499.993896 116.0
1501.150391 132.0
1501.25061 104.0
1501.751953 136.0
1502.993896 104.0
1505.217041 108.0
