>compound MLS001174878-01!Zearalanol
>formula C18H26O5
>ionization [M+H]+
>parentmass 323.187
#inchi InChI=1S/C18H26O5/c1-12-6-5-9-14(19)8-4-2-3-7-13-10-15(20)11-16(21)17(13)18(22)23-12/h10-12,14,19-21H,2-9H2,1H3/t12-,14+/m0/s1
#inchikey DWTTZBARDOXEAM
#Ion_Source LC-ESI
#Instrument qTof
#Compound_Source NIH Pharmacologically Active Library
#PI Dorrestein
#Data_Collector VP/LMS
#Scan -1
#Precursor_MZ 323.187
#ExactMass 322.178
#Charge 1
#CAS_Number N/A
#Pubmed_ID N/A
#Smiles C[C@H]1CCC[C@H](O)CCCCCc2cc(O)cc(O)c2C(=O)O1
#INCHI_AUX N/A
#Library_Class 3
#SpectrumID CCMSLIB00000085738
#IonMode Positive
#UpdateWorkflowName UPDATE-SINGLE-ANNOTATED-BRONZE
#LibraryQualityString Bronze
#TaskID d252d724072548979f1f6f1ced849daf
##Scan# 1882
#SpectrumFile p4-E09_GE9_01_18381.mzXML
#LibraryName Pharm_Active_Library.mgf
#MQScore -1
#Organism Pharm_Active_Library
#TIC_Query 0
#RT_Query -1
#MZErrorPPM -1
#SharedPeaks 0
#MassDiff 0
#LibMZ -1
#SpecMZ 323.187
#SpecCharge 0
#internalFilename spec-00000.mgf

>collision 10
44.938148 148.0
45.627918 152.0
46.938637 160.0
47.921455 160.0
48.030365 180.0
48.233353 132.0
50.515667 140.0
50.628899 168.0
51.095909 124.0
51.365162 172.0
51.609379 144.0
52.89994 160.0
53.179707 176.0
53.608749 148.0
55.334755 140.0
55.565964 116.0
56.229649 112.0
56.715759 132.0
57.000916 124.0
58.441986 136.0
58.629288 156.0
58.714664 192.0
59.504265 108.0
59.933399 148.0
61.244064 100.0
62.17907 152.0
62.194763 136.0
62.660019 160.0
63.818851 28.0
64.848541 136.0
65.044235 144.0
65.80249 208.0
66.125801 140.0
66.342857 144.0
66.500206 80.0
66.652863 152.0
66.984764 132.0
68.241676 76.0
68.725929 44.0
69.603226 212.0
69.787666 128.0
70.599762 208.0
70.983253 188.0
71.829247 168.0
72.503883 180.0
73.16465 144.0
73.329887 192.0
73.515778 208.0
74.901146 156.0
76.315094 248.0
77.426697 156.0
80.38266 232.0
82.496719 104.0
83.319496 184.0
83.524925 236.0
85.00116 140.0
85.034195 116.0
85.175575 168.0
85.204971 60.0
85.339142 152.0
86.390404 152.0
86.577354 248.0
86.81086 164.0
86.929581 40.0
88.184845 180.0
88.416763 152.0
88.74646 124.0
89.626137 112.0
89.846733 224.0
90.078941 140.0
91.051422 228.0
91.356659 192.0
91.495583 88.0
91.554611 120.0
93.071884 264.0
93.499763 224.0
93.775177 148.0
93.910149 196.0
94.340759 68.0
94.543861 120.0
94.729736 84.0
95.047836 176.0
95.088615 220.0
95.478973 136.0
95.733658 152.0
96.524254 76.0
97.065628 156.0
97.590958 240.0
97.976715 128.0
98.091019 160.0
98.351395 168.0
99.950768 196.0
100.438881 108.0
102.12545 132.0
102.554329 72.0
102.616821 200.0
103.050613 156.0
103.884895 104.0
104.71627 148.0
104.750694 164.0
105.06678 472.0
105.514153 164.0
105.821045 36.0
106.076241 176.0
106.218628 104.0
107.04747 148.0
107.065445 164.0
107.085182 184.0
107.504562 80.0
107.746155 220.0
108.085243 192.0
108.151466 208.0
108.57621 164.0
109.098747 332.0
109.544823 152.0
109.569824 96.0
109.586487 200.0
109.845009 188.0
110.045357 152.0
110.431961 168.0
110.664253 136.0
110.913551 160.0
111.045593 152.0
111.081306 84.0
112.046257 168.0
112.284454 96.0
113.400803 252.0
114.037552 148.0
115.053543 360.0
115.38694 192.0
115.697159 104.0
116.327431 160.0
116.37252 144.0
116.669006 124.0
117.013237 128.0
117.068886 236.0
117.442085 116.0
117.837135 160.0
118.068436 164.0
118.245842 196.0
118.635742 224.0
119.043457 172.0
119.081696 396.0
119.719986 248.0
119.974922 188.0
120.053421 84.0
121.028671 1160.0
121.065521 176.0
121.101585 292.0
121.170395 128.0
121.731926 156.0
122.028564 64.0
122.065948 236.0
122.76844 88.0
123.043129 2128.0
123.092346 36.0
123.117599 300.0
123.234207 48.0
123.318184 44.0
124.044151 164.0
124.060204 188.0
124.928055 124.0
124.990349 104.0
125.098877 200.0
125.507126 84.0
125.701195 140.0
126.53717 220.0
126.799255 180.0
127.054886 156.0
127.432076 180.0
127.582657 180.0
127.926857 200.0
127.971886 208.0
128.158829 156.0
129.070084 188.0
129.29924 208.0
129.67067 144.0
130.035828 196.0
131.046585 200.0
131.085663 348.0
131.15947 204.0
131.99736 188.0
132.061905 176.0
133.026093 152.0
133.06192 360.0
134.072647 160.0
134.471634 200.0
134.972961 160.0
135.046677 624.0
135.082306 576.0
135.616547 164.0
136.050339 168.0
137.059372 492.0
137.083069 172.0
137.85083 144.0
137.967697 116.0
137.986389 172.0
139.115616 156.0
140.331955 216.0
143.048035 192.0
143.084518 196.0
143.113678 64.0
143.497284 76.0
143.883789 224.0
144.015137 120.0
144.052704 208.0
144.282776 180.0
144.553055 100.0
145.061905 176.0
145.103973 176.0
145.348633 144.0
145.540665 132.0
146.072098 140.0
147.041916 288.0
147.078644 520.0
147.120087 192.0
147.144226 224.0
147.25531 184.0
147.434097 48.0
147.750854 100.0
148.049469 592.0
148.560013 76.0
148.615814 196.0
148.800278 160.0
148.921707 156.0
148.943558 116.0
149.022842 1404.0
149.058899 2240.0
149.145248 72.0
149.184143 60.0
149.439514 72.0
149.53685 52.0
149.829056 124.0
149.863174 36.0
150.025482 328.0
150.061142 680.0
151.036301 332.0
151.071136 188.0
152.037109 148.0
152.071457 136.0
152.577499 112.0
152.749649 152.0
152.857895 76.0
153.066986 312.0
155.04097 168.0
155.085587 144.0
156.230347 204.0
157.062927 404.0
157.098785 208.0
158.75563 128.0
159.041641 168.0
159.081802 172.0
159.114197 160.0
159.252563 152.0
159.976761 120.0
160.052261 176.0
160.417618 116.0
160.526031 124.0
160.647095 52.0
161.057846 2188.0
161.086868 176.0
161.131821 144.0
161.235428 76.0
161.642578 68.0
161.812164 64.0
162.019852 88.0
162.058105 500.0
162.116135 36.0
162.156677 204.0
163.001785 128.0
163.037903 464.0
163.074265 2704.0
163.33992 112.0
163.360275 32.0
163.543488 104.0
163.652954 36.0
164.039886 124.0
164.0755 456.0
165.016357 472.0
165.054199 488.0
165.093307 152.0
165.281464 160.0
165.460632 148.0
165.573303 128.0
165.893585 76.0
166.07309 72.0
166.15004 60.0
167.032837 1288.0
167.087784 176.0
167.821838 124.0
168.035919 176.0
168.891006 176.0
169.250732 44.0
170.069962 172.0
170.391983 112.0
171.078568 144.0
173.059738 732.0
174.068848 132.0
175.036896 1460.0
175.073318 636.0
175.311401 76.0
176.010452 160.0
176.041962 304.0
177.051361 2344.0
177.090271 576.0
178.057693 324.0
178.092102 272.0
178.472107 128.0
178.980331 40.0
179.034622 92.0
179.062805 140.0
179.071548 172.0
179.096405 228.0
179.379959 44.0
179.507935 76.0
181.050293 232.0
183.077545 108.0
183.840469 92.0
184.180664 216.0
185.056625 200.0
185.124039 160.0
186.005753 128.0
186.06012 140.0
186.100769 120.0
186.728516 68.0
187.071915 172.0
188.079971 324.0
189.053436 2160.0
189.09021 2444.0
189.850174 204.0
190.057877 128.0
190.092529 492.0
191.070374 544.0
191.109863 224.0
191.144058 108.0
192.072525 92.0
193.04274 336.0
193.075653 152.0
193.249405 48.0
194.022141 196.0
194.06662 184.0
194.105316 84.0
195.049286 164.0
195.090302 124.0
195.36908 104.0
197.064209 144.0
198.059006 516.0
198.918198 56.0
199.074066 456.0
200.079254 168.0
201.085495 588.0
203.032089 80.0
203.064728 448.0
203.103546 292.0
203.216476 164.0
203.347015 148.0
204.068573 96.0
204.106293 136.0
205.026215 144.0
205.089279 156.0
205.116226 152.0
207.061966 332.0
207.101212 456.0
208.074295 200.0
208.098434 324.0
208.608658 100.0
211.078857 272.0
212.080063 356.0
213.088806 460.0
213.381821 56.0
214.093994 172.0
215.091888 160.0
217.087143 152.0
217.119324 172.0
217.970886 60.0
218.088455 100.0
219.109589 148.0
219.879211 52.0
221.08992 152.0
221.11618 212.0
221.53212 108.0
222.110168 96.0
222.801849 176.0
223.104996 156.0
223.137695 120.0
224.131821 196.0
225.093719 156.0
227.103989 124.0
228.127457 236.0
228.15152 96.0
229.087448 152.0
229.117569 192.0
231.101959 144.0
231.167786 64.0
233.117706 184.0
235.096436 236.0
239.108337 164.0
240.116409 120.0
241.153809 160.0
242.125305 168.0
243.139114 172.0
245.123199 128.0
245.151245 156.0
249.102997 56.0
251.133301 160.0
254.119644 128.0
255.024719 236.0
257.152374 84.0
259.178497 228.0
263.132935 180.0
263.178284 148.0
269.149445 472.0
271.748474 56.0
276.533447 144.0
277.177307 244.0
277.636719 60.0
278.189362 212.0
286.410553 92.0
287.153961 320.0
290.236267 84.0
294.278564 92.0
305.161774 208.0
326.244843 144.0
334.689575 128.0
388.553253 84.0
397.764282 48.0
416.855347 68.0
419.949493 96.0
438.687897 124.0
450.315613 48.0
554.122253 80.0
603.216003 68.0
919.583008 152.0
963.337158 172.0
1001.666199 172.0
1020.608765 160.0
1037.881226 196.0
1062.254272 132.0
1113.595093 172.0
1120.120361 192.0
1120.540039 36.0
1121.393066 76.0
1122.159668 84.0
1135.071411 152.0
1137.40625 72.0
1147.510864 164.0
1157.700806 112.0
1160.831665 92.0
1163.634033 184.0
1176.290039 104.0
1176.733765 184.0
1194.098633 216.0
1207.146973 172.0
1212.05481 96.0
1222.533813 128.0
1242.855103 160.0
1244.890747 144.0
1252.94458 164.0
1287.247192 188.0
1289.583374 188.0
1293.052246 172.0
1306.564209 172.0
1307.58606 224.0
1311.756592 84.0
1312.614624 132.0
1330.667847 232.0
1333.23938 208.0
1333.348389 212.0
1351.630981 184.0
1351.879761 132.0
1358.81897 164.0
1358.870361 108.0
1362.908691 300.0
1365.908325 144.0
1366.710205 144.0
1377.171387 92.0
1379.661743 256.0
1380.482422 216.0
1396.227051 160.0
1396.308838 240.0
1396.531982 32.0
1411.200928 220.0
1428.570679 64.0
1430.324097 224.0
1433.577759 72.0
1439.484497 160.0
1446.281372 196.0
1448.477295 112.0
1452.024658 164.0
1454.452637 172.0
1456.366089 148.0
1479.135132 156.0
1482.359619 156.0
1495.692749 76.0
1500.677246 132.0
1501.40979 196.0
