>compound MLS001074061-01!DIRITHROMYCIN
>formula C42H78N2O14
>ionization [M+H]+
>parentmass 835.552368
#inchi InChI=1S/C42H78N2O14/c1-15-29-42(10,49)37-24(4)32(43-30(56-37)21-52-17-16-50-13)22(2)19-40(8,48)36(58-39-33(45)28(44(11)12)18-23(3)53-39)25(5)34(26(6)38(47)55-29)57-31-20-41(9,51-14)35(46)27(7)54-31/h22-37,39,43,45-46,48-49H,15-21H2,1-14H3/t22-,23-,24+,25+,26-,27+,28+,29-,30-,31+,32+,33-,34+,35+,36-,37-,39+,40-,41-,42-/m1/s1
#inchikey WLOHNSSYAXHWNR
#Ion_Source LC-ESI
#Instrument qTof
#Compound_Source NIH Pharmacologically Active Library
#PI Dorrestein
#Data_Collector VP/LMS
#Scan -1
#Precursor_MZ 835.565
#ExactMass 834.545
#Charge 1
#CAS_Number N/A
#Pubmed_ID N/A
#Smiles CC[C@H]1OC(=O)[C@H](C)[C@@H](O[C@H]2C[C@@](C)(OC)[C@@H](O)[C@H](C)O2)[C@H](C)[C@@H](O[C@@H]3O[C@H](C)C[C@@H]([C@H]3O)N(C)C)[C@](C)(O)C[C@@H](C)[C@@H]4N[C@@H](COCCOC)O[C@H]([C@H]4C)[C@]1(C)O
#INCHI_AUX N/A
#Library_Class 1
#SpectrumID CCMSLIB00000085622
#IonMode Positive
#UpdateWorkflowName UPDATE-SINGLE-ANNOTATED-GOLD
#LibraryQualityString Gold
#TaskID d252d724072548979f1f6f1ced849daf
##Scan# 1510
#SpectrumFile p4-D06_GD6_01_18366.mzXML
#LibraryName Pharm_Active_Library.mgf
#MQScore -1
#Organism Pharm_Active_Library
#TIC_Query 0
#RT_Query -1
#MZErrorPPM -1
#SharedPeaks 0
#MassDiff 0
#LibMZ -1
#SpecMZ 835.565
#SpecCharge 0
#internalFilename spec-00000.mgf

>collision 10
45.705082 168.0
45.847824 40.0
45.905792 148.0
46.915932 164.0
47.502598 132.0
50.36623 156.0
50.758255 216.0
51.00671 40.0
51.54258 136.0
53.762211 144.0
56.228443 116.0
58.580765 176.0
58.676777 144.0
58.754555 136.0
61.404778 184.0
62.429012 240.0
63.485504 216.0
64.336761 44.0
66.630165 36.0
67.959183 124.0
68.496773 108.0
68.683037 48.0
68.734177 164.0
69.450523 240.0
71.991196 28.0
72.173698 176.0
72.924698 56.0
72.946793 52.0
74.122726 152.0
76.281876 184.0
76.629936 128.0
77.382706 128.0
77.431732 128.0
77.880737 168.0
77.894791 136.0
78.699623 236.0
79.810585 212.0
82.811218 184.0
83.994507 196.0
84.861351 76.0
85.177002 144.0
85.898582 168.0
87.641296 52.0
88.262863 140.0
88.792831 128.0
88.905396 164.0
89.883934 168.0
90.575882 68.0
94.492882 148.0
95.025681 176.0
95.043144 144.0
96.058701 128.0
96.750488 232.0
97.438866 140.0
97.543015 168.0
97.601997 192.0
97.962166 152.0
98.058716 168.0
98.096825 796.0
99.106071 200.0
99.576218 112.0
99.926071 172.0
100.073448 176.0
100.400154 172.0
100.747459 204.0
101.077354 192.0
101.201454 136.0
101.475945 192.0
102.295609 208.0
102.432541 148.0
104.970055 220.0
108.187675 84.0
109.063057 208.0
109.219002 136.0
111.321533 36.0
112.342339 168.0
113.060532 780.0
113.274582 128.0
114.066086 212.0
114.090614 452.0
115.075569 272.0
115.0951 116.0
115.78582 92.0
116.000084 148.0
116.036522 128.0
116.070213 1852.0
116.10759 2764.0
116.15876 44.0
116.296089 76.0
117.107635 152.0
117.235939 144.0
117.738594 92.0
117.859566 180.0
117.91143 76.0
117.984924 108.0
118.09304 176.0
118.110344 200.0
118.508682 152.0
118.766655 176.0
119.081375 156.0
119.129158 112.0
121.098862 148.0
122.093071 244.0
122.727264 136.0
124.118073 208.0
124.833084 60.0
125.057785 192.0
125.093399 100.0
126.905251 232.0
127.074898 172.0
128.105362 224.0
130.084061 124.0
130.836533 148.0
133.752975 40.0
135.119888 192.0
136.064697 120.0
136.164551 60.0
137.089462 188.0
138.893066 164.0
138.991592 40.0
139.105789 328.0
140.10936 216.0
143.104431 228.0
143.497543 156.0
144.754379 132.0
145.108994 236.0
147.12027 248.0
147.884109 124.0
149.021439 180.0
149.128357 180.0
149.69278 208.0
149.875473 148.0
150.138733 232.0
152.434998 148.0
152.67099 184.0
153.08934 164.0
153.740158 164.0
154.409653 144.0
154.44429 136.0
156.0065 44.0
156.041306 140.0
156.222855 96.0
157.109711 156.0
157.519119 100.0
157.941559 124.0
158.069153 104.0
158.11763 10708.0
158.162064 180.0
158.19429 64.0
158.364563 48.0
158.509857 52.0
158.61763 44.0
159.120316 1152.0
159.745117 36.0
159.903641 32.0
160.11763 160.0
160.359497 36.0
160.379669 80.0
161.131668 172.0
167.102921 188.0
167.138947 168.0
169.613068 92.0
171.990509 104.0
174.113892 60.0
176.130127 312.0
177.124619 252.0
179.102219 120.0
183.106445 148.0
184.09079 152.0
184.793579 96.0
185.121109 172.0
186.102692 144.0
186.322693 108.0
195.143005 160.0
196.147766 236.0
197.113419 128.0
197.160919 116.0
211.130157 212.0
212.166763 140.0
214.136871 120.0
223.134781 352.0
230.431 104.0
235.852478 48.0
237.282074 72.0
238.178146 160.0
240.200485 212.0
241.148407 216.0
242.147751 128.0
244.971222 92.0
248.165237 120.0
252.688065 184.0
254.177246 148.0
254.323242 76.0
254.751907 40.0
255.168228 160.0
256.020996 76.0
256.184357 124.0
256.642365 124.0
262.291229 44.0
266.072876 56.0
269.286865 148.0
272.174255 172.0
273.186523 172.0
277.995667 144.0
279.999573 116.0
281.249878 164.0
288.052979 80.0
289.707184 36.0
292.185455 112.0
298.041473 176.0
298.231873 160.0
299.060272 156.0
301.004639 116.0
309.328064 44.0
316.220001 108.0
317.203003 164.0
320.00412 140.0
321.976044 204.0
322.190369 112.0
322.218933 112.0
323.778534 44.0
324.219177 104.0
327.611084 116.0
329.978546 80.0
332.986206 144.0
340.197815 108.0
341.226471 100.0
342.232513 276.0
344.251587 136.0
345.145844 156.0
345.401001 80.0
346.281921 120.0
360.248566 384.0
361.959106 196.0
362.235565 156.0
362.70166 224.0
364.283997 52.0
368.249237 168.0
378.006561 128.0
382.27124 96.0
382.337402 112.0
385.289124 236.0
391.773987 92.0
399.207245 188.0
401.963837 164.0
404.317596 168.0
409.10614 180.0
416.255432 168.0
416.912567 132.0
422.854675 208.0
423.968628 132.0
426.011963 284.0
426.283142 140.0
426.31601 92.0
426.45163 44.0
427.284271 168.0
428.731659 112.0
428.764648 64.0
429.774933 172.0
429.985901 204.0
443.042175 120.0
444.31665 152.0
449.006744 136.0
449.318909 204.0
451.870728 156.0
460.829071 88.0
466.315125 164.0
467.28775 240.0
469.871033 100.0
479.467072 156.0
480.059937 124.0
484.233551 60.0
484.314056 304.0
485.318176 236.0
486.337158 168.0
487.339355 180.0
491.217957 160.0
491.981384 136.0
494.770966 144.0
501.326965 148.0
502.326111 396.0
503.332977 156.0
504.317169 128.0
504.558563 96.0
509.978119 48.0
511.016907 136.0
512.881287 136.0
513.598206 76.0
517.072693 64.0
517.35498 172.0
518.449463 88.0
520.344238 932.0
521.352051 284.0
521.508423 48.0
522.342712 132.0
522.727234 132.0
523.26886 104.0
523.359924 156.0
523.501099 64.0
523.532959 64.0
524.708557 60.0
526.447021 152.0
526.858093 88.0
531.22998 148.0
534.634644 120.0
537.976318 112.0
541.381531 176.0
543.368591 120.0
545.982971 156.0
554.94397 176.0
556.032288 84.0
558.34375 236.0
559.378845 160.0
560.358398 148.0
563.358887 164.0
565.375732 152.0
573.804443 108.0
574.341736 168.0
574.720215 108.0
575.942322 164.0
577.931091 124.0
580.939758 64.0
583.39856 276.0
584.408508 92.0
592.602112 116.0
605.075317 128.0
615.434753 96.0
623.424805 116.0
631.406372 80.0
638.824768 96.0
639.292725 112.0
639.383301 188.0
639.483948 120.0
640.420471 136.0
641.050232 156.0
641.437683 360.0
642.436768 128.0
643.44104 140.0
643.476379 144.0
649.473083 176.0
650.345825 64.0
655.523071 40.0
655.655579 48.0
656.139832 64.0
656.517151 168.0
657.862366 136.0
658.26239 164.0
659.442017 1684.0
659.575439 124.0
659.820801 80.0
660.281006 232.0
660.443176 656.0
660.782288 80.0
661.084167 140.0
661.447205 344.0
662.922607 60.0
663.353149 124.0
667.085083 44.0
668.154785 112.0
669.374573 72.0
669.585754 128.0
671.002808 92.0
673.071045 108.0
673.490112 68.0
675.361206 96.0
675.45105 148.0
675.645691 100.0
676.03894 72.0
676.453003 44.0
676.685974 184.0
677.152039 164.0
677.255615 248.0
677.456482 5588.0
677.605713 336.0
677.773682 184.0
677.908386 32.0
678.058716 36.0
678.126099 68.0
678.265991 184.0
678.464539 2700.0
678.691101 100.0
678.814819 56.0
678.903748 40.0
678.973999 124.0
679.059326 56.0
679.144775 108.0
679.235657 76.0
679.461365 444.0
679.604004 52.0
679.645508 52.0
679.946472 44.0
680.43634 396.0
680.553833 52.0
680.756348 64.0
680.927734 36.0
681.46637 152.0
681.566711 36.0
682.222412 124.0
682.403503 44.0
683.605103 124.0
685.266113 76.0
685.448486 96.0
695.936035 80.0
699.41626 132.0
699.763672 136.0
701.238647 92.0
703.48761 284.0
704.446777 116.0
704.504883 148.0
704.631653 104.0
715.684998 92.0
716.430603 80.0
716.489197 136.0
718.435059 152.0
718.963318 144.0
720.896484 168.0
724.015381 128.0
724.952881 148.0
732.927246 52.0
745.427063 72.0
751.203735 156.0
772.535034 36.0
778.476685 68.0
778.937683 104.0
786.516174 56.0
797.415833 168.0
804.501892 96.0
805.522217 164.0
818.574463 132.0
820.728333 128.0
833.458374 56.0
835.552368 444.0
836.500671 168.0
836.555603 464.0
837.214722 48.0
837.546265 320.0
837.871338 56.0
838.567017 116.0
838.845276 76.0
838.914429 124.0
840.719788 32.0
862.9151 108.0
865.911194 40.0
867.000916 156.0
894.001831 136.0
897.84436 116.0
902.72937 84.0
905.931458 120.0
906.063293 60.0
912.947998 112.0
926.898621 128.0
983.066101 140.0
1039.126953 152.0
1043.269287 164.0
1090.095215 188.0
1102.708984 84.0
1122.65918 216.0
1125.976074 44.0
1141.335449 136.0
1143.703491 84.0
1150.012329 180.0
1179.252563 136.0
1182.686157 28.0
1183.726807 64.0
1213.126343 48.0
1219.470703 64.0
1244.571167 148.0
1248.323486 148.0
1268.962891 112.0
1279.933472 100.0
1282.084839 128.0
1287.913818 180.0
1306.422363 112.0
1323.12207 164.0
1340.605469 188.0
1355.080566 176.0
1376.832031 68.0
1393.268555 140.0
1398.726929 180.0
1417.525391 180.0
1438.486816 204.0
1446.052979 132.0
1483.330811 164.0
