>compound Desonide
>formula C24H32O6
>ionization [M+H]+
>parentmass 417.2271651960905
#inchi InChI=1S/C24H32O6/c1-21(2)29-19-10-16-15-6-5-13-9-14(26)7-8-22(13,3)20(15)17(27)11-23(16,4)24(19,30-21)18(28)12-25/h7-9,15-17,19-20,25,27H,5-6,10-12H2,1-4H3/t15-,16-,17+,19+,20-,22-,23-,24-/m0/s1
#inchikey WBGKWQHBNHJJPZ
#Ion_Source LC-ESI
#Instrument qTof
#Compound_Source Commercial
#PI Dorrestein
#Data_Collector Garg_Neha
#Scan -1
#Precursor_MZ 417.227
#ExactMass 416.22
#Charge 1
#CAS_Number 638-94-8
#Pubmed_ID N/A
#Smiles C1C(C=C2[C@](C=1)([C@]3([C@@](CC2)([C@]4([C@](C[C@H]3O)([C@@]5([C@@](C4)(OC(O5)(C)C)[H])C(CO)=O)C)[H])[H])[H])C)=O
#INCHI_AUX N/A
#Library_Class 1
#SpectrumID CCMSLIB00000078243
#IonMode Positive
#UpdateWorkflowName UPDATE-SINGLE-ANNOTATED-GOLD
#LibraryQualityString Gold
#TaskID 77f51c88eb8b467eb4a01dd2d0cb90d2
##Scan# 1281
#SpectrumFile Plate4_1_20_GH2_01_16503.mzXML
#LibraryName FDALibrary_2_04302014.mgf
#MQScore -1
#Organism FDALibrary_2_04302014
#TIC_Query 0
#RT_Query -1
#MZErrorPPM -1
#SharedPeaks 0
#MassDiff 0
#LibMZ -1
#SpecMZ 417.227
#SpecCharge 0
#internalFilename spec-00000.mgf

>collision 10
44.888531 156.0
44.995274 228.0
45.201107 144.0
45.450336 160.0
45.522823 168.0
45.63435 176.0
45.842987 160.0
45.930618 144.0
45.954903 300.0
46.028584 212.0
46.123711 172.0
46.165623 156.0
46.376171 224.0
46.636066 152.0
47.010235 168.0
47.052902 152.0
47.437321 160.0
47.550049 192.0
47.684387 216.0
47.753128 160.0
47.875614 232.0
47.905918 176.0
47.962414 176.0
48.012047 264.0
48.021702 216.0
48.04929 140.0
48.103111 156.0
48.132103 208.0
48.227428 188.0
48.331146 164.0
48.711014 140.0
49.01152 168.0
49.024059 192.0
49.265442 144.0
49.373066 188.0
49.599342 236.0
49.943897 212.0
50.024101 164.0
50.107189 168.0
50.132553 184.0
50.167789 236.0
50.369579 184.0
50.457195 152.0
50.707745 160.0
50.76445 148.0
50.842472 208.0
50.904934 148.0
50.95607 156.0
51.304977 172.0
51.45026 220.0
51.653179 192.0
51.716137 216.0
51.781998 176.0
52.05304 152.0
52.208237 160.0
52.21867 212.0
52.267216 200.0
52.591946 180.0
52.614567 168.0
52.863449 168.0
53.221207 208.0
53.799202 192.0
53.964291 208.0
54.021328 204.0
54.090103 220.0
54.304119 188.0
54.63747 184.0
54.684559 164.0
55.001453 144.0
55.227524 196.0
55.86536 144.0
55.978477 144.0
56.243855 160.0
56.320004 256.0
56.493401 216.0
56.532303 176.0
56.956593 224.0
57.391518 148.0
57.456371 184.0
57.528809 148.0
57.595249 168.0
57.90834 192.0
57.923485 216.0
58.037148 188.0
58.098461 188.0
58.515751 180.0
58.771805 200.0
58.9902 176.0
59.104904 172.0
59.265678 196.0
59.317783 160.0
59.463497 236.0
59.750847 152.0
59.76931 192.0
59.81086 200.0
59.83857 144.0
59.869366 180.0
59.910954 192.0
59.926361 244.0
60.045055 160.0
60.327866 176.0
60.630989 140.0
60.739521 168.0
61.001949 144.0
61.135471 184.0
61.234108 176.0
61.360004 236.0
61.600334 248.0
61.655022 228.0
61.730057 148.0
61.955441 176.0
62.358711 200.0
62.859509 160.0
63.074295 148.0
63.768532 192.0
64.215919 152.0
64.533638 188.0
64.583275 172.0
64.802589 236.0
65.420898 188.0
65.602936 156.0
65.749718 204.0
65.840118 144.0
66.11657 176.0
66.208847 212.0
66.252884 172.0
66.521774 180.0
67.340805 144.0
67.41922 156.0
67.495117 144.0
67.52549 152.0
67.635109 208.0
67.761208 224.0
68.125404 180.0
68.376976 180.0
68.648804 144.0
68.955872 152.0
69.08815 168.0
69.12854 264.0
69.331551 140.0
69.829605 156.0
70.011749 172.0
70.080971 156.0
70.176689 160.0
70.359497 160.0
70.566666 208.0
70.733955 188.0
70.911499 176.0
70.943352 148.0
71.736809 156.0
71.772209 164.0
72.145332 204.0
72.170158 176.0
72.233269 260.0
72.278946 188.0
72.438087 256.0
72.597412 224.0
73.073013 168.0
73.095131 180.0
73.478493 168.0
73.883392 184.0
73.905632 148.0
73.929588 216.0
74.198509 152.0
74.531479 180.0
74.584747 156.0
75.174065 180.0
75.590218 196.0
76.129333 176.0
76.240509 176.0
76.95993 208.0
76.99987 156.0
77.061234 152.0
77.111908 224.0
77.209816 164.0
77.786255 308.0
77.861755 204.0
78.058578 148.0
78.091988 156.0
78.348991 236.0
78.481171 144.0
78.745872 212.0
78.821838 176.0
78.84481 392.0
78.860718 176.0
79.278389 144.0
79.743362 172.0
79.816246 168.0
80.252487 180.0
80.405891 156.0
80.648796 148.0
80.83831 128.0
81.022789 240.0
81.115974 216.0
81.179276 340.0
81.221771 164.0
81.255852 196.0
81.381485 144.0
81.42099 244.0
81.63485 204.0
81.976875 148.0
82.005707 144.0
82.063393 144.0
82.381851 176.0
82.418968 208.0
82.502106 140.0
82.909363 168.0
82.94017 152.0
83.032776 160.0
83.223175 288.0
83.270393 204.0
83.415749 172.0
83.477562 152.0
83.614006 152.0
83.796097 144.0
84.274117 168.0
84.321632 196.0
84.347221 148.0
84.504494 180.0
84.548409 168.0
84.654846 140.0
85.449364 268.0
85.48616 148.0
85.82325 164.0
86.035423 300.0
86.18502 176.0
86.251549 140.0
86.358795 188.0
86.575325 140.0
86.819946 172.0
87.033348 156.0
87.199867 204.0
87.276756 168.0
87.291634 140.0
88.018356 168.0
88.211723 168.0
88.308014 156.0
88.418396 216.0
88.487656 212.0
88.751839 184.0
88.873756 220.0
89.251297 156.0
89.761581 140.0
89.818161 256.0
89.850227 208.0
90.039757 184.0
90.350868 144.0
90.394386 148.0
90.538254 156.0
90.564774 188.0
91.055061 160.0
91.098907 224.0
91.26693 188.0
91.352516 148.0
91.66095 164.0
91.863045 144.0
91.943176 204.0
91.971031 196.0
92.669815 188.0
92.729218 188.0
93.068756 224.0
93.17247 156.0
93.345459 220.0
93.399307 220.0
93.541695 268.0
93.651451 208.0
93.878868 180.0
93.919365 160.0
94.406059 220.0
95.046906 160.0
95.083504 140.0
95.126816 172.0
95.23555 176.0
95.579651 168.0
95.889282 192.0
95.918518 168.0
96.053062 164.0
96.094032 236.0
96.1838 160.0
96.295097 204.0
96.668495 212.0
96.690018 176.0
96.738953 212.0
96.903458 164.0
97.064888 228.0
97.166176 228.0
97.250557 228.0
97.30159 172.0
97.352646 140.0
97.39978 152.0
97.527496 160.0
97.653328 144.0
97.785149 172.0
97.82058 224.0
98.058914 192.0
98.338974 148.0
98.688629 172.0
98.813232 140.0
98.969589 140.0
99.046829 196.0
99.084465 176.0
99.174873 184.0
99.522789 152.0
99.544632 164.0
99.85688 164.0
99.981972 224.0
100.093452 208.0
100.4123 168.0
100.555946 156.0
101.022881 392.0
101.061806 140.0
101.26371 184.0
101.301765 140.0
101.795151 148.0
101.919693 176.0
102.042297 168.0
102.182442 152.0
102.336411 152.0
102.608032 140.0
102.741135 168.0
102.81781 172.0
102.975288 176.0
103.090439 168.0
103.145012 156.0
103.24408 152.0
103.493568 244.0
103.855721 148.0
103.95919 152.0
103.99572 160.0
104.670662 196.0
105.068604 888.0
105.204834 176.0
105.353912 148.0
105.539894 192.0
105.646683 132.0
105.748558 160.0
105.951279 148.0
106.039391 256.0
106.23008 152.0
106.41478 160.0
106.577042 204.0
107.031616 200.0
107.050323 228.0
107.084778 728.0
107.106583 208.0
107.13871 184.0
107.229378 164.0
107.291214 156.0
107.439697 144.0
108.31826 176.0
108.57444 192.0
108.712189 220.0
108.807671 184.0
109.062286 448.0
109.086044 156.0
109.101418 196.0
109.85862 192.0
110.209366 180.0
110.466507 184.0
110.688637 152.0
110.883179 156.0
111.008965 140.0
111.040421 148.0
111.1642 184.0
111.500443 176.0
111.664192 204.0
112.045189 236.0
112.578827 152.0
112.595726 176.0
112.663124 176.0
112.902161 156.0
113.057922 236.0
113.139145 196.0
113.160309 160.0
113.302208 156.0
113.340347 164.0
113.444199 192.0
113.518402 232.0
113.598999 140.0
114.008781 140.0
114.070419 160.0
114.115059 140.0
114.232025 168.0
114.393753 164.0
114.485306 156.0
114.510864 200.0
114.568375 216.0
114.834824 184.0
115.052422 344.0
115.154968 160.0
115.221184 208.0
116.266106 140.0
116.448593 156.0
117.050629 152.0
117.071983 500.0
117.980896 176.0
118.023895 144.0
118.394226 208.0
118.836121 216.0
119.038834 164.0
119.083305 1224.0
119.492256 216.0
119.760223 244.0
119.873299 144.0
119.975739 180.0
120.0877 232.0
120.335716 216.0
120.35318 172.0
120.403404 144.0
120.458008 152.0
120.744339 148.0
121.013702 164.0
121.038445 192.0
121.064186 4288.0
121.100319 380.0
121.712929 188.0
122.066605 276.0
122.32412 140.0
122.350533 148.0
122.432503 176.0
122.542137 140.0
122.584 144.0
122.601631 160.0
122.634689 184.0
122.879463 156.0
123.04187 252.0
123.078194 404.0
123.21946 152.0
123.365318 164.0
123.46096 164.0
123.531174 196.0
123.617462 224.0
123.947395 176.0
124.058212 208.0
124.476479 160.0
124.530846 260.0
124.59304 224.0
125.05822 380.0
125.100075 160.0
125.262634 140.0
125.302734 236.0
125.846931 156.0
126.068069 204.0
126.208893 204.0
127.053253 176.0
127.070541 176.0
127.839661 176.0
127.916183 152.0
128.062119 208.0
128.319443 148.0
128.346497 208.0
128.43219 180.0
128.551758 184.0
128.682678 240.0
129.0672 456.0
129.164032 200.0
129.340927 180.0
129.422028 160.0
129.573456 204.0
129.623611 148.0
130.043167 168.0
130.079468 404.0
130.340668 176.0
130.738602 188.0
130.943497 160.0
131.046188 196.0
131.0849 1020.0
131.294479 176.0
131.440475 156.0
131.947525 184.0
132.056381 652.0
132.087021 168.0
132.157928 152.0
132.17395 156.0
132.251755 140.0
132.318146 148.0
132.398285 236.0
132.517395 200.0
132.809067 156.0
132.840652 156.0
132.881943 140.0
133.061234 284.0
133.101074 220.0
133.382568 164.0
133.594131 228.0
133.67926 152.0
133.89209 176.0
133.960144 152.0
134.07074 168.0
134.10437 176.0
134.151413 180.0
134.317444 184.0
134.763 172.0
134.994141 156.0
135.038086 168.0
135.079544 3460.0
135.131851 164.0
135.226685 116.0
135.594177 184.0
135.971756 180.0
136.066925 228.0
136.084885 452.0
136.159821 184.0
136.215561 164.0
136.596771 208.0
136.920303 152.0
137.027451 228.0
137.057617 908.0
137.103348 168.0
137.141632 228.0
137.274521 256.0
137.370148 180.0
137.470474 160.0
137.790359 176.0
138.062439 244.0
138.101624 232.0
138.548355 176.0
138.597565 168.0
139.040756 228.0
139.073792 308.0
140.21196 176.0
140.371994 176.0
140.915131 148.0
141.057129 388.0
141.700623 172.0
141.769333 168.0
141.845184 164.0
141.885956 196.0
142.07663 312.0
142.189102 160.0
142.47641 164.0
143.065506 500.0
143.085007 888.0
143.128082 224.0
143.931641 156.0
144.054642 304.0
144.086899 548.0
144.104843 184.0
144.260712 196.0
144.342636 232.0
144.459824 188.0
144.496063 224.0
144.972198 216.0
145.063766 1852.0
145.099411 1256.0
145.492691 188.0
145.804947 200.0
146.070877 548.0
146.110275 188.0
146.146408 280.0
146.535843 172.0
146.690689 156.0
146.84259 160.0
147.079834 18784.0
147.216263 96.0
147.313278 164.0
147.668594 160.0
147.768539 100.0
148.082733 2536.0
148.436279 172.0
148.571106 204.0
148.724411 256.0
148.892502 216.0
148.958084 196.0
149.059219 428.0
149.092712 572.0
149.631699 148.0
149.780258 172.0
150.062241 536.0
150.304413 204.0
150.814819 208.0
151.075485 704.0
151.154755 164.0
151.191467 160.0
151.213486 152.0
151.399551 168.0
152.081116 140.0
152.11058 232.0
152.428268 112.0
152.914322 188.0
152.993088 168.0
153.053574 324.0
153.064331 184.0
153.088837 200.0
153.579559 140.0
153.732513 156.0
153.813965 208.0
153.994202 232.0
154.075668 484.0
154.223984 204.0
154.351578 184.0
154.7444 140.0
155.070831 1196.0
155.250793 108.0
155.506149 168.0
155.598816 160.0
155.777618 164.0
156.072754 176.0
156.396774 140.0
156.630829 184.0
156.837646 172.0
157.063675 172.0
157.099365 768.0
157.354019 184.0
157.458908 140.0
157.583801 156.0
157.768738 196.0
157.941284 204.0
158.071609 1328.0
158.103027 340.0
158.196518 216.0
158.700089 152.0
158.868118 188.0
158.885681 184.0
158.953415 188.0
159.07959 2912.0
159.10939 168.0
159.1492 188.0
160.084152 328.0
160.424942 160.0
160.709732 176.0
161.095779 3364.0
161.154114 180.0
161.565903 164.0
161.644638 160.0
161.836655 228.0
161.877518 176.0
162.067505 292.0
162.101166 528.0
162.579727 184.0
162.958069 192.0
163.04747 240.0
163.072586 1080.0
163.106079 232.0
163.227493 172.0
163.397903 192.0
163.632553 100.0
163.73645 180.0
163.756821 148.0
163.854477 180.0
164.076294 404.0
164.287018 160.0
164.315079 180.0
164.616257 228.0
164.700546 160.0
164.720978 204.0
165.062943 184.0
165.088669 528.0
166.074112 244.0
166.254623 204.0
166.336761 176.0
166.742569 192.0
167.071304 440.0
167.089523 312.0
167.269852 180.0
167.609802 196.0
167.90625 172.0
168.088776 532.0
168.342392 152.0
168.542313 140.0
168.944611 228.0
169.065536 212.0
169.101318 348.0
169.485718 212.0
169.711212 160.0
169.993942 196.0
170.070557 256.0
170.108505 200.0
170.157471 236.0
170.310684 184.0
170.606918 144.0
170.661514 208.0
170.911209 156.0
171.013428 204.0
171.036133 196.0
171.079437 7380.0
171.19754 160.0
171.464828 140.0
171.6931 100.0
171.739639 156.0
171.757889 148.0
172.083969 1136.0
172.29715 152.0
172.322937 108.0
172.428909 188.0
172.507324 160.0
172.640671 180.0
173.095505 13084.0
173.310776 144.0
173.871094 184.0
174.013687 184.0
174.032074 176.0
174.068832 144.0
174.098373 2032.0
174.131958 232.0
174.323639 144.0
174.562851 248.0
174.828537 196.0
175.073242 160.0
175.107941 704.0
175.289383 244.0
175.848465 236.0
175.983093 160.0
176.117767 200.0
176.210236 144.0
176.309906 160.0
176.341751 164.0
177.032852 148.0
177.090637 576.0
177.600128 172.0
178.087372 180.0
178.14682 168.0
178.396622 184.0
179.040512 148.0
179.084198 652.0
179.258957 220.0
179.355103 156.0
179.458862 144.0
180.086151 312.0
180.152756 200.0
180.492188 188.0
180.773056 164.0
180.821228 144.0
180.86673 140.0
181.059494 144.0
181.088913 912.0
181.504333 176.0
181.62233 192.0
181.820877 164.0
181.955078 140.0
182.069138 228.0
182.723724 160.0
182.76947 172.0
182.943314 128.0
183.083313 464.0
183.369202 164.0
183.699112 128.0
184.00119 160.0
184.087326 492.0
184.130798 160.0
184.922485 180.0
185.054153 160.0
185.094849 2100.0
185.139542 168.0
185.367096 212.0
185.479034 132.0
185.747742 100.0
186.100571 952.0
186.199936 188.0
186.583633 212.0
187.072784 1052.0
187.111801 2260.0
187.170029 188.0
188.117935 484.0
188.531952 172.0
188.742447 140.0
189.091812 732.0
189.124008 168.0
190.074951 460.0
190.554153 160.0
191.086456 488.0
191.786987 176.0
191.95517 208.0
192.091278 992.0
192.74054 200.0
193.062515 160.0
193.100677 280.0
193.840393 176.0
193.915909 96.0
194.069992 220.0
194.104401 196.0
194.125366 248.0
194.275681 148.0
194.97261 144.0
195.078995 1016.0
195.114594 188.0
195.258957 164.0
195.331268 212.0
195.754318 140.0
195.796082 180.0
195.854568 156.0
196.085236 860.0
196.149933 184.0
196.230774 188.0
197.016296 104.0
197.093826 2196.0
197.130646 464.0
198.101227 944.0
198.173248 168.0
198.722794 204.0
198.97258 196.0
199.07785 164.0
199.110062 2188.0
199.230942 176.0
199.273087 140.0
199.405151 144.0
200.088699 144.0
200.115494 260.0
200.347794 144.0
201.007538 144.0
201.090652 520.0
201.120636 224.0
201.179703 140.0
201.496002 140.0
201.686234 152.0
202.006653 120.0
202.099335 368.0
202.191605 200.0
202.845871 156.0
202.922424 168.0
203.101532 480.0
203.700012 200.0
203.819321 160.0
204.088913 388.0
204.259995 140.0
204.296967 204.0
204.481918 152.0
204.937546 176.0
204.994537 168.0
205.096405 348.0
205.935989 140.0
206.073105 144.0
206.104431 296.0
206.1474 196.0
206.21312 204.0
206.639206 176.0
206.733627 240.0
206.850967 184.0
207.077896 508.0
207.115723 2188.0
207.20607 148.0
207.621704 164.0
207.641769 160.0
208.086639 880.0
208.118149 336.0
208.211487 156.0
208.471436 160.0
209.094376 2084.0
209.130341 520.0
209.421326 236.0
209.625381 148.0
209.651321 156.0
210.100998 3172.0
210.433014 216.0
211.071823 288.0
211.111221 5488.0
211.138931 316.0
211.256668 184.0
211.937027 200.0
212.115707 1528.0
212.436676 124.0
212.473389 172.0
212.502411 260.0
212.970078 196.0
213.079285 224.0
213.127136 1756.0
214.016693 232.0
214.088104 196.0
214.128922 616.0
214.727722 204.0
215.069 132.0
215.106567 652.0
215.144989 156.0
215.498367 148.0
215.667862 188.0
215.748749 236.0
216.009964 160.0
216.068481 192.0
216.096344 368.0
216.140839 152.0
216.539749 188.0
216.771194 152.0
217.096619 332.0
217.574844 156.0
217.668793 148.0
218.074875 160.0
218.10524 232.0
218.130051 160.0
218.230011 224.0
218.741898 148.0
219.074661 284.0
219.114822 560.0
219.504959 196.0
220.085739 140.0
220.109177 156.0
220.20372 164.0
220.618042 168.0
221.096146 1516.0
221.126053 596.0
221.342911 184.0
222.101303 2424.0
222.221207 164.0
222.258835 180.0
222.817276 140.0
223.110352 4600.0
223.160431 144.0
223.197449 192.0
223.268829 176.0
223.474075 192.0
224.120895 1572.0
224.290039 160.0
224.438095 260.0
224.847778 228.0
224.877625 172.0
224.904495 164.0
224.976135 164.0
225.032181 248.0
225.089203 304.0
225.12645 12000.0
225.386856 100.0
225.779037 152.0
225.836716 164.0
225.992279 332.0
226.061844 144.0
226.098145 268.0
226.133347 10496.0
226.40094 152.0
226.434586 100.0
226.496033 192.0
226.531158 152.0
227.106735 652.0
227.141968 4588.0
227.177887 152.0
227.604843 148.0
227.759903 152.0
227.812073 160.0
227.966492 172.0
228.104462 160.0
228.144379 1180.0
228.654556 188.0
229.098343 320.0
229.154556 436.0
230.099762 308.0
231.075012 356.0
231.106461 456.0
231.22229 164.0
231.870407 176.0
231.927994 172.0
231.964371 184.0
232.090378 284.0
232.121216 208.0
232.313095 192.0
232.692444 156.0
232.901978 200.0
233.094543 188.0
233.128906 344.0
233.315247 164.0
233.537231 156.0
234.102539 732.0
234.538971 164.0
235.035309 208.0
235.111145 2304.0
235.628387 144.0
235.8423 232.0
236.001266 164.0
236.115738 924.0
236.151108 156.0
237.096283 380.0
237.126465 5352.0
237.49263 188.0
238.128281 860.0
238.456711 152.0
238.820175 148.0
238.942551 172.0
239.104614 444.0
239.1418 2732.0
239.456619 184.0
239.507538 128.0
239.841751 196.0
240.113846 176.0
240.144669 972.0
240.872345 140.0
241.076584 152.0
241.157944 2320.0
241.6978 156.0
242.119385 172.0
242.157944 768.0
242.290787 144.0
243.10463 184.0
243.139709 248.0
243.172897 228.0
243.223495 176.0
243.933884 180.0
244.123383 300.0
244.238617 152.0
245.098663 240.0
245.128525 564.0
245.347198 168.0
245.443848 232.0
246.027283 148.0
246.103256 368.0
247.109268 768.0
247.150787 540.0
247.186844 236.0
247.221252 148.0
247.496719 196.0
247.885132 188.0
248.118073 940.0
248.418137 140.0
248.678558 188.0
248.942276 168.0
249.093033 176.0
249.125198 2444.0
250.101028 312.0
250.131454 884.0
250.758698 212.0
250.987625 144.0
251.106232 496.0
251.141098 1564.0
251.457657 156.0
251.577606 168.0
251.858643 208.0
251.90918 152.0
252.104828 192.0
252.146606 364.0
252.193573 152.0
252.484436 216.0
253.094345 148.0
253.120087 612.0
253.156845 1476.0
253.564011 148.0
254.12384 344.0
254.160995 408.0
255.008072 140.0
255.136475 456.0
256.016602 144.0
256.130066 152.0
257.091187 328.0
257.133392 248.0
257.384583 200.0
258.105286 184.0
259.030609 176.0
259.108582 296.0
259.1492 584.0
259.342438 180.0
259.403351 140.0
259.698334 224.0
259.800995 196.0
260.111969 584.0
260.314545 156.0
260.353058 188.0
260.571503 160.0
261.126556 1880.0
261.246613 152.0
261.401031 156.0
262.13266 1532.0
262.594757 148.0
263.031006 156.0
263.06662 136.0
263.105591 460.0
263.1409 4352.0
263.506531 156.0
263.629333 144.0
263.946106 192.0
264.094788 180.0
264.147186 2948.0
264.263092 168.0
264.287628 112.0
264.819885 184.0
264.920288 184.0
265.156708 11912.0
265.646423 164.0
266.160522 2260.0
267.141083 820.0
267.170898 1220.0
268.10556 340.0
268.134399 180.0
268.176575 480.0
268.225067 192.0
268.397858 152.0
268.57724 212.0
269.129364 168.0
269.1539 380.0
269.481476 152.0
269.818115 140.0
270.130585 116.0
270.308746 156.0
270.960297 184.0
271.133362 516.0
271.209351 152.0
271.537231 152.0
271.809509 172.0
272.118805 740.0
272.683044 224.0
273.124969 124.0
274.012421 148.0
274.123444 180.0
274.226624 176.0
274.428925 120.0
274.952179 240.0
275.141357 1064.0
275.417725 164.0
275.728302 216.0
275.761353 188.0
276.114105 300.0
276.145325 640.0
276.62796 172.0
277.157593 7196.0
277.384918 108.0
278.119324 392.0
278.160034 1724.0
278.421722 232.0
279.137665 1180.0
279.1698 468.0
279.259216 212.0
279.715057 140.0
280.138916 616.0
280.173096 176.0
280.274567 192.0
280.777924 240.0
281.11441 464.0
281.152161 2432.0
281.225006 148.0
281.248352 164.0
282.060028 220.0
282.153381 808.0
282.377686 212.0
282.782501 184.0
283.063721 196.0
283.129974 132.0
283.164917 1900.0
283.91153 148.0
284.045685 176.0
284.095276 128.0
284.169861 684.0
284.455078 176.0
285.126831 168.0
285.167145 352.0
285.331879 196.0
286.799561 152.0
287.052399 220.0
287.142242 2356.0
287.872406 156.0
288.14566 284.0
288.981079 172.0
290.1008 120.0
290.128479 688.0
290.436035 132.0
291.018066 144.0
291.680542 184.0
292.142761 340.0
292.891876 164.0
293.151031 2428.0
293.212158 144.0
293.321228 196.0
293.771393 212.0
294.154572 296.0
294.450562 192.0
295.014374 168.0
295.129669 568.0
295.169464 10268.0
295.342621 164.0
295.648682 140.0
296.122986 184.0
296.171051 1688.0
296.839233 172.0
297.151215 564.0
297.670868 124.0
297.92038 228.0
298.148682 192.0
298.415283 188.0
299.167358 348.0
299.361511 152.0
299.785217 148.0
300.792328 180.0
301.075439 220.0
302.306122 180.0
303.144928 252.0
303.175323 164.0
304.063141 172.0
304.12561 204.0
304.192413 164.0
304.479736 184.0
304.521423 152.0
304.91748 184.0
304.955719 160.0
305.152954 9188.0
305.205627 204.0
305.539917 168.0
306.067657 108.0
306.154297 2416.0
307.002808 164.0
307.146759 324.0
307.868286 176.0
307.955597 184.0
308.13147 228.0
308.45874 156.0
308.60556 184.0
309.146179 188.0
309.259735 156.0
310.131866 144.0
311.164215 1144.0
311.493286 148.0
311.567078 152.0
312.168854 304.0
312.604309 168.0
313.114746 208.0
313.144196 164.0
313.176605 3024.0
314.108704 140.0
314.187256 544.0
314.39801 148.0
314.717316 152.0
315.186432 204.0
315.568695 216.0
315.722778 192.0
316.596893 140.0
318.625793 224.0
319.185059 136.0
319.230042 148.0
319.678253 160.0
320.137482 140.0
320.512939 168.0
321.148956 408.0
322.059784 220.0
322.406342 208.0
322.749512 224.0
322.939026 168.0
322.989105 320.0
323.046112 156.0
323.118286 176.0
323.164001 27228.0
323.280792 176.0
323.396637 200.0
323.476959 148.0
323.571289 192.0
323.859741 264.0
323.90979 136.0
324.051422 152.0
324.097778 176.0
324.167542 5324.0
324.222534 116.0
325.131226 164.0
325.16684 408.0
325.24649 184.0
325.458313 152.0
325.79425 96.0
326.167786 248.0
326.277466 148.0
326.381622 116.0
327.155365 192.0
328.156799 148.0
328.625671 164.0
329.134613 272.0
329.174835 172.0
331.652527 148.0
331.819275 168.0
332.729889 236.0
332.900543 152.0
335.205231 156.0
337.002045 152.0
337.056854 196.0
337.68927 144.0
337.883148 148.0
338.358917 152.0
339.073212 228.0
339.159515 492.0
339.700195 164.0
340.21167 208.0
340.625214 232.0
340.757477 160.0
340.959473 272.0
341.088226 144.0
341.113953 296.0
341.174469 18436.0
341.348328 124.0
341.549164 104.0
341.924194 180.0
341.980316 148.0
342.031769 100.0
342.177765 5272.0
342.527069 148.0
342.694397 132.0
342.749115 148.0
343.038147 136.0
343.181152 572.0
344.190247 152.0
344.237091 128.0
344.463531 208.0
344.501709 96.0
345.17865 236.0
347.202454 232.0
351.181244 184.0
351.749115 232.0
352.191071 120.0
353.202454 184.0
353.269989 164.0
353.966156 184.0
354.136658 188.0
357.178802 168.0
357.381866 212.0
357.562469 160.0
357.645294 172.0
358.835663 192.0
359.184692 612.0
359.224121 176.0
360.194214 184.0
360.288666 196.0
361.233734 164.0
362.937988 144.0
363.197357 400.0
363.590454 192.0
364.190491 160.0
365.04541 140.0
365.311646 160.0
366.08429 152.0
366.51474 152.0
367.052185 192.0
367.845734 172.0
369.255646 156.0
369.385681 168.0
371.217804 320.0
372.222076 96.0
374.448364 176.0
377.199402 152.0
379.73941 144.0
381.204773 1540.0
381.276825 148.0
381.346771 140.0
381.891113 180.0
382.209778 456.0
382.669403 196.0
384.48761 152.0
385.399628 204.0
385.66925 164.0
387.118561 204.0
387.246033 168.0
388.210114 164.0
389.183258 196.0
389.845398 104.0
391.629303 232.0
393.352386 148.0
393.853882 212.0
395.431458 204.0
396.116455 152.0
397.258087 216.0
397.396942 228.0
397.468353 176.0
397.583435 180.0
397.912903 188.0
398.008179 152.0
398.139221 192.0
398.182922 144.0
398.318848 160.0
398.36261 180.0
398.461243 120.0
398.823273 252.0
398.93042 176.0
398.97464 192.0
399.081146 96.0
399.124634 128.0
399.216736 62660.0
399.311737 136.0
399.344177 144.0
399.442596 96.0
399.555054 128.0
399.662445 124.0
399.734558 168.0
399.836945 128.0
399.925873 192.0
400.219513 15204.0
400.312561 196.0
400.630829 104.0
400.87616 240.0
401.222168 2936.0
402.222504 528.0
402.270996 96.0
402.500885 104.0
402.535614 160.0
402.63147 164.0
402.669708 144.0
402.723175 104.0
402.800659 200.0
402.856079 136.0
402.888733 108.0
402.957001 116.0
403.234711 184.0
403.313324 96.0
413.907501 140.0
415.2612 192.0
416.206573 144.0
417.224579 6412.0
417.356323 128.0
418.165985 152.0
418.229828 1476.0
419.236542 276.0
420.230164 128.0
421.226837 156.0
433.273376 144.0
502.790771 132.0
519.346924 148.0
533.222351 140.0
745.798584 248.0
871.795715 156.0
884.061768 164.0
1032.897705 156.0
1038.277832 140.0
1100.61792 188.0
1217.408325 164.0
1222.62915 176.0
1227.951782 160.0
1243.273071 188.0
1261.967896 176.0
1278.56665 172.0
1331.822876 228.0
1333.319458 188.0
1347.199829 140.0
1352.881958 164.0
1359.118896 168.0
1364.620117 152.0
1385.632202 192.0
1394.135498 156.0
1435.85022 188.0
1476.229248 176.0
1483.111938 160.0
1492.077881 156.0
1498.034302 176.0
1506.218506 188.0
1530.663818 168.0
1531.777466 176.0
1550.646973 168.0
1555.054688 192.0
1566.235229 152.0
1570.948975 152.0
1576.112305 176.0
1576.96582 140.0
1578.681274 156.0
1579.282349 172.0
1591.76416 152.0
1600.080933 172.0
1616.123047 152.0
1617.067383 172.0
1618.268066 172.0
1621.400757 184.0
1635.600098 180.0
1639.175903 152.0
1647.534546 184.0
1656.108887 164.0
1656.238525 152.0
1661.085693 164.0
1662.067383 188.0
1663.235962 172.0
1664.145142 200.0
1669.874023 172.0
1670.736328 160.0
1677.390137 216.0
1678.220825 196.0
1680.14563 260.0
1688.11731 164.0
1692.118408 208.0
1699.018921 160.0
1703.098633 160.0
1707.035156 160.0
1707.833008 192.0
1718.0802 164.0
1722.3479 152.0
1734.677002 164.0
1735.398315 172.0
1741.373047 184.0
1745.686157 188.0
1746.293213 168.0
1746.742432 216.0
1746.991943 156.0
1748.764282 268.0
1767.248291 188.0
1774.425903 204.0
1786.754639 152.0
1789.119507 196.0
1793.963379 160.0
1796.31604 188.0
1798.965698 224.0
1814.540283 176.0
1815.401123 184.0
1818.976929 164.0
1823.861084 176.0
1831.110107 160.0
1831.944824 180.0
1833.12915 144.0
1835.697144 176.0
1837.144897 152.0
1837.400757 160.0
1841.07959 212.0
1841.438232 156.0
1850.536743 164.0
1853.423218 220.0
1854.005859 204.0
1864.957031 224.0
1866.822632 200.0
1869.239746 148.0
1869.609741 164.0
1870.711426 172.0
1870.926758 200.0
1876.000732 256.0
1880.917603 148.0
1885.175415 148.0
1893.783447 176.0
1898.584839 156.0
1899.695068 196.0
1908.283936 176.0
1911.389038 204.0
1911.5979 212.0
1916.517578 212.0
1916.988159 244.0
1918.051392 196.0
1927.564209 176.0
1928.927612 144.0
1929.355835 164.0
1931.629517 228.0
1941.026733 204.0
1941.623047 228.0
1941.877441 232.0
1953.550903 208.0
1955.689087 208.0
1957.220825 144.0
1958.268799 176.0
1959.343506 164.0
1962.560303 144.0
1962.745483 168.0
1963.01001 160.0
1965.506348 140.0
1965.823486 188.0
1966.538818 172.0
1970.141479 152.0
1978.489746 196.0
1980.304932 160.0
1981.483032 208.0
1983.565552 168.0
1990.853394 184.0
1994.598999 244.0
1994.901245 236.0
1996.252563 168.0
1999.036865 208.0
