>compound MLS001304747-01!valacyclovir
>formula C13H20N6O4
>ionization [M+H]+
>parentmass 325.163
#inchi InChI=1S/C13H20N6O4/c1-7(2)8(14)12(21)23-4-3-22-6-19-5-16-9-10(19)17-13(15)18-11(9)20/h5,7-8H,3-4,6,14H2,1-2H3,(H3,15,17,18,20)/t8-/m0/s1
#inchikey HDOVUKNUBWVHOX
#Ion_Source LC-ESI
#Instrument qTof
#Compound_Source NIH Pharmacologically Active Library
#PI Dorrestein
#Data_Collector VP/LMS
#Scan -1
#Precursor_MZ 325.163
#ExactMass 324.155
#Charge 1
#CAS_Number N/A
#Pubmed_ID N/A
#Smiles CC(C)[C@H](N)C(=O)OCCOCn1cnc2c(O)nc(N)nc12
#INCHI_AUX N/A
#Library_Class 3
#SpectrumID CCMSLIB00000085746
#IonMode Positive
#UpdateWorkflowName UPDATE-SINGLE-ANNOTATED-BRONZE
#LibraryQualityString Bronze
#TaskID d252d724072548979f1f6f1ced849daf
##Scan# 727
#SpectrumFile p4-E10_GE10_01_18382.mzXML
#LibraryName Pharm_Active_Library.mgf
#MQScore -1
#Organism Pharm_Active_Library
#TIC_Query 0
#RT_Query -1
#MZErrorPPM -1
#SharedPeaks 0
#MassDiff 0
#LibMZ -1
#SpecMZ 325.163
#SpecCharge 0
#internalFilename spec-00000.mgf

>collision 10
46.281044 156.0
46.899189 180.0
47.184502 20.0
51.635216 44.0
51.871475 76.0
53.174 68.0
58.876553 204.0
59.386215 196.0
63.091232 136.0
67.901878 240.0
94.559517 148.0
97.15316 228.0
100.844406 144.0
103.595192 76.0
108.665611 152.0
110.029251 172.0
112.124435 156.0
113.197632 152.0
117.548019 132.0
119.326355 208.0
122.037102 144.0
125.035095 144.0
127.807808 220.0
130.683731 172.0
132.918472 212.0
135.027756 1188.0
135.058777 48.0
135.121246 44.0
136.612991 96.0
142.956833 44.0
144.103165 244.0
145.077881 172.0
146.116974 480.0
151.952713 128.0
152.055618 3140.0
152.413116 112.0
153.056747 224.0
153.165939 56.0
154.231918 88.0
155.098267 144.0
156.044113 100.0
156.106461 168.0
163.139343 120.0
164.055817 220.0
164.142502 104.0
166.073395 132.0
169.020676 44.0
178.073807 100.0
194.905136 212.0
199.075806 108.0
234.890152 132.0
269.819885 48.0
272.911743 124.0
282.39328 136.0
323.239777 160.0
338.070526 92.0
338.872437 128.0
346.832764 136.0
395.173157 132.0
1219.25354 220.0
1219.635864 200.0
1240.479858 180.0
1251.636841 108.0
1276.65979 220.0
1280.040039 120.0
1297.883057 156.0
1357.046631 112.0
1377.011475 184.0
1424.64917 180.0
1463.1521 100.0
