>compound MLS001075552-01!
>formula C23H27N3O4
>ionization [M+H]+
>parentmass 410.208
#inchi InChI=1S/C23H27N3O4/c1-30-19-7-5-16(6-8-19)12-24-21(27)9-10-22(28)25-13-17-11-18(15-25)20-3-2-4-23(29)26(20)14-17/h2-8,17-18H,9-15H2,1H3,(H,24,27)/t17-,18-/m1/s1
#inchikey ZDWYGHLNVGSBOG
#Ion_Source LC-ESI
#Instrument qTof
#Compound_Source NIH Natural Product Library
#PI Dorrestein
#Data_Collector VVP/LMS
#Scan -1
#Precursor_MZ 410.208
#ExactMass 409.2
#Charge 1
#CAS_Number N/A
#Pubmed_ID N/A
#Smiles COc1ccc(CNC(=O)CCC(=O)N2C[C@H]3C[C@H](C2)c4cccc(=O)n4C3)cc1
#INCHI_AUX N/A
#Library_Class 1
#SpectrumID CCMSLIB00000080091
#IonMode Positive
#UpdateWorkflowName UPDATE-SINGLE-ANNOTATED-GOLD
#LibraryQualityString Gold
#TaskID b1d8e8f6646f4e71acdff9ca3d919d08
##Scan# 1614
#SpectrumFile p2-A04_GA4_01_17981.mzXML
#LibraryName NIH_Natural_Products_Library.mgf
#MQScore -1
#Organism NIH_Natural_Products_Library
#TIC_Query 0
#RT_Query -1
#MZErrorPPM -1
#SharedPeaks 0
#MassDiff 0
#LibMZ -1
#SpecMZ 410.208
#SpecCharge 0
#internalFilename spec-00000.mgf

>collision 10
94.975319 140.0
95.039345 176.0
95.052925 124.0
95.163567 112.0
95.198517 240.0
95.451141 168.0
95.577576 136.0
95.731361 184.0
95.760574 112.0
95.885269 108.0
95.965187 292.0
95.988586 192.0
96.042404 148.0
96.115379 168.0
96.171982 112.0
96.19931 160.0
96.291077 120.0
96.316475 48.0
96.472801 136.0
96.711449 160.0
96.778015 140.0
96.936676 148.0
96.954315 212.0
96.973915 108.0
97.203369 220.0
97.332924 88.0
97.392822 240.0
97.413452 172.0
97.438988 252.0
97.789017 28.0
97.92881 152.0
97.981995 228.0
98.064873 208.0
98.102211 36.0
98.139671 20.0
98.177139 32.0
98.208954 112.0
98.589516 172.0
98.660904 208.0
98.826004 96.0
98.846825 64.0
98.88047 68.0
98.999252 196.0
99.050751 172.0
99.066597 44.0
99.128021 160.0
99.32827 180.0
99.433426 140.0
99.467171 168.0
99.489006 188.0
99.538643 180.0
99.61264 220.0
99.69558 168.0
99.72937 128.0
99.836731 168.0
99.858604 84.0
99.914307 208.0
99.934677 84.0
100.139244 120.0
100.197014 132.0
100.470146 112.0
100.494087 148.0
100.709686 68.0
100.847557 116.0
101.099556 160.0
101.217667 172.0
101.243698 148.0
101.335838 180.0
101.349869 168.0
101.460106 128.0
101.612526 180.0
101.626572 108.0
101.775101 160.0
102.012177 164.0
102.080536 192.0
102.110703 164.0
102.174377 184.0
102.225868 212.0
102.296104 172.0
102.404556 212.0
102.428726 120.0
102.531487 220.0
102.579231 224.0
102.636314 140.0
102.96727 200.0
102.995544 68.0
103.057434 228.0
103.104652 156.0
103.229988 156.0
103.272461 156.0
103.49305 124.0
103.782799 132.0
103.898407 172.0
103.928841 188.0
103.988617 228.0
104.062019 176.0
104.239517 216.0
104.351311 176.0
104.65448 176.0
104.672806 192.0
104.705391 180.0
104.738815 216.0
104.868385 96.0
104.917305 188.0
104.941772 224.0
104.972359 164.0
105.18454 220.0
105.209038 224.0
105.382637 176.0
105.401031 56.0
105.427597 180.0
105.460297 92.0
105.525711 212.0
105.542068 172.0
105.609558 136.0
105.632057 296.0
105.705711 176.0
105.894058 140.0
105.916595 40.0
105.93708 132.0
105.992393 116.0
106.039772 828.0
106.06208 168.0
106.084625 164.0
106.199455 92.0
106.462158 252.0
106.558754 172.0
106.612129 72.0
106.634735 176.0
106.657349 196.0
106.671738 160.0
106.807449 204.0
106.825966 244.0
106.875343 204.0
107.017365 140.0
107.031784 32.0
107.050011 220.0
107.320251 192.0
107.382118 88.0
107.675194 204.0
107.72477 144.0
107.788818 220.0
107.890091 56.0
108.036926 140.0
108.169373 220.0
108.204559 188.0
108.343323 80.0
108.442787 104.0
108.465591 172.0
108.496681 176.0
108.523636 148.0
108.573402 164.0
108.592072 152.0
108.616959 232.0
108.741455 180.0
108.766365 152.0
108.874329 120.0
108.928329 116.0
109.152794 180.0
109.213104 116.0
109.342102 224.0
109.419128 140.0
109.569077 116.0
109.70871 176.0
109.854691 152.0
109.923538 44.0
109.961105 144.0
109.994499 156.0
110.059219 220.0
110.103073 100.0
110.393562 108.0
110.527443 168.0
110.680244 220.0
110.709564 112.0
110.849922 36.0
110.912796 56.0
110.956161 192.0
111.116211 276.0
111.172867 172.0
111.198051 120.0
111.372322 164.0
111.403831 156.0
111.435349 104.0
111.46476 196.0
111.500488 92.0
111.660271 176.0
111.753426 128.0
111.870689 232.0
111.988609 120.0
112.072876 160.0
112.129776 224.0
112.201447 168.0
112.260483 216.0
112.346962 252.0
112.412369 188.0
112.469353 168.0
112.746193 168.0
112.834816 164.0
113.011879 252.0
113.387306 392.0
113.42704 176.0
113.779732 160.0
113.824318 124.0
113.928391 200.0
114.000633 56.0
114.054596 224.0
114.124825 196.0
114.183464 168.0
114.240898 116.0
114.285576 180.0
114.310074 148.0
114.398376 168.0
114.521881 216.0
114.653015 160.0
114.724312 224.0
114.794678 92.0
114.877861 44.0
114.892792 176.0
115.059258 180.0
115.074203 104.0
115.27285 124.0
115.324142 148.0
115.34552 140.0
115.5765 232.0
115.617157 236.0
115.657822 232.0
115.689934 224.0
116.05201 160.0
116.124924 220.0
116.264374 196.0
116.335205 240.0
116.459755 156.0
116.524628 160.0
116.547836 176.0
116.610153 140.0
116.780014 176.0
116.855301 176.0
116.971519 132.0
116.986588 160.0
117.055267 200.0
117.201958 184.0
117.229973 184.0
117.303253 184.0
117.469299 196.0
117.557762 196.0
117.72831 64.0
117.873039 152.0
117.920586 228.0
117.965981 248.0
118.011383 176.0
118.064453 172.0
118.126007 52.0
118.203896 96.0
118.396561 160.0
118.463707 124.0
118.567711 184.0
118.68911 172.0
118.730309 200.0
118.830093 220.0
118.866982 208.0
118.903877 232.0
118.995049 220.0
119.060188 176.0
119.081909 44.0
119.116661 184.0
119.149246 136.0
119.166626 164.0
119.262245 132.0
119.321205 168.0
119.440552 208.0
119.525398 108.0
119.544983 192.0
119.63205 184.0
119.657799 232.0
119.682121 80.0
119.777946 120.0
119.963173 112.0
120.041405 132.0
120.059113 168.0
120.083099 124.0
120.10273 152.0
120.128906 124.0
120.176903 132.0
120.231461 128.0
120.371178 220.0
120.394264 188.0
120.545937 144.0
120.594017 132.0
120.685829 96.0
120.718674 208.0
120.775497 188.0
120.839256 192.0
120.876137 164.0
120.906769 148.0
120.920944 136.0
120.939598 100.0
120.962242 140.0
120.985596 352.0
121.010551 244.0
121.033531 476.0
121.041138 216.0
121.065498 95284.0
121.155251 92.0
121.176109 36.0
121.20195 192.0
121.226997 108.0
121.262886 200.0
121.287331 212.0
121.347366 88.0
121.377441 156.0
121.402252 160.0
121.425339 992.0
121.457451 108.0
121.509369 92.0
121.535698 52.0
121.566414 48.0
121.59079 112.0
121.613174 196.0
121.629265 44.0
121.643517 92.0
121.665878 140.0
121.695923 92.0
121.718742 92.0
121.757072 156.0
121.801338 112.0
121.818756 56.0
121.843079 48.0
121.869316 68.0
121.895813 48.0
121.911194 104.0
121.935371 48.0
121.981529 216.0
122.005219 88.0
122.06797 9140.0
122.102463 44.0
122.122253 44.0
122.162842 68.0
122.212456 60.0
122.238312 168.0
122.271866 80.0
122.287277 124.0
122.307083 68.0
122.329102 48.0
122.364319 80.0
122.447998 44.0
122.500862 96.0
122.562553 68.0
122.578781 104.0
122.61985 56.0
122.644096 60.0
122.704269 108.0
122.725662 156.0
122.760948 44.0
122.789619 48.0
122.807259 136.0
122.821861 72.0
122.871231 136.0
122.912117 200.0
122.958397 80.0
122.979362 100.0
123.011482 196.0
123.019997 108.0
123.027351 92.0
123.046478 228.0
123.070404 1824.0
123.119896 92.0
123.176987 176.0
123.24437 92.0
123.266464 52.0
123.288567 56.0
123.527359 136.0
123.558334 108.0
123.894844 136.0
123.976387 200.0
124.072983 232.0
124.136444 44.0
124.531487 148.0
124.622566 56.0
124.709236 92.0
125.232048 136.0
125.3591 76.0
125.388069 112.0
125.724838 124.0
125.751617 68.0
126.059814 168.0
126.220764 172.0
126.267723 112.0
126.370628 136.0
126.545204 100.0
126.607903 48.0
126.80397 172.0
126.912666 172.0
126.930603 124.0
127.316589 204.0
127.428902 144.0
127.444633 176.0
128.070312 324.0
128.146637 52.0
128.25029 112.0
128.300827 96.0
128.356262 168.0
128.399109 116.0
128.543488 36.0
128.638275 184.0
128.778549 168.0
128.988419 140.0
129.072067 136.0
129.135391 192.0
129.66745 152.0
129.817078 168.0
129.860168 140.0
130.025803 112.0
130.055313 232.0
130.441437 336.0
130.78949 140.0
130.837296 108.0
131.19725 36.0
131.229172 72.0
131.25882 100.0
131.36145 104.0
131.411636 212.0
132.011887 180.0
132.044632 292.0
132.286957 172.0
132.550339 160.0
132.72406 112.0
132.841522 172.0
133.050735 192.0
133.20192 148.0
133.254761 156.0
133.477722 188.0
133.719269 164.0
133.988693 184.0
134.041687 208.0
134.057816 176.0
134.099182 156.0
134.219177 36.0
134.31604 192.0
134.491409 180.0
134.934952 236.0
135.393112 76.0
135.460297 168.0
135.51358 112.0
135.608582 204.0
135.801025 152.0
135.85881 176.0
136.068954 176.0
136.600082 104.0
137.457474 160.0
137.744644 104.0
137.917557 168.0
138.078888 132.0
138.476776 176.0
138.544708 100.0
138.718124 168.0
138.809555 164.0
139.025375 80.0
139.121613 148.0
139.321228 88.0
139.659729 88.0
139.756195 160.0
139.88327 172.0
140.012772 116.0
140.220993 200.0
140.241318 176.0
140.616333 140.0
140.696594 172.0
141.053299 192.0
141.202271 120.0
141.249573 160.0
141.841568 208.0
142.066849 184.0
142.138031 68.0
142.22821 100.0
142.910263 156.0
142.931686 164.0
143.019745 112.0
143.069733 408.0
143.2388 248.0
143.281693 220.0
143.634506 196.0
143.88269 128.0
144.073746 196.0
144.100037 204.0
144.174103 128.0
144.717117 80.0
145.055359 152.0
145.095673 172.0
145.388306 172.0
145.462708 172.0
145.53714 144.0
145.55394 48.0
145.969666 176.0
146.061783 976.0
146.650986 192.0
146.858337 228.0
146.889694 152.0
147.065338 376.0
147.09964 172.0
147.176895 156.0
147.823959 164.0
147.914276 136.0
148.04744 176.0
148.076584 3616.0
148.160934 140.0
148.18869 76.0
148.26062 124.0
148.651062 48.0
149.000702 180.0
149.056595 188.0
149.079651 828.0
149.207291 96.0
149.285095 88.0
149.336166 100.0
149.508911 256.0
149.988724 124.0
150.159409 84.0
150.200867 80.0
150.313095 56.0
150.476639 124.0
150.527908 172.0
150.883591 148.0
151.099869 76.0
151.378906 180.0
151.496475 144.0
151.878891 300.0
152.704163 96.0
152.775497 148.0
152.856705 184.0
153.154587 120.0
153.196472 220.0
153.241837 48.0
153.270386 120.0
153.50209 32.0
153.733978 156.0
153.768539 192.0
153.849991 116.0
153.90184 160.0
153.966049 136.0
154.027786 148.0
154.087082 112.0
154.213104 156.0
154.292221 80.0
154.37381 148.0
155.07692 148.0
155.267838 56.0
155.312469 96.0
155.384415 176.0
155.434036 64.0
155.620209 256.0
155.789093 136.0
156.313705 164.0
156.545212 96.0
156.597519 120.0
157.056137 216.0
157.083572 160.0
157.510437 104.0
157.675339 132.0
157.72142 140.0
157.906677 228.0
158.058044 180.0
158.094025 120.0
158.228165 176.0
158.330826 104.0
159.065659 156.0
159.118195 72.0
159.397003 152.0
159.505066 144.0
159.525177 60.0
159.545288 208.0
159.570435 184.0
159.733902 204.0
159.769119 208.0
160.076202 4296.0
160.354568 192.0
160.406235 36.0
160.504562 48.0
160.552475 188.0
160.654327 160.0
160.691223 100.0
160.792542 236.0
160.835068 172.0
160.933517 40.0
161.077255 916.0
161.120422 48.0
161.494537 164.0
161.6008 44.0
161.631149 44.0
161.927353 88.0
162.046402 80.0
162.093643 684.0
162.28212 112.0
162.472336 144.0
162.662674 212.0
162.807388 112.0
163.095734 272.0
163.117371 68.0
163.684738 172.0
163.952209 176.0
164.073257 132.0
164.212265 180.0
164.306656 172.0
164.390854 220.0
165.234055 148.0
165.290359 156.0
165.664154 176.0
165.894806 196.0
166.015305 160.0
166.361694 156.0
166.446426 56.0
166.664764 140.0
167.235672 140.0
167.346375 44.0
167.5112 176.0
167.748276 224.0
168.24617 160.0
168.786163 136.0
168.925827 80.0
169.094009 144.0
169.194962 200.0
170.078949 120.0
170.250305 176.0
170.30484 180.0
170.754486 168.0
170.876755 236.0
171.01207 140.0
171.068863 108.0
171.097977 112.0
171.124008 168.0
171.366241 56.0
171.491318 156.0
171.667892 88.0
172.076447 816.0
172.300278 148.0
172.559006 156.0
173.073746 272.0
173.118973 48.0
173.435989 176.0
173.742813 52.0
174.015762 228.0
174.092163 2100.0
174.1707 48.0
174.29155 44.0
174.401932 208.0
174.47554 72.0
174.854324 208.0
175.093552 616.0
175.473358 144.0
175.721283 188.0
175.977295 120.0
176.067078 160.0
176.241425 148.0
176.397354 44.0
176.556 120.0
176.910553 124.0
177.00058 40.0
177.318481 136.0
177.488144 144.0
177.602173 76.0
177.822403 172.0
178.420074 164.0
179.239853 216.0
179.466431 172.0
179.634445 160.0
180.002762 168.0
180.521179 148.0
181.176956 208.0
181.471756 40.0
181.522705 144.0
181.960068 184.0
182.113144 80.0
182.268951 156.0
182.455109 232.0
182.500122 68.0
182.680313 92.0
182.736816 72.0
182.85791 104.0
182.934143 184.0
182.954803 172.0
183.291489 164.0
183.579926 140.0
183.612289 228.0
183.703995 144.0
183.887482 192.0
184.076462 184.0
184.246613 256.0
184.522293 164.0
184.722412 228.0
185.055298 196.0
186.091019 80.0
186.145325 92.0
186.406113 156.0
186.838425 132.0
187.091522 148.0
187.314835 176.0
187.447418 60.0
187.677307 128.0
187.810928 116.0
188.08107 168.0
188.127472 176.0
188.277649 80.0
188.881683 176.0
189.018478 164.0
189.103149 2508.0
189.171753 184.0
189.297699 172.0
189.40451 124.0
189.519577 48.0
189.974701 212.0
189.99939 104.0
190.110321 240.0
190.216187 96.0
190.449585 132.0
190.51825 84.0
190.644653 148.0
190.705109 136.0
190.84256 68.0
190.955322 132.0
190.974564 64.0
191.029587 240.0
191.065353 168.0
191.11821 22664.0
191.199356 148.0
191.277252 64.0
191.319977 48.0
191.379105 44.0
191.403885 44.0
191.499466 176.0
191.569138 128.0
191.629745 52.0
191.679352 60.0
191.792343 84.0
191.836456 84.0
191.872284 56.0
191.90538 168.0
192.054291 52.0
192.119904 2128.0
192.178436 68.0
192.363342 48.0
192.382675 60.0
192.603577 208.0
192.965607 52.0
193.067917 52.0
193.123901 296.0
193.363937 100.0
193.453903 176.0
193.585419 44.0
193.646347 152.0
193.973312 120.0
194.034302 144.0
194.209 56.0
194.369797 184.0
194.422638 68.0
194.444839 148.0
196.076874 168.0
196.155457 108.0
196.453842 140.0
196.64917 176.0
196.981445 124.0
197.327988 172.0
197.409073 152.0
197.439835 188.0
197.733597 200.0
198.094803 132.0
198.837845 272.0
199.014954 128.0
199.09613 180.0
199.121414 148.0
200.105621 116.0
200.178833 192.0
200.223892 176.0
200.697311 36.0
200.953979 176.0
201.010132 200.0
201.109192 180.0
201.148712 196.0
201.442398 148.0
201.5215 92.0
201.73912 148.0
201.823929 52.0
202.08429 172.0
202.11528 120.0
202.602264 52.0
202.626236 156.0
202.656097 48.0
202.729767 156.0
202.87999 164.0
203.091141 216.0
203.117828 568.0
203.387772 60.0
203.498489 144.0
203.756943 180.0
203.921753 144.0
204.129288 128.0
204.672791 144.0
205.094437 164.0
205.151443 64.0
205.171402 184.0
205.804794 176.0
206.036133 144.0
206.261902 92.0
207.134659 180.0
207.154709 148.0
207.329483 72.0
207.424072 76.0
207.865753 144.0
208.448685 208.0
208.684387 192.0
208.839676 140.0
209.787048 148.0
210.124466 88.0
210.277405 128.0
211.037155 28.0
211.057404 232.0
211.717178 116.0
211.780899 228.0
211.879395 52.0
211.925751 132.0
212.053253 160.0
212.183701 56.0
212.477066 52.0
212.880081 176.0
212.94397 144.0
214.040344 176.0
214.08461 140.0
214.121887 136.0
214.235489 100.0
214.456955 80.0
214.897293 80.0
214.976089 40.0
215.07782 140.0
215.157043 144.0
215.297211 100.0
215.344299 64.0
215.416962 120.0
215.700409 96.0
215.753036 148.0
216.102844 192.0
216.127411 180.0
216.464035 128.0
216.674927 164.0
216.756958 88.0
216.900574 160.0
217.058884 140.0
217.094223 488.0
217.138077 152.0
217.428528 144.0
217.522446 104.0
217.542999 116.0
217.625198 136.0
217.833725 128.0
218.102905 204.0
218.371628 144.0
218.554016 152.0
218.815979 144.0
218.848358 112.0
219.343292 128.0
219.443527 100.0
220.060181 96.0
220.097717 140.0
220.281677 152.0
220.396896 88.0
220.801895 200.0
220.932053 196.0
221.097748 212.0
221.13031 188.0
221.2043 140.0
221.293121 144.0
221.524124 160.0
221.642624 188.0
221.788406 148.0
221.98056 92.0
222.057663 128.0
222.499802 76.0
223.418137 132.0
224.137527 168.0
224.281708 116.0
224.308533 148.0
224.556015 120.0
224.621643 124.0
224.797668 44.0
224.985718 152.0
225.197723 96.0
225.702789 64.0
225.921112 60.0
226.501862 168.0
226.64267 100.0
226.942123 192.0
227.115005 576.0
227.317352 80.0
227.341354 44.0
227.36972 160.0
227.452408 88.0
227.632553 116.0
227.773712 184.0
228.1138 388.0
228.132553 136.0
228.462112 132.0
228.60051 192.0
228.624588 144.0
228.681778 216.0
228.799179 180.0
229.136215 288.0
229.287155 116.0
229.320297 144.0
229.682129 56.0
230.0737 168.0
230.13179 116.0
230.294861 108.0
230.388504 92.0
230.415695 264.0
231.017319 192.0
231.640915 148.0
231.704529 104.0
232.180435 164.0
232.562714 92.0
233.297836 188.0
233.410324 172.0
233.878845 136.0
233.906235 196.0
234.113281 136.0
235.06134 32.0
235.494858 40.0
236.803925 148.0
237.113373 208.0
237.229858 176.0
237.363922 192.0
237.714462 72.0
238.611359 188.0
238.765106 152.0
239.106613 188.0
239.297455 200.0
239.543839 144.0
239.725616 68.0
239.818069 216.0
239.947556 112.0
240.262131 216.0
240.308411 44.0
240.521347 108.0
240.586166 212.0
240.607773 80.0
240.731293 184.0
240.895828 248.0
241.256546 124.0
241.346207 96.0
241.429703 216.0
241.538055 132.0
241.711212 172.0
241.751434 144.0
241.782394 216.0
241.924774 240.0
242.064102 136.0
242.088867 208.0
242.13533 28.0
242.466827 144.0
242.671417 120.0
243.028107 92.0
243.071548 144.0
243.135544 180.0
243.189484 192.0
243.344696 96.0
243.705002 188.0
243.729858 64.0
243.764038 216.0
243.894562 300.0
243.953629 148.0
243.994049 132.0
244.065552 112.0
244.121521 44.0
244.221054 152.0
244.46994 120.0
244.501678 164.0
244.560776 152.0
244.693588 240.0
244.790588 116.0
244.817093 172.0
244.887131 180.0
244.952545 84.0
244.980576 300.0
245.019058 328.0
245.076813 312.0
245.129547 51576.0
245.177368 220.0
245.218109 88.0
245.256348 80.0
245.285965 104.0
245.359451 112.0
245.383728 56.0
245.392273 80.0
245.438736 40.0
245.462967 124.0
245.498138 76.0
245.547882 56.0
245.576996 88.0
245.6138 60.0
245.640472 44.0
245.709503 64.0
245.806808 36.0
245.891068 64.0
245.919159 56.0
245.959747 92.0
246.029358 212.0
246.067673 216.0
246.13266 9836.0
246.197525 76.0
246.231384 56.0
246.290726 76.0
246.312592 40.0
246.337585 72.0
246.408264 64.0
246.448547 100.0
246.531296 80.0
246.609436 84.0
246.753235 84.0
246.796997 28.0
246.83139 80.0
246.878311 80.0
246.956497 52.0
247.135513 1288.0
247.275635 56.0
247.344482 100.0
247.366409 88.0
247.407104 36.0
247.4384 52.0
247.469711 152.0
247.51355 148.0
247.601242 124.0
247.647736 52.0
247.718338 124.0
247.786194 88.0
247.810089 108.0
247.853333 128.0
247.898956 128.0
247.954544 88.0
247.992874 100.0
248.042191 136.0
248.135818 372.0
248.199783 92.0
248.369659 216.0
248.402069 88.0
248.576202 120.0
248.617004 64.0
248.736267 32.0
248.779007 104.0
248.858704 44.0
248.880676 96.0
249.000015 120.0
249.254471 96.0
249.301605 56.0
249.383331 184.0
249.656845 156.0
249.877045 80.0
250.015488 96.0
250.749298 132.0
251.190735 60.0
251.452621 128.0
251.894669 180.0
252.175888 184.0
252.618576 64.0
252.78627 176.0
253.302338 160.0
254.126617 60.0
254.364639 164.0
255.08255 128.0
255.113693 592.0
255.521408 124.0
255.629593 88.0
256.110321 240.0
256.945557 44.0
256.971069 112.0
257.018921 172.0
257.131989 580.0
257.184875 164.0
257.287018 144.0
257.405151 116.0
257.475433 32.0
257.539307 32.0
257.925934 48.0
258.125183 284.0
258.303253 128.0
258.380035 56.0
258.671234 172.0
258.856934 224.0
259.129211 136.0
259.959686 108.0
260.656525 144.0
261.067993 164.0
262.156097 108.0
263.094727 56.0
264.157928 112.0
264.215729 180.0
264.960785 52.0
265.369141 116.0
265.482635 140.0
266.066681 224.0
266.7034 168.0
268.132233 44.0
269.022705 208.0
269.434204 52.0
269.564911 56.0
269.937561 92.0
270.074921 192.0
270.726227 72.0
270.873596 88.0
270.974274 84.0
271.640686 224.0
271.706299 108.0
271.729248 60.0
271.762054 40.0
271.84082 96.0
272.295166 160.0
272.339844 108.0
272.395691 128.0
272.418671 76.0
272.471252 40.0
272.526001 120.0
272.563232 176.0
272.625671 76.0
272.694702 172.0
272.730835 100.0
272.757141 200.0
272.822174 204.0
272.865631 40.0
272.937958 156.0
272.990479 148.0
273.054657 184.0
273.124542 58676.0
273.221893 112.0
273.26297 116.0
273.345245 80.0
273.384521 100.0
273.403076 72.0
273.441284 36.0
273.477692 132.0
273.516083 144.0
273.59201 96.0
273.624084 112.0
273.665283 108.0
273.698059 228.0
273.750214 72.0
273.7771 52.0
273.892639 48.0
273.918732 128.0
273.96814 84.0
274.001068 48.0
274.037079 96.0
274.126221 8652.0
274.180176 148.0
274.238342 80.0
274.259644 52.0
274.282166 68.0
274.311584 92.0
274.387573 60.0
274.4823 64.0
274.591125 80.0
274.652832 68.0
274.699982 88.0
274.765961 36.0
274.795654 60.0
274.828644 56.0
274.910736 96.0
275.001678 84.0
275.06958 60.0
275.129578 1180.0
275.231354 44.0
275.289825 152.0
275.405823 80.0
275.455933 84.0
275.528595 184.0
275.552917 112.0
275.637634 60.0
275.677277 140.0
275.806183 48.0
275.923126 32.0
276.024567 160.0
276.055542 76.0
276.080597 116.0
276.134888 228.0
276.183136 100.0
276.259216 48.0
276.305542 40.0
276.332001 88.0
276.381622 80.0
276.557037 52.0
276.619934 56.0
276.679504 52.0
276.712616 36.0
276.735779 108.0
277.03717 116.0
277.096802 104.0
277.222717 232.0
277.47464 52.0
277.617218 76.0
278.031891 88.0
278.294159 108.0
278.450226 92.0
278.971893 52.0
279.700409 64.0
279.870178 64.0
281.898315 72.0
282.935181 92.0
284.816467 40.0
284.967651 124.0
285.121735 728.0
285.202881 48.0
285.38443 36.0
285.586182 60.0
286.050537 60.0
286.114288 300.0
286.124176 152.0
286.132111 300.0
286.468109 60.0
287.047821 64.0
287.753021 100.0
288.185364 160.0
289.088196 36.0
289.477478 72.0
289.768799 92.0
290.345062 84.0
290.884521 192.0
291.020325 148.0
293.139496 168.0
301.523621 48.0
303.157104 108.0
303.250671 48.0
304.169861 104.0
305.344269 84.0
306.576691 52.0
307.054321 92.0
307.238556 108.0
310.769379 116.0
311.167969 184.0
311.766632 88.0
313.17041 164.0
321.737885 88.0
323.088776 72.0
323.120972 128.0
323.228302 200.0
324.198761 76.0
330.283478 208.0
333.04187 124.0
345.073242 44.0
345.59845 40.0
346.061127 148.0
347.169067 32.0
347.195038 144.0
359.828186 56.0
360.066071 128.0
365.183838 120.0
366.183105 128.0
369.856812 60.0
377.200012 44.0
378.523193 108.0
381.153168 80.0
382.973877 56.0
384.353943 44.0
385.662231 64.0
385.849884 88.0
387.536743 128.0
389.243011 56.0
390.193878 84.0
391.319122 80.0
393.182159 1796.0
393.531006 36.0
393.993896 60.0
394.183167 460.0
394.34082 64.0
395.195007 128.0
396.481964 140.0
402.053741 124.0
403.447754 44.0
405.240723 72.0
407.065796 44.0
408.890961 28.0
409.184814 108.0
410.212891 320.0
410.482239 124.0
411.212585 484.0
411.24472 160.0
422.873383 108.0
424.594147 48.0
430.169434 44.0
430.408905 56.0
437.323944 140.0
440.650452 68.0
442.299377 84.0
446.730652 40.0
450.520508 112.0
460.31073 68.0
460.366241 88.0
460.767761 100.0
474.464935 44.0
487.614899 96.0
488.432709 64.0
501.183136 60.0
513.926392 100.0
528.155212 84.0
536.499878 92.0
537.615234 100.0
543.830872 144.0
546.530884 44.0
570.157349 88.0
570.789612 48.0
571.812439 40.0
572.979065 112.0
574.919739 76.0
576.414429 60.0
588.083191 68.0
604.922852 84.0
618.103271 120.0
628.433472 56.0
668.874695 68.0
697.033386 92.0
700.32666 160.0
700.890381 44.0
702.619751 44.0
703.078796 64.0
727.978027 52.0
728.934204 36.0
742.099365 56.0
749.099182 244.0
751.759888 88.0
788.012451 88.0
802.724304 112.0
807.247498 32.0
842.289856 104.0
859.416199 164.0
863.394226 156.0
864.049377 52.0
875.795776 76.0
880.041748 152.0
882.280945 132.0
931.497681 136.0
948.129578 112.0
949.772705 188.0
963.66095 52.0
974.528503 100.0
981.680542 84.0
983.227722 72.0
986.719421 216.0
987.676208 180.0
990.161011 204.0
991.395203 124.0
1010.404785 72.0
1019.45929 112.0
1021.557434 132.0
1025.588135 140.0
1025.632812 176.0
1029.154297 144.0
1038.600098 176.0
1043.679932 196.0
1050.629272 232.0
1053.476196 196.0
1054.096436 248.0
1054.309692 136.0
1064.785522 136.0
1065.032349 248.0
1068.406128 224.0
1069.0625 160.0
1071.04248 200.0
1074.680176 180.0
1086.417236 44.0
1088.622681 152.0
1088.931274 224.0
1092.934692 64.0
1093.935059 132.0
1099.80835 148.0
1103.084595 132.0
1104.750977 140.0
1114.35083 156.0
1114.802612 168.0
1115.121582 212.0
1118.001343 168.0
1119.112915 124.0
1120.571533 116.0
1122.737915 68.0
1124.152222 100.0
1124.312378 188.0
1128.654419 192.0
1131.805908 228.0
1132.710083 156.0
1134.351807 160.0
1138.247192 156.0
1140.312134 120.0
1140.95752 120.0
1142.591675 156.0
1143.190552 168.0
1144.853271 88.0
1145.883911 140.0
1146.854248 100.0
1147.467773 116.0
1149.605957 160.0
1150.361816 140.0
1150.463135 120.0
1155.389771 136.0
1158.415771 120.0
1163.006348 140.0
1164.337036 156.0
1166.994019 208.0
1173.496216 116.0
1175.406006 116.0
1176.422974 140.0
1177.433472 164.0
1180.816528 216.0
1186.18457 152.0
1186.959351 128.0
1187.480469 176.0
1188.193848 160.0
1191.035889 56.0
1191.159546 156.0
1192.891235 156.0
1193.8125 192.0
1194.514038 164.0
1194.789185 76.0
1194.926758 80.0
1195.766357 132.0
1197.370483 140.0
1202.568848 124.0
1205.213867 132.0
1205.490234 224.0
1205.669922 84.0
1207.059326 168.0
1210.276855 192.0
1213.734497 60.0
1213.824585 108.0
1215.37146 172.0
1216.828979 164.0
1218.349976 136.0
1220.560059 116.0
1220.796509 168.0
1222.751465 212.0
1223.443359 136.0
1224.519775 128.0
1225.334839 180.0
1225.383545 144.0
1226.895874 188.0
1227.865112 96.0
1228.555664 152.0
1228.890503 156.0
1229.12085 60.0
1231.033447 124.0
1232.192993 84.0
1233.723389 256.0
1234.814209 184.0
1235.282837 200.0
1237.067261 176.0
1237.137329 160.0
1239.904053 172.0
1241.109741 168.0
1241.439331 200.0
1242.063477 180.0
1242.133667 160.0
1243.108887 212.0
1243.30542 252.0
1244.056396 192.0
1245.594238 180.0
1247.36499 144.0
1252.487671 184.0
1254.425415 176.0
1258.206665 188.0
1258.474976 144.0
1260.714111 204.0
1263.252441 216.0
1265.304688 176.0
1265.439209 216.0
1267.62085 176.0
1269.485229 220.0
1271.656128 212.0
1272.59314 256.0
1273.019165 140.0
1276.415771 148.0
1276.700195 220.0
1277.64624 140.0
1277.804199 212.0
1280.50769 160.0
1281.946777 160.0
1283.051636 120.0
1284.948608 120.0
1286.811401 148.0
1289.726074 96.0
1290.891357 124.0
1291.113037 144.0
1291.442017 96.0
1291.51355 180.0
1291.921387 104.0
1293.087646 200.0
1295.292969 164.0
1295.980713 160.0
1296.984009 196.0
1298.209961 164.0
1298.991699 128.0
1299.874268 132.0
1300.469849 140.0
1301.482056 168.0
1301.848267 180.0
1305.585205 64.0
1305.987915 136.0
1306.534668 204.0
1309.298706 84.0
1310.08374 124.0
1310.869141 148.0
1311.344727 208.0
1311.510498 240.0
1312.029541 176.0
1312.354004 60.0
1312.736206 196.0
1314.034546 100.0
1314.496216 172.0
1314.719971 160.0
1314.929321 64.0
1315.145752 176.0
1315.49231 180.0
1315.70166 140.0
1317.586548 164.0
1318.13562 156.0
1318.395752 132.0
1319.161987 96.0
1319.516235 108.0
1321.476196 172.0
1322.887451 124.0
1325.704834 48.0
1326.465942 60.0
1329.316162 212.0
1329.461304 52.0
1331.588501 196.0
1332.72168 196.0
1332.787109 192.0
1333.382935 200.0
1333.448364 200.0
1333.637329 148.0
1335.178711 172.0
1335.543701 180.0
1335.629639 124.0
1335.906006 196.0
1336.444458 140.0
1336.531738 184.0
1336.720947 176.0
1338.132935 144.0
1338.191284 144.0
1338.307739 132.0
1339.866333 140.0
1339.997437 124.0
1340.062988 108.0
1342.351807 128.0
1342.432007 184.0
1344.948975 128.0
1345.982056 176.0
1350.897095 136.0
1351.189697 232.0
1351.833618 140.0
1352.22876 192.0
1352.631348 176.0
1353.414673 192.0
1354.205566 132.0
1355.272705 200.0
1356.315796 152.0
1356.652954 104.0
1356.748291 196.0
1357.862793 152.0
1359.674927 152.0
1360.790649 172.0
1361.50293 176.0
1363.199951 136.0
1364.05249 96.0
1364.99353 132.0
1365.111206 200.0
1365.170898 204.0
1366.442505 176.0
1366.78833 128.0
1367.480103 88.0
1369.062866 160.0
1369.29126 192.0
1369.394287 172.0
1371.567871 212.0
1372.570557 204.0
1373.204712 108.0
1373.521973 192.0
1375.167358 144.0
1376.666016 92.0
1376.990967 96.0
1378.46106 192.0
1379.998535 184.0
1380.205566 172.0
1380.582642 140.0
1381.085571 152.0
1381.376099 232.0
1381.729126 136.0
1382.074341 236.0
1382.950073 104.0
1383.601562 180.0
1385.942017 192.0
1386.186523 36.0
1386.75708 128.0
1388.951904 176.0
1389.560181 192.0
1389.797607 140.0
1389.931152 112.0
1390.012817 48.0
1390.547119 172.0
1391.133423 140.0
1392.469971 160.0
1393.079102 176.0
1393.235107 168.0
1394.186157 204.0
1394.357056 192.0
1395.092896 232.0
1396.833008 180.0
1397.614136 164.0
1397.852295 172.0
1398.239258 224.0
1398.730469 136.0
1400.860229 176.0
1402.715698 196.0
1402.842407 136.0
1403.751953 168.0
1404.527588 48.0
1405.400513 144.0
1405.460205 96.0
1405.751221 124.0
1407.214111 156.0
1408.050537 180.0
1408.296997 236.0
1409.828491 108.0
1410.680542 168.0
1411.757202 92.0
1412.752075 136.0
1414.046509 176.0
1414.270996 76.0
1416.951904 156.0
1417.124268 248.0
1417.378906 264.0
1418.12085 188.0
1418.787964 200.0
1418.937988 216.0
1421.338013 172.0
1422.358765 96.0
1422.688965 136.0
1424.025635 200.0
1424.235962 164.0
1424.363647 120.0
1424.446167 136.0
1425.911377 180.0
1426.016602 196.0
1427.362305 100.0
1427.655518 200.0
1429.084717 160.0
1429.137451 64.0
1429.536255 216.0
1429.73938 40.0
1430.295898 136.0
1430.537231 136.0
1430.619995 160.0
1430.99646 144.0
1431.62146 164.0
1431.787109 28.0
1432.329346 132.0
1432.841675 136.0
1433.107178 136.0
1434.559937 52.0
1435.886963 188.0
1435.969849 184.0
1436.467651 112.0
1436.548462 204.0
1437.041016 184.0
1439.328125 120.0
1440.053101 116.0
1440.241821 236.0
1440.453369 200.0
1440.838623 192.0
1442.243652 244.0
1446.056152 160.0
1446.949463 132.0
1447.562744 100.0
1448.691162 176.0
1448.759888 180.0
1449.577637 192.0
1451.707764 84.0
1452.033936 136.0
1453.004761 176.0
1454.71228 160.0
1456.45874 148.0
1458.19873 156.0
1458.578735 144.0
1459.91687 112.0
1460.312378 228.0
1461.575195 188.0
1461.841431 144.0
1462.206787 136.0
1462.61499 172.0
1462.754761 112.0
1463.234375 180.0
1464.117676 196.0
1464.231934 204.0
1464.521362 152.0
1465.123047 212.0
1467.500977 132.0
1467.744995 196.0
1468.37793 180.0
1468.438965 164.0
1469.743408 128.0
1470.529419 136.0
1470.903442 144.0
1471.155273 140.0
1471.842407 152.0
1473.102661 124.0
1473.415771 224.0
1475.318726 164.0
1475.387573 156.0
1476.113892 108.0
1476.435059 60.0
1477.613037 132.0
1479.510986 156.0
1483.287598 216.0
1484.920776 192.0
1486.040649 96.0
1486.201782 32.0
1486.946167 160.0
1487.629272 140.0
1491.447021 120.0
1491.892822 112.0
1492.046631 156.0
1492.292603 176.0
1492.81543 52.0
1493.230713 208.0
1494.199951 172.0
1494.530762 44.0
1494.854004 184.0
1496.208618 192.0
1496.909302 156.0
1497.471436 208.0
1501.139771 212.0
1501.270874 212.0
1501.494507 112.0
1501.594849 80.0
1502.890747 76.0
1503.724243 144.0
1503.971191 188.0
