>compound 8,9-Dihydropiplartine
>formula C17H21NO5
>ionization [M+H]+
>parentmass 320.15
#inchi InChI=1S/C17H21NO5/c1-21-13-10-12(11-14(22-2)17(13)23-3)7-8-16(20)18-9-5-4-6-15(18)19/h4,6,10-11H,5,7-9H2,1-3H3
#inchikey WAGZSQGCUXDBOA
#Ion_Source DI-ESI
#Instrument qTof
#Compound_Source Isolated
#PI Norberto Lopes
#Data_Collector Monica Pupo
#Scan -1
#Precursor_MZ 320.15
#ExactMass 319.142
#Charge 1
#CAS_Number 137760-69-1
#Pubmed_ID N/A
#Smiles O=C(N1CCC=CC1=O)CCC2=CC(OC)=C(OC)C(OC)=C2
#INCHI_AUX N/A
#Library_Class 3
#SpectrumID CCMSLIB00000081549
#IonMode Positive
#UpdateWorkflowName UPDATE-SINGLE-ANNOTATED-BRONZE
#LibraryQualityString Bronze
#TaskID 4a07f16a650f4095b43fe6b0b09ff8bb
##Scan# 1
#SpectrumFile gnps_8_9_Dihydropiplartine_pos_MplusH.mgf
#LibraryName gnps_library.mgf
#MQScore -1
#Organism batch_27_05
#TIC_Query 0
#RT_Query -1
#MZErrorPPM -1
#SharedPeaks 0
#MassDiff 0
#LibMZ -1
#SpecMZ 320.15
#SpecCharge 0
#internalFilename spec-00000.mgf

>collision 10
120.05162 178.0
134.067566 262.0
136.046448 184.0
137.055573 289.0
138.060135 219.0
148.045975 1472.0
149.052429 269.0
160.047897 271.0
161.055496 738.0
162.064865 1579.0
163.070053 365.0
165.051315 297.0
166.057709 287.0
178.059036 307.0
179.065765 2685.0
181.082474 83518.0
182.087006 8992.0
183.087006 955.0
190.060196 7917.0
191.063766 2257.0
192.066772 286.0
193.045853 2277.0
194.089264 673.0
195.099167 2287.0
196.102707 273.0
197.790833 273.0
201.100037 204.0
206.052658 363.0
207.061951 654.0
208.071625 6999.0
209.042892 812.0
221.077606 3149.0
223.094528 31459.0
224.096008 4128.0
251.909485 237.0
