>compound Phenytoin (Lepitoin)
>formula C15H12N2O2
>ionization [M+H]+
>parentmass 253.096481
#inchi InChI=1S/C15H12N2O2/c18-13-15(17-14(19)16-13,11-7-3-1-4-8-11)12-9-5-2-6-10-12/h1-10H,(H2,16,17,18,19)
#inchikey CXOFVDLJLONNDW
#Ion_Source LC-ESI
#Instrument qTof
#Compound_Source Commercial
#PI Dorrestein
#Data_Collector Garg_Neha
#Scan -1
#Precursor_MZ 253.097
#ExactMass 252.09
#Charge 1
#CAS_Number 57-41-0
#Pubmed_ID N/A
#Smiles C1(NC(NC1=O)=O)(C2=CC=CC=C2)C3=CC=CC=C3
#INCHI_AUX N/A
#Library_Class 1
#SpectrumID CCMSLIB00000078503
#IonMode Positive
#UpdateWorkflowName UPDATE-SINGLE-ANNOTATED-GOLD
#LibraryQualityString Gold
#TaskID 77f51c88eb8b467eb4a01dd2d0cb90d2
##Scan# 1214
#SpectrumFile Plate8_1_20_GC9_01_15762.mzXML
#LibraryName FDALibrary_2_04302014.mgf
#MQScore -1
#Organism FDALibrary_2_04302014
#TIC_Query 0
#RT_Query -1
#MZErrorPPM -1
#SharedPeaks 0
#MassDiff 0
#LibMZ -1
#SpecMZ 253.097
#SpecCharge 0
#internalFilename spec-00000.mgf

>collision 10
45.077435 164.0
45.618923 152.0
47.012714 148.0
48.550831 140.0
49.20763 160.0
49.249523 200.0
51.232986 212.0
51.415501 164.0
51.624081 212.0
51.718506 204.0
52.673306 224.0
52.884415 160.0
53.059696 172.0
53.142368 160.0
53.20768 228.0
53.663074 148.0
55.083729 212.0
55.887283 196.0
56.400307 140.0
56.458618 228.0
57.759655 216.0
58.027706 172.0
60.189819 204.0
60.355156 144.0
63.695694 108.0
63.87645 180.0
64.6903 160.0
65.607605 212.0
66.859718 176.0
66.889015 200.0
67.175812 172.0
67.684105 200.0
69.14267 156.0
69.917717 256.0
70.321053 168.0
72.88089 164.0
86.560844 184.0
86.870369 172.0
87.649384 160.0
88.996147 196.0
91.385307 156.0
91.985626 160.0
92.718193 148.0
92.938721 144.0
93.526794 184.0
93.950737 208.0
94.054176 224.0
95.381821 188.0
95.739822 148.0
95.995117 160.0
96.825684 172.0
98.877182 176.0
99.366631 144.0
100.345161 188.0
100.790268 140.0
101.246368 140.0
102.356888 140.0
103.71859 152.0
104.012711 164.0
104.048874 5568.0
105.030685 672.0
105.049438 384.0
105.991005 148.0
106.052483 172.0
108.259056 176.0
108.715126 168.0
109.118103 160.0
109.444763 176.0
110.515533 176.0
113.271408 188.0
113.411263 160.0
116.172745 164.0
118.336555 152.0
120.055374 140.0
120.267006 152.0
121.604347 168.0
124.041718 204.0
125.468925 196.0
127.11515 184.0
127.877007 168.0
129.779129 172.0
132.043015 636.0
133.050934 148.0
134.02153 140.0
135.4655 140.0
137.173508 148.0
137.86438 140.0
138.711655 152.0
139.625015 148.0
140.572052 140.0
140.633408 160.0
141.81131 196.0
143.427597 172.0
144.739197 164.0
145.674576 172.0
146.740707 188.0
150.538208 192.0
150.985428 144.0
151.646469 172.0
152.692383 232.0
153.059052 148.0
153.095993 172.0
154.708344 148.0
155.082382 276.0
156.956879 248.0
160.046448 172.0
161.146164 172.0
161.732864 156.0
165.065338 412.0
166.369858 152.0
167.653351 168.0
169.778427 180.0
175.048569 1172.0
176.0578 160.0
177.093674 140.0
179.5495 152.0
180.086044 120.0
180.494843 152.0
180.647293 192.0
181.080917 192.0
181.260406 164.0
181.547241 212.0
181.654526 192.0
181.709549 204.0
181.791351 140.0
181.881088 100.0
181.969894 156.0
182.060898 148.0
182.096085 69604.0
182.164825 96.0
182.403717 148.0
182.537186 208.0
182.587097 100.0
182.627869 100.0
182.891678 128.0
183.056747 240.0
183.098312 7016.0
184.024231 124.0
184.102005 720.0
184.23764 120.0
184.432465 184.0
184.563461 120.0
185.383423 144.0
186.719116 204.0
186.874176 148.0
187.838577 140.0
190.065582 176.0
191.073944 180.0
197.238846 224.0
200.125641 208.0
201.784653 140.0
202.050507 156.0
202.662064 152.0
205.796509 144.0
208.07695 472.0
209.080444 156.0
210.087891 400.0
211.477142 148.0
211.949188 172.0
214.649612 184.0
218.271866 188.0
220.184433 164.0
222.85643 164.0
223.692123 192.0
223.93927 180.0
224.630798 144.0
225.030701 160.0
225.101791 26692.0
225.211182 228.0
225.813629 172.0
225.917206 96.0
226.104599 3320.0
227.109055 184.0
228.513443 188.0
236.06958 568.0
237.067566 152.0
250.560333 160.0
251.088104 168.0
251.138657 156.0
252.065781 124.0
252.656631 168.0
253.096481 16776.0
253.18959 160.0
253.649475 100.0
254.100113 1828.0
254.984085 176.0
255.101349 652.0
255.187531 164.0
255.834366 116.0
256.129211 168.0
256.205963 140.0
271.107483 872.0
271.876923 188.0
272.021332 212.0
272.112488 152.0
294.129547 284.0
325.020844 164.0
356.028564 180.0
425.045044 148.0
1439.647583 220.0
1445.47583 204.0
1473.036743 152.0
1524.778564 164.0
1538.745483 160.0
1607.978271 172.0
1633.949097 164.0
1669.914429 140.0
1735.640259 148.0
1778.010254 160.0
1859.722778 144.0
1886.598755 184.0
1901.132935 168.0
1914.172607 188.0
1943.885254 172.0
1951.096436 144.0
1960.066284 172.0
1965.108765 140.0
1967.050415 168.0
1977.745972 176.0
1997.613892 252.0
