>compound PREDNISOLONE ACETATE
>formula C23H30O6 
>ionization [M+H]+
>parentmass 403.211212
#inchi InChI=1S/C23H30O6/c1-13(24)29-12-19(27)23(28)9-7-17-16-5-4-14-10-15(25)6-8-21(14,2)20(16)18(26)11-22(17,23)3/h6,8,10,16-18,20,26,28H,4-5,7,9,11-12H2,1-3H3/t16-,17-,18-,20+,21-,22-,23-/m0/s1
#inchikey LRJOMUJRLNCICJ
#Ion_Source LC-ESI
#Instrument qTof
#Compound_Source Commercial
#PI Dorrestein
#Data_Collector Garg_Neha
#Scan -1
#Precursor_MZ 403.212
#ExactMass 402.204
#Charge 1
#CAS_Number N/A
#Pubmed_ID N/A
#Smiles N/A
#INCHI_AUX N/A
#Library_Class 1
#SpectrumID CCMSLIB00000077013
#IonMode Positive
#UpdateWorkflowName UPDATE-SINGLE-ANNOTATED-GOLD
#LibraryQualityString Gold
#TaskID 48f7f52fc6d249b5abbcc6e7b3df5969
##Scan# 1326
#SpectrumFile NCP002928_G2_H11_BA5_01_15699.mzXML
#LibraryName NIH_Clinical_Collection_2.mgf
#MQScore -1
#Organism NIHcollection2_04212014_2_mgf
#TIC_Query 0
#RT_Query -1
#MZErrorPPM -1
#SharedPeaks 0
#MassDiff 0
#LibMZ -1
#SpecMZ 403.212
#SpecCharge 0
#internalFilename spec-00000.mgf

>collision 10
45.420994 172.0
45.965885 208.0
47.159672 180.0
47.258133 180.0
47.519833 152.0
48.110256 152.0
49.548313 220.0
50.354343 196.0
51.500568 144.0
51.821014 200.0
52.069183 144.0
53.06778 144.0
53.385788 244.0
53.518208 156.0
54.421829 144.0
54.973831 172.0
55.097862 144.0
55.507858 156.0
56.050426 180.0
56.381718 176.0
57.137459 144.0
58.897511 144.0
59.200336 228.0
59.266205 272.0
60.456551 144.0
60.489056 140.0
60.705681 152.0
61.916878 176.0
63.188782 148.0
63.4184 180.0
65.87635 196.0
67.549118 156.0
69.567856 180.0
69.617668 176.0
70.45549 176.0
70.949188 140.0
71.125328 256.0
71.342033 184.0
72.063362 208.0
72.139412 144.0
72.357651 148.0
73.577255 124.0
76.76371 192.0
77.186295 200.0
77.230011 216.0
77.336746 148.0
78.1651 148.0
78.753937 212.0
79.098892 140.0
80.039696 148.0
80.128754 212.0
80.785736 148.0
80.866257 140.0
81.324844 168.0
84.156525 168.0
84.648392 168.0
85.099464 140.0
85.614342 176.0
85.746986 164.0
86.415466 148.0
86.741409 160.0
86.895332 148.0
87.709869 180.0
87.803093 148.0
89.03643 140.0
89.65538 160.0
89.730774 140.0
90.658875 180.0
92.196571 168.0
92.29406 232.0
92.359085 144.0
93.07048 272.0
93.899498 140.0
93.941933 168.0
94.160049 152.0
94.187088 144.0
94.614258 192.0
95.083542 148.0
95.686142 152.0
96.05056 180.0
96.114937 148.0
96.189102 140.0
96.37854 168.0
96.936226 188.0
97.068123 236.0
97.093056 188.0
98.468758 200.0
98.624847 176.0
98.794907 144.0
98.822601 192.0
99.04171 236.0
99.08593 140.0
99.397224 144.0
100.423767 172.0
101.020905 440.0
101.062828 120.0
101.081039 164.0
102.236931 212.0
102.597473 180.0
102.621674 224.0
103.038574 192.0
103.05764 168.0
103.079865 164.0
103.68293 148.0
103.920181 144.0
104.058197 160.0
104.643745 148.0
104.751678 156.0
104.780197 152.0
105.068054 660.0
105.889397 168.0
107.049286 244.0
107.086082 368.0
108.99836 204.0
109.066277 308.0
109.08149 164.0
109.103539 304.0
109.410179 200.0
110.213165 200.0
110.298851 140.0
110.353203 160.0
110.549828 148.0
110.868141 176.0
111.043152 368.0
111.076508 148.0
111.588127 176.0
112.011124 140.0
112.051155 152.0
112.783417 156.0
113.058365 152.0
115.054764 816.0
115.595047 152.0
116.467628 160.0
116.787895 156.0
117.070152 876.0
118.07119 144.0
118.832718 216.0
119.086189 1424.0
120.038712 148.0
120.090103 156.0
120.3442 172.0
121.008873 140.0
121.06501 4788.0
121.101463 632.0
122.069389 940.0
122.198448 180.0
122.308487 160.0
122.400948 152.0
123.037743 172.0
123.078926 496.0
125.057068 272.0
125.08876 188.0
126.403328 212.0
126.826607 172.0
127.124893 172.0
128.062714 644.0
129.068436 608.0
129.102829 140.0
129.137741 144.0
129.335861 260.0
130.081635 184.0
130.834091 228.0
130.922897 148.0
131.043625 196.0
131.085831 1004.0
131.76001 140.0
132.057205 772.0
132.090424 468.0
132.146393 208.0
132.941513 156.0
133.064651 1132.0
133.101761 256.0
133.810379 188.0
134.068893 268.0
134.121384 164.0
134.936279 156.0
135.079742 3632.0
135.121292 168.0
136.08461 524.0
137.058029 260.0
137.096008 324.0
137.307144 144.0
139.076431 892.0
140.078979 320.0
140.589294 164.0
141.070007 292.0
141.887878 152.0
141.911591 156.0
142.125061 240.0
142.203369 164.0
142.813995 184.0
142.890732 156.0
143.087326 1044.0
144.013779 184.0
144.0578 156.0
144.088181 280.0
144.708786 160.0
144.845291 176.0
145.034592 152.0
145.064804 1184.0
145.102234 1268.0
146.070557 280.0
146.108871 156.0
146.763107 176.0
147.007812 180.0
147.045364 168.0
147.080368 24476.0
147.726761 188.0
148.083542 2432.0
148.816055 172.0
148.837326 124.0
148.907196 188.0
149.068909 120.0
149.096375 888.0
149.248779 124.0
151.075195 536.0
151.107513 208.0
152.079208 208.0
152.099396 212.0
153.06929 448.0
153.930191 180.0
154.075912 180.0
155.043411 172.0
155.070129 416.0
155.086685 728.0
156.056183 172.0
156.092316 400.0
156.342255 144.0
157.064133 492.0
157.100433 492.0
158.072159 992.0
158.104111 324.0
158.758011 188.0
159.080246 2580.0
159.117096 340.0
159.617325 124.0
160.084457 500.0
161.059464 296.0
161.096161 2568.0
161.137436 140.0
162.098816 800.0
163.075943 1144.0
163.112061 684.0
164.052734 196.0
164.078766 232.0
165.090256 1684.0
165.141281 240.0
165.537201 236.0
165.916397 204.0
166.094406 212.0
166.694107 176.0
166.871475 148.0
167.086395 156.0
167.193008 188.0
167.713272 208.0
168.089844 252.0
168.322113 140.0
169.064529 312.0
169.100357 584.0
170.06752 292.0
170.103363 152.0
171.080627 11716.0
171.189178 184.0
171.475235 160.0
172.001999 160.0
172.084305 1340.0
172.122849 288.0
172.361404 216.0
172.688187 144.0
173.064941 136.0
173.095642 10556.0
173.255341 168.0
173.631042 188.0
173.652023 160.0
174.100342 1608.0
175.079971 276.0
175.113419 804.0
175.775055 148.0
176.115768 144.0
177.091827 628.0
178.003922 144.0
178.081665 232.0
178.977142 212.0
179.084381 940.0
179.103897 928.0
179.17157 148.0
179.491409 200.0
180.090332 308.0
180.110565 148.0
181.100128 668.0
181.140411 144.0
182.074844 176.0
182.104813 180.0
183.03653 160.0
183.079041 968.0
183.114059 416.0
183.206223 148.0
184.086472 1080.0
184.512421 160.0
185.061371 160.0
185.096176 3160.0
185.539413 140.0
186.048508 176.0
186.081085 212.0
186.103271 680.0
186.144623 160.0
187.074417 100.0
187.11113 1584.0
188.113052 148.0
189.007782 184.0
189.08992 512.0
189.128601 140.0
189.37529 212.0
190.076492 468.0
190.099396 288.0
191.106796 844.0
192.087845 132.0
193.096924 808.0
193.196014 160.0
194.079453 160.0
195.079483 732.0
195.116226 388.0
195.605042 164.0
196.088181 528.0
196.118927 328.0
196.850998 192.0
196.982269 140.0
197.060501 272.0
197.094757 4028.0
197.175064 224.0
198.101349 580.0
199.072739 172.0
199.11174 3684.0
199.647766 156.0
200.114212 448.0
200.138336 240.0
200.373978 144.0
201.091263 508.0
201.12738 676.0
202.081314 240.0
203.098022 124.0
203.749191 204.0
204.090012 536.0
204.117081 328.0
204.468597 168.0
205.10376 1060.0
205.468765 192.0
206.068314 156.0
206.106522 288.0
206.248352 164.0
207.052338 172.0
207.100327 1592.0
208.088547 1724.0
208.199493 168.0
209.09668 2648.0
210.102478 1576.0
210.142502 180.0
211.076431 256.0
211.110764 4364.0
212.078186 212.0
212.115723 996.0
213.090546 800.0
213.126083 1676.0
213.213104 152.0
213.243927 172.0
213.971146 160.0
214.09407 148.0
214.117004 136.0
214.130646 160.0
214.478027 152.0
215.106689 544.0
215.224869 180.0
216.160248 160.0
216.968643 156.0
217.120895 308.0
217.156311 164.0
217.197388 176.0
218.108856 116.0
218.548019 140.0
219.118195 828.0
220.093781 204.0
220.118149 168.0
220.143478 144.0
220.486176 208.0
220.716751 156.0
221.097336 1620.0
221.128281 768.0
222.039124 140.0
222.103363 1800.0
222.13707 264.0
222.252182 260.0
222.779572 244.0
222.862747 164.0
223.111557 9528.0
223.233322 156.0
224.075211 148.0
224.116638 2708.0
224.192047 112.0
224.464157 164.0
225.092316 312.0
225.127075 2268.0
226.131134 820.0
226.292801 156.0
226.559341 156.0
227.109543 388.0
227.141083 1568.0
228.085632 116.0
228.144653 320.0
229.097519 144.0
229.126602 400.0
229.148773 156.0
230.114105 232.0
231.084396 168.0
231.129517 228.0
232.088974 432.0
232.1203 244.0
233.093552 876.0
233.127518 408.0
233.185867 184.0
234.05896 144.0
234.101105 688.0
235.112183 1596.0
235.422043 148.0
236.082138 336.0
236.119019 864.0
236.862595 140.0
237.087402 464.0
237.127075 7440.0
238.096054 340.0
238.130402 1640.0
238.718765 260.0
239.105179 528.0
239.143173 8728.0
240.101883 160.0
240.145004 1576.0
240.864532 188.0
241.100586 216.0
241.155975 876.0
242.107422 116.0
242.135666 152.0
242.168396 208.0
242.482742 140.0
242.966995 96.0
243.11142 324.0
244.083572 192.0
245.096069 616.0
245.132584 416.0
246.104614 660.0
246.143021 236.0
247.047577 168.0
247.109833 1160.0
247.147507 628.0
247.373032 160.0
248.119171 1408.0
248.155212 136.0
248.529495 164.0
249.12738 2200.0
249.162384 348.0
250.098801 176.0
250.133041 1128.0
250.165466 252.0
251.105255 704.0
251.142914 2780.0
252.148453 784.0
253.117676 656.0
253.150787 252.0
254.119217 252.0
254.161819 140.0
255.139847 576.0
256.131317 264.0
257.131714 236.0
257.79837 176.0
258.169189 152.0
258.441101 144.0
258.741943 156.0
259.110565 660.0
259.147339 272.0
260.121399 1168.0
260.727478 144.0
261.126648 1152.0
261.161499 532.0
262.130981 348.0
262.359406 208.0
263.142792 3224.0
263.779785 152.0
264.112854 172.0
264.147522 2028.0
264.190491 176.0
265.121948 736.0
265.158051 6640.0
265.732605 140.0
266.123901 272.0
266.163605 2980.0
267.172455 1240.0
268.174957 308.0
269.118927 312.0
269.152222 192.0
269.186127 172.0
269.695801 148.0
270.981873 164.0
271.150116 260.0
271.621124 140.0
272.116882 180.0
272.152435 280.0
272.931519 156.0
273.132507 452.0
274.133484 2640.0
275.13559 684.0
276.143097 576.0
277.157867 716.0
278.127686 308.0
278.167511 204.0
278.975311 156.0
279.058411 160.0
279.137512 2320.0
279.174438 6876.0
279.577545 180.0
280.141205 528.0
280.176208 1912.0
280.27298 192.0
281.176483 360.0
281.724609 168.0
282.1539 280.0
282.4935 200.0
283.130615 204.0
283.169617 1692.0
284.164551 348.0
285.105438 148.0
285.182922 1124.0
286.187622 220.0
286.737671 144.0
287.14325 244.0
287.191467 236.0
287.795532 148.0
287.925232 196.0
289.158691 13808.0
289.291443 144.0
289.95752 140.0
290.161194 3788.0
291.165741 452.0
291.771149 200.0
292.074982 128.0
292.146149 648.0
292.325562 144.0
293.108765 160.0
293.153137 236.0
294.16156 144.0
295.172577 576.0
295.202148 156.0
296.172821 128.0
297.102234 160.0
297.148376 132.0
297.185333 1516.0
298.187653 428.0
298.383606 148.0
301.105438 152.0
301.444 244.0
302.962921 152.0
306.855377 148.0
307.075256 136.0
307.11438 204.0
307.169006 30736.0
307.259735 152.0
307.304565 172.0
307.888 108.0
307.989532 180.0
308.109131 116.0
308.171417 4404.0
308.758453 156.0
308.871338 100.0
309.174652 668.0
310.165802 188.0
310.38269 156.0
310.493927 104.0
313.178894 140.0
314.220673 384.0
315.598114 164.0
319.169373 128.0
319.616913 172.0
320.182922 188.0
321.121948 160.0
321.148773 176.0
321.188721 200.0
322.248291 160.0
322.479462 144.0
323.182526 164.0
324.165405 168.0
325.139893 220.0
325.179535 14924.0
325.791534 144.0
326.107727 152.0
326.182587 4232.0
327.186066 260.0
328.181274 156.0
328.271423 200.0
328.386261 104.0
331.116669 196.0
334.768982 188.0
337.184174 288.0
338.181122 220.0
339.195892 460.0
340.201263 288.0
343.186157 1652.0
344.190063 464.0
344.987701 160.0
345.192596 212.0
347.47641 160.0
349.129333 164.0
349.180237 3140.0
350.096924 160.0
350.181671 748.0
352.174286 160.0
353.497742 180.0
357.203522 456.0
358.217224 176.0
363.104492 140.0
366.678284 244.0
367.119141 168.0
367.189575 9248.0
367.916046 112.0
368.193909 2188.0
369.189606 696.0
370.187286 132.0
370.65152 96.0
379.719879 176.0
380.317383 160.0
383.5224 144.0
383.850647 104.0
384.286743 156.0
384.356995 200.0
384.561951 176.0
384.771454 164.0
384.897522 184.0
385.002106 156.0
385.044617 100.0
385.113556 236.0
385.200714 47380.0
385.325653 108.0
385.443726 128.0
385.572296 204.0
385.652618 136.0
385.963196 104.0
386.068878 224.0
386.203979 9600.0
386.283447 168.0
386.811249 120.0
387.205261 2268.0
387.263306 304.0
388.125488 112.0
388.204712 196.0
388.442596 160.0
388.572571 116.0
388.739532 112.0
401.007812 160.0
401.15451 856.0
402.163849 308.0
403.154694 116.0
403.211212 2460.0
403.274841 176.0
404.213074 636.0
405.215088 436.0
953.367859 224.0
1176.366699 224.0
1227.86377 152.0
1233.162964 200.0
1320.578613 208.0
1327.763306 144.0
1380.198242 176.0
1418.023926 252.0
1484.040161 176.0
1517.324585 164.0
1525.040649 208.0
1555.535522 160.0
1568.372925 140.0
1589.909546 156.0
1599.837158 152.0
1616.206543 216.0
1618.287598 176.0
1620.201782 144.0
1640.235718 176.0
1675.470947 172.0
1679.253296 156.0
1687.868896 168.0
1698.072754 232.0
1705.158203 144.0
1705.577393 160.0
1723.956543 200.0
1735.6698 192.0
1751.868408 152.0
1755.760986 152.0
1765.615723 160.0
1769.213623 144.0
1775.665771 168.0
1788.158936 144.0
1799.39563 140.0
1805.217407 152.0
1806.2323 144.0
1817.983643 140.0
1819.341797 212.0
1831.944824 148.0
1834.36499 164.0
1846.481079 196.0
1866.574097 200.0
1874.467651 140.0
1884.286621 156.0
1887.882446 164.0
1914.472534 236.0
1923.994141 260.0
1933.881836 144.0
1940.6698 148.0
1944.213745 164.0
1945.609375 152.0
1947.11084 164.0
1952.876465 148.0
1968.148804 176.0
1971.134399 152.0
1974.122192 156.0
1981.079102 184.0
1991.759399 176.0
