>compound Silodosin (Rapaflo)
>formula C25H32F3N3O4
>ionization [M+Na]+
>parentmass 518.223206
#inchi InChI=1S/C25H32F3N3O4/c1-17(30-8-12-34-21-5-2-3-6-22(21)35-16-25(26,27)28)13-18-14-19-7-10-31(9-4-11-32)23(19)20(15-18)24(29)33/h2-3,5-6,14-15,17,30,32H,4,7-13,16H2,1H3,(H2,29,33)/t17-/m1/s1
#inchikey PNCPYILNMDWPEY
#Ion_Source LC-ESI
#Instrument qTof
#Compound_Source Commercial
#PI Dorrestein
#Data_Collector Garg_Neha
#Scan -1
#Precursor_MZ 518.224
#ExactMass 495.234
#Charge 1
#CAS_Number 160970-54-7
#Pubmed_ID N/A
#Smiles C1=CC=C(C(=C1)OCCN[C@H](C)CC2=CC3=C(C(=C2)C(N)=O)N(CC3)CCCO)OCC(F)(F)F
#INCHI_AUX N/A
#Library_Class 1
#SpectrumID CCMSLIB00000078202
#IonMode Positive
#UpdateWorkflowName UPDATE-SINGLE-ANNOTATED-GOLD
#LibraryQualityString Gold
#TaskID 77f51c88eb8b467eb4a01dd2d0cb90d2
##Scan# 1061
#SpectrumFile Plate3_41_60_GG11_01_16500.mzXML
#LibraryName FDALibrary_2_04302014.mgf
#MQScore -1
#Organism FDALibrary_2_04302014
#TIC_Query 0
#RT_Query -1
#MZErrorPPM -1
#SharedPeaks 0
#MassDiff 0
#LibMZ -1
#SpecMZ 518.224
#SpecCharge 0
#internalFilename spec-00000.mgf

>collision 10
48.78241 184.0
49.674732 216.0
52.244743 148.0
61.497879 184.0
65.093529 152.0
79.233017 172.0
83.620186 144.0
85.102722 236.0
91.921043 220.0
106.007439 168.0
111.045486 152.0
115.641197 228.0
118.08535 196.0
118.839203 164.0
143.160095 180.0
149.696091 200.0
152.261444 148.0
157.95517 160.0
167.683136 160.0
169.036346 176.0
185.807632 212.0
191.923401 164.0
194.324173 216.0
196.120621 168.0
197.06897 2640.0
197.214752 200.0
197.35173 168.0
198.072647 336.0
198.096176 188.0
200.106964 184.0
200.867859 140.0
202.083954 308.0
202.609222 176.0
203.0923 180.0
203.119492 140.0
210.085251 184.0
212.686676 148.0
214.018143 144.0
215.032608 160.0
217.843552 224.0
228.661545 184.0
230.086212 196.0
237.831757 156.0
239.117004 420.0
241.124588 108.0
249.566116 200.0
251.667694 140.0
256.082001 144.0
256.118805 1028.0
256.177551 184.0
257.120911 336.0
257.399078 176.0
258.137238 144.0
261.159882 280.0
262.151794 196.0
262.214325 208.0
265.12619 144.0
267.136841 972.0
268.137512 196.0
268.53009 144.0
269.125824 188.0
269.168213 276.0
270.117523 216.0
275.43277 172.0
283.138885 964.0
284.089325 252.0
284.145386 200.0
284.179993 120.0
284.211975 140.0
285.142181 320.0
286.632965 204.0
288.10083 128.0
288.192261 132.0
289.175903 156.0
298.151459 644.0
300.165741 204.0
303.707825 184.0
308.114838 156.0
311.151245 180.0
319.189514 152.0
326.184723 4308.0
327.182861 852.0
327.773346 148.0
328.188141 100.0
328.837646 160.0
330.629791 200.0
336.284912 180.0
336.639038 140.0
344.676453 164.0
345.715546 140.0
353.17514 160.0
354.391785 212.0
357.015625 140.0
357.214996 164.0
358.446106 164.0
366.075348 172.0
369.005768 176.0
370.609467 180.0
374.092834 172.0
376.172302 244.0
377.182648 184.0
386.667847 132.0
387.374023 184.0
391.187012 184.0
392.51474 184.0
393.844727 160.0
398.654419 152.0
400.273438 184.0
404.889801 168.0
407.722168 256.0
412.195251 140.0
422.35965 176.0
435.213257 148.0
439.308502 176.0
458.166199 172.0
459.166656 332.0
460.952332 148.0
464.883392 172.0
465.149475 144.0
465.626068 160.0
469.318237 164.0
473.570587 172.0
482.810364 156.0
483.09906 200.0
484.692719 172.0
486.776276 212.0
497.246857 136.0
502.971771 172.0
505.465546 140.0
509.029205 148.0
509.882721 188.0
510.53009 156.0
510.678528 144.0
510.907928 140.0
513.520508 176.0
513.655823 152.0
515.068665 152.0
516.497009 180.0
517.086548 112.0
517.139526 160.0
517.256348 232.0
517.370422 140.0
517.494446 132.0
517.754333 116.0
517.854919 156.0
517.891113 168.0
518.001038 164.0
518.101196 140.0
518.161804 500.0
518.223206 35456.0
518.455139 120.0
518.715088 180.0
519.019531 152.0
519.065979 104.0
519.105713 164.0
519.136902 152.0
519.227539 8728.0
519.307556 220.0
519.724182 128.0
519.905518 136.0
520.228882 2176.0
521.085632 128.0
521.227722 412.0
521.702759 148.0
521.898254 176.0
521.982483 124.0
522.148254 128.0
522.964233 100.0
523.167603 140.0
523.869141 148.0
585.379211 148.0
805.565613 144.0
1230.280029 168.0
1838.650391 156.0
1853.521484 172.0
1909.732178 160.0
