>compound Dicentrinone
>formula C19H13NO5
>ionization [M+H]+
>parentmass 336.0866489680905
#inchi InChI=1S/C19H13NO5/c1-22-12-6-10-11(7-13(12)23-2)18(21)17-15-9(3-4-20-17)5-14-19(16(10)15)25-8-24-14/h3-7H,8H2,1-2H3
#inchikey NEQVOBXBOFZEMR
#Ion_Source DI-ESI
#Instrument qTof
#Compound_Source Isolated
#PI Norberto Lopes
#Data_Collector Denise Silva
#Scan -1
#Precursor_MZ 336.023
#ExactMass 335.079
#Charge 1
#CAS_Number 16408-78-9
#Pubmed_ID N/A
#Smiles COC1=C(OC)C=C(C(C2=NC=CC3=CC(OCO4)=C4C5=C23)=O)C5=C1
#INCHI_AUX N/A
#Library_Class 3
#SpectrumID CCMSLIB00000081688
#IonMode Positive
#UpdateWorkflowName UPDATE-SINGLE-ANNOTATED-BRONZE
#LibraryQualityString Bronze
#TaskID 52bd5f0db6314c93924d5ce5c86348eb
##Scan# 1
#SpectrumFile gnps_Dicentrinone_pos_MplusH.mgf
#LibraryName gnps_library.mgf
#MQScore -1
#Organism batch_27_05_V02
#TIC_Query 0
#RT_Query -1
#MZErrorPPM -1
#SharedPeaks 0
#MassDiff 0
#LibMZ -1
#SpecMZ 336.023
#SpecCharge 0
#internalFilename spec-00000.mgf

>collision 10
178.04863 9335.0
189.039825 8651.0
190.047333 10703.0
191.055237 18793.0
205.032013 19839.0
206.041321 31937.0
207.048248 15121.0
208.055969 12253.0
217.030457 23871.0
218.040176 18992.0
219.046967 18781.0
220.054398 5015.0
234.032394 60887.0
235.037766 32551.0
236.04895 38966.0
245.023773 17806.0
246.030594 50790.0
247.038559 56891.0
248.045807 9485.0
249.052277 6329.0
250.025726 10926.0
262.027069 33786.0
263.031158 133472.0
264.0401 84495.0
266.01889 6789.0
274.022583 41246.0
275.031952 93972.0
277.047302 11030.0
278.021454 15236.0
290.016113 83350.0
292.03241 338496.0
304.03064 13548.0
305.038818 6665.0
307.01886 23705.0
318.010834 61676.0
320.027374 458390.0
336.023071 18239.0
