>compound MLS001140960-01!4-[[2-(4-ethyl-8-methyl-2-oxochromen-7-yl)oxypropanoylamino]methyl]cyclohexane-1-carboxylic acid
>formula C23H29NO6
>ionization [M+H]+
>parentmass 416.207
#inchi InChI=1S/C23H29NO6/c1-4-16-11-20(25)30-21-13(2)19(10-9-18(16)21)29-14(3)22(26)24-12-15-5-7-17(8-6-15)23(27)28/h9-11,14-15,17H,4-8,12H2,1-3H3,(H,24,26)(H,27,28)/t14?,15-,17-
#inchikey VRZNREAVGVERFB
#Ion_Source LC-ESI
#Instrument qTof
#Compound_Source NIH Natural Product Library
#PI Dorrestein
#Data_Collector VVP/LMS
#Scan -1
#Precursor_MZ 416.207
#ExactMass 415.199
#Charge 1
#CAS_Number N/A
#Pubmed_ID N/A
#Smiles CCc1cc(=O)oc2c(C)c(OC(C)C(=O)NC[C@H]3CC[C@@H](CC3)C(=O)O)ccc12
#INCHI_AUX N/A
#Library_Class 1
#SpectrumID CCMSLIB00000080585
#IonMode Positive
#UpdateWorkflowName UPDATE-SINGLE-ANNOTATED-GOLD
#LibraryQualityString Gold
#TaskID b1d8e8f6646f4e71acdff9ca3d919d08
##Scan# 1993
#SpectrumFile p2-A11_GA11_01_17987.mzXML
#LibraryName NIH_Natural_Products_Library.mgf
#MQScore -1
#Organism NIH_Natural_Products_Library
#TIC_Query 0
#RT_Query -1
#MZErrorPPM -1
#SharedPeaks 0
#MassDiff 0
#LibMZ -1
#SpecMZ 416.207
#SpecCharge 0
#internalFilename spec-00000.mgf

>collision 10
94.954643 116.0
95.008957 116.0
95.041939 224.0
95.067169 132.0
95.085976 3984.0
95.133156 40.0
95.146751 104.0
95.185585 132.0
95.352654 64.0
95.51403 136.0
95.671654 172.0
95.811874 44.0
96.053604 180.0
96.088867 420.0
96.1297 88.0
96.285873 88.0
96.581009 240.0
96.59861 60.0
96.72776 132.0
96.831535 184.0
96.947128 172.0
96.984367 148.0
97.027489 160.0
97.071129 236.0
97.102043 196.0
97.341431 100.0
97.378746 136.0
97.581146 116.0
97.929459 80.0
98.060646 200.0
98.132431 148.0
98.18512 92.0
98.219208 184.0
98.40274 164.0
98.481728 44.0
98.610153 132.0
98.645737 148.0
98.693184 128.0
98.722847 48.0
98.73867 112.0
98.938522 140.0
99.069221 140.0
99.154427 152.0
99.332878 124.0
99.533333 200.0
99.853279 100.0
99.954742 120.0
100.227539 108.0
100.321213 196.0
100.410942 216.0
100.428894 100.0
100.538628 180.0
100.592514 196.0
100.75827 168.0
100.89817 236.0
100.958153 168.0
100.982155 176.0
101.178261 148.0
101.203117 220.0
101.326462 172.0
101.358521 148.0
101.386574 80.0
101.603134 148.0
101.70623 180.0
101.858078 140.0
101.970604 140.0
102.069107 180.0
102.09726 180.0
102.226013 172.0
102.28035 128.0
102.374977 204.0
102.457565 260.0
102.891167 176.0
103.052742 172.0
103.309502 140.0
103.323662 132.0
103.362106 52.0
103.540253 180.0
103.574684 176.0
103.673965 124.0
103.868607 180.0
103.921349 192.0
104.059372 180.0
104.321442 184.0
104.384476 44.0
104.464981 144.0
104.530937 148.0
104.561462 196.0
104.716194 56.0
104.730453 172.0
104.987259 184.0
105.068466 1344.0
105.285995 52.0
105.364876 180.0
105.399612 168.0
105.454788 128.0
105.595863 148.0
105.624496 228.0
105.642906 48.0
105.974571 108.0
106.077354 300.0
106.177513 144.0
106.193924 176.0
106.438141 112.0
106.481262 168.0
106.670296 224.0
106.705246 84.0
106.731979 124.0
106.785446 72.0
106.828644 228.0
106.84304 136.0
106.962395 120.0
107.022102 44.0
107.051277 532.0
107.079765 156.0
107.261078 116.0
107.302315 184.0
107.485886 160.0
107.651024 240.0
107.748108 152.0
107.929993 180.0
107.969276 140.0
107.987892 76.0
108.080589 168.0
108.085915 136.0
108.093857 184.0
108.383301 148.0
108.400703 100.0
108.495224 184.0
108.578163 200.0
108.706787 184.0
108.874939 104.0
108.967926 188.0
109.028671 184.0
109.070244 160.0
109.101639 152.0
109.108147 188.0
109.192917 180.0
109.621773 152.0
109.63636 88.0
110.018074 144.0
110.063461 236.0
110.095993 1072.0
110.26664 164.0
110.768967 164.0
110.846329 224.0
110.961617 56.0
111.104301 1444.0
111.135696 200.0
111.165077 140.0
111.259529 164.0
111.637741 152.0
111.711357 108.0
111.806595 228.0
112.050301 168.0
112.077026 140.0
112.084702 208.0
112.111893 1652.0
112.164093 140.0
112.594521 176.0
112.641693 204.0
112.744522 184.0
112.86924 208.0
113.010956 140.0
113.039894 160.0
113.115799 172.0
113.245941 196.0
113.273476 180.0
113.381538 68.0
113.631752 200.0
113.818535 156.0
113.975723 80.0
114.014206 180.0
114.183342 144.0
114.313828 116.0
114.428764 132.0
114.548027 184.0
114.597023 256.0
114.656693 104.0
114.705711 120.0
114.852844 148.0
114.918976 124.0
115.000069 64.0
115.017151 192.0
115.052879 352.0
115.140869 144.0
115.367477 100.0
115.489365 212.0
115.662682 124.0
115.872551 144.0
116.035439 184.0
116.063263 788.0
116.155533 56.0
116.539818 64.0
116.595688 148.0
116.797798 152.0
116.851578 92.0
116.869781 156.0
116.888153 52.0
117.069252 160.0
117.124977 236.0
117.157288 172.0
117.200378 52.0
117.325386 168.0
117.411636 192.0
117.433205 132.0
117.53244 196.0
117.577759 132.0
117.601501 88.0
117.618767 232.0
117.670578 96.0
117.910355 132.0
117.994652 112.0
118.076828 140.0
118.122246 180.0
118.27623 124.0
118.605125 120.0
118.969559 64.0
119.054497 220.0
119.086899 816.0
119.186516 184.0
119.632614 232.0
119.663094 136.0
119.865662 188.0
120.029144 168.0
120.081337 180.0
120.175285 72.0
120.190559 172.0
120.349899 164.0
120.387024 224.0
120.605499 108.0
120.852623 200.0
120.959862 136.0
121.065964 2924.0
121.096802 388.0
121.128471 40.0
121.196388 112.0
121.382706 164.0
121.496758 40.0
121.742592 84.0
121.883186 168.0
121.931526 52.0
121.987411 160.0
122.07058 468.0
122.098839 384.0
122.138206 184.0
122.162407 204.0
122.466171 168.0
122.508026 200.0
122.52565 28.0
122.576324 176.0
122.591751 152.0
122.732529 148.0
122.803398 152.0
122.889435 56.0
123.083893 284.0
123.116455 172.0
123.145996 36.0
123.267014 216.0
123.461555 152.0
123.554451 232.0
123.64296 192.0
123.670753 36.0
123.815651 232.0
123.957428 224.0
123.984024 176.0
124.046082 184.0
124.078194 560.0
124.110146 152.0
124.136986 40.0
124.205742 52.0
124.223488 192.0
124.516479 188.0
124.556458 116.0
124.638657 216.0
124.689774 140.0
124.718666 40.0
124.796478 124.0
125.051514 272.0
125.081238 216.0
125.125763 232.0
125.252693 176.0
125.297249 204.0
125.379692 64.0
125.714211 68.0
125.823586 200.0
125.866005 176.0
125.89727 148.0
125.975449 100.0
126.058731 160.0
126.084587 156.0
126.103569 236.0
126.151985 208.0
126.424866 40.0
126.58345 176.0
126.626358 192.0
127.054497 144.0
127.350807 120.0
127.368774 80.0
127.611481 184.0
127.633324 168.0
127.829674 148.0
127.939957 220.0
128.030029 224.0
128.06366 364.0
128.088593 48.0
128.187714 216.0
128.21701 116.0
128.232788 164.0
128.257584 192.0
128.647827 88.0
128.724594 264.0
129.06813 572.0
129.224136 200.0
129.253555 260.0
129.876572 112.0
129.940094 124.0
130.075043 156.0
130.164795 188.0
130.208801 160.0
130.307892 200.0
130.382874 132.0
130.401062 200.0
130.614792 252.0
130.632996 188.0
130.687592 104.0
130.783173 120.0
130.897003 88.0
130.994949 56.0
131.050018 368.0
131.085449 1016.0
131.441803 176.0
131.654114 144.0
131.69751 208.0
131.827728 204.0
131.862015 160.0
132.057373 144.0
132.088379 164.0
132.487503 152.0
132.637939 116.0
132.757156 116.0
132.878723 84.0
133.066254 724.0
133.100632 888.0
133.242142 96.0
133.315002 156.0
133.524216 64.0
133.66684 132.0
133.938507 168.0
133.95694 136.0
134.069839 112.0
134.102524 200.0
134.187393 180.0
134.334991 152.0
135.044632 168.0
135.081741 340.0
135.102875 212.0
135.173691 164.0
135.227371 144.0
135.465408 128.0
135.544189 96.0
135.599808 152.0
135.632248 156.0
136.005707 144.0
136.040527 188.0
136.077667 148.0
136.100891 136.0
136.684326 264.0
136.826309 164.0
136.959045 136.0
137.012619 168.0
137.059418 736.0
137.093246 132.0
137.20372 184.0
137.724106 172.0
137.971802 156.0
138.089844 1988.0
138.128265 2988.0
138.177612 40.0
138.240799 196.0
138.346115 212.0
138.659988 188.0
138.821762 160.0
139.051666 180.0
139.084396 212.0
139.088699 200.0
139.131958 340.0
139.474442 96.0
139.735474 280.0
139.987335 188.0
140.081558 156.0
140.107285 9372.0
140.137863 244.0
140.143585 364.0
140.172134 72.0
140.197006 124.0
140.23111 116.0
140.352585 48.0
140.4021 144.0
140.452927 124.0
140.689972 48.0
140.846954 100.0
140.937958 96.0
141.076233 152.0
141.109848 844.0
141.143356 184.0
141.247665 112.0
141.444077 144.0
141.678513 168.0
141.749588 84.0
141.773285 148.0
141.806473 188.0
141.948715 176.0
142.031723 176.0
142.078903 424.0
142.114746 108.0
142.245285 96.0
142.276138 180.0
142.319016 136.0
142.385376 172.0
142.413864 120.0
142.444748 220.0
142.668137 248.0
142.889313 36.0
143.053513 180.0
143.085388 600.0
143.19162 88.0
143.208298 104.0
143.317871 200.0
143.50856 128.0
143.594406 104.0
143.637344 88.0
143.856873 124.0
143.914185 52.0
143.945221 188.0
144.057755 468.0
144.100662 348.0
144.219955 160.0
144.262985 188.0
144.576324 44.0
144.686432 160.0
144.731918 200.0
145.063904 988.0
145.254181 184.0
145.400742 56.0
145.501556 144.0
145.972504 208.0
146.072998 2672.0
146.155319 48.0
146.176971 104.0
146.268433 120.0
146.306946 168.0
146.367142 144.0
146.542969 96.0
146.685165 124.0
146.728546 56.0
146.828247 100.0
146.849121 108.0
146.93837 152.0
147.042419 312.0
147.07811 960.0
147.119141 520.0
147.137527 108.0
147.257019 120.0
147.50589 104.0
147.641296 128.0
147.716278 108.0
147.822723 176.0
147.866287 56.0
148.083084 184.0
148.108414 136.0
148.319214 140.0
148.571411 152.0
148.62236 152.0
148.646637 52.0
148.782547 56.0
148.916107 36.0
149.010849 140.0
149.062332 316.0
149.096741 1264.0
149.263626 68.0
149.307404 152.0
149.531235 172.0
149.916031 216.0
150.037903 56.0
150.098755 168.0
150.386734 172.0
150.772614 180.0
150.899734 220.0
151.039246 500.0
151.648163 152.0
151.680679 96.0
152.00441 132.0
152.106445 876.0
152.130463 180.0
152.154129 192.0
152.355515 176.0
152.527542 148.0
152.638168 180.0
152.82019 144.0
152.987167 132.0
153.058014 288.0
153.109314 344.0
153.243683 96.0
153.588806 164.0
153.62088 224.0
153.677628 160.0
153.736847 120.0
153.791138 60.0
153.898956 172.0
154.030655 212.0
154.092422 68.0
154.109711 152.0
154.285187 200.0
154.413773 144.0
154.685944 172.0
154.728027 148.0
155.238464 192.0
155.523773 80.0
155.914948 160.0
156.152374 204.0
156.227005 212.0
156.32901 212.0
156.367599 144.0
156.453476 152.0
156.592911 76.0
156.682587 204.0
156.988449 156.0
157.068039 220.0
157.099091 356.0
157.21785 264.0
157.798203 144.0
157.88591 160.0
158.040817 148.0
158.080856 140.0
158.116043 168.0
158.190979 112.0
158.448929 144.0
158.90271 148.0
159.038223 176.0
159.080933 4824.0
159.111145 292.0
159.24913 88.0
159.387314 68.0
159.55864 144.0
159.68898 184.0
159.716644 72.0
159.734253 64.0
160.036255 48.0
160.086426 1240.0
160.119354 172.0
160.139511 76.0
160.192398 96.0
160.247833 100.0
160.406601 128.0
160.762222 152.0
161.03096 180.0
161.060745 560.0
161.093948 396.0
161.130875 56.0
161.151093 60.0
161.340637 100.0
161.358337 168.0
161.474655 176.0
161.644165 164.0
161.725143 120.0
161.750458 100.0
161.810074 172.0
161.947968 44.0
161.982224 160.0
162.067993 1124.0
162.104095 232.0
162.191208 56.0
162.304535 176.0
162.447327 140.0
162.472687 172.0
162.581802 308.0
162.607178 160.0
162.640167 172.0
162.685867 188.0
162.767105 132.0
163.010971 152.0
163.038925 176.0
163.075272 724.0
163.323685 116.0
163.41272 176.0
163.441223 156.0
163.471237 140.0
163.664703 52.0
163.865921 52.0
163.947464 168.0
164.074905 156.0
164.25087 220.0
164.38353 184.0
164.485626 88.0
164.513702 336.0
164.53923 100.0
164.603058 172.0
164.656693 152.0
164.689896 28.0
164.927521 128.0
165.06813 172.0
165.086029 192.0
165.129517 36.0
165.718292 132.0
165.810547 104.0
166.083145 160.0
166.12381 1716.0
166.172104 128.0
166.318375 92.0
166.451889 152.0
166.567459 144.0
166.683075 44.0
166.830261 192.0
166.940125 220.0
167.071304 196.0
167.130905 6444.0
167.199966 112.0
167.246292 60.0
167.331238 172.0
167.529541 116.0
167.697037 60.0
167.941986 60.0
168.012344 72.0
168.07872 132.0
168.135712 1248.0
168.318771 112.0
168.378174 72.0
168.584839 64.0
168.76062 72.0
168.830429 44.0
168.975098 56.0
169.068436 200.0
169.117172 184.0
169.144699 148.0
169.336716 84.0
169.53978 216.0
169.586426 152.0
169.817184 140.0
169.90538 64.0
169.983215 100.0
170.136353 76.0
170.323334 164.0
170.606583 284.0
170.869247 248.0
171.090469 116.0
171.807144 128.0
171.987198 200.0
172.047241 128.0
172.099457 120.0
172.143845 120.0
172.360657 176.0
172.389404 52.0
172.716202 140.0
173.066895 176.0
173.093414 152.0
173.386475 80.0
173.83493 196.0
173.892654 80.0
174.069702 276.0
174.457413 44.0
174.478439 156.0
174.557312 172.0
174.591507 116.0
174.80986 232.0
174.959885 60.0
174.99411 184.0
175.032761 200.0
175.075882 3768.0
175.111893 1440.0
175.354126 60.0
175.373459 80.0
175.49736 72.0
175.581741 156.0
175.608109 88.0
176.025085 200.0
176.081238 884.0
176.112396 336.0
176.15979 180.0
176.408188 184.0
176.442566 164.0
176.550964 72.0
176.617096 140.0
176.664703 52.0
176.696457 80.0
176.717621 252.0
176.889633 156.0
177.004364 84.0
177.051559 196.0
177.092712 968.0
177.173004 32.0
177.294876 184.0
177.35054 60.0
177.480438 188.0
177.501663 32.0
177.610397 48.0
177.684677 132.0
177.711197 148.0
177.740387 72.0
177.939453 104.0
177.990021 180.0
178.067703 136.0
178.097336 336.0
178.183792 132.0
178.388428 96.0
178.510727 128.0
178.845947 152.0
178.870987 128.0
179.194809 36.0
179.546677 92.0
179.680038 92.0
179.965622 140.0
180.104492 212.0
180.189972 168.0
180.320908 144.0
180.401108 44.0
180.508057 144.0
180.865479 156.0
181.064682 220.0
181.41301 112.0
181.753632 132.0
181.801941 156.0
182.215454 212.0
182.548752 56.0
182.640198 144.0
182.669785 224.0
183.108521 204.0
183.138138 160.0
183.396805 64.0
183.439941 108.0
183.489746 228.0
183.550476 112.0
183.577438 172.0
183.682632 144.0
183.771652 64.0
183.868805 180.0
184.096603 524.0
184.134323 4056.0
184.194275 44.0
184.22522 204.0
184.410324 60.0
184.51709 148.0
184.587402 56.0
184.745407 120.0
185.058212 72.0
185.099213 476.0
185.13652 204.0
185.548599 132.0
185.610962 148.0
185.700455 48.0
185.952789 128.0
185.982635 144.0
186.004349 232.0
186.066788 144.0
186.115784 88.0
186.406311 52.0
186.45311 184.0
186.485123 124.0
186.56395 108.0
186.615616 52.0
186.713501 196.0
187.037277 208.0
187.075607 900.0
187.124405 176.0
187.53302 76.0
187.614792 100.0
187.680222 128.0
187.723862 96.0
187.800217 140.0
188.05014 192.0
188.082916 536.0
188.204117 176.0
188.455917 64.0
188.660385 180.0
189.062622 128.0
189.08931 524.0
189.33075 136.0
189.369095 152.0
189.440308 144.0
189.522507 76.0
189.656784 160.0
190.061951 2828.0
190.397583 220.0
191.069382 516.0
191.139816 156.0
191.255402 84.0
192.071014 144.0
192.23996 84.0
192.382828 180.0
192.493271 216.0
192.728073 136.0
192.852432 216.0
192.927063 108.0
193.234039 168.0
193.68251 148.0
193.704681 172.0
193.898636 208.0
194.119034 3112.0
194.264633 44.0
194.295151 44.0
194.353424 128.0
194.489395 68.0
194.675415 64.0
195.122971 288.0
195.181168 116.0
195.240952 128.0
195.322998 112.0
195.370285 72.0
195.450974 32.0
195.542816 76.0
195.751602 44.0
195.946579 196.0
196.119354 216.0
196.152802 120.0
196.283844 60.0
196.306152 68.0
197.017899 128.0
197.280594 76.0
197.507095 96.0
197.742126 108.0
197.862488 180.0
198.058517 100.0
198.338715 184.0
198.582657 88.0
198.678024 212.0
199.115799 196.0
199.700516 192.0
200.018463 116.0
200.080399 216.0
200.452194 200.0
200.832794 136.0
200.931519 236.0
201.058502 124.0
201.098022 180.0
201.143173 172.0
201.208099 168.0
201.326706 176.0
201.562119 212.0
201.583771 68.0
201.651596 196.0
201.877762 144.0
201.925842 136.0
202.081436 176.0
202.104065 156.0
202.217255 140.0
202.644867 168.0
202.834732 136.0
203.004852 80.0
203.069992 3624.0
203.107285 3336.0
203.155182 68.0
203.200562 40.0
203.305557 72.0
203.359482 108.0
203.475861 180.0
203.711395 60.0
203.742828 56.0
203.89917 176.0
203.954697 108.0
204.007126 104.0
204.078201 1420.0
204.111298 840.0
204.156174 208.0
204.193375 156.0
204.291504 208.0
204.351242 48.0
204.445145 208.0
204.521408 116.0
204.600037 260.0
204.665436 228.0
204.673782 88.0
204.685867 144.0
204.705887 292.0
204.733307 36.0
204.749054 128.0
204.803879 236.0
204.848282 224.0
204.897888 280.0
204.943619 176.0
204.975845 144.0
205.018295 236.0
205.087433 81552.0
205.159424 148.0
205.204407 168.0
205.255417 100.0
205.2892 84.0
205.330292 184.0
205.360809 104.0
205.383041 104.0
205.41217 76.0
205.433487 32.0
205.459518 156.0
205.508026 56.0
205.530441 116.0
205.556503 376.0
205.61293 84.0
205.654938 92.0
205.674881 68.0
205.780182 148.0
205.814529 136.0
205.835434 68.0
205.853104 72.0
205.901962 64.0
205.959091 80.0
206.003525 148.0
206.025482 100.0
206.090378 14696.0
206.143356 88.0
206.170395 104.0
206.208069 172.0
206.239105 64.0
206.261978 72.0
206.285446 152.0
206.323074 108.0
206.389435 56.0
206.450668 60.0
206.475815 76.0
206.508545 68.0
206.536469 56.0
206.586594 200.0
206.699554 104.0
206.771088 96.0
206.872604 60.0
206.89418 92.0
206.939026 76.0
206.983337 96.0
207.091431 980.0
207.135818 84.0
207.15477 116.0
207.186295 92.0
207.206345 44.0
207.233734 76.0
207.27034 108.0
207.309494 224.0
207.334167 144.0
207.386871 100.0
207.411407 36.0
207.440552 168.0
207.486038 156.0
207.524948 124.0
207.570358 48.0
207.598419 132.0
207.622314 116.0
207.647781 88.0
207.682205 120.0
207.722488 92.0
207.754791 164.0
207.811295 28.0
207.966019 48.0
207.970963 44.0
207.981827 76.0
208.023666 56.0
208.092575 96.0
208.121292 36.0
208.287521 68.0
208.296478 60.0
209.097672 136.0
209.328995 96.0
209.377945 56.0
209.441315 84.0
209.862061 88.0
209.928375 188.0
210.442001 148.0
210.90712 44.0
212.044601 92.0
212.224335 60.0
212.703018 80.0
213.016632 40.0
213.089249 340.0
213.137131 180.0
213.513657 40.0
214.081146 100.0
214.153946 76.0
214.180161 68.0
214.725204 76.0
214.748535 40.0
214.865219 100.0
214.923584 52.0
215.057816 120.0
215.215469 72.0
215.276779 28.0
215.501709 56.0
215.522156 96.0
215.884628 88.0
216.082611 332.0
216.250336 56.0
216.311798 80.0
216.490402 140.0
217.083939 160.0
217.176208 132.0
217.240738 80.0
217.907166 164.0
218.024704 72.0
218.086426 104.0
219.378662 40.0
219.564423 156.0
219.741409 104.0
219.936172 108.0
220.074936 36.0
220.393936 144.0
221.222046 92.0
221.325668 256.0
222.743286 108.0
222.856186 132.0
223.016647 112.0
223.08783 140.0
223.328857 28.0
223.632339 108.0
224.579834 84.0
225.526352 36.0
225.921066 204.0
226.03775 164.0
226.217331 140.0
228.272552 128.0
229.467941 144.0
230.252502 116.0
230.403534 132.0
230.51532 108.0
230.581818 80.0
230.696671 220.0
230.757141 160.0
230.81459 188.0
230.835754 100.0
230.881668 108.0
230.971848 108.0
230.999069 204.0
231.03389 180.0
231.056549 184.0
231.102509 23048.0
231.191605 76.0
231.366104 84.0
231.398544 64.0
231.497879 324.0
231.545776 160.0
231.704437 56.0
231.780182 52.0
231.852921 40.0
232.056015 84.0
232.105316 3716.0
232.238571 40.0
232.364426 64.0
232.49585 76.0
232.615021 224.0
232.681015 52.0
232.726547 56.0
232.82373 84.0
233.108643 640.0
233.460861 92.0
233.647461 156.0
233.668762 124.0
233.74324 92.0
233.754807 128.0
233.833084 92.0
233.86351 92.0
233.939621 40.0
233.997467 168.0
234.107071 172.0
234.341629 96.0
234.49704 40.0
234.701294 128.0
234.814117 60.0
235.018509 96.0
235.317627 76.0
235.412277 48.0
235.846115 72.0
235.974518 180.0
236.923264 108.0
237.128571 132.0
240.240372 192.0
241.046219 76.0
241.717239 136.0
242.624741 92.0
242.975189 64.0
243.097336 208.0
243.456314 96.0
245.431061 80.0
249.078323 156.0
249.235397 84.0
249.684937 112.0
251.14949 36.0
251.531296 172.0
252.295776 140.0
254.383423 76.0
255.524323 140.0
256.113251 184.0
257.095245 56.0
257.753082 52.0
258.903076 104.0
259.096344 1416.0
259.834259 64.0
260.036407 52.0
260.093414 144.0
260.871552 112.0
261.110413 200.0
263.982941 32.0
265.031708 108.0
267.132263 108.0
267.509766 64.0
270.071289 108.0
270.31665 120.0
271.087311 1536.0
272.089325 568.0
272.802765 76.0
273.128326 220.0
274.112701 160.0
274.343414 88.0
274.442322 116.0
274.818359 112.0
275.290375 244.0
275.977692 36.0
276.124695 3644.0
276.828094 52.0
276.90094 80.0
276.963867 52.0
277.122955 328.0
277.150909 200.0
277.388031 56.0
277.507355 224.0
278.12677 264.0
278.220673 100.0
278.489655 92.0
280.969604 80.0
280.992981 204.0
281.700714 180.0
281.824341 228.0
285.380554 96.0
285.478088 76.0
288.115662 184.0
289.74118 28.0
293.057159 104.0
300.149078 80.0
300.452576 96.0
303.132233 136.0
312.289795 52.0
320.656311 80.0
325.055054 128.0
326.046204 88.0
327.17923 136.0
329.093689 100.0
333.549744 144.0
335.384277 124.0
336.332642 92.0
339.365387 48.0
341.521057 104.0
346.712128 132.0
347.591003 76.0
350.08905 96.0
353.665741 148.0
356.339539 172.0
360.061218 140.0
368.013 100.0
368.333801 168.0
369.342926 144.0
370.001099 212.0
370.202911 2076.0
370.315125 80.0
370.709717 56.0
370.736542 52.0
371.204834 976.0
371.33844 76.0
371.395416 28.0
371.445831 56.0
372.213318 136.0
372.255676 196.0
372.409271 48.0
372.447693 40.0
376.194458 60.0
380.184998 100.0
386.470459 84.0
387.445343 72.0
388.041046 156.0
391.286285 76.0
393.498077 108.0
399.021027 48.0
402.291779 64.0
402.739014 48.0
407.200867 40.0
414.255646 160.0
414.725708 96.0
415.240631 68.0
415.565155 64.0
418.95993 32.0
421.939117 104.0
423.019135 56.0
424.567902 116.0
424.764771 56.0
426.48114 60.0
442.130188 52.0
447.136993 44.0
453.319641 128.0
462.831635 140.0
466.02713 96.0
466.538544 180.0
475.81842 120.0
481.011963 68.0
489.689331 88.0
496.455597 80.0
504.420898 52.0
516.946899 96.0
521.868469 52.0
530.25885 68.0
538.106506 88.0
541.658142 80.0
584.765503 84.0
602.542847 80.0
653.298889 72.0
759.310242 56.0
761.176086 176.0
790.646729 160.0
795.074036 184.0
795.225586 48.0
803.903748 100.0
808.656616 204.0
825.124695 60.0
861.103333 172.0
864.698914 68.0
877.48114 124.0
889.00946 152.0
892.37146 296.0
897.533691 228.0
902.208557 64.0
918.246948 28.0
922.225769 168.0
929.814636 136.0
930.834473 112.0
961.060974 188.0
977.195068 176.0
984.400574 200.0
985.237488 260.0
988.657715 204.0
999.734009 176.0
1004.945129 172.0
1005.147034 136.0
1005.456238 44.0
1007.849548 192.0
1008.051697 172.0
1016.245239 196.0
1019.337524 128.0
1024.433716 104.0
1026.269165 48.0
1026.645386 184.0
1029.906738 44.0
1030.724487 204.0
1033.678711 188.0
1036.098877 136.0
1050.376465 148.0
1052.945312 152.0
1058.3125 220.0
1060.592896 76.0
1066.362915 256.0
1066.616455 132.0
1068.033936 232.0
1080.814087 180.0
1088.06958 216.0
1094.967285 168.0
1098.03186 216.0
1104.894897 164.0
1104.987549 208.0
1105.583008 200.0
1105.748535 252.0
1106.920288 60.0
1112.536011 144.0
1114.335693 112.0
1118.13269 168.0
1127.188721 188.0
1129.414917 220.0
1134.168945 100.0
1135.268433 220.0
1139.416504 168.0
1142.885742 112.0
1142.993408 108.0
1152.210205 152.0
1153.372559 180.0
1155.069702 140.0
1155.590698 204.0
1155.651489 56.0
1155.854492 152.0
1157.7229 212.0
1161.28772 128.0
1161.348755 232.0
1162.339233 152.0
1169.924072 168.0
1174.435059 168.0
1175.028564 188.0
1177.205933 156.0
1181.901978 100.0
1195.970459 180.0
1201.828125 108.0
1204.430786 124.0
1208.398804 172.0
1214.217407 120.0
1214.904053 188.0
1217.548584 116.0
1224.63562 252.0
1225.318237 52.0
1227.702148 204.0
1228.490234 208.0
1238.374023 92.0
1238.682251 192.0
1240.609253 48.0
1242.460693 116.0
1242.671143 100.0
1247.882446 156.0
1248.093384 148.0
1250.513428 176.0
1251.491943 136.0
1254.71167 188.0
1255.317993 92.0
1260.294312 124.0
1261.842163 220.0
1263.928711 120.0
1264.650513 112.0
1268.099854 108.0
1270.219849 168.0
1273.229248 180.0
1276.512329 264.0
1277.458252 160.0
1279.493652 136.0
1282.834717 88.0
1283.440674 156.0
1283.939819 148.0
1284.667358 108.0
1287.379639 144.0
1291.467529 68.0
1298.221191 136.0
1298.386108 196.0
1301.040894 192.0
1301.658447 192.0
1303.490112 176.0
1304.58252 156.0
1305.445312 132.0
1308.258545 172.0
1308.791382 108.0
1311.283813 188.0
1312.145508 208.0
1312.610229 136.0
1313.987915 140.0
1315.373413 88.0
1315.42395 76.0
1323.318481 144.0
1328.033325 56.0
1328.08667 164.0
1331.817505 144.0
1331.918457 196.0
1332.921753 180.0
1333.212402 76.0
1333.844727 144.0
1334.957031 172.0
1335.233398 72.0
1337.794678 104.0
1340.176147 56.0
1340.963135 208.0
1341.057861 164.0
1342.085815 176.0
1342.98999 256.0
1343.077515 104.0
1346.011353 176.0
1348.107788 128.0
1348.977539 40.0
1349.255371 176.0
1349.730591 184.0
1349.949951 160.0
1350.001221 152.0
1351.544556 44.0
1353.498901 144.0
1354.077393 164.0
1354.619507 172.0
1354.86853 292.0
1355.161621 200.0
1356.612671 172.0
1359.392456 188.0
1361.021973 148.0
1361.234863 52.0
1370.606079 168.0
1371.254639 184.0
1374.137817 152.0
1376.137939 184.0
1376.462891 256.0
1380.445679 168.0
1383.109131 164.0
1386.353027 176.0
1386.960815 212.0
1388.562256 132.0
1389.637817 212.0
1389.823364 156.0
1390.231445 208.0
1390.661987 124.0
1394.947754 172.0
1397.863159 248.0
1397.945068 128.0
1398.763794 36.0
1400.565674 156.0
1401.310669 168.0
1403.710693 172.0
1403.97168 180.0
1404.113403 212.0
1406.851807 196.0
1407.852295 212.0
1408.531982 164.0
1412.463623 180.0
1412.860107 196.0
1414.693604 164.0
1420.096069 224.0
1424.75 96.0
1428.049927 140.0
1430.013672 52.0
1430.856689 168.0
1431.80542 156.0
1433.410034 116.0
1433.779297 204.0
1433.877197 164.0
1434.125977 52.0
1434.81189 148.0
1436.674683 160.0
1436.83313 104.0
1444.432617 152.0
1444.538574 136.0
1445.817261 156.0
1448.383789 172.0
1448.573242 144.0
1450.353882 152.0
1451.877808 188.0
1452.621094 144.0
1454.032349 148.0
1455.991089 240.0
1457.973877 228.0
1460.490356 124.0
1461.646729 188.0
1465.286133 232.0
1469.654907 172.0
1471.188965 40.0
1476.598755 156.0
1478.878662 276.0
1479.590576 100.0
1481.367188 200.0
1485.069458 152.0
1485.123169 128.0
1487.202393 92.0
1487.854858 160.0
1492.264771 140.0
1493.383911 212.0
1494.087524 188.0
1495.903687 92.0
1496.904541 200.0
1499.716431 148.0
1500.101807 124.0
1500.664673 116.0
1502.222412 152.0
1503.402954 176.0
