>compound MLS001401408-01!ESCITALOPRAM OXALATE
>formula C20H21FN2O
>ionization [M+H]+
>parentmass 325.170013
#inchi InChI=1S/C20H21FN2O/c1-23(2)11-3-10-20(17-5-7-18(21)8-6-17)19-9-4-15(13-22)12-16(19)14-24-20/h4-9,12H,3,10-11,14H2,1-2H3/t20-/m0/s1
#inchikey WSEQXVZVJXJVFP
#origInchi InChI=1S/C20H21FN2O.C2H2O4/c1-23(2)11-3-10-20(17-5-7-18(21)8-6-17)19-9-4-15(13-22)12-16(19)14-24-20;3-1(4)2(5)6/h4-9,12H,3,10-11,14H2,1-2H3;(H,3,4)(H,5,6)/t20-;/m0./s1
#Ion_Source LC-ESI
#Instrument qTof
#Compound_Source NIH Pharmacologically Active Library
#PI Dorrestein
#Data_Collector VP/LMS
#Scan -1
#Precursor_MZ 325.17
#ExactMass 324.164
#Charge 1
#CAS_Number N/A
#Pubmed_ID N/A
#Smiles CN(C)CCC[C@]1(OCc2cc(C#N)ccc21)c3ccc(F)cc3.OC(=O)C(=O)O
#INCHI_AUX N/A
#Library_Class 1
#SpectrumID CCMSLIB00000085257
#IonMode Positive
#UpdateWorkflowName UPDATE-SINGLE-ANNOTATED-GOLD
#LibraryQualityString Gold
#TaskID d252d724072548979f1f6f1ced849daf
##Scan# 1674
#SpectrumFile p3-G07_GG7_01_18300.mzXML
#LibraryName Pharm_Active_Library.mgf
#MQScore -1
#Organism Pharm_Active_Library
#TIC_Query 0
#RT_Query -1
#MZErrorPPM -1
#SharedPeaks 0
#MassDiff 0
#LibMZ -1
#SpecMZ 325.17
#SpecCharge 0
#internalFilename spec-00000.mgf

>collision 10
44.89275 168.0
44.915424 192.0
44.958122 120.0
44.972107 192.0
45.022205 128.0
45.035564 104.0
45.048923 80.0
45.083664 84.0
45.093021 180.0
45.113071 140.0
45.134464 128.0
45.1572 200.0
45.179943 168.0
45.197369 224.0
45.24017 116.0
45.270103 372.0
45.278137 204.0
45.331253 152.0
45.381996 196.0
45.461342 108.0
45.470737 140.0
45.482819 168.0
45.520412 72.0
45.579521 180.0
45.602371 36.0
45.615814 140.0
45.634636 180.0
45.685745 128.0
45.714005 72.0
45.728809 184.0
45.755733 88.0
45.784618 196.0
45.804218 132.0
45.814995 208.0
45.831165 128.0
45.845497 132.0
45.85677 140.0
45.911301 180.0
45.925541 136.0
45.941727 200.0
45.977867 200.0
45.983456 156.0
45.986492 188.0
46.010445 184.0
46.029465 204.0
46.053776 76.0
46.086201 180.0
46.120995 172.0
46.237667 120.0
46.275574 304.0
46.312401 220.0
46.346008 140.0
46.39616 176.0
46.411076 228.0
46.423283 112.0
46.441296 128.0
46.484329 188.0
46.504776 196.0
46.539989 80.0
46.56036 144.0
46.588886 212.0
46.601112 72.0
46.663395 112.0
46.693558 212.0
46.715324 156.0
46.780647 204.0
46.82967 132.0
46.840569 156.0
46.939705 180.0
46.968044 196.0
47.001457 148.0
47.034214 84.0
47.07291 176.0
47.172188 40.0
47.183128 56.0
47.194065 160.0
47.228939 96.0
47.243305 160.0
47.280037 180.0
47.295307 136.0
47.32132 168.0
47.344601 136.0
47.357555 176.0
47.380219 236.0
47.440186 180.0
47.461086 96.0
47.507721 124.0
47.536537 180.0
47.562618 216.0
47.58321 232.0
47.592823 144.0
47.606556 136.0
47.616169 204.0
47.626503 252.0
47.654007 272.0
47.695866 216.0
47.707813 168.0
47.757744 212.0
47.778381 96.0
47.800396 40.0
47.82655 132.0
47.85833 188.0
47.921577 156.0
47.966534 200.0
48.009804 64.0
48.024975 120.0
48.048428 184.0
48.088932 216.0
48.11694 188.0
48.132755 44.0
48.1492 132.0
48.191734 188.0
48.240402 204.0
48.255611 180.0
48.266674 152.0
48.276356 128.0
48.290184 172.0
48.34679 180.0
48.382904 152.0
48.42445 128.0
48.447998 160.0
48.475384 168.0
48.484562 208.0
48.506207 128.0
48.532551 172.0
48.593853 224.0
48.619164 268.0
48.640182 132.0
48.657429 180.0
48.692146 152.0
48.70187 56.0
48.747723 152.0
48.784782 364.0
48.797764 200.0
48.814449 120.0
48.82975 140.0
48.882164 208.0
48.96476 96.0
49.011925 352.0
49.030247 184.0
49.065098 144.0
49.197941 148.0
49.210205 92.0
49.268387 128.0
49.285355 140.0
49.303802 96.0
49.313587 180.0
49.324772 216.0
49.343498 192.0
49.35413 212.0
49.365318 164.0
49.390495 100.0
49.416672 180.0
49.442268 100.0
49.456264 192.0
49.487064 128.0
49.513672 244.0
49.534683 156.0
49.575317 228.0
49.587933 192.0
49.618774 116.0
49.681557 152.0
49.697323 156.0
49.731674 176.0
49.747852 168.0
49.872879 136.0
49.89959 40.0
49.909431 160.0
49.922089 128.0
49.937561 168.0
49.952667 200.0
49.966633 120.0
49.990768 132.0
50.019524 212.0
50.030437 116.0
50.047337 128.0
50.079727 300.0
50.150181 176.0
50.244671 196.0
50.267246 96.0
50.277813 148.0
50.302998 376.0
50.342068 212.0
50.353367 208.0
50.367649 108.0
50.383034 152.0
50.392925 88.0
50.419773 104.0
50.450874 156.0
50.498955 208.0
50.60368 116.0
50.61359 188.0
50.643333 52.0
50.685093 124.0
50.701752 192.0
50.796432 264.0
50.821972 144.0
50.841179 164.0
50.895012 132.0
50.928112 184.0
50.949333 120.0
50.977612 196.0
50.998077 140.0
51.0322 152.0
51.04784 176.0
51.078922 136.0
51.204395 200.0
51.218029 168.0
51.238586 92.0
51.265659 60.0
51.277061 164.0
51.315556 172.0
51.328388 128.0
51.350842 172.0
51.439678 184.0
51.472519 100.0
51.498722 208.0
51.513306 288.0
51.545376 140.0
51.559002 172.0
51.561718 92.0
51.568577 120.0
51.575153 120.0
51.592545 176.0
51.637405 300.0
51.651821 152.0
51.665485 164.0
51.73991 144.0
51.818687 132.0
51.844482 160.0
51.858471 184.0
51.986465 60.0
52.006851 236.0
52.041016 200.0
52.058247 144.0
52.079792 100.0
52.104214 196.0
52.121456 184.0
52.143013 152.0
52.167816 236.0
52.193333 152.0
52.21059 176.0
52.266129 172.0
52.327152 184.0
52.342995 208.0
52.385162 144.0
52.39629 176.0
52.420784 168.0
52.430874 84.0
52.47929 164.0
52.500114 168.0
52.513058 296.0
52.54047 156.0
52.556339 148.0
52.580875 120.0
52.618816 184.0
52.638622 108.0
52.681957 200.0
52.739761 180.0
52.777351 116.0
52.793549 140.0
52.822189 180.0
52.840996 136.0
52.868492 104.0
52.922234 128.0
52.943775 172.0
52.958401 208.0
52.967503 116.0
52.982357 228.0
53.03651 56.0
53.050301 140.0
53.070724 264.0
53.090157 132.0
53.10321 56.0
53.132225 176.0
53.191727 140.0
53.215794 208.0
53.228027 156.0
53.241096 172.0
53.271866 176.0
53.315475 164.0
53.347843 144.0
53.373344 148.0
53.390797 164.0
53.460629 48.0
53.491196 76.0
53.510582 140.0
53.531967 136.0
53.593151 192.0
53.693741 152.0
53.717079 168.0
53.744537 132.0
53.760857 152.0
53.77253 168.0
53.785667 136.0
53.883518 172.0
53.906898 152.0
53.939053 160.0
53.953674 168.0
53.982918 156.0
53.994617 116.0
54.042896 104.0
54.06192 60.0
54.078022 132.0
54.102905 128.0
54.116085 108.0
54.155628 196.0
54.193718 168.0
54.246483 180.0
54.258209 168.0
54.281673 188.0
54.300739 124.0
54.330116 144.0
54.397377 140.0
54.421078 84.0
54.472221 112.0
54.569485 180.0
54.585659 132.0
54.604137 160.0
54.634201 152.0
54.681984 212.0
54.693066 168.0
54.721989 168.0
54.741653 196.0
54.759327 180.0
54.775532 188.0
54.807945 144.0
54.853638 132.0
54.87133 88.0
54.954021 192.0
55.012028 164.0
55.032162 108.0
55.05431 72.0
55.067604 144.0
55.085331 176.0
55.119312 156.0
55.162178 148.0
55.197865 176.0
55.250912 100.0
55.261982 216.0
55.296787 88.0
55.317959 172.0
55.344883 216.0
55.384151 96.0
55.409336 140.0
55.419708 116.0
55.46973 64.0
55.541962 128.0
55.55315 232.0
55.590244 176.0
55.631947 128.0
55.641579 176.0
55.667442 220.0
55.688236 188.0
55.704575 156.0
55.780365 212.0
55.792259 172.0
55.810104 224.0
55.830921 144.0
55.854721 124.0
55.869598 124.0
55.880013 100.0
55.948479 140.0
55.966347 124.0
55.991665 144.0
56.00209 140.0
56.019966 188.0
56.131756 132.0
56.14518 132.0
56.155621 160.0
56.210823 172.0
56.295918 136.0
56.346706 120.0
56.38855 140.0
56.415455 160.0
56.478264 196.0
56.49173 144.0
56.510944 180.0
56.529137 128.0
56.541107 76.0
56.552917 216.0
56.568054 128.0
56.600994 204.0
56.70137 180.0
56.727451 220.0
56.777836 140.0
56.822838 176.0
56.847832 116.0
56.86916 180.0
56.93092 152.0
56.941433 160.0
56.978989 76.0
56.992512 120.0
57.004536 228.0
57.035347 192.0
57.06955 212.0
57.155846 200.0
57.173389 160.0
57.195553 56.0
57.219845 148.0
57.273857 228.0
57.294331 156.0
57.320564 104.0
57.355228 68.0
57.407654 172.0
57.498528 184.0
57.543816 192.0
57.580059 160.0
57.631424 88.0
57.649559 132.0
57.680279 148.0
57.750858 180.0
57.762959 116.0
57.796246 176.0
57.819714 180.0
57.926456 96.0
57.981007 140.0
57.997681 180.0
58.075226 172.0
58.118244 152.0
58.181244 292.0
58.218712 196.0
58.237434 132.0
58.251102 92.0
58.279972 124.0
58.308357 160.0
58.326511 180.0
58.332355 112.0
58.360207 204.0
58.398754 184.0
58.416809 280.0
58.435066 144.0
58.454849 172.0
58.473114 76.0
58.502789 180.0
58.521778 116.0
58.535534 180.0
58.596466 116.0
58.611702 52.0
58.663525 160.0
58.689445 44.0
58.724712 64.0
58.809971 104.0
58.917465 216.0
58.94743 136.0
59.010105 140.0
59.040932 188.0
59.057514 152.0
59.088112 184.0
59.15086 108.0
59.182911 244.0
59.205982 108.0
59.334702 140.0
59.348503 88.0
59.362305 180.0
59.394516 204.0
59.409855 136.0
59.454353 136.0
59.480015 192.0
59.501942 136.0
59.566448 84.0
59.612926 160.0
59.629448 108.0
59.664474 112.0
59.669765 88.0
59.673004 132.0
59.717091 204.0
59.746281 164.0
59.762447 164.0
59.82481 96.0
59.835587 160.0
59.846367 224.0
59.903355 100.0
59.9203 168.0
59.948769 200.0
59.972698 36.0
60.0009 136.0
60.049797 96.0
60.074478 200.0
60.123856 124.0
60.134659 160.0
60.173252 144.0
60.21217 120.0
60.228851 120.0
60.243542 196.0
60.335575 204.0
60.387974 136.0
60.41127 232.0
60.475822 112.0
60.532001 152.0
60.568604 152.0
60.629604 144.0
60.642002 168.0
60.68042 164.0
60.75676 204.0
60.771564 192.0
60.898235 128.0
60.924435 108.0
60.937748 176.0
61.024952 328.0
61.165485 236.0
61.19099 136.0
61.223095 156.0
61.237114 152.0
61.251133 120.0
61.262039 36.0
61.283852 176.0
61.311901 272.0
61.343685 164.0
61.41481 192.0
61.481068 172.0
61.509998 180.0
61.524239 208.0
61.555279 156.0
61.590855 180.0
61.617313 168.0
61.645889 136.0
61.741257 68.0
61.755901 140.0
61.799137 164.0
61.82988 124.0
61.84922 92.0
61.900887 172.0
61.93848 176.0
61.972946 188.0
61.99802 144.0
62.063862 152.0
62.077976 128.0
62.090523 72.0
62.166447 204.0
62.192513 132.0
62.205021 128.0
62.28516 128.0
62.313438 172.0
62.327579 140.0
62.37159 72.0
62.384167 104.0
62.396744 188.0
62.436054 340.0
62.476868 220.0
62.511772 188.0
62.555645 148.0
62.593849 212.0
62.615993 164.0
62.63596 164.0
62.672195 148.0
62.717903 176.0
62.728935 88.0
62.779392 176.0
62.808167 148.0
62.881947 148.0
62.899311 56.0
62.910362 240.0
62.930885 72.0
62.998802 196.0
63.048206 136.0
63.101536 136.0
63.128418 128.0
63.152142 164.0
63.243919 192.0
63.279964 156.0
63.351311 196.0
63.366013 208.0
63.422916 124.0
63.440353 116.0
63.484753 148.0
63.49744 172.0
63.551125 176.0
63.662502 120.0
63.718971 204.0
63.748806 184.0
63.777939 232.0
63.899391 208.0
63.927998 232.0
63.969383 148.0
64.002998 180.0
64.028297 132.0
64.085648 284.0
64.134789 144.0
64.167473 228.0
64.192451 136.0
64.237114 200.0
64.249458 152.0
64.273811 144.0
64.383865 188.0
64.411118 204.0
64.423904 184.0
64.438278 144.0
64.476631 156.0
64.507889 188.0
64.537384 196.0
64.552132 160.0
64.590164 136.0
64.679535 132.0
64.803093 156.0
64.857582 220.0
64.872009 152.0
64.888046 140.0
64.913704 116.0
64.953796 148.0
65.001938 220.0
65.028 184.0
65.0439 216.0
65.144836 120.0
65.163216 128.0
65.178581 124.0
65.212219 180.0
65.263779 136.0
65.300766 64.0
65.358681 376.0
65.494621 248.0
65.553535 124.0
65.579323 92.0
65.679298 112.0
65.701881 116.0
65.734154 160.0
65.759354 176.0
65.786568 348.0
65.814873 60.0
65.873016 52.0
65.938599 184.0
65.99585 104.0
66.020416 188.0
66.077415 112.0
66.092903 324.0
66.108475 180.0
66.141022 344.0
66.173843 48.0
66.219902 160.0
66.234856 148.0
66.281303 340.0
66.301819 84.0
66.348076 152.0
66.361053 140.0
66.381256 148.0
66.420509 200.0
66.444519 212.0
66.576004 56.0
66.599625 148.0
66.629608 164.0
66.657234 248.0
66.675148 164.0
66.715752 172.0
66.743393 168.0
66.772667 172.0
66.816589 152.0
66.840919 176.0
66.865402 176.0
66.883308 140.0
66.925644 212.0
66.938667 116.0
66.966354 156.0
66.985901 164.0
67.022888 212.0
67.049454 176.0
67.109772 120.0
67.121185 144.0
67.149719 364.0
67.168365 164.0
67.172775 152.0
67.197853 136.0
67.220695 100.0
67.272133 172.0
67.295784 144.0
67.353912 156.0
67.416672 160.0
67.436279 132.0
67.467903 176.0
67.482445 168.0
67.509163 180.0
67.554024 172.0
67.5802 140.0
67.604744 244.0
67.632568 120.0
67.657127 48.0
67.670227 184.0
67.684959 180.0
67.700356 140.0
67.720993 128.0
67.812752 156.0
67.861931 188.0
67.873573 200.0
67.885849 48.0
67.919334 144.0
67.951546 192.0
68.026001 80.0
68.062904 176.0
68.09333 148.0
68.108299 176.0
68.173836 192.0
68.240051 128.0
68.251099 192.0
68.329391 80.0
68.342842 212.0
68.367661 192.0
68.384361 180.0
68.395882 196.0
68.423866 168.0
68.453667 164.0
68.469978 208.0
68.504929 200.0
68.52269 148.0
68.571548 124.0
68.593559 184.0
68.629829 308.0
68.652916 180.0
68.735359 148.0
68.779968 176.0
68.857574 160.0
68.904915 152.0
68.921341 188.0
68.964973 376.0
69.019539 168.0
69.065842 192.0
69.097275 204.0
69.171753 180.0
69.189964 200.0
69.203209 180.0
69.285004 208.0
69.307564 116.0
69.342369 44.0
69.363098 208.0
69.388786 100.0
69.421036 188.0
69.51651 140.0
69.561325 152.0
69.576271 164.0
69.592262 180.0
69.626083 152.0
69.667618 156.0
69.687553 172.0
69.724113 124.0
69.799156 144.0
69.835793 192.0
69.85714 152.0
69.905396 128.0
69.935349 124.0
69.981964 156.0
70.017456 144.0
70.063583 168.0
70.149185 176.0
70.181923 140.0
70.19693 96.0
70.233627 116.0
70.253639 132.0
70.288681 160.0
70.310379 116.0
70.342842 188.0
70.378822 208.0
70.411041 164.0
70.433937 156.0
70.49472 148.0
70.507462 164.0
70.552589 152.0
70.596069 232.0
70.626175 28.0
70.639557 136.0
70.68306 336.0
70.701469 180.0
70.718208 168.0
70.736618 204.0
70.761734 96.0
70.805275 140.0
70.862228 148.0
70.894066 128.0
70.941002 172.0
70.971184 156.0
71.167511 144.0
71.221252 172.0
71.263252 80.0
71.275673 132.0
71.323753 128.0
71.337204 180.0
71.355698 196.0
71.384285 172.0
71.420929 152.0
71.441475 160.0
71.454697 172.0
71.490273 196.0
71.53067 124.0
71.567711 160.0
71.588707 172.0
71.599701 228.0
71.622475 164.0
71.678886 204.0
71.697426 120.0
71.712593 164.0
71.753052 156.0
71.779305 120.0
71.798584 160.0
71.845482 164.0
71.869438 184.0
71.906563 128.0
71.948769 96.0
71.985916 104.0
72.03125 148.0
72.073761 200.0
72.119392 172.0
72.149818 116.0
72.204636 232.0
72.220848 184.0
72.256989 132.0
72.307144 156.0
72.354538 60.0
72.38163 156.0
72.396873 192.0
72.421173 116.0
72.439217 176.0
72.481575 172.0
72.513779 136.0
72.534119 156.0
72.629082 180.0
72.650063 120.0
72.674889 128.0
72.715622 112.0
72.732597 160.0
72.768585 140.0
72.800301 164.0
72.870155 148.0
72.935493 180.0
72.958542 88.0
73.029961 180.0
73.041122 100.0
73.065689 108.0
73.194572 144.0
73.212082 184.0
73.271698 148.0
73.287529 180.0
73.35862 192.0
73.391014 144.0
73.411476 232.0
73.478004 184.0
73.491653 128.0
73.541611 44.0
73.566757 92.0
73.583824 128.0
73.606819 188.0
73.628227 164.0
73.651703 188.0
73.756378 216.0
73.796257 196.0
73.852875 204.0
73.891487 128.0
73.910309 140.0
73.927132 120.0
74.064804 168.0
74.092865 188.0
74.124519 132.0
74.143211 176.0
74.192924 188.0
74.235794 180.0
74.249512 124.0
74.294113 180.0
74.337013 216.0
74.371338 136.0
74.41729 188.0
74.453751 204.0
74.469925 212.0
74.482239 164.0
74.493858 216.0
74.527237 292.0
74.53965 56.0
74.559128 176.0
74.592934 112.0
74.659996 168.0
74.680634 196.0
74.702995 180.0
74.746284 152.0
74.788055 288.0
74.859627 112.0
74.887184 216.0
74.935219 204.0
74.978508 160.0
75.006828 184.0
75.040565 136.0
75.095749 60.0
75.172684 172.0
75.190651 40.0
75.206184 188.0
75.261429 192.0
75.28215 48.0
75.295967 156.0
75.323608 120.0
75.339157 152.0
75.378899 140.0
75.394447 112.0
75.467056 124.0
75.543159 164.0
75.574303 156.0
75.626221 176.0
75.662575 132.0
75.742691 408.0
75.775154 108.0
75.804611 60.0
75.85141 184.0
75.870483 176.0
75.899956 160.0
75.929443 144.0
75.95372 128.0
76.089088 148.0
76.115135 124.0
76.127289 172.0
76.153343 204.0
76.200081 284.0
76.21405 140.0
76.235001 208.0
76.299324 180.0
76.321922 104.0
76.343285 356.0
76.382797 40.0
76.401329 184.0
76.422813 192.0
76.438065 136.0
76.516808 64.0
76.565254 68.0
76.586464 120.0
76.601349 220.0
76.63002 156.0
76.647179 160.0
76.696243 196.0
76.711937 216.0
76.736 196.0
76.774704 132.0
76.822479 196.0
76.835762 108.0
76.935242 164.0
76.957939 188.0
76.981209 148.0
77.008583 200.0
77.038582 212.0
77.125015 200.0
77.171516 276.0
77.226036 184.0
77.273766 204.0
77.307564 144.0
77.32856 192.0
77.344315 160.0
77.40905 140.0
77.565315 176.0
77.647453 140.0
77.659729 160.0
77.682533 216.0
77.696571 152.0
77.714111 208.0
77.726395 104.0
77.75322 156.0
77.807137 208.0
77.829964 104.0
77.849281 200.0
77.873596 128.0
77.900223 280.0
77.916481 204.0
77.933601 136.0
77.945908 192.0
78.000389 164.0
78.067207 140.0
78.109421 32.0
78.16748 100.0
78.315376 204.0
78.358925 244.0
78.398354 168.0
78.489853 116.0
78.589867 184.0
78.613342 164.0
78.638054 180.0
78.676888 120.0
78.69101 168.0
78.708672 52.0
78.758865 152.0
78.811783 248.0
78.897736 140.0
78.934868 76.0
78.995003 164.0
79.025551 136.0
79.071091 116.0
79.092331 116.0
79.128799 200.0
79.152527 228.0
79.223381 144.0
79.311325 188.0
79.35099 156.0
79.393547 84.0
79.471603 216.0
79.512421 120.0
79.583427 56.0
79.634933 172.0
79.770119 160.0
79.793098 116.0
79.820869 200.0
79.883797 84.0
79.949547 164.0
79.972771 136.0
79.985794 156.0
80.013718 156.0
80.030022 204.0
80.054672 164.0
80.068924 168.0
80.127708 88.0
80.179382 152.0
80.222168 144.0
80.263687 140.0
80.297058 92.0
80.343147 192.0
80.479088 144.0
80.587509 184.0
80.616646 164.0
80.653053 228.0
80.679207 176.0
80.740005 228.0
80.774895 168.0
80.795456 92.0
80.849136 168.0
80.890305 160.0
80.940285 232.0
80.969093 124.0
81.038963 180.0
81.065842 52.0
81.103477 216.0
81.117821 160.0
81.18058 228.0
81.200302 192.0
81.220039 140.0
81.277451 216.0
81.304367 120.0
81.320518 44.0
81.356422 224.0
81.39772 184.0
81.437233 180.0
81.505501 80.0
81.52887 144.0
81.545044 176.0
81.573807 144.0
81.591782 112.0
81.607964 56.0
81.634521 192.0
81.656792 428.0
81.674507 112.0
81.715889 156.0
81.769348 152.0
81.789673 152.0
81.849136 140.0
81.928337 104.0
81.949959 124.0
81.989609 156.0
82.013039 84.0
82.045486 136.0
82.065323 176.0
82.077942 112.0
82.14196 152.0
82.181595 200.0
82.224075 164.0
82.27462 172.0
82.337822 208.0
82.373947 120.0
82.389183 240.0
82.428146 140.0
82.504066 148.0
82.526878 220.0
82.558311 68.0
82.650711 160.0
82.671097 236.0
82.694008 216.0
82.728401 188.0
82.795006 184.0
82.853371 156.0
82.902191 144.0
82.927567 144.0
82.947266 168.0
83.02195 200.0
83.036461 168.0
83.138062 120.0
83.172546 164.0
83.207039 136.0
83.223381 172.0
83.239723 88.0
83.25425 120.0
83.293396 116.0
83.3778 404.0
83.466881 144.0
83.481422 140.0
83.510529 48.0
83.577843 144.0
83.637901 196.0
83.694344 108.0
83.718018 132.0
83.803635 180.0
83.830963 96.0
83.861954 172.0
83.883827 124.0
83.909348 100.0
83.93705 192.0
83.979355 228.0
84.021225 200.0
84.037025 216.0
84.104462 228.0
84.230553 140.0
84.254303 164.0
84.26709 216.0
84.281708 220.0
84.322357 116.0
84.38224 108.0
84.402359 76.0
84.424301 176.0
84.459053 240.0
84.497475 128.0
84.532242 200.0
84.553131 164.0
84.603622 184.0
84.640244 136.0
84.761147 96.0
84.773972 224.0
84.813622 220.0
84.867462 64.0
84.905975 100.0
84.924782 428.0
84.983025 216.0
85.010551 128.0
85.087898 192.0
85.115189 116.0
85.144386 160.0
85.172127 212.0
85.221733 108.0
85.26767 456.0
85.322823 112.0
85.370628 276.0
85.3927 92.0
85.405579 36.0
85.422134 200.0
85.457092 160.0
85.477333 176.0
85.490211 68.0
85.532547 40.0
85.549118 248.0
85.562004 204.0
85.576851 192.0
85.611717 156.0
85.648445 132.0
85.663895 184.0
85.688622 204.0
85.713615 128.0
85.725502 168.0
85.784927 156.0
85.932472 100.0
85.954613 136.0
85.967537 176.0
86.009987 208.0
86.03952 100.0
86.054291 236.0
86.098618 164.0
86.135559 236.0
86.193985 352.0
86.226097 232.0
86.268295 188.0
86.365791 160.0
86.423973 160.0
86.438454 184.0
86.467453 136.0
86.522072 156.0
86.542175 140.0
86.586891 144.0
86.62764 120.0
86.663216 220.0
86.703888 188.0
86.738831 108.0
86.753662 160.0
86.786415 136.0
86.80558 180.0
86.820412 180.0
86.833397 132.0
86.85009 132.0
86.864929 56.0
86.887192 168.0
86.907608 184.0
86.920593 168.0
86.991127 120.0
87.043114 120.0
87.063545 68.0
87.148994 240.0
87.161118 176.0
87.221474 132.0
87.24691 200.0
87.260521 180.0
87.282829 156.0
87.295853 220.0
87.32518 156.0
87.346069 120.0
87.366341 196.0
87.400024 132.0
87.439102 120.0
87.485641 112.0
87.506607 216.0
87.528465 208.0
87.576889 56.0
87.629051 152.0
87.657005 152.0
87.679367 72.0
87.727837 156.0
87.740883 104.0
87.787498 192.0
87.81366 156.0
87.875175 108.0
87.961029 152.0
87.985298 188.0
87.998367 128.0
88.088013 116.0
88.123512 108.0
88.198952 240.0
88.233788 160.0
88.250618 96.0
88.340393 148.0
88.363968 164.0
88.424599 140.0
88.491447 180.0
88.501724 160.0
88.57724 208.0
88.619362 200.0
88.673706 188.0
88.726196 72.0
88.755623 132.0
88.794434 164.0
88.810585 104.0
88.825592 52.0
88.849976 184.0
88.887505 224.0
88.975731 56.0
89.039009 732.0
89.069626 40.0
89.105324 152.0
89.128601 176.0
89.153969 140.0
89.188011 132.0
89.208076 220.0
89.231255 136.0
89.266983 156.0
89.300835 164.0
89.317764 148.0
89.342216 172.0
89.359695 152.0
89.438194 144.0
89.455139 44.0
89.57943 176.0
89.60392 64.0
89.624649 172.0
89.658844 136.0
89.722664 136.0
89.79055 140.0
89.80703 192.0
89.833931 84.0
89.866005 136.0
89.909172 148.0
89.930176 184.0
89.950935 104.0
90.031143 184.0
90.046555 144.0
90.073685 140.0
90.139816 220.0
90.202187 72.0
90.224869 116.0
90.245483 200.0
90.466049 192.0
90.487144 116.0
90.514374 160.0
90.527626 144.0
90.573082 196.0
90.629921 164.0
90.674881 160.0
90.719002 144.0
90.842278 372.0
90.868835 188.0
90.882118 120.0
90.901093 56.0
90.950485 188.0
91.046028 140.0
91.053459 188.0
91.083366 236.0
91.096664 76.0
91.16523 192.0
91.185974 108.0
91.234993 188.0
91.281036 184.0
91.347549 132.0
91.374565 140.0
91.388748 64.0
91.469398 120.0
91.496048 168.0
91.509377 112.0
91.544388 476.0
91.568336 100.0
91.663673 140.0
91.70137 184.0
91.779953 60.0
91.800926 188.0
91.903938 156.0
91.959282 172.0
92.013039 276.0
92.077667 240.0
92.133324 144.0
92.154076 192.0
92.183525 196.0
92.18972 80.0
92.198486 168.0
92.211212 116.0
92.247726 140.0
92.263023 72.0
92.306862 160.0
92.360558 152.0
92.465797 140.0
92.492592 328.0
92.511734 136.0
92.542366 148.0
92.557686 204.0
92.64196 120.0
92.686035 140.0
92.795288 132.0
92.822136 224.0
92.835564 176.0
92.852821 160.0
92.880173 200.0
92.918045 276.0
92.944908 92.0
92.964096 116.0
92.979454 120.0
93.021683 112.0
93.035118 128.0
93.050858 164.0
93.188774 132.0
93.21183 184.0
93.300247 152.0
93.317551 140.0
93.331009 164.0
93.361778 148.0
93.384865 152.0
93.486832 168.0
93.509926 108.0
93.529175 192.0
93.580124 156.0
93.611969 248.0
93.687088 172.0
93.738548 176.0
93.808502 236.0
93.864418 236.0
93.901062 168.0
93.964722 116.0
94.051567 132.0
94.065079 80.0
94.084389 132.0
94.146179 192.0
94.190598 124.0
94.22731 88.0
94.240837 152.0
94.290222 144.0
94.351006 180.0
94.387741 192.0
94.43029 68.0
94.467041 48.0
94.526581 156.0
94.573479 164.0
94.621193 216.0
94.643173 240.0
94.664474 228.0
94.690102 208.0
94.709023 340.0
94.769081 148.0
94.790398 192.0
94.803963 164.0
94.827446 136.0
94.857666 192.0
94.887314 152.0
94.933853 144.0
94.964882 164.0
94.987648 196.0
95.013382 112.0
95.028038 536.0
95.129829 128.0
95.160889 112.0
95.207497 176.0
95.230804 112.0
95.271599 156.0
95.28714 144.0
95.329895 164.0
95.363266 188.0
95.398819 104.0
95.434868 148.0
95.532883 172.0
95.549622 252.0
95.586594 108.0
95.632706 196.0
95.709229 192.0
95.74234 164.0
95.843636 164.0
95.859917 272.0
95.898209 136.0
96.046402 200.0
96.108833 124.0
96.16153 152.0
96.184952 132.0
96.227898 156.0
96.292343 96.0
96.339226 140.0
96.364624 148.0
96.380257 188.0
96.397842 224.0
96.427162 192.0
96.440842 68.0
96.456482 108.0
96.48085 152.0
96.565987 124.0
96.681419 112.0
96.724792 224.0
96.751892 196.0
96.777344 140.0
96.812592 192.0
96.84552 148.0
96.870293 188.0
96.887115 172.0
96.910538 128.0
96.927437 160.0
96.96933 200.0
97.00322 152.0
97.043457 480.0
97.063438 148.0
97.189873 156.0
97.218414 152.0
97.243927 116.0
97.275337 124.0
97.404945 176.0
97.446205 156.0
97.538811 196.0
97.586708 332.0
97.680161 124.0
97.711639 180.0
97.754929 140.0
97.776573 132.0
97.829727 212.0
97.876976 44.0
97.895943 176.0
97.910461 168.0
97.943939 160.0
97.962677 216.0
97.981377 108.0
98.010315 128.0
98.149529 168.0
98.170609 96.0
98.188354 104.0
98.211205 172.0
98.265289 200.0
98.312653 184.0
98.358047 176.0
98.371872 320.0
98.385689 112.0
98.42598 112.0
98.442947 144.0
98.496399 136.0
98.518013 72.0
98.535789 88.0
98.61879 44.0
98.632629 196.0
98.680077 196.0
98.707764 112.0
98.757027 180.0
98.810371 192.0
98.854149 168.0
98.877899 136.0
98.917488 176.0
99.112137 116.0
99.20871 168.0
99.244774 264.0
99.297943 184.0
99.358582 288.0
99.38591 140.0
99.434845 108.0
99.484474 84.0
99.531525 120.0
99.551018 140.0
99.585747 152.0
99.603622 140.0
99.619225 164.0
99.641373 168.0
99.659256 140.0
99.710922 60.0
99.860046 164.0
99.903809 116.0
100.011269 104.0
100.059769 168.0
100.078957 148.0
100.098869 116.0
100.112808 112.0
100.126755 108.0
100.186516 148.0
100.234329 96.0
100.268036 176.0
100.301811 168.0
100.347954 216.0
100.377304 172.0
100.399803 140.0
100.442162 100.0
100.505531 320.0
100.578056 188.0
100.630928 248.0
100.69519 152.0
100.710869 160.0
100.743126 44.0
100.801178 156.0
100.835052 92.0
100.947006 120.0
100.963623 108.0
100.977005 168.0
101.038506 296.0
101.155197 240.0
101.204597 232.0
101.223175 132.0
101.247208 104.0
101.337349 92.0
101.357391 100.0
101.375427 148.0
101.429543 172.0
101.526787 176.0
101.612045 100.0
101.652176 180.0
101.682281 200.0
101.749474 276.0
101.792458 132.0
101.843704 164.0
101.869026 172.0
101.933823 112.0
101.983566 148.0
102.011711 128.0
102.046173 140.0
102.078064 188.0
102.122307 164.0
102.154495 196.0
102.168579 64.0
102.216866 244.0
102.247055 56.0
102.269196 148.0
102.32119 140.0
102.385979 216.0
102.442375 340.0
102.488716 116.0
102.506851 168.0
102.521019 136.0
102.537086 156.0
102.555222 104.0
102.569336 56.0
102.591507 128.0
102.619736 192.0
102.658051 52.0
102.672165 196.0
102.749168 208.0
102.754646 36.0
102.762642 240.0
102.825874 168.0
102.873444 80.0
102.888702 156.0
102.963501 208.0
103.004524 188.0
103.01844 44.0
103.053146 1032.0
103.086037 92.0
103.129005 168.0
103.162842 108.0
103.189751 168.0
103.255859 80.0
103.286766 288.0
103.327538 176.0
103.359039 156.0
103.421776 200.0
103.45253 168.0
103.478462 136.0
103.528458 116.0
103.571625 200.0
103.58783 368.0
103.608086 260.0
103.63443 168.0
103.658745 144.0
103.800652 128.0
103.856575 216.0
103.914001 168.0
103.962944 180.0
103.985268 96.0
104.052834 252.0
104.11927 108.0
104.135735 112.0
104.159897 96.0
104.199821 196.0
104.226944 220.0
104.363136 172.0
104.393639 128.0
104.434319 160.0
104.462791 128.0
104.600075 156.0
104.643929 200.0
104.676514 136.0
104.711136 124.0
104.728516 180.0
104.747795 172.0
104.865982 168.0
104.889816 116.0
104.943451 172.0
104.969963 128.0
104.984238 172.0
105.149498 92.0
105.21579 152.0
105.235237 176.0
105.290375 192.0
105.359825 168.0
105.410912 192.0
105.437439 204.0
105.476311 48.0
105.502892 196.0
105.537109 196.0
105.619453 160.0
105.691116 168.0
105.774109 160.0
105.836403 192.0
105.87326 148.0
105.910126 148.0
105.926514 156.0
105.985931 360.0
106.018723 164.0
106.042397 232.0
106.079376 156.0
106.21003 132.0
106.232185 196.0
106.305183 188.0
106.328415 220.0
106.429253 168.0
106.447487 152.0
106.484795 96.0
106.5317 144.0
106.653671 192.0
106.819511 196.0
106.898201 148.0
106.982094 196.0
107.03215 380.0
107.054161 144.0
107.093292 116.0
107.113892 160.0
107.134491 44.0
107.15097 132.0
107.194244 176.0
107.225349 176.0
107.268448 144.0
107.319077 160.0
107.361504 152.0
107.37751 188.0
107.392174 260.0
107.440758 152.0
107.457047 152.0
107.472633 144.0
107.487076 56.0
107.528351 112.0
107.555183 140.0
107.617119 156.0
107.639832 168.0
107.666679 216.0
107.681137 80.0
107.705925 172.0
107.769974 112.0
107.88089 132.0
107.935898 152.0
107.970497 300.0
107.99118 112.0
108.007729 120.0
108.051483 80.0
108.074593 164.0
108.133987 196.0
108.220894 144.0
108.237465 224.0
108.291801 168.0
108.298706 160.0
108.328926 228.0
108.344765 184.0
108.361748 104.0
108.410957 240.0
108.438423 48.0
108.467438 56.0
108.481949 116.0
108.511063 204.0
108.531715 64.0
108.546227 192.0
108.583557 196.0
108.606483 156.0
108.626717 144.0
108.656166 140.0
108.690086 160.0
108.72718 168.0
108.743324 172.0
108.766159 276.0
108.811874 176.0
108.816452 212.0
108.836227 160.0
108.855431 412.0
108.876465 364.0
108.891884 284.0
108.937645 228.0
108.951294 332.0
108.987259 472.0
109.022125 532.0
109.044724 147348.0
109.09594 152.0
109.117943 240.0
109.136559 224.0
109.171097 80.0
109.186836 184.0
109.201477 64.0
109.22702 164.0
109.255074 196.0
109.270363 156.0
109.289719 64.0
109.328491 168.0
109.365189 68.0
109.385681 1516.0
109.411751 144.0
109.433914 160.0
109.477966 140.0
109.526138 76.0
109.560745 188.0
109.579865 76.0
109.636902 76.0
109.660187 164.0
109.689056 104.0
109.72113 196.0
109.756493 88.0
109.782631 104.0
109.831825 68.0
109.855637 248.0
109.879623 72.0
109.915276 220.0
109.936516 96.0
109.96624 56.0
110.011543 200.0
110.047157 12736.0
110.088303 204.0
110.115631 180.0
110.134651 52.0
110.160927 52.0
110.183739 64.0
110.232445 88.0
110.259621 148.0
110.283798 180.0
110.305405 84.0
110.326508 28.0
110.351601 72.0
110.380386 120.0
110.386421 92.0
110.414337 192.0
110.428978 72.0
110.445831 176.0
110.488594 64.0
110.506378 88.0
110.527306 88.0
110.5476 80.0
110.574738 144.0
110.607681 388.0
110.654984 76.0
110.686394 144.0
110.706291 192.0
110.721565 116.0
110.740051 264.0
110.771194 84.0
110.79174 272.0
110.834602 80.0
110.865685 96.0
110.872246 96.0
110.887451 148.0
110.924408 160.0
110.952499 88.0
110.974625 116.0
110.994438 232.0
111.015411 80.0
111.050949 480.0
111.109802 172.0
111.130783 136.0
111.177872 56.0
111.195305 252.0
111.212631 88.0
111.235176 152.0
111.32811 56.0
111.365913 216.0
111.397423 60.0
111.422638 192.0
111.481659 136.0
111.527588 272.0
111.603394 164.0
111.620216 40.0
111.689629 80.0
111.709389 80.0
111.738014 56.0
111.782204 60.0
111.815872 168.0
111.841637 116.0
111.862183 180.0
111.881134 36.0
111.902184 84.0
111.919029 68.0
111.973457 104.0
112.039085 128.0
112.078033 116.0
112.087364 92.0
112.144455 164.0
112.184502 140.0
112.237213 152.0
112.266739 176.0
112.310295 192.0
112.349007 132.0
112.377243 156.0
112.398674 148.0
112.451294 160.0
112.482727 176.0
112.524185 156.0
112.541077 104.0
112.5812 120.0
112.602318 88.0
112.648376 272.0
112.676254 128.0
112.693153 192.0
112.781921 196.0
112.860146 64.0
112.908295 104.0
112.961662 184.0
113.03817 376.0
113.115585 212.0
113.138565 156.0
113.188133 144.0
113.21566 124.0
113.232605 76.0
113.393631 92.0
113.447678 172.0
113.472069 68.0
113.554779 92.0
113.605682 120.0
113.622658 132.0
113.663902 72.0
113.682915 192.0
113.743629 128.0
113.810127 108.0
113.888023 140.0
113.9179 124.0
113.939003 76.0
113.983627 204.0
114.038582 336.0
114.079277 172.0
114.100533 100.0
114.123657 160.0
114.162201 160.0
114.194107 52.0
114.270691 168.0
114.364326 136.0
114.404831 144.0
114.445229 160.0
114.475037 72.0
114.504852 40.0
114.523659 140.0
114.573021 172.0
114.679573 120.0
114.711548 180.0
114.726471 104.0
114.74353 192.0
114.762718 120.0
114.888557 116.0
114.939766 196.0
115.053101 1716.0
115.115456 120.0
115.125015 36.0
115.131378 148.0
115.208794 184.0
115.349846 152.0
115.401154 228.0
115.418259 128.0
115.456757 180.0
115.508087 160.0
115.531624 184.0
115.548737 128.0
115.576553 176.0
115.591537 128.0
115.611786 164.0
115.740128 196.0
115.751625 148.0
115.78299 168.0
115.80349 196.0
115.833473 132.0
115.85276 120.0
115.87825 200.0
115.91275 144.0
115.955612 120.0
115.996346 204.0
116.015205 160.0
116.048759 28512.0
116.088158 224.0
116.115135 200.0
116.135727 40.0
116.152885 132.0
116.176918 196.0
116.235794 112.0
116.291649 204.0
116.333145 96.0
116.35891 88.0
116.391579 164.0
116.43837 136.0
116.481323 104.0
116.517845 152.0
116.535034 152.0
116.604263 188.0
116.652496 132.0
116.690094 172.0
116.7285 52.0
116.777962 92.0
116.801628 100.0
116.864021 184.0
116.904907 112.0
116.975342 204.0
117.003922 76.0
117.052032 2264.0
117.089058 172.0
117.151688 144.0
117.169762 136.0
117.18824 160.0
117.194962 92.0
117.202431 128.0
117.240875 68.0
117.266739 200.0
117.331406 200.0
117.348656 148.0
117.370216 212.0
117.390121 156.0
117.421974 172.0
117.439232 60.0
117.471588 96.0
117.499634 104.0
117.573692 100.0
117.631287 48.0
117.68338 192.0
117.700378 48.0
117.728447 128.0
117.770897 92.0
117.806152 148.0
117.813286 204.0
117.842941 136.0
117.859993 112.0
117.944412 172.0
117.981262 80.0
118.063309 68.0
118.066528 400.0
118.10453 152.0
118.128326 116.0
118.162941 48.0
118.429214 144.0
118.457375 196.0
118.489876 144.0
118.550926 184.0
118.617744 92.0
118.713142 52.0
118.781662 196.0
118.808586 124.0
118.856316 164.0
118.882088 64.0
118.906235 80.0
118.949646 104.0
118.976639 120.0
119.047356 316.0
119.069069 140.0
119.097305 60.0
119.187325 204.0
119.208115 56.0
119.279839 92.0
119.31897 104.0
119.375511 76.0
119.474403 180.0
119.529961 148.0
119.573494 180.0
119.623558 124.0
119.695404 232.0
119.73896 164.0
119.833282 188.0
119.850067 224.0
119.871857 112.0
119.919807 112.0
119.978668 136.0
120.026268 144.0
120.065887 148.0
120.113876 144.0
120.146599 148.0
120.216423 212.0
120.255707 164.0
120.277534 164.0
120.620499 160.0
120.65329 148.0
120.808571 64.0
120.833412 124.0
120.882965 184.0
121.021721 164.0
121.044067 1940.0
121.158531 160.0
121.200493 104.0
121.215828 100.0
121.244324 164.0
121.275009 100.0
121.321037 144.0
121.409973 180.0
121.432877 272.0
121.55574 184.0
121.579201 156.0
121.74234 44.0
121.799446 48.0
121.869751 120.0
121.933479 40.0
122.007965 140.0
122.048576 296.0
122.069786 92.0
122.225975 124.0
122.261185 164.0
122.286598 176.0
122.318413 108.0
122.415291 136.0
122.441719 212.0
122.489204 228.0
122.655457 176.0
122.717186 68.0
122.745323 168.0
122.797569 328.0
122.817406 144.0
122.853928 232.0
122.906883 104.0
122.977501 172.0
123.023827 1940.0
123.060402 1212.0
123.094521 52.0
123.148369 336.0
123.167404 120.0
123.204987 196.0
123.250145 196.0
123.353966 312.0
123.42321 196.0
123.505608 152.0
123.533859 104.0
123.580826 104.0
123.602959 200.0
123.622871 120.0
123.828773 252.0
123.8908 40.0
123.942963 176.0
123.968353 100.0
124.037064 220.0
124.059464 344.0
124.123535 228.0
124.186485 124.0
124.278763 192.0
124.318748 188.0
124.33651 260.0
124.380898 148.0
124.397026 196.0
124.449722 116.0
124.469711 224.0
124.51857 164.0
124.560768 116.0
124.649643 44.0
124.69854 148.0
124.740776 112.0
124.756332 60.0
124.851952 160.0
124.909782 84.0
124.989876 124.0
125.037048 732.0
125.120529 220.0
125.20137 216.0
125.237007 88.0
125.308296 168.0
125.328346 48.0
125.371475 248.0
125.408577 136.0
125.437553 192.0
125.480804 160.0
125.522278 144.0
125.565025 168.0
125.663033 40.0
125.781097 56.0
125.810112 184.0
125.897202 84.0
125.970909 284.0
125.99369 164.0
126.03772 164.0
126.071457 156.0
126.117882 140.0
126.180992 136.0
126.214531 144.0
126.239128 68.0
126.261497 168.0
126.335831 156.0
126.449432 160.0
126.563614 156.0
126.605766 68.0
126.689041 40.0
126.736092 256.0
126.814529 124.0
126.832458 44.0
126.856941 100.0
126.987175 136.0
127.005119 172.0
127.052696 1488.0
127.089157 184.0
127.117302 140.0
127.234024 168.0
127.285667 216.0
127.326096 100.0
127.3508 116.0
127.388985 212.0
127.415947 140.0
127.474655 156.0
127.672203 104.0
127.784683 128.0
127.809433 168.0
127.881447 92.0
127.953629 196.0
127.992683 192.0
128.060837 2392.0
128.081161 196.0
128.120636 224.0
128.142685 176.0
128.162964 96.0
128.185501 124.0
128.248596 208.0
128.386139 196.0
128.474106 168.0
128.545731 140.0
128.568878 200.0
128.625305 108.0
128.675217 216.0
128.705139 156.0
128.733032 204.0
128.778854 224.0
128.824036 80.0
128.872482 176.0
128.941544 172.0
128.961121 156.0
128.991837 208.0
129.009354 140.0
129.042587 164.0
129.069031 4332.0
129.106583 244.0
129.183487 228.0
129.219696 60.0
129.26947 120.0
129.290939 180.0
129.310211 148.0
129.330322 176.0
129.400818 156.0
129.435471 124.0
129.473221 64.0
129.563828 136.0
129.595551 76.0
129.638611 200.0
129.663544 232.0
129.693008 100.0
129.713409 156.0
129.73381 48.0
129.783691 76.0
129.830231 208.0
129.860794 204.0
129.922546 184.0
129.956085 140.0
130.026428 116.0
130.064026 1940.0
130.155838 140.0
130.217438 192.0
130.255768 176.0
130.273941 120.0
130.321655 120.0
130.451202 216.0
130.467117 204.0
130.496674 348.0
130.603561 196.0
130.671814 396.0
130.704727 120.0
130.735519 132.0
130.767395 120.0
130.796982 132.0
130.889038 176.0
130.956375 188.0
131.006485 116.0
131.046585 180.0
131.072632 448.0
131.100769 140.0
131.154617 56.0
131.316513 108.0
131.334763 152.0
131.432861 156.0
131.455673 72.0
131.496765 64.0
131.549255 160.0
131.594925 256.0
131.697693 88.0
131.725098 96.0
131.779449 208.0
131.798218 52.0
131.819672 200.0
131.850784 120.0
131.930786 100.0
131.954971 228.0
131.987946 160.0
132.003952 152.0
132.024536 88.0
132.047409 148.0
132.079422 184.0
132.125183 152.0
132.142197 228.0
132.147324 100.0
132.156052 196.0
132.236252 164.0
132.253342 156.0
132.301407 144.0
132.386185 160.0
132.459427 144.0
132.555176 228.0
132.587738 192.0
132.649628 192.0
132.68631 116.0
132.771149 128.0
132.80098 88.0
132.821625 148.0
132.84227 180.0
132.869797 136.0
133.018967 232.0
133.043579 3340.0
133.099319 80.0
133.163635 148.0
133.18071 196.0
133.225647 156.0
133.299179 176.0
133.579697 172.0
133.632599 108.0
133.648712 212.0
133.701645 108.0
133.745773 164.0
134.007919 104.0
134.053421 400.0
134.086273 156.0
134.118362 156.0
134.127625 144.0
134.203842 228.0
134.23381 28.0
134.311615 208.0
134.356064 132.0
134.383759 240.0
134.450684 108.0
134.589188 192.0
134.697739 100.0
134.757812 132.0
134.792465 152.0
134.834061 200.0
134.857178 128.0
134.991272 148.0
135.013428 172.0
135.033524 136.0
135.060242 596.0
135.204117 80.0
135.222641 116.0
135.264297 112.0
135.384705 176.0
135.403229 156.0
135.475037 160.0
135.521378 36.0
135.609726 132.0
135.648849 140.0
135.787399 192.0
135.825089 184.0
135.850601 124.0
135.959671 148.0
136.031616 160.0
136.054749 180.0
136.082703 140.0
136.109085 176.0
136.13147 192.0
136.224365 240.0
136.280136 104.0
136.300598 208.0
136.32724 176.0
136.394012 88.0
136.434143 184.0
136.459106 204.0
136.496307 148.0
136.656815 112.0
136.720078 212.0
136.782486 136.0
136.798782 116.0
136.875626 120.0
136.938507 168.0
136.987411 192.0
137.0728 256.0
137.122574 88.0
137.14122 132.0
137.246124 180.0
137.295105 124.0
137.344086 132.0
137.463074 124.0
137.547455 128.0
137.649002 136.0
137.729233 76.0
137.785309 44.0
137.804001 248.0
137.869431 100.0
137.899811 172.0
138.050751 208.0
138.091537 100.0
138.258011 216.0
138.348953 168.0
138.482422 200.0
138.540985 172.0
138.557388 124.0
138.601913 192.0
138.679245 144.0
138.716751 200.0
138.743683 156.0
138.77771 232.0
138.805847 52.0
138.834 188.0
138.941895 124.0
138.993515 128.0
139.021027 308.0
139.052902 2812.0
139.080353 144.0
139.157822 136.0
139.242371 152.0
139.317535 140.0
139.345779 180.0
139.444427 68.0
139.48439 176.0
139.542725 128.0
139.565506 128.0
139.616058 160.0
139.638168 160.0
139.658401 196.0
139.707794 208.0
139.73259 112.0
139.788376 184.0
139.943161 240.0
139.969604 176.0
140.004395 352.0
140.020874 164.0
140.048553 15812.0
140.142059 100.0
140.167313 256.0
140.223495 192.0
140.34137 40.0
140.35788 160.0
140.414474 104.0
140.435715 84.0
140.49704 172.0
140.552979 152.0
140.650436 108.0
140.681122 184.0
140.707092 260.0
140.725357 164.0
140.81572 52.0
140.850159 180.0
140.912582 208.0
140.93782 228.0
140.943787 156.0
140.954834 104.0
140.96286 144.0
141.017227 172.0
141.053299 1532.0
141.141861 40.0
141.208084 124.0
141.236465 148.0
141.253021 64.0
141.383163 188.0
141.40683 60.0
141.431793 120.0
141.48616 136.0
141.506256 76.0
141.55835 96.0
141.624664 44.0
141.648361 180.0
141.688629 84.0
141.747864 96.0
141.796509 88.0
141.819931 264.0
141.920914 208.0
142.064682 1740.0
142.131973 212.0
142.206085 196.0
142.25473 188.0
142.271622 88.0
142.286301 132.0
142.340927 28.0
142.36467 172.0
142.466812 104.0
142.483444 168.0
142.502441 176.0
142.535706 124.0
142.568985 128.0
142.602249 180.0
142.656937 60.0
142.692596 180.0
142.731155 164.0
142.794647 188.0
142.890503 228.0
142.935211 140.0
142.975677 148.0
143.020889 204.0
143.067673 416.0
143.097076 164.0
143.167053 176.0
143.189941 160.0
143.21138 196.0
143.247116 152.0
143.273026 64.0
143.307968 112.0
143.418686 144.0
143.44014 120.0
143.456833 136.0
143.556976 236.0
143.57605 120.0
143.604675 204.0
143.653885 280.0
143.687607 196.0
143.740662 180.0
143.762146 44.0
143.811264 152.0
143.850464 192.0
143.967453 48.0
144.044434 1880.0
144.077332 120.0
144.156189 60.0
144.196533 132.0
144.230286 276.0
144.261353 44.0
144.356995 76.0
144.390488 140.0
144.447891 152.0
144.467026 68.0
144.520752 124.0
144.636932 148.0
144.737488 124.0
144.754257 124.0
144.790176 220.0
144.984238 164.0
145.047058 416.0
145.059464 524.0
145.113495 144.0
145.166443 256.0
145.216309 152.0
145.263184 596.0
145.358353 132.0
145.379959 168.0
145.415955 44.0
145.505157 180.0
145.572021 188.0
145.670486 40.0
145.711334 120.0
145.907166 168.0
146.011826 144.0
146.028656 136.0
146.052277 1836.0
146.140305 136.0
146.177826 52.0
146.216324 92.0
146.348724 64.0
146.408936 72.0
146.442657 144.0
146.469147 88.0
146.518265 156.0
146.609955 164.0
146.658203 168.0
146.702911 116.0
146.903076 136.0
146.948914 184.0
147.006821 160.0
147.058273 1592.0
147.26033 172.0
147.286896 64.0
147.325546 224.0
147.342468 152.0
147.439865 144.0
147.478455 132.0
147.550323 132.0
147.589005 168.0
147.67215 188.0
147.731705 152.0
147.804291 124.0
147.852692 96.0
147.925308 144.0
147.954361 192.0
147.97728 156.0
147.993103 168.0
148.036575 88.0
148.070587 108.0
148.123886 128.0
148.15538 100.0
148.266205 200.0
148.499603 132.0
148.664581 108.0
148.696136 220.0
148.725266 144.0
148.821487 188.0
148.856369 120.0
148.936523 60.0
148.955734 184.0
149.016693 148.0
149.041687 192.0
149.074005 156.0
149.17952 76.0
149.203842 192.0
149.412994 176.0
149.493301 96.0
149.533539 188.0
149.57605 128.0
149.619873 164.0
149.80983 32.0
149.861008 168.0
149.943985 148.0
150.005371 152.0
150.038925 156.0
150.070511 164.0
150.095001 152.0
150.1194 152.0
150.365799 116.0
150.411285 144.0
150.456131 200.0
150.475662 116.0
150.49556 160.0
150.556244 148.0
150.575775 180.0
150.648132 144.0
150.697922 112.0
150.763901 128.0
150.832336 172.0
150.883682 192.0
150.905685 192.0
150.922806 92.0
150.992554 132.0
151.049988 212.0
151.066772 164.0
151.094025 188.0
151.133163 140.0
151.206589 184.0
151.328979 68.0
151.37796 132.0
151.485733 204.0
151.607101 132.0
151.678055 176.0
151.72345 84.0
151.821533 80.0
151.848511 116.0
151.895126 164.0
151.917206 152.0
151.948257 128.0
152.005524 52.0
152.040466 180.0
152.058121 176.0
152.084061 116.0
152.165085 140.0
152.295242 164.0
152.354202 152.0
152.440201 88.0
152.483704 188.0
152.632492 216.0
152.845947 96.0
152.932098 192.0
152.964096 80.0
152.986252 48.0
153.057114 1152.0
153.11676 136.0
153.180801 160.0
153.26683 160.0
153.427246 144.0
153.461761 160.0
153.498749 80.0
153.574005 192.0
153.641815 140.0
153.713364 164.0
153.824966 168.0
153.857758 176.0
154.019516 148.0
154.064453 3740.0
154.099655 164.0
154.143051 56.0
154.170715 208.0
154.236237 160.0
154.256348 172.0
154.296158 136.0
154.377121 164.0
154.432312 160.0
154.501587 76.0
154.603317 108.0
154.704529 196.0
154.778809 56.0
154.882828 128.0
154.951202 96.0
154.978363 208.0
155.064835 1040.0
155.091812 200.0
155.115402 192.0
155.157898 104.0
155.239731 84.0
155.283829 108.0
155.428268 132.0
155.44812 144.0
155.467972 148.0
155.527542 116.0
155.552368 180.0
155.625046 220.0
155.680588 168.0
155.768417 32.0
155.810638 152.0
155.833008 116.0
155.942352 108.0
155.982117 176.0
156.042007 144.0
156.079407 7120.0
156.158768 188.0
156.235779 96.0
156.290527 152.0
156.324738 80.0
156.349411 204.0
156.399338 216.0
156.423553 116.0
156.448288 176.0
156.503174 140.0
156.529495 64.0
156.566849 44.0
156.586777 124.0
156.616806 256.0
156.703857 212.0
156.726288 216.0
156.778625 80.0
156.818497 104.0
156.840927 140.0
156.915726 148.0
156.950623 220.0
157.045639 128.0
157.051254 172.0
157.062744 176.0
157.083679 1100.0
157.120239 148.0
157.152679 204.0
157.180115 28.0
157.227539 72.0
157.24501 124.0
157.297424 28.0
157.387314 116.0
157.404785 108.0
157.424774 124.0
157.462234 116.0
157.527176 132.0
157.608734 224.0
157.712097 160.0
157.729584 124.0
157.747086 128.0
157.854599 128.0
157.879608 112.0
157.912125 184.0
157.939636 164.0
157.973328 136.0
158.060532 916.0
158.085083 304.0
158.259979 136.0
158.292542 128.0
158.332611 196.0
158.518005 244.0
158.573135 164.0
158.60321 84.0
158.650848 80.0
158.675919 188.0
158.716385 172.0
158.857407 176.0
159.01535 104.0
159.058792 2940.0
159.147629 108.0
159.234924 200.0
159.300842 180.0
159.325958 176.0
159.378723 176.0
159.456635 220.0
159.547119 172.0
159.586075 120.0
159.632614 404.0
159.680405 156.0
159.823807 52.0
159.889236 180.0
159.919434 176.0
159.947128 64.0
159.977325 32.0
160.018875 160.0
160.064056 532.0
160.135971 124.0
160.277054 160.0
160.352661 188.0
160.3703 108.0
160.423248 380.0
160.476181 160.0
160.551895 120.0
160.627502 184.0
160.650208 164.0
160.695633 264.0
160.76123 64.0
160.922791 264.0
160.968246 156.0
161.069687 168.0
161.188019 92.0
161.220871 124.0
161.28537 292.0
161.306671 148.0
161.342209 68.0
161.383774 200.0
161.398895 152.0
161.450943 128.0
161.468643 252.0
161.534912 132.0
161.568344 144.0
161.724197 128.0
161.759628 176.0
161.80014 120.0
161.83812 96.0
162.02301 48.0
162.070038 300.0
162.175064 148.0
162.200409 152.0
162.225769 136.0
162.254501 228.0
162.291687 120.0
162.324936 152.0
162.593567 104.0
162.662094 132.0
162.801743 192.0
162.927032 136.0
163.030685 180.0
163.058472 172.0
163.09903 184.0
163.176849 176.0
163.297363 168.0
163.396561 188.0
163.439819 152.0
163.490723 184.0
163.587448 84.0
163.610352 312.0
163.737885 148.0
163.770798 124.0
163.862503 48.0
163.913467 188.0
163.963409 228.0
164.043457 248.0
164.061295 196.0
164.10379 96.0
164.176041 132.0
164.193893 92.0
164.282166 152.0
164.290054 92.0
164.296585 124.0
164.33165 164.0
164.39122 196.0
164.451599 192.0
164.546051 208.0
164.574142 144.0
164.604782 116.0
164.712051 68.0
164.792801 152.0
164.803574 92.0
164.809967 136.0
164.905701 188.0
164.957367 124.0
165.03595 104.0
165.056107 292.0
165.095444 172.0
165.218231 176.0
165.277084 108.0
165.307327 224.0
165.344803 276.0
165.458801 212.0
165.497208 184.0
165.571472 128.0
165.599655 128.0
165.617584 196.0
165.661133 144.0
165.777054 116.0
165.7995 128.0
165.897278 168.0
165.997437 384.0
166.064423 34608.0
166.126968 104.0
166.170593 60.0
166.199554 176.0
166.234375 140.0
166.258942 140.0
166.279114 128.0
166.30246 164.0
166.33815 88.0
166.459763 232.0
166.546143 132.0
166.592392 52.0
166.63092 44.0
166.697739 100.0
166.74675 56.0
166.785126 180.0
166.851959 140.0
166.874191 80.0
166.898102 76.0
166.908386 72.0
166.92067 72.0
166.925034 124.0
166.954819 68.0
166.994385 124.0
167.031982 56.0
167.067474 4276.0
167.127655 344.0
167.170914 156.0
167.193649 212.0
167.299622 28.0
167.321472 164.0
167.363983 104.0
167.441238 172.0
167.464432 232.0
167.48761 140.0
167.505646 92.0
167.53656 108.0
167.570053 108.0
167.603546 180.0
167.658752 156.0
167.706635 48.0
167.751266 268.0
167.848434 72.0
167.881958 220.0
167.914352 136.0
168.018677 80.0
168.076935 1824.0
168.114151 188.0
168.132202 144.0
168.160599 84.0
168.181244 160.0
168.199036 72.0
168.203033 64.0
168.256561 116.0
168.289673 140.0
168.411057 220.0
168.470474 136.0
168.498886 108.0
168.529892 128.0
168.620346 212.0
168.669464 180.0
168.757355 168.0
168.806488 180.0
168.829773 188.0
168.888397 204.0
169.011383 116.0
169.022064 132.0
169.04866 420.0
169.084564 316.0
169.163559 68.0
169.184265 92.0
169.3116 224.0
169.337051 132.0
169.377045 176.0
169.454895 236.0
169.62468 152.0
169.663559 180.0
169.692078 172.0
169.93071 92.0
169.990387 148.0
170.059036 764.0
170.099396 116.0
170.216232 140.0
170.312332 112.0
170.455231 120.0
170.538391 56.0
170.600525 160.0
170.647583 84.0
170.725906 196.0
170.803619 176.0
170.976685 220.0
171.062592 504.0
171.082642 128.0
171.131546 128.0
171.170609 152.0
171.201859 120.0
171.384155 160.0
171.444138 148.0
171.486252 176.0
171.527557 72.0
171.612335 172.0
171.790939 156.0
171.82225 184.0
171.840515 140.0
172.007538 156.0
172.033646 184.0
172.059875 164.0
172.10936 224.0
172.190323 188.0
172.226883 72.0
172.438538 136.0
172.527405 80.0
172.555313 156.0
172.579697 128.0
172.8125 132.0
172.849716 196.0
172.959061 340.0
173.049088 736.0
173.154388 160.0
173.202591 180.0
173.230667 156.0
173.254974 92.0
173.421341 172.0
173.501343 156.0
173.527557 52.0
173.635071 112.0
173.797729 132.0
173.868576 132.0
173.981445 116.0
174.04718 204.0
174.070724 48.0
174.139008 216.0
174.291382 136.0
174.454346 192.0
174.613434 192.0
174.667816 184.0
174.704178 168.0
174.812057 196.0
174.893646 144.0
175.012268 148.0
175.051178 140.0
175.075333 208.0
175.112198 128.0
175.191223 112.0
175.275543 240.0
175.373047 152.0
175.454773 180.0
175.507507 100.0
175.649933 100.0
175.671036 48.0
175.713242 208.0
175.755463 148.0
175.797684 264.0
175.95343 204.0
176.059052 132.0
176.085724 436.0
176.183197 176.0
176.267746 60.0
176.299469 196.0
176.317963 44.0
176.357605 228.0
176.50174 124.0
176.534821 168.0
176.567047 188.0
176.640549 156.0
176.719925 96.0
176.766312 172.0
176.783432 204.0
176.882721 72.0
176.914383 160.0
176.988174 176.0
177.070724 312.0
177.088715 252.0
177.116714 200.0
177.265411 292.0
177.31311 108.0
177.408539 148.0
177.427094 208.0
177.522552 164.0
177.692322 80.0
177.78743 148.0
177.843597 156.0
177.997574 112.0
178.071686 380.0
178.098495 168.0
178.215393 128.0
178.332336 188.0
178.353592 64.0
178.385498 164.0
178.466125 172.0
178.488098 132.0
178.505142 184.0
178.56366 176.0
178.704651 152.0
178.829819 116.0
178.866989 92.0
178.890945 136.0
178.914917 140.0
179.000122 172.0
179.032074 196.0
179.053375 172.0
179.077606 212.0
179.273773 188.0
179.303818 112.0
179.386459 184.0
179.578445 152.0
179.701172 148.0
179.837265 164.0
179.855957 80.0
179.887985 40.0
179.912018 148.0
180.059311 180.0
180.192444 40.0
180.318054 172.0
180.377686 116.0
180.411606 116.0
180.451706 180.0
180.505188 216.0
180.556 48.0
180.604141 140.0
180.681732 176.0
180.729889 120.0
180.844971 80.0
180.871735 52.0
181.054016 204.0
181.152908 224.0
181.292252 40.0
181.382431 316.0
181.423584 92.0
181.447723 152.0
181.678375 176.0
181.799118 136.0
181.930649 164.0
181.965714 124.0
182.019699 168.0
182.072235 276.0
182.164291 224.0
182.215332 88.0
182.394562 220.0
182.494873 224.0
182.562088 64.0
182.755783 172.0
182.90918 192.0
183.05896 1792.0
183.08461 332.0
183.132675 144.0
183.154236 192.0
183.200027 108.0
183.232361 160.0
183.305115 176.0
183.336105 152.0
183.40213 176.0
183.429092 116.0
183.488403 140.0
183.581772 172.0
183.650131 148.0
183.698761 108.0
183.724304 180.0
183.955139 80.0
183.975616 212.0
183.986145 124.0
184.071518 1412.0
184.190079 92.0
184.211685 132.0
184.268417 76.0
184.362991 124.0
184.392731 204.0
184.427872 112.0
184.490036 88.0
184.654999 84.0
184.682037 56.0
184.844376 152.0
184.901199 216.0
184.99324 196.0
185.073242 104.0
185.120499 56.0
185.166534 120.0
185.223419 144.0
185.330292 144.0
185.385986 132.0
185.437485 160.0
185.776443 156.0
185.803574 36.0
186.020691 208.0
186.048538 124.0
186.07579 176.0
186.159164 188.0
186.212738 204.0
186.306702 188.0
186.406372 108.0
186.44986 216.0
186.554871 164.0
186.579544 152.0
186.584869 60.0
186.751022 172.0
186.770706 204.0
186.795181 60.0
186.819672 88.0
186.860474 100.0
186.933945 100.0
186.955719 96.0
187.029053 140.0
187.049927 176.0
187.135376 144.0
187.198013 148.0
187.241592 228.0
187.405045 100.0
187.451355 184.0
187.524948 88.0
187.549484 184.0
187.631256 164.0
187.925827 116.0
188.005219 128.0
188.054581 204.0
188.113327 120.0
188.212448 140.0
188.264328 188.0
188.346268 136.0
188.406204 136.0
188.608597 88.0
188.646866 136.0
188.682404 116.0
189.069977 648.0
189.122849 148.0
189.235092 160.0
189.336411 100.0
189.404892 84.0
189.591705 220.0
189.736481 172.0
189.761169 60.0
189.785843 72.0
189.931198 136.0
190.063614 4284.0
190.189133 152.0
190.25502 32.0
190.367599 76.0
190.433182 164.0
190.504929 124.0
190.554382 108.0
190.581863 32.0
190.614838 160.0
190.672546 164.0
190.697296 204.0
190.856735 88.0
190.884247 48.0
190.919998 68.0
190.953003 192.0
191.069641 832.0
191.116516 208.0
191.178604 168.0
191.208878 32.0
191.239151 184.0
191.324814 100.0
191.35202 156.0
191.385193 168.0
191.407089 108.0
191.47319 160.0
191.497971 44.0
191.540619 124.0
191.602661 152.0
191.630203 92.0
191.674301 160.0
191.700867 156.0
191.743195 172.0
191.796768 128.0
191.825882 144.0
191.939346 156.0
192.007874 348.0
192.052002 164.0
192.077866 200.0
192.115448 168.0
192.203751 100.0
192.261703 84.0
192.286545 180.0
192.361069 144.0
192.394196 52.0
192.43837 120.0
192.492493 140.0
192.55159 168.0
192.601318 212.0
192.673141 164.0
192.787842 188.0
192.883163 136.0
192.919113 160.0
193.034561 164.0
193.051605 96.0
193.093307 164.0
193.11821 176.0
193.253769 152.0
193.358932 208.0
193.440872 336.0
193.487808 136.0
193.538864 52.0
193.608109 200.0
193.627487 116.0
193.688431 152.0
193.774307 112.0
193.804794 128.0
193.860214 140.0
193.904556 160.0
193.989716 160.0
194.048996 288.0
194.063004 176.0
194.23175 112.0
194.284454 168.0
194.327118 180.0
194.39151 164.0
194.417648 184.0
194.47316 148.0
194.493942 164.0
194.52034 132.0
194.586975 52.0
194.656387 188.0
194.742493 96.0
194.784149 124.0
194.925858 136.0
195.05899 412.0
195.088348 260.0
195.289642 160.0
195.326218 168.0
195.37352 156.0
195.459381 144.0
195.518219 164.0
195.581741 136.0
195.685242 208.0
195.754852 176.0
195.824478 184.0
195.902481 160.0
195.96817 144.0
196.015442 264.0
196.065491 1372.0
196.10527 164.0
196.128204 172.0
196.167221 112.0
196.188522 92.0
196.317795 140.0
196.344391 180.0
196.42099 152.0
196.504684 80.0
196.540955 60.0
196.568863 184.0
196.607941 136.0
196.741928 180.0
196.903885 152.0
197.073517 216.0
197.10672 492.0
197.177689 40.0
197.214645 200.0
197.290314 180.0
197.323059 116.0
197.395752 136.0
197.559525 196.0
197.613937 44.0
197.808136 216.0
197.857437 156.0
197.910645 152.0
197.975052 132.0
198.042267 120.0
198.116379 180.0
198.22998 72.0
198.314056 160.0
198.335861 144.0
198.401215 136.0
198.476883 108.0
198.63092 116.0
198.793655 64.0
198.821732 164.0
198.872253 112.0
198.913971 88.0
199.053757 968.0
199.126633 196.0
199.223267 140.0
199.290695 128.0
199.341095 184.0
199.405914 160.0
199.434021 124.0
199.49025 116.0
199.566895 184.0
199.606201 164.0
199.701141 160.0
199.729279 132.0
199.757401 132.0
199.84462 184.0
199.892456 100.0
199.940308 148.0
199.979706 68.0
200.010666 152.0
200.050339 308.0
200.112015 216.0
200.182419 132.0
200.224655 136.0
200.272537 164.0
200.314804 136.0
200.413406 200.0
200.500763 208.0
200.700928 60.0
200.870148 116.0
200.895538 44.0
201.064331 352.0
201.204926 192.0
201.225739 160.0
201.287872 184.0
201.327408 164.0
201.471466 52.0
201.561874 124.0
201.773865 76.0
201.813461 76.0
201.832291 116.0
201.892944 188.0
201.958664 220.0
202.031235 204.0
202.075027 2436.0
202.152908 40.0
202.189697 36.0
202.240646 108.0
202.305756 168.0
202.331238 116.0
202.35672 188.0
202.526642 236.0
202.572693 200.0
202.579544 184.0
202.65979 96.0
202.864151 168.0
202.932465 140.0
203.074219 2300.0
203.144608 156.0
203.181488 160.0
203.218384 120.0
203.24675 76.0
203.300674 36.0
203.374466 56.0
203.431244 152.0
203.460312 84.0
203.545868 204.0
203.584564 184.0
203.65274 124.0
203.672623 212.0
203.732269 244.0
203.939728 124.0
203.976669 88.0
204.011414 220.0
204.045135 356.0
204.081207 504.0
204.117279 168.0
204.274353 200.0
204.473358 136.0
204.608566 176.0
204.759171 164.0
204.799042 72.0
204.858871 120.0
204.878799 220.0
204.927246 44.0
204.978531 60.0
205.032684 176.0
205.070572 188.0
205.34346 172.0
205.437592 148.0
205.486084 124.0
205.592575 164.0
205.641586 180.0
205.721573 292.0
205.754776 172.0
205.78421 276.0
205.868591 152.0
206.022842 156.0
206.051407 132.0
206.074265 208.0
206.094269 180.0
206.137131 76.0
206.30864 164.0
206.380112 184.0
206.414429 88.0
206.494507 136.0
206.674728 128.0
206.829285 128.0
206.849319 136.0
206.869354 196.0
206.946655 188.0
206.983887 160.0
207.003937 112.0
207.059341 4636.0
207.153259 148.0
207.188278 192.0
207.247421 56.0
207.298187 140.0
207.407913 288.0
207.47435 136.0
207.531189 184.0
207.565598 104.0
207.648163 224.0
207.787979 232.0
207.856583 120.0
207.927078 144.0
207.952911 132.0
208.055542 3624.0
208.10614 176.0
208.139526 80.0
208.171112 108.0
208.19519 76.0
208.221054 164.0
208.265884 184.0
208.326218 68.0
208.372177 148.0
208.433868 72.0
208.551743 68.0
208.596344 152.0
208.627975 164.0
208.673981 156.0
208.731476 100.0
208.774612 40.0
208.872406 124.0
208.8983 92.0
208.918442 308.0
209.069534 1164.0
209.173492 64.0
209.243668 168.0
209.292603 136.0
209.3358 80.0
209.38028 72.0
209.425095 64.0
209.490814 44.0
209.522141 104.0
209.58931 140.0
209.733414 200.0
209.937286 124.0
210.07074 592.0
210.140488 132.0
210.20929 56.0
210.252579 104.0
210.460434 204.0
210.559738 176.0
210.665497 132.0
210.78685 136.0
210.974731 32.0
211.0504 512.0
211.114273 92.0
211.174255 216.0
211.203186 160.0
211.301544 32.0
211.347839 40.0
211.381638 124.0
211.391953 164.0
211.463608 112.0
211.533066 28.0
211.651779 92.0
211.714615 196.0
211.787903 112.0
211.866119 128.0
212.005203 112.0
212.052353 196.0
212.126938 172.0
212.147232 84.0
212.193619 200.0
212.303818 220.0
212.332581 148.0
212.428543 340.0
212.492355 48.0
212.544586 108.0
212.634552 60.0
212.704224 140.0
212.739059 100.0
212.770996 140.0
212.805832 128.0
212.861008 144.0
212.924896 120.0
213.029465 164.0
213.066315 388.0
213.131165 32.0
213.397034 212.0
213.532349 188.0
213.610886 132.0
213.663254 48.0
213.770905 152.0
213.942642 136.0
214.065308 2408.0
214.187271 44.0
214.280487 80.0
214.309631 52.0
214.382477 44.0
214.454437 64.0
214.525299 76.0
214.563202 92.0
214.650681 260.0
214.703171 72.0
214.840271 96.0
214.881119 184.0
214.909195 148.0
214.939468 200.0
214.977417 152.0
215.023773 176.0
215.084427 11312.0
215.19635 52.0
215.348206 64.0
215.377411 56.0
215.429993 48.0
215.481293 132.0
215.564407 196.0
215.71347 156.0
215.760239 80.0
215.835007 168.0
215.953247 128.0
216.00882 164.0
216.083817 2832.0
216.24585 84.0
216.282379 160.0
216.316101 92.0
216.477127 80.0
216.58609 160.0
216.651535 196.0
216.721741 200.0
216.784744 180.0
216.850342 136.0
216.879532 128.0
216.910767 148.0
216.954742 72.0
216.987 100.0
217.084686 228.0
217.139481 116.0
217.312561 92.0
217.404144 96.0
217.435822 48.0
217.471039 180.0
217.512131 200.0
217.557831 116.0
217.638504 180.0
217.700043 132.0
217.791092 140.0
217.842606 124.0
217.888046 44.0
217.963699 144.0
217.990891 160.0
218.020279 216.0
218.059113 5272.0
218.101379 224.0
218.133759 92.0
218.209946 92.0
218.284851 72.0
218.326431 148.0
218.365158 184.0
218.481934 56.0
218.564316 236.0
218.58786 100.0
218.646713 124.0
218.676147 124.0
218.726562 128.0
218.790955 100.0
218.811569 132.0
218.839813 140.0
218.865112 144.0
218.932297 148.0
219.060928 748.0
219.104218 220.0
219.156174 100.0
219.226898 64.0
219.274048 156.0
219.344803 156.0
219.386063 28.0
219.406708 172.0
219.554138 160.0
219.6754 148.0
219.717316 204.0
219.758713 176.0
219.897308 176.0
219.940674 216.0
220.002655 104.0
220.06572 9052.0
220.136337 128.0
220.182022 160.0
220.228622 100.0
220.25679 200.0
220.362991 244.0
220.413223 164.0
220.466415 80.0
220.495972 144.0
220.565994 144.0
220.60144 148.0
220.625259 184.0
220.646729 128.0
220.676254 240.0
220.720642 104.0
220.74852 216.0
220.782745 96.0
220.813858 224.0
220.892197 56.0
220.931351 204.0
220.967758 176.0
221.0271 144.0
221.063202 35624.0
221.178741 72.0
221.219101 268.0
221.260666 140.0
221.317291 164.0
221.342773 84.0
221.375473 92.0
221.406998 52.0
221.425873 116.0
221.454605 180.0
221.490158 148.0
221.557083 196.0
221.613037 176.0
221.624176 84.0
221.634903 148.0
221.667923 132.0
221.700119 88.0
221.706207 48.0
221.739059 52.0
221.762772 224.0
221.788208 116.0
221.822052 96.0
221.961105 124.0
221.981049 172.0
222.03537 252.0
222.06926 16712.0
222.114594 104.0
222.149551 64.0
222.191162 56.0
222.240234 60.0
222.278809 52.0
222.321732 104.0
222.355789 172.0
222.418304 76.0
222.439087 48.0
222.492523 168.0
222.563782 140.0
222.652878 92.0
222.674957 156.0
222.715408 140.0
222.746429 104.0
222.811295 244.0
222.851898 96.0
222.964828 100.0
223.003464 164.0
223.073502 3640.0
223.141525 136.0
223.172928 172.0
223.22348 140.0
223.242722 76.0
223.311371 216.0
223.359436 56.0
223.397552 152.0
223.431686 72.0
223.490311 108.0
223.59964 172.0
223.625122 108.0
223.678696 76.0
223.702515 108.0
223.743225 136.0
223.88414 52.0
223.947464 180.0
224.000305 288.0
224.049011 1268.0
224.087463 860.0
224.134323 196.0
224.16716 36.0
224.232727 68.0
224.289368 144.0
224.319168 160.0
224.348984 68.0
224.411591 104.0
224.447372 196.0
224.469162 184.0
224.535843 192.0
224.558792 108.0
224.614395 176.0
224.730743 52.0
224.799377 52.0
225.058655 392.0
225.084183 492.0
225.121796 80.0
225.196472 64.0
225.375717 204.0
225.537109 96.0
225.60762 88.0
225.641739 48.0
225.758362 96.0
225.809204 56.0
225.928848 168.0
225.960892 184.0
226.0345 260.0
226.068146 908.0
226.180237 64.0
226.273041 156.0
226.320938 68.0
226.356873 128.0
226.443726 128.0
226.538727 168.0
226.584518 120.0
226.620483 168.0
226.727188 144.0
226.813416 64.0
226.845261 72.0
226.921158 292.0
226.953201 124.0
226.980179 80.0
227.004532 164.0
227.030487 312.0
227.07254 33496.0
227.133453 176.0
227.165176 124.0
227.220139 60.0
227.259155 36.0
227.296982 216.0
227.427673 104.0
227.466232 72.0
227.49025 148.0
227.587433 196.0
227.610352 36.0
227.751511 128.0
227.813095 136.0
227.901321 120.0
227.907059 72.0
228.076019 7640.0
228.15419 40.0
228.183807 236.0
228.269257 164.0
228.361694 164.0
228.402084 84.0
228.439987 128.0
228.489319 140.0
228.531525 200.0
228.557236 116.0
228.602371 212.0
228.62645 52.0
228.66951 156.0
228.701706 144.0
228.75589 48.0
228.861267 88.0
228.894379 136.0
228.962326 236.0
228.984726 48.0
229.041962 192.0
229.086716 648.0
229.192596 128.0
229.327667 108.0
229.449341 160.0
229.53624 56.0
229.565781 200.0
229.60376 80.0
229.684036 64.0
229.711182 64.0
229.807037 52.0
229.836899 144.0
229.943527 84.0
229.973709 68.0
230.009933 172.0
230.062637 452.0
230.086838 400.0
230.224304 60.0
230.251495 40.0
230.281693 32.0
230.305862 64.0
230.339081 212.0
230.626144 168.0
230.723557 108.0
230.973892 40.0
231.011505 212.0
231.058823 112.0
231.091888 80.0
231.225037 176.0
231.246216 56.0
231.343094 108.0
231.41272 140.0
231.455109 152.0
231.606552 164.0
231.648956 192.0
231.718643 72.0
231.821671 104.0
231.867126 156.0
231.906525 60.0
231.937912 236.0
231.982315 176.0
232.053833 1552.0
232.155136 76.0
232.179398 152.0
232.227936 48.0
232.249161 92.0
232.272552 176.0
232.30983 144.0
232.358383 92.0
232.412994 116.0
232.449402 132.0
232.496506 276.0
232.804596 40.0
232.895706 104.0
232.987427 196.0
233.014191 164.0
233.072906 7304.0
233.120209 360.0
233.163727 192.0
233.202606 200.0
233.266434 92.0
233.338486 212.0
233.358871 228.0
233.402542 188.0
233.429596 200.0
233.496017 168.0
233.550385 212.0
233.588791 152.0
233.685776 164.0
233.697723 144.0
233.707626 136.0
233.764023 136.0
233.789612 68.0
233.815994 180.0
233.876892 176.0
233.942581 388.0
233.97937 212.0
234.00502 396.0
234.035797 420.0
234.071381 76292.0
234.160812 124.0
234.169434 232.0
234.193924 132.0
234.238068 88.0
234.255264 60.0
234.288986 136.0
234.321198 196.0
234.39621 152.0
234.407272 36.0
234.414856 68.0
234.435562 168.0
234.478317 148.0
234.572708 316.0
234.678604 48.0
234.721802 56.0
234.754669 144.0
234.813293 44.0
234.862396 160.0
234.890762 192.0
234.920059 156.0
234.968872 168.0
235.011856 320.0
235.024872 124.0
235.034134 208.0
235.078094 14192.0
235.15181 152.0
235.191605 280.0
235.230179 88.0
235.259628 176.0
235.281708 128.0
235.304596 148.0
235.32933 120.0
235.351715 128.0
235.387604 172.0
235.427948 188.0
235.478394 132.0
235.528275 232.0
235.551636 224.0
235.619186 80.0
235.670547 84.0
235.69313 92.0
235.720016 60.0
235.760696 168.0
235.845337 188.0
235.882874 212.0
235.928741 84.0
235.961502 40.0
236.017563 108.0
236.085083 6012.0
236.178635 40.0
236.201492 144.0
236.288757 112.0
236.337723 88.0
236.359131 68.0
236.380554 68.0
236.415207 168.0
236.482162 100.0
236.535629 128.0
236.571793 100.0
236.620132 228.0
236.634872 152.0
236.659821 140.0
236.703903 64.0
236.74588 96.0
236.817551 136.0
236.88269 44.0
236.924347 168.0
236.965408 104.0
237.014435 152.0
237.058594 2408.0
237.162796 128.0
237.207535 156.0
237.298004 180.0
237.310852 92.0
237.322983 116.0
237.425232 160.0
237.474304 176.0
237.547928 40.0
237.606216 92.0
237.671936 124.0
237.697784 212.0
237.707031 84.0
237.782501 164.0
237.829468 192.0
237.862427 148.0
237.905777 112.0
237.983917 136.0
238.027222 276.0
238.065353 13540.0
238.151382 164.0
238.269684 84.0
238.386765 160.0
238.410736 240.0
238.445221 92.0
238.490646 44.0
238.591415 152.0
238.677261 84.0
238.787781 88.0
238.85965 44.0
238.933487 44.0
239.019638 112.0
239.066879 1744.0
239.145828 52.0
239.220871 168.0
239.281281 48.0
239.367493 140.0
239.404449 172.0
239.478363 104.0
239.506088 36.0
239.543045 188.0
239.618362 180.0
239.630386 80.0
239.642792 128.0
239.742477 116.0
239.80806 56.0
239.829636 132.0
239.873383 160.0
239.959106 132.0
239.980698 192.0
240.033112 156.0
240.0802 9428.0
240.134674 116.0
240.215088 76.0
240.25293 100.0
240.307648 100.0
240.338501 56.0
240.390961 124.0
240.438232 152.0
240.51442 44.0
240.544022 68.0
240.62088 240.0
240.74942 140.0
240.773773 172.0
240.804672 72.0
240.888062 72.0
240.909698 60.0
241.086182 10500.0
241.161423 56.0
241.194 152.0
241.240372 216.0
241.288345 232.0
241.348373 116.0
241.437195 68.0
241.466095 40.0
241.487747 56.0
241.574356 72.0
241.642426 72.0
241.774582 136.0
241.94574 72.0
241.973602 52.0
242.00618 200.0
242.094742 12600.0
242.153214 160.0
242.202774 28.0
242.230652 84.0
242.267822 52.0
242.319778 52.0
242.376053 56.0
242.438248 48.0
242.478546 184.0
242.546738 140.0
242.590134 88.0
242.618042 176.0
242.668335 216.0
242.704849 36.0
242.732758 68.0
242.757568 52.0
242.833023 208.0
242.918854 104.0
242.946777 48.0
242.987106 148.0
243.033646 128.0
243.096893 1472.0
243.199905 140.0
243.240936 76.0
243.248871 116.0
243.29631 64.0
243.375092 192.0
243.396835 128.0
243.51796 152.0
243.539703 296.0
243.583191 48.0
243.692368 140.0
243.757172 48.0
243.816223 252.0
243.849991 120.0
243.900146 56.0
243.921906 84.0
243.980972 40.0
244.01828 92.0
244.067215 1628.0
244.146866 92.0
244.260864 88.0
244.308441 48.0
244.35939 244.0
244.628067 120.0
244.861603 184.0
244.883408 80.0
244.951935 172.0
244.989502 144.0
245.02243 60.0
245.066269 4120.0
245.188751 104.0
245.29689 160.0
245.391373 52.0
245.431915 88.0
245.459976 184.0
245.491165 152.0
245.514694 148.0
245.625275 136.0
245.650238 124.0
245.672073 56.0
245.718872 112.0
245.756317 152.0
245.787521 156.0
245.840561 56.0
245.8965 148.0
245.936111 248.0
245.982681 108.0
246.024933 300.0
246.071136 35512.0
246.185013 96.0
246.228333 172.0
246.252686 104.0
246.280746 204.0
246.343903 180.0
246.390137 52.0
246.425995 164.0
246.45575 328.0
246.502625 156.0
246.576675 104.0
246.629852 144.0
246.652649 184.0
246.687042 48.0
246.708923 76.0
246.751617 268.0
246.80545 32.0
246.836807 124.0
246.895279 124.0
246.913315 396.0
246.950226 96.0
246.994492 212.0
247.016891 576.0
247.078323 68708.0
247.169983 104.0
247.244553 176.0
247.293533 140.0
247.329987 60.0
247.37735 184.0
247.414902 148.0
247.447937 116.0
247.504913 64.0
247.546539 48.0
247.591553 76.0
247.649277 32.0
247.690445 80.0
247.743073 108.0
247.794815 200.0
247.880402 88.0
247.903381 192.0
247.947769 52.0
248.020813 56.0
248.081207 12460.0
248.137405 152.0
248.173157 60.0
248.1866 84.0
248.19603 140.0
248.274551 36.0
248.305923 36.0
248.334152 64.0
248.368652 84.0
248.423553 40.0
248.456497 60.0
248.527054 164.0
248.614243 132.0
248.658386 116.0
248.701263 56.0
248.763962 108.0
248.841904 140.0
248.875549 200.0
248.936737 100.0
248.958725 72.0
249.012115 104.0
249.086838 2200.0
249.134628 64.0
249.235168 136.0
249.26973 80.0
249.298019 84.0
249.35997 56.0
249.382874 192.0
249.46048 64.0
249.502335 36.0
249.529007 60.0
249.568359 52.0
249.634399 72.0
249.656418 32.0
249.683243 68.0
249.774399 132.0
249.798904 132.0
249.812943 120.0
249.826752 104.0
249.836441 136.0
249.872208 100.0
249.915146 32.0
249.946915 128.0
249.974152 140.0
250.015533 160.0
250.06459 280.0
250.100601 10780.0
250.16301 56.0
250.297806 64.0
250.336182 76.0
250.373978 116.0
250.411774 96.0
250.489182 132.0
250.52832 68.0
250.625244 84.0
250.663803 132.0
250.689011 44.0
250.720535 160.0
250.764664 96.0
250.79187 76.0
250.87999 108.0
250.93338 104.0
250.960114 116.0
251.020035 36.0
251.051208 140.0
251.104294 1596.0
251.166687 80.0
251.284988 80.0
251.357574 56.0
251.420685 64.0
251.458557 72.0
251.514252 72.0
251.771683 184.0
252.050705 288.0
252.072372 240.0
252.116516 228.0
252.311478 152.0
252.368378 76.0
252.428467 40.0
252.554977 56.0
252.621414 128.0
252.69101 48.0
252.735306 128.0
252.792267 44.0
252.892944 152.0
252.916885 224.0
253.06134 128.0
253.08667 176.0
253.1595 80.0
253.232346 104.0
253.359055 80.0
253.469955 52.0
253.603058 116.0
253.850357 148.0
253.904266 68.0
254.067963 704.0
254.164413 156.0
254.186615 56.0
254.342133 76.0
254.707321 156.0
254.993286 236.0
255.05719 172.0
255.241257 60.0
255.374832 72.0
255.425735 116.0
255.479019 48.0
255.559357 84.0
255.635727 76.0
255.715286 116.0
255.957245 76.0
255.98909 144.0
256.030487 156.0
256.08783 56.0
256.13559 96.0
256.336334 152.0
256.489319 52.0
256.620026 36.0
256.741211 128.0
256.786682 156.0
257.056061 180.0
257.108093 156.0
257.567871 112.0
257.721252 152.0
257.746796 112.0
257.861847 72.0
257.97052 68.0
258.069122 616.0
258.13681 96.0
258.245544 72.0
258.32724 208.0
258.450287 140.0
258.491882 60.0
258.610291 152.0
258.876038 52.0
259.074493 2064.0
259.516937 52.0
259.552216 60.0
259.613129 80.0
259.743103 132.0
259.908264 76.0
259.930725 120.0
260.086761 5876.0
260.184296 184.0
260.2453 140.0
260.296692 128.0
260.348083 56.0
260.563293 104.0
260.648315 112.0
260.704681 88.0
260.810944 124.0
260.858948 168.0
260.929688 108.0
260.968262 88.0
261.045837 160.0
261.092407 7896.0
261.14978 164.0
261.180542 108.0
261.253906 188.0
261.277039 96.0
261.334961 168.0
261.416199 112.0
261.510284 164.0
261.567932 164.0
261.608521 40.0
261.697754 124.0
261.737305 48.0
261.759857 92.0
261.817841 28.0
261.888672 192.0
261.924133 316.0
261.961426 296.0
261.969757 172.0
262.007355 72.0
262.102142 62000.0
262.19931 124.0
262.255219 132.0
262.353882 256.0
262.411102 36.0
262.462189 132.0
262.503326 136.0
262.554688 152.0
262.591339 44.0
262.633911 32.0
262.671326 76.0
262.707489 76.0
262.76062 76.0
262.80426 40.0
262.831696 52.0
262.852661 176.0
262.881714 52.0
262.950287 48.0
262.971832 52.0
263.014038 260.0
263.056458 168.0
263.10434 9860.0
263.207062 84.0
263.283936 116.0
263.314056 48.0
263.398315 48.0
263.433838 48.0
263.492004 76.0
263.536102 160.0
263.576019 100.0
263.604797 72.0
263.630493 56.0
263.709137 84.0
263.756317 76.0
263.802246 128.0
263.840179 44.0
263.889557 60.0
263.912201 56.0
263.947998 56.0
263.980103 112.0
264.054474 152.0
264.108002 940.0
264.248566 52.0
264.27124 120.0
264.358582 108.0
264.419525 116.0
264.452454 76.0
264.478363 72.0
264.536804 68.0
264.708221 56.0
264.792419 76.0
264.818329 88.0
264.844238 140.0
264.921997 76.0
264.964111 152.0
264.993439 76.0
265.02243 76.0
265.064331 160.0
265.082214 116.0
265.095276 84.0
265.107452 156.0
265.16748 212.0
265.346558 112.0
265.437347 76.0
265.515198 36.0
265.559052 76.0
265.664398 72.0
265.700073 96.0
265.784454 128.0
265.807159 52.0
265.829895 112.0
265.931702 100.0
266.09491 132.0
266.138275 108.0
266.349365 32.0
266.534546 44.0
266.576813 72.0
266.88562 136.0
266.921387 60.0
266.950653 60.0
267.070984 160.0
267.155579 48.0
267.741486 40.0
268.109253 276.0
268.486115 84.0
268.526978 96.0
268.611786 100.0
268.931549 116.0
269.107849 136.0
269.209076 68.0
269.287476 84.0
270.972198 44.0
271.047577 92.0
272.054291 304.0
272.208832 64.0
272.238403 40.0
273.00412 148.0
273.550323 148.0
273.701782 68.0
274.093781 156.0
274.139893 104.0
274.350861 100.0
274.449768 44.0
274.660858 80.0
275.04364 132.0
275.12616 176.0
275.682587 124.0
275.912476 88.0
275.995117 40.0
276.11087 96.0
276.352356 84.0
277.11142 768.0
277.379059 52.0
277.54483 36.0
278.108246 188.0
279.051758 120.0
279.09552 76.0
280.112946 1064.0
280.253906 56.0
280.450531 48.0
280.497192 160.0
281.087524 144.0
281.116058 300.0
281.257751 96.0
281.685181 36.0
282.357056 144.0
283.039734 72.0
283.267487 44.0
283.300995 116.0
283.41156 52.0
283.951294 32.0
284.078766 36.0
284.256592 144.0
285.08609 176.0
285.112976 196.0
286.330902 56.0
288.547974 112.0
289.830811 144.0
289.990082 68.0
290.118896 140.0
290.668365 52.0
290.89917 84.0
291.125824 240.0
291.8573 96.0
292.054535 124.0
292.139771 592.0
292.605835 96.0
293.131836 136.0
293.181519 108.0
293.362183 120.0
294.085358 64.0
294.187775 156.0
294.611237 120.0
295.021362 72.0
295.73288 28.0
296.082123 40.0
296.578949 168.0
296.654358 128.0
297.865753 40.0
298.006592 148.0
298.174988 104.0
299.14502 60.0
299.169098 60.0
300.782471 92.0
300.841156 48.0
300.910187 124.0
301.470886 76.0
305.136719 160.0
305.276337 124.0
305.662476 120.0
305.690308 88.0
305.777313 112.0
306.146362 148.0
306.22995 164.0
306.763092 136.0
306.846771 104.0
306.93045 164.0
306.954865 132.0
307.097839 148.0
307.15802 5012.0
307.247864 68.0
307.523529 144.0
307.69458 60.0
307.818726 64.0
307.846191 124.0
308.161743 1216.0
308.197571 152.0
308.361816 204.0
308.435211 60.0
308.466675 40.0
308.547424 40.0
308.662476 64.0
308.802368 48.0
309.171173 460.0
309.905121 100.0
310.104858 40.0
310.360779 148.0
311.087067 108.0
311.979401 48.0
312.475281 80.0
312.869476 140.0
313.034973 96.0
313.34494 68.0
313.454193 140.0
313.753784 88.0
314.057068 164.0
314.272278 172.0
315.954102 136.0
316.141632 64.0
317.193604 112.0
317.420502 152.0
318.144348 76.0
318.726837 48.0
318.915192 44.0
320.032288 52.0
320.766205 52.0
321.543793 96.0
323.087524 136.0
323.151917 116.0
323.47403 76.0
324.165283 156.0
324.864471 48.0
324.944763 148.0
325.040283 144.0
325.170013 14860.0
325.237671 40.0
325.280762 144.0
325.31308 56.0
325.362244 56.0
325.445923 36.0
325.478241 32.0
325.582367 80.0
325.620941 76.0
325.709656 64.0
325.769165 104.0
325.948792 100.0
325.984039 116.0
326.070984 92.0
326.121307 76.0
326.171509 2252.0
326.247894 96.0
326.35141 72.0
326.484467 88.0
326.531219 176.0
327.106415 56.0
327.142944 100.0
327.178009 340.0
327.29776 132.0
327.643524 100.0
327.69397 88.0
327.816498 88.0
327.902985 56.0
327.971466 88.0
328.036346 128.0
328.133698 92.0
328.180573 112.0
328.223846 88.0
328.324829 40.0
328.444031 76.0
328.667542 80.0
329.458252 84.0
329.512451 84.0
329.920837 80.0
331.162048 44.0
332.666931 48.0
334.393585 68.0
334.94342 84.0
336.96817 48.0
338.947723 116.0
340.756714 52.0
343.031128 64.0
343.079071 64.0
345.405609 68.0
346.860931 128.0
348.211578 68.0
348.705719 120.0
349.014282 40.0
352.738922 68.0
353.891235 72.0
355.488129 76.0
356.246582 88.0
356.964478 112.0
359.250793 104.0
360.005707 76.0
362.104767 60.0
362.460876 88.0
364.905365 80.0
365.430237 80.0
366.328735 120.0
369.069122 44.0
369.413361 48.0
370.53891 60.0
370.61322 80.0
370.77652 120.0
371.052521 44.0
372.603088 40.0
373.183472 84.0
376.443451 92.0
376.77951 64.0
379.585785 48.0
382.931976 112.0
385.882233 104.0
385.940857 108.0
386.695923 56.0
387.710327 116.0
388.75351 36.0
389.38559 104.0
391.170776 148.0
392.017609 72.0
394.421295 124.0
399.071716 64.0
400.058411 64.0
401.636505 68.0
402.570435 72.0
403.425507 112.0
405.390839 48.0
405.739563 52.0
406.168671 64.0
411.28717 40.0
412.321167 88.0
412.487396 96.0
415.646057 56.0
416.864319 100.0
416.929352 108.0
417.421234 76.0
418.984283 64.0
419.232819 36.0
419.962646 124.0
420.574707 48.0
420.893158 64.0
424.90033 108.0
427.052948 84.0
430.279663 60.0
430.638947 64.0
431.312469 80.0
433.058624 100.0
434.410004 80.0
435.181946 32.0
435.684509 76.0
436.133331 120.0
437.135681 80.0
437.910034 112.0
444.259796 68.0
445.111847 148.0
445.750366 48.0
445.905853 48.0
446.767914 84.0
449.30838 88.0
455.374573 132.0
455.663452 88.0
455.705933 104.0
456.471069 56.0
460.83606 80.0
464.668152 80.0
464.908447 40.0
469.270386 64.0
470.52594 64.0
471.061462 84.0
474.159607 80.0
475.17868 44.0
478.447052 156.0
482.9375 84.0
488.974976 92.0
489.908508 44.0
491.486938 100.0
492.85141 76.0
498.421417 76.0
498.937012 64.0
499.488434 64.0
500.694702 60.0
500.944122 44.0
500.988678 132.0
511.679382 76.0
513.423279 104.0
515.644592 76.0
524.245117 96.0
524.673584 112.0
526.170044 36.0
527.101868 108.0
530.874023 68.0
533.58783 84.0
535.474548 48.0
539.031555 100.0
541.26123 68.0
546.678711 132.0
548.024536 68.0
548.53717 76.0
549.721863 96.0
551.931458 36.0
558.154053 88.0
559.768188 124.0
560.210938 112.0
564.335938 44.0
565.689026 60.0
566.503601 108.0
574.791016 80.0
575.31604 64.0
575.45929 104.0
583.234741 40.0
585.346863 76.0
587.03833 56.0
587.207153 60.0
590.975281 40.0
593.16925 96.0
594.367188 56.0
598.971436 80.0
600.365417 60.0
601.160645 32.0
602.576721 76.0
611.167297 124.0
614.813965 64.0
615.213806 108.0
618.753662 72.0
619.600586 60.0
626.352051 72.0
634.117004 52.0
642.308105 64.0
648.603821 104.0
648.811646 48.0
651.4151 80.0
654.008545 56.0
663.392578 180.0
668.451904 48.0
669.35791 44.0
672.461548 112.0
679.100037 88.0
683.984436 40.0
685.619995 132.0
690.057129 80.0
692.721008 84.0
698.548157 96.0
704.135559 56.0
704.299316 48.0
709.761108 68.0
712.027222 148.0
713.61615 60.0
727.845764 108.0
733.58667 36.0
734.417114 68.0
736.484436 88.0
738.273499 68.0
745.255615 156.0
758.068481 96.0
767.970459 92.0
771.676086 84.0
773.413208 216.0
775.252014 140.0
776.693604 140.0
782.328552 168.0
784.858093 128.0
787.46991 36.0
791.463013 68.0
793.958923 52.0
797.246704 120.0
799.136169 116.0
804.642883 112.0
806.56366 56.0
815.678894 40.0
823.171326 160.0
825.765991 116.0
826.7901 56.0
831.673462 172.0
835.782715 100.0
838.616211 84.0
843.782898 152.0
848.571167 120.0
854.280273 92.0
856.88269 112.0
860.714966 40.0
861.334045 152.0
862.82428 208.0
865.550903 112.0
866.060486 56.0
872.204163 184.0
873.60376 208.0
876.547729 164.0
876.700317 188.0
879.862671 92.0
882.231812 124.0
883.852417 232.0
885.385681 80.0
889.987549 60.0
893.857361 96.0
895.315857 36.0
896.960388 84.0
897.729553 228.0
900.713867 144.0
902.829773 152.0
903.667236 144.0
910.381042 48.0
914.722229 84.0
916.914734 112.0
919.254761 164.0
919.61084 168.0
921.289612 180.0
924.252258 96.0
928.28064 88.0
931.46106 112.0
931.813416 164.0
931.88031 56.0
932.921387 172.0
933.041199 168.0
934.312317 48.0
935.2677 184.0
935.724304 172.0
937.17395 48.0
937.698059 48.0
940.125427 48.0
941.053284 176.0
941.279236 116.0
942.555969 136.0
942.714844 196.0
943.533936 136.0
944.041443 120.0
944.304443 180.0
945.313904 132.0
946.372925 72.0
946.507629 124.0
950.418518 144.0
951.486511 156.0
951.897888 224.0
952.395386 176.0
953.446045 44.0
954.484985 144.0
955.499878 44.0
957.204956 164.0
958.030273 192.0
958.319885 40.0
958.406128 168.0
959.460083 172.0
961.409363 164.0
962.119202 168.0
963.181396 184.0
964.055725 148.0
964.658325 180.0
966.055969 136.0
966.253967 144.0
967.40509 64.0
967.596985 124.0
968.055237 56.0
968.92865 164.0
969.437561 212.0
969.746643 204.0
969.994568 176.0
970.750977 160.0
971.265808 152.0
971.749695 64.0
971.805542 164.0
972.599915 224.0
974.121338 116.0
974.450623 180.0
974.556213 180.0
975.389038 168.0
975.662598 160.0
978.449829 120.0
979.446289 136.0
979.496094 108.0
981.384521 168.0
981.939514 184.0
982.370789 148.0
982.64447 156.0
984.16748 128.0
984.529663 140.0
985.891602 232.0
987.804932 172.0
988.649658 168.0
989.062744 228.0
990.459167 152.0
990.571899 180.0
990.665894 112.0
992.696716 228.0
994.378113 140.0
996.060913 52.0
996.349915 176.0
996.563538 176.0
996.626343 172.0
996.883972 184.0
998.575195 312.0
998.81427 144.0
999.267212 108.0
1001.722534 84.0
1002.674011 36.0
1003.108948 168.0
1003.247681 64.0
1004.389099 40.0
1004.792847 200.0
1004.944275 232.0
1005.404907 212.0
1006.200317 188.0
1006.250793 144.0
1006.635986 92.0
1007.084412 224.0
1007.248657 76.0
1007.311829 160.0
1007.785645 68.0
1008.967957 152.0
1009.100403 88.0
1009.505066 176.0
1009.707458 192.0
1010.740234 224.0
1012.821594 68.0
1013.35376 148.0
1015.609985 140.0
1016.581421 116.0
1018.822876 52.0
1019.674377 200.0
1021.804688 244.0
1021.919189 164.0
1022.421936 156.0
1022.714722 56.0
1023.306763 180.0
1023.676086 148.0
1024.217529 56.0
1024.676147 156.0
1024.982056 216.0
1025.039429 144.0
1025.103149 132.0
1025.389893 160.0
1025.721313 172.0
1025.772339 208.0
1025.86792 232.0
1026.429077 132.0
1026.582153 136.0
1027.602783 188.0
1028.521729 224.0
1028.694092 56.0
1028.866455 160.0
1030.5271 116.0
1030.610107 216.0
1030.827393 196.0
1032.182617 152.0
1033.314819 168.0
1034.569214 232.0
1035.145508 176.0
1035.350464 176.0
1036.74707 32.0
1036.856079 168.0
1036.907349 32.0
1037.041992 160.0
1039.209595 132.0
1039.260864 40.0
1039.442261 136.0
1040.499634 136.0
1040.833618 184.0
1041.694214 56.0
1044.458374 136.0
1044.599976 244.0
1044.664307 176.0
1047.232666 200.0
1047.45166 136.0
1048.379517 180.0
1049.468994 40.0
1049.888184 140.0
1052.333862 168.0
1053.102417 232.0
1053.703125 196.0
1054.155518 184.0
1054.207153 188.0
1056.606201 116.0
1056.929688 232.0
1057.589844 148.0
1057.829346 196.0
1059.247559 120.0
1059.383545 176.0
1060.407349 196.0
1061.885742 156.0
1062.307373 144.0
1063.805664 164.0
1064.137573 164.0
1064.579102 64.0
1065.163696 44.0
1065.793945 136.0
1067.04834 120.0
1067.458008 184.0
1067.646606 52.0
1068.192993 192.0
1071.29834 164.0
1071.545044 144.0
1072.243164 156.0
1072.288818 200.0
1072.653809 192.0
1073.364502 176.0
1073.488403 148.0
1074.055786 164.0
1074.258057 80.0
1074.342896 144.0
1074.871338 204.0
1075.922241 196.0
1077.444336 160.0
1077.489746 208.0
1077.705322 168.0
1077.822998 188.0
1078.293457 136.0
1079.359131 128.0
1079.821899 212.0
1080.222534 48.0
1080.549561 176.0
1081.105835 220.0
1081.400269 200.0
1081.950195 36.0
1082.939087 156.0
1083.050415 188.0
1083.181396 132.0
1083.353516 144.0
1083.456543 68.0
1083.690186 204.0
1083.78418 188.0
1084.839355 140.0
1086.236206 116.0
1087.292603 140.0
1087.509277 196.0
1087.765259 148.0
1088.26416 188.0
1089.058838 204.0
1089.761841 276.0
1090.26123 176.0
1090.418945 136.0
1091.470825 152.0
1091.871948 152.0
1092.871948 208.0
1092.944336 140.0
1093.36731 204.0
1094.042358 112.0
1094.142212 120.0
1094.669067 160.0
1095.505493 60.0
1095.683472 128.0
1096.026001 172.0
1096.355591 92.0
1096.737793 196.0
1097.120117 152.0
1097.298218 80.0
1097.575073 132.0
1097.944458 120.0
1098.41272 168.0
1098.472168 48.0
1099.065918 112.0
1099.197876 172.0
1099.38269 132.0
1100.016357 144.0
1100.425659 156.0
1101.786255 136.0
1101.924927 144.0
1102.328003 192.0
1102.737793 168.0
1102.995605 176.0
1103.9646 172.0
1104.774536 216.0
1105.330322 168.0
1105.978882 76.0
1106.084839 108.0
1106.362915 112.0
1106.773438 60.0
1107.46875 136.0
1107.647583 184.0
1108.250488 104.0
1108.495728 52.0
1109.198242 144.0
1109.504272 156.0
1110.031616 196.0
1110.239258 204.0
1110.769897 176.0
1110.98877 192.0
1111.141357 116.0
1111.725342 244.0
1111.917847 120.0
1112.754272 148.0
1114.45459 116.0
1114.859985 176.0
1115.526001 212.0
1115.655884 112.0
1116.202881 152.0
1117.107422 64.0
1117.313721 148.0
1118.180786 148.0
1118.31189 116.0
1118.538208 104.0
1120.016479 216.0
1121.915771 76.0
1122.23584 160.0
1122.535889 148.0
1122.922729 256.0
1124.784302 80.0
1125.311768 216.0
1126.037842 204.0
1126.306885 148.0
1126.848022 160.0
1127.590088 244.0
1127.710083 224.0
1129.094116 192.0
1130.117676 224.0
1130.545898 184.0
1130.753418 120.0
1130.827515 240.0
1131.876831 148.0
1133.197632 108.0
1134.149292 100.0
1134.449829 160.0
1134.699097 188.0
1134.752686 156.0
1134.994141 132.0
1135.262329 96.0
1135.362915 164.0
1135.550781 160.0
1135.812378 132.0
1135.919678 48.0
1137.013428 176.0
1137.422852 208.0
1137.644409 164.0
1138.094238 124.0
1138.584473 92.0
1140.237183 192.0
1140.976685 108.0
1141.507812 184.0
1141.891235 180.0
1142.570679 156.0
1143.014771 172.0
1143.384888 164.0
1144.704346 208.0
1145.499146 144.0
1145.559814 164.0
1146.051636 112.0
1146.15271 156.0
1146.848022 148.0
1147.378296 180.0
1147.763794 164.0
1147.824463 96.0
1147.952637 184.0
1148.067261 64.0
1148.78894 240.0
1149.220825 144.0
1149.814697 192.0
1149.929443 128.0
1150.374878 116.0
1151.696167 180.0
1151.934937 200.0
1152.35376 108.0
1152.428101 200.0
1153.33374 188.0
1153.78125 256.0
1155.328613 116.0
1156.113525 200.0
1156.343628 128.0
1157.237305 136.0
1157.393066 72.0
1158.585083 136.0
1159.451538 180.0
1159.499878 204.0
1160.103149 216.0
1160.22522 164.0
1161.167847 228.0
1161.344116 148.0
1161.988647 56.0
1162.8573 64.0
1162.999756 216.0
1164.154053 164.0
1164.24231 148.0
1164.459717 200.0
1164.710083 144.0
1164.982666 192.0
1165.098145 160.0
1165.159302 164.0
1166.008789 176.0
1166.443848 180.0
1166.722534 176.0
1166.899292 156.0
1167.456909 148.0
1167.87854 188.0
1168.497681 72.0
1168.810669 100.0
1169.409546 172.0
1169.661377 156.0
1169.736328 144.0
1170.083496 212.0
1170.586792 144.0
1170.77124 140.0
1171.922485 192.0
1171.983887 132.0
1172.460938 172.0
1172.699463 192.0
1173.108398 168.0
1173.34021 132.0
1173.756226 176.0
1173.967529 180.0
1174.66333 172.0
1175.031738 196.0
1175.966675 100.0
1176.014404 140.0
1176.219238 92.0
1178.069824 188.0
1178.226929 112.0
1178.281616 152.0
1178.425171 160.0
1178.882935 116.0
1178.944458 156.0
1179.074341 176.0
1179.217896 148.0
1179.709961 136.0
1179.997192 68.0
1180.900391 212.0
1181.118774 84.0
1181.837158 128.0
1182.446167 160.0
1184.575684 156.0
1184.767578 172.0
1185.110107 132.0
1185.445923 36.0
1185.747437 44.0
1186.030884 128.0
1186.110718 132.0
1186.240967 128.0
1186.645508 152.0
1187.214722 200.0
1188.682739 44.0
1189.046509 124.0
1189.115112 188.0
1189.296997 160.0
1189.424072 28.0
1189.781006 120.0
1190.144897 96.0
1190.357788 152.0
1190.817871 196.0
1191.154541 108.0
1191.429321 160.0
1191.614868 168.0
1191.869019 188.0
1192.068359 124.0
1192.473877 128.0
1192.700684 204.0
1192.865601 84.0
1193.003174 148.0
1193.704468 164.0
1195.43811 164.0
1195.555054 172.0
1195.786133 120.0
1196.270874 168.0
1196.422363 132.0
1197.290039 144.0
1197.703247 160.0
1197.896118 128.0
1197.944336 184.0
1198.219971 124.0
1198.46106 84.0
1200.239502 136.0
1200.784424 96.0
1201.032715 136.0
1202.164185 172.0
1202.958008 196.0
1203.47583 72.0
1204.09729 212.0
1204.159424 128.0
1205.539185 184.0
1208.009033 188.0
1208.035522 168.0
1208.065674 144.0
1208.087158 180.0
1208.390259 100.0
1209.282959 208.0
1209.663696 188.0
1210.113647 176.0
1210.688477 164.0
1211.568115 112.0
1211.637451 160.0
1211.997803 260.0
1213.293945 68.0
1213.363159 204.0
1214.139893 48.0
1214.365845 180.0
1214.576904 176.0
1214.958374 136.0
1215.634766 200.0
1216.221436 232.0
1216.318604 68.0
1217.026733 164.0
1217.089233 124.0
1217.248901 156.0
1217.339233 100.0
1218.249146 92.0
1218.485352 160.0
1218.568726 148.0
1219.208008 148.0
1219.27063 116.0
1219.354004 160.0
1219.479126 196.0
1219.569458 188.0
1220.056152 128.0
1220.264648 116.0
1220.667969 96.0
1220.987915 96.0
1221.488647 84.0
1221.815674 172.0
1222.504517 248.0
1223.165771 140.0
1223.35376 176.0
1223.502319 232.0
1223.561157 136.0
1223.814453 232.0
1224.552246 208.0
1225.533691 160.0
1225.92395 112.0
1226.948608 108.0
1227.053223 148.0
1227.220581 144.0
1227.659912 232.0
1228.873657 164.0
1229.145752 132.0
1230.129883 140.0
1231.379883 104.0
1231.652222 40.0
1232.183228 80.0
1232.232178 136.0
1232.378906 188.0
1232.455688 164.0
1232.686279 184.0
1232.902954 168.0
1233.077637 120.0
1233.678833 68.0
1234.091309 152.0
1234.140259 188.0
1234.43396 156.0
1234.545166 164.0
1236.042969 140.0
1236.140991 316.0
1236.938843 176.0
1237.22583 196.0
1237.519775 140.0
1238.514404 136.0
1238.83667 108.0
1239.488281 136.0
1239.689575 100.0
1239.761597 132.0
1239.92981 188.0
1240.04187 240.0
1240.30127 196.0
1241.577759 144.0
1242.103394 140.0
1242.535889 144.0
1243.226074 60.0
1243.387451 60.0
1243.710327 144.0
1243.801636 184.0
1244.21582 192.0
1244.440552 156.0
1244.777588 164.0
1245.002319 112.0
1245.732788 64.0
1245.838135 112.0
1246.161377 172.0
1246.484619 108.0
1246.63916 100.0
1246.808716 168.0
1247.011719 188.0
1247.088989 180.0
1248.220947 200.0
1249.880493 212.0
1250.00769 64.0
1250.524048 148.0
1250.958008 168.0
1251.739502 188.0
1251.942871 136.0
1252.077515 156.0
1252.408569 200.0
1252.536987 124.0
1252.873535 180.0
1253.581421 140.0
1253.733154 176.0
1253.923462 136.0
1254.445068 136.0
1254.797607 200.0
1255.425171 200.0
1256.737305 128.0
1257.400635 116.0
1257.555908 88.0
1257.831299 196.0
1258.749146 104.0
1258.812622 204.0
1259.60376 152.0
1259.730835 200.0
1260.359741 160.0
1260.486938 144.0
1260.826172 224.0
1261.264282 96.0
1261.686279 200.0
1262.133911 128.0
1263.088745 164.0
1263.159546 144.0
1263.944824 124.0
1264.051025 84.0
1264.249146 140.0
1264.539307 152.0
1264.673828 192.0
1265.13147 152.0
1265.72876 112.0
1266.089844 116.0
1266.493652 144.0
1267.081543 120.0
1267.159546 144.0
1267.278076 168.0
1267.506714 188.0
1268.123291 140.0
1268.810913 108.0
1269.619263 144.0
1269.860474 52.0
1270.094604 180.0
1270.548584 156.0
1271.378784 136.0
1271.49231 184.0
1271.783325 168.0
1271.982178 172.0
1272.415161 76.0
1272.812866 164.0
1272.912964 192.0
1273.345459 188.0
1273.949219 156.0
1274.091309 104.0
1274.452881 180.0
1274.872925 120.0
1275.093262 128.0
1275.306519 108.0
1275.740112 248.0
1276.903809 188.0
1276.957031 156.0
1277.75061 204.0
1277.902222 136.0
1278.18689 192.0
1278.507202 156.0
1279.354248 152.0
1280.76416 128.0
1281.063354 72.0
1281.312744 132.0
1281.518066 212.0
1281.597778 160.0
1283.458252 132.0
1283.817505 160.0
1284.199951 112.0
1284.26416 152.0
1284.956055 132.0
1285.127319 168.0
1285.40564 192.0
1286.230713 216.0
1287.20459 168.0
1287.325928 116.0
1287.390259 52.0
1287.45459 220.0
1288.252808 184.0
1288.368896 164.0
1288.640381 164.0
1289.111938 104.0
1289.283447 144.0
1290.319946 176.0
1290.405762 84.0
1290.620361 156.0
1290.749023 68.0
1290.89209 152.0
1291.471313 168.0
1291.521484 44.0
1291.893433 84.0
1292.007935 148.0
1292.454956 188.0
1292.902344 104.0
1292.988281 128.0
1293.053223 108.0
1294.133667 152.0
1294.276855 184.0
1294.957153 132.0
1295.063477 120.0
1295.22937 192.0
1295.408447 108.0
1295.730835 160.0
1295.917114 176.0
1296.103516 64.0
1296.461792 164.0
1296.863159 156.0
1297.135498 184.0
1297.278931 152.0
1297.68042 140.0
1297.730591 308.0
1297.921387 196.0
1298.372925 128.0
1298.684448 144.0
1299.236816 128.0
1299.416138 100.0
1299.588379 156.0
1299.932861 156.0
1299.990234 156.0
1300.578735 120.0
1300.693604 208.0
1300.908936 136.0
1301.433105 152.0
1301.835205 188.0
1302.04126 236.0
1302.136841 168.0
1302.309326 172.0
1302.661255 100.0
1302.790527 180.0
1302.855225 144.0
1303.609741 148.0
1303.753418 132.0
1303.918701 128.0
1304.436279 164.0
1304.529785 136.0
1304.673584 148.0
1304.853271 204.0
1304.975464 40.0
1305.061768 152.0
1305.241577 104.0
1306.30603 156.0
1306.795288 224.0
1307.126221 172.0
1307.19104 196.0
1308.191528 140.0
1308.537109 40.0
1309.610107 128.0
1310.254395 204.0
1310.827759 156.0
1310.957397 184.0
1311.613281 136.0
1312.39917 164.0
1312.983276 176.0
1313.199707 136.0
1313.798462 160.0
1314.000488 160.0
1314.108643 180.0
1314.291016 152.0
1314.373779 200.0
1314.483887 144.0
1314.844727 132.0
1314.895264 132.0
1314.981934 76.0
1315.075684 168.0
1315.640381 184.0
1316.223633 148.0
1316.591919 148.0
1316.729126 180.0
1316.924194 76.0
1317.162598 144.0
1317.37207 128.0
1317.603271 132.0
1318.015137 112.0
1319.540283 208.0
1320.422485 124.0
1320.538208 116.0
1320.718994 184.0
1321.384644 64.0
1321.941772 196.0
1322.144409 116.0
1322.614868 228.0
1322.955078 172.0
1323.251587 152.0
1323.638306 212.0
1323.723145 144.0
1323.80957 104.0
1324.47583 140.0
1324.925049 84.0
1325.149658 136.0
1325.222046 176.0
1325.461182 148.0
1326.881958 204.0
1327.106689 124.0
1327.237183 248.0
1327.708618 120.0
1327.795654 120.0
1328.259888 216.0
1328.550049 188.0
1328.629883 192.0
1328.731445 184.0
1328.876465 168.0
1329.028931 132.0
1329.609497 348.0
1329.812622 100.0
1329.870728 156.0
1330.11853 176.0
1330.219116 188.0
1330.669312 184.0
1331.061401 188.0
1331.293823 196.0
1331.373657 148.0
1331.700562 132.0
1331.780396 180.0
1332.208984 152.0
1332.281616 168.0
1332.499634 32.0
1332.711548 144.0
1332.98645 128.0
1333.45166 52.0
1334.883789 144.0
1335.640259 224.0
1335.800293 168.0
1336.469604 124.0
1336.549683 132.0
1336.884399 212.0
1337.37207 212.0
1337.918091 120.0
1337.983643 60.0
1338.442261 148.0
1339.039429 156.0
1339.192505 148.0
1340.081177 216.0
1340.226929 84.0
1340.533081 144.0
1340.744385 148.0
1341.232666 216.0
1341.356689 120.0
1341.852417 220.0
1341.983643 136.0
1342.136719 232.0
1342.238892 188.0
1342.428467 208.0
1342.515991 124.0
1342.669067 144.0
1343.347534 236.0
1343.63208 88.0
1343.683105 176.0
1344.960205 192.0
1345.383667 212.0
1345.885986 200.0
1347.085205 152.0
1347.223999 128.0
1347.313232 152.0
1347.421265 136.0
1347.487061 160.0
1347.87439 132.0
1347.976685 180.0
1348.181274 320.0
1348.839111 52.0
1349.051147 112.0
1349.358154 256.0
1350.234375 196.0
1350.827026 184.0
1351.472046 180.0
1351.742798 132.0
1351.80127 176.0
1352.218506 132.0
1352.547852 160.0
1353.133545 196.0
1353.594849 176.0
1353.646118 196.0
1354.598267 64.0
1355.521484 176.0
1355.594727 188.0
1355.697388 128.0
1355.837524 160.0
1356.334961 176.0
1356.679565 192.0
1356.804199 180.0
1357.258789 168.0
1358.419067 180.0
1358.557007 124.0
1358.674438 140.0
1358.733154 132.0
1359.004639 148.0
1359.863281 164.0
1360.061401 120.0
1360.384399 200.0
1360.479858 64.0
1360.90564 156.0
1361.493164 136.0
1361.544556 60.0
1361.897095 240.0
1361.992676 148.0
1362.135254 184.0
1362.359985 112.0
1362.433472 208.0
1362.47937 196.0
1362.70459 168.0
1362.888916 156.0
1362.951538 144.0
1363.116699 200.0
1363.278442 140.0
1363.601807 140.0
1363.682617 116.0
1363.785522 148.0
1364.351562 184.0
1364.403076 152.0
1364.638306 200.0
1364.70459 168.0
1364.939819 196.0
1364.995117 136.0
1365.542847 60.0
1366.079834 196.0
1366.227051 144.0
1366.742065 156.0
1366.830322 132.0
1366.929565 192.0
1367.213013 120.0
1368.10376 144.0
1369.119873 168.0
1369.230347 172.0
1369.60437 184.0
1369.679688 176.0
1369.827026 96.0
1370.01123 188.0
1370.320557 168.0
1370.512207 104.0
1370.770142 168.0
1370.865967 200.0
1371.0354 216.0
1371.772461 112.0
1372.938354 180.0
1373.409546 160.0
1373.542358 148.0
1373.628296 160.0
1373.741577 108.0
1373.999756 144.0
1374.5448 156.0
1374.671265 132.0
1374.796753 220.0
1374.929565 132.0
1375.055054 160.0
1376.361694 196.0
1377.151978 196.0
1377.580444 128.0
1377.698608 92.0
1377.898071 100.0
1378.274902 168.0
1378.4375 32.0
1378.518799 140.0
1378.814453 172.0
1379.036133 212.0
1379.464844 128.0
1379.568359 172.0
1380.026733 152.0
1380.204224 128.0
1380.259766 204.0
1380.403931 88.0
1380.655396 196.0
1380.781128 168.0
1380.899414 184.0
1381.402466 188.0
1381.491211 208.0
1382.075684 128.0
1382.3125 144.0
1382.467896 144.0
1382.704712 176.0
1382.889771 176.0
1383.282104 196.0
1383.333984 76.0
1384.274292 144.0
1384.49646 120.0
1384.963013 144.0
1385.237183 196.0
1385.607544 88.0
1385.689087 148.0
1385.763184 132.0
1386.089233 228.0
1386.674683 168.0
1386.882202 72.0
1387.238037 116.0
1387.549438 184.0
1387.660156 220.0
1387.813965 260.0
1387.927612 200.0
1388.365112 216.0
1388.454102 216.0
1389.559448 168.0
1389.655884 164.0
1390.30896 176.0
1390.411133 120.0
1390.754272 232.0
1391.385254 232.0
1392.067627 188.0
1392.509155 268.0
1392.603149 196.0
1393.806641 236.0
1393.987549 232.0
1394.557373 168.0
1394.78772 168.0
1394.966187 192.0
1395.285889 172.0
1395.829834 168.0
1395.9104 212.0
1396.604858 144.0
1396.74353 64.0
1397.018677 76.0
1397.219604 148.0
1397.342407 148.0
1397.896729 196.0
1398.096191 160.0
1398.410278 148.0
1398.626099 136.0
1398.685669 164.0
1398.983398 160.0
1399.087646 120.0
1399.899292 200.0
1400.167358 188.0
1400.241943 160.0
1400.793091 148.0
1401.053833 176.0
1401.351929 108.0
1401.605225 176.0
1401.708252 164.0
1401.90332 120.0
1402.0896 204.0
1402.320679 144.0
1402.469727 132.0
1402.834961 208.0
1402.924438 108.0
1403.267456 120.0
1403.535889 184.0
1403.655151 168.0
1403.781982 48.0
1404.072876 136.0
1404.192139 72.0
1404.371216 148.0
1404.624756 152.0
1404.751587 140.0
1405.050049 124.0
1405.273804 236.0
1405.460449 176.0
1405.520142 352.0
1405.684326 216.0
1405.833496 168.0
1407.199585 180.0
1407.56543 44.0
1407.640137 136.0
1407.76709 104.0
1408.006104 208.0
1408.088257 200.0
1408.155518 68.0
1408.499268 128.0
1409.141602 140.0
1409.291016 160.0
1409.660034 176.0
1409.714233 192.0
1409.776733 148.0
1409.881348 116.0
1410.142944 196.0
1410.437378 184.0
1410.527466 156.0
1410.740967 144.0
1410.950317 212.0
1411.099854 84.0
1411.593384 152.0
1411.825195 36.0
1412.161743 172.0
1412.453491 200.0
1412.879883 100.0
1413.022095 180.0
1413.358765 80.0
1413.426147 140.0
1413.643066 136.0
1413.920044 196.0
1414.107178 120.0
1415.095337 196.0
1415.245117 188.0
1416.03894 140.0
1416.106323 172.0
1416.428467 68.0
1416.967773 96.0
1417.867065 168.0
1418.106934 248.0
1418.568481 172.0
1418.729126 224.0
1419.141479 224.0
1419.838867 192.0
1420.213867 136.0
1420.303955 120.0
1421.301758 152.0
1421.54187 136.0
1421.616943 52.0
1421.722046 204.0
1422.337524 228.0
1422.405029 68.0
1422.750366 156.0
1423.193359 104.0
1423.268433 180.0
1423.456177 156.0
1423.62146 52.0
1423.67395 164.0
1424.509155 204.0
1424.575317 96.0
1424.943481 100.0
1425.123779 132.0
1425.890381 176.0
1426.153198 164.0
1426.238525 244.0
1426.439087 44.0
1426.596924 156.0
1426.927734 220.0
1427.995605 104.0
1428.093384 116.0
1429.050781 196.0
1429.282104 140.0
1429.91626 76.0
1430.0271 112.0
1430.102417 168.0
1430.493896 156.0
1430.561646 176.0
1431.058472 116.0
1431.16394 180.0
1431.412476 112.0
1431.984741 144.0
1432.783325 172.0
1432.83606 108.0
1433.265503 132.0
1433.989014 164.0
1434.418701 76.0
1434.539307 148.0
1434.592041 104.0
1434.726807 216.0
1435.006714 220.0
1435.067017 172.0
1435.346069 172.0
1435.549683 228.0
1435.745728 112.0
1435.813599 176.0
1435.904175 156.0
1436.137939 196.0
1436.507568 156.0
1436.666016 132.0
1436.786743 144.0
1436.892334 220.0
1437.000732 184.0
1437.518677 164.0
1437.873413 124.0
1437.933716 288.0
1438.145142 168.0
1438.650879 148.0
1439.043457 228.0
1439.119019 124.0
1439.436157 116.0
1439.697388 100.0
1440.599365 192.0
1440.674805 168.0
1440.78064 76.0
1440.946899 200.0
1441.18103 208.0
1441.298218 172.0
1441.566528 148.0
1441.687378 200.0
1441.793213 92.0
1441.899048 128.0
1442.068115 136.0
1442.639771 160.0
1442.911987 188.0
1443.482544 156.0
1443.51123 208.0
1443.857178 192.0
1443.917725 192.0
1444.371582 188.0
1444.885986 256.0
1445.188599 176.0
1445.515747 160.0
1445.578003 176.0
1445.710815 200.0
1445.786499 184.0
1446.081665 100.0
1448.541016 244.0
1449.125977 276.0
1449.588257 168.0
1449.709473 36.0
1449.9823 172.0
1450.39917 168.0
1450.543213 160.0
1450.656982 156.0
1451.30896 168.0
1451.657837 220.0
1451.885376 124.0
1451.946045 120.0
1452.036987 136.0
1453.205322 96.0
1453.311523 120.0
1453.781982 172.0
1454.191895 84.0
1454.563843 164.0
1454.730835 220.0
1454.950928 192.0
1455.12561 108.0
1455.31543 172.0
1455.695068 100.0
1455.930542 196.0
1456.196411 208.0
1456.674927 124.0
1457.168701 124.0
1457.419434 252.0
1458.088623 144.0
1458.430298 172.0
1458.574707 236.0
1459.023193 172.0
1459.597046 184.0
1460.270386 112.0
1460.414917 212.0
1460.711548 212.0
1461.137573 204.0
1461.219727 272.0
1462.035522 132.0
1462.195312 172.0
1462.583496 60.0
1462.743408 180.0
1462.880371 236.0
1463.055908 216.0
1463.146851 184.0
1463.390503 104.0
1463.557983 108.0
1463.763672 136.0
1464.037842 36.0
1464.350098 192.0
1464.570923 184.0
1464.661255 144.0
1464.845215 184.0
1464.967041 104.0
1465.157593 136.0
1465.698486 160.0
1465.927124 132.0
1466.026245 120.0
1466.315796 200.0
1466.514038 148.0
1466.674072 240.0
1467.146729 168.0
1467.56604 176.0
1467.893921 84.0
1468.351562 156.0
1468.633789 168.0
1468.923584 172.0
1469.465332 160.0
1469.549194 180.0
1469.717163 192.0
1469.845947 144.0
1470.121582 36.0
1471.172363 220.0
1471.365845 192.0
1471.846802 144.0
1471.984253 92.0
1472.236328 116.0
1472.938965 164.0
1473.450928 168.0
1473.771729 148.0
1474.444336 164.0
1474.857056 132.0
1475.086304 200.0
1475.560303 116.0
1475.62915 188.0
1475.98938 164.0
1476.256226 188.0
1476.503906 156.0
1476.559204 136.0
1477.663696 196.0
1477.747803 180.0
1478.034424 360.0
1478.275879 168.0
1478.352417 104.0
1478.803711 164.0
1479.117798 148.0
1479.630737 124.0
1479.852783 176.0
1479.998291 160.0
1480.125244 152.0
1480.197388 52.0
1480.281616 100.0
1480.427124 120.0
1480.901978 112.0
1481.078125 112.0
1481.162354 88.0
1481.254272 44.0
1481.407471 200.0
1481.698608 212.0
1482.173706 144.0
1482.334595 176.0
1482.480225 52.0
1482.533936 132.0
1482.674438 188.0
1482.733154 196.0
1483.192993 176.0
1483.60022 184.0
1483.829346 40.0
1484.020996 272.0
1484.435181 128.0
1484.771973 204.0
1485.018066 128.0
1485.593384 168.0
1485.969238 184.0
1486.491089 192.0
1486.767334 100.0
1487.074341 148.0
1487.258545 164.0
1487.81897 176.0
1488.248901 48.0
1488.51001 164.0
1488.747681 136.0
1489.016846 180.0
1489.115845 108.0
1489.142944 96.0
1489.293457 80.0
1489.38562 128.0
1489.616089 64.0
1489.739014 116.0
1491.90625 152.0
1492.352173 116.0
1492.644287 352.0
1492.713501 152.0
1493.167358 180.0
1493.32373 200.0
1493.503174 96.0
1493.682617 148.0
1494.05957 176.0
1494.51355 140.0
1494.688965 140.0
1495.585083 160.0
1495.929688 160.0
1496.006714 120.0
1496.129883 164.0
1496.946045 92.0
1497.023071 140.0
1497.331177 164.0
1497.462158 220.0
1497.523682 204.0
1497.616211 200.0
1497.731689 220.0
1497.870361 212.0
1497.955078 196.0
1498.047485 72.0
1498.481079 192.0
1498.879639 156.0
1499.187988 188.0
1499.565552 208.0
1499.873901 132.0
1500.141968 192.0
1500.552368 164.0
1500.669678 196.0
1500.734985 104.0
1500.883911 100.0
1500.984131 144.0
1501.07666 192.0
1501.290405 152.0
1501.608887 140.0
1502.261475 200.0
1502.380249 216.0
1503.090088 200.0
1503.174927 184.0
1503.71521 168.0
1504.120728 152.0
1504.618774 180.0
1504.680176 332.0
1505.043091 192.0
1505.174316 140.0
1505.421509 168.0
