>compound Maytenin
>formula C28H36O3
>ionization [M+H]+
>parentmass 421.2737214640905
#inchi InChI=1S/C28H36O3/c1-16-13-23-25(3,15-21(16)30)9-11-27(5)22-8-7-18-17(2)24(31)20(29)14-19(18)26(22,4)10-12-28(23,27)6/h7-8,14,16,23,31H,9-13,15H2,1-6H3/t16-,23?,25+,26+,27-,28+/m1/s1
#inchikey WSTYNZDAOAEEKG
#Ion_Source DI-ESI
#Instrument qTof
#Compound_Source Isolated
#PI Norberto Lopes
#Data_Collector Denise Silva
#Scan -1
#Precursor_MZ 421.271
#ExactMass 420.266
#Charge 1
#CAS_Number 50802-21-6
#Pubmed_ID  
#Smiles O=C1C[C@]2(C)CC[C@]3(C)C([C@@]4(C)CC[C@@]3(C)C2C[C@H]1C)=CC=C(C4=C5)C(C)=C(O)C5=O
#INCHI_AUX  
#Library_Class 3
#SpectrumID CCMSLIB00000078862
#IonMode Positive
#UpdateWorkflowName UPDATE-SINGLE-ANNOTATED-BRONZE
#LibraryQualityString Bronze
#TaskID acbd33f8eb6b4930835f1b1ae09fbdef
##Scan# 1
#SpectrumFile maytenin_pos_MSMS_421.mgf
#LibraryName gnps_library.mgf
#MQScore -1
#Organism gnps_library
#TIC_Query 0
#RT_Query -1
#MZErrorPPM -1
#SharedPeaks 0
#MassDiff 0
#LibMZ -1
#SpecMZ 421.271
#SpecCharge 0
#internalFilename spec-00000.mgf

>collision 10
119.084244 470.0
121.099678 411.0
123.114807 835.0
128.060165 454.0
129.068497 511.0
133.097702 418.0
135.113647 870.0
145.098953 1171.0
147.113937 1033.0
149.130478 578.0
153.066544 733.0
155.083466 1044.0
158.069412 922.0
159.114578 1478.0
161.129837 984.0
163.109787 1006.0
165.125198 2093.0
173.129318 710.0
175.14537 483.0
177.14595 764.0
185.057632 468.0
186.064758 951.0
189.161087 2216.0
191.174484 1179.0
201.088913 383888.0
202.092712 29596.0
207.171234 3862.0
213.088684 1035.0
215.105606 54022.0
216.106873 4111.0
219.172913 9637.0
220.174515 866.0
220.174515 866.0
227.104645 1411.0
233.189285 12106.0
234.19223 1066.0
239.104233 443.0
241.120773 7109.0
242.122787 870.0
243.133896 7649.0
255.134659 610.0
257.15097 5272.0
337.210541 4487.0
403.259491 4743.0
421.270538 65518.0
