>compound MLS001140274-01!(2S)-1-[(2S)-2-[(5-chloro-1-methylindole-2-carbonyl)amino]propanoyl]pyrrolidine-2-carboxylic acid
>formula C18H20ClN3O4
>ionization [M+H]+
>parentmass 378.122
#inchi InChI=1S/C18H20ClN3O4/c1-10(17(24)22-7-3-4-14(22)18(25)26)20-16(23)15-9-11-8-12(19)5-6-13(11)21(15)2/h5-6,8-10,14H,3-4,7H2,1-2H3,(H,20,23)(H,25,26)/t10-,14-/m0/s1
#inchikey SRURUOMGBHAESL
#Ion_Source LC-ESI
#Instrument qTof
#Compound_Source NIH Natural Product Library
#PI Dorrestein
#Data_Collector VVP/LMS
#Scan -1
#Precursor_MZ 378.122
#ExactMass 377.114
#Charge 1
#CAS_Number N/A
#Pubmed_ID N/A
#Smiles C[C@H](NC(=O)c1cc2cc(Cl)ccc2n1C)C(=O)N3CCC[C@H]3C(=O)O
#INCHI_AUX N/A
#Library_Class 1
#SpectrumID CCMSLIB00000080183
#IonMode Positive
#UpdateWorkflowName UPDATE-SINGLE-ANNOTATED-GOLD
#LibraryQualityString Gold
#TaskID b1d8e8f6646f4e71acdff9ca3d919d08
##Scan# 1985
#SpectrumFile p2-C05_GC5_01_18005.mzXML
#LibraryName NIH_Natural_Products_Library.mgf
#MQScore -1
#Organism NIH_Natural_Products_Library
#TIC_Query 0
#RT_Query -1
#MZErrorPPM -1
#SharedPeaks 0
#MassDiff 0
#LibMZ -1
#SpecMZ 378.122
#SpecCharge 0
#internalFilename spec-00000.mgf

>collision 10
94.981644 172.0
95.412743 52.0
95.747421 212.0
96.08445 84.0
96.133415 128.0
96.225159 156.0
96.340378 176.0
96.484993 108.0
96.541695 184.0
96.6082 256.0
96.721695 148.0
97.635628 152.0
97.657623 116.0
98.059273 184.0
98.088837 164.0
98.572845 264.0
98.619797 124.0
98.829422 172.0
98.948174 188.0
99.007576 172.0
99.146248 180.0
99.594635 224.0
99.807274 224.0
100.004227 144.0
100.630165 60.0
100.993866 160.0
101.095894 136.0
101.111908 192.0
101.165947 136.0
101.199982 168.0
101.59079 200.0
101.900856 188.0
101.905502 84.0
101.913345 252.0
102.14119 52.0
102.267952 140.0
102.410904 124.0
102.642662 128.0
102.773773 80.0
102.832291 100.0
102.856514 236.0
103.228256 80.0
104.048187 232.0
104.213364 232.0
104.866585 204.0
105.058853 564.0
105.168449 80.0
105.317497 44.0
105.667061 136.0
105.847176 204.0
105.873795 152.0
106.068436 188.0
106.628769 124.0
106.680153 152.0
106.772675 200.0
106.832329 120.0
106.924919 128.0
107.046379 132.0
107.376106 144.0
107.7146 148.0
107.867516 40.0
107.985374 264.0
108.26062 188.0
108.500977 188.0
108.598434 136.0
108.768578 156.0
109.186195 88.0
109.242355 196.0
109.321419 160.0
109.669212 144.0
109.900696 176.0
109.988342 132.0
110.70546 160.0
110.860481 116.0
110.996735 132.0
111.112091 200.0
111.380791 148.0
111.79287 208.0
112.004738 120.0
112.228897 136.0
112.482056 80.0
112.501053 88.0
112.684792 100.0
113.020966 160.0
113.256607 168.0
114.007851 220.0
114.045258 132.0
114.268539 100.0
114.400482 100.0
114.485649 228.0
114.854362 168.0
115.012154 164.0
115.050682 252.0
115.069893 220.0
115.093384 196.0
115.336922 116.0
115.579399 116.0
115.717705 208.0
115.968071 160.0
116.041222 296.0
116.072441 8108.0
116.174187 80.0
116.210655 32.0
116.472565 196.0
116.812187 68.0
117.072052 564.0
117.091095 152.0
117.441154 40.0
117.620239 88.0
118.1129 168.0
118.221077 44.0
118.290337 108.0
118.372604 160.0
118.771378 68.0
119.090446 72.0
119.190376 152.0
119.721146 180.0
119.782135 152.0
119.877991 120.0
120.141815 148.0
120.288025 156.0
120.318588 152.0
120.558853 176.0
120.735924 136.0
120.900002 152.0
120.95253 220.0
121.184662 52.0
121.287659 72.0
121.432365 148.0
121.770363 172.0
122.06044 176.0
122.196808 76.0
122.487396 140.0
122.540268 172.0
122.665886 112.0
122.727615 188.0
122.908478 184.0
122.927574 208.0
122.961441 200.0
123.00145 6124.0
123.037598 176.0
123.099419 136.0
123.301552 124.0
123.325867 64.0
123.502747 92.0
123.673119 76.0
123.768311 136.0
124.006355 468.0
124.118401 128.0
124.271446 148.0
124.311386 36.0
124.664467 40.0
124.914055 124.0
124.997894 1876.0
125.068581 148.0
125.111534 208.0
125.249596 172.0
125.323112 48.0
125.360992 104.0
125.389969 240.0
125.577248 184.0
125.891922 240.0
125.999977 296.0
126.017006 180.0
126.109886 88.0
126.185783 132.0
126.39711 56.0
126.482155 188.0
126.737457 164.0
126.768829 72.0
126.90332 112.0
126.995422 220.0
127.022179 172.0
127.071526 72.0
127.457718 120.0
127.513893 136.0
127.763443 216.0
128.050629 312.0
128.225082 136.0
128.379929 152.0
128.425751 224.0
128.482132 116.0
128.940506 92.0
129.057251 168.0
129.880127 184.0
129.968597 164.0
130.023056 80.0
130.636536 52.0
130.752579 224.0
131.073669 184.0
131.132919 88.0
131.297882 204.0
131.388306 120.0
131.465881 200.0
131.648514 244.0
131.69191 40.0
131.730728 144.0
131.826691 132.0
131.924973 76.0
131.968414 152.0
132.405472 252.0
132.618546 196.0
132.767563 244.0
133.02684 172.0
133.056488 412.0
133.14624 112.0
133.24559 188.0
133.474838 220.0
133.925903 124.0
134.03418 156.0
134.061829 156.0
134.230118 88.0
134.978271 152.0
135.603317 156.0
135.716904 132.0
135.918701 116.0
135.990631 148.0
136.54126 196.0
136.64827 176.0
136.792557 168.0
137.009125 212.0
137.106979 144.0
137.179245 156.0
137.25618 216.0
137.871353 256.0
138.012695 200.0
138.471359 180.0
138.539291 184.0
138.597855 176.0
138.622787 252.0
138.640045 216.0
138.993057 192.0
139.426208 160.0
139.496719 192.0
139.531982 208.0
139.917816 56.0
140.027328 668.0
140.356049 56.0
140.415009 240.0
140.594299 36.0
140.698151 144.0
141.002869 192.0
141.184906 132.0
141.215652 72.0
141.748306 56.0
141.899994 44.0
141.918961 236.0
142.02713 232.0
142.083679 368.0
142.12294 132.0
142.355576 76.0
142.799973 240.0
142.826141 180.0
142.95224 192.0
143.011734 136.0
143.280807 124.0
143.535843 132.0
143.798248 172.0
143.941483 148.0
145.104324 160.0
145.327377 132.0
146.24295 120.0
146.534332 120.0
147.062439 144.0
147.306305 168.0
147.436783 216.0
147.644684 248.0
147.676132 120.0
148.492325 204.0
149.150314 136.0
149.313217 168.0
149.899902 80.0
150.01001 656.0
150.082718 180.0
150.099792 132.0
150.214417 216.0
150.268082 252.0
151.00824 112.0
151.106094 196.0
151.135452 184.0
151.345947 180.0
151.387573 100.0
151.453705 48.0
151.536987 188.0
151.816422 140.0
152.007141 464.0
152.199219 204.0
152.368698 188.0
152.412918 136.0
152.469437 156.0
152.968735 160.0
153.003281 188.0
153.717972 104.0
153.777206 132.0
154.199539 184.0
154.597031 208.0
154.988937 120.0
155.080627 164.0
155.154999 164.0
155.219467 96.0
155.467529 172.0
155.969208 212.0
156.16066 200.0
156.621124 156.0
156.680908 88.0
156.783066 148.0
157.091766 592.0
157.931534 132.0
158.041595 84.0
158.094147 212.0
158.18425 96.0
158.492294 176.0
158.863342 164.0
158.880905 80.0
159.310181 84.0
159.780289 216.0
159.851685 172.0
160.155365 88.0
160.374573 244.0
160.573761 96.0
160.601501 136.0
160.624191 132.0
160.707443 44.0
160.861389 140.0
161.040665 216.0
161.151825 144.0
161.480438 152.0
162.202057 92.0
163.009125 156.0
163.192123 64.0
163.212479 224.0
163.658829 156.0
163.843658 180.0
163.915009 192.0
164.027893 1704.0
164.055115 152.0
164.131668 84.0
164.175018 220.0
164.249359 136.0
164.407166 152.0
164.478622 136.0
164.560318 120.0
164.958847 136.0
165.030075 360.0
165.091797 176.0
165.400711 148.0
165.644638 204.0
166.000885 192.0
166.023254 988.0
166.408859 52.0
166.537262 36.0
166.722229 204.0
166.853333 124.0
167.012756 156.0
167.082947 348.0
167.120804 192.0
167.174835 228.0
167.239182 140.0
167.651245 232.0
168.015793 168.0
168.136078 192.0
168.51825 176.0
168.557007 140.0
169.022446 44.0
169.612915 196.0
169.911133 132.0
170.033081 80.0
170.352448 156.0
170.531738 72.0
171.424393 124.0
171.510391 140.0
172.084305 160.0
172.34549 208.0
172.834442 160.0
172.881531 172.0
173.161667 188.0
173.193085 116.0
173.321457 200.0
173.415802 140.0
173.57309 140.0
174.668243 124.0
176.540817 208.0
176.633392 144.0
176.995956 196.0
177.258194 176.0
178.282501 152.0
178.713272 208.0
178.87561 136.0
179.101944 80.0
179.26712 180.0
179.986496 264.0
180.019287 636.0
180.12088 44.0
180.176971 172.0
180.519089 192.0
181.041901 172.0
181.373138 100.0
182.016998 192.0
182.433441 32.0
182.514099 180.0
182.767899 200.0
183.804321 212.0
184.214691 152.0
185.684433 88.0
185.841766 136.0
187.182251 232.0
187.555023 148.0
187.617722 140.0
187.901352 164.0
188.054153 192.0
188.515701 168.0
188.65509 48.0
188.975067 212.0
189.027054 160.0
189.868057 128.0
189.991486 108.0
190.021973 180.0
190.587265 120.0
190.801636 148.0
190.897873 84.0
190.925369 196.0
190.944626 184.0
190.966629 252.0
191.01889 164.0
191.227997 180.0
191.280304 168.0
191.390411 76.0
191.412445 140.0
191.44725 156.0
191.484055 240.0
191.514343 92.0
191.541885 244.0
191.601562 312.0
191.660355 104.0
191.696167 140.0
191.765808 164.0
191.808441 180.0
191.856857 188.0
191.86499 224.0
191.876297 136.0
191.914719 112.0
191.940338 316.0
191.962845 200.0
192.022919 72764.0
192.054581 2316.0
192.101822 272.0
192.121994 104.0
192.172867 100.0
192.21611 200.0
192.273834 76.0
192.294357 124.0
192.311279 164.0
192.357025 52.0
192.418823 56.0
192.440918 108.0
192.470032 124.0
192.544983 64.0
192.573471 40.0
192.595184 60.0
192.649704 132.0
192.678436 32.0
192.70488 112.0
192.769608 164.0
192.802765 88.0
192.860672 76.0
192.918961 184.0
192.952026 92.0
192.990738 216.0
193.026001 8156.0
193.064468 308.0
193.138153 104.0
193.159439 36.0
193.199265 100.0
193.247971 76.0
193.300537 48.0
193.329041 120.0
193.38356 44.0
193.441681 100.0
193.488754 40.0
193.621017 132.0
193.641037 52.0
193.677048 180.0
193.739426 124.0
193.823883 136.0
193.842682 100.0
193.880722 148.0
193.969208 100.0
194.019455 21160.0
194.05127 464.0
194.085754 92.0
194.130753 68.0
194.153198 40.0
194.184265 80.0
194.209366 76.0
194.255066 152.0
194.301056 64.0
194.350708 148.0
194.378448 64.0
194.420441 92.0
194.453415 156.0
194.475586 52.0
194.515335 124.0
194.558853 120.0
194.631042 84.0
194.703247 56.0
194.764343 36.0
194.85228 116.0
194.953262 80.0
195.022888 1640.0
195.060837 240.0
195.131165 48.0
195.161743 76.0
195.197891 44.0
195.234634 56.0
195.412064 48.0
195.44545 160.0
195.643051 104.0
195.765564 48.0
195.952179 56.0
196.021835 84.0
196.161194 60.0
196.219742 176.0
196.258774 64.0
196.328476 44.0
196.395416 68.0
196.465149 80.0
196.487473 280.0
196.509796 96.0
196.529327 64.0
196.579544 112.0
196.638153 96.0
196.668854 28.0
196.98996 64.0
197.263809 104.0
197.66655 76.0
197.812088 136.0
197.879272 32.0
198.37233 64.0
198.61348 52.0
199.467239 72.0
199.739838 56.0
199.987442 68.0
200.161987 52.0
200.745285 80.0
201.27861 72.0
201.982315 88.0
202.050201 36.0
202.355865 76.0
202.584946 168.0
202.860123 80.0
203.575104 84.0
203.850662 132.0
204.308426 92.0
204.499069 128.0
207.498459 44.0
209.394958 60.0
211.971832 104.0
212.836227 212.0
213.080994 160.0
215.057434 152.0
217.868515 112.0
218.721298 92.0
220.686035 200.0
221.950333 116.0
235.06459 748.0
236.083725 188.0
237.064743 444.0
237.372925 40.0
238.072586 172.0
247.800369 108.0
248.129456 92.0
258.989777 104.0
262.131744 104.0
263.060608 148.0
267.078644 140.0
268.397552 96.0
275.130096 128.0
277.150879 84.0
277.366272 48.0
278.252014 20.0
279.648132 80.0
283.063324 28.0
291.027802 120.0
309.038696 188.0
313.949371 128.0
328.163269 116.0
340.580292 72.0
349.099213 128.0
350.931183 84.0
356.219208 40.0
368.539703 96.0
370.038971 84.0
371.104095 196.0
379.207062 128.0
379.245819 28.0
386.277985 40.0
395.996246 68.0
402.282654 100.0
414.258301 104.0
424.537567 52.0
426.36026 88.0
435.532379 44.0
451.213715 92.0
458.467743 64.0
473.954926 108.0
488.964111 76.0
492.005493 48.0
493.830444 48.0
534.557617 44.0
538.051331 56.0
542.733459 84.0
594.187378 96.0
636.612183 132.0
676.430176 20.0
705.743958 80.0
737.699829 48.0
739.484741 40.0
764.028198 96.0
783.627808 148.0
865.510986 52.0
980.322754 188.0
988.840942 140.0
994.393738 164.0
1009.557556 220.0
1037.458252 104.0
1055.065063 48.0
1059.232422 192.0
1071.190918 116.0
1074.900513 148.0
1086.730347 176.0
1088.77832 192.0
1111.227783 164.0
1121.78833 128.0
1122.494995 152.0
1125.283936 248.0
1127.207642 144.0
1127.36792 84.0
1136.991211 176.0
1142.077026 208.0
1147.861938 168.0
1149.474121 196.0
1161.577393 168.0
1163.110962 176.0
1169.568115 188.0
1176.575562 156.0
1183.193115 256.0
1192.879395 184.0
1193.910645 112.0
1195.086914 216.0
1196.146729 152.0
1199.611572 112.0
1202.625854 116.0
1207.455078 232.0
1222.843018 164.0
1227.119995 180.0
1232.249634 84.0
1234.738159 124.0
1239.717163 216.0
1249.235962 160.0
1260.148926 224.0
1261.032227 160.0
1263.011963 128.0
1265.318848 100.0
1267.578125 168.0
1282.787231 136.0
1283.906616 116.0
1288.111816 132.0
1288.389038 136.0
1291.570068 120.0
1292.235352 228.0
1300.117188 144.0
1302.349976 124.0
1306.734863 160.0
1314.350464 228.0
1314.55249 144.0
1321.952026 116.0
1323.153564 112.0
1326.007446 124.0
1326.964355 124.0
1331.768066 72.0
1334.900269 84.0
1344.12207 104.0
1346.560181 160.0
1348.101685 196.0
1352.723877 112.0
1354.986694 116.0
1358.505615 180.0
1359.804321 220.0
1360.516235 160.0
1372.79834 228.0
1374.049927 244.0
1375.023926 216.0
1378.457764 128.0
1383.746216 212.0
1387.020386 188.0
1396.598633 176.0
1397.335083 148.0
1399.404053 132.0
1406.276978 216.0
1409.144409 240.0
1412.575684 128.0
1415.000244 124.0
1415.801514 172.0
1416.093506 204.0
1417.299561 224.0
1425.478394 164.0
1425.696289 152.0
1433.220947 132.0
1433.755981 148.0
1434.291138 124.0
1436.462646 228.0
1444.862915 200.0
1448.00415 204.0
1452.157349 176.0
1454.463867 156.0
1455.648193 148.0
1460.260986 180.0
1462.048828 104.0
1463.28186 188.0
1463.662598 136.0
1466.709839 132.0
1468.615967 136.0
1469.851807 128.0
1470.897339 48.0
1479.320923 72.0
1482.223633 144.0
1486.256714 200.0
1489.273682 188.0
1493.500977 148.0
1494.847168 148.0
