>compound HHQ
>formula C16H21NO 
>ionization [M+H]+
>parentmass 244.17
#inchi InChI=1S/C16H21NO/c1-2-3-4-5-6-9-13-12-16(18)14-10-7-8-11-15(14)17-13/h7-8,10-12H,2-6,9H2,1H3,(H,17,18)
#inchikey UYRHHBXYXSYGHA
#Ion_Source DI-ESI
#Instrument LTQ-FT-ICR
#Compound_Source Crude
#PI Dorrestein
#Data_Collector J Watrous
#Scan -1
#Precursor_MZ 244.17
#ExactMass 0.0
#Charge 1
#CAS_Number N/A
#Pubmed_ID N/A
#Smiles N/A
#INCHI_AUX N/A
#Library_Class 3
#SpectrumID CCMSLIB00000072121
#IonMode Positive
#UpdateWorkflowName UPDATE-SINGLE-ANNOTATED-BRONZE
#LibraryQualityString Bronze
#TaskID 3bbf0c46eeeb406782b2f3cd0ad9b2b3
##Scan# 1
#SpectrumFile HHQ_1H_LTQ_244_1696.mzXML
#LibraryName gnps_library.mgf
#MQScore -1
#Organism GNPS_JDW_Batch_Library_Centroid
#TIC_Query 0
#RT_Query -1
#MZErrorPPM -1
#SharedPeaks 0
#MassDiff 0
#LibMZ -1
#SpecMZ 244.17
#SpecCharge 0
#internalFilename spec-00000.mgf

>collision 10
57.0 0.0
57.090908 0.0
57.18182 0.0
57.272728 0.0
57.363636 0.0
57.454544 0.0
57.545456 0.0
57.636364 0.0
57.727272 0.0
57.81818 0.0
57.909092 0.0
58.0 0.0
58.090908 0.0
58.18182 0.0
58.272728 0.0
58.363636 0.0
58.454544 0.0
58.545456 0.0
58.636364 0.0
58.727272 0.0
58.81818 0.0
58.909092 0.0
59.0 0.0
59.090908 0.0
59.18182 0.0
59.272728 0.0
59.363636 0.0
59.454544 0.0
59.545456 0.0
59.636364 0.0
59.727272 0.0
59.81818 0.0
59.909092 0.0
60.0 0.0
60.090908 0.0
60.18182 0.0
60.272728 0.0
60.363636 0.0
60.454544 0.0
60.545456 0.0
60.636364 0.0
60.727272 0.0
60.818184 0.0
60.909092 0.0
61.0 0.0
61.090908 0.0
61.18182 0.0
61.272728 0.0
61.363636 0.0
61.454544 0.0
61.545456 0.0
61.636364 0.0
61.727272 0.0
61.818184 0.0
61.909092 0.0
62.0 0.0
62.090908 0.0
62.18182 0.0
62.272728 0.0
62.363636 0.0
62.454544 0.0
62.545456 0.0
62.636364 0.0
62.727272 0.0
62.818184 0.0
62.909092 0.0
63.0 0.0
63.090908 0.0
63.18182 0.0
63.272728 0.0
63.363636 0.0
63.454544 0.0
63.545456 0.0
63.636364 0.0
63.727272 0.0
63.818184 0.0
63.909092 0.0
64.0 0.0
64.090912 0.0
64.181816 0.0
64.272728 0.0
64.36364 0.0
64.454544 0.0
64.545456 0.0
64.63636 0.0
64.727272 0.0
64.818184 0.0
64.909088 0.0
65.0 0.0
65.090912 0.0
65.181816 0.0
65.272728 0.0
65.36364 0.0
65.454544 0.0
65.545456 0.0
65.63636 0.0
65.727272 0.0
65.818184 0.0
65.909088 0.0
66.0 0.0
66.090912 0.0
66.181816 0.0
66.272728 0.0
66.36364 0.0
66.454544 0.0
66.545456 0.0
66.636368 0.0
66.727272 0.0
66.818184 0.0
66.909088 0.0
67.0 0.0
67.090912 0.0
67.181816 0.0
67.272728 0.0
67.36364 0.0
67.454544 0.0
67.545456 0.0
67.636368 0.0
67.727272 0.0
67.818184 0.0
67.909088 0.0
68.0 0.0
68.090912 0.0
68.181816 0.0
68.272728 0.0
68.36364 0.0
68.454544 0.0
68.545456 0.0
68.636368 0.0
68.727272 0.0
68.818184 0.0
68.909088 0.0
69.0 0.0
69.090912 0.0
69.181816 0.0
69.272728 0.0
69.36364 0.0
69.454544 0.0
69.545456 0.0
69.636368 0.0
69.727272 0.0
69.818184 0.0
69.909088 0.0
70.0 0.0
70.090912 0.0
70.181816 0.0
70.272728 0.0
70.36364 0.0
70.454544 0.0
70.545456 0.0
70.636368 0.0
70.727272 0.0
70.818184 0.0
70.909088 0.0
71.0 0.0
71.090912 0.0
71.181816 0.0
71.272728 0.0
71.36364 0.0
71.454544 0.0
71.545456 0.0
71.636368 0.0
71.909088 0.712765
72.181816 0.0
72.36364 0.004307
72.727272 1.6e-05
73.090912 0.0
73.454544 0.0
73.818184 0.0
74.181816 0.0
74.727272 1.197002
75.272728 0.00199
75.909088 0.0
76.090912 0.0
76.272728 0.0
76.454544 0.0
76.818184 0.0
77.181816 0.0
77.545456 0.0
78.181816 0.0
78.36364 0.0
78.727272 0.0
79.090912 0.0
79.454544 0.0
79.727272 0.0
79.909088 0.0
80.090912 0.0
80.272728 0.0
80.454544 0.0
80.818184 0.650554
82.090912 0.391028
82.727272 0.051123
83.181816 0.000272
83.909088 4.045417
84.909088 0.82836
85.36364 0.003583
86.0 0.493689
87.272728 0.0
87.636368 0.0
88.0 0.0
88.36364 0.0
88.818184 0.0
89.181816 0.0
89.545456 0.0
89.909088 0.545446
90.36364 0.003456
90.818184 0.366258
91.272728 0.000579
91.636368 2.0e-06
92.090912 1.533813
92.818184 1.463647
93.272728 0.004466
93.636368 0.338812
94.090912 0.676396
94.454544 0.005699
94.909096 1.0e-05
95.272728 0.0
95.636368 0.0
95.909096 0.592439
96.181816 0.156297
96.818184 0.458151
97.272728 0.00105
97.545456 0.536049
98.0 0.00282
98.36364 9.0e-06
98.727272 0.0
99.090912 0.0
99.545456 0.0
99.909096 0.0
100.272728 0.0
100.636368 0.100229
101.090912 0.000367
101.454544 1.0e-06
101.818184 0.0
102.272728 0.0
102.909096 0.289908
103.272728 0.003693
103.909096 0.331206
104.818184 1.450351
105.090912 1.101047
105.909096 0.77448
106.181816 0.991939
106.636368 0.552113
107.0 0.271355
107.818184 1.826711
108.181816 0.003906
108.454544 1.0e-06
108.818184 0.708851
109.090912 0.448825
109.545456 0.26653
110.0 0.868175
110.36364 0.001562
110.818184 0.372139
111.454544 0.212757
112.0 4.751692
112.454544 0.00926
112.909096 0.645468
113.181824 0.001534
113.36364 0.002486
113.636368 1.0e-05
114.0 1.279119
115.0 5.083763
115.545456 0.008751
116.090912 3.256071
116.909096 3.854375
117.36364 1.621554
117.909096 14.885839
119.090912 2.282693
120.0 10.233717
121.0 1.972894
121.36364 0.009315
121.909096 1.576408
122.454544 0.00623
123.0 3.00928
123.818184 0.000325
124.181824 1.0e-06
124.636368 0.0
124.909096 0.390402
125.36364 0.272808
125.727272 0.000517
126.181824 2.0e-06
126.545456 0.0
126.818184 0.706153
127.36364 0.000872
127.818184 0.310874
128.272736 0.000447
129.0 16.345005
130.0 5.457681
130.909088 3.154306
132.0 42.268494
133.0 5.500373
133.909088 3.111316
134.090912 2.038183
134.545456 0.002273
135.0 5.0e-06
135.363632 0.0
135.72728 0.0
136.090912 0.209668
136.454544 0.00137
136.818192 2.0e-06
137.272736 0.0
137.636368 0.0
138.0 1.141133
139.0 1.237401
139.454544 0.003446
139.818192 6.0e-06
140.181824 0.0
140.545456 0.0
140.909088 0.665615
141.272736 0.288834
142.090912 1.460163
143.0 1.669216
143.454544 0.007891
144.0 3.771308
144.363632 0.130196
144.636368 0.246877
144.909088 1.415517
145.909088 95.213722
147.0 16.85741
148.0 1.487199
148.636368 0.687137
149.0 1.307884
149.272736 0.000762
149.454544 0.002191
150.090912 0.393074
150.909088 0.538697
151.272736 0.001997
151.545456 0.0
151.909088 0.596236
152.363632 0.004048
152.818192 1.674738
153.0 2.939634
153.454544 0.908103
153.72728 0.832892
154.363632 0.001667
154.72728 0.785604
155.090912 2.458732
156.090912 6.290424
156.454544 2.367352
157.0 2.311962
158.0 10.54875
159.0 3173.40332
160.0 705.420898
161.0 58.548607
162.0 11.164231
162.636368 4.51085
162.909088 3.971417
163.545456 3.867603
164.272736 7.989126
165.0 2.626629
165.181824 2.481817
165.818192 1.031073
166.090912 1.341979
166.545456 0.006214
167.0 0.221141
167.636368 0.745422
168.181824 0.93559
168.818192 6.470586
169.72728 0.941175
170.0 1.274343
170.909088 13.491276
172.0 674.336121
173.0 313.590271
174.0 188.140549
174.909088 22.671623
175.909088 6.523898
176.545456 1.34859
176.909088 3.209901
177.272736 2.245574
177.545456 0.528258
177.909088 0.905379
178.181824 0.401505
178.818192 1.135243
179.090912 0.516184
179.363647 1.133676
180.0 0.883687
181.090912 9.422183
182.090912 2.205829
182.909088 2.284652
183.272736 2.695835
184.0 10.804834
185.090912 32.095116
186.0 148.606384
187.0 71.022957
188.090912 51.192123
189.0 8.861099
189.818192 1.597037
190.272736 0.639772
190.454544 0.783495
191.090912 1.262601
192.090912 1.243343
192.545456 0.399035
192.818192 0.369622
193.272736 0.001024
193.818192 1.078632
194.636368 3.257909
195.0 1.950058
195.818192 1.025995
196.181824 1.170919
197.0 10.614832
198.090912 15.546734
199.0 12.125715
200.0 30.22616
201.090912 18.898148
202.0 13.517231
202.909088 7.324975
204.0 0.598921
204.636368 0.555128
205.0 0.661738
205.454544 0.001774
205.818192 6.0e-06
206.181824 0.0
207.090912 4.887306
207.818192 2.356407
208.090912 0.667978
208.454544 0.556558
209.090912 6.797951
209.636368 0.591037
210.0 1.049873
210.363647 0.004837
211.0 0.506437
212.0 4.797438
213.090912 5.943533
214.181824 16.787041
215.0 19.259317
215.545456 0.680824
216.0 10.555236
216.818192 4.626959
217.090912 4.014489
218.090912 0.884473
218.636368 0.182311
219.0 1.0726
219.454544 0.004083
220.0 1.963529
220.272736 1.172
220.636368 3.720649
220.909103 3.125601
221.636368 0.642919
222.090912 1.674328
222.454544 0.001703
223.0 1.010633
223.454544 0.006143
224.090912 0.828322
225.090912 22.096449
226.090912 87.821014
227.090912 46.70591
228.090912 7.762804
228.636368 3.778101
228.909103 1.082344
229.272736 6.280428
229.909103 0.00655
230.272736 1.6e-05
230.909103 1.458423
231.181824 2.156894
232.181824 5.604399
232.545456 3.665004
232.909103 7.746696
233.818192 2.028196
234.181824 7.86352
234.636368 22.400881
235.181824 21.133722
235.909103 5.878334
236.909103 4.059543
237.272736 0.690462
238.0 1.219466
238.454544 0.334694
238.909103 2.376586
239.454544 0.005603
239.818192 0.856887
240.272736 0.001459
240.636368 5.0e-06
241.181824 1.626761
241.636368 0.003766
242.272736 0.705935
242.72728 1.535359
243.090912 0.836698
244.181824 425.1474
245.181824 148.629395
245.909103 1.991825
246.454544 0.572306
247.090912 1.355904
247.545456 0.011595
248.090912 0.130102
248.545456 0.620951
248.818192 0.000449
249.0 0.001174
249.363647 3.0e-06
249.818192 0.799155
250.181824 0.00107
250.545456 4.0e-06
251.454544 0.947462
251.909103 0.67955
252.272736 3.608061
252.818192 1.804376
253.090912 3.194356
253.454544 2.033169
253.818192 0.912194
254.181824 1.470806
254.545456 0.97264
254.909103 1.75725
