>compound Ifosfamide
>formula C7H15Cl2N2O2P
>ionization [M+Na]+
>parentmass 283.014282
#inchi InChI=1S/C7H15Cl2N2O2P/c8-2-4-10-14(12)11(6-3-9)5-1-7-13-14/h1-7H2,(H,10,12)
#inchikey HOMGKSMUEGBAAB
#Ion_Source LC-ESI
#Instrument qTof
#Compound_Source Commercial
#PI Dorrestein
#Data_Collector Garg_Neha
#Scan -1
#Precursor_MZ 283.014
#ExactMass 260.025
#Charge 1
#CAS_Number 3778-73-2, 36341-88-5, 84711-20-6
#Pubmed_ID N/A
#Smiles C1COP(N(C1)CCCl)(NCCCl)=O
#INCHI_AUX N/A
#Library_Class 1
#SpectrumID CCMSLIB00000078093
#IonMode Positive
#UpdateWorkflowName UPDATE-SINGLE-ANNOTATED-GOLD
#LibraryQualityString Gold
#TaskID 77f51c88eb8b467eb4a01dd2d0cb90d2
##Scan# 1124
#SpectrumFile Plate2_1_20_GG5_01_16493.mzXML
#LibraryName FDALibrary_2_04302014.mgf
#MQScore -1
#Organism FDALibrary_2_04302014
#TIC_Query 0
#RT_Query -1
#MZErrorPPM -1
#SharedPeaks 0
#MassDiff 0
#LibMZ -1
#SpecMZ 283.014
#SpecCharge 0
#internalFilename spec-00000.mgf

>collision 10
44.996429 148.0
47.504387 140.0
48.243904 172.0
48.819324 172.0
50.03529 200.0
51.326088 144.0
51.57164 160.0
52.291656 212.0
53.739376 212.0
55.286747 212.0
55.847572 160.0
59.048439 188.0
59.647961 272.0
60.676113 148.0
62.173599 224.0
62.851845 176.0
63.513145 192.0
64.514786 208.0
64.873383 172.0
65.604843 176.0
65.622574 172.0
66.103928 152.0
68.025589 212.0
68.257248 276.0
68.754753 184.0
71.376953 172.0
72.404686 140.0
72.448723 156.0
74.118469 232.0
74.286484 196.0
74.42379 156.0
75.089767 156.0
77.78511 144.0
77.814957 212.0
78.138351 160.0
78.376045 168.0
79.165657 148.0
79.247147 156.0
79.470551 236.0
82.336609 140.0
83.381981 176.0
84.198189 180.0
84.293182 212.0
85.579025 144.0
86.263489 176.0
86.374435 184.0
87.435753 200.0
88.674019 244.0
88.947868 168.0
90.000282 200.0
90.336693 204.0
90.382103 156.0
91.581932 176.0
91.988083 140.0
92.498482 152.0
93.200417 144.0
93.679474 168.0
93.706451 192.0
94.95134 164.0
95.851433 164.0
96.528793 152.0
98.278992 156.0
102.578964 164.0
103.047318 216.0
103.076393 248.0
104.311928 232.0
106.04081 164.0
106.543549 160.0
106.923958 200.0
107.012474 140.0
107.358658 144.0
108.361191 200.0
109.768387 164.0
109.906059 200.0
111.466896 172.0
112.795959 184.0
113.132317 236.0
115.152397 180.0
115.946144 140.0
119.426659 252.0
119.713943 156.0
120.021141 508.0
121.015373 192.0
122.488998 140.0
123.080055 188.0
124.015862 356.0
124.348557 140.0
124.379631 224.0
124.912941 160.0
126.775055 168.0
127.313461 184.0
127.945305 148.0
128.022934 136.0
130.445114 148.0
130.531509 200.0
130.704391 144.0
131.555328 148.0
132.370972 216.0
133.05864 160.0
133.815048 176.0
134.08226 144.0
134.128357 200.0
135.204681 188.0
137.174347 208.0
138.031738 908.0
138.970474 220.0
139.029144 212.0
139.172333 184.0
139.202866 216.0
139.684677 160.0
141.251007 156.0
141.622635 220.0
141.961548 148.0
141.98288 196.0
143.154495 172.0
143.825531 152.0
144.962891 148.0
144.986847 180.0
146.035461 348.0
148.053741 176.0
149.053192 156.0
149.690521 152.0
150.036514 164.0
150.058456 184.0
150.590439 140.0
150.64418 156.0
151.640076 144.0
153.124054 152.0
153.158539 152.0
153.266937 216.0
153.978683 340.0
154.909912 176.0
155.899918 180.0
155.981934 196.0
156.13858 184.0
156.337601 148.0
157.691849 148.0
157.969391 152.0
158.284744 148.0
159.541779 204.0
160.158295 152.0
161.045181 144.0
161.142151 188.0
161.473297 192.0
162.08847 184.0
162.697205 164.0
163.81871 172.0
166.042496 180.0
166.070709 172.0
166.414597 152.0
167.028809 144.0
167.069962 168.0
167.89679 148.0
167.987076 156.0
168.495651 176.0
168.640366 168.0
170.52652 196.0
171.047485 140.0
171.29747 152.0
171.9702 204.0
173.482147 212.0
174.6875 148.0
174.958572 144.0
175.013855 160.0
175.034927 184.0
175.802032 140.0
176.398956 160.0
178.434982 152.0
180.023071 204.0
180.216751 252.0
180.846527 156.0
181.218765 240.0
181.88385 192.0
182.012711 164.0
182.437225 180.0
183.058762 160.0
184.613159 140.0
185.965088 204.0
186.095383 180.0
187.251114 236.0
187.553558 236.0
188.017227 140.0
188.773956 180.0
189.078323 528.0
189.905045 144.0
191.177078 188.0
193.991638 168.0
194.030441 164.0
194.882385 160.0
195.052048 188.0
196.017807 204.0
197.024475 5400.0
197.444336 164.0
197.58699 192.0
198.028717 708.0
199.02301 2376.0
199.26358 168.0
199.772446 152.0
200.837234 152.0
200.868256 232.0
202.238708 168.0
203.119949 212.0
203.693344 152.0
204.962234 148.0
205.05629 148.0
205.678085 156.0
207.448776 140.0
207.686783 244.0
207.936401 160.0
208.056961 188.0
208.143097 200.0
209.858017 144.0
209.938766 192.0
210.723907 160.0
210.747025 160.0
211.053406 140.0
211.247177 160.0
211.820343 152.0
211.900986 120.0
212.121719 148.0
212.179703 184.0
214.199432 176.0
214.633682 148.0
215.395416 176.0
215.591171 160.0
215.754852 148.0
216.378021 144.0
216.993271 172.0
217.163361 160.0
219.315659 188.0
220.088608 144.0
221.220963 240.0
223.955826 216.0
224.958862 116.0
224.988815 160.0
225.055466 18680.0
225.806335 144.0
226.060577 1204.0
226.917313 140.0
227.05278 3580.0
227.424286 160.0
228.055695 316.0
232.167191 164.0
232.388626 172.0
234.063446 208.0
234.271027 128.0
234.538712 140.0
234.675903 156.0
235.344116 172.0
236.013275 176.0
236.729309 196.0
237.82077 204.0
238.358215 180.0
239.490356 144.0
240.159225 156.0
241.697723 160.0
242.344864 200.0
243.22908 140.0
243.343353 104.0
244.160843 152.0
245.14772 164.0
246.255264 140.0
246.986664 144.0
247.035721 3712.0
247.133698 144.0
248.040848 424.0
248.148514 228.0
249.034912 564.0
249.121414 144.0
249.143402 188.0
250.030121 164.0
250.875854 184.0
251.713547 172.0
254.986084 144.0
255.523483 164.0
258.08963 168.0
258.51651 144.0
262.080902 216.0
263.0 204.0
265.04718 152.0
265.167084 176.0
267.115265 224.0
268.727905 172.0
268.907379 184.0
270.136139 156.0
272.805359 208.0
273.608093 172.0
275.118011 176.0
276.827423 196.0
279.220215 148.0
279.636108 176.0
281.162537 160.0
281.923981 144.0
282.120026 164.0
282.373383 236.0
282.499084 232.0
282.72995 160.0
282.821411 136.0
282.928833 272.0
283.014282 56796.0
283.112976 184.0
283.192596 192.0
283.22052 200.0
283.272369 184.0
283.313812 136.0
283.360626 100.0
283.414978 176.0
283.481506 180.0
283.607452 192.0
283.638916 104.0
283.720642 152.0
283.945496 200.0
284.017151 3964.0
284.193359 136.0
284.25119 140.0
284.291595 308.0
284.729034 100.0
284.808685 140.0
284.910126 168.0
284.959015 112.0
285.01178 28072.0
285.139313 132.0
285.274261 168.0
285.354187 100.0
285.437164 152.0
285.745178 152.0
285.786987 148.0
286.015106 2092.0
286.172607 112.0
287.005798 164.0
287.380707 140.0
287.755341 144.0
287.855072 128.0
288.056183 100.0
295.022522 144.0
301.021545 748.0
302.02179 312.0
303.024628 152.0
305.037262 164.0
305.757263 148.0
359.11792 164.0
404.291138 152.0
455.892944 140.0
582.327148 144.0
1220.16272 160.0
1608.228027 264.0
1750.201294 188.0
1785.642334 140.0
1807.085815 264.0
1842.548584 156.0
1864.055176 200.0
1874.286499 160.0
1940.617798 176.0
1960.439819 204.0
