>compound LysoPhosphatidylcholine_16_0
>formula C24H50NO7P
>ionization [M+H]+
>parentmass 496.341064
#inchi InChI=1S/C24H50NO7P/c1-5-6-7-8-9-10-11-12-13-14-15-16-17-18-24(27)30-21-23(26)22-32-33(28,29)31-20-19-25(2,3)4/h23,26H,5-22H2,1-4H3
#inchikey ASWBNKHCZGQVJV
#Ion_Source ESI
#Instrument Q-TOF
#Compound_Source Commercial standard
#PI Dorrestein
#Data_Collector Amina
#Scan -1
#Precursor_MZ 496.34
#ExactMass 495.332
#Charge 1
#CAS_Number 17364-16-8
#Pubmed_ID N/A
#Smiles CCCCCCCCCCCCCCCC(=O)OCC(COP(=O)([O-])OCC[N+](C)(C)C)O
#INCHI_AUX N/A
#Library_Class 2
#SpectrumID CCMSLIB00000077195
#IonMode Positive
#UpdateWorkflowName UPDATE-SINGLE-ANNOTATED-SILVER
#LibraryQualityString Silver
#TaskID 9bb88c04c6204bd4ae13def29ea30c87
##Scan# 2467
#SpectrumFile LysoPhosphatidylcholine_16_0.mzXML
#LibraryName gnps_library.mgf
#MQScore -1
#Organism Standards_Silver
#TIC_Query 0
#RT_Query -1
#MZErrorPPM -1
#SharedPeaks 0
#MassDiff 0
#LibMZ -1
#SpecMZ 496.34
#SpecCharge 0
#internalFilename spec-00000.mgf

>collision 10
75.981743 244.0
76.13446 100.0
76.881142 156.0
81.356979 260.0
83.1726 144.0
83.561417 224.0
84.416702 204.0
85.206528 48.0
85.397659 176.0
93.397133 136.0
95.087685 228.0
96.611122 200.0
98.985107 624.0
99.28347 96.0
100.987946 204.0
101.560669 232.0
102.41674 116.0
102.471123 148.0
103.579964 216.0
103.983658 200.0
104.086884 220.0
104.107414 5604.0
105.109421 264.0
105.884651 144.0
109.1035 192.0
110.101364 128.0
111.175095 64.0
117.403259 176.0
125.00042 3232.0
125.113121 60.0
126.005005 240.0
126.738716 188.0
130.309708 56.0
131.916046 144.0
137.397537 48.0
138.16832 176.0
140.429962 208.0
140.864182 184.0
143.469269 160.0
144.821472 80.0
145.315201 200.0
146.924377 104.0
149.957245 60.0
154.976837 208.0
157.032242 184.0
157.349075 244.0
157.448944 52.0
157.916199 56.0
160.466995 92.0
161.277161 52.0
162.309845 232.0
162.880737 188.0
163.015366 168.0
166.027084 112.0
166.066223 840.0
167.061981 284.0
173.252411 216.0
178.929413 252.0
179.001282 156.0
179.035904 188.0
181.022308 148.0
181.083893 180.0
181.560837 116.0
181.735153 148.0
181.90152 260.0
183.515335 172.0
183.725662 84.0
183.744537 236.0
183.882126 56.0
184.073547 15712.0
184.168259 84.0
184.239822 40.0
184.281693 76.0
184.457321 128.0
184.562729 44.0
184.641144 104.0
184.703339 152.0
184.892685 52.0
185.075485 880.0
185.106506 68.0
185.255432 92.0
185.906021 128.0
186.077362 396.0
186.324081 232.0
186.430023 176.0
186.598511 148.0
192.554642 80.0
195.809967 136.0
198.368851 240.0
204.793167 160.0
208.920029 64.0
210.095154 216.0
212.032059 184.0
212.376999 48.0
217.112503 244.0
220.172516 144.0
224.128922 216.0
225.056351 188.0
232.687408 212.0
239.07457 220.0
240.285263 196.0
241.128082 100.0
241.761932 144.0
245.919418 164.0
250.017944 240.0
254.29628 136.0
256.006317 232.0
258.110168 628.0
258.940643 140.0
259.014282 84.0
259.209686 148.0
260.965057 136.0
262.184784 168.0
263.882294 104.0
265.173615 72.0
267.238495 220.0
267.50528 180.0
274.571411 52.0
275.690338 80.0
276.563263 128.0
281.873291 108.0
282.464935 188.0
291.18634 152.0
291.237274 172.0
292.695892 168.0
294.858246 96.0
301.13739 232.0
306.527405 180.0
311.410156 156.0
313.271667 380.0
314.885651 72.0
316.936981 164.0
318.50824 152.0
319.037598 80.0
321.173706 36.0
323.28476 220.0
324.534607 212.0
330.353363 168.0
331.156769 132.0
331.703796 92.0
332.646729 76.0
332.69754 60.0
333.776367 144.0
334.125458 248.0
335.264923 156.0
339.438721 80.0
339.768738 204.0
340.370544 232.0
340.502716 100.0
340.851624 132.0
341.715515 164.0
343.280609 184.0
344.505707 140.0
345.037781 184.0
346.847595 172.0
349.870758 148.0
351.655884 232.0
356.238068 180.0
359.44516 160.0
362.507446 120.0
362.918976 172.0
367.35788 232.0
370.059265 164.0
370.154968 88.0
372.835846 32.0
374.112549 140.0
375.083099 260.0
375.110077 104.0
376.606873 200.0
378.853821 268.0
379.481537 180.0
381.317261 120.0
382.620544 168.0
384.127869 156.0
385.931335 180.0
391.235016 296.0
393.13443 60.0
393.398834 200.0
394.911896 112.0
395.315338 192.0
395.87735 168.0
396.538788 124.0
402.229401 132.0
403.959259 140.0
405.115906 128.0
411.767456 180.0
415.040558 124.0
416.123657 80.0
416.586517 132.0
417.074036 116.0
418.876251 48.0
419.246948 256.0
420.282471 152.0
420.984406 128.0
424.728455 120.0
426.96228 312.0
427.908508 116.0
428.690948 112.0
429.098907 48.0
430.836029 176.0
432.377991 120.0
432.593201 108.0
432.796021 196.0
433.968323 140.0
434.225372 176.0
443.232208 84.0
444.147308 184.0
445.341919 184.0
446.430206 216.0
447.452454 92.0
451.959167 124.0
453.860565 180.0
461.980774 132.0
464.096008 124.0
466.375092 116.0
467.841614 112.0
469.232849 200.0
470.26358 108.0
471.178864 128.0
471.407806 180.0
471.848572 176.0
472.004211 108.0
472.233368 100.0
474.428253 144.0
474.887787 160.0
476.050629 112.0
476.298157 104.0
477.80191 112.0
478.102081 168.0
478.327667 4024.0
478.737549 48.0
478.772369 60.0
479.333069 1100.0
479.473633 112.0
479.543091 68.0
479.957397 136.0
480.338074 392.0
480.57663 140.0
481.322876 148.0
481.938599 136.0
482.314362 108.0
483.206268 148.0
483.639404 132.0
483.954529 68.0
484.011444 224.0
487.194916 76.0
487.946289 132.0
488.196838 212.0
488.319977 196.0
489.053741 128.0
490.194977 164.0
490.565125 168.0
491.442566 140.0
491.72934 140.0
491.897034 168.0
491.941162 108.0
492.064758 140.0
492.139801 312.0
492.607819 108.0
492.656403 112.0
492.855194 60.0
492.919128 84.0
493.009796 80.0
493.071655 132.0
493.221893 132.0
493.61087 84.0
493.87616 132.0
493.91156 24.0
494.039795 80.0
494.12384 204.0
494.199036 124.0
494.277893 208.0
494.415833 72.0
494.455658 136.0
494.508728 164.0
494.601685 196.0
494.703461 176.0
494.761719 172.0
494.902649 152.0
494.938049 68.0
494.977905 176.0
495.179565 124.0
495.210205 128.0
495.264282 136.0
495.330963 340.0
495.373505 352.0
495.527008 244.0
495.639435 168.0
495.714386 180.0
495.766235 240.0
495.798035 92.0
495.868134 172.0
495.89917 84.0
495.969116 168.0
496.068481 216.0
496.118713 236.0
496.163422 140.0
496.191681 388.0
496.230957 236.0
496.266205 576.0
496.341064 88064.0
496.473694 356.0
496.54068 124.0
496.586761 140.0
496.630585 124.0
496.685974 188.0
496.758545 88.0
496.850891 156.0
496.916748 124.0
497.000702 248.0
497.032806 164.0
497.068939 288.0
497.132019 236.0
497.175201 424.0
497.221649 276.0
497.344513 21136.0
497.403076 396.0
497.500336 112.0
497.533234 192.0
497.636383 116.0
497.727142 220.0
497.769409 144.0
497.831207 132.0
497.885437 80.0
497.944061 48.0
498.011688 108.0
498.046173 112.0
498.077271 40.0
498.117249 88.0
498.176086 80.0
498.2435 312.0
498.343658 3956.0
498.494812 204.0
498.581451 56.0
498.649628 172.0
498.71698 208.0
498.77475 100.0
498.820221 68.0
498.8703 80.0
498.918396 172.0
498.973541 76.0
499.06366 88.0
499.112549 168.0
499.215424 84.0
499.268951 120.0
499.350952 588.0
499.45047 120.0
499.540894 168.0
499.606659 136.0
499.648163 116.0
499.792938 100.0
499.869415 84.0
499.992249 104.0
500.10257 68.0
500.153351 64.0
500.208405 128.0
500.266937 132.0
500.31601 128.0
500.374023 96.0
500.407043 80.0
500.478271 136.0
500.521545 136.0
500.567291 132.0
500.665253 60.0
500.789917 76.0
500.976959 156.0
501.012604 148.0
501.052673 68.0
501.213043 184.0
501.302155 48.0
501.427795 60.0
501.489288 88.0
501.565033 108.0
501.622803 100.0
501.716583 92.0
501.859222 44.0
501.899323 44.0
502.122253 136.0
502.220367 92.0
502.269409 36.0
502.394287 84.0
502.545929 104.0
502.766327 84.0
502.880554 56.0
503.380463 44.0
503.575836 148.0
503.835938 52.0
504.032501 52.0
504.193329 44.0
504.269287 84.0
504.778809 64.0
506.291046 68.0
506.49704 56.0
506.644836 128.0
507.195892 100.0
507.36618 48.0
507.635162 52.0
507.998383 76.0
508.119476 116.0
508.442474 124.0
509.187592 100.0
509.506439 132.0
510.387177 84.0
510.468079 148.0
510.773834 48.0
511.822235 104.0
512.754517 76.0
513.164612 44.0
513.773376 68.0
514.021484 68.0
515.470642 100.0
516.998779 32.0
517.972046 56.0
518.144104 144.0
518.30719 76.0
518.375183 56.0
519.317932 124.0
519.354187 108.0
519.821411 40.0
521.796814 64.0
525.758789 92.0
525.904846 36.0
529.081116 104.0
529.603027 196.0
529.859497 64.0
533.259033 72.0
535.020386 116.0
540.812378 92.0
554.938721 144.0
573.218323 84.0
587.541992 92.0
622.633972 108.0
633.690613 72.0
634.798096 152.0
637.287292 108.0
642.144043 152.0
660.619446 152.0
665.430664 120.0
666.87384 100.0
678.278564 88.0
685.548096 40.0
692.416504 64.0
695.068481 84.0
710.827026 164.0
713.997803 132.0
729.742493 160.0
729.898376 188.0
731.377502 144.0
736.617615 80.0
740.641174 76.0
745.767578 136.0
756.686279 40.0
766.604126 68.0
768.68811 172.0
768.864685 128.0
769.107483 120.0
769.891296 156.0
772.134583 148.0
777.218872 132.0
782.843079 92.0
782.921021 96.0
789.370605 100.0
791.765259 48.0
791.882812 72.0
801.492737 64.0
803.713867 168.0
820.863525 56.0
884.424622 84.0
890.001953 76.0
907.540466 176.0
918.405029 108.0
931.428162 104.0
951.564514 120.0
960.855835 52.0
965.598816 76.0
971.209045 112.0
988.362488 176.0
1002.935608 88.0
1005.11084 124.0
1008.261353 88.0
1061.756226 144.0
1078.321899 108.0
1100.903931 100.0
1176.201538 108.0
1202.477539 100.0
1208.474365 92.0
1222.668823 72.0
1228.666992 52.0
1248.394043 116.0
1376.353149 196.0
1378.472778 68.0
1378.664795 256.0
1416.131836 96.0
1418.37915 200.0
1439.206421 80.0
1448.415771 72.0
1475.707764 76.0
1487.25 100.0
1508.760498 244.0
1633.490479 88.0
1641.542725 96.0
1648.410767 232.0
1659.24646 76.0
1674.145264 188.0
1685.841064 156.0
1738.602539 92.0
1742.786743 44.0
1784.964844 216.0
1792.429688 36.0
1804.234985 196.0
1805.384644 88.0
1847.51355 128.0
1857.499878 272.0
1912.644653 196.0
1926.637695 268.0
1927.773315 104.0
1946.822754 80.0
