>compound MLS001055349-01!80-08-0
>formula C12H12N2O2S
>ionization [M+H]+
>parentmass 249.071
#inchi InChI=1S/C12H12N2O2S/c13-9-1-5-11(6-2-9)17(15,16)12-7-3-10(14)4-8-12/h1-8H,13-14H2
#inchikey MQJKPEGWNLWLTK
#Ion_Source LC-ESI
#Instrument qTof
#Compound_Source NIH Pharmacologically Active Library
#PI Dorrestein
#Data_Collector VP/LMS
#Scan -1
#Precursor_MZ 249.071
#ExactMass 248.062
#Charge 1
#CAS_Number N/A
#Pubmed_ID N/A
#Smiles Nc1ccc(cc1)S(=O)(=O)c2ccc(N)cc2
#INCHI_AUX N/A
#Library_Class 3
#SpectrumID CCMSLIB00000084746
#IonMode Positive
#UpdateWorkflowName UPDATE-SINGLE-ANNOTATED-BRONZE
#LibraryQualityString Bronze
#TaskID d252d724072548979f1f6f1ced849daf
##Scan# 1455
#SpectrumFile p3-A03_GA3_01_18225.mzXML
#LibraryName Pharm_Active_Library.mgf
#MQScore -1
#Organism Pharm_Active_Library
#TIC_Query 0
#RT_Query -1
#MZErrorPPM -1
#SharedPeaks 0
#MassDiff 0
#LibMZ -1
#SpecMZ 249.071
#SpecCharge 0
#internalFilename spec-00000.mgf

>collision 10
45.702888 144.0
46.792477 128.0
46.998287 192.0
48.665211 160.0
49.071487 128.0
54.364346 172.0
54.458305 148.0
55.381645 160.0
57.430962 156.0
57.494331 200.0
58.407963 196.0
59.463779 104.0
60.476414 120.0
63.258144 132.0
68.438332 208.0
72.389488 204.0
74.743515 108.0
75.14843 140.0
76.308876 168.0
78.76944 216.0
83.878769 140.0
89.332893 200.0
91.596924 192.0
92.049759 684.0
92.574799 208.0
92.973541 208.0
93.058174 636.0
93.515518 200.0
95.368462 160.0
101.09037 120.0
104.435455 140.0
106.292503 192.0
107.496292 96.0
107.746124 192.0
107.938339 176.0
108.045311 3952.0
108.074318 200.0
108.091064 96.0
108.120384 80.0
108.441399 120.0
108.505661 92.0
108.613495 48.0
109.048439 272.0
109.60099 108.0
121.35405 224.0
122.975319 144.0
124.0215 120.0
125.04763 176.0
130.493942 160.0
132.527573 184.0
135.00441 168.0
137.061096 80.0
138.957306 188.0
140.014893 248.0
142.026413 164.0
145.076309 152.0
147.802689 148.0
150.955215 184.0
151.060379 180.0
156.013016 700.0
156.983307 52.0
157.015717 196.0
158.185059 32.0
167.076813 304.0
168.914627 92.0
171.117889 80.0
237.242142 56.0
249.061234 288.0
250.076599 104.0
454.358185 40.0
848.690796 180.0
999.292847 116.0
1047.919434 184.0
1073.112427 188.0
1094.321045 208.0
1104.841064 64.0
1119.669556 180.0
1120.362305 164.0
1122.39502 152.0
1123.628906 160.0
1157.193726 216.0
1161.82251 240.0
1204.319214 156.0
1205.079102 156.0
1227.854614 96.0
1248.127686 144.0
1262.661499 116.0
1313.164795 224.0
1316.137939 204.0
1318.94104 160.0
1345.543335 184.0
1345.835449 228.0
1349.920044 228.0
1365.165649 164.0
1371.018188 56.0
1384.700439 192.0
1396.568237 144.0
1405.918335 132.0
1411.483521 176.0
1423.397827 156.0
1446.407349 236.0
1456.226318 188.0
1464.630981 148.0
1469.334351 208.0
1475.887451 132.0
1475.994507 144.0
1505.240356 64.0
