>compound [(8R,9S,10R,13S,14S,17R)-17-acetyl-6,10,13-trimethyl-3-oxo-2,8,9,11,12,14,15,16-octahydro-1H-cyclopenta[a]phenanthren-17-yl] acetate
>formula C24H32O4
>ionization [M+H]+
>parentmass 385.23733595609053
#inchi InChI=1S/C24H32O4/c1-14-12-18-19(22(4)9-6-17(27)13-21(14)22)7-10-23(5)20(18)8-11-24(23,15(2)25)28-16(3)26/h12-13,18-20H,6-11H2,1-5H3/t18-,19+,20+,22-,23+,24+/m1/s1
#inchikey RQZAXGRLVPAYTJ
#Ion_Source LC-ESI
#Instrument qTof
#Compound_Source Commercial
#PI Dorrestein
#Data_Collector Garg_Neha
#Scan -1
#Precursor_MZ 385.237
#ExactMass 384.23
#Charge 1
#CAS_Number N/A
#Pubmed_ID N/A
#Smiles CC(=O)O[C@@]1(CC[C@H]2[C@@H]3C=C(C)C4=CC(=O)CC[C@]4(C)[C@H]3CC[C@@]21C)C(=O)C
#INCHI_AUX N/A
#Library_Class 1
#SpectrumID CCMSLIB00000079011
#IonMode Positive
#UpdateWorkflowName UPDATE-SINGLE-ANNOTATED-GOLD
#LibraryQualityString Gold
#TaskID 278b19f5865741e282cec7349aa7e7a1
##Scan# 2253
#SpectrumFile NCP003352_E2_F11_BC6_01_15720.mzXML
#LibraryName NIHcollectionI_05062014.mgf
#MQScore -1
#Organism NIHcollectionI_05062014
#TIC_Query 0
#RT_Query -1
#MZErrorPPM -1
#SharedPeaks 0
#MassDiff 0
#LibMZ -1
#SpecMZ 385.237
#SpecCharge 0
#internalFilename spec-00000.mgf

>collision 10
44.899391 176.0
44.999474 164.0
45.864754 216.0
46.735558 192.0
46.863544 160.0
46.928967 164.0
47.582962 160.0
47.812519 204.0
48.2673 244.0
49.181904 184.0
51.838146 152.0
51.876842 216.0
52.168259 172.0
54.047958 176.0
54.501934 184.0
55.292427 164.0
55.549263 176.0
55.966881 264.0
62.557274 188.0
63.681534 180.0
63.765739 152.0
63.886585 152.0
64.430206 160.0
64.799782 192.0
65.302223 204.0
65.745277 208.0
66.254608 156.0
66.603371 156.0
67.398392 148.0
67.740326 232.0
68.359299 152.0
68.895378 128.0
69.328659 228.0
69.368439 216.0
69.413208 160.0
70.408356 200.0
70.43174 148.0
72.750565 188.0
73.209641 224.0
73.47213 160.0
73.7556 184.0
74.113274 172.0
76.669098 272.0
76.850449 156.0
77.994011 152.0
78.09951 228.0
78.132935 160.0
78.154045 184.0
78.640427 236.0
79.254066 148.0
79.774071 140.0
80.242279 164.0
81.590401 144.0
81.640747 164.0
81.948547 172.0
83.214607 200.0
84.318489 160.0
85.251305 180.0
85.716866 144.0
86.174461 216.0
86.44812 148.0
87.843452 144.0
88.761749 144.0
89.266876 180.0
89.52845 276.0
90.86293 176.0
91.39431 124.0
93.259499 176.0
93.648155 144.0
93.92186 212.0
94.157326 172.0
94.675621 156.0
94.898453 144.0
95.381844 180.0
96.721909 148.0
97.066521 196.0
97.809341 164.0
97.941269 180.0
98.075256 168.0
98.458008 144.0
99.045425 176.0
99.082527 516.0
99.24955 196.0
99.582939 176.0
99.61274 172.0
100.082085 148.0
100.207565 172.0
100.532829 128.0
102.336632 152.0
102.63282 180.0
102.725586 152.0
104.63868 140.0
105.070869 604.0
105.178902 184.0
106.066635 172.0
106.349693 148.0
107.088303 512.0
108.089066 180.0
109.108032 312.0
109.471558 168.0
109.51738 140.0
110.627625 132.0
111.077652 128.0
112.543549 180.0
112.873177 164.0
113.061447 176.0
113.515007 188.0
114.054039 184.0
115.482605 160.0
115.985771 184.0
116.550194 160.0
117.077217 172.0
117.698257 144.0
119.049477 144.0
119.086685 452.0
119.924065 212.0
120.554779 188.0
120.758102 200.0
121.064178 828.0
121.100212 256.0
121.40197 204.0
121.592834 264.0
122.068733 324.0
122.29174 176.0
123.084686 172.0
123.1185 172.0
124.085464 204.0
124.24958 156.0
124.283752 188.0
124.909874 136.0
125.062004 172.0
125.098495 192.0
125.452698 144.0
125.963707 176.0
128.061737 156.0
128.685593 148.0
129.07283 264.0
129.268997 148.0
129.610672 164.0
130.009781 176.0
130.15506 324.0
130.277695 212.0
130.871292 144.0
131.085098 996.0
131.11731 148.0
131.16745 184.0
132.873428 144.0
133.102386 2140.0
133.977234 144.0
134.104599 524.0
134.12442 192.0
134.888458 156.0
135.0793 600.0
135.116516 340.0
135.810013 160.0
136.302185 192.0
136.853683 156.0
137.096954 420.0
138.099411 156.0
139.07428 192.0
139.656982 188.0
139.732269 188.0
141.07486 308.0
141.760529 176.0
142.07869 388.0
142.712372 168.0
143.08493 596.0
143.479004 140.0
143.69841 212.0
143.760452 184.0
144.054123 184.0
144.093918 304.0
145.062622 276.0
145.101212 1816.0
145.512573 144.0
146.080154 180.0
146.109909 184.0
146.457642 152.0
147.021805 140.0
147.080917 852.0
147.11702 912.0
148.083405 148.0
148.12207 156.0
149.095703 904.0
149.133759 176.0
149.208313 144.0
149.768753 168.0
150.092545 176.0
150.136765 188.0
151.110245 720.0
153.07988 168.0
153.195694 192.0
153.975128 168.0
154.129776 240.0
155.083633 872.0
155.219879 164.0
155.579636 164.0
156.092102 1012.0
156.698776 196.0
156.828354 164.0
157.101868 1496.0
157.629456 180.0
157.876938 144.0
158.069565 188.0
158.104446 280.0
158.337418 160.0
159.082367 332.0
159.11615 996.0
159.300583 224.0
159.426208 168.0
159.846146 156.0
160.032135 144.0
160.084991 304.0
160.120331 320.0
160.884552 152.0
161.056274 160.0
161.09639 2120.0
161.135086 540.0
161.501129 164.0
162.101425 136.0
163.062943 192.0
163.111298 616.0
163.147873 176.0
163.802429 208.0
164.014847 144.0
164.114502 184.0
164.599075 168.0
164.808533 172.0
165.09227 252.0
165.127045 352.0
165.49144 140.0
166.074341 148.0
166.131409 152.0
166.90007 212.0
167.084778 236.0
167.242218 148.0
168.065201 164.0
168.092316 160.0
168.299179 144.0
169.100525 1984.0
170.080276 168.0
170.110657 216.0
170.620605 152.0
170.995163 140.0
171.082153 784.0
171.117661 1516.0
171.878586 164.0
172.089417 184.0
172.117874 420.0
172.259766 144.0
173.095581 1356.0
173.131073 1072.0
174.102051 584.0
175.112076 4448.0
175.240005 172.0
175.735672 224.0
176.11792 756.0
176.771469 148.0
176.848206 188.0
177.092041 168.0
177.128433 488.0
177.552948 156.0
178.087296 144.0
178.129364 140.0
178.221893 140.0
179.088364 352.0
179.104446 188.0
180.108612 184.0
181.100281 752.0
181.234299 180.0
181.785019 168.0
182.107025 308.0
182.82666 148.0
183.116837 3680.0
184.121918 468.0
184.965073 172.0
185.096573 988.0
185.132599 1324.0
185.229874 184.0
186.133774 304.0
187.111801 4624.0
187.139862 356.0
188.117569 616.0
188.702118 200.0
189.127411 1376.0
189.350632 184.0
189.616379 172.0
190.211578 148.0
191.100739 152.0
191.145645 280.0
191.553467 140.0
192.148926 144.0
193.018951 148.0
193.097733 568.0
194.108841 520.0
194.789917 180.0
195.117996 1268.0
195.348648 144.0
195.434891 144.0
196.120361 396.0
196.744797 180.0
197.063187 160.0
197.100174 240.0
197.132263 1516.0
198.100418 232.0
198.139832 1792.0
198.987289 176.0
199.026596 172.0
199.111649 452.0
199.146652 1752.0
199.224976 108.0
199.315308 184.0
199.377731 192.0
199.43486 172.0
200.111832 176.0
200.155472 816.0
200.221725 152.0
200.283676 152.0
200.582367 144.0
200.980011 156.0
201.125259 544.0
201.16449 480.0
201.483536 104.0
202.131302 156.0
202.166809 308.0
202.693512 216.0
203.103104 256.0
203.143951 160.0
203.993378 160.0
204.107101 140.0
204.144058 332.0
204.479752 164.0
205.097809 180.0
205.120621 168.0
205.15889 144.0
205.709625 180.0
206.022583 152.0
206.110931 184.0
207.118958 1144.0
207.599442 156.0
208.125824 812.0
208.150391 184.0
208.960938 208.0
209.073151 208.0
209.13295 7244.0
209.307022 148.0
209.372162 204.0
210.137848 2208.0
210.347092 164.0
210.722504 152.0
210.921906 140.0
211.112488 520.0
211.147293 6104.0
211.248398 200.0
211.335449 152.0
211.52356 140.0
212.115143 408.0
212.152603 476.0
213.075027 140.0
213.126984 812.0
213.163132 484.0
213.708847 212.0
214.176254 176.0
215.140335 900.0
216.104263 152.0
216.145538 112.0
216.467209 196.0
216.496185 184.0
217.116913 176.0
218.116226 184.0
218.339478 144.0
218.386536 144.0
218.463013 152.0
219.124313 156.0
219.38475 160.0
219.496796 172.0
220.126373 392.0
221.133453 1028.0
222.063705 164.0
222.140274 684.0
222.868195 156.0
223.102982 140.0
223.1483 4848.0
223.34491 212.0
223.471771 148.0
223.908829 140.0
224.031464 184.0
224.082108 200.0
224.110886 140.0
224.156265 19284.0
224.850342 228.0
224.900391 108.0
225.125427 556.0
225.162827 9180.0
225.270203 128.0
226.135162 368.0
226.166794 1160.0
226.693695 132.0
226.893082 204.0
227.140518 308.0
227.174545 268.0
228.159256 184.0
228.36882 180.0
229.130981 104.0
229.158966 396.0
230.11058 172.0
230.53949 200.0
231.137589 172.0
231.5681 180.0
232.133469 148.0
233.132446 272.0
233.997391 176.0
234.030884 168.0
234.137772 1108.0
235.147141 856.0
236.127289 184.0
236.157745 156.0
237.127838 752.0
237.160858 1356.0
237.201996 188.0
238.136459 488.0
238.166565 324.0
238.217697 160.0
238.703308 160.0
239.141968 1112.0
239.171829 604.0
239.80542 156.0
240.148987 304.0
240.182938 200.0
240.379028 160.0
240.990402 188.0
241.116714 128.0
241.158386 2832.0
242.160828 232.0
242.199982 152.0
243.177246 960.0
243.656342 100.0
244.193192 180.0
244.503738 176.0
245.125198 312.0
245.167068 188.0
245.977982 148.0
246.139343 152.0
246.290237 156.0
246.499557 140.0
247.146072 732.0
248.156464 144.0
249.11145 152.0
249.16423 3560.0
250.167755 1152.0
251.14418 920.0
251.17749 256.0
251.253204 188.0
252.150391 124.0
252.425003 228.0
253.159882 824.0
253.532959 244.0
253.953293 124.0
254.124817 160.0
254.154419 308.0
254.719574 200.0
254.986465 152.0
255.139038 324.0
255.175095 5272.0
255.409332 192.0
256.10321 160.0
256.14917 264.0
256.177338 2336.0
257.094727 148.0
257.14801 340.0
257.185455 132.0
259.170044 140.0
259.756714 140.0
260.158508 264.0
260.514282 180.0
260.578552 164.0
261.159393 140.0
261.858826 252.0
261.920013 248.0
262.326019 216.0
262.803314 148.0
263.179901 1632.0
264.127838 216.0
264.185303 1240.0
265.158875 1404.0
265.195648 12296.0
265.275085 116.0
265.624237 104.0
265.877441 184.0
266.166046 448.0
266.199738 2744.0
266.463531 120.0
266.881073 140.0
267.065674 216.0
267.11554 196.0
267.17511 46264.0
267.448242 152.0
267.767456 112.0
268.013855 180.0
268.06778 96.0
268.178406 7928.0
269.183899 1124.0
269.728943 184.0
269.817108 96.0
269.906311 108.0
269.974518 180.0
270.1203 112.0
270.178497 188.0
270.363312 140.0
270.697998 172.0
273.163696 156.0
274.176483 188.0
275.170654 116.0
278.057129 152.0
278.168518 164.0
278.648193 236.0
279.171814 252.0
279.209961 144.0
279.689056 140.0
280.184296 128.0
280.631012 176.0
280.968689 184.0
281.153778 152.0
281.191498 4828.0
281.705383 112.0
282.149445 120.0
282.198669 12288.0
282.30011 100.0
283.203949 7912.0
284.209442 1688.0
284.74884 140.0
284.88092 164.0
285.212769 136.0
286.167938 268.0
286.222656 132.0
287.505035 152.0
287.977692 196.0
288.352722 144.0
288.484558 156.0
289.066284 164.0
289.193451 544.0
290.199341 224.0
291.521393 144.0
291.844299 172.0
292.00415 232.0
292.184052 516.0
293.011719 172.0
293.189056 156.0
293.430908 188.0
294.157532 144.0
295.171875 292.0
295.179626 328.0
296.068787 148.0
296.174622 136.0
297.214813 100.0
297.728638 156.0
298.22818 144.0
299.217499 252.0
299.327667 184.0
301.988861 136.0
303.189789 160.0
305.077972 184.0
306.264557 168.0
307.206024 6904.0
308.210449 1136.0
309.216797 128.0
310.18924 268.0
312.421906 144.0
313.344299 148.0
315.030609 164.0
322.85733 168.0
322.986115 176.0
323.209351 232.0
323.265167 284.0
323.934662 168.0
324.022888 172.0
324.204681 360.0
324.318085 152.0
324.623047 192.0
324.8255 124.0
324.863129 256.0
324.928711 248.0
324.982758 272.0
325.025299 96.0
325.145813 192.0
325.217529 84800.0
325.312347 260.0
325.375946 108.0
325.613617 116.0
325.777069 164.0
325.808533 144.0
325.834656 96.0
325.91864 180.0
326.055176 232.0
326.099701 164.0
326.219971 15252.0
326.290314 216.0
326.542664 148.0
326.708038 168.0
327.098236 144.0
327.151917 136.0
327.223358 2324.0
327.586945 100.0
328.127197 108.0
328.162598 132.0
328.225494 620.0
328.338501 132.0
328.474121 104.0
329.494751 136.0
330.143341 176.0
330.653442 152.0
336.005859 148.0
336.797455 128.0
337.967865 176.0
341.73233 176.0
343.227722 228.0
344.229736 172.0
344.44873 132.0
345.262421 172.0
345.536133 180.0
346.162598 304.0
347.40329 152.0
347.744659 152.0
349.000275 172.0
350.880463 140.0
353.569855 164.0
354.483612 164.0
355.873322 168.0
357.67215 188.0
358.542175 208.0
362.1427 156.0
362.874054 228.0
365.399689 164.0
372.548737 232.0
380.073547 148.0
380.151154 148.0
381.915253 100.0
381.960693 200.0
383.257355 140.0
383.363068 108.0
383.950439 148.0
384.055786 144.0
384.466492 128.0
384.54657 140.0
384.588867 172.0
384.683929 220.0
384.943665 188.0
384.9823 192.0
385.107117 124.0
385.140381 156.0
385.239349 100436.0
385.332214 512.0
385.594696 156.0
385.701508 128.0
385.764099 212.0
385.879211 228.0
385.933502 128.0
385.996826 268.0
386.13559 108.0
386.179077 272.0
386.242004 18568.0
386.320496 176.0
386.427368 136.0
386.704498 108.0
386.888672 136.0
387.001068 164.0
387.245728 2992.0
387.319 104.0
387.412872 108.0
387.77536 180.0
388.154083 164.0
388.249115 556.0
388.431244 144.0
388.497986 120.0
388.643066 148.0
388.698273 200.0
388.852112 164.0
388.943298 108.0
389.259613 136.0
389.407593 152.0
389.729095 156.0
391.249451 116.0
391.77948 164.0
392.148682 104.0
399.726379 116.0
473.346619 96.0
699.398193 184.0
744.087952 148.0
753.683655 120.0
1255.354004 148.0
1274.693359 220.0
1392.630493 156.0
1641.462036 176.0
1655.822388 164.0
1685.253662 184.0
1728.611938 172.0
1764.485962 140.0
1766.16687 156.0
1772.814331 184.0
1810.28479 220.0
1822.321045 148.0
1834.780884 244.0
1837.185791 172.0
1841.197388 140.0
1847.539673 160.0
1855.332764 236.0
1858.394531 164.0
1858.489014 164.0
1873.68103 176.0
1877.835815 156.0
1938.193604 168.0
1985.985718 196.0
1986.43811 164.0
