>compound MLS000736975-01!
>formula C29H45NO3
>ionization [M+H]+
>parentmass 456.347443
#inchi InChI=1S/C29H45NO3/c1-17-8-13-29(30-16-17)18(2)26-25(33-29)15-24-22-7-6-20-14-21(32-19(3)31)9-11-27(20,4)23(22)10-12-28(24,26)5/h6,17-18,21-26,30H,7-16H2,1-5H3
#inchikey MCQNPWNREVNWDQ
#Ion_Source LC-ESI
#Instrument qTof
#Compound_Source NIH Natural Product Library
#PI Dorrestein
#Data_Collector VVP/LMS
#Scan -1
#Precursor_MZ 456.348
#ExactMass 455.34
#Charge 1
#CAS_Number N/A
#Pubmed_ID N/A
#Smiles CC1C2C(CC3C4CC=C5CC(CCC5(C)C4CCC23C)OC(=O)C)OC61CCC(C)CN6
#INCHI_AUX N/A
#Library_Class 1
#SpectrumID CCMSLIB00000079498
#IonMode Positive
#UpdateWorkflowName UPDATE-SINGLE-ANNOTATED-GOLD
#LibraryQualityString Gold
#TaskID b1d8e8f6646f4e71acdff9ca3d919d08
##Scan# 2387
#SpectrumFile p1-B07_GB7_01_17891.mzXML
#LibraryName NIH_Natural_Products_Library.mgf
#MQScore -1
#Organism NIH_Natural_Products_Library
#TIC_Query 0
#RT_Query -1
#MZErrorPPM -1
#SharedPeaks 0
#MassDiff 0
#LibMZ -1
#SpecMZ 456.348
#SpecCharge 0
#internalFilename spec-00000.mgf

>collision 10
95.042862 176.0
95.063271 176.0
95.085701 676.0
95.154495 72.0
95.251595 68.0
95.469269 80.0
95.510117 80.0
95.531509 124.0
95.556801 152.0
95.572365 48.0
95.665787 152.0
95.72522 136.0
95.81826 148.0
96.028206 152.0
96.081352 408.0
96.155022 80.0
96.180389 80.0
96.260437 108.0
96.438217 152.0
96.50663 88.0
96.610291 84.0
96.688553 44.0
96.717911 140.0
96.781693 76.0
96.864769 180.0
97.066818 176.0
97.086243 148.0
97.101929 176.0
97.117622 196.0
97.135269 196.0
97.178429 200.0
97.472954 44.0
97.520119 164.0
97.895874 284.0
97.931328 176.0
98.098389 168.0
98.197403 168.0
98.230934 160.0
98.276306 148.0
98.290115 172.0
98.317741 124.0
98.335503 180.0
98.67131 228.0
98.748428 164.0
98.833488 104.0
98.847343 192.0
98.981941 172.0
99.051262 124.0
99.251427 152.0
99.271255 152.0
99.398209 212.0
99.418045 152.0
99.445831 180.0
99.505386 124.0
99.576866 84.0
99.700043 136.0
99.857101 168.0
99.930702 100.0
100.111832 108.0
100.294891 172.0
100.480583 60.0
100.652229 76.0
100.722206 100.0
100.75808 100.0
100.828018 200.0
100.895981 220.0
100.92997 52.0
100.987961 192.0
101.029968 112.0
101.083984 104.0
101.126015 200.0
101.154037 176.0
101.374344 176.0
101.831749 148.0
101.951393 180.0
102.125191 132.0
102.187546 184.0
102.219742 204.0
102.473442 252.0
102.543968 152.0
102.596375 132.0
102.616539 228.0
102.836418 144.0
102.854584 200.0
102.882843 240.0
102.950714 156.0
103.054863 180.0
103.121193 172.0
103.212875 192.0
103.26474 144.0
103.454941 164.0
103.702065 248.0
103.759361 180.0
103.825729 52.0
104.071259 120.0
104.087509 100.0
104.124062 164.0
104.223595 188.0
104.300354 156.0
104.471634 204.0
104.685341 140.0
104.748474 44.0
104.862579 216.0
104.88092 80.0
104.984901 120.0
105.069405 3696.0
105.113411 132.0
105.14402 40.0
105.382484 200.0
105.429932 224.0
105.554626 112.0
105.658936 156.0
105.865669 172.0
105.88205 192.0
105.95784 168.0
106.052101 196.0
106.072571 540.0
106.110588 188.0
106.19767 72.0
106.298195 60.0
106.499382 176.0
106.524956 156.0
106.600052 72.0
106.665817 172.0
106.698708 152.0
106.768623 152.0
106.791344 164.0
106.88176 92.0
106.961639 280.0
107.021721 116.0
107.052612 140.0
107.085228 4084.0
107.126755 208.0
107.627914 200.0
107.66095 184.0
107.691933 32.0
107.774559 60.0
107.931648 148.0
108.03299 40.0
108.05368 192.0
108.085884 284.0
108.121964 52.0
108.178757 164.0
108.306229 148.0
108.457481 188.0
108.683716 132.0
108.731255 116.0
108.771194 180.0
108.884888 148.0
108.934731 84.0
108.955505 96.0
109.075233 180.0
109.101166 6596.0
109.17791 44.0
109.225746 112.0
109.244469 120.0
109.469246 44.0
109.531731 52.0
109.696342 72.0
109.802681 160.0
109.817284 136.0
109.942459 272.0
110.084412 132.0
110.105675 684.0
110.134537 92.0
110.151245 100.0
110.26561 168.0
110.412506 200.0
110.506638 84.0
110.715958 132.0
110.778786 100.0
111.063866 68.0
111.084839 160.0
111.102165 248.0
111.117523 172.0
111.337158 184.0
111.370308 148.0
111.418625 156.0
111.494263 232.0
111.618286 56.0
111.64563 144.0
111.694 108.0
111.843391 120.0
111.874969 136.0
111.934814 236.0
112.024483 196.0
112.129837 80.0
112.15934 152.0
112.239449 108.0
112.781769 400.0
112.927895 120.0
112.997696 148.0
113.603592 156.0
113.699066 140.0
113.841301 160.0
113.875282 156.0
113.949631 244.0
114.066513 180.0
114.091568 3124.0
114.351524 148.0
114.47287 108.0
114.579369 88.0
114.602798 68.0
114.724281 132.0
114.971695 200.0
115.057068 496.0
115.148895 108.0
115.199608 172.0
115.281349 232.0
115.8162 108.0
115.893318 164.0
115.942604 160.0
116.04335 204.0
116.062332 224.0
116.099098 140.0
116.302917 144.0
116.459656 52.0
116.500465 124.0
116.592857 216.0
116.962791 84.0
117.070381 1056.0
117.102745 136.0
117.154129 140.0
117.285881 140.0
117.46701 124.0
117.589996 124.0
117.788635 204.0
117.901924 120.0
117.996094 44.0
118.072296 516.0
118.125847 196.0
118.216713 244.0
118.283806 144.0
118.32061 168.0
118.506866 76.0
118.539368 172.0
118.58271 152.0
118.597885 212.0
118.706276 160.0
118.788696 68.0
119.016571 36.0
119.085464 2548.0
119.179474 144.0
119.368576 84.0
119.41642 160.0
119.470802 120.0
119.490379 44.0
119.518661 184.0
119.557831 156.0
119.774597 228.0
119.851143 224.0
120.091599 216.0
120.202858 196.0
120.390587 144.0
120.410248 188.0
120.458298 160.0
120.51947 164.0
120.840866 64.0
120.878067 104.0
121.100845 4172.0
121.127647 200.0
121.178032 184.0
121.274452 168.0
121.392838 60.0
121.590271 156.0
121.669296 228.0
121.732964 84.0
121.79007 204.0
121.910904 152.0
122.0186 56.0
122.047188 140.0
122.103912 596.0
122.126244 160.0
122.236351 132.0
122.304573 164.0
122.388229 196.0
122.408051 56.0
122.500549 196.0
122.551216 208.0
122.690727 212.0
122.736366 40.0
122.901794 104.0
122.941513 68.0
122.994476 120.0
123.084991 168.0
123.116852 1192.0
123.162292 160.0
123.224144 164.0
123.394318 148.0
123.630997 124.0
124.080635 220.0
124.111839 2968.0
124.26693 80.0
124.395645 140.0
124.415627 144.0
124.551079 240.0
124.57814 220.0
124.622169 164.0
124.671059 56.0
124.733284 168.0
125.009071 136.0
125.094986 320.0
125.117706 448.0
125.242828 156.0
125.365364 40.0
125.434456 172.0
125.470123 188.0
125.621765 112.0
125.648537 140.0
125.943192 188.0
125.96553 140.0
126.021385 224.0
126.05043 232.0
126.128708 3736.0
126.273979 124.0
126.32766 196.0
126.343323 100.0
126.607437 260.0
126.688072 160.0
126.843437 204.0
126.939095 72.0
126.961517 72.0
127.004135 140.0
127.024323 176.0
127.051239 160.0
127.110924 668.0
127.128685 512.0
127.26445 84.0
127.421661 52.0
127.511543 148.0
127.549759 100.0
127.916405 196.0
127.972321 148.0
128.017715 76.0
128.061707 548.0
128.095978 204.0
128.125839 160.0
128.299362 124.0
128.321899 132.0
128.362488 232.0
128.414352 228.0
128.479767 172.0
128.547455 60.0
128.703217 140.0
128.766434 160.0
128.7845 156.0
128.949432 148.0
129.042114 208.0
129.070419 2200.0
129.13031 72.0
129.23436 204.0
129.289261 200.0
129.376953 116.0
129.454849 156.0
129.789291 60.0
129.848251 120.0
129.91629 120.0
129.968475 184.0
130.011597 208.0
130.032013 48.0
130.074493 540.0
130.120819 160.0
130.288544 156.0
130.502228 124.0
130.53862 244.0
130.77977 156.0
130.860916 136.0
130.869476 88.0
130.874207 172.0
130.916367 188.0
130.955078 140.0
130.993805 32.0
131.059372 184.0
131.086456 4716.0
131.141907 72.0
131.319748 140.0
131.392746 92.0
131.442932 188.0
131.620972 168.0
131.763077 184.0
132.087723 392.0
132.246964 160.0
132.368698 176.0
132.437393 208.0
132.707809 124.0
132.985382 96.0
133.033585 132.0
133.067902 164.0
133.076263 156.0
133.101349 8412.0
133.139206 44.0
133.16217 84.0
133.185135 52.0
133.271149 36.0
133.325287 36.0
133.352859 52.0
133.585098 80.0
133.601196 72.0
133.702438 136.0
133.755371 140.0
133.778381 92.0
134.020203 132.0
134.104904 1480.0
134.156189 72.0
134.33374 68.0
134.352203 88.0
134.372971 104.0
134.428345 180.0
134.527588 124.0
134.619934 52.0
134.751602 96.0
134.790878 96.0
134.91568 180.0
134.930176 132.0
134.98735 132.0
135.045166 260.0
135.115723 1120.0
135.295074 96.0
135.510193 136.0
135.585098 112.0
135.656464 152.0
135.825729 188.0
136.009033 108.0
136.118195 336.0
136.252869 176.0
136.341156 208.0
136.445755 172.0
136.48761 120.0
136.671356 100.0
136.713242 100.0
136.759796 208.0
136.792374 112.0
136.883179 144.0
136.925095 180.0
137.128387 188.0
137.181396 196.0
137.445694 148.0
137.472931 160.0
137.612991 108.0
137.642944 140.0
137.774124 196.0
137.841888 156.0
138.128296 164.0
138.286224 196.0
138.557846 188.0
138.75705 112.0
138.827393 140.0
139.029144 184.0
139.111282 316.0
139.461273 116.0
139.576462 128.0
139.684174 100.0
139.901138 188.0
139.943512 144.0
140.139008 148.0
140.42424 136.0
140.509155 112.0
140.53511 172.0
140.655472 148.0
140.693237 72.0
140.83728 176.0
140.875076 156.0
141.032623 212.0
141.070541 1756.0
141.177597 200.0
141.551483 176.0
141.695969 108.0
141.745728 160.0
141.817123 184.0
141.909271 240.0
142.032593 200.0
142.077805 3548.0
142.12468 180.0
142.158325 156.0
142.336365 144.0
142.362473 56.0
142.540634 196.0
142.925842 84.0
142.94487 220.0
143.00676 108.0
143.085159 4092.0
143.142456 56.0
143.569 48.0
143.690643 116.0
143.84816 200.0
143.91011 160.0
144.041565 112.0
144.087448 328.0
144.139603 408.0
144.205597 172.0
144.488922 208.0
144.60585 148.0
144.692017 116.0
144.754059 132.0
144.830902 124.0
144.979446 140.0
144.998627 176.0
145.071075 140.0
145.100922 6784.0
145.13858 220.0
145.166428 152.0
145.183212 52.0
145.298355 48.0
145.326736 48.0
145.432724 216.0
145.571976 140.0
145.689667 112.0
145.898743 36.0
145.949219 196.0
145.990097 52.0
146.055588 208.0
146.104202 956.0
146.144043 184.0
146.406418 104.0
146.476273 100.0
146.525833 196.0
146.973206 156.0
147.081497 288.0
147.117462 12540.0
147.211868 104.0
147.255341 48.0
147.545303 184.0
147.643036 104.0
147.726669 80.0
147.784729 48.0
148.070374 132.0
148.120895 952.0
148.414474 84.0
148.479507 84.0
148.657043 56.0
148.790543 92.0
148.924088 148.0
148.951935 224.0
149.133224 2752.0
149.169495 180.0
149.23436 200.0
149.288635 200.0
149.473511 112.0
149.524612 44.0
149.565994 172.0
149.583023 112.0
149.858215 152.0
149.916702 120.0
149.980057 160.0
150.021637 72.0
150.041 156.0
150.109268 104.0
150.13475 356.0
150.240982 100.0
150.463058 60.0
150.495819 128.0
150.797699 64.0
150.819702 152.0
150.951721 240.0
150.973724 168.0
151.056885 140.0
151.109482 796.0
151.1474 176.0
151.211029 180.0
151.321182 156.0
151.375275 132.0
151.463226 60.0
151.523682 152.0
151.636459 68.0
151.722977 164.0
151.747482 36.0
151.973129 120.0
152.040649 316.0
152.110565 132.0
152.143082 416.0
152.176849 128.0
152.277527 212.0
152.324188 112.0
152.533051 152.0
153.015213 144.0
153.07431 188.0
153.125595 524.0
153.512939 132.0
153.616516 148.0
153.917618 92.0
154.083786 288.0
154.406906 156.0
154.573135 164.0
154.899445 88.0
155.060501 124.0
155.08403 1600.0
155.209244 112.0
155.452332 164.0
155.613663 168.0
156.092224 316.0
156.247421 116.0
156.302155 120.0
156.451477 196.0
156.51123 136.0
156.623306 140.0
156.690567 172.0
156.725449 124.0
156.849808 172.0
156.874969 184.0
156.955963 148.0
157.015762 216.0
157.068985 124.0
157.072876 188.0
157.101669 36672.0
157.16008 112.0
157.187149 120.0
157.291779 44.0
157.328995 108.0
157.347961 120.0
157.406387 116.0
157.426361 60.0
157.566238 44.0
157.596222 144.0
157.618713 128.0
157.649353 92.0
157.831177 248.0
157.862625 200.0
158.013748 164.0
158.104584 3972.0
158.156387 68.0
158.197205 172.0
158.228989 32.0
158.254028 88.0
158.351685 60.0
158.569656 76.0
158.622284 168.0
158.654877 68.0
158.699997 80.0
158.74765 168.0
158.795288 120.0
158.855484 116.0
158.875565 100.0
158.975922 100.0
158.998505 64.0
159.031128 148.0
159.063766 152.0
159.086349 132.0
159.116089 8096.0
159.158539 80.0
159.201859 64.0
159.234497 60.0
159.262131 64.0
159.282227 56.0
159.302322 64.0
159.372665 236.0
159.400299 72.0
159.422913 120.0
159.460617 72.0
159.688034 132.0
159.890671 140.0
159.946045 200.0
160.118576 1260.0
160.424652 96.0
160.52298 108.0
160.555756 168.0
160.606201 124.0
160.623856 164.0
160.640091 68.0
160.782806 48.0
161.084793 172.0
161.132797 2024.0
161.17421 44.0
161.244965 52.0
161.272766 80.0
161.368835 56.0
161.505386 116.0
161.558502 40.0
162.016708 152.0
162.136124 716.0
162.181427 220.0
162.808075 176.0
163.118042 224.0
163.137405 180.0
163.955414 188.0
164.142578 996.0
164.240967 164.0
164.695297 144.0
164.751495 212.0
164.892029 68.0
165.073532 132.0
165.099106 120.0
165.125275 624.0
165.151932 140.0
165.31398 88.0
165.675003 176.0
165.692932 100.0
165.754425 140.0
165.849243 56.0
165.905396 164.0
166.154404 284.0
166.191711 192.0
166.78096 188.0
166.917221 44.0
166.984085 196.0
167.012375 112.0
167.082977 180.0
167.139709 132.0
167.161591 128.0
167.583862 76.0
167.676636 100.0
167.826141 156.0
167.916397 180.0
167.944763 124.0
168.10994 180.0
168.135498 496.0
168.70134 80.0
168.73494 64.0
168.985809 120.0
169.098969 1116.0
169.207932 112.0
169.25499 140.0
169.419891 120.0
169.532166 160.0
169.703247 152.0
169.806961 128.0
169.918503 104.0
169.962616 188.0
170.105682 340.0
170.461166 224.0
170.49234 124.0
170.567719 116.0
170.684708 168.0
170.835556 136.0
170.939621 144.0
170.991959 160.0
171.118042 4844.0
171.26947 92.0
171.478699 132.0
171.830719 140.0
172.1194 768.0
172.54892 28.0
172.593369 52.0
172.619522 168.0
172.760757 64.0
172.844482 100.0
172.88472 180.0
173.017212 84.0
173.133041 2336.0
173.211395 112.0
173.355087 60.0
173.399643 108.0
173.580521 92.0
173.653961 152.0
173.782501 44.0
173.837601 36.0
173.906616 120.0
174.076477 124.0
174.135864 452.0
174.223557 128.0
174.383835 128.0
174.433777 152.0
174.499496 68.0
174.617828 76.0
174.783569 128.0
175.067856 64.0
175.147354 192.0
175.291763 96.0
175.431458 96.0
176.141281 148.0
176.471619 108.0
176.630295 216.0
176.810211 152.0
177.016693 112.0
177.135864 188.0
177.162354 184.0
177.435318 44.0
178.005768 252.0
178.098724 160.0
178.16394 124.0
178.664917 144.0
178.73143 100.0
178.95459 152.0
178.981644 120.0
179.158615 176.0
179.189392 52.0
179.263992 80.0
179.509232 88.0
180.14444 172.0
180.165817 132.0
180.184509 44.0
180.526642 60.0
180.986877 168.0
181.099808 208.0
181.155609 176.0
181.447708 72.0
181.613968 116.0
181.73468 200.0
182.103134 260.0
182.126633 88.0
182.161545 156.0
182.330811 120.0
182.44371 124.0
182.529739 40.0
182.6427 152.0
182.903687 176.0
183.116501 1508.0
183.488251 40.0
183.748276 96.0
184.119095 792.0
184.233093 148.0
184.268219 180.0
184.549301 160.0
184.684509 188.0
184.714264 136.0
184.949677 212.0
184.998398 156.0
185.132889 2784.0
185.160858 164.0
185.187943 116.0
185.649979 128.0
186.063797 144.0
186.139511 616.0
186.446793 180.0
186.816574 52.0
186.928116 188.0
187.023376 64.0
187.14917 1040.0
187.445496 132.0
187.508163 68.0
187.535416 112.0
187.987228 96.0
188.034531 132.0
188.064545 100.0
188.110947 28.0
188.150848 300.0
188.323929 168.0
189.010101 164.0
189.083984 176.0
189.101364 112.0
189.166107 208.0
189.681076 128.0
189.949799 148.0
190.161072 128.0
190.204987 128.0
190.298325 152.0
190.770859 160.0
191.508286 96.0
192.708267 56.0
193.004013 160.0
193.103561 160.0
193.161652 184.0
193.181015 224.0
194.020096 44.0
194.150421 124.0
194.18924 72.0
194.272461 104.0
195.121155 200.0
195.314117 152.0
195.503311 188.0
195.589584 116.0
196.125687 188.0
196.472946 160.0
196.601288 40.0
196.858109 64.0
196.944687 220.0
197.045258 208.0
197.130585 3460.0
197.18338 200.0
197.271622 148.0
197.322296 172.0
197.769516 44.0
197.818375 48.0
198.025757 92.0
198.080322 44.0
198.137527 1008.0
198.301666 96.0
198.845764 56.0
199.14827 844.0
199.388382 96.0
199.519897 196.0
199.63237 80.0
199.843323 164.0
200.149811 160.0
200.524796 160.0
201.128372 140.0
201.153778 140.0
201.221527 180.0
201.614151 200.0
201.710251 116.0
201.857254 72.0
202.012817 164.0
202.10051 116.0
202.165604 132.0
202.394882 100.0
202.574158 132.0
202.731964 140.0
203.165771 164.0
203.296295 52.0
203.611404 244.0
203.918243 92.0
203.955185 132.0
204.083115 40.0
204.18399 168.0
204.327713 160.0
204.729034 116.0
204.885696 164.0
205.096573 208.0
205.752655 132.0
206.292587 96.0
207.110947 104.0
207.32869 136.0
207.635452 124.0
207.796082 132.0
208.114655 80.0
208.456467 148.0
208.896362 200.0
208.93663 144.0
209.011444 152.0
209.131638 300.0
209.933212 124.0
210.137634 220.0
210.288055 112.0
210.475708 180.0
210.611435 204.0
210.71254 152.0
211.117203 192.0
211.146408 3076.0
211.322571 284.0
211.716232 176.0
212.151779 620.0
212.185638 184.0
212.276062 64.0
213.16243 1084.0
213.367233 76.0
213.553329 80.0
213.72496 88.0
214.17157 228.0
214.963348 32.0
214.98378 60.0
215.007126 36.0
215.138474 148.0
215.177628 300.0
215.410049 140.0
215.740265 72.0
216.1819 136.0
216.659164 96.0
216.682602 228.0
216.799332 124.0
217.119339 96.0
217.1604 156.0
217.213196 208.0
217.882507 128.0
218.047058 176.0
218.123764 156.0
218.182266 164.0
219.050369 244.0
219.103394 40.0
219.168213 44.0
219.460007 136.0
219.81102 80.0
220.132767 132.0
220.174103 196.0
220.951492 132.0
221.131989 136.0
221.602829 192.0
221.724319 160.0
222.133484 88.0
222.810318 128.0
223.000488 132.0
223.042099 108.0
223.146866 460.0
223.318619 120.0
223.389999 196.0
223.491165 132.0
223.910889 64.0
224.030029 128.0
224.113449 164.0
224.152878 1728.0
224.226685 168.0
224.602356 68.0
224.641129 48.0
224.736603 100.0
224.781876 184.0
224.882812 216.0
225.01416 132.0
225.161819 1940.0
225.232162 108.0
225.304749 156.0
225.351654 40.0
225.943008 20.0
226.160934 276.0
226.254852 52.0
226.671173 80.0
227.172852 168.0
227.444916 184.0
228.165863 128.0
228.186905 160.0
228.848816 88.0
229.023483 92.0
229.083725 44.0
229.189163 104.0
229.30368 100.0
229.394104 180.0
230.426193 108.0
230.553101 168.0
230.71933 60.0
230.855392 172.0
231.045944 160.0
231.179077 148.0
231.245651 144.0
231.82106 60.0
232.193939 196.0
233.09761 176.0
233.13504 52.0
233.37822 144.0
233.694534 136.0
234.14505 156.0
234.501511 64.0
234.61734 40.0
234.696609 116.0
234.922287 96.0
235.149078 160.0
235.706924 260.0
236.0383 128.0
236.060669 188.0
236.150208 112.0
236.998154 112.0
237.077835 116.0
237.165619 292.0
237.614426 152.0
237.678848 144.0
238.041061 136.0
238.173218 1112.0
238.246841 144.0
238.440414 108.0
238.492661 160.0
238.60025 32.0
238.938538 168.0
239.17601 192.0
239.35405 100.0
239.816147 188.0
239.880875 148.0
239.945618 108.0
240.179977 152.0
240.578033 168.0
241.193909 212.0
241.932053 148.0
242.765518 96.0
243.883636 132.0
244.203415 132.0
244.262512 204.0
244.508301 60.0
244.732437 360.0
245.193451 128.0
245.243317 124.0
245.455307 180.0
245.670517 180.0
246.107437 52.0
246.138657 76.0
246.232346 116.0
246.420685 68.0
246.501007 168.0
246.741669 144.0
246.782318 52.0
247.095078 184.0
247.373596 204.0
248.545715 224.0
248.683792 132.0
248.793655 44.0
249.176804 204.0
249.271057 132.0
249.475357 40.0
249.717468 112.0
249.741379 180.0
250.170578 152.0
250.33429 172.0
250.649292 136.0
251.040161 128.0
251.177444 452.0
251.327209 88.0
251.456589 112.0
251.683884 148.0
251.712296 116.0
252.031326 124.0
252.104004 300.0
252.190979 436.0
252.287323 104.0
252.334732 128.0
252.375839 128.0
252.420105 112.0
252.448563 60.0
252.470703 188.0
252.518143 128.0
252.553009 168.0
252.802856 52.0
252.849075 188.0
252.903915 172.0
252.954788 180.0
252.976944 172.0
253.043427 112.0
253.082291 188.0
253.150864 184.0
253.195007 33952.0
253.300537 148.0
253.319778 164.0
253.3918 44.0
253.426651 68.0
253.47937 88.0
253.521713 68.0
253.547058 104.0
253.595367 100.0
253.626297 56.0
253.673798 144.0
253.772919 192.0
253.79982 60.0
253.930679 84.0
253.962387 40.0
254.038513 156.0
254.082932 144.0
254.114655 112.0
254.143219 80.0
254.197403 5264.0
254.254608 76.0
254.28624 112.0
254.400284 36.0
254.496582 112.0
254.644775 152.0
254.705124 76.0
254.746414 64.0
254.873489 72.0
254.992981 120.0
255.086426 72.0
255.201828 988.0
255.305801 72.0
255.347153 204.0
255.436203 48.0
255.569824 104.0
255.716202 68.0
255.770309 116.0
255.808273 108.0
255.881729 72.0
255.927414 160.0
255.964508 108.0
256.015472 52.0
256.063232 208.0
256.10144 180.0
256.146057 76.0
256.171539 88.0
256.193817 116.0
256.506104 76.0
256.582611 184.0
256.78067 72.0
257.185516 132.0
257.677277 68.0
258.201508 40.0
258.227112 332.0
258.262268 28.0
258.48941 80.0
258.566223 88.0
259.168243 72.0
259.334869 32.0
259.851166 136.0
259.944214 40.0
260.043701 76.0
260.233093 140.0
260.406494 136.0
260.657074 52.0
260.972046 180.0
261.158569 160.0
261.589752 48.0
261.773254 152.0
261.979401 136.0
262.105042 152.0
263.85437 168.0
264.184235 224.0
264.278748 152.0
264.498108 120.0
265.181519 88.0
265.204224 216.0
265.534912 156.0
266.083313 64.0
266.200043 188.0
266.271637 204.0
267.181763 144.0
267.214539 164.0
267.637421 148.0
268.848907 128.0
268.898956 108.0
269.094818 168.0
269.182983 156.0
269.842987 208.0
270.22348 156.0
270.285217 172.0
270.356537 52.0
270.667511 40.0
270.801788 148.0
271.205292 200.0
271.237549 160.0
271.348236 84.0
272.257935 136.0
272.533844 144.0
273.299957 72.0
273.461182 104.0
273.988037 88.0
274.601135 116.0
275.310699 176.0
275.730255 116.0
276.250427 148.0
276.490906 52.0
277.196259 144.0
278.201202 104.0
278.241028 120.0
278.583099 52.0
278.758545 104.0
279.151428 104.0
279.221741 108.0
279.756958 132.0
280.256531 104.0
280.279846 136.0
280.970001 40.0
281.076752 120.0
281.221283 144.0
281.557465 132.0
281.848083 140.0
282.219086 164.0
282.292664 64.0
283.058929 112.0
283.235199 128.0
283.273285 156.0
283.809509 120.0
284.36972 80.0
284.789398 132.0
284.913696 248.0
285.004395 148.0
285.145538 120.0
286.235474 88.0
286.366821 84.0
286.622833 200.0
287.314026 52.0
287.35788 80.0
287.607574 128.0
287.877686 128.0
288.864563 212.0
289.318024 132.0
289.345093 128.0
289.571991 40.0
289.707458 124.0
290.110718 96.0
290.198883 140.0
290.280243 128.0
290.314178 108.0
290.409119 176.0
290.619446 156.0
291.213318 148.0
292.039429 144.0
292.212921 120.0
292.366028 176.0
292.539612 144.0
292.604279 52.0
293.162903 132.0
293.871277 128.0
294.227081 84.0
294.90683 112.0
295.033325 52.0
295.724274 184.0
296.042664 156.0
296.145386 136.0
296.21048 116.0
296.62854 132.0
297.221832 156.0
297.88443 48.0
298.34491 68.0
298.595917 172.0
298.867676 112.0
298.891754 152.0
298.939941 136.0
300.742371 200.0
300.975403 20.0
301.885895 76.0
302.065735 232.0
302.789124 48.0
303.10141 168.0
303.985138 40.0
304.110077 168.0
305.079193 88.0
305.218262 152.0
305.249542 148.0
305.412994 108.0
305.799194 132.0
305.990662 100.0
306.784943 156.0
306.819824 108.0
307.695374 140.0
307.786255 92.0
308.041199 148.0
308.08313 244.0
308.446533 136.0
308.593353 104.0
309.223022 152.0
309.251007 176.0
309.790253 140.0
310.259827 156.0
310.785919 204.0
310.838531 112.0
310.92276 172.0
310.999969 80.0
311.319458 68.0
312.243713 160.0
312.389587 68.0
312.567352 80.0
312.838348 32.0
313.089844 172.0
313.217072 3000.0
313.324341 56.0
313.599182 40.0
313.655579 116.0
313.867096 60.0
313.909424 80.0
314.17395 180.0
314.218109 536.0
314.286835 116.0
314.339783 220.0
314.826904 120.0
315.233154 184.0
315.385132 132.0
315.441681 48.0
315.466431 80.0
315.632599 76.0
316.067657 132.0
316.341431 112.0
316.835938 28.0
316.889099 120.0
317.069824 92.0
317.328583 60.0
317.395935 132.0
317.481049 40.0
317.587433 48.0
317.771912 152.0
318.272339 60.0
318.300751 152.0
318.819977 104.0
318.933105 184.0
319.064331 232.0
319.473602 116.0
320.841095 112.0
320.883881 64.0
321.250366 172.0
321.654419 104.0
321.693695 112.0
322.090057 52.0
322.388794 132.0
322.604614 164.0
323.631378 156.0
323.774628 116.0
323.874908 128.0
324.157928 80.0
324.21167 132.0
325.25177 152.0
325.984436 148.0
326.764679 104.0
326.976959 120.0
327.128143 188.0
327.200134 52.0
327.657532 196.0
327.989044 180.0
328.148865 144.0
328.205353 132.0
328.616516 144.0
329.212097 188.0
329.956421 112.0
330.115509 128.0
330.256561 32.0
330.480835 208.0
330.585785 104.0
331.208496 136.0
331.882538 36.0
332.027802 148.0
332.100128 84.0
333.309021 140.0
333.43985 96.0
333.821564 180.0
334.043396 132.0
334.159821 48.0
334.239868 104.0
334.742188 92.0
335.029907 36.0
335.645874 144.0
335.729736 156.0
335.966827 68.0
336.028839 148.0
336.156525 100.0
336.266022 120.0
337.738434 140.0
337.851837 172.0
338.616852 52.0
339.232422 148.0
339.6651 48.0
340.920746 156.0
341.222137 148.0
341.341553 204.0
341.58255 124.0
341.847443 160.0
342.178711 108.0
342.248657 68.0
342.451202 100.0
343.442657 180.0
343.545929 144.0
343.689819 204.0
343.924927 68.0
344.394928 192.0
344.723724 172.0
344.771759 96.0
344.989838 184.0
346.944458 168.0
347.137268 100.0
347.693726 128.0
347.868164 144.0
347.942413 120.0
348.098358 164.0
348.274475 160.0
349.287628 60.0
349.607605 136.0
350.28894 124.0
350.478943 132.0
350.642883 152.0
351.194702 132.0
351.280487 112.0
351.773041 160.0
352.06427 156.0
352.83902 180.0
353.365051 168.0
353.690613 120.0
354.08374 176.0
355.166901 104.0
355.831116 104.0
355.91748 140.0
356.586151 128.0
356.988403 100.0
357.239105 116.0
357.424744 124.0
357.522583 180.0
357.680664 188.0
357.778534 180.0
358.042084 228.0
358.188995 176.0
358.686371 192.0
358.780609 172.0
358.950287 180.0
359.282166 164.0
359.501007 184.0
359.708588 92.0
360.086182 120.0
360.87973 176.0
360.906189 200.0
361.288177 236.0
361.776337 132.0
361.852051 140.0
362.281982 152.0
362.693024 120.0
362.962189 168.0
363.29126 168.0
363.542572 176.0
363.914551 96.0
364.058838 164.0
364.30954 132.0
365.244629 184.0
365.906769 84.0
366.207611 148.0
366.862976 132.0
367.293884 128.0
367.595276 68.0
368.698883 196.0
368.890015 40.0
369.295319 48.0
369.364166 52.0
370.263611 148.0
370.359344 108.0
371.183289 112.0
371.919891 140.0
372.115662 124.0
373.295258 136.0
373.426025 144.0
373.756836 112.0
375.066223 124.0
375.408234 164.0
376.092224 148.0
376.304535 100.0
376.767975 172.0
377.200775 136.0
377.235565 72.0
377.40567 184.0
377.657043 156.0
377.753754 80.0
378.059387 104.0
378.101959 164.0
378.151001 108.0
378.214203 120.0
378.257324 120.0
378.314606 11304.0
378.415497 108.0
378.473572 104.0
378.51889 108.0
378.678833 60.0
378.904602 84.0
378.957733 176.0
378.988739 216.0
379.058472 92.0
379.128235 140.0
379.225098 52.0
379.315796 4308.0
379.399048 152.0
379.46933 56.0
379.550751 156.0
379.62442 84.0
379.663208 60.0
379.718903 44.0
379.804688 84.0
379.897675 124.0
380.256775 156.0
380.322357 580.0
380.373199 80.0
380.454742 44.0
380.586731 56.0
380.73819 72.0
380.843048 132.0
381.149933 56.0
381.216003 40.0
381.262634 160.0
381.315704 152.0
381.45697 128.0
381.569702 80.0
381.651337 120.0
381.701904 88.0
381.826324 116.0
382.137512 56.0
382.164764 44.0
382.215332 56.0
382.444946 64.0
383.017303 120.0
383.219879 168.0
383.251068 48.0
383.500458 136.0
383.976105 164.0
384.097015 52.0
384.288177 100.0
384.627686 224.0
385.186066 116.0
385.264191 72.0
385.959869 76.0
386.077179 108.0
387.075043 132.0
388.121246 100.0
388.839111 56.0
389.118378 136.0
389.168854 136.0
389.699066 44.0
389.797302 124.0
389.970215 96.0
390.697662 128.0
391.154144 160.0
391.69754 124.0
391.811768 80.0
392.099426 124.0
392.217651 160.0
392.560669 200.0
393.298401 44.0
393.693207 68.0
393.811707 176.0
394.080322 228.0
395.729584 168.0
395.990936 96.0
396.326843 2376.0
396.458435 92.0
396.874634 104.0
397.270264 180.0
397.323822 376.0
397.600555 96.0
397.783142 44.0
397.818848 96.0
397.930023 88.0
397.961792 32.0
398.065033 60.0
398.092804 148.0
398.335907 172.0
398.803955 108.0
398.862701 200.0
398.966919 56.0
399.463989 140.0
399.662933 132.0
400.431213 100.0
400.702087 88.0
400.933197 156.0
401.16037 52.0
401.248077 96.0
401.826355 152.0
402.397095 52.0
402.744507 92.0
403.955627 88.0
404.36377 132.0
405.629456 36.0
407.80896 68.0
408.296722 136.0
408.770111 164.0
408.919006 96.0
408.975342 124.0
409.901611 108.0
410.151489 136.0
410.300629 144.0
410.615143 100.0
410.715973 80.0
411.632111 116.0
411.979431 176.0
412.557312 164.0
413.19223 120.0
413.610626 176.0
413.754791 200.0
414.577026 68.0
414.682373 244.0
415.270264 52.0
415.322998 136.0
415.469025 116.0
415.805817 64.0
415.960052 104.0
416.061523 92.0
416.337616 104.0
417.020172 144.0
417.186798 148.0
418.01651 108.0
418.851105 128.0
419.274841 56.0
419.576477 164.0
419.727325 100.0
420.535065 164.0
421.319061 116.0
422.075165 208.0
422.302368 108.0
422.353271 152.0
422.729645 132.0
422.96701 108.0
423.298645 132.0
423.352814 192.0
423.79425 168.0
425.307495 200.0
425.389587 88.0
426.013763 188.0
427.016693 72.0
427.493896 124.0
428.103149 56.0
428.589203 184.0
428.910645 208.0
428.972473 88.0
429.492035 156.0
429.685913 68.0
429.747803 72.0
431.147614 120.0
431.838043 164.0
431.999359 84.0
432.049011 144.0
432.140015 236.0
432.764984 152.0
433.025879 120.0
433.344818 104.0
433.432465 132.0
433.784119 284.0
433.906891 52.0
434.07019 56.0
434.522278 172.0
434.833496 68.0
434.970459 136.0
435.173859 80.0
435.526855 120.0
435.796875 96.0
435.850891 80.0
435.963074 104.0
436.478546 204.0
436.515961 140.0
436.586639 52.0
436.74469 164.0
436.832031 92.0
436.977661 152.0
437.106628 240.0
437.451019 136.0
437.718536 204.0
437.81015 124.0
437.947571 116.0
438.079132 148.0
438.186218 412.0
438.239014 124.0
438.268341 196.0
438.335175 22792.0
438.473267 68.0
438.514221 100.0
438.566162 112.0
438.628021 116.0
438.74762 128.0
438.810181 204.0
438.887299 56.0
438.958588 88.0
439.136322 72.0
439.218842 240.0
439.338074 4788.0
439.481659 132.0
439.533661 56.0
439.577637 88.0
439.623535 84.0
439.707001 48.0
439.774139 68.0
439.919861 140.0
440.003357 60.0
440.032593 68.0
440.242401 180.0
440.343323 1076.0
440.405457 208.0
440.563812 60.0
440.755157 88.0
440.788574 80.0
440.851257 60.0
440.95993 60.0
441.139648 152.0
441.168915 48.0
441.285034 144.0
441.34903 508.0
441.528503 40.0
441.641418 76.0
441.73764 80.0
441.775269 100.0
441.863129 56.0
441.91333 52.0
442.080719 84.0
442.260651 68.0
442.325012 120.0
442.495087 100.0
442.5495 76.0
442.733765 56.0
442.792389 40.0
442.859406 92.0
443.026947 96.0
443.101715 80.0
443.11203 116.0
443.190338 104.0
443.251892 64.0
443.290894 140.0
443.362152 128.0
443.458527 84.0
443.642975 100.0
443.805267 152.0
444.141968 184.0
444.183899 72.0
444.231659 52.0
444.532135 52.0
444.574097 144.0
444.653839 40.0
444.796539 76.0
445.220581 88.0
445.359192 180.0
445.514618 88.0
445.636444 36.0
446.111328 80.0
446.296326 92.0
447.209167 96.0
447.432281 100.0
447.465942 68.0
447.621735 168.0
448.059784 112.0
448.114532 80.0
448.510681 128.0
448.632904 172.0
449.577698 184.0
449.767609 196.0
450.45166 108.0
450.713593 100.0
451.000977 132.0
451.208099 132.0
451.440643 52.0
451.504089 212.0
451.571747 76.0
451.876312 120.0
451.986328 124.0
452.258972 108.0
452.405334 88.0
452.868774 152.0
452.913452 104.0
452.960052 48.0
453.27182 136.0
453.549042 76.0
453.587189 164.0
453.616852 104.0
453.76947 76.0
453.833069 92.0
453.926331 148.0
454.117188 164.0
454.184296 136.0
454.252899 96.0
454.285889 124.0
454.36322 96.0
454.439575 68.0
454.479767 84.0
454.554138 144.0
454.605042 108.0
454.639008 104.0
454.697266 240.0
454.800293 120.0
454.872437 148.0
455.039551 96.0
455.11441 56.0
455.144135 68.0
455.186554 388.0
455.30127 116.0
455.347992 172.0
455.398102 100.0
455.448395 144.0
455.526367 88.0
455.618408 80.0
455.656189 188.0
455.744781 136.0
455.836517 156.0
455.874756 124.0
455.894196 56.0
455.916016 152.0
455.975525 248.0
456.019257 108.0
456.066132 144.0
456.147583 228.0
456.192108 156.0
456.236847 84.0
456.262939 172.0
456.347443 68760.0
456.441864 136.0
456.458771 160.0
456.478394 220.0
456.519287 208.0
456.567688 88.0
456.600525 116.0
456.638092 388.0
456.740448 216.0
456.798157 128.0
456.844147 152.0
456.900848 132.0
456.952942 60.0
457.005005 104.0
457.049103 208.0
457.080658 116.0
457.118469 216.0
457.135468 128.0
457.153992 144.0
457.194183 60.0
457.204193 52.0
457.274048 280.0
457.350586 25380.0
457.471283 108.0
457.487885 148.0
457.545807 32.0
457.587128 108.0
457.63147 132.0
457.706085 160.0
457.767273 72.0
457.786896 64.0
457.882446 60.0
457.939301 56.0
457.970642 64.0
458.026764 188.0
458.050232 144.0
458.129761 56.0
458.26358 156.0
458.349976 3872.0
458.440796 52.0
458.474884 96.0
458.505493 44.0
458.556519 52.0
458.585693 56.0
458.595642 84.0
458.683716 56.0
458.786804 100.0
458.864807 56.0
458.895447 80.0
459.001526 88.0
459.071686 116.0
459.136017 96.0
459.246552 52.0
459.302002 36.0
459.352264 480.0
459.408081 124.0
459.458557 80.0
459.466858 56.0
459.485992 60.0
459.600616 132.0
459.649445 116.0
459.698761 120.0
459.759674 204.0
459.811401 136.0
459.933502 72.0
459.976196 80.0
460.074768 88.0
460.119476 152.0
460.169922 104.0
460.255432 88.0
460.343353 132.0
460.39621 128.0
460.428772 108.0
460.471466 44.0
460.650848 32.0
460.746033 72.0
460.808929 104.0
460.838837 48.0
460.880981 60.0
460.929871 92.0
460.9841 40.0
461.039673 48.0
461.090942 32.0
461.191376 112.0
461.253357 144.0
461.283295 48.0
461.33429 60.0
461.346497 56.0
461.382233 68.0
461.475647 72.0
461.719391 168.0
461.911865 60.0
461.98291 132.0
462.326874 76.0
462.613647 64.0
463.54303 36.0
464.361847 60.0
464.409027 68.0
464.481934 56.0
465.460449 80.0
465.868439 28.0
467.020447 96.0
467.472168 84.0
467.639984 56.0
467.726074 100.0
469.061371 112.0
469.108795 36.0
469.164825 56.0
470.105103 120.0
470.450867 36.0
470.478455 80.0
470.78717 68.0
471.024689 120.0
471.923584 124.0
472.187378 52.0
473.156616 140.0
473.719604 84.0
474.113861 48.0
474.330597 104.0
475.20224 40.0
476.239746 56.0
477.304443 80.0
477.813324 56.0
480.881012 52.0
482.042664 64.0
483.722076 88.0
484.089844 40.0
484.265015 44.0
488.522736 76.0
492.052704 120.0
494.280304 72.0
497.933105 132.0
502.785736 56.0
505.614655 76.0
511.938751 72.0
517.158936 80.0
519.619507 76.0
520.577209 40.0
521.922241 52.0
529.286743 60.0
530.152466 72.0
530.18457 80.0
531.064819 76.0
542.175903 64.0
544.579102 120.0
548.52948 76.0
548.566772 48.0
551.87207 76.0
552.063782 68.0
552.105896 44.0
561.569275 80.0
562.125977 64.0
579.629944 92.0
585.480896 160.0
599.023254 72.0
607.406433 44.0
610.712097 44.0
617.899353 92.0
618.003967 128.0
624.655945 128.0
630.124695 104.0
631.094299 88.0
633.306152 84.0
633.721924 128.0
634.940002 68.0
637.093323 128.0
637.565613 68.0
637.957642 76.0
640.836365 32.0
643.438782 96.0
649.404724 64.0
653.75354 96.0
657.754395 84.0
660.058472 80.0
662.955811 92.0
664.653076 100.0
670.273193 108.0
670.34021 180.0
675.125488 68.0
682.494019 176.0
683.414612 112.0
686.023804 112.0
686.602539 48.0
693.10553 88.0
694.505249 40.0
703.795105 240.0
706.637085 84.0
712.309448 64.0
712.569763 72.0
715.0849 104.0
719.984375 52.0
723.598999 52.0
725.420471 108.0
732.78833 84.0
734.184387 100.0
748.909729 80.0
755.875732 60.0
759.815125 84.0
775.403564 68.0
781.968201 76.0
787.996094 96.0
789.980713 216.0
793.49762 296.0
798.933899 56.0
805.970032 172.0
810.173706 60.0
811.755005 124.0
812.061768 220.0
812.520691 48.0
814.996094 116.0
816.166992 132.0
816.57074 72.0
816.701538 132.0
818.385986 112.0
825.438477 88.0
827.240662 64.0
827.429565 64.0
827.841858 160.0
832.280029 96.0
832.670532 68.0
837.259827 116.0
841.117004 212.0
848.237549 104.0
849.350891 104.0
851.068665 308.0
857.024597 192.0
862.124573 52.0
879.603455 100.0
889.096985 212.0
889.470886 152.0
895.440369 76.0
904.288452 228.0
911.713074 156.0
912.530518 72.0
922.513916 208.0
922.586487 80.0
935.288696 128.0
937.651794 140.0
945.413818 68.0
947.183228 28.0
954.886108 84.0
957.557129 176.0
964.516846 228.0
964.652832 204.0
970.10022 44.0
972.463501 160.0
973.841858 140.0
974.97876 144.0
976.253174 92.0
979.944275 116.0
982.319458 216.0
982.487915 200.0
989.931946 192.0
992.78949 244.0
994.470825 188.0
1003.163635 188.0
1005.030396 128.0
1005.863464 40.0
1007.138916 212.0
1008.162415 88.0
1011.634766 172.0
1011.824707 72.0
1012.565552 20.0
1013.88324 64.0
1013.940308 96.0
1016.195862 48.0
1019.785522 180.0
1020.567444 188.0
1021.527771 164.0
1024.360474 152.0
1027.720215 80.0
1027.809448 200.0
1029.220947 144.0
1032.613403 156.0
1035.416504 152.0
1036.761841 44.0
1037.242554 152.0
1040.533447 152.0
1046.248657 164.0
1048.851196 228.0
1052.308838 200.0
1053.122559 148.0
1053.813721 144.0
1056.82666 172.0
1059.908691 128.0
1061.509766 128.0
1064.572632 244.0
1068.771729 228.0
1076.052002 56.0
1078.893799 88.0
1079.652344 176.0
1079.959717 168.0
1080.391479 156.0
1082.466187 52.0
1084.615112 224.0
1089.838867 76.0
1090.200195 148.0
1091.948975 188.0
1093.541138 120.0
1096.768433 36.0
1100.753174 128.0
1106.148071 152.0
1110.129883 156.0
1111.363647 92.0
1112.246216 80.0
1115.687256 148.0
1115.740356 124.0
1118.481079 48.0
1118.654175 224.0
1118.827148 224.0
1121.731689 168.0
1122.418335 104.0
1125.981812 204.0
1126.269043 128.0
1127.498291 36.0
1128.788452 188.0
1129.243286 72.0
1132.000488 100.0
1132.275024 168.0
1132.924683 204.0
1139.734497 92.0
1140.023438 180.0
1140.695435 172.0
1142.127686 164.0
1142.464111 68.0
1145.809937 136.0
1146.665649 80.0
1151.199097 276.0
1152.218994 132.0
1152.989258 132.0
1153.307007 104.0
1153.408325 188.0
1153.780151 236.0
1153.827515 72.0
1155.058228 48.0
1155.261108 140.0
1155.409912 60.0
1157.420166 36.0
1157.643555 108.0
1159.513306 152.0
1162.61438 196.0
1162.938354 44.0
1163.902344 184.0
1170.252808 76.0
1170.361694 52.0
1175.535278 164.0
1178.717407 72.0
1179.722046 88.0
1185.560425 144.0
1185.738525 212.0
1186.986206 184.0
1188.124756 200.0
1188.961792 156.0
1190.13562 32.0
1191.32373 148.0
1193.743042 240.0
1195.559204 68.0
1195.92395 212.0
1196.460815 88.0
1199.422974 156.0
1202.450806 236.0
1203.817749 176.0
1205.240601 76.0
1206.678223 144.0
1208.53186 140.0
1209.82605 200.0
1210.005981 144.0
1211.633545 188.0
1212.104614 84.0
1212.728394 144.0
1215.849243 100.0
1216.460083 152.0
1216.828003 124.0
1218.640747 276.0
1218.995117 208.0
1219.683105 128.0
1220.656372 48.0
1222.054443 140.0
1224.463013 208.0
1227.898804 128.0
1232.401245 148.0
1233.945923 152.0
1235.645386 32.0
1236.625 156.0
1236.779053 172.0
1237.570068 144.0
1243.921631 180.0
1245.206543 200.0
1245.670166 156.0
1247.012207 96.0
1248.165039 92.0
1248.333862 48.0
1248.966797 28.0
1250.570923 188.0
1251.267822 44.0
1251.979004 216.0
1252.95105 184.0
1254.325195 148.0
1255.537842 32.0
1255.742432 120.0
1256.222046 184.0
1257.60498 196.0
1258.735962 160.0
1260.210815 220.0
1264.064331 152.0
1264.488892 208.0
1264.899414 156.0
1266.676758 128.0
1266.761841 212.0
1269.724487 220.0
1270.128784 132.0
1270.91626 172.0
1271.7323 132.0
1273.187744 200.0
1277.09668 192.0
1278.797119 220.0
1281.645508 168.0
1281.937744 224.0
1285.624512 244.0
1286.873657 64.0
1289.602417 104.0
1289.67395 156.0
1290.932129 172.0
1291.37085 228.0
1291.711792 208.0
1296.401245 204.0
1299.54187 152.0
1299.62085 180.0
1302.420532 196.0
1304.173706 184.0
1305.359985 160.0
1305.604492 60.0
1307.194214 156.0
1307.993164 148.0
1308.453857 80.0
1310.404663 152.0
1313.411621 184.0
1313.793945 136.0
1314.464966 64.0
1315.309326 156.0
1315.562012 152.0
1317.295044 196.0
1318.667969 156.0
1318.797974 80.0
1318.89917 140.0
1320.634521 164.0
1322.233398 108.0
1322.616943 140.0
1323.456787 244.0
1325.071899 160.0
1328.689575 164.0
1328.776611 152.0
1329.117554 184.0
1329.415161 172.0
1330.402222 128.0
1331.266235 196.0
1332.181396 196.0
1332.377563 44.0
1333.198608 188.0
1333.750977 156.0
1335.103271 96.0
1338.304932 156.0
1339.331787 204.0
1339.404541 188.0
1340.861816 144.0
1341.014771 36.0
1342.144775 164.0
1342.779175 68.0
1343.063599 176.0
1343.530518 128.0
1343.676392 104.0
1345.354858 172.0
1346.318726 144.0
1346.420898 64.0
1347.392334 252.0
1349.212158 184.0
1349.555786 176.0
1350.784302 168.0
1351.303711 128.0
1355.008301 184.0
1355.250122 164.0
1356.03418 248.0
1357.214355 184.0
1357.522339 144.0
1360.589355 188.0
1361.345581 280.0
1361.991821 48.0
1364.453613 144.0
1365.225586 128.0
1366.711548 148.0
1367.278076 164.0
1369.825684 72.0
1370.827637 224.0
1374.293213 60.0
1375.141846 132.0
1376.293457 120.0
1377.674561 172.0
1379.078491 140.0
1379.484985 156.0
1382.643188 156.0
1383.094727 140.0
1384.264404 324.0
1384.457031 56.0
1384.684448 204.0
1385.034668 132.0
1386.36084 152.0
1386.494263 172.0
1387.25769 152.0
1388.347534 172.0
1389.015137 176.0
1391.122437 100.0
1392.919556 184.0
1395.527954 132.0
1395.63208 128.0
1398.562256 176.0
1398.816162 148.0
1399.754272 140.0
1401.966675 152.0
1403.837769 188.0
1405.381836 132.0
1406.404175 140.0
1406.762451 172.0
1406.866943 136.0
1408.606934 132.0
1409.772461 200.0
1410.10498 20.0
1410.265625 48.0
1410.445068 72.0
1412.045044 152.0
1413.556152 56.0
1414.132446 200.0
1414.768677 164.0
1414.828613 152.0
1415.420044 216.0
1416.116455 168.0
1416.81311 104.0
1417.217651 80.0
1417.614868 192.0
1417.884644 172.0
1420.771362 164.0
1421.881836 156.0
1422.077026 152.0
1422.602417 272.0
1424.885376 56.0
1425.471436 188.0
1425.599243 168.0
1426.809326 156.0
1429.042969 144.0
1429.840698 152.0
1430.879395 60.0
1432.001343 52.0
1432.242432 180.0
1432.634155 172.0
1432.799805 144.0
1434.412476 144.0
1436.644531 176.0
1439.05957 140.0
1440.063965 160.0
1440.819336 96.0
1441.106323 56.0
1441.325439 108.0
1443.086548 204.0
1445.605347 96.0
1447.452393 180.0
1448.876221 160.0
1449.277832 164.0
1449.588501 60.0
1449.937012 148.0
1450.770874 192.0
1451.855103 148.0
1452.211548 92.0
1453.463257 160.0
1453.599854 192.0
1454.730713 168.0
1454.98877 120.0
1456.203735 164.0
1456.446777 224.0
1457.875 168.0
1460.429565 104.0
1461.623901 96.0
1461.677124 220.0
1462.544678 168.0
1464.128296 136.0
1464.906006 184.0
1465.712769 36.0
1466.086182 144.0
1466.246216 176.0
1466.337646 172.0
1467.023682 184.0
1468.594482 92.0
1469.425903 112.0
1470.204224 128.0
1470.479004 112.0
1470.654541 116.0
1471.470459 180.0
1471.570557 224.0
1471.700317 120.0
1472.731323 144.0
1473.900146 60.0
1475.405762 160.0
1479.429688 36.0
1479.521484 164.0
1479.84314 152.0
1479.950317 124.0
1480.218262 132.0
1480.2948 188.0
1480.478638 136.0
1480.984131 152.0
1486.264893 132.0
1488.292358 48.0
1488.845215 228.0
1490.051147 188.0
1490.573608 176.0
1492.195435 196.0
1492.86438 156.0
1495.049072 176.0
1497.258545 184.0
1498.621948 184.0
1500.16333 196.0
1503.124878 200.0
1503.92749 152.0
