>compound MLS000563224-01!
>formula C30H46O5
>ionization [M+H]+
>parentmass 487.339844
#inchi InChI=1S/C30H46O5/c1-25(2)19-9-12-28(5)20(27(19,4)11-10-21(25)32)8-7-17-18-13-26(3,16-31)22(33)14-30(18)15-23(29(17,28)6)35-24(30)34/h7,18-23,31-33H,8-16H2,1-6H3/t18-,19?,20?,21-,22-,23+,26-,27-,28+,29-,30-/m0/s1
#inchikey MINFCKXAWKNBAP
#Ion_Source LC-ESI
#Instrument qTof
#Compound_Source NIH Natural Product Library
#PI Dorrestein
#Data_Collector VVP/LMS
#Scan -1
#Precursor_MZ 487.342
#ExactMass 486.335
#Charge 1
#CAS_Number N/A
#Pubmed_ID N/A
#Smiles CC1(C)[C@@H](O)CC[C@@]2(C)C1CC[C@]3(C)C2CC=C4[C@@H]5C[C@@](C)(CO)[C@@H](O)C[C@@]65C[C@@H](OC6=O)[C@]43C
#INCHI_AUX N/A
#Library_Class 3
#SpectrumID CCMSLIB00000079739
#IonMode Positive
#UpdateWorkflowName UPDATE-SINGLE-ANNOTATED-BRONZE
#LibraryQualityString Bronze
#TaskID b1d8e8f6646f4e71acdff9ca3d919d08
##Scan# 2138
#SpectrumFile p1-D10_GD10_01_17918.mzXML
#LibraryName NIH_Natural_Products_Library.mgf
#MQScore -1
#Organism NIH_Natural_Products_Library
#TIC_Query 0
#RT_Query -1
#MZErrorPPM -1
#SharedPeaks 0
#MassDiff 0
#LibMZ -1
#SpecMZ 487.342
#SpecCharge 0
#internalFilename spec-00000.mgf

>collision 10
95.048775 120.0
95.085594 576.0
95.225121 184.0
95.559776 136.0
95.649292 160.0
95.745895 240.0
95.968781 120.0
96.087753 116.0
96.118973 248.0
96.148239 212.0
96.234131 144.0
96.331772 60.0
96.572197 144.0
96.585884 104.0
96.848167 120.0
97.06813 184.0
97.285439 140.0
97.328629 128.0
97.586777 204.0
97.637146 120.0
97.729713 196.0
97.981606 144.0
98.019035 160.0
98.291145 168.0
98.618965 148.0
98.725723 160.0
99.149376 164.0
99.581871 148.0
100.043182 144.0
100.373909 232.0
100.697189 188.0
100.715164 76.0
100.779427 100.0
101.067009 128.0
101.359344 148.0
101.50367 112.0
101.744431 228.0
101.921371 196.0
102.228821 128.0
102.291214 132.0
102.512756 192.0
103.051178 184.0
103.233414 96.0
103.261726 128.0
103.393227 60.0
103.828789 84.0
104.061081 140.0
104.074326 180.0
104.21447 180.0
104.690445 120.0
104.720993 196.0
104.869728 140.0
105.049156 140.0
105.070412 1248.0
105.207603 152.0
105.29409 140.0
105.373749 140.0
105.426758 140.0
105.594513 180.0
106.934235 240.0
107.084641 1568.0
107.131905 188.0
107.309303 256.0
107.368942 176.0
107.414314 28.0
107.790054 112.0
107.959564 104.0
108.062988 108.0
108.089928 348.0
108.755119 184.0
108.946152 72.0
109.054199 184.0
109.068748 372.0
109.102226 1372.0
109.181023 80.0
109.314156 164.0
109.559845 180.0
109.874634 140.0
109.97271 148.0
110.1045 128.0
110.181519 56.0
110.752586 164.0
110.884583 124.0
111.081673 52.0
111.100555 156.0
111.123634 208.0
111.176086 108.0
111.36084 200.0
111.613014 116.0
111.758141 168.0
112.088715 164.0
112.121483 220.0
112.440979 176.0
112.614006 208.0
112.730202 60.0
112.869713 196.0
112.892975 108.0
113.100304 164.0
113.288765 72.0
113.373512 92.0
113.41378 140.0
113.625832 144.0
113.774391 112.0
113.867821 376.0
114.171722 168.0
114.201492 96.0
114.335526 160.0
114.35894 224.0
115.034622 220.0
115.051239 200.0
115.137108 180.0
115.224686 152.0
115.380699 160.0
115.678047 164.0
115.815086 180.0
116.035805 80.0
116.055099 148.0
116.07869 156.0
116.104424 152.0
116.135742 152.0
116.630424 192.0
116.658371 148.0
116.8218 40.0
116.836861 176.0
116.929382 60.0
117.070358 828.0
117.099464 128.0
117.603973 148.0
117.67305 204.0
118.070641 152.0
118.14418 188.0
118.902321 152.0
119.019341 204.0
119.085823 2220.0
119.180496 128.0
119.717773 52.0
119.776581 140.0
120.086327 336.0
120.406906 168.0
120.933807 208.0
121.065353 296.0
121.100471 2128.0
121.227264 52.0
121.297401 212.0
121.385094 180.0
121.46624 80.0
121.646172 40.0
121.674713 196.0
122.0812 80.0
122.104012 160.0
122.149376 100.0
122.246178 104.0
122.31881 92.0
122.345222 132.0
122.367241 204.0
122.721954 124.0
122.796936 148.0
122.849869 100.0
123.019791 40.0
123.0839 240.0
123.11618 1232.0
123.211914 60.0
123.245056 152.0
123.501488 168.0
124.081657 196.0
124.119469 208.0
124.370041 132.0
124.709862 192.0
125.054604 84.0
125.095505 256.0
125.134743 156.0
125.152252 180.0
125.223808 236.0
125.29509 160.0
125.31514 68.0
125.589333 116.0
125.712036 176.0
125.988892 164.0
126.105087 152.0
126.163208 172.0
126.54129 100.0
126.581589 176.0
127.052261 204.0
127.436165 56.0
127.834152 136.0
127.97821 168.0
128.061157 652.0
128.532684 76.0
128.862335 200.0
129.070602 276.0
129.187881 236.0
129.559143 56.0
129.686035 168.0
129.72229 152.0
129.95816 172.0
130.078262 172.0
130.754791 128.0
130.9151 112.0
130.949265 204.0
131.085358 1688.0
131.234116 176.0
131.310379 72.0
131.788742 180.0
132.053909 172.0
132.090942 524.0
132.346817 172.0
132.455978 168.0
132.552963 176.0
132.697357 88.0
132.914185 200.0
133.059845 128.0
133.100952 4736.0
133.134827 208.0
133.188446 200.0
133.273453 128.0
133.43663 160.0
133.726471 88.0
134.104507 344.0
134.165009 196.0
134.2379 28.0
134.572464 192.0
135.036942 184.0
135.076263 348.0
135.11734 2632.0
135.173431 156.0
135.326187 52.0
135.47673 160.0
135.998444 108.0
136.119324 200.0
136.37471 148.0
136.460724 60.0
136.483978 80.0
137.061218 144.0
137.093216 88.0
137.132034 404.0
137.632675 36.0
137.821869 200.0
138.207672 248.0
138.319992 216.0
138.345749 88.0
138.413651 44.0
138.479218 140.0
138.533081 172.0
138.697113 208.0
138.753372 140.0
138.966797 140.0
139.107605 140.0
139.387085 164.0
139.56102 208.0
139.791534 168.0
140.140015 176.0
140.422897 84.0
140.503082 160.0
140.817032 188.0
140.93042 160.0
141.07222 224.0
141.114777 184.0
141.151321 160.0
141.429398 160.0
141.625916 120.0
141.938736 124.0
142.079193 440.0
142.36586 224.0
142.427612 28.0
142.45137 148.0
142.491745 148.0
142.629578 188.0
142.836441 144.0
143.084869 2192.0
143.12944 172.0
143.708359 200.0
144.091263 644.0
144.142914 148.0
144.315018 224.0
144.491989 68.0
144.535065 56.0
144.594879 208.0
144.954102 88.0
145.058456 140.0
145.101547 2880.0
145.16983 68.0
145.191422 40.0
145.2202 64.0
145.284958 100.0
145.409729 136.0
145.702682 36.0
145.789169 100.0
146.104523 272.0
146.133026 100.0
146.354446 168.0
146.653168 188.0
146.78334 120.0
147.082489 480.0
147.116577 1908.0
147.466537 52.0
147.556488 152.0
147.587402 156.0
147.63092 84.0
147.701065 116.0
147.814774 124.0
147.880112 144.0
147.950302 208.0
148.020523 88.0
148.059753 20.0
148.087463 156.0
148.118988 580.0
148.563416 260.0
148.716278 128.0
148.849808 176.0
148.956665 140.0
149.096313 244.0
149.13179 1332.0
149.163208 92.0
149.236145 180.0
149.542648 184.0
149.608368 120.0
149.640015 136.0
149.95668 64.0
150.007874 216.0
150.133743 488.0
150.259048 144.0
150.309204 152.0
150.51532 108.0
150.788925 48.0
151.069107 156.0
151.108536 148.0
151.138611 172.0
151.199799 120.0
151.224258 208.0
151.942093 136.0
151.996201 140.0
152.244141 176.0
153.073196 184.0
153.133041 180.0
153.405441 148.0
153.523788 172.0
154.079147 196.0
155.006973 160.0
155.059006 124.0
155.087387 732.0
155.150726 64.0
156.092056 604.0
156.245911 72.0
156.315582 124.0
156.544586 164.0
157.073105 136.0
157.100693 2048.0
157.217667 68.0
157.382416 256.0
157.663345 180.0
157.997223 172.0
158.105881 568.0
158.272537 72.0
158.505478 188.0
158.708511 200.0
158.74057 152.0
159.03212 132.0
159.079483 192.0
159.116592 4096.0
159.160217 180.0
159.217896 120.0
159.279114 184.0
159.454056 44.0
159.705475 48.0
160.085495 116.0
160.120377 580.0
160.241653 264.0
160.279449 132.0
160.849411 104.0
161.047882 152.0
161.097305 324.0
161.13147 1664.0
161.305969 188.0
161.369812 92.0
161.395096 64.0
161.644684 260.0
162.100861 136.0
162.137695 492.0
162.362411 40.0
162.420746 64.0
162.791275 172.0
162.814133 120.0
163.077209 160.0
163.108856 416.0
163.147095 1692.0
163.191193 124.0
163.304642 112.0
163.398758 84.0
163.739838 140.0
163.918167 160.0
164.146545 256.0
164.257233 232.0
164.75502 160.0
165.015701 136.0
165.06041 208.0
165.085281 196.0
165.126083 308.0
165.169128 144.0
165.312393 136.0
165.65036 172.0
165.775894 160.0
166.016861 156.0
166.079788 204.0
166.155365 172.0
166.324738 68.0
166.394043 88.0
166.463364 112.0
166.5327 152.0
166.707397 192.0
167.086609 428.0
167.146027 192.0
167.502396 188.0
167.63121 200.0
168.089249 288.0
168.16246 100.0
168.338013 184.0
168.601501 44.0
168.638245 220.0
168.673874 44.0
169.101166 1728.0
169.214539 136.0
169.232651 164.0
169.263733 92.0
169.963577 96.0
170.038834 152.0
170.073456 164.0
170.105438 940.0
170.360794 172.0
170.378983 220.0
170.498505 128.0
170.589478 144.0
170.732483 112.0
170.859924 56.0
171.08606 376.0
171.116348 2556.0
171.174866 40.0
171.477051 64.0
172.092667 156.0
172.119019 688.0
172.249359 196.0
172.937027 116.0
173.096497 172.0
173.131561 2852.0
173.337479 228.0
173.458267 108.0
173.483582 100.0
173.591965 64.0
174.136856 776.0
174.258667 184.0
174.445251 124.0
174.668762 144.0
174.863464 156.0
174.918732 120.0
175.002975 160.0
175.07106 164.0
175.112411 472.0
175.14801 2884.0
175.195236 72.0
175.345428 60.0
175.406036 280.0
175.461395 160.0
175.482498 96.0
175.614334 236.0
176.113174 284.0
176.147766 488.0
176.98587 144.0
177.057358 188.0
177.086487 336.0
177.12709 268.0
177.163406 1240.0
177.383255 56.0
177.462784 220.0
177.534378 148.0
177.592728 208.0
178.126236 292.0
178.167465 156.0
178.479691 48.0
179.069061 144.0
179.102417 44.0
179.140045 1444.0
179.174347 144.0
179.400864 156.0
179.420792 88.0
179.520844 180.0
180.089294 104.0
180.146774 192.0
180.704117 148.0
180.752274 232.0
180.800446 80.0
181.098145 184.0
181.164581 156.0
181.207443 96.0
181.261032 236.0
181.413803 20.0
181.435242 112.0
181.483505 72.0
181.915436 52.0
182.108047 504.0
182.32637 188.0
183.117249 2164.0
183.462234 64.0
183.497284 164.0
183.640198 48.0
183.707626 172.0
184.1241 728.0
184.623245 120.0
184.932678 160.0
185.093063 176.0
185.131516 2804.0
185.173904 40.0
185.283676 108.0
185.305359 52.0
185.343292 68.0
186.133224 184.0
186.211365 188.0
186.43956 96.0
186.510223 120.0
186.659744 100.0
187.075226 124.0
187.111801 1104.0
187.147797 1912.0
187.193085 56.0
187.236664 176.0
187.277512 44.0
187.326538 36.0
187.558151 168.0
187.615402 248.0
187.819916 80.0
188.079956 224.0
188.114609 136.0
188.150101 596.0
188.475098 60.0
189.090393 204.0
189.126617 864.0
189.162216 1864.0
189.213562 184.0
189.912323 72.0
190.024796 84.0
190.101624 96.0
190.139999 152.0
190.166656 600.0
191.019257 200.0
191.142151 696.0
191.178284 1208.0
191.473404 108.0
191.561539 88.0
191.941864 64.0
192.088028 296.0
192.110107 100.0
192.137695 216.0
192.183258 292.0
192.651169 96.0
193.013214 48.0
193.103088 144.0
193.158493 628.0
193.228943 72.0
193.486328 180.0
193.505707 36.0
194.104004 128.0
194.137451 100.0
194.16124 148.0
194.77301 60.0
194.828568 132.0
194.914703 60.0
195.078674 156.0
195.116074 1156.0
195.167633 232.0
196.125137 540.0
196.208908 116.0
196.234009 80.0
197.04895 68.0
197.084717 208.0
197.130676 1824.0
197.465942 156.0
198.134598 284.0
198.207291 80.0
198.341797 244.0
198.501602 176.0
198.540863 60.0
198.860687 40.0
198.905594 172.0
199.119431 588.0
199.148087 2452.0
199.206055 56.0
199.354965 72.0
199.436462 56.0
199.574219 40.0
199.678253 92.0
199.728882 152.0
200.041214 236.0
200.120041 208.0
200.153931 520.0
200.39888 48.0
200.56514 188.0
200.838638 80.0
201.088089 300.0
201.129196 472.0
201.161087 2128.0
201.197006 76.0
201.230896 48.0
201.341019 72.0
201.403152 56.0
201.513321 136.0
201.699829 36.0
202.041992 56.0
202.132904 180.0
202.169281 288.0
202.31366 176.0
202.568527 120.0
203.142014 1104.0
203.180267 1892.0
203.524261 52.0
203.879333 208.0
204.10675 108.0
204.142365 164.0
204.17189 140.0
204.217651 40.0
204.963501 152.0
205.120255 276.0
205.156738 872.0
205.193634 784.0
205.485275 140.0
205.75354 104.0
205.807785 36.0
205.893448 64.0
206.07341 52.0
206.160782 344.0
206.356354 68.0
206.656662 156.0
206.808334 216.0
207.0746 112.0
207.119965 356.0
207.147278 204.0
207.172821 272.0
207.627716 132.0
208.043762 104.0
208.121277 144.0
208.17009 156.0
209.098633 128.0
209.132706 608.0
209.262711 92.0
209.366379 80.0
209.419907 136.0
209.55072 80.0
210.101364 132.0
210.138535 328.0
210.649857 60.0
211.112289 208.0
211.146957 544.0
212.146683 136.0
212.894485 56.0
213.080368 136.0
213.126816 300.0
213.164124 1356.0
213.414612 120.0
213.493118 148.0
214.104248 212.0
214.129257 116.0
214.163956 208.0
214.380997 80.0
214.684158 120.0
214.722076 64.0
215.028412 56.0
215.086777 200.0
215.110138 192.0
215.142197 780.0
215.178833 500.0
215.231674 76.0
215.285309 168.0
215.337875 76.0
215.571594 48.0
216.146072 508.0
216.177277 108.0
216.721527 100.0
216.903229 204.0
216.926682 120.0
217.129791 304.0
217.15741 1360.0
217.1828 640.0
217.563248 196.0
218.086105 64.0
218.125443 104.0
218.161911 880.0
218.201157 144.0
218.353653 52.0
218.506607 76.0
218.636078 132.0
218.906906 92.0
219.095398 200.0
219.135178 252.0
219.172333 152.0
219.214981 144.0
219.682037 184.0
219.915146 128.0
220.077499 92.0
220.125671 140.0
220.148376 220.0
220.183609 180.0
220.2547 36.0
220.538345 36.0
220.878372 40.0
221.125549 156.0
221.193985 200.0
222.138504 164.0
223.150284 396.0
224.150284 192.0
224.624054 136.0
225.056793 148.0
225.120041 304.0
225.163101 676.0
225.430161 76.0
226.11499 180.0
226.164612 280.0
226.46817 120.0
227.140457 176.0
227.178375 860.0
228.163681 180.0
228.184784 264.0
228.714157 116.0
229.120056 560.0
229.160294 512.0
229.193695 388.0
229.56073 48.0
229.768845 84.0
229.91066 84.0
230.134033 132.0
230.170273 152.0
230.191406 28.0
230.457214 140.0
230.608307 128.0
230.629456 108.0
230.832016 104.0
230.94693 120.0
231.14032 428.0
231.17424 1740.0
231.212448 304.0
231.646149 148.0
231.694611 72.0
231.718842 52.0
232.143875 196.0
232.170303 132.0
232.243271 196.0
232.391922 128.0
232.977859 64.0
233.153351 868.0
233.186615 756.0
233.260452 84.0
233.330383 80.0
234.15416 132.0
234.197632 128.0
235.139725 184.0
236.154053 176.0
236.199936 164.0
236.83046 172.0
237.163498 532.0
238.169373 456.0
238.794754 96.0
239.182205 808.0
240.125244 140.0
240.181915 276.0
241.122437 164.0
241.162781 204.0
241.194244 1120.0
242.161514 136.0
242.190613 348.0
242.623657 80.0
242.760086 124.0
242.834518 152.0
243.171204 708.0
243.205185 144.0
243.25029 40.0
243.296844 140.0
243.346527 180.0
243.700592 128.0
243.85524 188.0
243.93988 172.0
244.183151 168.0
244.218979 148.0
244.823502 124.0
245.14621 216.0
245.187592 480.0
246.117569 128.0
246.188965 324.0
247.169571 100.0
247.203125 192.0
247.292969 120.0
247.878586 128.0
247.960068 36.0
248.154419 128.0
248.181396 224.0
248.562164 84.0
249.158859 216.0
250.177719 336.0
250.309845 108.0
250.895874 20.0
251.178619 428.0
251.217529 148.0
251.766724 20.0
251.959396 176.0
252.178177 288.0
252.376572 172.0
253.158142 180.0
253.192871 644.0
253.655563 40.0
254.048767 68.0
254.172501 152.0
254.198303 216.0
254.947311 120.0
255.134842 116.0
255.174774 644.0
255.211884 432.0
255.478287 76.0
255.923843 128.0
256.102173 72.0
256.176422 52.0
256.218781 152.0
256.516418 136.0
257.136322 184.0
257.187836 424.0
258.019958 52.0
258.19339 220.0
258.224609 84.0
259.140106 132.0
259.197723 336.0
259.993042 84.0
260.166656 192.0
260.205414 152.0
260.722046 172.0
261.146423 136.0
261.188751 356.0
261.213959 212.0
261.954315 124.0
262.195984 216.0
262.953857 132.0
263.05069 52.0
263.17984 140.0
263.945587 160.0
264.651581 104.0
265.154663 164.0
265.196747 368.0
265.389679 40.0
266.186218 124.0
267.136902 112.0
267.171997 388.0
267.213837 584.0
267.517639 44.0
268.170013 120.0
268.224487 164.0
268.384247 140.0
268.641876 148.0
268.844177 100.0
269.18576 324.0
269.23645 444.0
270.162933 212.0
270.190125 220.0
270.210785 128.0
270.288483 112.0
270.687836 84.0
270.894165 112.0
271.036102 196.0
271.107147 132.0
271.170349 356.0
271.204407 852.0
272.032043 132.0
272.205475 676.0
272.360413 172.0
273.187012 288.0
273.222961 268.0
273.251251 152.0
274.227448 172.0
275.086853 52.0
275.129761 104.0
275.19812 528.0
276.038361 204.0
276.216949 100.0
277.195099 216.0
277.369232 148.0
277.578094 168.0
278.19519 204.0
278.623596 52.0
278.982513 84.0
279.148743 76.0
279.172028 144.0
279.209503 200.0
279.236969 280.0
280.21106 144.0
281.217651 160.0
282.547485 104.0
283.176147 172.0
283.205292 580.0
284.081116 100.0
284.210693 156.0
285.082306 56.0
285.221619 572.0
285.499146 52.0
286.219421 468.0
287.19986 140.0
287.274139 144.0
288.205933 148.0
289.209656 264.0
290.565765 180.0
291.000183 144.0
291.212311 180.0
291.812195 56.0
292.990814 88.0
293.22226 180.0
293.466858 48.0
293.518005 60.0
294.521332 48.0
295.160004 140.0
295.210022 156.0
295.240051 136.0
296.17337 136.0
296.224762 76.0
297.180603 328.0
297.229828 140.0
297.255951 140.0
298.180084 160.0
298.235504 152.0
298.263 116.0
299.095367 180.0
299.197205 256.0
299.226196 124.0
299.267517 148.0
299.332916 84.0
300.191711 144.0
301.220795 256.0
301.253967 108.0
301.381805 124.0
302.213379 156.0
302.585388 32.0
303.191559 136.0
303.233795 212.0
305.219208 164.0
305.483124 224.0
306.241913 140.0
307.216217 208.0
307.248016 176.0
308.251373 148.0
308.793213 68.0
309.181549 128.0
309.227051 52.0
310.015015 48.0
311.204712 296.0
311.235626 176.0
311.414795 148.0
312.233673 136.0
312.592499 40.0
313.206757 136.0
313.237671 160.0
313.272003 128.0
314.513214 76.0
315.193085 204.0
315.286682 136.0
316.202637 120.0
316.301727 88.0
317.233337 136.0
318.223145 156.0
318.713287 128.0
319.24585 92.0
320.255188 240.0
320.645538 140.0
320.670502 44.0
320.805939 60.0
321.205322 156.0
321.233856 188.0
321.271545 180.0
321.854828 160.0
322.248291 128.0
322.726654 68.0
323.198792 120.0
323.247162 220.0
323.280975 144.0
323.341919 132.0
324.263794 156.0
325.209167 120.0
326.229279 120.0
327.187347 156.0
327.258209 140.0
327.899384 100.0
329.042847 160.0
330.202759 128.0
330.231689 88.0
331.242615 160.0
332.101227 136.0
332.18399 164.0
333.036987 80.0
333.26947 148.0
335.216156 176.0
335.240387 116.0
335.850525 76.0
336.277405 72.0
337.247437 432.0
338.002258 80.0
339.232819 152.0
339.295135 168.0
339.361145 104.0
339.38681 32.0
340.29303 144.0
341.207855 132.0
341.251953 112.0
341.858887 76.0
342.131226 72.0
342.241699 172.0
342.989532 48.0
344.609558 168.0
345.249054 304.0
346.481598 108.0
346.655731 192.0
346.811401 92.0
347.203217 164.0
347.275726 256.0
348.269226 216.0
349.249939 104.0
349.28418 276.0
350.257935 172.0
350.289795 172.0
351.278107 296.0
352.240173 148.0
352.266327 92.0
353.144684 44.0
353.208282 128.0
353.244385 184.0
355.032227 128.0
355.255524 212.0
355.970367 80.0
356.222015 92.0
356.270844 128.0
357.2453 152.0
358.716858 108.0
360.241364 92.0
360.464264 112.0
361.239319 140.0
361.284698 112.0
361.613892 116.0
362.261383 112.0
362.30304 104.0
363.306671 172.0
364.268036 100.0
364.302246 152.0
365.203094 120.0
365.26355 112.0
365.289337 304.0
366.2117 116.0
366.257416 108.0
366.287872 160.0
366.345032 160.0
367.299713 688.0
368.261871 112.0
368.296631 456.0
368.959106 80.0
369.280304 172.0
369.907806 72.0
370.309845 40.0
370.662262 96.0
373.291687 92.0
375.317047 68.0
376.297058 172.0
377.261566 212.0
377.319183 164.0
378.295746 180.0
378.346069 200.0
379.24472 136.0
380.300079 208.0
381.154053 160.0
381.27063 56.0
381.317261 280.0
382.273926 112.0
383.26297 116.0
384.264984 116.0
384.296204 180.0
384.538147 44.0
385.272217 144.0
387.177063 112.0
387.259308 132.0
387.30072 272.0
388.113586 196.0
389.01593 40.0
389.313904 412.0
390.316345 80.0
390.355682 148.0
391.256683 124.0
391.299988 88.0
391.335419 148.0
392.296661 116.0
393.296112 108.0
393.405151 208.0
395.332794 296.0
396.339722 120.0
396.819275 68.0
397.354706 180.0
397.517365 112.0
398.438507 100.0
398.561676 140.0
399.253357 108.0
404.019775 68.0
405.128662 76.0
405.319855 468.0
405.369049 148.0
405.493286 88.0
406.317047 128.0
407.150177 148.0
407.222473 208.0
407.324463 1176.0
407.688477 68.0
408.336884 764.0
408.396057 220.0
409.33194 244.0
409.358978 164.0
410.236237 80.0
410.308807 168.0
411.264801 48.0
411.329895 552.0
411.466644 40.0
412.217896 76.0
412.334198 148.0
413.318268 212.0
414.694611 92.0
416.971436 80.0
419.996521 144.0
420.600403 80.0
421.147552 128.0
421.229248 144.0
421.315887 264.0
421.797211 96.0
422.30014 200.0
422.541473 136.0
422.901581 76.0
423.323578 1632.0
423.880341 136.0
424.22049 144.0
424.325134 564.0
424.363983 136.0
424.741272 104.0
424.864319 140.0
425.237732 76.0
425.338867 2624.0
425.414215 48.0
425.557922 68.0
425.607178 52.0
425.767883 60.0
425.820709 120.0
425.952148 28.0
426.087708 348.0
426.14389 116.0
426.337799 520.0
426.868652 132.0
426.922119 80.0
427.082489 112.0
427.354858 168.0
427.440399 84.0
428.34613 120.0
429.11264 52.0
429.360046 100.0
429.910461 104.0
432.102753 132.0
433.316254 616.0
434.289948 44.0
436.736328 20.0
439.324738 176.0
441.143768 152.0
441.338654 572.0
441.407166 56.0
442.333984 276.0
442.423859 180.0
444.101532 220.0
444.198608 140.0
445.203705 136.0
445.644775 84.0
446.901886 124.0
449.256927 112.0
450.096802 132.0
450.409332 156.0
451.318512 284.0
452.321442 432.0
457.32486 120.0
458.180756 88.0
462.313873 32.0
469.326538 152.0
470.328156 200.0
477.09552 104.0
487.339844 104.0
488.240967 116.0
489.307251 268.0
490.054504 96.0
490.298767 128.0
491.302155 120.0
492.39682 52.0
495.298218 120.0
500.124664 112.0
501.041962 76.0
501.175629 80.0
503.178192 60.0
504.330688 108.0
513.283752 68.0
520.268005 68.0
526.268494 136.0
527.703125 100.0
568.228943 96.0
569.083252 116.0
586.188171 100.0
622.403625 48.0
645.640686 64.0
715.637024 72.0
738.903564 68.0
770.327881 76.0
794.656555 208.0
817.604004 144.0
838.986145 188.0
846.236633 136.0
857.919739 72.0
895.068542 92.0
895.193604 132.0
930.003906 40.0
936.546143 104.0
937.594055 172.0
938.642578 96.0
938.990173 124.0
953.628845 80.0
979.673218 84.0
981.025452 132.0
1016.58136 184.0
1022.555054 164.0
1032.801758 112.0
1037.046753 132.0
1072.154053 168.0
1090.038574 124.0
1109.867188 52.0
1118.583496 140.0
1121.994141 188.0
1122.560913 88.0
1128.804443 160.0
1140.697998 204.0
1147.665771 84.0
1149.196899 212.0
1149.648926 36.0
1153.282349 128.0
1155.859009 184.0
1157.131348 200.0
1159.942749 140.0
1170.636475 160.0
1172.053345 80.0
1173.76416 108.0
1174.411987 96.0
1176.643433 60.0
1183.213379 84.0
1186.803345 120.0
1196.022583 60.0
1197.895508 124.0
1200.21106 176.0
1206.929443 272.0
1208.665527 196.0
1210.859985 128.0
1212.813721 184.0
1217.899658 28.0
1222.536743 196.0
1222.787354 148.0
1224.291016 204.0
1227.7948 88.0
1228.486938 244.0
1231.774658 148.0
1236.004395 108.0
1242.309814 116.0
1256.717896 168.0
1262.73645 144.0
1264.038086 124.0
1266.522949 164.0
1266.848755 168.0
1272.614502 148.0
1279.36853 128.0
1284.463501 212.0
1287.446777 184.0
1288.411011 220.0
1289.454224 44.0
1290.512207 172.0
1291.119995 268.0
1293.609863 140.0
1295.880127 216.0
1299.443359 196.0
1300.648926 180.0
1305.289917 64.0
1314.307983 164.0
1314.372925 316.0
1322.922852 164.0
1323.849609 188.0
1326.934937 108.0
1327.175537 196.0
1331.572998 144.0
1335.061279 240.0
1336.537964 112.0
1337.222046 152.0
1340.557373 128.0
1340.622925 72.0
1340.710449 116.0
1341.811035 44.0
1343.473755 144.0
1345.889526 208.0
1348.899414 176.0
1353.310791 80.0
1356.842163 44.0
1358.433472 136.0
1363.095459 196.0
1364.528687 48.0
1366.919189 156.0
1367.817017 88.0
1368.671021 216.0
1374.479248 184.0
1381.357422 68.0
1382.467163 172.0
1382.681763 152.0
1386.94043 36.0
1390.300171 160.0
1392.356567 220.0
1392.69812 192.0
1395.307251 172.0
1396.131714 124.0
1397.716919 192.0
1398.281738 116.0
1399.725952 188.0
1401.744507 204.0
1405.838379 124.0
1405.935425 188.0
1407.077393 176.0
1407.629883 112.0
1408.204956 128.0
1410.812744 76.0
1414.867432 144.0
1420.712769 212.0
1423.977905 208.0
1426.434814 136.0
1430.692505 48.0
1431.106567 232.0
1432.15332 100.0
1442.671997 188.0
1448.529053 156.0
1449.900391 176.0
1451.70459 184.0
1455.832764 200.0
1459.373657 152.0
1460.849121 112.0
1464.022949 132.0
1465.340576 192.0
1465.858765 132.0
1466.134277 132.0
1471.029663 264.0
1473.610962 216.0
1475.490967 80.0
1478.611816 140.0
1479.805908 144.0
1481.421753 200.0
1485.591919 156.0
1487.080566 108.0
1487.546143 176.0
1488.42395 64.0
1489.153442 128.0
1494.719238 88.0
1495.696655 220.0
1496.912964 136.0
1497.067017 124.0
1497.636963 148.0
1498.114502 212.0
1498.461182 180.0
1501.351685 60.0
1502.53186 112.0
1503.635254 220.0
