>compound Techtochrysin
>formula C16H12O4
>ionization [M+H]+
>parentmass 269.08083531609054
#inchi InChI=1S/C16H12O4/c1-19-11-7-12(17)16-13(18)9-14(20-15(16)8-11)10-5-3-2-4-6-10/h2-9,17H,1H3
#inchikey IRZVHDLBAYNPCT
#Ion_Source DI-ESI
#Instrument qTof
#Compound_Source Isolated
#PI Norberto Lopes
#Data_Collector Denise Silva
#Scan -1
#Precursor_MZ 269.073
#ExactMass 268.074
#Charge 1
#CAS_Number 520-28-5
#Pubmed_ID  
#Smiles O=C1C2=C(O)C=C(OC)C=C2OC(C3=CC=CC=C3)=C1
#INCHI_AUX  
#Library_Class 3
#SpectrumID CCMSLIB00000081300
#IonMode Positive
#UpdateWorkflowName UPDATE-SINGLE-ANNOTATED-BRONZE
#LibraryQualityString Bronze
#TaskID 265d063d48ff46279939c81a720db552
##Scan# 1
#SpectrumFile gnps_Techtochrysin_pos_MplusH.mgf
#LibraryName gnps_library.mgf
#MQScore -1
#Organism gnps_library
#TIC_Query 0
#RT_Query -1
#MZErrorPPM -1
#SharedPeaks 0
#MassDiff 0
#LibMZ -1
#SpecMZ 269.073
#SpecCharge 0
#internalFilename spec-00000.mgf

>collision 10
115.049896 2819.0
116.05687 641.0
123.004044 3820.0
124.01162 36849.0
125.015373 1490.0
126.041786 4663.0
127.048889 557.0
128.056763 1350.0
129.029053 4122.0
131.044693 1196.0
139.048157 1992.0
140.058456 1542.0
141.064438 8444.0
142.070786 2088.0
143.043228 2041.0
144.052643 5181.0
147.038757 637.0
149.018753 2496.0
150.039017 636.0
151.050674 1108.0
152.056107 32693.0
153.061279 6168.0
154.035492 624.0
155.047531 2369.0
163.049347 852.0
165.063431 1503.0
167.028625 5452.0
168.049973 1109.0
169.058228 14262.0
170.066452 5543.0
171.0383 14152.0
172.044403 1331.0
179.050262 2503.0
180.051636 5049.0
181.059402 12080.0
182.062653 999.0
183.039856 1013.0
184.046173 774.0
197.054428 36778.0
198.057663 4483.0
207.036636 2199.0
208.044022 6275.0
209.05159 1317.0
212.040588 779.0
225.048523 16657.0
226.05423 73361.0
227.058075 6552.0
240.035767 833.0
254.049744 2639.0
269.07309 3336.0
