>compound MLS001401402-01!(+)-3-HYDROXY-N-METHYLMORPHINAN D-TARTRATE
>formula C17H23NO
>ionization [M+H]+
>parentmass 258.184052
#inchi InChI=1S/C17H23NO/c1-18-9-8-17-7-3-2-4-14(17)16(18)10-12-5-6-13(19)11-15(12)17/h5-6,11,14,16,19H,2-4,7-10H2,1H3/t14-,16+,17+/m1/s1
#inchikey JAQUASYNZVUNQP
#origInchi InChI=1S/C17H23NO.C4H6O6/c1-18-9-8-17-7-3-2-4-14(17)16(18)10-12-5-6-13(19)11-15(12)17;5-1(3(7)8)2(6)4(9)10/h5-6,11,14,16,19H,2-4,7-10H2,1H3;1-2,5-6H,(H,7,8)(H,9,10)/t14-,16+,17+;/m1./s1
#Ion_Source LC-ESI
#Instrument qTof
#Compound_Source NIH Pharmacologically Active Library
#PI Dorrestein
#Data_Collector VP/LMS
#Scan -1
#Precursor_MZ 258.185
#ExactMass 257.178
#Charge 1
#CAS_Number N/A
#Pubmed_ID N/A
#Smiles CN1CC[C@]23CCCC[C@@H]3[C@@H]1Cc4ccc(O)cc42.OC(C(O)C(=O)O)C(=O)O
#INCHI_AUX N/A
#Library_Class 1
#SpectrumID CCMSLIB00000084974
#IonMode Positive
#UpdateWorkflowName UPDATE-SINGLE-ANNOTATED-GOLD
#LibraryQualityString Gold
#TaskID d252d724072548979f1f6f1ced849daf
##Scan# 1334
#SpectrumFile p3-D04_GD4_01_18261.mzXML
#LibraryName Pharm_Active_Library.mgf
#MQScore -1
#Organism Pharm_Active_Library
#TIC_Query 0
#RT_Query -1
#MZErrorPPM -1
#SharedPeaks 0
#MassDiff 0
#LibMZ -1
#SpecMZ 258.185
#SpecCharge 0
#internalFilename spec-00000.mgf

>collision 10
45.287807 136.0
47.674576 76.0
49.290482 48.0
49.31424 232.0
49.554943 148.0
50.262226 88.0
52.427109 160.0
53.245987 40.0
55.861126 192.0
57.010963 168.0
57.221558 124.0
57.581966 192.0
58.157333 180.0
59.387184 136.0
61.951263 208.0
63.111237 172.0
66.410545 184.0
68.882362 124.0
69.461746 172.0
70.726517 184.0
73.409622 196.0
73.665642 236.0
75.311287 192.0
76.118355 172.0
77.964912 132.0
78.477165 196.0
78.738342 96.0
83.662842 200.0
83.730217 212.0
84.04377 224.0
84.738571 220.0
85.561386 164.0
85.684776 188.0
85.708733 40.0
88.255501 96.0
88.633606 192.0
89.102684 188.0
89.665329 128.0
89.848236 152.0
90.663208 128.0
90.812988 148.0
91.088226 168.0
91.859184 60.0
93.249336 200.0
95.033722 140.0
95.764679 160.0
95.959549 144.0
96.379204 168.0
100.286926 44.0
101.02977 96.0
101.723152 160.0
102.082802 212.0
102.725304 148.0
103.041748 204.0
104.056969 112.0
104.864571 172.0
105.07074 540.0
106.591858 120.0
106.783051 224.0
107.046471 172.0
109.76738 224.0
110.333221 152.0
110.670074 100.0
110.749657 168.0
111.179466 68.0
111.809952 152.0
112.351486 136.0
115.021149 184.0
115.055305 180.0
116.679268 44.0
117.068733 224.0
118.145805 160.0
118.208549 100.0
118.800056 160.0
120.517868 120.0
121.064316 164.0
122.067619 148.0
122.717194 192.0
123.048149 164.0
123.136475 48.0
123.218208 180.0
124.194458 164.0
126.044533 124.0
126.422455 128.0
127.049294 272.0
127.944305 168.0
128.065903 180.0
128.104202 160.0
128.356628 152.0
129.068436 484.0
129.359772 32.0
129.595322 156.0
129.633835 176.0
131.049118 140.0
132.09053 208.0
132.225525 104.0
133.063263 2208.0
133.167847 44.0
133.537903 152.0
133.756485 168.0
133.986771 128.0
134.068619 340.0
134.794342 84.0
134.902969 144.0
135.335617 124.0
136.342392 128.0
136.748718 220.0
137.063782 156.0
138.962418 164.0
140.333664 76.0
140.673386 112.0
142.070953 164.0
143.089188 108.0
144.057434 528.0
144.909134 164.0
144.976227 140.0
145.063339 1176.0
145.91478 40.0
146.066284 104.0
146.576691 60.0
147.078323 180.0
147.358459 116.0
148.082977 152.0
148.959839 160.0
151.181046 204.0
152.058426 132.0
152.500519 164.0
154.349518 256.0
155.846664 148.0
155.864059 164.0
155.960983 132.0
156.483398 140.0
156.528214 60.0
156.672684 56.0
156.926895 92.0
156.966797 132.0
156.99173 100.0
157.06488 3956.0
158.068283 360.0
158.103439 164.0
159.030777 84.0
159.079575 1228.0
159.603561 48.0
159.681519 120.0
160.081558 288.0
160.152191 128.0
161.090546 132.0
162.1026 164.0
164.432129 200.0
165.063141 96.0
166.074753 272.0
169.006485 180.0
169.068787 156.0
169.669525 48.0
170.071609 156.0
170.094971 152.0
171.081497 332.0
171.122467 188.0
173.085388 172.0
173.103729 148.0
173.300186 264.0
178.069778 152.0
181.101501 164.0
182.100174 68.0
184.944763 176.0
185.097168 360.0
185.118042 200.0
185.383514 196.0
186.101135 168.0
186.365829 184.0
186.594131 232.0
189.366638 144.0
191.856216 80.0
193.073929 156.0
194.85907 204.0
194.911865 176.0
196.970749 148.0
197.088089 104.0
197.398361 104.0
198.10434 172.0
198.128128 176.0
198.176529 32.0
198.962585 192.0
199.110306 4676.0
199.363495 64.0
200.115204 508.0
200.909332 120.0
200.988327 96.0
201.127991 2732.0
201.245178 36.0
201.745255 80.0
201.770691 64.0
202.133072 176.0
203.121704 228.0
203.567123 88.0
203.643799 104.0
204.93248 164.0
207.381561 56.0
208.952347 180.0
209.102524 192.0
209.580017 48.0
209.692413 96.0
209.727005 40.0
211.12439 192.0
212.279877 168.0
219.797974 204.0
222.277695 180.0
227.140488 668.0
228.136124 180.0
228.209976 56.0
230.401093 152.0
246.516174 140.0
256.219147 152.0
257.651611 176.0
258.028748 132.0
258.184052 5044.0
258.316559 48.0
258.402954 48.0
258.620544 52.0
259.185211 724.0
259.581665 76.0
260.194183 264.0
260.300476 88.0
261.173859 64.0
262.956421 112.0
274.172943 84.0
274.987579 52.0
355.139954 116.0
452.081726 108.0
524.845642 48.0
542.788574 116.0
560.377991 68.0
799.337585 268.0
805.494324 140.0
894.316895 140.0
899.550476 148.0
930.574402 160.0
937.277283 176.0
946.488647 84.0
1033.125488 148.0
1047.434448 192.0
1070.172852 56.0
1075.100952 184.0
1083.974976 220.0
1147.337524 128.0
1163.608765 204.0
1173.719604 236.0
1176.762817 140.0
1194.574829 172.0
1245.804932 180.0
1252.776611 164.0
1269.053101 148.0
1272.657593 224.0
1275.030151 204.0
1294.241211 152.0
1294.942993 148.0
1296.017578 140.0
1310.59668 136.0
1362.974854 116.0
1375.92334 112.0
1391.010742 136.0
1394.776855 256.0
1396.606079 160.0
1408.099243 180.0
1411.260254 180.0
1416.446533 168.0
1419.744507 204.0
1419.894409 116.0
1421.537354 176.0
1424.878784 144.0
1427.411743 48.0
1449.688843 124.0
1462.585083 196.0
1474.659424 116.0
1489.209595 48.0
1499.50415 256.0
