>compound Pizotifen malate
>formula C19H21NS
>ionization [M+H]+
>parentmass 296.14674712409055
#inchi InChI=1S/C19H21NS/c1-20-11-8-15(9-12-20)19-16-5-3-2-4-14(16)6-7-18-17(19)10-13-21-18/h2-5,10,13H,6-9,11-12H2,1H3
#inchikey FIADGNVRKBPQEU
#origInchi InChI=1S/C19H21NS.C4H6O5/c1-20-11-8-15(9-12-20)19-16-5-3-2-4-14(16)6-7-18-17(19)10-13-21-18;5-2(4(8)9)1-3(6)7/h2-5,10,13H,6-9,11-12H2,1H3;2,5H,1H2,(H,6,7)(H,8,9)
#Ion_Source LC-ESI
#Instrument qTof
#Compound_Source Commercial
#PI Dorrestein
#Data_Collector Garg_Neha
#Scan -1
#Precursor_MZ 296.147
#ExactMass 295.139
#Charge 1
#CAS_Number 5189-11-7, 15574-96-6 (free base)
#Pubmed_ID N/A
#Smiles C1(C2=C(CCC3=C1C=CC=C3)SC=C2)=C4(CCN(CC4)C).C(C(CC(=O)O)O)(=O)O
#INCHI_AUX N/A
#Library_Class 1
#SpectrumID CCMSLIB00000078134
#IonMode Positive
#UpdateWorkflowName UPDATE-SINGLE-ANNOTATED-GOLD
#LibraryQualityString Gold
#TaskID 77f51c88eb8b467eb4a01dd2d0cb90d2
##Scan# 1190
#SpectrumFile Plate2_41_60_GG7_01_16495.mzXML
#LibraryName FDALibrary_2_04302014.mgf
#MQScore -1
#Organism FDALibrary_2_04302014
#TIC_Query 0
#RT_Query -1
#MZErrorPPM -1
#SharedPeaks 0
#MassDiff 0
#LibMZ -1
#SpecMZ 296.147
#SpecCharge 0
#internalFilename spec-00000.mgf

>collision 10
44.901028 176.0
44.961327 164.0
45.094845 144.0
45.10014 124.0
45.122692 160.0
45.197594 180.0
45.217667 304.0
45.247116 232.0
45.273796 160.0
45.291187 176.0
45.310936 196.0
45.387886 128.0
45.402554 140.0
45.459049 104.0
45.559395 160.0
45.582439 156.0
45.593189 148.0
45.656376 160.0
45.68462 204.0
45.709587 180.0
45.789497 136.0
45.807667 136.0
45.820473 164.0
45.878544 176.0
45.903591 208.0
45.917648 192.0
45.964867 152.0
46.007545 212.0
46.040462 144.0
46.054646 144.0
46.094498 148.0
46.124229 208.0
46.163532 176.0
46.189537 108.0
46.208752 136.0
46.247322 244.0
46.350143 160.0
46.423351 172.0
46.435406 204.0
46.473656 148.0
46.503452 140.0
46.544216 168.0
46.56691 216.0
46.649033 164.0
46.666504 176.0
46.853252 132.0
46.963139 260.0
46.989708 200.0
47.098984 112.0
47.239304 212.0
47.259827 140.0
47.316978 148.0
47.383049 152.0
47.398121 164.0
47.451576 152.0
47.462547 144.0
47.518784 164.0
47.642288 100.0
47.679443 208.0
47.716557 172.0
47.726181 172.0
47.748184 160.0
47.778446 164.0
47.822754 160.0
47.85965 176.0
47.869289 220.0
47.900478 204.0
47.945759 100.0
47.97538 144.0
47.991924 148.0
48.138191 220.0
48.148609 200.0
48.172718 184.0
48.239052 168.0
48.255642 144.0
48.270401 160.0
48.294361 188.0
48.30624 136.0
48.33725 172.0
48.395767 232.0
48.409233 168.0
48.439701 156.0
48.567226 156.0
48.608543 200.0
48.639709 136.0
48.717144 184.0
48.729664 340.0
48.760826 160.0
48.791756 192.0
48.808876 172.0
48.824173 160.0
48.836109 172.0
48.856163 260.0
48.871853 188.0
48.915234 168.0
48.966129 180.0
48.996777 164.0
49.0121 200.0
49.046944 152.0
49.062275 172.0
49.137047 124.0
49.182243 164.0
49.261837 152.0
49.368488 144.0
49.409531 204.0
49.4744 168.0
49.498886 168.0
49.580856 172.0
49.635525 248.0
49.681812 188.0
49.729519 156.0
49.851704 152.0
49.888775 204.0
49.899498 228.0
49.914963 196.0
49.961376 144.0
50.027519 188.0
50.081734 172.0
50.109203 148.0
50.134567 144.0
50.175194 136.0
50.2248 228.0
50.275593 160.0
50.286095 172.0
50.322174 148.0
50.363129 144.0
50.404099 168.0
50.479641 176.0
50.521542 180.0
50.535 132.0
50.564316 204.0
50.576637 148.0
50.58852 152.0
50.682854 160.0
50.709141 132.0
50.810459 168.0
50.823555 156.0
50.88026 152.0
50.94622 176.0
50.969707 200.0
50.987953 164.0
51.011597 120.0
51.027756 212.0
51.057461 216.0
51.090332 208.0
51.101715 168.0
51.125904 144.0
51.137291 204.0
51.16576 192.0
51.184784 188.0
51.204208 168.0
51.226997 196.0
51.38868 176.0
51.421814 140.0
51.443756 164.0
51.456604 196.0
51.500874 180.0
51.584778 100.0
51.644684 208.0
51.67984 152.0
51.692093 224.0
51.784073 180.0
51.836544 172.0
51.910011 196.0
51.925781 160.0
51.966763 156.0
52.008476 212.0
52.023537 172.0
52.03952 120.0
52.121201 144.0
52.240532 140.0
52.274017 176.0
52.292332 140.0
52.396011 224.0
52.456539 172.0
52.490406 220.0
52.54018 152.0
52.600792 152.0
52.690327 140.0
52.752468 304.0
52.762589 152.0
52.782444 148.0
52.853706 172.0
52.886993 224.0
52.898575 148.0
52.91547 180.0
52.930424 156.0
53.049229 184.0
53.063622 164.0
53.243004 124.0
53.262543 184.0
53.319031 196.0
53.342541 152.0
53.359909 144.0
53.410809 184.0
53.434082 172.0
53.470795 140.0
53.492294 208.0
53.518501 156.0
53.560055 172.0
53.635048 216.0
53.773998 200.0
53.788696 144.0
53.810917 180.0
53.87093 164.0
53.890018 112.0
53.919662 144.0
53.981064 148.0
54.004463 192.0
54.036198 144.0
54.092258 152.0
54.109417 188.0
54.186653 184.0
54.20985 208.0
54.220356 332.0
54.25499 140.0
54.27232 212.0
54.306187 184.0
54.319733 208.0
54.403522 192.0
54.430931 208.0
54.466179 188.0
54.492844 236.0
54.538643 176.0
54.630817 148.0
54.669071 164.0
54.72879 176.0
54.777378 164.0
54.809635 132.0
54.910053 140.0
54.944332 232.0
54.967941 192.0
54.997734 148.0
55.012497 172.0
55.024307 168.0
55.084854 156.0
55.098152 148.0
55.133656 148.0
55.16613 184.0
55.270363 244.0
55.288094 152.0
55.31424 196.0
55.34219 156.0
55.373287 140.0
55.402912 172.0
55.423508 160.0
55.447365 192.0
55.458588 252.0
55.497765 140.0
55.511288 168.0
55.567417 136.0
55.582314 144.0
55.613125 168.0
55.665535 192.0
55.715942 160.0
55.751602 176.0
55.982189 156.0
56.004528 148.0
56.077538 140.0
56.10804 144.0
56.165611 148.0
56.217728 224.0
56.243099 196.0
56.271461 140.0
56.320744 176.0
56.33749 208.0
56.364067 156.0
56.42535 140.0
56.44939 152.0
56.460018 164.0
56.476456 160.0
56.621155 192.0
56.7131 180.0
56.725578 140.0
56.76524 156.0
56.778736 208.0
56.798233 176.0
56.828812 188.0
56.987392 148.0
57.006256 224.0
57.042999 140.0
57.058029 204.0
57.077576 148.0
57.108929 208.0
57.15358 228.0
57.347149 128.0
57.365143 196.0
57.384743 144.0
57.408867 164.0
57.445065 196.0
57.476749 152.0
57.526554 172.0
57.633228 152.0
57.685844 144.0
57.750191 144.0
57.807106 232.0
57.819073 212.0
57.8652 144.0
57.890942 172.0
57.909981 168.0
57.937893 168.0
58.028442 188.0
58.050056 144.0
58.063667 164.0
58.112247 208.0
58.127247 140.0
58.144115 156.0
58.15929 172.0
58.186615 164.0
58.222706 120.0
58.238247 196.0
58.270149 144.0
58.329113 232.0
58.380707 180.0
58.39632 172.0
58.410641 164.0
58.461739 220.0
58.480225 164.0
58.500103 156.0
58.56041 152.0
58.572884 240.0
58.585072 164.0
58.600304 176.0
58.61097 140.0
58.674988 192.0
58.768021 192.0
58.786335 156.0
58.816444 204.0
58.83823 144.0
58.866798 180.0
58.980602 100.0
58.998642 208.0
59.024635 176.0
59.062199 192.0
59.092968 176.0
59.17305 164.0
59.197552 164.0
59.227417 128.0
59.2435 240.0
59.286404 168.0
59.326256 180.0
59.390659 140.0
59.547215 164.0
59.565178 144.0
59.579956 208.0
59.592529 116.0
59.63866 188.0
59.701698 104.0
59.765507 140.0
59.808598 140.0
59.82399 156.0
59.853901 160.0
59.92675 172.0
60.034184 316.0
60.050503 156.0
60.174614 224.0
60.189396 148.0
60.239456 176.0
60.328091 176.0
60.456825 216.0
60.492424 224.0
60.504147 160.0
60.515648 144.0
60.542152 172.0
60.603931 200.0
60.648872 176.0
60.669712 172.0
60.757423 188.0
60.79932 148.0
60.837635 204.0
60.851353 192.0
60.968597 156.0
60.994526 164.0
61.060322 152.0
61.108547 164.0
61.14278 200.0
61.163811 164.0
61.203491 184.0
61.232819 96.0
61.261024 136.0
61.304741 168.0
61.331238 180.0
61.348656 184.0
61.41214 176.0
61.441998 148.0
61.460678 160.0
61.487545 148.0
61.548088 144.0
61.571808 192.0
61.620506 296.0
61.699646 168.0
61.749554 144.0
61.811306 100.0
61.900791 252.0
61.928806 120.0
61.983589 116.0
62.013657 140.0
62.097382 152.0
62.115623 108.0
62.172298 144.0
62.193707 184.0
62.293587 196.0
62.319038 120.0
62.462048 144.0
62.517757 128.0
62.544525 212.0
62.570374 180.0
62.627064 160.0
62.716106 164.0
62.730221 188.0
62.749981 184.0
62.925484 184.0
62.98378 184.0
63.097317 156.0
63.125778 148.0
63.140011 148.0
63.154785 164.0
63.169605 152.0
63.198246 172.0
63.252033 120.0
63.272179 164.0
63.330494 228.0
63.352116 188.0
63.42284 124.0
63.467812 192.0
63.478912 260.0
63.49411 112.0
63.524906 160.0
63.566158 148.0
63.581581 228.0
63.599487 156.0
63.678875 156.0
63.74242 196.0
63.754978 164.0
63.774693 196.0
63.839939 232.0
63.886257 120.0
63.93166 176.0
63.965282 160.0
63.993893 124.0
64.186539 224.0
64.221626 200.0
64.269745 120.0
64.325516 184.0
64.459221 324.0
64.551704 200.0
64.597206 180.0
64.617348 156.0
64.648338 176.0
64.741051 164.0
64.794853 144.0
64.832901 168.0
64.869225 220.0
64.885178 160.0
64.91272 200.0
64.946198 144.0
64.957428 208.0
64.995926 196.0
65.037659 180.0
65.108299 140.0
65.132568 148.0
65.186691 176.0
65.268913 160.0
65.326828 184.0
65.349419 196.0
65.371948 180.0
65.399307 172.0
65.415405 176.0
65.462097 164.0
65.513634 180.0
65.56189 144.0
65.627625 160.0
65.645805 176.0
65.711433 180.0
65.735291 160.0
65.784561 172.0
65.810394 196.0
65.963867 168.0
65.980225 104.0
66.004288 196.0
66.046341 172.0
66.081932 196.0
66.153114 144.0
66.191917 168.0
66.22924 156.0
66.325005 160.0
66.339432 148.0
66.360344 168.0
66.392265 220.0
66.425377 276.0
66.440826 192.0
66.454582 172.0
66.555893 128.0
66.589317 144.0
66.647202 328.0
66.687859 172.0
66.729065 180.0
66.740448 144.0
66.758339 188.0
66.77182 152.0
66.794113 180.0
66.83567 244.0
66.941765 192.0
66.971542 140.0
67.048111 220.0
67.127945 124.0
67.154091 180.0
67.197311 184.0
67.315994 116.0
67.361389 176.0
67.45842 200.0
67.476418 124.0
67.564102 176.0
67.591766 132.0
67.664558 272.0
67.686852 156.0
67.707039 208.0
67.776947 248.0
67.806442 180.0
67.823746 108.0
67.843224 200.0
67.888412 140.0
67.941856 160.0
67.977524 224.0
68.008179 152.0
68.027809 96.0
68.049225 236.0
68.080421 160.0
68.116554 232.0
68.144485 160.0
68.252968 176.0
68.282265 196.0
68.309784 124.0
68.379799 160.0
68.427376 200.0
68.50148 152.0
68.562561 116.0
68.599609 264.0
68.70314 184.0
68.727348 180.0
68.743851 216.0
68.828033 160.0
68.903404 152.0
68.915085 260.0
68.946976 144.0
69.009338 128.0
69.021362 160.0
69.049477 164.0
69.074287 164.0
69.170265 164.0
69.229866 244.0
69.261337 252.0
69.356339 168.0
69.427078 196.0
69.457954 136.0
69.48632 224.0
69.503387 232.0
69.5233 156.0
69.65554 240.0
69.773796 148.0
69.827324 224.0
69.915504 180.0
69.970467 180.0
70.058701 168.0
70.128937 104.0
70.142021 144.0
70.211655 152.0
70.260422 144.0
70.3255 144.0
70.338852 168.0
70.35054 168.0
70.377251 192.0
70.432358 192.0
70.45742 220.0
70.501297 184.0
70.540977 172.0
70.554352 220.0
70.756783 176.0
70.77018 204.0
70.800316 216.0
70.847946 120.0
70.932686 204.0
71.011124 200.0
71.033295 216.0
71.050072 144.0
71.113953 292.0
71.233368 300.0
71.283089 108.0
71.338295 128.0
71.395477 176.0
71.429733 168.0
71.513863 160.0
71.532761 140.0
71.557632 380.0
71.614883 160.0
71.633415 176.0
71.728218 184.0
71.745888 200.0
71.788879 168.0
71.827271 156.0
71.87957 160.0
71.921761 144.0
71.989296 168.0
72.052017 176.0
72.068596 156.0
72.092346 164.0
72.137978 152.0
72.166183 140.0
72.212379 144.0
72.23085 156.0
72.268204 188.0
72.313721 116.0
72.385216 124.0
72.452057 116.0
72.48494 152.0
72.529007 148.0
72.569687 272.0
72.584007 100.0
72.703697 152.0
72.715576 140.0
72.734543 184.0
72.773293 180.0
72.833702 196.0
72.941483 176.0
72.956779 164.0
72.982285 188.0
72.998199 144.0
73.047943 184.0
73.060524 180.0
73.087746 152.0
73.177956 156.0
73.331032 312.0
73.380707 256.0
73.434433 124.0
73.505524 156.0
73.632683 192.0
73.674461 160.0
73.685997 164.0
73.77166 160.0
73.80999 152.0
73.890205 204.0
74.007759 244.0
74.031845 184.0
74.121002 176.0
74.148224 156.0
74.163399 188.0
74.216797 184.0
74.269516 252.0
74.300842 160.0
74.32486 140.0
74.417549 340.0
74.47937 148.0
74.526833 172.0
74.564537 352.0
74.59214 108.0
74.613159 192.0
74.626717 112.0
74.662735 140.0
74.694237 164.0
74.74482 240.0
74.763695 232.0
74.979935 116.0
75.076599 156.0
75.114937 176.0
75.159729 168.0
75.178337 156.0
75.320076 176.0
75.392525 164.0
75.451294 256.0
75.480682 148.0
75.501663 180.0
75.529831 212.0
75.548561 148.0
75.680756 140.0
75.726357 188.0
75.756836 196.0
75.802734 208.0
75.825798 124.0
75.860802 124.0
75.891716 184.0
75.954559 136.0
76.02636 164.0
76.049072 136.0
76.074959 140.0
76.093002 204.0
76.120102 152.0
76.136925 128.0
76.177414 144.0
76.194786 220.0
76.248657 172.0
76.301933 184.0
76.379295 148.0
76.439743 164.0
76.477318 144.0
76.514793 156.0
76.531227 220.0
76.564346 120.0
76.616417 240.0
76.652397 164.0
76.69371 116.0
76.717339 184.0
76.770493 172.0
76.803444 128.0
76.824005 184.0
76.879097 172.0
76.903526 188.0
77.040443 176.0
77.058952 148.0
77.084511 140.0
77.127106 140.0
77.19529 148.0
77.211029 176.0
77.245834 152.0
77.352753 188.0
77.399185 200.0
77.432526 136.0
77.491104 140.0
77.508629 160.0
77.529701 144.0
77.563034 172.0
77.587502 188.0
77.607094 204.0
77.638641 144.0
77.741852 264.0
77.763031 116.0
77.824356 140.0
77.86541 148.0
77.953415 364.0
77.968193 172.0
78.003937 380.0
78.072121 160.0
78.1194 168.0
78.186478 160.0
78.226959 196.0
78.297668 224.0
78.330574 104.0
78.353729 132.0
78.37291 152.0
78.399567 304.0
78.427704 116.0
78.444839 140.0
78.473602 176.0
78.510635 148.0
78.549438 172.0
78.609421 228.0
78.621773 140.0
78.695915 224.0
78.738297 140.0
78.765884 316.0
78.868477 188.0
79.004486 168.0
79.081291 164.0
79.168045 172.0
79.193924 176.0
79.219505 148.0
79.259544 196.0
79.307899 132.0
79.388077 320.0
79.492455 172.0
79.512749 144.0
79.58831 152.0
79.703766 164.0
79.728287 100.0
79.763443 152.0
79.777657 208.0
79.818413 256.0
79.833534 152.0
79.922516 172.0
79.968445 332.0
80.011467 180.0
80.041328 124.0
80.137917 156.0
80.168213 144.0
80.201088 152.0
80.262779 156.0
80.27874 196.0
80.326897 144.0
80.415413 184.0
80.51339 164.0
80.55896 148.0
80.600052 168.0
80.628647 204.0
80.644234 200.0
80.766312 180.0
80.794235 216.0
80.812828 168.0
80.839325 124.0
80.880836 144.0
80.904106 152.0
80.931664 152.0
80.950653 164.0
80.984039 148.0
80.9981 336.0
81.062286 152.0
81.169273 156.0
81.233841 152.0
81.265442 260.0
81.342438 136.0
81.361259 140.0
81.376846 216.0
81.419914 120.0
81.438469 188.0
81.475578 128.0
81.492363 188.0
81.538559 372.0
81.57769 168.0
81.843102 160.0
81.893524 148.0
81.924149 156.0
81.947571 176.0
81.990822 224.0
82.0485 196.0
82.069221 284.0
82.104897 188.0
82.167534 164.0
82.182648 200.0
82.246262 140.0
82.339012 200.0
82.354874 164.0
82.387207 120.0
82.438904 164.0
82.472115 96.0
82.499176 176.0
82.527122 124.0
82.655273 144.0
82.661758 136.0
82.729187 128.0
82.792717 124.0
82.808685 156.0
82.839592 160.0
82.860054 176.0
82.913376 144.0
82.953773 148.0
82.99913 212.0
83.050316 144.0
83.091171 200.0
83.124474 184.0
83.144386 208.0
83.185822 148.0
83.252808 176.0
83.311714 140.0
83.346397 132.0
83.363289 172.0
83.529854 168.0
83.542587 164.0
83.653595 160.0
83.671799 164.0
83.808098 96.0
83.855782 172.0
83.886772 164.0
83.92141 168.0
83.95752 184.0
83.983414 204.0
84.028587 152.0
84.067123 176.0
84.100189 148.0
84.175926 140.0
84.226181 168.0
84.283333 320.0
84.323967 220.0
84.350067 304.0
84.379173 144.0
84.432655 132.0
84.547966 180.0
84.582741 140.0
84.615196 176.0
84.658508 168.0
84.692612 360.0
84.710075 276.0
84.769516 180.0
84.822266 100.0
84.845947 336.0
84.866707 144.0
84.889015 120.0
84.916222 272.0
84.951073 196.0
84.973907 248.0
85.024467 156.0
85.053833 148.0
85.092384 152.0
85.118889 220.0
85.14196 140.0
85.19339 152.0
85.217278 172.0
85.254875 208.0
85.304123 156.0
85.33123 152.0
85.375404 168.0
85.42878 184.0
85.472855 144.0
85.49678 156.0
85.548317 160.0
85.568565 176.0
85.581451 164.0
85.601707 144.0
85.647598 140.0
85.668068 144.0
85.691963 260.0
85.774895 168.0
85.83065 148.0
85.860474 176.0
85.896599 148.0
85.940872 140.0
85.999931 140.0
86.075211 144.0
86.124786 156.0
86.181648 160.0
86.239037 176.0
86.302902 148.0
86.384277 240.0
86.419426 172.0
86.444603 216.0
86.582405 176.0
86.639748 268.0
86.68792 152.0
86.717575 208.0
86.845848 152.0
86.893738 200.0
86.919044 308.0
86.986382 156.0
87.012619 144.0
87.063942 196.0
87.112923 224.0
87.128716 284.0
87.203064 188.0
87.228012 188.0
87.258286 252.0
87.292397 140.0
87.417038 196.0
87.453011 104.0
87.593369 176.0
87.623581 176.0
87.637451 196.0
87.682663 136.0
87.728409 164.0
87.762329 164.0
87.808952 160.0
87.825737 280.0
87.904091 144.0
87.958046 128.0
88.018349 96.0
88.122559 140.0
88.138252 132.0
88.180489 160.0
88.195442 332.0
88.208527 168.0
88.235779 104.0
88.261902 204.0
88.27652 208.0
88.312683 148.0
88.41053 160.0
88.50412 148.0
88.570274 136.0
88.658676 156.0
88.737442 160.0
88.806847 256.0
88.850861 144.0
88.904335 224.0
88.919678 196.0
88.972511 176.0
89.067245 180.0
89.089287 184.0
89.19828 148.0
89.237755 148.0
89.262199 148.0
89.284081 120.0
89.325989 140.0
89.397644 192.0
89.439049 180.0
89.459129 144.0
89.606201 180.0
89.689568 200.0
89.719734 196.0
89.755554 164.0
89.804512 104.0
89.863976 184.0
89.923019 100.0
90.040504 152.0
90.152672 252.0
90.170868 272.0
90.271065 156.0
90.309174 188.0
90.358353 164.0
90.400627 220.0
90.456841 148.0
90.496239 160.0
90.520851 140.0
90.551949 160.0
90.638031 140.0
90.657249 228.0
90.763405 184.0
90.836517 168.0
90.853683 96.0
90.895111 108.0
90.975899 172.0
90.996941 144.0
91.055969 456.0
91.074646 160.0
91.114532 192.0
91.138382 188.0
91.219589 128.0
91.227013 128.0
91.338852 156.0
91.3731 176.0
91.401634 184.0
91.432083 300.0
91.449944 212.0
91.493797 180.0
91.556686 240.0
91.583862 128.0
91.693001 140.0
91.75209 144.0
91.780029 164.0
91.847443 188.0
91.866516 456.0
91.886681 260.0
91.965744 144.0
91.992317 208.0
92.061203 220.0
92.128891 112.0
92.17009 164.0
92.190453 140.0
92.290504 156.0
92.350853 180.0
92.372162 144.0
92.444664 136.0
92.45945 128.0
92.477982 248.0
92.663353 140.0
92.746552 356.0
92.811378 216.0
92.838768 128.0
92.960266 148.0
92.997406 168.0
93.055878 200.0
93.17984 148.0
93.26487 160.0
93.284775 128.0
93.303368 116.0
93.352829 152.0
93.433983 168.0
93.477478 176.0
93.548767 196.0
93.631653 136.0
93.69352 184.0
93.745544 144.0
93.762169 172.0
93.823799 164.0
93.898148 180.0
93.942207 176.0
93.957642 156.0
93.980789 340.0
94.014908 200.0
94.032898 148.0
94.066277 4864.0
94.124718 220.0
94.145111 188.0
94.171906 240.0
94.189293 204.0
94.240807 336.0
94.272369 176.0
94.288727 208.0
94.350662 160.0
94.413498 140.0
94.427032 164.0
94.459686 100.0
94.501106 192.0
94.523758 208.0
94.543114 148.0
94.579887 196.0
94.652206 192.0
94.690247 152.0
94.705742 144.0
94.742546 176.0
94.756111 200.0
94.826515 156.0
94.878906 352.0
94.910202 136.0
94.956299 220.0
95.010086 164.0
95.045006 256.0
95.067596 252.0
95.097404 188.0
95.118004 196.0
95.282036 152.0
95.334343 160.0
95.371452 132.0
95.393044 160.0
95.415985 172.0
95.440155 132.0
95.466537 148.0
95.539726 172.0
95.649429 144.0
95.706482 104.0
95.795471 168.0
95.818855 148.0
95.887505 244.0
95.924408 388.0
95.941246 172.0
95.955399 196.0
95.988968 156.0
96.015793 232.0
96.030846 124.0
96.043167 172.0
96.082092 65508.0
96.153168 160.0
96.184158 196.0
96.225426 320.0
96.271027 176.0
96.297501 140.0
96.348885 216.0
96.404106 160.0
96.442558 176.0
96.495224 288.0
96.529335 196.0
96.570831 164.0
96.617752 192.0
96.636696 432.0
96.659805 176.0
96.684792 248.0
96.710144 160.0
96.724983 144.0
96.755043 144.0
96.807762 184.0
96.831406 136.0
96.84623 224.0
96.932587 176.0
97.011879 3532.0
97.087006 4636.0
97.154755 200.0
97.171799 228.0
97.187897 120.0
97.288078 176.0
97.339661 176.0
97.376625 232.0
97.413269 168.0
97.591217 176.0
97.607399 164.0
97.632843 140.0
97.653511 236.0
97.679573 148.0
97.73101 208.0
97.822792 180.0
97.85183 140.0
97.879089 104.0
97.900459 160.0
97.927528 172.0
97.942413 140.0
97.980965 176.0
98.010567 276.0
98.027763 328.0
98.097076 2708.0
98.132454 104.0
98.185623 188.0
98.244873 120.0
98.274765 176.0
98.476944 156.0
98.502617 296.0
98.640945 156.0
98.662689 168.0
98.684052 164.0
98.750015 184.0
98.839203 208.0
98.860481 192.0
98.915901 168.0
98.980865 172.0
99.024437 108.0
99.09832 316.0
99.154861 148.0
99.234634 144.0
99.342438 148.0
99.427277 144.0
99.462997 164.0
99.478882 176.0
99.494698 116.0
99.527054 136.0
99.574188 160.0
99.641731 172.0
99.678619 144.0
99.789757 168.0
99.906509 172.0
99.922058 208.0
100.05233 192.0
100.072159 260.0
100.103188 148.0
100.145012 144.0
100.213654 96.0
100.248436 136.0
100.284485 144.0
100.33033 160.0
100.365829 184.0
100.392235 180.0
100.422943 176.0
100.479904 156.0
100.501854 156.0
100.693497 156.0
100.722397 196.0
100.776886 188.0
100.793381 196.0
100.815979 156.0
100.838593 160.0
100.863327 260.0
100.950668 176.0
100.983299 180.0
101.011307 268.0
101.077324 152.0
101.273521 164.0
101.300774 132.0
101.3666 132.0
101.391731 196.0
101.457626 224.0
101.522041 168.0
101.546104 208.0
101.612968 132.0
101.662109 180.0
101.682533 172.0
101.756805 160.0
101.895332 140.0
101.955673 148.0
102.015419 160.0
102.052383 144.0
102.096397 156.0
102.134613 172.0
102.190941 164.0
102.221123 144.0
102.25666 208.0
102.274628 164.0
102.418938 156.0
102.513603 164.0
102.784508 164.0
102.817635 180.0
102.838684 164.0
102.86956 160.0
102.90847 168.0
102.936897 152.0
102.979622 204.0
103.055901 444.0
103.077133 120.0
103.128662 184.0
103.272224 188.0
103.312675 232.0
103.344711 168.0
103.432854 176.0
103.466484 148.0
103.563499 128.0
103.721733 144.0
103.772224 296.0
103.790665 200.0
103.830322 108.0
103.883957 152.0
103.94912 104.0
104.060524 148.0
104.093819 220.0
104.125504 188.0
104.146378 188.0
104.176285 148.0
104.202576 136.0
104.224617 180.0
104.240364 156.0
104.262222 136.0
104.321266 232.0
104.407997 168.0
104.535492 172.0
104.632866 172.0
104.702446 164.0
104.786613 164.0
104.866089 176.0
104.986084 140.0
104.999886 320.0
105.021042 152.0
105.071014 576.0
105.161148 96.0
105.19368 152.0
105.208778 140.0
105.255737 160.0
105.357521 168.0
105.409531 124.0
105.547943 196.0
105.578049 144.0
105.672707 160.0
105.728951 148.0
105.775955 240.0
105.823204 128.0
105.863258 180.0
105.955246 160.0
105.988998 152.0
106.02137 104.0
106.074516 260.0
106.139671 192.0
106.22731 180.0
106.257355 160.0
106.297661 208.0
106.320236 204.0
106.358749 136.0
106.483032 124.0
106.508698 192.0
106.552261 164.0
106.615501 240.0
106.701836 160.0
106.810158 160.0
106.825691 148.0
106.90696 128.0
106.924454 240.0
107.03569 120.0
107.115944 232.0
107.143661 152.0
107.17569 184.0
107.209869 120.0
107.244766 156.0
107.299522 180.0
107.467636 216.0
107.593643 180.0
107.648056 144.0
107.669426 104.0
107.805351 140.0
108.06353 164.0
108.082779 384.0
108.14978 160.0
108.195045 132.0
108.233253 180.0
108.251892 160.0
108.323212 184.0
108.492241 152.0
108.591713 132.0
108.771477 184.0
108.812424 96.0
108.853264 168.0
108.905182 192.0
108.975227 168.0
109.012093 408.0
109.039619 204.0
109.112984 140.0
109.137939 164.0
109.15873 148.0
109.203911 160.0
109.227364 176.0
109.244003 144.0
109.3591 192.0
109.404243 248.0
109.441292 184.0
109.546669 164.0
109.675049 468.0
109.70002 204.0
109.787071 324.0
109.808487 140.0
109.858551 148.0
109.884705 164.0
109.944099 180.0
109.98584 168.0
110.016823 400.0
110.072548 132.0
110.189964 172.0
110.222923 160.0
110.247231 132.0
110.274712 240.0
110.317879 164.0
110.365639 156.0
110.430176 172.0
110.493958 164.0
110.552238 140.0
110.598282 164.0
110.681534 120.0
110.734901 160.0
110.887321 188.0
111.026497 1688.0
111.065544 168.0
111.092812 156.0
111.12365 252.0
111.240677 156.0
111.267845 188.0
111.346794 152.0
111.373924 148.0
111.425568 208.0
111.452988 192.0
111.523911 200.0
111.670464 196.0
111.700775 184.0
111.75238 204.0
111.816605 144.0
111.8451 172.0
111.93364 148.0
111.97728 216.0
112.028816 316.0
112.052277 168.0
112.083702 152.0
112.12944 156.0
112.155853 188.0
112.185059 196.0
112.228516 236.0
112.255463 180.0
112.285454 196.0
112.3433 104.0
112.427559 168.0
112.45002 144.0
112.501915 164.0
112.563095 164.0
112.583031 208.0
112.616821 164.0
112.681297 168.0
112.707664 164.0
112.72245 188.0
112.739357 196.0
112.804878 152.0
112.874649 300.0
112.910599 276.0
112.938095 152.0
112.951889 160.0
113.020882 300.0
113.047974 136.0
113.062485 184.0
113.12104 228.0
113.287888 164.0
113.35305 224.0
113.374237 188.0
113.445488 176.0
113.525024 160.0
113.570404 176.0
113.612694 200.0
113.654152 180.0
113.832458 164.0
113.947418 168.0
114.286613 176.0
114.339256 172.0
114.519539 168.0
114.634438 152.0
114.691048 184.0
114.705414 180.0
114.732483 176.0
114.839104 188.0
114.861305 204.0
114.956123 216.0
114.97879 168.0
115.054733 3344.0
115.095192 192.0
115.13121 152.0
115.224754 160.0
115.255394 288.0
115.329575 196.0
115.484695 184.0
115.578209 156.0
115.651466 272.0
115.694382 172.0
115.753792 168.0
115.811615 172.0
115.830711 140.0
115.88549 136.0
115.969299 216.0
115.98732 208.0
116.056252 152.0
116.272202 204.0
116.289001 400.0
116.349854 148.0
116.367035 152.0
116.423119 100.0
116.582245 104.0
116.665665 216.0
116.706512 156.0
116.730164 168.0
116.786079 244.0
116.80114 152.0
116.834267 240.0
116.994812 160.0
117.026306 140.0
117.069511 3356.0
117.119881 148.0
117.139091 184.0
117.154175 164.0
117.178978 148.0
117.308975 136.0
117.358917 208.0
117.52932 196.0
117.671768 136.0
117.696365 256.0
117.712921 192.0
117.792763 252.0
117.883682 168.0
117.950684 188.0
118.036934 152.0
118.073875 200.0
118.17099 184.0
118.229462 160.0
118.339859 180.0
118.382889 156.0
118.403084 216.0
118.469803 216.0
118.49147 160.0
118.545639 144.0
118.571648 196.0
118.603622 212.0
118.717621 208.0
118.760353 112.0
118.89045 160.0
119.083618 232.0
119.174026 108.0
119.203568 128.0
119.250969 192.0
119.275696 288.0
119.295769 312.0
119.366318 144.0
119.425949 160.0
119.480995 184.0
119.527016 372.0
119.753815 108.0
119.79184 176.0
119.820953 120.0
119.852661 140.0
119.943138 152.0
119.976257 124.0
120.001015 284.0
120.025986 188.0
120.076988 196.0
120.211403 280.0
120.265961 180.0
120.366013 164.0
120.622154 240.0
120.784714 156.0
120.823196 264.0
120.840698 140.0
120.888947 192.0
120.93042 140.0
120.956688 192.0
120.977715 148.0
121.009224 320.0
121.032036 192.0
121.067207 208.0
121.129677 144.0
121.160347 192.0
121.182251 164.0
121.207436 236.0
121.252563 280.0
121.284431 148.0
121.317139 196.0
121.351082 144.0
121.44751 148.0
121.623047 180.0
121.669144 172.0
121.691101 172.0
121.706467 200.0
121.860222 140.0
121.875603 232.0
121.893181 200.0
121.953247 180.0
121.992081 164.0
122.021324 160.0
122.048256 112.0
122.075737 188.0
122.177933 188.0
122.217552 124.0
122.319847 176.0
122.336441 116.0
122.355019 160.0
122.454163 160.0
122.560104 176.0
122.692146 156.0
122.72522 180.0
122.749474 248.0
122.863029 140.0
122.924088 152.0
122.990929 180.0
123.026367 4608.0
123.073105 144.0
123.118423 136.0
123.166107 180.0
123.268227 228.0
123.366905 168.0
123.422958 168.0
123.458633 288.0
123.577187 176.0
123.599915 140.0
123.628685 264.0
123.75486 436.0
123.886803 160.0
124.030807 696.0
124.113029 148.0
124.15464 152.0
124.174843 168.0
124.226913 200.0
124.25132 248.0
124.301247 144.0
124.370003 108.0
124.422211 160.0
124.513252 212.0
124.533241 140.0
124.55101 156.0
124.611557 172.0
124.688766 160.0
124.799911 180.0
124.90889 152.0
124.974487 164.0
125.023537 264.0
125.04306 916.0
125.104713 272.0
125.129204 156.0
125.147011 148.0
125.299385 224.0
125.320534 124.0
125.43042 452.0
125.463524 216.0
125.514877 172.0
125.543266 160.0
125.650719 180.0
125.667145 364.0
125.701515 228.0
125.937607 128.0
126.039322 300.0
126.083916 120.0
126.108498 164.0
126.41349 256.0
126.430557 164.0
126.511139 180.0
126.531288 160.0
126.567108 248.0
126.587967 176.0
126.7239 140.0
126.841011 124.0
126.921143 224.0
126.96312 128.0
127.000412 348.0
127.019821 140.0
127.056717 356.0
127.167915 156.0
127.183624 140.0
127.23526 144.0
127.303551 164.0
127.380173 348.0
127.493568 148.0
127.671112 152.0
127.812889 224.0
127.984131 160.0
128.026169 236.0
128.063065 3832.0
128.215988 192.0
128.352432 196.0
128.459824 284.0
128.489426 152.0
128.526779 384.0
128.786469 136.0
128.87265 160.0
129.027588 132.0
129.069626 4480.0
129.116791 164.0
129.232574 148.0
129.257904 148.0
129.283966 152.0
129.324478 160.0
129.427979 132.0
129.445709 172.0
129.515381 212.0
129.614822 156.0
129.636017 124.0
129.656723 204.0
130.011658 160.0
130.073761 944.0
130.210846 260.0
130.291199 112.0
130.349335 252.0
130.414612 172.0
130.442627 160.0
130.507675 328.0
130.728104 140.0
130.819901 128.0
130.838379 216.0
130.918686 140.0
130.977951 172.0
130.998642 184.0
131.043427 152.0
131.0849 1560.0
131.126053 144.0
131.224075 156.0
131.309357 188.0
131.34848 152.0
131.378876 160.0
131.460892 132.0
131.53009 196.0
131.58786 184.0
131.638535 132.0
131.95697 148.0
132.0811 184.0
132.138016 124.0
132.158249 172.0
132.179962 180.0
132.244659 184.0
132.324341 204.0
132.373413 236.0
132.454086 408.0
132.492508 156.0
132.632294 160.0
132.668472 184.0
132.717117 140.0
132.753204 164.0
132.799683 184.0
132.826218 160.0
132.8685 172.0
132.978577 128.0
133.024551 168.0
133.187317 172.0
133.239441 132.0
133.266586 216.0
133.293274 200.0
133.310349 132.0
133.365067 216.0
133.403595 188.0
133.466324 112.0
133.609177 152.0
133.653687 156.0
133.702606 184.0
133.721024 180.0
133.736954 152.0
133.761307 140.0
133.868912 192.0
133.886719 152.0
133.962784 140.0
133.981216 176.0
134.019012 292.0
134.066589 160.0
134.155624 152.0
134.248596 156.0
134.327011 152.0
134.363922 148.0
134.408554 152.0
134.435455 112.0
134.465454 180.0
134.573715 168.0
134.742554 176.0
134.815399 212.0
134.902008 176.0
135.02597 1060.0
135.117096 148.0
135.281464 148.0
135.30687 152.0
135.323074 168.0
135.360123 144.0
135.412186 224.0
135.431915 184.0
135.540329 124.0
135.557983 320.0
135.756134 168.0
135.792328 152.0
135.955536 156.0
135.986908 188.0
136.005997 144.0
136.03241 524.0
136.064011 180.0
136.098755 140.0
136.155548 148.0
136.183411 164.0
136.348373 224.0
136.38324 120.0
136.459961 236.0
136.520416 148.0
136.575989 116.0
136.625076 172.0
136.65802 200.0
136.767029 140.0
136.855499 184.0
136.891693 124.0
136.985916 144.0
137.017273 200.0
137.041855 3720.0
137.106476 128.0
137.153687 196.0
137.177002 156.0
137.200317 140.0
137.216629 156.0
137.291245 168.0
137.344009 148.0
137.359909 216.0
137.44754 156.0
137.506805 204.0
137.566284 128.0
137.621567 108.0
137.681564 176.0
137.709381 200.0
137.87146 228.0
137.912277 176.0
137.959869 180.0
137.978577 208.0
138.008133 168.0
138.043991 684.0
138.075378 208.0
138.111038 144.0
138.155472 160.0
138.230347 148.0
138.293274 108.0
138.32373 148.0
138.39888 192.0
138.427734 300.0
138.44577 196.0
138.539413 152.0
138.56752 204.0
138.58432 208.0
138.621414 168.0
138.657761 140.0
138.740463 152.0
138.797638 136.0
138.909912 172.0
138.952026 188.0
139.007599 128.0
139.040695 216.0
139.081085 160.0
139.256622 196.0
139.286499 192.0
139.309509 116.0
139.395142 128.0
139.492874 264.0
139.550934 356.0
139.578522 164.0
139.666168 176.0
139.736465 168.0
139.778595 132.0
139.803253 164.0
139.834396 120.0
139.890549 260.0
139.920319 168.0
139.957993 192.0
140.231262 180.0
140.480331 172.0
140.514236 196.0
140.599182 216.0
140.618835 148.0
140.644836 268.0
140.675934 124.0
140.702026 196.0
140.78569 436.0
140.80751 164.0
140.857071 108.0
140.906601 212.0
140.943954 148.0
140.966095 196.0
141.005402 220.0
141.070206 5140.0
141.20163 264.0
141.246109 264.0
141.311676 216.0
141.343567 256.0
141.407623 184.0
141.442245 104.0
141.471375 216.0
141.50444 112.0
141.603973 140.0
141.648987 276.0
141.734268 152.0
141.79718 316.0
141.926605 180.0
141.947617 152.0
141.985168 220.0
142.030624 160.0
142.075378 1472.0
142.182205 112.0
142.254471 200.0
142.305908 208.0
142.396133 152.0
142.53772 188.0
142.576706 192.0
142.614792 144.0
142.659897 148.0
142.696167 216.0
142.712448 216.0
142.733597 168.0
142.777588 200.0
142.835861 144.0
142.89772 192.0
142.94368 140.0
143.021469 216.0
143.038132 140.0
143.084854 7232.0
143.138763 120.0
143.166061 156.0
143.310608 116.0
143.375595 148.0
143.473114 140.0
143.524139 176.0
143.545792 144.0
143.59462 224.0
143.648163 216.0
143.685822 208.0
143.717346 168.0
143.764221 204.0
143.799942 288.0
143.844131 156.0
143.925003 324.0
144.001419 184.0
144.026764 144.0
144.049393 148.0
144.090134 568.0
144.116089 140.0
144.14183 196.0
144.222763 176.0
144.351349 132.0
144.424484 204.0
144.481079 188.0
144.514343 184.0
144.535919 144.0
144.608719 160.0
144.670944 148.0
144.693817 188.0
144.797852 196.0
144.819412 148.0
144.838348 172.0
144.872116 152.0
144.975143 140.0
144.996704 188.0
145.046509 248.0
145.09259 392.0
145.144058 120.0
145.223038 140.0
145.248474 176.0
145.355438 184.0
145.560471 140.0
145.613297 184.0
145.685364 164.0
145.723801 212.0
145.844742 148.0
145.990097 168.0
146.076706 136.0
146.095917 236.0
146.223984 140.0
146.259277 180.0
146.303421 152.0
146.447891 180.0
146.474396 140.0
146.508118 144.0
146.539429 164.0
146.787155 160.0
146.893646 188.0
146.94931 140.0
147.027359 632.0
147.190689 148.0
147.207581 160.0
147.320679 180.0
147.362823 196.0
147.401489 148.0
147.427414 172.0
147.528778 184.0
147.611145 160.0
147.634567 128.0
147.684708 172.0
147.702072 228.0
147.720078 200.0
147.827499 116.0
148.00798 220.0
148.027298 352.0
148.214218 144.0
148.465988 272.0
148.508087 232.0
148.555725 116.0
148.584839 152.0
148.607651 232.0
148.698883 148.0
148.808182 156.0
148.998245 128.0
149.020477 196.0
149.044174 1140.0
149.111771 184.0
149.279572 160.0
149.444916 144.0
149.488098 156.0
149.580322 176.0
149.724213 120.0
149.76384 152.0
149.824463 112.0
149.864578 176.0
149.937988 292.0
150.010422 360.0
150.041321 320.0
150.058411 268.0
150.101593 156.0
150.180466 236.0
150.302612 208.0
150.367432 168.0
150.394791 208.0
150.504929 144.0
150.536957 184.0
150.649307 188.0
150.798355 144.0
150.820358 140.0
150.884216 132.0
150.914337 116.0
150.989059 308.0
151.027252 156.0
151.054489 96.0
151.192123 180.0
151.209244 180.0
151.233719 184.0
151.302353 116.0
151.36348 152.0
151.4198 152.0
151.480972 144.0
151.569168 144.0
151.598648 312.0
151.681976 216.0
151.728943 176.0
151.807465 172.0
151.835815 140.0
151.876862 168.0
151.899292 288.0
152.063919 604.0
152.100616 192.0
152.145615 220.0
152.165253 156.0
152.226501 204.0
152.307693 140.0
152.34201 148.0
152.351151 144.0
152.401581 168.0
152.527496 132.0
152.575546 188.0
152.609436 112.0
152.671448 148.0
152.71817 152.0
152.806732 180.0
152.865784 148.0
152.907623 236.0
152.92485 140.0
152.94371 412.0
153.037659 124.0
153.069351 1608.0
153.097183 144.0
153.129211 152.0
153.198181 228.0
153.232407 156.0
153.323837 176.0
153.343552 192.0
153.407639 160.0
153.466812 156.0
153.495911 100.0
153.521057 204.0
153.576996 276.0
153.636688 100.0
153.762833 180.0
153.807068 156.0
153.993851 148.0
154.03775 176.0
154.078979 1960.0
154.12001 232.0
154.149811 200.0
154.175278 204.0
154.279678 112.0
154.380203 152.0
154.447235 184.0
154.575882 140.0
154.597366 236.0
154.655075 188.0
154.67984 384.0
154.712021 204.0
154.746445 132.0
154.797791 100.0
154.811722 324.0
154.928802 216.0
155.004929 152.0
155.055588 584.0
155.085236 8472.0
155.211441 296.0
155.286331 140.0
155.36908 200.0
155.455032 388.0
155.571625 144.0
155.649902 200.0
155.684174 104.0
155.726898 148.0
155.762848 176.0
155.83551 156.0
155.875519 152.0
156.00528 192.0
156.029373 176.0
156.046768 168.0
156.09256 772.0
156.179276 140.0
156.250717 172.0
156.267426 140.0
156.293015 148.0
156.341766 216.0
156.433502 124.0
156.537033 132.0
156.6017 184.0
156.722382 96.0
156.75119 148.0
156.770752 164.0
156.915695 204.0
156.96994 164.0
157.010086 136.0
157.10553 204.0
157.130173 148.0
157.148972 120.0
157.227493 144.0
157.266327 96.0
157.294891 176.0
157.334824 196.0
157.361771 152.0
157.425507 164.0
157.451508 176.0
157.477097 164.0
157.53334 172.0
157.587936 128.0
157.674728 104.0
157.79953 236.0
157.845749 176.0
157.941818 156.0
157.959656 144.0
157.987305 144.0
158.014618 156.0
158.096436 280.0
158.247375 148.0
158.279068 164.0
158.405151 272.0
158.431778 152.0
158.490341 144.0
158.581024 128.0
158.671768 120.0
158.698624 120.0
158.826279 172.0
158.848846 180.0
158.904984 288.0
158.962738 376.0
158.989365 144.0
159.037704 140.0
159.106125 292.0
159.217819 156.0
159.310181 196.0
159.370636 196.0
159.431351 148.0
159.453186 216.0
159.494186 160.0
159.526871 160.0
159.557495 156.0
159.625992 152.0
159.644348 164.0
159.679657 168.0
159.810974 124.0
159.845108 128.0
159.878021 164.0
159.998764 132.0
160.034958 188.0
160.103058 184.0
160.142548 124.0
160.208847 140.0
160.231522 176.0
160.419495 136.0
160.482147 104.0
160.536514 160.0
160.566345 324.0
160.650024 176.0
160.693771 140.0
160.74678 184.0
160.851364 152.0
160.930206 168.0
160.998978 144.0
161.040588 1584.0
161.069061 164.0
161.091797 168.0
161.149994 124.0
161.19458 176.0
161.25856 196.0
161.288895 224.0
161.559479 172.0
161.587296 244.0
161.605011 220.0
161.635696 128.0
161.72142 172.0
161.810104 120.0
161.853592 344.0
161.904831 144.0
161.946381 132.0
161.984131 156.0
162.004868 124.0
162.050995 1528.0
162.123566 168.0
162.16835 184.0
162.394638 188.0
162.555222 152.0
162.710052 184.0
162.731583 180.0
162.815918 144.0
162.94371 164.0
162.964035 252.0
162.983887 152.0
163.051666 648.0
163.113968 144.0
163.170425 204.0
163.214828 132.0
163.243637 164.0
163.310837 228.0
163.347916 248.0
163.549698 152.0
163.603027 160.0
163.647339 208.0
163.712372 208.0
163.931534 144.0
164.053726 192.0
164.151337 160.0
164.357925 184.0
164.534714 320.0
164.659317 176.0
164.744537 208.0
164.959549 176.0
164.987671 188.0
165.018341 176.0
165.070068 8040.0
165.109482 376.0
165.254974 124.0
165.308563 140.0
165.350891 204.0
165.452454 196.0
165.571075 164.0
165.641541 172.0
165.698761 188.0
165.715469 196.0
165.738007 188.0
165.799088 160.0
165.824707 192.0
165.909302 224.0
165.955444 168.0
165.973389 148.0
166.04007 156.0
166.077652 5516.0
166.29892 144.0
166.610794 128.0
166.739761 180.0
166.843781 204.0
166.974915 148.0
167.029999 184.0
167.05455 192.0
167.084366 4084.0
167.222153 124.0
167.258011 176.0
167.293991 156.0
167.349304 172.0
167.375809 164.0
167.421234 128.0
167.446274 360.0
167.496902 120.0
167.623657 148.0
167.707642 280.0
167.814407 152.0
167.839523 108.0
167.987381 172.0
168.092148 944.0
168.319214 192.0
168.503525 228.0
168.522583 132.0
168.555191 172.0
168.632721 180.0
168.654694 212.0
168.706512 148.0
168.811111 188.0
168.828964 164.0
168.914566 140.0
168.963715 148.0
169.007706 184.0
169.063873 364.0
169.101349 2864.0
169.223175 256.0
169.300217 168.0
169.36496 148.0
169.420654 144.0
169.492752 196.0
169.561874 156.0
169.580475 180.0
169.679337 140.0
169.752579 168.0
169.784836 144.0
169.919022 176.0
170.099365 840.0
170.189911 124.0
170.213028 140.0
170.374054 328.0
170.413025 140.0
170.534546 136.0
170.575623 152.0
170.602676 132.0
170.626678 204.0
170.940872 168.0
170.972717 208.0
171.026642 924.0
171.071014 212.0
171.098755 184.0
171.125687 176.0
171.155624 156.0
171.203796 188.0
171.233078 164.0
171.258499 160.0
171.339249 148.0
171.488464 168.0
171.631165 160.0
171.70517 180.0
171.842438 180.0
171.916229 164.0
171.999008 308.0
172.037125 160.0
172.117249 124.0
172.268219 160.0
172.474411 148.0
172.518845 184.0
172.547607 152.0
172.709747 192.0
172.77594 144.0
172.903351 224.0
172.942612 276.0
172.987503 208.0
173.039825 472.0
173.111237 264.0
173.129883 260.0
173.248886 192.0
173.258957 184.0
173.315826 148.0
173.347687 192.0
173.387756 240.0
173.469452 124.0
173.520325 196.0
173.561768 176.0
173.636932 180.0
173.698914 164.0
173.859924 164.0
173.959671 168.0
174.009552 192.0
174.050781 140.0
174.119492 120.0
174.196854 100.0
174.242828 168.0
174.316864 160.0
174.360184 108.0
174.441711 168.0
174.504532 264.0
174.606613 204.0
174.772278 140.0
174.85817 168.0
174.880661 128.0
175.031158 140.0
175.058777 624.0
175.187759 280.0
175.232544 196.0
175.27803 120.0
175.3564 160.0
175.424927 160.0
175.450409 128.0
175.588409 140.0
175.623215 204.0
175.670166 164.0
175.700119 220.0
175.720306 208.0
175.773071 196.0
175.823212 312.0
175.858582 220.0
175.931686 168.0
175.973679 168.0
176.028854 160.0
176.055664 344.0
176.147537 144.0
176.215851 104.0
176.251007 140.0
176.367294 212.0
176.43602 208.0
176.525925 140.0
176.547073 208.0
176.610367 120.0
176.779007 124.0
176.912216 164.0
176.938034 128.0
177.063416 120.0
177.203537 168.0
177.324966 112.0
177.392685 332.0
177.413651 200.0
177.473892 156.0
177.536331 132.0
177.598526 156.0
177.626343 188.0
177.652771 148.0
177.728348 184.0
177.887756 156.0
177.992996 232.0
178.016785 156.0
178.078003 3664.0
178.123703 200.0
178.173874 168.0
178.222687 108.0
178.306793 144.0
178.383469 192.0
178.716812 148.0
178.892365 356.0
178.930344 208.0
178.948517 184.0
178.992966 136.0
179.031845 172.0
179.084915 3464.0
179.179321 188.0
179.24707 252.0
179.293259 152.0
179.347031 212.0
179.369431 160.0
179.416779 132.0
179.511597 124.0
179.543686 192.0
179.585419 168.0
179.641434 308.0
179.685104 124.0
179.715729 160.0
179.79776 164.0
179.854904 152.0
180.015091 184.0
180.04982 172.0
180.091644 1584.0
180.204605 156.0
180.31163 252.0
180.357071 172.0
180.611084 152.0
180.751953 196.0
180.782318 220.0
180.924805 172.0
181.015213 144.0
181.054428 180.0
181.09903 1792.0
181.1754 184.0
181.248444 144.0
181.302643 164.0
181.391495 300.0
181.432388 160.0
181.481995 140.0
181.583954 164.0
181.647736 264.0
181.765854 152.0
181.801315 284.0
181.873138 160.0
181.940247 164.0
182.005249 188.0
182.10173 384.0
182.138962 192.0
182.238358 228.0
182.32489 160.0
182.359909 156.0
182.499084 152.0
182.61615 232.0
182.676575 148.0
182.765366 148.0
182.971024 204.0
183.028534 140.0
183.101288 428.0
183.210983 148.0
183.290436 236.0
183.311996 180.0
183.371277 212.0
183.475464 240.0
183.546509 188.0
183.601242 148.0
183.647385 148.0
183.735306 204.0
183.756897 144.0
183.810043 124.0
183.854034 152.0
183.900986 184.0
184.035233 3412.0
184.111374 1608.0
184.218948 212.0
184.307007 140.0
184.348236 224.0
184.370224 148.0
184.446609 140.0
184.510132 152.0
184.569901 208.0
184.602493 152.0
184.645615 184.0
184.667252 192.0
184.714844 128.0
184.809402 264.0
184.871063 168.0
184.98819 328.0
185.042694 5792.0
185.119614 1944.0
185.156494 188.0
185.176086 328.0
185.214005 184.0
185.251923 204.0
185.41301 168.0
185.4711 184.0
185.54071 128.0
185.576126 160.0
185.612473 140.0
185.665604 116.0
185.689117 108.0
185.716339 208.0
185.767838 204.0
185.795395 168.0
185.85495 152.0
185.886734 212.0
185.943527 268.0
185.965073 236.0
186.046982 768.0
186.125748 336.0
186.176849 168.0
186.223236 144.0
186.327774 176.0
186.350983 112.0
186.439651 152.0
186.519882 244.0
186.630646 152.0
186.652405 144.0
186.793823 140.0
186.946182 204.0
186.970673 268.0
186.995178 172.0
187.041962 332.0
187.055984 380.0
187.124786 240.0
187.217819 144.0
187.249924 148.0
187.316681 172.0
187.37709 160.0
187.481125 340.0
187.611115 120.0
187.636337 100.0
187.742676 128.0
187.777115 148.0
187.799896 124.0
187.835571 100.0
187.93689 140.0
187.976273 256.0
188.061829 320.0
188.251495 112.0
188.322983 144.0
188.40834 180.0
188.72197 148.0
188.765717 284.0
188.85614 128.0
188.938034 156.0
189.068802 964.0
189.121384 204.0
189.293854 148.0
189.315765 168.0
189.400848 120.0
189.431259 168.0
189.486969 112.0
189.541473 132.0
189.616821 144.0
189.673767 120.0
189.715805 152.0
189.765152 224.0
189.791336 312.0
189.837311 164.0
189.952591 224.0
190.024063 160.0
190.077759 2300.0
190.188904 192.0
190.227509 144.0
190.401199 172.0
190.47319 124.0
190.516388 204.0
190.539352 140.0
190.566589 268.0
190.675186 228.0
190.697525 192.0
190.736053 172.0
190.760025 136.0
190.868942 156.0
190.934952 164.0
190.967941 144.0
191.013504 156.0
191.085617 9980.0
191.138016 156.0
191.244217 108.0
191.294922 212.0
191.388367 224.0
191.42688 232.0
191.523941 176.0
191.563828 112.0
191.612473 148.0
191.782242 268.0
191.813263 252.0
191.835327 264.0
191.898392 228.0
191.978699 176.0
192.013428 196.0
192.039368 184.0
192.091476 3816.0
192.150711 188.0
192.203613 164.0
192.313278 132.0
192.392578 168.0
192.500259 152.0
192.614441 140.0
192.66925 196.0
192.815201 152.0
192.874207 184.0
192.903641 204.0
192.949554 132.0
192.983826 144.0
193.062286 148.0
193.100769 2992.0
193.332352 216.0
193.469528 280.0
193.536758 152.0
193.674454 164.0
193.733841 192.0
193.861847 240.0
193.916626 108.0
193.965027 168.0
194.049789 144.0
194.107651 812.0
194.144058 156.0
194.228256 124.0
194.293854 280.0
194.435364 128.0
194.461853 220.0
194.5103 140.0
194.564285 152.0
194.783295 220.0
194.893555 168.0
194.987671 148.0
195.010437 136.0
195.060303 232.0
195.117355 220.0
195.383041 104.0
195.414886 152.0
195.439636 140.0
195.470428 148.0
195.510895 188.0
195.564758 124.0
195.612366 252.0
195.644104 144.0
195.677704 172.0
195.744736 164.0
195.808167 164.0
195.956253 132.0
196.037231 152.0
196.110291 588.0
196.173798 144.0
196.363861 100.0
196.427567 156.0
196.522415 156.0
196.593262 164.0
196.614502 188.0
196.687073 152.0
196.76796 308.0
196.821915 220.0
196.851791 148.0
196.960709 148.0
197.04213 5528.0
197.115173 288.0
197.229355 144.0
197.328995 124.0
197.375244 232.0
197.499359 136.0
197.54509 144.0
197.588348 112.0
197.65126 148.0
197.693497 172.0
197.724014 224.0
197.760406 216.0
197.945175 200.0
198.048035 2120.0
198.128983 5076.0
198.205307 160.0
198.254364 204.0
198.361053 200.0
198.401474 140.0
198.465363 120.0
198.497391 164.0
198.525253 172.0
198.550003 116.0
198.583786 184.0
198.629471 196.0
198.685135 192.0
198.794556 208.0
198.887177 168.0
198.98291 152.0
199.00621 100.0
199.058487 44632.0
199.134552 1416.0
199.18573 156.0
199.209259 148.0
199.295227 124.0
199.370819 140.0
199.481583 144.0
199.535355 152.0
199.565369 332.0
199.602463 192.0
199.646713 216.0
199.689499 124.0
199.737778 140.0
199.817337 160.0
199.890503 160.0
199.920517 180.0
199.950912 180.0
200.019958 184.0
200.061401 6412.0
200.099106 244.0
200.141754 296.0
200.163544 284.0
200.189926 152.0
200.259689 316.0
200.531067 220.0
200.553375 252.0
200.644318 308.0
200.704468 120.0
200.7854 144.0
200.849777 108.0
200.95195 248.0
201.058838 1928.0
201.113235 172.0
201.145065 116.0
201.188293 148.0
201.232193 140.0
201.267853 140.0
201.305603 188.0
201.34639 168.0
201.381271 152.0
201.46611 160.0
201.540161 176.0
201.567566 164.0
201.592499 168.0
201.677505 104.0
201.708786 160.0
201.799866 180.0
201.97261 152.0
202.002106 140.0
202.079117 1528.0
202.315094 144.0
202.350784 176.0
202.467911 192.0
202.52739 144.0
202.614441 296.0
202.703033 140.0
202.788925 184.0
202.844757 200.0
202.891357 188.0
202.941147 156.0
202.975174 192.0
203.00148 156.0
203.028473 296.0
203.085297 3892.0
203.18222 140.0
203.278687 228.0
203.372345 204.0
203.455765 172.0
203.564377 144.0
203.58812 300.0
203.619614 228.0
203.661957 200.0
203.703903 152.0
203.781281 188.0
203.838104 152.0
203.991577 140.0
204.022232 220.0
204.094025 10592.0
204.139435 232.0
204.284485 148.0
204.308487 220.0
204.360916 236.0
204.398117 116.0
204.474487 108.0
204.608917 164.0
204.74559 156.0
204.876617 144.0
204.990585 148.0
205.046402 384.0
205.100845 9060.0
205.189301 244.0
205.225632 148.0
205.384476 244.0
205.528229 176.0
205.599228 220.0
205.657104 164.0
205.695053 144.0
205.758667 208.0
205.792694 144.0
205.898743 236.0
205.94313 136.0
205.970428 156.0
206.107193 2864.0
206.16275 200.0
206.228943 132.0
206.377853 252.0
206.497955 148.0
206.535522 184.0
206.602386 244.0
206.709015 208.0
206.742569 116.0
206.776245 196.0
206.884247 188.0
206.909058 156.0
206.966537 216.0
207.016479 176.0
207.052094 344.0
207.084137 268.0
207.114883 2128.0
207.205658 248.0
207.251526 168.0
207.278595 176.0
207.4142 176.0
207.444443 116.0
207.540222 188.0
207.584152 204.0
207.640717 140.0
207.696564 144.0
207.756256 156.0
207.783539 212.0
207.900772 180.0
207.969482 148.0
208.032913 152.0
208.119049 416.0
208.159393 168.0
208.226196 176.0
208.289398 188.0
208.332474 248.0
208.410049 200.0
208.481888 156.0
208.50325 120.0
208.584702 236.0
208.614731 168.0
208.641525 148.0
208.703232 164.0
208.772247 144.0
208.829773 228.0
208.860123 288.0
208.939072 168.0
208.971542 140.0
209.041504 808.0
209.119385 184.0
209.170059 112.0
209.369232 164.0
209.445724 148.0
209.470154 104.0
209.491821 164.0
209.581131 200.0
209.618225 124.0
209.695984 136.0
209.760651 180.0
209.964523 180.0
210.048157 1904.0
210.121948 188.0
210.157806 184.0
210.240799 200.0
210.275146 300.0
210.365601 212.0
210.42717 160.0
210.595886 228.0
210.71254 120.0
210.746826 284.0
210.77861 168.0
210.820847 156.0
210.860992 200.0
210.904541 132.0
211.05806 5420.0
211.128983 236.0
211.162064 168.0
211.180634 132.0
211.382187 152.0
211.42276 160.0
211.470779 220.0
211.555374 120.0
211.640579 272.0
211.729034 96.0
211.761765 156.0
211.843063 220.0
211.891418 152.0
211.91864 160.0
211.979843 136.0
212.063583 1404.0
212.146851 444.0
212.191086 180.0
212.228653 180.0
212.309967 140.0
212.451752 132.0
212.611694 204.0
212.652328 164.0
212.696808 184.0
212.74231 140.0
212.864151 124.0
212.904907 136.0
213.073944 1436.0
213.301636 132.0
213.46286 148.0
213.580276 184.0
213.640289 168.0
213.746201 196.0
213.811966 184.0
214.049637 180.0
214.080582 304.0
214.139297 120.0
214.172989 184.0
214.575134 220.0
214.639282 152.0
214.777481 124.0
214.849289 160.0
214.870743 132.0
214.928253 296.0
215.072647 264.0
215.167099 192.0
215.225784 172.0
215.325073 160.0
215.417038 140.0
215.476974 140.0
215.502441 160.0
215.558792 184.0
215.626633 188.0
215.684082 188.0
215.737076 168.0
215.853653 156.0
215.894974 144.0
215.95932 152.0
216.093964 996.0
216.254822 188.0
216.289948 152.0
216.341827 120.0
216.486023 216.0
216.543228 208.0
216.669235 216.0
216.705811 144.0
216.748398 156.0
216.800568 176.0
216.849396 156.0
216.939285 144.0
217.100464 2088.0
217.171921 168.0
217.209229 104.0
217.249603 144.0
217.345001 332.0
217.444778 212.0
217.491745 156.0
217.521088 144.0
217.646103 172.0
217.672211 196.0
217.716644 160.0
217.784698 188.0
217.90239 124.0
217.984329 156.0
218.107071 1660.0
218.239487 144.0
218.517761 172.0
218.624878 176.0
218.68222 136.0
218.737762 152.0
218.767075 144.0
218.923553 128.0
219.116974 11172.0
219.17128 164.0
219.203766 228.0
219.277359 128.0
219.328003 160.0
219.380249 184.0
219.418579 160.0
219.451004 144.0
219.685364 164.0
219.736237 164.0
219.798035 160.0
219.962738 176.0
219.988205 144.0
220.025909 192.0
220.087738 120.0
220.124359 5168.0
220.162155 148.0
220.210831 172.0
220.237381 188.0
220.277344 156.0
220.30098 224.0
220.321655 148.0
220.37381 140.0
220.420441 232.0
220.470917 112.0
220.510773 200.0
220.543289 156.0
220.56694 160.0
220.634933 208.0
220.657471 120.0
220.708847 172.0
220.768219 156.0
220.839752 136.0
220.929993 176.0
221.040985 1052.0
221.129318 976.0
221.184296 96.0
221.297653 160.0
221.385498 140.0
221.444473 228.0
221.647369 116.0
221.78569 124.0
221.810165 156.0
221.869049 144.0
221.90004 128.0
221.942474 132.0
221.989807 108.0
222.04892 684.0
222.128281 472.0
222.285538 212.0
222.415283 140.0
222.624634 236.0
222.711334 280.0
222.751572 144.0
222.783508 160.0
222.932068 184.0
223.013672 192.0
223.057465 2288.0
223.136948 136.0
223.229248 124.0
223.363663 172.0
223.433594 144.0
223.455399 140.0
223.486816 100.0
223.550629 168.0
223.599167 128.0
223.671539 156.0
223.733765 188.0
223.797684 140.0
223.89653 204.0
223.961472 140.0
224.02359 108.0
224.065247 4108.0
224.128311 256.0
224.182816 152.0
224.213806 208.0
224.24324 200.0
224.269775 140.0
224.328522 180.0
224.35434 164.0
224.609528 184.0
224.695435 172.0
224.816116 156.0
224.855408 176.0
224.927582 196.0
224.982681 280.0
225.073166 7516.0
225.162766 120.0
225.22319 152.0
225.244095 312.0
225.276962 312.0
225.342682 172.0
225.387192 112.0
225.426819 180.0
225.54747 152.0
225.565964 276.0
225.587753 156.0
225.611923 136.0
225.6633 164.0
225.925217 180.0
225.993362 192.0
226.0755 1004.0
226.125031 180.0
226.180557 116.0
226.239899 196.0
226.320053 208.0
226.671204 160.0
226.702972 200.0
226.728134 160.0
226.779099 144.0
226.995926 148.0
227.07164 568.0
227.20491 172.0
227.349213 168.0
227.417953 144.0
227.490005 156.0
227.581818 212.0
227.710327 152.0
227.742233 152.0
227.765533 152.0
227.848877 304.0
227.898453 148.0
227.921356 204.0
227.964233 120.0
227.995087 316.0
228.0457 152.0
228.091034 144.0
228.136978 176.0
228.249069 148.0
228.285263 164.0
228.313278 420.0
228.514816 148.0
228.708496 212.0
228.800735 236.0
228.866974 156.0
228.894073 172.0
229.068848 140.0
229.101639 184.0
229.225433 156.0
229.373108 144.0
229.406723 184.0
229.530914 164.0
229.668839 208.0
229.728058 204.0
229.804001 168.0
229.828506 276.0
229.916763 128.0
230.002121 136.0
230.082031 180.0
230.153381 208.0
230.248703 160.0
230.311523 164.0
230.355225 180.0
230.396118 280.0
230.453522 152.0
230.501862 160.0
230.544174 212.0
230.588333 128.0
230.62854 144.0
230.897064 148.0
231.117981 668.0
231.211243 152.0
231.260956 156.0
231.306259 128.0
231.556122 268.0
231.609726 148.0
231.674683 152.0
231.813644 152.0
232.016861 140.0
232.062317 204.0
232.120621 596.0
232.197159 176.0
232.316635 144.0
232.370056 144.0
232.399002 328.0
232.510422 156.0
232.616119 208.0
232.814758 104.0
232.891022 164.0
233.012848 252.0
233.047714 104.0
233.089676 164.0
233.1185 132.0
233.200623 160.0
233.223389 140.0
233.440628 180.0
233.529572 120.0
233.54924 144.0
233.637924 208.0
233.70694 364.0
233.923019 248.0
233.964508 168.0
234.125885 676.0
234.169586 172.0
234.234482 128.0
234.276581 156.0
234.314835 164.0
234.3414 296.0
234.402542 164.0
234.468231 160.0
234.843246 152.0
234.892181 184.0
234.925598 176.0
235.027588 140.0
235.0616 616.0
235.136566 408.0
235.191086 160.0
235.315811 112.0
235.466125 148.0
235.557693 196.0
235.69313 152.0
235.774445 176.0
235.814163 176.0
235.954788 184.0
236.003708 180.0
236.065735 1452.0
236.10347 468.0
236.142197 584.0
236.178024 160.0
236.225967 260.0
236.285095 192.0
236.323196 132.0
236.417679 176.0
236.439331 156.0
236.488251 184.0
236.779953 144.0
236.883743 144.0
237.035797 180.0
237.073013 1468.0
237.150879 400.0
237.206161 172.0
237.314545 136.0
237.36937 160.0
237.403107 152.0
237.476425 176.0
237.568726 160.0
237.660599 272.0
237.772964 208.0
237.841843 148.0
237.88916 144.0
237.918854 136.0
238.082336 1328.0
238.130219 204.0
238.152252 172.0
238.185745 192.0
238.231827 540.0
238.256561 224.0
238.333374 152.0
238.388519 152.0
238.423096 132.0
238.477646 148.0
238.546204 184.0
238.680557 164.0
238.711609 160.0
238.840469 156.0
238.910629 164.0
238.97583 140.0
239.000443 164.0
239.088242 916.0
239.14917 108.0
239.220825 112.0
239.479919 160.0
239.584427 172.0
239.707474 396.0
239.806091 164.0
239.922501 96.0
240.037277 120.0
240.075424 276.0
240.184982 136.0
240.246536 160.0
240.303772 220.0
240.495102 148.0
240.575058 288.0
240.611084 112.0
240.690979 296.0
240.778778 164.0
240.809784 196.0
240.966003 188.0
241.121262 180.0
241.292099 156.0
241.391052 180.0
241.459564 104.0
241.623032 148.0
241.663254 160.0
241.801361 220.0
241.97728 112.0
242.038528 132.0
242.143692 140.0
242.186432 300.0
242.276657 164.0
242.40123 132.0
242.449387 156.0
242.467545 256.0
242.51796 156.0
242.546799 132.0
242.63266 164.0
242.680359 156.0
242.924164 180.0
243.005539 160.0
243.087112 164.0
243.224426 188.0
243.296448 100.0
243.336929 164.0
243.439392 148.0
243.594696 204.0
243.631973 164.0
243.715057 172.0
243.952057 148.0
243.997955 168.0
244.091919 396.0
244.129288 144.0
244.15416 152.0
244.200821 188.0
244.301102 184.0
244.504395 188.0
244.713272 184.0
244.74231 164.0
244.901352 172.0
244.953049 156.0
245.075577 144.0
245.147247 192.0
245.346741 144.0
245.493286 152.0
245.707428 140.0
245.836441 228.0
245.888428 124.0
245.939423 160.0
246.150787 188.0
246.229797 164.0
246.29512 332.0
246.35733 116.0
246.503342 164.0
246.61409 404.0
246.640442 196.0
246.725784 104.0
247.006317 148.0
247.027054 184.0
247.051331 208.0
247.092712 144.0
247.123825 148.0
247.198929 344.0
247.273239 172.0
247.361908 216.0
247.518219 148.0
247.580154 172.0
247.839066 148.0
247.963013 144.0
247.9944 320.0
248.029282 128.0
248.068726 204.0
248.146713 608.0
248.242081 144.0
248.361923 188.0
248.615387 140.0
248.659332 152.0
248.769379 132.0
248.825699 168.0
248.85611 192.0
248.945023 156.0
249.071899 516.0
249.149521 460.0
249.304932 148.0
249.350281 140.0
249.452301 144.0
249.504303 152.0
249.536514 132.0
249.58606 320.0
249.631454 168.0
249.740158 160.0
249.893768 164.0
249.915527 140.0
249.966736 180.0
250.080521 204.0
250.159851 132.0
250.195389 120.0
250.243668 168.0
250.264084 160.0
250.381958 136.0
250.474945 132.0
250.590027 140.0
250.600128 136.0
250.689651 208.0
250.81134 144.0
250.896286 220.0
251.089203 5792.0
251.277435 148.0
251.33075 152.0
251.395905 148.0
251.48764 176.0
251.547119 176.0
251.588837 144.0
251.6595 288.0
251.781204 144.0
251.855133 200.0
251.916046 212.0
252.09288 1168.0
252.171097 160.0
252.261826 188.0
252.351288 232.0
252.52652 148.0
252.646027 184.0
252.93338 140.0
252.963608 188.0
252.989609 292.0
253.041367 152.0
253.104355 3740.0
253.172714 176.0
253.194824 176.0
253.229294 184.0
253.462769 128.0
253.53833 212.0
253.611008 116.0
253.638824 180.0
253.750992 180.0
253.795105 164.0
253.850677 156.0
253.901108 176.0
253.944153 204.0
254.026398 144.0
254.105423 692.0
254.150345 188.0
254.244324 208.0
254.366165 156.0
254.454605 144.0
254.497391 208.0
254.562378 120.0
254.60112 164.0
254.650681 192.0
254.686874 252.0
254.75676 164.0
254.828201 156.0
254.878265 164.0
254.914627 128.0
254.982361 144.0
255.090057 232.0
255.271652 276.0
255.393295 132.0
255.513382 112.0
255.756897 140.0
255.802979 204.0
255.85318 156.0
256.007935 120.0
256.048859 180.0
256.115051 200.0
256.208527 164.0
256.281952 164.0
256.533661 180.0
256.561157 188.0
256.808197 288.0
256.942566 200.0
256.975769 164.0
257.00769 148.0
257.24115 424.0
257.294922 148.0
257.317291 144.0
257.352448 128.0
257.750671 168.0
257.889099 168.0
258.152649 252.0
258.233795 168.0
258.352753 180.0
258.411713 196.0
258.53833 172.0
258.720795 180.0
258.778412 220.0
258.925537 152.0
258.990906 124.0
259.02124 160.0
259.147949 184.0
259.273499 116.0
259.35434 144.0
259.442169 204.0
259.563446 140.0
259.600433 176.0
259.669281 144.0
259.69812 188.0
259.734924 120.0
259.871368 220.0
259.948364 144.0
259.990082 212.0
260.076843 136.0
260.147369 184.0
260.275787 228.0
260.372131 140.0
260.401031 232.0
260.429932 216.0
260.587219 184.0
260.804321 164.0
260.877808 168.0
261.047089 140.0
261.149933 164.0
261.252869 156.0
261.375122 144.0
261.474884 176.0
261.554047 140.0
261.614471 236.0
261.677673 176.0
261.761383 164.0
261.96109 160.0
262.086731 164.0
262.162567 280.0
262.251221 124.0
262.377594 132.0
262.420685 152.0
262.518677 140.0
262.669006 204.0
262.769958 164.0
262.832764 216.0
262.892883 152.0
262.917542 144.0
263.094269 288.0
263.163513 400.0
263.496704 200.0
263.564545 172.0
263.610229 132.0
263.814941 116.0
263.861908 180.0
263.929596 124.0
263.994476 176.0
264.101196 196.0
264.179535 176.0
264.416321 184.0
264.444183 212.0
264.470062 148.0
264.512146 244.0
264.657562 140.0
264.79129 116.0
265.104584 1636.0
265.163177 168.0
265.203705 116.0
265.340454 176.0
265.393341 168.0
265.440216 176.0
265.578217 160.0
265.675415 120.0
265.756622 180.0
265.841003 172.0
265.883179 176.0
265.944855 220.0
266.106415 392.0
266.135468 176.0
266.25058 220.0
266.363708 160.0
266.41571 188.0
266.446777 240.0
266.488647 240.0
266.554413 132.0
266.602844 120.0
266.799164 164.0
266.893311 184.0
266.92923 156.0
266.950897 144.0
267.105713 260.0
267.191132 184.0
267.23172 168.0
267.280548 164.0
267.4758 140.0
267.612946 160.0
267.641998 176.0
267.957794 172.0
267.984375 148.0
268.115662 180.0
268.156555 188.0
268.201416 188.0
268.335175 116.0
268.446716 164.0
268.528259 228.0
268.668518 180.0
268.701141 192.0
268.824097 140.0
268.890381 148.0
268.913239 252.0
268.948914 136.0
268.994843 224.0
269.086975 144.0
269.119568 236.0
269.190735 184.0
269.303223 192.0
269.398468 136.0
269.434204 216.0
269.550079 152.0
269.576202 148.0
269.623505 160.0
269.669403 128.0
269.742706 136.0
269.773773 264.0
269.798462 156.0
269.909637 172.0
269.96524 172.0
270.086456 144.0
270.127808 180.0
270.150635 408.0
270.246552 152.0
270.272705 204.0
270.308716 152.0
270.380707 164.0
270.42981 184.0
270.488708 216.0
270.631866 116.0
270.753937 172.0
270.806244 104.0
270.893921 156.0
270.953217 204.0
271.019257 224.0
271.15036 144.0
271.200378 228.0
271.253906 288.0
271.310974 148.0
271.382446 144.0
271.419067 128.0
271.515839 240.0
271.717621 176.0
271.884979 144.0
272.213257 180.0
272.275665 184.0
272.440552 180.0
272.518005 176.0
272.577881 144.0
272.677094 192.0
272.811249 188.0
272.839386 144.0
272.975098 124.0
273.050385 132.0
273.157043 176.0
273.228027 148.0
273.271667 216.0
273.343842 120.0
273.436218 240.0
273.497955 360.0
273.568634 172.0
273.625946 188.0
273.663971 128.0
273.755554 164.0
273.85434 232.0
273.989319 292.0
274.046082 156.0
274.091553 152.0
274.125305 164.0
274.27594 156.0
274.300507 172.0
274.344086 144.0
274.396271 180.0
274.455994 120.0
274.521332 336.0
274.547607 280.0
274.684998 172.0
274.721283 164.0
274.803741 172.0
274.844513 188.0
274.876831 184.0
274.965851 128.0
275.047974 164.0
275.148499 236.0
275.465546 156.0
275.503662 176.0
275.600861 384.0
275.678802 240.0
275.761627 180.0
275.825684 172.0
275.885468 104.0
275.923401 200.0
276.025879 156.0
276.129791 148.0
276.234253 160.0
276.273956 328.0
276.329926 148.0
276.49234 224.0
276.525421 164.0
276.674377 196.0
276.796661 176.0
276.99231 168.0
277.018799 224.0
277.061859 144.0
277.101624 556.0
277.156921 104.0
277.358154 128.0
277.397675 156.0
277.452942 200.0
277.671783 160.0
277.858948 216.0
277.899292 320.0
277.923798 156.0
278.016144 160.0
278.044769 164.0
278.184326 120.0
278.218689 200.0
278.248108 184.0
278.289001 160.0
278.424194 360.0
278.481598 216.0
278.581512 208.0
278.751373 200.0
278.780609 144.0
278.824738 180.0
278.901123 124.0
278.983368 160.0
279.192841 148.0
279.245117 100.0
279.430969 292.0
279.482239 168.0
279.584167 184.0
279.769745 156.0
279.809296 148.0
280.013184 168.0
280.122406 124.0
280.240906 136.0
280.328033 144.0
280.371368 176.0
280.411346 160.0
280.459229 164.0
280.525543 156.0
280.732056 148.0
280.768097 140.0
280.796173 352.0
280.99411 200.0
281.0383 224.0
281.068329 152.0
281.123047 640.0
281.194489 164.0
281.235199 192.0
281.279144 212.0
281.36322 176.0
281.401276 176.0
281.560577 104.0
281.67807 144.0
281.767944 140.0
281.813782 172.0
281.894592 140.0
281.966644 140.0
281.993378 160.0
282.063568 180.0
282.120209 132.0
282.181122 196.0
282.237427 160.0
282.29303 152.0
282.354462 144.0
282.537872 128.0
282.757111 112.0
282.826874 184.0
282.903198 144.0
282.986908 168.0
283.015656 292.0
283.133087 216.0
283.173523 116.0
283.222626 432.0
283.365387 148.0
283.464844 164.0
283.566437 164.0
283.625214 112.0
283.738007 172.0
284.029144 172.0
284.10498 172.0
284.173401 220.0
284.200226 180.0
284.314331 152.0
284.34433 136.0
284.395752 184.0
284.451538 128.0
284.493164 160.0
284.600433 176.0
284.710419 120.0
284.859467 164.0
284.897095 240.0
285.126862 256.0
285.188873 204.0
285.221191 140.0
285.306091 108.0
285.361359 172.0
285.412384 160.0
285.644867 156.0
285.681854 156.0
285.920776 208.0
286.018372 140.0
286.065491 148.0
286.224548 204.0
286.545288 192.0
286.601227 116.0
286.676392 192.0
286.729858 132.0
286.973694 112.0
287.042572 140.0
287.130249 144.0
287.204132 132.0
287.26947 180.0
287.343964 156.0
287.38504 204.0
287.67688 160.0
287.769409 176.0
287.882843 156.0
288.126038 272.0
288.213867 160.0
288.274689 148.0
288.313599 148.0
288.397736 156.0
288.445953 208.0
288.561249 160.0
288.601105 128.0
288.677582 200.0
288.821198 180.0
288.878113 128.0
288.981415 192.0
289.036377 176.0
289.098969 124.0
289.434692 204.0
289.480896 140.0
289.505981 172.0
289.783844 200.0
289.834198 120.0
290.068604 136.0
290.134827 120.0
290.186432 164.0
290.287018 128.0
290.507568 188.0
290.531525 156.0
290.623962 200.0
290.66861 320.0
290.760437 196.0
290.825867 208.0
290.95166 120.0
291.00824 172.0
291.099915 300.0
291.234528 144.0
291.505585 228.0
291.572144 176.0
291.601379 148.0
291.636932 184.0
291.756561 244.0
291.782867 144.0
291.823669 152.0
291.916748 192.0
291.967407 176.0
292.016083 144.0
292.122192 108.0
292.177399 144.0
292.228424 228.0
292.283325 192.0
292.311646 156.0
292.347595 156.0
292.463776 172.0
292.516632 320.0
292.580627 216.0
292.626251 108.0
292.684601 200.0
292.719788 224.0
293.034241 268.0
293.167694 160.0
293.338776 144.0
293.492065 196.0
293.604523 140.0
293.665039 168.0
293.698853 136.0
293.730804 284.0
293.84436 224.0
293.888458 132.0
293.932648 176.0
293.958496 192.0
294.014008 164.0
294.053802 280.0
294.133026 424.0
294.210022 112.0
294.244202 256.0
294.274872 152.0
294.336243 112.0
294.414032 216.0
294.481354 256.0
294.519012 376.0
294.570282 208.0
294.65332 348.0
294.724792 180.0
294.782623 212.0
294.808685 356.0
294.870697 180.0
294.884369 120.0
294.910522 488.0
294.948486 184.0
294.987457 164.0
295.065582 404.0
295.137604 460.0
295.184021 364.0
295.210999 520.0
295.258209 276.0
295.325775 272.0
295.352844 268.0
295.409637 488.0
295.429871 456.0
295.465179 328.0
295.479156 400.0
295.530762 288.0
295.560303 628.0
295.591431 752.0
295.633301 296.0
295.665863 536.0
295.691925 424.0
295.731628 272.0
295.772583 384.0
295.787598 452.0
295.842499 496.0
295.879974 512.0
295.919983 636.0
295.978638 652.0
296.040985 1028.0
296.101776 1988.0
296.149536 254888.0
296.272919 260.0
296.383514 324.0
296.467773 2728.0
296.516998 596.0
296.574066 1256.0
296.670776 2680.0
296.71933 17388.0
296.800568 392.0
296.807678 244.0
296.820862 236.0
296.86084 244.0
296.958374 248.0
296.991058 784.0
297.055237 492.0
297.092682 776.0
297.151794 195928.0
297.282867 316.0
297.462677 196.0
297.507507 180.0
297.537048 708.0
297.565369 240.0
297.600739 128.0
297.641174 364.0
297.7146 244.0
297.783356 268.0
297.848694 324.0
297.861023 244.0
297.895355 132.0
298.01001 244.0
298.080933 260.0
298.146301 53592.0
298.297577 188.0
298.337189 172.0
298.377808 144.0
298.40155 200.0
298.468933 168.0
298.519043 140.0
298.571228 132.0
298.63562 188.0
298.663513 196.0
298.713562 352.0
298.753357 152.0
298.792023 180.0
298.838196 392.0
298.873657 296.0
298.905853 316.0
298.91684 360.0
298.930786 368.0
298.97171 268.0
298.998871 340.0
299.03241 408.0
299.08075 340.0
299.146912 5740.0
299.204224 336.0
299.263397 448.0
299.305634 172.0
299.359955 424.0
299.39682 516.0
299.424133 512.0
299.463379 132.0
299.511322 216.0
299.631622 168.0
299.744781 248.0
299.863892 168.0
299.972656 116.0
300.013794 160.0
300.073578 216.0
300.17627 264.0
300.213135 100.0
300.281982 112.0
300.332367 196.0
300.360107 120.0
300.470428 120.0
300.739349 96.0
300.985077 136.0
301.092133 208.0
301.186768 128.0
301.230011 188.0
301.415894 104.0
301.646088 104.0
302.005432 128.0
302.115875 108.0
302.206848 220.0
302.26004 136.0
302.449432 100.0
302.809723 132.0
302.836304 144.0
303.942657 108.0
304.402222 96.0
305.573853 104.0
306.546814 176.0
306.900848 96.0
307.81308 160.0
308.352539 128.0
308.681854 96.0
308.753235 260.0
309.232452 168.0
310.246185 108.0
310.375641 116.0
310.414001 120.0
310.498627 116.0
311.081055 124.0
311.143799 136.0
311.176025 108.0
311.581116 148.0
311.688782 160.0
313.686523 96.0
314.155365 148.0
317.302887 152.0
317.890533 124.0
319.312744 144.0
321.154114 148.0
322.961456 180.0
337.158173 136.0
341.52713 172.0
350.214417 144.0
353.866638 152.0
385.278595 108.0
390.720581 228.0
391.01358 164.0
404.985687 100.0
428.649109 140.0
431.819672 164.0
432.125763 160.0
445.9758 112.0
455.930359 152.0
460.683929 192.0
464.012543 108.0
466.877563 144.0
474.694031 140.0
475.395569 104.0
494.350891 144.0
502.831879 96.0
521.181885 168.0
536.334961 140.0
543.967346 152.0
550.172791 148.0
552.278198 108.0
587.18927 144.0
588.80127 140.0
593.810303 108.0
633.059509 160.0
639.692078 140.0
650.855286 148.0
669.89447 112.0
694.148987 144.0
704.221985 140.0
719.510254 140.0
730.0177 152.0
754.373779 152.0
851.828552 140.0
894.255859 220.0
905.420471 144.0
906.213989 112.0
958.286072 148.0
1023.160767 188.0
1074.934814 176.0
1088.327393 168.0
1091.540649 184.0
1092.250854 160.0
1101.740967 148.0
1101.80957 260.0
1110.932251 168.0
1159.887329 192.0
1176.431152 220.0
1181.508789 180.0
1191.360229 176.0
1199.259888 176.0
1208.202271 196.0
1209.41333 148.0
1214.45752 176.0
1218.921509 192.0
1220.422974 180.0
1222.050537 184.0
1228.125244 200.0
1232.886719 168.0
1236.894409 160.0
1237.993652 220.0
1241.785156 184.0
1243.72168 168.0
1246.193726 180.0
1255.808228 256.0
1256.098999 192.0
1261.077026 196.0
1261.570679 96.0
1263.106323 140.0
1264.542725 216.0
1267.507446 144.0
1276.33313 140.0
1276.987427 168.0
1281.294067 188.0
1283.204102 196.0
1283.560669 176.0
1285.301147 184.0
1288.464111 144.0
1290.620605 208.0
1292.353516 148.0
1293.405518 232.0
1294.393555 192.0
1297.323853 156.0
1300.795898 172.0
1308.99939 160.0
1309.330688 180.0
1313.994385 180.0
1314.405762 172.0
1317.531982 184.0
1323.202026 212.0
1323.788574 216.0
1324.52002 204.0
1324.97644 188.0
1328.209595 188.0
1328.993164 204.0
1330.887573 148.0
1331.591919 196.0
1333.335693 224.0
1334.091553 236.0
1334.399048 200.0
1335.358032 168.0
1336.018799 188.0
1336.258789 144.0
1338.056519 296.0
1338.238647 184.0
1340.460083 156.0
1344.835938 148.0
1348.546387 148.0
1349.584351 196.0
1350.001221 216.0
1350.432739 160.0
1355.037231 180.0
1356.019165 168.0
1363.821289 156.0
1367.71228 172.0
1369.111206 180.0
1370.488647 184.0
1372.176514 164.0
1373.983398 164.0
1375.496216 192.0
1376.736694 260.0
1378.169678 180.0
1378.525269 172.0
1378.923462 168.0
1379.160034 168.0
1382.363159 144.0
1383.035889 168.0
1383.287476 232.0
1389.52002 216.0
1390.551514 236.0
1391.835815 184.0
1391.976929 156.0
1393.232178 156.0
1393.806763 224.0
1394.94104 192.0
1398.3927 176.0
1398.854126 172.0
1400.037964 156.0
1403.689575 168.0
1405.629028 140.0
1407.181519 208.0
1408.391357 168.0
1409.646484 148.0
1413.579834 172.0
1416.342529 148.0
1417.503784 148.0
1418.592407 180.0
1420.375244 168.0
1421.373047 168.0
1421.973389 140.0
1422.754028 156.0
1426.141846 188.0
1428.344971 148.0
1430.828369 164.0
1434.092529 156.0
1434.248413 144.0
1436.359741 152.0
1440.655029 228.0
1442.2948 196.0
1443.065918 172.0
1443.31543 140.0
1445.463623 216.0
1448.840576 180.0
1448.946655 240.0
1451.614624 152.0
1452.653687 148.0
1452.91394 204.0
1453.291016 144.0
1453.374512 156.0
1454.414062 164.0
1455.833984 236.0
1456.942871 144.0
1457.174438 248.0
1460.599365 164.0
1462.897461 344.0
1466.515625 140.0
1466.744385 152.0
1470.741333 180.0
1471.077148 140.0
1471.596313 168.0
1472.963257 176.0
1473.268921 192.0
1474.048218 184.0
1474.132202 184.0
1477.710693 184.0
1477.963257 148.0
1480.48938 156.0
1480.565918 228.0
1481.745605 208.0
1481.883545 192.0
1484.429688 224.0
1485.218262 228.0
1485.410034 152.0
1487.159546 204.0
1488.687256 164.0
1489.985352 200.0
1490.369507 180.0
1490.446411 220.0
1492.298828 160.0
1493.583008 144.0
1494.929443 160.0
1496.222534 156.0
1496.530518 168.0
1502.179688 148.0
1503.977539 176.0
1504.463867 148.0
1509.199951 172.0
1513.858276 144.0
1514.717896 200.0
1516.213379 168.0
1518.368652 180.0
1520.013184 224.0
1521.619873 176.0
1522.481812 184.0
1522.901245 188.0
1524.594971 168.0
1524.8125 140.0
1525.434326 216.0
1525.636475 184.0
1528.125244 140.0
1528.483154 160.0
1528.638794 232.0
1528.786621 236.0
1528.965576 192.0
1531.643921 204.0
1532.243774 140.0
1533.256836 152.0
1533.568604 144.0
1534.223389 152.0
1535.452515 112.0
1535.876465 148.0
1537.319824 212.0
1537.702271 156.0
1537.788086 148.0
1538.459473 196.0
1538.84021 196.0
1541.128296 176.0
1545.164917 264.0
1545.290039 148.0
1545.430908 164.0
1545.603027 208.0
1546.002075 164.0
1546.197754 148.0
1546.933472 156.0
1547.591187 152.0
1547.982666 204.0
1549.173218 152.0
1549.4552 184.0
1551.408691 104.0
1552.018188 244.0
1552.30835 172.0
1554.269409 144.0
1554.944214 160.0
1557.888794 160.0
1560.207153 364.0
1560.380127 200.0
1561.536011 140.0
1563.927856 172.0
1564.053833 188.0
1565.384399 200.0
1570.759521 156.0
1572.337524 196.0
1573.663696 236.0
1578.365112 196.0
1578.42041 212.0
1578.744629 172.0
1579.583008 160.0
1580.866455 172.0
1581.671997 172.0
1581.782837 168.0
1582.614136 188.0
1583.017944 172.0
1585.220215 160.0
1589.605469 156.0
1590.81189 220.0
1591.018188 196.0
1591.20874 168.0
1591.812256 172.0
1593.694824 344.0
1593.901367 188.0
1594.274902 160.0
1596.604248 172.0
1596.683716 224.0
1597.733643 168.0
1598.839722 200.0
1599.396851 224.0
1599.890381 168.0
1600.216797 228.0
1601.108643 148.0
1601.252075 160.0
1602.781616 176.0
1604.662598 148.0
1607.438354 188.0
1608.566895 180.0
1610.160645 168.0
1611.870239 152.0
1613.093018 180.0
1613.156982 244.0
1613.692627 176.0
1614.228394 200.0
1617.756714 140.0
1618.782471 196.0
1619.670654 264.0
1620.827026 204.0
1621.23291 140.0
1626.277588 156.0
1629.283081 116.0
1635.21521 168.0
1636.189209 176.0
1637.638672 152.0
1639.859985 116.0
1641.1604 180.0
1642.18457 152.0
1643.467163 168.0
1644.314575 152.0
1645.719116 140.0
1645.977539 164.0
1646.647827 172.0
1646.898193 184.0
1647.108276 160.0
1647.754517 180.0
1648.053467 172.0
1648.408936 144.0
1649.960815 204.0
1650.99585 144.0
1651.497314 152.0
1653.026367 200.0
1653.560425 156.0
1654.968994 268.0
1657.390869 188.0
1659.125366 200.0
1659.214478 148.0
1660.771484 148.0
1661.584961 220.0
1661.680054 168.0
1662.30481 160.0
1662.783691 184.0
1663.13269 144.0
1663.765869 196.0
1665.90979 144.0
1666.039795 144.0
1668.355835 172.0
1668.68103 192.0
1671.259399 144.0
1672.170776 192.0
1672.588867 196.0
1673.701294 168.0
1674.246826 176.0
1674.496338 176.0
1675.208008 140.0
1676.267212 236.0
1676.462769 152.0
1678.639282 140.0
1678.794312 148.0
1681.534912 172.0
1683.217163 176.0
1683.347778 144.0
1685.47168 172.0
1686.239868 208.0
1686.82019 164.0
1687.732544 188.0
1689.90332 164.0
1691.089966 180.0
1692.448853 168.0
1693.914795 160.0
1694.26709 160.0
1694.332642 188.0
1694.545654 180.0
1695.504395 144.0
1696.151855 200.0
1697.439087 152.0
1697.931152 164.0
1700.425293 164.0
1702.001465 188.0
1702.896484 188.0
1703.266113 204.0
1703.611206 208.0
1704.036865 172.0
1705.213501 148.0
1706.463013 140.0
1707.334595 200.0
1707.548462 168.0
1708.074829 152.0
1710.370605 176.0
1711.037354 196.0
1711.432617 180.0
1711.984375 164.0
1712.174438 152.0
1712.313721 160.0
1712.700806 148.0
1713.061401 168.0
1713.401123 140.0
1716.096191 164.0
1717.885742 220.0
1719.96521 168.0
1720.336182 132.0
1720.691772 140.0
1720.947632 212.0
1721.682617 168.0
1722.434204 148.0
1723.475098 168.0
1723.946167 252.0
1724.012329 204.0
1725.235596 180.0
1725.690308 140.0
1726.343506 160.0
1726.649536 148.0
1727.319458 172.0
1728.817017 144.0
1729.578491 172.0
1733.64502 156.0
1733.852295 180.0
1735.725586 172.0
1736.588257 140.0
1739.218506 164.0
1739.766357 148.0
1740.189819 180.0
1740.389038 144.0
1742.299316 196.0
1742.498657 160.0
1743.429321 208.0
1743.770142 176.0
1750.783569 196.0
1752.366211 148.0
1752.582886 200.0
1752.832886 204.0
1755.05835 216.0
1755.859009 160.0
1757.345581 128.0
1758.153198 148.0
1759.28833 164.0
1760.106567 176.0
1761.518066 160.0
1762.420288 196.0
1762.679443 160.0
1763.907959 140.0
1764.555664 116.0
1766.03894 224.0
1766.516968 216.0
1766.793091 304.0
1767.328735 152.0
1768.349487 164.0
1768.709351 160.0
1770.174561 176.0
1770.308472 164.0
1771.087402 144.0
1771.213013 200.0
1773.123413 200.0
1774.456177 168.0
1779.162842 144.0
1779.26355 184.0
1779.523804 144.0
1782.05188 212.0
1782.539307 172.0
1782.690552 168.0
1782.925781 200.0
1783.900879 152.0
1783.97644 196.0
1784.783569 204.0
1785.002197 152.0
1785.439575 164.0
1786.168335 184.0
1786.633911 140.0
1787.390991 156.0
1788.039185 164.0
1792.770752 196.0
1793.53064 204.0
1793.791992 180.0
1794.233276 200.0
1795.309692 144.0
1797.081055 192.0
1799.317627 184.0
1799.410522 144.0
1800.432251 188.0
1802.299194 140.0
1802.992065 168.0
1803.177979 176.0
1803.541504 172.0
1805.114502 176.0
1805.714355 160.0
1807.194824 216.0
1807.939453 176.0
1808.438843 200.0
1808.734985 172.0
1808.83667 160.0
1812.859741 232.0
1814.046265 156.0
1814.266357 172.0
1815.521606 144.0
1815.988037 172.0
1816.14917 140.0
1816.641235 180.0
1818.669312 140.0
1819.322876 164.0
1819.501221 248.0
1819.560547 164.0
1819.764404 152.0
1820.256836 140.0
1822.29541 144.0
1823.315063 168.0
1825.393921 160.0
1825.610474 140.0
1826.716187 168.0
1827.056519 168.0
1827.558472 184.0
1828.222168 148.0
1830.341797 212.0
1830.665405 164.0
1832.369019 168.0
1832.829102 360.0
1833.135864 208.0
1834.559204 140.0
1834.648193 176.0
1836.992432 160.0
1838.07312 172.0
1841.035278 200.0
1841.223267 172.0
1841.590454 160.0
1842.273804 228.0
1842.854126 220.0
1843.283447 216.0
1844.546875 188.0
1844.803345 208.0
1845.487305 236.0
1846.282593 152.0
1847.454346 176.0
1847.69397 148.0
1849.653687 168.0
1850.141602 156.0
1850.278564 212.0
1851.074829 140.0
1852.016968 148.0
1852.248169 148.0
1852.393799 152.0
1853.353394 176.0
1855.453247 172.0
1855.530396 152.0
1855.705933 232.0
1856.808105 144.0
1856.962402 164.0
1857.202393 200.0
1857.721313 156.0
1859.021484 172.0
1859.527832 160.0
1860.40332 180.0
1860.626587 184.0
1861.201782 204.0
1864.956055 164.0
1865.093506 176.0
1865.181763 120.0
1865.691772 136.0
1866.202515 148.0
1866.297119 172.0
1868.180664 208.0
1869.092651 192.0
1869.428223 172.0
1869.936035 164.0
1870.796753 144.0
1870.986206 208.0
1871.373535 168.0
1872.553345 192.0
1874.104004 168.0
1875.422485 236.0
1875.508667 160.0
1875.61499 224.0
1877.345093 208.0
1877.690063 168.0
1880.097046 208.0
1880.951538 176.0
1881.434937 168.0
1884.103516 188.0
1885.944092 164.0
1886.350342 152.0
1886.851807 160.0
1887.197632 156.0
1887.578125 164.0
1888.780273 160.0
1890.553955 184.0
1890.761597 208.0
1892.16394 144.0
1892.98645 232.0
1893.627319 144.0
1894.762085 152.0
1894.987427 212.0
1895.576538 148.0
1895.71521 156.0
1896.3479 148.0
1896.469238 140.0
1896.60791 176.0
1897.57019 156.0
1898.307251 164.0
1899.191772 172.0
1899.370483 228.0
1899.703613 156.0
1900.380371 148.0
1900.944336 172.0
1902.072632 140.0
1904.660278 200.0
1904.868652 244.0
1906.020386 196.0
1906.190796 188.0
1906.554321 188.0
1906.99939 152.0
1913.368774 260.0
1913.991943 216.0
1916.026123 152.0
1916.305908 104.0
1917.537598 176.0
1918.487671 144.0
1919.4729 260.0
1920.763672 208.0
1921.749512 156.0
1921.828003 212.0
1922.185791 156.0
1923.000854 164.0
1924.359253 144.0
1925.162476 188.0
1926.629883 244.0
1927.506348 168.0
1927.68103 172.0
1928.735962 144.0
1929.015625 152.0
1930.685669 164.0
1930.863647 160.0
1932.347656 188.0
1932.723877 160.0
1932.863892 140.0
1932.925171 196.0
1934.412964 152.0
1936.595581 152.0
1937.889771 152.0
1938.844971 208.0
1939.739014 212.0
1940.326294 152.0
1941.312256 216.0
1941.703003 188.0
1942.220581 172.0
1942.387207 148.0
1944.800171 172.0
1946.222412 160.0
1946.424316 220.0
1946.80188 180.0
1946.889771 164.0
1947.223511 144.0
1947.486938 240.0
1948.276855 104.0
1949.252808 168.0
1949.586792 176.0
1950.061401 264.0
1950.984375 148.0
1951.22168 160.0
1952.338379 168.0
1954.96875 176.0
1955.10083 144.0
1957.583374 168.0
1958.516846 196.0
1958.851562 200.0
1960.332764 188.0
1960.622559 156.0
1960.886963 300.0
1961.750854 172.0
1961.865479 204.0
1962.129883 192.0
1963.558472 156.0
1964.325806 260.0
1965.260986 192.0
1966.178711 180.0
1966.690552 196.0
1966.946533 172.0
1967.140747 208.0
1968.182617 160.0
1968.491577 224.0
1968.79187 164.0
1969.030273 204.0
1969.26001 148.0
1969.798828 156.0
1969.966553 200.0
1970.381836 168.0
1970.567383 164.0
1970.655762 192.0
1971.044556 192.0
1974.023438 156.0
1974.120728 148.0
1974.624878 180.0
1974.943237 160.0
1976.969238 204.0
1978.925537 144.0
1979.704712 144.0
1979.961548 176.0
1981.405396 204.0
1982.016724 156.0
1983.408203 176.0
1983.718384 184.0
1983.798218 160.0
1983.971802 180.0
1984.312378 228.0
1984.427612 188.0
1984.729126 228.0
1985.713501 164.0
1987.090454 252.0
1987.514282 216.0
1988.605835 168.0
1990.221558 208.0
1990.443604 184.0
1990.612305 200.0
1991.589233 144.0
1991.722412 148.0
1992.175415 196.0
1993.152832 232.0
1993.3927 220.0
1993.730347 140.0
1994.210327 152.0
1995.276978 208.0
1996.441895 152.0
1997.34021 184.0
1998.318726 176.0
1998.621216 160.0
1999.349854 172.0
2000.552612 160.0
2000.659424 152.0
2001.104492 148.0
2001.281128 144.0
2002.849976 156.0
