>compound Eremantholide C
>formula C19H22O6
>ionization [M+H]+
>parentmass 347.150177
#inchi InChI=1S/C19H22O6/c1-9(2)19(22)18(5)15-12(23-16(18)21)6-10(3)11-7-14(20)17(4,24-11)8-13(15)25-19/h6-7,12-13,15,22H,1,8H2,2-5H3/b10-6-/t12-,13+,15+,17-,18-,19-/m1/s1
#inchikey YEIAHHGCPUIGOQ
#Ion_Source DI-ESI
#Instrument qTof
#Compound_Source Isolated
#PI Norberto Lopes
#Data_Collector Denise Silva
#Scan -1
#Precursor_MZ 347.15
#ExactMass 346.142
#Charge 1
#CAS_Number 69883-97-2
#Pubmed_ID  
#Smiles O=C1C=C(/C(C)=C\2)O[C@]1(C)C[C@]3([H])O[C@](O)(C(C)=C)[C@]4(C)[C@@]3([H])[C@]2([H])OC4=O
#INCHI_AUX  
#Library_Class 3
#SpectrumID CCMSLIB00000081275
#IonMode Positive
#UpdateWorkflowName UPDATE-SINGLE-ANNOTATED-BRONZE
#LibraryQualityString Bronze
#TaskID 817c587cd82f4892b5f202f92ca57a24
##Scan# 1
#SpectrumFile gnps_Eremantholide_C_pos_MplusH.mgf
#LibraryName gnps_library.mgf
#MQScore -1
#Organism gnps_library
#TIC_Query 0
#RT_Query -1
#MZErrorPPM -1
#SharedPeaks 0
#MassDiff 0
#LibMZ -1
#SpecMZ 347.15
#SpecCharge 0
#internalFilename spec-00000.mgf

>collision 10
125.058601 2374.0
135.079025 488.0
141.056656 573.0
145.068451 478.0
159.077805 575.0
161.095627 1637.0
165.090942 2059.0
171.082474 450.0
173.094696 682.0
177.091095 376.0
185.093979 454.0
187.112274 388.0
189.091721 13589.0
190.096695 1377.0
191.107712 1309.0
199.110962 856.0
203.106445 388.0
207.102341 816.0
213.128464 3114.0
214.132263 426.0
215.109039 819.0
217.122116 619.0
223.101166 2263.0
227.107925 1016.0
229.114456 660.0
231.139847 741.0
233.118423 556.0
235.095505 1055.0
241.121368 7445.0
242.126923 943.0
243.133057 721.0
245.115723 836.0
247.098526 586.0
251.093155 904.0
255.126816 586.0
259.128143 4054.0
261.113708 636.0
263.125519 689.0
271.135254 905.0
273.118073 947.0
283.13205 625.0
285.146179 1227.0
287.125366 676.0
289.143005 1171.0
301.144836 3954.0
311.128174 1090.0
317.141327 1577.0
319.152313 2004.0
329.140289 67806.0
347.150177 68596.0
