>compound Glipizide
>formula C21H27N5O4S 
>ionization [M+H]+
>parentmass 446.185
#inchi InChI=1S/C21H27N5O4S/c1-15-13-24-19(14-23-15)20(27)22-12-11-16-7-9-18(10-8-16)31(29,30)26-21(28)25-17-5-3-2-4-6-17/h7-10,13-14,17H,2-6,11-12H2,1H3,(H,22,27)(H2,25,26,28)
#inchikey ZJJXGWJIGJFDTL
#Ion_Source LC-ESI
#Instrument qTof
#Compound_Source Isolated
#PI Sirenas
#Data_Collector Ed Esquenazi 
#Scan -1
#Precursor_MZ 446.185
#ExactMass 0.0
#Charge 1
#CAS_Number N/A
#Pubmed_ID N/A
#Smiles N/A
#INCHI_AUX N/A
#Library_Class 3
#SpectrumID CCMSLIB00000006565
#IonMode Positive
#UpdateWorkflowName UPDATE-SINGLE-ANNOTATED-BRONZE
#LibraryQualityString Bronze
#TaskID d19310cd93df49b68e9fcbec27720eb5
##Scan# 13
#SpectrumFile Glipizide.mgf
#LibraryName fda_library.mgf
#MQScore -1
#Organism fda_library
#TIC_Query 0
#RT_Query -1
#MZErrorPPM -1
#SharedPeaks 0
#MassDiff 0
#LibMZ -1
#SpecMZ 446.185
#SpecCharge 0
#internalFilename spec-00000.mgf

>collision 10
100.113007 190.338394
100.417885 19.79431
120.054298 24.027781
256.111328 21.025841
290.948822 10.57615
319.044067 23.43539
319.342651 12.62976
319.389587 14.4692
321.099762 1327.657959
321.750305 10.67949
321.812714 13.80474
322.107483 82.335274
347.081299 370.330902
347.280334 16.678671
347.404694 23.230391
347.539001 12.05357
368.130646 18.15188
368.872284 16.6413
406.129578 21.614771
446.198395 102.7967
522.986877 10.02422
964.104675 18.60952
