>compound BUPROPION HYDROCHLORIDE
>formula C13H18ClNO
>ionization [M+H]+
>parentmass 240.115845
#inchi InChI=1S/C13H18ClNO/c1-9(15-13(2,3)4)12(16)10-6-5-7-11(14)8-10/h5-9,15H,1-4H3
#inchikey SNPPWIUOZRMYNY
#Ion_Source LC-ESI
#Instrument qTof
#Compound_Source Commercial
#PI Dorrestein
#Data_Collector Garg_Neha
#Scan -1
#Precursor_MZ 240.115
#ExactMass 239.108
#Charge 1
#CAS_Number N/A
#Pubmed_ID N/A
#Smiles CC(NC(C)(C)C)C(=O)c1cccc(Cl)c1
#INCHI_AUX N/A
#Library_Class 1
#SpectrumID CCMSLIB00000078899
#IonMode Positive
#UpdateWorkflowName UPDATE-SINGLE-ANNOTATED-GOLD
#LibraryQualityString Gold
#TaskID 278b19f5865741e282cec7349aa7e7a1
##Scan# 1099
#SpectrumFile NCP003272_A2_B11_BB8_01_15713.mzXML
#LibraryName NIHcollectionI_05062014.mgf
#MQScore -1
#Organism NIHcollectionI_05062014
#TIC_Query 0
#RT_Query -1
#MZErrorPPM -1
#SharedPeaks 0
#MassDiff 0
#LibMZ -1
#SpecMZ 240.115
#SpecCharge 0
#internalFilename spec-00000.mgf

>collision 10
44.956734 140.0
45.145287 204.0
45.471958 196.0
45.517822 184.0
45.547371 252.0
45.62112 104.0
45.661617 264.0
45.704662 304.0
45.742348 144.0
45.814178 164.0
46.033569 156.0
46.064632 176.0
46.091656 164.0
46.128021 172.0
46.15789 184.0
46.21064 160.0
46.487061 192.0
46.504704 220.0
46.523304 148.0
46.540138 160.0
46.636456 156.0
46.666363 164.0
46.919598 156.0
47.054665 144.0
47.065586 140.0
47.142746 140.0
47.181175 200.0
47.363724 192.0
47.387012 140.0
47.41853 172.0
47.573528 188.0
47.599617 164.0
47.644943 188.0
47.655933 140.0
47.715034 140.0
47.744225 156.0
47.852615 144.0
47.917545 140.0
47.982124 148.0
48.024689 152.0
48.073158 204.0
48.09938 152.0
48.122162 152.0
48.143562 200.0
48.18224 260.0
48.208645 144.0
48.269314 148.0
48.290718 132.0
48.391079 192.0
48.445091 192.0
48.472012 176.0
48.636871 212.0
48.687824 148.0
48.816917 204.0
48.950653 216.0
49.04121 144.0
49.17662 144.0
49.272854 176.0
49.32037 140.0
49.594711 224.0
49.857166 192.0
49.875435 184.0
49.904961 168.0
50.460472 204.0
50.485695 148.0
50.507137 184.0
50.679852 180.0
50.719311 128.0
50.943737 140.0
51.068825 140.0
51.282398 184.0
51.518536 264.0
51.55928 148.0
51.609257 140.0
51.690842 224.0
51.796787 168.0
51.80825 144.0
51.868435 188.0
51.986042 196.0
52.191456 148.0
52.336781 168.0
52.426418 124.0
52.532787 172.0
52.705833 196.0
52.798557 144.0
52.839058 168.0
53.011364 176.0
53.059196 188.0
53.165081 148.0
53.176693 184.0
53.208626 160.0
53.37368 160.0
53.522972 160.0
53.57803 148.0
53.709225 176.0
53.736942 220.0
53.760067 152.0
53.915089 204.0
53.992573 188.0
54.157959 220.0
54.361744 168.0
54.417522 264.0
54.543861 200.0
54.557091 140.0
54.646122 224.0
54.85593 156.0
54.880993 176.0
54.940506 204.0
54.990158 140.0
55.065456 144.0
55.432343 148.0
55.442715 148.0
55.453514 168.0
55.629604 156.0
55.699394 156.0
55.788555 176.0
55.97007 172.0
56.129505 196.0
56.160824 260.0
56.19215 152.0
56.278717 200.0
56.300713 148.0
56.370674 164.0
56.441586 144.0
56.643627 164.0
56.862114 184.0
57.011219 148.0
57.063717 108.0
57.128498 148.0
57.285057 144.0
57.387539 144.0
57.425236 192.0
57.521805 204.0
57.567059 156.0
57.662277 168.0
57.672855 204.0
57.734844 148.0
57.770714 196.0
57.776203 140.0
57.919491 176.0
58.09129 312.0
58.145405 204.0
58.337524 124.0
58.644268 184.0
58.711349 148.0
59.031307 232.0
59.137608 168.0
59.335217 156.0
59.404228 160.0
59.456394 152.0
59.533154 200.0
59.55312 140.0
59.628403 180.0
59.64151 152.0
59.694508 204.0
59.719116 144.0
59.736034 192.0
59.843342 160.0
59.866863 188.0
60.150551 152.0
60.284924 172.0
60.455029 208.0
60.524689 192.0
60.540173 172.0
60.558758 192.0
60.572697 140.0
60.707539 184.0
60.772171 180.0
60.804642 176.0
60.93882 204.0
60.987297 184.0
61.036743 172.0
61.074066 172.0
61.101273 100.0
61.251514 164.0
61.544708 148.0
61.657181 172.0
61.755676 244.0
61.840168 168.0
61.899658 216.0
61.945076 272.0
62.15987 200.0
62.369587 180.0
62.669327 144.0
62.680355 168.0
62.696114 168.0
62.866432 204.0
62.988003 172.0
63.022758 244.0
63.068588 204.0
63.19067 200.0
63.804127 196.0
63.855629 176.0
64.329842 156.0
64.398499 188.0
64.448029 164.0
64.636139 192.0
64.774391 156.0
64.80162 160.0
64.825661 196.0
64.934677 152.0
65.015106 148.0
65.223335 304.0
65.34832 96.0
65.485954 160.0
65.614868 156.0
65.751976 172.0
65.785873 176.0
65.815018 148.0
66.10778 96.0
66.135025 216.0
66.360199 156.0
66.391006 140.0
66.418579 144.0
66.585754 176.0
66.69136 196.0
66.710869 160.0
66.816574 164.0
66.846764 184.0
66.896317 132.0
67.033127 224.0
67.290321 224.0
67.389656 144.0
67.440765 212.0
67.503738 260.0
67.655418 228.0
67.71273 168.0
67.752045 180.0
67.850372 148.0
67.906128 160.0
67.99308 140.0
68.066353 176.0
68.103081 140.0
68.282234 172.0
68.460724 140.0
68.596718 156.0
68.651131 168.0
68.77729 160.0
68.797974 168.0
68.826042 180.0
68.878891 276.0
68.910278 168.0
68.995728 200.0
69.107033 140.0
69.320633 196.0
69.449951 172.0
69.503036 156.0
69.562782 180.0
69.595985 200.0
69.622475 160.0
69.659096 212.0
69.782509 184.0
69.803688 176.0
69.860237 148.0
69.968414 288.0
70.088333 176.0
70.099998 228.0
70.178497 168.0
70.280083 172.0
70.328476 208.0
70.413628 172.0
70.480446 180.0
70.555656 252.0
70.629242 176.0
70.810005 224.0
70.888741 144.0
70.909485 132.0
70.975906 148.0
71.229324 152.0
71.285538 192.0
71.404129 148.0
71.569038 164.0
71.590935 164.0
71.604408 160.0
71.675156 180.0
71.762291 220.0
71.853882 172.0
71.885941 152.0
71.926445 188.0
71.945015 196.0
72.032829 200.0
72.051407 152.0
72.06855 136.0
72.157883 256.0
72.191704 160.0
72.277969 164.0
72.299973 180.0
72.320282 156.0
72.581169 148.0
72.697464 140.0
72.772903 196.0
72.878212 164.0
72.997887 108.0
73.041412 200.0
73.111176 148.0
73.226944 160.0
73.431465 184.0
73.458755 180.0
73.487755 156.0
73.53212 148.0
73.583336 148.0
73.648941 156.0
73.757584 224.0
73.861885 228.0
73.873863 144.0
73.902046 244.0
73.979958 172.0
74.245537 180.0
74.353622 168.0
74.424004 188.0
74.564865 144.0
74.693817 156.0
74.736832 180.0
74.755936 176.0
74.841827 160.0
74.869804 160.0
74.900375 180.0
75.401711 176.0
75.725998 164.0
75.769302 188.0
75.816681 128.0
75.93998 156.0
76.055428 160.0
76.087662 116.0
76.347313 168.0
76.455215 160.0
76.488243 164.0
76.875534 224.0
76.984184 160.0
77.002129 192.0
77.041862 176.0
77.070732 192.0
77.102188 192.0
77.114418 140.0
77.128403 204.0
77.175964 176.0
77.217575 196.0
77.259552 156.0
77.383812 252.0
77.795807 144.0
77.894142 164.0
77.90995 220.0
77.948608 212.0
77.981995 140.0
78.034737 172.0
78.145576 176.0
78.298683 156.0
78.566605 204.0
78.610718 140.0
78.642487 180.0
78.698975 148.0
78.716827 144.0
78.857964 192.0
78.919838 228.0
79.052498 160.0
79.153397 152.0
79.298668 144.0
79.538116 144.0
79.659622 140.0
79.675789 144.0
79.706192 144.0
79.90419 224.0
80.271111 156.0
80.528091 140.0
80.551315 176.0
80.572754 204.0
80.644226 184.0
80.679611 192.0
80.73362 140.0
80.894951 192.0
80.989555 140.0
81.097061 196.0
81.20105 140.0
81.233337 156.0
81.294334 180.0
81.349976 160.0
81.423592 144.0
81.985825 188.0
82.02906 188.0
82.111092 256.0
82.134537 208.0
82.169716 216.0
82.298759 152.0
82.436043 160.0
82.538864 204.0
82.621674 132.0
82.659889 152.0
82.716377 148.0
82.747154 260.0
82.913017 176.0
83.017136 176.0
83.145943 160.0
83.168533 160.0
83.263947 172.0
83.280296 144.0
83.293007 160.0
83.458389 192.0
83.506081 228.0
83.570305 120.0
83.63485 196.0
83.951859 216.0
84.143448 172.0
84.20005 144.0
84.320633 156.0
84.441299 328.0
84.538261 192.0
84.602318 140.0
84.77449 204.0
84.81115 148.0
84.986534 144.0
85.091812 164.0
85.147408 160.0
85.168945 160.0
85.309006 180.0
85.567993 180.0
85.775772 152.0
85.879417 148.0
85.916542 160.0
85.936607 160.0
86.108284 252.0
86.415138 180.0
86.429939 204.0
86.452148 268.0
86.787422 156.0
86.809677 196.0
86.869026 156.0
87.123352 192.0
87.229271 216.0
87.262474 168.0
87.279472 236.0
87.347321 232.0
87.399979 152.0
87.718842 168.0
87.742081 112.0
87.782234 152.0
87.825127 144.0
88.026688 204.0
88.061653 160.0
88.206039 268.0
88.220993 140.0
88.239693 188.0
88.275215 144.0
88.589653 160.0
88.612137 156.0
88.801468 180.0
88.852112 184.0
88.865242 264.0
88.979729 224.0
89.047333 216.0
89.229485 124.0
89.359375 164.0
89.606728 164.0
89.651237 224.0
89.715317 160.0
90.042778 132.0
90.113533 152.0
90.30394 176.0
90.486122 164.0
90.595963 160.0
90.630066 140.0
90.647118 144.0
90.669861 184.0
91.127174 172.0
91.189407 144.0
91.410484 176.0
91.520882 292.0
91.753326 172.0
91.919266 180.0
91.986061 180.0
92.136925 208.0
92.157944 212.0
92.171318 148.0
92.314789 148.0
92.507462 132.0
92.525154 184.0
92.546219 196.0
92.594086 156.0
92.664963 188.0
92.801041 200.0
92.91346 224.0
92.933388 140.0
92.964294 188.0
93.138039 212.0
93.266449 212.0
93.542603 188.0
93.577255 168.0
93.704369 160.0
93.735199 140.0
93.931854 224.0
93.955002 160.0
93.977623 176.0
94.165398 268.0
94.318039 248.0
94.466934 148.0
94.567551 184.0
94.6082 156.0
94.644989 188.0
94.923355 164.0
94.966682 160.0
95.040398 160.0
95.19957 232.0
95.23259 144.0
95.549438 168.0
95.563065 236.0
95.633118 160.0
95.687622 140.0
95.927551 176.0
96.001335 140.0
96.479698 176.0
96.80645 172.0
96.836906 124.0
97.02002 172.0
97.045509 232.0
97.122665 176.0
97.363998 312.0
97.400711 184.0
97.420731 168.0
97.455719 160.0
97.766411 176.0
97.856377 232.0
98.047234 112.0
98.337944 152.0
98.353737 140.0
98.554222 100.0
98.594696 176.0
98.737038 144.0
98.764725 164.0
98.796371 180.0
98.857712 172.0
98.970543 184.0
99.051735 228.0
99.148819 248.0
99.379677 184.0
99.406624 168.0
99.426468 156.0
99.447525 204.0
99.534821 172.0
99.57338 172.0
99.684631 152.0
99.730339 144.0
99.874779 168.0
100.212509 176.0
100.235832 160.0
100.367393 156.0
100.411263 196.0
100.487068 276.0
100.520988 144.0
100.540939 208.0
100.704651 188.0
100.720634 160.0
100.818527 140.0
100.893105 168.0
100.976471 204.0
101.044479 144.0
101.153069 212.0
101.200592 164.0
101.234634 204.0
101.374664 184.0
101.462242 160.0
101.49633 160.0
101.713806 172.0
101.804153 176.0
101.87043 148.0
101.960472 148.0
102.011101 144.0
102.048531 240.0
102.309967 140.0
102.431244 228.0
102.566673 148.0
102.590858 148.0
102.627151 160.0
102.656403 260.0
102.723923 244.0
103.034973 172.0
103.054993 10732.0
103.128777 148.0
103.176842 152.0
103.204109 168.0
103.266083 152.0
103.301689 212.0
103.396004 144.0
103.603317 156.0
103.909447 184.0
104.059639 1448.0
104.136803 144.0
104.157112 176.0
104.179459 144.0
104.21196 188.0
104.464058 184.0
104.521019 156.0
104.610573 204.0
104.649254 188.0
104.767059 232.0
104.8713 152.0
104.969154 228.0
105.018097 156.0
105.221764 144.0
105.41333 208.0
105.516357 240.0
105.594063 148.0
105.809586 196.0
105.974808 168.0
106.028854 236.0
106.065758 180.0
106.146988 284.0
106.204414 144.0
106.257744 208.0
106.401405 180.0
106.475777 148.0
106.553383 208.0
106.793892 148.0
106.828865 156.0
106.894699 176.0
106.917336 188.0
107.131477 140.0
107.174744 140.0
107.308716 148.0
107.327271 168.0
107.376762 208.0
107.445343 128.0
107.473717 152.0
107.560394 160.0
107.620262 196.0
107.802032 156.0
107.955009 168.0
107.979828 144.0
108.03154 144.0
108.257141 148.0
108.298332 220.0
108.354492 184.0
108.540398 144.0
108.609467 172.0
108.887589 140.0
109.255501 168.0
109.278389 184.0
109.367874 260.0
109.519867 188.0
109.64003 184.0
109.722 188.0
109.759529 188.0
109.92849 148.0
110.185318 140.0
110.352516 152.0
110.379959 132.0
110.668449 152.0
110.718704 160.0
110.830437 200.0
111.000404 404.0
111.17572 196.0
111.194611 160.0
111.26545 188.0
111.412605 216.0
111.465508 168.0
111.57901 176.0
111.888275 152.0
111.905113 272.0
112.116165 144.0
112.307617 196.0
112.362457 196.0
112.461639 292.0
112.581978 152.0
112.611549 192.0
112.877007 144.0
112.894745 140.0
112.95504 236.0
113.011086 376.0
113.248177 164.0
113.263008 228.0
113.322319 212.0
113.371056 156.0
113.447357 156.0
113.513084 156.0
113.677582 220.0
113.723114 144.0
113.744339 140.0
113.880234 148.0
113.977951 176.0
114.005577 204.0
114.035332 172.0
114.148003 148.0
114.631218 148.0
114.648262 144.0
114.678101 208.0
114.711319 232.0
114.846542 168.0
114.902 256.0
115.011162 184.0
115.188065 212.0
115.319084 212.0
115.500336 180.0
115.58358 240.0
115.823761 148.0
115.84906 188.0
115.876915 140.0
115.934769 160.0
116.024788 160.0
116.052826 160.0
116.368057 140.0
116.413147 184.0
116.506073 152.0
116.703232 172.0
116.729034 172.0
116.791405 216.0
116.843033 152.0
116.987221 184.0
117.144272 180.0
117.369476 216.0
117.465607 192.0
117.560539 164.0
117.618752 148.0
117.854904 220.0
117.944977 156.0
117.975235 176.0
118.0401 152.0
118.070374 252.0
118.198006 140.0
118.286743 148.0
118.32354 172.0
118.479469 172.0
118.671593 232.0
118.695435 168.0
118.993462 164.0
119.067841 128.0
119.354141 208.0
119.39328 144.0
119.478111 156.0
119.692711 268.0
119.817795 136.0
120.040054 196.0
120.293137 180.0
120.360817 184.0
120.566154 176.0
120.607681 140.0
120.769485 144.0
121.026802 124.0
121.246773 180.0
121.280777 132.0
121.345413 196.0
121.367935 192.0
121.391457 140.0
121.60936 148.0
121.698654 152.0
121.885635 124.0
122.0634 224.0
122.17337 188.0
122.217278 184.0
122.287796 212.0
122.347229 172.0
122.404472 216.0
122.433098 148.0
122.574081 232.0
122.641815 180.0
122.711281 180.0
122.794533 168.0
122.809975 156.0
122.845268 164.0
123.058655 116.0
123.106354 232.0
123.251495 156.0
123.266968 164.0
123.313377 148.0
123.503517 172.0
124.008339 140.0
124.070404 176.0
124.328178 148.0
124.363213 216.0
124.687477 196.0
124.771942 164.0
124.849762 208.0
124.9039 172.0
125.012161 172.0
125.237022 160.0
125.428642 180.0
125.624794 108.0
125.66436 172.0
125.729744 192.0
125.803398 172.0
126.102715 184.0
126.241318 220.0
126.384483 220.0
126.639687 176.0
126.843582 160.0
126.92205 184.0
126.969147 160.0
127.010284 280.0
127.404594 160.0
127.480988 160.0
127.620354 148.0
127.674316 164.0
127.805313 172.0
127.980354 348.0
128.049698 544.0
128.070435 176.0
128.178574 164.0
128.227798 204.0
128.429871 116.0
128.453629 164.0
128.555145 184.0
128.630371 172.0
128.688583 176.0
128.732452 152.0
128.796722 204.0
128.869019 164.0
128.884827 148.0
129.054169 204.0
129.081482 192.0
129.126709 160.0
129.201355 144.0
129.276031 156.0
129.29187 160.0
129.316757 160.0
129.408447 176.0
129.557236 140.0
129.655045 176.0
129.674042 256.0
129.693359 192.0
129.755219 200.0
129.858261 192.0
129.902847 128.0
129.94899 148.0
129.969421 176.0
130.005722 340.0
130.065796 80884.0
130.131516 156.0
130.331238 184.0
130.358246 124.0
130.387329 180.0
130.435059 104.0
130.483597 120.0
130.504974 112.0
130.587875 180.0
130.603058 292.0
130.620148 136.0
130.694565 172.0
130.714615 168.0
130.797684 208.0
130.849274 172.0
130.894547 188.0
130.914993 164.0
130.995346 308.0
131.023453 320.0
131.049973 936.0
131.074188 153980.0
131.11937 260.0
131.192383 176.0
131.252991 144.0
131.333984 164.0
131.448639 1532.0
131.476929 132.0
131.585709 120.0
131.625992 212.0
131.695862 108.0
131.706375 96.0
131.8228 104.0
131.8479 176.0
131.896667 144.0
131.96666 124.0
131.986237 316.0
132.057693 2616.0
132.076874 13180.0
132.185257 120.0
132.218094 112.0
132.269333 144.0
132.319778 168.0
132.442963 192.0
132.519135 264.0
132.698868 200.0
132.819504 188.0
132.914078 208.0
132.990829 156.0
133.014862 220.0
133.060471 356.0
133.077728 1056.0
133.108932 164.0
133.139923 108.0
133.209091 156.0
133.452698 184.0
133.721848 164.0
133.793137 156.0
133.915237 184.0
134.02121 344.0
134.06282 324.0
134.258636 168.0
134.51474 172.0
135.071625 228.0
135.210449 140.0
135.302261 208.0
135.457001 132.0
135.480988 200.0
135.705582 128.0
136.130798 188.0
136.409515 116.0
136.53981 168.0
136.644394 112.0
136.986694 152.0
137.166122 180.0
137.38533 172.0
137.61171 140.0
137.64534 128.0
137.665405 140.0
137.81958 148.0
137.853683 164.0
137.966812 140.0
137.982727 168.0
138.033875 112.0
138.289627 152.0
138.437119 152.0
138.455841 172.0
138.534058 176.0
138.772186 144.0
138.82399 172.0
138.912903 156.0
138.963974 140.0
138.994949 4756.0
139.031601 65596.0
139.093765 100.0
139.130981 120.0
139.201508 120.0
139.228912 100.0
139.263916 220.0
139.41658 152.0
139.62384 112.0
139.969589 236.0
139.997528 168.0
140.034988 3480.0
140.067062 152.0
140.09903 148.0
140.162231 112.0
140.187225 168.0
140.244812 136.0
140.573959 140.0
140.767532 180.0
140.807098 116.0
140.933563 272.0
140.99115 1312.0
141.028183 15440.0
141.098831 128.0
141.164963 120.0
141.190979 208.0
141.209457 168.0
141.257431 96.0
141.446747 164.0
141.644958 244.0
141.697418 236.0
141.786331 144.0
141.993378 156.0
142.032654 772.0
142.057419 144.0
142.085785 180.0
142.21759 104.0
142.767593 140.0
142.993607 148.0
143.494736 128.0
143.983002 140.0
144.102432 156.0
144.361343 176.0
144.60939 140.0
144.784164 224.0
144.997391 196.0
145.051437 188.0
145.489105 140.0
145.748489 160.0
145.851837 164.0
145.960022 188.0
146.061569 124.0
146.15004 152.0
146.178909 164.0
146.467819 152.0
146.532867 168.0
147.063187 172.0
147.135788 164.0
147.372482 164.0
147.401474 224.0
147.648056 176.0
147.677628 192.0
148.07753 516.0
148.459335 200.0
148.578888 164.0
148.799026 176.0
149.016556 164.0
149.03949 160.0
149.078369 164.0
149.221771 152.0
149.552277 144.0
149.568115 196.0
150.007538 208.0
150.07637 300.0
150.343597 160.0
150.398392 148.0
150.420349 240.0
150.571732 148.0
151.018524 5032.0
151.175568 148.0
151.207382 164.0
151.283905 268.0
151.32489 212.0
151.94986 212.0
152.022751 320.0
152.437759 180.0
152.905716 144.0
153.015167 1512.0
153.272644 144.0
153.525528 212.0
153.543808 176.0
153.590668 188.0
153.612869 152.0
153.633133 152.0
153.701691 140.0
153.970764 196.0
154.103027 164.0
154.287872 228.0
154.932953 192.0
154.952774 212.0
155.16095 204.0
155.431305 196.0
156.039825 196.0
156.151718 172.0
156.47023 180.0
156.53746 148.0
156.60968 160.0
156.721786 144.0
156.881287 148.0
157.337814 224.0
157.507629 140.0
157.601562 204.0
157.827515 180.0
158.072784 360.0
158.150238 156.0
158.322983 180.0
158.550949 228.0
158.632065 268.0
158.889465 144.0
159.294769 168.0
159.363983 216.0
159.54744 204.0
160.344147 244.0
160.554626 148.0
160.574799 140.0
161.021515 156.0
161.253952 172.0
161.570023 144.0
161.597855 188.0
161.691483 160.0
161.757294 176.0
161.840836 204.0
161.868683 180.0
162.307053 188.0
162.411026 140.0
162.767914 224.0
162.972061 184.0
163.005096 216.0
163.325424 152.0
164.010361 252.0
164.199036 208.0
164.283218 140.0
164.678864 152.0
164.773041 124.0
164.839798 208.0
164.938644 232.0
165.029266 156.0
165.244873 176.0
165.27449 148.0
165.415253 144.0
165.509338 192.0
165.655167 116.0
165.694382 184.0
165.794968 184.0
165.835327 204.0
165.867584 288.0
165.921356 236.0
165.969864 200.0
166.00618 520.0
166.042389 142780.0
166.110443 216.0
166.21698 180.0
166.291931 132.0
166.338058 200.0
166.356995 224.0
166.413101 172.0
166.509048 128.0
166.546402 132.0
166.575592 140.0
166.593353 168.0
166.645538 176.0
166.679382 136.0
166.708649 200.0
166.734146 164.0
166.790146 160.0
166.813278 216.0
166.854584 304.0
166.890182 180.0
166.974594 576.0
166.993332 160.0
167.026657 56460.0
167.232895 320.0
167.261612 180.0
167.311615 160.0
167.341919 172.0
167.434784 188.0
167.682236 120.0
167.788437 164.0
167.851883 108.0
168.003769 432.0
168.038879 34044.0
168.120056 176.0
168.142334 268.0
168.164352 212.0
168.308044 124.0
168.362 96.0
168.412186 160.0
168.465683 216.0
168.568176 128.0
168.656311 168.0
168.730942 184.0
168.881958 140.0
168.899368 212.0
169.023087 14536.0
169.129654 284.0
169.291 112.0
169.37355 184.0
169.393097 228.0
169.419678 152.0
169.446198 100.0
169.5784 156.0
169.958939 184.0
169.977112 180.0
170.026108 1432.0
170.080292 132.0
170.112061 140.0
170.151291 144.0
170.308426 100.0
170.405258 116.0
170.775558 104.0
170.964569 184.0
171.470428 152.0
172.097076 148.0
172.218613 160.0
172.249222 200.0
172.453766 156.0
172.529572 168.0
172.609695 136.0
172.864349 192.0
173.112793 132.0
173.295349 200.0
174.477417 216.0
175.178955 104.0
175.290726 228.0
175.459412 192.0
175.543777 156.0
175.666473 100.0
176.233047 156.0
176.460754 156.0
176.655716 140.0
177.167343 132.0
177.509567 112.0
177.556274 184.0
177.647446 160.0
177.736649 164.0
177.837494 200.0
178.142853 148.0
178.188019 176.0
178.302277 200.0
178.536224 200.0
178.581436 144.0
178.637299 180.0
178.663895 144.0
178.717117 148.0
178.969971 152.0
179.079147 184.0
179.121368 108.0
179.243652 96.0
179.657578 148.0
179.837448 244.0
179.881729 156.0
179.967163 140.0
180.16748 144.0
180.557724 148.0
181.277847 160.0
181.312683 144.0
181.425262 196.0
181.945709 148.0
182.373245 204.0
182.80043 140.0
182.878479 164.0
183.022095 96.0
183.073364 100.0
183.108566 160.0
183.255066 204.0
183.32016 148.0
183.365082 184.0
183.46936 100.0
183.513458 112.0
183.543884 140.0
183.587036 248.0
183.639771 144.0
183.712204 132.0
183.769302 160.0
183.837646 144.0
183.892471 184.0
183.912643 172.0
183.942017 176.0
183.97731 216.0
183.998062 184.0
184.023117 920.0
184.054596 216972.0
184.140472 252.0
184.239548 164.0
184.269684 220.0
184.304474 464.0
184.381012 200.0
184.410553 136.0
184.442841 208.0
184.467728 280.0
184.497238 10064.0
184.546936 192.0
184.587982 100.0
184.624557 208.0
184.672668 164.0
184.698914 148.0
184.726685 152.0
184.750824 272.0
184.791107 272.0
184.87001 104.0
184.97052 188.0
185.055847 35252.0
185.118332 144.0
185.224686 308.0
185.272873 172.0
185.371185 144.0
185.489944 132.0
185.534378 300.0
185.606628 224.0
185.655533 128.0
185.741058 240.0
185.797119 352.0
185.823486 128.0
185.847397 148.0
185.909286 200.0
185.950836 156.0
185.982895 268.0
186.05072 128300.0
186.156601 100.0
186.225082 256.0
186.270798 220.0
186.281006 340.0
186.310822 200.0
186.34111 252.0
186.379242 256.0
186.415192 204.0
186.456345 224.0
186.496902 272.0
186.534119 188.0
186.584824 200.0
186.617737 176.0
186.830795 124.0
186.856155 160.0
187.053177 4092.0
187.108978 100.0
187.375687 136.0
187.431549 136.0
187.661087 124.0
187.829483 208.0
188.008606 156.0
188.204102 188.0
188.243774 172.0
188.298294 100.0
188.37236 132.0
188.548843 148.0
188.574341 152.0
189.199936 96.0
189.87326 128.0
190.200974 100.0
190.632492 176.0
191.364151 108.0
192.050323 144.0
194.143951 148.0
194.166138 176.0
194.793518 108.0
195.327118 176.0
196.663437 156.0
198.477386 180.0
199.873169 128.0
199.969086 164.0
202.062881 200.0
202.31192 196.0
203.443024 144.0
204.002655 144.0
204.065201 144.0
209.609558 180.0
210.521103 172.0
212.817337 148.0
214.373535 240.0
214.726288 180.0
216.093246 96.0
216.432877 212.0
217.400223 196.0
217.523483 148.0
222.482925 140.0
224.577789 168.0
225.075424 136.0
229.598465 168.0
229.776428 184.0
236.908707 140.0
237.202881 148.0
238.803024 148.0
238.950256 204.0
239.051788 156.0
239.08902 204.0
239.534286 104.0
239.675629 128.0
239.795914 96.0
239.826141 180.0
239.892624 140.0
240.075302 152.0
240.115845 103656.0
240.323288 112.0
240.464645 136.0
240.510651 216.0
240.586273 112.0
240.62233 184.0
240.882828 140.0
241.024872 120.0
241.119049 9656.0
241.296753 120.0
241.789093 140.0
241.883499 96.0
242.113083 25492.0
242.190155 112.0
242.376755 172.0
242.797226 108.0
242.930786 104.0
243.114914 1548.0
243.574387 96.0
243.663467 100.0
244.678146 108.0
244.758972 112.0
244.8797 120.0
257.795074 152.0
261.579651 148.0
287.397644 120.0
366.798645 144.0
401.380402 148.0
536.400574 148.0
552.997009 140.0
586.504883 148.0
596.34491 160.0
856.075073 172.0
960.92981 144.0
964.666138 192.0
971.087158 152.0
994.622681 152.0
1006.578247 164.0
1007.127686 148.0
1022.827393 160.0
1026.556396 224.0
1033.670532 224.0
1036.270142 164.0
1040.022461 144.0
1043.857056 160.0
1044.217163 156.0
1045.310791 232.0
1045.941528 184.0
1047.13269 180.0
1051.510254 240.0
1062.62085 160.0
1073.985474 144.0
1075.603638 176.0
1077.242676 188.0
1077.314453 168.0
1083.070923 192.0
1084.591064 168.0
1086.026978 164.0
1094.682251 140.0
1099.111938 164.0
1103.008423 320.0
1107.600586 152.0
1115.118042 292.0
1118.177368 264.0
1119.781982 224.0
1136.695435 140.0
1138.125244 208.0
1138.393799 144.0
1138.783325 176.0
1156.170776 140.0
1160.831421 208.0
1164.48938 152.0
1167.615723 208.0
1170.861938 152.0
1174.903931 156.0
1181.55127 216.0
1185.310181 192.0
1185.899536 140.0
1187.956543 204.0
1188.045776 144.0
1189.164185 164.0
1190.38623 200.0
1194.798828 176.0
1196.574463 192.0
1196.870483 176.0
1198.100586 288.0
1200.233032 180.0
1208.237915 168.0
1210.611938 160.0
1213.113159 144.0
1213.979858 140.0
1215.256226 180.0
1221.675537 168.0
1222.879395 152.0
1225.288696 208.0
1229.765503 204.0
1230.456543 256.0
1230.631104 144.0
1233.663086 200.0
1235.614258 204.0
1236.51001 144.0
1237.588013 204.0
1245.905884 168.0
1247.437866 224.0
1252.363403 148.0
1257.806763 160.0
1268.020142 188.0
1275.11731 140.0
1276.020142 156.0
1278.381592 148.0
1279.157349 184.0
1285.179443 192.0
1286.671143 168.0
1292.696533 144.0
1294.965942 168.0
1297.516846 140.0
1299.011719 208.0
1302.656372 208.0
1304.465942 220.0
1309.596313 168.0
1311.808472 160.0
1311.887817 152.0
1313.539062 148.0
1318.535522 172.0
1321.254272 192.0
1326.432007 144.0
1327.193237 148.0
1330.044434 156.0
1331.903198 176.0
1334.330322 148.0
1336.170288 144.0
1339.606445 176.0
1339.897827 164.0
1340.772217 220.0
1347.054321 140.0
1347.207642 180.0
1347.42688 148.0
1349.758423 256.0
1350.102173 148.0
1352.194458 300.0
1353.805054 216.0
1355.365356 140.0
1362.078125 140.0
1362.643799 152.0
1363.709229 184.0
1364.275269 144.0
1364.74585 144.0
1365.628296 164.0
1366.260864 152.0
1371.503906 196.0
1372.5802 156.0
1376.545532 148.0
1386.492554 188.0
1389.243408 188.0
1393.675659 168.0
1395.318237 192.0
1404.589478 140.0
1412.051147 200.0
1412.739258 156.0
1414.625122 176.0
1422.518555 200.0
1425.823364 156.0
1427.883301 152.0
1428.394775 144.0
1430.976074 156.0
1433.386353 216.0
1434.501831 188.0
1435.218018 224.0
1437.661987 144.0
1438.416748 200.0
1442.170776 160.0
1446.19458 184.0
1446.61853 140.0
1447.171143 160.0
1448.185913 140.0
1451.141235 164.0
1451.641724 188.0
1460.618774 180.0
1463.388794 196.0
1466.016724 152.0
1467.747192 156.0
1468.319092 240.0
1471.775879 140.0
1481.220825 168.0
1481.74939 200.0
1483.412354 144.0
1490.557739 152.0
1491.641357 144.0
1491.702881 192.0
1491.89502 204.0
1494.540649 148.0
1495.43335 192.0
1495.533447 160.0
1498.251587 164.0
1499.607056 160.0
1500.116577 196.0
1500.278442 164.0
1505.594727 180.0
1508.407104 332.0
1508.886353 144.0
1508.948242 160.0
1509.056519 164.0
1513.985474 172.0
1515.356567 140.0
1516.611938 144.0
1518.371948 184.0
1518.589111 144.0
1518.953613 184.0
1522.306396 176.0
1525.219849 192.0
1526.152832 220.0
1528.481567 184.0
1529.567993 212.0
1530.081787 148.0
1532.472778 196.0
1533.049438 152.0
1533.540405 148.0
1534.19519 160.0
1534.381226 148.0
1535.790039 232.0
1536.035522 140.0
1536.0979 244.0
1538.759033 188.0
1539.329102 160.0
1540.649048 140.0
1540.706543 144.0
1544.432373 160.0
1545.345215 192.0
1545.946411 100.0
1546.552856 152.0
1548.290894 248.0
1549.46582 196.0
1549.544189 228.0
1550.649048 196.0
1550.711792 164.0
1553.456177 192.0
1555.268799 140.0
1557.569458 140.0
1558.417847 160.0
1559.211548 208.0
1560.791626 180.0
1561.2948 160.0
1561.821777 196.0
1562.435425 180.0
1563.182861 160.0
1565.536621 144.0
1565.599609 168.0
1567.379028 196.0
1569.862915 216.0
1570.998657 144.0
1571.677124 176.0
1572.295898 188.0
1573.879395 180.0
1574.669067 148.0
1578.264648 160.0
1578.435059 184.0
1579.427124 172.0
1586.799805 244.0
1586.871094 200.0
1588.877686 144.0
1591.44519 180.0
1593.728638 160.0
1595.851685 172.0
1597.870972 164.0
1598.396118 188.0
1599.255615 156.0
1599.80481 200.0
1600.465698 192.0
1602.735718 176.0
1603.022583 176.0
1606.060059 192.0
1607.623779 164.0
1608.030884 144.0
1612.831055 156.0
1613.038818 216.0
1614.230103 152.0
1614.390015 176.0
1615.565796 228.0
1619.73645 168.0
1623.511353 140.0
1623.960449 204.0
1624.634277 220.0
1625.003296 140.0
1627.427246 188.0
1630.664551 196.0
1632.457275 168.0
1633.00415 148.0
1633.937256 200.0
1634.230835 148.0
1635.104004 152.0
1636.746216 144.0
1637.25354 184.0
1638.429565 168.0
1638.510132 144.0
1647.424561 156.0
1649.662964 200.0
1650.503784 172.0
1650.956665 180.0
1651.385254 168.0
1653.092285 188.0
1653.326904 180.0
1654.419678 200.0
1656.59436 212.0
1658.34021 144.0
1658.421265 176.0
1659.077759 176.0
1659.272339 188.0
1659.556152 212.0
1660.618408 192.0
1663.588257 188.0
1664.67627 140.0
1666.016357 196.0
1667.852783 212.0
1669.649658 140.0
1670.119751 200.0
1670.845337 180.0
1671.870605 156.0
1672.456543 176.0
1673.783569 180.0
1676.675415 168.0
1676.781372 220.0
1677.352661 140.0
1678.395508 240.0
1678.949951 156.0
1683.111694 196.0
1683.258667 168.0
1685.153687 152.0
1686.166992 172.0
1688.071777 148.0
1689.568481 200.0
1689.953003 276.0
1690.263916 156.0
1690.779541 180.0
1692.220215 144.0
1692.727783 168.0
1693.514038 188.0
1694.275879 152.0
1695.242676 144.0
1696.219971 180.0
1696.651245 140.0
1697.595337 172.0
1698.071045 140.0
1699.203003 200.0
1700.886353 208.0
1701.21936 180.0
1702.773682 188.0
1705.838501 196.0
1705.961792 224.0
1706.101562 156.0
1707.680298 160.0
1708.790894 140.0
1709.852417 248.0
1711.029419 264.0
1711.548096 144.0
1712.569336 188.0
1712.659912 144.0
1713.56604 184.0
1713.706177 184.0
1714.868042 164.0
1715.189453 164.0
1715.362671 164.0
1717.50647 148.0
1719.635254 156.0
1720.229492 148.0
1722.161743 148.0
1723.665283 188.0
1725.053711 176.0
1730.116455 188.0
1733.330078 168.0
1733.843872 224.0
1737.782593 148.0
1738.451538 168.0
1738.595825 176.0
1740.098267 180.0
1740.521729 180.0
1744.717407 164.0
1744.833862 212.0
1744.900391 172.0
1748.618652 176.0
1748.96814 152.0
1749.384399 172.0
1750.583252 148.0
1751.349487 144.0
1758.862183 168.0
1759.84729 164.0
1760.064331 144.0
1760.640503 180.0
1761.146729 164.0
1762.379272 128.0
1763.556274 188.0
1764.066162 144.0
1764.358765 172.0
1766.66687 180.0
1766.762695 116.0
1767.286011 140.0
1767.428223 240.0
1768.733765 208.0
1771.136963 148.0
1773.39917 184.0
1773.583618 144.0
1775.234985 148.0
1775.981689 148.0
1776.778198 100.0
1777.877686 140.0
1778.003662 144.0
1780.25354 152.0
1780.623047 152.0
1781.446167 164.0
1782.395508 184.0
1784.840454 160.0
1785.682495 180.0
1786.431152 204.0
1788.711548 172.0
1792.434082 164.0
1792.543579 156.0
1792.94812 232.0
1793.597046 148.0
1793.664551 188.0
1794.895386 168.0
1795.300171 172.0
1795.73999 124.0
1795.894531 268.0
1796.963623 136.0
1797.282471 168.0
1799.650879 184.0
1800.169312 192.0
1801.259277 160.0
1802.061401 140.0
1803.151489 188.0
1804.80835 204.0
1805.594727 200.0
1806.508179 180.0
1808.335938 260.0
1809.097778 164.0
1809.580322 196.0
1810.198364 208.0
1810.613403 156.0
1811.324829 164.0
1811.502686 148.0
1813.053223 164.0
1814.129639 188.0
1814.214478 204.0
1815.732178 176.0
1817.479736 244.0
1817.632446 152.0
1818.065186 152.0
1818.684814 160.0
1818.803589 212.0
1819.049805 200.0
1819.499634 204.0
1819.805298 236.0
1820.705444 188.0
1822.693237 160.0
1826.731567 144.0
1827.803589 208.0
1828.816284 184.0
1828.952515 232.0
1829.956055 192.0
1830.294189 152.0
1830.825562 156.0
1831.523926 156.0
1832.052002 168.0
1832.171387 184.0
1834.020508 240.0
1834.489258 236.0
1835.915894 224.0
1836.663696 156.0
1837.12439 188.0
1837.840942 152.0
1838.096924 156.0
1840.401611 176.0
1840.708984 188.0
1841.468994 144.0
1842.502563 148.0
1842.647827 216.0
1843.083618 172.0
1843.228882 184.0
1843.408325 196.0
1844.331299 144.0
1845.245972 220.0
1846.066895 192.0
1846.648438 272.0
1847.366943 172.0
1848.068481 184.0
1848.753052 188.0
1848.821411 176.0
1849.351807 104.0
1849.74585 188.0
1851.989258 268.0
1853.462769 220.0
1853.608398 164.0
1855.699829 212.0
1856.308594 140.0
1856.874634 172.0
1858.708618 172.0
1859.414062 172.0
1860.21228 156.0
1861.302612 176.0
1861.645142 168.0
1862.067017 164.0
1863.475708 148.0
1864.850708 204.0
1866.304565 224.0
1866.398071 192.0
1867.137573 148.0
1868.69458 140.0
1869.184937 228.0
1870.019775 152.0
1872.008423 172.0
1872.085938 184.0
1872.706055 172.0
1872.792114 160.0
1874.532349 220.0
1875.894165 144.0
1878.15332 228.0
1878.307251 172.0
1884.005981 148.0
1885.179321 160.0
1885.434814 240.0
1886.212036 176.0
1887.299072 144.0
1888.500854 232.0
1889.521606 148.0
1892.524902 176.0
1892.865601 176.0
1893.122314 152.0
1893.208984 180.0
1893.901855 152.0
1894.53418 152.0
1896.033203 148.0
1896.865234 160.0
1898.633911 216.0
1899.136963 216.0
1899.744141 144.0
1900.282104 208.0
1900.880737 168.0
1902.9552 196.0
1903.015991 160.0
1903.561157 148.0
1905.135132 220.0
1905.699829 184.0
1910.063965 140.0
1910.324951 160.0
1911.03833 200.0
1911.438477 328.0
1911.882324 188.0
1912.900635 164.0
1914.554932 168.0
1915.129761 148.0
1915.269165 336.0
1916.375488 148.0
1916.785034 276.0
1918.083618 140.0
1918.685059 164.0
1920.576782 168.0
1923.439331 140.0
1923.692505 180.0
1923.942017 256.0
1927.561523 148.0
1929.134766 188.0
1930.288818 196.0
1930.376343 148.0
1930.533691 164.0
1931.810669 148.0
1932.405518 204.0
1933.700684 140.0
1933.85083 212.0
1934.873657 168.0
1935.407715 156.0
1936.327148 248.0
1936.86145 200.0
1939.078125 156.0
1940.760986 164.0
1941.796021 140.0
1942.594238 220.0
1942.778442 296.0
1946.141602 228.0
1946.79834 156.0
1947.070557 228.0
1948.001587 144.0
1951.564819 232.0
1953.121216 144.0
1954.032349 160.0
1954.498657 196.0
1955.427734 200.0
1957.306641 180.0
1958.618774 176.0
1959.473267 180.0
1960.830322 160.0
1961.19165 228.0
1962.175415 160.0
1962.321899 176.0
1962.699219 172.0
1964.004395 176.0
1965.398193 244.0
1965.76709 260.0
1965.918823 144.0
1966.669067 188.0
1966.925049 152.0
1968.6875 156.0
1969.229492 144.0
1970.86377 152.0
1972.595947 180.0
1973.329712 168.0
1974.514648 152.0
1974.99231 236.0
1975.850342 176.0
1976.213135 172.0
1977.213013 160.0
1977.629028 172.0
1978.151245 208.0
1978.51416 208.0
1980.590576 192.0
1980.900635 128.0
1981.002563 200.0
1981.498169 140.0
1982.783569 160.0
1983.749756 180.0
1984.059937 152.0
1985.549683 156.0
1985.727051 148.0
1986.010864 160.0
1986.214844 152.0
1986.569702 188.0
1986.684937 140.0
1987.678711 188.0
1989.409302 152.0
1991.247314 204.0
1991.45166 140.0
1994.463745 140.0
1994.854858 164.0
1995.663818 152.0
1996.428589 212.0
1997.522583 184.0
1997.59375 228.0
1997.691528 200.0
1998.180908 176.0
1998.800659 176.0
1999.764771 160.0
2000.094116 152.0
2001.698242 204.0
2002.25769 172.0
2002.711914 148.0
2002.979126 160.0
2003.308716 172.0
