>compound MLS002154127-01!Iopanoic acid96-83-3
>formula C11H12I3NO2
>ionization [M+H]+
>parentmass 571.8074990760905
#inchi InChI=1S/C11H12I3NO2/c1-2-5(11(16)17)3-6-7(12)4-8(13)10(15)9(6)14/h4-5H,2-3,15H2,1H3,(H,16,17)
#inchikey OIRFJRBSRORBCM
#Ion_Source LC-ESI
#Instrument qTof
#Compound_Source NIH Pharmacologically Active Library
#PI Dorrestein
#Data_Collector VP/LMS
#Scan -1
#Precursor_MZ 571.82
#ExactMass 570.8
#Charge 1
#CAS_Number N/A
#Pubmed_ID N/A
#Smiles CCC(Cc1c(I)cc(I)c(N)c1I)C(=O)O
#INCHI_AUX N/A
#Library_Class 1
#SpectrumID CCMSLIB00000086088
#IonMode Positive
#UpdateWorkflowName UPDATE-SINGLE-ANNOTATED-GOLD
#LibraryQualityString Gold
#TaskID d252d724072548979f1f6f1ced849daf
##Scan# 2408
#SpectrumFile p5-D05_GD5_01_18456.mzXML
#LibraryName Pharm_Active_Library.mgf
#MQScore -1
#Organism Pharm_Active_Library
#TIC_Query 0
#RT_Query -1
#MZErrorPPM -1
#SharedPeaks 0
#MassDiff 0
#LibMZ -1
#SpecMZ 571.82
#SpecCharge 0
#internalFilename spec-00000.mgf

>collision 10
44.956814 116.0
45.011192 152.0
45.077 140.0
45.198681 116.0
45.289715 112.0
45.305786 44.0
45.340626 92.0
45.525753 108.0
45.607708 112.0
45.916027 140.0
45.949169 112.0
46.40131 180.0
46.428581 180.0
46.473343 120.0
46.606403 92.0
46.656693 88.0
46.700203 52.0
46.727409 100.0
46.741016 136.0
46.799545 60.0
46.817036 232.0
46.920799 100.0
47.008095 148.0
47.578842 212.0
47.643391 76.0
47.769112 152.0
47.812511 168.0
47.936886 164.0
47.952988 176.0
48.133366 220.0
48.30093 92.0
48.388111 72.0
48.407494 164.0
48.516953 136.0
48.52943 228.0
48.656086 208.0
48.808514 120.0
48.879452 176.0
48.939304 144.0
48.961582 128.0
49.01173 116.0
49.098156 104.0
49.109314 176.0
49.159027 180.0
49.219559 140.0
49.345306 196.0
49.388 196.0
49.398449 128.0
49.443222 108.0
49.490818 96.0
49.535633 216.0
49.60009 84.0
49.675808 68.0
49.82692 156.0
49.84536 172.0
49.864738 108.0
49.897694 108.0
49.921597 128.0
49.942692 168.0
49.989117 200.0
50.03838 196.0
50.074993 176.0
50.111618 196.0
50.235676 120.0
50.326 32.0
50.345768 116.0
50.496986 176.0
50.56065 172.0
50.64418 156.0
50.655514 164.0
50.707935 176.0
50.899448 104.0
50.929272 76.0
50.963364 196.0
51.017372 104.0
51.067139 64.0
51.142548 92.0
51.182407 164.0
51.226555 188.0
51.315277 188.0
51.371956 184.0
51.4062 208.0
51.460438 156.0
51.479 88.0
51.589016 108.0
51.643353 104.0
51.726341 220.0
51.792206 184.0
51.812263 88.0
51.941277 128.0
52.149471 148.0
52.160973 120.0
52.189724 144.0
52.291859 224.0
52.317768 40.0
52.454617 116.0
52.572884 160.0
52.694172 80.0
52.806923 92.0
52.864792 140.0
53.124138 92.0
53.50634 116.0
53.708893 204.0
53.809582 220.0
53.832947 216.0
54.264587 112.0
54.330299 124.0
54.631737 156.0
54.812832 124.0
54.882107 76.0
54.892429 152.0
55.075428 140.0
55.891899 124.0
55.960747 144.0
56.151485 148.0
56.429226 32.0
56.646221 132.0
56.676182 144.0
56.896656 128.0
56.974747 208.0
57.007801 172.0
57.070824 164.0
57.125072 100.0
57.143127 208.0
57.687542 124.0
57.753212 224.0
57.784328 168.0
58.046364 140.0
58.09338 156.0
58.308987 204.0
58.502159 156.0
58.553928 124.0
58.80854 116.0
58.92001 168.0
59.160107 140.0
59.348545 188.0
59.370014 244.0
59.485085 172.0
59.528072 236.0
59.838665 136.0
59.964977 152.0
60.116112 140.0
60.173222 56.0
60.316887 192.0
60.403481 168.0
60.524193 156.0
60.614033 116.0
60.702385 192.0
60.81776 196.0
60.871525 168.0
61.090668 108.0
61.117115 164.0
61.207394 168.0
61.275925 80.0
61.408424 220.0
61.43338 200.0
61.489552 164.0
61.728565 124.0
61.806778 88.0
61.853725 148.0
61.880341 216.0
62.049541 92.0
62.261372 136.0
62.382763 200.0
62.457832 180.0
62.50465 184.0
62.549095 192.0
62.607346 168.0
62.664051 156.0
62.804352 168.0
62.832745 120.0
62.891132 204.0
63.001667 176.0
63.230938 176.0
63.3386 204.0
63.353085 168.0
63.413071 112.0
63.501854 120.0
63.536751 44.0
63.560551 132.0
63.68914 208.0
63.725677 112.0
63.824223 208.0
63.849663 188.0
64.093216 60.0
64.361183 156.0
64.396317 176.0
64.473 116.0
64.559326 196.0
64.666519 48.0
64.780197 132.0
64.926056 184.0
64.95974 144.0
65.099373 216.0
65.142578 124.0
65.173256 76.0
65.186111 200.0
65.216644 168.0
65.25782 184.0
65.269699 128.0
65.35495 212.0
65.425758 124.0
65.485336 140.0
65.588455 188.0
65.611351 140.0
65.652946 176.0
65.706886 164.0
65.807854 176.0
65.925766 112.0
65.980721 208.0
66.184578 228.0
66.416321 204.0
66.441231 124.0
66.455254 124.0
66.486084 216.0
66.581871 112.0
66.598106 128.0
66.622475 176.0
66.682693 196.0
66.739494 128.0
66.75087 160.0
66.786652 140.0
67.25264 168.0
67.282028 180.0
67.461723 192.0
67.516281 228.0
67.526199 148.0
67.56311 172.0
67.846428 52.0
68.038368 240.0
68.220718 96.0
68.574608 56.0
68.586143 152.0
68.638901 100.0
68.71312 132.0
68.866638 140.0
68.975693 160.0
68.992218 156.0
69.078209 60.0
69.281822 168.0
69.369652 208.0
69.533859 152.0
69.590294 324.0
69.606903 156.0
69.651741 144.0
69.942726 160.0
70.000992 52.0
70.01265 64.0
70.043152 212.0
70.09761 184.0
70.127609 88.0
70.174286 176.0
70.187622 188.0
70.406219 164.0
70.463013 144.0
70.578339 120.0
70.718857 148.0
70.733925 156.0
70.846115 172.0
70.991936 144.0
71.080841 96.0
71.126152 104.0
71.253777 160.0
71.277634 200.0
71.3563 116.0
71.38488 168.0
71.400017 72.0
71.580704 236.0
71.620491 120.0
71.90374 156.0
72.239983 172.0
72.333054 184.0
72.400101 192.0
72.490555 232.0
72.531235 164.0
72.624489 176.0
72.712349 224.0
72.734741 184.0
72.845146 132.0
72.923309 196.0
73.004913 164.0
73.088264 148.0
73.270439 88.0
73.302811 192.0
73.356148 108.0
73.439194 232.0
73.502312 136.0
73.56205 112.0
73.604729 108.0
73.642303 136.0
73.666214 112.0
73.756775 96.0
73.802933 204.0
73.908981 108.0
74.075043 44.0
74.123016 108.0
74.268738 236.0
74.296181 164.0
74.409447 140.0
74.423187 60.0
74.435204 180.0
74.497032 164.0
74.956398 132.0
75.023621 188.0
75.077072 84.0
75.165047 112.0
75.178848 128.0
75.292786 216.0
75.308327 36.0
75.451752 128.0
75.476318 212.0
75.674934 112.0
75.7061 60.0
75.878563 188.0
76.059067 204.0
76.118813 164.0
76.219559 120.0
76.590111 300.0
76.717316 144.0
76.86731 112.0
76.900467 164.0
76.912682 172.0
77.008713 200.0
77.073349 112.0
77.127525 136.0
77.337418 176.0
77.374176 168.0
77.533569 192.0
77.580894 192.0
77.687866 224.0
77.712425 144.0
77.82827 208.0
77.861633 156.0
77.988129 152.0
78.040871 132.0
78.193909 88.0
78.276649 168.0
78.841141 36.0
78.855278 120.0
79.235718 116.0
79.258751 152.0
79.3172 184.0
79.358009 104.0
79.44136 192.0
79.649048 108.0
79.668587 224.0
79.68264 176.0
79.750328 108.0
79.771652 208.0
79.796547 136.0
79.91037 152.0
80.036095 220.0
80.088387 180.0
80.27092 140.0
80.31118 144.0
80.329018 100.0
80.3647 220.0
80.427155 144.0
80.534286 96.0
80.834625 84.0
80.99575 48.0
81.354393 52.0
81.611298 84.0
81.699425 152.0
81.764198 192.0
81.778595 220.0
82.014542 172.0
82.079445 96.0
82.10289 108.0
82.286934 104.0
82.377998 180.0
82.474808 132.0
82.504654 196.0
82.594147 172.0
82.722618 192.0
82.760933 196.0
82.862061 72.0
82.947235 220.0
83.016129 172.0
83.065094 184.0
83.225357 52.0
83.24659 188.0
83.457367 148.0
83.559219 200.0
83.63929 32.0
83.664772 220.0
83.69754 100.0
84.080353 212.0
84.157021 96.0
84.239204 240.0
84.304977 188.0
84.319595 176.0
84.411003 28.0
84.51709 176.0
84.68734 120.0
84.723976 188.0
84.756355 132.0
84.945786 152.0
84.971466 36.0
85.377403 144.0
85.447304 176.0
85.576134 140.0
85.649796 212.0
85.869125 88.0
86.013039 56.0
86.086891 92.0
86.142296 220.0
86.194031 168.0
86.269806 140.0
86.286446 180.0
86.521393 184.0
86.588058 160.0
86.688095 148.0
86.986694 136.0
87.064674 96.0
87.092529 148.0
87.315559 120.0
87.430901 160.0
87.499771 156.0
87.51281 88.0
87.550049 156.0
87.641319 164.0
87.663681 168.0
87.751289 56.0
87.786713 164.0
87.883705 152.0
87.96209 152.0
88.162849 204.0
88.185768 172.0
88.208656 164.0
88.335815 92.0
88.38633 128.0
88.506119 64.0
88.526718 116.0
88.871613 124.0
88.929787 204.0
89.053703 152.0
89.215302 120.0
89.232224 188.0
89.258545 124.0
89.354469 140.0
89.369514 144.0
89.461739 224.0
89.533287 132.0
89.574722 172.0
89.619934 36.0
89.799019 128.0
89.874474 180.0
89.896225 304.0
90.078369 44.0
90.123703 152.0
90.274925 168.0
90.422485 76.0
90.481163 208.0
90.58532 124.0
90.67437 104.0
90.774452 136.0
90.848808 176.0
90.871574 72.0
90.989243 192.0
91.046211 84.0
91.133583 116.0
91.162086 228.0
91.586342 188.0
91.606911 216.0
91.649208 228.0
91.685417 124.0
91.795982 112.0
91.864639 232.0
92.051071 212.0
92.12999 252.0
92.172523 244.0
92.198776 56.0
92.401459 92.0
92.489487 220.0
92.680992 132.0
92.707817 180.0
92.847763 140.0
92.882286 84.0
92.97438 188.0
93.024277 124.0
93.058517 932.0
93.102997 152.0
93.19136 112.0
93.245163 164.0
93.275917 216.0
93.452744 232.0
93.455605 220.0
93.508644 124.0
93.558693 224.0
93.633789 88.0
93.855392 164.0
93.876602 56.0
93.890106 80.0
94.017426 140.0
94.057846 204.0
94.067917 228.0
94.179604 184.0
94.258812 188.0
94.293594 228.0
94.318718 88.0
94.450203 152.0
94.487305 156.0
94.512108 88.0
94.56823 140.0
94.597267 52.0
94.785126 172.0
94.870399 164.0
94.965416 180.0
95.000854 236.0
95.107056 172.0
95.167229 108.0
95.237144 164.0
95.355659 188.0
95.50148 124.0
95.657143 212.0
95.690231 104.0
95.72139 124.0
95.783707 128.0
95.803185 256.0
95.890869 192.0
95.914261 160.0
96.18148 156.0
96.218575 172.0
96.296677 280.0
96.449028 148.0
96.726837 44.0
96.844315 176.0
96.914841 100.0
96.969704 44.0
97.016747 256.0
97.063805 104.0
97.089294 40.0
97.134407 188.0
97.407249 116.0
97.428864 164.0
97.44458 136.0
97.536942 184.0
97.654915 96.0
97.804443 184.0
97.916672 232.0
98.072319 136.0
98.092026 112.0
98.141312 132.0
98.289246 60.0
98.324768 124.0
98.571609 96.0
98.684273 120.0
98.706024 120.0
98.789093 136.0
98.890007 276.0
98.957306 184.0
98.987007 128.0
99.010773 160.0
99.090004 104.0
99.193054 176.0
99.212875 152.0
99.58989 144.0
99.639557 124.0
99.757385 68.0
99.925842 152.0
100.248405 144.0
100.280289 168.0
100.326134 204.0
100.579475 128.0
100.683449 152.0
100.99707 180.0
101.119118 132.0
101.409531 116.0
101.559906 128.0
101.722435 160.0
101.84893 192.0
101.871025 144.0
101.931305 128.0
102.096138 168.0
102.251045 120.0
102.287277 212.0
102.428223 192.0
102.454414 48.0
102.559196 112.0
102.682953 200.0
102.742699 216.0
102.760857 76.0
102.785866 192.0
102.912224 120.0
103.054291 420.0
103.083916 208.0
103.180931 148.0
103.276634 208.0
103.4338 88.0
103.54921 164.0
103.57959 172.0
103.72345 116.0
103.776161 112.0
103.976982 152.0
104.050262 3536.0
104.115028 56.0
104.208466 148.0
104.421906 156.0
104.670181 184.0
104.855553 164.0
104.979912 140.0
105.002342 116.0
105.057808 3188.0
105.083939 148.0
105.204346 36.0
105.322777 124.0
105.371803 44.0
105.399063 152.0
105.4515 124.0
105.541443 188.0
105.633476 140.0
105.713264 152.0
105.801277 180.0
105.915955 64.0
106.064896 1580.0
106.190598 128.0
106.348579 200.0
106.424538 184.0
106.459442 84.0
106.510788 148.0
106.613518 48.0
106.634071 136.0
106.732742 160.0
106.749191 216.0
106.897301 56.0
107.055801 132.0
107.073326 140.0
107.377296 152.0
107.404106 200.0
107.618729 156.0
107.709595 84.0
107.945198 136.0
108.043396 300.0
108.114822 180.0
108.183128 188.0
108.601692 200.0
108.621964 176.0
108.635353 176.0
108.651474 88.0
108.722023 148.0
108.971191 320.0
108.996124 176.0
109.04808 276.0
109.127075 136.0
109.351067 188.0
109.380875 112.0
109.43708 144.0
109.468315 76.0
109.520378 160.0
109.564125 160.0
109.608772 224.0
109.65789 88.0
109.736977 132.0
109.766678 108.0
109.855972 132.0
109.870575 172.0
110.323746 112.0
110.355103 96.0
110.369743 220.0
110.544746 156.0
110.639633 136.0
110.8433 200.0
110.995811 144.0
111.130051 124.0
111.188805 288.0
111.220284 88.0
111.342056 168.0
111.465996 96.0
111.62365 192.0
111.640472 208.0
111.669914 140.0
111.705673 48.0
111.728813 220.0
111.751617 100.0
112.002464 112.0
112.038277 244.0
112.451561 112.0
112.540222 100.0
112.609909 236.0
112.804298 184.0
112.865608 200.0
112.992508 92.0
113.055992 180.0
113.111015 112.0
113.140656 148.0
113.233818 124.0
113.568695 168.0
113.878571 120.0
114.225029 112.0
114.467735 100.0
114.486809 116.0
114.523018 168.0
114.55497 192.0
114.606094 100.0
114.62101 152.0
114.678772 156.0
114.951904 180.0
114.989937 148.0
115.011284 168.0
115.051842 164.0
115.128708 124.0
115.286789 116.0
115.30175 84.0
115.447121 208.0
115.581879 168.0
115.634689 236.0
115.75312 204.0
115.77668 116.0
116.00808 164.0
116.04406 148.0
116.065964 156.0
116.095985 120.0
116.201088 200.0
116.4636 180.0
116.557503 184.0
116.712265 132.0
116.76387 244.0
116.796135 164.0
117.055832 448.0
117.297836 312.0
117.38839 140.0
117.455246 228.0
117.522118 156.0
117.813576 92.0
117.876236 104.0
117.91877 152.0
117.923363 104.0
117.930717 132.0
117.951874 176.0
118.043282 168.0
118.068199 204.0
118.208321 208.0
118.3088 60.0
118.369423 140.0
118.445221 264.0
118.60556 108.0
118.865807 164.0
118.937424 176.0
118.956963 116.0
118.980843 152.0
119.037292 208.0
119.07196 560.0
119.189728 160.0
119.206726 136.0
119.441528 68.0
119.548134 108.0
119.587311 148.0
119.639549 120.0
119.765846 220.0
119.930038 212.0
119.988113 204.0
120.023003 200.0
120.04612 1216.0
120.075203 372.0
120.376488 116.0
120.404877 176.0
120.485695 148.0
120.531578 76.0
120.688957 156.0
120.833305 124.0
120.966797 196.0
121.012772 220.0
121.052559 3272.0
121.076271 208.0
121.091599 168.0
121.180656 220.0
121.383064 44.0
121.472656 244.0
121.606827 160.0
121.795654 64.0
121.920883 160.0
122.060417 532.0
122.191338 36.0
122.211143 224.0
122.479713 88.0
122.722122 160.0
122.768433 116.0
122.944916 72.0
123.024368 96.0
123.060555 188.0
123.083984 268.0
123.220917 140.0
123.464066 104.0
123.508293 180.0
123.643257 176.0
123.731796 36.0
123.753937 88.0
123.884598 64.0
123.926689 68.0
124.341362 164.0
124.9235 144.0
124.94352 168.0
124.998688 216.0
125.128235 140.0
125.272987 144.0
125.502541 88.0
125.560516 168.0
125.578362 120.0
125.607353 136.0
125.645538 128.0
125.785866 152.0
125.823814 120.0
125.996521 180.0
126.024818 80.0
126.085152 180.0
126.579536 144.0
126.868553 184.0
126.897293 132.0
126.922363 148.0
127.01207 144.0
127.106293 68.0
127.124245 204.0
127.382439 160.0
127.431862 52.0
127.463318 152.0
127.501518 68.0
127.676872 52.0
127.701614 124.0
127.841095 60.0
127.908615 92.0
128.059204 180.0
128.140564 172.0
128.160843 112.0
128.17662 128.0
128.338898 168.0
128.731522 152.0
128.943878 196.0
128.998123 192.0
129.047852 116.0
129.068207 180.0
129.160934 88.0
129.215225 144.0
129.403061 200.0
129.511765 196.0
129.659027 164.0
129.674896 224.0
129.772369 124.0
129.840393 136.0
129.885757 152.0
129.9039 176.0
129.987854 196.0
130.065491 1652.0
130.142197 40.0
130.378433 44.0
130.412521 120.0
130.460251 88.0
130.583038 116.0
130.614883 60.0
130.655838 112.0
130.710434 76.0
130.815125 96.0
130.940353 188.0
131.048721 720.0
131.073563 1120.0
131.412216 124.0
131.708984 112.0
131.738678 148.0
131.884918 68.0
132.051819 68.0
132.080231 2152.0
132.15419 108.0
132.191376 76.0
132.209686 164.0
132.276047 92.0
132.321838 72.0
132.431747 116.0
132.507339 108.0
132.530258 164.0
132.695282 100.0
132.963654 176.0
133.014145 116.0
133.053619 1872.0
133.082352 524.0
133.161102 156.0
133.202438 40.0
133.420746 200.0
133.66684 124.0
133.984573 148.0
134.058365 752.0
134.083359 308.0
134.134369 136.0
134.205551 136.0
134.226578 200.0
134.36528 268.0
134.411118 40.0
134.45726 180.0
134.561142 92.0
134.728165 136.0
134.789795 172.0
134.819839 144.0
134.854507 124.0
134.983963 40.0
135.044098 148.0
135.069595 172.0
135.094986 196.0
135.15744 180.0
135.254639 204.0
135.324097 136.0
135.474625 176.0
135.502426 132.0
135.569626 156.0
135.685516 196.0
135.815369 148.0
135.848969 256.0
136.040451 96.0
136.072952 60.0
136.110565 200.0
136.151901 120.0
136.184418 208.0
136.203003 180.0
136.244812 100.0
136.314514 96.0
136.363312 164.0
136.449722 164.0
136.481873 232.0
136.498154 140.0
136.698196 204.0
136.754547 204.0
136.772675 188.0
137.012512 88.0
137.087082 96.0
137.170975 160.0
137.196625 168.0
137.265839 304.0
137.329529 256.0
137.378525 144.0
137.399521 128.0
137.467178 124.0
137.502182 172.0
137.520859 156.0
137.822098 172.0
137.850143 124.0
137.917908 128.0
137.943634 132.0
137.999741 184.0
138.034805 240.0
138.418564 52.0
138.612976 88.0
138.638748 168.0
138.687973 204.0
138.798157 36.0
138.964691 172.0
139.276901 152.0
139.342682 128.0
139.462524 148.0
139.664734 52.0
139.681198 100.0
139.882828 180.0
140.220367 156.0
140.276947 148.0
140.432495 124.0
140.484451 136.0
140.564667 80.0
140.942474 132.0
140.97197 100.0
140.992767 112.0
141.067734 148.0
141.202499 184.0
141.245071 112.0
141.349167 144.0
141.495911 156.0
141.548004 176.0
141.63089 112.0
141.813339 172.0
141.860748 172.0
142.142975 96.0
142.188065 48.0
142.33287 160.0
142.572784 88.0
142.61557 136.0
142.655975 156.0
142.779617 160.0
142.908066 176.0
143.075439 292.0
143.277084 64.0
143.30806 184.0
143.48204 224.0
143.737106 208.0
143.758713 192.0
143.913864 164.0
143.94014 88.0
143.961349 136.0
143.997452 132.0
144.047195 348.0
144.081863 1352.0
144.116882 60.0
144.145859 200.0
144.181412 180.0
144.204239 116.0
144.222031 116.0
144.293747 220.0
144.332001 92.0
144.434845 156.0
144.638229 148.0
144.835632 144.0
144.87529 196.0
144.918411 228.0
144.959152 80.0
145.013962 168.0
145.052704 500.0
145.087967 4192.0
145.150909 108.0
145.232452 152.0
145.330811 112.0
145.376389 92.0
145.472397 136.0
145.578033 32.0
145.61647 376.0
145.832703 144.0
145.909622 100.0
146.035934 588.0
146.052673 300.0
146.09523 2632.0
146.198257 136.0
146.287308 64.0
146.33786 132.0
146.45105 168.0
146.50885 128.0
146.576309 140.0
146.605225 192.0
146.675125 108.0
146.701645 32.0
146.725754 60.0
146.790848 240.0
146.848724 184.0
146.91626 56.0
146.991058 108.0
147.040009 132.0
147.067261 452.0
147.103714 3188.0
147.263855 116.0
147.326889 196.0
147.420883 44.0
147.532059 180.0
147.573166 132.0
147.616684 136.0
147.643295 56.0
147.665054 188.0
147.754547 64.0
147.786011 128.0
147.93605 124.0
147.995102 148.0
148.039841 200.0
148.075516 5172.0
148.103775 200.0
148.132202 52.0
148.236008 84.0
148.338165 144.0
148.432724 64.0
148.585526 56.0
148.876785 128.0
148.990189 140.0
149.01767 140.0
149.047699 1152.0
149.077896 632.0
149.112442 164.0
149.238846 148.0
149.292343 76.0
149.676819 232.0
149.696289 36.0
149.839996 164.0
149.91066 132.0
149.939911 56.0
149.97403 92.0
150.054474 160.0
150.254456 160.0
150.366699 132.0
150.408188 128.0
150.583984 84.0
150.657257 208.0
150.850311 80.0
150.901657 148.0
151.195175 80.0
151.217209 200.0
151.273499 176.0
151.405716 172.0
151.523285 56.0
151.687485 56.0
151.915863 180.0
151.962143 76.0
152.028397 172.0
152.067657 92.0
152.190399 148.0
152.291092 156.0
152.359863 152.0
152.790085 56.0
152.817596 216.0
153.208588 136.0
153.368759 172.0
153.997925 120.0
154.037445 128.0
154.057205 56.0
154.200516 180.0
154.217819 240.0
154.277145 196.0
154.36615 164.0
154.427979 116.0
154.672928 184.0
154.705109 64.0
154.843765 208.0
154.910645 164.0
154.967392 208.0
155.059311 80.0
155.118805 172.0
155.319641 212.0
155.346939 68.0
155.540482 256.0
155.595093 188.0
155.617447 148.0
155.729187 172.0
155.825424 140.0
155.925461 148.0
156.049744 472.0
156.082062 160.0
156.25119 104.0
156.328323 200.0
156.42041 60.0
156.505066 96.0
156.624588 100.0
156.838882 152.0
156.869934 104.0
156.901199 184.0
157.058304 124.0
157.148102 44.0
157.17804 168.0
157.704971 124.0
157.80246 212.0
157.867477 136.0
157.975021 148.0
158.000046 40.0
158.061462 468.0
158.272842 128.0
158.378021 108.0
158.429276 176.0
158.626083 176.0
159.027618 148.0
159.069229 520.0
159.25589 144.0
159.411652 140.0
159.592636 56.0
159.861771 100.0
159.879395 48.0
160.037521 564.0
160.077103 188.0
160.317566 164.0
160.393173 208.0
160.610031 144.0
160.700836 132.0
160.930511 112.0
161.01384 144.0
161.044159 304.0
161.080444 444.0
161.124985 192.0
161.193207 116.0
161.362549 128.0
161.701508 108.0
161.901505 128.0
161.950882 180.0
162.05629 2896.0
162.092468 1324.0
162.124435 104.0
162.251175 52.0
162.284134 152.0
162.32724 124.0
162.380493 160.0
162.618973 204.0
162.686722 168.0
162.712906 184.0
162.828033 152.0
162.926224 104.0
162.961792 184.0
162.987198 300.0
163.063248 7924.0
163.099457 6696.0
163.138123 104.0
163.170197 52.0
163.239746 136.0
163.444885 220.0
163.47287 76.0
163.714706 64.0
163.735077 48.0
163.833832 244.0
163.910858 152.0
163.943985 52.0
164.06601 1132.0
164.102875 564.0
164.267776 176.0
164.32901 156.0
164.387695 128.0
164.423416 120.0
164.448944 52.0
164.517868 120.0
164.597 32.0
164.640411 136.0
164.775803 76.0
164.963593 136.0
165.000702 192.0
165.069733 60.0
165.102493 172.0
165.156677 216.0
165.218079 84.0
165.235977 144.0
165.433029 268.0
165.53801 96.0
165.753174 188.0
165.799301 144.0
165.937714 136.0
165.988998 144.0
166.009506 256.0
166.319946 204.0
166.60498 44.0
166.980255 96.0
167.191208 108.0
167.260696 156.0
167.701141 128.0
167.989929 168.0
168.046692 60.0
168.147324 132.0
168.671646 100.0
168.950912 184.0
169.354721 140.0
169.489441 144.0
169.681229 108.0
169.873138 92.0
170.072937 144.0
170.111862 144.0
170.176773 48.0
170.215714 188.0
170.348175 116.0
170.400131 32.0
170.48848 168.0
170.766647 56.0
171.060669 72.0
171.313263 156.0
171.347122 144.0
171.544342 172.0
171.680771 128.0
172.076462 136.0
172.187042 28.0
172.220993 160.0
172.443085 72.0
172.607773 72.0
172.647003 212.0
172.722855 192.0
172.743774 52.0
172.780396 112.0
172.801331 156.0
172.869354 124.0
172.892914 184.0
173.021164 84.0
173.084747 1488.0
173.123276 136.0
173.188751 176.0
173.246384 44.0
173.421936 76.0
173.563507 68.0
173.681519 168.0
173.715622 160.0
173.733978 188.0
173.773331 132.0
173.80481 124.0
173.875671 200.0
173.912415 104.0
174.06665 316.0
174.08873 980.0
174.277435 192.0
174.303711 104.0
174.450882 112.0
174.490326 164.0
174.511353 80.0
174.566574 176.0
174.653366 132.0
174.827362 172.0
174.876999 148.0
174.934906 120.0
175.065811 336.0
175.09816 320.0
175.121857 184.0
175.353714 44.0
175.443329 120.0
175.564621 164.0
175.619995 176.0
175.638458 84.0
175.704407 116.0
175.746628 124.0
176.034866 216.0
176.070862 7536.0
176.12149 148.0
176.155823 72.0
176.266785 72.0
176.301147 116.0
176.348709 88.0
176.412155 180.0
176.557571 40.0
176.713638 72.0
176.943893 144.0
177.072281 932.0
177.436661 136.0
177.972595 164.0
178.079391 220.0
178.429581 64.0
178.472107 96.0
178.605087 68.0
178.623703 68.0
178.647644 56.0
178.690201 60.0
179.566574 124.0
179.870743 84.0
180.065659 112.0
180.332825 224.0
180.442429 116.0
180.482529 100.0
180.523438 252.0
180.546707 120.0
180.68045 188.0
180.923981 44.0
181.047134 132.0
181.071243 168.0
181.130173 124.0
181.285553 104.0
181.352554 160.0
181.567047 100.0
181.974915 128.0
182.068893 168.0
182.104919 212.0
182.480011 160.0
182.571426 208.0
182.697845 72.0
182.773178 76.0
182.859283 168.0
182.913116 80.0
183.058502 40.0
183.077347 116.0
183.322495 148.0
183.519257 156.0
183.624435 156.0
183.815964 208.0
184.042694 152.0
184.239853 224.0
184.385757 80.0
184.531723 192.0
184.618256 152.0
184.666931 184.0
184.994339 116.0
185.174286 140.0
185.194717 60.0
185.335587 140.0
185.641876 44.0
186.535126 220.0
186.608521 60.0
186.690094 168.0
186.910431 124.0
187.182632 104.0
187.267044 168.0
187.425049 132.0
187.555862 108.0
187.694901 124.0
188.046799 168.0
188.068634 332.0
188.407242 172.0
188.489212 164.0
188.612183 144.0
188.978638 116.0
189.088089 104.0
189.276978 168.0
189.973114 164.0
190.086441 404.0
190.250275 112.0
190.535889 80.0
190.579834 248.0
190.717239 184.0
190.873947 96.0
191.044464 76.0
191.093857 7268.0
191.140762 200.0
191.170456 156.0
191.266815 124.0
191.360947 96.0
191.464798 56.0
191.539948 92.0
191.592285 100.0
191.619843 124.0
192.005737 208.0
192.098862 1196.0
192.441727 104.0
192.465454 148.0
192.557709 72.0
192.706879 184.0
192.927963 180.0
193.03302 244.0
193.061401 136.0
193.104935 148.0
193.196213 156.0
193.287506 200.0
193.436951 228.0
193.488419 184.0
193.511703 72.0
193.686172 56.0
193.830231 64.0
194.004837 124.0
194.185059 108.0
194.298798 52.0
194.598526 168.0
194.812363 220.0
194.894226 172.0
195.009659 52.0
195.093033 132.0
195.315491 132.0
195.373917 36.0
195.713455 204.0
195.858261 228.0
196.848312 80.0
197.211502 124.0
197.482697 232.0
197.720505 92.0
197.770889 164.0
197.806107 220.0
197.874466 152.0
198.045273 52.0
198.269409 148.0
198.300247 156.0
198.482452 176.0
199.111038 148.0
199.217773 160.0
199.667496 136.0
199.875656 180.0
199.923492 124.0
200.140244 160.0
200.196564 116.0
200.264145 140.0
200.565628 184.0
200.856049 156.0
200.946335 184.0
201.143875 204.0
201.287857 112.0
201.437531 80.0
201.695816 240.0
201.940659 120.0
202.017029 100.0
202.200943 168.0
202.546356 148.0
202.784363 156.0
202.926102 144.0
202.96579 104.0
203.025345 200.0
203.232407 116.0
203.320374 180.0
203.435104 188.0
203.470825 296.0
203.510559 108.0
203.697998 112.0
203.732086 140.0
204.060577 160.0
204.312027 100.0
204.366074 144.0
204.448593 136.0
204.824417 256.0
204.946915 124.0
205.052353 184.0
205.16066 124.0
205.249054 92.0
205.400192 44.0
205.588501 44.0
205.619888 192.0
205.794022 200.0
205.89682 124.0
205.94252 180.0
206.068207 204.0
206.148209 76.0
206.233948 40.0
206.496979 140.0
206.64859 156.0
206.808838 164.0
206.86322 136.0
207.0522 196.0
207.327225 96.0
207.436127 68.0
207.992615 140.0
208.072983 128.0
208.093079 172.0
208.127533 108.0
208.265381 104.0
208.610199 96.0
208.891998 124.0
208.992691 96.0
209.012833 204.0
209.493637 192.0
209.585815 144.0
209.617523 104.0
209.67804 72.0
210.029785 116.0
210.205765 108.0
210.277908 88.0
210.433792 228.0
210.485764 112.0
210.508865 100.0
210.575287 108.0
210.67926 140.0
211.190903 136.0
211.303711 268.0
211.653931 224.0
211.966751 136.0
212.175446 72.0
212.242462 148.0
212.297211 180.0
212.361023 68.0
212.787582 120.0
212.900833 148.0
212.950195 160.0
213.112869 136.0
213.214569 152.0
213.391891 120.0
213.569275 172.0
213.647812 112.0
213.807846 148.0
213.951843 152.0
214.031982 136.0
214.189255 204.0
214.299957 204.0
214.33783 112.0
214.442734 40.0
214.608658 220.0
214.999771 168.0
215.043549 160.0
215.131119 88.0
215.288788 120.0
215.548767 180.0
215.610138 180.0
216.013611 120.0
216.116013 160.0
216.341354 76.0
216.42041 116.0
217.003464 156.0
217.125763 148.0
217.182343 52.0
217.531509 380.0
217.692993 160.0
217.842789 140.0
217.939972 192.0
218.186615 76.0
218.233643 104.0
218.327744 180.0
218.40715 168.0
218.586609 124.0
218.946564 272.0
219.128372 76.0
219.234451 116.0
219.818329 156.0
219.898209 168.0
219.962555 7320.0
220.252304 36.0
220.355698 88.0
220.429565 72.0
220.470947 148.0
220.621674 152.0
220.75769 44.0
220.846405 212.0
220.911484 88.0
220.966217 1144.0
221.361359 168.0
221.470932 92.0
221.497589 84.0
221.583496 72.0
221.607193 220.0
221.675354 228.0
221.951019 40.0
222.458344 52.0
222.532562 112.0
222.556305 152.0
222.663208 72.0
223.224869 108.0
223.317062 72.0
223.674103 124.0
223.700897 160.0
223.95697 192.0
224.141678 96.0
224.257904 100.0
224.323471 120.0
224.520264 68.0
224.884232 180.0
224.940948 108.0
225.099182 136.0
225.200714 116.0
225.260452 244.0
225.296295 144.0
225.317215 112.0
225.392044 176.0
225.415817 136.0
225.619049 148.0
225.858276 112.0
225.879211 168.0
225.927078 60.0
226.03479 208.0
226.435928 88.0
226.486847 144.0
226.81044 208.0
226.879395 112.0
226.954346 68.0
226.98732 68.0
227.077286 208.0
227.323288 208.0
227.374298 136.0
227.632477 104.0
227.884781 72.0
228.065079 112.0
228.088974 152.0
228.272522 196.0
228.535019 164.0
228.594391 100.0
228.627838 168.0
228.673172 176.0
228.777985 120.0
228.799057 160.0
229.021881 116.0
229.055023 204.0
229.208664 92.0
229.283997 104.0
229.332214 136.0
229.371399 124.0
229.440735 160.0
229.49501 212.0
229.588486 120.0
229.739288 84.0
229.760406 148.0
229.945465 380.0
229.971634 160.0
230.309799 60.0
230.346039 192.0
230.391357 144.0
230.584732 160.0
230.953903 3776.0
230.998962 208.0
231.026199 136.0
231.153259 160.0
231.200851 160.0
231.227051 188.0
231.322754 112.0
231.437378 88.0
231.488907 132.0
231.595261 160.0
231.637665 184.0
231.674026 68.0
231.719467 184.0
231.786118 84.0
231.82962 180.0
231.878983 236.0
231.917679 136.0
231.962891 50228.0
232.02829 120.0
232.047073 148.0
232.110458 56.0
232.154419 80.0
232.181412 200.0
232.200668 96.0
232.215576 96.0
232.246231 88.0
232.29335 104.0
232.330246 188.0
232.367325 140.0
232.404678 108.0
232.431976 52.0
232.458817 44.0
232.516953 28.0
232.588043 104.0
232.645645 140.0
232.781052 152.0
232.802307 52.0
232.835724 84.0
232.872162 192.0
232.906921 108.0
232.965515 5108.0
233.025131 64.0
233.087845 80.0
233.154709 84.0
233.189728 76.0
233.293762 64.0
233.325577 112.0
233.461746 60.0
233.590591 88.0
233.765945 120.0
233.842026 76.0
233.942108 492.0
233.963547 260.0
234.018585 48.0
234.112976 132.0
234.274399 184.0
234.301819 132.0
234.323151 128.0
234.350571 76.0
234.472015 168.0
234.524261 80.0
234.570419 112.0
234.59314 64.0
234.643158 52.0
234.670593 32.0
234.694977 48.0
234.725479 100.0
234.77002 132.0
234.791641 80.0
234.820526 176.0
234.862717 164.0
234.908463 128.0
234.949371 684.0
234.995758 124.0
235.103729 108.0
235.186142 156.0
235.248703 40.0
235.393738 116.0
235.515884 232.0
235.543381 120.0
235.76947 116.0
235.900894 104.0
235.956802 460.0
236.084351 56.0
236.445328 60.0
236.730042 80.0
236.944031 180.0
237.070068 80.0
237.100708 164.0
237.264099 184.0
237.361282 104.0
238.057831 152.0
238.13768 32.0
238.432617 160.0
238.494095 32.0
238.850769 68.0
238.92276 112.0
238.976898 108.0
239.029205 200.0
239.124603 136.0
239.367508 168.0
239.423233 80.0
239.506378 96.0
239.620361 128.0
239.990204 68.0
240.091965 156.0
240.270859 116.0
240.391205 140.0
240.671722 168.0
240.869736 208.0
241.011841 184.0
241.23436 92.0
241.279495 144.0
241.441528 144.0
241.667328 112.0
242.128555 188.0
242.3237 136.0
242.382568 108.0
242.624329 132.0
242.683228 152.0
242.945938 124.0
243.11438 168.0
243.201279 148.0
243.626694 152.0
243.674744 204.0
243.755554 200.0
243.954697 224.0
244.161301 136.0
244.291946 144.0
244.441284 76.0
244.568878 220.0
244.618683 60.0
244.640472 244.0
244.692947 168.0
244.872391 120.0
244.966766 504.0
245.076477 168.0
245.266571 92.0
245.381912 32.0
245.472336 112.0
245.874756 36.0
245.969101 384.0
246.165085 116.0
246.205673 92.0
246.446198 52.0
246.536819 128.0
246.652451 64.0
246.838165 192.0
246.874435 100.0
246.947128 260.0
247.049591 292.0
247.102768 108.0
247.174728 100.0
247.278 132.0
247.30336 136.0
247.329697 116.0
247.381287 108.0
247.403214 144.0
247.551773 168.0
247.592911 212.0
247.601471 124.0
247.682312 212.0
247.747681 132.0
247.798386 152.0
247.832932 120.0
247.857925 64.0
247.887268 188.0
247.957962 72836.0
248.014999 148.0
248.060455 96.0
248.089264 88.0
248.145798 112.0
248.169006 64.0
248.222412 136.0
248.252304 52.0
248.29306 104.0
248.323608 168.0
248.37207 80.0
248.420547 56.0
248.439438 140.0
248.476456 220.0
248.517334 188.0
248.555756 92.0
248.579956 64.0
248.627747 88.0
248.688293 104.0
248.717545 116.0
248.82515 196.0
248.86731 68.0
248.917542 220.0
248.959106 6796.0
249.044647 144.0
249.113541 76.0
249.145294 172.0
249.203369 72.0
249.285065 52.0
249.379349 96.0
249.476791 100.0
249.523956 68.0
249.556747 100.0
249.589981 80.0
249.833939 56.0
249.869904 80.0
249.964386 240.0
250.040207 32.0
250.102768 156.0
250.146835 108.0
250.225525 52.0
250.324707 64.0
250.417618 96.0
250.45137 100.0
250.553055 164.0
250.589767 160.0
250.620682 156.0
250.633591 96.0
250.672791 40.0
250.694839 140.0
250.720062 108.0
250.748428 180.0
250.805145 140.0
250.866425 112.0
250.912323 80.0
250.940704 136.0
250.984848 176.0
251.011108 208.0
251.164597 64.0
251.366516 48.0
251.391754 72.0
251.442245 76.0
251.619019 96.0
251.666367 100.0
251.814789 72.0
251.94429 92.0
252.070679 100.0
252.103577 136.0
252.826462 120.0
252.965714 60.0
253.453445 84.0
253.672119 192.0
253.792587 172.0
254.277939 132.0
254.382675 72.0
254.862228 164.0
255.571274 152.0
255.825867 108.0
255.981873 136.0
256.970673 296.0
257.011444 136.0
257.129517 220.0
257.174194 116.0
257.212494 132.0
257.902435 112.0
257.975647 280.0
258.551666 108.0
258.875 148.0
259.30426 48.0
259.349152 76.0
259.592804 124.0
259.957703 3244.0
260.016266 40.0
260.10611 92.0
260.196014 112.0
260.812775 132.0
260.959991 316.0
261.163239 84.0
261.195404 64.0
261.281158 116.0
261.362701 88.0
261.520386 112.0
261.641083 112.0
261.755402 124.0
261.797241 108.0
261.93396 800.0
261.971191 368.0
262.135498 160.0
262.748108 120.0
262.77713 80.0
263.012695 48.0
263.58432 128.0
263.716827 160.0
263.956787 376.0
264.007782 160.0
264.771515 184.0
265.338562 112.0
266.445251 184.0
266.822235 48.0
267.482605 100.0
267.57373 36.0
267.684448 100.0
267.743073 120.0
268.580688 172.0
268.854736 72.0
269.243225 132.0
269.364075 92.0
269.730042 68.0
269.932739 120.0
270.243469 208.0
270.305634 200.0
270.839264 48.0
270.940796 92.0
270.985016 268.0
271.225891 208.0
271.347198 52.0
271.402924 116.0
271.803101 92.0
271.904816 96.0
271.956635 5228.0
271.992218 2156.0
272.054688 188.0
272.150391 136.0
272.174011 72.0
272.295502 136.0
272.526978 68.0
272.748901 96.0
272.953979 1088.0
273.002045 952.0
273.117157 68.0
273.229004 56.0
273.350739 64.0
273.439606 72.0
273.778687 92.0
273.949951 124.0
274.005646 392.0
274.033569 180.0
274.388275 152.0
274.411346 68.0
274.563019 172.0
274.638885 68.0
274.886322 84.0
275.005127 112.0
275.949982 1548.0
276.009399 48.0
276.052368 144.0
276.419556 76.0
276.575104 48.0
276.95401 256.0
277.230835 152.0
278.318848 40.0
278.491547 116.0
278.657623 112.0
279.102997 96.0
279.468872 92.0
279.575348 112.0
279.725128 44.0
280.22467 108.0
280.317963 116.0
280.647949 228.0
281.442047 48.0
281.856232 160.0
281.999908 124.0
282.086823 144.0
282.304138 164.0
283.0336 136.0
283.720428 116.0
284.973877 216.0
285.059631 140.0
285.68161 116.0
286.018097 32.0
286.209991 76.0
286.418793 92.0
287.948456 132.0
287.983276 352.0
288.274353 168.0
288.537994 60.0
288.676636 108.0
288.959381 2708.0
289.038574 148.0
289.146851 180.0
289.197632 48.0
289.434601 112.0
289.481995 168.0
289.532806 112.0
289.634399 128.0
289.671661 116.0
289.751038 84.0
289.963684 188.0
290.00473 6280.0
290.095245 48.0
290.157379 108.0
290.186768 80.0
290.275116 76.0
290.319 76.0
290.600555 112.0
290.678589 184.0
290.749847 76.0
290.815765 148.0
291.00943 812.0
291.102905 92.0
291.361023 96.0
291.384827 132.0
291.592102 148.0
292.016571 156.0
292.156525 32.0
292.261993 76.0
292.490021 104.0
293.017853 52.0
293.960114 196.0
294.740845 180.0
295.284393 84.0
296.126312 108.0
296.585419 124.0
296.993439 72.0
297.988953 152.0
298.908264 220.0
298.975403 200.0
299.306274 156.0
299.986237 844.0
300.374634 152.0
300.987274 200.0
301.23761 104.0
301.969299 144.0
302.963776 92.0
303.299896 164.0
303.435089 132.0
305.724731 112.0
306.100067 164.0
306.455322 172.0
306.727142 132.0
307.179901 172.0
307.578247 120.0
307.731842 68.0
307.906433 148.0
308.070618 112.0
308.598328 176.0
309.20697 108.0
310.362976 200.0
312.255737 144.0
313.100372 196.0
313.865051 184.0
314.171875 84.0
314.362396 136.0
314.489441 56.0
314.563568 192.0
315.337097 36.0
315.467896 68.0
315.609314 128.0
315.989685 160.0
316.242523 132.0
316.593018 52.0
316.635529 88.0
316.688629 88.0
316.736267 152.0
316.773651 80.0
316.837402 96.0
316.918915 108.0
316.990112 260.0
317.085449 56.0
317.369049 108.0
317.418671 196.0
317.494751 160.0
317.538025 220.0
317.603088 180.0
317.683075 144.0
317.723694 40.0
317.798187 140.0
317.84491 168.0
317.858521 144.0
317.899445 128.0
317.910095 208.0
317.948914 388.0
317.999207 23256.0
318.082092 124.0
318.132111 220.0
318.18631 96.0
318.2099 100.0
318.237396 92.0
318.296204 160.0
318.405212 52.0
318.430054 48.0
318.544739 132.0
318.573792 60.0
318.766632 172.0
318.803101 36.0
318.852844 68.0
319.001556 5488.0
319.349823 76.0
319.499969 64.0
319.556885 48.0
319.656525 168.0
319.866516 56.0
319.937714 84.0
320.005646 356.0
320.09079 144.0
320.137085 132.0
320.218994 104.0
320.553864 108.0
320.707123 88.0
320.938843 120.0
320.970917 128.0
320.99588 96.0
321.313324 204.0
321.35614 56.0
321.413208 40.0
321.88797 60.0
322.091522 100.0
322.284424 56.0
322.327301 128.0
322.606079 76.0
322.952942 80.0
323.199768 108.0
323.640015 204.0
323.994568 120.0
324.454071 128.0
325.156342 32.0
326.431641 272.0
326.96405 88.0
327.763458 140.0
327.947266 32.0
332.301117 88.0
332.740265 108.0
336.005585 148.0
336.021088 84.0
336.59967 80.0
337.027039 108.0
338.039886 56.0
339.00296 152.0
339.200897 124.0
341.642853 112.0
341.83786 144.0
342.614716 156.0
343.872101 104.0
344.847137 200.0
344.906281 156.0
345.401764 80.0
345.579315 116.0
345.871674 60.0
346.230804 128.0
346.775421 84.0
348.552979 196.0
349.817474 76.0
350.200989 136.0
352.009705 156.0
353.194427 92.0
353.246796 128.0
353.29541 112.0
354.137634 80.0
355.307159 116.0
355.851349 136.0
356.482361 128.0
356.538727 144.0
356.851227 120.0
357.171631 156.0
357.207977 120.0
357.46759 220.0
357.508972 116.0
357.569183 116.0
357.629425 32.0
357.69339 80.0
357.753632 76.0
357.859955 8336.0
357.932983 296.0
358.028473 68.0
358.081207 64.0
358.133942 168.0
358.175385 156.0
358.318512 172.0
358.367493 80.0
358.416473 116.0
358.503143 36.0
358.544586 80.0
358.579956 148.0
358.744354 88.0
358.804199 184.0
358.866943 8152.0
358.952057 84.0
358.994598 152.0
359.087494 72.0
359.140289 44.0
359.166687 76.0
359.234589 100.0
359.291168 100.0
359.385498 60.0
359.513794 132.0
359.69873 120.0
359.871033 1172.0
360.012085 96.0
360.061188 60.0
360.450287 48.0
360.506958 76.0
360.616547 72.0
360.873016 132.0
360.983276 76.0
361.153442 132.0
361.191284 52.0
361.259369 44.0
361.293396 104.0
361.319 52.0
361.388 52.0
361.482574 68.0
361.573395 112.0
361.679382 172.0
361.95575 72.0
362.007477 48.0
362.054199 124.0
362.167816 132.0
362.254944 104.0
362.2966 104.0
362.391327 104.0
362.569427 56.0
363.540222 180.0
363.585754 104.0
364.067902 48.0
364.348969 68.0
364.782196 52.0
365.204254 28.0
367.161835 92.0
369.10556 76.0
369.744385 40.0
370.142517 172.0
370.854889 172.0
370.878143 324.0
371.873535 276.0
372.09024 148.0
373.845795 248.0
373.923767 140.0
374.208618 84.0
377.515381 36.0
379.862457 120.0
379.974945 116.0
380.860016 172.0
381.826019 248.0
382.115631 176.0
383.848877 116.0
383.883972 164.0
384.836029 148.0
384.884552 224.0
386.634125 200.0
393.291962 32.0
397.260773 84.0
397.858734 248.0
398.729858 184.0
398.861847 4036.0
399.700165 68.0
399.856567 516.0
399.899963 336.0
399.930969 108.0
400.285278 48.0
400.815063 92.0
400.875793 148.0
401.341187 64.0
401.624329 76.0
401.827789 104.0
401.91156 28.0
402.151001 56.0
402.306671 116.0
402.594147 92.0
402.843231 256.0
402.877747 152.0
403.005585 40.0
404.709442 64.0
404.985748 84.0
406.164154 60.0
406.420898 156.0
406.994873 76.0
411.032074 56.0
411.867249 176.0
413.173431 56.0
413.278625 168.0
415.84375 112.0
423.050293 76.0
424.287476 96.0
426.894196 340.0
427.326599 72.0
427.902161 368.0
428.905823 228.0
430.000916 108.0
431.715363 136.0
442.546692 56.0
443.112122 80.0
443.87912 136.0
444.315338 84.0
444.655212 112.0
444.901093 3136.0
445.016205 84.0
445.116974 60.0
445.385773 48.0
445.490784 100.0
445.690521 68.0
445.911163 948.0
445.950928 140.0
446.007629 44.0
446.058044 76.0
446.915558 120.0
447.901062 108.0
447.943207 72.0
448.419312 96.0
449.663483 96.0
451.975006 72.0
452.487122 76.0
454.216095 76.0
456.841248 116.0
462.987488 120.0
465.204193 40.0
466.574585 160.0
472.820343 108.0
477.084045 72.0
483.752289 308.0
492.800415 44.0
493.127411 124.0
494.020569 84.0
495.352997 84.0
497.286194 52.0
499.289886 76.0
504.877777 68.0
511.356018 76.0
515.274536 164.0
519.566345 92.0
522.860596 76.0
523.370422 92.0
524.213074 36.0
533.035522 116.0
539.548035 108.0
551.522644 80.0
557.108215 52.0
564.659241 88.0
569.298279 148.0
569.315918 132.0
569.484009 164.0
570.324951 84.0
570.46283 64.0
571.82196 196.0
575.412537 64.0
579.861084 56.0
584.52887 60.0
590.496277 32.0
592.747314 32.0
603.299072 44.0
607.181885 36.0
631.870544 84.0
653.444092 32.0
664.110229 32.0
672.331604 100.0
677.305298 96.0
680.977478 44.0
682.900513 44.0
702.190186 152.0
721.101746 104.0
727.325439 48.0
764.546692 88.0
768.68512 84.0
772.93988 80.0
778.738525 192.0
788.600159 104.0
804.050598 148.0
827.000671 92.0
847.988708 152.0
857.129822 136.0
860.460144 116.0
870.419495 108.0
875.564941 188.0
887.311768 96.0
901.967896 56.0
903.468811 184.0
903.67218 96.0
916.870544 156.0
939.596924 108.0
942.723083 216.0
947.391479 188.0
952.040649 68.0
957.458496 140.0
965.969788 152.0
966.229614 92.0
978.74823 48.0
986.253052 136.0
995.123413 112.0
996.850708 236.0
1022.169983 120.0
1024.952515 104.0
1026.291016 32.0
1055.37085 208.0
1057.291992 144.0
1059.55835 56.0
1063.202271 132.0
1064.221436 80.0
1064.591553 140.0
1067.242676 164.0
1074.765625 184.0
1083.317017 228.0
1099.135254 204.0
1102.503052 120.0
1112.550781 108.0
1116.198364 160.0
1120.424683 36.0
1121.910767 176.0
1124.899292 96.0
1137.51062 144.0
1162.747314 200.0
1163.982788 164.0
1165.810059 172.0
1177.1521 148.0
1191.810425 152.0
1194.938721 172.0
1195.028198 224.0
1198.897949 148.0
1203.775024 192.0
1207.250854 84.0
1207.845703 148.0
1208.032471 152.0
1210.254028 236.0
1212.831055 140.0
1218.889526 128.0
1220.105835 72.0
1220.376953 208.0
1226.286987 76.0
1226.621582 92.0
1228.239258 196.0
1229.536987 124.0
1237.162598 48.0
1237.925171 216.0
1241.13501 200.0
1241.317383 88.0
1245.11377 36.0
1251.822632 148.0
1253.611816 176.0
1254.182739 152.0
1257.349487 184.0
1258.203491 132.0
1258.980225 156.0
1259.11438 108.0
1259.834839 40.0
1260.117432 160.0
1262.068115 156.0
1265.818237 148.0
1266.901855 148.0
1270.801147 92.0
1272.610962 124.0
1273.569702 196.0
1277.592896 136.0
1278.880859 52.0
1281.88623 172.0
1281.957397 136.0
1282.014404 104.0
1285.922607 148.0
1288.278809 164.0
1289.472168 192.0
1289.972412 164.0
1290.966187 220.0
1291.552734 184.0
1292.260864 180.0
1292.81189 156.0
1296.342285 132.0
1301.124146 164.0
1307.545044 140.0
1309.460083 132.0
1309.618652 64.0
1309.71228 184.0
1313.085327 172.0
1314.102417 152.0
1315.155884 140.0
1315.444702 236.0
1316.895996 172.0
1318.333618 152.0
1319.078003 216.0
1321.196899 208.0
1328.34668 180.0
1329.021362 160.0
1329.195557 100.0
1330.000366 200.0
1330.240601 44.0
1332.252075 104.0
1336.054077 172.0
1336.628906 56.0
1336.78894 204.0
1337.196533 164.0
1339.067627 144.0
1342.485474 148.0
1342.944946 204.0
1344.659424 180.0
1347.616821 164.0
1351.616333 132.0
1353.145996 100.0
1353.380371 48.0
1354.705933 196.0
1355.599731 56.0
1356.361938 168.0
1356.479248 148.0
1357.39563 208.0
1357.490967 144.0
1359.090088 48.0
1359.332153 148.0
1359.559692 148.0
1359.897217 128.0
1360.389038 116.0
1362.202759 220.0
1366.216431 156.0
1366.812378 196.0
1367.842773 168.0
1370.302368 144.0
1378.255981 204.0
1382.367188 152.0
1385.980713 168.0
1386.4823 168.0
1389.13147 168.0
1391.231567 212.0
1393.868164 48.0
1395.592651 48.0
1395.659546 132.0
1395.956909 144.0
1398.486328 224.0
1401.047852 140.0
1401.912109 72.0
1403.112183 180.0
1403.388062 184.0
1406.095825 88.0
1408.910767 64.0
1411.60144 60.0
1411.67627 40.0
1412.244629 152.0
1413.838135 76.0
1414.706421 136.0
1417.484985 140.0
1418.766602 68.0
1419.741333 180.0
1420.926514 216.0
1422.427368 164.0
1425.438965 204.0
1426.852051 72.0
1427.318115 136.0
1427.626465 60.0
1427.867065 184.0
1427.942261 200.0
1428.047607 92.0
1429.680176 216.0
1431.712769 164.0
1432.473389 144.0
1433.65625 232.0
1435.667603 144.0
1438.211548 36.0
1440.235107 52.0
1441.806519 124.0
1443.1521 120.0
1443.341064 144.0
1443.847778 232.0
1446.125 116.0
1447.692139 228.0
1449.085815 136.0
1449.843506 100.0
1452.019287 60.0
1452.39856 132.0
1452.997803 112.0
1453.233032 220.0
1455.418945 116.0
1455.540405 172.0
1456.39856 192.0
1459.46106 236.0
1460.632202 156.0
1462.504028 168.0
1462.82373 192.0
1465.123413 196.0
1465.329102 112.0
1465.580566 252.0
1466.304443 192.0
1466.55603 116.0
1470.460938 176.0
1471.018188 212.0
1471.193726 168.0
1472.309448 200.0
1473.866821 180.0
1479.970459 208.0
1482.168701 152.0
1483.762939 172.0
1483.831909 180.0
1485.327271 160.0
1487.805786 120.0
1489.602783 132.0
1492.669312 144.0
1493.084473 232.0
1493.569092 116.0
1494.515259 164.0
1495.307861 168.0
1496.932251 144.0
1497.640747 164.0
1503.963135 188.0
