>compound MLS001160411-01!
>formula C26H25ClN2O5
>ionization [M+H]+
>parentmass 481.151794
#inchi InChI=1S/C26H25ClN2O5/c27-20-9-19-17-4-1-2-5-18(17)26(32)34-22(19)10-23(20)33-14-25(31)28-11-15-8-16(13-28)21-6-3-7-24(30)29(21)12-15/h3,6-7,9-10,15-16H,1-2,4-5,8,11-14H2/t15-,16+/m1/s1
#inchikey PJCORWSIALCXOS
#Ion_Source LC-ESI
#Instrument qTof
#Compound_Source NIH Natural Product Library
#PI Dorrestein
#Data_Collector VVP/LMS
#Scan -1
#Precursor_MZ 481.153
#ExactMass 480.145
#Charge 1
#CAS_Number N/A
#Pubmed_ID N/A
#Smiles Clc1cc2c3CCCCc3c(=O)oc2cc1OCC(=O)N4C[C@H]5C[C@@H](C4)c6cccc(=O)n6C5
#INCHI_AUX N/A
#Library_Class 1
#SpectrumID CCMSLIB00000079470
#IonMode Positive
#UpdateWorkflowName UPDATE-SINGLE-ANNOTATED-GOLD
#LibraryQualityString Gold
#TaskID b1d8e8f6646f4e71acdff9ca3d919d08
##Scan# 2019
#SpectrumFile p1-G06_GG6_01_17950.mzXML
#LibraryName NIH_Natural_Products_Library.mgf
#MQScore -1
#Organism NIH_Natural_Products_Library
#TIC_Query 0
#RT_Query -1
#MZErrorPPM -1
#SharedPeaks 0
#MassDiff 0
#LibMZ -1
#SpecMZ 481.153
#SpecCharge 0
#internalFilename spec-00000.mgf

>collision 10
95.024246 140.0
95.070816 216.0
95.162048 88.0
95.264977 84.0
95.29995 128.0
95.329094 172.0
95.953903 184.0
96.039711 216.0
96.072868 204.0
96.125549 160.0
96.328598 172.0
96.561195 172.0
96.598358 176.0
96.66684 152.0
96.794075 120.0
96.99559 196.0
97.105675 136.0
97.215538 240.0
97.262642 204.0
97.305824 152.0
97.535667 200.0
97.81105 188.0
97.824837 168.0
97.895714 156.0
97.911469 232.0
97.950859 148.0
98.108505 84.0
98.32943 44.0
98.361008 144.0
98.386673 220.0
98.432083 132.0
98.489357 180.0
98.55455 124.0
98.708725 120.0
98.93824 220.0
99.08876 148.0
99.179916 216.0
99.298882 140.0
99.377319 140.0
100.137604 140.0
100.452538 112.0
100.600204 168.0
100.680069 164.0
100.957855 132.0
100.987854 196.0
101.08989 132.0
101.207985 160.0
101.52861 164.0
101.799522 36.0
102.008476 236.0
102.02858 112.0
102.276009 180.0
102.346474 84.0
102.501572 68.0
102.521721 152.0
102.584206 40.0
102.602348 208.0
102.967575 128.0
103.033699 180.0
103.058479 164.0
103.157509 96.0
103.199966 96.0
103.216141 112.0
103.260628 100.0
103.564224 124.0
103.619301 108.0
103.647285 156.0
103.802338 212.0
103.951454 196.0
104.04763 528.0
104.479729 168.0
104.591652 152.0
104.656799 168.0
104.836052 172.0
105.005264 124.0
105.057899 144.0
105.115425 48.0
106.060287 356.0
106.222275 176.0
106.846786 176.0
107.254524 132.0
107.310181 184.0
107.491699 204.0
107.58857 180.0
107.63826 140.0
107.766991 184.0
107.942017 196.0
108.154633 176.0
108.186157 76.0
108.341476 208.0
108.453377 184.0
108.594368 148.0
108.627556 180.0
108.673195 48.0
108.773727 208.0
109.052238 1828.0
109.109344 164.0
109.128059 172.0
109.248055 160.0
109.350639 188.0
109.377701 180.0
109.513039 168.0
109.548454 256.0
110.060707 188.0
110.270409 60.0
110.356117 124.0
110.515076 228.0
110.544373 208.0
110.613441 140.0
110.935921 212.0
111.028297 212.0
111.063446 116.0
111.236015 124.0
111.2864 116.0
111.519577 116.0
111.597359 108.0
111.68779 212.0
111.719345 116.0
111.889809 80.0
112.598312 208.0
113.080353 68.0
113.226433 120.0
113.334473 328.0
113.400169 120.0
113.444679 192.0
113.563423 172.0
113.934898 160.0
114.336777 152.0
114.679672 176.0
114.811859 128.0
114.973999 128.0
115.05542 164.0
115.249466 224.0
115.863441 132.0
115.97065 136.0
116.013519 176.0
116.056404 144.0
116.148621 168.0
116.719887 148.0
116.978065 168.0
117.036797 128.0
117.057281 580.0
117.1008 136.0
117.233963 232.0
117.471542 44.0
117.49527 120.0
117.959564 48.0
118.013817 172.0
118.06076 176.0
118.216942 152.0
118.444275 220.0
118.533104 136.0
118.626297 148.0
118.77375 172.0
119.066757 160.0
119.184067 156.0
119.223183 232.0
119.24057 204.0
119.534149 188.0
119.710472 148.0
119.758385 136.0
119.817207 152.0
120.066788 240.0
120.196579 140.0
120.698982 172.0
120.898041 128.0
120.991135 136.0
121.042473 188.0
121.138885 152.0
121.294472 260.0
121.443573 200.0
121.551071 132.0
121.673981 84.0
121.766212 116.0
121.812332 152.0
121.827713 132.0
121.944168 164.0
122.059921 2200.0
122.309288 88.0
122.481041 152.0
122.782997 192.0
122.798431 164.0
123.062683 888.0
123.372543 116.0
123.967941 192.0
124.069679 204.0
124.222916 156.0
124.530838 72.0
124.566994 140.0
124.787003 136.0
124.912598 176.0
125.017036 152.0
125.14299 68.0
125.158577 160.0
125.296669 108.0
125.334541 164.0
125.361282 216.0
125.421463 176.0
125.459358 80.0
125.584229 28.0
125.648918 248.0
126.27565 204.0
126.567535 256.0
127.065109 172.0
127.363678 188.0
127.779556 176.0
128.031662 32.0
128.112747 160.0
128.137527 112.0
128.417053 184.0
128.441864 128.0
129.031265 112.0
129.191193 156.0
129.332138 128.0
129.375137 176.0
129.55632 180.0
129.789764 236.0
130.064911 140.0
130.125565 220.0
130.34816 164.0
130.47998 236.0
130.714249 64.0
130.805298 108.0
131.071533 168.0
131.094543 104.0
131.363586 108.0
131.589523 128.0
131.626053 156.0
131.674011 152.0
131.870499 116.0
131.909348 168.0
131.925354 124.0
132.043503 1112.0
132.080505 280.0
132.302826 200.0
132.385254 172.0
132.458542 72.0
132.552475 104.0
132.625809 132.0
132.737686 216.0
132.84787 124.0
132.985153 132.0
133.052292 1320.0
133.076782 256.0
133.116776 60.0
133.194855 176.0
133.328125 168.0
133.433853 180.0
133.470642 140.0
133.578735 148.0
133.682266 88.0
134.059601 3840.0
134.096817 188.0
134.122162 36.0
134.138306 64.0
134.170578 240.0
134.223602 152.0
134.26973 64.0
134.320465 148.0
134.394302 28.0
134.544312 32.0
134.821487 36.0
134.941696 180.0
134.99025 128.0
135.065262 536.0
135.258621 108.0
135.689514 132.0
135.733566 160.0
136.061783 156.0
136.137329 140.0
136.154266 152.0
136.171188 104.0
136.265091 176.0
136.848877 56.0
136.907089 152.0
136.993271 172.0
137.021225 60.0
137.212326 212.0
137.356918 168.0
137.534256 144.0
138.087997 160.0
138.209641 84.0
138.270477 136.0
138.692078 128.0
138.81398 152.0
138.900757 124.0
139.0345 80.0
139.170914 180.0
139.234055 236.0
139.734741 196.0
139.770035 148.0
139.798264 164.0
140.191544 136.0
140.906494 196.0
140.951385 124.0
141.046478 184.0
141.213791 180.0
141.268188 60.0
141.429108 188.0
141.498535 176.0
141.812805 152.0
141.931335 160.0
142.066376 524.0
142.315018 80.0
142.553268 152.0
142.676865 68.0
142.736298 48.0
142.78862 116.0
142.988464 160.0
143.047394 364.0
143.075165 152.0
143.112244 172.0
143.131302 156.0
143.174164 180.0
143.207504 152.0
143.429092 172.0
143.562195 180.0
143.591232 200.0
143.696182 140.0
143.998779 216.0
144.08197 188.0
144.136459 224.0
144.233505 188.0
144.616211 36.0
144.671265 120.0
144.899704 72.0
145.030579 148.0
145.052704 300.0
145.090561 368.0
145.133667 140.0
145.1922 88.0
145.296753 168.0
145.423935 64.0
145.510361 120.0
145.582382 136.0
145.618408 172.0
145.671249 68.0
145.803406 136.0
145.939774 104.0
146.031799 96.0
146.06012 14368.0
146.111191 140.0
146.142593 72.0
146.167267 248.0
146.199219 136.0
146.20961 80.0
146.21315 128.0
146.245941 280.0
146.298904 56.0
146.359085 120.0
146.549377 44.0
146.643356 112.0
146.662643 68.0
146.713257 104.0
146.815704 80.0
146.884476 120.0
146.954437 156.0
146.97374 164.0
147.019592 132.0
147.067062 12984.0
147.109695 204.0
147.133041 60.0
147.23204 148.0
147.289993 48.0
147.381805 52.0
147.466385 176.0
147.492966 76.0
147.517151 88.0
147.604904 160.0
147.63562 96.0
147.737213 72.0
147.855774 168.0
147.950165 196.0
148.074051 4300.0
148.172226 52.0
148.41777 52.0
148.434753 136.0
148.457321 168.0
148.509933 124.0
148.563293 48.0
148.815689 152.0
148.912827 44.0
148.949265 104.0
149.005142 132.0
149.027008 108.0
149.074341 424.0
149.154709 168.0
149.265213 36.0
149.294388 116.0
149.360062 60.0
149.394119 180.0
149.79335 40.0
149.920044 140.0
150.079163 232.0
150.137009 80.0
150.203445 84.0
150.329727 148.0
150.346817 36.0
150.393188 196.0
150.59584 52.0
150.656906 56.0
150.787918 208.0
150.862183 148.0
150.945312 160.0
151.084732 164.0
151.253357 196.0
151.329468 60.0
151.478851 48.0
151.601364 156.0
151.701859 232.0
151.932373 184.0
152.256378 200.0
152.290756 240.0
152.565979 52.0
152.806992 80.0
152.966949 172.0
153.074051 136.0
153.296982 144.0
153.358597 144.0
153.746841 144.0
154.064331 152.0
154.113739 144.0
155.145798 208.0
155.165634 192.0
155.222656 60.0
155.371475 168.0
155.42572 124.0
155.505478 140.0
155.527817 108.0
155.743835 160.0
156.077301 176.0
156.27832 124.0
156.323105 76.0
156.360443 48.0
156.681656 136.0
156.726501 56.0
156.843628 104.0
157.100479 156.0
157.557327 80.0
157.717255 148.0
157.75975 144.0
157.984818 60.0
158.05986 292.0
158.127441 72.0
158.305191 40.0
158.387848 96.0
158.468002 60.0
158.503082 172.0
158.60083 152.0
159.032242 152.0
159.066681 1212.0
159.512009 56.0
159.607544 132.0
159.647781 52.0
159.801208 64.0
159.896835 232.0
160.049713 192.0
160.074982 6500.0
160.11586 152.0
160.192078 140.0
160.357727 108.0
160.683029 156.0
160.736008 124.0
160.763763 52.0
161.078537 908.0
161.354828 164.0
161.387695 224.0
161.521729 140.0
161.617859 152.0
161.729218 128.0
162.053268 204.0
162.058945 196.0
162.091476 608.0
162.24852 140.0
162.344864 124.0
162.486908 180.0
162.834671 156.0
162.880386 144.0
162.905792 128.0
162.969315 92.0
163.052643 192.0
163.095871 164.0
163.20314 244.0
163.755371 284.0
163.873428 184.0
163.97702 52.0
164.066238 84.0
164.254944 216.0
164.395264 220.0
164.724625 176.0
164.742508 132.0
164.773163 108.0
165.005737 128.0
165.051773 180.0
165.082458 148.0
165.48674 148.0
166.012039 68.0
166.068771 192.0
166.204422 124.0
166.237778 136.0
166.468811 120.0
166.502197 220.0
166.553574 52.0
166.74884 100.0
167.02446 164.0
167.078522 164.0
167.662476 56.0
167.943497 236.0
168.462341 80.0
168.705261 136.0
168.746628 136.0
168.782822 132.0
168.976807 196.0
169.001877 256.0
169.12645 116.0
169.559433 156.0
169.914673 164.0
170.420959 96.0
170.628891 120.0
170.652283 92.0
170.706894 128.0
171.085129 164.0
171.573929 224.0
171.607834 204.0
171.701706 196.0
171.813858 96.0
172.074829 1400.0
172.234146 112.0
172.296844 88.0
172.610489 152.0
172.644485 172.0
172.879929 152.0
172.93512 220.0
173.02388 188.0
173.082764 9608.0
173.28186 64.0
173.356537 68.0
173.398468 84.0
173.505936 36.0
173.540024 92.0
173.613449 56.0
173.652786 160.0
173.930908 52.0
173.993011 188.0
174.028046 172.0
174.086563 1628.0
174.138336 56.0
174.32486 64.0
174.637711 76.0
174.753464 196.0
175.049911 764.0
175.095947 476.0
175.396042 48.0
175.430298 172.0
175.451401 148.0
175.514679 48.0
176.021301 100.0
176.052994 132.0
176.095245 140.0
176.116379 192.0
176.303955 44.0
176.454636 80.0
176.645035 120.0
176.745575 48.0
176.904373 88.0
177.055161 188.0
177.111908 160.0
177.13475 116.0
177.240723 140.0
177.508453 176.0
177.556183 148.0
177.601273 116.0
177.731262 148.0
177.824142 148.0
178.156067 124.0
178.177322 128.0
178.334091 240.0
178.368652 216.0
178.421814 116.0
178.927292 148.0
179.044464 208.0
179.076416 172.0
179.337524 84.0
180.159393 228.0
180.346451 120.0
181.026001 152.0
181.063034 164.0
181.513702 116.0
181.618286 172.0
182.224991 108.0
182.249161 124.0
182.29216 100.0
182.435211 180.0
182.684708 80.0
182.803085 196.0
182.91748 156.0
184.17807 124.0
184.956802 152.0
185.05426 184.0
185.265503 100.0
185.842987 116.0
185.870117 184.0
185.935257 168.0
186.066498 316.0
186.089981 236.0
186.190445 44.0
186.350723 164.0
186.666016 160.0
187.089767 172.0
187.191208 132.0
187.452713 152.0
187.812592 40.0
187.908066 60.0
188.068497 952.0
188.15097 52.0
188.21376 100.0
188.290222 196.0
188.317535 88.0
188.486008 144.0
188.536102 72.0
188.637238 64.0
188.659103 176.0
188.680099 280.0
188.741119 176.0
188.798553 172.0
188.833191 144.0
188.875122 136.0
188.9189 140.0
188.954468 132.0
188.976227 156.0
189.025833 240.0
189.102051 63256.0
189.181427 96.0
189.224869 60.0
189.262512 84.0
189.307251 108.0
189.38858 84.0
189.419846 108.0
189.478745 96.0
189.517639 352.0
189.552704 164.0
189.578232 104.0
189.62709 124.0
189.664597 88.0
189.699356 184.0
189.748703 92.0
189.794022 40.0
189.817245 84.0
189.894043 168.0
189.97084 44.0
190.022964 160.0
190.072632 948.0
190.105316 8308.0
190.147751 152.0
190.184875 164.0
190.205704 52.0
190.278214 60.0
190.308411 48.0
190.397522 160.0
190.528732 108.0
190.555603 40.0
190.574829 44.0
190.621552 64.0
190.697174 116.0
190.778214 48.0
190.874435 56.0
190.899628 76.0
191.081299 620.0
191.115311 6368.0
191.152267 64.0
191.210052 144.0
191.237579 144.0
191.265106 48.0
191.317413 100.0
191.355179 72.0
191.390335 104.0
191.413773 100.0
191.569717 116.0
191.61113 196.0
191.636887 44.0
191.691986 80.0
191.719543 104.0
191.810501 156.0
191.920776 164.0
191.992477 64.0
192.074402 124.0
192.119629 980.0
192.202118 64.0
192.293182 52.0
192.340118 40.0
192.37323 68.0
192.519577 108.0
192.56929 120.0
192.777206 76.0
192.870453 56.0
193.003159 176.0
193.047394 132.0
193.119308 180.0
193.383438 124.0
193.448578 72.0
193.902832 52.0
194.008163 104.0
194.052536 144.0
196.488892 48.0
196.553055 168.0
196.80986 68.0
196.994186 180.0
197.192566 132.0
197.592438 180.0
197.61203 64.0
197.785538 236.0
198.205627 104.0
198.337341 64.0
198.480316 156.0
198.850616 36.0
198.960098 48.0
199.079254 312.0
199.687866 72.0
200.086166 316.0
200.219788 124.0
200.645279 72.0
200.887802 144.0
201.086761 184.0
201.110718 208.0
202.388535 68.0
202.578278 136.0
202.924026 128.0
203.079498 344.0
203.114273 680.0
203.56813 196.0
203.590851 48.0
203.610733 172.0
203.630615 144.0
203.678894 160.0
203.803909 48.0
204.08754 208.0
204.110886 116.0
204.344116 28.0
204.870804 120.0
204.993317 96.0
205.036453 148.0
205.234238 240.0
205.503723 144.0
206.583649 148.0
206.680923 56.0
207.023514 208.0
207.059616 340.0
207.20488 88.0
207.872955 136.0
208.108322 80.0
208.39267 184.0
208.424286 36.0
209.405258 88.0
209.557938 60.0
209.621323 196.0
210.059555 140.0
210.108597 100.0
210.189392 60.0
210.417404 160.0
214.109207 168.0
214.373825 168.0
214.811172 160.0
215.08255 100.0
215.11174 136.0
216.354156 192.0
216.942993 64.0
217.03952 164.0
217.096268 1232.0
217.791031 144.0
218.108368 220.0
218.555374 140.0
218.967514 60.0
219.035248 108.0
219.09938 224.0
219.35054 128.0
219.43309 44.0
221.037888 112.0
222.045258 280.0
223.038818 160.0
224.033829 96.0
224.208496 160.0
224.321762 68.0
224.998947 104.0
225.623352 144.0
227.066559 568.0
227.282623 124.0
227.381653 224.0
227.693878 108.0
227.802017 132.0
228.080322 152.0
228.126556 72.0
228.319 40.0
228.776352 144.0
229.020264 160.0
229.077484 100.0
230.091888 220.0
230.791718 164.0
231.111649 1808.0
231.884552 208.0
232.118866 3468.0
232.218063 152.0
232.354553 88.0
232.403107 60.0
232.66716 36.0
233.036926 324.0
233.12468 248.0
233.667038 60.0
233.858749 88.0
233.913544 152.0
234.047501 140.0
234.123627 228.0
235.051559 1032.0
235.383057 76.0
236.023193 220.0
236.050705 136.0
237.001175 132.0
237.04863 340.0
237.755524 188.0
237.908997 84.0
238.062515 164.0
240.775665 160.0
242.009491 120.0
242.635345 56.0
242.740768 132.0
244.026245 132.0
246.138779 136.0
247.057999 228.0
247.664948 56.0
247.881119 124.0
248.012756 128.0
249.040756 228.0
250.042892 464.0
250.1707 188.0
250.668411 220.0
250.822845 120.0
251.042953 152.0
252.028397 96.0
252.518387 60.0
253.632904 140.0
254.048309 172.0
254.257736 68.0
255.063492 284.0
255.274307 64.0
255.719696 176.0
256.10495 116.0
257.048615 140.0
257.645691 128.0
259.425018 168.0
261.02713 112.0
261.332703 68.0
262.23761 224.0
262.273071 120.0
262.985901 64.0
263.045685 1840.0
263.599487 56.0
264.051331 372.0
264.106201 340.0
264.501831 116.0
264.819153 120.0
265.044495 564.0
265.107483 136.0
265.212006 80.0
265.334381 100.0
266.037598 136.0
266.113037 80.0
267.003418 72.0
267.133514 204.0
267.211578 56.0
267.445892 68.0
268.416718 68.0
269.353394 84.0
270.121582 156.0
270.56662 72.0
272.577209 132.0
275.106689 76.0
275.195831 84.0
279.115631 172.0
279.528107 124.0
280.547272 52.0
280.854065 212.0
280.877411 140.0
280.957458 76.0
282.112946 128.0
282.865631 188.0
282.982788 196.0
284.625732 132.0
284.662689 40.0
284.991852 80.0
288.033997 100.0
288.774231 44.0
289.112549 160.0
289.525574 128.0
290.094788 128.0
290.11853 140.0
290.739227 104.0
291.037323 164.0
291.08551 100.0
291.601868 52.0
291.82962 176.0
292.038666 128.0
292.373901 80.0
293.047974 172.0
293.167389 44.0
293.225311 52.0
295.735687 112.0
298.301422 140.0
299.164856 116.0
300.436493 124.0
300.622803 96.0
301.220123 148.0
302.108521 140.0
302.690002 176.0
303.743591 144.0
303.802551 68.0
306.099945 184.0
306.866516 148.0
307.410645 64.0
308.741638 96.0
309.161438 132.0
310.829468 128.0
312.083435 164.0
313.399841 184.0
314.249573 64.0
316.07608 140.0
317.072235 224.0
318.071594 172.0
319.055603 152.0
319.151611 48.0
319.276062 124.0
319.340088 156.0
320.15152 172.0
321.138733 104.0
321.349213 136.0
321.620422 76.0
321.823914 72.0
322.159637 168.0
322.445496 88.0
322.477661 112.0
322.622406 120.0
322.659943 84.0
322.949615 172.0
324.650787 120.0
325.020264 116.0
325.12793 164.0
325.285858 40.0
327.515259 84.0
329.878754 116.0
333.692627 152.0
335.159424 76.0
337.221283 96.0
339.513916 152.0
340.36084 204.0
341.411804 116.0
341.54422 116.0
343.415314 68.0
344.090637 40.0
346.620544 196.0
347.2211 120.0
349.680603 204.0
351.405945 52.0
358.572052 68.0
358.730347 148.0
358.824615 160.0
360.258698 212.0
362.710815 48.0
362.775238 68.0
362.983765 88.0
364.065277 120.0
365.167419 172.0
365.86377 112.0
366.004639 48.0
367.857544 188.0
369.63855 136.0
370.074921 80.0
370.85257 80.0
371.941895 164.0
372.295135 156.0
372.591614 104.0
373.767395 148.0
375.165497 128.0
376.31131 132.0
376.627991 152.0
376.786377 132.0
377.045258 84.0
377.776031 188.0
378.600464 244.0
379.751526 180.0
380.368469 164.0
380.411163 100.0
380.581635 220.0
381.852722 108.0
382.981445 164.0
383.565918 112.0
384.826019 108.0
385.361084 124.0
387.277954 76.0
387.305359 136.0
387.59137 124.0
388.328369 64.0
389.85556 128.0
390.913391 84.0
392.272217 224.0
392.434357 156.0
393.546509 68.0
395.29361 96.0
396.830475 72.0
397.119965 140.0
397.631775 48.0
398.759705 200.0
398.918701 256.0
399.069763 144.0
399.149292 112.0
399.698212 184.0
401.371185 180.0
402.508423 148.0
402.9198 184.0
411.591431 144.0
411.70047 112.0
411.849915 68.0
414.346436 112.0
414.386353 228.0
414.580841 200.0
415.051056 136.0
417.177551 192.0
418.179138 96.0
418.480377 204.0
419.992279 68.0
423.540222 64.0
423.769623 100.0
426.552063 132.0
426.782288 96.0
428.770569 144.0
431.850555 104.0
433.150238 200.0
433.610168 92.0
434.290131 104.0
434.493378 228.0
435.127625 156.0
435.884308 184.0
436.811432 76.0
438.100067 192.0
438.89798 164.0
439.5737 136.0
440.592499 108.0
441.378235 164.0
441.595703 176.0
442.608459 68.0
444.582855 156.0
445.073975 144.0
445.22934 192.0
445.346954 176.0
446.157959 76.0
446.582672 140.0
447.331665 120.0
447.52951 140.0
447.584259 208.0
450.469025 112.0
452.579407 80.0
452.956329 120.0
453.163696 220.0
453.269836 152.0
454.151642 152.0
455.11499 92.0
455.153198 336.0
457.615051 84.0
460.420898 176.0
461.702972 108.0
463.13678 196.0
463.188171 148.0
463.582336 96.0
463.728058 72.0
463.886627 96.0
464.14389 136.0
464.173889 116.0
464.920319 204.0
465.139221 380.0
465.233643 112.0
468.084229 148.0
469.765106 152.0
470.395142 96.0
472.724701 88.0
472.923798 68.0
474.595978 144.0
476.040955 80.0
476.579559 176.0
477.366333 152.0
477.57074 76.0
477.814362 124.0
477.903809 112.0
478.05365 96.0
478.140686 88.0
478.305817 192.0
478.401855 48.0
478.754547 96.0
478.867767 96.0
478.916107 80.0
479.137848 140.0
479.20755 96.0
479.394928 124.0
479.516937 104.0
479.591034 88.0
479.652069 112.0
479.891846 48.0
479.965973 228.0
480.179657 188.0
480.218903 100.0
480.275604 56.0
480.38028 48.0
480.437012 52.0
480.474091 144.0
480.515533 184.0
480.565002 164.0
480.635071 152.0
480.773987 104.0
480.878296 124.0
480.92572 64.0
480.956268 68.0
481.030487 164.0
481.059937 172.0
481.151794 27452.0
481.301483 216.0
481.334137 164.0
481.383575 152.0
481.460999 80.0
481.513641 136.0
481.550079 104.0
481.598145 84.0
481.650543 208.0
481.714142 104.0
481.810944 56.0
481.87442 128.0
481.951294 76.0
482.004089 108.0
482.040314 144.0
482.15448 9712.0
482.256561 92.0
482.272614 152.0
482.412659 128.0
482.46048 116.0
482.494873 192.0
482.534241 76.0
482.609344 244.0
482.648315 92.0
482.708191 40.0
482.793915 100.0
482.883118 108.0
482.924622 156.0
482.938599 76.0
482.956024 132.0
482.990082 88.0
483.148438 10004.0
483.307465 132.0
483.342468 64.0
483.500671 52.0
483.599945 48.0
483.631317 72.0
483.797638 56.0
484.150391 2172.0
484.267609 124.0
484.32312 132.0
484.375671 76.0
484.466431 80.0
484.496033 136.0
484.529358 48.0
484.605591 104.0
484.689301 68.0
484.729279 136.0
484.769989 84.0
484.802856 48.0
484.845276 68.0
484.992218 108.0
485.098724 64.0
485.155975 128.0
485.191956 164.0
485.255188 116.0
485.29483 144.0
485.368988 52.0
485.553192 116.0
485.651215 52.0
485.778198 80.0
485.896851 48.0
486.16452 108.0
486.239136 64.0
486.344452 124.0
486.515656 152.0
486.72641 108.0
486.763947 48.0
486.963562 48.0
486.994293 84.0
487.126709 108.0
487.288605 64.0
487.85556 44.0
488.053406 124.0
488.510773 100.0
489.038818 96.0
489.575928 76.0
489.787323 56.0
489.835785 36.0
491.308167 104.0
491.546417 48.0
492.2836 48.0
494.79953 104.0
495.379669 92.0
495.437256 116.0
496.363586 116.0
497.175385 48.0
498.063354 72.0
498.165497 80.0
501.556274 88.0
501.67218 100.0
502.952423 52.0
520.315796 112.0
522.560974 60.0
532.260132 100.0
533.942078 64.0
534.015625 104.0
539.022217 28.0
539.308777 72.0
548.48999 28.0
555.785706 60.0
557.175476 52.0
564.552124 100.0
597.522583 92.0
601.069641 84.0
607.091431 108.0
616.563354 60.0
622.279663 88.0
639.506409 120.0
660.3703 88.0
663.365723 128.0
665.797791 96.0
665.83374 80.0
669.093811 120.0
676.931702 80.0
682.749146 104.0
685.466492 52.0
709.874268 108.0
713.596436 88.0
716.475708 208.0
718.304138 120.0
719.366089 68.0
728.668396 84.0
738.912109 60.0
742.790955 44.0
750.267029 92.0
755.861084 96.0
767.329712 180.0
782.599548 100.0
783.200989 60.0
807.85553 72.0
813.488403 104.0
814.357178 80.0
816.084717 104.0
829.392029 64.0
831.04364 108.0
842.662476 112.0
848.154358 88.0
848.896423 84.0
865.784912 44.0
871.774536 92.0
900.389282 20.0
905.382996 136.0
917.95752 44.0
926.822388 32.0
930.947266 60.0
943.847534 68.0
944.092163 72.0
963.695007 72.0
964.652893 36.0
978.082642 76.0
984.379517 96.0
985.535095 52.0
1002.21283 48.0
1002.679138 60.0
1010.306824 68.0
1023.062622 60.0
1043.484009 148.0
1054.772095 20.0
1075.616943 116.0
1076.733398 84.0
1079.608887 104.0
1088.099121 172.0
1089.263306 72.0
1089.848022 80.0
1091.405762 124.0
1101.740112 220.0
1103.93457 192.0
1105.5354 120.0
1106.422363 52.0
1112.043579 48.0
1124.449585 128.0
1127.12085 124.0
1128.009644 52.0
1128.758423 100.0
1130.644897 196.0
1137.166016 184.0
1152.7229 148.0
1157.200684 104.0
1157.769409 108.0
1167.57605 192.0
1167.709595 100.0
1174.223022 268.0
1184.52356 160.0
1191.665161 112.0
1193.459106 104.0
1196.541382 144.0
1200.875732 148.0
1209.664917 76.0
1212.497803 212.0
1215.694946 132.0
1219.750977 168.0
1220.717407 208.0
1222.769653 148.0
1230.304688 144.0
1235.930908 80.0
1236.700684 52.0
1236.819702 68.0
1242.727417 56.0
1250.865601 120.0
1252.921875 64.0
1263.377197 108.0
1265.528809 40.0
1267.264038 72.0
1269.993286 216.0
1271.518799 192.0
1278.035156 128.0
1280.334351 72.0
1283.548218 200.0
1284.347046 100.0
1285.281616 192.0
1286.009521 212.0
1289.666504 168.0
1290.302734 120.0
1290.39563 140.0
1290.867554 224.0
1292.5271 160.0
1296.186157 128.0
1297.927979 100.0
1299.835938 168.0
1302.226562 52.0
1307.10791 92.0
1310.312012 56.0
1311.746094 192.0
1316.183105 112.0
1317.55542 212.0
1319.029541 180.0
1322.602905 116.0
1323.703247 204.0
1324.695557 132.0
1325.978027 188.0
1326.485352 184.0
1326.905884 40.0
1327.616455 60.0
1329.132568 136.0
1330.49707 132.0
1342.335083 204.0
1343.334229 80.0
1343.407227 120.0
1346.39978 152.0
1348.1604 196.0
1349.088623 212.0
1350.126953 188.0
1351.831421 144.0
1354.723511 128.0
1359.790283 164.0
1363.646118 92.0
1367.345581 148.0
1376.184082 40.0
1378.074829 100.0
1378.540405 104.0
1378.666016 108.0
1386.488403 268.0
1388.749634 128.0
1393.418945 140.0
1396.59314 200.0
1400.828613 144.0
1401.581055 200.0
1406.100098 160.0
1408.056152 144.0
1410.095825 156.0
1411.755493 112.0
1412.06958 40.0
1417.879272 132.0
1418.411499 224.0
1421.321411 108.0
1423.370605 136.0
1424.737549 156.0
1425.706787 172.0
1426.856812 72.0
1427.473389 120.0
1428.789673 148.0
1429.165894 208.0
1432.109375 96.0
1434.271851 92.0
1434.505493 128.0
1435.447876 188.0
1441.690918 180.0
1443.883301 156.0
1444.382446 44.0
1445.328125 220.0
1449.060913 168.0
1450.493164 160.0
1450.682739 208.0
1454.999268 196.0
1455.849731 116.0
1459.329956 232.0
1460.318481 132.0
1460.736816 140.0
1462.547852 148.0
1463.491821 176.0
1467.034546 104.0
1467.560547 40.0
1468.55188 156.0
1470.466919 164.0
1476.32666 224.0
1477.351562 236.0
1483.769287 168.0
1483.884277 180.0
1485.510132 88.0
1487.282593 188.0
1498.69519 248.0
1501.601318 160.0
1502.403564 132.0
