>compound MLS001074892-01!PD 173074
>formula C28H41N7O3
>ionization [M+Na]+
>parentmass 546.3163088720905
#inchi InChI=1S/C28H41N7O3/c1-8-35(9-2)13-11-10-12-29-26-30-18-20-16-23(19-14-21(37-6)17-22(15-19)38-7)25(31-24(20)32-26)33-27(36)34-28(3,4)5/h14-18H,8-13H2,1-7H3,(H3,29,30,31,32,33,34,36)
#inchikey DXCUKNQANPLTEJ
#Ion_Source LC-ESI
#Instrument qTof
#Compound_Source NIH Pharmacologically Active Library
#PI Dorrestein
#Data_Collector VP/LMS
#Scan -1
#Precursor_MZ 546.322
#ExactMass 523.327
#Charge 1
#CAS_Number N/A
#Pubmed_ID N/A
#Smiles CCN(CC)CCCCNc1ncc2cc(c(NC(=O)NC(C)(C)C)nc2n1)c3cc(OC)cc(OC)c3
#INCHI_AUX N/A
#Library_Class 3
#SpectrumID CCMSLIB00000085659
#IonMode Positive
#UpdateWorkflowName UPDATE-SINGLE-ANNOTATED-BRONZE
#LibraryQualityString Bronze
#TaskID d252d724072548979f1f6f1ced849daf
##Scan# 1767
#SpectrumFile p4-D10_GD10_01_18370.mzXML
#LibraryName Pharm_Active_Library.mgf
#MQScore -1
#Organism Pharm_Active_Library
#TIC_Query 0
#RT_Query -1
#MZErrorPPM -1
#SharedPeaks 0
#MassDiff 0
#LibMZ -1
#SpecMZ 546.322
#SpecCharge 0
#internalFilename spec-00000.mgf

>collision 10
57.866325 184.0
69.034195 124.0
70.882004 136.0
111.829857 48.0
128.140549 532.0
165.739441 52.0
166.945923 124.0
167.028229 40.0
175.592941 104.0
199.524017 156.0
213.139313 268.0
221.187195 200.0
232.9702 116.0
261.895569 184.0
262.088867 156.0
263.088684 128.0
266.219696 52.0
267.351013 52.0
271.60495 76.0
280.226929 168.0
304.09024 108.0
309.066681 200.0
309.518219 32.0
315.7117 144.0
316.221161 96.0
332.062012 52.0
336.519775 176.0
345.43573 164.0
345.876068 80.0
350.127319 100.0
352.175323 112.0
354.19101 176.0
356.224121 136.0
364.236237 104.0
366.271271 176.0
368.892822 204.0
374.152374 156.0
375.146301 192.0
391.011993 168.0
391.169434 160.0
391.236359 152.0
394.182648 96.0
397.068634 152.0
400.13736 76.0
410.849121 108.0
413.451294 192.0
422.198181 132.0
427.774231 136.0
432.87323 200.0
433.954712 184.0
438.177429 112.0
440.008331 188.0
445.074554 184.0
445.200531 152.0
447.247375 1780.0
447.454315 196.0
448.077637 60.0
448.249634 856.0
448.389465 44.0
448.499023 72.0
449.252747 152.0
450.25 176.0
450.571014 60.0
450.875244 148.0
451.120422 56.0
452.127075 184.0
466.630615 124.0
467.658752 92.0
471.83783 164.0
473.227051 1356.0
473.296844 220.0
473.357483 52.0
473.812286 80.0
473.846924 44.0
474.222076 692.0
474.353973 108.0
474.575073 76.0
474.674805 56.0
475.229218 264.0
475.295105 64.0
478.08493 44.0
484.503571 72.0
486.35849 152.0
486.986389 156.0
488.652435 104.0
514.309753 136.0
539.499573 120.0
543.004822 172.0
544.541077 56.0
545.809753 180.0
546.312988 2260.0
546.665649 92.0
547.187378 48.0
547.228882 112.0
547.316223 1236.0
547.381226 184.0
547.512939 168.0
547.568787 80.0
548.321472 500.0
548.593933 32.0
549.363403 200.0
549.549988 116.0
550.320129 64.0
551.230957 40.0
551.371155 40.0
638.809143 120.0
655.374878 116.0
891.55304 72.0
902.055176 52.0
922.010559 104.0
983.186768 60.0
1000.883545 76.0
1026.06958 44.0
1140.801025 52.0
1145.599243 188.0
