>compound NCGC00094931-03!2-Hydroxy-3-prenylnaphthoquinone
>formula C15H14O3
>ionization [M+H]+
>parentmass 243.101395
#inchi InChI=1S/C15H14O3/c1-9(2)7-8-12-13(16)10-5-3-4-6-11(10)14(17)15(12)18/h3-7,18H,8H2,1-2H3
#inchikey CIEYTVIYYGTCCI
#Ion_Source LC-ESI
#Instrument qTOF
#Compound_Source Prestwick Phytochem Lib
#PI Dorrestein
#Data_Collector VVP/LMS
#Scan -1
#Precursor_MZ 243.102
#ExactMass 242.094
#Charge 1
#CAS_Number N/A
#Pubmed_ID N/A
#Smiles CC(C)=CCC/1=C(O)/C(=O)C2=C(C=CC=C2)C1=O
#INCHI_AUX N/A
#Library_Class 1
#SpectrumID CCMSLIB00000078725
#IonMode Positive
#UpdateWorkflowName UPDATE-SINGLE-ANNOTATED-GOLD
#LibraryQualityString Gold
#TaskID 67c915c6594c435cadc1fe2b5358144d
##Scan# 2435
#SpectrumFile p1-H02_GH2_01_17958.mzXML
#LibraryName phytochem_lib.mgf
#MQScore -1
#Organism phytochem_lib
#TIC_Query 0
#RT_Query -1
#MZErrorPPM -1
#SharedPeaks 0
#MassDiff 0
#LibMZ -1
#SpecMZ 243.102
#SpecCharge 0
#internalFilename spec-00000.mgf

>collision 10
95.728508 140.0
97.151421 124.0
101.90464 284.0
101.948845 172.0
102.04332 120.0
102.71595 104.0
103.052917 2164.0
103.077339 160.0
103.255234 52.0
103.340195 44.0
103.465675 44.0
103.489975 56.0
103.560852 84.0
104.053619 164.0
104.824509 56.0
104.952927 160.0
105.033287 2912.0
106.035568 452.0
106.804283 200.0
107.043556 200.0
107.862083 36.0
107.965469 216.0
108.50798 176.0
108.738235 132.0
109.093422 148.0
109.162033 60.0
109.25563 224.0
110.271133 208.0
110.340111 96.0
110.419571 200.0
113.037895 156.0
114.499329 192.0
114.998222 184.0
115.049454 184.0
115.680092 120.0
116.057762 184.0
116.59597 168.0
117.036957 180.0
117.070343 160.0
117.295479 164.0
117.580193 160.0
118.555542 104.0
119.635048 180.0
119.883354 132.0
119.990227 256.0
120.446251 136.0
122.028503 136.0
122.719849 92.0
123.82032 72.0
124.478966 132.0
126.047173 132.0
127.052895 196.0
127.24324 144.0
127.413925 140.0
127.949188 204.0
128.066284 172.0
128.916824 152.0
129.071381 348.0
130.6241 140.0
130.869888 184.0
131.048477 1788.0
131.127304 72.0
131.599503 52.0
131.962799 136.0
132.056549 156.0
132.780289 136.0
133.027496 200.0
134.093079 144.0
134.503632 80.0
135.553635 220.0
136.424011 156.0
137.911209 176.0
138.03978 232.0
138.343948 272.0
138.573456 200.0
141.071854 392.0
142.072205 124.0
142.575577 188.0
143.048737 176.0
144.784744 140.0
145.03392 140.0
145.058868 484.0
145.153793 88.0
145.585739 76.0
145.869247 128.0
146.011108 156.0
147.035858 164.0
147.114685 180.0
149.018265 168.0
149.730988 88.0
149.899078 144.0
150.919403 128.0
151.271698 132.0
151.364731 48.0
152.014328 168.0
152.064163 144.0
152.087967 216.0
153.06781 428.0
153.157562 76.0
154.544983 192.0
154.562302 212.0
155.047791 1516.0
155.084686 388.0
155.144333 92.0
155.174088 52.0
155.657928 148.0
156.047272 172.0
156.102737 60.0
157.056595 180.0
157.223755 96.0
157.710785 68.0
158.065918 108.0
159.014359 168.0
159.043182 8484.0
159.118637 36.0
159.816101 88.0
159.876221 68.0
159.943176 76.0
160.046387 1344.0
160.114395 68.0
160.159729 160.0
160.424316 68.0
160.825394 36.0
161.05011 280.0
161.115784 76.0
162.22168 76.0
162.285065 76.0
165.0681 336.0
165.285614 72.0
166.210632 60.0
167.050766 60.0
168.060684 200.0
169.02449 180.0
169.067398 180.0
169.105713 164.0
171.043625 84.0
172.284897 144.0
173.061676 148.0
174.079071 124.0
177.051971 208.0
177.085587 136.0
177.12796 28.0
178.07666 480.0
178.391083 140.0
179.083908 368.0
180.085785 152.0
181.065186 404.0
182.067841 364.0
183.042801 940.0
183.075974 160.0
183.181213 48.0
183.24588 92.0
183.32132 84.0
183.553146 72.0
184.045029 152.0
184.100952 180.0
184.435974 208.0
184.663086 52.0
185.055466 192.0
185.161087 140.0
185.535019 76.0
186.642761 108.0
186.860352 108.0
187.03833 4912.0
187.075348 132.0
187.268677 72.0
187.350403 164.0
187.407623 32.0
187.549332 88.0
187.622925 44.0
187.963867 60.0
188.04274 508.0
189.041962 68.0
189.319748 72.0
189.497787 108.0
189.632065 84.0
190.047913 144.0
195.072662 112.0
196.046814 176.0
196.105347 132.0
197.101578 184.0
198.950165 72.0
199.068085 136.0
200.044968 332.0
200.077499 148.0
201.05191 308.0
201.179779 164.0
201.886154 72.0
202.058701 52.0
202.092651 140.0
203.05864 144.0
206.067535 132.0
207.051544 132.0
207.083557 316.0
208.096313 176.0
210.063812 132.0
210.756714 68.0
212.137222 60.0
214.056244 144.0
215.060593 196.0
216.419968 48.0
225.090057 384.0
228.072739 260.0
229.072952 200.0
237.352142 92.0
243.101395 340.0
250.950577 116.0
253.907227 88.0
281.723785 108.0
298.74353 80.0
317.388977 84.0
398.464264 68.0
405.01062 104.0
461.641846 132.0
680.90863 44.0
817.853577 52.0
824.320984 72.0
887.624329 132.0
929.890869 144.0
1023.667786 188.0
1039.213257 200.0
1047.545776 208.0
1053.137695 184.0
1056.660767 172.0
1067.206787 172.0
1103.439209 140.0
1131.321655 192.0
1132.071533 280.0
1158.677856 188.0
1165.496704 160.0
1172.430908 164.0
1176.154785 176.0
1186.518555 212.0
1209.506714 144.0
1222.095703 204.0
1231.911865 244.0
1233.910645 200.0
1242.300537 136.0
1249.343506 208.0
1255.495728 80.0
1262.734741 120.0
1264.093018 228.0
1264.185059 120.0
1268.42041 264.0
1275.518799 364.0
1281.753174 128.0
1290.711548 176.0
1295.277588 156.0
1348.585815 176.0
1350.698975 172.0
1356.564453 160.0
1374.561768 176.0
1385.008179 172.0
1388.669678 132.0
1389.107422 44.0
1389.886353 76.0
1398.611206 60.0
1408.924316 100.0
1428.272339 136.0
1428.768921 172.0
1430.921265 108.0
1434.838989 180.0
1442.939941 236.0
1444.770142 208.0
1452.762451 196.0
1455.06958 212.0
1455.730103 36.0
1459.438232 148.0
1459.917358 96.0
1472.728882 144.0
1486.455811 244.0
1486.900879 124.0
1490.794556 140.0
