>compound MLS001140512-01!(2R)-2-[[(2S)-3-methyl-2-[[1-[(2-methylpropan-2-yl)oxycarbonyl]-4-phenylpiperidine-4-carbonyl]amino]pentanoyl]amino]-2-phenylacetic acid
>formula C31H41N3O6
>ionization [M+H]+
>parentmass 552.307
#inchi InChI=1S/C31H41N3O6/c1-6-21(2)24(26(35)32-25(27(36)37)22-13-9-7-10-14-22)33-28(38)31(23-15-11-8-12-16-23)17-19-34(20-18-31)29(39)40-30(3,4)5/h7-16,21,24-25H,6,17-20H2,1-5H3,(H,32,35)(H,33,38)(H,36,37)/t21?,24-,25+/m0/s1
#inchikey RJZDRVVVKUSABJ
#Ion_Source LC-ESI
#Instrument qTof
#Compound_Source NIH Natural Product Library
#PI Dorrestein
#Data_Collector VVP/LMS
#Scan -1
#Precursor_MZ 552.307
#ExactMass 551.3
#Charge 1
#CAS_Number N/A
#Pubmed_ID N/A
#Smiles CCC(C)[C@H](NC(=O)C1(CCN(CC1)C(=O)OC(C)(C)C)c2ccccc2)C(=O)N[C@@H](C(=O)O)c3ccccc3
#INCHI_AUX N/A
#Library_Class 1
#SpectrumID CCMSLIB00000080373
#IonMode Positive
#UpdateWorkflowName UPDATE-SINGLE-ANNOTATED-GOLD
#LibraryQualityString Gold
#TaskID b1d8e8f6646f4e71acdff9ca3d919d08
##Scan# 2415
#SpectrumFile p2-H07_GH7_01_18067.mzXML
#LibraryName NIH_Natural_Products_Library.mgf
#MQScore -1
#Organism NIH_Natural_Products_Library
#TIC_Query 0
#RT_Query -1
#MZErrorPPM -1
#SharedPeaks 0
#MassDiff 0
#LibMZ -1
#SpecMZ 552.307
#SpecCharge 0
#internalFilename spec-00000.mgf

>collision 10
94.955032 132.0
95.034569 208.0
95.059799 204.0
95.261726 128.0
95.321953 188.0
95.341385 188.0
95.388039 92.0
95.405533 224.0
95.613304 152.0
95.683739 52.0
95.790848 188.0
95.864891 156.0
96.034508 172.0
96.106689 152.0
96.256996 336.0
96.426956 220.0
96.612724 204.0
96.710564 144.0
96.730141 236.0
96.743843 156.0
96.777122 152.0
96.792786 148.0
97.033798 244.0
97.106354 216.0
97.630737 180.0
97.845215 220.0
97.882629 208.0
97.931862 60.0
97.982887 164.0
98.038254 168.0
98.367645 240.0
98.381462 136.0
98.436745 56.0
98.549339 160.0
98.577003 152.0
98.612579 176.0
98.687698 44.0
98.867706 212.0
98.89344 140.0
99.000351 240.0
99.041946 52.0
99.271851 164.0
99.343254 64.0
99.436516 228.0
99.68277 160.0
99.827888 180.0
100.038231 692.0
100.074638 160.0
100.126511 160.0
100.144333 292.0
100.182182 156.0
100.396523 184.0
100.477242 140.0
100.62693 164.0
100.660873 100.0
100.890648 96.0
100.956635 152.0
101.032646 192.0
101.212776 172.0
101.413116 176.0
101.505333 136.0
101.81131 196.0
101.868614 128.0
101.907188 160.0
102.063568 212.0
102.399643 164.0
102.587044 124.0
102.988609 132.0
103.052368 320.0
103.593437 200.0
103.609642 160.0
103.64814 224.0
103.710968 300.0
103.757591 240.0
104.169563 160.0
104.187843 76.0
104.204094 168.0
104.283348 148.0
104.397202 236.0
104.429749 128.0
104.657669 148.0
104.861389 168.0
105.068527 400.0
105.142845 132.0
105.246956 160.0
105.668007 56.0
105.798988 100.0
105.887039 200.0
106.014061 244.0
106.064346 1472.0
106.175613 80.0
106.189064 100.0
106.204735 48.0
106.22525 28.0
106.405846 144.0
106.537285 180.0
106.621529 36.0
106.839394 84.0
106.886818 160.0
106.917686 116.0
107.04866 152.0
107.071709 172.0
107.138008 168.0
107.193642 160.0
107.441063 120.0
107.597916 232.0
107.686714 92.0
108.019501 268.0
108.052605 216.0
108.098129 196.0
108.265808 156.0
108.301918 204.0
108.402534 132.0
108.421188 188.0
108.497887 164.0
108.526909 128.0
108.60157 180.0
108.630608 200.0
108.811165 144.0
108.900459 152.0
108.962776 64.0
109.05629 148.0
109.189354 160.0
109.24968 208.0
109.482803 172.0
109.574455 164.0
110.085503 156.0
110.269539 172.0
110.344604 124.0
110.491005 96.0
110.612381 192.0
110.631226 224.0
110.662628 244.0
110.69194 56.0
110.947563 60.0
111.058708 208.0
111.153114 196.0
111.304253 112.0
111.484909 96.0
111.739342 188.0
111.758278 156.0
111.886665 168.0
112.040405 124.0
112.295471 208.0
112.417839 168.0
112.656425 184.0
112.914307 196.0
112.93969 128.0
112.967186 128.0
113.102615 208.0
113.168243 204.0
113.681229 132.0
113.749146 176.0
113.780991 180.0
113.851059 192.0
113.972145 64.0
114.225143 104.0
114.444351 184.0
114.636063 136.0
114.703674 144.0
114.917534 152.0
115.051842 444.0
115.344658 148.0
115.774719 28.0
115.991119 180.0
116.060837 216.0
116.094032 196.0
116.527641 356.0
116.93837 56.0
116.969658 232.0
117.018021 216.0
117.07061 1044.0
117.298088 236.0
117.375702 144.0
117.466286 168.0
117.569855 176.0
117.679947 68.0
117.867867 132.0
117.902443 152.0
117.997551 116.0
118.040794 124.0
118.07148 348.0
118.161926 48.0
118.203033 184.0
118.220345 164.0
118.380547 144.0
118.491013 152.0
118.578606 180.0
118.625381 168.0
118.655731 164.0
118.690422 132.0
118.831413 168.0
118.99202 180.0
119.02459 116.0
119.10495 164.0
119.787987 232.0
119.953598 40.0
120.164139 208.0
120.23407 164.0
120.595345 140.0
120.636879 172.0
120.927803 56.0
121.148972 168.0
121.348412 68.0
121.490967 148.0
121.769737 88.0
121.7939 140.0
121.813675 132.0
121.892769 88.0
121.923531 232.0
121.963097 156.0
122.262215 128.0
122.878166 144.0
123.031494 172.0
123.133072 136.0
123.329712 148.0
123.60601 176.0
123.800972 192.0
124.194275 236.0
124.226532 172.0
124.268692 164.0
124.603951 32.0
124.966354 160.0
125.220131 116.0
125.318153 180.0
125.340431 200.0
125.371628 164.0
125.605743 164.0
126.003113 228.0
126.018753 208.0
126.055489 356.0
126.206505 132.0
126.311623 116.0
126.501831 140.0
126.524216 200.0
126.63842 212.0
126.663063 136.0
126.77285 200.0
126.905098 236.0
127.071075 156.0
127.190018 136.0
127.270836 188.0
127.329224 84.0
127.419075 164.0
127.589882 80.0
127.81794 204.0
128.060806 148.0
128.377975 152.0
128.714218 144.0
128.775192 144.0
129.068756 192.0
129.363098 284.0
129.492172 164.0
129.512558 132.0
129.687027 180.0
130.158905 52.0
130.194504 108.0
130.306549 164.0
130.363358 152.0
130.395172 156.0
130.743149 120.0
130.790939 172.0
130.891113 152.0
131.08606 4964.0
131.153915 80.0
131.171341 64.0
131.278503 224.0
131.385712 240.0
131.47699 56.0
131.495239 200.0
131.527191 80.0
131.666473 64.0
131.753281 144.0
131.860672 48.0
131.990982 96.0
132.027573 76.0
132.043579 124.0
132.088196 556.0
132.286133 148.0
132.613693 168.0
132.705383 192.0
132.755829 204.0
132.868225 160.0
133.101517 560.0
133.235565 140.0
133.260834 88.0
133.378036 112.0
133.552795 164.0
134.050079 116.0
134.105392 152.0
134.169937 112.0
134.53215 140.0
134.860153 204.0
135.044998 2864.0
135.080795 232.0
135.163116 148.0
135.209412 84.0
135.30368 128.0
135.345993 164.0
135.617035 56.0
135.763107 176.0
136.025284 96.0
136.0495 596.0
136.085648 164.0
136.150665 204.0
136.236618 52.0
136.420212 112.0
136.485306 132.0
136.557404 240.0
136.781326 200.0
136.831985 160.0
137.130157 88.0
137.71814 64.0
138.064041 184.0
138.159958 92.0
138.227798 200.0
138.511093 96.0
138.545563 224.0
138.829849 168.0
139.381592 120.0
139.529587 184.0
139.705978 156.0
139.960159 148.0
140.009613 200.0
140.191025 240.0
140.233444 156.0
140.249939 200.0
140.591934 68.0
140.778427 224.0
140.861099 144.0
141.097427 88.0
141.118698 132.0
141.16362 88.0
141.232208 152.0
141.558823 232.0
141.66066 152.0
141.72937 144.0
141.84314 36.0
141.961685 184.0
142.010361 216.0
142.047073 172.0
142.122986 172.0
142.30101 172.0
142.331863 184.0
142.467255 172.0
142.778641 224.0
142.82399 172.0
142.932083 164.0
143.016556 32.0
143.04512 116.0
143.085022 2200.0
143.113434 104.0
143.432556 152.0
143.712433 216.0
143.862793 48.0
144.018005 148.0
144.087708 360.0
144.233063 196.0
144.331085 200.0
144.486557 156.0
144.866074 136.0
144.93428 120.0
145.068604 180.0
145.097275 92.0
145.233963 148.0
145.442719 144.0
145.891937 144.0
146.088989 208.0
146.4189 144.0
146.792435 156.0
146.920273 212.0
146.956451 68.0
147.132645 52.0
147.176102 208.0
147.301697 152.0
147.378998 172.0
147.560287 68.0
147.809418 152.0
147.908646 148.0
148.03212 216.0
148.315582 160.0
148.431961 96.0
148.480682 180.0
148.69397 236.0
148.82991 136.0
148.94162 104.0
149.084976 120.0
149.150604 216.0
149.374313 136.0
149.415665 152.0
149.831985 152.0
149.924576 208.0
150.029388 128.0
150.161072 188.0
150.502716 196.0
150.57309 108.0
150.622391 152.0
150.677872 180.0
150.856979 180.0
151.165161 192.0
151.270401 148.0
151.510406 152.0
151.532455 176.0
151.68161 180.0
151.762146 232.0
151.824158 176.0
151.922272 144.0
152.030228 168.0
152.070023 1480.0
152.168182 160.0
152.31749 116.0
152.541107 120.0
152.81163 168.0
153.077606 160.0
153.178452 232.0
153.291794 176.0
153.397781 216.0
153.429825 112.0
154.096207 48.0
154.262253 232.0
154.308762 176.0
154.568466 244.0
155.041458 120.0
155.472992 116.0
156.011993 164.0
156.345291 208.0
156.487183 192.0
156.5345 72.0
156.786102 164.0
156.935669 100.0
157.020462 48.0
157.059372 288.0
157.092804 36.0
157.242508 48.0
157.54216 224.0
157.712082 120.0
157.74707 120.0
157.782074 132.0
157.952118 204.0
158.067215 124.0
158.096527 312.0
158.232407 132.0
158.48288 160.0
158.540512 140.0
158.59314 132.0
158.700943 140.0
158.86647 128.0
158.935684 208.0
158.994446 140.0
159.081818 356.0
159.162643 92.0
159.205322 116.0
159.293243 88.0
159.371124 116.0
159.39122 72.0
159.537003 176.0
159.614944 248.0
159.71962 152.0
159.735657 520.0
159.773392 96.0
159.873825 176.0
159.919357 120.0
159.958328 156.0
159.982285 180.0
160.003799 204.0
160.022568 372.0
160.045181 324.0
160.067459 116.0
160.071045 344.0
160.112549 64816.0
160.206787 192.0
160.236649 124.0
160.258148 316.0
160.299973 60.0
160.328354 92.0
160.381683 80.0
160.396149 120.0
160.433548 128.0
160.47641 92.0
160.501297 76.0
160.524292 56.0
160.541641 160.0
160.565887 144.0
160.634811 64.0
160.682907 124.0
160.721191 68.0
160.784042 100.0
160.809082 72.0
160.829269 76.0
160.89238 64.0
160.93277 160.0
160.975708 60.0
161.007355 120.0
161.040436 76.0
161.077682 384.0
161.115234 9164.0
161.155045 212.0
161.199738 148.0
161.24324 160.0
161.326904 124.0
161.353256 124.0
161.483688 76.0
161.51738 112.0
161.547867 200.0
161.63295 60.0
161.668381 84.0
161.691147 40.0
161.72406 56.0
161.769623 64.0
161.793335 108.0
161.812744 172.0
161.961273 152.0
161.967819 104.0
161.9758 76.0
162.020844 120.0
162.055557 124.0
162.114517 140.0
162.174911 124.0
162.191849 136.0
162.226837 116.0
162.248428 60.0
162.285721 96.0
162.326691 208.0
162.360001 44.0
162.382812 116.0
162.479218 128.0
162.509354 100.0
162.703857 132.0
162.740631 96.0
162.898102 72.0
162.971771 76.0
163.192902 36.0
163.220871 48.0
163.251389 32.0
163.304794 144.0
163.459991 120.0
163.485443 144.0
163.622894 80.0
163.655991 100.0
163.773132 68.0
163.869934 168.0
163.989716 204.0
164.390121 48.0
164.428406 96.0
164.476898 116.0
164.494766 208.0
164.535614 128.0
164.775681 172.0
164.821671 52.0
165.123337 172.0
165.235886 196.0
165.404785 172.0
165.676239 136.0
166.091522 164.0
166.391769 168.0
166.466232 116.0
166.509903 196.0
166.674316 152.0
167.49144 196.0
167.716614 200.0
167.902252 168.0
168.152512 148.0
168.340973 52.0
168.408127 56.0
169.033783 76.0
169.530975 240.0
169.725403 136.0
170.097382 644.0
170.376862 100.0
170.441818 56.0
170.956711 116.0
171.28476 160.0
171.477585 60.0
171.553177 60.0
171.584457 184.0
171.833176 204.0
171.902679 204.0
172.009689 132.0
172.63414 60.0
172.817245 148.0
172.950714 140.0
173.065903 168.0
173.152313 116.0
173.679153 48.0
174.009811 140.0
174.27771 80.0
174.393341 40.0
174.430145 180.0
174.511642 196.0
174.540573 152.0
174.737839 120.0
174.987869 160.0
175.17749 84.0
175.335587 140.0
176.116562 152.0
176.230164 120.0
176.290939 200.0
176.317368 100.0
176.338516 120.0
176.388733 180.0
176.502411 228.0
176.655823 60.0
177.068741 48.0
177.280685 164.0
177.635971 132.0
178.270538 52.0
178.408752 52.0
178.547028 156.0
178.751877 120.0
178.815735 260.0
179.167236 136.0
180.111588 208.0
181.004852 144.0
181.35849 164.0
181.594452 64.0
182.117844 164.0
182.507523 72.0
182.717316 176.0
182.911072 112.0
183.134567 124.0
183.24231 212.0
183.722214 128.0
184.191925 232.0
185.610092 212.0
185.856934 152.0
186.014359 152.0
186.090408 1428.0
186.565811 140.0
186.620193 56.0
186.682739 136.0
186.938446 176.0
187.095993 300.0
187.11409 372.0
187.148056 152.0
187.237915 136.0
187.301804 180.0
187.506363 188.0
187.573059 212.0
187.603043 104.0
187.700928 208.0
187.731186 224.0
187.799377 156.0
187.850388 116.0
187.90303 208.0
187.972488 220.0
187.998535 100.0
188.055847 212.0
188.074295 164.0
188.107681 28856.0
188.165115 168.0
188.216293 52.0
188.272705 84.0
188.293396 64.0
188.312515 40.0
188.336761 84.0
188.378067 44.0
188.438171 40.0
188.503754 64.0
188.525604 52.0
188.567398 164.0
188.643143 40.0
188.752502 44.0
188.842758 56.0
189.001419 40.0
189.110275 3964.0
189.170654 56.0
189.246216 92.0
189.288849 36.0
189.331223 76.0
189.439484 140.0
189.773849 68.0
189.895874 96.0
189.954498 92.0
190.004227 60.0
190.028915 92.0
190.11322 372.0
190.236786 152.0
190.395523 84.0
190.435577 88.0
190.514969 112.0
190.547836 124.0
190.608292 68.0
190.633011 128.0
190.668747 132.0
190.762207 40.0
190.814438 80.0
190.858429 32.0
190.87767 56.0
190.91893 92.0
190.938171 132.0
191.111481 244.0
191.295883 92.0
191.361954 44.0
191.539703 96.0
191.656677 168.0
192.111588 96.0
192.531143 192.0
193.219421 76.0
193.454666 56.0
194.036438 60.0
194.111313 100.0
195.631119 164.0
196.7267 192.0
197.142883 148.0
197.198776 84.0
197.990555 48.0
198.122208 140.0
198.273514 72.0
198.304352 136.0
198.828812 172.0
199.334305 148.0
199.421432 192.0
199.680099 36.0
199.795425 216.0
201.165054 188.0
201.54068 184.0
201.590729 192.0
203.126114 80.0
203.426926 88.0
203.478027 148.0
203.517776 120.0
203.56485 180.0
203.844437 140.0
203.946747 80.0
203.979172 168.0
204.056046 144.0
204.102188 25160.0
204.166183 156.0
204.20549 204.0
204.250534 48.0
204.309143 64.0
204.358215 76.0
204.45871 56.0
204.521317 88.0
204.546188 88.0
204.649429 100.0
204.694992 80.0
204.741608 152.0
204.877274 56.0
204.897217 44.0
204.924026 128.0
204.989288 88.0
205.071045 36.0
205.104675 2936.0
205.176514 60.0
205.327652 148.0
205.40387 52.0
205.464569 116.0
205.541611 96.0
205.595825 116.0
205.664322 80.0
205.695724 40.0
205.738541 80.0
205.82135 60.0
205.852753 52.0
206.106567 568.0
206.164139 96.0
206.301346 140.0
206.375671 100.0
206.504364 56.0
206.575867 196.0
206.626556 168.0
206.674408 96.0
206.707489 92.0
206.750412 128.0
207.188507 72.0
207.265869 52.0
207.420639 36.0
207.486572 116.0
208.310211 92.0
208.405014 92.0
208.522842 68.0
209.132599 76.0
209.96814 68.0
211.496582 176.0
211.835388 136.0
212.144165 108.0
213.326981 76.0
213.559616 48.0
213.71962 192.0
213.745804 52.0
213.969925 68.0
214.127167 116.0
214.185425 60.0
217.712769 104.0
218.065323 132.0
218.088837 172.0
219.051056 48.0
219.151215 144.0
219.224884 120.0
219.357513 80.0
220.142349 152.0
220.95224 44.0
222.111633 152.0
224.630096 64.0
224.677826 176.0
226.174988 132.0
226.786026 60.0
228.654205 120.0
229.193253 124.0
230.974503 68.0
231.116684 152.0
231.419373 48.0
232.082169 160.0
232.49852 144.0
232.619934 120.0
233.105896 160.0
233.20314 216.0
234.118912 196.0
237.164856 132.0
237.490051 116.0
238.906174 108.0
239.709778 148.0
240.156815 52.0
243.151825 152.0
243.555466 84.0
244.618942 156.0
244.911636 160.0
246.2341 136.0
247.560135 176.0
248.055176 204.0
248.124146 44.0
249.137833 212.0
250.285828 104.0
251.597458 52.0
252.19133 204.0
252.545456 88.0
253.362167 152.0
253.710785 56.0
254.576996 196.0
256.167328 152.0
257.190918 152.0
257.995911 52.0
258.088898 140.0
258.150574 496.0
258.491669 48.0
258.603699 76.0
258.853394 72.0
259.026367 52.0
259.157715 92.0
261.151306 160.0
261.617889 164.0
262.826508 72.0
263.03952 148.0
263.362427 156.0
264.937775 172.0
265.070618 60.0
265.154358 3924.0
265.556915 108.0
265.654236 40.0
265.839172 52.0
265.956024 56.0
266.156067 1032.0
266.456116 40.0
267.15802 160.0
267.184387 80.0
267.864777 132.0
268.073273 92.0
270.532745 148.0
271.073181 132.0
271.180298 4660.0
271.256714 60.0
271.338684 32.0
271.581055 44.0
271.627289 56.0
271.669922 44.0
271.696167 72.0
271.811005 88.0
271.873352 192.0
272.070312 44.0
272.185791 688.0
272.316589 52.0
272.83905 104.0
272.867218 132.0
272.944275 92.0
273.138306 196.0
273.194824 3616.0
273.342285 48.0
273.513428 84.0
273.579285 48.0
273.648407 40.0
273.728027 204.0
273.901978 116.0
274.145813 152.0
274.19928 540.0
274.458954 48.0
274.670044 40.0
274.834991 72.0
275.203125 144.0
275.247589 80.0
275.303741 88.0
276.179565 104.0
277.023682 176.0
277.239044 56.0
278.366943 60.0
278.446655 152.0
278.891876 64.0
279.161194 76.0
281.013214 128.0
283.444092 68.0
284.7323 196.0
289.318176 72.0
290.338074 80.0
290.942078 104.0
291.088074 156.0
291.862823 88.0
292.179138 224.0
294.985809 52.0
296.368469 144.0
296.748932 72.0
298.372894 120.0
298.77182 172.0
299.176239 2876.0
299.71521 60.0
300.183105 532.0
300.30127 60.0
300.615234 84.0
300.694611 28.0
301.149872 112.0
301.191803 3780.0
301.257446 48.0
301.357635 76.0
301.440552 64.0
301.627197 144.0
301.893616 68.0
302.190552 1504.0
302.232422 84.0
302.308563 88.0
302.37085 116.0
303.202057 128.0
304.162811 84.0
304.284332 156.0
304.360718 52.0
306.806641 48.0
307.595062 216.0
310.450073 64.0
313.258423 220.0
313.850525 248.0
314.877441 84.0
315.326141 112.0
316.220947 148.0
316.971741 112.0
317.095764 72.0
317.187042 5504.0
317.263641 68.0
317.347473 52.0
317.471588 44.0
317.897278 88.0
318.188232 1772.0
318.543488 28.0
319.005432 44.0
319.195831 520.0
319.282776 64.0
319.699036 92.0
319.947479 80.0
320.193085 176.0
320.236633 120.0
320.432556 60.0
320.485992 60.0
320.642792 84.0
321.595093 32.0
322.595245 44.0
324.403076 92.0
326.348969 20.0
337.162689 60.0
338.882568 140.0
343.909729 84.0
345.183014 412.0
345.38031 68.0
345.709595 72.0
345.990906 104.0
346.174225 356.0
348.011536 80.0
361.132111 112.0
364.601227 76.0
370.887451 92.0
372.145752 76.0
378.299561 100.0
382.152802 136.0
387.352997 20.0
389.55368 56.0
390.556061 36.0
391.200958 132.0
402.074127 172.0
405.77829 52.0
407.560364 52.0
420.099457 132.0
425.731537 92.0
425.9328 104.0
428.7883 36.0
430.417786 76.0
433.176422 124.0
434.231232 124.0
434.262421 136.0
438.845154 84.0
447.585785 72.0
450.128479 120.0
452.255737 644.0
453.258728 128.0
454.280518 80.0
460.60199 48.0
502.410309 84.0
505.820007 92.0
511.210358 128.0
514.247925 84.0
520.786072 96.0
523.182495 80.0
528.495056 52.0
537.348938 56.0
544.863159 56.0
548.917236 84.0
551.480286 160.0
553.295288 140.0
555.02417 140.0
555.450928 88.0
559.308777 104.0
615.835938 84.0
633.885742 72.0
641.565735 76.0
646.844788 140.0
648.744385 60.0
653.915405 80.0
655.173096 52.0
677.987976 76.0
694.778137 68.0
712.240967 140.0
714.542847 100.0
757.596741 68.0
772.460266 64.0
773.102051 60.0
774.419739 108.0
782.883789 80.0
805.380066 156.0
816.02832 172.0
823.939026 196.0
870.641541 100.0
889.411133 160.0
891.371033 208.0
898.46228 104.0
906.342468 236.0
912.428528 132.0
916.442932 48.0
917.913696 208.0
919.771912 120.0
921.517151 140.0
924.740356 120.0
936.160034 164.0
949.7771 36.0
970.275452 124.0
979.348083 124.0
981.236267 204.0
981.435791 36.0
986.592834 224.0
987.261841 132.0
989.552063 228.0
990.980042 232.0
998.701599 120.0
1002.882385 116.0
1005.60083 168.0
1006.465698 136.0
1010.66272 136.0
1011.371521 204.0
1012.517517 236.0
1013.524719 208.0
1026.600464 220.0
1036.668945 196.0
1037.649658 216.0
1050.015259 32.0
1059.446045 184.0
1063.732422 188.0
1064.738892 112.0
1066.161621 116.0
1067.097656 224.0
1067.260254 172.0
1074.417969 188.0
1077.845825 80.0
1082.228271 160.0
1082.824097 136.0
1085.025879 36.0
1089.915649 104.0
1095.0271 208.0
1102.601074 64.0
1106.828247 164.0
1110.406738 116.0
1113.678833 152.0
1114.894653 208.0
1116.151123 180.0
1117.288452 80.0
1118.785767 124.0
1120.144287 184.0
1121.376953 140.0
1124.805298 148.0
1129.201904 96.0
1133.667236 156.0
1134.994507 80.0
1135.343262 152.0
1137.792358 68.0
1139.982056 48.0
1141.252441 180.0
1144.71106 156.0
1147.096191 160.0
1155.686646 184.0
1157.79187 148.0
1163.188965 152.0
1165.226196 248.0
1170.72229 188.0
1172.691162 144.0
1179.216064 192.0
1179.427979 176.0
1180.897949 188.0
1182.991821 172.0
1184.532593 168.0
1186.42395 48.0
1187.027344 108.0
1188.563843 176.0
1190.946045 148.0
1195.15332 108.0
1198.513428 144.0
1201.298828 236.0
1205.835327 64.0
1207.97876 144.0
1210.096436 124.0
1215.919189 144.0
1216.731323 172.0
1217.328491 136.0
1219.134644 244.0
1232.807495 68.0
1238.873779 228.0
1239.511353 48.0
1242.259644 124.0
1243.059448 160.0
1243.873657 92.0
1245.341187 160.0
1247.0625 180.0
1248.616333 48.0
1249.460449 224.0
1252.635376 164.0
1263.931396 128.0
1264.207397 180.0
1266.42334 120.0
1267.939575 148.0
1271.514038 132.0
1272.96936 144.0
1274.176758 156.0
1275.590942 124.0
1277.21228 144.0
1278.592529 104.0
1280.073242 144.0
1280.657227 116.0
1283.080078 128.0
1286.054688 168.0
1290.784058 212.0
1294.727173 180.0
1295.357422 156.0
1295.966431 128.0
1299.565674 144.0
1301.991943 184.0
1302.652832 116.0
1305.218506 68.0
1306.815308 152.0
1308.434692 168.0
1308.773071 84.0
1310.170288 212.0
1310.854858 156.0
1313.688354 244.0
1315.824463 280.0
1319.791016 160.0
1321.461914 232.0
1323.075806 168.0
1328.525513 204.0
1328.706909 204.0
1335.848145 136.0
1336.022705 192.0
1336.59021 120.0
1338.104126 68.0
1342.206177 208.0
1342.599976 204.0
1343.285645 156.0
1345.613647 160.0
1346.541016 160.0
1348.462524 132.0
1350.531616 208.0
1354.37439 220.0
1354.483154 132.0
1355.678467 108.0
1358.075806 48.0
1358.134521 100.0
1358.376587 164.0
1359.425781 224.0
1360.761719 240.0
1363.53833 88.0
1364.699829 144.0
1370.669189 200.0
1372.615234 100.0
1375.972412 184.0
1376.769897 156.0
1378.601929 204.0
1378.956665 128.0
1381.182251 148.0
1382.462158 240.0
1382.935791 120.0
1385.223877 136.0
1385.957275 224.0
1387.202393 164.0
1387.74353 148.0
1389.590332 216.0
1391.779907 176.0
1392.678467 224.0
1393.30249 180.0
1395.316528 196.0
1397.748657 180.0
1399.237305 148.0
1400.86084 76.0
1401.851685 220.0
1402.611938 132.0
1403.633301 120.0
1403.80481 100.0
1404.200073 132.0
1404.498413 168.0
1405.901001 156.0
1408.812988 172.0
1408.984863 112.0
1410.501831 172.0
1412.101929 68.0
1416.802734 216.0
1420.108521 196.0
1422.449585 164.0
1425.250854 164.0
1426.633667 156.0
1427.543457 196.0
1429.702515 228.0
1430.537964 100.0
1434.334473 172.0
1436.566528 188.0
1437.939819 188.0
1440.726196 164.0
1443.810059 164.0
1444.248779 76.0
1445.459229 88.0
1446.034302 136.0
1448.570923 140.0
1449.351196 200.0
1450.753296 60.0
1452.831177 160.0
1453.703735 128.0
1454.493042 156.0
1455.381348 140.0
1456.125488 88.0
1457.196655 140.0
1457.857666 124.0
1457.956421 208.0
1458.290894 100.0
1460.754517 108.0
1464.804077 172.0
1467.898438 120.0
1470.019043 128.0
1473.134155 200.0
1474.035767 224.0
1475.731201 192.0
1475.832031 108.0
1477.047974 72.0
1479.052734 120.0
1479.389526 208.0
1480.484497 152.0
1480.88269 128.0
1481.832642 208.0
1483.503296 128.0
1483.901978 140.0
1484.837524 104.0
1486.594238 224.0
1486.69397 212.0
1491.371216 200.0
1494.978271 96.0
1495.263062 172.0
1495.747925 116.0
1495.909546 188.0
1496.887329 108.0
1497.095215 116.0
1498.235229 152.0
1499.999878 168.0
1503.0 160.0
1503.686768 164.0
