>compound Megestrol Acetate
>formula C24H32O4
>ionization [M+H]+
>parentmass 385.236938
#inchi InChI=1S/C24H32O4/c1-14-12-18-19(22(4)9-6-17(27)13-21(14)22)7-10-23(5)20(18)8-11-24(23,15(2)25)28-16(3)26/h12-13,18-20H,6-11H2,1-5H3/t18-,19-,20+,22-,23+,24-/m1/s1
#inchikey RQZAXGRLVPAYTJ
#Ion_Source LC-ESI
#Instrument qTof
#Compound_Source Commercial
#PI Dorrestein
#Data_Collector Garg_Neha
#Scan -1
#Precursor_MZ 385.237
#ExactMass 384.23
#Charge 1
#CAS_Number 595-33-5
#Pubmed_ID N/A
#Smiles C1C(C=C2[C@](C1)([C@]3([C@@](C=C2C)([C@]4([C@](CC3)([C@@](CC4)(C(C)=O)OC(=O)C)C)[H])[H])[H])C)=O
#INCHI_AUX N/A
#Library_Class 1
#SpectrumID CCMSLIB00000078095
#IonMode Positive
#UpdateWorkflowName UPDATE-SINGLE-ANNOTATED-GOLD
#LibraryQualityString Gold
#TaskID 77f51c88eb8b467eb4a01dd2d0cb90d2
##Scan# 2147
#SpectrumFile Plate2_1_20_GG5_01_16493.mzXML
#LibraryName FDALibrary_2_04302014.mgf
#MQScore -1
#Organism FDALibrary_2_04302014
#TIC_Query 0
#RT_Query -1
#MZErrorPPM -1
#SharedPeaks 0
#MassDiff 0
#LibMZ -1
#SpecMZ 385.237
#SpecCharge 0
#internalFilename spec-00000.mgf

>collision 10
44.890976 168.0
45.997887 228.0
46.23848 148.0
46.899937 188.0
47.283737 176.0
47.581192 152.0
51.183544 212.0
52.215355 272.0
54.593323 216.0
55.119591 156.0
55.816284 144.0
56.611664 228.0
57.013718 180.0
58.394077 152.0
58.819187 164.0
59.315968 100.0
61.086044 168.0
62.992298 144.0
63.744881 152.0
63.965958 140.0
64.452393 168.0
64.649078 148.0
65.000031 160.0
65.453331 148.0
65.630577 240.0
65.667664 156.0
66.217194 144.0
67.748383 144.0
68.308174 172.0
68.397026 204.0
69.441292 148.0
69.584007 164.0
69.781715 188.0
70.540268 208.0
71.417252 180.0
71.529991 188.0
71.605759 148.0
73.740189 176.0
74.924217 192.0
76.011627 176.0
76.366188 160.0
76.747574 164.0
76.997116 200.0
77.199844 184.0
77.641167 232.0
78.859512 180.0
79.855965 148.0
82.065849 164.0
82.179482 152.0
82.636604 168.0
83.243828 216.0
83.387352 152.0
83.441887 188.0
84.765221 184.0
85.385719 164.0
87.655418 144.0
88.075195 172.0
88.767555 192.0
89.306679 144.0
89.698334 204.0
89.753006 176.0
92.108299 148.0
95.085121 208.0
95.098709 224.0
97.066605 156.0
98.073799 188.0
98.290741 180.0
98.486191 204.0
98.505943 256.0
98.883606 156.0
100.818741 184.0
100.926689 172.0
101.541481 156.0
102.58506 200.0
103.016914 152.0
103.101784 148.0
104.824722 188.0
105.07032 160.0
105.155106 160.0
105.322533 152.0
105.443077 196.0
106.736656 200.0
107.0895 176.0
108.937828 168.0
109.062508 204.0
109.099297 132.0
109.445297 148.0
109.972733 176.0
111.086792 200.0
111.560539 148.0
112.565559 156.0
113.174545 160.0
113.889236 196.0
114.842804 172.0
116.619965 172.0
116.660805 164.0
117.068512 144.0
117.632362 152.0
118.068817 184.0
118.341476 192.0
119.085182 144.0
119.452644 200.0
119.800957 244.0
120.378952 180.0
120.724228 156.0
121.065903 156.0
121.104004 176.0
124.386169 220.0
124.541603 180.0
125.674751 144.0
126.414383 176.0
126.779411 232.0
127.078537 232.0
127.580727 200.0
127.7089 264.0
128.295029 196.0
129.07106 508.0
129.893188 152.0
130.708817 168.0
131.08342 332.0
132.070831 168.0
132.123444 164.0
132.918503 156.0
133.065399 160.0
133.102417 704.0
133.265213 144.0
133.706741 176.0
134.00148 144.0
134.100204 152.0
134.213531 236.0
134.742081 144.0
135.083755 768.0
135.115997 340.0
136.090073 184.0
137.098587 312.0
137.14624 224.0
139.602219 148.0
140.115356 140.0
141.065948 160.0
141.189377 148.0
141.456741 144.0
142.082382 148.0
142.390961 172.0
143.083374 328.0
143.213913 240.0
143.406906 188.0
143.468872 152.0
143.61673 160.0
144.060715 156.0
144.090652 264.0
145.063644 168.0
145.102753 680.0
146.059555 192.0
146.79454 148.0
147.075821 292.0
147.114731 216.0
147.782486 164.0
148.218323 184.0
149.098969 212.0
149.122482 172.0
149.580826 252.0
149.678207 224.0
151.030258 144.0
151.111511 472.0
152.115784 184.0
152.331879 200.0
153.279114 172.0
153.471375 140.0
154.043961 164.0
154.073593 176.0
155.086838 472.0
155.108017 184.0
155.157593 188.0
155.217102 232.0
155.589279 164.0
155.681152 160.0
156.094009 168.0
156.441986 180.0
156.912857 168.0
157.101608 540.0
158.244537 216.0
159.089828 248.0
159.114853 252.0
159.476257 140.0
160.118286 160.0
161.097626 632.0
161.130859 156.0
162.099579 144.0
162.542221 216.0
162.676743 192.0
163.078079 204.0
163.111862 328.0
164.397339 180.0
164.420303 164.0
165.516998 144.0
166.427261 172.0
166.661011 188.0
166.756088 220.0
167.087616 184.0
168.092636 504.0
168.265625 184.0
169.059174 176.0
169.103073 924.0
169.618622 212.0
170.102524 352.0
171.114822 536.0
172.090134 364.0
172.121078 188.0
172.665024 180.0
173.093704 396.0
173.131439 480.0
173.277557 216.0
173.94104 208.0
174.098892 252.0
174.134903 260.0
174.437515 180.0
174.461182 152.0
175.111374 1892.0
175.145844 152.0
175.240204 152.0
175.830078 180.0
176.070831 172.0
176.117599 320.0
176.150375 168.0
177.097351 164.0
177.127716 368.0
177.855682 168.0
178.127609 212.0
179.087036 168.0
179.302597 176.0
181.108505 288.0
182.111038 284.0
182.329529 204.0
182.88089 148.0
183.057724 152.0
183.082825 188.0
183.114349 1280.0
183.338745 172.0
184.120377 296.0
185.095459 228.0
185.129852 332.0
185.620361 188.0
186.075012 100.0
186.097275 152.0
186.14032 376.0
187.111893 2532.0
187.839691 180.0
188.111679 504.0
188.311905 184.0
188.98439 216.0
189.129105 684.0
189.663574 168.0
190.129837 176.0
190.242371 204.0
192.095535 156.0
192.414536 152.0
192.469757 148.0
193.10466 496.0
193.363998 144.0
194.105118 152.0
194.199417 148.0
194.937897 144.0
195.010162 160.0
195.11879 908.0
196.117813 256.0
196.971786 148.0
197.129868 644.0
198.141174 1348.0
198.191574 164.0
198.348526 208.0
199.113022 308.0
199.1474 616.0
199.406708 240.0
199.867905 148.0
199.927002 156.0
200.155014 260.0
201.006317 164.0
201.128937 116.0
201.158264 148.0
202.132736 160.0
202.748322 180.0
202.983612 144.0
203.806793 164.0
204.148056 156.0
204.472229 200.0
204.628784 228.0
204.662964 160.0
204.833832 176.0
205.16156 332.0
205.395386 232.0
205.509506 160.0
206.990158 168.0
207.116013 156.0
208.07399 232.0
208.123871 556.0
208.48761 152.0
208.608337 232.0
209.008118 176.0
209.094437 176.0
209.132248 2844.0
210.085663 228.0
210.135956 892.0
211.116043 192.0
211.149017 1924.0
211.504517 152.0
212.15213 512.0
212.55365 204.0
213.126755 208.0
213.156937 348.0
213.726151 152.0
214.126404 224.0
214.164261 176.0
215.144577 268.0
216.149994 144.0
216.172913 148.0
217.151749 108.0
218.355606 220.0
218.408554 156.0
219.113495 244.0
220.115906 176.0
220.141541 160.0
220.493103 140.0
221.13327 412.0
221.557281 144.0
222.138657 528.0
222.163132 340.0
222.33522 236.0
222.507385 212.0
223.104538 140.0
223.147141 1448.0
223.910416 208.0
224.055893 216.0
224.155457 7476.0
224.301254 192.0
224.506973 200.0
224.629272 188.0
224.967056 116.0
225.130829 348.0
225.16153 2664.0
226.16571 680.0
226.437637 156.0
226.911102 140.0
227.14357 168.0
227.171722 208.0
229.118469 144.0
229.15979 200.0
229.750183 164.0
230.103287 188.0
230.127441 164.0
230.81636 160.0
233.132599 128.0
234.139755 364.0
235.146652 276.0
235.576004 240.0
235.851013 232.0
236.040573 176.0
236.107437 152.0
236.146927 460.0
237.128555 164.0
237.16243 656.0
237.532104 192.0
237.753021 180.0
238.173294 164.0
238.225861 140.0
239.139542 220.0
239.176834 160.0
239.893799 144.0
240.088058 216.0
240.18367 160.0
240.987381 140.0
241.157761 1136.0
241.892471 228.0
242.162918 240.0
242.558472 144.0
243.172836 424.0
243.22229 180.0
244.145065 184.0
244.16684 204.0
245.144302 164.0
246.058289 152.0
246.142593 144.0
247.148849 252.0
248.152679 304.0
249.126694 148.0
249.162262 1576.0
250.170425 508.0
251.144516 464.0
251.178574 172.0
251.318741 192.0
251.820679 152.0
251.912277 152.0
252.151764 172.0
253.167618 224.0
254.165863 344.0
254.49028 144.0
254.792007 160.0
255.176636 1384.0
255.558243 188.0
256.145416 200.0
256.174561 360.0
256.682648 200.0
256.816589 156.0
257.145233 140.0
257.196289 144.0
257.777557 164.0
258.458679 164.0
258.932465 168.0
260.189453 164.0
260.639099 172.0
261.159119 132.0
261.2146 188.0
263.17569 532.0
263.219299 168.0
263.606934 156.0
264.029144 204.0
264.151062 200.0
264.191467 308.0
264.742401 232.0
264.931122 196.0
265.161469 424.0
265.193665 2904.0
265.769989 140.0
265.996765 124.0
266.162659 296.0
266.195038 616.0
267.072968 172.0
267.173035 11416.0
267.283081 176.0
267.326874 144.0
267.430634 148.0
267.784485 148.0
268.17691 2224.0
268.329742 180.0
268.701538 188.0
269.17099 116.0
270.165161 176.0
270.705139 156.0
271.862427 172.0
272.171021 140.0
274.171387 452.0
277.174225 176.0
277.605927 152.0
277.722015 144.0
278.246338 144.0
279.213287 140.0
280.253265 252.0
280.478516 160.0
281.188538 1972.0
281.639709 180.0
282.197174 3392.0
282.251312 240.0
282.456085 176.0
283.167511 176.0
283.202667 2472.0
283.255341 212.0
283.422852 148.0
284.210266 428.0
284.905731 120.0
285.214569 128.0
289.190948 176.0
290.079254 152.0
290.200775 152.0
292.181396 148.0
293.775757 144.0
294.492584 176.0
294.790283 128.0
295.175629 144.0
298.416412 172.0
299.431549 156.0
303.485107 160.0
305.130859 168.0
305.186493 140.0
306.11554 160.0
307.14856 112.0
307.204651 2068.0
307.943024 188.0
308.210358 852.0
309.214111 136.0
310.190796 492.0
310.911957 172.0
311.19574 152.0
314.194916 192.0
314.766724 204.0
317.707977 164.0
321.961548 160.0
323.204132 228.0
324.06134 220.0
324.446747 200.0
324.632751 204.0
324.882355 232.0
324.933075 176.0
325.058807 428.0
325.138947 152.0
325.216461 19008.0
325.308685 196.0
325.40274 152.0
325.562714 172.0
325.621796 292.0
325.997833 132.0
326.070892 176.0
326.218597 4700.0
326.309113 196.0
327.096008 144.0
327.217285 604.0
327.349579 96.0
327.932678 112.0
328.412994 104.0
328.894714 168.0
328.956085 164.0
329.378571 144.0
331.948242 224.0
335.183472 160.0
340.961914 140.0
341.208862 128.0
342.455658 236.0
344.02652 156.0
345.845215 180.0
352.192383 152.0
358.740509 216.0
370.169617 152.0
371.070068 176.0
374.108978 164.0
375.662018 180.0
377.303314 144.0
377.790588 204.0
383.218231 336.0
383.767822 284.0
384.200714 208.0
384.585785 144.0
384.918884 168.0
384.997437 104.0
385.114166 196.0
385.236938 21964.0
385.344635 140.0
385.942139 184.0
386.242249 6568.0
386.493683 96.0
386.713348 200.0
387.238708 416.0
388.552826 124.0
392.292999 124.0
455.344482 156.0
554.450928 148.0
563.88739 156.0
1011.215393 216.0
1092.542114 208.0
1114.187256 212.0
1333.811768 180.0
1364.655884 160.0
1433.913818 156.0
1447.580322 164.0
1466.672974 164.0
1608.505859 172.0
1636.420898 200.0
1668.825806 184.0
1715.58374 144.0
1755.62439 188.0
1756.54187 172.0
1761.466919 164.0
1770.575562 148.0
1814.155884 140.0
1820.358154 204.0
1833.527344 224.0
1876.861938 144.0
1880.718262 148.0
1884.362549 172.0
1904.833984 212.0
1905.555054 184.0
1906.615112 156.0
1930.763428 152.0
1943.527954 180.0
1963.761597 176.0
1967.070557 216.0
1984.889282 220.0
1999.867798 140.0
