>compound CETRAXATE HCl
>formula C17H23NO4
>ionization [M+H]+
>parentmass 306.171204
#inchi InChI=1S/C17H23NO4/c18-11-13-1-6-14(7-2-13)17(21)22-15-8-3-12(4-9-15)5-10-16(19)20/h3-4,8-9,13-14H,1-2,5-7,10-11,18H2,(H,19,20)/t13-,14-
#inchikey FHRSHSOEWXUORL
#Ion_Source LC-ESI
#Instrument qTof
#Compound_Source Commercial
#PI Dorrestein
#Data_Collector Garg_Neha
#Scan -1
#Precursor_MZ 306.17
#ExactMass 305.163
#Charge 1
#CAS_Number N/A
#Pubmed_ID N/A
#Smiles NC[C@H]1CC[C@@H](CC1)C(=O)Oc2ccc(CCC(=O)O)cc2
#INCHI_AUX N/A
#Library_Class 1
#SpectrumID CCMSLIB00000079032
#IonMode Positive
#UpdateWorkflowName UPDATE-SINGLE-ANNOTATED-GOLD
#LibraryQualityString Gold
#TaskID 278b19f5865741e282cec7349aa7e7a1
##Scan# 1044
#SpectrumFile NCP003352_G2_H11_BC7_01_15721.mzXML
#LibraryName NIHcollectionI_05062014.mgf
#MQScore -1
#Organism NIHcollectionI_05062014
#TIC_Query 0
#RT_Query -1
#MZErrorPPM -1
#SharedPeaks 0
#MassDiff 0
#LibMZ -1
#SpecMZ 306.17
#SpecCharge 0
#internalFilename spec-00000.mgf

>collision 10
45.112926 140.0
45.918579 164.0
46.8866 160.0
47.48954 180.0
47.614433 184.0
51.467541 184.0
52.702831 148.0
57.934292 200.0
58.176929 196.0
58.82085 176.0
60.125492 148.0
60.789387 172.0
61.794411 144.0
64.238495 240.0
64.463615 144.0
65.706398 176.0
66.406822 180.0
66.785263 176.0
67.037613 332.0
67.226776 152.0
67.840126 156.0
68.579819 156.0
69.758377 200.0
73.856308 196.0
74.956779 228.0
77.329079 168.0
77.702324 148.0
78.352814 152.0
80.540108 148.0
80.702736 144.0
81.741287 152.0
81.815086 160.0
83.350639 164.0
84.26387 176.0
86.683098 160.0
86.872208 140.0
87.254768 188.0
88.701553 144.0
89.9468 176.0
91.06176 140.0
91.853844 208.0
92.522682 176.0
93.070297 564.0
93.647942 172.0
94.070564 180.0
94.596016 156.0
95.046539 156.0
95.085732 13700.0
96.089104 1644.0
96.492798 148.0
100.008194 208.0
100.532349 172.0
101.468452 236.0
102.568069 204.0
103.05442 224.0
103.908813 168.0
104.036674 152.0
106.885826 200.0
107.049042 3072.0
107.950218 148.0
108.051567 204.0
110.847916 176.0
112.111801 1956.0
116.019798 172.0
117.97747 144.0
118.725853 184.0
119.971733 140.0
120.093643 212.0
120.447449 164.0
121.062393 576.0
121.5728 148.0
122.068268 248.0
122.465393 152.0
122.507248 280.0
122.70118 172.0
122.919533 140.0
123.081207 10684.0
123.270638 148.0
124.08136 832.0
126.629959 160.0
127.31398 188.0
131.600601 160.0
132.930481 208.0
133.907516 144.0
135.904816 224.0
135.922287 140.0
137.543167 220.0
137.933258 160.0
140.068573 224.0
140.106781 3344.0
141.093613 208.0
141.109283 124.0
141.691483 160.0
144.058563 232.0
144.967743 172.0
145.461823 192.0
146.712723 140.0
146.811584 148.0
148.174835 224.0
149.059082 2552.0
150.062271 136.0
151.086578 248.0
151.637512 156.0
157.202087 196.0
158.82579 188.0
159.790421 164.0
161.141785 164.0
162.625717 144.0
163.933548 144.0
165.839447 204.0
166.298233 164.0
166.938248 164.0
167.07225 288.0
167.311325 176.0
168.07164 180.0
168.430496 192.0
168.642365 152.0
170.027969 152.0
173.685944 188.0
173.80925 148.0
175.938492 160.0
179.075409 208.0
180.072891 160.0
183.112885 160.0
185.896271 152.0
186.509918 204.0
186.874329 192.0
187.08252 120.0
188.663406 168.0
189.254349 160.0
191.688019 144.0
195.206345 160.0
197.048752 160.0
197.350601 148.0
198.765091 160.0
199.083832 324.0
199.790604 156.0
200.906189 176.0
201.083954 152.0
201.12706 792.0
202.131348 184.0
204.339844 208.0
205.100189 156.0
207.58461 144.0
209.908066 144.0
210.04361 172.0
211.109009 136.0
213.414581 172.0
215.139313 144.0
216.159348 192.0
222.098785 140.0
223.08165 212.0
226.010361 184.0
227.989471 160.0
228.241989 156.0
229.122314 1600.0
230.028534 140.0
230.125946 260.0
230.212708 196.0
231.056 236.0
231.95842 172.0
233.105652 152.0
239.311981 172.0
241.039276 176.0
243.13945 164.0
243.25679 164.0
244.618317 156.0
244.823822 148.0
246.148529 200.0
246.188034 164.0
247.155624 144.0
250.03949 172.0
254.001602 192.0
254.122162 168.0
254.874649 160.0
259.121368 160.0
260.15918 188.0
262.244446 172.0
262.918213 1004.0
262.986664 196.0
263.851776 176.0
263.921906 140.0
264.920349 604.0
266.920685 200.0
270.315277 152.0
271.133057 2152.0
271.983429 148.0
272.136749 640.0
272.498993 160.0
273.13916 204.0
279.648468 176.0
283.936829 164.0
284.935242 148.0
286.50946 160.0
288.071594 140.0
288.158997 848.0
289.144073 6320.0
289.536163 176.0
290.146912 824.0
291.125671 468.0
295.369904 140.0
295.81131 196.0
299.650757 192.0
300.560974 176.0
300.809479 172.0
301.493347 148.0
301.749115 172.0
303.171753 160.0
303.87912 184.0
304.211334 132.0
304.538666 172.0
304.67514 96.0
305.052643 332.0
305.103333 136.0
305.145081 336.0
305.167084 176.0
305.199554 376.0
305.429047 188.0
305.480652 156.0
305.595459 240.0
305.87265 160.0
306.050751 272.0
306.094055 376.0
306.171204 110208.0
306.287323 136.0
306.341583 176.0
306.397095 192.0
306.468292 148.0
306.519592 164.0
306.597595 180.0
306.708038 156.0
306.743988 252.0
307.033722 112.0
307.108765 200.0
307.173218 17576.0
307.273651 132.0
307.457428 108.0
307.645477 160.0
308.177063 2292.0
308.499512 108.0
308.890656 180.0
308.998047 120.0
309.082672 144.0
309.128235 396.0
309.173279 296.0
309.214783 232.0
309.326691 220.0
318.924866 96.0
320.529144 144.0
336.026978 200.0
349.118439 152.0
1250.595581 144.0
1259.861206 208.0
1283.958984 172.0
1293.390015 236.0
1342.316772 152.0
1359.243408 180.0
1361.504272 180.0
1375.441772 212.0
1408.962891 168.0
1432.902954 244.0
1442.169556 288.0
1455.153564 168.0
1456.907959 208.0
1488.551514 188.0
1506.157104 156.0
1517.671753 204.0
1523.050537 172.0
1530.236084 188.0
1546.386963 144.0
1564.960083 208.0
1573.553955 144.0
1581.308594 144.0
1593.456787 176.0
1615.5 180.0
1616.500122 148.0
1629.288696 168.0
1631.032471 196.0
1631.651367 204.0
1633.2677 200.0
1638.468018 152.0
1654.458252 152.0
1657.552124 256.0
1684.138672 188.0
1690.212769 212.0
1693.45459 196.0
1698.79895 200.0
1719.773438 168.0
1725.456665 180.0
1749.540283 140.0
1762.200195 228.0
1762.643066 156.0
1782.191528 144.0
1787.934814 212.0
1803.478638 172.0
1808.460327 172.0
1813.194824 156.0
1825.470337 148.0
1832.424316 160.0
1848.468018 144.0
1871.428833 148.0
1887.166382 188.0
1892.193115 220.0
1904.359131 168.0
1923.672119 156.0
1935.290894 180.0
1953.0177 152.0
1953.712646 208.0
1955.965332 172.0
1975.360718 152.0
1989.672485 164.0
1990.746826 156.0
1994.060547 144.0
2001.693481 164.0
