>compound MLS001076860-01!
>formula C22H23N3O3S
>ionization [M+H]+
>parentmass 410.154
#inchi InChI=1S/C22H23N3O3S/c1-28-18-8-5-15(6-9-18)7-10-20(26)23-22(29)24-12-16-11-17(14-24)19-3-2-4-21(27)25(19)13-16/h2-10,16-17H,11-14H2,1H3,(H,23,26,29)/b10-7+/t16-,17-/m1/s1
#inchikey PXKQLHCMZSGNRK
#Ion_Source LC-ESI
#Instrument qTof
#Compound_Source NIH Natural Product Library
#PI Dorrestein
#Data_Collector VVP/LMS
#Scan -1
#Precursor_MZ 410.154
#ExactMass 409.146
#Charge 1
#CAS_Number N/A
#Pubmed_ID N/A
#Smiles COc1ccc(/C=C/C(=O)NC(=S)N2C[C@H]3C[C@H](C2)c4cccc(=O)n4C3)cc1
#INCHI_AUX N/A
#Library_Class 1
#SpectrumID CCMSLIB00000079570
#IonMode Positive
#UpdateWorkflowName UPDATE-SINGLE-ANNOTATED-GOLD
#LibraryQualityString Gold
#TaskID b1d8e8f6646f4e71acdff9ca3d919d08
##Scan# 1895
#SpectrumFile p1-C08_GC8_01_17904.mzXML
#LibraryName NIH_Natural_Products_Library.mgf
#MQScore -1
#Organism NIH_Natural_Products_Library
#TIC_Query 0
#RT_Query -1
#MZErrorPPM -1
#SharedPeaks 0
#MassDiff 0
#LibMZ -1
#SpecMZ 410.154
#SpecCharge 0
#internalFilename spec-00000.mgf

>collision 10
94.99015 172.0
95.104637 104.0
95.158989 132.0
95.326027 188.0
95.499054 124.0
95.596321 196.0
96.235657 176.0
96.41732 148.0
96.472046 160.0
96.534615 304.0
96.569817 204.0
96.603065 120.0
97.043701 40.0
97.212387 188.0
97.402824 172.0
97.949654 172.0
98.00087 168.0
98.13884 204.0
98.29071 80.0
98.367683 60.0
98.422958 192.0
98.606514 248.0
98.679817 180.0
98.753212 148.0
99.319443 152.0
99.392845 140.0
99.46032 196.0
99.517891 164.0
100.048714 148.0
100.501373 156.0
100.68277 160.0
100.79863 124.0
100.970543 148.0
101.268753 204.0
101.294792 260.0
101.350883 240.0
101.487175 140.0
102.049355 100.0
102.407547 176.0
102.89859 256.0
102.948029 148.0
103.021225 184.0
103.055077 1204.0
103.156128 148.0
103.437302 144.0
103.469688 156.0
103.593216 88.0
103.769531 196.0
104.058792 228.0
104.277 176.0
104.490509 108.0
104.521027 156.0
104.681839 60.0
104.712387 168.0
105.070839 1476.0
105.199699 188.0
105.76796 204.0
105.839607 72.0
106.073441 220.0
106.288498 244.0
106.538979 68.0
106.760956 72.0
106.828827 88.0
107.047791 236.0
107.063461 232.0
107.086121 116.0
107.453033 208.0
107.760658 164.0
108.16391 164.0
108.397934 140.0
108.429024 148.0
108.468399 56.0
108.861008 168.0
109.057877 200.0
109.353218 212.0
109.384438 200.0
109.782372 168.0
109.824089 100.0
109.85746 200.0
109.978485 60.0
110.777237 80.0
110.884094 104.0
110.934402 164.0
110.976326 224.0
111.00988 104.0
111.297348 200.0
111.320442 96.0
111.444374 88.0
111.730301 108.0
111.80394 156.0
111.869194 48.0
112.025017 164.0
112.039764 48.0
112.366539 172.0
112.440392 108.0
113.032082 184.0
113.063095 232.0
113.290176 184.0
113.326393 256.0
113.79512 168.0
114.115929 216.0
114.154205 160.0
114.358437 128.0
115.05307 188.0
115.081085 192.0
115.497795 68.0
115.574814 176.0
115.833855 124.0
115.989189 192.0
116.058876 204.0
116.187561 144.0
116.378571 128.0
116.477356 132.0
116.937477 220.0
117.049416 152.0
117.076767 232.0
117.499878 164.0
117.601295 208.0
117.685486 244.0
118.020386 176.0
118.041061 2792.0
118.106888 120.0
118.49437 124.0
118.583214 76.0
118.635239 88.0
118.685104 184.0
118.782692 152.0
118.796211 120.0
118.902023 152.0
119.042984 784.0
119.058113 180.0
119.117142 152.0
119.160423 156.0
119.260376 88.0
119.856514 120.0
119.998329 72.0
120.038521 148.0
120.271011 136.0
120.598633 132.0
120.721062 160.0
120.808548 196.0
120.935455 132.0
121.043739 140.0
121.070465 48.0
121.573212 140.0
121.711502 176.0
121.867447 120.0
122.056473 152.0
122.071861 84.0
122.144135 144.0
122.252243 180.0
122.375504 120.0
122.442886 180.0
122.600182 140.0
122.694962 208.0
122.776543 160.0
122.822594 168.0
122.847122 140.0
123.15731 152.0
123.250374 220.0
123.644753 68.0
124.058945 180.0
124.116585 132.0
124.140976 200.0
124.387245 140.0
124.440521 140.0
124.480492 164.0
124.502701 196.0
124.547119 96.0
124.620422 148.0
125.120827 164.0
125.270035 88.0
125.285629 208.0
125.506264 164.0
125.722641 148.0
125.791824 156.0
126.117943 236.0
126.276688 172.0
126.493721 244.0
127.011322 212.0
127.119011 108.0
127.327782 92.0
127.87635 144.0
127.925865 176.0
127.955132 160.0
127.984406 160.0
128.209656 108.0
128.284042 124.0
128.41481 48.0
128.818848 192.0
129.123978 192.0
129.218979 100.0
129.286865 264.0
129.574417 208.0
129.642395 120.0
129.694519 116.0
129.848694 172.0
130.086945 68.0
130.216354 180.0
130.32312 92.0
130.39357 288.0
130.766556 136.0
130.896317 184.0
131.062592 152.0
131.260895 112.0
131.370361 176.0
131.466202 164.0
131.514114 172.0
131.564331 212.0
131.662521 236.0
131.70134 80.0
131.922989 156.0
131.943558 144.0
132.043243 256.0
132.078476 140.0
132.426376 152.0
132.444702 200.0
132.506561 104.0
132.531754 96.0
132.681915 272.0
132.749512 72.0
132.912369 88.0
132.972046 412.0
133.008759 200.0
133.028534 196.0
133.065369 24408.0
133.095764 596.0
133.13504 64.0
133.176376 160.0
133.208527 132.0
133.244293 52.0
133.278366 132.0
133.295837 40.0
133.328003 56.0
133.355591 148.0
133.379578 100.0
133.475128 104.0
133.528015 100.0
133.567123 200.0
133.615433 88.0
133.716675 184.0
133.737381 56.0
133.812073 116.0
134.067566 2144.0
134.128952 104.0
134.267288 164.0
134.304184 72.0
134.336472 164.0
134.361847 200.0
134.417221 112.0
134.772812 80.0
134.803925 112.0
134.839828 60.0
135.003967 120.0
135.069214 132.0
135.142746 64.0
135.205719 148.0
135.274658 140.0
135.309387 136.0
135.469177 196.0
135.668472 52.0
135.738022 220.0
135.758896 264.0
136.137146 92.0
136.31601 80.0
136.418274 212.0
136.525223 176.0
136.650833 184.0
137.098511 152.0
137.195786 144.0
137.270401 132.0
137.636734 128.0
137.709137 192.0
138.036301 68.0
138.204712 200.0
138.492661 160.0
139.301895 164.0
139.503983 168.0
139.656815 140.0
140.368027 192.0
140.476517 144.0
140.679459 184.0
140.811691 156.0
140.851837 156.0
141.012497 68.0
141.383804 76.0
141.528198 92.0
141.810089 164.0
142.061432 184.0
142.355743 152.0
142.491119 172.0
142.531509 156.0
142.9048 132.0
143.407257 212.0
143.521683 92.0
144.07988 200.0
145.058914 108.0
145.229156 128.0
145.574738 48.0
146.039276 160.0
146.058395 300.0
146.096298 196.0
146.247879 68.0
146.548904 156.0
146.85022 152.0
147.069778 388.0
147.204971 156.0
147.543228 152.0
147.749298 96.0
147.823792 176.0
147.964188 76.0
148.024704 188.0
148.046509 124.0
148.076569 1988.0
148.153076 100.0
148.22818 48.0
148.519104 108.0
148.611282 136.0
148.880722 180.0
149.075867 280.0
149.111511 188.0
149.490875 316.0
149.554153 224.0
150.165695 204.0
150.414566 108.0
150.529312 168.0
150.710068 136.0
150.792831 188.0
150.988739 160.0
151.892502 196.0
152.012711 240.0
152.427704 80.0
152.464554 88.0
152.76944 48.0
154.001892 48.0
154.389908 192.0
154.538315 144.0
154.654633 40.0
155.074738 172.0
155.234344 76.0
155.269058 144.0
155.544464 160.0
155.626389 216.0
155.790298 124.0
155.91452 132.0
156.063416 200.0
156.100967 168.0
156.140762 208.0
156.773087 152.0
157.379211 384.0
157.516571 132.0
157.549042 68.0
158.058365 324.0
158.477219 140.0
158.58136 160.0
158.971191 72.0
159.06366 132.0
159.478333 64.0
159.523727 124.0
159.860748 176.0
160.076569 1320.0
160.179443 144.0
160.230881 176.0
160.344269 76.0
160.538376 104.0
160.566116 36.0
160.614044 68.0
160.689713 148.0
160.765411 228.0
160.805786 256.0
160.833557 180.0
160.875061 288.0
160.911804 208.0
160.938828 288.0
160.964828 312.0
161.007706 164.0
161.06076 63200.0
161.116379 92.0
161.140549 84.0
161.168716 100.0
161.201523 120.0
161.240295 140.0
161.266006 160.0
161.300842 96.0
161.328323 96.0
161.362213 160.0
161.40509 68.0
161.455215 160.0
161.476059 260.0
161.506607 32.0
161.529724 132.0
161.586105 124.0
161.65744 52.0
161.703003 56.0
161.806778 212.0
161.825378 228.0
161.849823 60.0
161.871643 84.0
161.918198 112.0
161.940994 216.0
162.001785 216.0
162.063889 7652.0
162.138596 64.0
162.171555 48.0
162.194366 136.0
162.252655 76.0
162.333801 76.0
162.361694 80.0
162.432709 104.0
162.458069 60.0
162.513885 84.0
162.559555 56.0
162.587479 64.0
162.640778 60.0
162.676315 32.0
162.714386 128.0
162.734695 64.0
162.762634 88.0
162.782944 92.0
162.862274 84.0
162.966614 44.0
163.06665 500.0
163.11322 60.0
163.145782 84.0
163.171692 80.0
163.220001 72.0
163.26059 108.0
163.300735 160.0
163.343719 148.0
163.433655 72.0
163.469482 48.0
163.497269 80.0
163.575623 108.0
163.665268 88.0
163.690735 200.0
163.723831 76.0
164.210602 128.0
164.340698 56.0
164.715973 72.0
164.75174 48.0
165.347504 84.0
165.634247 44.0
166.031509 156.0
166.742645 168.0
167.326538 116.0
168.035278 108.0
168.350174 136.0
170.066635 192.0
170.695312 104.0
170.822754 120.0
171.093399 104.0
171.60141 224.0
171.877884 140.0
172.073395 172.0
172.583115 80.0
174.091583 820.0
174.122589 164.0
174.331467 64.0
174.37352 172.0
174.760071 76.0
175.096268 188.0
176.091278 108.0
177.165176 144.0
178.928543 144.0
181.294281 48.0
184.117081 128.0
186.892853 132.0
187.090118 116.0
187.693634 216.0
188.042816 88.0
188.07283 160.0
188.662857 56.0
189.073135 140.0
189.10257 380.0
189.215469 84.0
190.037674 160.0
190.158417 168.0
190.482407 96.0
190.655487 116.0
190.69397 176.0
190.919403 136.0
190.963409 204.0
190.996414 188.0
191.118301 4752.0
191.177994 56.0
191.354156 84.0
191.41748 84.0
191.487427 80.0
192.123322 548.0
192.755295 44.0
193.120834 160.0
193.546387 92.0
193.648849 56.0
193.701477 64.0
193.74025 184.0
196.975449 148.0
198.958054 188.0
200.085022 164.0
201.450287 52.0
203.90686 128.0
204.046143 192.0
204.48703 48.0
205.045242 148.0
205.433014 236.0
205.51004 116.0
206.063934 104.0
207.65834 204.0
209.106354 120.0
209.990829 128.0
211.678513 180.0
213.253784 56.0
214.517029 212.0
214.931168 212.0
216.047211 132.0
216.102798 128.0
216.32814 56.0
217.02449 244.0
217.100555 892.0
218.098038 72.0
219.097382 96.0
219.54245 52.0
222.471619 208.0
224.811035 108.0
224.972198 152.0
225.680252 84.0
225.760986 124.0
226.970734 164.0
227.579819 164.0
227.976318 116.0
228.902817 92.0
230.954987 128.0
231.051788 124.0
232.576004 144.0
232.633682 96.0
232.916077 48.0
233.074921 4256.0
233.204712 92.0
233.244232 40.0
233.615204 92.0
233.736908 40.0
234.080902 324.0
234.130524 64.0
234.537842 40.0
235.075745 212.0
235.105698 268.0
235.920624 64.0
236.823288 96.0
236.896805 76.0
236.942749 76.0
240.944382 172.0
241.832703 92.0
245.049805 124.0
246.988388 148.0
247.126022 104.0
247.911957 116.0
250.02858 64.0
250.101349 1160.0
250.138733 156.0
250.252075 56.0
250.274109 60.0
250.75293 68.0
251.077637 188.0
251.106094 204.0
251.35524 72.0
251.658249 48.0
252.113098 128.0
252.473495 48.0
253.514984 104.0
254.784149 48.0
258.178711 160.0
266.11853 116.0
267.021881 192.0
271.076447 84.0
276.08139 812.0
277.063141 144.0
277.086334 308.0
277.679688 96.0
278.077789 140.0
282.148254 96.0
282.954529 96.0
286.726654 112.0
289.097351 140.0
291.22641 48.0
305.022766 112.0
306.195282 76.0
319.035278 132.0
319.344635 52.0
323.228149 192.0
326.993744 180.0
329.03418 148.0
335.378693 40.0
335.426056 40.0
344.988708 180.0
347.414276 48.0
348.810516 156.0
353.112518 152.0
353.307709 56.0
359.013123 184.0
363.032959 108.0
363.237762 112.0
365.037964 136.0
370.07843 164.0
375.007019 124.0
389.139832 188.0
394.055054 36.0
399.160126 80.0
410.020813 180.0
410.135437 144.0
412.135284 144.0
419.6073 100.0
437.987244 120.0
466.136902 132.0
494.410553 104.0
496.608002 80.0
516.763184 132.0
518.156921 68.0
527.819702 72.0
539.705688 84.0
540.584595 104.0
548.507812 52.0
554.720032 80.0
556.192932 104.0
625.303955 88.0
630.265747 116.0
667.772217 56.0
690.478455 124.0
692.603333 224.0
704.55481 160.0
828.334229 104.0
834.503418 300.0
845.671387 196.0
857.857666 204.0
861.96051 156.0
875.387573 216.0
889.660217 80.0
901.070679 140.0
914.388489 132.0
915.676819 148.0
937.394958 140.0
948.125732 80.0
948.438293 184.0
957.482117 188.0
967.09491 144.0
967.305359 56.0
971.934814 180.0
978.603943 164.0
982.99823 180.0
984.896118 192.0
987.890198 144.0
989.673828 136.0
1008.849854 156.0
1013.74231 188.0
1019.580566 172.0
1024.142212 172.0
1030.872803 52.0
1031.76123 176.0
1042.220825 76.0
1047.425293 216.0
1061.209595 172.0
1070.494751 176.0
1070.93103 60.0
1071.230713 260.0
1072.58606 192.0
1075.547363 184.0
1081.135254 112.0
1086.00293 120.0
1092.29541 164.0
1094.039185 128.0
1095.382568 208.0
1104.240234 176.0
1110.180664 252.0
1118.125977 172.0
1121.847412 72.0
1129.996704 188.0
1132.21228 56.0
1132.553833 168.0
1134.523926 164.0
1136.542603 144.0
1141.0896 188.0
1144.164062 244.0
1150.359253 148.0
1156.957031 140.0
1160.527466 160.0
1160.991577 268.0
1169.535278 48.0
1171.97998 164.0
1174.693359 248.0
1188.183594 208.0
1192.172852 136.0
1193.141968 152.0
1197.091309 180.0
1199.254517 200.0
1201.536987 128.0
1212.21936 208.0
1213.654175 100.0
1216.637329 52.0
1218.866821 72.0
1219.923218 172.0
1222.183472 264.0
1224.787109 248.0
1231.322266 108.0
1233.697876 76.0
1237.510742 100.0
1238.631226 172.0
1243.42688 140.0
1243.679565 32.0
1245.624512 56.0
1246.439453 184.0
1248.288208 192.0
1249.941162 148.0
1257.220459 40.0
1258.625122 84.0
1260.065918 188.0
1268.997681 168.0
1276.118774 136.0
1278.00354 184.0
1282.639526 212.0
1287.005493 172.0
1293.967896 244.0
1301.339478 160.0
1305.981689 36.0
1306.665161 180.0
1306.895386 212.0
1310.841187 100.0
1312.073608 52.0
1312.441284 148.0
1312.628784 48.0
1317.146606 152.0
1317.832886 140.0
1320.276123 216.0
1320.644897 160.0
1323.307861 140.0
1324.010254 240.0
1325.582275 148.0
1333.536011 144.0
1337.005005 132.0
1338.54834 120.0
1341.200073 176.0
1341.4552 44.0
1342.490479 124.0
1344.299683 124.0
1345.774048 232.0
1348.440308 148.0
1348.549927 164.0
1348.615723 156.0
1355.575439 180.0
1358.038696 88.0
1358.764893 260.0
1360.283936 188.0
1366.920532 156.0
1371.766602 180.0
1373.064209 92.0
1376.178223 144.0
1380.204956 104.0
1380.774414 132.0
1382.002319 156.0
1384.585693 112.0
1384.65979 220.0
1387.58667 20.0
1389.589111 188.0
1390.642822 192.0
1393.420044 180.0
1395.805786 148.0
1397.01062 224.0
1398.632812 116.0
1400.963501 96.0
1401.392578 216.0
1402.133301 152.0
1404.54895 188.0
1408.221191 172.0
1410.671997 136.0
1411.030762 136.0
1411.427002 56.0
1417.602417 168.0
1418.336914 120.0
1418.959106 44.0
1420.398926 164.0
1420.49646 144.0
1421.231689 152.0
1426.518677 160.0
1428.534058 168.0
1433.970337 128.0
1436.315186 164.0
1438.631714 224.0
1440.549805 132.0
1442.265015 176.0
1442.983154 188.0
1445.615356 184.0
1445.774292 160.0
1446.417603 212.0
1447.522949 148.0
1450.788452 120.0
1451.463135 44.0
1452.509766 200.0
1455.2948 244.0
1456.494751 152.0
1456.859253 192.0
1458.918701 172.0
1459.374878 176.0
1461.321899 160.0
1464.541992 184.0
1465.113281 156.0
1468.070557 176.0
1469.229858 172.0
1471.099487 112.0
1473.107788 148.0
1474.070435 256.0
1479.761108 212.0
1483.124023 156.0
1485.508667 164.0
1486.344971 100.0
1486.774658 212.0
1487.826172 56.0
1487.995117 228.0
1489.200684 76.0
1489.969604 196.0
1494.958862 148.0
1495.428345 140.0
1499.541016 208.0
1501.591797 144.0
1502.82605 120.0
1503.767456 172.0
1504.114868 256.0
