>compound Celecoxib
>formula C17H14F3N3O2S 
>ionization [M+H]+
>parentmass 382.082916
#inchi InChI=1S/C17H14F3N3O2S/c1-11-2-4-12(5-3-11)15-10-16(17(18,19)20)22-23(15)13-6-8-14(9-7-13)26(21,24)25/h2-10H,1H3,(H2,21,24,25)
#inchikey RZEKVGVHFLEQIL
#Ion_Source LC-ESI
#Instrument qTof
#Compound_Source Isolated
#PI Sirenas
#Data_Collector Ed Esquenazi 
#Scan -1
#Precursor_MZ 382.085
#ExactMass 0.0
#Charge 1
#CAS_Number N/A
#Pubmed_ID N/A
#Smiles N/A
#INCHI_AUX N/A
#Library_Class 3
#SpectrumID CCMSLIB00000005556
#IonMode Positive
#UpdateWorkflowName UPDATE-SINGLE-ANNOTATED-BRONZE
#LibraryQualityString Bronze
#TaskID d19310cd93df49b68e9fcbec27720eb5
##Scan# 3
#SpectrumFile Celecoxib.mgf
#LibraryName fda_library.mgf
#MQScore -1
#Organism fda_library
#TIC_Query 0
#RT_Query -1
#MZErrorPPM -1
#SharedPeaks 0
#MassDiff 0
#LibMZ -1
#SpecMZ 382.085
#SpecCharge 0
#internalFilename spec-00000.mgf

>collision 10
100.015213 38.398548
101.037643 85.073097
101.068932 2.671296
104.037621 3.6
104.050758 50.70977
105.041466 39.082649
105.069191 185.633896
105.161316 14.70833
106.028648 45.05085
106.052963 19.706141
106.061707 73.095421
106.082253 6.672619
106.107048 3.0
106.193939 9.557099
107.010834 31.86511
107.059921 106.4888
107.12001 11.44048
107.257675 5.340278
107.37941 3.760417
107.437096 10.74898
107.473259 4.166667
107.509438 16.61603
107.588623 14.33452
107.798004 19.00071
108.044662 431.825897
108.087669 5.562963
108.186516 2.449074
108.692001 6.102564
109.028763 210.628799
109.098595 12.77394
109.348267 3.520833
109.407791 10.21338
110.004387 21.336109
110.172821 5.35
110.988991 14.66774
114.46479 3.375
114.486473 7.177631
114.609779 6.341667
114.656342 13.04167
115.054192 1116.927979
115.088013 9.72565
115.101974 2.708333
115.120461 5.069444
115.169136 14.43622
115.291809 6.367424
115.329704 6.334459
115.352127 6.016304
115.453377 17.641979
115.505371 7.75
116.061676 926.276428
116.100853 2.75
116.582794 1.833333
116.920479 17.734091
117.069527 1241.802002
117.131241 3.741667
117.187302 11.48761
117.246719 2.016667
117.288162 5.666667
117.46154 6.015
117.5411 14.03354
117.627678 6.98077
117.857765 3.669118
118.021568 50.185211
118.065186 1000.112976
118.110939 6.081667
118.127304 3.375
118.22818 17.450001
118.280838 7.494048
118.338593 7.852564
118.505257 8.595239
118.754036 3.083333
121.061584 23.149691
124.295853 3.337963
125.019043 275.365387
125.061134 1.6875
125.752647 11.375
126.024857 82.307747
127.030762 38.126671
127.902122 6.740942
129.703217 3.640152
130.064484 191.116196
130.266266 8.680555
130.431976 6.775537
130.469772 4.875
130.678421 4.009259
131.044556 16.729799
131.073212 819.302002
131.11702 2.013889
131.199921 2.669444
131.255707 4.394608
131.702484 14.06888
131.826416 5.069444
131.934158 2.339286
133.043655 188.094101
133.183334 4.354167
133.469391 16.044451
134.041565 196.169403
134.253815 9.992117
134.392044 7.041667
135.061417 25.0056
135.59552 5.667929
135.619827 2.4
136.565445 12.45833
138.029526 11.03716
138.356018 4.694444
138.962311 5.721491
138.985504 393.010498
139.034882 40.08176
139.176239 10.29643
139.318573 5.59375
140.027725 83.307877
140.049179 236.388199
140.287735 9.132247
141.036072 84.420021
142.044495 90.356941
142.064987 193.432999
142.133163 1.680555
142.150787 6.639493
142.682556 6.371212
143.122635 4.347222
144.022812 35.050369
144.757523 12.41554
145.028336 60.889771
145.467056 12.69928
146.039948 64.4226
146.23996 8.49359
148.050507 14.00079
148.072754 11.05556
149.997086 29.73843
150.2854 15.67029
150.426224 24.68862
151.055969 54.273811
152.031555 120.561798
152.352386 4.666667
152.44693 6.506945
153.052628 364.331512
153.070374 48.667751
153.256088 13.48188
153.325272 12.89286
154.242554 3.669872
155.173706 21.097219
155.516861 7.037879
156.011597 493.285309
156.065613 82.718689
156.177094 22.068041
157.052963 30.50532
157.631775 5.742284
159.203766 2.761364
159.300293 7.335
160.05423 357.914795
160.285416 2.761364
160.52771 5.013889
160.664368 2.333333
161.335724 7.008333
162.517319 4.349638
163.03717 50.333611
164.033005 176.621597
164.135651 2.00463
164.159378 3.640152
164.277206 11.24008
164.724503 3.047619
165.038971 1246.458008
165.066757 259.1138
165.11319 4.668334
165.16684 9.336957
165.21167 5.208333
165.22049 2.041667
165.265472 7.347222
165.297226 17.42222
165.32785 12.00144
165.360077 4.297619
165.394882 18.05533
165.408997 9.193939
165.47554 3.802778
165.542084 4.59375
165.591858 5.001667
165.739609 7.0
165.791351 22.5744
166.179031 9.333333
166.242783 16.818939
166.39769 8.444445
166.430054 12.34722
166.475647 5.333333
167.036499 8.066667
168.091339 17.0
169.053497 43.220798
172.037918 39.845242
172.049362 30.11458
172.507507 6.030303
173.052612 48.9174
174.018219 69.330208
176.027496 41.08889
176.880219 6.033602
177.055847 16.58333
177.070312 48.029869
177.13942 4.083333
177.162567 7.028153
178.052826 43.57341
178.062241 135.091003
179.048645 38.40395
179.085999 251.146393
179.202301 16.07626
179.737213 4.380952
180.023743 23.013439
180.061493 886.201111
180.099197 56.406311
180.118271 3.402778
180.171097 18.38866
180.300461 6.747549
180.329971 4.688725
180.364624 8.595239
180.458038 20.180559
180.559082 7.422101
181.051453 111.888702
181.084747 43.147209
181.120346 3.666667
181.167709 10.59572
181.218689 3.002778
182.038879 47.163769
182.203491 3.016667
183.022797 108.241203
183.106125 4.695513
183.883942 7.146739
184.011185 5.76923
184.037659 525.480896
184.124695 15.26059
184.218246 10.59414
184.294418 6.801667
184.30867 9.32545
185.028931 61.30455
185.045181 1018.130005
185.113388 2.111111
185.195251 5.816498
185.283905 20.213381
185.336914 24.557871
185.416031 7.695513
185.510193 9.035714
185.799347 12.86532
186.003204 25.12414
186.057144 33.340149
186.340332 13.00658
186.373825 8.388441
186.696671 4.342593
186.877396 28.10471
186.977219 9.001543
187.063446 57.10252
187.14003 4.15
187.191345 6.352941
190.034637 10.05511
190.063538 105.643501
191.039032 29.677561
191.072662 230.597305
192.078461 283.899292
192.125168 1.708333
192.164673 20.292681
192.830719 14.12354
193.088791 371.46759
193.227005 5.480072
193.381683 13.67803
193.473938 45.333672
193.784668 7.190217
193.82222 7.214285
196.046875 28.0
196.144287 12.64198
197.047607 55.373058
198.059204 171.295303
200.027817 124.846199
200.309219 1.720238
201.062881 157.630005
202.045609 57.831051
202.071487 70.320503
203.044495 38.351189
203.084106 108.909698
203.654755 6.666667
204.077682 348.407715
204.11673 4.336538
204.171463 5.522727
204.283508 2.416667
204.391418 5.720238
204.425552 6.775537
204.838058 6.160257
204.898239 8.741667
205.057968 107.404999
205.090057 81.371643
205.103485 71.401917
205.310226 2.041667
205.350998 10.96296
205.670639 3.490385
205.73027 14.97222
205.939926 9.280702
205.97493 6.872076
205.995026 15.61714
206.093002 676.300781
206.154633 4.025
206.16925 21.74415
206.1996 24.22677
206.269531 12.84444
206.377014 5.583333
206.404602 3.125
206.465805 32.719189
206.523041 18.592951
206.609436 1.666667
206.638718 4.891667
206.66626 17.361111
206.714111 19.1457
206.819504 8.0
206.855057 11.21333
206.999619 8.349638
207.036667 13.78846
207.077164 91.04847
207.104095 1771.255981
207.132629 90.929337
207.26001 17.39286
207.298828 15.7963
207.345169 10.92287
207.359497 4.927083
207.371216 12.48333
207.405701 13.1649
207.430878 3.440476
207.446075 3.027778
207.499146 20.47015
207.566696 4.259615
207.605774 13.73409
207.647217 18.594299
207.832596 4.335
208.110748 699.314697
208.267303 25.160709
208.469589 9.980769
208.549164 13.7129
208.606949 6.25
209.085342 51.565781
209.28331 3.675
209.670883 18.05921
210.03862 30.36474
210.080704 46.884609
210.094498 57.670891
210.391983 2.35
211.094666 78.191589
212.085449 43.440601
212.481186 3.666667
214.058105 39.55312
214.096848 5.001437
214.994446 12.07419
215.058578 53.560558
215.075439 18.00798
216.065521 80.360153
216.080093 281.428802
216.127594 3.675
216.25087 7.041667
216.419266 12.75321
217.086273 356.324585
218.054443 78.5168
218.220551 2.14881
218.435394 5.028846
218.702667 4.0
218.75412 21.235291
219.085358 97.539902
219.129807 3.773809
219.191696 2.35
219.941742 7.458333
220.069214 14.33333
220.259155 2.336539
220.373093 6.306159
220.491547 8.666667
221.019653 509.917786
221.080765 30.457371
221.102783 32.365471
221.650772 13.92014
222.069672 75.905533
222.109741 97.437927
222.70433 17.66748
223.041031 11.87879
223.095932 17.89352
224.054886 23.122971
224.101974 27.91157
224.356857 7.162634
225.061371 108.955101
225.363693 14.58823
225.72435 12.71354
226.048447 5.013889
226.126831 7.706141
226.246552 9.151881
227.072433 54.44606
227.330139 12.16667
227.864349 3.625
228.062134 54.26532
229.074921 231.721695
229.766708 8.667553
230.084244 214.813202
231.020233 17.18947
231.051788 4.347222
231.09169 680.194824
231.12764 7.037281
231.256195 12.00962
231.314377 4.669872
231.489029 8.491228
231.573792 5.44079
231.774948 9.673742
231.810989 9.120098
231.827911 6.125
231.955048 5.675
232.002747 10.00379
232.074402 22.10507
232.099228 790.596313
232.167038 3.0
232.209488 4.481482
232.241257 8.334596
232.269821 22.231239
232.299576 11.66748
232.315231 9.893817
232.390839 8.519231
232.501114 12.00333
232.563583 10.24008
232.720169 22.151251
233.044632 19.983931
233.078293 74.066177
233.106812 2785.39209
233.156097 20.51894
233.169754 9.399194
233.263138 14.75556
233.276077 52.278542
233.318741 20.46863
233.344864 5.166667
233.398453 5.339285
233.430618 3.42803
233.456924 10.39394
233.696182 10.05128
233.807877 16.692511
233.861069 4.686404
234.070206 142.200699
234.340118 3.669118
234.377167 10.93452
234.595917 17.061359
234.647034 24.15428
234.694519 19.402781
234.746597 31.09091
235.079117 366.143585
235.168976 14.29167
235.555923 7.130208
235.619995 5.371913
235.720963 18.42391
236.039062 33.9184
236.085968 348.723297
236.502686 11.02222
237.046402 67.890373
237.175827 6.335318
237.996964 2.671296
238.06076 74.284714
238.200272 4.458333
239.050613 77.041359
240.061493 348.588715
240.283371 7.355556
241.050034 51.446629
241.812271 8.755208
242.08223 118.599197
242.131424 5.670455
242.925858 3.345238
243.089569 59.515011
243.144562 5.361111
245.015228 33.75
245.837814 24.75947
245.968964 1.777778
246.013535 119.2342
246.049667 35.069069
246.528244 27.360041
246.601425 11.48457
246.880356 43.66967
247.065231 514.074585
247.126144 3.00463
247.164444 9.336805
247.260681 8.560185
247.667694 17.095131
247.851624 10.42857
248.085785 24.07756
248.945175 14.73284
249.582321 4.069444
250.094101 56.092739
251.002289 4.333333
251.07338 56.307449
251.094131 56.271488
252.087524 177.470703
252.150009 3.402778
253.063095 38.088451
253.08165 79.774208
253.444336 7.486111
253.46666 19.84127
254.078186 303.98761
254.149612 2.444444
254.327301 11.94707
254.400604 8.625
254.495605 14.33452
254.886185 6.133333
255.07811 769.661377
255.125381 4.670455
255.242279 2.449074
255.340942 5.42803
255.519928 7.380208
255.831436 12.21894
256.092682 56.74971
257.098175 44.261742
257.838623 26.35
259.041748 19.546671
259.081818 122.245102
259.153015 8.255208
259.683441 30.48387
259.774963 12.33422
260.04715 85.612823
260.066223 78.432663
260.49881 6.125
260.818939 12.03431
261.082581 1517.89502
261.145111 3.005953
261.173035 2.695513
261.239716 4.963235
261.273712 5.633333
261.339874 3.560185
261.369659 3.066667
261.426086 12.33696
261.472076 15.41262
261.500458 15.00577
261.591309 9.857142
261.706055 4.630952
261.956177 6.041667
262.013458 30.30051
262.08963 1320.036987
262.157837 4.083333
262.187683 23.396429
262.231049 3.034091
262.259216 2.375
262.432037 27.673611
262.706451 4.013889
262.899078 4.083333
263.030731 6.966667
263.09671 1615.631958
263.161041 2.341667
263.217865 20.03274
263.280914 10.56481
263.374298 5.592949
263.437012 16.554079
263.482849 30.412001
263.61554 15.1405
263.760529 2.816667
263.811676 5.354167
263.962341 17.3223
264.066345 44.480831
264.172699 22.51852
264.290314 7.166667
264.370636 5.88587
264.415802 3.00463
264.744263 5.380952
264.92749 7.382936
265.051086 53.656311
265.36142 9.32545
265.531372 8.881579
265.551361 43.4911
265.644775 8.348333
265.701477 1.666667
266.02066 53.323231
266.064209 205.106903
266.083984 34.9902
266.701233 4.734848
266.917175 2.367424
267.073151 2447.584961
267.132416 16.752119
267.149475 16.05192
267.180756 4.791667
267.209808 10.11111
267.26889 6.339743
267.296661 22.963579
267.353546 46.561989
267.371277 2.695513
267.395813 34.75415
267.50293 16.472219
267.531647 3.926282
267.559052 10.33333
267.576111 6.001812
267.606049 24.67547
267.675232 3.857143
267.712708 7.364899
267.77417 9.408334
267.799286 27.980989
268.667847 2.893518
269.087585 224.630402
269.382355 7.510965
270.073792 28.536579
270.205963 7.761905
270.665771 10.27222
272.061493 286.988495
272.191071 11.5
272.986725 10.81944
273.06604 336.834503
273.08606 43.89418
273.101624 9.705247
273.335968 9.185897
273.358093 20.760839
273.383606 10.08929
273.516052 20.798389
273.717834 4.225
273.903168 3.408334
274.084656 92.336082
274.281403 6.00926
274.477234 3.722222
275.079651 711.84967
275.15213 2.761364
275.16983 31.48152
275.38443 17.729349
275.411865 17.0473
276.266022 6.413462
276.301147 18.60887
276.389465 7.852564
277.227936 10.47115
277.43042 6.702587
277.970703 8.223765
278.093292 18.59631
278.108337 52.802929
278.445831 6.177631
279.073578 139.513702
279.091766 184.294693
279.351898 14.41588
279.454651 11.70455
279.508972 10.10526
279.607147 5.136111
279.750061 17.482759
279.764557 41.868858
279.80545 5.688889
279.892761 7.520833
280.081085 847.920898
280.151428 3.0
280.180359 80.139839
280.30545 23.02286
280.341187 8.647059
280.394348 25.81576
280.45401 59.261101
280.515808 6.075
280.544983 4.363636
280.5737 9.401515
280.609985 39.16449
280.678802 16.671049
280.724457 43.26939
280.743286 13.48333
280.863892 22.361271
280.970856 2.449074
281.03833 50.342468
281.088257 6908.251953
281.158691 115.394096
281.249451 27.059521
281.276825 50.65028
281.313629 85.26133
281.335052 102.015503
281.34967 13.00935
281.379089 54.43124
281.41394 5.416667
281.443573 21.38526
281.485138 22.6436
281.504852 12.73958
281.535767 42.463779
281.545227 15.45833
281.559692 13.84722
281.574127 17.67543
281.627594 27.69243
281.687744 14.55449
281.86792 110.902496
281.923706 38.630112
281.986298 47.09589
282.02124 15.97711
282.045624 258.011993
282.096893 11978.080078
282.194366 98.665947
282.221252 17.40774
282.400391 4.041667
282.435547 42.436569
282.504578 13.22939
282.527069 54.14333
282.579346 13.815
282.613617 34.456219
282.643372 27.028879
282.666107 20.296431
282.695557 21.77873
282.712219 13.11218
282.740204 6.720238
282.77533 83.947289
282.991791 3.002778
283.030273 57.77948
283.221283 59.869549
283.291016 5.932018
283.312805 13.18673
283.366486 8.560185
283.420105 29.801519
283.469513 5.334877
283.568604 23.460119
283.747253 10.33426
283.887909 4.083333
283.941925 17.867201
283.953888 23.844589
284.046783 41.3293
284.082428 59.090729
284.374634 6.75
284.416443 37.670341
284.480316 25.538891
284.497986 12.10507
284.603485 9.357142
284.644806 23.838699
284.685638 11.09921
284.797607 24.45854
284.855133 24.74715
284.874176 11.89851
284.902863 3.025
285.070801 609.513489
285.132935 45.985081
285.284668 11.34041
285.396332 7.0
285.678528 7.2
285.931396 6.070402
285.954926 2.670455
286.002777 11.96909
286.11972 1.720238
286.270233 7.675
286.43158 4.402778
286.662231 13.67045
286.823975 5.884804
286.979462 10.25634
287.030579 49.62994
287.079498 2671.583984
287.149902 19.52499
287.191681 4.022059
287.304565 16.68088
287.439941 16.281429
287.483337 7.71627
287.500122 20.45455
287.68631 20.23485
287.729431 9.222222
287.757935 8.371913
287.839661 4.733333
287.858246 11.82315
288.273987 27.28009
288.423248 3.6
288.8862 10.75321
289.388245 11.73485
289.638275 6.001984
289.738281 7.041667
289.916382 7.714285
290.028534 9.012931
297.084442 32.728668
297.307617 5.054824
298.063507 76.168091
298.089142 37.466671
298.106018 16.01449
298.178162 7.399237
298.202118 12.29348
298.226074 19.004999
298.280273 19.245001
298.398987 6.779762
298.41861 13.33399
298.502594 19.581671
298.79892 3.266667
299.07724 87.504333
299.098969 212.377701
299.18811 7.130208
299.235809 16.035919
299.251282 6.875
299.315796 30.885139
299.338562 32.70676
299.362671 12.3787
299.402924 23.012991
299.441772 6.633333
299.458954 5.673077
299.627533 5.422101
299.693787 39.128132
299.832336 5.005952
300.087494 4255.412109
300.155273 9.259616
300.211945 38.783649
300.260162 15.41293
300.292847 27.75029
300.356659 16.038521
300.387848 58.56414
300.426483 45.648209
300.48465 49.802811
300.507843 38.589211
300.550323 7.047619
300.593109 48.002979
300.626648 10.70833
300.772766 15.03
300.852722 12.42373
301.026001 35.54187
301.050537 22.7027
301.095123 4906.13623
301.173157 21.25672
301.251251 8.229167
301.267242 13.78045
301.365417 62.361919
301.412994 47.73254
301.446594 7.008333
301.470703 19.450741
301.572357 41.354469
301.612091 17.68561
301.641602 5.388889
301.660095 7.741667
301.690063 40.61776
301.75705 12.06618
301.79837 24.8708
301.817474 6.0
301.869934 16.898781
301.890015 2.4
302.063538 78.618652
302.102417 3321.829102
302.174805 82.177872
302.216492 42.992779
302.247742 12.08854
302.265686 20.059299
302.308655 20.22283
302.332001 16.94104
302.346527 36.93013
302.478088 10.33062
302.512909 5.668651
302.536255 23.35574
302.591217 26.850691
302.627777 24.800119
302.743378 15.01014
302.781158 61.339432
302.934967 8.190217
303.009735 5.265351
303.052673 15.55864
303.110199 2426.018066
303.293976 6.686274
303.312469 13.14405
303.397217 6.358334
303.43338 15.08003
303.459625 46.510368
303.50354 30.245701
303.512329 11.02564
303.54834 26.040409
303.598297 21.717831
303.672943 46.733711
303.799896 21.53072
303.836243 21.65686
303.857147 5.005952
303.881378 17.70833
303.912262 5.088768
304.075836 6.160715
304.227661 13.65385
304.416046 9.739865
304.982635 3.444444
305.333069 19.8186
306.41156 10.41667
307.440033 26.4163
307.891571 6.728535
308.5065 24.601669
309.872498 7.068182
310.068207 163.820007
310.11319 10.37554
311.074371 150.324005
312.075989 274.634491
312.314728 12.00521
312.77597 3.047619
313.448242 4.297619
313.757019 7.653986
313.946533 3.733333
315.04715 46.73716
315.930786 6.148148
316.523254 5.041667
316.614746 5.177632
317.092133 315.612396
317.147186 9.673077
317.17392 3.640152
317.333038 12.66752
317.388824 8.416667
317.481812 9.393939
317.568604 12.55556
319.061798 53.945091
320.038757 25.456791
321.018555 10.13021
322.391449 1.675
328.058014 32.687469
335.06134 87.462883
335.381104 5.007576
340.581848 17.027781
341.059021 30.018721
341.165253 9.204166
341.414948 11.4902
341.999481 4.964286
342.071014 893.534485
342.127289 7.737794
342.329407 3.700758
342.731232 24.1201
342.853729 11.50521
343.095673 12.33333
343.70813 9.339286
345.406494 13.01333
346.042847 64.904732
346.23819 25.75238
347.060608 38.475288
347.861542 3.668651
349.491791 5.333333
351.843567 12.06618
356.157013 5.019737
359.678192 9.083333
359.763947 4.002451
359.79068 14.32032
359.823364 8.213384
359.919769 16.071581
359.949066 6.948333
360.065155 22.15151
360.103271 30.5846
360.140137 14.33435
360.254639 9.556818
360.358063 4.66821
360.417572 21.08602
360.445068 52.446812
360.483551 8.75
360.551453 5.5
360.73941 4.157052
360.952667 6.03592
361.030823 11.34091
361.051819 10.60093
361.11792 12.10727
361.532349 28.68182
361.653595 5.763889
362.02417 29.55769
362.07785 12053.450195
362.157288 100.9571
362.189545 40.939251
362.237 24.45257
362.274414 14.6
362.304535 81.403763
362.326447 6.59375
362.363312 47.27639
362.387299 68.50631
362.414886 6.675926
362.460999 51.82431
362.491852 69.51738
362.544647 43.99752
362.573547 40.527199
362.611328 73.788353
362.711243 37.563679
362.753082 35.933491
362.785309 38.09515
362.861053 69.0214
362.909576 12.84971
362.944885 8.371913
363.134949 48.863178
363.435486 12.66748
363.975433 19.029949
364.192291 3.4
364.327026 10.16329
364.417725 13.72003
364.997009 7.564815
365.155762 11.93895
365.409363 8.928572
365.88562 11.44048
366.048553 64.315651
367.238953 7.429762
367.632416 17.81081
368.112366 6.240079
369.355377 8.152778
370.205505 13.34722
379.537598 18.20417
380.055542 44.019611
380.191376 2.35
380.747833 8.380208
382.082916 1293.479004
382.201904 6.724359
382.29068 19.23484
382.400391 24.013889
382.48761 5.006944
382.569183 9.775537
382.61673 7.853395
382.731354 8.939394
382.77417 6.001984
382.936768 3.0
383.03891 10.83
455.026093 8.716269
630.159668 6.344048
1065.372681 4.625
1269.880981 5.630952
