>compound NABUMETONE
>formula C15H16O2 
>ionization [M+H]+
>parentmass 229.122208
#inchi InChI=1S/C15H16O2/c1-11(16)3-4-12-5-6-14-10-15(17-2)8-7-13(14)9-12/h5-10H,3-4H2,1-2H3
#inchikey BLXXJMDCKKHMKV
#Ion_Source LC-ESI
#Instrument qTof
#Compound_Source Commercial
#PI Dorrestein
#Data_Collector Garg_Neha
#Scan -1
#Precursor_MZ 229.123
#ExactMass 228.115
#Charge 1
#CAS_Number N/A
#Pubmed_ID N/A
#Smiles N/A
#INCHI_AUX N/A
#Library_Class 1
#SpectrumID CCMSLIB00000077055
#IonMode Positive
#UpdateWorkflowName UPDATE-SINGLE-ANNOTATED-GOLD
#LibraryQualityString Gold
#TaskID 48f7f52fc6d249b5abbcc6e7b3df5969
##Scan# 1823
#SpectrumFile NCP003017_E2_F11_BA8_01_15703.mzXML
#LibraryName NIH_Clinical_Collection_2.mgf
#MQScore -1
#Organism NIHcollection2_04212014_2_mgf
#TIC_Query 0
#RT_Query -1
#MZErrorPPM -1
#SharedPeaks 0
#MassDiff 0
#LibMZ -1
#SpecMZ 229.123
#SpecCharge 0
#internalFilename spec-00000.mgf

>collision 10
49.519966 188.0
50.624126 188.0
53.977482 176.0
57.813065 228.0
62.450089 152.0
64.020111 172.0
66.145958 172.0
66.367905 192.0
67.511047 148.0
71.114784 184.0
82.471901 200.0
89.617088 148.0
93.929726 208.0
101.948662 144.0
111.423447 144.0
115.429558 196.0
116.965698 196.0
118.941391 188.0
122.918137 152.0
124.514267 144.0
126.045876 168.0
128.06189 1556.0
129.067307 348.0
130.064865 148.0
130.972122 176.0
131.980835 240.0
135.947601 188.0
141.041824 160.0
141.070923 128.0
141.961823 192.0
142.076782 156.0
145.927963 156.0
148.110641 244.0
154.077347 152.0
155.062195 148.0
156.057419 816.0
156.909119 260.0
157.063965 164.0
159.084045 228.0
161.960312 172.0
163.939484 244.0
164.938629 124.0
165.07547 216.0
170.590591 184.0
170.910477 160.0
170.955963 168.0
171.043381 128.0
171.08107 38336.0
171.599197 104.0
172.084396 2996.0
173.086502 496.0
173.13588 144.0
185.094925 292.0
186.09613 252.0
186.959976 128.0
214.922775 144.0
228.113098 820.0
229.122208 640.0
229.15657 144.0
230.124023 248.0
231.125198 140.0
1325.623047 152.0
1575.393188 144.0
1641.304932 160.0
1649.006348 148.0
1689.509766 228.0
1732.425903 212.0
1837.542114 152.0
1854.131104 148.0
