>compound Topotecan HCl
>formula C23H23N3O5
>ionization [M+H]+
>parentmass 422.172363
#inchi InChI=1S/C23H23N3O5/c1-4-23(30)16-8-18-20-12(9-26(18)21(28)15(16)11-31-22(23)29)7-13-14(10-25(2)3)19(27)6-5-17(13)24-20/h5-8,27,30H,4,9-11H2,1-3H3/t23-/m0/s1
#inchikey UCFGDBYHRUNTLO
#origInchi InChI=1S/C23H23N3O5.ClH/c1-4-23(30)16-8-18-20-12(9-26(18)21(28)15(16)11-31-22(23)29)7-13-14(10-25(2)3)19(27)6-5-17(13)24-20;/h5-8,27,30H,4,9-11H2,1-3H3;1H/t23-;/m0./s1
#Ion_Source LC-ESI
#Instrument qTof
#Compound_Source Commercial
#PI Dorrestein
#Data_Collector Garg_Neha
#Scan -1
#Precursor_MZ 422.171
#ExactMass 421.164
#Charge 1
#CAS_Number 119413-54-6
#Pubmed_ID N/A
#Smiles C1(C=CC2C(C=1CN(C)C)=CC3=C(N=2)C4N(C3)C(C5=C(C=4)[C@](C(OC5)=O)(CC)O)=O)O.Cl
#INCHI_AUX N/A
#Library_Class 1
#SpectrumID CCMSLIB00000078059
#IonMode Positive
#UpdateWorkflowName UPDATE-SINGLE-ANNOTATED-GOLD
#LibraryQualityString Gold
#TaskID 77f51c88eb8b467eb4a01dd2d0cb90d2
##Scan# 1041
#SpectrumFile Plate1_61_88_GG4_01_16491.mzXML
#LibraryName FDALibrary_2_04302014.mgf
#MQScore -1
#Organism FDALibrary_2_04302014
#TIC_Query 0
#RT_Query -1
#MZErrorPPM -1
#SharedPeaks 0
#MassDiff 0
#LibMZ -1
#SpecMZ 422.171
#SpecCharge 0
#internalFilename spec-00000.mgf

>collision 10
44.925213 172.0
47.99078 144.0
48.236526 204.0
49.717155 196.0
50.38036 164.0
50.788048 168.0
50.826355 160.0
52.842461 152.0
53.32972 240.0
54.063339 164.0
54.490044 208.0
55.851604 168.0
56.159935 204.0
56.807644 160.0
57.712811 160.0
58.238686 168.0
59.1031 200.0
59.533859 156.0
60.451118 184.0
60.641613 180.0
62.761547 144.0
63.471531 156.0
64.95961 144.0
64.975647 196.0
65.922447 140.0
66.084152 176.0
66.205559 180.0
67.51239 296.0
68.105705 200.0
68.41156 184.0
69.457603 148.0
70.209404 160.0
71.141411 216.0
71.624031 228.0
73.722862 176.0
74.682983 144.0
74.858536 200.0
74.970512 168.0
76.136551 140.0
76.371193 212.0
76.491257 148.0
77.607643 184.0
77.767281 228.0
77.890198 140.0
78.490349 156.0
79.209671 204.0
79.576782 152.0
79.87001 216.0
82.283997 168.0
82.302055 156.0
84.161438 152.0
85.713272 176.0
86.868828 172.0
87.603134 156.0
87.796982 160.0
88.22084 200.0
88.750687 176.0
88.99086 144.0
91.429573 124.0
91.831451 188.0
92.760757 180.0
93.192574 148.0
93.679329 148.0
94.641144 204.0
94.924057 148.0
95.27343 164.0
95.896126 176.0
96.673431 160.0
96.759552 164.0
97.906311 152.0
97.941765 188.0
98.093498 208.0
98.176308 244.0
98.456551 148.0
98.873703 140.0
99.375053 196.0
100.178261 156.0
100.343674 164.0
100.507225 168.0
100.906708 148.0
101.25489 140.0
101.716064 140.0
102.282928 148.0
103.46389 172.0
103.512482 172.0
103.846878 144.0
103.980789 148.0
104.641449 144.0
104.853302 140.0
104.955231 152.0
105.220482 164.0
105.610794 144.0
106.084625 176.0
107.014503 164.0
107.076286 172.0
107.103058 200.0
107.695045 156.0
109.224792 152.0
109.474556 160.0
109.501625 180.0
109.609962 160.0
109.664146 188.0
110.943451 228.0
112.356735 140.0
112.375717 148.0
113.204384 172.0
113.350502 180.0
113.738617 140.0
114.146538 200.0
114.591408 140.0
114.870689 148.0
116.089699 120.0
116.224983 148.0
116.531654 160.0
116.6008 156.0
116.880363 152.0
117.8442 152.0
118.453087 180.0
118.512787 148.0
119.54641 228.0
119.692261 176.0
119.775024 196.0
120.291832 160.0
120.387901 156.0
121.043945 168.0
121.068039 172.0
121.537155 228.0
121.665573 204.0
122.434052 216.0
123.480186 168.0
123.790016 204.0
123.949509 176.0
124.424171 172.0
125.994301 160.0
126.036758 168.0
126.425858 152.0
127.619247 144.0
127.682213 144.0
127.882454 228.0
128.123398 152.0
128.150436 244.0
129.0578 204.0
129.105301 160.0
130.406677 216.0
130.927689 152.0
131.105392 160.0
131.144135 184.0
132.313751 188.0
132.567993 156.0
133.578247 156.0
133.731522 156.0
134.050247 164.0
134.158569 144.0
134.308456 200.0
135.320679 200.0
135.424881 188.0
135.962784 184.0
136.548264 156.0
136.655273 196.0
136.960236 172.0
136.983795 180.0
137.305191 184.0
137.342514 148.0
138.340317 156.0
139.320602 172.0
139.579147 156.0
139.830856 144.0
140.592102 216.0
141.483231 140.0
141.893097 164.0
142.864456 140.0
143.290604 160.0
143.395462 172.0
143.867767 180.0
144.063644 200.0
144.221313 156.0
146.089325 160.0
146.172791 116.0
146.665604 128.0
147.355057 164.0
147.384644 192.0
147.891907 160.0
148.058975 172.0
148.500076 152.0
148.65535 168.0
149.941864 144.0
150.16861 148.0
150.566437 188.0
150.585968 196.0
151.481232 192.0
152.072174 204.0
152.297058 184.0
152.462692 160.0
152.706085 200.0
152.752823 152.0
153.083725 180.0
153.449783 184.0
154.765518 148.0
154.957458 224.0
155.17308 200.0
155.64949 148.0
156.086823 200.0
156.288315 176.0
156.522293 156.0
157.157913 152.0
157.782333 248.0
158.017426 232.0
158.212646 152.0
159.007248 172.0
159.914581 168.0
160.058075 232.0
160.62262 152.0
160.675598 192.0
160.698303 208.0
160.988602 164.0
161.018906 176.0
161.69902 172.0
161.764832 176.0
161.802795 164.0
161.883835 232.0
163.2771 184.0
163.35849 140.0
163.61853 156.0
163.803986 180.0
164.426132 156.0
164.798965 176.0
165.075027 144.0
165.141525 148.0
165.645966 120.0
165.773895 192.0
165.855911 232.0
166.073868 156.0
166.107208 148.0
166.785126 236.0
167.588058 148.0
167.776215 144.0
167.961884 176.0
168.036697 140.0
168.339828 204.0
168.860748 196.0
169.070312 148.0
169.311081 160.0
169.660889 148.0
169.909866 164.0
170.431747 200.0
170.991211 176.0
171.144455 196.0
171.550888 180.0
172.025681 180.0
172.195404 168.0
172.869904 308.0
173.077713 168.0
173.15004 204.0
173.328171 188.0
173.606049 164.0
173.779175 236.0
173.808044 184.0
174.161224 212.0
174.906876 156.0
175.475647 176.0
175.797455 160.0
176.576813 160.0
176.955231 236.0
177.3526 176.0
179.031754 176.0
179.194244 224.0
179.271332 116.0
179.612793 216.0
180.2883 196.0
180.550293 160.0
181.076721 280.0
181.10701 196.0
181.125748 156.0
181.374954 188.0
182.186508 148.0
182.518509 220.0
183.083771 140.0
183.382828 168.0
183.754974 184.0
183.895309 152.0
184.138306 144.0
184.451736 164.0
184.78978 180.0
186.827301 160.0
186.947021 144.0
187.257401 152.0
187.611633 172.0
188.468903 128.0
188.521179 180.0
188.807617 140.0
189.072998 180.0
189.442642 152.0
189.637207 160.0
189.897675 216.0
189.927841 212.0
190.177536 188.0
190.37796 208.0
190.633453 232.0
191.062393 160.0
191.811447 172.0
192.076172 160.0
192.356888 148.0
192.915665 144.0
193.056671 164.0
193.076035 224.0
193.183914 144.0
193.680328 136.0
193.859497 172.0
194.222702 164.0
194.297607 240.0
194.83342 144.0
194.90567 140.0
195.036285 204.0
195.272629 148.0
195.536942 228.0
195.76532 136.0
196.063324 140.0
196.289139 176.0
196.55571 192.0
196.928223 148.0
197.224411 200.0
197.67749 224.0
197.797836 140.0
197.848221 200.0
197.883316 180.0
198.005035 172.0
198.308624 180.0
198.380508 172.0
198.623917 200.0
198.756348 208.0
199.455658 184.0
199.729416 192.0
200.043579 156.0
200.333633 156.0
200.361816 140.0
200.78746 144.0
201.023804 180.0
201.066757 148.0
201.275665 172.0
201.360382 144.0
201.453598 144.0
201.558136 160.0
201.58075 184.0
202.208588 228.0
202.350128 152.0
202.480377 180.0
203.18338 176.0
203.390533 204.0
203.418915 200.0
203.631882 140.0
203.856323 156.0
204.032547 152.0
204.427917 184.0
204.567398 148.0
204.590164 184.0
204.795197 180.0
204.963287 184.0
205.533585 216.0
205.670563 140.0
206.090088 160.0
206.306396 160.0
206.393372 140.0
206.687988 168.0
206.768127 164.0
207.089706 276.0
207.17186 172.0
207.424759 240.0
208.126938 144.0
208.698746 176.0
209.064072 132.0
211.236725 148.0
211.410324 152.0
211.995316 164.0
212.015594 188.0
212.378021 148.0
212.578201 240.0
212.993393 140.0
213.106689 176.0
213.153183 152.0
213.244156 132.0
214.075256 148.0
214.366653 176.0
214.41037 216.0
214.4366 176.0
215.338913 184.0
215.492981 192.0
215.782333 208.0
215.88176 188.0
216.150986 124.0
216.197708 148.0
216.419235 136.0
216.549042 192.0
217.084015 148.0
217.10675 232.0
217.325897 188.0
217.481445 172.0
218.021851 148.0
218.063004 152.0
218.090073 172.0
218.686554 256.0
219.088455 560.0
219.343414 312.0
219.897934 156.0
219.94812 144.0
220.099655 592.0
220.17717 160.0
220.225677 188.0
220.408066 152.0
220.532974 240.0
220.796112 220.0
221.102417 568.0
222.076828 164.0
222.126022 156.0
222.342621 180.0
222.384186 188.0
222.871216 172.0
223.439117 152.0
223.736725 156.0
224.535309 160.0
224.622482 144.0
224.81575 212.0
225.024704 224.0
225.416397 132.0
225.45784 164.0
225.490707 216.0
225.616257 164.0
225.753799 176.0
226.124786 256.0
226.442154 160.0
227.500656 264.0
228.977051 208.0
229.251221 172.0
229.736664 152.0
229.935806 172.0
230.842133 168.0
230.881454 140.0
231.342926 180.0
231.459091 168.0
231.501846 140.0
231.729034 156.0
231.81691 176.0
232.145752 140.0
232.238327 140.0
232.442154 152.0
232.963821 160.0
233.173477 172.0
233.368042 140.0
233.395401 164.0
233.650894 164.0
233.822708 104.0
234.089539 180.0
234.466965 148.0
234.713898 160.0
235.083008 328.0
235.388275 144.0
235.583755 140.0
235.770142 140.0
236.09726 176.0
236.262436 164.0
236.322815 196.0
236.682434 160.0
236.972733 396.0
237.064667 144.0
237.096405 224.0
237.122894 172.0
237.368149 184.0
237.698318 152.0
238.625366 120.0
239.057724 160.0
239.281418 208.0
239.405594 148.0
239.447617 192.0
239.608887 200.0
239.698242 168.0
239.766037 172.0
240.387909 148.0
241.015854 156.0
242.018036 156.0
242.464127 164.0
242.635269 132.0
242.746246 180.0
243.696091 160.0
243.848358 140.0
244.05983 160.0
244.255676 152.0
244.283676 144.0
244.815918 140.0
245.34874 212.0
245.791641 260.0
246.077866 624.0
246.791199 228.0
247.085114 772.0
247.648682 180.0
247.723862 144.0
248.027817 164.0
248.094543 3104.0
248.284927 140.0
248.780685 164.0
249.003632 148.0
249.099426 572.0
249.13765 316.0
249.242386 144.0
249.31781 208.0
249.830338 208.0
250.071564 184.0
250.101547 408.0
250.626907 164.0
251.109238 152.0
251.150238 168.0
251.475235 204.0
252.116364 196.0
252.312347 176.0
252.39772 200.0
252.483093 156.0
252.533707 188.0
252.584305 212.0
253.291931 132.0
253.489807 204.0
253.578552 144.0
254.20015 212.0
254.336624 176.0
254.400101 196.0
254.530289 184.0
254.698441 152.0
255.321579 148.0
255.423355 220.0
255.595154 144.0
256.372162 144.0
256.553864 152.0
256.58255 220.0
256.66864 148.0
257.322754 144.0
257.849823 168.0
257.910553 160.0
259.078552 140.0
259.328522 156.0
259.777435 144.0
260.034149 200.0
260.447937 168.0
260.538849 184.0
261.268066 176.0
261.432159 164.0
261.725159 216.0
262.063324 152.0
262.107513 176.0
262.979187 144.0
263.079834 328.0
263.130829 156.0
263.851379 244.0
263.963501 184.0
264.092773 296.0
264.346741 140.0
264.504852 160.0
264.706573 144.0
264.814453 144.0
265.093018 408.0
265.253143 164.0
265.366608 180.0
265.577393 220.0
265.752594 192.0
265.775299 172.0
265.914825 160.0
265.957031 160.0
266.012207 144.0
266.323944 140.0
266.385681 180.0
266.444153 144.0
266.769135 156.0
266.921936 200.0
267.73877 192.0
268.204681 144.0
268.690582 176.0
269.023468 252.0
269.147552 172.0
269.199799 212.0
269.320618 184.0
269.578735 148.0
270.092041 220.0
270.327606 160.0
270.384247 144.0
270.487976 140.0
270.926819 196.0
271.218445 140.0
271.572571 180.0
271.769409 192.0
272.097626 160.0
272.199432 168.0
272.238831 208.0
273.063751 200.0
273.580353 164.0
273.751587 188.0
273.985443 176.0
274.015076 164.0
274.071625 1712.0
274.110016 188.0
274.677734 164.0
274.789886 228.0
275.079651 1116.0
275.339539 136.0
275.443573 332.0
275.879761 180.0
275.974152 300.0
276.042877 180.0
276.089203 6176.0
276.418884 144.0
276.624084 200.0
276.736664 176.0
276.901337 164.0
277.055603 176.0
277.093994 1520.0
277.130524 696.0
277.625305 164.0
277.657898 200.0
277.790588 188.0
277.902283 176.0
278.071106 728.0
278.09256 544.0
278.14093 452.0
278.314972 156.0
278.344849 172.0
278.803284 208.0
279.077454 152.0
279.198914 144.0
280.040955 252.0
280.083221 156.0
280.680817 180.0
280.737518 140.0
280.874268 164.0
281.09375 316.0
282.086578 164.0
282.688446 180.0
284.038696 324.0
284.646179 164.0
285.010529 132.0
285.560272 144.0
285.634552 204.0
285.913544 144.0
286.109833 192.0
286.5466 164.0
286.913971 152.0
287.122681 244.0
287.34906 152.0
287.679779 252.0
287.845215 184.0
288.047882 152.0
288.106384 176.0
288.470276 160.0
288.693451 168.0
289.097931 424.0
289.129852 164.0
289.513031 176.0
289.624176 224.0
289.990112 164.0
290.06131 144.0
290.102997 440.0
290.186737 160.0
290.366455 212.0
290.905975 168.0
291.07785 408.0
291.111572 868.0
291.775696 304.0
292.084412 1768.0
292.119873 860.0
292.473053 156.0
292.601288 144.0
292.64328 144.0
292.713379 96.0
292.820374 188.0
293.085754 412.0
293.124054 304.0
293.236023 184.0
293.611053 248.0
294.098816 128.0
294.143341 184.0
294.208221 168.0
294.24234 156.0
294.310852 180.0
294.344788 148.0
294.778625 172.0
295.099915 164.0
295.438507 144.0
296.247925 156.0
296.513702 212.0
296.899384 228.0
297.233887 228.0
297.570251 224.0
297.757477 100.0
298.250458 160.0
298.515198 224.0
298.752533 148.0
299.106964 176.0
299.505127 280.0
299.733795 224.0
300.030212 172.0
300.17157 172.0
300.233643 212.0
300.261261 140.0
300.444061 164.0
300.626953 140.0
300.903076 140.0
301.224274 224.0
301.262268 204.0
301.483948 148.0
301.535248 164.0
301.659668 148.0
301.981262 156.0
302.01239 228.0
302.068512 4740.0
302.202667 212.0
302.496826 152.0
302.852478 124.0
303.071533 1324.0
303.112396 820.0
303.799835 180.0
303.888275 156.0
303.921265 224.0
304.082794 4916.0
304.375153 196.0
304.516541 172.0
304.577423 160.0
304.904022 144.0
304.956757 184.0
305.029175 336.0
305.081482 716.0
305.128357 13640.0
305.438324 144.0
305.589081 180.0
306.063385 384.0
306.129395 2684.0
306.222656 168.0
306.354797 176.0
306.990997 208.0
307.036346 228.0
307.134949 512.0
307.565063 200.0
307.798981 200.0
308.120575 160.0
308.574677 144.0
309.085968 272.0
309.130829 160.0
309.333832 148.0
309.427948 232.0
310.090424 180.0
310.128998 152.0
310.402466 164.0
310.805939 144.0
310.833923 144.0
310.879547 148.0
311.033966 148.0
311.104187 140.0
311.142792 152.0
311.381592 160.0
311.687225 176.0
311.852631 128.0
313.019104 184.0
313.443115 140.0
313.481873 184.0
313.537231 204.0
314.176514 200.0
314.321167 172.0
315.120605 216.0
315.419556 216.0
315.769592 192.0
316.085388 128.0
316.233093 160.0
316.385803 148.0
316.640259 144.0
316.969727 144.0
317.105591 180.0
317.621277 176.0
317.962708 172.0
318.101074 236.0
318.225403 212.0
318.266235 184.0
318.360565 172.0
318.545013 176.0
318.581909 136.0
318.951294 196.0
318.982971 168.0
319.10553 384.0
319.501556 128.0
319.689911 168.0
319.77533 156.0
319.941101 188.0
319.996033 148.0
320.031647 160.0
320.078888 14380.0
320.114197 9708.0
320.223816 120.0
320.508942 140.0
320.600311 112.0
320.694122 100.0
320.759186 220.0
320.851105 144.0
320.989197 160.0
321.082123 4000.0
321.118652 3464.0
321.46817 144.0
321.689484 172.0
321.7323 188.0
322.087982 620.0
322.117493 540.0
322.335938 228.0
322.794617 152.0
322.869751 176.0
323.026154 172.0
323.118866 196.0
323.355164 148.0
323.566376 152.0
323.624939 156.0
323.978241 144.0
324.266632 148.0
324.376007 156.0
324.838074 160.0
324.91037 204.0
325.154358 180.0
325.190247 140.0
325.656281 196.0
325.745453 148.0
326.429718 148.0
326.825134 156.0
327.102509 144.0
327.296936 144.0
327.765198 184.0
327.822876 160.0
328.168915 168.0
328.197754 140.0
328.399719 184.0
328.529572 160.0
328.94458 168.0
329.206604 140.0
329.446533 144.0
329.587463 168.0
329.865753 172.0
329.919983 232.0
329.985046 192.0
330.05014 244.0
330.122467 172.0
330.353943 192.0
330.40097 140.0
330.560822 176.0
330.726654 148.0
330.853363 200.0
331.104095 1260.0
331.706482 120.0
331.723724 136.0
331.734161 124.0
332.041901 148.0
332.113647 112.0
332.46637 188.0
332.609711 112.0
333.04364 284.0
333.122955 9840.0
334.078674 104.0
334.123871 2668.0
334.245483 104.0
334.501801 224.0
334.621948 160.0
334.680206 156.0
334.799622 140.0
334.970703 104.0
335.132904 132.0
335.790833 172.0
336.038666 240.0
336.13739 136.0
336.196655 212.0
337.181671 252.0
337.584869 172.0
338.162933 364.0
338.419189 316.0
338.518036 204.0
338.682861 160.0
338.862366 180.0
339.522186 140.0
339.667358 152.0
340.17334 124.0
340.223022 204.0
340.432312 268.0
340.950317 328.0
341.124786 104.0
341.303223 156.0
342.164215 144.0
342.245941 120.0
342.536163 180.0
342.618103 152.0
342.85672 192.0
342.967285 152.0
343.088928 140.0
343.146667 140.0
343.323669 200.0
343.645844 192.0
343.977997 152.0
344.232758 196.0
344.395264 144.0
345.134399 240.0
345.573059 160.0
345.896515 160.0
345.945709 184.0
346.236115 128.0
346.847351 128.0
346.897339 96.0
347.062653 196.0
347.580933 208.0
347.753571 348.0
347.83844 172.0
347.882172 124.0
347.919739 156.0
347.954041 176.0
347.99295 224.0
348.074738 38140.0
348.317963 176.0
348.375214 172.0
348.542297 140.0
348.684967 228.0
348.726715 160.0
348.78772 164.0
348.83609 140.0
348.951813 120.0
349.076385 8172.0
349.11792 11672.0
349.224945 152.0
349.290771 236.0
349.474182 192.0
349.655975 300.0
349.856689 260.0
350.081177 1100.0
350.119202 2780.0
350.184509 208.0
350.400024 116.0
350.494263 172.0
351.119202 364.0
351.226715 136.0
351.334167 108.0
351.37738 184.0
351.495026 156.0
351.552155 180.0
351.648468 108.0
351.728912 180.0
351.884216 172.0
352.108856 148.0
352.330139 164.0
352.478119 100.0
352.720093 140.0
352.995483 156.0
353.058746 144.0
353.767883 108.0
353.934723 164.0
354.174408 140.0
354.294281 156.0
354.751495 144.0
354.826477 152.0
354.860199 144.0
354.908936 236.0
355.186462 140.0
355.64801 164.0
356.015961 232.0
356.068542 232.0
356.154907 180.0
356.252594 232.0
357.049469 148.0
357.105865 152.0
357.158539 104.0
357.484833 212.0
357.858521 176.0
358.133423 192.0
358.425201 236.0
359.112244 316.0
359.177551 148.0
359.464294 140.0
359.909027 176.0
360.075867 212.0
360.107941 180.0
361.168213 140.0
361.792603 204.0
362.156128 212.0
362.73587 168.0
363.031616 276.0
363.187134 176.0
363.308502 140.0
363.623474 204.0
363.82843 144.0
364.31546 128.0
365.816711 144.0
365.855591 132.0
367.244415 196.0
367.714966 196.0
368.283875 156.0
368.429016 204.0
369.13324 180.0
369.281464 164.0
369.775024 144.0
370.180847 220.0
371.110077 168.0
372.092773 116.0
372.183899 100.0
372.386047 220.0
372.560059 160.0
373.0047 188.0
373.287811 176.0
373.612305 188.0
373.997101 184.0
374.224243 144.0
374.276672 168.0
374.819977 188.0
375.114197 228.0
375.199005 152.0
375.449646 156.0
375.490784 156.0
375.58078 172.0
375.759247 140.0
375.792969 168.0
375.827698 228.0
375.929718 172.0
375.95636 328.0
376.011444 152.0
376.157471 196.0
376.211182 156.0
376.263397 144.0
376.318451 164.0
376.37851 200.0
376.486298 312.0
376.55899 184.0
376.603668 408.0
376.661926 216.0
376.742859 240.0
376.773407 168.0
376.894684 204.0
376.941772 280.0
377.028961 484.0
377.114319 189148.0
377.230713 264.0
377.332458 108.0
377.368011 192.0
377.463898 172.0
377.489166 364.0
377.563477 128.0
377.643005 132.0
377.71463 148.0
377.749146 824.0
377.808105 288.0
377.835602 256.0
377.944305 320.0
377.986786 284.0
378.116302 44832.0
378.218872 96.0
378.265015 232.0
378.312744 140.0
378.392426 152.0
378.431 132.0
378.467224 116.0
378.548462 212.0
378.743256 136.0
379.118958 5752.0
379.19989 244.0
379.25296 156.0
379.393799 132.0
379.87146 116.0
379.976715 208.0
380.067169 140.0
380.119507 756.0
380.194824 216.0
380.278809 228.0
380.327148 228.0
380.352997 256.0
380.423523 168.0
380.463501 124.0
380.518005 116.0
380.568207 156.0
380.59848 228.0
380.635254 172.0
380.681488 120.0
380.774445 192.0
380.856659 188.0
380.94162 116.0
381.072296 232.0
381.132263 184.0
381.2547 132.0
381.293976 124.0
381.619202 264.0
381.644562 212.0
381.720673 112.0
381.806946 152.0
382.010223 120.0
382.104004 204.0
382.957092 168.0
383.159637 160.0
383.27771 144.0
383.36615 144.0
383.48819 256.0
384.73526 148.0
385.807526 172.0
386.183197 124.0
386.40625 100.0
388.513824 96.0
388.971008 140.0
390.739441 184.0
391.774872 168.0
392.66571 148.0
393.166779 144.0
393.652069 108.0
394.150085 164.0
394.347687 256.0
394.438599 160.0
394.525574 196.0
394.69162 180.0
395.128754 320.0
395.485626 144.0
396.346222 156.0
396.758423 204.0
396.990662 120.0
397.849426 140.0
398.882294 176.0
399.119354 140.0
399.172546 184.0
399.594177 200.0
399.817017 176.0
400.828522 180.0
400.948059 172.0
401.905151 180.0
403.53479 244.0
403.798706 140.0
403.874695 184.0
405.456238 196.0
405.572449 140.0
407.58313 196.0
407.97702 144.0
408.62854 212.0
410.170959 180.0
411.264099 188.0
412.205109 156.0
413.155304 320.0
414.269623 140.0
415.413422 164.0
415.509155 152.0
416.272247 156.0
416.706879 164.0
417.74823 140.0
418.065033 164.0
418.126648 228.0
418.177094 172.0
419.320923 212.0
419.460052 120.0
419.684296 308.0
420.057434 172.0
420.110474 152.0
420.154785 120.0
420.214111 196.0
420.30899 164.0
420.938812 164.0
421.065613 204.0
421.101868 188.0
421.168457 228.0
421.220734 280.0
421.341827 136.0
421.400787 216.0
421.444092 260.0
421.582214 216.0
421.670166 128.0
421.757874 340.0
421.814789 184.0
421.880463 116.0
421.937622 268.0
421.974457 204.0
422.027039 480.0
422.066223 284.0
422.172363 152688.0
422.315857 204.0
422.421967 96.0
422.467194 140.0
422.524414 244.0
422.684509 224.0
422.765808 156.0
422.844055 472.0
422.899994 148.0
422.979706 168.0
423.037048 380.0
423.077484 316.0
423.109497 232.0
423.175323 44320.0
423.289215 172.0
423.435394 124.0
423.513519 144.0
423.557556 140.0
423.614502 124.0
423.797943 152.0
423.850403 156.0
423.966888 152.0
424.174133 5328.0
424.330872 132.0
424.41864 104.0
424.454224 140.0
424.556641 152.0
424.619019 212.0
424.656738 100.0
424.998505 128.0
425.069763 100.0
425.176178 568.0
425.459869 132.0
425.507294 124.0
425.768402 156.0
425.840149 112.0
425.90744 104.0
426.026306 148.0
426.755035 100.0
426.927856 132.0
427.063141 164.0
427.474823 112.0
427.596863 140.0
432.106567 132.0
435.028992 176.0
441.141632 196.0
442.684998 112.0
464.578064 148.0
497.869781 148.0
507.347321 140.0
508.872742 160.0
531.097229 184.0
554.677612 140.0
576.392822 192.0
578.832397 144.0
630.817932 112.0
684.32251 172.0
1255.710938 164.0
1555.530273 196.0
1930.776855 176.0
1979.514526 144.0
