>compound MLS000859992-01!R()-Apocodeine hydrochloride
>formula C18H19NO2
>ionization [M+H]+
>parentmass 282.146912
#inchi InChI=1S/C18H19NO2/c1-19-9-8-11-4-3-5-13-16(11)14(19)10-12-6-7-15(21-2)18(20)17(12)13/h3-7,14,20H,8-10H2,1-2H3/t14-/m1/s1
#inchikey DZUOQMBJJSBONO
#origInchi InChI=1S/C18H19NO2.ClH/c1-19-9-8-11-4-3-5-13-16(11)14(19)10-12-6-7-15(21-2)18(20)17(12)13;/h3-7,14,20H,8-10H2,1-2H3;1H/t14-;/m1./s1
#Ion_Source LC-ESI
#Instrument qTof
#Compound_Source NIH Pharmacologically Active Library
#PI Dorrestein
#Data_Collector VP/LMS
#Scan -1
#Precursor_MZ 282.147
#ExactMass 281.142
#Charge 1
#CAS_Number N/A
#Pubmed_ID N/A
#Smiles COc1ccc2C[C@H]3N(C)CCc4cccc(c34)-c2c1O.Cl
#INCHI_AUX N/A
#Library_Class 1
#SpectrumID CCMSLIB00000085953
#IonMode Positive
#UpdateWorkflowName UPDATE-SINGLE-ANNOTATED-GOLD
#LibraryQualityString Gold
#TaskID d252d724072548979f1f6f1ced849daf
##Scan# 1399
#SpectrumFile p4-H07_GH7_01_18415.mzXML
#LibraryName Pharm_Active_Library.mgf
#MQScore -1
#Organism Pharm_Active_Library
#TIC_Query 0
#RT_Query -1
#MZErrorPPM -1
#SharedPeaks 0
#MassDiff 0
#LibMZ -1
#SpecMZ 282.147
#SpecCharge 0
#internalFilename spec-00000.mgf

>collision 10
44.902096 140.0
44.932777 112.0
44.956261 184.0
45.008858 180.0
45.030228 132.0
45.048927 108.0
45.060894 184.0
45.138477 208.0
45.276318 148.0
45.300426 148.0
45.325882 128.0
45.340626 116.0
45.358021 184.0
45.378159 208.0
45.407661 144.0
45.419106 120.0
45.440884 172.0
45.445183 132.0
45.448193 168.0
45.510036 152.0
45.551285 144.0
45.564716 292.0
45.575466 68.0
45.59137 436.0
45.605877 172.0
45.608131 248.0
45.641769 160.0
45.675167 176.0
45.71397 208.0
45.730122 136.0
45.742237 212.0
45.759739 116.0
45.795094 236.0
45.82254 216.0
45.825459 136.0
45.830151 188.0
45.839878 188.0
45.89043 88.0
45.905266 156.0
45.974068 116.0
46.017056 156.0
46.025497 120.0
46.036167 176.0
46.087498 220.0
46.105885 204.0
46.136154 128.0
46.146969 180.0
46.202423 228.0
46.211895 184.0
46.22678 76.0
46.264679 188.0
46.305302 124.0
46.322838 160.0
46.431347 140.0
46.447659 100.0
46.461933 124.0
46.508682 72.0
46.518185 236.0
46.568428 164.0
46.581249 164.0
46.64996 172.0
46.670353 132.0
46.69891 208.0
46.746998 208.0
46.792809 128.0
46.824127 248.0
46.852192 236.0
46.86636 192.0
46.877258 168.0
46.912697 144.0
47.002716 208.0
47.037724 160.0
47.072334 92.0
47.085991 112.0
47.114677 224.0
47.172073 132.0
47.206257 136.0
47.219933 132.0
47.23164 208.0
47.315868 148.0
47.362282 180.0
47.422569 180.0
47.460957 188.0
47.481525 376.0
47.504845 112.0
47.528168 128.0
47.546009 60.0
47.584812 180.0
47.639381 120.0
47.655869 192.0
47.738342 140.0
47.747971 248.0
47.757599 180.0
47.769802 156.0
47.841537 132.0
47.851177 120.0
47.897999 164.0
47.911777 304.0
47.969658 172.0
47.983444 124.0
48.019295 124.0
48.053993 132.0
48.064823 160.0
48.099327 160.0
48.278221 176.0
48.335663 156.0
48.358822 196.0
48.399338 152.0
48.432575 144.0
48.473007 152.0
48.487999 160.0
48.536419 192.0
48.547298 124.0
48.596203 132.0
48.610039 116.0
48.639183 180.0
48.665562 124.0
48.680626 132.0
48.705837 180.0
48.792957 220.0
48.805244 228.0
48.872669 164.0
48.919987 116.0
48.977081 152.0
49.001633 212.0
49.013306 204.0
49.060692 188.0
49.081608 156.0
49.122055 152.0
49.168892 148.0
49.188477 128.0
49.236507 220.0
49.26165 92.0
49.338516 140.0
49.393482 236.0
49.425232 144.0
49.435028 128.0
49.514828 208.0
49.535839 208.0
49.568062 52.0
49.6003 88.0
49.614315 152.0
49.65358 176.0
49.676289 168.0
49.690052 172.0
49.70689 160.0
49.716713 132.0
49.736362 156.0
49.754322 136.0
49.822216 204.0
49.834667 176.0
49.875423 116.0
49.888077 288.0
49.907761 92.0
49.927448 120.0
49.975273 156.0
50.002014 184.0
50.024532 204.0
50.063995 148.0
50.17046 192.0
50.180695 76.0
50.184536 176.0
50.223595 152.0
50.25716 144.0
50.268372 156.0
50.285305 124.0
50.307892 188.0
50.334717 136.0
50.367119 136.0
50.401108 48.0
50.410999 128.0
50.464207 312.0
50.48027 100.0
50.507526 176.0
50.524117 156.0
50.55949 164.0
50.580723 136.0
50.63028 48.0
50.752148 224.0
50.777676 108.0
50.83868 68.0
50.852875 208.0
50.908146 412.0
50.926704 144.0
50.977852 96.0
51.020496 144.0
51.032276 196.0
51.063156 160.0
51.077377 68.0
51.101212 208.0
51.140564 168.0
51.158493 148.0
51.211056 184.0
51.223999 156.0
51.252625 156.0
51.394478 340.0
51.415062 148.0
51.442898 136.0
51.470737 280.0
51.48502 160.0
51.505013 252.0
51.515015 76.0
51.573925 300.0
51.616489 164.0
51.670845 236.0
51.692307 92.0
51.70948 116.0
51.73148 228.0
51.75386 208.0
51.769611 136.0
51.873192 192.0
51.943005 164.0
52.017284 92.0
52.032017 348.0
52.07317 164.0
52.131126 136.0
52.148373 96.0
52.195816 176.0
52.227936 120.0
52.256226 160.0
52.279251 136.0
52.301388 136.0
52.316673 148.0
52.350273 168.0
52.372837 140.0
52.416058 52.0
52.441998 88.0
52.4571 136.0
52.476791 264.0
52.503033 252.0
52.51368 168.0
52.571022 156.0
52.639648 196.0
52.655537 140.0
52.684425 168.0
52.703209 152.0
52.731987 188.0
52.7509 440.0
52.797173 248.0
52.823208 44.0
52.853588 176.0
52.925964 120.0
52.972309 176.0
52.982452 176.0
52.995491 152.0
53.011429 176.0
53.070862 184.0
53.104218 152.0
53.121624 148.0
53.152092 236.0
53.189827 208.0
53.210152 160.0
53.220314 80.0
53.256622 152.0
53.272095 196.0
53.310379 144.0
53.339447 132.0
53.433311 172.0
53.451008 204.0
53.499466 88.0
53.52269 160.0
53.567913 148.0
53.589764 168.0
53.605793 160.0
53.649521 128.0
53.661186 108.0
53.688889 276.0
53.725357 144.0
53.745602 192.0
53.795696 140.0
53.815845 164.0
53.846512 168.0
53.868423 140.0
53.891953 152.0
53.921211 252.0
53.963417 104.0
53.973652 180.0
54.045326 96.0
54.067646 192.0
54.084843 120.0
54.15366 220.0
54.18589 108.0
54.229851 68.0
54.248909 164.0
54.268555 268.0
54.322231 168.0
54.349236 240.0
54.367718 168.0
54.388264 76.0
54.433777 100.0
54.470497 248.0
54.48225 220.0
54.494003 168.0
54.557201 152.0
54.585136 152.0
54.646915 168.0
54.657215 112.0
54.760269 160.0
54.779415 124.0
54.792675 184.0
54.808121 124.0
54.829296 216.0
54.834221 268.0
54.852287 244.0
54.879784 160.0
54.892906 56.0
54.922184 108.0
54.981422 124.0
55.017551 180.0
55.034565 144.0
55.077393 112.0
55.136162 124.0
55.161049 228.0
55.192669 64.0
55.204498 136.0
55.216331 144.0
55.241474 156.0
55.271065 144.0
55.29842 248.0
55.316315 220.0
55.376179 72.0
55.387604 120.0
55.490284 208.0
55.500664 172.0
55.548122 160.0
55.603024 212.0
55.667053 152.0
55.699535 132.0
55.748566 108.0
55.764912 240.0
55.816948 104.0
55.851154 40.0
55.861565 148.0
55.900249 116.0
55.912155 148.0
55.958302 172.0
55.988083 212.0
56.019077 188.0
56.044693 108.0
56.064064 112.0
56.089401 164.0
56.117729 104.0
56.143078 152.0
56.162468 136.0
56.191025 168.0
56.2117 220.0
56.22364 232.0
56.24155 152.0
56.265434 132.0
56.31834 156.0
56.341602 152.0
56.404369 160.0
56.421299 196.0
56.472439 172.0
56.497086 168.0
56.525513 220.0
56.545315 196.0
56.5779 44.0
56.601856 72.0
56.663269 192.0
56.691738 80.0
56.727711 284.0
56.767742 160.0
56.789188 164.0
56.82243 152.0
56.850868 108.0
56.864208 128.0
56.894234 164.0
56.906242 64.0
56.945286 100.0
56.976833 380.0
56.999371 128.0
57.015903 144.0
57.047466 212.0
57.086975 168.0
57.149487 168.0
57.164787 168.0
57.190372 128.0
57.270176 160.0
57.322906 168.0
57.345512 212.0
57.375439 136.0
57.393753 200.0
57.408833 208.0
57.424915 332.0
57.475464 188.0
57.494457 164.0
57.512936 160.0
57.549168 144.0
57.591454 172.0
57.683628 188.0
57.733524 212.0
57.757725 144.0
57.789734 204.0
57.801601 128.0
57.839195 176.0
57.865173 100.0
57.93787 216.0
57.963627 184.0
57.986362 188.0
58.012478 140.0
58.054237 228.0
58.095539 240.0
58.119152 184.0
58.162308 112.0
58.22456 208.0
58.23671 140.0
58.292923 272.0
58.309639 108.0
58.344604 136.0
58.359806 160.0
58.371971 176.0
58.40239 160.0
58.441944 156.0
58.493336 156.0
58.516525 120.0
58.539364 128.0
58.559162 92.0
58.578876 140.0
58.600296 44.0
58.627724 136.0
58.641441 64.0
58.710049 152.0
58.731712 176.0
58.745129 164.0
58.797009 60.0
58.815323 140.0
58.829826 124.0
58.865707 144.0
58.905418 176.0
58.917641 72.0
58.941387 184.0
58.960339 144.0
58.999699 156.0
59.024632 192.0
59.041317 136.0
59.113354 148.0
59.131042 244.0
59.149483 172.0
59.203678 244.0
59.260353 248.0
59.304794 112.0
59.341587 204.0
59.355862 208.0
59.370724 188.0
59.387596 100.0
59.404255 200.0
59.414021 176.0
59.435921 152.0
59.483967 164.0
59.527256 76.0
59.574871 144.0
59.61021 104.0
59.657856 160.0
59.683994 460.0
59.725517 140.0
59.767952 172.0
59.782444 200.0
59.830162 148.0
59.862495 172.0
59.974964 212.0
60.002716 48.0
60.030468 104.0
60.069027 148.0
60.08754 64.0
60.105194 136.0
60.116859 200.0
60.130749 152.0
60.141552 136.0
60.186325 192.0
60.200222 100.0
60.218754 208.0
60.282097 192.0
60.299099 116.0
60.32383 52.0
60.347019 184.0
60.35939 256.0
60.373306 208.0
60.39378 272.0
60.4259 200.0
60.466133 172.0
60.478516 216.0
60.536221 192.0
60.555935 136.0
60.566776 136.0
60.60038 168.0
60.617905 168.0
60.634953 152.0
60.655102 132.0
60.667503 144.0
60.695862 244.0
60.737286 228.0
60.785381 212.0
60.835049 204.0
60.856785 164.0
60.880077 88.0
60.926678 100.0
60.954643 104.0
60.988834 168.0
61.015594 168.0
61.032364 228.0
61.093021 188.0
61.122585 128.0
61.170055 72.0
61.192627 92.0
61.235729 260.0
61.26651 256.0
61.28764 96.0
61.307339 156.0
61.359337 40.0
61.376488 32.0
61.417038 196.0
61.440437 156.0
61.488811 80.0
61.541889 212.0
61.559063 244.0
61.638561 156.0
61.663738 124.0
61.679367 104.0
61.734043 264.0
61.779449 104.0
61.798225 68.0
61.838634 112.0
61.872509 196.0
61.931293 216.0
61.972023 196.0
62.025311 152.0
62.050484 136.0
62.097816 232.0
62.126827 136.0
62.138222 144.0
62.257523 156.0
62.285793 156.0
62.342354 176.0
62.376797 140.0
62.439827 120.0
62.46397 184.0
62.479153 276.0
62.535805 104.0
62.570518 148.0
62.618382 196.0
62.641304 168.0
62.667183 356.0
62.690147 128.0
62.70433 196.0
62.757931 216.0
62.778824 132.0
62.816284 216.0
62.830845 160.0
62.871506 100.0
62.920864 168.0
62.950996 148.0
63.030045 92.0
63.064194 68.0
63.108459 104.0
63.176468 136.0
63.193871 36.0
63.23185 132.0
63.244511 108.0
63.279339 92.0
63.323681 144.0
63.412407 180.0
63.436184 152.0
63.472649 144.0
63.49485 128.0
63.519833 224.0
63.525463 320.0
63.537678 140.0
63.564655 144.0
63.607048 208.0
63.634495 136.0
63.667843 124.0
63.698193 148.0
63.718674 128.0
63.752041 232.0
63.767933 184.0
63.793365 112.0
63.830753 140.0
63.850029 164.0
63.871563 92.0
63.898331 180.0
63.91106 68.0
64.001297 168.0
64.023079 232.0
64.134018 68.0
64.216934 288.0
64.261597 132.0
64.280746 148.0
64.322701 380.0
64.424446 188.0
64.47718 108.0
64.506821 144.0
64.57151 116.0
64.58477 224.0
64.6147 176.0
64.677856 120.0
64.69606 196.0
64.723534 128.0
64.761971 60.0
64.79081 144.0
64.830864 156.0
64.889229 244.0
64.90461 156.0
64.973572 248.0
65.026527 28.0
65.05542 144.0
65.081108 180.0
65.116714 308.0
65.130898 164.0
65.142143 156.0
65.156601 76.0
65.172668 40.0
65.187126 80.0
65.19838 216.0
65.290016 200.0
65.304489 152.0
65.346321 104.0
65.470268 152.0
65.500824 140.0
65.516975 152.0
65.551376 228.0
65.579826 84.0
65.607231 144.0
65.621735 192.0
65.64109 40.0
65.67244 208.0
65.695564 196.0
65.714348 72.0
65.728981 72.0
65.745949 136.0
65.758553 232.0
65.786301 164.0
65.837967 172.0
65.863808 208.0
65.877495 196.0
65.897064 212.0
65.962379 152.0
65.991486 176.0
66.035141 160.0
66.06324 120.0
66.150032 160.0
66.174316 104.0
66.196983 164.0
66.224518 92.0
66.243958 200.0
66.260155 168.0
66.297424 140.0
66.326599 144.0
66.339821 180.0
66.355782 152.0
66.404427 76.0
66.433662 168.0
66.4823 128.0
66.539116 44.0
66.572762 200.0
66.57621 128.0
66.625191 76.0
66.670692 160.0
66.682068 196.0
66.700432 148.0
66.737335 192.0
66.758476 356.0
66.789383 232.0
66.850189 192.0
66.864807 112.0
66.883759 124.0
66.92897 176.0
66.99659 152.0
67.015671 172.0
67.043633 152.0
67.080864 40.0
67.097221 240.0
67.177078 72.0
67.203178 176.0
67.258667 160.0
67.274994 136.0
67.304733 92.0
67.342506 196.0
67.413826 200.0
67.451416 160.0
67.528267 136.0
67.590439 196.0
67.621361 116.0
67.672279 140.0
67.687012 100.0
67.713219 108.0
67.793495 60.0
67.847588 80.0
67.929581 64.0
68.044464 120.0
68.057594 132.0
68.121651 128.0
68.133148 156.0
68.162727 64.0
68.18573 76.0
68.218605 156.0
68.231758 168.0
68.328796 192.0
68.376518 168.0
68.388039 200.0
68.400528 196.0
68.442368 44.0
68.496712 180.0
68.51207 128.0
68.552734 240.0
68.582397 216.0
68.643402 148.0
68.723709 76.0
68.760529 160.0
68.780342 124.0
68.852989 132.0
68.88501 208.0
68.902542 180.0
68.914108 144.0
68.944572 120.0
69.009972 140.0
69.024948 144.0
69.038086 60.0
69.085381 176.0
69.119148 64.0
69.150589 128.0
69.205215 136.0
69.229179 188.0
69.26815 180.0
69.301285 184.0
69.346031 92.0
69.36261 100.0
69.377525 112.0
69.428925 312.0
69.455467 164.0
69.473717 160.0
69.510094 164.0
69.525154 172.0
69.564987 128.0
69.586571 172.0
69.611481 136.0
69.633652 204.0
69.646355 136.0
69.747719 208.0
69.770988 156.0
69.789497 164.0
69.829185 184.0
69.860794 68.0
69.884964 156.0
69.90004 176.0
69.934013 188.0
70.0056 176.0
70.026802 192.0
70.048904 144.0
70.097359 356.0
70.148895 64.0
70.182236 160.0
70.212257 52.0
70.248062 172.0
70.266144 156.0
70.317162 172.0
70.359093 104.0
70.377464 132.0
70.419212 132.0
70.44928 220.0
70.471001 68.0
70.484367 116.0
70.499161 136.0
70.519463 180.0
70.646545 124.0
70.659927 168.0
70.690353 144.0
70.711807 132.0
70.780495 128.0
70.843285 204.0
70.855812 168.0
70.8843 128.0
70.931229 92.0
70.94632 156.0
71.015892 152.0
71.069351 168.0
71.11264 196.0
71.292091 184.0
71.318977 136.0
71.335793 192.0
71.359329 200.0
71.416504 72.0
71.470337 164.0
71.493896 36.0
71.589554 132.0
71.623543 156.0
71.6446 116.0
71.679558 112.0
71.696373 196.0
71.748245 100.0
71.785545 164.0
71.8265 188.0
71.831345 260.0
71.932129 76.0
71.976883 128.0
72.011681 176.0
72.068932 140.0
72.130806 196.0
72.155128 48.0
72.190636 208.0
72.20813 152.0
72.302292 44.0
72.324875 176.0
72.339531 164.0
72.447914 128.0
72.476715 120.0
72.497055 60.0
72.527229 224.0
72.66832 208.0
72.726013 120.0
72.776604 140.0
72.812607 348.0
72.837196 164.0
72.900948 168.0
72.967239 64.0
73.018257 104.0
73.046532 180.0
73.145035 144.0
73.157784 120.0
73.173111 148.0
73.185028 52.0
73.20546 108.0
73.237823 180.0
73.261703 148.0
73.282112 128.0
73.316795 160.0
73.341759 196.0
73.364685 152.0
73.394615 260.0
73.428246 152.0
73.446404 152.0
73.495247 132.0
73.522552 148.0
73.546974 168.0
73.602791 200.0
73.628769 168.0
73.718948 136.0
73.739456 136.0
73.78112 160.0
73.793648 148.0
73.942986 160.0
73.954964 136.0
73.982353 220.0
74.012917 184.0
74.029404 180.0
74.054276 92.0
74.110809 100.0
74.137146 184.0
74.169075 204.0
74.19651 92.0
74.247948 196.0
74.271965 112.0
74.295975 64.0
74.313133 80.0
74.3629 184.0
74.391159 180.0
74.464203 160.0
74.47966 188.0
74.556976 136.0
74.636055 164.0
74.654968 136.0
74.668724 168.0
74.685928 196.0
74.846504 212.0
74.923485 156.0
74.964844 80.0
75.04586 92.0
75.060623 156.0
75.065926 88.0
75.070503 124.0
75.086395 140.0
75.102768 136.0
75.135544 136.0
75.152275 92.0
75.169312 224.0
75.183739 172.0
75.264992 100.0
75.34771 180.0
75.379005 116.0
75.39801 148.0
75.498283 60.0
75.535332 156.0
75.641891 128.0
75.667862 84.0
75.726738 64.0
75.776978 116.0
75.856697 172.0
75.90004 192.0
75.945137 232.0
75.976791 180.0
75.997177 160.0
76.014931 208.0
76.038826 80.0
76.057922 156.0
76.092644 112.0
76.113014 120.0
76.162102 132.0
76.181213 112.0
76.193375 88.0
76.210747 144.0
76.222916 72.0
76.287224 168.0
76.309822 148.0
76.32547 184.0
76.377098 140.0
76.417702 172.0
76.464645 208.0
76.486084 176.0
76.515121 212.0
76.558655 192.0
76.595909 328.0
76.642273 188.0
76.718956 132.0
76.766037 128.0
76.789101 192.0
76.804955 204.0
76.864769 180.0
76.902122 236.0
76.921318 120.0
76.937035 104.0
76.956238 36.0
77.071518 148.0
77.093445 124.0
77.127441 160.0
77.218369 148.0
77.258598 144.0
77.272591 192.0
77.29184 120.0
77.333359 144.0
77.428391 128.0
77.454269 280.0
77.466743 116.0
77.492287 184.0
77.533508 108.0
77.566811 144.0
77.596611 284.0
77.615898 136.0
77.733429 144.0
77.803635 160.0
77.827324 188.0
77.849289 176.0
77.933609 164.0
77.968758 92.0
77.989189 204.0
77.995613 128.0
78.011818 176.0
78.053139 120.0
78.23436 184.0
78.333313 148.0
78.381081 184.0
78.428131 152.0
78.468681 148.0
78.50042 124.0
78.519814 108.0
78.634499 220.0
78.648621 192.0
78.748085 224.0
78.782829 200.0
78.874718 144.0
78.898567 268.0
78.996231 168.0
79.060432 148.0
79.118843 128.0
79.132721 124.0
79.189674 68.0
79.202072 212.0
79.255226 160.0
79.290665 248.0
79.304848 168.0
79.340302 136.0
79.352486 96.0
79.382851 32.0
79.439613 144.0
79.460899 184.0
79.485741 204.0
79.499939 44.0
79.535797 192.0
79.611778 168.0
79.681145 128.0
79.793022 220.0
79.858818 76.0
79.954582 156.0
79.994057 192.0
80.016747 312.0
80.051033 176.0
80.070625 32.0
80.102684 176.0
80.120499 172.0
80.181992 196.0
80.186569 100.0
80.192688 204.0
80.234558 160.0
80.275574 168.0
80.311241 204.0
80.339005 192.0
80.371895 152.0
80.404022 184.0
80.452209 156.0
80.468285 112.0
80.523636 124.0
80.55043 128.0
80.573181 212.0
80.587952 72.0
80.600456 212.0
80.625473 92.0
80.716644 148.0
80.755989 188.0
80.79628 184.0
80.841866 152.0
80.958237 204.0
80.990471 144.0
81.028091 248.0
81.04422 200.0
81.067513 100.0
81.148178 156.0
81.189415 188.0
81.201599 152.0
81.255791 336.0
81.271935 260.0
81.298851 284.0
81.329369 316.0
81.357224 172.0
81.376175 160.0
81.449669 124.0
81.487396 152.0
81.525131 168.0
81.563286 124.0
81.58625 188.0
81.598831 172.0
81.612541 64.0
81.681557 88.0
81.699547 280.0
81.721138 272.0
81.771523 272.0
81.829536 204.0
81.863342 100.0
81.884956 132.0
81.920349 160.0
81.942596 120.0
82.023376 160.0
82.097618 168.0
82.124672 148.0
82.16346 388.0
82.232933 168.0
82.265419 204.0
82.296112 144.0
82.328621 144.0
82.351418 128.0
82.395454 232.0
82.428986 172.0
82.47316 140.0
82.504402 196.0
82.545479 128.0
82.566208 172.0
82.599731 136.0
82.617821 136.0
82.632301 308.0
82.654007 200.0
82.666679 180.0
82.684776 176.0
82.699257 204.0
82.717354 100.0
82.747856 132.0
82.820572 120.0
82.880356 160.0
82.89756 168.0
82.931099 208.0
82.943787 164.0
82.961006 304.0
82.989113 52.0
83.07798 116.0
83.125153 128.0
83.144608 128.0
83.195938 128.0
83.228882 168.0
83.254951 132.0
83.288971 172.0
83.314369 188.0
83.38781 148.0
83.407028 180.0
83.45575 140.0
83.472115 144.0
83.506668 100.0
83.550529 144.0
83.563065 176.0
83.581261 148.0
83.644722 184.0
83.663162 204.0
83.752396 148.0
83.779716 216.0
83.838028 192.0
83.879944 232.0
83.921242 92.0
83.974174 224.0
84.016968 204.0
84.100662 116.0
84.115265 196.0
84.153603 120.0
84.184647 120.0
84.197426 276.0
84.21801 180.0
84.257942 124.0
84.277809 152.0
84.299416 184.0
84.414902 164.0
84.440506 216.0
84.476143 224.0
84.561264 128.0
84.65097 116.0
84.69474 196.0
84.737061 124.0
84.771873 164.0
84.847023 176.0
84.870865 224.0
84.9002 148.0
84.936882 176.0
84.980911 156.0
85.028625 132.0
85.085533 132.0
85.114906 120.0
85.193596 128.0
85.272713 160.0
85.309662 92.0
85.355629 100.0
85.408966 184.0
85.451279 160.0
85.488075 176.0
85.526726 64.0
85.546974 136.0
85.58564 88.0
85.627998 96.0
85.650101 176.0
85.685524 228.0
85.744064 152.0
85.784622 236.0
85.832558 144.0
85.852844 164.0
85.874969 172.0
85.905624 180.0
85.941109 188.0
85.969254 116.0
85.985451 196.0
86.015205 148.0
86.065056 188.0
86.129692 196.0
86.157402 172.0
86.170334 176.0
86.201752 188.0
86.216316 104.0
86.277534 188.0
86.314507 160.0
86.34771 164.0
86.377296 156.0
86.423645 172.0
86.4562 236.0
86.519127 360.0
86.604301 244.0
86.639252 228.0
86.656944 104.0
86.738487 180.0
86.837708 164.0
86.894264 96.0
86.907249 124.0
86.933235 280.0
86.95179 112.0
86.968498 164.0
87.007477 136.0
87.078278 124.0
87.099968 164.0
87.144745 128.0
87.172791 128.0
87.187134 216.0
87.256432 120.0
87.30571 144.0
87.336403 208.0
87.349419 196.0
87.364304 48.0
87.41082 108.0
87.449814 168.0
87.468513 80.0
87.490852 80.0
87.509468 232.0
87.539261 184.0
87.556023 144.0
87.69017 164.0
87.705078 40.0
87.772194 128.0
87.83934 60.0
87.856133 152.0
87.923302 180.0
87.941971 200.0
87.964272 152.0
87.984901 148.0
88.020378 152.0
88.040916 164.0
88.175079 168.0
88.201599 168.0
88.214691 192.0
88.287613 72.0
88.366867 140.0
88.395699 196.0
88.435417 76.0
88.538391 164.0
88.583344 60.0
88.622688 28.0
88.641426 152.0
88.676842 156.0
88.712646 212.0
88.782021 196.0
88.795151 116.0
88.838295 196.0
88.888954 188.0
88.918983 140.0
88.968857 236.0
89.042892 176.0
89.093613 168.0
89.133072 212.0
89.168236 56.0
89.198853 60.0
89.23645 188.0
89.279701 140.0
89.298508 136.0
89.317314 156.0
89.361542 236.0
89.383163 192.0
89.418922 224.0
89.448334 148.0
89.482925 128.0
89.593491 352.0
89.676277 144.0
89.71843 176.0
89.733513 136.0
89.761795 156.0
89.874969 148.0
89.897614 40.0
89.920265 220.0
89.933479 140.0
90.002884 188.0
90.037323 164.0
90.082649 224.0
90.150673 168.0
90.179024 212.0
90.198715 188.0
90.231949 160.0
90.256195 68.0
90.281113 116.0
90.354225 160.0
90.379478 120.0
90.400299 132.0
90.424904 164.0
90.441933 176.0
90.481689 192.0
90.500626 152.0
90.544174 132.0
90.60479 112.0
90.674904 152.0
90.705231 64.0
90.718506 180.0
90.734772 172.0
90.764008 140.0
90.779175 228.0
90.817108 172.0
90.832283 184.0
90.862633 124.0
90.883507 176.0
90.898689 184.0
91.003807 204.0
91.054359 104.0
91.115143 152.0
91.187668 96.0
91.246826 212.0
91.349854 200.0
91.372078 144.0
91.409866 120.0
91.426994 156.0
91.459969 160.0
91.495514 128.0
91.649796 156.0
91.666939 96.0
91.68219 96.0
91.710693 184.0
91.750771 188.0
91.798477 136.0
91.822495 128.0
91.844765 148.0
91.865234 188.0
91.905296 216.0
91.949188 44.0
92.027458 116.0
92.07711 244.0
92.120583 200.0
92.143967 168.0
92.159248 192.0
92.188759 116.0
92.241432 160.0
92.323494 148.0
92.352341 156.0
92.415108 212.0
92.474792 160.0
92.554764 168.0
92.722832 160.0
92.769783 132.0
92.808128 180.0
92.854156 280.0
92.873337 156.0
92.940483 104.0
92.982697 136.0
93.019165 184.0
93.036446 172.0
93.059486 152.0
93.083992 168.0
93.115173 156.0
93.172798 148.0
93.211227 192.0
93.224678 216.0
93.23761 204.0
93.322716 124.0
93.390022 136.0
93.438377 60.0
93.443481 132.0
93.457878 268.0
93.472748 152.0
93.513168 36.0
93.537491 176.0
93.557442 272.0
93.572845 68.0
93.609428 172.0
93.681778 128.0
93.753914 200.0
93.773186 140.0
93.823303 204.0
93.895981 156.0
93.956375 176.0
93.97567 224.0
93.989174 332.0
94.022858 184.0
94.035492 184.0
94.083748 160.0
94.161026 216.0
94.180305 272.0
94.193825 224.0
94.218941 172.0
94.234398 228.0
94.257584 388.0
94.282707 124.0
94.312729 224.0
94.33876 184.0
94.361961 164.0
94.379364 120.0
94.43351 232.0
94.461365 80.0
94.478004 84.0
94.503151 160.0
94.516701 144.0
94.627022 148.0
94.675438 120.0
94.694321 192.0
94.714172 148.0
94.805779 196.0
94.820526 176.0
94.842056 104.0
94.88192 180.0
94.94252 152.0
95.016594 148.0
95.037933 180.0
95.074806 112.0
95.098091 96.0
95.159393 132.0
95.193222 236.0
95.265091 132.0
95.350586 84.0
95.364189 180.0
95.393349 136.0
95.41404 180.0
95.431366 144.0
95.447784 184.0
95.500298 136.0
95.67543 148.0
95.707848 160.0
95.83709 148.0
95.897499 140.0
95.922844 180.0
95.950134 144.0
95.963783 116.0
96.012535 172.0
96.039841 120.0
96.06424 124.0
96.100311 204.0
96.117874 148.0
96.23304 292.0
96.264282 176.0
96.336548 148.0
96.369766 40.0
96.445053 220.0
96.490944 176.0
96.512589 172.0
96.532005 184.0
96.545692 140.0
96.571404 332.0
96.602417 108.0
96.627556 184.0
96.66111 184.0
96.677567 176.0
96.713959 72.0
96.774643 212.0
96.809891 236.0
96.855354 112.0
96.897285 156.0
96.9422 228.0
96.95813 120.0
97.007782 144.0
97.02935 144.0
97.047523 148.0
97.066818 188.0
97.086212 172.0
97.110664 180.0
97.186256 136.0
97.225403 388.0
97.260834 44.0
97.274574 144.0
97.320221 176.0
97.364899 112.0
97.414795 228.0
97.46312 168.0
97.502426 148.0
97.536942 228.0
97.596779 128.0
97.661476 156.0
97.695122 48.0
97.716766 36.0
97.74234 104.0
97.762505 148.0
97.807289 188.0
97.846497 196.0
97.899826 212.0
97.918442 204.0
98.018021 56.0
98.04364 136.0
98.057434 160.0
98.087006 128.0
98.108078 116.0
98.128403 196.0
98.150826 204.0
98.193481 188.0
98.225906 164.0
98.240013 176.0
98.34343 104.0
98.376984 116.0
98.390808 132.0
98.416725 124.0
98.449799 192.0
98.507324 116.0
98.544861 44.0
98.570549 200.0
98.63855 296.0
98.752434 64.0
98.822128 260.0
98.851349 220.0
98.87114 216.0
98.914688 92.0
98.936111 252.0
98.982002 180.0
99.013687 64.0
99.040154 188.0
99.106789 228.0
99.149551 208.0
99.170212 144.0
99.251488 104.0
99.281235 184.0
99.307022 68.0
99.390343 132.0
99.420105 128.0
99.451027 180.0
99.531273 192.0
99.592842 96.0
99.640518 272.0
99.662376 224.0
99.755196 216.0
99.803062 128.0
99.86515 188.0
99.903748 188.0
99.962631 172.0
99.978554 156.0
100.020355 228.0
100.034103 156.0
100.088043 228.0
100.135841 212.0
100.157745 88.0
100.325142 140.0
100.357986 236.0
100.390938 80.0
100.420418 128.0
100.444794 172.0
100.471413 196.0
100.528587 132.0
100.552536 164.0
100.578484 132.0
100.596451 140.0
100.612419 56.0
100.630394 132.0
100.648361 152.0
100.684303 156.0
100.704277 220.0
100.786186 156.0
100.818161 156.0
100.856133 72.0
100.874123 120.0
100.89212 84.0
100.936104 196.0
100.9701 196.0
101.062729 240.0
101.079857 144.0
101.096138 152.0
101.112152 192.0
101.152184 232.0
101.209396 228.0
101.257736 184.0
101.277847 296.0
101.285568 256.0
101.328415 164.0
101.360474 60.0
101.393494 168.0
101.454681 188.0
101.49971 136.0
101.514832 156.0
101.568985 48.0
101.646156 60.0
101.675224 156.0
101.725502 232.0
101.750931 168.0
101.764435 184.0
101.793213 244.0
101.81385 144.0
101.831734 204.0
101.870094 184.0
101.930367 164.0
101.944435 168.0
101.969925 164.0
101.983322 172.0
102.032875 136.0
102.057007 84.0
102.087166 28.0
102.129402 132.0
102.171646 140.0
102.189751 96.0
102.211891 280.0
102.238052 228.0
102.282326 132.0
102.326614 148.0
102.358284 308.0
102.39106 88.0
102.417236 104.0
102.431343 124.0
102.457527 180.0
102.522606 176.0
102.552238 120.0
102.566353 124.0
102.622795 148.0
102.64901 144.0
102.695396 180.0
102.755913 144.0
102.7882 128.0
102.819336 168.0
102.852524 200.0
102.922722 156.0
103.049652 132.0
103.0709 160.0
103.095154 300.0
103.11132 156.0
103.133553 160.0
103.169937 116.0
103.197365 120.0
103.236664 196.0
103.250824 76.0
103.335785 128.0
103.358665 180.0
103.411186 184.0
103.441017 216.0
103.472305 132.0
103.489136 256.0
103.511879 248.0
103.563683 224.0
103.619965 156.0
103.635445 204.0
103.649628 172.0
103.711739 204.0
103.737328 192.0
103.803688 204.0
103.838165 120.0
103.852364 132.0
103.991516 124.0
103.999146 188.0
104.020782 132.0
104.039589 152.0
104.059357 148.0
104.126366 144.0
104.196823 204.0
104.256393 216.0
104.280777 96.0
104.295006 120.0
104.311272 32.0
104.463783 160.0
104.486938 220.0
104.524826 132.0
104.563438 156.0
104.612343 136.0
104.638809 136.0
104.656647 404.0
104.719292 252.0
104.752853 132.0
104.797676 136.0
104.826263 132.0
104.872971 220.0
104.97094 120.0
105.007645 72.0
105.061729 148.0
105.085167 148.0
105.140266 124.0
105.209663 152.0
105.260559 216.0
105.291344 124.0
105.32811 168.0
105.398125 88.0
105.420052 152.0
105.434357 188.0
105.453461 160.0
105.59996 164.0
105.616325 204.0
105.653145 116.0
105.682053 124.0
105.7043 212.0
105.727226 176.0
105.765694 148.0
105.802544 196.0
105.833252 220.0
105.88855 160.0
105.941803 96.0
105.972534 44.0
106.053711 144.0
106.140617 112.0
106.165077 460.0
106.183128 120.0
106.212395 104.0
106.22805 144.0
106.249214 148.0
106.288307 232.0
106.36219 160.0
106.415154 236.0
106.441322 272.0
106.467407 164.0
106.524414 216.0
106.551125 120.0
106.608658 140.0
106.643661 124.0
106.715546 44.0
106.740822 220.0
106.884216 112.0
106.945953 168.0
107.009773 124.0
107.034477 192.0
107.081848 184.0
107.098328 196.0
107.186913 160.0
107.216347 184.0
107.252861 60.0
107.273476 72.0
107.319717 168.0
107.346313 196.0
107.402206 440.0
107.448776 88.0
107.469406 56.0
107.498299 116.0
107.541351 212.0
107.566406 168.0
107.580856 232.0
107.627846 132.0
107.653122 168.0
107.678146 176.0
107.706825 180.0
107.744614 272.0
107.764671 132.0
107.779129 104.0
107.798889 228.0
107.870071 128.0
107.908058 96.0
107.940369 160.0
107.994133 112.0
108.072746 128.0
108.223846 176.0
108.323257 108.0
108.337029 124.0
108.383339 144.0
108.420639 180.0
108.497337 148.0
108.578209 156.0
108.617615 248.0
108.638359 172.0
108.652885 48.0
108.675705 112.0
108.72966 180.0
108.755783 184.0
108.785408 152.0
108.812691 136.0
108.830704 200.0
108.850883 156.0
108.89991 112.0
108.933144 216.0
108.955994 180.0
108.993393 172.0
109.024567 204.0
109.056534 220.0
109.103554 164.0
109.13266 140.0
109.164574 184.0
109.209991 152.0
109.228333 224.0
109.276176 184.0
109.407295 176.0
109.43853 104.0
109.494751 112.0
109.56974 96.0
109.584328 72.0
109.632256 168.0
109.667686 208.0
109.705536 152.0
109.719803 180.0
109.786522 152.0
109.807167 116.0
109.821327 192.0
109.859528 236.0
109.928024 188.0
109.95507 188.0
109.960762 148.0
109.986824 88.0
110.001434 148.0
110.018135 188.0
110.107925 184.0
110.128807 164.0
110.186325 160.0
110.269562 180.0
110.387962 120.0
110.407715 260.0
110.446526 104.0
110.465347 172.0
110.483887 172.0
110.523933 88.0
110.564903 164.0
110.584618 68.0
110.603462 132.0
110.666267 160.0
110.689301 184.0
110.743752 164.0
110.758415 180.0
110.81041 112.0
110.840118 316.0
110.940727 68.0
110.985588 140.0
111.023064 148.0
111.053963 148.0
111.110596 168.0
111.136101 156.0
111.17984 168.0
111.234413 164.0
111.320496 192.0
111.423424 180.0
111.440231 80.0
111.465446 84.0
111.486458 88.0
111.529549 208.0
111.66227 180.0
111.713051 196.0
111.747208 96.0
111.787186 172.0
111.806122 156.0
111.854538 184.0
111.894966 196.0
111.936646 164.0
111.985085 260.0
112.027214 104.0
112.183159 148.0
112.216942 180.0
112.261177 68.0
112.326561 156.0
112.356094 196.0
112.379303 224.0
112.407013 176.0
112.478493 164.0
112.63475 152.0
112.698128 216.0
112.742508 152.0
112.880737 196.0
112.901062 116.0
112.932793 216.0
112.96875 116.0
113.01741 172.0
113.032227 152.0
113.097832 188.0
113.140167 144.0
113.17495 168.0
113.2164 156.0
113.27256 120.0
113.298134 136.0
113.312965 172.0
113.343498 136.0
113.400055 128.0
113.501083 212.0
113.517326 112.0
113.547012 244.0
113.597923 152.0
113.61277 168.0
113.637321 112.0
113.687035 280.0
113.70826 248.0
113.742218 156.0
113.819344 244.0
113.837761 168.0
113.852631 240.0
113.914223 216.0
113.979233 348.0
114.131294 208.0
114.190552 412.0
114.211823 192.0
114.233093 96.0
114.252243 160.0
114.275642 224.0
114.292664 168.0
114.361092 184.0
114.3881 176.0
114.420372 72.0
114.467216 212.0
114.567322 176.0
114.597153 112.0
114.624847 184.0
114.650421 264.0
114.705841 164.0
114.771935 144.0
114.840179 104.0
114.897774 160.0
114.914841 136.0
114.966057 100.0
114.980995 132.0
115.023682 112.0
115.058632 236.0
115.173889 148.0
115.201172 172.0
115.240791 376.0
115.279984 104.0
115.316315 68.0
115.337685 184.0
115.382584 212.0
115.428192 132.0
115.488922 148.0
115.539474 248.0
115.590988 156.0
115.615738 204.0
115.639282 148.0
115.660683 128.0
115.701355 196.0
115.81057 160.0
115.827705 132.0
115.988297 140.0
116.004318 228.0
116.07737 212.0
116.243065 192.0
116.271492 168.0
116.279289 164.0
116.285568 156.0
116.404938 116.0
116.434708 128.0
116.552864 112.0
116.581146 148.0
116.638824 60.0
116.692574 116.0
116.71492 264.0
116.739304 164.0
116.772141 176.0
116.879707 192.0
116.914139 208.0
116.942116 192.0
116.962288 140.0
117.00885 140.0
117.084366 184.0
117.155296 196.0
117.176842 196.0
117.284592 112.0
117.307045 224.0
117.370827 84.0
117.385925 140.0
117.401016 188.0
117.435524 188.0
117.472198 268.0
117.489456 180.0
117.511032 344.0
117.532608 156.0
117.547714 112.0
117.584396 148.0
117.609039 96.0
117.62973 200.0
117.677223 112.0
117.731209 176.0
117.746323 112.0
117.774406 136.0
117.828407 212.0
117.87162 112.0
117.971046 148.0
118.017166 152.0
118.047195 200.0
118.064018 176.0
118.094841 192.0
118.119583 116.0
118.141891 148.0
118.198143 136.0
118.234932 172.0
118.312859 136.0
118.328011 120.0
118.377815 192.0
118.434364 148.0
118.457954 176.0
118.503273 96.0
118.594467 144.0
118.633484 124.0
118.655052 284.0
118.744484 128.0
118.800476 188.0
118.828674 208.0
118.843864 128.0
118.881927 156.0
118.915482 72.0
118.939354 160.0
118.954552 208.0
118.990562 252.0
119.084831 196.0
119.147896 252.0
119.208672 184.0
119.223885 140.0
119.243439 304.0
119.260826 72.0
119.281708 172.0
119.298027 224.0
119.32605 132.0
119.363014 128.0
119.381088 184.0
119.423904 164.0
119.44783 232.0
119.470215 208.0
119.510925 120.0
119.532684 164.0
119.546875 144.0
119.565331 220.0
119.580566 124.0
119.6241 108.0
119.667641 196.0
119.706833 124.0
119.722076 208.0
119.778709 40.0
119.828812 116.0
119.844063 352.0
119.933418 112.0
119.962547 200.0
120.046791 224.0
120.070778 140.0
120.114403 140.0
120.199493 180.0
120.23848 208.0
120.271164 176.0
120.299805 212.0
120.363205 112.0
120.380676 192.0
120.439644 248.0
120.483559 156.0
120.520477 160.0
120.590408 172.0
120.693993 220.0
120.739082 112.0
120.774078 64.0
120.896317 124.0
120.974548 216.0
121.078308 124.0
121.11554 108.0
121.193878 164.0
121.24012 168.0
121.29084 172.0
121.330299 156.0
121.354416 148.0
121.385117 208.0
121.418015 220.0
121.488281 116.0
121.534279 180.0
121.549637 68.0
121.690117 136.0
121.74501 68.0
121.808708 120.0
121.884109 144.0
121.900215 192.0
121.916374 168.0
121.946762 140.0
121.995499 44.0
122.034294 212.0
122.068787 156.0
122.10984 120.0
122.147438 176.0
122.185631 144.0
122.208832 228.0
122.230843 172.0
122.286003 184.0
122.335938 192.0
122.373917 156.0
122.492836 68.0
122.528084 120.0
122.668259 212.0
122.744095 184.0
122.808052 156.0
122.84996 156.0
122.872025 128.0
122.916153 48.0
122.940804 140.0
122.988983 220.0
123.030922 164.0
123.054016 180.0
123.196556 180.0
123.214233 48.0
123.231903 112.0
123.262527 140.0
123.399887 180.0
123.433174 148.0
123.502213 148.0
123.52594 216.0
123.565765 184.0
123.629936 148.0
123.663132 80.0
123.740616 76.0
123.793755 96.0
123.833618 180.0
123.88678 120.0
123.928879 144.0
123.970978 104.0
123.995361 120.0
124.019737 168.0
124.039688 104.0
124.099548 160.0
124.139458 136.0
124.241493 164.0
124.336906 132.0
124.364037 180.0
124.413116 120.0
124.432358 124.0
124.467888 208.0
124.505638 192.0
124.561584 168.0
124.59671 316.0
124.62439 152.0
124.65892 204.0
124.794518 172.0
124.814529 64.0
124.892372 136.0
124.914612 104.0
124.938866 164.0
125.03009 196.0
125.060753 232.0
125.197052 188.0
125.205917 128.0
125.233772 228.0
125.369751 308.0
125.407272 224.0
125.544945 164.0
125.647705 172.0
125.711777 184.0
125.75824 156.0
125.830063 164.0
125.851662 172.0
125.928818 148.0
125.984665 176.0
126.065102 156.0
126.116676 156.0
126.15004 92.0
126.190277 164.0
126.252892 104.0
126.270782 88.0
126.293152 140.0
126.313286 216.0
126.353554 88.0
126.371033 88.0
126.422913 140.0
126.449776 100.0
126.473106 196.0
126.499016 140.0
126.528122 188.0
126.563942 148.0
126.581078 188.0
126.635605 140.0
126.797455 220.0
126.868652 44.0
126.909492 168.0
126.991982 152.0
127.018898 164.0
127.06424 172.0
127.123993 104.0
127.14904 88.0
127.214134 200.0
127.277 112.0
127.319664 116.0
127.348862 184.0
127.36731 204.0
127.438721 56.0
127.479172 132.0
127.568726 180.0
127.596054 128.0
127.611794 140.0
127.643631 176.0
127.671463 268.0
127.69648 248.0
127.733238 232.0
127.778755 256.0
127.820976 132.0
127.872742 148.0
127.89975 120.0
127.929314 152.0
127.95153 324.0
128.043854 148.0
128.060867 128.0
128.127197 140.0
128.142746 124.0
128.176773 132.0
128.203812 232.0
128.266922 172.0
128.368378 172.0
128.384155 196.0
128.413483 176.0
128.429276 132.0
128.458588 192.0
128.503708 188.0
128.537567 148.0
128.609787 100.0
128.630096 100.0
128.650406 96.0
128.746109 168.0
128.776871 152.0
128.874008 168.0
128.933319 196.0
128.989273 152.0
129.005096 224.0
129.027695 92.0
129.063873 184.0
129.256149 220.0
129.36026 140.0
129.428177 176.0
129.501907 180.0
129.525558 152.0
129.623199 176.0
129.670517 164.0
129.745651 168.0
129.772583 132.0
129.874649 156.0
129.913208 76.0
129.974457 168.0
130.001694 64.0
130.054749 232.0
130.162872 236.0
130.220947 212.0
130.245636 188.0
130.275909 228.0
130.31279 144.0
130.353455 180.0
130.435181 140.0
130.480972 196.0
130.52417 228.0
130.594681 284.0
130.646988 56.0
130.738007 176.0
130.792633 108.0
130.844986 156.0
130.892044 72.0
130.958847 212.0
130.997726 128.0
131.036301 148.0
131.081879 184.0
131.166214 124.0
131.191284 144.0
131.223206 220.0
131.321259 176.0
131.343079 296.0
131.433044 92.0
131.455872 180.0
131.522049 76.0
131.558578 156.0
131.615662 380.0
131.639633 96.0
131.746628 348.0
131.798386 80.0
131.818954 312.0
131.876099 128.0
131.90123 144.0
131.96524 156.0
132.004913 184.0
132.026993 220.0
132.063583 188.0
132.120773 176.0
132.143646 92.0
132.200851 56.0
132.216873 228.0
132.335907 208.0
132.351944 144.0
132.370972 220.0
132.441254 204.0
132.496231 148.0
132.512268 212.0
132.530609 276.0
132.564972 136.0
132.610809 188.0
132.638321 192.0
132.693344 100.0
132.728882 192.0
132.757538 156.0
132.783661 144.0
132.818512 172.0
132.842407 116.0
132.883698 136.0
132.918121 124.0
133.004944 216.0
133.032883 156.0
133.090546 140.0
133.159164 280.0
133.212006 92.0
133.278625 168.0
133.35907 228.0
133.391251 56.0
133.441452 244.0
133.485504 60.0
133.533813 168.0
133.609711 164.0
133.661072 188.0
133.710968 164.0
133.736282 188.0
133.763901 96.0
133.831238 180.0
133.908966 136.0
133.968857 572.0
133.984985 80.0
134.026459 112.0
134.047195 116.0
134.0979 96.0
134.145386 172.0
134.152863 104.0
134.160782 156.0
134.1698 148.0
134.176727 184.0
134.222107 164.0
134.271164 316.0
134.316254 196.0
134.353851 160.0
134.393082 136.0
134.409225 152.0
134.469238 184.0
134.499237 116.0
134.538483 36.0
134.575272 184.0
134.603745 196.0
134.665482 156.0
134.690903 200.0
134.707062 164.0
134.76944 80.0
134.79718 144.0
134.817978 160.0
134.899368 188.0
134.963608 164.0
135.015594 144.0
135.060745 156.0
135.081558 172.0
135.128891 188.0
135.162415 160.0
135.194901 240.0
135.24736 160.0
135.28595 188.0
135.392441 292.0
135.427933 148.0
135.444992 80.0
135.472778 128.0
135.509857 144.0
135.528397 324.0
135.611816 248.0
135.685013 204.0
135.762589 132.0
135.781067 168.0
135.797562 112.0
135.862259 204.0
135.885452 152.0
135.93187 200.0
135.994522 80.0
136.071136 108.0
136.134995 160.0
136.150085 200.0
136.178802 208.0
136.324326 160.0
136.356979 144.0
136.44519 228.0
136.512619 260.0
136.554489 180.0
136.577744 140.0
136.619614 212.0
136.708038 48.0
136.728973 128.0
136.796143 168.0
136.85701 120.0
136.890152 188.0
136.973465 216.0
136.992096 108.0
137.024307 140.0
137.064316 144.0
137.089951 144.0
137.187851 116.0
137.204163 244.0
137.302109 240.0
137.51442 108.0
137.554092 108.0
137.591446 84.0
137.652161 156.0
137.698868 96.0
137.738571 368.0
137.789978 216.0
137.87175 148.0
137.897461 124.0
137.947769 132.0
137.990967 76.0
138.009674 112.0
138.042419 176.0
138.10556 168.0
138.145325 120.0
138.168716 168.0
138.193115 188.0
138.250443 156.0
138.290909 168.0
138.325516 168.0
138.341904 100.0
138.421509 172.0
138.447266 84.0
138.557358 164.0
138.592072 172.0
138.625305 88.0
138.645828 160.0
138.714371 160.0
138.746994 140.0
138.755402 128.0
138.762131 204.0
138.784714 132.0
138.822235 108.0
138.890244 192.0
138.916046 184.0
138.998169 100.0
139.021637 180.0
139.057953 304.0
139.115524 148.0
139.31044 124.0
139.343323 176.0
139.447876 244.0
139.47023 208.0
139.620712 148.0
139.64592 144.0
139.767975 140.0
139.772446 192.0
139.811264 108.0
139.86911 256.0
139.944702 192.0
139.987823 140.0
140.004318 112.0
140.054352 172.0
140.084396 108.0
140.103241 156.0
140.13623 148.0
140.17157 180.0
140.230499 192.0
140.313004 168.0
140.496948 96.0
140.534698 148.0
140.557556 192.0
140.584671 136.0
140.640472 156.0
140.66687 140.0
140.697556 176.0
140.749496 68.0
140.796738 152.0
140.826492 212.0
140.895935 136.0
140.924286 152.0
141.069153 204.0
141.124634 172.0
141.16304 208.0
141.293121 96.0
141.316788 124.0
141.354645 116.0
141.386688 144.0
141.442215 120.0
141.465881 156.0
141.529816 124.0
141.553497 232.0
141.570068 148.0
141.586639 144.0
141.671921 120.0
141.698486 208.0
141.723145 228.0
141.7435 188.0
141.767212 236.0
141.899445 192.0
141.944489 136.0
141.963455 132.0
142.02623 224.0
142.089172 180.0
142.129517 180.0
142.153244 108.0
142.207596 160.0
142.246384 148.0
142.288544 180.0
142.347549 188.0
142.393021 56.0
142.459534 68.0
142.504669 340.0
142.525375 112.0
142.58432 136.0
142.599731 212.0
142.616364 208.0
142.685303 112.0
142.751877 264.0
142.781647 140.0
142.80896 56.0
142.847488 160.0
142.887466 116.0
142.919373 244.0
142.994553 216.0
143.039764 144.0
143.068344 120.0
143.087387 248.0
143.10643 212.0
143.182632 44.0
143.287445 140.0
143.344635 160.0
143.366745 172.0
143.392288 112.0
143.413422 232.0
143.467316 160.0
143.48764 192.0
143.528183 116.0
143.606873 156.0
143.650528 240.0
143.745255 144.0
143.76413 92.0
143.796478 136.0
143.828781 192.0
143.855042 160.0
143.914734 128.0
143.938614 144.0
143.98674 156.0
144.05658 192.0
144.099579 244.0
144.122528 168.0
144.239563 240.0
144.266541 196.0
144.383102 152.0
144.462036 88.0
144.512283 56.0
144.540985 136.0
144.5858 132.0
144.62236 216.0
144.670242 220.0
144.705002 176.0
144.804337 152.0
144.834549 136.0
144.905914 108.0
144.952866 124.0
144.978836 124.0
145.038208 236.0
145.061615 132.0
145.095444 172.0
145.159012 96.0
145.221375 124.0
145.270737 172.0
145.2798 100.0
145.32016 132.0
145.361862 252.0
145.413666 328.0
145.671158 136.0
145.725494 164.0
145.780762 32.0
145.850464 212.0
145.898544 116.0
145.963089 176.0
146.009247 224.0
146.030807 108.0
146.093887 248.0
146.192001 184.0
146.220871 200.0
146.257828 80.0
146.300308 180.0
146.338837 136.0
146.423874 304.0
146.447205 140.0
146.480927 200.0
146.534363 156.0
146.570068 108.0
146.608414 188.0
146.63031 180.0
146.65683 160.0
146.683334 40.0
146.721909 244.0
146.793198 156.0
146.825607 120.0
146.856949 152.0
146.880371 136.0
146.905197 128.0
147.069443 124.0
147.11998 60.0
147.158615 92.0
147.187592 208.0
147.296265 172.0
147.322845 144.0
147.380829 308.0
147.399246 380.0
147.48233 160.0
147.522446 188.0
147.615295 132.0
147.634644 148.0
147.675766 160.0
147.719299 124.0
147.736237 212.0
147.798538 192.0
147.80542 128.0
147.893524 140.0
147.925507 248.0
148.045563 216.0
148.075119 180.0
148.106598 176.0
148.135666 204.0
148.159897 216.0
148.239853 160.0
148.351089 180.0
148.378021 164.0
148.409439 208.0
148.457428 144.0
148.501694 176.0
148.618134 188.0
148.637558 112.0
148.671524 288.0
148.71994 152.0
148.772934 144.0
148.808975 224.0
148.826889 148.0
148.858444 112.0
148.902161 176.0
148.962891 112.0
148.992035 220.0
149.011475 212.0
149.074661 148.0
149.1427 208.0
149.159729 124.0
149.236694 224.0
149.295883 140.0
149.331207 160.0
149.349396 140.0
149.41507 164.0
149.439407 112.0
149.4832 188.0
149.573257 148.0
149.619507 192.0
149.651154 196.0
149.677933 148.0
149.702286 64.0
149.739243 188.0
149.792404 136.0
149.858185 156.0
149.888916 244.0
149.94104 56.0
149.958099 148.0
150.030167 124.0
150.047104 180.0
150.065369 124.0
150.113724 200.0
150.133636 132.0
150.279999 200.0
150.326294 132.0
150.360535 148.0
150.400162 136.0
150.477081 104.0
150.511887 172.0
150.594925 96.0
150.651108 92.0
150.67218 128.0
150.726852 92.0
150.8246 116.0
150.851486 128.0
150.978882 164.0
151.049042 184.0
151.098495 144.0
151.176804 144.0
151.201279 188.0
151.228195 176.0
151.25267 84.0
151.326111 116.0
151.365295 172.0
151.403427 160.0
151.492661 104.0
151.512253 148.0
151.583313 176.0
151.615173 324.0
151.661804 140.0
151.715668 156.0
151.741241 252.0
151.833359 160.0
151.889771 184.0
151.909027 132.0
151.93718 172.0
152.000183 156.0
152.0634 1124.0
152.11554 164.0
152.138474 116.0
152.157272 184.0
152.17691 144.0
152.270966 120.0
152.297241 84.0
152.323563 180.0
152.368484 132.0
152.425003 48.0
152.467499 192.0
152.545425 140.0
152.565094 124.0
152.599518 52.0
152.680801 148.0
152.75058 208.0
152.787399 340.0
152.811035 132.0
152.875015 160.0
152.917862 204.0
152.927994 84.0
152.937744 164.0
152.958847 132.0
153.01532 104.0
153.035019 144.0
153.068436 1516.0
153.1754 188.0
153.200027 180.0
153.239456 136.0
153.264877 196.0
153.319183 168.0
153.341141 256.0
153.422836 192.0
153.481003 192.0
153.53772 176.0
153.558701 364.0
153.582123 148.0
153.631454 184.0
153.648727 104.0
153.68573 72.0
153.792221 208.0
153.823944 112.0
153.851089 160.0
153.900467 164.0
153.922699 328.0
153.952332 156.0
153.996048 176.0
154.033844 56.0
154.079041 668.0
154.125244 148.0
154.173309 160.0
154.209274 188.0
154.260345 256.0
154.339813 124.0
154.348602 100.0
154.372452 140.0
154.409546 188.0
154.426849 132.0
154.454056 104.0
154.485413 196.0
154.521118 232.0
154.572815 100.0
154.597565 136.0
154.746078 188.0
154.7659 60.0
154.799683 168.0
154.829987 132.0
154.86496 32.0
154.897156 164.0
154.971481 136.0
154.988831 176.0
155.008652 196.0
155.02916 260.0
155.052048 184.0
155.073349 152.0
155.195831 140.0
155.216873 68.0
155.246628 136.0
155.281357 52.0
155.312057 152.0
155.358246 128.0
155.383057 72.0
155.427719 160.0
155.477356 124.0
155.504654 124.0
155.536911 112.0
155.574448 200.0
155.613876 128.0
155.663544 112.0
155.70079 176.0
155.762878 252.0
155.790207 160.0
155.807602 168.0
155.849304 200.0
155.879654 132.0
155.92688 176.0
155.991501 192.0
156.07106 72.0
156.148148 100.0
156.165558 156.0
156.235214 100.0
156.252625 100.0
156.271255 144.0
156.357727 136.0
156.426834 152.0
156.451736 172.0
156.524399 192.0
156.561295 144.0
156.581207 124.0
156.618576 132.0
156.645981 56.0
156.665909 120.0
156.787994 32.0
156.830368 196.0
156.95253 172.0
156.974976 196.0
157.004898 80.0
157.072235 136.0
157.092194 148.0
157.16954 216.0
157.191803 188.0
157.293503 156.0
157.344254 72.0
157.391693 144.0
157.40918 132.0
157.509079 248.0
157.579025 160.0
157.616501 196.0
157.648987 180.0
157.734039 140.0
157.808975 140.0
157.838974 252.0
157.891495 144.0
157.916504 176.0
157.941269 244.0
158.037231 232.0
158.0616 44.0
158.125397 204.0
158.16922 128.0
158.186752 104.0
158.204269 48.0
158.244766 188.0
158.321365 220.0
158.439011 168.0
158.47226 132.0
158.524872 136.0
158.542419 256.0
158.564972 148.0
158.603668 284.0
158.660233 160.0
158.689575 176.0
158.735443 80.0
158.757843 168.0
158.823227 152.0
158.853333 136.0
158.895981 164.0
158.913544 44.0
158.975662 116.0
158.980042 248.0
159.071655 140.0
159.246124 188.0
159.267517 160.0
159.38559 128.0
159.641998 80.0
159.707397 92.0
159.787888 60.0
159.9263 144.0
160.026993 120.0
160.049652 176.0
160.077362 184.0
160.120163 176.0
160.183929 204.0
160.214157 168.0
160.263763 232.0
160.314163 224.0
160.364563 236.0
160.404892 84.0
160.430099 128.0
160.452789 136.0
160.470444 100.0
160.518356 152.0
160.573837 160.0
160.606171 204.0
160.615097 112.0
160.66716 140.0
160.707535 124.0
160.755478 176.0
160.775665 132.0
160.881683 112.0
160.940659 112.0
160.985199 156.0
161.03595 176.0
161.066025 92.0
161.088425 180.0
161.098083 156.0
161.215088 228.0
161.251801 180.0
161.289215 184.0
161.337875 256.0
161.382233 132.0
161.407211 104.0
161.43161 300.0
161.455261 56.0
161.483078 236.0
161.576675 108.0
161.621689 192.0
161.647522 72.0
161.72345 108.0
161.748764 100.0
161.784485 176.0
161.85257 100.0
161.895615 188.0
161.923477 180.0
161.95134 156.0
162.004532 200.0
162.047607 140.0
162.126236 120.0
162.15657 200.0
162.204727 116.0
162.313751 192.0
162.39389 180.0
162.431763 112.0
162.481155 180.0
162.539505 176.0
162.566345 180.0
162.597244 176.0
162.630875 160.0
162.689255 144.0
162.734955 172.0
162.790817 160.0
162.856857 228.0
162.884796 112.0
162.925232 144.0
162.961624 148.0
163.054825 488.0
163.100784 176.0
163.175583 204.0
163.202469 224.0
163.291473 144.0
163.347443 200.0
163.421936 184.0
163.449203 200.0
163.488098 128.0
163.553558 196.0
163.571365 128.0
163.594284 116.0
163.65538 204.0
163.675537 136.0
163.782715 60.0
163.800552 68.0
163.843048 88.0
163.91011 140.0
163.938141 196.0
163.969452 148.0
163.999298 104.0
164.024796 76.0
164.066711 292.0
164.137726 164.0
164.180328 108.0
164.246292 180.0
164.277252 132.0
164.295105 188.0
164.395264 188.0
164.419174 244.0
164.455872 280.0
164.4814 144.0
164.51059 320.0
164.532455 40.0
164.58046 120.0
164.611603 96.0
164.675461 136.0
164.701004 128.0
164.723984 72.0
164.754639 140.0
164.777863 132.0
164.838959 360.0
164.892624 220.0
164.964203 96.0
165.000366 108.0
165.02034 96.0
165.029465 204.0
165.070206 11724.0
165.12439 176.0
165.148315 48.0
165.172577 188.0
165.191803 80.0
165.274536 304.0
165.351288 72.0
165.401627 68.0
165.422104 144.0
165.440033 176.0
165.482742 196.0
165.508102 184.0
165.532211 164.0
165.650024 100.0
165.683319 140.0
165.811722 136.0
165.878082 84.0
165.90564 192.0
165.962692 68.0
166.073898 1520.0
166.194809 212.0
166.24884 92.0
166.283356 156.0
166.332123 140.0
166.447662 168.0
166.483612 148.0
166.550873 216.0
166.591492 168.0
166.632599 128.0
166.676285 152.0
166.737167 156.0
166.827927 96.0
166.915344 232.0
166.969345 172.0
166.988953 128.0
167.01564 188.0
167.047379 304.0
167.084457 472.0
167.145111 260.0
167.208435 232.0
167.285828 144.0
167.303467 132.0
167.320267 184.0
167.373367 108.0
167.516769 136.0
167.57428 148.0
167.591461 120.0
167.618088 48.0
167.636124 124.0
167.746948 112.0
167.780457 160.0
167.891342 228.0
167.930023 116.0
167.963562 180.0
167.994507 120.0
168.025467 200.0
168.057327 92.0
168.094864 376.0
168.139755 224.0
168.185974 164.0
168.221603 196.0
168.255173 108.0
168.288727 128.0
168.347763 168.0
168.407532 148.0
168.456604 144.0
168.565125 124.0
168.601303 148.0
168.62973 88.0
168.737503 220.0
168.790024 92.0
168.808121 96.0
168.846909 192.0
168.885269 192.0
168.984009 156.0
169.020233 128.0
169.064163 308.0
169.142136 204.0
169.184692 148.0
169.237671 196.0
169.319962 180.0
169.443695 184.0
169.488922 208.0
169.517426 100.0
169.548523 124.0
169.615906 180.0
169.647018 64.0
169.693161 380.0
169.750732 100.0
169.781845 156.0
169.807785 168.0
169.867447 156.0
169.927109 128.0
169.953064 112.0
169.984192 180.0
170.082825 128.0
170.105881 68.0
170.212631 164.0
170.26976 44.0
170.293137 132.0
170.313919 128.0
170.350281 352.0
170.386658 144.0
170.441284 164.0
170.610168 188.0
170.722565 176.0
170.766708 412.0
170.802597 92.0
170.833817 96.0
170.88324 164.0
170.946838 160.0
170.968079 176.0
171.021225 188.0
171.064041 248.0
171.094055 228.0
171.156555 180.0
171.213837 68.0
171.268539 92.0
171.318024 192.0
171.393585 396.0
171.413956 172.0
171.497833 160.0
171.525009 188.0
171.573425 160.0
171.612534 176.0
171.72467 188.0
171.81337 272.0
171.839447 152.0
171.868149 112.0
171.889038 184.0
171.925568 72.0
171.949051 176.0
172.011703 232.0
172.113525 180.0
172.173584 172.0
172.207535 104.0
172.225815 184.0
172.253342 112.0
172.31987 172.0
172.361664 108.0
172.388718 184.0
172.433929 80.0
172.488358 148.0
172.565552 96.0
172.642029 184.0
172.717224 40.0
172.77478 128.0
172.800949 180.0
172.889908 136.0
172.918594 192.0
173.018173 84.0
173.051086 132.0
173.133392 112.0
173.185776 148.0
173.209351 160.0
173.25145 112.0
173.295792 176.0
173.324799 60.0
173.386993 220.0
173.397339 176.0
173.468765 112.0
173.508087 164.0
173.534317 124.0
173.589371 176.0
173.62056 148.0
173.644455 144.0
173.662811 56.0
173.69429 208.0
173.744125 212.0
173.822845 52.0
173.865891 304.0
173.969833 168.0
174.06813 220.0
174.127609 192.0
174.194595 152.0
174.306015 84.0
174.336166 152.0
174.368408 184.0
174.388428 212.0
174.437424 188.0
174.458466 80.0
174.510635 152.0
174.520828 128.0
174.547852 156.0
174.602692 164.0
174.637985 192.0
174.736694 196.0
174.808289 128.0
174.874954 192.0
174.90303 256.0
175.026764 164.0
175.052658 204.0
175.145279 148.0
175.377151 92.0
175.419327 200.0
175.443054 124.0
175.490509 144.0
175.534317 192.0
175.725266 148.0
175.764832 72.0
175.793869 52.0
175.883606 172.0
175.923203 204.0
175.983917 124.0
176.031448 192.0
176.063782 512.0
176.096802 128.0
176.166153 156.0
176.205597 56.0
176.234848 152.0
176.285049 76.0
176.319412 232.0
176.364334 160.0
176.389603 156.0
176.42514 112.0
176.514465 148.0
176.552063 220.0
176.580368 176.0
176.70549 104.0
176.81398 172.0
176.837799 76.0
176.92717 220.0
176.964828 128.0
176.993988 156.0
177.029022 388.0
177.070358 1588.0
177.115814 88.0
177.145493 140.0
177.211197 156.0
177.285492 192.0
177.331772 144.0
177.37738 196.0
177.407318 256.0
177.435715 180.0
177.492157 152.0
177.543121 220.0
177.573547 156.0
177.616806 148.0
177.797897 176.0
177.921982 120.0
177.951187 176.0
177.985703 220.0
178.006958 80.0
178.078369 2868.0
178.10788 136.0
178.237061 200.0
178.267288 148.0
178.312302 124.0
178.354111 180.0
178.405502 184.0
178.424118 44.0
178.46431 152.0
178.526337 188.0
178.578339 92.0
178.653717 48.0
178.70546 164.0
178.781982 180.0
178.796753 192.0
178.81781 136.0
178.876358 92.0
178.91629 148.0
178.991531 124.0
179.049316 176.0
179.085098 7840.0
179.34668 128.0
179.393158 120.0
179.435822 196.0
179.465149 180.0
179.491806 144.0
179.614502 172.0
179.635834 176.0
179.794403 140.0
179.822617 64.0
179.862656 136.0
179.9561 100.0
179.975967 152.0
179.99614 124.0
180.055725 356.0
180.093658 6356.0
180.168701 212.0
180.206619 196.0
180.236862 172.0
180.268616 168.0
180.321701 176.0
180.379349 56.0
180.435471 208.0
180.461502 200.0
180.511887 188.0
180.569351 140.0
180.594788 44.0
180.620499 296.0
180.630997 180.0
180.640671 212.0
180.687164 204.0
180.758133 144.0
180.835602 76.0
180.910477 180.0
180.942673 96.0
180.996231 208.0
181.025681 204.0
181.062546 720.0
181.095703 1076.0
181.175674 48.0
181.21051 120.0
181.237305 152.0
181.382462 172.0
181.402405 172.0
181.424911 168.0
181.447601 148.0
181.575073 200.0
181.623352 60.0
181.644821 184.0
181.668961 44.0
181.690414 152.0
181.730667 84.0
181.757431 152.0
181.781647 52.0
181.845169 60.0
181.883041 200.0
181.926285 104.0
181.9776 92.0
182.00177 52.0
182.067169 192.0
182.095749 148.0
182.138733 188.0
182.164398 72.0
182.181717 132.0
182.213959 68.0
182.310684 92.0
182.393234 224.0
182.423569 160.0
182.513428 276.0
182.595657 180.0
182.638702 128.0
182.720993 204.0
182.781296 120.0
182.832413 184.0
182.872879 112.0
183.031631 136.0
183.075043 96.0
183.09198 88.0
183.158371 132.0
183.222855 204.0
183.304779 168.0
183.363998 164.0
183.444946 276.0
183.467972 156.0
183.475983 148.0
183.677277 212.0
183.715073 180.0
183.752121 144.0
183.786362 136.0
183.825607 460.0
183.942902 392.0
183.96138 156.0
184.015793 152.0
184.044647 244.0
184.050186 168.0
184.059433 200.0
184.119202 108.0
184.172424 236.0
184.279129 132.0
184.303558 136.0
184.329117 156.0
184.35614 172.0
184.416931 284.0
184.564285 172.0
184.588623 188.0
184.636215 128.0
184.690475 116.0
184.721161 40.0
184.745499 184.0
184.945755 88.0
185.008011 124.0
185.037033 172.0
185.100067 172.0
185.119019 184.0
185.173187 44.0
185.201599 108.0
185.270706 176.0
185.292374 100.0
185.334045 180.0
185.400772 208.0
185.433289 80.0
185.460388 116.0
185.509186 160.0
185.568832 164.0
185.598663 132.0
185.617645 60.0
185.655273 160.0
185.758682 44.0
185.823792 148.0
185.859055 76.0
185.989334 280.0
186.049042 180.0
186.07077 164.0
186.096222 316.0
186.184814 108.0
186.211975 120.0
186.260864 200.0
186.29985 216.0
186.312271 196.0
186.364105 144.0
186.407578 172.0
186.426605 152.0
186.505417 68.0
186.581543 108.0
186.668549 228.0
186.70285 124.0
186.747421 92.0
186.779465 184.0
186.8535 348.0
186.872559 124.0
186.899765 124.0
186.929703 80.0
186.97052 128.0
187.024948 192.0
187.052551 376.0
187.086639 188.0
187.105072 380.0
187.136566 68.0
187.176254 224.0
187.224014 144.0
187.28363 168.0
187.365356 132.0
187.389877 168.0
187.43074 136.0
187.520676 96.0
187.555954 144.0
187.618805 156.0
187.64061 220.0
187.670609 184.0
187.690063 128.0
187.714233 112.0
187.737747 168.0
187.804245 156.0
187.85408 104.0
187.87825 152.0
187.929733 120.0
187.967926 168.0
188.000977 184.0
188.027969 160.0
188.058167 316.0
188.084503 208.0
188.115311 100.0
188.156265 140.0
188.247314 140.0
188.309189 172.0
188.339233 128.0
188.374741 148.0
188.394165 160.0
188.415726 92.0
188.439041 164.0
188.50589 168.0
188.533218 116.0
188.590607 176.0
188.620682 152.0
188.653488 176.0
188.69722 156.0
188.794525 124.0
188.84935 260.0
188.884735 184.0
188.914627 112.0
188.943695 168.0
189.018661 356.0
189.070541 48432.0
189.142227 96.0
189.167786 32.0
189.200638 232.0
189.233734 176.0
189.277878 132.0
189.349167 400.0
189.386841 76.0
189.410431 124.0
189.435791 248.0
189.519592 152.0
189.561218 136.0
189.590973 276.0
189.644409 44.0
189.688843 156.0
189.713379 172.0
189.774796 184.0
189.82431 244.0
189.843521 192.0
189.863739 196.0
189.898666 332.0
189.952164 152.0
189.976074 100.0
189.994751 204.0
190.026077 224.0
190.03569 280.0
190.078629 107968.0
190.165207 152.0
190.172699 120.0
190.184647 288.0
190.212708 88.0
190.222061 84.0
190.230133 196.0
190.249359 228.0
190.269196 48.0
190.276596 168.0
190.284927 192.0
190.320618 136.0
190.340057 96.0
190.360107 92.0
190.386719 232.0
190.432419 240.0
190.482224 276.0
190.502426 332.0
190.529358 948.0
190.574341 140.0
190.611145 304.0
190.648987 356.0
190.697937 240.0
190.736008 312.0
190.769852 52.0
190.81105 340.0
190.852341 228.0
190.872314 112.0
190.879272 132.0
190.892059 408.0
190.947327 524.0
190.972992 296.0
190.993942 324.0
191.003036 284.0
191.086563 285160.0
191.192551 344.0
191.230331 92.0
191.260941 160.0
191.281586 212.0
191.322281 528.0
191.340439 388.0
191.403183 328.0
191.434982 140.0
191.461563 252.0
191.503036 392.0
191.539764 2112.0
191.594803 268.0
191.621674 280.0
191.632172 92.0
191.641953 276.0
191.662476 256.0
191.671417 112.0
191.683533 252.0
191.733505 208.0
191.777344 212.0
191.813675 100.0
191.864746 208.0
191.891739 104.0
191.933792 64.0
191.96846 124.0
192.009064 344.0
192.061264 1104.0
192.089279 47080.0
192.175629 104.0
192.209457 64.0
192.216156 144.0
192.238724 180.0
192.292786 264.0
192.348587 140.0
192.376297 140.0
192.406891 232.0
192.44548 144.0
192.467377 116.0
192.490707 252.0
192.518005 380.0
192.541962 140.0
192.559479 48.0
192.581207 272.0
192.638275 64.0
192.652237 128.0
192.691452 100.0
192.712006 168.0
192.73967 88.0
192.781754 116.0
192.809647 176.0
192.829239 80.0
192.842056 48.0
192.904556 112.0
192.93634 100.0
192.941132 136.0
192.99437 160.0
193.016525 56.0
193.025879 196.0
193.066513 4120.0
193.091599 3656.0
193.153595 152.0
193.176086 80.0
193.220779 268.0
193.23233 108.0
193.239044 204.0
193.276489 196.0
193.312759 364.0
193.316925 120.0
193.375031 216.0
193.402039 100.0
193.407272 216.0
193.428879 312.0
193.457932 124.0
193.477875 172.0
193.50914 36.0
193.529938 152.0
193.549118 332.0
193.586288 356.0
193.612823 260.0
193.649078 144.0
193.681351 108.0
193.711609 168.0
193.736542 116.0
193.760834 68.0
193.785431 68.0
193.828766 136.0
193.870682 156.0
193.924057 104.0
193.955948 116.0
194.069168 1020.0
194.101593 408.0
194.124588 60.0
194.152328 188.0
194.193924 48.0
194.237778 64.0
194.266052 48.0
194.296555 104.0
194.349976 64.0
194.403183 60.0
194.448914 128.0
194.50145 132.0
194.535477 136.0
194.558044 240.0
194.598419 112.0
194.624069 84.0
194.647583 60.0
194.738571 88.0
194.760803 120.0
194.804596 68.0
194.826828 36.0
194.854614 48.0
194.890732 120.0
194.918518 28.0
195.019791 148.0
195.043579 176.0
195.077545 500.0
195.185364 96.0
195.232651 72.0
195.2827 40.0
195.30217 80.0
195.380066 68.0
195.449631 112.0
195.467484 72.0
195.528793 152.0
195.588257 76.0
195.701935 56.0
195.839386 92.0
195.936874 56.0
195.995392 124.0
196.055115 120.0
196.08049 208.0
196.203934 180.0
196.288086 76.0
196.337814 244.0
196.375626 132.0
196.449844 60.0
196.486115 72.0
196.578201 136.0
196.600525 76.0
196.701004 132.0
196.840591 212.0
196.952316 152.0
197.008179 44.0
197.036118 200.0
197.061737 164.0
197.086288 176.0
197.096542 168.0
197.109207 104.0
197.131119 152.0
197.242157 44.0
197.273666 124.0
197.41626 200.0
197.648453 152.0
197.697235 128.0
197.777191 88.0
197.86116 124.0
197.88356 172.0
197.925568 152.0
197.978775 140.0
198.065598 116.0
198.10762 120.0
198.138428 76.0
198.242111 124.0
198.306564 52.0
198.334595 168.0
198.544876 88.0
198.714142 152.0
198.757416 192.0
198.795715 88.0
198.850693 100.0
198.899811 48.0
198.932098 48.0
198.965775 180.0
199.010696 108.0
199.047211 256.0
199.19606 180.0
199.24382 60.0
199.28035 104.0
199.353409 104.0
199.415237 88.0
199.448959 60.0
199.538925 160.0
199.564224 56.0
199.637527 120.0
199.67952 116.0
199.828613 256.0
199.896149 148.0
199.915848 156.0
199.949615 192.0
199.974945 140.0
200.061203 3232.0
200.163574 52.0
200.214264 88.0
200.246109 144.0
200.315659 116.0
200.335373 280.0
200.366364 84.0
200.448074 28.0
200.518539 132.0
200.552353 68.0
200.600281 92.0
200.641098 108.0
200.823044 36.0
200.856888 192.0
200.890747 132.0
200.93306 44.0
201.007477 276.0
201.070038 18704.0
201.177017 160.0
201.209641 164.0
201.229416 60.0
201.284622 72.0
201.418625 52.0
201.455353 60.0
201.552277 52.0
201.636185 60.0
201.663635 108.0
201.687057 120.0
201.723816 64.0
201.834076 56.0
201.868011 48.0
201.939697 68.0
201.958511 76.0
201.978317 36.0
202.013596 204.0
202.075027 3972.0
202.116943 56.0
202.158813 140.0
202.17424 100.0
202.206146 84.0
202.295242 128.0
202.368179 180.0
202.402832 128.0
202.436813 176.0
202.462311 52.0
202.516113 32.0
202.545609 156.0
202.571182 124.0
202.609604 72.0
202.646423 100.0
202.671936 104.0
202.745605 52.0
202.776779 140.0
202.847641 64.0
202.875992 116.0
202.895844 152.0
202.978073 96.0
203.030182 192.0
203.083908 1256.0
203.153442 72.0
203.18512 32.0
203.207825 92.0
203.23555 140.0
203.298615 80.0
203.36673 124.0
203.408127 76.0
203.449051 36.0
203.55246 144.0
203.589111 124.0
203.625107 36.0
203.691269 136.0
203.716003 52.0
203.806931 124.0
203.909225 84.0
203.995575 124.0
204.031464 164.0
204.057983 428.0
204.090942 208.0
204.095612 416.0
204.168091 76.0
204.202072 192.0
204.26181 92.0
204.35614 300.0
204.388458 144.0
204.421295 172.0
204.455292 56.0
204.54068 52.0
204.569138 136.0
204.594757 168.0
204.612701 120.0
204.665176 120.0
204.922287 76.0
204.947937 176.0
204.995163 224.0
205.022034 204.0
205.064606 8268.0
205.093475 584.0
205.298553 108.0
205.349899 80.0
205.416611 196.0
205.462463 164.0
205.484818 108.0
205.50679 92.0
205.598114 100.0
205.637177 232.0
205.672318 164.0
205.709427 132.0
205.828201 120.0
205.863617 200.0
205.928482 56.0
206.006424 128.0
206.069366 1552.0
206.101562 188.0
206.157852 160.0
206.190887 208.0
206.223587 64.0
206.287903 120.0
206.329361 188.0
206.479294 284.0
206.506653 176.0
206.583893 300.0
206.629654 116.0
206.709778 76.0
206.755569 76.0
206.79277 172.0
206.861465 200.0
206.924454 140.0
206.993179 148.0
207.041412 128.0
207.080551 14936.0
207.14032 32.0
207.149353 68.0
207.18222 84.0
207.209167 156.0
207.277695 124.0
207.295135 68.0
207.395844 168.0
207.469223 160.0
207.502335 144.0
207.519714 116.0
207.606033 144.0
207.777527 192.0
207.847397 88.0
207.904785 40.0
207.962189 176.0
207.99057 288.0
208.009964 204.0
208.087845 11088.0
208.164978 164.0
208.190491 108.0
208.241943 120.0
208.278046 36.0
208.318253 128.0
208.378052 108.0
208.413986 88.0
208.453293 136.0
208.532715 132.0
208.58551 92.0
208.611374 40.0
208.637253 52.0
208.689514 168.0
208.873062 216.0
208.935776 176.0
208.979507 120.0
209.008286 192.0
209.053207 364.0
209.089508 1716.0
209.195358 48.0
209.251465 148.0
209.334686 72.0
209.452057 120.0
209.497742 48.0
209.561127 88.0
209.680969 108.0
209.705215 80.0
209.872421 36.0
210.068527 136.0
210.093552 268.0
210.284943 296.0
210.334015 100.0
210.397522 104.0
210.436905 64.0
210.569763 192.0
210.651657 48.0
210.77301 120.0
210.813461 76.0
211.001343 60.0
211.099655 124.0
211.137253 164.0
211.166168 180.0
211.258743 120.0
211.296341 124.0
211.443924 100.0
211.478653 328.0
211.522079 28.0
211.556808 152.0
211.629196 104.0
211.692108 128.0
211.823227 220.0
211.843506 100.0
211.950714 192.0
212.011566 96.0
212.060837 148.0
212.08403 176.0
212.11702 220.0
212.168091 160.0
212.197083 48.0
212.333374 208.0
212.362381 44.0
212.401611 160.0
212.501617 40.0
213.029312 184.0
213.061966 152.0
213.122986 188.0
213.148438 200.0
213.186172 204.0
213.224686 148.0
213.713989 140.0
213.899658 228.0
214.056717 144.0
214.08876 176.0
214.321793 92.0
214.420883 124.0
214.491699 160.0
214.546219 68.0
214.578293 36.0
214.745392 164.0
214.814514 72.0
215.015854 128.0
215.059631 128.0
215.085892 188.0
215.106339 100.0
215.150116 192.0
215.380814 64.0
215.515213 172.0
215.728561 188.0
215.912766 120.0
216.102905 156.0
216.135101 244.0
216.339981 64.0
216.43074 180.0
216.515656 92.0
216.835007 152.0
216.864319 108.0
216.943466 180.0
217.065125 1804.0
217.098862 260.0
217.219116 128.0
217.41864 148.0
217.474411 48.0
217.498917 164.0
217.609451 52.0
217.729843 172.0
217.815018 132.0
217.85614 116.0
217.879654 156.0
217.954849 216.0
218.072266 16112.0
218.13826 344.0
218.164719 40.0
218.214691 304.0
218.277725 188.0
218.301849 200.0
218.36467 156.0
218.398499 112.0
218.420563 56.0
218.470566 96.0
218.506332 140.0
218.538239 100.0
218.572662 172.0
218.577667 120.0
218.605515 232.0
218.705978 180.0
218.729523 120.0
218.756973 112.0
218.786118 108.0
218.872131 220.0
218.897354 132.0
218.928116 148.0
218.948776 252.0
218.966064 144.0
218.986542 112.0
219.025131 336.0
219.081116 92468.0
219.180664 152.0
219.228745 312.0
219.274445 52.0
219.317947 192.0
219.338043 132.0
219.364502 112.0
219.430786 68.0
219.461441 100.0
219.489578 80.0
219.51181 88.0
219.564804 64.0
219.616058 88.0
219.675797 168.0
219.725616 48.0
219.798599 92.0
219.858398 76.0
219.882004 68.0
219.914474 72.0
219.955307 48.0
219.998306 176.0
220.03772 172.0
220.083908 12528.0
220.19223 116.0
220.231628 96.0
220.254028 172.0
220.313202 132.0
220.344833 60.0
220.371765 136.0
220.472672 92.0
220.507553 60.0
220.576126 56.0
220.658478 204.0
220.817596 96.0
220.899979 140.0
220.954666 92.0
221.007919 172.0
221.059555 18552.0
221.160522 120.0
221.212204 148.0
221.237106 156.0
221.278442 60.0
221.300949 56.0
221.330078 136.0
221.359146 128.0
221.393402 72.0
221.461227 64.0
221.502335 60.0
221.573914 100.0
221.587585 56.0
221.600571 156.0
221.62973 72.0
221.650467 136.0
221.709732 112.0
221.758072 188.0
221.788879 176.0
221.841812 164.0
221.866074 72.0
221.90834 60.0
221.973572 76.0
222.009171 60.0
222.063477 3200.0
222.089966 276.0
222.142639 36.0
222.166367 36.0
222.213684 76.0
222.246475 68.0
222.308792 52.0
222.385956 52.0
222.451263 40.0
222.492828 60.0
222.555176 44.0
222.58783 144.0
222.679901 124.0
222.75119 52.0
222.816544 48.0
222.86409 116.0
222.887848 148.0
223.069565 820.0
223.125641 112.0
223.15834 120.0
223.330826 52.0
223.545029 108.0
223.589676 132.0
223.616455 108.0
223.670303 92.0
223.737686 72.0
223.830811 132.0
223.917175 144.0
224.018448 188.0
224.082993 416.0
224.247894 44.0
224.364151 32.0
224.429733 76.0
224.522186 100.0
224.793655 172.0
224.896973 160.0
224.966782 32.0
225.068283 144.0
225.133987 168.0
225.340088 120.0
225.441681 160.0
225.603088 72.0
226.092896 208.0
226.261276 92.0
226.856049 180.0
226.968384 208.0
227.202332 40.0
227.361359 60.0
227.565475 44.0
227.610519 88.0
227.796082 128.0
228.100235 112.0
228.312363 108.0
228.34079 92.0
228.5634 100.0
228.626602 132.0
228.665726 172.0
228.840317 108.0
228.86441 64.0
228.931427 92.0
229.07576 11840.0
229.176193 220.0
229.219849 60.0
229.346436 152.0
229.397675 84.0
229.521698 204.0
229.569534 56.0
229.828964 36.0
229.904404 64.0
229.97081 64.0
230.019104 140.0
230.07811 1176.0
230.136841 64.0
230.197235 108.0
230.302017 132.0
230.336166 108.0
230.366379 68.0
230.532547 100.0
230.562775 72.0
230.704834 140.0
230.783447 60.0
230.840897 68.0
230.865097 76.0
230.886261 112.0
230.925583 120.0
231.031448 148.0
231.078827 128.0
231.109009 152.0
231.176697 80.0
231.273163 160.0
231.30986 52.0
231.358871 84.0
231.406738 80.0
231.586258 128.0
231.676285 84.0
231.752029 80.0
231.795975 88.0
231.94902 52.0
232.604248 212.0
232.709869 96.0
232.926117 84.0
233.023331 44.0
233.058167 620.0
233.091782 296.0
233.172241 104.0
233.257339 84.0
233.281662 60.0
233.305984 76.0
233.345505 104.0
233.388077 88.0
233.540131 84.0
233.570557 40.0
233.707458 148.0
233.810913 192.0
233.877884 136.0
233.984421 56.0
234.027054 160.0
234.061981 620.0
234.103714 172.0
234.142776 32.0
234.395615 80.0
234.639465 92.0
234.669952 96.0
234.794983 280.0
234.988724 72.0
235.075272 2520.0
235.147827 160.0
235.197723 72.0
235.228256 132.0
235.270996 76.0
235.496964 44.0
235.549011 96.0
235.594711 132.0
235.64003 72.0
235.683319 92.0
235.73526 80.0
235.811661 116.0
235.866684 180.0
235.949921 124.0
235.984192 128.0
236.013428 104.0
236.036713 168.0
236.083282 20624.0
236.181335 40.0
236.239761 48.0
236.294098 60.0
236.322357 104.0
236.363724 56.0
236.429474 92.0
236.484558 76.0
236.519165 144.0
236.735611 84.0
236.839737 80.0
236.885696 60.0
236.952026 172.0
236.974533 56.0
237.086594 3660.0
237.196991 68.0
237.245514 48.0
237.287155 56.0
237.388351 100.0
237.489563 88.0
237.535568 76.0
237.584656 64.0
237.704315 56.0
237.941742 96.0
238.014343 76.0
238.043854 100.0
238.089935 500.0
238.155624 36.0
238.382965 212.0
238.518204 40.0
238.588913 76.0
238.668854 112.0
238.869522 128.0
238.961044 84.0
239.007202 84.0
239.078751 84.0
239.101715 124.0
239.228806 44.0
239.570633 96.0
239.595291 48.0
239.878799 132.0
239.971298 108.0
240.045303 180.0
240.50499 52.0
240.776703 64.0
241.051651 88.0
241.17218 112.0
242.060104 84.0
242.112747 128.0
242.434937 64.0
242.909317 144.0
243.033417 56.0
244.077103 100.0
244.123749 80.0
244.260605 56.0
245.066925 80.0
245.278854 60.0
245.787216 96.0
245.937012 152.0
246.033783 180.0
246.205521 208.0
246.336716 180.0
246.486679 60.0
246.524185 144.0
247.029739 144.0
247.324844 72.0
247.659882 88.0
247.68808 64.0
247.841583 48.0
248.139359 152.0
248.531418 124.0
248.933212 40.0
248.958344 164.0
249.061981 116.0
249.09967 104.0
249.476776 88.0
249.545944 156.0
249.602554 92.0
249.671738 68.0
249.750366 44.0
249.83844 84.0
250.027237 140.0
250.097717 228.0
250.420792 136.0
250.480637 84.0
250.512146 88.0
250.546799 120.0
250.657074 40.0
250.820953 68.0
250.868988 236.0
250.893463 72.0
250.965103 144.0
251.023727 128.0
251.032974 196.0
251.046829 176.0
251.107346 38296.0
251.156494 88.0
251.207825 88.0
251.216614 60.0
251.284546 68.0
251.309784 56.0
251.361847 32.0
251.39476 56.0
251.413177 68.0
251.477036 40.0
251.511765 40.0
251.626846 88.0
251.675934 36.0
251.751709 96.0
251.790192 44.0
251.912445 72.0
251.944397 176.0
251.998108 96.0
252.066833 112.0
252.109558 6336.0
252.203384 92.0
252.220673 176.0
252.257248 52.0
252.314163 52.0
252.386887 56.0
252.421661 48.0
252.456451 48.0
252.503891 44.0
252.630417 52.0
252.696854 48.0
252.763306 52.0
252.946869 88.0
252.988022 60.0
253.010178 48.0
253.115204 872.0
253.203339 60.0
253.279358 60.0
253.350998 64.0
253.38707 52.0
253.447266 92.0
253.526489 72.0
253.579422 124.0
253.605728 44.0
253.681793 112.0
253.712082 88.0
253.745209 44.0
253.826431 104.0
253.875214 128.0
253.992569 44.0
254.060928 80.0
254.114807 292.0
254.265442 64.0
254.354309 36.0
254.69725 204.0
255.113541 88.0
255.514252 68.0
256.33255 100.0
256.539734 80.0
257.007843 88.0
258.558441 80.0
259.355988 84.0
263.94696 116.0
264.908234 60.0
265.144775 120.0
265.196625 100.0
266.127686 152.0
266.332275 72.0
266.410248 52.0
266.614929 56.0
267.105896 92.0
267.949066 36.0
269.838806 148.0
270.994171 56.0
271.626892 116.0
272.845245 88.0
273.555847 112.0
274.003754 52.0
274.247589 48.0
274.867615 88.0
276.37439 92.0
276.877594 68.0
277.586761 76.0
277.964935 88.0
278.101013 76.0
279.426941 88.0
282.146912 492.0
283.156464 164.0
285.256134 48.0
287.101288 108.0
287.276672 84.0
288.431549 68.0
288.50592 56.0
289.64975 68.0
293.868744 116.0
296.265411 108.0
297.517181 100.0
298.187012 104.0
298.39328 88.0
299.770111 56.0
300.918762 48.0
302.765289 56.0
303.20874 108.0
304.62793 128.0
307.94751 84.0
308.254944 116.0
309.115204 124.0
309.678864 48.0
309.910065 96.0
310.421844 56.0
310.881409 68.0
311.861267 100.0
313.025787 52.0
313.40271 120.0
313.850342 68.0
313.973785 88.0
314.319489 104.0
314.84549 92.0
315.188141 72.0
315.874054 92.0
316.426117 156.0
317.060181 124.0
317.549469 84.0
317.645233 100.0
319.691772 104.0
321.837708 120.0
322.252045 100.0
323.3284 56.0
324.535614 72.0
324.940918 64.0
327.071991 140.0
327.352814 76.0
327.57254 120.0
330.113464 72.0
330.76474 68.0
331.920471 64.0
333.630585 92.0
333.950592 40.0
337.601379 96.0
338.161133 48.0
338.867889 136.0
342.12558 80.0
342.744354 32.0
343.758423 132.0
344.086945 84.0
346.387207 52.0
346.84668 48.0
348.68399 112.0
349.505829 80.0
351.495667 64.0
352.825348 92.0
353.962799 64.0
354.622162 44.0
354.98584 52.0
355.458496 112.0
355.672424 88.0
358.779694 60.0
359.37561 68.0
360.051331 76.0
360.746552 112.0
363.594971 140.0
366.138428 72.0
367.072113 48.0
367.098785 92.0
368.278107 96.0
369.845795 72.0
372.215118 64.0
372.407135 44.0
377.00351 44.0
377.417114 96.0
377.989624 36.0
379.244415 100.0
381.305389 48.0
382.869385 72.0
384.549774 32.0
385.713776 52.0
386.769897 80.0
387.92157 52.0
389.424438 100.0
389.455872 152.0
389.518707 60.0
389.876251 72.0
390.005951 96.0
393.279175 60.0
393.721375 124.0
393.922821 104.0
394.942688 96.0
395.164215 100.0
395.852966 108.0
396.173767 112.0
396.732574 28.0
397.664764 92.0
398.002197 128.0
401.089447 80.0
401.907043 156.0
402.393982 80.0
402.505768 80.0
402.901215 52.0
405.337891 88.0
405.598419 84.0
407.705597 84.0
408.127686 112.0
408.422638 128.0
408.541931 80.0
408.879944 40.0
409.701385 68.0
409.935059 92.0
413.658997 52.0
413.946472 80.0
414.910797 116.0
415.158142 76.0
416.290375 60.0
417.233063 72.0
417.765808 56.0
418.189026 48.0
418.763123 36.0
419.211273 144.0
420.026703 88.0
420.312286 112.0
420.81842 76.0
423.427399 104.0
424.890778 112.0
425.038513 40.0
426.336151 52.0
427.063873 32.0
429.382751 140.0
429.960327 108.0
430.018127 148.0
430.150208 132.0
432.729919 100.0
432.982544 76.0
433.715912 52.0
434.230042 116.0
435.342285 112.0
437.283844 88.0
438.166626 76.0
440.056 100.0
441.560394 32.0
441.690033 120.0
446.185608 100.0
451.566345 92.0
452.823395 92.0
457.021881 96.0
460.581726 96.0
461.615997 72.0
466.039734 92.0
468.212097 100.0
472.212982 56.0
473.329529 52.0
475.644714 120.0
478.083038 68.0
479.916931 20.0
480.58429 76.0
481.671356 84.0
481.92038 108.0
482.274384 120.0
486.245636 92.0
488.10968 92.0
496.442688 60.0
497.956085 120.0
500.339539 52.0
506.175323 64.0
506.446381 92.0
506.84726 96.0
511.558655 92.0
512.61261 52.0
515.871338 96.0
519.503296 88.0
521.196777 124.0
521.360352 44.0
524.350464 80.0
527.911438 88.0
534.954529 52.0
534.991333 128.0
535.760437 64.0
536.244263 76.0
538.334229 56.0
540.715088 100.0
541.228943 84.0
541.942261 44.0
545.739075 48.0
551.239502 76.0
552.810791 56.0
554.037537 76.0
556.236938 60.0
557.829407 68.0
559.23584 40.0
560.978699 72.0
564.486816 52.0
564.808411 132.0
567.005371 132.0
571.112366 60.0
584.51593 48.0
584.570862 84.0
591.506531 132.0
593.953613 60.0
596.279419 84.0
597.358887 60.0
597.504822 76.0
613.160095 80.0
616.184998 120.0
620.480957 56.0
626.215515 68.0
628.69342 156.0
633.303101 76.0
634.485779 100.0
635.132629 44.0
637.467285 48.0
638.005066 116.0
659.11084 64.0
660.700989 44.0
663.522949 72.0
666.469055 68.0
667.080627 84.0
672.768005 44.0
673.201721 124.0
677.551819 104.0
684.600525 76.0
689.394775 64.0
689.692688 60.0
696.49939 88.0
697.88678 60.0
699.917847 48.0
701.524841 68.0
703.223328 120.0
709.974304 60.0
715.85199 80.0
719.488403 112.0
719.675293 112.0
722.941406 60.0
726.123718 48.0
729.624817 112.0
735.475159 68.0
740.81781 148.0
747.702942 108.0
748.577271 68.0
749.265747 80.0
756.896118 100.0
760.679138 88.0
771.22229 84.0
771.421265 164.0
773.78363 52.0
773.855591 136.0
785.225403 108.0
785.98407 84.0
791.865234 64.0
795.128296 168.0
815.944519 48.0
816.626892 48.0
817.924255 76.0
825.375305 52.0
826.94281 100.0
827.097351 92.0
833.227722 52.0
843.497314 76.0
845.86322 72.0
851.609558 96.0
853.271545 80.0
863.417908 96.0
864.956726 48.0
870.303528 60.0
880.650696 188.0
880.981506 172.0
884.316589 40.0
884.736877 104.0
890.821411 192.0
892.491516 84.0
896.992432 60.0
898.226807 180.0
901.259644 112.0
909.206238 104.0
912.245544 68.0
915.163513 144.0
922.421326 160.0
923.515747 88.0
943.975281 32.0
948.291382 56.0
956.18988 84.0
957.0271 76.0
960.157593 32.0
966.904236 132.0
968.495422 140.0
968.947693 108.0
969.430969 208.0
970.298767 188.0
972.134827 88.0
972.736877 160.0
978.169922 200.0
988.799805 60.0
990.202271 120.0
992.207458 200.0
998.675537 136.0
1006.641785 176.0
1006.723877 156.0
1007.943115 204.0
1011.947021 28.0
1015.159668 156.0
1015.64801 136.0
1019.686218 56.0
1027.110474 40.0
1031.510132 108.0
1033.531128 120.0
1037.675293 108.0
1041.814819 168.0
1050.015503 96.0
1055.259033 152.0
1059.219727 56.0
1060.761963 212.0
1061.994019 140.0
1063.460449 124.0
1072.501587 140.0
1072.840576 196.0
1074.275269 188.0
1075.36499 108.0
1076.233276 112.0
1076.546753 64.0
1080.41626 164.0
1081.99353 168.0
1082.556641 48.0
1083.381958 184.0
1085.269531 224.0
1087.119385 56.0
1092.32312 120.0
1092.809937 192.0
1094.383057 100.0
1097.295288 184.0
1099.643677 132.0
1100.349976 144.0
1102.2854 60.0
1102.41748 164.0
1103.005737 216.0
1105.307373 148.0
1106.392822 40.0
1106.584839 128.0
1107.796753 212.0
1111.649048 52.0
1112.133545 80.0
1114.730347 208.0
1115.135742 184.0
1120.119507 120.0
1123.272583 140.0
1125.815552 204.0
1127.833374 228.0
1131.070801 80.0
1133.394775 136.0
1135.660767 80.0
1138.251343 188.0
1138.499756 172.0
1140.098755 112.0
1141.31543 108.0
1141.940918 156.0
1142.943237 152.0
1145.393921 120.0
1145.966553 164.0
1146.46521 200.0
1148.885864 180.0
1150.930908 196.0
1157.578003 180.0
1167.295654 148.0
1167.642456 52.0
1172.973877 116.0
1175.374634 112.0
1176.903564 216.0
1177.415771 60.0
1178.037354 48.0
1180.443237 116.0
1181.859253 140.0
1182.68042 48.0
1183.36499 268.0
1184.207397 148.0
1184.262207 132.0
1185.221313 208.0
1186.17395 128.0
1188.739014 68.0
1189.123413 168.0
1189.253784 232.0
1189.590088 132.0
1190.681885 76.0
1193.09375 204.0
1193.973999 164.0
1194.50354 124.0
1194.771851 100.0
1195.56311 196.0
1196.513062 60.0
1198.703491 152.0
1199.442993 184.0
1200.847534 132.0
1201.275146 108.0
1201.66333 164.0
1202.020386 184.0
1202.503418 196.0
1204.754517 136.0
1204.809814 96.0
1205.023926 152.0
1205.597534 152.0
1206.910889 212.0
1208.03833 208.0
1208.95166 140.0
1209.145386 208.0
1210.349976 140.0
1211.298828 136.0
1211.832275 128.0
1215.299072 212.0
1215.42395 152.0
1217.152344 224.0
1217.76355 176.0
1217.867676 100.0
1218.340088 196.0
1218.49292 208.0
1219.869019 168.0
1221.69104 200.0
1222.456421 172.0
1222.505127 152.0
1223.806763 144.0
1223.925171 92.0
1224.134033 172.0
1225.137085 140.0
1227.33252 124.0
1229.111328 144.0
1231.079834 116.0
1231.883057 172.0
1233.979736 140.0
1234.112549 72.0
1235.749268 36.0
1237.233032 236.0
1241.212769 200.0
1241.836914 232.0
1241.921021 132.0
1242.012207 28.0
1242.405151 84.0
1243.001465 88.0
1245.100586 224.0
1246.37207 128.0
1248.129395 104.0
1252.48584 152.0
1252.626709 48.0
1256.560547 132.0
1258.014404 200.0
1262.041504 168.0
1263.010376 108.0
1263.831055 140.0
1264.064575 240.0
1268.200562 248.0
1268.831543 148.0
1269.483887 40.0
1271.257324 156.0
1271.704468 44.0
1272.684204 160.0
1275.682373 40.0
1278.207275 84.0
1278.833618 96.0
1279.239258 56.0
1279.502686 104.0
1283.678223 212.0
1284.619629 160.0
1285.483032 248.0
1286.689331 188.0
1286.939209 160.0
1287.860474 172.0
1288.381958 128.0
1289.975586 80.0
1290.140015 132.0
1290.526001 152.0
1291.613159 124.0
1293.280273 176.0
1293.380493 356.0
1294.380005 140.0
1294.683594 88.0
1295.578979 108.0
1297.564209 212.0
1298.19519 208.0
1299.163574 120.0
1299.536621 156.0
1300.555664 164.0
1301.101196 144.0
1301.216064 48.0
1301.345337 80.0
1301.804932 56.0
1302.386719 228.0
1302.619873 208.0
1303.385254 208.0
1304.226196 252.0
1305.642578 188.0
1307.304443 116.0
1308.787354 120.0
1312.1521 60.0
1313.161743 188.0
1313.269897 136.0
1314.330444 32.0
1314.97998 148.0
1317.297729 172.0
1317.521729 60.0
1319.632202 116.0
1319.943115 120.0
1320.579468 148.0
1320.818237 52.0
1321.064087 140.0
1321.910645 160.0
1324.886597 60.0
1324.973511 148.0
1325.408203 180.0
1325.618408 40.0
1326.364868 148.0
1327.234863 108.0
1331.138916 188.0
1331.385742 104.0
1332.758789 156.0
1332.80957 160.0
1333.289185 96.0
1333.354614 216.0
1335.361328 136.0
1335.943237 172.0
1336.103271 72.0
1336.772705 80.0
1338.061035 104.0
1338.5271 116.0
1338.643555 148.0
1339.073242 128.0
1340.770874 164.0
1342.440308 220.0
1342.870605 216.0
1342.917725 156.0
1343.73877 164.0
1343.884644 200.0
1344.942871 196.0
1347.893433 128.0
1348.697266 112.0
1348.872803 44.0
1349.830566 164.0
1350.123047 220.0
1351.073975 168.0
1351.783691 216.0
1352.215454 220.0
1353.21106 136.0
1354.822266 140.0
1355.606323 144.0
1358.46582 212.0
1360.218018 228.0
1361.254883 112.0
1362.224487 140.0
1363.995361 224.0
1365.546875 152.0
1366.061768 76.0
1366.363403 144.0
1367.658569 200.0
1368.858643 128.0
1369.02063 136.0
1370.361328 68.0
1371.488892 56.0
1372.004883 120.0
1372.167114 204.0
1372.616821 156.0
1373.236328 160.0
1373.649414 88.0
1374.800415 120.0
1374.874268 228.0
1375.531128 120.0
1375.723145 220.0
1375.966675 116.0
1376.653442 132.0
1377.347656 220.0
1377.983032 180.0
1378.49292 100.0
1379.860352 156.0
1381.280273 296.0
1381.376465 152.0
1382.523315 196.0
1382.745361 176.0
1385.077637 120.0
1385.285034 256.0
1385.374023 36.0
1385.73584 232.0
1385.966675 152.0
1387.182129 72.0
1388.175659 408.0
1388.301758 232.0
1388.524292 176.0
1388.615356 144.0
1388.843262 160.0
1389.214111 108.0
1390.48291 148.0
1390.891235 112.0
1390.943115 112.0
1391.217773 296.0
1391.33667 148.0
1391.819214 168.0
1392.220215 248.0
1393.824829 124.0
1394.486206 136.0
1394.805908 60.0
1396.307861 168.0
1396.397095 120.0
1397.185547 124.0
1397.274902 40.0
1397.937134 108.0
1398.465454 112.0
1399.5896 176.0
1399.693848 128.0
1401.25061 148.0
1401.596069 224.0
1401.809448 192.0
1402.085205 48.0
1402.525757 176.0
1402.651733 124.0
1402.815674 176.0
1402.97229 152.0
1403.367432 72.0
1405.560425 208.0
1405.642456 136.0
1407.43396 164.0
1407.493652 128.0
1407.979126 156.0
1408.285278 168.0
1408.509399 192.0
1409.398438 188.0
1409.495605 144.0
1410.063599 148.0
1410.205566 144.0
1410.280273 172.0
1412.478638 92.0
1412.590942 164.0
1413.077148 132.0
1413.309082 136.0
1413.8479 204.0
1414.296997 176.0
1414.446777 52.0
1414.55896 96.0
1414.850952 216.0
1415.083008 228.0
1415.487427 240.0
1416.009644 132.0
1418.566772 112.0
1418.773193 212.0
1419.406494 220.0
1419.692749 164.0
1420.441528 232.0
1420.711548 120.0
1420.764038 220.0
1421.266846 176.0
1421.536987 164.0
1422.009766 208.0
1423.023193 132.0
1423.616333 244.0
1424.983521 248.0
1425.239014 208.0
1425.486938 208.0
1425.667358 48.0
1426.34375 124.0
1428.481445 224.0
1429.352173 156.0
1430.616577 196.0
1431.520142 156.0
1431.768677 140.0
1431.836426 168.0
1431.949463 260.0
1432.002075 100.0
1432.552002 148.0
1432.989014 152.0
1433.139648 184.0
1433.742554 184.0
1434.181641 232.0
1434.466064 76.0
1434.828003 56.0
1435.559326 152.0
1436.192871 164.0
1436.336182 136.0
1438.600098 136.0
1438.96875 160.0
1439.287109 176.0
1439.347534 160.0
1439.800659 164.0
1440.276489 80.0
1441.606323 124.0
1441.765015 192.0
1442.089966 56.0
1442.376831 164.0
1442.883667 168.0
1443.102905 92.0
1443.291992 68.0
1445.780762 164.0
1446.022949 156.0
1446.643188 168.0
1446.764771 104.0
1447.075195 164.0
1447.128174 160.0
1447.643188 148.0
1449.044434 96.0
1449.734009 168.0
1450.681519 124.0
1453.927856 128.0
1454.018921 188.0
1454.785645 72.0
1454.9375 204.0
1455.446167 136.0
1455.575195 184.0
1456.152466 144.0
1457.132324 232.0
1457.603394 100.0
1457.884644 120.0
1458.644653 140.0
1458.834717 108.0
1459.724365 76.0
1460.370728 160.0
1460.832031 136.0
1462.978638 156.0
1463.292969 212.0
1464.800903 100.0
1465.669434 136.0
1465.738037 148.0
1465.814209 88.0
1466.141846 116.0
1466.675415 188.0
1467.758057 112.0
1467.849487 204.0
1468.131714 44.0
1469.25293 160.0
1469.947266 76.0
1470.814697 124.0
1471.588379 136.0
1471.649536 156.0
1472.184082 68.0
1472.611694 128.0
1472.985962 140.0
1473.169312 184.0
1474.475952 164.0
1476.150269 144.0
1476.318481 168.0
1476.433228 140.0
1476.486694 116.0
1476.953247 128.0
1477.46582 200.0
1477.848389 136.0
1477.955444 120.0
1478.815796 152.0
1478.912109 164.0
1479.095825 136.0
1479.493896 204.0
1479.585815 128.0
1479.677612 144.0
1480.052856 160.0
1480.267212 112.0
1480.428101 96.0
1481.998413 188.0
1482.075073 168.0
1482.35083 108.0
1482.803101 248.0
1482.879639 148.0
1483.025269 148.0
1484.290283 228.0
1484.443604 180.0
1485.448364 160.0
1486.292358 216.0
1486.722046 164.0
1487.259399 248.0
1488.341797 240.0
1488.480103 172.0
1488.71814 236.0
1489.647461 172.0
1490.300537 148.0
1490.52417 156.0
1492.614258 156.0
1494.116211 108.0
1495.322144 100.0
1495.614746 312.0
1496.815674 180.0
1497.116089 164.0
1497.277832 80.0
1497.562744 180.0
1497.940186 144.0
1498.857056 128.0
1499.473511 76.0
1499.542969 116.0
1499.897461 116.0
1500.074829 168.0
1500.668457 140.0
1501.200439 144.0
1501.354736 92.0
1501.87915 160.0
1502.264893 124.0
1502.581177 124.0
1502.710815 200.0
1503.152222 208.0
1504.626465 212.0
