>compound 35212-22-7
>formula C18H16O3
>ionization [M+H]+
>parentmass 281.119171
#inchi InChI=1S/C18H16O3/c1-12(2)21-14-8-9-15-17(10-14)20-11-16(18(15)19)13-6-4-3-5-7-13/h3-12H,1-2H3
#inchikey SFBODOKJTYAUCM
#Ion_Source LC-ESI
#Instrument qTof
#Compound_Source Commercial
#PI Dorrestein
#Data_Collector Garg_Neha
#Scan -1
#Precursor_MZ 281.117
#ExactMass 280.11
#Charge 1
#CAS_Number N/A
#Pubmed_ID N/A
#Smiles CC(C)Oc1ccc2c(=O)c(coc2c1)c3ccccc3
#INCHI_AUX N/A
#Library_Class 1
#SpectrumID CCMSLIB00000078937
#IonMode Positive
#UpdateWorkflowName UPDATE-SINGLE-ANNOTATED-GOLD
#LibraryQualityString Gold
#TaskID 278b19f5865741e282cec7349aa7e7a1
##Scan# 2476
#SpectrumFile NCP003272_E2_F11_BC2_01_15715.mzXML
#LibraryName NIHcollectionI_05062014.mgf
#MQScore -1
#Organism NIHcollectionI_05062014
#TIC_Query 0
#RT_Query -1
#MZErrorPPM -1
#SharedPeaks 0
#MassDiff 0
#LibMZ -1
#SpecMZ 281.117
#SpecCharge 0
#internalFilename spec-00000.mgf

>collision 10
45.044979 160.0
45.109837 164.0
45.586262 144.0
45.836555 144.0
46.174046 212.0
46.339195 148.0
47.484089 152.0
47.589931 148.0
49.191784 212.0
49.660534 220.0
51.147007 176.0
51.189716 144.0
51.587788 216.0
51.780952 168.0
52.604862 260.0
52.626518 160.0
53.771881 160.0
53.878475 140.0
54.518124 220.0
55.763203 156.0
56.186096 188.0
56.290577 164.0
56.380211 156.0
56.475895 144.0
56.812935 204.0
56.833939 148.0
58.452671 160.0
58.470055 196.0
58.878006 184.0
59.431751 196.0
59.899113 160.0
60.482796 232.0
60.98238 132.0
61.070095 152.0
61.195358 148.0
61.602398 188.0
61.796257 156.0
61.926186 200.0
62.170761 156.0
62.508621 164.0
62.691292 160.0
63.065331 152.0
63.93605 184.0
64.269096 140.0
64.318573 180.0
64.545433 176.0
65.053314 180.0
65.115936 188.0
65.358673 148.0
65.535789 208.0
65.5793 140.0
65.71476 176.0
65.777702 216.0
66.01358 168.0
66.16568 180.0
66.472229 152.0
66.849014 172.0
66.93692 216.0
67.775131 156.0
68.201561 164.0
68.459862 152.0
68.991158 180.0
69.053993 204.0
69.42662 176.0
70.119888 152.0
70.284187 152.0
70.853447 196.0
71.096581 232.0
71.108322 152.0
72.60141 156.0
73.856644 196.0
74.070602 212.0
74.199127 140.0
74.22142 140.0
74.46167 200.0
74.490578 260.0
74.752197 152.0
74.774574 216.0
75.340149 152.0
75.765724 232.0
76.042801 208.0
76.11087 172.0
76.25853 180.0
76.571701 228.0
77.040916 176.0
77.215706 148.0
77.346931 168.0
77.376694 160.0
77.848007 200.0
78.557663 176.0
78.852539 156.0
79.436852 188.0
80.401215 148.0
80.547623 180.0
82.437721 352.0
82.709015 152.0
83.642006 144.0
83.988205 152.0
84.167053 156.0
85.236786 180.0
85.288246 148.0
85.439034 196.0
86.492729 140.0
86.918983 224.0
87.201263 188.0
87.336044 220.0
88.03215 172.0
88.134888 216.0
89.01339 212.0
89.519234 156.0
90.730377 180.0
91.045349 184.0
91.921028 172.0
92.327927 140.0
92.436966 176.0
93.177078 200.0
93.777451 184.0
93.848778 156.0
94.761055 160.0
95.722527 172.0
95.932945 188.0
96.007034 176.0
96.14164 180.0
96.348618 152.0
96.820015 180.0
96.876816 192.0
97.090462 188.0
97.642319 172.0
97.756424 168.0
98.014381 160.0
99.27951 140.0
99.36084 216.0
100.042488 172.0
102.59272 144.0
102.873123 208.0
102.990242 180.0
103.051941 360.0
103.220634 148.0
103.560623 144.0
103.852486 180.0
103.970161 212.0
104.026993 144.0
104.826302 144.0
104.932289 148.0
105.033913 280.0
105.058739 204.0
105.117905 140.0
105.683907 156.0
105.737114 220.0
106.132103 176.0
107.11483 176.0
107.391037 140.0
108.059387 140.0
108.238335 160.0
108.375046 144.0
108.665314 200.0
108.94558 204.0
109.332321 252.0
109.517616 208.0
110.846985 164.0
111.007729 160.0
111.772339 208.0
112.043945 168.0
112.480469 140.0
113.271301 156.0
113.582901 180.0
113.928917 208.0
114.094673 216.0
114.152084 196.0
115.24984 152.0
115.696838 148.0
116.076073 212.0
116.391502 192.0
117.006416 172.0
117.05809 168.0
117.230423 164.0
117.284302 200.0
117.405037 176.0
117.75898 140.0
118.030861 168.0
118.420807 208.0
118.791458 140.0
119.080147 152.0
119.612846 180.0
119.902527 172.0
120.033325 192.0
120.138016 208.0
120.531013 200.0
121.036293 192.0
121.465843 176.0
121.595299 164.0
121.915932 160.0
122.276604 184.0
122.415298 188.0
122.435112 296.0
123.229218 204.0
123.44664 132.0
123.948311 148.0
124.167778 148.0
124.292007 160.0
124.880714 180.0
124.996391 172.0
125.134392 180.0
125.20565 192.0
125.575607 220.0
125.861252 180.0
126.58194 200.0
127.052429 116.0
127.123741 176.0
127.777596 216.0
128.065735 420.0
129.070633 468.0
129.133301 164.0
129.235092 180.0
130.148529 180.0
130.639435 156.0
131.056747 160.0
131.457382 208.0
131.482498 180.0
132.596268 156.0
132.726929 168.0
133.029144 572.0
133.201996 224.0
133.277817 220.0
133.728546 140.0
134.025604 328.0
134.784744 152.0
135.22876 196.0
135.76857 156.0
136.936172 152.0
137.023697 3116.0
137.660522 144.0
138.024094 704.0
139.057281 148.0
139.495056 144.0
139.890244 176.0
140.016327 204.0
140.057434 176.0
140.236496 176.0
141.07077 940.0
141.786911 204.0
141.881714 152.0
142.131622 176.0
143.084183 164.0
144.020996 164.0
144.30574 180.0
144.329285 140.0
144.484741 232.0
145.021133 140.0
145.150589 268.0
145.477646 164.0
147.109009 148.0
147.137985 184.0
147.299789 152.0
148.546417 164.0
148.684723 188.0
149.837296 148.0
150.351791 176.0
151.280594 168.0
152.058273 608.0
152.389099 160.0
152.83905 164.0
153.071091 2124.0
153.245316 368.0
153.407959 184.0
154.075821 1232.0
154.967407 140.0
155.03183 144.0
155.085907 3560.0
155.187988 144.0
155.635681 176.0
155.942291 140.0
156.086273 572.0
156.236053 176.0
156.285889 140.0
157.567337 164.0
158.640839 176.0
159.223068 140.0
159.700592 172.0
159.725739 176.0
159.768646 148.0
160.110825 156.0
160.241806 188.0
160.503937 156.0
160.705719 188.0
161.107147 164.0
161.974808 212.0
162.154709 184.0
163.032806 228.0
164.471786 172.0
164.653061 172.0
164.890656 204.0
165.07048 9796.0
165.837631 220.0
166.073288 1332.0
166.319839 148.0
166.723068 184.0
167.074524 292.0
167.132294 144.0
167.15477 164.0
167.564484 148.0
168.057068 716.0
168.842209 144.0
169.066742 420.0
169.152695 140.0
169.349472 196.0
169.657837 140.0
169.867874 244.0
170.439041 152.0
170.529999 208.0
170.779602 180.0
170.836823 148.0
171.077576 248.0
171.141327 168.0
171.832001 200.0
172.085159 152.0
172.176559 176.0
172.573746 152.0
172.90596 140.0
173.073486 144.0
173.280411 212.0
173.395706 176.0
173.563477 228.0
173.799545 144.0
174.04628 140.0
174.161819 176.0
175.227219 144.0
175.707047 144.0
176.176956 160.0
176.311722 148.0
176.557571 220.0
176.618408 140.0
176.787735 172.0
177.057755 188.0
178.344528 152.0
178.573181 224.0
179.03627 204.0
179.078873 180.0
179.769363 192.0
179.940201 176.0
180.057678 164.0
180.720093 164.0
180.77681 164.0
180.886551 140.0
181.06546 1584.0
181.476013 124.0
182.071747 652.0
182.815155 164.0
182.838852 124.0
183.018188 228.0
183.081024 20940.0
183.358749 132.0
183.598602 184.0
184.084579 3780.0
184.537231 144.0
185.088165 360.0
185.238144 236.0
185.395294 160.0
185.763062 168.0
186.282516 176.0
188.632751 168.0
189.677109 168.0
190.291595 156.0
190.676178 156.0
190.8246 160.0
190.854858 140.0
191.033234 144.0
192.844147 192.0
193.030441 140.0
193.076385 2204.0
193.702972 148.0
193.988388 160.0
194.076828 308.0
194.270325 144.0
195.012634 148.0
195.043671 168.0
195.830627 216.0
195.894684 216.0
196.921143 196.0
197.060715 372.0
197.799103 160.0
197.843903 168.0
198.065125 200.0
198.280853 180.0
199.175888 144.0
199.302307 200.0
199.695862 164.0
200.042969 212.0
200.565887 156.0
201.432159 152.0
201.867401 140.0
202.150284 180.0
202.345581 176.0
202.481506 240.0
202.872513 144.0
202.983093 144.0
203.32634 172.0
204.047836 208.0
204.121765 216.0
204.354996 176.0
204.961472 156.0
205.046967 140.0
205.069763 148.0
205.277878 168.0
206.360046 144.0
207.141312 180.0
207.319275 144.0
208.044617 148.0
209.102386 144.0
209.312546 144.0
209.352859 160.0
210.066513 148.0
211.074799 1776.0
212.074432 880.0
212.520966 172.0
212.895416 168.0
212.982544 180.0
213.0755 148.0
213.543503 176.0
213.828629 172.0
214.364777 184.0
215.891205 176.0
217.402817 152.0
218.339966 248.0
219.173035 164.0
220.081497 160.0
220.273468 160.0
220.669464 152.0
220.937195 160.0
221.060547 324.0
221.170746 164.0
221.92482 244.0
222.065353 196.0
222.242188 196.0
222.88089 148.0
223.168884 152.0
223.41275 148.0
223.535492 192.0
224.045868 444.0
225.906677 144.0
225.990448 152.0
226.640167 164.0
227.125839 160.0
227.536957 140.0
227.618011 160.0
228.243011 168.0
228.339249 236.0
230.310394 168.0
230.379868 140.0
231.844818 140.0
233.137085 160.0
234.881653 156.0
236.810318 144.0
237.050018 340.0
237.453949 144.0
237.555161 160.0
237.925842 152.0
238.004272 132.0
238.033951 164.0
238.075836 272.0
238.215149 256.0
238.316528 160.0
238.535446 292.0
238.596542 244.0
238.63681 396.0
238.67189 340.0
238.699005 224.0
238.721741 204.0
238.759186 344.0
238.822861 232.0
238.885559 224.0
238.971725 184.0
239.007416 176.0
239.071808 262068.0
239.148193 168.0
239.174896 344.0
239.281509 164.0
239.313248 280.0
239.375 332.0
239.418915 204.0
239.5047 204.0
239.544037 132.0
239.577393 1604.0
239.666946 128.0
239.694138 268.0
239.729065 148.0
239.765717 232.0
239.82753 152.0
239.860657 116.0
239.911255 172.0
240.007339 248.0
240.074524 44104.0
240.237244 144.0
240.275833 192.0
240.334213 172.0
240.417938 104.0
240.459152 204.0
240.608597 136.0
240.896393 172.0
241.000687 100.0
241.076492 3588.0
241.208313 152.0
241.307526 148.0
241.438187 168.0
241.470657 128.0
241.533356 200.0
241.581741 96.0
241.616974 276.0
241.682175 356.0
241.725098 280.0
241.775818 164.0
241.821487 148.0
241.90036 116.0
241.930557 132.0
241.969254 100.0
242.00885 112.0
242.047028 164.0
242.080582 448.0
242.351135 116.0
242.502151 104.0
242.556503 108.0
242.905823 188.0
242.979858 168.0
243.015823 144.0
244.681686 164.0
245.490524 164.0
245.709381 180.0
246.734512 208.0
247.400864 168.0
248.764511 156.0
251.080276 216.0
253.371918 180.0
254.24826 116.0
255.616699 152.0
257.205383 212.0
257.775482 172.0
268.141541 168.0
268.731781 144.0
271.184357 212.0
271.649963 196.0
272.690826 144.0
272.713837 180.0
274.010345 160.0
274.419037 140.0
275.213013 224.0
276.103088 224.0
278.974487 140.0
279.082275 100.0
279.165039 176.0
279.208954 164.0
279.340271 148.0
280.057129 224.0
280.105469 224.0
280.164398 120.0
280.281097 196.0
280.424042 116.0
280.467255 264.0
280.595764 168.0
280.642456 180.0
280.666992 380.0
280.691376 96.0
280.760773 212.0
280.808807 104.0
280.881927 148.0
280.939941 240.0
281.011322 160.0
281.035919 408.0
281.119171 158216.0
281.244843 344.0
281.292908 244.0
281.358887 124.0
281.43399 152.0
281.472137 128.0
281.501007 152.0
281.667542 2992.0
281.703247 220.0
281.757965 136.0
281.825378 136.0
281.873657 148.0
281.920654 208.0
281.962463 100.0
282.0177 116.0
282.062683 140.0
282.121185 34768.0
282.280151 96.0
282.477295 112.0
282.526093 112.0
282.624664 128.0
282.783844 116.0
282.865509 280.0
283.039734 136.0
283.122345 4484.0
283.170197 236.0
283.235748 176.0
283.270447 144.0
283.540466 152.0
283.605865 112.0
283.766876 168.0
283.806152 236.0
283.862 252.0
283.93457 140.0
283.973602 220.0
284.0755 212.0
284.121124 836.0
284.187042 232.0
284.223206 128.0
284.264893 200.0
285.226776 108.0
297.643433 144.0
297.715546 152.0
301.190674 156.0
328.316742 140.0
345.144836 172.0
365.408081 140.0
378.794983 140.0
418.004578 144.0
453.655548 144.0
697.606018 172.0
1119.520508 140.0
1239.344116 168.0
1299.164307 160.0
1355.502441 272.0
1376.533203 176.0
1381.936401 260.0
1470.178345 168.0
1503.407715 180.0
1575.756714 176.0
1623.043823 184.0
1649.983032 180.0
1665.453369 236.0
1715.458862 160.0
1718.196777 164.0
1731.157104 192.0
1767.049072 172.0
1771.779297 152.0
1791.10022 176.0
1808.83252 180.0
1809.052612 192.0
1881.774902 140.0
1906.557129 168.0
1925.63562 156.0
1941.512451 140.0
1948.455444 164.0
1966.03064 152.0
1979.369995 152.0
1980.911011 168.0
1984.562256 228.0
1984.899292 184.0
1995.180664 188.0
1999.076538 156.0
