>compound MLS002153874-01!Prenylamine lactate69-43-2
>formula C24H27N
>ionization [M+H]+
>parentmass 330.2216263160906
#inchi InChI=1S/C24H27N/c1-20(19-21-11-5-2-6-12-21)25-18-17-24(22-13-7-3-8-14-22)23-15-9-4-10-16-23/h2-16,20,24-25H,17-19H2,1H3
#inchikey IFFPICMESYHZPQ
#origInchi InChI=1S/C24H27N.C3H6O3/c1-20(19-21-11-5-2-6-12-21)25-18-17-24(22-13-7-3-8-14-22)23-15-9-4-10-16-23;1-2(4)3(5)6/h2-16,20,24-25H,17-19H2,1H3;2,4H,1H3,(H,5,6)
#Ion_Source LC-ESI
#Instrument qTof
#Compound_Source NIH Pharmacologically Active Library
#PI Dorrestein
#Data_Collector VP/LMS
#Scan -1
#Precursor_MZ 330.227
#ExactMass 329.214
#Charge 1
#CAS_Number N/A
#Pubmed_ID N/A
#Smiles CC(Cc1ccccc1)NCCC(c2ccccc2)c3ccccc3.CC(O)C(=O)O
#INCHI_AUX N/A
#Library_Class 1
#SpectrumID CCMSLIB00000085621
#IonMode Positive
#UpdateWorkflowName UPDATE-SINGLE-ANNOTATED-GOLD
#LibraryQualityString Gold
#TaskID d252d724072548979f1f6f1ced849daf
##Scan# 1926
#SpectrumFile p4-D06_GD6_01_18366.mzXML
#LibraryName Pharm_Active_Library.mgf
#MQScore -1
#Organism Pharm_Active_Library
#TIC_Query 0
#RT_Query -1
#MZErrorPPM -1
#SharedPeaks 0
#MassDiff 0
#LibMZ -1
#SpecMZ 330.227
#SpecCharge 0
#internalFilename spec-00000.mgf

>collision 10
44.988125 164.0
45.040203 48.0
45.064251 160.0
45.121723 148.0
45.156044 96.0
45.39085 160.0
45.608341 152.0
45.641949 144.0
45.846565 196.0
45.924763 260.0
46.100273 168.0
46.189426 152.0
46.295074 184.0
46.333 168.0
46.391273 188.0
46.430595 156.0
46.642406 212.0
46.813835 232.0
46.846523 40.0
46.858784 164.0
47.019688 176.0
47.071564 84.0
47.101612 156.0
47.12347 228.0
47.183605 148.0
47.279354 200.0
47.424534 96.0
47.52327 188.0
47.58778 96.0
47.730679 168.0
47.817005 172.0
47.955074 160.0
47.999191 180.0
48.120613 180.0
48.162041 160.0
48.178421 140.0
48.240807 80.0
48.34454 164.0
48.434536 212.0
48.45393 224.0
48.935867 148.0
48.998543 208.0
49.012474 136.0
49.052891 180.0
49.19239 160.0
49.206348 148.0
49.228691 192.0
49.462177 212.0
49.471977 192.0
49.586834 232.0
49.654133 228.0
49.756569 168.0
49.846458 132.0
49.885815 164.0
49.90831 36.0
50.182869 132.0
50.290081 212.0
50.405888 248.0
50.415779 152.0
50.598248 204.0
50.799484 180.0
50.941441 132.0
51.058754 152.0
51.186069 156.0
51.311455 132.0
51.392754 136.0
51.486969 208.0
51.5443 180.0
51.578407 156.0
51.602058 152.0
51.969238 208.0
52.03109 188.0
52.130199 148.0
52.158943 148.0
52.297028 136.0
52.344536 44.0
52.632931 108.0
52.745617 176.0
52.755737 140.0
52.857586 172.0
52.984394 204.0
53.228065 136.0
53.438828 192.0
53.668957 164.0
53.73605 164.0
53.985828 172.0
54.001915 228.0
54.032635 176.0
54.070679 184.0
54.135151 212.0
54.159992 132.0
54.215668 208.0
54.253777 200.0
54.2831 116.0
54.330036 164.0
54.644436 188.0
54.706249 228.0
54.82164 232.0
54.880096 148.0
54.939091 120.0
55.089668 196.0
55.169468 184.0
55.249325 216.0
55.41959 140.0
55.450706 112.0
55.704437 68.0
55.760899 212.0
55.908131 28.0
55.957253 192.0
56.057053 220.0
56.115181 196.0
56.186771 48.0
56.259899 196.0
56.324108 180.0
56.536419 204.0
56.663692 56.0
56.854126 96.0
57.005417 140.0
57.041874 168.0
57.172729 192.0
57.240471 68.0
57.261555 200.0
57.302097 188.0
57.439915 204.0
57.548069 136.0
57.718811 128.0
57.783848 128.0
58.159672 176.0
58.200661 196.0
58.214325 116.0
58.314594 40.0
58.472771 132.0
58.588497 148.0
58.687561 168.0
58.942471 168.0
59.072426 208.0
59.099964 164.0
59.158119 196.0
59.196396 104.0
59.351162 156.0
59.42939 124.0
59.489243 52.0
59.670525 180.0
59.795124 184.0
59.836685 156.0
59.913689 132.0
59.932178 144.0
59.986118 140.0
60.015411 120.0
60.077103 60.0
60.090988 124.0
60.158894 128.0
60.242283 152.0
60.369022 184.0
60.469582 76.0
60.550091 104.0
60.810558 224.0
60.820572 200.0
60.961205 188.0
60.976746 212.0
61.033386 180.0
61.068474 148.0
61.09803 136.0
61.16806 184.0
61.266167 172.0
61.512558 140.0
61.55159 148.0
61.768829 156.0
61.831413 160.0
62.022495 248.0
62.097759 192.0
62.218582 244.0
62.334812 104.0
62.374104 124.0
62.488907 88.0
62.536114 224.0
62.61956 144.0
62.856258 56.0
63.18784 164.0
63.526867 96.0
63.615734 268.0
63.760273 172.0
63.801601 176.0
63.887478 152.0
64.344872 204.0
64.515816 232.0
64.725403 192.0
64.75103 120.0
65.015556 160.0
65.145615 124.0
65.267761 192.0
65.325661 188.0
65.544617 204.0
65.665527 184.0
65.72683 208.0
65.7817 164.0
65.794617 128.0
65.886673 188.0
65.948074 184.0
66.033768 32.0
66.090385 224.0
66.302521 224.0
66.474419 184.0
66.958878 152.0
67.247459 252.0
67.485962 248.0
67.695412 140.0
67.711784 176.0
67.741264 212.0
67.808449 232.0
67.967522 172.0
67.994087 168.0
68.110352 148.0
68.302666 116.0
68.314178 144.0
68.473846 172.0
68.518318 180.0
68.646881 156.0
68.821793 160.0
68.950645 140.0
69.117668 188.0
69.177246 132.0
69.261696 68.0
69.392616 72.0
69.477196 300.0
69.517021 168.0
69.553535 112.0
69.590057 148.0
69.611641 120.0
69.884247 192.0
70.294151 148.0
70.33754 128.0
70.354233 144.0
70.609886 88.0
70.757141 172.0
70.92131 40.0
70.954834 276.0
70.995079 192.0
71.013527 176.0
71.090698 148.0
71.189743 64.0
71.211578 144.0
71.310707 48.0
71.418312 136.0
71.578194 124.0
71.681854 216.0
71.783775 52.0
71.84449 176.0
71.859673 152.0
71.876549 156.0
72.026802 132.0
72.040321 216.0
72.087624 84.0
72.118744 224.0
72.156929 136.0
72.299011 44.0
72.453102 208.0
72.468346 132.0
72.520882 192.0
72.644661 132.0
72.749878 228.0
72.763458 156.0
72.932823 252.0
72.937813 176.0
72.945267 188.0
72.994537 36.0
73.028549 176.0
73.088097 148.0
73.132339 56.0
73.171494 200.0
73.297531 128.0
73.309464 180.0
73.432213 212.0
73.72757 144.0
73.831856 84.0
74.040642 176.0
74.136581 172.0
74.38356 156.0
74.421326 176.0
74.488304 184.0
74.634384 180.0
74.708344 160.0
74.813316 160.0
74.844307 172.0
74.899422 72.0
75.239136 136.0
75.34288 172.0
75.508698 188.0
75.666161 228.0
75.846329 216.0
75.919144 152.0
76.082245 156.0
76.174286 204.0
76.219452 148.0
76.452148 172.0
76.631828 180.0
76.668419 256.0
76.767784 124.0
76.93354 156.0
77.069771 56.0
77.082001 172.0
77.178139 172.0
77.262093 180.0
77.297089 232.0
77.437134 252.0
77.670258 92.0
77.877373 116.0
78.111153 84.0
78.209686 164.0
78.225533 200.0
78.332947 212.0
78.424576 40.0
79.207336 164.0
79.221512 172.0
79.381027 140.0
79.54425 228.0
79.760963 144.0
79.787628 168.0
79.858757 144.0
80.152496 144.0
80.23674 212.0
80.318298 160.0
80.357544 140.0
80.494987 180.0
80.646843 212.0
80.677231 160.0
80.699722 240.0
81.002922 152.0
81.060249 148.0
81.183945 136.0
81.273636 140.0
81.340034 52.0
81.789413 252.0
81.83622 184.0
81.969513 196.0
82.225594 120.0
82.241837 164.0
82.268913 64.0
82.324883 128.0
82.342941 184.0
82.371841 164.0
82.451347 116.0
82.695503 88.0
82.851234 96.0
82.97628 204.0
83.063332 60.0
83.577469 52.0
83.599304 60.0
83.628426 220.0
83.726738 184.0
83.739487 148.0
83.877968 156.0
84.007439 200.0
84.038452 148.0
84.093201 184.0
84.147964 108.0
84.288605 128.0
84.711235 164.0
84.874344 144.0
85.184509 180.0
85.474495 176.0
86.186752 136.0
86.427124 200.0
86.478943 192.0
86.510414 180.0
87.503639 120.0
87.814842 160.0
87.91185 116.0
87.947311 104.0
87.963737 160.0
87.986511 136.0
88.305962 180.0
88.560593 72.0
88.706749 92.0
88.732994 164.0
89.040733 80.0
89.104599 156.0
89.241806 140.0
89.424278 80.0
89.61824 136.0
89.65593 120.0
89.869011 180.0
90.336739 128.0
90.691643 84.0
90.778854 104.0
90.875687 156.0
90.904053 40.0
90.934418 168.0
90.957191 132.0
90.970482 148.0
90.994453 216.0
91.012383 184.0
91.031242 172.0
91.055191 41184.0
91.129211 76.0
91.18248 72.0
91.22715 36.0
91.242142 36.0
91.301094 64.0
91.322014 72.0
91.341034 140.0
91.365761 140.0
91.398109 48.0
91.417137 52.0
91.478958 116.0
91.676125 60.0
91.708527 156.0
91.739021 136.0
91.840088 76.0
91.883965 28.0
92.004944 184.0
92.05722 5564.0
92.088211 140.0
92.126419 144.0
92.202843 52.0
92.216225 68.0
92.42276 200.0
92.453796 108.0
92.468689 144.0
92.508881 52.0
92.529938 72.0
92.543343 84.0
92.573982 156.0
92.611198 172.0
92.660172 156.0
92.784744 100.0
92.817345 180.0
92.859535 108.0
92.936264 132.0
93.003433 72.0
93.06205 360.0
93.208923 72.0
93.322327 72.0
93.703415 52.0
93.738098 108.0
93.874962 80.0
94.004211 160.0
94.062111 220.0
94.148994 60.0
94.859077 156.0
94.876526 76.0
95.117073 120.0
95.146194 112.0
95.210266 100.0
95.297684 96.0
95.383194 144.0
95.671097 88.0
96.468971 140.0
96.490479 156.0
96.543274 212.0
96.834877 88.0
96.932831 120.0
97.064163 52.0
97.238762 104.0
97.266243 160.0
97.346733 148.0
97.464592 160.0
97.649384 88.0
97.808762 60.0
97.995842 128.0
98.065033 108.0
98.303444 128.0
98.344894 160.0
98.520638 172.0
98.619438 196.0
98.82708 52.0
98.856766 172.0
98.900299 44.0
99.20932 172.0
99.512863 120.0
100.536003 188.0
101.424019 164.0
101.885559 184.0
102.044334 148.0
102.289764 64.0
102.458923 88.0
102.577827 136.0
102.618141 148.0
102.714943 164.0
102.914742 216.0
103.054871 348.0
103.300751 144.0
103.359421 168.0
103.387756 52.0
104.064789 184.0
104.137894 156.0
104.511948 144.0
104.691078 140.0
104.902977 128.0
104.984535 152.0
105.077026 208.0
105.492935 212.0
105.68895 176.0
105.955437 168.0
106.0784 240.0
107.130547 136.0
107.309845 196.0
108.181679 180.0
109.819084 48.0
111.023758 152.0
111.899986 120.0
111.982117 104.0
112.125381 152.0
112.557838 140.0
112.589516 124.0
113.090584 140.0
113.484612 136.0
113.507935 232.0
114.091812 120.0
114.321533 136.0
114.489708 152.0
114.600479 192.0
114.8563 128.0
114.896828 180.0
114.918167 204.0
115.020599 132.0
115.054733 4596.0
115.084648 116.0
115.232018 124.0
115.460739 244.0
115.835304 204.0
116.002449 148.0
116.054016 148.0
116.416542 148.0
116.801254 116.0
116.977707 140.0
117.033684 184.0
117.069748 8920.0
117.106903 192.0
117.120972 128.0
117.177986 56.0
117.320229 72.0
117.434517 60.0
117.499229 80.0
117.533752 36.0
117.699951 56.0
118.021614 208.0
118.07338 1160.0
118.409264 136.0
118.625938 128.0
118.725677 128.0
118.8797 188.0
118.973038 180.0
119.085564 6612.0
119.335854 128.0
119.507683 64.0
119.618675 52.0
119.682777 164.0
120.028259 112.0
120.089722 628.0
120.204948 96.0
120.314079 56.0
120.338097 100.0
120.762039 168.0
121.059677 160.0
121.153862 152.0
121.252464 116.0
121.653862 212.0
121.96579 176.0
122.212097 100.0
122.575409 180.0
125.074265 176.0
125.316353 204.0
126.03257 84.0
126.300842 88.0
126.361244 188.0
127.001923 152.0
127.401489 48.0
127.576775 44.0
127.610504 132.0
128.05722 164.0
128.083084 148.0
128.173203 100.0
128.324219 220.0
128.649094 132.0
128.719086 112.0
128.809418 180.0
129.07402 156.0
129.091934 148.0
129.759903 72.0
130.659271 56.0
130.752563 120.0
131.085052 80.0
131.178497 76.0
131.196732 124.0
131.379166 112.0
131.591415 248.0
131.819839 240.0
131.979843 176.0
133.077362 248.0
134.024994 204.0
134.6409 152.0
134.675552 44.0
134.717133 172.0
134.95517 176.0
135.54541 280.0
136.820541 212.0
137.314529 160.0
138.045502 196.0
138.954315 196.0
139.088089 116.0
139.163208 164.0
140.35614 136.0
140.433975 168.0
141.071152 328.0
141.231049 60.0
142.526718 120.0
143.061844 176.0
143.092804 188.0
143.533585 196.0
143.59082 208.0
143.664764 100.0
144.352646 120.0
144.500931 128.0
144.733109 116.0
144.795364 192.0
144.936707 204.0
145.066132 180.0
145.102081 172.0
145.581985 368.0
145.654037 148.0
145.846252 112.0
146.681503 76.0
148.635666 212.0
148.766724 188.0
149.05574 132.0
149.342621 152.0
149.926926 200.0
150.458679 224.0
151.053864 404.0
151.811768 188.0
152.061325 3944.0
152.617188 200.0
153.064621 760.0
153.303955 180.0
154.063904 176.0
154.269012 72.0
154.867844 260.0
155.009048 208.0
155.046219 144.0
155.152802 68.0
156.019226 76.0
156.302765 180.0
156.723572 168.0
157.424515 144.0
158.127014 216.0
158.883759 144.0
159.26532 160.0
159.433655 172.0
159.675003 232.0
160.248932 168.0
160.690155 160.0
160.912247 104.0
162.877411 124.0
162.994278 132.0
163.782928 152.0
164.035202 196.0
164.067963 160.0
164.892822 184.0
164.964386 152.0
165.069534 5204.0
165.312225 76.0
165.593842 60.0
165.724487 188.0
165.773178 188.0
165.819305 180.0
165.84494 208.0
165.932098 88.0
166.032089 216.0
166.076859 2528.0
166.155212 80.0
166.18483 156.0
166.558258 164.0
166.69722 136.0
166.750961 40.0
166.784363 180.0
166.856354 120.0
166.894913 148.0
166.948868 144.0
167.039322 312.0
167.086121 25380.0
167.147842 48.0
167.198456 60.0
167.223129 116.0
167.308609 60.0
167.394104 132.0
167.476517 64.0
167.502274 108.0
167.556381 84.0
167.615631 160.0
167.641403 52.0
167.682632 76.0
167.741928 56.0
167.785751 48.0
167.816681 40.0
167.922409 48.0
167.948196 40.0
167.980453 240.0
168.015274 68.0
168.046234 64.0
168.088623 1900.0
168.167526 184.0
168.19075 48.0
168.392136 48.0
168.51207 168.0
168.751328 40.0
169.064331 236.0
169.08432 256.0
169.102798 212.0
169.170441 40.0
169.196335 48.0
169.219635 76.0
169.367249 92.0
169.411285 88.0
169.546021 68.0
169.618591 60.0
169.652283 128.0
169.696365 52.0
169.809814 96.0
169.96611 68.0
170.173752 136.0
170.459473 84.0
170.584229 48.0
171.0811 104.0
172.476685 120.0
172.929184 104.0
175.010925 128.0
175.99707 80.0
177.545105 72.0
177.770584 96.0
178.072403 192.0
178.301727 40.0
179.081894 380.0
179.121216 72.0
179.571671 52.0
179.595688 160.0
180.086502 236.0
180.929123 140.0
181.784134 36.0
184.756058 100.0
185.037521 160.0
187.17981 152.0
188.147736 136.0
188.347076 72.0
192.22644 164.0
192.693085 204.0
192.770447 212.0
192.936279 208.0
193.077301 200.0
193.102188 204.0
194.103165 116.0
194.729111 60.0
195.115646 1704.0
195.14444 216.0
195.618881 48.0
196.11937 412.0
197.038361 176.0
198.996063 124.0
200.943695 52.0
203.496613 124.0
207.104065 92.0
207.126465 200.0
207.149902 172.0
209.13118 164.0
209.168594 148.0
210.94841 48.0
211.544327 108.0
212.016449 176.0
212.143753 2964.0
212.242554 52.0
212.291092 184.0
212.631271 52.0
212.715454 116.0
213.084259 32.0
213.145111 644.0
213.796661 156.0
214.152405 176.0
214.653122 144.0
214.676437 112.0
215.032364 56.0
216.713821 56.0
216.87207 164.0
217.919708 124.0
218.719604 84.0
221.128098 204.0
223.142273 228.0
224.983444 32.0
225.494217 152.0
233.119125 104.0
233.283249 68.0
234.366714 40.0
234.705048 100.0
235.367188 72.0
236.330002 56.0
238.162949 576.0
239.15947 156.0
240.846085 140.0
243.677521 80.0
244.19664 116.0
248.121826 176.0
250.519684 168.0
250.626801 108.0
250.869476 136.0
263.860626 80.0
269.101257 44.0
270.503754 52.0
276.13031 80.0
285.166687 120.0
288.827637 120.0
290.016113 72.0
310.190399 120.0
315.962311 108.0
326.075256 160.0
326.674835 80.0
329.16983 48.0
330.100464 156.0
330.219147 3508.0
330.497803 92.0
330.612183 28.0
330.695435 96.0
330.858337 56.0
331.169739 60.0
331.225952 848.0
331.354492 32.0
331.546539 60.0
331.666138 48.0
332.086731 52.0
332.224609 312.0
332.485809 68.0
333.164825 76.0
334.674164 72.0
334.95459 104.0
341.561768 112.0
341.616943 48.0
372.455048 132.0
397.376892 40.0
404.070312 40.0
415.910187 64.0
444.678375 88.0
446.333557 108.0
448.522766 40.0
456.779938 72.0
462.305176 48.0
495.706482 96.0
497.067841 136.0
597.108032 48.0
653.202698 80.0
664.308228 48.0
681.090088 156.0
682.576416 88.0
725.334778 192.0
729.855225 140.0
730.391296 224.0
733.144226 204.0
735.177307 140.0
738.294434 168.0
738.732544 220.0
741.678284 184.0
754.394348 164.0
763.534729 168.0
767.466553 152.0
769.668091 180.0
772.674866 132.0
776.280701 68.0
781.646729 128.0
782.036316 40.0
782.531738 152.0
783.612244 112.0
784.058044 188.0
785.38501 160.0
789.931885 120.0
790.161255 132.0
794.817261 144.0
795.597412 164.0
799.430725 188.0
807.860229 204.0
811.422424 112.0
811.842041 68.0
812.795898 192.0
817.716431 184.0
821.106323 224.0
821.231812 36.0
821.294556 152.0
825.217773 168.0
826.281555 172.0
830.509216 172.0
830.715698 172.0
837.429443 220.0
837.76355 48.0
838.483765 128.0
839.682983 176.0
840.559814 216.0
844.381409 184.0
844.598206 168.0
848.628784 200.0
849.533569 160.0
851.495422 188.0
851.675476 124.0
855.228149 224.0
856.14801 160.0
858.922363 164.0
859.464905 60.0
859.680786 148.0
861.245483 204.0
861.946533 188.0
864.970154 88.0
865.040405 252.0
865.116516 156.0
866.270142 108.0
867.190125 196.0
867.33667 120.0
871.756042 164.0
875.261963 116.0
879.778198 184.0
881.561951 68.0
890.276184 84.0
890.739441 176.0
890.798828 232.0
892.647278 224.0
892.891113 164.0
896.129333 160.0
898.764771 184.0
899.385437 208.0
899.743591 176.0
901.015686 152.0
908.235046 176.0
908.487 56.0
908.924988 164.0
909.195068 196.0
909.585144 120.0
910.936279 64.0
911.897644 148.0
911.969788 160.0
912.186157 160.0
912.552917 148.0
912.631042 156.0
915.80249 56.0
918.183167 140.0
918.277283 228.0
919.631165 192.0
919.932983 208.0
920.566956 272.0
922.179993 184.0
922.899414 184.0
924.199829 168.0
926.755005 164.0
928.488647 140.0
929.028503 132.0
929.21051 188.0
930.296814 232.0
932.10675 176.0
932.544312 268.0
933.085327 160.0
933.158264 76.0
933.431885 52.0
933.888 160.0
934.125244 200.0
935.098816 152.0
937.175354 208.0
939.296936 156.0
943.852966 60.0
945.475342 204.0
945.749451 188.0
946.086121 60.0
946.135132 256.0
948.61615 192.0
949.676941 196.0
952.531189 164.0
953.200867 144.0
953.796997 164.0
955.888062 136.0
957.975281 168.0
958.369568 188.0
958.745422 184.0
959.540588 164.0
962.236694 168.0
965.579712 64.0
966.377686 188.0
967.002686 184.0
970.61438 172.0
971.184937 152.0
971.364807 200.0
971.433044 132.0
972.587219 184.0
973.518494 172.0
973.636475 128.0
975.220825 208.0
975.842468 184.0
976.570007 140.0
976.706848 160.0
977.584106 184.0
978.872681 116.0
979.632507 128.0
979.676147 208.0
982.506409 88.0
982.55011 60.0
983.473633 136.0
983.835693 104.0
984.241516 104.0
984.566284 152.0
984.716125 132.0
985.915649 204.0
986.140686 144.0
987.084656 172.0
987.722595 216.0
989.280762 64.0
991.861572 152.0
992.005737 164.0
993.310059 164.0
993.523376 168.0
995.230469 208.0
995.69519 80.0
996.700317 152.0
997.724792 232.0
1000.159241 252.0
1000.480286 128.0
1000.643982 164.0
1000.732117 188.0
1000.801392 228.0
1002.577759 152.0
1003.252197 240.0
1004.55127 196.0
1005.472473 188.0
1005.522949 148.0
1006.280457 192.0
1006.570923 196.0
1006.772949 168.0
1006.962463 136.0
1007.177185 272.0
1009.857178 180.0
1010.046936 164.0
1010.19873 144.0
1010.331543 236.0
1011.793518 132.0
1014.872681 164.0
1014.923401 152.0
1015.437073 328.0
1015.83667 200.0
1016.947083 204.0
1017.645386 180.0
1017.816833 136.0
1019.131653 104.0
1019.926025 152.0
1020.618958 132.0
1021.751099 236.0
1022.540161 236.0
1022.839294 192.0
1024.138184 116.0
1027.03833 104.0
1031.821411 180.0
1032.831787 236.0
1034.866821 188.0
1035.091064 208.0
1035.41748 112.0
1035.955566 176.0
1037.012817 140.0
1037.538452 112.0
1037.769287 228.0
1040.553833 248.0
1040.868408 152.0
1041.478516 52.0
1042.313721 72.0
1042.615723 188.0
1042.692871 224.0
1042.789307 208.0
1045.220215 148.0
1046.501099 164.0
1046.951782 124.0
1048.214478 120.0
1048.324829 172.0
1048.73645 244.0
1048.807373 140.0
1049.303711 80.0
1049.555176 120.0
1050.754883 204.0
1051.877686 224.0
1052.368408 196.0
1052.691284 196.0
1054.04126 128.0
1054.823364 140.0
1055.605591 208.0
1056.000122 224.0
1056.388184 224.0
1058.265015 148.0
1058.80249 184.0
1059.152222 184.0
1059.748291 168.0
1061.336304 176.0
1061.679932 168.0
1061.764282 148.0
1062.283203 204.0
1064.723633 200.0
1064.976929 164.0
1065.158813 188.0
1067.264526 192.0
1071.690552 124.0
1071.885986 184.0
1072.524658 40.0
1073.77002 156.0
1075.303223 180.0
1075.544678 148.0
1075.662231 32.0
1076.373901 148.0
1077.004761 236.0
1077.183716 140.0
1077.673706 184.0
1078.503662 188.0
1078.56897 224.0
1078.614746 28.0
1079.000488 184.0
1080.962646 148.0
1081.473145 180.0
1081.584473 196.0
1082.245605 192.0
1082.723633 156.0
1082.998779 140.0
1083.090454 116.0
1085.318726 132.0
1086.164673 168.0
1087.253784 148.0
1089.085571 192.0
1089.670288 140.0
1092.102539 196.0
1092.497192 180.0
1093.372314 188.0
1095.759155 168.0
1096.704956 168.0
1097.819214 132.0
1098.016968 188.0
1098.86792 112.0
1101.204834 172.0
1102.552612 152.0
1102.816895 172.0
1104.125977 40.0
1105.482178 152.0
1105.952148 176.0
1107.905518 216.0
1108.793457 120.0
1109.35022 172.0
1109.880615 136.0
1110.736206 148.0
1111.658325 28.0
1112.746948 152.0
1113.181274 212.0
1113.703247 72.0
1114.208008 180.0
1114.597046 184.0
1114.859253 284.0
1115.018677 120.0
1115.078491 204.0
1115.676758 44.0
1115.822998 152.0
1116.361572 184.0
1117.153076 172.0
1120.308594 200.0
1120.941528 104.0
1121.368042 184.0
1121.981323 60.0
1122.628052 176.0
1125.323853 196.0
1126.158569 176.0
1126.445801 132.0
1126.606079 180.0
1126.692993 160.0
1127.093872 100.0
1128.036255 184.0
1128.524292 156.0
1128.611206 136.0
1128.838501 164.0
1129.393555 56.0
1132.030518 204.0
1132.338623 172.0
1133.356812 148.0
1133.551147 120.0
1134.670532 40.0
1134.824707 196.0
1136.293457 140.0
1136.340454 144.0
1137.394043 148.0
1138.280273 196.0
1140.356201 164.0
1140.450317 128.0
1141.532715 188.0
1143.651855 168.0
1145.436279 120.0
1145.867432 192.0
1147.518677 164.0
1148.139038 200.0
1148.368286 68.0
1150.088867 152.0
1152.141724 148.0
1152.479492 236.0
1152.661987 156.0
1152.817383 172.0
1153.046265 216.0
1154.493896 168.0
1154.825317 148.0
1154.987671 136.0
1156.22583 76.0
1156.35437 288.0
1156.746948 148.0
1157.187012 124.0
1157.891235 108.0
1159.591797 168.0
1160.432373 108.0
1160.900269 164.0
1161.51062 160.0
1163.132446 168.0
1163.750122 52.0
1164.721313 144.0
1164.986206 196.0
1165.387085 128.0
1165.611328 220.0
1165.828735 136.0
1166.88916 208.0
1167.249512 156.0
1168.296875 208.0
1168.353394 144.0
1169.05896 48.0
1169.487793 212.0
1169.916626 188.0
1170.692749 204.0
1170.740479 192.0
1171.360229 268.0
1172.832153 124.0
1173.534302 176.0
1173.67749 168.0
1175.236572 184.0
1175.628418 172.0
1175.901367 200.0
1176.215332 200.0
1177.328247 148.0
1177.990723 196.0
1178.07959 204.0
1178.24353 168.0
1178.605591 76.0
1179.760742 140.0
1181.490845 160.0
1181.627686 68.0
1184.441284 160.0
1185.24292 240.0
1186.366943 188.0
1188.527344 160.0
1188.994019 160.0
1189.282227 100.0
1191.2323 220.0
1191.981201 252.0
1192.221802 156.0
1192.551636 124.0
1192.874756 164.0
1192.929688 432.0
1194.071045 128.0
1194.511353 144.0
1195.797974 80.0
1197.725952 184.0
1198.001465 108.0
1198.449219 168.0
1198.773071 192.0
1200.942627 204.0
1202.938965 108.0
1203.118408 160.0
1205.390869 208.0
1205.446045 184.0
1207.091309 176.0
1207.644531 168.0
1208.16333 108.0
1209.879639 48.0
1210.17041 124.0
1212.421753 180.0
1213.288208 108.0
1214.210327 188.0
1214.258911 140.0
1214.876221 132.0
1215.205933 156.0
1215.847656 160.0
1215.910156 232.0
1220.168213 92.0
1220.578491 120.0
1221.983398 156.0
1223.403198 160.0
1223.869629 124.0
1224.092529 196.0
1224.377319 168.0
1224.510376 184.0
1224.781982 236.0
1226.015137 200.0
1226.105713 180.0
1226.677368 180.0
1227.224731 168.0
1227.332642 96.0
1227.520874 180.0
1227.778931 172.0
1228.867188 148.0
1229.048584 216.0
1229.243896 176.0
1229.767334 192.0
1231.666504 172.0
1233.042969 156.0
1233.224731 140.0
1233.32959 192.0
1234.280273 76.0
1235.126587 160.0
1235.378418 208.0
1235.88916 184.0
1239.067749 204.0
1239.859619 148.0
1239.97876 204.0
1240.336182 96.0
1240.399292 176.0
1240.861938 156.0
1241.163452 160.0
1241.640381 292.0
1242.783691 136.0
1243.253906 68.0
1244.110229 220.0
1245.837769 168.0
1245.922119 160.0
1246.161011 136.0
1246.210205 184.0
1247.629883 144.0
1248.9729 56.0
1249.268433 152.0
1249.528687 120.0
1250.147949 200.0
1250.760254 140.0
1252.76709 204.0
1253.203979 180.0
1253.508057 128.0
1254.761597 148.0
1255.706421 108.0
1256.665771 196.0
1257.413818 228.0
1257.505615 152.0
1258.218506 108.0
1258.366821 112.0
1258.508057 84.0
1260.111328 136.0
1260.188965 128.0
1260.309082 148.0
1261.044067 92.0
1261.157104 148.0
1261.46106 120.0
1262.231812 324.0
1263.094604 208.0
1263.165283 220.0
1263.646362 176.0
1264.920288 228.0
1265.232422 224.0
1266.123901 180.0
1269.631958 196.0
1269.702881 196.0
1270.185181 168.0
1270.745605 200.0
1271.46228 140.0
1272.733032 140.0
1273.83374 168.0
1274.956421 72.0
1275.382812 108.0
1276.491943 68.0
1276.548828 168.0
1278.818237 160.0
1279.316528 40.0
1279.39978 196.0
1279.572876 92.0
1283.334717 172.0
1283.81958 156.0
1283.919434 172.0
1284.996582 184.0
1286.045532 228.0
1287.180664 168.0
1287.602051 56.0
1287.666382 224.0
1289.416748 208.0
1289.731201 204.0
1290.503296 232.0
1290.75354 168.0
1291.697632 152.0
1292.234131 168.0
1292.505981 72.0
1292.577637 108.0
1293.457886 116.0
1295.283813 60.0
1295.534546 32.0
1295.685059 128.0
1296.344238 44.0
1297.749146 164.0
1298.200928 180.0
1300.166504 176.0
1300.317261 204.0
1301.717163 144.0
1302.528687 48.0
1303.671143 116.0
1305.223877 60.0
1306.712646 132.0
1307.425049 132.0
1308.26001 112.0
1309.289673 208.0
1309.801025 128.0
1310.584106 236.0
1311.379028 148.0
1312.828125 56.0
1313.506104 124.0
1314.862549 160.0
1315.916504 156.0
1316.876831 164.0
1317.635376 216.0
1317.801514 220.0
1317.90271 340.0
1320.72937 196.0
1322.205322 116.0
1322.444214 204.0
1322.552734 172.0
1322.907471 176.0
1324.522217 156.0
1324.616455 200.0
1325.362671 140.0
1325.536499 160.0
1326.239502 80.0
1327.500977 188.0
1327.718628 128.0
1329.379883 132.0
1329.590332 216.0
1329.996826 180.0
1330.817139 264.0
1331.12207 76.0
1331.230957 164.0
1331.456177 156.0
1331.819336 148.0
1332.276978 136.0
1333.185181 140.0
1333.919312 188.0
1334.820801 160.0
1337.061401 184.0
1337.811157 204.0
1338.582886 192.0
1338.837769 148.0
1338.998047 172.0
1339.347656 136.0
1340.615356 152.0
1341.030762 136.0
1341.32959 288.0
1342.211792 200.0
1344.743164 216.0
1346.488159 172.0
1346.539185 188.0
1347.09436 188.0
1349.213623 160.0
1351.173584 116.0
1351.890747 100.0
1352.219971 128.0
1352.834839 156.0
1352.966675 188.0
1354.130981 208.0
1355.031982 232.0
1355.464233 164.0
1357.20874 148.0
1358.697632 120.0
1359.049805 116.0
1360.5177 224.0
1361.296021 28.0
1361.670532 228.0
1361.868896 156.0
1362.698975 172.0
1364.404053 148.0
1364.668701 220.0
1364.992188 144.0
1365.249634 200.0
1365.985107 180.0
1366.522217 196.0
1366.676636 160.0
1366.757568 152.0
1367.486206 132.0
1368.097168 164.0
1368.892334 116.0
1369.50354 208.0
1371.153931 204.0
1371.478271 164.0
1371.994263 148.0
1373.277344 216.0
1373.358521 228.0
1374.270508 256.0
1375.048096 160.0
1376.455444 340.0
1377.824463 88.0
1378.489502 212.0
1378.718628 164.0
1378.932861 124.0
1379.494385 184.0
1381.077026 148.0
1381.195435 200.0
1382.090576 212.0
1382.92688 148.0
1383.659668 212.0
1383.859619 192.0
1383.948486 136.0
1384.955566 180.0
1386.429932 184.0
1387.64563 188.0
1388.275879 68.0
1388.453857 152.0
1388.535522 148.0
1388.921143 164.0
1389.462646 124.0
1389.520264 180.0
1389.648193 156.0
1389.944946 116.0
1390.226929 80.0
1390.575806 180.0
1391.622437 124.0
1391.718994 160.0
1391.956543 208.0
1392.862671 180.0
1393.769043 212.0
1394.058838 196.0
1394.690552 148.0
1395.307617 148.0
1395.79834 92.0
1396.140381 172.0
1396.579224 160.0
1396.742798 160.0
1396.85437 152.0
1397.360229 160.0
1397.862061 168.0
1397.963013 128.0
1398.565796 216.0
1399.116699 84.0
1400.054932 256.0
1401.216919 184.0
1401.528198 144.0
1402.319702 184.0
1402.424072 120.0
1402.78186 268.0
1402.856445 212.0
1403.206787 164.0
1403.952515 144.0
1405.65332 140.0
1406.571289 96.0
1406.847534 176.0
1406.907227 232.0
1407.056519 100.0
1407.773315 188.0
1408.03479 152.0
1408.497803 148.0
1408.677124 184.0
1408.736816 52.0
1408.804077 156.0
1409.250854 216.0
1409.342041 180.0
1410.463013 156.0
1412.108032 176.0
1413.237549 188.0
1416.426758 204.0
1416.823853 244.0
1417.138428 184.0
1417.355835 196.0
1418.629883 192.0
1418.862305 148.0
1419.69458 128.0
1420.01709 156.0
1420.137085 180.0
1420.44458 132.0
1420.752197 268.0
1422.733398 80.0
1423.371582 192.0
1423.912354 204.0
1424.167725 152.0
1424.3479 156.0
1424.423096 48.0
1424.655884 196.0
1426.474487 52.0
1427.349731 180.0
1427.865479 164.0
1428.098633 172.0
1428.927368 168.0
1429.844238 168.0
1432.223389 244.0
1432.735596 136.0
1434.762939 172.0
1435.61499 204.0
1436.678467 176.0
1437.300537 236.0
1437.893311 176.0
1437.983887 200.0
1440.800415 144.0
1441.329346 176.0
1441.518188 80.0
1441.669312 204.0
1441.835571 124.0
1442.614136 28.0
1444.164307 208.0
1444.534912 164.0
1444.95105 272.0
1446.759766 228.0
1448.03186 136.0
1448.592407 160.0
1449.236328 76.0
1449.440918 188.0
1450.032104 124.0
1450.327637 96.0
1451.828857 164.0
1452.602417 164.0
1453.793701 140.0
1454.135132 152.0
1454.362915 208.0
1455.091675 180.0
1455.327026 204.0
1455.668701 136.0
1456.534546 116.0
1457.468994 120.0
1459.065063 80.0
1460.517456 136.0
1461.483643 184.0
1462.374023 144.0
1462.937378 116.0
1464.300293 216.0
1465.084839 100.0
1465.435303 180.0
1467.241577 212.0
1468.049805 176.0
1469.31604 168.0
1469.521973 192.0
1471.20105 124.0
1471.399536 148.0
1472.010376 68.0
1472.865723 204.0
1473.446289 140.0
1473.782471 136.0
1474.256226 164.0
1474.309814 192.0
1474.668945 100.0
1475.479248 156.0
1476.312744 96.0
1476.9552 144.0
1477.154053 104.0
1477.804321 124.0
1478.56189 92.0
1478.638428 240.0
1478.959839 156.0
1479.135864 136.0
1479.656494 68.0
1480.47583 208.0
1480.567749 156.0
1482.864136 200.0
1483.18457 196.0
1483.364258 216.0
1483.440918 160.0
1483.594238 56.0
1484.936157 188.0
1485.542114 116.0
1486.150635 196.0
1486.217285 160.0
1486.593262 176.0
1487.199585 232.0
1487.736938 192.0
1488.481689 156.0
1488.543091 240.0
1488.688965 92.0
1488.781128 76.0
1489.303467 164.0
1490.479492 200.0
1491.454834 144.0
1491.5625 164.0
1491.7854 156.0
1492.538818 148.0
1493.758667 224.0
1494.092529 184.0
1494.969604 144.0
1495.02356 80.0
1495.839355 168.0
1495.931763 64.0
1496.262817 100.0
1496.378296 148.0
1496.69397 20.0
1496.909546 128.0
1498.018677 228.0
1498.858398 188.0
1500.006714 164.0
1500.661987 196.0
1501.194092 76.0
1501.525757 152.0
1501.687622 144.0
1501.841919 164.0
1502.104248 168.0
1502.250732 188.0
1502.520752 188.0
1503.21521 28.0
1503.817139 172.0
1504.048706 212.0
1504.218506 52.0
1504.303467 140.0
1504.596802 192.0
1504.677856 204.0
