>compound MLS001097701-01!
>formula C49H63NO17
>ionization [M+H]+
>parentmass 938.417
#inchi InChI=1S/C49H63NO17/c1-7-8-11-20-33(53)50-35(27-16-12-9-13-17-27)38(56)44(60)64-30-22-49(61)42(66-43(59)28-18-14-10-15-19-28)40-47(6,41(58)37(55)34(25(30)2)46(49,4)5)31(21-32-48(40,24-63-32)67-26(3)51)65-45-39(57)36(54)29(52)23-62-45/h9-10,12-19,29-32,35-40,42,45,52,54-57,61H,7-8,11,20-24H2,1-6H3,(H,50,53)/t29?,30-,31-,32+,35-,36?,37+,38+,39?,40?,42-,45?,47+,48-,49+/m0/s1
#inchikey XGWGQEYABFGJID
#Ion_Source LC-ESI
#Instrument qTof
#Compound_Source NIH Natural Product Library
#PI Dorrestein
#Data_Collector VVP/LMS
#Scan -1
#Precursor_MZ 938.417
#ExactMass 937.41
#Charge 1
#CAS_Number N/A
#Pubmed_ID N/A
#Smiles CCCCCC(=O)N[C@H]([C@@H](O)C(=O)O[C@H]/1C[C@@]2(O)[C@@H](OC(=O)c3ccccc3)C4[C@@]5(CO[C@@H]5C[C@H](OC6OCC(O)C(O)C6O)[C@@]4(C)C(=O)[C@H](O)\C(=C1/C)\C2(C)C)OC(=O)C)c7ccccc7
#INCHI_AUX N/A
#Library_Class 1
#SpectrumID CCMSLIB00000079821
#IonMode Positive
#UpdateWorkflowName UPDATE-SINGLE-ANNOTATED-GOLD
#LibraryQualityString Gold
#TaskID b1d8e8f6646f4e71acdff9ca3d919d08
##Scan# 2146
#SpectrumFile p1-E11_GE11_01_17931.mzXML
#LibraryName NIH_Natural_Products_Library.mgf
#MQScore -1
#Organism NIH_Natural_Products_Library
#TIC_Query 0
#RT_Query -1
#MZErrorPPM -1
#SharedPeaks 0
#MassDiff 0
#LibMZ -1
#SpecMZ 938.417
#SpecCharge 0
#internalFilename spec-00000.mgf

>collision 10
95.023605 248.0
95.081306 72.0
95.107483 316.0
95.146736 328.0
95.179573 212.0
95.228905 168.0
95.267769 176.0
95.291092 120.0
95.318298 168.0
95.343567 68.0
95.433014 168.0
95.506935 136.0
95.57782 152.0
95.666245 212.0
95.693817 112.0
95.740562 124.0
95.806808 152.0
95.84774 140.0
95.956917 52.0
96.040802 136.0
96.058357 156.0
96.102509 148.0
96.124847 120.0
96.142288 160.0
96.158035 120.0
96.181335 56.0
96.212578 132.0
96.259346 376.0
96.396233 160.0
96.443153 140.0
96.478348 64.0
96.51355 132.0
96.529198 152.0
96.595718 112.0
96.642197 144.0
96.854179 132.0
96.920807 188.0
97.061981 184.0
97.091774 528.0
97.130646 336.0
97.162041 164.0
97.181671 124.0
97.291611 144.0
97.306602 196.0
97.312576 124.0
97.319504 156.0
97.409599 180.0
97.46843 188.0
97.505783 116.0
97.570663 236.0
97.700508 144.0
97.735931 248.0
97.773331 148.0
97.86982 72.0
97.96241 156.0
98.076736 36.0
98.125763 176.0
98.162949 168.0
98.21875 88.0
98.236504 120.0
98.270058 200.0
98.291771 100.0
98.31839 148.0
98.330421 172.0
98.433937 92.0
98.474785 136.0
98.868393 108.0
98.886795 204.0
98.914513 132.0
98.995712 152.0
99.043259 124.0
99.106369 180.0
99.144295 4848.0
99.203819 40.0
99.227615 92.0
99.328781 96.0
99.441917 236.0
99.516556 164.0
99.540436 144.0
99.598824 132.0
99.680305 168.0
99.712669 100.0
99.769333 224.0
99.797615 228.0
99.811539 180.0
99.925163 184.0
100.008553 224.0
100.037613 148.0
100.090202 108.0
100.110123 80.0
100.147743 304.0
100.168777 136.0
100.243629 152.0
100.269547 200.0
100.291473 128.0
100.339333 64.0
100.365257 140.0
100.431381 192.0
100.500938 168.0
100.524887 132.0
100.574799 172.0
100.61274 184.0
100.628716 160.0
100.654678 160.0
100.740013 256.0
100.804451 176.0
100.978523 140.0
101.057091 212.0
101.078583 136.0
101.172684 284.0
101.188698 168.0
101.205276 188.0
101.328941 92.0
101.409119 116.0
101.443207 160.0
101.458969 200.0
101.52343 168.0
101.579613 204.0
101.645836 48.0
101.716103 116.0
101.772331 144.0
101.826721 264.0
102.013496 132.0
102.059753 188.0
102.134186 40.0
102.14827 152.0
102.271049 136.0
102.335487 204.0
102.514816 160.0
102.551598 180.0
102.577316 172.0
102.619408 156.0
102.746765 80.0
102.767967 340.0
102.831543 148.0
102.880005 172.0
102.942612 124.0
102.968872 140.0
103.023369 140.0
103.121307 628.0
103.142693 168.0
103.207405 192.0
103.237747 212.0
103.270111 72.0
103.300461 168.0
103.329025 164.0
103.361931 108.0
103.43811 188.0
103.513039 144.0
103.569763 176.0
103.598137 164.0
103.641632 208.0
103.668816 160.0
103.784653 168.0
103.845505 140.0
103.87188 156.0
103.910439 208.0
103.971336 148.0
103.995277 196.0
104.117546 164.0
104.133804 176.0
104.26387 132.0
104.312668 372.0
104.381813 32.0
104.414703 188.0
104.438774 140.0
104.571068 60.0
104.628082 216.0
104.644371 232.0
104.767441 156.0
104.794907 140.0
104.815521 52.0
104.939896 240.0
104.95417 132.0
105.025574 184.0
105.101524 8524.0
105.13813 1292.0
105.214455 60.0
105.231743 48.0
105.25013 48.0
105.269295 104.0
105.341858 184.0
105.368629 64.0
105.39315 96.0
105.466743 156.0
105.577187 124.0
105.597641 48.0
105.611961 76.0
105.642654 124.0
105.661072 120.0
105.790215 196.0
105.812569 128.0
105.855583 232.0
105.875183 100.0
105.990822 164.0
106.02977 180.0
106.105057 1320.0
106.134338 3776.0
106.185631 216.0
106.202873 128.0
106.227753 212.0
106.259499 204.0
106.310776 200.0
106.415527 96.0
106.464828 116.0
106.499756 36.0
106.520302 184.0
106.544785 140.0
106.632599 176.0
106.684746 48.0
106.703255 60.0
106.726585 176.0
106.768707 132.0
106.801994 128.0
106.836258 228.0
106.909012 148.0
106.931656 80.0
106.952248 108.0
106.968719 60.0
107.065521 208.0
107.121941 588.0
107.138191 368.0
107.15493 492.0
107.180916 168.0
107.262856 252.0
107.279877 144.0
107.314934 168.0
107.367081 228.0
107.424271 156.0
107.461418 208.0
107.516701 200.0
107.566704 52.0
107.663773 120.0
107.682365 56.0
107.835304 140.0
107.880791 124.0
107.895264 236.0
107.969727 104.0
108.064911 160.0
108.100098 192.0
108.13736 56.0
108.16291 188.0
108.168686 216.0
108.228477 108.0
108.417038 168.0
108.450211 172.0
108.466797 148.0
108.506195 184.0
108.553902 180.0
108.603554 176.0
108.638969 172.0
108.657646 216.0
108.682549 164.0
108.784271 60.0
108.844505 168.0
108.873581 84.0
108.921371 140.0
108.938667 136.0
109.006577 120.0
109.034828 176.0
109.098053 160.0
109.135811 184.0
109.171562 280.0
109.189575 152.0
109.269493 256.0
109.297783 60.0
109.397713 56.0
109.426872 184.0
109.443527 116.0
109.503944 160.0
109.829193 84.0
109.879272 132.0
109.962769 144.0
110.054649 204.0
110.107071 164.0
110.152832 140.0
110.175819 140.0
110.253151 68.0
110.299149 172.0
110.320061 152.0
110.485321 128.0
110.506248 200.0
110.533463 136.0
110.68631 188.0
110.709358 124.0
110.746338 280.0
110.763824 200.0
110.812027 68.0
110.835083 188.0
110.862328 160.0
110.899605 128.0
110.92942 120.0
110.986046 176.0
111.115555 644.0
111.154808 268.0
111.348328 152.0
111.372307 160.0
111.529945 164.0
111.660919 176.0
111.723465 132.0
111.744514 144.0
111.765556 192.0
111.98246 204.0
112.007744 112.0
112.037239 116.0
112.058319 164.0
112.096252 88.0
112.111008 116.0
112.189018 184.0
112.212219 160.0
112.239639 120.0
112.328247 172.0
112.358971 228.0
112.436363 88.0
112.507675 108.0
112.552025 124.0
112.575256 252.0
112.68483 140.0
112.786346 168.0
112.862732 152.0
112.903664 68.0
113.006599 184.0
113.029884 60.0
113.061638 196.0
113.093391 104.0
113.110329 180.0
113.133553 188.0
113.285805 100.0
113.362442 136.0
113.377281 184.0
113.406967 76.0
113.476944 216.0
113.520393 132.0
113.631813 224.0
113.678513 136.0
113.721924 148.0
113.784676 112.0
113.801666 196.0
113.911041 172.0
113.973763 240.0
114.120468 220.0
114.167259 176.0
114.18428 160.0
114.224709 136.0
114.407776 144.0
114.458885 40.0
114.507881 140.0
114.593117 148.0
114.682648 140.0
114.725296 72.0
114.797806 92.0
114.838341 188.0
114.913025 92.0
114.963493 112.0
115.028992 124.0
115.056068 200.0
115.075287 160.0
115.118927 148.0
115.123077 176.0
115.222694 188.0
115.248344 176.0
115.314285 236.0
115.423676 124.0
115.483574 128.0
115.507111 124.0
115.590019 296.0
115.693336 228.0
115.76059 240.0
115.956886 116.0
116.00174 244.0
116.050041 184.0
116.063011 316.0
116.085556 184.0
116.146156 344.0
116.182663 31244.0
116.252937 28.0
116.287285 36.0
116.304565 80.0
116.328079 32.0
116.347404 36.0
116.363106 192.0
116.398949 120.0
116.480591 96.0
116.499931 48.0
116.535645 84.0
116.606895 172.0
116.6511 196.0
116.671906 112.0
116.712769 152.0
116.74205 176.0
116.794518 80.0
116.816032 124.0
116.917191 244.0
116.97963 144.0
116.999008 92.0
117.057159 136.0
117.111015 160.0
117.146027 368.0
117.18605 2584.0
117.248947 40.0
117.272667 64.0
117.313629 196.0
117.41716 144.0
117.461517 136.0
117.527214 112.0
117.602219 236.0
117.64595 196.0
117.671867 132.0
117.69632 136.0
117.720367 168.0
117.816612 200.0
117.853348 52.0
117.909554 212.0
117.93766 132.0
117.954956 60.0
118.007385 180.0
118.040649 180.0
118.073914 120.0
118.099876 72.0
118.141258 3904.0
118.187607 180.0
118.308754 136.0
118.334801 208.0
118.39431 264.0
118.483147 48.0
118.595863 188.0
118.626221 132.0
118.656578 188.0
118.691277 144.0
118.786736 228.0
118.847504 80.0
118.890404 136.0
118.988625 144.0
119.016205 160.0
119.036407 192.0
119.085068 180.0
119.125763 10776.0
119.163391 1052.0
119.195236 164.0
119.497353 228.0
119.645393 68.0
119.780449 108.0
119.821854 156.0
119.844795 156.0
119.913399 56.0
119.996201 144.0
120.028976 64.0
120.076973 72.0
120.130699 1444.0
120.168716 264.0
120.216637 68.0
120.264664 36.0
120.284561 252.0
120.317383 80.0
120.371674 140.0
120.389153 140.0
120.416977 228.0
120.504951 80.0
120.526512 176.0
120.598953 132.0
120.625984 112.0
120.72361 148.0
120.780487 116.0
120.837387 80.0
120.865837 132.0
121.014725 292.0
121.047577 176.0
121.10556 164.0
121.143211 1988.0
121.179382 728.0
121.231644 128.0
121.38295 120.0
121.442177 160.0
121.501427 216.0
121.644112 252.0
121.661682 136.0
121.678665 180.0
121.79567 164.0
121.835228 48.0
121.885773 60.0
121.947327 140.0
122.083679 248.0
122.147255 296.0
122.19149 148.0
122.235512 156.0
122.292747 140.0
122.378632 96.0
122.409462 168.0
122.574722 220.0
122.759949 116.0
122.821724 196.0
122.865852 48.0
122.896172 168.0
122.971809 148.0
123.126793 360.0
123.160912 1188.0
123.197388 188.0
123.26783 148.0
123.30983 116.0
123.356262 160.0
123.546501 60.0
123.606262 144.0
123.639465 144.0
123.730247 164.0
123.767899 152.0
123.849861 116.0
123.87867 172.0
123.946259 120.0
124.135849 140.0
124.162468 32.0
124.221718 176.0
124.240128 188.0
124.264534 212.0
124.278885 156.0
124.404396 48.0
124.438904 172.0
124.466583 116.0
124.553879 176.0
124.726593 92.0
124.815552 156.0
124.835571 84.0
124.862267 128.0
124.935692 124.0
124.986877 52.0
125.078156 156.0
125.143013 320.0
125.169228 192.0
125.283081 52.0
125.312057 224.0
125.426346 148.0
125.47596 180.0
125.597496 112.0
125.653282 100.0
125.677826 144.0
125.77829 132.0
125.822945 164.0
126.046371 124.0
126.203049 168.0
126.269989 228.0
126.350548 200.0
126.455292 156.0
126.46463 124.0
126.46978 120.0
126.500107 148.0
126.587875 76.0
126.825432 40.0
126.879181 140.0
127.034027 204.0
127.139519 140.0
127.156868 192.0
127.233818 196.0
127.325645 232.0
127.361862 100.0
127.413544 180.0
127.483223 204.0
127.514694 148.0
127.530434 96.0
127.564156 104.0
127.652618 144.0
127.699112 348.0
127.71711 208.0
127.732864 132.0
127.831886 204.0
127.962479 152.0
128.039413 128.0
128.102142 108.0
128.155884 156.0
128.217102 188.0
128.264435 144.0
128.354645 204.0
128.374954 172.0
128.395248 216.0
128.453918 144.0
128.494537 108.0
128.546448 156.0
128.609665 156.0
128.727097 228.0
128.766205 124.0
128.849106 180.0
128.921432 252.0
128.953079 256.0
129.057098 116.0
129.091034 208.0
129.153595 528.0
129.374649 176.0
129.394318 132.0
129.419235 48.0
129.530624 260.0
129.584625 40.0
129.727448 156.0
129.761459 232.0
129.93161 152.0
130.005005 168.0
130.045105 144.0
130.099609 176.0
130.162354 324.0
130.18364 124.0
130.233627 128.0
130.308609 172.0
130.343109 176.0
130.454102 132.0
130.470016 152.0
130.549622 248.0
130.60878 116.0
130.649429 116.0
130.699799 140.0
130.815918 176.0
130.843246 40.0
130.888794 200.0
130.948013 124.0
130.97081 128.0
131.021347 112.0
131.133774 372.0
131.170059 920.0
131.279984 84.0
131.31279 180.0
131.378967 420.0
131.454285 112.0
131.559311 236.0
131.639252 88.0
131.826614 184.0
131.860916 264.0
131.993546 180.0
132.034714 96.0
132.057602 144.0
132.112518 72.0
132.142258 200.0
132.168976 284.0
132.231537 112.0
132.286713 160.0
132.430786 32.0
132.50412 176.0
132.520157 176.0
132.610596 164.0
132.653122 168.0
132.747147 132.0
132.905472 152.0
132.935318 124.0
133.047821 124.0
133.066193 432.0
133.107529 212.0
133.123611 172.0
133.151138 2792.0
133.186142 2096.0
133.282578 160.0
133.300507 204.0
133.346527 196.0
133.374115 168.0
133.525909 132.0
133.592636 52.0
133.633133 220.0
133.652481 64.0
133.710022 96.0
133.779099 172.0
133.841278 208.0
133.912689 256.0
134.071701 192.0
134.106293 116.0
134.154404 388.0
134.192276 428.0
134.223892 76.0
134.258499 140.0
134.325409 224.0
134.383102 144.0
134.42926 188.0
134.461578 156.0
134.512375 128.0
134.551636 92.0
134.741074 132.0
134.773422 44.0
134.877457 120.0
135.00235 180.0
135.13266 744.0
135.169128 676.0
135.200211 416.0
135.226822 112.0
135.243027 160.0
135.280075 176.0
135.32872 232.0
135.391251 160.0
135.430634 200.0
135.500153 160.0
135.560425 168.0
135.588242 124.0
135.677887 184.0
135.815521 144.0
135.843369 52.0
135.929245 104.0
135.982635 140.0
136.047638 132.0
136.080154 60.0
136.163788 13400.0
136.247421 64.0
136.29158 144.0
136.382248 64.0
136.404388 100.0
136.43425 176.0
136.486969 64.0
136.677689 76.0
136.733551 204.0
136.815048 172.0
136.868622 160.0
136.884918 188.0
136.982773 60.0
137.043365 100.0
137.062012 144.0
137.169174 1424.0
137.212814 112.0
137.2332 44.0
137.271866 116.0
137.428192 124.0
137.446869 228.0
137.509903 140.0
137.572937 60.0
137.671036 160.0
137.782501 180.0
137.860321 68.0
137.878342 164.0
137.977219 136.0
137.995941 168.0
138.066101 80.0
138.091843 152.0
138.117584 40.0
138.138641 64.0
138.168915 316.0
138.175079 112.0
138.185806 408.0
138.225235 204.0
138.251556 164.0
138.286102 156.0
138.321213 116.0
138.361023 148.0
138.407867 48.0
138.499222 152.0
138.539459 120.0
138.588272 156.0
138.628128 140.0
138.699661 136.0
138.724258 60.0
138.745361 76.0
138.811035 80.0
138.883759 180.0
138.914261 124.0
138.949463 232.0
138.982315 48.0
139.126251 168.0
139.163773 380.0
139.329651 188.0
139.433334 220.0
139.597946 104.0
139.644989 188.0
139.732056 136.0
139.788544 112.0
139.822037 192.0
139.849747 164.0
139.906265 116.0
139.93924 152.0
140.038162 204.0
140.123322 172.0
140.177216 112.0
140.21257 140.0
140.363495 168.0
140.382355 132.0
140.495605 168.0
140.555405 236.0
140.623077 172.0
140.753525 100.0
140.887711 192.0
141.036545 100.0
141.116943 164.0
141.161682 192.0
141.194992 140.0
141.27774 136.0
141.353546 264.0
141.429306 164.0
141.578506 112.0
141.654327 108.0
141.673279 84.0
141.724167 144.0
141.779938 148.0
142.043198 144.0
142.090652 148.0
142.167664 316.0
142.307281 248.0
142.335205 180.0
142.425476 72.0
142.506271 128.0
142.525284 64.0
142.651291 188.0
142.948685 172.0
143.027252 140.0
143.134171 120.0
143.155853 180.0
143.178528 1292.0
143.263062 64.0
143.360779 188.0
143.434692 200.0
143.527695 60.0
143.639816 184.0
143.701874 252.0
143.759155 188.0
143.785416 44.0
143.920639 108.0
143.957352 56.0
143.981247 196.0
144.036194 160.0
144.165253 116.0
144.183167 720.0
144.215454 116.0
144.234589 108.0
144.253708 172.0
144.356552 124.0
144.390854 164.0
144.428329 156.0
144.447464 156.0
144.495331 164.0
144.547974 384.0
144.641342 128.0
144.667694 40.0
144.690231 448.0
144.722763 204.0
144.876099 268.0
145.055878 164.0
145.157043 384.0
145.194382 1260.0
145.305359 156.0
145.436646 156.0
145.485413 44.0
145.554794 140.0
145.624725 196.0
145.730453 204.0
145.78334 120.0
145.838638 76.0
145.865082 60.0
145.901154 144.0
146.023529 224.0
146.055099 180.0
146.160324 160.0
146.163712 248.0
146.20192 44.0
146.265366 224.0
146.343979 184.0
146.416245 88.0
146.454788 168.0
146.476471 88.0
146.502975 160.0
146.703064 192.0
146.932236 164.0
146.970856 80.0
147.028778 220.0
147.091934 208.0
147.138977 7672.0
147.174194 1708.0
147.207489 268.0
147.295593 68.0
147.341141 164.0
147.415298 184.0
147.439468 36.0
147.464828 124.0
147.516846 136.0
147.579712 140.0
147.603897 84.0
147.625366 172.0
147.649872 84.0
147.758743 48.0
147.775696 128.0
147.811996 184.0
147.95726 168.0
148.142471 740.0
148.181961 168.0
148.209229 72.0
148.240738 172.0
148.2771 172.0
148.315887 152.0
148.361969 164.0
148.378937 156.0
148.442093 196.0
148.551178 52.0
148.645828 40.0
148.85466 184.0
148.93483 76.0
148.956696 80.0
149.024734 28.0
149.056335 132.0
149.075775 144.0
149.119537 140.0
149.154755 1940.0
149.192215 1268.0
149.216797 164.0
149.233826 200.0
149.255722 152.0
149.279251 160.0
149.389526 208.0
149.430893 52.0
149.555038 144.0
149.669495 84.0
149.695511 100.0
149.740143 196.0
149.781555 76.0
149.898544 136.0
149.996063 108.0
150.047272 212.0
150.066772 172.0
150.086288 120.0
150.107666 188.0
150.163986 156.0
150.195755 240.0
150.262283 60.0
150.357147 104.0
150.382401 168.0
150.493896 36.0
150.519226 204.0
150.540298 204.0
150.731323 184.0
150.80423 164.0
151.01947 136.0
151.090424 88.0
151.134537 180.0
151.171997 1500.0
151.20842 960.0
151.259338 236.0
151.281372 36.0
151.308304 48.0
151.473938 216.0
151.639099 152.0
151.675873 172.0
151.783432 192.0
151.83284 184.0
151.928543 132.0
151.953079 160.0
151.970261 144.0
152.034073 116.0
152.093002 44.0
152.151932 108.0
152.178711 184.0
152.232986 172.0
152.395157 96.0
152.441849 176.0
152.471359 140.0
152.530365 148.0
152.618896 340.0
152.650864 176.0
152.901871 200.0
153.152145 188.0
153.166077 160.0
153.193802 168.0
153.219299 152.0
153.249191 52.0
153.426697 108.0
153.510559 164.0
153.547562 108.0
153.641327 44.0
153.796829 200.0
153.865967 68.0
153.917847 180.0
153.959839 76.0
154.110565 56.0
154.1745 748.0
154.276199 196.0
154.298462 176.0
154.407288 192.0
154.436981 120.0
154.474091 148.0
154.71669 76.0
154.753052 176.0
154.847961 132.0
154.87027 168.0
154.895294 156.0
154.927261 104.0
155.033829 108.0
155.053665 192.0
155.157806 188.0
155.187881 1064.0
155.242126 164.0
155.28183 40.0
155.353775 160.0
155.374634 180.0
155.44313 172.0
155.634323 120.0
155.713806 172.0
155.820663 136.0
155.900192 196.0
155.939972 184.0
155.959854 156.0
156.059326 112.0
156.076736 76.0
156.13147 132.0
156.173767 296.0
156.196732 272.0
156.240753 168.0
156.274887 132.0
156.338013 196.0
156.372864 112.0
156.415192 140.0
156.434357 328.0
156.589539 164.0
156.692841 160.0
156.7565 240.0
156.78891 208.0
157.083221 156.0
157.168762 308.0
157.202316 1272.0
157.229935 112.0
157.2892 108.0
157.33284 120.0
157.402771 140.0
157.532684 160.0
157.58017 160.0
157.782669 140.0
157.827698 160.0
157.873047 92.0
157.965286 236.0
158.035355 124.0
158.082916 144.0
158.102951 164.0
158.14801 92.0
158.168472 208.0
158.2117 128.0
158.253189 72.0
158.275726 172.0
158.499603 136.0
158.604019 96.0
158.634109 168.0
158.6642 148.0
158.817551 180.0
158.844803 156.0
159.039536 104.0
159.068207 136.0
159.15271 148.0
159.183655 1628.0
159.216156 620.0
159.382248 72.0
159.47023 64.0
159.570801 104.0
159.616074 156.0
159.756973 136.0
159.792206 40.0
159.928131 140.0
160.028854 84.0
160.051529 128.0
160.096863 200.0
160.149323 136.0
160.188934 580.0
160.22789 192.0
160.293411 144.0
160.361481 164.0
160.502701 140.0
160.578384 164.0
160.742416 152.0
160.785324 256.0
160.863586 224.0
161.164673 956.0
161.199844 4072.0
161.255859 64.0
161.278687 100.0
161.300232 140.0
161.318436 264.0
161.357529 192.0
161.629623 128.0
161.654922 36.0
161.692902 68.0
161.816971 36.0
161.877762 136.0
161.941101 148.0
161.968964 64.0
162.075409 56.0
162.152374 104.0
162.183029 168.0
162.205002 512.0
162.458359 192.0
162.544647 124.0
162.671585 76.0
162.864624 168.0
162.895126 220.0
163.015961 228.0
163.047623 140.0
163.067963 140.0
163.146149 496.0
163.180313 596.0
163.216476 352.0
163.263779 196.0
163.299393 176.0
163.346817 92.0
163.481552 188.0
163.54628 80.0
163.70195 104.0
163.783493 148.0
163.823914 200.0
163.854492 144.0
163.925858 192.0
163.94696 228.0
164.061142 200.0
164.148849 188.0
164.176895 1140.0
164.224457 144.0
164.310715 184.0
164.351837 28.0
164.40033 40.0
164.423309 276.0
164.484589 248.0
164.505493 192.0
164.581619 196.0
164.765579 172.0
164.793686 116.0
164.827484 216.0
164.952179 92.0
164.970078 204.0
165.036575 44.0
165.09198 200.0
165.16095 9768.0
165.254044 176.0
165.273911 88.0
165.361557 220.0
165.453735 128.0
165.566803 56.0
165.67662 204.0
165.807327 68.0
165.861176 88.0
165.953491 120.0
165.991974 40.0
166.071487 192.0
166.089462 116.0
166.166473 884.0
166.230606 64.0
166.290268 200.0
166.317886 240.0
166.348709 132.0
166.485535 176.0
166.672409 84.0
166.75209 156.0
166.785522 52.0
166.839523 148.0
166.95784 140.0
167.083908 80.0
167.101929 132.0
167.179977 904.0
167.292435 136.0
167.387726 140.0
167.485611 104.0
167.513962 60.0
167.550034 68.0
167.575806 76.0
167.606735 140.0
167.655716 132.0
167.684692 116.0
167.712433 212.0
167.753693 152.0
167.784027 164.0
167.805267 180.0
167.828476 116.0
167.864594 132.0
167.90329 140.0
167.970367 136.0
168.025772 256.0
168.058105 160.0
168.196503 504.0
168.2285 176.0
168.305969 120.0
168.331802 96.0
168.398972 96.0
168.799667 136.0
168.900558 140.0
168.926437 48.0
169.02478 76.0
169.173019 624.0
169.210464 1716.0
169.274811 100.0
169.550629 196.0
169.659531 184.0
169.688065 252.0
169.760681 92.0
169.901276 108.0
169.942307 156.0
170.186371 192.0
170.217911 776.0
170.287674 172.0
170.360428 136.0
170.38382 128.0
170.47998 108.0
170.541229 180.0
170.562958 180.0
170.68541 164.0
170.883148 136.0
170.970901 152.0
171.122665 156.0
171.163315 304.0
171.191849 2540.0
171.225845 944.0
171.265945 188.0
171.323273 52.0
171.351944 240.0
171.400894 260.0
171.521378 192.0
171.607437 132.0
171.662704 188.0
171.696121 176.0
171.763962 164.0
172.004089 176.0
172.03804 168.0
172.100723 40.0
172.1922 820.0
172.226059 160.0
172.27272 100.0
172.335861 100.0
172.362 140.0
172.490097 152.0
172.545013 132.0
172.688889 136.0
172.754303 120.0
172.805283 172.0
172.887787 52.0
172.958466 200.0
173.050125 96.0
173.126083 132.0
173.171188 396.0
173.207565 2488.0
173.249252 488.0
173.309509 96.0
173.347046 100.0
173.47467 136.0
173.579575 208.0
173.637222 164.0
173.839355 296.0
173.883972 96.0
173.918106 248.0
173.9785 192.0
173.999512 160.0
174.178146 220.0
174.211502 644.0
174.252396 188.0
174.40802 156.0
174.428726 108.0
174.475174 124.0
174.586273 100.0
174.617218 76.0
174.725098 192.0
174.743515 44.0
174.769836 244.0
174.880402 120.0
175.138519 204.0
175.187576 1300.0
175.225433 808.0
175.265015 76.0
175.294006 172.0
175.436371 140.0
175.499664 48.0
175.526047 124.0
175.597275 144.0
175.65004 112.0
175.985306 164.0
176.075119 140.0
176.189651 412.0
176.218399 196.0
176.28389 140.0
176.553192 108.0
176.677292 204.0
176.704437 76.0
176.744141 88.0
176.85939 164.0
177.038055 152.0
177.136078 136.0
177.167999 932.0
177.203842 1044.0
177.241791 104.0
177.2686 140.0
177.30571 164.0
177.337524 88.0
177.409119 148.0
177.472763 164.0
177.531113 220.0
177.604782 68.0
177.650513 164.0
177.677048 136.0
177.719513 140.0
177.764633 144.0
177.788528 212.0
178.030182 104.0
178.115204 72.0
178.147079 56.0
178.199554 232.0
178.264023 216.0
178.333145 252.0
178.394302 188.0
178.521545 128.0
178.559204 140.0
178.606537 164.0
178.639023 32.0
178.670959 140.0
178.754272 408.0
178.862625 36.0
178.910553 168.0
178.976196 240.0
179.081024 160.0
179.102341 152.0
179.186447 1056.0
179.21933 580.0
179.309219 180.0
179.366211 212.0
179.405258 200.0
179.46756 228.0
179.496902 124.0
179.536911 112.0
179.563583 104.0
179.58493 116.0
179.939957 52.0
179.978607 212.0
180.036102 136.0
180.073517 52.0
180.207535 468.0
180.469131 128.0
180.554733 116.0
180.894638 164.0
180.969879 216.0
181.043625 64.0
181.082138 136.0
181.180634 168.0
181.218842 2244.0
181.256958 84.0
181.285797 240.0
181.311203 168.0
181.347458 144.0
181.380234 196.0
181.438629 112.0
181.473251 128.0
181.489243 92.0
181.546539 172.0
181.629089 156.0
181.647873 176.0
181.701538 112.0
181.736435 156.0
181.823746 128.0
181.884079 136.0
181.908249 132.0
181.954742 176.0
182.003479 212.0
182.037292 320.0
182.070831 156.0
182.120621 288.0
182.152405 252.0
182.199341 114888.0
182.305206 52.0
182.333054 88.0
182.368057 156.0
182.400772 104.0
182.417618 232.0
182.457458 172.0
182.488525 68.0
182.523407 336.0
182.561188 116.0
182.59288 132.0
182.640976 468.0
182.660522 132.0
182.725464 56.0
182.749695 60.0
182.806046 252.0
182.846588 56.0
182.885849 180.0
182.912338 152.0
182.973145 168.0
183.007263 120.0
183.037109 144.0
183.07074 52.0
183.09436 72.0
183.13208 64.0
183.202316 11208.0
183.234268 1740.0
183.284653 84.0
183.315323 80.0
183.358459 52.0
183.377335 108.0
183.422699 68.0
183.455139 56.0
183.482498 76.0
183.50676 80.0
183.547226 56.0
183.577744 152.0
183.597885 92.0
183.629791 80.0
183.692902 144.0
183.739899 136.0
183.767044 68.0
183.80896 68.0
183.850754 72.0
183.868347 192.0
183.922333 52.0
183.978271 112.0
184.05928 220.0
184.149216 80.0
184.204437 884.0
184.237473 152.0
184.310715 120.0
184.355377 172.0
184.401031 68.0
184.453674 112.0
184.467163 44.0
184.489792 124.0
184.519333 132.0
184.538635 128.0
184.561249 132.0
184.585709 96.0
184.620102 192.0
184.673935 144.0
184.681274 96.0
184.694397 124.0
184.699738 84.0
184.725128 56.0
184.753357 148.0
184.789536 60.0
184.831879 180.0
184.86586 116.0
184.884811 152.0
185.003952 144.0
185.041656 156.0
185.106857 60.0
185.174484 224.0
185.216629 1660.0
185.252869 772.0
185.317612 92.0
185.358719 80.0
185.445602 44.0
185.478149 220.0
185.513397 48.0
185.545944 64.0
185.575775 148.0
185.60289 92.0
185.63002 108.0
185.664612 96.0
185.695892 128.0
185.72226 200.0
185.860657 88.0
185.936661 188.0
185.97467 144.0
186.091446 136.0
186.115891 140.0
186.170212 48.0
186.189224 100.0
186.225525 196.0
186.256332 344.0
186.295197 92.0
186.321793 96.0
186.357697 68.0
186.394363 180.0
186.469147 152.0
186.594223 136.0
186.643188 116.0
186.678543 164.0
186.746552 80.0
186.9561 72.0
187.097687 136.0
187.197433 424.0
187.229141 836.0
187.424622 92.0
187.525482 48.0
187.809143 200.0
187.836426 152.0
187.858017 140.0
187.982147 132.0
188.16127 140.0
188.196075 308.0
188.237305 172.0
188.270523 200.0
188.322433 112.0
188.486404 96.0
188.560211 140.0
188.579346 56.0
188.609421 136.0
188.743423 72.0
188.784454 56.0
188.822754 132.0
188.940399 140.0
188.992401 92.0
189.052628 144.0
189.174866 284.0
189.214874 716.0
189.248322 420.0
189.282639 188.0
189.419617 140.0
189.510056 104.0
189.627075 180.0
189.836349 124.0
189.957062 240.0
190.055862 204.0
190.088791 136.0
190.208862 208.0
190.257797 152.0
190.281815 120.0
190.379868 180.0
190.451309 124.0
190.605194 40.0
190.657425 60.0
190.910416 164.0
190.943436 88.0
190.981949 132.0
191.02597 120.0
191.094772 104.0
191.119553 148.0
191.158081 100.0
191.195267 548.0
191.231308 648.0
191.256866 208.0
191.295746 196.0
191.315018 44.0
191.419678 60.0
191.540894 44.0
191.590485 48.0
191.657715 212.0
191.90329 104.0
191.970978 76.0
191.996979 124.0
192.059464 160.0
192.125488 48.0
192.218323 396.0
192.291092 128.0
192.396027 40.0
192.567276 76.0
192.788361 176.0
192.825729 132.0
192.998505 232.0
193.148239 164.0
193.176773 164.0
193.22377 1860.0
193.316223 156.0
193.380386 48.0
193.504166 120.0
193.56282 156.0
193.74324 48.0
193.898468 156.0
193.968552 72.0
194.012146 56.0
194.070389 164.0
194.103668 88.0
194.175934 84.0
194.231369 460.0
194.322861 60.0
194.353394 148.0
194.389481 40.0
194.486633 68.0
194.556061 136.0
194.578278 160.0
194.61438 148.0
194.7155 140.0
194.871201 156.0
195.06459 160.0
195.197205 604.0
195.201523 444.0
195.241531 2048.0
195.331619 76.0
195.48468 192.0
195.729721 180.0
195.752014 96.0
195.848175 100.0
196.050171 264.0
196.117081 100.0
196.156113 196.0
196.215744 628.0
196.246216 512.0
196.571808 164.0
196.691864 168.0
196.753296 144.0
196.784012 164.0
196.982361 224.0
197.001907 92.0
197.222336 1828.0
197.259552 1580.0
197.324051 160.0
197.387726 52.0
197.468857 80.0
197.533203 196.0
197.684341 44.0
197.705658 156.0
197.930756 184.0
198.18573 132.0
198.229156 860.0
198.265411 408.0
198.410004 156.0
198.513794 84.0
198.555862 76.0
198.648453 220.0
198.791779 172.0
198.830887 208.0
199.038696 124.0
199.122955 144.0
199.204071 448.0
199.239883 1732.0
199.269775 296.0
199.311234 76.0
199.381516 84.0
199.432114 328.0
199.457916 208.0
199.524918 152.0
199.778091 160.0
199.99765 64.0
200.074768 196.0
200.095139 200.0
200.166626 156.0
200.213562 240.0
200.24678 520.0
200.287766 180.0
200.583725 176.0
200.671143 156.0
200.696518 100.0
200.795258 152.0
200.860138 56.0
200.888367 88.0
200.927872 188.0
201.069 104.0
201.109451 180.0
201.221863 636.0
201.257355 812.0
201.294724 148.0
201.328812 60.0
201.354233 72.0
201.438995 164.0
201.475739 100.0
201.741455 60.0
202.228378 280.0
202.262283 344.0
202.287598 68.0
202.534027 88.0
202.570862 160.0
202.698395 184.0
202.874176 108.0
203.064224 100.0
203.213638 188.0
203.239731 648.0
203.268021 144.0
203.41333 88.0
203.478638 32.0
203.526932 48.0
203.61499 68.0
203.637711 200.0
203.727615 112.0
203.808212 76.0
203.842316 212.0
203.862213 100.0
204.012909 84.0
204.109604 152.0
204.221664 376.0
204.268204 2160.0
204.320145 148.0
204.357147 152.0
204.436844 68.0
204.554138 240.0
204.647552 76.0
204.678879 140.0
204.838409 64.0
204.878311 112.0
204.903961 128.0
205.049332 84.0
205.179596 152.0
205.2323 932.0
205.275452 424.0
205.377319 96.0
205.585648 72.0
205.630142 184.0
205.668442 156.0
205.731262 128.0
205.796951 100.0
206.094086 232.0
206.203491 252.0
206.243729 1168.0
206.442932 156.0
206.883698 84.0
206.903748 92.0
206.983948 204.0
207.078476 60.0
207.156036 112.0
207.181625 256.0
207.214752 432.0
207.250885 1860.0
207.413818 60.0
207.583023 44.0
207.706375 180.0
207.915894 52.0
207.987671 120.0
208.016388 96.0
208.219955 444.0
208.255768 464.0
208.451248 188.0
208.481827 160.0
208.772263 168.0
208.844193 208.0
208.916122 136.0
209.173843 204.0
209.232117 1412.0
209.266937 2148.0
209.336472 100.0
209.535843 204.0
209.722656 200.0
209.805435 108.0
209.861069 112.0
209.941833 164.0
210.127365 172.0
210.206787 176.0
210.237946 784.0
210.275589 796.0
210.322784 168.0
210.383423 272.0
210.5625 148.0
210.611618 52.0
210.811035 52.0
210.945435 156.0
210.987396 132.0
211.045242 120.0
211.217804 204.0
211.248154 2528.0
211.284592 1776.0
211.337463 144.0
211.38089 48.0
211.486069 108.0
211.551697 36.0
211.600937 224.0
211.716797 68.0
211.757355 252.0
211.780533 88.0
211.873245 116.0
212.058762 68.0
212.15155 148.0
212.177643 68.0
212.218124 288.0
212.252975 604.0
212.289749 276.0
212.334274 164.0
212.482254 132.0
212.514191 144.0
212.676743 64.0
212.778381 152.0
212.798706 36.0
212.987534 192.0
213.057266 76.0
213.129929 176.0
213.186325 120.0
213.192657 172.0
213.22525 324.0
213.265366 2556.0
213.554489 132.0
213.637329 60.0
213.833893 52.0
213.886307 72.0
213.938721 44.0
214.003815 148.0
214.049393 72.0
214.231171 304.0
214.271439 392.0
214.55069 72.0
214.702347 212.0
214.734451 120.0
214.778992 60.0
214.842407 164.0
214.976669 220.0
215.206909 184.0
215.243301 612.0
215.280899 652.0
215.464432 92.0
215.571884 68.0
215.613495 96.0
215.639816 72.0
215.686584 160.0
215.715836 160.0
215.739227 84.0
215.762619 180.0
215.993713 96.0
216.050583 156.0
216.090286 184.0
216.172241 140.0
216.207138 152.0
216.250107 184.0
216.293884 156.0
216.365479 180.0
216.497284 160.0
216.517792 172.0
216.552948 180.0
216.869476 200.0
217.022522 104.0
217.101166 184.0
217.127563 80.0
217.233505 636.0
217.259216 604.0
217.36232 216.0
217.523788 76.0
217.672409 112.0
217.752884 220.0
217.827988 164.0
218.052658 236.0
218.079117 152.0
218.140869 44.0
218.249588 148.0
218.258392 240.0
218.268372 348.0
218.540955 144.0
218.72641 92.0
218.800034 116.0
218.838318 164.0
218.932571 192.0
219.03569 140.0
219.20726 684.0
219.254578 444.0
219.395325 168.0
219.49855 104.0
219.59465 104.0
219.687363 88.0
219.795944 232.0
219.823135 136.0
219.926453 148.0
220.115463 116.0
220.178558 140.0
220.206528 252.0
220.225769 288.0
220.264969 972.0
220.461182 36.0
220.490753 84.0
220.541016 172.0
220.567627 56.0
220.591278 124.0
220.859177 168.0
220.931458 32.0
220.955139 96.0
220.984726 120.0
221.073532 104.0
221.239044 940.0
221.275085 2248.0
221.411118 56.0
221.461487 144.0
221.796417 160.0
221.965454 68.0
222.039215 148.0
222.128448 140.0
222.167191 168.0
222.247574 508.0
222.281158 1192.0
222.437317 200.0
222.50206 60.0
222.550171 152.0
222.576904 52.0
222.81459 184.0
222.939423 188.0
222.986526 52.0
223.217285 168.0
223.255051 2300.0
223.291428 1340.0
223.355789 60.0
223.406372 104.0
223.60878 152.0
223.84404 192.0
224.060471 168.0
224.226135 280.0
224.262344 820.0
224.296082 520.0
224.368591 156.0
224.431229 124.0
224.526672 168.0
224.646027 176.0
224.726608 48.0
224.800735 148.0
224.881821 228.0
224.998276 56.0
225.189453 160.0
225.234802 792.0
225.2724 2092.0
225.309448 1928.0
225.410583 32.0
225.443466 144.0
225.485321 144.0
225.60791 192.0
225.643799 248.0
225.706604 40.0
225.889099 136.0
225.916031 80.0
225.960922 88.0
226.053711 48.0
226.11058 108.0
226.243835 812.0
226.277512 248.0
226.314774 408.0
226.402924 84.0
226.475967 68.0
226.526901 52.0
226.721725 144.0
226.934616 148.0
227.123596 68.0
227.221649 244.0
227.253403 1760.0
227.288193 708.0
227.32637 128.0
227.456772 172.0
227.499237 172.0
227.712067 60.0
227.829254 60.0
227.858017 112.0
227.892365 140.0
227.982544 100.0
228.06282 152.0
228.126862 180.0
228.212479 204.0
228.251953 864.0
228.284851 284.0
228.325363 152.0
228.403595 44.0
228.740707 176.0
228.864182 56.0
228.981659 52.0
229.232971 336.0
229.269302 864.0
229.614777 60.0
229.756577 36.0
229.825714 128.0
229.871277 56.0
230.258316 436.0
230.478409 156.0
230.578156 80.0
230.665833 168.0
230.838226 32.0
230.901749 152.0
230.971344 216.0
231.16806 156.0
231.218033 236.0
231.260605 668.0
231.286423 592.0
231.361832 200.0
231.386047 188.0
231.42543 116.0
231.619308 200.0
231.746582 84.0
231.89209 156.0
232.049759 64.0
232.134689 144.0
232.210526 160.0
232.273392 544.0
232.435089 108.0
232.456345 168.0
232.49884 176.0
232.592957 184.0
232.653687 136.0
232.717468 168.0
232.775177 44.0
233.015198 176.0
233.08815 92.0
233.278885 440.0
233.383072 56.0
233.787781 184.0
233.839523 156.0
233.897369 108.0
233.921738 60.0
233.961319 140.0
234.058777 68.0
234.142944 216.0
234.165405 124.0
234.214142 160.0
234.255463 788.0
234.300018 14588.0
234.351288 28.0
234.390778 172.0
234.417038 136.0
234.491501 56.0
234.543335 56.0
234.585083 52.0
234.606415 116.0
234.720215 72.0
234.755295 96.0
234.827499 196.0
234.93425 76.0
235.025711 96.0
235.049744 32.0
235.113861 140.0
235.135223 136.0
235.17186 208.0
235.202393 52.0
235.262573 484.0
235.301437 4824.0
235.376465 56.0
235.434509 176.0
235.462006 136.0
235.55777 116.0
235.657562 68.0
235.678955 40.0
235.73468 224.0
235.771408 324.0
235.801224 200.0
235.84404 80.0
235.966354 116.0
235.993881 48.0
236.051987 56.0
236.09935 200.0
236.204956 56.0
236.23555 268.0
236.268753 1324.0
236.303436 1152.0
236.339615 40.0
236.38858 40.0
236.437561 76.0
236.5784 36.0
236.599838 52.0
236.685593 124.0
236.759918 92.0
236.798935 60.0
236.866348 184.0
236.939896 52.0
237.037964 168.0
237.080887 136.0
237.163666 84.0
237.228302 196.0
237.247345 276.0
237.28035 2816.0
237.317703 1020.0
237.387527 48.0
237.470367 100.0
237.571625 60.0
237.954742 60.0
238.03891 40.0
238.081299 116.0
238.108948 104.0
238.204193 168.0
238.2491 260.0
238.285446 1180.0
238.319794 380.0
238.468521 52.0
238.60997 72.0
238.68927 56.0
238.82222 140.0
238.880676 180.0
238.979156 60.0
239.046616 192.0
239.083817 160.0
239.154617 172.0
239.188492 160.0
239.260971 2020.0
239.297531 2412.0
239.393448 44.0
239.47493 196.0
239.701752 84.0
239.897217 76.0
240.051422 116.0
240.109848 132.0
240.165558 112.0
240.232346 264.0
240.238739 56.0
240.268677 824.0
240.302414 620.0
240.345856 332.0
240.458771 52.0
240.483459 72.0
240.54068 272.0
240.752151 220.0
241.154358 120.0
241.237427 368.0
241.276535 1712.0
241.315247 880.0
241.410583 112.0
241.440292 104.0
241.475555 176.0
241.720032 120.0
241.952225 56.0
241.977005 52.0
242.011078 48.0
242.079224 48.0
242.234131 56.0
242.280853 440.0
242.315918 220.0
242.652618 80.0
242.795303 256.0
242.869766 104.0
243.260406 424.0
243.2883 304.0
243.328018 284.0
243.366455 52.0
243.627426 60.0
243.807693 64.0
244.022232 204.0
244.134216 156.0
244.165329 188.0
244.269043 148.0
244.280777 140.0
244.318939 268.0
244.404922 48.0
244.460953 212.0
244.498306 88.0
244.770691 116.0
244.797256 128.0
245.233215 188.0
245.278992 1668.0
245.386353 32.0
245.411301 228.0
245.561035 60.0
245.766983 220.0
245.877777 160.0
245.904327 140.0
245.935867 204.0
245.976151 84.0
246.020874 160.0
246.287277 948.0
246.329117 168.0
246.354111 88.0
246.429123 48.0
246.460373 128.0
247.085876 136.0
247.14534 144.0
247.274643 428.0
247.306503 960.0
247.398926 72.0
247.561798 176.0
247.589996 172.0
247.64325 88.0
247.695175 84.0
247.740387 172.0
247.818741 132.0
247.878281 116.0
247.903366 196.0
247.93158 100.0
248.166748 200.0
248.238892 156.0
248.280518 1336.0
248.308807 168.0
248.339279 148.0
248.502457 100.0
248.527557 76.0
248.643707 60.0
248.687653 132.0
248.841522 76.0
248.976593 128.0
249.029999 228.0
249.158829 52.0
249.229416 240.0
249.253311 320.0
249.287704 1308.0
249.324173 448.0
249.400879 148.0
249.561249 168.0
249.617859 160.0
249.753143 88.0
249.995468 44.0
250.159195 208.0
250.295334 1088.0
250.411163 88.0
250.650665 48.0
250.773605 44.0
250.954132 192.0
251.057434 188.0
251.120529 112.0
251.234131 276.0
251.268433 1076.0
251.305008 2192.0
251.375839 40.0
251.477173 52.0
251.568741 128.0
251.722229 180.0
251.761398 84.0
251.879578 112.0
251.947815 148.0
251.989563 96.0
252.105057 160.0
252.278122 372.0
252.309402 628.0
252.428391 180.0
252.554932 132.0
252.783875 164.0
253.150116 48.0
253.243027 236.0
253.285507 392.0
253.32103 3556.0
253.416275 128.0
253.895065 44.0
253.971222 152.0
254.044189 224.0
254.06424 104.0
254.104492 44.0
254.13623 136.0
254.212402 116.0
254.253677 180.0
254.293243 164.0
254.326416 484.0
254.450531 148.0
254.4823 68.0
254.555359 116.0
254.666534 136.0
255.060669 128.0
255.133804 152.0
255.251907 344.0
255.304855 1348.0
255.340698 612.0
255.709717 104.0
255.814789 92.0
255.964478 48.0
256.050476 116.0
256.181122 56.0
256.240936 208.0
256.263641 300.0
256.312561 396.0
256.38089 188.0
256.458435 220.0
256.554077 40.0
256.636993 80.0
256.697601 44.0
256.742279 52.0
256.84436 92.0
256.898621 40.0
257.112457 156.0
257.283691 436.0
257.320099 624.0
257.655457 60.0
257.767303 48.0
257.891998 76.0
258.231018 116.0
258.300598 356.0
258.346191 136.0
258.375 192.0
258.448608 52.0
258.488251 52.0
258.515442 204.0
258.626587 180.0
258.730347 128.0
258.90329 48.0
259.076324 72.0
259.298065 1868.0
259.364807 120.0
259.390472 128.0
259.576477 120.0
259.740601 236.0
259.794647 104.0
260.057861 248.0
260.211975 92.0
260.304779 724.0
260.356506 104.0
260.382233 92.0
260.417572 48.0
260.520386 48.0
261.005859 196.0
261.054108 168.0
261.253571 112.0
261.296234 460.0
261.353333 208.0
261.478882 188.0
261.823456 52.0
262.012756 160.0
262.042572 44.0
262.167969 128.0
262.311707 2772.0
262.354401 336.0
262.442352 160.0
262.619781 72.0
262.729492 88.0
262.752075 44.0
262.784363 104.0
262.810181 192.0
262.839233 56.0
262.913483 88.0
262.965118 116.0
263.08136 80.0
263.142731 92.0
263.184723 196.0
263.230621 188.0
263.30307 6992.0
263.375916 216.0
263.430237 52.0
263.459961 148.0
263.504578 48.0
263.547852 112.0
263.584595 224.0
263.620911 72.0
263.653259 108.0
263.71347 96.0
263.759949 208.0
263.795502 36.0
263.956299 56.0
263.986328 76.0
264.052429 56.0
264.173981 56.0
264.203094 56.0
264.307068 1240.0
264.468536 68.0
264.51709 104.0
264.623962 32.0
264.660919 68.0
265.181305 48.0
265.296906 1124.0
265.330872 1596.0
265.599701 160.0
265.700317 196.0
266.13739 108.0
266.197052 164.0
266.226776 224.0
266.262024 196.0
266.299164 1116.0
266.330261 640.0
266.358826 96.0
266.408234 132.0
266.476501 156.0
266.544739 40.0
266.593506 44.0
266.635773 104.0
266.661774 104.0
266.700775 64.0
266.81134 120.0
266.977234 84.0
267.130157 84.0
267.211487 36.0
267.271851 520.0
267.311127 1492.0
267.34668 196.0
267.429596 64.0
267.510986 72.0
267.55658 64.0
267.778076 88.0
267.833466 52.0
267.89212 176.0
268.00943 148.0
268.25946 144.0
268.286407 164.0
268.310242 612.0
268.374603 84.0
268.792267 32.0
268.903259 84.0
269.04364 84.0
269.203705 60.0
269.291901 1624.0
269.329498 1296.0
269.451996 112.0
269.5401 84.0
269.631775 84.0
269.714264 160.0
270.014404 68.0
270.18457 72.0
270.299469 484.0
270.341187 360.0
270.564301 116.0
270.619995 172.0
271.029541 164.0
271.275665 244.0
271.308594 492.0
271.3414 1248.0
271.404175 108.0
271.429565 184.0
271.491882 104.0
271.527985 104.0
271.573914 68.0
271.795166 104.0
271.872559 136.0
272.305664 176.0
272.316437 124.0
272.351166 104.0
272.897736 108.0
273.001312 156.0
273.197113 32.0
273.233307 124.0
273.304443 420.0
274.191803 132.0
274.314941 176.0
275.001709 140.0
275.033112 84.0
275.09256 120.0
275.267609 148.0
275.292725 212.0
275.318726 732.0
275.360107 124.0
275.459229 36.0
275.86911 48.0
275.9617 152.0
276.209808 168.0
276.29129 596.0
276.316681 152.0
277.302277 152.0
277.410553 80.0
277.770477 108.0
277.828033 252.0
277.873352 84.0
278.009735 44.0
278.117981 132.0
278.309753 132.0
278.856567 112.0
279.09079 184.0
279.145874 92.0
279.169159 68.0
279.268494 168.0
279.319794 1532.0
279.359894 184.0
279.396179 52.0
279.592926 188.0
279.643005 156.0
279.731506 96.0
279.861511 116.0
279.884827 148.0
279.944794 96.0
279.982147 56.0
280.059204 212.0
280.065796 124.0
280.092346 164.0
280.124023 144.0
280.174683 216.0
280.215881 224.0
280.264679 176.0
280.335541 75940.0
280.426239 68.0
280.458191 52.0
280.486908 88.0
280.527191 44.0
280.568573 172.0
280.603851 60.0
280.647095 120.0
280.69281 236.0
280.746307 108.0
280.77652 56.0
280.81012 84.0
280.845856 72.0
280.885498 88.0
280.912994 96.0
280.939148 84.0
280.97113 152.0
281.023712 112.0
281.060028 148.0
281.105225 108.0
281.138611 80.0
281.161407 76.0
281.235413 124.0
281.29007 300.0
281.33783 15744.0
281.432434 76.0
281.482544 88.0
281.546906 100.0
281.629547 52.0
281.665161 36.0
281.729034 144.0
281.742065 112.0
281.753296 220.0
281.799957 36.0
281.875885 28.0
281.906921 176.0
281.940338 56.0
281.986298 140.0
282.017242 48.0
282.140961 40.0
282.226868 112.0
282.268066 116.0
282.340088 2340.0
282.4487 60.0
282.565826 116.0
282.652435 96.0
282.699707 60.0
282.731873 80.0
282.801453 92.0
282.870453 40.0
282.906189 72.0
282.950836 124.0
283.017975 84.0
283.073883 128.0
283.158508 92.0
283.317902 676.0
283.348816 800.0
283.387024 64.0
283.466095 92.0
283.489594 120.0
283.533844 88.0
283.631073 48.0
283.748444 96.0
283.791229 124.0
283.882599 116.0
283.908173 116.0
283.91745 72.0
283.93219 144.0
284.070496 212.0
284.121246 96.0
284.167114 76.0
284.318481 256.0
284.340363 196.0
284.439728 68.0
284.69162 76.0
284.721832 84.0
284.752075 44.0
284.819275 84.0
284.943604 144.0
284.983948 44.0
285.252899 104.0
285.293976 220.0
285.334229 588.0
285.518585 44.0
285.61615 32.0
285.945984 48.0
285.99649 128.0
286.0672 36.0
286.232239 168.0
286.289398 168.0
286.311462 176.0
286.323425 212.0
286.45282 84.0
286.683777 40.0
286.771423 156.0
286.872559 60.0
286.914581 88.0
287.037811 40.0
287.270599 104.0
287.315094 752.0
287.348724 324.0
287.459625 28.0
288.320129 320.0
288.35556 184.0
288.419067 52.0
288.567871 68.0
288.65918 124.0
288.885864 48.0
289.055084 128.0
289.312195 148.0
289.357635 100.0
290.000244 148.0
290.298676 108.0
290.322418 108.0
290.376678 128.0
290.59726 104.0
290.85788 168.0
291.055603 132.0
291.167725 96.0
291.266235 84.0
291.32373 1824.0
291.440765 68.0
291.657135 120.0
291.725128 188.0
291.94281 64.0
291.98703 52.0
292.014252 140.0
292.187775 72.0
292.328003 748.0
292.827942 124.0
292.977844 60.0
293.018738 104.0
293.342407 840.0
293.387848 168.0
293.560883 176.0
293.839569 100.0
293.946899 92.0
294.342194 292.0
294.530457 56.0
294.626129 136.0
294.899567 148.0
295.176575 136.0
295.275787 216.0
295.320251 136.0
295.35788 156.0
295.40921 280.0
295.590607 140.0
295.614563 108.0
295.837097 52.0
295.93985 200.0
295.994659 92.0
296.035767 108.0
296.100861 108.0
296.333313 180.0
296.371552 212.0
296.42984 116.0
296.786438 72.0
297.215302 168.0
297.338104 640.0
297.702911 160.0
298.34671 624.0
298.562317 156.0
298.875458 112.0
299.037231 44.0
299.285431 156.0
299.357605 5088.0
299.433289 64.0
299.826172 100.0
300.097137 192.0
300.250336 64.0
300.363312 1464.0
300.64032 140.0
300.916534 88.0
301.016693 56.0
301.329529 388.0
301.901642 84.0
302.008881 52.0
302.03656 60.0
302.206116 32.0
302.313416 148.0
302.337646 136.0
302.722046 60.0
302.749756 144.0
302.867554 40.0
303.337402 276.0
303.536621 136.0
303.970367 60.0
304.512085 152.0
305.040405 156.0
305.330322 136.0
305.677063 100.0
305.847656 88.0
306.188965 52.0
307.328857 256.0
307.424103 132.0
308.108032 64.0
308.184937 144.0
308.350098 228.0
309.250183 124.0
309.348114 4460.0
309.584564 48.0
309.707184 144.0
309.780762 60.0
309.931458 76.0
310.001556 172.0
310.050629 80.0
310.125977 68.0
310.155823 76.0
310.253998 48.0
310.354889 1680.0
310.401306 60.0
310.436401 68.0
310.924164 56.0
310.966309 192.0
311.268311 48.0
311.325653 280.0
311.364044 1780.0
311.534729 72.0
312.066162 36.0
312.29129 64.0
312.328003 112.0
312.368561 484.0
312.441559 108.0
312.481323 92.0
312.611542 44.0
312.896729 120.0
313.021851 92.0
313.315979 180.0
313.362061 296.0
313.573669 108.0
314.381134 472.0
314.668396 68.0
315.359833 480.0
315.48349 32.0
315.593109 108.0
315.649719 36.0
316.318604 148.0
316.357544 280.0
317.370056 304.0
318.325928 176.0
318.370331 128.0
318.425415 192.0
318.517792 184.0
319.374695 88.0
319.81958 92.0
319.940643 76.0
320.165039 144.0
320.678253 192.0
321.116913 48.0
322.377533 64.0
322.484802 68.0
322.538422 136.0
323.336273 124.0
323.375641 136.0
324.049072 144.0
324.464966 124.0
324.945679 80.0
325.35495 100.0
325.904633 140.0
326.102325 40.0
326.231781 92.0
326.354065 116.0
326.382843 156.0
326.86499 72.0
327.174622 60.0
327.315063 108.0
327.37146 8492.0
327.45163 120.0
327.524017 40.0
327.581665 68.0
327.704193 52.0
327.794312 84.0
327.850067 120.0
328.374237 1416.0
328.421814 228.0
328.757446 32.0
329.057129 108.0
329.169098 144.0
329.2341 40.0
329.383698 624.0
329.512329 36.0
329.627991 120.0
329.902771 84.0
330.051056 76.0
330.373047 160.0
330.398376 116.0
330.629486 84.0
331.341034 132.0
331.386017 108.0
331.412079 412.0
331.680695 32.0
332.177612 92.0
332.42804 160.0
332.602295 64.0
332.747559 188.0
333.33252 176.0
333.362518 324.0
333.677917 88.0
334.36908 144.0
334.718872 44.0
335.365051 304.0
335.840454 156.0
336.192047 92.0
336.385529 144.0
337.145477 92.0
337.203979 132.0
338.759552 60.0
339.343262 140.0
339.377777 152.0
340.226898 48.0
340.390503 188.0
341.325806 132.0
341.351532 56.0
341.392365 108.0
342.382263 104.0
342.408051 148.0
342.905579 88.0
343.787292 92.0
344.307983 48.0
344.403809 128.0
344.448364 156.0
344.647919 104.0
345.006531 196.0
345.392059 5096.0
345.517059 28.0
345.554077 164.0
345.761353 32.0
345.79837 76.0
345.964996 32.0
346.005737 124.0
346.172394 68.0
346.257599 76.0
346.313171 124.0
346.396271 1092.0
346.524384 32.0
346.672668 36.0
346.709717 68.0
346.806122 64.0
347.034698 84.0
347.378082 364.0
347.443268 88.0
348.082733 44.0
348.149597 60.0
348.38739 160.0
348.419159 60.0
348.952454 36.0
349.067749 124.0
349.168182 80.0
349.377136 196.0
350.210632 132.0
351.3909 256.0
351.527069 36.0
352.393616 196.0
352.864685 104.0
353.283691 184.0
353.40094 252.0
354.324768 76.0
354.969635 96.0
355.344849 224.0
355.417664 160.0
355.784088 52.0
355.821655 76.0
356.531799 116.0
357.344269 64.0
358.401001 140.0
359.34549 60.0
359.416046 1200.0
360.115814 124.0
360.418213 260.0
360.447937 136.0
360.478607 100.0
361.363678 168.0
361.398712 152.0
361.791473 136.0
362.291534 60.0
362.424164 152.0
362.765381 100.0
363.125702 56.0
363.247101 44.0
363.387512 108.0
363.426056 180.0
363.52417 168.0
363.653229 124.0
364.409149 116.0
365.367523 136.0
365.394165 80.0
366.316315 132.0
367.013397 60.0
367.396454 128.0
367.593353 76.0
367.906433 116.0
368.334259 84.0
368.395416 116.0
368.42215 148.0
369.225098 124.0
369.324554 88.0
369.362823 140.0
369.409027 608.0
370.235748 96.0
370.407501 328.0
370.599762 52.0
370.753082 120.0
370.782471 60.0
370.871948 56.0
370.990814 64.0
371.419006 484.0
371.577759 112.0
371.900208 64.0
372.429169 144.0
372.879913 132.0
373.382782 152.0
373.42392 144.0
373.733856 120.0
374.103455 52.0
374.245941 92.0
374.531006 140.0
374.63504 88.0
376.494751 116.0
377.399506 124.0
377.435181 140.0
377.468903 100.0
378.33197 144.0
380.814423 68.0
381.222473 40.0
381.27301 140.0
381.421234 132.0
382.183228 80.0
383.41806 168.0
384.422363 132.0
385.432281 92.0
387.430573 984.0
387.49881 160.0
388.028076 104.0
388.090851 48.0
388.228119 112.0
388.432983 412.0
388.577332 48.0
389.052368 52.0
389.391663 188.0
389.423859 152.0
389.449097 88.0
389.539459 56.0
390.408356 108.0
391.42215 248.0
392.038635 64.0
392.409271 84.0
392.795868 80.0
393.420135 124.0
394.316498 108.0
394.415344 144.0
395.428192 104.0
396.450287 160.0
396.8349 68.0
397.299072 260.0
397.44989 124.0
397.985901 84.0
401.460846 116.0
402.434784 100.0
403.432465 144.0
403.473877 48.0
403.821869 96.0
404.458252 132.0
405.448151 656.0
405.596191 104.0
405.90097 48.0
406.437805 136.0
406.98468 108.0
407.109222 152.0
407.418579 144.0
408.391663 148.0
408.733734 136.0
410.619629 132.0
412.332001 144.0
413.449585 244.0
414.440979 156.0
415.452698 112.0
416.352173 116.0
416.449677 116.0
417.010529 52.0
418.23111 72.0
419.27002 168.0
419.470673 112.0
420.442963 184.0
420.493896 156.0
421.135101 60.0
421.472778 108.0
423.26236 44.0
423.473755 236.0
423.508148 112.0
424.012268 64.0
424.364899 128.0
424.44281 144.0
425.452454 140.0
425.752289 124.0
426.401581 48.0
429.131653 52.0
430.444183 152.0
431.179749 152.0
431.462524 528.0
431.511902 144.0
431.626343 44.0
432.460754 108.0
432.503662 116.0
432.888824 84.0
433.344604 92.0
433.476044 176.0
434.472626 84.0
436.283875 36.0
440.25177 104.0
441.471039 116.0
442.476959 112.0
443.180817 72.0
443.470062 184.0
447.466217 140.0
448.709473 108.0
449.017365 40.0
449.376038 164.0
449.481628 692.0
449.565979 40.0
450.492859 288.0
450.761414 140.0
451.167297 60.0
451.239197 172.0
451.3703 72.0
451.483917 184.0
452.94516 60.0
453.326599 132.0
453.441071 148.0
454.712982 104.0
454.934601 92.0
455.083221 148.0
455.155426 52.0
456.515656 120.0
457.38385 100.0
458.640808 96.0
459.500214 164.0
459.967773 76.0
460.104431 104.0
460.499542 144.0
461.523346 172.0
463.737274 92.0
464.4664 128.0
465.513947 52.0
466.068237 88.0
466.609955 136.0
467.518585 252.0
468.499359 136.0
468.525146 128.0
468.654999 48.0
469.538971 96.0
471.486633 152.0
471.841187 76.0
472.827728 64.0
473.52066 112.0
475.025177 52.0
476.271362 68.0
476.497314 232.0
477.50177 48.0
478.520325 160.0
478.729401 72.0
481.54126 396.0
482.356171 192.0
482.474243 88.0
483.540924 128.0
485.544678 84.0
486.334656 96.0
490.104675 48.0
491.528259 316.0
492.51947 152.0
493.53772 200.0
494.424774 48.0
494.743561 68.0
495.514404 116.0
496.614105 128.0
497.732788 60.0
500.490479 56.0
500.722107 88.0
502.380768 92.0
504.614471 120.0
506.718658 96.0
508.050568 56.0
508.47699 96.0
509.546875 2556.0
509.730286 88.0
509.82019 80.0
509.910126 104.0
510.094452 80.0
510.148407 32.0
510.233856 60.0
510.549713 488.0
510.635834 76.0
511.315125 92.0
511.399292 60.0
511.489349 36.0
511.553253 292.0
512.259583 92.0
514.519653 56.0
517.137756 64.0
518.773438 44.0
519.544617 104.0
520.55542 152.0
521.525085 32.0
522.270996 84.0
522.835327 44.0
526.415039 40.0
527.559631 168.0
527.588379 256.0
529.970337 116.0
530.772705 52.0
532.140442 64.0
532.342529 124.0
532.553894 112.0
536.793823 112.0
541.495239 104.0
542.923096 48.0
544.153137 60.0
546.198486 76.0
546.421875 96.0
552.891235 120.0
555.581604 64.0
556.948059 56.0
557.512024 140.0
560.656677 124.0
564.651917 148.0
566.588501 72.0
567.384949 88.0
568.974731 56.0
570.595337 88.0
576.894958 92.0
579.532776 92.0
580.093689 76.0
580.539734 136.0
581.168335 60.0
582.215088 52.0
582.685974 112.0
584.585876 156.0
586.575623 148.0
587.323242 36.0
588.672607 196.0
588.732971 108.0
590.865234 96.0
592.342224 120.0
594.466431 132.0
595.617493 120.0
600.135071 60.0
601.691956 64.0
605.63092 152.0
605.693359 100.0
606.67865 132.0
613.642334 128.0
621.816833 152.0
622.611389 128.0
622.8797 56.0
623.192749 48.0
623.645142 132.0
631.15033 136.0
636.357849 88.0
638.473999 120.0
639.681946 48.0
641.688293 336.0
642.677002 152.0
643.085327 108.0
643.661072 116.0
648.402588 100.0
655.662109 128.0
656.677124 132.0
659.670227 144.0
659.709412 260.0
660.680786 348.0
660.73938 132.0
661.717224 148.0
661.901611 36.0
662.716309 52.0
665.692322 140.0
666.714905 160.0
669.596802 68.0
670.622437 144.0
672.164917 56.0
673.6474 80.0
674.649963 168.0
683.547791 80.0
686.314575 96.0
690.634766 80.0
692.325745 120.0
692.640137 84.0
692.729187 120.0
703.613281 144.0
703.924927 36.0
710.797974 148.0
713.677795 56.0
714.789856 56.0
717.427063 72.0
725.941772 116.0
727.063354 60.0
740.302368 28.0
745.202026 56.0
746.409058 64.0
754.54657 112.0
765.904053 40.0
770.85437 140.0
771.307739 96.0
771.744629 36.0
772.75708 64.0
785.868042 76.0
787.7724 132.0
789.947632 56.0
791.397583 28.0
795.26123 52.0
818.208008 76.0
818.430115 164.0
819.387268 236.0
821.388855 48.0
824.118591 116.0
824.295776 100.0
827.087585 180.0
833.012817 188.0
838.307678 188.0
843.179932 156.0
844.672119 104.0
855.870728 68.0
856.773743 180.0
860.554199 64.0
865.765869 92.0
869.378235 96.0
872.362854 32.0
873.368713 136.0
875.641296 136.0
877.303467 72.0
881.70813 160.0
884.210571 136.0
885.697144 100.0
889.030212 56.0
889.493286 96.0
897.473755 68.0
900.906555 52.0
903.783142 156.0
904.687195 168.0
911.767151 96.0
914.287842 180.0
914.817627 160.0
917.203796 152.0
918.796326 120.0
920.698303 180.0
921.368958 88.0
923.243347 72.0
923.57605 144.0
926.603821 72.0
927.434265 48.0
930.595825 120.0
935.290466 176.0
936.246643 140.0
941.877869 144.0
944.892578 124.0
947.188904 72.0
949.040283 80.0
949.12616 76.0
949.27948 28.0
952.30603 196.0
952.588684 216.0
957.27063 64.0
957.979126 176.0
958.959167 56.0
961.062683 72.0
962.359253 236.0
963.298279 84.0
964.81897 220.0
965.81488 152.0
967.35614 136.0
970.200439 108.0
970.833069 184.0
971.552795 152.0
979.861267 152.0
981.076904 64.0
982.967346 176.0
987.654419 120.0
994.241333 124.0
995.227173 216.0
995.955872 96.0
997.282043 176.0
997.32605 212.0
998.112122 116.0
998.841919 124.0
999.924438 20.0
1001.234375 176.0
1001.543091 180.0
1005.844788 228.0
1006.261536 132.0
1007.777893 164.0
1008.119202 152.0
1009.187805 148.0
1011.383667 124.0
1013.182617 156.0
1013.803772 232.0
1014.304626 144.0
1015.420898 184.0
1018.106262 120.0
1028.768311 172.0
1028.825806 180.0
1029.375 192.0
1032.123535 172.0
1035.676514 172.0
1040.249878 192.0
1040.802124 228.0
1044.530884 180.0
1044.768921 152.0
1046.78418 228.0
1046.919434 204.0
1051.277588 128.0
1051.60791 152.0
1051.866089 60.0
1052.25354 92.0
1053.183838 80.0
1053.707153 196.0
1056.358521 108.0
1057.018677 172.0
1060.983765 160.0
1063.079468 200.0
1063.709229 184.0
1065.703613 168.0
1066.678711 84.0
1067.578857 184.0
1069.984497 136.0
1070.212524 164.0
1070.687988 200.0
1073.778076 60.0
1073.928223 48.0
1077.395386 176.0
1079.199829 168.0
1079.454956 160.0
1079.729736 112.0
1080.128784 76.0
1082.243286 56.0
1082.616699 84.0
1082.675659 172.0
1082.937622 196.0
1083.678101 128.0
1085.986328 196.0
1086.990356 216.0
1087.220215 60.0
1088.507202 72.0
1091.412476 240.0
1091.826904 176.0
1095.191162 164.0
1095.369019 68.0
1095.991577 164.0
1097.161987 164.0
1097.425781 180.0
1098.388916 132.0
1099.557129 100.0
1102.120117 56.0
1102.986206 80.0
1103.052368 188.0
1103.33667 160.0
1103.951782 140.0
1105.784912 156.0
1106.738403 128.0
1106.963623 176.0
1107.718872 160.0
1108.322021 252.0
1110.331177 32.0
1110.948242 112.0
1110.994751 160.0
1111.446045 128.0
1111.751343 96.0
1111.850952 140.0
1114.886841 128.0
1116.403076 172.0
1116.509521 228.0
1116.655884 160.0
1118.299683 140.0
1119.718262 92.0
1120.011475 172.0
1120.251343 132.0
1121.159424 184.0
1123.205322 92.0
1123.912598 204.0
1124.399902 84.0
1124.980835 188.0
1125.976074 148.0
1128.395752 156.0
1128.496094 124.0
1131.869385 136.0
1131.956421 172.0
1134.717896 160.0
1135.542969 144.0
1135.791138 196.0
1136.475708 208.0
1137.744507 160.0
1138.920044 220.0
1140.418823 140.0
1140.748291 200.0
1141.481445 44.0
1141.629395 72.0
1142.140747 148.0
1142.281982 172.0
1144.059082 176.0
1144.38916 124.0
1144.779785 188.0
1145.345703 204.0
1146.895874 188.0
1147.307251 80.0
1147.408447 52.0
1148.447266 232.0
1149.810547 116.0
1151.58667 216.0
1151.735352 76.0
1153.080322 128.0
1153.384521 220.0
1155.14563 188.0
1155.285278 64.0
1156.307373 92.0
1156.537598 60.0
1157.749878 108.0
1158.33252 180.0
1159.911865 172.0
1160.250854 112.0
1161.125854 88.0
1162.340576 172.0
1163.671265 176.0
1165.730103 140.0
1166.437134 60.0
1166.913208 188.0
1167.117188 116.0
1167.294067 184.0
1167.430054 144.0
1167.53894 168.0
1171.924072 148.0
1173.601318 152.0
1173.853638 192.0
1174.467651 168.0
1175.873657 192.0
1176.692993 156.0
1176.775024 184.0
1178.606079 200.0
1179.792603 164.0
1179.932373 192.0
1180.123901 128.0
1182.265625 128.0
1182.888672 144.0
1183.039307 152.0
1183.107788 120.0
1183.258423 120.0
1183.689941 208.0
1185.498901 220.0
1186.945801 168.0
1187.247559 160.0
1189.684204 184.0
1190.680054 176.0
1191.477173 156.0
1193.023926 188.0
1193.780396 140.0
1194.87439 140.0
1196.602417 84.0
1197.649536 164.0
1198.090454 192.0
1198.435059 172.0
1198.56604 140.0
1201.075806 232.0
1201.228149 200.0
1201.580078 152.0
1201.814697 176.0
1202.09082 132.0
1202.732788 52.0
1203.547729 132.0
1203.844727 164.0
1205.503174 184.0
1206.567993 124.0
1206.623291 192.0
1206.85144 180.0
1206.969116 160.0
1207.384155 196.0
1208.899658 148.0
1210.152832 156.0
1210.235962 112.0
1211.794922 144.0
1215.811035 164.0
1216.470581 72.0
1216.873413 188.0
1217.380371 188.0
1217.708008 176.0
1218.415649 204.0
1219.071167 188.0
1220.376221 164.0
1221.697998 88.0
1222.226929 148.0
1224.002441 96.0
1225.166016 80.0
1225.507446 80.0
1225.835083 212.0
1227.369141 216.0
1228.282959 208.0
1228.499268 164.0
1228.604004 164.0
1229.022705 132.0
1231.7323 244.0
1235.368408 188.0
1237.39856 148.0
1237.748779 192.0
1239.05188 136.0
1240.874756 220.0
1241.99707 176.0
1242.249634 116.0
1242.516357 140.0
1242.698853 164.0
1242.895386 144.0
1243.456909 172.0
1243.997559 108.0
1244.231445 168.0
1244.636597 132.0
1246.175293 92.0
1246.811768 172.0
1247.045776 252.0
1247.20166 72.0
1248.481689 164.0
1248.924927 188.0
1248.988159 84.0
1249.192261 108.0
1249.769287 184.0
1250.614136 188.0
1252.08606 188.0
1253.319214 172.0
1253.812622 204.0
1253.967773 132.0
1254.225586 188.0
1256.175415 148.0
1256.245972 92.0
1257.608276 184.0
1258.900635 100.0
1259.734253 160.0
1259.981567 136.0
1260.115845 172.0
1260.257202 192.0
1260.794434 168.0
1261.713623 148.0
1261.883423 52.0
1261.989502 132.0
1262.053101 140.0
1262.555298 68.0
1263.149658 152.0
1263.821899 200.0
1264.451904 132.0
1266.619263 132.0
1266.789307 168.0
1267.561768 204.0
1268.880493 196.0
1270.065186 212.0
1272.02417 132.0
1273.075317 208.0
1273.380859 184.0
1273.547729 184.0
1273.750244 44.0
1273.977661 112.0
1274.077148 144.0
1274.141113 52.0
1274.567505 160.0
1276.30249 148.0
1276.629639 200.0
1277.013794 112.0
1278.515381 172.0
1279.861206 144.0
1280.24585 220.0
1281.685303 188.0
1282.205688 100.0
1282.982788 164.0
1283.696045 184.0
1284.573608 136.0
1285.608521 100.0
1287.136597 224.0
1287.872437 148.0
1287.929565 168.0
1288.004761 264.0
1288.751343 116.0
1290.081055 180.0
1290.245605 112.0
1291.068115 76.0
1291.347046 156.0
1292.442017 80.0
1292.570801 44.0
1294.582886 172.0
1294.640259 212.0
1295.349487 64.0
1295.600342 212.0
1295.82251 124.0
1296.116333 236.0
1296.352905 120.0
1297.292114 124.0
1297.356689 216.0
1297.786987 132.0
1298.138428 132.0
1298.324951 156.0
1298.891724 184.0
1299.307983 180.0
1300.765137 208.0
1301.310913 180.0
1301.641357 108.0
1301.799316 168.0
1302.115479 176.0
1302.690186 140.0
1302.891479 84.0
1303.056763 132.0
1304.242798 84.0
1305.05542 184.0
1305.702881 216.0
1306.595093 176.0
1307.091675 228.0
1308.329956 96.0
1309.878784 196.0
1313.808716 216.0
1315.461792 132.0
1318.110474 156.0
1318.713257 80.0
1321.425781 108.0
1322.762085 188.0
1323.894897 164.0
1325.040649 148.0
1325.713745 48.0
1327.606445 152.0
1328.542358 156.0
1329.819946 84.0
1330.698608 156.0
1331.439453 136.0
1331.584717 112.0
1331.79541 112.0
1331.962524 48.0
1332.529419 184.0
1332.61438 176.0
1332.789673 196.0
1333.096313 48.0
1333.430664 216.0
1333.736084 216.0
1333.983276 128.0
1334.696045 208.0
1335.168823 172.0
1335.365234 208.0
1336.820679 156.0
1338.306152 236.0
1341.390625 184.0
1341.454346 56.0
1342.635986 168.0
1343.072144 172.0
1344.387329 156.0
1345.095581 88.0
1345.256226 96.0
1345.482544 200.0
1345.884277 120.0
1347.194702 212.0
1347.272339 144.0
1347.403931 140.0
1347.568604 132.0
1347.871704 100.0
1350.050659 216.0
1351.858154 144.0
1351.938721 124.0
1352.355957 136.0
1352.583008 144.0
1353.915771 144.0
1354.480103 108.0
1355.608643 176.0
1355.92395 204.0
1357.50061 152.0
1358.807373 180.0
1359.981079 120.0
1360.157349 168.0
1360.223389 128.0
1360.326172 76.0
1360.994507 136.0
1361.780518 204.0
1362.353638 156.0
1363.169434 120.0
1364.581177 144.0
1364.787109 196.0
1366.000977 40.0
1366.508667 172.0
1366.766357 100.0
1367.193237 188.0
1367.465576 148.0
1367.539307 228.0
1368.143066 160.0
1368.386108 132.0
1368.562866 148.0
1368.798584 212.0
1369.144775 160.0
1369.682617 256.0
1369.822632 140.0
1370.72168 136.0
1371.289307 192.0
1371.473633 248.0
1372.034058 144.0
1372.388062 260.0
1372.771606 228.0
1372.919189 144.0
1373.35437 72.0
1373.679077 156.0
1374.63855 160.0
1375.472778 256.0
1375.712646 148.0
1375.923218 76.0
1377.94751 196.0
1378.213501 220.0
1379.352051 112.0
1379.492432 208.0
1380.46875 192.0
1381.667358 176.0
1382.32605 180.0
1383.473633 240.0
1386.133423 152.0
1386.474365 248.0
1386.817017 184.0
1387.015625 152.0
1387.089722 160.0
1387.449341 108.0
1387.63855 80.0
1388.914429 112.0
1389.611938 128.0
1390.346802 168.0
1390.64209 172.0
1391.119019 232.0
1391.668579 144.0
1391.742798 224.0
1393.399658 124.0
1393.526001 136.0
1393.823242 172.0
1394.276733 140.0
1394.544312 136.0
1394.66333 216.0
1394.77478 120.0
1395.243286 120.0
1395.65979 160.0
1395.927612 136.0
1396.08374 168.0
1396.299561 140.0
1396.857544 212.0
1397.877197 132.0
1399.872803 156.0
1400.178223 128.0
1400.543213 120.0
1400.625244 148.0
1400.729492 120.0
1400.960571 124.0
1401.310791 156.0
1402.544922 128.0
1403.4729 48.0
1404.554688 152.0
1404.815796 180.0
1404.875488 176.0
1405.726318 176.0
1405.987671 220.0
1406.166626 168.0
1406.248901 200.0
1406.360962 116.0
1406.771606 64.0
1406.913452 144.0
1407.085205 176.0
1407.279419 124.0
1407.384033 132.0
1407.473633 124.0
1407.720093 196.0
1408.250488 132.0
1408.967896 172.0
1409.027588 148.0
1410.148804 92.0
1410.806885 136.0
1411.651978 184.0
1412.138306 32.0
1413.02124 148.0
1413.365479 64.0
1413.739746 128.0
1414.338745 156.0
1414.525879 176.0
1414.915283 164.0
1415.214844 124.0
1415.769165 220.0
1416.068848 192.0
1416.668213 32.0
1416.893066 84.0
1417.327759 140.0
1417.942383 196.0
1418.849731 156.0
1420.410034 104.0
1420.620117 176.0
1420.725098 100.0
1421.573242 140.0
1422.121338 200.0
1422.616821 124.0
1423.397949 208.0
1423.570679 208.0
1423.713379 140.0
1424.036499 148.0
1424.802856 72.0
1425.020874 228.0
1425.742432 152.0
1427.690186 336.0
1428.132446 204.0
1428.284546 152.0
1429.142334 184.0
1430.625488 56.0
1431.197876 116.0
1431.499146 40.0
1432.101807 184.0
1432.169678 164.0
1432.629272 184.0
1433.284912 148.0
1433.593994 140.0
1433.805054 128.0
1434.038818 64.0
1434.626953 200.0
1435.577271 140.0
1436.248657 168.0
1436.407104 184.0
1437.192017 132.0
1438.075195 116.0
1438.475342 164.0
1438.664185 252.0
1438.815186 156.0
1438.898315 164.0
1439.933105 116.0
1440.325928 196.0
1441.361328 44.0
1441.822388 104.0
1441.882935 184.0
1442.472656 140.0
1442.926392 192.0
1444.023193 60.0
1444.136597 124.0
1444.234985 136.0
1444.946289 164.0
1445.068726 280.0
1445.211182 216.0
1445.297485 204.0
1445.513916 204.0
1446.021118 180.0
1447.237549 184.0
1447.687256 204.0
1447.869019 188.0
1448.459961 176.0
1448.535767 200.0
1448.649414 104.0
1448.785889 64.0
1448.861572 228.0
1449.437622 132.0
1449.528564 216.0
1449.687744 132.0
1450.203247 120.0
1450.381348 224.0
1450.582397 180.0
1450.680908 76.0
1451.469727 52.0
1451.614502 176.0
1451.674561 112.0
1452.14563 192.0
1452.266235 156.0
1452.812622 196.0
1453.913086 140.0
1454.535645 164.0
1456.016724 64.0
1456.153442 176.0
1456.237061 176.0
1456.518188 160.0
1457.931763 144.0
1458.266235 140.0
1458.418335 128.0
1458.927734 200.0
1459.87085 220.0
1460.000244 172.0
1460.601196 124.0
1461.385132 108.0
1461.681885 136.0
1461.879883 116.0
1462.14624 176.0
1463.219849 48.0
1464.880615 140.0
1465.802734 152.0
1466.664185 208.0
1466.809082 148.0
1467.686035 52.0
1467.861572 200.0
1468.159058 160.0
1468.50061 176.0
1468.515991 136.0
1468.715942 184.0
1468.807495 188.0
1469.051636 124.0
1469.440918 80.0
1469.639282 208.0
1471.166138 68.0
1471.853516 148.0
1472.166748 152.0
1473.373901 200.0
1473.824829 192.0
1474.054199 144.0
1474.161133 160.0
1474.344604 184.0
1474.872192 212.0
1475.92749 180.0
1476.011597 164.0
1476.439941 132.0
1476.837769 148.0
1477.748413 48.0
1478.039307 200.0
1478.230591 104.0
1478.483276 168.0
1478.712891 56.0
1478.789429 192.0
1479.470947 144.0
1479.539917 152.0
1480.673462 216.0
1480.773071 172.0
1480.946777 180.0
1481.332397 116.0
1481.761597 156.0
1482.494141 212.0
1483.110718 52.0
1483.390381 172.0
1484.50647 144.0
1485.005127 196.0
1485.127808 252.0
1485.511475 164.0
1486.079346 132.0
1486.19458 164.0
1486.63208 208.0
1487.753052 176.0
1487.914307 180.0
1488.029419 300.0
1488.252197 116.0
1488.981934 160.0
1489.035767 120.0
1489.38916 32.0
1489.496704 152.0
1490.504883 180.0
1490.572632 56.0
1490.995483 204.0
1491.409668 240.0
1491.479736 124.0
1491.818115 172.0
1492.62561 120.0
1492.864136 216.0
1493.102539 148.0
1493.864258 160.0
1494.172119 52.0
1494.572266 212.0
1494.972534 80.0
1495.226562 192.0
1495.707764 156.0
1495.950317 236.0
1496.196777 168.0
1496.420166 192.0
1496.473999 208.0
1498.099609 160.0
1499.247925 176.0
1499.887817 144.0
1500.01123 100.0
1500.48938 180.0
1500.820923 164.0
1501.546143 176.0
1501.684937 148.0
1501.947266 148.0
1502.448853 144.0
1502.68042 148.0
1502.796143 224.0
1503.012207 56.0
1503.081665 80.0
1503.189819 128.0
1503.305542 236.0
1503.984985 148.0
1504.301514 200.0
1504.51001 180.0
1504.710815 176.0
1504.795776 232.0
1505.23584 136.0
