>compound Mometasone furoate
>formula C27H30Cl2O6
>ionization [M+Na]+
>parentmass 543.129272
#inchi InChI=1S/C27H30Cl2O6/c1-15-11-19-18-7-6-16-12-17(30)8-9-24(16,2)26(18,29)21(31)13-25(19,3)27(15,22(32)14-28)35-23(33)20-5-4-10-34-20/h4-5,8-10,12,15,18-19,21,31H,6-7,11,13-14H2,1-3H3/t15-,18+,19+,21-,24+,25+,26-,27-/m1/s1
#inchikey WOFMFGQZHJDGCX
#Ion_Source LC-ESI
#Instrument qTof
#Compound_Source Commercial
#PI Dorrestein
#Data_Collector Garg_Neha
#Scan -1
#Precursor_MZ 543.131
#ExactMass 520.142
#Charge 1
#CAS_Number 83919-23-7
#Pubmed_ID N/A
#Smiles C1C(C=C2[C@](C=1)([C@]3([C@@](CC2)([C@]4([C@](C[C@H]3O)([C@@]([C@@H](C4)C)(C(CCl)=O)OC(=O)C5=CC=CO5)C)[H])[H])Cl)C)=O
#INCHI_AUX N/A
#Library_Class 1
#SpectrumID CCMSLIB00000078371
#IonMode Positive
#UpdateWorkflowName UPDATE-SINGLE-ANNOTATED-GOLD
#LibraryQualityString Gold
#TaskID 77f51c88eb8b467eb4a01dd2d0cb90d2
##Scan# 2328
#SpectrumFile Plate6_1_20_GD7_01_15774.mzXML
#LibraryName FDALibrary_2_04302014.mgf
#MQScore -1
#Organism FDALibrary_2_04302014
#TIC_Query 0
#RT_Query -1
#MZErrorPPM -1
#SharedPeaks 0
#MassDiff 0
#LibMZ -1
#SpecMZ 543.131
#SpecCharge 0
#internalFilename spec-00000.mgf

>collision 10
119.085068 160.0
124.868187 148.0
146.064957 168.0
149.934235 144.0
151.079437 176.0
153.018311 176.0
153.47908 140.0
159.082275 144.0
165.069672 140.0
177.074188 200.0
179.079498 300.0
180.090393 156.0
183.05397 148.0
186.063446 164.0
186.857056 144.0
187.074783 192.0
205.071579 100.0
213.909302 140.0
223.070297 164.0
235.107407 160.0
245.074493 168.0
247.157196 140.0
249.130203 184.0
255.137207 148.0
262.137512 240.0
263.142548 144.0
264.154602 152.0
265.156403 96.0
265.21109 160.0
275.143524 336.0
276.143463 264.0
277.159882 168.0
290.15979 168.0
291.184601 224.0
293.149139 332.0
294.157166 272.0
295.124054 140.0
295.154694 124.0
296.147278 140.0
301.161804 140.0
303.132263 396.0
304.149841 216.0
306.153259 148.0
313.159668 544.0
314.162628 176.0
318.161743 164.0
319.164825 428.0
320.170776 152.0
322.146851 156.0
324.146912 216.0
331.157837 156.0
332.170227 176.0
349.165771 152.0
351.124817 200.0
359.151733 140.0
369.182434 152.0
377.168884 96.0
380.107819 156.0
382.105011 156.0
392.654388 172.0
394.157379 156.0
394.877991 144.0
395.135712 1492.0
396.131714 172.0
397.134674 864.0
398.141724 148.0
398.954376 148.0
399.153168 168.0
405.212311 172.0
413.147705 240.0
414.710846 172.0
428.153259 152.0
449.182831 152.0
454.157196 136.0
466.820892 148.0
471.169647 292.0
472.184113 128.0
481.180359 232.0
494.128662 120.0
501.188263 136.0
505.13559 112.0
507.15271 7364.0
507.832489 164.0
507.879791 132.0
508.15625 2044.0
509.030762 148.0
509.150696 1500.0
510.155151 392.0
510.237427 116.0
510.950073 160.0
511.15332 116.0
523.156067 180.0
524.158386 164.0
526.164246 216.0
526.671875 152.0
527.147034 168.0
542.275024 168.0
543.129272 2332.0
544.135498 844.0
545.126526 1596.0
545.186523 132.0
545.339661 116.0
546.131531 764.0
546.345764 104.0
547.124207 212.0
549.189514 164.0
561.131714 172.0
562.140381 116.0
563.134155 132.0
1795.563599 240.0
