>compound MLS001140928-01!4-[[[2-[(7-methyl-4-oxo-2,3-dihydro-1H-cyclopenta[c]chromen-9-yl)oxy]acetyl]amino]methyl]cyclohexane-1-carboxylic acid
>formula C23H27NO6
>ionization [M+H]+
>parentmass 414.192
#inchi InChI=1S/C23H27NO6/c1-13-9-18(21-16-3-2-4-17(16)23(28)30-19(21)10-13)29-12-20(25)24-11-14-5-7-15(8-6-14)22(26)27/h9-10,14-15H,2-8,11-12H2,1H3,(H,24,25)(H,26,27)/t14-,15-
#inchikey VWGGZKLSAOKBTB
#Ion_Source LC-ESI
#Instrument qTof
#Compound_Source NIH Natural Product Library
#PI Dorrestein
#Data_Collector VVP/LMS
#Scan -1
#Precursor_MZ 414.192
#ExactMass 413.184
#Charge 1
#CAS_Number N/A
#Pubmed_ID N/A
#Smiles Cc1cc(OCC(=O)NC[C@H]2CC[C@@H](CC2)C(=O)O)c3c4CCCc4c(=O)oc3c1
#INCHI_AUX N/A
#Library_Class 1
#SpectrumID CCMSLIB00000079752
#IonMode Positive
#UpdateWorkflowName UPDATE-SINGLE-ANNOTATED-GOLD
#LibraryQualityString Gold
#TaskID b1d8e8f6646f4e71acdff9ca3d919d08
##Scan# 1998
#SpectrumFile p1-F10_GF10_01_17942.mzXML
#LibraryName NIH_Natural_Products_Library.mgf
#MQScore -1
#Organism NIH_Natural_Products_Library
#TIC_Query 0
#RT_Query -1
#MZErrorPPM -1
#SharedPeaks 0
#MassDiff 0
#LibMZ -1
#SpecMZ 414.192
#SpecCharge 0
#internalFilename spec-00000.mgf

>collision 10
95.013298 180.0
95.052109 160.0
95.084267 1068.0
95.133621 40.0
95.224884 172.0
95.426979 152.0
95.640968 216.0
95.804535 136.0
95.974098 220.0
96.094376 288.0
96.120201 164.0
96.137947 132.0
96.161369 104.0
96.264839 156.0
96.550156 176.0
96.891022 140.0
97.187386 156.0
97.707443 180.0
97.977158 120.0
98.063858 124.0
98.261047 132.0
98.495972 52.0
99.150871 128.0
99.412643 124.0
99.84771 168.0
100.796616 116.0
101.244705 212.0
101.260727 188.0
101.54332 216.0
102.161987 180.0
102.568748 180.0
103.232986 184.0
105.067123 160.0
105.293694 92.0
105.53891 120.0
105.884743 172.0
106.042503 64.0
106.11425 92.0
106.272171 176.0
106.399422 136.0
106.426109 156.0
106.635643 116.0
106.684982 164.0
106.855675 160.0
107.052223 180.0
107.084167 172.0
107.211899 184.0
108.052338 168.0
108.561836 156.0
108.781761 124.0
108.991241 176.0
109.022697 196.0
109.095444 140.0
109.588684 152.0
109.740837 116.0
109.792961 116.0
109.943169 80.0
110.056923 168.0
110.09584 172.0
110.172852 216.0
110.225082 76.0
110.256424 220.0
110.513634 136.0
110.869614 176.0
111.020554 192.0
111.069855 268.0
111.105873 192.0
111.238754 180.0
111.280746 36.0
111.46138 112.0
111.576981 100.0
111.658981 136.0
111.913605 180.0
112.071579 236.0
112.112549 660.0
112.62429 184.0
112.658089 32.0
112.781708 156.0
113.186836 88.0
113.227074 80.0
113.426231 124.0
113.780502 108.0
113.95253 96.0
113.990776 48.0
114.131065 136.0
114.503471 104.0
114.533287 120.0
115.051468 320.0
115.070679 72.0
115.271461 132.0
115.427505 180.0
115.754898 120.0
115.853699 156.0
116.33593 228.0
116.413223 40.0
116.557144 160.0
116.733849 176.0
117.068504 340.0
118.451385 112.0
118.984863 176.0
119.030457 160.0
119.079659 140.0
119.219444 132.0
119.610931 196.0
119.704552 200.0
119.813454 172.0
120.057579 148.0
120.668976 244.0
121.062569 308.0
121.081848 188.0
121.163589 160.0
121.433434 196.0
121.448219 128.0
121.927193 80.0
122.160255 60.0
122.739487 200.0
122.785797 136.0
123.046173 172.0
123.081734 180.0
123.101379 120.0
123.134506 76.0
123.620865 172.0
123.817894 52.0
123.992912 128.0
124.070496 84.0
124.111618 444.0
124.132576 132.0
124.565361 92.0
124.638672 132.0
125.065666 140.0
125.116859 212.0
125.185883 192.0
125.350731 188.0
125.388611 124.0
125.464401 196.0
125.57589 156.0
125.912895 168.0
126.064812 120.0
127.287895 152.0
128.065552 272.0
128.826187 176.0
129.066971 504.0
129.835678 108.0
129.955902 156.0
130.075378 236.0
130.260117 164.0
130.303268 184.0
131.054092 76.0
131.087433 252.0
131.466812 180.0
131.564972 160.0
132.040237 164.0
132.09285 152.0
132.298798 128.0
132.410995 156.0
132.614899 140.0
132.713486 200.0
132.874023 164.0
133.097794 152.0
133.319473 160.0
133.411423 160.0
133.625351 184.0
134.097366 112.0
134.572571 124.0
134.976913 176.0
135.053238 140.0
136.437607 76.0
136.740005 132.0
136.826126 160.0
137.024078 104.0
137.065582 236.0
137.071945 192.0
138.08905 256.0
138.561371 124.0
138.612915 76.0
139.053802 144.0
139.096054 184.0
139.335587 144.0
139.446014 160.0
139.664688 48.0
140.103409 192.0
140.326416 172.0
140.531601 140.0
141.069489 312.0
141.111099 316.0
141.292374 160.0
141.892197 176.0
142.073212 328.0
142.311493 56.0
142.366104 112.0
142.403946 272.0
142.465866 192.0
142.924728 180.0
143.085953 156.0
144.082977 80.0
144.382248 144.0
145.062546 1424.0
145.099457 492.0
145.249268 136.0
145.563675 232.0
145.729401 188.0
145.97699 164.0
146.068069 248.0
146.766785 92.0
146.957336 168.0
147.043854 192.0
147.08374 244.0
147.128693 120.0
147.440277 172.0
147.65062 112.0
147.873199 152.0
147.984543 164.0
148.049927 128.0
148.116104 260.0
148.357635 100.0
148.682663 228.0
148.731201 148.0
148.959457 124.0
149.068787 236.0
149.268112 108.0
149.299728 92.0
149.606308 164.0
150.230164 184.0
150.523041 184.0
151.30545 156.0
151.535675 224.0
151.636139 100.0
152.061768 176.0
152.105789 612.0
152.622986 108.0
152.770554 140.0
153.075745 164.0
153.113983 1068.0
153.285126 116.0
153.80304 152.0
154.074738 148.0
154.117966 316.0
154.346542 172.0
154.715195 104.0
154.834045 144.0
155.05574 312.0
155.084457 620.0
155.111542 56.0
155.329758 132.0
155.500961 88.0
155.858551 52.0
156.064545 160.0
156.333496 112.0
156.79921 152.0
156.824127 212.0
157.064438 296.0
157.098221 204.0
157.807693 68.0
158.072754 1308.0
158.365738 32.0
158.691498 160.0
158.879608 180.0
159.07756 332.0
159.115509 132.0
159.311401 176.0
159.690948 144.0
160.078995 168.0
160.247269 132.0
160.264908 128.0
160.458984 176.0
160.925735 236.0
161.05838 532.0
161.091965 356.0
161.221268 124.0
161.494324 216.0
162.063156 300.0
162.104446 160.0
162.172882 144.0
162.436584 196.0
162.667496 264.0
162.72081 176.0
162.908737 76.0
162.990036 248.0
163.040863 100.0
163.09169 140.0
163.129822 92.0
163.442642 204.0
163.501175 60.0
164.043701 160.0
164.745468 160.0
164.993362 212.0
165.063324 392.0
165.131439 120.0
165.433365 52.0
165.699707 196.0
166.063721 172.0
166.469208 84.0
166.993469 148.0
167.606171 148.0
167.760803 180.0
168.05481 188.0
168.416473 208.0
168.581573 284.0
168.88147 132.0
168.933197 184.0
169.071228 116.0
169.101395 60.0
169.562393 68.0
169.632385 156.0
170.072556 628.0
170.114044 548.0
170.262878 56.0
170.488892 132.0
170.735855 164.0
170.967392 216.0
171.075943 360.0
171.107605 212.0
171.738571 112.0
171.756836 168.0
172.088257 156.0
172.393875 112.0
172.45137 156.0
173.064896 336.0
173.095566 1092.0
173.249466 136.0
173.377853 136.0
174.061569 272.0
174.101913 196.0
174.212494 200.0
174.425079 168.0
174.511841 156.0
174.806427 80.0
174.838013 100.0
175.073883 168.0
175.106216 128.0
175.135513 160.0
175.16449 40.0
175.275146 76.0
175.979385 108.0
176.077103 128.0
176.10614 160.0
176.301651 88.0
176.486694 280.0
176.629501 164.0
177.394775 180.0
178.151077 224.0
178.520523 204.0
178.56041 136.0
178.7892 172.0
179.225922 164.0
179.247559 168.0
179.399155 104.0
179.524475 112.0
180.100632 768.0
180.29599 176.0
180.408249 176.0
181.098618 160.0
181.29686 164.0
181.323669 108.0
181.653458 60.0
181.704437 152.0
181.943283 156.0
182.085602 108.0
182.201111 116.0
182.289764 156.0
182.806076 196.0
183.076828 692.0
183.183014 212.0
183.986633 220.0
184.086533 300.0
184.11084 128.0
184.272903 116.0
185.027481 148.0
185.05455 204.0
185.094559 888.0
185.238708 204.0
185.322693 136.0
185.924667 212.0
186.06311 156.0
186.097534 148.0
186.174438 180.0
186.326538 128.0
186.987305 180.0
187.076584 668.0
187.104355 136.0
187.134293 60.0
187.297699 48.0
188.039322 152.0
188.081299 1092.0
188.285034 148.0
188.87265 56.0
189.060074 104.0
189.089767 1292.0
189.140808 60.0
189.798309 268.0
189.982071 84.0
190.092743 344.0
190.207092 36.0
190.921432 92.0
190.98941 212.0
191.094727 156.0
191.19104 116.0
191.849335 140.0
192.028564 164.0
192.718704 252.0
192.843048 152.0
192.997864 120.0
193.022751 172.0
193.443283 212.0
193.925247 104.0
193.986221 156.0
194.371735 148.0
194.779846 220.0
195.166138 160.0
195.519424 196.0
195.655807 140.0
195.962173 208.0
196.095932 128.0
197.06723 384.0
197.696182 140.0
197.92012 176.0
198.058411 368.0
198.111633 516.0
198.309509 116.0
198.388 212.0
198.463699 152.0
198.814331 160.0
198.862045 160.0
199.055756 36.0
199.076813 372.0
199.117538 148.0
199.783707 172.0
199.842789 140.0
200.078598 208.0
200.152405 148.0
200.397446 156.0
200.459442 140.0
200.479172 76.0
200.653931 148.0
200.699036 80.0
200.952881 208.0
201.059357 428.0
201.089417 5748.0
201.187134 56.0
201.28595 72.0
201.373489 96.0
201.545807 36.0
201.700211 120.0
202.094574 356.0
202.15094 176.0
202.247162 128.0
202.300949 120.0
203.054657 184.0
203.102448 300.0
203.503006 132.0
203.718842 184.0
204.022919 212.0
204.116745 152.0
205.06189 88.0
205.298508 192.0
206.583801 136.0
206.738312 180.0
207.092514 144.0
207.878845 116.0
208.27504 52.0
209.045532 140.0
209.072388 96.0
209.175049 180.0
209.252777 164.0
209.301727 152.0
210.201065 144.0
210.457962 172.0
211.067917 284.0
211.093658 60.0
212.054794 156.0
212.083786 184.0
212.347626 228.0
212.660965 96.0
212.739349 52.0
212.829346 212.0
213.046341 268.0
213.111084 184.0
213.227325 56.0
213.285446 196.0
213.596588 144.0
213.67804 44.0
214.059143 1012.0
214.569229 88.0
214.691696 76.0
214.717941 48.0
214.825867 228.0
215.068787 7080.0
215.138107 28.0
215.211197 120.0
215.283188 168.0
215.570389 152.0
215.684357 88.0
215.769135 136.0
215.915344 156.0
215.938736 140.0
216.075165 3356.0
216.112747 204.0
216.178635 68.0
216.266434 80.0
216.29277 64.0
216.491867 44.0
216.559494 44.0
216.615875 152.0
216.655884 104.0
216.676392 60.0
216.711548 184.0
216.758438 96.0
216.872726 96.0
216.900299 196.0
217.048309 148.0
217.083557 10740.0
217.130264 296.0
217.190628 112.0
217.276062 44.0
217.315048 152.0
217.46814 120.0
217.514755 104.0
217.760361 120.0
217.929184 112.0
217.967377 32.0
218.086746 2348.0
218.349533 96.0
218.610153 136.0
218.652573 60.0
218.693771 176.0
218.73204 136.0
218.75853 96.0
218.867462 48.0
219.088348 268.0
219.350616 156.0
219.627792 68.0
219.778244 124.0
219.881531 244.0
220.345123 96.0
220.989655 132.0
221.279709 136.0
221.392227 48.0
221.481079 160.0
223.003189 68.0
223.803421 208.0
224.050629 76.0
224.402298 64.0
224.593155 100.0
224.736343 180.0
226.52713 92.0
226.614014 180.0
226.694916 64.0
226.9767 120.0
227.065506 684.0
227.126648 188.0
227.958267 220.0
228.070358 216.0
228.103119 204.0
228.186707 68.0
228.445343 48.0
228.654114 128.0
228.689072 48.0
228.809479 48.0
228.854645 168.0
228.875717 208.0
228.944977 120.0
229.084946 15932.0
229.20929 108.0
229.242096 152.0
229.306503 56.0
229.3909 108.0
229.471542 80.0
229.53421 164.0
229.650208 148.0
229.710541 64.0
229.734665 76.0
229.795013 44.0
230.087204 2384.0
230.128693 144.0
230.154175 56.0
230.302155 80.0
230.456223 92.0
230.519684 48.0
230.565002 48.0
230.722183 140.0
230.861267 48.0
231.060913 196.0
231.09581 348.0
231.209167 48.0
231.257599 52.0
231.496765 100.0
231.578537 80.0
231.669403 76.0
231.702728 168.0
231.839081 108.0
231.959381 52.0
232.093719 156.0
232.151321 80.0
232.248383 120.0
232.494125 124.0
233.098434 52.0
233.368958 96.0
233.44194 32.0
235.923813 112.0
236.174561 176.0
237.611267 132.0
238.093185 164.0
239.070786 112.0
239.739044 204.0
240.096512 176.0
241.079376 192.0
241.158707 152.0
241.276169 124.0
242.44928 176.0
242.694168 128.0
243.621201 132.0
244.44606 72.0
244.763565 140.0
246.082489 124.0
246.11087 236.0
246.379181 60.0
246.438538 68.0
246.764191 104.0
246.970535 112.0
248.492432 72.0
249.24913 172.0
250.025864 116.0
250.791183 100.0
250.942169 168.0
251.346222 160.0
251.769226 120.0
252.028259 52.0
253.081528 136.0
253.265198 120.0
254.295654 180.0
254.619492 164.0
254.816437 220.0
255.010284 148.0
255.058426 336.0
255.426804 92.0
255.557236 180.0
255.90416 48.0
256.093506 140.0
256.582794 192.0
256.866608 136.0
256.98941 128.0
257.08017 7284.0
257.243134 152.0
257.42981 112.0
257.536896 36.0
257.658295 68.0
257.718994 48.0
257.834045 76.0
257.993866 44.0
258.08374 1280.0
258.368011 144.0
258.451202 60.0
258.515198 40.0
258.5802 84.0
258.63681 76.0
259.08316 260.0
259.1492 64.0
259.39917 72.0
259.700592 64.0
259.849976 28.0
259.899475 68.0
260.095245 184.0
260.275024 120.0
260.483795 48.0
261.07196 88.0
262.369568 76.0
263.673615 104.0
265.389252 124.0
266.125793 132.0
267.719116 156.0
268.090485 144.0
268.132874 200.0
270.0755 148.0
270.396149 164.0
270.513977 80.0
270.841431 88.0
271.37558 80.0
271.966095 84.0
272.093262 188.0
273.033875 112.0
273.089783 148.0
273.122681 168.0
273.155579 244.0
273.619568 112.0
273.721649 76.0
273.859375 172.0
274.043793 84.0
274.104706 8076.0
274.19931 40.0
274.248749 60.0
274.400391 68.0
274.43335 64.0
274.50589 52.0
274.667511 72.0
274.799469 108.0
274.823517 48.0
274.865448 68.0
275.110565 1772.0
275.228546 104.0
275.311096 72.0
275.344116 44.0
275.41095 52.0
275.539001 56.0
276.112244 236.0
276.428436 128.0
276.481384 76.0
276.752838 84.0
277.150299 48.0
277.282837 68.0
277.4552 144.0
280.546936 252.0
282.999176 164.0
284.38031 72.0
286.106049 1356.0
286.21344 28.0
287.071716 84.0
287.107849 396.0
287.142548 60.0
287.873169 20.0
288.121429 208.0
290.077423 68.0
291.411163 92.0
292.673035 36.0
293.15332 164.0
298.053497 60.0
298.232208 80.0
303.98941 172.0
308.024597 160.0
308.269165 64.0
308.849518 176.0
310.642975 104.0
310.751709 172.0
311.183411 168.0
314.683105 244.0
315.135193 212.0
316.62439 40.0
320.079681 116.0
320.140228 136.0
322.187561 116.0
323.0849 20.0
327.22287 104.0
331.437927 176.0
335.453888 156.0
337.045135 52.0
337.703156 84.0
339.164062 140.0
339.538055 168.0
339.769135 120.0
340.14267 168.0
340.185638 680.0
341.194824 152.0
342.865173 32.0
350.16748 132.0
351.453583 236.0
360.106659 160.0
361.11203 204.0
367.047699 64.0
367.39859 64.0
367.492798 180.0
367.604645 68.0
368.016876 88.0
368.073639 176.0
368.182465 6536.0
368.287567 140.0
368.509583 104.0
368.66626 36.0
368.696808 64.0
368.765625 84.0
368.796173 112.0
368.926147 64.0
369.002625 88.0
369.186829 2728.0
369.308533 112.0
369.530426 32.0
369.924591 64.0
370.187134 76.0
370.211761 112.0
370.368774 56.0
370.663757 64.0
370.970367 40.0
371.188904 148.0
371.764313 80.0
372.626465 76.0
374.956299 60.0
385.950134 212.0
386.195282 332.0
387.199036 140.0
388.790131 20.0
389.462677 68.0
389.567566 44.0
390.12558 80.0
396.012909 52.0
396.166962 304.0
397.186157 80.0
400.067108 52.0
409.783112 164.0
410.109528 56.0
414.178375 152.0
414.206726 164.0
415.187561 96.0
422.372192 56.0
426.427277 88.0
434.11441 100.0
435.043793 100.0
447.342621 84.0
452.44223 88.0
454.57843 20.0
457.170654 104.0
465.171753 76.0
481.631134 44.0
482.526978 96.0
495.41748 20.0
504.3573 104.0
504.983246 68.0
521.21283 60.0
533.00647 60.0
535.094666 104.0
555.464111 104.0
575.851013 64.0
585.775146 60.0
587.496094 80.0
636.311035 132.0
636.371277 160.0
645.112183 164.0
645.344727 60.0
696.191895 20.0
832.904236 88.0
868.821472 184.0
894.671204 124.0
917.665405 108.0
929.818054 212.0
971.70636 216.0
977.161255 184.0
994.571472 188.0
1002.508484 20.0
1005.491455 152.0
1020.777832 168.0
1023.92157 160.0
1025.176514 88.0
1040.547119 168.0
1040.919556 32.0
1046.217407 48.0
1047.917603 208.0
1059.838501 188.0
1076.973999 124.0
1082.212158 144.0
1082.362793 116.0
1098.405273 132.0
1106.50061 176.0
1113.018066 216.0
1114.001099 176.0
1131.346313 40.0
1131.901978 136.0
1146.674683 212.0
1152.1875 52.0
1163.395508 204.0
1171.174683 212.0
1185.316406 280.0
1189.966797 160.0
1202.612549 184.0
1204.580444 116.0
1211.885986 72.0
1216.039795 236.0
1216.275879 192.0
1217.490845 64.0
1221.382935 148.0
1227.86731 188.0
1236.327637 152.0
1255.435791 200.0
1267.41748 144.0
1267.665527 160.0
1269.579468 140.0
1273.965942 208.0
1275.145508 236.0
1278.552124 208.0
1281.977417 168.0
1286.735107 152.0
1295.65332 132.0
1305.529785 136.0
1335.719116 180.0
1339.140015 168.0
1339.824707 108.0
1344.535156 160.0
1348.632446 140.0
1351.703979 192.0
1365.444214 164.0
1366.223999 168.0
1370.015259 144.0
1373.214233 160.0
1380.910278 176.0
1385.462524 216.0
1387.982544 176.0
1389.955566 156.0
1398.859253 144.0
1399.20166 196.0
1408.157227 192.0
1418.572754 48.0
1419.27002 188.0
1419.382446 204.0
1429.124512 204.0
1443.085571 160.0
1448.049561 164.0
1456.780029 108.0
1458.086914 140.0
1463.229004 172.0
1470.188232 192.0
1475.726196 32.0
1477.140991 96.0
1477.393433 128.0
1489.912354 164.0
1490.112183 188.0
1491.00354 188.0
