>compound 4-methoxy-2-(5-methoxy-3-methylpyrazol-1-yl)-6-methylpyrimidine
>formula C11H14N4O2
>ionization [M+H]+
>parentmass 235.119
#inchi InChI=1S/C11H14N4O2/c1-7-5-9(16-3)13-11(12-7)15-10(17-4)6-8(2)14-15/h5-6H,1-4H3
#inchikey RHAXSHUQNIEUEY
#Ion_Source LC-ESI
#Instrument qTof
#Compound_Source Commercial
#PI Dorrestein
#Data_Collector Garg_Neha
#Scan -1
#Precursor_MZ 235.119
#ExactMass 234.112
#Charge 1
#CAS_Number N/A
#Pubmed_ID N/A
#Smiles COc1cc(C)nn1c2nc(C)cc(OC)n2
#INCHI_AUX N/A
#Library_Class 1
#SpectrumID CCMSLIB00000079039
#IonMode Positive
#UpdateWorkflowName UPDATE-SINGLE-ANNOTATED-GOLD
#LibraryQualityString Gold
#TaskID 278b19f5865741e282cec7349aa7e7a1
##Scan# 1114
#SpectrumFile NCP003432_A2_B11_BC8_01_15722.mzXML
#LibraryName NIHcollectionI_05062014.mgf
#MQScore -1
#Organism NIHcollectionI_05062014
#TIC_Query 0
#RT_Query -1
#MZErrorPPM -1
#SharedPeaks 0
#MassDiff 0
#LibMZ -1
#SpecMZ 235.119
#SpecCharge 0
#internalFilename spec-00000.mgf

>collision 10
45.011463 148.0
45.276241 152.0
45.742149 148.0
45.815979 160.0
45.976673 140.0
46.009068 184.0
46.253746 156.0
46.358032 152.0
46.463795 156.0
46.507217 184.0
46.634895 220.0
47.178783 144.0
47.191544 144.0
47.669468 156.0
47.899231 152.0
48.049847 156.0
48.658451 212.0
48.958797 144.0
49.381676 172.0
49.45163 172.0
49.691257 164.0
49.737568 176.0
49.753006 176.0
49.816204 192.0
50.717896 160.0
50.766098 180.0
50.866837 164.0
50.907101 212.0
51.04443 180.0
51.567631 152.0
51.722103 168.0
51.900707 104.0
52.120796 164.0
52.178288 156.0
52.261707 156.0
52.410015 172.0
52.620594 148.0
52.669895 144.0
53.499153 148.0
53.558857 152.0
53.762974 156.0
54.106468 200.0
54.131363 148.0
54.274963 224.0
54.334419 112.0
54.527458 156.0
54.609791 208.0
54.730465 176.0
54.835056 180.0
55.285496 176.0
55.343227 140.0
55.40247 144.0
55.506218 216.0
55.960892 192.0
56.102425 144.0
56.317303 192.0
56.341202 204.0
56.403294 160.0
56.511639 208.0
56.640385 144.0
56.704815 176.0
56.778278 156.0
57.053059 140.0
57.156837 160.0
57.330009 188.0
57.583004 184.0
57.644955 176.0
58.013191 216.0
58.045033 160.0
58.384865 112.0
58.447563 152.0
58.644012 260.0
58.756855 164.0
59.215435 208.0
59.235603 144.0
59.603558 176.0
59.625072 160.0
59.660423 152.0
59.760391 144.0
59.882717 120.0
60.199696 176.0
60.286495 192.0
60.470245 140.0
60.812771 180.0
60.842266 184.0
60.860104 188.0
60.931454 196.0
61.336948 180.0
61.608475 192.0
61.96204 228.0
61.997807 160.0
62.15646 220.0
62.535198 168.0
62.57613 140.0
62.777817 152.0
62.788857 148.0
63.080959 144.0
63.308796 176.0
63.380077 160.0
63.429207 156.0
63.684669 176.0
63.826111 180.0
63.905636 148.0
63.995922 220.0
64.455734 184.0
64.934395 156.0
64.99054 164.0
65.085236 208.0
65.1287 132.0
65.4599 164.0
65.52433 156.0
65.674248 220.0
65.714577 208.0
65.73555 144.0
65.856636 180.0
65.947113 172.0
66.044128 160.0
66.06192 192.0
66.387474 164.0
66.648819 168.0
66.926414 168.0
66.94976 196.0
66.998619 144.0
67.029579 188.0
67.478439 172.0
67.853355 144.0
68.091293 180.0
68.497551 204.0
68.78447 156.0
68.799332 172.0
69.321068 176.0
69.345192 192.0
69.670425 156.0
69.941475 176.0
70.520248 168.0
70.659042 204.0
70.983986 152.0
71.046043 164.0
71.245811 196.0
71.472786 152.0
71.715294 172.0
71.804649 160.0
72.362289 148.0
72.490021 172.0
72.714874 208.0
72.984978 216.0
73.047905 172.0
73.591743 180.0
73.798286 204.0
73.940269 204.0
74.152641 152.0
74.863884 156.0
75.12587 156.0
75.265671 244.0
75.942406 156.0
76.072456 172.0
76.176651 164.0
76.303513 148.0
77.090454 180.0
77.388733 268.0
77.4263 224.0
77.4692 148.0
77.527115 176.0
77.598976 160.0
77.611252 144.0
77.699753 148.0
77.900833 168.0
77.944649 196.0
78.002754 164.0
78.044052 116.0
78.426956 144.0
78.522171 196.0
78.559212 188.0
79.207954 228.0
79.264648 184.0
79.28138 136.0
79.323135 200.0
79.335548 220.0
79.362137 172.0
79.56617 144.0
79.779358 160.0
80.105011 156.0
80.31356 144.0
80.561684 180.0
80.68499 172.0
80.913994 164.0
81.068031 148.0
81.205292 156.0
81.340645 148.0
81.392708 156.0
81.610123 176.0
81.815224 192.0
82.530952 188.0
82.996826 168.0
83.638977 160.0
83.807549 132.0
84.110222 148.0
84.336716 192.0
84.413498 156.0
84.521423 144.0
84.559853 144.0
84.637993 176.0
84.785118 264.0
84.918953 180.0
85.003342 176.0
85.030869 180.0
85.11348 164.0
85.30455 156.0
85.333961 156.0
85.714973 140.0
85.925163 192.0
86.279755 172.0
86.566544 212.0
86.583939 152.0
87.071747 208.0
87.360924 144.0
87.895638 208.0
88.269226 216.0
88.293533 168.0
88.359001 176.0
88.458183 180.0
88.881744 144.0
89.150269 208.0
89.170944 168.0
89.332649 152.0
89.389091 168.0
89.413559 148.0
89.637657 172.0
89.681 148.0
90.030029 140.0
90.271919 176.0
90.934982 148.0
91.097527 164.0
91.246513 152.0
91.263626 164.0
91.292145 144.0
91.531914 164.0
91.93795 160.0
92.027664 144.0
92.291336 140.0
92.467331 144.0
92.597519 156.0
92.838989 144.0
93.00885 132.0
93.04425 708.0
94.055336 156.0
94.369827 152.0
94.586494 172.0
94.754974 152.0
94.867378 148.0
95.037041 160.0
95.060364 416.0
95.251602 140.0
95.668716 208.0
95.720306 172.0
95.922928 144.0
95.973869 156.0
96.044525 404.0
96.064636 336.0
96.1063 148.0
96.268532 116.0
96.448006 176.0
96.579803 216.0
97.041595 128.0
97.611702 140.0
97.71286 312.0
97.951057 144.0
98.035782 192.0
98.067436 184.0
98.315811 160.0
98.400688 196.0
98.606125 172.0
98.766273 152.0
98.900826 144.0
98.959991 180.0
99.374443 152.0
99.503448 200.0
99.627556 108.0
99.886993 148.0
100.095963 164.0
100.135796 144.0
100.185593 160.0
100.614693 120.0
100.656288 192.0
100.858063 204.0
101.380432 144.0
101.679245 216.0
101.71537 176.0
102.673088 204.0
103.042473 168.0
103.10714 144.0
103.143517 156.0
103.489456 176.0
103.783249 176.0
103.931313 144.0
104.368011 140.0
104.469704 140.0
104.571442 184.0
104.65097 176.0
104.939857 140.0
104.98909 188.0
105.25029 168.0
105.624481 124.0
105.650871 152.0
105.712257 188.0
105.738861 164.0
105.753189 216.0
105.904701 172.0
105.994843 176.0
106.034805 168.0
106.411209 188.0
106.573471 180.0
107.021858 144.0
107.442299 232.0
107.644569 140.0
107.71273 160.0
107.844971 188.0
107.859436 176.0
108.034996 476.0
108.055725 808.0
108.553001 144.0
108.611069 176.0
108.714806 156.0
109.040245 1152.0
109.06044 104.0
109.0774 244.0
109.446503 184.0
109.569824 172.0
109.592308 168.0
109.621475 196.0
109.955147 144.0
110.048576 252.0
110.072823 176.0
110.236107 116.0
110.770584 148.0
110.996933 184.0
111.056068 324.0
111.108093 256.0
111.706802 140.0
111.736259 140.0
111.936211 144.0
112.08638 224.0
112.236755 308.0
112.440048 188.0
112.71669 220.0
112.772148 228.0
112.813911 164.0
113.068626 348.0
113.247688 156.0
113.586823 256.0
113.909477 144.0
113.975334 144.0
114.128372 164.0
114.270874 204.0
114.318275 116.0
114.637108 160.0
115.444038 224.0
115.851318 180.0
115.938545 148.0
116.125069 192.0
116.208733 164.0
116.653282 152.0
116.698425 168.0
116.885559 252.0
117.027618 160.0
117.096527 176.0
117.552261 160.0
117.590248 168.0
117.974724 168.0
118.225624 220.0
118.57267 208.0
118.78141 176.0
119.060951 172.0
119.669113 156.0
119.719193 324.0
119.751862 184.0
120.044647 284.0
120.163857 192.0
120.683678 144.0
121.051865 184.0
121.079346 152.0
121.434792 144.0
121.583977 152.0
121.836487 176.0
122.04818 1872.0
122.069344 404.0
122.190445 208.0
122.403938 164.0
122.551521 152.0
122.599998 152.0
122.666115 148.0
122.81385 188.0
122.866791 140.0
123.055855 18772.0
123.093956 300.0
123.213234 136.0
123.346779 124.0
123.737549 208.0
123.857132 164.0
124.063377 4144.0
124.120026 100.0
124.549179 144.0
124.617432 172.0
124.656891 116.0
125.067017 544.0
125.477142 196.0
126.061394 316.0
126.47345 144.0
126.520454 200.0
126.988777 180.0
127.435493 164.0
127.475945 140.0
127.536995 192.0
127.57708 148.0
127.696259 156.0
127.792984 160.0
127.941521 152.0
128.085938 216.0
128.15773 140.0
128.268158 148.0
128.389908 156.0
128.649384 364.0
128.999527 200.0
129.085449 176.0
129.370529 172.0
129.612869 172.0
130.041473 184.0
130.303421 180.0
130.330765 148.0
130.511719 172.0
130.971405 148.0
131.061432 168.0
131.251724 156.0
131.279083 164.0
131.568863 164.0
131.838379 184.0
132.076157 204.0
132.211136 268.0
132.385132 204.0
132.744904 184.0
132.786179 220.0
133.074203 404.0
133.116638 212.0
133.180954 212.0
133.272232 180.0
133.298111 192.0
133.396942 148.0
133.534897 240.0
133.643021 152.0
133.976852 152.0
134.043732 380.0
134.06897 324.0
135.01091 184.0
135.065323 840.0
135.092239 380.0
135.250275 252.0
135.383499 188.0
136.03624 316.0
136.053116 340.0
136.069672 204.0
136.083633 376.0
136.205734 216.0
136.892944 188.0
136.944168 152.0
137.058853 3172.0
137.120499 164.0
137.160324 136.0
137.396393 192.0
137.573746 164.0
137.590775 152.0
137.636795 160.0
137.928818 168.0
138.06636 5892.0
138.50209 204.0
138.58876 152.0
138.708282 152.0
138.83255 244.0
139.073029 1152.0
139.319153 176.0
139.572235 180.0
139.687485 140.0
139.984024 216.0
140.055542 252.0
140.080322 172.0
140.653595 140.0
140.828568 112.0
140.882645 164.0
140.903915 196.0
141.06485 504.0
141.369705 168.0
141.625397 156.0
141.677521 180.0
141.853622 140.0
142.362274 148.0
142.771729 192.0
142.857361 152.0
143.056061 156.0
143.073914 148.0
143.366882 264.0
143.450302 160.0
143.864594 156.0
144.085083 152.0
144.168716 148.0
144.226074 224.0
144.600616 180.0
144.699738 192.0
144.742828 148.0
144.766769 172.0
144.97998 164.0
145.059906 160.0
145.342072 212.0
146.068481 296.0
146.139786 192.0
146.192719 160.0
146.289444 168.0
146.36525 136.0
147.032135 164.0
147.054108 212.0
147.077972 356.0
147.135162 140.0
147.156891 144.0
147.40567 156.0
147.658585 116.0
147.746582 192.0
147.843369 144.0
148.059998 524.0
148.086273 752.0
148.104843 220.0
148.335037 212.0
148.359283 208.0
148.65239 132.0
148.696442 176.0
148.725555 144.0
149.072052 2408.0
149.172501 156.0
149.654205 156.0
149.764786 108.0
149.863663 148.0
149.99527 144.0
150.066833 3460.0
150.153168 152.0
150.567245 168.0
150.962097 164.0
151.052399 152.0
151.073853 584.0
151.553253 196.0
151.574066 152.0
151.637772 140.0
151.799576 144.0
151.873383 212.0
152.042114 152.0
152.082108 6692.0
152.432892 260.0
152.733749 236.0
153.088394 2924.0
153.250824 140.0
154.03949 328.0
154.084473 1088.0
154.25177 140.0
154.276489 156.0
154.479263 168.0
154.585648 164.0
154.632675 208.0
154.815872 156.0
155.043777 204.0
155.076828 108.0
155.100784 140.0
155.63913 152.0
155.718597 152.0
155.981339 140.0
156.053574 5116.0
156.094635 176.0
156.471283 184.0
156.780914 164.0
156.942932 200.0
157.059097 272.0
157.292206 152.0
157.636856 160.0
157.70433 232.0
158.187088 152.0
158.773392 268.0
158.811005 180.0
158.937164 168.0
159.06543 196.0
159.622177 188.0
159.762146 216.0
159.838501 168.0
160.052353 544.0
160.074814 364.0
160.125488 184.0
160.524078 120.0
161.00061 160.0
161.072784 380.0
161.480789 172.0
161.606979 204.0
161.941422 156.0
162.065704 500.0
162.21254 172.0
162.519409 172.0
162.599411 220.0
162.79863 200.0
162.879898 192.0
163.086884 6780.0
163.442062 128.0
163.515549 156.0
163.716812 136.0
163.83609 144.0
163.944885 116.0
164.047241 572.0
164.083725 5612.0
164.429367 164.0
164.471329 164.0
164.734329 176.0
164.910645 220.0
165.04715 120.0
165.089767 884.0
165.271225 236.0
165.326233 120.0
165.373657 132.0
165.404297 144.0
165.624512 172.0
165.805939 216.0
166.061325 812.0
166.098999 696.0
167.061996 148.0
167.10347 164.0
167.507339 148.0
167.551132 196.0
167.832062 184.0
168.06395 168.0
168.423035 160.0
168.446274 164.0
168.516037 164.0
168.665924 232.0
168.890869 188.0
169.175507 208.0
169.323105 160.0
169.356766 204.0
169.644394 212.0
169.680679 140.0
170.08017 180.0
170.461792 136.0
170.582886 160.0
170.859467 108.0
171.042984 244.0
171.069809 196.0
171.162476 200.0
171.333572 148.0
171.682846 164.0
171.980255 144.0
172.774643 200.0
172.986618 140.0
173.043793 152.0
173.089325 224.0
173.415024 120.0
173.618057 148.0
173.814804 164.0
174.066605 1488.0
174.45517 228.0
174.675415 124.0
174.865967 156.0
175.086334 228.0
175.5401 152.0
175.941422 164.0
176.04866 144.0
176.082489 3092.0
176.231949 140.0
176.385223 292.0
176.856049 372.0
176.996353 148.0
177.077286 16032.0
177.159042 196.0
177.457382 160.0
177.664246 176.0
177.886078 156.0
178.02858 180.0
178.097015 5404.0
178.160675 196.0
178.487595 196.0
178.583328 164.0
178.74028 176.0
178.82811 184.0
179.093094 9716.0
179.174652 168.0
179.229858 204.0
180.095459 760.0
180.425919 160.0
180.689697 156.0
180.875336 176.0
180.963669 172.0
181.088379 224.0
181.698013 184.0
181.738266 172.0
182.202744 168.0
182.226913 180.0
182.28334 140.0
182.447296 188.0
182.751205 148.0
182.901901 168.0
183.014969 160.0
183.17926 156.0
183.888397 164.0
184.142181 160.0
184.177292 164.0
184.302444 220.0
184.934723 152.0
185.375793 212.0
185.448975 180.0
185.524872 220.0
185.577469 240.0
185.60704 156.0
185.828613 324.0
185.863892 148.0
186.056198 164.0
186.654327 160.0
187.138657 184.0
187.253021 212.0
188.069046 2072.0
189.056641 320.0
189.078354 868.0
189.909637 152.0
190.07048 372.0
190.192245 184.0
190.312088 208.0
190.398163 140.0
190.447601 148.0
190.642654 172.0
190.829575 140.0
191.093597 5628.0
191.3526 156.0
191.384705 144.0
191.502899 208.0
191.988815 160.0
192.101074 25424.0
192.185242 196.0
192.239105 176.0
192.263916 184.0
192.388901 176.0
192.428391 144.0
192.975708 208.0
193.002243 164.0
193.104156 1828.0
193.220047 108.0
193.462936 116.0
193.589386 196.0
193.680267 156.0
194.104935 128.0
194.248138 136.0
194.448273 172.0
194.578735 172.0
194.832474 164.0
195.11261 148.0
195.715897 192.0
195.867569 268.0
196.032654 156.0
196.164444 148.0
196.694427 160.0
196.898254 152.0
197.345352 176.0
197.683807 144.0
198.751404 152.0
198.815948 176.0
199.512527 172.0
200.063919 156.0
201.168976 212.0
201.35994 164.0
201.507858 168.0
201.589798 188.0
201.694382 168.0
202.060745 388.0
202.18367 140.0
202.327713 188.0
202.594238 180.0
202.75 148.0
202.924744 160.0
203.092117 2876.0
203.269012 208.0
203.295456 280.0
203.548126 196.0
203.888092 216.0
203.953461 208.0
204.077591 14232.0
204.163269 156.0
204.536972 192.0
204.592972 196.0
205.072937 12584.0
205.277588 196.0
205.765213 180.0
205.879425 144.0
206.075577 1016.0
206.790466 120.0
206.854385 148.0
206.87442 196.0
207.071289 328.0
207.119949 352.0
207.253433 140.0
207.507553 148.0
208.06987 168.0
208.170364 172.0
208.48349 152.0
208.615707 160.0
208.842865 164.0
209.424271 152.0
209.52681 112.0
210.137772 148.0
210.297882 144.0
210.505753 164.0
210.918884 192.0
211.106812 164.0
211.465546 244.0
211.757965 176.0
211.882523 204.0
212.369507 152.0
213.258804 152.0
213.659256 172.0
214.559143 140.0
214.623291 180.0
214.990829 156.0
215.420517 120.0
215.785339 188.0
216.104782 216.0
216.224106 156.0
216.519791 192.0
217.504929 160.0
217.528412 168.0
217.644638 176.0
218.395233 144.0
218.589554 136.0
218.686508 168.0
218.864517 120.0
218.933823 152.0
218.991455 252.0
219.028061 204.0
219.086258 2824.0
219.393463 208.0
219.557648 140.0
219.602371 132.0
219.666061 100.0
219.735565 164.0
219.782776 156.0
219.835876 184.0
219.991684 164.0
220.057724 128.0
220.096512 121508.0
220.192459 164.0
220.33313 196.0
220.399506 96.0
220.486649 288.0
220.522797 156.0
220.575867 316.0
220.664474 100.0
220.758255 168.0
220.799622 112.0
220.882782 164.0
220.98114 128.0
221.09903 10112.0
221.248215 152.0
221.518417 148.0
221.599121 100.0
221.787842 204.0
222.075027 412.0
222.09935 844.0
222.426926 156.0
222.455475 116.0
222.602448 124.0
222.686844 116.0
222.77829 112.0
222.841049 132.0
222.875488 104.0
222.914185 128.0
223.067841 140.0
223.553513 116.0
223.764511 152.0
223.875 192.0
224.505234 208.0
225.054291 148.0
225.461594 204.0
225.910767 172.0
226.244202 200.0
226.747421 152.0
227.617371 200.0
227.989868 148.0
228.428055 168.0
228.492004 164.0
228.563553 108.0
229.48288 188.0
229.594452 168.0
230.065155 212.0
230.497116 156.0
231.677002 224.0
231.913361 252.0
232.510834 176.0
232.629211 192.0
232.650467 172.0
232.699036 160.0
232.913162 180.0
233.101517 96.0
233.357162 180.0
233.379272 144.0
233.4487 96.0
233.601624 148.0
233.953293 188.0
233.994995 216.0
234.02179 252.0
234.052872 148.0
234.138153 424.0
234.17363 164.0
234.217972 184.0
234.325226 168.0
234.378159 252.0
234.435043 116.0
234.471329 140.0
234.530563 436.0
234.559006 228.0
234.587051 164.0
234.617569 256.0
234.639069 264.0
234.682068 108.0
234.724503 304.0
234.751099 180.0
234.788559 124.0
234.834885 280.0
234.888275 144.0
234.938782 400.0
234.999069 464.0
235.031555 188.0
235.121796 230056.0
235.236496 208.0
235.329422 412.0
235.401428 588.0
235.469299 176.0
235.508759 372.0
235.588501 1248.0
235.623978 10612.0
235.663574 808.0
235.760803 268.0
235.800858 156.0
235.835129 108.0
235.867874 280.0
235.919907 416.0
235.949661 192.0
235.9776 308.0
236.010132 176.0
236.041473 208.0
236.12323 69920.0
236.199615 108.0
236.232101 108.0
236.266724 228.0
236.40657 172.0
236.489182 140.0
236.627914 160.0
236.66304 428.0
236.888504 156.0
236.925278 324.0
237.033783 248.0
237.059784 124.0
237.124634 5688.0
237.231186 136.0
237.278931 140.0
237.316422 120.0
237.359512 284.0
237.404434 204.0
237.551117 332.0
237.562149 256.0
237.602142 328.0
237.637741 180.0
237.697968 236.0
237.729782 256.0
237.771729 172.0
237.809662 324.0
237.832245 376.0
237.895676 284.0
237.921295 144.0
237.941895 308.0
237.976974 392.0
238.015594 100.0
238.104477 152.0
238.127121 420.0
238.392242 112.0
238.5672 164.0
238.651962 136.0
238.837326 140.0
238.863556 140.0
239.914703 96.0
240.090561 112.0
240.565475 96.0
240.63327 100.0
241.70462 96.0
244.8134 100.0
245.046906 140.0
245.322754 152.0
246.042343 156.0
246.300613 172.0
249.930328 140.0
278.973724 148.0
323.082489 152.0
347.63681 144.0
351.518036 144.0
369.087677 152.0
388.194702 160.0
411.733521 104.0
419.375824 160.0
660.437439 140.0
700.066406 152.0
712.846924 156.0
1221.14856 140.0
1260.873779 200.0
1286.051636 160.0
1377.44458 232.0
1401.653564 224.0
1413.294312 164.0
1430.217041 140.0
1445.575317 144.0
1458.916748 148.0
1459.40332 172.0
1468.038208 248.0
1479.093384 168.0
1488.377441 168.0
1491.688721 172.0
1498.630371 140.0
1504.082642 140.0
1506.515015 200.0
1518.698853 140.0
1523.224121 176.0
1533.019409 228.0
1549.090942 176.0
1550.916626 156.0
1649.874146 160.0
1651.022217 188.0
1692.941528 140.0
1699.015137 140.0
1706.867065 176.0
1718.637451 200.0
1720.923828 232.0
1721.27063 196.0
1741.078857 180.0
1742.765015 232.0
1743.795532 204.0
1745.441528 168.0
1747.055054 148.0
1754.708496 164.0
1756.142822 188.0
1787.559204 208.0
1794.14563 156.0
1797.434937 168.0
1797.941284 224.0
1808.429688 140.0
1811.876099 168.0
1812.138672 144.0
1812.765747 248.0
1829.514893 176.0
1832.606445 156.0
1836.979858 188.0
1841.119385 148.0
1841.819824 160.0
1847.418823 148.0
1849.480957 192.0
1856.660645 168.0
1863.072388 176.0
1868.359497 156.0
1870.028809 184.0
1881.432861 160.0
1890.049805 184.0
1893.729004 172.0
1896.683594 168.0
1906.386719 140.0
1907.951172 168.0
1910.699341 180.0
1915.278198 156.0
1916.794189 176.0
1924.836548 192.0
1940.568726 224.0
1949.91748 180.0
1951.666748 176.0
1952.414185 156.0
1959.931763 156.0
1970.114136 184.0
1972.560913 164.0
1972.852661 220.0
1978.302002 188.0
1982.687378 172.0
1994.535034 164.0
2002.596313 172.0
2003.219849 140.0
