>compound Finasteride
>formula C23H36N2O2 
>ionization [M+H]+
>parentmass 373.285553
#inchi InChI=1S/C23H36N2O2/c1-21(2,3)25-20(27)17-8-7-15-14-6-9-18-23(5,13-11-19(26)24-18)16(14)10-12-22(15,17)4/h11,13-18H,6-10,12H2,1-5H3,(H,24,26)(H,25,27)/t14-,15-,16-,17+,18+,22-,23+/m0/s1
#inchikey DBEPLOCGEIEOCV
#Ion_Source LC-ESI
#Instrument qTof
#Compound_Source Isolated
#PI Sirenas
#Data_Collector Ed Esquenazi 
#Scan -1
#Precursor_MZ 373.286
#ExactMass 0.0
#Charge 1
#CAS_Number N/A
#Pubmed_ID N/A
#Smiles N/A
#INCHI_AUX N/A
#Library_Class 3
#SpectrumID CCMSLIB00000004640
#IonMode Positive
#UpdateWorkflowName UPDATE-SINGLE-ANNOTATED-BRONZE
#LibraryQualityString Bronze
#TaskID d19310cd93df49b68e9fcbec27720eb5
##Scan# 3
#SpectrumFile Finasteride.mgf
#LibraryName fda_library.mgf
#MQScore -1
#Organism fda_library
#TIC_Query 0
#RT_Query -1
#MZErrorPPM -1
#SharedPeaks 0
#MassDiff 0
#LibMZ -1
#SpecMZ 373.286
#SpecCharge 0
#internalFilename spec-00000.mgf

>collision 10
100.075218 306.292206
100.151138 6.466667
100.232628 10.42857
100.290298 7.350877
100.471542 11.722
100.485497 6.335
102.758858 59.63546
102.788574 3.6
103.055428 77.403297
103.135666 11.34295
103.152077 1.671296
103.641502 11.00309
104.048416 148.678299
104.077583 5.0
104.443466 4.684524
104.624863 7.349638
104.639206 19.64912
104.646217 4.681667
105.034027 13.28409
105.070061 3106.696045
105.113106 31.39119
105.126297 4.481482
105.188049 16.3867
105.221748 17.58333
105.231293 5.703947
105.297768 4.761905
105.309364 35.626499
105.33062 14.73035
105.43071 3.125
105.457924 12.34722
105.566849 6.371212
106.070786 150.459396
106.099823 3.490385
106.203598 13.01075
106.440338 2.375
106.494194 6.05
106.515732 14.35677
106.526505 13.5744
106.583961 2.722222
106.595177 25.77412
106.648613 8.705247
106.678024 7.852564
106.702515 6.334877
106.713303 5.671875
106.744934 10.22738
106.766312 11.77932
106.900253 2.337963
106.991287 7.713542
107.047722 57.049191
107.08567 5695.27002
107.13002 34.079239
107.1446 9.480073
107.1548 11.77799
107.173798 12.12
107.188393 58.450119
107.225075 83.495407
107.254265 14.48016
107.267616 6.003788
107.282211 7.041667
107.291138 8.136111
107.313438 33.79174
107.329117 25.944811
107.371933 25.551161
107.398834 6.633772
107.415527 3.708333
107.446922 39.166279
107.469322 8.399194
107.526451 8.09375
107.598038 12.15067
107.64296 18.450001
107.703827 2.733333
107.718315 7.162634
107.758034 8.666667
108.00013 9.802928
108.0448 3312.820068
108.133934 11.41182
108.17012 8.370833
108.229172 16.901239
108.246109 7.843137
108.285927 10.74383
108.430862 17.6299
108.473465 16.008329
108.486458 14.59314
108.50325 4.061275
108.550545 10.08167
108.56842 11.14405
108.627655 4.875
108.644829 11.6886
108.712524 2.893518
108.779396 7.111111
109.063309 285.690002
109.100929 2021.348999
109.133942 9.890432
109.146637 15.70519
109.160233 6.677083
109.200127 5.002778
109.222031 5.691667
109.270653 12.51852
109.280464 5.633333
109.35289 7.921875
109.376472 3.333333
109.414719 5.742284
109.472946 18.66667
109.480408 16.33494
109.491302 12.0704
109.505913 23.29035
109.528061 4.963235
109.573235 8.291667
109.636795 14.33446
109.72097 4.157052
109.811806 4.680556
109.859123 8.702586
109.915154 4.761905
110.059654 4980.029785
110.149223 4.37037
110.163155 7.280303
110.199913 13.72565
110.207237 20.817209
110.242073 15.01961
110.25235 4.630952
110.264336 9.856982
110.27298 15.40833
110.28772 8.840278
110.319046 8.4375
110.333694 4.001812
110.397499 15.6713
110.411224 19.95274
110.423111 4.541667
110.435509 11.77778
110.467522 25.805441
110.549362 6.041667
110.57077 18.28125
110.650185 24.107981
110.762283 9.069445
110.900764 8.449713
110.918991 13.28004
111.080963 740.567871
111.116394 64.307381
111.141922 2.408333
111.319817 9.633333
111.653099 16.00066
112.038902 29.9126
112.378464 5.160714
112.703224 5.840278
114.090187 328.464813
114.169678 14.60556
114.196495 3.0
114.408508 4.675
115.054237 56.75362
116.05159 79.429138
117.069916 618.340698
117.118431 1.672619
117.129723 18.420271
117.156601 3.083333
117.393311 4.080128
117.446205 7.025641
117.742348 4.791667
118.062088 121.641296
118.413307 33.669991
118.458824 12.48333
118.47274 6.222222
118.553459 10.35459
118.758736 6.833333
118.891502 9.630208
119.046394 15.6859
119.0858 3359.264893
119.123001 26.68434
119.133713 13.38095
119.148903 4.345238
119.156502 3.025
119.194473 14.06618
119.242966 20.04545
119.297485 5.932018
119.311836 12.08167
119.318428 9.613637
119.332993 14.50417
119.339165 3.708333
119.357864 18.81909
119.39254 17.92857
119.422379 22.667749
119.483337 10.86404
119.547966 7.520833
119.670418 11.77885
120.042343 49.063122
120.180092 6.041667
120.372009 7.935
120.378624 13.68254
120.451149 4.394608
120.485535 16.362921
120.51989 12.17014
120.593338 15.16329
121.064758 590.497925
121.101883 3466.375
121.149345 16.41667
121.156784 13.55147
121.166191 5.401515
121.212112 4.453432
121.223663 2.347222
121.23526 10.7815
121.278473 3.075
121.288322 6.35
121.315628 3.333333
121.342422 6.35307
121.357407 17.716459
121.362671 22.30238
121.37307 6.371913
121.403732 4.66821
121.495438 10.61233
121.512733 24.729389
121.537926 14.03125
121.56517 25.877291
121.593147 6.25926
121.633987 11.08333
121.653122 12.82456
121.921761 9.333333
122.059708 3643.278076
122.209259 29.21324
122.223251 9.095239
122.233109 8.824561
122.271652 17.77397
122.293022 9.430555
122.310188 24.000589
122.363747 12.18939
122.495712 14.35556
122.508629 28.84058
122.544861 15.68627
122.578697 14.2703
122.775795 8.230769
122.88784 5.0625
122.934601 7.673611
122.999023 39.72123
123.080261 629.094971
123.117577 542.77063
123.159874 1.791667
123.189728 10.51096
123.227448 5.742284
123.262306 18.057871
123.273758 20.81389
123.35112 9.688597
123.389633 18.007351
123.407936 2.854167
123.471291 28.72002
123.494057 16.206051
123.675713 7.23077
124.043045 18.20076
124.075607 1535.042969
124.159988 7.921875
124.217186 19.293699
124.326653 4.763889
124.611542 6.633772
124.621628 4.017857
124.784859 9.016305
124.823662 5.666667
124.947441 3.518939
125.024857 6.490385
125.053085 9.334678
125.095795 16.334999
125.337242 3.666667
125.42733 22.23971
125.553207 8.881667
126.051704 48.645069
126.09082 1121.702026
126.137833 11.599
126.149361 11.2598
126.169914 10.75556
126.231064 14.08333
126.250259 4.708333
126.481346 12.30682
126.759842 6.733334
127.307884 3.678571
127.822853 12.24537
128.063583 113.101601
128.107773 69.098038
128.405396 5.378623
128.950699 25.838421
128.969742 4.66821
129.069809 436.177795
129.40155 16.0
129.47197 2.367424
129.844421 9.010715
130.332397 16.62722
130.344299 7.334677
130.388 5.013889
130.403885 12.67465
130.427414 3.761364
130.447876 3.857143
130.479385 13.64477
130.551666 3.888889
130.574768 4.340909
130.652756 5.387821
131.085831 1740.250977
131.134644 12.67424
131.163727 8.428572
131.185181 5.136111
131.19397 14.02778
131.2043 20.123541
131.239594 18.48077
131.34314 10.46261
131.391006 11.37745
131.414902 11.68056
131.480545 9.630208
131.490692 8.34543
131.538559 10.68
132.009415 10.57615
132.094543 99.894531
132.225739 15.03047
132.37059 7.680555
132.416061 9.675
132.452301 5.148809
132.485886 7.102273
132.513947 13.90278
132.57399 10.09643
132.674149 11.66667
132.688171 5.166667
132.826462 5.335145
133.012253 7.280303
133.033035 59.919781
133.054794 104.358704
133.064178 161.192505
133.101273 3275.116943
133.132141 5.027778
133.16748 6.075617
133.179306 18.357559
133.188217 16.442209
133.203156 10.09583
133.240326 26.634541
133.281052 2.854167
133.307571 11.16026
133.326294 15.42912
133.340637 19.59868
133.348206 18.00514
133.374222 15.5193
133.416306 39.350521
133.456711 8.057693
133.500916 8.1875
133.601166 5.714285
133.621552 21.18939
133.633347 27.879829
133.659348 9.599999
133.70546 14.72436
133.895111 8.411765
133.96759 6.666667
134.060577 2230.51709
134.106857 78.819946
134.126007 23.029909
134.140823 13.30697
134.161453 12.57738
134.17627 22.1581
134.192932 15.66759
134.24556 8.745155
134.269745 4.335784
134.294861 32.363689
134.33812 12.38333
134.439957 10.74405
134.49556 30.048349
134.513062 16.25379
134.527985 12.34981
134.564453 6.337963
134.57222 6.430555
134.636841 18.136749
134.661163 5.480072
134.713654 7.686403
134.733734 10.56522
134.882996 3.490385
134.9664 8.226851
135.028687 9.920635
135.07338 21.640921
135.080231 296.012512
135.116714 2198.540039
135.202179 6.380952
135.220261 5.136111
135.251114 5.690476
135.278427 9.407609
135.309814 43.108959
135.337051 9.1875
135.344254 17.038521
135.364075 14.7451
135.385635 33.546398
135.517303 19.8053
135.534821 10.89851
135.603333 17.713869
135.623596 8.386905
135.635559 17.190479
135.651566 11.74898
135.704681 6.564103
135.729126 15.57445
135.749207 8.449074
135.855927 8.935
135.899216 7.668011
136.075531 2616.832031
136.122086 179.579102
136.160614 25.87167
136.238983 15.08977
136.268204 9.716269
136.292938 8.547619
136.423004 14.45058
136.435074 9.023809
136.452988 1.777778
136.475723 2.695513
136.543243 5.148809
136.651047 6.371212
136.659851 24.076811
136.817368 23.894051
136.886673 7.656609
137.000519 18.3435
137.095215 298.808014
137.131775 313.465302
137.185837 2.083333
137.198273 14.03103
137.541473 3.080128
137.829132 9.386905
138.090988 1350.782959
138.142426 4.708333
138.159363 3.668651
138.185532 5.510417
138.255478 5.333333
138.277985 3.345238
138.334061 9.426724
138.388458 3.66886
138.399979 23.63949
138.59726 7.017544
138.634109 13.33418
138.773422 12.64198
138.802368 3.047619
139.110138 16.77688
139.228699 7.472222
139.333801 6.136111
140.107452 332.673492
140.13942 6.177083
140.194946 4.786765
140.292801 8.083333
140.374969 7.12037
140.446396 9.337963
140.538574 30.706369
140.59874 5.786765
141.070374 315.868591
141.319733 5.166667
141.46225 5.402778
142.51123 7.736842
142.876938 1.672619
142.964264 2.683333
143.08493 1266.675049
143.134644 20.591881
143.22702 4.963235
143.301407 13.14371
143.334717 8.334596
143.398621 21.460979
143.587631 3.226852
144.077286 16.14982
144.192505 10.39839
144.260849 8.881579
144.330719 20.461929
144.373688 18.071011
144.419662 3.760417
144.432373 15.88955
144.704254 20.69347
144.80455 7.495968
144.952118 12.23184
145.028992 7.360043
145.062607 14.42672
145.101501 2705.118896
145.153076 11.94907
145.17836 9.112655
145.193375 5.558333
145.231995 31.32412
145.336945 7.347222
145.403809 2.678571
145.504517 3.0
145.541763 4.523809
145.596848 11.67348
145.632965 12.96667
145.652084 11.28167
145.664078 30.463539
146.060394 279.07251
146.313095 36.880951
146.344559 21.453569
146.387085 16.33333
146.41658 10.38021
146.437668 40.722851
146.517838 4.671297
146.622894 9.693376
146.719803 4.008333
146.796494 16.387819
146.967804 8.541667
146.981186 11.7067
147.078705 388.978302
147.116364 3248.510986
147.141495 4.017857
147.156082 34.104172
147.18782 10.4422
147.216339 7.844444
147.225906 11.70417
147.247009 5.025641
147.268127 6.805555
147.280701 20.625
147.301895 15.02885
147.319611 11.38095
147.365234 13.73387
147.381607 6.339285
147.40007 6.71627
147.424362 11.34347
147.49617 11.66801
147.508865 13.01235
147.527039 6.533333
147.675568 11.50521
147.870728 6.306818
147.909836 3.483333
148.024796 13.38313
148.075668 2152.577881
148.143112 7.840278
148.172974 8.668011
148.249207 10.19444
148.268234 16.10594
148.287445 10.79688
148.312836 18.001539
148.329697 8.333333
148.362518 42.87994
148.405975 9.527778
148.431412 5.703703
148.455765 14.625
148.474289 4.008333
148.483353 7.935
148.596832 14.05235
148.622757 43.306671
148.638809 37.00362
148.67308 4.033333
148.774933 10.68314
148.985031 10.20833
149.094101 411.879913
149.130783 1075.947021
149.178757 2.816667
149.187363 36.587749
149.208725 9.856061
149.235428 15.57948
149.27179 7.06586
149.330231 23.43219
149.378067 2.003788
149.402679 17.554079
149.416611 15.82315
149.535431 14.80254
149.577972 3.337121
149.72168 10.54167
149.955612 9.672222
150.05574 332.71051
150.090775 2547.851074
150.174988 6.833333
150.215714 13.47917
150.230209 17.30002
150.256348 4.375
150.280853 17.31579
150.29361 4.013889
150.303009 3.720238
150.3414 23.25
150.355072 14.38043
150.371277 14.70636
150.434296 8.769231
150.442932 7.676282
150.468536 4.668478
150.558167 3.345238
150.642319 21.131821
150.725204 12.37306
150.82695 23.47468
151.044769 6.939394
151.109879 212.570297
151.166168 2.741667
151.897232 6.666667
151.945633 18.30579
152.106201 343.279114
152.373016 7.177631
152.390701 3.345238
152.438065 18.033449
152.489532 6.201666
152.507355 5.333333
152.639725 11.4422
153.065659 50.67514
153.932037 5.690476
154.121414 154.286896
154.965042 12.01754
155.084976 479.935486
155.24263 19.6684
155.389999 2.733333
155.498596 23.36125
156.090622 79.766571
156.169449 2.5
156.228119 6.71627
156.302414 20.997549
156.489151 4.008333
157.06752 60.183521
157.076828 81.776314
157.10112 1145.390015
157.134064 1.666667
157.215912 7.564815
157.238846 16.36149
157.281036 5.297619
157.291412 6.783046
157.404388 13.68254
157.491699 6.805555
157.687149 16.739861
158.002914 6.713542
158.073776 47.641769
158.091522 39.44075
158.211014 15.02083
158.256973 9.122475
158.318405 19.62178
158.348602 1.694445
158.378815 5.034091
158.780289 14.55147
159.078918 553.619385
159.116211 2274.86792
159.170563 21.231689
159.197495 2.893518
159.242767 8.791667
159.299957 13.00682
159.330688 8.358974
159.356354 1.777778
159.38472 28.30945
159.428497 7.666667
159.451477 1.875
159.488861 19.712641
159.516907 5.884804
159.594299 11.68056
159.65033 13.27053
159.713486 10.59572
160.075577 513.235413
160.152924 7.075617
160.179337 7.666667
160.200882 5.367424
160.268936 5.786765
160.611435 25.726191
160.756638 9.117248
161.061218 80.326363
161.095154 1162.922974
161.132339 2270.440918
161.183136 27.144051
161.207123 17.87792
161.222351 4.358333
161.233429 3.802778
161.242203 3.680556
161.265808 33.62262
161.313309 24.072121
161.331436 16.38513
161.366058 16.52301
161.42337 3.686404
161.458786 18.73171
161.49411 2.003788
161.506653 7.001984
161.525269 9.840517
161.604645 9.385684
161.741776 7.083333
161.780441 7.225
161.891922 10.86667
162.091324 806.697388
162.197861 15.56609
162.228821 2.671296
162.277832 20.362181
162.517212 14.50508
162.672699 9.826923
162.716476 6.189394
162.747574 7.401515
163.000793 10.66848
163.072937 99.148552
163.110626 740.734985
163.147202 515.519775
163.209564 6.333333
163.227341 1.666667
163.262894 5.010417
163.294006 2.354167
163.347839 11.26667
163.38765 9.033334
163.401199 7.347222
163.418518 6.710784
163.454086 8.442983
163.516617 11.09524
163.952469 6.083333
164.06955 222.614304
164.098053 3.854167
164.107437 509.433411
164.157837 12.00595
164.166504 7.391666
164.288071 4.041667
164.314819 5.291667
164.347778 3.893518
164.413193 3.640152
164.697327 3.0
164.724304 18.20056
165.005493 11.70027
165.238007 11.67188
165.511948 9.338889
165.958786 9.355556
166.085052 76.111267
166.119827 238.7146
166.170517 15.63
166.206299 2.14881
166.411865 2.083333
166.488052 4.335318
167.08313 237.630905
168.091232 38.627449
169.099716 719.372803
169.156036 3.34375
169.165085 4.333333
169.29808 11.3952
169.531784 14.48214
169.54982 8.415
169.663177 20.55843
170.071564 23.78009
170.184692 4.763889
170.307037 14.10965
170.366272 6.755556
170.639282 5.346264
171.07991 176.6819
171.116348 915.812073
171.193451 11.26599
171.221008 6.666667
171.239227 6.333333
171.312073 6.680555
171.339996 17.61742
171.535263 8.41565
171.558411 12.6886
171.726685 4.366667
171.963913 11.77174
172.014008 6.354167
172.109131 75.110733
172.151398 5.440476
172.195816 5.225
172.21225 15.54445
172.251358 7.455883
172.278809 7.605556
172.392914 14.07101
172.466019 7.700269
172.481674 8.401667
172.596252 9.0
172.703674 5.667929
172.790985 4.225
173.061356 37.352871
173.095032 503.230286
173.132538 4453.528809
173.187714 39.721901
173.211411 33.112061
173.241531 24.674641
173.252808 13.46154
173.26828 24.932779
173.297195 3.025
173.316147 17.495899
173.339798 12.93426
173.376389 5.355392
173.395813 14.00833
173.414276 11.14833
173.459076 9.49359
173.487274 39.773441
173.51709 13.875
173.532166 7.033602
173.541351 3.440476
173.616043 3.266667
173.660507 18.400339
173.747894 12.46354
173.784241 5.416667
173.801605 8.668651
173.83902 12.35526
173.86261 22.9697
173.90358 14.91325
173.922653 9.948333
173.944855 8.740741
174.091644 716.223328
174.234039 9.773936
174.302841 9.573529
174.342026 17.86483
174.403992 14.48571
174.514252 8.340278
174.54184 3.666667
174.611115 8.594136
174.679794 13.7619
174.707642 14.63712
174.799316 14.37833
174.813202 16.075399
174.978745 11.24575
175.05246 9.668651
175.112122 779.016785
175.147659 3352.493896
175.202835 24.158331
175.222717 21.727131
175.259567 6.354167
175.269104 11.57143
175.280197 43.03196
175.328659 15.37045
175.340271 20.96221
175.352615 13.525
175.369919 32.336418
175.397797 18.002979
175.439667 9.797619
175.470993 8.748563
175.490341 25.94582
175.540619 6.05
175.650497 15.17926
175.661026 9.1875
175.763474 33.947369
175.854919 17.148809
175.884384 4.013889
175.937241 12.49038
176.044022 19.438431
176.105972 2491.923096
176.181793 7.897436
176.200211 26.151739
176.25116 14.38462
176.311111 20.01708
176.34288 28.55784
176.376404 14.83333
176.385727 11.93889
176.440582 13.11538
176.583862 6.775537
176.64978 13.1382
176.731415 15.68056
176.824326 7.422222
176.838211 17.700859
176.893936 25.06938
177.041473 10.71196
177.074219 14.79039
177.091965 187.852402
177.124023 53.934589
177.162003 315.782715
177.222397 12.06061
177.264084 4.333333
177.325775 10.34722
177.520493 1.720238
177.598495 3.185606
177.804718 4.444444
178.122513 792.983826
178.158478 1137.349976
178.219376 4.166667
178.233444 19.341459
178.24292 16.552271
178.488983 3.345238
178.507584 14.57649
178.553986 9.62963
178.661697 8.047619
178.785263 2.854167
178.828735 8.121212
178.879547 9.11638
179.433731 5.801667
179.778793 5.840278
179.923386 17.30769
180.087921 50.2356
180.138947 145.717697
180.189468 9.094697
180.310959 7.605556
180.343597 4.335145
180.385651 8.4375
180.441177 23.81377
180.502472 6.666667
181.100693 681.561279
181.154678 6.680555
181.176147 7.108871
181.386932 4.668651
181.433792 11.66774
181.574478 12.22866
182.147659 35.71608
182.186661 2.625
182.33461 5.338889
183.079483 66.530708
183.115524 595.793579
183.322693 5.906746
183.675385 31.434099
183.71727 10.92607
183.742188 2.449074
183.754196 10.93333
183.90477 35.554741
184.048264 12.53452
184.077225 70.436546
184.126343 34.600929
184.138229 5.025641
184.317657 3.047619
184.488312 16.116501
184.530258 2.666667
184.705154 14.0119
184.795044 4.453432
184.965286 9.870833
185.095657 87.357109
185.132141 2541.553955
185.187531 76.386292
185.230347 4.340909
185.276215 21.83881
185.300964 14.85985
185.367676 6.001667
185.381882 16.04464
185.399017 26.81481
185.43399 1.666667
185.465454 8.414216
185.482193 7.281666
185.566666 4.335
185.609314 4.335784
185.628265 11.66764
185.761017 4.0
185.846375 4.669117
185.865219 12.00198
185.931747 10.92287
185.990112 9.8
186.061157 5.787037
186.091873 192.011597
186.197495 8.061869
186.221298 8.560484
186.244965 9.003623
186.289841 4.033333
186.316177 3.714286
186.553696 6.75
186.725098 9.635753
187.016113 2.408333
187.111862 617.283203
187.147278 2885.700928
187.214874 16.411819
187.233963 31.24017
187.253815 35.551609
187.269913 11.65204
187.295395 10.67188
187.309204 36.07436
187.352997 30.62269
187.394608 2.041667
187.441437 32.06945
187.494125 15.34519
187.572449 21.85498
187.645309 24.031191
187.671448 5.932018
187.80069 14.73214
187.913986 9.63362
188.143784 19.70833
188.16333 14.33532
188.178665 18.1301
188.199585 18.039221
188.2677 8.506945
188.339798 3.055556
188.392456 2.083333
188.406647 9.477381
188.430756 3.490385
188.459412 13.59559
188.506958 6.520061
188.553802 13.2619
188.822342 16.39254
188.865341 9.681159
188.941376 6.906746
189.090561 117.087799
189.127838 1140.160034
189.16304 1985.274048
189.222092 22.692329
189.234512 15.44817
189.284164 22.24074
189.311325 26.7234
189.336624 21.85227
189.3629 6.05
189.428894 6.296568
189.449982 6.363636
189.506027 14.32083
189.551331 24.92308
189.575256 25.52688
189.637222 12.45581
189.655029 9.019608
189.702942 4.44079
189.789322 36.42128
189.990555 14.37186
190.014526 17.347219
190.024643 6.001984
190.096771 21.70422
190.182404 6.678764
190.241898 6.013889
190.263306 5.854167
190.321564 10.4406
190.355164 10.72727
190.374344 16.389681
190.408035 3.802778
190.556808 11.0
190.585861 15.0
190.600876 19.044451
191.04744 28.138889
191.141647 335.230988
191.455902 7.428572
191.81839 8.307693
191.935684 5.1875
192.138855 420.778015
192.178894 3.4
192.202744 5.339743
192.218857 3.933333
192.308929 6.564103
192.352737 16.721849
192.390884 13.39254
192.468094 6.0625
192.895203 11.88005
192.999374 8.42455
193.105865 26.01923
193.265396 9.829301
194.153778 151.266495
194.369537 4.0
194.505524 12.8648
194.86676 6.779762
195.116058 552.075012
195.223907 3.695513
195.316971 10.22685
195.404114 7.777778
195.642456 15.48214
195.776154 4.382936
196.043884 17.503469
196.085403 13.7947
196.143539 11.0732
196.504593 4.120098
196.533844 9.33477
196.904678 19.000601
197.092285 276.487488
197.131683 1020.789001
197.168991 4.458333
197.284317 14.27368
197.305176 7.337963
197.336716 5.541667
197.35022 2.075
197.451797 14.32527
197.495804 4.408333
197.578964 12.73667
197.647385 9.713542
197.742447 11.71451
198.038849 9.055181
198.154175 21.35577
198.335678 12.06973
198.552322 3.888889
198.63681 4.440476
198.891617 13.25494
198.940689 3.695513
199.111877 442.3125
199.147964 404.946106
199.18605 6.022059
199.219772 2.35
199.28093 6.906746
199.336899 11.19853
199.436829 3.490385
199.557678 4.306818
199.75383 53.568459
199.795395 4.335145
199.879028 3.388889
199.999008 6.25926
200.107498 506.751709
200.188934 7.866667
200.327637 25.5874
200.425171 7.669445
200.716522 10.22839
200.962509 5.0
201.093842 74.650047
201.125168 344.259094
201.163971 294.921814
201.203949 9.214286
201.219574 12.17385
201.371902 5.09375
201.509995 8.173612
201.532074 7.008333
201.569565 3.375
201.905502 8.0625
201.935074 7.097222
202.121628 905.269104
202.159729 147.9599
202.296005 4.531863
202.380402 5.391026
202.429901 7.676802
202.572083 13.07692
202.593277 16.002529
202.717087 3.736111
202.771622 8.962963
203.003372 17.71645
203.029175 13.56522
203.102448 60.378071
203.142334 1448.784058
203.177856 183.8349
203.317322 7.8
203.328583 19.19969
203.352432 9.353174
203.42366 17.130381
203.465714 18.33547
203.537048 11.71364
203.555038 10.17754
203.614609 5.347222
203.659286 1.671296
203.693481 18.236111
203.801773 20.1777
204.070862 5.259615
204.174011 453.043396
204.258392 6.6
204.307251 40.602558
204.412842 9.348958
204.848663 12.48522
205.041809 7.736842
205.086639 9.761363
205.097961 34.302872
205.465454 15.91838
205.589447 14.14899
205.73494 5.678572
205.77977 9.920635
206.114059 130.818802
206.158295 55.523548
206.190689 128.639008
206.219131 8.816667
206.869095 8.004902
206.884109 6.666667
208.167831 84.704323
209.095413 157.016098
209.133209 282.263794
209.234207 16.92647
209.273895 4.15
209.313599 5.413462
209.51947 2.333333
209.867477 2.083333
209.983078 27.83757
211.111313 123.168602
211.146774 358.314392
211.193497 2.041667
211.862335 7.054825
211.928513 8.135
211.989914 32.543011
212.055206 8.022223
212.109116 209.929703
212.149475 142.963501
212.397064 8.625
212.597382 4.694444
212.881439 15.79988
213.126144 811.134583
213.164062 998.422119
213.220215 3.226852
213.267487 9.960366
213.340256 9.742284
213.638504 5.022059
213.727539 23.91667
213.934021 13.60343
213.978775 12.98529
214.07196 16.21212
214.084702 31.678671
214.600632 16.000851
214.896317 16.0
215.10112 107.686798
215.142822 1761.46106
215.178925 666.925171
215.225296 8.510417
215.245911 2.083333
215.284698 21.414049
215.542923 14.64329
215.557709 26.379379
215.644104 2.5
215.667084 9.350877
215.730957 8.083333
215.805054 7.057692
215.835709 11.33889
215.854645 16.777781
215.969269 5.720238
216.138245 1210.468994
216.255051 1.720238
216.418762 8.066667
216.463898 6.231482
216.490417 4.734848
216.521027 4.670455
216.601227 1.666667
216.705215 24.443689
216.75177 14.76025
216.802765 4.669445
216.81813 17.33386
217.151245 91.454552
217.294769 11.34543
217.874664 7.001543
218.008286 20.95833
218.029739 6.075
218.117157 46.455811
218.152679 232.763596
218.218872 4.120098
218.241867 30.4
218.285751 28.66667
218.32164 3.675
218.373047 4.408333
218.551682 7.761364
218.584045 2.027778
218.804428 3.15
218.926468 7.55147
219.115967 53.923721
219.476791 8.840278
219.708221 22.975229
220.134796 19.725981
220.169983 1012.075989
220.240036 41.13369
220.274658 4.225
220.359604 13.47619
220.413605 10.3344
220.43425 11.69482
220.455917 6.075
220.476303 7.120098
220.507065 12.675
220.557861 13.75
220.594406 3.016667
220.792725 3.4
220.932266 24.44643
221.134155 94.291656
221.220016 4.027778
221.310135 6.967105
221.789978 11.66848
221.868683 25.628241
222.074646 5.025641
222.137939 122.328903
222.182693 98.277489
222.354691 7.349638
222.402588 14.96333
222.47316 9.786765
222.666199 15.53846
222.889084 4.469445
222.914978 19.25556
223.104401 19.047621
223.147552 488.252991
223.572784 4.382936
223.76593 5.148809
225.123749 33.215569
225.295319 5.391026
225.550751 10.54762
225.803314 18.491671
226.120926 549.837708
226.156662 75.069237
226.194351 2.700758
226.691742 9.32545
226.838684 12.24537
226.911728 7.35
227.107056 96.4506
227.142975 196.940796
227.179749 885.264587
227.252487 2.005952
227.283905 12.21802
227.420334 10.13043
227.436081 19.570339
227.551437 1.666667
227.761475 18.45343
227.892746 5.335784
227.975006 7.297619
228.138794 193.326904
228.261719 9.338889
228.722244 18.858801
228.775803 14.33488
229.118164 9.688597
229.155899 270.680115
229.192825 270.087585
229.359772 14.88158
229.681885 11.33889
229.73967 15.89387
230.061249 4.683333
230.155304 420.600403
230.191727 117.781898
230.326553 7.708333
230.380951 4.125
230.711624 6.680555
230.737534 11.35
230.880142 4.814815
231.019119 4.340909
231.6474 22.033331
231.861435 14.76587
232.123688 78.899818
232.169144 1872.359009
232.204651 5.011905
232.230148 2.666667
232.256317 5.856061
232.322678 11.30616
232.376907 9.111112
232.420288 9.748563
232.456284 12.26833
232.474106 19.646299
232.490326 13.14941
232.61203 2.375
232.6651 11.67188
232.728409 16.44537
232.771042 2.008333
232.788864 7.240079
232.866867 18.62722
233.031372 9.405142
233.057922 10.60093
233.908859 17.343901
234.186905 66.345711
234.663696 19.987181
235.112228 39.708328
235.149261 33.780418
235.182526 54.375
235.599823 1.875
236.119202 60.568501
237.125031 74.443153
237.164429 1484.452026
237.231323 19.53651
237.2939 3.011905
237.38501 6.081667
237.576248 3.520833
237.606506 7.11574
237.642532 2.027778
238.087692 3.686404
238.715881 33.947079
238.974228 6.049603
239.146439 305.507599
239.176361 647.411987
239.256653 2.541667
239.307785 7.35
239.378052 9.671053
239.421112 6.75
239.537231 10.19048
239.765594 18.160089
239.851639 21.345591
240.019012 4.898148
240.137009 127.845703
240.229233 3.4
240.82782 2.625
241.125031 34.014149
241.158066 352.649292
241.50322 8.168651
241.540985 4.69697
241.643372 35.745609
242.128983 15.81855
242.154434 201.218307
242.949005 3.666667
243.225327 9.162635
244.099716 10.20417
244.128876 29.99074
244.165466 317.836792
244.199417 122.900101
244.431381 3.080128
244.583038 5.833333
244.614883 8.366666
244.648987 20.778111
244.785049 6.358974
244.839478 10.0947
244.870468 11.89815
244.893127 20.7971
244.971588 16.16667
245.052826 3.694444
245.11232 30.133329
245.258804 11.64031
245.416855 8.138888
245.460434 6.352941
245.5858 4.007576
245.634857 11.03157
245.694321 5.346264
246.149323 47.256531
246.184784 7056.949219
246.24791 35.32172
246.270493 19.749741
246.295395 5.121212
246.333282 8.403735
246.370026 43.722721
246.407898 38.72374
246.420776 13.00321
246.476395 2.14881
246.513702 21.0373
246.54599 26.24202
246.568695 21.428459
246.586365 29.191759
246.605774 10.78241
246.630615 34.508881
246.667618 27.73875
246.726639 21.025
246.808533 8.847222
246.885056 14.71111
247.109619 7.714285
247.144958 295.065002
247.316895 8.068182
247.334213 15.25036
247.458618 7.541667
247.572174 9.964286
247.771866 5.480072
247.885803 6.760417
247.943146 33.318802
248.313797 7.666667
248.494751 2.347222
248.631866 9.364899
248.867798 6.805555
249.156647 42.46537
249.196289 1897.755005
249.241272 16.74679
249.26445 2.520833
249.323517 6.0
249.351273 6.88587
249.383957 10.89409
249.444382 4.408333
249.468414 5.136111
249.504822 9.677381
249.577362 4.694444
249.603745 8.6875
249.746597 22.667681
249.933731 5.88587
250.132523 90.704826
250.213562 20.176889
251.046188 7.281666
253.017395 4.680556
253.05072 3.727941
253.122635 20.6674
253.154877 132.6633
253.471481 3.336111
253.74295 5.339743
253.79837 13.00389
253.842697 7.742284
253.937256 19.120371
254.065842 5.041667
254.151489 179.873795
254.190857 305.496185
254.258591 4.666667
254.374893 8.200723
254.514893 5.4
254.592834 9.185897
254.625122 24.065599
254.885818 12.34099
254.924698 10.43254
255.13504 97.02121
255.174683 1174.988037
255.22464 7.49359
255.237091 16.34569
255.335846 7.69697
255.39473 9.595239
255.416946 7.387821
255.491501 4.347222
255.534897 2.14881
255.55275 9.004902
255.691742 13.80833
255.708481 6.033602
255.742188 32.82645
256.169189 803.997803
256.206909 336.576996
256.265167 13.07
256.281799 7.724359
256.348633 4.763889
256.36203 6.633772
256.419464 41.347351
256.450073 12.92442
256.496399 18.25
256.510071 9.948333
256.614227 16.55415
256.660645 2.367424
256.775238 10.13611
256.850372 7.022059
256.878052 8.0
257.153412 116.456802
257.189148 253.916901
257.438477 14.12927
257.531494 7.240079
257.866333 5.265351
257.899445 17.08824
258.027954 12.40278
258.185883 413.349091
258.386169 29.289551
258.423492 7.423878
258.497589 6.716667
259.029236 39.071011
259.962921 5.347222
260.197784 24.44676
262.157349 56.35376
263.138489 26.450001
263.184204 4.963235
263.58429 9.070175
263.991302 21.7971
264.170013 104.651199
265.098969 107.0019
265.144257 35.035919
265.158447 502.420105
265.230438 7.388514
265.274689 2.013889
265.418091 9.025001
266.024994 6.371212
266.183533 2.386905
266.518127 7.001437
268.187775 29.95833
270.182678 141.600494
270.21109 2.670455
270.582764 5.003788
270.657318 6.125
270.760406 8.335318
270.783264 11.675
270.879578 13.78571
270.930817 9.300287
270.977356 4.125
271.191803 5.523809
271.400085 16.07456
271.489075 9.429762
271.61969 12.89943
271.750854 8.816919
272.049835 7.893817
272.163483 228.5392
272.200775 2430.147949
272.336884 11.46377
272.406128 20.04003
272.423004 10.05518
272.526367 13.6674
272.578033 17.00952
272.601044 6.801667
272.630066 13.28656
272.68808 5.333333
272.905853 33.691891
272.963013 9.753472
272.9776 13.58974
273.043488 11.71605
273.169952 1.666667
273.353973 8.02671
273.509308 5.008333
273.64743 11.32003
273.687622 9.775537
274.11969 5.148148
274.180878 17.92857
274.21756 482.202911
274.28656 10.67029
274.321136 11.70238
274.592163 11.72429
274.786072 9.185606
275.237061 3.386905
275.711517 20.004629
275.954956 29.428459
278.094757 9.741667
280.167084 70.464287
280.324158 16.6674
280.404572 10.70417
280.608307 23.778191
280.929108 11.69207
280.97226 16.156919
281.070496 5.041667
281.204437 27.31144
281.541687 2.680556
281.646759 13.61111
282.185486 4093.550049
282.254395 19.345591
282.274414 12.00278
282.330963 15.45833
282.359528 50.06065
282.388885 12.35
282.404724 8.728536
282.430481 24.053699
282.469025 18.947371
282.502319 36.206821
282.627747 3.416667
282.651764 6.506945
282.674286 12.90572
282.704498 3.670455
282.723846 23.81636
282.765991 41.920181
282.798126 17.69907
282.831665 53.211781
282.877411 10.38782
283.169373 530.836914
283.525879 7.280303
284.16629 277.813812
284.256744 18.97304
284.459656 12.16009
284.481232 5.002778
284.702637 14.00735
284.849609 5.013889
285.254761 11.84722
286.733887 8.506945
287.002441 4.001812
287.031891 12.71605
287.120209 13.33889
287.208466 37.691269
288.227264 197.998001
288.306427 2.339286
288.400909 9.014493
289.08075 3.34375
290.958801 10.56522
291.244507 61.151119
291.261536 3.355392
297.190094 16.75362
297.507965 3.0
297.627991 1.833333
297.67395 3.518939
298.177002 133.955597
298.240326 8.481667
298.327606 4.335784
298.358948 2.075
298.403137 18.85714
298.453796 6.334877
298.820526 3.345238
298.983246 23.70645
299.213562 745.516296
299.307831 9.599999
299.331909 6.667735
299.386047 19.050261
299.416229 12.92287
299.545776 51.186001
299.651001 9.204166
299.855774 22.931351
300.139374 59.5163
300.195404 4142.437012
300.263397 1.708333
300.295715 2.670455
300.329193 41.125999
300.427917 10.0
300.458496 3.490385
300.489197 32.619141
300.518402 37.37854
300.57312 10.67262
300.609436 9.708333
300.67572 9.688597
300.699738 5.401515
300.747009 7.675926
300.766541 15.92726
300.796295 2.333333
300.813812 13.5787
300.869598 5.6875
301.224823 18.67226
301.99884 2.816667
302.100769 4.136111
302.276611 22.800261
302.845245 10.36687
302.883301 13.06667
302.990479 14.83627
303.019531 2.347222
303.10553 4.666667
303.232727 7.346264
303.269989 58.739632
303.34317 19.283091
303.382812 39.00338
303.422546 42.523529
303.442505 16.68561
303.462891 38.162941
303.491089 54.78656
303.519012 178.165207
303.546051 12.86786
303.564667 104.626999
303.599609 42.756741
303.627991 100.774803
303.735779 9.405142
303.790802 6.673611
303.814697 17.35401
304.020782 4.335784
304.048096 13.62381
304.075378 6.001667
304.117859 24.052629
304.214661 25.377159
304.348053 26.056311
304.435944 43.413502
304.690186 47.734428
304.845032 32.181839
304.919861 8.45
304.984192 5.75
305.013824 36.669868
305.065002 6.011364
305.142792 36.34668
305.221558 57.577148
305.259033 26192.279297
305.332886 24.37862
305.363617 26.53788
305.404541 64.020844
305.425507 40.74667
305.44339 59.477619
305.545288 80.025253
305.58844 47.079811
305.603088 18.5126
305.661926 29.00794
305.717285 146.521301
305.75 79.104889
305.79599 48.00737
305.826599 105.885803
305.851654 52.226082
305.867584 25.02614
305.89743 95.302994
305.938477 86.70089
305.977875 56.79607
306.019562 24.544559
306.066711 58.64925
306.084351 54.387901
306.111511 49.651901
306.134735 70.09256
306.167206 93.994629
306.779663 42.111462
306.961945 21.780411
306.994232 12.07184
307.18338 3.125
307.54306 13.6881
307.689331 8.748334
307.911682 24.744261
307.993469 8.164682
308.287567 8.444445
308.691223 10.05235
308.807648 11.80283
309.155731 2.761364
309.272064 12.3346
309.49234 9.797101
309.724945 6.840517
310.79306 7.444445
311.122559 4.814815
311.57666 4.047619
311.828522 13.47141
314.235413 4.727941
314.309143 3.047619
314.383179 4.8
315.124786 1.777778
315.148529 11.01136
315.201782 76.681137
315.262482 7.375
315.314178 11.03571
315.338593 93.160278
315.377502 40.53194
315.389435 13.01333
315.417664 66.151047
315.446106 16.97925
315.476837 55.60865
315.508789 40.782101
315.535919 31.6474
315.556183 13.73333
315.592804 70.938759
315.616455 7.190476
315.642792 8.763095
315.709778 74.985977
315.770538 13.58881
316.112701 13.5
316.175446 6.668651
316.312653 7.2
316.648987 8.244949
316.744415 16.373409
316.789337 11.50672
316.812622 18.078489
316.83075 90.17804
316.867859 118.286797
316.991608 20.33333
317.010712 20.730339
317.072144 4.673077
317.145782 15.49123
317.169342 55.25174
317.223053 27809.449219
317.301239 22.79365
317.385834 68.651878
317.408173 19.25181
317.433044 132.875504
317.459747 89.163551
317.481598 37.39756
317.521484 147.492401
317.543152 7.8
317.572113 100.6567
317.619141 42.518089
317.634308 76.651489
317.655975 18.20159
317.694458 83.592346
317.73288 82.763893
317.783813 93.764076
317.974335 24.307581
318.005707 39.199551
318.0513 30.39456
318.103851 36.481071
318.162018 121.726799
318.299622 53.005909
318.406647 28.79891
318.678467 15.00144
318.751129 9.711021
318.877289 24.377649
318.940186 40.44907
319.146149 22.35
319.274658 76.750237
319.542419 2.354167
319.743378 27.85358
319.80365 1.671296
319.822327 4.345238
319.853302 3.700758
319.876953 16.09849
319.969635 6.533333
320.009003 15.03704
320.121033 4.120098
320.170807 4.041667
320.849731 7.791667
321.392059 9.00119
321.460663 6.399193
321.799194 10.2619
322.44693 4.666667
323.167084 22.823681
323.428894 18.335649
327.268738 3.0
329.22995 28.06076
330.232452 46.543011
331.076141 2.041667
331.273926 316.816315
331.416656 11.73333
331.460968 7.00641
331.556 2.4
333.725952 8.789634
341.177368 4.382936
343.278809 17.087721
345.290161 208.854507
345.48288 12.75556
346.233795 4.013889
352.842285 8.388441
352.998779 10.05128
353.09903 12.04167
353.136658 17.39646
353.286652 10.7815
353.318573 4.339286
353.345581 7.989943
353.822815 8.380208
355.175415 2.208333
355.233063 75.64415
355.273224 904.736511
355.33786 20.23377
355.434479 12.77182
355.510834 14.36386
355.539398 14.77703
355.619476 46.54879
355.690277 7.075617
355.821503 8.667553
355.972565 9.688597
356.038086 14.00225
356.097168 7.958333
356.354614 6.446428
357.169373 10.37255
357.25351 474.706787
357.305756 5.875
357.421661 6.888889
357.446167 22.151251
357.568481 18.098009
357.688904 6.075
357.818909 5.939394
357.84552 4.453432
357.898499 6.494048
358.124512 17.58333
358.294098 8.36218
358.651489 6.25926
358.919067 4.741667
358.999146 10.2598
361.738464 9.033334
362.474152 3.857143
366.119507 3.823718
370.746552 9.017544
370.80014 2.722222
370.83905 2.013889
370.889618 97.544418
370.920746 13.8125
370.942596 15.75
371.001709 57.567459
371.041321 18.72908
371.102325 20.97538
371.12558 30.158911
371.19519 59.450531
371.22226 13.69333
371.250793 29.900021
371.327057 37.78941
371.346985 8.929167
371.428864 16.84314
371.470367 7.693376
371.86618 9.688597
371.912964 9.371913
372.020416 1.694445
372.29483 8.219203
372.632324 7.700758
372.75885 5.357143
372.847504 5.963235
373.023926 21.184851
373.09668 16.55648
373.166565 22.97743
373.230194 112.170898
373.285553 16987.75
373.374237 81.16349
373.400635 100.716202
373.446106 85.503242
373.472168 58.36837
373.516968 69.368828
373.552612 135.944199
373.5802 100.1819
373.618835 88.680893
373.6539 56.973949
373.669037 30.833229
373.706757 109.164703
373.780609 76.648468
373.80661 24.424379
373.867096 117.3237
373.963898 41.90976
374.013519 64.108688
374.136658 36.041672
374.324677 5.898148
374.462891 69.036461
374.688904 17.494459
374.726227 14.01905
374.751892 14.59269
374.84671 20.77809
374.891083 11.3668
374.988037 16.451799
375.04068 41.716961
375.095428 11.66786
375.167297 11.4375
375.256317 15.00298
375.942596 2.347222
376.118011 12.05921
376.233124 4.695513
376.333923 8.523648
376.497467 39.413521
376.57016 10.66786
376.703094 9.009259
376.813477 25.83466
376.916809 11.16329
377.610535 9.240384
378.063629 6.35307
379.32959 7.880051
381.403198 9.94697
392.422729 2.722222
450.289734 3.703704
475.335632 8.136261
677.705139 6.708333
884.453857 2.666667
963.409851 5.428572
1084.280151 9.666667
1085.501221 3.025
1334.183228 6.225
1341.528076 5.480072
1409.636475 19.348881
1508.866943 10.66821
1554.290894 2.4
1650.435181 9.426724
