>compound AMLEXANOX
>formula C16H14N2O4
>ionization [M+H]+
>parentmass 299.10263338009054
#inchi InChI=1S/C16H14N2O4/c1-7(2)8-3-4-12-9(5-8)13(19)10-6-11(16(20)21)14(17)18-15(10)22-12/h3-7H,1-2H3,(H2,17,18)(H,20,21)
#inchikey SGRYPYWGNKJSDL
#Ion_Source LC-ESI
#Instrument qTof
#Compound_Source Commercial
#PI Dorrestein
#Data_Collector Garg_Neha
#Scan -1
#Precursor_MZ 299.103
#ExactMass 298.095
#Charge 1
#CAS_Number N/A
#Pubmed_ID N/A
#Smiles CC(C)c1ccc2oc3nc(N)c(cc3c(=O)c2c1)C(=O)O
#INCHI_AUX N/A
#Library_Class 1
#SpectrumID CCMSLIB00000078918
#IonMode Positive
#UpdateWorkflowName UPDATE-SINGLE-ANNOTATED-GOLD
#LibraryQualityString Gold
#TaskID 278b19f5865741e282cec7349aa7e7a1
##Scan# 1459
#SpectrumFile NCP003272_C2_D11_BC1_01_15714.mzXML
#LibraryName NIHcollectionI_05062014.mgf
#MQScore -1
#Organism NIHcollectionI_05062014
#TIC_Query 0
#RT_Query -1
#MZErrorPPM -1
#SharedPeaks 0
#MassDiff 0
#LibMZ -1
#SpecMZ 299.103
#SpecCharge 0
#internalFilename spec-00000.mgf

>collision 10
47.655922 172.0
48.798977 208.0
51.911434 176.0
52.392941 280.0
54.586483 156.0
54.938499 160.0
59.12841 208.0
61.965427 196.0
61.998333 144.0
62.609451 160.0
64.478371 140.0
64.771172 184.0
66.457497 156.0
66.69297 152.0
67.212479 188.0
67.815933 152.0
68.231239 140.0
68.626381 140.0
70.071655 216.0
70.488647 240.0
70.722923 140.0
72.956367 200.0
73.322327 196.0
74.549377 152.0
76.14917 236.0
77.976707 148.0
80.608467 156.0
81.349953 260.0
82.001091 156.0
82.45771 192.0
83.642113 156.0
84.800125 188.0
86.282951 208.0
87.482239 140.0
87.922119 168.0
90.58268 152.0
94.41082 212.0
96.042267 180.0
96.196419 144.0
97.951462 152.0
99.03389 160.0
105.069069 168.0
105.267052 172.0
105.944054 176.0
107.554176 196.0
107.777214 140.0
108.182579 200.0
109.315811 180.0
111.154709 184.0
111.486496 156.0
112.808029 144.0
114.661018 160.0
116.183456 144.0
116.232803 180.0
117.109924 176.0
117.50441 176.0
117.707298 140.0
119.045547 152.0
120.022575 156.0
121.034607 176.0
121.826004 196.0
122.973213 140.0
123.322182 260.0
125.497719 160.0
126.507545 184.0
127.543884 176.0
128.113205 180.0
128.336319 188.0
128.372391 212.0
130.394043 148.0
130.444046 168.0
132.005798 180.0
133.924423 180.0
134.791855 188.0
137.84758 164.0
140.632919 176.0
142.122452 192.0
142.884109 184.0
143.65358 144.0
146.174057 168.0
147.044952 168.0
147.11644 140.0
147.411102 184.0
148.051468 192.0
151.131836 172.0
153.095245 188.0
153.336685 252.0
153.371185 168.0
153.487061 148.0
154.06459 168.0
155.053482 152.0
155.087494 136.0
155.289856 144.0
158.065109 156.0
158.29039 156.0
158.420624 164.0
159.293594 164.0
159.811478 144.0
159.894516 252.0
160.161407 208.0
161.063599 176.0
161.524445 148.0
161.673721 152.0
161.848389 156.0
162.070633 688.0
162.195465 164.0
162.789139 148.0
163.07373 444.0
163.526398 156.0
164.283173 148.0
165.054474 156.0
166.05835 184.0
166.44072 140.0
168.077774 164.0
168.684708 160.0
171.082458 284.0
171.206635 184.0
173.715805 224.0
174.522079 176.0
176.502274 168.0
176.563095 148.0
177.161285 240.0
177.492584 164.0
180.076569 160.0
180.648621 172.0
181.080215 372.0
182.034271 176.0
182.097107 472.0
182.528702 208.0
182.843781 160.0
183.051895 184.0
183.101547 184.0
183.94313 148.0
184.034882 140.0
184.848511 208.0
185.074203 156.0
186.050415 280.0
186.682281 252.0
187.066513 200.0
187.389984 148.0
189.08847 144.0
189.61705 168.0
189.970749 144.0
190.580231 160.0
192.188217 168.0
194.01358 144.0
194.310333 176.0
195.068466 152.0
195.310379 160.0
196.039627 1216.0
196.611511 140.0
197.042725 300.0
197.572693 140.0
198.05777 140.0
199.079071 312.0
199.749557 160.0
202.042953 180.0
202.382645 188.0
202.459106 164.0
203.97702 224.0
207.093704 132.0
208.087952 144.0
208.783325 200.0
210.044449 176.0
210.086166 276.0
211.053162 752.0
211.65625 160.0
211.996384 144.0
212.100723 184.0
213.065521 2516.0
213.160034 180.0
213.633942 168.0
213.884201 144.0
214.051117 932.0
215.048798 132.0
216.061127 184.0
216.875183 140.0
217.005081 168.0
217.403091 172.0
219.037796 236.0
219.164474 144.0
220.897461 144.0
221.014832 184.0
221.037964 244.0
221.664276 168.0
221.714645 148.0
222.053223 332.0
223.062485 472.0
223.112671 200.0
224.063705 364.0
224.410736 140.0
224.625458 200.0
224.917877 144.0
225.073181 228.0
225.103653 196.0
225.610535 128.0
226.086075 8996.0
226.871231 152.0
227.089554 844.0
227.326248 164.0
227.486206 156.0
227.885635 212.0
227.909668 152.0
228.062927 156.0
228.105713 172.0
228.613297 152.0
229.108749 168.0
229.37352 156.0
231.708252 176.0
232.129547 172.0
233.01889 172.0
234.077362 192.0
234.16568 144.0
234.692871 184.0
236.498322 188.0
236.991364 208.0
237.065628 632.0
237.285599 204.0
237.866837 204.0
238.085068 3756.0
238.436676 188.0
239.043716 2252.0
239.084656 536.0
239.293549 100.0
240.051132 484.0
240.094528 396.0
241.059555 344.0
242.068817 480.0
242.333588 140.0
243.168198 196.0
243.882553 148.0
243.914429 140.0
244.096863 4636.0
244.350128 140.0
244.985977 132.0
245.098969 624.0
245.822784 140.0
247.892914 176.0
248.058777 252.0
248.234589 148.0
250.629822 324.0
250.730652 156.0
250.771622 152.0
251.244614 148.0
252.109756 144.0
253.02388 144.0
253.058762 280.0
253.097366 11444.0
253.17305 180.0
253.965012 244.0
254.099396 1696.0
254.139496 168.0
254.526276 140.0
254.600327 184.0
254.799881 148.0
255.051941 932.0
255.105423 420.0
255.149475 140.0
255.763412 160.0
256.045105 152.0
256.096954 3524.0
256.413147 176.0
257.055176 4472.0
257.099731 512.0
257.836548 196.0
258.057648 348.0
260.065643 160.0
261.982117 220.0
262.571991 212.0
263.007538 156.0
263.080139 1156.0
264.084137 404.0
264.585052 160.0
265.059357 1208.0
265.959503 148.0
266.066681 2564.0
267.077942 164.0
267.555573 176.0
268.29184 144.0
269.695465 208.0
270.066559 152.0
270.545959 164.0
273.865753 180.0
275.948029 140.0
277.335083 212.0
278.02832 160.0
278.90506 144.0
279.045746 196.0
279.873138 164.0
280.039642 256.0
280.132904 96.0
280.774536 140.0
280.831329 176.0
281.035706 340.0
281.092743 53052.0
281.161072 192.0
281.210571 164.0
281.335999 132.0
281.734558 136.0
281.833862 104.0
282.032135 136.0
282.095367 8260.0
283.09552 960.0
283.482147 100.0
283.821259 128.0
284.077087 420.0
284.235748 96.0
284.458038 116.0
284.604401 212.0
285.057861 148.0
285.080566 360.0
286.070221 156.0
286.642761 188.0
287.406769 128.0
295.34082 152.0
296.073242 164.0
297.155273 144.0
297.194183 308.0
297.338287 180.0
297.547668 140.0
297.653412 136.0
297.858307 160.0
297.906708 96.0
297.949493 180.0
298.072662 180.0
298.150696 136.0
298.270599 228.0
298.525421 96.0
298.574097 168.0
298.623535 168.0
298.670471 164.0
298.717163 128.0
298.805542 188.0
298.854187 120.0
298.941864 220.0
298.995422 288.0
299.049316 296.0
299.104675 129136.0
299.204163 336.0
299.292084 204.0
299.453064 188.0
299.529297 132.0
299.617065 160.0
299.670258 1092.0
299.778381 208.0
299.830444 124.0
299.890167 132.0
300.057861 292.0
300.107025 23404.0
300.298553 132.0
300.361176 152.0
300.382568 260.0
300.490723 148.0
300.552795 96.0
301.110138 3412.0
301.215912 168.0
301.282227 152.0
301.586395 148.0
301.636658 100.0
301.763092 128.0
301.823334 180.0
302.03064 160.0
302.077148 104.0
302.112061 556.0
302.214691 204.0
302.250549 128.0
302.307251 212.0
302.415649 136.0
302.51059 132.0
303.271484 124.0
304.195038 160.0
311.4823 172.0
317.102509 132.0
331.208557 160.0
431.276672 148.0
442.938324 100.0
1044.506348 152.0
1138.467407 184.0
1916.723511 152.0
