>compound MLS000860063-01!R()-2,10,11-Trihydroxy-N-propyl-noraporphine hydrobromide hydrate
>formula C19H21NO3
>ionization [M+H]+
>parentmass 312.157959
#inchi InChI=1S/C19H21NO3/c1-2-6-20-7-5-12-8-13(21)10-14-17(12)15(20)9-11-3-4-16(22)19(23)18(11)14/h3-4,8,10,15,21-23H,2,5-7,9H2,1H3/t15-/m1/s1
#inchikey HLRBSTGXOFUEHW
#origInchi InChI=1S/C19H21NO3.BrH.H2O/c1-2-6-20-7-5-12-8-13(21)10-14-17(12)15(20)9-11-3-4-16(22)19(23)18(11)14;;/h3-4,8,10,15,21-23H,2,5-7,9H2,1H3;1H;1H2/t15-;;/m1../s1
#Ion_Source LC-ESI
#Instrument qTof
#Compound_Source NIH Pharmacologically Active Library
#PI Dorrestein
#Data_Collector VP/LMS
#Scan -1
#Precursor_MZ 312.156
#ExactMass 311.152
#Charge 1
#CAS_Number N/A
#Pubmed_ID N/A
#Smiles CCCN1CCc2cc(O)cc-3c2[C@H]1Cc4ccc(O)c(O)c43.O.Br
#INCHI_AUX N/A
#Library_Class 1
#SpectrumID CCMSLIB00000085287
#IonMode Positive
#UpdateWorkflowName UPDATE-SINGLE-ANNOTATED-GOLD
#LibraryQualityString Gold
#TaskID d252d724072548979f1f6f1ced849daf
##Scan# 1278
#SpectrumFile p3-G10_GG10_01_18303.mzXML
#LibraryName Pharm_Active_Library.mgf
#MQScore -1
#Organism Pharm_Active_Library
#TIC_Query 0
#RT_Query -1
#MZErrorPPM -1
#SharedPeaks 0
#MassDiff 0
#LibMZ -1
#SpecMZ 312.156
#SpecCharge 0
#internalFilename spec-00000.mgf

>collision 10
44.932465 152.0
44.988522 224.0
44.997868 140.0
45.176964 124.0
45.385914 172.0
45.435543 128.0
45.49728 84.0
45.659882 168.0
45.711006 172.0
45.832203 160.0
45.975155 128.0
46.138607 216.0
46.344345 136.0
46.702766 100.0
46.753109 160.0
46.80212 208.0
46.868866 176.0
46.949299 176.0
47.002506 176.0
47.158203 188.0
47.225204 208.0
47.37442 184.0
47.621342 108.0
47.702419 228.0
47.713417 132.0
47.834488 152.0
47.8634 220.0
47.910233 232.0
47.955711 192.0
48.088127 148.0
48.098347 220.0
48.395042 216.0
48.63203 132.0
48.652939 188.0
48.701546 112.0
48.777973 252.0
48.819687 212.0
48.839161 160.0
48.940758 152.0
49.062054 148.0
49.241997 204.0
49.27692 108.0
49.375343 168.0
49.496536 168.0
49.577789 152.0
49.614235 144.0
49.640877 160.0
49.716637 124.0
49.747517 136.0
49.789642 108.0
49.879574 176.0
50.11602 212.0
50.159847 168.0
50.225994 244.0
50.444881 204.0
50.483059 184.0
50.62883 208.0
50.780487 112.0
50.865627 180.0
50.956524 148.0
51.027592 224.0
51.124321 56.0
51.377968 104.0
51.433624 80.0
51.555035 180.0
51.603638 148.0
51.64225 160.0
51.88427 204.0
51.986115 148.0
52.066517 152.0
52.08519 124.0
52.206593 204.0
52.414669 116.0
52.430775 160.0
52.644047 156.0
52.707611 152.0
52.740852 180.0
52.955009 136.0
52.99992 68.0
53.068047 88.0
53.136219 136.0
53.155083 116.0
53.182659 144.0
53.246548 204.0
53.295944 180.0
53.486473 204.0
53.572392 204.0
53.834949 116.0
54.07766 208.0
54.089367 140.0
54.329712 136.0
54.353188 200.0
54.3708 80.0
54.391495 184.0
54.432461 140.0
54.544125 156.0
54.698589 164.0
54.741287 160.0
54.884232 68.0
54.996357 148.0
55.148502 152.0
55.244625 200.0
55.305298 244.0
55.320103 92.0
55.349716 124.0
55.652218 100.0
55.667068 196.0
55.76067 148.0
55.771072 128.0
56.009163 136.0
56.08218 220.0
56.265675 92.0
56.98011 212.0
57.124443 128.0
57.211731 116.0
57.520065 128.0
57.67033 144.0
57.882145 156.0
57.898804 160.0
57.974556 140.0
58.027611 104.0
58.607719 168.0
58.739384 140.0
58.76532 60.0
58.84927 164.0
58.88134 76.0
58.913418 148.0
59.054058 188.0
59.067268 208.0
59.129032 52.0
59.17802 136.0
59.207115 140.0
59.243881 116.0
59.388279 184.0
59.409458 136.0
59.453957 176.0
59.469307 152.0
59.486191 204.0
59.573727 168.0
59.649033 204.0
59.662868 136.0
59.681683 152.0
59.75515 92.0
59.812096 140.0
59.961506 120.0
60.123451 196.0
60.13829 228.0
60.270164 224.0
60.387661 160.0
60.458832 112.0
60.471214 244.0
60.61525 116.0
60.720673 108.0
60.896065 72.0
60.953548 108.0
61.095043 180.0
61.156982 156.0
61.2663 324.0
61.492416 188.0
61.70644 132.0
61.740841 164.0
61.947464 140.0
62.007008 144.0
62.061878 80.0
62.075993 148.0
62.146584 60.0
62.242336 36.0
62.316162 180.0
62.380604 104.0
62.583565 168.0
62.742706 220.0
63.090046 212.0
63.205509 132.0
63.354347 156.0
63.536671 192.0
63.676369 120.0
63.770115 204.0
63.801907 224.0
63.8862 156.0
63.983284 80.0
64.120277 120.0
64.134628 76.0
64.21595 100.0
64.24147 212.0
64.294128 180.0
64.365845 104.0
64.437851 136.0
64.504974 136.0
64.621727 144.0
64.727371 192.0
65.318024 96.0
65.329285 256.0
65.448387 124.0
65.524094 112.0
65.798286 36.0
65.954987 168.0
65.985703 136.0
66.008347 172.0
66.031662 168.0
66.131302 168.0
66.166916 136.0
66.23008 132.0
66.361351 180.0
66.481392 120.0
66.67466 164.0
66.897514 132.0
66.915421 132.0
67.086494 64.0
67.11747 164.0
67.135414 152.0
67.168037 152.0
67.264313 144.0
67.373734 148.0
67.509407 48.0
67.520851 124.0
67.643578 108.0
67.668137 176.0
67.707436 156.0
67.835251 188.0
67.848366 180.0
67.953331 216.0
67.977028 188.0
68.004204 212.0
68.324661 56.0
68.441521 40.0
68.535416 112.0
68.827385 108.0
68.913284 88.0
69.078613 144.0
69.217651 176.0
69.283905 48.0
69.642227 184.0
69.731956 188.0
69.775177 208.0
69.926559 152.0
69.943207 92.0
70.07811 84.0
70.139771 128.0
70.196457 136.0
70.358315 176.0
70.393379 212.0
70.416763 172.0
70.565582 152.0
70.715836 212.0
70.751213 132.0
70.781349 180.0
70.845108 184.0
71.00425 136.0
71.04451 264.0
71.106598 240.0
71.193901 188.0
71.235893 116.0
71.259415 56.0
71.284622 120.0
71.303108 76.0
71.358582 196.0
71.513351 172.0
71.543655 132.0
71.609329 136.0
71.794731 136.0
71.811592 92.0
71.826775 112.0
71.851807 196.0
71.926338 208.0
71.97361 216.0
72.020905 116.0
72.096939 184.0
72.215286 120.0
72.281273 204.0
72.335434 208.0
72.537025 220.0
72.659134 116.0
72.777946 204.0
72.826797 188.0
72.856079 108.0
72.998856 136.0
73.068604 192.0
73.124756 52.0
73.353012 236.0
73.409279 136.0
73.446808 120.0
73.458748 152.0
73.694359 120.0
73.800934 352.0
73.829407 116.0
73.906387 176.0
73.949173 120.0
74.101585 160.0
74.230148 96.0
74.400024 128.0
74.647453 120.0
74.695618 92.0
74.893578 76.0
74.940956 128.0
75.024544 56.0
75.045235 176.0
75.059029 192.0
75.079727 148.0
75.157356 116.0
75.245384 148.0
75.39222 156.0
75.4095 152.0
75.456177 148.0
75.723694 164.0
75.857834 188.0
75.975769 176.0
76.079903 132.0
76.123306 100.0
76.196266 68.0
76.298805 92.0
76.498878 272.0
76.592918 132.0
76.744545 120.0
76.775932 124.0
76.898071 192.0
76.93647 200.0
77.112907 248.0
77.326294 68.0
77.408577 192.0
77.492661 228.0
77.531212 172.0
77.594322 212.0
77.662498 160.0
77.738159 132.0
77.771507 192.0
77.787308 144.0
77.846985 212.0
78.003143 148.0
78.061409 184.0
78.35537 140.0
78.443489 140.0
78.459351 200.0
78.512253 160.0
78.616348 200.0
78.679893 140.0
78.897202 192.0
78.923729 108.0
78.973244 160.0
79.206902 64.0
79.272461 56.0
79.32032 132.0
79.339821 160.0
79.488815 148.0
79.570465 112.0
79.646835 120.0
79.689468 144.0
79.769447 216.0
79.824173 144.0
79.934387 136.0
80.027428 240.0
80.082634 132.0
80.148384 172.0
80.157906 208.0
80.383942 180.0
80.410965 172.0
80.582153 72.0
80.63488 176.0
80.707275 196.0
80.777023 56.0
80.828911 148.0
80.841438 92.0
80.879028 172.0
81.077843 52.0
81.244606 208.0
81.449265 148.0
81.501366 120.0
81.539101 192.0
81.700943 128.0
81.808929 156.0
81.8339 156.0
81.855743 196.0
81.873749 212.0
82.382423 136.0
82.40049 160.0
82.731468 280.0
82.753777 200.0
82.921677 140.0
83.103027 84.0
83.373604 188.0
83.573639 156.0
83.658722 204.0
84.014572 160.0
84.125893 128.0
84.17337 32.0
84.23912 144.0
84.390862 176.0
84.440193 136.0
84.456657 172.0
84.507462 260.0
84.603058 160.0
84.621368 156.0
84.734924 176.0
84.758743 328.0
85.230347 172.0
85.406845 216.0
85.460197 144.0
85.51725 128.0
85.564445 232.0
85.826759 40.0
85.847046 148.0
85.902374 176.0
85.979874 188.0
86.114662 204.0
86.216278 124.0
86.23661 168.0
86.282829 68.0
86.47892 204.0
86.5289 204.0
86.949707 144.0
87.168854 120.0
87.220894 72.0
87.243309 204.0
87.310036 144.0
87.490639 136.0
87.684372 68.0
87.790642 188.0
87.857796 140.0
87.927803 180.0
87.966034 136.0
88.042595 208.0
88.287422 44.0
88.373474 168.0
88.392189 252.0
88.558815 176.0
88.598152 136.0
88.706848 168.0
88.761223 140.0
88.84938 192.0
88.911308 164.0
89.037102 232.0
89.082184 140.0
89.097214 216.0
89.32093 160.0
89.351028 52.0
89.388664 72.0
89.445122 88.0
89.791832 84.0
89.98243 176.0
90.073082 172.0
90.252632 108.0
90.364227 132.0
90.464424 196.0
90.648262 120.0
91.109352 172.0
91.200569 160.0
91.594467 172.0
91.970123 88.0
91.98539 148.0
92.031212 116.0
92.069405 152.0
92.161102 148.0
92.268143 148.0
92.321686 172.0
92.553238 184.0
92.70649 248.0
92.78508 164.0
92.982666 184.0
93.097862 148.0
93.126671 152.0
93.205437 116.0
93.2285 168.0
93.251564 132.0
93.318848 168.0
93.355385 44.0
93.449646 120.0
93.676826 172.0
93.695305 136.0
93.805946 128.0
94.551552 120.0
94.749069 208.0
94.766502 160.0
94.968124 200.0
95.047668 180.0
95.094246 156.0
95.117546 164.0
95.383675 112.0
95.525635 208.0
95.554817 160.0
95.724167 56.0
95.755325 144.0
95.829353 140.0
95.928757 296.0
95.956047 120.0
96.00531 304.0
96.180405 176.0
96.217491 136.0
96.254593 136.0
96.346397 104.0
96.485161 184.0
96.567291 192.0
96.635765 192.0
97.086319 224.0
97.113777 124.0
97.137314 128.0
97.245239 124.0
97.260941 196.0
97.292351 304.0
97.339478 164.0
97.457336 168.0
97.478958 120.0
97.547745 128.0
97.644096 144.0
97.675568 188.0
97.701149 156.0
98.112762 132.0
98.146286 232.0
98.187698 240.0
98.22123 136.0
98.331734 156.0
98.347519 148.0
98.394897 152.0
98.539085 168.0
98.626038 376.0
98.645805 156.0
98.831718 88.0
99.039597 140.0
99.067337 48.0
99.21994 172.0
99.279427 124.0
99.448074 164.0
99.489761 164.0
99.608917 160.0
99.636726 128.0
100.006615 120.0
100.065323 180.0
100.153969 144.0
100.273521 116.0
100.293449 228.0
100.355255 176.0
100.415085 260.0
100.433037 108.0
100.753059 168.0
100.934334 116.0
100.99633 136.0
101.146416 156.0
101.160423 200.0
101.360718 192.0
101.837349 224.0
102.047211 140.0
102.090691 168.0
102.296692 264.0
102.377235 140.0
102.399391 148.0
102.449745 208.0
102.667442 120.0
102.717873 164.0
102.800598 196.0
102.871239 224.0
102.941498 176.0
103.099495 152.0
103.2127 116.0
103.40287 196.0
103.417038 168.0
103.431206 132.0
103.451447 60.0
103.53447 220.0
103.73304 136.0
103.76548 104.0
103.915573 112.0
103.96022 176.0
104.128731 160.0
104.277054 132.0
104.329903 152.0
104.427513 48.0
104.45192 196.0
104.504822 224.0
104.527206 160.0
104.582153 132.0
104.614723 156.0
104.770134 156.0
104.802109 76.0
104.871742 164.0
104.877808 192.0
104.897339 160.0
105.044724 248.0
105.15287 160.0
105.256996 68.0
105.273331 64.0
105.299881 220.0
105.340736 80.0
105.402031 48.0
105.477654 132.0
105.829544 160.0
106.134857 136.0
106.771484 184.0
106.796165 64.0
106.966965 64.0
107.088455 180.0
107.146133 160.0
107.16674 56.0
107.302773 136.0
107.362572 160.0
107.410019 156.0
107.653572 148.0
107.727928 208.0
107.750656 172.0
108.168411 148.0
108.317513 184.0
108.49781 200.0
108.541351 60.0
108.713539 136.0
108.736366 188.0
108.879623 156.0
108.939865 152.0
109.031296 176.0
109.189308 156.0
109.203865 88.0
109.266273 180.0
109.381065 176.0
109.41613 152.0
109.572334 172.0
109.606491 160.0
109.714058 176.0
109.791214 108.0
109.926819 156.0
109.978996 92.0
110.039536 172.0
110.315094 112.0
110.350861 168.0
110.463799 168.0
110.505638 180.0
110.714973 92.0
110.779755 168.0
110.880486 212.0
110.911926 100.0
111.044029 180.0
111.121643 176.0
111.213989 156.0
111.314766 140.0
111.423988 196.0
111.512253 176.0
111.554893 120.0
111.602646 76.0
111.781448 56.0
111.950333 156.0
112.139488 148.0
112.289185 212.0
112.308174 192.0
112.38623 388.0
112.504425 224.0
112.531876 224.0
112.586777 152.0
112.650146 124.0
112.835068 200.0
112.86573 192.0
113.041306 164.0
113.092102 156.0
113.123856 200.0
113.149261 168.0
113.526443 124.0
113.592194 160.0
113.721634 132.0
113.857521 116.0
114.070007 144.0
114.142296 208.0
114.316734 108.0
114.423164 144.0
114.536041 176.0
114.668144 176.0
114.710777 232.0
114.74276 180.0
115.054619 188.0
115.12899 172.0
115.167435 136.0
115.336243 36.0
115.35762 176.0
115.381142 152.0
115.423904 132.0
115.460258 156.0
115.646408 212.0
115.76416 184.0
115.986992 188.0
116.001999 88.0
116.104919 132.0
116.134949 188.0
116.16069 148.0
116.300171 144.0
116.461212 160.0
116.579384 184.0
116.607323 72.0
116.682564 88.0
116.701912 176.0
116.968689 160.0
117.005287 196.0
117.037773 232.0
117.07608 64.0
117.119431 128.0
117.283195 248.0
117.408249 152.0
117.501007 176.0
117.716858 96.0
117.74926 132.0
117.78598 148.0
117.966919 208.0
118.064804 128.0
118.108063 180.0
118.170799 128.0
118.274681 108.0
118.352623 152.0
118.521584 144.0
118.74054 168.0
118.757896 168.0
118.805618 120.0
118.896751 116.0
119.170372 188.0
120.062904 136.0
120.233078 156.0
120.442688 196.0
120.54538 212.0
120.899658 216.0
121.074806 128.0
121.122993 196.0
121.250084 120.0
121.370659 216.0
121.598587 192.0
121.631737 244.0
121.857948 148.0
122.075569 164.0
122.269173 120.0
122.324196 228.0
122.469536 104.0
122.500374 132.0
122.681084 240.0
122.8134 184.0
122.898872 172.0
123.067192 236.0
123.089279 144.0
123.116486 212.0
123.281471 124.0
123.338936 116.0
123.487083 204.0
123.575577 184.0
123.748505 156.0
123.967522 120.0
124.200325 120.0
124.253571 116.0
124.522171 112.0
124.619919 164.0
124.646584 140.0
124.768837 120.0
124.935638 104.0
124.962341 148.0
125.037117 192.0
125.612885 184.0
126.008049 172.0
126.025925 176.0
126.092964 160.0
126.453064 140.0
126.495598 180.0
126.63443 128.0
126.739723 136.0
126.773338 68.0
126.896622 160.0
127.04689 184.0
127.096252 140.0
127.154602 60.0
127.239906 144.0
127.284813 156.0
127.318504 156.0
127.3769 80.0
127.644363 124.0
127.765823 140.0
128.108032 212.0
128.236465 80.0
128.330826 136.0
128.599625 196.0
128.832214 220.0
129.160004 52.0
129.789673 180.0
129.846313 124.0
129.862198 188.0
130.041443 120.0
130.118576 164.0
130.164047 224.0
130.477615 148.0
130.677765 76.0
130.730103 164.0
131.158295 180.0
131.20845 56.0
131.235809 144.0
131.329315 184.0
131.461639 100.0
131.486755 152.0
131.539246 28.0
131.589478 124.0
131.735641 196.0
131.827042 360.0
131.945908 124.0
132.080826 152.0
132.227264 216.0
132.348602 108.0
132.39212 128.0
132.492905 144.0
132.554764 116.0
132.64415 236.0
132.921677 180.0
133.093842 40.0
133.268417 128.0
133.449997 188.0
133.477844 144.0
133.502884 180.0
133.554825 196.0
133.709946 136.0
133.942505 148.0
133.958633 108.0
134.066925 208.0
134.20755 220.0
134.23291 144.0
134.459 168.0
134.551346 188.0
134.57135 168.0
134.743042 376.0
134.81929 180.0
135.103714 196.0
135.163864 80.0
135.346741 40.0
135.381485 212.0
135.457916 40.0
135.698944 260.0
135.819534 172.0
135.870575 176.0
135.975006 224.0
136.028381 236.0
136.049286 188.0
136.067856 40.0
136.095718 196.0
136.328018 52.0
136.462082 196.0
136.576797 48.0
136.648911 84.0
136.674515 80.0
136.960876 68.0
136.994598 152.0
137.284851 124.0
137.375824 124.0
137.42482 120.0
137.501831 164.0
137.557846 176.0
137.606873 128.0
137.723648 152.0
137.905899 140.0
137.959671 152.0
138.046173 132.0
138.124512 196.0
138.146759 148.0
138.191208 144.0
138.259079 160.0
138.762711 152.0
138.837753 172.0
139.072388 200.0
139.17099 180.0
139.356537 92.0
139.419998 92.0
139.492859 172.0
139.648056 208.0
139.975189 56.0
139.991669 188.0
140.022293 144.0
140.059052 304.0
140.307419 152.0
140.758102 156.0
140.814774 172.0
140.968353 176.0
140.987259 96.0
141.067505 336.0
141.349075 100.0
141.408249 188.0
141.457962 172.0
141.496078 120.0
141.612198 232.0
141.67627 152.0
142.074127 188.0
142.114456 212.0
142.1548 148.0
142.273483 40.0
142.320969 220.0
142.594177 116.0
142.610809 140.0
142.781998 172.0
142.86763 172.0
143.019928 112.0
143.177078 48.0
143.196136 256.0
143.308105 128.0
143.358139 132.0
143.463028 124.0
143.751633 100.0
143.835175 116.0
143.899628 192.0
144.057037 220.0
144.109818 148.0
144.21019 228.0
144.375168 188.0
144.453659 108.0
144.568954 208.0
144.683853 140.0
144.832321 168.0
145.046143 368.0
145.095932 68.0
145.448593 200.0
145.700745 208.0
145.929077 48.0
145.986786 144.0
146.056015 204.0
146.078186 128.0
146.270706 136.0
146.31163 196.0
146.448898 152.0
146.4655 164.0
146.53804 268.0
146.564545 128.0
146.603088 132.0
146.624786 164.0
146.713974 172.0
146.759781 180.0
146.940689 132.0
146.974472 232.0
147.155502 128.0
147.319733 116.0
147.457474 112.0
147.525146 108.0
147.646057 212.0
147.723465 168.0
147.808136 196.0
147.834763 168.0
147.88559 164.0
147.914627 80.0
147.958206 156.0
148.143219 132.0
148.18544 152.0
148.239197 156.0
148.273239 216.0
148.382202 124.0
148.413727 180.0
148.635025 172.0
148.770386 140.0
148.908798 196.0
149.01326 100.0
149.054565 200.0
149.185822 164.0
149.278214 56.0
149.360916 160.0
149.505341 200.0
149.567749 120.0
149.584793 156.0
150.037918 284.0
150.091568 228.0
150.369675 180.0
150.459991 160.0
150.513718 144.0
150.660263 160.0
150.718903 136.0
150.78978 252.0
150.843552 208.0
151.009827 144.0
151.050262 216.0
151.261871 128.0
151.301941 140.0
151.342667 140.0
151.394089 136.0
151.575363 52.0
151.783737 108.0
152.033966 140.0
152.061218 644.0
152.102692 136.0
152.134598 152.0
152.154236 56.0
152.313873 128.0
152.340942 176.0
152.499619 168.0
152.527649 80.0
152.59404 180.0
152.719452 116.0
153.06665 908.0
153.115906 224.0
153.236435 92.0
153.801193 156.0
153.892532 172.0
153.976501 80.0
153.996262 160.0
154.018066 212.0
154.075943 500.0
154.223587 72.0
154.26561 156.0
154.297745 224.0
154.433762 180.0
154.701004 124.0
154.839676 36.0
155.012314 152.0
155.053299 164.0
155.122162 220.0
155.164307 108.0
155.228775 52.0
155.342865 224.0
155.643188 152.0
155.79718 44.0
155.881653 120.0
155.931366 220.0
156.120316 240.0
156.152649 148.0
156.812454 204.0
157.063431 192.0
157.124176 124.0
157.28389 160.0
157.303864 104.0
157.458679 44.0
157.59108 196.0
157.893555 156.0
158.148773 252.0
158.301498 100.0
158.549515 176.0
158.594635 96.0
158.699921 100.0
158.883026 240.0
159.210175 132.0
159.264603 160.0
159.334946 140.0
159.455566 196.0
159.566177 176.0
159.709518 232.0
159.883118 136.0
159.956116 168.0
159.986328 128.0
160.454941 164.0
160.515778 192.0
160.641571 128.0
160.702118 144.0
160.782867 112.0
160.863647 60.0
160.931808 108.0
161.116196 184.0
161.161667 152.0
161.224854 116.0
161.43721 40.0
161.45491 116.0
161.599106 164.0
161.629471 200.0
161.657303 192.0
161.986465 156.0
162.047272 232.0
162.077667 152.0
162.103012 72.0
162.460526 176.0
162.628006 172.0
162.777802 144.0
162.943573 168.0
163.02388 148.0
163.052277 332.0
163.324234 164.0
163.408188 136.0
163.47435 144.0
163.66011 152.0
163.73912 180.0
163.756958 116.0
163.927658 172.0
163.951279 164.0
164.063263 176.0
164.167297 128.0
164.353516 156.0
164.716049 192.0
164.751816 140.0
165.069626 2124.0
165.18898 124.0
165.455139 164.0
165.493546 160.0
165.524277 108.0
165.598541 232.0
165.813766 164.0
165.847092 104.0
166.034256 140.0
166.074661 508.0
166.108643 60.0
166.32933 192.0
166.414047 96.0
166.580994 200.0
166.604111 228.0
166.642654 112.0
166.843124 184.0
166.956268 44.0
167.020569 168.0
167.046295 164.0
167.083618 864.0
167.120911 148.0
167.1595 164.0
167.190384 212.0
167.255997 172.0
167.295929 116.0
167.342117 68.0
167.434967 144.0
167.85762 156.0
168.058334 536.0
168.087128 232.0
168.309204 164.0
168.482269 48.0
168.862259 156.0
168.880371 52.0
168.938919 228.0
169.063293 340.0
169.09819 348.0
169.400223 184.0
169.439529 72.0
169.729843 244.0
169.758362 108.0
169.78949 188.0
169.882858 172.0
170.051529 152.0
170.132004 144.0
170.241058 128.0
170.287857 240.0
170.363144 48.0
170.529449 140.0
170.675034 92.0
170.70105 64.0
170.984619 128.0
171.054901 192.0
171.207993 156.0
171.299683 180.0
171.370026 88.0
171.638504 124.0
171.677628 52.0
171.775803 204.0
171.995941 108.0
172.050766 112.0
172.134323 100.0
172.377274 148.0
172.790405 192.0
172.897446 216.0
173.219757 164.0
173.529007 72.0
173.547363 108.0
173.767166 100.0
173.809677 124.0
174.030167 180.0
174.169357 200.0
174.232407 208.0
174.329636 168.0
174.348038 176.0
174.492615 196.0
175.053085 208.0
175.076782 152.0
175.113663 196.0
175.182144 92.0
175.219025 160.0
175.720276 156.0
175.899445 216.0
175.968079 140.0
176.061676 640.0
176.123901 168.0
176.147675 116.0
176.237503 112.0
176.271851 48.0
176.314133 208.0
176.385498 124.0
176.478043 168.0
176.500687 148.0
176.530533 108.0
176.560013 72.0
176.645706 192.0
176.851059 132.0
176.877533 156.0
176.938416 172.0
177.067032 580.0
177.158234 136.0
177.253616 36.0
177.378189 148.0
177.399399 68.0
177.600937 124.0
177.724686 204.0
177.762772 264.0
177.800415 132.0
177.853012 36.0
177.913055 156.0
178.033783 184.0
178.076797 14560.0
178.132751 164.0
178.158401 40.0
178.179199 92.0
178.183304 76.0
178.238113 76.0
178.288605 188.0
178.347092 300.0
178.368347 160.0
178.389618 216.0
178.487991 88.0
178.541183 156.0
178.58313 124.0
178.732712 168.0
178.794556 204.0
178.836609 212.0
178.871124 96.0
178.922775 148.0
178.985596 116.0
179.041519 196.0
179.084656 24708.0
179.143921 136.0
179.180038 60.0
179.213089 60.0
179.251984 68.0
179.27597 100.0
179.333099 192.0
179.391083 88.0
179.430573 76.0
179.488571 144.0
179.51857 88.0
179.539902 204.0
179.571915 72.0
179.632736 120.0
179.715973 132.0
179.744522 188.0
179.796432 132.0
179.841263 76.0
179.89212 44.0
179.934845 68.0
180.002823 148.0
180.045822 88.0
180.088943 3040.0
180.125381 184.0
180.152084 152.0
180.22464 40.0
180.241867 360.0
180.349869 156.0
180.455841 48.0
180.509933 160.0
180.581543 236.0
180.698898 188.0
180.752762 128.0
180.910675 80.0
180.950745 108.0
181.065094 1068.0
181.096268 280.0
181.154373 48.0
181.395569 148.0
181.43042 204.0
181.467957 112.0
181.524261 72.0
181.564499 168.0
181.602036 132.0
181.62619 124.0
181.73349 60.0
182.075943 208.0
182.106659 132.0
182.143707 196.0
182.219482 48.0
182.300095 192.0
182.412994 256.0
182.488266 140.0
182.609283 88.0
182.641556 104.0
182.937576 176.0
183.079834 556.0
183.126068 48.0
183.177246 180.0
183.360474 172.0
183.564697 112.0
183.603119 80.0
183.670563 188.0
183.797363 120.0
183.845932 68.0
183.875626 100.0
183.92421 116.0
184.021393 88.0
184.088898 164.0
184.161835 44.0
184.286102 112.0
184.345551 100.0
184.461777 196.0
184.537384 228.0
184.713257 168.0
184.878311 120.0
184.90181 152.0
185.056976 232.0
185.276367 248.0
185.390167 164.0
185.531799 176.0
185.574493 208.0
185.598907 148.0
185.639572 260.0
185.742645 32.0
185.935303 56.0
186.003159 196.0
186.07103 136.0
186.26384 164.0
186.462204 180.0
186.481216 112.0
186.682419 196.0
186.938141 40.0
187.054764 592.0
187.142288 48.0
187.210373 152.0
187.480087 136.0
187.504608 128.0
187.556396 268.0
187.6082 256.0
187.728165 204.0
187.894562 92.0
188.054245 148.0
188.218155 116.0
188.268524 148.0
188.424225 136.0
188.454285 192.0
188.489807 168.0
188.539001 92.0
188.56633 172.0
188.681137 128.0
188.798721 200.0
188.901352 208.0
188.920807 196.0
188.984741 48.0
189.025406 172.0
189.069122 24708.0
189.127625 136.0
189.161667 56.0
189.228928 76.0
189.274902 188.0
189.301788 200.0
189.350037 156.0
189.374771 136.0
189.428268 44.0
189.488541 76.0
189.542145 128.0
189.63652 44.0
189.691345 28.0
189.83667 136.0
189.86409 36.0
190.017715 92.0
190.074326 4776.0
190.113266 68.0
190.156555 148.0
190.190598 48.0
190.259232 84.0
190.278458 96.0
190.311401 104.0
190.333374 48.0
190.40477 132.0
190.550369 72.0
190.621811 156.0
190.641037 200.0
190.800476 60.0
190.827972 120.0
190.896713 76.0
191.080276 1464.0
191.246124 96.0
191.291794 156.0
191.314941 96.0
191.394791 96.0
191.419571 80.0
191.455383 104.0
191.54628 168.0
191.644318 136.0
191.667496 164.0
191.755692 120.0
191.879745 48.0
192.055756 852.0
192.08432 164.0
192.130722 40.0
192.290771 132.0
192.558594 108.0
192.58345 144.0
192.630402 68.0
192.854233 160.0
192.986938 240.0
193.058853 276.0
193.266312 144.0
193.313354 116.0
193.617889 176.0
193.894943 132.0
193.917114 132.0
194.005814 108.0
194.071304 528.0
194.288696 132.0
194.319214 56.0
194.838409 124.0
194.907883 196.0
195.038498 52.0
195.078491 2744.0
195.133026 36.0
195.166382 136.0
195.324921 68.0
195.369431 180.0
195.480728 88.0
195.856598 152.0
195.987534 200.0
196.012619 176.0
196.045364 436.0
196.083542 292.0
196.151978 76.0
196.322052 152.0
196.42804 100.0
196.587082 112.0
196.827164 192.0
197.05748 484.0
197.09082 668.0
197.232269 128.0
197.352493 156.0
197.447571 112.0
197.62381 172.0
197.830917 132.0
198.070709 272.0
198.093903 168.0
198.371597 192.0
198.408051 212.0
198.469727 332.0
198.517395 40.0
198.646423 36.0
198.797943 196.0
198.817581 188.0
198.92424 196.0
199.06369 268.0
199.182602 224.0
199.250031 104.0
199.292175 172.0
199.427063 132.0
199.536697 332.0
199.725128 76.0
199.941772 96.0
200.150101 184.0
200.987289 140.0
201.065796 172.0
201.114304 120.0
201.17923 156.0
201.244156 212.0
201.347153 72.0
201.529449 244.0
201.61705 116.0
201.9422 160.0
202.027054 84.0
202.070358 144.0
202.106735 176.0
202.179855 244.0
202.273254 152.0
202.31572 156.0
202.754776 148.0
202.777451 208.0
202.811478 116.0
202.876663 56.0
203.211334 184.0
203.549133 132.0
203.569 84.0
203.759323 176.0
203.838882 188.0
203.89003 160.0
203.918457 224.0
203.955414 140.0
204.156464 112.0
204.23407 56.0
204.521469 204.0
205.064606 1628.0
205.122513 176.0
205.182388 180.0
205.225159 56.0
205.285034 116.0
205.615982 288.0
205.704468 188.0
205.73587 84.0
205.838654 164.0
205.870071 120.0
205.958618 72.0
206.007172 176.0
206.071762 3892.0
206.157913 148.0
206.207199 44.0
206.317307 100.0
206.357117 164.0
206.421616 52.0
206.450226 144.0
206.481674 120.0
206.514511 184.0
206.544601 196.0
206.56749 144.0
206.601822 200.0
206.685913 144.0
206.712372 88.0
206.773514 84.0
206.822174 160.0
206.8759 192.0
206.929703 64.0
206.977768 196.0
207.004456 136.0
207.025162 232.0
207.08046 88024.0
207.158707 180.0
207.196014 96.0
207.248901 116.0
207.26767 80.0
207.322418 92.0
207.360489 188.0
207.399124 228.0
207.428177 56.0
207.467987 76.0
207.508713 208.0
207.551239 172.0
207.589615 56.0
207.615829 180.0
207.63559 124.0
207.654755 84.0
207.681564 144.0
207.752075 40.0
207.801407 144.0
207.812622 100.0
207.843857 164.0
207.915924 60.0
207.955948 204.0
208.082779 12948.0
208.151794 100.0
208.181198 196.0
208.22673 164.0
208.25885 112.0
208.304703 116.0
208.324814 48.0
208.394562 52.0
208.476898 164.0
208.495926 80.0
208.549271 36.0
208.612198 36.0
208.732956 76.0
208.759354 112.0
208.807739 32.0
208.848007 108.0
208.873886 84.0
208.917038 156.0
208.96106 224.0
208.986099 92.0
209.009659 84.0
209.032135 96.0
209.089081 1736.0
209.119141 220.0
209.198013 164.0
209.223984 104.0
209.271378 116.0
209.33728 40.0
209.360046 84.0
209.412842 136.0
209.465561 88.0
209.48938 124.0
209.550446 60.0
209.593658 120.0
209.624466 120.0
209.648819 152.0
209.722961 116.0
209.775391 152.0
209.903061 168.0
209.942474 48.0
210.068451 172.0
210.09671 180.0
210.121323 132.0
210.158829 152.0
210.456131 100.0
210.511002 52.0
210.536987 60.0
210.568771 96.0
210.617874 112.0
210.653656 144.0
210.684311 120.0
210.739212 124.0
210.912613 36.0
211.068726 168.0
211.109604 176.0
211.213333 28.0
211.407196 188.0
211.534546 148.0
211.595352 76.0
211.731445 40.0
211.780685 100.0
211.963211 36.0
212.261795 92.0
212.308182 100.0
212.482239 128.0
212.505447 140.0
213.057098 164.0
213.155884 36.0
213.309921 108.0
213.370972 88.0
213.437851 40.0
213.557098 200.0
214.235352 112.0
214.267059 168.0
214.398529 64.0
214.57634 172.0
214.641586 172.0
214.859253 56.0
215.037262 188.0
215.101471 104.0
215.142349 32.0
215.235779 80.0
215.554184 136.0
215.758789 176.0
215.894012 164.0
215.922546 148.0
215.943024 136.0
216.130264 196.0
216.256104 148.0
216.469833 176.0
216.792068 108.0
216.859482 116.0
216.956223 44.0
217.063904 5432.0
217.14682 140.0
217.223099 104.0
217.337814 156.0
217.52536 84.0
217.551773 44.0
217.604614 132.0
217.926193 116.0
218.070999 1980.0
218.109924 140.0
218.209702 320.0
218.524597 48.0
218.657028 164.0
218.733551 96.0
218.79538 208.0
219.079453 724.0
219.129227 192.0
219.228378 80.0
219.266693 116.0
219.570374 92.0
219.67746 144.0
219.714905 80.0
219.782776 84.0
220.004135 88.0
220.057541 356.0
220.088058 392.0
220.139969 84.0
220.278778 136.0
220.488571 156.0
220.541779 132.0
220.86113 184.0
220.884796 56.0
220.976501 152.0
221.02681 140.0
221.054718 464.0
221.080078 184.0
221.121506 132.0
221.213272 92.0
221.459045 220.0
222.065216 184.0
222.149734 92.0
222.194244 76.0
222.256546 60.0
222.309967 92.0
222.350189 144.0
222.993057 124.0
223.075714 2640.0
223.224945 200.0
223.477798 56.0
223.70697 156.0
224.032913 196.0
224.074844 660.0
224.389221 188.0
224.663605 132.0
224.965027 80.0
225.054596 184.0
225.088547 624.0
225.212875 104.0
225.293533 56.0
225.717972 132.0
225.801712 36.0
225.939301 92.0
226.061478 580.0
226.091919 168.0
226.139801 84.0
226.199677 76.0
226.894699 148.0
227.050629 84.0
227.10762 120.0
228.062485 164.0
228.197769 56.0
228.218811 96.0
228.612396 172.0
229.25737 72.0
229.917847 48.0
230.521851 116.0
230.969315 212.0
231.008652 224.0
231.090332 152.0
231.338516 48.0
231.517166 172.0
231.717087 176.0
232.463028 148.0
232.548004 196.0
232.596573 124.0
232.79393 120.0
233.064285 164.0
233.2892 200.0
233.791077 136.0
234.013306 208.0
234.06485 328.0
234.583023 72.0
234.711075 188.0
234.735474 76.0
234.820862 160.0
234.863571 36.0
234.913361 112.0
234.954224 168.0
235.007355 180.0
235.074905 45100.0
235.141754 164.0
235.178223 68.0
235.205505 68.0
235.291687 140.0
235.34111 152.0
235.381302 132.0
235.419266 60.0
235.462601 264.0
235.520416 108.0
235.597061 276.0
235.632339 68.0
235.725769 60.0
235.834579 48.0
235.883484 56.0
235.914062 128.0
235.935455 204.0
235.970718 128.0
236.01767 36.0
236.078171 5572.0
236.153641 92.0
236.198456 176.0
236.27713 140.0
236.305542 72.0
236.363022 76.0
236.404984 48.0
236.446304 60.0
236.480408 56.0
236.580994 116.0
236.617722 32.0
236.65799 184.0
236.7267 68.0
236.874985 124.0
236.994461 52.0
237.018982 204.0
237.086487 1316.0
237.172226 84.0
237.284119 128.0
237.331635 92.0
237.380707 80.0
237.417206 124.0
237.494843 148.0
237.535126 92.0
237.623657 136.0
237.675186 132.0
237.711716 40.0
237.742706 160.0
237.8405 144.0
237.8806 204.0
237.945297 120.0
237.982147 48.0
238.092697 312.0
238.214737 60.0
238.258575 104.0
238.332321 68.0
238.498276 84.0
238.550537 56.0
238.587418 52.0
238.668549 52.0
238.759628 56.0
238.784225 80.0
238.953415 108.0
239.018036 56.0
239.088821 204.0
239.141144 108.0
239.522964 112.0
240.090729 156.0
240.114777 56.0
240.287521 76.0
241.093353 156.0
241.20784 76.0
241.473755 52.0
241.671753 92.0
241.795532 148.0
242.08345 112.0
242.985489 44.0
243.094086 108.0
243.118912 172.0
243.839447 64.0
245.08255 132.0
245.314911 108.0
245.417801 96.0
246.065369 184.0
246.113632 116.0
246.460358 76.0
246.622864 68.0
246.713516 200.0
247.078064 216.0
247.480072 76.0
247.790146 148.0
247.846558 128.0
248.476791 112.0
248.903671 216.0
249.053101 144.0
249.101166 168.0
250.218002 160.0
250.444733 40.0
251.008881 104.0
251.889465 28.0
252.072189 144.0
252.139084 108.0
252.252213 196.0
252.512161 156.0
252.746277 140.0
252.825378 168.0
252.892151 84.0
252.983658 164.0
253.025894 164.0
253.040375 144.0
253.084518 15580.0
253.153351 108.0
253.184662 100.0
253.303497 80.0
253.334198 72.0
253.366867 40.0
253.523285 44.0
253.614044 164.0
253.732925 104.0
253.794754 68.0
253.832794 136.0
253.85817 96.0
253.953323 64.0
254.01358 148.0
254.042145 56.0
254.088776 3176.0
254.17099 176.0
254.213486 64.0
254.270599 72.0
254.454727 80.0
254.480118 52.0
254.692902 68.0
255.013824 68.0
255.036087 124.0
255.09964 3040.0
255.150528 172.0
255.179138 60.0
255.204575 40.0
255.398575 76.0
255.433563 68.0
255.462189 56.0
255.583099 56.0
255.640381 80.0
255.678574 128.0
255.739044 116.0
255.895035 108.0
256.0224 64.0
256.094269 352.0
256.191223 52.0
256.356934 40.0
257.087219 104.0
257.63324 80.0
257.946442 40.0
258.141449 36.0
258.992798 72.0
261.188446 68.0
262.921906 60.0
263.212463 92.0
265.121124 156.0
265.643158 132.0
268.125519 112.0
269.295471 76.0
269.919678 136.0
270.17807 40.0
272.003448 76.0
272.525635 80.0
273.229248 84.0
277.112061 208.0
282.070923 100.0
282.810181 252.0
285.410248 60.0
286.184174 56.0
286.851257 72.0
288.086395 100.0
289.27002 184.0
289.391907 88.0
292.457489 44.0
295.402405 96.0
297.122223 80.0
312.157959 696.0
313.157013 196.0
313.374573 76.0
314.161346 180.0
314.238403 56.0
314.683136 36.0
317.890198 144.0
322.724121 64.0
323.217743 156.0
327.623322 48.0
330.439453 52.0
331.641754 96.0
334.060211 104.0
337.495911 148.0
338.985779 112.0
339.909882 84.0
345.236847 108.0
345.980621 108.0
346.528748 132.0
350.098572 120.0
356.958344 60.0
359.131439 52.0
363.975769 68.0
364.211243 112.0
368.772278 36.0
375.61496 56.0
376.630188 64.0
383.490479 124.0
386.008667 96.0
386.352875 140.0
387.660675 108.0
390.302582 76.0
392.803558 72.0
396.346069 124.0
397.083435 52.0
400.103516 88.0
401.470276 64.0
402.751465 36.0
406.58725 116.0
411.813385 48.0
416.581177 60.0
420.751495 128.0
422.140778 44.0
423.176056 88.0
424.548828 132.0
427.062408 64.0
439.854401 92.0
449.887787 48.0
452.665741 76.0
456.531799 72.0
456.952942 36.0
460.790253 108.0
464.107452 88.0
464.823792 84.0
471.671936 100.0
472.095642 156.0
476.282532 68.0
478.265381 36.0
480.771545 72.0
489.350281 144.0
490.235687 104.0
490.3591 68.0
492.543243 100.0
495.591492 84.0
516.816956 68.0
518.524231 132.0
525.837891 40.0
527.31311 48.0
533.78656 96.0
539.397705 80.0
545.628479 72.0
551.806213 120.0
554.619751 112.0
557.120972 56.0
559.95752 140.0
567.618347 52.0
577.562988 80.0
582.947266 92.0
594.848572 48.0
600.575989 40.0
601.503174 92.0
638.480835 56.0
642.303833 44.0
646.618958 68.0
650.704834 136.0
658.838501 40.0
661.963745 48.0
666.853088 56.0
702.241272 56.0
702.283508 84.0
705.626343 108.0
711.348083 156.0
725.453247 76.0
726.842407 52.0
729.291443 72.0
742.08075 96.0
743.127563 132.0
748.743103 72.0
784.942078 112.0
808.192688 96.0
851.507629 60.0
874.045105 60.0
932.852539 76.0
934.452026 60.0
955.30896 84.0
956.127319 144.0
959.749634 184.0
967.801025 292.0
973.319824 36.0
996.877319 68.0
1005.183655 36.0
1027.691528 64.0
1028.725464 104.0
1033.66626 20.0
1043.300293 60.0
1047.193481 196.0
1047.9021 60.0
1070.984985 72.0
1071.382324 56.0
1119.968994 156.0
1127.883057 188.0
1128.845825 80.0
1132.801514 60.0
1138.247681 244.0
1156.836792 132.0
1157.791626 176.0
1172.930176 60.0
1173.318726 140.0
1180.290161 192.0
1183.882812 76.0
1184.13623 180.0
1188.770874 132.0
1189.670044 36.0
1193.820312 92.0
1201.50061 136.0
1202.17688 108.0
1208.783447 96.0
1212.613403 176.0
1221.515259 104.0
1221.849243 228.0
1227.344849 92.0
1229.40979 188.0
1230.526611 156.0
1233.453857 136.0
1240.47522 88.0
1241.099243 184.0
1244.102173 132.0
1251.618408 212.0
1260.450195 120.0
1260.994385 148.0
1269.12854 60.0
1270.646484 92.0
1271.157349 180.0
1273.528687 40.0
1275.952026 160.0
1285.668213 128.0
1286.596191 44.0
1287.481567 172.0
1288.974731 64.0
1290.733276 140.0
1291.670166 116.0
1292.993896 52.0
1298.4104 92.0
1300.866333 72.0
1301.91272 164.0
1302.458618 188.0
1303.485962 172.0
1304.822998 112.0
1305.205078 176.0
1308.463501 228.0
1316.525391 144.0
1326.742554 212.0
1334.387695 156.0
1339.030518 80.0
1344.381958 164.0
1359.333008 180.0
1368.470093 72.0
1371.947632 152.0
1373.44458 204.0
1376.182617 148.0
1377.386475 216.0
1388.748901 172.0
1394.094604 176.0
1394.220947 48.0
1395.98291 196.0
1396.17627 264.0
1396.905151 120.0
1397.812988 132.0
1399.659058 168.0
1401.476562 148.0
1402.041382 76.0
1403.586182 172.0
1409.535645 84.0
1413.918091 216.0
1414.703979 188.0
1418.149902 132.0
1420.009399 148.0
1423.79834 112.0
1423.987427 196.0
1424.453125 160.0
1424.625854 132.0
1425.595215 208.0
1428.031128 136.0
1428.535156 136.0
1431.832153 268.0
1432.412109 196.0
1440.740723 152.0
1442.721313 188.0
1444.997314 44.0
1448.048096 172.0
1450.018066 172.0
1450.813965 180.0
1452.088013 72.0
1454.364258 196.0
1454.447754 172.0
1455.168945 156.0
1461.698486 216.0
1463.479736 120.0
1463.532959 108.0
1464.919189 164.0
1468.51709 148.0
1469.90564 160.0
1471.378784 120.0
1471.875122 184.0
1472.509033 220.0
1473.914673 152.0
1474.365601 112.0
1474.717163 216.0
1478.893555 124.0
1481.887939 188.0
1483.758057 152.0
1485.706177 152.0
1486.082031 116.0
1486.53479 176.0
1486.734375 76.0
1487.724609 64.0
1488.031616 104.0
1489.275757 76.0
1489.37561 72.0
1489.483154 76.0
1490.789307 272.0
1491.49646 136.0
1496.127563 120.0
1496.450928 132.0
1499.139404 168.0
1500.249268 104.0
1500.734985 136.0
1501.236328 172.0
1501.452271 216.0
1503.527588 28.0
