>compound MLS000859893-01!Propionylpromazine hydrochloride
>formula C20H24N2OS
>ionization [M+H]+
>parentmass 341.1682108400905
#inchi InChI=1S/C20H24N2OS/c1-4-18(23)15-10-11-20-17(14-15)22(13-7-12-21(2)3)16-8-5-6-9-19(16)24-20/h5-6,8-11,14H,4,7,12-13H2,1-3H3
#inchikey ZQTVCQIJTREKSP
#origInchi InChI=1S/C20H24N2OS.ClH/c1-4-18(23)15-10-11-20-17(14-15)22(13-7-12-21(2)3)16-8-5-6-9-19(16)24-20;/h5-6,8-11,14H,4,7,12-13H2,1-3H3;1H
#Ion_Source LC-ESI
#Instrument qTof
#Compound_Source NIH Pharmacologically Active Library
#PI Dorrestein
#Data_Collector VP/LMS
#Scan -1
#Precursor_MZ 341.174
#ExactMass 340.161
#Charge 1
#CAS_Number N/A
#Pubmed_ID N/A
#Smiles CCC(=O)c1ccc2Sc3ccccc3N(CCCN(C)C)c2c1.Cl
#INCHI_AUX N/A
#Library_Class 1
#SpectrumID CCMSLIB00000085729
#IonMode Positive
#UpdateWorkflowName UPDATE-SINGLE-ANNOTATED-GOLD
#LibraryQualityString Gold
#TaskID d252d724072548979f1f6f1ced849daf
##Scan# 1795
#SpectrumFile p4-E08_GE8_01_18380.mzXML
#LibraryName Pharm_Active_Library.mgf
#MQScore -1
#Organism Pharm_Active_Library
#TIC_Query 0
#RT_Query -1
#MZErrorPPM -1
#SharedPeaks 0
#MassDiff 0
#LibMZ -1
#SpecMZ 341.174
#SpecCharge 0
#internalFilename spec-00000.mgf

>collision 10
44.905926 72.0
44.920601 188.0
45.022041 180.0
45.038067 132.0
45.138306 112.0
45.190952 156.0
45.213219 112.0
45.242668 80.0
45.333752 144.0
45.356537 176.0
45.514847 156.0
45.651917 212.0
45.690922 100.0
45.796108 176.0
45.830952 140.0
45.848469 160.0
45.902393 128.0
46.125164 248.0
46.248257 104.0
46.272625 176.0
46.30106 240.0
46.348476 188.0
46.382359 132.0
46.410828 92.0
46.462368 168.0
46.538372 164.0
46.569607 120.0
46.858006 108.0
47.01482 192.0
47.065327 116.0
47.130894 80.0
47.144558 120.0
47.166428 140.0
47.180096 80.0
47.307327 204.0
47.447063 136.0
47.46489 160.0
47.617222 156.0
47.665302 124.0
47.685917 212.0
47.702412 136.0
47.860634 108.0
47.89093 148.0
47.914349 116.0
47.979122 132.0
47.992912 148.0
48.104664 120.0
48.158516 88.0
48.507217 128.0
48.562683 332.0
48.575169 148.0
48.777908 76.0
48.830746 152.0
48.868305 144.0
48.87944 92.0
48.89753 116.0
48.979679 252.0
49.145584 116.0
49.411053 180.0
49.420845 168.0
49.485229 192.0
49.516701 188.0
49.581886 200.0
49.598705 132.0
49.685326 172.0
49.722137 48.0
49.808075 388.0
49.86961 220.0
49.921631 164.0
49.955387 116.0
50.001823 120.0
50.094753 164.0
50.145481 136.0
50.189606 200.0
50.4207 156.0
50.450382 160.0
50.460281 144.0
50.523926 56.0
50.591854 192.0
50.625839 180.0
50.637169 108.0
50.703606 148.0
50.828552 176.0
50.957764 120.0
50.983341 176.0
51.00705 212.0
51.108482 112.0
51.146908 180.0
51.44627 148.0
51.484821 172.0
51.556252 140.0
51.581982 140.0
51.594849 92.0
51.766548 196.0
51.825279 148.0
51.958622 176.0
52.304958 180.0
52.449005 228.0
52.479279 156.0
52.496582 232.0
52.572899 160.0
52.610573 172.0
52.76767 280.0
52.779617 156.0
52.80854 156.0
52.82011 248.0
52.888985 188.0
52.931553 208.0
53.012676 136.0
53.119972 148.0
53.192528 152.0
53.292736 180.0
53.379951 104.0
53.525471 188.0
53.601219 192.0
53.837543 148.0
53.85799 68.0
53.942745 208.0
54.031952 64.0
54.116844 216.0
54.2286 168.0
54.302341 156.0
54.414482 164.0
54.527592 120.0
54.53788 84.0
54.571693 64.0
54.687912 108.0
54.711464 32.0
54.721771 132.0
54.758587 112.0
54.774788 136.0
54.790993 108.0
54.964977 52.0
54.994495 148.0
55.093433 160.0
55.115593 144.0
55.377445 144.0
55.40411 220.0
55.503414 164.0
55.567043 196.0
55.680012 172.0
55.69635 192.0
55.715664 204.0
55.732006 212.0
55.776592 160.0
55.813759 152.0
55.850941 204.0
55.864326 132.0
55.972286 172.0
56.038269 192.0
56.111549 84.0
56.235367 144.0
56.257755 144.0
56.357262 192.0
56.541759 248.0
56.847485 116.0
56.879002 200.0
56.97361 128.0
57.149521 124.0
57.320061 248.0
57.38298 188.0
57.446323 140.0
57.521774 148.0
57.535362 192.0
57.62447 92.0
57.678875 140.0
57.749943 20.0
57.804405 204.0
58.121109 164.0
58.156013 68.0
58.190929 176.0
58.271427 136.0
58.313976 136.0
58.415855 140.0
58.728127 140.0
58.908249 156.0
59.010643 184.0
59.108112 216.0
59.120781 144.0
59.152924 184.0
59.280048 160.0
59.352097 160.0
59.503651 160.0
59.526737 172.0
59.566963 172.0
59.72683 140.0
59.806843 204.0
59.911556 52.0
59.960865 184.0
60.218525 148.0
60.247875 200.0
60.260235 176.0
60.277233 160.0
60.312778 156.0
60.433407 132.0
60.448879 152.0
60.578938 136.0
60.664173 160.0
60.75412 72.0
60.870529 204.0
60.927998 192.0
61.060123 176.0
61.209522 180.0
61.22821 168.0
61.309223 140.0
61.384052 96.0
61.407444 152.0
61.421482 136.0
61.451126 180.0
61.527603 180.0
61.56039 84.0
61.586941 136.0
61.693203 108.0
61.787037 124.0
61.85413 156.0
61.885643 216.0
61.921658 144.0
62.04562 112.0
62.06897 52.0
62.136417 148.0
62.276131 192.0
62.299694 108.0
62.334259 144.0
62.448441 140.0
62.617435 100.0
62.674149 92.0
62.78894 196.0
62.833397 84.0
62.871269 168.0
62.9813 220.0
63.139843 92.0
63.270168 208.0
63.326607 140.0
63.467651 132.0
63.570759 48.0
63.650131 112.0
63.781998 80.0
63.878998 148.0
63.910816 148.0
64.093933 108.0
64.124214 108.0
64.136963 204.0
64.23423 176.0
64.283691 112.0
64.385864 212.0
64.476929 216.0
64.497711 132.0
64.742508 132.0
65.003815 124.0
65.015045 136.0
65.04715 52.0
65.068016 188.0
65.170815 128.0
65.231888 76.0
65.405617 184.0
65.571518 152.0
65.587631 100.0
65.611816 104.0
65.729561 156.0
65.84095 144.0
65.858849 144.0
65.955666 224.0
65.987999 152.0
66.174065 120.0
66.187019 136.0
66.495033 96.0
66.576973 152.0
66.631439 116.0
66.642807 148.0
66.683441 140.0
66.724075 380.0
66.797256 168.0
66.904663 172.0
66.999123 176.0
67.061493 160.0
67.121368 172.0
67.226967 120.0
67.256775 180.0
67.34005 144.0
67.397232 100.0
67.51329 180.0
67.531281 116.0
67.655647 156.0
67.688393 288.0
67.817818 128.0
68.016296 172.0
68.057335 44.0
68.131248 36.0
68.219994 112.0
68.361443 96.0
68.373894 192.0
68.400948 172.0
68.415764 84.0
68.47998 172.0
68.608513 140.0
68.626648 120.0
68.658096 172.0
68.682724 252.0
68.727264 100.0
68.78833 180.0
68.9188 180.0
69.090088 208.0
69.112259 224.0
69.176811 160.0
69.282799 232.0
69.307648 132.0
69.327538 128.0
69.561401 156.0
69.636124 180.0
69.70015 200.0
69.784019 176.0
69.830589 36.0
70.005333 168.0
70.088623 152.0
70.105286 164.0
70.166962 244.0
70.203644 92.0
70.25869 112.0
70.297066 140.0
70.315422 48.0
70.422279 152.0
70.500809 180.0
70.626205 116.0
70.708183 116.0
70.75338 220.0
70.84214 180.0
70.897438 224.0
70.946045 148.0
71.148895 184.0
71.204453 164.0
71.503723 124.0
71.726059 232.0
71.801933 228.0
72.087242 132.0
72.144707 192.0
72.261406 144.0
72.291862 212.0
72.334175 132.0
72.373116 128.0
72.525589 180.0
72.72065 48.0
72.744408 272.0
72.761391 188.0
72.876884 168.0
73.142189 220.0
73.183044 124.0
73.387512 160.0
73.459145 184.0
73.51545 128.0
73.583725 148.0
73.646866 160.0
73.78875 68.0
73.850311 152.0
73.862282 152.0
73.985611 120.0
74.076263 144.0
74.110527 160.0
74.158508 68.0
74.170509 112.0
74.208229 152.0
74.228661 148.0
74.484528 156.0
75.12146 144.0
75.142159 152.0
75.200829 292.0
75.268158 120.0
75.359711 120.0
75.41674 136.0
75.539513 72.0
75.643341 176.0
75.797485 164.0
75.906693 172.0
75.922295 156.0
76.005562 124.0
76.022919 224.0
76.068047 152.0
76.16008 140.0
76.300835 76.0
76.581009 132.0
76.664635 136.0
76.777954 116.0
76.870415 44.0
76.929756 80.0
76.952454 144.0
76.978645 168.0
77.106178 128.0
77.181343 176.0
77.254807 128.0
77.575279 36.0
77.629631 128.0
77.669975 116.0
77.731377 104.0
77.74366 148.0
77.801582 124.0
77.826164 196.0
77.889389 152.0
77.922768 56.0
77.952637 152.0
77.984276 136.0
78.03701 140.0
78.049324 172.0
78.073944 136.0
78.263992 156.0
78.318588 172.0
78.459564 152.0
78.545975 60.0
78.570671 168.0
78.938065 184.0
79.023506 132.0
79.056587 144.0
79.104378 92.0
79.292137 180.0
79.320496 72.0
79.394966 180.0
79.439308 256.0
79.480118 140.0
79.497856 208.0
79.51738 156.0
79.707405 176.0
79.870972 128.0
79.981293 192.0
80.079224 156.0
80.121971 44.0
80.182556 124.0
80.205734 48.0
80.373375 192.0
80.410851 168.0
80.731613 184.0
80.77536 144.0
80.805771 192.0
80.891914 152.0
80.952553 60.0
80.969612 144.0
81.097672 48.0
81.122665 144.0
81.180351 144.0
81.379318 264.0
81.433197 76.0
81.472717 168.0
81.513184 188.0
81.593124 168.0
81.63089 120.0
81.645271 172.0
81.686646 116.0
81.778412 128.0
81.863029 208.0
81.924271 104.0
82.059441 156.0
82.077469 160.0
82.113541 116.0
82.138786 44.0
82.153221 164.0
82.165848 200.0
82.310249 200.0
82.4002 180.0
82.452965 204.0
82.487305 112.0
82.510803 192.0
82.565056 40.0
82.599419 120.0
82.727905 212.0
82.905411 136.0
82.954346 224.0
82.970665 132.0
83.035942 96.0
83.095802 140.0
83.235565 208.0
83.382721 160.0
83.471802 164.0
83.486351 48.0
83.51181 88.0
83.546371 108.0
83.606415 140.0
83.70472 168.0
83.84864 180.0
83.968887 176.0
83.975052 168.0
83.978592 232.0
84.124069 216.0
84.189804 104.0
84.205978 112.0
84.30307 216.0
84.346931 132.0
84.372528 344.0
84.387154 152.0
84.453903 172.0
84.491402 104.0
84.511528 136.0
84.524338 184.0
84.59938 104.0
84.621353 240.0
84.659805 124.0
84.947571 36.0
85.017288 176.0
85.06501 116.0
85.196495 208.0
85.301987 192.0
85.368172 200.0
85.445427 176.0
85.541672 176.0
85.557693 204.0
85.592682 168.0
85.614777 76.0
85.646088 80.0
85.658981 132.0
85.780602 60.0
86.079201 172.0
86.085426 76.0
86.098312 624.0
86.130707 160.0
86.163132 200.0
86.256142 168.0
86.497345 176.0
86.585823 168.0
86.717766 112.0
86.736298 36.0
86.751129 184.0
86.780792 276.0
86.808609 152.0
86.851265 116.0
86.901352 52.0
87.145691 248.0
87.211487 140.0
87.287712 128.0
87.382576 124.0
87.412346 36.0
87.665604 168.0
87.689835 172.0
87.753128 164.0
87.839005 112.0
87.915504 156.0
88.044319 220.0
88.070465 136.0
88.158012 168.0
88.197525 124.0
88.218094 180.0
88.259224 56.0
88.40139 128.0
88.54554 152.0
88.661697 124.0
88.723557 124.0
88.746056 240.0
89.044434 144.0
89.087639 188.0
89.12709 160.0
89.170364 160.0
89.232346 152.0
89.392235 128.0
89.484467 60.0
89.726189 160.0
89.80294 48.0
89.876518 88.0
89.931244 184.0
89.963333 164.0
90.084198 88.0
90.131432 136.0
90.261864 148.0
90.297791 204.0
90.441589 140.0
90.504066 188.0
90.581718 68.0
90.600662 132.0
90.831932 124.0
90.849007 224.0
90.87645 208.0
91.023628 160.0
91.114799 140.0
91.128098 76.0
91.213615 72.0
91.267365 216.0
91.327705 128.0
91.483742 160.0
91.509521 200.0
91.630386 148.0
91.784782 208.0
91.924034 172.0
92.002289 104.0
92.084396 44.0
92.139793 176.0
92.348305 104.0
92.441902 172.0
92.514641 188.0
92.556763 168.0
92.864487 160.0
92.899834 240.0
92.943962 192.0
92.959312 136.0
93.022652 212.0
93.141708 112.0
93.230095 76.0
93.247391 176.0
93.2743 240.0
93.32428 168.0
93.505112 112.0
93.572487 116.0
93.701523 132.0
93.730431 108.0
93.838371 252.0
93.859581 144.0
93.946373 236.0
94.046494 212.0
94.135521 144.0
94.208923 120.0
94.319069 96.0
94.332603 220.0
94.373199 164.0
94.47377 268.0
94.628601 212.0
94.654549 240.0
94.823715 144.0
95.006531 140.0
95.072502 88.0
95.328842 144.0
95.383263 204.0
95.456718 128.0
95.521332 164.0
95.564133 144.0
95.593315 152.0
95.622513 96.0
95.675064 100.0
95.719849 148.0
95.879593 108.0
95.977066 236.0
96.0 168.0
96.074585 184.0
96.160828 184.0
96.207291 96.0
96.263916 152.0
96.299156 172.0
96.451477 164.0
96.488617 128.0
96.584251 160.0
96.880035 160.0
96.979973 184.0
97.001534 124.0
97.050545 48.0
97.119186 164.0
97.203552 56.0
97.311508 160.0
97.329178 144.0
97.590508 148.0
97.74984 124.0
97.792206 212.0
97.858101 96.0
97.92408 280.0
98.140472 128.0
98.26609 120.0
98.28582 172.0
98.305557 224.0
98.343056 112.0
98.370689 184.0
98.414124 148.0
98.479294 148.0
98.499046 68.0
98.639343 196.0
98.736229 196.0
99.223351 180.0
99.237236 140.0
99.294739 180.0
99.342346 92.0
99.515007 156.0
99.611328 152.0
99.685837 148.0
99.902565 196.0
100.073723 136.0
100.117531 240.0
100.252998 156.0
100.41449 244.0
100.438423 160.0
100.596069 212.0
100.709885 212.0
100.797791 232.0
100.829765 124.0
100.85775 172.0
100.943718 152.0
101.143791 216.0
101.267937 68.0
101.301987 32.0
101.42823 248.0
101.444267 132.0
101.59668 172.0
101.668915 96.0
101.723106 224.0
101.741173 132.0
101.76326 216.0
101.825516 212.0
101.861671 148.0
101.887787 108.0
101.91066 128.0
101.962135 152.0
102.102867 144.0
102.374557 160.0
102.392677 76.0
102.431923 188.0
102.516678 180.0
102.666771 180.0
102.884689 152.0
103.030098 108.0
103.101448 160.0
103.216049 180.0
103.240318 60.0
103.335388 228.0
103.412285 204.0
103.458847 160.0
103.51149 204.0
103.620865 124.0
103.706841 188.0
103.774902 68.0
103.894562 160.0
103.914856 132.0
104.091721 148.0
104.12191 188.0
104.205193 120.0
104.465424 168.0
104.491867 116.0
104.695427 112.0
104.854332 116.0
104.901215 92.0
104.966461 152.0
105.013367 200.0
105.213348 28.0
105.262352 256.0
105.315178 120.0
105.335876 168.0
105.470741 132.0
105.503448 156.0
105.570564 160.0
105.665016 140.0
105.822617 164.0
105.862686 176.0
105.902481 128.0
106.027458 188.0
106.047958 112.0
106.066277 264.0
106.111504 168.0
106.43364 152.0
106.448013 180.0
106.52401 140.0
106.575371 152.0
106.667854 148.0
106.704857 160.0
106.783989 216.0
106.834427 180.0
106.859116 124.0
107.069649 288.0
107.124695 160.0
107.289558 136.0
107.411232 132.0
107.444237 180.0
107.518524 144.0
107.999931 144.0
108.018547 144.0
108.037163 296.0
108.078545 152.0
108.169609 144.0
108.261864 208.0
108.399506 164.0
108.482414 136.0
108.658691 180.0
108.675293 168.0
108.760376 148.0
108.787361 144.0
108.806046 68.0
108.938965 148.0
108.974281 56.0
109.008194 212.0
109.215187 168.0
109.263275 92.0
109.388145 124.0
109.429779 112.0
109.708954 136.0
109.850761 216.0
109.882057 72.0
109.919617 240.0
110.026062 144.0
110.230759 72.0
110.257927 180.0
110.312271 132.0
110.372902 180.0
110.395905 192.0
110.427277 64.0
110.450706 200.0
110.471207 136.0
110.634438 108.0
110.723701 184.0
110.783127 104.0
110.818741 100.0
110.96965 180.0
111.108078 92.0
111.322174 152.0
111.347374 152.0
111.504951 84.0
111.563805 136.0
111.652122 100.0
111.801491 160.0
111.826744 176.0
111.845688 252.0
111.885689 132.0
111.946747 76.0
112.001511 140.0
112.058388 272.0
112.083672 192.0
112.13636 208.0
112.176407 172.0
112.247406 172.0
112.298706 104.0
112.373299 156.0
112.518173 176.0
112.604752 160.0
112.697701 56.0
112.716721 172.0
112.82663 152.0
112.858337 176.0
113.321877 132.0
113.446922 96.0
113.499924 164.0
113.682358 144.0
113.70829 200.0
113.860687 164.0
113.898918 148.0
114.219894 200.0
114.27639 180.0
114.366714 136.0
114.526413 132.0
114.574684 164.0
114.751762 172.0
114.89225 208.0
114.914406 184.0
115.021606 172.0
115.053001 464.0
115.172714 124.0
115.386414 152.0
115.439873 120.0
115.673088 140.0
115.727081 164.0
116.058723 196.0
116.10376 124.0
116.137825 140.0
116.155235 92.0
116.195992 132.0
116.256073 184.0
116.376282 128.0
116.523911 180.0
116.711143 128.0
116.829773 176.0
117.070282 1736.0
117.167778 184.0
117.311028 180.0
117.353127 40.0
117.432922 136.0
117.635757 28.0
117.655182 160.0
117.793396 72.0
117.810677 44.0
117.886299 176.0
118.070633 212.0
118.100342 144.0
118.19986 128.0
118.25396 56.0
118.405518 172.0
118.5355 52.0
118.602684 100.0
118.833733 160.0
118.866997 244.0
118.919701 156.0
119.049629 120.0
119.086548 56.0
119.18866 132.0
119.22995 60.0
119.382126 180.0
119.506119 104.0
119.667183 224.0
119.742386 112.0
120.266685 124.0
120.292885 144.0
120.334358 184.0
120.384583 180.0
120.561539 176.0
120.594322 60.0
120.942101 236.0
120.9618 160.0
121.012939 200.0
121.104874 164.0
121.136986 196.0
121.189568 208.0
121.213669 144.0
121.299149 112.0
121.470192 136.0
121.505287 152.0
121.726982 260.0
121.740753 128.0
121.788475 44.0
121.830215 124.0
121.90052 116.0
121.992836 224.0
122.030365 224.0
122.085747 220.0
122.25238 204.0
122.283188 92.0
122.309662 148.0
122.335068 204.0
122.529823 144.0
122.651031 152.0
122.745827 112.0
123.030457 168.0
123.050323 156.0
123.074615 208.0
123.246902 96.0
123.525475 84.0
123.60955 212.0
123.720215 136.0
123.833145 108.0
123.957214 108.0
124.023697 184.0
124.096855 60.0
124.24102 144.0
124.307579 184.0
124.747353 216.0
124.767532 160.0
124.869652 164.0
125.032066 160.0
125.049866 168.0
125.213898 148.0
125.230217 172.0
125.314873 168.0
125.528854 236.0
125.626999 128.0
125.725174 68.0
125.743027 192.0
125.765343 200.0
125.79705 236.0
125.852409 36.0
125.888023 152.0
125.917175 96.0
125.939201 144.0
125.985771 152.0
126.079216 144.0
126.122734 216.0
126.442108 172.0
126.478386 168.0
126.59481 160.0
126.637367 172.0
126.684639 192.0
126.800926 156.0
126.9758 176.0
127.025085 156.0
127.122986 236.0
127.153732 144.0
127.231606 184.0
127.263039 184.0
127.404533 132.0
127.521004 212.0
127.60231 120.0
127.649529 176.0
127.712502 68.0
127.735001 124.0
127.801743 180.0
127.825493 108.0
127.872253 136.0
128.011841 160.0
128.381424 164.0
128.473892 172.0
128.575439 184.0
128.655563 204.0
128.695084 172.0
128.740234 164.0
128.767334 132.0
129.04303 144.0
129.065643 168.0
129.117661 64.0
129.135757 88.0
129.185516 224.0
129.535019 152.0
129.80838 176.0
129.833328 232.0
129.860535 128.0
129.983047 56.0
130.063126 872.0
130.096527 136.0
130.218689 108.0
130.325928 192.0
130.387283 68.0
130.496384 216.0
130.514587 128.0
130.530502 208.0
130.6465 180.0
130.730682 160.0
130.810349 148.0
130.835388 168.0
130.8741 204.0
131.070068 228.0
131.177109 44.0
131.29567 192.0
131.327606 160.0
131.412003 164.0
131.494156 184.0
131.706451 156.0
131.718597 192.0
131.896164 128.0
132.019287 136.0
132.081375 76.0
132.104248 128.0
132.122559 152.0
132.271301 112.0
132.319382 188.0
132.396179 148.0
132.640106 84.0
132.743271 104.0
132.783066 204.0
132.822586 200.0
132.965805 96.0
133.092072 156.0
133.186234 104.0
133.374649 192.0
133.777206 200.0
133.937332 192.0
133.998291 172.0
134.059128 120.0
134.173462 164.0
134.327637 192.0
134.447952 184.0
134.473343 100.0
134.609543 248.0
134.625717 72.0
134.662659 156.0
134.722717 172.0
134.939972 88.0
135.013962 112.0
135.163589 224.0
135.205994 148.0
135.229126 120.0
135.293945 168.0
135.321732 192.0
135.367035 256.0
135.409729 140.0
135.476898 172.0
135.602036 180.0
135.80838 88.0
135.836227 176.0
135.924393 192.0
136.018845 512.0
136.063644 148.0
136.161179 140.0
136.202988 136.0
136.300568 116.0
136.421417 200.0
136.500473 208.0
136.588852 92.0
136.630722 188.0
136.716827 148.0
136.886765 116.0
137.016891 152.0
137.108078 88.0
137.14537 108.0
137.226959 240.0
137.329575 176.0
137.359894 96.0
137.401886 116.0
137.628281 132.0
137.780106 176.0
137.854874 180.0
137.890884 148.0
137.915634 148.0
138.109711 164.0
138.182236 100.0
138.362442 160.0
138.559174 144.0
138.882675 152.0
139.140808 156.0
139.199509 224.0
139.234741 60.0
139.281723 128.0
139.479095 148.0
139.523758 48.0
139.5802 128.0
139.711914 84.0
139.95668 92.0
139.980225 144.0
140.034393 196.0
140.262894 136.0
140.350189 160.0
140.371414 132.0
140.477539 140.0
140.576645 132.0
140.612045 192.0
140.642731 172.0
140.692291 176.0
140.760773 80.0
140.994644 176.0
141.025375 164.0
141.06041 200.0
141.117569 200.0
141.207428 192.0
141.257095 124.0
141.453506 164.0
141.567154 92.0
141.619263 128.0
141.656815 216.0
141.740082 184.0
141.882294 140.0
142.019836 60.0
142.053055 124.0
142.140839 160.0
142.197784 112.0
142.223907 100.0
142.247635 104.0
142.323608 144.0
142.494629 188.0
142.608688 92.0
142.832199 152.0
142.944031 196.0
143.086838 172.0
143.170181 88.0
143.258316 64.0
143.339325 124.0
143.382217 148.0
143.773346 108.0
143.804367 196.0
143.875977 264.0
144.045532 168.0
144.164993 88.0
144.272552 224.0
144.301193 172.0
144.523682 132.0
144.57872 132.0
144.600266 208.0
144.650528 148.0
144.772644 288.0
144.92778 168.0
145.069748 120.0
145.292786 228.0
145.39357 216.0
145.436768 76.0
145.583221 216.0
145.648071 228.0
145.705719 148.0
145.74176 156.0
145.804245 128.0
145.897995 132.0
145.96907 184.0
146.017853 384.0
146.162567 120.0
146.22995 140.0
146.333466 164.0
146.398468 160.0
146.523727 108.0
146.659012 228.0
146.996323 148.0
147.032043 280.0
147.05455 160.0
147.289352 228.0
147.360931 92.0
147.411682 128.0
147.501099 108.0
147.602646 120.0
147.621994 204.0
147.663101 116.0
147.69696 116.0
147.757446 224.0
147.958328 140.0
148.033386 120.0
148.05275 136.0
148.081818 112.0
148.258682 192.0
148.308182 148.0
148.367752 164.0
148.401703 188.0
148.421097 108.0
148.56662 192.0
148.860306 188.0
148.882172 140.0
149.013336 116.0
149.035202 156.0
149.127548 108.0
149.244247 188.0
149.397476 112.0
149.511826 224.0
149.573563 220.0
149.667633 80.0
149.735809 108.0
149.820526 212.0
149.84787 156.0
149.916031 140.0
149.967194 212.0
150.031387 320.0
150.101364 164.0
150.162338 184.0
150.189163 132.0
150.218445 104.0
150.264786 212.0
150.442947 200.0
150.501541 204.0
150.777588 320.0
150.814255 132.0
150.863144 120.0
150.904709 200.0
150.924271 192.0
151.009857 308.0
151.061218 364.0
151.200699 180.0
151.261887 168.0
151.308395 96.0
151.438187 160.0
151.47493 104.0
151.49942 172.0
151.516571 120.0
151.71019 136.0
151.76413 80.0
151.783737 120.0
151.825424 108.0
151.867126 52.0
152.053879 204.0
152.178787 172.0
152.213165 64.0
152.311401 208.0
152.401627 144.0
152.483398 168.0
152.584183 52.0
152.776016 188.0
152.830139 200.0
152.928574 184.0
153.06279 364.0
153.21669 160.0
153.521118 132.0
153.554398 236.0
153.574127 144.0
153.643204 172.0
153.736969 232.0
153.825821 152.0
153.843094 124.0
153.966568 172.0
154.06279 188.0
154.11972 152.0
154.240814 248.0
154.391647 96.0
154.423798 176.0
154.495529 180.0
154.601929 196.0
154.750443 144.0
155.069595 136.0
155.167587 132.0
155.26091 140.0
155.417206 280.0
155.461868 232.0
155.479233 248.0
155.610794 204.0
155.66188 244.0
155.831848 164.0
155.88652 44.0
155.946167 80.0
156.102798 116.0
156.237106 124.0
156.331665 124.0
156.366501 44.0
156.416275 136.0
156.505905 168.0
156.568161 160.0
156.717621 132.0
156.750015 40.0
156.83725 232.0
156.934479 168.0
156.986847 184.0
157.193893 124.0
157.211365 228.0
157.448532 164.0
157.595917 64.0
157.718369 176.0
157.763367 144.0
157.830521 172.0
158.13858 160.0
158.268768 156.0
158.634552 88.0
158.714783 220.0
158.73233 140.0
158.754898 168.0
158.867783 200.0
158.970642 176.0
159.264389 156.0
159.329712 176.0
159.3974 200.0
159.49556 124.0
159.621277 192.0
159.729416 220.0
159.792313 132.0
159.817474 152.0
160.012772 176.0
160.031418 56.0
160.059113 136.0
160.104446 140.0
160.134674 168.0
160.227875 220.0
160.404282 68.0
160.676651 100.0
160.807861 240.0
160.911362 36.0
160.999741 168.0
161.023239 100.0
161.115936 108.0
161.171524 156.0
161.257446 244.0
161.340866 176.0
161.449585 80.0
161.474884 204.0
161.520401 228.0
161.601364 84.0
161.948181 80.0
161.973511 128.0
162.029251 276.0
162.171158 244.0
162.192856 228.0
162.220673 112.0
162.4095 124.0
162.450089 124.0
162.554108 192.0
162.627716 128.0
162.673401 132.0
162.813049 152.0
162.904495 148.0
163.095078 176.0
163.209473 144.0
163.234909 116.0
163.265427 188.0
163.375549 108.0
163.447144 156.0
163.476578 192.0
163.502747 228.0
163.584808 304.0
163.805023 140.0
164.003784 124.0
164.16185 136.0
164.213409 128.0
164.253662 116.0
164.279175 116.0
164.54715 192.0
164.580338 188.0
164.600769 56.0
164.679932 200.0
164.700363 144.0
164.769348 32.0
164.848557 104.0
165.013809 160.0
165.068466 156.0
165.116989 144.0
165.15535 192.0
165.183487 68.0
165.398438 100.0
165.43428 140.0
165.595596 112.0
165.739059 160.0
165.78775 200.0
165.836441 180.0
165.950684 256.0
166.065475 160.0
166.110809 192.0
166.182648 180.0
166.336624 148.0
166.706482 68.0
166.739883 152.0
166.760452 148.0
166.816025 192.0
166.852997 88.0
167.017578 144.0
167.073822 1480.0
167.14621 168.0
167.374634 184.0
167.43454 120.0
167.705063 132.0
167.826233 208.0
167.849442 152.0
167.880386 84.0
167.957764 112.0
167.991287 176.0
168.080154 556.0
168.1203 60.0
168.267441 212.0
168.463715 108.0
168.520554 196.0
168.733109 200.0
169.00148 148.0
169.055817 148.0
169.076004 140.0
169.154175 168.0
169.307114 360.0
169.485687 220.0
169.610077 140.0
169.690445 172.0
169.718964 192.0
169.796768 60.0
169.917526 84.0
170.001709 152.0
170.043243 188.0
170.084763 140.0
170.276901 48.0
170.305481 108.0
170.352234 152.0
170.417191 64.0
170.580917 116.0
170.604309 176.0
170.768127 116.0
170.801941 148.0
170.885193 204.0
170.933014 160.0
170.958054 108.0
171.022034 660.0
171.223602 144.0
171.463226 160.0
171.50499 160.0
171.710983 156.0
171.773575 140.0
171.830978 100.0
171.867493 140.0
171.898819 144.0
171.945786 104.0
171.966675 56.0
172.02037 160.0
172.091385 176.0
172.136368 184.0
172.272186 128.0
172.321823 148.0
172.361008 128.0
172.465546 44.0
172.643341 184.0
172.711334 160.0
172.876175 176.0
173.031891 192.0
173.085587 136.0
173.109161 124.0
173.211304 212.0
173.266312 196.0
173.289902 220.0
173.51268 56.0
173.570358 152.0
173.856293 104.0
173.935043 148.0
174.032684 488.0
174.068939 184.0
174.097824 112.0
174.204178 180.0
174.250168 68.0
174.283356 220.0
174.322235 188.0
174.411057 164.0
174.48671 68.0
174.547485 144.0
174.607681 164.0
174.633972 160.0
174.976074 180.0
175.012817 180.0
175.02298 172.0
175.03186 148.0
175.060333 124.0
175.223648 172.0
175.307968 168.0
175.690292 36.0
175.806396 56.0
175.919891 276.0
175.996445 160.0
176.049271 132.0
176.111557 136.0
176.181335 156.0
176.207748 60.0
176.358032 212.0
176.535522 144.0
176.564606 116.0
176.64003 180.0
176.695374 176.0
176.78154 180.0
176.850357 120.0
176.916534 124.0
176.988022 88.0
177.030396 160.0
177.065155 256.0
177.161072 188.0
177.268814 208.0
177.573685 156.0
177.60965 156.0
177.759399 136.0
177.892105 140.0
178.066803 1800.0
178.162979 196.0
178.255981 140.0
178.279892 128.0
178.301163 72.0
178.356979 176.0
178.543091 60.0
178.873016 152.0
178.952881 124.0
178.987503 132.0
179.01413 68.0
179.07225 4980.0
179.240555 180.0
179.330017 172.0
179.403137 176.0
179.608475 168.0
179.66983 180.0
179.725861 140.0
179.787231 144.0
179.915359 104.0
180.044205 172.0
180.07933 2420.0
180.120987 160.0
180.190445 188.0
180.31604 136.0
180.340088 64.0
180.377518 132.0
180.417618 200.0
180.479111 40.0
180.631546 136.0
180.669006 92.0
180.869705 72.0
180.923248 140.0
181.024521 244.0
181.08429 1036.0
181.169449 120.0
181.236618 88.0
181.311646 116.0
181.341125 132.0
181.398819 176.0
181.445663 108.0
181.467117 32.0
181.562576 140.0
181.590469 144.0
181.721924 128.0
181.778275 184.0
181.805115 124.0
182.014496 120.0
182.052094 152.0
182.096161 412.0
182.181015 156.0
182.301926 216.0
182.32074 100.0
182.355682 20.0
182.390625 236.0
182.409439 168.0
182.452454 152.0
182.476654 180.0
182.516983 164.0
182.65683 208.0
182.689117 104.0
182.842484 128.0
183.079407 156.0
183.189835 40.0
183.235626 76.0
183.281433 220.0
183.313766 212.0
183.391937 160.0
183.720917 88.0
183.742493 152.0
183.809952 156.0
183.880234 176.0
183.901718 148.0
184.032166 496.0
184.056992 192.0
184.139313 92.0
184.306808 168.0
184.452744 132.0
184.504105 44.0
184.544662 168.0
184.612259 184.0
184.687988 108.0
184.717743 188.0
184.834091 104.0
184.861145 244.0
185.034012 320.0
185.115616 156.0
185.145401 132.0
185.237488 84.0
185.261871 168.0
185.340439 164.0
185.386505 180.0
185.446136 96.0
185.578964 88.0
185.882767 116.0
185.901764 184.0
185.953339 112.0
185.996765 100.0
186.031708 144.0
186.059204 148.0
186.186829 40.0
186.325348 208.0
186.678711 96.0
186.801102 156.0
186.8936 132.0
187.124969 228.0
187.222992 164.0
187.33194 152.0
187.800797 144.0
187.914566 164.0
188.008148 128.0
188.098221 76.0
188.231995 132.0
188.264771 152.0
188.286621 196.0
188.423203 144.0
188.480576 124.0
188.562561 136.0
188.670822 208.0
188.846909 84.0
188.954468 172.0
189.005585 148.0
189.035934 128.0
189.120529 168.0
189.191696 132.0
189.210861 92.0
189.255341 164.0
189.276581 128.0
189.368378 192.0
189.397079 184.0
189.555984 172.0
189.633133 160.0
189.742371 108.0
189.794464 120.0
189.843826 96.0
189.887711 164.0
189.912384 136.0
189.972733 144.0
190.074799 160.0
190.145599 120.0
190.167557 128.0
190.197754 208.0
190.359741 200.0
190.442139 152.0
190.491577 196.0
190.516296 52.0
190.55751 156.0
190.65918 192.0
190.700409 208.0
190.749893 144.0
190.785629 228.0
190.821213 208.0
190.935654 128.0
191.077866 576.0
191.126678 104.0
191.176208 168.0
191.492813 208.0
191.602997 104.0
191.736435 124.0
191.820709 128.0
191.864822 168.0
192.044464 328.0
192.081024 380.0
192.168198 152.0
192.198563 184.0
192.308945 68.0
192.336548 148.0
192.458023 212.0
192.492096 224.0
192.593338 192.0
192.626495 44.0
192.687271 60.0
192.826431 188.0
192.981705 204.0
193.086441 1348.0
193.121277 196.0
193.151703 112.0
193.309402 172.0
193.514236 184.0
193.647171 196.0
193.90155 108.0
193.960266 180.0
194.021255 208.0
194.064697 180.0
194.091034 408.0
194.626114 212.0
194.648315 164.0
194.686462 180.0
194.79631 228.0
195.023376 124.0
195.056396 168.0
195.332031 160.0
195.365417 200.0
195.460007 172.0
195.496185 188.0
195.576904 132.0
195.613083 84.0
195.696609 184.0
195.884064 116.0
196.022507 212.0
196.07843 180.0
196.122849 168.0
196.184174 124.0
196.237137 136.0
196.315216 176.0
196.490952 132.0
196.518845 148.0
196.602554 304.0
196.677917 132.0
196.72258 148.0
196.753296 160.0
196.814713 156.0
196.878937 192.0
196.904083 164.0
197.026764 300.0
197.071686 136.0
197.138748 164.0
197.211426 96.0
197.239365 124.0
197.664474 68.0
197.689667 68.0
197.734451 40.0
197.787628 248.0
197.919205 180.0
198.036194 6576.0
198.355408 224.0
198.444992 112.0
198.570404 108.0
198.603027 48.0
198.631073 160.0
198.748901 156.0
198.827484 176.0
198.847122 172.0
198.92572 144.0
198.967834 48.0
199.042297 2312.0
199.170029 184.0
199.370514 160.0
199.451019 224.0
199.498474 136.0
199.569092 100.0
199.588776 152.0
199.71814 180.0
199.805344 36.0
199.993881 32.0
200.042191 556.0
200.07074 212.0
200.276047 104.0
200.314896 184.0
200.394958 220.0
200.777145 96.0
200.974609 140.0
201.037994 236.0
201.07338 32.0
201.121368 100.0
201.350067 140.0
201.538239 196.0
201.578903 124.0
201.652374 184.0
201.773926 168.0
201.807861 76.0
201.957855 188.0
202.031677 2788.0
202.141052 116.0
202.235031 132.0
202.311462 160.0
202.342606 76.0
202.373749 72.0
202.432266 120.0
202.535172 104.0
202.604645 252.0
202.846878 156.0
202.890213 196.0
202.930511 272.0
203.033981 580.0
203.117905 180.0
203.243927 32.0
203.303528 56.0
203.337585 140.0
203.567535 144.0
203.587418 80.0
203.669785 28.0
203.754044 236.0
203.84877 88.0
204.026749 624.0
204.07724 1372.0
204.129471 156.0
204.269562 104.0
204.366287 92.0
204.468735 152.0
204.653778 164.0
205.053268 688.0
205.087769 1508.0
205.121887 116.0
205.155487 164.0
205.202515 128.0
205.326294 164.0
205.349106 144.0
205.383347 80.0
205.583054 136.0
205.62587 36.0
205.742905 156.0
205.911377 52.0
205.989471 140.0
206.018356 204.0
206.058762 2856.0
206.095764 8036.0
206.154205 132.0
206.294266 84.0
206.360016 100.0
206.457245 68.0
206.550949 216.0
206.595551 168.0
206.634598 96.0
206.794846 92.0
206.832062 92.0
206.913879 128.0
207.059906 364.0
207.101212 2988.0
207.169968 108.0
207.212936 176.0
207.238724 120.0
207.301758 40.0
207.356216 56.0
207.410675 48.0
207.468002 180.0
207.508148 112.0
207.536819 68.0
207.580673 140.0
207.691681 80.0
207.731842 180.0
207.783478 52.0
207.835129 104.0
207.987228 40.0
208.030289 192.0
208.064178 260.0
208.107758 676.0
208.154831 212.0
208.193954 96.0
208.290085 68.0
208.369171 136.0
208.455383 196.0
208.477722 72.0
208.521469 116.0
208.593338 136.0
208.742844 96.0
208.797485 140.0
208.924225 124.0
208.976471 168.0
209.04512 204.0
209.082306 156.0
209.103867 300.0
209.182037 140.0
209.231979 48.0
209.321243 76.0
209.40477 116.0
209.453735 168.0
209.537277 152.0
209.620834 88.0
209.718826 156.0
209.80249 160.0
210.037003 1676.0
210.092758 380.0
210.174484 100.0
210.261063 76.0
210.31012 148.0
210.330322 180.0
210.359192 144.0
210.492767 152.0
210.792435 72.0
210.858368 220.0
210.896652 64.0
210.965851 244.0
210.988571 296.0
211.045242 10496.0
211.124451 244.0
211.24115 224.0
211.264954 56.0
211.299286 116.0
211.391022 32.0
211.443115 188.0
211.477844 180.0
211.50679 52.0
211.582199 84.0
211.642868 56.0
211.839813 160.0
211.871674 128.0
211.926727 56.0
211.990479 388.0
212.05159 13180.0
212.149063 184.0
212.257172 176.0
212.277466 84.0
212.312271 64.0
212.339859 156.0
212.373901 176.0
212.426773 44.0
212.467743 88.0
212.576263 72.0
212.621674 68.0
212.648819 112.0
212.706863 132.0
212.7388 156.0
212.767822 160.0
212.793961 124.0
212.886871 124.0
212.963959 156.0
213.053467 3056.0
213.148514 180.0
213.238419 152.0
213.269089 72.0
213.278519 40.0
213.33725 132.0
213.401199 52.0
213.430283 156.0
213.558243 88.0
213.648422 180.0
213.683334 56.0
213.761887 80.0
213.7939 36.0
213.834656 208.0
213.948166 60.0
214.050674 1148.0
214.184052 148.0
214.227753 88.0
214.545395 172.0
214.576187 132.0
214.685364 240.0
214.831192 432.0
214.959579 48.0
215.040009 184.0
215.14415 176.0
215.225204 60.0
215.289459 128.0
215.458878 76.0
215.523148 48.0
215.566986 152.0
215.593277 148.0
215.804611 164.0
215.897324 172.0
216.002625 28.0
216.079605 468.0
216.151825 36.0
216.377213 96.0
216.470901 104.0
216.514832 180.0
216.640793 56.0
216.719894 192.0
216.819534 112.0
216.869354 140.0
216.930908 164.0
217.086533 1712.0
217.147888 136.0
217.279892 104.0
217.323914 112.0
217.475327 176.0
217.776001 168.0
217.802444 128.0
217.937576 76.0
217.987534 60.0
218.022797 64.0
218.064911 192.0
218.089523 888.0
218.128616 128.0
218.158005 32.0
218.196228 72.0
218.41774 168.0
218.575653 160.0
218.599197 156.0
218.651871 160.0
218.75058 148.0
218.772858 216.0
218.817017 148.0
218.861176 64.0
218.931854 168.0
218.958359 104.0
219.102234 436.0
219.135101 108.0
219.182251 136.0
219.208771 160.0
219.42099 48.0
219.5242 84.0
219.633316 124.0
219.968948 92.0
220.008087 48.0
220.072189 192.0
220.107742 112.0
220.26796 152.0
220.465927 96.0
220.522079 236.0
220.626663 148.0
220.686005 124.0
220.704285 152.0
220.741653 176.0
220.828278 128.0
221.042587 204.0
221.091476 320.0
221.528152 44.0
221.720749 188.0
221.827454 168.0
221.89267 104.0
221.940109 96.0
221.966797 56.0
222.031784 180.0
222.092865 176.0
222.171463 188.0
222.32872 104.0
222.399948 252.0
222.447449 124.0
222.477127 128.0
222.575104 148.0
222.643417 40.0
222.702805 100.0
222.726578 80.0
222.833527 108.0
223.042236 668.0
223.092804 116.0
223.38649 200.0
223.829956 104.0
223.877609 84.0
223.922272 188.0
224.014496 100.0
224.051712 3172.0
224.103989 92.0
224.142731 68.0
224.194687 212.0
224.232132 240.0
224.314407 60.0
224.429443 160.0
224.470627 148.0
224.569046 68.0
224.598877 60.0
224.645493 224.0
224.694214 152.0
224.801758 172.0
224.852493 44.0
224.939056 72.0
225.05925 4204.0
225.110855 220.0
225.157013 156.0
225.204803 120.0
225.300308 148.0
225.336243 156.0
225.404968 48.0
225.529099 132.0
225.608215 40.0
225.638107 140.0
225.668015 80.0
225.703888 132.0
225.727814 48.0
225.781647 100.0
225.841461 120.0
225.949158 232.0
225.993439 132.0
226.030136 6520.0
226.13768 84.0
226.169937 36.0
226.205673 132.0
226.251419 48.0
226.329468 120.0
226.366348 196.0
226.422104 56.0
226.45723 176.0
226.535919 176.0
226.616821 68.0
226.640793 140.0
226.733688 64.0
226.772644 40.0
226.937531 72.0
226.97789 244.0
227.03299 944.0
227.108459 120.0
227.150467 176.0
227.171463 40.0
227.384506 100.0
227.41452 140.0
227.52858 212.0
227.558609 232.0
227.586075 188.0
227.630676 152.0
227.732788 100.0
227.759811 72.0
227.810883 100.0
227.876984 60.0
227.92453 224.0
227.979141 124.0
228.031158 512.0
228.062668 144.0
228.156799 152.0
228.330887 36.0
228.403076 164.0
228.484299 96.0
228.625732 84.0
228.649811 132.0
228.740097 104.0
228.897247 204.0
229.017273 852.0
229.084564 240.0
229.273224 128.0
229.378723 180.0
229.429962 128.0
229.538513 40.0
229.638031 104.0
229.695343 148.0
229.773773 112.0
229.828079 100.0
230.02478 1868.0
230.101044 304.0
230.202393 68.0
230.305084 120.0
230.434982 116.0
230.465195 240.0
230.510529 176.0
230.661636 56.0
230.700943 132.0
230.722107 28.0
230.785599 232.0
230.957977 48.0
231.029739 316.0
231.066879 216.0
231.101456 208.0
231.163712 128.0
231.19397 208.0
231.257523 156.0
231.290817 196.0
231.52092 140.0
231.769333 188.0
231.932983 168.0
232.015244 116.0
232.078506 28.0
232.157349 120.0
232.211929 240.0
232.396988 168.0
232.418228 104.0
232.451599 172.0
232.554794 208.0
232.636749 180.0
232.70816 144.0
232.803741 48.0
232.90094 192.0
232.934341 148.0
233.018494 112.0
233.037643 176.0
233.061951 324.0
233.118393 216.0
233.186539 116.0
233.511871 148.0
233.593994 196.0
233.62442 128.0
233.651794 136.0
233.785675 188.0
233.847656 132.0
233.95639 144.0
234.037399 220.0
234.088791 2380.0
234.189514 112.0
234.242386 192.0
234.313629 228.0
234.370346 128.0
234.440445 152.0
234.480057 96.0
234.522736 112.0
234.690399 56.0
234.711746 184.0
234.755219 124.0
234.819244 96.0
234.893539 168.0
234.925247 192.0
235.045303 3328.0
235.09761 588.0
235.151047 160.0
235.248718 148.0
235.32811 168.0
235.416656 40.0
235.447189 164.0
235.487915 216.0
235.56163 112.0
235.587708 160.0
235.609085 264.0
235.629532 168.0
235.662582 244.0
235.74353 136.0
235.766464 220.0
235.806259 176.0
235.82605 292.0
235.874954 160.0
235.901733 396.0
235.995438 364.0
236.054047 984.0
236.106674 86492.0
236.189026 96.0
236.212097 144.0
236.260269 60.0
236.281693 64.0
236.307388 180.0
236.329605 204.0
236.366348 180.0
236.398193 108.0
236.464142 172.0
236.51091 128.0
236.554932 56.0
236.608963 360.0
236.638443 92.0
236.678207 60.0
236.704086 48.0
236.743896 72.0
236.81752 96.0
236.856781 108.0
236.915421 112.0
236.955246 68.0
236.979431 112.0
237.044464 272.0
237.108917 15632.0
237.175888 176.0
237.227234 112.0
237.257492 200.0
237.283188 64.0
237.332245 108.0
237.362137 64.0
237.395706 92.0
237.435333 344.0
237.467178 44.0
237.511719 100.0
237.55307 200.0
237.572189 136.0
237.606354 152.0
237.657379 144.0
237.684998 188.0
237.710739 164.0
237.743301 104.0
237.773987 32.0
237.795471 64.0
237.820724 208.0
237.855255 84.0
237.928146 184.0
238.031937 160.0
238.067047 3948.0
238.112274 1072.0
238.189545 212.0
238.214249 116.0
238.237289 68.0
238.290512 116.0
238.378983 112.0
238.406647 220.0
238.428162 44.0
238.482315 124.0
238.527313 140.0
238.548874 236.0
238.578583 196.0
238.651199 72.0
238.710129 172.0
238.742218 128.0
238.785873 332.0
238.804367 148.0
238.855438 116.0
238.881104 128.0
238.928085 180.0
238.96257 140.0
238.995468 148.0
239.074814 27584.0
239.161438 180.0
239.204651 160.0
239.226898 152.0
239.263443 44.0
239.301788 108.0
239.323334 32.0
239.347107 72.0
239.358154 52.0
239.368958 88.0
239.418793 100.0
239.456375 60.0
239.498871 80.0
239.531219 176.0
239.578964 100.0
239.651932 116.0
239.676895 56.0
239.720703 76.0
239.754089 48.0
239.764465 40.0
239.942627 56.0
239.972839 240.0
240.080505 10964.0
240.17392 28.0
240.202774 56.0
240.235886 136.0
240.281891 40.0
240.327759 60.0
240.352859 52.0
240.38063 48.0
240.470276 76.0
240.516418 40.0
240.559235 92.0
240.624466 92.0
240.654694 76.0
240.70784 80.0
240.729462 76.0
240.768372 80.0
240.899338 44.0
240.933319 60.0
241.021469 140.0
241.079758 1316.0
241.189804 236.0
241.214539 44.0
241.257812 104.0
241.294907 48.0
241.353653 48.0
241.447403 156.0
241.529938 76.0
241.557785 172.0
241.604187 96.0
241.655457 84.0
241.693909 64.0
241.758896 124.0
241.851746 40.0
241.895081 148.0
241.973511 108.0
242.03717 172.0
242.081146 640.0
242.18306 168.0
242.300781 84.0
242.351685 68.0
242.465012 120.0
242.486694 144.0
242.551788 228.0
242.619995 100.0
242.7099 116.0
242.802933 164.0
242.833954 180.0
242.895142 160.0
242.936325 60.0
243.032822 4604.0
243.159729 84.0
243.200073 200.0
243.404984 44.0
243.429825 48.0
243.491058 72.0
243.510574 168.0
243.547836 72.0
243.619293 48.0
243.653458 132.0
243.810669 128.0
243.830582 200.0
244.038132 980.0
244.119202 148.0
244.183838 84.0
244.268997 136.0
244.763855 128.0
244.844818 124.0
244.933701 112.0
244.966309 156.0
245.034363 292.0
245.081573 88.0
245.11528 108.0
245.274796 184.0
245.639648 76.0
245.664597 52.0
245.786285 104.0
245.909363 136.0
246.004761 84.0
246.037109 168.0
246.126511 116.0
246.167114 88.0
246.238937 72.0
246.395126 100.0
246.424011 180.0
247.054779 56.0
247.333298 84.0
247.427216 208.0
247.474167 40.0
247.64328 192.0
247.674606 76.0
248.036636 208.0
248.103622 216.0
248.417526 144.0
248.508499 168.0
248.5979 172.0
248.954254 88.0
249.059448 608.0
249.084122 172.0
249.109131 180.0
249.148987 128.0
249.199265 200.0
249.236969 132.0
249.441254 192.0
249.655502 28.0
249.695938 188.0
249.771423 128.0
249.840637 312.0
249.900406 172.0
249.935303 184.0
249.997955 160.0
250.066849 9184.0
250.126022 164.0
250.388336 60.0
250.418579 180.0
250.58049 116.0
250.725449 64.0
250.794785 40.0
250.820007 140.0
250.851532 120.0
250.908279 124.0
251.029388 156.0
251.070847 2120.0
251.231445 80.0
251.330917 48.0
251.359314 144.0
251.435059 192.0
251.463455 80.0
251.637085 64.0
251.846252 204.0
251.952911 40.0
252.000626 172.0
252.045319 1384.0
252.133026 176.0
252.284744 152.0
252.325836 168.0
252.408051 100.0
252.569351 176.0
252.860443 80.0
252.889526 84.0
252.945908 64.0
253.054535 316.0
253.097443 272.0
253.151703 132.0
253.363922 100.0
253.581268 88.0
254.060532 1212.0
254.104141 124.0
254.366028 84.0
254.410477 116.0
254.439056 120.0
254.559708 172.0
254.686752 144.0
254.890076 192.0
254.944107 180.0
254.972702 100.0
255.017197 116.0
255.07019 12740.0
255.122101 80.0
255.214294 80.0
255.358276 160.0
255.720123 48.0
255.960266 52.0
256.003479 32.0
256.036774 96.0
256.071777 2816.0
256.200958 28.0
256.232819 32.0
256.271027 132.0
256.291748 68.0
256.352081 88.0
256.427826 60.0
256.561066 160.0
256.688599 108.0
256.790649 124.0
256.978882 104.0
257.065552 636.0
257.365082 48.0
257.690887 180.0
257.7388 84.0
257.784576 124.0
257.940155 116.0
258.057953 232.0
258.221527 100.0
258.266296 152.0
258.343079 100.0
259.008911 40.0
259.431915 44.0
259.794312 108.0
259.961151 180.0
261.005157 48.0
261.046478 104.0
262.067139 56.0
262.11908 712.0
262.52832 44.0
262.779938 84.0
262.889648 172.0
263.031647 168.0
263.07486 388.0
263.126099 588.0
263.448212 236.0
263.477295 376.0
263.920105 160.0
264.052673 236.0
264.075226 148.0
264.134064 460.0
264.301788 44.0
264.602783 188.0
264.703156 168.0
264.900726 180.0
265.01413 144.0
265.08429 236.0
265.107422 96.0
265.558746 160.0
265.617126 144.0
265.652832 68.0
265.711212 100.0
265.883209 84.0
266.061401 460.0
266.188354 172.0
266.276031 144.0
266.766693 152.0
266.90976 108.0
266.961792 128.0
267.073181 516.0
267.138611 172.0
267.20575 120.0
267.235016 148.0
267.303345 152.0
267.391205 108.0
267.580017 156.0
267.686768 240.0
267.722351 112.0
267.752594 88.0
267.827515 116.0
267.879639 144.0
267.90094 52.0
267.930023 120.0
267.970184 164.0
268.033356 424.0
268.078186 74168.0
268.137054 248.0
268.171509 76.0
268.232697 88.0
268.271179 52.0
268.320496 88.0
268.363831 92.0
268.406952 184.0
268.428528 68.0
268.47937 56.0
268.521759 80.0
268.551605 80.0
268.585052 160.0
268.599243 64.0
268.606781 188.0
268.638824 72.0
268.644623 48.0
268.720764 84.0
268.746857 44.0
268.798065 52.0
268.838226 244.0
268.905273 272.0
268.945923 56.0
268.984772 164.0
269.014496 152.0
269.081116 11180.0
269.165985 80.0
269.193451 224.0
269.231018 88.0
269.27243 40.0
269.295319 52.0
269.331238 36.0
269.360626 44.0
269.383484 40.0
269.42923 136.0
269.453888 92.0
269.488037 72.0
269.554718 88.0
269.718323 104.0
269.81604 68.0
269.855408 112.0
269.949188 108.0
270.005737 48.0
270.076874 3780.0
270.132721 192.0
270.176544 48.0
270.217102 208.0
270.255005 92.0
270.336426 68.0
270.361145 40.0
270.42807 136.0
270.481659 68.0
270.546082 152.0
270.623016 44.0
270.698334 144.0
270.731018 228.0
270.839172 120.0
270.88501 128.0
270.920013 88.0
270.97287 64.0
271.072357 644.0
271.150421 132.0
271.193024 36.0
271.248749 68.0
271.271698 48.0
271.319275 96.0
271.497955 40.0
271.52417 72.0
271.724762 56.0
271.749207 100.0
271.894928 48.0
271.944153 80.0
272.036041 96.0
272.062317 108.0
272.091858 108.0
272.180511 56.0
272.388702 52.0
272.420288 60.0
272.462982 48.0
272.485992 60.0
272.591125 84.0
272.623993 100.0
272.660156 36.0
272.781769 68.0
272.956024 56.0
273.018494 40.0
273.143463 56.0
273.261902 132.0
273.347473 56.0
273.617371 108.0
273.706268 56.0
273.791901 76.0
274.075195 116.0
274.16745 44.0
274.642242 140.0
275.130615 116.0
275.517029 88.0
276.022736 96.0
276.850037 96.0
276.929504 52.0
277.343689 92.0
278.099731 632.0
279.013458 96.0
279.105042 140.0
279.389282 52.0
279.791962 60.0
279.861877 220.0
280.083374 252.0
281.028473 96.0
281.084106 128.0
281.252075 96.0
282.076569 156.0
282.087402 128.0
282.094604 164.0
282.187469 148.0
282.274414 224.0
282.364716 108.0
282.408203 52.0
282.471741 88.0
282.528625 76.0
282.769531 64.0
282.809723 92.0
283.092072 168.0
283.446014 40.0
284.12262 152.0
284.949219 88.0
285.127991 40.0
285.302124 116.0
286.109528 52.0
286.816956 40.0
287.083313 236.0
290.978027 76.0
292.817688 44.0
293.09021 160.0
293.444702 52.0
294.093597 1068.0
295.098663 512.0
295.760895 52.0
295.82251 136.0
295.880737 124.0
296.10849 7360.0
296.174957 100.0
296.254028 148.0
296.277985 88.0
296.439026 80.0
296.552124 88.0
296.833252 164.0
297.11261 1256.0
297.316956 56.0
297.746124 152.0
298.104279 460.0
298.423065 60.0
298.588135 108.0
298.811737 72.0
298.849579 76.0
299.090485 152.0
299.276398 64.0
299.317719 128.0
300.292999 68.0
301.280243 112.0
301.630829 132.0
302.677582 68.0
304.307251 100.0
305.554993 56.0
306.132782 92.0
308.281738 80.0
310.168213 40.0
311.125916 64.0
315.158691 48.0
325.966614 64.0
326.133575 96.0
326.915985 68.0
327.128326 92.0
327.405579 108.0
328.201996 72.0
330.029053 44.0
331.835815 104.0
332.496002 28.0
337.256409 148.0
338.207428 72.0
338.599213 80.0
339.24411 164.0
339.489746 68.0
339.985016 92.0
340.179565 72.0
340.274994 104.0
340.344757 64.0
340.432892 128.0
340.469635 60.0
340.811249 108.0
340.950897 124.0
340.98764 132.0
341.043793 88.0
341.165253 4816.0
341.244965 32.0
341.392059 40.0
341.619873 120.0
341.752563 68.0
341.816772 116.0
342.16922 1280.0
342.216309 68.0
342.249451 56.0
342.444641 56.0
342.674286 156.0
342.813049 64.0
342.938354 76.0
343.1651 184.0
343.473022 80.0
344.137299 152.0
344.78006 36.0
345.397522 124.0
348.987488 88.0
351.382385 64.0
351.785431 36.0
353.055847 80.0
356.418427 116.0
358.638855 120.0
360.854828 116.0
361.418396 100.0
361.490295 88.0
361.732544 76.0
363.172455 96.0
364.516418 124.0
365.562164 108.0
366.590393 48.0
367.894836 108.0
368.479156 64.0
369.377563 40.0
371.143127 56.0
375.272705 104.0
375.731689 68.0
383.288666 80.0
392.859406 88.0
396.834137 52.0
399.495087 68.0
405.264221 56.0
406.017853 76.0
406.800293 76.0
407.01709 56.0
407.884888 112.0
408.52832 84.0
410.316437 68.0
412.043823 76.0
412.116547 128.0
413.430756 40.0
417.625916 96.0
421.801392 72.0
423.221008 96.0
430.14032 80.0
431.995758 80.0
432.608215 40.0
434.278168 68.0
434.332092 88.0
440.730988 116.0
441.07785 44.0
447.862976 32.0
451.395477 68.0
454.165283 52.0
454.491943 72.0
461.943573 120.0
472.665436 96.0
477.737457 64.0
477.937592 40.0
479.583801 88.0
482.718475 80.0
485.429138 76.0
485.986237 52.0
487.184814 104.0
487.334198 56.0
490.286896 64.0
493.849915 68.0
497.128418 96.0
501.317566 68.0
502.410004 112.0
504.446381 56.0
504.978485 92.0
505.394531 44.0
506.182373 60.0
512.60614 80.0
515.146301 64.0
516.475342 108.0
522.522461 124.0
526.70282 108.0
531.101685 96.0
539.135986 120.0
540.930603 108.0
543.484253 52.0
546.192749 72.0
552.986511 84.0
553.243958 48.0
554.447754 56.0
560.971863 48.0
562.417969 128.0
563.704651 60.0
565.374023 116.0
569.437134 60.0
582.448364 80.0
587.628418 72.0
588.362 68.0
593.194885 124.0
598.461365 64.0
603.276794 64.0
603.467468 40.0
618.318848 116.0
618.799011 60.0
629.729431 128.0
635.616882 68.0
653.341797 88.0
663.059021 116.0
667.335144 116.0
673.17334 108.0
692.824646 48.0
693.78894 88.0
694.119263 76.0
695.724792 80.0
696.365417 60.0
701.759399 52.0
713.938721 80.0
715.199707 164.0
729.288757 56.0
732.468872 68.0
745.133423 88.0
753.682373 40.0
758.50946 96.0
761.329651 92.0
763.109985 48.0
771.368591 48.0
780.444336 96.0
782.363831 68.0
788.253784 60.0
806.095825 52.0
822.190186 68.0
828.714905 60.0
828.84668 72.0
873.62677 108.0
874.562378 132.0
876.853577 32.0
886.551941 40.0
903.558167 144.0
925.860596 68.0
940.568542 40.0
947.969116 84.0
948.226501 100.0
948.925293 80.0
956.149292 92.0
966.201294 116.0
967.494751 164.0
980.514404 68.0
983.608154 92.0
983.745483 76.0
994.819763 92.0
1004.182983 84.0
1011.196167 112.0
1014.686584 64.0
1028.044434 84.0
1028.803955 36.0
1036.408691 48.0
1047.220703 124.0
1067.256836 88.0
1074.395142 100.0
1087.121826 212.0
1087.167725 96.0
1088.32959 72.0
1096.019043 108.0
1104.27771 180.0
1104.410034 160.0
1104.595215 76.0
1110.669556 144.0
1111.804077 92.0
1112.852905 48.0
1118.297485 84.0
1121.527954 148.0
1123.588501 204.0
1127.615112 88.0
1128.236816 48.0
1135.797363 76.0
1157.512695 228.0
1158.359253 100.0
1173.010376 176.0
1180.890137 152.0
1188.885498 116.0
1192.965454 108.0
1193.213013 192.0
1195.028809 64.0
1201.68457 140.0
1209.576904 84.0
1222.750977 144.0
1235.450684 80.0
1237.697388 212.0
1254.468262 96.0
1254.799561 212.0
1261.902344 128.0
1275.67749 68.0
1285.89917 164.0
1288.855713 104.0
1299.158569 104.0
1307.069214 152.0
1309.322388 216.0
1309.646606 100.0
1311.669922 176.0
1311.974121 48.0
1313.50293 72.0
1313.878052 88.0
1314.311035 112.0
1318.24646 144.0
1318.629517 108.0
1319.345093 96.0
1321.449829 192.0
1324.997437 60.0
1327.215332 168.0
1332.245117 160.0
1339.563477 144.0
1344.784424 220.0
1346.807007 84.0
1348.107422 192.0
1357.206543 132.0
1357.543823 136.0
1359.443848 148.0
1366.056641 92.0
1370.53418 144.0
1371.726929 172.0
1371.815308 196.0
1372.220825 152.0
1374.418823 156.0
1375.245361 100.0
1375.503784 140.0
1384.339111 64.0
1387.621704 152.0
1396.927246 180.0
1402.609009 148.0
1403.637939 72.0
1409.662109 160.0
1410.050781 136.0
1410.327271 128.0
1411.680542 168.0
1415.017822 92.0
1419.026245 176.0
1419.183594 184.0
1420.636597 148.0
1424.812744 120.0
1425.301147 200.0
1426.458618 108.0
1428.759766 136.0
1429.850952 140.0
1430.279907 212.0
1431.574951 180.0
1444.496582 76.0
1446.47168 140.0
1448.296509 176.0
1454.127319 160.0
1458.274292 168.0
1463.622437 120.0
1464.147827 124.0
1464.665771 132.0
1466.006714 152.0
1466.829956 180.0
1479.894043 184.0
1479.99353 112.0
1482.345215 96.0
1491.355347 120.0
1492.554688 216.0
1494.746948 124.0
1498.643311 60.0
1499.999634 184.0
1504.288696 48.0
