>compound QuinineHCl
>formula C20H24N2O2 
>ionization [M+H]+
>parentmass 325.189911
#inchi InChI=1S/C20H24N2O2/c1-3-13-12-22-9-7-14(13)10-19(22)20(23)16-6-8-21-18-5-4-15(24-2)11-17(16)18/h3-6,8,11,13-14,19-20,23H,1,7,9-10,12H2,2H3/t13-,14-,19-,20+/m0/s1
#inchikey LOUPRKONTZGTKE
#Ion_Source LC-ESI
#Instrument qTof
#Compound_Source Isolated
#PI Sirenas
#Data_Collector Ed Esquenazi 
#Scan -1
#Precursor_MZ 325.192
#ExactMass 0.0
#Charge 1
#CAS_Number N/A
#Pubmed_ID N/A
#Smiles N/A
#INCHI_AUX N/A
#Library_Class 3
#SpectrumID CCMSLIB00000004259
#IonMode Positive
#UpdateWorkflowName UPDATE-SINGLE-ANNOTATED-BRONZE
#LibraryQualityString Bronze
#TaskID d19310cd93df49b68e9fcbec27720eb5
##Scan# 3
#SpectrumFile QuinineHCl.mgf
#LibraryName fda_library.mgf
#MQScore -1
#Organism fda_library
#TIC_Query 0
#RT_Query -1
#MZErrorPPM -1
#SharedPeaks 0
#MassDiff 0
#LibMZ -1
#SpecMZ 325.192
#SpecCharge 0
#internalFilename spec-00000.mgf

>collision 10
100.180756 1.3125
100.82946 1.3125
101.037949 41.75634
102.042236 51.851978
102.573486 2.921875
102.744049 6.179598
103.053978 314.287689
103.107605 4.743056
103.279808 3.851974
103.307159 1.3125
103.482368 2.860119
104.046982 11.28241
104.201172 2.25947
104.457863 1.851852
104.576653 6.394737
104.604256 4.444444
104.671371 2.422149
104.714493 1.575
104.817284 4.670493
104.967018 8.040013
104.97406 5.622874
105.069649 1866.667969
105.113205 26.777439
105.129402 11.54741
105.17733 5.005682
105.186554 6.797794
105.192833 4.200833
105.205872 1.334936
105.213005 2.884615
105.229065 3.520833
105.260147 4.27855
105.273682 9.508721
105.284508 1.520833
105.298958 4.006944
105.319389 12.8293
105.337936 5.16886
105.380791 2.340833
105.41655 7.106667
105.509392 1.690476
105.548706 3.241071
105.573723 2.001602
105.602325 2.666667
105.648834 2.240741
105.691719 4.173611
105.712631 6.531863
105.723907 4.833333
105.778938 8.027778
105.833046 4.374281
105.938828 1.669643
106.065369 1757.39502
106.121338 5.221491
106.159264 6.210227
106.191566 3.737319
106.228577 4.681818
106.262299 3.334722
106.290779 1.1875
106.299362 8.135417
106.361588 9.5
106.367905 8.355073
106.38311 2.836111
106.395554 5.002976
106.415428 8.669102
106.469246 5.061484
106.544655 6.480801
106.598511 3.000906
106.618271 3.9375
106.641617 5.670343
106.728157 7.994877
106.745369 1.592803
106.777603 3.683712
107.001175 1.166667
107.073036 789.655273
107.084229 1070.567017
107.127815 4.743056
107.135437 7.196528
107.159576 1.834325
107.165657 17.5058
107.173981 3.356771
107.203072 42.600651
107.236023 20.57251
107.256828 7.676136
107.268341 14.53846
107.292938 2.913691
107.311096 1.224537
107.318123 4.41465
107.332397 1.533333
107.348724 1.083333
107.355598 3.504167
107.411446 2.75
107.460495 2.3125
107.511116 7.460784
107.520004 4.178571
107.545258 3.569444
107.563301 4.682449
107.575279 5.460227
107.592163 1.633333
107.623253 5.479167
107.635468 4.02759
107.646317 2.838542
107.678787 4.571429
107.704056 4.261824
107.722107 3.184627
107.801208 2.095238
107.81601 3.859509
107.90995 3.851974
108.004013 7.505068
108.044724 43.194229
108.080727 5042.849121
108.124359 45.21859
108.141357 5.895102
108.159309 5.932598
108.171288 13.43333
108.17849 4.0375
108.206467 8.872115
108.214394 1.963141
108.25071 5.516768
108.260506 4.340278
108.270432 12.28878
108.286095 17.985229
108.29702 3.714015
108.305702 17.712299
108.317184 9.092803
108.34697 9.741633
108.365532 5.217948
108.388466 4.500992
108.404953 8.256222
108.430122 2.520833
108.441841 8.058501
108.470825 7.0
108.527328 6.738782
108.557823 7.861008
108.587547 3.223214
108.61248 8.778109
108.626846 5.173077
108.635742 2.604167
108.649147 5.200758
108.829819 6.020833
109.064133 124.148201
109.100769 59.39341
109.258492 2.502976
109.314583 4.253472
109.396713 3.833867
109.425774 2.6875
109.436745 2.667659
109.484062 6.335648
109.502274 1.505208
109.527748 6.758621
109.540932 2.486742
109.55249 2.911859
109.582512 2.786706
109.635498 11.79659
109.73941 3.3075
109.795509 4.875
109.804626 3.868421
110.02346 4.833776
110.059608 91.554993
110.096535 2213.552979
110.140266 12.00852
110.154427 7.901464
110.163902 12.62638
110.176804 10.16331
110.189987 4.854167
110.205986 6.556089
110.21434 13.86233
110.248993 15.20922
110.260765 4.613426
110.288994 4.924359
110.314072 9.097917
110.326889 2.816667
110.341164 5.640625
110.366333 4.920259
110.385246 7.717593
110.431831 1.908333
110.449265 8.892636
110.512978 6.338141
110.533348 4.504167
110.544472 2.942402
110.584465 9.835417
110.618881 3.358333
110.693092 2.334722
110.794762 4.051136
110.824036 5.626984
111.007248 3.33443
111.077072 13.53956
111.128242 4.677778
112.072456 56.114861
112.111702 79.388771
112.220116 6.034722
112.423744 6.818182
113.042625 15.35417
114.427315 3.004167
114.475616 4.695513
114.496635 7.018641
114.59951 5.227904
114.605881 2.008333
114.792297 2.501225
115.034164 2.340833
115.054474 1012.992004
115.100525 7.353789
115.146667 4.673913
115.251633 6.001984
115.281097 2.666667
115.303848 10.53354
115.364563 3.953373
115.391312 2.520833
115.404396 3.241071
115.46492 1.006944
115.485649 2.375
115.506012 12.94934
115.523918 10.75449
115.546455 8.619318
115.591248 5.243056
115.602501 3.240036
115.837814 3.017045
116.130554 3.387769
116.204941 2.25947
116.2817 1.633333
116.341263 4.815104
116.386032 8.319642
116.412422 11.38697
116.508446 7.741369
116.534012 5.741837
116.597107 5.000631
116.701103 1.5125
116.794128 1.241071
117.057274 1945.644043
117.068481 752.65448
117.103569 3.6675
117.111359 6.171297
117.118835 14.12942
117.140205 4.907778
117.14875 6.179167
117.160126 5.786859
117.187912 3.047619
117.246674 6.181861
117.254333 6.631944
117.281174 7.085417
117.299408 2.668056
117.313072 5.338955
117.337387 7.234797
117.352013 4.337963
117.363564 9.296068
117.371017 1.677696
117.395081 3.375
117.431328 2.172619
117.478775 6.893518
117.560982 5.510417
117.567085 2.900833
117.58593 2.014423
117.676453 4.921568
118.040207 34.298679
118.160049 6.702587
118.209267 1.901389
118.329887 2.720238
118.489281 2.204167
119.072182 148.0457
119.085266 210.071106
119.133904 1.173611
119.152908 4.898551
119.259361 3.645833
119.361771 5.510732
119.39579 6.838542
119.412819 16.0322
119.422676 3.339382
119.494926 3.503205
119.506332 6.344907
119.548004 6.670139
119.68895 2.534091
119.746063 8.003827
119.86409 3.743056
120.03936 1.501894
120.047005 13.66667
120.080582 1728.652954
120.132332 13.88068
120.143997 1.633333
120.197975 5.826993
120.222343 11.6731
120.237038 15.42264
120.257179 3.523809
120.27607 17.39846
120.298729 12.7373
120.336845 3.667201
120.428452 3.835318
120.478012 4.401464
120.527206 4.145833
120.565926 1.5
120.615585 3.586925
120.669456 2.1125
120.732994 28.16987
121.052834 45.66959
121.06575 96.490822
121.102783 20.804489
121.185547 4.52759
121.246834 5.666667
121.308128 4.667075
121.432343 6.660088
121.461449 2.520833
121.660965 6.963774
121.91996 8.244059
122.060089 70.863907
122.096275 1753.993042
122.144669 7.083181
122.175629 1.175
122.215065 6.963235
122.24128 6.826666
122.261124 18.977539
122.277153 20.797319
122.302536 2.844363
122.325798 2.786706
122.344749 3.020833
122.352577 3.5
122.379532 4.953526
122.408875 12.80876
122.452652 3.565104
122.479599 7.34857
122.530258 1.777778
122.539864 5.944445
122.607132 2.296875
122.613884 11.13583
122.816826 2.901389
123.075188 10.35704
123.146576 3.5
123.15715 2.375
123.393776 2.666667
123.444016 6.215054
123.498138 4.835
123.5252 4.507576
123.556137 2.500992
123.588249 12.12674
123.602539 1.340278
123.703461 12.90179
123.823402 4.900834
123.850243 8.7025
124.007889 7.994971
124.07563 26.134781
124.111458 1127.005981
124.151779 2.547348
124.15934 5.108119
124.239601 4.458333
124.369537 3.834052
124.423859 1.010417
124.481125 5.020833
124.664566 2.191468
124.819878 3.630401
125.083832 241.585007
125.119446 5.835417
125.194107 4.197698
125.399948 2.265931
126.442101 4.339382
126.516441 9.531121
126.68084 5.051445
126.986443 2.505208
127.044052 33.698441
127.051743 58.174129
127.292381 2.553728
128.049255 86.589844
128.059509 53.835751
128.347534 4.153846
128.393784 2.740036
128.426071 6.966667
128.625443 3.6125
128.737839 11.14286
129.058517 336.607086
129.069687 96.277321
129.108276 2.166667
129.167572 1.166667
129.218979 2.666667
129.267822 2.19391
129.294128 10.56275
129.345566 2.677696
129.397125 5.911574
129.531586 3.868421
129.591034 10.45686
130.038773 45.892151
130.064667 411.385498
130.110291 2.167892
130.145981 3.0375
130.22966 5.768801
130.401245 2.893518
130.461334 14.11313
130.76709 1.613426
130.821579 2.666667
131.048279 37.04789
131.072754 822.396729
131.124161 4.833333
131.136063 4.231771
131.153763 8.589352
131.173965 2.520833
131.219772 5.167438
131.248688 4.945216
131.26622 1.888889
131.320023 8.685884
131.502884 2.884615
131.57869 6.344907
131.598862 27.18433
131.754349 3.87037
132.043381 141.082397
132.080017 359.823486
132.113953 1.706731
132.133972 3.335526
132.153793 3.261364
132.726501 3.440476
132.802719 6.406666
132.939636 61.834869
133.051041 16.019051
133.147919 3.15308
133.418076 18.8356
133.463058 3.375
133.497498 7.868333
133.593597 5.833759
133.662018 4.001096
133.722305 5.201754
133.742416 4.342105
133.843018 3.016801
133.877533 6.001082
134.060623 64.346367
134.096039 3602.612061
134.147705 51.581268
134.17569 16.53858
134.194519 10.01294
134.214859 3.580044
134.233704 1.671875
134.248611 24.47102
134.259659 9.986112
134.278046 2.666667
134.289139 1.260417
134.298203 1.52381
134.314331 6.99359
134.334503 7.425287
134.348923 4.045455
134.374908 7.172024
134.387375 10.35853
134.425781 15.43034
134.454071 4.234722
134.46875 3.080044
134.495819 3.013889
134.503006 5.15308
134.518356 3.547619
134.609512 15.29758
134.689224 5.348485
134.798111 4.041667
134.810608 11.19133
134.843018 3.674819
134.912354 1.75947
134.94165 11.7463
135.012741 3.166667
135.076324 9.708333
135.15831 2.834167
135.210892 6.545834
135.223022 5.685928
135.349091 7.26
135.361649 4.018518
135.414093 10.4154
135.437027 7.551136
135.494202 2.183333
135.563049 5.065217
135.595306 8.979167
135.618652 9.525546
135.684738 12.72986
135.700806 6.334936
135.820969 12.7331
135.942184 7.64892
136.075684 344.596588
136.111328 1964.474976
136.162003 5.531863
136.186386 3.782051
136.20462 4.786706
136.240341 6.696272
136.254089 18.01799
136.272827 7.506667
136.292267 11.15185
136.341873 1.0
136.606033 3.500718
136.634506 8.039474
136.666382 5.260417
136.724625 2.666667
136.82962 18.90806
137.018433 0.84375
137.117691 65.032707
137.213867 6.906746
137.241089 7.719017
137.35524 1.2
137.673431 3.502084
137.922699 122.294197
138.090729 82.380478
138.126648 415.467712
138.351944 8.513354
138.360046 8.210784
138.384216 4.225
138.499222 4.522059
138.644058 2.777778
138.715973 1.895833
139.053452 43.68824
139.461212 5.024802
139.590439 3.100833
140.053619 46.515789
140.318863 3.921569
140.417404 3.201389
141.057999 407.715607
141.095779 2.707108
141.27243 4.915213
141.285599 2.25
141.346863 2.5
141.367462 4.724856
141.615829 2.191468
141.972305 7.630297
142.065536 598.088013
142.117218 5.677166
142.239334 15.24564
142.266556 4.849638
142.279007 7.066431
142.304337 2.835648
142.331863 2.375
142.413147 5.20668
142.449188 5.001812
142.774261 4.886905
143.032486 20.139139
143.072876 1928.619995
143.122833 6.568056
143.156036 3.645833
143.169357 8.06891
143.197525 15.14093
143.226532 16.74721
143.255905 8.377736
143.298279 2.407408
143.316223 4.0
143.339111 8.836512
143.360825 2.14881
143.368225 4.834325
143.380493 18.55509
143.407303 29.83523
143.437042 15.7291
143.455917 4.349116
143.469345 3.1875
143.497452 2.673132
143.580826 12.2323
143.668839 5.297861
143.828293 8.680555
143.947876 2.166667
143.989609 4.340833
144.041885 35.066429
144.054947 62.115662
144.079712 779.771729
144.17926 2.786706
144.247772 7.708333
144.281891 13.58201
144.294525 5.25947
144.314804 3.316667
144.474136 4.3375
144.503815 10.82414
144.62146 3.0375
144.850891 4.481482
144.892136 11.38697
144.929733 0.870833
145.052856 2227.719971
145.115707 10.85955
145.136627 3.1125
145.165268 12.76046
145.24939 13.91231
145.270004 6.503334
145.297775 6.922249
145.31485 6.694445
145.341812 11.83144
145.349533 6.335938
145.392105 11.31349
145.416946 9.866161
145.435287 2.060049
145.445007 7.9375
145.488663 5.242608
145.500076 18.83
145.53157 5.864268
145.601944 14.90179
145.781876 3.440476
146.094772 104.018799
146.139114 2.00463
146.193787 4.668561
146.289139 3.746711
146.307388 11.4881
146.362656 1.55787
146.400177 5.371142
146.459595 0.888889
146.488388 1.668561
146.573364 4.815104
146.617722 1.520833
146.633865 4.901515
146.77063 7.5
146.947693 1.514423
147.064819 109.384399
147.209274 5.84741
147.243057 5.473352
147.365494 1.020833
147.403503 2.001096
147.635895 7.364015
148.046204 3.000833
148.073959 54.332161
148.111877 175.884796
148.160522 1.168561
148.380798 4.192842
148.46907 4.226716
148.521088 4.860887
149.081894 44.666931
149.093903 22.20417
149.14032 1.501225
150.425735 6.427083
151.272141 4.836309
151.76268 5.650219
152.047577 28.841909
152.107468 7.563025
152.277588 7.853355
152.58429 1.880208
152.764938 15.831
152.810303 1.741667
152.946884 549.979309
153.001404 1.166667
153.057877 58.277061
153.099869 11.50304
153.212402 2.422149
153.233871 3.670139
153.269165 3.1875
153.287064 13.90865
153.359085 1.928571
153.371704 3.676471
153.420853 1.260417
153.889801 96.462082
154.064911 2214.128906
154.117508 20.48382
154.130966 2.201389
154.160873 1.020833
154.203522 31.633341
154.213074 17.925529
154.224167 8.8121
154.234589 1.837963
154.243225 2.008929
154.253082 5.120989
154.265518 10.37258
154.29953 4.455984
154.327591 3.834722
154.336731 16.56789
154.385849 2.168269
154.395981 7.386687
154.417007 4.27855
154.434036 6.72703
154.482574 6.940104
154.515549 6.059675
154.541504 5.263889
154.57933 1.241071
154.634003 10.68251
154.74498 4.869933
154.857971 3.053571
154.908524 1.963141
154.978607 4.731304
154.987274 1.168269
155.07225 2432.591064
155.126495 30.258329
155.152969 5.238258
155.180084 18.2488
155.190887 2.854167
155.221237 6.160257
155.23848 9.274552
155.254456 29.570511
155.290543 1.380682
155.300766 6.394737
155.311066 3.895833
155.326157 6.074405
155.350403 16.907591
155.420364 3.513889
155.433685 4.076389
155.469452 5.041667
155.506577 3.01864
155.53981 11.46714
155.555145 8.667683
155.568176 1.880208
155.600922 17.28092
155.611557 6.337694
155.699951 1.52381
155.772171 6.669235
155.864761 5.460227
155.906799 6.174242
155.924179 7.292929
155.945908 5.346688
156.042938 57.029308
156.079178 785.72821
156.14299 3.341518
156.19812 4.869933
156.214539 10.10184
156.277954 29.541281
156.293945 5.414978
156.313171 5.560821
156.354996 12.5928
156.426071 5.565188
156.63562 8.394736
156.671188 9.054262
156.685455 1.533333
156.80011 5.583333
157.052521 515.735107
157.08844 268.427887
157.147354 4.967262
157.163971 21.071171
157.178024 6.643282
157.234482 3.229167
157.279541 17.68675
157.299927 8.20179
157.344833 3.080044
157.369751 2.7075
157.395935 1.505952
157.443954 5.333333
157.457047 5.512703
157.483017 10.8875
157.513763 3.83443
157.611191 19.07485
157.731964 5.662725
157.762772 1.333333
157.791443 17.05345
157.808182 11.85038
157.85466 7.599537
157.906998 6.70668
158.008804 10.76644
158.059692 2530.906006
158.112549 13.00193
158.138733 7.844415
158.147018 39.888401
158.187241 9.861878
158.196106 10.39352
158.221344 2.214015
158.231201 33.807892
158.243362 5.246795
158.256927 3.574405
158.277786 10.15308
158.301682 11.20536
158.318192 4.39797
158.336899 8.078526
158.367218 5.532143
158.388016 2.335648
158.410141 5.320076
158.421661 4.334722
158.484512 6.153409
158.50209 9.833758
158.550461 5.180556
158.563416 2.3375
158.611618 7.009827
158.672958 5.182449
158.791885 6.248311
158.940689 1.505952
158.949188 3.426697
159.067734 1606.772949
159.117981 33.725201
159.155502 11.52403
159.170532 9.882107
159.181686 27.64422
159.193634 22.06349
159.201859 51.323078
159.216965 15.61928
159.23996 17.15126
159.269501 47.820469
159.291245 9.75
159.309204 19.97526
159.339539 18.722059
159.35405 21.03624
159.372253 6.323253
159.380615 8.504545
159.401367 2.002315
159.413895 3.919271
159.440765 4.168651
159.458344 3.854167
159.472107 5.667201
159.520889 9.382547
159.533035 6.503409
159.550568 13.52627
159.581375 6.209393
159.594574 1.169643
159.75415 9.524932
159.889999 6.494971
159.898941 5.743806
159.919937 2.871142
160.055969 99.059158
160.075577 15492.910156
160.170044 9.607921
160.210068 48.443932
160.249374 36.319641
160.291367 28.177349
160.307678 7.796297
160.319778 35.182701
160.338165 12.5049
160.359818 31.61404
160.382339 42.295891
160.407425 5.866879
160.426682 35.560242
160.456696 27.62709
160.47171 16.94693
160.484711 6.481771
160.497879 16.687691
160.514572 35.717541
160.533478 33.646839
160.561798 22.071739
160.588104 31.119909
160.608566 17.52
160.623917 7.911574
160.648163 34.609779
160.667252 33.62429
160.686371 2.844363
160.716431 27.579121
160.737671 29.77627
160.759018 9.356419
160.862595 15.51686
160.898102 4.84316
160.97374 11.22011
160.991119 8.798766
161.119659 54.69138
161.129669 7.002315
161.193893 6.058006
161.238037 2.530637
161.526031 3.555556
161.777313 4.642045
161.795746 2.34375
161.839813 6.505068
162.05394 47.841991
162.090347 799.504822
162.145584 4.220833
162.164703 1.168561
162.227737 10.50427
162.268982 2.340833
162.30896 11.55388
162.35762 5.380896
162.406479 3.008929
162.536148 2.391204
162.563416 3.133333
162.66806 2.685185
162.71434 4.160326
162.766434 3.483333
163.019943 3.6125
163.076263 1.224537
163.205399 1.361111
163.282669 1.854167
163.321091 4.166667
163.405533 8.560185
163.707993 3.878942
163.877182 1.666667
164.015274 2.840278
164.08136 2.449074
164.107208 78.489868
164.144714 6.748665
164.309494 5.002083
165.023727 1.166667
165.055038 10.01071
165.069458 57.481739
165.164764 8.761905
165.197662 2.517045
165.223053 22.69981
165.269608 12.46491
165.283035 3.506944
165.301468 7.674903
165.314346 3.520833
165.35907 2.840833
165.390472 2.942935
165.47438 3.314951
165.524643 6.272295
165.735062 1.333333
165.812485 8.947734
165.838089 2.1675
166.012863 2.839382
166.065079 801.567078
166.09108 27.11335
166.122055 1568.813965
166.174652 14.08412
166.196686 11.33667
166.237061 7.671875
166.250992 2.020833
166.280457 9.457395
166.316177 12.34425
166.334869 5.625
166.362671 3.201868
166.433289 2.611111
166.472412 3.035201
166.488297 8.734674
166.514954 9.864015
166.537628 4.229167
166.613113 2.09375
166.720093 9.782586
166.748795 4.511082
166.874924 9.189352
166.915054 2.667385
167.072281 2841.50293
167.148407 32.00758
167.175125 8.829307
167.220078 8.274123
167.279282 21.376591
167.324249 19.20924
167.3423 2.834105
167.360657 11.67001
167.378555 9.1125
167.427826 10.33613
167.450333 2.001602
167.460648 1.270833
167.486649 12.06481
167.529099 16.5704
167.549393 2.670455
167.563782 2.513889
167.576401 4.006465
167.587433 11.88611
167.625946 1.843202
167.698059 8.541326
167.727905 13.50263
167.803909 3.541667
167.848038 9.179378
167.945984 1.835648
167.972946 4.085516
168.005096 2.2
168.243759 2.786706
168.40155 7.47046
168.457993 5.270833
168.505402 4.043269
168.523636 12.79613
168.546066 4.460022
168.646103 5.508975
168.669479 1.666667
168.817154 8.292523
168.82608 9.82008
168.866867 0.833333
168.913147 44.210079
168.928558 6.380029
169.014084 6.047619
169.051926 1997.531982
169.08783 195.648102
169.131866 24.446341
169.165405 12.00158
169.196854 10.56159
169.220398 14.9539
169.238007 8.444445
169.252228 8.080358
169.271027 8.35335
169.286072 8.01875
169.302277 4.12963
169.314789 7.720052
169.327942 12.53472
169.378769 32.191631
169.388184 5.743806
169.42775 5.838624
169.492554 6.609451
169.513962 9.869179
169.523026 6.035904
169.536606 2.3375
169.576096 1.407738
169.614578 2.129808
169.697845 14.62078
169.749115 7.352623
169.868851 10.38558
169.890121 4.704167
169.98381 1.986742
170.060059 1637.119995
170.146744 6.006945
170.185669 6.663221
170.215515 10.05254
170.226395 18.463461
170.241974 6.504167
170.280304 2.837963
170.303528 11.71109
170.331436 9.700105
170.363327 10.90271
170.402054 6.344444
170.430145 3.0
170.443771 3.674819
170.452972 3.125
170.466492 5.175926
170.493729 6.690476
170.596466 19.53076
170.671494 11.42043
170.770935 7.3375
170.822144 3.578526
170.852585 2.25
170.902649 7.901587
171.01738 10.57895
171.032806 27.294531
171.067734 1099.213013
171.105621 16.207109
171.126633 17.41077
171.145004 21.17424
171.168137 42.123539
171.201584 39.73642
171.262527 4.501894
171.271484 34.645142
171.292053 86.147881
171.316925 4.009259
171.327835 24.82535
171.362244 12.77984
171.411667 23.36533
171.438644 7.722223
171.480881 2.001389
171.519073 9.234485
171.53595 14.33889
171.576843 5.020833
171.609558 9.071143
171.630615 16.3873
171.720657 7.566667
171.731674 1.334722
171.749725 1.666667
171.955841 1.963141
171.991486 1.173611
172.018875 8.168873
172.053314 37.39949
172.075699 23307.779297
172.205688 36.10524
172.219101 10.33333
172.233734 42.055462
172.244827 32.167091
172.311203 7.126236
172.326233 66.822159
172.349564 47.628551
172.361252 14.69167
172.372955 81.230629
172.390579 23.000521
172.412003 4.754237
172.426544 59.987469
172.43782 17.21002
172.456253 21.64064
172.471436 23.41787
172.485809 9.964321
172.506744 42.4981
172.530838 12.84287
172.555222 38.462399
172.576508 11.76667
172.589325 10.01103
172.598511 5.367424
172.627563 27.53875
172.636688 15.69345
172.664795 38.05394
172.691345 18.83798
172.755722 14.50508
172.770599 54.807789
172.798798 37.884121
172.814682 14.96998
172.914078 17.30619
172.939575 16.173309
172.974533 12.40833
173.025055 13.18585
173.04982 60.534561
173.138702 63.793209
173.179932 3.0125
173.18956 43.916019
173.217087 16.92894
173.317276 10.33553
173.393982 33.977959
173.418182 8.395833
173.440552 21.94821
173.459335 12.27569
173.480316 12.40894
173.496185 8.353395
173.536285 13.35119
173.585663 17.30382
173.616516 22.37199
173.714859 34.25066
173.737915 31.242559
173.848877 4.667659
174.054398 988.098877
174.090546 2671.643066
174.129456 23.549721
174.153625 25.27438
174.170059 10.03409
174.180176 22.54211
174.248627 9.847336
174.302048 2.055556
174.3358 22.875259
174.349167 9.207487
174.382217 9.390132
174.42218 4.740036
174.465881 10.23958
174.481201 15.62167
174.512909 14.01582
174.578629 11.88156
174.588898 16.239771
174.602036 6.146849
174.636017 3.653409
174.818024 1.666667
174.881836 9.260417
174.942245 3.902778
175.232559 20.27561
175.541016 5.88587
175.670013 4.878623
175.67923 2.7075
175.821304 1.891204
175.970108 7.618055
175.988678 3.336806
176.07045 111.525497
176.108612 140.540405
176.146591 1.520833
176.2099 3.364583
176.276749 11.36338
176.403427 5.426697
176.667389 1.8375
177.325027 4.040948
177.927353 8.730879
178.06427 6.5
178.073776 31.35634
178.13623 6.044225
179.047333 18.684429
179.07431 213.150497
179.124039 1.633333
179.154556 3.0075
179.536575 4.169643
179.610306 2.761905
179.7117 11.91544
179.76506 4.280093
179.812042 6.858334
180.050644 15.87574
180.080597 670.047424
180.138474 16.74581
180.185104 3.554435
180.222458 1.671296
180.279312 3.740833
180.299423 5.426876
180.34166 4.815587
180.377182 2.850379
180.456055 1.52381
180.484222 1.041667
180.534088 12.3999
180.7202 9.625
180.735809 7.489805
180.753006 1.074405
180.765137 3.3075
180.897217 1.125
180.998566 2.367424
181.055496 78.079727
181.087433 754.652527
181.164764 2.8125
181.176468 3.336538
181.209061 5.603257
181.23262 11.79663
181.247147 3.520833
181.308868 28.40122
181.321671 6.342593
181.354446 6.251894
181.37326 5.405357
181.399094 10.83432
181.410675 2.840278
181.449265 3.595109
181.487122 10.17486
181.49971 3.008152
181.523148 5.002315
181.593399 6.195833
181.748199 3.348214
181.795761 9.275735
181.842529 12.20525
181.997742 7.892876
182.060577 1300.175049
182.091721 114.279099
182.162155 14.07016
182.19548 18.916031
182.208115 2.027412
182.217499 28.728901
182.259888 35.068909
182.275909 3.741667
182.330536 13.92199
182.382874 6.077652
182.420578 66.66246
182.436462 11.62081
182.508774 5.84741
182.607483 1.173611
182.619247 3.166667
182.767319 4.174819
182.848404 7.33507
182.917892 5.010417
182.929123 12.44599
182.964951 5.69697
182.988388 20.51499
183.020874 70.856941
183.067688 2422.922119
183.102921 232.942902
183.12294 26.35734
183.145767 8.126894
183.156021 9.44697
183.17572 60.8274
183.264786 5.708333
183.291153 50.87331
183.313339 6.520833
183.330231 8.002315
183.34169 16.36558
183.359436 15.71875
183.393646 11.22418
183.407547 1.333333
183.449203 14.19028
183.491104 11.47147
183.519394 10.6375
183.54187 37.351059
183.557327 7.183477
183.569763 3.983553
183.614288 12.79774
183.64093 12.14165
183.686523 3.688406
183.703293 5.709091
183.728821 18.563129
183.765793 3.006944
183.907028 13.45664
183.973358 4.061275
184.075363 9194.897461
184.134247 68.253677
184.154236 16.43256
184.196838 11.41184
184.230576 14.56088
184.240631 5.306818
184.257339 30.309601
184.273041 55.463039
184.29892 6.908333
184.31575 30.08049
184.346558 35.28101
184.371017 18.43799
184.385162 58.418839
184.421753 2.534722
184.436539 22.142929
184.46254 18.68788
184.473846 6.177332
184.500488 13.32143
184.516403 4.166667
184.547958 31.78894
184.560623 9.640151
184.577866 9.836132
184.591446 11.88888
184.617477 14.19663
184.70137 13.24376
184.733871 11.56468
184.746735 33.56855
184.771667 1.666667
184.808212 20.20668
184.83223 4.926006
184.894699 4.113575
184.937973 47.91954
184.989212 25.829201
185.007339 11.79861
185.045563 66.729683
185.186325 9.315972
185.199402 29.743441
185.258255 11.62054
185.335266 5.162281
185.476685 49.814171
185.522263 8.140151
185.634109 4.017045
185.671249 4.839382
185.793457 11.68079
185.825989 2.222222
185.879929 9.567298
185.915604 10.79672
185.956116 1.180556
186.054901 831.39502
186.091187 9385.808594
186.148438 89.542717
186.169922 77.936989
186.215576 26.3857
186.233673 6.236111
186.244461 15.05417
186.278915 14.20915
186.289734 10.13426
186.324783 40.614311
186.33812 7.461039
186.354767 16.78426
186.391525 36.566471
186.435196 37.786259
186.454239 12.16667
186.501633 5.673611
186.513336 4.083333
186.525452 23.87055
186.548508 10.38922
186.564697 8.74138
186.598068 39.809509
186.626022 6.77726
186.691467 6.355392
186.722443 54.396
186.775803 7.929825
186.793091 6.782892
186.80571 10.24261
186.872894 5.412023
186.930847 8.97331
186.943115 3.053571
186.972397 3.000992
187.005737 24.47682
187.024719 2.691468
187.239182 23.58552
187.278992 5.270833
187.301224 9.271978
187.343613 5.551445
187.493637 4.125
187.588089 4.710227
187.682251 12.55238
187.744965 10.30223
187.843948 5.160714
187.861435 1.760417
188.069855 609.340393
188.109619 34.161732
188.139832 1.004167
188.176559 11.25741
188.205215 9.66396
188.231216 8.470086
188.286331 4.134167
188.301941 5.504206
188.373352 5.670455
188.397461 13.67639
188.53653 17.406521
188.660172 3.780242
188.784744 12.52151
188.927078 4.104167
189.07756 1898.203003
189.13446 24.54384
189.2099 6.762346
189.248306 13.7194
189.261154 6.945833
189.295883 8.995968
189.309296 4.689103
189.335037 5.10049
189.353699 17.28093
189.391953 6.201106
189.483932 4.380208
189.560211 4.166939
189.597137 6.483092
189.727112 6.502976
189.861649 4.011111
190.000473 0.833333
190.26593 9.555555
190.371704 2.486742
191.162704 10.76225
191.287781 1.501389
191.317352 12.85604
191.456223 1.666667
191.489716 3.208333
191.874619 5.377604
192.000916 5.355978
192.079376 397.381409
192.116531 3.835227
192.142868 22.380011
192.237015 9.949106
192.289291 5.456018
192.313568 12.53472
192.32489 7.44676
192.381958 3.336806
192.444565 1.714015
192.483093 3.3075
192.53154 7.163915
192.62291 3.006466
192.907883 3.669444
192.98996 8.709393
193.014191 5.102083
193.048752 34.58437
193.087143 429.244812
193.288849 7.926768
193.363281 7.26
193.410721 5.833333
193.439041 23.861879
193.459122 6.180147
193.493011 7.97338
193.50856 4.483477
193.662155 1.745192
193.712189 9.669642
193.739807 5.724537
193.82811 5.075758
193.847168 3.555556
193.904587 6.723684
193.924683 9.15661
194.016006 3.933333
194.060165 181.347107
194.095673 363.325012
194.141724 1.5
194.166214 2.503205
194.305939 8.412499
194.647781 15.52508
194.852341 3.62963
195.018967 1.427083
195.03508 49.44191
195.067154 827.942627
195.099823 356.731689
195.160889 10.73023
195.200134 3.375
195.214706 3.338401
195.239441 20.43564
195.275452 22.090839
195.313675 12.16697
195.329559 12.85201
195.355499 9.031839
195.375153 6.008772
195.40123 7.363198
195.433502 5.585176
195.467545 2.3375
195.559647 10.05968
195.720551 2.560606
195.89093 4.5375
195.915283 15.69348
195.939651 6.504762
195.97963 1.83631
195.996094 7.085714
196.075165 1750.391968
196.149078 1.741071
196.170181 38.695309
196.188065 1.52381
196.266296 7.893939
196.290604 16.5373
196.321411 5.339015
196.341354 34.434929
196.360092 25.885571
196.378113 17.34094
196.399399 26.863779
196.430954 8.145098
196.482117 3.266667
196.509796 2.334326
196.539062 3.574405
196.556351 15.46518
196.592712 3.193453
196.631729 1.540064
196.707382 15.27024
196.72583 14.26271
196.81221 11.08562
196.846237 2.574074
196.992889 18.48209
197.027069 5.83869
197.0448 45.901402
197.082687 1733.677002
197.145935 60.599072
197.186005 4.336324
197.244904 7.220486
197.322021 11.39881
197.476624 7.360215
197.50592 7.50329
197.516373 14.52079
197.569489 6.17284
197.58812 4.576389
197.623901 6.814134
197.687027 11.76471
197.741226 5.297861
197.803589 12.29982
197.850906 5.815393
197.889648 21.251751
197.944275 2.59375
197.955978 6.210892
198.032501 9.104167
198.054764 225.917297
198.073502 22.500139
198.090942 6939.855957
198.174179 48.099972
198.185699 6.440025
198.21022 50.46497
198.229141 10.80857
198.243408 7.577139
198.255554 11.45833
198.274277 1.720238
198.287155 6.774324
198.306595 15.83494
198.325455 19.222521
198.380341 30.81406
198.412186 16.598961
198.45607 17.28211
198.495743 5.228175
198.52356 38.742649
198.533966 6.338401
198.586411 27.275471
198.635513 17.71537
198.737274 8.172159
198.779541 67.456688
198.7939 19.243179
198.810028 11.01461
198.823883 9.556019
198.836243 8.307789
198.917465 22.829969
198.93602 15.16817
198.999466 8.903166
199.145096 11.41927
199.228455 22.215549
199.256104 7.020833
199.347794 7.537809
199.363571 1.193452
199.401245 3.685307
199.472595 2.1125
199.514236 1.020833
199.574799 10.83723
199.653809 8.994877
199.707672 10.5
199.84491 8.821072
199.859665 2.51282
199.953125 2.009868
200.015015 9.698052
200.046616 12.89153
200.07016 1200.801025
200.107956 610.339478
200.135956 12.38233
200.174866 9.175439
200.193436 0.870833
200.219742 15.68443
200.293976 3.714015
200.308243 10.78815
200.365158 20.45961
200.394394 5.782937
200.417831 3.967949
200.44043 4.171734
200.45607 8.0625
200.470322 7.656609
200.496628 0.888889
200.598099 0.860119
200.612854 3.666667
200.824799 2.001096
200.933731 11.49425
200.953476 5.093364
200.987518 3.005682
201.100174 35.778851
201.327988 10.38848
201.476089 7.192628
201.53006 1.0
201.644012 1.833333
201.787842 4.030637
201.816956 4.009259
201.920761 2.740036
201.932785 12.74053
202.085388 2081.393066
202.133377 11.00023
202.167923 1.873397
202.196091 7.717758
202.207581 3.500563
202.268112 4.872295
202.296631 4.722685
202.327377 8.568055
202.353958 2.9375
202.394928 5.880208
202.422653 9.411319
202.446426 13.5641
202.464905 5.852083
202.599274 7.075255
202.660324 7.836309
202.774979 9.858796
202.877884 9.756945
202.899277 4.440834
203.018005 3.592803
203.071152 51.31815
203.436279 4.195833
203.540543 1.668982
203.699356 4.005067
203.987442 3.022645
204.280029 5.68109
204.290634 5.371913
204.469681 2.500718
204.497543 3.316886
204.668625 6.741667
204.827179 1.724537
205.082687 244.688995
205.121872 2.6675
205.14566 5.500631
205.196625 3.173611
205.410614 3.553728
205.756119 8.214744
205.805344 3.673611
205.834991 2.834559
205.884781 10.96132
205.964935 14.34153
205.980743 2.648284
206.024704 4.004167
206.05806 191.497299
206.094849 392.39859
206.240585 7.667076
206.300583 4.299342
206.314423 4.335526
206.33905 2.041667
206.424423 4.817901
206.558716 7.293356
206.682755 3.640152
206.72937 1.175
206.774399 5.660017
206.848846 3.645833
207.021973 53.016899
207.099426 384.800812
207.14743 2.511111
207.166519 0.84375
207.254807 8.002778
207.31337 1.704167
207.450287 3.172024
207.791153 3.342592
207.876419 2.009868
207.954147 6.0
208.076691 221.085403
208.098724 373.663391
208.147354 4.16875
208.169952 1.104167
208.183151 27.91477
208.275452 9.786948
208.292938 3.170833
208.306213 6.421568
208.336243 2.729167
208.353195 7.351768
208.398392 2.704167
208.433548 5.025641
208.493988 6.432398
208.654617 6.599734
208.709885 4.208333
208.739212 9.273763
208.769821 5.719298
208.825485 2.884615
208.896393 5.817581
209.020081 6.599265
209.083038 614.324402
209.106369 228.115402
209.202637 2.844444
209.254623 1.260417
209.279968 4.387821
209.293976 4.038462
209.424164 2.003788
209.479538 7.553572
209.519836 5.039244
209.625595 3.341486
209.689056 11.03108
209.718857 7.066733
209.756653 2.422149
209.781769 6.069036
209.827652 8.97612
209.872467 2.027412
209.904984 13.03454
209.953827 16.160709
210.018936 10.48062
210.05127 56.343861
210.0914 3207.281006
210.153931 22.469931
210.190002 34.58326
210.215454 13.94907
210.244797 8.123737
210.274506 38.69669
210.304428 5.037037
210.319717 9.818561
210.338409 22.74556
210.368301 7.785697
210.391617 8.972222
210.429413 14.30519
210.467606 2.220395
210.507599 42.443779
210.522552 7.41275
210.533218 1.347756
210.576599 9.747549
210.593796 11.00097
210.62114 3.506944
210.642532 17.181801
210.71492 24.14036
210.740219 6.708333
210.751038 6.449253
210.88475 19.845011
210.967758 2.355978
211.08992 1400.223999
211.132767 45.034401
211.177002 6.540807
211.205658 2.261905
211.220886 14.30486
211.255661 7.179167
211.301865 12.58929
211.351715 3.388889
211.397873 16.52598
211.43631 8.548215
211.470047 5.142241
211.543488 4.190476
211.622543 3.600156
211.692078 14.20833
211.702988 4.710938
211.761612 7.17284
211.772507 13.50606
211.850693 7.920027
211.975159 4.629704
212.069077 115.051598
212.10611 1161.925049
212.167419 13.34514
212.25882 12.44167
212.312134 31.281059
212.369934 18.024019
212.469421 9.798925
212.566574 5.463734
212.587601 7.95919
212.613525 7.006945
212.63559 3.034722
212.662582 14.87238
212.736404 7.486742
213.103287 514.05188
213.117065 87.106941
213.190918 6.149802
213.278 3.364268
213.354218 1.833333
213.424088 7.464527
213.511887 4.505357
213.590302 6.127451
213.783691 7.891304
213.806717 1.334936
213.840988 9.662725
213.85762 8.623547
214.012436 9.081317
214.037766 9.897988
214.086075 1613.993042
214.147675 5.534439
214.26503 3.490385
214.29422 7.986742
214.332794 13.73007
214.381943 4.360119
214.399063 4.700833
214.412476 4.503676
214.432861 4.011905
214.4599 13.19034
214.565536 5.693452
214.695007 1.5
214.886826 4.377604
214.918564 2.707108
214.988495 1.334722
215.092743 180.227203
215.121078 23.166809
215.218109 2.7075
215.238525 3.211111
215.258942 4.171027
215.366135 6.178779
215.448013 1.004167
215.652985 3.763507
215.678162 2.1125
215.693008 4.342593
215.815643 2.0
215.902542 2.340833
215.948547 3.375
216.100403 183.234894
216.589752 5.833929
216.670807 33.628979
216.803146 2.667892
216.924713 3.779166
217.061508 4.191468
217.087479 212.755402
217.312088 5.074405
217.384521 7.008333
217.48024 1.866667
218.096222 485.00061
218.149399 2.852183
218.162704 2.170833
218.183258 6.586021
218.255203 1.0
218.419708 5.820153
218.579117 2.016667
218.779297 11.56864
218.821686 6.037094
218.910339 4.074405
219.005615 2.932598
219.067444 60.092831
219.097061 219.870102
219.124756 8.193334
219.158905 4.927083
219.181076 3.685185
219.493347 22.950871
219.718369 25.889839
219.742737 15.60874
219.768845 9.39307
219.804916 4.236111
219.852081 2.481618
219.902954 8.377901
220.075912 1147.535034
220.096466 89.412064
220.108627 304.44931
220.15065 3.001096
220.169403 2.388889
220.284882 3.666667
220.346558 5.194079
220.393234 4.33443
220.425644 15.91077
220.675156 3.125
220.688492 7.091667
220.786011 5.864015
221.114212 792.14502
221.165085 1.901389
221.181412 5.837963
221.20491 2.500718
221.223175 26.532619
221.256653 5.566431
221.27121 3.492795
221.308533 4.05819
221.387451 1.820076
221.4487 2.0625
221.489395 16.16449
221.504349 10.06124
221.547028 2.1125
221.608276 5.591468
221.685043 12.25
221.779617 7.445585
221.84845 16.92045
221.902679 2.482143
221.924713 3.024801
222.032578 9.423612
222.122299 102.852501
222.251328 4.911574
222.266586 1.677083
222.313568 2.560606
222.339844 3.609601
222.372665 10.87895
222.391632 18.346041
222.40744 2.1125
222.682083 8.362492
222.826599 7.380952
222.94165 4.358232
223.098099 1589.180054
223.13295 58.20594
223.161469 11.03371
223.196243 2.342262
223.247482 6.0675
223.284164 15.39423
223.305405 27.703751
223.363968 6.94183
223.393555 11.94232
223.414597 4.66821
223.469833 11.90738
223.537323 2.927083
223.589172 4.524802
223.611343 6.31579
223.701202 6.219298
223.752716 5.667262
223.841187 3.364268
223.882538 8.039245
223.924744 5.142045
224.049408 10.37658
224.106522 1575.349976
224.157455 9.141144
224.181747 4.467659
224.203888 9.699382
224.25296 7.501488
224.276917 14.64482
224.356766 4.861162
224.369492 14.2169
224.419327 11.97661
224.452744 27.48243
224.481842 9.020877
224.533966 5.025641
224.604355 6.145833
224.664322 12.07702
224.692566 22.19136
224.722214 5.5875
224.753189 6.251115
224.768616 8.880888
224.821854 11.17462
224.951202 3.842592
225.165192 6.82118
225.237045 3.279166
225.262222 24.81234
225.379257 6.118055
225.407852 33.358341
225.487732 6.214637
225.509476 4.711051
225.562088 7.333686
225.583008 7.3416
226.08873 82.00563
226.122467 1426.301025
226.184372 8.170834
226.202026 2.865278
226.305298 9.866667
226.384872 3.826993
226.430664 8.778409
226.478424 14.61667
226.508591 6.087662
226.547073 10.97444
226.701111 22.844259
226.744461 6.255435
226.781128 3.666667
226.823044 8.53125
226.912125 2.835938
227.038422 4.388889
227.118927 700.702881
227.173019 5.907407
227.231903 1.173611
227.26738 13.16002
227.366653 5.604167
227.44696 4.571429
227.489304 2.001389
227.525665 6.6125
227.620132 1.334936
227.667664 7.969086
227.683334 2.786706
227.740982 9.411765
227.782471 2.002976
227.803879 3.529166
227.859863 12.74485
228.109619 91.621643
228.137985 23.41048
228.371857 9.126302
228.681274 2.893382
229.08403 11.82753
229.09996 21.96314
230.095932 108.435799
230.115936 30.323441
230.273178 3.621408
230.320648 2.041667
231.103271 141.452301
231.285355 10.54688
231.398529 13.86012
231.562057 4.815587
231.817215 3.334326
231.917877 5.251736
232.019974 2.168269
232.03537 2.851974
232.072113 233.747498
232.110626 267.850403
232.151123 1.901389
232.372131 11.99725
232.645203 10.95076
232.660126 3.895833
232.707962 8.678386
232.755753 5.002083
232.787552 4.85335
232.906494 8.265625
232.957397 11.83369
233.056152 12.52371
233.092133 46.3685
233.117798 227.214996
233.160202 2.6875
233.258163 5.160326
233.30275 8.002885
233.376068 5.498665
233.427582 1.479167
233.441971 7.246795
233.483398 5.668561
233.610992 1.833333
233.70961 4.911574
233.861572 5.297861
234.036682 7.741072
234.090439 604.184509
234.126236 109.297096
234.169022 5.344577
234.282684 6.903409
234.420761 3.370471
234.505142 3.336111
234.558426 4.558624
234.602371 18.269979
234.630356 0.9375
234.718674 8.285354
234.769897 7.1875
234.803574 7.003677
234.819656 1.720238
234.862228 17.50827
234.896591 6.366512
235.001785 27.95476
235.093109 440.413086
235.121658 60.815632
235.13385 117.887901
235.181107 8.323138
235.384995 8.136261
235.417023 5.201106
235.437653 6.19853
235.454391 1.666667
235.550201 2.969697
235.566757 2.673611
235.646606 5.167201
235.705353 2.852623
235.742783 7.541667
235.760651 2.19391
235.828217 5.50399
235.933929 15.33793
236.025848 7.687295
236.041763 6.954545
236.057449 8.423963
236.104965 935.062683
236.139389 184.270599
236.175598 6.350379
236.195175 3.006944
236.207748 2.173611
236.248749 11.00298
236.286026 29.60026
236.307983 19.32338
236.382278 22.996639
236.402451 4.066123
236.445328 22.243509
236.472412 1.416667
236.49649 1.361111
236.545959 6.302083
236.573547 16.341829
236.958633 3.9675
237.103348 1236.952026
237.189941 2.043982
237.202744 1.166667
237.236542 6.908406
237.278229 8.198576
237.344315 13.28598
237.414932 8.199677
237.460464 4.205883
237.485657 11.13625
237.589142 4.500563
237.628311 8.940217
237.675629 8.580066
237.713333 8.45
237.750046 2.855978
237.89238 3.291667
237.910416 8.394817
238.077927 7.176879
238.120895 849.01178
238.258698 6.724537
238.300903 8.631576
238.335098 2.016667
238.361954 3.505357
238.417526 6.930108
238.469376 3.356771
238.497284 10.71456
238.715515 9.629766
238.737869 5.260417
238.759567 10.41503
238.936996 3.334105
239.091446 26.590281
239.122574 479.267609
239.296753 6.024802
239.345871 5.507576
239.403122 4.757977
239.445251 3.966009
239.529861 4.201389
239.615143 3.691468
239.685364 11.06322
239.778137 4.28125
239.943649 3.55819
240.003052 13.79487
240.04567 1.0
240.096893 162.6129
240.13562 459.066315
240.175598 7.169445
240.412598 9.503676
240.708862 4.934166
240.765594 3.12963
240.875671 2.092803
240.898422 5.011574
240.97403 3.387769
241.217102 6.348333
242.116806 217.886398
242.15239 26.724079
244.056656 6.521719
244.135269 127.813103
244.193115 2.047348
244.954269 5.129498
245.082947 24.56138
245.10556 29.90827
245.118393 35.401909
245.695343 6.014493
245.858902 8.338235
246.092987 291.471008
246.128632 61.317539
246.25444 3.182449
246.268188 9.838725
246.518906 3.974167
246.650436 7.935381
246.694061 2.722222
246.923752 6.278241
247.00029 1.701389
247.04953 8.345035
247.127365 92.952698
247.171722 1.704167
247.504364 2.677083
247.569229 3.500631
247.722519 3.669872
247.754013 3.742424
248.106812 903.5578
248.180252 13.18919
248.199127 2.722222
248.236557 23.38241
248.352615 4.0
248.370712 1.908333
248.429367 6.715054
248.473114 5.901756
248.555496 3.688725
248.582733 5.667892
248.59938 6.487654
248.62204 8.65661
248.637772 3.667339
248.676086 20.677851
248.807861 4.741667
248.879196 2.333333
248.895676 2.669872
248.958527 6.689752
249.010895 1.668982
249.038391 5.104167
249.109573 681.733398
249.155884 2.722222
249.219589 5.188725
249.269028 6.0
249.407059 6.306159
249.430191 13.14849
249.450317 6.405187
249.465988 4.697304
249.488586 4.508929
249.54039 9.144841
249.560211 1.514423
249.642654 4.168403
249.659744 8.847281
249.68663 3.743056
249.725067 19.65332
249.752655 21.002451
249.785583 4.522685
249.802094 6.195652
249.879074 6.011082
249.898117 7.564637
249.973923 3.78125
250.005768 4.349116
250.066086 4.34741
250.12149 990.365173
250.187119 20.82448
250.310745 12.43723
250.357849 7.581667
250.37941 8.173132
250.489822 3.791667
250.522903 5.521719
250.561447 6.10947
250.627533 3.342592
250.792786 8.25
250.893082 15.09575
250.919724 4.607417
251.083939 9.160018
251.117859 5234.337891
251.174011 15.5248
251.212814 27.1157
251.25592 29.48872
251.283508 34.995079
251.311447 27.95212
251.331924 1.908333
251.351639 5.48992
251.381744 51.763599
251.415756 10.33382
251.435165 3.826993
251.459854 9.217709
251.475586 36.42107
251.510025 3.201389
251.53157 4.011111
251.546585 23.860941
251.584808 14.17544
251.605179 19.547819
251.64325 16.949841
251.668152 10.04943
251.694305 11.38304
251.729874 7.506945
251.746674 2.068056
251.771301 4.858135
251.825775 16.834431
251.858887 14.23381
251.936264 13.92751
252.010651 2.245833
252.029907 5.541667
252.06694 2.368056
252.201157 12.52501
252.337982 11.86651
252.350342 29.889021
252.525925 11.04711
252.566925 12.32444
252.61969 3.66875
252.66452 14.87376
252.720245 13.18807
252.957077 7.120535
252.973694 9.833579
253.101578 13.30083
253.132751 2628.509033
253.179199 10.03409
253.202026 13.88714
253.265152 16.516479
253.37355 27.374201
253.411942 3.361111
253.427612 2.367424
253.444229 6.476038
253.488541 4.761905
253.501633 8.588948
253.52211 13.55319
253.572632 5.261364
253.632568 2.191468
253.651154 8.4105
253.737762 0.860119
253.780014 6.633772
253.807709 8.321241
253.820984 1.347756
253.843231 7.083333
253.938797 7.190217
253.98175 6.091912
254.037216 5.435417
254.150101 332.879211
254.285797 4.541165
254.388245 8.33507
254.408829 2.740036
254.469864 2.5
254.564896 16.19533
254.61972 3.551136
254.703369 8.360015
254.79184 6.001437
255.04245 13.06282
255.323624 6.741072
255.421967 3.316886
255.519821 1.166667
255.858276 6.454741
256.13208 27.034031
256.183411 2.482143
256.24881 7.520016
256.509857 1.745192
256.712158 0.888889
257.01297 7.126689
257.119293 7.111111
257.821686 2.175595
258.128143 33.715939
258.721222 2.010417
259.101471 28.734461
259.13446 72.169746
259.533813 3.528846
260.105743 422.608093
260.561401 7.644994
260.633606 11.27394
260.728943 3.040833
260.76004 7.774167
261.184174 1.0
261.50473 2.181818
261.585358 3.408334
261.741058 4.044643
262.123291 371.223785
262.270386 2.907407
262.444733 36.72411
262.490173 2.722222
262.518066 12.74535
262.549347 8.230556
262.563934 6.153409
262.59729 25.56492
262.685364 13.37215
262.789429 7.644342
262.834381 9.205247
262.874969 5.041667
262.924377 3.100833
263.120972 649.544373
263.190552 6.551322
263.251129 1.166667
263.279846 4.170139
263.308075 2.840833
263.325012 3.688725
263.3815 8.314951
263.457916 10.97734
263.477417 9.333664
263.574493 5.889423
263.644745 4.648809
263.722015 10.72679
263.758698 7.729167
263.895477 3.167339
263.925476 10.41325
263.980255 9.17326
263.997223 3.169271
264.064972 0.833333
264.098816 17.67227
264.138428 1222.764038
264.197876 16.674601
264.240601 4.837963
264.26297 14.60652
264.333221 2.006944
264.378052 3.520238
264.395355 6.677083
264.424072 23.5767
264.455292 10.22464
264.475006 25.774
264.620361 22.16448
264.636353 5.333868
264.65332 2.208333
264.685577 1.633333
264.7453 10.45049
264.801422 10.05403
264.949799 10.76266
265.079712 14.34375
265.133759 1267.141968
265.202209 7.063907
265.233063 14.04152
265.277557 4.299342
265.319153 6.367758
265.36264 25.39073
265.438049 9.609375
265.497253 1.880208
265.516296 2.133333
265.531372 2.679167
265.551941 15.77391
265.603088 15.27649
265.667358 2.844445
265.768921 16.534809
265.808899 8.392262
265.882874 1.667763
265.911377 3.125
266.012085 5.260417
266.039886 10.22768
266.150055 464.468292
266.216003 3.570833
266.237305 6.508152
266.297119 7.449038
266.467804 5.069444
266.498718 8.214711
266.547424 14.40872
266.569702 2.841486
266.630402 9.291919
266.723083 5.480072
266.805389 9.195402
266.922363 5.081644
267.107452 12.0384
267.162048 38.739861
267.701202 2.5
267.946014 1.002315
268.12973 56.697559
268.169708 195.523804
268.283752 6.949253
268.401764 5.839015
268.493164 8.720239
268.52417 1.173611
268.641205 4.3375
268.715851 9.713384
270.143982 30.710131
270.337463 4.513889
272.337677 4.130401
272.651398 1.574405
272.7164 5.320076
273.820221 9.206731
273.878235 5.026175
274.121826 101.135803
274.667328 3.711051
275.059631 2.347222
275.125305 60.271851
275.151642 80.637154
275.258301 4.133333
275.273621 1.866667
275.437103 3.12963
275.533447 6.260417
275.575256 7.753623
275.688904 3.080128
275.966431 7.851191
276.132294 155.349792
276.160217 108.942398
276.261963 2.666667
276.404083 14.4312
276.462402 11.22268
276.4953 1.25
276.512054 8.405349
276.573517 15.54366
276.590729 5.16706
276.613892 2.0
276.691315 3.491071
276.83374 3.086806
277.132507 640.948975
277.204376 2.0125
277.265106 4.123529
277.285461 5.759804
277.33197 8.864268
277.35498 1.168269
277.382507 2.501389
277.425476 1.741667
277.45929 5.599734
277.511414 5.167438
277.540405 6.016304
277.5578 5.012112
277.621613 6.700379
277.727234 2.334722
277.822815 1.520833
278.086578 8.660714
278.110077 34.38192
278.15213 721.596313
278.213135 3.861408
278.31134 11.98864
278.549683 5.525
278.713776 6.778241
278.755981 1.395833
278.829651 2.847222
278.934082 25.98382
278.962189 13.36618
278.99704 7.503178
279.148407 858.69751
279.21106 11.38889
279.272614 7.996362
279.36441 2.347222
279.391754 2.078526
279.649841 3.632675
279.6698 10.24228
279.729675 4.2
280.13092 7.467129
280.166656 144.122604
280.346802 5.104167
280.521576 2.740036
280.766266 1.354167
281.423126 9.002778
281.489563 7.001096
281.57135 2.722222
281.87616 1.963141
282.149475 320.195007
282.693298 1.677696
282.75827 1.408333
283.109192 22.481991
283.706909 2.481618
284.010925 5.500463
285.4021 0.833333
286.396973 2.1875
288.136719 10.07576
289.141998 14.42181
289.442078 7.60947
289.886658 20.81325
290.148254 392.34671
290.17691 1.208333
291.089569 19.19858
291.107758 5.856771
291.197266 7.840278
291.303589 1.52381
291.398621 12.04194
291.434937 1.427083
291.487549 4.927083
291.517761 2.560606
291.575775 8.143283
292.040344 7.455883
292.122955 10.27917
292.153809 111.477798
292.290405 8.308013
292.424896 2.006944
293.265778 3.92803
295.181061 85.648621
295.278442 4.9
295.369019 3.453373
295.397064 6.194256
295.451141 6.46007
296.161072 146.107895
296.182312 40.00238
296.258667 9.835975
296.414246 2.340278
296.798035 2.008333
296.815857 6.722222
297.003113 2.520833
297.193695 127.889603
297.276733 2.861111
297.973694 11.00029
298.007202 11.85417
298.177917 7.5
298.329193 9.058249
298.490875 4.745098
300.145538 7.232527
303.172699 3.051282
303.293854 1.847756
303.449158 4.444444
303.874786 8.590278
304.512817 4.928491
305.085907 2.19391
305.165588 91.789017
305.216949 12.04518
305.253937 8.739207
305.320801 8.001302
305.351593 8.444776
305.370941 2.520833
305.490967 2.018518
305.521423 3.333333
305.540253 4.190476
305.588318 6.88436
305.639954 10.58955
305.928589 2.401389
305.979095 4.855511
306.123718 3.0625
306.738831 9.05754
306.805847 2.906703
307.016937 1.505208
307.140198 11.02462
307.181183 2398.302979
307.25827 4.25
307.274536 5.030637
307.287384 12.85536
307.331665 14.44014
307.363647 3.354167
307.397034 1.041667
307.421722 22.250601
307.481659 5.8875
307.529236 8.091049
307.581299 10.49964
307.620758 9.921997
307.657135 8.640203
307.683929 5.333333
307.771973 10.76853
307.817902 11.84365
307.861084 4.00463
307.887726 8.027778
307.971039 12.08645
308.003357 16.365669
308.596283 6.446509
308.636627 1.183712
308.685089 2.5075
308.817261 5.755208
308.900024 3.845834
309.9888 2.560606
313.754852 2.834326
323.122528 1.52381
323.264099 6.487179
323.297638 3.000718
323.3396 1.928571
323.385162 1.354167
323.561096 1.720238
324.359863 3.25947
324.620392 2.520833
325.112427 2.815476
325.189911 1687.000977
325.266052 5.478571
325.294159 17.286421
325.370178 1.860119
325.402802 3.5
325.465576 9.861856
325.486938 3.25
325.510162 2.010417
325.54715 2.704167
325.582336 4.340278
325.65155 21.553329
325.837708 7.33507
325.8862 6.870833
325.91861 4.942935
325.948517 6.413889
325.986755 33.080238
326.041779 19.345791
326.564819 2.220395
326.615112 7.034722
326.716492 5.482456
326.898102 4.363636
327.878174 4.578526
328.116333 4.708333
328.843231 3.148284
330.240265 10.5875
374.50824 7.953894
382.575897 3.001096
442.403442 7.766447
449.283997 3.547348
479.447052 17.228661
492.416321 4.203703
553.014954 1.193452
579.417969 1.520833
907.967163 10.9289
979.615601 7.288074
1097.179688 23.520491
1206.225098 4.980183
1230.156982 5.0625
1268.214233 6.371795
1439.787476 4.911574
1467.988525 8.060012
1543.884521 6.86095
1660.072632 2.240741
