>compound NATEGLINIDE
>formula C19H27NO3
>ionization [M+H]+
>parentmass 318.207153
#inchi InChI=1S/C19H27NO3/c1-13(2)15-8-10-16(11-9-15)18(21)20-17(19(22)23)12-14-6-4-3-5-7-14/h3-7,13,15-17H,8-12H2,1-2H3,(H,20,21)(H,22,23)/t15-,16-,17-/m1/s1
#inchikey OELFLUMRDSZNSF
#Ion_Source LC-ESI
#Instrument qTof
#Compound_Source Commercial
#PI Dorrestein
#Data_Collector Garg_Neha
#Scan -1
#Precursor_MZ 318.206
#ExactMass 317.199
#Charge 1
#CAS_Number N/A
#Pubmed_ID N/A
#Smiles CC(C)[C@H]1CC[C@@H](CC1)C(=O)N[C@H](Cc2ccccc2)C(=O)O
#INCHI_AUX N/A
#Library_Class 1
#SpectrumID CCMSLIB00000079000
#IonMode Positive
#UpdateWorkflowName UPDATE-SINGLE-ANNOTATED-GOLD
#LibraryQualityString Gold
#TaskID 278b19f5865741e282cec7349aa7e7a1
##Scan# 1971
#SpectrumFile NCP003352_C2_D11_BC5_01_15719.mzXML
#LibraryName NIHcollectionI_05062014.mgf
#MQScore -1
#Organism NIHcollectionI_05062014
#TIC_Query 0
#RT_Query -1
#MZErrorPPM -1
#SharedPeaks 0
#MassDiff 0
#LibMZ -1
#SpecMZ 318.206
#SpecCharge 0
#internalFilename spec-00000.mgf

>collision 10
53.923737 192.0
54.860229 164.0
57.509602 212.0
58.303223 172.0
59.051796 172.0
60.013115 168.0
66.658714 168.0
88.22641 192.0
94.664139 164.0
95.030487 164.0
103.056664 324.0
105.062744 148.0
107.047356 204.0
107.092102 200.0
109.865654 160.0
118.379578 240.0
119.911163 164.0
120.081139 6496.0
121.085411 648.0
125.13279 4416.0
127.885521 148.0
149.058655 156.0
153.128311 1140.0
165.996475 160.0
166.027237 212.0
166.086533 11836.0
166.149841 140.0
166.235748 244.0
167.089981 1284.0
168.096527 164.0
201.6185 192.0
272.200439 1112.0
273.208466 172.0
286.099945 140.0
289.083649 140.0
296.065826 184.0
300.19397 752.0
316.258087 192.0
317.2005 128.0
317.96994 148.0
318.207153 5468.0
318.271667 192.0
319.208527 1324.0
320.215637 268.0
320.96402 140.0
321.241913 252.0
321.277313 120.0
327.005157 164.0
1443.914062 140.0
1729.268433 144.0
1757.389526 176.0
1835.815308 176.0
1923.985107 172.0
