>compound MLS001075526-01!
>formula C21H24N2O3
>ionization [M+H]+
>parentmass 353.186127
#inchi InChI=1S/C21H24N2O3/c1-26-18-8-5-15(6-9-18)7-10-20(24)22-12-16-11-17(14-22)19-3-2-4-21(25)23(19)13-16/h2-6,8-9,16-17H,7,10-14H2,1H3/t16-,17+/m1/s1
#inchikey JHNDYDHNIKYTGK
#Ion_Source LC-ESI
#Instrument qTof
#Compound_Source NIH Natural Product Library
#PI Dorrestein
#Data_Collector VVP/LMS
#Scan -1
#Precursor_MZ 353.186
#ExactMass 352.179
#Charge 1
#CAS_Number N/A
#Pubmed_ID N/A
#Smiles COc1ccc(CCC(=O)N2C[C@H]3C[C@@H](C2)c4cccc(=O)n4C3)cc1
#INCHI_AUX N/A
#Library_Class 1
#SpectrumID CCMSLIB00000079865
#IonMode Positive
#UpdateWorkflowName UPDATE-SINGLE-ANNOTATED-GOLD
#LibraryQualityString Gold
#TaskID b1d8e8f6646f4e71acdff9ca3d919d08
##Scan# 1694
#SpectrumFile p1-B12_GB12_01_17896.mzXML
#LibraryName NIH_Natural_Products_Library.mgf
#MQScore -1
#Organism NIH_Natural_Products_Library
#TIC_Query 0
#RT_Query -1
#MZErrorPPM -1
#SharedPeaks 0
#MassDiff 0
#LibMZ -1
#SpecMZ 353.186
#SpecCharge 0
#internalFilename spec-00000.mgf

>collision 10
95.002914 44.0
95.058655 152.0
95.093582 136.0
95.283882 108.0
95.309135 80.0
95.365494 164.0
95.495758 212.0
95.509377 56.0
95.611839 228.0
95.900734 172.0
95.941666 132.0
96.054764 172.0
96.085976 180.0
96.115242 244.0
96.165985 148.0
96.2304 80.0
96.255783 132.0
96.337814 156.0
96.468742 148.0
96.580467 144.0
96.600677 208.0
96.83268 72.0
96.856178 212.0
96.911964 244.0
96.926704 164.0
96.969818 144.0
97.059998 204.0
97.085487 160.0
97.116867 196.0
97.311142 152.0
97.326843 188.0
97.348442 188.0
97.431213 144.0
97.530769 204.0
97.662888 224.0
97.678627 144.0
98.084251 76.0
98.105934 228.0
98.178886 208.0
98.508499 92.0
98.63694 140.0
98.712067 136.0
98.7714 112.0
98.860428 156.0
98.884178 208.0
98.96138 192.0
99.044548 168.0
99.15947 140.0
99.210999 144.0
99.248672 180.0
99.303596 224.0
99.403389 124.0
99.435143 116.0
99.576096 84.0
99.733055 176.0
99.790703 44.0
100.073227 152.0
100.184753 224.0
100.250504 84.0
100.398018 256.0
100.431923 140.0
100.541656 64.0
100.680756 136.0
100.712891 188.0
100.777283 80.0
100.865211 100.0
100.919189 160.0
100.967178 196.0
101.063194 200.0
101.111816 108.0
101.173271 180.0
101.433685 232.0
101.57605 192.0
101.660316 160.0
101.680382 100.0
101.935753 148.0
102.043961 128.0
102.233032 208.0
102.337708 256.0
102.415794 196.0
102.589531 216.0
102.696404 168.0
102.71254 192.0
102.807365 36.0
102.841675 36.0
102.867912 160.0
102.8881 64.0
102.916367 100.0
102.993469 176.0
103.05294 656.0
103.247757 176.0
103.294281 72.0
103.405563 148.0
103.466286 132.0
103.828979 156.0
103.889832 44.0
104.050179 476.0
104.153717 184.0
104.259361 132.0
104.317902 80.0
104.417938 176.0
104.521683 152.0
104.578568 168.0
104.73748 116.0
104.88826 120.0
104.958862 280.0
105.032013 168.0
105.06752 740.0
105.153412 68.0
105.192192 152.0
105.35556 144.0
105.394379 208.0
105.492477 48.0
105.535408 144.0
105.631523 204.0
105.664253 168.0
105.748154 104.0
106.039619 348.0
106.082123 240.0
106.149681 52.0
106.266594 160.0
106.337105 144.0
106.391785 212.0
106.463646 156.0
106.607445 156.0
106.798645 136.0
106.819214 188.0
106.83567 144.0
106.901505 116.0
107.046341 156.0
107.084435 168.0
107.125877 172.0
107.16507 152.0
107.216583 208.0
107.264198 196.0
107.571335 48.0
107.76133 200.0
107.846054 180.0
108.018997 256.0
108.044563 256.0
108.18943 172.0
108.328171 152.0
108.415192 112.0
108.549934 100.0
108.58519 156.0
108.730415 116.0
108.805138 52.0
108.850815 144.0
109.237381 48.0
109.373093 164.0
109.410103 128.0
109.582962 188.0
109.71843 172.0
109.741356 180.0
109.812256 156.0
109.828941 180.0
109.904045 204.0
109.943695 172.0
109.989609 152.0
110.058647 432.0
110.094002 184.0
110.142036 184.0
110.242317 132.0
110.445114 200.0
110.736038 68.0
110.830307 188.0
110.914131 128.0
110.9338 168.0
110.956055 164.0
111.00428 140.0
111.029449 228.0
111.052513 172.0
111.100761 172.0
111.403053 116.0
111.531227 112.0
111.58168 204.0
111.899361 80.0
111.997246 240.0
112.025719 192.0
112.048897 56.0
112.097351 64.0
112.289192 136.0
112.312393 152.0
112.886833 136.0
112.905869 156.0
113.004654 228.0
113.013275 160.0
113.018333 192.0
113.134384 44.0
113.208488 128.0
113.229668 208.0
113.248726 152.0
113.475464 144.0
113.585739 148.0
113.643021 124.0
113.79583 88.0
113.819458 188.0
114.299568 196.0
114.43856 120.0
114.569061 152.0
114.665016 208.0
114.86158 248.0
114.975075 124.0
115.015625 120.0
115.064728 164.0
115.092484 160.0
115.148003 148.0
115.303963 188.0
115.323196 136.0
115.353119 144.0
115.374496 188.0
115.513603 160.0
115.608551 168.0
115.725357 160.0
115.742493 204.0
115.78746 116.0
115.875282 60.0
115.918137 108.0
115.93956 84.0
116.053169 96.0
116.203308 60.0
116.355682 168.0
116.493118 120.0
116.508156 116.0
116.538239 116.0
116.641388 140.0
116.712334 144.0
116.903778 192.0
116.966187 116.0
116.988892 228.0
117.060471 352.0
117.420807 120.0
117.435905 96.0
117.664635 92.0
117.685936 180.0
117.779083 148.0
117.86982 160.0
117.895752 172.0
117.952888 192.0
118.005989 132.0
118.066795 152.0
118.101135 76.0
118.142235 140.0
118.22229 160.0
118.272072 184.0
118.321854 52.0
118.49295 140.0
118.614304 92.0
118.737885 172.0
118.802956 184.0
118.965714 152.0
119.004791 172.0
119.062721 200.0
119.085136 164.0
119.245911 136.0
119.467697 136.0
119.569962 172.0
119.600433 128.0
119.628731 76.0
119.753319 200.0
119.79641 144.0
119.896629 216.0
119.982986 240.0
120.019997 236.0
120.055771 344.0
120.082054 872.0
120.122475 220.0
120.171379 88.0
120.280495 52.0
120.361267 164.0
120.415863 136.0
120.437706 36.0
120.483574 52.0
120.531647 100.0
120.634361 188.0
120.713074 136.0
120.75444 144.0
120.775963 148.0
120.842117 176.0
120.872925 200.0
120.892448 160.0
120.91433 76.0
120.953728 132.0
120.98761 196.0
121.031937 800.0
121.065353 68368.0
121.113022 48.0
121.165825 56.0
121.189384 72.0
121.253784 48.0
121.291924 120.0
121.380936 196.0
121.423927 112.0
121.444527 36.0
121.475235 52.0
121.519463 76.0
121.562996 48.0
121.59153 104.0
121.614349 140.0
121.665916 112.0
121.682518 48.0
121.712257 28.0
121.740807 40.0
121.767159 216.0
121.788872 104.0
121.813286 100.0
121.846237 104.0
121.957382 144.0
122.022057 48.0
122.067337 3308.0
122.143005 112.0
122.180397 204.0
122.206802 72.0
122.2332 44.0
122.308029 88.0
122.376274 48.0
122.437195 40.0
122.499596 112.0
122.528236 120.0
122.629601 28.0
122.658257 116.0
122.768486 136.0
122.783928 156.0
122.799362 156.0
122.828041 60.0
122.858917 64.0
122.905251 108.0
122.942703 136.0
122.958549 148.0
122.974518 72.0
123.014847 132.0
123.030334 160.0
123.043747 96.0
123.069397 388.0
123.143661 216.0
123.285774 244.0
123.380096 56.0
123.568077 36.0
123.698128 136.0
123.842567 104.0
123.931183 56.0
123.975494 128.0
123.993225 36.0
124.090759 216.0
124.201637 104.0
124.230476 196.0
124.430199 104.0
124.465729 72.0
124.61454 208.0
124.650093 188.0
124.778999 192.0
124.948021 68.0
124.96582 40.0
125.059288 104.0
125.094902 216.0
125.155006 56.0
125.230721 40.0
125.400047 152.0
125.565033 192.0
125.631943 196.0
125.85289 48.0
126.125435 172.0
126.154495 112.0
126.404991 144.0
126.463173 144.0
126.490036 52.0
126.738617 92.0
126.817055 92.0
126.87085 108.0
127.406769 148.0
127.49707 188.0
127.81189 152.0
127.874901 160.0
127.94693 152.0
128.046005 128.0
128.199661 156.0
128.386169 204.0
128.415619 200.0
128.447189 76.0
128.557755 92.0
128.699951 148.0
128.790283 112.0
128.849014 148.0
128.896469 96.0
128.939407 140.0
128.995911 132.0
129.112518 132.0
129.133835 128.0
129.652267 52.0
129.751999 188.0
129.788284 120.0
129.928894 92.0
130.006042 124.0
130.041351 216.0
130.063934 752.0
130.142242 128.0
130.355759 200.0
130.376205 128.0
130.505768 152.0
130.594452 132.0
130.962738 168.0
131.05455 200.0
131.073517 196.0
131.115814 196.0
131.195602 168.0
131.25943 72.0
131.419098 28.0
131.469299 140.0
131.602295 148.0
131.752426 68.0
131.900955 140.0
131.960388 184.0
132.022125 80.0
132.040421 156.0
132.080399 132.0
132.120483 160.0
132.136505 152.0
132.303558 228.0
132.53717 68.0
132.601334 88.0
132.764099 116.0
132.780151 140.0
132.904022 52.0
133.052109 1452.0
133.079178 244.0
133.259903 124.0
133.287476 104.0
133.501251 280.0
133.544952 228.0
133.81189 128.0
133.863556 72.0
134.059799 944.0
134.095215 252.0
134.137085 48.0
134.18512 176.0
134.441147 260.0
134.531158 60.0
134.59581 204.0
134.669708 136.0
134.704346 72.0
134.741302 128.0
134.886902 196.0
134.914642 172.0
135.032562 76.0
135.080719 1816.0
135.178299 88.0
135.465393 44.0
135.495514 172.0
135.516357 88.0
135.544159 44.0
135.599777 148.0
135.685547 56.0
135.762054 192.0
135.852509 248.0
135.896591 144.0
135.915161 208.0
136.080933 444.0
136.107803 180.0
136.430756 84.0
136.502823 200.0
136.716843 168.0
136.737778 132.0
136.956177 244.0
137.035843 52.0
137.084778 48.0
137.110413 272.0
137.184998 88.0
137.257263 96.0
137.322571 168.0
137.567566 128.0
137.60025 96.0
137.81044 120.0
138.093292 108.0
138.21962 188.0
138.250046 300.0
138.309418 152.0
138.559113 176.0
138.603622 176.0
138.652832 48.0
138.779419 176.0
138.995209 144.0
139.10379 76.0
139.124039 180.0
139.16655 160.0
139.262833 244.0
139.281616 140.0
139.319214 184.0
139.342697 200.0
139.645935 200.0
139.747086 160.0
139.987167 172.0
140.055466 160.0
140.142639 144.0
140.160751 128.0
140.420792 168.0
140.559967 220.0
140.647293 108.0
140.701584 212.0
140.75589 100.0
140.94722 208.0
141.221436 44.0
141.271118 52.0
141.342087 188.0
141.417816 68.0
141.450958 176.0
141.566971 152.0
141.751266 184.0
141.972198 68.0
142.010147 140.0
142.06633 344.0
142.138245 164.0
142.181137 208.0
142.430252 144.0
142.456375 192.0
142.534775 160.0
142.765366 208.0
142.820053 212.0
143.081818 272.0
143.09848 284.0
143.150864 116.0
143.172302 244.0
143.696686 96.0
143.875687 136.0
143.952087 92.0
143.990295 120.0
144.085846 176.0
144.116898 140.0
144.3918 164.0
144.791473 56.0
144.91124 160.0
145.05835 176.0
145.0896 248.0
145.160507 172.0
145.185684 216.0
145.486816 104.0
145.61647 164.0
145.755798 164.0
145.972137 176.0
146.059769 1632.0
146.174194 204.0
146.195847 248.0
146.224136 224.0
146.253616 164.0
146.275284 92.0
146.310791 192.0
146.328232 68.0
146.359543 160.0
146.460678 88.0
146.511276 76.0
146.557037 68.0
146.807739 44.0
147.023636 88.0
147.06778 752.0
147.131042 204.0
147.246948 176.0
147.309753 148.0
147.329071 228.0
147.518524 184.0
147.735199 200.0
147.766647 192.0
147.848587 144.0
147.893494 116.0
147.904388 48.0
147.911118 160.0
147.940338 204.0
147.976959 152.0
148.009613 136.0
148.028366 352.0
148.049515 148.0
148.076126 71352.0
148.125015 248.0
148.150757 212.0
148.181366 136.0
148.222855 76.0
148.243652 80.0
148.272049 164.0
148.310593 96.0
148.345444 44.0
148.372437 292.0
148.387787 60.0
148.415756 52.0
148.473953 356.0
148.51033 88.0
148.587952 48.0
148.689865 148.0
148.708176 48.0
148.739929 108.0
148.769394 52.0
148.84523 48.0
148.875977 60.0
148.886261 40.0
148.949661 48.0
148.982529 104.0
149.020111 104.0
149.079117 7160.0
149.137039 68.0
149.18367 136.0
149.229126 40.0
149.29068 76.0
149.334732 112.0
149.399368 48.0
149.473022 52.0
149.538055 48.0
149.555099 56.0
149.61351 60.0
149.640289 68.0
149.693863 68.0
149.740128 48.0
149.849747 60.0
149.874115 52.0
149.916641 192.0
149.954529 92.0
149.987717 104.0
150.01059 124.0
150.037399 116.0
150.0578 152.0
150.080139 456.0
150.104813 148.0
150.119431 56.0
150.198029 136.0
150.218735 144.0
150.240372 124.0
150.26445 124.0
150.29837 80.0
150.311996 68.0
150.316498 120.0
150.430161 100.0
150.486298 168.0
150.520493 64.0
150.65799 120.0
151.026367 96.0
151.04715 144.0
151.083969 160.0
151.15358 112.0
151.187836 108.0
151.417953 76.0
151.488983 208.0
151.88855 72.0
151.910614 200.0
152.072571 80.0
152.109375 72.0
152.28125 72.0
152.546616 172.0
152.566284 68.0
152.728577 132.0
152.858963 64.0
152.986954 168.0
153.277573 88.0
153.34903 104.0
153.556137 164.0
153.611023 204.0
153.701675 184.0
153.758438 132.0
154.08493 212.0
154.341415 136.0
154.413132 176.0
154.613525 84.0
155.176544 240.0
155.580185 84.0
155.763947 136.0
155.853378 216.0
156.07193 168.0
156.13179 56.0
156.283524 116.0
156.661942 192.0
156.691833 188.0
156.789017 104.0
156.918625 152.0
157.140594 124.0
157.335266 144.0
157.395187 96.0
157.61998 100.0
157.774948 236.0
157.985016 124.0
158.087585 156.0
158.195221 144.0
158.252792 240.0
158.335434 164.0
158.360474 172.0
158.390533 80.0
158.428101 40.0
158.488235 56.0
158.593491 160.0
158.683731 180.0
158.711304 200.0
159.068771 168.0
159.590088 188.0
159.806396 240.0
159.939774 224.0
160.074539 3108.0
160.486435 164.0
160.577209 204.0
160.892624 224.0
161.079712 536.0
161.271515 244.0
161.390335 124.0
161.458984 136.0
161.542068 148.0
161.774887 132.0
162.050934 224.0
162.091217 2420.0
162.314529 56.0
162.672256 176.0
163.094406 180.0
163.355804 260.0
163.656113 40.0
163.773254 68.0
163.829285 156.0
163.852219 88.0
164.000015 144.0
164.068832 112.0
164.374893 148.0
164.59697 136.0
165.01088 160.0
165.141296 144.0
165.210358 132.0
165.440674 196.0
165.742538 124.0
165.822327 280.0
166.006912 108.0
166.112061 132.0
166.694855 148.0
167.09082 76.0
167.785843 160.0
168.278931 148.0
168.459702 120.0
168.578552 108.0
168.738815 128.0
168.865509 160.0
169.033661 200.0
169.227798 192.0
169.471252 200.0
169.696747 240.0
170.132584 308.0
170.179321 188.0
170.361115 172.0
170.579391 244.0
170.800415 164.0
171.011169 32.0
171.112686 168.0
171.133514 180.0
171.266327 92.0
171.764175 36.0
172.073639 256.0
172.092987 128.0
172.416901 232.0
172.673096 96.0
172.947815 104.0
172.994934 176.0
173.105591 464.0
173.474304 120.0
173.623764 140.0
173.962234 180.0
174.093048 1272.0
174.24585 132.0
174.382492 160.0
174.563889 148.0
174.884842 60.0
174.987503 148.0
175.095459 180.0
175.448547 248.0
176.161057 188.0
176.195389 156.0
176.531067 184.0
176.562805 208.0
176.583954 64.0
176.790314 180.0
176.896179 252.0
177.187485 160.0
177.235168 104.0
177.606567 208.0
177.715073 260.0
177.988464 56.0
178.094681 144.0
178.490662 160.0
178.615646 116.0
179.069016 180.0
179.092102 108.0
179.177338 144.0
179.569183 168.0
179.913391 60.0
180.193802 64.0
180.715149 76.0
180.736557 60.0
181.068497 160.0
181.666214 140.0
181.714493 172.0
181.824509 168.0
181.862091 220.0
183.039581 212.0
183.341278 184.0
183.880417 228.0
183.972427 120.0
184.039917 184.0
184.123627 204.0
184.369461 284.0
184.850815 180.0
184.988846 112.0
185.300278 44.0
185.422211 160.0
185.617401 128.0
186.024353 124.0
186.703598 212.0
187.288757 204.0
187.607559 160.0
187.765717 128.0
188.111557 164.0
188.229614 212.0
188.377106 176.0
188.487778 184.0
188.630081 228.0
188.688644 64.0
188.738358 236.0
188.828262 128.0
188.978546 164.0
189.100494 248.0
189.119278 196.0
189.159927 100.0
189.789261 176.0
189.838623 172.0
189.967529 132.0
190.080017 220.0
190.129196 216.0
190.169205 188.0
190.190079 156.0
190.303452 216.0
190.345917 256.0
190.434158 92.0
190.453384 188.0
190.49733 92.0
190.516556 192.0
190.546585 172.0
190.615463 160.0
190.663925 152.0
190.711655 172.0
190.736389 224.0
190.761124 132.0
190.807861 188.0
190.840851 64.0
190.898727 176.0
190.950851 144.0
190.975601 168.0
191.014191 104.0
191.039993 224.0
191.076385 200.0
191.118896 99636.0
191.177155 108.0
191.243469 112.0
191.284927 180.0
191.310913 112.0
191.324478 76.0
191.346542 60.0
191.354111 116.0
191.388855 84.0
191.413162 40.0
191.433594 80.0
191.45723 48.0
191.476501 48.0
191.533432 112.0
191.57135 260.0
191.594528 160.0
191.639023 36.0
191.675888 96.0
191.704025 68.0
191.740982 60.0
191.772675 88.0
191.80162 56.0
191.829178 76.0
191.862259 204.0
191.898361 228.0
191.922913 80.0
191.983353 48.0
192.016968 112.0
192.042679 84.0
192.063507 192.0
192.121078 8856.0
192.161331 136.0
192.208557 36.0
192.234619 44.0
192.290924 108.0
192.339493 68.0
192.35881 108.0
192.439636 76.0
192.469238 92.0
192.491333 120.0
192.518051 136.0
192.557602 32.0
192.582932 96.0
192.601791 72.0
192.632187 32.0
192.659805 116.0
192.679138 60.0
192.725632 92.0
192.872574 36.0
192.900223 40.0
193.016174 68.0
193.063339 132.0
193.121887 1076.0
193.196793 120.0
193.226532 144.0
193.264679 112.0
193.317841 44.0
193.347015 108.0
193.406403 88.0
193.436859 88.0
193.456238 40.0
193.497528 96.0
193.541092 148.0
193.565567 236.0
193.604355 104.0
193.632294 116.0
193.714813 84.0
193.849518 72.0
193.960373 116.0
194.027817 160.0
194.087906 84.0
194.163528 44.0
194.190506 96.0
194.215469 88.0
194.24321 88.0
194.279266 84.0
194.313568 88.0
194.393021 104.0
194.420776 44.0
194.554001 124.0
194.598419 76.0
194.642853 104.0
194.920624 108.0
195.231949 92.0
195.265335 148.0
195.568588 124.0
195.980728 72.0
196.544998 32.0
196.778412 52.0
196.987854 176.0
197.029755 112.0
197.085632 76.0
197.298035 116.0
197.989151 44.0
198.073181 40.0
198.4543 88.0
199.089523 92.0
199.268234 76.0
199.552094 104.0
200.309097 84.0
200.418976 88.0
200.689545 72.0
201.036499 92.0
201.36116 84.0
201.558899 100.0
202.316879 184.0
202.583069 92.0
202.733231 40.0
203.076263 176.0
204.718918 104.0
205.128845 100.0
205.588364 20.0
206.940384 60.0
207.866196 100.0
207.94368 148.0
208.238144 120.0
209.044342 132.0
209.165222 64.0
210.202744 88.0
212.268082 144.0
213.121445 136.0
214.90625 180.0
216.642838 80.0
216.818634 104.0
217.085403 180.0
222.27713 164.0
222.333511 44.0
224.62149 128.0
229.338058 160.0
229.977493 96.0
230.406281 160.0
232.431793 140.0
233.036011 44.0
233.793137 108.0
234.198059 76.0
234.393036 64.0
235.121841 108.0
238.048416 208.0
238.42627 100.0
238.6353 200.0
238.678345 180.0
241.0858 168.0
245.126236 324.0
246.733505 80.0
247.0802 140.0
248.44339 176.0
249.112045 164.0
249.920013 104.0
250.745041 52.0
251.508301 188.0
255.300644 124.0
256.217316 216.0
257.831879 124.0
257.937347 184.0
258.244293 36.0
258.580231 40.0
258.701843 164.0
260.452637 176.0
265.802124 112.0
266.578186 200.0
266.971527 168.0
267.251282 120.0
269.144989 136.0
269.723206 92.0
272.229553 72.0
273.011658 92.0
273.673035 176.0
273.96286 148.0
274.727661 108.0
275.506744 168.0
277.13446 228.0
279.459076 140.0
279.861328 92.0
280.357635 44.0
281.194702 104.0
283.941437 56.0
284.055481 44.0
284.078949 200.0
286.176025 164.0
286.893616 208.0
287.821411 96.0
289.15332 96.0
290.912445 180.0
291.67334 216.0
294.334045 156.0
295.526917 192.0
295.667206 184.0
298.315094 144.0
301.299438 220.0
302.191406 120.0
303.576904 156.0
304.225739 212.0
306.688446 60.0
307.225464 140.0
309.714294 76.0
310.151123 128.0
310.250427 32.0
311.141479 180.0
311.836975 88.0
312.339783 68.0
312.835938 68.0
313.254974 156.0
314.033936 132.0
320.567749 128.0
321.070374 96.0
323.120667 120.0
323.944031 96.0
325.565186 144.0
327.150818 68.0
328.909882 152.0
329.841797 64.0
332.547455 136.0
332.772522 120.0
333.92807 76.0
334.710449 136.0
335.18042 232.0
335.625031 160.0
336.182709 108.0
339.134491 112.0
341.704956 124.0
342.07666 40.0
343.849518 112.0
344.166992 96.0
346.311859 152.0
348.578552 32.0
349.694214 96.0
350.118622 48.0
350.718445 160.0
350.74826 48.0
351.826324 108.0
352.442566 92.0
352.562531 188.0
352.609283 176.0
352.674255 204.0
352.722839 192.0
352.75647 236.0
352.853668 144.0
352.913513 160.0
353.044373 180.0
353.087799 156.0
353.186127 27200.0
353.276276 60.0
353.306183 36.0
353.418427 64.0
353.455841 60.0
353.485779 164.0
353.515717 56.0
353.556885 48.0
353.643707 80.0
353.732788 80.0
353.807678 84.0
353.912506 204.0
354.006104 68.0
354.080994 52.0
354.110962 56.0
354.187439 5184.0
354.403412 60.0
354.466858 64.0
354.515564 68.0
354.549286 80.0
354.624237 120.0
354.661713 148.0
354.706696 56.0
354.965393 68.0
355.190979 648.0
355.299194 88.0
355.384705 88.0
355.475555 28.0
355.794586 64.0
355.996155 64.0
356.069244 108.0
356.162567 112.0
356.233948 88.0
356.279633 120.0
356.42395 76.0
356.590881 124.0
356.899139 64.0
356.98938 60.0
357.437012 48.0
357.512268 56.0
357.91507 28.0
358.043091 60.0
358.122192 64.0
359.222809 104.0
361.493469 44.0
361.6297 44.0
364.143372 92.0
364.28772 28.0
365.279846 52.0
365.679352 84.0
365.755463 40.0
370.076935 104.0
372.320129 88.0
372.838745 64.0
375.213654 84.0
380.083069 116.0
384.281311 88.0
389.040192 80.0
394.353882 96.0
394.480347 44.0
395.698822 104.0
404.540741 144.0
409.914551 80.0
411.128357 68.0
414.233459 36.0
415.932465 100.0
425.18515 68.0
446.364349 64.0
447.47934 48.0
452.994659 68.0
453.198029 68.0
464.855865 80.0
467.356659 56.0
467.610535 88.0
475.856323 36.0
498.631195 100.0
500.86026 104.0
501.71582 36.0
501.974426 112.0
510.87384 72.0
571.051575 76.0
571.707275 112.0
582.230225 116.0
586.353149 116.0
589.272461 80.0
605.088745 100.0
628.287598 108.0
664.201599 68.0
674.810059 72.0
682.473083 108.0
684.950256 44.0
750.63147 184.0
756.61969 52.0
763.098999 208.0
767.459595 100.0
794.349487 176.0
802.413696 160.0
807.654114 120.0
823.117859 216.0
825.792358 80.0
826.604736 56.0
826.930908 44.0
830.25946 224.0
844.450073 92.0
850.081116 60.0
852.014526 52.0
876.217651 168.0
878.204163 52.0
886.415649 240.0
888.35437 112.0
898.628479 112.0
904.38916 164.0
906.215576 152.0
913.798462 56.0
914.40625 80.0
946.079773 160.0
948.842712 200.0
949.915833 112.0
951.542114 136.0
952.131592 224.0
952.328064 84.0
960.637695 200.0
960.773438 164.0
970.63208 184.0
973.915039 152.0
974.592163 172.0
980.628357 148.0
985.95813 40.0
986.451904 48.0
998.100403 148.0
1006.777466 84.0
1007.472229 172.0
1013.121399 56.0
1013.888062 172.0
1017.522583 36.0
1021.596191 180.0
1023.129822 176.0
1025.352783 64.0
1035.011475 172.0
1040.884888 188.0
1043.667114 176.0
1045.719238 160.0
1047.167847 184.0
1050.442139 148.0
1052.82373 120.0
1057.989868 192.0
1058.054565 168.0
1058.171143 92.0
1066.162476 176.0
1067.475586 64.0
1071.875854 244.0
1074.314209 240.0
1078.565186 52.0
1081.881592 128.0
1083.551636 160.0
1083.695801 32.0
1087.282593 160.0
1088.050537 176.0
1088.910767 228.0
1089.212891 144.0
1092.348267 212.0
1093.131226 212.0
1096.549072 128.0
1101.332397 188.0
1101.761841 160.0
1104.366211 152.0
1107.880981 76.0
1108.305054 132.0
1108.676147 176.0
1111.049805 172.0
1112.934692 96.0
1116.97522 196.0
1117.174805 128.0
1121.11377 268.0
1126.427246 208.0
1130.813477 68.0
1131.302124 64.0
1133.009766 156.0
1137.636963 72.0
1138.583618 172.0
1144.53479 56.0
1144.649292 172.0
1151.25769 124.0
1153.609009 160.0
1154.731323 144.0
1155.44165 108.0
1156.889771 196.0
1159.287476 216.0
1160.799072 156.0
1160.961914 200.0
1161.063599 92.0
1165.068237 132.0
1165.122559 40.0
1167.311157 72.0
1169.814819 180.0
1171.149414 88.0
1171.210693 192.0
1174.305054 96.0
1176.181396 172.0
1177.731323 156.0
1180.095825 188.0
1180.854858 168.0
1182.681641 96.0
1184.68103 164.0
1185.037231 100.0
1185.2771 184.0
1185.989868 228.0
1189.007568 136.0
1190.627686 128.0
1191.699219 124.0
1194.160156 180.0
1194.222168 176.0
1195.804565 112.0
1197.704834 236.0
1198.297241 140.0
1199.861694 152.0
1200.985718 228.0
1201.247803 168.0
1202.420776 240.0
1203.11792 200.0
1208.204224 128.0
1210.072754 140.0
1210.141968 132.0
1213.245728 124.0
1214.348267 188.0
1216.263184 136.0
1217.839355 148.0
1218.304688 156.0
1220.201904 148.0
1220.633057 44.0
1222.170288 152.0
1223.750244 52.0
1226.759766 120.0
1228.084595 148.0
1230.010376 168.0
1231.916748 132.0
1233.384033 236.0
1234.670532 88.0
1237.493408 200.0
1239.745972 28.0
1241.021606 84.0
1243.294312 184.0
1246.103027 152.0
1246.890015 200.0
1248.310059 148.0
1248.514038 176.0
1249.140015 204.0
1249.470581 160.0
1249.660522 92.0
1256.677856 160.0
1257.863525 52.0
1259.650024 176.0
1263.481445 168.0
1272.858276 148.0
1273.831299 248.0
1275.245239 156.0
1277.008545 220.0
1277.077148 184.0
1277.762451 248.0
1280.367676 140.0
1280.652588 192.0
1280.745117 196.0
1281.087036 204.0
1285.45752 176.0
1286.792236 144.0
1287.692017 196.0
1288.327759 204.0
1289.735352 224.0
1290.264404 188.0
1291.994995 128.0
1293.519287 188.0
1293.683838 212.0
1294.099121 188.0
1294.364014 180.0
1296.305298 124.0
1297.380371 68.0
1298.140381 204.0
1299.479492 152.0
1300.263794 144.0
1300.651367 168.0
1301.082031 168.0
1301.64209 108.0
1302.827148 184.0
1303.833008 224.0
1304.077393 136.0
1305.155762 144.0
1305.493652 152.0
1306.212891 168.0
1306.306396 112.0
1306.594116 212.0
1308.407715 200.0
1309.264526 148.0
1309.458984 156.0
1310.20813 152.0
1310.977905 204.0
1311.05835 140.0
1311.872803 120.0
1312.615356 188.0
1313.942505 188.0
1314.259888 140.0
1315.039307 200.0
1315.717773 188.0
1316.100464 56.0
1316.345947 144.0
1316.844238 140.0
1318.014526 52.0
1318.635986 96.0
1320.103516 308.0
1320.190308 132.0
1322.215942 116.0
1322.5271 148.0
1322.765991 44.0
1323.671021 188.0
1326.387695 272.0
1327.874146 196.0
1328.091675 232.0
1329.223389 164.0
1329.27417 136.0
1329.477417 68.0
1329.898315 136.0
1330.065308 156.0
1331.255859 224.0
1331.430176 172.0
1333.282715 176.0
1333.973145 112.0
1334.453003 224.0
1334.794678 92.0
1334.911011 212.0
1335.593872 168.0
1336.878784 88.0
1339.226685 140.0
1340.588989 132.0
1341.19397 176.0
1342.703125 140.0
1342.965698 188.0
1344.592651 148.0
1344.775146 140.0
1345.348999 160.0
1347.73999 228.0
1348.602295 152.0
1348.755737 60.0
1348.996948 60.0
1349.340576 132.0
1349.442871 204.0
1350.23999 124.0
1350.561768 140.0
1350.634888 184.0
1351.739624 188.0
1352.21521 220.0
1352.581177 144.0
1354.690063 208.0
1355.488647 212.0
1356.177368 152.0
1356.61731 172.0
1356.719971 172.0
1356.888672 32.0
1357.240601 128.0
1357.467896 164.0
1359.272339 168.0
1360.380615 72.0
1361.665527 148.0
1362.693848 172.0
1362.810181 168.0
1363.700562 188.0
1364.014526 208.0
1364.369507 144.0
1365.472412 68.0
1366.112427 204.0
1366.664185 128.0
1369.559814 168.0
1370.588623 200.0
1371.627686 224.0
1371.929932 212.0
1372.313354 68.0
1372.652466 184.0
1374.467041 160.0
1374.89502 252.0
1374.983521 168.0
1377.663818 192.0
1377.7229 136.0
1379.08252 128.0
1380.191406 188.0
1380.339355 224.0
1381.396973 160.0
1381.903564 144.0
1382.129395 144.0
1382.203369 172.0
1383.839111 144.0
1386.112915 112.0
1387.039307 60.0
1388.329346 176.0
1388.440674 60.0
1388.715088 220.0
1389.063599 152.0
1389.346191 136.0
1390.302734 164.0
1390.748047 172.0
1391.416626 204.0
1391.638794 68.0
1392.515015 220.0
1392.71582 152.0
1392.879028 228.0
1393.272705 172.0
1394.000854 96.0
1394.72168 180.0
1396.037598 216.0
1397.190552 76.0
1398.671387 208.0
1398.96167 160.0
1399.02124 80.0
1399.311523 52.0
1402.396362 236.0
1402.529663 108.0
1402.95459 152.0
1403.37207 100.0
1403.580811 220.0
1405.549927 212.0
1407.147217 180.0
1407.214355 116.0
1408.947021 148.0
1409.193604 64.0
1410.359375 164.0
1410.654907 172.0
1411.548096 44.0
1412.116333 176.0
1412.236084 60.0
1412.924194 184.0
1413.552734 128.0
1413.896973 120.0
1414.825073 152.0
1415.244385 168.0
1416.217896 184.0
1416.667236 156.0
1416.877075 180.0
1420.092773 164.0
1420.167725 20.0
1421.525635 172.0
1422.276123 172.0
1424.295898 172.0
1424.446167 184.0
1424.761719 288.0
1424.889404 168.0
1425.257568 64.0
1425.670898 88.0
1428.369995 204.0
1428.580566 256.0
1431.719116 116.0
1432.07312 136.0
1432.999634 132.0
1433.685425 148.0
1433.956665 132.0
1434.831055 60.0
1435.471924 196.0
1437.154053 84.0
1438.014282 196.0
1438.693604 100.0
1438.814331 188.0
1440.30957 92.0
1440.558838 120.0
1440.823242 176.0
1441.525879 176.0
1443.710571 244.0
1446.358521 68.0
1447.115601 148.0
1448.448364 68.0
1450.221436 168.0
1451.032471 136.0
1451.404053 180.0
1451.68457 216.0
1452.268555 156.0
1452.34436 136.0
1453.057373 192.0
1453.307739 220.0
1454.279175 100.0
1454.606201 236.0
1457.871338 136.0
1460.395386 136.0
1460.471436 104.0
1461.551636 144.0
1462.990112 156.0
1463.53833 144.0
1464.147461 144.0
1464.680542 144.0
1465.114746 160.0
1465.930054 164.0
1466.128174 192.0
1466.250122 156.0
1467.134277 116.0
1467.370605 176.0
1467.599365 164.0
1467.690796 164.0
1469.499512 132.0
1470.702271 196.0
1470.940796 208.0
1471.719482 116.0
1471.948486 192.0
1472.231079 164.0
1472.758057 120.0
1473.307983 132.0
1473.819946 136.0
1474.133179 140.0
1474.194336 128.0
1475.516602 144.0
1477.306152 152.0
1477.451416 136.0
1478.002319 108.0
1478.071167 80.0
1479.349243 168.0
1480.589722 164.0
1480.742798 160.0
1480.880737 188.0
1481.539429 232.0
1482.313232 148.0
1482.673462 148.0
1482.773071 168.0
1484.137573 208.0
1484.635986 160.0
1485.763428 168.0
1485.87854 76.0
1486.714844 152.0
1488.702026 212.0
1488.802979 180.0
1489.094849 148.0
1489.172485 144.0
1489.279175 92.0
1489.99353 140.0
1490.462158 184.0
1490.677368 224.0
1491.653442 140.0
1492.629761 180.0
1493.491089 148.0
1494.94519 160.0
1496.192017 176.0
1496.446045 184.0
1497.338379 164.0
1498.001709 172.0
1498.55603 184.0
1498.741333 188.0
1499.141968 176.0
1500.606567 120.0
1500.760742 160.0
1500.814697 232.0
1501.554932 60.0
1502.966675 148.0
1503.622559 220.0
