>compound Abitrexate (Methotrexate)
>formula C20H22N8O5
>ionization [M+H]+
>parentmass 455.179016
#inchi InChI=1S/C20H22N8O5/c1-28(9-11-8-23-17-15(24-11)16(21)26-20(22)27-17)12-4-2-10(3-5-12)18(31)25-13(19(32)33)6-7-14(29)30/h2-5,8,13H,6-7,9H2,1H3,(H,25,31)(H,29,30)(H,32,33)(H4,21,22,23,26,27)/t13-/m0/s1
#inchikey FBOZXECLQNJBKD
#Ion_Source LC-ESI
#Instrument qTof
#Compound_Source Commercial
#PI Dorrestein
#Data_Collector Garg_Neha
#Scan -1
#Precursor_MZ 455.179
#ExactMass 454.171
#Charge 1
#CAS_Number 59-05-2
#Pubmed_ID N/A
#Smiles N1=C(N=C2C(=C1N)N=C(C=N2)CN(C3=CC=C(C=C3)C(N[C@@H](CCC(=O)O)C(=O)O)=O)C)N
#INCHI_AUX N/A
#Library_Class 1
#SpectrumID CCMSLIB00000078048
#IonMode Positive
#UpdateWorkflowName UPDATE-SINGLE-ANNOTATED-GOLD
#LibraryQualityString Gold
#TaskID 77f51c88eb8b467eb4a01dd2d0cb90d2
##Scan# 1026
#SpectrumFile Plate1_41_60_GG3_01_16490.mzXML
#LibraryName FDALibrary_2_04302014.mgf
#MQScore -1
#Organism FDALibrary_2_04302014
#TIC_Query 0
#RT_Query -1
#MZErrorPPM -1
#SharedPeaks 0
#MassDiff 0
#LibMZ -1
#SpecMZ 455.179
#SpecCharge 0
#internalFilename spec-00000.mgf

>collision 10
45.182106 148.0
45.236977 156.0
45.499741 176.0
45.525253 148.0
45.675785 140.0
45.76865 140.0
45.879131 156.0
46.101849 200.0
46.191086 176.0
46.508167 160.0
46.652161 176.0
47.096397 168.0
47.177021 164.0
47.564701 188.0
47.615505 184.0
48.056019 184.0
48.229404 204.0
48.4459 160.0
48.759499 144.0
49.160591 160.0
49.547913 156.0
49.655853 148.0
50.22974 184.0
50.549049 256.0
50.694908 188.0
51.232006 224.0
51.740433 192.0
52.473167 204.0
52.611671 144.0
52.757584 160.0
52.853218 164.0
53.063065 176.0
53.112373 148.0
53.238644 180.0
53.328724 140.0
53.69709 180.0
53.832817 208.0
54.677265 144.0
54.989723 156.0
55.128551 148.0
55.350445 192.0
55.663334 152.0
55.690067 184.0
55.734634 168.0
55.932438 196.0
55.996464 156.0
56.201569 208.0
56.743641 140.0
56.866653 184.0
57.143158 180.0
57.278652 160.0
57.542568 188.0
57.60751 208.0
57.681557 176.0
57.894897 160.0
58.14505 168.0
58.473335 280.0
59.551262 152.0
60.587894 160.0
61.168705 180.0
61.502289 156.0
61.927589 220.0
62.236534 192.0
62.330128 212.0
62.439255 140.0
62.511623 144.0
63.438778 168.0
63.764179 168.0
63.83572 228.0
64.985832 220.0
65.194588 144.0
65.340912 204.0
65.464859 188.0
65.858383 148.0
65.948875 196.0
65.974739 204.0
66.146217 156.0
66.289482 192.0
66.314674 160.0
66.344772 176.0
66.96785 196.0
67.331558 196.0
67.355698 160.0
67.385468 176.0
68.20652 192.0
68.595009 156.0
68.641167 148.0
69.032753 192.0
69.26757 248.0
69.366997 208.0
69.707245 148.0
69.823532 152.0
71.017838 160.0
71.177277 172.0
71.394058 200.0
71.532028 148.0
71.882599 164.0
71.939987 160.0
72.154549 164.0
72.501556 140.0
72.596489 204.0
72.677917 156.0
72.980263 156.0
73.906464 148.0
73.932137 140.0
73.985199 176.0
74.161636 216.0
75.255775 172.0
75.535751 148.0
75.625732 212.0
75.677666 204.0
76.177155 208.0
76.203217 204.0
76.240532 180.0
76.593887 376.0
76.69223 164.0
76.836967 168.0
76.88932 164.0
76.929466 192.0
76.962639 184.0
77.010323 184.0
77.072685 204.0
77.434814 144.0
77.501381 176.0
77.694244 200.0
77.859245 188.0
78.138824 172.0
78.307732 208.0
78.480438 156.0
78.598618 148.0
78.61097 192.0
79.426613 188.0
79.668037 148.0
79.952538 152.0
79.966774 232.0
80.132385 176.0
80.623108 196.0
80.685669 160.0
81.07589 212.0
81.402397 148.0
81.689972 216.0
81.729553 176.0
82.116875 164.0
82.411133 148.0
83.371552 172.0
83.466087 152.0
83.834557 204.0
83.959595 176.0
84.127464 220.0
85.321953 164.0
85.522469 188.0
85.535355 160.0
85.70295 148.0
85.994331 140.0
86.215958 196.0
86.367569 140.0
87.001335 192.0
87.136909 176.0
87.309784 180.0
87.657913 188.0
87.870483 164.0
88.008598 188.0
89.433411 164.0
89.459763 208.0
90.327835 188.0
90.346748 164.0
90.44326 176.0
90.723625 212.0
90.831718 180.0
92.173973 152.0
92.271454 192.0
92.681053 204.0
93.166473 140.0
93.358688 156.0
93.554955 192.0
93.897942 140.0
94.185539 184.0
94.316933 148.0
94.386536 148.0
95.293671 176.0
95.748871 160.0
96.472794 148.0
96.660561 276.0
96.936668 152.0
97.040558 144.0
97.254395 188.0
97.547081 200.0
97.659164 200.0
98.082512 244.0
98.226166 136.0
98.62336 200.0
98.692551 156.0
98.823097 148.0
98.977493 184.0
99.128044 180.0
99.298538 140.0
99.983978 140.0
100.015823 144.0
100.057632 180.0
100.077538 168.0
100.609879 196.0
100.745682 144.0
101.141632 188.0
101.215706 140.0
101.851471 160.0
101.911743 156.0
102.585968 160.0
103.480972 200.0
103.553871 144.0
103.69368 196.0
103.707863 168.0
103.807205 232.0
103.965446 156.0
104.326996 164.0
104.418503 148.0
104.772697 180.0
105.102997 144.0
105.207092 212.0
105.49514 160.0
106.038643 240.0
106.06974 368.0
106.090881 164.0
106.388351 152.0
106.433517 140.0
106.567032 168.0
106.959839 148.0
107.774475 148.0
107.799271 140.0
107.831017 156.0
108.17157 160.0
108.210899 164.0
108.289597 160.0
108.463646 228.0
108.687637 164.0
109.155014 208.0
109.30687 172.0
109.631737 220.0
109.658829 220.0
109.940384 156.0
110.397903 224.0
110.561081 180.0
110.785439 164.0
111.311249 100.0
111.68779 208.0
112.444214 140.0
112.646629 176.0
113.226479 208.0
113.811943 204.0
114.901543 140.0
115.11499 164.0
115.591805 168.0
115.758675 188.0
115.882912 140.0
116.221687 220.0
116.636185 304.0
117.025581 160.0
117.092339 192.0
117.297035 200.0
118.000824 144.0
118.391045 168.0
118.46637 148.0
118.492134 228.0
118.59182 192.0
118.797821 160.0
118.83036 184.0
119.034134 132.0
119.719421 148.0
120.325607 168.0
120.480675 188.0
120.686119 144.0
120.865486 200.0
121.04911 140.0
121.231194 180.0
121.999428 188.0
122.470345 192.0
123.070198 228.0
123.090073 172.0
123.143074 140.0
123.180626 168.0
123.333099 164.0
123.490089 184.0
123.583 188.0
123.715797 164.0
123.797722 152.0
123.815437 156.0
124.145653 224.0
124.323128 176.0
125.281471 140.0
125.35054 188.0
125.401802 140.0
125.586868 172.0
126.05571 176.0
126.071358 144.0
126.266464 252.0
126.487373 208.0
126.50528 176.0
126.850266 208.0
127.150833 348.0
127.48996 232.0
127.80928 236.0
128.036652 220.0
128.469437 180.0
128.652222 172.0
128.864532 284.0
129.005142 200.0
129.672409 172.0
129.749481 172.0
130.282806 164.0
130.739853 148.0
130.844559 196.0
130.896927 156.0
130.951584 224.0
131.204529 140.0
131.286621 208.0
131.391541 208.0
131.880234 184.0
132.04715 396.0
132.577316 196.0
132.883286 192.0
132.899338 160.0
133.051941 1524.0
133.537979 176.0
133.624603 120.0
133.665451 128.0
133.765793 184.0
133.873657 160.0
133.961533 160.0
134.00885 160.0
134.060638 34080.0
134.400513 200.0
134.877655 144.0
134.930817 228.0
135.063599 2536.0
135.120102 188.0
135.37973 180.0
135.60318 124.0
136.064392 276.0
136.084656 140.0
136.100906 148.0
136.129684 184.0
136.177551 148.0
136.369064 224.0
136.609909 268.0
136.744873 152.0
137.037125 104.0
137.637741 148.0
137.70314 196.0
138.039673 140.0
138.369598 164.0
138.388336 140.0
138.723358 188.0
138.96727 200.0
139.166779 192.0
140.418732 164.0
140.701889 224.0
141.982056 172.0
142.345154 216.0
142.366516 160.0
143.46582 164.0
143.604126 184.0
143.711472 192.0
144.181915 144.0
144.880615 228.0
145.007614 200.0
145.314789 224.0
145.597824 268.0
146.042465 140.0
146.230148 156.0
146.735977 212.0
146.8759 144.0
147.044586 140.0
147.704437 148.0
147.810898 244.0
148.031174 176.0
148.061646 464.0
148.707581 216.0
149.071884 164.0
149.327164 156.0
149.762848 176.0
149.798416 172.0
150.518875 224.0
150.545746 140.0
150.567719 160.0
150.7314 152.0
150.824265 228.0
151.342926 224.0
151.823227 232.0
152.098022 180.0
152.370621 220.0
152.441879 144.0
152.762314 160.0
153.02977 204.0
153.399323 144.0
153.698303 180.0
153.880814 204.0
153.934723 164.0
154.258392 156.0
154.480957 196.0
154.828003 176.0
155.934021 180.0
156.481308 204.0
156.747833 168.0
157.004593 172.0
157.139297 152.0
157.184219 200.0
158.031281 212.0
158.053802 240.0
158.181442 164.0
158.822937 140.0
158.966827 208.0
159.043747 128.0
159.06366 172.0
159.61908 320.0
160.061264 668.0
160.160187 196.0
160.822052 164.0
160.972305 164.0
161.056168 196.0
161.447403 176.0
162.062531 180.0
162.095474 208.0
162.2146 144.0
162.267838 148.0
162.508301 228.0
163.069794 168.0
163.65477 144.0
163.7901 148.0
163.912399 212.0
164.350983 160.0
164.573059 200.0
164.841263 148.0
164.966507 216.0
165.096909 176.0
165.593414 252.0
166.354996 144.0
167.32164 200.0
167.38858 168.0
167.425583 240.0
167.481293 172.0
167.501907 144.0
168.497711 140.0
168.771683 168.0
170.28772 232.0
170.776367 164.0
170.85701 152.0
171.010544 140.0
172.128983 196.0
172.236053 196.0
172.615021 168.0
173.164612 260.0
173.19342 148.0
173.355865 220.0
173.520996 188.0
174.161316 164.0
174.182343 152.0
174.447754 152.0
174.672791 208.0
174.778244 256.0
174.873032 196.0
174.937057 232.0
174.963379 232.0
175.043091 192.0
175.07341 62564.0
175.123718 120.0
175.395004 228.0
175.429688 188.0
175.472702 140.0
175.564163 144.0
175.586945 144.0
175.621094 184.0
175.706604 180.0
176.078735 10272.0
176.175552 96.0
177.086304 3684.0
177.399109 140.0
178.064331 208.0
178.09169 796.0
178.123642 200.0
179.26506 200.0
179.9319 180.0
180.158905 148.0
180.685593 168.0
180.963272 160.0
180.985367 152.0
181.178741 160.0
181.296097 160.0
182.68428 168.0
184.034561 220.0
185.099045 180.0
185.487381 172.0
187.103775 192.0
187.430634 228.0
187.640503 192.0
188.046967 160.0
188.522171 144.0
188.73317 132.0
190.017258 176.0
190.187408 176.0
190.489456 144.0
190.805511 156.0
190.964478 272.0
192.853302 128.0
192.96431 184.0
193.080444 164.0
193.326675 152.0
193.348816 160.0
193.667221 308.0
194.057968 140.0
194.246552 212.0
194.537933 200.0
194.743423 184.0
195.435654 160.0
196.533493 184.0
197.181381 196.0
198.096359 196.0
198.205627 436.0
198.22525 168.0
199.235352 144.0
200.941498 156.0
201.819916 184.0
201.901932 168.0
202.100647 224.0
202.629852 128.0
203.647827 156.0
203.923431 168.0
204.352844 148.0
204.762772 144.0
204.927994 180.0
205.27861 196.0
205.349899 144.0
205.492538 180.0
205.900742 208.0
207.067657 168.0
207.807251 152.0
208.545288 156.0
209.14357 148.0
209.520813 212.0
210.048386 188.0
211.95076 276.0
212.220337 152.0
212.434952 196.0
213.07074 208.0
213.742401 144.0
214.467575 160.0
214.697922 204.0
215.620483 164.0
216.177505 156.0
216.612411 176.0
216.738388 180.0
217.072556 152.0
217.480362 156.0
217.729935 204.0
218.244202 180.0
219.201431 168.0
219.84079 144.0
220.61171 204.0
220.895599 156.0
220.925186 188.0
221.375092 152.0
221.647629 152.0
221.93515 188.0
221.973694 204.0
222.685974 260.0
223.768417 168.0
224.295715 208.0
225.079636 208.0
225.184906 180.0
226.140289 148.0
227.157486 180.0
227.589661 148.0
228.252411 168.0
228.876633 196.0
229.633057 140.0
230.233658 144.0
231.231354 176.0
232.31311 180.0
234.395828 152.0
234.517746 160.0
235.62677 144.0
235.772156 220.0
236.053482 168.0
236.090103 176.0
236.794022 160.0
236.836914 220.0
239.524673 196.0
240.406479 192.0
241.209534 180.0
242.5065 168.0
242.863068 140.0
244.408249 132.0
244.930145 172.0
246.037201 184.0
246.771423 180.0
246.815201 196.0
246.955933 160.0
247.131119 196.0
247.309509 180.0
247.588425 144.0
247.716583 184.0
248.763992 148.0
249.653183 224.0
250.251068 164.0
251.557358 164.0
252.535858 140.0
252.687714 144.0
252.788971 160.0
252.899734 164.0
253.159348 140.0
254.630905 160.0
255.13298 148.0
255.320587 176.0
257.002563 156.0
258.421234 216.0
258.507629 184.0
258.644714 140.0
259.346985 168.0
259.401245 232.0
259.74115 196.0
260.363831 176.0
260.511597 168.0
261.273529 188.0
262.842651 176.0
263.112183 216.0
264.105865 160.0
265.031769 204.0
265.108978 224.0
265.352661 236.0
265.605621 172.0
265.641296 152.0
266.248291 224.0
266.287262 144.0
267.76059 204.0
268.047302 176.0
268.565674 172.0
268.732056 200.0
268.849518 200.0
269.407867 148.0
269.581055 244.0
270.563904 156.0
270.778442 148.0
271.047089 224.0
272.126221 136.0
272.162354 156.0
273.968018 160.0
274.495392 252.0
274.584412 188.0
274.937439 176.0
275.3237 176.0
276.070587 192.0
276.106964 140.0
277.3685 160.0
278.752228 148.0
279.108185 140.0
279.144745 172.0
279.334351 164.0
280.126892 340.0
280.799957 188.0
281.130188 188.0
282.143585 372.0
283.052429 140.0
283.134735 296.0
283.430939 180.0
284.416962 188.0
284.788147 160.0
285.354218 184.0
286.9198 168.0
287.456116 216.0
287.587738 188.0
288.026703 256.0
288.378113 252.0
289.152649 176.0
289.240631 148.0
289.674103 172.0
290.270599 168.0
290.718384 152.0
291.10083 176.0
291.757782 220.0
291.962769 228.0
293.111908 484.0
293.136292 144.0
293.163574 184.0
293.207855 180.0
293.252167 212.0
293.325989 136.0
293.559021 260.0
294.610291 232.0
294.81189 176.0
295.093903 192.0
295.391388 120.0
296.841949 140.0
297.089355 300.0
297.782288 176.0
297.830383 148.0
297.913849 120.0
298.249573 212.0
298.868622 256.0
299.236908 196.0
300.394897 216.0
300.888397 176.0
301.2164 104.0
301.259674 128.0
302.333282 176.0
302.672546 192.0
302.724487 144.0
303.767761 188.0
304.54184 184.0
305.570831 156.0
306.05011 232.0
306.588806 140.0
306.706116 168.0
306.815063 128.0
306.859497 168.0
306.9711 164.0
307.012939 192.0
307.092133 116.0
307.220673 200.0
307.272919 144.0
307.406311 152.0
307.438568 256.0
307.489014 140.0
307.532806 208.0
307.582611 200.0
307.625244 164.0
307.667755 144.0
307.750641 200.0
307.807037 180.0
307.854828 292.0
307.900848 96.0
307.935333 168.0
307.989441 160.0
308.020142 176.0
308.046997 556.0
308.083527 448.0
308.125732 139440.0
308.239868 180.0
308.316223 156.0
308.374146 136.0
308.40741 176.0
308.448547 228.0
308.487457 108.0
308.517181 120.0
308.661865 156.0
308.699219 596.0
308.750824 176.0
308.774597 200.0
308.900024 280.0
308.982239 124.0
309.128082 20932.0
309.280792 188.0
309.32962 104.0
309.962555 100.0
310.071838 132.0
310.129974 2924.0
310.184692 152.0
310.229248 180.0
310.464722 140.0
310.579071 140.0
310.612183 136.0
310.677673 112.0
310.736664 220.0
310.953857 144.0
311.006226 96.0
311.0784 120.0
311.128906 284.0
311.182007 196.0
311.217346 152.0
311.256836 140.0
311.406525 208.0
311.450012 96.0
311.759521 108.0
312.292145 180.0
312.40213 104.0
315.153656 156.0
315.623779 160.0
319.504059 204.0
319.756287 136.0
322.88208 148.0
323.000122 204.0
324.368042 208.0
325.154633 200.0
325.940033 144.0
326.135773 2048.0
326.532104 208.0
326.77063 196.0
327.139465 328.0
328.145477 156.0
330.642609 160.0
334.249878 180.0
335.065491 140.0
335.287781 148.0
336.427032 148.0
336.91156 140.0
338.914673 248.0
339.200104 116.0
342.973907 160.0
344.457306 184.0
346.245636 140.0
347.64151 152.0
347.745422 172.0
348.540161 160.0
348.986206 152.0
349.454865 156.0
349.499512 144.0
350.139801 172.0
353.930267 144.0
354.949493 148.0
357.029938 148.0
360.902771 176.0
364.329071 168.0
365.51535 228.0
370.532562 172.0
371.456482 184.0
371.62912 188.0
372.070526 228.0
372.573639 236.0
373.334686 216.0
376.11264 200.0
378.10318 208.0
379.823517 168.0
379.873962 372.0
381.396149 168.0
382.851318 140.0
383.307007 160.0
383.638397 184.0
383.728058 152.0
384.094635 176.0
385.234528 196.0
386.571716 148.0
387.378296 144.0
390.113556 156.0
391.313507 148.0
392.259003 164.0
393.288544 172.0
397.126648 248.0
397.694031 156.0
406.329865 188.0
409.578094 184.0
411.760223 204.0
412.887817 144.0
416.024078 176.0
416.198669 140.0
417.324188 140.0
421.510437 176.0
423.003265 248.0
426.477661 144.0
435.742889 152.0
436.561768 200.0
437.166962 412.0
438.014343 164.0
438.167938 160.0
439.448486 152.0
439.594543 204.0
440.163605 184.0
441.783966 152.0
442.039185 184.0
444.830566 208.0
448.186798 148.0
448.56189 140.0
450.180786 144.0
450.87915 140.0
451.847504 164.0
452.105621 228.0
452.571259 160.0
452.736145 120.0
453.007507 152.0
453.03717 248.0
453.213501 136.0
453.241089 128.0
453.301697 176.0
453.938293 132.0
454.056244 96.0
454.211639 152.0
454.347168 212.0
454.703033 148.0
454.8255 172.0
454.857971 476.0
454.94278 244.0
455.016876 256.0
455.179016 73108.0
455.314026 316.0
455.524261 152.0
455.597656 196.0
455.758911 124.0
455.879761 188.0
455.931 136.0
455.981354 148.0
456.181396 16864.0
456.299469 140.0
456.342499 112.0
456.430573 116.0
456.607361 140.0
456.647491 116.0
456.69632 164.0
456.847565 144.0
456.998474 224.0
457.179779 2276.0
457.34198 140.0
457.398407 232.0
458.181213 512.0
458.671936 120.0
458.852509 112.0
459.004639 164.0
459.078644 116.0
459.591522 124.0
459.652374 112.0
459.879333 152.0
461.203339 144.0
466.991882 148.0
566.430237 192.0
593.306946 180.0
638.265015 164.0
697.184387 96.0
722.172852 104.0
1098.944336 224.0
1120.859375 176.0
1217.264038 168.0
1226.754395 148.0
1245.255737 152.0
1250.627563 168.0
1279.040771 172.0
1297.945068 180.0
1310.178223 144.0
1331.619019 196.0
1357.425293 144.0
1370.789673 216.0
1374.616943 212.0
1384.012207 248.0
1422.69397 176.0
1429.849976 140.0
1431.272705 204.0
1432.372314 204.0
1437.989868 168.0
1442.816772 196.0
1451.842773 148.0
1465.022949 148.0
1470.032471 156.0
1470.71167 196.0
1519.63501 176.0
1522.31311 196.0
1533.282471 152.0
1537.384766 176.0
1555.62207 176.0
1557.065796 140.0
1570.486572 208.0
1574.559326 220.0
1578.597656 180.0
1610.068848 192.0
1612.665405 204.0
1615.760132 184.0
1617.720947 220.0
1629.429932 180.0
1635.879883 164.0
1641.439209 168.0
1643.762451 224.0
1652.343506 236.0
1685.518188 204.0
1697.674683 164.0
1697.994507 168.0
1701.451416 224.0
1709.018921 188.0
1712.369507 184.0
1753.090088 164.0
1758.686401 168.0
1758.878418 156.0
1760.105713 160.0
1763.572754 156.0
1770.584106 256.0
1780.220215 160.0
1791.145752 152.0
1796.633789 240.0
1803.270996 144.0
1812.029419 152.0
1818.457397 180.0
1824.726562 192.0
1830.027344 176.0
1839.251709 160.0
1854.382812 196.0
1856.045898 204.0
1857.786987 164.0
1861.555054 148.0
1867.708862 220.0
1869.773804 180.0
1872.356689 140.0
1885.773071 228.0
1891.343384 192.0
1891.802124 172.0
1899.219849 140.0
1900.495117 220.0
1904.749268 188.0
1906.599976 156.0
1908.216797 212.0
1908.677612 168.0
1909.060303 156.0
1909.886475 180.0
1912.044312 208.0
1915.117798 196.0
1920.452148 152.0
1923.261841 188.0
1924.030029 140.0
1934.459595 220.0
1943.091919 192.0
1945.145508 176.0
1952.077759 172.0
1955.473633 220.0
1965.714478 200.0
1968.274414 188.0
1971.145264 192.0
1971.348511 196.0
1977.300415 160.0
1977.893433 156.0
1978.557495 220.0
1980.523315 244.0
1991.16687 168.0
1993.370117 204.0
1995.85022 152.0
1996.197021 144.0
1998.509766 164.0
1999.408569 160.0
