>compound MLS000859889-01!Caffeic acid phenethyl ester
>formula C17H16O4
>ionization [M+H]+
>parentmass 285.11213544409054
#inchi InChI=1S/C17H16O4/c18-15-8-6-14(12-16(15)19)7-9-17(20)21-11-10-13-4-2-1-3-5-13/h1-9,12,18-19H,10-11H2/b9-7+
#inchikey SWUARLUWKZWEBQ
#Ion_Source LC-ESI
#Instrument qTof
#Compound_Source NIH Pharmacologically Active Library
#PI Dorrestein
#Data_Collector VP/LMS
#Scan -1
#Precursor_MZ 285.117
#ExactMass 284.105
#Charge 1
#CAS_Number N/A
#Pubmed_ID N/A
#Smiles Oc1ccc(/C=C/C(=O)OCCc2ccccc2)cc1O
#INCHI_AUX N/A
#Library_Class 1
#SpectrumID CCMSLIB00000085490
#IonMode Positive
#UpdateWorkflowName UPDATE-SINGLE-ANNOTATED-GOLD
#LibraryQualityString Gold
#TaskID d252d724072548979f1f6f1ced849daf
##Scan# 2115
#SpectrumFile p4-B07_GB7_01_18343.mzXML
#LibraryName Pharm_Active_Library.mgf
#MQScore -1
#Organism Pharm_Active_Library
#TIC_Query 0
#RT_Query -1
#MZErrorPPM -1
#SharedPeaks 0
#MassDiff 0
#LibMZ -1
#SpecMZ 285.117
#SpecCharge 0
#internalFilename spec-00000.mgf

>collision 10
45.822906 188.0
46.081947 140.0
46.187393 204.0
46.268585 196.0
47.005257 200.0
48.065964 164.0
48.144646 112.0
48.241364 164.0
48.343712 152.0
48.400467 136.0
48.620876 48.0
48.869606 156.0
49.800629 76.0
49.921494 56.0
49.983387 220.0
50.284958 212.0
51.186577 100.0
51.886684 172.0
52.785133 208.0
53.659214 144.0
53.9702 176.0
54.050648 208.0
54.828941 164.0
54.846626 216.0
55.10783 184.0
55.918968 220.0
56.929588 136.0
57.373447 164.0
57.713146 128.0
57.988655 164.0
58.321049 68.0
58.489883 68.0
59.0942 88.0
60.643375 236.0
61.58313 248.0
61.662811 212.0
62.036903 164.0
62.233006 168.0
62.67971 128.0
64.530449 144.0
65.464302 168.0
65.87558 176.0
66.226585 64.0
66.246017 56.0
66.97699 188.0
68.000511 180.0
68.161446 100.0
68.255142 228.0
69.046684 144.0
69.215469 224.0
69.896019 176.0
70.190849 144.0
70.401108 152.0
71.334335 52.0
71.623756 220.0
72.331253 168.0
75.259865 216.0
75.576164 160.0
75.801262 144.0
76.16906 224.0
76.231606 168.0
76.668396 84.0
77.040039 204.0
77.087212 168.0
78.112854 36.0
80.074013 148.0
80.541306 148.0
80.99205 68.0
81.447639 176.0
82.230858 208.0
82.863747 136.0
83.177475 196.0
83.62278 168.0
84.8283 152.0
85.164085 148.0
85.789711 176.0
85.8358 152.0
87.272659 132.0
88.189827 56.0
90.116005 160.0
90.376923 176.0
90.544006 256.0
91.578583 48.0
92.141304 104.0
92.192894 40.0
92.893646 148.0
93.408447 184.0
93.487328 32.0
94.97451 224.0
95.433258 216.0
97.377632 176.0
99.669189 108.0
100.353882 172.0
100.413704 124.0
100.621223 176.0
101.060921 160.0
101.431404 56.0
101.668068 188.0
101.752373 164.0
103.054703 3356.0
103.095863 64.0
103.227264 228.0
103.498405 136.0
103.790176 60.0
104.017395 124.0
104.060638 424.0
104.269249 168.0
104.307869 128.0
104.376991 40.0
104.582458 52.0
104.70665 168.0
104.743317 164.0
104.769798 240.0
104.792206 144.0
104.861488 88.0
104.914482 172.0
104.949142 156.0
105.070793 16368.0
105.118439 60.0
105.181709 76.0
105.224579 120.0
105.26133 124.0
105.343025 60.0
105.432922 68.0
105.484016 56.0
105.612839 92.0
105.727409 100.0
105.86866 184.0
105.932152 116.0
106.074371 988.0
106.153503 72.0
106.212975 40.0
106.243744 52.0
106.281456 116.0
106.500336 144.0
106.548805 136.0
106.664711 124.0
106.752045 176.0
106.806587 52.0
106.860077 40.0
107.051498 172.0
107.827171 64.0
107.909859 36.0
109.441048 76.0
110.637344 60.0
111.558273 28.0
112.200348 84.0
112.44503 100.0
112.527351 60.0
112.679413 76.0
113.246323 96.0
115.051758 200.0
115.797882 32.0
116.029297 160.0
117.037071 204.0
118.038132 180.0
123.039589 164.0
123.784691 80.0
124.776482 108.0
129.538681 168.0
132.823425 116.0
132.995514 144.0
133.029938 100.0
133.071274 148.0
134.039139 176.0
134.348541 76.0
135.040817 324.0
135.106262 68.0
135.296036 128.0
135.319183 112.0
136.054092 160.0
138.069595 192.0
138.441681 164.0
145.035522 208.0
147.048645 156.0
151.033371 184.0
160.050186 200.0
161.026093 104.0
161.059357 180.0
162.03537 176.0
162.075912 148.0
162.552612 120.0
163.040482 424.0
163.867157 56.0
164.050644 156.0
171.047318 136.0
176.332413 36.0
178.081024 164.0
179.075729 124.0
180.038147 180.0
183.082275 164.0
186.132553 168.0
187.097748 52.0
189.060226 104.0
190.156448 144.0
191.016464 212.0
191.068726 164.0
192.019028 48.0
197.666824 144.0
202.078323 168.0
203.944656 48.0
207.014404 200.0
207.074554 200.0
210.138824 168.0
210.580475 92.0
225.084793 356.0
233.321213 144.0
236.441589 204.0
249.089554 172.0
258.144623 168.0
283.210236 164.0
284.215942 240.0
285.186462 88.0
286.225983 192.0
286.249542 80.0
457.452637 72.0
780.137146 72.0
907.335999 160.0
919.679626 124.0
934.131165 168.0
934.593567 192.0
969.516174 156.0
1035.075562 144.0
1051.052124 196.0
1051.797363 68.0
1052.003906 132.0
1058.870605 72.0
1070.410522 164.0
1072.104126 224.0
1085.118164 224.0
1086.672607 224.0
1088.161987 164.0
1088.431641 152.0
1089.259155 72.0
1091.815796 144.0
1105.067749 172.0
1105.391968 192.0
1119.05188 108.0
1124.785034 128.0
1126.768311 152.0
1126.955444 192.0
1129.101196 152.0
1130.840698 192.0
1136.670898 216.0
1137.520996 212.0
1140.310669 208.0
1143.350586 192.0
1143.58606 132.0
1145.276123 132.0
1152.72998 164.0
1161.911987 168.0
1164.525391 176.0
1171.565552 96.0
1174.135132 128.0
1175.287964 224.0
1176.325317 184.0
1177.151489 160.0
1177.622681 208.0
1178.128174 144.0
1187.224487 168.0
1204.264893 96.0
1205.211304 44.0
1207.174438 164.0
1213.794189 160.0
1214.314331 196.0
1228.32959 192.0
1230.437012 44.0
1230.939819 172.0
1233.56665 188.0
1234.727417 184.0
1240.608887 180.0
1241.927124 108.0
1247.052612 164.0
1253.576416 140.0
1260.788452 168.0
1261.55896 140.0
1263.206543 180.0
1266.264282 200.0
1266.342163 132.0
1270.659058 128.0
1271.489258 60.0
1278.268799 144.0
1281.102417 168.0
1282.463379 124.0
1283.382935 132.0
1284.167358 124.0
1285.280273 148.0
1288.171631 152.0
1290.544312 120.0
1291.602783 204.0
1298.808472 140.0
1301.973633 192.0
1302.576904 104.0
1302.99353 180.0
1318.030273 144.0
1319.765015 180.0
1328.876465 160.0
1330.204468 204.0
1332.0271 128.0
1336.119873 196.0
1339.483032 128.0
1340.167847 132.0
1346.017578 156.0
1351.828857 60.0
1352.537476 116.0
1353.915161 76.0
1356.28894 120.0
1358.518188 144.0
1366.731934 268.0
1368.203857 212.0
1369.396729 160.0
1374.261963 112.0
1375.774902 212.0
1376.35083 140.0
1386.78894 192.0
1388.790894 204.0
1389.643921 132.0
1397.593994 84.0
1397.884155 168.0
1399.424927 128.0
1401.72644 172.0
1403.791382 160.0
1405.275635 180.0
1410.959106 144.0
1414.752075 228.0
1415.500732 152.0
1423.666992 204.0
1424.207642 148.0
1424.395508 168.0
1432.519409 132.0
1440.915771 48.0
1444.151123 192.0
1450.193115 180.0
1453.127686 180.0
1454.334351 88.0
1454.615112 176.0
1456.581787 104.0
1461.49292 136.0
1466.983887 196.0
1467.288818 140.0
1467.387939 176.0
1471.759766 108.0
1475.365845 152.0
1483.971069 196.0
1485.857788 180.0
1494.239502 184.0
1497.557251 192.0
