>compound MLS002153336-01!1,3-Dipropyl-8-(p-sulfophenyl)xanthine
>formula C17H20N4O5S
>ionization [M+H]+
>parentmass 393.122437
#inchi InChI=1S/C17H20N4O5S/c1-3-9-20-15-13(16(22)21(10-4-2)17(20)23)18-14(19-15)11-5-7-12(8-6-11)27(24,25)26/h5-8H,3-4,9-10H2,1-2H3,(H,18,19)(H,24,25,26)
#inchikey IWALGNIFYOBRKC
#Ion_Source LC-ESI
#Instrument qTof
#Compound_Source NIH Pharmacologically Active Library
#PI Dorrestein
#Data_Collector VP/LMS
#Scan -1
#Precursor_MZ 393.127
#ExactMass 392.115
#Charge 1
#CAS_Number N/A
#Pubmed_ID N/A
#Smiles CCCn1c(=O)n(CCC)c2[nH]c(nc2c1=O)c3ccc(cc3)S(=O)(=O)O
#INCHI_AUX N/A
#Library_Class 1
#SpectrumID CCMSLIB00000085449
#IonMode Positive
#UpdateWorkflowName UPDATE-SINGLE-ANNOTATED-GOLD
#LibraryQualityString Gold
#TaskID d252d724072548979f1f6f1ced849daf
##Scan# 1628
#SpectrumFile p4-B02_GB2_01_18338.mzXML
#LibraryName Pharm_Active_Library.mgf
#MQScore -1
#Organism Pharm_Active_Library
#TIC_Query 0
#RT_Query -1
#MZErrorPPM -1
#SharedPeaks 0
#MassDiff 0
#LibMZ -1
#SpecMZ 393.127
#SpecCharge 0
#internalFilename spec-00000.mgf

>collision 10
45.365013 152.0
45.747868 80.0
47.128532 184.0
47.161331 192.0
47.771519 136.0
47.837574 80.0
48.337189 100.0
48.447952 192.0
48.554684 136.0
48.826885 100.0
49.735046 92.0
50.217648 172.0
50.635994 160.0
50.667156 84.0
50.953735 160.0
50.972206 172.0
51.000629 108.0
52.401627 184.0
52.563114 152.0
52.671391 64.0
52.917233 104.0
53.266731 76.0
53.423725 172.0
54.259071 172.0
54.754253 188.0
55.083168 108.0
55.355297 120.0
55.929844 168.0
56.051964 260.0
56.181679 180.0
56.287647 88.0
56.456505 128.0
56.513344 172.0
56.61813 144.0
56.937565 140.0
57.188641 144.0
57.280491 104.0
57.610847 84.0
58.581726 208.0
58.600006 156.0
58.941784 216.0
59.024326 108.0
59.540749 188.0
59.553036 92.0
59.594513 192.0
59.862152 148.0
60.005447 144.0
60.595837 180.0
60.941822 140.0
61.091068 120.0
61.287235 104.0
61.647686 156.0
61.69614 188.0
62.233517 148.0
62.411064 228.0
62.61721 124.0
62.97049 164.0
63.150665 84.0
63.307343 116.0
64.056999 196.0
64.393547 224.0
64.870369 136.0
64.942528 136.0
65.253418 212.0
65.716293 188.0
65.734039 128.0
66.117035 148.0
66.134834 148.0
66.193115 72.0
66.334068 40.0
67.143776 116.0
67.155197 144.0
67.868195 176.0
68.140648 108.0
68.98111 144.0
69.280632 164.0
69.469612 60.0
69.555901 164.0
69.745255 72.0
70.597206 180.0
70.824814 176.0
71.504799 100.0
71.531731 92.0
71.706902 184.0
72.213402 108.0
72.988396 224.0
73.264114 176.0
73.293076 132.0
73.46698 52.0
73.535233 40.0
73.692337 176.0
74.010468 76.0
74.190353 68.0
74.984474 168.0
75.504135 160.0
75.841743 244.0
76.056824 96.0
76.181847 140.0
76.402626 60.0
76.768394 136.0
76.853867 160.0
77.208466 148.0
77.29068 124.0
77.662079 156.0
77.832306 164.0
77.844597 92.0
78.045326 236.0
78.418106 176.0
78.937126 136.0
79.183113 44.0
79.532394 104.0
79.782852 148.0
80.153053 172.0
80.331337 132.0
81.067963 228.0
81.193451 184.0
81.27417 168.0
81.577682 84.0
81.617241 164.0
81.97905 128.0
82.099831 212.0
82.294708 40.0
82.641731 92.0
83.011238 224.0
83.343414 164.0
83.516121 132.0
83.614365 116.0
84.471291 140.0
84.519485 192.0
84.552422 160.0
84.805168 100.0
85.045441 172.0
85.519638 92.0
85.689049 140.0
85.919502 120.0
86.250046 168.0
86.527527 68.0
86.675697 116.0
87.022545 200.0
87.143265 144.0
87.768654 324.0
87.880562 56.0
88.201767 128.0
88.469261 120.0
88.516068 132.0
89.018616 172.0
89.163261 108.0
89.195213 104.0
89.560242 164.0
89.678947 196.0
89.694023 48.0
89.85054 44.0
90.056297 176.0
91.058205 68.0
91.310974 104.0
91.472702 204.0
91.607903 116.0
91.701271 84.0
91.846176 232.0
92.050377 148.0
92.273933 144.0
92.363808 172.0
92.495834 180.0
92.570503 192.0
92.842621 164.0
92.859879 164.0
93.295753 124.0
93.36113 176.0
93.472702 168.0
93.58049 140.0
94.021904 124.0
94.145462 200.0
94.274887 144.0
94.421814 116.0
94.590141 128.0
94.892349 188.0
95.096031 160.0
95.111557 160.0
95.220291 260.0
95.992874 116.0
96.113808 124.0
96.53244 152.0
96.621796 44.0
97.007584 204.0
97.076202 212.0
97.193901 64.0
97.665382 152.0
98.248459 104.0
98.534714 136.0
98.823372 180.0
99.019341 216.0
99.215508 128.0
99.467438 196.0
100.300934 148.0
100.777832 156.0
101.46431 68.0
101.851601 180.0
102.344307 80.0
102.927025 96.0
103.041672 332.0
103.294846 152.0
103.402084 100.0
103.523552 136.0
103.957359 144.0
104.050423 392.0
104.276199 44.0
104.418518 72.0
104.54261 140.0
104.689178 168.0
104.846046 184.0
105.03566 164.0
105.049934 72.0
105.446053 56.0
105.681213 104.0
105.736465 124.0
106.536125 92.0
106.830093 144.0
107.305817 212.0
109.102829 148.0
109.200554 124.0
109.233833 168.0
110.09671 156.0
110.123856 216.0
110.368355 216.0
110.631966 88.0
110.784836 164.0
110.942009 128.0
111.131897 244.0
111.548676 80.0
111.921051 148.0
112.184402 160.0
112.473389 88.0
112.654984 148.0
112.82827 104.0
113.259644 136.0
113.327751 80.0
113.951515 244.0
114.068398 64.0
114.615349 128.0
114.640923 288.0
114.905312 180.0
115.047867 216.0
115.242645 156.0
115.569778 116.0
115.983086 192.0
116.051689 132.0
116.304825 184.0
116.480896 132.0
116.715149 116.0
116.930267 180.0
116.969009 128.0
117.052971 240.0
117.121887 116.0
117.201599 136.0
117.281502 208.0
117.594078 184.0
117.788399 196.0
117.831604 152.0
117.931007 160.0
118.480629 148.0
118.573799 108.0
119.098854 168.0
119.13578 176.0
119.305283 72.0
119.657722 116.0
120.045662 196.0
120.270271 200.0
120.576042 84.0
120.742195 160.0
120.904137 176.0
121.024475 120.0
121.044182 196.0
121.241341 108.0
121.882095 80.0
121.904068 148.0
122.526741 176.0
122.844193 96.0
123.016312 160.0
123.095795 80.0
123.279137 144.0
123.488441 184.0
123.75914 132.0
124.157997 160.0
124.339912 196.0
125.717461 140.0
125.835762 124.0
126.182053 76.0
126.236259 164.0
126.531067 156.0
126.849167 224.0
127.068939 196.0
127.185631 132.0
127.228279 100.0
127.596718 104.0
128.046753 172.0
128.186417 244.0
128.461487 176.0
128.601379 96.0
128.721024 200.0
128.804581 128.0
128.931107 68.0
129.02153 144.0
129.047226 208.0
129.216019 188.0
129.554764 152.0
129.57373 220.0
129.716492 136.0
130.036301 112.0
130.247467 116.0
130.268356 180.0
130.395142 160.0
130.811386 140.0
131.043671 156.0
131.118866 132.0
131.171295 164.0
131.294403 124.0
131.333176 200.0
131.862869 128.0
132.043488 176.0
132.12355 92.0
132.37532 76.0
132.496704 112.0
132.608994 172.0
132.712143 100.0
132.757996 188.0
133.125168 156.0
133.672272 108.0
134.096008 168.0
134.119049 104.0
134.885376 188.0
135.132828 216.0
135.658524 104.0
135.895081 80.0
135.955399 168.0
136.326965 228.0
137.351364 44.0
137.468018 76.0
137.727158 176.0
137.80658 136.0
138.937378 140.0
139.071121 176.0
140.704773 148.0
140.744919 148.0
140.796875 116.0
142.0522 148.0
142.186539 188.0
142.281494 180.0
142.973175 152.0
143.273178 116.0
143.532974 216.0
144.230072 192.0
144.634308 228.0
144.825851 108.0
145.031906 88.0
145.070267 192.0
145.106232 148.0
145.218933 264.0
145.240509 256.0
145.492477 108.0
145.629349 116.0
145.886459 36.0
145.93454 196.0
146.297806 164.0
147.05307 104.0
147.55954 56.0
147.798981 140.0
149.031281 112.0
150.12851 116.0
150.277298 128.0
150.39444 132.0
150.66304 112.0
150.951447 92.0
151.078629 188.0
151.115326 36.0
151.303772 36.0
151.455597 196.0
151.624649 128.0
151.84285 164.0
151.921341 140.0
152.505753 160.0
152.941101 180.0
153.386932 100.0
153.751953 104.0
154.201431 124.0
154.451157 192.0
154.49321 120.0
154.535263 48.0
155.583603 88.0
155.725128 148.0
155.789719 144.0
156.052521 172.0
156.082993 140.0
156.213562 144.0
156.78746 168.0
157.039261 184.0
157.063324 628.0
157.086655 132.0
157.109116 88.0
157.545975 208.0
157.670914 252.0
158.066025 120.0
158.36142 108.0
158.742355 144.0
158.852707 128.0
159.317108 108.0
159.435196 52.0
159.658951 248.0
160.048569 172.0
160.308426 192.0
160.326065 220.0
160.366394 200.0
160.605927 236.0
160.711868 196.0
160.742157 140.0
161.355911 256.0
161.517746 120.0
161.99617 132.0
162.067108 164.0
162.236908 60.0
162.751938 148.0
162.985611 136.0
163.529816 72.0
163.608719 152.0
163.965317 224.0
164.029037 144.0
164.240677 136.0
164.935196 228.0
165.349533 160.0
165.382797 168.0
165.531281 180.0
165.915604 188.0
166.077148 148.0
166.146408 176.0
166.215683 240.0
166.893784 88.0
167.019806 156.0
167.756241 184.0
167.792328 60.0
167.818115 196.0
168.083786 176.0
168.421982 100.0
168.587326 196.0
168.641602 56.0
169.049347 156.0
169.625183 44.0
170.009033 160.0
171.676529 176.0
171.98439 168.0
172.054871 172.0
172.099258 172.0
172.308197 60.0
173.033157 276.0
173.098083 112.0
173.194992 96.0
174.076172 64.0
174.149704 116.0
174.496582 168.0
174.517609 224.0
174.830185 140.0
174.891159 232.0
174.972763 172.0
175.030685 204.0
175.049118 152.0
175.28093 76.0
176.003662 180.0
176.043259 172.0
176.52684 96.0
176.807266 148.0
177.121201 168.0
177.883347 132.0
178.361465 116.0
179.170441 52.0
179.274353 184.0
179.300995 132.0
179.418274 164.0
179.829056 176.0
180.160172 88.0
180.184204 148.0
180.440781 164.0
180.641342 240.0
180.710892 132.0
180.883011 256.0
181.077621 52.0
181.176727 108.0
181.233002 144.0
181.329468 208.0
181.527847 200.0
181.581482 48.0
182.016205 176.0
182.036362 432.0
182.107513 40.0
182.499863 156.0
182.634323 172.0
182.693497 112.0
182.908768 128.0
182.951843 124.0
183.046326 512.0
183.072998 148.0
183.266937 140.0
183.95195 180.0
184.006104 2324.0
184.055283 316.0
184.119339 240.0
184.186874 136.0
184.35437 52.0
184.521957 52.0
184.770767 168.0
184.868179 64.0
184.954773 128.0
185.011826 392.0
185.058594 5448.0
185.174088 64.0
185.26619 120.0
185.331207 208.0
185.417923 48.0
185.5914 156.0
185.762268 132.0
185.802963 164.0
185.963058 48.0
186.002884 416.0
186.064011 868.0
186.106934 168.0
186.278015 124.0
186.424728 160.0
186.481812 184.0
186.579666 36.0
186.963181 180.0
187.06987 160.0
187.328018 184.0
187.401581 72.0
187.49968 176.0
187.603256 176.0
187.755936 176.0
187.810486 188.0
187.938705 76.0
188.015106 248.0
188.31543 140.0
188.353668 184.0
188.400101 132.0
188.528519 100.0
188.69252 32.0
188.747208 128.0
189.771225 224.0
189.90834 36.0
190.28978 164.0
190.803528 64.0
190.91626 144.0
191.084045 112.0
191.359268 176.0
192.2827 132.0
192.625061 84.0
192.848877 168.0
192.872406 140.0
192.951157 176.0
193.092178 164.0
193.723251 184.0
193.92276 268.0
194.06691 160.0
195.174744 176.0
195.69783 156.0
195.7229 64.0
195.93457 88.0
196.006134 220.0
196.720978 216.0
196.793564 280.0
197.003021 48.0
197.084045 160.0
197.419479 180.0
197.488831 160.0
197.637665 164.0
197.822372 184.0
198.032379 184.0
198.057587 180.0
198.225677 176.0
198.75061 152.0
198.89595 132.0
199.002625 228.0
199.128998 144.0
199.154266 136.0
199.398697 64.0
199.902084 136.0
200.045624 160.0
200.437103 168.0
200.527283 56.0
201.046997 368.0
201.418869 184.0
202.016708 612.0
202.06012 284.0
202.094528 192.0
202.131317 124.0
202.442688 160.0
202.558807 144.0
202.598465 108.0
202.774139 128.0
202.808151 188.0
203.021698 212.0
203.06424 248.0
203.08905 224.0
204.020233 180.0
204.057358 196.0
204.361511 168.0
204.609116 84.0
204.666061 212.0
205.103531 292.0
205.846542 168.0
205.977921 152.0
206.112198 204.0
207.10202 160.0
207.167908 164.0
207.248123 204.0
207.451599 220.0
207.52327 176.0
208.211945 220.0
209.001572 220.0
209.099213 204.0
209.333481 64.0
209.814651 188.0
209.918457 148.0
209.981903 120.0
210.032608 568.0
210.072388 140.0
210.105927 220.0
210.356995 112.0
210.452255 136.0
210.547546 136.0
210.689087 128.0
210.83934 188.0
210.978073 120.0
211.035782 1744.0
211.490067 116.0
211.542175 164.0
211.585602 124.0
211.631912 48.0
211.72168 160.0
211.883896 60.0
212.004501 632.0
212.044708 252.0
212.251984 196.0
212.751007 180.0
213.003632 320.0
213.044312 148.0
213.348404 236.0
213.50354 172.0
213.829376 112.0
213.960358 192.0
214.015686 136.0
214.202072 96.0
215.012619 188.0
215.489594 196.0
215.561615 148.0
215.721054 160.0
215.938736 148.0
216.052887 176.0
216.111328 248.0
216.275208 136.0
216.471359 116.0
216.705688 168.0
217.047913 340.0
217.512146 148.0
217.585541 116.0
217.620758 132.0
217.729416 104.0
217.752899 108.0
217.958542 132.0
217.99086 180.0
218.040817 128.0
218.370102 140.0
218.949875 44.0
219.695587 188.0
219.972977 180.0
220.132416 176.0
220.300766 140.0
220.359848 80.0
220.478043 140.0
221.001358 172.0
221.762482 152.0
221.827698 164.0
221.996231 156.0
222.076767 148.0
222.317078 68.0
222.388306 132.0
223.187408 156.0
223.577087 160.0
224.023712 120.0
224.130966 100.0
224.530411 52.0
225.022751 160.0
225.082474 132.0
225.127258 176.0
225.154144 112.0
225.679306 168.0
225.727905 80.0
226.028183 228.0
226.098541 120.0
226.185638 64.0
227.05452 84.0
227.269089 188.0
227.306503 72.0
227.372528 76.0
227.546616 128.0
227.59166 240.0
227.92807 156.0
228.062454 860.0
228.761139 240.0
228.809311 52.0
229.048325 700.0
229.098419 72.0
229.158676 112.0
229.651077 204.0
230.05835 300.0
230.190231 204.0
230.440933 184.0
230.81572 100.0
230.860565 24.0
230.951813 188.0
231.060699 172.0
231.442062 140.0
231.511703 32.0
231.611649 140.0
231.641937 88.0
231.926758 196.0
231.991089 128.0
232.1026 148.0
232.229965 136.0
232.955414 124.0
233.019211 148.0
233.08606 92.0
233.250168 196.0
233.344406 156.0
234.086823 108.0
234.467606 56.0
234.958527 184.0
235.010391 52.0
235.388885 164.0
235.70961 200.0
235.825745 196.0
236.009155 164.0
236.321136 176.0
236.385391 128.0
236.91507 72.0
236.991165 1116.0
237.126495 76.0
237.230698 152.0
237.273621 188.0
237.663132 72.0
238.000763 332.0
238.037323 128.0
238.446182 48.0
238.479996 176.0
238.698257 44.0
239.034286 448.0
239.591858 244.0
240.028488 152.0
240.923523 52.0
241.037842 140.0
241.07608 176.0
241.730499 92.0
242.021454 112.0
242.464432 160.0
242.52951 68.0
242.672104 132.0
242.886093 188.0
243.053619 176.0
243.106369 232.0
243.34227 92.0
243.820618 92.0
244.119064 200.0
244.259018 92.0
245.065308 124.0
245.333328 152.0
245.479874 116.0
245.613983 44.0
245.819885 192.0
246.019638 112.0
246.041489 160.0
246.81633 108.0
247.060272 216.0
247.357559 136.0
247.90564 32.0
248.23793 184.0
249.001038 632.0
249.041336 32.0
249.399521 132.0
250.006516 116.0
250.028534 176.0
250.154434 160.0
250.860062 88.0
250.90419 80.0
251.00914 424.0
251.27002 112.0
252.038971 168.0
252.100449 36.0
252.400742 120.0
252.473465 188.0
252.562027 164.0
252.761337 136.0
253.014526 160.0
253.049362 288.0
253.10318 180.0
253.315369 160.0
253.467453 212.0
253.578857 296.0
254.009567 140.0
254.272919 264.0
254.403061 116.0
255.321304 128.0
256.206177 224.0
256.661926 136.0
256.827759 176.0
256.904327 132.0
257.015991 132.0
257.140442 180.0
257.865417 156.0
258.370636 96.0
258.617035 140.0
258.700256 152.0
259.081329 260.0
259.308838 192.0
259.411407 152.0
259.456299 112.0
259.773773 128.0
260.043274 176.0
260.181305 144.0
260.268005 92.0
260.560272 168.0
261.434845 112.0
261.595764 212.0
261.766418 132.0
261.866241 120.0
261.92099 92.0
262.046631 156.0
262.33255 128.0
262.917236 184.0
263.025452 244.0
263.466156 120.0
263.828094 100.0
264.006378 140.0
264.054443 112.0
264.161163 52.0
264.326172 96.0
264.368256 124.0
264.601288 88.0
264.918671 52.0
265.006531 164.0
265.049774 196.0
265.202209 136.0
265.352936 112.0
265.476135 136.0
265.573425 56.0
265.634979 188.0
265.694855 208.0
265.800507 84.0
265.852448 28.0
265.917877 248.0
266.023834 39396.0
266.123108 52.0
266.164062 68.0
266.205627 100.0
266.27182 64.0
266.359497 88.0
266.383972 84.0
266.444336 68.0
266.466125 100.0
266.508362 60.0
266.566132 128.0
266.612335 168.0
266.724396 228.0
266.778107 108.0
266.810608 80.0
266.833374 68.0
266.921143 88.0
267.025757 4672.0
267.087006 156.0
267.138916 100.0
267.148682 56.0
267.15979 152.0
267.186432 64.0
267.233398 60.0
267.2771 28.0
267.320038 80.0
267.387665 88.0
267.497803 148.0
267.643524 60.0
267.710175 76.0
267.884521 76.0
267.952911 56.0
268.022491 1792.0
268.079987 172.0
268.187531 52.0
268.24295 44.0
268.301636 72.0
268.329346 72.0
268.376617 84.0
268.503784 32.0
268.593475 52.0
268.625793 140.0
268.663635 72.0
268.696259 56.0
268.737946 152.0
268.797394 88.0
268.867157 116.0
268.9198 116.0
268.954041 140.0
269.022736 432.0
269.092529 208.0
269.411194 64.0
269.600708 108.0
269.731445 128.0
269.794922 148.0
270.012604 40.0
270.271057 212.0
270.647461 56.0
270.693298 80.0
270.88324 128.0
271.269928 76.0
271.312531 156.0
271.394501 48.0
271.55191 136.0
271.624054 48.0
272.96402 92.0
273.062683 96.0
273.776825 172.0
273.981018 64.0
274.838226 40.0
274.891022 148.0
276.080261 112.0
276.136475 200.0
277.394684 100.0
277.523987 132.0
278.058044 136.0
278.463074 144.0
278.486328 120.0
278.542786 204.0
278.725525 120.0
278.845154 80.0
279.067871 180.0
279.650024 80.0
279.70993 104.0
280.075317 1244.0
280.319397 84.0
280.687347 52.0
280.796112 200.0
281.075378 232.0
281.857666 136.0
281.93454 140.0
281.972351 200.0
282.016296 140.0
282.071564 152.0
282.275513 192.0
282.312286 148.0
282.589905 124.0
282.717072 168.0
282.852753 156.0
283.00827 172.0
283.035065 132.0
284.034729 2308.0
284.88974 56.0
285.029144 236.0
285.138397 60.0
285.20224 40.0
286.025909 224.0
286.107117 84.0
286.235046 136.0
286.710022 76.0
287.025696 204.0
287.161774 144.0
287.782684 216.0
289.229584 196.0
289.910309 148.0
289.954376 136.0
290.059784 2024.0
290.327301 124.0
290.445984 84.0
290.751343 224.0
290.8396 92.0
291.022034 544.0
291.068207 192.0
291.17572 124.0
291.590179 44.0
291.739746 76.0
291.76355 204.0
291.922821 132.0
292.001099 8800.0
292.076385 148.0
292.116516 64.0
292.358795 144.0
292.39621 36.0
292.425903 44.0
292.665131 160.0
292.805725 56.0
292.845612 36.0
292.910339 100.0
293.009674 1280.0
293.049103 120.0
293.15564 80.0
293.213562 60.0
293.237427 68.0
293.743408 96.0
293.892151 232.0
293.919464 164.0
294.000122 308.0
294.073029 44.0
294.62674 100.0
294.653534 140.0
294.783356 68.0
294.861969 48.0
294.933746 40.0
295.009308 180.0
295.159363 152.0
295.552734 68.0
295.922363 212.0
298.984222 184.0
299.207947 216.0
300.448608 152.0
301.418793 176.0
303.50946 108.0
304.002014 212.0
304.283173 124.0
304.455872 92.0
305.708252 132.0
305.750031 72.0
306.045898 132.0
306.233948 160.0
306.369812 96.0
306.561432 260.0
306.711304 148.0
307.025085 116.0
307.08786 164.0
307.262268 52.0
307.373901 132.0
307.461151 48.0
307.590302 140.0
307.695007 156.0
307.925476 124.0
308.023285 180.0
308.071014 4664.0
308.128937 120.0
308.159515 204.0
308.201447 84.0
308.23291 48.0
308.309784 140.0
308.348206 68.0
308.432098 280.0
308.481049 48.0
308.512512 104.0
308.591461 136.0
308.666321 76.0
308.799225 88.0
308.881653 176.0
308.942627 200.0
309.03006 25580.0
309.149078 80.0
309.18988 68.0
309.217468 176.0
309.255707 68.0
309.324066 60.0
309.35907 96.0
309.397583 52.0
309.428467 68.0
309.452057 128.0
309.481598 60.0
309.511169 72.0
309.561005 100.0
309.614655 64.0
309.639191 44.0
309.704651 196.0
309.755463 40.0
309.816833 144.0
309.849335 44.0
309.894897 192.0
310.014618 13244.0
310.217316 64.0
310.241852 28.0
310.294769 80.0
310.333008 56.0
310.396118 72.0
310.49646 132.0
310.743347 56.0
310.841583 92.0
310.889252 76.0
311.018494 2628.0
311.171936 68.0
311.27829 76.0
311.343567 112.0
311.687836 40.0
311.733521 36.0
311.758118 60.0
311.821381 100.0
311.934143 188.0
312.022827 1132.0
312.074463 36.0
312.109619 36.0
312.137756 88.0
312.186981 92.0
312.278412 112.0
312.30304 56.0
312.352295 112.0
312.40152 96.0
312.454315 56.0
312.482452 60.0
312.535217 48.0
312.573944 32.0
312.623199 56.0
312.773956 48.0
312.84845 104.0
312.925903 84.0
312.96463 76.0
313.003906 156.0
313.056183 48.0
313.253418 120.0
313.281586 80.0
313.419006 72.0
313.50708 80.0
313.690369 48.0
314.088837 104.0
315.236237 76.0
315.448273 52.0
315.480103 68.0
315.508392 68.0
315.536652 84.0
316.12381 104.0
316.382202 136.0
317.367096 72.0
317.970154 68.0
318.492065 76.0
318.858002 120.0
319.455353 108.0
319.747131 196.0
320.566193 112.0
322.125305 80.0
322.200317 180.0
322.62561 112.0
322.832977 132.0
323.052887 220.0
323.140594 48.0
323.16922 76.0
323.845795 60.0
325.20105 64.0
326.681458 188.0
327.026886 116.0
327.088074 116.0
328.194061 76.0
328.691833 108.0
329.088867 112.0
339.440918 52.0
339.763672 160.0
340.773285 120.0
340.964355 132.0
345.806793 164.0
349.071442 128.0
349.767151 176.0
349.793182 56.0
350.005402 128.0
350.053802 124.0
350.324951 140.0
350.389008 128.0
350.49707 44.0
350.612579 92.0
350.724396 188.0
350.825043 156.0
350.999908 164.0
351.075897 15216.0
351.156891 100.0
351.235229 168.0
351.313568 132.0
351.362061 40.0
351.442749 88.0
351.562042 60.0
351.604584 36.0
351.648712 68.0
351.731506 148.0
351.793396 72.0
351.821075 104.0
351.877075 60.0
351.951752 148.0
352.078522 2776.0
352.153412 40.0
352.213165 64.0
352.265472 44.0
352.299072 76.0
352.560638 100.0
352.893311 40.0
353.077545 1368.0
353.211182 88.0
353.458099 32.0
353.540405 48.0
353.701355 112.0
353.764984 104.0
353.841553 64.0
353.892273 56.0
353.952179 92.0
354.023346 104.0
354.063477 128.0
354.078064 124.0
354.091736 168.0
354.165649 72.0
354.239532 88.0
354.400452 112.0
354.446625 40.0
354.75769 176.0
354.986389 36.0
355.211426 140.0
355.245178 168.0
355.372742 52.0
355.534088 52.0
355.616669 40.0
356.273773 96.0
356.382721 44.0
356.506714 100.0
356.53302 72.0
356.65329 88.0
358.625549 72.0
360.021484 96.0
360.146088 68.0
360.3992 68.0
361.900787 60.0
362.27951 112.0
363.511719 148.0
364.506592 124.0
364.730804 60.0
365.160461 148.0
367.762695 196.0
369.16861 112.0
369.907013 72.0
375.837006 76.0
383.550629 60.0
386.197906 92.0
386.604797 144.0
389.494293 40.0
390.237 144.0
391.259918 108.0
391.602478 164.0
393.070801 176.0
393.122437 4760.0
393.242645 44.0
393.293945 52.0
393.368927 28.0
393.629517 56.0
393.692688 44.0
394.12442 1136.0
394.320831 48.0
394.680573 84.0
394.996948 188.0
395.118927 472.0
395.297638 40.0
396.14093 140.0
396.50943 44.0
396.786896 64.0
398.112152 76.0
399.738007 120.0
403.803131 76.0
405.596863 80.0
411.914276 52.0
416.87738 108.0
431.465363 84.0
431.800293 68.0
434.115265 168.0
442.255951 108.0
447.440155 88.0
451.72348 108.0
452.514862 92.0
453.260315 68.0
459.391052 64.0
460.611877 96.0
462.523224 64.0
465.966705 92.0
467.759979 100.0
476.152344 72.0
491.001984 124.0
496.982605 96.0
499.043488 120.0
505.224823 96.0
509.54657 100.0
515.290833 120.0
515.566406 48.0
517.248901 76.0
534.187744 88.0
535.158752 60.0
536.421082 104.0
540.341736 60.0
540.499084 80.0
546.791626 80.0
561.601807 68.0
577.743042 60.0
578.915649 100.0
583.911499 120.0
598.959473 128.0
608.907898 112.0
609.654602 132.0
616.128967 128.0
632.940125 52.0
654.766174 64.0
671.685364 56.0
672.314819 100.0
686.711731 84.0
694.730408 148.0
696.299805 92.0
700.670959 52.0
715.819214 56.0
717.156433 80.0
723.593323 52.0
725.559509 88.0
747.71167 56.0
755.262756 44.0
770.605774 96.0
779.232117 72.0
788.89563 104.0
811.494019 148.0
824.975281 92.0
825.987427 148.0
828.139526 100.0
845.798889 108.0
853.026428 104.0
888.930847 28.0
899.870972 76.0
961.824036 92.0
962.373474 40.0
996.22937 40.0
1027.956787 148.0
1057.189697 104.0
1066.886353 128.0
1077.22168 160.0
1142.397705 56.0
1172.324585 236.0
1225.133057 100.0
1226.840332 128.0
1234.730469 64.0
1240.633057 120.0
1243.909058 32.0
1251.283447 252.0
1257.726562 184.0
1281.939331 96.0
1288.103638 84.0
1288.989624 92.0
1294.748169 140.0
1301.072388 36.0
1308.26123 56.0
1359.483154 128.0
1435.138794 20.0
1454.315796 168.0
1471.252686 200.0
1487.750122 148.0
