>compound ARGATROBAN
>formula C23H36N6O5S
>ionization [M+H]+
>parentmass 509.255585
#inchi InChI=1S/C23H36N6O5S/c1-14-8-10-29(18(12-14)22(31)32)21(30)17(6-4-9-26-23(24)25)28-35(33,34)19-7-3-5-16-11-15(2)13-27-20(16)19/h3,5,7,14-15,17-18,27-28H,4,6,8-13H2,1-2H3,(H,31,32)(H4,24,25,26)/t14-,15?,17+,18-/m1/s1
#inchikey KXNPVXPOPUZYGB
#Ion_Source LC-ESI
#Instrument qTof
#Compound_Source Commercial
#PI Dorrestein
#Data_Collector Garg_Neha
#Scan -1
#Precursor_MZ 509.254
#ExactMass 508.247
#Charge 1
#CAS_Number N/A
#Pubmed_ID N/A
#Smiles C[C@@H]1CCN([C@H](C1)C(=O)O)C(=O)[C@H](CCCN=C(N)N)NS(=O)(=O)c2cccc3CC(C)CNc23
#INCHI_AUX N/A
#Library_Class 1
#SpectrumID CCMSLIB00000078951
#IonMode Positive
#UpdateWorkflowName UPDATE-SINGLE-ANNOTATED-GOLD
#LibraryQualityString Gold
#TaskID 278b19f5865741e282cec7349aa7e7a1
##Scan# 1189
#SpectrumFile NCP003272_G2_H11_BC3_01_15716.mzXML
#LibraryName NIHcollectionI_05062014.mgf
#MQScore -1
#Organism NIHcollectionI_05062014
#TIC_Query 0
#RT_Query -1
#MZErrorPPM -1
#SharedPeaks 0
#MassDiff 0
#LibMZ -1
#SpecMZ 509.254
#SpecCharge 0
#internalFilename spec-00000.mgf

>collision 10
47.524052 160.0
48.005489 140.0
49.03138 140.0
49.98365 224.0
51.572063 188.0
53.988102 196.0
57.886086 172.0
60.067135 232.0
61.005554 224.0
61.696163 152.0
63.73251 176.0
65.71315 172.0
67.021622 148.0
70.346733 164.0
73.851509 144.0
74.976074 248.0
75.639313 148.0
75.798645 148.0
79.783134 140.0
88.686958 148.0
88.979599 156.0
90.618561 172.0
92.228508 180.0
92.992737 192.0
95.060631 152.0
95.199425 164.0
97.908005 196.0
98.100601 240.0
100.056427 212.0
101.032326 184.0
101.856216 152.0
103.271194 148.0
104.049393 120.0
106.068916 152.0
106.773163 140.0
108.043602 376.0
108.219704 144.0
109.192932 240.0
112.086594 3920.0
112.109268 148.0
112.258934 140.0
112.327324 108.0
113.078857 148.0
113.102165 168.0
113.621086 172.0
114.058777 144.0
115.085342 288.0
116.073929 188.0
117.374847 172.0
118.01181 164.0
120.079124 164.0
125.089867 192.0
126.090996 568.0
127.899117 188.0
129.113327 1472.0
129.574707 152.0
130.067291 168.0
130.097092 396.0
130.116745 180.0
131.0746 148.0
132.076523 144.0
132.722351 268.0
133.055023 156.0
133.091309 412.0
134.053268 172.0
135.06459 176.0
138.064484 284.0
139.0746 160.0
140.082275 184.0
142.08667 444.0
144.078323 220.0
144.102722 528.0
144.685776 192.0
145.065689 284.0
145.796326 212.0
146.070786 160.0
146.098389 2288.0
147.065567 180.0
147.104126 1388.0
148.112137 872.0
149.040176 228.0
149.114807 312.0
150.092072 508.0
154.086624 200.0
154.140976 152.0
155.090622 580.0
156.100616 284.0
156.843658 144.0
157.010712 224.0
157.106766 1260.0
158.091537 1704.0
159.092865 172.0
160.073654 168.0
160.466125 192.0
161.026321 152.0
161.08313 2244.0
161.246124 144.0
162.091141 2464.0
163.096085 224.0
165.143784 164.0
167.151138 172.0
168.111115 160.0
169.774506 172.0
173.102585 368.0
174.112366 180.0
175.119141 964.0
176.100357 148.0
176.120575 232.0
177.03392 184.0
177.137848 400.0
178.092117 160.0
178.146011 236.0
179.15477 1076.0
184.077881 188.0
188.123367 156.0
191.058304 160.0
192.047241 140.0
192.419815 140.0
193.09404 164.0
193.13266 272.0
194.066742 324.0
194.162003 484.0
195.045044 632.0
195.076569 184.0
195.148804 536.0
195.304581 180.0
196.047714 160.0
196.173355 148.0
197.0401 144.0
197.295578 164.0
198.676224 168.0
199.128143 168.0
203.800568 236.0
205.788635 144.0
208.14798 288.0
209.016068 196.0
209.069885 8668.0
210.06044 1372.0
211.065811 600.0
211.660095 168.0
211.95845 140.0
212.051773 256.0
212.071014 324.0
215.150574 200.0
216.172043 212.0
216.373993 160.0
218.122391 156.0
219.049301 144.0
220.040726 576.0
221.042694 172.0
221.128128 164.0
221.174484 356.0
222.031586 140.0
222.108688 168.0
222.158203 568.0
223.143814 636.0
224.097504 232.0
224.131149 136.0
225.153473 156.0
226.129715 156.0
227.085754 216.0
227.131836 176.0
228.068756 964.0
228.661163 188.0
229.070663 328.0
230.077881 196.0
231.063095 172.0
232.951752 204.0
233.873093 192.0
233.958328 140.0
236.186707 296.0
236.43988 164.0
237.064987 10064.0
237.175446 360.0
237.527023 172.0
238.06749 1024.0
238.175095 184.0
239.065125 360.0
239.109909 160.0
239.140793 744.0
239.197479 160.0
239.904587 260.0
240.063202 120.0
240.148499 348.0
240.171158 388.0
241.171829 304.0
242.733566 184.0
243.161957 196.0
244.158951 180.0
249.703995 164.0
252.216888 200.0
253.064713 180.0
254.196701 392.0
255.078293 608.0
255.19989 152.0
256.075134 172.0
260.174469 184.0
263.146545 148.0
264.840515 188.0
265.161499 116.0
265.916962 152.0
266.137665 136.0
268.141541 172.0
269.103729 116.0
269.17569 172.0
275.118469 152.0
280.055939 168.0
280.168549 124.0
282.197113 832.0
283.179565 408.0
283.259186 248.0
283.852417 156.0
284.181122 152.0
286.1539 244.0
287.208771 168.0
289.122833 184.0
293.864685 140.0
298.184143 152.0
299.118713 176.0
301.209961 144.0
302.106689 144.0
303.185059 144.0
303.436554 144.0
304.110748 940.0
305.108459 420.0
305.558563 240.0
307.108704 148.0
307.140106 152.0
309.999969 148.0
317.104797 156.0
324.132019 280.0
325.1203 176.0
326.129822 156.0
331.15741 164.0
333.127472 164.0
334.154449 132.0
338.162537 272.0
339.162048 172.0
341.074799 152.0
341.144653 160.0
341.95755 172.0
342.162964 100.0
345.104187 160.0
346.255005 168.0
360.611176 168.0
361.893555 144.0
362.148224 144.0
362.586761 236.0
366.157227 224.0
367.14209 676.0
367.221313 160.0
368.149994 212.0
369.136414 152.0
373.110626 156.0
376.733185 172.0
377.753723 236.0
378.702026 184.0
382.15448 500.0
383.006226 108.0
383.079437 136.0
383.459564 168.0
383.656921 116.0
384.10965 104.0
384.171295 39028.0
384.403992 184.0
384.814117 232.0
384.846344 248.0
385.08194 104.0
385.172913 9548.0
385.521118 108.0
385.742279 108.0
385.789368 168.0
386.083069 104.0
386.170654 1812.0
387.171783 564.0
387.428711 124.0
387.551483 96.0
387.629547 124.0
387.74939 400.0
387.823334 188.0
388.125214 216.0
388.169159 164.0
389.865662 180.0
404.195862 212.0
410.671844 156.0
418.395325 140.0
421.41333 148.0
422.959137 204.0
424.577515 204.0
426.856628 144.0
434.261353 180.0
437.548248 168.0
443.350037 140.0
448.751465 216.0
450.224121 192.0
450.798645 140.0
463.106689 144.0
464.709961 180.0
468.945679 144.0
472.261597 172.0
472.824036 232.0
473.594696 180.0
475.190094 136.0
481.221558 148.0
483.088379 216.0
492.218323 440.0
493.224213 140.0
496.309875 148.0
500.370789 148.0
503.420624 140.0
504.917725 180.0
505.277618 104.0
505.639862 136.0
507.077179 208.0
507.235321 288.0
507.395233 160.0
507.485413 104.0
507.666504 116.0
507.871277 220.0
507.998749 164.0
508.144409 300.0
508.23819 192.0
508.602295 172.0
508.662628 176.0
508.778717 236.0
508.88028 136.0
509.019745 144.0
509.075623 112.0
509.131012 336.0
509.255585 85260.0
509.408844 120.0
509.520386 252.0
509.552307 180.0
509.865356 216.0
509.940155 132.0
509.992554 248.0
510.155609 268.0
510.257141 29008.0
510.357574 184.0
510.428314 100.0
510.596252 156.0
510.661713 148.0
510.770996 148.0
510.846893 128.0
511.076508 204.0
511.124756 104.0
511.171143 160.0
511.178345 276.0
511.255676 6100.0
511.387054 156.0
511.431366 96.0
511.747406 156.0
512.015686 104.0
512.25708 1948.0
512.487122 144.0
512.688843 144.0
512.785828 140.0
512.924316 140.0
513.05304 224.0
513.104736 120.0
513.214539 116.0
513.247559 232.0
513.526062 124.0
513.892822 156.0
514.354126 192.0
514.861572 96.0
536.717896 180.0
629.502441 148.0
639.020996 152.0
836.135681 152.0
908.745789 168.0
911.477722 140.0
1569.11145 168.0
1605.874268 208.0
1683.452148 196.0
1687.10437 184.0
1729.865601 156.0
1791.723633 164.0
1806.437866 176.0
1822.410034 148.0
1838.768311 184.0
1841.013672 152.0
1893.526489 176.0
1925.872559 164.0
1972.981934 184.0
1987.320679 164.0
