>compound Carbimazole
>formula C7H10N2O2S
>ionization [M+H]+
>parentmass 187.053848
#inchi InChI=1S/C7H10N2O2S/c1-3-11-7(10)9-5-4-8(2)6(9)12/h4-5H,3H2,1-2H3
#inchikey CFOYWRHIYXMDOT
#Ion_Source LC-ESI
#Instrument qTof
#Compound_Source Commercial
#PI Dorrestein
#Data_Collector Garg_Neha
#Scan -1
#Precursor_MZ 187.054
#ExactMass 186.046
#Charge 1
#CAS_Number 22232-54-8
#Pubmed_ID N/A
#Smiles C1N(C(N(C=1)C)=S)C(=O)OCC
#INCHI_AUX N/A
#Library_Class 1
#SpectrumID CCMSLIB00000078639
#IonMode Positive
#UpdateWorkflowName UPDATE-SINGLE-ANNOTATED-GOLD
#LibraryQualityString Gold
#TaskID 77f51c88eb8b467eb4a01dd2d0cb90d2
##Scan# 1039
#SpectrumFile Plate10_21_40_GC2_01_15744.mzXML
#LibraryName FDALibrary_2_04302014.mgf
#MQScore -1
#Organism FDALibrary_2_04302014
#TIC_Query 0
#RT_Query -1
#MZErrorPPM -1
#SharedPeaks 0
#MassDiff 0
#LibMZ -1
#SpecMZ 187.054
#SpecCharge 0
#internalFilename spec-00000.mgf

>collision 10
50.510471 140.0
50.579807 160.0
51.267235 160.0
55.354385 212.0
55.520363 156.0
56.004883 164.0
58.275063 168.0
58.743969 160.0
61.393959 152.0
64.479034 200.0
68.944016 212.0
70.24408 240.0
72.595467 164.0
73.640419 200.0
74.758224 208.0
76.153427 160.0
77.137917 192.0
77.339073 180.0
77.400345 140.0
81.040527 180.0
81.108627 172.0
82.393501 156.0
84.135162 168.0
84.506172 220.0
86.068512 192.0
86.4049 220.0
87.159523 160.0
87.889435 172.0
88.020096 148.0
89.467545 196.0
90.212708 184.0
92.560547 184.0
97.336876 148.0
97.376152 144.0
97.468483 148.0
100.007088 252.0
100.823532 164.0
102.050316 164.0
102.424629 160.0
102.62616 140.0
103.025772 152.0
105.184425 164.0
109.072906 276.0
109.723099 208.0
111.092209 144.0
113.017128 244.0
113.211189 140.0
114.023865 608.0
114.244858 152.0
114.615318 156.0
114.681381 188.0
114.878059 168.0
114.95507 320.0
114.971436 196.0
115.003029 260.0
115.032547 23040.0
115.223396 164.0
115.534813 108.0
116.033699 1568.0
117.027519 400.0
117.054466 188.0
117.950478 148.0
120.963249 152.0
121.956902 144.0
127.091652 168.0
128.96521 220.0
141.051163 200.0
141.952118 156.0
143.063858 9772.0
144.066116 880.0
145.102661 128.0
145.279373 140.0
145.930527 160.0
145.954269 144.0
146.105789 168.0
151.917023 180.0
152.464569 148.0
152.981094 160.0
154.989014 160.0
158.101761 216.0
159.021698 2076.0
160.022995 184.0
161.020233 136.0
163.113113 196.0
172.113541 148.0
177.764969 148.0
187.053848 8812.0
187.105133 136.0
188.055923 1112.0
189.051422 572.0
200.917877 144.0
1310.790894 172.0
1401.941895 144.0
1408.246094 172.0
1541.914673 156.0
1659.678101 160.0
1680.973633 180.0
1742.432861 164.0
1749.626587 144.0
1811.020996 176.0
1836.443237 148.0
1852.88147 140.0
1857.879639 252.0
1900.752319 168.0
1904.546143 172.0
1940.061768 192.0
1958.990723 140.0
1987.707397 140.0
1990.432495 168.0
1991.826904 168.0
