>compound MLS001333147-01!Tetracycline hydrochloride64-75-5
>formula C22H24N2O8
>ionization [M+H]+
>parentmass 445.1605421800905
#inchi InChI=1S/C22H24N2O8/c1-21(31)8-5-4-6-11(25)12(8)16(26)13-9(21)7-10-15(24(2)3)17(27)14(20(23)30)19(29)22(10,32)18(13)28/h4-6,9-10,15,25,28-29,31-32H,7H2,1-3H3,(H2,23,30)/t9?,10-,15-,21+,22-/m0/s1
#inchikey HKVWCHCBKOJRHE
#origInchi InChI=1S/C22H24N2O8.ClH/c1-21(31)8-5-4-6-11(25)12(8)16(26)13-9(21)7-10-15(24(2)3)17(27)14(20(23)30)19(29)22(10,32)18(13)28;/h4-6,9-10,15,25,28-29,31-32H,7H2,1-3H3,(H2,23,30);1H/t9?,10-,15-,21+,22-;/m0./s1
#Ion_Source LC-ESI
#Instrument qTof
#Compound_Source NIH Pharmacologically Active Library
#PI Dorrestein
#Data_Collector VP/LMS
#Scan -1
#Precursor_MZ 445.165
#ExactMass 444.153
#Charge 1
#CAS_Number N/A
#Pubmed_ID N/A
#Smiles CN(C)[C@H]1[C@@H]2CC3C(=C(O)[C@]2(O)C(=C(C(=O)N)C1=O)O)C(=O)c4c(O)cccc4[C@@]3(C)O.Cl
#INCHI_AUX N/A
#Library_Class 1
#SpectrumID CCMSLIB00000086191
#IonMode Positive
#UpdateWorkflowName UPDATE-SINGLE-ANNOTATED-GOLD
#LibraryQualityString Gold
#TaskID d252d724072548979f1f6f1ced849daf
##Scan# 1263
#SpectrumFile p5-H05_GH5_01_18480.mzXML
#LibraryName Pharm_Active_Library.mgf
#MQScore -1
#Organism Pharm_Active_Library
#TIC_Query 0
#RT_Query -1
#MZErrorPPM -1
#SharedPeaks 0
#MassDiff 0
#LibMZ -1
#SpecMZ 445.165
#SpecCharge 0
#internalFilename spec-00000.mgf

>collision 10
45.027512 168.0
45.090305 136.0
45.2187 208.0
45.480064 168.0
45.688351 136.0
45.735451 172.0
45.866108 156.0
46.082031 228.0
46.217239 124.0
46.230904 204.0
46.668919 152.0
46.77095 128.0
46.920799 152.0
47.02174 192.0
47.135086 40.0
47.292362 160.0
47.395073 220.0
47.657146 160.0
47.948879 92.0
48.089561 124.0
48.43108 136.0
48.559982 120.0
49.11356 124.0
49.754223 156.0
50.189232 132.0
50.237183 44.0
50.594727 112.0
51.077213 188.0
51.400623 132.0
51.884064 204.0
52.089275 180.0
52.24453 208.0
52.463428 208.0
52.610577 68.0
52.700123 196.0
52.838921 136.0
53.393036 192.0
53.611408 180.0
53.732433 224.0
54.059738 152.0
54.543736 68.0
54.558437 188.0
54.614315 196.0
54.858757 236.0
55.222 44.0
55.389259 160.0
55.590897 124.0
55.633938 132.0
56.078705 144.0
56.127899 80.0
56.22039 196.0
56.398117 144.0
56.433998 56.0
56.703453 100.0
56.979557 144.0
57.02063 180.0
57.086277 232.0
57.315083 180.0
57.499062 200.0
57.671242 172.0
58.272861 212.0
58.622837 200.0
58.644173 152.0
58.662464 176.0
59.021252 36.0
59.385731 116.0
59.859077 88.0
60.263206 168.0
60.44257 132.0
61.220291 108.0
61.379238 180.0
61.758739 136.0
62.852173 196.0
62.981628 192.0
63.453209 108.0
63.646782 124.0
63.68013 160.0
64.27713 140.0
64.447983 232.0
64.785561 148.0
65.308868 228.0
65.908585 68.0
66.052475 160.0
66.167374 152.0
66.188423 64.0
66.850723 128.0
66.948402 144.0
66.98912 204.0
67.034744 204.0
67.166801 176.0
67.392097 212.0
67.919243 188.0
68.011131 140.0
68.058739 180.0
68.070229 236.0
68.265785 228.0
68.867332 152.0
68.88385 156.0
69.06237 212.0
69.103729 144.0
69.737206 156.0
70.333504 80.0
70.505539 164.0
70.744728 104.0
70.969231 52.0
71.111816 168.0
71.321777 220.0
71.340263 104.0
71.570763 176.0
71.847168 84.0
71.953491 112.0
72.144402 132.0
72.281395 180.0
72.789932 208.0
73.093727 192.0
73.17421 168.0
73.501465 160.0
73.954346 208.0
74.491051 112.0
74.793694 120.0
74.819519 128.0
74.888397 132.0
75.399094 164.0
75.485527 156.0
75.752068 100.0
75.804047 92.0
75.850838 108.0
75.862976 68.0
75.97049 60.0
76.37513 200.0
76.40889 204.0
76.605011 184.0
76.751411 140.0
76.890968 180.0
77.121513 172.0
77.487259 132.0
77.559105 36.0
77.778366 144.0
77.968056 184.0
77.994415 192.0
78.311134 208.0
78.547325 112.0
78.813911 72.0
79.556 88.0
79.621704 108.0
80.075218 136.0
80.226685 120.0
80.405052 184.0
81.012993 52.0
81.434532 160.0
81.452492 188.0
81.711365 176.0
82.102242 204.0
82.262825 240.0
82.36937 188.0
82.463326 176.0
82.687599 152.0
82.76725 180.0
82.865059 180.0
83.41227 212.0
83.449486 184.0
83.471306 184.0
83.560432 144.0
83.7024 184.0
83.749756 64.0
84.244095 168.0
84.275154 188.0
84.456139 116.0
84.490891 156.0
84.556053 164.0
84.62999 208.0
86.169472 156.0
86.950905 152.0
87.147751 120.0
87.16819 148.0
87.21357 124.0
87.231377 132.0
88.127808 160.0
88.213783 104.0
88.272743 184.0
88.449478 112.0
88.621773 76.0
89.096443 156.0
89.152817 132.0
89.181007 116.0
89.320145 148.0
89.39164 184.0
89.702408 224.0
89.806114 148.0
89.941971 208.0
90.310425 48.0
90.393112 136.0
90.670158 204.0
90.861671 264.0
91.05719 84.0
91.32328 144.0
91.465988 108.0
91.709801 164.0
91.829918 140.0
92.066574 260.0
92.30162 176.0
92.596336 100.0
93.750961 200.0
94.252686 188.0
94.488571 184.0
94.560173 192.0
94.934082 248.0
95.013603 164.0
95.100929 108.0
95.196945 172.0
96.362831 136.0
96.804893 152.0
96.861694 148.0
97.414871 124.0
97.953873 180.0
98.018883 180.0
98.036621 204.0
98.05983 6164.0
98.255493 60.0
98.275223 116.0
98.289032 172.0
98.338371 96.0
98.462753 156.0
98.646507 176.0
98.674187 216.0
98.957115 140.0
99.063301 328.0
99.087662 460.0
99.135384 72.0
99.276138 80.0
99.355476 112.0
99.397148 40.0
99.625473 176.0
99.661232 128.0
99.774521 48.0
99.901802 232.0
99.925674 84.0
100.005272 212.0
100.05703 200.0
100.076942 228.0
100.463585 176.0
100.789024 132.0
100.858971 156.0
100.950935 140.0
101.589867 216.0
102.057823 228.0
102.267044 128.0
102.401947 128.0
102.84552 72.0
103.25972 176.0
103.368759 156.0
103.411461 176.0
103.524841 192.0
103.62207 36.0
103.962723 112.0
104.657928 212.0
105.041077 88.0
105.147179 176.0
105.177788 72.0
105.928246 104.0
105.946686 40.0
105.975365 172.0
106.135246 88.0
106.40197 236.0
106.535461 164.0
107.377342 104.0
107.633232 168.0
107.709648 228.0
107.928719 124.0
108.003166 168.0
108.04454 140.0
108.266022 116.0
108.554077 128.0
108.637039 172.0
108.830055 224.0
109.04818 152.0
109.065903 224.0
109.328941 124.0
109.426781 156.0
110.054367 132.0
110.20266 64.0
110.311333 124.0
110.786369 152.0
111.01519 212.0
111.108818 144.0
111.174271 116.0
111.573357 120.0
111.876305 112.0
112.040565 140.0
112.101669 180.0
112.219711 140.0
112.293518 188.0
112.717857 188.0
112.738983 192.0
112.963104 172.0
113.384201 160.0
113.422615 228.0
113.481972 204.0
113.987152 160.0
114.074295 192.0
114.182739 212.0
114.233788 160.0
114.286972 76.0
115.054253 144.0
115.449547 212.0
115.595009 160.0
115.678482 196.0
115.936256 172.0
116.046974 184.0
116.330162 176.0
116.351631 180.0
116.454704 68.0
116.529892 56.0
116.575012 260.0
116.938469 76.0
117.071953 184.0
117.388733 180.0
117.634697 152.0
117.708099 160.0
117.854988 112.0
117.889557 236.0
118.166336 188.0
118.636299 152.0
118.781586 160.0
119.951477 204.0
120.409683 108.0
120.645676 140.0
120.947556 168.0
121.000092 176.0
121.028435 188.0
121.100822 132.0
121.269531 208.0
121.337486 56.0
121.412041 96.0
121.429588 120.0
121.657791 152.0
121.71048 144.0
121.835678 232.0
121.914772 180.0
122.341743 172.0
122.537498 148.0
122.713814 176.0
122.949844 192.0
122.985161 40.0
123.008331 456.0
123.106583 120.0
123.384995 124.0
123.473442 56.0
123.809837 136.0
123.947182 136.0
123.993721 180.0
124.018097 176.0
124.040268 220.0
124.062431 160.0
124.206573 124.0
125.064262 176.0
125.086525 120.0
125.460777 120.0
125.581192 32.0
125.730675 124.0
125.762871 160.0
125.837822 100.0
126.054047 2568.0
126.15506 180.0
126.226608 148.0
126.97683 164.0
127.057388 324.0
127.4123 52.0
127.808014 168.0
128.06691 180.0
128.114212 136.0
128.337326 104.0
128.951355 156.0
130.106613 116.0
130.152023 132.0
131.045868 176.0
131.086929 144.0
131.890289 164.0
132.036621 140.0
132.100662 28.0
132.116684 132.0
132.217361 168.0
132.379898 100.0
132.418823 80.0
132.998917 112.0
133.063202 156.0
133.145859 116.0
133.451492 152.0
133.531967 116.0
133.688416 124.0
134.059174 204.0
134.146759 108.0
134.37738 152.0
134.472 64.0
134.53894 156.0
134.973297 112.0
135.304169 96.0
135.577499 108.0
135.60762 144.0
135.825577 104.0
135.955505 208.0
136.043701 116.0
136.138901 168.0
136.429352 100.0
136.464218 152.0
136.547928 180.0
136.627014 132.0
136.980865 176.0
137.020477 160.0
137.657242 240.0
137.746948 156.0
137.925919 160.0
138.01944 136.0
138.384445 132.0
138.543701 172.0
138.749939 208.0
139.026505 1200.0
139.097137 76.0
139.113571 80.0
139.19574 88.0
139.59523 164.0
140.031509 168.0
140.065933 168.0
140.155457 140.0
140.207306 40.0
140.638916 224.0
140.683762 92.0
141.033371 192.0
141.575165 72.0
141.793121 196.0
142.042084 176.0
142.552551 192.0
142.742722 140.0
142.930634 196.0
143.135345 164.0
143.364029 176.0
143.447464 116.0
143.530899 228.0
144.063141 264.0
144.586792 108.0
144.960373 172.0
145.061035 120.0
145.212097 264.0
145.286453 180.0
145.420837 100.0
145.574478 220.0
146.382477 104.0
146.50531 120.0
146.736679 204.0
146.999588 164.0
147.01889 180.0
147.05751 136.0
147.45845 156.0
148.039078 208.0
148.223175 188.0
148.584442 168.0
148.946152 168.0
148.97287 152.0
149.023895 212.0
149.179443 180.0
149.60759 116.0
149.751266 100.0
150.42424 128.0
150.663574 200.0
150.736862 176.0
150.849289 136.0
151.093842 92.0
151.27005 136.0
151.350845 172.0
151.434097 156.0
151.720795 256.0
151.789459 212.0
152.029938 204.0
152.058548 156.0
152.137863 48.0
152.238525 188.0
152.79895 180.0
153.01062 160.0
153.080658 144.0
153.316055 64.0
153.725418 140.0
153.811615 260.0
153.843887 160.0
153.939804 208.0
154.01181 76.0
154.049286 12940.0
154.119659 164.0
154.200089 40.0
154.236328 176.0
154.276215 152.0
154.315765 60.0
154.338028 88.0
154.41716 168.0
154.533432 68.0
154.69429 192.0
155.054596 1420.0
155.210983 64.0
155.368362 64.0
155.470093 52.0
156.053085 268.0
156.087204 332.0
156.173203 72.0
156.257782 88.0
156.282654 68.0
156.427002 156.0
156.793152 120.0
156.877899 84.0
157.033127 204.0
157.05864 148.0
157.087372 120.0
157.164719 156.0
157.734131 180.0
157.841629 100.0
157.95668 48.0
158.419785 76.0
158.808319 160.0
159.041779 180.0
159.091873 260.0
159.242538 168.0
159.260117 68.0
159.503845 56.0
159.619492 116.0
159.642136 180.0
159.845886 128.0
160.057922 172.0
160.435257 48.0
160.98027 172.0
161.060944 312.0
161.124237 128.0
161.235413 56.0
161.442719 68.0
161.900772 52.0
162.057831 84.0
162.214966 132.0
162.493927 108.0
162.897583 104.0
163.004288 192.0
163.721664 200.0
163.767517 184.0
164.001923 68.0
164.335999 180.0
164.675522 124.0
164.895248 192.0
164.93869 40.0
165.027008 188.0
165.07225 200.0
165.573227 60.0
165.732056 156.0
165.852493 148.0
165.990936 132.0
166.048477 156.0
166.076279 200.0
166.160233 108.0
166.268005 88.0
166.712296 84.0
166.884506 168.0
167.057846 152.0
167.083939 156.0
167.185471 128.0
167.533081 176.0
167.679947 120.0
167.757278 172.0
168.065262 180.0
168.270676 116.0
168.862427 176.0
168.963318 168.0
169.074585 148.0
169.09787 160.0
169.359375 180.0
169.659973 184.0
170.023117 252.0
170.045334 412.0
170.075027 224.0
170.467194 84.0
170.53476 180.0
170.659546 196.0
170.728317 160.0
170.833786 128.0
171.076584 280.0
171.125275 196.0
171.469131 64.0
171.967285 140.0
172.058655 144.0
172.39299 108.0
172.704102 156.0
172.90033 40.0
172.994553 132.0
173.066269 320.0
173.321945 184.0
173.5159 204.0
173.557846 72.0
173.71521 176.0
174.072556 160.0
174.882584 152.0
175.2453 152.0
175.556351 208.0
175.972382 180.0
176.063049 156.0
176.097382 48.0
176.477921 92.0
177.065384 100.0
177.367432 204.0
177.539764 172.0
177.590164 116.0
178.046661 180.0
178.075882 124.0
178.450562 84.0
179.082199 444.0
179.369034 176.0
179.539673 92.0
179.61702 132.0
179.883865 176.0
179.937256 192.0
180.057419 180.0
180.084122 120.0
180.28183 156.0
180.367355 76.0
180.562531 96.0
180.733749 136.0
181.028198 168.0
181.065689 252.0
181.154083 92.0
181.277328 60.0
181.781464 136.0
182.020386 160.0
182.048706 156.0
182.076767 136.0
182.143921 192.0
182.633133 180.0
182.921051 188.0
183.015274 44.0
183.081131 340.0
183.543396 220.0
183.610825 52.0
183.929199 128.0
184.061478 172.0
184.142502 140.0
184.326202 180.0
184.469452 164.0
184.537033 144.0
184.915756 236.0
184.940109 104.0
184.969894 164.0
185.229843 168.0
186.062378 332.0
186.336685 212.0
186.467117 76.0
186.823334 148.0
187.077911 544.0
188.000412 120.0
188.076828 172.0
188.393585 156.0
188.491943 136.0
188.519272 80.0
188.541138 120.0
188.699677 232.0
189.063492 168.0
189.101807 60.0
189.200348 192.0
189.315353 152.0
190.464523 104.0
190.51947 172.0
190.989532 164.0
191.081528 172.0
191.089233 132.0
191.589645 216.0
191.997589 160.0
192.057373 288.0
192.331436 180.0
192.447372 124.0
192.643463 156.0
192.715302 56.0
193.064148 120.0
193.376221 128.0
194.047653 172.0
194.373886 184.0
194.570953 224.0
194.64592 132.0
194.965393 100.0
195.041351 312.0
195.078491 416.0
195.146072 112.0
195.702545 164.0
195.766586 40.0
195.794434 196.0
196.056778 412.0
196.08139 128.0
196.283417 172.0
196.93515 56.0
197.065857 152.0
197.077927 112.0
197.086899 164.0
197.231339 160.0
197.43544 64.0
197.880356 124.0
197.989563 124.0
198.063614 300.0
198.090393 168.0
198.154831 52.0
198.379028 68.0
198.704346 88.0
198.83342 184.0
198.934479 180.0
199.057327 148.0
199.074966 196.0
199.333298 80.0
199.372635 136.0
199.842117 92.0
200.045853 276.0
200.078659 184.0
200.17157 88.0
200.377197 100.0
200.735153 168.0
201.012268 116.0
201.057785 432.0
201.091095 192.0
201.169662 116.0
202.113632 152.0
202.467484 244.0
202.64595 192.0
203.482635 216.0
203.54509 96.0
203.596207 164.0
204.833466 136.0
204.907532 188.0
204.973068 96.0
205.01355 232.0
205.061401 144.0
205.409271 184.0
205.531952 44.0
205.566193 44.0
205.845947 176.0
206.528992 200.0
206.734985 152.0
207.049896 72.0
207.078079 328.0
207.121506 208.0
207.270477 176.0
207.539917 228.0
207.61734 140.0
207.869797 200.0
208.061203 116.0
208.08609 124.0
208.139618 180.0
208.306198 152.0
208.363647 304.0
208.662552 188.0
208.924271 140.0
209.203415 156.0
209.675797 164.0
209.877594 136.0
210.06044 188.0
210.151596 228.0
210.217972 196.0
210.408478 120.0
210.521088 152.0
210.697281 64.0
210.769516 184.0
211.074051 824.0
211.168457 160.0
211.2668 64.0
211.585144 220.0
211.996445 100.0
212.084473 448.0
212.606949 188.0
212.927704 136.0
213.05838 316.0
213.090302 980.0
213.267639 144.0
213.453705 172.0
213.520599 68.0
213.788239 84.0
214.061661 268.0
214.096252 284.0
214.257034 172.0
214.300735 188.0
214.402725 236.0
214.88678 56.0
215.069824 348.0
215.108582 128.0
215.263321 96.0
215.996902 52.0
216.154892 148.0
216.344254 196.0
216.617477 160.0
217.060043 112.0
217.20961 200.0
218.055237 164.0
218.075806 184.0
218.125778 120.0
218.299255 128.0
218.449249 56.0
218.861282 96.0
218.934906 224.0
219.080505 248.0
219.468262 164.0
219.887161 64.0
219.920456 156.0
220.049515 204.0
220.637451 144.0
220.678253 224.0
220.726151 128.0
221.010117 84.0
221.056137 200.0
221.098892 180.0
221.258728 80.0
221.279449 144.0
221.575623 136.0
221.803802 164.0
222.046936 180.0
222.283478 164.0
222.527664 116.0
222.610809 144.0
222.768219 144.0
222.895981 168.0
223.075806 2240.0
223.484726 64.0
223.654343 56.0
223.797241 128.0
223.907425 124.0
223.93721 180.0
223.984863 192.0
224.043427 312.0
224.078278 496.0
224.554169 216.0
224.646637 144.0
224.757034 128.0
225.052414 252.0
225.090347 588.0
225.195877 144.0
225.372131 96.0
225.404999 108.0
225.662048 96.0
225.775681 124.0
225.796616 104.0
226.009003 220.0
226.063263 3744.0
226.374207 188.0
226.413132 124.0
226.482025 224.0
226.631805 188.0
226.72171 56.0
227.063965 816.0
227.291473 88.0
227.318481 96.0
227.660706 188.0
228.071854 324.0
228.237656 312.0
228.47226 160.0
228.860504 164.0
228.929764 176.0
229.005066 144.0
229.085724 308.0
229.748657 224.0
230.08461 28.0
230.776489 176.0
230.84906 56.0
231.203873 196.0
231.439117 76.0
232.039032 228.0
232.078445 44.0
232.527405 136.0
232.891754 112.0
233.040619 196.0
233.061874 400.0
233.089233 140.0
233.168335 120.0
233.587845 160.0
234.06456 144.0
234.187485 124.0
235.076599 688.0
235.108231 164.0
235.587601 164.0
236.046936 504.0
237.052307 160.0
237.09137 156.0
237.212555 152.0
237.700211 100.0
237.872086 140.0
238.063614 448.0
238.096909 200.0
238.200653 148.0
238.391144 140.0
238.415741 160.0
238.530945 200.0
238.554047 128.0
238.680099 160.0
238.913849 136.0
239.071167 1508.0
239.103134 304.0
239.640442 120.0
240.077728 368.0
240.340347 152.0
240.417496 108.0
240.445282 76.0
240.482315 144.0
240.726212 36.0
240.75708 132.0
240.794144 152.0
241.044571 200.0
241.0867 10784.0
241.133896 152.0
241.205093 60.0
241.368958 28.0
241.443161 28.0
241.622574 172.0
241.748505 92.0
241.826813 52.0
241.873245 176.0
241.972305 124.0
242.006363 124.0
242.058823 1572.0
242.08699 2408.0
242.179779 140.0
242.216949 184.0
242.26651 100.0
242.536102 52.0
242.616699 56.0
242.824463 56.0
242.864777 144.0
242.942337 108.0
243.06543 1348.0
243.28804 100.0
243.482422 60.0
243.53801 120.0
243.597351 104.0
243.619095 104.0
243.753937 140.0
244.067612 868.0
244.290573 212.0
244.334122 144.0
244.589294 68.0
244.716934 176.0
244.841492 104.0
245.010925 168.0
245.063705 308.0
245.396164 192.0
245.658142 112.0
245.882797 168.0
246.166885 28.0
246.663651 40.0
246.91066 204.0
246.976334 268.0
247.072586 376.0
247.170303 132.0
247.398788 148.0
247.711945 124.0
248.044098 144.0
248.069183 112.0
248.10994 220.0
248.37648 144.0
248.668289 120.0
248.787567 140.0
248.866058 72.0
249.047211 268.0
249.312119 196.0
249.510147 48.0
250.058365 212.0
250.299881 224.0
250.693649 160.0
250.841782 196.0
251.070068 2892.0
251.984985 176.0
252.04184 4300.0
252.073975 424.0
252.132721 48.0
252.420395 48.0
252.597504 176.0
252.717728 144.0
252.765182 52.0
252.828476 60.0
252.910767 36.0
253.005737 76.0
253.042542 648.0
253.081253 464.0
253.281235 44.0
253.338257 80.0
253.381027 256.0
253.601257 48.0
253.674164 108.0
253.975403 172.0
254.055557 2344.0
254.175278 52.0
254.292694 120.0
254.892914 164.0
255.06427 1392.0
255.13826 200.0
255.551102 236.0
255.856644 112.0
256.073181 148.0
256.149628 44.0
256.602142 196.0
256.806244 76.0
256.850891 176.0
257.078247 3748.0
257.131683 128.0
257.415802 36.0
257.49884 84.0
257.687317 188.0
257.818329 68.0
257.936584 164.0
258.083344 748.0
258.26593 128.0
258.336304 60.0
258.383606 168.0
259.037354 80.0
259.095032 228.0
259.380219 72.0
259.444336 60.0
259.63031 52.0
259.996033 96.0
260.037781 232.0
260.256073 196.0
261.078705 220.0
261.97995 168.0
262.102356 204.0
262.643982 144.0
262.827881 44.0
263.070038 1628.0
263.476837 160.0
264.04422 164.0
264.069275 252.0
264.518158 144.0
264.770691 144.0
264.945618 120.0
264.968292 56.0
265.05011 320.0
265.083496 540.0
265.548553 44.0
265.840515 32.0
266.090454 184.0
266.155396 192.0
266.210602 112.0
266.33725 164.0
266.403107 176.0
266.50296 200.0
266.616669 48.0
266.707672 164.0
267.017853 380.0
267.064789 9496.0
267.169434 48.0
267.227997 44.0
267.41156 108.0
267.569733 40.0
267.60556 116.0
267.664154 64.0
267.963837 160.0
268.067871 1548.0
268.131042 140.0
268.254761 60.0
268.279968 44.0
268.325592 132.0
268.364716 32.0
268.495148 40.0
268.524506 144.0
268.549225 132.0
268.71698 48.0
268.746338 180.0
268.790283 76.0
268.850769 76.0
268.876862 120.0
268.941895 108.0
269.00415 288.0
269.080536 12048.0
269.162445 100.0
269.196808 32.0
269.355499 80.0
269.443054 132.0
269.484253 64.0
269.585541 44.0
269.626556 132.0
269.658844 188.0
269.722809 56.0
269.758759 180.0
269.817627 256.0
269.875122 128.0
269.918976 216.0
270.030151 120.0
270.08255 2288.0
270.131561 188.0
270.213348 164.0
270.311493 88.0
270.337677 32.0
270.494781 60.0
270.573364 48.0
270.733795 60.0
270.805847 64.0
270.917236 156.0
270.953766 152.0
270.99585 36.0
271.091003 380.0
271.162079 172.0
271.284271 84.0
271.321289 68.0
271.56955 112.0
271.592499 36.0
271.704041 88.0
271.736847 60.0
271.874664 120.0
272.042236 156.0
272.082001 120.0
272.170593 132.0
272.21936 112.0
272.397522 180.0
273.047668 156.0
273.313965 136.0
273.415985 52.0
273.784698 68.0
273.896698 40.0
274.061401 172.0
274.084473 104.0
274.354736 44.0
274.704315 156.0
274.760376 64.0
275.06424 268.0
275.091125 144.0
275.47345 36.0
275.694824 104.0
275.89978 156.0
276.04007 500.0
276.071716 120.0
276.240387 32.0
276.333008 32.0
276.465393 120.0
276.505096 100.0
277.042847 280.0
277.346375 108.0
277.784088 116.0
277.810608 56.0
277.913452 184.0
278.056427 2360.0
278.232086 108.0
278.640594 80.0
279.065704 1236.0
279.275513 60.0
279.531677 28.0
279.91449 40.0
280.064728 420.0
280.147644 32.0
280.674225 116.0
280.964417 108.0
280.994446 192.0
281.101868 548.0
281.231354 48.0
281.695496 96.0
282.062012 312.0
282.101379 344.0
282.487762 84.0
282.765472 100.0
282.859192 112.0
282.899384 60.0
283.058685 408.0
283.753662 36.0
284.015228 160.0
284.119232 136.0
285.077728 392.0
285.674652 112.0
285.796051 92.0
286.077515 444.0
286.411865 156.0
286.81958 76.0
287.274811 100.0
287.7034 132.0
288.027557 156.0
289.072266 120.0
289.268585 164.0
289.35321 156.0
290.088348 128.0
290.223969 192.0
290.515656 132.0
291.064575 2796.0
291.16394 104.0
292.006805 80.0
292.066986 540.0
292.125854 120.0
292.275574 40.0
292.799805 64.0
293.038177 140.0
293.080719 2568.0
293.164337 64.0
293.297272 176.0
293.853119 100.0
293.887238 68.0
293.935028 48.0
293.962311 104.0
294.083405 768.0
294.402679 152.0
295.060913 364.0
295.448608 48.0
295.606018 76.0
295.98938 188.0
296.06427 124.0
296.127655 964.0
296.218872 44.0
296.496399 156.0
296.612946 36.0
296.873505 80.0
296.978638 176.0
297.020996 132.0
297.07666 1584.0
297.134033 520.0
297.204102 116.0
297.429321 48.0
297.714294 104.0
297.861969 148.0
297.889465 136.0
298.080231 524.0
298.136841 116.0
298.291504 40.0
298.329315 44.0
298.501221 84.0
298.717896 212.0
299.041351 64.0
299.070221 128.0
299.092987 148.0
299.120087 160.0
299.158386 156.0
299.268555 40.0
299.540619 36.0
299.799042 140.0
299.878296 84.0
300.047211 172.0
301.052765 176.0
301.120392 56.0
302.565796 320.0
302.603882 76.0
302.842804 108.0
303.062683 188.0
303.383392 120.0
304.037811 488.0
304.063019 188.0
304.118774 68.0
304.368713 80.0
304.643097 52.0
304.941925 88.0
305.031006 204.0
305.06192 132.0
305.084442 168.0
305.112274 164.0
305.220062 44.0
305.390442 84.0
305.988983 136.0
306.050537 1284.0
306.110352 140.0
306.839081 168.0
307.056671 244.0
307.104431 136.0
307.885895 172.0
308.059204 216.0
308.123444 176.0
308.399506 68.0
309.073975 156.0
309.130432 160.0
309.284424 84.0
309.627563 40.0
309.697601 52.0
309.970856 84.0
310.040955 116.0
310.075989 248.0
310.188171 76.0
310.32489 120.0
310.756287 112.0
311.095612 128.0
312.115601 96.0
312.854462 44.0
312.924866 160.0
312.973083 132.0
313.132629 128.0
314.143127 464.0
314.673645 32.0
314.860779 164.0
315.14151 140.0
315.896423 172.0
318.036682 232.0
318.061523 128.0
318.125427 128.0
318.917542 136.0
319.01709 136.0
319.061127 2312.0
319.100098 184.0
319.173523 40.0
319.326447 64.0
319.461609 156.0
319.942047 120.0
320.020142 132.0
320.064819 540.0
320.114105 148.0
320.422821 136.0
320.585693 152.0
320.656494 84.0
320.743561 52.0
320.928925 228.0
320.957458 96.0
321.075592 3516.0
321.149139 144.0
321.278442 48.0
321.410461 180.0
321.531799 80.0
321.621033 88.0
322.042938 508.0
322.079193 448.0
323.051117 136.0
323.079346 248.0
323.175598 48.0
323.261475 36.0
324.063538 116.0
324.12088 124.0
324.490051 160.0
324.809235 108.0
325.096252 84.0
325.164459 160.0
325.677887 44.0
326.256409 72.0
327.019012 140.0
327.847351 112.0
327.995117 160.0
328.658722 176.0
329.031891 160.0
329.239899 56.0
329.481903 136.0
330.096375 40.0
330.121674 144.0
331.060883 188.0
331.214691 116.0
331.475555 128.0
331.613251 48.0
331.801758 180.0
331.907745 68.0
332.102753 72.0
332.135376 140.0
333.046448 140.0
333.0755 148.0
333.115479 124.0
333.282593 84.0
333.990692 176.0
334.046722 3336.0
334.12088 240.0
334.606506 152.0
334.977966 28.0
335.053192 528.0
335.171082 92.0
335.546478 188.0
335.925751 88.0
336.050598 616.0
336.11145 76.0
336.132446 196.0
336.283356 152.0
336.549835 108.0
336.579071 204.0
336.801819 100.0
336.91507 64.0
337.070038 7212.0
337.196442 84.0
337.233002 152.0
337.276855 160.0
337.302429 48.0
337.364594 96.0
337.407379 108.0
337.52179 60.0
337.580292 132.0
337.861938 48.0
338.074554 2312.0
338.108215 144.0
338.122925 212.0
338.194946 200.0
338.337708 88.0
338.769836 32.0
339.080231 284.0
340.084167 208.0
340.170685 80.0
340.269806 88.0
340.5 116.0
340.541534 68.0
341.225037 176.0
341.611176 148.0
342.034363 48.0
342.266296 116.0
342.730408 160.0
346.102783 216.0
347.055145 248.0
347.110657 80.0
347.16629 188.0
348.125336 184.0
348.424591 60.0
348.725586 56.0
348.918884 44.0
349.069794 2524.0
349.513977 84.0
349.700073 164.0
350.070587 1052.0
350.739258 44.0
351.025269 164.0
351.061127 132.0
351.272491 116.0
351.548584 104.0
352.045074 172.0
352.082428 112.0
352.40741 132.0
352.960602 56.0
353.907288 88.0
354.146973 112.0
354.97522 132.0
355.077759 220.0
355.335297 56.0
356.860168 136.0
357.123413 88.0
357.522217 112.0
358.817963 156.0
359.89328 164.0
360.304962 80.0
360.384308 48.0
361.280334 120.0
361.995697 80.0
363.056763 116.0
363.29953 168.0
363.584106 88.0
364.114685 356.0
364.510712 104.0
364.917419 128.0
365.067078 2096.0
365.906616 232.0
366.069214 520.0
366.119873 72.0
366.458893 44.0
367.065826 116.0
367.106873 216.0
368.087585 220.0
368.981689 88.0
369.750549 112.0
373.322235 48.0
374.084045 212.0
377.080475 168.0
377.115906 172.0
379.089661 180.0
380.105652 136.0
381.542755 168.0
382.147522 80.0
383.079956 96.0
383.138397 256.0
384.124664 248.0
385.479462 72.0
391.674438 152.0
392.112549 1416.0
392.19455 148.0
392.300995 64.0
393.122437 296.0
393.725403 84.0
394.128326 100.0
394.404968 148.0
394.594727 76.0
395.017883 88.0
395.053497 144.0
396.039124 128.0
396.356079 100.0
398.129272 124.0
398.570221 240.0
400.591309 76.0
401.679565 112.0
402.130463 88.0
403.184814 72.0
407.914429 100.0
408.53775 68.0
408.867706 84.0
409.109192 88.0
409.431335 92.0
409.620636 32.0
409.689117 168.0
409.757599 140.0
409.863739 152.0
409.96521 192.0
410.007416 156.0
410.043701 116.0
410.123596 8612.0
410.571838 36.0
410.66864 48.0
410.781586 60.0
410.869019 160.0
410.89856 60.0
410.967163 40.0
411.033325 140.0
411.124023 2500.0
411.217346 96.0
411.532227 44.0
411.847229 40.0
411.984558 80.0
412.129517 460.0
412.1987 68.0
412.384613 88.0
412.441193 92.0
412.582672 52.0
413.127899 88.0
413.185272 124.0
413.217651 100.0
413.419952 132.0
413.549469 56.0
413.768066 44.0
413.824738 88.0
413.901672 128.0
414.541718 60.0
415.372864 140.0
415.835419 48.0
423.467957 116.0
425.427979 120.0
427.147614 148.0
428.135681 336.0
428.174683 140.0
428.240601 124.0
428.689667 56.0
429.126587 144.0
429.158478 152.0
433.810699 60.0
434.582092 84.0
439.262421 188.0
445.155426 116.0
446.605377 64.0
453.631836 80.0
458.132172 60.0
459.953033 36.0
462.1026 92.0
482.05011 64.0
483.051331 84.0
483.108215 72.0
485.048126 116.0
487.114929 52.0
487.303833 84.0
489.150909 84.0
511.952972 68.0
520.840332 60.0
525.885376 112.0
528.302612 68.0
541.212646 36.0
551.339661 56.0
558.268616 120.0
565.150879 76.0
568.368164 112.0
573.590149 64.0
577.276001 44.0
584.779358 116.0
607.138672 44.0
623.206726 60.0
623.514832 124.0
626.186523 148.0
627.332581 48.0
629.592834 56.0
685.91333 44.0
695.280945 72.0
696.950867 48.0
697.933777 36.0
716.192139 56.0
720.208557 104.0
749.384277 108.0
759.695312 48.0
774.845154 80.0
778.778198 92.0
788.914246 68.0
790.139038 80.0
805.435425 52.0
810.861511 64.0
835.708557 88.0
837.481628 80.0
850.021301 80.0
856.329041 184.0
883.401306 40.0
883.64386 56.0
889.706726 160.0
891.197449 180.0
906.041687 96.0
923.190308 132.0
982.164246 108.0
985.910339 72.0
986.316589 120.0
991.129272 56.0
991.198181 92.0
995.853149 192.0
996.852051 108.0
998.159546 184.0
1003.057739 100.0
1015.958191 196.0
1016.579956 48.0
1019.793518 152.0
1021.61853 60.0
1021.720276 172.0
1023.521484 44.0
1033.306152 168.0
1038.078125 80.0
1042.250488 220.0
1043.94751 116.0
1071.470215 256.0
1088.469482 212.0
1094.74292 252.0
1098.743774 60.0
1099.152954 200.0
1102.381958 176.0
1106.039429 144.0
1106.36377 88.0
1112.18396 44.0
1112.495972 156.0
1112.602173 96.0
1113.286011 40.0
1122.409302 208.0
1128.879883 120.0
1137.17395 140.0
1151.575684 48.0
1152.615967 56.0
1168.271118 68.0
1184.33313 52.0
1186.827637 140.0
1191.700928 124.0
1195.049316 124.0
1200.608276 108.0
1209.292725 48.0
1222.59729 212.0
1227.327148 236.0
1227.745605 108.0
1233.498779 112.0
1238.305786 144.0
1242.539673 192.0
1258.403687 152.0
1261.922241 76.0
1263.31543 216.0
1268.463623 224.0
1275.355957 208.0
1275.505249 172.0
1282.937134 184.0
1283.250732 76.0
1297.951538 40.0
1301.252075 160.0
1307.268433 116.0
1307.513062 208.0
1310.177246 212.0
1319.400391 172.0
1322.503784 68.0
1324.936768 84.0
1325.538208 196.0
1344.737549 56.0
1349.858765 128.0
1349.997681 32.0
1351.585083 32.0
1356.506714 120.0
1359.880737 184.0
1360.644165 112.0
1362.715332 160.0
1372.172852 216.0
1373.323242 144.0
1374.747192 180.0
1379.562866 172.0
1388.71521 180.0
1404.192871 148.0
1411.429199 108.0
1429.883545 160.0
1434.169189 172.0
1438.030884 60.0
1440.598145 72.0
1440.711548 172.0
1445.467285 144.0
1446.534424 192.0
1447.533813 120.0
1448.245728 152.0
1450.670532 64.0
1453.954834 140.0
1454.592285 204.0
1457.36438 164.0
1468.684692 192.0
1471.790649 148.0
1477.951416 140.0
1480.125244 164.0
1487.093872 152.0
1488.283813 220.0
1489.205322 168.0
1493.348145 224.0
1504.320679 164.0
1505.054077 228.0
1505.293457 44.0
