>compound MLS002222188-01!3505-38-2
>formula C16H19ClN2O
>ionization [M+H]+
>parentmass 291.1258673600905
#inchi InChI=1S/C16H19ClN2O/c1-19(2)11-12-20-16(15-5-3-4-10-18-15)13-6-8-14(17)9-7-13/h3-10,16H,11-12H2,1-2H3
#inchikey OJFSXZCBGQGRNV
#origInchi InChI=1S/C16H19ClN2O.C4H4O4/c1-19(2)11-12-20-16(15-5-3-4-10-18-15)13-6-8-14(17)9-7-13;5-3(6)1-2-4(7)8/h3-10,16H,11-12H2,1-2H3;1-2H,(H,5,6)(H,7,8)/p-2/b;2-1-
#Ion_Source LC-ESI
#Instrument qTof
#Compound_Source NIH Pharmacologically Active Library
#PI Dorrestein
#Data_Collector VP/LMS
#Scan -1
#Precursor_MZ 291.129
#ExactMass 290.119
#Charge 1
#CAS_Number N/A
#Pubmed_ID N/A
#Smiles CN(C)CCOC(c1ccc(Cl)cc1)c2ccccn2.[O-]C(=O)/C=C\C(=O)[O-]
#INCHI_AUX N/A
#Library_Class 1
#SpectrumID CCMSLIB00000085782
#IonMode Positive
#UpdateWorkflowName UPDATE-SINGLE-ANNOTATED-GOLD
#LibraryQualityString Gold
#TaskID d252d724072548979f1f6f1ced849daf
##Scan# 1395
#SpectrumFile p4-F05_GF5_01_18389.mzXML
#LibraryName Pharm_Active_Library.mgf
#MQScore -1
#Organism Pharm_Active_Library
#TIC_Query 0
#RT_Query -1
#MZErrorPPM -1
#SharedPeaks 0
#MassDiff 0
#LibMZ -1
#SpecMZ 291.129
#SpecCharge 0
#internalFilename spec-00000.mgf

>collision 10
44.9147 136.0
44.925827 176.0
44.968071 188.0
44.986053 112.0
44.999088 188.0
45.036167 100.0
45.046856 136.0
45.060215 140.0
45.09095 180.0
45.115009 164.0
45.14175 112.0
45.220879 224.0
45.234329 184.0
45.280937 220.0
45.298351 156.0
45.311749 168.0
45.352257 140.0
45.386806 164.0
45.420761 164.0
45.44046 208.0
45.459244 204.0
45.473236 236.0
45.486588 172.0
45.522339 184.0
45.531742 68.0
45.554577 116.0
45.57473 144.0
45.58548 44.0
45.608326 148.0
45.663456 172.0
45.674217 116.0
45.741497 124.0
45.783237 136.0
45.794014 180.0
45.803444 192.0
45.824997 172.0
45.855991 172.0
45.865429 152.0
45.899132 140.0
46.00174 160.0
46.038517 168.0
46.058685 164.0
46.070545 92.0
46.090923 248.0
46.117844 120.0
46.131363 144.0
46.180042 176.0
46.212509 136.0
46.239574 60.0
46.266148 196.0
46.280186 172.0
46.312691 136.0
46.328945 140.0
46.342808 208.0
46.361465 144.0
46.374722 156.0
46.387218 64.0
46.47266 100.0
46.506588 148.0
46.526951 152.0
46.581272 60.0
46.598934 124.0
46.612522 176.0
46.631069 272.0
46.675053 192.0
46.702251 212.0
46.736149 236.0
46.755314 152.0
46.774372 172.0
46.786625 192.0
46.79586 148.0
46.881973 32.0
46.899925 140.0
46.918774 192.0
46.936501 208.0
47.021084 132.0
47.049747 104.0
47.07338 208.0
47.093449 212.0
47.116669 88.0
47.148098 360.0
47.165955 124.0
47.202782 36.0
47.220562 144.0
47.259125 236.0
47.279392 232.0
47.301292 264.0
47.330044 220.0
47.410259 320.0
47.477036 152.0
47.481117 200.0
47.532158 260.0
47.552132 204.0
47.561741 220.0
47.596233 128.0
47.605675 196.0
47.627651 160.0
47.676769 132.0
47.726601 136.0
47.743103 216.0
47.79538 188.0
47.840797 132.0
47.901394 100.0
47.953754 132.0
48.020226 172.0
48.050285 124.0
48.075207 132.0
48.138626 232.0
48.156578 148.0
48.173157 176.0
48.217373 192.0
48.272671 144.0
48.2948 184.0
48.340458 152.0
48.366753 180.0
48.416599 124.0
48.427776 116.0
48.495575 156.0
48.520527 112.0
48.533005 336.0
48.544098 132.0
48.582325 164.0
48.603748 140.0
48.619011 172.0
48.665939 204.0
48.693985 244.0
48.7188 208.0
48.745388 44.0
48.774574 224.0
48.802254 176.0
48.8288 144.0
48.891407 136.0
48.927601 176.0
48.972786 340.0
48.987808 224.0
49.006989 312.0
49.037647 168.0
49.126892 152.0
49.188293 160.0
49.203651 60.0
49.241493 160.0
49.258118 192.0
49.269291 104.0
49.424492 192.0
49.444084 80.0
49.45668 148.0
49.493176 116.0
49.528091 188.0
49.589203 248.0
49.605164 140.0
49.680683 108.0
49.694923 228.0
49.73983 152.0
49.79319 176.0
49.843761 200.0
49.884018 200.0
49.939362 116.0
49.960464 116.0
50.009716 116.0
50.066032 136.0
50.120972 164.0
50.142113 212.0
50.170303 44.0
50.187222 192.0
50.214016 192.0
50.233765 140.0
50.251026 196.0
50.269417 60.0
50.311382 176.0
50.336487 180.0
50.374119 164.0
50.386234 112.0
50.406017 184.0
50.447006 176.0
50.476173 244.0
50.496941 128.0
50.530449 116.0
50.552326 144.0
50.571487 36.0
50.585644 84.0
50.595554 44.0
50.619625 136.0
50.691872 204.0
50.72929 180.0
50.740063 196.0
50.764168 56.0
50.792534 124.0
50.805302 152.0
50.818073 148.0
50.857498 200.0
50.883884 152.0
50.89756 204.0
50.965649 184.0
50.979954 168.0
50.994164 84.0
51.029705 168.0
51.041019 92.0
51.108063 180.0
51.125908 216.0
51.152374 124.0
51.236076 112.0
51.278828 144.0
51.295933 136.0
51.324448 104.0
51.340134 124.0
51.389759 208.0
51.414391 160.0
51.450005 224.0
51.464283 128.0
51.495308 168.0
51.511414 132.0
51.52713 164.0
51.548183 136.0
51.621468 128.0
51.644859 168.0
51.677254 112.0
51.698719 132.0
51.787487 128.0
51.815437 184.0
51.839066 184.0
51.872028 264.0
51.884754 160.0
51.922249 164.0
51.937492 184.0
51.998257 112.0
52.022934 104.0
52.043736 200.0
52.061424 184.0
52.097336 124.0
52.163441 112.0
52.21233 44.0
52.233906 132.0
52.249729 168.0
52.268433 84.0
52.285702 48.0
52.311611 112.0
52.32169 164.0
52.344616 156.0
52.375809 172.0
52.3937 60.0
52.429726 140.0
52.457111 260.0
52.522003 128.0
52.535248 180.0
52.557346 152.0
52.580238 212.0
52.589821 196.0
52.60334 240.0
52.641796 168.0
52.677063 220.0
52.729923 72.0
52.753117 168.0
52.773289 228.0
52.828251 168.0
52.861847 164.0
52.883236 108.0
52.906399 84.0
52.955631 128.0
52.996006 152.0
53.015705 136.0
53.095222 232.0
53.137123 164.0
53.148445 320.0
53.209179 76.0
53.245712 280.0
53.258068 268.0
53.314468 172.0
53.327076 140.0
53.344517 108.0
53.373596 52.0
53.430321 192.0
53.452148 180.0
53.461685 144.0
53.473976 116.0
53.501637 140.0
53.523476 140.0
53.533669 168.0
53.575909 120.0
53.591934 176.0
53.615253 184.0
53.630665 264.0
53.651478 176.0
53.655945 48.0
53.68523 92.0
53.715858 148.0
53.778606 152.0
53.803558 156.0
53.835545 228.0
53.889065 144.0
53.905666 168.0
53.92028 216.0
53.959839 200.0
53.981682 176.0
53.99192 64.0
54.019711 128.0
54.04541 184.0
54.072796 144.0
54.129124 212.0
54.145592 124.0
54.167564 172.0
54.185146 232.0
54.218849 192.0
54.243767 88.0
54.305351 176.0
54.319557 228.0
54.350456 176.0
54.38018 152.0
54.393269 144.0
54.450794 216.0
54.516827 200.0
54.532936 48.0
54.592464 204.0
54.651077 192.0
54.706512 104.0
54.749268 112.0
54.775726 104.0
54.793404 116.0
54.805023 212.0
54.818455 152.0
54.856087 136.0
54.876411 176.0
54.895081 184.0
54.947823 196.0
54.983627 212.0
55.005768 228.0
55.036774 180.0
55.063354 216.0
55.082558 104.0
55.149052 160.0
55.175659 168.0
55.213333 336.0
55.232216 132.0
55.280682 140.0
55.328045 148.0
55.355736 220.0
55.409504 164.0
55.448032 180.0
55.490089 140.0
55.541443 144.0
55.554794 140.0
55.574081 160.0
55.618607 136.0
55.638958 180.0
55.679482 160.0
55.706219 172.0
55.729904 280.0
55.768627 196.0
55.7939 184.0
55.820663 156.0
55.911411 92.0
55.923317 132.0
55.965618 116.0
55.981384 140.0
55.99181 80.0
56.051399 164.0
56.069534 188.0
56.090549 164.0
56.120144 136.0
56.1437 144.0
56.191807 168.0
56.215435 64.0
56.230358 144.0
56.251255 228.0
56.312988 152.0
56.34248 232.0
56.354305 140.0
56.367752 152.0
56.385689 132.0
56.411098 108.0
56.43203 200.0
56.479137 152.0
56.560902 112.0
56.60117 180.0
56.631065 188.0
56.655033 196.0
56.670158 208.0
56.695488 200.0
56.711975 128.0
56.737461 144.0
56.774948 124.0
56.818447 180.0
56.872131 124.0
56.88567 212.0
56.92342 124.0
56.944542 92.0
56.96664 124.0
56.994755 180.0
57.034283 204.0
57.114391 240.0
57.13026 160.0
57.162537 140.0
57.174576 72.0
57.198658 148.0
57.213329 188.0
57.228767 84.0
57.254784 580.0
57.285458 216.0
57.337231 128.0
57.385471 220.0
57.414124 136.0
57.459373 180.0
57.501629 136.0
57.562016 124.0
57.575607 116.0
57.599773 84.0
57.620922 132.0
57.642078 76.0
57.716785 152.0
57.73732 156.0
57.784214 92.0
57.806911 168.0
57.824604 220.0
57.846264 164.0
57.905315 232.0
57.949249 128.0
57.961918 176.0
57.99926 148.0
58.026546 120.0
58.044743 120.0
58.058777 188.0
58.10693 140.0
58.131977 292.0
58.157787 188.0
58.220779 208.0
58.263363 232.0
58.321056 208.0
58.357544 216.0
58.372749 148.0
58.392517 132.0
58.40773 68.0
58.447285 160.0
58.516159 128.0
58.531006 112.0
58.572315 164.0
58.59301 328.0
58.634598 108.0
58.648315 124.0
58.668133 176.0
58.704937 188.0
58.727608 176.0
58.753117 136.0
58.808475 184.0
58.872601 216.0
58.887871 164.0
58.910786 108.0
58.947777 76.0
58.989349 224.0
59.016243 52.0
59.039181 108.0
59.055077 132.0
59.083538 156.0
59.126385 152.0
59.153591 160.0
59.190681 184.0
59.226475 140.0
59.256546 116.0
59.287193 312.0
59.34391 136.0
59.371513 316.0
59.386852 116.0
59.440525 160.0
59.536201 384.0
59.566818 176.0
59.578735 128.0
59.607929 188.0
59.623299 132.0
59.640331 144.0
59.661114 252.0
59.695026 156.0
59.706741 204.0
59.723991 204.0
59.740158 188.0
59.762688 56.0
59.781036 120.0
59.810944 164.0
59.825333 328.0
59.837448 148.0
59.903339 156.0
59.929531 176.0
59.963432 176.0
59.975765 128.0
60.043606 216.0
60.123833 68.0
60.137722 160.0
60.159332 168.0
60.191757 244.0
60.251995 160.0
60.281353 156.0
60.309174 152.0
60.345024 212.0
60.411232 132.0
60.443726 120.0
60.457653 124.0
60.514927 144.0
60.579807 184.0
60.624908 152.0
60.69622 136.0
60.716381 216.0
60.734993 176.0
60.787743 44.0
60.804813 184.0
60.8312 176.0
60.862251 132.0
60.880489 172.0
60.943024 120.0
60.960117 116.0
60.974918 252.0
61.087612 92.0
61.118729 136.0
61.166977 204.0
61.238605 132.0
61.258854 176.0
61.271317 132.0
61.311832 160.0
61.338329 80.0
61.358597 192.0
61.371071 144.0
61.417854 168.0
61.439262 144.0
61.477108 176.0
61.523972 160.0
61.542706 156.0
61.555199 152.0
61.570404 136.0
61.641029 144.0
61.717712 136.0
61.784966 164.0
61.91489 116.0
61.932003 164.0
61.961884 200.0
61.985065 156.0
62.002625 144.0
62.030052 80.0
62.060627 120.0
62.073101 188.0
62.131207 232.0
62.156311 148.0
62.209675 144.0
62.244217 60.0
62.322754 176.0
62.356262 236.0
62.402283 124.0
62.445377 272.0
62.458622 152.0
62.484703 216.0
62.520897 124.0
62.569695 236.0
62.59016 172.0
62.62458 164.0
62.668919 156.0
62.735115 196.0
62.818695 168.0
62.897598 96.0
62.934475 168.0
62.951511 136.0
62.97715 124.0
63.038166 256.0
63.087162 68.0
63.118786 168.0
63.151398 148.0
63.165253 168.0
63.196293 140.0
63.23111 156.0
63.262764 52.0
63.308685 220.0
63.362492 128.0
63.443726 160.0
63.52742 128.0
63.599297 136.0
63.619465 176.0
63.654396 220.0
63.675041 216.0
63.69569 160.0
63.707603 116.0
63.722698 156.0
63.745361 244.0
63.767414 172.0
63.78075 220.0
63.862595 40.0
63.880093 96.0
63.898556 192.0
63.913502 224.0
64.093437 40.0
64.134872 140.0
64.193863 120.0
64.219467 176.0
64.241714 176.0
64.291176 140.0
64.352989 188.0
64.374191 156.0
64.394951 124.0
64.423706 136.0
64.450943 192.0
64.489227 104.0
64.530785 72.0
64.569168 324.0
64.642891 148.0
64.663567 36.0
64.855774 84.0
64.878212 140.0
64.90667 208.0
64.933975 196.0
64.998505 124.0
65.080368 140.0
65.100891 164.0
65.11731 224.0
65.138191 100.0
65.152649 40.0
65.17514 148.0
65.306969 180.0
65.330994 188.0
65.353447 148.0
65.376724 124.0
65.40062 200.0
65.424438 148.0
65.4953 108.0
65.530739 164.0
65.576363 220.0
65.618439 164.0
65.644638 212.0
65.667763 168.0
65.6968 176.0
65.712936 180.0
65.730682 168.0
65.746819 204.0
65.758118 136.0
65.77079 160.0
65.776543 136.0
65.838844 156.0
65.871147 208.0
65.895668 136.0
65.90831 36.0
65.937569 192.0
65.956795 144.0
66.004196 172.0
66.027939 172.0
66.039261 144.0
66.086723 224.0
66.141197 388.0
66.167099 132.0
66.182915 256.0
66.207581 120.0
66.278862 176.0
66.297256 148.0
66.346588 204.0
66.382652 136.0
66.400597 172.0
66.424774 144.0
66.439377 328.0
66.473503 120.0
66.509155 144.0
66.537735 212.0
66.576927 184.0
66.59034 116.0
66.627701 128.0
66.650452 168.0
66.676453 200.0
66.764244 96.0
66.790268 156.0
66.842972 132.0
66.878136 120.0
66.904182 136.0
66.923721 140.0
66.948143 120.0
66.972702 204.0
66.987236 168.0
66.998642 284.0
67.023079 128.0
67.067673 176.0
67.094795 120.0
67.113708 168.0
67.143036 240.0
67.169815 100.0
67.231812 204.0
67.246506 76.0
67.262672 376.0
67.277519 172.0
67.290581 228.0
67.30117 152.0
67.370605 164.0
67.403282 200.0
67.441833 212.0
67.457222 92.0
67.485016 172.0
67.511177 164.0
67.552071 180.0
67.58152 80.0
67.607697 76.0
67.668266 288.0
67.691193 144.0
67.720673 160.0
67.759949 180.0
67.859962 224.0
67.873085 164.0
67.922729 176.0
67.943611 156.0
67.957298 164.0
68.032234 168.0
68.047012 136.0
68.072487 140.0
68.086418 160.0
68.113396 164.0
68.139305 164.0
68.205322 176.0
68.272133 184.0
68.285286 208.0
68.336288 116.0
68.362617 180.0
68.387299 44.0
68.416931 132.0
68.486145 144.0
68.505859 52.0
68.558922 220.0
68.587105 240.0
68.620651 160.0
68.63707 204.0
68.699318 180.0
68.749893 336.0
68.775505 136.0
68.796112 156.0
68.848953 180.0
68.867119 196.0
68.906715 128.0
68.927818 108.0
68.941467 132.0
68.975494 232.0
69.014198 40.0
69.080276 164.0
69.106827 152.0
69.161438 164.0
69.176338 104.0
69.19455 172.0
69.20517 152.0
69.219383 72.0
69.249199 216.0
69.262451 112.0
69.275703 156.0
69.308838 204.0
69.323753 112.0
69.350792 152.0
69.422935 176.0
69.451462 140.0
69.466347 164.0
69.497864 220.0
69.515457 120.0
69.537056 244.0
69.567574 148.0
69.612404 160.0
69.657646 152.0
69.682968 108.0
69.730362 144.0
69.769165 128.0
69.80574 140.0
69.846748 56.0
69.866714 184.0
69.899994 176.0
69.913307 208.0
69.92662 144.0
69.961578 180.0
69.984009 204.0
70.016525 116.0
70.029854 60.0
70.076492 144.0
70.158165 140.0
70.189842 172.0
70.247528 108.0
70.266571 160.0
70.291595 96.0
70.329979 276.0
70.343338 52.0
70.37339 156.0
70.410126 140.0
70.450218 156.0
70.471931 116.0
70.503685 116.0
70.515381 344.0
70.529022 200.0
70.5438 96.0
70.57309 164.0
70.593964 56.0
70.610687 132.0
70.644142 152.0
70.723358 164.0
70.745949 172.0
70.789757 180.0
70.813202 76.0
70.828598 104.0
70.845032 100.0
70.864861 172.0
70.928818 172.0
70.94223 68.0
71.024254 188.0
71.047623 180.0
71.076408 168.0
71.089836 164.0
71.210716 212.0
71.24263 44.0
71.292091 140.0
71.318253 132.0
71.336739 268.0
71.372131 408.0
71.431602 136.0
71.46743 152.0
71.484192 156.0
71.530197 120.0
71.541977 188.0
71.575653 280.0
71.629547 140.0
71.715485 212.0
71.726479 136.0
71.743355 180.0
71.758377 172.0
71.852081 144.0
71.890892 136.0
71.906082 212.0
71.967964 152.0
71.999138 204.0
72.037453 204.0
72.078339 108.0
72.093788 196.0
72.15609 240.0
72.167923 120.0
72.213425 172.0
72.254181 172.0
72.287865 172.0
72.337105 240.0
72.359116 188.0
72.374359 132.0
72.406532 168.0
72.420082 292.0
72.437019 152.0
72.451843 224.0
72.472595 136.0
72.491241 116.0
72.508186 152.0
72.548866 108.0
72.564125 192.0
72.630264 184.0
72.679985 200.0
72.694206 192.0
72.706619 204.0
72.754143 124.0
72.789803 184.0
72.813576 40.0
72.827164 236.0
72.844376 272.0
72.858551 184.0
72.935913 172.0
72.967285 168.0
72.983513 164.0
73.010727 176.0
73.060051 112.0
73.100891 180.0
73.163864 164.0
73.206436 136.0
73.243904 336.0
73.291611 100.0
73.319679 340.0
73.352966 40.0
73.405632 184.0
73.433105 208.0
73.476364 212.0
73.521828 140.0
73.538895 244.0
73.55938 212.0
73.583275 132.0
73.605751 196.0
73.622551 176.0
73.668671 108.0
73.69088 180.0
73.710899 168.0
73.763916 76.0
73.78463 136.0
73.81562 172.0
73.822464 168.0
73.854996 104.0
73.89222 336.0
73.96109 180.0
73.990189 72.0
74.021011 172.0
74.07753 152.0
74.134071 116.0
74.164925 392.0
74.188919 124.0
74.20092 104.0
74.230759 140.0
74.262657 204.0
74.306381 188.0
74.354134 152.0
74.382774 280.0
74.42569 140.0
74.441147 196.0
74.509857 156.0
74.542503 124.0
74.588905 240.0
74.669724 120.0
74.707565 152.0
74.72477 184.0
74.766823 272.0
74.829758 136.0
74.900368 148.0
74.936707 212.0
75.027893 192.0
75.065826 108.0
75.088242 292.0
75.116684 304.0
75.207298 100.0
75.236717 184.0
75.250458 160.0
75.264267 172.0
75.307442 120.0
75.367043 148.0
75.392105 40.0
75.408195 132.0
75.419754 108.0
75.518318 104.0
75.531845 156.0
75.549454 64.0
75.569664 404.0
75.646362 48.0
75.673027 160.0
75.683495 116.0
75.712158 120.0
75.736412 140.0
75.750122 144.0
75.779793 284.0
75.85424 172.0
75.885445 204.0
75.95829 164.0
75.984306 104.0
76.002213 164.0
76.035172 188.0
76.053238 200.0
76.071083 200.0
76.088448 316.0
76.119698 132.0
76.25322 140.0
76.277802 148.0
76.423897 164.0
76.474365 140.0
76.505699 144.0
76.524849 148.0
76.542595 376.0
76.570412 140.0
76.599739 112.0
76.734566 152.0
76.805428 228.0
76.824615 220.0
76.878708 140.0
76.908379 164.0
76.952026 160.0
76.978218 144.0
77.025375 132.0
77.062057 152.0
77.088806 240.0
77.126724 44.0
77.173927 36.0
77.210648 164.0
77.222893 128.0
77.236885 88.0
77.271873 148.0
77.291122 176.0
77.314323 140.0
77.338371 68.0
77.359383 168.0
77.391373 128.0
77.413658 80.0
77.464455 36.0
77.488976 180.0
77.552063 244.0
77.573105 140.0
77.60466 176.0
77.616936 164.0
77.63028 200.0
77.695862 68.0
77.722183 192.0
77.759033 176.0
77.785362 172.0
77.808182 176.0
77.834526 128.0
77.867889 288.0
77.900322 112.0
77.965103 96.0
77.999672 196.0
78.038605 168.0
78.077034 260.0
78.11573 116.0
78.133324 172.0
78.147064 252.0
78.166756 96.0
78.274139 168.0
78.347206 248.0
78.360443 184.0
78.382607 188.0
78.40979 84.0
78.472809 160.0
78.506706 140.0
78.558342 160.0
78.587898 92.0
78.722054 164.0
78.742012 344.0
78.891678 180.0
78.928162 220.0
78.980095 220.0
79.00486 180.0
79.031403 144.0
79.052635 228.0
79.114586 56.0
79.145348 204.0
79.150955 140.0
79.190727 124.0
79.227928 156.0
79.256279 136.0
79.323624 152.0
79.337807 68.0
79.359085 144.0
79.400162 184.0
79.428253 152.0
79.490227 176.0
79.495888 164.0
79.501503 112.0
79.532944 140.0
79.545372 148.0
79.614616 168.0
79.696327 96.0
79.712326 116.0
79.737206 308.0
79.814323 188.0
79.886566 208.0
79.923927 148.0
79.9524 116.0
80.011147 128.0
80.043198 192.0
80.082375 224.0
80.101967 164.0
80.123344 184.0
80.138344 248.0
80.158981 112.0
80.183495 164.0
80.186737 212.0
80.25222 184.0
80.281281 192.0
80.294472 208.0
80.326576 160.0
80.416283 236.0
80.479286 144.0
80.596169 148.0
80.710571 132.0
80.726662 192.0
80.747147 212.0
80.760643 116.0
80.773163 148.0
80.78569 72.0
80.826836 116.0
80.86084 184.0
80.885902 164.0
80.912758 136.0
80.970245 152.0
80.995132 136.0
81.063217 228.0
81.084839 120.0
81.127739 132.0
81.153244 160.0
81.244308 96.0
81.264046 184.0
81.282181 148.0
81.359337 216.0
81.43943 100.0
81.477699 152.0
81.527901 184.0
81.55677 168.0
81.599915 192.0
81.628685 100.0
81.657425 176.0
81.700638 260.0
81.713226 212.0
81.731224 48.0
81.76181 184.0
81.778015 124.0
81.819412 120.0
81.882439 156.0
81.925674 140.0
81.952698 108.0
81.977928 216.0
81.997314 132.0
82.026588 128.0
82.055435 176.0
82.069862 160.0
82.105927 232.0
82.131516 212.0
82.146591 228.0
82.157631 372.0
82.280914 164.0
82.308044 44.0
82.326103 240.0
82.354118 180.0
82.371254 156.0
82.470642 144.0
82.564423 280.0
82.637016 160.0
82.65873 168.0
82.703972 136.0
82.723885 168.0
82.745613 192.0
82.759117 96.0
82.782692 196.0
82.805374 180.0
82.8218 220.0
82.83979 144.0
82.908638 156.0
82.982964 296.0
82.995651 156.0
83.011978 72.0
83.030113 196.0
83.073647 132.0
83.091782 148.0
83.254707 180.0
83.279198 184.0
83.31691 196.0
83.350121 160.0
83.387779 160.0
83.422318 404.0
83.440498 116.0
83.482323 64.0
83.580551 176.0
83.633331 124.0
83.647896 164.0
83.698868 104.0
83.740761 56.0
83.788124 28.0
83.830032 96.0
83.899292 128.0
83.932114 112.0
83.977707 176.0
84.091339 172.0
84.117592 188.0
84.167503 112.0
84.182114 224.0
84.224121 44.0
84.245544 204.0
84.284409 128.0
84.297203 372.0
84.324615 192.0
84.368179 188.0
84.397743 168.0
84.421143 176.0
84.450775 116.0
84.476387 164.0
84.523262 180.0
84.575203 64.0
84.622795 116.0
84.64843 140.0
84.679565 88.0
84.714264 136.0
84.753838 176.0
84.769791 228.0
84.796829 220.0
84.811493 176.0
84.833488 164.0
84.846321 128.0
84.866493 92.0
84.90345 264.0
84.928841 52.0
84.961861 176.0
84.983879 196.0
85.016914 160.0
85.071976 220.0
85.088501 180.0
85.111465 236.0
85.172974 80.0
85.216354 228.0
85.229927 204.0
85.256866 200.0
85.316315 132.0
85.332863 196.0
85.3778 168.0
85.400902 224.0
85.451447 168.0
85.462433 144.0
85.478172 152.0
85.507622 116.0
85.564682 144.0
85.585121 168.0
85.603775 140.0
85.628227 168.0
85.661926 200.0
85.728622 116.0
85.743362 108.0
85.759956 160.0
85.772858 196.0
85.785759 192.0
85.852142 128.0
85.876839 132.0
85.930458 96.0
85.996048 132.0
86.038506 176.0
86.068047 116.0
86.088341 304.0
86.101799 188.0
86.145615 180.0
86.241707 152.0
86.330452 92.0
86.369293 168.0
86.397041 152.0
86.430344 36.0
86.463654 172.0
86.480934 204.0
86.502525 124.0
86.554367 204.0
86.580292 164.0
86.594124 180.0
86.612663 140.0
86.667358 320.0
86.713692 164.0
86.771156 184.0
86.800819 124.0
86.817513 156.0
86.834206 180.0
86.847191 160.0
86.869446 208.0
86.888 216.0
86.950783 168.0
86.999352 152.0
87.056915 216.0
87.120064 140.0
87.14608 140.0
87.170235 128.0
87.20369 108.0
87.216698 100.0
87.245415 152.0
87.261147 176.0
87.339424 276.0
87.412155 172.0
87.467819 136.0
87.482712 64.0
87.507599 204.0
87.528267 136.0
87.597321 88.0
87.602516 48.0
87.60849 104.0
87.633911 152.0
87.663895 452.0
87.708115 108.0
87.777092 124.0
87.885284 84.0
87.900215 144.0
88.002876 140.0
88.017815 136.0
88.047173 144.0
88.071976 108.0
88.114944 140.0
88.18782 216.0
88.200905 116.0
88.21685 180.0
88.305618 148.0
88.329933 136.0
88.374344 152.0
88.387039 136.0
88.442535 160.0
88.459312 204.0
88.475899 328.0
88.509605 180.0
88.526459 108.0
88.565788 88.0
88.584518 120.0
88.60994 148.0
88.648224 136.0
88.73365 224.0
88.788834 408.0
88.82048 156.0
88.860115 112.0
88.89389 164.0
88.92955 164.0
88.965683 192.0
89.0084 160.0
89.047836 212.0
89.084229 160.0
89.122978 160.0
89.222595 124.0
89.269608 152.0
89.288414 144.0
89.305336 188.0
89.382469 128.0
89.433289 156.0
89.485199 196.0
89.507896 108.0
89.527428 140.0
89.552475 160.0
89.599007 296.0
89.633209 208.0
89.647812 164.0
89.751671 136.0
89.795052 44.0
89.812027 188.0
89.864845 128.0
89.907806 204.0
89.977119 256.0
90.037651 156.0
90.057404 116.0
90.09687 224.0
90.160652 140.0
90.184326 232.0
90.263405 164.0
90.286102 156.0
90.305016 72.0
90.320145 312.0
90.355499 220.0
90.393127 188.0
90.504013 52.0
90.530678 188.0
90.5672 180.0
90.607895 176.0
90.666634 136.0
90.681801 124.0
90.717812 160.0
90.761421 188.0
90.776588 228.0
90.850563 168.0
90.863846 128.0
90.88092 200.0
90.913177 140.0
90.94355 216.0
90.968224 172.0
91.017586 140.0
91.058754 136.0
91.101158 132.0
91.122055 124.0
91.179062 136.0
91.251495 156.0
91.36351 216.0
91.492928 160.0
91.523392 148.0
91.567192 120.0
91.683411 112.0
91.727249 216.0
91.740593 184.0
91.858826 188.0
91.877907 164.0
91.894608 196.0
91.965683 188.0
92.019135 80.0
92.064964 124.0
92.097435 120.0
92.136055 220.0
92.171944 140.0
92.18914 160.0
92.240746 160.0
92.26178 44.0
92.321053 192.0
92.334442 104.0
92.400505 164.0
92.525795 164.0
92.617714 36.0
92.661774 144.0
92.675186 104.0
92.707764 176.0
92.734596 244.0
92.769104 176.0
92.78804 164.0
92.83046 244.0
92.908859 128.0
92.926369 184.0
92.980095 48.0
93.018486 160.0
93.051125 144.0
93.076088 132.0
93.12986 144.0
93.147148 192.0
93.168793 180.0
93.204567 320.0
93.24514 224.0
93.275894 168.0
93.308578 196.0
93.354729 116.0
93.388794 140.0
93.443726 208.0
93.462448 132.0
93.485542 140.0
93.518318 136.0
93.607208 100.0
93.651115 172.0
93.687767 160.0
93.718124 128.0
93.742363 156.0
93.766724 156.0
93.814911 124.0
93.867851 152.0
93.886253 124.0
93.911331 156.0
93.924828 152.0
93.96534 116.0
94.009727 160.0
94.025322 144.0
94.061836 152.0
94.075974 136.0
94.125549 132.0
94.147385 156.0
94.187355 156.0
94.235649 60.0
94.260773 212.0
94.292694 208.0
94.316345 148.0
94.373917 180.0
94.427032 152.0
94.444435 108.0
94.553902 188.0
94.569298 176.0
94.594582 264.0
94.672821 204.0
94.717957 200.0
94.785667 224.0
94.81575 160.0
94.845261 200.0
94.870499 204.0
94.942207 176.0
94.96936 232.0
94.988754 132.0
95.016228 172.0
95.049995 156.0
95.086288 60.0
95.109062 184.0
95.144463 68.0
95.175179 148.0
95.202263 68.0
95.224045 148.0
95.246933 152.0
95.283844 156.0
95.299385 128.0
95.338249 120.0
95.387032 144.0
95.414062 140.0
95.443222 152.0
95.478226 160.0
95.491844 108.0
95.509346 52.0
95.575493 124.0
95.631935 152.0
95.700073 144.0
95.715645 164.0
95.756546 184.0
95.773811 176.0
95.796455 236.0
95.807571 144.0
95.862503 168.0
95.874496 208.0
95.894882 108.0
95.924118 156.0
95.938576 192.0
95.958527 172.0
95.964569 112.0
95.969391 144.0
96.00016 204.0
96.101593 172.0
96.119156 152.0
96.161255 208.0
96.189415 156.0
96.296814 140.0
96.312439 208.0
96.367142 132.0
96.394493 232.0
96.412079 164.0
96.441399 104.0
96.51178 176.0
96.550888 144.0
96.611526 112.0
96.635002 132.0
96.652618 120.0
96.680016 236.0
96.707413 120.0
96.751526 180.0
96.773972 176.0
96.820969 52.0
96.873856 224.0
96.919861 148.0
96.946045 156.0
96.986183 228.0
97.001236 108.0
97.044365 164.0
97.071815 196.0
97.088814 132.0
97.211098 140.0
97.262215 188.0
97.301392 128.0
97.32103 168.0
97.35083 148.0
97.393692 184.0
97.417267 148.0
97.531235 56.0
97.601372 116.0
97.663887 172.0
97.680687 168.0
97.723969 148.0
97.786301 160.0
97.881439 136.0
97.901131 164.0
97.944458 112.0
97.975983 156.0
98.090279 136.0
98.133652 52.0
98.155342 172.0
98.17112 200.0
98.203209 132.0
98.243362 140.0
98.28553 216.0
98.315132 164.0
98.358559 84.0
98.378296 160.0
98.395004 208.0
98.411957 156.0
98.425682 184.0
98.441483 164.0
98.504684 108.0
98.526413 164.0
98.587669 188.0
98.617317 136.0
98.633125 136.0
98.651321 256.0
98.682556 124.0
98.710236 160.0
98.724075 120.0
98.795288 180.0
98.92392 148.0
98.971436 156.0
99.013023 176.0
99.060562 116.0
99.129906 312.0
99.232986 132.0
99.252625 140.0
99.314293 164.0
99.351982 128.0
99.387695 88.0
99.423416 44.0
99.463112 240.0
99.531097 164.0
99.548485 108.0
99.612495 124.0
99.663643 140.0
99.737236 164.0
99.763077 140.0
99.898308 112.0
99.969933 148.0
99.987846 112.0
100.0158 188.0
100.037613 204.0
100.093361 144.0
100.206894 128.0
100.233627 144.0
100.286606 112.0
100.30455 104.0
100.350403 168.0
100.37233 260.0
100.390205 216.0
100.407967 184.0
100.460091 164.0
100.479721 136.0
100.50145 192.0
100.521942 124.0
100.54789 88.0
100.62175 192.0
100.665672 124.0
100.681656 176.0
100.715889 196.0
100.753563 164.0
100.81665 144.0
100.875465 156.0
100.889465 160.0
100.919449 188.0
100.964973 84.0
100.999451 112.0
101.06147 204.0
101.07547 88.0
101.091484 208.0
101.115501 208.0
101.188126 184.0
101.269669 176.0
101.28569 180.0
101.313736 84.0
101.330711 156.0
101.385048 136.0
101.391983 80.0
101.398758 140.0
101.446007 164.0
101.466049 128.0
101.502144 124.0
101.556297 104.0
101.612465 152.0
101.672661 172.0
101.708794 220.0
101.729637 172.0
101.754967 148.0
101.853371 188.0
101.909622 180.0
101.9478 140.0
102.015442 236.0
102.030212 176.0
102.046295 96.0
102.074448 132.0
102.096573 108.0
102.110649 136.0
102.154518 212.0
102.195137 128.0
102.213799 276.0
102.235382 148.0
102.319923 196.0
102.390404 128.0
102.406517 184.0
102.46505 144.0
102.536385 176.0
102.624161 84.0
102.648361 160.0
102.680626 148.0
102.763336 96.0
102.777458 104.0
102.840019 180.0
102.910118 188.0
102.917328 136.0
102.921593 228.0
102.983383 128.0
103.010246 188.0
103.037926 140.0
103.062172 128.0
103.155647 156.0
103.199615 64.0
103.268379 148.0
103.296692 140.0
103.333107 140.0
103.347275 140.0
103.392982 252.0
103.446442 128.0
103.474785 120.0
103.512245 132.0
103.571991 36.0
103.592247 156.0
103.630745 276.0
103.663239 180.0
103.697617 108.0
103.732079 148.0
103.758308 196.0
103.81115 220.0
103.831436 132.0
103.849686 116.0
103.888229 208.0
103.914558 180.0
103.943008 104.0
103.97142 92.0
104.04055 144.0
104.050041 148.0
104.07901 116.0
104.105415 124.0
104.141968 188.0
104.223236 136.0
104.284203 312.0
104.32856 180.0
104.38382 40.0
104.471283 172.0
104.495697 136.0
104.532814 148.0
104.553123 232.0
104.573021 208.0
104.605591 176.0
104.634094 192.0
104.656776 144.0
104.691109 132.0
104.733879 128.0
104.760498 116.0
104.78685 208.0
104.811485 132.0
104.841866 132.0
104.85817 348.0
105.035561 184.0
105.086563 160.0
105.145744 164.0
105.217545 160.0
105.239647 168.0
105.262108 164.0
105.336357 300.0
105.396927 188.0
105.45417 252.0
105.482765 104.0
105.504585 208.0
105.587051 40.0
105.619629 56.0
105.677055 144.0
105.709793 188.0
105.740494 156.0
105.78553 156.0
105.806679 180.0
105.838852 176.0
105.867432 216.0
105.890541 168.0
105.955505 92.0
105.992966 156.0
106.065338 892.0
106.13588 136.0
106.164589 132.0
106.186211 176.0
106.2015 60.0
106.278931 196.0
106.41288 180.0
106.472427 168.0
106.495018 108.0
106.562813 212.0
106.595688 168.0
106.735474 216.0
106.865059 164.0
106.893867 144.0
106.914444 184.0
106.951492 128.0
107.072975 196.0
107.163612 156.0
107.202766 216.0
107.289337 188.0
107.305832 152.0
107.347069 152.0
107.394508 164.0
107.408943 128.0
107.45639 192.0
107.479088 68.0
107.514175 220.0
107.532745 176.0
107.553391 192.0
107.567841 120.0
107.586952 232.0
107.64077 172.0
107.660751 204.0
107.677277 128.0
107.72065 136.0
107.735107 156.0
107.780563 160.0
107.807655 188.0
107.846703 120.0
107.881844 304.0
107.966621 124.0
108.010056 48.0
108.05497 152.0
108.130058 136.0
108.16111 340.0
108.183884 144.0
108.269577 152.0
108.337128 196.0
108.369377 284.0
108.445648 196.0
108.513901 192.0
108.542381 216.0
108.600395 180.0
108.633583 284.0
108.718651 236.0
108.756012 72.0
108.82589 196.0
108.869591 148.0
108.920052 128.0
108.967476 220.0
109.008186 244.0
109.030174 152.0
109.05304 312.0
109.079971 192.0
109.152832 184.0
109.167389 84.0
109.204758 260.0
109.265152 160.0
109.285957 132.0
109.300522 136.0
109.337982 176.0
109.35463 172.0
109.37336 204.0
109.404587 96.0
109.508705 144.0
109.525368 148.0
109.54319 180.0
109.591606 212.0
109.629547 124.0
109.669144 148.0
109.712135 192.0
109.715981 120.0
109.733948 176.0
109.785896 140.0
109.849113 352.0
109.93145 172.0
110.092682 180.0
110.126099 308.0
110.282806 152.0
110.331551 188.0
110.359535 176.0
110.414528 124.0
110.510757 168.0
110.609558 152.0
110.630791 204.0
110.676109 212.0
110.704475 184.0
110.726372 120.0
110.792931 176.0
110.816452 172.0
110.841591 388.0
110.900276 56.0
110.935913 172.0
110.992523 172.0
111.013489 224.0
111.055435 256.0
111.099487 168.0
111.130959 176.0
111.160339 104.0
111.20491 188.0
111.227501 100.0
111.361885 188.0
111.430069 192.0
111.469627 112.0
111.586739 144.0
111.607216 200.0
111.613106 148.0
111.719238 164.0
111.743645 120.0
111.811821 272.0
111.88501 172.0
111.904442 64.0
111.971832 240.0
112.007637 112.0
112.032921 44.0
112.061577 224.0
112.108894 136.0
112.131958 164.0
112.241577 132.0
112.312019 160.0
112.332275 164.0
112.359695 44.0
112.380798 228.0
112.397507 200.0
112.492653 52.0
112.522888 212.0
112.566551 124.0
112.654266 288.0
112.676392 216.0
112.695404 120.0
112.714424 140.0
112.733437 168.0
112.773598 120.0
112.790504 180.0
112.811646 208.0
112.837013 184.0
112.853928 204.0
112.946983 364.0
112.961792 168.0
112.996597 248.0
113.040077 212.0
113.06012 136.0
113.099335 96.0
113.143791 84.0
113.195107 204.0
113.230614 172.0
113.277206 172.0
113.328056 188.0
113.364082 136.0
113.400108 184.0
113.436142 120.0
113.459465 116.0
113.489151 176.0
113.508232 56.0
113.559128 32.0
113.575912 184.0
113.602402 120.0
113.650352 172.0
113.667328 124.0
113.697365 180.0
113.732361 160.0
113.828659 132.0
113.878998 148.0
113.89875 132.0
113.932739 220.0
113.963753 180.0
113.985855 128.0
114.034737 144.0
114.105347 148.0
114.168678 36.0
114.199364 168.0
114.259399 148.0
114.309082 68.0
114.349518 160.0
114.381447 68.0
114.404861 148.0
114.426155 144.0
114.468742 204.0
114.492165 72.0
114.530502 96.0
114.558197 184.0
114.585846 184.0
114.616875 244.0
114.668129 208.0
114.703224 72.0
114.720161 88.0
114.786255 184.0
114.867661 240.0
114.941978 60.0
114.959045 120.0
114.999596 144.0
115.014542 140.0
115.02948 112.0
115.05127 176.0
115.084991 148.0
115.113014 128.0
115.120155 128.0
115.126244 188.0
115.151192 140.0
115.172554 72.0
115.187508 136.0
115.217415 156.0
115.280289 216.0
115.302887 176.0
115.364876 124.0
115.385979 144.0
115.405495 44.0
115.424744 88.0
115.456818 156.0
115.499596 120.0
115.542931 188.0
115.559502 264.0
115.692192 144.0
115.726448 168.0
115.74144 132.0
115.780029 180.0
115.866295 204.0
115.897804 196.0
115.925659 172.0
115.950508 204.0
115.970215 228.0
115.984329 244.0
116.004059 368.0
116.055702 220.0
116.075722 96.0
116.121384 124.0
116.135239 144.0
116.161514 160.0
116.213005 148.0
116.243042 188.0
116.273087 92.0
116.292404 132.0
116.356804 176.0
116.37558 128.0
116.395454 104.0
116.436256 176.0
116.451294 188.0
116.48996 168.0
116.507141 148.0
116.561317 224.0
116.602539 212.0
116.651131 220.0
116.672752 140.0
116.69397 168.0
116.707703 192.0
116.728531 116.0
116.750038 168.0
116.768501 220.0
116.786598 128.0
116.801659 156.0
116.85759 116.0
116.881256 100.0
116.911385 68.0
116.988876 176.0
117.006096 64.0
117.059624 140.0
117.103004 180.0
117.128387 204.0
117.240952 140.0
117.271065 84.0
117.301239 104.0
117.329269 192.0
117.363762 220.0
117.430618 136.0
117.456505 40.0
117.493172 140.0
117.518082 220.0
117.557907 232.0
117.577332 112.0
117.611801 140.0
117.711174 168.0
117.745735 136.0
117.798477 276.0
117.832138 172.0
117.871033 184.0
117.921349 172.0
117.944511 200.0
117.959648 52.0
117.981148 232.0
118.087219 140.0
118.121826 128.0
118.152115 40.0
118.171585 180.0
118.266808 112.0
118.343407 136.0
118.361427 176.0
118.38372 148.0
118.434891 240.0
118.450867 144.0
118.470825 168.0
118.500648 180.0
118.561371 136.0
118.585213 152.0
118.621849 168.0
118.743912 164.0
118.773849 48.0
118.804222 160.0
118.830261 148.0
118.856293 96.0
118.93676 52.0
119.019096 152.0
119.085625 132.0
119.105965 128.0
119.145073 156.0
119.164627 184.0
119.19722 136.0
119.284599 156.0
119.377647 132.0
119.464653 232.0
119.490761 252.0
119.511429 72.0
119.534279 104.0
119.619156 280.0
119.714958 152.0
119.729805 132.0
119.762878 244.0
119.805664 172.0
119.867447 80.0
119.889244 116.0
119.910812 192.0
119.953407 292.0
119.97506 204.0
120.015678 132.0
120.054932 88.0
120.139999 168.0
120.177086 160.0
120.205452 108.0
120.229462 156.0
120.244736 160.0
120.297127 192.0
120.364807 180.0
120.400124 244.0
120.419998 192.0
120.455727 224.0
120.480568 164.0
120.524269 176.0
120.554863 312.0
120.653221 72.0
120.679382 228.0
120.705818 144.0
120.719688 212.0
120.742874 220.0
120.760376 384.0
120.799744 252.0
120.836937 172.0
120.886658 188.0
120.979195 204.0
121.060211 100.0
121.084297 144.0
121.134682 168.0
121.216858 276.0
121.4245 144.0
121.443756 144.0
121.46788 132.0
121.500786 192.0
121.533127 168.0
121.661171 152.0
121.691574 164.0
121.722481 132.0
121.746681 200.0
121.775185 196.0
121.792755 72.0
121.809326 148.0
121.898216 184.0
121.95298 148.0
121.968544 176.0
121.990532 168.0
122.0345 152.0
122.069679 96.0
122.089729 136.0
122.129875 152.0
122.168663 196.0
122.263275 136.0
122.291885 232.0
122.335915 156.0
122.374344 152.0
122.450417 176.0
122.476845 140.0
122.494469 132.0
122.611252 168.0
122.631393 396.0
122.64872 168.0
122.664146 160.0
122.710449 212.0
122.725883 200.0
122.799553 344.0
122.819069 188.0
122.844978 44.0
122.915581 100.0
122.964134 176.0
123.076721 140.0
123.114258 136.0
123.136345 132.0
123.160645 116.0
123.178314 48.0
123.235756 52.0
123.268898 120.0
123.29763 124.0
123.417007 172.0
123.466591 136.0
123.509102 168.0
123.5298 124.0
123.600601 172.0
123.640434 168.0
123.69577 168.0
123.746689 140.0
123.808693 160.0
123.833054 200.0
123.883522 168.0
123.907486 20.0
123.959335 116.0
123.992577 112.0
124.098389 180.0
124.118118 184.0
124.325249 148.0
124.358536 176.0
124.436234 168.0
124.456123 188.0
124.461594 180.0
124.578491 152.0
124.757034 132.0
124.842873 188.0
124.885132 152.0
124.901825 196.0
124.918503 140.0
124.95977 196.0
124.991783 108.0
125.013756 632.0
125.031982 40.0
125.111351 140.0
125.12925 316.0
125.236984 156.0
125.279144 148.0
125.332611 132.0
125.495331 188.0
125.536003 184.0
125.595215 172.0
125.622452 144.0
125.663925 68.0
125.693848 44.0
125.709473 152.0
125.740715 108.0
125.769005 208.0
125.784317 120.0
125.828568 192.0
125.903694 32.0
125.979637 172.0
126.002647 148.0
126.039963 180.0
126.104774 116.0
126.175156 136.0
126.200905 228.0
126.227737 116.0
126.243301 100.0
126.280777 184.0
126.312729 76.0
126.49398 172.0
126.58802 116.0
126.605934 104.0
126.632812 140.0
126.659691 116.0
126.702255 144.0
126.738899 160.0
126.803413 100.0
126.910698 136.0
126.930878 108.0
126.951065 164.0
126.980217 224.0
127.06192 456.0
127.107559 184.0
127.132774 132.0
127.175423 112.0
127.209091 160.0
127.260727 180.0
127.323608 176.0
127.494591 264.0
127.53157 136.0
127.579765 108.0
127.601059 140.0
127.649467 152.0
127.671402 196.0
127.740028 136.0
127.782181 228.0
127.809006 156.0
127.840683 180.0
127.890198 156.0
127.950981 140.0
127.976868 280.0
128.046844 320.0
128.106369 116.0
128.21904 180.0
128.293427 132.0
128.318222 136.0
128.397141 124.0
128.437744 80.0
128.46048 148.0
128.505432 216.0
128.560532 200.0
128.634064 136.0
128.656647 160.0
128.726639 188.0
128.744705 136.0
128.771042 176.0
128.807938 172.0
128.846344 184.0
128.868942 96.0
128.916397 88.0
128.966125 136.0
128.99231 100.0
129.027161 128.0
129.072372 156.0
129.107635 352.0
129.137955 176.0
129.158325 36.0
129.223923 148.0
129.26239 212.0
129.409531 132.0
129.459808 176.0
129.501877 200.0
129.527283 40.0
129.5522 80.0
129.588455 232.0
129.636047 164.0
129.658035 272.0
129.722168 136.0
129.753906 188.0
129.855347 164.0
129.892242 204.0
129.930283 68.0
129.973923 108.0
129.989807 172.0
130.034042 188.0
130.063324 144.0
130.109528 216.0
130.191849 180.0
130.210022 124.0
130.339508 184.0
130.367599 112.0
130.388046 236.0
130.482712 184.0
130.546371 124.0
130.605515 220.0
130.627457 136.0
130.64418 296.0
130.676041 152.0
130.780716 72.0
130.858124 144.0
130.883163 352.0
130.913712 140.0
130.940094 132.0
130.956039 124.0
131.008133 152.0
131.072235 148.0
131.13237 300.0
131.177078 108.0
131.193024 176.0
131.223557 144.0
131.245468 116.0
131.268265 104.0
131.295639 152.0
131.316162 148.0
131.336685 168.0
131.380035 188.0
131.414261 172.0
131.485001 108.0
131.521362 176.0
131.527924 164.0
131.578598 132.0
131.608276 192.0
131.738449 132.0
131.761307 132.0
131.819763 156.0
131.882416 160.0
131.928131 124.0
131.992157 164.0
132.012741 204.0
132.040176 148.0
132.098434 140.0
132.136261 140.0
132.159134 80.0
132.203552 132.0
132.227783 152.0
132.248383 184.0
132.268997 68.0
132.296463 108.0
132.327667 140.0
132.335556 156.0
132.388046 104.0
132.429276 172.0
132.463638 152.0
132.508453 156.0
132.569031 64.0
132.599915 172.0
132.619446 172.0
132.695099 256.0
132.735001 120.0
132.758743 172.0
132.782242 52.0
132.970383 248.0
133.013992 312.0
133.071381 232.0
133.102188 140.0
133.121765 176.0
133.180679 128.0
133.199997 128.0
133.245041 236.0
133.287292 252.0
133.321762 148.0
133.381531 160.0
133.425201 156.0
133.459091 196.0
133.547089 44.0
133.565491 168.0
133.585831 180.0
133.623001 228.0
133.662445 220.0
133.698929 132.0
133.728851 108.0
133.814026 320.0
133.896927 148.0
133.917664 180.0
133.973434 332.0
134.002899 100.0
134.061874 412.0
134.092773 144.0
134.133469 128.0
134.208038 196.0
134.22879 200.0
134.29567 132.0
134.311813 192.0
134.401794 108.0
134.586456 168.0
134.63649 328.0
134.652802 180.0
134.733826 184.0
134.774155 160.0
134.810516 148.0
134.859055 184.0
134.919159 48.0
134.963089 152.0
135.000092 192.0
135.025528 128.0
135.063492 184.0
135.090302 208.0
135.12384 120.0
135.138885 156.0
135.16478 208.0
135.185165 128.0
135.216492 260.0
135.263855 312.0
135.287003 116.0
135.312347 148.0
135.32579 64.0
135.35878 260.0
135.376694 168.0
135.40741 96.0
135.446854 152.0
135.483063 140.0
135.513977 172.0
135.53894 224.0
135.595078 92.0
135.63681 216.0
135.656433 128.0
135.683167 160.0
135.711746 160.0
135.817673 168.0
135.833786 148.0
135.862961 160.0
135.924393 172.0
135.961517 200.0
136.013855 156.0
136.031158 196.0
136.126938 160.0
136.203003 112.0
136.221573 72.0
136.237839 168.0
136.271347 160.0
136.300568 196.0
136.323807 184.0
136.360992 172.0
136.391586 228.0
136.4021 188.0
136.49118 132.0
136.512115 124.0
136.537796 172.0
136.571777 396.0
136.657547 164.0
136.688904 156.0
136.742432 112.0
136.76741 148.0
136.797241 160.0
136.84021 36.0
136.865814 148.0
136.905411 152.0
136.961304 136.0
136.985168 148.0
137.000763 184.0
137.044968 208.0
137.091782 84.0
137.112747 192.0
137.164032 316.0
137.185013 212.0
137.270187 188.0
137.285706 164.0
137.310928 148.0
137.362244 116.0
137.435272 40.0
137.504578 176.0
137.567596 136.0
137.597244 224.0
137.684357 180.0
137.714355 180.0
137.794144 180.0
137.80896 128.0
137.834839 252.0
137.960068 156.0
138.04425 280.0
138.060623 172.0
138.094772 140.0
138.217361 168.0
138.243103 184.0
138.308624 224.0
138.327362 76.0
138.382217 156.0
138.406952 244.0
138.448395 128.0
138.611176 196.0
138.715057 336.0
138.770142 216.0
138.826416 224.0
138.842834 152.0
138.875671 136.0
138.899124 152.0
138.927277 160.0
138.969513 140.0
138.996689 352.0
139.053513 3848.0
139.086853 164.0
139.139236 116.0
139.178085 200.0
139.237122 112.0
139.262955 44.0
139.339569 184.0
139.467377 276.0
139.486191 80.0
139.519104 100.0
139.549667 196.0
139.603912 168.0
139.644028 160.0
139.697784 180.0
139.803711 168.0
139.82019 168.0
139.90419 308.0
139.935532 132.0
139.970856 60.0
140.004868 188.0
140.05661 2196.0
140.09111 284.0
140.116882 176.0
140.144684 156.0
140.163742 352.0
140.201721 156.0
140.240875 288.0
140.279556 156.0
140.324295 80.0
140.45636 180.0
140.508255 64.0
140.52478 144.0
140.553085 72.0
140.579056 144.0
140.595566 144.0
140.628616 132.0
140.652222 196.0
140.694702 128.0
140.727768 148.0
140.754837 172.0
140.800232 464.0
140.867111 160.0
140.883636 200.0
140.935623 192.0
140.985245 384.0
141.059357 288.0
141.107559 156.0
141.144669 100.0
141.162552 176.0
141.19249 176.0
141.23114 188.0
141.32576 200.0
141.374313 216.0
141.425156 44.0
141.444092 160.0
141.481979 160.0
141.541168 160.0
141.595642 228.0
141.654846 64.0
141.683289 160.0
141.70697 132.0
141.728302 180.0
141.759109 236.0
141.883224 180.0
141.932144 152.0
142.000931 88.0
142.034134 220.0
142.061905 204.0
142.101852 212.0
142.133774 156.0
142.150391 144.0
142.228973 180.0
142.252441 216.0
142.41629 192.0
142.471085 184.0
142.523193 220.0
142.594849 192.0
142.625397 164.0
142.701462 168.0
142.746552 200.0
142.787079 180.0
142.813232 172.0
142.903641 216.0
142.936951 44.0
142.992172 140.0
143.025009 144.0
143.067993 176.0
143.115479 132.0
143.15358 124.0
143.191681 112.0
143.239319 204.0
143.353683 68.0
143.372757 152.0
143.415649 144.0
143.462082 192.0
143.500229 160.0
143.525314 400.0
143.549957 144.0
143.648987 216.0
143.720917 52.0
143.779312 152.0
143.804443 144.0
143.847412 76.0
143.895157 112.0
143.919037 140.0
144.036057 140.0
144.061172 180.0
144.083832 56.0
144.110123 128.0
144.159561 144.0
144.222443 156.0
144.248734 136.0
144.267853 196.0
144.284592 192.0
144.327637 128.0
144.387421 128.0
144.415634 120.0
144.456787 152.0
144.495056 68.0
144.518982 80.0
144.540527 144.0
144.583603 200.0
144.614716 204.0
144.633865 148.0
144.672165 76.0
144.708069 188.0
144.726837 248.0
144.777512 144.0
144.825043 304.0
144.907501 120.0
144.954788 112.0
144.975723 224.0
144.995529 48.0
145.041824 152.0
145.085602 172.0
145.12738 152.0
145.144165 128.0
145.19693 160.0
145.300064 104.0
145.379257 224.0
145.432053 136.0
145.454956 168.0
145.47287 176.0
145.518478 176.0
145.547867 116.0
145.797134 156.0
145.824203 264.0
145.847595 180.0
145.939041 168.0
145.972626 180.0
146.035156 152.0
146.084641 160.0
146.104919 128.0
146.137756 208.0
146.162659 232.0
146.203568 256.0
146.232452 172.0
146.274841 240.0
146.292633 124.0
146.437103 164.0
146.541931 160.0
146.598526 212.0
146.677155 288.0
146.727386 232.0
146.815491 204.0
146.880615 136.0
146.91922 64.0
147.006073 48.0
147.075058 312.0
147.182297 104.0
147.199203 156.0
147.356201 132.0
147.41478 184.0
147.442398 212.0
147.496368 184.0
147.54715 148.0
147.652328 184.0
147.692245 112.0
147.796265 164.0
147.837402 136.0
147.872711 176.0
147.905182 372.0
147.951172 104.0
147.982651 172.0
148.118271 108.0
148.19223 200.0
148.330078 340.0
148.35614 148.0
148.445465 184.0
148.463699 196.0
148.552704 224.0
148.588577 220.0
148.618851 152.0
148.673508 264.0
148.757126 156.0
148.936493 216.0
148.969727 120.0
149.003738 132.0
149.024872 256.0
149.12767 160.0
149.166565 124.0
149.214523 160.0
149.249237 164.0
149.297867 204.0
149.344086 160.0
149.381226 132.0
149.487625 172.0
149.504578 120.0
149.62149 136.0
149.665329 136.0
149.721329 196.0
149.743256 168.0
149.779785 84.0
149.813889 192.0
149.835815 96.0
149.877243 132.0
149.906479 192.0
150.024979 144.0
150.057602 148.0
150.228333 48.0
150.262482 128.0
150.291763 168.0
150.327637 224.0
150.391815 176.0
150.411346 76.0
150.513885 52.0
150.539688 156.0
150.5896 112.0
150.614029 228.0
150.6409 176.0
150.694641 128.0
150.873062 152.0
150.973312 104.0
151.033676 212.0
151.139862 92.0
151.178802 168.0
151.198395 176.0
151.249786 140.0
151.27182 204.0
151.317413 244.0
151.337921 192.0
151.390472 132.0
151.42363 244.0
151.456345 292.0
151.478806 232.0
151.499573 176.0
151.548569 140.0
151.59465 124.0
151.60199 100.0
151.609924 204.0
151.693176 148.0
151.720139 176.0
151.791245 36.0
151.832932 92.0
151.942764 180.0
151.985031 160.0
152.021835 112.0
152.055038 128.0
152.127014 160.0
152.165359 176.0
152.193665 84.0
152.212692 208.0
152.26886 276.0
152.321487 192.0
152.368744 184.0
152.41507 144.0
152.468811 196.0
152.505676 188.0
152.552383 128.0
152.579422 144.0
152.667938 212.0
152.724152 164.0
152.758942 152.0
152.827606 172.0
152.909042 120.0
152.948624 196.0
152.997665 116.0
153.02475 140.0
153.063217 180.0
153.096146 40.0
153.12207 192.0
153.167191 216.0
153.189621 144.0
153.234573 228.0
153.264709 336.0
153.305557 36.0
153.337601 136.0
153.388718 140.0
153.470718 44.0
153.493225 152.0
153.544693 164.0
153.603897 220.0
153.697647 152.0
153.729721 140.0
153.771683 168.0
153.840805 228.0
153.87439 264.0
153.9198 152.0
154.006241 172.0
154.065536 244.0
154.114273 208.0
154.147064 216.0
154.171783 180.0
154.20752 252.0
154.253342 76.0
154.292908 128.0
154.312683 256.0
154.381912 192.0
154.419022 168.0
154.463547 160.0
154.485809 176.0
154.646652 296.0
154.679504 116.0
154.763 188.0
154.807571 96.0
154.85463 132.0
154.883789 192.0
154.956192 164.0
155.012924 116.0
155.018417 148.0
155.037964 124.0
155.065231 112.0
155.122299 164.0
155.149506 100.0
155.199097 156.0
155.261093 164.0
155.333023 104.0
155.39505 164.0
155.474457 32.0
155.535202 144.0
155.624161 172.0
155.65567 72.0
155.685471 192.0
155.702866 32.0
155.720245 200.0
155.853882 136.0
155.87677 176.0
155.894165 140.0
155.923721 156.0
156.038544 136.0
156.065674 132.0
156.103897 152.0
156.182571 148.0
156.249725 136.0
156.331848 64.0
156.384109 60.0
156.433899 84.0
156.462662 244.0
156.535538 156.0
156.574005 180.0
156.610352 212.0
156.622192 124.0
156.63269 164.0
156.675461 172.0
156.73526 184.0
156.869003 148.0
156.924789 104.0
157.031921 148.0
157.058594 196.0
157.077896 140.0
157.226532 92.0
157.263397 156.0
157.293243 192.0
157.313492 148.0
157.355728 232.0
157.537323 172.0
157.55365 228.0
157.611115 232.0
157.811172 96.0
157.871094 164.0
157.913696 228.0
158.01355 140.0
158.15593 160.0
158.183853 272.0
158.213882 208.0
158.248932 140.0
158.325027 196.0
158.366638 48.0
158.389191 168.0
158.466843 100.0
158.532898 188.0
158.602173 132.0
158.65506 84.0
158.702454 152.0
158.727524 148.0
158.753906 228.0
158.775177 28.0
158.82283 120.0
158.845413 108.0
158.886169 160.0
158.943253 244.0
158.990936 196.0
159.031097 168.0
159.061218 152.0
159.083817 100.0
159.167847 152.0
159.316132 124.0
159.352539 212.0
159.370132 172.0
159.483215 140.0
159.525955 164.0
159.589294 228.0
159.732162 160.0
159.800079 220.0
159.847488 380.0
159.885635 212.0
159.908295 136.0
160.0392 104.0
160.159561 176.0
160.169296 140.0
160.176041 96.0
160.250778 128.0
160.303696 84.0
160.364182 116.0
160.391907 148.0
160.593628 196.0
160.702103 176.0
160.775406 156.0
160.821625 132.0
160.879105 152.0
160.911591 208.0
160.932922 132.0
161.042908 132.0
161.062469 304.0
161.091675 156.0
161.17308 164.0
161.191971 144.0
161.225647 212.0
161.250092 184.0
161.278778 416.0
161.336044 184.0
161.377045 216.0
161.535828 156.0
161.558594 140.0
161.611725 96.0
161.631958 44.0
161.677155 200.0
161.711273 236.0
161.735733 196.0
161.761047 136.0
161.882568 180.0
161.907898 156.0
161.930695 108.0
161.956024 132.0
162.105499 196.0
162.128311 160.0
162.146057 208.0
162.217026 108.0
162.260117 180.0
162.297592 200.0
162.323517 116.0
162.369156 100.0
162.38945 164.0
162.417358 172.0
162.480774 184.0
162.526443 180.0
162.5569 132.0
162.579727 180.0
162.696503 208.0
162.721878 180.0
162.769897 172.0
162.798065 124.0
162.942856 188.0
162.970047 188.0
162.989487 204.0
163.024155 148.0
163.072449 52.0
163.115662 172.0
163.174133 176.0
163.204651 164.0
163.242004 412.0
163.262558 212.0
163.326416 164.0
163.419647 204.0
163.47937 132.0
163.503525 180.0
163.59137 84.0
163.624466 120.0
163.680252 176.0
163.771469 176.0
163.789993 96.0
163.822495 148.0
163.894455 168.0
163.912292 152.0
163.988739 84.0
164.054657 212.0
164.131516 188.0
164.187607 132.0
164.21312 188.0
164.248825 116.0
164.287094 132.0
164.307495 124.0
164.36618 112.0
164.456009 164.0
164.478485 152.0
164.498901 116.0
164.516769 140.0
164.588257 172.0
164.702362 196.0
164.787491 460.0
164.828384 152.0
164.845047 140.0
164.874374 120.0
164.938278 204.0
164.9664 84.0
165.003754 208.0
165.030319 152.0
165.054962 432.0
165.07695 116.0
165.173523 56.0
165.211899 220.0
165.265625 120.0
165.291214 208.0
165.309128 152.0
165.403824 152.0
165.466721 184.0
165.476196 104.0
165.481934 212.0
165.536972 128.0
165.603561 104.0
165.624054 160.0
165.648087 208.0
165.693665 160.0
165.732727 188.0
165.772644 188.0
165.800842 156.0
165.851318 172.0
165.880707 128.0
165.910965 104.0
165.916794 136.0
165.938049 184.0
165.982849 164.0
166.022095 212.0
166.064148 18300.0
166.175583 176.0
166.215622 188.0
166.241058 196.0
166.246674 128.0
166.255707 176.0
166.278305 164.0
166.30098 100.0
166.321503 244.0
166.353546 172.0
166.377518 188.0
166.415359 140.0
166.443314 108.0
166.484329 144.0
166.528152 280.0
166.558563 344.0
166.586792 204.0
166.598785 164.0
166.618622 184.0
166.652832 212.0
166.672791 312.0
166.702774 408.0
166.709808 152.0
166.719467 68.0
166.756042 224.0
166.782578 524.0
166.823959 384.0
166.828049 180.0
166.839722 216.0
166.85994 304.0
166.873764 372.0
166.876892 328.0
166.897919 360.0
166.947983 348.0
166.992966 896.0
167.041046 1156.0
167.073074 386444.0
167.133484 288.0
167.154572 200.0
167.197464 76.0
167.233337 304.0
167.280197 212.0
167.30809 572.0
167.332687 140.0
167.356644 368.0
167.371384 476.0
167.391296 488.0
167.414612 264.0
167.466476 900.0
167.497803 6820.0
167.528442 224.0
167.536057 212.0
167.56958 164.0
167.588165 140.0
167.623413 124.0
167.673218 128.0
167.700027 120.0
167.730988 168.0
167.748596 180.0
167.802139 236.0
167.822037 112.0
167.844574 184.0
167.888382 204.0
167.914108 236.0
167.938522 176.0
167.957489 192.0
167.974823 112.0
167.995026 200.0
168.02179 136.0
168.04071 220.0
168.075302 62764.0
168.135208 88.0
168.156113 324.0
168.212708 128.0
168.246872 48.0
168.274155 184.0
168.30278 228.0
168.329437 104.0
168.35701 104.0
168.369736 48.0
168.375092 56.0
168.414368 52.0
168.437912 128.0
168.481461 84.0
168.511246 100.0
168.536285 104.0
168.545456 52.0
168.5746 156.0
168.648285 64.0
168.675613 52.0
168.700119 44.0
168.743362 176.0
168.774536 152.0
168.812515 232.0
168.830734 164.0
168.861954 120.0
168.905441 164.0
168.915314 124.0
168.941223 148.0
168.960205 84.0
169.003525 160.0
169.03302 204.0
169.077942 3452.0
169.15004 156.0
169.186295 212.0
169.219559 180.0
169.238907 196.0
169.257355 228.0
169.280014 280.0
169.299103 368.0
169.316757 380.0
169.354172 296.0
169.377838 268.0
169.405945 236.0
169.427719 444.0
169.4599 276.0
169.48175 360.0
169.509567 136.0
169.546768 48.0
169.57225 84.0
169.620682 136.0
169.663208 60.0
169.682465 80.0
169.747803 100.0
169.768555 84.0
169.789291 84.0
169.818298 44.0
169.869781 144.0
169.921585 92.0
169.955322 124.0
170.002945 80.0
170.063156 260.0
170.084442 148.0
170.131165 108.0
170.162064 56.0
170.220093 128.0
170.246063 112.0
170.294662 116.0
170.320557 76.0
170.397812 120.0
170.420395 108.0
170.450211 68.0
170.472687 108.0
170.520416 120.0
170.556778 108.0
170.56427 116.0
170.609833 52.0
170.63324 36.0
170.667038 68.0
170.773438 48.0
170.927155 56.0
170.957764 168.0
170.987015 44.0
171.036469 60.0
171.057129 108.0
171.192673 60.0
171.242157 156.0
171.3125 68.0
171.369812 44.0
171.414108 68.0
171.531387 152.0
171.673141 112.0
171.708694 72.0
171.792175 72.0
171.868378 96.0
171.917419 36.0
171.935684 144.0
171.959167 164.0
172.045319 144.0
172.136703 48.0
172.185226 44.0
172.209824 148.0
172.284454 84.0
172.324768 88.0
172.471115 136.0
172.656754 36.0
172.716919 72.0
172.745682 100.0
172.874298 128.0
172.947174 48.0
173.012619 144.0
173.083313 124.0
173.208176 244.0
173.337402 132.0
173.395065 76.0
173.416031 32.0
173.565628 64.0
173.615295 228.0
173.659882 188.0
173.688736 48.0
173.759567 140.0
174.032532 116.0
174.266296 52.0
174.368546 88.0
174.378372 80.0
174.387863 140.0
174.481812 100.0
174.661804 136.0
174.721146 140.0
174.771927 160.0
174.810608 44.0
174.83429 100.0
174.87114 48.0
174.929047 124.0
175.023331 312.0
175.276703 60.0
175.379486 64.0
175.578873 136.0
175.761902 68.0
175.82074 192.0
175.88858 168.0
175.978348 56.0
176.031158 424.0
176.054916 60.0
176.102463 112.0
176.1297 116.0
176.20285 92.0
176.250977 148.0
176.32608 140.0
176.504166 128.0
176.550583 140.0
176.570282 64.0
176.665497 128.0
176.686676 28.0
176.71312 36.0
176.736938 116.0
176.856033 100.0
176.917969 212.0
176.969589 112.0
177.03421 160.0
177.104935 104.0
177.27449 100.0
177.30513 64.0
177.356659 48.0
177.422928 52.0
177.468002 44.0
177.489212 128.0
177.521042 76.0
177.560822 104.0
177.651001 120.0
177.820831 88.0
178.006668 108.0
178.067749 200.0
178.309525 128.0
178.393326 68.0
178.873413 204.0
178.894714 48.0
178.92099 92.0
179.014526 36.0
179.315659 140.0
179.486206 28.0
179.605545 128.0
179.640167 44.0
179.744949 88.0
179.771637 60.0
179.971664 120.0
180.020157 128.0
180.078674 652.0
180.108047 76.0
180.140091 116.0
180.180176 244.0
180.241623 60.0
180.388626 152.0
180.471497 84.0
180.709549 172.0
180.765747 68.0
180.821945 120.0
180.92366 92.0
181.030777 164.0
181.085724 636.0
181.174881 60.0
181.239716 136.0
181.29599 72.0
181.357635 80.0
181.38176 76.0
181.427322 56.0
181.510452 32.0
181.539948 64.0
181.615036 80.0
181.708939 104.0
181.776016 96.0
181.845795 152.0
181.883377 152.0
181.953171 64.0
182.025665 44.0
182.098511 156.0
182.176071 68.0
182.251312 72.0
182.314987 92.0
182.444824 40.0
182.490524 120.0
182.509354 192.0
182.84024 108.0
182.974823 220.0
183.063522 272.0
183.102219 188.0
183.139099 168.0
183.171417 140.0
183.265717 172.0
183.46785 228.0
183.5811 84.0
183.659317 116.0
183.772629 192.0
184.091156 168.0
184.226196 156.0
184.261322 160.0
184.43158 176.0
184.531601 56.0
184.588379 108.0
185.126907 88.0
185.151276 120.0
185.294846 100.0
185.395111 184.0
185.500809 208.0
185.595703 188.0
185.663498 128.0
186.035233 112.0
186.290512 176.0
186.352997 80.0
186.399185 52.0
186.581299 96.0
186.654709 76.0
186.823349 76.0
187.081879 160.0
187.430511 180.0
187.498642 108.0
187.572235 100.0
187.780746 144.0
187.831284 164.0
188.019562 184.0
188.090515 136.0
188.418228 88.0
188.631393 208.0
188.716141 96.0
188.746216 124.0
188.869293 56.0
189.038986 160.0
189.173035 224.0
189.414017 28.0
189.860794 172.0
190.066528 136.0
190.126907 164.0
190.401443 104.0
190.720169 120.0
190.783386 100.0
191.074921 172.0
191.201492 180.0
191.589752 200.0
191.65036 184.0
192.05838 64.0
192.077698 188.0
192.143906 132.0
192.196335 92.0
192.270844 184.0
192.461319 180.0
192.751358 52.0
193.449936 256.0
194.055084 140.0
194.157684 156.0
194.507278 136.0
194.640549 136.0
194.80719 132.0
194.923889 120.0
195.06842 40.0
195.36319 52.0
195.688828 96.0
195.730591 184.0
195.850342 88.0
195.925552 32.0
195.972916 196.0
196.066742 156.0
196.255203 132.0
196.377151 60.0
196.47757 164.0
196.578018 116.0
196.776199 140.0
196.801331 132.0
197.07785 176.0
197.23436 48.0
197.444061 160.0
197.516785 192.0
197.536362 172.0
197.959 152.0
198.057358 204.0
198.113052 116.0
198.379288 128.0
198.469009 160.0
198.530701 196.0
198.738281 112.0
198.822464 80.0
198.923508 124.0
198.985275 232.0
199.02739 240.0
199.04985 104.0
199.079758 160.0
199.114441 140.0
199.443192 128.0
199.482544 120.0
199.786255 56.0
200.028625 192.0
200.20285 188.0
200.467651 144.0
200.704453 60.0
200.977997 188.0
201.032135 2592.0
201.076828 120.0
201.181274 128.0
201.263153 92.0
201.373291 96.0
201.42131 144.0
201.477798 96.0
201.563553 196.0
201.660233 144.0
201.70105 84.0
201.737808 156.0
201.757599 172.0
201.785858 156.0
201.81749 236.0
201.839584 56.0
201.869797 152.0
201.880051 104.0
201.951218 212.0
201.985275 204.0
202.041107 89372.0
202.09967 444.0
202.123398 408.0
202.177231 56.0
202.211365 56.0
202.252396 92.0
202.272293 68.0
202.305145 88.0
202.333511 204.0
202.355469 84.0
202.394196 36.0
202.425354 48.0
202.456497 248.0
202.506668 192.0
202.540451 144.0
202.58963 44.0
202.611786 92.0
202.666122 44.0
202.716492 160.0
202.782944 72.0
202.854904 112.0
202.874741 68.0
202.913757 76.0
202.99968 204.0
203.042679 10300.0
203.137115 104.0
203.179321 76.0
203.245102 148.0
203.277466 88.0
203.303223 128.0
203.360748 184.0
203.385254 112.0
203.459671 56.0
203.599426 52.0
203.727234 40.0
203.752121 228.0
203.772705 104.0
203.823837 104.0
203.857941 116.0
203.905396 144.0
203.968796 204.0
204.037842 20876.0
204.114853 196.0
204.161209 116.0
204.219772 88.0
204.247986 108.0
204.281601 52.0
204.314148 72.0
204.366943 80.0
204.467728 144.0
204.478226 92.0
204.505478 124.0
204.52739 220.0
204.549973 160.0
204.573181 92.0
204.609329 148.0
204.644196 196.0
204.676147 96.0
204.73558 68.0
204.819611 168.0
204.859497 52.0
204.959213 44.0
205.03833 1908.0
205.104553 56.0
205.130219 40.0
205.174927 76.0
205.257355 176.0
205.349777 48.0
205.429642 140.0
205.478149 128.0
205.532364 100.0
205.566605 52.0
205.612259 40.0
205.888092 124.0
206.003448 60.0
206.106308 96.0
206.146317 88.0
206.220612 100.0
206.263489 32.0
206.369278 60.0
206.506546 100.0
206.598557 48.0
206.630859 96.0
206.686478 76.0
206.784073 108.0
206.87854 128.0
207.090439 56.0
207.302444 104.0
207.536423 104.0
207.832947 72.0
208.249222 28.0
208.668777 72.0
209.820419 96.0
210.025177 64.0
210.097519 180.0
210.949219 168.0
211.098831 240.0
211.600159 104.0
211.79129 92.0
211.831848 96.0
212.09845 108.0
212.394211 144.0
212.495743 100.0
212.71051 84.0
213.024124 44.0
213.980957 224.0
214.045013 144.0
214.321732 72.0
214.374191 96.0
214.403336 112.0
214.794037 156.0
215.040573 128.0
216.055176 1344.0
216.161392 164.0
216.521469 52.0
216.714813 96.0
216.958084 128.0
217.035843 176.0
217.06459 312.0
217.662262 124.0
218.053513 276.0
218.744217 52.0
219.578094 132.0
220.407639 36.0
221.552673 72.0
223.089951 112.0
223.235657 44.0
226.659653 100.0
227.12735 168.0
227.226349 64.0
227.559509 96.0
228.049164 248.0
229.05719 176.0
230.052353 84.0
230.242569 44.0
230.532593 88.0
230.983109 52.0
232.00061 72.0
232.576981 96.0
234.627335 44.0
235.49704 100.0
236.120544 52.0
237.636902 40.0
238.733521 76.0
239.013458 48.0
240.323029 92.0
242.366898 36.0
243.027344 144.0
243.359467 68.0
243.900024 44.0
244.964264 164.0
246.008972 148.0
246.066513 3792.0
246.124481 64.0
246.59935 68.0
246.649353 48.0
247.068619 528.0
248.0298 144.0
248.062897 1636.0
248.183411 52.0
248.343353 60.0
248.380997 96.0
249.069992 304.0
249.577576 52.0
249.741104 48.0
250.304443 60.0
250.830597 72.0
251.168015 100.0
251.426727 84.0
252.516739 80.0
252.570511 56.0
253.314407 64.0
253.907135 76.0
254.649811 116.0
257.064453 100.0
257.807129 96.0
257.982941 76.0
258.533081 68.0
259.36264 56.0
259.445984 68.0
259.805176 68.0
261.437469 48.0
261.71109 52.0
262.094391 152.0
263.07489 52.0
263.184662 92.0
263.58197 72.0
263.914917 64.0
265.17746 108.0
265.842316 116.0
266.608734 72.0
269.737762 40.0
269.881622 40.0
270.032043 60.0
270.68985 36.0
271.256683 76.0
272.464355 92.0
272.855469 64.0
273.707672 48.0
275.769592 40.0
277.282166 52.0
277.719818 60.0
279.53714 96.0
280.443024 80.0
281.276917 60.0
281.670959 80.0
283.191681 108.0
283.75589 80.0
283.866547 76.0
284.329529 52.0
285.028015 44.0
286.329956 64.0
286.50174 64.0
286.791534 48.0
288.726196 52.0
289.18631 148.0
289.355591 108.0
291.122223 224.0
292.012665 92.0
292.067078 48.0
293.275879 56.0
298.648285 116.0
298.933838 84.0
299.453705 96.0
302.353882 104.0
302.38501 100.0
302.46463 64.0
303.313293 60.0
304.715363 44.0
305.087219 120.0
306.158936 112.0
306.21814 108.0
306.280823 68.0
307.640839 68.0
309.143799 76.0
309.956238 60.0
310.012299 52.0
310.678528 84.0
311.345428 68.0
314.048492 92.0
315.796875 56.0
316.837616 80.0
319.073547 112.0
319.354462 56.0
319.422058 120.0
320.55072 60.0
322.924835 92.0
324.744354 68.0
330.020233 96.0
330.740173 72.0
332.85022 148.0
333.671387 92.0
333.980499 128.0
334.227875 84.0
334.82489 48.0
335.382355 64.0
336.119049 40.0
336.487732 80.0
336.527893 44.0
336.915039 84.0
337.167145 80.0
337.280457 96.0
337.565643 60.0
340.229431 76.0
342.317932 72.0
343.608032 92.0
344.73053 124.0
345.225922 172.0
346.780884 108.0
349.9646 84.0
350.005554 36.0
350.25882 56.0
350.568054 52.0
352.635651 92.0
352.706696 144.0
352.751526 104.0
353.716675 80.0
354.027435 48.0
354.375793 48.0
354.54068 96.0
355.106812 76.0
355.448212 84.0
364.062988 40.0
364.883759 68.0
366.684326 100.0
367.660675 112.0
369.510132 80.0
370.628174 68.0
370.873444 120.0
372.565765 76.0
373.003845 88.0
373.246063 68.0
373.665314 60.0
374.161804 28.0
375.846161 76.0
378.885193 88.0
382.271057 68.0
384.925781 64.0
385.027313 100.0
385.714996 44.0
392.128754 128.0
397.39621 104.0
398.023376 84.0
400.102844 36.0
407.281097 96.0
409.569855 64.0
410.069489 44.0
411.70752 92.0
411.76001 124.0
414.101837 40.0
415.0177 72.0
420.824005 84.0
423.117706 88.0
426.30896 36.0
432.876465 72.0
433.365265 64.0
435.190308 56.0
435.439453 84.0
435.659607 68.0
435.788422 44.0
437.830902 104.0
438.522522 60.0
442.097595 92.0
445.178894 64.0
446.46698 104.0
447.584259 80.0
447.752716 44.0
447.782196 76.0
448.920105 72.0
449.734375 120.0
453.515839 84.0
457.304596 40.0
463.83139 44.0
463.998596 88.0
465.646393 92.0
465.706543 124.0
469.675171 88.0
472.344727 116.0
477.371582 56.0
477.558594 56.0
483.089783 80.0
493.345398 36.0
502.476593 68.0
514.270081 88.0
515.887268 52.0
518.462769 76.0
519.392212 120.0
526.647888 80.0
529.556946 56.0
533.967712 84.0
535.850464 44.0
539.302368 96.0
539.764648 56.0
541.745667 60.0
542.329529 36.0
552.163147 80.0
554.129211 52.0
554.274475 80.0
555.958008 68.0
557.22113 52.0
564.489563 92.0
568.744141 76.0
568.900818 108.0
571.681396 148.0
572.805054 56.0
575.939026 56.0
582.08374 72.0
582.549622 40.0
583.592529 104.0
585.021484 60.0
586.109985 84.0
587.295959 60.0
588.816345 84.0
596.91449 104.0
597.079834 68.0
608.033569 64.0
620.965271 84.0
622.642822 108.0
630.469666 52.0
635.432068 84.0
639.618347 52.0
640.313171 40.0
650.319214 72.0
651.238281 80.0
676.530273 120.0
687.252502 48.0
689.127014 84.0
689.801208 80.0
690.643066 88.0
694.178345 204.0
699.96405 148.0
706.979919 120.0
710.296692 88.0
713.0578 88.0
719.54071 48.0
729.188354 52.0
756.008423 48.0
768.360962 84.0
777.069519 28.0
781.78717 104.0
796.36853 184.0
803.4953 48.0
808.98291 48.0
810.279846 84.0
819.546875 248.0
823.717407 60.0
826.507446 112.0
829.027039 156.0
841.948486 100.0
844.32959 92.0
845.799255 116.0
847.218018 56.0
856.815735 180.0
861.54718 52.0
863.950012 200.0
872.277405 92.0
883.221863 204.0
888.968933 56.0
890.019592 180.0
890.530334 124.0
891.421509 52.0
904.842468 72.0
911.242004 64.0
915.603271 196.0
919.214355 64.0
921.176636 212.0
922.294556 196.0
924.695801 180.0
926.70636 60.0
929.119385 40.0
930.788574 180.0
933.000244 52.0
933.900208 168.0
939.071411 96.0
939.254395 88.0
940.700684 144.0
947.115295 76.0
947.672791 68.0
948.487915 112.0
949.61615 76.0
949.873779 108.0
952.587036 172.0
955.581116 140.0
956.110291 112.0
959.196167 52.0
976.465576 152.0
976.925903 160.0
977.797058 148.0
980.325562 164.0
981.952759 172.0
983.319153 60.0
983.943359 168.0
985.717285 232.0
992.446411 80.0
993.920471 144.0
994.340942 152.0
996.708496 188.0
996.922119 128.0
998.14801 152.0
999.160645 136.0
1000.771912 84.0
1002.069397 160.0
1002.983215 56.0
1003.828064 120.0
1005.764954 232.0
1009.524292 164.0
1009.935364 200.0
1010.213684 96.0
1013.290527 160.0
1014.019287 200.0
1017.197144 60.0
1018.282959 156.0
1021.772827 200.0
1023.453186 92.0
1024.160034 208.0
1024.637817 84.0
1026.582031 216.0
1027.124146 168.0
1030.443848 156.0
1031.626221 208.0
1032.956299 228.0
1037.272339 92.0
1043.088257 108.0
1044.322876 108.0
1046.594604 108.0
1047.392578 184.0
1047.760376 100.0
1049.462036 116.0
1049.887573 208.0
1050.816528 232.0
1051.119751 136.0
1051.281128 116.0
1051.752197 212.0
1054.549072 200.0
1055.518799 184.0
1056.767212 144.0
1057.271973 72.0
1057.498535 156.0
1062.721802 208.0
1065.77356 124.0
1065.864502 36.0
1066.559937 104.0
1067.489624 196.0
1069.233154 124.0
1073.813477 204.0
1074.433105 44.0
1074.544067 152.0
1077.063965 64.0
1077.91333 132.0
1081.804932 144.0
1082.878906 136.0
1083.868164 148.0
1084.248169 204.0
1087.645752 120.0
1087.88208 148.0
1089.510742 140.0
1093.212769 128.0
1093.625122 236.0
1096.097046 160.0
1098.358398 80.0
1098.787231 204.0
1099.235962 140.0
1099.532959 176.0
1100.206177 136.0
1103.946045 68.0
1104.812622 160.0
1104.891968 172.0
1105.692627 160.0
1106.175781 184.0
1107.301514 96.0
1109.81311 132.0
1110.184448 208.0
1110.675293 140.0
1111.411621 76.0
1111.776611 180.0
1112.832153 180.0
1114.060791 196.0
1117.810791 40.0
1118.496338 200.0
1118.762573 196.0
1119.728149 200.0
1121.300537 200.0
1123.401001 196.0
1123.634399 112.0
1124.795654 136.0
1125.109375 132.0
1125.717041 164.0
1126.037598 148.0
1126.819214 176.0
1133.584106 144.0
1133.966064 196.0
1134.629761 88.0
1134.897949 184.0
1135.280151 212.0
1135.488037 80.0
1135.9375 64.0
1136.212524 172.0
1136.440674 88.0
1136.992188 220.0
1138.313477 208.0
1140.779297 104.0
1142.258789 56.0
1143.086304 188.0
1143.557373 156.0
1144.378784 144.0
1144.560547 232.0
1146.035645 80.0
1146.594971 208.0
1146.729858 144.0
1147.248901 160.0
1147.397217 148.0
1148.671753 164.0
1152.053955 44.0
1153.905762 220.0
1154.365479 224.0
1155.217773 188.0
1156.990845 128.0
1157.20752 132.0
1158.047241 156.0
1158.148804 112.0
1158.643311 156.0
1159.137939 96.0
1159.388672 68.0
1160.900513 136.0
1161.293945 172.0
1161.572021 56.0
1161.856934 204.0
1163.098755 108.0
1163.662231 224.0
1164.932251 96.0
1164.986572 144.0
1165.095337 160.0
1167.209229 172.0
1167.414307 152.0
1167.794067 200.0
1168.106934 200.0
1168.814575 196.0
1169.045898 144.0
1169.222778 104.0
1169.590332 164.0
1171.558472 132.0
1174.48291 148.0
1175.267456 140.0
1175.847534 176.0
1177.588501 228.0
1178.176025 108.0
1178.264771 56.0
1178.784058 120.0
1180.623047 64.0
1181.491821 100.0
1182.131592 160.0
1184.695801 168.0
1184.990356 184.0
1185.209595 104.0
1185.435791 56.0
1185.703003 96.0
1186.128052 188.0
1186.676514 184.0
1186.772461 164.0
1187.610474 144.0
1190.306274 160.0
1191.405273 108.0
1191.975586 124.0
1192.470337 168.0
1193.164673 168.0
1193.226562 184.0
1194.361206 176.0
1196.288086 48.0
1196.955933 300.0
1197.00415 84.0
1197.513794 172.0
1197.582642 136.0
1198.932983 204.0
1199.505127 108.0
1200.187622 136.0
1200.341431 196.0
1201.208374 184.0
1202.098389 212.0
1202.422852 160.0
1202.692017 152.0
1203.333984 88.0
1204.584106 104.0
1204.825806 204.0
1205.337158 184.0
1207.943726 204.0
1208.026733 132.0
1209.680664 196.0
1210.179077 116.0
1210.532227 132.0
1211.647461 124.0
1212.770142 224.0
1212.998779 164.0
1213.366211 148.0
1213.574219 232.0
1213.657471 132.0
1213.837769 196.0
1213.893188 64.0
1214.142944 188.0
1215.682983 164.0
1216.189697 112.0
1216.647827 152.0
1216.967285 168.0
1217.772827 68.0
1218.21228 92.0
1219.384766 180.0
1219.940796 160.0
1220.935913 172.0
1221.227295 152.0
1221.741089 144.0
1221.97168 136.0
1222.718262 164.0
1223.586304 52.0
1224.303589 128.0
1224.568237 184.0
1225.306641 116.0
1226.602905 56.0
1226.839844 208.0
1227.516235 156.0
1228.025391 168.0
1228.450806 240.0
1228.576416 132.0
1229.699829 64.0
1230.411865 132.0
1230.802979 184.0
1232.262817 188.0
1232.626099 184.0
1233.04541 132.0
1233.583618 184.0
1233.758423 144.0
1234.268799 196.0
1234.954224 168.0
1235.059082 180.0
1235.2229 144.0
1235.373901 176.0
1235.975586 220.0
1236.276489 156.0
1237.087646 144.0
1238.97229 196.0
1239.271973 200.0
1239.687012 164.0
1239.995361 48.0
1240.359863 108.0
1240.612305 156.0
1241.088989 168.0
1241.853394 220.0
1241.972656 148.0
1242.449707 140.0
1242.674194 144.0
1243.235596 188.0
1243.761963 156.0
1245.412109 140.0
1245.48938 160.0
1247.260132 132.0
1247.794434 164.0
1248.019409 168.0
1248.349976 244.0
1248.413208 212.0
1249.313599 168.0
1249.390869 212.0
1250.066406 232.0
1250.875854 156.0
1251.692505 200.0
1252.847656 192.0
1252.937256 128.0
1253.101318 52.0
1253.277466 184.0
1253.524048 200.0
1253.622681 48.0
1255.060791 244.0
1255.469727 204.0
1255.871826 200.0
1255.928223 160.0
1256.132812 156.0
1256.210449 152.0
1256.746582 80.0
1260.022705 188.0
1260.800049 40.0
1262.666504 116.0
1262.765503 168.0
1263.324341 172.0
1263.720459 112.0
1263.96106 144.0
1265.065186 128.0
1265.794434 120.0
1266.006958 168.0
1267.076538 48.0
1267.692993 60.0
1268.500977 148.0
1268.763306 128.0
1268.820068 104.0
1270.046875 92.0
1271.600708 160.0
1272.410034 136.0
1272.607666 172.0
1272.772095 144.0
1273.385986 252.0
1273.809082 164.0
1275.024048 60.0
1276.886841 96.0
1277.591064 164.0
1277.87561 72.0
1278.145996 120.0
1278.936035 220.0
1279.348877 64.0
1279.455688 212.0
1280.046631 224.0
1280.424072 132.0
1280.502441 232.0
1280.602173 124.0
1280.92981 136.0
1281.685059 40.0
1282.312134 116.0
1282.861084 160.0
1283.091797 204.0
1284.137451 152.0
1284.636719 96.0
1285.121948 220.0
1285.585693 100.0
1285.778442 184.0
1286.163818 224.0
1286.849243 104.0
1287.463257 136.0
1287.927612 208.0
1288.577637 136.0
1288.884888 176.0
1289.102905 156.0
1289.413696 148.0
1289.578125 184.0
1290.049927 152.0
1290.4646 116.0
1291.315552 40.0
1292.445923 184.0
1293.097168 92.0
1293.748535 164.0
1294.192383 160.0
1294.328491 160.0
1295.510254 68.0
1298.19812 112.0
1298.786255 148.0
1299.044556 152.0
1301.089844 144.0
1301.176025 168.0
1301.786377 144.0
1302.28186 88.0
1302.411255 208.0
1302.533325 172.0
1302.633911 156.0
1303.230225 124.0
1303.352295 148.0
1303.496826 176.0
1303.675659 180.0
1303.948853 208.0
1304.796997 176.0
1304.919312 152.0
1305.343506 116.0
1306.069946 96.0
1307.098755 180.0
1307.264282 124.0
1307.508911 180.0
1308.336792 80.0
1309.82019 228.0
1310.353394 60.0
1310.490234 48.0
1310.612793 84.0
1312.061523 248.0
1312.357056 152.0
1313.893311 108.0
1313.95105 160.0
1315.293335 148.0
1315.509888 44.0
1315.726562 160.0
1315.784302 188.0
1315.834839 168.0
1315.921387 148.0
1316.217529 368.0
1316.289673 92.0
1317.821045 136.0
1318.211304 180.0
1318.558105 264.0
1318.796631 96.0
1319.346069 228.0
1319.454468 196.0
1319.801514 152.0
1320.351196 140.0
1320.864746 232.0
1321.161377 220.0
1321.356689 236.0
1321.610718 164.0
1322.282837 188.0
1322.579712 160.0
1323.361572 132.0
1324.078491 176.0
1324.360962 212.0
1324.43335 160.0
1325.150513 108.0
1325.46936 184.0
1325.650513 100.0
1326.11438 52.0
1328.920898 96.0
1329.53772 212.0
1329.835205 148.0
1329.951416 116.0
1330.082031 100.0
1330.510376 204.0
1330.633789 196.0
1330.706421 124.0
1331.454346 200.0
1331.614136 176.0
1331.977295 72.0
1332.493164 212.0
1333.096191 68.0
1334.637329 140.0
1334.971802 96.0
1335.037231 60.0
1335.371826 56.0
1336.077393 92.0
1336.870605 160.0
1336.96521 40.0
1337.026367 184.0
1337.467407 180.0
1338.04248 216.0
1338.515747 208.0
1339.010986 128.0
1339.382446 136.0
1339.651978 108.0
1340.315063 44.0
1340.395142 88.0
1340.781372 120.0
1341.262451 244.0
1341.780029 92.0
1342.201294 160.0
1342.348755 120.0
1343.099976 196.0
1343.311523 232.0
1343.858765 132.0
1344.245483 88.0
1344.851196 220.0
1345.398682 184.0
1345.625 136.0
1346.45752 252.0
1346.983398 152.0
1347.735962 184.0
1347.816284 160.0
1348.121582 160.0
1348.963745 180.0
1349.029541 216.0
1349.658325 152.0
1350.038574 132.0
1350.718872 112.0
1351.655273 108.0
1351.750488 140.0
1352.965454 204.0
1353.170532 136.0
1353.543945 200.0
1353.63916 176.0
1354.107788 160.0
1354.781738 152.0
1354.90625 188.0
1355.272583 164.0
1355.419189 180.0
1355.499756 180.0
1355.580444 92.0
1355.675659 172.0
1355.932129 128.0
1356.5625 112.0
1356.826416 68.0
1356.921753 116.0
1357.193115 44.0
1357.405762 44.0
1358.740723 136.0
1358.997437 104.0
1359.180908 192.0
1359.863403 136.0
1360.252441 152.0
1360.364868 128.0
1360.450684 48.0
1361.346436 100.0
1361.493408 148.0
1361.978149 192.0
1362.279297 172.0
1362.68335 148.0
1363.429443 136.0
1364.050293 212.0
1364.807617 96.0
1365.183594 160.0
1366.001099 160.0
1366.249146 148.0
1366.514038 156.0
1366.565552 76.0
1366.881958 124.0
1367.198364 228.0
1367.735718 180.0
1367.823975 108.0
1368.081665 224.0
1368.221558 116.0
1368.273071 172.0
1370.232178 176.0
1370.618164 256.0
1371.278564 176.0
1371.625 148.0
1371.691406 100.0
1372.266479 112.0
1372.841553 184.0
1373.579224 124.0
1374.228394 192.0
1374.907349 116.0
1375.321655 152.0
1375.542114 144.0
1376.642212 80.0
1376.952393 164.0
1377.137085 144.0
1377.196167 120.0
1377.247803 136.0
1377.558105 168.0
1377.702515 220.0
1377.949707 56.0
1378.304321 196.0
1378.49646 152.0
1378.821655 196.0
1378.984253 124.0
1379.220703 144.0
1380.884399 112.0
1381.150635 156.0
1381.446533 216.0
1381.883057 196.0
1382.415894 120.0
1382.467651 128.0
1382.852539 84.0
1382.925659 144.0
1383.207764 152.0
1383.370728 184.0
1383.66687 176.0
1384.022217 148.0
1384.081421 164.0
1384.429443 104.0
1384.873901 116.0
1385.525757 124.0
1385.807373 48.0
1386.518677 180.0
1386.578003 212.0
1387.030151 96.0
1387.268433 132.0
1388.335083 188.0
1389.047119 116.0
1389.435181 228.0
1389.520874 168.0
1389.812012 156.0
1390.324585 116.0
1390.894897 140.0
1391.050781 180.0
1391.399658 224.0
1391.733765 52.0
1393.040894 116.0
1393.427246 208.0
1393.486694 236.0
1394.214722 168.0
1394.341309 160.0
1394.645996 340.0
1395.233276 192.0
1395.292725 236.0
1395.645142 224.0
1396.252075 196.0
1396.980957 268.0
1397.241333 108.0
1397.672974 144.0
1397.918457 164.0
1398.097046 260.0
1398.245972 180.0
1398.528809 144.0
1398.975464 96.0
1399.131714 140.0
1399.355103 104.0
1399.679199 332.0
1399.921021 96.0
1400.703125 36.0
1401.095459 84.0
1401.28418 136.0
1401.708862 192.0
1401.880249 212.0
1401.955811 156.0
1402.215698 108.0
1403.124268 184.0
1403.284302 220.0
1403.520264 204.0
1403.661987 144.0
1404.370483 112.0
1405.153809 112.0
1405.265625 200.0
1405.900024 124.0
1406.049194 128.0
1406.594116 176.0
1407.340698 84.0
1408.281616 116.0
1408.789673 156.0
1408.856812 116.0
1408.931519 160.0
1409.282715 148.0
1409.648926 168.0
1409.940308 184.0
1410.030029 140.0
1410.216187 164.0
1410.72522 184.0
1411.487793 184.0
1411.674805 204.0
1411.831787 92.0
1411.89917 204.0
1412.048706 164.0
1412.235718 136.0
1412.310547 192.0
1412.482544 192.0
1412.632202 124.0
1412.706909 228.0
1413.253174 144.0
1413.367065 104.0
1413.574829 172.0
1413.851807 184.0
1414.008911 68.0
1414.456909 208.0
1414.727539 60.0
1415.214233 168.0
1415.446289 200.0
1415.700928 200.0
1415.889893 192.0
1416.142822 252.0
1416.375 368.0
1416.802002 124.0
1417.049316 192.0
1417.333984 184.0
1417.753662 148.0
1418.290283 196.0
1418.428223 172.0
1418.510742 180.0
1418.937988 104.0
1419.035522 236.0
1419.342896 292.0
1419.417847 224.0
1419.612915 212.0
1420.332886 116.0
1420.632935 208.0
1421.21814 180.0
1421.360718 192.0
1422.126221 172.0
1422.317871 168.0
1422.975098 180.0
1423.582764 232.0
1423.838135 140.0
1425.100098 152.0
1425.408203 88.0
1425.693848 132.0
1425.956787 132.0
1426.219971 180.0
1426.310059 168.0
1426.483887 228.0
1426.670898 220.0
1426.919067 168.0
1427.502686 272.0
1427.633423 168.0
1428.039551 152.0
1428.393066 144.0
1428.543579 168.0
1428.611206 160.0
1428.99646 180.0
1429.709839 76.0
1430.424805 156.0
1430.552856 164.0
1430.723877 184.0
1431.554199 144.0
1432.119141 188.0
1432.618042 204.0
1433.060791 176.0
1433.603394 188.0
1434.174683 208.0
1434.393799 136.0
1434.583252 156.0
1435.374878 192.0
1435.616211 180.0
1435.721802 88.0
1435.895264 124.0
1436.038574 224.0
1436.559082 64.0
1436.611816 148.0
1437.064575 176.0
1437.166748 160.0
1437.575317 128.0
1438.204102 148.0
1438.626831 136.0
1438.800415 168.0
1439.140259 220.0
1439.60083 176.0
1440.046387 136.0
1440.19751 140.0
1440.499634 152.0
1440.790405 208.0
1440.877441 52.0
1440.960449 164.0
1441.481812 124.0
1442.010864 76.0
1442.146973 172.0
1442.252808 176.0
1442.411499 176.0
1442.607056 180.0
1442.736572 112.0
1442.872681 268.0
1443.084351 212.0
1443.341431 104.0
1443.472534 236.0
1444.09021 168.0
1444.521362 124.0
1444.680176 152.0
1444.797485 116.0
1445.240112 112.0
1445.52002 152.0
1445.951416 144.0
1446.011963 136.0
1446.193604 112.0
1446.314697 72.0
1446.481201 212.0
1446.943115 152.0
1447.88208 176.0
1448.578857 116.0
1448.760742 180.0
1449.200073 156.0
1450.223267 196.0
1450.535522 244.0
1450.723511 192.0
1450.867554 196.0
1450.99646 100.0
1451.292114 112.0
1452.058105 72.0
1452.141479 176.0
1452.30835 56.0
1452.52832 96.0
1452.831787 148.0
1453.09729 144.0
1453.514648 140.0
1453.651245 156.0
1453.749878 136.0
1453.833374 196.0
1453.886475 152.0
1454.03833 144.0
1454.15979 156.0
1454.250854 72.0
1455.017578 124.0
1455.564209 44.0
1455.693359 140.0
1456.354126 232.0
1457.258057 132.0
1457.341675 164.0
1458.208008 32.0
1458.287842 108.0
1458.458862 208.0
1458.512085 180.0
1458.747681 148.0
1458.846558 116.0
1459.675293 124.0
1460.032715 128.0
1460.200073 76.0
1460.321777 136.0
1460.709717 236.0
1460.793335 120.0
1461.417236 196.0
1461.500854 160.0
1461.691162 96.0
1461.949829 60.0
1462.254272 64.0
1462.353271 80.0
1462.513062 96.0
1463.000244 256.0
1463.137329 84.0
1464.524414 220.0
1464.584229 48.0
1464.645142 136.0
1464.873657 232.0
1465.125122 92.0
1465.306519 264.0
1465.376465 160.0
1465.4375 132.0
1465.582275 172.0
1465.659058 220.0
1465.909912 216.0
1466.611084 128.0
1466.664429 36.0
1467.228516 200.0
1467.907227 132.0
1468.105469 84.0
1468.357178 48.0
1468.613281 180.0
1468.946533 176.0
1469.753174 196.0
1469.837158 220.0
1470.264526 184.0
1471.279663 136.0
1471.852417 124.0
1472.09668 136.0
1472.173096 176.0
1472.814697 192.0
1472.883423 228.0
1473.09729 148.0
1473.456421 88.0
1473.922485 216.0
1474.251099 132.0
1474.480347 204.0
1474.663696 148.0
1475.03064 124.0
1475.691406 188.0
1475.756958 140.0
1476.078125 188.0
1476.606812 176.0
1476.728149 124.0
1476.965332 144.0
1477.781738 132.0
1478.357788 132.0
1479.838745 224.0
1480.026611 204.0
1480.325195 128.0
1480.692871 200.0
1481.213745 80.0
1481.512451 164.0
1481.68103 116.0
1481.74231 200.0
1482.010498 28.0
1482.447266 188.0
1482.554565 156.0
1482.709717 176.0
1483.052734 168.0
1483.190674 148.0
1483.596924 116.0
1483.666016 164.0
1483.773315 160.0
1483.942017 52.0
1484.422363 104.0
1484.47583 180.0
1485.115356 252.0
1485.39917 100.0
1486.204712 52.0
1486.895386 152.0
1486.987427 116.0
1487.133301 132.0
1487.302124 124.0
1487.670654 148.0
1487.793457 44.0
1488.058105 196.0
1488.668823 144.0
1488.776367 96.0
1488.853149 132.0
1488.922241 236.0
1489.037476 208.0
1489.19104 48.0
1489.313965 140.0
1489.398438 84.0
1489.73645 164.0
1489.890137 160.0
1490.059082 40.0
1490.531616 172.0
1490.643066 60.0
1490.773804 108.0
1491.39624 40.0
1491.519287 144.0
1491.696045 116.0
1491.749878 176.0
1492.049683 196.0
1492.134277 328.0
1493.017578 148.0
1493.357056 124.0
1493.987793 212.0
1494.195557 156.0
1494.305786 168.0
1494.637329 232.0
1494.957275 188.0
1495.850098 116.0
1496.342896 264.0
1496.527588 64.0
1497.159058 216.0
1497.397827 136.0
1497.535156 168.0
1497.736694 116.0
1497.857788 172.0
1498.276001 184.0
1498.553345 108.0
1498.784546 104.0
1498.869263 124.0
1498.930908 52.0
1499.200684 140.0
1499.293091 112.0
1499.671875 164.0
1499.832642 172.0
1499.984253 200.0
1500.100464 184.0
1500.233521 176.0
1500.503296 180.0
1500.773193 144.0
1501.498047 176.0
1501.768066 176.0
1502.061157 208.0
1502.192261 84.0
1502.392822 188.0
1502.9021 416.0
1503.118164 140.0
1503.388306 128.0
1503.442261 184.0
1504.059692 100.0
1504.214111 116.0
1504.476562 172.0
1504.569214 104.0
1504.746826 128.0
1504.978516 212.0
1505.17688 132.0
1505.207764 92.0
