>compound MLS001056778-01!
>formula C22H32N2O2
>ionization [M+H]+
>parentmass 357.251831
#inchi InChI=1S/C22H32N2O2/c1-23(21(25)16-18-8-3-2-4-9-18)19-10-12-22(11-7-15-26-22)17-20(19)24-13-5-6-14-24/h2-4,8-9,19-20H,5-7,10-17H2,1H3/t19-,20-,22-/m1/s1
#inchikey PGZRDDYTKFZSFR
#Ion_Source LC-ESI
#Instrument qTof
#Compound_Source NIH Pharmacologically Active Library
#PI Dorrestein
#Data_Collector VP/LMS
#Scan -1
#Precursor_MZ 357.261
#ExactMass 356.246
#Charge 1
#CAS_Number N/A
#Pubmed_ID N/A
#Smiles CN([C@@H]1CC[C@]2(CCCO2)C[C@H]1N3CCCC3)C(=O)Cc4ccccc4
#INCHI_AUX N/A
#Library_Class 1
#SpectrumID CCMSLIB00000085604
#IonMode Positive
#UpdateWorkflowName UPDATE-SINGLE-ANNOTATED-GOLD
#LibraryQualityString Gold
#TaskID d252d724072548979f1f6f1ced849daf
##Scan# 1449
#SpectrumFile p4-D04_GD4_01_18364.mzXML
#LibraryName Pharm_Active_Library.mgf
#MQScore -1
#Organism Pharm_Active_Library
#TIC_Query 0
#RT_Query -1
#MZErrorPPM -1
#SharedPeaks 0
#MassDiff 0
#LibMZ -1
#SpecMZ 357.261
#SpecCharge 0
#internalFilename spec-00000.mgf

>collision 10
44.931744 128.0
44.949089 176.0
44.988922 164.0
45.037205 136.0
45.049225 60.0
45.093353 160.0
45.12241 368.0
45.159809 324.0
45.169533 72.0
45.20298 128.0
45.217541 100.0
45.233765 184.0
45.255184 88.0
45.332874 192.0
45.344936 136.0
45.385521 180.0
45.401245 180.0
45.415997 188.0
45.445511 124.0
45.457588 156.0
45.475033 88.0
45.484432 56.0
45.518101 160.0
45.54982 184.0
45.557354 184.0
45.598312 188.0
45.629517 160.0
45.686001 148.0
45.696762 164.0
45.719639 44.0
45.733097 160.0
45.747902 216.0
45.757328 64.0
45.76675 188.0
45.789646 188.0
45.814789 180.0
45.875881 144.0
45.94331 104.0
45.967594 180.0
45.979565 152.0
45.997288 160.0
46.06197 120.0
46.124264 244.0
46.145893 172.0
46.178345 144.0
46.206753 128.0
46.235168 96.0
46.286041 196.0
46.336933 208.0
46.381447 160.0
46.413219 248.0
46.442463 168.0
46.497532 136.0
46.532387 160.0
46.556469 128.0
46.570534 416.0
46.597218 140.0
46.620239 216.0
46.643845 360.0
46.69101 220.0
46.718216 132.0
46.752232 128.0
46.774006 128.0
46.795788 136.0
46.808044 192.0
46.827896 148.0
46.858513 224.0
46.883705 184.0
46.896595 160.0
46.929314 160.0
46.938858 144.0
46.95792 212.0
46.987961 188.0
46.997513 148.0
47.038372 136.0
47.053471 160.0
47.126499 204.0
47.167908 244.0
47.195564 68.0
47.205135 132.0
47.224285 56.0
47.237961 108.0
47.284485 132.0
47.298172 80.0
47.31546 184.0
47.343353 132.0
47.354309 196.0
47.412945 180.0
47.421837 168.0
47.462101 164.0
47.486309 232.0
47.500973 60.0
47.518349 132.0
47.636871 128.0
47.646488 208.0
47.69046 176.0
47.705582 116.0
47.732407 160.0
47.78672 56.0
47.800777 224.0
47.848656 128.0
47.897457 164.0
47.908562 160.0
47.929726 144.0
47.952755 196.0
47.974022 168.0
47.985348 168.0
48.023972 180.0
48.038837 140.0
48.057209 176.0
48.09127 216.0
48.126129 160.0
48.186554 160.0
48.222485 88.0
48.236305 108.0
48.276402 52.0
48.29023 168.0
48.320133 156.0
48.340034 212.0
48.353874 96.0
48.377403 132.0
48.424484 148.0
48.436951 136.0
48.456776 128.0
48.502075 308.0
48.513981 204.0
48.516541 120.0
48.522953 136.0
48.54644 136.0
48.588722 108.0
48.62413 80.0
48.644951 196.0
48.668552 176.0
48.728275 312.0
48.767185 128.0
48.801525 188.0
48.831142 168.0
48.858036 168.0
48.864429 56.0
48.868225 164.0
48.938293 188.0
48.959183 152.0
48.987038 128.0
49.020477 140.0
49.04417 152.0
49.055321 128.0
49.072052 152.0
49.134811 204.0
49.168648 192.0
49.185638 208.0
49.20599 264.0
49.218555 160.0
49.229725 144.0
49.280014 168.0
49.289795 160.0
49.314949 164.0
49.376465 144.0
49.425056 136.0
49.467014 168.0
49.491215 100.0
49.521278 132.0
49.540092 180.0
49.589275 224.0
49.620113 164.0
49.645355 216.0
49.672001 160.0
49.691643 216.0
49.7169 152.0
49.736111 192.0
49.76902 156.0
49.843285 40.0
49.857338 92.0
49.893669 132.0
49.905128 252.0
49.934662 116.0
49.977383 228.0
50.014862 180.0
50.041058 148.0
50.072586 184.0
50.100243 236.0
50.13369 172.0
50.255844 124.0
50.272778 196.0
50.309475 176.0
50.344776 80.0
50.397041 104.0
50.412582 72.0
50.454987 124.0
50.464886 148.0
50.481853 148.0
50.494579 72.0
50.510139 180.0
50.526333 196.0
50.541264 100.0
50.557407 176.0
50.572544 172.0
50.701279 140.0
50.714035 164.0
50.729626 76.0
50.754101 92.0
50.783512 72.0
50.799488 196.0
50.827488 184.0
50.83884 104.0
50.870068 128.0
50.89846 128.0
50.921185 204.0
50.949593 292.0
51.000748 112.0
51.044285 180.0
51.071842 192.0
51.094604 56.0
51.110252 180.0
51.126587 140.0
51.144409 140.0
51.158646 100.0
51.185696 288.0
51.196957 176.0
51.254066 160.0
51.270485 100.0
51.303951 56.0
51.343876 148.0
51.365273 204.0
51.429356 136.0
51.503731 256.0
51.549892 284.0
51.573742 176.0
51.584759 164.0
51.620186 148.0
51.638084 208.0
51.660969 140.0
51.673565 164.0
51.701035 216.0
51.713528 192.0
51.739681 208.0
51.796051 176.0
51.85284 152.0
51.87434 204.0
51.918789 208.0
51.937435 200.0
51.966782 124.0
52.045067 32.0
52.06517 96.0
52.083843 76.0
52.102516 128.0
52.141315 72.0
52.155685 176.0
52.169128 192.0
52.187931 160.0
52.200958 188.0
52.229019 192.0
52.252037 152.0
52.293892 92.0
52.324299 172.0
52.336487 308.0
52.352234 216.0
52.367195 160.0
52.394566 156.0
52.423382 132.0
52.43491 308.0
52.453133 212.0
52.474003 204.0
52.505554 196.0
52.547386 136.0
52.596455 164.0
52.622437 112.0
52.650658 192.0
52.668648 148.0
52.733669 180.0
52.765472 136.0
52.784267 176.0
52.803066 92.0
52.83923 156.0
52.860935 160.0
52.879749 132.0
52.904354 360.0
52.92173 168.0
52.946346 148.0
53.01862 180.0
53.054535 156.0
53.173599 144.0
53.192833 240.0
53.21664 180.0
53.227676 132.0
53.243057 208.0
53.259171 140.0
53.287228 96.0
53.335182 180.0
53.368622 128.0
53.390434 156.0
53.404976 120.0
53.415157 152.0
53.435322 124.0
53.452984 256.0
53.472408 136.0
53.492844 184.0
53.589855 88.0
53.635033 132.0
53.649612 140.0
53.675854 148.0
53.712315 176.0
53.754623 148.0
53.781166 216.0
53.833454 132.0
53.854172 128.0
53.907955 80.0
53.918186 116.0
53.943546 80.0
53.962036 68.0
53.973736 92.0
54.008457 124.0
54.036629 140.0
54.090775 176.0
54.105415 144.0
54.156666 160.0
54.185966 88.0
54.213993 188.0
54.25296 84.0
54.272438 204.0
54.294437 128.0
54.309788 128.0
54.343994 148.0
54.379528 192.0
54.394207 172.0
54.405075 236.0
54.433849 36.0
54.470612 128.0
54.499947 164.0
54.541096 184.0
54.566086 244.0
54.601185 152.0
54.614544 168.0
54.633739 132.0
54.650822 224.0
54.671375 204.0
54.710262 176.0
54.737373 204.0
54.783897 76.0
54.801575 224.0
54.813362 224.0
54.838417 132.0
54.872322 152.0
54.926884 224.0
54.95639 124.0
54.978523 184.0
54.994011 244.0
55.023598 180.0
55.049385 156.0
55.104038 168.0
55.115971 156.0
55.162445 176.0
55.190884 132.0
55.235607 148.0
55.263718 144.0
55.301846 136.0
55.380665 180.0
55.393349 192.0
55.423626 140.0
55.46579 172.0
55.478466 108.0
55.505459 216.0
55.536297 212.0
55.574867 140.0
55.588223 108.0
55.659473 236.0
55.690659 148.0
55.701057 124.0
55.713146 172.0
55.727798 172.0
55.738197 136.0
55.766434 164.0
55.809547 160.0
55.825901 156.0
55.837799 152.0
55.877964 188.0
55.888378 76.0
55.931942 132.0
55.961311 176.0
55.979179 180.0
56.043228 144.0
56.064091 144.0
56.099258 148.0
56.108208 328.0
56.131573 164.0
56.181885 212.0
56.199787 248.0
56.222172 192.0
56.240082 196.0
56.275909 224.0
56.286068 184.0
56.340523 136.0
56.358612 140.0
56.389687 144.0
56.413357 72.0
56.437275 144.0
56.522022 268.0
56.583199 136.0
56.600372 312.0
56.631821 172.0
56.659328 232.0
56.702576 160.0
56.735214 168.0
56.777199 176.0
56.810375 136.0
56.828201 224.0
56.877724 184.0
56.915916 220.0
56.936279 124.0
56.98875 172.0
57.039951 204.0
57.078888 116.0
57.140709 104.0
57.16124 188.0
57.196392 200.0
57.214092 200.0
57.247784 208.0
57.261135 156.0
57.28854 184.0
57.304745 220.0
57.363594 280.0
57.393745 192.0
57.409508 136.0
57.452568 132.0
57.467655 148.0
57.509907 152.0
57.574829 160.0
57.59803 144.0
57.628136 152.0
57.643986 164.0
57.707802 176.0
57.719898 160.0
57.733509 44.0
57.74712 148.0
57.778889 144.0
57.795528 140.0
57.840931 116.0
57.864948 148.0
57.868561 128.0
57.873161 180.0
57.945423 104.0
57.959061 140.0
57.974213 152.0
58.015137 72.0
58.025749 164.0
58.042427 80.0
58.058338 228.0
58.069725 40.0
58.099861 60.0
58.116753 152.0
58.148582 160.0
58.183533 128.0
58.235161 160.0
58.300491 80.0
58.323288 148.0
58.340008 176.0
58.352173 56.0
58.379539 188.0
58.41148 48.0
58.435822 204.0
58.475388 76.0
58.502785 40.0
58.528667 152.0
58.574356 188.0
58.600254 136.0
58.649021 156.0
58.770157 120.0
58.789097 208.0
58.806122 112.0
58.842228 196.0
58.858025 144.0
58.873295 176.0
58.929813 228.0
58.951714 192.0
58.98772 184.0
59.033234 176.0
59.046146 232.0
59.065872 164.0
59.090256 128.0
59.124397 172.0
59.22353 200.0
59.257233 136.0
59.278877 128.0
59.297073 176.0
59.310738 140.0
59.328365 212.0
59.376797 160.0
59.399143 204.0
59.425884 100.0
59.462715 180.0
59.49667 132.0
59.530262 44.0
59.560978 252.0
59.574928 248.0
59.651642 120.0
59.67009 160.0
59.687 104.0
59.72226 164.0
59.751598 148.0
59.765446 140.0
59.834709 152.0
59.867043 184.0
59.890144 116.0
59.90863 164.0
59.936363 164.0
59.962914 208.0
59.984138 168.0
60.006748 192.0
60.027306 140.0
60.04427 236.0
60.162601 180.0
60.215584 204.0
60.236717 164.0
60.319107 64.0
60.389748 332.0
60.44009 140.0
60.467594 64.0
60.486259 132.0
60.507839 100.0
60.529514 164.0
60.543453 168.0
60.569782 152.0
60.586823 156.0
60.597668 120.0
60.619362 196.0
60.633308 104.0
60.659657 92.0
60.690388 112.0
60.694107 200.0
60.720127 84.0
60.752701 172.0
60.791489 172.0
60.82098 148.0
60.839607 88.0
60.858238 152.0
60.883083 76.0
60.903275 224.0
60.925022 192.0
60.939003 60.0
60.957649 192.0
60.971634 176.0
61.032261 196.0
61.066452 148.0
61.09914 200.0
61.134926 160.0
61.15905 136.0
61.170723 124.0
61.221039 216.0
61.269039 212.0
61.285568 108.0
61.310993 204.0
61.326488 184.0
61.345192 140.0
61.361916 132.0
61.395088 128.0
61.406006 208.0
61.424721 60.0
61.463032 144.0
61.508606 132.0
61.539211 144.0
61.594868 180.0
61.607365 172.0
61.62455 212.0
61.638882 148.0
61.6707 60.0
61.693314 180.0
61.705822 96.0
61.751171 136.0
61.772316 200.0
61.783291 224.0
61.796535 160.0
61.810616 172.0
61.823135 148.0
61.833801 176.0
61.852165 228.0
61.865395 112.0
61.884182 152.0
61.918633 124.0
61.957794 72.0
62.007935 156.0
62.033016 116.0
62.083187 184.0
62.129269 148.0
62.200859 116.0
62.220699 188.0
62.268375 284.0
62.295078 208.0
62.313316 164.0
62.326305 228.0
62.357376 136.0
62.36248 152.0
62.392513 192.0
62.434078 176.0
62.455414 100.0
62.46957 120.0
62.558479 220.0
62.651394 168.0
62.710484 124.0
62.737911 120.0
62.775124 180.0
62.812569 124.0
62.817432 92.0
62.876087 140.0
62.926598 168.0
62.937653 72.0
62.966076 132.0
63.018204 112.0
63.043488 144.0
63.05455 160.0
63.093636 176.0
63.11462 196.0
63.169975 188.0
63.197987 204.0
63.212692 168.0
63.230103 112.0
63.257008 160.0
63.271606 108.0
63.290001 188.0
63.324921 148.0
63.352024 108.0
63.364697 204.0
63.388466 220.0
63.475906 196.0
63.494678 184.0
63.529575 172.0
63.558662 180.0
63.575821 164.0
63.597805 124.0
63.624794 120.0
63.638889 164.0
63.689899 128.0
63.705784 148.0
63.725697 120.0
63.750271 136.0
63.780468 92.0
63.799545 148.0
63.812263 204.0
63.833511 160.0
63.857689 148.0
63.874504 204.0
63.912468 148.0
63.982498 108.0
64.050972 108.0
64.073929 200.0
64.084427 192.0
64.09877 128.0
64.117889 180.0
64.129051 116.0
64.144989 180.0
64.199974 172.0
64.225136 212.0
64.298103 40.0
64.333221 200.0
64.371254 132.0
64.385918 148.0
64.397095 180.0
64.411469 176.0
64.487541 112.0
64.521736 204.0
64.556908 176.0
64.662857 180.0
64.728134 160.0
64.743248 156.0
64.864311 156.0
64.902794 168.0
64.933258 40.0
64.973358 176.0
64.984589 212.0
65.016014 124.0
65.069656 184.0
65.108192 136.0
65.13028 168.0
65.139244 212.0
65.159592 180.0
65.175659 132.0
65.209412 148.0
65.225479 136.0
65.251205 232.0
65.264946 124.0
65.299446 72.0
65.386322 180.0
65.461983 168.0
65.473259 200.0
65.514389 120.0
65.54744 160.0
65.584427 176.0
65.605385 136.0
65.62957 164.0
65.640854 140.0
65.745796 384.0
65.75872 220.0
65.776634 188.0
65.795746 132.0
65.839348 204.0
65.852264 116.0
65.909599 180.0
65.937019 236.0
65.955864 172.0
66.004173 212.0
66.065636 156.0
66.088287 184.0
66.137863 232.0
66.177307 104.0
66.195114 476.0
66.227402 124.0
66.255768 152.0
66.287453 260.0
66.31662 128.0
66.39444 176.0
66.429764 196.0
66.45771 200.0
66.475555 164.0
66.489151 212.0
66.559509 128.0
66.613564 152.0
66.6558 124.0
66.691559 236.0
66.753334 224.0
66.766975 288.0
66.789116 100.0
66.805382 248.0
66.836838 120.0
66.86721 236.0
66.881172 248.0
66.982819 196.0
67.022118 224.0
67.043793 188.0
67.064285 204.0
67.09478 216.0
67.139046 220.0
67.156456 116.0
67.220848 160.0
67.251862 152.0
67.287773 204.0
67.305733 140.0
67.343292 120.0
67.354729 196.0
67.369431 148.0
67.42662 228.0
67.495461 196.0
67.542702 176.0
67.570511 184.0
67.586197 184.0
67.655617 180.0
67.675262 132.0
67.690002 100.0
67.775177 176.0
67.799759 160.0
67.816147 132.0
67.830894 120.0
67.853806 164.0
67.869644 152.0
67.882751 312.0
67.901405 124.0
67.916084 172.0
67.953896 116.0
67.971947 184.0
68.009621 188.0
68.045807 208.0
68.057297 188.0
68.085884 168.0
68.108711 200.0
68.167351 164.0
68.183784 92.0
68.215012 180.0
68.236389 160.0
68.274208 132.0
68.290649 144.0
68.30381 132.0
68.315323 124.0
68.335068 176.0
68.363503 192.0
68.389374 356.0
68.412415 148.0
68.446991 196.0
68.476173 200.0
68.514519 92.0
68.562309 144.0
68.600212 156.0
68.624947 136.0
68.641434 128.0
68.658524 132.0
68.670403 212.0
68.689262 52.0
68.700813 104.0
68.743706 144.0
68.789925 144.0
68.820381 148.0
68.867531 304.0
68.908829 120.0
68.921143 168.0
68.943329 168.0
68.961708 156.0
68.979195 76.0
69.001381 168.0
69.047821 240.0
69.098961 208.0
69.12709 268.0
69.178398 52.0
69.191643 172.0
69.261192 120.0
69.280945 156.0
69.314209 184.0
69.393768 148.0
69.463417 224.0
69.513191 208.0
69.566307 164.0
69.592865 136.0
69.616112 136.0
69.642685 132.0
69.686996 220.0
69.692657 148.0
69.698853 104.0
69.714127 208.0
69.740715 144.0
69.770638 208.0
69.785599 124.0
69.80722 132.0
69.832161 200.0
69.84713 148.0
69.872086 140.0
69.905365 104.0
69.946976 136.0
69.960289 164.0
69.982841 176.0
70.020569 160.0
70.056213 280.0
70.078537 160.0
70.156952 156.0
70.238579 176.0
70.267143 192.0
70.286957 32.0
70.303642 148.0
70.318665 92.0
70.369774 104.0
70.408821 216.0
70.430534 216.0
70.458252 108.0
70.477989 304.0
70.514305 176.0
70.559204 136.0
70.609589 184.0
70.63446 128.0
70.671265 144.0
70.691422 208.0
70.729836 40.0
70.768341 128.0
70.795135 144.0
70.8106 196.0
70.826836 344.0
70.880569 252.0
70.905701 164.0
70.917435 52.0
70.945374 192.0
70.967728 176.0
70.994415 192.0
71.014679 184.0
71.045952 224.0
71.050232 144.0
71.05761 108.0
71.12542 164.0
71.195938 120.0
71.20929 164.0
71.264595 324.0
71.310181 160.0
71.321945 196.0
71.379105 148.0
71.431244 116.0
71.471901 200.0
71.493134 128.0
71.520424 136.0
71.535576 128.0
71.587364 216.0
71.609489 228.0
71.67038 192.0
71.720871 136.0
71.75235 160.0
71.806053 168.0
71.842278 176.0
71.897842 168.0
71.955353 156.0
71.973808 176.0
72.018005 156.0
72.043831 256.0
72.065132 204.0
72.157555 164.0
72.252892 164.0
72.303314 192.0
72.373688 132.0
72.388206 212.0
72.428856 164.0
72.452568 100.0
72.525436 232.0
72.550865 84.0
72.564423 112.0
72.612488 116.0
72.657707 116.0
72.678673 212.0
72.698425 180.0
72.730675 200.0
72.765175 124.0
72.83255 108.0
72.854858 184.0
72.915802 48.0
72.929398 184.0
72.953201 160.0
72.966797 172.0
72.9804 172.0
73.062035 108.0
73.084763 168.0
73.118187 160.0
73.174362 168.0
73.20266 200.0
73.261215 228.0
73.336197 208.0
73.353241 248.0
73.36573 172.0
73.414619 196.0
73.44873 216.0
73.464081 116.0
73.482849 216.0
73.524094 176.0
73.539162 152.0
73.581841 152.0
73.605743 236.0
73.623589 180.0
73.634773 212.0
73.657623 200.0
73.67421 180.0
73.733864 184.0
73.802238 140.0
73.83815 156.0
73.856552 116.0
73.892891 108.0
73.915131 208.0
73.928825 124.0
73.954498 92.0
74.019882 164.0
74.033249 164.0
74.057854 120.0
74.085907 328.0
74.120392 184.0
74.160027 132.0
74.184029 108.0
74.206711 192.0
74.223457 164.0
74.24054 104.0
74.273193 108.0
74.290352 176.0
74.310577 152.0
74.391594 316.0
74.453407 136.0
74.465431 168.0
74.561646 144.0
74.585129 156.0
74.637283 200.0
74.687157 148.0
74.728439 140.0
74.785988 208.0
74.80072 104.0
74.829559 192.0
74.864426 208.0
74.890259 128.0
74.914375 156.0
74.941246 140.0
75.01017 108.0
75.050529 256.0
75.107101 164.0
75.160355 148.0
75.176445 72.0
75.232742 176.0
75.285202 184.0
75.383675 244.0
75.411324 208.0
75.445572 128.0
75.48912 260.0
75.525436 228.0
75.556839 184.0
75.577339 116.0
75.589455 148.0
75.615501 148.0
75.663879 156.0
75.749664 200.0
75.769524 140.0
75.804176 116.0
75.861252 176.0
75.882172 172.0
75.898331 164.0
75.909256 136.0
76.005325 276.0
76.019783 96.0
76.066063 168.0
76.098122 160.0
76.138931 128.0
76.158501 156.0
76.189224 204.0
76.220634 152.0
76.260605 152.0
76.272774 184.0
76.305801 156.0
76.337097 92.0
76.403198 104.0
76.434509 212.0
76.51458 324.0
76.538948 60.0
76.551704 428.0
76.589455 84.0
76.601646 132.0
76.615585 144.0
76.669601 108.0
76.692261 100.0
76.719841 136.0
76.856186 172.0
76.882362 140.0
76.909157 232.0
76.948692 136.0
76.969643 168.0
77.025528 156.0
77.07148 160.0
77.123383 132.0
77.172333 140.0
77.256279 188.0
77.300018 192.0
77.349022 152.0
77.398041 264.0
77.462158 328.0
77.50386 232.0
77.518906 184.0
77.553963 320.0
77.574997 164.0
77.596031 148.0
77.650391 156.0
77.666306 160.0
77.694244 176.0
77.752151 76.0
77.764435 180.0
77.783745 184.0
77.797531 224.0
77.822365 132.0
77.836411 100.0
77.883827 156.0
77.899635 136.0
77.924088 148.0
78.001556 148.0
78.022728 184.0
78.052544 204.0
78.075401 80.0
78.151039 164.0
78.193382 168.0
78.212807 168.0
78.237282 88.0
78.279541 132.0
78.305954 152.0
78.335899 172.0
78.367607 136.0
78.395805 184.0
78.408142 352.0
78.424004 140.0
78.471596 140.0
78.506866 152.0
78.531555 132.0
78.575653 180.0
78.595062 140.0
78.628593 96.0
78.65638 172.0
78.661247 128.0
78.683311 160.0
78.704498 188.0
78.725685 140.0
78.738052 92.0
78.755714 128.0
78.783974 96.0
78.801643 140.0
78.814011 156.0
78.907684 84.0
78.927132 180.0
78.950356 224.0
78.981956 72.0
79.015572 116.0
79.063347 192.0
79.089897 144.0
79.108925 160.0
79.126762 184.0
79.160713 144.0
79.184532 180.0
79.201447 108.0
79.226242 116.0
79.275475 56.0
79.291809 124.0
79.369804 128.0
79.382217 152.0
79.405273 132.0
79.442345 204.0
79.479782 184.0
79.491898 164.0
79.517044 188.0
79.586281 152.0
79.62059 124.0
79.634224 292.0
79.717728 152.0
79.77282 44.0
79.790604 208.0
79.835052 168.0
79.847504 236.0
79.881485 192.0
79.919212 232.0
79.93219 212.0
79.956024 68.0
79.985008 184.0
80.011208 116.0
80.052155 120.0
80.130836 140.0
80.18399 168.0
80.265991 96.0
80.286148 132.0
80.332672 76.0
80.359978 196.0
80.38372 176.0
80.412125 92.0
80.429123 128.0
80.440834 184.0
80.467613 188.0
80.497696 156.0
80.519394 160.0
80.547974 112.0
80.564056 168.0
80.596214 112.0
80.684456 236.0
80.697731 180.0
80.737434 160.0
80.753525 92.0
80.796455 328.0
80.848785 260.0
80.885933 204.0
80.902969 224.0
80.948593 256.0
80.975235 224.0
81.030991 116.0
81.05249 212.0
81.093102 224.0
81.122986 120.0
81.18837 100.0
81.222809 432.0
81.260399 176.0
81.292778 176.0
81.319695 172.0
81.34671 160.0
81.384323 140.0
81.418442 116.0
81.457176 204.0
81.484436 168.0
81.529823 236.0
81.580154 152.0
81.601723 160.0
81.641281 136.0
81.70784 180.0
81.801414 200.0
81.814583 128.0
81.833824 152.0
81.850548 216.0
81.877983 176.0
81.894684 196.0
81.932266 176.0
81.99955 144.0
82.073006 208.0
82.107719 148.0
82.128326 188.0
82.194313 132.0
82.216454 220.0
82.241234 208.0
82.279144 184.0
82.291779 332.0
82.344818 136.0
82.383888 112.0
82.410728 140.0
82.418213 156.0
82.472427 168.0
82.539322 140.0
82.559212 192.0
82.584534 160.0
82.597191 164.0
82.613472 128.0
82.627945 36.0
82.665443 164.0
82.713753 248.0
82.743774 176.0
82.776367 124.0
82.801514 172.0
82.839554 180.0
82.852707 188.0
82.940598 184.0
82.993805 132.0
83.04821 172.0
83.086365 180.0
83.131973 140.0
83.15889 132.0
83.197006 200.0
83.250343 180.0
83.264191 208.0
83.305969 40.0
83.31868 88.0
83.335037 108.0
83.356834 208.0
83.478012 212.0
83.538528 236.0
83.560638 184.0
83.586128 208.0
83.613251 168.0
83.653297 132.0
83.706093 204.0
83.738876 112.0
83.781013 208.0
83.803596 136.0
83.819542 144.0
83.833611 132.0
83.848351 180.0
83.865524 164.0
83.980461 168.0
84.043312 212.0
84.063385 156.0
84.117348 120.0
84.147217 172.0
84.150726 160.0
84.190376 156.0
84.205276 160.0
84.231354 188.0
84.268974 148.0
84.282608 144.0
84.329445 208.0
84.350128 132.0
84.401314 172.0
84.415947 208.0
84.446625 128.0
84.500084 204.0
84.523865 184.0
84.537346 220.0
84.548592 164.0
84.683136 200.0
84.745422 112.0
84.765579 128.0
84.79673 252.0
84.848061 120.0
84.869179 168.0
84.882896 176.0
84.915901 172.0
84.93058 196.0
85.040665 164.0
85.082886 180.0
85.169189 160.0
85.185722 132.0
85.226143 136.0
85.240845 164.0
85.277199 184.0
85.31871 164.0
85.525902 156.0
85.562721 164.0
85.597702 164.0
85.616119 256.0
85.655823 216.0
85.711449 144.0
85.726654 184.0
85.741394 196.0
85.769043 128.0
85.785629 196.0
85.81144 192.0
85.824348 164.0
85.856567 212.0
85.870453 112.0
85.90081 112.0
85.92025 148.0
85.979492 116.0
85.994064 260.0
86.01252 132.0
86.032829 152.0
86.058678 172.0
86.077141 160.0
86.123306 236.0
86.147324 136.0
86.160255 120.0
86.193512 220.0
86.241562 228.0
86.275314 264.0
86.29702 148.0
86.312462 148.0
86.330307 276.0
86.358047 44.0
86.372513 156.0
86.380127 128.0
86.412697 176.0
86.426491 160.0
86.487564 128.0
86.504097 180.0
86.533844 148.0
86.61911 96.0
86.657936 112.0
86.717232 40.0
86.743187 176.0
86.817345 144.0
86.889687 120.0
86.925545 172.0
86.973 152.0
86.998894 180.0
87.013832 148.0
87.020332 132.0
87.025803 200.0
87.078552 220.0
87.097603 148.0
87.177757 140.0
87.19236 268.0
87.209084 184.0
87.236969 220.0
87.27787 196.0
87.380783 436.0
87.422958 164.0
87.450874 212.0
87.519348 164.0
87.551414 324.0
87.616608 172.0
87.647926 148.0
87.696732 140.0
87.728424 324.0
87.76944 92.0
87.811073 172.0
87.832626 136.0
87.886887 228.0
87.918671 116.0
87.967201 196.0
87.995735 136.0
88.07177 208.0
88.091331 220.0
88.148369 192.0
88.17276 148.0
88.239952 48.0
88.264259 268.0
88.277351 196.0
88.318497 176.0
88.391655 152.0
88.48098 140.0
88.483887 104.0
88.493744 204.0
88.497284 148.0
88.58242 208.0
88.626534 224.0
88.64698 152.0
88.675224 156.0
88.703186 216.0
88.75956 148.0
88.784851 160.0
88.805984 148.0
88.841118 220.0
88.865448 120.0
88.88356 168.0
88.927437 152.0
88.972015 208.0
88.993858 340.0
89.015671 144.0
89.049477 200.0
89.064034 200.0
89.081406 140.0
89.09922 124.0
89.113342 180.0
89.137772 232.0
89.182877 200.0
89.205429 124.0
89.23175 224.0
89.282516 300.0
89.361526 164.0
89.399155 144.0
89.420143 160.0
89.463104 164.0
89.5121 116.0
89.58744 88.0
89.602509 176.0
89.621353 144.0
89.674118 168.0
89.700508 156.0
89.753296 156.0
89.806099 80.0
89.834396 252.0
89.855034 140.0
89.913986 184.0
89.930161 196.0
89.974045 156.0
90.034462 148.0
90.05146 156.0
90.079796 328.0
90.100578 124.0
90.133629 132.0
90.191284 52.0
90.226418 116.0
90.233238 144.0
90.25367 128.0
90.291489 160.0
90.313202 200.0
90.331207 220.0
90.369049 216.0
90.416275 96.0
90.432243 152.0
90.567818 188.0
90.597672 216.0
90.6436 360.0
90.662552 68.0
90.75164 188.0
90.778191 76.0
90.814224 92.0
90.837845 168.0
90.901489 92.0
90.928055 164.0
90.941345 156.0
90.964264 156.0
91.008957 324.0
91.054878 23176.0
91.091095 224.0
91.110344 44.0
91.150032 36.0
91.175583 72.0
91.222412 148.0
91.241478 156.0
91.256683 220.0
91.299835 104.0
91.320023 104.0
91.342415 196.0
91.364891 224.0
91.381172 176.0
91.397438 76.0
91.417847 88.0
91.431839 116.0
91.456841 188.0
91.49498 304.0
91.511055 208.0
91.518517 144.0
91.522964 160.0
91.577774 132.0
91.625916 72.0
91.644966 148.0
91.671104 184.0
91.690697 328.0
91.723099 192.0
91.774574 300.0
91.839417 228.0
91.855499 204.0
91.881104 140.0
91.945381 132.0
91.959732 200.0
91.989975 208.0
92.006325 196.0
92.057068 2108.0
92.110222 224.0
92.128082 160.0
92.165344 192.0
92.195244 212.0
92.210747 288.0
92.247581 200.0
92.288193 320.0
92.322609 152.0
92.418556 100.0
92.471832 96.0
92.485237 156.0
92.556068 152.0
92.569473 80.0
92.582878 208.0
92.678658 124.0
92.702171 124.0
92.732315 224.0
92.7649 160.0
92.78495 156.0
92.820496 128.0
92.83316 128.0
92.845428 224.0
92.860771 156.0
92.889542 228.0
92.907372 240.0
92.922157 164.0
92.954773 204.0
92.987198 196.0
92.994461 176.0
93.010918 188.0
93.070335 4448.0
93.12146 232.0
93.169815 132.0
93.187103 144.0
93.250519 188.0
93.277588 228.0
93.338951 120.0
93.401649 80.0
93.425499 188.0
93.477882 160.0
93.5 200.0
93.512947 260.0
93.577126 200.0
93.596794 132.0
93.654572 84.0
93.686111 168.0
93.704651 152.0
93.728981 224.0
93.732178 140.0
93.740456 124.0
93.772842 176.0
93.831856 168.0
93.847282 168.0
93.868492 180.0
93.904732 276.0
93.952362 288.0
94.008415 112.0
94.038261 100.0
94.063965 1032.0
94.089439 328.0
94.12513 76.0
94.14444 132.0
94.229431 200.0
94.248756 120.0
94.273872 148.0
94.388741 152.0
94.409195 140.0
94.44899 188.0
94.46978 148.0
94.488579 208.0
94.518349 272.0
94.56208 172.0
94.600746 160.0
94.647209 168.0
94.687881 52.0
94.737167 212.0
94.782799 48.0
94.81929 188.0
94.844818 256.0
94.876335 184.0
94.92392 180.0
94.937881 360.0
94.959213 296.0
95.020996 216.0
95.049355 6708.0
95.086006 3624.0
95.142181 136.0
95.194557 104.0
95.259346 160.0
95.273666 116.0
95.291153 340.0
95.332916 112.0
95.362 324.0
95.403877 152.0
95.423317 88.0
95.448593 168.0
95.462204 204.0
95.489433 256.0
95.540688 160.0
95.576973 48.0
95.593803 332.0
95.622589 136.0
95.645386 284.0
95.69751 172.0
95.73465 124.0
95.828568 176.0
95.857368 80.0
95.896347 196.0
95.956779 176.0
95.987885 176.0
96.023079 220.0
96.053711 340.0
96.081009 1728.0
96.122566 60.0
96.138184 152.0
96.204346 160.0
96.237732 160.0
96.284599 156.0
96.313896 184.0
96.327568 92.0
96.351013 40.0
96.380318 148.0
96.423309 188.0
96.444901 168.0
96.464355 132.0
96.483902 128.0
96.521057 112.0
96.563423 120.0
96.581039 232.0
96.605156 152.0
96.624275 176.0
96.628975 136.0
96.635124 200.0
96.681465 168.0
96.71669 180.0
96.742134 64.0
96.78521 300.0
96.820457 128.0
96.870064 220.0
96.900772 152.0
96.986992 56.0
97.01387 164.0
97.026665 168.0
97.065086 3372.0
97.085526 300.0
97.09906 152.0
97.137978 220.0
97.1576 164.0
97.174332 108.0
97.215546 172.0
97.240013 172.0
97.298897 156.0
97.352798 204.0
97.40126 160.0
97.42614 172.0
97.4403 232.0
97.481567 64.0
97.540527 88.0
97.564117 64.0
97.591896 92.0
97.619171 192.0
97.68367 156.0
97.686928 124.0
97.70768 156.0
97.744812 216.0
97.766708 108.0
97.788361 108.0
97.810013 128.0
97.82576 84.0
97.842422 176.0
97.857254 160.0
97.873901 176.0
97.900574 168.0
97.936028 172.0
97.987701 228.0
98.034538 136.0
98.068802 364.0
98.093979 360.0
98.117317 176.0
98.237251 196.0
98.256302 108.0
98.342194 316.0
98.397614 108.0
98.455215 284.0
98.502136 120.0
98.517937 264.0
98.557449 56.0
98.571281 112.0
98.593018 184.0
98.618103 220.0
98.646385 140.0
98.672089 176.0
98.732376 188.0
98.749207 140.0
98.765778 116.0
98.787781 56.0
98.824379 232.0
98.84021 228.0
98.859993 140.0
98.893639 184.0
99.019333 148.0
99.071907 160.0
99.129311 148.0
99.188766 136.0
99.20388 224.0
99.303772 184.0
99.329559 120.0
99.381325 172.0
99.430794 160.0
99.502205 148.0
99.528015 172.0
99.584221 40.0
99.627319 72.0
99.669044 140.0
99.694878 168.0
99.762459 128.0
99.786316 172.0
99.804207 88.0
99.822105 104.0
99.836021 96.0
99.861877 164.0
99.903648 60.0
99.925537 180.0
100.031403 204.0
100.078346 340.0
100.190323 144.0
100.206261 180.0
100.264046 168.0
100.38166 176.0
100.411575 224.0
100.500359 196.0
100.57251 224.0
100.591156 60.0
100.613113 112.0
100.744919 132.0
100.818848 196.0
100.840828 180.0
100.864815 180.0
100.884506 212.0
100.922791 156.0
101.004784 128.0
101.025246 140.0
101.050797 116.0
101.090813 164.0
101.110023 128.0
101.136848 244.0
101.158867 140.0
101.240959 76.0
101.256981 236.0
101.349129 68.0
101.383194 176.0
101.421272 152.0
101.513496 168.0
101.53154 144.0
101.565636 168.0
101.616859 180.0
101.63385 128.0
101.685814 76.0
101.708099 184.0
101.766159 244.0
101.79644 196.0
101.811775 232.0
101.842628 156.0
101.882805 112.0
101.896866 168.0
102.038986 180.0
102.07576 148.0
102.095406 204.0
102.126038 268.0
102.172302 52.0
102.237793 168.0
102.270348 160.0
102.336632 216.0
102.450119 164.0
102.468246 148.0
102.559669 196.0
102.587151 108.0
102.647636 176.0
102.710159 192.0
102.735512 176.0
102.76059 204.0
102.798927 224.0
102.815071 212.0
102.839294 172.0
102.861855 156.0
102.945229 152.0
102.974564 152.0
103.015953 172.0
103.05162 192.0
103.073555 180.0
103.097801 72.0
103.118011 152.0
103.134186 136.0
103.206963 80.0
103.221115 148.0
103.238777 164.0
103.314156 196.0
103.371552 144.0
103.397118 176.0
103.461884 176.0
103.485703 168.0
103.535965 220.0
103.58947 148.0
103.610931 188.0
103.670509 44.0
103.727264 128.0
103.741447 128.0
103.767807 160.0
103.87529 160.0
103.924202 216.0
103.956444 148.0
103.971344 140.0
103.985985 108.0
104.015305 192.0
104.061943 168.0
104.086357 172.0
104.12291 192.0
104.165565 48.0
104.206909 192.0
104.254967 84.0
104.293579 136.0
104.313904 240.0
104.348999 184.0
104.374123 136.0
104.395233 64.0
104.417557 184.0
104.424973 180.0
104.442734 180.0
104.492867 108.0
104.519318 160.0
104.553909 156.0
104.597 260.0
104.63533 108.0
104.661804 156.0
104.675003 124.0
104.710716 192.0
104.819389 176.0
104.841064 144.0
104.898399 212.0
104.93605 140.0
104.967453 136.0
104.987778 128.0
105.007339 236.0
105.034752 148.0
105.069946 904.0
105.095955 128.0
105.116356 148.0
105.183708 348.0
105.277626 132.0
105.384163 156.0
105.447197 196.0
105.492165 140.0
105.539185 128.0
105.600533 136.0
105.637352 140.0
105.688499 184.0
105.719193 192.0
105.835869 88.0
105.872726 132.0
105.896286 48.0
105.992325 220.0
106.020233 116.0
106.065781 160.0
106.085396 348.0
106.105103 176.0
106.164268 184.0
106.202698 252.0
106.274498 196.0
106.299126 176.0
106.315544 144.0
106.389435 152.0
106.412018 152.0
106.445297 212.0
106.490051 48.0
106.51059 164.0
106.543457 192.0
106.578384 112.0
106.594818 100.0
106.679085 120.0
106.737549 204.0
106.780624 136.0
106.825096 128.0
106.889236 136.0
106.946625 184.0
106.97538 120.0
107.019577 200.0
107.049522 372.0
107.083977 1384.0
107.134666 188.0
107.171257 200.0
107.253395 348.0
107.268089 156.0
107.284317 72.0
107.304932 36.0
107.319366 64.0
107.441048 188.0
107.458298 280.0
107.500885 156.0
107.548355 32.0
107.610283 176.0
107.673569 228.0
107.697182 152.0
107.717674 132.0
107.738335 40.0
107.773453 112.0
107.80703 176.0
107.851982 164.0
107.87059 156.0
107.918137 148.0
107.94088 108.0
107.961563 156.0
107.986382 144.0
108.038094 208.0
108.081856 3800.0
108.162254 152.0
108.184219 196.0
108.261635 124.0
108.303055 136.0
108.334122 172.0
108.350304 188.0
108.422592 144.0
108.449066 128.0
108.465118 160.0
108.491035 184.0
108.520988 196.0
108.562119 116.0
108.656975 164.0
108.763367 216.0
108.802811 128.0
108.817345 168.0
108.859779 228.0
108.892868 176.0
108.918404 204.0
108.948181 36.0
108.964798 136.0
108.988853 148.0
109.021416 440.0
109.065361 2092.0
109.092316 4848.0
109.146584 96.0
109.174736 156.0
109.212173 68.0
109.235054 52.0
109.251701 184.0
109.314117 124.0
109.344376 188.0
109.386963 244.0
109.403618 68.0
109.426254 128.0
109.468163 156.0
109.505646 220.0
109.534805 156.0
109.568138 48.0
109.620224 156.0
109.677269 248.0
109.699425 104.0
109.770721 144.0
109.791168 140.0
109.809357 144.0
109.828712 176.0
109.869873 164.0
109.892578 116.0
109.923508 164.0
109.987289 128.0
110.01326 208.0
110.062553 156.0
110.099159 996.0
110.225372 252.0
110.242088 104.0
110.265137 156.0
110.344513 68.0
110.377968 128.0
110.394386 188.0
110.397568 160.0
110.407341 88.0
110.426064 148.0
110.482544 164.0
110.509384 188.0
110.569481 124.0
110.606003 100.0
110.624847 88.0
110.639496 100.0
110.676956 288.0
110.723259 192.0
110.760956 44.0
110.782852 176.0
110.829659 176.0
110.860275 224.0
110.905533 80.0
110.931931 216.0
110.953751 52.0
110.978905 64.0
110.995682 132.0
111.010361 140.0
111.03212 252.0
111.081223 1396.0
111.114616 184.0
111.128296 124.0
111.148804 176.0
111.163498 168.0
111.190773 264.0
111.239944 204.0
111.252693 176.0
111.337379 156.0
111.388733 184.0
111.420746 200.0
111.491096 172.0
111.518417 128.0
111.558357 208.0
111.575172 328.0
111.598297 184.0
111.625633 76.0
111.674004 164.0
111.695038 80.0
111.713966 168.0
111.777092 284.0
111.854958 148.0
111.894958 152.0
111.941277 124.0
112.000252 148.0
112.025528 76.0
112.0709 336.0
112.114716 208.0
112.172493 312.0
112.196228 56.0
112.227852 160.0
112.286896 144.0
112.337517 176.0
112.400558 200.0
112.432419 180.0
112.476791 188.0
112.493675 132.0
112.546455 168.0
112.561234 92.0
112.578133 196.0
112.660507 168.0
112.677406 156.0
112.730621 172.0
112.757698 140.0
112.772499 108.0
112.842934 156.0
112.876083 148.0
112.924728 172.0
112.969147 164.0
113.024155 176.0
113.08976 148.0
113.117271 152.0
113.164932 156.0
113.191376 136.0
113.216095 172.0
113.224014 116.0
113.356758 164.0
113.425323 256.0
113.515587 136.0
113.577087 160.0
113.625328 200.0
113.642853 176.0
113.659828 148.0
113.676804 224.0
113.708107 192.0
113.73188 160.0
113.770195 112.0
113.79567 112.0
113.825249 176.0
113.874237 376.0
113.903976 168.0
113.930748 292.0
113.98378 128.0
114.008087 176.0
114.101608 88.0
114.146263 140.0
114.168419 172.0
114.265373 148.0
114.299416 188.0
114.318565 220.0
114.333458 196.0
114.437523 140.0
114.512299 244.0
114.618813 32.0
114.649178 176.0
114.679192 84.0
114.736038 224.0
114.770149 80.0
114.800003 164.0
114.821327 304.0
114.845207 164.0
114.947151 192.0
114.994148 104.0
115.021889 160.0
115.05616 460.0
115.280769 172.0
115.310242 244.0
115.355125 228.0
115.406433 156.0
115.456429 164.0
115.479141 196.0
115.50695 80.0
115.524063 184.0
115.553299 228.0
115.63961 144.0
115.678139 88.0
115.736259 160.0
115.753075 140.0
115.813034 152.0
115.831055 212.0
115.903015 428.0
115.988739 116.0
116.00589 132.0
116.060616 152.0
116.125961 132.0
116.183884 88.0
116.237518 72.0
116.281433 224.0
116.312294 152.0
116.370598 140.0
116.389923 116.0
116.413544 196.0
116.486565 204.0
116.525238 68.0
116.548157 180.0
116.609367 212.0
116.634613 192.0
116.714378 184.0
116.729431 100.0
116.753082 144.0
116.884308 268.0
116.90023 156.0
116.927345 192.0
116.966087 168.0
116.981155 176.0
116.998375 144.0
117.022064 116.0
117.070381 2316.0
117.090965 120.0
117.17498 220.0
117.207298 160.0
117.222382 72.0
117.237465 148.0
117.253517 192.0
117.328102 176.0
117.35392 164.0
117.48111 168.0
117.509155 124.0
117.569572 116.0
117.623528 176.0
117.655914 124.0
117.697235 200.0
117.73304 328.0
117.824425 148.0
117.904167 176.0
117.974602 192.0
118.092033 204.0
118.159462 124.0
118.207069 184.0
118.230042 244.0
118.261169 200.0
118.287148 196.0
118.304466 152.0
118.412727 164.0
118.446571 160.0
118.491859 320.0
118.509621 176.0
118.537292 200.0
118.560295 104.0
118.577324 140.0
118.603981 208.0
118.65976 148.0
118.728249 204.0
118.759506 168.0
118.78595 168.0
118.805061 116.0
118.870155 156.0
118.887512 212.0
118.917236 172.0
118.967819 364.0
118.985191 152.0
119.001091 160.0
119.058029 200.0
119.085976 9780.0
119.131775 64.0
119.165451 132.0
119.19136 160.0
119.203278 156.0
119.278458 64.0
119.304543 192.0
119.332809 212.0
119.371948 64.0
119.393692 192.0
119.422401 160.0
119.443718 152.0
119.549362 240.0
119.588303 136.0
119.613091 128.0
119.63739 80.0
119.663513 136.0
119.689644 104.0
119.737549 292.0
119.836006 160.0
119.877396 104.0
119.910698 168.0
119.97506 188.0
120.027382 28.0
120.055733 180.0
120.086433 1104.0
120.184097 132.0
120.211876 148.0
120.232437 104.0
120.265175 52.0
120.282639 272.0
120.302284 360.0
120.317566 192.0
120.356865 40.0
120.395447 84.0
120.43512 168.0
120.474258 160.0
120.522873 168.0
120.557831 180.0
120.640892 104.0
120.699921 336.0
120.799828 188.0
120.845375 128.0
120.940567 156.0
120.964256 136.0
120.977783 80.0
121.029022 168.0
121.090401 656.0
121.130272 136.0
121.157356 160.0
121.220894 176.0
121.256523 172.0
121.275688 36.0
121.326103 68.0
121.375542 204.0
121.436638 88.0
121.464256 196.0
121.510323 152.0
121.547623 104.0
121.565178 172.0
121.675522 132.0
121.716194 156.0
121.748238 144.0
121.811081 172.0
121.942917 124.0
121.969292 124.0
121.98468 88.0
122.003502 192.0
122.096817 7468.0
122.140846 188.0
122.165001 36.0
122.175385 172.0
122.211197 128.0
122.266212 280.0
122.310234 140.0
122.343254 76.0
122.378479 204.0
122.424721 32.0
122.476791 160.0
122.651756 160.0
122.676613 196.0
122.856728 204.0
122.907471 300.0
122.947189 164.0
122.99575 108.0
123.031723 256.0
123.101921 1304.0
123.128723 176.0
123.227623 148.0
123.307175 244.0
123.362434 128.0
123.386749 112.0
123.452904 148.0
123.499527 76.0
123.57032 108.0
123.614571 172.0
123.631012 192.0
123.684364 164.0
123.716385 108.0
123.759407 176.0
123.804947 44.0
123.824883 104.0
123.851463 168.0
123.906631 208.0
123.914948 188.0
123.946724 396.0
124.029892 212.0
124.057541 140.0
124.075272 88.0
124.1101 892.0
124.13736 88.0
124.207024 156.0
124.228294 220.0
124.24382 192.0
124.270447 136.0
124.312607 276.0
124.32814 240.0
124.434685 96.0
124.519066 132.0
124.567932 132.0
124.585701 192.0
124.611771 316.0
124.668472 224.0
124.730148 176.0
124.747925 176.0
124.771339 188.0
124.781189 100.0
124.784515 184.0
124.827965 120.0
124.855949 192.0
124.88134 148.0
124.941399 164.0
125.045044 180.0
125.077148 172.0
125.101631 136.0
125.116394 144.0
125.150459 172.0
125.192917 148.0
125.239693 112.0
125.264191 132.0
125.279785 108.0
125.304291 144.0
125.378334 228.0
125.412834 124.0
125.484291 168.0
125.509346 48.0
125.638702 80.0
125.730186 284.0
125.748039 112.0
125.770363 184.0
125.789108 120.0
125.859657 96.0
125.926659 140.0
125.962006 208.0
126.011543 176.0
126.064079 156.0
126.117371 280.0
126.154572 224.0
126.221642 160.0
126.275314 72.0
126.340187 240.0
126.358078 68.0
126.406403 212.0
126.449722 140.0
126.478416 124.0
126.535515 236.0
126.55056 168.0
126.569763 132.0
126.613258 132.0
126.653572 176.0
126.696136 168.0
126.725258 272.0
126.749908 140.0
126.846275 156.0
126.895599 152.0
126.926987 136.0
126.97184 144.0
127.025673 268.0
127.075027 148.0
127.092972 132.0
127.130226 340.0
127.177879 72.0
127.197105 100.0
127.283768 128.0
127.340454 188.0
127.371353 164.0
127.46122 200.0
127.505745 172.0
127.533134 56.0
127.60833 348.0
127.663528 184.0
127.697266 208.0
127.802994 96.0
127.845749 168.0
127.900597 268.0
127.920021 108.0
127.942535 180.0
127.962082 88.0
128.043869 232.0
128.080856 236.0
128.151993 152.0
128.179031 96.0
128.211334 156.0
128.293915 168.0
128.353592 196.0
128.368378 188.0
128.406723 128.0
128.424759 152.0
128.447311 124.0
128.469879 72.0
128.487915 96.0
128.508224 172.0
128.524017 92.0
128.544327 184.0
128.659439 364.0
128.682022 64.0
128.702332 220.0
128.745987 132.0
128.837845 152.0
128.853668 348.0
128.87851 132.0
128.905624 156.0
128.941788 156.0
128.968918 136.0
128.987 188.0
129.032211 84.0
129.069427 148.0
129.106522 208.0
129.156586 188.0
129.176941 200.0
129.226715 108.0
129.24707 40.0
129.321762 120.0
129.364136 160.0
129.421356 60.0
129.441742 144.0
129.459854 144.0
129.591537 148.0
129.625229 164.0
129.684143 92.0
129.85051 180.0
129.888214 44.0
129.942657 132.0
129.971909 148.0
130.002975 156.0
130.060669 164.0
130.131042 40.0
130.196884 72.0
130.241852 140.0
130.279236 236.0
130.351364 180.0
130.41954 116.0
130.45137 84.0
130.477158 128.0
130.58342 152.0
130.749329 96.0
130.801682 180.0
130.838104 164.0
130.854034 60.0
130.890823 128.0
130.963348 144.0
131.024841 132.0
131.057205 160.0
131.086945 376.0
131.17981 156.0
131.233032 208.0
131.289261 172.0
131.305222 200.0
131.325165 188.0
131.411789 372.0
131.432037 180.0
131.53566 144.0
131.551651 184.0
131.585403 304.0
131.611694 160.0
131.660645 136.0
131.664062 164.0
131.704117 192.0
131.720505 148.0
131.764114 108.0
131.800583 184.0
131.836304 152.0
131.869141 80.0
131.896576 136.0
131.914856 192.0
132.080048 1580.0
132.118393 156.0
132.138977 396.0
132.184738 172.0
132.212204 124.0
132.228226 48.0
132.269424 156.0
132.438858 204.0
132.476471 156.0
132.578613 100.0
132.640503 200.0
132.65654 160.0
132.744492 224.0
132.760757 160.0
132.806732 32.0
132.837708 204.0
132.897354 116.0
132.995224 160.0
133.086258 320.0
133.103928 196.0
133.145264 44.0
133.249634 152.0
133.370422 180.0
133.446289 220.0
133.480774 192.0
133.527542 204.0
133.569138 356.0
133.595779 124.0
133.648697 288.0
133.664795 124.0
133.699326 144.0
133.791382 120.0
133.820709 136.0
133.858154 180.0
133.883484 124.0
133.907532 136.0
133.954895 112.0
133.994049 248.0
134.094803 384.0
134.134628 144.0
134.203796 120.0
134.236069 156.0
134.296036 144.0
134.314484 124.0
134.360626 124.0
134.459839 144.0
134.517548 164.0
134.548737 172.0
134.60054 184.0
134.690735 128.0
134.706894 148.0
134.739243 140.0
134.785446 100.0
134.840912 72.0
134.857101 140.0
134.877899 120.0
134.907944 172.0
134.99118 112.0
135.042404 136.0
135.078491 400.0
135.102737 1124.0
135.224838 152.0
135.27272 128.0
135.294281 140.0
135.338821 148.0
135.432266 212.0
135.458801 232.0
135.495773 128.0
135.720581 60.0
135.755371 116.0
135.804077 96.0
135.843506 204.0
135.879272 188.0
135.938629 220.0
135.959518 196.0
135.977493 144.0
136.014526 176.0
136.050751 116.0
136.092346 272.0
136.115509 140.0
136.147552 328.0
136.173111 152.0
136.207947 164.0
136.309479 228.0
136.338165 184.0
136.356644 128.0
136.379883 76.0
136.43692 152.0
136.463577 128.0
136.479858 60.0
136.505432 148.0
136.531006 92.0
136.569275 168.0
136.575531 196.0
136.59613 152.0
136.629822 176.0
136.658951 120.0
136.689362 164.0
136.721771 156.0
136.738068 136.0
136.759018 144.0
136.812103 336.0
136.829758 124.0
136.849808 152.0
136.877747 184.0
136.90863 420.0
136.94397 368.0
136.961197 348.0
137.003601 344.0
137.025162 304.0
137.049515 124.0
137.096863 100316.0
137.178207 68.0
137.199066 52.0
137.221222 48.0
137.252487 188.0
137.276291 216.0
137.312088 52.0
137.362518 276.0
137.386124 180.0
137.423325 228.0
137.447327 316.0
137.479477 484.0
137.514175 112.0
137.549805 180.0
137.579529 152.0
137.595871 344.0
137.618729 132.0
137.651825 204.0
137.70372 296.0
137.723404 108.0
137.756454 160.0
137.778458 80.0
137.818924 100.0
137.841125 212.0
137.880859 124.0
137.897217 124.0
137.929932 148.0
137.953308 148.0
137.996307 204.0
138.020935 104.0
138.046387 276.0
138.067886 124.0
138.099106 9276.0
138.127487 536.0
138.160645 76.0
138.193619 80.0
138.21994 248.0
138.239853 148.0
138.266739 72.0
138.290146 168.0
138.340775 164.0
138.364899 192.0
138.453064 244.0
138.485321 140.0
138.512039 108.0
138.546967 248.0
138.574081 116.0
138.644775 176.0
138.664886 176.0
138.687531 84.0
138.72348 104.0
138.753952 92.0
138.842651 164.0
138.870514 112.0
138.899353 108.0
138.948608 128.0
138.981461 152.0
139.024551 168.0
139.080002 280.0
139.101944 888.0
139.120682 304.0
139.15274 180.0
139.156998 132.0
139.186508 224.0
139.220886 92.0
139.256973 136.0
139.39473 76.0
139.412354 96.0
139.451126 176.0
139.519302 168.0
139.563965 48.0
139.585129 96.0
139.710434 220.0
139.73172 116.0
139.794495 136.0
139.855682 60.0
139.919235 152.0
139.961807 196.0
140.014297 204.0
140.077026 140.0
140.106873 3260.0
140.142929 172.0
140.181061 128.0
140.267883 216.0
140.293152 156.0
140.331543 112.0
140.360901 192.0
140.381058 128.0
140.440018 128.0
140.458893 140.0
140.502747 228.0
140.578079 360.0
140.640579 44.0
140.723587 220.0
140.771179 176.0
140.815292 108.0
140.889786 172.0
140.907425 100.0
140.942856 96.0
141.000717 140.0
141.021957 128.0
141.074081 172.0
141.110077 312.0
141.130447 132.0
141.167419 132.0
141.224182 200.0
141.297516 124.0
141.331406 160.0
141.36673 172.0
141.394531 76.0
141.425293 160.0
141.454254 156.0
141.479233 56.0
141.493225 144.0
141.522354 32.0
141.555511 176.0
141.615189 140.0
141.633667 112.0
141.667557 220.0
141.695251 128.0
141.8564 56.0
141.888062 168.0
141.932266 212.0
141.967834 72.0
142.031876 120.0
142.07457 180.0
142.148132 132.0
142.17897 148.0
142.212204 112.0
142.259674 172.0
142.285797 176.0
142.30661 156.0
142.373642 116.0
142.419662 64.0
142.447281 136.0
142.535187 176.0
142.579987 136.0
142.627869 172.0
142.658768 160.0
142.730103 180.0
142.775284 152.0
142.872803 56.0
142.979874 208.0
143.034622 84.0
143.081406 304.0
143.133408 292.0
143.174744 192.0
143.253693 312.0
143.306107 144.0
143.410965 172.0
143.498718 216.0
143.516937 132.0
143.55777 164.0
143.623169 140.0
143.68042 124.0
143.704269 192.0
143.756775 108.0
143.787796 128.0
143.806198 188.0
143.88089 88.0
143.915909 196.0
143.935806 88.0
143.994324 152.0
144.012222 132.0
144.052826 132.0
144.11972 200.0
144.143616 200.0
144.212921 96.0
144.248779 64.0
144.298981 336.0
144.325287 208.0
144.361145 352.0
144.392242 192.0
144.408981 156.0
144.461609 164.0
144.483139 164.0
144.509766 120.0
144.636292 92.0
144.717682 96.0
144.790176 188.0
144.81926 128.0
144.849396 64.0
144.887726 176.0
144.949158 156.0
145.01712 168.0
145.063538 348.0
145.102448 212.0
145.126968 160.0
145.172958 180.0
145.201736 108.0
145.307281 144.0
145.448868 164.0
145.551376 172.0
145.574966 44.0
145.674576 156.0
145.705811 208.0
145.739456 116.0
145.792313 152.0
145.818756 88.0
145.835571 164.0
145.859619 168.0
145.975021 172.0
145.994141 168.0
146.070938 168.0
146.074341 148.0
146.085281 212.0
146.121735 240.0
146.150604 168.0
146.225204 152.0
146.285385 128.0
146.340759 32.0
146.372055 132.0
146.436066 132.0
146.487656 96.0
146.555115 124.0
146.591263 52.0
146.632233 80.0
146.670792 128.0
146.728653 216.0
146.810638 164.0
146.851624 140.0
146.909515 248.0
146.96019 184.0
146.979492 152.0
147.040268 108.0
147.100159 160.0
147.148438 156.0
147.175003 68.0
147.223297 168.0
147.245026 172.0
147.298172 112.0
147.357712 260.0
147.430267 136.0
147.518066 188.0
147.552094 156.0
147.580933 144.0
147.612366 192.0
147.665558 228.0
147.683929 188.0
147.776611 168.0
147.782318 168.0
147.791855 212.0
147.819077 176.0
147.895416 160.0
147.928864 132.0
148.030304 168.0
148.055206 100.0
148.113373 740.0
148.166626 152.0
148.197083 176.0
148.22963 180.0
148.28537 100.0
148.342453 208.0
148.370209 160.0
148.408997 124.0
148.470245 216.0
148.498718 152.0
148.544815 188.0
148.600113 192.0
148.621292 160.0
148.651566 144.0
148.670975 148.0
148.732407 180.0
148.781128 140.0
148.808517 156.0
148.860321 64.0
148.967194 60.0
149.006058 36.0
149.043839 128.0
149.092316 128.0
149.119171 1324.0
149.188324 140.0
149.22641 308.0
149.253967 132.0
149.306534 108.0
149.397476 60.0
149.428986 92.0
149.45343 176.0
149.50209 208.0
149.562943 56.0
149.601883 92.0
149.618927 252.0
149.660324 96.0
149.677368 116.0
149.701019 212.0
149.760162 88.0
149.777206 120.0
149.801392 172.0
149.842987 148.0
149.884399 228.0
149.927856 168.0
149.976593 160.0
149.983002 132.0
150.023239 212.0
150.027115 164.0
150.091324 33140.0
150.12706 10624.0
150.18576 72.0
150.200546 136.0
150.22818 48.0
150.267212 104.0
150.284286 180.0
150.342194 184.0
150.384003 156.0
150.400467 132.0
150.433167 116.0
150.469849 300.0
150.516174 60.0
150.541412 124.0
150.585739 156.0
150.60408 184.0
150.63829 292.0
150.671982 200.0
150.732956 128.0
150.749588 216.0
150.788666 168.0
150.816666 132.0
150.857529 200.0
150.902222 192.0
150.956009 184.0
150.999359 160.0
151.042313 124.0
151.061188 64.0
151.093796 3104.0
151.131439 1640.0
151.157257 132.0
151.1875 160.0
151.309387 148.0
151.331879 72.0
151.362457 40.0
151.384262 152.0
151.409363 188.0
151.431763 80.0
151.513947 156.0
151.519836 148.0
151.56308 56.0
151.580231 104.0
151.609634 128.0
151.649078 156.0
151.759155 84.0
151.776321 60.0
151.81012 160.0
151.835175 92.0
151.892822 48.0
151.913727 164.0
151.940643 92.0
151.979904 124.0
152.00444 164.0
152.05069 128.0
152.101028 124.0
152.12471 100.0
152.166763 92.0
152.191269 140.0
152.230286 88.0
152.264664 144.0
152.291565 84.0
152.308456 192.0
152.393478 136.0
152.41153 188.0
152.500519 152.0
152.539856 292.0
152.566895 92.0
152.598846 180.0
152.684921 120.0
152.743942 64.0
152.815292 128.0
152.837433 136.0
152.884186 144.0
152.980179 140.0
153.017105 80.0
153.063889 200.0
153.08606 172.0
153.112061 648.0
153.157471 128.0
153.280655 156.0
153.394028 144.0
153.467987 84.0
153.514832 112.0
153.544434 180.0
153.66037 188.0
153.689972 152.0
153.716507 180.0
153.754135 236.0
153.793625 112.0
153.949158 144.0
153.983734 128.0
154.033127 160.0
154.052032 224.0
154.072662 156.0
154.118103 124.0
154.153458 108.0
154.200409 456.0
154.218445 40.0
154.313675 156.0
154.366791 168.0
154.403885 128.0
154.510239 132.0
154.564682 136.0
154.626541 44.0
154.661194 148.0
154.765167 184.0
154.784973 168.0
154.812881 180.0
154.9534 168.0
154.99057 196.0
155.053406 168.0
155.084747 96.0
155.231018 144.0
155.292938 144.0
155.302368 140.0
155.327057 128.0
155.345108 120.0
155.379837 156.0
155.452835 136.0
155.53717 160.0
155.585083 188.0
155.632996 92.0
155.690109 164.0
155.707489 320.0
155.744751 64.0
155.764618 192.0
155.886353 48.0
155.908722 168.0
155.945999 220.0
156.08522 148.0
156.132462 148.0
156.169769 56.0
156.189667 152.0
156.209564 136.0
156.341446 140.0
156.448471 96.0
156.488052 200.0
156.548157 108.0
156.567978 148.0
156.662628 152.0
156.715668 196.0
156.794693 48.0
156.837067 168.0
156.91185 140.0
157.076447 152.0
157.163757 144.0
157.208679 176.0
157.233627 180.0
157.256088 212.0
157.281052 88.0
157.311005 144.0
157.373413 164.0
157.431656 360.0
157.46582 152.0
157.605713 176.0
157.674408 236.0
157.695526 140.0
157.748581 192.0
157.850418 196.0
157.859802 80.0
158.025818 184.0
158.065796 128.0
158.09082 176.0
158.175919 184.0
158.205948 164.0
158.281067 136.0
158.331146 164.0
158.353683 144.0
158.498978 204.0
158.549103 180.0
158.613403 140.0
158.717056 132.0
158.805756 108.0
158.83696 148.0
158.987976 160.0
159.030731 120.0
159.109726 160.0
159.153656 184.0
159.178757 84.0
159.261642 144.0
159.394333 132.0
159.435501 180.0
159.535538 168.0
159.590347 148.0
159.613281 108.0
159.744263 132.0
159.802124 152.0
159.844894 128.0
159.883606 176.0
159.917679 172.0
159.923813 112.0
160.012054 164.0
160.033676 156.0
160.066406 132.0
160.109528 192.0
160.152039 48.0
160.197372 96.0
160.240204 144.0
160.323944 324.0
160.419128 200.0
160.48468 228.0
160.567719 224.0
160.593506 284.0
160.716736 140.0
160.789917 156.0
160.822723 100.0
160.845444 176.0
160.892654 136.0
160.936325 164.0
161.11058 156.0
161.310226 140.0
161.368637 192.0
161.393661 116.0
161.421402 136.0
161.603592 180.0
161.631424 192.0
161.65419 164.0
161.738586 152.0
161.760498 132.0
161.780746 184.0
161.946182 176.0
162.021988 168.0
162.056793 76.0
162.108551 152.0
162.127243 180.0
162.206055 188.0
162.267166 148.0
162.399033 252.0
162.501343 144.0
162.553314 176.0
162.638229 204.0
162.669037 176.0
162.853348 116.0
162.921936 172.0
162.98291 48.0
163.076126 384.0
163.112518 144.0
163.130325 156.0
163.164581 168.0
163.19133 224.0
163.276901 160.0
163.509308 104.0
163.555115 156.0
163.618759 204.0
163.702789 124.0
163.733337 116.0
163.771545 112.0
163.801788 156.0
163.868347 148.0
163.903152 176.0
163.954987 180.0
164.011063 372.0
164.036545 196.0
164.062637 220.0
164.184433 200.0
164.259781 228.0
164.340027 180.0
164.459976 108.0
164.485504 176.0
164.51358 132.0
164.567184 180.0
164.587616 108.0
164.67955 72.0
164.728088 168.0
164.753632 180.0
164.784286 68.0
164.807281 124.0
164.896729 148.0
164.937622 176.0
164.965744 144.0
165.004089 164.0
165.037323 260.0
165.059128 152.0
165.185654 224.0
165.23938 88.0
165.25882 148.0
165.287994 148.0
165.321259 168.0
165.339172 192.0
165.369888 100.0
165.484695 160.0
165.488937 268.0
165.509109 124.0
165.526932 128.0
165.551651 200.0
165.590759 192.0
165.625 188.0
165.67012 160.0
165.697647 132.0
165.777084 224.0
165.817352 248.0
165.91806 248.0
165.946259 168.0
165.96933 152.0
166.037491 152.0
166.070877 276.0
166.091248 284.0
166.12149 200.0
166.238678 128.0
166.264343 180.0
166.328506 40.0
166.372147 284.0
166.397812 316.0
166.439163 152.0
166.532806 232.0
166.591415 124.0
166.624771 108.0
166.670074 196.0
166.71376 224.0
166.775436 148.0
166.793427 68.0
166.825516 124.0
166.876846 152.0
166.908493 184.0
166.972809 120.0
166.979324 132.0
167.056076 172.0
167.085571 152.0
167.122055 224.0
167.143188 120.0
167.194656 168.0
167.251282 32.0
167.279602 120.0
167.341522 140.0
167.397171 180.0
167.43512 180.0
167.472717 204.0
167.535904 196.0
167.557724 180.0
167.590744 260.0
167.607742 212.0
167.637024 180.0
167.659424 136.0
167.727798 204.0
167.762009 384.0
167.800293 180.0
167.830124 364.0
167.836426 296.0
167.855972 152.0
167.902893 196.0
167.935944 196.0
167.973267 224.0
167.992661 504.0
168.029373 272.0
168.037308 380.0
168.049286 288.0
168.055908 172.0
168.070267 132.0
168.07753 132.0
168.139328 262620.0
168.20015 132.0
168.237213 156.0
168.274704 224.0
168.324829 204.0
168.353119 324.0
168.375153 108.0
168.395538 232.0
168.422424 216.0
168.449875 348.0
168.476151 108.0
168.511642 216.0
168.528687 164.0
168.563614 2492.0
168.591049 88.0
168.599472 160.0
168.635773 152.0
168.661102 168.0
168.688293 128.0
168.715805 60.0
168.724838 84.0
168.743774 72.0
168.772537 164.0
168.819412 236.0
168.869171 84.0
168.906525 172.0
168.948547 136.0
168.988281 116.0
169.021912 300.0
169.063004 252.0
169.087097 148.0
169.141525 28940.0
169.212769 272.0
169.237381 244.0
169.272095 136.0
169.315628 224.0
169.353058 92.0
169.381622 72.0
169.415344 80.0
169.444656 132.0
169.485168 36.0
169.525742 96.0
169.544876 96.0
169.564758 152.0
169.585251 128.0
169.621063 64.0
169.627396 96.0
169.633652 96.0
169.664139 76.0
169.710678 68.0
169.744186 184.0
169.76796 132.0
169.806915 244.0
169.850708 76.0
169.88884 144.0
169.948792 164.0
169.986359 132.0
169.99765 120.0
170.006927 152.0
170.055893 104.0
170.095139 300.0
170.117508 156.0
170.143951 1724.0
170.217911 116.0
170.249283 176.0
170.289795 180.0
170.322342 184.0
170.335251 68.0
170.339783 148.0
170.371628 48.0
170.39003 232.0
170.404999 148.0
170.429474 120.0
170.43454 108.0
170.460114 152.0
170.480453 144.0
170.505981 184.0
170.537125 224.0
170.570984 240.0
170.598984 208.0
170.615677 76.0
170.66214 196.0
170.715576 40.0
170.738983 56.0
170.767593 80.0
170.802933 132.0
170.892456 132.0
170.941895 48.0
171.016296 68.0
171.036209 68.0
171.054138 64.0
171.114594 184.0
171.124741 244.0
171.147263 152.0
171.242203 68.0
171.269928 52.0
171.320297 156.0
171.354294 160.0
171.37027 108.0
171.423233 76.0
171.449707 120.0
171.484421 112.0
171.618118 112.0
171.643616 156.0
171.900848 44.0
171.97139 140.0
172.003998 84.0
172.112289 104.0
172.132156 136.0
172.18541 68.0
172.208908 64.0
172.29512 68.0
172.349976 68.0
172.41008 80.0
172.483505 84.0
172.619217 116.0
172.679367 88.0
172.705521 56.0
172.891281 140.0
172.930527 208.0
172.977646 152.0
173.121643 164.0
173.318115 116.0
173.373138 28.0
173.430801 108.0
173.483231 112.0
173.543518 60.0
173.580231 168.0
173.609085 232.0
173.693008 156.0
173.839935 56.0
173.89241 36.0
174.17598 84.0
174.241669 60.0
174.288956 64.0
174.347656 284.0
174.404587 32.0
174.433502 156.0
174.701721 116.0
174.809311 216.0
174.935928 108.0
174.988586 132.0
175.228256 120.0
175.275208 180.0
175.475998 176.0
175.505005 72.0
175.574707 156.0
175.784607 172.0
175.855865 128.0
175.884888 68.0
176.001053 240.0
176.032745 152.0
176.106689 188.0
176.146317 132.0
176.200821 196.0
176.273132 32.0
176.415848 36.0
176.434357 108.0
176.489868 48.0
176.509796 112.0
176.582428 116.0
176.693527 28.0
176.891937 136.0
177.066757 136.0
177.175369 96.0
177.40062 160.0
177.530533 56.0
177.551758 188.0
177.692337 76.0
177.762924 40.0
177.793167 92.0
177.944473 100.0
177.977722 92.0
178.021469 172.0
178.053345 184.0
178.093185 116.0
178.114426 120.0
178.140076 184.0
178.470551 72.0
178.510437 64.0
178.547668 48.0
178.571594 124.0
178.602463 128.0
178.622131 96.0
178.654053 76.0
178.757828 192.0
178.8004 60.0
178.842987 64.0
178.869598 104.0
178.930832 52.0
179.008041 72.0
179.06131 204.0
179.081512 152.0
179.111923 100.0
179.143799 128.0
179.170517 60.0
179.248535 124.0
179.266449 176.0
179.458359 192.0
179.519684 188.0
179.813141 132.0
180.122864 152.0
180.237747 136.0
180.456924 184.0
180.480988 60.0
180.527527 148.0
180.620056 140.0
180.725113 104.0
180.917084 52.0
181.083099 148.0
181.104523 156.0
181.195602 172.0
181.274399 148.0
181.310822 220.0
181.367111 148.0
181.393921 80.0
181.686218 64.0
181.729141 40.0
181.766708 160.0
181.98143 228.0
182.02977 124.0
182.051254 168.0
182.086166 52.0
182.104965 140.0
182.594116 108.0
182.631775 224.0
182.763596 212.0
182.803955 168.0
182.822784 108.0
182.847015 264.0
182.93045 168.0
182.965439 208.0
183.100082 36.0
183.118927 68.0
183.296738 80.0
183.349243 164.0
183.388367 144.0
183.560257 152.0
183.736221 108.0
183.844925 176.0
184.060104 56.0
184.203247 64.0
184.232956 72.0
184.319809 192.0
184.441025 32.0
184.654633 112.0
184.768234 116.0
184.808823 112.0
184.973907 92.0
185.120102 100.0
185.252823 176.0
185.317429 160.0
185.375671 188.0
185.586166 96.0
185.667526 56.0
185.69043 72.0
185.866684 172.0
185.927963 200.0
186.120483 148.0
186.15329 68.0
186.175003 132.0
186.477432 140.0
186.669586 100.0
186.718536 308.0
186.741379 92.0
186.83551 68.0
186.937164 176.0
186.967682 164.0
187.113098 220.0
187.159378 100.0
187.194778 184.0
187.31189 120.0
187.467194 108.0
187.535324 176.0
187.881638 168.0
187.925293 104.0
188.045364 116.0
188.066528 116.0
188.10495 268.0
188.149078 164.0
188.21669 152.0
188.332047 136.0
188.457703 96.0
188.572479 184.0
188.651749 48.0
188.736496 100.0
188.996353 136.0
189.103073 132.0
189.171509 144.0
189.302933 108.0
189.411652 172.0
189.596054 156.0
189.702942 184.0
189.800247 204.0
190.081436 152.0
190.129425 236.0
190.386139 120.0
190.460297 32.0
190.496857 52.0
190.544281 168.0
190.655365 128.0
190.691086 136.0
190.715836 64.0
190.787292 68.0
190.817535 72.0
190.853287 164.0
190.957779 156.0
191.08432 128.0
191.147049 80.0
191.19989 52.0
191.243927 140.0
191.381577 124.0
191.557831 148.0
191.640472 112.0
191.758881 116.0
191.932648 264.0
191.979523 180.0
192.062256 140.0
192.291275 144.0
192.310593 140.0
192.360275 44.0
192.694427 88.0
192.746933 88.0
192.832596 116.0
192.96669 196.0
193.048233 132.0
193.208664 56.0
193.343079 124.0
193.37468 112.0
193.657089 164.0
193.698639 136.0
193.806686 48.0
194.017807 136.0
194.065536 176.0
194.125458 108.0
194.175369 128.0
194.20311 144.0
194.281387 388.0
194.536087 232.0
194.622147 164.0
194.713791 144.0
194.780457 128.0
194.874908 40.0
194.997177 120.0
195.076721 116.0
195.123856 168.0
195.216797 88.0
195.264084 132.0
195.341965 132.0
195.483856 192.0
195.7845 116.0
196.03801 152.0
196.085388 152.0
196.169006 148.0
196.329041 244.0
196.431137 144.0
196.50087 124.0
196.528778 76.0
196.567841 204.0
196.654358 100.0
196.902832 212.0
197.050888 148.0
197.142166 96.0
197.495972 164.0
197.621246 184.0
197.702393 116.0
197.777969 156.0
198.212051 104.0
198.340973 100.0
198.380219 116.0
198.433105 148.0
198.486755 160.0
198.589325 164.0
198.910385 112.0
198.946884 88.0
199.014267 60.0
199.059189 124.0
199.098495 96.0
199.13501 180.0
199.368195 72.0
199.575714 204.0
199.702759 188.0
199.801208 128.0
199.909088 116.0
200.03479 92.0
200.068359 168.0
200.09671 32.0
200.143112 4040.0
200.192444 64.0
200.229065 36.0
200.284348 96.0
200.431885 84.0
200.555893 108.0
200.781082 128.0
200.832214 124.0
201.052277 104.0
201.104309 248.0
201.145065 652.0
201.275284 144.0
201.340225 116.0
201.413666 120.0
201.492767 196.0
201.537964 96.0
201.642517 176.0
201.817627 144.0
201.848892 164.0
201.964844 100.0
202.080826 152.0
202.122009 556.0
202.179871 208.0
202.230804 108.0
202.290253 168.0
202.310074 116.0
202.383682 148.0
202.516785 136.0
202.545105 124.0
202.5961 124.0
202.621582 52.0
202.641418 44.0
202.692429 68.0
203.126953 288.0
203.182938 112.0
203.259537 144.0
203.4245 128.0
203.472412 180.0
203.508041 124.0
203.665512 212.0
203.719482 168.0
203.830032 184.0
204.010498 128.0
204.051987 156.0
204.09668 308.0
204.128754 164.0
204.19986 136.0
204.495743 188.0
204.656784 144.0
204.78331 132.0
204.897247 204.0
204.945694 224.0
205.062531 80.0
205.293457 164.0
205.356186 92.0
205.521652 136.0
205.64151 100.0
205.738556 124.0
205.795654 156.0
205.927017 244.0
206.003342 128.0
206.167007 88.0
206.195587 48.0
206.349945 168.0
206.430008 172.0
206.52327 268.0
206.572998 176.0
206.721786 84.0
206.956497 124.0
207.019501 132.0
207.134064 152.0
207.575424 128.0
207.695877 60.0
207.715958 168.0
207.746796 144.0
207.922531 128.0
207.991425 156.0
208.083282 112.0
208.123474 124.0
208.167221 1036.0
208.695267 52.0
208.801666 164.0
208.959869 188.0
209.068054 80.0
209.095108 216.0
209.121994 284.0
209.17308 132.0
209.403168 152.0
209.608398 84.0
209.67688 164.0
209.867126 176.0
209.982483 156.0
210.100739 100.0
210.15033 128.0
210.363342 160.0
210.753235 152.0
211.152161 116.0
211.192657 204.0
211.212891 168.0
211.516724 148.0
211.794693 172.0
211.87291 232.0
212.098938 104.0
212.194489 104.0
212.258392 168.0
212.356995 112.0
212.485474 164.0
212.568771 120.0
213.089874 416.0
213.117569 100.0
213.169876 164.0
213.326813 104.0
213.504181 180.0
213.748535 112.0
213.793152 108.0
213.905701 64.0
213.957504 156.0
213.990128 108.0
214.055771 124.0
214.089127 156.0
214.118256 92.0
214.259598 168.0
214.497025 156.0
214.715698 80.0
214.833282 216.0
214.957825 80.0
215.001602 120.0
215.024948 196.0
215.138794 124.0
215.322739 132.0
215.468796 132.0
215.521393 192.0
215.731812 160.0
215.799057 160.0
215.936493 96.0
216.445694 72.0
216.546173 116.0
216.721024 128.0
217.090363 160.0
217.11969 80.0
217.175415 168.0
217.230652 168.0
217.506973 48.0
217.536331 168.0
217.85054 124.0
217.891678 92.0
217.921051 208.0
217.963959 128.0
218.018021 140.0
218.050354 192.0
218.567917 104.0
218.691513 112.0
218.762161 72.0
218.897598 84.0
218.932938 148.0
219.018341 28.0
219.044861 200.0
219.118591 160.0
219.147568 116.0
219.186279 112.0
219.351318 80.0
219.386688 144.0
219.70813 116.0
219.911743 148.0
219.935349 136.0
219.996521 128.0
220.065247 64.0
220.248337 180.0
220.271973 112.0
220.390152 140.0
220.440384 132.0
220.758713 128.0
220.836533 144.0
220.943924 144.0
221.079132 128.0
221.416626 160.0
221.499557 148.0
221.562347 200.0
221.585464 48.0
221.701019 152.0
221.792908 108.0
222.049438 96.0
222.48407 176.0
222.827057 84.0
222.911774 232.0
222.969925 148.0
223.037933 160.0
223.069504 228.0
223.20166 156.0
223.289322 84.0
223.458878 120.0
223.524338 156.0
223.881561 140.0
224.002625 112.0
224.149658 216.0
224.340408 124.0
224.691284 176.0
224.728104 160.0
224.939163 156.0
225.026581 112.0
225.570282 196.0
225.651001 172.0
226.174515 84.0
226.449982 100.0
226.476929 156.0
226.566803 48.0
226.944427 116.0
227.129578 184.0
227.205353 52.0
227.409409 88.0
227.709641 40.0
227.934952 48.0
228.136322 160.0
228.16037 168.0
228.271622 284.0
228.373871 160.0
228.491196 160.0
228.572433 164.0
228.731934 128.0
228.84935 156.0
228.897522 236.0
228.921616 76.0
229.639023 164.0
229.931534 256.0
229.969513 136.0
230.556671 296.0
230.677963 188.0
230.719894 176.0
230.932693 140.0
231.128204 164.0
231.318863 44.0
231.41272 80.0
231.594421 120.0
231.730743 36.0
231.758011 196.0
231.873154 408.0
232.147018 120.0
232.331024 140.0
232.415146 192.0
232.456085 108.0
232.529175 208.0
232.68306 232.0
232.810593 100.0
233.095627 164.0
233.187302 128.0
233.61908 156.0
233.822952 228.0
233.895996 172.0
233.932526 180.0
234.124344 128.0
234.252274 116.0
234.276642 144.0
234.514313 84.0
234.611862 84.0
234.694183 120.0
234.727722 152.0
234.889359 116.0
234.938171 56.0
234.961639 180.0
234.999191 212.0
235.072418 124.0
235.099884 76.0
235.354736 116.0
235.38591 128.0
235.438751 64.0
235.557861 184.0
235.655624 124.0
235.955139 168.0
236.062164 172.0
236.257904 164.0
236.346634 72.0
236.432312 152.0
236.453735 224.0
236.514954 52.0
236.606781 148.0
236.774933 140.0
236.853592 168.0
236.909973 312.0
236.986557 96.0
237.020264 80.0
237.121399 120.0
237.375839 56.0
237.418777 40.0
237.510788 184.0
238.038666 116.0
238.130798 116.0
238.226013 68.0
238.407288 120.0
238.43187 132.0
238.545609 104.0
238.588638 196.0
238.631683 156.0
238.776199 208.0
239.20845 292.0
239.2621 88.0
239.514893 196.0
239.678177 88.0
239.82045 192.0
240.029572 80.0
240.143677 168.0
240.217697 300.0
240.288666 224.0
240.395584 184.0
240.464554 120.0
240.495407 56.0
240.696075 32.0
240.740387 172.0
240.844315 72.0
240.878296 180.0
240.943161 180.0
241.063675 76.0
241.208939 204.0
241.570724 228.0
241.631866 152.0
241.793503 52.0
242.093796 80.0
242.202194 176.0
242.242462 184.0
242.267258 148.0
242.28894 120.0
242.316818 56.0
242.406677 104.0
242.43457 128.0
242.725952 132.0
242.96788 200.0
243.088882 140.0
243.144745 128.0
243.19751 64.0
243.286453 116.0
243.480042 128.0
243.626022 100.0
243.669266 144.0
243.784485 208.0
244.058029 136.0
244.148407 124.0
244.191742 108.0
244.356613 104.0
244.481079 124.0
244.702087 144.0
244.736328 28.0
244.839096 124.0
245.041565 228.0
245.091415 188.0
245.191132 184.0
245.705627 68.0
245.808594 172.0
245.945908 128.0
246.395584 116.0
246.495575 116.0
246.579941 200.0
246.726868 96.0
246.776886 180.0
246.820663 160.0
246.861313 152.0
247.167862 144.0
247.205414 76.0
247.499649 172.0
247.534103 116.0
247.878662 76.0
248.076126 96.0
248.198395 128.0
248.443024 124.0
248.499496 140.0
248.920105 92.0
248.964066 76.0
249.052002 168.0
249.212219 132.0
249.413345 144.0
249.567398 132.0
249.809555 92.0
249.853592 156.0
250.26416 116.0
250.424301 172.0
250.454849 108.0
250.561951 48.0
250.706894 108.0
250.773071 140.0
250.804596 160.0
250.845581 180.0
250.918076 132.0
250.943298 60.0
250.97168 124.0
251.066284 128.0
251.504822 288.0
251.545868 168.0
251.601608 140.0
251.627945 108.0
251.902695 80.0
252.089096 208.0
252.19339 168.0
252.424179 220.0
252.500076 96.0
252.590332 172.0
252.694153 204.0
253.142502 188.0
253.294525 124.0
253.392731 176.0
253.461365 204.0
253.513138 180.0
253.573349 148.0
253.624054 124.0
253.677948 112.0
253.728668 184.0
253.839645 116.0
254.147324 116.0
254.175888 160.0
254.271088 52.0
254.579025 120.0
254.607605 68.0
254.718781 208.0
254.775955 188.0
254.887161 212.0
255.100098 172.0
255.138138 2524.0
255.23999 76.0
255.2845 136.0
255.319489 136.0
255.387863 128.0
255.561249 168.0
255.726715 148.0
255.768097 128.0
255.819031 344.0
255.841309 164.0
256.038727 148.0
256.061035 184.0
256.141266 348.0
256.351898 196.0
256.427399 44.0
256.532593 168.0
256.554901 52.0
257.019348 212.0
257.162842 396.0
257.256744 116.0
257.512177 60.0
257.56543 160.0
257.611206 168.0
257.655914 156.0
257.700653 300.0
257.738983 112.0
258.182373 676.0
258.266479 180.0
258.317657 200.0
258.352844 52.0
258.548035 96.0
258.596039 36.0
258.624847 132.0
258.736877 48.0
258.76889 88.0
258.914398 152.0
259.14682 116.0
259.181152 164.0
259.239746 132.0
259.339111 168.0
259.579559 76.0
259.714264 136.0
259.768768 128.0
259.829742 132.0
259.877869 164.0
260.185974 192.0
260.288696 196.0
260.311188 64.0
260.593842 96.0
260.905609 88.0
261.06958 204.0
261.149994 184.0
261.307617 84.0
261.381622 88.0
261.764679 80.0
262.067444 248.0
262.109344 124.0
262.151215 128.0
262.203339 160.0
262.357513 108.0
262.412323 148.0
262.557404 72.0
262.761688 276.0
263.038177 124.0
263.170532 112.0
263.703552 120.0
263.858704 152.0
264.379486 112.0
264.40213 104.0
264.648132 36.0
264.923431 148.0
265.02063 156.0
265.114594 56.0
265.244232 56.0
265.396606 176.0
265.461456 116.0
266.035736 132.0
266.19809 52.0
266.285767 120.0
266.331238 76.0
266.370972 172.0
266.491364 180.0
266.532654 148.0
266.69873 192.0
266.994263 156.0
267.195923 136.0
267.22522 152.0
267.264252 152.0
267.306549 124.0
267.531128 112.0
267.606018 132.0
267.63858 100.0
267.807922 48.0
267.98056 116.0
268.058777 108.0
268.168762 180.0
268.221741 52.0
268.348877 160.0
268.462982 120.0
268.495514 128.0
268.54245 132.0
268.603241 52.0
268.648895 176.0
268.782684 184.0
268.998077 56.0
269.115601 228.0
269.167145 112.0
269.331146 100.0
269.478149 156.0
269.883423 168.0
269.948822 128.0
269.994629 204.0
270.017517 168.0
270.102539 120.0
270.150635 176.0
270.223602 152.0
270.354462 176.0
270.436951 156.0
270.482117 164.0
270.560669 96.0
270.799713 120.0
271.065094 180.0
271.173218 152.0
271.261719 64.0
271.543701 36.0
271.576508 164.0
271.635559 140.0
271.66507 104.0
271.710999 204.0
271.809448 92.0
272.00058 180.0
272.06543 56.0
272.117981 144.0
272.200043 176.0
272.462799 152.0
272.548248 84.0
272.62381 152.0
272.64682 88.0
272.768433 184.0
272.954742 132.0
273.044617 172.0
273.070923 172.0
273.140015 140.0
273.174408 140.0
273.706055 184.0
274.015656 48.0
274.048615 124.0
274.084869 48.0
274.137573 160.0
274.169403 176.0
274.427643 212.0
274.727783 164.0
274.922455 224.0
275.156799 140.0
275.239349 112.0
275.444092 44.0
275.785706 232.0
275.847229 196.0
276.077515 192.0
276.124969 180.0
276.43927 176.0
276.505463 108.0
276.753723 108.0
276.90274 168.0
276.925934 56.0
276.992157 180.0
277.306946 52.0
277.336761 180.0
277.359985 180.0
277.424133 164.0
277.500488 216.0
277.592041 76.0
277.625214 120.0
277.883942 180.0
277.970215 88.0
278.235748 176.0
278.288849 84.0
278.415039 36.0
278.577789 196.0
278.680786 76.0
278.976562 116.0
279.013123 160.0
279.049713 136.0
279.116211 92.0
279.535339 104.0
279.57193 112.0
279.661804 128.0
279.725037 68.0
279.931458 152.0
279.978088 180.0
280.068176 308.0
280.237915 132.0
280.301208 148.0
280.437836 136.0
280.627869 236.0
280.681213 64.0
280.711212 92.0
281.050995 176.0
281.084839 136.0
281.164917 84.0
281.204956 60.0
281.270721 176.0
281.321808 144.0
281.351837 120.0
281.452606 180.0
281.491943 108.0
281.648102 192.0
281.939697 120.0
282.019928 140.0
282.050018 360.0
282.203796 68.0
282.26712 140.0
282.327515 92.0
282.429688 180.0
282.524841 180.0
282.59845 84.0
282.635254 184.0
282.688812 124.0
282.765778 52.0
283.000092 180.0
283.040283 156.0
283.063721 168.0
283.13739 80.0
283.214417 228.0
283.239807 116.0
283.289703 152.0
283.381927 208.0
283.499207 124.0
283.546112 60.0
283.586884 120.0
283.663422 128.0
283.706696 136.0
283.822327 152.0
283.856659 76.0
283.946899 44.0
284.015503 116.0
284.065826 80.0
284.163116 188.0
284.245789 176.0
284.266968 76.0
284.314117 148.0
284.347687 232.0
284.39801 56.0
284.490326 172.0
284.509216 124.0
284.545715 80.0
284.624359 96.0
284.693451 120.0
284.768829 128.0
284.854675 52.0
284.923645 320.0
284.969635 184.0
285.01059 148.0
285.046173 88.0
285.073059 140.0
285.133728 156.0
285.177948 264.0
285.24411 112.0
285.280518 256.0
285.327789 276.0
285.347931 148.0
285.394928 144.0
285.437225 84.0
285.506134 208.0
285.542328 136.0
285.573608 92.0
285.58606 136.0
285.618896 68.0
285.676697 152.0
285.722748 232.0
285.759735 236.0
285.809723 200.0
285.857666 252.0
285.897675 172.0
285.967102 264.0
285.995697 236.0
286.024078 344.0
286.048553 348.0
286.101868 436.0
286.135651 648.0
286.181183 235620.0
286.254364 168.0
286.291138 44.0
286.327057 72.0
286.360199 116.0
286.411163 232.0
286.442749 40.0
286.49884 352.0
286.534576 276.0
286.576141 164.0
286.613068 256.0
286.671173 136.0
286.736481 2592.0
286.765167 264.0
286.800415 128.0
286.838318 112.0
286.876801 136.0
286.882019 192.0
286.9198 108.0
286.95874 424.0
287.014008 108.0
287.069824 208.0
287.100525 164.0
287.130737 272.0
287.183563 42248.0
287.252014 92.0
287.284973 80.0
287.297058 160.0
287.32489 124.0
287.411285 220.0
287.443726 124.0
287.493103 116.0
287.561462 176.0
287.588409 92.0
287.611542 216.0
287.643188 116.0
287.690521 132.0
287.722748 80.0
287.764618 176.0
287.825439 200.0
287.874756 232.0
287.917175 128.0
287.979492 80.0
288.040924 36.0
288.103973 260.0
288.186218 5584.0
288.282318 176.0
288.313629 68.0
288.340759 128.0
288.369049 44.0
288.405792 60.0
288.415588 120.0
288.428253 196.0
288.476227 88.0
288.508759 72.0
288.56308 224.0
288.584167 68.0
288.621918 120.0
288.650208 176.0
288.69986 52.0
288.70462 248.0
288.780334 144.0
288.815613 108.0
288.86853 124.0
288.906921 96.0
288.952789 224.0
288.988647 212.0
289.021057 260.0
289.058838 136.0
289.090302 252.0
289.11441 132.0
289.144287 232.0
289.187042 604.0
289.251343 128.0
289.260895 100.0
289.29364 152.0
289.323639 296.0
289.350464 100.0
289.385345 56.0
289.405548 172.0
289.463837 92.0
289.496368 72.0
289.522461 144.0
289.574951 88.0
289.657135 140.0
289.709473 120.0
289.739777 48.0
289.763214 108.0
289.810638 36.0
289.864563 88.0
289.939423 88.0
290.032196 140.0
290.058044 100.0
290.098724 184.0
290.166534 132.0
290.195496 112.0
290.241333 120.0
290.319183 164.0
290.366577 60.0
290.39032 88.0
290.427216 80.0
290.519226 84.0
290.749969 88.0
290.872131 96.0
290.928162 80.0
290.970581 40.0
291.043915 60.0
291.065643 112.0
291.100952 92.0
291.276215 108.0
291.310181 36.0
291.395538 96.0
291.422302 72.0
291.561615 108.0
291.609192 76.0
291.639801 144.0
291.742798 80.0
291.823364 92.0
291.877777 52.0
291.972992 32.0
292.096802 48.0
292.153259 80.0
292.325439 92.0
292.388031 104.0
292.418671 64.0
292.694427 32.0
292.734436 64.0
292.804962 92.0
292.908966 76.0
293.024811 64.0
293.089539 76.0
293.351959 88.0
293.450836 60.0
293.580414 76.0
293.703186 92.0
293.894226 48.0
294.003418 32.0
294.078491 32.0
294.269653 72.0
294.580444 52.0
295.17514 96.0
295.322174 64.0
295.394012 88.0
295.478058 156.0
295.534271 88.0
295.616394 124.0
295.719086 176.0
295.86969 80.0
295.903931 72.0
296.171021 88.0
296.458832 56.0
296.709045 172.0
296.883911 124.0
297.161743 108.0
297.230377 88.0
297.316162 36.0
297.539276 112.0
297.840454 164.0
298.445038 76.0
298.542603 72.0
298.728333 72.0
298.828094 56.0
298.947662 112.0
299.058655 60.0
299.148163 116.0
299.369812 100.0
299.681976 80.0
299.909393 84.0
299.957672 112.0
299.999023 28.0
300.054199 84.0
300.085205 56.0
300.18866 52.0
300.323151 88.0
300.568115 100.0
300.6026 36.0
300.654358 100.0
300.688873 104.0
300.892548 64.0
301.123901 36.0
301.22406 120.0
301.393341 72.0
301.694031 76.0
302.25 80.0
302.548523 48.0
303.418091 48.0
303.515167 28.0
304.075958 112.0
304.858551 48.0
305.174866 52.0
306.197937 76.0
306.278046 60.0
306.640411 88.0
306.671753 132.0
307.275055 112.0
307.501862 72.0
307.86145 116.0
308.340057 48.0
308.612732 136.0
308.679169 116.0
309.729095 76.0
309.809662 84.0
311.447815 80.0
312.780457 88.0
314.24649 68.0
317.337708 88.0
318.292145 104.0
320.390594 136.0
320.493927 88.0
320.857452 72.0
321.417419 88.0
321.4888 116.0
321.660126 88.0
322.538818 76.0
323.809021 48.0
324.22818 128.0
325.139099 176.0
326.853241 164.0
327.811066 36.0
328.687317 108.0
329.723724 60.0
329.861084 104.0
331.641968 44.0
332.069794 52.0
332.962616 52.0
333.918457 80.0
336.202698 72.0
336.520294 44.0
336.666351 128.0
337.250885 52.0
337.737183 80.0
338.663239 84.0
338.82074 60.0
339.124878 72.0
339.535522 44.0
340.996704 56.0
341.588684 96.0
341.625488 56.0
342.111237 56.0
342.450012 80.0
343.032196 112.0
344.201721 68.0
346.995239 44.0
350.522583 84.0
353.124603 60.0
353.970367 48.0
354.547272 88.0
354.944641 44.0
356.100494 120.0
357.171692 124.0
357.251831 644.0
357.559235 80.0
357.706024 76.0
357.762482 60.0
358.244507 116.0
358.271698 112.0
358.764557 64.0
359.266144 176.0
359.632141 56.0
361.181335 60.0
362.275299 36.0
362.396545 88.0
362.612518 60.0
363.386108 88.0
365.236145 104.0
366.519135 32.0
367.098541 124.0
367.89978 56.0
368.06012 56.0
370.42749 56.0
374.221832 64.0
375.173431 60.0
380.628784 76.0
384.002808 44.0
384.736389 112.0
385.544922 28.0
386.718231 48.0
388.046204 60.0
392.560181 100.0
392.690308 52.0
394.71228 88.0
395.155273 60.0
397.167694 60.0
400.275543 60.0
401.223785 92.0
401.407196 48.0
403.623383 112.0
405.068146 64.0
407.410889 80.0
408.69342 52.0
410.881165 88.0
411.518829 80.0
411.898468 52.0
413.625061 92.0
414.893005 100.0
416.499969 96.0
416.613708 124.0
417.483521 60.0
417.747894 36.0
418.122223 88.0
418.211761 84.0
418.394928 76.0
419.417419 96.0
422.185547 72.0
422.242798 76.0
423.626282 36.0
424.314758 40.0
426.437012 40.0
426.950897 84.0
428.684021 72.0
429.760254 160.0
430.251404 64.0
433.361542 80.0
433.556274 52.0
433.958374 80.0
434.767242 120.0
436.861359 56.0
436.890472 48.0
437.352356 96.0
437.889465 124.0
440.500549 144.0
441.871765 96.0
443.039795 68.0
443.136169 96.0
444.251343 116.0
444.607971 52.0
445.204102 64.0
447.731598 64.0
448.194977 36.0
450.954895 32.0
451.107056 96.0
451.369171 36.0
453.50708 40.0
454.232178 92.0
454.806061 48.0
454.923859 88.0
458.03656 32.0
460.446411 72.0
464.341034 68.0
464.594116 96.0
465.714478 68.0
469.959106 52.0
473.226685 40.0
474.539459 48.0
475.255127 116.0
484.327301 80.0
484.787323 76.0
487.556458 104.0
488.066376 48.0
488.492981 88.0
490.183624 104.0
492.008453 60.0
492.460052 92.0
493.77713 92.0
494.263733 152.0
495.476898 124.0
497.525787 64.0
499.360962 48.0
500.460114 92.0
501.351013 44.0
501.613983 92.0
502.434509 48.0
503.228943 84.0
504.238495 92.0
507.282166 32.0
509.624847 96.0
510.330505 68.0
511.855865 64.0
516.205872 40.0
516.395813 60.0
517.64032 52.0
523.625793 72.0
527.655029 56.0
528.716248 72.0
529.196899 84.0
530.552979 108.0
531.552856 48.0
538.222717 72.0
540.806946 108.0
550.835144 64.0
552.229614 96.0
553.60083 64.0
554.706604 84.0
555.667969 164.0
557.588501 80.0
558.764038 48.0
559.658325 72.0
560.661682 48.0
568.478821 92.0
575.399597 108.0
575.542847 100.0
578.569275 96.0
582.322021 124.0
582.515991 68.0
582.645691 68.0
584.237 80.0
584.458313 120.0
586.302612 72.0
589.062439 32.0
601.181274 36.0
601.737732 60.0
602.465454 92.0
603.022461 28.0
606.914307 48.0
608.13092 84.0
611.36969 100.0
614.498596 64.0
616.271118 108.0
617.61084 96.0
621.92157 40.0
629.149414 72.0
630.123291 80.0
634.096436 152.0
638.172607 56.0
643.957703 92.0
644.942932 80.0
647.310608 88.0
653.014832 80.0
655.570496 96.0
658.059692 36.0
661.356995 48.0
666.870728 88.0
670.092102 76.0
671.200256 148.0
673.532959 140.0
674.824951 88.0
675.352417 52.0
676.609863 168.0
676.770325 88.0
679.984375 76.0
681.433167 52.0
681.67218 56.0
686.033752 32.0
686.534302 100.0
686.951538 268.0
688.177979 88.0
691.39801 48.0
692.136108 208.0
693.755005 156.0
700.139038 92.0
704.210571 60.0
707.293152 76.0
707.711365 44.0
709.141663 36.0
712.92041 56.0
714.723022 72.0
716.357483 228.0
720.828491 72.0
721.336243 84.0
725.22229 92.0
730.382263 48.0
732.594666 40.0
735.068115 168.0
744.456116 76.0
744.515869 148.0
745.292664 80.0
745.596924 152.0
747.739746 128.0
748.371216 64.0
749.689392 208.0
751.40155 96.0
752.645935 44.0
754.826172 44.0
755.384033 136.0
758.479065 200.0
758.867126 168.0
759.431946 136.0
761.567017 88.0
763.848145 76.0
764.99823 136.0
766.428711 164.0
767.753174 68.0
767.891052 76.0
768.49231 144.0
769.944092 68.0
770.546204 56.0
770.977173 92.0
772.375977 60.0
773.316589 60.0
777.234619 192.0
778.05603 120.0
780.422852 28.0
781.312744 52.0
781.646606 76.0
783.032776 168.0
786.751953 248.0
787.399658 52.0
787.611938 128.0
788.153809 160.0
791.196411 48.0
792.79834 108.0
793.067383 192.0
796.158691 84.0
796.883301 136.0
800.07782 60.0
800.488831 156.0
800.685913 72.0
800.939392 84.0
801.592896 168.0
804.582275 80.0
807.192627 140.0
807.67334 120.0
808.62384 52.0
809.252197 208.0
810.243347 184.0
812.23877 176.0
812.573486 60.0
812.919617 80.0
813.447449 128.0
815.731018 196.0
815.793518 152.0
818.125916 52.0
818.273987 132.0
818.581421 152.0
819.629517 160.0
820.803772 224.0
821.607971 164.0
822.035889 112.0
825.657776 244.0
826.681763 44.0
827.769409 168.0
828.330688 108.0
828.617126 188.0
828.668701 228.0
830.09021 188.0
833.120667 148.0
833.344727 128.0
833.833191 152.0
835.224609 104.0
836.018555 188.0
842.869202 32.0
845.946045 168.0
846.374451 40.0
848.76178 36.0
849.579529 92.0
849.834778 160.0
849.985657 184.0
850.27002 56.0
850.891113 168.0
852.192078 140.0
853.528931 72.0
853.65686 120.0
853.808105 156.0
855.495483 192.0
859.131897 116.0
859.709534 220.0
859.948792 220.0
861.560425 216.0
862.530518 116.0
862.752625 176.0
864.571716 56.0
864.612671 76.0
866.609497 140.0
866.738403 168.0
868.233215 168.0
869.066162 96.0
869.113098 204.0
869.289124 256.0
870.786194 128.0
870.944763 164.0
871.614502 212.0
872.490234 132.0
873.862732 132.0
875.061218 176.0
875.850342 196.0
876.268616 160.0
876.398254 204.0
877.193848 164.0
877.235107 172.0
877.441467 176.0
878.137268 260.0
879.759399 228.0
880.740173 160.0
883.08075 136.0
883.690063 120.0
884.376526 180.0
884.625122 188.0
886.490845 152.0
887.279175 176.0
887.391785 204.0
887.901733 76.0
888.447449 204.0
889.20105 104.0
889.681824 156.0
891.754944 160.0
893.562683 188.0
893.794678 176.0
895.110229 32.0
895.187622 88.0
900.447571 128.0
900.531189 76.0
901.755981 204.0
902.234192 88.0
902.73645 168.0
902.975647 176.0
904.309875 112.0
908.588318 176.0
910.707336 68.0
913.791199 184.0
914.290649 176.0
915.452515 140.0
915.540833 244.0
916.398193 188.0
916.621155 88.0
916.976685 104.0
917.193665 184.0
917.368469 48.0
918.592041 200.0
918.667847 144.0
919.099426 172.0
919.244202 108.0
919.612366 180.0
919.690857 176.0
920.626648 252.0
921.07959 52.0
921.629395 132.0
922.300171 192.0
922.36377 168.0
922.807983 56.0
923.878479 132.0
924.09021 108.0
924.338257 88.0
926.033386 156.0
927.257202 200.0
927.754272 28.0
928.057373 72.0
930.375 212.0
930.745361 148.0
931.304077 132.0
932.045227 68.0
932.476685 232.0
933.145386 180.0
933.777771 176.0
933.850769 88.0
934.921509 120.0
935.073669 128.0
935.22583 120.0
935.48761 188.0
935.637146 172.0
936.662842 156.0
936.912598 140.0
939.021667 112.0
939.576782 140.0
940.632507 148.0
940.852234 224.0
941.395691 160.0
941.438416 224.0
942.776306 168.0
942.880188 140.0
943.066833 192.0
943.197998 236.0
943.998901 148.0
945.326355 148.0
947.769592 128.0
948.302734 128.0
949.620972 144.0
951.23468 104.0
951.332886 148.0
952.057434 40.0
952.5672 144.0
953.365967 72.0
953.888367 212.0
953.986755 48.0
954.042053 172.0
954.847534 64.0
955.991821 164.0
956.391846 292.0
956.755066 168.0
957.044434 96.0
957.413879 136.0
958.436462 136.0
958.586121 220.0
959.129883 200.0
959.231506 212.0
959.891174 196.0
960.063843 112.0
960.74231 184.0
961.896301 200.0
962.130859 104.0
962.606323 80.0
963.168335 156.0
963.409241 108.0
963.707886 152.0
964.243408 140.0
965.498413 136.0
966.290161 160.0
966.716431 172.0
967.224609 60.0
969.051514 180.0
969.491455 136.0
970.390259 132.0
971.091003 108.0
972.480774 176.0
972.896667 88.0
972.952576 168.0
974.387207 180.0
974.443115 96.0
975.95343 208.0
976.102661 180.0
976.208374 88.0
976.898743 48.0
976.967163 200.0
977.713867 120.0
978.093506 144.0
978.72229 52.0
979.326355 156.0
979.538147 56.0
980.061462 48.0
980.235962 152.0
980.5849 292.0
981.046204 168.0
981.944092 256.0
982.555359 184.0
982.985901 172.0
985.333618 124.0
985.389832 164.0
988.941711 200.0
989.624084 156.0
992.882568 136.0
993.18988 136.0
993.516113 60.0
993.854858 144.0
994.250244 100.0
994.796265 168.0
996.334839 148.0
996.529602 144.0
997.095154 156.0
997.264893 140.0
997.692322 156.0
997.755188 160.0
997.868347 52.0
998.157593 140.0
998.950012 176.0
1000.000854 228.0
1000.37854 148.0
1002.203979 216.0
1002.727966 200.0
1002.872925 180.0
1003.364624 212.0
1004.24115 128.0
1004.335754 168.0
1005.31366 128.0
1005.395691 148.0
1005.578674 56.0
1006.134155 168.0
1008.3703 200.0
1008.414551 208.0
1008.616821 232.0
1009.773865 72.0
1009.824463 168.0
1009.976257 152.0
1010.74176 52.0
1011.697449 68.0
1012.210266 140.0
1012.539612 132.0
1012.66626 196.0
1013.230042 172.0
1013.584839 160.0
1014.23761 212.0
1016.076599 224.0
1016.539795 168.0
1016.633911 120.0
1017.574402 164.0
1017.618896 124.0
1018.253906 160.0
1018.844604 176.0
1019.149597 232.0
1019.248596 204.0
1019.861328 184.0
1020.007507 168.0
1020.141052 48.0
1020.319031 32.0
1020.846741 132.0
1021.062988 200.0
1021.794495 204.0
1021.940857 144.0
1022.284424 212.0
1022.628113 180.0
1022.920898 148.0
1023.875977 40.0
1024.385498 156.0
1025.271118 152.0
1025.50061 144.0
1025.609009 236.0
1025.883057 144.0
1026.265625 148.0
1026.386719 96.0
1026.673706 172.0
1027.155151 156.0
1028.064453 140.0
1028.377075 180.0
1029.226196 168.0
1029.302856 188.0
1030.420532 188.0
1030.893433 204.0
1031.34082 68.0
1032.888184 108.0
1033.035278 152.0
1035.147339 196.0
1036.005615 168.0
1036.402832 224.0
1036.627197 152.0
1036.909058 40.0
1037.024536 172.0
1037.235962 200.0
1038.069458 120.0
1038.941772 156.0
1039.153442 168.0
1039.775879 204.0
1041.233276 180.0
1041.323242 172.0
1041.560791 144.0
1041.811401 156.0
1041.946289 148.0
1042.164673 164.0
1042.31897 116.0
1042.453857 180.0
1042.595215 124.0
1043.458374 148.0
1043.546631 172.0
1043.919556 208.0
1044.639893 156.0
1044.968018 48.0
1045.233521 208.0
1045.675903 164.0
1046.165039 120.0
1046.72522 172.0
1046.911987 200.0
1047.012817 156.0
1047.594727 192.0
1047.852417 152.0
1048.135864 180.0
1048.180908 84.0
1048.303345 48.0
1048.586914 252.0
1048.677246 204.0
1048.915649 168.0
1050.102051 168.0
1050.21814 120.0
1050.385864 204.0
1051.185913 144.0
1052.59314 44.0
1052.72229 32.0
1052.890137 184.0
1053.736328 204.0
1053.811646 264.0
1054.0271 176.0
1054.175781 220.0
1054.233887 204.0
1054.557007 132.0
1055.481445 160.0
1056.283447 148.0
1056.503418 140.0
1056.574585 148.0
1056.91748 168.0
1056.988647 220.0
1057.16333 104.0
1057.234497 176.0
1057.44812 160.0
1057.681152 184.0
1057.998291 160.0
1058.39978 164.0
1058.613403 152.0
1059.494263 184.0
1061.198853 48.0
1061.782471 112.0
1062.178101 176.0
1062.781372 156.0
1062.826782 200.0
1062.995605 136.0
1063.170776 112.0
1064.034058 92.0
1064.962646 232.0
1065.229004 140.0
1065.521362 72.0
1066.021606 172.0
1066.359619 76.0
1066.444092 180.0
1066.632568 72.0
1066.977051 208.0
1067.107178 56.0
1067.516724 140.0
1067.588257 140.0
1070.073975 176.0
1070.275757 168.0
1070.347412 160.0
1070.562256 136.0
1070.62085 92.0
1070.907471 140.0
1071.252686 208.0
1071.317871 156.0
1071.428589 184.0
1071.727295 164.0
1071.979248 140.0
1072.366943 148.0
1072.67981 136.0
1072.790649 140.0
1073.788208 188.0
1074.251343 172.0
1074.42749 188.0
1075.752319 124.0
1075.876343 196.0
1076.228882 120.0
1076.39209 236.0
1076.627197 136.0
1076.731689 116.0
1076.888428 140.0
1077.303467 156.0
1078.227783 120.0
1080.509888 192.0
1080.771606 156.0
1081.144531 236.0
1081.674683 192.0
1082.015137 120.0
1082.434204 136.0
1082.960693 180.0
1083.036621 176.0
1084.166992 136.0
1084.386353 160.0
1085.048462 164.0
1085.291016 60.0
1086.333862 140.0
1086.884888 52.0
1087.170044 116.0
1087.455933 80.0
1088.171387 168.0
1088.282959 208.0
1088.683594 172.0
1090.005371 200.0
1091.259399 124.0
1091.844604 128.0
1092.798462 120.0
1094.417603 160.0
1094.898315 148.0
1095.899536 132.0
1095.972046 204.0
1097.725342 176.0
1098.325562 152.0
1098.813721 124.0
1098.879639 152.0
1099.130371 172.0
1099.288818 64.0
1099.968628 108.0
1100.529785 112.0
1100.7146 212.0
1101.067749 144.0
1101.117432 172.0
1102.04895 172.0
1103.271606 132.0
1103.450073 168.0
1104.527954 224.0
1104.620605 164.0
1105.282227 172.0
1105.447632 120.0
1105.493896 52.0
1105.652832 224.0
1106.083008 76.0
1106.20874 68.0
1106.347778 96.0
1106.44043 164.0
1106.526489 176.0
1106.599365 144.0
1107.367554 124.0
1107.625854 156.0
1108.129272 152.0
1108.228638 212.0
1108.341309 100.0
1108.613037 156.0
1110.591675 188.0
1110.854004 136.0
1111.782959 164.0
1113.196899 184.0
1113.316528 396.0
1113.834473 172.0
1114.425781 156.0
1114.625122 200.0
1115.037109 192.0
1115.362793 468.0
1115.914551 144.0
1116.207153 120.0
1116.699219 80.0
1116.873779 148.0
1117.264648 172.0
1117.697144 180.0
1118.189575 164.0
1118.543091 152.0
1118.588989 184.0
1118.642212 148.0
1119.441162 148.0
1120.606812 184.0
1120.966675 140.0
1121.853149 216.0
1122.153076 64.0
1122.599854 148.0
1123.200073 88.0
1123.593628 160.0
1124.554565 132.0
1124.974243 180.0
1125.028564 140.0
1125.088623 180.0
1125.362305 196.0
1125.816406 172.0
1125.909912 124.0
1126.003418 76.0
1126.684692 88.0
1127.553345 132.0
1127.606812 204.0
1127.894287 196.0
1127.947754 96.0
1128.195068 92.0
1128.288696 176.0
1128.549438 228.0
1128.649658 156.0
1128.970703 200.0
1129.612793 164.0
1130.101074 80.0
1130.348755 144.0
1130.402222 188.0
1130.47583 136.0
1131.479858 160.0
1131.560181 172.0
1131.908325 168.0
1132.172363 144.0
1132.872803 200.0
1133.462402 40.0
1133.643311 108.0
1133.95166 264.0
1134.414062 140.0
1134.662109 224.0
1135.010864 156.0
1136.030273 172.0
1136.68103 164.0
1137.419312 120.0
1137.526733 84.0
1138.063843 160.0
1139.279419 252.0
1139.393677 108.0
1140.421753 56.0
1140.878784 152.0
1140.979736 136.0
1141.275513 176.0
1141.517578 100.0
1141.954712 224.0
1142.499512 132.0
1142.862915 212.0
1144.276245 160.0
1144.35437 172.0
1144.693726 112.0
1144.747681 168.0
1144.7948 196.0
1144.949707 180.0
1145.043945 160.0
1145.414429 140.0
1145.636719 152.0
1145.730957 156.0
1146.101562 156.0
1146.249756 164.0
1146.438477 168.0
1146.876587 196.0
1147.105347 180.0
1147.712524 152.0
1148.052734 220.0
1148.137329 196.0
1148.319458 116.0
1148.501587 92.0
1148.805054 60.0
1148.865845 156.0
1149.419067 176.0
1149.911743 152.0
1149.979248 160.0
1150.411255 188.0
1150.958008 148.0
1151.559082 172.0
1151.653687 180.0
1151.83606 160.0
1152.234619 176.0
1152.396729 208.0
1152.53186 36.0
1152.673828 148.0
1153.140137 108.0
1153.626709 260.0
1153.782227 176.0
1154.127075 144.0
1154.269043 144.0
1154.708618 152.0
1155.121216 232.0
1155.953369 120.0
1156.115845 156.0
1156.237671 84.0
1156.664062 160.0
1156.833252 196.0
1157.354614 148.0
1157.415527 72.0
1157.997925 144.0
1158.329834 168.0
1158.404297 144.0
1158.458496 212.0
1158.539795 104.0
1159.359619 132.0
1160.281494 144.0
1160.463745 156.0
1160.89856 60.0
1161.555664 184.0
1161.712402 172.0
1161.827759 108.0
1161.963379 160.0
1162.443604 172.0
1162.736938 136.0
1163.084106 196.0
1164.312012 48.0
1165.052368 144.0
1165.526367 208.0
1166.241577 176.0
1166.826172 216.0
1167.465332 104.0
1168.070679 112.0
1168.429443 108.0
1168.7323 148.0
1169.451904 164.0
1169.83313 132.0
1170.055908 208.0
1170.159912 172.0
1171.283569 148.0
1171.562866 108.0
1172.053467 152.0
1172.121582 52.0
1172.182861 240.0
1172.482666 152.0
1173.259766 176.0
1173.450684 152.0
1173.764282 228.0
1174.337158 164.0
1174.432617 124.0
1174.787354 160.0
1175.148926 140.0
1175.36731 208.0
1176.975952 180.0
1177.026001 112.0
1177.07373 128.0
1177.490356 160.0
1177.886475 168.0
1178.057251 168.0
1178.132446 108.0
1178.651733 212.0
1178.760986 172.0
1178.82251 108.0
1179.922974 168.0
1180.216919 196.0
1180.312744 124.0
1180.770874 104.0
1180.825562 200.0
1181.05127 192.0
1181.694336 104.0
1182.159668 192.0
1182.960449 104.0
1183.665649 224.0
1185.275269 200.0
1185.974365 196.0
1186.022339 104.0
1186.481567 180.0
1186.97522 176.0
1187.510132 180.0
1188.923462 196.0
1189.472534 104.0
1189.692017 156.0
1189.911987 168.0
1190.062988 140.0
1190.275879 112.0
1190.694702 52.0
1191.07251 108.0
1191.209839 152.0
1192.027466 324.0
1192.254272 168.0
1193.450317 168.0
1193.512207 144.0
1193.814819 172.0
1193.945435 260.0
1194.261841 104.0
1194.440674 60.0
1194.522217 200.0
1194.646973 164.0
1194.892456 208.0
1195.169922 156.0
1195.390137 64.0
1195.520874 148.0
1195.617188 128.0
1195.782349 164.0
1195.830566 184.0
1195.933838 128.0
1196.415649 128.0
1197.414062 132.0
1197.916016 216.0
1198.00647 144.0
1198.320068 68.0
1198.936646 116.0
1199.136475 144.0
1199.184692 168.0
1200.177368 200.0
1200.646362 152.0
1200.853271 76.0
1200.970459 112.0
1201.060181 204.0
1201.467163 136.0
1201.708618 128.0
1202.074341 160.0
1202.23999 132.0
1202.419434 140.0
1203.776489 184.0
1203.91748 156.0
1204.048706 136.0
1204.255859 204.0
1204.463135 100.0
1204.76709 100.0
1204.82666 152.0
1204.994995 188.0
1205.091797 140.0
1206.19751 164.0
1206.404907 88.0
1206.487671 212.0
1206.757446 120.0
1206.964966 156.0
1207.158569 212.0
1207.594238 208.0
1207.6427 160.0
1208.272095 228.0
1208.445068 216.0
1209.054077 140.0
1209.41394 232.0
1209.940063 172.0
1210.307007 140.0
1210.410889 220.0
1210.542358 192.0
1210.992554 140.0
1211.140381 228.0
1211.553711 256.0
1211.796143 132.0
1212.618286 184.0
1212.821777 140.0
1213.015869 116.0
1213.591309 164.0
1213.65564 216.0
1213.820068 44.0
1213.979614 176.0
1214.527466 144.0
1214.596802 200.0
1215.075439 184.0
1215.137939 52.0
1215.401611 140.0
1215.686157 128.0
1216.699463 68.0
1216.907715 208.0
1217.331299 172.0
1217.428589 160.0
1217.477173 132.0
1217.938965 180.0
1218.373169 88.0
1218.53418 204.0
1218.776123 232.0
1219.366821 272.0
1219.547485 192.0
1220.124512 40.0
1221.077148 188.0
1221.473633 160.0
1222.496338 120.0
1222.906982 192.0
1222.955688 204.0
1223.902466 244.0
1224.111328 180.0
1224.543091 180.0
1224.612793 48.0
1225.067261 180.0
1225.128296 136.0
1225.797119 92.0
1226.173462 140.0
1226.494019 132.0
1226.699829 168.0
1227.470093 72.0
1227.818726 240.0
1227.972168 204.0
1228.118652 168.0
1228.42395 192.0
1228.489502 180.0
1229.123291 212.0
1229.227905 168.0
1229.276855 180.0
1229.395386 184.0
1229.907715 100.0
1230.407471 284.0
1231.364136 68.0
1232.384033 204.0
1232.698486 100.0
1232.866211 184.0
1233.02002 124.0
1233.124756 184.0
1233.63501 160.0
1233.746948 152.0
1233.830811 128.0
1234.085571 208.0
1234.669922 68.0
1234.802734 112.0
1235.838135 92.0
1236.572876 128.0
1236.817871 112.0
1237.167847 112.0
1237.678955 164.0
1237.860962 180.0
1238.029053 176.0
1238.260132 344.0
1238.309204 164.0
1238.526367 136.0
1238.673462 168.0
1238.918579 276.0
1239.261841 68.0
1239.317993 180.0
1240.334106 152.0
1241.028198 192.0
1241.140381 52.0
1241.420898 180.0
1242.164307 116.0
1242.381714 80.0
1242.711548 212.0
1243.062378 156.0
1243.33606 76.0
1243.46936 128.0
1243.665894 160.0
1244.080078 196.0
1245.519531 72.0
1245.737305 168.0
1245.934082 140.0
1246.285278 136.0
1246.418823 168.0
1247.705078 136.0
1247.816162 120.0
1248.773926 104.0
1249.076294 136.0
1249.153687 152.0
1249.716553 160.0
1249.955811 212.0
1250.335815 104.0
1250.455444 148.0
1250.546875 156.0
1250.673584 128.0
1251.058594 224.0
1251.18042 180.0
1251.236816 224.0
1251.391724 72.0
1251.983154 116.0
1252.250732 84.0
1252.318604 156.0
1252.779053 64.0
1252.904175 184.0
1253.518921 108.0
1253.744385 184.0
1254.071411 260.0
1255.283081 216.0
1255.394043 228.0
1255.605957 168.0
1255.838257 112.0
1256.052856 172.0
1256.515503 236.0
1256.868286 168.0
1257.221069 156.0
1257.665771 120.0
1257.722168 92.0
1257.891602 252.0
1258.046875 136.0
1258.647583 148.0
1258.894165 152.0
1259.007202 172.0
1259.197876 120.0
1259.332031 192.0
1259.442749 120.0
1259.522827 160.0
1259.586304 104.0
1259.649902 124.0
1259.939575 132.0
1260.059692 160.0
1260.137329 132.0
1260.211304 196.0
1260.479492 184.0
1260.829834 32.0
1261.006592 188.0
1261.197388 168.0
1261.468262 152.0
1261.762695 144.0
1261.869019 144.0
1262.137695 160.0
1262.462891 80.0
1262.986328 120.0
1264.033325 156.0
1264.104126 152.0
1264.365967 124.0
1265.420654 136.0
1265.519775 192.0
1265.668457 268.0
1265.909302 340.0
1266.617432 152.0
1267.0 72.0
1267.687256 152.0
1268.013306 168.0
1268.381836 216.0
1268.913574 176.0
1269.502075 160.0
1269.6427 160.0
1269.934692 124.0
1270.431274 144.0
1271.038574 200.0
1271.523926 120.0
1272.091797 200.0
1272.759155 152.0
1273.178101 116.0
1273.859985 64.0
1274.22937 88.0
1274.565063 156.0
1275.103394 188.0
1275.238403 200.0
1275.30249 224.0
1275.57959 228.0
1275.643677 180.0
1275.835571 100.0
1275.981201 164.0
1276.06311 184.0
1276.219482 96.0
1276.539429 220.0
1277.222168 172.0
1277.741577 140.0
1277.883789 136.0
1278.09729 220.0
1278.588257 208.0
1278.762939 248.0
1279.034058 232.0
1279.940796 172.0
1280.26123 56.0
1280.425049 180.0
1280.53186 156.0
1281.094604 164.0
1281.265625 204.0
1281.500732 184.0
1281.557739 136.0
1281.792847 64.0
1282.120605 44.0
1282.213257 160.0
1282.697998 132.0
1282.833374 156.0
1282.975952 104.0
1283.546387 128.0
1283.817383 148.0
1284.159668 200.0
1284.295166 132.0
1284.352295 156.0
1284.559082 36.0
1284.796753 212.0
1284.855469 140.0
1284.937256 48.0
1285.065674 120.0
1285.143555 96.0
1285.244019 132.0
1285.665039 176.0
1285.936279 140.0
1286.186035 148.0
1286.550171 80.0
1286.650024 116.0
1287.042725 128.0
1287.335571 140.0
1287.542603 120.0
1288.8927 124.0
1289.071411 140.0
1289.500244 96.0
1289.657471 152.0
1290.057739 176.0
1290.207886 136.0
1291.401978 124.0
1291.852661 308.0
1292.00293 88.0
1292.131714 148.0
1292.732666 76.0
1292.875854 168.0
1292.95459 44.0
1293.05481 164.0
1293.269531 172.0
1293.806396 184.0
1294.493652 120.0
1295.396362 168.0
1295.510742 164.0
1295.718506 104.0
1296.012329 200.0
1296.549683 172.0
1296.802002 144.0
1296.974731 216.0
1297.481567 72.0
1297.890259 200.0
1298.105347 116.0
1298.714966 228.0
1298.779541 164.0
1298.836914 160.0
1299.119141 136.0
1299.948975 136.0
1299.999146 52.0
1300.070923 188.0
1300.365112 208.0
1300.55835 180.0
1301.42041 232.0
1301.49939 176.0
1301.571167 164.0
1301.82251 132.0
1302.124146 108.0
1302.361206 180.0
1302.69165 220.0
1303.62561 156.0
1303.755005 104.0
1304.179077 120.0
1304.30127 176.0
1304.552856 200.0
1305.473145 144.0
1306.026855 48.0
1306.328979 220.0
1306.393799 176.0
1306.746338 108.0
1306.820068 176.0
1307.077271 148.0
1307.134888 84.0
1308.106445 76.0
1308.776001 148.0
1308.833618 124.0
1308.984863 184.0
1309.099976 420.0
1309.474487 252.0
1309.568115 136.0
1309.81311 180.0
1310.238037 136.0
1310.648804 192.0
1310.872192 236.0
1310.92981 140.0
1311.073853 264.0
1311.304565 208.0
1311.874023 136.0
1312.046997 160.0
1312.111816 192.0
1312.176758 68.0
1312.292114 116.0
1312.933838 188.0
1313.070923 164.0
1314.41272 196.0
1314.466187 128.0
1314.824097 64.0
1315.091064 136.0
1315.401489 136.0
1316.253418 72.0
1316.578125 140.0
1317.040649 144.0
1317.16333 164.0
1317.7052 120.0
1318.572266 152.0
1318.724121 72.0
1318.890381 220.0
1319.143311 44.0
1319.295166 192.0
1319.483154 112.0
1319.562622 192.0
1319.793945 260.0
1320.003662 128.0
1320.517212 36.0
1320.770264 136.0
1321.009033 112.0
1321.168213 44.0
1321.385254 64.0
1321.479248 192.0
1321.978516 192.0
1322.296997 140.0
1322.528564 224.0
1322.702271 152.0
1323.19458 124.0
1323.556641 228.0
1323.773804 176.0
1323.94043 140.0
1323.991089 216.0
1324.571899 248.0
1325.809448 180.0
1326.222534 132.0
1326.70105 136.0
1326.889526 200.0
1327.092529 128.0
1327.251953 128.0
1327.630371 116.0
1328.11499 204.0
1328.44873 48.0
1328.775146 172.0
1328.851807 204.0
1328.971069 152.0
1329.8927 188.0
1330.204834 276.0
1331.025146 76.0
1331.206787 80.0
1331.337402 128.0
1331.540771 48.0
1331.715088 132.0
1332.078247 144.0
1332.28894 180.0
1332.550537 96.0
1332.76123 120.0
1333.386108 212.0
1333.865845 164.0
1334.389282 208.0
1334.760132 72.0
1335.014648 116.0
1335.152832 160.0
1335.370972 144.0
1335.589233 144.0
1335.69104 88.0
1335.996704 200.0
1336.091187 168.0
1336.302124 148.0
1336.622314 164.0
1338.929932 140.0
1339.416748 144.0
1339.505371 144.0
1339.578125 84.0
1339.658325 232.0
1339.920532 92.0
1340.350464 152.0
1340.713379 212.0
1340.838745 44.0
1340.918823 168.0
1341.166626 128.0
1341.357178 140.0
1341.601685 172.0
1341.844604 56.0
1342.092529 60.0
1342.27478 192.0
1342.362305 184.0
1342.55188 140.0
1342.821777 160.0
1342.938477 152.0
1343.026001 204.0
1343.164551 96.0
1343.383423 172.0
1343.500122 116.0
1343.821167 196.0
1343.929077 188.0
1344.524902 152.0
1345.485229 264.0
1345.63855 152.0
1345.842896 204.0
1346.054688 124.0
1346.142334 160.0
1346.638916 152.0
1347.069824 200.0
1347.25647 180.0
1347.581299 160.0
1348.121948 156.0
1348.312012 216.0
1348.575073 188.0
1348.889404 172.0
1349.181763 172.0
1349.869141 156.0
1349.949585 164.0
1350.373779 176.0
1350.508545 112.0
1350.768677 124.0
1351.061279 136.0
1351.156372 140.0
1351.375854 132.0
1351.807617 144.0
1352.063721 196.0
1352.378418 124.0
1352.458984 40.0
1352.598022 180.0
1352.773682 140.0
1353.223999 176.0
1353.359375 212.0
1353.828125 208.0
1353.989136 176.0
1354.084351 112.0
1354.13562 120.0
1354.549561 148.0
1354.750977 128.0
1354.890137 192.0
1355.249146 124.0
1355.754761 228.0
1355.80603 136.0
1355.901367 204.0
1355.989258 192.0
1356.101685 168.0
1356.934937 200.0
1357.088867 132.0
1357.140137 92.0
1358.049561 60.0
1358.174194 128.0
1358.790405 164.0
1358.99585 64.0
1359.377441 212.0
1359.538818 124.0
1359.663574 176.0
1360.272827 52.0
1360.566528 164.0
1360.61792 104.0
1360.764648 196.0
1361.447632 244.0
1361.579834 200.0
1361.800171 160.0
1361.866211 216.0
1362.254639 160.0
1362.527344 192.0
1362.843262 180.0
1362.938843 176.0
1363.034302 152.0
1363.614868 136.0
1363.673706 92.0
1364.276367 108.0
1364.582031 204.0
1364.798462 72.0
1364.884888 164.0
1364.914185 124.0
1365.070435 180.0
1365.180786 148.0
1365.49707 168.0
1365.857422 72.0
1365.91626 168.0
1366.091187 160.0
1366.247314 360.0
1366.401855 152.0
1366.512207 148.0
1366.725586 160.0
1366.968384 124.0
1367.130249 120.0
1367.46875 192.0
1367.652832 156.0
1367.789185 92.0
1367.851562 128.0
1368.020874 188.0
1368.55835 248.0
1369.257812 188.0
1369.530396 176.0
1369.729248 152.0
1370.200684 140.0
1370.885986 172.0
1370.974365 128.0
1371.07019 52.0
1371.250122 168.0
1371.475586 92.0
1371.54187 160.0
1371.596558 172.0
1371.873657 132.0
1372.064209 192.0
1372.360229 68.0
1372.669922 152.0
1373.178711 236.0
1373.289429 168.0
1373.495972 128.0
1373.857422 184.0
1374.351685 136.0
1375.133911 180.0
1376.034546 160.0
1376.174805 112.0
1376.278198 180.0
1376.942749 128.0
1377.07605 168.0
1377.171753 152.0
1377.245605 156.0
1377.315552 120.0
1377.48938 180.0
1377.622314 80.0
1377.969604 92.0
1378.109985 124.0
1378.191162 176.0
1378.519897 108.0
1379.092773 116.0
1379.203613 188.0
1379.469727 140.0
1379.817261 180.0
1380.061157 92.0
1380.127808 216.0
1380.326294 144.0
1380.658691 212.0
1380.94165 132.0
1381.466431 124.0
1381.699463 368.0
1381.799316 152.0
1382.080444 140.0
1382.23584 160.0
1382.539307 124.0
1382.656616 172.0
1383.005493 44.0
1383.254272 264.0
1383.582886 176.0
1383.738403 128.0
1384.382568 44.0
1384.441895 112.0
1384.789917 64.0
1385.078735 348.0
1385.271362 200.0
1385.449219 100.0
1385.775146 152.0
1386.086304 152.0
1386.21228 184.0
1386.689575 160.0
1387.101685 196.0
1387.183228 164.0
1387.253174 204.0
1387.568726 136.0
1387.723511 188.0
1388.214844 204.0
1388.384399 28.0
1388.706299 80.0
1388.881348 208.0
1389.133545 168.0
1389.200317 100.0
1389.304199 140.0
1389.602905 204.0
1390.060913 124.0
1390.276123 112.0
1390.405273 192.0
1390.600586 144.0
1390.912109 152.0
1391.114868 240.0
1391.206909 148.0
1391.671631 152.0
1392.146851 128.0
1392.217407 144.0
1392.429077 184.0
1392.646484 308.0
1392.728882 124.0
1393.112427 164.0
1393.35022 104.0
1393.47644 140.0
1393.892822 128.0
1393.981812 64.0
1394.403687 140.0
1394.561401 148.0
1394.69519 224.0
1395.252808 128.0
1395.438599 144.0
1395.624512 156.0
1395.85498 160.0
1395.936768 140.0
1395.996338 168.0
1396.345825 128.0
1396.844116 180.0
1397.017944 208.0
1397.119385 212.0
1397.178955 124.0
1397.313354 264.0
1397.55835 192.0
1398.176025 160.0
1398.317383 188.0
1398.488647 204.0
1398.838501 148.0
1398.93335 128.0
1399.380859 140.0
1399.608765 196.0
1400.230835 160.0
1400.498901 204.0
1400.618164 164.0
1400.984985 160.0
1401.050171 216.0
1401.251343 156.0
1401.325806 128.0
1401.527466 180.0
1402.026245 172.0
1402.159424 144.0
1402.630005 144.0
1403.144409 164.0
1403.218872 168.0
1403.576782 164.0
1404.203613 176.0
1404.620972 188.0
1404.799927 136.0
1404.867065 104.0
1405.344604 140.0
1405.657959 156.0
1406.105713 152.0
1406.172852 84.0
1406.400391 124.0
1406.491211 136.0
1406.538574 192.0
1406.665527 140.0
1406.784912 144.0
1406.971558 84.0
1407.210449 168.0
1407.285156 164.0
1407.479248 148.0
1407.539062 144.0
1407.710815 176.0
1407.777954 216.0
1407.875122 148.0
1408.024414 148.0
1408.248535 112.0
1408.883423 160.0
1409.047729 228.0
1409.331665 140.0
1409.54834 112.0
1410.170776 196.0
1410.355469 140.0
1410.415283 192.0
1410.699341 112.0
1410.908691 164.0
1411.020874 120.0
1411.1073 120.0
1411.230225 40.0
1412.381836 100.0
1412.621216 128.0
1413.593872 148.0
1413.960571 176.0
1414.189331 204.0
1414.514404 188.0
1414.694092 236.0
1414.795898 132.0
1414.911255 136.0
1415.165771 84.0
1415.277466 136.0
1415.472778 140.0
1415.746094 212.0
1416.442871 180.0
1416.57373 144.0
1416.925781 96.0
1417.165527 176.0
1417.435303 156.0
1417.510254 132.0
1417.989868 172.0
1418.229736 72.0
1418.349609 196.0
1418.477051 128.0
1418.79187 160.0
1418.934326 184.0
1419.571655 156.0
1420.081665 200.0
1420.25415 188.0
1420.381714 188.0
1420.516724 188.0
1420.90686 60.0
1421.236938 176.0
1421.492065 156.0
1421.674927 108.0
1421.724731 228.0
1421.874756 224.0
1422.062378 124.0
1422.205078 140.0
1422.385132 116.0
1422.647949 216.0
1422.723022 144.0
1422.858154 208.0
1423.03833 136.0
1423.699097 152.0
1424.375122 176.0
1424.562866 180.0
1424.795776 148.0
1424.946045 208.0
1425.081299 208.0
1425.284058 220.0
1425.494507 136.0
1425.765015 68.0
1425.84021 156.0
1426.073242 204.0
1426.246094 172.0
1426.623047 156.0
1426.674561 212.0
1426.76001 176.0
1426.839966 116.0
1426.952759 148.0
1427.870117 52.0
1428.231079 144.0
1428.306396 172.0
1428.74707 216.0
1428.907349 208.0
1429.399292 164.0
1429.720825 172.0
1429.83374 164.0
1430.368164 152.0
1430.511108 172.0
1430.691772 180.0
1431.271484 192.0
1431.663086 172.0
1432.004028 180.0
1432.265625 180.0
1432.438843 124.0
1432.5896 164.0
1433.440918 200.0
1433.591675 148.0
1434.254883 40.0
1434.345337 336.0
1434.707153 188.0
1434.954346 164.0
1435.06543 220.0
1435.136963 220.0
1436.21521 248.0
1436.711548 128.0
1437.188477 164.0
1437.271484 120.0
1437.390503 144.0
1437.588379 152.0
1438.154419 164.0
1438.803711 176.0
1438.856445 132.0
1438.962158 172.0
1439.075439 120.0
1439.128296 120.0
1439.193481 128.0
1439.216309 80.0
1439.238159 180.0
1439.339722 132.0
1439.661499 144.0
1439.851562 168.0
1439.893799 212.0
1440.117554 212.0
1440.276245 188.0
1440.45752 132.0
1440.522705 328.0
1440.578369 124.0
1440.653931 140.0
1440.827637 120.0
1441.031616 124.0
1441.197876 152.0
1441.37915 64.0
1441.484253 160.0
1441.651245 124.0
1441.938477 148.0
1442.248291 160.0
1442.354126 184.0
1442.481812 148.0
1442.800171 224.0
1442.884399 140.0
1443.380737 148.0
1443.677246 176.0
1443.9646 156.0
1444.191528 212.0
1444.3125 112.0
1444.520996 112.0
1444.766357 232.0
1444.887451 64.0
1445.167358 52.0
1445.288452 36.0
1446.279907 196.0
1446.401001 208.0
1446.688599 32.0
1446.755981 212.0
1447.339722 156.0
1447.3927 184.0
1447.49292 168.0
1447.615967 168.0
1447.945557 100.0
1448.013672 68.0
1448.172729 180.0
1448.22583 160.0
1448.324219 84.0
1448.384888 100.0
1448.543945 180.0
1448.677002 208.0
1448.984253 200.0
1449.411011 160.0
1449.695557 248.0
1449.991089 52.0
1450.392822 116.0
1450.71582 176.0
1450.938599 180.0
1451.014404 140.0
1451.696899 56.0
1451.959106 136.0
1452.068481 232.0
1452.187134 248.0
1452.52356 220.0
1452.629761 196.0
1453.069702 140.0
1453.342896 76.0
1453.684326 164.0
1453.980347 148.0
1454.268677 156.0
1454.420532 172.0
1454.701416 168.0
1454.853271 160.0
1455.179688 152.0
1455.742432 184.0
1456.399048 344.0
1456.652954 132.0
1456.822266 128.0
1456.934082 208.0
1457.040405 180.0
1457.124023 172.0
1457.921875 168.0
1458.229614 120.0
1458.312988 196.0
1458.476685 104.0
1458.837891 144.0
1459.099976 216.0
1459.533325 172.0
1459.746338 60.0
1459.959229 136.0
1460.187378 76.0
1460.445923 188.0
1460.986084 204.0
1461.129883 168.0
1461.297974 144.0
1461.632812 188.0
1462.355713 188.0
1462.812378 144.0
1462.905151 200.0
1463.033203 112.0
1463.40625 256.0
1464.571411 192.0
1464.655151 60.0
1464.716064 172.0
1465.028442 220.0
1465.096802 136.0
1465.630371 152.0
1465.752197 108.0
1465.866577 100.0
1466.12561 136.0
1466.23999 228.0
1466.430542 136.0
1466.651489 160.0
1467.269043 220.0
1467.429077 216.0
1467.535889 156.0
1467.764404 180.0
1468.027954 236.0
1468.092529 132.0
1468.489014 248.0
1469.038208 136.0
1469.434937 184.0
1469.633301 116.0
1469.801147 144.0
1470.091187 120.0
1470.238037 180.0
1470.449829 272.0
1470.625366 108.0
1471.320068 72.0
1472.03772 76.0
1472.312744 40.0
1472.54187 152.0
1472.656372 92.0
1472.84729 252.0
1473.015381 80.0
1473.496704 128.0
1473.618896 168.0
1474.054443 180.0
1474.237793 172.0
1474.352417 136.0
1474.780518 204.0
1474.994507 84.0
1475.116821 152.0
1475.216187 192.0
1475.55249 176.0
1476.133667 140.0
1476.255981 236.0
1476.653687 148.0
1476.83728 156.0
1477.013184 156.0
1477.166138 180.0
1477.288574 172.0
1477.357422 228.0
1477.411011 264.0
1478.259033 132.0
1478.428589 156.0
1478.635254 132.0
1478.918457 88.0
1479.603638 232.0
1479.752808 96.0
1479.829346 88.0
1479.967163 160.0
1480.549194 168.0
1481.016357 140.0
1481.108276 92.0
1481.184937 176.0
1481.269165 184.0
1482.127197 160.0
1482.240845 164.0
1482.533325 208.0
1482.678955 124.0
1482.756714 168.0
1482.99646 124.0
1483.629395 108.0
1484.03186 124.0
1484.242798 92.0
1484.51123 172.0
1484.733521 196.0
1485.001953 108.0
1485.301147 172.0
1485.406616 116.0
1485.585815 176.0
1485.692383 208.0
1486.037598 120.0
1486.290771 132.0
1486.367554 76.0
1486.47876 100.0
1486.567017 144.0
1486.73584 216.0
1487.170532 196.0
1487.61084 204.0
1487.744751 180.0
1487.902588 172.0
1488.416992 128.0
1488.509155 52.0
1488.693481 172.0
1489.00061 120.0
1489.085083 132.0
1489.200317 240.0
1489.284668 152.0
1489.400024 104.0
1489.998535 136.0
1490.283447 140.0
1490.421753 128.0
1490.490967 216.0
1490.644653 64.0
1490.909424 140.0
1491.305542 52.0
1491.428589 164.0
1491.912842 172.0
1492.05896 56.0
1492.374146 244.0
1492.689331 84.0
1493.280762 228.0
1493.766113 104.0
1493.838501 88.0
1494.163696 148.0
1494.266235 116.0
1494.635498 68.0
1495.397339 164.0
1495.535889 180.0
1496.059326 116.0
1496.151733 144.0
1496.334229 204.0
1496.621338 152.0
1496.844727 112.0
1496.931641 140.0
1497.753418 216.0
1497.815063 128.0
1498.084717 172.0
1498.146362 172.0
1498.539185 92.0
1498.793457 108.0
1499.137573 116.0
1499.317505 220.0
1500.034302 136.0
1500.602783 188.0
1500.766724 116.0
1501.298828 116.0
1501.422119 188.0
1501.483887 156.0
1501.668945 120.0
1501.730713 144.0
1501.815552 176.0
1501.877197 36.0
1501.931152 192.0
1502.347778 124.0
1502.471191 224.0
1502.579224 140.0
1502.733521 188.0
1502.787476 148.0
1502.895508 208.0
1503.019043 144.0
1503.196411 104.0
1503.412598 212.0
1503.713501 228.0
1503.898804 212.0
1504.307861 136.0
1504.616699 148.0
1505.296143 172.0
