>compound Fluorometholone
>formula C22H29FO4 
>ionization [M+H]+
>parentmass 377.213074
#inchi InChI=1S/C22H29FO4/c1-12-9-17-15-6-8-21(27,13(2)24)20(15,4)11-18(26)22(17,23)19(3)7-5-14(25)10-16(12)19/h5,7,10,12,15,17-18,26-27H,6,8-9,11H2,1-4H3/t12-,15-,17-,18-,19-,20-,21-,22-/m0/s1
#inchikey FAOZLTXFLGPHNG
#Ion_Source LC-ESI
#Instrument qTof
#Compound_Source Commercial
#PI Dorrestein
#Data_Collector Garg_Neha
#Scan -1
#Precursor_MZ 377.215
#ExactMass 376.205
#Charge 1
#CAS_Number N/A
#Pubmed_ID N/A
#Smiles N/A
#INCHI_AUX N/A
#Library_Class 1
#SpectrumID CCMSLIB00000077149
#IonMode Positive
#UpdateWorkflowName UPDATE-SINGLE-ANNOTATED-GOLD
#LibraryQualityString Gold
#TaskID 48f7f52fc6d249b5abbcc6e7b3df5969
##Scan# 1330
#SpectrumFile NCP003195_E2E6F2F6G2G6H2H6_BB7_01_15711.mzXML
#LibraryName NIH_Clinical_Collection_2.mgf
#MQScore -1
#Organism NIHcollection2_04212014_2_mgf
#TIC_Query 0
#RT_Query -1
#MZErrorPPM -1
#SharedPeaks 0
#MassDiff 0
#LibMZ -1
#SpecMZ 377.215
#SpecCharge 0
#internalFilename spec-00000.mgf

>collision 10
46.670547 156.0
47.383011 172.0
47.435085 144.0
48.059597 212.0
48.189255 156.0
48.306767 188.0
50.882786 220.0
51.437988 140.0
52.39883 156.0
53.87722 144.0
55.217808 172.0
55.402836 224.0
55.466557 160.0
55.998489 212.0
56.657238 156.0
57.015854 244.0
57.798508 244.0
57.830288 148.0
59.412029 208.0
60.308239 248.0
61.312416 156.0
61.718285 184.0
62.771923 176.0
63.198406 144.0
63.426456 200.0
63.512081 144.0
64.054115 172.0
64.428993 160.0
64.923592 188.0
67.072395 152.0
67.814461 200.0
69.057556 156.0
71.246284 216.0
71.584358 176.0
71.65847 152.0
72.158043 148.0
73.044983 164.0
74.129135 160.0
74.530663 200.0
74.716347 256.0
76.253601 144.0
79.266106 228.0
79.627068 168.0
83.442207 172.0
83.600456 188.0
83.744286 152.0
83.928345 160.0
87.974602 212.0
88.127747 176.0
89.321953 200.0
89.544052 168.0
89.873947 140.0
90.730721 160.0
91.074181 168.0
94.488426 228.0
94.804039 180.0
95.086121 808.0
95.110474 176.0
97.045044 184.0
97.104553 144.0
97.546341 196.0
97.626953 148.0
99.082169 176.0
100.182266 144.0
100.7668 140.0
101.061615 516.0
102.152092 140.0
103.048309 232.0
103.642044 160.0
104.720757 176.0
105.070732 464.0
105.250977 164.0
107.087021 860.0
108.05867 196.0
108.433472 168.0
108.858757 152.0
108.991699 140.0
109.064636 1040.0
109.099228 112.0
109.41436 148.0
110.070686 240.0
110.227097 164.0
110.672882 152.0
111.086479 240.0
111.249428 164.0
111.432144 140.0
111.472061 164.0
112.725883 200.0
113.062668 216.0
114.48661 156.0
115.053848 284.0
116.059189 156.0
117.068436 292.0
117.448494 144.0
118.631432 212.0
119.0849 460.0
120.089119 192.0
121.065361 2108.0
121.100128 348.0
122.06929 288.0
123.044159 168.0
123.079582 720.0
123.108711 152.0
124.081139 184.0
124.540634 260.0
125.041374 140.0
125.059372 568.0
125.096855 220.0
125.230621 152.0
127.052246 156.0
128.061264 200.0
129.072754 268.0
131.045166 144.0
131.090515 200.0
131.15683 152.0
131.188751 172.0
131.992401 156.0
132.059387 140.0
132.088455 280.0
132.115906 156.0
132.920105 144.0
133.062988 304.0
133.100143 348.0
133.349548 144.0
133.473694 152.0
134.069901 180.0
134.109085 156.0
135.045486 156.0
135.081116 8980.0
135.149399 164.0
135.370483 140.0
136.08345 1036.0
136.142715 184.0
136.41687 164.0
137.094818 680.0
138.101395 288.0
138.19632 168.0
138.706863 172.0
138.767807 184.0
138.915558 180.0
139.076218 916.0
140.079163 160.0
140.503494 216.0
141.067825 404.0
141.117538 172.0
141.230072 116.0
142.080154 300.0
142.489807 212.0
142.903503 160.0
143.086594 728.0
143.196289 168.0
143.704041 204.0
144.059464 160.0
144.083176 180.0
145.06366 1316.0
145.10144 596.0
145.139145 160.0
146.076599 528.0
146.10701 236.0
147.080139 1760.0
147.11586 452.0
147.35144 132.0
147.534744 156.0
148.085175 540.0
148.396622 152.0
149.095673 1804.0
149.131897 480.0
149.267105 152.0
149.574844 292.0
149.596756 164.0
150.042572 148.0
150.100235 124.0
150.496368 160.0
151.076996 516.0
152.080246 208.0
153.104706 140.0
154.09462 144.0
155.03241 208.0
155.086151 408.0
155.292725 192.0
155.756882 180.0
155.85376 140.0
156.094757 244.0
157.072723 176.0
157.099197 776.0
157.56543 196.0
158.071381 704.0
158.103027 272.0
158.947525 156.0
159.08017 1872.0
159.117249 240.0
159.309067 248.0
159.386948 148.0
159.803955 180.0
160.084259 776.0
160.116699 132.0
160.870056 160.0
161.060318 304.0
161.096283 8316.0
161.128769 452.0
161.737106 172.0
161.980484 148.0
162.06662 144.0
162.098465 852.0
163.074341 348.0
163.111496 760.0
163.19751 144.0
163.23555 108.0
163.493713 140.0
163.868027 156.0
164.755859 160.0
165.092773 2928.0
165.454025 196.0
165.794693 192.0
166.09523 548.0
166.710846 156.0
167.087738 284.0
167.110443 180.0
168.045059 152.0
168.093689 348.0
168.775604 180.0
168.938538 152.0
169.063522 172.0
169.099472 212.0
169.518509 236.0
170.068695 348.0
170.10524 176.0
170.73082 168.0
171.080414 148.0
171.112076 256.0
171.381592 216.0
171.754395 196.0
172.087799 824.0
172.12236 184.0
172.807175 200.0
173.096893 2024.0
173.710999 152.0
174.098785 440.0
174.13678 168.0
175.069839 288.0
175.111465 1448.0
176.112534 240.0
176.161774 180.0
177.090317 844.0
177.124634 492.0
178.074188 324.0
179.086777 688.0
179.106796 500.0
180.087738 224.0
180.157196 144.0
181.074295 180.0
181.099182 280.0
182.06427 196.0
182.101868 180.0
183.077713 420.0
183.119858 176.0
184.01918 152.0
184.082626 180.0
184.873337 176.0
184.97348 160.0
185.095947 4148.0
185.134644 272.0
185.225296 160.0
185.295731 164.0
186.100082 500.0
186.207153 152.0
186.913971 148.0
187.081619 208.0
187.113831 1976.0
187.240631 164.0
187.613937 144.0
188.111526 256.0
188.15683 168.0
189.081177 120.0
189.127884 1696.0
189.157364 172.0
190.04805 148.0
190.095245 120.0
190.128479 640.0
190.566971 140.0
191.0811 180.0
191.108749 372.0
191.269012 128.0
191.59317 172.0
192.04248 168.0
192.136276 168.0
192.662842 168.0
193.105057 668.0
194.108475 244.0
194.19986 176.0
194.532822 160.0
194.946671 212.0
195.083771 1012.0
195.121628 216.0
195.449966 180.0
196.088745 704.0
196.110611 140.0
196.137848 148.0
196.639908 156.0
197.096359 472.0
197.128342 120.0
197.575989 140.0
198.104279 308.0
198.435776 192.0
199.079712 276.0
199.110718 868.0
199.300247 156.0
200.115723 352.0
200.955811 152.0
201.090042 652.0
201.12616 632.0
202.091293 152.0
202.12854 176.0
202.646561 164.0
203.108292 548.0
204.091217 300.0
204.395599 152.0
204.705872 168.0
205.093033 316.0
205.139084 156.0
206.107895 164.0
206.130829 164.0
206.246475 168.0
207.093399 168.0
207.118332 316.0
207.620743 168.0
208.090027 352.0
208.12735 304.0
208.332581 156.0
209.065765 156.0
209.095413 1372.0
209.132004 1228.0
209.979019 184.0
210.101624 600.0
211.030136 232.0
211.073502 140.0
211.111954 1180.0
211.550873 152.0
211.713013 192.0
211.863632 216.0
212.086761 228.0
212.118744 448.0
213.099731 192.0
213.126617 980.0
213.948776 140.0
214.098907 192.0
214.127396 316.0
214.764679 160.0
215.08017 160.0
215.107788 272.0
215.140854 476.0
215.383469 164.0
215.564606 232.0
216.112671 152.0
216.152359 140.0
217.121857 932.0
218.119141 268.0
218.464325 160.0
218.932983 208.0
218.997101 228.0
219.07547 112.0
219.115646 400.0
219.147339 200.0
219.226898 168.0
219.483353 208.0
220.086777 308.0
220.120926 336.0
221.098129 696.0
221.127609 256.0
222.103073 856.0
223.111511 1700.0
224.115128 888.0
225.092087 196.0
225.127762 1216.0
226.10524 176.0
227.107208 1076.0
227.141846 864.0
228.115463 112.0
229.123154 1476.0
230.066666 196.0
230.124893 460.0
231.139069 1096.0
232.087036 472.0
232.139374 276.0
233.094116 472.0
233.134232 1376.0
234.102844 908.0
234.137161 400.0
235.111923 1292.0
235.144547 296.0
235.86882 176.0
236.024734 148.0
236.12114 1928.0
236.167572 124.0
237.090012 156.0
237.127869 5556.0
237.157944 304.0
237.212616 228.0
237.274872 116.0
238.103058 132.0
238.132614 956.0
238.584808 156.0
239.145218 1188.0
239.175827 140.0
239.37941 152.0
240.149185 944.0
241.116531 248.0
241.154205 452.0
241.433868 192.0
243.140869 260.0
244.106934 128.0
245.068817 156.0
245.099976 176.0
245.128891 328.0
245.842117 196.0
246.103683 312.0
247.057556 140.0
247.107605 376.0
247.143051 652.0
247.260941 204.0
248.1203 540.0
249.12796 2816.0
250.134705 928.0
250.166901 220.0
250.970856 164.0
251.107895 148.0
251.14386 7528.0
252.05983 164.0
252.109772 144.0
252.145828 1736.0
253.121078 472.0
253.157745 1408.0
253.274673 204.0
253.826111 140.0
254.15741 920.0
254.3591 140.0
254.911728 212.0
255.138245 516.0
255.176025 156.0
255.283646 148.0
256.146057 300.0
257.148376 188.0
258.095764 144.0
258.15802 156.0
258.419159 176.0
259.108154 860.0
259.144196 276.0
260.115875 248.0
260.157166 156.0
260.319916 160.0
261.078339 180.0
261.132721 520.0
261.164398 884.0
261.197327 168.0
262.134857 636.0
262.524261 160.0
263.088226 156.0
263.143433 1408.0
264.104675 116.0
264.146729 1296.0
264.588928 156.0
265.128357 380.0
265.15509 616.0
266.158966 140.0
266.635712 192.0
267.138123 1840.0
268.141022 264.0
268.178101 176.0
269.154724 2500.0
269.447784 232.0
270.127747 188.0
270.157074 680.0
271.158295 296.0
272.103851 176.0
272.179382 144.0
272.307465 144.0
273.129639 416.0
273.201508 140.0
273.240997 156.0
274.021271 164.0
274.100342 144.0
274.133545 1120.0
275.134674 120.0
275.176605 232.0
275.552124 152.0
276.046112 204.0
276.151855 144.0
276.573944 196.0
277.116241 140.0
277.158752 1636.0
277.829834 156.0
278.121857 156.0
278.166321 1416.0
278.33432 172.0
278.721283 112.0
278.902405 180.0
279.061981 156.0
279.139801 2136.0
279.17514 37704.0
279.561951 116.0
279.619232 108.0
279.863831 212.0
280.143005 320.0
280.17865 6860.0
281.148468 592.0
281.181244 880.0
281.62796 176.0
282.053925 164.0
282.084473 128.0
282.156647 380.0
282.263245 160.0
282.433472 324.0
283.159576 140.0
283.197723 144.0
284.064758 220.0
284.121796 172.0
285.141022 192.0
285.166809 108.0
285.922821 140.0
286.168549 280.0
287.140991 364.0
287.473022 192.0
287.554016 212.0
287.682281 180.0
288.151642 556.0
288.591064 140.0
288.949585 164.0
289.156525 316.0
291.142975 124.0
292.14856 156.0
293.139832 184.0
293.189362 2404.0
293.299713 140.0
293.378113 176.0
294.193939 964.0
295.170105 2152.0
296.067139 196.0
296.173309 532.0
296.433685 188.0
297.064545 220.0
297.149872 564.0
297.18454 5844.0
297.703949 136.0
298.155579 216.0
298.187561 1228.0
299.103485 156.0
299.142273 208.0
299.153625 228.0
299.184753 384.0
300.190033 124.0
302.813965 164.0
303.129211 144.0
303.174561 6356.0
304.177765 1224.0
305.186371 224.0
306.157379 136.0
307.16568 456.0
308.164093 156.0
308.803833 188.0
309.181671 132.0
309.559753 160.0
311.19989 1428.0
312.209259 568.0
312.414948 132.0
313.200195 172.0
314.201782 340.0
315.158417 284.0
315.18869 244.0
316.17569 160.0
317.153931 164.0
317.190735 432.0
318.07428 152.0
318.200439 268.0
319.197205 108.0
320.663635 260.0
320.884644 176.0
320.952393 144.0
320.986847 100.0
321.027283 212.0
321.186279 21364.0
321.437073 100.0
321.934845 128.0
322.188629 4620.0
322.970154 164.0
323.18808 588.0
324.15802 180.0
324.187286 156.0
324.307617 96.0
324.371796 116.0
324.431122 140.0
326.17215 172.0
330.814667 144.0
331.198517 148.0
332.173553 208.0
337.242126 184.0
338.032074 204.0
338.694733 140.0
338.866638 112.0
339.058441 204.0
339.19696 27252.0
339.60675 108.0
340.199097 4496.0
340.310944 156.0
340.354797 96.0
340.484558 164.0
340.671875 160.0
341.194183 1864.0
342.191589 788.0
342.816925 144.0
342.864838 148.0
343.192078 108.0
346.256317 140.0
356.612396 136.0
357.206665 15916.0
357.97171 184.0
358.209198 2524.0
359.205688 1576.0
360.209778 500.0
360.506714 148.0
369.139801 152.0
373.900574 148.0
375.24054 148.0
375.76944 144.0
376.171173 392.0
376.307251 116.0
377.166107 240.0
377.213074 11016.0
378.216125 1812.0
379.220642 280.0
379.40094 204.0
380.058716 100.0
501.963318 140.0
592.454651 216.0
978.122131 168.0
1308.929565 148.0
1323.146118 216.0
1468.558838 184.0
1552.392944 224.0
1552.651733 244.0
1553.05957 156.0
1615.105469 140.0
1673.095215 184.0
1675.522095 172.0
1756.78833 160.0
1763.55188 148.0
1769.32373 144.0
1786.763184 160.0
1815.702393 192.0
1829.356689 152.0
1831.093628 148.0
1843.626099 216.0
1889.65564 184.0
1907.885498 240.0
1940.765625 140.0
1990.718994 208.0
1991.091919 164.0
