>compound Melatonin
>formula C13H16N2O2
>ionization [M+H]+
>parentmass 233.128632
#inchi InChI=1S/C13H16N2O2/c1-9(16)14-6-5-10-8-15-13-4-3-11(17-2)7-12(10)13/h3-4,7-8,15H,5-6H2,1-2H3,(H,14,16)
#inchikey DRLFMBDRBRZALE
#Ion_Source LC-ESI
#Instrument qTof
#Compound_Source Commercial
#PI Dorrestein
#Data_Collector Garg_Neha
#Scan -1
#Precursor_MZ 233.128
#ExactMass 232.121
#Charge 1
#CAS_Number 73-31-4
#Pubmed_ID N/A
#Smiles C1=CC(=CC2=C1NC=C2CCNC(=O)C)OC
#INCHI_AUX N/A
#Library_Class 1
#SpectrumID CCMSLIB00000078045
#IonMode Positive
#UpdateWorkflowName UPDATE-SINGLE-ANNOTATED-GOLD
#LibraryQualityString Gold
#TaskID 77f51c88eb8b467eb4a01dd2d0cb90d2
##Scan# 1127
#SpectrumFile Plate1_41_60_GG3_01_16490.mzXML
#LibraryName FDALibrary_2_04302014.mgf
#MQScore -1
#Organism FDALibrary_2_04302014
#TIC_Query 0
#RT_Query -1
#MZErrorPPM -1
#SharedPeaks 0
#MassDiff 0
#LibMZ -1
#SpecMZ 233.128
#SpecCharge 0
#internalFilename spec-00000.mgf

>collision 10
45.087193 184.0
45.105904 188.0
45.172768 188.0
45.308975 124.0
45.324059 176.0
45.342819 148.0
45.501106 148.0
45.623367 168.0
45.652946 216.0
45.679848 228.0
45.693302 192.0
45.737709 164.0
45.846809 172.0
45.912868 208.0
45.939846 220.0
45.976276 164.0
46.016773 184.0
46.084309 224.0
46.195168 164.0
46.489193 212.0
46.498692 188.0
46.671219 152.0
46.853603 164.0
46.874043 148.0
46.944927 156.0
47.092327 204.0
47.110085 148.0
47.187984 176.0
47.282776 204.0
47.310558 244.0
47.419334 152.0
47.459091 216.0
47.618279 156.0
47.653996 196.0
47.72419 172.0
47.752434 224.0
47.824524 152.0
47.874088 164.0
47.925056 156.0
47.977428 180.0
48.086407 244.0
48.225105 228.0
48.274296 204.0
48.348862 200.0
48.358898 212.0
48.379456 192.0
48.491238 172.0
48.554047 160.0
48.5956 184.0
49.081104 140.0
49.095051 152.0
49.11039 152.0
49.202492 196.0
49.258354 180.0
49.278011 172.0
49.30027 160.0
49.620823 196.0
49.731647 148.0
49.763302 152.0
49.840454 268.0
49.888977 180.0
49.966328 144.0
50.018398 148.0
50.284798 156.0
50.613689 124.0
50.645351 184.0
50.704857 196.0
50.724701 224.0
50.798443 196.0
50.867977 160.0
50.897793 140.0
50.920517 192.0
50.992977 144.0
51.091095 180.0
51.133595 180.0
51.217789 236.0
51.40456 184.0
51.501644 160.0
51.607479 216.0
51.657455 168.0
51.835072 220.0
51.962608 168.0
52.037243 220.0
52.083199 152.0
52.142109 192.0
52.442924 164.0
52.459717 160.0
52.590446 188.0
52.608814 172.0
52.644909 216.0
52.699802 172.0
52.900833 200.0
52.981934 152.0
53.022507 164.0
53.032654 176.0
53.121105 148.0
53.176247 164.0
53.25901 200.0
53.30986 232.0
53.330208 188.0
53.460487 208.0
53.539719 184.0
53.599445 140.0
53.616936 172.0
53.672329 232.0
53.714626 180.0
53.749641 156.0
53.822628 140.0
54.014084 208.0
54.040417 196.0
54.230988 152.0
54.263046 156.0
54.315842 172.0
54.373066 176.0
54.469975 156.0
54.552269 164.0
54.643452 156.0
54.721458 204.0
54.772503 224.0
54.870266 164.0
54.933681 160.0
55.113171 224.0
55.218765 156.0
55.362694 208.0
55.454182 188.0
55.472149 164.0
55.503105 188.0
55.585926 144.0
55.657425 200.0
55.724266 168.0
55.808987 200.0
55.926514 204.0
55.95182 196.0
56.155975 164.0
56.18581 156.0
56.244011 176.0
56.35004 164.0
56.409649 176.0
56.514511 244.0
56.665779 136.0
56.712193 236.0
56.974804 204.0
57.137173 188.0
57.274841 232.0
57.441486 200.0
57.541092 192.0
57.612072 160.0
57.63625 192.0
57.729973 172.0
57.822258 180.0
57.900986 144.0
58.058605 176.0
58.113213 152.0
58.34103 168.0
58.380566 148.0
58.421753 152.0
58.517517 188.0
58.531219 172.0
58.643955 176.0
58.920162 156.0
59.065392 168.0
59.336456 148.0
59.568192 156.0
59.731136 208.0
59.868122 148.0
59.952854 208.0
59.971348 212.0
60.001884 104.0
60.193512 156.0
60.249115 160.0
60.327934 152.0
60.372772 152.0
60.405254 180.0
60.581734 168.0
60.887306 180.0
61.165627 180.0
61.22168 196.0
61.249714 144.0
61.305805 232.0
61.331902 188.0
61.400906 200.0
61.424301 168.0
61.70697 140.0
61.813335 148.0
61.911961 152.0
61.974621 164.0
62.236568 172.0
62.461311 196.0
62.507435 172.0
62.557869 156.0
62.785778 196.0
63.013958 192.0
63.153782 208.0
63.367496 180.0
63.591095 156.0
63.67683 168.0
63.761036 152.0
64.430298 296.0
64.755203 144.0
64.993896 224.0
65.395668 156.0
65.418198 196.0
65.630875 152.0
65.677643 208.0
65.738953 180.0
65.766388 160.0
65.868118 272.0
65.892349 200.0
66.05323 196.0
66.112259 188.0
66.173775 192.0
66.386047 164.0
66.691277 144.0
66.782829 208.0
66.951599 196.0
67.003723 156.0
67.02002 160.0
67.062386 172.0
67.27282 196.0
67.414917 168.0
67.631882 268.0
67.671738 228.0
68.004524 208.0
68.071838 164.0
68.354576 188.0
68.571968 180.0
68.649452 172.0
68.781448 140.0
68.795959 192.0
68.837585 264.0
68.870613 196.0
68.976372 176.0
69.251045 192.0
69.281456 224.0
69.367035 172.0
69.410141 160.0
69.431702 168.0
69.483124 164.0
69.51133 188.0
69.56926 164.0
69.966759 256.0
70.17836 156.0
70.231728 184.0
70.303467 192.0
70.323494 216.0
70.37191 180.0
70.478806 152.0
70.490509 204.0
70.577431 164.0
70.627602 152.0
70.692856 188.0
70.801674 196.0
70.8536 180.0
70.898842 168.0
70.913925 212.0
70.987633 236.0
71.039688 192.0
71.19915 172.0
71.605484 160.0
71.692078 160.0
71.710617 176.0
71.744331 200.0
71.872513 168.0
72.071762 244.0
72.201935 160.0
72.252678 208.0
72.352531 184.0
72.379623 140.0
72.720383 180.0
72.749237 160.0
72.960747 152.0
73.031319 148.0
73.199814 228.0
73.213432 192.0
73.230469 216.0
73.325882 192.0
73.462296 184.0
73.489586 164.0
73.597122 188.0
73.714989 140.0
73.780853 188.0
73.82782 148.0
73.985237 168.0
74.058876 160.0
74.206253 192.0
74.250839 140.0
74.274849 276.0
74.295433 180.0
74.549561 216.0
74.604561 216.0
74.634483 180.0
74.722946 216.0
74.750763 188.0
74.940178 176.0
75.069458 252.0
75.260246 236.0
75.348251 148.0
75.492554 172.0
75.62751 180.0
75.759109 156.0
75.899506 168.0
76.015724 180.0
76.271034 192.0
76.460625 160.0
76.530258 240.0
76.547668 224.0
76.610374 212.0
76.727135 152.0
76.932999 156.0
77.104179 160.0
77.147881 212.0
77.207336 180.0
77.314049 172.0
77.326302 156.0
77.350807 232.0
77.450623 212.0
77.497925 216.0
77.536476 156.0
77.760971 196.0
77.875099 180.0
77.890175 144.0
77.957672 240.0
78.029099 264.0
78.177498 144.0
78.381775 188.0
78.438171 164.0
78.507408 208.0
78.575729 140.0
78.91819 228.0
78.973198 232.0
79.066971 204.0
79.134239 160.0
79.529572 148.0
79.55265 240.0
80.111053 200.0
80.139565 232.0
80.246506 176.0
80.410622 204.0
80.453461 200.0
80.587418 224.0
80.649963 168.0
80.676781 232.0
80.719688 216.0
80.740494 196.0
80.98098 232.0
81.194672 124.0
81.300117 196.0
81.362938 172.0
81.59111 192.0
81.639656 172.0
81.713409 192.0
81.752991 196.0
81.81424 164.0
81.987114 224.0
82.021362 168.0
82.167084 164.0
82.226982 160.0
82.299194 200.0
82.346146 192.0
82.38047 220.0
82.637192 184.0
82.996872 184.0
83.079262 216.0
83.095589 208.0
83.1464 248.0
83.159103 164.0
83.288025 184.0
83.469765 152.0
83.538879 228.0
83.558899 148.0
83.711403 224.0
84.242561 200.0
84.521172 220.0
84.743858 196.0
84.78051 152.0
84.857498 192.0
84.945526 204.0
85.015251 192.0
85.02993 264.0
85.165802 208.0
85.346573 188.0
85.489388 168.0
85.691422 184.0
85.778564 156.0
86.073761 252.0
86.236336 168.0
86.267761 152.0
86.460129 168.0
86.523064 236.0
86.617516 204.0
86.637886 164.0
86.932709 140.0
87.250336 168.0
87.453102 156.0
87.669144 156.0
87.721596 144.0
87.892921 188.0
88.126328 172.0
88.219772 200.0
88.261192 184.0
88.317017 184.0
88.434891 192.0
88.477951 156.0
88.67276 152.0
88.755249 160.0
88.798386 224.0
88.963509 172.0
89.128792 228.0
89.378883 148.0
89.459435 200.0
89.559616 232.0
89.627441 140.0
89.650055 156.0
89.706314 212.0
89.772591 176.0
89.840492 172.0
89.927299 324.0
89.941055 152.0
89.989594 144.0
90.09536 184.0
90.208748 148.0
90.25412 232.0
90.277 244.0
90.322205 140.0
90.467918 156.0
90.490639 208.0
90.644066 148.0
90.689552 172.0
90.842667 236.0
90.925659 124.0
90.9627 172.0
91.017761 144.0
91.050674 180.0
91.063057 188.0
91.270485 180.0
91.418861 176.0
91.445511 172.0
91.458832 160.0
91.599747 168.0
91.927689 224.0
92.011673 196.0
92.183578 164.0
92.363304 196.0
92.476196 204.0
92.545113 148.0
92.652367 148.0
92.801155 172.0
92.86515 152.0
92.94381 160.0
92.957237 220.0
92.997543 144.0
93.068573 152.0
93.089699 204.0
93.285675 164.0
93.399132 152.0
93.420494 156.0
93.853645 152.0
93.926933 156.0
93.98732 212.0
94.257072 200.0
94.347916 176.0
94.611031 148.0
94.672997 184.0
94.756287 144.0
94.829689 164.0
94.864815 212.0
94.917168 236.0
95.014977 176.0
95.085945 176.0
95.107292 160.0
95.221855 204.0
95.236313 144.0
95.264587 164.0
95.799568 180.0
95.941978 164.0
96.062744 204.0
96.115425 164.0
96.196648 188.0
96.4533 184.0
96.513847 128.0
96.601913 224.0
96.648872 228.0
96.834854 148.0
96.8564 152.0
96.972 300.0
97.044533 148.0
97.063293 152.0
97.107735 176.0
97.148483 192.0
97.338867 140.0
97.73201 200.0
97.763489 160.0
97.812698 212.0
97.834351 160.0
97.881607 180.0
97.964333 184.0
98.067757 164.0
98.187065 176.0
98.311356 164.0
98.427826 172.0
98.455475 188.0
98.682724 216.0
98.805351 196.0
98.846901 204.0
99.377014 132.0
99.400101 240.0
99.473206 160.0
99.754112 252.0
99.829048 168.0
99.887466 180.0
99.922775 168.0
99.952194 204.0
100.007805 212.0
100.075607 144.0
100.128624 192.0
100.18499 148.0
100.235344 208.0
100.286774 220.0
100.458267 144.0
100.649872 172.0
100.699333 260.0
100.851654 164.0
100.897629 172.0
100.927002 156.0
101.009621 196.0
101.375191 300.0
101.414101 140.0
101.438156 140.0
101.670822 140.0
101.803329 232.0
101.933907 172.0
102.060539 144.0
102.129478 188.0
102.225494 152.0
102.322105 140.0
102.438919 168.0
102.511452 168.0
102.529587 180.0
102.560997 212.0
103.0578 440.0
103.094673 236.0
103.207878 164.0
103.515457 144.0
103.556396 240.0
103.620781 144.0
103.838501 140.0
103.979706 160.0
104.037239 200.0
104.065201 176.0
104.282341 176.0
104.583366 204.0
104.628159 204.0
105.041855 164.0
105.06105 172.0
105.111221 224.0
105.14183 144.0
105.773415 192.0
105.800026 144.0
106.064293 200.0
106.248856 140.0
106.418808 208.0
106.451805 128.0
106.470894 164.0
106.515732 208.0
106.53833 252.0
106.922989 120.0
107.046371 160.0
107.141121 204.0
107.182327 168.0
107.284637 320.0
107.355492 168.0
107.479263 192.0
107.522598 164.0
107.545303 228.0
107.578331 212.0
107.848938 148.0
108.058884 240.0
108.076424 184.0
108.186119 144.0
108.266876 148.0
108.310371 168.0
108.384956 188.0
108.418114 160.0
108.563232 196.0
108.752029 176.0
108.785248 220.0
109.120789 184.0
109.287163 176.0
109.500542 156.0
109.581787 148.0
109.665146 184.0
109.844475 152.0
109.99472 228.0
110.09285 160.0
110.222366 184.0
110.631149 208.0
110.925598 152.0
110.971832 236.0
111.053513 184.0
111.357857 280.0
111.41037 180.0
111.64579 184.0
111.833038 176.0
112.414726 200.0
112.513931 208.0
112.701912 172.0
112.896393 196.0
112.983116 152.0
113.139725 144.0
113.283737 176.0
113.379082 140.0
113.455391 164.0
113.699333 188.0
113.754517 216.0
113.790611 168.0
114.134827 204.0
114.166725 160.0
114.222023 248.0
114.273079 156.0
114.3582 220.0
114.662773 192.0
114.743782 180.0
114.775215 188.0
114.918678 140.0
114.997055 176.0
115.054108 1892.0
115.185539 196.0
115.388565 180.0
115.420128 152.0
115.621727 156.0
115.955833 144.0
116.056831 284.0
116.090904 164.0
116.382309 180.0
116.50946 152.0
116.543839 152.0
116.7201 264.0
116.755493 148.0
116.938667 248.0
117.032539 180.0
117.069557 620.0
117.141945 212.0
117.333748 172.0
117.510605 184.0
117.566711 204.0
117.899292 156.0
117.986488 156.0
118.064568 188.0
118.193398 176.0
118.800056 188.0
118.945297 172.0
118.958672 176.0
119.086243 124.0
119.119171 152.0
119.230469 180.0
119.271286 224.0
119.724083 184.0
119.761452 152.0
120.018028 168.0
120.048111 176.0
120.105263 176.0
120.181625 156.0
120.288567 172.0
120.321312 188.0
120.373718 192.0
120.528809 224.0
120.616234 176.0
120.677444 180.0
120.694939 212.0
120.729927 160.0
121.047241 232.0
121.101997 204.0
121.117325 168.0
121.158951 184.0
121.382515 176.0
121.641411 160.0
121.658974 212.0
121.689713 140.0
121.744614 168.0
121.830078 176.0
121.903336 120.0
122.17543 168.0
122.201836 156.0
122.239243 164.0
122.487267 112.0
122.589386 144.0
122.677139 172.0
122.761337 160.0
123.151978 152.0
123.202789 172.0
123.479095 188.0
123.61145 160.0
123.742432 176.0
123.979454 164.0
124.204445 160.0
124.416428 232.0
124.471931 180.0
124.722992 160.0
124.98452 168.0
125.003792 220.0
125.085571 156.0
125.377357 184.0
125.593628 156.0
125.705185 160.0
125.966408 176.0
126.281586 160.0
126.666588 168.0
126.76741 148.0
126.843613 184.0
126.948997 164.0
127.053902 456.0
127.326027 144.0
127.404648 164.0
127.445091 144.0
127.46756 180.0
127.521492 144.0
127.597923 220.0
127.773354 152.0
127.829605 228.0
127.94146 208.0
128.009705 192.0
128.048615 340.0
128.122314 152.0
128.327423 204.0
128.34996 152.0
128.435669 140.0
128.523651 200.0
128.618439 296.0
128.670364 160.0
128.892273 192.0
128.925613 160.0
129.059799 188.0
129.221832 200.0
129.344833 196.0
129.457245 164.0
129.498016 204.0
129.656616 180.0
129.745026 156.0
129.835724 188.0
129.898117 228.0
130.005875 164.0
130.065781 7576.0
130.221359 208.0
130.379303 140.0
130.505615 152.0
130.60405 200.0
130.710342 140.0
130.751312 156.0
130.789993 188.0
130.830978 160.0
130.876511 180.0
130.910477 144.0
130.985825 188.0
131.006332 200.0
131.022278 164.0
131.073456 16904.0
131.182419 132.0
131.246338 184.0
131.29126 200.0
131.413956 152.0
131.456039 240.0
131.555939 140.0
131.617584 304.0
131.926025 140.0
131.953461 208.0
132.05394 772.0
132.078262 972.0
132.294342 172.0
132.414612 184.0
132.853531 208.0
133.059097 172.0
133.108109 188.0
133.388596 188.0
133.551865 212.0
133.696518 192.0
133.913239 156.0
133.965729 188.0
134.009979 172.0
134.065796 432.0
135.074921 196.0
135.143692 188.0
135.444656 144.0
135.639297 192.0
135.861923 164.0
135.970993 140.0
135.998383 204.0
136.061523 216.0
136.18692 192.0
136.203171 168.0
136.351883 140.0
136.433243 188.0
136.670471 168.0
136.991776 140.0
137.046494 156.0
137.084976 168.0
137.262131 140.0
137.308777 172.0
137.360092 228.0
137.448746 152.0
137.50943 216.0
137.558441 192.0
137.586456 192.0
137.7733 196.0
138.00531 176.0
138.049103 140.0
138.25029 268.0
138.46788 188.0
138.550018 140.0
138.697647 176.0
138.723434 172.0
139.181274 140.0
139.257034 232.0
139.633316 164.0
139.731735 132.0
139.78743 140.0
139.803894 196.0
140.049133 464.0
140.12088 168.0
140.15712 232.0
140.317398 160.0
140.576874 196.0
140.692535 224.0
140.745941 340.0
141.004333 156.0
141.059464 384.0
141.079971 168.0
141.574509 212.0
141.761658 140.0
141.870682 184.0
141.984512 160.0
142.024826 184.0
142.064667 2548.0
142.100189 136.0
142.186172 184.0
142.309616 224.0
142.366608 160.0
142.599426 160.0
142.66124 164.0
142.732559 264.0
142.753967 160.0
142.772995 176.0
142.937134 148.0
143.073349 15340.0
143.635208 224.0
143.749146 192.0
143.805115 220.0
144.045502 232.0
144.079193 4032.0
144.146149 164.0
144.428253 184.0
144.551254 192.0
144.583786 168.0
144.621414 160.0
144.690842 160.0
144.741776 160.0
144.887894 168.0
144.933411 144.0
145.083298 1092.0
145.109039 336.0
145.165939 184.0
145.254669 340.0
145.386642 176.0
145.566696 188.0
145.629135 208.0
145.737488 168.0
145.823746 184.0
145.998337 208.0
146.062195 532.0
146.096069 480.0
146.37468 204.0
146.765045 316.0
146.866333 156.0
146.890457 156.0
147.079407 1980.0
147.844116 156.0
147.992523 220.0
148.077927 708.0
148.220215 172.0
148.452927 192.0
148.549942 212.0
148.649429 176.0
149.081696 256.0
149.507278 152.0
149.570557 180.0
149.816513 172.0
149.991974 152.0
150.133392 212.0
150.167542 204.0
150.565369 156.0
150.653305 168.0
151.161865 208.0
151.196136 156.0
151.384644 204.0
151.590424 172.0
151.66394 200.0
151.71788 272.0
151.769363 152.0
151.78653 152.0
151.86908 248.0
152.061005 168.0
152.223328 172.0
152.294556 156.0
152.37561 188.0
152.405106 168.0
152.441956 216.0
152.729614 156.0
152.828674 184.0
153.315613 148.0
153.391678 116.0
153.628754 204.0
153.707703 156.0
153.915054 200.0
153.954575 152.0
154.001495 164.0
154.038544 156.0
154.07048 160.0
154.092896 156.0
154.135696 176.0
154.174438 180.0
154.421677 180.0
155.042709 144.0
155.072876 668.0
155.216644 148.0
155.348099 168.0
155.678223 192.0
155.745285 208.0
155.929138 212.0
156.02858 276.0
156.078308 160.0
156.175293 180.0
156.200165 220.0
157.047089 140.0
157.204269 156.0
157.731262 200.0
158.001358 160.0
158.06131 2396.0
158.193466 204.0
158.469543 160.0
158.499619 148.0
158.717697 232.0
158.752808 192.0
158.775375 204.0
158.805466 168.0
158.963531 384.0
159.008102 180.0
159.068375 62036.0
159.126678 324.0
159.239334 144.0
159.315048 204.0
159.370941 180.0
159.528656 160.0
159.589005 232.0
159.632584 116.0
159.67186 172.0
159.699646 156.0
160.071335 4196.0
160.268188 96.0
160.311447 256.0
161.018036 160.0
161.074036 820.0
161.295792 212.0
161.324142 128.0
161.388367 116.0
161.413467 236.0
161.436996 188.0
161.778961 172.0
162.032227 204.0
162.091904 1716.0
162.19046 192.0
162.364288 152.0
162.399796 148.0
162.796936 180.0
162.986237 164.0
163.026901 192.0
163.093552 160.0
163.32692 176.0
163.372711 216.0
163.433777 148.0
163.869171 152.0
164.080719 204.0
164.249023 176.0
164.287292 164.0
164.874924 212.0
165.171539 196.0
165.934341 192.0
166.001007 212.0
166.827774 292.0
166.971771 164.0
167.072876 348.0
167.33461 224.0
167.457413 116.0
167.633408 152.0
167.775162 180.0
167.837051 184.0
167.91449 132.0
167.950516 156.0
168.030487 188.0
168.123383 156.0
168.164688 232.0
168.195663 168.0
168.356232 228.0
168.455261 212.0
168.544312 268.0
168.652863 236.0
168.743332 232.0
168.901093 276.0
169.060623 152.0
169.09874 288.0
169.242706 176.0
169.284149 140.0
169.50174 188.0
170.095093 384.0
170.129425 196.0
170.209915 176.0
170.545059 200.0
170.571045 156.0
170.831497 156.0
170.955978 176.0
171.034073 156.0
171.096542 184.0
171.179871 232.0
171.265808 204.0
171.32312 196.0
171.560272 240.0
171.729767 200.0
171.764709 132.0
171.933273 208.0
171.969818 144.0
172.077637 164.0
172.157806 244.0
172.230927 144.0
172.324982 148.0
172.345886 160.0
172.554977 160.0
172.882431 196.0
172.997055 160.0
173.045975 236.0
173.083633 2592.0
173.15947 212.0
173.195816 160.0
173.25116 144.0
173.310791 144.0
173.321259 196.0
173.402924 152.0
173.438171 344.0
173.49115 224.0
173.523987 284.0
173.585785 180.0
173.643188 244.0
173.661911 252.0
173.669739 248.0
173.730225 176.0
173.816864 184.0
173.827698 176.0
173.908585 288.0
173.970718 324.0
173.999832 376.0
174.025131 280.0
174.092484 223284.0
174.215454 216.0
174.243362 456.0
174.288544 168.0
174.344131 156.0
174.404526 152.0
174.446014 244.0
174.467819 212.0
174.523972 1700.0
174.557739 292.0
174.6436 108.0
174.767899 232.0
174.866409 232.0
174.942368 380.0
174.961426 196.0
175.007141 144.0
175.043945 252.0
175.095001 16996.0
175.165009 200.0
175.263565 128.0
175.290741 132.0
175.365417 100.0
175.42598 144.0
175.585846 100.0
175.800064 136.0
175.980591 136.0
176.097641 1812.0
176.235489 200.0
176.270065 108.0
176.293213 136.0
176.354187 260.0
176.404449 136.0
176.454681 128.0
176.526596 112.0
177.486771 188.0
178.961487 200.0
182.708603 164.0
182.961151 124.0
183.06665 196.0
184.074921 216.0
185.084366 232.0
185.159622 160.0
185.948593 228.0
186.053314 200.0
188.108261 236.0
188.896866 148.0
189.103165 164.0
190.154572 212.0
191.116638 1336.0
192.120438 244.0
192.873184 168.0
193.205032 208.0
194.984253 260.0
198.091675 1184.0
199.08847 336.0
200.065109 144.0
201.076187 232.0
203.182388 140.0
204.101089 512.0
204.142471 180.0
205.113358 172.0
207.798767 180.0
210.406342 148.0
214.975189 144.0
215.048141 148.0
215.118942 524.0
215.27858 108.0
215.904205 196.0
216.053375 380.0
216.102081 14420.0
216.158707 232.0
217.104294 1656.0
217.207596 152.0
217.625214 108.0
218.110794 124.0
218.885788 144.0
228.7202 180.0
231.673584 192.0
232.217331 176.0
233.075333 192.0
233.128632 12852.0
234.015213 176.0
234.132462 1440.0
234.58493 144.0
235.132309 160.0
243.971817 152.0
277.325562 140.0
453.910553 144.0
559.686279 152.0
645.643188 140.0
1095.799927 252.0
1143.637451 208.0
1164.236084 216.0
1171.67334 152.0
1181.265137 196.0
1211.362427 140.0
1216.396851 152.0
1223.912476 260.0
1240.043335 172.0
1248.215088 248.0
1248.833984 152.0
1258.926636 172.0
1262.127808 156.0
1264.738281 160.0
1267.223999 144.0
1276.195679 196.0
1279.069946 144.0
1284.549805 160.0
1293.711304 180.0
1295.057617 176.0
1295.609131 256.0
1297.056763 172.0
1317.176514 240.0
1318.325317 292.0
1319.062622 140.0
1344.761963 156.0
1352.004883 172.0
1361.947021 224.0
1363.732544 152.0
1363.975098 176.0
1368.536377 156.0
1369.044556 156.0
1369.41272 252.0
1369.928345 144.0
1372.567017 216.0
1372.891479 228.0
1373.452026 184.0
1385.368408 160.0
1388.095947 264.0
1388.822754 212.0
1392.920166 176.0
1398.229126 180.0
1400.961914 224.0
1411.882202 216.0
1412.248657 244.0
1412.517944 216.0
1419.198486 188.0
1421.34375 264.0
1422.7323 220.0
1427.277954 188.0
1430.317383 144.0
1431.680176 192.0
1444.050171 180.0
1444.345215 292.0
1444.420776 208.0
1445.374146 168.0
1446.005859 164.0
1456.724121 224.0
1460.791138 148.0
1462.97522 164.0
1463.097046 152.0
1466.56311 168.0
1470.08667 168.0
1470.262207 188.0
1476.741211 148.0
1478.156494 260.0
1480.981567 196.0
1482.268677 212.0
1485.642212 156.0
1486.893066 160.0
1489.764771 260.0
1492.36731 136.0
1495.478271 188.0
1497.5802 216.0
1499.213623 200.0
1501.935303 232.0
1505.524048 160.0
1510.834473 144.0
1513.179565 144.0
1516.487427 160.0
1517.231567 188.0
1517.541748 160.0
1520.838745 240.0
1525.095337 168.0
1526.11377 176.0
1529.202148 144.0
1534.56958 204.0
1537.588501 192.0
1538.04126 156.0
1539.227905 224.0
1539.891724 164.0
1541.813721 176.0
1543.486694 192.0
1550.469604 184.0
1554.139648 140.0
1557.256226 160.0
1562.247803 208.0
1565.175659 240.0
1567.759521 148.0
1571.741821 156.0
1572.444214 212.0
1576.179688 148.0
1576.321899 160.0
1581.905884 140.0
1582.832153 144.0
1585.311035 180.0
1587.468872 184.0
1588.697388 156.0
1591.650024 160.0
1592.070923 168.0
1595.185547 144.0
1597.738281 180.0
1598.295288 172.0
1598.518066 176.0
1600.086182 140.0
1600.269287 248.0
1601.989624 200.0
1602.2052 224.0
1602.619019 168.0
1607.37146 164.0
1608.440918 204.0
1609.614502 148.0
1609.790161 212.0
1610.748657 464.0
1614.377319 204.0
1615.369141 216.0
1627.422852 204.0
1627.671875 232.0
1634.633301 164.0
1637.458984 196.0
1639.021851 256.0
1645.337402 200.0
1646.661621 212.0
1646.79895 164.0
1648.035034 192.0
1650.896606 244.0
1658.142456 200.0
1659.2854 168.0
1663.585327 180.0
1665.390747 284.0
1666.744751 168.0
1668.736084 152.0
1669.508667 156.0
1670.810059 248.0
1671.054199 160.0
1671.168091 180.0
1671.363403 188.0
1672.331787 172.0
1676.355103 204.0
1677.773438 176.0
1681.395142 168.0
1682.692993 192.0
1683.973267 136.0
1685.004395 168.0
1687.072144 140.0
1687.938843 160.0
1692.422974 168.0
1698.102051 144.0
1699.138062 256.0
1699.381836 176.0
1703.946899 160.0
1705.179565 156.0
1705.639771 176.0
1709.052856 212.0
1709.297852 144.0
1713.441406 140.0
1716.078857 140.0
1716.400391 152.0
1720.946899 164.0
1725.06958 176.0
1726.036865 232.0
1726.582764 152.0
1727.798706 140.0
1729.404053 172.0
1730.529907 148.0
1731.300049 176.0
1732.385132 164.0
1732.476318 168.0
1733.628052 164.0
1734.086426 168.0
1735.211182 172.0
1737.193359 236.0
1738.330078 204.0
1741.302246 176.0
1741.401855 204.0
1741.547607 212.0
1745.291138 220.0
1747.054443 196.0
1752.074463 164.0
1752.282837 160.0
1752.916016 168.0
1753.741211 172.0
1760.048218 196.0
1760.507568 192.0
1760.574341 240.0
1760.649536 224.0
1762.712891 144.0
1763.406616 212.0
1764.317749 156.0
1765.47168 228.0
1767.094482 212.0
1767.178101 172.0
1767.707642 204.0
1768.525513 192.0
1771.137939 224.0
1771.297119 172.0
1775.320312 180.0
1777.132202 216.0
1778.080444 176.0
1779.247192 156.0
1782.296143 176.0
1782.657471 176.0
1784.195679 212.0
1784.826294 180.0
1786.373779 144.0
1787.812622 212.0
1789.035645 156.0
1790.456177 152.0
1794.188965 140.0
1795.293579 200.0
1795.546631 168.0
1797.478516 176.0
1798.525024 196.0
1801.269409 220.0
1805.334839 192.0
1805.800049 200.0
1806.231445 208.0
1807.627441 216.0
1811.496704 180.0
1814.751221 152.0
1814.929321 160.0
1816.388062 168.0
1818.653564 168.0
1821.158447 200.0
1827.313232 208.0
1831.050293 192.0
1832.387695 180.0
1833.421997 216.0
1833.520996 140.0
1834.859253 148.0
1836.240723 256.0
1836.385742 228.0
1836.923096 184.0
1841.472778 196.0
1842.113403 204.0
1842.677246 244.0
1845.643188 204.0
1847.678833 180.0
1848.59436 160.0
1849.056519 164.0
1849.398804 184.0
1850.143555 268.0
1852.721436 152.0
1853.972412 196.0
1854.760986 148.0
1855.335327 192.0
1858.628906 160.0
1859.688721 164.0
1861.178345 188.0
1861.26416 200.0
1865.233398 200.0
1867.314209 160.0
1869.869629 180.0
1874.873413 160.0
1876.847534 152.0
1877.114868 140.0
1879.193726 196.0
1879.996216 156.0
1880.065186 144.0
1880.211914 172.0
1882.594727 160.0
1883.752075 156.0
1883.976685 180.0
1885.039429 184.0
1889.553101 140.0
1890.154541 164.0
1890.842407 204.0
1891.171387 172.0
1891.81189 156.0
1892.348633 164.0
1900.287964 144.0
1902.162598 160.0
1902.570557 188.0
1903.577759 176.0
1905.74939 176.0
1907.948364 176.0
1908.400513 196.0
1909.435303 144.0
1909.870239 148.0
1910.270386 212.0
1910.522583 156.0
1910.922852 160.0
1912.14978 228.0
1914.439575 180.0
1915.894165 224.0
1916.817749 196.0
1917.480103 176.0
1918.465088 144.0
1920.191528 192.0
1925.227295 284.0
1926.834595 200.0
1929.001953 164.0
1929.946167 220.0
1930.820679 160.0
1931.852783 200.0
1932.333984 192.0
1933.051514 148.0
1933.515381 204.0
1934.994751 164.0
1935.134766 160.0
1935.782715 148.0
1935.861572 148.0
1936.78125 192.0
1937.192871 204.0
1937.485474 212.0
1937.851074 168.0
1938.358154 196.0
1938.638672 180.0
1938.805176 208.0
1939.269653 144.0
1940.707397 212.0
1942.49646 212.0
1942.681274 144.0
1944.19873 168.0
1948.229004 208.0
1951.586426 144.0
1951.823853 196.0
1953.750122 244.0
1955.809326 164.0
1956.883301 216.0
1957.191528 160.0
1960.036621 160.0
1960.415527 144.0
1965.141968 160.0
1967.798706 172.0
1970.280518 148.0
1970.589722 140.0
1973.347412 152.0
1976.036133 176.0
1978.390381 164.0
1979.356445 180.0
1980.70166 160.0
1981.722534 156.0
1982.845947 248.0
1983.297974 156.0
1983.421997 156.0
1984.388306 200.0
1986.21521 184.0
1987.377441 180.0
1990.200073 160.0
1990.528564 172.0
1991.143188 224.0
1991.985229 148.0
1994.713379 156.0
1994.811157 176.0
1994.891113 148.0
1995.709106 168.0
1999.276245 268.0
2000.032715 212.0
2000.673706 152.0
2001.421631 284.0
2002.125122 208.0
2003.158325 172.0
2003.300781 204.0
