>compound MLS000768124-01!2-methoxyphenazine
>formula C13H10N2O
>ionization [M+H]+
>parentmass 211.08786
#inchi InChI=1S/C13H10N2O/c1-16-9-6-7-12-13(8-9)15-11-5-3-2-4-10(11)14-12/h2-8H,1H3
#inchikey YGSXHEXJOFMTHZ
#Ion_Source LC-ESI
#Instrument qTof
#Compound_Source NIH Natural Product Library
#PI Dorrestein
#Data_Collector VVP/LMS
#Scan -1
#Precursor_MZ 211.087
#ExactMass 210.079
#Charge 1
#CAS_Number N/A
#Pubmed_ID N/A
#Smiles COc1ccc2nc3ccccc3nc2c1
#INCHI_AUX N/A
#Library_Class 1
#SpectrumID CCMSLIB00000080148
#IonMode Positive
#UpdateWorkflowName UPDATE-SINGLE-ANNOTATED-GOLD
#LibraryQualityString Gold
#TaskID b1d8e8f6646f4e71acdff9ca3d919d08
##Scan# 2015
#SpectrumFile p2-G04_GG4_01_18052.mzXML
#LibraryName NIH_Natural_Products_Library.mgf
#MQScore -1
#Organism NIH_Natural_Products_Library
#TIC_Query 0
#RT_Query -1
#MZErrorPPM -1
#SharedPeaks 0
#MassDiff 0
#LibMZ -1
#SpecMZ 211.087
#SpecCharge 0
#internalFilename spec-00000.mgf

>collision 10
94.96991 152.0
94.994698 196.0
95.012589 160.0
95.039749 184.0
95.096031 100.0
95.138733 160.0
95.167862 160.0
95.189217 140.0
95.213417 132.0
95.23777 128.0
95.262794 136.0
95.280167 204.0
95.314583 172.0
95.331856 160.0
95.350464 136.0
95.375732 128.0
95.401001 124.0
95.42382 228.0
95.4412 192.0
95.459335 184.0
95.472069 156.0
95.494339 100.0
95.510506 232.0
95.550751 132.0
95.575127 156.0
95.599396 40.0
95.62664 124.0
95.646111 132.0
95.667519 188.0
95.700066 28.0
95.753197 180.0
95.784363 292.0
95.824059 180.0
95.866257 124.0
95.88958 152.0
95.909073 140.0
95.957809 192.0
95.97197 332.0
95.987053 116.0
96.040901 124.0
96.07267 188.0
96.098236 192.0
96.127014 268.0
96.141167 132.0
96.167397 64.0
96.197769 148.0
96.260246 224.0
96.28759 176.0
96.307121 88.0
96.348145 92.0
96.373543 84.0
96.395096 128.0
96.426308 184.0
96.453972 180.0
96.482994 152.0
96.508415 172.0
96.54361 64.0
96.557297 192.0
96.57383 88.0
96.612068 132.0
96.625763 108.0
96.653763 204.0
96.668816 184.0
96.68251 88.0
96.709381 148.0
96.742561 176.0
96.758118 64.0
96.788223 272.0
96.820633 232.0
96.880898 164.0
96.902306 360.0
96.92926 172.0
96.972076 132.0
96.990013 176.0
97.034935 144.0
97.082161 212.0
97.101776 156.0
97.128418 164.0
97.148849 128.0
97.172722 144.0
97.209679 196.0
97.256775 224.0
97.272484 168.0
97.355927 160.0
97.382439 96.0
97.42762 148.0
97.46508 300.0
97.480675 180.0
97.504257 168.0
97.533737 116.0
97.557327 160.0
97.578957 136.0
97.599892 228.0
97.666031 156.0
97.684883 88.0
97.699982 232.0
97.738617 152.0
97.75293 188.0
97.767616 136.0
97.80423 300.0
97.872124 108.0
97.929237 208.0
97.976509 104.0
98.010742 168.0
98.057365 164.0
98.098694 332.0
98.114464 116.0
98.173264 156.0
98.231209 328.0
98.252319 120.0
98.259315 108.0
98.273872 180.0
98.280411 208.0
98.295868 136.0
98.345268 332.0
98.359085 120.0
98.380653 164.0
98.419777 140.0
98.453056 128.0
98.46772 192.0
98.495949 168.0
98.506088 240.0
98.512489 328.0
98.542747 440.0
98.599968 92.0
98.615868 176.0
98.650047 220.0
98.663986 140.0
98.736404 368.0
98.783943 164.0
98.807678 112.0
98.876938 160.0
98.908607 152.0
98.964645 144.0
98.989784 104.0
99.012283 176.0
99.035332 168.0
99.048424 124.0
99.061081 164.0
99.179977 156.0
99.222832 52.0
99.242828 204.0
99.267212 116.0
99.312828 112.0
99.345947 196.0
99.353615 136.0
99.425629 216.0
99.475929 164.0
99.507309 116.0
99.539078 108.0
99.573143 180.0
99.592697 272.0
99.634468 152.0
99.66024 108.0
99.702629 236.0
99.72551 176.0
99.782936 208.0
99.914734 144.0
99.96199 132.0
99.978996 176.0
99.999199 316.0
100.019981 208.0
100.050072 152.0
100.147644 200.0
100.186783 228.0
100.211395 144.0
100.225342 120.0
100.248039 164.0
100.255646 172.0
100.26355 208.0
100.291443 164.0
100.311172 120.0
100.361206 164.0
100.394783 100.0
100.422707 156.0
100.45063 96.0
100.480553 92.0
100.507263 196.0
100.535774 148.0
100.570351 168.0
100.615166 152.0
100.724106 152.0
100.750076 64.0
100.76606 216.0
100.790787 276.0
100.822006 196.0
100.847992 176.0
100.867737 132.0
100.873222 116.0
100.88343 204.0
100.923958 144.0
100.976173 180.0
101.005959 144.0
101.038078 72.0
101.095993 212.0
101.128014 240.0
101.142227 272.0
101.188065 128.0
101.215279 80.0
101.238205 100.0
101.31424 136.0
101.360329 104.0
101.384369 184.0
101.436485 104.0
101.452522 108.0
101.469208 144.0
101.502647 184.0
101.559105 160.0
101.61042 148.0
101.62751 144.0
101.64975 156.0
101.70327 140.0
101.71933 396.0
101.743423 192.0
101.828018 216.0
101.908112 136.0
101.944283 184.0
101.97242 168.0
101.985596 140.0
102.012619 176.0
102.035271 844.0
102.056526 200.0
102.120323 128.0
102.142616 180.0
102.169479 168.0
102.218399 320.0
102.290787 200.0
102.314384 112.0
102.344582 144.0
102.358681 132.0
102.459389 172.0
102.4804 112.0
102.507744 32.0
102.529259 296.0
102.552086 164.0
102.566193 100.0
102.642807 92.0
102.693031 84.0
102.745171 272.0
102.759026 128.0
102.775627 132.0
102.80217 212.0
102.824371 188.0
102.843712 180.0
102.858681 200.0
102.89502 120.0
102.915207 100.0
102.932251 128.0
102.967712 76.0
103.004074 112.0
103.042603 164.0
103.068726 104.0
103.112129 200.0
103.133087 140.0
103.1688 320.0
103.176743 176.0
103.181168 180.0
103.206177 52.0
103.228416 120.0
103.24662 380.0
103.260773 48.0
103.29718 196.0
103.319435 144.0
103.337646 192.0
103.355629 180.0
103.394302 188.0
103.4105 144.0
103.440392 176.0
103.461548 200.0
103.517799 136.0
103.536026 180.0
103.563995 128.0
103.573021 120.0
103.582458 160.0
103.600838 144.0
103.619072 132.0
103.659874 176.0
103.696075 116.0
103.738647 116.0
103.785278 144.0
103.816895 176.0
103.846115 112.0
103.862343 156.0
103.899757 144.0
103.925789 216.0
103.965813 128.0
103.996262 88.0
104.028679 136.0
104.031998 132.0
104.052147 420.0
104.083557 148.0
104.114532 220.0
104.156815 224.0
104.176987 32.0
104.205429 124.0
104.253853 188.0
104.31517 172.0
104.331436 108.0
104.365372 104.0
104.398537 140.0
104.423615 84.0
104.467476 160.0
104.524658 276.0
104.61232 188.0
104.632538 180.0
104.722137 284.0
104.746574 144.0
104.768173 188.0
104.790215 124.0
104.850494 176.0
104.873756 232.0
104.895332 208.0
104.948868 156.0
105.056435 324.0
105.087036 184.0
105.115608 132.0
105.142136 160.0
105.160507 112.0
105.212822 196.0
105.230423 160.0
105.256454 128.0
105.287521 132.0
105.342239 168.0
105.379013 128.0
105.401489 156.0
105.421921 176.0
105.491417 152.0
105.524124 56.0
105.54129 212.0
105.604713 116.0
105.628738 208.0
105.64888 200.0
105.671387 172.0
105.691849 144.0
105.720497 112.0
105.753242 92.0
105.790092 184.0
105.850388 124.0
105.887306 196.0
105.918114 240.0
105.970314 316.0
106.009819 172.0
106.049622 212.0
106.1548 136.0
106.18261 176.0
106.216324 256.0
106.257355 92.0
106.286079 80.0
106.327126 312.0
106.353432 124.0
106.413223 144.0
106.454407 176.0
106.47905 116.0
106.496933 260.0
106.504768 184.0
106.546875 208.0
106.614647 116.0
106.633141 156.0
106.700981 144.0
106.721542 128.0
106.764725 216.0
106.793518 48.0
106.830544 152.0
106.857292 188.0
106.873749 208.0
106.902557 152.0
106.932106 156.0
106.971802 168.0
106.991066 156.0
107.026245 136.0
107.046661 124.0
107.063904 96.0
107.079613 188.0
107.108444 156.0
107.15583 200.0
107.17643 168.0
107.213524 192.0
107.228882 136.0
107.2808 232.0
107.30835 160.0
107.325706 296.0
107.393738 88.0
107.4179 164.0
107.446014 208.0
107.467606 128.0
107.482437 308.0
107.50795 136.0
107.533203 176.0
107.553841 156.0
107.583969 168.0
107.58918 248.0
107.628166 80.0
107.642616 84.0
107.675034 92.0
107.692184 212.0
107.745895 116.0
107.773994 160.0
107.82235 132.0
107.845085 132.0
107.895226 188.0
107.944321 200.0
108.043602 188.0
108.05941 100.0
108.098511 168.0
108.161148 224.0
108.179451 192.0
108.231949 152.0
108.254723 136.0
108.274216 136.0
108.281204 56.0
108.287216 180.0
108.323074 44.0
108.341721 72.0
108.360367 152.0
108.396362 176.0
108.43911 236.0
108.460579 180.0
108.503372 80.0
108.548027 216.0
108.60981 184.0
108.652695 116.0
108.690048 164.0
108.704086 396.0
108.719093 164.0
108.760605 136.0
108.777214 92.0
108.793823 200.0
108.923027 172.0
108.954865 184.0
108.986977 156.0
109.024223 208.0
109.097755 172.0
109.122078 128.0
109.13871 204.0
109.157425 136.0
109.186539 168.0
109.201103 112.0
109.219818 144.0
109.27504 316.0
109.294945 108.0
109.387573 148.0
109.415924 120.0
109.489609 112.0
109.542473 104.0
109.594551 128.0
109.627899 152.0
109.648735 140.0
109.671661 172.0
109.692505 100.0
109.715439 88.0
109.736694 164.0
109.780891 164.0
109.834305 200.0
109.84948 160.0
109.869766 112.0
109.890839 176.0
109.951149 132.0
110.011681 108.0
110.030472 172.0
110.050255 184.0
110.080582 136.0
110.113342 64.0
110.18293 100.0
110.233078 48.0
110.249794 104.0
110.26828 196.0
110.304138 76.0
110.357048 208.0
110.387581 176.0
110.39386 272.0
110.419136 108.0
110.467247 204.0
110.486595 112.0
110.512726 152.0
110.538963 216.0
110.555954 172.0
110.684914 164.0
110.753983 184.0
110.779167 188.0
110.802208 36.0
110.859734 220.0
110.927414 252.0
110.944717 80.0
111.010399 308.0
111.049904 100.0
111.081612 244.0
111.132301 180.0
111.151314 48.0
111.175674 228.0
111.219521 156.0
111.251503 204.0
111.289749 196.0
111.322792 128.0
111.338066 148.0
111.380043 108.0
111.449081 196.0
111.499672 168.0
111.556511 180.0
111.587158 152.0
111.603287 220.0
111.62706 168.0
111.658653 144.0
111.711243 100.0
111.755424 128.0
111.801788 116.0
111.81855 192.0
111.883804 80.0
111.917496 248.0
111.970139 140.0
111.991203 124.0
112.027962 168.0
112.065201 128.0
112.098648 140.0
112.117615 180.0
112.134476 164.0
112.166916 248.0
112.199821 152.0
112.254646 96.0
112.271515 116.0
112.314041 320.0
112.372765 188.0
112.393867 48.0
112.517036 168.0
112.557404 200.0
112.571182 420.0
112.603577 180.0
112.622948 212.0
112.667 300.0
112.689224 136.0
112.72332 200.0
112.740189 144.0
112.790756 160.0
112.817833 256.0
112.846626 252.0
112.861916 116.0
112.886055 176.0
112.909317 104.0
112.977615 256.0
113.037354 460.0
113.077271 236.0
113.106087 232.0
113.135727 164.0
113.159012 136.0
113.201363 132.0
113.292557 152.0
113.328194 360.0
113.346382 144.0
113.364479 124.0
113.385674 132.0
113.420044 168.0
113.44342 328.0
113.519234 160.0
113.538322 184.0
113.568016 168.0
113.595589 124.0
113.633774 72.0
113.663254 184.0
113.737305 160.0
113.752625 88.0
113.783379 180.0
113.837555 132.0
113.905518 116.0
113.923965 140.0
113.928444 96.0
113.93644 216.0
113.965004 172.0
114.045853 2700.0
114.090263 316.0
114.103745 232.0
114.132202 212.0
114.156311 92.0
114.201401 176.0
114.254158 140.0
114.276772 152.0
114.281052 188.0
114.29097 132.0
114.306747 256.0
114.328629 164.0
114.361267 176.0
114.399803 144.0
114.426544 120.0
114.461243 244.0
114.503204 120.0
114.547432 152.0
114.582024 132.0
114.639557 160.0
114.675735 184.0
114.697098 108.0
114.712021 108.0
114.729073 180.0
114.776833 132.0
114.812073 156.0
114.842094 132.0
114.874985 152.0
114.891159 224.0
114.935959 180.0
114.967331 120.0
114.974167 84.0
114.981308 112.0
115.043846 2100.0
115.084488 172.0
115.117409 52.0
115.151344 184.0
115.189445 176.0
115.217796 56.0
115.23703 204.0
115.250969 152.0
115.307549 340.0
115.381218 120.0
115.401604 148.0
115.455063 176.0
115.470886 160.0
115.571587 144.0
115.649757 100.0
115.679726 188.0
115.718407 120.0
115.735397 192.0
115.752525 120.0
115.780365 136.0
115.799637 144.0
115.859619 164.0
115.907463 236.0
115.935966 152.0
115.941803 236.0
115.979622 160.0
115.997932 124.0
116.049255 644.0
116.088829 256.0
116.116104 232.0
116.185486 176.0
116.206726 156.0
116.273163 368.0
116.301689 100.0
116.311691 84.0
116.317467 256.0
116.348595 56.0
116.393684 160.0
116.408714 184.0
116.445221 176.0
116.489502 124.0
116.537598 140.0
116.574348 116.0
116.606361 128.0
116.632156 172.0
116.646812 132.0
116.681595 180.0
116.698799 68.0
116.718147 120.0
116.8386 172.0
116.863586 156.0
116.867737 96.0
116.896263 80.0
116.922516 156.0
116.976372 188.0
117.005295 148.0
117.056992 3128.0
117.117638 128.0
117.151131 252.0
117.178139 252.0
117.199852 188.0
117.237457 152.0
117.303764 64.0
117.326714 192.0
117.397461 96.0
117.427055 180.0
117.456863 136.0
117.512955 92.0
117.538849 96.0
117.553955 136.0
117.582008 148.0
117.646767 108.0
117.696602 148.0
117.721313 120.0
117.745567 204.0
117.764885 120.0
117.768883 268.0
117.800095 216.0
117.826019 120.0
117.841942 248.0
117.893005 144.0
117.932243 76.0
117.953522 88.0
117.981461 160.0
117.998917 172.0
118.050583 1644.0
118.173691 184.0
118.208733 132.0
118.269333 132.0
118.330856 228.0
118.356758 200.0
118.411942 240.0
118.442558 116.0
118.459885 140.0
118.48999 152.0
118.49691 136.0
118.504059 164.0
118.536598 128.0
118.543884 52.0
118.549919 116.0
118.576897 120.0
118.594231 104.0
118.635422 144.0
118.671295 168.0
118.690887 220.0
118.716766 136.0
118.724953 164.0
118.754684 160.0
118.782883 152.0
118.80024 164.0
118.824043 152.0
118.876175 80.0
118.904388 152.0
118.94165 96.0
118.998001 196.0
119.041161 184.0
119.059189 164.0
119.09346 148.0
119.177681 184.0
119.214951 236.0
119.230164 128.0
119.297783 296.0
119.306847 216.0
119.352829 224.0
119.377991 132.0
119.406265 72.0
119.438889 176.0
119.506119 160.0
119.531258 136.0
119.593384 96.0
119.61515 212.0
119.643448 200.0
119.673927 176.0
119.705917 184.0
119.783264 172.0
119.815498 164.0
119.832275 212.0
119.841347 148.0
119.847847 192.0
119.909668 176.0
119.919037 132.0
119.954971 80.0
119.996178 200.0
120.038567 164.0
120.066177 128.0
120.114235 120.0
120.141373 160.0
120.192352 148.0
120.229797 160.0
120.25753 236.0
120.330208 92.0
120.356758 452.0
120.380432 140.0
120.407776 176.0
120.430054 196.0
120.454689 168.0
120.509308 160.0
120.544647 176.0
120.649185 188.0
120.677605 340.0
120.692909 164.0
120.712692 172.0
120.745995 176.0
120.777306 352.0
120.804459 144.0
120.819771 144.0
120.842369 316.0
120.874466 100.0
120.925407 276.0
120.962013 128.0
120.981453 132.0
120.989189 116.0
120.995872 180.0
121.027695 128.0
121.05397 156.0
121.082443 108.0
121.123764 148.0
121.153839 164.0
121.175781 328.0
121.197556 212.0
121.264854 240.0
121.301552 156.0
121.321281 200.0
121.340508 172.0
121.416214 176.0
121.4375 132.0
121.466103 168.0
121.500092 168.0
121.524277 180.0
121.553268 172.0
121.635223 200.0
121.680328 116.0
121.709625 144.0
121.753548 108.0
121.815048 128.0
121.848 148.0
121.878761 248.0
121.916122 56.0
121.948494 228.0
121.98407 240.0
122.021629 100.0
122.076141 204.0
122.116188 212.0
122.140381 300.0
122.183762 144.0
122.197578 212.0
122.259552 148.0
122.314217 168.0
122.386871 188.0
122.414017 196.0
122.437515 88.0
122.47496 108.0
122.510208 204.0
122.550888 172.0
122.593933 72.0
122.61377 136.0
122.633095 52.0
122.673218 132.0
122.685127 204.0
122.757065 144.0
122.805588 180.0
122.855927 268.0
122.881439 244.0
122.909271 236.0
122.945824 156.0
122.979218 352.0
122.997551 184.0
123.01963 144.0
123.099113 132.0
123.145493 168.0
123.160957 88.0
123.200714 112.0
123.311203 76.0
123.339935 144.0
123.36425 176.0
123.387398 204.0
123.404045 136.0
123.429131 312.0
123.510201 124.0
123.556656 152.0
123.614182 176.0
123.638527 204.0
123.702255 228.0
123.733711 96.0
123.751419 204.0
123.77578 68.0
123.808998 220.0
123.831139 92.0
123.846649 184.0
123.863441 200.0
123.929039 84.0
123.961433 168.0
124.012825 68.0
124.03244 132.0
124.064949 140.0
124.115372 156.0
124.159157 192.0
124.174683 132.0
124.196861 128.0
124.212387 84.0
124.239006 84.0
124.276726 264.0
124.327026 168.0
124.348763 164.0
124.396492 224.0
124.404297 128.0
124.415047 200.0
124.425041 252.0
124.456512 284.0
124.489822 128.0
124.505371 188.0
124.526382 164.0
124.540909 196.0
124.556458 228.0
124.576447 144.0
124.649765 44.0
124.665321 136.0
124.680878 204.0
124.70977 132.0
124.743118 120.0
124.774239 144.0
124.798698 192.0
124.84095 192.0
124.857841 200.0
124.885864 184.0
124.914345 104.0
124.963287 84.0
124.998894 156.0
125.020309 160.0
125.042892 140.0
125.061165 168.0
125.09259 160.0
125.118553 172.0
125.24379 192.0
125.262352 204.0
125.286118 104.0
125.30571 168.0
125.352959 180.0
125.373016 96.0
125.413132 224.0
125.468864 56.0
125.528053 156.0
125.560287 472.0
125.58036 220.0
125.598206 180.0
125.613815 136.0
125.634575 236.0
125.663956 160.0
125.707924 112.0
125.729843 68.0
125.771461 192.0
125.81913 124.0
125.852623 128.0
125.901749 148.0
125.918106 124.0
125.958641 144.0
125.991837 116.0
126.024605 164.0
126.053459 136.0
126.077179 160.0
126.084625 84.0
126.090378 148.0
126.12571 100.0
126.16111 104.0
126.199608 196.0
126.232353 192.0
126.273056 200.0
126.30555 156.0
126.334335 180.0
126.35791 220.0
126.389076 232.0
126.439934 132.0
126.45314 172.0
126.51889 120.0
126.543518 124.0
126.574013 168.0
126.59726 104.0
126.662209 176.0
126.687645 160.0
126.72612 204.0
126.763031 256.0
126.815094 104.0
126.824242 128.0
126.849159 132.0
126.88855 176.0
126.917702 196.0
126.966957 116.0
126.971916 168.0
126.998993 176.0
127.016335 204.0
127.060417 272.0
127.090416 220.0
127.106117 44.0
127.130806 56.0
127.180183 336.0
127.198135 88.0
127.227325 84.0
127.245285 176.0
127.281212 112.0
127.297913 144.0
127.314461 124.0
127.37812 212.0
127.393112 344.0
127.460907 192.0
127.492371 176.0
127.526085 80.0
127.541817 108.0
127.559799 208.0
127.575539 192.0
127.620506 164.0
127.636246 132.0
127.658058 80.0
127.699211 176.0
127.714958 168.0
127.741951 156.0
127.782448 108.0
127.808495 76.0
127.842865 136.0
127.852859 96.0
127.857635 164.0
127.886559 468.0
127.942238 108.0
127.981308 192.0
127.995979 92.0
128.049728 1440.0
128.129959 244.0
128.185501 80.0
128.220078 284.0
128.264374 120.0
128.305389 168.0
128.34375 176.0
128.422211 132.0
128.44252 148.0
128.465073 80.0
128.500839 252.0
128.55632 192.0
128.591431 140.0
128.662979 212.0
128.678177 160.0
128.699799 60.0
128.715607 164.0
128.731079 140.0
128.746216 272.0
128.775482 172.0
128.805939 152.0
128.826279 40.0
128.873718 164.0
128.955078 164.0
128.991241 180.0
129.045151 2380.0
129.106552 96.0
129.148834 172.0
129.183228 156.0
129.225891 168.0
129.285278 112.0
129.301117 60.0
129.348648 116.0
129.364487 288.0
129.384872 64.0
129.434677 144.0
129.463989 144.0
129.488327 52.0
129.515152 144.0
129.534332 136.0
129.563782 60.0
129.636292 172.0
129.656693 64.0
129.676727 152.0
129.758698 84.0
129.808823 288.0
129.838013 136.0
129.858475 144.0
129.878738 196.0
129.915176 144.0
129.933212 148.0
129.963318 220.0
129.983246 80.0
130.008209 104.0
130.045135 624.0
130.085373 160.0
130.104645 164.0
130.140625 168.0
130.174103 156.0
130.202438 280.0
130.234253 276.0
130.260162 92.0
130.290131 172.0
130.313736 160.0
130.371567 200.0
130.398773 136.0
130.423798 188.0
130.505692 64.0
130.526154 172.0
130.560257 128.0
130.580093 260.0
130.612579 180.0
130.630768 196.0
130.682022 144.0
130.703583 120.0
130.728607 124.0
130.769577 152.0
130.794617 68.0
130.833313 180.0
130.853806 376.0
130.883392 124.0
130.91861 380.0
130.950928 184.0
130.983612 176.0
131.022339 120.0
131.062103 176.0
131.140747 204.0
131.149292 196.0
131.155991 148.0
131.164886 144.0
131.186508 208.0
131.238861 196.0
131.26622 68.0
131.28447 184.0
131.324005 204.0
131.362015 196.0
131.385818 120.0
131.403076 200.0
131.432739 196.0
131.473816 124.0
131.503494 200.0
131.543884 212.0
131.562836 252.0
131.587952 136.0
131.606781 224.0
131.645035 152.0
131.718124 180.0
131.734116 48.0
131.784378 176.0
131.838806 200.0
131.896362 128.0
131.960632 176.0
131.990707 180.0
132.032944 260.0
132.03891 164.0
132.058044 304.0
132.075317 196.0
132.102158 184.0
132.134186 172.0
132.218704 160.0
132.253189 104.0
132.276276 204.0
132.301254 176.0
132.364944 388.0
132.390564 144.0
132.446762 208.0
132.463852 224.0
132.508392 164.0
132.539459 52.0
132.578003 44.0
132.598129 144.0
132.624054 212.0
132.656799 160.0
132.679352 116.0
132.692596 180.0
132.742569 204.0
132.76181 96.0
132.798508 48.0
132.835419 172.0
132.862335 204.0
132.927475 208.0
132.945343 100.0
132.995834 96.0
133.037918 244.0
133.094559 144.0
133.127975 140.0
133.169769 176.0
133.191971 124.0
133.208801 172.0
133.277481 140.0
133.342667 148.0
133.374847 172.0
133.400131 196.0
133.427719 28.0
133.469238 360.0
133.491943 176.0
133.495331 156.0
133.504791 204.0
133.528885 360.0
133.54866 148.0
133.572601 132.0
133.616302 172.0
133.634705 204.0
133.655319 188.0
133.689941 120.0
133.779709 152.0
133.81424 140.0
133.839569 104.0
133.867645 164.0
133.899445 188.0
133.929382 164.0
133.96106 160.0
133.989273 124.0
134.019226 136.0
134.043594 188.0
134.085449 184.0
134.124695 84.0
134.148285 140.0
134.187485 216.0
134.260544 264.0
134.302795 164.0
134.330475 116.0
134.364594 204.0
134.414948 220.0
134.441223 224.0
134.482224 208.0
134.508148 112.0
134.540466 128.0
134.563126 236.0
134.593582 148.0
134.616669 168.0
134.636154 136.0
134.66748 132.0
134.691254 144.0
134.716537 152.0
134.751938 200.0
134.807541 172.0
134.831512 148.0
134.847702 36.0
134.877747 240.0
134.956604 180.0
134.981781 144.0
135.017365 140.0
135.035187 176.0
135.061386 152.0
135.097626 224.0
135.12056 184.0
135.195557 120.0
135.250153 164.0
135.282562 240.0
135.321915 164.0
135.356659 184.0
135.379807 188.0
135.396027 180.0
135.421494 160.0
135.451614 280.0
135.467422 184.0
135.504898 140.0
135.5616 136.0
135.595261 116.0
135.625946 120.0
135.655533 184.0
135.680283 124.0
135.688324 196.0
135.719803 188.0
135.728363 136.0
135.781509 156.0
135.830856 172.0
135.862946 228.0
135.883652 168.0
135.901367 148.0
135.923203 196.0
135.954742 144.0
135.977951 92.0
136.030975 128.0
136.062805 252.0
136.091644 164.0
136.170654 132.0
136.191559 116.0
136.212463 212.0
136.251556 132.0
136.282166 192.0
136.303345 176.0
136.325226 204.0
136.362473 56.0
136.414642 180.0
136.45723 188.0
136.483292 168.0
136.512283 124.0
136.610977 192.0
136.654037 200.0
136.697006 296.0
136.777847 88.0
136.786102 192.0
136.795013 132.0
136.845093 188.0
136.903244 292.0
136.921875 84.0
136.957016 132.0
136.978928 168.0
137.007187 168.0
137.031372 76.0
137.072586 72.0
137.133896 112.0
137.154877 156.0
137.175858 156.0
137.201508 164.0
137.294235 156.0
137.367081 56.0
137.403091 192.0
137.4254 68.0
137.464676 140.0
137.552612 152.0
137.585571 244.0
137.658829 88.0
137.693863 84.0
137.720108 228.0
137.752258 176.0
137.791962 92.0
137.810486 56.0
137.827698 136.0
137.842407 224.0
137.865402 56.0
137.909973 224.0
137.930008 56.0
137.968842 160.0
138.040024 164.0
138.093521 188.0
138.144989 48.0
138.192657 200.0
138.211182 68.0
138.246674 136.0
138.270111 208.0
138.317902 224.0
138.348938 160.0
138.371475 156.0
138.456299 132.0
138.48674 200.0
138.506073 284.0
138.569351 312.0
138.585129 204.0
138.653091 164.0
138.676529 140.0
138.694138 172.0
138.718719 124.0
138.76326 96.0
138.798431 148.0
138.839493 188.0
138.887924 176.0
138.925079 156.0
138.992477 188.0
139.050888 156.0
139.06459 160.0
139.126907 172.0
139.143341 152.0
139.169174 64.0
139.192535 160.0
139.218628 128.0
139.251358 276.0
139.281906 116.0
139.326538 124.0
139.342972 192.0
139.36882 128.0
139.399368 84.0
139.436981 140.0
139.481918 164.0
139.489624 160.0
139.531128 148.0
139.55687 136.0
139.606247 152.0
139.622711 112.0
139.650558 180.0
139.695618 204.0
139.759796 280.0
139.784637 192.0
139.803864 172.0
139.841507 160.0
139.862213 196.0
139.88623 148.0
139.923523 324.0
139.993469 176.0
140.021194 184.0
140.049469 11352.0
140.090988 128.0
140.138229 36.0
140.159439 140.0
140.178055 172.0
140.194794 184.0
140.215729 104.0
140.278458 160.0
140.324432 244.0
140.362671 164.0
140.398636 240.0
140.424454 176.0
140.514084 144.0
140.546143 224.0
140.583908 208.0
140.617844 288.0
140.675949 304.0
140.718903 252.0
140.739029 168.0
140.768921 180.0
140.812912 180.0
140.841248 192.0
140.883774 128.0
140.904861 396.0
140.924789 172.0
140.946472 164.0
140.967056 232.0
140.994827 100.0
141.016022 120.0
141.057175 11584.0
141.098358 180.0
141.127213 120.0
141.153168 176.0
141.176437 176.0
141.205322 204.0
141.227631 168.0
141.243286 188.0
141.279388 184.0
141.302765 152.0
141.325897 240.0
141.37207 256.0
141.380783 120.0
141.385834 212.0
141.409698 136.0
141.434753 64.0
141.491562 120.0
141.515244 84.0
141.53418 220.0
141.582214 100.0
141.62468 172.0
141.654297 196.0
141.699219 260.0
141.743103 328.0
141.789719 120.0
141.816299 188.0
141.844543 188.0
141.902328 160.0
141.958984 404.0
141.991562 36.0
142.013763 144.0
142.053436 11144.0
142.100677 120.0
142.119049 180.0
142.145981 84.0
142.184723 136.0
142.220322 164.0
142.242813 196.0
142.280258 164.0
142.330917 64.0
142.359406 108.0
142.377914 176.0
142.425903 120.0
142.453491 92.0
142.460861 56.0
142.467667 132.0
142.485291 316.0
142.549454 180.0
142.567413 316.0
142.608871 68.0
142.63533 148.0
142.699203 164.0
142.737244 56.0
142.775299 196.0
142.79483 168.0
142.848862 116.0
142.895706 132.0
142.905945 52.0
142.909561 132.0
142.974991 196.0
142.9832 184.0
143.024002 212.0
143.056976 1156.0
143.113205 116.0
143.132248 340.0
143.148926 96.0
143.16922 168.0
143.190491 196.0
143.265289 256.0
143.331955 124.0
143.358063 252.0
143.405304 124.0
143.425293 136.0
143.443939 136.0
143.472961 56.0
143.501572 192.0
143.571228 152.0
143.60173 284.0
143.662079 256.0
143.694763 124.0
143.721008 144.0
143.745956 160.0
143.798203 140.0
143.846756 64.0
143.935898 160.0
143.981216 152.0
144.012268 168.0
144.068436 980.0
144.110214 48.0
144.142014 116.0
144.176239 152.0
144.201965 172.0
144.21051 144.0
144.289459 56.0
144.330109 296.0
144.346848 216.0
144.368027 164.0
144.42099 72.0
144.479141 168.0
144.497223 152.0
144.520844 92.0
144.587326 84.0
144.656769 180.0
144.705841 136.0
144.748871 64.0
144.786072 60.0
144.89418 192.0
144.928513 356.0
144.957672 196.0
144.986038 68.0
145.005203 132.0
145.033966 112.0
145.069305 344.0
145.140121 156.0
145.181381 320.0
145.218597 136.0
145.235382 136.0
145.26828 140.0
145.34761 108.0
145.393494 152.0
145.44014 132.0
145.463348 116.0
145.48494 180.0
145.522888 140.0
145.553192 132.0
145.583389 68.0
145.630356 140.0
145.650635 184.0
145.686752 116.0
145.716888 188.0
145.765961 172.0
145.784393 192.0
145.804413 232.0
145.821243 172.0
145.93663 116.0
145.966812 120.0
145.989136 124.0
146.009979 144.0
146.037628 144.0
146.060349 320.0
146.077698 164.0
146.141281 140.0
146.207779 184.0
146.24321 152.0
146.341156 160.0
146.370377 152.0
146.405869 116.0
146.427536 148.0
146.45163 196.0
146.503571 200.0
146.53595 124.0
146.572083 228.0
146.64827 52.0
146.673248 164.0
146.769745 160.0
146.901596 388.0
146.94754 84.0
146.990158 148.0
147.013382 144.0
147.056717 176.0
147.100922 160.0
147.172821 160.0
147.206512 60.0
147.236389 204.0
147.332108 92.0
147.369507 108.0
147.413727 128.0
147.443253 156.0
147.463654 284.0
147.497803 116.0
147.539703 164.0
147.600388 60.0
147.639297 136.0
147.682617 180.0
147.766876 236.0
147.813263 140.0
147.841293 212.0
147.851593 124.0
147.855255 192.0
147.912491 140.0
147.941177 160.0
147.949722 136.0
148.018188 140.0
148.040817 168.0
148.072632 172.0
148.126572 108.0
148.155579 116.0
148.180679 188.0
148.210373 160.0
148.266281 152.0
148.31459 152.0
148.343674 116.0
148.368164 168.0
148.387421 236.0
148.409134 132.0
148.440659 120.0
148.460068 176.0
148.479462 184.0
148.544952 104.0
148.584946 172.0
148.606812 168.0
148.641998 180.0
148.700699 128.0
148.720779 116.0
148.771851 200.0
148.833771 164.0
148.877045 232.0
148.900543 104.0
148.928482 180.0
148.989441 124.0
149.007828 144.0
149.040421 152.0
149.071823 144.0
149.127716 104.0
149.178757 48.0
149.198212 148.0
149.249268 92.0
149.306824 168.0
149.366013 208.0
149.406067 176.0
149.465759 116.0
149.496857 128.0
149.531464 144.0
149.554031 160.0
149.594757 192.0
149.682404 184.0
149.716492 36.0
149.740845 104.0
149.757904 140.0
149.812912 280.0
149.908081 192.0
149.942017 196.0
149.958405 212.0
149.982071 112.0
150.014816 356.0
150.03186 160.0
150.051651 180.0
150.100876 120.0
150.147858 176.0
150.169113 224.0
150.240143 168.0
150.247162 208.0
150.291794 164.0
150.320938 156.0
150.392532 156.0
150.434982 196.0
150.460205 160.0
150.484909 144.0
150.53833 68.0
150.557877 188.0
150.573746 96.0
150.601059 152.0
150.660568 192.0
150.684891 160.0
150.75087 184.0
150.786407 152.0
150.841293 128.0
150.865738 148.0
150.886078 176.0
150.934845 188.0
150.956207 160.0
150.981644 200.0
151.025757 160.0
151.044876 180.0
151.101929 84.0
151.120102 128.0
151.161041 164.0
151.205109 76.0
151.29631 148.0
151.32814 44.0
151.35997 224.0
151.379974 120.0
151.483841 160.0
151.504486 52.0
151.528976 236.0
151.546127 204.0
151.565735 112.0
151.58815 232.0
151.649994 84.0
151.688858 68.0
151.709641 156.0
151.744659 200.0
151.797333 116.0
151.827866 168.0
151.857101 132.0
151.886902 152.0
151.921249 120.0
151.955597 164.0
151.987183 160.0
152.01857 252.0
152.051773 232.0
152.076843 132.0
152.117569 104.0
152.142334 180.0
152.161758 156.0
152.191223 172.0
152.276642 240.0
152.299271 112.0
152.333664 44.0
152.38118 212.0
152.409821 188.0
152.458282 204.0
152.490921 60.0
152.567123 112.0
152.616302 156.0
152.645813 200.0
152.675323 212.0
152.692535 144.0
152.739258 152.0
152.76236 176.0
152.796997 192.0
152.815521 148.0
152.839935 100.0
152.957825 192.0
152.9729 148.0
153.017349 132.0
153.047882 784.0
153.091217 84.0
153.118317 84.0
153.15033 144.0
153.192017 156.0
153.200562 256.0
153.258041 144.0
153.297287 124.0
153.350998 136.0
153.406601 124.0
153.445099 188.0
153.556442 192.0
153.563431 180.0
153.611282 116.0
153.629959 140.0
153.650757 88.0
153.678818 344.0
153.791412 180.0
153.822891 96.0
153.861877 168.0
153.892624 136.0
153.928406 172.0
154.013641 108.0
154.064407 544.0
154.122345 112.0
154.139633 136.0
154.171951 156.0
154.201263 164.0
154.233551 324.0
154.280579 176.0
154.354691 156.0
154.377197 356.0
154.414047 52.0
154.456879 256.0
154.49437 256.0
154.553726 140.0
154.59465 152.0
154.686234 160.0
154.715927 108.0
154.800125 196.0
154.839172 176.0
154.858368 220.0
154.883652 132.0
154.983154 180.0
155.01268 208.0
155.066757 344.0
155.109482 148.0
155.122955 200.0
155.151962 156.0
155.171799 132.0
155.197327 372.0
155.235733 208.0
155.266022 144.0
155.287613 160.0
155.350357 160.0
155.457962 208.0
155.533371 176.0
155.568253 144.0
155.578415 116.0
155.589874 132.0
155.678772 128.0
155.702667 132.0
155.740082 176.0
155.774857 224.0
155.80632 48.0
155.858704 252.0
155.901581 116.0
155.953766 32.0
155.996017 120.0
156.045746 40.0
156.066696 436.0
156.156631 224.0
156.180038 160.0
156.209885 88.0
156.232269 400.0
156.272079 124.0
156.299454 100.0
156.356689 64.0
156.397141 244.0
156.418915 244.0
156.487808 172.0
156.519333 180.0
156.566284 108.0
156.59819 124.0
156.64801 148.0
156.677902 212.0
156.747665 148.0
156.765121 248.0
156.842377 108.0
156.892227 64.0
156.921295 176.0
156.9608 256.0
156.984497 188.0
157.009583 124.0
157.029724 244.0
157.05571 156.0
157.085571 152.0
157.111694 68.0
157.129166 152.0
157.164093 124.0
157.234344 396.0
157.276398 180.0
157.301361 116.0
157.358292 124.0
157.387527 132.0
157.418701 28.0
157.467789 220.0
157.513611 68.0
157.5336 200.0
157.571075 168.0
157.610977 148.0
157.651031 148.0
157.688522 132.0
157.719589 168.0
157.768509 204.0
157.803513 92.0
157.825333 148.0
157.86853 164.0
157.910721 156.0
157.928253 176.0
157.970276 156.0
158.003601 208.0
158.025223 192.0
158.053635 136.0
158.093674 172.0
158.13121 108.0
158.155182 232.0
158.186279 132.0
158.21846 164.0
158.246368 108.0
158.268906 204.0
158.301453 132.0
158.334015 56.0
158.360916 200.0
158.404144 44.0
158.450195 448.0
158.475479 152.0
158.493149 208.0
158.529419 160.0
158.607117 72.0
158.646225 276.0
158.68483 160.0
158.702377 140.0
158.726913 168.0
158.792664 208.0
158.832047 160.0
158.893188 104.0
158.953079 140.0
158.992706 136.0
159.020981 160.0
159.063278 216.0
159.116364 36.0
159.133942 84.0
159.154037 40.0
159.200043 136.0
159.254166 128.0
159.28212 188.0
159.319794 88.0
159.344925 148.0
159.385651 132.0
159.40773 124.0
159.425323 224.0
159.451721 184.0
159.472397 340.0
159.50827 164.0
159.558548 100.0
159.58989 116.0
159.611343 176.0
159.666779 100.0
159.697418 108.0
159.767288 128.0
159.818451 168.0
159.852341 112.0
159.874176 336.0
159.893097 192.0
159.918274 108.0
159.935898 120.0
160.03653 156.0
160.061249 160.0
160.08696 100.0
160.129974 192.0
160.155899 120.0
160.203018 152.0
160.220444 376.0
160.25824 44.0
160.328796 116.0
160.390625 100.0
160.408722 180.0
160.445221 204.0
160.480713 256.0
160.488541 172.0
160.498413 184.0
160.530487 136.0
160.555695 80.0
160.581573 168.0
160.668091 160.0
160.694366 152.0
160.75499 216.0
160.80043 48.0
160.820618 512.0
160.848465 116.0
160.895538 216.0
160.924118 168.0
160.944321 124.0
160.973541 236.0
161.037369 184.0
161.067123 128.0
161.125 164.0
161.171646 224.0
161.244934 48.0
161.292953 144.0
161.322052 176.0
161.338684 328.0
161.415329 208.0
161.477539 136.0
161.495239 132.0
161.553421 164.0
161.595932 140.0
161.625763 108.0
161.667282 176.0
161.715118 160.0
161.791306 132.0
161.81485 380.0
161.85968 112.0
161.916718 228.0
161.948212 352.0
161.971359 200.0
162.023163 168.0
162.057251 124.0
162.173813 136.0
162.191238 124.0
162.218002 96.0
162.23822 328.0
162.2677 116.0
162.296356 96.0
162.325928 84.0
162.366516 40.0
162.399475 144.0
162.419769 176.0
162.444916 92.0
162.461746 184.0
162.481995 212.0
162.507721 176.0
162.543427 300.0
162.566925 144.0
162.584686 180.0
162.645599 80.0
162.700058 80.0
162.764923 112.0
162.792923 172.0
162.812927 196.0
162.83049 172.0
162.835281 148.0
162.863388 208.0
162.872986 132.0
162.918015 176.0
162.952896 184.0
162.993744 156.0
163.039291 220.0
163.066483 320.0
163.100281 136.0
163.163437 248.0
163.196884 204.0
163.232758 148.0
163.280807 172.0
163.298615 160.0
163.320557 184.0
163.366196 220.0
163.40036 128.0
163.430893 100.0
163.453537 160.0
163.463409 144.0
163.473434 128.0
163.481354 164.0
163.509781 124.0
163.570877 116.0
163.61055 164.0
163.635864 128.0
163.698166 132.0
163.738922 240.0
163.769485 104.0
163.802597 188.0
163.860764 192.0
163.886154 140.0
163.929993 152.0
163.978409 88.0
164.013535 156.0
164.039581 180.0
164.082657 148.0
164.123718 200.0
164.144119 144.0
164.174728 168.0
164.205322 76.0
164.236206 148.0
164.285553 88.0
164.315018 100.0
164.353287 176.0
164.376831 176.0
164.401764 168.0
164.429459 160.0
164.439606 136.0
164.504715 192.0
164.5345 76.0
164.574402 108.0
164.60025 224.0
164.626419 84.0
164.68045 200.0
164.726303 144.0
164.772018 68.0
164.817535 128.0
164.822006 220.0
164.862564 288.0
164.902344 164.0
164.945053 152.0
164.970459 172.0
164.999481 136.0
165.028793 112.0
165.072037 128.0
165.113861 164.0
165.148758 140.0
165.177795 160.0
165.237335 108.0
165.257797 180.0
165.275711 60.0
165.296188 160.0
165.32309 156.0
165.360168 144.0
165.406235 152.0
165.442078 108.0
165.470245 156.0
165.49585 148.0
165.539825 136.0
165.572388 188.0
165.576569 168.0
165.594666 220.0
165.610443 128.0
165.662201 184.0
165.720535 132.0
165.738235 228.0
165.758392 176.0
165.785309 96.0
165.813492 68.0
165.854507 184.0
165.907135 120.0
165.968842 160.0
166.003204 232.0
166.050217 1020.0
166.106171 192.0
166.135117 352.0
166.155487 120.0
166.175217 140.0
166.208069 176.0
166.261307 72.0
166.285416 132.0
166.303375 124.0
166.334183 164.0
166.361389 160.0
166.390656 128.0
166.436966 116.0
166.457413 72.0
166.508102 196.0
166.516312 336.0
166.569183 152.0
166.614929 124.0
166.634369 188.0
166.651794 136.0
166.711731 164.0
166.755051 136.0
166.779037 152.0
166.836533 252.0
166.887192 156.0
166.906387 324.0
166.92627 156.0
166.953186 276.0
166.973068 196.0
167.004196 180.0
167.060577 13424.0
167.101257 148.0
167.108276 188.0
167.147491 124.0
167.202576 112.0
167.245346 376.0
167.279282 224.0
167.311737 180.0
167.334961 184.0
167.381851 140.0
167.387711 124.0
167.410904 164.0
167.448425 144.0
167.492126 164.0
167.496964 256.0
167.511597 204.0
167.520935 316.0
167.552628 656.0
167.593109 488.0
167.626373 384.0
167.658401 444.0
167.676437 360.0
167.710541 212.0
167.737473 436.0
167.792725 428.0
167.833069 256.0
167.843445 324.0
167.866959 528.0
167.907593 460.0
167.926544 768.0
167.944748 392.0
167.987335 1036.0
168.069824 418092.0
168.144684 404.0
168.165802 236.0
168.205978 232.0
168.244415 656.0
168.263748 240.0
168.309052 1616.0
168.352203 544.0
168.392212 520.0
168.424316 688.0
168.463562 1380.0
168.503876 4912.0
168.568268 224.0
168.595016 396.0
168.639969 96.0
168.645416 164.0
168.664444 44.0
168.682724 256.0
168.706161 236.0
168.740265 224.0
168.748047 308.0
168.758194 324.0
168.788544 84.0
168.859177 96.0
168.89653 920.0
168.922714 164.0
168.938477 408.0
169.002914 144.0
169.034119 212.0
169.072495 79152.0
169.14476 192.0
169.174438 84.0
169.195908 76.0
169.241318 184.0
169.294006 188.0
169.360443 268.0
169.391708 140.0
169.43576 192.0
169.460403 144.0
169.497818 260.0
169.523315 240.0
169.557693 64.0
169.597458 152.0
169.61731 56.0
169.62645 92.0
169.650269 124.0
169.689438 84.0
169.724777 60.0
169.759354 220.0
169.786438 196.0
169.829727 84.0
169.847672 68.0
169.863617 76.0
169.882462 156.0
169.920517 192.0
169.929535 116.0
169.943954 100.0
169.964752 252.0
169.990601 248.0
170.019531 244.0
170.04422 188.0
170.075439 5580.0
170.108002 280.0
170.1185 260.0
170.149628 104.0
170.165054 72.0
170.183273 244.0
170.224564 252.0
170.233017 256.0
170.255753 144.0
170.270523 152.0
170.292236 228.0
170.296127 144.0
170.325699 316.0
170.344025 344.0
170.350861 204.0
170.39621 352.0
170.436783 140.0
170.463455 96.0
170.480728 176.0
170.499405 104.0
170.522461 132.0
170.554276 92.0
170.589005 128.0
170.629608 176.0
170.666809 72.0
170.697205 64.0
170.731827 64.0
170.750031 40.0
170.785019 160.0
170.848877 72.0
170.8853 76.0
170.911316 108.0
170.972549 68.0
171.001572 120.0
171.052536 352.0
171.088989 128.0
171.109131 136.0
171.125977 72.0
171.167191 200.0
171.20134 68.0
171.232956 88.0
171.267273 376.0
171.317917 96.0
171.338135 164.0
171.373657 136.0
171.415009 88.0
171.442551 56.0
171.473816 96.0
171.507935 44.0
171.542297 132.0
171.600189 92.0
171.635452 104.0
171.679779 104.0
171.72673 164.0
171.771072 72.0
171.80098 172.0
171.86409 116.0
171.885864 116.0
171.914825 40.0
171.945892 48.0
172.003311 80.0
172.034637 60.0
172.06369 368.0
172.092697 116.0
172.149521 76.0
172.17601 84.0
172.209595 128.0
172.272278 92.0
172.306244 40.0
172.34021 168.0
172.366333 64.0
172.394089 200.0
172.42775 128.0
172.468262 56.0
172.486557 176.0
172.574142 48.0
172.623795 132.0
172.664352 80.0
172.690506 64.0
172.74942 52.0
172.863174 48.0
172.969833 180.0
172.994049 92.0
173.063889 176.0
173.096161 136.0
173.185196 60.0
173.240219 64.0
173.271652 104.0
173.30571 88.0
173.324051 100.0
173.342392 120.0
173.44986 92.0
173.672729 124.0
173.785538 36.0
173.93251 124.0
174.000763 88.0
174.063782 76.0
174.087402 48.0
174.125381 132.0
174.174088 64.0
174.238403 124.0
174.279175 212.0
174.297562 140.0
174.421082 184.0
174.631439 100.0
174.668259 72.0
174.691711 104.0
174.79718 56.0
174.828751 184.0
174.84816 140.0
174.939301 52.0
175.005127 104.0
175.028824 40.0
175.070953 112.0
175.126266 152.0
175.147339 68.0
175.224792 168.0
175.344955 64.0
175.380081 212.0
175.513672 52.0
175.53212 112.0
175.587509 76.0
175.617599 184.0
175.658539 112.0
175.672089 116.0
175.877731 96.0
175.917328 68.0
175.941086 76.0
175.978058 92.0
176.054626 64.0
176.088959 52.0
176.162918 192.0
176.199905 56.0
176.255402 108.0
176.28743 144.0
176.345245 116.0
176.466858 192.0
176.527664 148.0
176.548828 84.0
176.569977 52.0
176.667847 80.0
176.759811 188.0
176.77739 84.0
177.045105 84.0
177.09668 64.0
177.150696 144.0
177.210602 92.0
177.266235 48.0
177.328812 144.0
177.392395 80.0
177.430573 116.0
177.449127 156.0
177.512772 96.0
177.547241 40.0
177.568466 96.0
177.701096 96.0
177.746216 28.0
177.778046 144.0
177.804596 168.0
177.837448 52.0
177.857681 132.0
177.905457 76.0
177.955292 140.0
178.128525 64.0
178.1604 164.0
178.206772 124.0
178.245422 60.0
178.321609 84.0
178.35173 112.0
178.375656 40.0
178.396927 68.0
178.422592 128.0
178.553802 40.0
178.604996 148.0
178.755981 76.0
178.814529 96.0
178.843811 76.0
178.947632 104.0
178.966278 88.0
179.004623 188.0
179.061172 1432.0
179.102097 72.0
179.237961 112.0
179.259293 68.0
179.280609 64.0
179.325912 84.0
179.397385 64.0
179.444305 164.0
179.4832 176.0
179.512527 28.0
179.630402 84.0
179.712143 96.0
179.7202 80.0
179.822006 128.0
179.859375 48.0
179.892227 156.0
179.928787 96.0
180.004883 104.0
180.069061 572.0
180.145096 80.0
180.203873 40.0
180.259995 104.0
180.326797 28.0
180.348175 132.0
180.386627 156.0
180.465805 108.0
180.491714 140.0
180.548706 40.0
180.639648 144.0
180.687805 96.0
180.738083 156.0
180.883163 64.0
180.918854 88.0
180.951431 32.0
181.076385 6208.0
181.145584 108.0
181.207199 88.0
181.231323 92.0
181.289566 136.0
181.314392 104.0
181.357269 56.0
181.384491 128.0
181.432327 36.0
181.542267 64.0
181.697174 208.0
181.735626 72.0
181.876877 112.0
182.025299 132.0
182.082825 3692.0
182.12178 52.0
182.139023 152.0
182.197205 84.0
182.261688 184.0
182.304214 212.0
182.350372 60.0
182.382614 88.0
182.486511 68.0
182.552002 60.0
182.619232 132.0
182.650528 76.0
182.678345 192.0
182.818329 156.0
182.877899 208.0
182.90715 48.0
182.947525 132.0
182.982529 196.0
183.058441 568.0
183.091003 4268.0
183.149551 92.0
183.224915 116.0
183.284195 100.0
183.367737 68.0
183.410858 204.0
183.43782 84.0
183.526779 64.0
183.62117 80.0
183.702087 136.0
183.796524 96.0
183.846893 144.0
183.931458 48.0
183.988144 40.0
184.064682 904.0
184.093552 424.0
184.166382 60.0
184.198792 112.0
184.258224 40.0
184.359756 132.0
184.431168 164.0
184.54332 140.0
184.571762 140.0
184.847672 76.0
184.866608 108.0
184.973251 120.0
185.071304 200.0
185.156281 116.0
185.245667 52.0
185.264633 176.0
185.324234 148.0
185.405533 136.0
185.440765 60.0
185.505829 108.0
185.55191 76.0
185.608856 156.0
185.627823 56.0
185.64682 160.0
185.695633 152.0
185.885529 52.0
186.080841 176.0
186.151566 44.0
186.213409 148.0
186.371597 184.0
186.681473 184.0
186.75914 188.0
186.825638 100.0
186.844681 136.0
186.897781 232.0
186.937469 104.0
187.035172 28.0
187.329269 136.0
187.408279 160.0
187.468216 88.0
187.536362 136.0
187.716293 160.0
187.800842 92.0
187.818863 80.0
188.183838 172.0
188.242966 144.0
188.292114 72.0
188.406845 64.0
188.497009 124.0
188.5298 64.0
188.554398 64.0
188.619995 120.0
188.983734 60.0
189.039825 120.0
189.119461 176.0
189.219116 136.0
189.238281 212.0
189.325912 132.0
189.402588 188.0
190.068802 160.0
190.175827 112.0
190.716934 100.0
191.096436 200.0
191.178986 132.0
191.267059 72.0
191.319733 228.0
191.457047 84.0
191.597519 100.0
191.616806 224.0
192.068909 132.0
192.267578 176.0
192.389023 172.0
192.428726 200.0
192.759125 48.0
192.825455 200.0
192.861389 124.0
193.073303 404.0
193.166367 136.0
193.458893 172.0
193.572418 96.0
193.791245 184.0
193.902084 76.0
193.988007 40.0
194.081039 152.0
194.126648 88.0
194.148819 244.0
194.179337 44.0
194.29306 108.0
194.318039 144.0
194.365204 216.0
194.437347 40.0
194.683533 196.0
194.717758 100.0
194.837204 168.0
194.928894 144.0
195.054581 588.0
195.173523 160.0
195.273636 124.0
195.315353 136.0
195.357086 144.0
195.404373 224.0
195.471161 92.0
195.562988 168.0
195.643723 200.0
195.749527 84.0
195.863708 128.0
195.891357 200.0
195.9375 256.0
195.991669 124.0
196.009628 248.0
196.063782 55432.0
196.127838 124.0
196.151764 124.0
196.194626 48.0
196.208755 44.0
196.21817 84.0
196.275726 120.0
196.302994 52.0
196.32164 344.0
196.350372 108.0
196.39534 204.0
196.430313 180.0
196.479797 88.0
196.499329 260.0
196.520721 108.0
196.546432 168.0
196.596573 56.0
196.707642 56.0
196.814728 92.0
196.843109 68.0
196.959946 124.0
196.998062 168.0
197.067108 7556.0
197.127579 68.0
197.169495 52.0
197.23378 48.0
197.275711 84.0
197.354004 140.0
197.429504 60.0
197.449081 60.0
197.474243 120.0
197.510605 52.0
197.552567 52.0
197.574951 44.0
197.698059 80.0
197.86322 60.0
197.936005 40.0
198.071228 448.0
198.115265 228.0
198.190918 44.0
198.227692 64.0
198.289001 108.0
198.35907 68.0
198.380875 128.0
198.469879 84.0
198.509445 120.0
198.541321 116.0
198.577545 96.0
198.614563 104.0
198.650711 92.0
198.692795 60.0
198.776962 48.0
198.805023 64.0
198.889221 116.0
198.945374 48.0
199.088562 88.0
199.172821 40.0
199.318924 128.0
199.338593 112.0
199.409668 164.0
199.439774 76.0
199.502914 164.0
199.571899 232.0
199.650635 56.0
199.726929 156.0
200.057632 1480.0
200.241653 32.0
200.269821 148.0
200.441666 100.0
200.486755 72.0
200.532242 116.0
200.932281 184.0
201.062424 348.0
201.279449 52.0
201.335938 80.0
201.381119 56.0
201.85025 224.0
201.938934 152.0
201.980362 64.0
202.034103 152.0
202.08786 104.0
202.297287 68.0
202.716476 140.0
202.770325 40.0
202.869537 92.0
203.175812 196.0
203.576035 128.0
203.800446 216.0
203.84874 160.0
203.925476 160.0
204.226868 100.0
204.512573 136.0
204.650894 64.0
204.944275 152.0
205.195099 116.0
205.266373 48.0
205.463181 44.0
205.497421 128.0
205.899918 40.0
206.017029 96.0
206.631699 36.0
206.654587 144.0
206.758835 132.0
206.886414 100.0
207.212143 196.0
207.284531 140.0
207.528183 144.0
207.728928 164.0
208.147797 200.0
208.193909 88.0
208.231247 40.0
208.299637 208.0
208.406479 56.0
208.469696 216.0
208.610535 56.0
208.642166 132.0
208.765808 148.0
208.794556 132.0
208.90387 136.0
208.981537 72.0
209.07692 104.0
209.162842 80.0
209.211792 124.0
209.341354 40.0
209.453674 184.0
209.626541 100.0
209.684189 104.0
209.764893 140.0
209.806793 180.0
209.932114 204.0
210.080231 236.0
210.122009 188.0
210.19751 164.0
210.310074 176.0
210.365723 164.0
210.396667 176.0
210.426376 96.0
210.447388 92.0
210.50061 156.0
210.54393 148.0
210.6017 120.0
210.621918 108.0
210.644272 168.0
210.679047 216.0
210.720596 184.0
210.806824 108.0
210.849258 192.0
210.857986 272.0
210.886353 268.0
210.92868 172.0
210.958633 176.0
211.01123 196.0
211.036652 512.0
211.08786 98616.0
211.164398 140.0
211.176086 188.0
211.187241 88.0
211.25209 36.0
211.290314 56.0
211.318634 144.0
211.371979 84.0
211.426544 164.0
211.456085 72.0
211.482864 116.0
211.525146 196.0
211.562653 288.0
211.595718 76.0
211.626404 60.0
211.690689 112.0
211.726028 76.0
211.761536 60.0
211.859863 136.0
211.893753 144.0
211.946121 128.0
211.955765 88.0
212.031448 176.0
212.053497 104.0
212.090118 9908.0
212.146927 148.0
212.167221 40.0
212.193314 84.0
212.222305 68.0
212.273193 80.0
212.36731 64.0
212.404602 56.0
212.428329 72.0
212.465942 32.0
212.504379 52.0
212.542267 104.0
212.566879 96.0
212.616821 44.0
212.651657 76.0
212.676392 48.0
212.697891 72.0
212.744537 92.0
212.799698 88.0
212.825836 44.0
212.861542 156.0
212.892624 104.0
212.939087 28.0
212.974762 240.0
213.093811 672.0
213.138229 80.0
213.174408 84.0
213.241257 80.0
213.270309 76.0
213.296478 44.0
213.382141 112.0
213.412399 64.0
213.4776 308.0
213.535126 100.0
213.58226 100.0
213.613434 52.0
213.670502 104.0
213.700195 112.0
213.750717 128.0
213.782196 108.0
213.811813 112.0
213.843307 68.0
213.985947 120.0
214.020889 60.0
214.090179 140.0
214.166504 52.0
214.341309 108.0
214.463699 52.0
214.515198 144.0
214.574478 72.0
214.656128 44.0
214.787369 116.0
214.819901 52.0
214.942001 52.0
214.962418 56.0
215.219299 112.0
215.333191 92.0
215.599045 52.0
215.756897 128.0
216.031799 76.0
216.087372 92.0
216.438614 104.0
216.526474 84.0
217.373703 84.0
219.96666 52.0
220.530838 136.0
220.649094 112.0
220.859055 72.0
220.930038 60.0
221.202301 60.0
221.477676 76.0
221.954178 72.0
222.049728 84.0
222.524521 68.0
222.844849 136.0
222.904724 92.0
223.169418 76.0
223.228745 104.0
223.297134 56.0
223.45105 108.0
223.686935 80.0
223.895355 48.0
225.079239 80.0
225.103134 76.0
225.318192 124.0
227.198318 32.0
227.99704 120.0
229.224854 120.0
230.11467 60.0
230.670547 40.0
230.769897 116.0
234.321426 76.0
234.7939 96.0
234.943359 80.0
238.053162 100.0
239.273865 44.0
239.298492 40.0
239.418594 92.0
240.35881 80.0
240.540909 48.0
240.655136 52.0
241.078323 120.0
241.248322 40.0
241.495697 52.0
243.050888 112.0
243.951569 92.0
246.057587 68.0
246.963821 120.0
247.045151 80.0
247.530273 52.0
250.30304 68.0
251.005737 72.0
253.40799 60.0
253.528397 48.0
253.550583 68.0
254.416534 60.0
254.438751 104.0
254.668442 60.0
256.455566 52.0
257.109406 104.0
257.154083 56.0
259.947968 88.0
260.442413 48.0
261.197784 52.0
261.674072 72.0
262.125 84.0
262.253937 92.0
266.03537 68.0
266.688293 32.0
266.902863 96.0
267.257416 40.0
270.14151 84.0
270.265839 68.0
270.855133 96.0
271.156555 96.0
271.694336 104.0
274.57254 60.0
275.622314 68.0
276.405975 96.0
276.737 56.0
276.968811 96.0
277.290192 112.0
277.701324 72.0
278.049713 112.0
278.175842 72.0
279.076172 64.0
279.708282 56.0
281.141449 80.0
281.204865 116.0
281.522034 60.0
282.785797 56.0
283.31485 80.0
283.361755 72.0
283.670074 100.0
284.176483 48.0
284.206696 36.0
284.915131 64.0
285.863312 76.0
285.93399 92.0
286.199921 52.0
287.005219 44.0
287.191895 68.0
287.42688 56.0
287.835297 60.0
288.034576 60.0
288.798492 96.0
290.505737 68.0
290.878998 72.0
291.008026 84.0
291.497131 44.0
292.799133 72.0
295.151337 48.0
295.175293 88.0
297.601257 112.0
298.343384 96.0
301.60788 100.0
302.209625 64.0
302.323822 108.0
302.514191 112.0
302.579956 52.0
303.87619 84.0
304.445465 84.0
305.28299 68.0
305.735229 72.0
306.055511 68.0
307.509216 80.0
307.764038 44.0
308.288025 120.0
308.571167 108.0
308.735504 76.0
309.277802 80.0
309.817078 32.0
309.995758 56.0
310.206055 60.0
310.612823 48.0
311.792572 84.0
312.147644 120.0
312.432526 48.0
312.83374 64.0
315.772339 84.0
316.169281 76.0
316.721619 56.0
316.962524 100.0
317.100739 120.0
318.647919 48.0
318.722534 48.0
320.540833 40.0
321.243225 52.0
321.4216 68.0
321.803528 56.0
322.360779 60.0
324.250336 64.0
325.146973 32.0
326.461823 96.0
326.681244 112.0
326.889923 124.0
327.829803 20.0
328.832428 100.0
329.236755 44.0
329.579956 60.0
329.999237 96.0
330.639496 72.0
331.425323 52.0
331.628265 128.0
333.388489 68.0
334.155731 68.0
334.275787 60.0
335.474091 88.0
335.835083 72.0
336.31308 84.0
336.539429 72.0
336.754883 32.0
337.811249 132.0
339.459442 124.0
339.551117 140.0
339.650146 80.0
340.395172 36.0
340.898438 76.0
341.402069 112.0
344.036591 56.0
345.15979 92.0
345.662872 48.0
345.818298 32.0
347.385712 60.0
348.566376 28.0
349.633667 96.0
350.151154 108.0
352.792969 44.0
353.043488 60.0
353.488647 56.0
353.660828 108.0
353.743164 88.0
354.072662 120.0
354.121368 52.0
356.79071 36.0
357.379852 72.0
360.653259 128.0
360.936798 84.0
361.663177 68.0
362.901978 56.0
363.258453 72.0
366.101501 64.0
369.135315 92.0
371.582886 72.0
372.235413 64.0
372.327576 88.0
372.592621 76.0
373.873047 56.0
374.015472 68.0
376.722473 52.0
378.249939 52.0
379.873596 60.0
380.288788 104.0
380.64209 36.0
380.739166 48.0
382.808075 44.0
384.507812 40.0
384.972382 60.0
385.968842 80.0
387.28772 92.0
387.757874 52.0
391.635864 64.0
395.038483 68.0
396.697723 48.0
397.479065 56.0
401.995605 68.0
405.883789 52.0
407.850983 60.0
411.496796 92.0
411.634064 76.0
413.348022 64.0
417.469513 76.0
417.624054 76.0
418.437927 60.0
419.415619 72.0
420.263885 96.0
427.615723 48.0
429.395569 64.0
429.865875 80.0
430.179565 76.0
430.443787 60.0
432.7966 48.0
438.592072 76.0
440.440552 88.0
441.422699 88.0
442.962891 80.0
444.18692 88.0
445.879028 84.0
446.009308 56.0
447.220703 68.0
448.78363 60.0
450.526703 104.0
453.103149 108.0
453.289581 132.0
453.80246 136.0
454.998901 28.0
455.037109 84.0
462.283417 28.0
462.441742 96.0
463.568115 124.0
464.031036 52.0
464.931824 40.0
465.146423 56.0
467.247864 72.0
472.165344 124.0
473.646973 88.0
475.2323 132.0
477.152008 96.0
478.611847 84.0
480.400848 44.0
482.339722 40.0
482.982483 56.0
483.179352 88.0
484.488373 56.0
484.549683 108.0
484.939697 92.0
487.199554 92.0
487.480743 52.0
490.557312 56.0
491.231995 28.0
493.254456 76.0
493.625854 108.0
495.981171 100.0
497.09436 40.0
497.147614 60.0
497.764679 44.0
503.366547 60.0
509.588165 60.0
511.882172 64.0
513.572205 80.0
514.285095 60.0
515.43219 40.0
520.573669 68.0
520.814331 48.0
525.25238 96.0
527.732239 52.0
528.816406 76.0
531.478943 104.0
534.944275 44.0
540.093994 56.0
541.288025 56.0
547.930054 88.0
550.943848 76.0
551.256897 48.0
553.759827 56.0
561.321472 56.0
562.095032 68.0
563.27063 64.0
564.088135 108.0
567.155457 80.0
570.934753 120.0
571.33429 60.0
571.377136 136.0
574.049255 88.0
577.956604 88.0
578.272461 64.0
581.910889 44.0
586.548462 56.0
588.048523 56.0
588.473328 52.0
589.173645 68.0
593.393921 48.0
595.145447 84.0
601.244934 56.0
602.685486 68.0
604.641541 88.0
604.940125 112.0
607.149902 40.0
609.668396 60.0
619.734985 52.0
621.564636 80.0
628.660767 28.0
637.760925 56.0
639.098633 92.0
640.377258 64.0
641.183411 28.0
646.157227 72.0
647.392273 60.0
648.212952 60.0
655.861755 76.0
656.993774 64.0
662.745605 100.0
667.118286 72.0
667.560486 56.0
667.776489 176.0
669.603577 80.0
672.459839 80.0
675.26532 52.0
676.362244 116.0
677.864197 120.0
677.947083 76.0
684.716431 60.0
686.649963 56.0
688.654175 120.0
692.550842 76.0
692.639893 96.0
695.891296 84.0
707.483521 80.0
712.018433 40.0
713.873169 92.0
718.059082 112.0
718.843262 68.0
721.070251 60.0
721.930969 116.0
724.087708 96.0
725.169983 104.0
728.636475 84.0
728.738586 128.0
737.992981 100.0
740.866882 88.0
748.296448 68.0
749.124207 76.0
761.942139 36.0
763.145752 80.0
765.566895 108.0
766.018555 60.0
766.608093 56.0
768.582214 176.0
769.393555 100.0
769.55365 160.0
771.034058 184.0
774.752441 64.0
780.091003 32.0
781.347839 28.0
782.138 48.0
784.594666 72.0
798.605286 108.0
804.510681 36.0
806.906067 228.0
810.596497 64.0
814.44873 32.0
814.528259 136.0
814.721375 40.0
817.945679 184.0
818.930725 248.0
827.530884 140.0
827.971802 120.0
830.654236 56.0
832.376038 44.0
835.560242 200.0
837.701843 136.0
841.675537 28.0
842.744141 60.0
844.484192 208.0
846.671875 64.0
850.138672 204.0
856.103149 76.0
859.326538 124.0
860.225281 100.0
861.924866 136.0
867.713501 56.0
872.416016 128.0
876.636169 140.0
876.856689 112.0
879.40802 68.0
880.157776 224.0
880.925537 104.0
884.378784 132.0
887.423706 128.0
890.776794 136.0
893.511414 148.0
893.785095 136.0
894.789856 104.0
895.725952 72.0
897.85376 140.0
901.88385 64.0
902.942139 48.0
905.575562 36.0
906.138672 132.0
906.186584 44.0
907.319336 172.0
911.478699 192.0
912.236023 140.0
913.456726 172.0
915.286316 180.0
919.385437 196.0
920.351318 44.0
922.901123 60.0
923.463501 128.0
924.610901 180.0
925.686707 56.0
929.721924 116.0
931.622437 152.0
932.874268 128.0
939.127869 232.0
941.044006 204.0
941.385986 196.0
944.882202 168.0
944.94342 204.0
945.39624 44.0
947.520935 68.0
948.188843 80.0
949.108337 188.0
950.500793 168.0
950.684875 168.0
951.249512 200.0
953.780273 192.0
956.265198 200.0
957.280823 160.0
958.007751 140.0
958.488342 120.0
958.741028 144.0
959.338867 68.0
960.929993 88.0
964.208923 244.0
965.964905 132.0
966.082458 64.0
966.725952 124.0
968.676208 144.0
969.611816 156.0
970.907532 136.0
971.689148 184.0
972.737915 60.0
974.184814 120.0
974.899353 148.0
975.017395 56.0
975.912537 64.0
978.114807 68.0
978.656433 148.0
981.740906 164.0
982.351685 52.0
983.138306 76.0
983.906067 92.0
985.198792 188.0
985.804871 176.0
986.217346 180.0
988.374939 140.0
990.697693 180.0
991.462158 128.0
992.095215 184.0
993.111023 48.0
993.180054 176.0
993.393311 180.0
993.688171 200.0
994.642029 156.0
995.100342 152.0
997.110474 132.0
997.229858 148.0
1001.105286 68.0
1001.332031 156.0
1005.7771 128.0
1006.458923 44.0
1007.785339 152.0
1008.859741 72.0
1011.358337 148.0
1013.40387 132.0
1015.495789 80.0
1016.104736 80.0
1016.498169 112.0
1017.761292 168.0
1018.186768 140.0
1019.775085 204.0
1021.504639 60.0
1021.752747 160.0
1023.859619 104.0
1024.630371 144.0
1025.140137 180.0
1028.692627 184.0
1029.363037 32.0
1029.707886 100.0
1031.496948 100.0
1031.739868 204.0
1031.995605 128.0
1032.467285 320.0
1033.108398 156.0
1033.166016 212.0
1033.49231 216.0
1033.626709 216.0
1034.689209 264.0
1035.816284 76.0
1036.162231 172.0
1037.1427 68.0
1038.476318 208.0
1040.773682 32.0
1041.460938 144.0
1043.170166 176.0
1043.46228 248.0
1044.456177 108.0
1045.504883 48.0
1045.60791 48.0
1045.691528 160.0
1046.774902 276.0
1048.170898 32.0
1048.286865 104.0
1048.576904 200.0
1048.634888 196.0
1049.021606 48.0
1050.659668 160.0
1051.504883 196.0
1051.570068 204.0
1052.738037 212.0
1053.855469 100.0
1054.954224 152.0
1055.264526 100.0
1058.473755 160.0
1060.171021 88.0
1060.2229 128.0
1061.286011 160.0
1061.662109 144.0
1061.817749 184.0
1062.349609 148.0
1062.49231 60.0
1064.374512 112.0
1064.465454 108.0
1064.829102 200.0
1065.933472 52.0
1066.095947 148.0
1067.747192 188.0
1068.4823 60.0
1068.905151 92.0
1068.976807 180.0
1069.503906 120.0
1069.848877 48.0
1070.076782 208.0
1070.714966 92.0
1070.890747 212.0
1075.839966 208.0
1076.505981 260.0
1076.884766 172.0
1078.446289 220.0
1079.865112 64.0
1080.218994 212.0
1080.296875 160.0
1080.565063 168.0
1080.682861 60.0
1080.800659 200.0
1082.234009 164.0
1082.490723 164.0
1082.908569 128.0
1083.583252 60.0
1083.694702 188.0
1085.248047 208.0
1085.707031 124.0
1085.9104 168.0
1086.008789 184.0
1087.005981 112.0
1087.484985 176.0
1089.612549 200.0
1089.783447 136.0
1089.862305 184.0
1090.282837 112.0
1091.058472 164.0
1091.992188 68.0
1093.972778 116.0
1096.475708 168.0
1096.607544 32.0
1096.759155 192.0
1096.825073 132.0
1097.240356 204.0
1097.919556 160.0
1098.651733 156.0
1098.88916 180.0
1099.357666 164.0
1100.453369 224.0
1100.592041 56.0
1101.080688 168.0
1101.166626 164.0
1101.747925 156.0
1104.03479 100.0
1104.85498 196.0
1105.053467 196.0
1105.573853 156.0
1107.456543 72.0
1110.087524 108.0
1110.346191 112.0
1110.399292 204.0
1111.274902 172.0
1111.321289 68.0
1113.545166 128.0
1114.309082 96.0
1114.410278 264.0
1115.53186 140.0
1115.838501 168.0
1116.908325 96.0
1118.971313 48.0
1120.623047 76.0
1122.362671 188.0
1122.856201 244.0
1123.196289 156.0
1123.93689 44.0
1124.183716 200.0
1124.724365 240.0
1124.897949 132.0
1125.315674 124.0
1125.578857 204.0
1126.627441 168.0
1126.861328 64.0
1126.974854 156.0
1127.075195 48.0
1127.930542 240.0
1129.582275 120.0
1129.776245 148.0
1130.124146 160.0
1130.545654 164.0
1130.793335 216.0
1130.933838 116.0
1131.884521 168.0
1132.33313 168.0
1132.598389 20.0
1132.72168 44.0
1133.056641 136.0
1133.311157 92.0
1133.820435 152.0
1133.914307 204.0
1134.195801 180.0
1134.481567 180.0
1135.436157 228.0
1136.328369 160.0
1136.751099 188.0
1137.791382 188.0
1138.543457 176.0
1139.450317 152.0
1140.276733 176.0
1140.350708 136.0
1140.397827 124.0
1140.77417 96.0
1141.433105 108.0
1141.594482 208.0
1141.997925 136.0
1142.072021 36.0
1143.054199 216.0
1143.464722 128.0
1143.727173 80.0
1144.063721 136.0
1144.171509 172.0
1144.723633 204.0
1145.4375 184.0
1145.747437 160.0
1145.909058 120.0
1146.252686 92.0
1146.495361 136.0
1147.068237 240.0
1147.391846 156.0
1147.870483 148.0
1147.964966 84.0
1148.018921 100.0
1148.450562 76.0
1148.656128 168.0
1148.725098 128.0
1149.044189 176.0
1150.994751 196.0
1151.210815 136.0
1151.369629 108.0
1151.562012 160.0
1152.595581 276.0
1152.656372 88.0
1152.953735 112.0
1153.798706 184.0
1154.319336 204.0
1154.867065 104.0
1155.056519 128.0
1157.310059 108.0
1157.628296 112.0
1157.756958 116.0
1159.025757 168.0
1159.579468 72.0
1161.30835 136.0
1161.53894 156.0
1161.803467 64.0
1162.156372 200.0
1162.230957 100.0
1162.882446 220.0
1163.147095 68.0
1163.737793 96.0
1164.742798 180.0
1165.456177 200.0
1165.632812 68.0
1166.251343 120.0
1166.495972 148.0
1167.83374 76.0
1169.091553 200.0
1169.386841 88.0
1169.434448 52.0
1169.890503 176.0
1170.455566 128.0
1171.04126 100.0
1172.717407 136.0
1173.9104 196.0
1174.060425 116.0
1174.183228 160.0
1174.387817 176.0
1174.899414 108.0
1175.397461 64.0
1175.745483 148.0
1176.516846 176.0
1176.564575 200.0
1177.308838 156.0
1177.411255 172.0
1177.629883 44.0
1177.7323 180.0
1178.196777 204.0
1178.388062 108.0
1178.599976 176.0
1179.194458 240.0
1179.310669 144.0
1179.768677 148.0
1180.014771 96.0
1180.370239 104.0
1182.881226 60.0
1183.469971 216.0
1183.572632 124.0
1183.695923 96.0
1184.195801 172.0
1184.874023 128.0
1185.202881 76.0
1185.339844 200.0
1185.607178 136.0
1187.039917 148.0
1187.862915 52.0
1188.699951 68.0
1189.777466 192.0
1189.866821 132.0
1190.141357 140.0
1190.251221 100.0
1191.659302 156.0
1191.935181 208.0
1192.112793 48.0
1192.477051 156.0
1192.697021 192.0
1193.033813 136.0
1193.130127 112.0
1193.796997 188.0
1195.117798 192.0
1196.900513 72.0
1197.286133 160.0
1197.781982 92.0
1198.401978 36.0
1198.519165 60.0
1198.656982 104.0
1198.7948 212.0
1199.484009 108.0
1199.608032 240.0
1199.677002 156.0
1200.046875 196.0
1200.600952 116.0
1201.062988 172.0
1201.125122 164.0
1201.559692 196.0
1201.718384 136.0
1202.201416 144.0
1202.422241 84.0
1202.491333 76.0
1202.864258 136.0
1202.981323 164.0
1203.478394 108.0
1204.121216 180.0
1204.238037 176.0
1204.935791 176.0
1205.274292 72.0
1206.110474 84.0
1207.645508 144.0
1208.807739 156.0
1208.925415 180.0
1209.326782 104.0
1209.582886 128.0
1209.880615 152.0
1210.476074 120.0
1210.53833 148.0
1210.669922 112.0
1211.293335 172.0
1211.438721 320.0
1211.611938 40.0
1211.930664 84.0
1212.05542 188.0
1212.346436 168.0
1213.178955 164.0
1214.363892 204.0
1214.509521 192.0
1214.793945 100.0
1215.009033 144.0
1215.140747 84.0
1215.203247 224.0
1215.383057 152.0
1215.751465 160.0
1216.181763 240.0
1216.62854 204.0
1216.834229 152.0
1216.910645 172.0
1216.966187 36.0
1217.493896 192.0
1217.549438 116.0
1217.917603 128.0
1218.223267 100.0
1218.410767 68.0
1218.570557 112.0
1219.362793 48.0
1219.654663 184.0
1219.738037 128.0
1219.842407 88.0
1220.099609 152.0
1220.655762 176.0
1220.753174 104.0
1221.302612 140.0
1221.47644 208.0
1222.520142 120.0
1223.383179 128.0
1223.793945 140.0
1224.232666 124.0
1224.364868 124.0
1224.643555 144.0
1224.936035 28.0
1225.047485 132.0
1225.395874 172.0
1225.493408 64.0
1225.586548 176.0
1225.876587 120.0
1226.036865 100.0
1226.761841 152.0
1227.410156 160.0
1228.609863 76.0
1229.140137 80.0
1229.495972 56.0
1229.705322 112.0
1230.864258 80.0
1230.996826 104.0
1231.087646 132.0
1231.443848 180.0
1231.974731 180.0
1232.226196 184.0
1233.756714 104.0
1233.903564 160.0
1234.043335 184.0
1235.358154 132.0
1235.708008 76.0
1236.162842 136.0
1237.349976 136.0
1237.786743 144.0
1238.066895 188.0
1238.146606 220.0
1238.578247 132.0
1239.005493 124.0
1239.615112 96.0
1239.832275 116.0
1239.958496 176.0
1240.117065 172.0
1240.6875 164.0
1241.38855 144.0
1241.963745 124.0
1242.258301 144.0
1242.461792 160.0
1243.114258 152.0
1243.324829 132.0
1243.401978 220.0
1243.75293 108.0
1244.089844 100.0
1244.862183 72.0
1245.145386 124.0
1245.374878 96.0
1245.529419 168.0
1245.733154 116.0
1245.986084 88.0
1246.484863 56.0
1246.822266 72.0
1246.892456 212.0
1246.990845 148.0
1247.827393 100.0
1248.153931 108.0
1248.228149 172.0
1248.530518 116.0
1249.501221 160.0
1249.897949 180.0
1250.775024 220.0
1250.824219 160.0
1251.098755 168.0
1251.204346 196.0
1251.295898 156.0
1251.626831 208.0
1251.704346 160.0
1252.810059 192.0
1253.162354 156.0
1253.824707 128.0
1254.649414 192.0
1254.726929 124.0
1255.269897 148.0
1255.36853 152.0
1255.439087 144.0
1255.607666 176.0
1256.426636 144.0
1257.026367 172.0
1257.37207 128.0
1258.310913 120.0
1258.459595 156.0
1258.593384 92.0
1259.419678 172.0
1259.758667 92.0
1260.18335 172.0
1260.663086 84.0
1261.002319 200.0
1261.46167 232.0
1261.603149 180.0
1262.133423 152.0
1262.24646 144.0
1262.366699 64.0
1262.479858 128.0
1262.663696 140.0
1262.967896 176.0
1263.052734 76.0
1263.180054 76.0
1263.229614 52.0
1263.349854 168.0
1263.519653 156.0
1263.945557 160.0
1264.148071 168.0
1264.503174 136.0
1264.750977 100.0
1265.352661 168.0
1265.565063 164.0
1265.678345 76.0
1266.166992 128.0
1266.372314 60.0
1266.429077 100.0
1266.6698 136.0
1267.55542 92.0
1267.711304 92.0
1267.760986 200.0
1267.88855 120.0
1268.030273 144.0
1268.27124 232.0
1268.349243 140.0
1268.668213 156.0
1268.717773 112.0
1270.100586 148.0
1270.368896 208.0
1270.542725 200.0
1271.379761 220.0
1271.597656 112.0
1272.066162 40.0
1272.435303 164.0
1272.54187 140.0
1272.740601 96.0
1272.854248 208.0
1273.124023 112.0
1273.234741 180.0
1274.11853 144.0
1274.225098 176.0
1274.28894 112.0
1274.712524 184.0
1274.871704 144.0
1275.155884 188.0
1275.263916 164.0
1275.696167 160.0
1276.094238 168.0
1276.513794 152.0
1276.60144 192.0
1277.175171 148.0
1277.402832 140.0
1277.813354 124.0
1278.18103 104.0
1278.24231 156.0
1278.349121 192.0
1278.445923 168.0
1278.825928 76.0
1278.882812 156.0
1279.032349 152.0
1279.131958 164.0
1280.135864 224.0
1280.848022 84.0
1281.033203 196.0
1281.360962 124.0
1281.482056 112.0
1281.703003 144.0
1281.817017 152.0
1281.895386 124.0
1281.966675 72.0
1282.130493 104.0
1282.57959 108.0
1282.736572 152.0
1282.878906 156.0
1283.427856 80.0
1284.091064 136.0
1284.373657 284.0
1284.483398 112.0
1284.533325 128.0
1284.690308 124.0
1284.768799 160.0
1285.282471 180.0
1285.389526 112.0
1285.646362 316.0
1285.960449 184.0
1286.353027 132.0
1286.424316 140.0
1287.659668 48.0
1288.252441 88.0
1288.381104 52.0
1288.809692 96.0
1289.038452 160.0
1289.202759 100.0
1289.352783 188.0
1289.410034 128.0
1290.382202 280.0
1290.510864 116.0
1290.582397 136.0
1291.182983 100.0
1292.120117 180.0
1292.270264 160.0
1292.39917 156.0
1292.842773 144.0
1293.043213 36.0
1293.114746 128.0
1293.193481 188.0
1293.379517 116.0
1293.544189 80.0
1293.887817 152.0
1294.317383 196.0
1294.489258 112.0
1294.553711 68.0
1294.84021 112.0
1294.926147 108.0
1295.24707 220.0
1295.61377 160.0
1295.728394 120.0
1295.928955 152.0
1296.545288 176.0
1296.73877 140.0
1297.355225 164.0
1297.928711 164.0
1298.22998 148.0
1298.647949 188.0
1299.119385 176.0
1299.581421 204.0
1299.650269 120.0
1299.779419 104.0
1299.915771 140.0
1300.009033 136.0
1300.482666 124.0
1300.611938 192.0
1300.827271 164.0
1301.200562 124.0
1301.861084 196.0
1302.132324 104.0
1302.211914 132.0
1302.385376 228.0
1303.075073 188.0
1303.750488 156.0
1304.232056 92.0
1304.986816 80.0
1305.087524 48.0
1305.69873 84.0
1305.907349 192.0
1305.982056 120.0
1306.605103 208.0
1307.144531 128.0
1307.209473 56.0
1307.367554 164.0
1307.713257 76.0
1308.116333 120.0
1308.325073 160.0
1308.461914 116.0
1308.568481 188.0
1308.908325 220.0
1309.059448 88.0
1309.361938 156.0
1309.750854 108.0
1309.9021 76.0
1310.024658 52.0
1310.247925 152.0
1310.301758 164.0
1310.536133 148.0
1310.600952 120.0
1310.935913 128.0
1311.509033 104.0
1311.602661 116.0
1311.862183 164.0
1312.028076 128.0
1312.627563 128.0
1312.844238 156.0
1313.037476 116.0
1313.282715 140.0
1313.88147 156.0
1314.00415 184.0
1314.220581 140.0
1314.754517 92.0
1315.54126 96.0
1316.010498 144.0
1316.630981 184.0
1316.698975 164.0
1316.970947 176.0
1317.079346 52.0
1317.310547 116.0
1317.678955 40.0
1317.996826 148.0
1318.074585 84.0
1318.466553 96.0
1318.907471 180.0
1319.471313 124.0
1319.579712 140.0
1319.73877 80.0
1320.057007 152.0
1320.151001 116.0
1320.469116 56.0
1320.700562 40.0
1321.091187 124.0
1321.235962 144.0
1321.937744 112.0
1322.429932 136.0
1322.755615 128.0
1322.864136 128.0
1323.364136 380.0
1323.863403 140.0
1323.971924 228.0
1324.071289 232.0
1324.268921 136.0
1324.464478 76.0
1324.544189 156.0
1325.47876 144.0
1325.623657 244.0
1325.681641 112.0
1325.843018 148.0
1326.783325 80.0
1326.96106 164.0
1327.131348 160.0
1327.254639 148.0
1327.312622 172.0
1327.435913 136.0
1327.486694 156.0
1327.638916 200.0
1327.900024 152.0
1328.415039 88.0
1328.567383 168.0
1328.850342 208.0
1329.213135 96.0
1329.401733 152.0
1329.564087 200.0
1329.67749 80.0
1330.018677 72.0
1330.243652 152.0
1330.338013 100.0
1330.388916 56.0
1330.505005 36.0
1330.621216 132.0
1330.911621 152.0
1331.441772 236.0
1331.536133 72.0
1331.754028 48.0
1332.033569 152.0
1332.429565 120.0
1332.640259 108.0
1332.887329 164.0
1333.374268 164.0
1333.650391 192.0
1333.897583 128.0
1334.348267 140.0
1334.908081 100.0
1335.919067 120.0
1336.071899 96.0
1336.431763 108.0
1336.47937 180.0
1336.595703 84.0
1336.84314 212.0
1336.953003 172.0
1337.105103 148.0
1337.257935 220.0
1337.338013 160.0
1337.454468 136.0
1337.505493 140.0
1337.561523 176.0
1338.532959 196.0
1338.750366 108.0
1339.078125 148.0
1339.37146 160.0
1339.580688 160.0
1339.923096 164.0
1340.001587 152.0
1340.44043 140.0
1340.545288 132.0
1340.644531 112.0
1340.74646 76.0
1341.203369 136.0
1341.391602 136.0
1341.715942 176.0
1342.182617 168.0
1342.270142 144.0
1342.627441 112.0
1342.707642 184.0
1343.016113 136.0
1343.181763 132.0
1343.517334 128.0
1343.677734 56.0
1344.212891 156.0
1344.575317 144.0
1344.700562 124.0
1344.918335 88.0
1345.429321 176.0
1345.589966 124.0
1345.757812 68.0
1345.816284 88.0
1346.335815 208.0
1346.60498 116.0
1346.714478 108.0
1346.845947 68.0
1347.444946 168.0
1347.583862 108.0
1347.759155 156.0
1347.83374 96.0
1348.161011 180.0
1348.358398 152.0
1348.460693 148.0
1348.614136 200.0
1348.738403 128.0
1348.818848 260.0
1348.877319 72.0
1349.074707 44.0
1349.527954 104.0
1349.601074 92.0
1349.871582 120.0
1349.966675 148.0
1350.127563 152.0
1350.251953 140.0
1350.368896 164.0
1350.653809 168.0
1350.83667 68.0
1351.11499 120.0
1351.296143 144.0
1351.35083 212.0
1351.480225 168.0
1351.627197 124.0
1351.975586 156.0
1352.029663 188.0
1352.212646 104.0
1352.293213 164.0
1352.398193 208.0
1352.60791 228.0
1352.761597 356.0
1352.870605 104.0
1353.003174 32.0
1353.098389 156.0
1353.18811 80.0
1353.339966 132.0
1353.709351 168.0
1353.874512 152.0
1354.057617 248.0
1354.443115 204.0
1354.541016 220.0
1354.716797 104.0
1355.156372 228.0
1355.229736 172.0
1355.361572 208.0
1355.493408 160.0
1355.552124 132.0
1355.647339 136.0
1355.763794 176.0
1355.896484 192.0
1355.9552 176.0
1356.123657 104.0
1356.314331 160.0
1356.365601 132.0
1356.60022 148.0
1356.695435 328.0
1356.856812 212.0
1356.974121 64.0
1357.07605 184.0
1357.098145 168.0
1357.91272 92.0
1358.338135 116.0
1359.123047 64.0
1359.335938 156.0
1359.387207 252.0
1359.651489 136.0
1359.812866 184.0
1360.069824 168.0
1360.510254 112.0
1361.227905 168.0
1361.33252 164.0
1361.606689 180.0
1361.780518 156.0
1362.057251 172.0
1362.382935 180.0
1362.581299 108.0
1362.706177 116.0
1363.146973 80.0
1363.298584 100.0
1363.477661 100.0
1363.558594 144.0
1363.955444 184.0
1364.135864 140.0
1364.197998 112.0
1364.337646 136.0
1364.477417 220.0
1364.771484 176.0
1364.837646 144.0
1365.68335 136.0
1365.962891 52.0
1366.087891 108.0
1366.211914 108.0
1366.507324 112.0
1367.037109 120.0
1367.289795 184.0
1367.55957 108.0
1367.684692 184.0
1367.890869 100.0
1367.971802 152.0
1368.177856 100.0
1368.398804 132.0
1368.509277 72.0
1368.818481 124.0
1369.162842 120.0
1369.305054 148.0
1369.76123 108.0
1369.886353 80.0
1369.996948 136.0
1370.258179 104.0
1370.375854 332.0
1370.652588 40.0
1371.013672 140.0
1371.165283 168.0
1371.286377 168.0
1371.377808 176.0
1371.507568 152.0
1371.728638 184.0
1371.809692 204.0
1371.868652 128.0
1371.953125 160.0
1372.186279 96.0
1372.576538 156.0
1372.753418 144.0
1373.181152 120.0
1373.29187 116.0
1373.424561 56.0
1373.800781 52.0
1373.859863 132.0
1373.970459 84.0
1374.022095 96.0
1374.191772 100.0
1374.288818 140.0
1374.457397 152.0
1374.516479 128.0
1374.693604 136.0
1374.745239 116.0
1375.052002 188.0
1375.106812 196.0
1375.210205 144.0
1375.382324 196.0
1375.557129 136.0
1375.608765 184.0
1376.28064 184.0
1376.772949 180.0
1376.827026 180.0
1376.916504 112.0
1377.166748 100.0
1377.329224 88.0
1377.440063 196.0
1377.809448 164.0
1377.971924 168.0
1378.56311 112.0
1379.02124 92.0
1379.120972 160.0
1379.191284 112.0
1379.435181 160.0
1379.70874 120.0
1379.80481 108.0
1380.072876 156.0
1380.167114 160.0
1380.344604 156.0
1380.544312 92.0
1380.618164 236.0
1381.029541 148.0
1381.180298 128.0
1381.416992 132.0
1381.705566 96.0
1381.772095 164.0
1381.905273 180.0
1382.689697 160.0
1382.759644 88.0
1382.827393 216.0
1383.067139 132.0
1383.178223 44.0
1383.252197 116.0
1383.637085 196.0
1383.925903 128.0
1384.377563 108.0
1384.533081 132.0
1384.710815 184.0
1384.814331 144.0
1384.903442 240.0
1385.00708 108.0
1385.162598 332.0
1385.723511 96.0
1386.2854 200.0
1386.511108 44.0
1386.659302 108.0
1386.874268 32.0
1387.348755 184.0
1387.499512 208.0
1387.930298 236.0
1388.067871 108.0
1388.127197 132.0
1388.297729 176.0
1388.520264 104.0
1388.750122 156.0
1389.292114 160.0
1389.373291 132.0
1389.469727 180.0
1389.595825 188.0
1389.892578 176.0
1389.981689 108.0
1390.597656 112.0
1391.213745 132.0
1391.287964 92.0
1391.496582 192.0
1391.681396 176.0
1391.748535 132.0
1391.829956 144.0
1391.911621 36.0
1392.015625 128.0
1392.364624 120.0
1392.587402 44.0
1392.691406 180.0
1392.854858 160.0
1393.226196 116.0
1393.393433 132.0
1393.449097 164.0
1393.627441 100.0
1393.746338 132.0
1393.865234 72.0
1393.924683 100.0
1394.038086 156.0
1394.29248 184.0
1394.467163 200.0
1394.541504 88.0
1394.697632 92.0
1394.856445 148.0
1395.07666 196.0
1395.322021 140.0
1395.395508 264.0
1395.522705 72.0
1395.775513 160.0
1396.006104 64.0
1396.177124 88.0
1396.273804 96.0
1396.348145 192.0
1396.47998 156.0
1396.727539 96.0
1396.871582 196.0
1396.950684 120.0
1397.203613 104.0
1397.255615 68.0
1397.452637 152.0
1397.583008 136.0
1397.668457 148.0
1398.327148 136.0
1398.409058 184.0
1398.557861 164.0
1398.632324 132.0
1398.699341 104.0
1399.123657 144.0
1399.19812 44.0
1399.39917 168.0
1399.495972 284.0
1399.585205 72.0
1399.72937 148.0
1399.830933 192.0
1399.933105 208.0
1400.160278 160.0
1400.338379 128.0
1400.471436 88.0
1400.657715 92.0
1400.940796 108.0
1401.164185 296.0
1401.299927 192.0
1401.46228 124.0
1401.551636 108.0
1401.663452 144.0
1401.730469 144.0
1401.805054 32.0
1402.013672 152.0
1402.118042 128.0
1402.222412 136.0
1402.356567 120.0
1402.596069 140.0
1402.687988 124.0
1402.863403 152.0
1403.027344 84.0
1403.592896 160.0
1403.720825 160.0
1403.968018 108.0
1404.280151 124.0
1404.489014 152.0
1404.649536 168.0
1404.75 100.0
1405.287231 124.0
1405.466187 156.0
1406.176392 180.0
1406.279663 144.0
1406.383667 152.0
1406.921631 132.0
1406.98877 132.0
1407.115723 152.0
1407.481567 140.0
1407.548828 148.0
1407.658691 84.0
1407.825073 108.0
1408.161621 172.0
1408.232056 212.0
1408.624268 128.0
1408.698975 132.0
1408.997803 92.0
1409.221924 112.0
1409.319092 112.0
1409.431152 176.0
1409.513306 100.0
1409.852783 340.0
1410.193359 176.0
1410.361572 184.0
1410.477417 132.0
1410.611938 84.0
1410.929443 188.0
1411.195068 172.0
1411.314697 204.0
1411.748413 164.0
1412.002686 124.0
1412.129761 168.0
1412.30188 32.0
1413.281128 164.0
1413.349243 120.0
1413.440308 160.0
1413.581177 136.0
1413.873047 200.0
1414.075073 144.0
1414.284668 144.0
1414.531006 184.0
1414.614014 168.0
1414.86853 132.0
1415.542358 204.0
1415.616455 192.0
1415.692139 124.0
1415.961792 116.0
1416.049805 168.0
1416.171509 132.0
1416.418701 152.0
1416.695801 80.0
1416.755737 124.0
1416.955566 144.0
1417.124146 164.0
1417.448364 164.0
1417.587402 156.0
1417.677368 224.0
1417.819702 180.0
1417.932129 180.0
1418.134521 136.0
1418.255249 148.0
1418.65918 188.0
1419.377686 120.0
1420.518921 220.0
1421.486816 188.0
1421.71936 172.0
1422.034668 160.0
1422.102173 108.0
1422.325806 132.0
1422.672607 52.0
1422.785278 116.0
1422.965454 136.0
1423.017944 32.0
1423.123169 160.0
1423.25769 192.0
1423.483521 152.0
1423.749146 144.0
1423.806396 56.0
1423.865601 140.0
1423.892944 108.0
1423.924683 208.0
1424.102173 116.0
1424.587646 184.0
1424.925659 128.0
1425.090942 72.0
1425.21875 232.0
1425.746582 176.0
1426.015259 56.0
1426.128052 88.0
1426.180664 200.0
1426.345947 196.0
1426.526367 244.0
1427.0 44.0
1427.289185 140.0
1427.368408 152.0
1427.458618 128.0
1427.635986 128.0
1427.967285 172.0
1428.090454 156.0
1428.286011 128.0
1428.376221 156.0
1428.436401 112.0
1428.504517 160.0
1428.605591 148.0
1428.744873 132.0
1428.925415 192.0
1429.090942 52.0
1429.421997 160.0
1429.527344 116.0
1430.039062 48.0
1430.204712 180.0
1430.325073 252.0
1430.596069 120.0
1430.859619 148.0
1431.454468 60.0
1431.680298 124.0
1432.209473 200.0
1432.365723 160.0
1432.486206 156.0
1432.689697 120.0
1432.742432 64.0
1433.521973 144.0
1433.546753 68.0
1433.574707 128.0
1433.774658 192.0
1433.895264 136.0
1434.076172 168.0
1434.136475 92.0
1434.21936 108.0
1434.292969 168.0
1434.441772 204.0
1434.545898 184.0
1434.649048 212.0
1434.815308 284.0
1435.048584 168.0
1435.124023 124.0
1435.191528 104.0
1435.297363 112.0
1435.478394 116.0
1435.598999 280.0
1435.900635 192.0
1436.089233 108.0
1436.187256 48.0
1436.296997 108.0
1436.496582 176.0
1436.639893 112.0
1437.298706 244.0
1438.171753 168.0
1438.248779 72.0
1438.662354 128.0
1438.71521 84.0
1438.888794 168.0
1439.115356 128.0
1439.188232 228.0
1439.219116 140.0
1439.241577 192.0
1439.394653 276.0
1439.477783 52.0
1439.560791 116.0
1439.693115 124.0
1439.810059 160.0
1439.983765 124.0
1440.051025 148.0
1440.406738 80.0
1440.713867 176.0
1440.797607 108.0
1440.886963 140.0
1441.056885 464.0
1441.199951 140.0
1441.428101 184.0
1441.538452 180.0
1441.615601 120.0
1441.719971 196.0
1441.925415 92.0
1442.469604 140.0
1442.545166 76.0
1442.741333 160.0
1442.83252 156.0
1443.006348 80.0
1443.150024 192.0
1443.203003 172.0
1443.421265 96.0
1443.447021 132.0
1443.626343 144.0
1443.81543 196.0
1443.921387 128.0
1444.095337 176.0
1444.299561 232.0
1444.428101 136.0
1444.813965 96.0
1444.942505 136.0
1445.173096 300.0
1445.388916 196.0
1445.449463 112.0
1445.623535 100.0
1445.796265 112.0
1446.123047 168.0
1446.357666 184.0
1446.539307 120.0
1446.637695 124.0
1447.084351 52.0
1447.425049 144.0
1447.644653 140.0
1447.743164 200.0
1447.826416 128.0
1448.217896 116.0
1448.575928 80.0
1448.788452 156.0
1448.864136 156.0
1448.955078 192.0
1449.136841 180.0
1449.735474 168.0
1449.788574 164.0
1449.891724 144.0
1449.947754 92.0
1450.713257 44.0
1450.834595 152.0
1451.062012 208.0
1451.175659 156.0
1451.39563 148.0
1451.549316 164.0
1451.850586 104.0
1452.079956 100.0
1452.533203 140.0
1452.83667 144.0
1453.033813 128.0
1453.436035 164.0
1453.542236 224.0
1453.69397 168.0
1453.800171 52.0
1454.073486 144.0
1454.339111 220.0
1454.442993 184.0
1454.544067 152.0
1454.673096 224.0
1454.976685 132.0
1455.602173 152.0
1455.699463 176.0
1455.804321 168.0
1455.933472 196.0
1456.434692 172.0
1456.533447 60.0
1456.670166 128.0
1456.730957 136.0
1456.951294 112.0
1457.125977 112.0
1457.338745 212.0
1457.475464 168.0
1457.551514 132.0
1457.802246 124.0
1458.030273 112.0
1458.25061 164.0
1458.341797 88.0
1458.471069 32.0
1459.32251 160.0
1459.466919 136.0
1459.672241 164.0
1459.778076 104.0
1459.8396 108.0
1459.900391 128.0
1460.082886 140.0
1460.409912 176.0
1460.615356 136.0
1460.866333 84.0
1460.980469 116.0
1461.125 164.0
1461.466431 136.0
1461.506958 152.0
1461.7146 112.0
1461.771729 124.0
1461.863037 128.0
1461.954346 132.0
1462.045654 120.0
1462.121826 124.0
1462.251221 84.0
1462.327271 132.0
1462.411011 128.0
1462.570801 176.0
1462.662231 160.0
1462.936157 108.0
1463.012329 140.0
1463.202637 32.0
1463.766113 188.0
1463.894043 80.0
1464.047852 128.0
1464.108765 96.0
1464.365601 168.0
1464.565796 180.0
1465.02063 144.0
1465.510376 176.0
1465.571289 128.0
1465.845703 160.0
1465.906616 140.0
1466.097168 204.0
1466.280029 160.0
1466.37915 128.0
1466.836426 164.0
1467.026978 144.0
1467.270996 164.0
1467.362427 68.0
1467.522583 100.0
1467.615601 140.0
1467.789429 136.0
1467.934326 44.0
1468.02063 160.0
1468.094482 88.0
1468.430054 120.0
1468.498657 172.0
1468.597778 100.0
1468.666504 112.0
1468.877441 280.0
1469.076416 168.0
1469.259155 120.0
1469.330078 152.0
1469.543701 112.0
1470.137573 180.0
1470.186157 184.0
1470.566284 160.0
1470.695068 160.0
1470.879272 108.0
1471.15271 164.0
1471.360229 184.0
1471.566284 148.0
1471.619751 116.0
1471.749512 140.0
1471.894653 156.0
1472.238281 112.0
1472.520874 40.0
1472.74231 152.0
1472.803467 100.0
1473.06311 164.0
1473.475708 108.0
1473.651367 148.0
1473.857666 104.0
1474.010498 60.0
1474.232544 200.0
1474.461426 164.0
1474.517456 196.0
1474.57605 144.0
1474.819824 140.0
1474.942871 160.0
1475.317505 140.0
1475.462769 212.0
1475.666748 288.0
1475.936768 192.0
1476.074341 112.0
1476.36499 156.0
1476.739746 100.0
1476.808594 196.0
1477.122192 108.0
1477.375244 240.0
1477.512329 72.0
1477.672974 140.0
1477.79541 96.0
1477.971313 220.0
1478.254517 180.0
1478.474487 112.0
1478.501099 144.0
1478.790161 196.0
1479.042847 176.0
1479.165405 160.0
1479.486816 128.0
1479.616943 116.0
1479.73938 256.0
1479.995728 160.0
1480.191162 240.0
1480.390259 68.0
1480.757812 124.0
1481.12854 184.0
1481.332275 100.0
1481.424194 236.0
1481.9375 60.0
1482.037109 128.0
1482.247437 120.0
1482.435547 176.0
1482.589111 124.0
1482.688477 120.0
1482.794556 128.0
1483.00293 144.0
1483.152588 144.0
1483.347656 48.0
1483.686279 156.0
1483.746338 156.0
1483.876953 140.0
1484.018921 108.0
1484.22937 160.0
1484.48999 156.0
1484.631226 168.0
1484.712402 44.0
1484.911865 144.0
1484.996216 136.0
1485.065186 144.0
1485.141968 136.0
1485.210938 220.0
1485.310669 132.0
1485.50354 116.0
1485.570312 200.0
1485.666748 136.0
1485.717285 168.0
1485.825073 136.0
1486.07019 132.0
1486.453857 168.0
1486.553589 88.0
1486.630249 176.0
1486.783813 152.0
1487.459229 148.0
1487.854492 156.0
1487.912109 172.0
1488.134766 156.0
1488.518677 192.0
1488.687622 336.0
1488.764404 116.0
1488.90271 216.0
1489.417236 144.0
1489.609253 56.0
1489.716797 152.0
1489.832031 100.0
1490.116333 112.0
1490.27002 128.0
1490.377563 216.0
1490.485107 168.0
1490.669556 124.0
1490.830933 152.0
1490.966675 188.0
1491.368896 168.0
1491.703125 180.0
1492.129883 136.0
1492.229858 184.0
1492.6604 252.0
1492.714233 156.0
1492.929565 72.0
1492.994385 104.0
1493.129517 144.0
1493.298706 180.0
1493.675659 144.0
1493.81665 164.0
1493.890991 64.0
1493.967896 120.0
1494.075684 108.0
1494.183594 116.0
1494.237183 164.0
1494.544922 136.0
1494.6604 164.0
1494.991333 108.0
1495.098999 108.0
1495.360718 124.0
1495.514648 116.0
1495.580322 180.0
1495.753174 112.0
1495.97644 176.0
1496.045776 68.0
1496.099609 68.0
1496.215088 168.0
1496.318481 232.0
1496.417236 144.0
1496.538452 80.0
1496.592407 172.0
1496.677124 92.0
1496.815674 212.0
1497.052002 232.0
1497.377808 120.0
1497.547241 156.0
1497.801392 140.0
1497.974976 148.0
1498.194336 148.0
1498.437012 160.0
1498.541016 140.0
1498.625732 224.0
1498.880005 148.0
1498.987915 212.0
1499.103516 112.0
1499.52832 148.0
1499.673828 96.0
1499.750854 128.0
1499.835693 144.0
1500.020508 188.0
1500.367188 152.0
1500.429199 148.0
1500.537109 152.0
1500.683716 144.0
1500.853271 176.0
1501.03064 112.0
1501.154053 176.0
1501.346802 124.0
1501.439331 124.0
1501.493286 176.0
1501.566528 188.0
1501.894409 136.0
1502.014648 156.0
1502.109009 156.0
1502.202881 132.0
1502.264282 188.0
1502.357178 96.0
1502.449829 140.0
1502.688965 68.0
1502.974487 96.0
1503.360229 140.0
1503.4375 184.0
1503.636108 168.0
