>compound Oxymetazoline hydrochloride
>formula C16H24N2O
>ionization [M+H]+
>parentmass 261.197723
#inchi InChI=1S/C16H24N2O/c1-10-8-13(16(3,4)5)15(19)11(2)12(10)9-14-17-6-7-18-14/h8,19H,6-7,9H2,1-5H3,(H,17,18)
#inchikey WYWIFABBXFUGLM
#origInchi InChI=1S/C16H24N2O.ClH/c1-10-8-13(16(3,4)5)15(19)11(2)12(10)9-14-17-6-7-18-14;/h8,19H,6-7,9H2,1-5H3,(H,17,18);1H
#Ion_Source LC-ESI
#Instrument qTof
#Compound_Source Commercial
#PI Dorrestein
#Data_Collector Garg_Neha
#Scan -1
#Precursor_MZ 261.196
#ExactMass 260.189
#Charge 1
#CAS_Number 2/8/2315
#Pubmed_ID N/A
#Smiles C1(=C(C(=C(C(=C1)C)CC2NCCN=2)C)O)C(C)(C)C.Cl
#INCHI_AUX N/A
#Library_Class 1
#SpectrumID CCMSLIB00000078492
#IonMode Positive
#UpdateWorkflowName UPDATE-SINGLE-ANNOTATED-GOLD
#LibraryQualityString Gold
#TaskID 77f51c88eb8b467eb4a01dd2d0cb90d2
##Scan# 1092
#SpectrumFile Plate7_81_88_Plate6_81_88_GD6_01_15772.mzXML
#LibraryName FDALibrary_2_04302014.mgf
#MQScore -1
#Organism FDALibrary_2_04302014
#TIC_Query 0
#RT_Query -1
#MZErrorPPM -1
#SharedPeaks 0
#MassDiff 0
#LibMZ -1
#SpecMZ 261.196
#SpecCharge 0
#internalFilename spec-00000.mgf

>collision 10
44.985481 148.0
45.133789 156.0
45.144485 200.0
45.185951 164.0
45.339947 188.0
45.45528 244.0
45.564041 168.0
45.785995 204.0
45.947754 224.0
46.186871 140.0
46.203102 208.0
46.228813 148.0
46.312962 184.0
46.413044 208.0
46.449661 148.0
46.895668 168.0
46.924297 224.0
47.022518 164.0
47.145435 168.0
47.295887 164.0
47.389011 176.0
47.423897 176.0
47.505135 132.0
47.56044 156.0
47.669781 196.0
47.695053 172.0
47.714302 140.0
47.802334 148.0
47.906887 124.0
47.967613 160.0
48.534466 140.0
48.588562 156.0
48.638519 172.0
48.802456 168.0
49.385399 196.0
49.72728 184.0
49.801697 148.0
50.249371 140.0
50.410343 176.0
50.808228 232.0
50.940258 156.0
51.025528 188.0
51.254688 148.0
51.320259 176.0
51.482937 200.0
51.664471 164.0
51.756073 168.0
51.919441 152.0
52.123291 140.0
52.212421 176.0
52.262772 172.0
52.510559 216.0
52.58847 168.0
52.621674 188.0
53.093231 164.0
53.193535 188.0
53.443829 168.0
54.378819 164.0
54.422859 236.0
54.488953 248.0
54.546268 188.0
55.00322 200.0
55.171333 132.0
55.470112 180.0
55.526718 160.0
55.60387 160.0
56.100693 204.0
56.118584 260.0
56.7001 196.0
57.012268 176.0
57.299675 152.0
57.397648 160.0
57.518349 180.0
57.59536 160.0
57.62104 172.0
57.810055 216.0
58.514378 172.0
58.565681 116.0
58.622528 212.0
58.688076 156.0
58.855923 184.0
58.990372 248.0
59.143345 168.0
59.488251 172.0
59.612663 152.0
59.694138 204.0
59.784904 180.0
59.806454 164.0
59.940441 164.0
60.034477 140.0
60.250576 224.0
60.30312 236.0
60.378876 208.0
60.440758 188.0
60.569485 164.0
60.631237 140.0
60.665337 200.0
60.804943 148.0
60.983559 140.0
61.030197 156.0
61.135979 152.0
61.174889 164.0
61.724098 144.0
61.894661 188.0
62.062325 156.0
62.148598 196.0
62.288326 204.0
62.587147 200.0
62.637547 204.0
62.719486 164.0
62.747864 188.0
62.83934 184.0
62.888264 144.0
63.06675 164.0
63.199593 152.0
63.556114 176.0
63.575157 176.0
63.589443 164.0
63.783226 168.0
63.870686 156.0
64.03463 248.0
64.080826 160.0
64.109512 180.0
64.368134 100.0
64.522934 156.0
64.535728 152.0
64.574104 156.0
64.791809 168.0
64.931274 220.0
65.287811 148.0
65.331245 168.0
65.414337 196.0
65.468056 208.0
65.660789 184.0
66.074989 224.0
66.417793 212.0
66.77903 332.0
66.844055 136.0
66.912468 140.0
67.037895 212.0
67.143509 148.0
67.256447 188.0
67.773247 208.0
67.807655 196.0
67.901115 148.0
68.035667 140.0
68.183502 184.0
68.695595 160.0
68.778107 248.0
68.850754 192.0
69.146698 184.0
69.255974 176.0
69.33979 164.0
69.61422 156.0
69.829903 160.0
69.893494 176.0
70.291756 140.0
70.346832 240.0
70.403603 160.0
70.617531 156.0
70.887077 160.0
71.046364 224.0
71.058113 160.0
71.113487 216.0
71.195755 216.0
71.338577 188.0
72.014297 188.0
72.040001 204.0
72.142723 156.0
72.571068 152.0
72.638908 260.0
72.739029 160.0
72.856209 228.0
73.133392 168.0
73.549301 140.0
73.639793 160.0
73.718033 156.0
74.133484 172.0
74.166801 188.0
74.31086 140.0
74.496277 156.0
74.532356 156.0
74.774841 212.0
74.898811 144.0
75.545006 168.0
75.835342 268.0
76.02092 160.0
76.184135 172.0
76.307533 180.0
76.319702 260.0
76.396225 144.0
76.519798 192.0
76.579521 228.0
76.626038 156.0
76.655663 144.0
76.73584 168.0
76.856194 176.0
77.077957 144.0
77.159309 132.0
77.179344 208.0
77.553993 156.0
77.846985 172.0
77.87912 176.0
78.077209 192.0
78.091278 148.0
78.214447 164.0
78.346527 180.0
78.414146 188.0
78.538673 168.0
78.586304 172.0
78.618073 188.0
78.655136 180.0
78.743423 180.0
78.792885 212.0
78.814087 312.0
79.035118 220.0
79.19622 156.0
79.387634 156.0
79.417786 168.0
79.714279 168.0
79.728493 164.0
79.746269 200.0
79.781822 152.0
79.806709 156.0
80.0131 220.0
80.059402 140.0
80.324974 156.0
80.36779 148.0
80.462799 156.0
80.638023 364.0
80.794815 144.0
80.862808 344.0
80.905769 208.0
81.158401 176.0
81.170952 156.0
81.373711 212.0
81.664841 176.0
82.241425 184.0
82.295586 148.0
82.368935 176.0
82.429253 156.0
82.441902 184.0
82.686058 160.0
82.7257 160.0
82.850838 144.0
82.897949 152.0
83.061127 160.0
83.099228 204.0
83.215385 160.0
83.375244 156.0
83.471596 164.0
83.560722 168.0
84.112915 164.0
84.211517 200.0
84.301041 176.0
84.410728 152.0
84.806175 152.0
84.919861 164.0
85.415802 172.0
85.892906 200.0
85.966705 160.0
86.04792 156.0
86.07193 140.0
86.0867 184.0
86.162231 112.0
86.203079 148.0
86.227104 192.0
86.24929 208.0
86.469398 176.0
86.636047 172.0
86.653641 140.0
86.775055 144.0
86.80574 192.0
86.860359 184.0
86.90303 192.0
86.932724 144.0
87.17971 368.0
87.237335 144.0
87.253311 128.0
87.372856 124.0
87.469864 164.0
87.594635 168.0
87.659302 208.0
87.866814 144.0
88.625931 164.0
88.873436 144.0
89.066811 188.0
89.152885 236.0
89.175789 188.0
89.243469 140.0
89.271675 208.0
89.484306 168.0
89.501251 156.0
89.978287 144.0
90.596718 168.0
90.721794 212.0
90.835579 196.0
90.900085 140.0
90.943741 188.0
90.999374 184.0
91.051605 128.0
91.074753 216.0
91.107048 232.0
91.401756 172.0
91.432152 148.0
91.582619 148.0
91.643585 152.0
91.686462 136.0
91.814301 188.0
91.996422 148.0
92.049881 172.0
92.481956 140.0
92.717545 148.0
92.738625 172.0
92.844078 180.0
92.90638 152.0
93.140846 168.0
93.394051 212.0
93.498001 168.0
93.628197 176.0
93.759209 180.0
93.861382 148.0
93.950104 212.0
94.009918 180.0
94.247437 300.0
94.48526 144.0
94.636223 140.0
94.655586 236.0
94.690445 152.0
94.764412 156.0
94.810272 208.0
95.293755 200.0
95.434669 200.0
95.599045 156.0
95.793747 212.0
96.058136 128.0
96.535446 144.0
96.909317 172.0
97.007317 168.0
97.073975 164.0
97.100266 136.0
97.128891 144.0
97.230927 140.0
97.268219 168.0
97.327118 176.0
97.544167 184.0
97.604179 176.0
97.72123 220.0
97.840286 152.0
98.027405 208.0
98.081177 240.0
98.125961 156.0
98.702522 164.0
98.864738 148.0
99.274826 140.0
99.677811 296.0
99.900497 140.0
100.065681 172.0
100.187172 160.0
100.378517 192.0
100.442337 152.0
100.511993 140.0
100.669868 152.0
100.850235 188.0
100.973648 172.0
101.027657 168.0
101.19677 120.0
101.432175 148.0
101.592598 184.0
102.102806 168.0
102.235588 160.0
102.568604 152.0
102.791786 144.0
103.053268 160.0
103.315102 212.0
103.416283 208.0
103.489159 188.0
104.042671 188.0
104.112862 232.0
104.146233 144.0
104.168579 160.0
104.264076 160.0
104.418594 208.0
104.558975 196.0
105.001091 176.0
105.025566 192.0
105.069405 616.0
105.190849 148.0
105.29364 180.0
105.511589 200.0
105.592621 172.0
105.732513 196.0
106.015129 160.0
106.07074 272.0
106.304291 176.0
106.382286 208.0
106.457741 160.0
106.547516 172.0
106.589729 140.0
106.643158 156.0
106.735672 148.0
106.935226 156.0
107.048462 152.0
107.084923 640.0
107.279228 140.0
107.400894 200.0
107.444214 168.0
107.686424 148.0
107.784904 164.0
107.906853 196.0
107.964752 192.0
108.030945 176.0
108.086807 180.0
108.117844 184.0
108.206856 168.0
108.250336 172.0
108.436798 148.0
108.640007 196.0
108.936874 172.0
109.009598 280.0
109.059479 196.0
109.098022 156.0
109.351936 236.0
109.393257 96.0
109.631828 164.0
109.769417 148.0
109.91127 144.0
110.278824 172.0
110.638626 168.0
110.662704 180.0
111.031006 188.0
111.35643 144.0
111.477638 148.0
111.603317 132.0
111.828865 144.0
111.843597 168.0
112.155342 180.0
112.214371 168.0
112.290291 168.0
112.32193 176.0
112.915291 152.0
113.036049 244.0
113.091072 152.0
113.328262 148.0
113.556114 124.0
113.699364 220.0
113.718468 148.0
113.784271 256.0
114.12635 156.0
114.275238 192.0
114.319923 164.0
114.547745 176.0
114.618057 140.0
114.81205 188.0
115.023277 172.0
115.056313 156.0
115.241119 148.0
115.57254 168.0
115.664566 188.0
115.758766 204.0
115.801605 140.0
116.541718 204.0
116.715515 164.0
116.902977 160.0
117.069084 260.0
117.271263 156.0
117.387688 144.0
117.450233 184.0
117.543251 176.0
117.672508 160.0
117.927422 164.0
118.024704 196.0
118.130455 152.0
118.158806 212.0
118.26268 184.0
118.284325 192.0
118.596245 244.0
118.613586 160.0
118.708984 216.0
118.735008 176.0
119.027092 156.0
119.084007 1064.0
119.331291 156.0
119.434395 168.0
119.467026 160.0
119.531914 180.0
119.625893 160.0
119.741867 212.0
120.004173 172.0
120.101524 220.0
120.188194 196.0
120.20784 176.0
120.308243 204.0
120.332253 140.0
120.391212 176.0
120.62719 152.0
120.780258 140.0
120.904976 144.0
120.998779 220.0
121.038513 184.0
121.06517 1396.0
121.100464 1112.0
121.187462 236.0
121.242241 184.0
121.259773 144.0
121.288849 152.0
121.332115 212.0
121.386932 152.0
121.506805 184.0
121.563812 196.0
122.008316 148.0
122.071396 320.0
122.113472 164.0
122.466034 192.0
122.525513 148.0
122.635696 184.0
123.037674 160.0
123.103676 136.0
123.15332 168.0
123.214462 220.0
123.304459 364.0
123.337334 192.0
123.547699 176.0
123.640633 172.0
123.808891 144.0
124.164383 188.0
124.218941 152.0
124.352074 168.0
124.380928 200.0
124.491119 140.0
124.556358 144.0
124.70005 176.0
124.727455 144.0
124.807495 184.0
125.025497 140.0
125.045532 164.0
125.239243 172.0
125.370697 156.0
125.537704 192.0
125.8302 196.0
126.677811 212.0
126.738304 140.0
127.384758 144.0
127.458588 148.0
127.505783 156.0
127.69239 176.0
127.784622 140.0
127.818375 140.0
128.066025 156.0
128.129105 180.0
128.162888 152.0
128.224731 208.0
128.443573 148.0
128.565353 140.0
128.642166 224.0
128.951614 104.0
129.045441 152.0
129.278427 160.0
129.378021 148.0
129.57959 264.0
130.066254 152.0
130.085327 148.0
130.273819 192.0
130.44426 156.0
130.824158 220.0
130.903854 164.0
130.933456 144.0
130.983566 164.0
131.08429 136.0
131.59726 132.0
131.745499 180.0
131.76149 148.0
131.77977 140.0
131.919189 140.0
131.97319 196.0
131.996918 160.0
132.088531 352.0
132.123138 176.0
132.493607 156.0
132.777847 200.0
132.816833 196.0
133.011887 168.0
133.06601 416.0
133.100388 836.0
133.193298 216.0
133.285187 184.0
133.658859 116.0
133.783752 136.0
134.019211 148.0
134.069763 524.0
134.105591 924.0
134.4366 148.0
134.491989 160.0
134.568176 164.0
134.680557 168.0
134.85231 140.0
135.07988 17348.0
135.116821 752.0
135.155273 152.0
135.246689 160.0
135.287186 216.0
135.353989 104.0
135.486359 176.0
135.917618 220.0
135.970993 160.0
136.085617 3124.0
136.118317 388.0
136.421616 164.0
136.561142 204.0
136.607666 172.0
136.763565 200.0
136.787186 168.0
136.860291 220.0
137.094574 2336.0
137.155548 288.0
137.437088 144.0
137.628494 200.0
137.698547 148.0
137.762558 200.0
138.096344 284.0
138.21286 216.0
138.341583 144.0
138.628418 156.0
138.671875 180.0
139.136337 140.0
139.449631 144.0
139.549103 176.0
139.666473 244.0
140.029907 208.0
140.055496 176.0
140.13356 148.0
140.286758 164.0
140.409378 184.0
140.609909 184.0
140.990158 148.0
141.036057 180.0
141.070511 152.0
141.339691 196.0
141.593445 164.0
141.740326 220.0
141.875427 200.0
142.071701 200.0
142.222519 188.0
142.279312 148.0
142.365341 148.0
142.627945 140.0
143.048996 176.0
143.083023 452.0
143.849976 140.0
144.079941 152.0
144.433945 200.0
144.519165 188.0
144.574738 144.0
144.648407 160.0
144.755417 132.0
144.85434 160.0
144.991211 192.0
145.063736 188.0
145.102676 476.0
145.260376 240.0
145.984818 172.0
146.016083 144.0
146.072968 244.0
146.401154 296.0
146.524002 180.0
146.555328 336.0
146.73851 188.0
147.078003 264.0
147.115173 1012.0
147.660965 176.0
147.728699 140.0
147.852097 180.0
148.085632 224.0
148.123184 1140.0
148.89946 176.0
149.006912 204.0
149.052505 188.0
149.095352 8160.0
149.131989 1684.0
149.935898 184.0
150.098145 1304.0
150.134964 344.0
150.218735 148.0
150.256042 128.0
150.335861 152.0
150.467667 156.0
150.575119 172.0
150.798264 216.0
151.032181 180.0
151.074921 144.0
151.103119 460.0
151.140503 116.0
151.369919 268.0
151.636963 228.0
152.113586 152.0
152.387878 144.0
152.692703 256.0
152.938751 152.0
153.042145 144.0
153.116028 156.0
153.256439 168.0
153.357483 144.0
153.377197 164.0
153.639771 168.0
153.831085 180.0
153.932312 144.0
153.952072 216.0
154.026169 192.0
154.862228 248.0
154.986099 180.0
155.070358 160.0
155.142242 192.0
155.329254 136.0
155.447311 192.0
155.464691 200.0
155.573898 204.0
155.765121 156.0
156.011139 148.0
156.232483 140.0
156.476379 140.0
156.561035 172.0
156.628296 192.0
156.852692 152.0
157.060104 156.0
157.129379 248.0
157.583786 164.0
157.831863 112.0
157.903763 184.0
157.976303 156.0
158.043854 200.0
158.106674 624.0
158.705124 164.0
158.770325 216.0
158.81044 208.0
159.081802 192.0
159.114059 292.0
159.42807 140.0
159.685333 160.0
160.006622 148.0
160.082245 1012.0
160.308624 152.0
160.67955 200.0
160.780777 168.0
160.836014 180.0
160.990021 328.0
161.063477 148.0
161.096146 5064.0
161.194641 148.0
161.333664 224.0
161.39296 204.0
161.599213 152.0
161.634644 176.0
162.094559 964.0
162.219711 144.0
162.267883 168.0
162.293961 140.0
162.716949 172.0
163.041336 148.0
163.108963 1372.0
163.147324 5576.0
163.337723 164.0
163.716278 188.0
164.089005 160.0
164.152222 416.0
164.252823 124.0
164.718658 180.0
165.06369 212.0
165.253113 160.0
165.279068 160.0
165.329742 184.0
165.554276 148.0
165.674179 212.0
166.00351 152.0
166.197235 132.0
166.270309 168.0
166.342178 148.0
166.501373 156.0
166.789505 184.0
167.0 232.0
167.234146 156.0
167.277893 188.0
167.301071 184.0
167.543152 184.0
167.602341 152.0
167.803467 144.0
167.96077 160.0
168.146545 184.0
168.717422 164.0
168.74585 172.0
169.524994 204.0
169.688293 140.0
169.802399 160.0
169.965836 188.0
170.043686 208.0
170.089859 172.0
170.147522 148.0
170.509766 204.0
170.976639 124.0
171.036591 152.0
171.091705 332.0
171.1129 204.0
171.138123 192.0
171.727081 216.0
171.883377 168.0
172.04805 152.0
172.097382 544.0
172.40329 160.0
172.494766 172.0
172.536072 160.0
173.074112 156.0
173.100998 256.0
173.131363 1912.0
173.762314 164.0
173.946014 156.0
174.089127 548.0
174.115433 180.0
174.138138 148.0
174.265396 176.0
174.366272 152.0
174.932663 184.0
174.98793 164.0
175.104996 616.0
175.338333 224.0
175.543076 180.0
175.605743 168.0
175.780487 148.0
176.120087 1128.0
176.588913 152.0
176.644455 164.0
176.705307 184.0
177.127075 17060.0
177.181091 176.0
177.382202 176.0
177.465103 176.0
177.553513 280.0
177.962616 164.0
178.057236 172.0
178.131973 792.0
178.165222 104.0
178.286102 140.0
178.428543 252.0
178.945419 204.0
179.125137 140.0
179.147675 196.0
179.351349 128.0
179.427658 152.0
179.573196 120.0
179.960266 148.0
180.263107 196.0
180.512848 192.0
180.567886 172.0
180.725723 164.0
181.012131 152.0
181.159439 172.0
181.422073 272.0
182.036514 192.0
182.168121 188.0
182.27829 216.0
183.131119 152.0
183.187683 284.0
183.853683 164.0
183.902267 176.0
183.977844 172.0
184.083145 160.0
184.276184 112.0
184.47493 188.0
184.649597 184.0
184.704773 160.0
184.834641 184.0
184.948318 188.0
185.108292 956.0
185.323456 132.0
185.641907 164.0
185.75853 192.0
185.83992 140.0
185.921326 148.0
186.084198 152.0
186.114029 540.0
186.315063 160.0
186.626129 188.0
186.866974 188.0
186.956772 264.0
187.121109 2336.0
187.384277 172.0
188.104355 2308.0
188.270813 184.0
188.359116 156.0
188.445633 192.0
188.606873 164.0
188.759979 144.0
188.892685 120.0
189.109726 1996.0
189.279282 192.0
189.411835 116.0
189.446976 188.0
189.72377 144.0
189.811508 208.0
189.940414 140.0
190.030945 156.0
190.109222 484.0
190.170898 148.0
190.283463 144.0
190.407028 188.0
190.438354 168.0
190.483459 184.0
190.744995 152.0
191.041992 180.0
191.074997 156.0
191.14238 12352.0
191.209839 156.0
191.323654 324.0
191.570557 164.0
191.974136 132.0
192.14418 1612.0
192.359238 148.0
193.086227 156.0
193.146622 392.0
193.195633 104.0
193.224258 148.0
193.299713 248.0
193.484573 196.0
193.620087 220.0
193.658875 140.0
193.758591 180.0
193.802917 204.0
193.87175 148.0
194.165558 108.0
194.756729 124.0
195.124084 140.0
195.151886 184.0
195.215851 264.0
195.588669 180.0
195.661057 208.0
195.705597 148.0
196.221054 156.0
196.357925 96.0
196.432999 164.0
196.614365 176.0
196.970764 212.0
197.105392 140.0
197.167343 156.0
197.197388 160.0
197.349045 152.0
198.034683 168.0
198.107513 140.0
198.188766 160.0
198.365326 156.0
198.497101 144.0
198.590851 160.0
198.724319 176.0
198.749634 160.0
199.131454 124.0
199.344879 144.0
199.669464 128.0
199.694412 180.0
199.828522 148.0
200.060486 344.0
200.126526 288.0
200.416992 204.0
200.896515 156.0
201.040192 156.0
201.098099 260.0
201.13884 3800.0
201.228699 180.0
201.644577 160.0
202.07724 164.0
202.11969 784.0
202.140854 800.0
202.438782 204.0
202.671844 224.0
202.714355 164.0
202.952408 208.0
203.007904 152.0
203.117661 2752.0
203.219376 344.0
203.335434 152.0
203.477371 224.0
203.502914 168.0
203.538986 160.0
203.659119 144.0
203.948944 248.0
204.045593 220.0
204.125015 3152.0
204.16626 156.0
204.220276 160.0
204.318619 192.0
204.504135 208.0
204.698212 256.0
204.799713 144.0
204.917694 152.0
204.964951 184.0
205.007095 112.0
205.045029 208.0
205.098022 424.0
205.133606 148388.0
205.255249 160.0
205.299942 112.0
205.345169 240.0
205.589783 228.0
205.620865 196.0
205.670822 96.0
205.829269 164.0
205.893875 140.0
206.066055 332.0
206.135712 12536.0
206.441681 104.0
206.574631 132.0
206.632446 160.0
206.766937 180.0
207.044296 148.0
207.08194 368.0
207.136978 1160.0
207.470505 156.0
207.511459 124.0
207.53537 116.0
207.564926 136.0
207.613388 136.0
207.717941 268.0
207.973724 100.0
208.065475 152.0
208.146271 228.0
208.245743 180.0
208.33046 164.0
208.78096 180.0
208.913269 160.0
209.875244 140.0
209.958862 176.0
210.241592 164.0
210.414795 168.0
210.455292 148.0
210.572205 164.0
211.009293 172.0
211.121765 196.0
212.197037 212.0
212.90506 148.0
213.028503 144.0
213.050293 148.0
213.085159 228.0
213.136871 544.0
213.195587 160.0
213.841232 160.0
213.878555 156.0
213.934387 164.0
214.056671 192.0
214.147293 192.0
214.359436 152.0
214.514114 152.0
215.117599 128.0
215.146118 160.0
215.167603 156.0
215.269791 164.0
215.380783 140.0
215.430435 144.0
216.060669 160.0
216.138245 1756.0
216.23587 240.0
216.392639 172.0
216.53067 172.0
216.882828 184.0
216.954391 108.0
217.048981 168.0
217.090027 172.0
217.13356 4340.0
217.437454 132.0
217.533081 192.0
217.559494 212.0
217.673523 204.0
218.097 228.0
218.140762 14204.0
218.214996 144.0
218.388168 140.0
218.518936 196.0
218.949844 196.0
219.111053 636.0
219.141571 1552.0
219.220505 124.0
219.418854 152.0
219.453918 152.0
219.66658 148.0
219.970535 156.0
220.112244 240.0
220.143204 144.0
220.206757 144.0
220.306488 204.0
220.362732 164.0
220.744629 168.0
220.809616 144.0
220.819244 140.0
220.916183 168.0
221.070038 152.0
221.496384 148.0
221.789749 144.0
222.296906 208.0
222.365158 172.0
223.571732 172.0
223.804214 168.0
223.854614 156.0
223.920135 152.0
224.14357 300.0
224.957809 168.0
225.139908 424.0
225.178848 176.0
225.372955 352.0
225.549286 232.0
226.146362 156.0
226.315155 160.0
226.426254 120.0
226.458908 152.0
226.482864 176.0
226.548767 168.0
226.626663 140.0
226.695587 224.0
226.878433 164.0
227.152924 2404.0
227.206161 128.0
227.271332 160.0
227.484421 240.0
227.619537 164.0
227.772705 144.0
227.812973 180.0
228.159561 2688.0
228.40094 144.0
228.6297 148.0
229.039093 220.0
229.071442 160.0
229.099335 140.0
229.14151 156.0
229.168945 1340.0
229.228897 244.0
229.351318 136.0
229.506226 188.0
229.838028 244.0
229.886307 164.0
229.910446 152.0
230.141052 284.0
230.173462 652.0
230.363358 168.0
230.416031 184.0
230.643478 120.0
230.664337 208.0
230.781113 180.0
231.148483 20184.0
231.217957 172.0
231.274216 172.0
231.411469 144.0
231.550919 168.0
231.643173 128.0
231.733871 208.0
231.962326 104.0
232.150894 2604.0
232.236404 176.0
232.519272 168.0
232.895767 140.0
232.943192 120.0
233.046799 140.0
233.15799 228.0
233.198746 552.0
233.34552 164.0
233.461075 164.0
234.209793 168.0
234.706573 212.0
234.766159 152.0
234.808838 232.0
234.93457 132.0
235.081772 148.0
235.250565 172.0
235.368713 152.0
235.744461 172.0
236.022629 184.0
236.221436 192.0
236.313217 140.0
236.35173 164.0
236.415482 172.0
236.748978 172.0
236.781754 144.0
236.81221 200.0
236.989883 152.0
237.583023 96.0
237.632629 140.0
238.20787 216.0
238.745758 208.0
239.182861 128.0
239.976685 120.0
240.464905 176.0
240.714981 160.0
241.168594 548.0
241.20932 164.0
241.329895 164.0
241.476471 220.0
241.598969 168.0
242.195816 144.0
242.42569 160.0
242.45668 236.0
242.493881 172.0
242.698486 212.0
242.837524 148.0
243.032761 140.0
243.183716 2352.0
243.35318 200.0
243.644119 172.0
244.186829 364.0
244.347763 180.0
244.562485 244.0
245.043808 164.0
245.163849 7672.0
245.303848 152.0
245.643753 168.0
245.760727 124.0
245.821594 164.0
246.171539 5636.0
246.263626 96.0
246.714157 184.0
247.14653 156.0
247.174316 756.0
247.763672 180.0
248.048859 180.0
248.178635 356.0
248.468735 148.0
248.581696 188.0
248.783203 156.0
249.133102 168.0
249.178619 152.0
249.507874 148.0
249.803909 172.0
249.992691 156.0
250.073654 388.0
250.131927 996.0
250.338989 164.0
250.921921 140.0
251.130615 260.0
251.372971 192.0
252.011688 204.0
252.149872 184.0
252.22467 156.0
252.569794 212.0
252.854507 176.0
253.285782 292.0
253.548752 196.0
253.685059 144.0
254.964233 164.0
255.097733 180.0
255.383911 168.0
255.431625 144.0
255.616165 168.0
255.823044 144.0
256.165222 168.0
256.256195 160.0
256.900177 224.0
257.078857 156.0
257.461975 164.0
257.497101 152.0
258.167603 160.0
258.219421 140.0
258.468018 272.0
258.532959 184.0
258.66098 144.0
259.000214 128.0
259.109314 152.0
259.153778 224.0
259.179016 148.0
259.22113 180.0
259.380646 260.0
259.440125 128.0
259.59845 108.0
259.632355 148.0
259.728363 120.0
259.788788 136.0
259.858765 112.0
259.96225 168.0
259.99762 172.0
260.069458 160.0
260.10968 128.0
260.154266 512.0
260.213074 252.0
260.238861 248.0
260.288025 108.0
260.310028 156.0
260.359497 240.0
260.402802 340.0
260.470154 208.0
260.505859 208.0
260.539093 208.0
260.579865 200.0
260.605286 192.0
260.645355 244.0
260.681091 284.0
260.733093 132.0
260.78537 240.0
260.80835 336.0
260.830902 276.0
260.877502 316.0
260.910797 380.0
260.943573 432.0
261.0047 168.0
261.087677 436.0
261.136932 1940.0
261.15921 624.0
261.197723 396640.0
261.29129 104.0
261.3237 152.0
261.437195 300.0
261.49646 412.0
261.547607 448.0
261.589569 216.0
261.603943 196.0
261.689789 1208.0
261.726349 18412.0
261.765442 428.0
261.799316 356.0
261.833862 256.0
261.862579 116.0
261.889496 272.0
261.968994 316.0
262.031952 456.0
262.082153 328.0
262.122375 496.0
262.199463 154028.0
262.284058 96.0
262.34787 144.0
262.392395 136.0
262.4198 204.0
262.467407 172.0
262.502747 204.0
262.537445 168.0
262.670654 124.0
262.72821 296.0
262.779449 208.0
262.866913 132.0
262.975739 128.0
263.013947 216.0
263.070343 148.0
263.119965 240.0
263.201477 14720.0
263.281372 288.0
263.32486 160.0
263.356842 208.0
263.391724 152.0
263.421082 280.0
263.521393 156.0
263.565308 168.0
263.665283 552.0
263.718384 176.0
263.753845 308.0
263.767822 260.0
263.807098 428.0
263.841248 112.0
263.900024 276.0
263.922913 220.0
263.952118 248.0
263.983215 336.0
264.042023 532.0
264.077728 496.0
264.116058 240.0
264.174133 192.0
264.206879 656.0
264.295227 120.0
264.333618 192.0
264.419952 236.0
264.460541 108.0
264.538177 120.0
264.567108 140.0
264.622986 140.0
264.670166 208.0
264.72049 116.0
264.824127 108.0
264.863525 112.0
265.039856 104.0
265.068939 140.0
265.147797 172.0
265.200684 160.0
265.62912 100.0
265.913422 100.0
266.020233 132.0
266.532562 132.0
268.275116 148.0
271.112274 140.0
271.29718 116.0
271.798004 96.0
272.917755 156.0
273.380219 128.0
273.470428 148.0
274.589905 120.0
274.738586 104.0
275.784821 108.0
277.131775 164.0
277.19577 160.0
278.162964 472.0
279.165405 148.0
304.204498 156.0
354.720032 180.0
378.838013 140.0
402.797852 144.0
405.470978 136.0
436.111542 168.0
464.44339 148.0
509.414398 152.0
630.747253 140.0
653.426758 140.0
732.54834 148.0
997.312744 188.0
1036.504028 148.0
1111.133301 160.0
1118.529785 160.0
1161.483765 168.0
1254.65625 152.0
1255.969849 204.0
1305.112305 184.0
1328.85437 152.0
1337.269531 140.0
1347.047729 216.0
1385.501831 208.0
1388.110962 208.0
1422.597168 172.0
1428.413574 168.0
1473.988892 156.0
1550.437988 180.0
1561.256348 140.0
1577.85498 156.0
1584.542725 168.0
1588.617676 216.0
1603.726318 172.0
1605.783447 172.0
1606.620972 184.0
1617.585327 144.0
1638.707153 152.0
1642.020386 196.0
1644.529663 208.0
1651.478394 172.0
1661.450317 152.0
1672.111572 144.0
1681.214966 156.0
1689.124146 184.0
1690.498657 148.0
1700.661499 180.0
1703.535522 140.0
1706.403687 148.0
1712.435669 216.0
1716.39978 172.0
1722.085938 188.0
1731.556152 144.0
1749.650269 200.0
1757.192871 144.0
1757.960571 140.0
1760.331421 204.0
1777.374756 148.0
1780.296021 160.0
1785.599121 196.0
1788.401001 160.0
1793.446411 192.0
1794.651978 176.0
1800.305664 176.0
1803.457153 156.0
1803.660034 184.0
1814.343384 164.0
1827.363403 164.0
1827.797363 180.0
1830.138184 144.0
1836.436035 156.0
1841.651245 180.0
1842.061157 164.0
1858.070312 160.0
1858.422119 212.0
1859.220093 156.0
1859.795166 140.0
1860.052734 216.0
1871.607666 156.0
1875.484497 176.0
1879.227173 156.0
1894.382935 232.0
1908.866699 212.0
1915.910522 148.0
1927.532593 192.0
1929.175781 160.0
1930.443604 212.0
1935.895508 252.0
1937.15686 160.0
1940.671265 160.0
1948.289429 152.0
1952.341675 176.0
1953.273926 156.0
1965.308594 184.0
1970.553223 148.0
1972.338379 140.0
1974.89917 160.0
1976.698608 160.0
1979.425171 144.0
1979.805908 168.0
1983.491821 164.0
1983.94397 140.0
1986.427002 224.0
1986.60437 176.0
1988.104004 196.0
1988.840576 152.0
1992.588135 156.0
1994.83667 208.0
1995.032227 140.0
1999.355103 244.0
2001.402588 172.0
2002.328735 144.0
