>compound MLS000728660-01!
>formula C31H40O13
>ionization [M+H]+
>parentmass 621.255
#inchi InChI=1S/C31H40O13/c1-3-22-23(13-21-12-19(35)11-20(42-21)10-18(34)9-6-16-4-7-17(33)8-5-16)24(29(39)40-2)15-41-30(22)44-31-28(38)27(37)26(36)25(14-32)43-31/h3-5,7-8,15,20-23,25-28,30-33,36-38H,1,6,9-14H2,2H3/t20-,21+,22+,23-,25?,26?,27?,28?,30-,31?/m0/s1
#inchikey BAKYVUHOODEWGV
#Ion_Source LC-ESI
#Instrument qTof
#Compound_Source NIH Natural Product Library
#PI Dorrestein
#Data_Collector VVP/LMS
#Scan -1
#Precursor_MZ 621.255
#ExactMass 620.247
#Charge 1
#CAS_Number N/A
#Pubmed_ID N/A
#Smiles COC(=O)C1=CO[C@@H](OC2OC(CO)C(O)C(O)C2O)[C@H](C=C)[C@@H]1C[C@H]3CC(=O)C[C@H](CC(=O)CCc4ccc(O)cc4)O3
#INCHI_AUX N/A
#Library_Class 1
#SpectrumID CCMSLIB00000079454
#IonMode Positive
#UpdateWorkflowName UPDATE-SINGLE-ANNOTATED-GOLD
#LibraryQualityString Gold
#TaskID b1d8e8f6646f4e71acdff9ca3d919d08
##Scan# 1703
#SpectrumFile p1-E06_GE6_01_17926.mzXML
#LibraryName NIH_Natural_Products_Library.mgf
#MQScore -1
#Organism NIH_Natural_Products_Library
#TIC_Query 0
#RT_Query -1
#MZErrorPPM -1
#SharedPeaks 0
#MassDiff 0
#LibMZ -1
#SpecMZ 621.255
#SpecCharge 0
#internalFilename spec-00000.mgf

>collision 10
95.052422 248.0
95.42289 84.0
96.054688 308.0
96.087013 224.0
96.295876 140.0
96.804344 208.0
97.024818 160.0
97.443771 180.0
97.506653 144.0
97.789864 172.0
98.83577 172.0
99.037689 140.0
99.54142 180.0
99.795753 144.0
100.020554 112.0
100.143997 52.0
101.406715 200.0
102.632973 152.0
102.931602 124.0
103.055756 148.0
103.079063 196.0
103.196297 196.0
103.281479 164.0
103.611183 168.0
103.714531 88.0
104.069542 192.0
104.500427 48.0
104.864929 136.0
105.036201 144.0
105.069977 216.0
105.158623 136.0
105.225075 148.0
105.27549 212.0
105.927429 196.0
106.015526 116.0
106.325188 104.0
107.007629 176.0
107.049026 5752.0
107.088707 156.0
107.315056 56.0
107.460449 176.0
107.756287 84.0
108.053299 704.0
108.078827 104.0
108.192657 72.0
108.368698 52.0
108.681778 144.0
108.775169 196.0
108.905983 164.0
109.023415 152.0
109.056381 144.0
109.070747 188.0
109.163681 160.0
109.340508 124.0
109.488319 56.0
109.94696 52.0
110.036713 208.0
110.076385 148.0
110.94677 84.0
111.043198 308.0
111.083076 236.0
111.146011 100.0
112.180756 144.0
112.871132 140.0
113.434288 164.0
115.053154 232.0
115.260323 180.0
116.185242 76.0
117.073334 160.0
117.159096 124.0
118.854134 96.0
119.087524 232.0
119.127686 184.0
119.173309 60.0
119.421127 116.0
119.958946 92.0
121.026527 396.0
121.062683 208.0
121.632339 228.0
122.032158 148.0
122.070686 144.0
123.043938 412.0
123.079857 144.0
123.136154 32.0
123.970184 192.0
124.038887 140.0
125.025017 208.0
125.287758 208.0
125.874344 152.0
126.303436 172.0
127.406319 144.0
127.500694 168.0
128.065399 228.0
128.802963 84.0
129.071045 608.0
130.089142 272.0
131.052155 216.0
131.098999 220.0
131.461578 96.0
131.758408 80.0
132.089874 180.0
132.181396 180.0
132.942169 196.0
133.024796 164.0
133.065384 300.0
133.112045 160.0
133.640701 168.0
133.893921 80.0
134.032135 48.0
134.069 188.0
134.373367 220.0
135.045914 244.0
135.079132 152.0
135.172806 196.0
135.371887 56.0
135.800629 256.0
136.051224 132.0
136.081406 164.0
136.806747 216.0
137.032654 180.0
137.090912 192.0
137.114212 128.0
137.646088 136.0
138.132202 224.0
138.687134 100.0
138.764496 96.0
139.038788 812.0
139.076492 340.0
139.137527 48.0
139.567474 160.0
140.042755 184.0
141.014908 160.0
142.590973 80.0
143.080978 56.0
144.422058 100.0
144.575165 128.0
145.062744 540.0
145.341965 80.0
146.074722 300.0
146.250366 76.0
146.479111 116.0
146.655014 200.0
147.043701 476.0
147.081604 236.0
147.144699 232.0
148.091049 192.0
149.025513 316.0
149.061569 1020.0
149.829422 68.0
150.021942 100.0
150.156052 212.0
150.588043 32.0
150.739502 160.0
151.010864 120.0
151.038727 1560.0
151.152756 48.0
151.414688 88.0
151.853378 120.0
152.053741 144.0
152.086472 44.0
153.055984 536.0
153.089539 136.0
153.370407 100.0
154.058853 172.0
154.672104 176.0
155.018829 208.0
155.084778 152.0
156.081238 80.0
157.066238 232.0
157.25708 44.0
157.491776 192.0
158.069275 108.0
159.043579 676.0
159.079224 240.0
160.019531 156.0
160.253754 128.0
161.058487 148.0
162.32135 164.0
163.074615 552.0
164.057861 112.0
164.509384 152.0
164.810745 212.0
164.994766 104.0
165.017319 228.0
165.053864 4184.0
165.089706 176.0
165.137955 76.0
165.181442 52.0
165.212143 76.0
165.557678 48.0
166.034332 176.0
166.058014 692.0
166.211334 28.0
166.252396 36.0
166.581039 160.0
167.068558 1352.0
167.180099 32.0
167.937531 36.0
167.98912 76.0
168.076706 184.0
168.567444 176.0
168.725113 168.0
169.048386 160.0
169.089828 188.0
169.110535 148.0
169.475662 104.0
171.080688 112.0
171.127548 140.0
172.134003 84.0
173.061722 444.0
173.097748 92.0
173.125092 112.0
173.224609 84.0
174.063828 188.0
174.095383 148.0
174.510544 184.0
175.005188 76.0
175.038895 304.0
175.07576 1000.0
175.890961 60.0
176.044098 204.0
176.074753 176.0
176.612305 164.0
177.054916 624.0
177.101959 120.0
178.059418 128.0
178.083328 184.0
178.692062 76.0
178.894318 148.0
179.068436 204.0
179.128647 176.0
179.741837 132.0
180.580673 148.0
181.051697 164.0
181.078171 140.0
181.426804 92.0
181.523331 56.0
183.044235 164.0
183.074265 156.0
186.613159 68.0
186.896027 184.0
187.073715 152.0
187.476028 208.0
189.051712 84.0
189.092773 124.0
189.840668 88.0
190.972153 72.0
191.028748 248.0
191.065399 660.0
191.936005 232.0
192.112518 116.0
192.225647 48.0
193.0457 204.0
193.084946 1128.0
193.447235 84.0
194.093674 184.0
194.320206 104.0
195.595749 148.0
196.233688 52.0
196.693985 64.0
197.059814 184.0
197.097656 236.0
197.31134 64.0
198.103317 148.0
199.080063 176.0
200.079697 176.0
201.046906 204.0
201.066879 188.0
201.938843 132.0
203.075607 156.0
203.095474 124.0
204.986038 140.0
207.065308 104.0
207.10585 48.0
207.418167 192.0
208.278976 52.0
209.006302 120.0
209.080536 152.0
210.085678 172.0
210.531189 136.0
211.43895 188.0
211.650269 104.0
213.069748 152.0
213.093674 184.0
214.057434 168.0
214.086548 148.0
215.071121 164.0
215.107666 304.0
215.846161 96.0
215.942657 52.0
217.043747 188.0
217.084351 1212.0
217.119171 240.0
218.091599 284.0
219.067474 768.0
219.099045 120.0
219.504898 144.0
219.74086 108.0
220.068802 408.0
221.073471 164.0
225.090698 404.0
225.116348 512.0
226.090897 268.0
226.390259 60.0
227.073456 208.0
227.142532 40.0
227.343552 44.0
229.084412 116.0
229.108505 136.0
230.71701 180.0
231.070847 120.0
232.191605 44.0
233.080811 192.0
233.110809 352.0
235.096634 180.0
235.142685 152.0
237.093857 284.0
238.428833 116.0
239.07457 160.0
239.099258 188.0
240.122101 156.0
242.121658 204.0
243.098419 336.0
244.114426 164.0
244.730057 124.0
245.077667 376.0
245.113174 112.0
246.090424 152.0
246.117538 256.0
247.089554 120.0
247.127106 188.0
251.097687 232.0
252.103226 220.0
254.817062 172.0
256.127716 116.0
258.144714 136.0
259.09964 196.0
259.130493 172.0
259.338867 92.0
260.102234 120.0
260.126831 128.0
260.625702 136.0
261.110107 952.0
262.117157 588.0
263.087982 256.0
267.090179 140.0
269.115234 96.0
269.722839 160.0
270.125061 80.0
272.101135 196.0
275.119568 176.0
275.344543 56.0
276.098053 92.0
276.131104 124.0
277.10791 268.0
278.113251 364.0
279.122345 1400.0
279.198822 128.0
279.451782 88.0
279.578064 72.0
280.122803 464.0
281.087616 112.0
281.137665 184.0
285.116211 344.0
288.692932 88.0
288.750427 20.0
289.10141 156.0
289.146271 224.0
291.037811 88.0
291.843048 132.0
292.407745 52.0
292.925293 48.0
294.275757 48.0
297.195282 104.0
298.039917 156.0
298.115509 144.0
299.140442 156.0
300.101624 152.0
300.353363 64.0
301.112701 152.0
303.118591 496.0
303.649536 56.0
304.129028 236.0
308.049103 144.0
309.132935 96.0
317.155823 96.0
320.129791 200.0
320.877716 104.0
321.116211 436.0
321.158905 140.0
322.112457 156.0
322.141022 184.0
323.120544 88.0
324.284332 68.0
325.496887 136.0
326.215424 60.0
326.718872 132.0
329.130035 128.0
329.914032 44.0
330.130981 144.0
335.100494 208.0
335.162079 160.0
335.482788 156.0
339.118744 384.0
339.143005 312.0
339.193115 48.0
340.120605 412.0
345.158417 160.0
346.148926 160.0
349.143616 300.0
350.152161 160.0
351.128601 84.0
354.144745 160.0
357.119995 136.0
357.142792 416.0
357.674194 36.0
358.122253 152.0
359.132355 168.0
361.516266 108.0
363.160492 88.0
371.119232 148.0
371.157562 140.0
372.174377 108.0
373.145874 140.0
374.158234 188.0
375.156006 116.0
377.167114 112.0
381.85083 80.0
389.181793 132.0
389.224976 20.0
391.150665 768.0
392.144287 192.0
392.161804 136.0
392.553955 48.0
393.14566 132.0
395.156891 124.0
397.137573 144.0
409.077209 136.0
409.163727 1644.0
409.52417 76.0
410.163269 460.0
410.309937 56.0
411.175659 120.0
412.59494 96.0
412.663666 100.0
419.598114 60.0
423.188141 260.0
424.189697 160.0
425.177429 124.0
426.175262 128.0
427.079651 140.0
427.120789 144.0
427.164276 304.0
428.190918 100.0
441.184509 164.0
442.182343 152.0
443.195862 164.0
443.22937 60.0
460.203827 116.0
461.173523 80.0
461.844818 92.0
468.106354 136.0
498.098938 164.0
563.251282 100.0
581.305176 104.0
656.220825 72.0
666.662842 160.0
683.338623 100.0
766.277344 36.0
774.774231 120.0
840.415466 124.0
874.778381 128.0
942.444885 240.0
1004.434082 228.0
1019.0896 164.0
1030.19397 128.0
1049.905151 116.0
1058.098389 172.0
1061.616699 132.0
1067.187988 160.0
1073.380127 152.0
1077.733765 168.0
1115.890015 56.0
1129.467407 60.0
1134.489502 164.0
1138.998901 180.0
1143.981567 160.0
1175.109009 136.0
1180.942749 44.0
1186.043701 140.0
1203.703857 184.0
1205.541382 172.0
1221.035645 124.0
1223.540527 192.0
1237.36377 188.0
1264.195557 64.0
1272.21167 144.0
1274.27124 212.0
1284.137329 216.0
1285.892456 128.0
1294.213257 152.0
1298.699341 112.0
1305.385498 208.0
1308.407349 44.0
1308.803345 184.0
1311.043579 160.0
1314.627686 196.0
1317.299072 84.0
1330.24646 144.0
1332.23877 200.0
1336.802246 172.0
1337.653687 116.0
1346.687866 184.0
1353.174072 20.0
1366.362427 176.0
1373.55957 208.0
1374.267822 56.0
1386.4021 164.0
1391.126709 140.0
1392.693359 236.0
1396.283203 144.0
1400.294556 140.0
1406.124756 116.0
1409.881226 228.0
1411.331421 168.0
1423.627808 88.0
1429.265503 200.0
1432.246704 148.0
1435.381836 228.0
1436.296997 56.0
1438.701538 128.0
1447.986816 156.0
1452.906128 120.0
1462.31311 208.0
1463.409302 128.0
1467.21106 148.0
1473.797607 180.0
1481.348511 156.0
1484.475586 248.0
1487.836182 208.0
1492.607422 140.0
1496.516113 148.0
1503.299194 148.0
