>compound Ampiroxicam
>formula C20H21N3O7S
>ionization [M+H]+
>parentmass 448.118866
#inchi InChI=1S/C20H21N3O7S/c1-4-28-20(25)30-13(2)29-18-14-9-5-6-10-15(14)31(26,27)23(3)17(18)19(24)22-16-11-7-8-12-21-16/h5-13H,4H2,1-3H3,(H,21,22,24)
#inchikey LSNWBKACGXCGAJ
#Ion_Source LC-ESI
#Instrument qTof
#Compound_Source Commercial
#PI Dorrestein
#Data_Collector Garg_Neha
#Scan -1
#Precursor_MZ 448.117
#ExactMass 447.11
#Charge 1
#CAS_Number 99464-64-9
#Pubmed_ID N/A
#Smiles C1(C2=C(S(N(C=1C(NC3C=CC=CN=3)=O)C)(=O)=O)C=CC=C2)OC(OC(OCC)=O)C
#INCHI_AUX N/A
#Library_Class 1
#SpectrumID CCMSLIB00000078620
#IonMode Positive
#UpdateWorkflowName UPDATE-SINGLE-ANNOTATED-GOLD
#LibraryQualityString Gold
#TaskID 77f51c88eb8b467eb4a01dd2d0cb90d2
##Scan# 1614
#SpectrumFile Plate10_1_20_GC1_01_15743.mzXML
#LibraryName FDALibrary_2_04302014.mgf
#MQScore -1
#Organism FDALibrary_2_04302014
#TIC_Query 0
#RT_Query -1
#MZErrorPPM -1
#SharedPeaks 0
#MassDiff 0
#LibMZ -1
#SpecMZ 448.117
#SpecCharge 0
#internalFilename spec-00000.mgf

>collision 10
45.402931 212.0
45.685005 156.0
46.100288 144.0
46.161121 180.0
46.676414 224.0
46.709053 208.0
46.899685 144.0
47.00832 204.0
47.560345 192.0
48.930328 176.0
49.463608 148.0
49.628922 140.0
49.658371 152.0
49.836655 144.0
50.466602 204.0
50.83783 160.0
50.8577 172.0
51.085056 200.0
51.774673 136.0
55.147346 240.0
55.385567 164.0
55.726772 172.0
56.363007 168.0
57.184826 200.0
57.415337 224.0
58.26907 172.0
58.296417 180.0
58.620552 184.0
59.380363 160.0
60.174397 224.0
61.551655 176.0
61.690369 128.0
61.792362 216.0
61.812702 148.0
63.061405 160.0
64.313019 172.0
65.473816 200.0
65.73336 164.0
66.773422 216.0
67.055077 148.0
67.42952 196.0
67.64801 168.0
68.217239 168.0
68.80867 200.0
69.43084 192.0
69.965881 200.0
70.533058 160.0
70.928101 144.0
71.161285 176.0
72.033646 196.0
72.045471 204.0
72.089401 144.0
72.789017 180.0
73.615181 152.0
74.28241 156.0
74.551971 164.0
74.596474 200.0
75.505333 168.0
76.327316 144.0
76.717316 164.0
78.523407 152.0
80.564743 140.0
81.004807 260.0
81.205559 276.0
81.376038 140.0
81.787712 148.0
82.753532 144.0
83.163223 152.0
83.395714 148.0
84.898285 232.0
84.938637 160.0
85.050568 188.0
85.291191 148.0
86.405022 156.0
87.447899 152.0
88.158455 216.0
88.283707 176.0
88.802475 192.0
89.667336 144.0
90.62664 148.0
91.28598 144.0
91.870178 188.0
92.052269 128.0
92.733093 144.0
93.034248 156.0
93.541748 168.0
94.065956 184.0
94.750908 156.0
95.061317 9204.0
95.118683 160.0
96.064522 1836.0
96.342049 196.0
96.688705 124.0
96.940765 200.0
97.075951 208.0
98.449631 168.0
98.558273 176.0
100.015915 204.0
100.252922 216.0
100.366547 156.0
104.049599 288.0
105.044228 1404.0
105.513474 172.0
105.556412 196.0
105.8265 168.0
105.914566 276.0
106.041595 192.0
106.332832 144.0
107.058502 324.0
107.737144 212.0
109.267151 176.0
109.848381 140.0
111.011673 204.0
111.399551 144.0
112.686768 172.0
113.006027 176.0
113.518028 156.0
113.802956 212.0
114.19397 148.0
115.776299 156.0
115.876091 196.0
115.985382 168.0
116.092583 180.0
116.350067 140.0
116.549805 184.0
117.053146 148.0
117.070374 188.0
117.113449 140.0
118.994827 172.0
119.061287 328.0
120.460472 140.0
120.707443 156.0
120.880249 252.0
120.967796 148.0
121.040413 20232.0
121.076569 18036.0
121.469612 356.0
122.014229 148.0
122.042633 1252.0
122.078979 2464.0
122.185768 156.0
122.912857 164.0
122.964348 120.0
123.051277 360.0
123.092384 10864.0
123.252907 180.0
123.502716 148.0
124.027489 156.0
124.06739 144.0
124.095894 1116.0
124.777817 164.0
125.010292 108.0
126.88987 216.0
126.910049 156.0
127.322945 176.0
128.653671 148.0
130.066223 156.0
130.250137 152.0
133.065094 164.0
133.461121 152.0
133.486404 148.0
134.069031 180.0
134.220963 184.0
135.054016 532.0
135.494492 208.0
135.740173 156.0
135.997696 184.0
136.087143 596.0
137.00853 516.0
138.052567 140.0
138.288864 184.0
139.008331 160.0
139.050568 156.0
139.972107 152.0
140.592087 188.0
142.286865 156.0
144.039581 184.0
144.075409 172.0
144.43399 192.0
144.843307 204.0
145.106903 156.0
145.46196 160.0
145.851089 156.0
146.070374 1532.0
147.07196 144.0
147.43457 140.0
147.872314 188.0
148.020767 176.0
148.050995 1300.0
149.007172 244.0
149.024277 148.0
149.067978 1464.0
150.07457 164.0
150.409866 172.0
151.012939 176.0
151.081879 192.0
151.360886 156.0
152.015381 160.0
152.098831 180.0
152.710648 172.0
153.000198 2376.0
153.239899 144.0
154.424805 148.0
158.059433 144.0
159.436157 204.0
160.138092 172.0
162.067627 2688.0
163.07515 3088.0
163.10434 264.0
163.136581 148.0
163.808395 144.0
164.015579 636.0
164.08194 12312.0
165.000076 132.0
165.085083 1544.0
165.18428 144.0
165.921814 156.0
166.005081 168.0
166.03093 268.0
166.085495 164.0
166.388733 244.0
166.591614 140.0
167.08403 596.0
167.806335 152.0
168.929749 152.0
168.995712 16088.0
169.434555 184.0
170.000183 1508.0
170.740189 160.0
170.990738 120.0
171.087204 100.0
171.934631 100.0
172.319839 212.0
176.01474 128.0
176.113205 140.0
176.25058 168.0
177.087692 144.0
177.113342 168.0
177.258728 152.0
178.059891 140.0
179.230377 148.0
180.014618 152.0
180.078705 176.0
180.324509 208.0
181.035736 188.0
181.070953 156.0
182.028336 156.0
184.304459 228.0
184.466614 164.0
184.983292 144.0
186.654785 228.0
187.001724 212.0
188.08757 144.0
188.393417 148.0
189.789215 140.0
190.066254 140.0
190.096436 192.0
191.043381 296.0
191.054596 192.0
191.068787 244.0
191.396622 152.0
191.443863 132.0
192.04425 156.0
192.113007 6208.0
193.117645 1064.0
194.026352 1388.0
194.119949 184.0
195.032959 148.0
195.827591 184.0
196.011459 140.0
196.061615 164.0
196.136871 160.0
196.557983 152.0
196.622177 180.0
196.767319 176.0
196.971176 184.0
197.028 24936.0
197.393204 228.0
198.032516 2140.0
199.025406 924.0
200.022644 272.0
200.571304 152.0
203.226822 240.0
205.71991 152.0
208.044815 176.0
208.081757 180.0
208.537811 296.0
209.753159 148.0
210.022034 8576.0
210.073242 332.0
210.743042 180.0
211.028702 692.0
211.104919 700.0
212.026962 292.0
212.112076 168.0
212.758804 184.0
213.045044 116.0
215.642578 164.0
215.902771 144.0
217.954758 244.0
219.093369 156.0
219.494217 200.0
220.087296 152.0
221.036133 144.0
222.057434 444.0
222.871567 152.0
223.064743 164.0
225.047272 308.0
225.873703 156.0
225.927551 152.0
226.051163 140.0
226.945831 156.0
227.02562 296.0
228.029526 144.0
229.043152 340.0
233.483643 148.0
233.759705 176.0
234.479172 144.0
235.047836 152.0
235.101318 180.0
235.409637 152.0
236.036911 776.0
237.040085 156.0
237.063751 144.0
237.254639 196.0
237.435547 192.0
238.008759 252.0
238.053513 160.0
239.017593 156.0
240.071625 332.0
241.015686 188.0
241.067963 148.0
241.606201 260.0
243.037582 164.0
243.689621 180.0
245.038193 292.0
246.047272 288.0
246.215881 144.0
246.768967 156.0
247.20015 132.0
247.870728 180.0
250.836609 140.0
251.014145 144.0
251.686249 152.0
252.057266 208.0
253.047043 128.0
253.578003 200.0
254.131409 140.0
254.421753 144.0
254.491608 156.0
256.021118 204.0
256.218597 224.0
257.036194 136.0
259.22522 160.0
260.412231 140.0
260.83316 164.0
263.13974 140.0
264.031921 144.0
266.049316 288.0
267.102661 224.0
267.327606 204.0
268.057037 164.0
270.074615 160.0
270.98468 164.0
271.007629 156.0
272.658203 176.0
273.029694 320.0
273.542969 140.0
273.658203 204.0
274.060028 224.0
274.947083 152.0
276.444092 216.0
278.044739 160.0
278.456421 148.0
279.237457 152.0
279.333923 144.0
280.432739 148.0
281.053009 172.0
282.115051 184.0
282.556519 156.0
284.772247 160.0
286.069305 576.0
286.855072 160.0
289.866425 156.0
292.760681 272.0
292.995697 180.0
293.397858 196.0
296.049225 1072.0
296.145996 352.0
296.494659 188.0
297.054688 168.0
297.139313 140.0
301.764771 148.0
304.721161 216.0
305.0513 148.0
307.594208 160.0
307.925903 140.0
308.60733 148.0
308.880096 156.0
311.041992 108.0
311.702362 192.0
312.047791 280.0
312.261322 208.0
313.211639 152.0
313.34903 156.0
314.05957 6400.0
315.06488 1328.0
315.208496 180.0
315.257965 152.0
315.431152 156.0
316.056122 436.0
316.23053 180.0
318.044342 124.0
320.648773 176.0
322.15094 140.0
324.7901 144.0
324.893158 168.0
326.124817 140.0
329.424347 128.0
329.504944 152.0
329.768738 148.0
330.039856 164.0
330.079651 148.0
330.109772 288.0
330.608521 120.0
330.752563 152.0
330.82132 140.0
331.06073 332.0
331.34787 168.0
331.446136 172.0
331.476898 208.0
331.722443 96.0
331.787109 216.0
331.821625 148.0
331.902863 176.0
331.940491 224.0
331.990234 368.0
332.006012 108.0
332.07251 132704.0
332.239227 168.0
332.275299 160.0
332.307556 244.0
332.421082 188.0
332.57135 152.0
332.667847 560.0
332.708252 96.0
332.799103 112.0
333.074493 27756.0
333.23642 160.0
333.30307 108.0
333.502686 160.0
333.558014 104.0
333.786926 100.0
333.971802 208.0
334.005402 140.0
334.068634 7264.0
334.175873 112.0
334.523499 100.0
334.824249 148.0
334.97464 184.0
335.024963 112.0
335.076263 1796.0
335.178284 128.0
335.281219 296.0
335.330322 104.0
335.357941 348.0
335.420868 124.0
335.589722 160.0
336.077698 252.0
336.11676 184.0
336.3909 140.0
336.586273 116.0
340.076874 116.0
341.772247 100.0
347.027863 136.0
350.129364 168.0
350.688202 172.0
354.099365 140.0
356.857452 164.0
357.069672 120.0
357.157196 136.0
357.192169 164.0
357.225098 96.0
357.271179 160.0
357.613586 204.0
357.730286 184.0
357.836761 156.0
357.878662 164.0
357.933472 140.0
357.990051 196.0
358.035126 244.0
358.087219 67844.0
358.209595 140.0
358.442719 192.0
358.638245 184.0
358.840881 192.0
358.884033 108.0
358.915741 232.0
358.984924 220.0
359.012115 160.0
359.089325 12516.0
359.427277 136.0
359.694397 104.0
359.745728 192.0
359.811584 136.0
359.909546 108.0
359.99588 200.0
360.101562 21100.0
360.344086 168.0
360.460144 120.0
360.528229 128.0
360.596527 96.0
360.746887 96.0
361.104858 4876.0
361.363525 196.0
362.101318 724.0
362.14743 160.0
362.174683 184.0
363.004669 188.0
363.101013 152.0
363.310272 112.0
363.375031 112.0
363.42453 116.0
364.165985 168.0
366.450836 132.0
375.985107 184.0
377.834717 136.0
386.845184 160.0
392.692017 156.0
404.095795 1652.0
405.097534 244.0
405.799225 172.0
406.093262 256.0
406.13208 152.0
409.810425 140.0
409.983704 140.0
415.884491 156.0
423.139282 96.0
431.790253 168.0
447.792267 164.0
448.118866 8712.0
448.173737 160.0
449.121582 2356.0
450.119568 460.0
451.108643 132.0
451.163727 216.0
451.523163 160.0
563.89624 172.0
937.846069 156.0
1207.463135 152.0
1277.677612 196.0
1283.510742 164.0
1301.018311 240.0
1311.117065 168.0
1368.82312 176.0
1421.123901 224.0
1436.410889 148.0
1438.184082 180.0
1439.988647 152.0
1455.578857 220.0
1457.192871 136.0
1479.193237 188.0
1483.828003 220.0
1499.401489 148.0
1503.025879 148.0
1514.901245 164.0
1527.391235 156.0
1546.515747 180.0
1556.676147 172.0
1557.540039 236.0
1563.964111 196.0
1581.272949 192.0
1597.364258 152.0
1602.467163 152.0
1604.523438 188.0
1622.158813 152.0
1641.188599 216.0
1650.474121 152.0
1671.743164 168.0
1676.099731 200.0
1680.404785 188.0
1690.283203 140.0
1691.510864 164.0
1696.893188 176.0
1703.335327 172.0
1711.361816 192.0
1726.553467 208.0
1727.959717 200.0
1734.89978 264.0
1739.03064 188.0
1741.803955 160.0
1747.032593 184.0
1747.956177 232.0
1753.42749 200.0
1755.269775 172.0
1764.495972 172.0
1768.737305 200.0
1769.038574 224.0
1772.229492 196.0
1778.829712 156.0
1787.696777 156.0
1800.333374 200.0
1805.513916 188.0
1820.182739 192.0
1831.059326 148.0
1832.882324 196.0
1839.585938 148.0
1844.523315 232.0
1844.677246 272.0
1852.944092 156.0
1862.363037 192.0
1865.086792 160.0
1869.24939 148.0
1876.381104 152.0
1876.734619 140.0
1878.459473 148.0
1894.226562 168.0
1896.245483 148.0
1899.21936 196.0
1905.6521 176.0
1915.569702 176.0
1919.03833 228.0
1920.128296 160.0
1922.68457 224.0
1931.509033 152.0
1938.557007 160.0
1949.702026 176.0
1955.357056 152.0
1956.536499 164.0
1966.214844 144.0
1970.435669 156.0
1982.141602 140.0
1986.024658 164.0
1986.423828 200.0
1991.456665 188.0
2000.481934 156.0
