>compound MLS000069359-01!D600
>formula C28H40N2O5
>ionization [M+H]+
>parentmass 485.300598
#inchi InChI=1S/C28H40N2O5/c1-20(2)28(19-29,22-17-25(33-6)27(35-8)26(18-22)34-7)13-9-14-30(3)15-12-21-10-11-23(31-4)24(16-21)32-5/h10-11,16-18,20H,9,12-15H2,1-8H3
#inchikey XQLWNAFCTODIRK
#origInchi InChI=1S/C28H40N2O5.ClH/c1-20(2)28(19-29,22-17-25(33-6)27(35-8)26(18-22)34-7)13-9-14-30(3)15-12-21-10-11-23(31-4)24(16-21)32-5;/h10-11,16-18,20H,9,12-15H2,1-8H3;1H
#Ion_Source LC-ESI
#Instrument qTof
#Compound_Source NIH Pharmacologically Active Library
#PI Dorrestein
#Data_Collector VP/LMS
#Scan -1
#Precursor_MZ 485.299
#ExactMass 484.294
#Charge 1
#CAS_Number N/A
#Pubmed_ID N/A
#Smiles COc1ccc(CCN(C)CCCC(C#N)(C(C)C)c2cc(OC)c(OC)c(OC)c2)cc1OC.Cl
#INCHI_AUX N/A
#Library_Class 1
#SpectrumID CCMSLIB00000085946
#IonMode Positive
#UpdateWorkflowName UPDATE-SINGLE-ANNOTATED-GOLD
#LibraryQualityString Gold
#TaskID d252d724072548979f1f6f1ced849daf
##Scan# 1796
#SpectrumFile p4-H06_GH6_01_18414.mzXML
#LibraryName Pharm_Active_Library.mgf
#MQScore -1
#Organism Pharm_Active_Library
#TIC_Query 0
#RT_Query -1
#MZErrorPPM -1
#SharedPeaks 0
#MassDiff 0
#LibMZ -1
#SpecMZ 485.299
#SpecCharge 0
#internalFilename spec-00000.mgf

>collision 10
44.89402 132.0
44.899334 116.0
44.921726 104.0
44.936729 160.0
44.941273 80.0
44.945187 148.0
44.970608 184.0
44.987293 128.0
44.989632 180.0
45.012489 196.0
45.01458 128.0
45.023991 136.0
45.046345 104.0
45.061653 96.0
45.077072 104.0
45.09124 140.0
45.098991 140.0
45.108509 200.0
45.119587 124.0
45.125088 100.0
45.13842 132.0
45.17329 228.0
45.189156 356.0
45.215801 180.0
45.229542 364.0
45.244404 196.0
45.272419 172.0
45.283863 120.0
45.306271 136.0
45.333366 116.0
45.344112 164.0
45.371777 344.0
45.388229 204.0
45.40448 220.0
45.41452 172.0
45.429211 364.0
45.44228 108.0
45.447186 164.0
45.467148 132.0
45.482307 240.0
45.485214 120.0
45.51046 328.0
45.551373 160.0
45.562119 72.0
45.584122 268.0
45.596535 200.0
45.607811 328.0
45.621254 204.0
45.632008 164.0
45.647629 236.0
45.666538 148.0
45.67778 196.0
45.725475 112.0
45.730404 144.0
45.759102 148.0
45.76347 68.0
45.768242 128.0
45.777718 140.0
45.792179 168.0
45.820435 272.0
45.837952 132.0
45.852776 156.0
45.874901 252.0
45.880257 104.0
45.884243 204.0
45.895145 256.0
45.909401 280.0
45.92963 168.0
45.948517 280.0
45.963245 232.0
45.983418 152.0
46.011951 160.0
46.02795 184.0
46.031509 132.0
46.04306 196.0
46.053665 200.0
46.069241 124.0
46.097218 384.0
46.107861 272.0
46.131104 164.0
46.145096 220.0
46.170052 280.0
46.185692 156.0
46.197773 176.0
46.209625 176.0
46.226868 212.0
46.235809 264.0
46.25555 252.0
46.268829 144.0
46.287785 172.0
46.309456 164.0
46.326862 160.0
46.344604 172.0
46.359062 144.0
46.384869 368.0
46.40617 236.0
46.427925 204.0
46.445808 168.0
46.458855 132.0
46.479668 152.0
46.483273 192.0
46.504704 132.0
46.517273 184.0
46.537159 224.0
46.561424 160.0
46.589233 288.0
46.595371 120.0
46.612999 200.0
46.632275 404.0
46.634354 124.0
46.655487 148.0
46.669827 264.0
46.678375 72.0
46.687309 192.0
46.711918 348.0
46.734371 92.0
46.751263 252.0
46.768799 300.0
46.788609 184.0
46.792202 156.0
46.80275 136.0
46.826942 60.0
46.847122 172.0
46.867813 128.0
46.903664 232.0
46.934795 144.0
46.946877 104.0
46.962677 152.0
46.979614 396.0
46.988972 200.0
47.013775 320.0
47.03891 168.0
47.054695 200.0
47.072426 244.0
47.101109 180.0
47.110577 116.0
47.11467 108.0
47.121696 224.0
47.144829 152.0
47.16069 152.0
47.182606 132.0
47.198143 148.0
47.207718 56.0
47.223648 160.0
47.238705 184.0
47.265308 204.0
47.280579 200.0
47.294716 352.0
47.306057 356.0
47.315815 180.0
47.326382 228.0
47.341831 88.0
47.356747 184.0
47.376072 72.0
47.396626 276.0
47.413738 200.0
47.430943 164.0
47.445587 172.0
47.472019 200.0
47.495335 172.0
47.507683 196.0
47.51754 128.0
47.529636 184.0
47.549747 172.0
47.560123 168.0
47.577675 120.0
47.588142 160.0
47.610466 268.0
47.629593 124.0
47.644154 128.0
47.647598 184.0
47.65234 244.0
47.671078 172.0
47.692043 156.0
47.723907 188.0
47.746143 212.0
47.75769 80.0
47.768635 132.0
47.780392 168.0
47.786469 144.0
47.79311 156.0
47.798141 260.0
47.815239 160.0
47.838879 148.0
47.848518 192.0
47.870548 128.0
47.885696 232.0
47.913921 196.0
47.926632 140.0
47.952671 184.0
47.971546 292.0
47.979904 164.0
48.0056 160.0
48.020351 132.0
48.036343 296.0
48.05526 200.0
48.074013 188.0
48.098042 136.0
48.118748 116.0
48.151333 220.0
48.167084 116.0
48.181183 156.0
48.200241 160.0
48.210686 280.0
48.240135 88.0
48.25523 204.0
48.268734 268.0
48.290874 216.0
48.302551 136.0
48.317265 252.0
48.349388 212.0
48.366432 172.0
48.382698 232.0
48.38583 160.0
48.410969 376.0
48.426437 72.0
48.441353 240.0
48.453159 284.0
48.466694 272.0
48.488041 108.0
48.515705 240.0
48.540775 120.0
48.551174 188.0
48.555855 64.0
48.560097 60.0
48.576576 192.0
48.59071 132.0
48.612461 372.0
48.648998 192.0
48.667046 48.0
48.687401 384.0
48.697021 164.0
48.71365 72.0
48.726051 224.0
48.754562 112.0
48.774021 104.0
48.788795 172.0
48.811558 172.0
48.82972 168.0
48.843346 164.0
48.882793 192.0
48.89307 180.0
48.908825 292.0
48.931919 224.0
48.954617 120.0
48.957623 96.0
48.973 144.0
48.996681 128.0
49.007828 56.0
49.023155 236.0
49.049637 160.0
49.07016 364.0
49.08728 160.0
49.126057 156.0
49.131199 148.0
49.151222 196.0
49.164009 68.0
49.182026 176.0
49.196487 184.0
49.211285 244.0
49.246384 172.0
49.26202 124.0
49.279568 196.0
49.290302 156.0
49.305065 108.0
49.321022 172.0
49.347 112.0
49.359585 180.0
49.375771 188.0
49.407375 180.0
49.418808 224.0
49.443474 112.0
49.45892 108.0
49.482716 216.0
49.502022 112.0
49.513523 128.0
49.533134 152.0
49.542938 124.0
49.563175 272.0
49.583523 208.0
49.598995 168.0
49.628433 36.0
49.640987 164.0
49.653042 124.0
49.664623 204.0
49.68998 164.0
49.734024 424.0
49.754364 344.0
49.776215 240.0
49.786633 120.0
49.812286 100.0
49.823528 176.0
49.843197 116.0
49.859402 136.0
49.877037 52.0
49.892391 48.0
49.911461 116.0
49.924088 280.0
49.944271 112.0
49.965523 152.0
49.98539 168.0
50.006332 152.0
50.024632 116.0
50.046093 164.0
50.07439 444.0
50.090248 128.0
50.109135 44.0
50.129467 204.0
50.143551 132.0
50.1595 108.0
50.178089 108.0
50.18782 236.0
50.229504 408.0
50.24448 260.0
50.288013 160.0
50.305168 60.0
50.355965 152.0
50.382839 136.0
50.419708 176.0
50.437954 128.0
50.452087 156.0
50.46492 160.0
50.481781 172.0
50.493095 152.0
50.52737 156.0
50.555462 148.0
50.593235 276.0
50.609138 196.0
50.62904 204.0
50.648525 148.0
50.658085 120.0
50.674458 172.0
50.690022 160.0
50.72308 244.0
50.747074 296.0
50.758568 184.0
50.783718 168.0
50.796932 428.0
50.813908 280.0
50.83334 188.0
50.84108 116.0
50.851723 312.0
50.865685 180.0
50.889969 132.0
50.901035 164.0
50.906475 140.0
50.911774 144.0
50.921646 164.0
50.948116 160.0
50.958061 152.0
50.979134 264.0
50.996834 140.0
51.012802 224.0
51.034798 224.0
51.048847 144.0
51.073029 296.0
51.085407 232.0
51.097397 148.0
51.124054 136.0
51.151333 236.0
51.176277 76.0
51.206112 108.0
51.219276 352.0
51.243671 228.0
51.260746 100.0
51.282959 160.0
51.302658 128.0
51.314617 132.0
51.346458 180.0
51.36665 144.0
51.380363 72.0
51.393829 160.0
51.42382 124.0
51.453705 124.0
51.47084 84.0
51.495117 168.0
51.507973 296.0
51.523685 132.0
51.535736 216.0
51.551056 180.0
51.569168 248.0
51.582596 132.0
51.597672 188.0
51.602798 136.0
51.614693 304.0
51.630417 48.0
51.63892 124.0
51.652348 132.0
51.662361 200.0
51.682804 228.0
51.70713 220.0
51.743423 300.0
51.772579 132.0
51.784035 220.0
51.801708 380.0
51.816982 148.0
51.84206 200.0
51.861408 60.0
51.876038 116.0
51.911629 148.0
51.93232 220.0
51.958923 160.0
51.986736 188.0
52.008701 176.0
52.018505 216.0
52.037743 252.0
52.074017 212.0
52.098335 188.0
52.116585 292.0
52.134102 64.0
52.155956 280.0
52.166561 172.0
52.180599 196.0
52.207424 144.0
52.223778 236.0
52.25 204.0
52.269279 100.0
52.28043 380.0
52.309578 212.0
52.319416 172.0
52.35004 156.0
52.364746 64.0
52.38258 196.0
52.402187 172.0
52.406517 220.0
52.424393 140.0
52.435963 200.0
52.447258 192.0
52.458553 320.0
52.46867 232.0
52.48494 156.0
52.497574 84.0
52.539612 232.0
52.561321 168.0
52.574791 176.0
52.594997 120.0
52.626583 252.0
52.634121 152.0
52.661888 196.0
52.67625 196.0
52.698818 108.0
52.717762 220.0
52.733109 84.0
52.743778 116.0
52.764015 68.0
52.788509 128.0
52.800167 144.0
52.814632 228.0
52.833805 188.0
52.838982 48.0
52.844707 228.0
52.853977 408.0
52.875198 284.0
52.883469 188.0
52.886345 164.0
52.922302 184.0
52.960621 224.0
52.972233 96.0
52.996559 104.0
53.006966 156.0
53.023129 164.0
53.057919 100.0
53.075535 80.0
53.088367 72.0
53.099186 188.0
53.110626 188.0
53.126949 60.0
53.141022 188.0
53.162849 164.0
53.191402 316.0
53.21656 176.0
53.244358 132.0
53.271557 192.0
53.287312 180.0
53.325581 256.0
53.329094 144.0
53.353474 180.0
53.37365 300.0
53.400093 208.0
53.418076 40.0
53.428261 196.0
53.464729 64.0
53.49353 212.0
53.510948 208.0
53.531071 360.0
53.555691 52.0
53.560158 152.0
53.575714 184.0
53.608944 256.0
53.647324 176.0
53.660145 168.0
53.680244 308.0
53.703896 280.0
53.715672 148.0
53.727989 180.0
53.734142 156.0
53.743744 68.0
53.748329 208.0
53.784142 152.0
53.806713 156.0
53.819706 112.0
53.843697 128.0
53.863693 168.0
53.880665 156.0
53.907978 172.0
53.923183 364.0
53.940414 528.0
53.951981 152.0
53.95826 140.0
53.966019 208.0
53.975613 292.0
54.00864 320.0
54.036655 48.0
54.067459 156.0
54.080559 164.0
54.098877 256.0
54.135601 272.0
54.15958 124.0
54.165047 120.0
54.177971 276.0
54.216057 124.0
54.219608 180.0
54.224583 120.0
54.24012 176.0
54.260082 224.0
54.280724 344.0
54.293587 332.0
54.304867 160.0
54.316292 320.0
54.342197 216.0
54.374752 168.0
54.403053 32.0
54.426544 124.0
54.452766 112.0
54.464764 160.0
54.482391 160.0
54.495811 252.0
54.524632 192.0
54.541138 152.0
54.561501 344.0
54.581696 168.0
54.603382 168.0
54.613789 176.0
54.627579 332.0
54.637569 320.0
54.654568 188.0
54.669964 88.0
54.685284 160.0
54.704422 152.0
54.724056 228.0
54.736279 188.0
54.76416 180.0
54.780613 168.0
54.794102 152.0
54.82177 156.0
54.84222 256.0
54.858444 224.0
54.881218 180.0
54.915134 96.0
54.925461 172.0
54.935787 160.0
54.953491 100.0
54.9771 256.0
55.000717 176.0
55.022141 164.0
55.041325 276.0
55.063274 296.0
55.086365 112.0
55.109379 76.0
55.130692 116.0
55.151382 204.0
55.164688 168.0
55.189163 132.0
55.243214 200.0
55.255535 168.0
55.297813 336.0
55.30867 96.0
55.330414 188.0
55.359993 156.0
55.378693 144.0
55.385754 112.0
55.393658 220.0
55.414986 148.0
55.429619 140.0
55.453545 188.0
55.474182 180.0
55.494839 188.0
55.516544 156.0
55.536789 136.0
55.558617 100.0
55.580921 180.0
55.601139 192.0
55.628979 164.0
55.638756 144.0
55.654137 148.0
55.676647 116.0
55.687088 228.0
55.698158 116.0
55.708557 116.0
55.750813 236.0
55.774078 140.0
55.801395 120.0
55.823074 204.0
55.837463 144.0
55.843254 256.0
55.8587 116.0
55.876553 148.0
55.887993 128.0
55.892986 88.0
55.899731 132.0
55.909424 180.0
55.922684 180.0
55.964367 80.0
55.982517 304.0
56.024654 92.0
56.050499 196.0
56.059891 296.0
56.070137 332.0
56.117725 160.0
56.161087 84.0
56.177952 196.0
56.190582 140.0
56.20047 180.0
56.215412 184.0
56.242496 136.0
56.257507 180.0
56.287941 336.0
56.306282 384.0
56.347538 164.0
56.365509 160.0
56.382988 196.0
56.399521 332.0
56.428654 188.0
56.443352 112.0
56.472324 224.0
56.512394 152.0
56.545811 196.0
56.571106 272.0
56.590664 160.0
56.610954 160.0
56.622147 236.0
56.630966 176.0
56.654388 140.0
56.683006 160.0
56.704964 112.0
56.713318 396.0
56.743885 348.0
56.760807 424.0
56.775803 132.0
56.7938 172.0
56.807301 128.0
56.817802 116.0
56.831902 192.0
56.858063 164.0
56.870174 120.0
56.878132 200.0
56.905605 108.0
56.923508 132.0
56.939156 128.0
56.96904 504.0
57.003193 280.0
57.014271 300.0
57.025555 264.0
57.046478 164.0
57.064934 204.0
57.085552 164.0
57.101826 160.0
57.116802 240.0
57.134617 32.0
57.155502 196.0
57.16143 92.0
57.165581 168.0
57.176758 168.0
57.192478 148.0
57.211559 152.0
57.223602 136.0
57.237785 372.0
57.256889 304.0
57.272648 148.0
57.292885 220.0
57.301495 140.0
57.306442 180.0
57.311481 140.0
57.324398 368.0
57.341801 336.0
57.353355 196.0
57.365219 96.0
57.387836 148.0
57.421906 216.0
57.443638 160.0
57.477478 224.0
57.500977 196.0
57.519089 276.0
57.530884 324.0
57.54216 184.0
57.558926 248.0
57.577164 288.0
57.601318 192.0
57.624802 164.0
57.639912 284.0
57.656181 176.0
57.667217 148.0
57.683453 360.0
57.720028 124.0
57.732769 104.0
57.739742 216.0
57.770683 344.0
57.807354 44.0
57.834621 264.0
57.838428 108.0
57.869831 216.0
57.909847 160.0
57.95068 116.0
57.966656 132.0
57.990265 112.0
58.009972 208.0
58.031952 176.0
58.044987 296.0
58.066517 144.0
58.070797 172.0
58.076294 168.0
58.089325 288.0
58.117607 136.0
58.148762 336.0
58.175144 168.0
58.193546 80.0
58.21777 168.0
58.239777 344.0
58.264851 196.0
58.286636 188.0
58.313126 176.0
58.345612 108.0
58.361298 336.0
58.372978 328.0
58.384251 160.0
58.404915 164.0
58.409763 140.0
58.414951 176.0
58.422066 172.0
58.424934 204.0
58.435173 228.0
58.463364 288.0
58.492428 164.0
58.507095 328.0
58.517517 132.0
58.546539 176.0
58.563011 196.0
58.576744 188.0
58.601933 172.0
58.618732 168.0
58.654583 140.0
58.677532 140.0
58.693134 120.0
58.710999 364.0
58.721672 140.0
58.73299 168.0
58.757492 156.0
58.802048 160.0
58.826126 136.0
58.847908 112.0
58.854313 104.0
58.865757 180.0
58.881096 144.0
58.903061 200.0
58.939251 156.0
58.954426 152.0
58.974297 256.0
59.013523 188.0
59.035606 396.0
59.05975 164.0
59.073013 136.0
59.103874 148.0
59.118061 164.0
59.136841 148.0
59.165447 92.0
59.168957 88.0
59.173992 104.0
59.194603 124.0
59.228252 140.0
59.234268 116.0
59.239021 252.0
59.277325 160.0
59.294186 188.0
59.307545 156.0
59.322239 288.0
59.328121 200.0
59.347599 336.0
59.351139 192.0
59.367775 216.0
59.380836 216.0
59.423454 228.0
59.437008 212.0
59.455872 252.0
59.482601 124.0
59.522064 464.0
59.555767 320.0
59.572807 172.0
59.58147 128.0
59.601925 188.0
59.61702 184.0
59.641064 112.0
59.652927 164.0
59.685482 220.0
59.700279 156.0
59.712231 112.0
59.723194 68.0
59.737228 216.0
59.768948 168.0
59.787178 224.0
59.807152 176.0
59.827953 200.0
59.857368 344.0
59.874935 124.0
59.890038 144.0
59.900856 164.0
59.933472 352.0
59.95903 192.0
59.982586 168.0
60.005962 136.0
60.023319 168.0
60.036453 244.0
60.060654 204.0
60.090744 172.0
60.105118 152.0
60.125134 140.0
60.134365 196.0
60.147621 300.0
60.163284 184.0
60.175575 304.0
60.185356 176.0
60.20343 196.0
60.226982 192.0
60.248875 208.0
60.269855 80.0
60.293034 204.0
60.339409 156.0
60.353325 140.0
60.365734 156.0
60.384834 128.0
60.398174 184.0
60.42487 172.0
60.447762 160.0
60.451672 180.0
60.457458 264.0
60.472534 140.0
60.49958 128.0
60.518887 152.0
60.539017 160.0
60.56012 128.0
60.578545 168.0
60.593231 108.0
60.606403 140.0
60.61293 56.0
60.619022 164.0
60.635071 156.0
60.650139 144.0
60.659573 540.0
60.678974 224.0
60.706387 204.0
60.726654 292.0
60.74361 284.0
60.764977 300.0
60.775333 192.0
60.788811 424.0
60.805264 184.0
60.81654 184.0
60.829823 244.0
60.857368 96.0
60.877811 216.0
60.895615 164.0
60.92823 312.0
60.94865 232.0
60.96727 172.0
60.982193 148.0
61.008606 164.0
61.027481 164.0
61.039482 56.0
61.047882 136.0
61.073917 200.0
61.079773 128.0
61.095684 120.0
61.114132 220.0
61.124008 220.0
61.149212 124.0
61.163368 156.0
61.208321 168.0
61.220539 148.0
61.22551 104.0
61.230186 176.0
61.251717 176.0
61.269066 192.0
61.281528 148.0
61.296944 192.0
61.328281 148.0
61.340611 176.0
61.352226 376.0
61.372955 232.0
61.390644 164.0
61.421841 148.0
61.449921 64.0
61.471642 152.0
61.508076 100.0
61.520111 156.0
61.533104 108.0
61.556061 268.0
61.569939 176.0
61.574764 156.0
61.611534 140.0
61.627495 192.0
61.669479 148.0
61.68848 140.0
61.723022 180.0
61.739079 108.0
61.752979 128.0
61.780186 276.0
61.794819 204.0
61.840599 168.0
61.873837 224.0
61.899364 224.0
61.916611 204.0
61.93383 180.0
61.947079 124.0
61.96048 152.0
61.97998 160.0
61.998505 196.0
62.008919 220.0
62.026745 148.0
62.054188 292.0
62.074974 160.0
62.088314 152.0
62.102444 208.0
62.119972 208.0
62.135429 228.0
62.155949 128.0
62.172081 200.0
62.192696 236.0
62.220284 304.0
62.23259 180.0
62.245598 164.0
62.265495 84.0
62.287689 216.0
62.301994 416.0
62.32391 152.0
62.338802 188.0
62.362907 124.0
62.384914 88.0
62.400391 152.0
62.415031 160.0
62.435188 148.0
62.468262 64.0
62.48085 152.0
62.499519 180.0
62.534485 300.0
62.557964 148.0
62.568878 120.0
62.594402 84.0
62.620949 188.0
62.633305 128.0
62.650879 200.0
62.668209 164.0
62.688694 40.0
62.704453 156.0
62.722378 140.0
62.748459 140.0
62.764359 140.0
62.776974 308.0
62.788681 148.0
62.805157 172.0
62.840446 192.0
62.852592 188.0
62.877842 124.0
62.899826 116.0
62.90522 100.0
62.912041 144.0
62.934143 200.0
62.974255 112.0
62.993999 144.0
63.013748 200.0
63.041451 164.0
63.053913 208.0
63.079521 168.0
63.111481 120.0
63.131699 136.0
63.159191 68.0
63.173428 148.0
63.187664 132.0
63.208309 224.0
63.249779 232.0
63.280998 128.0
63.302483 164.0
63.33461 248.0
63.374496 96.0
63.392677 192.0
63.417721 160.0
63.434723 56.0
63.44582 120.0
63.461292 216.0
63.485458 164.0
63.499733 132.0
63.513981 356.0
63.528378 228.0
63.54641 132.0
63.571419 208.0
63.587345 200.0
63.598652 140.0
63.615898 116.0
63.637486 284.0
63.674004 168.0
63.689388 212.0
63.713135 104.0
63.735516 144.0
63.765209 232.0
63.787132 180.0
63.828472 344.0
63.85321 36.0
63.882904 380.0
63.903618 180.0
63.923615 84.0
63.943012 136.0
63.962959 332.0
63.991901 208.0
64.009842 276.0
64.026291 92.0
64.037209 148.0
64.060196 104.0
64.079964 252.0
64.099083 204.0
64.141068 164.0
64.166496 140.0
64.181892 156.0
64.198174 144.0
64.212006 212.0
64.237724 184.0
64.251877 116.0
64.270943 144.0
64.29126 284.0
64.315346 60.0
64.337013 140.0
64.355896 152.0
64.379379 340.0
64.398071 196.0
64.407509 288.0
64.454147 276.0
64.470299 136.0
64.487831 180.0
64.513634 380.0
64.536453 172.0
64.549248 140.0
64.567322 132.0
64.572334 152.0
64.579582 136.0
64.628525 180.0
64.642418 180.0
64.667633 128.0
64.691422 144.0
64.710823 180.0
64.715294 176.0
64.738075 112.0
64.759972 256.0
64.781326 248.0
64.794136 36.0
64.805351 64.0
64.824585 156.0
64.840607 180.0
64.857765 148.0
64.875992 168.0
64.891907 124.0
64.904732 172.0
64.91964 144.0
64.958481 172.0
64.969818 180.0
64.987968 200.0
65.004951 196.0
65.025772 188.0
65.028923 200.0
65.050247 184.0
65.082367 120.0
65.092484 160.0
65.107323 196.0
65.150864 92.0
65.200005 132.0
65.224457 160.0
65.26442 128.0
65.283943 252.0
65.298187 188.0
65.31266 132.0
65.334824 236.0
65.349083 164.0
65.380203 112.0
65.412361 180.0
65.422699 236.0
65.443016 132.0
65.467171 100.0
65.484398 144.0
65.509399 92.0
65.531128 136.0
65.551651 164.0
65.559273 72.0
65.576355 292.0
65.588013 128.0
65.622986 180.0
65.655319 196.0
65.670105 180.0
65.694107 188.0
65.710579 96.0
65.72187 352.0
65.744926 180.0
65.772926 284.0
65.800606 176.0
65.828812 128.0
65.847649 144.0
65.86879 364.0
65.89637 144.0
65.912407 252.0
65.928566 96.0
65.950577 212.0
65.994843 132.0
66.020515 128.0
66.042267 136.0
66.052673 180.0
66.065903 300.0
66.090279 140.0
66.101982 376.0
66.114616 96.0
66.119919 156.0
66.136864 236.0
66.161652 192.0
66.193398 224.0
66.231125 116.0
66.247322 288.0
66.269379 196.0
66.282967 152.0
66.305656 188.0
66.32692 148.0
66.346565 244.0
66.370506 256.0
66.384537 368.0
66.404556 208.0
66.421501 108.0
66.432983 172.0
66.450798 184.0
66.47274 160.0
66.493202 132.0
66.514801 136.0
66.519867 128.0
66.551605 124.0
66.55677 116.0
66.568771 172.0
66.583092 164.0
66.596794 164.0
66.622757 188.0
66.646446 120.0
66.662697 196.0
66.673653 172.0
66.701424 188.0
66.735603 256.0
66.75383 388.0
66.774025 192.0
66.794388 220.0
66.828499 236.0
66.861519 176.0
66.893211 308.0
66.899223 224.0
66.903816 240.0
66.938324 156.0
66.975075 168.0
66.995178 152.0
67.020714 284.0
67.027565 148.0
67.048088 280.0
67.091278 116.0
67.096703 120.0
67.107666 288.0
67.125954 188.0
67.138062 168.0
67.149475 148.0
67.16584 136.0
67.183311 208.0
67.194397 156.0
67.209747 144.0
67.249237 140.0
67.284561 164.0
67.295403 152.0
67.301765 188.0
67.330643 160.0
67.342789 140.0
67.368736 176.0
67.400375 192.0
67.46563 472.0
67.487518 148.0
67.500862 224.0
67.519844 208.0
67.52317 160.0
67.529816 176.0
67.543945 160.0
67.566841 168.0
67.583031 92.0
67.601463 280.0
67.625496 152.0
67.66259 168.0
67.686256 280.0
67.696754 120.0
67.734161 108.0
67.761322 180.0
67.790108 108.0
67.804268 124.0
67.814934 176.0
67.83667 264.0
67.853172 308.0
67.876495 116.0
67.913162 220.0
67.927551 240.0
67.946373 156.0
67.980583 160.0
67.998024 188.0
68.019974 68.0
68.038506 220.0
68.058052 164.0
68.084763 148.0
68.107712 412.0
68.126518 200.0
68.133026 176.0
68.157654 120.0
68.171867 216.0
68.195839 352.0
68.220383 136.0
68.238968 172.0
68.257492 400.0
68.281227 112.0
68.302338 172.0
68.312302 152.0
68.341988 128.0
68.363487 116.0
68.376648 132.0
68.420029 148.0
68.43335 308.0
68.445793 96.0
68.468849 96.0
68.497658 360.0
68.507133 180.0
68.523666 124.0
68.549911 168.0
68.574196 136.0
68.576973 128.0
68.583733 88.0
68.594582 104.0
68.601059 136.0
68.631378 128.0
68.675308 136.0
68.708679 340.0
68.738922 204.0
68.76339 148.0
68.78231 144.0
68.830002 84.0
68.853127 132.0
68.890961 232.0
68.917618 324.0
68.932419 128.0
68.950737 196.0
68.965286 240.0
68.983742 148.0
69.013115 152.0
69.017906 164.0
69.022652 232.0
69.051414 176.0
69.055634 144.0
69.060364 124.0
69.093361 120.0
69.111855 180.0
69.142654 120.0
69.167274 140.0
69.189148 156.0
69.210022 176.0
69.238029 296.0
69.25647 60.0
69.263908 168.0
69.270279 120.0
69.27726 192.0
69.283455 104.0
69.28701 200.0
69.301216 96.0
69.311111 104.0
69.332909 348.0
69.355087 84.0
69.367714 132.0
69.38839 128.0
69.41082 116.0
69.425018 208.0
69.427979 116.0
69.436104 132.0
69.453941 380.0
69.471603 160.0
69.49044 128.0
69.53315 224.0
69.558556 356.0
69.591133 164.0
69.604973 152.0
69.610397 164.0
69.617714 196.0
69.621178 132.0
69.645554 156.0
69.670959 132.0
69.686363 136.0
69.70298 200.0
69.714424 176.0
69.718918 156.0
69.741516 172.0
69.757828 180.0
69.781105 120.0
69.806046 300.0
69.825996 144.0
69.88533 132.0
69.920235 228.0
69.93119 144.0
69.954605 160.0
69.980469 132.0
69.99337 56.0
70.000298 208.0
70.025726 200.0
70.046135 308.0
70.089027 208.0
70.112625 300.0
70.151543 184.0
70.173065 96.0
70.195869 176.0
70.214058 112.0
70.229881 148.0
70.250755 160.0
70.270851 172.0
70.294136 288.0
70.305817 152.0
70.330856 336.0
70.372589 160.0
70.385269 276.0
70.412781 240.0
70.427704 164.0
70.443573 152.0
70.458488 316.0
70.472946 140.0
70.507896 116.0
70.525284 180.0
70.53936 136.0
70.572655 168.0
70.593163 204.0
70.62661 140.0
70.63887 548.0
70.670822 140.0
70.681961 192.0
70.722054 208.0
70.735237 188.0
70.77578 140.0
70.810432 136.0
70.822083 200.0
70.842552 228.0
70.864075 216.0
70.891914 96.0
70.902878 140.0
70.928017 104.0
70.946457 168.0
70.976028 144.0
70.987984 200.0
71.003387 324.0
71.023598 160.0
71.056526 224.0
71.072807 180.0
71.114304 132.0
71.118423 132.0
71.125755 192.0
71.136971 128.0
71.167503 200.0
71.198402 132.0
71.209396 132.0
71.231346 132.0
71.253586 128.0
71.268333 204.0
71.280739 300.0
71.296097 296.0
71.319939 328.0
71.342384 104.0
71.371201 176.0
71.375618 152.0
71.39341 172.0
71.434143 196.0
71.446259 172.0
71.459869 212.0
71.47184 340.0
71.492821 188.0
71.525764 160.0
71.530655 180.0
71.537254 180.0
71.552399 192.0
71.579651 164.0
71.619026 160.0
71.639389 148.0
71.644257 188.0
71.666382 372.0
71.686317 136.0
71.707932 160.0
71.724785 156.0
71.734337 48.0
71.740341 140.0
71.747124 80.0
71.752815 160.0
71.771477 228.0
71.813179 76.0
71.836578 232.0
71.855507 140.0
71.869591 116.0
71.900162 364.0
71.911194 132.0
71.914429 232.0
71.926971 144.0
71.944084 200.0
71.964531 212.0
71.987823 108.0
72.004311 48.0
72.030006 100.0
72.045418 124.0
72.066391 232.0
72.098885 212.0
72.112755 160.0
72.116638 136.0
72.121872 180.0
72.158417 200.0
72.197876 144.0
72.211388 152.0
72.236649 236.0
72.249008 184.0
72.273666 132.0
72.297356 128.0
72.31324 124.0
72.337982 76.0
72.357597 280.0
72.38031 72.0
72.394485 188.0
72.44397 300.0
72.471161 328.0
72.484215 152.0
72.491997 180.0
72.513962 172.0
72.524895 116.0
72.53167 176.0
72.546089 184.0
72.561974 296.0
72.575172 188.0
72.591179 232.0
72.596443 140.0
72.61248 200.0
72.633759 228.0
72.65416 168.0
72.68882 116.0
72.703117 164.0
72.717316 180.0
72.733139 176.0
72.75589 160.0
72.766899 276.0
72.79554 148.0
72.817802 164.0
72.860115 104.0
72.886917 140.0
72.904495 216.0
72.916046 180.0
72.943588 288.0
72.963409 224.0
72.991051 144.0
73.0158 196.0
73.022209 188.0
73.046379 320.0
73.079521 112.0
73.08625 104.0
73.113441 204.0
73.137505 148.0
73.148689 172.0
73.161339 152.0
73.177872 180.0
73.189262 160.0
73.215828 44.0
73.240059 116.0
73.253159 168.0
73.296234 100.0
73.329971 160.0
73.341774 156.0
73.346512 144.0
73.372162 160.0
73.392967 200.0
73.402664 44.0
73.407974 176.0
73.42292 156.0
73.443146 176.0
73.471153 344.0
73.48983 152.0
73.506691 116.0
73.528595 184.0
73.55854 224.0
73.572052 184.0
73.585716 140.0
73.601845 144.0
73.61657 332.0
73.632759 172.0
73.657188 188.0
73.690903 160.0
73.715828 144.0
73.736183 144.0
73.765373 156.0
73.800446 344.0
73.826767 136.0
73.842087 124.0
73.893509 116.0
73.933838 148.0
73.980476 372.0
74.024757 124.0
74.035873 248.0
74.101311 204.0
74.128502 188.0
74.151497 328.0
74.167778 128.0
74.19886 208.0
74.211739 128.0
74.2258 172.0
74.245163 180.0
74.262543 200.0
74.284302 288.0
74.315208 128.0
74.33387 152.0
74.357758 180.0
74.380478 148.0
74.398872 156.0
74.412827 180.0
74.427444 204.0
74.458992 100.0
74.473793 176.0
74.494171 132.0
74.497787 180.0
74.516647 180.0
74.530586 180.0
74.543373 192.0
74.555138 132.0
74.578117 200.0
74.585793 112.0
74.591042 164.0
74.596771 192.0
74.614052 168.0
74.665436 116.0
74.694305 160.0
74.706482 208.0
74.718338 384.0
74.730942 168.0
74.766937 196.0
74.798782 104.0
74.83165 328.0
74.870239 196.0
74.882294 96.0
74.902687 348.0
74.915024 240.0
74.946457 320.0
74.982224 220.0
75.002907 136.0
75.01992 212.0
75.040314 296.0
75.056709 136.0
75.075127 128.0
75.08567 184.0
75.124619 228.0
75.161278 116.0
75.170746 140.0
75.187737 124.0
75.217064 104.0
75.258308 284.0
75.291687 152.0
75.315224 144.0
75.330391 144.0
75.361824 204.0
75.384148 212.0
75.417122 128.0
75.461159 400.0
75.490547 64.0
75.495453 144.0
75.503387 220.0
75.552605 196.0
75.557999 156.0
75.561989 108.0
75.575699 180.0
75.588394 176.0
75.632927 164.0
75.650185 148.0
75.669144 168.0
75.691498 144.0
75.70916 136.0
75.728783 160.0
75.746262 172.0
75.786102 152.0
75.816986 244.0
75.83239 108.0
75.86837 272.0
75.887146 152.0
75.90966 260.0
75.935349 192.0
75.956535 352.0
75.972404 172.0
75.989548 340.0
76.031647 192.0
76.066879 264.0
76.080849 100.0
76.101471 164.0
76.114586 196.0
76.154495 448.0
76.180313 212.0
76.205765 144.0
76.228775 152.0
76.252991 128.0
76.267929 108.0
76.273148 136.0
76.280052 208.0
76.310173 176.0
76.334808 284.0
76.361374 380.0
76.382141 288.0
76.400642 120.0
76.427315 156.0
76.439163 164.0
76.46537 276.0
76.48925 152.0
76.502281 148.0
76.515274 236.0
76.527466 104.0
76.548729 224.0
76.56131 156.0
76.598938 196.0
76.61483 172.0
76.641273 152.0
76.671112 288.0
76.698189 104.0
76.715279 160.0
76.720528 128.0
76.755966 192.0
76.773979 128.0
76.780411 156.0
76.802811 148.0
76.817574 200.0
76.832016 92.0
76.844757 112.0
76.859718 244.0
76.876495 296.0
76.899063 172.0
76.921471 152.0
76.958366 180.0
76.983963 196.0
77.001358 224.0
77.012779 236.0
77.026245 144.0
77.039284 176.0
77.052002 124.0
77.068176 60.0
77.094635 528.0
77.113609 156.0
77.129669 168.0
77.142357 216.0
77.160812 336.0
77.174797 216.0
77.194336 92.0
77.22538 156.0
77.254723 276.0
77.278191 72.0
77.300415 172.0
77.307693 140.0
77.315575 168.0
77.320343 100.0
77.331367 56.0
77.348 220.0
77.366547 428.0
77.410255 300.0
77.443817 144.0
77.462097 148.0
77.47728 252.0
77.509003 112.0
77.524895 192.0
77.55513 140.0
77.579498 268.0
77.603554 280.0
77.624664 136.0
77.640251 500.0
77.654633 156.0
77.68103 160.0
77.712875 120.0
77.756096 208.0
77.766983 272.0
77.794014 196.0
77.828537 260.0
77.858223 148.0
77.872818 220.0
77.893356 184.0
77.918045 160.0
77.932755 172.0
77.945763 192.0
77.979141 272.0
77.996109 160.0
78.018127 184.0
78.047371 272.0
78.115303 148.0
78.148277 196.0
78.182983 328.0
78.213387 216.0
78.24379 180.0
78.262779 148.0
78.293602 212.0
78.309586 164.0
78.325485 152.0
78.34597 200.0
78.365356 96.0
78.387238 248.0
78.416214 132.0
78.431808 84.0
78.467072 80.0
78.484535 128.0
78.503319 144.0
78.530113 208.0
78.559814 368.0
78.578186 196.0
78.599358 136.0
78.615311 176.0
78.645828 204.0
78.685516 108.0
78.692108 88.0
78.697212 156.0
78.712334 132.0
78.750061 128.0
78.757797 220.0
78.765144 208.0
78.812576 256.0
78.828598 308.0
78.836418 132.0
78.840172 208.0
78.854164 212.0
78.866852 112.0
78.87484 236.0
78.895859 124.0
78.900864 108.0
78.920837 104.0
78.936546 236.0
78.956207 240.0
78.991562 172.0
79.006622 216.0
79.024384 200.0
79.05204 180.0
79.065895 420.0
79.085175 200.0
79.098465 140.0
79.111992 468.0
79.150871 104.0
79.167618 140.0
79.197998 144.0
79.234375 332.0
79.25515 148.0
79.271996 160.0
79.321922 88.0
79.358879 132.0
79.362114 148.0
79.398102 164.0
79.41671 116.0
79.429123 108.0
79.46106 56.0
79.479698 160.0
79.513901 160.0
79.554733 148.0
79.579063 148.0
79.604836 208.0
79.627022 284.0
79.653305 96.0
79.668808 176.0
79.698387 140.0
79.715469 168.0
79.736298 108.0
79.75518 420.0
79.790306 184.0
79.807762 120.0
79.853691 276.0
79.87368 184.0
79.893333 204.0
79.914124 164.0
79.937294 320.0
79.954315 152.0
79.983002 80.0
80.011757 288.0
80.058311 308.0
80.078171 212.0
80.099953 308.0
80.144783 140.0
80.162994 160.0
80.179756 272.0
80.214432 148.0
80.22937 220.0
80.242928 252.0
80.273949 268.0
80.292755 176.0
80.331375 232.0
80.351021 152.0
80.371986 200.0
80.390175 156.0
80.447937 124.0
80.464355 196.0
80.470123 140.0
80.477898 328.0
80.491539 128.0
80.509506 92.0
80.533386 184.0
80.58197 176.0
80.599319 160.0
80.620712 248.0
80.643509 192.0
80.689987 48.0
80.716805 180.0
80.73719 180.0
80.759727 112.0
80.777618 368.0
80.811607 128.0
80.831207 84.0
80.837196 120.0
80.854553 160.0
80.87442 160.0
80.904915 304.0
80.923599 116.0
80.958046 104.0
80.989212 204.0
81.023613 164.0
81.048492 276.0
81.062943 288.0
81.093636 132.0
81.145844 168.0
81.169899 148.0
81.19957 196.0
81.216904 120.0
81.241371 132.0
81.256111 180.0
81.279053 168.0
81.311226 204.0
81.318573 160.0
81.320816 208.0
81.342094 176.0
81.365982 104.0
81.378967 408.0
81.405411 360.0
81.41803 164.0
81.443253 308.0
81.462669 300.0
81.480003 116.0
81.509117 48.0
81.530365 200.0
81.555344 100.0
81.582809 144.0
81.63031 112.0
81.655312 164.0
81.672226 144.0
81.675926 108.0
81.696114 144.0
81.720314 152.0
81.734573 148.0
81.757286 192.0
81.774376 148.0
81.796646 200.0
81.81102 252.0
81.857155 96.0
81.914108 156.0
81.929291 136.0
81.942757 148.0
81.969109 232.0
82.009438 116.0
82.029518 196.0
82.056305 136.0
82.07222 136.0
82.107178 284.0
82.128441 252.0
82.163467 144.0
82.168785 132.0
82.176132 192.0
82.233093 188.0
82.260971 256.0
82.274452 136.0
82.286346 204.0
82.309784 116.0
82.330872 192.0
82.373932 80.0
82.396233 176.0
82.413521 88.0
82.440788 216.0
82.455246 144.0
82.471359 232.0
82.497139 160.0
82.513092 180.0
82.531174 132.0
82.561913 256.0
82.594444 292.0
82.611656 168.0
82.62838 156.0
82.647964 204.0
82.664932 216.0
82.683128 172.0
82.727516 420.0
82.752892 252.0
82.784561 136.0
82.832184 136.0
82.866768 184.0
82.879341 160.0
82.909515 72.0
82.934715 160.0
82.940643 184.0
82.947021 144.0
82.967346 256.0
82.998337 128.0
83.018288 100.0
83.034607 76.0
83.049118 152.0
83.069 204.0
83.093231 340.0
83.109428 116.0
83.129646 156.0
83.142784 160.0
83.161346 164.0
83.1875 184.0
83.212746 156.0
83.229271 196.0
83.245758 472.0
83.288994 184.0
83.303253 168.0
83.319962 100.0
83.345406 180.0
83.370552 204.0
83.394104 88.0
83.410469 144.0
83.423187 144.0
83.435913 140.0
83.449554 140.0
83.468193 176.0
83.503197 112.0
83.53756 348.0
83.558624 136.0
83.586884 148.0
83.603264 232.0
83.655746 184.0
83.677895 148.0
83.704613 164.0
83.720764 208.0
83.741676 184.0
83.790817 136.0
83.811569 164.0
83.827148 172.0
83.857803 252.0
83.876678 172.0
83.901917 280.0
83.92897 120.0
83.983597 148.0
84.01506 160.0
84.041878 180.0
84.057236 284.0
84.065033 40.0
84.070442 148.0
84.088051 104.0
84.115433 452.0
84.141609 212.0
84.14695 136.0
84.152359 176.0
84.202492 364.0
84.230476 152.0
84.24485 156.0
84.272217 188.0
84.309036 136.0
84.326477 152.0
84.356216 148.0
84.378502 156.0
84.392982 152.0
84.42205 124.0
84.437019 196.0
84.452957 180.0
84.476936 204.0
84.505142 132.0
84.535591 176.0
84.546608 160.0
84.561432 124.0
84.5811 284.0
84.603073 156.0
84.636795 260.0
84.655899 200.0
84.686447 112.0
84.712997 264.0
84.746391 272.0
84.775383 156.0
84.788246 176.0
84.84169 164.0
84.859398 152.0
84.879387 100.0
84.922577 112.0
84.971771 320.0
85.019211 144.0
85.043518 184.0
85.081863 352.0
85.116699 172.0
85.142624 76.0
85.194054 108.0
85.218552 444.0
85.263336 108.0
85.279816 256.0
85.286316 172.0
85.291512 116.0
85.321526 200.0
85.342926 136.0
85.363152 328.0
85.387062 148.0
85.425835 200.0
85.445404 212.0
85.460716 196.0
85.516548 328.0
85.53334 104.0
85.552666 164.0
85.565552 116.0
85.584839 148.0
85.617111 152.0
85.632904 236.0
85.645584 200.0
85.728981 136.0
85.760231 264.0
85.76506 160.0
85.827194 132.0
85.849319 156.0
85.855011 144.0
85.887337 196.0
85.914673 112.0
85.94574 488.0
85.963005 160.0
85.980309 180.0
86.007812 164.0
86.021027 188.0
86.041733 360.0
86.061531 144.0
86.082619 124.0
86.140945 276.0
86.153877 124.0
86.171532 176.0
86.200073 184.0
86.261131 104.0
86.286942 76.0
86.310982 364.0
86.325142 152.0
86.351669 64.0
86.369919 324.0
86.421097 232.0
86.454132 180.0
86.472855 64.0
86.485825 188.0
86.502205 112.0
86.515854 132.0
86.561333 176.0
86.583015 188.0
86.599686 132.0
86.614006 164.0
86.644989 132.0
86.669662 212.0
86.692528 144.0
86.708961 160.0
86.716125 156.0
86.723984 192.0
86.732101 172.0
86.735626 272.0
86.757195 208.0
86.801476 376.0
86.817383 252.0
86.848801 168.0
86.868118 64.0
86.874199 200.0
86.919655 156.0
86.938377 188.0
86.967018 176.0
87.01136 88.0
87.043892 76.0
87.061722 328.0
87.08564 228.0
87.103622 224.0
87.130226 212.0
87.151428 184.0
87.17482 192.0
87.197121 100.0
87.216621 132.0
87.246605 164.0
87.26973 356.0
87.291054 144.0
87.318985 200.0
87.334946 284.0
87.370056 200.0
87.400543 208.0
87.422157 116.0
87.440308 288.0
87.461243 144.0
87.474274 104.0
87.503258 152.0
87.541298 160.0
87.560951 312.0
87.577881 168.0
87.598999 184.0
87.636299 180.0
87.658661 84.0
87.673569 80.0
87.692543 220.0
87.714188 116.0
87.728325 156.0
87.743866 140.0
87.775932 132.0
87.797081 112.0
87.816742 184.0
87.850708 100.0
87.872452 92.0
87.886154 84.0
87.912811 224.0
87.940277 188.0
87.963608 152.0
87.971611 76.0
87.976448 212.0
87.992607 192.0
88.029648 124.0
88.050919 200.0
88.0905 364.0
88.124344 308.0
88.156921 108.0
88.192223 124.0
88.211121 132.0
88.260788 284.0
88.315834 232.0
88.330399 112.0
88.357819 208.0
88.363777 136.0
88.378845 156.0
88.398155 132.0
88.415001 172.0
88.437462 136.0
88.450562 136.0
88.463669 192.0
88.488663 160.0
88.518501 180.0
88.532265 240.0
88.569588 184.0
88.585388 212.0
88.607872 128.0
88.635727 180.0
88.65799 188.0
88.692955 180.0
88.711197 176.0
88.725945 284.0
88.752907 168.0
88.779648 212.0
88.804825 188.0
88.829086 84.0
88.857437 108.0
88.886894 188.0
88.905098 172.0
88.920761 140.0
88.941948 140.0
88.963821 196.0
89.038307 348.0
89.055672 124.0
89.073753 168.0
89.089119 280.0
89.112579 72.0
89.125725 104.0
89.149605 204.0
89.156685 144.0
89.181992 184.0
89.20919 204.0
89.225739 152.0
89.274231 84.0
89.294266 196.0
89.315956 216.0
89.322166 140.0
89.336624 352.0
89.353233 196.0
89.3666 184.0
89.384552 168.0
89.402161 128.0
89.417213 168.0
89.44558 176.0
89.481834 184.0
89.504723 156.0
89.518875 68.0
89.536407 104.0
89.578247 268.0
89.610069 136.0
89.623329 204.0
89.640091 116.0
89.672668 292.0
89.693756 132.0
89.711792 160.0
89.72538 268.0
89.732475 224.0
89.756989 180.0
89.778946 124.0
89.812546 108.0
89.838928 180.0
89.867287 48.0
89.870262 196.0
89.926102 104.0
89.944298 236.0
89.95845 136.0
89.983437 312.0
89.999725 336.0
90.023888 156.0
90.045471 668.0
90.08094 148.0
90.101723 124.0
90.125244 196.0
90.150131 308.0
90.197174 196.0
90.213226 136.0
90.236237 180.0
90.269379 80.0
90.280632 160.0
90.324799 156.0
90.36348 348.0
90.394592 292.0
90.416191 144.0
90.435715 136.0
90.479973 292.0
90.512161 148.0
90.530647 388.0
90.559509 312.0
90.594093 336.0
90.62149 240.0
90.639961 132.0
90.656136 56.0
90.686188 200.0
90.711098 156.0
90.733971 224.0
90.752808 264.0
90.778458 76.0
90.8078 268.0
90.830391 192.0
90.883026 196.0
90.911659 256.0
90.924957 112.0
90.930359 276.0
90.969818 104.0
90.98304 384.0
91.009232 168.0
91.029846 128.0
91.054642 1896.0
91.096268 124.0
91.114059 204.0
91.127464 184.0
91.142525 316.0
91.173218 188.0
91.201759 116.0
91.217949 156.0
91.235504 152.0
91.255661 124.0
91.259407 104.0
91.280685 52.0
91.318573 332.0
91.356804 380.0
91.38855 244.0
91.429077 156.0
91.442398 240.0
91.465149 168.0
91.484276 128.0
91.499504 136.0
91.52179 176.0
91.542198 236.0
91.560173 172.0
91.579575 260.0
91.624275 180.0
91.64045 152.0
91.656029 204.0
91.691895 168.0
91.705238 96.0
91.734077 188.0
91.749298 200.0
91.770088 164.0
91.812775 288.0
91.854904 368.0
91.861298 152.0
91.892586 144.0
91.914978 172.0
91.919418 144.0
91.952599 116.0
91.975197 212.0
91.999733 272.0
92.027008 368.0
92.058884 488.0
92.095207 176.0
92.14415 136.0
92.176628 148.0
92.203957 160.0
92.230141 172.0
92.244965 476.0
92.267036 224.0
92.284882 120.0
92.309662 156.0
92.322304 192.0
92.340172 140.0
92.358261 140.0
92.376274 96.0
92.40226 128.0
92.424713 136.0
92.431488 188.0
92.471916 84.0
92.509537 148.0
92.540062 108.0
92.559509 228.0
92.609901 368.0
92.650566 292.0
92.681046 300.0
92.708244 100.0
92.742439 340.0
92.755058 124.0
92.768051 264.0
92.786224 184.0
92.815163 192.0
92.83609 140.0
92.86573 136.0
92.9133 212.0
92.940666 132.0
92.956017 164.0
92.979576 244.0
93.014824 168.0
93.05471 248.0
93.072182 480.0
93.091454 116.0
93.099991 144.0
93.119766 184.0
93.144173 432.0
93.196861 160.0
93.230629 188.0
93.247925 176.0
93.286804 264.0
93.312202 64.0
93.341393 188.0
93.382469 172.0
93.42392 280.0
93.448685 232.0
93.476784 116.0
93.497726 168.0
93.514694 224.0
93.531418 176.0
93.556747 444.0
93.57753 176.0
93.586327 88.0
93.590805 176.0
93.615707 324.0
93.630798 96.0
93.644279 88.0
93.659683 132.0
93.6828 116.0
93.696289 332.0
93.709778 100.0
93.728271 200.0
93.763214 148.0
93.775032 380.0
93.790718 88.0
93.809319 160.0
93.830956 160.0
93.865906 88.0
93.90255 268.0
93.948845 80.0
93.965828 272.0
93.991722 144.0
94.022163 200.0
94.042557 536.0
94.064857 640.0
94.089058 324.0
94.124481 152.0
94.141098 152.0
94.1689 104.0
94.203667 96.0
94.224846 204.0
94.246513 328.0
94.279884 268.0
94.298958 188.0
94.325417 124.0
94.361122 228.0
94.391151 164.0
94.413315 216.0
94.426399 192.0
94.442245 200.0
94.468719 148.0
94.485924 80.0
94.509613 228.0
94.532028 136.0
94.539902 188.0
94.569855 204.0
94.603561 184.0
94.611511 144.0
94.630562 104.0
94.673981 268.0
94.710625 200.0
94.734024 224.0
94.78038 156.0
94.807404 188.0
94.822807 296.0
94.833878 152.0
94.866737 132.0
94.896698 140.0
94.922997 172.0
94.964401 148.0
94.977318 124.0
94.9935 172.0
95.009445 128.0
95.028419 364.0
95.047401 388.0
95.059761 236.0
95.085808 624.0
95.108032 180.0
95.133224 96.0
95.160042 108.0
95.176781 156.0
95.21656 196.0
95.220894 348.0
95.237823 152.0
95.251678 248.0
95.274994 156.0
95.301453 220.0
95.329918 208.0
95.346817 216.0
95.391594 160.0
95.430473 176.0
95.435066 188.0
95.454483 176.0
95.486015 180.0
95.521881 132.0
95.543999 180.0
95.556519 160.0
95.576767 268.0
95.589722 184.0
95.605324 196.0
95.633469 184.0
95.6408 176.0
95.662201 148.0
95.69072 180.0
95.709145 148.0
95.723419 180.0
95.751846 228.0
95.77005 152.0
95.809662 224.0
95.870407 144.0
95.891937 164.0
95.91008 368.0
95.954575 200.0
96.000832 176.0
96.034172 68.0
96.056122 156.0
96.081474 1308.0
96.117821 220.0
96.125633 228.0
96.130959 132.0
96.149292 128.0
96.176613 196.0
96.192276 184.0
96.222763 300.0
96.252556 176.0
96.266731 180.0
96.285957 292.0
96.309395 92.0
96.32502 32.0
96.373062 156.0
96.407951 140.0
96.438911 168.0
96.457497 116.0
96.473679 172.0
96.494926 136.0
96.522034 256.0
96.550789 124.0
96.587364 168.0
96.622169 100.0
96.641373 152.0
96.644806 176.0
96.648277 128.0
96.676102 220.0
96.695869 440.0
96.727852 136.0
96.743507 196.0
96.768013 292.0
96.787506 140.0
96.802948 172.0
96.826706 84.0
96.842438 176.0
96.882553 116.0
96.905777 136.0
96.947586 148.0
96.979553 216.0
97.00602 156.0
97.031898 172.0
97.078903 152.0
97.116158 284.0
97.14431 200.0
97.163223 100.0
97.191452 92.0
97.21196 148.0
97.224846 176.0
97.241402 112.0
97.265701 308.0
97.298325 164.0
97.33149 144.0
97.338089 128.0
97.342468 176.0
97.356171 96.0
97.397232 252.0
97.408722 224.0
97.443665 148.0
97.461349 108.0
97.483345 204.0
97.506065 300.0
97.54464 164.0
97.580559 248.0
97.608772 144.0
97.624504 164.0
97.649628 160.0
97.719818 164.0
97.737549 168.0
97.748222 108.0
97.766151 152.0
97.789505 244.0
97.804314 72.0
97.830711 240.0
97.861382 308.0
97.875343 164.0
97.893478 100.0
97.906609 104.0
97.915016 104.0
97.922432 168.0
97.943352 152.0
97.959801 204.0
97.991066 324.0
98.005386 204.0
98.032166 408.0
98.053688 76.0
98.074455 216.0
98.088737 92.0
98.094536 72.0
98.120712 200.0
98.143539 404.0
98.159531 268.0
98.178635 128.0
98.207481 192.0
98.242508 132.0
98.259865 160.0
98.27343 148.0
98.29895 380.0
98.329803 144.0
98.371948 92.0
98.394951 164.0
98.41864 308.0
98.436317 84.0
98.439774 80.0
98.454475 164.0
98.475914 136.0
98.496635 132.0
98.513756 212.0
98.538239 196.0
98.562355 180.0
98.568359 136.0
98.575684 152.0
98.596489 140.0
98.632713 168.0
98.673523 160.0
98.702286 168.0
98.734825 140.0
98.750069 164.0
98.772789 144.0
98.782295 152.0
98.799614 360.0
98.817909 108.0
98.832954 160.0
98.852844 140.0
98.8909 128.0
98.913414 224.0
98.942238 132.0
98.972961 128.0
98.988136 164.0
99.009918 188.0
99.051102 172.0
99.080551 164.0
99.112434 288.0
99.146072 160.0
99.158218 108.0
99.189926 160.0
99.23217 176.0
99.262466 268.0
99.278374 160.0
99.336967 200.0
99.368713 172.0
99.387535 192.0
99.402191 168.0
99.415771 212.0
99.43483 176.0
99.465584 108.0
99.510452 152.0
99.529488 136.0
99.546432 172.0
99.567078 112.0
99.617668 264.0
99.649101 148.0
99.67733 308.0
99.730225 92.0
99.746735 276.0
99.783417 160.0
99.806427 236.0
99.821594 132.0
99.843819 184.0
99.881081 192.0
99.912132 148.0
99.939758 168.0
99.972778 168.0
100.009026 152.0
100.024124 152.0
100.049667 320.0
100.065903 200.0
100.079079 300.0
100.121994 192.0
100.13855 152.0
100.190765 84.0
100.207573 272.0
100.262009 176.0
100.291451 148.0
100.30426 144.0
100.329056 60.0
100.358727 176.0
100.380409 132.0
100.413689 168.0
100.429237 156.0
100.437012 80.0
100.446266 156.0
100.474915 160.0
100.515045 212.0
100.542618 112.0
100.557053 124.0
100.57917 164.0
100.600555 184.0
100.617889 156.0
100.62291 184.0
100.644569 220.0
100.667831 316.0
100.698578 172.0
100.7257 340.0
100.733505 276.0
100.743057 160.0
100.749748 260.0
100.764053 136.0
100.784386 152.0
100.819046 260.0
100.85025 212.0
100.882324 144.0
100.904312 112.0
100.922241 204.0
100.947647 276.0
100.984299 172.0
101.017899 236.0
101.039673 304.0
101.067215 36.0
101.080971 224.0
101.106133 152.0
101.129074 124.0
101.151482 328.0
101.16375 112.0
101.209389 152.0
101.217636 196.0
101.227127 72.0
101.232979 220.0
101.250206 252.0
101.273895 152.0
101.295876 164.0
101.316177 192.0
101.337494 176.0
101.353043 184.0
101.381836 172.0
101.401428 376.0
101.422012 184.0
101.443085 172.0
101.457779 324.0
101.493393 192.0
101.521667 236.0
101.537094 164.0
101.554901 132.0
101.568657 92.0
101.61454 164.0
101.688667 256.0
101.703056 212.0
101.730087 176.0
101.75425 240.0
101.785934 192.0
101.814049 132.0
101.851692 148.0
101.881073 196.0
101.898422 132.0
101.937546 144.0
101.964844 212.0
101.987244 140.0
102.01297 104.0
102.046089 760.0
102.074402 184.0
102.097229 156.0
102.110611 316.0
102.124969 172.0
102.163803 188.0
102.182755 256.0
102.200012 56.0
102.217422 160.0
102.274223 180.0
102.306686 136.0
102.342216 192.0
102.401299 264.0
102.425262 164.0
102.438766 184.0
102.450562 284.0
102.46759 160.0
102.495483 196.0
102.520599 160.0
102.535881 140.0
102.550934 160.0
102.585304 292.0
102.612968 176.0
102.658752 148.0
102.67543 144.0
102.696732 264.0
102.711739 148.0
102.729889 124.0
102.748047 180.0
102.798492 180.0
102.848236 140.0
102.886383 132.0
102.930779 252.0
102.971664 160.0
102.989342 220.0
103.007172 192.0
103.054749 15460.0
103.128517 88.0
103.134842 80.0
103.142227 156.0
103.164513 176.0
103.194038 88.0
103.203758 192.0
103.230164 236.0
103.25605 200.0
103.270317 112.0
103.293549 228.0
103.309685 348.0
103.335777 240.0
103.366287 168.0
103.37204 240.0
103.378998 124.0
103.389908 148.0
103.411957 180.0
103.443138 144.0
103.460541 244.0
103.487061 176.0
103.523544 188.0
103.531898 92.0
103.538208 40.0
103.566376 228.0
103.596519 124.0
103.63002 180.0
103.679756 248.0
103.7005 120.0
103.736893 176.0
103.765648 144.0
103.802307 276.0
103.830933 196.0
103.85936 144.0
103.882164 168.0
103.926949 216.0
103.957993 300.0
104.003365 196.0
104.061935 4152.0
104.10878 168.0
104.123589 128.0
104.141808 112.0
104.182121 300.0
104.213921 188.0
104.234985 164.0
104.24968 168.0
104.269691 180.0
104.327599 172.0
104.332466 160.0
104.368401 100.0
104.387581 120.0
104.393555 152.0
104.419289 140.0
104.439796 152.0
104.487137 312.0
104.518669 160.0
104.546295 384.0
104.5672 196.0
104.588531 300.0
104.612 344.0
104.628777 148.0
104.64859 268.0
104.683395 136.0
104.699707 256.0
104.718437 300.0
104.753334 148.0
104.778809 220.0
104.803032 152.0
104.827354 136.0
104.842712 192.0
104.865372 168.0
104.889099 148.0
104.905312 364.0
104.920105 120.0
104.947243 184.0
104.965317 140.0
104.983383 164.0
105.003395 160.0
105.03257 476.0
105.070381 37224.0
105.119102 96.0
105.143311 92.0
105.16674 92.0
105.180679 200.0
105.191986 168.0
105.21376 208.0
105.267097 152.0
105.28212 52.0
105.291412 184.0
105.296295 124.0
105.334015 228.0
105.359932 232.0
105.379173 192.0
105.384346 112.0
105.430664 212.0
105.460518 148.0
105.495155 168.0
105.525848 176.0
105.56633 308.0
105.588974 188.0
105.614487 124.0
105.621628 152.0
105.62896 260.0
105.635262 256.0
105.655495 88.0
105.691544 332.0
105.750839 156.0
105.778732 120.0
105.796394 144.0
105.83522 224.0
105.868332 140.0
105.896805 292.0
105.902039 196.0
105.937775 192.0
105.96505 148.0
105.974739 156.0
106.010605 140.0
106.048546 256.0
106.073677 3596.0
106.12397 292.0
106.141472 164.0
106.18087 144.0
106.205513 216.0
106.249229 112.0
106.257736 196.0
106.296722 396.0
106.320801 164.0
106.36512 184.0
106.382927 156.0
106.399353 160.0
106.430153 204.0
106.449692 124.0
106.471222 164.0
106.487335 272.0
106.526199 292.0
106.555443 64.0
106.586365 160.0
106.617088 404.0
106.651093 168.0
106.678459 132.0
106.715759 124.0
106.750717 60.0
106.781563 164.0
106.80545 124.0
106.837105 304.0
106.857674 116.0
106.873558 100.0
106.888672 380.0
106.923935 232.0
106.942787 180.0
106.96212 256.0
106.987717 424.0
107.001747 172.0
107.028404 320.0
107.049713 11288.0
107.081322 572.0
107.099236 328.0
107.127258 152.0
107.157051 128.0
107.176292 120.0
107.19413 120.0
107.240974 168.0
107.267601 304.0
107.321106 164.0
107.342979 148.0
107.356361 188.0
107.380302 244.0
107.397141 128.0
107.40979 188.0
107.431908 340.0
107.463425 64.0
107.487289 92.0
107.494987 108.0
107.533875 144.0
107.550995 324.0
107.604233 164.0
107.640579 188.0
107.67807 172.0
107.709587 184.0
107.73777 144.0
107.751144 308.0
107.777489 160.0
107.798401 144.0
107.828819 236.0
107.834106 192.0
107.841576 108.0
107.867012 124.0
107.893021 68.0
107.918274 324.0
107.932304 328.0
107.945686 288.0
107.981331 424.0
108.005165 184.0
108.055626 1924.0
108.081787 728.0
108.128838 120.0
108.155746 168.0
108.205429 156.0
108.232315 196.0
108.274323 128.0
108.297417 184.0
108.313118 148.0
108.346985 292.0
108.377342 176.0
108.3993 284.0
108.413055 152.0
108.442459 168.0
108.459305 168.0
108.470833 176.0
108.484993 196.0
108.509911 108.0
108.523163 136.0
108.543625 180.0
108.570374 148.0
108.588791 192.0
108.594727 144.0
108.602364 316.0
108.616982 244.0
108.632347 172.0
108.648064 188.0
108.669365 200.0
108.689323 200.0
108.722054 292.0
108.739082 156.0
108.757004 168.0
108.775536 180.0
108.793152 140.0
108.812683 252.0
108.833939 156.0
108.869682 152.0
108.886467 244.0
108.892532 104.0
108.902718 176.0
108.924217 216.0
108.954491 244.0
108.980164 128.0
109.019165 352.0
109.065269 1440.0
109.099068 92.0
109.101898 400.0
109.121788 396.0
109.166084 164.0
109.207741 196.0
109.255539 176.0
109.311768 240.0
109.332581 112.0
109.350533 236.0
109.377213 184.0
109.41291 216.0
109.460403 188.0
109.482254 152.0
109.487312 136.0
109.494545 196.0
109.51503 184.0
109.533295 180.0
109.553497 160.0
109.575371 248.0
109.62413 140.0
109.638725 148.0
109.657478 184.0
109.674156 148.0
109.697083 104.0
109.719498 128.0
109.738647 184.0
109.766838 132.0
109.786667 232.0
109.818878 64.0
109.874496 152.0
109.903557 124.0
109.926514 388.0
109.952332 324.0
109.988716 184.0
109.993874 172.0
110.012909 152.0
110.037941 184.0
110.057083 80.0
110.078903 196.0
110.096252 1240.0
110.120193 140.0
110.181885 224.0
110.214363 152.0
110.242996 152.0
110.259956 144.0
110.287827 204.0
110.320152 164.0
110.348709 312.0
110.365181 296.0
110.401855 56.0
110.427917 124.0
110.453644 196.0
110.485664 304.0
110.510689 176.0
110.532516 176.0
110.552841 348.0
110.589027 172.0
110.614059 192.0
110.620743 132.0
110.661232 196.0
110.686638 352.0
110.704178 144.0
110.724655 72.0
110.731773 232.0
110.740479 192.0
110.764534 156.0
110.783768 140.0
110.808907 156.0
110.837624 108.0
110.882248 168.0
110.919983 128.0
110.942741 196.0
110.982872 156.0
111.003471 112.0
111.024818 160.0
111.044418 276.0
111.073418 184.0
111.098228 308.0
111.121407 132.0
111.137482 240.0
111.169884 160.0
111.209076 160.0
111.232399 120.0
111.2677 208.0
111.273552 156.0
111.292603 200.0
111.341537 124.0
111.379524 136.0
111.409592 204.0
111.441689 144.0
111.486679 112.0
111.5252 228.0
111.548126 188.0
111.581268 252.0
111.629303 180.0
111.671692 124.0
111.687874 208.0
111.715179 132.0
111.735077 264.0
111.753914 208.0
111.788673 176.0
111.812546 228.0
111.83371 108.0
111.853317 176.0
111.894501 132.0
111.897369 116.0
111.920074 164.0
111.966545 176.0
112.013695 248.0
112.036873 184.0
112.052719 76.0
112.069237 228.0
112.087334 168.0
112.102585 132.0
112.137672 300.0
112.154709 164.0
112.180954 160.0
112.207291 132.0
112.221329 224.0
112.23925 144.0
112.26561 176.0
112.288811 116.0
112.314789 164.0
112.339439 64.0
112.400383 160.0
112.419067 144.0
112.429947 168.0
112.447052 136.0
112.472382 104.0
112.487152 232.0
112.50531 120.0
112.530586 112.0
112.543777 176.0
112.602364 192.0
112.619438 124.0
112.643425 36.0
112.660324 108.0
112.713142 120.0
112.741074 220.0
112.781647 348.0
112.812119 164.0
112.857582 148.0
112.887901 192.0
112.920349 156.0
112.940262 84.0
112.996307 100.0
113.002983 104.0
113.021286 104.0
113.053284 184.0
113.072655 148.0
113.086441 152.0
113.110283 180.0
113.131508 164.0
113.15509 144.0
113.16256 136.0
113.199677 128.0
113.222694 164.0
113.247124 188.0
113.269569 136.0
113.296539 192.0
113.330589 120.0
113.344406 124.0
113.380722 96.0
113.387321 232.0
113.412376 172.0
113.429161 280.0
113.454422 172.0
113.483452 152.0
113.489182 148.0
113.544426 160.0
113.570503 132.0
113.586967 156.0
113.606628 116.0
113.63549 292.0
113.694183 152.0
113.718163 228.0
113.752991 120.0
113.756134 116.0
113.764366 172.0
113.794159 156.0
113.809082 372.0
113.822456 188.0
113.832436 124.0
113.867409 164.0
113.870232 348.0
113.919701 144.0
113.957306 140.0
113.97184 156.0
113.988815 148.0
114.020691 400.0
114.048485 156.0
114.11895 144.0
114.135925 328.0
114.155136 116.0
114.170776 256.0
114.195297 108.0
114.21843 148.0
114.233673 144.0
114.252441 308.0
114.296181 132.0
114.324921 76.0
114.341835 160.0
114.365517 256.0
114.403961 388.0
114.433197 176.0
114.449509 104.0
114.488945 248.0
114.515358 136.0
114.532013 128.0
114.552635 108.0
114.584641 176.0
114.605896 92.0
114.625076 248.0
114.664833 156.0
114.712463 124.0
114.729042 216.0
114.750412 60.0
114.778557 160.0
114.808617 176.0
114.826622 156.0
114.874001 336.0
114.917198 132.0
114.932846 96.0
114.958923 196.0
115.024193 152.0
115.03093 124.0
115.05423 1004.0
115.082619 176.0
115.108101 148.0
115.143478 100.0
115.177086 144.0
115.211296 280.0
115.228607 244.0
115.246017 84.0
115.28096 204.0
115.288254 204.0
115.322571 200.0
115.348602 156.0
115.363823 168.0
115.392319 212.0
115.451233 244.0
115.465614 148.0
115.485451 288.0
115.513657 196.0
115.563622 156.0
115.598785 144.0
115.626862 88.0
115.667007 292.0
115.69944 152.0
115.72007 352.0
115.723816 136.0
115.752975 168.0
115.781929 176.0
115.826675 184.0
115.842545 184.0
115.86412 148.0
115.892204 296.0
115.908264 308.0
115.960304 144.0
115.986961 180.0
116.005287 168.0
116.025139 180.0
116.064537 220.0
116.080841 116.0
116.110306 132.0
116.127747 188.0
116.145378 168.0
116.198814 108.0
116.215973 268.0
116.230515 232.0
116.247688 344.0
116.26786 200.0
116.301941 276.0
116.321136 132.0
116.349854 128.0
116.369698 168.0
116.4021 124.0
116.426476 136.0
116.457031 112.0
116.461372 168.0
116.502289 180.0
116.535034 188.0
116.560951 176.0
116.591774 144.0
116.608391 160.0
116.643356 160.0
116.662704 64.0
116.741554 224.0
116.756241 120.0
116.780975 240.0
116.834755 188.0
116.886391 116.0
116.9198 152.0
116.946434 252.0
116.956474 92.0
116.966873 212.0
116.975761 176.0
116.983177 128.0
117.014343 180.0
117.032417 124.0
117.07032 800.0
117.092232 156.0
117.118904 140.0
117.178268 144.0
117.227913 164.0
117.248184 152.0
117.279793 48.0
117.321693 152.0
117.358124 220.0
117.383995 60.0
117.403404 200.0
117.424767 124.0
117.473259 124.0
117.497055 244.0
117.517494 108.0
117.52285 172.0
117.560799 184.0
117.59758 156.0
117.616249 332.0
117.659401 188.0
117.68177 108.0
117.697464 232.0
117.719818 136.0
117.79599 140.0
117.826477 164.0
117.859451 108.0
117.912918 180.0
117.936844 180.0
117.968033 240.0
117.987114 148.0
118.002045 172.0
118.041412 9536.0
118.093071 148.0
118.122803 236.0
118.151527 304.0
118.169594 120.0
118.192558 116.0
118.218315 168.0
118.233772 360.0
118.260384 172.0
118.283829 124.0
118.298431 184.0
118.317421 292.0
118.33551 196.0
118.361862 232.0
118.387436 192.0
118.404037 140.0
118.432259 132.0
118.462517 132.0
118.513947 268.0
118.551353 132.0
118.572327 184.0
118.588203 176.0
118.618546 132.0
118.647896 156.0
118.668411 152.0
118.690094 172.0
118.707443 64.0
118.722618 180.0
118.741898 196.0
118.761299 96.0
118.798912 284.0
118.815262 124.0
118.854378 288.0
118.869293 172.0
118.891319 200.0
118.914627 168.0
118.932106 116.0
118.961914 168.0
118.989166 112.0
119.049034 7644.0
119.082726 100.0
119.104012 116.0
119.12291 332.0
119.139374 148.0
119.159302 208.0
119.176636 188.0
119.202217 176.0
119.231339 184.0
119.286446 160.0
119.31321 212.0
119.36129 120.0
119.388718 184.0
119.416405 252.0
119.456772 128.0
119.497574 204.0
119.524216 160.0
119.549225 228.0
119.578682 140.0
119.600052 232.0
119.606918 332.0
119.646782 180.0
119.679214 192.0
119.707069 148.0
119.742653 164.0
119.782112 264.0
119.789909 192.0
119.812714 284.0
119.83577 188.0
119.861259 148.0
119.883194 136.0
119.888977 176.0
119.898323 96.0
119.903809 156.0
119.91713 200.0
119.932053 232.0
119.948914 104.0
119.983795 172.0
120.027229 196.0
120.057037 9472.0
120.113144 148.0
120.139816 148.0
120.144012 120.0
120.162636 140.0
120.176865 216.0
120.194107 292.0
120.214661 116.0
120.228897 152.0
120.258652 200.0
120.27816 156.0
120.326324 172.0
120.350388 176.0
120.374954 148.0
120.421852 160.0
120.440727 248.0
120.465279 96.0
120.471451 160.0
120.495117 152.0
120.51416 112.0
120.565598 104.0
120.58535 160.0
120.615997 160.0
120.668282 328.0
120.684013 164.0
120.706512 184.0
120.74369 152.0
120.759003 200.0
120.779312 112.0
120.820938 132.0
120.846504 84.0
120.875076 148.0
120.890274 164.0
120.912155 168.0
120.93251 200.0
120.952553 148.0
120.974884 148.0
120.996033 152.0
121.029106 448.0
121.064819 16780.0
121.1101 168.0
121.145409 76.0
121.162613 176.0
121.177742 192.0
121.206276 196.0
121.235191 128.0
121.241264 176.0
121.266655 312.0
121.285667 184.0
121.307961 240.0
121.328346 192.0
121.353172 136.0
121.3713 228.0
121.40834 108.0
121.433151 292.0
121.459221 244.0
121.481865 124.0
121.506424 204.0
121.566483 220.0
121.590858 196.0
121.640488 268.0
121.667397 184.0
121.681313 168.0
121.696449 148.0
121.722855 200.0
121.73114 160.0
121.737518 164.0
121.788033 176.0
121.801353 148.0
121.823441 224.0
121.864609 180.0
121.913429 152.0
121.94915 140.0
121.989342 168.0
122.002678 184.0
122.03524 612.0
122.071815 6208.0
122.096069 4984.0
122.120956 144.0
122.144127 176.0
122.163742 264.0
122.189278 124.0
122.211273 164.0
122.250259 112.0
122.266006 140.0
122.291641 108.0
122.319717 220.0
122.362144 176.0
122.412689 316.0
122.430618 132.0
122.470337 160.0
122.521065 148.0
122.572395 348.0
122.591011 128.0
122.609779 112.0
122.647812 164.0
122.680397 132.0
122.702438 208.0
122.724312 180.0
122.761978 80.0
122.833038 172.0
122.852852 180.0
122.877747 248.0
122.908142 168.0
122.922279 168.0
122.942879 112.0
122.969887 240.0
122.987015 64.0
123.015465 208.0
123.041779 652.0
123.079872 1716.0
123.098518 904.0
123.135666 284.0
123.170288 152.0
123.193001 172.0
123.210754 104.0
123.238274 212.0
123.246971 164.0
123.286659 164.0
123.304337 264.0
123.32843 120.0
123.336014 176.0
123.36602 84.0
123.394684 156.0
123.4002 232.0
123.4543 48.0
123.516098 236.0
123.562363 340.0
123.585876 212.0
123.599777 356.0
123.627563 124.0
123.676659 80.0
123.70472 280.0
123.726006 136.0
123.762138 196.0
123.777611 140.0
123.812439 172.0
123.821838 56.0
123.830811 148.0
123.854568 136.0
123.902313 160.0
123.931335 396.0
123.948959 388.0
123.977463 172.0
124.00853 168.0
124.031586 120.0
124.052078 524.0
124.082954 400.0
124.10331 136.0
124.155228 148.0
124.173347 208.0
124.19072 100.0
124.210678 92.0
124.244202 144.0
124.263412 140.0
124.295845 164.0
124.327133 268.0
124.372047 192.0
124.40152 72.0
124.429314 52.0
124.474792 164.0
124.523651 160.0
124.547501 168.0
124.565849 132.0
124.610901 332.0
124.644073 232.0
124.661972 292.0
124.681656 204.0
124.741409 60.0
124.77594 120.0
124.798553 216.0
124.828117 120.0
124.881493 144.0
124.91552 148.0
124.941551 160.0
124.962952 136.0
125.003502 252.0
125.025368 312.0
125.059006 852.0
125.085106 440.0
125.121002 188.0
125.165497 172.0
125.183105 104.0
125.213844 156.0
125.244308 312.0
125.272392 124.0
125.297768 152.0
125.315598 48.0
125.346336 148.0
125.373039 240.0
125.398666 172.0
125.424484 144.0
125.43364 124.0
125.437126 264.0
125.459351 360.0
125.502823 188.0
125.549576 144.0
125.585457 156.0
125.607643 60.0
125.6623 168.0
125.765663 152.0
125.796997 168.0
125.816475 232.0
125.871086 212.0
125.916733 300.0
125.961845 232.0
126.005241 120.0
126.028069 140.0
126.060715 324.0
126.100388 148.0
126.123459 128.0
126.155609 168.0
126.17672 160.0
126.199471 76.0
126.230171 236.0
126.238564 172.0
126.245064 216.0
126.289513 184.0
126.306625 252.0
126.344849 72.0
126.363091 132.0
126.389595 136.0
126.419838 156.0
126.450104 112.0
126.468575 332.0
126.485329 160.0
126.51223 228.0
126.539566 52.0
126.561951 176.0
126.594589 188.0
126.619492 400.0
126.634506 192.0
126.664978 44.0
126.691399 176.0
126.705872 172.0
126.739838 116.0
126.758011 128.0
126.774765 80.0
126.793808 108.0
126.80954 188.0
126.826309 128.0
126.848724 168.0
126.883286 312.0
126.933395 152.0
126.965157 164.0
127.034164 224.0
127.044876 120.0
127.055328 160.0
127.075241 156.0
127.095428 176.0
127.151535 156.0
127.168488 152.0
127.202782 72.0
127.223869 196.0
127.298447 292.0
127.34462 140.0
127.3871 208.0
127.418755 96.0
127.447037 320.0
127.465645 132.0
127.505959 356.0
127.5476 292.0
127.57959 136.0
127.597137 140.0
127.65477 124.0
127.698639 140.0
127.77478 56.0
127.810883 144.0
127.82737 192.0
127.845703 128.0
127.870743 140.0
127.904327 200.0
127.931519 104.0
127.967537 192.0
128.008484 176.0
128.062393 156.0
128.081146 144.0
128.124786 188.0
128.15509 280.0
128.20285 112.0
128.225906 144.0
128.245193 240.0
128.259155 108.0
128.298782 180.0
128.314575 152.0
128.345291 160.0
128.375397 380.0
128.395523 164.0
128.403152 208.0
128.42952 68.0
128.460358 244.0
128.464127 164.0
128.474976 136.0
128.481995 184.0
128.516281 132.0
128.574814 424.0
128.621887 188.0
128.659698 172.0
128.676743 168.0
128.698074 204.0
128.737885 128.0
128.792938 196.0
128.807861 168.0
128.846558 188.0
128.874039 200.0
128.905899 204.0
128.926239 136.0
128.94722 184.0
128.993195 228.0
129.033325 148.0
129.049393 200.0
129.070328 308.0
129.119492 160.0
129.137634 176.0
129.186127 204.0
129.206619 148.0
129.244034 148.0
129.281296 64.0
129.306656 196.0
129.343567 336.0
129.387756 260.0
129.437729 152.0
129.504211 156.0
129.539597 144.0
129.600586 156.0
129.621918 380.0
129.684433 156.0
129.707108 192.0
129.740738 232.0
129.764328 156.0
129.797791 128.0
129.827271 128.0
129.8461 200.0
129.902115 120.0
129.920273 188.0
129.949402 152.0
129.970779 136.0
130.015808 328.0
130.063416 236.0
130.106873 184.0
130.127792 156.0
130.151428 128.0
130.161057 192.0
130.199081 236.0
130.228989 140.0
130.244888 136.0
130.278183 116.0
130.330826 184.0
130.35582 136.0
130.371872 184.0
130.382721 144.0
130.394318 280.0
130.401672 248.0
130.406479 280.0
130.423737 124.0
130.428116 88.0
130.437927 180.0
130.501694 412.0
130.518753 264.0
130.558548 112.0
130.596329 164.0
130.63562 144.0
130.662003 240.0
130.680084 140.0
130.745895 148.0
130.778137 156.0
130.79744 536.0
130.821259 288.0
130.841522 144.0
130.851135 184.0
130.890793 160.0
130.922287 196.0
130.9543 236.0
130.96196 196.0
130.97084 260.0
130.989868 112.0
130.99881 56.0
131.023071 332.0
131.048782 3332.0
131.081818 352.0
131.096741 148.0
131.100937 112.0
131.144104 128.0
131.177856 164.0
131.211349 180.0
131.244934 164.0
131.273621 156.0
131.298706 76.0
131.316956 160.0
131.331787 152.0
131.380829 324.0
131.404938 180.0
131.414993 152.0
131.422867 196.0
131.451828 204.0
131.497208 164.0
131.551987 84.0
131.570251 124.0
131.592453 160.0
131.608978 316.0
131.652451 112.0
131.672623 96.0
131.681793 80.0
131.696014 124.0
131.750412 144.0
131.805511 160.0
131.839325 160.0
131.86525 228.0
131.903091 132.0
131.928421 200.0
131.969238 140.0
132.009842 92.0
132.056427 2184.0
132.106827 228.0
132.12561 224.0
132.161957 316.0
132.209122 80.0
132.231369 136.0
132.26062 132.0
132.332626 344.0
132.349915 224.0
132.377502 172.0
132.40593 136.0
132.427139 172.0
132.436249 180.0
132.453781 208.0
132.476349 176.0
132.500916 232.0
132.54097 340.0
132.571655 140.0
132.606491 224.0
132.644028 308.0
132.660645 192.0
132.691299 224.0
132.715729 160.0
132.742722 200.0
132.773117 208.0
132.797226 104.0
132.82431 136.0
132.849548 192.0
132.865616 160.0
132.910019 136.0
132.920288 336.0
132.952316 284.0
132.969971 176.0
132.982071 140.0
133.027603 1592.0
133.065414 53840.0
133.112564 232.0
133.137344 104.0
133.154236 96.0
133.201233 184.0
133.22316 108.0
133.22998 228.0
133.252609 136.0
133.273941 184.0
133.278549 108.0
133.298355 220.0
133.333069 256.0
133.367157 176.0
133.373764 72.0
133.392807 124.0
133.414032 176.0
133.451355 188.0
133.485779 56.0
133.509201 188.0
133.540909 148.0
133.548538 208.0
133.570984 308.0
133.600784 100.0
133.632309 144.0
133.660599 176.0
133.692123 80.0
133.708099 156.0
133.73732 176.0
133.754196 108.0
133.787674 208.0
133.823639 280.0
133.873276 280.0
133.900665 164.0
133.942978 184.0
133.950073 120.0
133.958328 152.0
133.98204 184.0
134.037369 276.0
134.07254 56620.0
134.13826 296.0
134.166946 100.0
134.192413 196.0
134.222351 144.0
134.249023 92.0
134.293076 176.0
134.310852 240.0
134.330368 80.0
134.350388 84.0
134.37709 108.0
134.394989 176.0
134.429749 320.0
134.46991 572.0
134.498672 188.0
134.530869 96.0
134.550293 228.0
134.589188 332.0
134.605103 188.0
134.627991 136.0
134.633423 160.0
134.656036 128.0
134.670578 176.0
134.703537 112.0
134.720993 140.0
134.727478 128.0
134.751663 296.0
134.780823 104.0
134.800339 192.0
134.851425 112.0
134.87738 116.0
134.896561 200.0
134.9048 152.0
134.913315 212.0
134.934219 448.0
134.956833 544.0
134.980515 252.0
135.007568 76.0
135.044266 40048.0
135.080185 26372.0
135.12886 72.0
135.140305 160.0
135.172531 156.0
135.194672 112.0
135.22673 56.0
135.256332 316.0
135.301895 128.0
135.307541 164.0
135.320099 100.0
135.328568 260.0
135.359207 284.0
135.395508 168.0
135.440857 276.0
135.458496 204.0
135.469193 120.0
135.512268 248.0
135.553619 304.0
135.586594 188.0
135.623428 312.0
135.642014 96.0
135.650208 132.0
135.682953 184.0
135.733719 248.0
135.758835 144.0
135.782974 164.0
135.812653 64.0
135.831528 264.0
135.850647 344.0
135.870804 260.0
135.926712 108.0
135.94751 128.0
135.983002 108.0
135.998138 156.0
136.048004 4816.0
136.084473 3252.0
136.11026 676.0
136.143082 124.0
136.151886 104.0
136.158157 112.0
136.181183 156.0
136.21048 104.0
136.215347 212.0
136.226822 208.0
136.230072 176.0
136.260406 208.0
136.289474 180.0
136.312668 92.0
136.353241 124.0
136.373398 124.0
136.408051 128.0
136.449966 204.0
136.481842 140.0
136.50824 120.0
136.570541 132.0
136.576614 164.0
136.59288 216.0
136.637344 284.0
136.668747 80.0
136.688904 72.0
136.713669 312.0
136.741714 168.0
136.769501 156.0
136.79747 272.0
136.81778 220.0
136.841537 228.0
136.866241 160.0
136.907852 172.0
136.952972 232.0
136.992203 124.0
137.008667 216.0
137.058853 4376.0
137.096252 2552.0
137.12117 192.0
137.156189 92.0
137.182388 228.0
137.192551 124.0
137.198441 216.0
137.232544 72.0
137.260818 200.0
137.283722 88.0
137.312698 168.0
137.317368 112.0
137.341187 112.0
137.375702 92.0
137.380219 128.0
137.423676 168.0
137.466019 284.0
137.531021 104.0
137.552979 148.0
137.590988 152.0
137.631042 124.0
137.650696 176.0
137.684906 188.0
137.733459 144.0
137.817505 168.0
137.831406 188.0
137.850998 268.0
137.867355 136.0
137.908966 184.0
137.92244 344.0
137.939804 236.0
137.9702 176.0
137.994278 252.0
138.036102 128.0
138.066803 2220.0
138.096405 468.0
138.127914 244.0
138.163101 216.0
138.172501 112.0
138.181137 164.0
138.227356 148.0
138.23526 212.0
138.240967 116.0
138.2742 116.0
138.281708 264.0
138.304718 164.0
138.323517 128.0
138.35498 144.0
138.37851 208.0
138.421783 244.0
138.473297 148.0
138.507492 220.0
138.531113 136.0
138.571518 148.0
138.591812 144.0
138.618149 128.0
138.653763 188.0
138.668503 228.0
138.684982 176.0
138.709961 148.0
138.747971 268.0
138.774399 304.0
138.799057 140.0
138.81488 112.0
138.830688 172.0
138.872314 152.0
138.928101 204.0
138.949173 156.0
138.972626 152.0
138.998016 184.0
139.036774 692.0
139.073669 1504.0
139.10556 164.0
139.115143 200.0
139.125381 232.0
139.1548 188.0
139.176834 92.0
139.197968 100.0
139.23085 172.0
139.251984 104.0
139.27951 212.0
139.322464 200.0
139.343597 72.0
139.374146 164.0
139.389954 148.0
139.397385 108.0
139.407043 136.0
139.426331 136.0
139.477554 140.0
139.510468 160.0
139.620346 104.0
139.656189 124.0
139.699265 172.0
139.738602 144.0
139.773697 144.0
139.815247 160.0
139.842575 128.0
139.880844 72.0
139.895966 240.0
139.917465 140.0
139.950424 148.0
139.994354 220.0
140.047592 344.0
140.077774 432.0
140.09906 336.0
140.15535 100.0
140.17421 136.0
140.199036 156.0
140.220459 236.0
140.25058 180.0
140.28804 188.0
140.320343 56.0
140.363861 184.0
140.395798 136.0
140.425003 148.0
140.452408 136.0
140.471283 168.0
140.491913 188.0
140.542252 148.0
140.547424 176.0
140.569366 164.0
140.593246 284.0
140.631561 52.0
140.662308 144.0
140.69075 176.0
140.714355 120.0
140.792282 188.0
140.817383 64.0
140.833786 168.0
140.853699 148.0
140.903488 140.0
140.934784 148.0
140.995056 156.0
141.0513 64.0
141.08371 168.0
141.115707 216.0
141.196915 192.0
141.218185 156.0
141.22908 148.0
141.259186 88.0
141.278107 224.0
141.285355 120.0
141.291794 176.0
141.323715 148.0
141.385696 136.0
141.445938 176.0
141.462463 160.0
141.492203 40.0
141.52742 216.0
141.579269 136.0
141.617157 168.0
141.652069 128.0
141.688782 108.0
141.729065 136.0
141.774078 120.0
141.79068 40.0
141.813385 76.0
141.824799 208.0
141.859421 136.0
141.904465 220.0
141.940033 312.0
141.959686 124.0
141.978531 188.0
141.986145 72.0
141.995789 148.0
142.024933 156.0
142.063354 188.0
142.097061 156.0
142.134537 184.0
142.17363 168.0
142.189941 92.0
142.223099 76.0
142.23967 332.0
142.267456 164.0
142.305084 160.0
142.344894 348.0
142.380936 148.0
142.399261 228.0
142.419434 180.0
142.438004 224.0
142.442154 184.0
142.472107 116.0
142.504959 144.0
142.521591 52.0
142.550766 196.0
142.571487 128.0
142.617172 224.0
142.634903 112.0
142.676025 208.0
142.722946 168.0
142.753311 140.0
142.768814 176.0
142.812027 176.0
142.829819 172.0
142.859192 44.0
142.892502 32.0
142.927048 116.0
142.951065 144.0
142.981094 88.0
143.03566 264.0
143.074112 284.0
143.122665 120.0
143.155609 256.0
143.173828 272.0
143.194824 124.0
143.240082 308.0
143.279541 68.0
143.302017 36.0
143.324738 232.0
143.422516 364.0
143.46521 152.0
143.509689 172.0
143.532288 272.0
143.567123 188.0
143.609085 164.0
143.648926 136.0
143.67157 124.0
143.704971 156.0
143.743149 44.0
143.772202 216.0
143.824295 156.0
143.855499 180.0
143.876816 96.0
143.907852 224.0
143.9608 232.0
143.998154 192.0
144.015961 308.0
144.039612 208.0
144.059769 280.0
144.083511 220.0
144.118042 372.0
144.139542 132.0
144.170609 140.0
144.196518 168.0
144.232758 140.0
144.267883 156.0
144.286942 156.0
144.313873 184.0
144.355347 160.0
144.388885 160.0
144.409103 192.0
144.433609 40.0
144.455322 164.0
144.491028 140.0
144.507782 252.0
144.532364 116.0
144.562469 140.0
144.593185 104.0
144.60791 208.0
144.623947 132.0
144.646851 144.0
144.681671 208.0
144.704041 112.0
144.735062 176.0
144.741714 168.0
144.778778 168.0
144.80809 212.0
144.874573 288.0
144.91481 156.0
144.958481 192.0
144.993881 116.0
145.013062 100.0
145.044907 140.0
145.06456 224.0
145.121902 308.0
145.142517 184.0
145.177536 120.0
145.204865 380.0
145.246429 144.0
145.269241 144.0
145.276596 120.0
145.29213 148.0
145.361755 192.0
145.396805 148.0
145.440002 140.0
145.478424 212.0
145.502426 112.0
145.540527 132.0
145.557007 136.0
145.586731 328.0
145.624985 228.0
145.651962 192.0
145.681992 168.0
145.716171 92.0
145.74501 72.0
145.789688 256.0
145.808258 316.0
145.83136 180.0
145.85556 184.0
145.948746 100.0
145.975769 164.0
145.992615 112.0
146.025543 196.0
146.071182 456.0
146.096939 136.0
146.120102 132.0
146.212341 228.0
146.246674 204.0
146.266495 192.0
146.285522 144.0
146.329483 168.0
146.353561 108.0
146.378845 128.0
146.406326 144.0
146.413849 124.0
146.437851 332.0
146.459534 104.0
146.477432 84.0
146.502899 120.0
146.521622 176.0
146.562561 192.0
146.584808 176.0
146.603348 180.0
146.624939 112.0
146.669174 160.0
146.690399 168.0
146.736664 112.0
146.773224 200.0
146.799164 248.0
146.805725 132.0
146.835541 244.0
146.853561 204.0
146.974915 204.0
147.014999 156.0
147.029022 196.0
147.050156 172.0
147.079086 1204.0
147.10437 96.0
147.125092 280.0
147.157471 244.0
147.191986 160.0
147.249619 176.0
147.268723 192.0
147.301392 148.0
147.325546 176.0
147.357315 184.0
147.376282 364.0
147.40538 196.0
147.451202 152.0
147.503036 180.0
147.542419 336.0
147.59082 360.0
147.63974 284.0
147.689392 192.0
147.719589 172.0
147.75499 152.0
147.801849 188.0
147.835968 160.0
147.863922 148.0
147.869202 96.0
147.877533 132.0
147.898651 96.0
147.915604 56.0
147.939804 200.0
147.962921 336.0
147.990112 280.0
148.013275 124.0
148.051361 1104.0
148.078903 140.0
148.085495 384.0
148.112671 104.0
148.135345 232.0
148.14537 172.0
148.148529 212.0
148.173096 172.0
148.224243 92.0
148.241943 124.0
148.264023 164.0
148.283569 132.0
148.342621 176.0
148.402908 112.0
148.453476 108.0
148.478745 348.0
148.501816 180.0
148.526352 424.0
148.571014 132.0
148.602066 184.0
148.655716 416.0
148.692856 144.0
148.720352 124.0
148.745911 312.0
148.767899 96.0
148.807755 36.0
148.844177 136.0
148.877731 156.0
148.915588 208.0
148.970474 268.0
148.995361 164.0
149.026855 164.0
149.059631 10568.0
149.098557 196.0
149.130539 128.0
149.160019 144.0
149.189194 56.0
149.227112 332.0
149.244797 340.0
149.260696 264.0
149.309952 72.0
149.314072 112.0
149.349091 348.0
149.373627 256.0
149.40947 156.0
149.438797 196.0
149.493225 188.0
149.541718 108.0
149.572083 272.0
149.604202 128.0
149.633408 140.0
149.655884 180.0
149.696259 328.0
149.725204 196.0
149.762329 200.0
149.771698 184.0
149.789215 120.0
149.825409 640.0
149.880249 260.0
149.895325 212.0
149.925217 284.0
149.94516 424.0
149.996246 412.0
150.026413 576.0
150.032761 416.0
150.068405 277712.0
150.117767 356.0
150.1436 172.0
150.202118 356.0
150.210861 116.0
150.237701 396.0
150.272369 164.0
150.302902 336.0
150.328842 188.0
150.335236 136.0
150.358994 288.0
150.389679 188.0
150.414825 180.0
150.442627 244.0
150.468765 1516.0
150.490204 36.0
150.511139 304.0
150.535507 172.0
150.570724 132.0
150.577164 120.0
150.5867 188.0
150.618866 200.0
150.640564 96.0
150.683365 132.0
150.705566 208.0
150.74971 356.0
150.767532 284.0
150.804688 116.0
150.836578 332.0
150.861237 160.0
150.864517 136.0
150.883072 204.0
150.913406 144.0
150.935806 244.0
150.957977 56.0
150.994247 228.0
151.040924 664.0
151.072006 32780.0
151.15564 120.0
151.163681 100.0
151.180923 180.0
151.199326 144.0
151.217224 160.0
151.264359 80.0
151.308044 104.0
151.329391 176.0
151.351562 132.0
151.368637 220.0
151.386154 152.0
151.426636 108.0
151.431992 172.0
151.439484 308.0
151.471359 104.0
151.510895 124.0
151.539352 108.0
151.579971 148.0
151.613129 148.0
151.638229 160.0
151.662033 56.0
151.684097 328.0
151.701248 308.0
151.739609 128.0
151.79216 184.0
151.818573 156.0
151.850388 144.0
151.871918 100.0
151.904984 88.0
151.932571 248.0
151.98114 372.0
152.005386 144.0
152.04776 504.0
152.080978 6000.0
152.117447 244.0
152.128174 264.0
152.168076 140.0
152.192703 204.0
152.228455 188.0
152.265961 388.0
152.306168 196.0
152.344284 264.0
152.371338 52.0
152.406738 72.0
152.420914 168.0
152.440506 140.0
152.466354 144.0
152.492859 172.0
152.521744 132.0
152.580154 152.0
152.621552 200.0
152.648682 352.0
152.676041 72.0
152.709091 128.0
152.737274 188.0
152.770004 244.0
152.791443 208.0
152.840149 136.0
152.872849 120.0
152.911209 144.0
152.958557 176.0
153.011612 164.0
153.055283 4628.0
153.087509 1076.0
153.139572 168.0
153.173233 144.0
153.220047 44.0
153.265259 308.0
153.292099 148.0
153.32225 116.0
153.350571 148.0
153.372299 184.0
153.413391 332.0
153.451447 572.0
153.491165 52.0
153.533096 116.0
153.555283 160.0
153.578491 328.0
153.621628 112.0
153.649734 148.0
153.684967 204.0
153.711868 128.0
153.757599 128.0
153.797546 188.0
153.839386 140.0
153.859467 280.0
153.895065 120.0
153.916687 136.0
153.965179 284.0
153.984924 196.0
154.019058 200.0
154.062363 8636.0
154.132965 32.0
154.155212 112.0
154.177444 104.0
154.211578 356.0
154.228546 148.0
154.267334 76.0
154.29129 140.0
154.354568 124.0
154.391983 200.0
154.414795 180.0
154.459656 116.0
154.486526 128.0
154.508789 56.0
154.527664 156.0
154.650253 192.0
154.696457 144.0
154.731339 156.0
154.766205 132.0
154.787994 204.0
154.818039 124.0
154.82608 152.0
154.849548 200.0
154.886551 276.0
154.93541 220.0
154.964401 224.0
154.999039 148.0
155.025116 156.0
155.067612 900.0
155.090744 188.0
155.123795 144.0
155.177078 184.0
155.202301 128.0
155.222137 204.0
155.257202 116.0
155.279175 160.0
155.325607 100.0
155.357773 188.0
155.378403 260.0
155.408173 168.0
155.446152 52.0
155.464218 272.0
155.502472 132.0
155.522324 40.0
155.58522 168.0
155.632278 124.0
155.6698 160.0
155.736633 116.0
155.763199 168.0
155.783066 152.0
155.821136 124.0
155.841858 228.0
155.889908 88.0
155.926666 136.0
155.933228 92.0
155.94429 204.0
156.031174 144.0
156.070419 136.0
156.140884 172.0
156.192551 208.0
156.223083 108.0
156.267868 244.0
156.28772 164.0
156.332047 172.0
156.362137 168.0
156.387375 184.0
156.410339 128.0
156.45401 136.0
156.476929 148.0
156.512894 120.0
156.552338 156.0
156.586502 184.0
156.638809 148.0
156.664764 140.0
156.707474 156.0
156.731827 144.0
156.768372 220.0
156.808807 108.0
156.84108 200.0
156.879318 180.0
156.950638 204.0
156.972397 76.0
157.016052 180.0
157.05368 180.0
157.083694 224.0
157.099503 164.0
157.134918 136.0
157.160614 148.0
157.200348 308.0
157.232239 44.0
157.252197 44.0
157.27803 172.0
157.339569 188.0
157.37796 164.0
157.419479 176.0
157.487045 220.0
157.531876 112.0
157.582779 212.0
157.601822 84.0
157.621811 116.0
157.649307 52.0
157.676788 172.0
157.701782 164.0
157.724289 64.0
157.769287 104.0
157.806778 88.0
157.82428 104.0
157.848175 108.0
157.887253 168.0
157.911179 140.0
157.931824 56.0
157.956924 220.0
157.991364 112.0
158.024323 164.0
158.032135 160.0
158.040176 180.0
158.051773 216.0
158.071518 452.0
158.138718 180.0
158.183487 144.0
158.204834 120.0
158.272949 208.0
158.30542 148.0
158.324768 88.0
158.355896 140.0
158.404129 188.0
158.427475 160.0
158.447876 164.0
158.482635 124.0
158.505142 156.0
158.545242 84.0
158.571838 184.0
158.62294 76.0
158.660538 236.0
158.703156 108.0
158.728027 140.0
158.742065 164.0
158.756897 248.0
158.780899 100.0
158.816177 192.0
158.863953 72.0
158.925079 148.0
158.965485 104.0
158.97525 60.0
158.9832 132.0
159.002548 168.0
159.04303 148.0
159.070724 588.0
159.087326 360.0
159.110916 304.0
159.125946 424.0
159.149628 184.0
159.209244 136.0
159.260635 204.0
159.310532 180.0
159.373154 160.0
159.404236 432.0
159.438675 56.0
159.47789 168.0
159.511292 176.0
159.53923 228.0
159.596161 196.0
159.642319 152.0
159.661133 208.0
159.686432 296.0
159.725311 348.0
159.752029 112.0
159.769714 132.0
159.793243 132.0
159.835556 132.0
159.897888 116.0
159.926254 196.0
159.964569 184.0
159.994583 152.0
160.059052 412.0
160.079498 176.0
160.107361 148.0
160.125519 176.0
160.173782 276.0
160.191544 132.0
160.228806 176.0
160.257584 160.0
160.28801 136.0
160.308929 120.0
160.32518 148.0
160.376373 136.0
160.421112 156.0
160.429993 48.0
160.439682 148.0
160.487244 148.0
160.523712 344.0
160.581284 208.0
160.634689 180.0
160.663834 180.0
160.68988 244.0
160.754486 332.0
160.797836 176.0
160.831512 164.0
160.894623 152.0
160.959595 180.0
161.03508 152.0
161.059677 2288.0
161.092667 308.0
161.121445 128.0
161.132904 156.0
161.159821 176.0
161.192673 72.0
161.24826 104.0
161.277802 116.0
161.342087 136.0
161.377182 156.0
161.399948 48.0
161.422699 136.0
161.451645 176.0
161.481613 132.0
161.51915 168.0
161.551697 84.0
161.614258 248.0
161.676758 124.0
161.711517 200.0
161.76416 176.0
161.804352 156.0
161.849854 224.0
161.890869 196.0
161.929688 160.0
161.969193 160.0
161.975754 148.0
161.996307 156.0
162.063995 680.0
162.09494 372.0
162.114532 224.0
162.154892 132.0
162.184372 180.0
162.193604 132.0
162.219681 264.0
162.266876 176.0
162.287384 168.0
162.316315 192.0
162.33342 508.0
162.380005 164.0
162.397751 168.0
162.426804 204.0
162.448486 48.0
162.468781 60.0
162.499222 180.0
162.519348 172.0
162.547363 168.0
162.574371 216.0
162.59819 264.0
162.635773 212.0
162.664185 156.0
162.681656 180.0
162.713623 156.0
162.740356 156.0
162.758133 208.0
162.79509 332.0
162.849335 156.0
162.894958 164.0
162.939697 84.0
162.984543 116.0
163.015366 332.0
163.038361 128.0
163.075363 932.0
163.099823 484.0
163.1548 128.0
163.192627 116.0
163.214783 152.0
163.234802 252.0
163.259735 212.0
163.282104 112.0
163.326813 204.0
163.380829 100.0
163.402374 120.0
163.439346 144.0
163.46225 104.0
163.489563 120.0
163.576782 140.0
163.614975 168.0
163.64537 128.0
163.661682 128.0
163.680969 104.0
163.719376 120.0
163.758942 204.0
163.805908 148.0
163.839325 144.0
163.857666 152.0
163.870789 224.0
163.877747 184.0
163.897232 264.0
163.92572 188.0
163.946106 152.0
163.987579 88.0
164.02002 64.0
164.043167 200.0
164.082535 3548.0
164.129654 116.0
164.158737 360.0
164.18515 224.0
164.217865 144.0
164.26619 240.0
164.27562 112.0
164.310257 212.0
164.343491 124.0
164.355698 128.0
164.383087 116.0
164.413956 312.0
164.436676 396.0
164.463348 204.0
164.499283 100.0
164.516785 160.0
164.552368 252.0
164.5867 236.0
164.621368 388.0
164.650681 588.0
164.67131 324.0
164.692093 200.0
164.722656 440.0
164.751297 248.0
164.792923 284.0
164.821442 416.0
164.86087 444.0
164.897415 176.0
164.922272 444.0
164.951187 332.0
164.963776 464.0
164.986984 508.0
165.016586 544.0
165.05603 2712.0
165.092484 465256.0
165.185532 204.0
165.232162 236.0
165.262909 300.0
165.268433 168.0
165.28981 280.0
165.299744 336.0
165.33049 316.0
165.377136 516.0
165.417252 260.0
165.450775 212.0
165.484543 820.0
165.512695 13504.0
165.533707 532.0
165.552231 332.0
165.595337 200.0
165.61554 428.0
165.654221 192.0
165.681061 180.0
165.722717 252.0
165.749146 260.0
165.775269 216.0
165.796844 308.0
165.817551 332.0
165.849945 176.0
165.871216 244.0
165.903687 200.0
165.931091 132.0
165.956924 364.0
165.967026 200.0
165.977081 284.0
166.001068 368.0
166.062729 11384.0
166.094727 111916.0
166.161011 192.0
166.197723 164.0
166.2164 92.0
166.239655 200.0
166.256638 156.0
166.273972 148.0
166.295273 264.0
166.333344 156.0
166.371048 248.0
166.400375 44.0
166.436493 168.0
166.466995 108.0
166.488098 172.0
166.522873 216.0
166.573837 124.0
166.627472 88.0
166.682693 296.0
166.70784 92.0
166.730316 148.0
166.754669 64.0
166.770493 60.0
166.792343 124.0
166.810745 140.0
166.832657 252.0
166.864182 148.0
166.885376 184.0
166.908264 252.0
166.953354 400.0
166.994461 236.0
167.032227 304.0
167.069992 28684.0
167.095413 6572.0
167.129807 260.0
167.18692 348.0
167.196793 344.0
167.204376 240.0
167.231567 412.0
167.259155 444.0
167.268768 332.0
167.29187 440.0
167.325043 660.0
167.370041 400.0
167.386902 276.0
167.412109 248.0
167.440063 264.0
167.497482 200.0
167.524368 204.0
167.577179 120.0
167.608475 280.0
167.63533 184.0
167.667618 84.0
167.721588 284.0
167.741516 136.0
167.762421 176.0
167.819366 124.0
167.834732 272.0
167.888229 184.0
167.894119 80.0
167.924057 72.0
167.947525 196.0
167.972031 144.0
168.005157 112.0
168.030823 276.0
168.078308 33308.0
168.158081 92.0
168.176819 92.0
168.196915 196.0
168.233765 228.0
168.251968 196.0
168.286316 100.0
168.296707 96.0
168.303329 84.0
168.332458 248.0
168.349869 312.0
168.381119 68.0
168.413025 232.0
168.433121 188.0
168.470688 72.0
168.492722 268.0
168.524109 100.0
168.554977 100.0
168.578369 256.0
168.601166 220.0
168.611038 88.0
168.644241 128.0
168.675232 124.0
168.6996 40.0
168.723129 112.0
168.75592 140.0
168.799225 148.0
168.837738 184.0
168.882217 168.0
168.904892 56.0
168.924835 72.0
168.975616 152.0
169.013397 52.0
169.038132 136.0
169.084915 13108.0
169.184692 272.0
169.206436 84.0
169.210983 92.0
169.239105 56.0
169.261307 148.0
169.289352 48.0
169.299362 40.0
169.312805 76.0
169.34465 320.0
169.376389 52.0
169.408936 116.0
169.469223 120.0
169.515335 244.0
169.546906 80.0
169.60675 156.0
169.626617 200.0
169.696609 80.0
169.717361 128.0
169.734634 48.0
169.754227 116.0
169.788635 148.0
169.813431 156.0
169.887421 28.0
169.919662 80.0
169.945618 40.0
169.96637 72.0
169.994095 104.0
170.015579 116.0
170.089066 2172.0
170.141083 164.0
170.186996 148.0
170.228546 64.0
170.254517 64.0
170.287582 60.0
170.310898 136.0
170.345428 48.0
170.379196 104.0
170.459747 40.0
170.53717 152.0
170.572952 180.0
170.62558 100.0
170.662506 212.0
170.688507 40.0
170.743118 80.0
170.801254 148.0
170.844559 100.0
170.874344 208.0
170.920013 96.0
170.971207 172.0
170.998077 36.0
171.049988 92.0
171.082352 304.0
171.098633 160.0
171.134537 164.0
171.216568 96.0
171.259003 256.0
171.285156 188.0
171.309326 228.0
171.339203 76.0
171.386108 108.0
171.419983 220.0
171.457275 104.0
171.513809 132.0
171.540939 176.0
171.574326 148.0
171.610275 180.0
171.646774 68.0
171.68605 64.0
171.782608 152.0
171.791214 84.0
171.864044 164.0
171.899811 112.0
172.012711 184.0
172.0383 172.0
172.073822 632.0
172.118469 136.0
172.159729 120.0
172.215714 104.0
172.249664 36.0
172.28363 72.0
172.320206 128.0
172.396072 120.0
172.429123 128.0
172.464844 160.0
172.492691 96.0
172.531906 152.0
172.555435 140.0
172.589005 168.0
172.688797 108.0
172.764664 36.0
172.839096 168.0
172.850449 76.0
172.860153 152.0
172.966156 52.0
173.04834 360.0
173.079453 680.0
173.106995 152.0
173.124924 132.0
173.149445 64.0
173.240219 104.0
173.274429 112.0
173.373749 84.0
173.481552 172.0
173.512558 140.0
173.554123 132.0
173.572876 132.0
173.592743 156.0
173.629059 56.0
173.701874 132.0
173.766342 108.0
173.961655 184.0
174.005249 132.0
174.015015 48.0
174.024384 136.0
174.065933 740.0
174.091202 2072.0
174.147903 128.0
174.175003 56.0
174.231689 76.0
174.2509 280.0
174.285339 112.0
174.31424 140.0
174.345779 152.0
174.364182 68.0
174.406235 108.0
174.448288 84.0
174.50087 124.0
174.535507 344.0
174.56398 100.0
174.6008 136.0
174.624756 72.0
174.652527 48.0
174.722809 176.0
174.758636 44.0
174.784943 172.0
174.81485 88.0
174.843719 144.0
174.949463 148.0
174.999832 156.0
175.040222 116.0
175.075287 1456.0
175.174103 208.0
175.197784 40.0
175.204956 84.0
175.270096 132.0
175.300201 108.0
175.346024 72.0
175.390686 64.0
175.429977 44.0
175.498016 236.0
175.525146 160.0
175.543594 148.0
175.576981 116.0
175.627991 36.0
175.649094 128.0
175.679504 272.0
175.709778 204.0
175.765182 92.0
175.843353 340.0
175.878754 132.0
175.907639 144.0
175.955978 168.0
175.977936 212.0
176.011185 164.0
176.038162 148.0
176.083282 7968.0
176.117447 296.0
176.137436 100.0
176.166504 32.0
176.196533 152.0
176.221985 188.0
176.261612 116.0
176.282761 52.0
176.306549 32.0
176.358871 100.0
176.37764 80.0
176.397552 92.0
176.42688 76.0
176.457214 36.0
176.494232 152.0
176.562225 220.0
176.626923 140.0
176.708481 76.0
176.788681 128.0
176.889175 136.0
176.917557 124.0
176.947388 184.0
176.984436 204.0
177.052322 460.0
177.089233 3064.0
177.134903 168.0
177.187698 92.0
177.259399 64.0
177.306931 104.0
177.34697 116.0
177.379059 76.0
177.426224 36.0
177.457138 152.0
177.532288 84.0
177.576538 116.0
177.582016 80.0
177.627762 104.0
177.646332 44.0
177.708344 128.0
177.744507 252.0
177.779007 104.0
177.810776 84.0
177.819305 196.0
177.978088 48.0
178.004654 112.0
178.059555 348.0
178.094437 980.0
178.201675 112.0
178.230148 140.0
178.265518 100.0
178.331818 244.0
178.397873 116.0
178.460358 56.0
178.482071 204.0
178.529831 64.0
178.569168 124.0
178.625809 84.0
178.683777 120.0
178.727676 136.0
178.751709 132.0
178.831467 44.0
178.884705 36.0
178.908661 36.0
178.943268 96.0
178.967239 164.0
178.98587 108.0
179.072876 1048.0
179.101151 404.0
179.135468 48.0
179.15387 100.0
179.177643 84.0
179.20163 60.0
179.250443 176.0
179.305557 84.0
179.325836 164.0
179.434769 84.0
179.4655 72.0
179.486832 32.0
179.522308 172.0
179.557739 176.0
179.592316 132.0
179.636185 80.0
179.657715 116.0
179.710892 128.0
179.732239 156.0
179.764252 112.0
179.788269 84.0
179.8591 60.0
179.936722 124.0
180.001923 144.0
180.077896 4824.0
180.155182 184.0
180.219986 60.0
180.319748 168.0
180.37735 156.0
180.408997 192.0
180.457214 104.0
180.528885 248.0
180.597824 48.0
180.616547 52.0
180.672729 48.0
180.690567 80.0
180.731583 96.0
180.778809 136.0
180.82666 136.0
180.88208 52.0
180.932205 180.0
180.978043 52.0
181.019836 180.0
181.052689 344.0
181.085754 45912.0
181.136642 184.0
181.181229 136.0
181.218826 128.0
181.253204 60.0
181.290176 80.0
181.310013 64.0
181.382004 84.0
181.415665 100.0
181.448135 68.0
181.477936 100.0
181.488907 80.0
181.524475 56.0
181.545929 52.0
181.570251 168.0
181.604935 144.0
181.632965 80.0
181.664474 108.0
181.699219 232.0
181.736389 112.0
181.755173 64.0
181.779327 88.0
181.818634 192.0
181.829529 124.0
181.833542 156.0
181.883316 220.0
181.906494 84.0
182.004807 36.0
182.023605 108.0
182.055832 116.0
182.090897 7160.0
182.149216 52.0
182.172211 316.0
182.216995 100.0
182.272156 76.0
182.356735 80.0
182.388992 96.0
182.414215 64.0
182.455261 116.0
182.472244 136.0
182.518036 136.0
182.555679 168.0
182.64444 132.0
182.679413 56.0
182.703384 92.0
182.783356 132.0
182.887634 84.0
182.933273 72.0
183.095947 668.0
183.154358 88.0
183.188202 52.0
183.231613 136.0
183.262085 104.0
183.338577 192.0
183.382446 116.0
183.436127 48.0
183.473862 160.0
183.50621 96.0
183.534485 64.0
183.555038 76.0
183.5952 64.0
183.666122 152.0
183.746262 148.0
183.780853 200.0
183.819107 76.0
183.840698 136.0
183.860886 176.0
183.908173 88.0
183.968643 168.0
184.002655 120.0
184.083557 588.0
184.110138 384.0
184.153488 84.0
184.206863 84.0
184.245728 184.0
184.280853 60.0
184.321381 172.0
184.340286 60.0
184.38623 144.0
184.499084 272.0
184.532211 144.0
184.602081 148.0
184.659302 116.0
184.691772 244.0
184.73172 88.0
184.762939 128.0
184.780457 184.0
184.840561 156.0
184.878448 72.0
184.989426 60.0
185.042191 164.0
185.083084 580.0
185.173553 96.0
185.239105 240.0
185.265656 192.0
185.300125 244.0
185.347641 236.0
185.387589 72.0
185.458054 76.0
185.527985 204.0
185.550217 100.0
185.569199 28.0
185.624435 152.0
185.733276 104.0
185.788879 124.0
185.826859 296.0
185.925034 132.0
186.021317 68.0
186.061829 140.0
186.094345 316.0
186.140045 84.0
186.223526 192.0
186.266663 52.0
186.37262 132.0
186.399796 68.0
186.43512 160.0
186.456863 60.0
186.541122 128.0
186.56514 240.0
186.582642 108.0
186.603653 204.0
186.68251 120.0
186.752975 180.0
186.807632 128.0
186.872925 136.0
186.940948 60.0
186.975616 176.0
187.067474 216.0
187.099533 156.0
187.107925 324.0
187.146332 128.0
187.193695 168.0
187.259476 68.0
187.278549 80.0
187.317642 192.0
187.37117 80.0
187.406586 124.0
187.608536 84.0
187.643707 172.0
187.709152 76.0
187.782791 64.0
187.867355 76.0
187.908279 152.0
187.976486 124.0
188.022888 152.0
188.104355 444.0
188.208511 104.0
188.359802 112.0
188.394241 124.0
188.421555 96.0
188.46254 92.0
188.574585 212.0
188.604645 48.0
188.692322 172.0
188.733139 100.0
188.815186 180.0
188.880829 88.0
188.919128 32.0
189.052887 140.0
189.090836 2664.0
189.129364 516.0
189.207474 44.0
189.236603 136.0
189.288727 104.0
189.3078 172.0
189.329697 56.0
189.368042 48.0
189.409134 156.0
189.448502 164.0
189.535156 76.0
189.570786 28.0
189.655746 128.0
189.716049 256.0
189.784088 108.0
189.886063 84.0
189.993362 172.0
190.034195 108.0
190.065735 460.0
190.095261 2036.0
190.144897 164.0
190.193359 84.0
190.218063 84.0
190.240036 136.0
190.326569 164.0
190.407532 136.0
190.445984 136.0
190.489929 112.0
190.51741 176.0
190.544876 92.0
190.568634 136.0
190.599243 240.0
190.654785 192.0
190.689514 160.0
190.718002 80.0
190.753738 104.0
190.830719 168.0
190.959961 144.0
191.009476 184.0
191.066833 716.0
191.100952 636.0
191.134888 164.0
191.180069 68.0
191.225632 180.0
191.261795 100.0
191.334213 112.0
191.416809 208.0
191.452301 156.0
191.546265 88.0
191.642685 200.0
191.713867 144.0
191.914383 152.0
191.990021 192.0
192.036896 156.0
192.076431 1284.0
192.155518 156.0
192.218979 184.0
192.285217 140.0
192.320786 168.0
192.445328 100.0
192.467422 168.0
192.500549 132.0
192.53093 72.0
192.64418 200.0
192.667404 192.0
192.702194 136.0
192.73259 80.0
192.751938 128.0
192.854904 156.0
192.932922 224.0
192.974213 480.0
193.085266 3440.0
193.183258 200.0
193.246887 132.0
193.281815 148.0
193.346497 132.0
193.421234 36.0
193.475693 124.0
193.503052 144.0
193.545822 132.0
193.597321 84.0
193.628189 124.0
193.700562 128.0
193.734161 52.0
193.770172 132.0
193.806198 128.0
193.953552 140.0
194.000198 180.0
194.09433 984.0
194.117157 2548.0
194.19873 140.0
194.218658 108.0
194.281845 100.0
194.347855 92.0
194.371857 152.0
194.436371 168.0
194.474548 276.0
194.493973 120.0
194.534271 124.0
194.570084 164.0
194.632782 184.0
194.660553 168.0
194.723511 120.0
194.766098 140.0
194.8022 92.0
194.824432 100.0
194.846649 88.0
194.919861 112.0
194.958527 184.0
195.000534 32.0
195.042923 96.0
195.100906 13672.0
195.15683 84.0
195.205215 144.0
195.224686 92.0
195.285873 120.0
195.330383 136.0
195.386017 184.0
195.463638 76.0
195.494095 76.0
195.552444 104.0
195.593857 128.0
195.660751 140.0
195.828629 132.0
195.909409 156.0
195.986832 96.0
196.104645 2028.0
196.24942 128.0
196.294037 132.0
196.465027 240.0
196.584641 208.0
196.646729 160.0
196.765594 64.0
196.80748 156.0
196.932404 136.0
196.971848 56.0
197.028122 164.0
197.068817 156.0
197.112488 396.0
197.218155 124.0
197.268463 132.0
197.28804 168.0
197.310394 56.0
197.349548 72.0
197.37471 52.0
197.416656 56.0
197.520142 60.0
197.601273 72.0
197.640442 164.0
197.679611 40.0
197.766373 136.0
197.820084 128.0
197.883835 100.0
198.060699 140.0
198.095337 520.0
198.129135 104.0
198.16684 48.0
198.220078 80.0
198.315369 52.0
198.354614 36.0
198.447128 112.0
198.474854 256.0
198.494797 108.0
198.518524 336.0
198.610825 172.0
198.719193 156.0
198.750061 132.0
198.778122 204.0
198.825821 32.0
198.862305 140.0
198.938095 164.0
198.963364 136.0
198.997055 80.0
199.019516 48.0
199.041977 124.0
199.071228 168.0
199.111847 360.0
199.203979 176.0
199.280731 124.0
199.34256 152.0
199.376282 76.0
199.509949 152.0
199.547745 176.0
199.581497 124.0
199.609604 148.0
199.635941 176.0
200.000671 52.0
200.069031 496.0
200.10527 300.0
200.143311 180.0
200.237183 156.0
200.46257 136.0
200.485107 116.0
200.51329 132.0
200.657059 160.0
200.727554 144.0
200.784698 188.0
200.831894 88.0
200.919342 204.0
200.960892 160.0
201.029388 188.0
201.07756 576.0
201.114914 288.0
201.158081 168.0
201.232635 152.0
201.337112 92.0
201.436905 200.0
201.492477 76.0
201.57724 124.0
201.662018 128.0
201.695938 200.0
201.888199 88.0
201.922134 188.0
201.958908 88.0
202.009827 28.0
202.086929 3372.0
202.128662 192.0
202.15979 108.0
202.338104 168.0
202.374924 76.0
202.434387 72.0
202.49855 128.0
202.53067 80.0
202.629822 160.0
202.706329 52.0
202.79985 76.0
202.862213 64.0
202.899078 48.0
202.981308 124.0
203.036133 84.0
203.092667 972.0
203.17746 224.0
203.213898 104.0
203.26619 92.0
203.333298 156.0
203.403229 140.0
203.43811 88.0
203.54599 180.0
203.594269 56.0
203.622665 128.0
203.679474 140.0
203.790283 164.0
203.841431 148.0
203.864151 128.0
204.005722 224.0
204.069962 80.0
204.110611 404.0
204.162918 220.0
204.199631 104.0
204.279282 132.0
204.299194 88.0
204.393082 76.0
204.489838 84.0
204.509766 136.0
204.611969 120.0
204.637878 112.0
204.728989 132.0
204.754623 232.0
204.80513 192.0
204.81192 140.0
204.82106 208.0
204.869507 188.0
204.945496 148.0
204.974899 124.0
204.993927 164.0
205.085785 2928.0
205.167648 148.0
205.175125 140.0
205.223083 360.0
205.364563 356.0
205.411285 260.0
205.444427 132.0
205.465637 152.0
205.485016 180.0
205.561417 40.0
205.6185 188.0
205.658447 76.0
205.721252 148.0
205.772644 120.0
205.818329 164.0
205.996429 156.0
206.0354 136.0
206.08429 2648.0
206.229721 48.0
206.301178 88.0
206.364075 136.0
206.458435 164.0
206.549973 48.0
206.578568 132.0
206.613083 128.0
206.653137 196.0
206.689529 236.0
206.758835 176.0
206.785248 176.0
206.830383 128.0
206.867599 196.0
206.955704 212.0
207.010757 180.0
207.101303 18760.0
207.181183 84.0
207.242783 44.0
207.314423 80.0
207.364655 40.0
207.414749 176.0
207.434814 212.0
207.552353 68.0
207.575302 64.0
207.624054 120.0
207.649658 120.0
207.710739 152.0
207.755997 132.0
207.774246 100.0
207.807632 84.0
207.89505 216.0
207.945587 108.0
208.00853 64.0
208.06308 132.0
208.104309 3212.0
208.203781 76.0
208.237244 104.0
208.272705 48.0
208.350266 184.0
208.410599 120.0
208.453705 96.0
208.499695 148.0
208.522675 100.0
208.583038 248.0
208.611786 176.0
208.654907 64.0
208.709549 68.0
208.757675 76.0
208.902237 40.0
209.072189 120.0
209.113251 832.0
209.155472 84.0
209.215927 92.0
209.262207 104.0
209.313812 144.0
209.362778 112.0
209.407104 148.0
209.489502 72.0
209.558136 112.0
209.608978 120.0
209.656631 96.0
209.780563 196.0
209.846878 56.0
209.884369 120.0
209.953247 144.0
210.116272 148.0
210.121902 372.0
210.178589 100.0
210.239532 228.0
210.282471 108.0
210.302673 60.0
210.36618 80.0
210.412369 156.0
210.441254 116.0
210.467239 108.0
210.619339 108.0
210.627686 72.0
210.67807 140.0
210.83699 120.0
210.89769 36.0
210.929489 84.0
210.981522 184.0
211.031403 112.0
211.071716 124.0
211.106049 348.0
211.211746 72.0
211.24469 68.0
211.29097 36.0
211.390579 120.0
211.50473 120.0
211.565918 112.0
211.600662 200.0
211.69397 88.0
211.762817 184.0
211.783157 200.0
211.854645 80.0
211.86348 64.0
211.916367 188.0
211.962723 100.0
211.997498 72.0
212.043869 136.0
212.064148 116.0
212.108444 432.0
212.272888 216.0
212.34996 76.0
212.481735 80.0
212.621017 56.0
212.870682 160.0
212.920059 124.0
213.07843 200.0
213.090683 244.0
213.120895 168.0
213.145203 72.0
213.293442 188.0
213.387894 192.0
213.515854 60.0
213.542023 140.0
213.617645 192.0
213.748581 148.0
213.899918 188.0
213.949417 116.0
213.972702 168.0
214.010559 200.0
214.033844 80.0
214.086472 740.0
214.124252 232.0
214.258118 88.0
214.328049 136.0
214.380493 144.0
214.452225 184.0
214.523315 108.0
214.626465 124.0
214.660355 196.0
214.746674 172.0
214.806183 48.0
214.847031 160.0
214.949142 212.0
215.013351 196.0
215.093613 1088.0
215.126953 288.0
215.156387 92.0
215.261505 192.0
215.39122 164.0
215.420212 176.0
215.543686 160.0
215.662689 112.0
215.807922 76.0
215.832413 160.0
215.889801 128.0
215.919052 116.0
215.948288 96.0
216.003876 172.0
216.023804 152.0
216.058685 96.0
216.101486 10756.0
216.135666 1268.0
216.201523 112.0
216.255508 100.0
216.276001 120.0
216.410675 76.0
216.442871 128.0
216.480942 96.0
216.516083 120.0
216.551239 48.0
216.570618 104.0
216.615677 252.0
216.905777 188.0
216.931793 196.0
217.011322 120.0
217.039505 200.0
217.108932 16696.0
217.219543 36.0
217.25943 160.0
217.319077 144.0
217.345703 72.0
217.406235 64.0
217.436676 92.0
217.468964 96.0
217.489517 104.0
217.513931 112.0
217.544983 160.0
217.604813 144.0
217.692093 156.0
217.739075 208.0
217.932968 52.0
218.024612 100.0
218.08197 1172.0
218.115356 3732.0
218.158875 60.0
218.168594 132.0
218.209244 52.0
218.254501 220.0
218.312866 204.0
218.341568 56.0
218.368042 132.0
218.388626 100.0
218.456284 144.0
218.515121 44.0
218.597519 152.0
218.653427 292.0
218.868286 152.0
218.889679 160.0
218.915451 120.0
219.042099 216.0
219.109589 496.0
219.162888 140.0
219.198257 116.0
219.221832 108.0
219.389542 80.0
219.416367 48.0
219.442902 152.0
219.513962 124.0
219.535614 56.0
219.605103 180.0
219.669983 92.0
219.75975 188.0
219.785049 116.0
219.872375 136.0
219.939896 60.0
220.027084 112.0
220.059555 132.0
220.095444 916.0
220.128494 280.0
220.180634 116.0
220.204254 84.0
220.242661 144.0
220.27652 120.0
220.331284 72.0
220.387421 76.0
220.455383 40.0
220.476059 40.0
220.50267 108.0
220.537567 168.0
220.582474 136.0
220.61795 152.0
220.674118 108.0
220.714218 128.0
220.742126 100.0
220.789444 104.0
220.848557 132.0
221.008347 124.0
221.117737 2612.0
221.168167 40.0
221.194107 116.0
221.224411 64.0
221.268814 108.0
221.402069 120.0
221.456177 108.0
221.479065 164.0
221.683502 228.0
221.790207 128.0
221.816879 164.0
221.855423 104.0
221.882095 168.0
221.914719 60.0
221.947327 56.0
222.083755 176.0
222.12114 652.0
222.149597 672.0
222.243942 116.0
222.282516 152.0
222.369156 148.0
222.410141 56.0
222.668457 108.0
222.704102 128.0
222.78775 76.0
222.88829 28.0
222.950699 124.0
223.039047 156.0
223.132019 412.0
223.45639 136.0
223.599045 180.0
223.698242 172.0
223.730011 148.0
223.807434 160.0
223.93251 84.0
223.962296 124.0
223.988495 244.0
224.027832 176.0
224.123886 276.0
224.26622 104.0
224.287079 36.0
224.349686 68.0
224.391418 120.0
224.474915 100.0
224.576309 132.0
224.612793 52.0
224.678055 148.0
224.761276 132.0
224.859756 128.0
224.897156 196.0
224.92244 192.0
224.982147 116.0
225.089172 132.0
225.191177 116.0
225.319626 100.0
225.377625 136.0
225.448105 28.0
225.472015 244.0
225.53093 192.0
225.561691 108.0
225.585602 204.0
225.779953 64.0
225.834427 132.0
225.854218 164.0
225.92952 220.0
226.070145 124.0
226.115616 228.0
226.621124 108.0
226.687042 108.0
226.764969 136.0
226.830383 136.0
226.874298 160.0
226.96283 60.0
227.067795 68.0
227.112595 952.0
227.166779 88.0
227.199768 136.0
227.361801 112.0
227.415833 52.0
227.43985 40.0
227.499878 80.0
227.755127 128.0
227.793579 180.0
227.818207 152.0
227.899338 96.0
227.998489 52.0
228.104828 976.0
228.223953 152.0
228.272064 92.0
228.353271 92.0
228.383347 132.0
228.442932 168.0
228.485626 136.0
228.521729 76.0
228.545807 108.0
228.708313 172.0
228.762497 140.0
228.828735 96.0
228.894974 104.0
228.919067 112.0
229.102509 328.0
229.106949 164.0
229.139511 464.0
229.224823 136.0
229.585068 88.0
229.684601 104.0
229.711746 72.0
229.769073 156.0
229.79924 128.0
229.922958 124.0
229.956161 128.0
230.100372 140.0
230.150604 340.0
230.243362 160.0
230.335846 188.0
230.378326 184.0
230.569275 84.0
230.672043 84.0
230.728485 208.0
230.944183 104.0
231.027817 124.0
231.097687 652.0
231.14032 588.0
231.183197 132.0
231.231628 56.0
231.252808 48.0
231.458679 184.0
231.584915 96.0
231.71286 156.0
231.752487 76.0
231.804001 72.0
231.843399 80.0
231.870667 144.0
231.905762 132.0
231.950943 156.0
231.988556 36.0
232.025269 204.0
232.063446 88.0
232.095291 5296.0
232.138184 568.0
232.216309 132.0
232.278946 80.0
232.340683 136.0
232.380127 152.0
232.413498 136.0
232.452942 140.0
232.474182 32.0
232.512222 104.0
232.539597 356.0
232.58345 156.0
232.616165 180.0
232.759537 80.0
232.923538 112.0
232.972153 76.0
233.027786 128.0
233.104965 4348.0
233.14537 500.0
233.200241 128.0
233.27301 188.0
233.300369 56.0
233.333801 40.0
233.370285 52.0
233.409058 64.0
233.507141 140.0
233.562714 164.0
233.774857 80.0
233.799789 124.0
233.855362 216.0
233.951401 76.0
234.054916 52.0
234.111389 900.0
234.152039 452.0
234.481415 76.0
234.505798 32.0
234.575912 156.0
234.597244 40.0
234.676514 88.0
234.716156 80.0
234.841187 44.0
234.896805 120.0
235.00592 124.0
235.118149 220.0
235.138321 392.0
235.192093 60.0
235.314194 64.0
235.454666 32.0
235.754059 84.0
235.931351 96.0
236.007782 124.0
236.090347 144.0
236.131775 184.0
236.162186 320.0
236.215744 52.0
236.261642 128.0
236.288239 156.0
236.478073 192.0
236.633713 224.0
236.70488 128.0
236.710861 104.0
236.975006 128.0
237.057739 100.0
237.09758 96.0
237.148849 192.0
237.192596 64.0
237.290695 76.0
237.453217 208.0
237.575912 92.0
237.615799 64.0
237.802994 72.0
237.861313 80.0
237.964554 116.0
238.082382 112.0
238.106949 144.0
238.136749 176.0
238.174515 224.0
238.214447 144.0
238.300476 156.0
238.352707 152.0
238.420319 188.0
238.770798 152.0
238.896912 164.0
238.924606 64.0
239.059982 160.0
239.13385 120.0
239.173874 108.0
239.2108 140.0
239.287766 100.0
239.367828 156.0
239.423264 76.0
239.623489 92.0
239.682022 108.0
239.829956 148.0
239.913635 112.0
240.05864 184.0
240.106873 224.0
240.131287 148.0
240.140167 276.0
240.203064 160.0
240.2771 188.0
240.31105 116.0
240.382019 84.0
240.419052 132.0
240.61351 144.0
240.659821 152.0
240.764816 180.0
240.817963 116.0
240.894547 116.0
241.021225 76.0
241.087662 152.0
241.123062 372.0
241.149612 256.0
241.222107 64.0
241.265396 160.0
241.324142 128.0
241.358154 308.0
241.398346 164.0
241.469482 172.0
241.583923 108.0
241.676743 360.0
241.72316 104.0
241.942917 60.0
242.011032 104.0
242.128128 1356.0
242.263428 236.0
242.364151 116.0
242.395126 160.0
242.521164 112.0
242.57489 168.0
242.621399 140.0
242.714417 124.0
242.757828 116.0
242.83493 88.0
242.925308 116.0
243.10318 500.0
243.131012 940.0
243.176651 112.0
243.207687 216.0
243.231232 96.0
243.254257 48.0
243.362915 176.0
243.450806 172.0
243.539871 208.0
243.547287 120.0
243.58342 104.0
243.626907 64.0
243.679733 120.0
243.747055 176.0
243.791595 176.0
243.85997 64.0
243.957291 224.0
244.016724 140.0
244.02562 196.0
244.132263 3864.0
244.209427 112.0
244.32019 148.0
244.357529 120.0
244.421783 92.0
244.53801 92.0
244.618668 232.0
244.690552 132.0
244.777725 72.0
244.855591 84.0
244.898438 152.0
245.038742 156.0
245.135498 504.0
245.248169 172.0
245.438812 160.0
245.575562 36.0
245.625458 104.0
245.694092 112.0
245.772263 76.0
245.797058 184.0
245.865723 124.0
245.925018 92.0
246.056122 32.0
246.113434 1060.0
246.143997 456.0
246.18103 152.0
246.210648 132.0
246.288803 112.0
246.494293 164.0
246.521545 96.0
246.558029 148.0
246.602493 164.0
246.699707 92.0
246.724716 164.0
246.789169 136.0
246.883972 180.0
246.955963 84.0
246.999908 132.0
247.037445 112.0
247.1194 4272.0
247.247086 56.0
247.320923 116.0
247.349625 116.0
247.397339 168.0
247.441162 144.0
247.575806 72.0
247.629044 104.0
247.669769 136.0
247.732422 80.0
247.782547 48.0
247.832672 172.0
247.904755 144.0
247.941849 100.0
247.949982 176.0
247.973694 116.0
248.010117 188.0
248.055328 96.0
248.127121 13940.0
248.209274 164.0
248.289413 176.0
248.318588 172.0
248.401443 116.0
248.428375 148.0
248.509949 160.0
248.545441 64.0
248.597244 68.0
248.682541 148.0
248.731827 160.0
248.790619 84.0
248.930557 80.0
248.968414 76.0
249.068756 72.0
249.132263 2480.0
249.191269 76.0
249.227646 160.0
249.260406 76.0
249.2827 80.0
249.480423 84.0
249.571594 60.0
249.609329 52.0
249.634491 56.0
249.673615 72.0
249.75798 60.0
249.80748 60.0
249.917587 164.0
249.971085 56.0
250.00885 180.0
250.038269 52.0
250.059204 56.0
250.131058 440.0
250.219742 148.0
250.245819 316.0
250.346954 124.0
250.43811 88.0
250.506332 180.0
250.559891 72.0
250.594543 156.0
250.68277 104.0
250.739502 40.0
250.767868 188.0
250.818298 84.0
250.877045 120.0
250.957016 72.0
251.061081 128.0
251.09407 104.0
251.139923 180.0
251.167465 104.0
251.24791 80.0
251.413254 120.0
251.480698 108.0
251.572235 156.0
251.59433 100.0
251.670105 44.0
251.730392 132.0
251.840652 36.0
251.910141 128.0
251.941727 164.0
252.17952 80.0
252.26091 84.0
252.298843 100.0
252.327301 56.0
252.385269 180.0
252.460114 68.0
252.482254 72.0
252.520203 96.0
252.542343 96.0
252.747971 152.0
252.78595 144.0
252.884064 44.0
253.118332 100.0
253.149994 140.0
253.18483 148.0
253.243317 192.0
253.279846 108.0
253.387558 140.0
253.539658 160.0
253.580872 64.0
253.62207 44.0
253.86937 144.0
253.986725 56.0
254.110443 204.0
254.367508 136.0
254.514771 136.0
254.580231 128.0
254.669159 176.0
254.767639 128.0
254.882019 112.0
254.923325 88.0
255.056824 116.0
255.0952 108.0
255.117218 172.0
255.187485 264.0
255.285736 172.0
255.476578 80.0
255.524292 156.0
255.54657 136.0
255.73114 148.0
255.785263 88.0
255.855286 64.0
255.880768 140.0
256.047699 76.0
256.075012 108.0
256.13028 440.0
256.339447 44.0
256.486053 136.0
256.553955 200.0
256.626953 100.0
256.738892 120.0
256.846375 164.0
257.088867 136.0
257.144073 548.0
257.198639 172.0
257.245239 148.0
257.274292 164.0
257.35379 104.0
257.436829 136.0
257.494324 112.0
257.532654 140.0
257.561401 144.0
257.586945 68.0
257.663605 100.0
257.737091 108.0
257.765869 56.0
257.823395 188.0
257.916077 112.0
258.145569 1740.0
258.226227 124.0
258.267792 68.0
258.395752 116.0
258.421356 176.0
258.460236 104.0
258.518799 124.0
258.629364 44.0
258.722198 40.0
258.821472 116.0
258.920746 172.0
258.952759 164.0
259.018372 108.0
259.079834 144.0
259.155762 3576.0
259.209045 76.0
259.258057 164.0
259.355133 160.0
259.401367 196.0
259.423798 88.0
259.46228 56.0
259.495605 192.0
259.600159 44.0
259.656769 128.0
259.69519 244.0
259.741272 52.0
259.77655 136.0
259.815643 156.0
260.042877 68.0
260.068573 100.0
260.127747 3348.0
260.159485 964.0
260.246948 156.0
260.335052 172.0
260.386444 60.0
260.424988 64.0
260.718933 160.0
260.781616 172.0
260.900574 144.0
260.945587 48.0
261.062744 92.0
261.133972 704.0
261.270416 60.0
261.347626 112.0
261.395905 120.0
261.458832 80.0
261.489594 144.0
261.539429 120.0
261.569702 52.0
261.658173 172.0
261.753204 168.0
261.786591 88.0
261.923889 132.0
261.952881 124.0
261.991547 92.0
262.026978 116.0
262.091431 92.0
262.143341 624.0
262.180084 84.0
262.218353 72.0
262.346039 140.0
262.368622 68.0
262.440796 168.0
262.469391 212.0
262.513702 108.0
262.558868 148.0
262.591125 132.0
262.639496 60.0
262.662079 60.0
262.788971 180.0
262.839508 184.0
262.871796 88.0
262.92981 168.0
262.978302 124.0
263.013794 72.0
263.163483 2016.0
263.273163 84.0
263.330231 28.0
263.423889 36.0
263.459442 72.0
263.535828 192.0
263.589722 112.0
263.649719 104.0
263.787903 144.0
263.892517 208.0
264.012177 104.0
264.051453 80.0
264.168488 1072.0
264.351837 80.0
264.458649 44.0
264.484558 60.0
264.526855 160.0
264.57196 148.0
264.643188 56.0
264.669067 128.0
264.853668 84.0
264.892548 64.0
265.099915 164.0
265.124817 100.0
265.162018 160.0
265.248749 260.0
265.323578 184.0
265.373718 120.0
265.439026 112.0
265.558533 156.0
265.595978 188.0
265.743469 196.0
265.780884 100.0
265.819427 160.0
265.86203 60.0
265.923676 48.0
265.978851 48.0
266.069458 84.0
266.126434 124.0
266.17041 160.0
266.238617 176.0
266.453003 96.0
266.560211 40.0
266.719482 200.0
266.771484 80.0
266.816986 136.0
266.856018 116.0
266.908051 212.0
266.963318 164.0
267.086914 148.0
267.19101 104.0
267.311401 108.0
267.526215 112.0
267.568542 116.0
267.642487 208.0
267.786713 132.0
267.829071 60.0
267.897461 112.0
268.259552 216.0
268.432007 92.0
268.536377 108.0
268.611389 144.0
268.683167 80.0
268.757782 184.0
268.963806 184.0
268.986664 100.0
269.058472 116.0
269.12146 152.0
269.221741 156.0
269.274719 92.0
269.368713 144.0
269.411194 228.0
269.443848 140.0
269.466736 48.0
269.522278 248.0
269.559601 124.0
269.603973 148.0
269.69223 120.0
269.718384 144.0
269.787018 188.0
269.858948 60.0
269.994659 120.0
270.022461 64.0
270.058441 100.0
270.195831 56.0
270.358032 188.0
270.368774 108.0
270.377014 172.0
270.428162 92.0
270.608215 88.0
270.637665 120.0
270.72937 104.0
270.811249 128.0
270.952118 116.0
271.007812 164.0
271.050415 144.0
271.194611 76.0
271.230652 88.0
271.309326 112.0
271.365082 180.0
271.394592 108.0
271.430664 132.0
271.607758 180.0
271.738983 144.0
271.797119 116.0
271.860382 60.0
271.968689 220.0
272.086884 88.0
272.1427 72.0
272.318756 84.0
272.398865 132.0
272.505219 64.0
272.546692 128.0
272.589417 172.0
272.650513 156.0
272.743896 112.0
272.960876 68.0
273.079285 152.0
273.148895 2800.0
273.335876 100.0
273.434601 92.0
273.477386 96.0
273.564758 216.0
273.612366 72.0
273.648285 180.0
273.786896 44.0
273.829712 40.0
273.875549 144.0
274.024048 220.0
274.064117 124.0
274.100586 104.0
274.143127 1576.0
274.231659 108.0
274.274506 152.0
274.307465 140.0
274.347046 44.0
274.375336 116.0
274.406372 184.0
274.428406 148.0
274.472321 136.0
274.534973 136.0
274.597656 152.0
274.630371 156.0
274.663605 128.0
274.689178 128.0
274.736176 60.0
274.769165 172.0
274.850708 220.0
274.935791 188.0
274.985382 100.0
275.017609 100.0
275.048553 288.0
275.09729 312.0
275.106567 208.0
275.151215 25008.0
275.221375 160.0
275.259857 108.0
275.303925 80.0
275.396393 132.0
275.447693 60.0
275.51358 84.0
275.561371 68.0
275.570618 108.0
275.609436 124.0
275.746613 36.0
275.769745 120.0
275.804474 56.0
275.859802 268.0
275.943665 112.0
276.007782 64.0
276.052917 80.0
276.082123 108.0
276.153992 4576.0
276.218719 108.0
276.245911 44.0
276.30307 72.0
276.327484 152.0
276.351776 48.0
276.4711 84.0
276.523865 52.0
276.650208 72.0
276.710938 68.0
276.766449 72.0
276.884735 80.0
276.954315 112.0
277.050385 100.0
277.108887 84.0
277.155609 512.0
277.222656 304.0
277.275696 56.0
277.345306 196.0
277.390778 200.0
277.454681 112.0
277.509125 76.0
277.567413 92.0
277.593964 144.0
277.656952 108.0
277.686829 68.0
277.710022 160.0
277.817963 52.0
277.851746 116.0
277.972137 100.0
278.083679 128.0
278.161591 176.0
278.201141 104.0
278.249847 160.0
278.446869 60.0
278.485596 144.0
278.642853 112.0
278.689362 172.0
278.73587 96.0
278.77243 124.0
278.80899 140.0
278.838898 176.0
278.930481 136.0
279.064941 52.0
279.154724 148.0
279.384247 48.0
279.424164 92.0
279.524628 124.0
279.733673 84.0
279.793579 56.0
279.88681 120.0
279.913452 96.0
280.003387 152.0
280.089966 68.0
280.226562 116.0
280.449829 44.0
280.496521 152.0
280.783264 64.0
280.91333 120.0
280.970062 212.0
281.05014 164.0
281.08017 108.0
281.223663 140.0
281.281982 140.0
281.323822 128.0
281.64621 96.0
281.671112 136.0
281.798065 60.0
281.864899 84.0
281.931732 72.0
281.985199 48.0
282.042023 88.0
282.098846 124.0
282.229248 80.0
282.269348 124.0
282.352966 200.0
282.423218 152.0
282.639404 96.0
282.680817 28.0
282.724335 148.0
283.028961 56.0
283.305389 120.0
283.404541 124.0
283.447662 140.0
283.507996 28.0
283.826447 68.0
283.863342 136.0
283.970642 84.0
284.164734 112.0
284.296082 128.0
284.337769 236.0
284.376648 208.0
284.400146 88.0
284.645203 32.0
284.69223 96.0
284.735901 88.0
284.766113 116.0
284.796356 188.0
284.887054 108.0
284.910553 104.0
284.943115 160.0
285.106995 132.0
285.149139 128.0
285.288483 140.0
285.323944 220.0
285.411346 224.0
285.471039 204.0
285.740967 72.0
285.766266 160.0
285.798187 60.0
285.825104 64.0
285.871216 104.0
285.969818 72.0
286.064056 140.0
286.09436 160.0
286.173706 184.0
286.208832 136.0
286.258972 76.0
286.754578 208.0
286.781555 72.0
286.897034 92.0
287.125458 132.0
287.169006 228.0
287.213135 156.0
287.469055 184.0
287.560669 240.0
287.631561 60.0
287.668701 64.0
287.742432 128.0
287.820618 128.0
287.881561 96.0
287.956268 72.0
288.002991 52.0
288.033386 88.0
288.118866 108.0
288.163574 60.0
288.296936 124.0
288.437988 192.0
288.462555 100.0
288.496368 84.0
288.543701 52.0
288.587646 68.0
288.709381 184.0
288.746582 124.0
288.797302 136.0
288.852661 204.0
288.881897 72.0
288.970276 132.0
289.0849 88.0
289.152039 344.0
289.193878 196.0
289.263672 112.0
289.34552 52.0
289.380768 108.0
289.478882 156.0
289.548706 68.0
289.579285 124.0
289.655243 204.0
289.699341 128.0
289.735016 296.0
289.82077 280.0
289.902618 112.0
289.945648 132.0
289.984406 120.0
290.008392 132.0
290.042084 144.0
290.063873 140.0
290.105865 472.0
290.175171 115328.0
290.23111 204.0
290.263092 40.0
290.301544 328.0
290.343079 164.0
290.390533 132.0
290.420624 36.0
290.431885 92.0
290.460724 144.0
290.532318 264.0
290.558716 132.0
290.570496 120.0
290.59848 124.0
290.631073 168.0
290.700928 144.0
290.732513 404.0
290.760315 372.0
290.802216 232.0
290.837402 60.0
290.881165 168.0
290.908691 172.0
290.950836 140.0
290.981903 96.0
291.030853 192.0
291.086975 256.0
291.099365 216.0
291.125092 108.0
291.173889 39284.0
291.225189 268.0
291.277649 136.0
291.308167 148.0
291.36203 168.0
291.40329 100.0
291.412872 52.0
291.427826 164.0
291.461823 44.0
291.514099 172.0
291.543488 156.0
291.617645 152.0
291.657379 116.0
291.707611 108.0
291.729034 64.0
291.75528 236.0
291.787872 100.0
291.821899 68.0
291.885406 72.0
291.943024 108.0
291.976471 72.0
292.024384 76.0
292.095459 92.0
292.175415 5876.0
292.242523 212.0
292.284912 72.0
292.341827 80.0
292.399689 60.0
292.436401 80.0
292.472076 40.0
292.529114 64.0
292.534485 96.0
292.576721 76.0
292.608246 72.0
292.651459 76.0
292.679932 80.0
292.737854 92.0
292.763855 104.0
292.818329 88.0
292.901764 148.0
292.970215 196.0
293.039673 104.0
293.085358 124.0
293.11264 104.0
293.176025 1348.0
293.254913 68.0
293.283356 212.0
293.321716 296.0
293.348358 168.0
293.361176 76.0
293.370514 92.0
293.424255 60.0
293.478027 116.0
293.512512 128.0
293.541718 180.0
293.564667 152.0
293.60614 76.0
293.678284 36.0
293.739685 80.0
293.767151 84.0
293.814758 68.0
293.87616 68.0
293.913483 136.0
293.958069 104.0
293.98877 48.0
294.05191 80.0
294.097992 100.0
294.149353 120.0
294.204865 408.0
294.275513 188.0
294.306244 152.0
294.350616 104.0
294.405273 28.0
294.466736 80.0
294.491943 160.0
294.541595 92.0
294.584717 104.0
294.609253 204.0
294.647797 40.0
294.6922 64.0
294.781036 68.0
294.893829 40.0
294.921173 68.0
295.033966 68.0
295.07843 136.0
295.206909 132.0
295.27475 68.0
295.314392 96.0
295.355438 100.0
295.543579 44.0
295.592896 140.0
295.724976 36.0
295.758026 116.0
295.802826 160.0
295.855042 72.0
296.067352 96.0
296.272858 180.0
296.307129 216.0
296.457886 40.0
296.52066 76.0
296.629272 44.0
296.656677 160.0
296.742401 48.0
297.008209 140.0
297.056396 64.0
297.12793 128.0
297.212311 188.0
297.359863 132.0
297.471222 108.0
297.79248 40.0
298.187592 116.0
298.276978 56.0
298.307922 104.0
298.376678 104.0
298.407623 96.0
298.46933 80.0
298.500458 156.0
298.576569 60.0
298.734344 188.0
298.789368 92.0
298.8685 164.0
298.916687 48.0
298.961426 56.0
299.040588 92.0
299.243683 104.0
299.329773 96.0
299.364197 156.0
299.439972 204.0
299.477844 64.0
299.67627 196.0
299.715576 76.0
300.001617 56.0
300.046448 56.0
300.122314 104.0
300.198181 48.0
300.42926 128.0
300.54657 56.0
300.598328 80.0
300.645721 164.0
300.674255 112.0
300.701874 104.0
300.739838 48.0
300.895172 40.0
300.967682 84.0
301.184723 312.0
301.418274 72.0
301.651764 80.0
301.905884 144.0
301.9664 128.0
302.004456 92.0
302.167053 68.0
302.232788 88.0
302.278625 96.0
302.315826 68.0
302.52005 56.0
302.769348 148.0
302.806793 64.0
303.063812 120.0
303.105377 80.0
303.168396 316.0
303.285614 60.0
303.32373 140.0
303.396545 92.0
303.427734 140.0
303.618439 188.0
303.725983 36.0
303.798828 88.0
303.857788 36.0
303.958435 76.0
303.993134 84.0
304.040497 136.0
304.170959 284.0
304.381927 152.0
304.423584 32.0
304.493042 76.0
304.673676 176.0
304.739685 188.0
304.958618 144.0
304.996857 124.0
305.141479 236.0
305.233276 68.0
305.257599 68.0
305.365417 80.0
305.431519 104.0
305.725037 176.0
305.750153 76.0
305.796844 64.0
305.883881 136.0
305.950012 40.0
305.977875 92.0
306.078857 140.0
306.165894 96.0
306.200958 140.0
306.232086 148.0
306.277374 64.0
306.430634 92.0
306.626892 192.0
306.681549 56.0
306.737335 64.0
306.812103 116.0
306.904663 88.0
306.943024 148.0
307.037201 144.0
307.061615 84.0
307.138336 64.0
307.24649 44.0
307.6633 120.0
307.794983 104.0
307.836365 136.0
308.052917 56.0
308.178528 84.0
308.269531 92.0
308.416321 52.0
308.573639 128.0
308.92337 96.0
309.010834 152.0
309.210297 116.0
309.374817 72.0
309.46936 160.0
309.609406 60.0
309.678406 92.0
309.777557 40.0
309.949219 96.0
310.082397 124.0
310.331299 136.0
310.468048 92.0
310.499603 80.0
310.534668 132.0
310.622375 148.0
310.667877 124.0
310.706573 88.0
311.008362 136.0
311.036438 32.0
311.103149 180.0
311.152283 276.0
311.266113 184.0
311.324341 108.0
311.433228 132.0
311.819733 132.0
311.911102 76.0
312.349457 140.0
312.674377 48.0
312.709564 136.0
312.741241 64.0
312.839813 184.0
312.87149 128.0
312.924286 44.0
312.99118 172.0
313.082764 32.0
313.139099 76.0
313.283539 168.0
313.494934 64.0
313.573608 188.0
313.667633 108.0
313.928558 112.0
314.097839 160.0
314.143707 160.0
314.29541 64.0
314.404816 56.0
314.754303 92.0
314.810028 112.0
314.895569 172.0
314.969727 76.0
315.009888 152.0
315.153442 80.0
315.199371 148.0
315.337189 52.0
315.475067 128.0
315.524567 68.0
315.651855 88.0
315.719025 184.0
315.757935 136.0
316.016174 84.0
316.097565 80.0
316.168335 132.0
316.260345 160.0
316.784424 128.0
316.809235 80.0
316.855286 144.0
317.17981 344.0
317.227753 120.0
317.358582 72.0
317.422424 136.0
318.014893 156.0
318.128479 124.0
318.187592 128.0
318.200989 100.0
318.291809 96.0
318.668304 128.0
318.718048 128.0
318.945496 212.0
319.013031 168.0
319.199646 1116.0
319.261932 64.0
319.292114 108.0
319.336639 136.0
319.671051 120.0
319.955811 132.0
320.020996 52.0
320.094666 192.0
320.151642 196.0
320.216827 92.0
320.272736 92.0
320.31192 92.0
320.447296 68.0
320.55777 72.0
320.596954 84.0
320.63974 136.0
320.778748 112.0
320.839355 88.0
320.907074 96.0
320.960571 148.0
321.060425 160.0
321.217163 1060.0
321.31012 228.0
321.383667 188.0
321.434998 48.0
321.463531 452.0
321.613434 28.0
321.699127 116.0
321.734802 112.0
321.820496 228.0
322.20108 100.0
322.22467 160.0
322.377747 96.0
322.431366 176.0
322.470673 68.0
322.51355 136.0
322.563599 176.0
322.62796 176.0
322.753082 64.0
322.79599 140.0
323.096466 108.0
323.269562 220.0
323.640472 52.0
323.91983 160.0
323.987915 56.0
324.070312 96.0
324.310425 132.0
324.719147 32.0
324.869812 132.0
325.034851 44.0
325.149689 120.0
325.178406 156.0
325.272797 120.0
325.494324 140.0
325.645172 60.0
325.720581 104.0
325.803223 68.0
325.921783 56.0
326.220093 80.0
326.407043 160.0
326.453796 88.0
326.583282 120.0
326.658813 156.0
326.763153 84.0
327.112244 104.0
327.159027 180.0
327.183136 152.0
327.263458 112.0
327.295837 52.0
327.324646 144.0
327.476166 116.0
327.746094 48.0
327.9263 140.0
327.959961 148.0
328.103668 140.0
328.167816 52.0
328.641846 144.0
328.835205 48.0
328.896576 96.0
329.001251 160.0
329.098724 116.0
329.250397 44.0
329.293732 44.0
329.365967 196.0
329.398499 156.0
329.485199 112.0
329.633331 60.0
329.795959 76.0
329.936951 152.0
330.047485 192.0
330.074341 72.0
330.286041 112.0
330.454132 64.0
330.578949 164.0
330.649109 164.0
330.678253 56.0
330.772797 80.0
330.853516 80.0
330.961975 212.0
330.990509 124.0
331.019318 116.0
331.177643 156.0
331.210754 108.0
331.297089 220.0
331.34726 112.0
331.402924 100.0
331.446259 84.0
331.50061 96.0
331.529602 48.0
331.616577 40.0
331.652832 124.0
331.678223 124.0
331.74707 116.0
331.781738 180.0
331.841339 108.0
331.88681 156.0
331.915588 84.0
331.949432 164.0
332.051666 204.0
332.080688 80.0
332.148224 76.0
332.184174 68.0
332.26059 236.0
332.310913 156.0
332.32254 72.0
332.336273 132.0
332.378174 108.0
332.404907 164.0
332.444977 212.0
332.48703 84.0
332.516083 100.0
332.544556 200.0
332.608398 124.0
332.651093 136.0
332.721558 164.0
332.784332 80.0
332.819305 256.0
332.867279 156.0
332.897736 188.0
332.953918 60.0
332.966553 200.0
333.025909 152.0
333.061066 392.0
333.073792 140.0
333.088623 240.0
333.14032 136.0
333.149506 416.0
333.21756 149796.0
333.307556 132.0
333.331268 256.0
333.418793 72.0
333.448242 180.0
333.483856 116.0
333.517853 176.0
333.558624 224.0
333.614838 188.0
333.657562 268.0
333.695953 180.0
333.730865 128.0
333.816223 688.0
333.895752 236.0
333.920197 176.0
333.991425 368.0
334.041443 208.0
334.053406 212.0
334.069794 116.0
334.07666 256.0
334.103302 72.0
334.13147 240.0
334.220917 34168.0
334.340302 64.0
334.354523 56.0
334.361267 40.0
334.399261 152.0
334.433716 48.0
334.491211 100.0
334.557709 36.0
334.586914 60.0
334.642212 128.0
334.647217 112.0
334.683075 300.0
334.759796 72.0
334.800262 172.0
334.830841 200.0
334.916748 92.0
334.928558 56.0
334.944061 100.0
335.010193 88.0
335.050598 28.0
335.144104 160.0
335.221344 3928.0
335.313873 48.0
335.362152 48.0
335.391846 124.0
335.418762 84.0
335.51709 32.0
335.560822 108.0
335.586365 72.0
335.653412 52.0
335.697296 60.0
335.722443 112.0
335.77063 268.0
335.832977 128.0
335.888916 100.0
335.930023 148.0
335.974792 36.0
336.054962 192.0
336.11676 228.0
336.169281 124.0
336.220612 536.0
336.267029 160.0
336.361145 80.0
336.391266 96.0
336.447784 96.0
336.511108 88.0
336.552826 60.0
336.591156 204.0
336.620697 148.0
336.648071 64.0
336.684753 40.0
336.720703 52.0
336.735535 44.0
336.745087 92.0
336.77536 64.0
336.825348 80.0
336.88855 120.0
336.934692 112.0
337.004211 148.0
337.04129 80.0
337.101898 144.0
337.143616 112.0
337.180054 76.0
337.239319 76.0
337.256226 48.0
337.338776 244.0
337.372528 136.0
337.415558 72.0
337.522888 124.0
337.591064 52.0
337.616669 84.0
337.656158 60.0
337.709473 64.0
337.765839 168.0
337.821503 88.0
337.945892 36.0
337.982483 68.0
338.092255 84.0
338.289917 36.0
338.333862 100.0
338.396088 84.0
338.437683 120.0
338.574646 176.0
338.670746 136.0
338.700043 28.0
338.733032 76.0
338.758667 40.0
338.989502 116.0
339.187408 72.0
339.227722 64.0
339.255035 116.0
339.339691 88.0
339.462372 152.0
339.594421 68.0
339.821869 44.0
340.064056 36.0
340.317352 28.0
340.54834 76.0
340.76178 84.0
340.8685 92.0
341.014374 60.0
341.493347 48.0
341.695648 40.0
341.853882 180.0
341.95694 72.0
342.177795 100.0
342.384003 48.0
342.421997 88.0
342.634491 28.0
342.730286 68.0
343.150482 92.0
343.399048 168.0
343.564453 140.0
343.641022 60.0
343.847687 160.0
343.969482 68.0
344.046997 188.0
344.172546 60.0
344.220551 76.0
344.375641 148.0
344.429535 88.0
344.54187 72.0
344.608398 56.0
344.735199 152.0
344.926208 140.0
345.018646 120.0
345.059296 108.0
345.107361 92.0
345.281158 92.0
345.332947 48.0
345.37735 60.0
345.447632 120.0
345.492004 120.0
345.75473 44.0
345.82135 88.0
345.884277 96.0
345.995331 92.0
346.087891 144.0
346.113831 84.0
346.701294 96.0
346.802887 40.0
346.904999 128.0
346.991943 56.0
347.110779 84.0
347.233032 520.0
347.314606 100.0
347.429596 120.0
347.589142 168.0
347.667053 80.0
347.845215 36.0
348.236359 236.0
348.320526 60.0
348.818481 104.0
348.933716 64.0
349.059662 92.0
349.134521 80.0
349.245422 160.0
349.42923 176.0
349.807983 108.0
350.047516 204.0
350.269745 92.0
350.530548 84.0
350.854828 72.0
350.899567 56.0
351.349213 92.0
351.421722 56.0
351.65683 40.0
352.340179 60.0
352.456024 148.0
352.568115 104.0
352.843231 100.0
353.013 68.0
353.13269 144.0
353.166351 96.0
353.416992 152.0
353.935822 164.0
354.150757 112.0
354.420502 180.0
354.630371 112.0
354.727814 220.0
354.851532 60.0
355.039032 136.0
355.076538 64.0
355.147797 68.0
355.260345 88.0
355.290344 124.0
355.477936 44.0
355.583038 40.0
355.71817 72.0
355.748199 84.0
356.747467 116.0
356.796936 76.0
357.146088 96.0
357.398132 108.0
357.537384 108.0
357.748169 80.0
357.849823 76.0
358.000427 40.0
358.350739 52.0
358.437408 40.0
358.482635 68.0
358.520325 120.0
358.716309 84.0
359.104706 52.0
359.648041 92.0
359.765045 36.0
360.444916 72.0
360.607422 120.0
361.511322 64.0
362.022369 136.0
362.230682 168.0
362.351929 36.0
362.389801 224.0
362.674042 152.0
362.992493 96.0
363.565704 40.0
364.062653 52.0
364.203186 76.0
364.632538 56.0
364.76178 60.0
364.79599 52.0
365.105469 92.0
365.659424 60.0
366.108673 56.0
366.432465 92.0
366.855499 68.0
366.885986 88.0
367.187225 100.0
367.492401 140.0
368.042053 96.0
368.087891 144.0
368.290283 76.0
368.611206 92.0
368.714386 204.0
368.779358 40.0
368.85965 52.0
369.720245 112.0
369.900116 80.0
370.631622 48.0
370.765747 88.0
370.938232 112.0
371.072418 80.0
371.229645 128.0
371.411957 180.0
371.444427 92.0
371.63623 64.0
371.843475 132.0
372.404938 104.0
372.526947 96.0
372.868927 104.0
373.049591 108.0
373.194733 96.0
373.245667 124.0
373.535583 96.0
374.011292 112.0
374.288483 96.0
374.665924 92.0
374.83548 72.0
375.093689 96.0
375.267181 68.0
375.834167 52.0
375.930634 120.0
377.421722 60.0
377.553223 132.0
377.657623 128.0
377.878143 112.0
378.056152 48.0
378.087097 76.0
378.179993 128.0
378.679474 52.0
378.760803 52.0
378.838287 76.0
379.741455 144.0
379.908264 128.0
380.075073 124.0
380.172089 116.0
380.404999 48.0
380.855438 32.0
380.991394 108.0
381.399414 92.0
381.905762 92.0
381.971039 92.0
383.150604 92.0
383.364899 72.0
383.528595 136.0
383.883392 60.0
383.97699 128.0
384.133026 68.0
384.211029 164.0
384.89798 120.0
385.046387 104.0
385.108856 80.0
385.253387 48.0
385.503479 116.0
385.980377 64.0
386.093781 36.0
386.157745 68.0
386.456665 84.0
386.653259 40.0
386.82547 100.0
386.876373 112.0
387.224854 88.0
387.311035 60.0
387.397217 72.0
387.495148 156.0
387.63623 72.0
388.051727 128.0
388.29483 164.0
388.369354 144.0
388.950104 96.0
389.185669 156.0
389.382019 108.0
389.570557 88.0
389.873108 96.0
390.105011 164.0
390.359161 100.0
390.77359 96.0
391.785431 104.0
392.15976 64.0
392.24649 72.0
392.49881 40.0
392.759094 36.0
393.165497 92.0
393.439484 88.0
393.872253 92.0
394.03421 140.0
394.702209 112.0
395.525116 96.0
395.826019 80.0
396.012146 72.0
396.09137 116.0
396.170593 52.0
396.550995 116.0
396.81662 76.0
397.066437 80.0
397.272705 92.0
397.332214 76.0
397.586151 124.0
398.209473 92.0
398.670349 96.0
398.72995 64.0
398.785614 56.0
399.075806 136.0
399.214966 208.0
399.382019 44.0
399.409882 68.0
399.700287 112.0
399.875397 124.0
400.14212 32.0
400.197845 180.0
400.540344 64.0
400.938782 208.0
401.672424 116.0
402.163239 68.0
402.191162 104.0
402.957916 124.0
403.057831 48.0
403.089783 84.0
403.665436 56.0
403.69342 80.0
403.985413 188.0
405.030212 64.0
405.186432 56.0
405.338684 88.0
405.575165 172.0
405.755554 76.0
406.136505 96.0
406.280945 48.0
406.353149 92.0
406.806641 56.0
406.894989 124.0
406.980743 84.0
408.100342 104.0
409.102112 108.0
409.520905 128.0
409.714264 44.0
409.835144 48.0
410.076935 164.0
410.496216 32.0
410.524445 60.0
410.588989 88.0
410.847137 96.0
411.452515 112.0
411.86441 84.0
412.034088 136.0
412.834412 32.0
412.911255 80.0
413.024506 88.0
413.077087 68.0
413.107178 200.0
413.271301 64.0
413.319855 140.0
413.744843 52.0
413.829865 52.0
415.357727 40.0
415.483459 92.0
415.532166 52.0
415.666046 144.0
416.017456 160.0
416.23941 352.0
416.295258 140.0
416.3349 116.0
416.624268 128.0
417.050964 100.0
417.168854 164.0
417.250153 108.0
417.359924 116.0
418.083313 208.0
418.364868 96.0
418.825043 124.0
418.873901 96.0
418.963531 176.0
420.831482 124.0
421.223572 160.0
421.52182 60.0
421.987793 68.0
422.126831 112.0
422.249512 144.0
422.887787 164.0
423.383179 92.0
423.915741 100.0
424.169861 120.0
424.223145 136.0
424.284637 100.0
424.325653 100.0
424.592194 104.0
425.65097 40.0
426.164185 140.0
426.221954 76.0
426.394531 60.0
426.887878 60.0
426.924896 132.0
426.961914 104.0
427.21814 1416.0
427.332123 44.0
427.776947 96.0
427.887756 92.0
428.130707 104.0
428.220367 564.0
428.798126 136.0
429.228271 252.0
429.664093 48.0
429.849762 128.0
431.063812 144.0
431.291138 144.0
431.501984 60.0
431.701935 144.0
431.956879 100.0
432.031342 36.0
432.619019 128.0
432.739075 68.0
433.397644 160.0
433.571686 64.0
433.765442 156.0
434.388519 32.0
434.625 72.0
434.781586 104.0
434.849091 204.0
435.206116 84.0
435.766846 112.0
436.007874 144.0
436.099304 48.0
436.215698 112.0
436.797852 136.0
436.93515 152.0
437.172333 84.0
437.380432 148.0
437.601074 84.0
438.213348 104.0
438.246674 100.0
438.584229 96.0
439.109589 116.0
439.268097 168.0
439.572662 88.0
439.7229 88.0
440.269836 132.0
440.553864 116.0
440.63324 84.0
440.946655 64.0
441.644897 160.0
441.791321 60.0
441.967041 80.0
442.146973 152.0
442.201385 68.0
442.255798 96.0
442.733093 84.0
443.038879 104.0
443.236359 88.0
443.249481 180.0
444.074249 80.0
444.670044 208.0
444.724609 40.0
445.00589 88.0
445.148651 96.0
445.283051 92.0
445.68634 76.0
445.774567 160.0
446.08139 144.0
446.20752 96.0
446.77948 44.0
447.318146 72.0
447.364471 136.0
447.991943 116.0
448.312164 148.0
448.539764 144.0
448.923431 200.0
449.522461 76.0
449.556244 116.0
449.877014 208.0
450.818939 96.0
450.886536 124.0
451.179108 76.0
451.918365 84.0
452.206116 48.0
452.625244 128.0
453.269104 92.0
453.353882 160.0
453.557312 132.0
453.599701 156.0
453.705688 144.0
453.79895 140.0
454.061859 164.0
454.218811 72.0
454.71524 60.0
454.744965 148.0
455.050598 40.0
456.551117 168.0
456.678192 128.0
457.175995 76.0
457.248322 68.0
457.393066 36.0
457.806061 80.0
458.112732 68.0
458.163849 176.0
458.287292 296.0
458.419495 156.0
458.50473 128.0
458.786072 52.0
459.16983 112.0
459.293274 240.0
459.579346 88.0
459.852478 92.0
460.330627 36.0
460.586884 80.0
461.069702 88.0
461.13739 48.0
461.18512 120.0
461.249237 40.0
461.557037 72.0
461.805084 104.0
461.971924 68.0
462.592438 44.0
463.012054 48.0
463.830414 208.0
464.091949 40.0
464.181976 76.0
464.782532 124.0
465.443573 156.0
465.851593 112.0
465.881683 164.0
465.966736 160.0
466.307068 60.0
466.35434 152.0
466.41452 116.0
466.560699 116.0
466.629486 116.0
466.810089 64.0
467.446747 36.0
467.894379 124.0
468.06662 116.0
468.350861 60.0
468.389618 104.0
468.609344 80.0
468.751526 56.0
468.958405 64.0
469.246033 188.0
469.276825 244.0
469.350708 184.0
469.398132 76.0
469.445587 48.0
469.691437 148.0
470.140137 136.0
470.287445 512.0
470.826569 192.0
470.943176 84.0
471.270416 104.0
471.301758 156.0
471.604279 84.0
471.859344 100.0
471.911224 120.0
472.006348 84.0
472.378296 148.0
472.74173 48.0
472.932159 84.0
473.13562 40.0
473.773743 124.0
473.971558 52.0
474.326965 96.0
474.548065 72.0
474.964386 188.0
475.07608 64.0
475.250702 132.0
475.38089 52.0
475.554504 136.0
476.210114 40.0
476.37085 84.0
476.457733 68.0
476.492493 32.0
476.744507 44.0
476.922699 132.0
477.07486 124.0
477.127014 96.0
477.200928 68.0
477.569489 80.0
477.892487 44.0
478.018677 64.0
478.536682 40.0
478.641174 76.0
478.723907 132.0
478.942657 216.0
479.098511 84.0
479.137726 96.0
479.194366 128.0
479.351227 68.0
479.752197 72.0
479.856842 68.0
479.90918 60.0
480.114105 136.0
480.196991 108.0
480.345276 104.0
480.572144 52.0
480.663788 56.0
480.951843 96.0
481.07843 52.0
481.196289 72.0
481.449554 48.0
481.517334 116.0
481.602417 112.0
481.707275 152.0
482.061157 76.0
482.117981 64.0
482.24472 144.0
482.29718 140.0
482.327789 100.0
482.376587 72.0
482.434204 140.0
482.575989 72.0
482.623108 160.0
482.712524 132.0
482.743134 92.0
482.799988 104.0
482.839355 88.0
482.878723 60.0
482.909332 116.0
482.983673 212.0
483.108093 136.0
483.294312 52.0
483.416656 108.0
483.513641 100.0
483.609131 100.0
483.70813 100.0
483.745087 136.0
483.827423 104.0
483.87204 72.0
483.937897 96.0
483.973175 176.0
484.029663 48.0
484.07785 44.0
484.10849 64.0
484.177521 68.0
484.192474 60.0
484.2659 64.0
484.30072 128.0
484.316254 128.0
484.424286 120.0
484.49527 180.0
484.533386 100.0
484.583954 72.0
484.632568 164.0
484.683777 172.0
484.793213 132.0
484.859863 252.0
484.913147 280.0
484.931946 288.0
484.944702 232.0
484.960266 116.0
485.015442 124.0
485.128998 180.0
485.164642 228.0
485.300598 87908.0
485.415985 112.0
485.466064 252.0
485.528046 48.0
485.534943 172.0
485.548828 104.0
485.668762 104.0
485.682892 100.0
485.702301 124.0
485.716858 172.0
485.791748 228.0
485.824585 160.0
485.887634 228.0
485.941803 132.0
486.017273 192.0
486.087311 328.0
486.12262 184.0
486.21051 256.0
486.302826 27212.0
486.45993 188.0
486.521759 84.0
486.583344 120.0
486.640961 128.0
486.701324 188.0
486.736206 176.0
486.782928 92.0
486.86731 108.0
486.955933 96.0
486.970551 96.0
486.988708 56.0
487.042236 320.0
487.149078 196.0
487.194336 76.0
487.233215 168.0
487.303986 4852.0
487.42392 36.0
487.477631 72.0
487.556732 80.0
487.587494 64.0
487.635834 88.0
487.67099 32.0
487.701782 68.0
487.740143 160.0
487.772095 72.0
487.814484 120.0
487.85083 76.0
487.905609 120.0
487.959747 88.0
487.993164 128.0
488.024902 72.0
488.082916 136.0
488.139557 104.0
488.167206 120.0
488.234192 124.0
488.305878 1384.0
488.427765 116.0
488.471283 40.0
488.510864 40.0
488.554871 44.0
488.659668 68.0
488.734924 56.0
488.795685 108.0
488.828278 84.0
488.857422 152.0
488.889282 88.0
488.937683 144.0
489.001099 204.0
489.104767 104.0
489.147339 120.0
489.195312 68.0
489.231934 80.0
489.282684 116.0
489.350586 100.0
489.385223 144.0
489.434021 204.0
489.469177 184.0
489.562836 48.0
489.611267 48.0
489.654968 52.0
489.694946 72.0
489.741943 84.0
489.82077 128.0
489.956818 72.0
490.095856 96.0
490.149506 160.0
490.195831 64.0
490.285187 80.0
490.305176 84.0
490.318909 84.0
490.421967 108.0
490.567444 60.0
490.801117 60.0
490.862854 56.0
490.912659 84.0
491.033508 92.0
491.11731 80.0
491.175964 88.0
491.277435 48.0
491.374512 92.0
491.471558 48.0
491.524506 60.0
491.921753 48.0
492.027679 72.0
492.093933 84.0
492.292633 52.0
492.358856 68.0
492.712677 40.0
492.942017 88.0
493.220459 112.0
493.330963 116.0
493.839478 44.0
493.967773 92.0
494.034119 76.0
494.445648 100.0
494.57843 48.0
494.85733 112.0
494.990143 52.0
495.127441 132.0
495.344482 128.0
495.760956 68.0
495.904907 108.0
495.942688 48.0
496.000305 124.0
496.341675 96.0
496.474731 52.0
497.294647 84.0
497.670868 108.0
497.752777 48.0
497.877106 32.0
498.059235 52.0
498.265259 116.0
498.739075 60.0
499.508331 44.0
499.632904 72.0
499.712982 32.0
499.753021 112.0
499.997772 44.0
500.874939 48.0
501.030853 40.0
501.525482 84.0
501.574524 136.0
501.931183 44.0
502.096191 44.0
502.185394 52.0
502.644897 48.0
502.685059 80.0
502.720764 60.0
502.841278 76.0
503.451233 128.0
503.551178 68.0
503.698578 92.0
504.006836 56.0
504.047058 32.0
504.203461 48.0
504.365265 80.0
504.561066 52.0
504.704163 88.0
504.874084 92.0
504.936676 92.0
505.00824 68.0
505.048523 40.0
505.227448 68.0
505.545135 48.0
505.670441 36.0
505.746521 104.0
506.440552 56.0
507.242645 40.0
507.686523 44.0
507.73587 56.0
507.86145 64.0
507.906311 64.0
508.417786 44.0
508.736481 40.0
509.46402 116.0
509.599548 48.0
510.704681 64.0
510.88913 72.0
511.852325 80.0
511.964905 48.0
512.316223 88.0
514.327454 76.0
514.873779 120.0
515.566345 80.0
515.689819 116.0
515.785645 92.0
516.690918 72.0
516.862854 52.0
519.572327 64.0
519.749268 48.0
519.930847 132.0
522.393555 124.0
523.299194 76.0
523.690857 120.0
525.966187 140.0
526.550598 72.0
527.226746 36.0
528.026855 52.0
528.145752 36.0
528.493469 64.0
528.571228 96.0
528.83667 44.0
530.342834 116.0
530.412354 88.0
530.536133 52.0
530.815857 52.0
530.930481 100.0
531.416748 68.0
532.977905 60.0
533.851318 92.0
534.049072 52.0
534.430908 48.0
534.937134 72.0
535.314697 104.0
536.037964 44.0
537.573547 52.0
537.702759 60.0
538.012024 72.0
538.312195 80.0
539.471924 76.0
540.628235 32.0
541.429138 32.0
541.461609 68.0
541.614441 64.0
541.887756 52.0
542.494873 76.0
542.573669 84.0
542.726685 56.0
542.856506 116.0
543.575562 60.0
543.919006 104.0
543.974731 68.0
544.694519 80.0
547.694763 96.0
549.344971 44.0
549.713562 92.0
550.591248 100.0
551.179871 104.0
552.37207 72.0
552.489014 92.0
552.947571 92.0
553.275269 64.0
554.840027 92.0
555.660767 100.0
555.84845 84.0
556.003357 88.0
556.543213 84.0
557.375549 76.0
558.107849 36.0
558.883972 84.0
559.166321 112.0
560.192871 144.0
562.607422 80.0
563.854431 84.0
564.251526 44.0
565.680237 176.0
565.760681 44.0
567.390442 92.0
569.164978 84.0
569.749207 36.0
570.26239 76.0
571.984253 124.0
572.241333 112.0
573.439697 152.0
575.249634 60.0
576.271667 56.0
576.744812 96.0
580.522339 112.0
581.021179 72.0
581.37146 108.0
581.424255 96.0
581.563416 64.0
582.264404 84.0
583.066772 108.0
583.292664 52.0
584.062012 40.0
584.591309 68.0
586.869751 68.0
587.655945 56.0
589.751831 92.0
592.413269 64.0
593.702576 64.0
594.173096 56.0
594.988464 32.0
595.236084 108.0
596.304871 148.0
596.917419 84.0
597.102234 104.0
597.432983 124.0
598.937195 224.0
600.189697 88.0
600.584778 92.0
602.879456 108.0
603.862183 108.0
603.925781 92.0
604.322021 40.0
605.065979 48.0
605.643799 56.0
605.839783 68.0
605.932861 100.0
607.575256 56.0
610.925781 60.0
612.32373 92.0
612.855774 68.0
613.264832 80.0
615.430542 96.0
616.38385 92.0
616.566711 92.0
616.858337 76.0
617.085754 108.0
618.807556 104.0
619.461304 80.0
620.933411 88.0
621.017761 96.0
622.05481 132.0
623.132507 44.0
624.937378 80.0
625.5495 28.0
626.994019 68.0
627.088684 88.0
627.163452 96.0
627.228271 92.0
628.390259 132.0
630.727417 56.0
631.26239 68.0
633.254272 100.0
633.389526 84.0
633.47467 76.0
635.329529 176.0
636.986206 52.0
637.031372 28.0
637.438354 44.0
638.272827 80.0
639.097778 56.0
640.336182 96.0
641.127136 64.0
643.41217 96.0
643.614136 80.0
643.901978 68.0
644.710327 48.0
645.944031 84.0
648.004517 120.0
648.531494 76.0
648.810303 52.0
649.094299 128.0
651.144531 32.0
652.292847 48.0
652.872498 112.0
652.96405 76.0
653.259094 48.0
654.460205 48.0
654.714783 40.0
655.61145 48.0
656.926941 52.0
660.405579 92.0
661.403381 88.0
661.853882 56.0
663.262756 100.0
663.596008 72.0
664.82196 84.0
666.629639 88.0
668.769165 64.0
669.294312 40.0
670.278137 100.0
671.066772 48.0
672.841614 44.0
672.908752 88.0
676.486328 32.0
676.998962 100.0
677.408142 56.0
677.734497 120.0
677.915894 56.0
679.201721 116.0
681.105591 92.0
681.418396 104.0
683.820923 180.0
684.31543 88.0
685.794922 72.0
686.723022 96.0
687.192566 96.0
688.252136 104.0
689.652222 40.0
691.550903 36.0
691.849304 40.0
692.132019 68.0
693.656616 204.0
694.296326 28.0
696.064819 40.0
696.637329 80.0
696.80542 68.0
697.294128 48.0
697.34668 112.0
698.90332 40.0
699.729675 68.0
699.971924 84.0
700.171997 76.0
701.030762 52.0
701.088745 48.0
702.011292 84.0
703.008362 36.0
703.256409 40.0
704.43396 68.0
706.696716 100.0
708.141907 44.0
710.145447 104.0
710.914734 56.0
711.684448 76.0
712.295166 36.0
712.49707 36.0
713.586609 52.0
715.310303 80.0
715.571167 56.0
716.018494 192.0
718.881348 220.0
720.178711 164.0
720.242798 40.0
721.509277 52.0
722.257996 52.0
726.430908 96.0
727.434387 156.0
727.944458 72.0
728.422485 160.0
729.642395 96.0
729.717651 84.0
730.320007 68.0
731.175476 56.0
731.832214 104.0
732.333069 164.0
733.550842 36.0
733.901306 200.0
733.949829 56.0
734.850586 108.0
735.676331 72.0
738.134705 76.0
738.941895 192.0
739.882385 212.0
740.212646 148.0
742.602661 56.0
743.600952 48.0
743.666138 80.0
744.322998 72.0
744.393616 48.0
748.031006 72.0
748.292297 120.0
748.346741 60.0
748.717041 68.0
750.193665 72.0
750.809814 116.0
753.839722 36.0
754.413635 96.0
754.522949 172.0
755.956055 236.0
756.366516 60.0
758.387756 152.0
758.793396 88.0
758.831787 224.0
760.894714 220.0
761.987671 64.0
763.394836 32.0
763.675354 136.0
765.53009 68.0
767.92749 112.0
768.214294 64.0
768.297058 48.0
769.516785 56.0
769.958557 60.0
770.350708 176.0
771.472595 168.0
771.621826 72.0
772.307556 60.0
772.440308 100.0
772.523315 104.0
772.606262 52.0
772.982544 68.0
774.289062 80.0
774.333313 140.0
775.264099 176.0
775.531921 88.0
775.762939 224.0
778.498352 96.0
780.059631 60.0
781.055054 36.0
781.149597 136.0
781.450012 196.0
782.902893 88.0
783.643738 120.0
784.630249 76.0
784.725037 44.0
785.533691 232.0
786.23114 72.0
789.426697 60.0
790.623901 72.0
792.488647 48.0
793.845154 76.0
796.292053 68.0
798.30719 144.0
798.669617 144.0
800.318604 192.0
800.431213 64.0
800.543823 184.0
800.588867 188.0
801.828308 136.0
802.2229 240.0
804.389099 68.0
805.24176 48.0
805.394226 92.0
805.642761 56.0
806.043945 56.0
806.224792 72.0
807.067078 80.0
807.406372 40.0
811.336121 144.0
811.421143 84.0
811.863464 128.0
813.14563 232.0
813.423767 60.0
814.451538 236.0
814.519714 124.0
815.738464 136.0
816.065552 64.0
816.358093 124.0
816.816223 168.0
817.294128 252.0
817.61853 120.0
817.925842 148.0
819.292603 192.0
820.261353 96.0
820.392456 88.0
821.128052 92.0
821.715637 88.0
821.789795 180.0
821.841125 96.0
823.05127 244.0
823.805176 156.0
824.085083 140.0
825.153931 148.0
826.017456 164.0
827.625671 176.0
828.26709 28.0
829.588623 104.0
831.62146 48.0
831.971619 200.0
832.172607 156.0
832.212769 100.0
832.402283 136.0
833.097229 108.0
834.534058 124.0
835.454285 116.0
835.713196 232.0
836.093018 36.0
837.509399 96.0
838.344788 44.0
838.909668 92.0
839.169128 88.0
839.68811 36.0
839.780396 36.0
842.233521 168.0
842.297058 196.0
843.111755 44.0
844.163879 100.0
844.737 132.0
847.829712 176.0
848.326904 88.0
848.697937 128.0
848.947327 116.0
850.548645 180.0
851.489258 84.0
852.157349 96.0
852.43042 148.0
852.819824 68.0
852.941895 160.0
853.436035 268.0
853.83728 128.0
854.22699 36.0
854.27356 160.0
854.919373 196.0
855.181274 172.0
855.629517 72.0
856.467407 136.0
856.60791 96.0
858.175659 216.0
858.478882 72.0
859.593079 48.0
860.1651 252.0
860.386902 188.0
862.684143 180.0
863.273376 160.0
863.378662 68.0
863.975281 192.0
864.109863 72.0
864.624817 64.0
865.210144 48.0
865.637573 220.0
865.819153 252.0
867.729431 240.0
868.268921 148.0
868.920044 252.0
869.600769 144.0
869.682922 184.0
870.299377 204.0
870.703369 200.0
871.844299 128.0
872.249878 96.0
872.543823 164.0
872.637878 160.0
872.767212 104.0
873.467102 72.0
873.820068 104.0
874.202515 76.0
874.390869 120.0
874.596863 56.0
874.761719 172.0
874.844116 188.0
876.805603 124.0
876.935242 56.0
877.3302 56.0
877.38324 52.0
878.185242 180.0
878.303223 180.0
878.810547 132.0
879.943787 72.0
880.652466 144.0
880.741028 140.0
880.882812 200.0
881.692322 152.0
881.733704 160.0
882.088318 48.0
882.253845 140.0
882.472595 184.0
882.73999 232.0
882.78009 112.0
882.851074 84.0
883.15863 196.0
883.223694 128.0
883.389282 200.0
884.14502 232.0
884.484253 120.0
884.578735 232.0
884.756348 140.0
884.851074 72.0
884.932312 200.0
885.277405 128.0
886.035583 160.0
886.171875 132.0
886.361511 52.0
886.9245 200.0
888.217163 168.0
888.407043 68.0
889.190308 176.0
889.724548 208.0
889.896729 168.0
890.116394 196.0
890.502441 176.0
891.102417 84.0
891.28064 144.0
891.571838 224.0
892.826294 132.0
893.183167 208.0
893.647217 120.0
893.795959 200.0
894.194641 128.0
894.563721 208.0
895.445007 172.0
895.665344 220.0
895.742798 112.0
896.046631 80.0
897.14917 128.0
897.638123 140.0
897.817017 164.0
898.771484 212.0
898.866943 300.0
899.051941 44.0
899.278748 160.0
899.706848 300.0
900.962708 208.0
901.285339 80.0
901.357056 160.0
901.476562 132.0
902.301453 160.0
902.8396 156.0
903.509521 256.0
903.78479 128.0
903.86853 148.0
904.622681 64.0
905.850281 140.0
905.916199 108.0
906.820984 140.0
906.922913 132.0
908.140076 104.0
908.308044 92.0
908.541992 196.0
908.721985 144.0
908.973999 160.0
909.081909 224.0
909.208069 180.0
909.706238 212.0
910.27063 172.0
910.865234 148.0
911.087524 128.0
911.255737 192.0
911.299622 184.0
911.48407 116.0
911.688354 64.0
911.916748 136.0
912.602112 80.0
912.854614 148.0
914.099854 160.0
914.394775 220.0
914.557251 168.0
914.834167 204.0
914.934631 152.0
916.110901 112.0
916.870117 40.0
916.912292 148.0
917.056946 52.0
917.340271 176.0
917.412598 124.0
917.557251 176.0
917.708008 168.0
918.425659 72.0
918.546326 136.0
918.612671 136.0
918.775574 76.0
918.968628 144.0
919.17981 76.0
920.085205 132.0
920.640686 116.0
920.898132 192.0
921.280945 68.0
921.552856 228.0
922.042297 132.0
922.280762 152.0
922.568176 116.0
923.094238 120.0
923.539001 172.0
924.195129 204.0
924.751892 140.0
925.608582 168.0
927.174561 132.0
927.307861 144.0
928.14447 192.0
928.767944 176.0
928.920776 204.0
929.236267 180.0
929.673157 116.0
929.867371 40.0
929.915955 140.0
930.589783 144.0
930.850891 140.0
931.610107 124.0
931.676941 116.0
931.719482 136.0
931.761963 240.0
932.345337 172.0
932.406128 124.0
932.677612 144.0
932.807251 128.0
933.980896 176.0
934.041687 188.0
934.193787 44.0
934.560669 240.0
934.738281 104.0
934.992188 208.0
935.270874 140.0
935.435242 196.0
936.220642 164.0
936.397278 148.0
936.76886 120.0
936.872437 72.0
937.859619 248.0
938.969299 152.0
939.67688 76.0
939.805054 212.0
940.030823 156.0
940.18335 100.0
940.867004 208.0
940.989136 192.0
941.135681 140.0
941.85022 76.0
942.08844 188.0
942.149536 120.0
942.247314 108.0
942.870605 128.0
943.066162 220.0
943.408508 152.0
943.744751 124.0
944.191162 188.0
944.490845 140.0
944.684326 192.0
944.709229 120.0
944.718628 156.0
945.734131 88.0
945.953369 100.0
946.032959 128.0
947.306702 180.0
947.416992 132.0
947.515015 188.0
949.194336 164.0
949.961121 228.0
951.145508 156.0
952.520996 144.0
952.588562 192.0
952.729858 176.0
952.840454 196.0
953.436462 220.0
953.479492 144.0
953.885193 132.0
953.983521 128.0
954.401611 60.0
954.653748 168.0
955.102722 52.0
956.136414 140.0
956.561096 156.0
957.176758 80.0
957.410767 108.0
957.552429 96.0
957.940491 120.0
958.162292 56.0
959.327087 176.0
959.512024 160.0
959.56134 196.0
959.968323 144.0
960.233521 124.0
960.498718 64.0
960.689941 164.0
960.88031 192.0
961.276123 68.0
961.411865 184.0
961.473572 116.0
962.5354 72.0
962.609497 180.0
962.702148 288.0
962.930664 216.0
963.511292 180.0
963.671936 112.0
963.980896 144.0
964.296082 144.0
965.260498 172.0
965.501709 92.0
965.749084 104.0
965.922302 144.0
966.565735 176.0
966.961792 100.0
967.240356 60.0
967.580811 152.0
967.630371 132.0
967.983276 116.0
968.193848 152.0
968.534546 44.0
968.652222 96.0
969.197388 60.0
969.352356 124.0
969.532043 144.0
969.581604 36.0
969.786133 104.0
970.009338 172.0
970.437073 176.0
970.50531 128.0
971.026184 116.0
971.764404 164.0
971.851257 68.0
972.136719 192.0
972.182373 56.0
972.893982 188.0
973.427979 172.0
973.999329 84.0
974.173279 132.0
974.459045 124.0
975.440979 64.0
975.795349 208.0
976.423401 112.0
976.833923 132.0
977.182312 72.0
977.44989 92.0
978.325562 128.0
978.377319 108.0
979.05603 48.0
979.58667 144.0
980.102539 128.0
981.292603 152.0
981.380371 136.0
982.374023 160.0
982.60907 132.0
982.765076 144.0
982.914795 136.0
983.020874 140.0
983.420349 216.0
983.695007 176.0
983.957153 152.0
984.569153 156.0
984.706543 52.0
984.893921 124.0
984.975098 368.0
985.63739 80.0
985.887329 92.0
986.499878 196.0
986.631165 56.0
987.016113 176.0
987.14386 152.0
987.218933 148.0
987.316772 168.0
987.500366 140.0
987.66925 208.0
988.057129 96.0
989.064636 200.0
989.446472 164.0
989.61554 144.0
989.689575 156.0
990.235535 140.0
990.686523 200.0
991.369507 184.0
991.588867 136.0
991.921082 136.0
992.426758 132.0
992.497864 208.0
992.660889 212.0
992.751282 192.0
992.805115 164.0
993.074829 40.0
993.219055 164.0
993.934998 144.0
994.298279 140.0
994.423767 176.0
994.624634 136.0
994.781616 88.0
995.09552 168.0
995.208496 140.0
995.283875 52.0
995.880493 156.0
996.182007 72.0
996.445862 124.0
996.734863 148.0
996.835449 80.0
996.910828 104.0
997.237671 180.0
997.570801 164.0
997.700073 136.0
997.815979 176.0
997.916565 180.0
997.985779 128.0
998.627197 188.0
998.859924 184.0
999.004639 48.0
999.470215 116.0
999.587769 176.0
999.74707 100.0
1000.439453 220.0
1000.773132 148.0
1000.930603 112.0
1001.367859 64.0
1001.743042 220.0
1001.938354 160.0
1002.064331 48.0
1002.12738 132.0
1003.747314 140.0
1003.854492 36.0
1003.961731 188.0
1004.100464 172.0
1004.266602 140.0
1004.313049 160.0
1004.396912 108.0
1004.605103 112.0
1004.687134 168.0
1004.958435 196.0
1005.608398 200.0
1005.766174 60.0
1005.961914 144.0
1006.01239 88.0
1006.239685 104.0
1006.479614 100.0
1006.703064 176.0
1006.826904 128.0
1007.029053 160.0
1007.07959 200.0
1007.338562 60.0
1007.818726 148.0
1008.36853 172.0
1008.45697 164.0
1008.652954 96.0
1008.893188 156.0
1009.165527 240.0
1010.018799 72.0
1010.303467 192.0
1010.588867 148.0
1010.872925 132.0
1010.935242 104.0
1010.961243 88.0
1011.170349 136.0
1011.743347 92.0
1011.866699 192.0
1011.993347 136.0
1012.360596 136.0
1012.42395 128.0
1012.478333 256.0
1012.708923 112.0
1012.825073 192.0
1012.930603 176.0
1013.139709 80.0
1013.184021 176.0
1014.533936 104.0
1014.609985 132.0
1014.768494 176.0
1014.863586 156.0
1015.21875 212.0
1015.377258 172.0
1015.618286 132.0
1015.732483 136.0
1016.220947 160.0
1016.385925 176.0
1016.855591 152.0
1016.96344 92.0
1017.045959 192.0
1017.096741 156.0
1017.28717 72.0
1017.860291 212.0
1018.527771 172.0
1019.001953 140.0
1019.364136 112.0
1019.538391 188.0
1020.082336 172.0
1020.482849 208.0
1020.590942 116.0
1020.641846 120.0
1020.800781 44.0
1021.010681 160.0
1021.16333 160.0
1021.30957 104.0
1021.665833 108.0
1021.780334 48.0
1021.945801 136.0
1022.652161 136.0
1022.760376 148.0
1022.913147 140.0
1023.212341 104.0
1023.549805 144.0
1024.849243 152.0
1024.944824 116.0
1025.065918 36.0
1025.116943 56.0
1025.167847 140.0
1025.28894 248.0
1025.588501 112.0
1025.849854 68.0
1025.967529 156.0
1026.226074 156.0
1026.55127 132.0
1026.608643 144.0
1026.704346 92.0
1027.033203 172.0
1027.240112 92.0
1028.095093 48.0
1028.299316 164.0
1028.624878 56.0
1028.707764 136.0
1029.301636 208.0
1029.661255 180.0
1030.157471 52.0
1030.566284 108.0
1030.636597 140.0
1030.894165 160.0
1031.21814 100.0
1032.228271 116.0
1032.349731 216.0
1032.592773 168.0
1032.718018 152.0
1032.810303 140.0
1033.002197 128.0
1033.296509 212.0
1033.398804 96.0
1033.469238 216.0
1034.256348 180.0
1034.877441 108.0
1035.10791 168.0
1035.319214 124.0
1035.364014 148.0
1035.421753 100.0
1035.825195 224.0
1035.882935 120.0
1036.030273 40.0
1036.381226 196.0
1036.594116 80.0
1036.754272 188.0
1036.953003 136.0
1037.055542 44.0
1037.414429 156.0
1037.714844 176.0
1038.113403 128.0
1038.6521 136.0
1038.857422 56.0
1039.005005 148.0
1039.19104 184.0
1039.261597 160.0
1040.097656 196.0
1040.161133 128.0
1040.256348 120.0
1040.397583 72.0
1040.487549 204.0
1040.87915 56.0
1041.148926 120.0
1041.640259 160.0
1042.025024 236.0
1042.283081 152.0
1042.362915 140.0
1042.372314 136.0
1042.397217 200.0
1042.562256 164.0
1042.73584 160.0
1042.780762 196.0
1042.870728 152.0
1043.197998 132.0
1043.841553 100.0
1044.028076 116.0
1044.41394 148.0
1044.684082 132.0
1044.819214 160.0
1044.870728 112.0
1044.915771 176.0
1045.411255 160.0
1045.472046 208.0
1045.552734 176.0
1045.642822 136.0
1045.758789 68.0
1046.148193 96.0
1046.310059 152.0
1046.479736 232.0
1046.595703 196.0
1047.02063 204.0
1047.465088 140.0
1047.690552 280.0
1047.84375 244.0
1048.012695 112.0
1048.128662 216.0
1048.386475 184.0
1048.554077 144.0
1048.702637 68.0
1048.80542 204.0
1049.282471 160.0
1049.367065 152.0
1049.579102 116.0
1049.953125 88.0
1050.062744 176.0
1050.133667 196.0
1050.288452 152.0
1050.648926 200.0
1051.101318 108.0
1051.346558 128.0
1051.469238 172.0
1051.659668 140.0
1051.946899 240.0
1052.153442 116.0
1052.592529 44.0
1052.650635 120.0
1053.341675 100.0
1053.419189 176.0
1053.741577 200.0
1053.819824 196.0
1053.974854 204.0
1054.091187 192.0
1054.7052 200.0
1055.170654 192.0
1055.565063 172.0
1055.83667 164.0
1055.972534 112.0
1056.095337 120.0
1056.192383 156.0
1056.25708 128.0
1056.392944 136.0
1056.477051 196.0
1056.942871 132.0
1057.298828 124.0
1057.55127 196.0
1057.920166 176.0
1058.399292 136.0
1058.528809 148.0
1058.677734 148.0
1058.758057 132.0
1059.273682 92.0
1059.481689 144.0
1059.765991 28.0
1059.940918 76.0
1060.070557 192.0
1060.433472 112.0
1060.783569 176.0
1060.880737 248.0
1060.997437 48.0
1061.102905 92.0
1061.256836 128.0
1061.341064 148.0
1061.795044 160.0
1061.911743 92.0
1062.210205 148.0
1062.547485 180.0
1062.729248 168.0
1063.222412 208.0
1063.319702 172.0
1063.436523 164.0
1063.689697 152.0
1063.9104 128.0
1064.054688 212.0
1064.111694 108.0
1064.295044 136.0
1064.715576 92.0
1064.774048 160.0
1064.819458 144.0
1064.890991 200.0
1065.488525 156.0
1065.700806 172.0
1065.83374 160.0
1065.97937 172.0
1066.112427 168.0
1066.196899 92.0
1066.287842 44.0
1066.398315 124.0
1066.560791 300.0
1067.204468 348.0
1067.255981 216.0
1067.419067 168.0
1067.516602 132.0
1067.64563 156.0
1067.763672 128.0
1067.841797 220.0
1068.310059 220.0
1068.433716 196.0
1068.628906 36.0
1068.898682 124.0
1069.090942 52.0
1069.195068 160.0
1069.260132 52.0
1069.598633 68.0
1070.138916 216.0
1070.19751 28.0
1070.34729 144.0
1070.685913 164.0
1070.874756 180.0
1070.998535 160.0
1071.226562 140.0
1071.304688 36.0
1071.441528 128.0
1071.943237 132.0
1072.027954 140.0
1072.155151 148.0
1072.321289 112.0
1073.103516 144.0
1073.266479 112.0
1073.638184 124.0
1073.77478 136.0
1073.830078 220.0
1073.996948 160.0
1074.186157 172.0
1074.290527 152.0
1074.355713 184.0
1074.518799 272.0
1074.590576 188.0
1074.675415 32.0
1074.761963 164.0
1074.897339 108.0
1075.093018 176.0
1075.452026 124.0
1075.523804 152.0
1075.787354 148.0
1076.261597 188.0
1076.39209 124.0
1077.045288 112.0
1077.254272 152.0
1077.332642 80.0
1077.515625 132.0
1077.894531 136.0
1078.312866 148.0
1078.49585 172.0
1078.587402 220.0
1078.639648 80.0
1078.737671 128.0
1078.816162 164.0
1079.208496 180.0
1079.411133 120.0
1079.483032 48.0
1079.561523 148.0
1079.613892 164.0
1079.725098 184.0
1079.790405 196.0
1079.88855 144.0
1080.058594 188.0
1080.44458 144.0
1080.640869 128.0
1080.699707 212.0
1080.948364 144.0
1081.000732 148.0
1081.144775 216.0
1081.216675 204.0
1081.334473 84.0
1081.380371 244.0
1081.530884 228.0
1081.655273 152.0
1081.727295 192.0
1082.218262 92.0
1082.336182 108.0
1082.39502 120.0
1082.499878 108.0
1082.578491 156.0
1082.650513 148.0
1082.765137 164.0
1082.860107 112.0
1082.984497 196.0
1083.06311 80.0
1083.140137 120.0
1083.410278 176.0
1083.502075 96.0
1083.724731 160.0
1084.019653 160.0
1084.072021 88.0
1084.727539 172.0
1084.937256 120.0
1085.44873 140.0
1085.783569 132.0
1086.288208 152.0
1086.583496 164.0
1086.70813 200.0
1086.944336 136.0
1087.535034 120.0
1087.607178 128.0
1087.784424 144.0
1087.889404 188.0
1088.001099 144.0
1088.854736 204.0
1089.307983 184.0
1089.439331 168.0
1089.485352 184.0
1090.116089 124.0
1090.257446 128.0
1090.398682 156.0
1090.740479 136.0
1090.845703 156.0
1090.957397 128.0
1091.102051 36.0
1091.404541 116.0
1091.516235 172.0
1091.568848 140.0
1091.768677 160.0
1091.930542 52.0
1092.17395 132.0
1092.483154 124.0
1092.700195 176.0
1092.981934 164.0
1093.099609 156.0
1093.112793 108.0
1093.430664 152.0
1093.516235 176.0
1093.654419 164.0
1093.726807 52.0
1094.036255 148.0
1094.082275 200.0
1094.33606 184.0
1094.701294 84.0
1094.833008 164.0
1094.977905 132.0
1095.142578 184.0
1095.19519 196.0
1095.2677 156.0
1095.362671 184.0
1095.570679 148.0
1095.741943 156.0
1095.839844 212.0
1096.051636 148.0
1096.242798 268.0
1096.348267 108.0
1096.456055 236.0
1096.638916 80.0
1097.098022 244.0
1097.323853 116.0
1097.6073 88.0
1097.693115 156.0
1098.101929 112.0
1098.609863 36.0
1098.952881 152.0
1099.012329 136.0
1099.071655 32.0
1099.25647 124.0
1099.391602 160.0
1099.520508 128.0
1099.870239 144.0
1099.949463 124.0
1100.428223 172.0
1100.614136 156.0
1100.880493 116.0
1101.692871 192.0
1101.990234 144.0
1102.043091 64.0
1102.109131 184.0
1102.221436 228.0
1102.366821 104.0
1102.42627 108.0
1102.491211 236.0
1102.50293 192.0
1102.645508 184.0
1102.8479 160.0
1102.888916 456.0
1102.991455 320.0
1103.067383 232.0
1103.212891 172.0
1103.285522 152.0
1103.437622 116.0
1103.606934 300.0
1103.80127 104.0
1104.224609 180.0
1104.575073 72.0
1104.760376 192.0
1104.945557 148.0
1105.018433 208.0
1105.077881 60.0
1105.240234 324.0
1105.46167 100.0
1105.620483 164.0
1105.858765 240.0
1105.932373 100.0
1105.991211 180.0
1106.070679 44.0
1106.16333 216.0
1106.421509 148.0
1106.865112 144.0
1107.328735 148.0
1107.461182 132.0
1107.659912 120.0
1107.779053 176.0
1108.045532 376.0
1108.089966 232.0
1108.143433 180.0
1108.262695 112.0
1108.461548 176.0
1108.912231 136.0
1109.005005 48.0
1109.097778 196.0
1109.502197 108.0
1109.601562 176.0
1109.829834 124.0
1110.009766 196.0
1110.188477 220.0
1110.516724 152.0
1110.589722 108.0
1110.984497 212.0
1111.054077 64.0
1111.189941 184.0
1111.511841 52.0
1111.664185 148.0
1112.082642 172.0
1112.162231 100.0
1112.261841 136.0
1112.608521 224.0
1112.693359 44.0
1112.892578 136.0
1113.324219 92.0
1113.483521 132.0
1113.543335 200.0
1113.65625 168.0
1113.769165 128.0
1113.988403 92.0
1114.074707 176.0
1114.13855 140.0
1114.296021 128.0
1114.400269 160.0
1114.566406 116.0
1114.712646 164.0
1115.317383 192.0
1115.437012 204.0
1115.915771 176.0
1116.434448 100.0
1116.495483 176.0
1116.568115 164.0
1116.667114 92.0
1116.720337 156.0
1116.880005 124.0
1117.026367 144.0
1117.072876 116.0
1117.299072 160.0
1117.372314 176.0
1117.71167 160.0
1117.764893 52.0
1117.818115 128.0
1117.931641 144.0
1118.350586 184.0
1118.829834 156.0
1119.53186 200.0
1119.786499 228.0
1119.915283 124.0
1120.135132 180.0
1120.294922 212.0
1121.181152 136.0
1121.481079 152.0
1121.547729 160.0
1121.601074 120.0
1121.801025 156.0
1121.96106 132.0
1122.091431 176.0
1122.274414 128.0
1122.447754 244.0
1123.014648 168.0
1123.099487 164.0
1123.368164 52.0
1123.63501 100.0
1123.881958 124.0
1123.988647 180.0
1124.248901 192.0
1124.315674 176.0
1124.923096 76.0
1124.989868 68.0
1125.069946 152.0
1125.423828 156.0
1125.604126 164.0
1125.690918 136.0
1126.018188 140.0
1126.158447 184.0
1126.432251 224.0
1126.65271 52.0
1126.900391 184.0
1127.07373 160.0
1127.247437 144.0
1127.588257 56.0
1127.802124 128.0
1127.88269 180.0
1128.015381 200.0
1128.462036 136.0
1128.570923 124.0
1128.657837 132.0
1128.752197 164.0
1128.925415 136.0
1129.052368 112.0
1129.099243 120.0
1129.306519 208.0
1129.647705 100.0
1129.995239 216.0
1130.196289 144.0
1130.303589 132.0
1130.670776 204.0
1130.738403 152.0
1131.006104 188.0
1131.052979 60.0
1131.253784 56.0
1131.384644 180.0
1131.5448 288.0
1131.645752 172.0
1132.151001 144.0
1132.238159 96.0
1132.494629 204.0
1132.59314 200.0
1132.660034 172.0
1132.779419 228.0
1132.861084 144.0
1132.954834 156.0
1133.028564 112.0
1133.118286 132.0
1133.216064 156.0
1133.323364 132.0
1133.417114 100.0
1133.476807 172.0
1133.732056 156.0
1133.852783 180.0
1133.925659 164.0
1134.000122 152.0
1134.093994 176.0
1134.409058 176.0
1134.844849 112.0
1134.898438 164.0
1134.992432 180.0
1135.07959 204.0
1135.336792 148.0
1135.522217 36.0
1135.696533 152.0
1135.790405 180.0
1135.904541 148.0
1136.132568 144.0
1136.192993 104.0
1136.280151 100.0
1136.562012 112.0
1136.622437 180.0
1136.729736 88.0
1137.13916 160.0
1137.441162 156.0
1137.763428 144.0
1137.971558 164.0
1138.152832 104.0
1138.213257 176.0
1138.575928 116.0
1138.719116 236.0
1138.824463 124.0
1138.884888 160.0
1139.133423 224.0
1139.381958 132.0
1139.482788 80.0
1139.563354 144.0
1139.684326 88.0
1139.758789 164.0
1139.838867 116.0
1139.919556 64.0
1140.063477 104.0
1140.255493 60.0
1140.5177 168.0
1140.564697 136.0
1140.625244 200.0
1140.887451 112.0
1140.934448 216.0
1141.15271 156.0
1141.290771 104.0
1141.613525 176.0
1141.775024 196.0
1141.873901 104.0
1142.165039 108.0
1142.380371 216.0
1142.454346 152.0
1142.555298 192.0
1142.878174 96.0
1142.925293 176.0
1143.329102 204.0
1143.504028 104.0
1143.630859 172.0
1144.096436 36.0
1144.228516 252.0
1144.412231 132.0
1144.493652 132.0
1144.574463 120.0
1144.776489 116.0
1145.578003 120.0
1145.713989 88.0
1145.955322 164.0
1146.036133 128.0
1146.366333 160.0
1146.433716 176.0
1146.838135 220.0
1146.9729 208.0
1147.141479 152.0
1147.268311 136.0
1147.465088 132.0
1147.586426 160.0
1147.680786 232.0
1148.186646 84.0
1148.30127 156.0
1148.571045 136.0
1148.948853 168.0
1149.009521 188.0
1149.077026 72.0
1149.232178 76.0
1149.481934 148.0
1149.751831 204.0
1149.8396 196.0
1149.913818 160.0
1149.96106 136.0
1150.008301 180.0
1150.123047 52.0
1150.177002 164.0
1150.541626 192.0
1150.835815 96.0
1150.989624 208.0
1151.473389 240.0
1151.6521 124.0
1152.027344 92.0
1152.135376 232.0
1152.49353 152.0
1152.608398 104.0
1152.838135 152.0
1152.986816 160.0
1153.182861 80.0
1153.230103 124.0
1153.37207 168.0
1153.432861 164.0
1153.615479 128.0
1153.723633 148.0
1153.770874 160.0
1153.952026 144.0
1154.059326 164.0
1154.217163 184.0
1154.406494 140.0
1154.988159 148.0
1155.143799 144.0
1155.33313 60.0
1155.400879 136.0
1155.628418 228.0
1155.646484 144.0
1155.793213 124.0
1155.840576 196.0
1155.915039 168.0
1156.134033 164.0
1156.774658 156.0
1156.842163 164.0
1156.862671 160.0
1156.998047 112.0
1157.065674 128.0
1157.152344 136.0
1157.390747 112.0
1157.546509 160.0
1157.841797 124.0
1157.890015 192.0
1158.034058 80.0
1158.108643 160.0
1158.677612 140.0
1158.82666 176.0
1158.951904 180.0
1159.314575 212.0
1159.38916 236.0
1159.477173 136.0
1159.718872 148.0
1159.782837 164.0
1159.916382 168.0
1160.065186 180.0
1160.209351 144.0
1160.43042 248.0
1160.474854 248.0
1160.834351 220.0
1160.89978 140.0
1160.96875 144.0
1161.178955 132.0
1161.531738 112.0
1161.579224 144.0
1161.762329 156.0
1162.162598 180.0
1162.29248 168.0
1162.454468 128.0
1162.674683 212.0
1162.786987 168.0
1163.085571 196.0
1163.547241 212.0
1163.798462 68.0
1164.049683 144.0
1164.205933 224.0
1164.260254 144.0
1164.375732 188.0
1164.457153 156.0
1164.525146 96.0
1164.633789 136.0
1164.68811 164.0
1164.783203 112.0
1164.895142 76.0
1165.034546 128.0
1165.265503 324.0
1165.353882 96.0
1165.503418 128.0
1165.574463 192.0
1165.802368 164.0
1165.911133 172.0
1166.210205 80.0
1166.311157 216.0
1166.454834 120.0
1166.946411 200.0
1167.304688 240.0
1167.536011 148.0
1167.719604 56.0
1167.767212 100.0
1167.92688 136.0
1168.189087 160.0
1168.243408 76.0
1168.331787 164.0
1168.39978 156.0
1168.44751 132.0
1168.556274 196.0
1168.604004 84.0
1168.746826 176.0
1169.039429 164.0
1169.332031 144.0
1169.61792 144.0
1169.794922 136.0
1169.849365 184.0
1170.101318 164.0
1170.196655 120.0
1170.370972 120.0
1170.645996 172.0
1170.720947 144.0
1170.912842 132.0
1171.095581 188.0
1171.320312 80.0
1171.408936 156.0
1171.606445 188.0
1171.759644 200.0
1172.144653 148.0
1172.281006 52.0
1172.328735 176.0
1172.424072 148.0
1172.505859 176.0
1172.580811 204.0
1172.849731 200.0
1172.905884 168.0
1172.96936 124.0
1173.039795 220.0
1173.201172 204.0
1173.337524 192.0
1173.459717 116.0
1173.583008 168.0
1173.712524 136.0
1173.773926 148.0
1173.842041 312.0
1174.060303 140.0
1174.210327 148.0
1174.408203 148.0
1174.483154 124.0
1174.790161 132.0
1175.022095 204.0
1175.083496 72.0
1175.233643 76.0
1175.49292 172.0
1175.90918 40.0
1176.332397 176.0
1176.470459 112.0
1176.578247 160.0
1176.678467 168.0
1176.748901 184.0
1176.885498 140.0
1177.035645 180.0
1177.363403 132.0
1177.418091 172.0
1177.834717 160.0
1177.950928 140.0
1178.012329 56.0
1178.101196 132.0
1178.183105 68.0
1178.244629 160.0
1178.299316 148.0
1178.371704 176.0
1178.425293 184.0
1178.497437 156.0
1178.579468 168.0
1178.893799 120.0
1178.953491 196.0
1179.341309 240.0
1179.577271 208.0
1179.700317 132.0
1179.843872 124.0
1180.032959 164.0
1180.281494 136.0
1180.370361 112.0
1180.513916 168.0
1180.623413 208.0
1180.869629 132.0
1180.973389 132.0
1181.031738 188.0
1181.18457 160.0
1181.314209 196.0
1181.392822 104.0
1181.539917 120.0
1181.594727 104.0
1181.676758 148.0
1181.758911 116.0
1181.8479 232.0
1181.943604 192.0
1182.148926 68.0
1182.210571 64.0
1182.435425 200.0
1182.545898 164.0
1182.632324 172.0
1182.737549 216.0
1182.812866 140.0
1182.937378 120.0
1182.952515 224.0
1182.97876 212.0
1183.079834 116.0
1183.531738 140.0
1183.598389 136.0
1184.230225 232.0
1184.29187 168.0
1184.497925 96.0
1184.654907 188.0
1184.805664 36.0
1185.005615 292.0
1185.148193 140.0
1185.285278 156.0
1185.408569 132.0
1185.57312 196.0
1185.915771 204.0
1185.998047 148.0
1186.347656 108.0
1186.61499 148.0
1186.724731 208.0
1186.800171 144.0
1186.882446 212.0
1187.053833 164.0
1187.129272 200.0
1187.403564 328.0
1187.50647 196.0
1187.938599 172.0
1188.06897 116.0
1188.178711 56.0
1188.354492 136.0
1188.432617 136.0
1188.686523 156.0
1188.816895 160.0
1189.015869 148.0
1189.251465 188.0
1189.400269 168.0
1189.644653 216.0
1189.752441 160.0
1189.832764 200.0
1189.983765 136.0
1190.038696 252.0
1190.155518 156.0
1190.279053 144.0
1190.443848 124.0
1190.691162 176.0
1190.924683 124.0
1191.057007 192.0
1191.112427 176.0
1191.295288 176.0
1191.357422 56.0
1191.405518 124.0
1191.501709 128.0
1191.67749 164.0
1191.762817 140.0
1191.859009 132.0
1191.927734 152.0
1192.263428 120.0
1192.539307 176.0
1192.587402 140.0
1192.718018 84.0
1192.889893 184.0
1193.020508 40.0
1193.084351 156.0
1193.144287 188.0
1193.213013 136.0
1193.374268 168.0
1193.515503 96.0
1193.6875 252.0
1193.783691 48.0
1193.859375 68.0
1194.230835 144.0
1194.317871 236.0
1194.471558 152.0
1194.519653 156.0
1194.622925 160.0
1194.801758 112.0
1195.056274 104.0
1195.228271 128.0
1195.434814 184.0
1195.489868 344.0
1195.634399 248.0
1195.682495 180.0
1195.84082 204.0
1196.164307 164.0
1196.267578 120.0
1196.432861 188.0
1196.536133 276.0
1196.663574 164.0
1196.880371 120.0
1197.01123 100.0
1197.059448 172.0
1197.115967 192.0
1197.424438 136.0
1197.609863 160.0
1197.832031 152.0
1197.934082 128.0
1198.009888 100.0
1198.223511 116.0
1198.340576 308.0
1198.416382 120.0
1198.692017 68.0
1198.79541 140.0
1198.939331 220.0
1199.133057 88.0
1199.19873 68.0
1199.32605 136.0
1199.839233 248.0
1199.987915 156.0
1200.063721 220.0
1200.297485 156.0
1200.560181 156.0
1200.636108 152.0
1200.727905 164.0
1200.898193 144.0
1201.093262 100.0
1201.245117 200.0
1201.601807 124.0
1201.824463 188.0
1202.197876 72.0
1202.298706 108.0
1202.354004 164.0
1202.471313 136.0
1202.636963 156.0
1202.712891 100.0
1202.909546 168.0
1203.064941 124.0
1203.203003 176.0
1203.716309 180.0
1203.941895 148.0
1204.21814 64.0
1204.349365 116.0
1204.715454 40.0
1205.067871 208.0
1205.212891 104.0
1205.312622 176.0
1205.427124 116.0
1205.475464 48.0
1205.627563 184.0
1205.724243 76.0
1206.201172 128.0
1206.249634 172.0
1206.33252 148.0
1206.581787 152.0
1206.88562 164.0
1207.24939 168.0
1207.402344 228.0
1207.591064 68.0
1207.950684 212.0
1208.234375 180.0
1208.393555 144.0
1208.462646 164.0
1208.7146 220.0
1208.857056 160.0
1208.967896 160.0
1209.055054 212.0
1209.380249 124.0
1209.445435 108.0
1209.639282 200.0
1209.687622 108.0
1209.785767 72.0
1210.234619 120.0
1210.476074 144.0
1210.63623 116.0
1210.920166 164.0
1211.017212 184.0
1211.128052 124.0
1211.377441 180.0
1211.467407 128.0
1211.571411 180.0
1211.703003 192.0
1211.779175 128.0
1211.952393 152.0
1212.12561 152.0
1212.181152 176.0
1212.458252 180.0
1212.659302 248.0
1212.818726 76.0
1213.269287 192.0
1213.338623 132.0
1213.407959 56.0
1214.031982 148.0
1214.136108 108.0
1214.462036 100.0
1215.054565 108.0
1215.13501 212.0
1215.239014 64.0
1215.315308 80.0
1215.690063 184.0
1216.20105 64.0
1216.293945 208.0
1216.418823 232.0
1216.878296 208.0
1217.078369 156.0
1217.197021 140.0
1217.256592 132.0
1217.307617 96.0
1217.397827 56.0
1217.515259 124.0
1217.620117 200.0
1217.828491 156.0
1217.890991 172.0
1218.085449 136.0
1218.259155 56.0
1218.672852 152.0
1218.842773 92.0
1219.037354 160.0
1219.21106 84.0
1219.47522 212.0
1219.746216 60.0
1219.906128 88.0
1220.107788 172.0
1220.260742 120.0
1220.358032 168.0
1220.60144 184.0
1220.719604 168.0
1220.914307 308.0
1221.0625 144.0
1221.220337 188.0
1221.289917 164.0
1221.359497 196.0
1221.436523 184.0
1221.742065 140.0
1221.824219 188.0
1222.096924 232.0
1222.18042 112.0
1222.298706 124.0
1222.521362 76.0
1222.590942 132.0
1223.133911 144.0
1223.280029 180.0
1223.454102 120.0
1223.55542 124.0
1223.662964 116.0
1223.781372 140.0
1223.878296 220.0
1224.098267 180.0
1224.237061 116.0
1224.7146 128.0
1224.770264 216.0
1224.833008 108.0
1224.89563 128.0
1225.043335 124.0
1225.216064 196.0
1225.508789 152.0
1225.571411 128.0
1225.794434 164.0
1225.857178 52.0
1225.921021 48.0
1226.094116 176.0
1226.637817 224.0
1226.867798 184.0
1227.195557 36.0
1227.300049 112.0
1227.419922 200.0
1227.606934 164.0
1227.767334 88.0
1227.816162 172.0
1228.009644 228.0
1228.157837 108.0
1228.269531 180.0
1228.4021 164.0
1228.471313 124.0
1228.653198 208.0
1228.705933 136.0
1228.953247 108.0
1229.009033 148.0
1229.415039 152.0
1229.532349 180.0
1229.685913 152.0
1229.853516 96.0
1229.966797 164.0
1230.020996 164.0
1230.104736 88.0
1230.621338 64.0
1230.672607 212.0
1230.775024 124.0
1230.844849 160.0
1231.068237 184.0
1231.132568 204.0
1231.221924 144.0
1231.340698 112.0
1231.473389 148.0
1231.531372 144.0
1231.583008 144.0
1231.631592 176.0
1231.717896 144.0
1231.765015 156.0
1231.836548 36.0
1231.906494 140.0
1232.109009 108.0
1232.387817 120.0
1232.57019 176.0
1232.765869 132.0
1233.052368 124.0
1233.13623 184.0
1233.290039 164.0
1233.345947 92.0
1233.62561 108.0
1233.869141 216.0
1233.933228 148.0
1234.045044 148.0
1234.128906 164.0
1234.184937 212.0
1234.310791 196.0
1234.415649 160.0
1234.471558 136.0
1234.623291 128.0
1234.702393 108.0
1234.786255 168.0
1235.331909 168.0
1235.513794 172.0
1235.688721 120.0
1235.884644 164.0
1236.045532 68.0
1236.154175 200.0
1236.467896 240.0
1236.668457 188.0
1236.766479 152.0
1236.948364 180.0
1237.102417 140.0
1237.193481 144.0
1237.242432 180.0
1237.382446 188.0
1237.550537 144.0
1237.613525 84.0
1237.683594 168.0
1237.80957 36.0
1237.907593 132.0
1238.110718 192.0
1238.281006 140.0
1238.341797 172.0
1238.425903 152.0
1238.650024 220.0
1238.699097 108.0
1238.888184 144.0
1238.993286 156.0
1239.049316 120.0
1239.133423 84.0
1239.224487 108.0
1239.287598 140.0
1239.357666 168.0
1239.420654 76.0
1239.546875 124.0
1239.764038 48.0
1239.897217 224.0
1240.000977 236.0
1240.282715 156.0
1240.394897 140.0
1240.514038 164.0
1240.577148 140.0
1240.626221 60.0
1240.724365 84.0
1240.811157 204.0
1240.94873 108.0
1241.040771 236.0
1241.113525 136.0
1241.285278 156.0
1241.347534 196.0
1241.418579 108.0
1241.53772 160.0
1241.685059 120.0
1241.748169 96.0
1241.846313 84.0
1241.916504 156.0
1241.965576 160.0
1242.253174 144.0
1242.302368 140.0
1242.421631 88.0
1242.484741 112.0
1242.709229 212.0
1242.793457 144.0
1242.996582 160.0
1243.057861 124.0
1243.15686 192.0
1243.221436 152.0
1243.389893 256.0
1243.446045 140.0
1243.60791 160.0
1243.703979 144.0
1243.825073 124.0
1243.979492 176.0
1244.134033 68.0
1244.30542 104.0
1244.478027 164.0
1244.567627 192.0
1244.91333 116.0
1244.969604 248.0
1245.338989 180.0
1245.592773 176.0
1245.603638 128.0
1245.700073 108.0
1245.945923 140.0
1246.046265 140.0
1246.156738 112.0
1246.449707 176.0
1246.508545 100.0
1246.613403 124.0
1246.696655 104.0
1246.817261 128.0
1247.049194 152.0
1247.245972 192.0
1247.342529 216.0
1247.36377 184.0
1247.642456 160.0
1247.695923 52.0
1247.745117 108.0
1247.871704 92.0
1248.019287 168.0
1248.114258 180.0
1248.321655 172.0
1248.370972 88.0
1248.712769 220.0
1249.053101 144.0
1249.275513 140.0
1249.503418 180.0
1249.672241 156.0
1249.746826 180.0
1250.001831 124.0
1250.074707 152.0
1250.149658 104.0
1250.368896 136.0
1250.429199 192.0
1250.608276 176.0
1250.657471 120.0
1250.706787 164.0
1251.016479 56.0
1251.093994 144.0
1251.199341 160.0
1251.210571 156.0
1251.244507 92.0
1251.27063 192.0
1251.36145 208.0
1251.417847 140.0
1251.502319 104.0
1251.629028 156.0
1251.836304 220.0
1251.982788 136.0
1252.065674 192.0
1252.227661 188.0
1252.579834 192.0
1252.741821 136.0
1253.05188 216.0
1253.145874 152.0
1253.196411 108.0
1254.404785 144.0
1254.525024 252.0
1254.616455 260.0
1254.679932 132.0
1254.834961 148.0
1254.905518 68.0
1255.039551 160.0
1255.173462 160.0
1255.38501 108.0
1255.441406 184.0
1255.723511 140.0
1256.041016 128.0
1256.153809 156.0
1256.376099 316.0
1257.032471 348.0
1257.155762 136.0
1257.247437 84.0
1257.303955 180.0
1257.783936 140.0
1257.911011 100.0
1257.967407 152.0
1258.045044 136.0
1258.172119 244.0
1258.744141 200.0
1258.821777 136.0
1258.931885 184.0
1258.984131 76.0
1259.07605 100.0
1259.125488 168.0
1259.181885 152.0
1259.33728 176.0
1259.44104 284.0
1259.530151 200.0
1259.679199 128.0
1259.822876 148.0
1259.944824 172.0
1260.094238 184.0
1260.177979 204.0
1260.308472 148.0
1260.467651 156.0
1260.601929 112.0
1260.686768 168.0
1260.835205 116.0
1261.075439 172.0
1261.223877 168.0
1261.273438 140.0
1261.358154 208.0
1261.435913 52.0
1261.485474 60.0
1261.577393 140.0
1261.650269 212.0
1261.72583 156.0
1261.831909 168.0
1262.022827 92.0
1262.079346 96.0
1262.150024 264.0
1262.256104 140.0
1262.312744 152.0
1262.630981 140.0
1262.69458 108.0
1262.859863 196.0
1263.019897 68.0
1263.168457 112.0
1263.274658 152.0
1263.413574 160.0
1263.49292 164.0
1263.502808 140.0
1263.565796 240.0
1263.734497 132.0
1263.946777 132.0
1264.187378 232.0
1264.585815 204.0
1264.682739 104.0
1264.807129 160.0
1265.093384 128.0
1265.149536 112.0
1265.235352 360.0
1265.355347 108.0
1265.468384 124.0
1265.553589 200.0
1265.68811 76.0
1266.010376 148.0
1266.194214 128.0
1266.36084 180.0
1266.609619 132.0
1266.73999 172.0
1266.888062 424.0
1267.039429 152.0
1267.087646 256.0
1267.309937 108.0
1267.335815 104.0
1267.348389 172.0
1267.487305 196.0
1267.607788 224.0
1267.714111 152.0
1267.877075 136.0
1267.985962 164.0
1268.103882 128.0
1268.419556 140.0
1268.518311 144.0
1268.642578 148.0
1268.702026 124.0
1268.784424 112.0
1269.160156 80.0
1269.216919 168.0
1269.344482 128.0
1269.472168 148.0
1269.589111 300.0
1269.663696 240.0
1270.018311 188.0
1270.078735 240.0
1270.365845 172.0
1270.47937 128.0
1270.806152 160.0
1271.010986 164.0
1271.11792 132.0
1271.167603 100.0
1271.337891 180.0
1271.501221 184.0
1271.863159 140.0
1271.955444 168.0
1272.038696 204.0
1272.267822 128.0
1272.425903 244.0
1272.516968 172.0
1272.633301 120.0
1272.731201 184.0
1272.91394 148.0
1273.034668 160.0
1273.098511 116.0
1273.208496 152.0
1273.325806 160.0
1273.444092 236.0
1273.723633 136.0
1273.8302 232.0
1274.010986 176.0
1274.42688 180.0
1274.536377 236.0
1274.746704 144.0
1274.977173 148.0
1275.137573 108.0
1275.35083 100.0
1275.450317 60.0
1275.677734 56.0
1275.759033 184.0
1275.86731 132.0
1275.924438 212.0
1276.149292 204.0
1276.220337 188.0
1276.552368 152.0
1276.858154 144.0
1276.915039 176.0
1277.071533 52.0
1277.438843 164.0
1277.555176 240.0
1277.60498 124.0
1277.683228 208.0
1277.804199 168.0
1277.932251 76.0
1278.11731 184.0
1278.248657 192.0
1278.330811 104.0
1278.703979 308.0
1278.914429 132.0
1278.985596 40.0
1279.056763 140.0
1279.248901 192.0
1279.303955 120.0
1279.490967 240.0
1279.654785 140.0
1279.854126 132.0
1279.93689 128.0
1280.074829 124.0
1280.217285 208.0
1280.358765 144.0
1280.560303 148.0
1280.623291 180.0
1280.692139 400.0
1280.958008 60.0
1281.047485 100.0
1281.141357 204.0
1281.442505 296.0
1281.684692 116.0
1281.784546 124.0
1281.94165 92.0
1282.084229 204.0
1282.195923 168.0
1282.433105 156.0
1282.525757 120.0
1282.667236 132.0
1282.817993 108.0
1282.873901 176.0
1282.960571 124.0
1283.010498 120.0
1283.124512 164.0
1283.217163 220.0
1283.302734 216.0
1283.552368 108.0
1283.816162 188.0
1283.923218 140.0
1283.973145 112.0
1284.044434 36.0
1284.116699 172.0
1284.222778 132.0
1284.529419 96.0
1284.650757 80.0
1284.781494 136.0
1284.864746 156.0
1284.939209 160.0
1285.085938 156.0
1285.158691 184.0
1285.435547 132.0
1285.48877 168.0
1285.635376 144.0
1285.754517 244.0
1285.920898 156.0
1286.035034 136.0
1286.085083 196.0
1286.163574 244.0
1286.342041 176.0
1286.441895 80.0
1286.491943 300.0
1286.748169 216.0
1286.813232 128.0
1286.941772 124.0
1287.005981 108.0
1287.244751 144.0
1287.325806 168.0
1287.48291 156.0
1287.578491 196.0
1287.641602 260.0
1287.713013 44.0
1287.850098 180.0
1288.134399 448.0
1288.248657 200.0
1288.344604 124.0
1288.460083 140.0
1288.534424 120.0
1288.627319 132.0
1288.682251 164.0
1288.80603 116.0
1288.926636 144.0
1289.132446 156.0
1289.191895 260.0
1289.301147 200.0
1289.413452 156.0
1289.499146 60.0
1289.577759 224.0
1289.699341 92.0
1289.828003 216.0
1289.920898 136.0
1290.215698 192.0
1290.369019 180.0
1290.528564 72.0
1290.793213 60.0
1290.843262 148.0
1290.978638 132.0
1291.015503 136.0
1291.101074 132.0
1291.300903 192.0
1291.451172 208.0
1291.522705 216.0
1291.665771 132.0
1291.744385 168.0
1291.82312 132.0
1291.916138 128.0
1291.994263 104.0
1292.087769 188.0
1292.166504 152.0
1292.247314 152.0
1292.343994 120.0
1292.40979 204.0
1292.552856 100.0
1292.61792 144.0
1292.917847 172.0
1293.505981 184.0
1293.619263 36.0
1293.796265 188.0
1293.970947 132.0
1294.134766 132.0
1294.184937 196.0
1294.28064 228.0
1294.380615 192.0
1294.505859 188.0
1294.729126 172.0
1295.051514 144.0
1295.259155 164.0
1295.581543 196.0
1295.86499 64.0
1295.961304 152.0
1296.06189 216.0
1296.208496 148.0
1296.262207 120.0
1296.427002 200.0
1296.534546 112.0
1296.613403 164.0
1296.778198 140.0
1296.914429 188.0
1297.136597 128.0
1297.251343 204.0
1297.308716 124.0
1297.358887 136.0
1297.466431 180.0
1297.680176 176.0
1297.738892 124.0
1298.366089 168.0
1298.487793 168.0
1298.577881 176.0
1298.764404 120.0
1298.814575 160.0
1298.87915 184.0
1299.101562 84.0
1299.156494 116.0
1299.768799 192.0
1299.912354 164.0
1300.144409 120.0
1300.479248 148.0
1300.658691 144.0
1300.744873 128.0
1301.152954 188.0
1301.340332 172.0
1301.467041 224.0
1301.583496 128.0
1301.665039 200.0
1301.853394 196.0
1301.987061 176.0
1302.231201 108.0
1302.417969 116.0
1302.568848 172.0
1302.89209 200.0
1302.958008 164.0
1303.028564 268.0
1303.215454 56.0
1303.287231 196.0
1303.344727 192.0
1303.452515 328.0
1303.517212 72.0
1303.609985 176.0
1303.718384 144.0
1303.876587 180.0
1303.941162 176.0
1303.998779 188.0
1304.243164 112.0
1304.372437 140.0
1304.586914 144.0
1304.660034 88.0
1304.85437 168.0
1304.983521 96.0
1305.148926 152.0
1305.206421 64.0
1305.285156 208.0
1305.407837 148.0
1305.45813 92.0
1305.706909 176.0
1306.015991 200.0
1306.145996 176.0
1306.198975 188.0
1306.429199 184.0
1306.493896 116.0
1306.695435 100.0
1306.824951 80.0
1307.112671 120.0
1307.242188 40.0
1307.357422 80.0
1307.536133 196.0
1307.681274 96.0
1307.767578 192.0
1307.879028 252.0
1307.942749 332.0
1308.127563 52.0
1308.307495 204.0
1308.645874 112.0
1308.717896 104.0
1308.876343 152.0
1308.955566 84.0
1309.151611 212.0
1309.279541 124.0
1309.34436 116.0
1309.517212 160.0
1309.641724 220.0
1309.733398 132.0
1310.136719 148.0
1310.388916 128.0
1310.522583 196.0
1310.581665 204.0
1310.741943 112.0
1311.044678 160.0
1311.440308 144.0
1311.520386 160.0
1311.650146 168.0
1311.775757 160.0
1311.929443 172.0
1311.988892 80.0
1312.108765 240.0
1312.341431 140.0
1312.623413 152.0
1312.702759 40.0
1312.856201 140.0
1312.984009 192.0
1313.182983 92.0
1313.279663 176.0
1313.337402 188.0
1313.395142 160.0
1313.524902 144.0
1313.671631 352.0
1313.755859 156.0
1313.979492 192.0
1314.029907 128.0
1314.174316 192.0
1314.261597 200.0
1314.370117 176.0
1314.563965 124.0
1314.621704 144.0
1314.686646 264.0
1314.946411 172.0
1315.000366 220.0
1315.292847 36.0
1315.401123 204.0
1315.485962 296.0
1315.65918 152.0
1315.794556 88.0
1316.072632 112.0
1316.123169 116.0
1316.476929 124.0
1316.573608 192.0
1316.715332 196.0
1316.82959 132.0
1316.937134 172.0
1317.076416 216.0
1317.242554 160.0
1317.365356 188.0
1317.444824 108.0
1317.690552 132.0
1317.813354 92.0
1317.907227 212.0
1317.979736 208.0
1318.145752 44.0
1318.290283 156.0
1318.456421 116.0
1318.657593 164.0
1318.826294 136.0
1318.998535 192.0
1319.049194 152.0
1319.215454 72.0
1319.569702 140.0
1319.699829 80.0
1319.849609 356.0
1319.927612 96.0
1320.046875 36.0
1320.097534 160.0
1320.23584 160.0
1320.437378 168.0
1320.583984 208.0
1320.806519 140.0
1320.958252 104.0
1321.131836 204.0
1321.18103 140.0
1321.298218 88.0
1321.364624 68.0
1321.424561 68.0
1321.479126 148.0
1321.565918 108.0
1321.620972 92.0
1321.750244 168.0
1321.812012 144.0
1322.04895 204.0
1322.202759 180.0
1322.269043 180.0
1322.314697 156.0
1322.377197 208.0
1322.467285 176.0
1322.60376 132.0
1322.66748 180.0
1322.792603 372.0
1322.977539 100.0
1323.069824 148.0
1323.234497 284.0
1323.35376 400.0
1323.430542 184.0
1323.498535 184.0
1323.675171 212.0
1323.77832 96.0
1323.925781 156.0
1324.085205 128.0
1324.135864 128.0
1324.186523 48.0
1324.251709 156.0
1324.324219 164.0
1324.494385 184.0
1324.816772 248.0
1324.896484 152.0
1325.074585 232.0
1325.212646 144.0
1325.367432 144.0
1325.584839 200.0
1325.722412 396.0
1325.900146 224.0
1326.164551 172.0
1326.244263 120.0
1326.327148 132.0
1326.411011 80.0
1326.461792 112.0
1326.558594 120.0
1326.845947 112.0
1326.896729 176.0
1326.94751 112.0
1327.081055 164.0
1327.186768 148.0
1327.426025 116.0
1327.505859 176.0
1327.615967 180.0
1327.681274 100.0
1327.926514 348.0
1327.984497 132.0
1328.158569 140.0
1328.376221 156.0
1328.598145 180.0
1328.673584 120.0
1328.905762 184.0
1328.981323 112.0
1329.079956 144.0
1329.196045 120.0
1329.283081 84.0
1329.55896 228.0
1329.734253 192.0
1329.921753 52.0
1329.994385 204.0
1330.305664 100.0
1330.539429 148.0
1330.616455 336.0
1330.805542 148.0
1330.930908 168.0
1331.054321 144.0
1331.214111 92.0
1331.314087 156.0
1331.46814 176.0
1331.642578 164.0
1331.959473 340.0
1332.061401 148.0
1332.194702 144.0
1332.252808 128.0
1332.339966 100.0
1332.449707 164.0
1332.503906 168.0
1332.565186 120.0
1332.833984 152.0
1333.035034 204.0
1333.247437 148.0
1333.379028 128.0
1333.488159 152.0
1333.758911 168.0
1333.951172 180.0
1334.047852 92.0
1334.15686 44.0
1334.22229 128.0
1334.30481 152.0
1334.44043 136.0
1334.702148 148.0
1334.823853 148.0
1334.934082 156.0
1335.131226 144.0
1335.194702 160.0
1335.516113 148.0
1335.692017 144.0
1335.953125 128.0
1336.053223 168.0
1336.113159 60.0
1336.200562 148.0
1336.469727 152.0
1336.622559 132.0
1336.675293 172.0
1336.724365 100.0
1336.884521 152.0
1336.973022 220.0
1337.299316 164.0
1337.401245 44.0
1337.561401 56.0
1337.626953 184.0
1337.839478 172.0
1337.925415 68.0
1337.998169 156.0
1338.131958 216.0
1338.318604 156.0
1338.50061 208.0
1338.676392 148.0
1338.744751 148.0
1338.821045 40.0
1339.054077 84.0
1339.250732 160.0
1339.323608 116.0
1339.38916 152.0
1339.476562 160.0
1339.695801 172.0
1339.877197 124.0
1339.950684 224.0
1340.063843 200.0
1340.139526 52.0
1340.197754 132.0
1340.328979 132.0
1340.398315 160.0
1340.481934 164.0
1340.681763 268.0
1340.751587 156.0
1340.875488 216.0
1341.072021 180.0
1341.147583 236.0
1341.247192 148.0
1341.305542 232.0
1341.374756 132.0
1341.403931 136.0
1341.522339 124.0
1341.611694 168.0
1341.66272 148.0
1341.728394 144.0
1341.779419 156.0
1341.835449 152.0
1342.071045 188.0
1342.129761 156.0
1342.23645 204.0
1342.348145 180.0
1342.428345 96.0
1342.584473 244.0
1342.705566 64.0
1342.793091 140.0
1343.07666 184.0
1343.18689 120.0
1343.281738 168.0
1343.529785 84.0
1343.646484 112.0
1343.697632 124.0
1343.807007 136.0
1343.917847 152.0
1344.135376 164.0
1344.310547 64.0
1344.43457 40.0
1344.532104 120.0
1344.624268 112.0
1344.733765 152.0
1344.879761 204.0
1344.974731 96.0
1345.138306 204.0
1345.218994 156.0
1345.508667 188.0
1345.62439 264.0
1345.753052 216.0
1345.850708 96.0
1345.952026 248.0
1346.091675 240.0
1346.171997 212.0
1346.277344 152.0
1346.456909 112.0
1346.693481 192.0
1346.785278 140.0
1346.849976 108.0
1346.960815 112.0
1347.128906 60.0
1347.201904 92.0
1347.304199 88.0
1347.357788 304.0
1347.533813 152.0
1347.647583 268.0
1347.759766 180.0
1347.847412 180.0
1348.071411 116.0
1348.267334 152.0
1348.389893 156.0
1348.606812 204.0
1348.675049 88.0
1348.733765 136.0
1348.86084 136.0
1348.957031 160.0
1349.055176 120.0
1349.154907 152.0
1349.270142 212.0
1349.401733 120.0
1349.519531 180.0
1349.606445 112.0
1349.738159 140.0
1349.818604 124.0
1349.888306 184.0
1349.994019 144.0
1350.154907 152.0
1350.49707 148.0
1350.549927 144.0
1350.688843 164.0
1350.908325 192.0
1351.069336 116.0
1351.172852 128.0
1351.442383 184.0
1351.616821 124.0
1351.698486 44.0
1351.80835 180.0
1351.863159 204.0
1351.954712 116.0
1352.115723 144.0
1352.320557 156.0
1352.415771 132.0
1352.523193 156.0
1352.635376 192.0
1352.686646 108.0
1352.761475 148.0
1353.039429 212.0
1353.114746 116.0
1353.172485 200.0
1353.271851 192.0
1353.43335 196.0
1353.484619 176.0
1353.535889 180.0
1353.650024 180.0
1353.777588 136.0
1353.835205 192.0
1354.136475 216.0
1354.356201 324.0
1354.466064 176.0
1354.619995 152.0
1354.687988 164.0
1354.802979 164.0
1355.030151 204.0
1355.13269 196.0
1355.433105 156.0
1355.605103 188.0
1355.674927 136.0
1355.777588 196.0
1355.843506 156.0
1355.922974 156.0
1356.041382 204.0
1356.166016 124.0
1356.231934 128.0
1356.283325 132.0
1356.730469 124.0
1356.880981 160.0
1357.016357 40.0
1357.145264 48.0
1357.617676 116.0
1357.676392 188.0
1357.746948 216.0
1357.859741 156.0
1357.977051 136.0
1358.040527 132.0
1358.131104 180.0
1358.181763 124.0
1358.336426 248.0
1358.512573 160.0
1358.736328 148.0
1358.811035 196.0
1358.894653 232.0
1358.960083 216.0
1359.040771 124.0
1359.169922 116.0
1359.246216 72.0
1359.297607 140.0
1359.390381 160.0
1359.758423 152.0
1359.829712 96.0
1360.02417 240.0
1360.147583 176.0
1360.453003 136.0
1360.61145 136.0
1360.735596 128.0
1360.890503 140.0
1361.235596 128.0
1361.382446 132.0
1361.447021 176.0
1361.512329 172.0
1361.577026 180.0
1361.749634 136.0
1361.852539 148.0
1362.168335 172.0
1362.322632 48.0
1362.410767 156.0
1362.462158 196.0
1362.63855 36.0
1362.800171 132.0
1362.9104 156.0
1363.134644 164.0
1363.410156 84.0
1363.483643 128.0
1363.557129 140.0
1363.626465 136.0
1363.710083 172.0
1363.799683 96.0
1363.891846 124.0
1364.034912 216.0
1364.17981 152.0
1364.439209 128.0
1364.490601 160.0
1364.571533 200.0
1364.799438 368.0
1364.865601 172.0
1365.115112 176.0
1365.196533 60.0
1365.321533 132.0
1365.380371 140.0
1365.499878 168.0
1365.564331 196.0
1365.619019 252.0
1365.676514 112.0
1365.755493 88.0
1365.858521 116.0
1365.961548 196.0
1366.060425 76.0
1366.15271 152.0
1366.241089 140.0
1366.314575 84.0
1366.550049 216.0
1366.623657 140.0
1366.756104 56.0
1366.819702 128.0
1366.917969 124.0
1367.02832 192.0
1367.175537 72.0
1367.610596 136.0
1367.668457 152.0
1367.793823 168.0
1367.896851 164.0
1367.948364 140.0
1368.225464 144.0
1368.471313 128.0
1368.593384 144.0
1368.758301 184.0
1368.809814 212.0
1368.936768 116.0
1368.95105 240.0
1369.094482 148.0
1369.154663 184.0
1369.217285 156.0
1369.310547 144.0
1369.774658 124.0
1369.855713 148.0
1369.936768 156.0
1370.047241 132.0
1370.182373 124.0
1370.260864 156.0
1370.388062 208.0
1370.559204 264.0
1370.806152 196.0
1370.901978 168.0
1370.957397 120.0
1371.064087 104.0
1371.137817 132.0
1371.375977 224.0
1371.439941 100.0
1371.648438 348.0
1371.919067 108.0
1372.118164 48.0
1372.30249 152.0
1372.398315 132.0
1372.511963 228.0
1372.781738 172.0
1372.843994 152.0
1373.070679 140.0
1373.285034 168.0
1373.570923 164.0
1373.672363 216.0
1373.877197 260.0
1374.026001 152.0
1374.175903 140.0
1374.423706 144.0
1374.436523 212.0
1374.524048 156.0
1374.611328 168.0
1374.792114 172.0
1374.816528 88.0
1374.874634 168.0
1374.990601 292.0
1375.113159 108.0
1375.340698 140.0
1375.408325 136.0
1375.51709 188.0
1375.798706 148.0
1376.023071 164.0
1376.124512 116.0
1376.351685 160.0
1376.502686 192.0
1376.582275 160.0
1376.936768 132.0
1376.997192 140.0
1377.185181 184.0
1377.276489 152.0
1377.357788 36.0
1377.594238 168.0
1377.704956 360.0
1377.778931 112.0
1377.876953 172.0
1377.948242 104.0
1378.058228 172.0
1378.173828 208.0
1378.273926 152.0
1378.384766 172.0
1378.473389 204.0
1378.547363 192.0
1378.686646 164.0
1378.850342 216.0
1378.986572 232.0
1379.365234 180.0
1379.423706 148.0
1379.478638 120.0
1379.540527 276.0
1379.727417 232.0
1379.753174 88.0
1379.7771 180.0
1380.040527 112.0
1380.163818 184.0
1380.225342 192.0
1380.314087 116.0
1380.528564 192.0
1380.676514 192.0
1380.878662 192.0
1380.918457 156.0
1381.024902 184.0
1381.231445 152.0
1381.417847 192.0
1381.490112 172.0
1381.615845 116.0
1381.787231 176.0
1381.896973 204.0
1381.992554 172.0
1382.019531 156.0
1382.19812 192.0
1382.280884 132.0
1382.42395 132.0
1382.629639 168.0
1382.740601 136.0
1382.866455 132.0
1382.933105 104.0
1383.125488 168.0
1383.325439 104.0
1383.434326 232.0
1383.45459 116.0
1383.68811 168.0
1383.790527 192.0
1383.925049 148.0
1384.045898 184.0
1384.213867 212.0
1384.265747 332.0
1384.354614 136.0
1384.458252 168.0
1384.549072 92.0
1384.749756 204.0
1384.821167 96.0
1385.006348 56.0
1385.087769 148.0
1385.147095 128.0
1385.243408 124.0
1385.302612 156.0
1385.384155 200.0
1385.436035 124.0
1385.51001 132.0
1385.628662 72.0
1385.710327 148.0
1385.885254 212.0
1385.922485 156.0
1385.94873 160.0
1386.310303 148.0
1386.372437 92.0
1386.472412 156.0
1386.638062 148.0
1386.725342 140.0
1386.991577 212.0
1387.07373 80.0
1387.144409 96.0
1387.22937 196.0
1387.387939 296.0
1387.583984 284.0
1387.689087 184.0
1388.164307 136.0
1388.277222 152.0
1388.539307 208.0
1388.639282 140.0
1388.794067 204.0
1389.016602 136.0
1389.160767 184.0
1389.404175 128.0
1389.476562 60.0
1389.528442 180.0
1389.595215 220.0
1389.647095 164.0
1389.736206 148.0
1389.896606 176.0
1390.04541 260.0
1390.189575 152.0
1390.252686 200.0
1390.366333 128.0
1390.530273 220.0
1390.693481 76.0
1390.75293 184.0
1390.80481 168.0
1390.893921 148.0
1391.028198 220.0
1391.163574 172.0
1391.250244 140.0
1391.354248 80.0
1391.479736 132.0
1391.576904 144.0
1391.640869 204.0
1391.705933 196.0
1391.77002 308.0
1391.903687 172.0
1391.970459 176.0
1392.052124 84.0
1392.148438 124.0
1392.319458 56.0
1392.430908 164.0
1392.583984 164.0
1392.73877 132.0
1392.814087 184.0
1393.210938 136.0
1393.382324 156.0
1393.508057 148.0
1393.567505 224.0
1393.626587 152.0
1393.949219 132.0
1394.089966 164.0
1394.146973 272.0
1394.236328 68.0
1394.392334 220.0
1394.451782 136.0
1394.623779 92.0
1394.707153 168.0
1394.721191 188.0
1394.752319 152.0
1394.92749 188.0
1395.052612 188.0
1395.143188 180.0
1395.204834 196.0
1395.351318 216.0
1395.418213 148.0
1395.477661 472.0
1395.542603 300.0
1395.679688 208.0
1395.760254 144.0
1395.842285 160.0
1395.894043 208.0
1396.087402 192.0
1396.360718 176.0
1396.533691 156.0
1396.585815 60.0
1396.761353 144.0
1397.106445 136.0
1397.258545 280.0
1397.45105 388.0
1397.630493 272.0
1397.750366 168.0
1398.079102 136.0
1398.142822 176.0
1398.252441 124.0
1398.341675 116.0
1398.483765 92.0
1398.553101 132.0
1398.624512 144.0
1398.706055 260.0
1398.908081 244.0
1398.967041 416.0
1399.033936 176.0
1399.093506 40.0
1399.14563 112.0
1399.421143 48.0
1399.514282 160.0
1399.644165 160.0
1399.877686 176.0
1400.076416 136.0
1400.165771 164.0
1400.37439 92.0
1400.456299 160.0
1400.605225 184.0
1400.657349 156.0
1400.79895 164.0
1400.913452 208.0
1401.037354 192.0
1401.168823 56.0
1401.290649 120.0
1401.433228 112.0
1401.611084 120.0
1401.741577 100.0
1401.789917 168.0
1401.849487 220.0
1401.974609 188.0
1402.146729 172.0
1402.158813 164.0
1402.223022 180.0
1402.408447 92.0
1402.52771 160.0
1402.587402 80.0
1402.743896 164.0
1402.811035 136.0
1402.937744 112.0
1403.004883 156.0
1403.094238 200.0
1403.213623 208.0
1403.288086 120.0
1403.42981 176.0
1403.554688 172.0
1403.77124 152.0
1403.799927 120.0
1403.884644 64.0
1403.992554 160.0
1404.093506 132.0
1404.194336 336.0
1404.304565 204.0
1404.49353 196.0
1404.652954 156.0
1404.734985 120.0
1404.846924 308.0
1404.996094 92.0
1405.121094 152.0
1405.525879 148.0
1405.724609 304.0
1405.809448 164.0
1405.913818 140.0
1406.093018 168.0
1406.212402 152.0
1406.272095 200.0
1406.346802 188.0
1406.481079 168.0
1406.606567 228.0
1406.736816 156.0
1406.819214 180.0
1406.921509 164.0
1406.998657 228.0
1407.115723 400.0
1407.25415 184.0
1407.503906 100.0
1407.608521 80.0
1407.70105 140.0
1407.754517 200.0
1407.89978 96.0
1407.956177 176.0
1408.03418 156.0
1408.138672 184.0
1408.19104 208.0
1408.288086 116.0
1408.394287 204.0
1408.4823 128.0
1408.616821 100.0
1408.669067 160.0
1409.017578 124.0
1409.060669 136.0
1409.124756 200.0
1409.199463 336.0
1409.289185 40.0
1409.386353 272.0
1409.468506 100.0
1409.520752 188.0
1409.647827 88.0
1409.901978 156.0
1410.040527 160.0
1410.238281 92.0
1410.320435 96.0
1410.572998 216.0
1410.694214 132.0
1410.824341 208.0
1410.95105 220.0
1411.008179 96.0
1411.090454 112.0
1411.142822 156.0
1411.232544 200.0
1411.282715 152.0
1411.359009 100.0
1411.471802 76.0
1411.812378 268.0
1411.935425 160.0
1412.15979 96.0
1412.236206 196.0
1412.309448 156.0
1412.473999 120.0
1412.533813 136.0
1412.593628 116.0
1412.676025 144.0
1412.765747 48.0
1412.967773 204.0
1413.061646 80.0
1413.229614 112.0
1413.334351 224.0
1413.477173 124.0
1413.70105 148.0
1413.756958 152.0
1413.854858 168.0
1413.970459 164.0
1414.060791 216.0
1414.194946 156.0
1414.379395 76.0
1414.457031 132.0
1414.621704 196.0
1414.741455 128.0
1414.864136 132.0
1414.96936 116.0
1415.070923 140.0
1415.134521 200.0
1415.293945 196.0
1415.47522 136.0
1415.707397 132.0
1415.834717 144.0
1415.921997 160.0
1416.021973 128.0
1416.096802 100.0
1416.261597 188.0
1416.340088 136.0
1416.442017 192.0
1416.643677 156.0
1416.714966 144.0
1416.877563 108.0
1416.973267 204.0
1417.37793 128.0
1417.445312 168.0
1417.630127 180.0
1417.790039 340.0
1417.880005 132.0
1417.977417 40.0
1418.049194 144.0
1418.2323 108.0
1418.356079 192.0
1418.500244 348.0
1418.854614 172.0
1418.921265 148.0
1418.98938 184.0
1419.056885 200.0
1419.21167 212.0
1419.311768 176.0
1419.446777 120.0
1419.534302 164.0
1419.619263 60.0
1419.690918 100.0
1420.136719 144.0
1420.226807 124.0
1420.33606 156.0
1420.504272 144.0
1420.616821 84.0
1420.789429 144.0
1420.886963 72.0
1420.981079 140.0
1421.112061 192.0
1421.179565 152.0
1421.254639 312.0
1421.307129 120.0
1421.442139 232.0
1421.547241 92.0
1421.74707 140.0
1421.929932 264.0
1422.084473 124.0
1422.154785 172.0
1422.245239 336.0
1422.393677 268.0
1422.536621 240.0
1422.706665 156.0
1422.735718 188.0
1422.830811 164.0
1422.981689 156.0
1423.068115 120.0
1423.13855 128.0
1423.288818 168.0
1423.42395 232.0
1423.62146 304.0
1423.777954 184.0
1423.887085 188.0
1423.942139 196.0
1423.994751 132.0
1424.073364 196.0
1424.227539 196.0
1424.289673 148.0
1424.396973 208.0
1424.479126 136.0
1424.550537 148.0
1424.700806 172.0
1424.794556 176.0
1424.866089 152.0
1424.926147 108.0
1425.053955 136.0
1425.281494 328.0
1425.459717 140.0
1425.775269 276.0
1425.880493 180.0
1425.948364 156.0
1426.023315 136.0
1426.226318 164.0
1426.293945 152.0
1426.421021 132.0
1426.658447 264.0
1426.860596 156.0
1427.029907 80.0
1427.158569 204.0
1427.218628 92.0
1427.307739 164.0
1427.528076 340.0
1427.671265 144.0
1427.737549 104.0
1427.902954 212.0
1427.963135 144.0
1428.136108 156.0
1428.207764 160.0
1428.301636 192.0
1428.381958 208.0
1428.715454 136.0
1428.791748 208.0
1428.85083 168.0
1429.001343 136.0
1429.099121 160.0
1429.193115 152.0
1429.624023 116.0
1429.709717 136.0
1429.972778 200.0
1430.145142 108.0
1430.233521 136.0
1430.521606 76.0
1430.587036 164.0
1430.905518 128.0
1431.026001 192.0
1431.184082 160.0
1431.314697 160.0
1431.410034 72.0
1431.493286 116.0
1431.560547 112.0
1431.869385 216.0
1431.934937 148.0
1432.030762 188.0
1432.163086 140.0
1432.249512 136.0
1432.348389 200.0
1432.435303 172.0
1432.765747 248.0
1432.878784 40.0
1432.931519 160.0
1433.062744 224.0
1433.144897 100.0
1433.388794 180.0
1433.473999 76.0
1433.556885 172.0
1433.624512 132.0
1433.649536 112.0
1433.674927 144.0
1433.767944 124.0
1433.865967 128.0
1433.956421 188.0
1434.220215 100.0
1434.438843 128.0
1434.544312 344.0
1434.612183 180.0
1434.686401 132.0
1434.812378 152.0
1434.839478 284.0
1434.994141 152.0
1435.268066 156.0
1435.505859 144.0
1435.601074 180.0
1435.704102 188.0
1435.774658 160.0
1435.99231 140.0
1436.127808 136.0
1436.44812 132.0
1436.520142 256.0
1436.570557 104.0
1436.701782 180.0
1436.808594 168.0
1436.897095 160.0
1437.007935 184.0
1437.21814 148.0
1437.277466 148.0
1437.357544 108.0
1437.442871 120.0
1437.593872 180.0
1437.746948 340.0
1437.893433 92.0
1437.968872 208.0
1438.078857 228.0
1438.203247 252.0
1438.301025 168.0
1438.371338 140.0
1438.692261 172.0
1438.718018 228.0
1438.833008 224.0
1438.985352 180.0
1439.096191 108.0
1439.169189 112.0
1439.244751 176.0
1439.520752 180.0
1439.536377 120.0
1439.549805 120.0
1439.567871 136.0
1439.675171 112.0
1439.728027 140.0
1439.787842 176.0
1439.931885 208.0
1440.002686 132.0
1440.067871 140.0
1440.194336 220.0
1440.224976 164.0
1440.302002 124.0
1440.354858 156.0
1440.563354 88.0
1440.630249 252.0
1440.702393 44.0
1440.838379 176.0
1440.906372 140.0
1440.999146 192.0
1441.125488 164.0
1441.201538 140.0
1441.299316 112.0
1441.359741 304.0
1441.407959 244.0
1441.453247 148.0
1441.548706 156.0
1441.711792 192.0
1441.7948 184.0
1441.858521 128.0
1441.96106 208.0
1442.028931 148.0
1442.161499 172.0
1442.262817 144.0
1442.364868 144.0
1442.437744 76.0
1442.55188 156.0
1442.69751 148.0
1442.765625 40.0
1442.992432 152.0
1443.085083 108.0
1443.196533 100.0
1443.428589 140.0
1443.451904 120.0
1443.625732 156.0
1443.676025 148.0
1443.786377 168.0
1443.903564 152.0
1444.031982 144.0
1444.109619 152.0
1444.164551 180.0
1444.225098 80.0
1444.592529 208.0
1444.615601 164.0
1444.678955 140.0
1444.898315 112.0
1445.198486 180.0
1445.352295 184.0
1445.483521 140.0
1445.586914 112.0
1445.654297 132.0
1445.77832 212.0
1445.874023 148.0
1445.942627 64.0
1446.048096 160.0
1446.174683 132.0
1446.43457 132.0
1446.508911 288.0
1446.585938 140.0
1446.678711 160.0
1446.819824 192.0
1446.896362 128.0
1447.034668 124.0
1447.10083 140.0
1447.19165 92.0
1447.455933 176.0
1447.566406 328.0
1447.623291 112.0
1447.767212 136.0
1447.926147 132.0
1448.015869 172.0
1448.166992 172.0
1448.195801 136.0
1448.213745 120.0
1448.281616 96.0
1448.309692 88.0
1448.323242 152.0
1448.433716 96.0
1448.547363 112.0
1448.61084 164.0
1448.755127 132.0
1449.039795 156.0
1449.130615 136.0
1449.196411 176.0
1449.289795 48.0
1449.400146 148.0
1449.456543 124.0
1449.592896 132.0
1449.661133 136.0
1449.835449 96.0
1449.911133 144.0
1449.97937 188.0
1450.176392 160.0
1450.291626 128.0
1450.395874 208.0
1450.583862 144.0
1450.737427 100.0
1450.858643 180.0
1450.917236 132.0
1451.025513 144.0
1451.215088 44.0
1451.375366 216.0
1451.525879 140.0
1451.652588 148.0
1451.680664 252.0
1451.882324 104.0
1451.972534 136.0
1452.087158 124.0
1452.26709 144.0
1452.400146 220.0
1452.510864 140.0
1452.5802 120.0
1452.815308 136.0
1452.875977 120.0
1453.006714 176.0
1453.088501 216.0
1453.278198 152.0
1453.369141 140.0
1453.4375 188.0
1453.599609 152.0
1453.665161 72.0
1453.740967 144.0
1453.816162 152.0
1453.938354 180.0
1453.999023 36.0
1454.097778 136.0
1454.181152 332.0
1454.340576 144.0
1454.549072 148.0
1454.651855 144.0
1454.797852 204.0
1454.871948 128.0
1454.957642 128.0
1455.174194 160.0
1455.194702 128.0
1455.271973 252.0
1455.395874 124.0
1455.524902 156.0
1455.579712 324.0
1455.708374 152.0
1455.794067 292.0
1455.9198 432.0
1455.988159 124.0
1456.04895 132.0
1456.175293 212.0
1456.283691 244.0
1456.383179 144.0
1456.580688 208.0
1456.641357 132.0
1456.82373 160.0
1456.945312 172.0
1457.064819 216.0
1457.184082 112.0
1457.241577 152.0
1457.309937 140.0
1457.42395 164.0
1457.511719 92.0
1457.560669 120.0
1457.684692 140.0
1457.803711 176.0
1457.940674 44.0
1458.111206 92.0
1458.23645 176.0
1458.488647 196.0
1458.624634 204.0
1458.906006 116.0
1459.023438 160.0
1459.22644 340.0
1459.354614 180.0
1459.561646 384.0
1459.67395 136.0
1459.757568 236.0
1459.805176 152.0
1459.879272 60.0
1459.955322 60.0
1460.103638 176.0
1460.266357 176.0
1460.351318 120.0
1460.449707 200.0
1460.533691 188.0
1460.562134 128.0
1460.580566 160.0
1460.66272 140.0
1460.862061 192.0
1460.977783 160.0
1461.126709 148.0
1461.19519 156.0
1461.309326 184.0
1461.472046 168.0
1461.546387 108.0
1461.674561 140.0
1461.751465 160.0
1461.865112 92.0
1462.055054 36.0
1462.184448 140.0
1462.315186 164.0
1462.402466 256.0
1462.557373 168.0
1462.686768 208.0
1462.744385 316.0
1462.851685 92.0
1462.928345 116.0
1462.981689 180.0
1463.059814 44.0
1463.113159 116.0
1463.223511 192.0
1463.328247 92.0
1463.483521 228.0
1463.539551 132.0
1463.608032 144.0
1463.668945 80.0
1463.752686 184.0
1463.813599 192.0
1463.931396 112.0
1463.99939 140.0
1464.133545 100.0
1464.357788 108.0
1464.537109 156.0
1464.605713 184.0
1464.697144 140.0
1464.825317 116.0
1464.987183 152.0
1465.039917 312.0
1465.149414 172.0
1465.418335 120.0
1465.565674 52.0
1465.702759 148.0
1465.809448 116.0
1465.878052 104.0
1466.015259 144.0
1466.175293 136.0
1466.2323 176.0
1466.31665 152.0
1466.365845 180.0
1466.457275 112.0
1466.59668 136.0
1466.675903 124.0
1466.792603 316.0
1466.844604 212.0
1466.9375 128.0
1467.135864 184.0
1467.303467 108.0
1467.373291 140.0
1467.455933 92.0
1467.516968 200.0
1467.677002 56.0
1467.764282 184.0
1467.795288 204.0
1467.867676 228.0
1467.93103 104.0
1468.02356 172.0
1468.119263 152.0
1468.203247 200.0
1468.340454 176.0
1468.4646 120.0
1468.538818 336.0
1468.588623 152.0
1468.691406 252.0
1468.860596 188.0
1469.11731 156.0
1469.217773 152.0
1469.286377 140.0
1469.354614 156.0
1469.515259 40.0
1469.598633 172.0
1469.711914 148.0
1469.858643 144.0
1469.950195 132.0
1470.087524 220.0
1470.159912 152.0
1470.232544 116.0
1470.349854 152.0
1470.461548 184.0
1470.601685 132.0
1470.672852 156.0
1470.721069 300.0
1470.812378 128.0
1470.851074 128.0
1471.064575 200.0
1471.14978 144.0
1471.27832 164.0
1471.464844 196.0
1471.544189 124.0
1471.782959 164.0
1472.059082 188.0
1472.164062 104.0
1472.255737 184.0
1472.339722 216.0
1472.491577 164.0
1472.698608 136.0
1472.752075 180.0
1472.888428 148.0
1473.00415 80.0
1473.072998 128.0
1473.271606 320.0
1473.384644 320.0
1473.619507 132.0
1473.744263 176.0
1473.821655 60.0
1473.920166 160.0
1474.035645 136.0
1474.152832 164.0
1474.215576 104.0
1474.283447 208.0
1474.370605 160.0
1474.484985 136.0
1474.540039 180.0
1474.694336 132.0
1474.796875 144.0
1474.925659 140.0
1475.170532 220.0
1475.350342 196.0
1475.449707 168.0
1475.507935 208.0
1475.594971 120.0
1475.663818 132.0
1475.789673 168.0
1476.186646 332.0
1476.23999 140.0
1476.313721 112.0
1476.439453 184.0
1476.675415 188.0
1476.810913 132.0
1476.948486 152.0
1477.053833 172.0
1477.208618 44.0
1477.285156 140.0
1477.361572 64.0
1477.419678 164.0
1477.523804 196.0
1477.658813 180.0
1477.779175 172.0
1477.863403 124.0
1477.949463 120.0
1478.157715 224.0
1478.303101 168.0
1478.379272 96.0
1478.495117 180.0
1478.62085 120.0
1478.779907 164.0
1478.945679 168.0
1479.022217 136.0
1479.130005 180.0
1479.34668 144.0
1479.581055 136.0
1479.695923 88.0
1479.865723 216.0
1479.935913 168.0
1479.998657 140.0
1480.140015 152.0
1480.216553 168.0
1480.290161 360.0
1480.350952 124.0
1480.424683 224.0
1480.564697 184.0
1480.699707 132.0
1480.790894 44.0
1480.988892 176.0
1481.13562 108.0
1481.227539 56.0
1481.406372 212.0
1481.572266 72.0
1481.625854 140.0
1481.717773 192.0
1481.802124 164.0
1482.108643 136.0
1482.223511 128.0
1482.296509 108.0
1482.403442 92.0
1482.419067 156.0
1482.458984 128.0
1482.472412 248.0
1482.54541 44.0
1482.637939 156.0
1482.696411 272.0
1482.845337 180.0
1482.936646 160.0
1483.162842 124.0
1483.37915 396.0
1483.46521 136.0
1483.547729 172.0
1483.778564 160.0
1483.798096 140.0
1483.955811 128.0
1484.208862 240.0
1484.484985 252.0
1484.549194 244.0
1484.653687 28.0
1484.812134 196.0
1484.926636 148.0
1485.017334 404.0
1485.236572 164.0
1485.305542 80.0
1485.436035 120.0
1485.497314 152.0
1485.566406 88.0
1485.651123 180.0
1485.883667 268.0
1485.980713 52.0
1486.287598 180.0
1486.36438 188.0
1486.494751 128.0
1486.551392 192.0
1486.58606 72.0
1486.614624 184.0
1486.748047 252.0
1486.847778 168.0
1486.947632 132.0
1487.004761 124.0
1487.193237 76.0
1487.362427 196.0
1487.53186 96.0
1487.625732 116.0
1487.730591 148.0
1487.803833 236.0
1488.014648 124.0
1488.255615 264.0
1488.360107 200.0
1488.429199 192.0
1488.490723 104.0
1488.60437 168.0
1488.72876 120.0
1488.937012 196.0
1489.05896 132.0
1489.174194 44.0
1489.325439 476.0
1489.442993 136.0
1489.512207 508.0
1489.573608 188.0
1489.650391 188.0
1489.727661 172.0
1489.865356 156.0
1489.977539 192.0
1490.072998 184.0
1490.254517 212.0
1490.367065 216.0
1490.580078 136.0
1490.66394 172.0
1490.779907 136.0
1490.941284 148.0
1491.202637 176.0
1491.325562 160.0
1491.433228 76.0
1491.528687 276.0
1491.617676 168.0
1491.676758 240.0
1491.748413 168.0
1491.856323 236.0
1491.940552 168.0
1492.036499 344.0
1492.135376 196.0
1492.194214 216.0
1492.275879 164.0
1492.417236 420.0
1492.48645 144.0
1492.725708 140.0
1492.83252 168.0
1492.981934 128.0
1493.065063 160.0
1493.155518 176.0
1493.261353 184.0
1493.347778 248.0
1493.473755 128.0
1493.538452 232.0
1493.588989 168.0
1493.646851 108.0
1493.762085 140.0
1493.903198 112.0
1493.952637 328.0
1494.004395 232.0
1494.073853 112.0
1494.132446 148.0
1494.186279 136.0
1494.252441 252.0
1494.363281 100.0
1494.440186 124.0
1494.494019 184.0
1494.65625 152.0
1494.846802 188.0
1495.025024 136.0
1495.217407 92.0
1495.329468 236.0
1495.386719 68.0
1495.479126 144.0
1495.586792 132.0
1495.784546 128.0
1495.875122 164.0
1495.9823 208.0
1496.164551 184.0
1496.348999 112.0
1496.435913 180.0
1496.572266 144.0
1496.702393 240.0
1496.843384 148.0
1496.980347 256.0
1497.122192 116.0
1497.144165 320.0
1497.276001 136.0
1497.347168 220.0
1497.39856 308.0
1497.480957 176.0
1497.581055 304.0
1497.845703 236.0
1498.058716 144.0
1498.196045 180.0
1498.253906 192.0
1498.34375 152.0
1498.406738 92.0
1498.551758 104.0
1498.613403 96.0
1498.717651 176.0
1498.739746 92.0
1498.761597 120.0
1498.821411 148.0
1498.909302 224.0
1498.990967 112.0
1499.049561 180.0
1499.137451 204.0
1499.28772 180.0
1499.342163 152.0
1499.453369 132.0
1499.538208 168.0
1499.68457 148.0
1499.78064 160.0
1499.831055 184.0
1500.006836 248.0
1500.04895 108.0
1500.193359 212.0
1500.282471 152.0
1500.343262 152.0
1500.409424 128.0
1500.486328 172.0
1500.563232 172.0
1500.810425 216.0
1500.911255 200.0
1501.092896 208.0
1501.17749 176.0
1501.27417 160.0
1501.349976 156.0
1501.434814 176.0
1501.519653 132.0
1501.588989 168.0
1501.790039 132.0
1501.909302 116.0
1501.967041 356.0
1502.128418 196.0
1502.275513 76.0
1502.336304 132.0
1502.432861 196.0
1502.570679 232.0
1502.641113 216.0
1502.753906 124.0
1502.854248 112.0
1502.914795 224.0
1503.07666 196.0
1503.162842 136.0
1503.221191 120.0
1503.310303 144.0
1503.656738 172.0
1503.988647 136.0
1504.116455 100.0
1504.447632 300.0
1504.502563 132.0
1504.670532 180.0
1504.835938 196.0
1505.05188 152.0
1505.370605 160.0
