>compound MLS001076506-01!6-KETOESTRADIOL
>formula C18H22O3
>ionization [M+H]+
>parentmass 287.164001
#inchi InChI=1S/C18H22O3/c1-18-7-6-12-11-3-2-10(19)8-14(11)16(20)9-13(12)15(18)4-5-17(18)21/h2-3,8,12-13,15,17,19,21H,4-7,9H2,1H3/t12-,13-,15+,17+,18+/m1/s1
#inchikey ZHTDDOWJIRXOMA
#Ion_Source LC-ESI
#Instrument qTof
#Compound_Source NIH Pharmacologically Active Library
#PI Dorrestein
#Data_Collector VP/LMS
#Scan -1
#Precursor_MZ 287.167
#ExactMass 286.157
#Charge 1
#CAS_Number N/A
#Pubmed_ID N/A
#Smiles C[C@@]12CC[C@H]3[C@@H](CC(=O)c4cc(O)ccc34)[C@@H]2CC[C@@H]1O
#INCHI_AUX N/A
#Library_Class 1
#SpectrumID CCMSLIB00000084840
#IonMode Positive
#UpdateWorkflowName UPDATE-SINGLE-ANNOTATED-GOLD
#LibraryQualityString Gold
#TaskID d252d724072548979f1f6f1ced849daf
##Scan# 1760
#SpectrumFile p3-B06_GB6_01_18239.mzXML
#LibraryName Pharm_Active_Library.mgf
#MQScore -1
#Organism Pharm_Active_Library
#TIC_Query 0
#RT_Query -1
#MZErrorPPM -1
#SharedPeaks 0
#MassDiff 0
#LibMZ -1
#SpecMZ 287.167
#SpecCharge 0
#internalFilename spec-00000.mgf

>collision 10
45.288822 136.0
45.522182 204.0
45.688854 160.0
45.800583 172.0
46.139301 136.0
46.271889 156.0
47.715397 200.0
47.773159 152.0
48.237888 100.0
50.387375 172.0
50.650501 248.0
51.175964 200.0
51.191628 152.0
52.207691 176.0
52.628464 232.0
53.335442 172.0
54.165722 180.0
54.444397 108.0
54.486996 224.0
54.887341 204.0
54.943386 72.0
55.190037 192.0
56.593174 144.0
56.669563 148.0
56.890026 192.0
58.071545 120.0
59.04171 208.0
59.095791 192.0
59.758068 60.0
60.024536 148.0
60.367352 184.0
61.35643 208.0
61.415688 172.0
61.903297 176.0
62.28598 128.0
62.502937 132.0
63.399891 164.0
64.565247 252.0
64.771713 204.0
64.875877 152.0
65.132629 168.0
65.892998 208.0
66.263489 180.0
66.626907 112.0
68.532997 156.0
68.777069 208.0
69.208549 204.0
69.672943 248.0
70.132217 60.0
70.753632 116.0
70.968086 212.0
71.335754 168.0
72.116188 204.0
72.237938 192.0
72.636009 216.0
73.408157 184.0
75.605392 172.0
76.713539 196.0
77.125496 240.0
77.284637 208.0
77.750755 136.0
79.182327 216.0
80.434059 200.0
80.693092 132.0
81.28775 108.0
81.36673 188.0
81.580513 180.0
82.568611 200.0
85.369873 128.0
85.675407 236.0
85.88002 204.0
87.577835 52.0
88.296394 152.0
90.822136 176.0
91.050842 156.0
91.281738 132.0
91.353355 232.0
91.908417 84.0
92.937828 192.0
93.02803 164.0
93.10675 136.0
93.745438 76.0
94.682381 232.0
95.050705 168.0
95.085632 76.0
95.174927 164.0
95.357536 100.0
97.064667 208.0
98.06636 180.0
98.48465 128.0
98.969154 112.0
99.435005 128.0
100.497635 128.0
101.028809 216.0
101.107101 224.0
101.251244 160.0
101.646164 204.0
102.065971 212.0
102.762871 176.0
102.791122 136.0
102.847633 132.0
102.946556 52.0
103.050301 168.0
103.298233 140.0
104.054131 128.0
104.1577 244.0
105.070488 788.0
105.748085 196.0
105.989731 168.0
106.024574 164.0
106.073761 340.0
106.090164 216.0
106.133217 180.0
106.671104 168.0
106.720444 44.0
106.841782 180.0
107.050003 2856.0
107.082535 392.0
107.272179 116.0
107.367027 88.0
107.472229 60.0
108.021767 208.0
108.051514 248.0
108.083832 172.0
109.066841 488.0
109.103035 160.0
109.278961 192.0
109.44339 112.0
109.493362 64.0
109.52877 112.0
109.643364 84.0
109.753845 132.0
110.077271 204.0
110.098152 136.0
110.476471 124.0
111.03363 212.0
111.077492 192.0
111.388344 212.0
112.265991 168.0
112.388336 108.0
112.774796 164.0
113.193672 188.0
113.53273 48.0
113.723671 156.0
113.863792 124.0
113.923271 72.0
114.17408 156.0
114.227249 200.0
114.693573 148.0
115.056915 464.0
116.441612 172.0
116.903824 128.0
117.063118 152.0
117.080345 180.0
117.63015 204.0
118.071999 136.0
118.499504 40.0
119.051208 300.0
119.089546 144.0
119.106926 28.0
119.289452 172.0
120.082016 188.0
120.927544 200.0
120.999779 52.0
121.029144 1100.0
121.064064 772.0
121.091927 144.0
121.113647 232.0
121.133362 96.0
121.234146 100.0
121.334976 224.0
121.38102 88.0
122.034416 200.0
123.039986 196.0
123.084137 116.0
124.030075 168.0
124.819138 228.0
125.096054 152.0
125.451439 192.0
126.049576 192.0
126.38945 136.0
127.055161 760.0
127.071785 208.0
127.10199 160.0
127.144623 132.0
128.060608 452.0
128.499222 236.0
129.065781 376.0
129.129456 28.0
130.073929 256.0
130.321823 172.0
130.353638 80.0
130.876801 128.0
130.926895 188.0
131.047363 632.0
131.087341 176.0
131.186646 116.0
131.725189 188.0
132.055313 428.0
132.097778 156.0
132.803268 144.0
132.865204 84.0
133.064285 700.0
133.099258 520.0
133.131454 48.0
133.488922 188.0
133.740707 76.0
133.885757 108.0
134.024872 172.0
134.066895 424.0
134.496719 96.0
134.642181 120.0
135.058823 148.0
135.081329 144.0
136.073181 168.0
136.61235 112.0
136.777557 116.0
137.052368 176.0
137.918152 144.0
138.036636 256.0
138.40242 216.0
138.491409 40.0
138.650726 68.0
139.904999 144.0
140.508301 176.0
140.673492 148.0
140.730164 208.0
141.067673 544.0
141.951096 192.0
142.034103 140.0
142.079178 120.0
143.086411 268.0
143.413177 72.0
144.056381 556.0
145.065109 1388.0
145.105179 208.0
145.151184 84.0
145.167969 168.0
145.662384 156.0
145.847397 140.0
146.039749 164.0
146.068619 100.0
146.456146 68.0
147.042679 340.0
147.083267 284.0
147.11824 244.0
147.665344 192.0
148.045303 192.0
149.058365 1224.0
149.096634 428.0
149.253738 28.0
150.06218 208.0
150.374329 120.0
150.88974 148.0
151.075592 216.0
151.120697 228.0
151.430511 48.0
152.065521 148.0
152.117065 148.0
152.257019 80.0
153.072754 188.0
153.877243 84.0
154.072357 148.0
154.715332 60.0
154.9729 96.0
155.06163 660.0
155.083633 176.0
156.083817 220.0
156.485474 136.0
156.799332 76.0
157.06485 6800.0
157.094971 180.0
157.373062 76.0
157.727798 84.0
157.845306 112.0
158.069473 1228.0
158.508636 184.0
158.89476 160.0
159.082504 488.0
159.238647 112.0
159.261246 84.0
159.562805 48.0
159.811783 68.0
159.84198 88.0
160.083633 172.0
160.421249 88.0
161.06723 144.0
161.1026 184.0
161.163223 140.0
162.058899 192.0
162.107056 156.0
162.167877 136.0
163.078308 308.0
163.109543 164.0
165.071915 280.0
166.07695 180.0
166.251007 172.0
167.084824 344.0
167.325424 168.0
168.037292 224.0
168.091873 220.0
168.139954 128.0
169.069611 192.0
169.091019 132.0
169.513138 60.0
170.073822 180.0
171.079529 628.0
171.110504 152.0
171.149567 176.0
172.086197 392.0
172.480057 56.0
173.059036 448.0
173.09491 220.0
174.069153 324.0
174.10022 124.0
175.074844 172.0
175.14859 156.0
176.642609 220.0
177.071381 160.0
178.083221 200.0
179.085449 492.0
180.091675 156.0
180.715622 76.0
181.067413 396.0
181.101105 192.0
181.513809 140.0
182.031708 124.0
182.070343 624.0
183.081818 760.0
184.07373 164.0
184.08284 56.0
184.108124 220.0
184.175446 168.0
184.707916 164.0
185.005585 100.0
185.095993 444.0
185.120392 248.0
185.555527 160.0
186.011276 64.0
186.102814 168.0
186.125305 180.0
187.07251 400.0
187.101364 64.0
187.131317 204.0
188.082718 164.0
189.074829 152.0
189.874802 128.0
190.072311 40.0
191.08316 132.0
191.110916 216.0
191.251266 152.0
192.088531 116.0
193.101913 144.0
194.067795 424.0
194.124496 228.0
195.078506 716.0
195.1185 272.0
195.744522 64.0
196.087402 824.0
196.12619 124.0
197.095154 972.0
197.569855 112.0
198.028915 184.0
198.111618 168.0
198.648376 76.0
198.757782 40.0
199.115936 420.0
199.294083 68.0
199.507675 100.0
200.081558 100.0
200.120255 108.0
200.659103 168.0
201.069427 256.0
201.124115 476.0
201.387146 84.0
201.41539 40.0
201.44928 120.0
201.649902 44.0
202.058533 140.0
203.075424 112.0
203.965561 272.0
206.068665 156.0
206.546066 68.0
207.082397 304.0
207.442322 68.0
208.090149 424.0
209.093719 336.0
210.101913 668.0
210.876221 124.0
211.108856 448.0
211.307083 56.0
212.113586 152.0
213.128082 160.0
213.651199 160.0
214.099442 176.0
214.516083 196.0
215.101517 92.0
219.464844 172.0
220.086014 148.0
220.944504 108.0
221.097946 264.0
221.148682 188.0
222.061218 196.0
222.105026 156.0
223.112579 168.0
224.11467 212.0
224.145142 140.0
225.124313 176.0
225.16835 92.0
226.122055 160.0
227.143188 376.0
227.218765 156.0
228.154572 180.0
229.094666 148.0
235.111618 132.0
235.94725 40.0
236.122116 452.0
240.178833 200.0
241.126694 152.0
241.163773 148.0
243.133606 140.0
250.383484 64.0
251.137909 260.0
251.370178 84.0
252.135574 128.0
252.181793 128.0
252.523254 68.0
258.273834 144.0
267.854309 32.0
268.212738 108.0
269.162109 112.0
269.214355 120.0
271.072388 128.0
273.157166 132.0
285.201294 100.0
286.055664 148.0
286.202545 152.0
286.3284 84.0
287.164001 1524.0
287.545441 64.0
287.869537 112.0
288.169464 524.0
288.271515 84.0
288.345856 28.0
289.165863 104.0
289.729797 88.0
290.055084 124.0
290.950653 60.0
294.143738 180.0
299.627106 88.0
310.349487 60.0
313.996063 168.0
362.126709 72.0
367.864441 132.0
373.781921 56.0
403.857605 80.0
414.226501 84.0
486.046753 104.0
623.638489 48.0
682.480225 96.0
684.858398 52.0
734.197021 88.0
793.493896 88.0
814.799133 60.0
820.957703 216.0
954.814331 204.0
961.486389 124.0
973.738342 160.0
993.080078 148.0
1010.390259 136.0
1023.286438 232.0
1028.384399 168.0
1064.321777 172.0
1074.51416 128.0
1080.557373 172.0
1080.87793 60.0
1099.963379 160.0
1101.885132 80.0
1109.475952 72.0
1114.865479 156.0
1160.993896 60.0
1168.030151 32.0
1173.123657 132.0
1173.982666 160.0
1179.253174 124.0
1184.281982 56.0
1192.707764 188.0
1193.986572 168.0
1201.018555 168.0
1201.225464 188.0
1207.884399 248.0
1208.154175 176.0
1210.050415 156.0
1211.677979 140.0
1221.674805 92.0
1224.960449 164.0
1229.206299 240.0
1243.271973 216.0
1245.033936 152.0
1252.122925 156.0
1256.528442 176.0
1260.10083 116.0
1260.263306 184.0
1266.198242 172.0
1266.488647 108.0
1274.362915 192.0
1279.697144 156.0
1280.188477 128.0
1281.926636 176.0
1287.19104 124.0
1289.805786 168.0
1305.219482 180.0
1307.291138 96.0
1313.256348 36.0
1320.775269 212.0
1329.099243 132.0
1335.317627 200.0
1336.146851 200.0
1343.081665 220.0
1349.683594 88.0
1353.034546 200.0
1361.253784 168.0
1372.615234 224.0
1379.052612 64.0
1379.510864 168.0
1382.484131 208.0
1396.483643 156.0
1397.294434 192.0
1410.845093 208.0
1414.016602 100.0
1420.782837 152.0
1421.180542 192.0
1422.831665 168.0
1429.874756 120.0
1432.24646 196.0
1432.901855 176.0
1445.609497 140.0
1449.774536 164.0
1450.274658 184.0
1450.502075 260.0
1462.38916 64.0
1463.85083 80.0
1478.186523 144.0
1481.631836 208.0
1490.309082 172.0
1491.008423 196.0
1499.181274 240.0
