>compound Irsogladine
>formula C9H7Cl2N5
>ionization [M+H]+
>parentmass 256.016418
#inchi InChI=1S/C9H7Cl2N5/c10-4-1-2-6(11)5(3-4)7-14-8(12)16-9(13)15-7/h1-3H,(H4,12,13,14,15,16)
#inchikey ATCGGEJZONJOCL
#Ion_Source LC-ESI
#Instrument qTof
#Compound_Source Commercial
#PI Dorrestein
#Data_Collector Garg_Neha
#Scan -1
#Precursor_MZ 256.015
#ExactMass 255.008
#Charge 1
#CAS_Number 57381-26-7, 84504-69-8 (Maleic acid)
#Pubmed_ID N/A
#Smiles C1=CC(=C(C=C1Cl)C2=NC(=NC(=N2)N)N)Cl
#INCHI_AUX N/A
#Library_Class 1
#SpectrumID CCMSLIB00000078349
#IonMode Positive
#UpdateWorkflowName UPDATE-SINGLE-ANNOTATED-GOLD
#LibraryQualityString Gold
#TaskID 77f51c88eb8b467eb4a01dd2d0cb90d2
##Scan# 1091
#SpectrumFile Plate5_61_88_GH9_01_16511.mzXML
#LibraryName FDALibrary_2_04302014.mgf
#MQScore -1
#Organism FDALibrary_2_04302014
#TIC_Query 0
#RT_Query -1
#MZErrorPPM -1
#SharedPeaks 0
#MassDiff 0
#LibMZ -1
#SpecMZ 256.015
#SpecCharge 0
#internalFilename spec-00000.mgf

>collision 10
44.900372 164.0
45.088612 148.0
45.254482 188.0
46.05328 192.0
46.245274 200.0
46.368523 152.0
46.766468 208.0
47.552364 140.0
47.807987 188.0
47.960861 152.0
47.989811 232.0
48.089134 228.0
48.225868 176.0
48.541515 172.0
48.752518 212.0
48.988476 136.0
49.036427 200.0
49.161942 176.0
49.289013 176.0
49.33094 212.0
49.459633 148.0
49.577278 164.0
49.738567 208.0
49.849518 412.0
50.014069 140.0
50.103245 188.0
50.160561 160.0
50.202854 184.0
50.339737 168.0
50.420261 188.0
50.714645 176.0
50.774288 120.0
50.978619 184.0
51.015572 180.0
51.063919 140.0
51.112286 156.0
51.236153 200.0
51.261799 176.0
51.527191 268.0
51.579155 144.0
51.678745 192.0
51.738853 188.0
51.761761 168.0
52.006912 184.0
52.087318 176.0
52.108868 140.0
52.118927 164.0
52.408134 184.0
52.978329 96.0
53.365425 164.0
53.586082 168.0
53.60648 152.0
53.780029 172.0
53.817986 160.0
54.431503 152.0
55.12088 188.0
55.390141 180.0
55.573971 152.0
55.648182 152.0
55.735813 200.0
56.224247 140.0
56.248127 256.0
56.267532 184.0
56.286945 164.0
56.544067 180.0
56.582661 184.0
56.737297 148.0
56.759785 160.0
56.819782 212.0
57.033016 188.0
57.358143 152.0
57.613167 300.0
57.94297 196.0
58.141605 252.0
59.146011 156.0
59.300709 164.0
59.51701 144.0
59.707558 156.0
60.311943 152.0
60.465061 168.0
60.79826 168.0
60.883644 228.0
61.085697 168.0
61.381611 172.0
61.397205 216.0
61.662609 172.0
61.80022 172.0
62.319199 140.0
62.349052 152.0
62.526768 184.0
62.622807 152.0
62.645657 152.0
63.108849 176.0
63.13728 204.0
63.270222 208.0
63.48571 160.0
63.693737 168.0
63.819172 184.0
63.937061 144.0
64.209312 184.0
64.901733 156.0
65.054146 176.0
65.10392 148.0
65.1987 168.0
65.47702 244.0
65.584969 164.0
65.75441 140.0
66.00956 176.0
66.185936 160.0
66.202133 196.0
66.382751 192.0
66.461487 140.0
66.484207 172.0
66.59623 176.0
66.690468 176.0
66.724602 212.0
67.389565 140.0
67.81279 192.0
67.957703 184.0
67.982315 172.0
68.01519 132.0
68.133377 208.0
68.235268 140.0
68.264862 140.0
68.355339 152.0
68.524933 224.0
68.858139 176.0
69.096169 156.0
69.294846 184.0
69.336266 180.0
69.555206 160.0
69.762848 140.0
70.075722 176.0
70.152382 216.0
70.172386 148.0
70.264114 164.0
70.402916 104.0
70.772202 140.0
70.991714 164.0
71.005127 256.0
71.033134 172.0
71.448578 188.0
71.522621 148.0
71.734863 172.0
71.9356 184.0
72.025093 152.0
72.045364 192.0
72.094368 180.0
72.20256 220.0
72.24823 252.0
72.290527 232.0
72.348076 156.0
72.461548 144.0
72.696915 148.0
72.783806 224.0
72.937004 180.0
73.20211 172.0
73.29409 148.0
73.500412 180.0
73.984093 224.0
74.002922 160.0
74.049156 168.0
74.117683 200.0
74.38694 140.0
74.433296 168.0
74.556984 140.0
74.937263 204.0
75.332329 156.0
75.417 204.0
75.628014 184.0
75.685143 152.0
75.761345 176.0
75.875725 180.0
75.906937 176.0
75.955498 188.0
76.205482 200.0
76.283691 156.0
77.076675 180.0
77.127357 140.0
77.329109 160.0
77.368759 168.0
77.481209 172.0
77.619308 160.0
77.680687 148.0
77.728058 208.0
77.796509 168.0
78.680252 168.0
78.75972 148.0
79.04966 196.0
79.30468 172.0
79.451859 160.0
79.503319 176.0
79.600243 200.0
79.627594 224.0
79.812401 156.0
79.894218 160.0
79.93158 164.0
80.377052 160.0
80.780624 192.0
80.886398 184.0
80.909668 176.0
80.974129 160.0
81.009956 148.0
81.054741 192.0
81.104927 192.0
81.555443 140.0
81.899109 144.0
81.91172 212.0
82.082932 156.0
82.117195 240.0
82.297653 152.0
82.581367 148.0
83.103081 164.0
83.515457 140.0
83.739326 212.0
83.868683 196.0
84.049232 144.0
84.341431 140.0
84.381645 208.0
84.511505 216.0
84.863167 156.0
85.050285 192.0
85.202698 168.0
85.233932 140.0
85.32399 180.0
85.379158 196.0
85.633133 184.0
85.657074 192.0
86.072037 200.0
86.245697 164.0
86.267876 224.0
86.393623 180.0
86.454681 140.0
86.51947 152.0
86.702843 164.0
86.889969 196.0
87.057175 168.0
87.094315 148.0
87.142616 188.0
87.254128 160.0
87.836731 408.0
87.971359 376.0
88.006828 196.0
88.734642 148.0
88.759018 196.0
88.93161 176.0
88.967278 140.0
89.034866 164.0
89.275414 160.0
89.403336 296.0
89.472984 144.0
90.157677 140.0
90.325951 172.0
90.774803 180.0
91.190559 152.0
91.643463 156.0
91.94857 168.0
92.040199 172.0
92.294327 172.0
92.673309 168.0
92.746132 148.0
92.782555 196.0
92.970528 164.0
93.199036 140.0
93.276657 188.0
93.42205 148.0
93.597191 192.0
93.657608 140.0
93.707283 100.0
93.793694 172.0
93.978828 148.0
94.209152 160.0
94.562424 152.0
94.585648 160.0
94.895607 152.0
95.147827 236.0
95.351784 200.0
95.367332 184.0
95.390656 188.0
95.620171 156.0
96.042961 204.0
96.527298 164.0
96.95797 180.0
96.971695 144.0
97.263939 140.0
97.489799 168.0
97.83007 140.0
98.04673 188.0
98.099953 164.0
98.117691 144.0
98.205444 172.0
98.309021 160.0
98.328751 264.0
98.486702 176.0
98.619629 144.0
98.688271 192.0
99.502571 144.0
99.560158 168.0
100.013458 160.0
100.130928 208.0
100.55558 216.0
100.651405 168.0
100.847183 172.0
100.901154 224.0
100.961143 160.0
101.010384 212.0
101.184189 144.0
101.901237 140.0
101.929367 184.0
102.82753 168.0
102.936539 148.0
103.051674 144.0
103.079964 168.0
103.723305 168.0
103.873604 156.0
104.200439 156.0
104.70694 188.0
104.743599 188.0
104.841393 140.0
104.954002 132.0
105.106491 176.0
105.204453 144.0
105.402565 192.0
105.521111 192.0
105.791504 168.0
106.036957 176.0
106.063599 148.0
106.299454 148.0
106.652695 164.0
106.81102 140.0
106.975639 212.0
107.08683 192.0
107.183647 220.0
107.300537 352.0
107.513588 140.0
107.73452 256.0
107.879173 164.0
108.077721 156.0
108.158432 212.0
108.348946 156.0
108.440117 152.0
108.663132 168.0
108.886177 196.0
108.940186 168.0
109.195847 148.0
109.247849 148.0
109.439316 176.0
109.714325 180.0
110.048119 236.0
110.133759 176.0
110.712402 184.0
110.9813 176.0
111.126022 140.0
111.155403 208.0
111.461975 140.0
111.588081 172.0
111.602798 168.0
111.663788 204.0
111.760551 144.0
111.995827 520.0
112.053207 168.0
112.204948 144.0
112.333588 232.0
112.468636 144.0
112.757988 152.0
112.781242 212.0
112.912323 140.0
113.295441 168.0
113.679207 168.0
113.802322 220.0
113.995613 148.0
114.629745 140.0
114.793121 212.0
115.18232 160.0
115.274185 144.0
115.301964 216.0
115.398155 156.0
115.659142 260.0
115.716942 152.0
115.969818 176.0
115.997581 200.0
116.345108 188.0
116.628654 196.0
117.474899 188.0
117.669128 148.0
117.736061 192.0
117.772781 156.0
117.975899 144.0
118.027786 184.0
118.108543 192.0
118.289566 156.0
118.397827 156.0
118.419479 236.0
118.555969 152.0
118.779282 148.0
119.046242 184.0
119.661583 176.0
120.630203 152.0
121.010864 168.0
121.248077 176.0
121.600533 196.0
121.773979 220.0
121.8992 192.0
122.044273 228.0
122.159515 192.0
122.502037 240.0
122.808426 228.0
122.851189 180.0
123.258789 152.0
123.336136 184.0
123.373718 192.0
123.670128 160.0
123.694473 220.0
123.763985 164.0
123.805176 140.0
123.900421 144.0
124.497078 160.0
124.539276 200.0
125.057327 172.0
125.259956 204.0
125.286682 176.0
125.322334 224.0
125.473885 140.0
125.518478 152.0
125.583153 248.0
125.888901 252.0
126.539574 228.0
126.80838 200.0
127.265778 232.0
127.746956 152.0
128.217529 144.0
128.346024 172.0
128.601974 140.0
128.871933 296.0
129.666199 156.0
129.716064 180.0
130.034271 224.0
130.260666 148.0
130.356094 164.0
130.451553 164.0
130.547043 180.0
130.567505 200.0
130.61528 144.0
130.999969 212.0
131.077438 160.0
131.309387 160.0
131.33049 160.0
131.497208 168.0
131.535843 244.0
131.622604 176.0
131.661423 200.0
131.759644 156.0
131.841904 168.0
132.237549 152.0
132.638382 164.0
132.998489 144.0
133.191376 140.0
133.336121 216.0
133.616653 168.0
133.952744 216.0
134.033386 156.0
134.280045 164.0
134.658554 180.0
134.734787 148.0
134.820267 172.0
134.928268 216.0
135.18103 180.0
135.53299 192.0
135.790298 156.0
135.92717 204.0
135.994659 324.0
136.026978 164.0
136.173248 216.0
136.324265 244.0
136.512558 144.0
136.638153 168.0
136.859268 152.0
136.996674 292.0
137.176102 232.0
137.220398 224.0
137.262375 240.0
137.989471 156.0
138.191986 160.0
138.220078 156.0
138.369324 172.0
138.451813 156.0
138.641327 148.0
138.948746 172.0
138.983932 148.0
139.117706 192.0
139.26564 200.0
139.416 196.0
139.465363 152.0
139.775787 180.0
139.917007 224.0
139.985291 184.0
140.169022 168.0
140.258591 232.0
140.385895 172.0
140.744568 184.0
140.888641 164.0
140.914627 196.0
141.064621 160.0
141.273972 244.0
141.700104 184.0
142.013016 188.0
142.130341 136.0
142.354752 212.0
142.570938 188.0
142.618469 188.0
142.84436 164.0
143.098999 188.0
143.170425 212.0
143.34433 164.0
143.463501 272.0
143.558868 224.0
143.733002 148.0
143.970551 180.0
144.029831 120.0
144.105484 144.0
144.213196 164.0
144.863525 144.0
145.715515 180.0
145.756363 152.0
146.078522 148.0
146.100174 156.0
146.302322 152.0
146.752838 192.0
146.93132 164.0
147.397552 152.0
147.97348 168.0
148.064972 196.0
148.224854 192.0
149.300247 168.0
149.638474 160.0
149.662811 160.0
150.486923 212.0
150.565063 200.0
150.6017 156.0
150.909607 188.0
150.941391 204.0
151.119949 176.0
151.150696 212.0
151.181122 196.0
151.452881 152.0
151.607224 164.0
151.631744 144.0
151.658691 204.0
151.678314 160.0
151.937134 220.0
152.070755 144.0
152.254883 160.0
152.355591 196.0
153.029465 156.0
153.065689 168.0
153.125488 140.0
153.290329 184.0
153.467072 156.0
153.589401 204.0
153.680145 152.0
153.717148 188.0
153.742905 164.0
154.000595 148.0
154.070648 152.0
154.403915 172.0
154.448425 216.0
154.465744 160.0
154.5177 144.0
154.547394 140.0
154.844437 200.0
154.980682 188.0
155.164093 144.0
155.419556 164.0
155.791962 332.0
155.836685 240.0
155.85408 172.0
156.003189 220.0
156.065353 148.0
156.184723 200.0
156.50824 184.0
156.62529 144.0
156.734894 168.0
156.984177 156.0
157.128723 180.0
157.186218 160.0
157.328491 184.0
157.67569 204.0
158.040771 176.0
158.178421 148.0
158.301102 212.0
158.368713 176.0
158.549103 236.0
158.852493 220.0
158.902664 144.0
159.158676 160.0
159.330734 176.0
159.382217 192.0
159.409866 152.0
159.4375 148.0
159.583298 184.0
159.626038 172.0
159.902771 264.0
159.980804 264.0
160.048767 196.0
160.124313 144.0
160.260345 172.0
160.537689 160.0
160.979233 180.0
161.302628 148.0
161.523041 168.0
161.752884 208.0
161.837234 176.0
162.315308 148.0
162.642578 180.0
162.680664 152.0
162.726349 164.0
163.013382 232.0
163.038788 220.0
163.148163 1112.0
163.445648 148.0
163.611084 220.0
163.883606 236.0
163.999435 856.0
164.148834 144.0
164.299179 192.0
164.329727 184.0
164.356598 160.0
164.378265 232.0
164.776581 152.0
165.111435 160.0
165.211197 184.0
165.607956 152.0
165.680206 172.0
165.718109 192.0
165.743729 188.0
165.997833 332.0
166.189865 200.0
166.595505 156.0
166.783096 192.0
166.819077 184.0
167.265457 188.0
167.69165 212.0
168.127426 124.0
168.38826 180.0
168.447662 144.0
168.517426 228.0
168.571686 148.0
168.931061 224.0
168.993149 156.0
169.145844 168.0
169.376297 168.0
169.521378 164.0
169.599121 180.0
169.619858 176.0
169.682083 196.0
169.837677 144.0
169.957001 148.0
169.975174 224.0
170.014099 172.0
170.330841 192.0
170.375 184.0
170.407288 132.0
170.44516 156.0
170.463348 196.0
170.619293 184.0
170.718094 160.0
170.757111 148.0
170.879364 172.0
171.058929 164.0
171.079758 192.0
171.183472 144.0
171.25943 160.0
171.652313 164.0
171.861618 160.0
171.911194 168.0
171.942169 148.0
171.971344 30036.0
172.034851 164.0
172.147903 220.0
172.271851 184.0
172.324677 200.0
172.533981 100.0
172.779373 196.0
172.973373 2416.0
173.069824 196.0
173.291809 184.0
173.316788 256.0
173.367798 216.0
173.543427 256.0
173.695526 200.0
173.753235 244.0
173.788132 160.0
173.819672 164.0
173.968735 17232.0
174.043549 144.0
174.245148 240.0
174.3974 104.0
174.809494 156.0
174.888443 168.0
174.930557 144.0
174.971252 504.0
175.280838 168.0
175.30983 172.0
175.945496 168.0
175.971069 252.0
176.407791 176.0
176.584946 176.0
176.841583 164.0
178.00853 204.0
178.053207 160.0
178.135544 308.0
178.342804 204.0
179.329666 144.0
179.423553 192.0
179.668915 180.0
179.839081 140.0
180.045258 200.0
180.173767 1772.0
180.577103 188.0
180.657349 208.0
181.06955 160.0
181.169479 172.0
181.226501 276.0
181.297272 180.0
181.350861 168.0
181.5439 164.0
181.833633 164.0
181.914154 148.0
182.02774 144.0
182.572433 164.0
182.811859 172.0
182.83197 144.0
182.865677 244.0
182.904404 164.0
183.059509 180.0
183.086441 152.0
183.140305 280.0
183.268768 244.0
183.377411 168.0
183.482529 148.0
183.603867 220.0
184.576019 196.0
184.620804 200.0
184.911469 188.0
185.23909 200.0
185.260757 196.0
185.385391 164.0
185.424332 208.0
185.504654 176.0
185.916275 208.0
186.197342 188.0
186.442215 160.0
186.76767 144.0
186.81958 108.0
186.854355 148.0
187.235428 184.0
187.412491 184.0
187.884155 172.0
188.006027 156.0
188.146149 232.0
188.36734 164.0
188.490891 160.0
188.90831 120.0
188.955093 168.0
188.998123 6752.0
189.028 296.0
189.508148 172.0
189.560196 212.0
189.875458 220.0
189.981796 880.0
189.999588 596.0
190.223923 176.0
190.362564 144.0
190.995056 3484.0
191.528214 108.0
191.97731 892.0
191.99408 500.0
192.14064 112.0
192.797318 184.0
193.255447 164.0
193.324615 224.0
193.692841 140.0
193.859421 200.0
193.938721 152.0
194.024612 100.0
194.064194 148.0
194.093307 136.0
194.594131 216.0
194.772369 144.0
195.035828 236.0
195.261032 240.0
195.283279 252.0
195.319443 204.0
195.867798 184.0
195.892868 144.0
195.945786 144.0
196.687576 152.0
196.730789 216.0
196.843277 208.0
196.96582 264.0
197.212677 208.0
197.240631 140.0
197.44754 144.0
197.987656 172.0
198.245392 204.0
198.430389 168.0
198.489273 176.0
198.957367 152.0
199.224609 156.0
199.294846 216.0
199.320129 180.0
199.975372 156.0
200.011963 160.0
200.392136 176.0
200.425949 172.0
200.744476 160.0
200.947556 160.0
200.987061 140.0
201.704391 260.0
201.738312 168.0
201.814651 156.0
201.967361 212.0
202.168228 176.0
202.270126 184.0
202.437164 156.0
202.618439 152.0
202.666595 176.0
202.947205 184.0
202.978394 200.0
203.727676 212.0
203.886795 208.0
203.95784 224.0
204.640594 160.0
205.298813 188.0
205.392929 196.0
205.432861 152.0
206.369598 180.0
206.936111 156.0
207.437439 168.0
207.557861 204.0
207.626678 212.0
207.993088 232.0
208.03125 168.0
208.097275 156.0
208.22937 216.0
208.464935 192.0
208.994019 260.0
209.057266 116.0
209.158066 156.0
209.204117 200.0
209.227142 180.0
209.399918 188.0
209.918304 196.0
210.042664 184.0
210.207108 240.0
210.292053 208.0
210.614182 212.0
210.677734 200.0
211.033203 148.0
211.066696 192.0
211.342697 252.0
211.785614 180.0
211.904388 168.0
211.942047 204.0
212.13623 240.0
212.237701 148.0
212.382706 172.0
212.638016 176.0
212.919632 144.0
212.977722 176.0
213.087616 164.0
213.553207 180.0
213.582306 160.0
213.652115 164.0
213.858719 184.0
213.963455 196.0
213.992844 8488.0
214.063217 148.0
214.104614 136.0
214.132401 284.0
214.222687 164.0
214.600998 148.0
214.951569 160.0
214.997116 824.0
215.02655 232.0
215.371979 160.0
215.550186 244.0
215.65831 164.0
215.705963 176.0
215.94191 140.0
215.988983 5344.0
216.39679 144.0
216.471619 176.0
216.843674 216.0
216.994827 228.0
217.254181 160.0
218.143967 260.0
218.28215 148.0
218.473328 148.0
218.527283 200.0
218.741104 144.0
218.900085 248.0
219.098221 148.0
219.805038 216.0
220.041168 236.0
220.067734 164.0
220.561081 180.0
221.052032 212.0
221.425034 224.0
221.502045 180.0
221.543518 192.0
221.730621 272.0
222.026642 156.0
222.347046 192.0
222.67363 184.0
223.030167 152.0
224.214722 212.0
224.44426 140.0
224.477051 196.0
224.545639 164.0
224.690781 128.0
224.896362 196.0
225.076828 204.0
225.173721 152.0
225.387466 192.0
226.160599 100.0
226.713104 156.0
227.069855 200.0
227.285843 160.0
227.370102 152.0
227.745163 196.0
228.228989 164.0
228.268082 184.0
228.553848 184.0
228.818695 172.0
229.406158 156.0
229.442337 148.0
229.47905 156.0
229.641342 172.0
229.976257 144.0
230.157379 168.0
230.746552 176.0
230.940079 172.0
231.245667 180.0
231.509064 156.0
231.615067 140.0
231.651413 140.0
232.113968 180.0
232.237656 152.0
232.500366 140.0
232.542862 148.0
232.791794 168.0
232.83432 184.0
232.861649 176.0
233.290085 164.0
233.700653 160.0
234.138992 160.0
234.86438 144.0
235.477859 144.0
235.532837 184.0
235.624481 152.0
235.969833 152.0
236.131897 172.0
236.193069 176.0
236.364395 164.0
236.57251 140.0
237.075821 160.0
237.326172 256.0
237.537781 156.0
237.614471 156.0
237.645157 180.0
238.071823 188.0
238.261581 180.0
238.428192 164.0
238.766357 164.0
239.058609 172.0
239.190948 172.0
239.306107 148.0
240.053604 152.0
240.075195 184.0
240.263336 192.0
240.840591 164.0
240.985779 156.0
241.498932 156.0
242.003357 168.0
242.11792 156.0
242.235626 160.0
242.57338 200.0
242.650879 144.0
242.796616 240.0
242.951706 172.0
243.463852 144.0
243.516647 140.0
244.144424 228.0
244.296829 168.0
244.356476 208.0
244.737381 224.0
244.829071 144.0
245.087616 192.0
245.140594 144.0
245.471024 192.0
246.790222 156.0
246.995102 148.0
247.123367 144.0
247.274353 192.0
247.493301 164.0
247.649277 160.0
249.522659 192.0
249.601257 192.0
249.922089 252.0
250.226273 192.0
250.466721 144.0
250.662048 192.0
250.778656 160.0
250.939423 144.0
251.417938 148.0
253.002441 144.0
253.062592 144.0
253.188507 120.0
253.252594 172.0
253.309906 128.0
253.750107 172.0
253.937195 152.0
253.984009 132.0
254.083649 160.0
254.118256 156.0
254.151886 192.0
254.421539 188.0
254.53064 248.0
254.713684 144.0
254.739395 176.0
255.006424 192.0
255.077072 188.0
255.098953 152.0
255.12709 136.0
255.240585 128.0
255.2742 192.0
255.375961 304.0
255.472076 204.0
255.605011 172.0
255.693436 168.0
255.721786 156.0
255.763107 164.0
255.798904 196.0
255.837296 596.0
255.8965 272.0
256.016418 200584.0
256.136993 264.0
256.183899 160.0
256.275879 384.0
256.305481 152.0
256.325012 296.0
256.386902 360.0
256.412994 216.0
256.539368 2768.0
256.610229 144.0
256.626404 128.0
256.65744 216.0
256.786163 256.0
256.847717 188.0
256.953735 196.0
257.018188 19256.0
257.063965 256.0
257.140259 192.0
257.191223 104.0
257.254517 116.0
257.335632 160.0
257.388519 168.0
257.434662 192.0
257.441711 196.0
257.496368 152.0
257.519135 276.0
257.57901 256.0
257.619659 124.0
257.682617 192.0
257.72287 196.0
257.795471 160.0
257.859161 380.0
257.898407 276.0
257.931671 356.0
257.944702 204.0
258.012634 133656.0
258.107697 120.0
258.228638 120.0
258.282074 164.0
258.351105 112.0
258.3703 268.0
258.44101 128.0
258.462738 236.0
258.493195 184.0
258.541443 148.0
258.572052 152.0
258.598633 144.0
258.632935 340.0
258.677734 148.0
258.724091 100.0
258.748657 228.0
258.782288 228.0
258.87912 380.0
258.912201 188.0
258.942078 156.0
259.014404 6236.0
259.094177 176.0
259.116791 208.0
259.267059 140.0
259.352966 140.0
259.537964 100.0
259.601837 140.0
259.829895 100.0
259.917725 148.0
260.004089 492.0
260.329498 96.0
260.400299 400.0
260.432404 152.0
260.470276 168.0
260.491089 148.0
260.787537 240.0
260.930756 144.0
260.980743 128.0
261.050262 128.0
261.110016 184.0
261.16748 104.0
261.736328 140.0
262.216675 168.0
262.327667 148.0
262.816193 108.0
268.731995 124.0
268.807739 96.0
270.820892 108.0
270.963226 104.0
279.359955 120.0
288.050354 160.0
309.112885 144.0
409.821014 104.0
410.721405 152.0
470.003357 144.0
734.40387 144.0
917.092346 156.0
1211.425293 160.0
1447.929443 152.0
1450.588867 156.0
1460.710938 244.0
1461.190186 164.0
1481.474365 160.0
1503.757812 144.0
1518.930664 160.0
1529.093506 164.0
1555.606323 176.0
1578.596558 152.0
1581.864014 164.0
1587.291016 188.0
1596.31958 140.0
1626.599609 168.0
1639.218262 176.0
1647.9729 168.0
1694.593872 160.0
1695.634521 192.0
1718.189453 152.0
1771.746094 196.0
1793.063354 160.0
1803.503662 188.0
1834.460571 156.0
1836.882324 232.0
1851.257812 172.0
1882.870605 152.0
1888.125122 144.0
1893.83728 176.0
1901.92688 160.0
1906.164917 160.0
1910.172852 140.0
1911.512695 204.0
1923.565918 152.0
1924.849365 160.0
1928.116455 144.0
1930.6604 140.0
1939.897583 188.0
1940.695312 164.0
1944.993896 152.0
1948.866699 176.0
1955.206665 140.0
1957.337036 156.0
1963.302734 160.0
1966.099243 140.0
1966.584717 204.0
1987.495972 148.0
1988.986938 200.0
