>compound Simvastatin
>formula C25H38O5 
>ionization [M+H]+
>parentmass 419.28
#inchi InChI=1S/C25H38O5/c1-6-25(4,5)24(28)30-21-12-15(2)11-17-8-7-16(3)20(23(17)21)10-9-19-13-18(26)14-22(27)29-19/h7-8,11,15-16,18-21,23,26H,6,9-10,12-14H2,1-5H3/t15-,16-,18+,19+,20-,21-,23-/m0/s1
#inchikey RYMZZMVNJRMUDD
#Ion_Source LC-ESI
#Instrument qTof
#Compound_Source Isolated
#PI Sirenas
#Data_Collector Ed Esquenazi 
#Scan -1
#Precursor_MZ 419.28
#ExactMass 0.0
#Charge 1
#CAS_Number N/A
#Pubmed_ID N/A
#Smiles N/A
#INCHI_AUX N/A
#Library_Class 3
#SpectrumID CCMSLIB00000005804
#IonMode Positive
#UpdateWorkflowName UPDATE-SINGLE-ANNOTATED-BRONZE
#LibraryQualityString Bronze
#TaskID d19310cd93df49b68e9fcbec27720eb5
##Scan# 3
#SpectrumFile Simvastatin.mgf
#LibraryName fda_library.mgf
#MQScore -1
#Organism fda_library
#TIC_Query 0
#RT_Query -1
#MZErrorPPM -1
#SharedPeaks 0
#MassDiff 0
#LibMZ -1
#SpecMZ 419.28
#SpecCharge 0
#internalFilename spec-00000.mgf

>collision 10
101.060699 177.694901
101.107559 4.686404
101.48571 10.56522
101.527992 12.34964
101.857544 7.667857
103.054039 192.716003
103.197227 5.075
103.68084 5.371913
103.815498 9.342949
104.538109 12.20833
104.552948 15.44697
104.568321 2.016667
104.641983 6.336111
104.660759 14.05235
104.671135 14.66667
104.678246 4.041667
104.684334 11.16009
104.703468 10.53452
104.760941 9.795988
104.788994 10.69482
104.910141 12.11204
104.917297 3.333333
105.051735 32.04348
105.070038 8843.107422
105.11422 82.927063
105.125275 5.394608
105.14653 3.005953
105.159637 28.186041
105.177544 25.056601
105.193954 20.416031
105.211487 6.075
105.220345 2.722222
105.226822 19.43219
105.234802 27.36706
105.252579 10.26786
105.290749 33.822922
105.307632 15.1048
105.318504 11.04167
105.331001 15.33565
105.345329 20.93939
105.365509 26.49621
105.384483 6.763889
105.395401 21.2967
105.420555 10.5307
105.42643 7.823718
105.448853 8.001811
105.473427 7.74359
105.484489 16.015869
105.489189 20.87462
105.505898 7.022059
105.520317 1.672619
105.549026 26.039709
105.563278 12.25397
105.595451 14.48563
105.852928 9.667553
105.895882 14.72024
105.906761 7.054825
105.922348 11.60556
105.928108 7.102273
105.938843 7.67803
106.521889 5.640152
106.550514 8.081897
106.574493 10.45581
106.613022 5.856061
106.62027 7.010714
106.626915 12.52006
106.706505 5.347222
106.731659 12.89943
106.767601 9.336957
106.807152 6.694445
106.82872 9.353758
106.981201 25.166531
106.997398 7.347222
107.02021 9.546718
107.048691 434.785889
107.085297 7052.080078
107.130524 60.691399
107.145378 23.81287
107.166985 3.0
107.1922 18.00062
107.203003 15.40054
107.221016 8.4375
107.238655 26.75758
107.253937 30.70219
107.264191 13.3411
107.285866 6.671875
107.293068 6.716667
107.325508 6.682971
107.361565 12.20833
107.374428 8.218137
107.383179 5.688889
107.405869 22.940861
107.412376 13.00694
107.430046 9.005952
107.462746 13.52227
107.492645 27.403709
107.523819 17.18767
107.538261 10.64015
107.569199 7.266666
107.648476 20.29554
107.703743 6.906746
107.715126 19.75812
107.772972 6.25
107.787323 16.62722
108.09124 35.387878
108.195839 6.0
108.229958 8.881667
108.257797 11.45833
108.760597 10.5641
109.064178 654.841614
109.100807 1028.619019
109.146507 5.933333
109.196892 4.001812
109.224434 6.555555
109.402382 19.198139
109.531601 3.011905
109.589859 6.75
109.76474 7.058333
110.759468 3.266667
111.042931 50.694248
111.080338 182.748703
111.315788 5.680555
111.977234 8.782407
113.059334 60.11552
115.054893 707.336792
115.105827 2.625
115.275505 8.925926
115.286156 9.386905
115.370987 5.335526
115.483772 10.29643
115.585602 42.223381
115.790283 63.30061
115.912727 5.4
116.003349 13.5744
116.372444 34.081669
117.048096 67.651398
117.069336 1515.199951
117.11554 3.333333
117.161995 11.30952
117.213013 4.047619
117.348991 5.598684
117.412704 8.469594
117.480568 4.011905
117.49942 17.252081
117.580391 2.449074
117.605042 7.2
117.665451 6.564103
117.699371 5.347222
117.756424 8.583333
117.802017 14.84052
117.818863 4.722222
118.430229 8.401667
118.446922 6.761364
118.455429 12.56053
118.489502 18.09074
118.535263 8.081897
118.550117 10.25397
118.55957 4.958333
118.582535 41.87965
118.68924 8.641026
119.008873 20.50206
119.048416 130.575302
119.085167 5473.723145
119.130356 15.08845
119.146271 13.59524
119.21756 46.76284
119.225296 9.334678
119.232895 19.388741
119.253685 20.47451
119.270882 7.673077
119.278587 29.36054
119.287827 4.680556
119.327751 22.733891
119.344795 7.416667
119.361137 47.684921
119.384491 42.638371
119.411636 12.06586
119.430511 13.00347
119.455475 8.884804
119.476181 8.724359
119.510361 5.666667
119.555008 10.14833
119.622154 53.944561
119.700668 19.1875
119.987511 4.075
120.444183 9.111112
120.576424 2.041667
120.604355 3.055556
120.715973 8.595239
121.064293 158.947693
121.100868 2690.897949
121.132965 9.890432
121.145012 4.337121
121.151398 18.00144
121.164635 2.4
121.174034 6.337963
121.185776 3.380953
121.202675 2.700758
121.269516 3.083333
121.284691 16.907049
121.29866 2.625
121.330505 4.053571
121.40609 4.958333
121.423347 7.017857
121.438675 12.34069
121.488518 2.0
121.596077 8.022223
121.614693 13.54545
121.621628 21.05093
121.980591 52.57341
122.099121 15.88955
122.160477 8.881579
123.044373 114.192001
123.080589 257.780914
123.112427 171.397705
123.142921 1.720238
123.251068 10.79594
123.278099 7.058333
123.479034 4.741667
123.687096 17.84314
123.980949 16.70417
124.307701 8.005208
125.00296 9.364583
125.058289 250.577499
125.162109 11.89382
125.205299 5.671875
125.279274 11.11111
125.437454 20.0119
125.524712 14.00735
125.641663 1.671296
126.040695 26.52355
127.052437 204.942795
127.073631 223.115402
127.147621 4.531863
127.441994 19.356741
127.492897 11.72
127.591118 9.015873
127.892479 4.306818
128.015869 11.56944
128.061417 4653.403809
128.110138 10.57615
128.140335 5.347222
128.175995 41.460361
128.222595 3.291667
128.241638 4.136111
128.263901 9.057693
128.290817 11.01389
128.300568 6.160088
128.374435 17.14583
128.394012 10.35648
128.413727 2.680556
128.432938 13.08167
128.453278 14.53289
128.614868 14.91325
128.68985 17.539379
129.116409 14.13587
129.131821 6.906746
129.19606 24.01145
129.282761 7.107456
129.290359 10.93333
129.298309 3.358333
129.350739 41.49551
129.453018 7.041667
129.476822 6.840517
129.513123 20.80357
129.665482 22.36232
130.12764 6.259615
130.201813 11.01014
130.249573 11.45833
130.27742 4.531863
130.309021 5.363636
130.317093 8.135
130.368835 24.692511
130.39003 27.12397
130.400375 2.671296
130.428177 9.388514
130.447693 10.11111
130.473907 20.535879
130.48381 3.736111
130.503403 2.005952
130.515991 12.71381
130.552383 14.95207
130.631012 16.336109
130.666397 19.7537
130.719818 9.523809
130.762131 8.351851
130.778702 5.225
130.832291 4.680556
130.979889 2.815476
131.0625 76.149879
131.085464 12239.700195
131.13414 85.122467
131.1595 12.40351
131.175323 32.504349
131.189377 21.716789
131.19693 18.60178
131.208267 9.342593
131.224426 102.879303
131.254929 30.45842
131.291809 6.075
131.300873 59.381908
131.317505 17.148211
131.358261 10.75543
131.369888 26.331579
131.38765 73.79615
131.417419 34.58461
131.429123 11.01296
131.451263 4.666667
131.459473 30.076191
131.488708 25.0471
131.498734 9.724999
131.531052 8.20119
131.585449 4.721154
131.594894 14.75
131.602325 10.50694
131.66275 9.42455
131.698807 9.125
131.747055 25.6894
131.778534 4.8
131.814423 12.88469
131.857056 7.185606
131.878784 11.16329
131.922394 15.00126
132.119308 31.037029
132.414673 20.013889
132.443298 10.04435
132.522385 8.337501
132.538528 13.3343
132.556427 5.208333
132.57251 13.70833
132.859024 16.380951
133.026581 6.094697
133.06395 228.161896
133.100983 2186.413086
133.160706 7.690476
133.188248 10.80449
133.200073 5.724359
133.23616 23.72345
133.268234 6.003205
133.277679 29.756769
133.306091 17.1537
133.335831 6.0
133.408905 7.866667
133.41687 5.691667
133.479477 32.069969
133.51709 19.151239
133.52562 8.009259
133.654175 8.240196
133.754715 6.366667
133.815079 9.334302
134.076797 8.816667
134.375778 11.2598
134.460342 16.01647
134.687973 8.881667
134.770554 3.0
135.07991 298.483704
135.114136 257.851288
135.271805 14.33654
135.347855 12.3869
135.441788 16.712641
135.567459 2.083333
135.680786 9.852273
136.182098 24.361111
136.475174 5.002778
137.057785 65.277237
137.094543 125.708298
137.163834 1.666667
137.229095 5.76923
138.382324 19.045401
138.65097 3.66886
139.034271 25.375
139.074158 110.587898
139.2789 19.479731
140.195328 10.375
140.249054 4.694444
140.917343 15.3871
141.069336 4068.073975
141.169342 17.68494
141.193771 5.166667
141.22821 16.447531
141.30246 5.041667
141.351929 2.449074
141.421616 26.09145
141.479935 49.067188
141.496216 8.003205
141.620209 6.125
141.661621 8.041667
141.769287 24.065001
141.835556 3.440476
141.943314 11.36742
142.009644 7.35
142.127762 56.011169
142.154785 14.06944
142.182861 22.45192
142.192108 5.454545
142.217407 128.225494
142.225311 12.51087
142.251953 15.58989
142.290466 56.81889
142.313568 22.040489
142.329041 11.80474
142.353363 23.105261
142.376816 45.925529
142.406067 10.63377
142.426147 34.823929
142.442551 22.85519
142.470184 12.0
142.507248 16.85799
142.527222 2.782408
142.537613 13.71
142.551392 10.51042
142.603104 14.70476
142.619003 7.444445
142.802078 11.28409
142.887833 30.392651
142.911041 12.30682
143.085327 24876.279297
143.152008 7.347222
143.164581 9.010715
143.200241 28.28196
143.256927 107.438004
143.270935 21.83712
143.287979 39.789982
143.302277 72.047462
143.313507 31.740681
143.323425 126.238701
143.341751 60.60709
143.352814 22.373249
143.389771 16.04924
143.402649 96.260147
143.436188 82.655258
143.456726 25.88113
143.463791 47.211029
143.485428 67.293442
143.507462 23.870729
143.527893 77.339432
143.539413 16.67029
143.547699 11.58954
143.562622 29.23451
143.581406 22.817711
143.589996 10.69444
143.606064 5.708333
143.614624 6.606061
143.623016 22.370449
143.644226 22.58828
143.668594 10.02976
143.706848 37.631409
143.739792 16.275
143.773911 18.051279
143.807632 17.03134
143.854462 19.190479
143.912079 33.25304
143.922852 5.703703
143.944061 7.291667
143.985687 4.341667
144.027435 2.0
144.061264 32.18055
144.128357 16.37879
144.147888 11.82353
144.207047 26.33737
144.233063 126.460403
144.261841 22.945499
144.350235 26.378771
144.378281 28.91713
144.386703 14.425
144.499802 14.68709
144.550186 9.852273
144.617538 9.722222
144.629272 10.64015
144.658463 13.05833
144.68689 11.5006
144.927307 5.927083
144.948593 25.65399
144.959976 10.67157
145.000397 18.55682
145.063904 53.191502
145.101212 13612.219727
145.151764 68.298187
145.168381 101.8088
145.198837 21.025209
145.211395 16.339951
145.244202 30.56818
145.263107 25.063129
145.281998 37.7911
145.311081 37.096119
145.363571 32.398479
145.409698 11.24537
145.44249 44.11768
145.467239 6.371913
145.513397 15.66987
145.551331 12.08232
145.58432 4.157052
145.597046 25.02619
145.614136 12.66927
145.622528 3.666667
145.650818 36.163761
145.67717 3.355392
145.694016 54.641331
145.770721 19.710939
145.792801 20.361111
145.845276 11.80778
145.905319 23.939341
145.916534 10.03852
145.924942 13.0
145.961685 4.816667
146.068771 76.940948
146.336075 51.797791
146.673676 12.41721
146.720398 20.875
146.770874 7.35
146.808807 6.728535
146.817245 7.173851
147.078812 336.543915
147.116165 1228.270996
147.150436 4.335526
147.179947 3.440476
147.198593 6.721154
147.232498 20.120319
147.25473 21.51499
147.272842 12.74423
147.287277 19.210859
147.308838 17.5375
147.348938 15.48214
147.373581 6.055555
147.403824 5.88587
147.428741 23.534981
147.479446 6.673611
147.657272 8.449074
147.780045 26.43791
147.817703 9.671296
147.906799 6.337963
148.449844 9.338889
148.813599 30.26601
149.057602 64.459023
149.095322 546.356812
149.130188 21.5651
149.152557 1.741667
149.475311 14.78914
151.074203 515.725891
151.109207 18.18561
151.174118 4.00463
151.19136 33.410381
151.340851 4.688725
152.386917 1.671296
152.898392 9.823148
153.070786 160.2659
153.087555 110.378799
153.221191 6.002451
153.285797 7.334877
153.328674 7.355392
153.397797 8.122549
153.431152 9.633333
153.535294 2.675
153.635284 5.633333
154.074463 384.215912
154.085175 54.782089
154.232407 15.16346
154.269547 20.337721
154.283829 8.027778
154.316498 11.76923
154.343124 14.21491
154.386124 18.67742
154.453125 19.05179
154.520111 6.716667
154.918304 18.42708
154.971039 14.09722
155.059662 34.6674
155.085571 3955.410889
155.143051 55.918388
155.176514 5.136111
155.214615 17.654409
155.24646 101.855499
155.262451 19.960779
155.2995 7.352941
155.315475 7.791667
155.349609 7.07197
155.368912 12.17175
155.384262 7.84375
155.431839 9.692307
155.438339 13.43219
155.472534 17.449711
155.481766 3.125
155.511307 7.736111
155.520691 7.333333
155.533966 20.10527
155.585388 19.232759
155.605301 7.958333
155.634964 35.592781
155.659912 8.787879
155.689926 16.03253
155.702957 4.673077
155.75676 16.29524
155.8349 5.884804
156.093384 2746.996094
156.162384 9.681527
156.20076 7.054487
156.230865 15.08333
156.285538 32.92448
156.298264 19.24008
156.316513 12.52134
156.341553 22.040409
156.350433 7.692308
156.36348 6.705246
156.380249 9.615
156.391495 4.416667
156.441803 5.694445
156.495132 30.057949
156.515778 7.001812
156.540268 20.244049
156.573273 21.49342
156.711914 21.81481
156.872879 4.763889
156.916901 20.17452
156.929626 17.04003
156.952576 5.483334
156.96843 2.0
156.985779 11.39583
157.042999 9.739865
157.074585 99.247864
157.100998 9773.976562
157.158676 71.828247
157.193344 62.812099
157.208969 56.868832
157.265274 13.38272
157.286957 39.14397
157.314575 100.254799
157.339752 89.112709
157.353027 13.52083
157.361328 4.020833
157.372849 11.44643
157.386536 36.2565
157.404587 28.906521
157.435638 30.33889
157.443802 17.026711
157.453003 7.669117
157.468933 22.11458
157.481155 41.484951
157.497177 11.69907
157.52774 9.926471
157.540649 10.60556
157.554062 22.08075
157.624466 18.153851
157.806717 3.36218
157.831558 14.9375
157.865845 16.629761
157.880142 29.858681
158.002213 17.58333
158.108932 4202.959961
158.177811 8.148269
158.248459 32.81361
158.263885 73.204323
158.27919 42.003201
158.327545 9.446582
158.366592 8.684211
158.400055 33.881779
158.410385 9.334401
158.429611 40.967701
158.448212 13.36513
158.517807 41.648479
158.53421 21.1922
158.575348 18.617781
158.611893 28.667219
158.639175 16.74107
158.769608 3.413462
159.004135 19.149191
159.026596 35.790852
159.080765 235.070602
159.116745 14172.379883
159.170593 104.676003
159.19072 11.80303
159.208755 28.729931
159.221817 7.854167
159.237137 23.625
159.269714 12.33333
159.292053 21.979139
159.351471 79.902023
159.371094 49.51366
159.397537 22.757111
159.45546 16.055111
159.483978 38.151951
159.514313 32.650131
159.564804 28.633459
159.595581 25.840281
159.612457 31.86614
159.638763 9.083333
159.656448 6.703703
159.695908 11.06136
159.742264 19.01667
159.754837 28.552931
159.770676 12.375
159.805832 5.006944
159.823883 10.90948
159.858612 15.025
159.884995 4.019737
159.924591 7.342949
159.946869 14.52466
160.18866 6.00119
160.272339 14.13587
160.47049 5.708333
160.658585 4.347222
160.678253 25.545259
160.779221 7.102273
160.814514 12.44877
160.836792 21.388161
160.913254 10.64651
161.053833 36.146198
161.095718 475.246399
161.238312 21.350771
161.353149 20.010099
161.611008 16.988211
161.66362 2.111111
161.693634 4.673077
162.36293 14.82051
162.428802 11.14286
162.48645 3.402778
162.557404 18.7027
163.073975 207.857101
163.112595 251.756302
163.204117 14.68055
163.23233 2.333333
163.303146 4.802778
163.410141 4.340909
163.530243 18.398809
163.637665 20.94231
164.163284 20.771429
164.684509 5.729167
165.069107 411.741089
165.088211 547.184875
165.140198 2.0
165.556442 17.63456
165.795792 2.625
165.986221 11.52466
166.077881 654.989624
166.129669 3.669872
166.268951 6.827381
166.327026 10.67402
166.767197 4.531863
166.931549 5.387821
166.982254 26.660351
167.101578 70.513283
167.122116 2.00463
167.140091 2.339286
167.333557 9.668011
167.627945 5.884804
167.720734 15.28736
167.964172 10.04748
168.058868 6.705246
168.092087 837.458679
168.145248 50.185421
168.176147 17.66905
168.185181 4.44079
168.209412 16.10714
168.225906 46.481461
168.241196 7.177083
168.257355 9.375
168.281158 27.00794
168.307465 14.47738
168.323181 5.973485
168.348129 10.77778
168.36264 15.68254
168.374725 5.71627
168.397293 10.73848
168.420395 21.494949
168.505661 8.693376
168.564362 8.001437
168.655884 7.935
168.85878 32.359379
168.942551 24.313231
168.980408 24.133329
169.063736 78.411537
169.100754 10672.879883
169.157089 74.782143
169.183441 12.375
169.197815 124.348396
169.245102 15.66977
169.274933 89.450623
169.312897 63.12833
169.336716 9.427083
169.364777 7.666667
169.385818 27.915239
169.404587 27.55884
169.419479 32.356319
169.446579 30.34819
169.455399 16.337299
169.464493 18.001539
169.487778 55.394581
169.518738 18.83
169.532333 37.920811
169.578354 14.76025
169.59903 47.655972
169.609467 20.16279
169.618408 17.333941
169.634598 7.680555
169.67308 6.306159
169.684738 24.75577
169.722717 24.49367
169.731552 4.080128
169.764069 33.599979
169.799683 10.03852
170.044724 25.392651
170.171616 14.0
170.238342 8.558333
170.259125 40.040909
170.290268 27.42979
170.34729 9.229167
170.366821 19.692551
170.384979 11.01961
170.408157 29.48484
170.479187 12.6
170.588455 21.002781
170.648529 31.337749
170.662094 3.336538
170.70755 10.06061
170.929764 4.458333
170.98494 15.78602
170.994019 13.38667
171.082138 213.771698
171.116302 10519.339844
171.168823 23.444229
171.21434 8.666667
171.232147 23.43297
171.265793 10.79167
171.283112 40.32312
171.321182 7.522727
171.333954 9.224999
171.34314 6.041667
171.354065 12.83333
171.3797 10.47222
171.39003 6.001984
171.423019 16.179119
171.440811 24.167339
171.458359 14.15369
171.467514 13.30697
171.499359 9.005952
171.508453 17.0
171.553772 21.354589
171.613571 11.13782
171.622391 22.486111
171.672897 41.326672
171.702148 3.708333
171.711945 13.45259
171.750015 8.364899
171.847916 46.992661
171.865753 37.137611
171.900528 15.02977
171.974655 14.34167
171.987228 7.242816
172.029465 22.696529
172.04512 40.71627
172.099808 46.537151
172.196274 67.019852
172.220444 38.6819
172.233612 9.006945
172.268173 41.567459
172.298737 91.435997
172.324982 18.669451
172.359085 41.481201
172.379196 11.00321
172.416962 56.7771
172.486328 19.533331
172.512253 6.125
172.551224 22.42857
172.651642 2.208333
172.704224 7.672222
172.742966 18.473301
172.861435 38.099998
172.87854 41.210529
172.929672 33.587219
173.016556 9.053572
173.04747 21.24017
173.098038 332.589203
173.132446 25308.160156
173.267151 50.281799
173.31134 9.108334
173.327774 16.64138
173.34166 36.923882
173.359573 78.135857
173.378647 70.655632
173.397888 63.13752
173.412491 59.484322
173.439041 57.98605
173.449097 46.809849
173.46965 60.548962
173.495148 25.236111
173.504425 25.9765
173.54126 50.460991
173.555161 24.42021
173.576233 61.548168
173.599655 57.506031
173.62468 50.664349
173.663559 57.29821
173.68248 72.078133
173.705109 29.710899
173.721848 66.217438
173.735474 68.039467
173.769913 43.621849
173.779572 15.00758
173.8004 33.410061
173.812378 5.801667
174.023865 15.73973
174.200195 19.29302
174.248367 4.666667
174.312973 15.21894
174.489334 30.462549
174.523453 37.140499
174.588364 4.763889
174.651291 9.190476
174.868423 2.782408
174.896378 6.813406
174.93335 10.36687
175.073746 121.124397
175.099121 5.028846
175.10817 16.062241
175.150772 15.41333
175.223343 11.91241
175.344635 6.449713
175.546814 23.603661
175.628769 8.012931
175.828583 3.520833
175.886856 16.453329
176.168594 17.7129
176.496338 27.118521
177.08931 232.037903
177.124084 138.633698
177.301575 22.02206
177.339767 2.075
177.556564 3.355392
178.076172 153.669998
178.206146 14.08845
178.289749 11.3375
178.317627 8.666667
178.337067 9.410256
178.387314 24.33532
178.67128 9.859674
179.083923 728.781921
179.257263 7.130208
179.290405 15.06136
179.476242 11.73333
179.871445 5.002778
180.003281 10.28004
180.054642 5.160714
180.137787 19.15802
180.176865 21.049999
180.199371 4.763889
180.270752 13.34028
180.853149 7.541667
181.101334 1698.453003
181.155197 13.19775
181.281372 8.361112
181.373642 13.90645
181.476547 2.4
181.53746 7.361111
181.954865 10.44907
181.994003 4.013889
182.073242 160.830307
182.107407 736.723328
182.150314 17.388571
182.160919 8.706141
182.176147 3.083333
182.18959 1.666667
182.213104 10.00417
182.235001 7.481482
182.253693 8.240079
182.278809 8.166667
182.33461 5.833333
182.344803 19.148809
182.368118 9.32545
182.381256 2.669444
182.440887 9.0
182.457687 25.8981
182.593414 5.347222
182.641449 22.98374
183.116684 7724.243164
183.173492 32.943581
183.191147 7.041667
183.205093 59.257881
183.214706 15.00102
183.229599 13.96037
183.241058 11.16009
183.256073 15.10746
183.287918 95.985497
183.313797 14.04412
183.323441 11.4359
183.337234 18.831779
183.351273 8.023809
183.360687 14.00397
183.385315 45.75856
183.403015 15.00798
183.412689 27.15707
183.436111 47.542252
183.456451 22.572321
183.494186 11.88889
183.535187 17.355499
183.563766 12.69697
183.660706 28.373039
183.690598 12.33586
183.718887 16.6901
183.774582 3.852273
183.827759 13.5098
183.898499 16.354839
183.994843 10.04167
184.058945 10.61961
184.209625 7.666667
184.360413 8.355392
184.455231 10.79167
184.489288 12.89286
184.810806 17.370689
184.918564 19.539789
185.093628 181.070908
185.130722 2080.633057
185.173233 6.75
185.185226 2.375
185.216293 17.04167
185.56694 10.53333
185.638321 8.789634
185.846985 6.201666
185.888885 13.38816
185.954453 4.297619
186.00322 5.844298
186.069916 8.166667
186.179077 12.68
186.275085 19.225
186.350006 7.880051
186.497711 34.666672
187.074997 104.894203
187.111465 377.520599
187.147873 199.522903
187.315308 10.41346
187.458176 10.43219
187.487198 2.816667
188.51384 13.70833
188.560074 5.088768
189.090088 91.73764
189.123627 60.617199
189.137726 49.420761
189.160873 93.232094
189.186661 10.00926
189.37886 5.265351
189.578964 13.34667
189.981522 13.03947
190.739929 1.666667
191.081207 6.333333
191.106186 2336.533936
191.167709 7.033333
191.191833 2.666667
191.235672 10.01389
191.256775 5.458333
191.29776 5.856061
191.327362 3.416667
191.393921 5.027778
191.433228 9.259408
191.566818 13.4422
191.673141 7.395833
191.884491 16.7791
191.895065 4.898148
191.933334 17.70175
192.044388 54.015381
192.092194 498.656189
192.154633 31.389601
192.179596 17.930969
192.199631 3.6875
192.4552 67.689079
192.526611 2.0
192.642944 2.675
193.072098 8.408334
193.146759 44.94751
193.229141 16.156919
193.301651 12.89302
193.319077 16.17247
193.345581 4.458333
193.386932 15.66865
193.73056 28.09301
193.744843 16.489901
193.867233 10.08333
194.038483 6.387821
194.107758 384.727112
194.171585 3.42803
194.350754 7.078432
194.406036 17.551279
194.423676 11.14682
194.569153 26.134439
194.934921 9.523809
195.074371 31.463751
195.116257 1139.480957
195.169296 5.560185
195.2733 10.125
195.287888 6.022223
195.419342 7.656609
195.467804 9.0
195.652893 9.063725
195.673935 15.0264
195.758286 5.926282
195.88623 12.04688
195.961624 10.09442
196.014099 4.297619
196.098083 57.996361
196.123611 955.657288
196.188217 14.6317
196.258469 32.861019
196.279099 12.24934
196.315033 8.005555
196.396896 13.42803
196.544159 9.006945
196.690506 45.885399
196.730408 10.04762
196.978516 11.4375
197.056641 9.204166
197.094696 176.333801
197.13208 4502.35498
197.203888 21.156481
197.2276 13.88441
197.298279 19.75379
197.320435 6.673611
197.355667 12.99167
197.402328 14.74642
197.429382 82.280724
197.480972 19.604839
197.497467 92.313393
197.530365 62.149441
197.554047 10.66793
197.571579 5.054487
197.58931 20.80093
197.623306 9.921875
197.636627 17.33333
197.733276 89.694313
197.765427 10.54825
197.828995 15.34615
197.877945 13.94015
197.955261 5.558333
198.010086 3.003205
198.022186 74.932709
198.0392 51.104568
198.066299 15.44494
198.083633 7.755435
198.11795 21.12842
198.199814 69.697746
198.225235 18.3825
198.239365 33.330811
198.327866 23.35882
198.368103 19.336109
198.558853 19.804411
198.627762 12.34259
198.658951 46.79335
198.706177 2.361111
198.758667 8.704545
198.792099 3.666667
198.898605 28.09944
198.918533 32.555981
198.954529 3.266667
198.977631 16.53125
199.054184 23.35078
199.068893 17.470091
199.116714 202.617599
199.147903 23348.080078
199.230881 12.18561
199.283661 24.53289
199.303986 163.248993
199.334244 16.927361
199.34819 17.09524
199.362549 160.4048
199.38913 34.9426
199.413483 53.257839
199.442139 62.22612
199.470337 61.753941
199.491943 7.714285
199.50647 66.202133
199.55481 87.306358
199.625519 14.88889
199.649734 16.14127
199.684372 55.91132
199.711121 64.705368
199.756668 10.88889
199.778778 23.729549
199.790237 3.386905
199.830856 19.850571
199.897354 54.463982
199.926147 20.832979
199.9375 15.06373
199.960953 43.904461
199.992859 35.455158
200.036926 29.64484
200.044144 3.266667
200.054749 11.66945
200.071472 8.086538
200.100433 12.8869
200.228943 14.57361
200.323242 19.183821
200.334274 17.722219
200.347504 22.81905
200.49437 42.879631
200.76059 21.77313
201.085663 118.762901
201.126236 119.943604
201.163437 2588.384033
201.223511 43.116692
201.319855 15.87542
201.349197 20.075001
201.407211 4.351191
201.461243 23.259411
201.649307 6.927469
201.743088 7.108871
201.815842 19.683331
201.886414 8.02671
201.923477 3.666667
202.049561 7.344048
202.28511 4.933333
202.303925 14.76587
202.36525 3.185606
202.593887 6.702587
202.613693 12.3787
202.732559 6.75
203.01033 15.3631
203.104675 148.620605
203.143524 82.722649
203.213318 12.64198
203.377182 15.76025
203.421661 5.667929
203.994919 2.016667
204.107147 138.371094
204.271378 9.122475
204.630966 9.523809
205.062485 15.60682
205.105011 692.612427
205.176788 2.666667
205.261673 6.338542
205.940292 9.435897
205.960007 4.427083
206.307785 15.65761
206.444626 10.34722
206.71463 5.0625
206.764679 16.93969
207.064911 3.666667
207.085922 47.56319
207.116013 2335.12207
207.170502 3.066667
207.200089 2.0
207.215118 6.070402
207.330307 4.741667
207.351776 14.0947
207.375397 8.684211
207.421875 5.787037
207.479279 45.90485
207.514694 24.223721
207.600906 4.382936
207.638489 9.875
207.681107 9.029761
207.749573 22.65662
207.88707 7.714285
208.037216 12.33415
208.323334 9.400001
208.348434 19.5942
208.378571 13.00595
208.560867 8.518678
208.724365 5.125
208.946426 3.047619
208.99173 18.051161
209.021866 2.0
209.129868 220.891998
209.446045 6.080883
209.610367 14.42976
209.696381 1.671296
209.873215 9.789142
209.978607 11.68056
210.09816 31.89185
210.139832 588.104309
210.337585 7.852564
210.362183 28.68561
210.373734 14.84058
210.431122 6.125
210.457825 6.022059
210.483002 9.240384
210.525726 23.760099
210.670547 24.42614
210.749893 34.390141
210.836548 50.9151
211.113007 890.651611
211.14769 1184.776001
211.192261 3.291667
211.207855 6.813406
211.276077 6.454545
211.311554 7.668104
211.405914 19.4886
211.475067 23.56609
211.512299 15.92647
211.604965 4.666667
211.63533 8.003623
211.860138 6.291667
212.085999 37.595119
212.123444 32.979809
212.22789 1.666667
212.358673 13.58556
212.719772 3.375
212.993683 10.78157
213.164124 349.776215
213.313843 7.001667
213.396881 6.160088
213.420502 14.93561
213.476456 1.666667
213.611176 3.958333
213.644531 7.011905
214.08699 7.291667
214.127579 5.357143
215.103577 63.125969
215.140106 24.2598
215.180115 643.016113
215.245056 4.669445
215.37616 7.109127
215.656052 6.25
215.808838 10.32065
215.880585 16.15428
216.398895 3.367424
216.706085 4.333333
216.772949 23.285709
217.126328 86.219147
217.153595 51.704391
217.84964 8.005555
218.000076 11.76326
218.55394 5.939394
219.117142 381.500885
219.23822 3.670455
219.263977 3.675
219.408188 4.427083
219.48555 2.003788
219.641739 22.59968
219.954773 5.107456
220.077301 27.01667
220.123489 413.736603
220.192169 1.675
220.321289 6.671053
220.514542 5.884804
221.105896 40.491501
221.134338 595.995483
221.199448 3.440476
221.236221 8.005555
221.2621 2.005952
221.382294 23.161619
221.42923 26.632219
221.458786 25.5114
221.855011 18.216669
222.018265 9.527778
222.145035 17.017679
222.334579 5.678764
222.392929 28.566401
222.552505 37.745571
222.729507 22.125441
223.020157 8.022059
223.109894 30.596319
223.147842 3906.694092
223.210648 18.808729
223.258896 10.6402
223.283676 86.524239
223.329361 31.828051
223.354645 32.630539
223.376755 3.560185
223.440811 21.00082
223.466995 2.083333
223.482468 3.708333
223.505844 17.77813
223.539169 13.81944
223.577698 15.30807
223.606827 27.91667
223.638245 4.388889
223.686066 8.272727
223.766296 9.469444
223.81604 34.126751
223.828888 23.203951
223.86409 35.26783
223.914322 13.35459
223.956146 36.099419
223.980408 9.523551
224.008041 14.66987
224.030991 28.22644
224.049698 9.797101
224.063004 40.390282
224.105728 20.84623
224.118073 32.728031
224.177368 21.45343
224.237747 4.094697
224.263626 14.26226
224.363754 41.456211
224.399353 18.61714
224.503586 21.043859
224.697113 17.08013
224.796829 19.045401
224.841919 14.3344
224.880432 11.3952
224.977554 8.676802
225.100128 21.41362
225.126953 710.124207
225.163208 12683.320312
225.231247 88.076843
225.259048 46.684109
225.310822 28.029091
225.328384 30.753389
225.34584 44.374161
225.383713 31.845921
225.403229 40.608379
225.427246 21.56609
225.443542 65.126503
225.45787 8.337121
225.474762 37.466671
225.510956 84.82608
225.549866 11.82675
225.57164 30.53389
225.595428 62.908901
225.677994 58.118599
225.715439 57.9659
225.74025 11.09524
225.784714 27.33333
225.799423 8.388441
225.860275 8.017544
225.903259 37.698021
225.964951 16.696671
225.993057 10.735
226.111069 12.83333
226.205475 6.337963
226.243134 8.223765
226.301468 10.41987
226.535156 17.79427
226.549988 5.59375
226.575623 13.41026
226.614105 11.20427
226.83902 2.0
226.922363 18.42391
226.973129 6.802778
227.018097 10.89015
227.115356 32.93895
227.129913 20.4079
227.272202 2.791667
227.39476 3.666667
227.426407 14.08654
227.552277 11.77174
227.716858 10.10897
227.773102 14.7631
228.198181 8.255208
228.216507 7.541667
228.282791 14.08333
228.866043 9.599999
229.056549 6.075
229.121323 675.337891
229.16243 45.99929
229.223465 8.775641
229.355743 3.010417
229.59816 5.702587
229.87236 4.003205
230.289505 5.380952
230.891541 8.682971
232.121582 201.649796
232.857162 3.339286
233.561111 9.589744
233.717621 9.675813
234.138382 403.166687
234.224396 19.58671
234.54538 5.583333
234.56514 12.89286
235.049133 10.0
236.159241 15.65337
237.121628 25.19978
237.162338 152.821106
237.348267 14.82471
237.520981 2.14881
237.783981 33.769562
237.89418 12.75521
238.137772 53.94281
238.185013 2.0
239.143097 311.837891
239.180084 1139.067017
239.2547 7.186728
239.378433 12.00915
239.429001 6.25926
239.508667 34.837318
239.69072 9.700757
239.836273 8.002451
239.895432 5.34375
239.941223 11.875
239.976257 4.333333
240.278152 8.025407
240.580231 7.044117
241.118057 38.826488
241.155472 42.428028
241.19577 13.66667
242.651443 9.361112
243.138184 195.865494
243.174042 877.193909
243.272217 10.125
243.329453 19.24103
243.602875 7.757576
243.692871 8.742284
243.709213 6.805555
243.872208 6.201666
243.997269 8.893817
244.078659 6.05
246.119019 5.054487
247.146225 21.74085
247.706375 5.801667
248.128143 4.083333
248.478989 5.415
249.126205 5.875
249.162888 1341.668945
249.243607 3.335526
249.37915 8.789634
249.434097 3.016667
249.488602 15.85227
249.543991 7.486111
249.576965 8.666667
249.59346 4.054824
249.629044 8.925926
249.664917 15.67582
249.730881 14.00298
249.785858 7.162634
249.813354 14.00082
249.862869 14.68632
249.945267 9.720239
250.369034 9.933333
250.842636 4.0
251.041031 5.346264
252.147217 81.915916
252.697372 12.53086
257.152008 106.716904
261.144012 39.347221
265.163208 54.50539
266.172211 27.535
267.172363 386.130188
267.221436 5.095238
267.357239 4.375
270.15802 26.419331
284.124115 15.78513
285.186768 241.195404
297.313751 12.21333
303.19339 45.138771
340.700806 3.640152
341.666779 2.666667
393.078339 12.81071
399.957977 6.306159
490.943207 5.666667
1449.946289 7.935
1638.258667 4.721491
1693.290771 7.078432
