>compound MLS001141242-01!3-(4-chlorophenyl)-2-[[2-(2-oxo-4-propylchromen-7-yl)oxyacetyl]amino]propanoic acid
>formula C23H22ClNO6
>ionization [M+H]+
>parentmass 444.121
#inchi InChI=1S/C23H22ClNO6/c1-2-3-15-11-22(27)31-20-12-17(8-9-18(15)20)30-13-21(26)25-19(23(28)29)10-14-4-6-16(24)7-5-14/h4-9,11-12,19H,2-3,10,13H2,1H3,(H,25,26)(H,28,29)
#inchikey YYXQOCDJYCJZFJ
#Ion_Source LC-ESI
#Instrument qTof
#Compound_Source NIH Natural Product Library
#PI Dorrestein
#Data_Collector VVP/LMS
#Scan -1
#Precursor_MZ 444.121
#ExactMass 443.114
#Charge 1
#CAS_Number N/A
#Pubmed_ID N/A
#Smiles CCCc1cc(=O)oc2cc(OCC(=O)NC(Cc3ccc(Cl)cc3)C(=O)O)ccc12
#INCHI_AUX N/A
#Library_Class 1
#SpectrumID CCMSLIB00000079584
#IonMode Positive
#UpdateWorkflowName UPDATE-SINGLE-ANNOTATED-GOLD
#LibraryQualityString Gold
#TaskID b1d8e8f6646f4e71acdff9ca3d919d08
##Scan# 1972
#SpectrumFile p1-D08_GD8_01_17916.mzXML
#LibraryName NIH_Natural_Products_Library.mgf
#MQScore -1
#Organism NIH_Natural_Products_Library
#TIC_Query 0
#RT_Query -1
#MZErrorPPM -1
#SharedPeaks 0
#MassDiff 0
#LibMZ -1
#SpecMZ 444.121
#SpecCharge 0
#internalFilename spec-00000.mgf

>collision 10
94.945442 84.0
94.974716 152.0
95.04834 160.0
95.069778 212.0
95.304733 196.0
95.419403 128.0
95.532196 148.0
95.561378 188.0
95.621704 164.0
95.641167 88.0
95.69178 164.0
95.833954 120.0
95.991837 148.0
96.093445 220.0
96.233788 240.0
96.294319 192.0
96.321663 160.0
96.372459 136.0
96.390045 156.0
96.410843 192.0
96.489723 68.0
96.521004 128.0
96.598526 144.0
96.888962 192.0
96.914429 180.0
97.067314 156.0
97.106537 64.0
97.192451 204.0
97.236023 172.0
97.269249 276.0
97.296867 124.0
97.314537 160.0
97.430412 128.0
97.450058 144.0
97.613197 180.0
97.634827 180.0
97.697769 160.0
97.759842 244.0
97.872932 132.0
97.975342 224.0
98.008835 128.0
98.042336 200.0
98.075836 148.0
98.105408 248.0
98.29277 184.0
98.480316 152.0
98.504013 172.0
98.859894 64.0
98.964851 188.0
99.218239 152.0
99.265984 188.0
99.369118 68.0
99.392929 196.0
99.460403 136.0
99.514 112.0
99.559669 96.0
99.822823 168.0
99.857773 120.0
99.971169 100.0
100.02491 152.0
100.196167 224.0
100.255943 192.0
100.271881 160.0
100.349625 140.0
100.427391 152.0
100.535126 172.0
100.567993 128.0
100.688843 132.0
100.714806 168.0
100.839783 236.0
100.866669 148.0
101.068649 144.0
101.122681 192.0
101.190742 172.0
101.232788 144.0
101.254814 56.0
101.312904 176.0
101.649734 124.0
101.665787 204.0
101.88665 200.0
102.046646 420.0
102.075577 148.0
102.109764 176.0
102.164078 204.0
102.19828 184.0
102.22242 128.0
102.260658 148.0
102.506348 92.0
102.526497 68.0
102.693832 104.0
102.734177 128.0
102.8936 136.0
102.917831 216.0
102.96225 148.0
103.053741 3608.0
103.150154 72.0
103.208778 72.0
103.334183 184.0
103.536598 164.0
103.668274 68.0
103.785835 56.0
103.840843 64.0
104.043503 84.0
104.059692 500.0
104.096291 116.0
104.151749 196.0
104.246613 84.0
104.419411 112.0
104.612701 104.0
104.660637 272.0
104.770485 48.0
104.834709 100.0
104.885658 108.0
105.003914 208.0
105.039665 136.0
105.071381 1320.0
105.105911 388.0
105.254913 60.0
105.469421 164.0
105.495995 144.0
105.526657 172.0
105.653458 140.0
105.71302 180.0
105.72683 144.0
105.845848 80.0
105.917526 80.0
105.950294 180.0
106.06189 184.0
106.106049 176.0
106.294746 204.0
106.356316 60.0
106.744598 128.0
106.81041 56.0
106.987373 168.0
107.046921 792.0
107.076317 204.0
107.246918 100.0
107.477882 104.0
107.512962 112.0
107.597595 212.0
107.723564 64.0
107.963318 180.0
108.050186 156.0
108.072945 40.0
108.0895 392.0
108.117676 156.0
108.377312 72.0
108.392044 176.0
108.588753 128.0
108.688324 88.0
108.75058 164.0
108.808701 176.0
108.854378 184.0
109.230972 196.0
109.249275 220.0
109.30545 48.0
109.361633 176.0
109.401184 64.0
109.451149 164.0
109.478218 68.0
109.517792 136.0
109.571953 164.0
109.624039 80.0
109.717834 164.0
109.75119 124.0
110.064171 152.0
110.202019 144.0
110.521919 248.0
110.570045 232.0
110.611656 168.0
110.779427 248.0
110.829704 200.0
110.846474 268.0
110.947075 92.0
111.003685 128.0
111.091766 164.0
111.20298 232.0
111.312141 176.0
111.75354 144.0
112.008263 152.0
112.048286 160.0
112.208458 148.0
112.326553 216.0
112.421494 188.0
112.451035 144.0
112.511292 212.0
112.592484 172.0
112.626205 188.0
112.833771 292.0
112.932861 152.0
113.000443 44.0
113.018806 536.0
113.146469 184.0
113.183632 160.0
113.231171 36.0
113.311661 124.0
113.37735 156.0
113.438812 200.0
113.693329 124.0
113.765495 108.0
114.313843 216.0
114.350021 144.0
114.680138 136.0
114.802444 240.0
114.972321 116.0
115.015007 396.0
115.055183 1508.0
115.130295 176.0
115.277695 208.0
115.382423 184.0
115.459396 192.0
115.557793 164.0
115.68145 212.0
115.761139 152.0
115.855377 192.0
115.870369 140.0
115.93251 124.0
115.956085 236.0
116.033249 160.0
116.060745 2048.0
116.146904 68.0
116.174789 152.0
116.421616 136.0
116.700951 144.0
116.765465 148.0
116.873016 164.0
116.92897 236.0
117.032318 188.0
117.064026 316.0
117.202446 92.0
117.223999 172.0
117.252014 140.0
117.385666 160.0
117.437424 28.0
117.461151 160.0
117.523712 136.0
117.545288 224.0
117.609421 184.0
117.646729 196.0
117.733093 116.0
117.849739 208.0
117.86702 180.0
117.919823 120.0
117.944824 124.0
118.065331 1460.0
118.151192 156.0
118.159477 212.0
118.19352 108.0
118.451149 140.0
118.503143 164.0
118.568146 148.0
118.624496 212.0
118.670029 124.0
118.709053 156.0
118.735001 220.0
118.795807 168.0
118.910805 180.0
118.952591 224.0
118.996201 176.0
119.048065 480.0
119.072708 2164.0
119.223534 68.0
119.262657 168.0
119.290916 52.0
119.33847 112.0
119.356133 172.0
119.4105 168.0
119.434425 96.0
119.510567 56.0
119.585121 168.0
119.612633 144.0
119.68251 136.0
119.773979 132.0
119.813187 80.0
119.863297 36.0
119.954834 136.0
120.047379 152.0
120.077057 484.0
120.279846 128.0
120.373718 96.0
120.537544 132.0
120.773651 104.0
120.83709 248.0
120.852409 172.0
120.878662 92.0
120.950882 136.0
121.029694 112.0
121.064079 148.0
121.103386 304.0
121.145767 104.0
121.235603 44.0
121.314507 76.0
121.528465 180.0
121.551369 152.0
121.698433 108.0
121.788467 208.0
121.860252 100.0
122.008202 108.0
122.076363 152.0
122.10495 136.0
122.122551 152.0
122.206139 200.0
122.258949 148.0
122.276558 68.0
122.307365 124.0
122.527573 180.0
122.81414 152.0
122.833992 140.0
122.904587 160.0
123.043633 80.0
123.228043 240.0
123.249031 128.0
123.37059 128.0
123.476723 92.0
123.826401 156.0
123.906143 156.0
124.11998 60.0
124.365158 72.0
124.394012 156.0
124.420647 92.0
124.442848 108.0
124.858376 188.0
124.925102 140.0
125.0149 2524.0
125.114258 156.0
125.13652 136.0
125.230049 132.0
125.26123 104.0
125.285736 44.0
125.348114 216.0
125.439491 92.0
125.548744 116.0
125.718285 184.0
125.778542 116.0
126.017708 256.0
126.250175 204.0
126.294685 84.0
126.321526 152.0
126.440109 172.0
126.699844 84.0
126.71553 152.0
126.78051 236.0
126.825333 156.0
126.849991 268.0
126.973305 92.0
127.011208 1256.0
127.258286 160.0
127.32016 80.0
127.557068 112.0
127.678482 156.0
127.776199 204.0
127.896713 100.0
128.019684 220.0
128.060226 1136.0
128.223297 132.0
128.444244 52.0
128.776031 188.0
128.834763 88.0
128.92514 140.0
128.94548 104.0
129.067017 584.0
129.204025 244.0
129.277924 164.0
129.372986 52.0
129.443161 232.0
129.486191 164.0
129.579071 136.0
129.606247 192.0
129.686523 116.0
129.746765 136.0
129.796646 164.0
129.848801 232.0
129.869217 84.0
129.907776 224.0
129.930466 76.0
129.96904 72.0
129.993988 192.0
130.041519 140.0
130.064972 8424.0
130.100662 48.0
130.118835 136.0
130.189224 44.0
130.320969 68.0
130.355042 36.0
130.407318 88.0
130.468689 84.0
130.575562 128.0
130.618774 208.0
130.64444 112.0
130.707504 136.0
130.819016 204.0
130.837234 120.0
130.937408 108.0
130.953354 176.0
130.968979 124.0
130.987991 220.0
131.01416 168.0
131.048401 1120.0
131.083328 17784.0
131.153549 88.0
131.188049 48.0
131.221359 72.0
131.242767 120.0
131.330704 220.0
131.428574 60.0
131.448044 104.0
131.505096 48.0
131.587723 208.0
131.660355 80.0
131.751709 272.0
132.014908 164.0
132.086014 1284.0
132.117477 64.0
132.16095 176.0
132.274841 240.0
132.323456 124.0
132.344055 256.0
132.632706 160.0
132.742752 80.0
132.825317 148.0
132.917084 76.0
132.969864 48.0
133.024948 160.0
133.063248 896.0
133.100754 992.0
133.210938 132.0
133.263779 52.0
133.286758 92.0
133.360291 144.0
133.499664 264.0
133.583328 104.0
133.645447 388.0
133.72139 184.0
134.029968 176.0
134.063461 308.0
134.100845 212.0
134.154419 44.0
134.182816 76.0
134.248947 216.0
134.299683 136.0
134.465805 72.0
134.498108 172.0
134.595078 216.0
134.655121 212.0
134.809891 196.0
134.835312 140.0
134.888474 132.0
134.946274 120.0
134.974014 124.0
135.022583 56.0
135.043808 484.0
135.079239 272.0
135.083328 312.0
135.112793 164.0
135.145172 244.0
135.258575 128.0
135.369705 128.0
135.568924 228.0
135.624542 64.0
135.719589 164.0
135.740463 160.0
136.028137 92.0
136.076889 116.0
136.244598 188.0
136.325424 144.0
136.476517 188.0
136.509064 144.0
136.5672 180.0
136.660263 160.0
136.716095 184.0
136.813858 224.0
136.902573 120.0
137.015778 1188.0
137.049088 84.0
137.163269 140.0
137.18425 164.0
137.228546 208.0
137.244873 200.0
137.333481 268.0
137.396469 144.0
137.450134 52.0
137.669556 168.0
137.704575 184.0
137.758301 200.0
137.926544 176.0
137.96814 152.0
138.02124 1136.0
138.263336 144.0
138.300781 148.0
138.383041 172.0
138.417831 148.0
138.455307 148.0
138.502151 96.0
138.588135 220.0
138.633347 112.0
138.723648 240.0
138.872467 132.0
138.89592 48.0
138.929352 144.0
138.989105 172.0
139.030624 9824.0
139.121201 144.0
139.222153 60.0
139.318451 84.0
139.379547 132.0
139.398331 40.0
139.475891 88.0
139.661636 232.0
139.743973 124.0
139.798691 128.0
139.932266 204.0
139.96994 124.0
140.032867 536.0
140.066498 132.0
140.082977 132.0
140.165436 164.0
140.290344 132.0
140.401169 48.0
140.63945 52.0
140.719711 164.0
140.789688 196.0
140.927948 144.0
140.988983 124.0
141.028198 2760.0
141.069946 3816.0
141.2034 172.0
141.32309 192.0
141.395752 140.0
141.421783 120.0
141.531494 200.0
141.649094 116.0
141.696472 68.0
141.73439 128.0
141.810211 44.0
141.96669 84.0
141.995148 140.0
142.014084 208.0
142.03038 184.0
142.073853 372.0
142.120865 160.0
142.572037 328.0
142.721786 140.0
143.010437 380.0
143.051498 332.0
143.086273 640.0
143.29776 140.0
143.416611 188.0
143.531342 148.0
143.583801 92.0
143.753174 124.0
143.88092 124.0
144.055893 1064.0
144.080002 400.0
144.419724 176.0
144.647034 156.0
144.807449 84.0
145.027512 184.0
145.060547 804.0
145.09259 92.0
145.138153 64.0
145.244537 144.0
145.416412 128.0
145.459625 144.0
145.498032 176.0
145.956924 92.0
146.075638 460.0
146.308182 140.0
146.33226 104.0
146.418945 172.0
146.439529 140.0
146.946838 192.0
146.992126 224.0
147.043839 1336.0
147.078842 596.0
147.113358 96.0
147.374176 100.0
147.747604 192.0
147.860229 92.0
147.91832 196.0
148.050385 1396.0
148.082474 200.0
148.221039 192.0
148.320404 232.0
148.477997 80.0
148.509521 72.0
148.533783 200.0
148.587143 248.0
148.662369 172.0
148.784607 232.0
148.844421 48.0
148.914841 192.0
148.948853 156.0
149.014282 184.0
149.059738 428.0
149.095627 1772.0
149.493698 188.0
149.573761 232.0
149.758804 192.0
150.096222 96.0
150.129242 76.0
150.265839 132.0
150.336594 188.0
150.490372 112.0
150.578278 100.0
150.690643 132.0
151.028931 2244.0
151.125839 64.0
151.167435 120.0
151.277573 80.0
151.304504 152.0
151.431839 140.0
151.733231 228.0
151.828857 176.0
152.003021 116.0
152.036438 628.0
152.074203 68.0
152.157654 96.0
152.619553 120.0
152.646591 140.0
152.867981 148.0
152.917206 184.0
152.954117 124.0
152.983658 148.0
153.02832 856.0
153.073303 380.0
153.153564 180.0
153.27182 112.0
153.311234 156.0
153.446808 60.0
153.552841 112.0
154.004089 264.0
154.013748 220.0
154.041351 8484.0
154.145309 196.0
154.310913 172.0
154.371536 200.0
154.45929 64.0
154.526077 76.0
154.543396 68.0
154.57309 192.0
154.677032 104.0
154.696838 60.0
154.771103 140.0
154.845398 188.0
154.870163 88.0
155.04335 520.0
155.103073 96.0
155.170013 128.0
155.316315 172.0
155.398178 76.0
155.487503 152.0
155.745712 140.0
155.835144 160.0
155.887329 44.0
155.932053 120.0
156.039169 3096.0
156.123489 120.0
156.320007 64.0
156.367279 152.0
156.454407 128.0
156.549011 152.0
156.601318 96.0
156.833023 52.0
156.887863 196.0
156.987595 192.0
157.01503 184.0
157.041763 428.0
157.249542 60.0
157.461761 180.0
157.691605 168.0
157.866608 212.0
157.949142 92.0
158.011673 212.0
158.034698 548.0
158.070374 484.0
158.097412 180.0
158.116776 80.0
158.242798 208.0
158.422241 188.0
158.478363 148.0
158.743042 136.0
158.875977 128.0
159.042145 320.0
159.080704 6056.0
159.126465 168.0
159.149536 36.0
159.217331 40.0
159.288452 76.0
159.33287 116.0
159.415787 124.0
159.679764 156.0
159.868652 48.0
159.938904 52.0
159.976654 156.0
160.054871 244.0
160.082001 1312.0
160.157959 92.0
160.392288 140.0
160.50322 148.0
160.548599 136.0
160.755463 120.0
160.778168 140.0
160.821075 148.0
160.889221 136.0
160.906906 64.0
161.059418 2180.0
161.094543 2160.0
161.184723 32.0
161.212524 140.0
161.275711 156.0
161.311096 128.0
161.624695 200.0
161.963928 96.0
161.981659 208.0
162.029785 208.0
162.065369 608.0
162.099625 172.0
162.14888 160.0
162.339005 96.0
162.783081 132.0
162.835434 104.0
163.037811 2064.0
163.073563 1212.0
163.138779 52.0
163.298965 96.0
163.479599 132.0
163.533035 152.0
163.566132 180.0
163.711243 180.0
163.790192 136.0
163.904846 92.0
164.025146 1528.0
164.081253 256.0
164.106201 192.0
164.126587 172.0
164.409744 128.0
164.688019 72.0
164.833633 44.0
164.917969 140.0
165.01123 680.0
165.045578 96.0
165.247849 164.0
165.368118 172.0
165.467941 48.0
165.537079 164.0
165.785553 116.0
165.880386 148.0
165.923615 176.0
165.946152 184.0
166.04184 37600.0
166.090759 216.0
166.11116 120.0
166.134247 28.0
166.174759 172.0
166.193268 124.0
166.264328 156.0
166.289688 92.0
166.334412 188.0
166.367783 144.0
166.45433 64.0
166.498734 84.0
166.550095 52.0
166.642578 128.0
166.665131 168.0
166.691391 104.0
166.760773 40.0
166.794189 52.0
166.857361 132.0
166.902161 132.0
166.933014 216.0
166.953079 20.0
167.005112 528.0
167.044525 4032.0
167.223724 60.0
167.254608 72.0
167.306091 44.0
167.34198 128.0
167.35054 120.0
167.360794 160.0
167.383331 92.0
167.6203 92.0
167.678101 64.0
167.751755 96.0
167.787842 180.0
167.888397 168.0
167.909027 76.0
167.973511 132.0
168.039169 10772.0
168.102509 92.0
168.128311 40.0
168.192841 132.0
168.239304 64.0
168.25737 148.0
168.27919 124.0
168.319336 132.0
168.391647 64.0
168.487213 136.0
168.624161 268.0
168.838745 72.0
168.916336 80.0
168.973251 76.0
169.041763 680.0
169.063049 408.0
169.094864 224.0
169.167328 124.0
169.219116 116.0
169.382263 48.0
169.439255 128.0
169.501434 124.0
169.771027 48.0
169.856613 88.0
169.882553 176.0
169.900711 252.0
170.064178 144.0
170.110901 80.0
170.251114 160.0
170.354996 56.0
170.596664 128.0
170.614868 180.0
171.044083 140.0
171.079697 320.0
171.904129 48.0
172.052765 864.0
172.07901 124.0
172.420914 172.0
172.905014 44.0
173.057678 160.0
173.097351 228.0
173.172043 124.0
173.2061 248.0
173.525146 60.0
173.654297 92.0
173.675278 112.0
173.893051 128.0
174.065567 252.0
174.420975 124.0
174.8918 68.0
175.00235 160.0
175.038742 1644.0
175.074768 356.0
175.15773 168.0
175.281555 88.0
176.045135 1248.0
176.075821 180.0
176.247284 164.0
176.360916 64.0
176.479874 136.0
176.511597 48.0
176.569778 120.0
176.659714 148.0
177.019653 84.0
177.046692 172.0
177.086929 200.0
177.173279 184.0
177.36937 212.0
177.435638 52.0
177.464798 52.0
177.610657 60.0
177.692886 112.0
178.364746 132.0
178.409927 48.0
178.641296 164.0
179.112442 80.0
179.336258 124.0
179.920425 236.0
180.024551 160.0
180.064621 92.0
180.526932 128.0
181.004059 264.0
181.059479 120.0
181.635727 212.0
181.670593 80.0
181.81279 184.0
181.930893 184.0
182.007843 164.0
182.043655 76.0
182.161835 208.0
182.323044 88.0
182.476257 40.0
182.745209 160.0
183.005219 184.0
183.029831 160.0
183.248672 76.0
184.003616 172.0
184.053802 1392.0
184.552277 152.0
184.573914 76.0
185.012207 144.0
185.058182 400.0
185.174667 96.0
185.228836 192.0
185.255936 72.0
185.323654 156.0
185.459152 84.0
185.648926 108.0
185.7547 76.0
185.901215 136.0
186.02063 304.0
186.049988 472.0
186.126511 132.0
186.395416 144.0
186.438919 236.0
186.485107 244.0
186.531982 144.0
186.593704 164.0
186.814117 156.0
186.835876 80.0
186.951187 188.0
186.987518 344.0
187.010025 152.0
187.075165 24092.0
187.135239 208.0
187.169174 104.0
187.208755 80.0
187.233261 52.0
187.314972 72.0
187.421906 64.0
187.453918 84.0
187.62291 188.0
187.745605 52.0
187.79068 68.0
187.854706 136.0
187.876526 44.0
187.899963 88.0
187.985657 40.0
188.026596 240.0
188.049194 264.0
188.078339 3280.0
188.261368 56.0
188.624741 88.0
188.686966 140.0
188.706757 116.0
188.777847 96.0
188.807922 236.0
188.843475 148.0
188.892715 120.0
188.914597 88.0
188.961105 168.0
189.049698 320.0
189.08992 6276.0
189.153503 136.0
189.309677 96.0
189.333374 144.0
189.457657 140.0
189.538818 92.0
189.692291 68.0
189.752594 76.0
189.801956 148.0
189.854935 168.0
190.054291 200.0
190.094849 636.0
190.139359 28.0
190.287582 84.0
190.422134 104.0
190.452347 68.0
190.529266 48.0
190.70787 64.0
190.751846 76.0
190.795837 152.0
191.089401 204.0
191.145126 96.0
191.373581 56.0
191.491989 156.0
191.538818 112.0
191.610443 40.0
192.202835 124.0
192.617325 176.0
192.708496 60.0
193.001465 88.0
193.405365 156.0
193.870636 80.0
194.032913 340.0
194.711227 132.0
194.922348 120.0
194.94339 224.0
195.042633 416.0
195.164169 160.0
195.578659 232.0
195.781906 48.0
195.918381 84.0
196.053391 176.0
196.967239 168.0
197.036331 328.0
197.241074 112.0
197.615799 68.0
197.842484 140.0
197.929276 48.0
198.043991 204.0
198.111328 132.0
198.161758 68.0
198.498093 196.0
199.078964 140.0
199.241867 112.0
199.281204 52.0
199.402023 188.0
199.916672 212.0
200.037689 152.0
200.077103 144.0
200.172836 188.0
200.322098 68.0
200.8069 132.0
201.055374 168.0
201.093689 392.0
201.343124 248.0
201.90834 152.0
202.047989 160.0
202.069565 144.0
202.502655 144.0
202.644302 40.0
203.066666 172.0
203.935455 220.0
204.077225 1016.0
204.11171 168.0
204.19133 84.0
204.561218 152.0
204.652313 184.0
204.777603 196.0
204.99382 112.0
205.049133 248.0
205.085281 14156.0
205.162277 32.0
205.22934 168.0
205.287216 88.0
205.330505 44.0
205.388977 64.0
205.438889 64.0
205.461716 64.0
205.51593 84.0
205.632919 52.0
205.805084 64.0
205.892715 60.0
205.924133 52.0
205.952698 64.0
205.97554 236.0
206.089981 2528.0
206.1241 68.0
206.15889 92.0
206.262619 68.0
206.33847 48.0
206.407089 64.0
206.827621 116.0
207.042358 144.0
207.087128 412.0
207.376343 76.0
207.420547 144.0
207.443481 56.0
207.518021 104.0
207.626984 60.0
207.669998 128.0
207.733093 44.0
207.767517 56.0
207.910995 40.0
208.692307 88.0
209.077744 204.0
209.596085 104.0
209.616241 148.0
209.743057 140.0
210.083313 80.0
210.571121 124.0
210.623108 36.0
210.802231 92.0
211.178055 80.0
211.675812 64.0
211.742416 92.0
212.04744 240.0
213.044754 84.0
213.088333 172.0
214.040833 324.0
214.832153 72.0
214.908005 88.0
215.033478 168.0
215.080658 2236.0
215.123962 76.0
215.275787 76.0
215.360474 48.0
215.451035 172.0
215.538681 48.0
215.945023 52.0
215.974274 36.0
216.03862 168.0
216.0569 108.0
216.083817 312.0
216.220032 72.0
216.261002 124.0
216.381027 184.0
216.404449 76.0
216.562576 196.0
216.591858 172.0
216.621155 72.0
216.714905 72.0
216.846573 120.0
216.870209 124.0
216.920044 68.0
216.953979 340.0
216.989349 156.0
217.08551 27248.0
217.229141 88.0
217.28212 180.0
217.300476 88.0
217.387924 204.0
217.480286 120.0
217.533112 104.0
217.575439 48.0
217.674042 40.0
217.832642 44.0
217.85907 220.0
217.911957 228.0
218.041245 172.0
218.089142 3356.0
218.202911 104.0
218.255829 172.0
218.391113 72.0
218.597046 52.0
218.676498 44.0
218.738312 92.0
218.794235 64.0
218.894348 212.0
218.920853 60.0
218.991531 40.0
219.090729 300.0
219.227219 88.0
219.367767 180.0
219.510193 168.0
219.554428 104.0
219.589828 84.0
219.666504 120.0
219.784515 76.0
219.846481 72.0
219.908463 96.0
220.072525 708.0
220.109207 116.0
220.144638 64.0
220.416397 84.0
220.448898 84.0
220.593719 96.0
220.933792 40.0
221.768814 68.0
221.813278 128.0
222.029709 152.0
223.003494 68.0
223.750122 196.0
224.280365 100.0
227.793243 96.0
228.379364 64.0
228.559875 80.0
229.090469 324.0
230.090958 140.0
230.537979 116.0
232.555588 96.0
232.916275 212.0
233.086395 172.0
233.329544 80.0
233.631104 124.0
234.050308 160.0
234.416138 132.0
235.094223 416.0
236.226624 88.0
236.661194 68.0
237.424194 80.0
237.626633 60.0
238.388107 88.0
241.044327 108.0
241.743164 184.0
242.096069 176.0
243.60762 192.0
244.029175 144.0
244.097916 520.0
244.922287 220.0
245.079224 2068.0
245.277496 40.0
246.082626 276.0
246.119812 180.0
246.688416 84.0
247.097809 184.0
247.595779 164.0
247.649887 72.0
247.940384 64.0
251.977448 104.0
258.05423 120.0
258.111786 164.0
259.992126 40.0
260.037048 156.0
262.103333 380.0
262.129944 276.0
263.09433 528.0
263.408173 68.0
264.090179 128.0
265.103516 120.0
268.344147 136.0
269.430939 52.0
269.78714 184.0
270.14032 80.0
272.106567 196.0
273.928436 132.0
275.389648 124.0
278.931641 144.0
279.776581 148.0
282.074982 104.0
282.302307 72.0
282.844299 104.0
283.045166 120.0
283.199219 40.0
283.805756 32.0
285.081879 160.0
286.112183 136.0
286.98645 56.0
290.134033 180.0
293.101105 92.0
294.083252 132.0
295.084137 124.0
296.525238 64.0
297.231659 84.0
299.053009 136.0
301.049133 140.0
302.390472 76.0
303.093445 120.0
303.242462 68.0
305.113403 136.0
306.118927 168.0
306.143311 172.0
309.047485 84.0
309.376465 96.0
311.965363 72.0
313.100647 168.0
313.138306 56.0
314.049896 104.0
315.236084 144.0
315.345642 176.0
315.46936 28.0
315.861847 68.0
319.672211 52.0
319.725586 124.0
320.505432 88.0
322.046539 164.0
326.109528 108.0
328.648285 68.0
329.135559 116.0
330.114777 172.0
331.863678 108.0
333.133881 48.0
340.075256 144.0
340.883179 156.0
341.095032 556.0
341.629547 48.0
341.990143 76.0
342.064636 136.0
342.097565 456.0
342.722961 124.0
343.08548 400.0
344.087585 92.0
347.062256 100.0
348.892578 64.0
348.926056 40.0
351.260956 104.0
353.708435 32.0
360.890106 136.0
364.551697 76.0
365.049683 48.0
370.12088 108.0
372.671509 120.0
373.324951 92.0
374.953369 92.0
377.056671 52.0
380.091858 156.0
381.094421 140.0
388.87323 132.0
391.983917 64.0
395.696686 80.0
398.111542 2448.0
398.294098 84.0
398.357666 68.0
398.882172 136.0
399.061066 48.0
399.114716 724.0
399.5224 36.0
399.745209 84.0
400.043701 76.0
400.111298 904.0
400.159149 52.0
400.310455 48.0
401.102783 284.0
401.505951 136.0
402.391785 56.0
402.871796 104.0
403.302582 84.0
403.866333 52.0
411.94574 156.0
412.256836 80.0
412.713623 80.0
417.974396 80.0
420.12149 108.0
423.121094 88.0
426.098541 112.0
428.282837 52.0
444.109741 388.0
445.124207 148.0
446.117798 184.0
446.963409 60.0
447.279053 112.0
455.749786 92.0
468.744904 40.0
469.24057 60.0
472.167145 84.0
476.880859 124.0
480.45578 80.0
485.03418 56.0
546.175476 48.0
552.1828 92.0
554.673645 84.0
572.428589 144.0
636.140015 120.0
643.425232 52.0
678.186707 112.0
682.526611 72.0
685.035095 60.0
685.248718 204.0
702.085205 76.0
703.826599 40.0
708.205261 128.0
721.904053 72.0
723.471741 52.0
728.469604 40.0
729.721741 72.0
753.525696 80.0
761.221191 172.0
775.509766 92.0
781.468201 180.0
793.386292 92.0
801.237122 204.0
802.454468 212.0
812.890137 184.0
826.125366 44.0
832.389709 84.0
856.215332 160.0
857.217285 192.0
860.109985 228.0
862.475586 120.0
862.586609 48.0
863.697571 52.0
864.007629 188.0
882.462952 144.0
889.898499 68.0
890.480408 156.0
903.899536 280.0
913.300293 100.0
929.351318 144.0
943.523621 80.0
943.676453 40.0
952.838928 208.0
955.74707 244.0
955.894714 124.0
969.071106 180.0
969.176453 120.0
972.692749 224.0
987.103027 164.0
988.135071 160.0
989.023621 244.0
998.120178 156.0
1002.318542 168.0
1002.476074 140.0
1002.797485 164.0
1003.635925 208.0
1013.153931 72.0
1033.860107 96.0
1034.685791 148.0
1038.389404 180.0
1039.563354 144.0
1041.9198 216.0
1055.118286 116.0
1055.855469 172.0
1057.550537 184.0
1060.594604 164.0
1067.658325 84.0
1070.69104 160.0
1074.915161 168.0
1080.691284 208.0
1083.50647 56.0
1083.794678 156.0
1084.404175 164.0
1087.828003 172.0
1095.311035 248.0
1096.681519 184.0
1105.061401 160.0
1108.868896 88.0
1109.147339 176.0
1112.151245 188.0
1113.904907 120.0
1114.622437 176.0
1117.049072 172.0
1120.431519 168.0
1120.783813 176.0
1122.9104 168.0
1125.305908 140.0
1130.740356 132.0
1130.894287 184.0
1131.423096 64.0
1132.05249 248.0
1135.832397 168.0
1136.308716 136.0
1139.289429 180.0
1141.204834 140.0
1141.951294 108.0
1142.011841 192.0
1142.126099 88.0
1143.714111 228.0
1143.996826 164.0
1147.17627 208.0
1149.3479 184.0
1149.752808 252.0
1150.22522 212.0
1151.893066 128.0
1157.817993 172.0
1163.4729 164.0
1166.448242 204.0
1166.706543 224.0
1172.008301 104.0
1174.967163 48.0
1175.294678 208.0
1179.453613 192.0
1179.733887 136.0
1182.387695 152.0
1183.346558 256.0
1183.866455 180.0
1188.82959 224.0
1189.289307 128.0
1190.861694 40.0
1191.019653 140.0
1191.102051 144.0
1191.651611 176.0
1194.050659 168.0
1195.474609 228.0
1199.607056 60.0
1200.51709 44.0
1200.579224 160.0
1201.993286 136.0
1202.434937 164.0
1203.18042 216.0
1203.677612 120.0
1211.27124 244.0
1216.985596 152.0
1219.131958 140.0
1222.295898 144.0
1224.829956 240.0
1226.307007 200.0
1227.666504 116.0
1227.868774 156.0
1229.284912 32.0
1229.459351 136.0
1232.713501 64.0
1232.797363 168.0
1234.642822 216.0
1235.531128 144.0
1236.57373 76.0
1238.737305 184.0
1239.683105 140.0
1240.582031 164.0
1241.772339 144.0
1244.6073 116.0
1248.556519 188.0
1249.386475 128.0
1252.652832 172.0
1253.033203 108.0
1253.34314 176.0
1253.589844 196.0
1255.718872 224.0
1257.87793 116.0
1258.467407 180.0
1260.498047 220.0
1262.427856 292.0
1262.576294 144.0
1262.647095 144.0
1262.724854 56.0
1263.87793 164.0
1266.029785 108.0
1267.921265 152.0
1268.084229 152.0
1269.86377 164.0
1272.219604 264.0
1272.659668 120.0
1273.94519 148.0
1275.330811 176.0
1276.361572 212.0
1278.986694 148.0
1280.567261 108.0
1281.293823 96.0
1281.521851 192.0
1282.369873 144.0
1283.375 140.0
1284.216431 96.0
1286.856689 104.0
1292.252808 88.0
1292.460205 124.0
1293.7771 128.0
1295.180664 152.0
1296.850098 164.0
1297.359009 172.0
1299.869263 148.0
1300.012695 172.0
1300.874023 252.0
1301.22583 216.0
1307.392944 112.0
1307.450562 68.0
1309.934448 120.0
1311.880127 200.0
1312.334351 176.0
1314.490967 136.0
1316.353271 128.0
1319.438477 116.0
1320.291626 68.0
1320.841309 240.0
1320.920898 164.0
1322.085693 176.0
1322.338989 192.0
1322.396973 212.0
1323.395874 128.0
1324.518433 220.0
1326.996704 160.0
1328.251343 56.0
1328.490723 140.0
1328.635742 168.0
1328.998535 200.0
1333.195557 116.0
1334.591187 160.0
1335.231079 172.0
1335.449341 224.0
1337.209961 228.0
1337.370117 132.0
1337.785034 180.0
1337.981567 112.0
1341.624023 192.0
1342.039551 152.0
1344.067261 156.0
1346.257202 188.0
1346.338379 172.0
1349.011597 200.0
1349.82312 120.0
1350.525146 120.0
1350.825073 44.0
1350.92749 200.0
1351.724976 196.0
1352.522705 196.0
1353.298706 200.0
1354.528931 140.0
1355.503296 220.0
1355.730469 152.0
1359.265015 180.0
1360.755005 212.0
1361.540649 96.0
1364.435669 232.0
1366.737671 188.0
1367.952026 144.0
1369.196289 140.0
1369.439331 72.0
1370.12439 256.0
1371.384399 236.0
1371.878296 200.0
1372.313232 156.0
1374.326782 212.0
1374.540771 180.0
1377.021118 148.0
1379.001221 156.0
1379.052979 156.0
1379.444702 156.0
1379.562988 88.0
1384.105591 92.0
1384.579468 188.0
1384.757202 176.0
1385.016479 168.0
1385.112793 212.0
1385.275757 168.0
1386.187012 156.0
1386.720581 144.0
1387.395142 168.0
1387.476685 172.0
1387.558228 152.0
1390.758667 176.0
1391.00769 112.0
1392.099121 128.0
1392.269897 188.0
1394.335083 232.0
1394.491211 92.0
1394.587769 112.0
1394.929688 116.0
1396.506104 176.0
1396.825928 136.0
1399.042358 148.0
1399.907104 128.0
1400.026245 224.0
1400.76355 124.0
1401.061523 156.0
1401.543457 288.0
1402.365601 224.0
1403.342041 176.0
1403.714844 208.0
1404.095215 52.0
1405.057373 156.0
1408.804932 116.0
1412.265869 188.0
1415.416382 68.0
1416.974243 208.0
1417.154053 172.0
1417.723511 172.0
1417.798462 172.0
1418.195679 48.0
1419.290161 124.0
1421.337891 176.0
1423.957764 140.0
1425.174683 172.0
1425.708252 200.0
1426.174194 128.0
1426.598389 176.0
1427.63269 84.0
1427.707886 48.0
1429.799316 176.0
1430.002441 128.0
1430.183105 152.0
1432.878906 156.0
1433.089844 204.0
1433.459106 184.0
1434.499146 216.0
1437.121216 168.0
1437.74231 132.0
1439.448364 160.0
1439.939209 156.0
1440.143188 176.0
1440.671875 156.0
1440.830566 244.0
1441.011841 160.0
1441.29895 152.0
1442.689575 224.0
1444.602783 168.0
1446.411255 140.0
1447.698364 164.0
1447.887695 212.0
1448.622314 192.0
1449.531494 192.0
1452.055908 188.0
1452.344116 164.0
1452.958496 184.0
1453.269531 40.0
1453.937378 192.0
1455.030396 236.0
1456.047852 140.0
1456.556763 172.0
1456.94458 220.0
1457.149292 164.0
1457.612671 48.0
1457.848267 120.0
1459.078735 184.0
1459.307739 144.0
1461.650269 116.0
1463.217285 164.0
1463.911133 156.0
1465.42688 156.0
1466.234619 232.0
1466.676636 152.0
1467.843018 148.0
1468.04126 176.0
1469.887329 192.0
1470.871826 208.0
1471.261108 264.0
1471.642822 144.0
1472.28418 76.0
1472.78833 176.0
1474.285767 92.0
1474.438599 164.0
1474.851318 144.0
1474.99646 176.0
1475.073242 104.0
1475.286987 156.0
1480.977539 64.0
1482.397217 148.0
1482.466187 124.0
1484.66626 140.0
1485.065063 152.0
1485.51001 136.0
1485.609741 44.0
1486.008667 108.0
1486.7146 180.0
1487.006226 156.0
1487.482056 216.0
1489.587158 160.0
1490.714722 192.0
1491.445557 156.0
1493.993896 248.0
1495.160278 224.0
1496.830688 124.0
1497.431396 176.0
1497.723999 112.0
1498.08606 128.0
1499.380493 204.0
1499.858398 148.0
1501.315552 104.0
1502.017334 200.0
1502.44165 172.0
1504.100708 152.0
