>compound MLS001141189-01!
>formula C24H30N4O3
>ionization [M+H]+
>parentmass 423.24
#inchi InChI=1S/C24H30N4O3/c1-15(2)22(23(30)25-19-9-7-16(3)8-10-19)26-24(31)27-12-17-11-18(14-27)20-5-4-6-21(29)28(20)13-17/h4-10,15,17-18,22H,11-14H2,1-3H3,(H,25,30)(H,26,31)/t17-,18+,22+/m1/s1
#inchikey AAXSISKHQNPNNR
#Ion_Source LC-ESI
#Instrument qTof
#Compound_Source NIH Natural Product Library
#PI Dorrestein
#Data_Collector VVP/LMS
#Scan -1
#Precursor_MZ 423.24
#ExactMass 422.232
#Charge 1
#CAS_Number N/A
#Pubmed_ID N/A
#Smiles CC(C)[C@H](NC(=O)N1C[C@H]2C[C@@H](C1)c3cccc(=O)n3C2)C(=O)Nc4ccc(C)cc4
#INCHI_AUX N/A
#Library_Class 1
#SpectrumID CCMSLIB00000079714
#IonMode Positive
#UpdateWorkflowName UPDATE-SINGLE-ANNOTATED-GOLD
#LibraryQualityString Gold
#TaskID b1d8e8f6646f4e71acdff9ca3d919d08
##Scan# 1861
#SpectrumFile p1-B10_GB10_01_17894.mzXML
#LibraryName NIH_Natural_Products_Library.mgf
#MQScore -1
#Organism NIH_Natural_Products_Library
#TIC_Query 0
#RT_Query -1
#MZErrorPPM -1
#SharedPeaks 0
#MassDiff 0
#LibMZ -1
#SpecMZ 423.24
#SpecCharge 0
#internalFilename spec-00000.mgf

>collision 10
95.012428 128.0
95.058304 224.0
95.119164 144.0
95.148277 144.0
95.177399 132.0
95.214294 160.0
95.262856 200.0
95.323082 152.0
95.348343 132.0
95.383331 120.0
95.457207 244.0
95.480545 108.0
95.523094 196.0
95.661491 156.0
95.776382 152.0
95.791962 156.0
95.887436 144.0
95.924469 148.0
96.014153 192.0
96.04641 208.0
96.082428 148.0
96.146812 156.0
96.220985 84.0
96.248322 176.0
96.322533 236.0
96.363556 136.0
96.402641 160.0
96.416321 60.0
96.553162 192.0
96.56881 244.0
96.64119 164.0
96.705765 164.0
96.862404 148.0
96.913071 172.0
96.966812 196.0
97.023094 172.0
97.081718 196.0
97.16626 172.0
97.183914 152.0
97.256523 216.0
97.303825 128.0
97.392776 180.0
97.410156 232.0
97.523643 144.0
97.545265 108.0
97.594414 68.0
97.61274 88.0
97.625877 120.0
97.657341 196.0
97.678978 184.0
97.694717 64.0
97.720291 124.0
97.743904 208.0
97.836517 144.0
97.905319 112.0
97.938797 72.0
97.986076 140.0
98.039276 204.0
98.135864 56.0
98.189102 140.0
98.218689 156.0
98.256172 196.0
98.295631 168.0
98.40419 112.0
98.418007 144.0
98.441704 148.0
98.493057 40.0
98.560219 96.0
98.589699 144.0
98.613579 160.0
98.639275 116.0
98.668922 196.0
98.717293 176.0
98.781647 152.0
98.819237 132.0
98.833084 28.0
98.914223 172.0
98.934021 160.0
98.959755 108.0
98.979553 144.0
99.005295 136.0
99.059669 168.0
99.11821 152.0
99.241096 188.0
99.260925 48.0
99.317101 124.0
99.482704 164.0
99.524826 176.0
99.606255 200.0
99.630089 56.0
99.643997 68.0
99.719505 76.0
99.74733 204.0
99.814926 84.0
99.870613 124.0
99.93029 172.0
99.978043 216.0
99.995956 128.0
100.063637 224.0
100.083542 232.0
100.09668 188.0
100.117393 184.0
100.13134 108.0
100.14727 140.0
100.216995 80.0
100.272789 40.0
100.316635 112.0
100.424309 212.0
100.480164 216.0
100.510094 160.0
100.546013 212.0
100.63842 164.0
100.68576 164.0
100.787315 176.0
100.815849 168.0
100.89756 128.0
100.933548 132.0
100.967545 204.0
100.985542 184.0
101.074501 128.0
101.105652 220.0
101.174469 156.0
101.225693 168.0
101.253731 144.0
101.271751 148.0
101.305809 104.0
101.333855 188.0
101.407997 164.0
101.44207 168.0
101.4683 48.0
101.480469 204.0
101.514244 128.0
101.544327 152.0
101.642624 144.0
101.708855 96.0
101.795181 176.0
101.836349 200.0
101.883186 152.0
101.900902 200.0
101.947853 220.0
102.034279 48.0
102.073891 188.0
102.112701 196.0
102.299828 148.0
102.321968 128.0
102.362236 156.0
102.408554 144.0
102.468987 200.0
102.507271 112.0
102.63913 144.0
102.647705 60.0
102.65345 124.0
102.745186 140.0
102.774239 100.0
102.829933 132.0
102.85421 156.0
102.892509 48.0
103.053535 172.0
103.189491 164.0
103.223869 156.0
103.238022 168.0
103.252174 96.0
103.290604 56.0
103.339157 108.0
103.357368 80.0
103.384361 176.0
103.460587 164.0
103.476784 56.0
103.578033 144.0
103.618553 120.0
103.657051 148.0
103.683395 172.0
103.754333 232.0
103.770554 120.0
103.817192 144.0
103.858353 176.0
103.888176 184.0
103.924698 88.0
103.944984 124.0
103.969337 204.0
104.042412 128.0
104.167191 152.0
104.294296 172.0
104.386833 116.0
104.412216 184.0
104.436623 180.0
104.495613 112.0
104.601433 196.0
104.800781 140.0
104.821388 196.0
104.849915 100.0
104.878448 36.0
104.892715 156.0
104.925339 124.0
104.939606 212.0
104.99324 184.0
105.039536 196.0
105.059265 172.0
105.08033 100.0
105.131348 132.0
105.313042 68.0
105.37326 292.0
105.396805 204.0
105.550102 148.0
105.604523 176.0
105.633957 136.0
105.789474 176.0
105.848106 200.0
105.951256 136.0
105.981987 116.0
106.041412 152.0
106.067421 636.0
106.168518 164.0
106.238258 176.0
106.262878 188.0
106.285446 180.0
106.369591 212.0
106.394218 256.0
106.422966 120.0
106.451714 56.0
106.480461 156.0
106.54377 200.0
106.579063 140.0
106.63044 228.0
106.677711 128.0
106.860741 188.0
107.029518 172.0
107.05011 48.0
107.070702 152.0
107.124252 288.0
107.169579 116.0
107.260254 248.0
107.287048 60.0
107.353027 88.0
107.399788 196.0
107.435532 156.0
107.506691 168.0
107.542038 116.0
107.641922 84.0
107.691483 220.0
107.715584 180.0
107.759651 136.0
107.809242 148.0
107.883652 144.0
107.98806 300.0
108.013924 160.0
108.042641 356.0
108.081436 492.0
108.133934 76.0
108.25383 140.0
108.276787 116.0
108.349281 196.0
108.460289 216.0
108.486053 172.0
108.712128 196.0
108.756126 180.0
108.769661 128.0
108.820595 204.0
108.861595 84.0
108.963371 116.0
108.977913 136.0
109.035645 204.0
109.051437 336.0
109.069351 168.0
109.0839 176.0
109.11924 108.0
109.135674 168.0
109.196175 112.0
109.266899 168.0
109.285629 156.0
109.308517 164.0
109.32724 128.0
109.508369 116.0
109.525024 136.0
109.677132 204.0
109.710541 196.0
109.75943 244.0
109.782791 188.0
109.862717 116.0
109.885666 148.0
109.933655 132.0
109.950348 120.0
109.969131 160.0
110.053329 192.0
110.069191 168.0
110.073517 156.0
110.117371 80.0
110.131989 228.0
110.150208 216.0
110.225998 164.0
110.25808 148.0
110.30542 140.0
110.324234 164.0
110.380684 196.0
110.414139 180.0
110.470612 132.0
110.489441 152.0
110.517868 216.0
110.612907 140.0
110.641167 248.0
110.669434 132.0
110.68409 184.0
110.700836 44.0
110.76786 132.0
110.807663 184.0
110.87262 68.0
110.977425 228.0
111.015167 144.0
111.03614 276.0
111.06131 264.0
111.082283 244.0
111.208176 116.0
111.283752 140.0
111.306847 128.0
111.338341 180.0
111.416061 272.0
111.433937 212.0
111.489601 156.0
111.596802 212.0
111.640961 188.0
111.691437 76.0
111.795464 184.0
111.818451 116.0
111.87661 164.0
111.897667 204.0
111.918716 124.0
111.954514 232.0
112.024208 136.0
112.062119 140.0
112.076691 220.0
112.108299 172.0
112.262184 144.0
112.287491 176.0
112.369759 156.0
112.414062 188.0
112.439392 160.0
112.515381 108.0
112.6091 140.0
112.644196 136.0
112.671654 76.0
112.707573 168.0
112.728012 220.0
112.777313 136.0
112.872444 148.0
112.887245 168.0
112.940117 108.0
112.98877 156.0
113.039551 176.0
113.168663 148.0
113.277397 236.0
113.297852 200.0
113.359299 144.0
113.378372 144.0
113.452553 168.0
113.488594 256.0
113.517525 224.0
113.577667 144.0
113.594635 100.0
113.654037 140.0
113.680099 128.0
113.785202 100.0
113.836586 76.0
113.904549 200.0
113.964027 132.0
114.002281 148.0
114.019279 204.0
114.040535 124.0
114.057533 200.0
114.095802 124.0
114.204247 92.0
114.225517 160.0
114.268066 148.0
114.282959 84.0
114.369286 152.0
114.389366 148.0
114.410149 180.0
114.432121 140.0
114.479156 228.0
114.512856 228.0
114.566109 148.0
114.587418 96.0
114.661995 132.0
114.736595 216.0
114.920013 116.0
114.969086 120.0
115.051056 188.0
115.098198 116.0
115.248817 116.0
115.27446 56.0
115.315063 212.0
115.409119 120.0
115.468994 184.0
115.509636 168.0
115.543503 192.0
115.563728 224.0
115.625175 124.0
115.687241 124.0
115.710793 68.0
115.727921 60.0
115.88427 104.0
115.927124 60.0
115.951248 188.0
115.984207 196.0
116.053589 232.0
116.068604 124.0
116.124359 124.0
116.173691 180.0
116.195145 124.0
116.252159 228.0
116.300293 136.0
116.319611 140.0
116.351913 164.0
116.497841 224.0
116.545105 232.0
116.66407 124.0
116.751465 120.0
116.775116 232.0
116.813835 140.0
117.057129 652.0
117.07814 160.0
117.110397 272.0
117.130257 196.0
117.160416 76.0
117.317734 100.0
117.334976 76.0
117.382416 180.0
117.423386 96.0
117.535561 136.0
117.574402 144.0
117.62606 216.0
117.658585 160.0
117.769402 204.0
117.788155 120.0
117.915627 108.0
118.00016 112.0
118.034523 152.0
118.07016 284.0
118.108055 156.0
118.166458 156.0
118.196754 60.0
118.235077 276.0
118.288979 192.0
118.389404 188.0
118.458717 160.0
118.547546 140.0
118.595222 156.0
118.634239 244.0
118.662422 196.0
118.69754 164.0
118.707291 144.0
118.740486 188.0
118.754425 156.0
118.770851 260.0
118.796883 156.0
118.838257 152.0
118.870644 124.0
118.888008 160.0
118.984703 124.0
118.992859 236.0
119.002739 196.0
119.037849 152.0
119.058044 196.0
119.200706 220.0
119.220268 148.0
119.250694 116.0
119.28112 152.0
119.393204 176.0
119.444206 208.0
119.465958 148.0
119.533401 32.0
119.659645 176.0
119.690125 140.0
119.740211 180.0
119.820801 60.0
119.857841 160.0
119.888351 164.0
119.903603 128.0
119.931938 164.0
119.972389 180.0
120.001694 68.0
120.079155 284.0
120.121635 92.0
120.250374 32.0
120.307121 228.0
120.426659 140.0
120.457802 188.0
120.530319 144.0
120.636215 204.0
120.755058 112.0
120.822868 132.0
120.855682 108.0
120.962921 156.0
121.13591 196.0
121.16658 132.0
121.19725 112.0
121.241074 156.0
121.311218 76.0
121.352867 232.0
121.418648 124.0
121.521751 64.0
121.570023 216.0
121.600746 148.0
121.624886 132.0
121.811737 188.0
121.831299 76.0
121.978531 160.0
122.061127 736.0
122.081863 120.0
122.11705 180.0
122.252243 124.0
122.275459 336.0
122.321678 164.0
122.344635 140.0
122.3974 224.0
122.462601 228.0
122.491837 116.0
122.546303 144.0
122.638863 124.0
122.68074 104.0
122.716011 216.0
122.777756 160.0
122.815247 80.0
122.898033 160.0
122.927765 172.0
122.947624 220.0
122.978523 204.0
123.062408 148.0
123.220589 232.0
123.258987 100.0
123.27887 108.0
123.305389 156.0
123.373909 184.0
123.389389 156.0
123.467323 212.0
123.495529 192.0
123.539772 148.0
123.621628 116.0
123.820869 92.0
123.842621 156.0
123.869598 156.0
123.902985 172.0
123.936058 128.0
124.026085 224.0
124.048912 200.0
124.11219 224.0
124.177689 180.0
124.213455 160.0
124.230652 164.0
124.259766 104.0
124.36628 208.0
124.517296 192.0
124.570557 196.0
124.588333 164.0
124.61055 156.0
124.842171 176.0
124.870621 156.0
125.013 140.0
125.110176 176.0
125.126518 160.0
125.16214 144.0
125.188866 160.0
125.264587 204.0
125.298004 160.0
125.379463 204.0
125.396049 140.0
125.585556 192.0
125.650246 204.0
125.701569 148.0
125.732811 140.0
125.828789 184.0
125.891312 44.0
125.941345 208.0
126.005219 152.0
126.058846 184.0
126.128128 172.0
126.155411 196.0
126.27346 172.0
126.315956 80.0
126.385307 176.0
126.405449 48.0
126.421112 160.0
126.521828 164.0
126.60244 132.0
126.733208 220.0
126.752121 156.0
126.848892 136.0
126.878036 192.0
126.94754 172.0
126.992393 212.0
127.028282 144.0
127.082123 220.0
127.097832 144.0
127.259735 180.0
127.306587 116.0
127.329041 228.0
127.347008 152.0
127.407661 232.0
127.448097 172.0
127.535744 124.0
127.634659 232.0
127.659393 212.0
127.681877 148.0
127.729111 340.0
127.759705 20.0
127.76709 136.0
127.853241 164.0
128.044418 136.0
128.120804 156.0
128.283051 176.0
128.301086 256.0
128.387344 124.0
128.4048 80.0
128.488266 192.0
128.521637 232.0
128.528793 108.0
128.538498 228.0
128.630432 152.0
128.682358 176.0
128.723923 204.0
128.7659 192.0
128.865295 108.0
128.964722 56.0
128.990784 136.0
129.000259 72.0
129.004013 116.0
129.043854 168.0
129.07074 412.0
129.127518 96.0
129.16597 48.0
129.19989 124.0
129.227051 52.0
129.340195 244.0
129.365097 140.0
129.394516 92.0
129.491898 64.0
129.534927 176.0
129.56575 112.0
129.663498 140.0
129.704865 212.0
129.783142 180.0
129.967941 192.0
130.004242 192.0
130.066605 760.0
130.115463 100.0
130.149521 220.0
130.181305 128.0
130.256256 128.0
130.301697 164.0
130.353958 196.0
130.406723 196.0
130.471924 128.0
130.501694 136.0
130.569916 148.0
130.613129 120.0
130.666901 144.0
130.682419 200.0
130.702118 184.0
130.840683 140.0
130.870285 180.0
130.897598 128.0
131.010223 116.0
131.043381 132.0
131.072662 668.0
131.093994 292.0
131.109787 220.0
131.173279 92.0
131.21431 136.0
131.32605 76.0
131.373947 244.0
131.428696 72.0
131.501724 68.0
131.531403 104.0
131.567917 160.0
131.741486 72.0
131.80545 188.0
131.828293 100.0
131.956299 188.0
131.998245 224.0
132.04361 2100.0
132.081268 260.0
132.136978 260.0
132.178162 68.0
132.21019 116.0
132.258255 172.0
132.286469 112.0
132.412903 140.0
132.464951 220.0
132.512024 176.0
132.567444 244.0
132.58577 156.0
132.672867 116.0
132.688919 144.0
132.746292 160.0
132.798981 176.0
132.838852 208.0
132.858627 124.0
132.941223 292.0
133.051315 2220.0
133.177505 152.0
133.258896 184.0
133.310944 60.0
133.331619 208.0
133.378784 200.0
133.44426 196.0
133.469543 212.0
133.495605 152.0
133.52243 104.0
133.575333 176.0
133.616745 172.0
133.642059 204.0
133.692673 120.0
133.748352 188.0
133.796249 236.0
133.814667 160.0
133.888351 112.0
133.943634 168.0
134.019409 192.0
134.058472 2428.0
134.099304 164.0
134.137192 224.0
134.166733 196.0
134.277832 68.0
134.312424 160.0
134.352432 164.0
134.397781 148.0
134.423172 144.0
134.450577 192.0
134.585815 208.0
134.700211 64.0
134.757965 144.0
134.781082 248.0
134.799561 60.0
134.861954 152.0
134.931305 208.0
135.035355 132.0
135.062073 160.0
135.086243 160.0
135.107071 132.0
135.132523 188.0
135.162598 128.0
135.21582 168.0
135.271362 200.0
135.319977 132.0
135.347763 168.0
135.658218 200.0
135.709213 164.0
135.725449 108.0
135.748199 172.0
135.774155 88.0
135.843735 96.0
135.921051 172.0
135.955093 68.0
136.002609 196.0
136.038651 140.0
136.078674 100.0
136.203522 228.0
136.252304 216.0
136.294128 128.0
136.322006 156.0
136.372879 224.0
136.421951 212.0
136.563782 208.0
136.645203 40.0
136.683517 152.0
136.782501 192.0
136.829056 152.0
136.847687 92.0
136.954803 156.0
137.021988 124.0
137.155182 188.0
137.311401 152.0
137.362717 152.0
137.430374 172.0
137.473007 304.0
137.56572 160.0
137.605408 136.0
137.698013 152.0
137.745529 168.0
137.792252 172.0
137.813278 156.0
137.86702 128.0
137.885712 144.0
137.91301 144.0
137.979218 236.0
138.030655 192.0
138.090439 192.0
138.12146 164.0
138.156952 168.0
138.185303 132.0
138.255829 232.0
138.283844 176.0
138.332458 208.0
138.390991 84.0
138.461243 216.0
138.515106 60.0
138.60881 112.0
138.643967 160.0
138.674667 196.0
138.747101 124.0
138.833847 96.0
138.881668 300.0
138.960526 128.0
139.162354 52.0
139.218719 124.0
139.291519 136.0
139.354813 136.0
139.465393 48.0
139.481857 60.0
139.500656 352.0
139.613297 212.0
139.688782 228.0
139.740738 140.0
139.787598 176.0
139.820541 136.0
139.947647 156.0
139.968842 196.0
139.997101 212.0
140.04808 204.0
140.117218 148.0
140.192627 124.0
140.336044 104.0
140.366882 168.0
140.45668 152.0
140.501495 176.0
140.522232 208.0
140.543381 176.0
140.560486 252.0
140.579361 172.0
140.605316 152.0
140.782379 144.0
140.829605 80.0
140.848511 164.0
140.926468 116.0
141.00444 168.0
141.058807 212.0
141.101349 208.0
141.304749 100.0
141.336609 224.0
141.354431 52.0
141.444366 132.0
141.463303 236.0
141.534332 204.0
141.558014 132.0
141.631424 48.0
141.759354 204.0
141.780685 188.0
141.802017 188.0
141.89209 192.0
141.934967 148.0
141.977448 160.0
142.019608 160.0
142.064697 256.0
142.155457 104.0
142.233688 112.0
142.283539 168.0
142.352386 92.0
142.4664 172.0
142.507431 208.0
142.586273 240.0
142.780151 176.0
142.813446 160.0
142.939529 100.0
143.018066 152.0
143.068344 160.0
143.115662 116.0
143.165665 184.0
143.285355 204.0
143.391998 168.0
143.513565 152.0
143.582718 180.0
143.635193 140.0
143.701981 184.0
143.747314 108.0
143.804596 212.0
143.821304 164.0
143.845169 172.0
143.926346 184.0
143.974106 164.0
144.080536 804.0
144.108353 232.0
144.167603 244.0
144.213013 132.0
144.241364 204.0
144.259384 140.0
144.287033 352.0
144.351669 184.0
144.38266 212.0
144.514511 144.0
144.550201 316.0
144.617218 192.0
144.73819 156.0
144.819412 124.0
144.836914 172.0
144.93811 164.0
144.954895 136.0
145.054901 320.0
145.081909 152.0
145.237778 132.0
145.256973 152.0
145.31694 188.0
145.361206 120.0
145.379333 76.0
145.463333 152.0
145.496933 136.0
145.631409 140.0
145.667435 164.0
145.724457 120.0
145.765945 224.0
145.788742 156.0
145.840439 276.0
145.8741 144.0
145.900543 48.0
145.947815 264.0
145.994217 192.0
146.020767 120.0
146.060349 18488.0
146.094498 636.0
146.13623 40.0
146.177109 332.0
146.203598 64.0
146.236572 132.0
146.409119 180.0
146.432312 100.0
146.454941 68.0
146.529465 60.0
146.608185 152.0
146.638947 172.0
146.855377 136.0
146.883026 80.0
146.924042 96.0
146.966293 148.0
146.99884 180.0
147.061951 1700.0
147.09938 240.0
147.124344 92.0
147.177261 136.0
147.208847 188.0
147.243973 176.0
147.264801 188.0
147.300629 48.0
147.346527 80.0
147.387589 112.0
147.477005 40.0
147.5737 180.0
147.600296 156.0
147.629318 64.0
147.653503 136.0
147.769608 116.0
147.786545 148.0
147.893021 88.0
147.965637 152.0
148.011642 84.0
148.07515 11040.0
148.110214 168.0
148.162842 56.0
148.192627 200.0
148.2332 128.0
148.259109 124.0
148.295074 104.0
148.348404 128.0
148.368668 236.0
148.435684 128.0
148.462357 104.0
148.498734 140.0
148.522995 88.0
148.569077 92.0
148.590912 132.0
148.621033 204.0
148.681549 148.0
148.717102 120.0
148.806915 216.0
148.887039 92.0
148.933197 96.0
148.972061 64.0
148.991486 64.0
149.026428 232.0
149.047363 92.0
149.078735 824.0
149.11055 128.0
149.149445 36.0
149.200485 104.0
149.22966 208.0
149.400879 208.0
149.438339 260.0
149.541031 32.0
149.68222 52.0
149.711441 128.0
149.780029 228.0
149.813751 80.0
149.835663 156.0
149.860031 140.0
149.886841 160.0
149.928268 160.0
149.967255 56.0
149.991623 136.0
150.008698 156.0
150.033066 172.0
150.071472 120.0
150.12085 144.0
150.206207 288.0
150.235474 156.0
150.257431 40.0
150.289154 104.0
150.32576 180.0
150.391647 188.0
150.46347 188.0
150.484406 156.0
150.555893 144.0
150.601624 64.0
150.638367 188.0
150.677353 172.0
150.78479 148.0
150.790298 144.0
150.874969 176.0
150.970657 200.0
151.092957 152.0
151.116364 184.0
151.198166 104.0
151.231903 220.0
151.308319 172.0
151.418503 156.0
151.563034 172.0
151.688019 196.0
151.7332 140.0
151.754211 232.0
151.820877 152.0
151.994583 36.0
152.033844 160.0
152.10257 152.0
152.17131 64.0
152.220413 144.0
152.267075 180.0
152.302475 168.0
152.426743 84.0
152.493668 120.0
152.503387 148.0
152.699615 72.0
152.734055 188.0
152.756195 144.0
152.785706 116.0
152.82753 184.0
152.847214 148.0
152.906281 116.0
152.955505 136.0
153.056442 184.0
153.122925 216.0
153.361908 168.0
153.482712 160.0
153.50737 60.0
153.633148 244.0
153.672623 60.0
153.697296 228.0
153.714569 148.0
153.825638 192.0
153.934265 160.0
153.954025 208.0
154.019257 212.0
154.066589 216.0
154.170471 232.0
154.210953 192.0
154.260391 120.0
154.411209 172.0
154.468109 160.0
154.641312 188.0
154.673477 120.0
154.731979 164.0
154.804703 172.0
154.88147 48.0
154.898804 80.0
154.95372 220.0
154.973129 104.0
155.037552 68.0
155.069778 100.0
155.099518 260.0
155.16893 44.0
155.203644 260.0
155.253235 196.0
155.377243 72.0
155.431839 180.0
155.471542 152.0
155.538544 164.0
155.573303 208.0
155.650269 120.0
155.785843 208.0
155.903641 176.0
155.94838 184.0
155.965775 52.0
156.022949 176.0
156.081451 1048.0
156.10997 40.0
156.274139 212.0
156.35376 116.0
156.378769 168.0
156.39856 164.0
156.440872 244.0
156.521591 156.0
156.567856 68.0
156.587784 112.0
156.652542 228.0
156.719818 136.0
156.778549 140.0
156.814499 216.0
157.028915 28.0
157.057755 164.0
157.082138 132.0
157.129837 96.0
157.154373 208.0
157.188583 232.0
157.211029 132.0
157.278412 160.0
157.31337 84.0
157.406769 176.0
157.453186 104.0
157.483154 160.0
157.618057 128.0
157.735519 168.0
157.763016 60.0
157.784958 180.0
157.823013 336.0
157.955566 152.0
157.98558 120.0
158.008102 152.0
158.059967 4904.0
158.108185 196.0
158.195786 216.0
158.237274 84.0
158.286697 168.0
158.318466 140.0
158.338501 192.0
158.448715 72.0
158.511353 88.0
158.584457 96.0
158.651718 52.0
158.676514 148.0
158.711884 128.0
158.805893 164.0
158.872391 68.0
158.905014 204.0
158.950455 176.0
158.997849 176.0
159.065979 2016.0
159.115829 228.0
159.223801 132.0
159.253937 112.0
159.299149 72.0
159.329285 88.0
159.365463 200.0
159.390427 144.0
159.437332 96.0
159.463638 172.0
159.490112 96.0
159.517761 148.0
159.542068 156.0
159.618332 44.0
159.656052 40.0
159.688065 120.0
159.731506 160.0
159.751617 168.0
159.771744 116.0
159.800064 188.0
159.857986 160.0
159.9328 140.0
159.980621 152.0
160.002808 296.0
160.034653 300.0
160.076218 45256.0
160.178909 220.0
160.202225 48.0
160.231949 160.0
160.287079 140.0
160.31813 280.0
160.35173 108.0
160.389481 64.0
160.443771 288.0
160.47847 72.0
160.529877 116.0
160.560135 72.0
160.593002 88.0
160.628235 236.0
160.65094 48.0
160.673645 84.0
160.703918 100.0
160.731674 84.0
160.751862 56.0
160.774567 128.0
160.817474 84.0
160.845383 144.0
160.888153 176.0
160.919174 324.0
161.012589 128.0
161.08017 6424.0
161.160919 64.0
161.196289 204.0
161.221558 148.0
161.307495 68.0
161.368164 48.0
161.401031 172.0
161.444016 44.0
161.497131 124.0
161.536026 96.0
161.580612 152.0
161.697006 220.0
161.785599 188.0
161.814636 196.0
161.866409 100.0
161.940048 164.0
161.97551 136.0
162.02179 200.0
162.053085 200.0
162.08844 1084.0
162.126587 372.0
162.232193 108.0
162.264404 56.0
162.327789 112.0
162.373795 116.0
162.691254 220.0
162.743927 68.0
162.815781 120.0
162.834625 128.0
162.863281 144.0
163.015717 180.0
163.048752 160.0
163.091675 168.0
163.175842 136.0
163.264832 196.0
163.381836 180.0
163.41745 192.0
163.492844 140.0
163.539597 168.0
163.566696 292.0
163.593063 64.0
163.690414 184.0
163.730545 124.0
163.761108 156.0
163.865234 196.0
163.875031 172.0
163.935333 108.0
164.005707 212.0
164.136047 156.0
164.288742 156.0
164.30661 80.0
164.324463 136.0
164.419022 144.0
164.503113 136.0
164.587357 196.0
164.676727 216.0
164.768692 140.0
164.85556 192.0
164.929688 144.0
164.968353 152.0
165.052399 140.0
165.11377 156.0
165.315857 68.0
165.469437 68.0
165.507843 84.0
165.717865 160.0
165.776642 200.0
165.799866 152.0
165.830612 76.0
165.949341 152.0
165.994385 132.0
166.094711 148.0
166.276871 160.0
166.343613 232.0
166.382111 148.0
166.495087 188.0
166.51564 112.0
166.595261 144.0
166.631226 208.0
166.741714 96.0
166.781281 184.0
166.829117 160.0
166.915665 108.0
166.947388 48.0
166.978241 88.0
167.047699 176.0
167.144318 100.0
167.181488 216.0
167.202072 32.0
167.227798 44.0
167.25354 164.0
167.323044 180.0
167.371964 68.0
167.465652 148.0
167.632629 184.0
167.735214 204.0
167.910538 196.0
168.041382 172.0
168.056076 212.0
168.261475 152.0
168.349258 196.0
168.449982 180.0
168.542984 140.0
168.59726 184.0
168.708405 212.0
168.794388 148.0
168.871292 88.0
168.944901 176.0
168.990295 172.0
169.018753 52.0
169.06015 68.0
169.086029 160.0
169.113403 200.0
169.135208 172.0
169.342346 200.0
169.391556 188.0
169.453735 244.0
169.505554 184.0
169.596252 216.0
169.756989 248.0
169.795898 48.0
169.824417 80.0
169.847763 120.0
169.881485 208.0
169.910019 156.0
169.954132 140.0
170.053909 164.0
170.097153 72.0
170.281204 144.0
170.463058 204.0
170.587814 92.0
170.702209 164.0
170.733414 144.0
170.756821 156.0
170.809433 192.0
170.959732 156.0
171.085632 180.0
171.2435 268.0
171.266953 52.0
171.30928 128.0
171.352905 184.0
171.470169 116.0
171.537933 204.0
171.5979 176.0
171.848267 208.0
171.921341 176.0
172.075806 6672.0
172.124939 136.0
172.158096 144.0
172.185013 200.0
172.271194 188.0
172.336517 80.0
172.391388 176.0
172.459335 36.0
172.514221 36.0
172.805466 220.0
172.883484 176.0
172.93367 224.0
173.003418 176.0
173.080215 900.0
173.105057 208.0
173.109894 96.0
173.188324 104.0
173.257431 212.0
173.307922 204.0
173.356995 136.0
173.409409 232.0
173.536118 120.0
173.587677 356.0
173.655869 148.0
173.738953 160.0
173.792267 152.0
173.857864 32.0
173.87886 128.0
173.905106 176.0
173.974472 244.0
173.99614 160.0
174.012177 204.0
174.056824 404.0
174.091431 18632.0
174.130905 176.0
174.188766 132.0
174.205826 152.0
174.248505 88.0
174.267502 68.0
174.34108 112.0
174.372162 232.0
174.396255 120.0
174.419922 68.0
174.459351 88.0
174.485641 60.0
174.522446 40.0
174.564514 136.0
174.585556 92.0
174.655685 36.0
174.751266 92.0
174.780212 76.0
174.848633 36.0
174.922318 160.0
174.958679 168.0
174.9776 116.0
175.017105 80.0
175.05603 116.0
175.095627 2964.0
175.164581 92.0
175.193558 124.0
175.238342 36.0
175.384216 68.0
175.462357 80.0
175.530151 56.0
175.581009 136.0
175.691803 112.0
175.781723 240.0
175.924026 172.0
176.01358 232.0
176.034912 124.0
176.093704 160.0
176.135269 144.0
176.168167 160.0
176.185471 308.0
176.249878 188.0
176.336075 200.0
176.370438 172.0
176.435303 96.0
176.523224 152.0
176.543869 156.0
176.562469 260.0
176.584595 204.0
176.643188 160.0
176.703629 156.0
176.724792 128.0
176.779037 136.0
176.809479 164.0
176.871414 172.0
177.002716 108.0
177.121887 192.0
177.230515 68.0
177.472702 128.0
177.49292 92.0
177.567169 212.0
177.630829 256.0
177.654694 184.0
177.739594 108.0
177.805939 96.0
178.00769 232.0
178.026276 176.0
178.062271 236.0
178.169708 60.0
178.283966 164.0
178.313202 172.0
178.331802 140.0
178.350403 56.0
178.494812 188.0
178.587036 152.0
178.618958 188.0
178.70224 172.0
178.725372 164.0
178.778595 112.0
178.797226 192.0
178.826492 132.0
178.858444 152.0
178.893036 160.0
179.036819 152.0
179.076767 116.0
179.12738 164.0
179.231277 40.0
179.503159 36.0
179.541824 200.0
179.617844 128.0
179.751236 248.0
179.804596 164.0
179.956757 156.0
180.071579 44.0
180.197128 144.0
180.231247 148.0
180.266602 204.0
180.304016 196.0
180.324966 128.0
180.413605 168.0
180.531235 172.0
180.576706 128.0
180.637878 156.0
180.731857 120.0
180.812134 92.0
180.854965 32.0
180.95668 152.0
181.101288 144.0
181.318298 108.0
181.347778 164.0
181.404068 156.0
181.441605 132.0
181.559586 152.0
181.584274 152.0
181.616623 208.0
181.717834 124.0
181.739304 56.0
181.806381 172.0
181.919113 124.0
181.972809 52.0
182.045303 76.0
182.080826 160.0
182.109756 160.0
182.279007 196.0
182.451019 160.0
182.512848 124.0
182.539749 40.0
182.66304 156.0
182.749542 220.0
183.077942 204.0
183.104706 204.0
183.114746 192.0
183.289352 116.0
183.341949 116.0
183.414719 128.0
183.500977 172.0
183.541412 168.0
183.592651 100.0
183.740997 112.0
183.76799 140.0
183.800354 196.0
183.830048 188.0
183.938004 224.0
184.06218 168.0
184.089188 240.0
184.154007 56.0
184.172913 180.0
184.337708 96.0
184.540436 80.0
184.562057 136.0
184.724319 164.0
184.9814 148.0
185.065323 244.0
185.105927 144.0
185.214127 168.0
185.218521 160.0
185.298233 164.0
185.319916 76.0
185.48793 100.0
185.550278 88.0
185.591995 52.0
185.712982 48.0
185.966858 116.0
186.05217 192.0
186.084808 188.0
186.111908 228.0
186.130905 116.0
186.158066 252.0
186.201508 124.0
186.22052 168.0
186.440582 136.0
186.45961 144.0
186.529312 216.0
186.568329 64.0
186.649887 184.0
186.804962 252.0
186.916458 176.0
187.08728 460.0
187.153259 116.0
187.36026 152.0
187.387497 124.0
187.450165 144.0
187.548279 232.0
187.752747 128.0
187.807297 184.0
187.840027 124.0
187.861847 124.0
187.908234 64.0
188.070755 3844.0
188.137482 212.0
188.203583 204.0
188.233032 36.0
188.353195 56.0
188.421494 224.0
188.486115 160.0
188.596375 232.0
188.642853 176.0
188.661987 100.0
188.702988 140.0
188.760406 148.0
188.786285 124.0
188.815109 132.0
188.864334 76.0
188.913773 108.0
188.935455 48.0
188.978912 232.0
189.026489 364.0
189.047546 168.0
189.071289 484.0
189.102325 39132.0
189.189041 156.0
189.218704 28.0
189.252686 184.0
189.279999 180.0
189.301208 76.0
189.333176 92.0
189.36615 128.0
189.39917 40.0
189.421112 116.0
189.44429 184.0
189.488113 252.0
189.556641 236.0
189.578888 68.0
189.614517 152.0
189.66008 192.0
189.696747 68.0
189.759262 184.0
189.803665 72.0
189.847397 192.0
189.877701 176.0
190.001144 68.0
190.045029 48.0
190.104996 4040.0
190.179108 56.0
190.201462 88.0
190.229736 40.0
190.270081 160.0
190.2948 60.0
190.375214 168.0
190.399139 200.0
190.440338 84.0
190.465057 68.0
190.529846 228.0
190.573776 132.0
190.587234 208.0
190.627151 56.0
190.651886 68.0
190.675461 76.0
190.803055 80.0
190.852539 92.0
190.871796 128.0
190.902039 36.0
190.928314 108.0
190.969574 172.0
191.0215 164.0
191.031601 152.0
191.038406 292.0
191.053223 132.0
191.05928 180.0
191.11763 18400.0
191.168869 172.0
191.198273 164.0
191.232162 124.0
191.289978 152.0
191.309784 80.0
191.344727 112.0
191.401291 212.0
191.432922 52.0
191.452072 168.0
191.494507 84.0
191.523514 240.0
191.543304 232.0
191.57222 120.0
191.629471 316.0
191.660294 120.0
191.705856 84.0
191.73616 136.0
191.802307 88.0
191.832947 104.0
191.887772 136.0
191.945679 64.0
192.017883 160.0
192.075104 176.0
192.120132 3076.0
192.171844 156.0
192.200684 88.0
192.232544 44.0
192.298782 204.0
192.454239 164.0
192.511459 140.0
192.536209 172.0
192.558304 180.0
192.612518 172.0
192.699188 164.0
192.726807 120.0
192.77655 48.0
192.837341 48.0
192.870514 104.0
193.030853 52.0
193.122116 244.0
193.204178 252.0
193.262543 216.0
193.288116 52.0
193.314728 188.0
193.324936 116.0
193.354523 136.0
193.426483 200.0
193.448425 104.0
193.554642 164.0
193.59613 116.0
193.63414 60.0
193.670197 204.0
193.706161 308.0
193.747711 52.0
193.769867 124.0
193.7948 136.0
193.848938 112.0
193.869629 112.0
193.900101 44.0
193.921234 280.0
194.035934 56.0
194.06366 132.0
194.099701 108.0
194.11911 208.0
194.146835 212.0
194.213394 56.0
194.299393 84.0
194.346558 128.0
194.578751 176.0
194.618561 140.0
194.721313 124.0
194.868332 164.0
195.0047 164.0
195.028046 232.0
195.063065 172.0
195.135345 88.0
195.16037 80.0
195.377304 200.0
195.402328 144.0
195.66394 136.0
195.794815 96.0
195.822662 112.0
195.856079 140.0
195.945221 64.0
195.973083 112.0
196.101898 212.0
196.154236 192.0
196.20137 180.0
196.249008 84.0
196.486771 160.0
196.555832 176.0
196.659088 64.0
196.742828 160.0
196.949463 124.0
197.070831 368.0
197.142227 56.0
197.164597 168.0
197.433655 184.0
197.502884 128.0
197.847076 256.0
197.872269 124.0
197.908661 176.0
197.987076 188.0
198.096298 92.0
198.124313 80.0
198.338333 160.0
198.359634 144.0
198.408432 136.0
198.446609 44.0
198.647919 128.0
198.729889 164.0
198.769806 236.0
198.801346 172.0
198.992355 140.0
199.038635 148.0
199.086212 1044.0
199.187485 140.0
199.260529 152.0
199.41507 124.0
199.465668 164.0
199.496582 164.0
199.530319 140.0
199.564331 168.0
199.609039 164.0
199.680023 84.0
199.717606 120.0
199.919678 216.0
199.949432 120.0
200.042313 148.0
200.070236 424.0
200.205612 188.0
200.241898 172.0
200.48732 76.0
200.521149 132.0
201.077713 268.0
201.102142 40.0
201.155762 112.0
201.304062 40.0
201.435318 96.0
201.599182 216.0
201.678314 160.0
201.942688 96.0
201.992172 224.0
202.034134 144.0
202.121857 268.0
202.251816 248.0
202.334595 28.0
202.476166 212.0
202.546967 92.0
202.595123 140.0
202.682434 108.0
202.861694 180.0
202.909698 116.0
202.988052 120.0
203.06105 212.0
203.120056 156.0
203.153595 124.0
203.216003 104.0
203.261398 152.0
203.440201 180.0
203.532944 144.0
203.54158 96.0
203.549637 212.0
203.633286 180.0
203.704254 144.0
203.725037 132.0
203.736099 164.0
203.778152 136.0
203.831039 172.0
203.886139 268.0
203.906021 172.0
203.954346 156.0
204.076584 184.0
204.150513 252.0
204.181793 168.0
204.241516 144.0
204.281342 40.0
204.32402 32.0
204.449219 124.0
204.477676 192.0
204.511826 160.0
204.582993 132.0
204.61145 188.0
204.637085 232.0
204.689713 136.0
204.807938 172.0
204.987427 204.0
205.13678 312.0
205.198349 176.0
205.343765 100.0
205.387634 200.0
205.41507 88.0
205.472122 172.0
205.748962 124.0
205.83461 192.0
205.854599 168.0
205.983124 140.0
206.071671 224.0
206.131683 208.0
206.509033 152.0
206.580841 120.0
206.643494 128.0
206.760803 128.0
206.838089 76.0
207.015594 116.0
207.078598 208.0
207.216095 128.0
207.274887 200.0
207.304916 160.0
207.537094 144.0
207.591568 208.0
207.628845 192.0
207.677612 140.0
207.723495 156.0
207.789474 124.0
207.904251 144.0
208.004715 104.0
208.110931 224.0
208.197067 180.0
208.275131 136.0
208.306213 136.0
208.515076 208.0
208.559067 144.0
208.590683 240.0
208.722931 180.0
209.543228 104.0
209.67865 96.0
209.863144 148.0
210.001556 108.0
210.359344 168.0
210.530869 196.0
210.642334 108.0
210.677002 84.0
210.844589 80.0
210.864822 80.0
210.954422 120.0
211.046936 188.0
211.090302 184.0
211.150497 172.0
211.182846 152.0
211.298553 120.0
211.352478 188.0
211.408508 76.0
211.460602 152.0
211.590851 156.0
211.715363 80.0
211.738525 248.0
211.761856 144.0
211.802246 56.0
211.865982 168.0
211.894943 68.0
212.112061 232.0
212.155777 212.0
212.33844 228.0
212.400848 116.0
212.483475 212.0
212.64888 148.0
212.729507 164.0
212.764984 164.0
212.947922 108.0
212.985672 132.0
213.072922 436.0
213.171616 112.0
213.282043 144.0
213.302399 64.0
213.345993 80.0
213.427399 136.0
213.477264 116.0
213.566986 164.0
213.773544 212.0
213.796829 192.0
213.840485 160.0
213.889969 64.0
213.972488 216.0
214.029709 168.0
214.090851 116.0
214.125961 176.0
214.155533 152.0
214.240219 132.0
214.31514 148.0
214.612686 140.0
214.673676 204.0
214.836899 104.0
214.877853 140.0
215.020828 156.0
215.084 248.0
215.122986 176.0
215.149261 76.0
215.254364 132.0
215.488037 188.0
215.546478 52.0
215.578613 228.0
215.604309 196.0
215.698441 188.0
215.774536 136.0
215.879715 96.0
215.900177 136.0
216.069458 160.0
216.11705 196.0
216.169312 180.0
216.197479 64.0
216.217438 72.0
216.279541 132.0
216.314636 152.0
216.34024 220.0
216.368332 216.0
216.401871 220.0
216.444534 156.0
216.485458 180.0
216.523529 184.0
216.578918 140.0
216.634827 96.0
216.701797 144.0
216.725647 136.0
216.76001 308.0
216.778076 148.0
216.786835 68.0
216.832352 296.0
216.867737 164.0
216.894592 284.0
216.924606 224.0
216.950058 56.0
216.971802 344.0
217.019852 244.0
217.098068 216200.0
217.186737 116.0
217.205185 268.0
217.237167 84.0
217.273041 108.0
217.305267 160.0
217.317001 64.0
217.323334 204.0
217.345428 156.0
217.374786 248.0
217.407593 248.0
217.424332 116.0
217.443649 224.0
217.468002 108.0
217.50145 148.0
217.512451 124.0
217.580261 724.0
217.613647 68.0
217.623077 148.0
217.665161 160.0
217.706833 104.0
217.719208 84.0
217.751068 228.0
217.776489 112.0
217.786682 76.0
217.799026 204.0
217.824036 144.0
217.852295 180.0
217.885803 124.0
217.939972 120.0
217.966507 96.0
218.014908 184.0
218.044861 64.0
218.059799 176.0
218.100616 21284.0
218.173065 120.0
218.221069 276.0
218.249374 60.0
218.286041 88.0
218.328369 112.0
218.353073 40.0
218.375717 84.0
218.467422 160.0
218.493088 136.0
218.532928 52.0
218.565979 192.0
218.600662 72.0
218.719681 72.0
218.752792 44.0
218.771286 96.0
218.793274 184.0
218.872101 88.0
218.936264 92.0
218.969315 104.0
219.008865 116.0
219.067139 172.0
219.100952 2076.0
219.155365 148.0
219.199722 40.0
219.246872 236.0
219.267105 144.0
219.277771 116.0
219.286407 96.0
219.316345 112.0
219.344131 40.0
219.38768 104.0
219.451843 324.0
219.49379 136.0
219.520447 276.0
219.57608 96.0
219.626358 144.0
219.660461 100.0
219.667099 108.0
219.694382 128.0
219.722626 216.0
219.749939 192.0
219.836426 140.0
219.869125 104.0
219.890076 40.0
219.923187 260.0
219.986374 104.0
220.017151 184.0
220.058044 140.0
220.159546 160.0
220.329071 52.0
220.339798 40.0
220.345734 68.0
220.368149 44.0
220.397705 48.0
220.434189 208.0
220.477478 144.0
220.576416 68.0
220.605103 252.0
220.654343 136.0
220.725174 76.0
220.754425 164.0
220.787781 104.0
220.849533 76.0
220.876617 140.0
220.921509 140.0
220.947617 160.0
221.046188 164.0
221.279083 148.0
221.327332 108.0
221.378036 76.0
221.424179 156.0
221.492294 52.0
221.642075 108.0
221.806381 64.0
221.833069 120.0
221.975372 92.0
222.040619 156.0
222.09697 252.0
222.218597 60.0
222.239365 76.0
222.277939 108.0
222.310577 64.0
222.518356 164.0
222.613358 192.0
223.044159 128.0
223.082794 76.0
223.118469 84.0
223.380157 64.0
223.513672 260.0
223.597366 108.0
223.618195 60.0
223.692612 164.0
223.829559 144.0
224.357941 220.0
224.714783 60.0
224.780426 44.0
224.878906 44.0
224.950546 172.0
225.114746 128.0
225.192398 144.0
225.234207 164.0
225.362671 136.0
225.410477 172.0
225.482193 52.0
225.503113 80.0
225.568878 128.0
225.643616 172.0
225.781158 72.0
225.924728 196.0
225.960632 200.0
226.020462 136.0
226.068344 96.0
226.095276 236.0
226.128204 124.0
226.209015 220.0
226.38266 40.0
226.637268 160.0
226.712189 56.0
226.859055 140.0
226.925003 204.0
226.972977 112.0
227.10881 148.0
227.368942 164.0
227.413956 56.0
227.463898 232.0
227.759247 96.0
227.789291 196.0
227.83609 72.0
227.908051 72.0
227.966553 88.0
228.028152 200.0
228.110443 192.0
228.342331 60.0
228.399475 92.0
228.644012 188.0
228.811737 96.0
228.926163 120.0
228.977356 92.0
229.064697 148.0
229.094818 92.0
229.215332 72.0
229.482468 108.0
229.752014 36.0
229.827805 64.0
229.920975 168.0
229.948135 80.0
230.041702 72.0
230.174545 124.0
230.325546 88.0
230.527969 28.0
230.597473 156.0
230.657928 120.0
230.718384 120.0
231.093399 172.0
231.150894 204.0
231.196274 136.0
231.43541 108.0
231.462662 52.0
231.511108 204.0
231.571686 80.0
231.598938 36.0
231.689819 72.0
231.774658 112.0
231.914047 108.0
232.04744 100.0
232.077759 52.0
232.217239 112.0
232.335541 76.0
232.426559 208.0
232.555176 252.0
232.757416 140.0
232.784744 72.0
232.818146 132.0
232.89711 160.0
232.963943 120.0
233.03685 128.0
233.126801 1216.0
233.255661 68.0
233.276932 124.0
233.465439 160.0
233.641846 176.0
233.682281 124.0
233.757477 72.0
233.818329 40.0
233.862869 152.0
233.97966 104.0
234.101456 168.0
234.1297 464.0
234.22937 88.0
234.299423 112.0
234.433487 84.0
234.509689 132.0
234.643799 208.0
234.701736 184.0
234.750519 32.0
234.866409 84.0
234.890823 52.0
234.95285 180.0
235.034195 200.0
235.1082 27888.0
235.195953 28.0
235.337143 80.0
235.363007 72.0
235.406601 64.0
235.449356 80.0
235.528763 44.0
235.590103 196.0
235.614304 84.0
235.654007 36.0
235.769928 60.0
235.839661 64.0
235.892532 160.0
235.91684 76.0
236.016968 224.0
236.110474 2932.0
236.357254 172.0
236.378891 56.0
236.412323 192.0
236.494965 132.0
236.556183 140.0
236.635773 120.0
236.66333 112.0
236.685989 120.0
236.739883 20.0
236.859329 72.0
236.929779 156.0
236.987991 60.0
237.012497 140.0
237.114639 256.0
237.168793 40.0
237.334335 100.0
237.358871 56.0
237.599319 180.0
237.622635 48.0
237.733109 88.0
237.772995 104.0
237.815964 44.0
237.932877 136.0
237.970474 144.0
238.012436 48.0
238.070786 72.0
238.411774 136.0
238.51236 220.0
238.60849 100.0
239.282242 64.0
239.540924 156.0
239.587128 60.0
239.904541 160.0
240.052536 80.0
240.097198 192.0
240.506042 56.0
240.892029 140.0
240.935272 108.0
240.972351 132.0
241.514023 244.0
241.62468 88.0
241.720596 156.0
241.801056 56.0
241.866043 68.0
242.166382 156.0
242.23143 48.0
242.386337 104.0
242.435074 148.0
242.513397 136.0
242.606384 96.0
243.14856 156.0
243.189529 116.0
243.319916 140.0
243.537277 164.0
243.614929 148.0
243.74231 36.0
244.168198 164.0
244.199295 228.0
244.249054 148.0
244.28949 152.0
244.52597 144.0
245.01004 200.0
245.058456 236.0
245.162643 416.0
245.276596 112.0
245.310883 176.0
245.638306 108.0
245.974777 144.0
246.125153 144.0
246.165756 136.0
246.700012 164.0
246.800064 168.0
246.834457 60.0
246.972061 128.0
247.031494 164.0
247.079895 160.0
247.125336 124.0
247.388229 52.0
247.479019 156.0
247.613663 168.0
247.742081 128.0
247.942612 68.0
247.973953 192.0
248.002167 84.0
248.033508 196.0
248.221619 188.0
248.243561 84.0
248.381561 196.0
248.413666 168.0
248.459976 180.0
248.611816 192.0
249.109802 152.0
249.146606 196.0
249.200912 120.0
249.508911 72.0
249.543488 236.0
249.691284 128.0
249.791931 192.0
249.854843 144.0
249.911469 48.0
250.081406 108.0
250.330109 56.0
251.370346 172.0
251.444733 140.0
251.692307 68.0
251.828094 92.0
252.092667 172.0
252.30687 272.0
252.441193 220.0
252.472824 88.0
252.520264 148.0
252.68158 116.0
252.820801 84.0
252.861954 236.0
253.105698 128.0
253.653778 44.0
253.805954 140.0
253.948654 240.0
254.072372 56.0
254.104095 116.0
254.824783 100.0
254.847031 72.0
254.897858 148.0
255.07901 180.0
255.148956 132.0
255.18074 128.0
255.269775 160.0
255.622864 96.0
255.861572 72.0
256.281982 176.0
256.482758 164.0
256.52417 212.0
256.556061 172.0
256.674011 104.0
256.777588 164.0
257.044037 120.0
257.155731 204.0
257.816833 120.0
257.855164 172.0
257.9823 124.0
258.100922 160.0
258.130096 148.0
258.197235 208.0
258.245209 156.0
258.280396 140.0
258.45636 164.0
258.937347 172.0
259.077454 112.0
259.144745 172.0
259.49408 48.0
259.516541 196.0
259.853302 48.0
260.138916 176.0
260.19989 260.0
260.241638 72.0
260.280182 104.0
260.504974 64.0
260.562805 148.0
260.604584 204.0
260.707397 152.0
260.916321 68.0
261.167145 228.0
261.258514 148.0
261.292603 140.0
261.562927 156.0
261.678802 144.0
262.126526 148.0
262.411194 200.0
262.581055 184.0
262.619751 88.0
262.664917 84.0
262.745575 180.0
262.793945 68.0
263.074738 44.0
263.203857 120.0
263.274902 84.0
263.394409 116.0
263.417023 200.0
263.646423 204.0
263.772461 124.0
264.024658 88.0
264.053772 208.0
264.08609 48.0
264.257538 56.0
264.620026 164.0
264.752777 188.0
264.799438 140.0
265.096405 112.0
265.118866 172.0
265.157745 184.0
265.21933 204.0
265.303619 116.0
265.485168 104.0
265.572754 76.0
265.660309 176.0
266.100708 264.0
266.32901 224.0
266.445923 104.0
266.491425 60.0
266.676636 56.0
266.743286 264.0
266.793671 152.0
266.972504 84.0
267.099335 120.0
267.496307 184.0
267.584198 60.0
267.906616 84.0
268.102112 96.0
268.5625 148.0
268.806488 160.0
268.953339 156.0
269.048187 204.0
269.090454 116.0
269.237396 168.0
269.386963 196.0
269.488892 52.0
269.59021 44.0
269.933441 180.0
270.002106 32.0
270.158722 208.0
270.210205 116.0
270.473236 144.0
270.689331 136.0
270.89566 148.0
271.092224 96.0
271.146484 916.0
271.187286 260.0
271.341339 212.0
271.502014 112.0
271.564331 124.0
272.082764 152.0
272.14447 368.0
272.174713 56.0
272.223969 112.0
272.568878 80.0
272.812073 40.0
273.071838 152.0
273.154053 112.0
273.381073 136.0
273.423859 104.0
273.753052 156.0
273.857605 156.0
273.966888 148.0
274.042908 56.0
274.098938 80.0
274.125305 128.0
274.16153 72.0
274.187897 180.0
274.313141 148.0
274.405457 180.0
274.504364 68.0
274.593903 136.0
274.807343 132.0
275.015717 160.0
275.088348 176.0
275.246521 216.0
275.319458 220.0
275.626678 104.0
275.788605 80.0
275.910919 200.0
276.185364 172.0
276.42688 108.0
276.757874 156.0
276.966705 136.0
277.248138 148.0
277.944763 148.0
278.014191 188.0
278.243195 76.0
278.266449 96.0
278.535431 64.0
278.608521 48.0
278.651703 144.0
278.708191 92.0
278.927521 144.0
279.063812 104.0
279.196838 96.0
279.43631 108.0
279.555908 200.0
279.565521 188.0
279.739166 40.0
280.00885 128.0
280.122101 172.0
280.580353 156.0
280.778717 112.0
280.878754 180.0
281.20575 108.0
281.375977 128.0
281.426056 100.0
281.609741 192.0
281.649811 132.0
281.679871 128.0
281.843567 208.0
282.415222 168.0
282.502197 100.0
282.555725 124.0
282.723022 132.0
282.836823 172.0
282.863586 152.0
282.938019 64.0
283.288849 124.0
283.325714 216.0
283.536804 168.0
283.742981 180.0
283.830902 228.0
284.073273 116.0
284.298065 140.0
284.343506 208.0
284.366364 172.0
284.392029 116.0
284.496094 92.0
284.593445 152.0
284.892365 116.0
285.009949 132.0
285.087219 140.0
285.151093 100.0
285.194763 76.0
285.272095 200.0
285.520905 172.0
285.621796 48.0
285.68869 148.0
285.830383 144.0
285.887573 80.0
286.022949 180.0
286.062592 68.0
286.140015 112.0
286.166962 84.0
286.20401 152.0
286.365631 204.0
286.440155 192.0
286.476776 112.0
286.530701 168.0
286.621674 48.0
286.699158 92.0
286.739594 80.0
286.771515 120.0
286.815247 76.0
286.837341 132.0
286.867676 92.0
286.898041 96.0
286.989044 144.0
287.012665 112.0
287.043671 60.0
287.067474 204.0
287.161041 92.0
287.207031 176.0
287.241974 76.0
287.309235 124.0
287.330811 176.0
287.355713 180.0
287.392456 304.0
287.478149 60.0
287.511902 60.0
287.610474 212.0
287.636353 172.0
287.666626 156.0
287.752197 172.0
287.775177 156.0
287.802856 136.0
287.864288 196.0
287.920197 128.0
287.960602 124.0
287.988373 296.0
288.016815 240.0
288.090942 448.0
288.115509 988.0
288.171448 182760.0
288.297638 212.0
288.336731 164.0
288.401428 232.0
288.408295 228.0
288.455658 48.0
288.489716 140.0
288.541656 280.0
288.596954 172.0
288.622192 164.0
288.678436 132.0
288.728149 1400.0
288.775299 152.0
288.797272 316.0
288.819946 104.0
288.86145 160.0
288.903168 124.0
288.949982 40.0
288.98703 116.0
289.028137 292.0
289.074432 140.0
289.099518 176.0
289.173889 35684.0
289.261536 48.0
289.316833 48.0
289.341736 64.0
289.395905 112.0
289.440155 84.0
289.457733 96.0
289.5383 168.0
289.582306 132.0
289.639099 80.0
289.687256 140.0
289.734711 92.0
289.777405 48.0
289.814178 80.0
289.839783 108.0
289.882446 88.0
289.929413 56.0
290.028015 248.0
290.064972 112.0
290.088959 156.0
290.121521 80.0
290.1745 2740.0
290.217041 140.0
290.245148 72.0
290.292633 80.0
290.319061 60.0
290.327942 48.0
290.354675 148.0
290.45401 68.0
290.506592 132.0
290.555756 48.0
290.575989 184.0
290.618042 68.0
290.657257 80.0
290.697693 136.0
290.726654 108.0
290.767548 44.0
290.796173 84.0
290.822845 108.0
290.891541 152.0
290.93927 108.0
290.990692 120.0
291.003632 168.0
291.049652 76.0
291.088165 136.0
291.12384 148.0
291.164093 200.0
291.185852 460.0
291.21344 96.0
291.268372 176.0
291.305145 84.0
291.314728 192.0
291.369873 96.0
291.408844 108.0
291.456909 52.0
291.497894 60.0
291.528259 92.0
291.572449 48.0
291.650604 100.0
291.683258 56.0
291.718597 32.0
291.760071 108.0
291.81604 48.0
291.891968 108.0
291.983795 96.0
292.028015 112.0
292.059692 144.0
292.102844 88.0
292.25592 140.0
292.358002 64.0
292.412476 48.0
292.453308 100.0
292.488983 92.0
292.558838 52.0
292.63031 72.0
292.698425 92.0
292.721558 76.0
292.746094 64.0
292.810791 72.0
292.851654 52.0
292.90274 40.0
292.951782 72.0
292.99472 120.0
293.113708 48.0
293.216217 60.0
293.281555 164.0
293.577576 100.0
293.6185 28.0
293.6492 60.0
293.908447 72.0
294.021057 36.0
294.082489 84.0
294.273651 76.0
294.322937 64.0
294.484406 128.0
294.533203 40.0
294.762085 64.0
294.960297 128.0
295.047394 76.0
295.599854 52.0
296.473083 80.0
296.521057 100.0
296.764435 88.0
297.52951 108.0
298.079041 160.0
298.168396 60.0
298.474335 96.0
298.690979 88.0
298.901184 40.0
299.083252 100.0
299.110779 168.0
299.761688 80.0
299.89267 128.0
300.365021 72.0
300.420227 152.0
300.475433 136.0
300.672089 88.0
300.799805 68.0
300.893005 64.0
300.924072 148.0
301.346375 88.0
301.383453 92.0
301.437469 152.0
301.794769 44.0
302.137146 144.0
302.375885 68.0
302.486664 40.0
302.521027 112.0
302.65976 92.0
302.7117 64.0
302.85022 180.0
303.116974 120.0
303.238281 76.0
303.588409 88.0
303.67511 108.0
303.741028 84.0
303.806915 148.0
303.911011 92.0
304.417786 68.0
304.612274 44.0
304.719971 32.0
304.893707 84.0
304.945831 160.0
305.060547 120.0
305.804901 52.0
306.334167 72.0
306.463043 76.0
307.547607 116.0
307.963074 88.0
308.063751 112.0
309.291748 68.0
310.742523 68.0
311.160156 52.0
312.038483 112.0
312.073639 160.0
312.699799 52.0
313.650757 76.0
315.037537 72.0
315.334351 76.0
315.436829 48.0
315.744446 48.0
316.108826 44.0
316.16568 996.0
316.480469 48.0
317.164154 400.0
317.369812 48.0
317.621582 100.0
317.653534 88.0
317.9841 72.0
318.125488 56.0
318.434387 144.0
318.921143 64.0
319.308685 92.0
320.223328 112.0
322.656921 44.0
326.130432 160.0
326.828094 84.0
327.119598 120.0
328.012909 76.0
328.041748 72.0
331.681793 56.0
331.754272 48.0
332.530518 124.0
333.136871 64.0
333.71109 128.0
334.657074 56.0
335.611664 112.0
335.706451 56.0
337.177673 52.0
338.630096 132.0
339.13205 160.0
341.573761 48.0
341.614227 68.0
344.133301 108.0
349.375458 68.0
350.771912 40.0
351.920929 144.0
353.165344 48.0
356.960602 40.0
357.916351 56.0
362.771149 96.0
365.448547 60.0
365.642609 172.0
367.250397 64.0
368.131989 160.0
368.766174 100.0
369.684021 76.0
373.25528 48.0
373.916931 64.0
375.137909 164.0
376.708466 124.0
377.806335 96.0
380.290131 80.0
382.260468 88.0
383.027435 48.0
383.563385 88.0
384.922211 108.0
388.147095 96.0
388.54715 48.0
388.668762 80.0
389.446045 96.0
389.673889 76.0
392.101746 52.0
392.40921 76.0
393.056061 132.0
393.134979 140.0
394.145844 56.0
396.020996 68.0
398.365234 88.0
398.881805 56.0
400.87973 112.0
402.898621 60.0
403.646027 52.0
405.571655 68.0
406.004639 100.0
407.152405 108.0
407.457672 80.0
409.734741 112.0
412.713287 72.0
414.891449 68.0
416.729919 116.0
417.843903 36.0
418.413666 48.0
419.093811 140.0
420.545563 40.0
421.362274 60.0
423.11673 128.0
423.189941 1124.0
423.587677 32.0
424.192139 340.0
427.961365 36.0
428.488556 44.0
428.653351 84.0
429.164459 32.0
430.728546 120.0
434.167908 44.0
437.087402 172.0
437.225494 96.0
439.137787 128.0
440.373169 72.0
440.531708 84.0
441.760895 48.0
443.184326 48.0
444.920624 120.0
446.042236 48.0
446.365936 132.0
446.752899 92.0
447.531464 100.0
448.449799 92.0
450.846954 80.0
450.897675 224.0
452.047943 88.0
453.623444 56.0
454.25528 56.0
454.607422 92.0
455.834625 92.0
456.123627 144.0
457.425262 92.0
458.098053 108.0
460.063934 60.0
460.367065 72.0
460.999298 52.0
461.176483 272.0
461.336945 100.0
462.179474 88.0
463.022766 100.0
468.06424 124.0
468.899963 152.0
470.491608 56.0
471.791931 64.0
473.56604 124.0
474.355621 88.0
475.57782 80.0
476.155243 56.0
479.174042 196.0
480.194031 96.0
480.865936 84.0
483.553772 92.0
484.503937 124.0
486.121826 44.0
488.371185 40.0
489.01355 56.0
493.000305 60.0
497.602448 112.0
497.993225 84.0
501.124908 56.0
502.355347 80.0
503.203247 72.0
507.547729 92.0
510.655273 120.0
520.647766 68.0
522.452209 68.0
523.617432 92.0
526.367249 72.0
526.901672 68.0
530.274048 48.0
541.867859 76.0
542.25708 28.0
546.896973 52.0
547.08313 108.0
549.408569 104.0
550.468018 60.0
551.271484 80.0
552.777222 68.0
557.504089 84.0
563.738586 124.0
564.62262 44.0
565.942871 44.0
572.900513 80.0
579.857544 124.0
581.094727 36.0
589.545166 80.0
594.178955 100.0
595.028259 48.0
597.876587 32.0
598.358459 88.0
599.215637 80.0
599.927185 84.0
605.051758 100.0
607.776794 72.0
608.409912 68.0
615.954041 44.0
615.998474 124.0
617.293335 68.0
620.065613 36.0
623.4104 104.0
626.838989 72.0
628.883667 76.0
631.531738 132.0
638.372314 84.0
642.2099 32.0
643.213989 92.0
648.524902 68.0
648.935547 104.0
649.57959 96.0
657.236206 52.0
661.012268 40.0
662.404846 68.0
662.94281 192.0
671.46637 68.0
678.814941 152.0
679.727844 124.0
680.153442 56.0
682.148071 72.0
684.661072 120.0
685.692627 104.0
686.443298 68.0
692.028931 60.0
692.133606 116.0
703.294434 108.0
706.851135 64.0
708.513611 212.0
713.964783 48.0
714.230652 112.0
714.581787 48.0
714.907227 104.0
719.495544 96.0
721.418701 100.0
729.368164 120.0
732.07428 80.0
732.165833 44.0
735.260315 128.0
742.802612 136.0
743.860718 124.0
744.686035 148.0
750.198059 108.0
750.879639 72.0
755.522461 48.0
764.212708 188.0
764.845581 108.0
767.721497 56.0
780.746582 40.0
781.992798 52.0
784.387817 176.0
804.707214 116.0
808.047363 88.0
810.221313 204.0
814.657532 32.0
818.388306 92.0
823.766235 132.0
827.546387 164.0
828.33667 100.0
831.530334 88.0
832.379944 100.0
845.558167 84.0
848.228271 168.0
850.612305 164.0
851.285767 36.0
852.866028 68.0
856.980286 80.0
859.259888 168.0
861.250488 72.0
870.856079 144.0
877.918335 112.0
879.157166 80.0
905.122803 44.0
906.644287 136.0
909.463135 112.0
916.535278 120.0
918.536804 128.0
920.009216 68.0
924.93573 56.0
935.28479 72.0
939.17218 48.0
939.599182 116.0
940.691528 148.0
945.648621 240.0
950.692383 56.0
953.560303 196.0
957.651733 116.0
961.233459 104.0
972.732605 156.0
974.458984 76.0
975.005798 84.0
975.683289 96.0
981.710449 208.0
981.909973 88.0
983.944153 140.0
987.337036 188.0
988.61322 332.0
992.521973 116.0
997.909119 196.0
1001.451904 76.0
1013.245422 48.0
1023.018921 72.0
1024.432617 56.0
1025.764404 96.0
1029.573486 172.0
1033.415161 100.0
1035.162476 168.0
1038.097412 164.0
1038.167969 88.0
1044.937988 96.0
1046.720825 44.0
1049.904175 204.0
1050.000854 148.0
1051.768677 108.0
1053.092407 96.0
1053.486328 172.0
1055.108398 108.0
1059.865479 168.0
1078.124634 148.0
1078.640991 120.0
1080.30188 156.0
1089.860596 36.0
1092.496948 84.0
1092.773315 120.0
1095.195801 100.0
1096.869385 152.0
1106.88501 92.0
1108.719849 168.0
1110.635986 232.0
1112.752808 136.0
1113.556274 84.0
1113.861816 140.0
1114.49292 92.0
1114.585938 156.0
1116.657104 168.0
1117.724365 228.0
1117.824219 184.0
1121.393677 120.0
1123.794312 192.0
1124.101318 152.0
1124.494995 140.0
1124.915527 104.0
1130.375854 168.0
1131.908691 88.0
1133.10022 192.0
1134.622192 184.0
1135.091553 216.0
1135.265869 32.0
1139.084839 44.0
1139.77002 176.0
1139.937988 44.0
1141.390015 184.0
1142.57373 48.0
1144.155151 132.0
1145.751221 220.0
1145.90625 164.0
1147.402344 144.0
1151.525269 176.0
1152.619629 172.0
1154.296021 172.0
1155.61499 40.0
1156.291626 220.0
1156.352539 80.0
1156.921143 248.0
1159.047729 180.0
1159.725342 224.0
1160.505005 40.0
1164.026489 56.0
1165.452881 156.0
1168.981934 236.0
1172.659424 244.0
1172.754883 60.0
1175.052856 168.0
1176.376831 168.0
1176.800049 116.0
1177.257568 168.0
1181.89209 148.0
1183.062378 140.0
1186.679565 196.0
1191.19519 172.0
1192.82373 164.0
1196.104858 144.0
1196.338867 152.0
1199.755737 132.0
1201.617798 184.0
1204.095825 76.0
1204.171875 88.0
1205.05603 164.0
1205.436035 144.0
1208.540649 120.0
1209.066528 96.0
1211.836304 160.0
1213.250122 192.0
1214.824341 172.0
1214.991699 160.0
1223.274292 180.0
1223.859009 192.0
1224.221191 152.0
1226.645752 196.0
1227.377686 168.0
1227.677612 224.0
1229.561157 160.0
1229.896118 64.0
1233.290649 160.0
1240.738647 120.0
1241.026123 112.0
1242.190308 208.0
1243.474365 144.0
1244.136841 52.0
1244.302612 36.0
1245.679077 168.0
1249.278198 180.0
1249.503296 56.0
1251.08667 144.0
1251.537231 68.0
1252.741577 84.0
1253.629272 148.0
1253.685669 84.0
1254.439819 44.0
1256.400269 52.0
1258.093994 72.0
1258.305786 196.0
1258.71521 96.0
1258.920044 272.0
1259.379028 92.0
1260.869873 152.0
1264.306763 112.0
1265.432251 112.0
1267.046997 160.0
1267.932739 148.0
1270.173218 124.0
1270.499512 84.0
1272.848755 56.0
1273.11145 160.0
1274.716919 152.0
1276.131348 152.0
1276.472656 180.0
1277.558594 212.0
1278.009033 192.0
1278.165527 184.0
1282.367188 156.0
1283.037231 156.0
1283.151245 176.0
1283.33667 172.0
1283.415039 216.0
1284.220093 176.0
1284.527588 152.0
1286.247192 56.0
1289.146851 176.0
1293.838867 232.0
1295.213745 148.0
1297.650269 188.0
1299.077393 140.0
1299.385864 40.0
1300.411987 172.0
1300.734985 164.0
1300.806763 48.0
1301.567749 164.0
1301.704224 176.0
1302.623535 152.0
1304.987915 200.0
1305.678223 84.0
1306.023438 108.0
1308.462891 136.0
1308.996704 136.0
1311.279297 148.0
1316.747925 140.0
1320.245728 200.0
1320.325317 112.0
1321.330688 244.0
1321.453735 240.0
1321.945679 136.0
1322.090454 212.0
1323.168945 204.0
1323.704712 148.0
1324.566528 188.0
1329.859619 112.0
1329.953979 428.0
1331.333374 204.0
1332.655396 172.0
1333.483765 184.0
1335.286743 120.0
1335.505859 172.0
1335.592285 136.0
1335.744995 136.0
1336.203369 164.0
1337.44043 108.0
1337.702393 168.0
1337.949951 140.0
1338.539673 208.0
1341.657959 148.0
1342.19751 140.0
1342.41626 124.0
1342.643921 228.0
1343.911621 192.0
1345.955322 148.0
1346.093994 124.0
1348.716797 104.0
1348.870239 96.0
1349.696411 232.0
1351.320068 76.0
1352.490967 148.0
1353.384033 244.0
1354.61438 240.0
1354.848877 72.0
1355.303101 152.0
1355.684082 56.0
1356.035889 216.0
1356.864258 168.0
1357.685425 180.0
1357.935913 156.0
1358.206177 148.0
1360.135864 136.0
1361.237183 236.0
1362.133179 64.0
1363.830444 132.0
1367.831909 200.0
1368.420776 124.0
1370.239868 60.0
1370.748291 96.0
1374.545776 148.0
1375.084473 168.0
1376.442871 132.0
1376.86377 164.0
1378.296875 204.0
1379.427612 112.0
1379.915527 144.0
1381.069092 140.0
1382.326782 120.0
1382.437744 208.0
1386.006836 168.0
1387.889526 116.0
1388.37146 160.0
1389.662231 148.0
1395.908813 228.0
1396.414551 136.0
1397.664307 52.0
1398.185181 172.0
1398.69873 144.0
1399.688843 256.0
1400.656982 56.0
1401.990601 76.0
1402.288818 60.0
1403.503906 56.0
1404.227173 144.0
1404.689697 220.0
1406.726807 320.0
1407.719727 44.0
1408.137939 184.0
1409.124023 124.0
1409.579712 152.0
1410.917603 144.0
1411.328857 220.0
1411.740112 68.0
1411.956909 136.0
1413.415649 160.0
1416.027222 148.0
1416.260498 152.0
1417.354248 132.0
1418.515869 116.0
1419.468018 72.0
1420.480469 200.0
1421.545776 148.0
1422.911865 148.0
1423.700317 168.0
1426.156982 184.0
1426.217163 168.0
1426.269775 172.0
1426.720703 236.0
1427.923828 136.0
1428.773804 52.0
1429.699341 212.0
1429.864868 192.0
1432.567871 44.0
1432.801514 228.0
1433.336426 188.0
1433.411743 236.0
1433.569946 152.0
1434.700562 148.0
1434.919189 108.0
1435.069946 140.0
1435.447021 128.0
1437.061157 204.0
1437.536499 164.0
1437.860962 156.0
1438.540283 164.0
1439.038574 124.0
1440.065552 100.0
1440.186401 104.0
1441.992065 160.0
1444.222534 112.0
1444.578003 80.0
1444.820068 108.0
1446.242676 96.0
1447.135986 220.0
1447.310059 244.0
1448.105225 128.0
1448.635376 204.0
1449.650635 148.0
1449.862915 176.0
1449.923462 192.0
1450.283813 212.0
1450.939209 180.0
1451.189331 184.0
1451.500244 172.0
1452.304077 156.0
1454.132568 132.0
1455.438232 76.0
1455.574951 172.0
1455.772339 212.0
1456.181396 136.0
1456.509033 168.0
1457.230713 180.0
1457.299194 252.0
1457.504272 148.0
1458.15625 100.0
1459.640137 88.0
1460.021729 164.0
1461.2146 204.0
1462.622437 148.0
1462.84314 176.0
1464.701172 160.0
1465.432495 88.0
1465.493408 128.0
1465.729614 64.0
1466.011597 108.0
1466.865112 84.0
1467.048096 156.0
1467.109131 116.0
1467.259888 224.0
1467.581787 116.0
1468.420654 124.0
1468.596069 112.0
1468.710449 176.0
1469.084229 88.0
1470.388916 140.0
1470.556885 172.0
1470.877441 212.0
1472.366211 92.0
1472.419678 188.0
1472.886353 196.0
1472.992554 132.0
1473.924561 184.0
1474.558838 124.0
1475.667236 216.0
1476.722534 160.0
1478.872437 144.0
1480.77124 176.0
1483.989624 144.0
1484.971069 144.0
1485.638428 140.0
1486.397949 120.0
1487.249878 212.0
1487.39563 72.0
1487.633667 172.0
1488.224731 208.0
1488.578003 216.0
1488.961914 116.0
1489.537964 116.0
1491.528076 56.0
1492.004761 76.0
1492.567627 168.0
1492.758179 132.0
1493.058105 152.0
1494.204224 160.0
1496.567017 188.0
1496.759521 128.0
1497.144531 164.0
1497.845337 200.0
1498.851074 164.0
1499.525024 168.0
1499.987549 80.0
1500.11853 128.0
1500.365234 136.0
1501.12854 132.0
1501.753174 148.0
1502.694336 128.0
1503.547729 220.0
1503.620239 152.0
1503.952148 156.0
1504.129639 128.0
