>compound MLS001140673-01!
>formula C32H28N4O6
>ionization [M+H]+
>parentmass 565.209
#inchi InChI=1S/C32H28N4O6/c1-42-19-9-6-8-18(16-19)28-27-22(20-10-2-4-12-23(20)33-27)17-26-30(38)36(32(41)35(26)28)24-13-5-3-11-21(24)29(37)34-15-7-14-25(34)31(39)40/h2-6,8-13,16,25-26,28,33H,7,14-15,17H2,1H3,(H,39,40)/t25-,26-,28?/m0/s1
#inchikey AEFNHJDBIBMLSP
#Ion_Source LC-ESI
#Instrument qTof
#Compound_Source NIH Natural Product Library
#PI Dorrestein
#Data_Collector VVP/LMS
#Scan -1
#Precursor_MZ 565.209
#ExactMass 564.201
#Charge 1
#CAS_Number N/A
#Pubmed_ID N/A
#Smiles COc1cccc(c1)C2N3[C@@H](Cc4c2[nH]c5ccccc45)C(=O)N(C3=O)c6ccccc6C(=O)N7CCC[C@H]7C(=O)O
#INCHI_AUX N/A
#Library_Class 1
#SpectrumID CCMSLIB00000080033
#IonMode Positive
#UpdateWorkflowName UPDATE-SINGLE-ANNOTATED-GOLD
#LibraryQualityString Gold
#TaskID b1d8e8f6646f4e71acdff9ca3d919d08
##Scan# 2181
#SpectrumFile p2-C03_GC3_01_18003.mzXML
#LibraryName NIH_Natural_Products_Library.mgf
#MQScore -1
#Organism NIH_Natural_Products_Library
#TIC_Query 0
#RT_Query -1
#MZErrorPPM -1
#SharedPeaks 0
#MassDiff 0
#LibMZ -1
#SpecMZ 565.209
#SpecCharge 0
#internalFilename spec-00000.mgf

>collision 10
94.98188 176.0
95.047844 112.0
95.108009 84.0
95.129356 144.0
95.255577 132.0
95.447983 164.0
95.75351 160.0
95.84507 136.0
95.860657 76.0
95.905479 184.0
95.94252 100.0
96.041969 188.0
96.301559 184.0
96.420517 180.0
96.549423 204.0
96.927574 120.0
97.317902 124.0
97.848747 104.0
98.089088 204.0
98.268547 152.0
98.353401 144.0
98.602264 32.0
98.730766 160.0
98.918732 116.0
99.02565 192.0
99.081116 152.0
99.104889 172.0
99.255531 160.0
99.293205 180.0
99.315025 212.0
99.443993 84.0
99.567085 76.0
99.624687 168.0
99.759819 156.0
99.783676 144.0
99.972633 196.0
100.060219 128.0
100.331161 168.0
100.36306 84.0
100.426872 160.0
100.484726 112.0
100.724281 224.0
100.86615 64.0
101.078026 132.0
101.122169 120.0
101.18222 180.0
101.3144 152.0
101.374512 228.0
102.0821 220.0
102.149498 180.0
102.209854 96.0
102.469589 208.0
102.566315 204.0
102.741753 68.0
102.772018 140.0
102.796234 88.0
102.830536 116.0
102.856773 196.0
103.21032 132.0
103.266945 52.0
103.335724 92.0
103.49157 156.0
103.539925 132.0
103.661713 200.0
103.732651 104.0
103.746841 192.0
103.811722 192.0
104.128311 160.0
104.160812 180.0
104.333542 132.0
104.473862 80.0
104.500305 184.0
104.742561 104.0
104.805717 172.0
104.905579 284.0
104.954025 168.0
104.983185 132.0
105.07077 192.0
105.146263 156.0
105.189125 136.0
105.236084 88.0
105.317764 160.0
105.501678 108.0
105.89045 112.0
105.951904 148.0
106.035912 184.0
106.209396 196.0
106.271736 136.0
106.314827 108.0
106.479065 176.0
106.552376 156.0
106.614655 40.0
106.719589 160.0
106.750328 40.0
106.79969 112.0
107.01165 180.0
107.054886 156.0
107.073425 136.0
107.227943 36.0
107.357819 120.0
107.665306 104.0
107.679764 160.0
107.733467 204.0
107.987717 108.0
108.039429 84.0
108.291962 136.0
108.658867 228.0
108.791687 100.0
108.853973 164.0
108.992348 208.0
109.192711 172.0
109.35083 180.0
109.463249 88.0
109.546555 112.0
109.636147 196.0
109.669495 60.0
109.861336 272.0
109.911407 192.0
109.982361 152.0
110.0784 104.0
110.109726 168.0
110.419037 116.0
110.473419 208.0
110.672241 180.0
110.900581 108.0
111.19841 160.0
111.271873 128.0
111.490326 48.0
111.538666 64.0
111.715302 100.0
111.959457 228.0
111.991051 244.0
112.077423 120.0
112.207733 160.0
112.243942 140.0
112.324081 112.0
112.609032 100.0
112.71888 160.0
112.855217 200.0
112.890106 128.0
113.146126 60.0
113.294373 104.0
113.493591 184.0
113.559334 180.0
113.601753 136.0
113.780014 132.0
113.79837 180.0
113.867081 180.0
113.920181 200.0
113.962669 76.0
114.045547 180.0
114.066803 148.0
114.139084 176.0
114.181618 100.0
114.285851 116.0
114.439095 144.0
114.59671 132.0
114.643585 152.0
114.824799 144.0
114.871719 140.0
114.920792 152.0
114.965599 180.0
115.040298 100.0
115.072327 96.0
115.365005 80.0
115.562141 92.0
115.765106 128.0
115.966492 88.0
115.990341 136.0
116.071815 156.0
116.210953 104.0
116.350456 104.0
116.391685 160.0
116.472862 48.0
116.707108 132.0
116.959068 164.0
116.976028 96.0
117.057838 100.0
117.083687 192.0
117.230171 148.0
117.247414 76.0
117.396164 200.0
117.514801 148.0
117.5299 112.0
117.60112 140.0
117.725677 132.0
118.307953 148.0
118.36425 60.0
118.388069 148.0
118.678429 120.0
118.771683 80.0
118.823746 172.0
118.871483 104.0
118.901863 168.0
119.231972 176.0
119.360229 216.0
119.464622 136.0
119.569061 164.0
119.745407 148.0
119.865227 112.0
119.880478 36.0
119.897911 192.0
120.015625 80.0
120.046127 2252.0
120.074501 124.0
120.14212 120.0
120.168304 156.0
120.255592 64.0
120.297066 104.0
120.447731 156.0
120.517639 68.0
120.546043 56.0
120.70343 32.0
120.779366 128.0
120.913445 132.0
121.066757 5260.0
121.165253 152.0
121.281395 144.0
121.380051 108.0
121.520424 220.0
121.612595 68.0
121.636734 84.0
121.665276 160.0
121.706985 116.0
121.808701 140.0
121.863274 128.0
121.915672 188.0
121.966217 108.0
122.049759 132.0
122.069962 168.0
122.234756 152.0
122.287346 136.0
122.375397 144.0
122.390808 52.0
122.505333 96.0
122.873489 88.0
123.069923 192.0
123.233368 152.0
123.332809 72.0
123.441139 64.0
123.578278 148.0
123.719917 176.0
123.861641 124.0
124.227394 124.0
124.248329 160.0
124.318367 156.0
124.931602 204.0
125.089592 136.0
125.570877 192.0
125.769447 48.0
125.838921 164.0
125.878845 132.0
126.135773 116.0
126.178246 104.0
126.27887 64.0
126.469048 52.0
126.486954 52.0
126.520531 140.0
126.605621 128.0
126.643692 184.0
126.742264 168.0
126.816216 160.0
126.93055 204.0
127.0382 132.0
127.141312 176.0
127.179565 324.0
127.404121 228.0
127.476021 128.0
127.797981 108.0
127.85157 184.0
127.896576 148.0
127.973122 172.0
128.054184 156.0
128.072205 156.0
128.317841 140.0
128.367432 92.0
128.410294 380.0
128.448624 96.0
128.564514 132.0
128.678818 148.0
129.058395 180.0
129.50647 128.0
129.622009 120.0
129.67186 136.0
129.871384 172.0
129.959854 44.0
129.991623 144.0
130.007507 152.0
130.066513 1108.0
130.193665 152.0
130.291321 140.0
130.373123 224.0
130.414032 96.0
130.466324 80.0
130.484497 156.0
130.777954 172.0
131.010208 108.0
131.053497 180.0
131.069992 168.0
131.128693 64.0
131.162888 204.0
131.276886 88.0
131.349869 152.0
131.425156 128.0
131.495895 144.0
131.536972 216.0
131.607742 120.0
131.644287 168.0
131.667114 160.0
131.70137 188.0
131.982468 132.0
132.045303 180.0
132.204361 136.0
132.417267 84.0
132.502014 96.0
132.595963 124.0
132.6716 220.0
132.866531 168.0
132.898666 116.0
132.97438 208.0
133.022583 172.0
133.084579 184.0
133.135925 144.0
133.155762 92.0
133.424606 208.0
133.447601 120.0
133.505081 196.0
133.571777 192.0
134.059875 112.0
134.106689 220.0
134.241989 196.0
134.375763 100.0
134.802933 92.0
135.045502 588.0
135.205307 208.0
135.249283 176.0
135.50061 212.0
135.652328 180.0
135.696381 140.0
135.758453 176.0
135.81929 148.0
136.046692 164.0
136.069916 160.0
136.339355 224.0
136.430008 132.0
136.495102 208.0
136.723068 128.0
136.760315 172.0
136.881378 144.0
137.052368 208.0
137.200577 148.0
137.468796 140.0
137.506134 180.0
137.64621 116.0
137.723267 168.0
137.992004 88.0
138.055145 136.0
138.223572 212.0
138.251648 72.0
138.438934 136.0
138.674759 200.0
138.870148 156.0
139.255066 192.0
139.391327 204.0
139.457123 156.0
139.633453 248.0
139.704025 200.0
139.831085 128.0
139.875809 52.0
139.892273 152.0
139.941711 136.0
140.087738 128.0
140.149445 208.0
140.285675 72.0
140.3965 100.0
140.545105 180.0
140.752823 128.0
140.86618 144.0
140.989044 212.0
141.048126 104.0
141.107239 136.0
141.1427 164.0
141.164032 176.0
141.320099 136.0
141.42659 180.0
141.490494 128.0
141.626038 204.0
141.89325 136.0
141.966751 140.0
142.009445 152.0
142.042648 192.0
142.159149 196.0
142.241974 56.0
142.322693 152.0
142.622025 216.0
142.755157 176.0
142.814606 184.0
142.890732 148.0
142.924042 168.0
142.983536 200.0
143.030899 164.0
143.069839 204.0
143.097794 144.0
143.371902 156.0
143.409851 256.0
143.571976 176.0
143.598206 180.0
143.622055 100.0
143.650681 152.0
143.784302 144.0
143.841583 208.0
143.92276 60.0
144.044144 1080.0
144.082779 104.0
144.121292 168.0
144.362427 108.0
144.515518 116.0
144.608841 152.0
145.057831 124.0
145.102295 80.0
145.181427 48.0
145.297699 176.0
145.421341 80.0
145.536697 136.0
145.591797 108.0
145.61821 124.0
145.671051 232.0
145.870499 136.0
146.024689 5056.0
146.086929 48.0
146.125412 48.0
146.154282 156.0
146.239807 208.0
146.293884 116.0
146.339615 100.0
146.363693 128.0
146.395004 40.0
146.452805 124.0
146.693756 136.0
146.720276 56.0
146.754028 108.0
146.836014 144.0
146.874603 240.0
146.91803 92.0
146.961456 104.0
147.028381 812.0
147.079712 168.0
147.224564 104.0
147.300949 96.0
147.345337 132.0
147.502411 104.0
147.599609 176.0
147.991089 164.0
148.038101 380.0
148.192123 88.0
148.366623 76.0
148.419968 48.0
148.507263 156.0
148.633408 96.0
148.701355 156.0
148.861588 76.0
148.961166 148.0
149.04924 224.0
149.578812 168.0
149.756546 192.0
149.839371 156.0
150.195282 128.0
150.555588 148.0
150.663971 156.0
150.754379 156.0
151.028198 220.0
151.106476 136.0
151.148071 104.0
151.216599 84.0
151.238617 156.0
151.372894 156.0
151.473679 124.0
152.138229 144.0
152.206985 76.0
152.37645 152.0
152.40593 136.0
152.541107 284.0
152.789474 100.0
153.003586 96.0
153.028214 92.0
153.084839 240.0
153.284378 188.0
153.345978 152.0
153.469238 76.0
153.634476 248.0
153.90596 168.0
154.039322 220.0
154.113434 116.0
154.516434 148.0
154.687195 196.0
154.838226 136.0
154.915009 136.0
154.949692 48.0
154.974472 112.0
155.056244 172.0
155.08847 56.0
155.113251 156.0
155.204987 228.0
155.249619 136.0
155.311615 180.0
155.348831 112.0
155.423248 160.0
155.582092 208.0
155.599472 176.0
155.634232 136.0
155.877655 104.0
156.064087 148.0
156.171021 132.0
156.260574 344.0
156.277985 36.0
156.370056 104.0
156.534363 36.0
156.556625 328.0
156.606583 300.0
156.739487 172.0
157.025299 152.0
157.067703 148.0
157.105118 108.0
157.339706 52.0
157.44458 152.0
157.474548 172.0
157.559479 48.0
157.58696 184.0
157.631927 160.0
157.846909 188.0
157.926926 144.0
158.042694 72.0
158.097061 216.0
158.229721 200.0
158.405014 144.0
158.445099 140.0
158.73584 156.0
158.773453 152.0
158.806061 160.0
158.843689 92.0
158.88382 100.0
158.979172 148.0
159.215149 188.0
159.398529 152.0
159.501572 68.0
159.5242 128.0
159.589554 144.0
159.763092 192.0
159.851151 140.0
160.022369 200.0
160.044968 200.0
160.073227 200.0
160.138153 156.0
160.19725 172.0
160.322052 196.0
160.483383 40.0
160.644791 120.0
160.662445 156.0
160.935013 68.0
160.955215 196.0
160.977951 196.0
161.033508 136.0
161.063812 180.0
161.483383 160.0
161.536499 156.0
161.60228 176.0
161.781967 160.0
161.893372 160.0
161.931366 152.0
162.07576 160.0
162.308945 144.0
162.438293 172.0
162.580368 152.0
162.63475 104.0
162.704742 204.0
162.722519 264.0
162.796158 136.0
162.929916 156.0
162.97142 152.0
163.050308 624.0
163.205261 124.0
163.286636 120.0
163.365128 144.0
163.39093 120.0
163.446899 132.0
163.510513 120.0
163.569061 192.0
163.635254 44.0
163.688721 168.0
163.785492 172.0
163.887222 176.0
164.050507 172.0
164.111694 52.0
164.46843 124.0
164.487366 140.0
164.530106 84.0
164.614365 152.0
164.805939 184.0
164.82637 132.0
164.869812 132.0
164.931152 220.0
165.158722 152.0
165.202515 204.0
165.478607 116.0
165.581024 232.0
165.627136 164.0
165.670685 124.0
166.134674 108.0
166.155197 136.0
166.511993 76.0
166.58905 144.0
167.070679 148.0
167.294754 104.0
167.348267 116.0
167.690338 128.0
167.723846 120.0
167.798599 200.0
167.897095 140.0
168.048782 116.0
168.071991 144.0
168.499771 156.0
168.538528 100.0
168.942673 108.0
169.007355 80.0
169.074631 204.0
169.359421 168.0
169.644455 164.0
169.740387 140.0
169.83374 176.0
169.854492 196.0
170.052994 288.0
170.443817 76.0
170.498398 56.0
170.534775 124.0
170.664749 88.0
170.797379 200.0
170.828598 128.0
171.008133 148.0
171.23204 188.0
171.289352 216.0
171.349258 172.0
171.388351 164.0
171.422226 128.0
171.503006 68.0
171.682907 224.0
171.76503 196.0
171.903687 196.0
171.959442 188.0
172.116074 28.0
172.35376 204.0
172.387741 124.0
172.411255 176.0
172.515808 108.0
172.701462 56.0
172.918625 188.0
173.41362 152.0
173.675812 132.0
173.744019 124.0
173.812241 192.0
173.953949 156.0
174.019592 140.0
174.148254 60.0
174.411011 148.0
174.726562 120.0
174.852875 220.0
174.963425 196.0
174.992249 156.0
175.079285 148.0
175.205704 136.0
175.801605 224.0
175.907166 144.0
176.710556 32.0
177.165924 112.0
177.187119 224.0
177.348755 160.0
177.765137 136.0
177.863327 144.0
178.019974 48.0
178.068954 232.0
178.168701 196.0
178.304214 200.0
178.391937 212.0
178.758972 216.0
178.937302 28.0
178.955933 28.0
178.985229 192.0
179.105072 164.0
179.169006 88.0
179.726227 212.0
179.891693 116.0
179.966446 80.0
180.027863 48.0
180.083908 304.0
180.196136 120.0
180.241562 152.0
180.262939 116.0
180.444687 172.0
180.519562 52.0
180.700104 152.0
180.724792 148.0
180.998535 40.0
181.022644 136.0
181.159225 176.0
181.226212 160.0
181.429901 100.0
181.861771 76.0
181.939606 100.0
182.014786 120.0
182.124893 116.0
182.149063 200.0
182.232346 40.0
182.280716 156.0
182.315643 140.0
182.350586 168.0
182.600616 132.0
182.630203 116.0
182.667862 140.0
182.791626 196.0
182.864288 188.0
182.883118 116.0
183.036575 120.0
183.063507 120.0
183.101196 164.0
183.233185 140.0
183.516174 148.0
183.580902 188.0
183.605164 132.0
183.899246 100.0
183.931625 140.0
184.063431 1216.0
184.18631 176.0
184.304321 136.0
184.523239 120.0
184.642212 148.0
185.04541 144.0
185.070755 316.0
185.346054 220.0
185.427338 168.0
185.451736 88.0
185.646942 212.0
185.695755 40.0
185.80426 140.0
185.925552 148.0
185.980637 192.0
186.021347 180.0
186.057999 328.0
186.100082 444.0
186.211426 184.0
186.379852 168.0
186.496704 160.0
186.594559 216.0
186.640778 128.0
186.722366 116.0
186.787643 188.0
186.972656 204.0
187.057587 196.0
187.103317 112.0
187.17955 196.0
187.210175 80.0
187.334793 172.0
187.364746 180.0
187.498276 136.0
187.585495 144.0
187.642731 180.0
187.689087 204.0
187.757263 148.0
187.970047 144.0
188.024612 100.0
188.076477 68.0
188.202057 136.0
188.341324 108.0
188.36319 80.0
188.475189 152.0
188.546448 164.0
188.708939 192.0
188.803223 44.0
189.134277 64.0
189.158905 148.0
189.325928 148.0
189.635498 184.0
190.049591 168.0
190.085266 120.0
190.543793 160.0
190.763641 132.0
190.826874 160.0
190.936859 192.0
191.070633 220.0
191.867554 124.0
192.07988 144.0
192.151611 176.0
192.213745 212.0
192.476578 244.0
192.527008 168.0
192.648529 132.0
192.778397 220.0
192.803268 116.0
193.063126 136.0
193.09079 140.0
193.19313 164.0
193.949081 188.0
194.473297 228.0
194.737076 184.0
194.784286 156.0
194.989899 160.0
195.064713 632.0
195.404221 48.0
195.47377 232.0
195.685318 152.0
195.863541 44.0
195.963837 100.0
196.064148 216.0
196.273209 44.0
196.510773 212.0
196.607956 140.0
196.750305 64.0
196.818146 176.0
196.903168 220.0
197.113403 192.0
197.160904 156.0
197.320236 56.0
197.398514 260.0
197.443268 244.0
197.549545 144.0
197.809799 152.0
197.842148 144.0
198.098221 76.0
198.198715 156.0
198.330795 68.0
198.712173 76.0
198.754257 148.0
198.925461 120.0
198.964752 196.0
199.273697 144.0
199.426529 236.0
199.506958 176.0
199.63176 92.0
199.812424 204.0
199.892273 148.0
200.021729 156.0
200.055511 96.0
200.094925 180.0
200.300507 204.0
200.334305 200.0
200.48082 212.0
200.638657 136.0
201.029312 112.0
201.075867 152.0
201.123856 152.0
201.225479 44.0
201.260559 196.0
201.320648 164.0
201.97435 104.0
202.008286 108.0
202.076187 160.0
202.138428 180.0
202.353546 184.0
202.594269 108.0
202.744446 116.0
202.991074 140.0
203.043884 372.0
203.246353 228.0
203.464905 204.0
203.5728 248.0
203.672195 116.0
204.080811 1072.0
204.186035 264.0
204.223602 160.0
204.308945 68.0
204.345932 228.0
204.450882 212.0
204.493896 304.0
204.676086 168.0
204.878311 140.0
205.020767 168.0
205.08847 496.0
205.203201 148.0
205.570663 164.0
205.900436 172.0
205.947998 96.0
206.00798 148.0
206.096512 2404.0
206.256592 72.0
206.404785 124.0
206.433853 84.0
206.48819 148.0
206.605453 176.0
206.728485 204.0
206.779999 28.0
207.069046 388.0
207.101883 720.0
207.218124 132.0
207.361389 188.0
207.421585 196.0
207.541992 160.0
207.685379 184.0
207.777176 108.0
208.070053 672.0
208.176147 220.0
208.339859 120.0
208.449036 60.0
208.624359 108.0
208.825638 148.0
208.894669 112.0
208.978104 144.0
209.035645 176.0
209.075943 152.0
209.427185 164.0
209.462189 204.0
209.703781 112.0
209.745499 92.0
209.793137 168.0
210.048096 48.0
210.091217 488.0
210.188263 164.0
210.211349 144.0
210.295029 140.0
210.554871 52.0
210.927597 224.0
211.051895 160.0
211.095276 144.0
211.294846 236.0
211.365677 108.0
211.523468 156.0
211.637177 232.0
211.949188 48.0
212.113998 180.0
212.210052 176.0
212.43045 180.0
212.555206 144.0
212.775787 148.0
212.851288 108.0
213.12735 180.0
213.223114 100.0
213.28125 72.0
213.691284 84.0
213.77858 52.0
213.993973 180.0
214.040558 228.0
214.393036 60.0
214.42218 204.0
214.518356 92.0
214.573746 124.0
214.888733 204.0
214.929581 212.0
215.037109 156.0
215.116364 156.0
215.186432 124.0
215.34996 180.0
215.38501 48.0
215.990067 168.0
216.076584 428.0
216.145111 224.0
216.238754 176.0
216.347061 128.0
216.438004 132.0
216.470032 180.0
216.49054 144.0
216.660416 148.0
216.783478 124.0
217.091095 6180.0
217.129395 128.0
217.167526 196.0
217.263351 48.0
217.287949 144.0
217.36409 36.0
217.42865 144.0
217.451157 168.0
217.49028 92.0
217.557785 140.0
217.622375 60.0
217.657608 72.0
217.716339 292.0
217.760391 52.0
217.827957 152.0
217.914566 140.0
217.941528 200.0
217.971909 172.0
218.001297 184.0
218.027161 280.0
218.098587 32304.0
218.224319 156.0
218.24527 28.0
218.295258 80.0
218.401138 136.0
218.43985 148.0
218.49527 156.0
218.532532 36.0
218.577652 40.0
218.704193 40.0
218.804276 88.0
218.845505 80.0
218.912552 144.0
218.966232 76.0
218.998627 200.0
219.101074 6444.0
219.14592 40.0
219.175247 176.0
219.179306 120.0
219.210739 160.0
219.269684 232.0
219.390533 232.0
219.503052 84.0
219.545242 144.0
219.666412 180.0
219.71788 32.0
219.756241 84.0
219.782791 68.0
219.806396 140.0
219.916336 140.0
220.07959 348.0
220.10498 828.0
220.151764 104.0
220.213791 84.0
220.264008 108.0
220.284683 204.0
220.364441 92.0
220.402847 72.0
220.459 28.0
220.587891 184.0
220.624512 68.0
220.662949 164.0
220.696304 192.0
221.04451 108.0
221.080582 156.0
221.108719 188.0
221.195435 184.0
221.284256 240.0
221.40329 140.0
221.65152 36.0
221.722641 84.0
222.004272 120.0
222.030975 44.0
222.066559 132.0
222.306854 152.0
222.4048 76.0
222.470108 28.0
222.618561 120.0
222.686859 160.0
222.88887 156.0
222.978027 52.0
222.998825 36.0
223.028549 80.0
223.063812 116.0
223.275314 196.0
223.435944 168.0
223.546036 200.0
223.649277 156.0
223.822861 192.0
224.159454 100.0
224.529114 164.0
224.749847 172.0
224.812515 64.0
224.967728 144.0
225.152847 92.0
225.349991 124.0
225.502396 116.0
225.63092 92.0
225.708664 96.0
225.744537 52.0
225.941956 52.0
225.989822 92.0
226.037689 96.0
226.211273 64.0
226.50473 172.0
226.951263 168.0
227.101212 60.0
227.50029 100.0
227.563339 92.0
227.761169 132.0
227.866684 236.0
227.900986 96.0
228.031952 44.0
228.068024 132.0
228.221329 132.0
228.269745 148.0
228.311539 160.0
228.473969 132.0
228.579269 152.0
228.711685 132.0
228.765869 112.0
228.901352 40.0
228.928467 84.0
228.976639 152.0
229.012787 36.0
229.115204 228.0
229.151352 68.0
229.283936 112.0
229.476852 68.0
229.519073 168.0
229.718124 64.0
229.796555 116.0
229.926315 176.0
229.992706 88.0
230.034973 112.0
230.094131 316.0
230.140625 184.0
230.210083 140.0
230.315781 228.0
230.770721 96.0
230.82048 44.0
231.101822 140.0
231.186508 84.0
231.25914 108.0
231.519501 164.0
231.899094 296.0
232.078598 1076.0
232.105118 268.0
232.343948 216.0
232.438004 84.0
232.559402 120.0
232.683853 180.0
232.726028 160.0
232.935913 84.0
233.024002 128.0
233.083755 2428.0
233.206329 152.0
233.377853 152.0
233.410019 132.0
233.522537 204.0
233.577286 160.0
233.708099 100.0
233.884109 120.0
233.959335 116.0
234.092468 5924.0
234.21257 164.0
234.27272 184.0
234.32312 216.0
234.409958 136.0
234.518143 96.0
234.687164 136.0
234.722397 52.0
234.801682 76.0
234.984711 180.0
235.065674 1600.0
235.096756 1172.0
235.216644 56.0
235.309296 148.0
235.337555 92.0
235.378448 28.0
235.500595 80.0
235.55864 168.0
235.586136 48.0
235.647232 80.0
235.683899 60.0
235.714447 60.0
235.783066 144.0
235.836685 44.0
235.861145 96.0
235.958969 120.0
236.071091 364.0
236.103653 312.0
236.289261 300.0
236.390244 68.0
236.475922 176.0
236.53714 44.0
236.580002 216.0
236.619797 132.0
236.64389 152.0
236.671082 144.0
236.736145 92.0
236.766769 152.0
236.929108 280.0
237.0578 104.0
237.11145 120.0
237.189285 204.0
237.229431 76.0
237.260086 48.0
237.336746 200.0
237.447128 128.0
237.468597 96.0
237.539154 140.0
237.588226 136.0
237.634247 52.0
237.747787 188.0
237.875702 268.0
237.937302 124.0
237.949707 92.0
237.955063 196.0
237.9897 272.0
238.023544 212.0
238.029785 176.0
238.044373 188.0
238.088226 20204.0
238.14563 136.0
238.186829 36.0
238.229095 116.0
238.266693 100.0
238.317093 60.0
238.346588 72.0
238.414185 60.0
238.500244 36.0
238.524826 52.0
238.62735 80.0
238.658752 164.0
238.740051 64.0
238.840164 80.0
238.881531 44.0
239.053818 32.0
239.089905 2632.0
239.18924 76.0
239.241577 60.0
239.338135 84.0
239.373962 72.0
239.403992 160.0
239.732468 84.0
239.752869 208.0
239.947052 52.0
240.094757 320.0
240.175247 116.0
240.249283 64.0
240.273453 144.0
240.310989 56.0
240.332581 36.0
240.403564 196.0
240.44368 148.0
240.533188 108.0
240.588745 64.0
240.649414 92.0
240.801804 104.0
240.968613 88.0
241.098389 144.0
241.436234 128.0
241.528137 160.0
241.630234 48.0
241.740875 84.0
241.856125 180.0
242.057358 160.0
242.082138 108.0
242.224594 152.0
242.447678 88.0
242.602646 176.0
242.763885 120.0
243.005814 140.0
243.328598 160.0
243.434158 68.0
243.459 112.0
243.573929 148.0
244.07692 160.0
244.105377 180.0
244.201782 72.0
244.528458 124.0
244.73703 80.0
244.886505 44.0
244.947861 160.0
244.998642 156.0
245.084061 1272.0
245.117584 160.0
245.310272 116.0
245.347672 144.0
245.438095 72.0
245.934113 148.0
246.043365 176.0
246.090866 1156.0
246.124542 132.0
246.199966 156.0
246.240082 104.0
246.431671 108.0
246.587891 148.0
246.674393 128.0
246.727539 140.0
246.796326 100.0
246.8526 156.0
246.899368 172.0
246.92392 144.0
247.047394 144.0
247.099487 7616.0
247.173508 88.0
247.226852 132.0
247.262421 52.0
247.344666 188.0
247.481537 92.0
247.553558 184.0
247.605835 156.0
247.688232 180.0
247.728958 160.0
247.788467 204.0
247.820328 48.0
247.847412 168.0
247.886383 88.0
247.948273 152.0
248.0047 100.0
248.029343 224.0
248.054779 372.0
248.109207 44864.0
248.187469 132.0
248.213776 52.0
248.237091 92.0
248.300903 92.0
248.323929 44.0
248.358994 176.0
248.410645 112.0
248.45311 48.0
248.53154 204.0
248.566055 48.0
248.605057 84.0
248.709244 64.0
248.73056 156.0
248.792328 84.0
248.886215 128.0
248.907486 88.0
248.913376 68.0
248.937088 216.0
248.964005 208.0
249.011826 104.0
249.047363 120.0
249.058319 140.0
249.115067 22884.0
249.202957 76.0
249.253723 36.0
249.297073 136.0
249.353195 92.0
249.388855 60.0
249.410858 120.0
249.442291 184.0
249.470245 164.0
249.520844 272.0
249.564896 48.0
249.607254 68.0
249.63443 176.0
249.671463 108.0
249.766174 76.0
249.819641 128.0
249.868927 68.0
249.940918 132.0
250.002136 48.0
250.0336 192.0
250.120041 3580.0
250.165115 128.0
250.357864 104.0
250.447678 108.0
250.496445 48.0
250.526245 104.0
250.584656 96.0
250.633286 64.0
250.669785 112.0
250.694931 192.0
250.747726 192.0
250.846222 108.0
250.909271 96.0
250.941681 128.0
250.997543 28.0
251.062607 240.0
251.123138 636.0
251.183624 168.0
251.294037 156.0
251.439178 60.0
251.533203 152.0
251.584381 36.0
251.612793 44.0
251.694885 128.0
251.79277 84.0
251.849625 152.0
251.871735 136.0
251.894531 112.0
251.931747 36.0
252.013901 56.0
252.045486 116.0
252.067612 148.0
252.099213 120.0
252.345764 56.0
252.408997 184.0
252.478561 44.0
252.75061 80.0
252.81073 80.0
252.842377 68.0
253.539108 104.0
253.808548 76.0
253.878311 140.0
254.081894 164.0
254.512955 284.0
254.608215 144.0
254.986267 204.0
255.386871 132.0
255.425049 100.0
255.660477 100.0
255.889664 128.0
256.091003 124.0
256.300537 152.0
256.428009 148.0
256.568268 172.0
257.090759 188.0
257.151978 140.0
257.257324 100.0
258.072662 92.0
258.096863 192.0
258.267059 72.0
258.289459 80.0
258.375824 52.0
258.715057 176.0
258.958405 152.0
259.063354 152.0
259.09845 564.0
259.31723 148.0
259.426208 184.0
259.483917 116.0
259.548065 96.0
259.650665 180.0
259.753296 136.0
259.820679 76.0
259.881622 208.0
259.898529 152.0
259.957947 208.0
259.990723 172.0
260.057739 144.0
260.108978 36116.0
260.218414 348.0
260.244324 68.0
260.266785 56.0
260.321381 112.0
260.353485 156.0
260.420929 120.0
260.474243 160.0
260.549408 40.0
260.571899 64.0
260.62973 56.0
260.680237 88.0
260.706879 64.0
260.732574 76.0
260.775085 160.0
260.825775 124.0
260.968658 180.0
261.112183 5556.0
261.199829 172.0
261.242035 204.0
261.306732 192.0
261.337097 256.0
261.407898 116.0
261.436859 52.0
261.481903 60.0
261.675049 156.0
261.71048 36.0
261.758759 60.0
261.816742 64.0
262.088226 3728.0
262.23233 76.0
262.258118 52.0
262.292084 156.0
262.399963 52.0
262.435425 48.0
262.599884 44.0
262.674072 100.0
262.695374 92.0
262.745026 32.0
262.848267 104.0
262.944 136.0
263.006409 92.0
263.090088 664.0
263.291168 60.0
263.364807 60.0
263.426178 244.0
263.456329 60.0
263.519867 188.0
263.653595 116.0
263.749329 132.0
263.8172 212.0
264.066162 132.0
264.102081 144.0
264.12439 152.0
264.179382 96.0
264.257019 164.0
264.49649 56.0
264.833252 140.0
264.862396 84.0
265.069733 120.0
265.104218 180.0
265.110504 48.0
265.329041 132.0
265.61441 36.0
265.637115 104.0
265.796082 120.0
265.83786 228.0
265.864227 88.0
265.919403 104.0
265.945343 168.0
265.994049 44.0
266.026184 168.0
266.08316 19696.0
266.171509 24.0
266.20047 200.0
266.244049 32.0
266.266785 52.0
266.369598 220.0
266.422699 84.0
266.458435 56.0
266.487671 100.0
266.542908 48.0
266.687225 68.0
266.737885 64.0
266.877686 80.0
266.913452 60.0
266.936218 112.0
267.086487 2520.0
267.188385 72.0
267.227722 52.0
267.277771 160.0
267.341949 72.0
267.402771 144.0
267.486053 36.0
267.656799 108.0
267.691162 68.0
267.779083 136.0
267.906128 44.0
267.974548 100.0
268.088959 432.0
268.522186 56.0
268.606964 120.0
268.781219 136.0
268.828827 120.0
268.935455 60.0
269.011597 104.0
269.047516 64.0
269.070374 144.0
269.122589 136.0
269.197693 128.0
269.246704 116.0
269.364258 68.0
269.54068 112.0
269.887177 140.0
269.972198 112.0
270.053955 88.0
270.101105 124.0
270.646271 164.0
270.832916 124.0
271.088776 768.0
271.396606 36.0
271.422821 140.0
271.727844 180.0
271.757385 172.0
271.960846 180.0
272.070557 256.0
272.0802 156.0
272.094299 360.0
272.2005 72.0
272.259613 36.0
272.650543 72.0
272.801727 172.0
272.943115 80.0
273.07785 264.0
273.548462 96.0
273.841492 120.0
274.083923 460.0
274.794159 124.0
275.028473 64.0
275.054871 144.0
275.081055 408.0
275.119476 1032.0
275.157196 196.0
275.408173 88.0
275.606384 72.0
276.057068 92.0
276.120361 532.0
276.939575 32.0
277.06543 160.0
277.115143 128.0
277.595764 228.0
277.81134 144.0
278.085144 236.0
278.120728 264.0
278.415405 132.0
278.581482 76.0
279.086426 188.0
279.12323 168.0
279.452515 216.0
279.51239 48.0
279.602264 128.0
279.685455 196.0
280.098907 140.0
280.241608 40.0
280.321564 108.0
280.538208 184.0
280.955048 148.0
281.255371 124.0
281.96344 140.0
282.709198 160.0
283.23819 144.0
284.08963 128.0
284.203705 128.0
284.300995 100.0
285.095856 128.0
285.3927 132.0
285.655029 68.0
286.015076 132.0
286.09964 132.0
286.18338 116.0
286.368591 148.0
287.082825 408.0
287.118073 312.0
287.430511 64.0
287.474365 120.0
287.545258 116.0
287.585754 148.0
287.636383 148.0
287.896362 180.0
287.994293 80.0
288.028076 176.0
288.102722 5704.0
288.159576 228.0
288.193604 96.0
288.291595 204.0
288.315247 28.0
288.413269 120.0
288.616089 120.0
288.680359 64.0
288.727692 32.0
288.795319 64.0
288.981384 68.0
289.062592 148.0
289.10498 1880.0
289.217346 116.0
289.255493 48.0
289.363831 60.0
289.394318 32.0
289.570404 36.0
289.624573 76.0
289.753296 64.0
289.915955 120.0
289.976959 96.0
290.084015 2904.0
290.187103 48.0
290.485565 56.0
291.082794 616.0
291.16098 68.0
291.191559 88.0
291.415741 76.0
291.585663 104.0
291.698547 92.0
292.094421 164.0
292.589081 64.0
292.776367 84.0
292.824036 120.0
293.088959 140.0
294.067963 116.0
294.088959 168.0
294.239136 216.0
294.266449 120.0
294.341583 44.0
294.454254 104.0
294.888153 92.0
295.018066 124.0
295.732941 80.0
296.136963 60.0
297.069305 156.0
297.220245 80.0
297.573792 156.0
297.979034 72.0
298.106171 180.0
298.284882 84.0
298.597778 88.0
298.762878 44.0
299.079865 420.0
299.644196 220.0
299.909546 108.0
300.072205 192.0
300.092896 196.0
300.164673 84.0
300.430237 164.0
300.716614 132.0
301.083954 280.0
301.103668 208.0
301.410767 76.0
302.096649 396.0
302.624817 60.0
302.75293 132.0
303.040436 88.0
303.115021 6980.0
303.32373 196.0
303.419983 140.0
303.498291 80.0
303.542999 184.0
303.574219 72.0
303.601959 96.0
303.742584 184.0
303.934967 44.0
304.059906 120.0
304.11676 1244.0
304.240387 88.0
304.400116 32.0
304.500824 68.0
305.086975 328.0
305.111572 272.0
305.480988 76.0
306.072632 40.0
306.113068 156.0
306.292053 72.0
307.114624 288.0
307.296021 116.0
307.763733 72.0
308.09201 220.0
308.430969 104.0
308.731659 136.0
308.966003 128.0
309.256439 100.0
309.792175 252.0
311.117737 148.0
311.223083 96.0
312.196411 144.0
313.537689 204.0
314.03833 104.0
314.090607 320.0
314.211182 132.0
314.645264 168.0
314.74411 100.0
315.085846 192.0
316.089294 100.0
317.100128 140.0
318.040039 48.0
318.06488 148.0
318.150055 108.0
318.373749 92.0
319.073669 184.0
319.129974 108.0
320.362 164.0
321.083954 152.0
321.156891 144.0
321.206818 116.0
321.706421 104.0
322.106354 136.0
322.485077 172.0
322.685272 56.0
322.985657 112.0
323.067932 44.0
323.357758 44.0
323.747986 104.0
324.0961 112.0
324.245941 136.0
324.539886 112.0
325.059998 180.0
325.763702 172.0
326.662384 68.0
326.813477 120.0
327.212982 84.0
327.378601 80.0
327.70639 64.0
327.767639 76.0
328.117249 144.0
328.849518 108.0
329.084656 424.0
329.539215 92.0
330.074127 156.0
330.111969 320.0
331.105499 140.0
331.464142 128.0
332.12326 148.0
332.229156 160.0
332.272675 56.0
332.49765 116.0
332.740845 100.0
333.089935 584.0
333.216614 44.0
333.712036 64.0
333.885437 100.0
334.092407 116.0
334.281952 116.0
334.314697 152.0
335.115387 152.0
335.812042 120.0
336.085632 128.0
336.136719 120.0
336.54187 92.0
337.109863 104.0
337.135498 164.0
337.352936 48.0
338.084442 176.0
338.135681 372.0
338.16861 84.0
338.208862 56.0
339.744232 84.0
339.93869 144.0
340.136871 128.0
340.386536 152.0
340.985321 68.0
341.095581 84.0
341.209564 56.0
341.352936 92.0
341.798035 204.0
342.091583 812.0
342.368591 44.0
342.740662 128.0
343.094666 268.0
343.175568 176.0
344.723328 76.0
344.988281 116.0
345.098724 152.0
345.143555 204.0
345.472717 100.0
345.513397 156.0
345.757599 176.0
346.117218 564.0
347.1203 280.0
348.015076 108.0
348.12381 196.0
348.999695 148.0
349.131073 96.0
349.637573 152.0
350.127197 100.0
351.10733 40.0
351.151093 656.0
351.603516 120.0
351.734161 44.0
352.147491 188.0
352.172058 156.0
352.324158 60.0
352.473602 68.0
352.55954 136.0
352.667938 88.0
353.134277 164.0
353.292389 60.0
353.606689 176.0
353.820068 148.0
354.475525 80.0
355.079071 120.0
355.65686 120.0
356.100372 160.0
356.655975 108.0
357.062042 148.0
357.09964 276.0
358.021698 100.0
358.113586 304.0
358.243927 164.0
358.42099 96.0
359.112366 192.0
359.119019 292.0
359.401337 124.0
360.125946 356.0
361.040741 52.0
361.136993 416.0
361.642273 140.0
361.70285 44.0
361.858063 116.0
362.039795 96.0
362.133575 300.0
362.146515 392.0
362.843079 52.0
363.006134 200.0
363.113068 72.0
363.15036 276.0
363.806671 80.0
364.015503 72.0
364.128082 568.0
364.444733 144.0
364.497925 56.0
364.737335 56.0
365.122528 128.0
365.133698 340.0
366.129852 92.0
366.160309 172.0
367.13974 120.0
367.20459 132.0
367.662384 116.0
368.754639 72.0
369.251648 132.0
369.301392 160.0
369.948059 180.0
370.832855 64.0
371.120178 236.0
371.699554 44.0
372.121674 396.0
372.187042 212.0
372.498108 184.0
372.640259 124.0
372.813171 180.0
373.126038 140.0
373.33316 172.0
373.797485 148.0
374.101013 1416.0
374.205597 160.0
374.675446 160.0
375.029938 40.0
375.109497 764.0
375.538879 76.0
376.017303 76.0
376.12027 840.0
376.194855 132.0
376.384033 216.0
376.43808 140.0
376.475342 112.0
376.70459 84.0
376.865753 112.0
377.128998 172.0
377.319031 68.0
377.504639 56.0
377.848877 84.0
378.144318 80.0
378.468109 152.0
379.03363 92.0
379.06076 120.0
379.14386 2508.0
379.343689 116.0
379.847778 60.0
380.151215 620.0
380.325043 68.0
380.81427 48.0
381.05899 36.0
381.153137 176.0
381.455383 72.0
382.085358 120.0
383.682098 136.0
383.814636 108.0
383.986237 56.0
384.122742 88.0
384.524628 96.0
384.805664 152.0
386.9599 124.0
387.124054 100.0
387.919708 80.0
388.111572 340.0
388.123962 160.0
388.139832 212.0
388.998444 204.0
389.12796 1872.0
389.201324 136.0
389.300751 136.0
389.469635 56.0
389.565491 60.0
389.756409 112.0
389.807495 92.0
390.132568 756.0
390.212341 32.0
390.279175 36.0
390.5466 152.0
390.696625 84.0
391.119049 276.0
391.211609 152.0
391.373016 128.0
392.116211 1456.0
392.239716 308.0
392.302795 44.0
392.507812 44.0
392.551178 96.0
392.719482 68.0
392.87854 68.0
393.116699 480.0
393.225769 128.0
393.703461 60.0
393.798248 144.0
394.135773 272.0
394.149017 192.0
394.21701 128.0
394.307892 212.0
394.458099 184.0
395.209503 104.0
395.256989 212.0
395.423187 40.0
396.036865 164.0
396.631226 84.0
397.400543 104.0
397.920471 80.0
398.154755 136.0
398.718872 64.0
399.71701 124.0
399.848358 144.0
400.294189 120.0
400.776184 40.0
401.114929 96.0
401.725006 84.0
401.80481 232.0
402.008301 140.0
402.116058 64.0
403.244568 192.0
403.666077 144.0
404.138245 288.0
405.129852 484.0
405.892426 120.0
406.052826 108.0
406.115082 276.0
406.146393 124.0
406.24939 148.0
406.377747 148.0
406.482086 188.0
406.592102 184.0
406.634583 84.0
406.682739 88.0
406.766022 96.0
406.792297 140.0
406.82724 264.0
406.91156 128.0
406.968964 148.0
407.017426 276.0
407.048065 212.0
407.140747 18116.0
407.276978 164.0
407.445587 152.0
407.492859 152.0
407.563019 40.0
407.644592 100.0
407.6987 76.0
407.751068 136.0
407.787231 68.0
407.839478 120.0
408.142059 5764.0
408.269684 40.0
408.354126 160.0
408.413727 44.0
408.482849 40.0
408.647797 52.0
408.700104 44.0
408.860535 160.0
408.965698 60.0
409.094482 120.0
409.145477 1344.0
409.259552 48.0
409.31192 176.0
409.412567 72.0
409.545471 88.0
409.678406 56.0
409.714661 48.0
409.78717 76.0
409.887909 68.0
409.95813 108.0
410.001678 76.0
410.158447 156.0
410.311127 48.0
410.448181 32.0
410.589111 92.0
410.67807 88.0
410.714355 32.0
410.756409 104.0
410.920105 44.0
410.990875 104.0
411.140015 72.0
411.202576 104.0
411.234863 92.0
411.509705 92.0
411.682983 124.0
411.905121 108.0
412.252563 40.0
412.531433 48.0
412.717407 88.0
412.745728 52.0
412.806366 44.0
413.049042 80.0
413.421265 108.0
413.453644 184.0
413.801727 36.0
413.846283 68.0
414.279602 60.0
415.532318 140.0
416.250732 148.0
416.604065 36.0
417.087616 148.0
417.122925 176.0
417.154236 196.0
418.116699 120.0
418.442261 80.0
418.829132 108.0
419.358795 120.0
419.403625 44.0
419.733856 112.0
420.762024 116.0
420.970825 196.0
421.035583 156.0
421.664734 164.0
421.86911 128.0
422.151367 3868.0
422.296814 80.0
422.695282 72.0
422.838501 52.0
422.979065 100.0
423.154083 1392.0
423.534546 84.0
424.155334 128.0
424.538635 72.0
424.591949 84.0
424.624756 44.0
425.07193 88.0
425.178619 76.0
425.215546 64.0
425.68222 100.0
426.755981 56.0
429.160461 132.0
430.513916 84.0
430.778229 72.0
432.14035 820.0
432.548065 92.0
432.634979 56.0
432.792328 136.0
433.137634 332.0
433.239594 136.0
433.948273 72.0
434.080963 32.0
434.114136 56.0
434.466675 68.0
435.105804 136.0
435.388153 88.0
437.687714 132.0
437.950073 108.0
438.158356 104.0
439.258881 92.0
440.958252 100.0
441.756866 48.0
442.190033 92.0
442.866119 100.0
443.792236 104.0
443.888672 64.0
444.270325 152.0
445.500336 52.0
445.811249 60.0
447.771667 120.0
448.127411 136.0
448.344604 128.0
448.673401 36.0
448.757721 36.0
449.141449 104.0
449.289093 56.0
449.326843 152.0
449.369263 156.0
449.47052 48.0
449.608887 152.0
449.71106 64.0
449.829254 88.0
449.863037 144.0
449.993896 112.0
450.08255 96.0
450.146698 16504.0
450.265808 92.0
450.310608 60.0
450.365509 48.0
450.407745 48.0
450.463837 104.0
450.597839 116.0
450.669678 68.0
450.821777 84.0
450.889404 76.0
450.953491 192.0
451.080139 92.0
451.150665 5712.0
451.248688 36.0
451.337494 64.0
451.490356 52.0
451.52356 64.0
451.650421 64.0
451.684265 44.0
451.747711 80.0
451.806946 56.0
451.887329 120.0
451.962891 88.0
452.149109 1048.0
452.23468 48.0
452.280884 64.0
452.335907 80.0
452.386688 32.0
452.641144 40.0
453.123566 76.0
453.221008 48.0
453.356628 68.0
453.410339 112.0
453.810181 64.0
453.907684 52.0
453.950104 136.0
453.993988 92.0
454.102936 92.0
454.760376 184.0
454.798584 44.0
454.83255 76.0
454.887726 108.0
455.499176 64.0
455.975067 60.0
456.532959 68.0
457.95343 64.0
458.16214 64.0
459.829346 100.0
460.034241 36.0
460.324554 100.0
460.414246 32.0
462.025665 64.0
463.211426 188.0
463.254272 52.0
465.583252 140.0
467.793243 48.0
468.081696 76.0
474.419891 80.0
474.471893 96.0
479.174255 44.0
480.181183 48.0
483.182068 52.0
483.488342 148.0
484.201935 56.0
485.850037 84.0
487.936066 72.0
490.053009 72.0
495.531525 112.0
505.259338 52.0
507.400024 88.0
513.136719 80.0
513.650818 100.0
515.461182 36.0
515.700684 40.0
518.357178 136.0
532.191772 72.0
533.965576 80.0
534.158752 52.0
535.336975 108.0
535.806763 112.0
555.476135 84.0
561.274902 92.0
563.359863 304.0
564.206848 120.0
564.375366 104.0
565.370361 156.0
569.319336 108.0
574.416687 68.0
577.16272 108.0
578.727356 64.0
578.880554 64.0
582.026123 44.0
589.540649 108.0
590.294739 88.0
591.320312 92.0
592.031982 88.0
595.635559 108.0
598.232178 72.0
602.284302 88.0
602.851013 64.0
613.028625 76.0
617.278809 68.0
619.976685 68.0
621.290588 64.0
631.231934 112.0
632.3125 152.0
633.940063 44.0
635.128235 88.0
652.006775 88.0
652.189758 88.0
652.230408 140.0
653.079529 84.0
653.440674 92.0
655.146118 112.0
662.681702 92.0
663.33252 92.0
665.908264 124.0
667.105469 132.0
671.683228 104.0
671.86377 92.0
682.694153 56.0
693.862732 80.0
699.815308 92.0
708.61969 44.0
731.945129 44.0
736.658752 96.0
737.426025 152.0
738.285645 48.0
754.844238 60.0
758.649353 60.0
760.234436 88.0
767.22522 40.0
774.840637 40.0
776.204102 84.0
777.285706 76.0
780.701965 72.0
782.799866 80.0
787.328003 84.0
791.292419 84.0
794.834656 160.0
802.48407 108.0
814.992493 44.0
823.394653 80.0
862.728333 104.0
875.101196 40.0
879.711365 160.0
888.950195 76.0
891.456116 120.0
894.173828 96.0
897.563416 48.0
906.691467 104.0
907.326843 44.0
934.452942 44.0
941.887329 76.0
942.308838 100.0
948.774597 20.0
960.25769 80.0
961.750732 116.0
965.544189 92.0
972.619629 76.0
979.739624 88.0
979.857971 104.0
987.579651 64.0
998.59314 100.0
1031.405396 48.0
1061.944458 72.0
1070.783325 156.0
1072.744507 52.0
1082.263184 32.0
1089.700806 40.0
1092.225098 64.0
1092.889526 76.0
1100.41626 176.0
1119.485962 60.0
1135.806519 152.0
1140.876343 36.0
1150.9823 172.0
1155.361816 20.0
1163.473633 136.0
1219.208862 120.0
1232.504395 92.0
1233.678467 60.0
1234.993042 36.0
1243.575806 132.0
1244.179443 128.0
1245.52771 60.0
1253.829834 180.0
1287.692383 184.0
1300.859741 156.0
1306.493652 32.0
1311.541382 172.0
1323.56958 216.0
1338.855103 160.0
1349.662109 212.0
1354.938965 120.0
1364.516235 100.0
1367.863281 176.0
1382.920654 72.0
1385.793823 128.0
1386.935059 252.0
1387.668945 168.0
1390.138794 172.0
1398.55896 112.0
1403.17749 124.0
1406.750732 32.0
1409.790527 52.0
1410.134277 236.0
1411.876221 160.0
1412.152954 156.0
1413.080444 112.0
1421.532227 224.0
1421.787354 56.0
1431.15332 128.0
1435.335083 48.0
1435.651855 144.0
1437.643311 44.0
1445.328125 112.0
1448.878906 60.0
1460.530884 72.0
1462.813599 140.0
1464.2146 152.0
1468.108765 112.0
1468.810425 128.0
1471.107178 116.0
1472.306885 160.0
1475.836182 112.0
1477.212769 208.0
1481.668091 60.0
1482.656494 160.0
1490.860107 172.0
1491.474854 172.0
1495.697632 112.0
1496.136353 76.0
1496.644531 152.0
1499.587158 52.0
