>compound MLS001141081-01!1-[3-(4-methyl-2-oxo-6,7,8,9-tetrahydro-[1]benzofuro[3,2-g]chromen-3-yl)propanoyl]piperidine-4-carboxylic acid
>formula C25H27NO6
>ionization [M+H]+
>parentmass 438.192
#inchi InChI=1S/C25H27NO6/c1-14-16(6-7-23(27)26-10-8-15(9-11-26)24(28)29)25(30)32-21-13-22-19(12-18(14)21)17-4-2-3-5-20(17)31-22/h12-13,15H,2-11H2,1H3,(H,28,29)
#inchikey BMLWBZAVQVXKPY
#Ion_Source LC-ESI
#Instrument qTof
#Compound_Source NIH Natural Product Library
#PI Dorrestein
#Data_Collector VVP/LMS
#Scan -1
#Precursor_MZ 438.192
#ExactMass 437.184
#Charge 1
#CAS_Number N/A
#Pubmed_ID N/A
#Smiles Cc1c(CCC(=O)N2CCC(CC2)C(=O)O)c(=O)oc3cc4oc5CCCCc5c4cc13
#INCHI_AUX N/A
#Library_Class 1
#SpectrumID CCMSLIB00000080272
#IonMode Positive
#UpdateWorkflowName UPDATE-SINGLE-ANNOTATED-GOLD
#LibraryQualityString Gold
#TaskID b1d8e8f6646f4e71acdff9ca3d919d08
##Scan# 2257
#SpectrumFile p2-E06_GE6_01_18030.mzXML
#LibraryName NIH_Natural_Products_Library.mgf
#MQScore -1
#Organism NIH_Natural_Products_Library
#TIC_Query 0
#RT_Query -1
#MZErrorPPM -1
#SharedPeaks 0
#MassDiff 0
#LibMZ -1
#SpecMZ 438.192
#SpecCharge 0
#internalFilename spec-00000.mgf

>collision 10
94.974228 172.0
94.993515 144.0
95.013023 220.0
95.063477 152.0
95.083496 188.0
95.121696 132.0
95.14888 224.0
95.19548 204.0
95.209068 148.0
95.395599 44.0
95.474197 208.0
95.497116 172.0
95.588097 160.0
95.613159 216.0
95.660156 48.0
95.689362 152.0
95.714203 132.0
95.849075 172.0
95.869186 188.0
95.969925 112.0
96.022575 120.0
96.140091 120.0
96.188431 128.0
96.219666 156.0
96.241142 160.0
96.28215 292.0
96.309494 132.0
96.329025 132.0
96.452133 140.0
96.484238 196.0
96.530334 180.0
96.634003 88.0
96.753387 48.0
96.970818 156.0
97.041389 40.0
97.129639 140.0
97.145332 96.0
97.223473 208.0
97.268013 92.0
97.306252 68.0
97.363251 144.0
97.410339 124.0
97.45356 100.0
97.602943 168.0
97.71051 232.0
97.752441 192.0
97.778023 172.0
97.878418 68.0
97.953262 184.0
97.994629 132.0
98.018272 176.0
98.075424 56.0
98.104256 192.0
98.189781 36.0
98.231201 180.0
98.297676 104.0
98.339729 288.0
98.355522 176.0
98.50164 140.0
98.519417 128.0
98.574173 168.0
98.622169 136.0
98.681686 112.0
98.730911 244.0
98.774429 176.0
98.790253 176.0
98.891167 100.0
98.932732 56.0
98.996094 152.0
99.109001 164.0
99.128822 168.0
99.157104 204.0
99.186295 152.0
99.210083 64.0
99.257668 168.0
99.319145 144.0
99.342949 188.0
99.358818 292.0
99.384613 40.0
99.452087 180.0
99.509659 136.0
99.638077 188.0
99.690414 140.0
99.710281 252.0
99.747032 104.0
99.821609 156.0
99.901169 196.0
99.991295 136.0
100.024544 144.0
100.130074 148.0
100.155968 160.0
100.405106 176.0
100.425049 120.0
100.443001 200.0
100.496864 152.0
100.588669 44.0
100.612617 196.0
100.630867 144.0
100.685318 480.0
100.814354 104.0
100.871117 140.0
100.890015 160.0
100.938118 136.0
100.988297 156.0
101.052307 156.0
101.13916 216.0
101.188408 120.0
101.246475 140.0
101.288536 204.0
101.353859 216.0
101.378693 168.0
101.476913 196.0
101.511002 80.0
101.531052 132.0
101.559135 60.0
101.579002 168.0
101.627342 100.0
101.669479 76.0
101.689552 152.0
101.708618 132.0
101.727684 112.0
101.767838 136.0
101.793945 188.0
101.826073 140.0
101.971115 168.0
102.045517 216.0
102.073257 80.0
102.12957 160.0
102.147675 176.0
102.210037 104.0
102.230164 180.0
102.278465 180.0
102.317902 156.0
102.350945 136.0
102.389206 88.0
102.5 120.0
102.54837 160.0
102.614891 120.0
102.74839 212.0
102.844864 152.0
102.881195 164.0
102.90744 108.0
102.949844 136.0
102.984177 256.0
103.056908 136.0
103.099342 124.0
103.164017 116.0
103.1903 196.0
103.281303 208.0
103.307556 200.0
103.350082 56.0
103.402702 200.0
103.451279 48.0
103.467476 160.0
103.489746 192.0
103.528221 32.0
103.57885 52.0
103.615318 228.0
103.629501 216.0
103.706505 188.0
103.728806 32.0
103.789246 256.0
103.803978 200.0
103.832207 156.0
103.87886 112.0
103.89827 116.0
103.936371 196.0
103.989334 180.0
104.006699 184.0
104.024971 180.0
104.102119 124.0
104.146805 148.0
104.167114 184.0
104.247658 112.0
104.272774 140.0
104.311394 212.0
104.325623 184.0
104.388649 64.0
104.421188 148.0
104.457802 144.0
104.502556 108.0
104.551392 148.0
104.606346 136.0
104.626709 100.0
104.647064 76.0
104.673538 200.0
104.704079 52.0
104.763153 204.0
104.810013 136.0
104.889496 156.0
104.9058 224.0
104.985321 164.0
105.015915 124.0
105.07711 148.0
105.109901 228.0
105.191391 224.0
105.248558 128.0
105.264893 128.0
105.352715 128.0
105.403442 116.0
105.458977 104.0
105.481857 124.0
105.538979 148.0
105.569374 172.0
105.591873 116.0
105.647095 152.0
105.679832 108.0
105.702339 168.0
105.776016 176.0
105.792397 132.0
105.82106 248.0
105.864059 144.0
105.900925 132.0
105.939842 64.0
106.005402 48.0
106.027946 192.0
106.119255 220.0
106.174355 160.0
106.208374 148.0
106.235039 196.0
106.288383 224.0
106.304802 164.0
106.373795 208.0
106.397163 72.0
106.495987 160.0
106.518326 176.0
106.536812 196.0
106.551193 140.0
106.575851 132.0
106.612839 92.0
106.637497 144.0
106.655998 168.0
106.758797 56.0
106.839012 128.0
106.873993 300.0
106.978951 140.0
107.015724 200.0
107.020813 144.0
107.06749 148.0
107.086815 188.0
107.131912 160.0
107.193153 240.0
107.21994 104.0
107.242615 196.0
107.279716 132.0
107.312706 152.0
107.331779 176.0
107.364258 28.0
107.405502 112.0
107.440575 120.0
107.465332 20.0
107.529305 184.0
107.59742 92.0
107.628387 128.0
107.690346 160.0
107.833679 160.0
107.923866 116.0
108.045891 96.0
108.134865 92.0
108.159706 184.0
108.23838 104.0
108.298576 180.0
108.339867 220.0
108.395805 172.0
108.476639 104.0
108.541969 156.0
108.609756 60.0
108.708931 156.0
108.727608 72.0
108.74836 148.0
108.806488 172.0
108.836563 296.0
108.885391 172.0
108.910614 112.0
108.933167 44.0
108.972633 124.0
108.995491 132.0
109.066154 148.0
109.086647 316.0
109.100906 212.0
109.112778 84.0
109.319885 152.0
109.398979 164.0
109.526001 188.0
109.632256 128.0
109.686447 176.0
109.721886 116.0
109.751694 188.0
109.88456 224.0
109.974251 196.0
109.999344 112.0
110.087029 144.0
110.166397 64.0
110.195648 144.0
110.30484 192.0
110.379585 148.0
110.406769 164.0
110.42141 128.0
110.454758 140.0
110.495018 128.0
110.549026 80.0
110.623665 204.0
110.716499 132.0
110.770958 136.0
110.81076 128.0
110.831711 164.0
110.854767 120.0
110.953278 140.0
111.018196 168.0
111.0812 176.0
111.144142 84.0
111.167221 148.0
111.219688 76.0
111.249077 128.0
111.354065 148.0
111.452797 172.0
111.61734 144.0
111.681946 188.0
111.696671 92.0
111.732437 112.0
111.806084 176.0
111.831337 236.0
111.897392 180.0
111.92823 148.0
111.96608 124.0
111.999779 96.0
112.075653 696.0
112.110039 132.0
112.182014 108.0
112.208405 128.0
112.294861 148.0
112.356033 108.0
112.372917 164.0
112.457321 56.0
112.535431 140.0
112.584 196.0
112.670311 208.0
112.708633 136.0
112.736099 76.0
112.763573 200.0
112.801956 200.0
112.854683 200.0
112.884079 76.0
112.900993 112.0
112.94281 228.0
113.063896 124.0
113.153397 184.0
113.269272 176.0
113.305283 136.0
113.337067 120.0
113.36673 136.0
113.404877 92.0
113.436676 148.0
113.483315 136.0
113.55117 56.0
113.585106 116.0
113.602081 160.0
113.616928 104.0
113.656059 172.0
113.695435 44.0
113.824928 116.0
113.884392 36.0
113.93644 72.0
113.969368 136.0
113.986366 160.0
114.02462 188.0
114.050125 60.0
114.077759 84.0
114.124138 196.0
114.154305 100.0
114.169189 152.0
114.262779 144.0
114.362793 132.0
114.388336 180.0
114.496925 132.0
114.575737 132.0
114.590652 140.0
114.637527 124.0
114.773956 200.0
114.788879 76.0
114.80381 108.0
114.861397 152.0
114.890854 276.0
114.923264 152.0
114.944595 52.0
114.959534 156.0
114.985146 192.0
115.057701 372.0
115.083344 208.0
115.183716 148.0
115.215759 124.0
115.267036 136.0
115.284134 136.0
115.311913 76.0
115.412384 108.0
115.478508 192.0
115.568527 260.0
115.607048 336.0
115.654129 144.0
115.677673 192.0
115.701225 148.0
115.731201 164.0
115.784737 104.0
115.921837 164.0
115.975006 168.0
116.014 128.0
116.054733 76.0
116.106201 96.0
116.130898 148.0
116.234085 176.0
116.275688 144.0
116.299294 108.0
116.396194 176.0
116.452789 172.0
116.460739 84.0
116.467964 188.0
116.510452 120.0
116.533371 184.0
116.599983 180.0
116.704086 112.0
116.745155 152.0
116.799942 216.0
116.850647 204.0
116.936768 132.0
116.967781 128.0
117.053902 180.0
117.069855 176.0
117.120667 160.0
117.293045 36.0
117.413788 204.0
117.487122 96.0
117.552841 140.0
117.625229 152.0
117.644661 180.0
117.677048 136.0
117.719925 160.0
117.872025 148.0
117.90818 144.0
117.929794 156.0
117.962212 164.0
118.018517 92.0
118.155739 180.0
118.223923 184.0
118.284523 108.0
118.338646 184.0
118.362923 188.0
118.38195 32.0
118.41227 160.0
118.449593 208.0
118.520584 60.0
118.594269 152.0
118.741707 148.0
118.772713 176.0
118.853493 120.0
118.954346 164.0
119.02816 140.0
119.049873 184.0
119.07811 128.0
119.122124 76.0
119.258438 112.0
119.334526 152.0
119.37883 192.0
119.421509 128.0
119.471542 100.0
119.545517 96.0
119.565331 156.0
119.684837 84.0
119.700073 128.0
119.745811 128.0
119.781227 184.0
119.81987 136.0
119.928825 112.0
119.958847 228.0
119.988319 152.0
120.018211 152.0
120.061821 136.0
120.175255 152.0
120.251633 216.0
120.294708 228.0
120.312813 172.0
120.393539 120.0
120.415375 196.0
120.461243 156.0
120.515862 184.0
120.533348 224.0
120.568871 140.0
120.638252 148.0
120.666672 132.0
120.804451 172.0
121.005791 140.0
121.058342 104.0
121.124046 144.0
121.143761 296.0
121.200722 100.0
121.224831 188.0
121.257706 148.0
121.284004 156.0
121.377632 232.0
121.45723 116.0
121.496712 72.0
121.534012 240.0
121.60643 204.0
121.7118 348.0
121.753525 176.0
121.777687 212.0
121.839188 164.0
121.862404 148.0
121.899246 168.0
121.933952 160.0
121.953453 112.0
121.988625 172.0
122.01281 96.0
122.056786 148.0
122.124954 56.0
122.142555 76.0
122.258316 240.0
122.347206 176.0
122.380859 168.0
122.450699 204.0
122.547623 184.0
122.68647 268.0
122.708519 232.0
122.727425 124.0
122.763718 124.0
122.798927 124.0
122.836426 136.0
123.156487 140.0
123.178581 104.0
123.232414 184.0
123.316505 152.0
123.583153 200.0
123.630302 168.0
123.660599 164.0
123.731438 148.0
123.791771 208.0
123.820007 108.0
123.853233 144.0
123.875381 148.0
123.921906 180.0
123.997246 140.0
124.014977 144.0
124.031761 128.0
124.174614 112.0
124.210106 148.0
124.262093 156.0
124.282616 216.0
124.327698 176.0
124.376526 140.0
124.4076 136.0
124.439423 180.0
124.455315 292.0
124.480873 152.0
124.566513 128.0
124.647469 124.0
124.72081 164.0
124.736374 116.0
124.791946 192.0
124.828758 140.0
124.916489 76.0
124.93206 140.0
125.115616 192.0
125.30162 164.0
125.328362 120.0
125.348412 192.0
125.379555 164.0
125.448708 188.0
125.488838 84.0
125.506676 76.0
125.644958 112.0
125.678421 152.0
125.758759 92.0
125.783318 180.0
125.819031 116.0
125.916443 128.0
125.939621 88.0
125.997467 156.0
126.015984 172.0
126.046852 128.0
126.093781 164.0
126.180962 140.0
126.203316 32.0
126.235947 196.0
126.256989 156.0
126.318008 212.0
126.340981 116.0
126.364357 124.0
126.40239 180.0
126.597145 56.0
126.630737 100.0
126.673294 140.0
126.731262 140.0
126.744987 280.0
126.792046 136.0
126.831345 412.0
126.863777 108.0
126.926552 180.0
126.944489 344.0
126.964676 168.0
127.065735 196.0
127.09478 148.0
127.123955 184.0
127.209297 168.0
127.242912 164.0
127.264336 132.0
127.415848 300.0
127.44281 128.0
127.516968 124.0
127.564171 152.0
127.579903 144.0
127.64286 144.0
127.710327 160.0
127.773315 100.0
127.793564 224.0
127.816811 204.0
127.849815 104.0
127.890327 136.0
127.906082 180.0
127.98938 128.0
128.057358 240.0
128.177963 176.0
128.282272 124.0
128.32962 120.0
128.413055 128.0
128.473953 80.0
128.561951 124.0
128.591293 80.0
128.627151 144.0
128.708679 144.0
128.731262 148.0
128.74707 160.0
128.814819 160.0
128.830643 32.0
128.869049 108.0
128.902939 152.0
128.936844 164.0
129.001663 104.0
129.069183 1232.0
129.110916 200.0
129.201385 164.0
129.300095 180.0
129.3349 96.0
129.362061 120.0
129.410278 164.0
129.445831 160.0
129.482285 172.0
129.558441 196.0
129.600983 180.0
129.629318 156.0
129.665588 84.0
129.717712 148.0
129.742645 220.0
129.793381 204.0
129.917282 156.0
129.967194 64.0
130.028458 48.0
130.088135 1324.0
130.106201 208.0
130.225906 116.0
130.266876 108.0
130.289581 104.0
130.362289 160.0
130.441849 188.0
130.539612 192.0
130.555527 84.0
130.62149 248.0
130.899155 124.0
130.972031 80.0
131.006195 224.0
131.028976 116.0
131.14064 112.0
131.167984 128.0
131.197617 164.0
131.224976 176.0
131.272858 180.0
131.30571 120.0
131.353439 196.0
131.386902 112.0
131.412003 80.0
131.456558 160.0
131.564911 56.0
131.637985 104.0
131.695572 128.0
131.756744 168.0
131.784164 164.0
131.843582 228.0
131.926743 176.0
131.95787 148.0
132.180267 120.0
132.261047 164.0
132.275864 200.0
132.330811 240.0
132.349121 52.0
132.376602 204.0
132.461349 168.0
132.514038 136.0
132.55986 276.0
132.586166 92.0
132.635498 124.0
132.693619 340.0
132.789108 64.0
132.812042 108.0
132.843033 192.0
132.947418 124.0
133.117294 160.0
133.17569 112.0
133.202271 104.0
133.234787 204.0
133.278076 124.0
133.298767 140.0
133.326263 136.0
133.349319 220.0
133.374603 164.0
133.471161 124.0
133.555878 188.0
133.772385 172.0
133.818588 104.0
133.963684 244.0
134.235657 92.0
134.261017 112.0
134.330551 164.0
134.385574 160.0
134.428131 144.0
134.551758 192.0
134.577148 132.0
134.646423 148.0
134.766556 156.0
134.792679 312.0
134.863602 128.0
135.011581 124.0
135.04422 208.0
135.07402 176.0
135.094849 96.0
135.154434 248.0
135.224426 120.0
135.247574 128.0
135.312378 180.0
135.386475 120.0
135.488403 136.0
135.511566 108.0
135.532425 136.0
135.634933 116.0
135.926605 176.0
135.956772 184.0
135.9823 224.0
136.075165 200.0
136.109985 172.0
136.216827 152.0
136.277222 124.0
136.326019 84.0
136.363205 180.0
136.381805 132.0
136.502686 112.0
136.528275 96.0
136.607346 180.0
136.644577 88.0
136.663193 152.0
136.681808 80.0
136.709732 256.0
136.730667 180.0
136.774887 168.0
136.809814 124.0
136.847794 128.0
136.898285 104.0
136.914597 120.0
136.961166 208.0
137.019409 144.0
137.042709 140.0
137.091644 140.0
137.264145 164.0
137.280472 108.0
137.296783 112.0
137.36676 36.0
137.39476 120.0
137.444855 196.0
137.520767 164.0
137.539444 116.0
137.618805 212.0
137.635162 52.0
137.690033 104.0
137.701157 136.0
137.880432 156.0
138.009003 140.0
138.06279 200.0
138.109573 168.0
138.184433 140.0
138.219528 216.0
138.343567 72.0
138.39975 308.0
138.462616 256.0
138.471481 216.0
138.509827 192.0
138.531891 184.0
138.706665 164.0
138.767609 140.0
138.793396 136.0
138.815613 136.0
138.85672 200.0
138.896591 184.0
138.917709 192.0
138.986328 160.0
139.058487 172.0
139.095642 164.0
139.222824 184.0
139.267456 124.0
139.28389 164.0
139.368469 52.0
139.415466 108.0
139.438965 168.0
139.457779 108.0
139.495377 60.0
139.554153 184.0
139.572968 48.0
139.632248 168.0
139.677963 152.0
139.770554 140.0
139.78801 160.0
139.840103 144.0
139.866531 204.0
139.904709 76.0
139.928253 172.0
140.015778 252.0
140.109589 136.0
140.154358 172.0
140.321701 140.0
140.397156 164.0
140.444321 172.0
140.515335 168.0
140.550491 188.0
140.670853 372.0
140.687378 116.0
140.845596 80.0
140.899933 208.0
140.940094 212.0
140.985275 200.0
141.070724 2512.0
141.112625 220.0
141.209579 108.0
141.266357 156.0
141.282913 164.0
141.395569 164.0
141.457382 248.0
141.476974 248.0
141.545639 168.0
141.595367 128.0
141.692474 60.0
141.737503 116.0
141.787262 96.0
141.837036 92.0
141.867859 156.0
141.971024 156.0
141.981186 80.0
141.990295 220.0
142.017899 200.0
142.074097 132.0
142.114502 108.0
142.182205 256.0
142.206863 144.0
142.275894 276.0
142.330505 216.0
142.351868 232.0
142.381958 84.0
142.41124 292.0
142.495361 204.0
142.518143 124.0
142.541901 108.0
142.570419 232.0
142.613205 76.0
142.65123 96.0
142.68927 144.0
142.717804 164.0
142.761948 348.0
142.831955 80.0
142.867645 120.0
142.896194 124.0
142.984894 172.0
143.041351 156.0
143.086533 196.0
143.181839 124.0
143.350983 176.0
143.428711 168.0
143.486832 144.0
143.510681 56.0
143.529755 92.0
143.551224 168.0
143.569443 156.0
143.603409 172.0
143.646622 36.0
143.715805 156.0
143.866165 256.0
143.990326 228.0
144.092361 168.0
144.17189 188.0
144.223373 104.0
144.344009 212.0
144.372711 184.0
144.410965 80.0
144.465988 116.0
144.499481 76.0
144.523407 160.0
144.549728 72.0
144.628708 200.0
144.722076 216.0
144.743622 108.0
144.777145 128.0
144.801102 144.0
144.85379 160.0
144.872955 204.0
144.913681 152.0
144.94722 148.0
145.067032 324.0
145.099426 124.0
145.191742 224.0
145.221939 292.0
145.280487 112.0
145.32663 120.0
145.39859 200.0
145.556503 148.0
145.645355 196.0
145.727036 104.0
145.852005 168.0
145.98381 136.0
146.02272 108.0
146.046768 72.0
146.121277 140.0
146.171005 156.0
146.326813 32.0
146.384445 156.0
146.41983 104.0
146.470398 160.0
146.513763 148.0
146.574005 164.0
146.60051 120.0
146.631836 156.0
146.651123 72.0
146.749954 132.0
146.774063 212.0
146.810242 184.0
146.879715 164.0
146.918396 204.0
146.949921 172.0
146.987015 156.0
147.053253 264.0
147.127563 124.0
147.15358 164.0
147.182037 148.0
147.234985 96.0
147.27121 44.0
147.314682 56.0
147.365417 176.0
147.487396 120.0
147.558777 164.0
147.580536 156.0
147.61438 148.0
147.643402 204.0
147.715973 372.0
147.742569 100.0
147.78833 132.0
147.797012 120.0
147.981186 208.0
148.028183 124.0
148.150665 196.0
148.27771 176.0
148.357697 148.0
148.394058 184.0
148.486206 116.0
148.580811 108.0
148.755539 192.0
148.827713 148.0
148.841217 152.0
148.85994 180.0
148.903641 88.0
148.927933 176.0
148.954651 88.0
148.98381 44.0
149.166061 144.0
149.204956 184.0
149.275024 140.0
149.360748 304.0
149.431137 132.0
149.453033 116.0
149.470078 188.0
149.53334 140.0
149.561127 232.0
149.609283 164.0
149.708633 140.0
149.774872 220.0
149.806061 164.0
149.887161 124.0
149.962006 44.0
149.996124 120.0
150.015625 116.0
150.071701 156.0
150.110718 136.0
150.149734 52.0
150.43277 256.0
150.474274 128.0
150.493805 124.0
150.586609 132.0
150.608582 84.0
150.637894 236.0
150.667206 124.0
150.780563 216.0
150.811386 96.0
150.855392 124.0
151.049622 112.0
151.077927 124.0
151.139084 172.0
151.166 164.0
151.195374 180.0
151.274918 304.0
151.41571 76.0
151.53833 180.0
151.594543 84.0
151.626404 176.0
151.711853 144.0
151.792633 284.0
151.836212 236.0
151.940262 72.0
152.035965 180.0
152.058899 148.0
152.114502 164.0
152.153778 140.0
152.210251 56.0
152.283936 52.0
152.301117 192.0
152.381195 184.0
152.507523 168.0
152.650116 196.0
152.69516 172.0
152.743561 144.0
152.77063 164.0
152.889679 176.0
152.924118 116.0
152.969742 188.0
153.004425 148.0
153.06752 152.0
153.123703 168.0
153.198975 208.0
153.233459 116.0
153.283096 188.0
153.314774 44.0
153.386246 160.0
153.419296 128.0
153.457153 168.0
153.575836 72.0
153.793304 180.0
153.859894 120.0
153.89119 212.0
153.941376 156.0
153.978424 136.0
154.037689 212.0
154.075928 344.0
154.121689 140.0
154.146957 152.0
154.294708 120.0
154.39856 60.0
154.51976 48.0
154.537811 172.0
154.60321 244.0
154.65834 116.0
154.681854 80.0
154.699951 212.0
154.72023 188.0
154.787079 128.0
154.804413 180.0
154.990509 220.0
155.023132 68.0
155.049667 136.0
155.084045 288.0
155.128983 172.0
155.257919 44.0
155.302551 116.0
155.33728 156.0
155.412949 144.0
155.431564 144.0
155.496078 88.0
155.64006 168.0
155.6987 156.0
155.73941 136.0
155.801498 272.0
155.925751 144.0
155.958054 144.0
156.000946 172.0
156.030151 156.0
156.081192 408.0
156.201736 128.0
156.266418 212.0
156.304977 200.0
156.375916 56.0
156.395813 68.0
156.420715 92.0
156.470505 152.0
156.679703 108.0
156.702118 120.0
156.765808 196.0
156.814255 196.0
156.839188 152.0
156.903992 124.0
156.928925 192.0
156.958847 136.0
156.991272 132.0
157.008728 88.0
157.063538 1816.0
157.195831 96.0
157.216934 208.0
157.40036 136.0
157.470444 128.0
157.520401 148.0
157.550369 224.0
157.690308 80.0
157.740295 92.0
157.785294 220.0
157.895691 212.0
158.003235 224.0
158.022888 68.0
158.065109 480.0
158.102966 124.0
158.120483 136.0
158.245636 144.0
158.338287 96.0
158.425964 124.0
158.451004 160.0
158.476059 100.0
158.518661 96.0
158.551239 96.0
158.638306 212.0
158.66655 124.0
158.806976 48.0
158.909912 116.0
158.965988 220.0
159.079407 216.0
159.185928 156.0
159.233643 104.0
159.253738 192.0
159.276337 64.0
159.330627 184.0
159.39212 192.0
159.414581 172.0
159.437134 176.0
159.482376 124.0
159.572876 148.0
159.697708 144.0
159.718735 172.0
159.75647 132.0
159.864655 72.0
159.889832 140.0
159.920029 148.0
159.940155 152.0
160.001038 152.0
160.030792 164.0
160.053452 108.0
160.083664 144.0
160.103821 140.0
160.128998 216.0
160.146637 188.0
160.184036 136.0
160.236954 168.0
160.285873 176.0
160.335587 44.0
160.414169 180.0
160.451538 144.0
160.476746 128.0
160.54483 132.0
160.605362 96.0
160.623016 204.0
160.650772 136.0
160.764313 104.0
160.802231 144.0
160.832458 288.0
160.850128 128.0
160.877884 64.0
160.92334 136.0
160.968781 124.0
161.07753 204.0
161.196136 432.0
161.241135 552.0
161.279526 108.0
161.362946 68.0
161.393295 176.0
161.431717 164.0
161.486862 180.0
161.512146 128.0
161.537445 188.0
161.603226 164.0
161.638657 68.0
161.681671 92.0
161.710876 192.0
161.757599 152.0
161.795578 320.0
161.939911 164.0
161.970306 160.0
162.010834 216.0
162.060318 188.0
162.162872 192.0
162.185684 244.0
162.29216 152.0
162.365479 136.0
162.382584 152.0
162.48999 96.0
162.555511 136.0
162.565018 112.0
162.611786 128.0
162.629562 136.0
162.672714 80.0
162.724503 320.0
162.774261 120.0
162.807281 68.0
162.941895 180.0
163.025757 116.0
163.099457 156.0
163.117249 144.0
163.168091 92.0
163.190979 144.0
163.2164 136.0
163.328125 224.0
163.363907 180.0
163.409363 128.0
163.461349 264.0
163.53949 180.0
163.660553 180.0
163.725342 108.0
163.824677 192.0
163.929138 128.0
163.974579 236.0
163.995407 116.0
164.059128 60.0
164.291199 176.0
164.390701 140.0
164.525986 140.0
164.668976 116.0
164.699631 148.0
164.750717 136.0
164.82225 128.0
165.008835 148.0
165.06955 668.0
165.131577 372.0
165.188553 148.0
165.278732 144.0
165.324783 184.0
165.349045 152.0
165.410477 44.0
165.46936 116.0
165.502823 176.0
165.574524 276.0
165.59227 144.0
165.615326 84.0
165.658875 144.0
165.73317 120.0
165.756226 116.0
165.794662 88.0
165.825424 192.0
166.073608 248.0
166.176743 272.0
166.287079 264.0
166.394897 108.0
166.474487 188.0
166.50531 116.0
166.574661 124.0
166.636307 196.0
166.662003 212.0
166.68425 136.0
166.751953 236.0
166.860947 120.0
166.912994 168.0
166.924103 108.0
166.930527 164.0
167.033112 172.0
167.085617 476.0
167.196884 140.0
167.266068 208.0
167.42601 144.0
167.472366 140.0
167.490387 188.0
167.564926 180.0
167.575882 176.0
167.580994 212.0
167.760956 36.0
167.808868 216.0
167.829697 156.0
167.869247 156.0
167.887817 100.0
167.941467 224.0
168.002975 132.0
168.029175 152.0
168.093857 160.0
168.142715 88.0
168.168518 140.0
168.212402 132.0
168.320694 212.0
168.3983 276.0
168.42366 172.0
168.499054 52.0
168.57399 144.0
168.596664 108.0
168.705795 204.0
168.738983 72.0
168.858353 80.0
168.907501 140.0
168.94371 88.0
168.984207 172.0
169.060806 308.0
169.106995 164.0
169.14032 176.0
169.206543 180.0
169.246521 100.0
169.267242 200.0
169.339752 148.0
169.381195 108.0
169.417465 260.0
169.476059 260.0
169.52887 108.0
169.61441 68.0
169.64032 52.0
169.686996 72.0
169.839996 104.0
169.899658 52.0
169.941162 204.0
170.073013 148.0
170.192932 144.0
170.211105 104.0
170.242279 92.0
170.278625 172.0
170.342026 128.0
170.369537 108.0
170.387726 160.0
170.437088 176.0
170.457886 164.0
170.574829 148.0
170.638626 112.0
170.694427 324.0
170.728241 156.0
170.759445 52.0
170.793259 128.0
170.915527 156.0
170.943115 140.0
170.995834 140.0
171.034531 216.0
171.080643 1436.0
171.147186 120.0
171.175827 196.0
171.353226 76.0
171.397247 148.0
171.492172 216.0
171.553131 172.0
171.60054 148.0
171.652695 184.0
171.751801 176.0
171.790405 220.0
171.810059 96.0
171.830063 164.0
171.87442 196.0
171.989243 100.0
172.021194 168.0
172.081696 188.0
172.186905 136.0
172.328735 192.0
172.354858 104.0
172.450409 348.0
172.493057 200.0
172.501633 176.0
172.512268 228.0
172.543045 168.0
172.577042 52.0
172.65184 164.0
172.74501 124.0
172.897858 124.0
172.952621 116.0
172.987778 112.0
173.054901 268.0
173.108215 40.0
173.139633 176.0
173.160599 132.0
173.306625 188.0
173.455154 232.0
173.483521 116.0
173.558914 168.0
173.598251 128.0
173.645462 180.0
173.674301 356.0
173.745132 144.0
173.787109 148.0
173.865829 212.0
173.884201 116.0
173.91832 148.0
173.960327 164.0
174.044342 260.0
174.062714 100.0
174.162521 120.0
174.186157 160.0
174.299118 92.0
174.338547 68.0
174.380585 220.0
174.49437 192.0
174.535629 164.0
174.561996 192.0
174.629333 172.0
174.722427 172.0
174.827682 180.0
174.864532 176.0
174.888214 124.0
174.92244 88.0
174.975784 376.0
175.004044 128.0
175.057236 160.0
175.095245 152.0
175.169968 80.0
175.214752 120.0
175.266617 64.0
175.288528 88.0
175.312241 168.0
175.335953 68.0
175.486206 216.0
175.58905 92.0
175.64444 96.0
175.681366 172.0
175.765793 180.0
175.784271 200.0
175.826492 216.0
175.884552 96.0
175.932068 112.0
175.976959 96.0
176.101074 68.0
176.194763 160.0
176.2173 148.0
176.309784 204.0
176.399658 88.0
176.439301 140.0
176.486893 144.0
176.553009 188.0
176.592682 144.0
176.616486 188.0
176.648224 192.0
176.73288 348.0
176.802399 192.0
176.837524 104.0
176.898804 196.0
176.936676 160.0
176.974747 136.0
177.024048 204.0
177.090256 164.0
177.144684 220.0
177.238617 164.0
177.257172 120.0
177.33667 116.0
177.379074 128.0
177.471863 128.0
177.593857 164.0
177.617722 116.0
177.644257 116.0
177.774261 124.0
177.806107 104.0
177.827347 164.0
177.868988 168.0
177.87851 116.0
177.886856 200.0
177.962723 184.0
178.034424 276.0
178.083435 212.0
178.138 148.0
178.201767 160.0
178.252838 200.0
178.314865 220.0
178.324341 252.0
178.390457 152.0
178.46489 220.0
178.510101 168.0
178.61116 224.0
178.746841 148.0
178.765472 172.0
178.784103 176.0
178.871933 216.0
178.919846 172.0
178.980637 188.0
179.002396 88.0
179.047668 176.0
179.085388 512.0
179.210159 144.0
179.244202 196.0
179.338074 144.0
179.381973 220.0
179.415375 144.0
179.562027 128.0
179.59404 104.0
179.633652 248.0
179.663925 140.0
179.716751 84.0
179.82164 184.0
179.860107 300.0
179.917892 120.0
179.991684 132.0
180.096039 596.0
180.138565 104.0
180.190308 208.0
180.210693 128.0
180.256119 52.0
180.344315 208.0
180.387085 148.0
180.432007 180.0
180.620407 188.0
180.712677 172.0
180.740112 132.0
180.784363 188.0
180.815048 160.0
180.832642 192.0
180.930328 280.0
180.991714 148.0
181.064102 416.0
181.100037 424.0
181.187012 140.0
181.214035 132.0
181.275665 56.0
181.326584 88.0
181.377502 228.0
181.409668 124.0
181.456543 148.0
181.508865 128.0
181.557144 188.0
181.632233 144.0
181.656387 80.0
181.723175 196.0
181.764755 172.0
181.866608 172.0
181.918915 260.0
181.948898 120.0
181.978424 184.0
182.04158 216.0
182.0728 320.0
182.101959 116.0
182.161041 120.0
182.179855 184.0
182.204025 244.0
182.238953 152.0
182.2845 84.0
182.462036 140.0
182.496979 108.0
182.518494 208.0
182.552399 176.0
182.577652 112.0
182.609924 132.0
182.682556 204.0
182.817078 156.0
182.983963 132.0
183.074936 664.0
183.117737 184.0
183.167084 60.0
183.19133 108.0
183.282944 136.0
183.315277 40.0
183.352997 128.0
183.412292 108.0
183.437714 176.0
183.456421 120.0
183.549988 168.0
183.616333 148.0
183.668457 116.0
183.722412 192.0
183.768265 96.0
183.836319 184.0
183.932892 140.0
183.96875 168.0
184.03093 164.0
184.082291 272.0
184.108688 364.0
184.158005 96.0
184.221832 172.0
184.430084 164.0
184.460922 84.0
184.486664 152.0
184.508286 172.0
184.578583 148.0
184.629959 244.0
184.670532 164.0
184.713806 136.0
184.830139 160.0
184.854492 116.0
184.87886 152.0
184.903214 80.0
184.957794 144.0
185.062103 132.0
185.0923 132.0
185.163116 156.0
185.228119 188.0
185.320236 232.0
185.345978 80.0
185.439468 196.0
185.482834 128.0
185.534332 144.0
185.596695 172.0
185.687943 148.0
185.775696 160.0
185.98674 68.0
186.027557 168.0
186.065445 312.0
186.123169 136.0
186.295364 192.0
186.34581 132.0
186.39473 44.0
186.441666 244.0
186.503433 164.0
186.677429 176.0
186.858551 176.0
186.911362 148.0
186.973953 204.0
187.082733 292.0
187.151154 148.0
187.224426 68.0
187.248932 176.0
187.303406 108.0
187.396027 148.0
187.445068 140.0
187.469193 188.0
187.521378 244.0
187.589523 144.0
187.720398 208.0
187.794037 172.0
187.910599 148.0
187.993195 48.0
188.083252 152.0
188.102356 180.0
188.165756 128.0
188.400009 152.0
188.465591 184.0
188.599503 240.0
188.640503 244.0
188.768997 144.0
188.845581 256.0
188.938583 172.0
189.004242 208.0
189.067123 180.0
189.110977 128.0
189.16571 156.0
189.25058 184.0
189.272491 124.0
189.371078 316.0
189.480972 200.0
189.560104 208.0
189.579285 44.0
189.64064 176.0
189.673553 132.0
189.72641 160.0
189.787613 244.0
189.886703 120.0
189.957657 208.0
189.978333 172.0
190.020752 140.0
190.125031 36.0
190.166199 96.0
190.253815 156.0
190.418777 72.0
190.451324 132.0
190.460175 112.0
190.468765 140.0
190.49295 196.0
190.62207 136.0
190.737091 208.0
190.756119 228.0
190.965729 172.0
190.995972 180.0
191.078506 128.0
191.205078 104.0
191.227097 144.0
191.320694 76.0
191.455612 220.0
191.528854 196.0
191.603577 128.0
191.695282 52.0
191.717316 60.0
191.937851 168.0
191.957153 60.0
191.976456 180.0
192.086777 100.0
192.127991 128.0
192.213684 144.0
192.241287 156.0
192.271637 180.0
192.290955 124.0
192.32132 144.0
192.350418 180.0
192.406219 148.0
192.46582 256.0
192.491394 192.0
192.51181 144.0
192.536667 156.0
192.602951 272.0
192.774246 164.0
192.868225 136.0
192.937332 160.0
192.967743 192.0
193.061752 128.0
193.101685 460.0
193.213882 40.0
193.262619 176.0
193.371613 136.0
193.390976 52.0
193.450409 120.0
193.554321 148.0
193.606857 156.0
193.631851 156.0
193.695557 172.0
193.743668 88.0
193.778778 104.0
193.814697 164.0
193.911682 180.0
193.932602 144.0
193.989288 100.0
194.072113 64.0
194.085007 148.0
194.102737 284.0
194.161194 208.0
194.246323 168.0
194.283249 120.0
194.302673 136.0
194.410873 124.0
194.491364 152.0
194.577713 120.0
194.626083 124.0
194.754776 148.0
194.794037 140.0
194.857925 148.0
194.890701 196.0
194.932419 148.0
194.96907 220.0
195.080093 460.0
195.111404 332.0
195.138641 164.0
195.202591 52.0
195.274017 140.0
195.305496 212.0
195.369476 116.0
195.419556 220.0
195.464066 164.0
195.500244 180.0
195.611572 192.0
195.685059 164.0
195.736862 140.0
195.767487 208.0
195.820404 148.0
195.85083 204.0
195.880859 172.0
195.920685 168.0
195.966431 104.0
196.037704 132.0
196.077805 204.0
196.149185 200.0
196.207733 88.0
196.283005 176.0
196.369461 52.0
196.433624 148.0
196.534058 220.0
196.667999 160.0
196.754547 184.0
196.841095 136.0
196.913712 148.0
196.984543 144.0
197.005875 144.0
197.041702 232.0
197.065796 292.0
197.094238 316.0
197.13353 180.0
197.175491 188.0
197.207077 168.0
197.296524 108.0
197.324478 124.0
197.34964 136.0
197.374802 84.0
197.423691 116.0
197.520233 188.0
197.54541 228.0
197.618149 40.0
197.66571 100.0
197.839249 208.0
197.895233 172.0
197.928833 128.0
198.007248 176.0
198.035248 88.0
198.067261 232.0
198.102478 76.0
198.245895 192.0
198.267227 176.0
198.356689 156.0
198.374832 64.0
198.384064 124.0
198.424759 116.0
198.525711 164.0
198.550949 164.0
198.618256 128.0
198.651917 244.0
198.696808 136.0
198.722061 108.0
198.786591 184.0
199.016769 244.0
199.03923 124.0
199.072678 116.0
199.106552 148.0
199.162796 112.0
199.183914 180.0
199.213364 168.0
199.244263 180.0
199.272354 120.0
199.303268 172.0
199.322937 204.0
199.429733 140.0
199.485947 56.0
199.547791 108.0
199.665894 132.0
199.697983 236.0
199.764343 88.0
199.798096 192.0
199.820602 224.0
199.950043 148.0
199.978195 140.0
200.020416 168.0
200.073898 220.0
200.107681 168.0
200.217499 208.0
200.261795 176.0
200.316086 136.0
200.377884 192.0
200.476669 96.0
200.505844 148.0
200.538681 88.0
200.58606 220.0
200.623245 176.0
200.786789 220.0
200.908066 140.0
201.061035 440.0
201.130997 208.0
201.168213 152.0
201.199356 148.0
201.277802 260.0
201.295334 184.0
201.3936 92.0
201.421844 92.0
201.597015 208.0
201.643692 208.0
201.670486 196.0
201.734131 256.0
201.758118 116.0
201.805725 148.0
201.83046 300.0
201.998489 132.0
202.176743 156.0
202.287125 156.0
202.34375 168.0
202.389053 92.0
202.442398 128.0
202.522141 176.0
202.564636 140.0
202.632629 100.0
202.652466 168.0
202.688187 224.0
202.726135 172.0
202.796982 124.0
202.913208 148.0
202.964249 112.0
202.998276 204.0
203.088242 148.0
203.11171 76.0
203.162781 76.0
203.196823 228.0
203.225189 40.0
203.290833 120.0
203.396423 156.0
203.45224 176.0
203.472107 152.0
203.523224 64.0
203.567123 140.0
203.682251 140.0
203.707825 188.0
203.801727 152.0
203.835678 172.0
203.86409 88.0
203.903885 148.0
204.003357 80.0
204.031784 276.0
204.136368 180.0
204.259293 92.0
204.319031 156.0
204.424301 100.0
204.526764 104.0
204.563766 136.0
204.600769 56.0
204.864944 184.0
204.945389 148.0
205.005234 108.0
205.067932 164.0
205.098419 172.0
205.122177 136.0
205.189117 188.0
205.233276 92.0
205.298859 196.0
205.507095 124.0
205.584137 156.0
205.60817 208.0
205.657272 96.0
205.683243 216.0
205.758255 100.0
205.806793 108.0
205.835342 80.0
205.869614 128.0
205.938156 140.0
205.998138 304.0
206.023849 152.0
206.126312 124.0
206.160995 204.0
206.229584 124.0
206.282959 256.0
206.369659 76.0
206.479797 148.0
206.587021 164.0
206.629929 156.0
206.67334 188.0
206.721497 112.0
206.775864 156.0
206.795898 136.0
206.835968 164.0
206.878906 100.0
206.907532 192.0
206.941895 124.0
206.96167 44.0
206.98114 136.0
207.019211 64.0
207.044983 172.0
207.074326 208.0
207.109512 128.0
207.120224 176.0
207.191071 320.0
207.285614 68.0
207.423187 112.0
207.46991 148.0
207.53212 128.0
207.580872 180.0
207.672638 164.0
207.715668 232.0
207.741486 272.0
207.775909 224.0
207.79599 164.0
207.816071 168.0
207.899292 96.0
207.930862 212.0
208.017517 208.0
208.08667 272.0
208.127121 196.0
208.232895 196.0
208.286896 32.0
208.312744 152.0
208.416168 76.0
208.467896 64.0
208.523285 132.0
208.568481 156.0
208.592514 176.0
208.631729 128.0
208.68634 160.0
208.79274 156.0
208.867523 136.0
208.922333 232.0
208.988358 128.0
209.01712 240.0
209.044495 384.0
209.093933 424.0
209.138779 200.0
209.22995 136.0
209.431686 128.0
209.483536 116.0
209.522049 196.0
209.670822 132.0
209.70253 216.0
209.765381 132.0
209.797653 144.0
209.852417 116.0
209.872604 144.0
209.912979 120.0
209.938934 156.0
209.967773 64.0
210.008148 128.0
210.071609 344.0
210.098389 212.0
210.259155 152.0
210.491287 136.0
210.503296 56.0
210.508865 112.0
210.594055 164.0
210.61496 180.0
210.816513 92.0
210.874313 256.0
210.923462 144.0
211.012085 164.0
211.040115 176.0
211.074448 5992.0
211.11203 1636.0
211.157654 44.0
211.248428 52.0
211.277298 100.0
211.358505 176.0
211.409348 128.0
211.46077 208.0
211.522232 124.0
211.655396 148.0
211.675674 276.0
211.70752 100.0
211.744186 164.0
211.863083 176.0
211.924774 84.0
211.961441 104.0
211.994324 140.0
212.031998 116.0
212.077454 1232.0
212.156036 156.0
212.194321 164.0
212.263901 160.0
212.290009 56.0
212.310303 192.0
212.406021 200.0
212.487244 216.0
212.522064 152.0
212.556885 212.0
212.687485 180.0
212.74411 172.0
212.827744 280.0
212.917236 148.0
212.950485 144.0
212.998169 208.0
213.083542 104.0
213.089874 340.0
213.146347 128.0
213.228607 168.0
213.252594 164.0
213.370148 160.0
213.405746 164.0
213.460281 128.0
213.486969 180.0
213.591156 100.0
213.612488 204.0
213.671631 120.0
213.716248 168.0
213.747955 168.0
213.786087 80.0
213.841385 176.0
213.940353 168.0
214.056808 108.0
214.093994 156.0
214.122314 148.0
214.158737 120.0
214.205338 44.0
214.249039 156.0
214.29274 120.0
214.313141 172.0
214.374329 116.0
214.447189 116.0
214.483627 176.0
214.520065 152.0
214.555038 108.0
214.683334 144.0
214.706665 168.0
214.73291 64.0
214.844986 200.0
214.884598 232.0
214.911179 112.0
214.972137 52.0
215.067307 628.0
215.109314 156.0
215.141159 224.0
215.231934 144.0
215.275742 136.0
215.310776 128.0
215.357513 192.0
215.47728 192.0
215.5065 144.0
215.526947 48.0
215.588318 176.0
215.638 184.0
215.667221 152.0
215.753189 332.0
215.822159 68.0
215.871872 224.0
215.893845 160.0
216.012253 108.0
216.068787 156.0
216.149765 124.0
216.173172 176.0
216.196594 56.0
216.237564 148.0
216.322449 132.0
216.366364 180.0
216.386856 196.0
216.430771 224.0
216.46489 196.0
216.561203 156.0
216.61528 188.0
216.823303 100.0
216.881927 168.0
217.093536 156.0
217.137009 96.0
217.213455 64.0
217.326431 160.0
217.52092 128.0
217.58493 160.0
217.596573 104.0
217.609833 224.0
217.659363 108.0
217.799362 160.0
218.03537 124.0
218.061829 120.0
218.115005 220.0
218.202927 188.0
218.249969 208.0
218.279373 120.0
218.308777 104.0
218.375854 184.0
218.399948 156.0
218.426422 112.0
218.471237 120.0
218.517624 96.0
218.538208 232.0
218.579407 140.0
218.646362 116.0
218.700073 164.0
218.764832 144.0
218.80899 192.0
218.890152 176.0
218.965057 180.0
219.048813 156.0
219.083893 184.0
219.13295 172.0
219.165375 108.0
219.221359 128.0
219.243622 108.0
219.280289 168.0
219.34053 212.0
219.383469 164.0
219.513199 100.0
219.545624 148.0
219.592819 132.0
219.628204 96.0
219.657715 88.0
219.69397 192.0
219.744553 156.0
219.778671 228.0
219.938034 228.0
220.020248 140.0
220.083633 512.0
220.126083 252.0
220.174225 124.0
220.21936 164.0
220.277603 80.0
220.341461 236.0
220.440094 188.0
220.530472 152.0
220.558319 148.0
220.658829 164.0
220.68544 84.0
220.898376 172.0
221.004868 128.0
221.061096 184.0
221.095428 448.0
221.152328 164.0
221.185394 264.0
221.226837 224.0
221.253479 60.0
221.389694 68.0
221.43602 124.0
221.47261 112.0
221.543716 356.0
221.59111 92.0
221.632599 168.0
221.689377 124.0
221.763123 156.0
221.933594 160.0
221.994232 184.0
222.092361 136.0
222.124725 48.0
222.204819 208.0
222.270096 156.0
222.344284 188.0
222.445206 76.0
222.474884 60.0
222.519043 192.0
222.558014 152.0
222.706512 172.0
222.765823 144.0
222.80751 156.0
222.896637 76.0
222.948746 112.0
223.029922 160.0
223.076462 452.0
223.111252 464.0
223.152252 104.0
223.202805 116.0
223.285385 176.0
223.330688 140.0
223.416946 140.0
223.44075 176.0
223.485565 124.0
223.530014 144.0
223.607391 196.0
223.655014 140.0
223.675842 132.0
223.762177 136.0
223.800598 208.0
223.848648 100.0
223.890213 140.0
223.941483 148.0
224.000412 136.0
224.078262 120.0
224.111725 200.0
224.220901 136.0
224.258087 132.0
224.290985 288.0
224.314926 168.0
224.348572 144.0
224.386414 136.0
224.450439 244.0
224.522018 200.0
224.584641 136.0
224.623413 44.0
224.683945 152.0
224.763641 72.0
224.803619 100.0
224.838242 88.0
224.871078 120.0
224.891968 180.0
224.918823 120.0
224.959442 304.0
225.047195 120.0
225.090164 956.0
225.126724 716.0
225.161102 140.0
225.192474 96.0
225.211441 140.0
225.307037 128.0
225.424866 140.0
225.474365 96.0
225.552078 60.0
225.578979 108.0
225.728668 124.0
225.848099 112.0
225.875015 132.0
225.985703 184.0
226.019196 124.0
226.086594 152.0
226.115372 160.0
226.168259 248.0
226.255066 220.0
226.32692 168.0
226.380814 124.0
226.416763 292.0
226.446701 136.0
226.566528 140.0
226.599472 160.0
226.695358 80.0
226.716339 76.0
226.767288 120.0
226.836227 148.0
226.865646 124.0
226.890182 112.0
226.926163 192.0
226.983139 184.0
227.013123 132.0
227.085098 44.0
227.166092 216.0
227.268097 176.0
227.334106 32.0
227.409134 164.0
227.472168 84.0
227.574234 136.0
227.62529 200.0
227.703659 164.0
227.790466 184.0
227.844543 52.0
227.976746 208.0
228.063904 116.0
228.102982 120.0
228.19017 228.0
228.232986 164.0
228.29541 284.0
228.373596 108.0
228.433762 160.0
228.536041 120.0
228.667664 168.0
228.720261 188.0
228.797607 128.0
228.879181 148.0
228.903275 108.0
228.93338 152.0
228.970779 200.0
229.065903 116.0
229.099045 104.0
229.135193 144.0
229.200516 112.0
229.218094 156.0
229.249695 44.0
229.276825 104.0
229.355179 240.0
229.394363 188.0
229.421494 144.0
229.485184 128.0
229.548126 144.0
229.57225 188.0
229.626236 196.0
229.658798 92.0
229.747192 192.0
229.858826 172.0
230.046509 216.0
230.134872 164.0
230.209 112.0
230.247314 244.0
230.2845 68.0
230.323761 220.0
230.375107 184.0
230.457077 152.0
230.526184 136.0
230.562454 60.0
230.655502 152.0
230.706116 120.0
230.783112 156.0
230.83754 144.0
230.870804 84.0
230.925247 112.0
230.970917 148.0
231.004822 116.0
231.049271 164.0
231.118149 188.0
231.209641 220.0
231.248978 176.0
231.367035 168.0
231.438568 128.0
231.49118 124.0
231.534073 120.0
231.627472 100.0
231.697144 164.0
231.76683 204.0
231.83046 280.0
231.851669 76.0
231.924408 164.0
231.948654 140.0
232.009293 92.0
232.089676 132.0
232.133606 168.0
232.209412 248.0
232.318619 124.0
232.35199 184.0
232.433853 224.0
232.576538 204.0
232.797974 188.0
232.852844 72.0
232.905365 200.0
232.943954 136.0
232.997269 168.0
233.035095 112.0
233.101944 80.0
233.16272 172.0
233.34581 172.0
233.39679 76.0
233.467484 164.0
233.542038 200.0
233.573181 72.0
233.828415 172.0
233.923126 36.0
233.990097 148.0
234.070038 156.0
234.151657 140.0
234.210556 136.0
234.236771 56.0
234.270279 164.0
234.297699 72.0
234.355591 156.0
234.474426 64.0
234.526245 152.0
234.565872 88.0
234.632935 116.0
234.690857 200.0
234.733551 116.0
234.893799 236.0
234.934845 188.0
234.989761 172.0
235.026382 248.0
235.07457 156.0
235.11499 424.0
235.201874 136.0
235.347595 236.0
235.643127 140.0
235.676743 220.0
235.743973 140.0
235.770554 120.0
235.77977 84.0
235.788376 180.0
235.829544 48.0
235.868637 180.0
235.93959 152.0
235.979324 212.0
236.03743 216.0
236.074127 196.0
236.113876 152.0
236.191284 208.0
236.294357 136.0
236.356247 160.0
236.383087 88.0
236.422867 192.0
236.468765 192.0
236.496323 52.0
236.520813 224.0
236.551422 148.0
236.582031 72.0
236.658569 164.0
236.753494 180.0
236.876007 160.0
236.900513 112.0
236.959183 132.0
236.986298 84.0
237.032257 88.0
237.087051 188.0
237.139511 144.0
237.182892 188.0
237.203384 172.0
237.23761 176.0
237.292786 116.0
237.360245 160.0
237.390915 72.0
237.443039 176.0
237.482071 160.0
237.525864 188.0
237.685394 144.0
237.711548 168.0
237.740631 84.0
237.771317 60.0
237.792801 72.0
237.826553 160.0
237.881805 184.0
237.909439 88.0
237.954437 152.0
237.984192 188.0
238.016891 200.0
238.058426 176.0
238.094864 720.0
238.149948 124.0
238.172348 128.0
238.213455 124.0
238.311768 216.0
238.342499 92.0
238.400879 116.0
238.447205 160.0
238.469467 156.0
238.561859 192.0
238.592209 132.0
238.635696 148.0
238.675232 128.0
238.73288 148.0
238.763641 76.0
238.794388 128.0
238.815918 120.0
238.839523 320.0
238.886032 116.0
238.945114 164.0
239.002121 172.0
239.039902 204.0
239.069809 1612.0
239.107407 24736.0
239.181198 168.0
239.220383 172.0
239.249802 56.0
239.284271 224.0
239.325867 136.0
239.360641 152.0
239.383377 128.0
239.425308 96.0
239.488251 64.0
239.511688 160.0
239.543518 148.0
239.597794 88.0
239.647903 76.0
239.710541 192.0
239.744278 148.0
239.918304 380.0
239.971313 268.0
239.999191 68.0
240.06749 532.0
240.110046 3732.0
240.18042 48.0
240.232239 120.0
240.254593 92.0
240.285309 68.0
240.355713 176.0
240.442764 132.0
240.464279 180.0
240.524307 80.0
240.547623 160.0
240.634064 212.0
240.686554 268.0
240.751022 100.0
240.819336 92.0
240.961441 144.0
240.989243 132.0
241.026321 76.0
241.11232 360.0
241.156113 132.0
241.188019 124.0
241.258118 88.0
241.282852 56.0
241.313766 144.0
241.366501 76.0
241.425095 60.0
241.454834 188.0
241.499313 164.0
241.5793 168.0
241.623047 228.0
241.762299 76.0
241.802521 68.0
241.842056 140.0
241.861557 164.0
241.920151 276.0
241.962387 68.0
242.026871 152.0
242.071854 160.0
242.121231 228.0
242.128586 212.0
242.198837 40.0
242.22052 56.0
242.24765 184.0
242.341339 112.0
242.41571 96.0
242.471481 160.0
242.527115 156.0
242.590439 140.0
242.651276 456.0
242.694687 56.0
242.719482 172.0
242.766006 124.0
242.880417 148.0
242.958313 128.0
243.032761 84.0
243.066895 48.0
243.135162 208.0
243.19696 140.0
243.299683 220.0
243.380402 180.0
243.441177 224.0
243.501511 96.0
243.532578 352.0
243.597794 160.0
243.759354 56.0
243.798508 180.0
243.833939 184.0
243.88678 68.0
243.924088 104.0
243.967606 184.0
244.039108 212.0
244.074081 176.0
244.144363 132.0
244.179047 180.0
244.27858 96.0
244.306564 80.0
244.328354 132.0
244.384354 128.0
244.427917 56.0
244.533722 140.0
244.633896 168.0
244.714264 424.0
244.759766 164.0
244.876205 148.0
244.901108 52.0
244.958862 188.0
244.996078 128.0
245.022598 132.0
245.047531 144.0
245.109848 108.0
245.153473 168.0
245.189804 152.0
245.225143 196.0
245.32489 172.0
245.3759 192.0
245.434021 208.0
245.468323 96.0
245.535904 196.0
245.559372 204.0
245.712723 224.0
245.748169 156.0
245.774002 144.0
245.795853 156.0
245.858261 164.0
245.900772 148.0
246.07988 168.0
246.137711 100.0
246.254761 120.0
246.373459 56.0
246.40918 144.0
246.492188 136.0
246.514053 200.0
246.555466 128.0
246.610931 228.0
246.635941 124.0
246.70784 56.0
246.921509 164.0
247.061218 160.0
247.094101 196.0
247.257782 92.0
247.31781 172.0
247.33873 100.0
247.411728 120.0
247.494858 116.0
247.548187 96.0
247.623413 152.0
247.731155 140.0
247.790665 168.0
247.812607 84.0
247.859604 168.0
247.902054 124.0
248.090073 112.0
248.120667 200.0
248.144821 244.0
248.166779 76.0
248.296478 188.0
248.329056 112.0
248.375366 140.0
248.445908 136.0
248.489822 156.0
248.518066 240.0
248.82164 188.0
248.884277 124.0
248.988068 204.0
249.023468 196.0
249.096054 184.0
249.173447 204.0
249.215103 128.0
249.275558 148.0
249.365936 196.0
249.416229 108.0
249.523102 112.0
249.56398 108.0
249.613815 364.0
249.704361 200.0
249.784119 92.0
249.878494 176.0
249.948395 188.0
250.061005 80.0
250.136673 108.0
250.240448 152.0
250.31601 188.0
250.353088 160.0
250.426834 84.0
250.467178 164.0
250.608505 172.0
250.734985 112.0
250.788574 80.0
250.842163 120.0
250.911392 108.0
250.968262 160.0
251.025024 168.0
251.094406 108.0
251.217407 60.0
251.248962 160.0
251.309906 196.0
251.374344 168.0
251.425659 176.0
251.469849 44.0
251.501404 92.0
251.558228 108.0
251.632446 164.0
251.671875 96.0
251.700302 208.0
251.95665 120.0
252.077911 156.0
252.237381 92.0
252.275314 84.0
252.332214 88.0
252.442886 148.0
252.566223 92.0
252.686737 128.0
252.746552 100.0
252.807236 172.0
252.898453 156.0
252.955429 152.0
253.016983 136.0
253.086685 496.0
253.122787 2292.0
253.205566 96.0
253.256241 148.0
253.278412 76.0
253.322769 288.0
253.379791 100.0
253.405136 124.0
253.458893 120.0
253.462936 116.0
253.475525 148.0
253.531876 48.0
253.614288 112.0
253.680847 88.0
253.737915 96.0
253.782303 204.0
253.86792 108.0
253.918655 132.0
253.991608 88.0
254.083755 180.0
254.123169 516.0
254.185135 124.0
254.232742 116.0
254.308456 140.0
254.339508 56.0
254.385086 100.0
254.410477 152.0
254.533539 132.0
254.572403 172.0
254.612411 148.0
254.656708 140.0
254.705795 160.0
254.821442 180.0
254.896423 224.0
254.966339 116.0
255.099091 396.0
255.122086 524.0
255.179306 48.0
255.217468 88.0
255.354202 112.0
255.386017 124.0
255.473557 184.0
255.506882 160.0
255.5578 172.0
255.634155 60.0
255.748734 96.0
255.907898 56.0
255.984268 204.0
256.009796 104.0
256.038452 196.0
256.184967 76.0
256.25824 156.0
256.347473 48.0
256.369781 196.0
256.459015 128.0
256.503632 84.0
256.58725 124.0
256.707703 164.0
256.755524 204.0
256.809753 160.0
256.863953 168.0
256.921387 172.0
256.943726 44.0
257.007538 204.0
257.074554 88.0
257.131989 44.0
257.154327 164.0
257.202209 140.0
257.267792 164.0
257.454437 140.0
257.508728 232.0
257.646088 212.0
257.812225 124.0
257.869751 196.0
257.959259 112.0
258.010315 144.0
258.163879 116.0
258.237427 68.0
258.26825 144.0
258.292969 104.0
258.486481 128.0
258.520569 176.0
258.558746 56.0
258.666199 40.0
258.723145 152.0
258.757782 176.0
258.880707 116.0
258.962067 196.0
259.057709 336.0
259.098511 148.0
259.126221 228.0
259.413727 336.0
259.457977 144.0
259.547211 172.0
259.591309 204.0
259.710785 144.0
259.781342 192.0
259.835876 212.0
259.944977 136.0
260.015564 184.0
260.092621 176.0
260.253113 104.0
260.337982 132.0
260.388 108.0
260.416901 120.0
260.532532 196.0
260.558228 40.0
260.66748 132.0
260.785889 164.0
260.857117 192.0
260.927826 152.0
261.008789 132.0
261.062378 112.0
261.120758 188.0
261.194733 64.0
261.278381 156.0
261.36203 156.0
261.389862 168.0
261.399445 108.0
261.442474 112.0
261.519714 112.0
261.581512 188.0
261.613068 148.0
261.642059 144.0
261.703217 180.0
261.788879 172.0
261.833588 280.0
261.930145 216.0
261.983398 84.0
262.022064 48.0
262.08075 148.0
262.112274 140.0
262.251495 184.0
262.278381 116.0
262.302429 144.0
262.418488 168.0
262.466858 156.0
262.566833 144.0
262.608978 156.0
262.679718 168.0
262.799194 204.0
262.895874 68.0
262.986237 64.0
263.021759 88.0
263.047577 160.0
263.112183 312.0
263.173492 132.0
263.19931 164.0
263.299438 204.0
263.357574 132.0
263.406006 144.0
263.46933 220.0
263.548157 164.0
263.590607 160.0
263.632172 180.0
263.819641 124.0
263.908173 168.0
263.93927 176.0
263.960907 116.0
264.000702 84.0
264.033051 80.0
264.09906 164.0
264.122253 164.0
264.200897 108.0
264.230347 184.0
264.317932 172.0
264.353302 44.0
264.437347 136.0
264.492493 136.0
264.531311 148.0
264.567627 148.0
264.615509 120.0
264.651123 144.0
264.673767 164.0
264.702911 124.0
264.751495 188.0
264.777405 104.0
264.820953 152.0
264.865112 96.0
264.9198 96.0
264.941345 92.0
264.974731 144.0
265.027039 208.0
265.091309 156.0
265.162933 180.0
265.209778 152.0
265.233643 148.0
265.292603 128.0
265.359589 180.0
265.411591 80.0
265.446228 132.0
265.496857 124.0
265.584442 100.0
265.62265 204.0
265.712433 164.0
265.73526 248.0
265.766663 204.0
265.816193 92.0
265.852539 92.0
265.877319 160.0
265.885345 196.0
265.899353 152.0
265.941345 108.0
266.005005 136.0
266.044037 256.0
266.091278 268.0
266.117584 164.0
266.155609 156.0
266.196777 296.0
266.270386 244.0
266.313934 116.0
266.367126 416.0
266.431366 192.0
266.495453 480.0
266.522217 488.0
266.562317 476.0
266.572388 260.0
266.58194 208.0
266.626038 256.0
266.676605 324.0
266.722229 796.0
266.756256 664.0
266.819916 200.0
266.849365 356.0
266.899841 272.0
266.914795 392.0
266.954407 416.0
267.022186 808.0
267.103455 325896.0
267.182159 176.0
267.21167 144.0
267.232605 152.0
267.267212 268.0
267.324615 240.0
267.406555 500.0
267.458374 364.0
267.497101 164.0
267.556732 144.0
267.570618 132.0
267.595947 380.0
267.641785 5020.0
267.682281 364.0
267.72113 360.0
267.75766 292.0
267.801727 212.0
267.869019 276.0
267.917572 448.0
267.967163 292.0
268.004547 316.0
268.028748 168.0
268.033936 152.0
268.105957 77680.0
268.188232 260.0
268.223511 232.0
268.275055 84.0
268.335388 212.0
268.391144 176.0
268.4086 120.0
268.441498 208.0
268.503296 100.0
268.515778 92.0
268.530182 288.0
268.553833 96.0
268.576019 136.0
268.581482 144.0
268.644653 116.0
268.691223 232.0
268.738586 68.0
268.808655 132.0
268.843353 116.0
268.906403 204.0
268.968079 160.0
269.026489 300.0
269.066132 156.0
269.107971 7076.0
269.179291 244.0
269.217773 172.0
269.24762 220.0
269.255463 44.0
269.269379 160.0
269.30191 164.0
269.355499 116.0
269.425049 48.0
269.463531 140.0
269.540955 272.0
269.569153 64.0
269.601654 124.0
269.610504 72.0
269.636108 92.0
269.671814 284.0
269.699036 136.0
269.728394 124.0
269.769745 164.0
269.825958 164.0
269.867401 144.0
269.906738 232.0
269.945404 360.0
270.007385 384.0
270.028961 124.0
270.114227 560.0
270.165985 120.0
270.216766 160.0
270.28125 96.0
270.286774 64.0
270.34256 164.0
270.357147 148.0
270.369354 128.0
270.412018 96.0
270.467224 68.0
270.496979 136.0
270.523956 88.0
270.581146 100.0
270.664825 260.0
270.692963 124.0
270.699036 108.0
270.740295 76.0
270.829651 76.0
270.885284 120.0
270.91153 148.0
270.959473 104.0
271.016785 216.0
271.050293 56.0
271.091034 180.0
271.129517 72.0
271.158051 132.0
271.218262 204.0
271.261444 88.0
271.290955 120.0
271.349976 64.0
271.386047 56.0
271.422119 116.0
271.500793 76.0
271.525909 144.0
271.576233 156.0
271.599213 56.0
271.645111 48.0
271.70282 108.0
271.736969 84.0
271.769775 56.0
271.812439 112.0
271.84198 48.0
271.906311 116.0
271.946991 64.0
271.982178 140.0
272.031128 108.0
272.134888 68.0
272.199768 128.0
272.24762 120.0
272.311432 84.0
272.337708 212.0
272.478973 72.0
272.541382 40.0
272.577545 104.0
272.630127 76.0
272.68927 76.0
272.715576 36.0
272.74939 68.0
272.801025 108.0
272.833893 80.0
272.899658 28.0
272.926605 80.0
273.129852 88.0
273.215393 44.0
273.307526 172.0
273.383209 88.0
273.455353 52.0
273.656403 132.0
273.692627 40.0
273.794708 56.0
273.878754 208.0
273.933044 136.0
274.213104 112.0
274.340179 48.0
274.516418 72.0
274.565887 76.0
274.638428 52.0
274.869385 112.0
274.935059 44.0
275.057495 48.0
275.232452 52.0
275.400879 40.0
275.506592 108.0
275.629486 120.0
275.737885 64.0
275.876709 36.0
275.974182 100.0
276.171021 60.0
276.445618 156.0
276.530121 112.0
276.611084 88.0
276.703796 132.0
276.776611 52.0
276.935577 108.0
277.073822 104.0
277.086212 76.0
277.194 132.0
277.253632 80.0
277.290405 176.0
277.34314 72.0
277.451843 40.0
277.598419 84.0
277.691254 80.0
277.734375 116.0
277.940063 68.0
278.026337 40.0
278.182343 36.0
278.378235 52.0
278.414764 40.0
278.45462 72.0
278.537659 88.0
278.59079 32.0
278.637329 56.0
278.678711 52.0
278.746948 60.0
278.835327 152.0
278.910339 224.0
278.979614 116.0
279.049438 28.0
279.110199 196.0
279.238983 104.0
279.545044 124.0
279.634705 76.0
279.698456 200.0
279.75473 120.0
279.844604 40.0
280.004456 132.0
280.044403 60.0
280.111298 148.0
280.177673 64.0
280.220978 180.0
280.24762 208.0
280.274292 156.0
280.327606 80.0
280.400543 108.0
280.430908 120.0
280.454224 72.0
280.522644 208.0
280.595367 120.0
280.647583 112.0
280.687592 84.0
280.732635 136.0
280.782043 184.0
280.817413 52.0
280.835083 124.0
280.877716 120.0
280.911072 84.0
280.967773 104.0
281.014252 528.0
281.0448 244.0
281.118195 61296.0
281.238312 80.0
281.315643 64.0
281.365784 124.0
281.407166 176.0
281.448395 44.0
281.478607 152.0
281.508881 132.0
281.600952 192.0
281.611816 128.0
281.680084 116.0
281.704041 132.0
281.767731 156.0
281.806427 64.0
281.863434 52.0
281.90979 60.0
281.936096 140.0
281.989563 88.0
282.015381 248.0
282.121704 11332.0
282.210266 152.0
282.2789 72.0
282.36557 156.0
282.407501 48.0
282.434265 52.0
282.47403 76.0
282.496521 72.0
282.522491 64.0
282.634033 100.0
282.733459 176.0
282.782227 56.0
282.870514 192.0
282.905243 48.0
282.946259 96.0
282.979736 68.0
283.003174 124.0
283.029938 140.0
283.053375 52.0
283.124786 1256.0
283.19516 60.0
283.282227 124.0
283.315491 156.0
283.389038 76.0
283.421844 92.0
283.461029 144.0
283.514282 220.0
283.565796 88.0
283.628815 92.0
283.700012 88.0
283.728851 80.0
283.754578 128.0
283.836609 140.0
283.970001 164.0
284.019806 44.0
284.044769 244.0
284.071686 140.0
284.12207 164.0
284.172699 64.0
284.209412 132.0
284.222076 212.0
284.339325 80.0
284.451813 36.0
284.49173 36.0
284.615936 60.0
284.744141 116.0
284.904785 68.0
284.935028 48.0
285.015656 68.0
285.071106 40.0
285.170258 148.0
285.311432 108.0
285.415649 96.0
285.516541 56.0
285.842834 48.0
285.889954 60.0
285.984192 64.0
286.007751 104.0
286.097412 76.0
286.394958 88.0
286.597107 72.0
287.399567 96.0
287.467072 248.0
287.507568 60.0
287.55481 124.0
287.82486 48.0
287.878906 68.0
287.909302 56.0
287.959961 52.0
288.003876 36.0
288.409332 124.0
288.479248 164.0
288.635834 140.0
288.913177 84.0
289.092499 88.0
289.271881 80.0
289.380219 196.0
289.456543 140.0
289.53598 72.0
289.691772 104.0
289.847626 40.0
289.969635 168.0
290.122162 32.0
290.176422 100.0
290.291687 108.0
290.373077 28.0
290.637695 52.0
290.698761 168.0
290.759857 56.0
290.912598 152.0
290.987274 176.0
291.065369 156.0
291.343872 68.0
291.422028 52.0
292.221008 96.0
292.374146 92.0
292.421783 84.0
292.748596 92.0
292.878021 156.0
293.194885 124.0
293.870056 76.0
293.97583 112.0
294.747559 68.0
295.130402 52.0
295.383453 80.0
295.4245 48.0
295.749573 40.0
295.999512 108.0
296.743042 176.0
297.113434 52.0
297.487488 36.0
298.040436 156.0
298.112579 28.0
298.243195 48.0
298.556061 92.0
298.631714 112.0
298.882843 36.0
299.202942 148.0
300.002167 40.0
300.026306 88.0
300.409088 60.0
300.536743 112.0
301.966888 228.0
302.406311 80.0
303.653595 88.0
303.761108 172.0
304.035217 52.0
304.201813 48.0
304.399078 164.0
304.64978 148.0
304.826965 80.0
304.931213 108.0
305.160645 132.0
305.351898 60.0
305.589508 172.0
305.668488 128.0
305.699799 112.0
305.738068 84.0
305.978241 36.0
306.09314 44.0
306.634827 228.0
306.967804 188.0
307.128204 124.0
307.211945 48.0
307.236359 56.0
307.292175 64.0
307.424774 112.0
307.449188 44.0
307.763367 40.0
308.063721 192.0
308.100983 132.0
308.168518 64.0
308.240021 112.0
308.287323 136.0
308.367706 92.0
308.444611 176.0
308.488403 180.0
308.539001 200.0
308.584442 120.0
308.620605 116.0
308.682922 236.0
308.709717 140.0
308.719971 132.0
308.769379 104.0
308.808258 196.0
308.861664 204.0
308.877441 104.0
308.88623 68.0
308.953522 196.0
309.05423 288.0
309.113403 78200.0
309.210602 236.0
309.244843 208.0
309.296814 132.0
309.348785 100.0
309.415955 168.0
309.441711 116.0
309.483398 172.0
309.527161 28.0
309.554749 176.0
309.601471 120.0
309.663574 308.0
309.687561 92.0
309.736145 72.0
309.748169 52.0
309.806732 48.0
309.832794 152.0
309.894409 92.0
309.956512 108.0
310.009552 88.0
310.04248 240.0
310.115631 14888.0
310.184052 56.0
310.236877 76.0
310.27417 44.0
310.285736 60.0
310.339508 120.0
310.384155 40.0
310.468689 72.0
310.538452 56.0
310.598083 88.0
310.672607 52.0
310.726532 52.0
310.805054 60.0
310.855103 80.0
310.980682 48.0
311.01825 80.0
311.117462 1900.0
311.186035 96.0
311.328705 92.0
311.361877 52.0
311.433441 108.0
311.560211 92.0
311.623138 104.0
311.675842 40.0
311.703979 40.0
311.732086 88.0
311.826965 156.0
311.893738 64.0
311.924591 180.0
311.96756 116.0
311.998962 180.0
312.048431 52.0
312.083435 96.0
312.096436 92.0
312.124542 320.0
312.22937 52.0
312.240723 116.0
312.274506 96.0
312.303864 56.0
312.340302 68.0
312.384521 140.0
312.423828 124.0
312.473999 108.0
312.593628 52.0
312.702698 132.0
312.787201 80.0
312.832947 56.0
313.05661 84.0
313.123474 228.0
313.149841 128.0
313.219971 88.0
313.232086 80.0
313.242523 116.0
313.361206 48.0
313.417572 112.0
313.466919 148.0
313.507538 84.0
313.572632 104.0
313.60788 88.0
313.657227 124.0
313.681915 104.0
313.854645 56.0
313.911072 60.0
314.14032 84.0
314.217926 52.0
314.292023 140.0
314.344971 88.0
314.899231 108.0
314.948669 108.0
315.051117 104.0
315.093506 92.0
315.190582 120.0
315.40802 60.0
315.457489 60.0
315.574158 48.0
315.726227 48.0
315.906616 48.0
315.956116 40.0
316.97229 68.0
317.092773 32.0
318.881531 40.0
319.397095 56.0
319.578522 76.0
320.247772 32.0
320.276276 88.0
320.707397 68.0
322.066833 148.0
322.123993 40.0
322.499176 124.0
322.527771 132.0
322.810211 64.0
323.615295 120.0
324.052246 132.0
324.371216 44.0
324.937805 92.0
325.088531 52.0
325.698853 80.0
325.935974 88.0
325.99707 84.0
326.331329 52.0
326.946442 124.0
327.320831 108.0
328.149536 148.0
329.398193 124.0
329.672791 52.0
330.38147 80.0
330.62027 84.0
330.761414 112.0
330.898987 148.0
331.054688 124.0
332.09845 80.0
332.21817 44.0
332.544739 28.0
333.481781 92.0
333.750793 100.0
335.370789 124.0
335.596832 80.0
335.63327 60.0
336.896088 60.0
337.206665 64.0
337.725861 100.0
337.967285 104.0
338.065674 176.0
339.657623 68.0
340.675507 64.0
341.735474 88.0
342.302307 72.0
342.854889 120.0
345.028961 68.0
345.073334 104.0
346.073944 172.0
346.32782 84.0
346.705719 88.0
347.54007 100.0
347.825806 116.0
348.921692 88.0
352.448883 124.0
353.782745 28.0
355.762115 96.0
357.528687 72.0
359.122345 132.0
359.318512 120.0
359.880859 52.0
360.73468 48.0
364.863037 68.0
367.391754 96.0
367.803894 56.0
367.952759 68.0
368.84668 96.0
370.921326 72.0
371.166687 76.0
372.095215 76.0
374.856873 96.0
376.202942 44.0
378.863556 108.0
379.096039 52.0
379.28595 188.0
380.441925 104.0
381.613922 60.0
382.576141 68.0
383.257721 64.0
383.768311 64.0
383.815094 48.0
384.657806 84.0
385.825836 96.0
386.091705 88.0
388.155457 76.0
390.299377 88.0
391.31842 48.0
393.155304 64.0
393.553986 60.0
394.221558 116.0
394.960876 96.0
395.676086 56.0
396.905365 76.0
397.563843 68.0
399.46701 108.0
401.28302 84.0
402.01297 60.0
402.284363 92.0
403.830719 76.0
406.430634 144.0
407.442413 60.0
407.490601 76.0
408.471527 104.0
410.106293 152.0
410.590424 52.0
411.09436 72.0
411.659515 120.0
411.833191 80.0
413.778259 80.0
415.484467 116.0
416.150055 44.0
416.78775 116.0
417.149445 84.0
417.186035 68.0
417.368988 124.0
420.252747 88.0
420.403717 80.0
420.828247 60.0
421.449066 108.0
422.303467 28.0
424.244354 44.0
424.654419 72.0
425.622894 112.0
426.021271 52.0
426.140411 60.0
426.921417 48.0
428.024231 120.0
428.353699 104.0
429.029541 120.0
432.50769 140.0
433.721313 52.0
434.111023 108.0
434.446991 136.0
436.033142 100.0
437.201752 156.0
437.235046 104.0
437.280853 52.0
437.897034 60.0
439.201996 160.0
439.301727 104.0
439.898438 72.0
440.671051 80.0
442.289429 144.0
442.582489 52.0
443.173065 80.0
444.028229 44.0
445.598145 72.0
446.350494 76.0
446.973022 76.0
447.05719 48.0
447.975067 132.0
448.168854 148.0
448.328979 112.0
450.861053 108.0
451.07663 60.0
451.740509 52.0
452.908813 72.0
455.87439 92.0
456.728943 116.0
457.167145 64.0
457.878082 68.0
462.048431 64.0
462.232422 72.0
462.454956 36.0
464.451599 48.0
464.584595 124.0
464.687561 92.0
465.417206 132.0
465.992737 80.0
466.676117 124.0
467.5448 68.0
467.652649 40.0
467.953979 152.0
468.961975 60.0
470.830109 60.0
473.277649 48.0
473.940338 84.0
474.859375 56.0
475.102264 184.0
475.197723 136.0
475.280151 64.0
475.336548 80.0
475.410339 32.0
476.057159 60.0
476.145874 112.0
477.491272 64.0
477.721802 72.0
478.165619 128.0
479.249939 160.0
479.515747 144.0
482.650116 160.0
483.761383 48.0
483.905853 52.0
484.733673 96.0
486.014069 48.0
487.471863 72.0
491.624512 88.0
492.308777 60.0
493.126068 116.0
493.369202 56.0
493.594696 108.0
494.153931 100.0
495.15683 184.0
496.202576 84.0
496.876678 68.0
498.866241 112.0
499.368683 60.0
499.43985 92.0
500.245239 92.0
500.743927 68.0
501.135956 80.0
502.6698 36.0
506.684906 52.0
508.020844 48.0
510.545105 72.0
514.185242 104.0
515.309631 60.0
517.770325 60.0
518.341125 84.0
520.223328 112.0
521.849731 76.0
521.967957 76.0
522.090759 32.0
523.187317 76.0
524.629517 84.0
525.443176 56.0
529.34198 64.0
530.239929 64.0
531.528503 32.0
533.632141 80.0
535.66626 104.0
536.343628 64.0
536.804626 148.0
537.52887 64.0
538.262817 100.0
538.867859 88.0
540.740662 36.0
543.317017 120.0
544.783997 120.0
548.091919 112.0
550.540894 36.0
550.666992 104.0
551.381775 64.0
553.842773 100.0
554.016113 76.0
554.770569 120.0
556.384399 64.0
557.97229 100.0
563.713196 116.0
566.589966 112.0
566.793701 56.0
570.572815 88.0
571.370667 52.0
571.489624 92.0
571.66095 84.0
572.3797 40.0
573.28479 56.0
575.345276 88.0
578.90741 28.0
580.786072 112.0
585.183167 104.0
589.050842 44.0
590.162415 56.0
591.270142 104.0
594.366699 128.0
597.977356 88.0
598.8927 108.0
599.496826 100.0
603.250122 108.0
604.482605 88.0
605.603699 56.0
605.824158 44.0
607.172058 52.0
611.382263 68.0
612.588562 76.0
613.5495 88.0
614.540833 80.0
615.162659 76.0
617.633301 52.0
617.816345 104.0
618.736816 72.0
619.350891 60.0
620.93689 100.0
623.47876 76.0
628.156494 20.0
630.555664 72.0
631.488647 52.0
636.326233 76.0
643.349243 120.0
645.602661 72.0
646.48291 120.0
647.971558 92.0
650.324463 100.0
657.11792 80.0
658.991699 52.0
659.032532 100.0
665.080566 56.0
667.073547 52.0
668.765808 72.0
671.238647 88.0
671.749268 88.0
672.249695 116.0
673.726379 60.0
674.759949 36.0
675.090881 56.0
680.744507 80.0
681.903015 60.0
684.899963 108.0
685.186462 76.0
690.5578 56.0
693.112488 92.0
694.947632 80.0
695.272949 72.0
700.683594 96.0
701.974976 44.0
704.106934 36.0
705.163574 88.0
709.652527 60.0
714.824036 52.0
718.438416 68.0
719.473694 60.0
723.552795 72.0
724.195374 76.0
725.829834 36.0
726.988525 52.0
735.815979 76.0
738.058167 88.0
738.658447 56.0
738.858643 56.0
743.844177 68.0
748.514282 80.0
750.214172 92.0
756.906982 48.0
761.617859 60.0
762.782776 80.0
765.456543 48.0
766.343384 40.0
769.128296 176.0
776.298401 56.0
779.001343 60.0
785.268799 40.0
800.979736 76.0
803.589844 108.0
803.80426 56.0
808.138062 124.0
813.942139 104.0
815.095215 84.0
818.752991 56.0
826.636597 28.0
829.855652 48.0
834.161316 28.0
835.696838 60.0
838.991089 100.0
839.135254 56.0
857.516907 48.0
857.971558 52.0
861.589783 72.0
862.536438 76.0
868.972351 72.0
876.321533 60.0
879.889709 68.0
893.44928 100.0
904.309387 40.0
907.016663 76.0
907.124573 76.0
910.977051 56.0
923.350647 152.0
925.560181 136.0
926.432312 56.0
927.282227 76.0
932.682434 40.0
941.229736 36.0
948.001282 60.0
957.289429 52.0
957.609619 52.0
968.232361 68.0
968.616333 96.0
974.230225 100.0
974.634094 36.0
980.446106 104.0
984.632202 68.0
990.20459 112.0
1013.303772 116.0
1015.465332 52.0
1015.921997 32.0
1016.023499 48.0
1019.623779 168.0
1020.11499 28.0
1027.819336 76.0
1028.16394 52.0
1033.186157 40.0
1036.630859 76.0
1038.740112 88.0
1041.050659 64.0
1062.097046 32.0
1066.180786 84.0
1066.388794 80.0
1077.414062 144.0
1078.923584 48.0
1091.479126 128.0
1095.012939 36.0
1097.226929 164.0
1098.493164 64.0
1098.638184 36.0
1099.986084 80.0
1102.910522 44.0
1106.793823 68.0
1116.129639 128.0
1124.476685 68.0
1124.817139 108.0
1129.076416 20.0
1141.80188 136.0
1144.37915 152.0
1146.393066 48.0
1160.05249 80.0
1161.435791 64.0
1165.040283 76.0
1167.616333 52.0
1174.297485 100.0
1179.233765 40.0
1181.96228 76.0
1182.181274 52.0
1190.269897 68.0
1195.466675 124.0
1206.896362 64.0
1207.7677 200.0
1208.175903 60.0
1215.18689 56.0
1240.200928 92.0
1253.138062 96.0
1254.730835 104.0
1256.63501 136.0
1262.391724 60.0
1271.168335 200.0
1272.275635 128.0
1273.702881 52.0
1276.140381 168.0
1280.011108 56.0
1280.260376 84.0
1284.030273 152.0
1290.657104 72.0
1291.186279 48.0
1293.325562 40.0
1298.061035 188.0
1301.512329 76.0
1306.500122 84.0
1307.082886 156.0
1315.111084 56.0
1320.544189 152.0
1340.639648 200.0
1350.897827 128.0
1359.440674 176.0
1360.057251 76.0
1365.582397 168.0
1366.340088 36.0
1366.71521 124.0
1370.212402 144.0
1371.509399 216.0
1375.101318 108.0
1376.112549 84.0
1380.679077 180.0
1388.343872 140.0
1394.230835 96.0
1394.72876 156.0
1394.840332 116.0
1395.41272 160.0
1395.806763 180.0
1395.910889 48.0
1398.008545 92.0
1399.631348 148.0
1401.53064 128.0
1405.945068 64.0
1407.557495 48.0
1412.056152 124.0
1415.229004 216.0
1415.551025 76.0
1416.801758 64.0
1418.735229 96.0
1420.054932 28.0
1420.670044 128.0
1423.011475 160.0
1424.010132 52.0
1424.633667 112.0
1426.880615 164.0
1427.978516 36.0
1428.305786 176.0
1429.565796 196.0
1429.942139 184.0
1430.070068 72.0
1433.971436 112.0
1435.403687 172.0
1435.509277 152.0
1437.455444 96.0
1439.206665 168.0
1443.778198 144.0
1449.826904 156.0
1450.312012 96.0
1451.085205 56.0
1451.524902 168.0
1451.904175 224.0
1453.588135 172.0
1456.321167 84.0
1464.428833 152.0
1466.707031 64.0
1476.755005 160.0
1477.275146 128.0
1479.938477 132.0
1480.030273 128.0
1482.642456 104.0
1484.060547 164.0
1486.453613 44.0
1487.26709 60.0
1488.733521 184.0
1489.393921 156.0
1494.529297 36.0
1497.731812 112.0
1500.505859 88.0
1504.262817 252.0
