>compound Lovastatin
>formula C24H36O5 
>ionization [M+H]+
>parentmass 405.263794
#inchi InChI=1S/C24H36O5/c1-5-15(3)24(27)29-21-11-14(2)10-17-7-6-16(4)20(23(17)21)9-8-19-12-18(25)13-22(26)28-19/h6-7,10,14-16,18-21,23,25H,5,8-9,11-13H2,1-4H3/t14-,15-,16-,18+,19+,20-,21-,23-/m0/s1
#inchikey PCZOHLXUXFIOCF
#Ion_Source LC-ESI
#Instrument qTof
#Compound_Source Commercial
#PI Dorrestein
#Data_Collector Garg_Neha
#Scan -1
#Precursor_MZ 405.265
#ExactMass 404.256
#Charge 1
#CAS_Number N/A
#Pubmed_ID N/A
#Smiles N/A
#INCHI_AUX N/A
#Library_Class 1
#SpectrumID CCMSLIB00000077134
#IonMode Positive
#UpdateWorkflowName UPDATE-SINGLE-ANNOTATED-GOLD
#LibraryQualityString Gold
#TaskID 48f7f52fc6d249b5abbcc6e7b3df5969
##Scan# 2608
#SpectrumFile NCP003195_A2A7B2B6C2C6D2D6_BB6_01_15710.mzXML
#LibraryName NIH_Clinical_Collection_2.mgf
#MQScore -1
#Organism NIHcollection2_04212014_2_mgf
#TIC_Query 0
#RT_Query -1
#MZErrorPPM -1
#SharedPeaks 0
#MassDiff 0
#LibMZ -1
#SpecMZ 405.265
#SpecCharge 0
#internalFilename spec-00000.mgf

>collision 10
45.524525 136.0
46.19051 180.0
47.37896 140.0
47.415955 180.0
48.120258 148.0
49.494019 168.0
49.903728 200.0
52.073799 160.0
53.020245 188.0
53.26545 212.0
53.770695 184.0
53.865601 168.0
54.348728 156.0
55.5289 204.0
55.903278 212.0
55.924114 148.0
56.180412 212.0
56.970852 148.0
57.277725 208.0
57.291283 152.0
57.348545 216.0
57.670036 156.0
58.818359 148.0
61.183208 176.0
61.591774 164.0
61.763714 164.0
62.882435 176.0
63.296623 164.0
63.485199 148.0
63.699467 192.0
64.191261 196.0
65.068085 200.0
65.811935 240.0
67.380905 140.0
67.901443 204.0
68.31208 152.0
68.735497 140.0
68.874176 160.0
69.132095 208.0
69.867142 216.0
71.503639 176.0
72.278275 144.0
73.012756 180.0
73.923737 144.0
74.716446 148.0
74.988518 152.0
75.138535 232.0
75.42347 164.0
76.926048 232.0
77.288872 144.0
79.190865 268.0
79.531296 184.0
80.146614 208.0
80.576607 160.0
81.54425 172.0
84.576988 172.0
86.119667 180.0
89.45755 272.0
89.96843 180.0
90.603859 180.0
91.052139 180.0
91.127487 192.0
91.254829 192.0
92.055748 292.0
92.271027 248.0
92.755356 192.0
93.081512 140.0
94.058891 132.0
95.086838 264.0
95.609123 96.0
97.064529 152.0
98.231743 156.0
99.075859 204.0
99.659149 156.0
99.764481 168.0
100.780914 152.0
101.058838 180.0
101.933075 176.0
104.062027 208.0
104.558014 144.0
105.070572 804.0
106.078094 192.0
107.049393 180.0
107.086082 840.0
107.288475 176.0
108.086327 288.0
109.100433 128.0
109.212204 232.0
109.31414 140.0
111.046036 176.0
111.079597 176.0
112.559143 292.0
112.603493 144.0
112.87188 176.0
113.134079 284.0
113.41172 164.0
115.053932 316.0
115.78949 200.0
116.061646 172.0
116.218224 196.0
116.475845 196.0
117.069008 432.0
117.241791 148.0
118.952637 160.0
119.048164 160.0
119.087463 296.0
120.095673 168.0
121.064209 148.0
121.098969 648.0
122.105614 168.0
122.953812 140.0
123.079643 188.0
123.497314 232.0
124.046455 212.0
124.421364 208.0
125.061638 808.0
125.0905 184.0
126.065826 148.0
126.302147 164.0
127.072777 116.0
128.062057 712.0
129.023148 152.0
129.06929 404.0
130.07753 228.0
131.021896 168.0
131.085464 2624.0
131.122818 184.0
131.216278 172.0
132.089737 308.0
133.099762 744.0
134.118469 152.0
135.097549 152.0
135.11795 200.0
135.957169 140.0
136.154495 152.0
136.256699 152.0
136.456573 164.0
137.059402 180.0
137.09317 140.0
138.32756 180.0
139.180939 172.0
139.444046 256.0
140.562653 160.0
141.068069 144.0
141.089355 164.0
142.076675 628.0
142.352234 184.0
142.758575 140.0
143.084839 5160.0
143.196472 184.0
143.593307 176.0
143.768646 176.0
144.088943 588.0
144.75386 148.0
144.892456 204.0
145.056396 244.0
145.101486 4768.0
145.12973 152.0
145.151321 180.0
145.228867 100.0
146.104645 548.0
146.128357 232.0
146.306992 168.0
147.118881 236.0
149.097534 328.0
150.097565 152.0
151.083237 144.0
151.10759 156.0
152.07309 144.0
152.117264 172.0
154.075989 272.0
155.085693 1800.0
155.461624 244.0
156.092026 996.0
157.100464 4276.0
157.63559 180.0
158.108322 2384.0
158.822281 148.0
159.077362 172.0
159.117035 5460.0
159.81282 164.0
160.120819 1160.0
161.096329 252.0
161.133026 512.0
162.137772 152.0
162.48262 160.0
163.081085 124.0
163.113068 452.0
163.163254 188.0
163.664474 140.0
164.156265 156.0
165.062775 176.0
165.090195 160.0
165.368225 120.0
166.089752 328.0
167.082306 116.0
167.104721 440.0
167.171371 164.0
168.096405 152.0
169.101303 3388.0
170.106537 784.0
170.481476 164.0
171.085571 140.0
171.117142 5344.0
172.121872 1080.0
172.65567 204.0
173.096161 720.0
173.132812 18008.0
173.325821 156.0
174.136307 2224.0
175.111084 312.0
175.140503 352.0
176.05899 140.0
176.138229 180.0
176.764801 160.0
177.088852 188.0
177.130157 164.0
179.085114 156.0
179.104218 124.0
180.093307 152.0
181.10289 972.0
182.10643 568.0
183.032562 188.0
183.117065 2184.0
184.078812 156.0
184.119827 304.0
185.097733 200.0
185.133133 1656.0
185.553436 220.0
185.756821 152.0
186.135559 352.0
187.113617 348.0
187.146454 296.0
188.113388 144.0
189.087677 160.0
189.162979 176.0
189.965988 164.0
190.091797 140.0
190.13884 156.0
191.108292 1240.0
191.315277 200.0
192.105988 232.0
193.104156 544.0
194.104614 316.0
195.11235 572.0
196.122955 436.0
197.101913 192.0
197.133438 2912.0
198.13678 700.0
198.985931 160.0
199.07901 156.0
199.108673 112.0
199.148926 23604.0
199.373978 160.0
199.552307 156.0
199.709427 116.0
199.784073 172.0
200.151962 4032.0
200.553635 108.0
200.973984 192.0
201.09317 232.0
201.1306 156.0
201.163483 6928.0
201.519958 156.0
202.108856 144.0
202.169937 928.0
203.142944 164.0
203.174149 164.0
203.315125 128.0
204.020432 148.0
204.11142 276.0
204.15123 164.0
205.120773 772.0
205.144897 208.0
205.199066 180.0
206.246735 168.0
206.898956 220.0
207.114197 672.0
207.744339 160.0
208.126205 244.0
209.118576 936.0
210.138275 636.0
211.110199 552.0
211.148483 828.0
211.861008 220.0
212.117874 156.0
212.157303 308.0
213.137009 140.0
213.168243 284.0
215.104111 404.0
215.152405 208.0
215.179214 1284.0
216.104355 136.0
216.186584 196.0
217.121765 240.0
219.121658 200.0
219.861221 140.0
220.126709 128.0
221.133255 296.0
221.200119 156.0
223.148087 2248.0
224.149323 220.0
224.695206 184.0
225.127548 772.0
225.1642 13472.0
225.232941 140.0
226.165604 2992.0
226.677277 188.0
227.628174 188.0
229.124908 1284.0
229.968292 192.0
230.127502 276.0
230.199799 160.0
231.13829 144.0
231.766678 184.0
233.135223 188.0
234.139526 456.0
235.14386 356.0
235.386398 228.0
235.884399 148.0
238.960327 144.0
239.140518 552.0
239.181168 3352.0
239.400482 140.0
240.146255 272.0
240.182877 648.0
241.157562 140.0
241.187714 212.0
242.207932 176.0
242.635574 152.0
242.883652 160.0
242.919479 116.0
243.118042 124.0
243.142517 348.0
243.175125 14252.0
244.144684 184.0
244.178909 3452.0
245.181152 580.0
246.168732 152.0
247.142578 164.0
249.164841 4160.0
249.205429 164.0
250.168259 1148.0
251.177734 128.0
255.140884 160.0
256.286652 212.0
256.445984 140.0
257.153931 224.0
257.185791 152.0
258.162384 160.0
259.211609 184.0
260.227142 164.0
267.175171 7616.0
267.248627 200.0
268.178436 1900.0
269.181366 316.0
275.166046 308.0
277.949646 148.0
283.18692 176.0
284.323486 200.0
285.185333 19504.0
285.256134 184.0
286.187897 3244.0
287.194061 488.0
288.019104 100.0
288.253906 112.0
297.744507 176.0
298.91333 196.0
303.045532 108.0
303.195282 7752.0
303.250885 180.0
304.124939 212.0
304.199829 1196.0
305.198883 196.0
306.192322 172.0
321.205231 184.0
322.212708 204.0
387.245422 164.0
405.263794 364.0
406.267944 356.0
407.169525 168.0
407.276825 152.0
408.060425 216.0
454.726746 140.0
1106.915649 240.0
1156.283081 168.0
1245.060425 180.0
1261.22998 192.0
1392.826172 184.0
1411.173706 172.0
1424.768921 180.0
1459.087769 168.0
1473.117554 176.0
1523.880859 180.0
1567.653198 208.0
1568.914307 152.0
1573.790161 168.0
1630.670288 188.0
1645.944214 224.0
1650.339844 164.0
1701.843628 184.0
1718.428223 160.0
1740.361694 144.0
1759.502808 188.0
1766.748413 168.0
1792.929077 188.0
1794.463257 160.0
1810.712891 140.0
1841.057007 240.0
1848.716675 160.0
1853.563477 216.0
1863.508057 160.0
1873.806641 164.0
1879.963135 180.0
1907.235962 144.0
1910.16626 156.0
1916.843994 156.0
1936.053711 144.0
1936.5354 200.0
1944.443604 148.0
1989.025757 152.0
1993.999634 180.0
1999.086548 200.0
