>compound MLS001160378-01!(2R)-2-[[(2S)-2-(1,2-dihydroimidazo[1,2-a]benzimidazole-3-carbonylamino)-3-methylbutanoyl]amino]-3-phenylpropanoic acid
>formula C24H27N5O4
>ionization [M+H]+
>parentmass 450.21286
#inchi InChI=1S/C24H27N5O4/c1-15(2)20(21(30)25-18(22(31)32)14-16-8-4-3-5-9-16)27-24(33)29-13-12-28-19-11-7-6-10-17(19)26-23(28)29/h3-11,15,18,20H,12-14H2,1-2H3,(H,25,30)(H,27,33)(H,31,32)/t18-,20+/m1/s1
#inchikey GGHRVVISWFYZNR
#Ion_Source LC-ESI
#Instrument qTof
#Compound_Source NIH Natural Product Library
#PI Dorrestein
#Data_Collector VVP/LMS
#Scan -1
#Precursor_MZ 450.214
#ExactMass 449.206
#Charge 1
#CAS_Number N/A
#Pubmed_ID N/A
#Smiles CC(C)[C@H](NC(=O)N1CCn2c1nc3ccccc23)C(=O)N[C@H](Cc4ccccc4)C(=O)O
#INCHI_AUX N/A
#Library_Class 1
#SpectrumID CCMSLIB00000079663
#IonMode Positive
#UpdateWorkflowName UPDATE-SINGLE-ANNOTATED-GOLD
#LibraryQualityString Gold
#TaskID b1d8e8f6646f4e71acdff9ca3d919d08
##Scan# 2038
#SpectrumFile p1-E09_GE9_01_17929.mzXML
#LibraryName NIH_Natural_Products_Library.mgf
#MQScore -1
#Organism NIH_Natural_Products_Library
#TIC_Query 0
#RT_Query -1
#MZErrorPPM -1
#SharedPeaks 0
#MassDiff 0
#LibMZ -1
#SpecMZ 450.214
#SpecCharge 0
#internalFilename spec-00000.mgf

>collision 10
94.953476 180.0
94.972023 64.0
94.990326 132.0
95.035995 200.0
95.062584 148.0
95.083458 48.0
95.110634 220.0
95.139748 100.0
95.163048 148.0
95.186981 184.0
95.213326 220.0
95.257118 168.0
95.284111 252.0
95.335396 192.0
95.350426 260.0
95.368965 176.0
95.384514 176.0
95.413673 204.0
95.432983 236.0
95.44397 144.0
95.451729 160.0
95.499229 184.0
95.512848 44.0
95.545311 124.0
95.575096 160.0
95.62822 216.0
95.664627 164.0
95.706093 316.0
95.723824 108.0
95.748352 144.0
95.77562 156.0
95.822372 196.0
95.838913 268.0
95.87693 164.0
95.929504 164.0
95.94693 136.0
95.98999 140.0
96.028305 176.0
96.051895 200.0
96.057144 148.0
96.085014 156.0
96.121582 148.0
96.170998 164.0
96.20266 120.0
96.240105 156.0
96.279541 172.0
96.310051 180.0
96.39045 132.0
96.407738 124.0
96.440964 156.0
96.491791 164.0
96.509384 140.0
96.525391 172.0
96.548492 240.0
96.56414 164.0
96.661957 88.0
96.690918 160.0
96.742195 200.0
96.773033 192.0
96.787643 168.0
96.820518 116.0
96.886078 148.0
96.922379 28.0
96.944687 312.0
96.963531 96.0
96.986435 212.0
97.009872 168.0
97.032135 256.0
97.084129 232.0
97.117302 312.0
97.136711 180.0
97.220436 164.0
97.241989 336.0
97.248123 192.0
97.260887 428.0
97.279457 176.0
97.308769 200.0
97.35508 164.0
97.39077 116.0
97.441353 124.0
97.467941 204.0
97.487724 184.0
97.507164 152.0
97.528786 364.0
97.550407 56.0
97.577927 160.0
97.597588 220.0
97.618896 172.0
97.660522 340.0
97.680191 192.0
97.72052 168.0
97.756149 316.0
97.776596 44.0
97.811264 296.0
97.814301 208.0
97.843521 192.0
97.877663 164.0
97.894798 196.0
97.919159 428.0
97.955948 176.0
98.018814 160.0
98.034576 376.0
98.059525 2712.0
98.086159 188.0
98.101593 192.0
98.145798 188.0
98.17424 192.0
98.226723 100.0
98.248337 360.0
98.283035 136.0
98.300278 76.0
98.314041 196.0
98.34375 204.0
98.373817 100.0
98.440948 72.0
98.480026 168.0
98.530594 196.0
98.549591 184.0
98.571945 164.0
98.59108 184.0
98.621559 172.0
98.638481 152.0
98.666191 376.0
98.707176 176.0
98.785583 236.0
98.808044 160.0
98.82695 164.0
98.877838 204.0
98.90184 160.0
98.945145 164.0
98.974838 104.0
99.00322 164.0
99.014076 128.0
99.064583 384.0
99.096649 172.0
99.113495 168.0
99.131325 108.0
99.153648 76.0
99.178894 108.0
99.210312 156.0
99.241104 156.0
99.266121 128.0
99.293167 156.0
99.315155 232.0
99.348045 144.0
99.371246 236.0
99.393028 180.0
99.414169 196.0
99.453102 208.0
99.505051 288.0
99.551567 128.0
99.571465 120.0
99.587624 136.0
99.605499 224.0
99.659134 48.0
99.678314 172.0
99.696892 172.0
99.714149 152.0
99.732094 132.0
99.749123 172.0
99.766457 60.0
99.784592 164.0
99.81266 128.0
99.841675 140.0
99.858643 200.0
99.883781 172.0
99.911629 156.0
99.948631 208.0
99.972572 300.0
99.986328 192.0
100.03302 132.0
100.052826 240.0
100.074677 156.0
100.092751 156.0
100.112663 52.0
100.154488 204.0
100.168427 180.0
100.186172 132.0
100.188911 156.0
100.198814 188.0
100.26313 172.0
100.289261 344.0
100.369713 124.0
100.393646 144.0
100.425644 180.0
100.457466 60.0
100.478592 132.0
100.501358 116.0
100.552467 144.0
100.560776 88.0
100.574684 108.0
100.61113 144.0
100.635086 104.0
100.669029 176.0
100.687004 136.0
100.725319 348.0
100.804871 172.0
100.829147 160.0
100.870026 220.0
100.884819 212.0
100.910805 168.0
100.934578 180.0
100.953049 116.0
100.972794 208.0
101.020798 176.0
101.040802 152.0
101.058533 172.0
101.084053 188.0
101.108833 136.0
101.140862 92.0
101.189522 156.0
101.231995 100.0
101.247459 180.0
101.296219 184.0
101.319077 336.0
101.333153 196.0
101.349129 248.0
101.383598 180.0
101.399231 128.0
101.427292 164.0
101.477875 188.0
101.501465 128.0
101.515503 268.0
101.551735 120.0
101.577675 196.0
101.593727 176.0
101.625824 40.0
101.65506 196.0
101.678535 164.0
101.69606 140.0
101.71212 168.0
101.752266 156.0
101.768326 120.0
101.809547 360.0
101.834595 200.0
101.866737 232.0
101.893387 284.0
101.910484 340.0
101.933632 216.0
101.942436 212.0
101.947807 148.0
101.969208 156.0
101.99762 176.0
102.027908 252.0
102.051628 188.0
102.111954 136.0
102.205658 192.0
102.253433 396.0
102.289017 168.0
102.401772 84.0
102.457047 208.0
102.472275 152.0
102.502495 96.0
102.520187 200.0
102.534279 140.0
102.558922 140.0
102.614037 224.0
102.661743 276.0
102.692307 52.0
102.743301 248.0
102.759254 152.0
102.776726 164.0
102.818176 292.0
102.841301 116.0
102.906166 148.0
102.931557 192.0
102.958397 136.0
102.975021 172.0
103.000809 204.0
103.055267 1892.0
103.084824 220.0
103.104553 356.0
103.129478 188.0
103.144272 36.0
103.180931 180.0
103.212288 156.0
103.251434 164.0
103.273079 160.0
103.293907 316.0
103.313278 180.0
103.3283 132.0
103.342461 168.0
103.393051 148.0
103.431503 68.0
103.445671 216.0
103.469963 268.0
103.498161 212.0
103.528687 144.0
103.552597 124.0
103.557495 160.0
103.617805 196.0
103.634018 156.0
103.672516 156.0
103.71228 316.0
103.730118 160.0
103.747513 104.0
103.773232 140.0
103.802643 188.0
103.839668 196.0
103.880585 168.0
103.8955 156.0
103.936127 152.0
103.952019 332.0
104.021599 248.0
104.057045 256.0
104.07415 160.0
104.088364 128.0
104.104286 204.0
104.218636 148.0
104.244507 180.0
104.262993 116.0
104.268517 152.0
104.30426 148.0
104.326874 184.0
104.36483 204.0
104.386154 356.0
104.423676 56.0
104.474472 156.0
104.545738 172.0
104.622192 392.0
104.661766 144.0
104.686272 116.0
104.740005 260.0
104.778931 80.0
104.826233 124.0
104.85733 184.0
104.884361 444.0
104.934158 180.0
104.987762 184.0
105.010239 128.0
105.045082 1552.0
105.066353 444.0
105.089798 160.0
105.121361 144.0
105.151016 136.0
105.218376 104.0
105.246956 276.0
105.276497 168.0
105.353531 220.0
105.376083 144.0
105.441078 144.0
105.475769 140.0
105.516029 132.0
105.574554 144.0
105.58712 192.0
105.617439 208.0
105.655716 160.0
105.682167 112.0
105.751411 288.0
105.837868 172.0
105.852203 128.0
105.871727 232.0
105.934128 112.0
105.957138 172.0
105.992622 80.0
106.026413 144.0
106.04776 140.0
106.063316 264.0
106.08577 204.0
106.125542 256.0
106.155479 52.0
106.175987 132.0
106.1931 160.0
106.219406 212.0
106.259514 144.0
106.264191 104.0
106.27314 144.0
106.327805 88.0
106.395538 208.0
106.440521 176.0
106.461052 216.0
106.490639 228.0
106.512764 204.0
106.529549 140.0
106.570107 168.0
106.598633 172.0
106.644089 148.0
106.661545 160.0
106.687668 200.0
106.732216 276.0
106.772453 168.0
106.802299 148.0
106.837379 92.0
106.851776 104.0
106.89389 136.0
106.955528 144.0
106.969154 108.0
106.993782 180.0
107.011024 192.0
107.060768 624.0
107.129387 160.0
107.148239 168.0
107.176689 228.0
107.180443 184.0
107.191734 364.0
107.213219 164.0
107.235283 232.0
107.280128 188.0
107.302811 152.0
107.358482 172.0
107.374977 80.0
107.393539 172.0
107.411736 180.0
107.453186 184.0
107.489784 164.0
107.505669 160.0
107.525871 256.0
107.560669 148.0
107.585182 192.0
107.614349 108.0
107.640831 232.0
107.64859 192.0
107.655403 172.0
107.674942 176.0
107.705208 164.0
107.732841 192.0
107.741936 72.0
107.746391 188.0
107.783714 264.0
107.80851 240.0
107.851913 148.0
107.883545 272.0
107.921806 104.0
107.986305 112.0
108.014671 112.0
108.030922 296.0
108.047874 136.0
108.053299 104.0
108.061623 176.0
108.08548 136.0
108.102158 172.0
108.126938 156.0
108.187019 128.0
108.22924 152.0
108.242081 280.0
108.271568 136.0
108.274994 180.0
108.296875 152.0
108.358681 108.0
108.396973 196.0
108.458733 140.0
108.479103 188.0
108.514397 192.0
108.546303 156.0
108.591072 136.0
108.645081 320.0
108.672752 180.0
108.680222 160.0
108.72081 172.0
108.756424 316.0
108.771484 156.0
108.796501 84.0
108.820343 156.0
108.859871 288.0
108.925247 192.0
108.952438 180.0
109.029129 156.0
109.057022 172.0
109.07901 168.0
109.115273 172.0
109.180298 224.0
109.214699 204.0
109.230217 196.0
109.25901 144.0
109.290047 168.0
109.356262 164.0
109.373878 164.0
109.409775 128.0
109.434753 160.0
109.497543 132.0
109.520187 156.0
109.555145 144.0
109.57357 164.0
109.603462 168.0
109.61805 160.0
109.657646 160.0
109.687408 216.0
109.705742 164.0
109.735397 160.0
109.774391 176.0
109.806671 360.0
109.889252 192.0
109.92012 252.0
109.953796 36.0
109.976349 228.0
109.996109 192.0
110.028946 92.0
110.069656 160.0
110.110382 340.0
110.138496 164.0
110.157974 268.0
110.179939 160.0
110.204376 144.0
110.231544 36.0
110.270348 148.0
110.316055 224.0
110.350685 44.0
110.382286 140.0
110.412201 116.0
110.441566 164.0
110.474075 80.0
110.51387 172.0
110.538933 156.0
110.565552 200.0
110.572586 176.0
110.57756 148.0
110.593346 140.0
110.612633 168.0
110.634972 176.0
110.641434 156.0
110.667427 288.0
110.695923 152.0
110.730103 188.0
110.785027 212.0
110.80484 184.0
110.826874 132.0
110.88443 208.0
110.909622 124.0
110.926392 204.0
110.951546 160.0
110.977989 220.0
111.006668 288.0
111.055374 124.0
111.085754 168.0
111.123688 100.0
111.175209 196.0
111.203255 152.0
111.222145 120.0
111.255737 108.0
111.274414 196.0
111.31324 144.0
111.336792 172.0
111.374252 172.0
111.392227 208.0
111.414787 192.0
111.43425 120.0
111.453156 152.0
111.489899 184.0
111.514099 176.0
111.539116 164.0
111.542046 148.0
111.579262 124.0
111.61441 212.0
111.640236 132.0
111.654961 176.0
111.685287 220.0
111.709648 140.0
111.743309 228.0
111.757072 184.0
111.774864 80.0
111.808533 140.0
111.829582 84.0
111.862617 244.0
111.886292 68.0
111.905365 148.0
111.932739 204.0
111.953796 176.0
112.014427 152.0
112.075966 60.0
112.109787 164.0
112.12812 272.0
112.209747 164.0
112.231941 144.0
112.293098 144.0
112.333176 184.0
112.353569 168.0
112.356606 256.0
112.423897 180.0
112.451332 232.0
112.476662 72.0
112.507622 132.0
112.546097 180.0
112.575829 132.0
112.631607 136.0
112.653923 128.0
112.668633 176.0
112.708374 128.0
112.741089 160.0
112.768143 136.0
112.789391 144.0
112.812531 232.0
112.836823 324.0
112.856522 84.0
112.895264 152.0
112.961006 148.0
112.995186 236.0
113.057137 172.0
113.082268 84.0
113.119835 204.0
113.151009 140.0
113.170067 332.0
113.187004 208.0
113.2696 164.0
113.2929 128.0
113.310913 120.0
113.342934 208.0
113.381897 148.0
113.417664 292.0
113.441238 96.0
113.519241 172.0
113.526672 136.0
113.55658 404.0
113.57695 200.0
113.607964 232.0
113.628784 156.0
113.644661 344.0
113.738213 80.0
113.759438 232.0
113.784668 240.0
113.845886 152.0
113.8741 156.0
113.899208 180.0
113.911995 128.0
113.934029 148.0
113.968651 164.0
113.991425 68.0
114.006615 132.0
114.020691 228.0
114.043739 204.0
114.080017 184.0
114.088104 168.0
114.10997 200.0
114.126976 168.0
114.146049 140.0
114.158134 288.0
114.229057 148.0
114.245705 244.0
114.2892 192.0
114.295464 244.0
114.324799 248.0
114.339699 160.0
114.365601 140.0
114.380135 176.0
114.395035 128.0
114.4142 136.0
114.441025 220.0
114.471687 160.0
114.516403 128.0
114.535576 52.0
114.557022 176.0
114.644005 184.0
114.684723 188.0
114.727356 148.0
114.824821 124.0
114.862312 196.0
114.891563 284.0
114.922173 208.0
114.948387 152.0
114.977592 164.0
114.993347 240.0
115.027229 216.0
115.051285 176.0
115.06958 68.0
115.074348 192.0
115.110916 176.0
115.128777 208.0
115.181885 196.0
115.225876 148.0
115.234612 88.0
115.240128 120.0
115.263992 360.0
115.282196 164.0
115.30349 216.0
115.363518 156.0
115.384613 144.0
115.402596 128.0
115.427734 224.0
115.473511 196.0
115.49823 188.0
115.558128 108.0
115.600922 112.0
115.625435 316.0
115.662987 132.0
115.680115 120.0
115.700699 188.0
115.709785 116.0
115.716026 180.0
115.722542 132.0
115.778091 168.0
115.799232 164.0
115.814507 440.0
115.840714 256.0
115.872673 176.0
115.893959 208.0
115.916328 156.0
115.956421 184.0
115.98214 200.0
116.020721 392.0
116.050888 436.0
116.095772 128.0
116.142303 92.0
116.169258 212.0
116.178635 120.0
116.18618 164.0
116.30011 172.0
116.315536 168.0
116.333183 184.0
116.363983 188.0
116.391899 144.0
116.436989 120.0
116.456322 160.0
116.49807 64.0
116.516464 224.0
116.533653 52.0
116.561539 164.0
116.570557 160.0
116.60318 192.0
116.66185 224.0
116.696999 68.0
116.722801 204.0
116.742546 244.0
116.770111 204.0
116.806114 152.0
116.816612 84.0
116.824005 148.0
116.869064 72.0
116.891052 164.0
116.955513 140.0
117.000351 48.0
117.017174 172.0
117.040428 208.0
117.054352 396.0
117.074768 328.0
117.103889 188.0
117.113426 156.0
117.135063 176.0
117.163971 164.0
117.199516 372.0
117.215897 160.0
117.235123 148.0
117.260254 200.0
117.301941 124.0
117.336884 96.0
117.363106 204.0
117.379555 132.0
117.400215 124.0
117.432838 164.0
117.456711 196.0
117.474449 188.0
117.498177 168.0
117.540527 188.0
117.565071 160.0
117.588806 136.0
117.616867 148.0
117.648003 188.0
117.671265 160.0
117.68705 204.0
117.705383 72.0
117.722656 168.0
117.775238 184.0
117.788338 156.0
117.829605 140.0
117.879501 132.0
117.930206 172.0
117.971062 236.0
118.020851 172.0
118.053589 1488.0
118.10321 276.0
118.13929 152.0
118.174133 168.0
118.206184 260.0
118.245308 152.0
118.26963 112.0
118.31942 180.0
118.362724 212.0
118.391151 124.0
118.401566 128.0
118.4049 244.0
118.425522 136.0
118.440689 132.0
118.477013 156.0
118.51001 52.0
118.531677 144.0
118.555511 64.0
118.638733 212.0
118.661255 144.0
118.706749 276.0
118.723907 164.0
118.805138 308.0
118.856705 336.0
118.8815 360.0
118.92675 160.0
118.97393 172.0
119.000092 196.0
119.023956 160.0
119.060608 28148.0
119.120926 148.0
119.179291 172.0
119.206528 152.0
119.247734 104.0
119.252953 168.0
119.279335 136.0
119.298782 364.0
119.316528 184.0
119.334618 176.0
119.366333 132.0
119.432632 208.0
119.447853 152.0
119.490677 152.0
119.518066 156.0
119.582504 136.0
119.594185 160.0
119.614258 116.0
119.646507 196.0
119.665901 224.0
119.695358 160.0
119.708275 116.0
119.743866 68.0
119.802681 140.0
119.820107 144.0
119.841896 204.0
119.881866 224.0
119.910782 176.0
119.944321 96.0
119.970482 144.0
120.007065 312.0
120.026222 280.0
120.080986 34664.0
120.124092 108.0
120.142319 236.0
120.172821 72.0
120.19294 32.0
120.210396 64.0
120.22567 120.0
120.240952 224.0
120.279312 104.0
120.312233 152.0
120.336998 36.0
120.356888 208.0
120.365829 136.0
120.38446 168.0
120.425507 120.0
120.44249 184.0
120.466934 180.0
120.493462 144.0
120.513092 140.0
120.544296 44.0
120.583694 124.0
120.601318 204.0
120.623177 92.0
120.668427 148.0
120.712814 164.0
120.73896 364.0
120.755203 136.0
120.774048 68.0
120.809181 136.0
120.832016 152.0
120.876663 168.0
120.901672 200.0
120.932808 252.0
120.948853 108.0
120.973236 148.0
121.003441 192.0
121.029747 148.0
121.084351 2424.0
121.117043 216.0
121.18808 140.0
121.23381 132.0
121.273262 184.0
121.347557 148.0
121.354904 132.0
121.363724 180.0
121.40992 48.0
121.433311 188.0
121.466286 128.0
121.485046 260.0
121.53775 136.0
121.600052 76.0
121.638336 148.0
121.648148 44.0
121.655022 96.0
121.673538 160.0
121.693207 156.0
121.712914 136.0
121.744514 180.0
121.775955 224.0
121.80352 72.0
121.841599 92.0
121.881737 208.0
121.90464 196.0
121.929489 68.0
121.960907 176.0
121.99572 132.0
122.032051 200.0
122.083221 556.0
122.11483 212.0
122.167564 116.0
122.184555 176.0
122.250565 156.0
122.326225 192.0
122.374992 184.0
122.41346 132.0
122.428879 352.0
122.447716 36.0
122.466019 148.0
122.488342 224.0
122.561752 216.0
122.599823 240.0
122.61834 80.0
122.644165 184.0
122.668358 196.0
122.716522 344.0
122.736176 192.0
122.75502 136.0
122.776855 164.0
122.803535 176.0
122.827797 144.0
122.871101 152.0
122.905586 108.0
122.940506 140.0
122.979111 104.0
123.01757 156.0
123.039291 176.0
123.047104 148.0
123.083801 172.0
123.10907 172.0
123.154472 100.0
123.193542 192.0
123.214417 176.0
123.267921 328.0
123.305161 156.0
123.329765 424.0
123.39534 152.0
123.410812 332.0
123.443977 176.0
123.462982 236.0
123.51033 116.0
123.573845 152.0
123.624405 292.0
123.687057 156.0
123.736046 72.0
123.756798 236.0
123.778114 68.0
123.825836 392.0
123.866699 352.0
123.8955 160.0
123.924301 220.0
123.964218 280.0
123.984131 148.0
124.023407 340.0
124.042763 196.0
124.058258 180.0
124.081657 136.0
124.100616 232.0
124.132652 152.0
124.168137 204.0
124.219154 204.0
124.25016 204.0
124.268372 176.0
124.296799 144.0
124.34182 168.0
124.34729 160.0
124.374474 180.0
124.413383 152.0
124.43885 144.0
124.463829 176.0
124.483131 200.0
124.512711 92.0
124.53743 156.0
124.571877 160.0
124.578827 144.0
124.611244 232.0
124.615585 320.0
124.623787 272.0
124.650047 188.0
124.678749 224.0
124.694305 180.0
124.736542 172.0
124.771408 396.0
124.798729 160.0
124.836067 240.0
124.851555 148.0
124.909508 172.0
124.942902 188.0
124.960114 212.0
124.989281 284.0
125.048935 124.0
125.094673 328.0
125.122177 192.0
125.15033 180.0
125.166069 176.0
125.190414 168.0
125.206001 160.0
125.270592 168.0
125.292374 144.0
125.338364 204.0
125.371986 132.0
125.416222 124.0
125.461357 276.0
125.542511 36.0
125.562576 96.0
125.607307 376.0
125.627266 76.0
125.659081 152.0
125.694435 224.0
125.759201 188.0
125.791138 64.0
125.820549 200.0
125.843307 200.0
125.871864 128.0
125.909508 188.0
125.934364 168.0
125.981087 152.0
125.994362 136.0
126.053703 224.0
126.076019 192.0
126.098015 164.0
126.103394 136.0
126.119751 212.0
126.147507 132.0
126.152435 160.0
126.178871 148.0
126.221008 156.0
126.236671 160.0
126.259369 220.0
126.306335 148.0
126.351074 380.0
126.389107 136.0
126.436104 136.0
126.485901 160.0
126.491096 168.0
126.49926 224.0
126.530113 140.0
126.581612 60.0
126.612503 360.0
126.653275 160.0
126.678528 132.0
126.70256 224.0
126.738403 200.0
126.803391 116.0
126.830284 148.0
126.909782 164.0
126.927788 128.0
126.987686 232.0
127.015312 208.0
127.049683 224.0
127.074722 204.0
127.09716 120.0
127.115112 368.0
127.140793 232.0
127.1595 164.0
127.193657 124.0
127.213684 200.0
127.256516 100.0
127.296936 72.0
127.322296 136.0
127.382935 220.0
127.40699 192.0
127.424965 152.0
127.45076 216.0
127.47847 172.0
127.513763 200.0
127.536011 240.0
127.563469 372.0
127.572601 172.0
127.576324 364.0
127.592033 380.0
127.620499 156.0
127.714951 216.0
127.738945 168.0
127.77906 224.0
127.804169 288.0
127.829681 120.0
127.856689 88.0
127.881485 168.0
127.899452 184.0
127.917458 68.0
127.937721 128.0
127.991379 120.0
128.01738 136.0
128.049316 2032.0
128.130844 172.0
128.159042 132.0
128.183517 180.0
128.201248 68.0
128.223785 80.0
128.289154 220.0
128.311111 180.0
128.358582 180.0
128.396423 132.0
128.42218 168.0
128.440231 160.0
128.510162 152.0
128.551071 152.0
128.616043 148.0
128.663635 204.0
128.688461 132.0
128.717819 280.0
128.761765 196.0
128.812729 156.0
128.83075 188.0
128.860123 144.0
128.911438 180.0
128.945984 208.0
128.97084 180.0
129.008896 312.0
129.05188 128.0
129.086151 232.0
129.107285 196.0
129.133636 132.0
129.214325 460.0
129.237686 128.0
129.341797 288.0
129.400681 140.0
129.433487 72.0
129.440048 180.0
129.468582 164.0
129.504822 184.0
129.601913 416.0
129.62915 168.0
129.713562 316.0
129.76088 292.0
129.790131 196.0
129.840988 284.0
129.883347 164.0
129.917374 164.0
129.935516 56.0
130.031647 372.0
130.065079 600.0
130.08757 124.0
130.123886 116.0
130.139786 84.0
130.182922 40.0
130.226074 36.0
130.251923 200.0
130.285126 36.0
130.302673 200.0
130.327255 104.0
130.350845 100.0
130.378983 132.0
130.396469 124.0
130.413513 200.0
130.462662 132.0
130.494217 224.0
130.516953 76.0
130.539688 160.0
130.636246 160.0
130.653412 364.0
130.685272 52.0
130.704727 200.0
130.721161 208.0
130.751602 204.0
130.797134 176.0
130.813782 144.0
130.819733 188.0
130.846451 156.0
130.87645 260.0
130.894669 164.0
130.951599 136.0
130.971497 100.0
131.059418 804.0
131.10347 232.0
131.106918 188.0
131.128082 400.0
131.147781 200.0
131.184799 164.0
131.206131 80.0
131.237915 56.0
131.274307 164.0
131.304794 136.0
131.335495 204.0
131.35611 308.0
131.378662 204.0
131.406738 176.0
131.472412 184.0
131.516556 208.0
131.557892 116.0
131.599228 112.0
131.623734 140.0
131.640945 120.0
131.684906 176.0
131.704269 228.0
131.738541 140.0
131.756821 88.0
131.841354 56.0
131.931137 200.0
131.961044 356.0
131.983078 184.0
132.00351 168.0
132.05571 5260.0
132.106583 156.0
132.138611 168.0
132.21225 152.0
132.255325 100.0
132.310516 172.0
132.328049 140.0
132.365204 176.0
132.415588 40.0
132.438492 164.0
132.454529 152.0
132.508865 172.0
132.575958 188.0
132.633789 172.0
132.70163 228.0
132.74559 68.0
132.782288 156.0
132.814758 204.0
132.834656 160.0
132.855682 152.0
132.901566 136.0
132.933685 92.0
132.961227 76.0
133.0746 5692.0
133.137238 180.0
133.152359 80.0
133.192566 224.0
133.241867 184.0
133.275818 148.0
133.294662 164.0
133.335297 192.0
133.363144 152.0
133.392151 168.0
133.411423 172.0
133.434967 164.0
133.465988 152.0
133.506653 152.0
133.54361 188.0
133.560883 144.0
133.59079 188.0
133.610062 276.0
133.629898 56.0
133.669495 116.0
133.696625 144.0
133.722092 352.0
133.751862 116.0
133.770279 64.0
133.800888 220.0
133.819901 144.0
133.855743 116.0
133.930161 176.0
133.966019 168.0
133.987579 128.0
134.032715 220.0
134.037354 112.0
134.073318 2428.0
134.099426 152.0
134.129623 112.0
134.146927 168.0
134.199539 184.0
134.227432 204.0
134.292542 268.0
134.311783 92.0
134.338867 264.0
134.427139 68.0
134.453293 132.0
134.512482 272.0
134.519287 156.0
134.548431 188.0
134.579483 136.0
134.605621 112.0
134.63028 184.0
134.663315 172.0
134.69957 284.0
134.734863 204.0
134.780426 196.0
134.803543 156.0
134.833588 192.0
134.858505 184.0
134.867676 144.0
134.874725 184.0
134.900604 128.0
134.935287 148.0
134.968704 188.0
134.995407 104.0
135.024307 176.0
135.05191 288.0
135.074951 244.0
135.100723 224.0
135.156281 284.0
135.219803 112.0
135.24295 164.0
135.281815 132.0
135.290848 104.0
135.309616 120.0
135.333969 188.0
135.351761 200.0
135.395691 136.0
135.430496 140.0
135.448029 160.0
135.479141 128.0
135.499481 184.0
135.508224 144.0
135.560333 200.0
135.613541 188.0
135.676117 164.0
135.738358 200.0
135.746948 168.0
135.755096 172.0
135.800995 136.0
135.843094 116.0
135.891098 196.0
135.919647 160.0
135.971878 364.0
135.989273 92.0
136.026413 224.0
136.053055 180.0
136.086761 152.0
136.130203 204.0
136.159546 176.0
136.184067 116.0
136.201385 212.0
136.229095 256.0
136.285782 192.0
136.308594 160.0
136.352798 324.0
136.371658 88.0
136.400391 156.0
136.416656 188.0
136.437592 164.0
136.497025 168.0
136.522583 208.0
136.537567 432.0
136.574524 320.0
136.62262 168.0
136.671341 204.0
136.708252 216.0
136.745255 132.0
136.801361 204.0
136.840073 184.0
136.862259 136.0
136.903152 88.0
136.94252 224.0
136.993774 156.0
137.03804 172.0
137.06134 124.0
137.122299 148.0
137.145233 148.0
137.173538 196.0
137.200806 252.0
137.229156 180.0
137.268784 112.0
137.28717 188.0
137.321289 180.0
137.36441 348.0
137.382141 140.0
137.498413 204.0
137.541748 308.0
137.603699 216.0
137.653809 196.0
137.722672 236.0
137.769501 180.0
137.807968 188.0
137.852371 292.0
137.873398 228.0
137.892105 168.0
137.908463 160.0
137.934174 168.0
137.959885 240.0
138.015427 148.0
138.036179 164.0
138.054611 236.0
138.097839 116.0
138.123901 272.0
138.19397 128.0
138.254333 196.0
138.287354 152.0
138.311707 188.0
138.344711 168.0
138.371628 80.0
138.401016 204.0
138.417236 216.0
138.446564 96.0
138.51265 164.0
138.551956 140.0
138.577728 152.0
138.684769 172.0
138.760544 132.0
138.799408 148.0
138.873093 136.0
138.915314 212.0
138.934204 272.0
138.95285 308.0
138.976318 88.0
139.030289 136.0
139.047562 140.0
139.09494 132.0
139.158722 144.0
139.192673 328.0
139.236877 192.0
139.283844 104.0
139.335464 136.0
139.35405 132.0
139.364532 116.0
139.373184 172.0
139.398972 140.0
139.490631 204.0
139.516495 128.0
139.556961 168.0
139.589371 156.0
139.610535 120.0
139.631699 164.0
139.664627 156.0
139.695206 96.0
139.714035 112.0
139.74025 192.0
139.758728 204.0
139.779297 200.0
139.803436 168.0
139.866989 152.0
139.925446 212.0
139.947021 140.0
139.998032 152.0
140.02002 168.0
140.084045 384.0
140.140167 148.0
140.171295 188.0
140.224487 184.0
140.243851 204.0
140.277115 180.0
140.314224 196.0
140.371338 280.0
140.409943 136.0
140.44899 112.0
140.486725 128.0
140.511307 176.0
140.571655 228.0
140.594498 172.0
140.625946 96.0
140.675827 116.0
140.683334 164.0
140.755783 88.0
140.80188 92.0
140.828995 212.0
140.864166 188.0
140.889542 76.0
140.973907 140.0
141.00383 180.0
141.040268 208.0
141.084183 180.0
141.14299 188.0
141.210266 188.0
141.226212 200.0
141.288452 108.0
141.329407 152.0
141.420212 300.0
141.460373 164.0
141.5009 280.0
141.550293 84.0
141.606171 148.0
141.659744 116.0
141.711349 160.0
141.730301 128.0
141.784805 132.0
141.820023 200.0
141.846436 132.0
141.874878 128.0
141.928543 228.0
141.945328 140.0
141.97821 104.0
142.021622 172.0
142.054855 180.0
142.076462 136.0
142.143143 192.0
142.180862 192.0
142.220062 208.0
142.247314 164.0
142.271057 188.0
142.346741 160.0
142.389099 220.0
142.438782 184.0
142.461029 196.0
142.479935 172.0
142.534683 148.0
142.551315 128.0
142.579834 52.0
142.6147 436.0
142.631973 120.0
142.661819 204.0
142.696304 152.0
142.727219 152.0
142.764633 228.0
142.805801 92.0
142.831863 132.0
142.861481 168.0
142.910522 184.0
142.953201 104.0
142.97699 124.0
143.009415 128.0
143.060455 3080.0
143.08432 276.0
143.10791 156.0
143.12999 208.0
143.155533 324.0
143.176971 116.0
143.203171 56.0
143.223816 244.0
143.230347 164.0
143.274384 80.0
143.308899 200.0
143.331802 252.0
143.358017 188.0
143.381729 164.0
143.45813 184.0
143.484344 168.0
143.506958 132.0
143.577408 152.0
143.615494 200.0
143.637482 276.0
143.655365 208.0
143.719025 132.0
143.736359 152.0
143.796829 192.0
143.81282 160.0
143.842178 140.0
143.882767 152.0
143.927948 160.0
143.940491 180.0
143.959167 204.0
143.99202 196.0
144.06105 620.0
144.097351 164.0
144.103363 140.0
144.11087 216.0
144.188507 88.0
144.217484 180.0
144.23909 160.0
144.26738 132.0
144.298462 108.0
144.319977 168.0
144.365005 200.0
144.394104 112.0
144.429993 172.0
144.454437 180.0
144.477264 168.0
144.520706 208.0
144.529617 192.0
144.573669 196.0
144.613022 208.0
144.633362 188.0
144.652512 44.0
144.671661 156.0
144.694214 96.0
144.719543 148.0
144.750671 216.0
144.779221 152.0
144.810547 184.0
144.827942 332.0
144.861847 168.0
144.902328 136.0
144.930984 188.0
144.995026 168.0
145.057159 368.0
145.083588 164.0
145.098724 320.0
145.134064 176.0
145.166763 176.0
145.204926 224.0
145.231583 168.0
145.26384 68.0
145.290894 112.0
145.311386 124.0
145.34993 188.0
145.378845 172.0
145.40033 248.0
145.44545 120.0
145.486633 176.0
145.551559 116.0
145.57637 180.0
145.594788 252.0
145.649887 144.0
145.695663 100.0
145.71489 152.0
145.7341 192.0
145.755737 232.0
145.805557 208.0
145.822693 176.0
145.849457 144.0
145.884644 376.0
145.914368 200.0
145.952026 336.0
145.986496 228.0
146.016693 340.0
146.060013 7816.0
146.091049 280.0
146.097763 124.0
146.198624 164.0
146.22641 220.0
146.286804 152.0
146.335083 272.0
146.359467 140.0
146.383743 156.0
146.4534 92.0
146.475067 44.0
146.508789 156.0
146.553467 96.0
146.60733 148.0
146.638916 64.0
146.67012 356.0
146.695206 136.0
146.710327 128.0
146.73877 132.0
146.80043 164.0
146.846085 164.0
146.906036 204.0
146.936295 220.0
146.973038 196.0
147.005478 120.0
147.026169 152.0
147.06279 1204.0
147.112915 196.0
147.136917 196.0
147.173096 136.0
147.191345 148.0
147.233536 144.0
147.302063 176.0
147.311386 148.0
147.320251 152.0
147.368591 136.0
147.411163 256.0
147.447235 156.0
147.51268 164.0
147.567627 104.0
147.587616 136.0
147.638397 56.0
147.661697 308.0
147.690109 236.0
147.713104 216.0
147.741638 160.0
147.793015 220.0
147.804077 172.0
147.848862 176.0
147.892426 184.0
147.927383 100.0
147.954254 156.0
147.980118 284.0
148.0047 148.0
148.028 312.0
148.063858 268.0
148.084015 368.0
148.122452 184.0
148.188644 172.0
148.240829 168.0
148.245102 152.0
148.253632 320.0
148.304413 208.0
148.330841 80.0
148.355087 48.0
148.398102 252.0
148.422974 32.0
148.454468 164.0
148.472046 152.0
148.536667 200.0
148.616074 228.0
148.665543 164.0
148.726227 60.0
148.745636 132.0
148.782059 192.0
148.838028 148.0
148.862183 168.0
148.886459 120.0
148.910751 132.0
148.937469 60.0
149.0121 160.0
149.032211 40.0
149.059311 152.0
149.071426 228.0
149.114822 108.0
149.199493 308.0
149.240662 168.0
149.297287 148.0
149.31662 144.0
149.370132 300.0
149.478516 240.0
149.509476 132.0
149.535583 76.0
149.589905 152.0
149.62384 180.0
149.648148 472.0
149.679214 148.0
149.719421 148.0
149.767456 188.0
149.794052 128.0
149.864319 192.0
149.885391 168.0
149.934769 204.0
149.966675 68.0
149.987747 216.0
150.070709 172.0
150.105637 128.0
150.127579 56.0
150.158676 192.0
150.188553 212.0
150.207596 188.0
150.239777 116.0
150.334595 176.0
150.341492 152.0
150.349548 280.0
150.391068 212.0
150.442322 160.0
150.469177 200.0
150.490524 240.0
150.536469 200.0
150.557083 164.0
150.613251 168.0
150.63768 156.0
150.657227 184.0
150.718307 84.0
150.774887 316.0
150.864075 192.0
150.901123 160.0
150.918732 200.0
150.952972 144.0
150.982315 96.0
151.017899 176.0
151.047745 180.0
151.065475 244.0
151.083694 116.0
151.115036 184.0
151.158447 160.0
151.186203 140.0
151.21228 132.0
151.248993 80.0
151.266129 144.0
151.302551 168.0
151.329773 196.0
151.376221 128.0
151.463577 164.0
151.502167 196.0
151.518661 124.0
151.572037 128.0
151.613922 120.0
151.662933 176.0
151.726395 172.0
151.814941 124.0
151.839462 136.0
151.86763 132.0
151.873718 116.0
151.908524 156.0
151.934128 196.0
151.963608 296.0
151.986649 156.0
152.033279 200.0
152.067627 160.0
152.084808 160.0
152.141266 300.0
152.175323 152.0
152.197739 144.0
152.220306 168.0
152.249313 160.0
152.274567 184.0
152.298798 52.0
152.335266 252.0
152.372116 156.0
152.404068 144.0
152.433548 92.0
152.485153 192.0
152.502365 112.0
152.569733 176.0
152.621338 200.0
152.659698 120.0
152.708893 244.0
152.755936 92.0
152.784042 196.0
152.841736 112.0
152.86142 200.0
152.900787 144.0
153.001709 56.0
153.018936 112.0
153.064331 176.0
153.084152 196.0
153.10408 152.0
153.127289 204.0
153.156845 128.0
153.176544 144.0
153.248367 212.0
153.266327 116.0
153.296936 120.0
153.326843 204.0
153.354828 112.0
153.365295 140.0
153.39093 176.0
153.427185 232.0
153.473755 120.0
153.506363 224.0
153.529663 188.0
153.574066 96.0
153.636642 160.0
153.656845 180.0
153.69368 116.0
153.733749 256.0
153.797913 148.0
153.821564 104.0
153.868835 148.0
153.891006 280.0
153.913635 156.0
153.939026 208.0
153.970749 204.0
153.995438 236.0
154.030014 128.0
154.067078 164.0
154.08316 128.0
154.116486 212.0
154.145874 168.0
154.247467 128.0
154.299042 144.0
154.324112 156.0
154.345856 256.0
154.452011 220.0
154.53772 192.0
154.574326 176.0
154.601868 152.0
154.63681 176.0
154.662125 144.0
154.709229 192.0
154.760696 132.0
154.789276 88.0
154.816513 164.0
154.85614 172.0
154.899338 184.0
154.955002 180.0
154.977524 288.0
154.997955 156.0
155.024612 156.0
155.051865 100.0
155.08905 188.0
155.1064 96.0
155.14389 64.0
155.194458 180.0
155.215485 132.0
155.307236 160.0
155.356842 164.0
155.3918 308.0
155.44368 180.0
155.466309 136.0
155.52655 296.0
155.552887 168.0
155.612564 100.0
155.645187 180.0
155.672287 176.0
155.706833 360.0
155.73912 332.0
155.765213 212.0
155.798584 132.0
155.841522 176.0
155.862869 216.0
155.867676 176.0
155.922287 116.0
155.950302 76.0
155.985367 228.0
156.007477 144.0
156.034821 48.0
156.085693 156.0
156.102997 196.0
156.166565 180.0
156.178986 156.0
156.204666 148.0
156.247177 224.0
156.265671 176.0
156.300949 184.0
156.310318 136.0
156.368286 132.0
156.39595 188.0
156.438843 148.0
156.465225 96.0
156.53244 120.0
156.554855 112.0
156.597198 168.0
156.622208 180.0
156.6474 168.0
156.710724 184.0
156.740311 176.0
156.768143 176.0
156.824478 400.0
156.886246 60.0
156.914536 80.0
156.956055 304.0
156.972748 184.0
156.991516 252.0
157.038345 128.0
157.071838 172.0
157.102295 160.0
157.141556 180.0
157.227463 164.0
157.243668 188.0
157.263443 216.0
157.303452 296.0
157.342773 160.0
157.375229 144.0
157.399017 220.0
157.449066 148.0
157.470123 152.0
157.499069 320.0
157.535065 160.0
157.564728 168.0
157.573929 136.0
157.578644 324.0
157.604599 188.0
157.622971 292.0
157.720108 156.0
157.747467 116.0
157.781448 176.0
157.822861 76.0
157.845566 204.0
157.908188 172.0
157.932358 276.0
157.978012 376.0
157.99678 236.0
158.023209 156.0
158.071945 3276.0
158.105865 164.0
158.125153 176.0
158.171738 208.0
158.196106 116.0
158.201248 120.0
158.24144 212.0
158.287521 168.0
158.302979 152.0
158.322937 136.0
158.358002 144.0
158.407272 256.0
158.43454 208.0
158.464478 348.0
158.489639 184.0
158.510818 176.0
158.538376 180.0
158.570663 104.0
158.591003 176.0
158.626968 260.0
158.666367 200.0
158.686935 312.0
158.707184 344.0
158.736389 228.0
158.80162 104.0
158.870102 272.0
158.947556 328.0
158.968307 108.0
158.993073 180.0
159.019897 156.0
159.078461 2484.0
159.152939 144.0
159.177811 196.0
159.22226 192.0
159.249908 236.0
159.278381 180.0
159.311493 152.0
159.333481 140.0
159.356964 580.0
159.385849 148.0
159.405579 240.0
159.415558 196.0
159.443909 220.0
159.478348 188.0
159.489288 192.0
159.494797 224.0
159.541199 156.0
159.574203 404.0
159.604568 124.0
159.626068 380.0
159.672775 192.0
159.694351 268.0
159.717133 276.0
159.758179 328.0
159.777878 440.0
159.797989 420.0
159.820892 360.0
159.848938 336.0
159.873383 536.0
159.90419 552.0
159.934799 572.0
159.97081 664.0
159.990601 480.0
159.998917 408.0
160.054245 2652.0
160.088654 472896.0
160.165344 240.0
160.17276 204.0
160.218781 108.0
160.253922 356.0
160.293655 192.0
160.321854 856.0
160.365036 448.0
160.398056 672.0
160.430054 160.0
160.450851 184.0
160.473389 1668.0
160.502853 17480.0
160.529068 476.0
160.555466 344.0
160.590622 192.0
160.627289 116.0
160.637329 156.0
160.646347 248.0
160.676697 220.0
160.702209 280.0
160.729645 116.0
160.753525 436.0
160.774979 368.0
160.818741 180.0
160.841553 80.0
160.856064 224.0
160.886002 204.0
160.897583 172.0
160.909317 408.0
160.932388 224.0
160.949554 260.0
160.962326 156.0
160.968948 168.0
160.99118 460.0
161.023834 208.0
161.031616 112.0
161.038116 288.0
161.0905 114344.0
161.146912 228.0
161.174652 176.0
161.194183 164.0
161.227142 228.0
161.261368 352.0
161.314316 188.0
161.339615 164.0
161.372391 128.0
161.387543 144.0
161.415161 128.0
161.455917 188.0
161.503677 144.0
161.527023 108.0
161.553574 76.0
161.581558 136.0
161.627045 108.0
161.665665 68.0
161.690521 100.0
161.718994 380.0
161.768295 124.0
161.802979 160.0
161.846039 256.0
161.868011 164.0
161.885529 316.0
161.914688 188.0
161.956406 216.0
161.980591 172.0
162.006653 368.0
162.025681 156.0
162.058441 328.0
162.092606 5268.0
162.129425 396.0
162.168945 208.0
162.179733 308.0
162.203171 248.0
162.229309 264.0
162.255569 464.0
162.297348 368.0
162.332184 348.0
162.374695 348.0
162.390747 380.0
162.443268 100.0
162.476532 304.0
162.543472 104.0
162.576767 108.0
162.600494 136.0
162.648605 152.0
162.704163 156.0
162.727371 80.0
162.749741 84.0
162.781494 96.0
162.81076 80.0
162.851257 132.0
162.87558 44.0
162.915619 64.0
162.929062 140.0
162.961044 108.0
162.981689 88.0
163.018555 136.0
163.043137 68.0
163.066086 68.0
163.093094 396.0
163.119141 248.0
163.139282 136.0
163.18129 144.0
163.210251 172.0
163.234024 172.0
163.265884 52.0
163.283386 72.0
163.315872 132.0
163.34938 72.0
163.384735 216.0
163.442383 56.0
163.498367 72.0
163.526871 148.0
163.545471 156.0
163.600174 36.0
163.645996 56.0
163.663818 28.0
163.709732 80.0
163.735123 36.0
163.812805 72.0
163.849747 64.0
163.891937 116.0
163.915359 48.0
163.93045 208.0
163.975876 88.0
164.012833 96.0
164.042267 68.0
164.063812 56.0
164.082809 80.0
164.137985 88.0
164.175903 104.0
164.205688 100.0
164.260178 96.0
164.315201 56.0
164.347809 68.0
164.392838 64.0
164.43367 180.0
164.461746 44.0
164.487274 244.0
164.533218 84.0
164.599609 108.0
164.706863 76.0
164.72525 248.0
164.755402 124.0
164.790695 140.0
164.867828 56.0
164.90361 128.0
165.008408 32.0
165.059555 56.0
165.133713 32.0
165.246262 112.0
165.271851 40.0
165.32814 152.0
165.363464 80.0
165.46637 48.0
165.512451 168.0
165.571884 208.0
165.593048 76.0
165.613876 112.0
165.701981 52.0
165.742981 76.0
165.814728 136.0
165.871124 60.0
165.901352 96.0
165.927521 40.0
166.004898 176.0
166.084915 824.0
166.124985 172.0
166.178864 72.0
166.274994 164.0
166.322571 52.0
166.361069 56.0
166.450928 44.0
166.527969 28.0
166.545944 108.0
166.597321 76.0
166.642609 188.0
166.674408 68.0
166.791519 132.0
166.833755 132.0
166.944458 72.0
166.962311 112.0
167.003464 140.0
167.049759 52.0
167.08783 144.0
167.121796 152.0
167.189041 212.0
167.255615 188.0
167.299377 160.0
167.317398 48.0
167.348297 40.0
167.368881 48.0
167.412659 52.0
167.5569 72.0
167.602371 116.0
167.639862 144.0
167.757919 96.0
167.794006 136.0
167.812866 96.0
168.018372 124.0
168.093201 48.0
168.145081 76.0
168.180954 92.0
168.204178 204.0
168.235291 76.0
168.276459 36.0
168.310028 92.0
168.328094 124.0
168.356506 88.0
168.382339 180.0
168.415909 232.0
168.436569 48.0
168.490814 92.0
168.542496 80.0
168.672394 76.0
168.70015 120.0
168.730667 128.0
168.850113 224.0
168.891495 112.0
168.974274 208.0
168.995865 92.0
169.014633 80.0
169.036377 48.0
169.129532 68.0
169.150253 56.0
169.262039 132.0
169.297531 176.0
169.354797 184.0
169.391068 212.0
169.409195 68.0
169.528381 72.0
169.548203 68.0
169.582214 88.0
169.606125 80.0
169.628967 120.0
169.694275 56.0
169.777252 112.0
169.801071 128.0
169.835876 172.0
169.865433 36.0
169.925095 92.0
169.974396 164.0
169.992554 120.0
170.021103 120.0
170.083389 64.0
170.101562 104.0
170.130112 92.0
170.148285 52.0
170.193832 80.0
170.259949 52.0
170.298904 84.0
170.322281 96.0
170.37027 92.0
170.467773 64.0
170.527542 48.0
170.582123 60.0
170.621552 96.0
170.641922 48.0
170.683517 36.0
170.748535 96.0
170.770309 128.0
170.797943 100.0
170.83696 156.0
170.862976 52.0
170.907211 232.0
170.943634 28.0
171.101288 168.0
171.125839 68.0
171.206558 76.0
171.266464 76.0
171.500961 40.0
171.523026 92.0
171.586212 108.0
171.609299 96.0
171.712784 132.0
171.777359 124.0
171.938248 144.0
171.999146 60.0
172.043442 136.0
172.084488 316.0
172.104324 168.0
172.148926 164.0
172.17543 108.0
172.219574 72.0
172.252441 60.0
172.320358 76.0
172.339569 248.0
172.377838 56.0
172.42157 104.0
172.438644 120.0
172.500671 80.0
172.615707 68.0
172.638229 88.0
172.659241 56.0
172.686325 104.0
172.717712 96.0
172.793579 92.0
172.81189 80.0
172.840668 60.0
172.900848 88.0
172.924408 124.0
172.971436 128.0
173.107666 88.0
173.146942 108.0
173.213989 340.0
173.254333 88.0
173.351288 100.0
173.427277 132.0
173.477081 88.0
173.50592 140.0
173.594604 112.0
173.623917 60.0
173.679001 160.0
173.741943 132.0
173.804916 84.0
173.979507 156.0
174.038528 92.0
174.062149 96.0
174.12764 2740.0
174.222366 124.0
174.327469 116.0
174.356369 80.0
174.419449 84.0
174.44223 84.0
174.485168 104.0
174.514084 308.0
174.6035 80.0
174.624527 60.0
174.719223 128.0
174.803421 72.0
174.929749 112.0
174.950821 40.0
175.044159 176.0
175.080612 244.0
175.106171 80.0
175.13028 304.0
175.251053 68.0
175.282669 140.0
175.311661 176.0
175.335373 60.0
175.40126 36.0
175.440811 68.0
175.472443 120.0
175.577911 64.0
175.616241 124.0
175.667587 104.0
175.717712 168.0
175.928848 56.0
175.984283 80.0
176.07016 92.0
176.0952 116.0
176.121613 72.0
176.140091 152.0
176.282761 204.0
176.417557 112.0
176.539185 156.0
176.745514 160.0
176.814316 136.0
176.854004 216.0
176.922836 152.0
177.166473 148.0
177.351959 72.0
177.402328 140.0
177.484512 112.0
177.526932 172.0
177.680771 64.0
177.733841 132.0
177.812454 128.0
177.866531 116.0
178.145355 56.0
178.206451 68.0
178.334015 92.0
178.47583 160.0
178.62117 44.0
178.658417 188.0
178.783463 108.0
179.01384 148.0
179.180206 156.0
179.297455 160.0
179.324097 72.0
179.348083 36.0
179.4254 128.0
179.668076 140.0
179.76413 128.0
179.886902 44.0
179.953644 128.0
180.242111 172.0
180.418503 116.0
180.477325 156.0
180.576263 36.0
180.726074 80.0
180.759064 144.0
180.877548 152.0
180.953568 156.0
181.092819 60.0
181.144424 208.0
181.299103 160.0
181.695938 84.0
181.88916 112.0
182.18454 108.0
182.216782 148.0
182.310684 168.0
182.379059 232.0
182.461334 56.0
182.633438 92.0
182.671097 192.0
182.749115 68.0
182.767944 68.0
182.805618 84.0
182.848679 96.0
183.055969 100.0
183.112518 152.0
183.320465 148.0
183.37117 188.0
183.614517 136.0
183.692017 40.0
183.727875 152.0
183.840408 136.0
183.902481 180.0
183.953766 140.0
183.999664 176.0
184.109222 312.0
184.148178 124.0
184.280548 116.0
184.309296 188.0
184.358902 236.0
184.385925 140.0
184.65358 136.0
184.71579 108.0
184.737427 108.0
185.008041 148.0
185.057663 348.0
185.116348 176.0
185.138016 180.0
185.227386 108.0
185.308655 124.0
185.362854 108.0
185.403366 160.0
185.5336 88.0
185.636627 84.0
185.67189 160.0
185.747833 188.0
185.783096 60.0
185.802094 140.0
185.921478 172.0
185.989319 100.0
186.054474 140.0
186.100098 176.0
186.105179 112.0
186.114746 292.0
186.182083 144.0
186.241837 156.0
186.380386 96.0
186.973206 52.0
187.215485 116.0
187.299911 164.0
187.335327 132.0
187.430679 52.0
187.637833 112.0
187.746902 152.0
188.114716 152.0
188.250412 156.0
188.404694 128.0
188.475311 128.0
188.49588 196.0
188.552246 64.0
188.642441 76.0
188.688919 128.0
188.77916 104.0
188.924118 208.0
189.112915 144.0
189.367538 116.0
189.386719 92.0
189.443527 80.0
189.477112 152.0
189.518219 204.0
189.583969 76.0
189.682648 100.0
189.945877 108.0
190.03093 112.0
190.135193 160.0
190.181854 160.0
190.234009 164.0
190.450928 144.0
190.607529 160.0
190.656982 52.0
190.783417 124.0
190.817764 128.0
190.868652 156.0
191.01442 56.0
191.074936 120.0
191.121704 116.0
191.151978 92.0
191.311615 76.0
191.347397 92.0
191.374924 100.0
191.429993 120.0
191.490585 116.0
191.537415 164.0
191.970108 68.0
192.063934 340.0
192.375687 176.0
192.40329 72.0
192.492477 120.0
192.560684 136.0
192.676697 124.0
192.729202 64.0
192.792755 124.0
192.842499 184.0
192.928192 132.0
193.0056 92.0
193.23793 104.0
193.260071 124.0
193.351379 184.0
193.398438 168.0
193.426117 36.0
193.603302 72.0
193.675308 176.0
193.758423 96.0
193.847076 208.0
193.966248 132.0
194.299026 84.0
194.587662 88.0
194.629303 160.0
194.843155 108.0
195.026566 160.0
195.068253 164.0
195.173904 140.0
195.372879 128.0
195.440918 204.0
195.490677 168.0
195.632721 140.0
195.855728 128.0
196.064011 132.0
196.181747 100.0
196.460617 112.0
196.491302 152.0
196.530365 164.0
196.559402 276.0
196.669891 192.0
196.92955 128.0
197.125107 36.0
197.220139 144.0
197.278839 84.0
197.326355 144.0
197.488556 84.0
197.586456 216.0
197.683426 152.0
197.793533 156.0
197.818726 80.0
197.860718 160.0
198.05394 176.0
198.104355 160.0
198.129578 168.0
198.236038 124.0
198.294891 212.0
198.883881 376.0
198.973709 192.0
199.063568 108.0
199.109451 240.0
199.240509 184.0
199.712753 104.0
199.847794 76.0
200.10672 132.0
200.208099 60.0
200.278503 136.0
200.42218 148.0
200.461975 132.0
200.534897 168.0
200.565903 160.0
200.622284 204.0
200.812347 116.0
200.842224 144.0
200.909927 112.0
201.048187 52.0
201.098984 112.0
201.14415 332.0
201.172379 56.0
201.220367 32.0
201.324844 64.0
201.497131 176.0
201.550827 132.0
201.598999 168.0
201.740173 88.0
201.895691 180.0
202.123215 128.0
202.147461 140.0
202.30336 140.0
202.405045 120.0
202.512665 216.0
202.74498 120.0
202.881027 300.0
202.900864 108.0
202.954742 52.0
202.980255 132.0
203.034134 164.0
203.093765 168.0
203.122055 156.0
203.147598 168.0
203.198654 144.0
203.292297 192.0
203.455261 124.0
203.567642 168.0
203.587524 80.0
203.706818 100.0
203.735229 128.0
203.814774 120.0
203.98378 200.0
204.075104 384.0
204.263962 164.0
204.383453 80.0
204.411896 144.0
204.443665 172.0
204.52005 180.0
204.682632 184.0
204.807632 136.0
204.878845 176.0
204.961472 52.0
205.027008 72.0
205.064056 136.0
205.468964 140.0
205.59166 52.0
205.800034 72.0
205.865707 96.0
205.928543 124.0
206.008514 216.0
206.085663 224.0
206.241333 168.0
206.397202 60.0
206.663208 48.0
206.80014 160.0
206.903625 72.0
207.164215 56.0
207.396317 180.0
207.485184 48.0
207.609497 116.0
207.637161 84.0
207.697388 176.0
207.792053 168.0
208.22673 128.0
208.366241 120.0
208.484055 128.0
208.763901 184.0
209.013168 72.0
209.136902 180.0
209.257812 36.0
209.280838 144.0
209.372986 176.0
209.55864 124.0
209.672607 200.0
209.93782 184.0
210.136856 176.0
210.217651 108.0
210.405258 168.0
210.636276 88.0
210.666565 140.0
210.694046 124.0
210.855865 68.0
210.975937 192.0
211.049545 60.0
211.128983 196.0
211.347458 124.0
211.454529 124.0
211.486374 80.0
211.680328 172.0
211.712189 164.0
211.917847 148.0
211.987396 220.0
212.442596 128.0
212.471603 124.0
212.50351 148.0
212.526718 116.0
212.680527 140.0
212.700851 96.0
212.848907 76.0
212.880859 48.0
212.95636 56.0
213.023163 116.0
213.089981 52.0
213.121948 156.0
213.177155 140.0
213.226562 140.0
213.290497 60.0
213.363174 120.0
213.479477 100.0
213.598724 160.0
213.861191 136.0
213.968292 192.0
214.00032 164.0
214.058563 52.0
214.13356 10412.0
214.329453 64.0
214.459946 72.0
214.495071 164.0
214.503708 136.0
214.559708 48.0
214.585938 68.0
214.629684 68.0
214.688004 44.0
214.711334 44.0
214.770462 72.0
214.895096 76.0
214.95929 52.0
215.01181 64.0
215.038086 136.0
215.133698 1300.0
215.186951 320.0
215.216156 56.0
215.245346 100.0
215.34465 108.0
215.464401 88.0
215.537445 64.0
215.882385 72.0
215.996445 60.0
216.075424 108.0
216.128159 192.0
216.140793 140.0
216.215881 180.0
216.429565 132.0
216.458847 116.0
216.543777 204.0
216.599426 120.0
216.688385 264.0
216.769348 88.0
216.843521 232.0
216.945206 168.0
217.062134 168.0
217.13356 10916.0
217.218628 148.0
217.270721 44.0
217.34407 100.0
217.496674 52.0
217.523102 160.0
217.552444 32.0
217.580368 204.0
217.699249 60.0
217.799118 104.0
217.922485 40.0
217.954819 148.0
217.995956 196.0
218.048843 68.0
218.101746 84.0
218.136734 2412.0
218.175247 72.0
218.201706 220.0
218.254623 36.0
218.363434 128.0
218.466385 176.0
218.523972 92.0
218.740051 308.0
218.846024 32.0
218.907867 84.0
219.139984 144.0
219.21991 168.0
219.394012 144.0
219.476562 140.0
219.538483 100.0
219.653519 152.0
219.762665 172.0
219.80397 36.0
219.836441 60.0
219.889557 112.0
219.97139 188.0
220.047745 136.0
220.132874 376.0
220.172974 184.0
220.249176 180.0
220.291122 108.0
220.427017 52.0
220.494995 124.0
220.521591 72.0
220.542282 92.0
220.571838 44.0
220.728531 104.0
220.811325 88.0
220.876404 52.0
220.929642 116.0
220.991776 244.0
221.012482 164.0
221.13858 152.0
221.28183 176.0
221.381866 208.0
221.472778 116.0
221.613541 176.0
221.735031 100.0
221.764236 136.0
221.785416 76.0
221.901031 56.0
222.031937 164.0
222.066315 76.0
222.105652 316.0
222.170914 184.0
222.200577 116.0
222.342422 204.0
222.670517 176.0
222.692078 132.0
222.931 212.0
223.029083 116.0
223.204483 180.0
223.278824 92.0
223.35318 152.0
223.429428 152.0
223.50087 224.0
223.588226 144.0
223.615005 140.0
223.871033 80.0
224.065536 120.0
224.091461 204.0
224.189789 176.0
224.219589 192.0
224.405212 88.0
224.538589 164.0
224.786194 160.0
224.914948 196.0
224.953323 184.0
225.138351 136.0
225.386368 108.0
225.5896 80.0
226.059174 104.0
226.166916 156.0
226.232773 56.0
226.541214 180.0
226.658051 184.0
226.73732 216.0
226.852859 148.0
226.885834 64.0
226.92482 140.0
227.125732 176.0
227.147507 184.0
227.467804 28.0
227.539856 88.0
227.662964 184.0
227.753067 72.0
228.176773 156.0
228.285019 108.0
228.369217 88.0
228.468491 184.0
228.531662 100.0
228.760391 168.0
228.965134 72.0
229.133667 176.0
229.263382 144.0
229.417099 104.0
229.522614 136.0
229.613083 80.0
229.751831 160.0
229.781998 96.0
229.815186 148.0
229.999283 132.0
230.054779 140.0
230.110977 76.0
230.135117 48.0
230.533844 52.0
230.561035 96.0
230.842178 52.0
231.014908 180.0
231.035339 144.0
231.268753 64.0
231.350479 116.0
231.598785 76.0
231.632095 156.0
231.780548 192.0
231.907837 180.0
231.98288 200.0
232.086685 168.0
232.144302 212.0
232.426407 128.0
232.693497 40.0
232.775482 140.0
233.140015 184.0
233.285904 64.0
233.790802 96.0
233.985596 96.0
234.335846 120.0
234.360214 116.0
234.448578 140.0
234.497345 176.0
234.735474 180.0
234.765625 188.0
234.823578 136.0
235.293488 124.0
235.354553 132.0
235.611099 212.0
235.912338 224.0
235.959503 156.0
236.011475 156.0
236.16861 148.0
236.375473 168.0
236.550537 160.0
236.635635 160.0
236.696869 156.0
236.776489 208.0
236.91127 168.0
237.131882 196.0
237.269821 192.0
237.631714 196.0
237.680817 116.0
237.901779 124.0
238.585983 200.0
238.669861 140.0
238.774414 68.0
238.814392 120.0
239.091293 136.0
239.251343 176.0
239.6548 148.0
239.741074 72.0
239.811966 136.0
240.16037 104.0
240.583115 112.0
240.823959 152.0
240.925903 120.0
240.959885 184.0
241.116394 164.0
241.321487 120.0
241.726685 96.0
241.921661 184.0
242.237854 116.0
242.274704 44.0
242.34906 164.0
242.503998 196.0
242.701981 60.0
242.841949 212.0
242.869858 152.0
242.956711 60.0
243.077728 112.0
243.118057 120.0
243.329132 160.0
243.48439 152.0
243.586884 120.0
243.621048 92.0
243.645905 144.0
243.74855 104.0
243.810593 132.0
243.90799 268.0
244.077927 148.0
244.264526 152.0
244.289413 68.0
244.323624 132.0
244.385849 204.0
244.410751 104.0
244.491653 132.0
244.519653 104.0
244.600174 180.0
244.675903 124.0
244.785828 96.0
244.821396 156.0
244.874588 140.0
244.90715 220.0
244.980484 172.0
245.00853 192.0
245.047623 160.0
245.082596 232.0
245.128433 30448.0
245.20282 168.0
245.224106 72.0
245.252365 32.0
245.32016 40.0
245.3638 60.0
245.438629 152.0
245.475082 84.0
245.530914 168.0
245.572723 40.0
245.619873 68.0
245.64447 116.0
245.683853 140.0
245.738052 36.0
245.773849 144.0
245.909683 72.0
245.931976 140.0
245.993958 212.0
246.051895 200.0
246.07341 192.0
246.130478 4292.0
246.212524 64.0
246.26561 64.0
246.359314 64.0
246.49527 156.0
246.540543 200.0
246.640442 64.0
246.671814 92.0
246.834381 48.0
246.900055 48.0
246.937576 52.0
246.987625 72.0
247.02829 40.0
247.133728 632.0
247.353729 32.0
247.488342 72.0
247.539764 92.0
247.591675 160.0
247.635529 44.0
247.776474 136.0
247.820343 108.0
247.86644 124.0
247.936279 176.0
247.964493 108.0
247.991867 120.0
248.072708 76.0
248.12944 116.0
248.153336 212.0
248.246643 152.0
248.268585 164.0
248.440598 124.0
248.704681 92.0
248.776871 288.0
248.857941 112.0
248.987244 124.0
249.147446 168.0
249.279404 160.0
249.403442 204.0
249.505707 108.0
249.552872 96.0
249.628326 84.0
249.700653 60.0
249.996384 84.0
250.519028 92.0
250.853058 152.0
250.916107 108.0
251.200455 72.0
251.244095 84.0
251.458664 140.0
251.487076 128.0
251.597549 96.0
251.673325 160.0
251.865967 192.0
251.939056 172.0
251.963882 68.0
252.196487 124.0
252.302048 108.0
252.428513 120.0
252.586639 100.0
252.615112 156.0
252.723602 156.0
252.760651 152.0
252.833435 96.0
252.965439 68.0
253.134171 124.0
253.181671 124.0
253.443756 76.0
253.732605 160.0
253.755188 152.0
254.161179 44.0
254.307144 48.0
254.37442 124.0
254.565353 132.0
254.643692 36.0
254.684982 68.0
254.799347 68.0
254.970932 124.0
254.999527 124.0
255.212524 84.0
255.29837 80.0
255.356506 156.0
255.412872 120.0
255.591019 192.0
255.664215 84.0
255.686493 136.0
255.708771 52.0
255.734222 160.0
255.816986 76.0
255.871109 128.0
255.906128 120.0
255.965866 152.0
256.056458 96.0
256.09082 136.0
256.135742 236.0
256.186371 268.0
256.221313 112.0
256.25824 188.0
256.312042 200.0
256.355164 132.0
256.359741 128.0
256.418396 128.0
256.477875 200.0
256.535095 104.0
256.587097 312.0
256.608582 164.0
256.649292 112.0
256.71106 124.0
256.74765 216.0
256.802094 228.0
256.84137 208.0
256.864044 320.0
256.891266 324.0
256.927795 120.0
256.937927 128.0
256.948029 212.0
256.976868 252.0
257.015381 396.0
257.041656 320.0
257.140656 204484.0
257.209808 276.0
257.233948 232.0
257.253632 272.0
257.32019 168.0
257.355316 228.0
257.389618 96.0
257.418518 112.0
257.465393 260.0
257.489105 116.0
257.49649 60.0
257.503418 80.0
257.515442 228.0
257.526093 96.0
257.536438 160.0
257.581696 92.0
257.607697 208.0
257.618896 160.0
257.632538 192.0
257.665771 1136.0
257.707031 292.0
257.751678 168.0
257.791046 112.0
257.842194 180.0
257.8703 212.0
257.916809 184.0
257.948029 76.0
257.992767 84.0
258.033417 168.0
258.142944 42108.0
258.234711 220.0
258.282471 112.0
258.312378 84.0
258.343048 68.0
258.376892 88.0
258.420868 88.0
258.50235 108.0
258.53006 88.0
258.593506 140.0
258.647736 60.0
258.686249 48.0
258.729279 128.0
258.756134 72.0
258.766022 48.0
258.779846 108.0
258.834869 48.0
258.871796 92.0
258.905823 156.0
258.954498 100.0
259.006989 104.0
259.036774 68.0
259.096466 60.0
259.144562 2440.0
259.26532 128.0
259.298553 92.0
259.337006 100.0
259.422485 84.0
259.47467 128.0
259.533722 100.0
259.560333 136.0
259.588501 144.0
259.634216 328.0
259.668701 64.0
259.714569 156.0
259.739777 124.0
259.784698 124.0
259.806549 64.0
259.827637 148.0
259.872803 244.0
259.939453 300.0
259.958466 140.0
259.964172 152.0
259.987213 176.0
260.000092 120.0
260.008942 132.0
260.067566 220.0
260.088989 108.0
260.11795 60.0
260.146271 156.0
260.160065 116.0
260.218475 108.0
260.260925 72.0
260.286591 60.0
260.315491 32.0
260.354034 100.0
260.382935 120.0
260.403503 48.0
260.463867 60.0
260.495361 100.0
260.530701 60.0
260.569244 72.0
260.598175 44.0
260.655457 120.0
260.722473 100.0
260.765259 88.0
260.800323 84.0
260.832764 108.0
260.866455 100.0
260.931458 40.0
260.946472 72.0
261.006378 36.0
261.048157 140.0
261.099609 156.0
261.128571 148.0
261.180023 88.0
261.208344 144.0
261.334442 32.0
261.369843 72.0
261.407684 68.0
261.447052 44.0
261.508209 60.0
261.669159 56.0
261.826935 44.0
261.875244 60.0
262.110413 36.0
262.194214 36.0
262.342468 40.0
262.461761 76.0
262.497223 80.0
262.574615 52.0
262.661713 40.0
263.107025 44.0
263.155457 56.0
263.484772 104.0
263.691681 96.0
263.759552 36.0
264.422607 52.0
264.811127 76.0
265.378204 100.0
265.439819 44.0
265.559814 116.0
265.858276 40.0
266.040039 68.0
266.07901 68.0
266.298004 56.0
266.377777 116.0
266.429749 132.0
266.520721 56.0
266.582458 56.0
267.17746 72.0
267.512634 64.0
267.636353 92.0
268.017456 124.0
268.239075 92.0
268.375977 44.0
268.402069 32.0
268.532501 84.0
268.91098 116.0
268.937103 44.0
268.992584 148.0
269.025208 36.0
269.1297 108.0
269.681763 96.0
269.760223 92.0
269.838684 116.0
270.024384 112.0
270.046234 104.0
270.218079 84.0
270.250793 76.0
270.290039 160.0
270.42749 80.0
270.463501 96.0
270.597717 56.0
270.836761 56.0
270.974365 112.0
271.026764 40.0
271.088593 852.0
271.187347 92.0
271.269287 112.0
271.302063 60.0
271.413544 44.0
271.584076 172.0
272.086884 384.0
272.358704 80.0
272.559082 152.0
272.891052 84.0
272.930511 80.0
273.121948 324.0
273.15744 168.0
273.788513 108.0
273.871704 140.0
274.125397 224.0
274.613312 92.0
274.692474 56.0
275.365814 48.0
275.623474 124.0
276.059814 128.0
276.307892 44.0
276.364136 68.0
276.671906 108.0
276.708344 84.0
276.940125 92.0
277.112396 72.0
277.440491 84.0
277.911438 52.0
278.356201 76.0
278.861176 184.0
279.220245 72.0
280.022308 148.0
280.438782 80.0
280.65213 68.0
280.685486 104.0
280.945618 40.0
280.968964 88.0
281.456268 84.0
281.947296 84.0
282.151215 96.0
282.34848 108.0
282.428741 104.0
282.642853 76.0
282.833618 92.0
283.124908 108.0
283.295715 104.0
283.744781 72.0
283.989563 64.0
284.563385 48.0
284.610413 100.0
284.98996 56.0
285.13382 1728.0
285.376099 72.0
285.443726 68.0
286.106537 148.0
286.138916 128.0
286.18396 52.0
286.460114 68.0
286.547729 52.0
286.584778 96.0
286.618469 116.0
286.83078 44.0
287.123199 164.0
287.232056 44.0
287.410858 72.0
288.106354 132.0
288.271912 36.0
288.748566 52.0
288.806061 52.0
288.843262 76.0
289.099396 372.0
289.141022 80.0
289.550659 64.0
290.069061 164.0
290.499725 52.0
290.774536 48.0
291.10025 164.0
291.132538 1292.0
291.463898 56.0
292.072449 96.0
292.136719 468.0
292.225525 68.0
294.372894 112.0
295.032318 48.0
295.82254 92.0
296.545288 76.0
297.025299 92.0
297.165955 20.0
297.292908 88.0
298.065552 52.0
298.247681 92.0
298.856384 32.0
298.997467 44.0
299.31073 60.0
299.479462 96.0
299.596588 44.0
301.438995 80.0
302.147797 108.0
302.223907 60.0
302.615021 92.0
303.141937 1196.0
303.422272 76.0
303.560974 48.0
303.803741 36.0
304.149048 772.0
304.220184 44.0
304.716797 104.0
305.153595 140.0
305.585968 92.0
306.160309 52.0
307.537445 76.0
307.73642 48.0
308.09964 104.0
308.616882 100.0
309.320068 68.0
310.171265 40.0
310.73584 56.0
311.877136 80.0
312.559387 52.0
312.87262 104.0
312.921906 116.0
313.083862 112.0
313.186005 96.0
313.288177 100.0
313.439667 60.0
313.488983 48.0
313.573578 68.0
315.027313 116.0
315.762512 56.0
316.342773 56.0
317.951935 100.0
318.019379 44.0
318.125854 72.0
318.690552 68.0
319.269958 32.0
319.639923 132.0
320.423218 40.0
320.76532 100.0
321.835602 36.0
322.010559 92.0
322.31778 64.0
322.421417 116.0
324.364899 112.0
324.554901 36.0
324.72345 76.0
325.900879 112.0
326.695404 52.0
328.886261 44.0
329.164246 76.0
329.236481 68.0
330.013367 48.0
330.867218 32.0
331.758392 56.0
331.809143 88.0
332.44754 52.0
334.77771 84.0
335.036316 68.0
335.429901 104.0
337.602264 76.0
337.737579 56.0
337.898529 140.0
339.587219 48.0
339.80365 40.0
340.009125 72.0
341.103638 56.0
343.659454 52.0
343.881073 68.0
345.347656 108.0
345.961914 88.0
347.047424 96.0
347.433136 164.0
347.885895 84.0
348.364929 56.0
348.807129 68.0
350.742706 40.0
351.858093 96.0
352.25058 76.0
352.32489 52.0
353.053772 76.0
353.218323 76.0
353.924896 100.0
355.323639 112.0
356.232117 100.0
357.066559 72.0
358.519714 64.0
358.847656 36.0
359.605865 136.0
361.185242 132.0
363.078949 168.0
364.350525 120.0
364.646912 104.0
366.683044 40.0
366.953705 76.0
368.522339 68.0
369.46283 36.0
369.673279 84.0
371.266907 44.0
371.447144 72.0
372.710236 72.0
372.910065 40.0
373.167603 56.0
373.263733 48.0
373.921539 96.0
374.102448 108.0
374.364288 40.0
375.427887 48.0
375.786591 164.0
376.570221 48.0
376.906311 100.0
377.381714 72.0
377.969635 64.0
378.163147 88.0
380.403534 56.0
380.554932 60.0
380.698608 76.0
382.553192 44.0
383.990997 108.0
384.689423 124.0
385.204865 60.0
386.119476 40.0
386.56543 88.0
387.160461 40.0
387.305389 68.0
387.998962 84.0
388.116608 88.0
388.807007 64.0
390.23288 44.0
390.641876 124.0
390.968445 44.0
392.193298 56.0
392.559967 28.0
395.994202 68.0
396.029846 92.0
396.961182 132.0
398.600586 104.0
401.271332 36.0
401.414856 80.0
401.801758 68.0
402.24472 88.0
403.191284 128.0
404.207031 104.0
404.971649 44.0
405.348236 68.0
406.045776 40.0
406.683685 68.0
407.707825 32.0
408.149994 164.0
408.568298 92.0
409.768005 116.0
411.966675 56.0
413.7258 60.0
417.047974 116.0
417.962982 88.0
418.622437 28.0
419.074554 60.0
419.747101 64.0
420.901855 84.0
421.743439 124.0
422.152252 168.0
422.720856 108.0
423.007355 32.0
423.8797 68.0
424.999084 52.0
425.294556 168.0
425.499817 100.0
425.668152 144.0
426.506256 120.0
430.704956 100.0
431.341309 80.0
431.423981 88.0
432.669189 40.0
433.199249 48.0
434.617126 112.0
435.696594 128.0
436.669281 52.0
436.773254 92.0
439.009766 88.0
439.744019 44.0
439.881744 84.0
441.791473 96.0
442.03833 128.0
443.273621 52.0
445.220062 136.0
446.14444 216.0
446.333618 68.0
447.30545 100.0
447.654907 128.0
447.69281 40.0
447.75177 116.0
448.632385 68.0
450.130188 84.0
450.21286 1764.0
450.375122 116.0
450.484955 164.0
451.217529 864.0
451.503571 36.0
451.782745 112.0
452.216034 188.0
453.006134 32.0
453.124756 64.0
453.192566 132.0
453.641785 80.0
453.735046 76.0
454.18454 136.0
454.506958 52.0
455.092712 48.0
456.018768 80.0
457.094696 68.0
459.87326 88.0
462.63031 132.0
462.737335 140.0
465.657532 124.0
465.713348 152.0
465.803558 68.0
466.052734 108.0
466.697449 56.0
468.905762 96.0
477.778107 92.0
478.269836 52.0
478.748749 48.0
478.796631 32.0
479.236603 56.0
480.12149 92.0
481.657806 128.0
487.023468 92.0
488.210083 72.0
489.72403 52.0
491.602112 52.0
491.906647 72.0
492.427673 52.0
492.670624 76.0
493.903931 60.0
495.010345 64.0
496.024902 72.0
500.431854 64.0
502.504303 80.0
503.70517 60.0
504.679413 88.0
504.898529 80.0
507.648163 80.0
508.805786 60.0
508.931488 44.0
510.48172 44.0
511.219452 20.0
511.336456 100.0
513.535095 56.0
513.945618 72.0
514.771667 68.0
514.857422 112.0
517.000244 68.0
520.286377 92.0
521.076599 144.0
524.521545 76.0
527.451965 76.0
528.014343 76.0
528.654846 180.0
530.468506 48.0
532.276123 76.0
533.663757 64.0
535.868408 72.0
537.722107 96.0
539.454224 76.0
542.31012 36.0
542.486267 72.0
543.40918 68.0
543.863953 124.0
544.049622 64.0
544.513916 76.0
545.870911 28.0
547.183044 80.0
550.078003 80.0
552.3349 96.0
552.709167 100.0
553.593872 36.0
554.244995 140.0
554.493347 84.0
560.418945 140.0
560.583862 40.0
561.074097 104.0
562.59314 104.0
564.544495 60.0
566.81665 180.0
571.460327 72.0
571.688721 72.0
575.339722 68.0
575.482971 48.0
575.697815 92.0
576.428711 48.0
585.683167 52.0
586.723999 72.0
589.818298 52.0
590.345276 56.0
593.832214 64.0
595.598938 40.0
596.585327 64.0
597.957031 56.0
601.939819 72.0
602.726257 56.0
605.828125 128.0
607.455627 60.0
609.748535 60.0
610.087708 32.0
613.445007 60.0
613.997253 84.0
614.707642 80.0
614.82605 44.0
615.685059 88.0
617.775818 52.0
618.68634 172.0
619.657043 152.0
620.365723 76.0
620.405396 72.0
623.353516 68.0
623.885376 84.0
630.184814 44.0
630.439697 44.0
630.709534 84.0
632.139893 48.0
633.096008 68.0
635.251221 40.0
635.612427 140.0
635.75293 40.0
635.978821 152.0
639.41156 40.0
640.398315 64.0
644.348083 116.0
647.149963 44.0
647.58551 84.0
647.681702 128.0
650.120361 140.0
650.216797 52.0
653.087341 80.0
656.438416 116.0
657.065796 108.0
657.88739 100.0
658.668701 76.0
659.63446 212.0
660.442383 120.0
664.427673 48.0
665.151245 88.0
666.512207 88.0
666.558411 96.0
667.056946 48.0
670.082947 68.0
671.376709 100.0
672.738831 68.0
676.817993 108.0
677.045837 104.0
680.317566 128.0
682.416443 92.0
686.665588 92.0
687.364624 100.0
688.184143 56.0
689.087646 84.0
692.870239 76.0
695.009338 84.0
700.840393 60.0
704.322205 36.0
706.055786 72.0
706.641541 76.0
708.146301 68.0
710.139099 88.0
718.981323 164.0
719.499084 156.0
720.214661 48.0
720.615295 88.0
723.904846 68.0
726.236084 108.0
727.255554 104.0
728.162903 44.0
728.576477 176.0
730.974487 68.0
731.232788 48.0
733.715942 92.0
733.915466 72.0
735.922607 56.0
737.46521 112.0
739.138611 48.0
739.863892 92.0
741.234131 72.0
741.559326 120.0
747.108704 40.0
750.098328 40.0
750.180054 100.0
750.310913 44.0
750.561707 208.0
751.538086 40.0
752.656982 52.0
753.312378 80.0
763.974609 72.0
765.11377 68.0
777.933716 40.0
778.772156 112.0
779.094299 84.0
780.544922 228.0
781.229004 96.0
782.720581 172.0
783.901489 96.0
784.130005 52.0
785.172546 80.0
785.278503 208.0
787.561279 192.0
787.672974 108.0
787.957886 164.0
790.826538 120.0
796.71991 56.0
803.814087 108.0
806.1745 196.0
807.09021 180.0
807.231567 160.0
810.021729 144.0
810.384338 84.0
811.55188 84.0
811.897766 112.0
812.419617 52.0
812.794067 216.0
814.150757 52.0
817.6698 40.0
817.812073 132.0
819.890869 132.0
820.603394 184.0
820.643311 76.0
820.723145 176.0
820.928406 72.0
820.985413 116.0
821.179321 116.0
821.242065 44.0
822.548706 72.0
822.994019 140.0
823.770691 104.0
826.440552 100.0
826.8125 176.0
830.702942 92.0
834.34375 72.0
834.55072 92.0
834.613953 176.0
834.717468 104.0
835.516968 36.0
835.896667 204.0
836.184448 160.0
837.69873 240.0
838.413208 52.0
838.828186 84.0
839.214417 128.0
841.1297 96.0
842.325012 116.0
843.19165 164.0
844.793335 44.0
845.591797 84.0
848.940308 192.0
849.143311 184.0
851.638977 180.0
855.610596 84.0
857.101624 188.0
858.226562 60.0
858.844727 44.0
860.618774 104.0
861.605774 152.0
861.76355 92.0
862.265564 220.0
865.03064 116.0
865.618103 68.0
867.668823 72.0
868.372498 136.0
869.346313 196.0
870.250305 56.0
871.21344 260.0
873.164917 144.0
875.301025 104.0
875.783936 160.0
880.856628 64.0
881.010254 264.0
881.74292 144.0
882.948975 56.0
883.150024 188.0
884.439941 136.0
885.209534 176.0
886.43573 84.0
888.202454 208.0
890.125366 72.0
890.440063 128.0
891.497559 84.0
891.562927 192.0
892.757812 216.0
893.638123 148.0
895.060669 116.0
895.318787 152.0
895.513306 176.0
897.938965 136.0
898.332642 160.0
898.457947 72.0
898.601135 108.0
899.263489 156.0
899.75293 152.0
902.190369 124.0
902.572998 132.0
906.176147 136.0
907.434753 72.0
908.202332 128.0
908.274353 204.0
908.448303 96.0
909.048279 180.0
910.693237 72.0
912.165344 112.0
912.532043 108.0
913.583862 176.0
913.716858 196.0
914.71582 108.0
915.378052 160.0
915.462341 200.0
915.516541 180.0
917.088989 148.0
917.565186 36.0
917.920959 140.0
918.53009 120.0
918.723083 152.0
918.783447 48.0
919.223877 32.0
919.628235 216.0
920.019836 148.0
920.533752 176.0
920.926331 60.0
922.612244 56.0
922.684753 184.0
922.769409 64.0
922.84198 40.0
922.91449 124.0
923.144287 60.0
923.870056 96.0
925.153015 32.0
925.649475 56.0
926.024963 76.0
927.679138 260.0
927.861023 136.0
928.046509 148.0
928.097473 148.0
928.17627 132.0
928.746338 104.0
929.771667 144.0
931.708618 164.0
932.717346 116.0
933.349609 160.0
933.635437 168.0
934.08551 108.0
935.010315 148.0
936.325317 172.0
937.031921 88.0
938.17157 168.0
938.470276 192.0
938.738586 124.0
939.494873 84.0
940.086731 184.0
940.15387 64.0
942.223755 204.0
942.278748 80.0
944.65918 188.0
944.919861 244.0
945.50116 68.0
946.14386 212.0
946.217346 164.0
946.517334 136.0
946.976685 200.0
948.201965 168.0
949.83905 76.0
950.526184 164.0
951.090759 160.0
951.422241 152.0
952.091553 180.0
954.721741 200.0
954.789429 180.0
955.306091 168.0
955.767517 64.0
956.253662 168.0
956.309021 152.0
956.906128 152.0
957.990051 144.0
958.230286 104.0
958.914307 220.0
959.586182 152.0
960.75177 168.0
961.183655 152.0
964.135437 92.0
964.413513 116.0
964.481506 132.0
965.736694 200.0
967.017395 80.0
967.141174 208.0
968.75116 152.0
970.647644 180.0
970.889465 160.0
971.515259 188.0
972.359802 204.0
972.502563 176.0
972.794312 76.0
972.918457 128.0
973.471008 148.0
973.551758 172.0
974.384094 164.0
974.80658 156.0
974.974365 124.0
975.962708 256.0
977.356018 56.0
978.339355 120.0
978.849854 144.0
978.993103 128.0
979.491333 92.0
979.74054 124.0
979.809082 164.0
980.30127 160.0
980.571289 208.0
980.799866 176.0
981.061707 132.0
981.180115 196.0
982.308838 188.0
982.970215 128.0
983.781555 172.0
984.618225 168.0
984.974243 216.0
985.330322 92.0
986.42395 168.0
987.205444 196.0
987.549438 144.0
988.875793 188.0
991.073853 88.0
991.368347 236.0
991.681702 212.0
992.24585 60.0
993.318237 44.0
994.196594 116.0
994.774048 92.0
995.351624 308.0
995.728394 124.0
995.904297 228.0
996.168091 136.0
996.230896 132.0
996.425659 40.0
997.506531 160.0
997.965454 84.0
998.053528 188.0
998.399353 88.0
999.116394 88.0
999.248535 84.0
1000.173584 32.0
1002.178467 212.0
1002.295898 184.0
1002.699219 260.0
1003.008057 196.0
1006.080078 204.0
1007.267273 168.0
1007.608398 156.0
1008.019043 140.0
1008.063293 140.0
1008.585876 248.0
1008.70166 144.0
1009.586792 96.0
1009.732239 148.0
1009.953613 136.0
1010.396423 144.0
1010.89624 136.0
1011.288635 132.0
1011.382751 184.0
1012.105286 148.0
1012.364868 224.0
1012.833557 156.0
1014.119812 20.0
1014.328979 124.0
1014.588867 192.0
1015.279968 212.0
1015.413147 136.0
1015.755676 152.0
1016.256836 144.0
1017.443665 96.0
1017.81189 108.0
1019.018677 152.0
1020.010071 88.0
1020.995544 52.0
1021.962402 116.0
1023.802002 148.0
1024.120483 172.0
1024.26062 212.0
1025.152588 188.0
1025.222656 140.0
1025.668823 60.0
1025.802612 148.0
1026.765381 220.0
1027.881714 184.0
1028.009399 156.0
1028.14978 136.0
1029.515991 164.0
1029.618164 44.0
1029.967163 136.0
1030.199341 148.0
1031.247314 180.0
1031.4646 176.0
1032.813721 144.0
1033.088867 180.0
1033.831055 208.0
1034.010254 92.0
1034.151001 192.0
1034.394287 76.0
1034.458252 176.0
1034.592651 176.0
1034.720703 164.0
1035.751709 128.0
1036.027222 156.0
1036.149048 160.0
1036.796021 236.0
1037.571655 60.0
1038.033325 76.0
1039.361084 176.0
1040.413574 176.0
1040.753906 172.0
1041.164917 20.0
1041.556641 164.0
1041.608032 172.0
1041.659424 172.0
1041.72229 208.0
1042.648926 136.0
1043.490967 152.0
1043.780273 196.0
1044.352661 188.0
1044.404053 136.0
1044.777222 164.0
1045.37561 168.0
1045.484985 136.0
1046.225342 164.0
1046.553955 168.0
1046.61145 192.0
1046.811035 256.0
1047.435791 136.0
1047.751465 92.0
1048.015625 56.0
1049.839844 184.0
1050.497681 164.0
1050.60083 136.0
1051.084717 200.0
1051.439697 196.0
1051.930176 180.0
1052.459106 144.0
1052.685547 152.0
1052.834106 132.0
1053.060181 188.0
1053.415405 88.0
1053.49292 64.0
1053.631348 108.0
1054.546143 136.0
1054.985718 200.0
1055.438232 120.0
1055.722778 192.0
1055.871582 232.0
1055.936279 128.0
1056.253174 136.0
1056.673584 176.0
1057.547241 108.0
1058.880127 156.0
1058.952148 136.0
1059.146484 140.0
1060.092407 128.0
1060.254395 52.0
1060.299805 144.0
1060.876587 152.0
1061.336914 36.0
1062.050293 92.0
1062.199463 236.0
1062.712036 44.0
1062.939087 160.0
1063.536133 40.0
1063.756836 140.0
1064.00354 192.0
1064.704834 152.0
1065.601196 152.0
1065.893555 132.0
1066.218506 188.0
1066.783936 88.0
1067.101807 200.0
1067.609741 116.0
1068.767578 132.0
1068.969238 100.0
1069.411865 48.0
1070.525024 56.0
1070.661865 128.0
1070.73999 184.0
1071.645386 136.0
1071.704102 56.0
1072.166748 112.0
1072.583862 172.0
1072.929321 160.0
1073.053223 168.0
1073.637939 240.0
1073.796509 152.0
1074.305298 244.0
1075.11438 116.0
1075.238403 216.0
1075.511353 176.0
1076.230591 176.0
1076.374268 164.0
1076.596313 68.0
1076.772583 200.0
1076.824829 160.0
1077.014282 152.0
1078.098755 152.0
1078.44519 192.0
1079.003296 204.0
1079.11853 204.0
1079.203491 120.0
1080.52124 152.0
1081.244385 180.0
1081.303345 200.0
1081.440796 172.0
1082.003662 264.0
1082.11499 152.0
1082.36377 180.0
1082.809082 316.0
1083.116943 92.0
1083.281006 144.0
1083.56897 148.0
1083.673828 132.0
1084.070312 152.0
1084.145508 92.0
1084.435425 160.0
1084.741943 124.0
1084.787842 276.0
1086.18457 168.0
1086.328857 252.0
1086.60437 60.0
1087.365601 72.0
1087.752563 164.0
1088.606323 120.0
1088.873901 192.0
1088.900391 144.0
1088.928833 160.0
1089.006958 92.0
1089.112061 72.0
1089.25 152.0
1089.348511 48.0
1089.466797 164.0
1089.558716 196.0
1089.611328 156.0
1090.585938 220.0
1091.089966 132.0
1091.175415 208.0
1091.418701 180.0
1092.826294 108.0
1093.708862 172.0
1094.010864 164.0
1094.394043 156.0
1094.609985 176.0
1094.695679 164.0
1095.308105 120.0
1095.564331 164.0
1095.874634 140.0
1096.250244 220.0
1096.810425 104.0
1097.502686 128.0
1097.845581 52.0
1097.924683 140.0
1098.234619 184.0
1098.452393 188.0
1098.973511 168.0
1099.488159 168.0
1100.082275 160.0
1100.84021 144.0
1101.680298 160.0
1102.64502 144.0
1102.982056 156.0
1103.061401 180.0
1103.226685 192.0
1104.284668 208.0
1104.436768 28.0
1104.595459 104.0
1104.932861 128.0
1105.331787 164.0
1105.380249 124.0
1105.740112 136.0
1106.130615 172.0
1106.693359 40.0
1106.794067 176.0
1106.938354 200.0
1107.176758 220.0
1107.289307 140.0
1107.436279 216.0
1107.646973 140.0
1107.812622 64.0
1108.461914 144.0
1108.720337 104.0
1108.8396 180.0
1108.965576 192.0
1109.296997 148.0
1109.860474 88.0
1110.669556 80.0
1110.735962 108.0
1111.47229 116.0
1111.976685 144.0
1112.275391 48.0
1112.335083 88.0
1112.756104 160.0
1113.470459 76.0
1113.603271 188.0
1114.04834 220.0
1114.493408 96.0
1114.625488 156.0
1114.832275 132.0
1115.213745 144.0
1115.470337 136.0
1115.570068 160.0
1115.736328 132.0
1115.786987 208.0
1115.929077 156.0
1116.228271 112.0
1116.547485 180.0
1117.133667 184.0
1118.164185 180.0
1118.27063 140.0
1118.543579 44.0
1118.590088 140.0
1118.816406 168.0
1119.102783 176.0
1120.13501 128.0
1120.214966 180.0
1120.268188 76.0
1121.021118 136.0
1121.474243 140.0
1121.554199 228.0
1121.810059 208.0
1121.940918 176.0
1122.420898 196.0
1122.600952 120.0
1122.87439 68.0
1123.915039 176.0
1124.375488 196.0
1124.615723 160.0
1124.662476 152.0
1124.71582 260.0
1126.405151 160.0
1126.632324 164.0
1126.859497 160.0
1127.206909 232.0
1127.260376 104.0
1127.333862 224.0
1128.015625 136.0
1128.095825 232.0
1128.222778 208.0
1128.289673 144.0
1129.025146 192.0
1129.366211 128.0
1129.951538 140.0
1131.095581 144.0
1131.380371 44.0
1131.474121 204.0
1132.974243 204.0
1133.476807 272.0
1133.845337 184.0
1133.919067 192.0
1134.401611 108.0
1134.495483 216.0
1135.005005 200.0
1135.253174 128.0
1135.313477 76.0
1135.648804 188.0
1135.841431 216.0
1136.178711 164.0
1136.661865 172.0
1136.977173 28.0
1137.225586 208.0
1137.299316 136.0
1137.619507 64.0
1137.903564 156.0
1138.306396 140.0
1138.689209 188.0
1139.038452 148.0
1139.414673 108.0
1139.555664 148.0
1139.763184 136.0
1140.30835 116.0
1140.819214 132.0
1141.814331 144.0
1141.888306 108.0
1141.935303 60.0
1142.264893 132.0
1142.695435 132.0
1142.991577 140.0
1143.213623 164.0
1143.900146 216.0
1143.987549 144.0
1144.088623 172.0
1144.431885 200.0
1144.842651 180.0
1145.219849 68.0
1145.314087 204.0
1145.455566 164.0
1145.785645 180.0
1145.974365 120.0
1146.270752 188.0
1146.634644 192.0
1146.937988 196.0
1147.254761 76.0
1147.369385 144.0
1147.733521 140.0
1148.097656 160.0
1148.468506 124.0
1148.859741 212.0
1149.143188 132.0
1149.628906 216.0
1150.186523 168.0
1150.270142 164.0
1150.463989 352.0
1150.533447 156.0
1150.742676 88.0
1150.83728 148.0
1151.125 116.0
1151.222046 112.0
1151.379517 152.0
1151.532715 140.0
1151.742188 104.0
1151.83667 156.0
1152.161011 128.0
1152.302856 228.0
1152.566284 172.0
1152.640625 144.0
1153.559814 56.0
1154.005981 148.0
1154.127686 196.0
1154.614624 140.0
1155.115112 200.0
1155.311279 192.0
1155.615723 196.0
1155.710449 108.0
1155.757812 128.0
1155.947266 132.0
1156.000488 256.0
1156.102905 468.0
1156.583374 144.0
1157.158813 72.0
1157.213013 160.0
1158.249146 112.0
1158.538452 212.0
1159.062012 176.0
1159.163696 188.0
1159.224731 132.0
1159.394165 184.0
1159.726196 76.0
1159.965576 224.0
1160.654907 104.0
1161.556885 232.0
1161.801147 148.0
1162.123779 284.0
1162.282837 272.0
1162.444336 192.0
1162.53894 104.0
1162.635742 128.0
1162.880005 156.0
1163.070068 216.0
1163.69458 228.0
1163.789673 160.0
1163.986572 100.0
1164.197144 180.0
1164.360107 160.0
1164.760864 92.0
1165.066528 128.0
1165.514893 156.0
1165.895386 148.0
1166.460205 232.0
1166.864502 188.0
1166.888672 216.0
1167.03064 140.0
1167.336548 80.0
1167.683472 168.0
1168.077881 196.0
1168.207153 116.0
1168.574585 164.0
1168.969238 200.0
1169.397949 220.0
1169.962891 204.0
1170.017334 148.0
1170.480347 152.0
1170.53479 44.0
1170.739136 152.0
1171.978882 160.0
1172.135498 176.0
1172.299072 120.0
1173.260132 184.0
1173.641968 196.0
1174.48999 232.0
1174.692139 180.0
1174.780884 164.0
1175.648926 164.0
1175.804321 188.0
1175.865723 240.0
1176.172852 144.0
1176.460693 104.0
1176.514282 156.0
1176.609741 136.0
1176.739502 268.0
1177.067261 124.0
1177.436035 144.0
1177.545288 136.0
1177.695557 152.0
1178.686157 156.0
1179.27832 204.0
1179.362671 212.0
1179.492554 172.0
1179.576538 208.0
1179.71814 176.0
1179.964233 104.0
1180.018921 140.0
1180.777954 124.0
1181.161011 204.0
1181.420898 148.0
1182.693726 192.0
1182.998657 156.0
1183.255005 120.0
1183.398804 192.0
1183.556274 132.0
1183.658936 124.0
1183.768555 120.0
1184.046143 176.0
1184.816406 32.0
1185.762085 148.0
1185.810059 136.0
1185.89917 180.0
1186.180176 100.0
1186.406372 172.0
1186.800049 164.0
1187.097046 208.0
1187.524048 124.0
1188.209961 132.0
1188.60791 168.0
1188.97168 180.0
1189.17749 160.0
1189.960083 100.0
1190.145508 160.0
1190.461304 136.0
1190.667358 48.0
1191.271851 76.0
1191.333618 132.0
1191.443481 64.0
1191.505371 80.0
1191.567139 88.0
1191.759521 72.0
1191.842041 188.0
1192.111694 64.0
1192.391724 124.0
1192.522339 68.0
1193.252319 188.0
1193.34729 108.0
1193.663574 96.0
1193.938599 116.0
1193.986694 124.0
1194.237305 156.0
1194.827515 140.0
1195.280029 124.0
1195.981934 216.0
1196.147217 164.0
1196.221924 124.0
1196.401855 132.0
1196.450073 172.0
1196.498291 160.0
1196.7323 172.0
1196.890747 236.0
1197.111084 152.0
1197.166138 200.0
1197.430786 256.0
1197.494751 240.0
1197.586304 252.0
1197.772217 144.0
1198.819458 156.0
1198.915894 212.0
1199.102051 168.0
1199.175659 288.0
1199.546509 140.0
1199.708618 124.0
1199.79126 152.0
1200.315308 236.0
1200.363525 116.0
1200.487671 176.0
1200.556641 232.0
1200.64624 172.0
1201.053223 164.0
1201.10144 160.0
1201.194214 188.0
1201.308472 120.0
1201.453247 176.0
1201.897095 192.0
1202.067383 164.0
1202.412354 168.0
1202.557373 140.0
1202.930054 164.0
1202.985352 184.0
1203.061279 188.0
1203.323608 168.0
1203.730957 136.0
1204.055542 140.0
1204.324829 144.0
1204.483887 160.0
1204.63855 236.0
1205.063965 176.0
1205.130981 168.0
1205.202148 40.0
1205.388794 148.0
1205.554565 160.0
1205.855835 228.0
1206.107544 120.0
1206.259033 164.0
1206.321777 104.0
1206.695068 348.0
1207.054688 120.0
1207.179077 180.0
1207.256226 148.0
1207.372803 164.0
1207.428101 144.0
1207.511108 136.0
1207.794678 176.0
1208.133545 184.0
1208.707886 112.0
1208.783936 204.0
1209.012329 132.0
1209.150757 104.0
1209.313477 160.0
1209.476074 76.0
1209.815186 188.0
1210.664673 152.0
1210.756836 148.0
1210.93689 156.0
1211.117065 176.0
1211.360962 208.0
1211.851318 196.0
1211.969116 148.0
1212.204712 276.0
1212.274048 184.0
1212.360107 220.0
1212.55127 148.0
1212.662109 96.0
1212.932373 176.0
1213.008667 272.0
1213.272095 168.0
1213.68811 148.0
1213.882202 220.0
1213.930786 180.0
1214.00708 72.0
1214.29834 144.0
1214.402344 112.0
1214.513306 128.0
1214.783813 220.0
1215.137695 184.0
1215.290283 204.0
1215.394409 228.0
1215.498413 208.0
1215.875122 200.0
1216.344238 128.0
1216.751099 204.0
1216.803345 156.0
1217.295776 164.0
1217.483765 52.0
1217.717285 280.0
1217.768555 96.0
1217.963013 156.0
1219.109375 56.0
1219.192749 164.0
1219.665405 80.0
1219.722534 200.0
1220.158936 112.0
1220.304932 164.0
1220.471802 192.0
1221.324097 136.0
1221.375854 60.0
1221.619263 148.0
1221.695801 164.0
1221.765381 176.0
1221.848877 92.0
1222.217651 160.0
1222.440308 144.0
1222.586426 184.0
1222.74646 128.0
1223.471558 160.0
1223.566406 168.0
1223.625977 204.0
1223.950806 132.0
1224.319824 44.0
1224.507935 124.0
1224.682007 36.0
1224.828247 148.0
1224.911865 220.0
1225.016357 164.0
1225.671265 380.0
1225.963867 156.0
1226.166016 160.0
1226.256592 156.0
1226.772461 188.0
1227.13501 132.0
1227.385986 52.0
1227.504517 244.0
1227.755493 116.0
1228.062378 172.0
1228.697144 132.0
1228.871582 160.0
1228.96228 128.0
1229.604248 152.0
1229.674072 180.0
1229.806641 120.0
1229.890503 180.0
1230.016113 144.0
1230.344238 224.0
1231.251953 100.0
1231.391602 120.0
1231.496338 32.0
1231.706665 180.0
1232.222778 188.0
1232.760864 124.0
1232.844727 108.0
1232.977539 232.0
1233.11731 116.0
1233.494751 356.0
1233.858154 160.0
1234.046997 116.0
1234.095947 60.0
1234.466553 188.0
1234.704224 208.0
1234.816162 88.0
1235.11084 148.0
1235.263794 192.0
1235.34082 196.0
1235.438721 156.0
1235.634644 156.0
1235.858521 100.0
1236.082031 156.0
1236.21228 176.0
1236.334351 180.0
1236.425293 156.0
1237.265259 172.0
1237.391235 208.0
1237.503296 132.0
1237.759399 228.0
1238.232056 112.0
1238.431396 208.0
1238.644775 176.0
1239.288208 232.0
1239.723755 236.0
1239.807739 152.0
1240.277344 180.0
1240.550781 112.0
1240.739136 168.0
1241.090576 88.0
1241.216797 76.0
1241.38147 188.0
1241.686646 60.0
1242.037354 156.0
1242.149536 160.0
1242.4021 124.0
1242.928345 112.0
1243.658203 196.0
1243.82373 176.0
1243.901123 160.0
1244.219727 176.0
1244.42688 264.0
1244.690186 152.0
1244.817017 192.0
1245.645264 220.0
1245.869995 96.0
1246.200195 208.0
1246.310425 172.0
1247.057617 96.0
1247.148926 104.0
1247.338989 128.0
1247.46521 160.0
1247.528564 124.0
1247.619873 168.0
1247.985474 164.0
1248.083984 100.0
1248.133179 128.0
1248.221436 160.0
1248.358154 60.0
1248.498779 196.0
1248.736938 136.0
1248.871582 152.0
1249.279541 80.0
1249.582031 40.0
1249.70874 76.0
1249.85376 160.0
1250.237671 156.0
1250.446411 200.0
1250.602417 236.0
1250.799438 140.0
1251.102173 140.0
1251.24292 156.0
1251.503418 188.0
1251.631958 148.0
1251.968262 136.0
1252.299194 124.0
1252.376709 100.0
1252.912109 168.0
1252.982544 172.0
1253.165283 140.0
1253.46167 160.0
1253.574341 172.0
1253.954956 76.0
1254.314331 128.0
1254.525879 120.0
1254.779663 60.0
1255.068726 208.0
1255.125122 132.0
1255.205322 260.0
1255.816284 32.0
1256.331177 188.0
1256.4646 236.0
1256.594116 172.0
1256.950684 148.0
1257.050781 108.0
1257.184937 176.0
1257.410767 84.0
1257.493408 172.0
1257.671875 144.0
1258.709595 156.0
1258.822021 224.0
1259.041504 72.0
1259.168701 56.0
1259.573608 60.0
1259.832642 92.0
1260.023315 140.0
1260.157593 128.0
1260.242432 120.0
1260.333008 168.0
1260.397827 204.0
1260.648926 176.0
1260.934937 96.0
1261.026733 128.0
1261.719482 172.0
1262.101318 168.0
1262.41626 160.0
1262.652832 140.0
1262.716553 172.0
1262.88623 104.0
1263.098389 184.0
1263.706787 132.0
1263.855469 140.0
1263.982788 124.0
1264.230469 96.0
1264.485229 152.0
1264.54895 124.0
1264.782471 224.0
1265.224731 144.0
1266.085205 104.0
1266.36145 156.0
1266.425171 136.0
1266.510132 172.0
1266.660156 156.0
1266.814697 180.0
1267.176025 152.0
1267.239746 140.0
1267.317749 176.0
1267.424072 120.0
1267.856323 188.0
1268.053589 196.0
1268.11145 148.0
1268.168091 40.0
1268.309814 188.0
1268.508301 224.0
1268.600464 236.0
1268.75354 176.0
1269.203125 164.0
1269.458374 256.0
1269.727905 192.0
1269.805908 168.0
1269.940674 168.0
1270.295288 172.0
1270.359131 176.0
1270.841553 88.0
1270.997681 124.0
1271.444702 188.0
1272.086426 176.0
1272.481079 224.0
1272.736694 164.0
1272.883911 76.0
1272.959717 76.0
1273.027832 84.0
1273.14856 56.0
1273.233765 88.0
1273.390015 48.0
1273.46814 40.0
1273.517822 180.0
1273.951172 208.0
1274.098267 208.0
1274.583496 72.0
1274.73877 152.0
1274.91748 184.0
1275.009766 88.0
1275.18042 244.0
1275.244385 176.0
1275.407837 164.0
1275.727661 64.0
1275.9552 52.0
1276.66626 120.0
1276.765747 168.0
1276.850098 208.0
1276.915161 48.0
1277.292114 176.0
1277.533936 116.0
1277.68335 292.0
1277.811401 220.0
1277.861206 64.0
1277.911011 44.0
1278.046143 144.0
1278.288086 132.0
1278.608398 96.0
1278.816406 140.0
1278.864624 180.0
1278.969604 240.0
1279.092285 120.0
1279.505249 248.0
1279.832764 124.0
1280.217285 124.0
1280.459351 136.0
1280.751343 152.0
1281.428101 164.0
1281.613403 84.0
1281.741699 108.0
1282.06543 136.0
1282.211914 240.0
1282.454346 140.0
1282.604004 184.0
1282.782227 168.0
1283.010254 180.0
1283.095825 136.0
1283.240479 160.0
1283.416626 168.0
1283.487915 160.0
1283.545044 60.0
1283.844482 292.0
1283.915771 160.0
1284.037109 196.0
1284.23584 124.0
1284.308105 156.0
1284.400879 160.0
1284.497437 88.0
1284.589233 240.0
1284.63623 284.0
1284.721802 160.0
1285.267822 176.0
1285.334351 144.0
1285.435303 100.0
1285.710083 148.0
1285.820679 148.0
1285.913452 348.0
1286.04187 180.0
1286.098999 188.0
1286.17041 140.0
1286.391602 144.0
1286.577271 152.0
1286.7771 68.0
1287.341187 128.0
1287.441162 148.0
1287.748291 144.0
1287.812622 184.0
1288.076904 116.0
1288.148315 168.0
1288.626953 92.0
1288.705566 128.0
1288.891357 148.0
1288.955566 176.0
1289.320068 128.0
1289.548706 136.0
1289.634766 144.0
1289.784668 152.0
1290.229492 212.0
1290.313599 132.0
1290.463745 152.0
1290.721191 160.0
1290.77124 116.0
1290.842773 248.0
1291.171631 120.0
1291.344482 144.0
1291.515015 180.0
1291.782104 148.0
1291.901245 160.0
1292.080078 48.0
1292.244629 180.0
1292.723999 260.0
1292.802734 112.0
1292.960205 148.0
1293.060425 184.0
1293.167725 184.0
1293.224976 172.0
1293.296631 248.0
1294.056641 180.0
1294.141357 276.0
1294.423828 176.0
1294.921875 68.0
1295.236938 184.0
1296.017822 60.0
1296.211304 156.0
1296.677124 152.0
1296.820435 176.0
1297.11438 112.0
1297.229004 164.0
1297.34375 136.0
1297.505615 200.0
1297.79541 168.0
1297.874268 176.0
1298.885498 144.0
1299.107788 156.0
1299.394775 148.0
1299.488037 180.0
1299.645874 112.0
1299.975952 260.0
1300.083618 204.0
1300.643433 132.0
1300.858765 76.0
1300.973633 32.0
1301.209351 172.0
1301.344604 172.0
1301.670044 200.0
1301.740112 168.0
1302.223022 184.0
1302.28772 112.0
1302.452881 184.0
1303.061646 56.0
1303.240112 192.0
1303.263916 112.0
1303.281738 180.0
1303.5271 136.0
1303.876221 156.0
1304.083862 204.0
1304.134155 132.0
1304.19165 88.0
1304.292358 148.0
1304.493652 68.0
1304.543945 128.0
1304.694824 208.0
1305.226929 140.0
1305.49292 88.0
1305.572144 124.0
1305.701538 44.0
1305.946045 160.0
1306.100342 200.0
1306.190674 168.0
1306.665405 244.0
1306.751709 40.0
1307.025146 156.0
1307.219482 76.0
1307.341797 192.0
1307.442505 132.0
1308.003906 184.0
1308.183838 84.0
1308.543823 156.0
1308.846191 96.0
1308.939819 200.0
1309.02478 196.0
1309.263916 180.0
1309.357544 148.0
1309.509399 48.0
1310.236328 128.0
1310.40918 156.0
1310.517212 160.0
1310.590698 168.0
1310.69397 128.0
1310.760254 252.0
1311.007202 36.0
1311.064941 48.0
1311.230591 136.0
1311.432495 148.0
1311.619873 176.0
1311.893799 140.0
1311.966064 188.0
1312.290283 196.0
1312.520996 160.0
1312.694092 172.0
1312.924805 188.0
1313.112305 112.0
1313.213257 68.0
1313.74707 116.0
1313.99231 256.0
1314.048462 180.0
1314.252075 44.0
1314.338745 124.0
1314.439697 224.0
1314.758545 180.0
1315.146973 84.0
1315.226318 164.0
1315.32019 120.0
1315.442871 144.0
1315.493408 140.0
1315.551147 164.0
1315.717163 184.0
1315.7677 144.0
1315.890503 128.0
1315.962646 156.0
1316.302002 124.0
1316.684814 140.0
1316.952026 160.0
1317.016968 136.0
1317.183105 168.0
1317.493774 72.0
1317.758789 180.0
1317.920044 112.0
1318.050049 132.0
1318.181396 216.0
1318.245239 112.0
1318.375244 172.0
1318.864014 372.0
1319.069092 180.0
1319.430542 172.0
1319.583862 152.0
1319.798706 160.0
1320.074829 136.0
1320.291626 148.0
1320.38501 160.0
1320.623657 124.0
1320.81897 160.0
1320.890381 128.0
1321.01355 188.0
1321.535156 148.0
1321.603882 140.0
1321.730469 220.0
1322.164673 160.0
1322.559448 240.0
1322.664062 212.0
1322.953613 116.0
1323.026001 124.0
1323.083984 144.0
1323.742798 212.0
1323.858643 156.0
1324.11792 128.0
1324.18457 72.0
1324.43811 172.0
1324.48877 172.0
1324.568481 140.0
1324.640869 92.0
1324.814697 96.0
1325.061035 300.0
1325.115234 188.0
1325.26355 160.0
1325.727661 104.0
1325.843628 128.0
1325.908813 156.0
1325.981323 160.0
1326.086304 164.0
1326.16687 196.0
1326.285767 184.0
1326.41272 188.0
1326.516968 152.0
1326.597412 176.0
1326.851196 84.0
1327.170166 116.0
1327.305176 200.0
1327.547241 60.0
1327.80835 76.0
1328.011353 128.0
1328.207275 44.0
1328.858154 164.0
1329.019775 112.0
1329.288208 148.0
1329.443726 156.0
1329.56189 172.0
1329.730835 116.0
1330.005371 160.0
1330.130127 104.0
1330.305298 148.0
1330.405884 120.0
1330.463989 172.0
1330.565674 148.0
1330.623779 168.0
1331.030273 124.0
1331.596802 144.0
1331.785645 144.0
1331.836426 84.0
1331.916382 164.0
1332.686401 364.0
1332.947998 208.0
1333.003052 136.0
1333.171143 176.0
1333.329346 208.0
1333.348755 248.0
1333.565674 168.0
1333.870972 40.0
1334.038086 176.0
1334.350708 120.0
1334.568848 96.0
1334.961548 152.0
1335.188232 116.0
1335.550659 148.0
1335.987061 148.0
1336.205322 132.0
1336.489014 120.0
1336.576416 324.0
1336.82373 112.0
1337.223389 252.0
1337.391113 176.0
1337.404297 168.0
1337.536987 120.0
1337.595215 192.0
1337.971924 188.0
1338.095093 200.0
1338.206787 192.0
1338.454346 224.0
1338.541626 148.0
1338.760132 136.0
1338.846436 188.0
1338.875732 160.0
1339.051392 152.0
1339.124268 156.0
1339.21167 104.0
1339.306396 152.0
1339.36853 164.0
1339.641479 92.0
1339.816284 192.0
1339.903687 120.0
1340.158691 200.0
1340.39917 140.0
1340.566772 68.0
1340.668823 204.0
1340.960327 100.0
1341.033447 172.0
1341.37915 140.0
1341.426758 172.0
1341.893311 144.0
1342.039185 236.0
1342.188965 208.0
1342.359985 176.0
1342.491211 272.0
1342.578735 80.0
1342.644409 92.0
1342.892334 152.0
1343.446777 188.0
1343.753174 28.0
1343.804199 84.0
1343.935547 68.0
1344.285767 224.0
1344.358154 184.0
1344.497437 52.0
1344.657959 144.0
1344.935303 196.0
1345.19812 136.0
1345.263794 136.0
1345.336792 148.0
1345.811279 192.0
1345.891602 144.0
1346.026001 208.0
1346.157227 196.0
1346.633301 128.0
1346.877563 168.0
1347.323853 196.0
1347.630005 176.0
1348.411865 48.0
1348.77002 212.0
1348.821167 148.0
1348.924927 160.0
1349.398682 216.0
1349.621338 96.0
1349.793579 220.0
1350.093384 36.0
1350.349365 132.0
1350.422485 144.0
1350.612671 52.0
1350.681763 208.0
1350.854004 132.0
1351.483154 208.0
1351.790527 56.0
1352.595581 104.0
1352.787476 208.0
1352.851807 136.0
1352.961304 136.0
1353.115356 228.0
1353.24707 216.0
1353.422852 172.0
1353.583862 180.0
1354.063477 132.0
1354.191772 168.0
1354.360229 160.0
1354.572632 92.0
1354.776123 148.0
1354.953491 132.0
1355.12207 148.0
1355.195312 196.0
1355.26123 172.0
1355.334473 80.0
1355.451782 128.0
1355.700928 80.0
1355.854858 144.0
1356.111328 160.0
1356.235962 160.0
1356.309204 176.0
1356.582275 140.0
1356.646362 72.0
1356.749146 140.0
1357.079834 192.0
1357.225586 172.0
1357.504272 92.0
1357.628906 180.0
1358.244995 216.0
1358.379395 176.0
1358.530884 172.0
1358.677734 208.0
1358.897827 80.0
1359.044556 188.0
1359.264771 172.0
1359.771118 164.0
1359.895874 132.0
1360.293457 148.0
1360.39502 64.0
1360.585815 200.0
1360.725342 108.0
1361.187866 128.0
1361.276001 172.0
1361.486084 216.0
1361.65979 168.0
1361.834229 76.0
1361.925415 232.0
1362.196411 128.0
1362.634888 92.0
1362.818604 204.0
1362.914062 100.0
1363.046265 220.0
1363.150635 164.0
1363.487183 148.0
1363.678345 180.0
1363.821777 172.0
1363.927612 188.0
1364.005005 200.0
1364.648682 104.0
1364.803101 160.0
1364.928101 184.0
1365.107422 52.0
1365.33252 176.0
1365.450195 96.0
1365.589966 48.0
1365.766479 112.0
1366.001831 88.0
1366.244629 124.0
1366.318115 180.0
1366.442627 164.0
1366.538818 184.0
1366.64917 200.0
1366.70813 152.0
1366.928833 156.0
1367.083374 148.0
1367.151978 156.0
1367.45874 180.0
1368.054932 188.0
1368.215942 240.0
1368.788818 164.0
1368.945801 184.0
1369.078369 200.0
1370.081055 140.0
1370.190552 224.0
1370.537476 192.0
1370.919434 232.0
1371.089478 172.0
1371.207397 84.0
1371.575928 180.0
1371.701294 172.0
1371.973999 76.0
1372.12146 192.0
1372.202515 176.0
1372.262695 156.0
1372.622803 100.0
1372.689209 176.0
1372.83667 164.0
1372.954712 144.0
1373.32251 156.0
1373.539062 156.0
1373.823975 144.0
1374.043945 120.0
1374.164429 88.0
1374.452637 240.0
1374.57019 124.0
1374.670776 128.0
1374.997803 176.0
1375.123657 172.0
1375.42627 88.0
1375.529663 84.0
1375.618164 172.0
1375.684692 156.0
1375.765869 172.0
1375.911987 100.0
1376.341675 176.0
1376.445068 140.0
1376.681396 208.0
1376.806885 52.0
1376.882324 136.0
1376.96936 168.0
1377.021118 80.0
1377.0802 212.0
1377.161377 72.0
1377.552856 176.0
1377.678467 176.0
1377.957153 320.0
1378.034302 180.0
1378.205322 172.0
1378.343384 160.0
1378.520752 72.0
1378.764648 144.0
1378.901611 200.0
1379.104614 112.0
1379.237671 116.0
1379.31897 108.0
1379.437256 108.0
1379.518555 196.0
1379.703369 180.0
1379.985596 184.0
1380.18396 164.0
1380.45752 152.0
1380.524048 168.0
1380.753296 160.0
1380.908691 160.0
1380.993042 248.0
1381.086182 172.0
1381.145386 172.0
1381.210815 196.0
1381.396851 172.0
1381.530029 176.0
1381.862915 140.0
1382.033081 80.0
1382.335693 188.0
1382.47583 196.0
1382.9729 156.0
1383.379761 112.0
1383.528076 148.0
1383.731567 148.0
1383.831543 144.0
1383.950073 156.0
1384.001953 176.0
1384.278809 132.0
1384.459473 156.0
1384.579468 220.0
1384.751709 184.0
1384.838745 200.0
1385.297974 132.0
1385.505371 204.0
1385.590698 232.0
1385.772095 124.0
1386.164795 72.0
1386.261108 100.0
1386.446411 136.0
1386.602051 144.0
1386.891113 172.0
1386.942993 212.0
1386.994873 160.0
1387.095459 176.0
1387.254272 100.0
1387.335815 64.0
1387.805664 148.0
1388.085327 128.0
1388.240356 176.0
1388.418335 160.0
1388.588989 196.0
1388.870728 156.0
1388.974609 164.0
1389.226807 76.0
1389.308472 148.0
1389.393433 152.0
1389.901978 172.0
1390.094849 136.0
1390.332397 144.0
1390.547607 152.0
1390.710815 336.0
1390.770264 108.0
1391.032715 168.0
1391.126587 284.0
1391.240356 148.0
1391.31958 196.0
1391.37146 152.0
1391.468018 216.0
1391.564575 188.0
1391.631348 48.0
1391.727905 172.0
1392.05835 176.0
1392.381348 200.0
1392.567017 168.0
1392.693726 140.0
1392.812134 168.0
1392.871582 116.0
1392.938354 120.0
1393.272705 112.0
1393.488159 168.0
1393.629272 100.0
1393.852173 140.0
1394.647461 140.0
1394.944702 92.0
1395.346191 156.0
1395.896362 188.0
1396.000488 164.0
1396.178955 124.0
1396.335083 180.0
1396.468994 180.0
1396.550781 188.0
1397.034302 148.0
1397.154053 84.0
1397.428589 56.0
1397.480713 140.0
1397.5625 72.0
1397.770874 40.0
1397.904785 124.0
1398.142944 200.0
1398.195068 136.0
1398.289307 224.0
1398.485352 36.0
1398.574585 152.0
1398.790527 144.0
1398.864868 152.0
1398.944946 188.0
1399.16272 100.0
1399.289307 112.0
1399.387573 136.0
1399.441528 136.0
1399.504028 128.0
1399.641235 280.0
1399.795532 100.0
1400.212646 164.0
1400.436035 164.0
1400.696777 176.0
1400.763306 132.0
1400.787598 124.0
1400.80249 156.0
1400.905273 192.0
1401.426758 144.0
1401.680176 44.0
1401.747192 92.0
1401.845215 132.0
1401.89624 180.0
1403.018921 108.0
1403.189087 212.0
1403.261597 212.0
1403.37915 144.0
1403.610718 204.0
1403.767334 132.0
1403.867188 300.0
1403.938843 84.0
1404.199829 212.0
1404.252075 204.0
1404.445923 188.0
1404.565308 84.0
1404.632446 64.0
1404.754639 212.0
1405.005371 220.0
1405.281494 168.0
1405.659302 216.0
1405.841309 192.0
1406.117188 40.0
1406.191895 160.0
1406.259033 168.0
1406.550171 128.0
1406.734131 184.0
1406.848755 64.0
1407.065063 152.0
1407.236938 180.0
1407.505737 300.0
1407.685791 196.0
1407.983643 136.0
1408.162354 208.0
1408.252441 188.0
1408.387817 168.0
1408.655884 96.0
1408.9729 232.0
1409.156372 172.0
1409.275879 64.0
1409.440308 84.0
1409.559814 132.0
1409.627075 144.0
1410.008179 160.0
1410.105347 128.0
1410.184937 212.0
1410.254883 152.0
1410.396851 164.0
1410.546387 156.0
1411.009888 72.0
1411.766968 80.0
1411.823853 152.0
1411.974487 136.0
1412.303467 68.0
1412.388062 200.0
1412.445679 140.0
1412.640137 172.0
1412.827148 60.0
1413.088989 200.0
1413.291016 172.0
1413.380737 180.0
1413.455566 168.0
1413.590942 152.0
1413.687622 192.0
1413.859741 160.0
1414.38562 164.0
1414.450928 100.0
1414.878052 144.0
1415.281982 204.0
1415.386841 132.0
1415.563721 188.0
1415.618896 128.0
1415.72522 148.0
1415.933472 116.0
1416.008301 148.0
1416.068237 136.0
1416.177124 136.0
1416.240479 152.0
1416.348145 340.0
1416.401611 116.0
1416.757324 156.0
1416.824829 160.0
1416.922241 160.0
1417.004639 72.0
1417.191895 108.0
1417.326782 168.0
1417.401733 192.0
1417.530518 160.0
1417.731445 204.0
1417.993774 164.0
1418.308472 136.0
1418.535156 168.0
1418.660889 224.0
1418.843506 224.0
1419.060303 156.0
1419.31311 120.0
1419.451172 136.0
1419.560547 208.0
1419.748047 84.0
1419.839111 160.0
1419.912964 136.0
1419.965454 100.0
1420.093018 112.0
1420.340576 28.0
1420.460938 148.0
1420.519531 156.0
1420.835571 152.0
1421.128174 156.0
1421.218262 68.0
1421.27832 144.0
1421.404297 208.0
1421.570923 136.0
1421.77356 88.0
1421.961182 164.0
1422.043701 156.0
1422.321411 124.0
1422.448975 96.0
1422.591675 180.0
1422.711792 248.0
1422.764282 76.0
1422.893188 148.0
1422.974487 148.0
1423.039307 212.0
1423.229858 124.0
1423.314941 216.0
1423.500122 124.0
1423.702881 132.0
1424.093384 164.0
1424.240112 144.0
1424.405151 148.0
1424.468628 204.0
1424.551636 56.0
1424.630493 192.0
1425.08606 204.0
1425.265381 140.0
1425.360596 112.0
1425.73877 112.0
1425.791382 176.0
1426.020386 220.0
1426.321289 156.0
1426.377563 120.0
1426.473999 176.0
1426.738403 176.0
1426.828613 196.0
1426.956421 132.0
1427.189575 140.0
1427.279785 96.0
1427.332397 156.0
1427.663208 164.0
1427.776001 160.0
1427.922607 156.0
1428.114502 136.0
1428.385254 124.0
1428.508789 236.0
1428.560791 424.0
1428.859253 136.0
1428.92688 212.0
1429.257935 144.0
1429.453613 180.0
1429.581543 152.0
1429.694458 120.0
1429.82605 180.0
1430.0 180.0
1430.251343 152.0
1430.386841 96.0
1430.469604 104.0
1430.627686 104.0
1430.695435 184.0
1430.993652 176.0
1431.295654 152.0
1431.418213 112.0
1431.49353 100.0
1431.968018 116.0
1432.108521 156.0
1432.246704 144.0
1432.372925 116.0
1432.567993 196.0
1432.661011 120.0
1432.766479 220.0
1432.886963 172.0
1433.105469 156.0
1433.386108 160.0
1433.700806 48.0
1433.843994 124.0
1434.029175 160.0
1434.303711 128.0
1434.644165 244.0
1434.967163 184.0
1435.04248 100.0
1435.163086 140.0
1435.389282 192.0
1435.555176 92.0
1435.728638 188.0
1436.030396 148.0
1436.332031 152.0
1436.559204 224.0
1436.837524 196.0
1437.056274 200.0
1437.109131 184.0
1437.299194 144.0
1437.471313 152.0
1437.637329 228.0
1437.720337 136.0
1438.014648 156.0
1438.233521 164.0
1438.615479 216.0
1438.769409 76.0
1438.905396 204.0
1439.056396 196.0
1439.109253 60.0
1439.225586 280.0
1439.282837 228.0
1439.547119 172.0
1439.856812 64.0
1439.970093 148.0
1440.111572 168.0
1440.226807 120.0
1440.366333 264.0
1440.639526 200.0
1440.73291 184.0
1440.853882 136.0
1440.937866 184.0
1441.05835 164.0
1441.153931 160.0
1441.176636 116.0
1441.324341 144.0
1441.439819 216.0
1441.496094 136.0
1441.692871 208.0
1442.232544 132.0
1442.372803 68.0
1442.467285 216.0
1442.523926 176.0
1442.796021 212.0
1443.060669 136.0
1443.13623 92.0
1443.340454 224.0
1443.461426 40.0
1443.521851 40.0
1443.673096 152.0
1443.741211 132.0
1443.831909 56.0
1444.020996 132.0
1444.376465 92.0
1444.622925 112.0
1444.71167 204.0
1444.777466 136.0
1444.868164 96.0
1444.981689 216.0
1445.07251 108.0
1445.216187 152.0
1445.286499 220.0
1445.390747 204.0
1445.496216 144.0
1445.544678 136.0
1445.61731 164.0
1445.715698 292.0
1446.094116 128.0
1446.245483 176.0
1446.298462 112.0
1446.457397 172.0
1446.684448 84.0
1446.737427 212.0
1446.963501 144.0
1447.017578 168.0
1447.283936 208.0
1447.570312 204.0
1447.645996 216.0
1447.836914 156.0
1448.091919 124.0
1448.119995 108.0
1448.133911 188.0
1448.358765 108.0
1448.509399 172.0
1448.577637 180.0
1448.668457 156.0
1448.873047 220.0
1449.047241 100.0
1449.918701 156.0
1450.108398 148.0
1450.350708 156.0
1450.631226 184.0
1450.729248 132.0
1450.820679 140.0
1451.161865 152.0
1451.283203 184.0
1451.403198 160.0
1451.539917 200.0
1451.62439 188.0
1451.783569 192.0
1451.897949 164.0
1452.215942 156.0
1452.420654 132.0
1452.542114 232.0
1452.653564 164.0
1452.86792 84.0
1453.35376 84.0
1453.429688 52.0
1453.546875 116.0
1453.778687 120.0
1453.922974 220.0
1454.036743 56.0
1454.461792 148.0
1454.59082 120.0
1454.643921 104.0
1454.83374 220.0
1454.894531 100.0
1454.962769 108.0
1455.376221 116.0
1455.532227 156.0
1455.600586 56.0
1455.698486 148.0
1456.413208 64.0
1456.496704 112.0
1456.717529 124.0
1456.815796 200.0
1456.997559 112.0
1457.140991 148.0
1457.160156 224.0
1457.776978 156.0
1458.031494 52.0
1458.274658 328.0
1458.544922 152.0
1458.63501 260.0
1458.72583 100.0
1458.791504 160.0
1459.042358 176.0
1459.103271 120.0
1459.193726 124.0
1459.506226 216.0
1459.772339 120.0
1460.008057 164.0
1460.076538 208.0
1460.152588 180.0
1460.243774 156.0
1460.601929 260.0
1460.738159 40.0
1460.818359 196.0
1460.966431 104.0
1461.065308 144.0
1461.247925 108.0
1461.323975 156.0
1461.613159 152.0
1461.694824 184.0
1462.139282 160.0
1462.526367 168.0
1462.630737 188.0
1462.700562 148.0
1462.76355 284.0
1462.894043 144.0
1462.952637 160.0
1463.138306 132.0
1463.198364 120.0
1463.264771 132.0
1463.325684 180.0
1463.561646 112.0
1463.729248 196.0
1463.820557 220.0
1464.216553 92.0
1464.285156 56.0
1464.551636 120.0
1464.719238 156.0
1465.107788 156.0
1465.18396 152.0
1465.404907 116.0
1465.717285 228.0
1466.043579 68.0
1466.174438 180.0
1466.426025 140.0
1466.598267 164.0
1466.708008 208.0
1466.890991 136.0
1466.967163 92.0
1467.236694 208.0
1467.394043 148.0
1467.630493 156.0
1467.790527 184.0
1467.897339 156.0
1467.983765 144.0
1468.084106 20.0
1468.179443 192.0
1468.255737 216.0
1468.390259 92.0
1468.475952 212.0
1468.766724 260.0
1468.949829 192.0
1469.285522 156.0
1469.422729 120.0
1469.499023 144.0
1469.628784 176.0
1469.758545 252.0
1469.83252 132.0
1470.046387 176.0
1470.178223 44.0
1470.246216 204.0
1470.325317 160.0
1470.483398 176.0
1470.544556 152.0
1470.636108 68.0
1470.79895 192.0
1470.903198 204.0
1470.98291 280.0
1471.188599 188.0
1471.636108 160.0
1471.720093 144.0
1471.977661 188.0
1472.08667 72.0
1472.147705 192.0
1472.224121 64.0
1472.331055 144.0
1472.429199 148.0
1472.605957 52.0
1472.673096 188.0
1472.835083 100.0
1473.04126 136.0
1473.171143 88.0
1473.262817 112.0
1473.362183 136.0
1473.430054 112.0
1473.76709 188.0
1474.057495 248.0
1474.385986 148.0
1474.485352 80.0
1474.577148 176.0
1474.630615 172.0
1474.783447 208.0
1474.904907 172.0
1474.997437 148.0
1475.433228 64.0
1475.517334 168.0
1475.647217 212.0
1475.739014 156.0
1475.82312 184.0
1475.891968 52.0
1475.999023 188.0
1476.076538 164.0
1476.28186 232.0
1476.331787 140.0
1476.595459 72.0
1476.710205 136.0
1476.855469 112.0
1477.016113 40.0
1477.219971 268.0
1477.291504 216.0
1477.352661 176.0
1477.651123 192.0
1477.776367 208.0
1477.834717 160.0
1478.07959 152.0
1478.163696 344.0
1478.380371 144.0
1478.451782 124.0
1478.569336 52.0
1478.801147 204.0
1478.936646 172.0
1479.036133 184.0
1479.181641 172.0
1479.325562 128.0
1479.418945 224.0
1479.610229 240.0
1479.671509 124.0
1479.74585 200.0
1479.881714 88.0
1479.970093 196.0
1480.20752 172.0
1480.269775 124.0
1480.337646 92.0
1480.439087 216.0
1480.651611 152.0
1480.705322 108.0
1480.882568 204.0
1480.997925 96.0
1481.088257 164.0
1481.165039 216.0
1481.333374 192.0
1481.394653 180.0
1481.471191 156.0
1481.60144 140.0
1482.015137 180.0
1482.139038 144.0
1482.248779 152.0
1482.436646 108.0
1482.497925 196.0
1482.651123 112.0
1482.835083 124.0
1483.118652 116.0
1483.225952 92.0
1483.395752 132.0
1483.593994 128.0
1483.734863 192.0
1483.876465 164.0
1484.199585 152.0
1484.297607 164.0
1484.348633 228.0
1484.406616 32.0
1484.611938 124.0
1484.705688 160.0
1484.790039 200.0
1484.85498 180.0
1485.058472 160.0
1485.495728 168.0
1485.817993 148.0
1485.886963 172.0
1485.966187 148.0
1486.247559 116.0
1486.31665 144.0
1486.539185 152.0
1486.723389 172.0
1486.988159 232.0
1487.208374 164.0
1487.261841 176.0
1487.417969 332.0
1487.932861 164.0
1488.174072 132.0
1488.258545 124.0
1488.366089 36.0
1488.610718 148.0
1488.788452 120.0
1488.947876 220.0
1489.04187 116.0
1489.210815 172.0
1489.287598 216.0
1489.341309 152.0
1489.441162 168.0
1489.518066 188.0
1489.602539 84.0
1489.710083 224.0
1489.794556 144.0
1489.971313 140.0
1490.048096 252.0
1490.153564 196.0
1490.378296 160.0
1490.562866 192.0
1490.678101 92.0
1490.866699 192.0
1490.924072 120.0
1491.008545 84.0
1491.123901 84.0
1491.177612 200.0
1491.285278 156.0
1491.392822 144.0
1491.565796 168.0
1491.667603 204.0
1491.838379 224.0
1491.930908 104.0
1492.048706 124.0
1492.100098 112.0
1492.177002 144.0
1492.238281 152.0
1492.414307 148.0
1492.468994 172.0
1492.823975 140.0
1493.315063 180.0
1493.407349 156.0
1493.584229 192.0
1493.868774 156.0
1494.122681 172.0
1494.26123 100.0
1494.315063 204.0
1494.478027 176.0
1494.538208 208.0
1494.599731 200.0
1494.676636 60.0
1494.915161 100.0
1494.984497 232.0
1495.174927 80.0
1495.300049 180.0
1495.38147 216.0
1495.553955 124.0
1495.60791 188.0
1495.727905 196.0
1495.792603 204.0
1495.861816 140.0
1496.139038 208.0
1496.231323 156.0
1496.292969 136.0
1497.047485 176.0
1497.247803 156.0
1497.409546 172.0
1497.471069 120.0
1497.59436 116.0
1497.697388 172.0
1497.987183 192.0
1498.171997 128.0
1498.297485 180.0
1498.364624 140.0
1498.418579 152.0
1498.54187 144.0
1498.637939 220.0
1498.765259 184.0
1498.831543 144.0
1499.131958 236.0
1499.412231 188.0
1499.620728 228.0
1499.759399 132.0
1500.060059 172.0
1500.152588 192.0
1500.235107 156.0
1500.453247 132.0
1500.514893 152.0
1500.598999 192.0
1500.699951 148.0
1501.027222 312.0
1501.303955 128.0
1501.409302 108.0
1501.47876 144.0
1501.596558 188.0
1501.679199 160.0
1501.87207 268.0
1501.926025 212.0
1502.034058 112.0
1502.339355 244.0
1502.370117 140.0
1502.398438 184.0
1502.643433 148.0
1502.728394 164.0
1502.867188 56.0
1502.998413 44.0
1503.184082 124.0
1503.276245 28.0
1503.3302 204.0
1503.453735 188.0
1503.623413 152.0
1503.973511 160.0
1504.087402 136.0
1504.156006 244.0
1504.256348 184.0
