>compound MLS002153307-01!8-(Diethylamino)octyl-3,4,5-trimethoxybenzoate hydrochloride53464-72-5
>formula C22H37NO5
>ionization [M+H]+
>parentmass 396.275055
#inchi InChI=1S/C22H37NO5/c1-6-23(7-2)14-12-10-8-9-11-13-15-28-22(24)18-16-19(25-3)21(27-5)20(17-18)26-4/h16-17H,6-15H2,1-5H3
#inchikey IBQMHBGFMLHHLE
#origInchi InChI=1S/C22H37NO5.ClH/c1-6-23(7-2)14-12-10-8-9-11-13-15-28-22(24)18-16-19(25-3)21(27-5)20(17-18)26-4;/h16-17H,6-15H2,1-5H3;1H
#Ion_Source LC-ESI
#Instrument qTof
#Compound_Source NIH Pharmacologically Active Library
#PI Dorrestein
#Data_Collector VP/LMS
#Scan -1
#Precursor_MZ 396.27
#ExactMass 395.267
#Charge 1
#CAS_Number N/A
#Pubmed_ID N/A
#Smiles CCN(CC)CCCCCCCCOC(=O)c1cc(OC)c(OC)c(OC)c1.Cl
#INCHI_AUX N/A
#Library_Class 1
#SpectrumID CCMSLIB00000085296
#IonMode Positive
#UpdateWorkflowName UPDATE-SINGLE-ANNOTATED-GOLD
#LibraryQualityString Gold
#TaskID d252d724072548979f1f6f1ced849daf
##Scan# 1838
#SpectrumFile p3-G11_GG11_01_18304.mzXML
#LibraryName Pharm_Active_Library.mgf
#MQScore -1
#Organism Pharm_Active_Library
#TIC_Query 0
#RT_Query -1
#MZErrorPPM -1
#SharedPeaks 0
#MassDiff 0
#LibMZ -1
#SpecMZ 396.27
#SpecCharge 0
#internalFilename spec-00000.mgf

>collision 10
44.936359 88.0
44.948368 56.0
44.981735 116.0
45.017273 160.0
45.059196 80.0
45.09127 152.0
45.134342 92.0
45.166153 140.0
45.206291 232.0
45.458244 176.0
45.485088 112.0
45.507912 148.0
45.539398 144.0
45.556263 224.0
45.581795 76.0
45.604641 136.0
45.64632 176.0
45.66515 136.0
45.690712 152.0
45.717625 204.0
45.748585 132.0
45.780899 56.0
45.872528 220.0
45.987766 252.0
46.006088 152.0
46.024994 92.0
46.054707 172.0
46.153736 176.0
46.316322 140.0
46.35236 168.0
46.398449 48.0
46.426926 208.0
46.494762 136.0
46.52734 216.0
46.55444 180.0
46.569439 184.0
46.579594 236.0
46.591175 164.0
46.608841 136.0
46.634048 204.0
46.645538 36.0
46.689049 192.0
46.709454 140.0
46.71933 148.0
46.730858 180.0
46.75708 144.0
46.802284 232.0
46.832935 372.0
47.014675 132.0
47.031857 136.0
47.056133 136.0
47.065186 184.0
47.145786 168.0
47.262028 52.0
47.281189 60.0
47.290768 136.0
47.340057 248.0
47.372932 224.0
47.408558 176.0
47.446941 212.0
47.545708 152.0
47.571789 140.0
47.617107 148.0
47.681683 156.0
47.709175 184.0
47.790329 52.0
47.799961 108.0
47.823357 52.0
47.835747 128.0
47.899094 188.0
47.947323 56.0
47.961105 104.0
48.031433 196.0
48.070068 164.0
48.157047 156.0
48.271763 236.0
48.304958 132.0
48.324699 180.0
48.335953 100.0
48.358212 228.0
48.401569 160.0
48.48497 164.0
48.605625 136.0
48.619503 172.0
48.648388 104.0
48.662537 176.0
48.688923 148.0
48.709759 112.0
48.873821 160.0
48.914185 40.0
48.967098 136.0
48.98103 76.0
49.049908 112.0
49.084167 180.0
49.102299 188.0
49.202774 228.0
49.255844 272.0
49.270512 152.0
49.283787 152.0
49.392673 200.0
49.444614 136.0
49.525543 140.0
49.548241 136.0
49.574863 180.0
49.602898 164.0
49.713707 224.0
49.723534 160.0
49.74757 356.0
49.774075 124.0
49.796543 104.0
49.900539 240.0
49.930069 160.0
49.944138 144.0
49.956799 76.0
50.062366 196.0
50.111671 156.0
50.19907 208.0
50.213173 144.0
50.262554 56.0
50.292191 164.0
50.333134 112.0
50.396702 88.0
50.420727 104.0
50.453239 152.0
50.478691 152.0
50.515469 180.0
50.529613 164.0
50.580563 148.0
50.600384 156.0
50.662704 136.0
50.698753 372.0
50.725903 128.0
50.84705 136.0
50.909519 156.0
50.925827 216.0
50.95924 176.0
51.045952 204.0
51.055908 164.0
51.076176 160.0
51.095737 148.0
51.127045 116.0
51.138294 168.0
51.253426 172.0
51.295124 136.0
51.316509 116.0
51.352161 140.0
51.362148 120.0
51.452057 96.0
51.473476 116.0
51.483475 200.0
51.524899 44.0
51.61034 196.0
51.653568 184.0
51.720825 48.0
51.749458 164.0
51.780319 168.0
51.783894 92.0
51.789459 172.0
51.833462 224.0
51.865559 200.0
51.899914 152.0
52.070698 96.0
52.113796 200.0
52.143806 172.0
52.167374 216.0
52.178474 188.0
52.298847 244.0
52.401031 128.0
52.441925 176.0
52.457783 144.0
52.486618 128.0
52.524956 204.0
52.557087 216.0
52.576061 100.0
52.623703 156.0
52.703148 244.0
52.714706 148.0
52.737831 176.0
52.786991 152.0
52.817364 180.0
52.828938 136.0
52.841961 104.0
52.91288 120.0
52.995441 192.0
53.031876 116.0
53.054871 172.0
53.123032 156.0
53.157856 140.0
53.308891 196.0
53.320518 136.0
53.400486 136.0
53.413578 92.0
53.432796 96.0
53.458687 128.0
53.497986 144.0
53.527107 152.0
53.551895 196.0
53.579544 132.0
53.633469 160.0
53.649502 56.0
53.688873 164.0
53.699715 136.0
53.725471 136.0
53.76405 164.0
53.785175 176.0
53.801235 132.0
53.839199 188.0
53.861111 116.0
53.878643 152.0
53.893253 128.0
53.918098 304.0
53.966339 224.0
53.982426 164.0
54.008751 200.0
54.079647 176.0
54.090698 116.0
54.128769 208.0
54.162457 136.0
54.303921 244.0
54.323711 136.0
54.397087 168.0
54.433796 116.0
54.566044 180.0
54.624874 48.0
54.717594 200.0
54.747044 176.0
54.789764 176.0
54.850185 176.0
54.909168 256.0
54.978027 220.0
55.03904 136.0
55.058239 164.0
55.089256 172.0
55.109943 60.0
55.13802 152.0
55.189762 104.0
55.203072 116.0
55.233612 148.0
55.266682 184.0
55.321445 124.0
55.349697 204.0
55.416237 200.0
55.471073 176.0
55.487385 108.0
55.521488 108.0
55.595612 200.0
55.658024 200.0
55.68327 164.0
55.695152 160.0
55.732296 156.0
55.756073 192.0
55.775398 116.0
55.861649 152.0
55.901821 120.0
55.947662 236.0
55.965836 156.0
55.99115 132.0
56.108875 128.0
56.147648 180.0
56.15958 120.0
56.177479 164.0
56.20583 228.0
56.22971 164.0
56.26852 128.0
56.289429 192.0
56.302868 204.0
56.3172 228.0
56.344757 212.0
56.385044 132.0
56.41188 144.0
56.431385 220.0
56.476254 140.0
56.507668 120.0
56.518562 228.0
56.561779 180.0
56.584824 204.0
56.589191 112.0
56.594818 144.0
56.667881 172.0
56.705345 196.0
56.720337 184.0
56.75782 116.0
56.810314 160.0
56.834324 188.0
56.976967 68.0
56.991993 76.0
57.118282 116.0
57.291412 68.0
57.374538 128.0
57.396919 156.0
57.449711 172.0
57.473854 92.0
57.498699 176.0
57.517624 232.0
57.565937 136.0
57.590103 156.0
57.675632 360.0
57.701935 204.0
57.756382 200.0
57.782101 76.0
57.813877 108.0
57.84869 148.0
57.897148 156.0
57.942593 188.0
57.974415 188.0
58.030502 168.0
58.062347 188.0
58.103306 180.0
58.144279 144.0
58.154903 112.0
58.244465 208.0
58.285469 128.0
58.318954 112.0
58.363041 72.0
58.395653 172.0
58.413506 200.0
58.428448 156.0
58.471752 236.0
58.595928 52.0
58.614212 228.0
58.639626 196.0
58.642754 132.0
58.64801 160.0
58.666039 148.0
58.696533 160.0
58.718704 200.0
58.788063 200.0
58.832333 40.0
58.859814 128.0
58.946892 200.0
59.015678 144.0
59.032501 164.0
59.052383 84.0
59.073799 88.0
59.096748 148.0
59.151848 452.0
59.164097 328.0
59.395504 208.0
59.416981 180.0
59.521358 140.0
59.538254 132.0
59.555149 176.0
59.631977 144.0
59.658108 144.0
59.673485 208.0
59.711399 136.0
59.73962 148.0
59.778088 144.0
59.821182 172.0
59.862759 148.0
59.892021 216.0
59.95982 136.0
59.978313 168.0
60.025646 172.0
60.091591 152.0
60.161896 204.0
60.174248 208.0
60.191231 84.0
60.205132 72.0
60.215942 48.0
60.237568 204.0
60.27351 92.0
60.291649 192.0
60.302471 40.0
60.383308 156.0
60.427803 176.0
60.446304 116.0
60.540737 40.0
60.705761 116.0
60.740688 228.0
60.751549 180.0
60.765968 268.0
60.788788 132.0
60.804863 156.0
60.816723 188.0
60.827591 180.0
60.841564 160.0
60.866405 80.0
60.917728 92.0
60.959614 168.0
60.97205 164.0
60.992348 132.0
61.01091 148.0
61.034233 156.0
61.05756 172.0
61.068447 132.0
61.128075 148.0
61.261478 240.0
61.283764 184.0
61.308224 136.0
61.340958 116.0
61.360748 236.0
61.401772 168.0
61.440769 284.0
61.571896 204.0
61.628136 156.0
61.643761 224.0
61.664482 140.0
61.681274 80.0
61.693737 140.0
61.729744 220.0
61.789185 56.0
61.829872 192.0
61.905018 96.0
61.933929 140.0
62.057022 204.0
62.067997 112.0
62.103756 120.0
62.121799 172.0
62.133877 140.0
62.154274 100.0
62.308155 96.0
62.385101 192.0
62.490543 132.0
62.504139 256.0
62.518867 160.0
62.534607 260.0
62.555996 188.0
62.6646 100.0
62.75832 336.0
62.786705 220.0
62.841919 176.0
62.881371 140.0
62.900314 200.0
62.911366 108.0
62.923996 56.0
63.009285 164.0
63.110443 48.0
63.184784 256.0
63.221733 112.0
63.303505 196.0
63.346272 76.0
63.379543 132.0
63.476242 176.0
63.495274 184.0
63.534931 184.0
63.557144 124.0
63.614281 244.0
63.633335 168.0
63.72546 76.0
63.76519 232.0
63.808109 192.0
63.820831 100.0
63.835144 232.0
63.869965 168.0
63.908318 208.0
63.954472 184.0
63.987904 192.0
64.008606 160.0
64.026123 184.0
64.051025 208.0
64.12809 32.0
64.185486 212.0
64.21579 96.0
64.242104 156.0
64.26844 204.0
64.305145 148.0
64.319511 136.0
64.389763 172.0
64.423309 176.0
64.437691 372.0
64.47924 72.0
64.495224 60.0
64.565575 184.0
64.592766 68.0
64.660606 192.0
64.679184 44.0
64.752838 144.0
64.856995 116.0
64.935562 80.0
64.958015 168.0
64.993317 160.0
65.01899 200.0
65.044678 116.0
65.08963 120.0
65.150665 196.0
65.161911 148.0
65.195663 212.0
65.227806 168.0
65.275665 132.0
65.30555 184.0
65.341995 152.0
65.461113 72.0
65.486534 204.0
65.630318 136.0
65.654503 204.0
65.706123 200.0
65.720642 176.0
65.754539 132.0
65.843338 196.0
65.854645 108.0
65.928963 216.0
65.975845 160.0
66.002739 228.0
66.081551 224.0
66.139236 164.0
66.186188 144.0
66.252594 256.0
66.267181 52.0
66.298119 212.0
66.343353 156.0
66.416328 124.0
66.486099 216.0
66.528305 112.0
66.562401 116.0
66.599754 176.0
66.625748 224.0
66.721642 172.0
66.757217 168.0
66.883415 136.0
66.955971 152.0
66.973885 200.0
66.990173 204.0
67.01136 144.0
67.026024 184.0
67.06282 124.0
67.107529 72.0
67.149712 184.0
67.205948 164.0
67.228241 160.0
67.24456 144.0
67.300903 164.0
67.376839 116.0
67.559944 40.0
67.573036 128.0
67.609039 128.0
67.628677 76.0
67.674515 128.0
67.735115 316.0
67.76297 160.0
67.786125 152.0
67.79705 100.0
67.839996 144.0
67.888062 116.0
67.906174 204.0
68.025383 140.0
68.062302 140.0
68.209373 156.0
68.229095 164.0
68.25705 116.0
68.276192 220.0
68.304108 304.0
68.327782 152.0
68.456177 172.0
68.525497 144.0
68.538544 176.0
68.634148 92.0
68.660538 116.0
68.690231 216.0
68.739723 132.0
68.75293 120.0
68.789246 116.0
68.8041 88.0
68.837128 144.0
68.858597 208.0
68.909805 92.0
68.947815 48.0
69.06852 60.0
69.091682 56.0
69.172958 144.0
69.23735 192.0
69.253914 168.0
69.287048 132.0
69.31356 184.0
69.37323 156.0
69.457802 172.0
69.476234 148.0
69.495964 72.0
69.535789 120.0
69.562355 188.0
69.635414 172.0
69.663658 156.0
69.70961 164.0
69.748405 72.0
69.775009 168.0
69.788307 156.0
69.869812 84.0
69.898094 156.0
70.011299 200.0
70.0746 180.0
70.291374 180.0
70.311401 132.0
70.344315 212.0
70.403229 152.0
70.528542 92.0
70.556961 68.0
70.582047 116.0
70.59375 204.0
70.611412 144.0
70.640106 168.0
70.70417 52.0
70.777832 128.0
70.796249 160.0
70.86158 100.0
70.983948 204.0
71.032104 124.0
71.06675 144.0
71.121529 132.0
71.206398 324.0
71.228996 176.0
71.250839 196.0
71.269318 180.0
71.311333 156.0
71.361076 220.0
71.373543 196.0
71.416519 160.0
71.454277 144.0
71.489616 256.0
71.524963 68.0
71.550217 192.0
71.582207 268.0
71.69677 120.0
71.745651 52.0
71.818169 116.0
71.865402 76.0
71.878906 156.0
71.905907 200.0
71.958237 144.0
71.9785 112.0
72.008072 228.0
72.100136 220.0
72.119957 116.0
72.182976 164.0
72.194817 156.0
72.220184 144.0
72.250633 208.0
72.409081 220.0
72.43856 308.0
72.486 248.0
72.555626 196.0
72.58432 188.0
72.602028 232.0
72.630112 76.0
72.679314 152.0
72.703712 160.0
72.816826 116.0
72.893944 88.0
73.015686 252.0
73.040077 224.0
73.075226 232.0
73.103882 200.0
73.226738 60.0
73.253998 224.0
73.311928 132.0
73.352837 48.0
73.383522 136.0
73.429565 184.0
73.496101 132.0
73.62072 124.0
73.658577 148.0
73.685631 108.0
73.730064 100.0
73.848038 148.0
73.887383 108.0
73.899361 204.0
73.947281 36.0
74.008293 156.0
74.056526 224.0
74.115112 112.0
74.159676 116.0
74.211105 124.0
74.30201 120.0
74.317451 136.0
74.362076 192.0
74.415291 84.0
74.442764 96.0
74.790077 76.0
74.84861 128.0
74.896835 108.0
74.934738 204.0
75.03289 156.0
75.065742 64.0
75.101967 168.0
75.265923 136.0
75.309097 132.0
75.362656 156.0
75.405861 64.0
75.435242 220.0
75.470474 224.0
75.490578 124.0
75.573608 144.0
75.63591 204.0
75.719025 52.0
75.748474 72.0
75.779663 80.0
75.798721 148.0
75.819519 124.0
75.951591 116.0
76.029068 272.0
76.079712 184.0
76.093605 172.0
76.229095 128.0
76.264923 172.0
76.319489 152.0
76.352531 184.0
76.3647 112.0
76.469269 164.0
76.488251 160.0
76.511093 164.0
76.669395 160.0
76.686829 72.0
76.709488 124.0
76.740868 196.0
76.78447 152.0
76.805397 228.0
76.817612 44.0
76.891563 196.0
76.908356 216.0
76.953743 120.0
77.135445 188.0
77.256111 160.0
77.407295 180.0
77.438164 200.0
77.474144 216.0
77.504509 152.0
77.534531 40.0
77.564941 200.0
77.602898 68.0
77.652 180.0
77.67485 156.0
77.687088 188.0
77.732704 148.0
77.750252 128.0
77.831009 284.0
77.906532 344.0
77.921783 200.0
78.010223 172.0
78.026047 156.0
78.080559 136.0
78.182602 144.0
78.214287 140.0
78.288239 148.0
78.30761 168.0
78.440582 216.0
78.520882 144.0
78.561249 176.0
78.575569 56.0
78.709717 68.0
78.769768 160.0
78.847511 296.0
78.953598 172.0
78.990738 204.0
79.026123 156.0
79.056206 92.0
79.155342 136.0
79.192535 124.0
79.285202 40.0
79.350258 180.0
79.417648 124.0
79.525887 196.0
79.563469 164.0
79.589806 108.0
79.766655 148.0
79.854607 152.0
79.936447 136.0
79.961365 204.0
79.979164 176.0
80.03257 136.0
80.064629 72.0
80.081711 108.0
80.114502 188.0
80.13945 176.0
80.171524 48.0
80.191132 184.0
80.227829 108.0
80.25174 112.0
80.296326 236.0
80.32843 44.0
80.4123 124.0
80.432449 180.0
80.489067 116.0
80.5121 176.0
80.573021 224.0
80.621269 208.0
80.649864 172.0
80.810822 240.0
80.930748 136.0
80.952232 136.0
81.014931 156.0
81.032845 128.0
81.04718 148.0
81.115288 76.0
81.154427 196.0
81.194954 196.0
81.273117 204.0
81.33593 208.0
81.388 144.0
81.407753 172.0
81.437698 100.0
81.483986 264.0
81.551079 212.0
81.576653 180.0
81.601822 188.0
81.698219 228.0
81.724495 140.0
81.738533 132.0
81.802795 68.0
81.851936 64.0
81.869949 136.0
81.920631 176.0
82.014091 144.0
82.04834 204.0
82.078995 88.0
82.124084 116.0
82.14212 204.0
82.163773 188.0
82.231468 132.0
82.259422 148.0
82.322617 172.0
82.390564 356.0
82.454506 216.0
82.478004 120.0
82.517776 132.0
82.532242 64.0
82.584686 156.0
82.64801 84.0
82.705925 208.0
82.817795 140.0
82.887039 192.0
82.931572 160.0
82.95047 228.0
82.995796 156.0
83.02935 248.0
83.048393 140.0
83.101006 116.0
83.113708 148.0
83.133667 136.0
83.25457 168.0
83.269836 168.0
83.318886 152.0
83.357635 308.0
83.384094 140.0
83.427933 92.0
83.44429 84.0
83.462479 48.0
83.486115 148.0
83.53064 180.0
83.551605 280.0
83.567978 124.0
83.582535 232.0
83.625168 264.0
83.717247 156.0
83.76825 124.0
83.861183 116.0
83.883057 148.0
83.961464 196.0
84.048225 136.0
84.094658 200.0
84.195076 192.0
84.217567 192.0
84.251701 144.0
84.312004 176.0
84.32663 176.0
84.37233 160.0
84.463768 160.0
84.487549 136.0
84.504013 136.0
84.535126 200.0
84.577217 200.0
84.602852 420.0
84.626648 144.0
84.7164 28.0
84.777863 220.0
84.841019 200.0
84.872192 176.0
84.914368 124.0
84.928444 172.0
84.962822 164.0
85.011719 192.0
85.052849 136.0
85.127266 128.0
85.191551 176.0
85.204414 172.0
85.222786 164.0
85.241165 64.0
85.274811 168.0
85.305161 132.0
85.345352 212.0
85.379044 164.0
85.41951 124.0
85.458145 140.0
85.490875 148.0
85.548332 44.0
85.590683 200.0
85.625671 160.0
85.638565 96.0
85.704887 128.0
85.751724 148.0
85.77124 52.0
85.809952 164.0
85.868965 128.0
85.927994 216.0
86.094162 816.0
86.14312 192.0
86.169022 244.0
86.28141 196.0
86.358437 136.0
86.391731 340.0
86.417633 40.0
86.431999 220.0
86.448662 172.0
86.489815 156.0
86.554253 204.0
86.586655 212.0
86.68058 336.0
86.710236 148.0
86.763992 80.0
86.845589 212.0
86.938354 176.0
87.003326 192.0
87.086891 332.0
87.114754 236.0
87.129616 176.0
87.164925 136.0
87.23336 180.0
87.273308 196.0
87.300629 184.0
87.323624 176.0
87.369453 44.0
87.410393 124.0
87.445747 168.0
87.473671 216.0
87.494148 40.0
87.579811 168.0
87.620796 116.0
87.667381 132.0
87.754997 72.0
87.775513 140.0
87.799751 108.0
87.827728 116.0
87.843338 216.0
87.893028 212.0
87.95649 88.0
87.980759 220.0
87.997559 124.0
88.046112 180.0
88.094681 180.0
88.122177 128.0
88.127739 92.0
88.134888 192.0
88.173157 148.0
88.201195 176.0
88.324615 152.0
88.341454 160.0
88.396729 192.0
88.466293 164.0
88.511024 160.0
88.551109 152.0
88.577332 160.0
88.637283 124.0
88.719757 96.0
88.73851 128.0
88.833221 64.0
88.884819 240.0
88.978668 92.0
89.057541 116.0
89.093231 104.0
89.112022 72.0
89.133316 176.0
89.172157 236.0
89.228554 116.0
89.24736 112.0
89.330437 116.0
89.379128 132.0
89.412704 184.0
89.441139 28.0
89.481522 84.0
89.499504 200.0
89.533401 100.0
89.561653 116.0
89.606873 104.0
89.719955 52.0
89.772751 160.0
89.789726 160.0
89.819283 176.0
89.879196 132.0
89.959549 116.0
90.03508 92.0
90.078529 136.0
90.114426 172.0
90.205139 136.0
90.218376 124.0
90.241058 176.0
90.328056 132.0
90.356438 160.0
90.413208 104.0
90.430244 160.0
90.534378 144.0
90.64994 168.0
90.678368 156.0
90.752304 36.0
90.820015 148.0
90.892258 164.0
90.928726 160.0
91.006561 156.0
91.054039 360.0
91.067337 120.0
91.150932 216.0
91.209373 176.0
91.234566 212.0
91.275528 148.0
91.386719 168.0
91.44001 172.0
91.5299 148.0
91.544716 216.0
91.575195 112.0
91.651398 196.0
91.71048 128.0
91.788643 188.0
91.843956 160.0
91.933632 160.0
91.96627 120.0
92.013435 248.0
92.053902 164.0
92.097687 156.0
92.102074 144.0
92.11013 188.0
92.157784 272.0
92.201607 204.0
92.227768 152.0
92.273651 68.0
92.30616 112.0
92.38649 80.0
92.411362 272.0
92.431152 188.0
92.533859 120.0
92.564499 120.0
92.589394 156.0
92.612381 124.0
92.671768 216.0
92.702431 160.0
92.759933 192.0
92.811699 156.0
92.853889 220.0
92.894173 140.0
92.930626 136.0
92.951729 68.0
92.997795 116.0
93.032036 348.0
93.07267 220.0
93.093796 108.0
93.114922 176.0
93.134125 168.0
93.153336 204.0
93.224426 160.0
93.25518 200.0
93.280991 112.0
93.302551 260.0
93.389595 208.0
93.453262 116.0
93.480156 164.0
93.541794 108.0
93.593277 184.0
93.639999 176.0
93.776802 156.0
93.815308 164.0
93.909843 64.0
93.979301 140.0
93.998596 168.0
94.04216 164.0
94.062286 152.0
94.118706 144.0
94.149178 148.0
94.212921 196.0
94.27282 260.0
94.304535 156.0
94.398483 180.0
94.464058 212.0
94.508743 148.0
94.524223 168.0
94.557121 164.0
94.622993 148.0
94.710091 124.0
94.774025 220.0
94.866226 168.0
95.048462 492.0
95.082367 184.0
95.150314 144.0
95.21051 100.0
95.253242 184.0
95.272667 28.0
95.336792 128.0
95.3815 76.0
95.404823 216.0
95.539017 228.0
95.595451 68.0
95.624306 92.0
95.702515 144.0
95.718094 76.0
95.751198 140.0
95.786263 96.0
95.812973 208.0
95.862251 172.0
95.887886 156.0
95.933098 164.0
96.02005 200.0
96.058655 948.0
96.084541 48.0
96.109909 132.0
96.129417 208.0
96.156479 264.0
96.18602 168.0
96.235443 152.0
96.359909 108.0
96.395012 116.0
96.475151 96.0
96.5299 156.0
96.555321 144.0
96.582703 192.0
96.610321 128.0
96.64727 96.0
96.707939 148.0
96.721642 180.0
96.774498 120.0
96.999809 136.0
97.028671 408.0
97.057961 336.0
97.086082 140.0
97.104614 308.0
97.140999 64.0
97.159615 148.0
97.245003 140.0
97.286224 180.0
97.323532 92.0
97.341896 272.0
97.376984 164.0
97.420067 184.0
97.443344 172.0
97.514091 136.0
97.58683 156.0
97.732384 264.0
97.750099 160.0
97.763573 156.0
97.828415 172.0
97.85836 120.0
97.91153 204.0
97.937134 216.0
97.982445 56.0
98.095398 1064.0
98.126328 208.0
98.16774 84.0
98.273232 152.0
98.323593 44.0
98.457848 164.0
98.485504 224.0
98.639778 164.0
98.683128 112.0
98.707085 172.0
98.756302 184.0
98.774101 184.0
98.789932 40.0
98.900749 164.0
98.918961 180.0
98.938362 132.0
98.956177 236.0
99.005684 176.0
99.072624 192.0
99.106514 168.0
99.122566 156.0
99.205818 128.0
99.233574 108.0
99.272179 136.0
99.318481 64.0
99.372414 48.0
99.393089 168.0
99.411285 136.0
99.47683 144.0
99.519302 32.0
99.622581 76.0
99.769646 160.0
99.799469 188.0
99.825317 72.0
99.871063 112.0
99.970543 236.0
99.996422 108.0
100.044197 140.0
100.062111 204.0
100.112747 804.0
100.209503 136.0
100.25135 152.0
100.28968 156.0
100.313774 176.0
100.360992 124.0
100.413841 92.0
100.480667 112.0
100.544525 168.0
100.618385 324.0
100.646339 140.0
100.77018 128.0
100.808144 148.0
100.822136 164.0
100.83812 136.0
100.92009 44.0
100.954086 92.0
100.988083 280.0
101.097023 196.0
101.115486 232.0
101.148163 168.0
101.182198 184.0
101.205902 148.0
101.228645 144.0
101.282333 148.0
101.302361 100.0
101.410576 48.0
101.432625 76.0
101.478737 196.0
101.554939 192.0
101.595062 172.0
101.693222 140.0
101.731529 140.0
101.753616 128.0
101.789246 140.0
101.817871 148.0
101.866081 164.0
101.92234 184.0
101.956505 180.0
101.982094 104.0
102.022835 160.0
102.149536 144.0
102.17569 96.0
102.266243 228.0
102.288094 164.0
102.381012 188.0
102.435654 188.0
102.497185 216.0
102.57444 120.0
102.662224 156.0
102.701485 164.0
102.721657 116.0
102.751915 176.0
102.781174 152.0
102.842728 304.0
102.858879 412.0
103.000229 120.0
103.052422 144.0
103.093178 52.0
103.143707 100.0
103.169983 160.0
103.190323 208.0
103.370232 128.0
103.406662 96.0
103.42083 192.0
103.493713 136.0
103.53624 192.0
103.572701 140.0
103.651718 156.0
103.874741 136.0
103.922371 152.0
103.949974 100.0
103.965981 112.0
104.039124 128.0
104.150818 144.0
104.185349 184.0
104.309319 208.0
104.338806 332.0
104.35405 40.0
104.390648 180.0
104.417091 184.0
104.466621 216.0
104.493965 228.0
104.551369 128.0
104.60836 172.0
104.642975 124.0
104.7061 128.0
104.722397 164.0
104.809998 52.0
104.928223 140.0
105.004395 176.0
105.034073 588.0
105.090393 176.0
105.205688 120.0
105.224068 108.0
105.2649 176.0
105.385422 192.0
105.440598 368.0
105.473305 196.0
105.516235 184.0
105.595985 172.0
105.710556 108.0
105.757637 104.0
105.871101 124.0
105.929642 164.0
105.970619 168.0
105.987015 136.0
106.039307 732.0
106.081184 156.0
106.15921 104.0
106.189972 124.0
106.210487 212.0
106.278191 140.0
106.304863 168.0
106.327438 184.0
106.451004 192.0
106.534836 100.0
106.590309 60.0
106.787682 156.0
106.856422 192.0
106.876144 280.0
106.938515 136.0
106.97905 56.0
107.013062 512.0
107.047859 456.0
107.084068 144.0
107.110847 140.0
107.205589 196.0
107.331375 44.0
107.506729 172.0
107.581871 308.0
107.615105 160.0
107.691391 172.0
107.781387 168.0
107.901268 232.0
107.915741 428.0
107.967438 184.0
108.014984 152.0
108.056755 972.0
108.093636 136.0
108.238541 116.0
108.279961 188.0
108.460228 220.0
108.495468 176.0
108.58049 152.0
108.617828 144.0
108.655167 176.0
108.742325 32.0
108.763084 140.0
108.833878 164.0
108.871902 176.0
108.942673 200.0
108.966568 236.0
108.997772 148.0
109.029327 472.0
109.064156 3928.0
109.099594 204.0
109.12249 80.0
109.157845 144.0
109.176559 216.0
109.205673 156.0
109.241486 168.0
109.263924 104.0
109.293419 136.0
109.370056 148.0
109.401283 180.0
109.425339 332.0
109.448151 212.0
109.472755 160.0
109.503319 192.0
109.523651 148.0
109.6054 184.0
109.624161 172.0
109.644997 108.0
109.661354 156.0
109.685669 156.0
109.7117 156.0
109.765915 144.0
109.799286 196.0
109.848091 140.0
110.035049 204.0
110.064323 188.0
110.104004 196.0
110.177109 48.0
110.306686 120.0
110.327591 108.0
110.360931 148.0
110.377769 208.0
110.3909 104.0
110.547218 236.0
110.637222 200.0
110.695854 152.0
110.75869 64.0
110.920044 144.0
110.936813 192.0
110.961967 160.0
110.99762 164.0
111.043846 1004.0
111.077232 460.0
111.121712 352.0
111.156212 192.0
111.224205 124.0
111.255699 112.0
111.299522 188.0
111.335487 128.0
111.403038 176.0
111.424179 164.0
111.446831 92.0
111.47625 208.0
111.546661 164.0
111.579247 164.0
111.631813 72.0
111.649963 184.0
111.695251 176.0
111.720161 324.0
111.789062 220.0
111.850632 172.0
111.892738 196.0
111.913795 180.0
111.949593 104.0
111.985397 204.0
112.012779 116.0
112.042511 180.0
112.084419 184.0
112.11171 684.0
112.15818 196.0
112.310005 240.0
112.385956 168.0
112.468262 132.0
112.491486 280.0
112.514709 240.0
112.539589 240.0
112.559044 232.0
112.588615 164.0
112.64196 176.0
112.753349 148.0
112.810478 180.0
112.841034 212.0
112.920441 172.0
112.99025 176.0
113.020866 308.0
113.040657 160.0
113.060883 588.0
113.083359 120.0
113.11216 216.0
113.165924 148.0
113.206154 76.0
113.232124 76.0
113.309952 220.0
113.362411 164.0
113.387024 176.0
113.461555 248.0
113.492233 100.0
113.627983 132.0
113.98896 184.0
114.101616 212.0
114.123726 160.0
114.199928 228.0
114.227089 172.0
114.241982 44.0
114.429276 144.0
114.460274 244.0
114.529366 200.0
114.544022 132.0
114.585037 192.0
114.66787 200.0
114.682785 212.0
114.80645 68.0
114.88324 148.0
114.977127 188.0
115.032623 180.0
115.05397 36.0
115.068916 148.0
115.175697 160.0
115.201332 192.0
115.224831 132.0
115.282532 204.0
115.308685 84.0
115.368027 168.0
115.468529 136.0
115.511314 32.0
115.526283 88.0
115.547684 192.0
115.575493 56.0
115.658966 164.0
115.697495 172.0
115.742462 196.0
115.763878 216.0
115.808395 168.0
115.849556 164.0
115.875267 184.0
115.941696 112.0
115.965271 240.0
116.049286 84.0
116.101219 196.0
116.138954 132.0
116.16684 108.0
116.201164 196.0
116.223717 180.0
116.287003 116.0
116.312767 52.0
116.329933 44.0
116.355698 128.0
116.375023 108.0
116.41153 116.0
116.465225 156.0
116.490845 108.0
116.716682 144.0
116.731735 36.0
116.768295 232.0
116.921051 156.0
116.989929 196.0
117.046951 108.0
117.073837 348.0
117.180862 172.0
117.24411 132.0
117.321709 136.0
117.35405 200.0
117.384453 160.0
117.418747 224.0
117.46759 260.0
117.552689 140.0
117.615097 76.0
117.682022 168.0
117.742485 288.0
117.767136 252.0
117.78965 192.0
117.900208 192.0
117.943436 216.0
117.980225 216.0
118.038177 164.0
118.058029 196.0
118.078934 108.0
118.13063 208.0
118.155365 196.0
118.213791 80.0
118.360992 212.0
118.389145 216.0
118.404305 172.0
118.434631 120.0
118.477959 148.0
118.497261 132.0
118.525627 164.0
118.540794 60.0
118.631828 184.0
118.649178 172.0
118.670853 116.0
118.781464 172.0
118.810196 180.0
118.837166 148.0
118.89212 152.0
118.924683 132.0
118.944214 184.0
118.989807 96.0
119.046211 164.0
119.161392 172.0
119.206619 216.0
119.213089 172.0
119.378769 100.0
119.422997 236.0
119.50692 188.0
119.661652 220.0
119.820648 176.0
119.892555 164.0
119.91217 160.0
119.929604 80.0
119.951408 116.0
120.016815 224.0
120.069153 144.0
120.112778 144.0
120.172325 204.0
120.263618 176.0
120.298264 136.0
120.344116 148.0
120.410675 152.0
120.510117 220.0
120.535149 212.0
120.558197 112.0
120.615021 104.0
120.660934 388.0
120.6828 212.0
120.739426 192.0
120.859978 216.0
120.886238 192.0
120.930008 204.0
120.973785 176.0
121.027443 780.0
121.066299 176.0
121.092033 132.0
121.124893 172.0
121.186234 84.0
121.214722 148.0
121.238831 56.0
121.280472 148.0
121.420799 180.0
121.47271 184.0
121.508545 168.0
121.556816 176.0
121.571167 104.0
121.613884 176.0
121.631439 136.0
121.649002 164.0
121.719261 116.0
121.780762 168.0
121.853256 240.0
122.034996 1976.0
122.194054 160.0
122.316963 296.0
122.391747 108.0
122.428406 208.0
122.464828 168.0
122.486855 224.0
122.614655 48.0
122.648346 168.0
122.742523 148.0
122.775597 184.0
122.840439 132.0
122.890312 140.0
122.923409 144.0
122.956512 148.0
123.002869 220.0
123.041809 1992.0
123.073563 188.0
123.135353 108.0
123.180733 176.0
123.225922 152.0
123.253304 144.0
123.343056 108.0
123.358528 168.0
123.402748 76.0
123.460243 152.0
123.513329 64.0
123.65715 156.0
123.734634 156.0
123.789993 100.0
123.812134 220.0
123.847572 120.0
123.973869 136.0
124.002678 204.0
124.050842 4504.0
124.093567 184.0
124.131264 108.0
124.242172 200.0
124.315392 176.0
124.339806 88.0
124.36644 112.0
124.406403 168.0
124.444145 164.0
124.521866 144.0
124.575867 160.0
124.621841 164.0
124.63739 152.0
124.655167 248.0
124.739632 148.0
124.784096 192.0
124.839684 60.0
124.857475 140.0
124.888618 184.0
124.928658 100.0
125.022118 144.0
125.057793 1872.0
125.118385 176.0
125.140099 232.0
125.19799 48.0
125.233047 184.0
125.255905 140.0
125.275955 152.0
125.511703 140.0
125.576889 160.0
125.605286 164.0
125.64476 160.0
125.721909 80.0
125.762085 156.0
125.798584 148.0
125.918381 224.0
125.959702 200.0
126.005501 172.0
126.032318 168.0
126.067978 556.0
126.123116 208.0
126.150841 136.0
126.171364 152.0
126.188782 236.0
126.208641 168.0
126.223221 344.0
126.242447 148.0
126.264809 108.0
126.282707 100.0
126.416946 100.0
126.53833 244.0
126.645317 48.0
126.693069 216.0
126.708038 192.0
126.723724 112.0
126.770622 168.0
127.039749 352.0
127.079575 204.0
127.109406 156.0
127.221077 176.0
127.321877 112.0
127.411903 172.0
127.439499 100.0
127.509163 168.0
127.545128 68.0
127.664291 120.0
127.702522 144.0
127.740768 108.0
127.839767 152.0
127.855522 136.0
127.925301 304.0
127.984749 124.0
128.046066 720.0
128.141083 852.0
128.182068 168.0
128.251938 156.0
128.466934 164.0
128.490982 160.0
128.574478 96.0
128.615097 124.0
128.664764 84.0
128.713684 272.0
128.743805 264.0
128.79306 128.0
128.859009 156.0
128.883865 188.0
129.021744 64.0
129.146317 184.0
129.173218 188.0
129.204926 172.0
129.261505 228.0
129.292572 192.0
129.390518 84.0
129.418472 208.0
129.481094 104.0
129.569443 172.0
129.605698 356.0
129.69635 176.0
129.764359 40.0
129.805008 196.0
129.833481 196.0
129.968506 48.0
130.093338 196.0
130.109222 144.0
130.152374 248.0
130.195511 148.0
130.229584 172.0
130.252304 152.0
130.320465 100.0
130.42955 60.0
130.545502 104.0
130.575073 184.0
130.604645 144.0
130.622833 232.0
130.700195 192.0
130.754807 44.0
130.817947 212.0
130.848145 80.0
130.898239 132.0
131.032623 184.0
131.071365 124.0
131.197815 176.0
131.243423 108.0
131.287933 168.0
131.306183 72.0
131.406555 172.0
131.461319 188.0
131.50235 196.0
131.573166 52.0
131.656845 112.0
131.68129 160.0
131.739883 236.0
131.783295 96.0
131.803864 168.0
131.836319 180.0
131.970734 192.0
132.009598 76.0
132.03476 140.0
132.054184 228.0
132.130829 104.0
132.169601 144.0
132.23381 108.0
132.27298 180.0
132.291183 128.0
132.319626 164.0
132.364304 108.0
132.423859 148.0
132.458206 152.0
132.487991 116.0
132.542984 192.0
132.561325 104.0
132.630081 76.0
132.664459 212.0
132.685089 148.0
132.737595 152.0
132.827286 128.0
132.896118 144.0
132.964493 200.0
133.003983 136.0
133.028061 596.0
133.070557 132.0
133.116486 192.0
133.150925 204.0
133.200089 72.0
133.311142 180.0
133.36232 116.0
133.443329 164.0
133.493515 176.0
133.516968 136.0
133.53476 52.0
133.573807 192.0
133.610321 128.0
133.618607 176.0
133.627548 192.0
133.699493 120.0
133.737122 152.0
133.906387 232.0
133.935272 124.0
133.990555 160.0
134.032043 784.0
134.068909 236.0
134.101181 208.0
134.117401 212.0
134.202362 160.0
134.27179 184.0
134.315613 72.0
134.345612 132.0
134.405594 156.0
134.535934 220.0
134.551987 208.0
134.589142 172.0
134.631439 164.0
134.738083 52.0
134.795853 184.0
134.837448 124.0
134.93454 176.0
134.990036 184.0
135.008545 224.0
135.042892 1244.0
135.075623 196.0
135.140396 112.0
135.219086 172.0
135.276459 180.0
135.510864 132.0
135.533722 144.0
135.561844 184.0
135.604691 172.0
135.643387 200.0
135.745392 160.0
135.780899 124.0
135.800156 192.0
135.877197 172.0
135.95842 152.0
136.010773 328.0
136.048615 140.0
136.095383 120.0
136.150345 156.0
136.188278 164.0
136.223129 164.0
136.256897 168.0
136.271912 228.0
136.376495 104.0
136.464828 148.0
136.49971 72.0
136.592743 160.0
136.681152 168.0
136.732361 244.0
136.75563 196.0
136.825684 168.0
136.869705 208.0
136.886017 236.0
136.920944 140.0
136.939575 152.0
137.021393 1524.0
137.059326 1664.0
137.13063 80.0
137.16481 164.0
137.202209 200.0
137.2612 156.0
137.277512 56.0
137.316193 188.0
137.342819 84.0
137.373154 172.0
137.485153 216.0
137.548813 176.0
137.582275 92.0
137.599533 76.0
137.67659 52.0
137.718628 132.0
137.751343 148.0
137.809738 176.0
137.849472 76.0
137.890961 148.0
137.947632 72.0
137.973083 208.0
138.025803 220.0
138.066574 14724.0
138.109558 116.0
138.165131 108.0
138.183853 256.0
138.200226 40.0
138.240936 232.0
138.310226 140.0
138.33374 96.0
138.402802 156.0
138.412567 84.0
138.417862 216.0
138.435013 136.0
138.469116 140.0
138.509262 168.0
138.567062 132.0
138.600647 104.0
138.640472 148.0
138.745956 104.0
138.806931 148.0
138.837418 144.0
138.870255 116.0
138.907776 60.0
138.957047 84.0
138.994583 168.0
139.038742 9112.0
139.073807 9644.0
139.110306 192.0
139.144821 76.0
139.176437 60.0
139.194839 236.0
139.209549 168.0
139.251633 136.0
139.272568 80.0
139.291199 204.0
139.32309 212.0
139.360901 148.0
139.395889 144.0
139.429047 168.0
139.468063 40.0
139.540695 204.0
139.55835 268.0
139.619492 184.0
139.695816 248.0
139.754654 180.0
139.789749 76.0
139.829788 128.0
139.873352 152.0
139.893478 244.0
139.951294 136.0
139.9729 272.0
140.041641 1104.0
140.076965 756.0
140.1091 44.0
140.13031 148.0
140.14798 376.0
140.229294 132.0
140.257568 184.0
140.313034 84.0
140.365372 144.0
140.451355 280.0
140.477539 200.0
140.528793 268.0
140.54686 400.0
140.566544 52.0
140.614319 180.0
140.709473 100.0
140.736496 200.0
140.762482 160.0
140.845917 208.0
140.904388 160.0
140.991638 292.0
141.018936 704.0
141.046127 140.0
141.076736 276.0
141.113602 148.0
141.138855 160.0
141.163162 120.0
141.196396 112.0
141.294312 220.0
141.328522 140.0
141.410263 196.0
141.462341 156.0
141.507263 136.0
141.635208 40.0
141.654099 148.0
141.677856 208.0
141.761612 148.0
141.852493 180.0
141.907761 196.0
141.931473 128.0
141.955185 76.0
141.971786 196.0
141.990753 156.0
142.021591 344.0
142.057175 252.0
142.101852 160.0
142.157059 1236.0
142.252808 128.0
142.296875 152.0
142.365631 152.0
142.406113 192.0
142.425125 140.0
142.451248 84.0
142.482132 112.0
142.498764 196.0
142.551041 172.0
142.572433 188.0
142.617584 200.0
142.665131 68.0
142.719818 220.0
142.76738 88.0
142.7901 240.0
142.855392 100.0
142.87822 308.0
142.932144 208.0
143.012436 220.0
143.073944 420.0
143.132751 128.0
143.164429 124.0
143.312515 36.0
143.434067 152.0
143.522278 84.0
143.565643 152.0
143.622437 328.0
143.66777 180.0
143.75 164.0
143.839859 168.0
143.873016 148.0
143.975693 40.0
144.016296 244.0
144.076019 204.0
144.157257 156.0
144.207443 144.0
144.262436 128.0
144.298294 172.0
144.338226 228.0
144.372421 52.0
144.396011 204.0
144.482452 248.0
144.561417 68.0
144.666733 160.0
144.728989 124.0
144.834213 124.0
144.858322 204.0
144.879883 176.0
144.920609 120.0
144.968536 236.0
145.035645 172.0
145.056656 188.0
145.191498 84.0
145.325836 168.0
145.346451 184.0
145.489044 204.0
145.529861 168.0
145.592407 184.0
145.624893 160.0
145.636108 100.0
145.641434 184.0
145.73056 236.0
145.776306 180.0
145.911896 40.0
146.058807 136.0
146.085052 76.0
146.125946 256.0
146.154831 180.0
146.239059 88.0
146.277191 152.0
146.296234 184.0
146.316711 200.0
146.354614 100.0
146.388321 120.0
146.496719 176.0
146.542496 132.0
146.566589 80.0
146.646118 120.0
146.667816 260.0
146.737167 188.0
146.807663 44.0
146.913788 152.0
146.949982 240.0
146.979111 140.0
147.03862 196.0
147.08754 96.0
147.109268 48.0
147.159973 324.0
147.246902 56.0
147.290955 152.0
147.321945 124.0
147.350784 148.0
147.367691 104.0
147.423279 176.0
147.454697 228.0
147.512711 132.0
147.53688 96.0
147.565887 132.0
147.636017 152.0
147.67955 96.0
147.756973 76.0
147.798096 224.0
147.864441 292.0
147.909424 232.0
147.943329 28.0
147.98645 152.0
148.154022 132.0
148.21701 156.0
148.293427 152.0
148.427917 196.0
148.452164 168.0
148.558884 40.0
148.590424 228.0
148.64624 160.0
148.674194 164.0
148.694778 92.0
148.745789 216.0
148.832565 148.0
148.857437 92.0
149.023056 388.0
149.056305 180.0
149.156281 112.0
149.20047 156.0
149.241379 180.0
149.38974 100.0
149.445694 96.0
149.606705 128.0
149.624619 184.0
149.664764 116.0
149.718338 132.0
149.747177 200.0
149.770264 88.0
149.798157 140.0
149.874252 136.0
149.908371 152.0
149.945999 136.0
149.971725 176.0
150.035919 232.0
150.057693 92.0
150.218018 216.0
150.279022 140.0
150.334869 184.0
150.385895 136.0
150.418198 152.0
150.459625 64.0
150.606155 180.0
150.642792 40.0
150.675385 224.0
150.708755 340.0
150.747864 152.0
150.784515 48.0
150.840744 56.0
150.861816 212.0
150.889633 76.0
150.951279 200.0
151.037872 3420.0
151.075562 180.0
151.222336 212.0
151.239471 180.0
151.39595 92.0
151.412537 152.0
151.470917 196.0
151.489243 80.0
151.541199 212.0
151.574997 80.0
151.609314 132.0
151.643387 164.0
151.714706 236.0
151.839645 84.0
151.888824 140.0
151.919861 160.0
151.953995 180.0
152.016357 192.0
152.045853 9412.0
152.108475 156.0
152.13913 28.0
152.187759 184.0
152.245773 132.0
152.292511 176.0
152.323318 72.0
152.367065 144.0
152.39949 72.0
152.452652 304.0
152.534378 180.0
152.591202 156.0
152.647751 68.0
152.701859 108.0
152.782867 176.0
152.827332 32.0
152.874084 84.0
152.901154 184.0
152.934418 152.0
152.982147 212.0
153.021072 316.0
153.053223 2980.0
153.121918 168.0
153.140152 172.0
153.178253 92.0
153.213882 188.0
153.254486 92.0
153.319839 84.0
153.371597 32.0
153.422241 208.0
153.47052 100.0
153.48912 192.0
153.507202 84.0
153.525146 168.0
153.595108 176.0
153.602356 132.0
153.640411 292.0
153.679886 172.0
153.699615 132.0
153.764603 160.0
153.800751 168.0
153.824646 208.0
153.852127 188.0
153.892838 160.0
153.941544 180.0
153.958832 108.0
153.97612 52.0
154.014862 296.0
154.062241 88088.0
154.120819 88.0
154.157028 848.0
154.189178 184.0
154.207733 284.0
154.226776 60.0
154.270172 156.0
154.292419 128.0
154.325256 120.0
154.345551 96.0
154.37352 228.0
154.432312 184.0
154.469421 168.0
154.507217 80.0
154.542786 88.0
154.574402 172.0
154.596664 128.0
154.626633 128.0
154.663498 72.0
154.690735 48.0
154.718872 164.0
154.738968 116.0
154.767487 56.0
154.822144 156.0
154.885773 68.0
154.917572 72.0
154.984833 224.0
155.031601 668.0
155.06459 5960.0
155.12767 52.0
155.157852 304.0
155.224503 132.0
155.258148 48.0
155.300308 72.0
155.325119 48.0
155.364807 184.0
155.385818 120.0
155.406998 40.0
155.432556 92.0
155.456528 100.0
155.464935 148.0
155.553421 52.0
155.598114 56.0
155.657471 88.0
155.682541 84.0
155.702408 44.0
155.720825 188.0
155.762009 108.0
155.82164 216.0
155.878784 60.0
155.923523 48.0
155.963287 100.0
155.993179 292.0
156.041122 1236.0
156.06488 872.0
156.107498 172.0
156.124908 216.0
156.175156 4536.0
156.235519 120.0
156.311493 120.0
156.349838 136.0
156.3797 372.0
156.405106 156.0
156.588058 88.0
156.620209 140.0
156.647614 160.0
156.684982 244.0
156.73233 56.0
156.829529 84.0
156.950821 104.0
157.046692 256.0
157.126282 72.0
157.176056 1016.0
157.199478 180.0
157.283508 52.0
157.343414 80.0
157.440811 236.0
157.469315 48.0
157.495758 148.0
157.549698 144.0
157.582169 156.0
157.673157 56.0
157.692917 132.0
157.718338 264.0
157.785645 164.0
157.851822 148.0
157.898178 164.0
157.955704 120.0
158.01825 108.0
158.105835 132.0
158.170914 148.0
158.200958 240.0
158.390305 196.0
158.418823 164.0
158.443878 160.0
158.466431 148.0
158.495224 160.0
158.512482 96.0
158.536591 64.0
158.585602 84.0
158.604263 124.0
158.67453 140.0
158.76474 264.0
158.839981 48.0
158.945358 88.0
158.965439 324.0
159.015625 108.0
159.035706 184.0
159.060806 196.0
159.128601 120.0
159.168228 128.0
159.173294 100.0
159.184677 108.0
159.189377 136.0
159.248764 164.0
159.274261 160.0
159.314453 152.0
159.334549 140.0
159.382294 52.0
159.485336 124.0
159.538116 168.0
159.724213 240.0
159.8022 120.0
159.857559 100.0
159.90538 176.0
159.990158 124.0
160.018661 144.0
160.053925 152.0
160.20578 108.0
160.250397 108.0
160.429337 116.0
160.48732 152.0
160.568024 164.0
160.656311 168.0
160.676498 168.0
160.696686 164.0
160.817719 208.0
160.901123 144.0
161.02359 604.0
161.082947 180.0
161.122894 148.0
161.166321 84.0
161.20929 96.0
161.28006 40.0
161.406464 88.0
161.457047 188.0
161.517746 132.0
161.550644 148.0
161.598709 160.0
161.641724 88.0
161.69487 84.0
161.760681 112.0
161.841705 152.0
161.899948 192.0
161.925278 136.0
162.029816 192.0
162.173645 152.0
162.289185 160.0
162.348526 148.0
162.371353 176.0
162.411926 216.0
162.434753 116.0
162.579391 124.0
162.641113 164.0
162.680923 32.0
162.725266 152.0
162.802795 100.0
162.851059 280.0
162.96283 92.0
162.99913 112.0
163.036072 1452.0
163.057983 136.0
163.069473 216.0
163.102615 48.0
163.128036 60.0
163.217026 216.0
163.288223 40.0
163.341644 92.0
163.382355 192.0
163.435776 208.0
163.471405 180.0
163.504013 148.0
163.582245 124.0
163.684311 216.0
163.753845 64.0
163.850815 228.0
164.044846 444.0
164.085297 208.0
164.202591 140.0
164.222992 188.0
164.281677 56.0
164.335251 64.0
164.429977 224.0
164.441345 160.0
164.483276 72.0
164.51004 148.0
164.707993 112.0
164.746307 132.0
164.776962 160.0
164.845963 160.0
164.945633 140.0
165.016373 2248.0
165.056885 172.0
165.114395 48.0
165.193695 48.0
165.27301 52.0
165.347687 372.0
165.40097 116.0
165.480331 120.0
165.51619 104.0
165.648392 168.0
165.7211 168.0
165.892822 212.0
165.938965 144.0
165.963089 108.0
166.021149 484.0
166.061569 668.0
166.098953 136.0
166.121063 112.0
166.149277 128.0
166.169815 68.0
166.191086 192.0
166.224915 176.0
166.369995 140.0
166.418777 128.0
166.518402 244.0
166.53949 92.0
166.572876 140.0
166.601135 40.0
166.624252 152.0
166.644806 168.0
166.669724 156.0
166.69487 152.0
166.768173 80.0
166.83757 172.0
166.86586 60.0
166.968079 160.0
167.003281 192.0
167.032684 756.0
167.068405 4012.0
167.11792 148.0
167.156525 56.0
167.18309 112.0
167.226013 160.0
167.249176 92.0
167.352158 84.0
167.370178 208.0
167.398499 116.0
167.439423 36.0
167.53244 144.0
167.556503 188.0
167.573669 228.0
167.648392 120.0
167.717987 60.0
167.738602 44.0
167.76564 132.0
167.785019 84.0
167.859787 168.0
167.901047 256.0
168.014557 184.0
168.039261 468.0
168.075211 864.0
168.100281 252.0
168.140518 88.0
168.178406 236.0
168.311798 124.0
168.388855 216.0
168.466705 124.0
168.536758 64.0
168.585205 104.0
168.63324 136.0
168.67308 128.0
168.698944 44.0
168.799774 136.0
168.861847 148.0
168.887711 92.0
168.930496 252.0
168.967911 60.0
169.004135 52.0
169.049698 456.0
169.084808 20436.0
169.156952 84.0
169.182724 204.0
169.208603 32.0
169.246918 136.0
169.273178 64.0
169.301834 92.0
169.329849 264.0
169.369171 72.0
169.413681 156.0
169.449478 60.0
169.470215 76.0
169.497986 172.0
169.531662 180.0
169.58165 36.0
169.620529 36.0
169.656921 220.0
169.825378 96.0
169.865829 128.0
169.895416 136.0
170.014786 60.0
170.057968 176.0
170.087662 2316.0
170.122314 224.0
170.185745 636.0
170.23613 268.0
170.302979 132.0
170.324387 140.0
170.401703 64.0
170.426773 200.0
170.475143 76.0
170.492386 200.0
170.511566 216.0
170.588821 40.0
170.632538 108.0
170.636322 148.0
170.672028 108.0
170.705826 148.0
170.763046 44.0
170.791656 188.0
170.926941 140.0
170.946426 140.0
170.976395 96.0
171.011551 132.0
171.062912 184.0
171.091064 372.0
171.138245 232.0
171.236755 296.0
171.265396 112.0
171.307724 128.0
171.369614 84.0
171.400879 60.0
171.447784 204.0
171.469528 128.0
171.519562 104.0
171.627655 200.0
171.664169 172.0
171.707596 172.0
171.784149 72.0
171.818069 192.0
171.854599 188.0
172.013794 124.0
172.06514 104.0
172.08168 176.0
172.099945 328.0
172.120834 152.0
172.169876 1324.0
172.232681 156.0
172.324585 64.0
172.34288 124.0
172.45787 200.0
172.49707 200.0
172.718658 76.0
172.766434 132.0
172.795212 144.0
172.948578 140.0
173.046478 76.0
173.088379 172.0
173.161713 128.0
173.225769 100.0
173.273331 200.0
173.332001 204.0
173.389008 180.0
173.399521 136.0
173.43779 220.0
173.507614 112.0
173.539078 236.0
173.630859 36.0
173.685944 220.0
173.712173 120.0
173.767273 92.0
173.822372 160.0
173.868393 172.0
173.908981 172.0
173.945724 60.0
174.097336 168.0
174.140045 156.0
174.172638 156.0
174.19072 184.0
174.310806 108.0
174.350235 140.0
174.368622 104.0
174.436203 68.0
174.500061 164.0
174.53302 232.0
174.592102 48.0
174.631561 152.0
174.655228 156.0
174.681534 172.0
174.760468 180.0
174.804001 184.0
174.849945 236.0
174.986832 152.0
175.031586 96.0
175.080399 372.0
175.263397 124.0
175.295013 228.0
175.463715 184.0
175.55336 124.0
175.614029 68.0
176.015182 188.0
176.072937 124.0
176.107132 152.0
176.1763 184.0
176.284637 216.0
176.427368 64.0
176.453812 136.0
176.498764 140.0
176.535782 116.0
176.66803 140.0
176.781815 176.0
176.89827 112.0
177.051712 152.0
177.083633 140.0
177.120712 120.0
177.141907 128.0
177.18959 180.0
177.22139 88.0
177.327393 88.0
177.451996 148.0
177.515625 184.0
177.609146 168.0
177.81012 184.0
177.856415 116.0
177.892395 76.0
177.934875 176.0
177.977356 152.0
178.054367 144.0
178.165939 112.0
178.211105 168.0
178.339584 140.0
178.464539 188.0
178.530106 108.0
178.562836 144.0
178.593933 108.0
178.660446 64.0
178.710999 212.0
178.74559 180.0
178.811157 276.0
178.836075 52.0
178.854706 144.0
178.992172 376.0
179.033981 4212.0
179.070389 160.0
179.131653 40.0
179.157898 192.0
179.208908 136.0
179.259537 140.0
179.286194 180.0
179.320847 124.0
179.398148 76.0
179.451462 184.0
179.507462 196.0
179.558136 124.0
179.614151 176.0
179.829697 164.0
179.84079 128.0
179.849442 156.0
179.899689 136.0
179.923721 160.0
179.950409 132.0
179.974442 124.0
180.037155 1272.0
180.06308 192.0
180.161407 208.0
180.278976 144.0
180.31105 224.0
180.356491 116.0
180.388565 184.0
180.409958 168.0
180.492844 196.0
180.543655 68.0
180.655991 124.0
180.736267 216.0
180.784424 92.0
180.808517 72.0
180.862045 132.0
180.972427 148.0
181.01442 176.0
181.048996 944.0
181.085068 728.0
181.336151 188.0
181.379044 52.0
181.440689 60.0
181.526505 48.0
181.56366 164.0
181.690125 128.0
181.708908 136.0
181.739761 208.0
181.786713 180.0
181.888718 192.0
181.979996 176.0
182.014893 156.0
182.056976 440.0
182.093948 440.0
182.135483 180.0
182.189148 2816.0
182.272781 164.0
182.370361 156.0
182.415222 72.0
182.468994 256.0
182.514709 148.0
182.614212 80.0
182.700287 136.0
182.724228 152.0
182.774673 56.0
182.796341 184.0
182.831635 256.0
182.877899 176.0
182.912888 152.0
182.931732 172.0
182.955963 96.0
182.984177 132.0
183.027573 1440.0
183.071991 176.0
183.08223 72.0
183.14447 160.0
183.194733 360.0
183.273788 120.0
183.319595 120.0
183.41124 136.0
183.459763 120.0
183.483948 144.0
183.637741 132.0
183.662598 204.0
183.696548 160.0
183.714111 128.0
183.756439 156.0
183.779953 252.0
183.803574 256.0
183.823166 332.0
183.858139 128.0
183.885483 132.0
183.92038 156.0
183.958786 496.0
184.03093 652.0
184.077866 180.0
184.108109 188.0
184.129898 452.0
184.165466 408.0
184.205933 104580.0
184.30127 136.0
184.344742 80.0
184.370056 120.0
184.391953 240.0
184.411957 196.0
184.445709 228.0
184.469193 140.0
184.520874 116.0
184.561996 212.0
184.646667 172.0
184.676682 192.0
184.718979 72.0
184.730606 76.0
184.74173 116.0
184.780487 376.0
184.820251 112.0
184.841431 140.0
184.87146 44.0
184.915024 60.0
184.953644 64.0
184.97905 52.0
184.998215 112.0
185.039886 308.0
185.075562 636.0
185.126724 144.0
185.208099 13900.0
185.268921 132.0
185.312027 48.0
185.351227 100.0
185.368439 80.0
185.405975 44.0
185.462585 144.0
185.525238 60.0
185.574051 44.0
185.601166 52.0
185.627167 156.0
185.713425 172.0
185.746429 184.0
185.768082 140.0
185.85614 40.0
185.885986 100.0
185.932129 88.0
186.024414 176.0
186.055252 100.0
186.110397 240.0
186.143097 180.0
186.165604 232.0
186.210602 824.0
186.258682 120.0
186.323334 108.0
186.373688 52.0
186.381638 128.0
186.410843 132.0
186.461624 100.0
186.50795 76.0
186.529694 140.0
186.565948 72.0
186.585938 124.0
186.641953 96.0
186.709305 324.0
186.757263 192.0
186.804352 152.0
186.875092 48.0
186.971008 196.0
186.988373 128.0
187.032028 168.0
187.092834 116.0
187.152725 188.0
187.197601 92.0
187.228973 140.0
187.267105 128.0
187.300461 188.0
187.327042 128.0
187.386734 184.0
187.396698 168.0
187.486877 248.0
187.536865 176.0
187.576492 108.0
187.727707 104.0
187.760437 116.0
187.825897 64.0
187.861359 52.0
187.936783 156.0
188.041458 76.0
188.071487 120.0
188.123352 120.0
188.165527 152.0
188.221649 100.0
188.243484 192.0
188.268066 148.0
188.335968 144.0
188.448364 48.0
188.579529 144.0
188.653336 124.0
188.681915 80.0
188.702545 132.0
188.743561 76.0
189.128616 148.0
189.222412 184.0
189.241577 188.0
189.367538 232.0
189.493561 76.0
189.616882 48.0
189.649765 84.0
189.753937 160.0
189.836197 256.0
189.855408 64.0
190.187393 144.0
190.283478 44.0
190.437256 184.0
190.566376 136.0
190.593857 120.0
190.629578 68.0
190.687302 160.0
190.767014 152.0
190.89624 156.0
190.961578 164.0
191.009018 152.0
191.102554 168.0
191.174103 48.0
191.201614 56.0
191.226395 92.0
191.25116 116.0
191.29245 64.0
191.336502 120.0
191.413605 60.0
191.435623 184.0
191.666885 76.0
191.782776 196.0
191.81311 176.0
191.859283 224.0
191.898575 64.0
191.984055 168.0
192.022659 148.0
192.058517 184.0
192.094376 180.0
192.119217 96.0
192.244354 236.0
192.317902 92.0
192.442123 68.0
192.511169 156.0
192.601593 168.0
192.635941 136.0
192.696243 132.0
192.745972 64.0
192.895218 92.0
192.980927 152.0
193.028549 216.0
193.050644 192.0
193.078033 180.0
193.315643 160.0
193.354385 76.0
193.409744 304.0
193.642334 160.0
193.780853 176.0
193.878769 248.0
193.952667 152.0
194.029434 168.0
194.038605 192.0
194.069107 108.0
194.11171 188.0
194.140411 140.0
194.168945 48.0
194.207779 64.0
194.298462 208.0
194.307175 144.0
194.313797 184.0
194.343719 148.0
194.383926 340.0
194.443619 124.0
194.515121 140.0
194.540771 140.0
194.610184 84.0
194.643509 196.0
194.689041 160.0
194.751282 204.0
194.785156 140.0
194.840576 160.0
194.875946 164.0
194.915741 160.0
194.934357 360.0
195.007538 344.0
195.017441 168.0
195.064926 100536.0
195.133514 40.0
195.169708 112.0
195.190079 176.0
195.250977 136.0
195.284042 48.0
195.312454 196.0
195.353897 152.0
195.373795 156.0
195.413467 44.0
195.460571 56.0
195.521637 92.0
195.558426 220.0
195.619217 56.0
195.629471 52.0
195.644745 92.0
195.676956 84.0
195.699188 116.0
195.764206 352.0
195.817444 68.0
195.846161 56.0
195.895111 152.0
195.923431 72.0
195.982529 96.0
196.010422 284.0
196.068069 8260.0
196.169434 116.0
196.203522 48.0
196.237152 220.0
196.299683 176.0
196.325455 92.0
196.359787 188.0
196.407059 80.0
196.434341 56.0
196.467239 152.0
196.514542 68.0
196.555908 48.0
196.622528 64.0
196.646118 180.0
196.775955 48.0
196.804337 84.0
196.837723 92.0
196.872757 96.0
196.935593 68.0
196.977493 164.0
197.005432 172.0
197.044556 1316.0
197.065811 1272.0
197.110535 120.0
197.187057 60.0
197.227661 168.0
197.284348 104.0
197.334488 220.0
197.375015 88.0
197.41478 232.0
197.454422 176.0
197.494553 140.0
197.544174 128.0
197.592773 128.0
197.626022 108.0
197.63533 152.0
197.658051 156.0
197.680756 84.0
197.759079 124.0
197.82106 92.0
197.866837 228.0
197.908829 184.0
197.933609 96.0
197.987244 156.0
198.05159 13656.0
198.179276 152.0
198.220352 116.0
198.309448 60.0
198.340271 60.0
198.399918 176.0
198.434189 80.0
198.469238 128.0
198.505692 104.0
198.528137 72.0
198.568405 212.0
198.614548 84.0
198.624329 68.0
198.642975 172.0
198.675568 128.0
198.71608 76.0
198.763779 76.0
198.784302 156.0
198.833939 56.0
198.926559 188.0
198.968674 232.0
198.988327 156.0
199.056702 1604.0
199.131393 172.0
199.179306 44.0
199.238297 32.0
199.305725 308.0
199.3535 176.0
199.465927 56.0
199.595261 68.0
199.648697 76.0
199.671188 72.0
199.690887 44.0
199.932846 236.0
200.05661 640.0
200.127075 116.0
200.150818 64.0
200.198608 1072.0
200.298874 88.0
200.397491 148.0
200.459473 44.0
200.482025 48.0
200.513031 160.0
200.532761 80.0
200.57785 76.0
200.668076 84.0
200.72728 188.0
200.758301 56.0
200.789322 132.0
200.855972 64.0
201.006561 104.0
201.056091 80.0
201.201614 180.0
201.24649 36.0
201.305786 84.0
201.393341 148.0
201.644821 76.0
201.695694 192.0
201.729614 36.0
201.766373 152.0
201.831406 120.0
202.102951 148.0
202.136902 48.0
202.213409 620.0
202.306732 76.0
202.371857 96.0
202.587112 140.0
202.609772 120.0
202.734451 128.0
202.870499 116.0
203.013245 156.0
203.043472 96.0
203.215057 460.0
203.330032 104.0
203.375443 132.0
203.596909 184.0
203.775864 68.0
203.895218 124.0
204.000397 84.0
204.068619 148.0
204.088531 172.0
204.108429 160.0
204.173843 300.0
204.435577 352.0
204.468811 136.0
204.503891 44.0
204.631989 92.0
204.783554 164.0
204.888321 72.0
204.973801 112.0
205.109772 176.0
205.145981 116.0
205.347275 128.0
205.472412 60.0
205.515594 140.0
205.74469 212.0
205.812454 88.0
205.89241 88.0
205.955246 72.0
206.002609 200.0
206.075241 172.0
206.248459 188.0
206.429688 140.0
206.482651 148.0
206.544098 72.0
206.584152 208.0
206.856018 72.0
206.877167 280.0
207.03067 140.0
207.093689 120.0
207.15097 180.0
207.457611 80.0
207.480545 52.0
207.741531 116.0
207.761612 132.0
207.801773 164.0
207.821869 108.0
208.097412 152.0
208.196274 168.0
208.304199 88.0
208.390381 156.0
208.554199 48.0
208.588684 80.0
208.700821 228.0
208.835983 96.0
208.864746 108.0
209.195679 120.0
209.316605 140.0
209.454849 204.0
209.647903 104.0
209.731491 176.0
209.83873 144.0
209.881409 52.0
209.913116 108.0
210.051315 144.0
210.074646 164.0
210.126572 60.0
210.44696 116.0
210.608688 176.0
210.633408 100.0
210.949677 76.0
210.990143 112.0
211.060379 304.0
211.181 160.0
211.279358 72.0
211.597717 40.0
211.623779 84.0
211.660706 96.0
211.707764 116.0
211.794647 76.0
211.896042 204.0
212.041931 152.0
212.071167 148.0
212.316376 48.0
212.503845 140.0
212.508911 224.0
212.548447 148.0
212.699371 64.0
212.83873 172.0
212.867767 144.0
212.960709 356.0
213.011688 240.0
213.074921 8092.0
213.122818 100.0
213.283234 112.0
213.328552 136.0
213.448959 116.0
213.478912 148.0
213.504211 64.0
213.542023 44.0
213.59729 140.0
213.649658 108.0
213.675262 60.0
213.699112 168.0
213.862091 56.0
213.902847 172.0
213.93486 96.0
214.033859 104.0
214.07785 1872.0
214.156174 144.0
214.214432 148.0
214.342636 108.0
214.456299 72.0
214.736206 52.0
214.812042 148.0
214.867477 48.0
214.893738 128.0
215.039658 100.0
215.084488 144.0
215.118469 120.0
215.168091 204.0
215.194382 48.0
215.220657 156.0
215.334549 64.0
215.387131 176.0
215.416336 200.0
215.448471 120.0
215.48645 84.0
215.579956 108.0
215.609192 148.0
215.68811 108.0
215.731949 180.0
215.845978 60.0
215.873169 108.0
215.983444 224.0
216.032639 108.0
216.103394 176.0
216.13266 136.0
216.205811 156.0
216.261429 36.0
216.308258 36.0
216.346313 148.0
216.384384 96.0
216.5103 180.0
216.55423 144.0
216.700699 144.0
216.747589 120.0
216.820847 96.0
216.873611 76.0
217.026062 148.0
217.078842 72.0
217.099365 172.0
217.140427 164.0
217.204956 96.0
217.251892 80.0
217.345779 80.0
217.380997 144.0
217.554184 120.0
217.75679 304.0
217.944809 152.0
218.059418 52.0
218.206406 80.0
218.232864 168.0
218.306381 200.0
218.379715 176.0
218.594681 172.0
218.733017 148.0
218.883163 148.0
219.036331 80.0
219.097214 228.0
219.451874 144.0
219.478409 128.0
219.566315 104.0
219.599319 200.0
219.826492 128.0
219.876663 180.0
219.935699 116.0
220.006546 56.0
220.050842 124.0
220.145325 80.0
220.239838 124.0
220.325516 40.0
220.65358 76.0
220.683136 152.0
220.727493 128.0
220.928619 232.0
220.988998 128.0
221.09729 124.0
221.120972 168.0
221.313385 124.0
221.363739 80.0
221.505264 56.0
221.559219 128.0
221.766663 204.0
221.846695 148.0
222.009781 104.0
222.137329 44.0
222.270844 148.0
222.407364 212.0
222.431107 140.0
222.502365 144.0
222.612228 144.0
222.901093 264.0
222.992508 40.0
223.016281 152.0
223.095261 876.0
223.211151 96.0
223.233322 116.0
223.331467 120.0
223.584381 232.0
223.623062 48.0
223.666351 152.0
223.798721 204.0
223.820663 156.0
223.935699 108.0
224.036987 96.0
224.094345 128.0
224.209808 156.0
224.251541 132.0
224.299225 216.0
224.460236 152.0
224.496017 76.0
224.582504 124.0
224.716751 92.0
225.003281 80.0
225.033386 100.0
225.073593 712.0
225.119736 40.0
225.203369 132.0
225.403534 176.0
225.459518 164.0
225.651627 120.0
225.741333 92.0
225.807129 84.0
225.914825 116.0
226.031509 128.0
226.085968 840.0
226.235046 28.0
226.354813 76.0
226.507553 140.0
226.762253 144.0
227.0784 160.0
227.131058 184.0
227.521194 100.0
227.546021 108.0
227.602264 80.0
227.740417 232.0
228.269379 148.0
228.30246 100.0
228.383667 192.0
228.446838 112.0
228.522049 196.0
228.603287 180.0
228.856155 136.0
228.986053 128.0
229.196533 180.0
229.247757 164.0
229.431625 144.0
229.513031 104.0
230.279587 104.0
230.346039 168.0
230.403442 100.0
230.911285 88.0
231.08371 84.0
231.271347 160.0
231.389404 120.0
231.549911 184.0
231.764999 100.0
231.828629 132.0
231.877121 204.0
231.971085 88.0
232.03476 176.0
232.240967 104.0
232.635468 48.0
233.048523 144.0
233.084976 176.0
233.148804 104.0
233.206543 120.0
233.446732 68.0
233.598816 152.0
233.641403 180.0
233.881821 128.0
233.942703 80.0
234.107117 180.0
234.146713 76.0
234.172577 180.0
234.228958 180.0
234.326447 80.0
234.381287 180.0
234.689163 84.0
234.80809 36.0
234.936203 128.0
234.991119 152.0
235.097931 156.0
235.513168 96.0
235.668976 100.0
235.894287 144.0
236.063309 124.0
236.252945 216.0
236.500809 160.0
236.537552 132.0
236.626328 204.0
236.681442 280.0
236.742691 68.0
236.895844 108.0
236.963242 144.0
237.033722 136.0
237.134857 148.0
237.180832 184.0
237.355591 116.0
237.401596 144.0
237.536545 152.0
237.683823 128.0
237.808792 200.0
237.849548 148.0
237.906342 200.0
237.960068 112.0
238.070618 204.0
238.159683 132.0
238.184265 188.0
238.218048 84.0
238.437286 92.0
238.556091 196.0
238.626801 104.0
238.688309 164.0
238.943604 172.0
239.207626 96.0
239.312958 192.0
239.429977 208.0
239.636368 96.0
239.657928 76.0
239.812027 60.0
239.849014 152.0
239.932251 148.0
240.086426 164.0
240.169708 104.0
240.31778 76.0
240.700546 176.0
240.799377 116.0
240.950745 184.0
240.978546 160.0
241.106689 348.0
241.181076 164.0
241.287628 148.0
241.441818 148.0
241.49791 128.0
241.535034 184.0
241.664963 136.0
241.714478 76.0
241.782562 116.0
241.881607 164.0
241.937332 164.0
241.98996 48.0
242.02327 196.0
242.08905 156.0
242.42984 124.0
242.609619 168.0
242.671616 104.0
242.773956 124.0
242.873199 196.0
243.131836 160.0
243.167969 180.0
243.289032 160.0
243.419449 128.0
243.521942 180.0
243.57164 136.0
243.608917 176.0
243.630661 184.0
243.73941 160.0
244.024185 168.0
244.367508 48.0
244.435974 84.0
244.467087 152.0
244.585358 28.0
244.613373 176.0
244.741028 180.0
244.812653 156.0
245.015121 116.0
245.267548 124.0
245.463959 48.0
245.548172 68.0
245.619904 124.0
245.788391 80.0
245.816467 80.0
245.900742 160.0
246.025604 76.0
246.175476 80.0
246.222321 172.0
246.275421 220.0
246.672272 88.0
246.712921 196.0
246.785629 188.0
246.82547 152.0
246.850494 40.0
246.925552 100.0
246.963089 176.0
247.088211 136.0
247.147659 232.0
247.272842 96.0
247.297882 120.0
247.322922 64.0
247.485718 64.0
247.601593 108.0
247.751953 248.0
247.836548 184.0
247.914886 60.0
247.955627 144.0
248.059067 124.0
248.128036 140.0
248.153122 128.0
248.325607 120.0
248.535797 176.0
248.585999 132.0
248.629944 204.0
248.720963 224.0
249.044388 136.0
249.157471 168.0
249.195175 80.0
249.471756 176.0
249.522064 148.0
249.748489 160.0
249.87117 196.0
249.915222 88.0
250.535477 116.0
250.819092 92.0
251.188049 148.0
251.255188 128.0
251.326874 104.0
251.440475 156.0
251.711975 144.0
251.737244 148.0
251.771973 92.0
251.809875 104.0
251.863571 148.0
252.053146 196.0
252.107758 156.0
252.208008 132.0
252.422989 196.0
252.521027 192.0
252.546341 152.0
252.823395 132.0
252.846924 204.0
252.884506 160.0
252.981277 160.0
253.104523 172.0
253.13501 188.0
253.188843 108.0
253.325058 132.0
253.388412 208.0
253.727539 184.0
253.857544 128.0
253.882919 192.0
254.066895 52.0
254.143036 132.0
254.311249 96.0
254.406479 100.0
254.647812 112.0
254.724045 80.0
255.013458 136.0
255.079956 136.0
255.229385 164.0
255.254822 84.0
255.95491 180.0
256.031342 124.0
256.251129 132.0
256.318054 152.0
256.381775 136.0
256.499725 104.0
256.604919 204.0
256.744232 208.0
257.006805 88.0
257.115326 116.0
257.144043 160.0
257.226593 112.0
257.300476 248.0
257.552734 80.0
257.779602 88.0
257.821136 132.0
257.901215 144.0
257.986115 244.0
258.145447 152.0
258.291168 220.0
258.374329 160.0
258.444733 144.0
258.575928 140.0
258.643158 124.0
258.678375 116.0
258.719971 40.0
258.79361 128.0
259.056244 116.0
259.133148 164.0
259.219666 164.0
259.392731 140.0
259.466461 88.0
259.544464 172.0
259.674896 132.0
259.710175 84.0
259.777557 208.0
259.825684 148.0
259.902679 108.0
260.067902 132.0
260.181915 100.0
260.255768 80.0
260.397064 152.0
260.589813 76.0
260.650879 96.0
260.750488 72.0
260.846924 148.0
261.300385 128.0
261.380829 96.0
261.445068 116.0
261.532104 160.0
261.615784 132.0
261.938568 88.0
262.063477 200.0
262.103821 176.0
262.472839 52.0
262.500732 176.0
262.651337 116.0
262.79541 136.0
263.234406 160.0
263.266693 248.0
263.337769 200.0
263.470215 44.0
263.764282 124.0
263.825714 40.0
264.081177 144.0
264.11676 216.0
264.343231 56.0
264.595703 128.0
264.702576 168.0
264.796478 56.0
264.951965 124.0
265.049164 188.0
265.142853 128.0
265.179749 68.0
265.200012 192.0
265.266327 76.0
265.301971 60.0
265.338867 212.0
265.457611 152.0
265.746307 92.0
265.814453 128.0
265.97998 144.0
266.057892 76.0
266.207275 112.0
266.239746 92.0
266.818146 220.0
266.948212 112.0
267.172638 128.0
267.2117 220.0
267.232971 192.0
267.259674 144.0
267.452515 156.0
267.498077 148.0
267.524139 116.0
267.807434 144.0
267.856293 68.0
268.175629 76.0
268.224518 156.0
268.312531 184.0
268.504944 304.0
268.576691 152.0
268.625641 132.0
268.694122 136.0
268.893188 184.0
268.984589 108.0
269.066193 140.0
269.350311 64.0
269.637878 96.0
269.748993 120.0
269.853607 176.0
270.115265 180.0
270.156403 180.0
270.327942 200.0
270.429382 80.0
270.485046 136.0
270.547241 112.0
270.750244 116.0
271.13028 152.0
271.415497 136.0
271.481079 116.0
271.641815 108.0
271.891174 160.0
272.065155 152.0
272.281891 144.0
272.354126 108.0
272.603851 136.0
272.702423 152.0
273.093719 128.0
273.147278 112.0
273.198975 120.0
273.297699 216.0
273.409576 96.0
273.722321 172.0
273.801361 96.0
274.078094 204.0
274.13739 152.0
274.20517 212.0
274.246155 68.0
274.291412 160.0
274.487976 172.0
274.612152 108.0
275.111969 172.0
275.156647 204.0
275.394409 148.0
275.420837 128.0
275.572815 188.0
275.60257 136.0
275.727692 148.0
275.774414 112.0
275.900024 120.0
275.969452 100.0
276.005829 120.0
276.049438 152.0
276.1745 72.0
276.273743 148.0
276.492126 248.0
276.584808 144.0
276.644409 148.0
276.783447 176.0
276.982178 152.0
277.164398 168.0
277.240417 64.0
277.270447 152.0
277.354797 80.0
277.486603 212.0
277.698151 144.0
277.767822 104.0
277.794342 144.0
277.92041 128.0
278.039886 112.0
278.086365 60.0
278.132812 136.0
278.205872 136.0
278.375214 136.0
278.472321 200.0
278.604401 40.0
278.627655 44.0
278.700745 100.0
278.953339 140.0
279.083008 128.0
279.146179 100.0
279.225983 144.0
279.249268 96.0
279.448883 228.0
279.542053 40.0
279.608612 164.0
279.738434 88.0
279.841644 188.0
280.203003 344.0
280.45462 140.0
280.779541 232.0
280.806885 124.0
280.990997 152.0
281.111664 124.0
281.161713 80.0
281.211792 136.0
281.515594 128.0
281.70932 132.0
281.906464 184.0
281.97998 128.0
282.050201 140.0
282.076935 132.0
282.173889 80.0
282.23407 132.0
282.260803 144.0
282.302002 180.0
282.549255 84.0
282.598663 116.0
282.695709 96.0
282.722473 204.0
282.752594 124.0
283.033813 104.0
283.114166 180.0
283.181152 152.0
283.211304 148.0
283.405609 116.0
283.435791 152.0
283.576538 200.0
283.965485 160.0
284.163391 128.0
284.321106 128.0
284.358032 168.0
284.49231 72.0
284.676971 108.0
284.7005 172.0
284.858368 132.0
284.908752 156.0
285.083466 132.0
285.164124 156.0
285.308685 76.0
285.56424 176.0
285.634888 132.0
285.856171 88.0
286.184326 232.0
286.253296 184.0
286.304688 156.0
286.388916 52.0
286.422577 104.0
286.675293 144.0
286.708984 88.0
286.742676 32.0
286.789886 164.0
287.09668 140.0
287.218109 200.0
287.390167 88.0
287.434052 228.0
287.471161 132.0
287.828979 72.0
287.910034 72.0
288.126221 128.0
288.237732 132.0
288.389801 96.0
288.423615 96.0
288.663666 88.0
288.710999 136.0
288.869995 88.0
289.108002 128.0
289.226746 112.0
289.322937 124.0
289.365082 84.0
289.523254 140.0
289.631653 148.0
289.705841 128.0
289.750214 80.0
289.780701 196.0
289.8078 148.0
289.855255 192.0
289.919647 144.0
290.135651 356.0
290.167084 188.0
290.204376 168.0
290.475708 152.0
290.550354 152.0
290.621582 124.0
290.79129 36.0
290.815033 148.0
290.893097 136.0
290.947418 132.0
291.056091 48.0
291.359283 152.0
291.429718 192.0
291.453522 156.0
291.671021 96.0
291.752625 68.0
291.813812 124.0
291.980438 168.0
292.187927 132.0
292.221954 84.0
292.286621 144.0
292.327454 28.0
292.402313 176.0
293.018677 36.0
293.073212 156.0
293.301544 152.0
293.397003 120.0
293.642517 128.0
293.799438 248.0
293.857422 48.0
293.959808 184.0
294.065613 120.0
294.106567 64.0
294.2146 136.0
294.256775 328.0
294.355804 160.0
294.420685 136.0
294.453796 92.0
294.533386 172.0
294.574402 128.0
294.71106 116.0
294.926361 104.0
294.977631 108.0
295.100708 152.0
295.12674 156.0
295.16568 124.0
295.292206 132.0
295.360626 160.0
295.446136 164.0
295.583008 136.0
295.668579 128.0
295.716492 128.0
295.908203 240.0
296.171875 172.0
296.238373 136.0
296.273712 72.0
296.45285 92.0
296.528229 112.0
296.641357 112.0
296.69278 176.0
296.74765 96.0
296.823059 80.0
296.850494 104.0
297.041534 156.0
297.054779 108.0
297.072571 108.0
297.081787 188.0
297.162659 48.0
297.190094 176.0
297.337677 76.0
297.629486 252.0
297.887054 136.0
298.15509 120.0
298.199768 76.0
298.443848 152.0
298.546997 164.0
298.571075 176.0
298.629547 112.0
298.705231 176.0
298.798126 208.0
298.910217 48.0
298.93576 88.0
298.970154 152.0
299.107849 160.0
299.157104 144.0
299.214569 120.0
299.32132 92.0
299.40741 132.0
299.55896 76.0
299.703308 160.0
299.896667 152.0
299.931122 88.0
300.051788 116.0
300.196594 108.0
300.579529 156.0
300.670929 148.0
300.997223 100.0
301.022736 168.0
301.055908 120.0
301.169891 148.0
301.363373 204.0
301.41864 60.0
301.522339 156.0
301.553436 204.0
301.729736 172.0
301.957977 172.0
302.112091 180.0
302.186279 116.0
302.515076 112.0
302.591248 108.0
302.681274 200.0
302.71936 52.0
302.795471 220.0
302.850952 52.0
302.91333 96.0
302.982605 48.0
303.041504 72.0
303.090759 132.0
303.155853 56.0
303.277161 200.0
303.39502 92.0
303.426239 144.0
303.589203 188.0
303.849365 180.0
304.019379 168.0
304.16507 120.0
304.191742 404.0
304.44989 168.0
304.484619 120.0
304.517761 140.0
304.661774 128.0
304.727783 228.0
304.762543 144.0
304.925873 56.0
305.102173 156.0
305.195099 148.0
305.263092 164.0
305.395264 120.0
305.503326 60.0
305.583099 140.0
305.628357 96.0
305.694458 220.0
305.730042 160.0
306.206665 472.0
306.426788 88.0
306.519775 180.0
306.596466 116.0
306.645264 168.0
306.746338 156.0
306.89624 172.0
306.97644 28.0
307.207672 288.0
307.370636 164.0
307.541656 164.0
307.873352 144.0
307.915253 48.0
308.11087 112.0
308.182129 152.0
308.229675 196.0
308.257629 192.0
308.358978 112.0
308.505798 80.0
308.872986 156.0
308.932465 192.0
309.152069 184.0
309.198395 136.0
309.224152 156.0
309.271912 120.0
309.352417 220.0
309.702576 124.0
309.752411 160.0
309.793671 260.0
310.063477 136.0
310.088013 120.0
310.127289 212.0
310.235626 3012.0
310.354431 60.0
310.472687 140.0
310.533295 72.0
310.608612 68.0
310.698181 216.0
310.900116 124.0
310.975403 80.0
311.031555 168.0
311.073669 140.0
311.242004 1088.0
311.365112 112.0
311.410797 56.0
311.8078 56.0
311.853516 224.0
311.951477 156.0
312.04895 140.0
312.155853 60.0
312.240631 232.0
312.28949 60.0
312.461884 92.0
312.540466 168.0
312.57312 144.0
312.646179 212.0
312.670868 132.0
312.933502 288.0
312.972321 180.0
313.243439 40.0
313.287994 196.0
313.36322 112.0
313.483032 116.0
313.624023 52.0
313.72821 128.0
313.788605 192.0
313.874329 232.0
314.135315 212.0
314.287048 124.0
314.414062 116.0
314.604675 224.0
314.692963 68.0
314.947235 192.0
314.993164 180.0
315.041687 140.0
315.16626 128.0
315.205139 144.0
315.247559 116.0
315.364166 100.0
315.427795 44.0
315.523254 152.0
315.75827 244.0
315.848602 128.0
316.007812 40.0
316.032593 100.0
316.067963 188.0
316.187897 484.0
316.234283 140.0
316.369476 148.0
316.432556 144.0
316.64856 192.0
316.68042 80.0
316.829224 132.0
316.896545 132.0
316.985107 156.0
317.04538 112.0
317.189056 116.0
317.291168 196.0
317.641052 204.0
317.825531 100.0
317.99588 72.0
318.109467 88.0
318.180481 136.0
318.211945 144.0
318.276337 184.0
318.304749 96.0
318.372223 148.0
318.958496 108.0
319.189117 240.0
319.282043 204.0
319.328278 172.0
319.381622 144.0
319.412384 116.0
319.66626 128.0
319.705414 116.0
319.801605 152.0
319.983063 176.0
320.100555 144.0
320.125488 168.0
320.158081 132.0
320.217499 332.0
320.414032 160.0
320.464142 168.0
320.499542 160.0
320.577942 116.0
320.706238 148.0
320.884491 144.0
321.077057 168.0
321.177216 140.0
321.215881 156.0
321.290222 148.0
321.373138 204.0
321.45163 208.0
321.551575 144.0
321.822876 116.0
321.85144 208.0
321.883575 36.0
321.908569 140.0
321.997864 204.0
322.203766 424.0
322.237274 624.0
322.33725 28.0
322.430176 112.0
322.644653 168.0
322.961548 124.0
323.035706 196.0
323.152527 132.0
323.205719 136.0
323.249664 140.0
323.295685 76.0
323.413788 116.0
323.564148 72.0
323.64151 144.0
323.678711 124.0
323.725281 108.0
323.782562 72.0
323.919067 148.0
324.139984 104.0
324.190979 144.0
324.255493 128.0
324.280579 192.0
324.481354 52.0
324.743134 140.0
324.865082 128.0
324.961945 160.0
325.010406 108.0
325.179718 172.0
325.224701 208.0
325.266998 196.0
325.345978 76.0
325.371124 76.0
325.407013 104.0
325.453705 52.0
325.679962 216.0
325.96936 144.0
326.006897 80.0
326.09317 144.0
326.244141 164.0
326.713928 172.0
326.758453 112.0
326.949402 116.0
327.111145 212.0
327.147125 68.0
327.319946 228.0
327.572083 168.0
327.707855 76.0
327.745026 148.0
327.871155 200.0
328.011719 120.0
328.065796 80.0
328.168304 120.0
328.224426 132.0
328.444427 240.0
328.534637 56.0
328.617615 128.0
328.886505 184.0
329.000641 192.0
329.119324 96.0
329.25296 160.0
329.433563 96.0
329.774048 140.0
329.852753 144.0
330.051605 144.0
330.187439 116.0
330.214142 164.0
330.691956 160.0
330.789673 144.0
330.840363 176.0
330.887421 156.0
330.972321 144.0
331.035889 136.0
331.137299 60.0
331.459717 120.0
331.5177 132.0
331.825836 52.0
331.903839 108.0
332.018005 124.0
332.047028 152.0
332.159485 212.0
332.19928 160.0
332.409821 148.0
332.493286 164.0
332.720734 232.0
332.875275 164.0
332.91806 100.0
332.997955 124.0
333.17807 152.0
333.215942 180.0
333.335846 132.0
333.480988 124.0
333.684784 124.0
333.713867 100.0
333.892059 128.0
333.924805 128.0
334.073944 168.0
334.132141 132.0
334.233521 2708.0
334.379608 160.0
334.703613 152.0
334.783722 120.0
334.991333 204.0
335.157288 168.0
335.237427 976.0
335.535065 116.0
335.581757 124.0
335.689545 108.0
335.964722 88.0
336.088776 48.0
336.11795 192.0
336.216522 268.0
336.304077 76.0
336.392578 232.0
336.439148 96.0
336.559662 156.0
336.603455 156.0
336.699768 136.0
336.731293 80.0
336.786072 164.0
336.818939 44.0
336.93219 168.0
336.987 168.0
337.079834 60.0
337.203979 212.0
337.26181 244.0
337.354675 100.0
337.421936 92.0
337.613525 236.0
337.652252 188.0
337.707184 80.0
337.751099 184.0
337.820587 32.0
337.975067 132.0
338.033539 100.0
338.102325 216.0
338.157227 160.0
338.231201 16236.0
338.319427 112.0
338.409821 92.0
338.453339 168.0
338.541656 112.0
338.567291 52.0
338.606995 124.0
338.615906 104.0
338.637695 196.0
338.669861 40.0
338.699158 52.0
338.732117 68.0
338.77243 120.0
338.798553 92.0
338.840271 84.0
338.889648 116.0
338.975769 52.0
339.008759 88.0
339.043579 32.0
339.076569 116.0
339.124207 44.0
339.234161 4060.0
339.304382 236.0
339.34848 112.0
339.376709 64.0
339.424927 164.0
339.501831 68.0
339.544952 108.0
339.909058 164.0
339.986115 56.0
340.238861 536.0
340.31192 128.0
340.507446 60.0
340.535614 168.0
340.584595 48.0
340.827057 52.0
340.952026 44.0
341.055817 164.0
341.128448 160.0
341.165222 60.0
341.198303 40.0
341.323303 124.0
341.34906 36.0
341.44101 36.0
341.649017 124.0
341.695007 160.0
341.819916 120.0
341.989227 152.0
342.062836 164.0
342.094879 104.0
342.202148 124.0
342.338989 148.0
342.386871 268.0
342.567352 76.0
342.641022 164.0
342.696289 76.0
342.747894 100.0
342.814209 124.0
342.939545 116.0
343.142303 172.0
343.293488 112.0
343.544281 112.0
343.607025 52.0
343.824738 124.0
344.160675 164.0
344.193909 140.0
344.223022 180.0
344.463501 172.0
344.515228 84.0
344.5448 140.0
344.60022 116.0
344.696289 184.0
345.106598 60.0
345.228607 124.0
345.317383 140.0
345.343262 72.0
345.376556 56.0
345.475342 108.0
345.528229 136.0
345.702148 120.0
345.831696 180.0
345.905731 128.0
346.079742 112.0
346.235748 252.0
346.290833 116.0
346.62796 140.0
346.739136 172.0
346.95224 144.0
347.135834 148.0
347.241821 144.0
347.303131 160.0
347.365784 96.0
347.506775 172.0
347.532745 164.0
347.681183 100.0
347.9039 100.0
348.100677 132.0
348.216278 1676.0
348.382751 196.0
348.520447 84.0
348.698822 160.0
348.858673 120.0
349.219025 336.0
349.550476 120.0
349.610016 144.0
349.639801 164.0
349.844513 48.0
350.031799 148.0
350.13324 188.0
350.230865 1840.0
350.369629 32.0
350.451599 68.0
350.503784 104.0
350.555939 88.0
350.723663 60.0
350.764679 148.0
350.813141 124.0
350.906342 112.0
351.177887 156.0
351.193085 108.0
351.233093 704.0
351.338989 68.0
351.365082 56.0
351.391205 80.0
351.429718 92.0
351.473297 112.0
351.861481 112.0
352.018311 188.0
352.109344 96.0
352.245483 4528.0
352.360657 164.0
352.44754 84.0
352.503967 92.0
352.608582 52.0
352.685364 96.0
352.710815 116.0
352.758118 112.0
352.821655 40.0
352.87027 60.0
352.900879 160.0
352.964447 64.0
353.128296 104.0
353.249542 508.0
353.322815 72.0
353.375214 72.0
353.483734 76.0
353.551086 60.0
353.6409 128.0
353.730743 36.0
353.830658 152.0
353.93042 144.0
354.037781 120.0
354.123932 36.0
354.219269 284.0
354.254578 216.0
354.34494 112.0
354.539795 88.0
354.600891 224.0
354.877167 92.0
354.907166 44.0
354.97467 80.0
355.079681 96.0
355.260986 240.0
355.383545 152.0
355.450409 200.0
355.597443 92.0
355.845215 252.0
355.920319 132.0
355.946594 132.0
356.021698 196.0
356.284637 80.0
356.333496 88.0
356.517609 184.0
356.610321 120.0
356.664215 48.0
356.705566 184.0
356.733459 200.0
356.810822 148.0
356.920624 196.0
357.156799 32.0
357.280945 116.0
357.393799 64.0
357.868073 136.0
357.9216 208.0
358.003662 252.0
358.028137 136.0
358.199493 56.0
358.225891 148.0
358.433105 200.0
358.500946 92.0
358.555908 116.0
358.614014 112.0
358.787415 112.0
358.828888 72.0
358.994781 56.0
359.134338 96.0
359.232422 76.0
359.647522 116.0
359.698181 132.0
359.741882 44.0
359.798523 68.0
359.874023 140.0
359.923126 128.0
359.960876 56.0
360.025085 120.0
360.064972 148.0
360.20639 156.0
360.342377 104.0
360.470856 140.0
360.55777 164.0
360.697632 212.0
360.752502 132.0
360.802551 128.0
360.890442 140.0
360.920685 100.0
361.080627 208.0
361.109802 148.0
361.20813 116.0
361.34433 264.0
361.442719 68.0
361.537323 116.0
361.599182 140.0
361.718872 216.0
361.779572 60.0
361.886627 72.0
361.930054 316.0
362.003693 188.0
362.063568 128.0
362.231903 15732.0
362.337891 172.0
362.406189 252.0
362.442383 72.0
362.506805 72.0
362.59079 176.0
362.673584 92.0
362.725525 68.0
362.743896 116.0
362.789886 76.0
362.863129 148.0
362.912415 64.0
362.966461 212.0
363.098236 88.0
363.234467 3820.0
363.314453 52.0
363.348602 68.0
363.394135 60.0
363.432068 92.0
363.473816 92.0
363.499298 56.0
363.557922 48.0
363.62561 112.0
363.696564 180.0
363.764984 88.0
363.826813 96.0
363.92691 88.0
363.986267 52.0
364.028046 68.0
364.06601 40.0
364.128601 92.0
364.239594 1724.0
364.331909 168.0
364.423096 132.0
364.469238 112.0
364.560974 124.0
364.765137 148.0
364.795563 56.0
364.936218 240.0
364.985657 164.0
365.099762 132.0
365.150452 96.0
365.209015 148.0
365.24884 276.0
365.335571 140.0
365.41452 136.0
365.50766 280.0
365.548676 128.0
365.594635 88.0
365.66687 224.0
365.713379 168.0
365.799866 92.0
365.89505 32.0
365.952148 112.0
365.98584 104.0
366.056152 204.0
366.124786 264.0
366.226349 23244.0
366.34906 148.0
366.417633 96.0
366.4487 252.0
366.47821 76.0
366.551727 40.0
366.616577 128.0
366.696106 84.0
366.752197 48.0
366.830322 152.0
366.922363 144.0
366.982208 144.0
367.032867 96.0
367.067657 208.0
367.104492 108.0
367.22934 4308.0
367.315094 52.0
367.343231 192.0
367.43512 100.0
367.478058 84.0
367.506531 140.0
367.556915 256.0
367.654938 76.0
367.72464 84.0
367.749207 72.0
367.804993 92.0
367.831696 60.0
367.92334 164.0
367.955688 92.0
368.014954 84.0
368.129517 136.0
368.15625 40.0
368.237976 712.0
368.368835 128.0
368.465668 124.0
368.500061 60.0
368.584106 208.0
368.775208 56.0
368.82782 68.0
368.901337 44.0
368.991028 156.0
369.058105 72.0
369.234924 176.0
369.341095 88.0
369.425262 48.0
369.471161 192.0
369.52475 140.0
369.624817 104.0
369.681641 52.0
369.758179 108.0
369.800262 104.0
369.861511 80.0
369.914459 192.0
370.041443 84.0
370.156311 184.0
370.202271 76.0
370.246094 160.0
370.366974 80.0
370.622955 88.0
370.803772 52.0
370.849762 40.0
370.926422 192.0
371.321381 204.0
371.417267 56.0
371.482483 120.0
371.509338 88.0
371.735718 136.0
371.870056 168.0
372.012085 36.0
372.476746 136.0
372.626556 120.0
372.680359 140.0
372.764893 92.0
372.91864 56.0
373.345398 132.0
373.431427 140.0
373.560791 160.0
373.680054 136.0
373.757019 248.0
373.960999 88.0
374.099579 96.0
374.307495 56.0
374.469238 124.0
374.735046 84.0
375.016357 116.0
375.062622 132.0
375.220673 156.0
375.344055 132.0
375.398041 140.0
375.571625 104.0
375.678253 124.0
375.934296 116.0
375.992188 80.0
376.042358 36.0
376.189026 124.0
376.718109 156.0
377.203674 92.0
377.247559 96.0
377.336487 112.0
377.498871 96.0
377.52594 108.0
377.696594 208.0
377.771515 204.0
377.951477 124.0
377.990173 204.0
378.02887 116.0
378.106262 160.0
378.144989 108.0
378.236877 288.0
378.35788 128.0
378.489532 52.0
378.536011 96.0
378.613464 92.0
378.694794 60.0
378.73526 156.0
378.795502 216.0
378.911713 128.0
379.008606 68.0
379.073151 344.0
379.245728 128.0
379.454346 252.0
379.590057 76.0
379.687012 208.0
379.760712 72.0
379.915863 76.0
379.943024 128.0
380.012848 124.0
380.063293 84.0
380.108459 164.0
380.14093 100.0
380.242706 18764.0
380.338531 96.0
380.4729 68.0
380.525208 120.0
380.578369 116.0
380.592316 180.0
380.669861 64.0
380.73877 84.0
380.770599 252.0
380.868225 220.0
380.925934 172.0
380.991272 68.0
381.033112 156.0
381.065094 284.0
381.111725 224.0
381.177917 112.0
381.245697 5524.0
381.327057 68.0
381.402191 140.0
381.500549 88.0
381.683105 88.0
381.756989 96.0
381.810486 80.0
381.889252 132.0
382.045013 188.0
382.097748 80.0
382.18103 56.0
382.246613 748.0
382.393097 192.0
382.475677 196.0
382.504059 84.0
382.535187 68.0
382.609161 48.0
382.653931 104.0
382.694824 56.0
382.733765 80.0
382.792175 192.0
382.88443 116.0
382.920685 180.0
383.102051 128.0
383.205048 120.0
383.250732 180.0
383.274414 80.0
383.281403 224.0
383.341431 128.0
383.411591 204.0
383.462677 184.0
383.522736 116.0
383.661072 236.0
383.702301 132.0
383.818359 116.0
383.902832 96.0
383.934021 120.0
383.983612 56.0
384.043243 152.0
384.086151 52.0
384.121246 148.0
384.146545 136.0
384.269501 104.0
384.324127 80.0
384.480225 52.0
384.71051 72.0
384.987762 116.0
385.030701 52.0
385.069763 40.0
385.09967 208.0
385.257263 92.0
385.351044 108.0
385.382294 56.0
385.812225 184.0
385.864868 120.0
385.968628 76.0
386.113312 104.0
386.199371 140.0
386.319366 172.0
386.406708 52.0
386.476288 184.0
386.68454 116.0
386.751068 48.0
387.11911 124.0
387.150452 104.0
387.197449 124.0
387.355988 128.0
387.644226 80.0
387.698914 76.0
387.792999 172.0
388.118378 144.0
388.216431 108.0
388.490997 104.0
388.667542 52.0
388.715546 136.0
388.824524 156.0
389.079681 152.0
389.158203 52.0
389.276001 116.0
389.417389 272.0
389.554871 172.0
389.729401 104.0
389.794556 88.0
389.943878 172.0
389.969543 68.0
390.097198 160.0
390.132568 44.0
390.215149 168.0
390.432678 136.0
390.552521 156.0
390.673523 168.0
390.970398 120.0
391.273499 180.0
391.395569 52.0
391.490082 100.0
391.533386 116.0
391.596405 140.0
391.718536 200.0
391.7677 100.0
391.945404 96.0
391.980194 96.0
392.027893 116.0
392.195343 208.0
392.270233 224.0
392.33725 184.0
392.409546 180.0
392.439758 104.0
392.471313 124.0
392.546234 180.0
392.593536 92.0
392.632996 112.0
392.775391 76.0
392.865723 68.0
392.893341 204.0
392.941528 224.0
393.00705 112.0
393.193237 136.0
393.220856 68.0
393.270721 88.0
393.301117 108.0
393.33139 184.0
393.398865 84.0
393.433899 264.0
393.454895 136.0
393.493256 52.0
393.54007 248.0
393.674896 116.0
393.783508 168.0
393.795074 84.0
393.811493 104.0
393.839783 96.0
393.939514 64.0
393.991394 60.0
394.025848 80.0
394.0448 80.0
394.092255 128.0
394.148926 228.0
394.176575 88.0
394.252014 656.0
394.312927 108.0
394.362335 112.0
394.415649 88.0
394.448853 140.0
394.480499 232.0
394.547852 100.0
394.563416 204.0
394.604584 128.0
394.621277 160.0
394.636108 208.0
394.672699 56.0
394.695496 164.0
394.734772 120.0
394.811005 184.0
394.841278 212.0
394.879456 184.0
394.915894 104.0
394.970734 300.0
395.026215 164.0
395.09433 268.0
395.143066 252.0
395.220215 272.0
395.23645 224.0
395.254639 224.0
395.332367 212.0
395.381256 252.0
395.4086 236.0
395.448242 100.0
395.501404 128.0
395.548492 168.0
395.585815 116.0
395.613281 232.0
395.670166 296.0
395.694183 188.0
395.717316 228.0
395.837555 392.0
395.92984 316.0
395.976318 212.0
396.042938 412.0
396.119263 232.0
396.148438 236.0
396.196106 588.0
396.214081 620.0
396.275055 215168.0
396.377899 68.0
396.409637 268.0
396.469971 152.0
396.525818 60.0
396.564423 172.0
396.591583 220.0
396.627716 580.0
396.659607 328.0
396.714203 284.0
396.750122 224.0
396.782593 304.0
396.838562 172.0
396.868591 276.0
396.882019 184.0
396.92926 2200.0
396.97998 376.0
397.067078 328.0
397.119202 416.0
397.163757 428.0
397.276764 61300.0
397.35733 136.0
397.464233 52.0
397.50235 76.0
397.536438 176.0
397.568268 224.0
397.609924 308.0
397.65155 140.0
397.69574 176.0
397.731323 84.0
397.795593 240.0
397.83374 160.0
397.889313 136.0
397.934753 184.0
398.011658 176.0
398.059967 40.0
398.095459 172.0
398.125275 152.0
398.171753 288.0
398.280853 9412.0
398.386627 96.0
398.43927 196.0
398.510162 144.0
398.526978 124.0
398.537445 120.0
398.587402 320.0
398.625427 148.0
398.671112 64.0
398.706329 96.0
398.735596 120.0
398.766602 72.0
398.865875 180.0
398.900482 124.0
398.934387 152.0
398.971283 200.0
399.036041 72.0
399.08609 132.0
399.118042 60.0
399.207977 172.0
399.278229 876.0
399.346222 288.0
399.391357 124.0
399.4375 152.0
399.515381 132.0
399.557098 104.0
399.619781 312.0
399.683929 128.0
399.739288 372.0
399.822327 232.0
399.877197 264.0
399.932068 140.0
399.981079 312.0
400.030426 168.0
400.090942 112.0
400.115356 68.0
400.21637 136.0
400.249847 128.0
400.286072 88.0
400.403351 136.0
400.466339 100.0
400.50824 136.0
400.521454 92.0
400.534882 104.0
400.551544 144.0
400.566437 164.0
400.61087 56.0
400.659851 120.0
400.666534 72.0
400.708466 104.0
400.789124 120.0
400.823486 96.0
400.903473 148.0
400.954834 100.0
400.970428 96.0
401.024506 100.0
401.064667 108.0
401.118408 88.0
401.189819 88.0
401.307861 116.0
401.358673 68.0
401.399261 60.0
401.43338 88.0
401.499084 76.0
401.608887 84.0
401.667664 144.0
401.736542 48.0
401.764465 56.0
401.796387 40.0
401.924042 56.0
401.975922 40.0
402.029449 108.0
402.085571 76.0
402.159515 80.0
402.187469 48.0
402.263306 64.0
402.29126 56.0
402.351135 44.0
402.381287 80.0
402.462921 108.0
402.494873 100.0
402.526825 52.0
402.570038 88.0
402.614685 92.0
402.670593 52.0
402.762451 68.0
402.882324 132.0
402.990173 64.0
403.02829 64.0
403.060852 88.0
403.116425 128.0
403.194 52.0
403.349884 68.0
403.481812 80.0
403.741699 76.0
403.782318 52.0
403.910706 96.0
403.993713 32.0
404.137756 80.0
404.165771 36.0
404.197754 156.0
404.281128 116.0
404.646088 48.0
404.870331 44.0
404.930389 48.0
404.974457 56.0
405.176239 68.0
405.63562 76.0
405.77774 116.0
405.85614 72.0
406.032593 152.0
406.148895 64.0
406.217102 56.0
406.333435 56.0
406.381592 60.0
406.55014 76.0
406.638428 48.0
406.94754 88.0
407.196533 36.0
407.333099 60.0
407.630402 28.0
407.74295 100.0
407.959991 100.0
408.05246 40.0
408.092682 52.0
408.77652 96.0
408.86908 92.0
409.086426 88.0
409.128784 92.0
409.787201 52.0
409.831543 52.0
409.98468 96.0
410.137817 148.0
410.315216 76.0
410.519623 144.0
410.645874 28.0
410.722504 72.0
410.774963 140.0
410.818756 84.0
410.903656 40.0
411.004944 28.0
411.134491 112.0
411.319733 96.0
411.412598 88.0
411.457001 80.0
411.654144 92.0
411.731567 88.0
411.864868 52.0
412.098236 120.0
412.163849 80.0
412.457123 116.0
412.503357 52.0
412.656982 68.0
412.685272 96.0
412.713593 116.0
413.011383 132.0
413.053314 92.0
413.178711 60.0
413.235352 52.0
413.604401 84.0
413.684601 80.0
414.008545 48.0
414.054382 84.0
414.478455 72.0
414.851349 104.0
415.116547 128.0
415.171661 144.0
415.20816 32.0
415.390686 140.0
415.561096 28.0
415.865448 96.0
415.991302 44.0
416.121216 52.0
416.202423 108.0
416.308014 72.0
416.580139 96.0
416.836121 108.0
417.173462 124.0
417.563843 92.0
417.624847 44.0
417.706207 76.0
417.970673 76.0
418.137512 48.0
419.489105 108.0
420.06485 76.0
420.411682 104.0
421.326324 164.0
422.33197 68.0
422.683807 84.0
422.843414 56.0
423.355194 100.0
425.865265 96.0
425.918671 56.0
426.156952 116.0
428.592865 64.0
429.30603 80.0
430.073425 32.0
430.350037 120.0
430.461517 72.0
430.498688 76.0
431.490417 60.0
431.755066 48.0
431.817108 92.0
433.075378 56.0
433.958099 56.0
436.233246 48.0
436.357971 68.0
439.761475 40.0
442.106201 92.0
442.27359 80.0
442.587585 100.0
442.84726 172.0
448.941498 80.0
451.323212 52.0
451.428925 36.0
452.245483 52.0
452.351318 36.0
454.135254 96.0
456.675293 104.0
458.058716 56.0
458.220612 56.0
458.335663 104.0
459.427155 124.0
460.011841 68.0
461.028412 40.0
461.122437 80.0
462.264313 108.0
462.730896 148.0
463.077759 96.0
463.171997 68.0
464.367889 56.0
465.226135 108.0
468.619537 136.0
469.938934 64.0
470.072723 44.0
470.720245 104.0
471.739929 80.0
474.276642 100.0
475.126617 48.0
475.339233 100.0
476.133698 48.0
479.823792 96.0
480.037445 104.0
480.364563 64.0
481.682922 60.0
484.500244 80.0
484.58786 112.0
485.096252 112.0
485.254089 164.0
485.85495 128.0
486.258667 80.0
488.662445 88.0
488.90448 60.0
490.556244 80.0
490.975128 48.0
491.125092 104.0
491.248627 136.0
491.328033 84.0
492.502289 60.0
493.593933 108.0
494.374359 116.0
494.642517 52.0
497.0802 72.0
497.857117 108.0
498.803497 84.0
499.888763 32.0
503.031036 100.0
503.307861 108.0
504.330933 148.0
504.912201 76.0
508.590759 36.0
508.972382 44.0
510.203491 52.0
511.922333 36.0
514.068176 76.0
514.266785 76.0
515.757385 88.0
516.164307 52.0
516.79303 88.0
517.503662 84.0
523.001465 36.0
526.092224 56.0
526.644714 68.0
528.363586 112.0
530.484009 104.0
530.915039 52.0
531.442566 108.0
532.016296 104.0
532.085144 100.0
534.176208 80.0
534.502869 48.0
535.230164 60.0
536.700134 60.0
536.856934 68.0
538.809448 52.0
539.271606 64.0
539.627563 108.0
542.192078 72.0
542.576843 60.0
543.513733 100.0
544.10321 88.0
544.888123 48.0
545.264526 92.0
545.4505 96.0
545.483032 100.0
549.637512 116.0
550.267639 112.0
550.328369 48.0
552.436218 104.0
553.489319 108.0
553.686035 64.0
553.821838 40.0
554.295044 124.0
554.927856 100.0
555.120056 64.0
555.678284 112.0
557.998535 48.0
558.807495 64.0
558.991028 68.0
559.739502 60.0
560.323547 56.0
562.417419 72.0
562.596802 140.0
565.698059 84.0
565.745422 80.0
565.925354 72.0
565.991638 40.0
569.07373 40.0
569.786194 96.0
571.493103 52.0
573.23114 56.0
573.79364 68.0
574.480408 84.0
574.532837 48.0
575.358521 44.0
578.848999 104.0
579.102844 40.0
580.157104 48.0
581.865051 124.0
582.191589 64.0
582.45575 148.0
586.46814 112.0
586.84491 56.0
587.983398 48.0
592.509583 80.0
592.785767 72.0
594.453979 96.0
596.177979 68.0
599.004944 52.0
601.184387 68.0
601.506531 48.0
603.421631 72.0
604.062317 52.0
604.341187 96.0
604.576111 52.0
606.005981 136.0
606.799988 84.0
606.839233 56.0
609.583191 64.0
609.907593 112.0
610.099304 84.0
610.718933 72.0
610.964844 100.0
617.357544 80.0
617.397095 56.0
618.149109 36.0
622.302979 36.0
625.002075 116.0
626.271545 44.0
628.026123 48.0
629.213806 64.0
633.129211 100.0
633.26947 128.0
638.826355 96.0
639.953674 84.0
642.771423 76.0
645.645996 84.0
646.313721 116.0
648.27771 100.0
652.491638 232.0
652.822144 104.0
652.928955 52.0
654.450562 76.0
654.834167 60.0
656.565369 56.0
657.749146 136.0
659.404114 40.0
666.013916 92.0
666.065247 104.0
667.499207 76.0
668.857483 128.0
670.072876 44.0
670.614014 60.0
670.825317 128.0
671.108887 112.0
671.578186 88.0
674.893799 56.0
677.269226 56.0
679.363525 104.0
681.476624 116.0
682.334229 52.0
683.494202 120.0
685.040527 48.0
686.015076 56.0
686.0672 72.0
687.2146 36.0
688.561462 92.0
691.735413 32.0
693.055237 76.0
695.467651 92.0
699.51532 80.0
700.015503 88.0
702.112976 72.0
704.081543 88.0
704.467163 36.0
704.678528 52.0
704.969116 72.0
708.932983 56.0
712.121582 52.0
713.391602 52.0
714.65741 92.0
715.375916 60.0
715.700684 80.0
720.201904 48.0
721.944336 96.0
724.486816 112.0
725.628418 88.0
730.908447 52.0
731.479004 44.0
732.86853 60.0
733.752441 88.0
734.507446 88.0
736.618164 112.0
739.857544 60.0
740.05249 112.0
741.921692 132.0
743.044373 96.0
743.142029 44.0
743.283142 64.0
745.982544 96.0
746.656799 104.0
750.866821 52.0
751.996277 44.0
753.345032 104.0
756.692139 84.0
760.584534 84.0
760.765686 96.0
761.375183 60.0
763.513123 68.0
765.395203 48.0
766.766968 48.0
767.676636 112.0
769.320923 108.0
771.066467 60.0
771.162659 108.0
773.826843 104.0
773.959717 64.0
776.497925 80.0
776.558899 60.0
777.50769 200.0
777.552063 52.0
781.252869 68.0
783.546631 148.0
786.770264 76.0
788.060486 56.0
788.809387 48.0
790.75592 72.0
790.923889 52.0
792.239868 44.0
798.72937 112.0
805.420471 72.0
806.138 56.0
806.364075 120.0
806.720215 48.0
809.696594 40.0
813.50708 76.0
813.700073 140.0
813.893127 76.0
814.978088 72.0
821.012268 56.0
821.639771 144.0
823.934875 84.0
828.145203 116.0
829.939026 40.0
832.716614 84.0
836.5578 56.0
838.078308 96.0
838.879456 80.0
839.040894 52.0
841.492981 140.0
842.873474 128.0
844.636841 44.0
848.105408 132.0
851.650757 136.0
852.754761 56.0
855.774048 100.0
858.273743 80.0
859.511597 100.0
861.559814 152.0
862.781311 64.0
867.300659 52.0
867.916199 84.0
869.999084 124.0
870.968079 156.0
871.126648 28.0
871.571472 96.0
873.72522 92.0
874.760986 192.0
875.426331 72.0
877.070129 144.0
877.140869 48.0
880.580994 188.0
880.846802 140.0
885.045959 48.0
885.087402 52.0
885.958069 104.0
891.803284 180.0
891.969727 52.0
892.023193 40.0
894.420532 64.0
899.529236 48.0
899.827698 32.0
901.3927 136.0
902.666016 188.0
904.484863 56.0
906.796936 104.0
907.402405 180.0
908.415955 104.0
910.859192 76.0
918.256897 56.0
918.498169 60.0
920.175903 188.0
921.963928 108.0
924.455627 76.0
925.48468 52.0
925.969177 72.0
933.817078 48.0
934.297668 56.0
934.466431 56.0
934.918335 96.0
937.189758 48.0
938.213684 96.0
942.681763 160.0
944.815735 72.0
945.348083 192.0
947.491211 216.0
949.054199 100.0
949.692017 140.0
952.988708 56.0
953.658569 148.0
957.183838 132.0
957.522583 256.0
957.731995 88.0
959.013611 84.0
959.284851 224.0
962.771118 76.0
966.102783 144.0
966.913391 104.0
967.21051 164.0
967.464355 200.0
969.396851 168.0
971.982788 164.0
974.478943 192.0
977.096558 152.0
977.793518 88.0
980.44043 156.0
981.176025 168.0
983.477966 48.0
984.096008 68.0
985.313965 40.0
985.438904 124.0
985.607605 60.0
985.763855 44.0
986.488892 176.0
988.984802 184.0
991.822388 100.0
991.872559 80.0
994.902588 100.0
995.053223 152.0
996.856018 40.0
1001.026855 108.0
1002.343445 92.0
1006.614136 112.0
1007.289978 60.0
1009.843689 36.0
1010.666138 236.0
1011.03949 192.0
1011.305298 96.0
1012.425964 144.0
1013.02771 88.0
1013.838745 212.0
1014.219055 168.0
1014.681824 144.0
1014.745239 56.0
1015.258911 252.0
1019.531555 40.0
1019.582397 128.0
1021.152832 116.0
1021.878052 164.0
1022.126892 188.0
1027.669922 76.0
1028.295288 176.0
1035.123291 192.0
1035.744507 196.0
1037.628662 232.0
1038.064697 120.0
1038.481567 64.0
1038.789429 160.0
1038.872803 200.0
1040.323242 76.0
1040.515869 188.0
1040.727661 176.0
1043.774414 140.0
1043.869995 88.0
1045.278809 152.0
1045.870972 148.0
1052.472778 100.0
1053.247803 88.0
1054.359131 220.0
1055.63269 92.0
1059.950562 176.0
1060.780151 176.0
1061.272827 232.0
1061.694336 132.0
1065.920654 140.0
1068.163696 80.0
1068.21582 192.0
1068.339355 240.0
1070.025024 180.0
1070.103149 88.0
1070.897705 32.0
1072.435425 192.0
1073.63501 180.0
1075.905884 76.0
1077.179321 136.0
1079.493164 76.0
1079.937866 232.0
1080.160278 176.0
1080.323853 116.0
1082.621338 188.0
1086.797119 132.0
1086.888916 60.0
1087.827515 148.0
1089.46936 132.0
1091.618652 36.0
1092.184326 64.0
1092.447388 164.0
1092.907959 124.0
1094.092773 128.0
1094.296875 112.0
1095.93689 136.0
1096.108276 120.0
1096.213745 96.0
1096.602539 188.0
1097.485962 92.0
1097.703613 208.0
1097.990479 152.0
1098.237793 52.0
1099.042603 208.0
1099.616821 40.0
1100.125122 152.0
1100.818359 184.0
1102.635132 220.0
1103.395386 184.0
1105.96875 132.0
1106.107788 56.0
1106.332886 48.0
1106.682129 292.0
1107.12085 176.0
1110.209229 108.0
1112.060303 176.0
1113.45459 88.0
1114.364746 172.0
1115.880127 148.0
1116.338989 156.0
1117.383301 200.0
1117.715942 156.0
1119.240356 48.0
1121.625488 176.0
1123.179199 124.0
1123.572876 228.0
1123.89978 164.0
1124.373535 164.0
1124.453613 236.0
1127.713135 120.0
1127.906982 88.0
1128.18103 100.0
1128.715942 132.0
1129.485107 124.0
1129.531982 64.0
1129.953369 92.0
1130.047119 120.0
1132.450439 64.0
1133.106934 152.0
1133.756958 56.0
1136.700928 100.0
1136.747925 200.0
1140.374634 140.0
1140.744385 188.0
1142.183472 72.0
1142.391968 136.0
1143.024414 44.0
1143.919678 148.0
1148.104004 72.0
1148.373779 180.0
1148.5896 44.0
1148.785278 144.0
1148.866211 196.0
1149.149536 68.0
1150.526367 160.0
1151.748779 116.0
1152.910889 184.0
1153.722046 148.0
1155.068726 180.0
1156.048828 72.0
1156.251831 196.0
1157.531372 104.0
1157.700684 196.0
1159.035278 172.0
1159.611328 48.0
1162.466553 128.0
1162.774902 212.0
1163.192749 128.0
1163.253906 112.0
1166.473877 104.0
1169.113892 148.0
1170.106812 204.0
1170.433716 168.0
1170.481323 128.0
1171.652832 144.0
1171.802734 208.0
1171.884521 164.0
1172.375122 196.0
1172.647827 192.0
1172.927246 200.0
1174.536621 140.0
1178.67395 140.0
1179.637695 112.0
1182.325806 160.0
1182.763916 148.0
1185.633789 88.0
1188.610107 144.0
1189.289551 184.0
1190.388062 192.0
1191.121582 168.0
1192.889038 224.0
1194.697754 172.0
1197.141357 164.0
1198.098755 112.0
1198.718872 164.0
1199.346069 128.0
1199.497681 40.0
1199.670044 104.0
1201.069946 136.0
1201.787476 180.0
1202.560425 180.0
1203.299072 156.0
1205.129395 208.0
1205.295288 212.0
1205.371338 160.0
1207.002686 80.0
1208.51062 164.0
1208.56604 164.0
1210.268799 172.0
1211.889648 120.0
1212.665771 164.0
1212.880737 200.0
1213.109497 76.0
1214.600464 188.0
1214.773804 120.0
1216.497925 96.0
1218.898071 48.0
1219.085693 136.0
1219.405396 192.0
1219.905884 148.0
1221.964478 172.0
1222.013184 120.0
1222.347168 192.0
1223.245117 224.0
1223.878662 200.0
1225.097534 180.0
1226.045166 128.0
1226.149658 208.0
1226.198486 108.0
1227.788086 96.0
1227.8927 52.0
1228.129883 116.0
1229.064819 144.0
1229.574219 104.0
1230.342041 168.0
1231.012451 220.0
1231.619995 44.0
1232.947632 128.0
1236.003662 196.0
1236.605469 136.0
1237.20752 212.0
1237.872681 152.0
1239.175659 192.0
1239.546997 280.0
1240.02356 140.0
1240.822754 136.0
1242.155151 188.0
1242.351685 40.0
1243.242798 60.0
1244.197388 112.0
1246.09375 176.0
1247.070557 172.0
1247.513428 148.0
1248.33606 88.0
1248.610352 128.0
1249.686646 192.0
1250.798706 112.0
1252.164673 224.0
1252.573242 56.0
1253.03479 184.0
1253.355225 188.0
1253.862671 200.0
1254.17981 172.0
1254.920044 156.0
1255.448975 164.0
1255.561768 176.0
1255.907471 232.0
1257.064453 132.0
1257.473877 244.0
1257.869141 124.0
1258.991821 196.0
1259.210693 148.0
1259.634521 156.0
1260.277466 152.0
1261.054932 156.0
1261.365845 204.0
1262.412354 164.0
1262.511353 164.0
1262.82959 188.0
1262.893311 216.0
1263.275269 184.0
1264.867554 176.0
1265.695923 256.0
1266.19165 72.0
1266.701538 200.0
1268.57251 156.0
1268.976562 72.0
1269.331177 144.0
1269.550903 172.0
1269.685669 80.0
1270.338257 172.0
1270.494385 164.0
1270.62915 156.0
1274.20752 228.0
1274.690674 232.0
1275.138428 168.0
1275.515137 144.0
1275.866577 200.0
1276.411011 44.0
1277.200439 148.0
1277.705566 52.0
1278.801514 180.0
1279.328247 176.0
1279.741211 148.0
1280.125732 228.0
1280.545898 192.0
1281.072998 140.0
1281.47583 160.0
1282.092041 192.0
1282.355713 152.0
1282.526733 108.0
1283.139893 216.0
1284.666138 144.0
1284.912476 164.0
1284.97998 104.0
1285.286865 128.0
1285.615112 136.0
1285.686523 148.0
1286.055054 176.0
1286.457397 212.0
1287.171387 116.0
1288.042725 120.0
1290.730103 176.0
1292.604248 196.0
1293.212646 52.0
1293.89978 48.0
1294.565796 188.0
1296.120239 124.0
1296.643433 188.0
1296.822632 116.0
1297.331543 84.0
1297.833496 192.0
1298.091553 184.0
1298.148926 144.0
1299.095825 140.0
1299.418579 76.0
1299.554932 124.0
1300.365845 164.0
1302.218384 136.0
1302.290161 132.0
1302.713989 184.0
1303.763062 164.0
1303.949951 172.0
1304.28772 88.0
1305.337524 116.0
1306.114258 224.0
1306.747314 164.0
1307.61084 148.0
1307.783691 80.0
1308.719482 160.0
1309.194824 344.0
1310.599365 212.0
1312.127563 192.0
1312.740479 136.0
1313.18042 40.0
1313.310303 140.0
1313.995605 132.0
1314.184937 180.0
1314.572876 160.0
1314.630615 160.0
1314.890503 48.0
1316.428223 68.0
1317.071045 140.0
1317.135986 116.0
1318.075317 128.0
1318.797974 184.0
1319.101562 216.0
1319.202759 248.0
1319.665527 216.0
1319.889648 132.0
1321.394165 160.0
1321.596802 200.0
1321.806641 140.0
1322.334961 180.0
1323.355713 112.0
1323.877075 168.0
1324.108887 180.0
1324.5 108.0
1324.898438 164.0
1325.108521 152.0
1325.456299 236.0
1326.137573 112.0
1327.660156 100.0
1328.204102 64.0
1328.545166 80.0
1329.386841 220.0
1329.648071 72.0
1330.410278 164.0
1331.804565 140.0
1331.993408 168.0
1332.480103 192.0
1332.669067 192.0
1333.410278 196.0
1334.202637 180.0
1334.609863 88.0
1335.315308 156.0
1335.613525 180.0
1336.071777 204.0
1336.231812 160.0
1336.384644 176.0
1338.197021 164.0
1339.376831 180.0
1340.491577 172.0
1341.147583 180.0
1341.286011 152.0
1342.241089 40.0
1342.525513 136.0
1343.072632 164.0
1343.130371 204.0
1343.240356 164.0
1344.845703 188.0
1345.057373 140.0
1346.379028 208.0
1346.510498 100.0
1347.043701 144.0
1348.205444 52.0
1348.410156 52.0
1350.179443 188.0
1350.289185 196.0
1350.340332 148.0
1351.09375 148.0
1351.862061 184.0
1352.93811 148.0
1353.619019 176.0
1356.058716 192.0
1357.319702 184.0
1357.642334 168.0
1358.214478 160.0
1358.676636 160.0
1359.311768 180.0
1359.682007 176.0
1360.574097 144.0
1360.797729 188.0
1361.19519 168.0
1361.260376 144.0
1361.750854 160.0
1361.884644 200.0
1364.184692 156.0
1364.353882 136.0
1365.052368 220.0
1365.596558 140.0
1365.964355 108.0
1366.015869 200.0
1366.332275 128.0
1367.22998 144.0
1368.562378 204.0
1368.621338 140.0
1369.60083 176.0
1370.050171 164.0
1370.912354 92.0
1371.059692 160.0
1371.487183 104.0
1371.922119 44.0
1371.973755 160.0
1372.231812 152.0
1372.576172 212.0
1372.659424 116.0
1373.161011 148.0
1373.212646 180.0
1376.563232 144.0
1377.545654 112.0
1377.604736 40.0
1378.018433 60.0
1378.957031 148.0
1379.215698 200.0
1379.536133 196.0
1379.807129 148.0
1380.738892 116.0
1381.130859 172.0
1381.574707 44.0
1381.730103 188.0
1381.974243 188.0
1382.418213 204.0
1382.729126 196.0
1383.032593 164.0
1384.313477 180.0
1384.89856 192.0
1385.246704 112.0
1385.683838 140.0
1386.106201 128.0
1386.536011 52.0
1388.026123 104.0
1388.98291 284.0
1389.286987 104.0
1390.481689 188.0
1390.600464 152.0
1390.927124 120.0
1391.045898 56.0
1391.201782 140.0
1391.424438 144.0
1391.580444 84.0
1391.699219 160.0
1393.206909 132.0
1393.481812 220.0
1394.998047 48.0
1395.696045 184.0
1396.604248 144.0
1397.102661 156.0
1397.244019 132.0
1397.430054 208.0
1398.471924 208.0
1399.291504 152.0
1400.981445 140.0
1401.480591 124.0
1402.881836 160.0
1403.008545 124.0
1403.448486 140.0
1403.916504 100.0
1405.014771 224.0
1405.380371 148.0
1405.596802 168.0
1406.081909 180.0
1407.037354 36.0
1407.104614 164.0
1407.313599 248.0
1408.030518 236.0
1408.097778 76.0
1409.186157 92.0
1409.479858 188.0
1409.674194 108.0
1410.040405 220.0
1410.339355 148.0
1410.907471 120.0
1411.229004 188.0
1411.438354 176.0
1411.654297 124.0
1412.642578 228.0
1413.374756 156.0
1414.715454 180.0
1414.805298 160.0
1416.415405 160.0
1416.722534 152.0
1417.254517 164.0
1417.456909 120.0
1417.651733 68.0
1417.704224 68.0
1417.831543 164.0
1417.981445 188.0
1418.678589 192.0
1420.223389 112.0
1420.440918 184.0
1421.626465 140.0
1422.189331 160.0
1422.534668 64.0
1423.736084 164.0
1426.598877 72.0
1427.102661 160.0
1427.170288 204.0
1427.734375 100.0
1429.013184 156.0
1429.291504 144.0
1429.355347 204.0
1429.946289 232.0
1430.074219 176.0
1430.909912 116.0
1431.437012 160.0
1431.677979 112.0
1431.873779 136.0
1432.566772 188.0
1432.87561 172.0
1433.131836 184.0
1433.80249 148.0
1434.759888 76.0
1435.106689 192.0
1435.528931 176.0
1435.672241 144.0
1436.135254 196.0
1436.207764 152.0
1436.388794 180.0
1436.833984 172.0
1437.656372 172.0
1438.938232 180.0
1440.336792 144.0
1440.450195 312.0
1440.503052 160.0
1441.296387 164.0
1441.432373 148.0
1441.961426 172.0
1442.430054 152.0
1442.558594 160.0
1442.860962 220.0
1443.03479 188.0
1443.170898 72.0
1444.025513 124.0
1445.304077 96.0
1445.717773 196.0
1446.772461 156.0
1446.833008 180.0
1446.893555 152.0
1446.990845 212.0
1447.234253 192.0
1447.332642 188.0
1447.741577 184.0
1450.241943 180.0
1450.545166 140.0
1451.0 64.0
1451.310913 64.0
1451.621826 100.0
1451.925171 56.0
1452.281616 136.0
1453.192017 40.0
1453.465088 144.0
1453.556152 244.0
1453.890137 132.0
1454.694702 224.0
1456.875 212.0
1457.125 128.0
1457.444092 236.0
1457.504883 100.0
1458.188843 148.0
1458.340942 168.0
1458.668335 172.0
1458.895874 164.0
1459.960327 172.0
1460.880737 136.0
1461.763428 148.0
1462.463623 236.0
1463.217285 232.0
1464.039673 148.0
1464.329102 180.0
1465.753662 200.0
1466.020386 40.0
1466.07373 144.0
1466.223267 180.0
1466.69873 144.0
1467.903442 76.0
1468.139771 140.0
1468.353394 212.0
1468.444946 176.0
1468.51355 172.0
1468.711914 140.0
1469.116211 148.0
1469.192505 156.0
1470.184448 180.0
1470.328247 456.0
1471.44397 184.0
1471.543213 176.0
1472.108276 228.0
1472.383179 172.0
1472.780396 144.0
1473.047729 152.0
1474.079224 156.0
1474.790039 184.0
1475.1875 112.0
1476.036255 184.0
1476.586792 144.0
1476.946289 196.0
1477.282959 44.0
1477.412964 112.0
1477.616577 184.0
1477.703735 68.0
1477.841431 52.0
1477.986816 192.0
1478.935791 172.0
1479.142578 216.0
1479.601807 44.0
1479.655396 132.0
1480.298706 180.0
1481.056885 176.0
1482.596924 188.0
1483.156494 120.0
1484.429199 140.0
1484.770752 164.0
1485.955688 152.0
1486.239624 168.0
1486.300903 156.0
1486.408447 116.0
1486.64624 160.0
1487.060791 132.0
1488.051025 160.0
1488.335083 140.0
1488.450317 124.0
1488.580811 92.0
1488.8573 172.0
1489.556274 44.0
1489.941162 208.0
1490.000854 156.0
1490.293823 144.0
1492.338501 164.0
1493.438232 120.0
1493.553589 112.0
1494.099854 208.0
1494.21521 100.0
1494.345947 120.0
1494.492188 136.0
1494.615356 220.0
1495.379883 116.0
1495.554199 180.0
1496.478027 100.0
1498.365112 184.0
1498.619385 64.0
1498.685547 300.0
1499.205078 220.0
1499.598145 208.0
1499.66748 164.0
1499.852417 92.0
1500.245361 144.0
1500.507812 40.0
1500.561768 212.0
1501.525635 48.0
1501.872803 156.0
1502.337402 84.0
1502.388794 184.0
1502.605591 76.0
1503.300171 148.0
1503.469849 164.0
1504.542847 48.0
1505.260986 176.0
1505.369019 172.0
