>compound Dienogest
>formula C20H25NO2
>ionization [M+H]+
>parentmass 312.19754
#inchi InChI=1S/C20H25NO2/c1-19-8-6-16-15-5-3-14(22)12-13(15)2-4-17(16)18(19)7-9-20(19,23)10-11-21/h12,17-18,23H,2-10H2,1H3/t17-,18+,19-,20-/m1/s1
#inchikey AZFLJNIPTRTECV
#Ion_Source LC-ESI
#Instrument qTof
#Compound_Source Commercial
#PI Dorrestein
#Data_Collector Garg_Neha
#Scan -1
#Precursor_MZ 312.196
#ExactMass 311.189
#Charge 1
#CAS_Number 65928-58-7
#Pubmed_ID N/A
#Smiles C1(CCC2=C3CC[C@]4([C@](CC[C@@]([C@](CCC(=C1)2)3[H])4[H])(O)CC#N)C)=O
#INCHI_AUX N/A
#Library_Class 1
#SpectrumID CCMSLIB00000078068
#IonMode Positive
#UpdateWorkflowName UPDATE-SINGLE-ANNOTATED-GOLD
#LibraryQualityString Gold
#TaskID 77f51c88eb8b467eb4a01dd2d0cb90d2
##Scan# 1272
#SpectrumFile Plate1_61_88_GG4_01_16491.mzXML
#LibraryName FDALibrary_2_04302014.mgf
#MQScore -1
#Organism FDALibrary_2_04302014
#TIC_Query 0
#RT_Query -1
#MZErrorPPM -1
#SharedPeaks 0
#MassDiff 0
#LibMZ -1
#SpecMZ 312.196
#SpecCharge 0
#internalFilename spec-00000.mgf

>collision 10
44.895844 140.0
45.130871 208.0
45.766888 204.0
45.998775 160.0
46.118996 184.0
46.658531 140.0
46.911751 152.0
47.126022 196.0
47.18206 208.0
47.258652 192.0
47.424358 192.0
47.711258 140.0
48.203327 208.0
48.771561 148.0
48.863346 200.0
48.878651 152.0
48.958 184.0
49.114101 152.0
49.144791 140.0
49.350117 204.0
49.639973 156.0
49.649788 176.0
50.037621 180.0
50.298428 200.0
50.340782 196.0
50.94701 176.0
51.791512 164.0
51.819492 128.0
52.298378 228.0
52.786022 152.0
52.939415 200.0
53.274471 228.0
53.517357 196.0
53.673267 176.0
53.771011 180.0
53.801666 260.0
54.275719 184.0
54.369606 196.0
54.382812 220.0
54.617912 252.0
55.392891 176.0
55.67025 224.0
55.984039 152.0
56.617252 140.0
57.671963 156.0
57.818672 144.0
58.202206 156.0
58.380001 188.0
58.634243 140.0
58.651009 140.0
58.83712 204.0
58.895149 152.0
59.104599 184.0
59.342014 140.0
59.58144 188.0
59.595268 176.0
59.816734 196.0
60.169567 184.0
60.324257 156.0
60.528484 156.0
60.550167 192.0
60.595089 152.0
61.387833 156.0
61.475193 168.0
62.162189 144.0
62.196716 156.0
62.345928 176.0
62.871937 144.0
63.172153 172.0
64.536758 196.0
64.698357 140.0
64.882591 160.0
65.578651 156.0
65.609276 140.0
65.794807 236.0
66.197418 188.0
67.357079 184.0
67.528709 192.0
67.558151 140.0
67.957916 168.0
68.544937 172.0
69.074921 156.0
69.221115 120.0
69.63517 156.0
69.723228 156.0
70.099335 140.0
70.336166 176.0
70.372894 176.0
70.468102 212.0
70.496506 156.0
70.621902 168.0
70.656944 156.0
70.809357 264.0
71.112831 192.0
71.60041 176.0
71.67453 148.0
71.852623 148.0
72.382309 152.0
72.955795 148.0
73.284271 176.0
73.79026 220.0
73.859596 160.0
73.872269 148.0
74.070145 140.0
74.176392 164.0
74.196175 148.0
74.489525 168.0
75.101501 144.0
75.293083 200.0
75.845024 164.0
76.548668 160.0
76.581757 224.0
76.890366 168.0
77.120911 168.0
77.169861 144.0
77.395576 244.0
77.716293 144.0
77.828682 212.0
77.99321 172.0
78.322876 212.0
78.578499 152.0
78.604965 192.0
79.087448 156.0
79.42234 172.0
79.823723 152.0
79.859291 172.0
80.359879 184.0
80.452682 164.0
80.781509 164.0
80.924683 204.0
80.956917 196.0
81.306503 200.0
81.414223 172.0
81.487869 224.0
81.644264 188.0
81.743202 188.0
82.053017 176.0
82.309227 164.0
82.347153 264.0
82.576698 140.0
82.607445 156.0
83.347168 148.0
83.863762 196.0
84.316666 196.0
84.331284 148.0
84.376984 200.0
85.1007 180.0
85.260521 232.0
85.873611 200.0
86.034157 176.0
86.374184 180.0
86.720436 152.0
86.820557 156.0
86.944855 164.0
87.247627 152.0
87.310852 144.0
87.571419 152.0
87.618576 152.0
87.677612 180.0
88.106789 144.0
88.182983 196.0
88.460243 216.0
88.559486 200.0
88.885696 152.0
88.9664 144.0
89.022736 152.0
89.734009 204.0
90.315659 168.0
90.574982 148.0
90.75882 172.0
90.984283 144.0
91.054947 212.0
91.134644 172.0
91.223976 344.0
91.301933 164.0
91.66745 176.0
91.936974 216.0
92.026054 188.0
92.081436 144.0
92.190331 180.0
92.219002 220.0
92.297386 184.0
92.475296 180.0
93.070251 388.0
93.294388 152.0
93.868164 200.0
93.97039 180.0
94.076538 144.0
94.090057 188.0
94.403076 144.0
94.555916 140.0
94.823189 144.0
95.086967 176.0
95.370537 224.0
95.478683 224.0
95.889709 152.0
95.940903 168.0
96.469955 200.0
96.52079 164.0
97.066887 164.0
97.149734 236.0
97.17305 148.0
97.314362 200.0
97.884598 152.0
98.048111 216.0
98.205841 204.0
98.361725 156.0
98.919174 156.0
99.238144 180.0
99.29763 160.0
99.400795 164.0
99.480186 144.0
99.498055 144.0
100.286247 252.0
100.318695 152.0
100.740768 172.0
100.910645 144.0
102.139999 216.0
102.403679 156.0
102.964378 192.0
103.128029 160.0
103.366676 244.0
103.597496 212.0
103.978706 236.0
104.309784 220.0
104.41552 216.0
104.44603 184.0
104.733032 144.0
105.012276 184.0
105.070549 1088.0
105.09388 200.0
105.244469 252.0
105.345001 168.0
105.445122 176.0
105.494179 176.0
105.97924 180.0
106.07415 348.0
107.049149 1424.0
107.086258 560.0
107.350327 252.0
107.406013 200.0
108.084908 212.0
108.112373 164.0
108.224411 224.0
108.332108 156.0
108.390121 148.0
108.423279 184.0
108.846481 212.0
109.066101 152.0
109.100708 208.0
109.287148 172.0
109.441177 248.0
109.805862 216.0
109.989479 192.0
110.292358 168.0
110.321625 144.0
110.449188 192.0
110.495209 160.0
111.279076 168.0
111.489136 200.0
111.806702 156.0
111.943542 176.0
112.097321 168.0
112.472733 152.0
112.521294 176.0
112.643776 148.0
112.924911 140.0
112.986252 196.0
114.868492 192.0
115.056122 200.0
115.43235 140.0
115.883995 192.0
116.053322 156.0
116.377319 144.0
116.696175 200.0
116.908272 164.0
117.068626 840.0
117.250702 148.0
117.449066 204.0
117.602264 208.0
117.69725 192.0
117.800926 140.0
118.205238 192.0
118.701302 160.0
118.722992 216.0
119.046341 152.0
119.085365 1404.0
119.44191 148.0
119.576813 180.0
119.620743 180.0
119.663887 148.0
119.951462 172.0
119.979805 156.0
120.081131 444.0
120.208824 204.0
120.455544 164.0
120.492683 144.0
120.601944 176.0
120.919098 260.0
120.949242 140.0
121.058662 160.0
121.085487 192.0
121.099777 176.0
121.659996 220.0
122.092865 204.0
122.108261 172.0
122.414169 148.0
122.665337 188.0
122.680771 192.0
122.81749 184.0
122.95208 144.0
123.060242 212.0
123.082367 232.0
123.356285 164.0
123.732079 128.0
123.785522 144.0
123.869682 180.0
124.120125 180.0
124.208839 212.0
124.235458 164.0
124.413002 180.0
125.046524 188.0
125.160057 292.0
125.180099 156.0
125.222412 224.0
125.657104 176.0
125.773155 180.0
125.909348 152.0
126.061264 184.0
126.311676 200.0
126.812325 108.0
127.052139 164.0
127.342758 156.0
127.952164 164.0
128.062531 508.0
128.152618 200.0
128.362244 168.0
128.452469 152.0
129.07135 680.0
129.476379 148.0
129.560196 148.0
129.678024 180.0
129.7211 184.0
129.752838 144.0
129.777771 204.0
130.070648 400.0
130.099945 224.0
130.154434 204.0
130.33812 236.0
130.427063 180.0
130.754593 144.0
131.002792 168.0
131.046707 172.0
131.086334 864.0
131.643707 152.0
131.891678 128.0
132.052811 144.0
132.080673 840.0
132.31424 128.0
132.373199 200.0
132.634384 180.0
132.657318 164.0
133.012878 176.0
133.064026 2168.0
133.099854 812.0
133.195633 136.0
133.777145 176.0
133.833633 200.0
133.930359 164.0
134.073608 348.0
134.098831 356.0
134.299164 188.0
134.800156 144.0
134.99411 164.0
135.079758 8036.0
135.113739 184.0
135.230316 184.0
135.506516 164.0
135.684357 304.0
135.709854 160.0
135.753922 144.0
135.943115 232.0
136.041321 180.0
136.085266 548.0
136.240707 220.0
136.955505 196.0
137.091415 324.0
137.711227 172.0
137.968277 164.0
138.605774 228.0
138.633026 180.0
138.886246 172.0
138.902664 204.0
139.099777 156.0
139.753128 192.0
139.811951 184.0
140.030914 220.0
140.550049 152.0
140.646317 176.0
140.691162 144.0
140.934433 164.0
140.965149 148.0
141.06958 304.0
141.298553 152.0
141.533447 168.0
141.760284 168.0
141.888275 208.0
141.978394 140.0
142.073776 168.0
142.09462 144.0
142.156311 172.0
142.251251 152.0
142.346222 160.0
142.57428 236.0
143.084488 1736.0
143.142853 220.0
144.014481 168.0
144.070526 544.0
144.10173 208.0
144.31871 196.0
144.977539 196.0
145.064041 700.0
145.098923 492.0
145.505249 168.0
145.877625 160.0
145.925842 144.0
146.036331 168.0
146.07251 196.0
146.097763 1420.0
146.161423 148.0
146.366043 152.0
146.513458 180.0
146.579453 288.0
147.081436 1200.0
147.111038 260.0
147.185883 372.0
147.514465 148.0
147.717606 220.0
148.091278 680.0
148.11348 348.0
148.148514 128.0
148.189697 168.0
148.995193 200.0
149.095825 708.0
149.116699 172.0
149.510696 168.0
149.909302 220.0
150.099243 148.0
150.590775 168.0
150.612762 144.0
150.840012 156.0
151.118973 184.0
151.295837 240.0
151.342606 196.0
151.432159 144.0
151.611008 148.0
151.912598 164.0
152.524048 204.0
153.12442 164.0
153.325333 240.0
153.590271 212.0
154.388031 140.0
154.449875 156.0
155.059967 168.0
155.086334 412.0
155.170517 172.0
155.304428 144.0
155.574905 208.0
155.614639 144.0
156.002213 144.0
156.088242 460.0
156.263336 152.0
156.337997 140.0
156.380295 168.0
156.968246 212.0
157.065735 984.0
157.099503 668.0
157.132874 236.0
157.71225 188.0
157.972305 176.0
158.068085 304.0
158.095886 280.0
158.167496 168.0
158.379272 132.0
158.472015 160.0
158.711151 180.0
158.891739 140.0
159.080185 5784.0
159.114944 660.0
159.297546 124.0
159.401443 168.0
159.456741 140.0
159.520187 232.0
159.983521 228.0
160.083511 1340.0
160.110596 468.0
160.37291 160.0
160.663803 228.0
160.698227 212.0
160.992493 104.0
161.013763 168.0
161.096664 9952.0
161.173935 112.0
161.318451 100.0
161.641357 208.0
161.810303 196.0
162.101273 2052.0
162.223251 164.0
162.466721 160.0
162.88559 236.0
163.109436 376.0
163.177094 136.0
163.574707 280.0
163.826828 148.0
163.845581 144.0
163.910904 176.0
164.075928 276.0
164.117065 168.0
164.875534 192.0
164.946823 116.0
164.977783 216.0
165.082611 144.0
165.128647 160.0
165.530441 144.0
166.081284 168.0
166.130203 140.0
167.086411 660.0
167.132217 192.0
167.902466 204.0
168.082901 200.0
168.803757 172.0
168.824448 156.0
168.927917 140.0
169.075027 228.0
169.100388 904.0
169.303223 180.0
170.106873 152.0
170.330322 164.0
170.785217 184.0
170.829437 156.0
170.884079 188.0
170.930908 168.0
171.077927 588.0
171.115677 288.0
171.268341 236.0
171.537766 144.0
171.575623 160.0
171.6577 172.0
171.98642 268.0
172.041245 156.0
172.079208 96.0
172.112946 516.0
172.18486 212.0
172.869812 196.0
173.008545 156.0
173.02948 164.0
173.095413 928.0
173.129822 332.0
173.220657 196.0
173.363098 144.0
173.808182 132.0
174.106476 276.0
174.457642 164.0
174.97496 164.0
175.111237 704.0
175.143326 192.0
175.201447 248.0
175.34111 308.0
175.446548 140.0
175.80101 124.0
176.027023 148.0
176.106903 528.0
176.159073 192.0
176.291183 276.0
176.671936 176.0
176.732498 180.0
177.078232 180.0
177.112671 320.0
177.268936 128.0
177.486542 164.0
177.596436 160.0
177.933472 216.0
178.119354 196.0
178.770767 224.0
178.810852 128.0
178.935791 148.0
179.084198 304.0
179.172836 184.0
179.372696 164.0
179.396698 176.0
179.895554 148.0
180.006927 168.0
180.138565 184.0
180.368378 252.0
180.448578 160.0
180.543915 156.0
180.65184 184.0
180.738464 148.0
180.785614 144.0
180.868591 148.0
181.092026 224.0
181.141724 244.0
181.172821 192.0
182.102295 220.0
182.12886 248.0
182.605026 128.0
182.666473 156.0
183.081451 200.0
183.116028 332.0
183.366562 224.0
183.900604 152.0
184.077545 160.0
184.115707 772.0
184.600342 164.0
184.927689 164.0
185.090637 276.0
185.134979 176.0
185.22554 148.0
185.504654 236.0
186.094772 320.0
186.12384 316.0
186.240036 192.0
186.691666 236.0
186.859848 192.0
187.110535 416.0
187.742416 188.0
188.109314 152.0
189.141312 144.0
189.433456 188.0
189.483643 152.0
189.519257 148.0
189.606949 180.0
189.982605 152.0
190.045715 212.0
190.122879 168.0
190.332855 176.0
190.872498 200.0
191.084305 176.0
191.125565 144.0
191.260422 148.0
191.38707 176.0
191.877502 336.0
192.111923 144.0
192.153305 148.0
192.269211 140.0
192.694458 144.0
193.09935 672.0
193.142303 196.0
193.634995 228.0
193.973038 192.0
194.1017 176.0
194.494522 184.0
195.076431 116.0
195.11734 708.0
195.369873 152.0
195.884888 208.0
196.08551 148.0
196.122406 312.0
196.665665 184.0
196.727066 156.0
196.782913 172.0
196.84433 180.0
197.042648 212.0
197.096405 888.0
197.133209 480.0
198.046936 148.0
198.101944 176.0
198.134033 148.0
198.672058 172.0
198.764648 228.0
198.975159 188.0
199.006042 160.0
199.113983 292.0
199.832382 140.0
199.977402 256.0
200.049103 184.0
200.114243 292.0
200.144821 212.0
200.412415 148.0
200.666092 168.0
201.124786 268.0
201.371567 216.0
202.098099 188.0
202.13266 316.0
202.845779 176.0
203.109497 148.0
203.137863 204.0
203.538055 148.0
204.112045 176.0
205.094025 140.0
205.550583 144.0
205.59053 160.0
205.847458 216.0
206.113876 184.0
206.221725 216.0
206.304626 144.0
206.633514 164.0
207.077026 184.0
207.119949 260.0
207.180344 356.0
207.716415 184.0
207.828308 140.0
208.123032 312.0
208.184265 156.0
208.226105 112.0
208.36235 148.0
208.793533 252.0
209.052444 160.0
209.091614 288.0
209.133591 468.0
209.253937 148.0
209.735046 152.0
209.879196 172.0
210.101181 124.0
210.130234 212.0
210.361008 156.0
210.476486 164.0
210.713333 160.0
210.982117 148.0
211.051743 200.0
211.110916 808.0
211.145508 1096.0
211.326294 160.0
211.407318 196.0
212.11647 488.0
212.147522 300.0
212.25029 144.0
212.50264 168.0
212.987457 164.0
213.089142 344.0
213.126663 620.0
213.270676 180.0
213.656082 308.0
213.690994 152.0
213.734634 172.0
214.081039 184.0
214.134384 140.0
214.188812 164.0
214.264557 140.0
215.019791 164.0
215.112915 124.0
215.141098 164.0
216.083466 152.0
216.109802 140.0
216.138718 168.0
216.282471 148.0
216.393707 152.0
216.496201 220.0
217.102066 212.0
217.160294 204.0
217.597198 152.0
217.754379 180.0
217.821945 140.0
218.256912 180.0
218.403961 176.0
218.476334 212.0
218.636398 168.0
219.134048 204.0
219.281387 172.0
219.821091 160.0
220.117813 316.0
220.553528 160.0
220.586044 172.0
220.642227 176.0
220.716141 180.0
220.89064 140.0
221.091827 140.0
221.130569 732.0
221.59227 148.0
221.722656 180.0
222.130005 208.0
222.520615 192.0
222.891891 160.0
223.052383 180.0
223.115997 312.0
223.146225 568.0
223.30513 160.0
223.858688 184.0
224.031433 204.0
224.112091 168.0
224.141296 548.0
224.186371 208.0
224.240021 144.0
224.511337 140.0
224.654495 172.0
224.755951 208.0
225.126892 712.0
225.323242 196.0
225.640045 216.0
226.097717 172.0
226.126892 208.0
226.169556 176.0
226.331223 140.0
226.807571 144.0
226.918488 144.0
227.13562 188.0
227.23941 160.0
227.45549 172.0
227.497513 164.0
227.872925 184.0
228.146423 164.0
229.124527 156.0
229.157654 720.0
229.4832 184.0
229.558578 156.0
229.87941 124.0
230.148956 160.0
230.39267 176.0
230.512497 172.0
230.606186 336.0
231.113235 288.0
231.159042 140.0
231.298859 196.0
231.545975 144.0
231.577438 156.0
231.768295 168.0
232.326172 148.0
232.432358 160.0
232.66304 160.0
232.887756 240.0
232.978882 176.0
233.128937 124.0
233.215912 140.0
233.866821 224.0
234.643631 220.0
234.719864 200.0
234.79306 188.0
234.945572 172.0
235.114655 140.0
235.143661 276.0
235.189697 148.0
235.244644 148.0
235.566116 192.0
236.114182 192.0
236.140106 276.0
236.502045 140.0
236.824524 248.0
237.127914 288.0
237.150436 324.0
237.181 192.0
237.217789 160.0
237.723862 140.0
237.858917 236.0
237.911102 160.0
238.123871 404.0
238.519348 172.0
238.994781 156.0
239.045273 176.0
239.066818 144.0
239.143341 256.0
239.303833 184.0
239.611832 200.0
239.805969 140.0
239.879517 172.0
239.987854 144.0
240.040283 152.0
240.080368 164.0
240.159561 124.0
240.762405 228.0
240.842712 180.0
241.129196 128.0
241.156876 136.0
241.37738 184.0
241.643387 192.0
241.900253 164.0
242.156204 476.0
243.122635 172.0
243.148895 268.0
243.161484 224.0
243.167511 292.0
243.202164 168.0
244.124573 144.0
245.644867 156.0
245.704147 144.0
245.750946 152.0
246.997467 220.0
247.072556 148.0
247.845901 200.0
247.896042 212.0
248.01828 208.0
248.129898 448.0
248.294189 148.0
248.827652 184.0
249.12587 160.0
249.167816 156.0
249.213974 148.0
249.518845 176.0
250.158401 192.0
250.421997 236.0
250.77803 176.0
251.074402 240.0
251.115021 164.0
251.142349 324.0
251.355164 172.0
252.103592 176.0
252.141769 300.0
252.175598 480.0
252.62529 176.0
252.843628 172.0
253.106384 164.0
253.15593 2964.0
253.575241 244.0
253.6418 152.0
254.166153 1896.0
254.257126 216.0
254.463089 172.0
254.496048 184.0
254.914505 152.0
254.949463 216.0
255.137009 160.0
255.169891 388.0
255.365967 160.0
256.241394 164.0
256.700378 176.0
256.742706 160.0
257.019379 140.0
257.287476 160.0
259.036774 164.0
259.152191 152.0
259.796539 224.0
259.960175 140.0
260.251099 160.0
260.930237 140.0
260.984894 140.0
261.210022 144.0
261.251831 164.0
261.409485 144.0
261.570435 172.0
261.746063 284.0
261.989075 144.0
262.806641 208.0
262.927399 204.0
263.318054 180.0
263.398804 144.0
263.925598 156.0
264.084045 160.0
264.143036 172.0
264.692474 220.0
264.780579 196.0
264.841461 236.0
265.081696 204.0
265.157928 148.0
266.03479 160.0
266.151123 544.0
266.184509 284.0
266.379028 212.0
266.970581 180.0
267.087677 148.0
267.126709 184.0
267.165344 416.0
267.621674 408.0
268.171021 212.0
268.687164 164.0
269.157532 492.0
269.529572 160.0
270.175537 248.0
270.275116 152.0
270.415833 148.0
270.62207 180.0
270.893097 148.0
271.167877 2060.0
272.021973 176.0
272.17041 368.0
273.148315 180.0
273.336426 180.0
273.54071 144.0
273.748138 152.0
274.110504 176.0
274.156616 180.0
274.360992 160.0
274.509766 200.0
275.060364 192.0
275.238647 140.0
275.992035 152.0
276.134216 164.0
276.174377 312.0
276.398895 204.0
276.905396 244.0
277.157593 148.0
277.447021 196.0
278.162445 188.0
278.198608 188.0
278.560333 140.0
278.756592 160.0
279.163483 320.0
279.751099 152.0
280.171661 152.0
280.353973 212.0
280.477875 136.0
280.690674 232.0
280.777374 224.0
281.117645 152.0
281.25116 368.0
281.591736 192.0
281.992676 168.0
282.076233 188.0
282.216644 172.0
282.266815 180.0
283.120148 188.0
283.230682 152.0
283.344574 228.0
283.787018 140.0
284.167114 424.0
284.462128 192.0
284.726593 184.0
284.760193 184.0
285.574158 160.0
285.600494 168.0
285.644226 196.0
286.182709 188.0
286.290436 144.0
286.650909 224.0
287.065552 304.0
287.612122 148.0
288.250427 168.0
289.302338 160.0
289.444519 144.0
290.098419 176.0
290.556274 156.0
290.888855 196.0
290.99408 140.0
291.048431 148.0
291.718903 116.0
291.744934 156.0
292.202332 236.0
293.327911 164.0
293.481323 200.0
293.54953 172.0
293.733704 144.0
294.132935 144.0
294.185791 4180.0
294.443665 140.0
294.46756 168.0
294.669098 212.0
294.993774 140.0
295.186096 1028.0
295.229706 188.0
295.267334 232.0
295.7258 140.0
296.195587 164.0
297.020996 140.0
297.525452 152.0
298.072479 184.0
298.112823 160.0
298.559753 172.0
299.093048 208.0
299.339203 140.0
299.526917 172.0
299.576538 148.0
301.023773 172.0
301.745941 144.0
301.887695 176.0
302.37204 160.0
302.600525 140.0
303.407776 144.0
303.746063 132.0
303.969666 184.0
304.13974 148.0
305.599365 144.0
306.077911 140.0
306.793945 164.0
307.038055 212.0
307.08197 196.0
307.557922 236.0
307.739441 140.0
307.79184 144.0
308.164154 208.0
308.382233 152.0
309.846832 172.0
309.898926 148.0
310.000183 148.0
310.132568 212.0
310.177185 120.0
310.29129 160.0
310.584656 140.0
310.62027 180.0
310.746033 148.0
310.854523 192.0
310.955231 188.0
310.996124 196.0
311.04187 172.0
311.104553 176.0
311.164795 364.0
311.254089 328.0
311.393372 228.0
311.452942 360.0
311.601929 184.0
311.662109 124.0
311.724731 160.0
311.754028 188.0
311.79248 236.0
311.831085 176.0
311.854218 316.0
311.892578 532.0
311.968506 148.0
312.009155 364.0
312.061707 220.0
312.125183 400.0
312.150024 540.0
312.19754 175816.0
312.28949 296.0
312.335541 252.0
312.383026 164.0
312.465485 168.0
312.51532 252.0
312.586853 256.0
312.645752 304.0
312.673584 248.0
312.735657 308.0
312.776367 3112.0
312.809601 128.0
312.881836 200.0
312.927124 320.0
312.961609 172.0
313.032043 308.0
313.059448 288.0
313.098175 404.0
313.131165 180.0
313.199249 51112.0
313.318146 136.0
313.348511 140.0
313.387238 136.0
313.431152 100.0
313.496552 112.0
313.600769 188.0
313.654633 184.0
313.702942 120.0
313.788849 144.0
313.842133 96.0
313.917419 140.0
314.12558 180.0
314.202759 3480.0
314.258911 152.0
314.423248 144.0
314.48172 140.0
314.60025 164.0
314.777069 136.0
314.913666 100.0
314.954987 168.0
315.064941 180.0
315.095642 340.0
315.19989 1120.0
315.224884 464.0
315.259216 264.0
315.348083 128.0
315.381256 132.0
315.421204 100.0
315.434814 216.0
315.578552 160.0
316.000153 100.0
316.244812 112.0
316.296112 136.0
316.439758 100.0
316.948303 148.0
329.18457 124.0
331.860382 152.0
332.137939 120.0
355.441895 124.0
363.627045 148.0
561.752808 140.0
639.023743 144.0
1124.990967 152.0
1152.048706 148.0
1181.951538 212.0
1258.271851 160.0
1264.195312 188.0
1290.793945 164.0
1306.163696 216.0
1332.115356 140.0
1344.114136 140.0
1369.480469 172.0
1381.86792 216.0
1425.903442 196.0
1443.287476 184.0
1451.70813 244.0
1457.659668 168.0
1478.18042 148.0
1488.145264 172.0
1497.342407 252.0
1501.172607 228.0
1506.676025 164.0
1522.291382 156.0
1529.366333 144.0
1556.463745 164.0
1561.949463 144.0
1569.18689 164.0
1578.599121 184.0
1579.073608 164.0
1586.152344 152.0
1619.884399 220.0
1630.266846 180.0
1647.194946 144.0
1653.768921 256.0
1667.321777 180.0
1673.162231 232.0
1673.414673 172.0
1677.814209 252.0
1684.759399 156.0
1692.210083 252.0
1693.004395 152.0
1696.019409 260.0
1702.098755 184.0
1711.357422 192.0
1717.447632 140.0
1730.016479 176.0
1733.470337 220.0
1737.483521 156.0
1759.121094 176.0
1763.539917 176.0
1774.959229 148.0
1779.725342 188.0
1797.688965 180.0
1804.911499 148.0
1805.85022 152.0
1805.934814 184.0
1827.474243 184.0
1831.620239 248.0
1835.498047 208.0
1867.253174 148.0
1874.579468 244.0
1876.769043 144.0
1878.493896 176.0
1887.510742 260.0
1888.773438 200.0
1893.144287 160.0
1894.010376 180.0
1899.107178 164.0
1905.548462 200.0
1908.286377 196.0
1920.268921 204.0
1921.690918 192.0
1922.310425 156.0
1923.235474 224.0
1924.510132 240.0
1926.947021 204.0
1934.984741 156.0
1947.542603 156.0
1959.903076 164.0
1962.882568 180.0
1963.103027 196.0
1963.25293 144.0
1965.396484 172.0
1967.761963 216.0
1978.583618 144.0
1981.462036 216.0
1984.156372 172.0
1984.413452 204.0
1989.15979 188.0
1997.673096 160.0
1998.171265 148.0
1999.141113 156.0
2002.016602 156.0
