>compound MLS000028601-01!2-[2,2-DICYCLOHEXYLETHYL]PIPERIDINE MALEATE SALT
>formula C19H35N
>ionization [M+H]+
>parentmass 278.284698
#inchi InChI=1S/C19H35N/c1-3-9-16(10-4-1)19(17-11-5-2-6-12-17)15-18-13-7-8-14-20-18/h16-20H,1-15H2
#inchikey CYXKNKQEMFBLER
#origInchi InChI=1S/C19H35N.C4H4O4/c1-3-9-16(10-4-1)19(17-11-5-2-6-12-17)15-18-13-7-8-14-20-18;5-3(6)1-2-4(7)8/h16-20H,1-15H2;1-2H,(H,5,6)(H,7,8)/b;2-1-
#Ion_Source LC-ESI
#Instrument qTof
#Compound_Source NIH Pharmacologically Active Library
#PI Dorrestein
#Data_Collector VP/LMS
#Scan -1
#Precursor_MZ 278.29
#ExactMass 277.277
#Charge 1
#CAS_Number N/A
#Pubmed_ID N/A
#Smiles C(C(C1CCCCC1)C2CCCCC2)C3CCCCN3.OC(=O)/C=C\C(=O)O
#INCHI_AUX N/A
#Library_Class 1
#SpectrumID CCMSLIB00000085706
#IonMode Positive
#UpdateWorkflowName UPDATE-SINGLE-ANNOTATED-GOLD
#LibraryQualityString Gold
#TaskID d252d724072548979f1f6f1ced849daf
##Scan# 2113
#SpectrumFile p4-E06_GE6_01_18378.mzXML
#LibraryName Pharm_Active_Library.mgf
#MQScore -1
#Organism Pharm_Active_Library
#TIC_Query 0
#RT_Query -1
#MZErrorPPM -1
#SharedPeaks 0
#MassDiff 0
#LibMZ -1
#SpecMZ 278.29
#SpecCharge 0
#internalFilename spec-00000.mgf

>collision 10
44.904362 180.0
44.913696 216.0
44.957726 196.0
45.029881 276.0
45.080589 124.0
45.089943 268.0
45.108658 144.0
45.131969 156.0
45.170086 188.0
45.1889 96.0
45.210308 144.0
45.230385 84.0
45.267876 220.0
45.298679 240.0
45.308056 72.0
45.341557 204.0
45.371048 116.0
45.391159 52.0
45.427372 188.0
45.457047 348.0
45.498501 184.0
45.54147 144.0
45.550873 116.0
45.583118 92.0
45.60059 56.0
45.617508 320.0
45.632854 164.0
45.645813 144.0
45.695633 148.0
45.764713 160.0
45.774136 164.0
45.797031 116.0
45.822464 132.0
45.860359 152.0
45.881931 176.0
45.894066 84.0
45.90485 88.0
45.918339 176.0
45.928478 224.0
45.941269 128.0
45.960159 120.0
45.972301 120.0
45.993896 264.0
46.022247 140.0
46.062088 168.0
46.077625 180.0
46.119518 152.0
46.164936 128.0
46.200653 252.0
46.23719 144.0
46.253429 188.0
46.280506 128.0
46.294048 144.0
46.313011 188.0
46.325203 104.0
46.34417 196.0
46.373985 212.0
46.384827 148.0
46.401096 152.0
46.432285 136.0
46.453987 188.0
46.489574 176.0
46.548996 136.0
46.577518 160.0
46.597893 100.0
46.615559 136.0
46.627789 152.0
46.652256 160.0
46.680809 128.0
46.769245 164.0
46.793747 220.0
46.820984 200.0
46.830517 100.0
46.841415 192.0
46.857761 176.0
46.893192 144.0
46.912277 140.0
46.953182 204.0
46.975006 36.0
47.002293 176.0
47.070545 136.0
47.122452 152.0
47.148415 224.0
47.175751 152.0
47.21814 80.0
47.263283 48.0
47.293392 92.0
47.309273 140.0
47.333096 140.0
47.372814 44.0
47.384808 180.0
47.424721 168.0
47.436207 200.0
47.45916 84.0
47.527561 152.0
47.550365 140.0
47.597599 184.0
47.659561 304.0
47.670555 204.0
47.695293 100.0
47.713608 136.0
47.723766 152.0
47.74855 120.0
47.821838 188.0
47.871292 204.0
47.912724 144.0
47.94622 220.0
47.970238 156.0
48.024864 400.0
48.06163 124.0
48.071289 212.0
48.091991 180.0
48.129265 116.0
48.148197 124.0
48.170536 236.0
48.17564 208.0
48.194187 160.0
48.247967 180.0
48.253418 164.0
48.310322 120.0
48.344002 176.0
48.36969 160.0
48.425213 208.0
48.449146 188.0
48.515285 144.0
48.538857 84.0
48.614807 224.0
48.680401 92.0
48.716511 116.0
48.730404 160.0
48.780437 56.0
48.797119 184.0
48.814442 184.0
48.830166 152.0
48.844402 172.0
48.858315 88.0
48.873039 140.0
48.911125 160.0
48.946003 180.0
48.971069 176.0
48.983604 72.0
49.01326 168.0
49.091171 388.0
49.113243 168.0
49.164864 220.0
49.177425 140.0
49.188595 244.0
49.329937 132.0
49.368656 128.0
49.38221 176.0
49.392609 172.0
49.403801 160.0
49.414993 72.0
49.433411 196.0
49.451378 148.0
49.486374 160.0
49.497578 208.0
49.577427 196.0
49.602654 196.0
49.646122 148.0
49.661549 136.0
49.676941 148.0
49.68251 144.0
49.700829 212.0
49.754166 40.0
49.786461 124.0
49.814552 140.0
49.828602 192.0
49.846867 152.0
49.858109 104.0
49.915749 124.0
50.005783 136.0
50.074776 160.0
50.11422 248.0
50.124084 200.0
50.139584 148.0
50.180466 324.0
50.229824 148.0
50.253807 176.0
50.266506 152.0
50.320145 168.0
50.358273 144.0
50.385113 216.0
50.404411 188.0
50.475571 204.0
50.48547 216.0
50.53215 136.0
50.55479 108.0
50.574226 144.0
50.706329 124.0
50.72192 60.0
50.741768 156.0
50.784309 112.0
50.840096 88.0
50.876549 152.0
50.897846 200.0
50.923409 176.0
50.943295 156.0
50.979954 220.0
51.020035 104.0
51.044758 196.0
51.069805 112.0
51.08403 148.0
51.200748 108.0
51.214993 72.0
51.266281 144.0
51.280533 64.0
51.300491 152.0
51.311974 72.0
51.432178 164.0
51.443146 136.0
51.463135 128.0
51.48027 164.0
51.520264 324.0
51.616028 172.0
51.648922 120.0
51.827877 156.0
51.83791 164.0
51.855507 172.0
51.883739 168.0
51.903847 156.0
51.928226 156.0
52.022934 128.0
52.05883 120.0
52.09761 112.0
52.109104 136.0
52.127785 168.0
52.167042 148.0
52.186382 184.0
52.222672 176.0
52.247124 104.0
52.284538 124.0
52.314766 36.0
52.349319 80.0
52.376686 148.0
52.399734 48.0
52.451183 80.0
52.499508 204.0
52.521446 300.0
52.537434 212.0
52.601639 156.0
52.624737 136.0
52.634846 120.0
52.647842 196.0
52.694065 92.0
52.715687 216.0
52.717823 208.0
52.757656 176.0
52.779343 144.0
52.837433 220.0
52.882057 148.0
52.922592 172.0
52.957348 132.0
53.034142 164.0
53.070385 124.0
53.107449 208.0
53.119694 120.0
53.134201 136.0
53.196606 156.0
53.258354 168.0
53.303982 192.0
53.314259 184.0
53.343327 128.0
53.357864 276.0
53.376766 124.0
53.405853 92.0
53.427673 48.0
53.439053 156.0
53.468418 188.0
53.479843 160.0
53.496075 76.0
53.506264 68.0
53.600941 64.0
53.678394 180.0
53.695698 116.0
53.725594 160.0
53.741882 176.0
53.765381 184.0
53.787083 216.0
53.805141 56.0
53.841648 124.0
53.895699 112.0
53.915249 116.0
53.983402 148.0
54.000702 140.0
54.00713 144.0
54.011433 172.0
54.022896 160.0
54.076275 200.0
54.129742 132.0
54.141457 160.0
54.207378 92.0
54.236691 148.0
54.265072 156.0
54.286541 180.0
54.300259 340.0
54.324677 68.0
54.380436 112.0
54.400986 140.0
54.479553 248.0
54.490574 88.0
54.516327 152.0
54.527309 104.0
54.542007 128.0
54.584644 140.0
54.59935 192.0
54.614059 120.0
54.64484 208.0
54.659668 176.0
54.714127 168.0
54.775936 148.0
54.796997 180.0
54.833443 136.0
54.858501 136.0
54.871769 192.0
54.91011 140.0
54.929283 256.0
54.944038 132.0
54.973549 132.0
54.986832 152.0
55.023735 212.0
55.03862 192.0
55.081264 184.0
55.0961 360.0
55.109398 180.0
55.157936 128.0
55.214355 92.0
55.225235 180.0
55.257149 172.0
55.267479 224.0
55.286846 208.0
55.335697 288.0
55.394936 172.0
55.408268 152.0
55.443832 124.0
55.510231 176.0
55.529823 192.0
55.564373 228.0
55.578644 152.0
55.611427 284.0
55.645569 212.0
55.674156 192.0
55.742119 224.0
55.7659 164.0
55.80455 160.0
55.842369 132.0
55.887844 168.0
55.908676 88.0
55.945889 212.0
55.999496 116.0
56.071011 164.0
56.118713 56.0
56.161961 236.0
56.251827 160.0
56.278366 164.0
56.311222 104.0
56.339603 112.0
56.378452 180.0
56.407257 132.0
56.428757 196.0
56.447186 176.0
56.471146 140.0
56.492088 144.0
56.520515 140.0
56.547451 152.0
56.646278 112.0
56.7257 160.0
56.742798 224.0
56.760185 160.0
56.782681 224.0
56.793179 100.0
56.854694 164.0
56.899727 136.0
56.917744 132.0
56.946278 160.0
57.040684 188.0
57.066498 196.0
57.108604 204.0
57.176311 224.0
57.189163 252.0
57.213943 108.0
57.286228 168.0
57.298283 68.0
57.351025 112.0
57.392708 240.0
57.424183 160.0
57.434875 156.0
57.46262 160.0
57.480015 144.0
57.506382 96.0
57.524494 156.0
57.547142 40.0
57.569794 156.0
57.60215 132.0
57.621151 164.0
57.64986 76.0
57.707298 168.0
57.726959 172.0
57.739056 204.0
57.754181 160.0
57.777115 124.0
57.792004 124.0
57.846485 128.0
57.861393 236.0
57.966137 136.0
58.090466 300.0
58.111473 184.0
58.114738 156.0
58.121105 184.0
58.150265 212.0
58.16634 128.0
58.224037 156.0
58.247093 156.0
58.286602 172.0
58.403969 208.0
58.439949 112.0
58.464245 212.0
58.508385 160.0
58.585247 172.0
58.631767 116.0
58.659203 116.0
58.682072 92.0
58.692745 172.0
58.707993 200.0
58.727821 208.0
58.805099 148.0
58.834641 136.0
58.866703 128.0
58.920826 148.0
58.948635 196.0
58.999638 152.0
59.023376 164.0
59.036335 112.0
59.084843 140.0
59.08736 100.0
59.09359 176.0
59.192425 208.0
59.212334 156.0
59.270546 152.0
59.299084 320.0
59.312271 180.0
59.327255 140.0
59.430016 172.0
59.445358 124.0
59.46838 204.0
59.61121 128.0
59.640411 216.0
59.678844 136.0
59.691147 128.0
59.706524 232.0
59.738827 160.0
59.803455 32.0
59.818848 104.0
59.842083 236.0
59.883518 144.0
59.898922 152.0
59.935898 136.0
59.949768 224.0
60.068489 172.0
60.133293 108.0
60.221302 128.0
60.242928 140.0
60.271984 164.0
60.277622 132.0
60.324833 188.0
60.391323 192.0
60.415257 144.0
60.431545 52.0
60.471523 220.0
60.50198 212.0
60.536804 104.0
60.556938 180.0
60.594116 168.0
60.629414 108.0
60.653008 128.0
60.673157 212.0
60.699516 200.0
60.72123 120.0
60.794147 224.0
60.809277 144.0
60.823635 220.0
60.851578 152.0
60.933895 44.0
60.944771 160.0
61.01627 204.0
61.044258 120.0
61.061058 224.0
61.10025 196.0
61.125149 52.0
61.142265 100.0
61.165611 144.0
61.182735 112.0
61.239506 44.0
61.273552 176.0
61.299557 112.0
61.330666 208.0
61.334282 200.0
61.365501 196.0
61.404007 152.0
61.441444 184.0
61.482014 140.0
61.528843 100.0
61.567883 212.0
61.581936 148.0
61.597557 156.0
61.612854 192.0
61.624973 180.0
61.655369 140.0
61.667873 144.0
61.696011 188.0
61.730408 152.0
61.75856 152.0
61.808624 56.0
61.875305 192.0
62.03886 44.0
62.062969 148.0
62.1157 144.0
62.154922 180.0
62.198868 52.0
62.223984 144.0
62.234978 180.0
62.263241 152.0
62.277039 148.0
62.323517 164.0
62.341793 132.0
62.354366 136.0
62.388947 252.0
62.46286 176.0
62.513206 36.0
62.55098 204.0
62.563576 128.0
62.582783 160.0
62.595066 176.0
62.606087 160.0
62.648869 200.0
62.6535 200.0
62.721909 180.0
62.740021 136.0
62.815102 236.0
62.845695 164.0
62.856739 84.0
62.877254 104.0
62.89146 164.0
62.91198 184.0
62.942966 192.0
62.971985 172.0
62.989361 172.0
63.022205 172.0
63.130028 172.0
63.236027 128.0
63.326279 100.0
63.413754 172.0
63.437981 160.0
63.489521 48.0
63.609341 132.0
63.656151 188.0
63.672153 52.0
63.726044 88.0
63.738754 252.0
63.753056 172.0
63.768951 160.0
63.780075 72.0
63.824593 208.0
63.848446 164.0
63.892982 196.0
63.918442 144.0
63.956638 144.0
64.02578 188.0
64.047401 48.0
64.095467 212.0
64.13504 212.0
64.158752 112.0
64.206024 160.0
64.273788 132.0
64.312088 156.0
64.326454 136.0
64.339226 184.0
64.360855 212.0
64.380745 188.0
64.410645 188.0
64.422661 180.0
64.46701 168.0
64.479797 100.0
64.511765 68.0
64.527748 176.0
64.542137 68.0
64.651512 216.0
64.674927 168.0
64.702141 44.0
64.724556 168.0
64.743774 180.0
64.758186 164.0
64.771004 180.0
64.796631 208.0
64.809448 52.0
64.85112 144.0
64.878372 124.0
64.896004 152.0
64.912041 228.0
65.02755 164.0
65.090157 188.0
65.148438 196.0
65.171188 176.0
65.270134 224.0
65.287094 212.0
65.302299 156.0
65.32711 176.0
65.369865 88.0
65.400444 180.0
65.47612 164.0
65.611473 52.0
65.664978 240.0
65.719536 152.0
65.746971 136.0
65.761497 148.0
65.813156 176.0
65.8293 224.0
65.853531 176.0
65.919769 128.0
65.940773 128.0
65.953705 124.0
65.974724 156.0
66.024902 120.0
66.042641 100.0
66.092789 208.0
66.105736 156.0
66.165627 140.0
66.202866 132.0
66.256424 180.0
66.292542 124.0
66.311417 224.0
66.332489 224.0
66.420052 220.0
66.446007 212.0
66.462234 88.0
66.581818 204.0
66.60997 112.0
66.648964 148.0
66.684715 220.0
66.710724 120.0
66.733482 140.0
66.74649 228.0
66.757874 164.0
66.891296 200.0
66.905945 116.0
66.923859 188.0
67.000404 120.0
67.09819 44.0
67.111237 128.0
67.130806 168.0
67.148743 160.0
67.181213 172.0
67.205681 208.0
67.26133 308.0
67.387077 200.0
67.419754 112.0
67.477165 100.0
67.508034 172.0
67.525124 244.0
67.627838 232.0
67.676582 244.0
67.710968 184.0
67.737175 184.0
67.772263 180.0
67.830833 180.0
67.866653 52.0
67.881409 176.0
67.922409 212.0
67.940453 132.0
67.998253 144.0
68.029076 120.0
68.060181 216.0
68.076439 180.0
68.101326 124.0
68.132751 152.0
68.148964 136.0
68.203201 212.0
68.2295 172.0
68.290344 176.0
68.306793 100.0
68.336411 260.0
68.362732 176.0
68.395653 140.0
68.435356 172.0
68.458214 132.0
68.504333 192.0
68.541367 176.0
68.553764 124.0
68.593323 140.0
68.637833 116.0
68.664932 176.0
68.687317 160.0
68.720306 192.0
68.766518 180.0
68.781372 228.0
68.808357 184.0
68.839157 200.0
68.860626 152.0
68.872185 212.0
68.915138 128.0
68.952965 212.0
69.012665 172.0
69.048256 176.0
69.135071 200.0
69.171486 212.0
69.249306 136.0
69.305634 180.0
69.31723 200.0
69.33049 96.0
69.367653 164.0
69.402107 160.0
69.439911 112.0
69.497978 52.0
69.50959 120.0
69.562698 104.0
69.592583 196.0
69.609192 120.0
69.713844 152.0
69.767036 44.0
69.830223 136.0
69.915077 108.0
70.008301 108.0
70.048279 120.0
70.063271 156.0
70.081596 88.0
70.09993 268.0
70.143257 164.0
70.193275 212.0
70.206619 108.0
70.219749 160.0
70.233803 200.0
70.268341 136.0
70.306717 172.0
70.353455 176.0
70.380165 204.0
70.413567 148.0
70.463676 120.0
70.498772 176.0
70.51548 228.0
70.540558 144.0
70.589043 52.0
70.62751 132.0
70.664314 128.0
70.699455 172.0
70.722237 172.0
70.81665 176.0
70.827484 140.0
70.843452 192.0
70.860733 228.0
70.88031 152.0
70.918854 204.0
70.937294 124.0
70.950706 132.0
71.006042 160.0
71.071465 152.0
71.126373 224.0
71.164673 348.0
71.229279 204.0
71.248192 248.0
71.283043 120.0
71.311615 176.0
71.360367 192.0
71.373817 144.0
71.416504 240.0
71.432686 224.0
71.464645 160.0
71.518501 64.0
71.530281 132.0
71.565636 56.0
71.582474 112.0
71.595947 196.0
71.617325 180.0
71.631317 192.0
71.680183 140.0
71.789757 176.0
71.815056 140.0
71.860069 388.0
71.95343 156.0
71.977066 68.0
71.991653 188.0
72.061523 192.0
72.078415 160.0
72.13195 172.0
72.167091 160.0
72.191566 184.0
72.355011 76.0
72.384598 104.0
72.415031 156.0
72.460815 132.0
72.489624 208.0
72.518433 208.0
72.535385 152.0
72.582855 108.0
72.598114 108.0
72.629807 152.0
72.69651 156.0
72.786476 84.0
72.806854 136.0
72.835732 140.0
72.896896 140.0
72.916985 200.0
72.930885 72.0
72.992088 72.0
73.007393 28.0
73.05162 200.0
73.102661 128.0
73.124786 60.0
73.143509 160.0
73.180962 148.0
73.210442 168.0
73.254196 148.0
73.337692 200.0
73.361557 160.0
73.424644 120.0
73.448524 160.0
73.474251 300.0
73.516617 172.0
73.588463 104.0
73.670441 220.0
73.694359 132.0
73.714867 196.0
73.728539 264.0
73.834534 140.0
73.855278 160.0
73.896118 136.0
73.937187 104.0
73.982864 316.0
74.022781 128.0
74.043335 192.0
74.062172 108.0
74.1427 196.0
74.180412 148.0
74.219475 188.0
74.271889 208.0
74.303574 152.0
74.322762 72.0
74.33477 108.0
74.398277 160.0
74.491013 192.0
74.513344 164.0
74.533707 188.0
74.587242 184.0
74.608414 140.0
74.625069 48.0
74.647964 188.0
74.668053 100.0
74.709099 204.0
74.735146 248.0
74.788498 164.0
74.80571 216.0
74.821205 232.0
74.852196 128.0
74.87114 104.0
74.967613 56.0
74.986946 184.0
75.005531 184.0
75.091743 188.0
75.114166 168.0
75.148674 168.0
75.184906 176.0
75.20562 256.0
75.248779 56.0
75.266045 188.0
75.289383 216.0
75.310944 100.0
75.323036 188.0
75.336861 176.0
75.405975 128.0
75.4198 184.0
75.461296 136.0
75.494148 160.0
75.509712 148.0
75.537384 100.0
75.60833 248.0
75.634293 140.0
75.658524 172.0
75.672249 160.0
75.686226 280.0
75.836952 168.0
75.849083 188.0
75.88549 68.0
75.902832 216.0
75.934044 116.0
75.954857 100.0
75.970474 132.0
75.993584 124.0
76.012115 132.0
76.053764 148.0
76.06765 212.0
76.112793 136.0
76.128418 108.0
76.218353 228.0
76.236534 172.0
76.255249 56.0
76.307961 172.0
76.326523 148.0
76.375221 428.0
76.392105 68.0
76.43959 176.0
76.463959 220.0
76.498329 180.0
76.528366 172.0
76.604996 60.0
76.665977 176.0
76.746162 200.0
76.830963 136.0
76.863037 152.0
76.886871 236.0
76.897469 60.0
76.904167 140.0
76.917137 212.0
76.965874 220.0
77.035362 188.0
77.062912 136.0
77.125679 144.0
77.201927 328.0
77.261398 120.0
77.282394 120.0
77.326149 148.0
77.352402 180.0
77.364655 364.0
77.390915 144.0
77.484642 152.0
77.513535 132.0
77.55735 144.0
77.592407 208.0
77.664307 128.0
77.709923 128.0
77.723953 188.0
77.778358 108.0
77.792404 160.0
77.815231 144.0
78.006721 200.0
78.033096 100.0
78.059471 76.0
78.082329 192.0
78.152695 192.0
78.186134 68.0
78.254784 160.0
78.282959 156.0
78.347458 116.0
78.378082 120.0
78.399223 96.0
78.416855 52.0
78.432716 192.0
78.445053 92.0
78.49971 164.0
78.580849 164.0
78.619675 160.0
78.658501 200.0
78.69558 52.0
78.739723 168.0
78.78212 188.0
78.820984 168.0
78.856331 136.0
78.90226 220.0
78.953865 168.0
78.999031 212.0
79.02906 220.0
79.072105 204.0
79.144691 140.0
79.165474 168.0
79.206673 144.0
79.235023 68.0
79.252739 136.0
79.269234 180.0
79.320084 188.0
79.379272 376.0
79.426476 196.0
79.46196 288.0
79.519081 232.0
79.535667 192.0
79.552467 128.0
79.611061 128.0
79.659019 112.0
79.701965 184.0
79.735428 140.0
79.78421 160.0
79.806534 144.0
79.913254 144.0
79.93821 140.0
79.963081 164.0
80.002235 168.0
80.066338 64.0
80.116211 76.0
80.162544 196.0
80.198189 176.0
80.210663 244.0
80.285042 244.0
80.308731 92.0
80.381882 148.0
80.399727 200.0
80.46756 300.0
80.504105 60.0
80.51577 104.0
80.566086 216.0
80.592613 232.0
80.674797 104.0
80.697594 192.0
80.723846 232.0
80.748108 192.0
80.765999 176.0
80.78389 128.0
80.825035 136.0
80.844719 176.0
80.931595 204.0
80.977203 132.0
80.991531 164.0
81.064987 124.0
81.112633 248.0
81.140274 204.0
81.155548 200.0
81.172546 168.0
81.228149 180.0
81.240707 160.0
81.306549 144.0
81.344788 176.0
81.371719 260.0
81.389259 132.0
81.407631 192.0
81.510025 204.0
81.540573 144.0
81.572929 172.0
81.589111 180.0
81.619675 220.0
81.637238 188.0
81.758194 156.0
81.799004 160.0
81.814758 188.0
81.891418 220.0
81.929253 112.0
81.976097 156.0
82.004929 112.0
82.077042 196.0
82.097588 156.0
82.115738 272.0
82.172638 208.0
82.221359 76.0
82.255653 100.0
82.326073 240.0
82.383873 160.0
82.5401 108.0
82.551964 152.0
82.568245 160.0
82.602608 156.0
82.626129 184.0
82.685844 148.0
82.718422 100.0
82.751007 200.0
82.80352 144.0
82.825256 204.0
82.893608 160.0
82.959923 176.0
83.033699 72.0
83.073601 76.0
83.106262 176.0
83.14389 152.0
83.175224 96.0
83.226059 244.0
83.255112 128.0
83.282356 176.0
83.310448 172.0
83.335037 308.0
83.385925 128.0
83.435005 164.0
83.471367 164.0
83.492889 168.0
83.513199 148.0
83.56842 168.0
83.587784 148.0
83.726143 92.0
83.76506 152.0
83.81176 120.0
83.824516 140.0
83.90654 140.0
83.953949 152.0
84.009026 184.0
84.065231 80.0
84.103554 144.0
84.165863 188.0
84.185715 236.0
84.233589 188.0
84.242126 176.0
84.265877 208.0
84.292786 124.0
84.311768 128.0
84.354561 160.0
84.461693 116.0
84.523903 124.0
84.54586 68.0
84.567146 140.0
84.571404 88.0
84.577621 136.0
84.628235 76.0
84.655701 132.0
84.692329 156.0
84.734467 172.0
84.769279 132.0
84.796768 148.0
84.816933 132.0
84.829765 156.0
84.870102 132.0
84.935555 208.0
84.958138 164.0
84.988556 124.0
85.062737 204.0
85.074585 184.0
85.093948 144.0
85.193123 92.0
85.351181 64.0
85.408195 160.0
85.474426 292.0
85.586525 156.0
85.667747 152.0
85.740173 156.0
85.769096 152.0
85.791222 136.0
85.86528 172.0
85.892647 128.0
85.957222 172.0
86.001511 164.0
86.023666 188.0
86.0532 176.0
86.117836 60.0
86.156982 208.0
86.193581 212.0
86.234238 100.0
86.284149 132.0
86.306335 320.0
86.35627 168.0
86.405457 168.0
86.478386 124.0
86.569099 136.0
86.596886 168.0
86.624664 140.0
86.656929 196.0
86.675591 140.0
86.69693 184.0
86.7099 76.0
86.732628 228.0
86.740524 176.0
86.771072 196.0
86.822998 40.0
86.856377 160.0
86.887917 164.0
86.963997 156.0
86.991844 244.0
87.004837 136.0
87.020103 312.0
87.105118 132.0
87.127411 56.0
87.231483 176.0
87.297363 120.0
87.343201 200.0
87.391426 188.0
87.406311 172.0
87.434227 164.0
87.452782 164.0
87.484482 100.0
87.663292 156.0
87.708023 300.0
87.752762 176.0
87.799377 124.0
87.815338 216.0
87.82058 120.0
87.842514 192.0
87.857201 32.0
87.887054 124.0
87.918777 240.0
87.992325 140.0
88.010246 116.0
88.06292 176.0
88.096161 180.0
88.108887 148.0
88.150345 188.0
88.208282 152.0
88.259201 204.0
88.311127 232.0
88.325195 192.0
88.466438 200.0
88.500137 72.0
88.546776 164.0
88.643341 224.0
88.69548 60.0
88.749344 208.0
88.775597 112.0
88.816864 172.0
88.837967 156.0
88.903481 144.0
88.921936 156.0
88.976273 148.0
89.008293 124.0
89.02079 152.0
89.079659 184.0
89.092812 152.0
89.111595 52.0
89.190643 196.0
89.228127 52.0
89.339088 148.0
89.365425 224.0
89.391769 96.0
89.442047 168.0
89.47271 136.0
89.493416 96.0
89.563095 240.0
89.597008 232.0
89.633667 140.0
89.653534 220.0
89.740242 164.0
89.755333 112.0
89.823227 252.0
89.847748 92.0
89.876053 188.0
89.923233 104.0
89.960983 212.0
89.977974 152.0
89.996857 112.0
90.045952 136.0
90.125298 308.0
90.170647 160.0
90.194313 168.0
90.236809 196.0
90.25383 128.0
90.267067 148.0
90.29245 168.0
90.340828 132.0
90.375748 184.0
90.395699 104.0
90.446342 216.0
90.535789 92.0
90.613449 196.0
90.626717 144.0
90.64756 156.0
90.685463 200.0
90.801689 80.0
90.918747 104.0
90.947212 176.0
90.97451 116.0
90.994675 172.0
91.009056 156.0
91.023155 156.0
91.054077 2552.0
91.211143 156.0
91.283325 184.0
91.306313 172.0
91.325333 112.0
91.344353 176.0
91.439491 120.0
91.45472 120.0
91.488983 180.0
91.589912 160.0
91.647064 208.0
91.683655 216.0
91.74617 164.0
91.774773 152.0
91.841515 132.0
91.854866 112.0
91.894936 200.0
91.916618 88.0
91.983994 120.0
92.059906 800.0
92.093468 112.0
92.111794 176.0
92.154602 184.0
92.19091 128.0
92.276894 184.0
92.297958 148.0
92.328552 48.0
92.395325 212.0
92.431854 128.0
92.491913 180.0
92.512245 148.0
92.59156 180.0
92.640549 176.0
92.663544 128.0
92.701866 216.0
92.734474 176.0
92.781853 148.0
92.795792 144.0
92.824554 112.0
92.841103 136.0
92.86866 220.0
92.897438 200.0
92.927002 136.0
92.982941 124.0
93.016411 172.0
93.070404 3792.0
93.107727 208.0
93.200783 32.0
93.231903 184.0
93.250748 76.0
93.268051 192.0
93.306496 132.0
93.34687 64.0
93.364182 184.0
93.425735 308.0
93.462288 96.0
93.479607 168.0
93.513832 184.0
93.535423 172.0
93.64325 164.0
93.674072 244.0
93.700035 176.0
93.716454 148.0
93.753067 180.0
93.766556 104.0
93.783905 80.0
93.816475 152.0
93.845596 48.0
93.882233 92.0
93.909035 236.0
93.948883 368.0
94.00885 240.0
94.071266 1164.0
94.117661 156.0
94.15435 92.0
94.200706 164.0
94.310852 108.0
94.326309 144.0
94.347931 460.0
94.370781 140.0
94.401718 372.0
94.420189 188.0
94.434593 148.0
94.486443 184.0
94.519714 108.0
94.546806 140.0
94.5681 124.0
94.652527 296.0
94.665375 212.0
94.716705 200.0
94.797867 144.0
94.807892 228.0
94.839272 124.0
94.859741 200.0
94.894508 168.0
94.90892 228.0
94.915825 212.0
94.934273 160.0
94.951721 148.0
94.980499 356.0
95.030594 404.0
95.048233 412.0
95.085777 57028.0
95.139725 216.0
95.177101 192.0
95.205688 64.0
95.222321 228.0
95.243835 64.0
95.26812 40.0
95.287544 196.0
95.308319 156.0
95.313667 108.0
95.319199 96.0
95.343132 152.0
95.367218 96.0
95.406586 192.0
95.448875 100.0
95.501251 176.0
95.505791 240.0
95.524727 144.0
95.553162 180.0
95.6045 96.0
95.618118 216.0
95.645302 228.0
95.661644 100.0
95.686607 240.0
95.736877 148.0
95.75441 84.0
95.785576 76.0
95.813141 184.0
95.838722 128.0
95.88105 140.0
95.896172 184.0
95.918083 152.0
95.939384 220.0
95.978516 96.0
96.018806 176.0
96.050674 128.0
96.089043 4124.0
96.118797 48.0
96.138474 116.0
96.158989 88.0
96.200935 120.0
96.216553 216.0
96.243889 180.0
96.265366 56.0
96.30191 124.0
96.315262 168.0
96.341545 192.0
96.413383 172.0
96.44342 120.0
96.458794 48.0
96.534569 148.0
96.555779 180.0
96.583946 52.0
96.606636 180.0
96.632095 124.0
96.678085 136.0
96.694443 196.0
96.702965 128.0
96.71946 140.0
96.734619 232.0
96.767899 200.0
96.809021 72.0
96.828606 144.0
96.844276 44.0
96.885406 264.0
96.910812 120.0
96.936356 120.0
96.965393 160.0
96.98143 216.0
97.006912 80.0
97.032402 36.0
97.050041 188.0
97.069153 188.0
97.101044 10732.0
97.133743 184.0
97.148109 92.0
97.170998 48.0
97.234299 136.0
97.277679 164.0
97.329338 224.0
97.343018 132.0
97.385628 112.0
97.454384 84.0
97.516418 204.0
97.554619 160.0
97.592239 228.0
97.616554 136.0
97.674767 40.0
97.731171 224.0
97.734276 172.0
97.758652 152.0
97.79071 160.0
97.837906 96.0
97.912727 172.0
98.023048 140.0
98.038818 160.0
98.101555 1108.0
98.141319 204.0
98.170898 48.0
98.255852 120.0
98.345413 176.0
98.401764 164.0
98.435333 108.0
98.52195 136.0
98.57164 268.0
98.595352 160.0
98.628242 156.0
98.698807 96.0
98.727806 56.0
98.749565 40.0
98.832649 132.0
98.915771 72.0
98.951408 88.0
98.975166 128.0
99.002892 68.0
99.040527 80.0
99.1026 144.0
99.181206 124.0
99.195084 60.0
99.222839 112.0
99.335487 224.0
99.391434 112.0
99.472801 176.0
99.50457 88.0
99.591942 176.0
99.607834 176.0
99.651543 140.0
99.673401 140.0
99.780731 176.0
99.983627 76.0
100.014702 184.0
100.081169 176.0
100.112312 640.0
100.152863 52.0
100.174774 172.0
100.202667 204.0
100.419952 140.0
100.585564 156.0
100.688583 256.0
100.749313 128.0
100.769295 180.0
100.833244 184.0
100.856895 192.0
101.021202 32.0
101.111244 192.0
101.162643 176.0
101.181305 112.0
101.315269 148.0
101.332413 108.0
101.400696 136.0
101.450378 116.0
101.523941 88.0
101.578102 64.0
101.647858 172.0
101.694481 64.0
101.714554 208.0
101.727158 184.0
101.796867 216.0
101.824081 44.0
101.863152 168.0
101.955574 112.0
102.07016 132.0
102.114403 140.0
102.255241 140.0
102.281166 176.0
102.323685 96.0
102.386108 64.0
102.47625 160.0
102.489388 164.0
102.511009 184.0
102.611794 148.0
102.746925 120.0
102.775169 136.0
102.85186 180.0
102.878098 48.0
102.893433 108.0
103.051788 272.0
103.0821 156.0
103.177101 148.0
103.199341 136.0
103.231689 80.0
103.25798 168.0
103.274162 56.0
103.317711 156.0
103.351036 164.0
103.371277 28.0
103.405678 132.0
103.492729 172.0
103.528435 136.0
103.55722 208.0
103.579475 192.0
103.60817 188.0
103.632484 72.0
103.691254 96.0
103.705437 172.0
103.735847 144.0
103.76828 128.0
103.798241 160.0
103.833107 128.0
103.849342 136.0
103.867653 236.0
103.910255 116.0
104.040146 132.0
104.073341 148.0
104.097 108.0
104.161987 136.0
104.200592 308.0
104.267647 180.0
104.298134 84.0
104.332695 292.0
104.353027 168.0
104.40506 92.0
104.538391 156.0
104.560875 112.0
104.581886 144.0
104.609367 176.0
104.718262 200.0
104.800812 168.0
104.880287 28.0
104.896599 152.0
104.927177 108.0
104.959801 136.0
104.994469 136.0
105.067589 340.0
105.174011 92.0
105.214844 120.0
105.231178 188.0
105.259758 144.0
105.286705 144.0
105.331245 244.0
105.370056 92.0
105.398438 180.0
105.402748 160.0
105.502899 156.0
105.545837 120.0
105.605148 120.0
105.639297 236.0
105.674393 160.0
105.72995 148.0
105.744278 92.0
105.820778 164.0
105.827354 48.0
105.835938 212.0
105.86097 108.0
105.946999 180.0
106.04126 144.0
106.055603 160.0
106.072006 320.0
106.096603 104.0
106.117104 40.0
106.143509 128.0
106.158226 152.0
106.248367 52.0
106.295555 180.0
106.336685 176.0
106.387924 212.0
106.40229 80.0
106.452095 220.0
106.46521 112.0
106.490593 120.0
106.59948 88.0
106.646744 196.0
106.669357 128.0
106.778336 148.0
106.83593 80.0
106.858559 144.0
106.877083 116.0
107.004692 244.0
107.01976 164.0
107.085381 3968.0
107.159164 112.0
107.24984 112.0
107.264267 96.0
107.282822 128.0
107.336426 60.0
107.352036 168.0
107.466377 128.0
107.489075 72.0
107.53035 84.0
107.610855 160.0
107.639763 120.0
107.658348 152.0
107.703789 120.0
107.726509 260.0
107.815361 60.0
107.8629 164.0
107.929054 72.0
107.943527 132.0
107.996468 168.0
108.085724 332.0
108.106621 148.0
108.158035 176.0
108.195961 120.0
108.233231 244.0
108.317184 216.0
108.372833 120.0
108.403091 144.0
108.464485 180.0
108.472969 112.0
108.480278 148.0
108.498154 176.0
108.653976 108.0
108.680954 240.0
108.755524 176.0
108.782646 184.0
108.802681 216.0
108.828545 188.0
108.855316 156.0
108.874062 144.0
108.898933 200.0
108.923492 284.0
108.951233 312.0
108.988258 156.0
109.015274 308.0
109.039177 172.0
109.081352 548.0
109.101318 57868.0
109.139183 232.0
109.156021 88.0
109.180397 116.0
109.199409 204.0
109.273376 228.0
109.291718 180.0
109.323051 104.0
109.353699 216.0
109.372589 164.0
109.380882 92.0
109.393875 148.0
109.417786 160.0
109.442719 240.0
109.463669 132.0
109.49585 240.0
109.508896 136.0
109.549309 132.0
109.57785 88.0
109.618767 52.0
109.660446 60.0
109.677116 100.0
109.693794 76.0
109.720894 72.0
109.735489 52.0
109.757362 168.0
109.79847 192.0
109.850197 160.0
109.873146 108.0
109.962875 76.0
109.986382 228.0
110.012222 160.0
110.10424 4404.0
110.199387 92.0
110.220757 132.0
110.257881 96.0
110.316879 92.0
110.345154 84.0
110.370239 156.0
110.435074 192.0
110.458084 120.0
110.488525 116.0
110.537582 128.0
110.617729 96.0
110.682732 236.0
110.761604 132.0
110.786743 84.0
110.839119 96.0
110.855888 84.0
110.881035 44.0
110.906425 140.0
110.9328 132.0
110.947128 112.0
110.977463 188.0
111.027954 124.0
111.073746 180.0
111.116272 2544.0
111.15876 196.0
111.184952 228.0
111.230759 60.0
111.260704 220.0
111.369904 156.0
111.388809 52.0
111.535896 44.0
111.619995 96.0
111.664162 104.0
111.692314 104.0
111.715614 208.0
111.872475 88.0
111.898697 176.0
111.937744 124.0
111.977425 152.0
112.095734 44.0
112.116188 300.0
112.158966 148.0
112.2201 52.0
112.296021 144.0
112.374069 124.0
112.437378 128.0
112.452148 96.0
112.474602 188.0
112.496475 92.0
112.526031 164.0
112.688667 168.0
112.71402 144.0
112.762627 144.0
112.942352 192.0
113.005188 216.0
113.088348 180.0
113.141266 156.0
113.194199 144.0
113.238853 144.0
113.283157 164.0
113.326523 204.0
113.38932 192.0
113.403938 292.0
113.431496 120.0
113.510872 192.0
113.535385 188.0
113.572304 148.0
113.590538 116.0
113.64782 172.0
113.692383 128.0
113.764549 188.0
113.853729 128.0
113.915321 88.0
114.01519 136.0
114.055573 196.0
114.128006 704.0
114.178894 188.0
114.221428 200.0
114.242706 120.0
114.329941 156.0
114.344841 144.0
114.372513 144.0
114.470444 104.0
114.544991 208.0
114.702675 184.0
114.736229 200.0
114.771706 172.0
114.875404 140.0
114.939415 148.0
114.976875 176.0
115.003433 144.0
115.043991 156.0
115.1828 180.0
115.244751 72.0
115.291763 92.0
115.340393 176.0
115.40506 96.0
115.47847 292.0
115.535522 88.0
115.559059 136.0
115.628578 148.0
115.764549 116.0
115.82238 116.0
115.873795 124.0
115.931648 128.0
116.038826 168.0
116.066696 188.0
116.148193 132.0
116.221138 140.0
116.251816 216.0
116.270828 180.0
116.33918 172.0
116.364944 176.0
116.470177 184.0
116.534622 180.0
116.564705 152.0
116.652824 140.0
116.744278 188.0
116.779877 188.0
116.801201 192.0
116.827019 36.0
116.848534 172.0
116.870049 160.0
116.895744 144.0
116.913086 164.0
116.928146 108.0
116.99057 140.0
117.025017 92.0
117.132698 120.0
117.192444 208.0
117.261978 212.0
117.327187 128.0
117.371925 128.0
117.411987 152.0
117.46035 164.0
117.479767 108.0
117.538025 180.0
117.579025 176.0
117.607025 156.0
117.645935 164.0
117.697754 112.0
117.751747 52.0
117.832115 212.0
117.969986 176.0
117.996117 144.0
118.024033 244.0
118.066139 152.0
118.130013 136.0
118.184097 140.0
118.240364 72.0
118.335609 208.0
118.365921 96.0
118.480721 144.0
118.521385 192.0
118.591232 148.0
118.632423 156.0
118.700981 212.0
118.737976 188.0
118.771202 176.0
118.790726 148.0
119.058281 120.0
119.083763 360.0
119.122864 112.0
119.205421 224.0
119.220634 188.0
119.309753 108.0
119.329323 208.0
119.366287 88.0
119.45546 56.0
119.492447 240.0
119.55555 232.0
119.570778 124.0
119.599731 120.0
119.699226 204.0
119.717712 108.0
119.784164 180.0
119.895287 108.0
119.941055 124.0
120.132957 100.0
120.170044 176.0
120.25515 168.0
120.276978 136.0
120.329369 168.0
120.377411 168.0
120.399246 172.0
120.414536 132.0
120.456039 196.0
120.488808 128.0
120.559738 216.0
120.580582 152.0
120.639603 84.0
120.825493 176.0
120.842995 120.0
120.969933 108.0
121.026855 236.0
121.048752 164.0
121.077217 112.0
121.100571 3392.0
121.175797 92.0
121.243721 60.0
121.268036 172.0
121.308235 196.0
121.443237 164.0
121.517822 168.0
121.581459 128.0
121.638527 168.0
121.697807 48.0
121.71537 112.0
121.768074 144.0
121.858139 168.0
121.961426 92.0
121.990005 152.0
122.010956 176.0
122.060364 124.0
122.10463 872.0
122.141739 208.0
122.231941 136.0
122.278152 64.0
122.29776 128.0
122.32988 120.0
122.555626 136.0
122.586479 176.0
122.621735 132.0
122.645981 228.0
122.721176 112.0
122.749603 88.0
122.77607 104.0
122.798119 128.0
122.873123 144.0
122.895187 112.0
122.94944 148.0
123.009949 112.0
123.06073 136.0
123.078392 168.0
123.116592 17848.0
123.15477 116.0
123.196762 200.0
123.218323 128.0
123.244057 120.0
123.273834 84.0
123.299301 44.0
123.330978 132.0
123.349968 160.0
123.409828 36.0
123.447418 172.0
123.473961 176.0
123.493866 68.0
123.521454 76.0
123.537155 56.0
123.575714 108.0
123.606689 228.0
123.643341 232.0
123.715149 128.0
123.761642 312.0
123.786217 180.0
123.898956 116.0
123.916687 108.0
123.963219 140.0
123.989807 184.0
124.06739 84.0
124.120117 2528.0
124.20488 156.0
124.254623 60.0
124.338005 172.0
124.406815 200.0
124.422356 156.0
124.446777 52.0
124.477867 164.0
124.525803 192.0
124.54937 144.0
124.626694 172.0
124.735596 136.0
124.75338 188.0
124.815628 180.0
124.861298 164.0
124.896599 128.0
124.926834 104.0
124.958763 172.0
124.98246 100.0
125.072609 140.0
125.089287 92.0
125.112198 124.0
125.129356 104.0
125.151627 208.0
125.176117 92.0
125.241013 88.0
125.280861 160.0
125.304085 160.0
125.329819 240.0
125.376617 164.0
125.403358 104.0
125.425652 108.0
125.4524 112.0
125.499573 152.0
125.517059 64.0
125.543816 92.0
125.595116 88.0
125.62188 160.0
125.653114 192.0
125.686584 176.0
125.702202 128.0
125.729553 176.0
125.770515 184.0
125.87632 196.0
125.936623 56.0
126.020103 108.0
126.099724 144.0
126.128784 72.0
126.177155 176.0
126.200325 128.0
126.258469 32.0
126.321243 180.0
126.439682 144.0
126.502357 128.0
126.524742 136.0
126.544891 124.0
126.589546 140.0
126.659103 228.0
126.697189 136.0
126.715111 100.0
126.778816 128.0
126.946548 144.0
126.986359 80.0
127.006104 164.0
127.009468 132.0
127.042435 156.0
127.082817 116.0
127.111992 56.0
127.138916 128.0
127.181564 96.0
127.266655 124.0
127.393562 156.0
127.482521 140.0
127.522972 152.0
127.549942 116.0
127.570175 132.0
127.615143 136.0
127.696098 152.0
127.736588 108.0
127.76358 108.0
127.786079 120.0
127.82283 216.0
127.901413 96.0
128.002167 52.0
128.069733 164.0
128.096756 152.0
128.119278 152.0
128.144745 336.0
128.171112 120.0
128.407822 236.0
128.49353 28.0
128.531891 76.0
128.578278 180.0
128.685883 124.0
128.716995 68.0
128.81636 128.0
128.834442 200.0
128.85025 84.0
128.972626 80.0
129.123779 100.0
129.148651 208.0
129.191635 200.0
129.21991 120.0
129.309296 116.0
129.361359 180.0
129.649017 160.0
129.76503 156.0
129.925644 124.0
129.991455 48.0
130.034561 124.0
130.352509 200.0
130.368423 104.0
130.46843 160.0
130.532394 212.0
130.600327 192.0
130.652649 116.0
130.704971 100.0
130.766418 240.0
130.841537 136.0
130.889359 164.0
130.955399 100.0
130.973618 152.0
131.119446 120.0
131.14679 100.0
131.253937 56.0
131.311447 184.0
131.336044 168.0
131.372543 104.0
131.40448 188.0
131.511734 80.0
131.541412 84.0
131.652878 180.0
131.756073 100.0
131.813202 152.0
131.852051 140.0
131.879471 56.0
131.904617 36.0
131.94577 168.0
131.97467 156.0
132.208817 196.0
132.243149 112.0
132.288925 168.0
132.318695 148.0
132.364487 92.0
132.405716 188.0
132.458389 212.0
132.492752 140.0
132.515671 28.0
132.738464 160.0
132.770111 128.0
132.91922 128.0
132.976593 184.0
133.09938 272.0
133.240677 100.0
133.268234 156.0
133.452118 64.0
133.491211 116.0
133.608521 144.0
133.645325 160.0
133.666031 164.0
133.689056 192.0
133.746582 208.0
133.808105 160.0
133.85817 212.0
133.940826 124.0
134.005402 136.0
134.039078 164.0
134.206451 172.0
134.22348 140.0
134.361877 148.0
134.384949 204.0
134.417252 164.0
134.458786 124.0
134.527542 92.0
134.571899 216.0
134.597305 188.0
134.613464 172.0
134.648117 164.0
134.706329 196.0
134.770538 164.0
134.832443 152.0
134.872223 124.0
135.010956 192.0
135.050278 88.0
135.116364 4688.0
135.146317 148.0
135.177521 356.0
135.242325 200.0
135.271149 176.0
135.334915 28.0
135.351135 100.0
135.383545 216.0
135.476196 96.0
135.517899 176.0
135.717239 128.0
135.735352 88.0
135.784485 148.0
135.844803 80.0
135.861038 192.0
135.88887 156.0
135.930649 128.0
136.049011 136.0
136.089096 176.0
136.119354 552.0
136.201859 156.0
136.227829 224.0
136.306824 76.0
136.326279 184.0
136.342484 104.0
136.385849 60.0
136.406769 184.0
136.478836 164.0
136.499771 188.0
136.570694 104.0
136.671906 128.0
136.85112 64.0
136.881393 148.0
136.914337 164.0
136.983292 188.0
137.05748 168.0
137.132065 6972.0
137.206848 124.0
137.291534 84.0
137.335861 184.0
137.460968 172.0
137.520187 136.0
137.557526 184.0
137.587875 152.0
137.657928 192.0
137.699966 44.0
137.730331 152.0
137.786392 120.0
137.817642 172.0
137.849487 76.0
137.89856 60.0
137.935959 352.0
137.978043 216.0
138.052856 88.0
138.135956 948.0
138.189087 368.0
138.20491 164.0
138.303207 84.0
138.340652 148.0
138.43837 192.0
138.532684 196.0
138.692032 228.0
138.721664 156.0
138.748291 132.0
138.774078 140.0
138.828018 128.0
138.874924 40.0
138.933563 172.0
138.999268 148.0
139.047729 168.0
139.094559 132.0
139.140091 132.0
139.212891 64.0
139.280991 196.0
139.358521 152.0
139.414917 168.0
139.463211 124.0
139.551117 144.0
139.577118 76.0
139.62886 108.0
139.722946 152.0
139.773697 176.0
139.791183 380.0
139.864136 220.0
139.937119 156.0
140.09491 176.0
140.142075 168.0
140.208023 112.0
140.255157 76.0
140.276367 180.0
140.314087 160.0
140.356537 136.0
140.509842 180.0
140.540131 144.0
140.620758 160.0
140.686844 200.0
140.724625 76.0
140.786179 116.0
140.882858 112.0
140.925385 96.0
140.951447 148.0
141.086105 124.0
141.135086 180.0
141.207321 212.0
141.516693 120.0
141.571167 132.0
141.625641 160.0
141.701447 148.0
141.7901 172.0
141.827042 248.0
141.883942 80.0
141.993011 56.0
142.03334 124.0
142.079727 216.0
142.15451 472.0
142.220795 128.0
142.306259 80.0
142.327621 200.0
142.346619 112.0
142.413116 156.0
142.56517 156.0
142.588943 128.0
142.653122 140.0
142.672134 196.0
142.769623 60.0
143.009918 64.0
143.395905 140.0
143.439972 140.0
143.481583 108.0
143.545532 156.0
143.567429 160.0
143.691467 128.0
143.742218 176.0
143.932541 132.0
143.992233 108.0
144.113419 148.0
144.183365 64.0
144.226395 168.0
144.257462 152.0
144.300507 96.0
144.334061 196.0
144.472702 200.0
144.496628 204.0
144.522934 172.0
144.585159 192.0
144.638123 216.0
144.695267 132.0
144.731186 260.0
144.762314 376.0
144.807816 68.0
144.846146 160.0
144.934784 200.0
144.953949 228.0
145.006683 160.0
145.035446 220.0
145.054611 156.0
145.107361 176.0
145.150513 120.0
145.171646 168.0
145.215271 32.0
145.241653 72.0
145.268036 68.0
145.299225 108.0
145.332825 128.0
145.350418 280.0
145.479218 132.0
145.553345 188.0
145.562439 164.0
145.747025 168.0
145.808304 68.0
145.868393 176.0
145.945328 196.0
146.01265 52.0
146.036713 76.0
146.098312 188.0
146.169022 196.0
146.277328 156.0
146.294174 172.0
146.429016 168.0
146.477203 92.0
146.494064 180.0
146.52301 208.0
146.591568 144.0
146.669968 152.0
146.741272 120.0
146.855011 172.0
146.91835 196.0
146.936066 212.0
146.990738 156.0
147.014862 180.0
147.06073 208.0
147.128311 164.0
147.171768 148.0
147.229721 200.0
147.27803 104.0
147.454407 112.0
147.495499 108.0
147.531769 232.0
147.548691 140.0
147.59787 140.0
147.698624 168.0
147.717972 172.0
147.792969 112.0
147.89946 240.0
147.967239 88.0
148.066513 180.0
148.107697 156.0
148.251694 240.0
148.31366 140.0
148.337891 48.0
148.359711 104.0
148.533615 112.0
148.653198 148.0
148.713867 236.0
148.825775 172.0
148.861969 172.0
148.891113 208.0
148.968842 252.0
149.024155 140.0
149.059723 128.0
149.083038 116.0
149.100052 212.0
149.132507 2684.0
149.16568 184.0
149.247772 172.0
149.350479 168.0
149.423462 180.0
149.494019 92.0
149.571899 148.0
149.603546 164.0
149.644943 172.0
149.683899 44.0
149.720428 120.0
149.88826 192.0
150.015259 200.0
150.136108 332.0
150.166443 80.0
150.371384 52.0
150.468246 164.0
150.515411 116.0
150.605774 176.0
150.720596 244.0
150.754288 220.0
150.792755 168.0
150.950378 160.0
150.993469 188.0
151.016418 196.0
151.0849 136.0
151.14827 2056.0
151.178452 156.0
151.202362 220.0
151.25473 224.0
151.272659 116.0
151.313904 196.0
151.339447 296.0
151.513336 28.0
151.572144 140.0
151.616257 48.0
151.667725 112.0
151.751083 68.0
151.784882 204.0
151.819031 124.0
151.944839 96.0
151.971817 84.0
152.084717 140.0
152.152466 472.0
152.212372 48.0
152.322891 104.0
152.350372 196.0
152.391678 168.0
152.411346 152.0
152.521011 160.0
152.561264 196.0
152.601562 184.0
152.618484 236.0
152.708801 96.0
152.836731 188.0
152.861755 164.0
152.999176 140.0
153.041031 140.0
153.097672 116.0
153.151855 304.0
153.177155 132.0
153.233139 168.0
153.388397 136.0
153.413055 160.0
153.483795 220.0
153.723831 140.0
153.758377 208.0
153.793976 236.0
153.817612 80.0
153.866989 184.0
153.901566 68.0
153.954132 208.0
153.98822 84.0
154.059631 180.0
154.104095 92.0
154.159744 584.0
154.202942 100.0
154.250412 208.0
154.269684 156.0
154.341385 60.0
154.452667 76.0
154.573898 112.0
154.620926 44.0
154.71994 100.0
154.752121 52.0
154.90567 192.0
154.932922 192.0
155.031631 176.0
155.159821 276.0
155.319641 112.0
155.356842 136.0
155.37973 160.0
155.463547 148.0
155.550415 132.0
155.649719 136.0
155.682007 152.0
155.704361 180.0
155.739822 156.0
155.793777 176.0
155.87825 144.0
155.963638 112.0
156.089554 160.0
156.130783 168.0
156.169006 212.0
156.2164 184.0
156.279114 96.0
156.325043 156.0
156.383118 116.0
156.405518 144.0
156.452805 144.0
156.556702 172.0
156.637085 116.0
156.709335 84.0
156.726776 124.0
156.841415 176.0
156.878815 80.0
156.951111 120.0
157.022949 124.0
157.168121 248.0
157.252975 80.0
157.3004 188.0
157.445221 68.0
157.476318 160.0
157.51265 144.0
157.530136 164.0
157.55513 188.0
157.697556 168.0
157.762558 172.0
157.84256 108.0
157.860062 80.0
157.887573 140.0
157.935089 144.0
157.985123 120.0
158.062683 188.0
158.122742 180.0
158.205353 32.0
158.300491 204.0
158.42543 168.0
158.453293 212.0
158.581085 144.0
158.709549 132.0
158.760559 192.0
158.791702 116.0
158.848938 156.0
159.085281 68.0
159.10788 176.0
159.242645 168.0
159.313812 140.0
159.354004 72.0
159.434418 200.0
159.522385 148.0
159.615417 196.0
159.708466 180.0
159.771362 124.0
159.811615 152.0
159.879562 260.0
159.965134 64.0
159.982758 128.0
160.002899 32.0
160.055771 68.0
160.118729 156.0
160.171631 216.0
160.226547 80.0
160.310196 100.0
160.504303 44.0
160.52951 112.0
160.769165 180.0
160.885284 200.0
160.908005 244.0
161.178268 240.0
161.238907 116.0
161.266724 68.0
161.307159 144.0
161.32991 144.0
161.34761 96.0
161.390594 136.0
161.428513 164.0
161.512558 164.0
161.554993 104.0
161.666138 168.0
161.731125 192.0
161.828323 140.0
161.914413 236.0
162.01828 144.0
162.07402 236.0
162.106949 48.0
162.327499 140.0
162.444168 112.0
162.520279 140.0
162.563416 152.0
162.604019 132.0
162.652252 104.0
162.68161 232.0
162.781738 112.0
162.816208 204.0
162.884598 152.0
162.903656 52.0
163.032043 120.0
163.065948 128.0
163.145676 1592.0
163.384125 36.0
163.449188 196.0
163.485901 84.0
163.50882 56.0
163.57753 168.0
163.623367 168.0
163.964691 208.0
164.033508 156.0
164.09581 168.0
164.117645 208.0
164.153351 196.0
164.212006 88.0
164.256516 232.0
164.291077 164.0
164.393143 132.0
164.490128 36.0
164.509186 152.0
164.619095 156.0
164.809372 136.0
164.855362 152.0
164.901367 168.0
164.985718 52.0
165.007538 292.0
165.031738 144.0
165.077774 220.0
165.162735 4588.0
165.195419 140.0
165.24147 144.0
165.297775 132.0
165.318237 188.0
165.352493 52.0
165.41806 148.0
165.443665 80.0
165.461578 84.0
165.495895 96.0
165.51535 72.0
165.55632 212.0
165.58194 128.0
165.663849 180.0
165.843277 256.0
166.027878 120.0
166.081741 216.0
166.104813 164.0
166.136612 192.0
166.164703 756.0
166.192429 136.0
166.29213 140.0
166.315231 48.0
166.371704 104.0
166.433319 48.0
166.471848 64.0
166.587418 124.0
166.664505 204.0
166.746735 172.0
166.792099 260.0
166.993561 168.0
167.097229 168.0
167.114471 112.0
167.178802 328.0
167.199387 140.0
167.227692 144.0
167.304916 148.0
167.389893 200.0
167.442703 204.0
167.464203 84.0
167.526398 172.0
167.581161 172.0
167.628265 148.0
167.663284 188.0
167.782181 128.0
167.802155 116.0
167.967377 184.0
168.009979 48.0
168.049759 88.0
168.07814 176.0
168.111694 176.0
168.137497 192.0
168.17366 6392.0
168.222061 200.0
168.243393 148.0
168.302719 204.0
168.333694 124.0
168.363068 172.0
168.424088 128.0
168.470596 124.0
168.610123 72.0
168.737503 232.0
168.938507 156.0
169.013535 196.0
169.122238 164.0
169.177826 536.0
169.236145 68.0
169.417435 144.0
169.461487 168.0
169.479614 132.0
169.583282 140.0
169.684372 72.0
169.710312 120.0
169.753677 160.0
169.761719 116.0
169.993042 192.0
170.013809 176.0
170.047546 116.0
170.094269 128.0
170.135803 76.0
170.16394 124.0
170.186005 300.0
170.322784 112.0
170.515045 144.0
170.54364 164.0
170.598236 164.0
170.619034 160.0
170.655426 52.0
170.788055 160.0
170.823471 148.0
170.853088 136.0
170.871307 144.0
171.061279 120.0
171.173233 148.0
171.243546 96.0
171.262878 284.0
171.311279 148.0
171.386841 140.0
171.514542 220.0
171.647491 132.0
171.764862 164.0
171.793564 112.0
171.817032 172.0
171.856171 188.0
171.890091 108.0
171.98143 80.0
172.046692 180.0
172.242554 108.0
172.318314 160.0
172.347061 204.0
172.399841 220.0
172.433289 96.0
172.48819 220.0
172.522171 148.0
172.560547 232.0
172.697372 188.0
172.786316 200.0
172.820328 160.0
172.856949 144.0
172.922379 160.0
172.940704 120.0
172.972107 156.0
173.026154 108.0
173.172424 216.0
173.207779 56.0
173.239227 128.0
173.265411 100.0
173.296051 200.0
173.401672 128.0
173.485565 96.0
173.527176 188.0
173.5616 124.0
173.649841 244.0
173.68486 172.0
173.713715 88.0
173.753067 144.0
174.011551 160.0
174.131058 128.0
174.191483 136.0
174.304443 148.0
174.449387 136.0
174.597015 164.0
174.630447 152.0
174.68248 204.0
174.81723 96.0
174.906723 100.0
174.991806 388.0
175.088394 240.0
175.109467 236.0
175.16275 224.0
175.256989 56.0
175.351852 168.0
175.420395 148.0
175.456741 136.0
175.776443 164.0
175.924255 92.0
175.977051 184.0
176.019302 100.0
176.045715 120.0
176.073593 180.0
176.122299 144.0
176.299515 172.0
176.346893 136.0
176.468506 212.0
176.499512 148.0
176.550476 164.0
176.587494 52.0
176.695953 156.0
176.725067 176.0
176.908493 204.0
176.980606 176.0
177.008286 152.0
177.119522 188.0
177.161896 968.0
177.21489 180.0
177.361115 152.0
177.384506 124.0
177.426926 160.0
177.633774 160.0
177.710144 168.0
177.777054 124.0
177.812134 220.0
177.842239 128.0
177.960739 152.0
178.018631 104.0
178.042526 136.0
178.135498 132.0
178.165497 308.0
178.310867 52.0
178.393265 72.0
178.477005 192.0
178.632599 172.0
178.6754 180.0
178.736359 88.0
178.75499 116.0
179.02652 124.0
179.177856 2144.0
179.210312 168.0
179.245987 196.0
179.26474 132.0
179.308914 192.0
179.375549 132.0
179.455536 68.0
179.479538 76.0
179.575531 140.0
179.599548 68.0
179.689529 148.0
179.72493 72.0
179.748108 228.0
179.799652 136.0
179.87326 124.0
179.898407 184.0
179.933121 164.0
180.018555 36.0
180.047287 148.0
180.079987 196.0
180.109375 48.0
180.180099 612.0
180.288376 100.0
180.315109 132.0
180.424698 200.0
180.472824 292.0
180.51561 160.0
180.534332 180.0
180.622437 204.0
180.689468 160.0
180.716232 100.0
180.781891 156.0
181.064224 96.0
181.085648 68.0
181.109756 48.0
181.168213 112.0
181.267822 108.0
181.363068 204.0
181.393799 208.0
181.51445 112.0
181.604004 188.0
181.648544 168.0
181.674927 192.0
181.693298 100.0
181.726349 56.0
181.76123 156.0
181.796112 216.0
181.820267 152.0
181.849792 120.0
181.882004 176.0
181.927628 168.0
181.970749 176.0
182.000122 228.0
182.053833 96.0
182.075317 160.0
182.113541 244.0
182.136703 408.0
182.189774 75388.0
182.309723 32.0
182.331665 76.0
182.385834 112.0
182.404602 160.0
182.445618 64.0
182.478394 76.0
182.503067 136.0
182.536423 164.0
182.597122 132.0
182.633392 168.0
182.661102 68.0
182.701614 112.0
182.739288 96.0
182.763229 40.0
182.80014 52.0
182.819656 60.0
182.857224 188.0
182.911514 176.0
182.929214 76.0
182.985168 180.0
183.032043 208.0
183.059296 140.0
183.107269 120.0
183.142029 192.0
183.192123 7316.0
183.254623 40.0
183.278534 180.0
183.304733 44.0
183.324951 200.0
183.348618 72.0
183.376572 60.0
183.420624 72.0
183.4422 60.0
183.477249 44.0
183.519577 80.0
183.588013 48.0
183.639038 64.0
183.687592 84.0
183.729706 72.0
183.784622 168.0
183.841385 80.0
183.938553 200.0
183.969803 140.0
184.030334 204.0
184.060043 188.0
184.086105 76.0
184.121536 160.0
184.194839 728.0
184.230194 108.0
184.351303 212.0
184.389618 56.0
184.431213 72.0
184.470703 80.0
184.492264 144.0
184.516663 148.0
184.563492 76.0
184.612579 116.0
184.646179 116.0
184.678925 100.0
184.707596 180.0
184.741928 124.0
184.795242 188.0
184.871017 48.0
184.89537 124.0
184.92514 184.0
184.960327 84.0
185.070694 52.0
185.129913 120.0
185.236526 176.0
185.31427 132.0
185.36116 52.0
185.409943 96.0
185.512939 136.0
185.583435 44.0
185.61055 112.0
185.650436 68.0
185.702759 96.0
185.724457 88.0
185.779633 152.0
185.9198 184.0
186.050095 224.0
186.07724 152.0
186.098267 176.0
186.136978 112.0
186.16684 120.0
186.297226 160.0
186.34613 128.0
186.378723 84.0
186.590729 168.0
186.61792 116.0
186.805573 76.0
187.074982 76.0
187.096771 124.0
187.162109 116.0
187.314987 152.0
187.372925 188.0
187.396362 76.0
187.568054 40.0
187.75618 68.0
187.805283 156.0
187.85437 136.0
188.03447 188.0
188.121811 148.0
188.288376 108.0
188.457733 140.0
188.540955 256.0
188.624451 136.0
188.737457 156.0
188.925262 176.0
188.947144 144.0
188.96904 196.0
189.155136 100.0
189.19812 188.0
189.382401 160.0
189.407059 60.0
189.485886 212.0
189.637222 80.0
189.664627 92.0
189.892441 140.0
190.065033 160.0
190.163834 92.0
190.342285 152.0
190.413681 124.0
190.56752 144.0
190.748901 120.0
190.779144 76.0
190.966125 168.0
191.018387 156.0
191.081665 76.0
191.177185 596.0
191.285309 52.0
191.344223 80.0
191.445007 148.0
191.621292 204.0
191.687424 68.0
191.706711 168.0
191.805939 132.0
191.916214 124.0
191.935516 84.0
191.997223 192.0
192.14238 204.0
192.175491 180.0
192.274826 156.0
192.346878 76.0
192.371429 176.0
192.423889 116.0
192.495682 176.0
192.62825 100.0
192.686462 176.0
192.794037 152.0
192.849304 112.0
192.884918 204.0
193.020721 116.0
193.042831 160.0
193.195724 580.0
193.338852 172.0
193.372055 172.0
193.440842 108.0
193.506195 120.0
193.621231 108.0
193.684937 72.0
193.787445 64.0
193.842865 220.0
193.867798 52.0
193.898285 232.0
193.975891 56.0
194.009155 92.0
194.03688 116.0
194.05629 112.0
194.188919 1060.0
194.280945 60.0
194.400253 120.0
194.473145 152.0
194.508499 156.0
194.576859 40.0
194.605667 176.0
194.65564 148.0
194.769913 84.0
194.822296 308.0
194.950104 136.0
194.989014 168.0
195.030701 100.0
195.119659 140.0
195.19017 268.0
195.299423 100.0
195.442307 36.0
195.472 196.0
195.531357 152.0
195.570312 48.0
195.589798 128.0
195.614853 228.0
195.654312 116.0
195.676102 136.0
195.784698 132.0
195.825485 124.0
195.852982 68.0
195.898895 140.0
195.951187 188.0
195.972397 188.0
195.996414 172.0
196.047745 124.0
196.066422 292.0
196.104614 160.0
196.13826 228.0
196.162399 272.0
196.205429 88216.0
196.266891 132.0
196.2901 168.0
196.319489 124.0
196.401108 232.0
196.443176 80.0
196.474701 328.0
196.526642 208.0
196.57019 72.0
196.605087 148.0
196.626663 28.0
196.661682 192.0
196.717804 248.0
196.769028 44.0
196.807251 52.0
196.842438 132.0
196.891998 104.0
196.916138 128.0
196.953339 192.0
197.009201 44.0
197.028763 100.0
197.074966 52.0
197.120956 96.0
197.159882 112.0
197.208344 10948.0
197.285187 92.0
197.292694 164.0
197.387924 64.0
197.416656 212.0
197.44101 56.0
197.468323 48.0
197.490555 164.0
197.554337 88.0
197.585114 68.0
197.619934 72.0
197.69841 84.0
197.744614 68.0
197.769806 84.0
197.799515 76.0
197.83699 56.0
197.85939 40.0
197.93219 156.0
197.951782 168.0
198.005859 168.0
198.065338 132.0
198.08902 116.0
198.158752 92.0
198.207901 896.0
198.248734 52.0
198.287964 124.0
198.32753 68.0
198.395599 72.0
198.41597 36.0
198.440277 120.0
198.49823 188.0
198.527542 140.0
198.601425 160.0
198.632843 68.0
198.660904 160.0
198.701828 136.0
198.707184 96.0
198.745071 112.0
198.820496 100.0
198.841232 120.0
198.893585 220.0
198.947144 80.0
198.966797 92.0
198.989258 120.0
199.062271 36.0
199.181686 100.0
199.213928 180.0
199.306656 96.0
199.348801 124.0
199.447174 60.0
199.638351 52.0
199.68898 172.0
199.71666 216.0
199.748047 148.0
199.773361 152.0
199.79306 232.0
199.945007 120.0
200.018188 184.0
200.048477 116.0
200.113907 160.0
200.209641 116.0
200.349274 252.0
200.449097 152.0
200.491364 76.0
200.519547 104.0
200.596909 72.0
200.872009 96.0
200.93689 160.0
201.03447 220.0
201.127686 112.0
201.298187 136.0
201.346207 124.0
201.566544 52.0
201.820953 176.0
201.869019 192.0
201.895142 180.0
202.010437 132.0
202.044388 160.0
202.137756 212.0
202.191528 148.0
202.239639 200.0
202.279266 40.0
202.409515 60.0
202.451981 64.0
202.599274 144.0
202.665527 176.0
202.939377 252.0
203.285446 28.0
203.478455 84.0
203.776672 44.0
203.975616 76.0
204.137665 172.0
204.328247 160.0
204.450607 124.0
204.709656 48.0
204.817886 108.0
204.854919 128.0
204.926147 56.0
204.960342 216.0
205.028732 164.0
205.085739 136.0
205.156998 140.0
205.189072 480.0
205.301147 216.0
205.396545 84.0
205.47641 216.0
205.530762 168.0
205.656204 148.0
205.693298 36.0
205.807495 80.0
205.918869 108.0
206.190857 176.0
206.248993 84.0
206.544846 48.0
206.576309 120.0
206.599197 104.0
206.945496 160.0
207.019943 184.0
207.082962 188.0
207.220459 128.0
207.340805 132.0
207.464066 176.0
207.544342 104.0
207.651398 148.0
207.765198 176.0
207.859879 84.0
207.888565 100.0
208.003372 108.0
208.126831 112.0
208.167831 100.0
208.199265 124.0
208.356598 100.0
208.414062 72.0
208.442795 100.0
208.494522 116.0
208.566376 180.0
208.782684 148.0
208.81366 60.0
208.843857 176.0
208.916199 172.0
208.977631 152.0
209.084106 172.0
209.150299 128.0
209.242416 44.0
209.383514 140.0
209.406555 196.0
209.446884 176.0
209.637039 184.0
209.709091 128.0
209.763855 100.0
209.795563 160.0
210.04068 124.0
210.104141 56.0
210.182053 180.0
210.219543 2376.0
210.25708 120.0
210.335007 124.0
210.411896 120.0
210.485138 88.0
210.516907 196.0
210.567566 200.0
210.597778 88.0
210.6763 108.0
210.704651 180.0
210.730652 60.0
211.045715 72.0
211.117996 152.0
211.172958 84.0
211.21817 348.0
211.268295 96.0
211.444916 144.0
211.543335 68.0
211.563599 64.0
211.690994 52.0
211.853195 68.0
211.880051 164.0
211.915588 92.0
211.995163 68.0
212.051315 140.0
212.096603 148.0
212.18602 204.0
212.223236 272.0
212.290863 184.0
212.334366 188.0
212.66803 144.0
212.746399 72.0
212.766724 172.0
212.816086 120.0
212.850922 156.0
213.004852 128.0
213.312881 128.0
213.371017 72.0
213.469879 192.0
213.501877 168.0
213.525146 44.0
213.653122 164.0
213.757874 132.0
213.853912 52.0
213.944153 96.0
214.267426 100.0
214.506393 96.0
214.529709 104.0
214.563431 176.0
214.810959 172.0
214.929291 176.0
215.092712 248.0
215.332153 152.0
215.356949 212.0
215.653534 168.0
215.793854 208.0
215.945923 176.0
216.007446 128.0
216.08049 124.0
216.27655 120.0
216.374756 132.0
216.403671 192.0
216.469788 40.0
216.613297 140.0
216.645523 212.0
216.715836 52.0
216.745148 164.0
216.777374 72.0
216.830124 152.0
216.866394 288.0
217.055862 128.0
217.115784 192.0
217.223038 176.0
217.460709 132.0
217.534088 188.0
217.566391 148.0
217.601608 116.0
217.692642 140.0
217.974655 88.0
218.580414 140.0
218.612778 196.0
218.739334 128.0
218.771713 148.0
219.048538 148.0
219.212097 496.0
219.266571 184.0
219.366791 164.0
219.525726 164.0
219.676437 160.0
219.697083 112.0
219.779694 236.0
219.803299 128.0
220.036469 132.0
220.065994 140.0
220.107346 156.0
220.134186 88.0
220.20961 124.0
220.25206 120.0
220.272736 132.0
220.305222 172.0
220.337723 76.0
220.367264 76.0
220.452957 60.0
220.535721 140.0
220.819565 128.0
220.979294 108.0
221.239746 148.0
221.30191 176.0
221.529968 108.0
221.627731 116.0
221.692932 136.0
221.737686 152.0
221.898392 216.0
222.010132 44.0
222.105042 148.0
222.225876 148.0
222.410675 120.0
222.606613 56.0
222.668991 72.0
222.811569 136.0
222.856735 240.0
222.933395 128.0
223.171204 68.0
223.206879 44.0
223.290146 152.0
223.358566 128.0
223.391281 116.0
223.412109 120.0
223.563019 100.0
223.661316 140.0
223.730545 36.0
223.831772 124.0
224.025375 164.0
224.046219 140.0
224.216064 160.0
224.236938 188.0
224.293564 124.0
224.335297 216.0
224.487366 156.0
224.529114 168.0
224.612625 168.0
224.642456 48.0
224.728973 132.0
224.800583 112.0
224.824463 144.0
224.848343 136.0
224.967743 212.0
225.027451 160.0
225.109528 188.0
225.236496 148.0
225.263382 68.0
225.370926 88.0
225.426178 148.0
225.521469 108.0
225.657867 140.0
225.726639 128.0
225.950974 140.0
226.169434 68.0
226.247253 120.0
226.426926 172.0
226.468857 176.0
226.629013 120.0
226.696274 128.0
226.816254 196.0
226.873398 124.0
227.025208 164.0
227.054184 164.0
227.107285 144.0
227.14328 132.0
227.215286 148.0
227.264999 204.0
227.47937 56.0
227.524399 148.0
227.569443 124.0
227.647507 52.0
227.73761 84.0
227.842758 100.0
227.872787 124.0
227.950912 72.0
227.983978 216.0
228.050095 152.0
228.103348 168.0
228.194397 184.0
228.328384 164.0
228.459045 228.0
228.543289 108.0
228.642593 208.0
228.672699 148.0
228.735901 100.0
228.811172 124.0
228.87439 92.0
228.895477 164.0
228.925583 60.0
229.130417 140.0
229.203079 152.0
229.263 116.0
229.341354 116.0
229.486053 144.0
229.549377 180.0
229.793701 112.0
230.004959 184.0
230.104584 136.0
230.125717 128.0
230.171005 148.0
230.225357 276.0
230.264618 132.0
230.391495 112.0
230.415665 140.0
230.439835 156.0
230.491196 176.0
230.560699 156.0
230.63324 152.0
230.690674 152.0
230.745087 76.0
230.878143 88.0
230.924759 116.0
231.186722 132.0
231.21698 160.0
231.256332 228.0
231.392548 176.0
231.672653 312.0
231.956024 124.0
232.241058 200.0
232.350266 48.0
232.465576 184.0
232.533676 112.0
232.659317 168.0
232.914917 116.0
233.006058 156.0
233.063782 120.0
233.121521 184.0
233.230927 132.0
233.258286 176.0
233.31604 44.0
233.355576 32.0
233.395096 96.0
233.553238 108.0
233.766205 188.0
233.976227 140.0
234.034088 144.0
234.210724 164.0
234.235092 76.0
234.305862 204.0
234.334518 100.0
234.378281 56.0
234.433136 144.0
234.521515 128.0
234.649551 80.0
234.731644 104.0
234.902664 64.0
235.025665 152.0
235.332993 72.0
235.403214 304.0
235.537613 88.0
235.771088 164.0
235.797318 88.0
235.849274 96.0
235.977676 164.0
236.124466 180.0
236.225403 208.0
236.405914 164.0
236.470184 156.0
236.571198 64.0
236.595688 188.0
236.666107 132.0
236.908066 44.0
236.966278 60.0
237.138229 164.0
237.245163 152.0
237.34021 148.0
237.386215 244.0
237.441422 48.0
237.566147 96.0
237.631607 132.0
237.723663 148.0
237.975922 220.0
238.02449 136.0
238.11969 48.0
238.21492 168.0
238.291718 168.0
238.322449 60.0
238.41156 140.0
238.436142 100.0
238.485321 168.0
238.519135 168.0
238.577545 172.0
238.651321 152.0
238.961975 320.0
239.115845 116.0
239.235886 120.0
239.513031 164.0
239.639343 144.0
239.713303 148.0
239.843582 132.0
239.932144 164.0
240.249786 156.0
240.457901 180.0
240.72821 68.0
240.789978 156.0
240.848663 144.0
241.064926 48.0
241.116501 184.0
241.157913 140.0
241.327667 84.0
241.383331 112.0
241.528687 176.0
241.587463 80.0
241.643158 156.0
241.68956 164.0
241.732956 168.0
241.847397 144.0
241.891312 152.0
242.150833 220.0
242.265442 116.0
242.333603 144.0
242.407501 132.0
242.612534 60.0
242.634232 188.0
242.873016 136.0
243.003311 156.0
243.068466 148.0
243.096405 148.0
243.158463 184.0
243.291946 156.0
243.364105 132.0
243.388199 152.0
243.493774 220.0
243.568329 208.0
243.618027 48.0
243.760956 116.0
243.826218 224.0
243.897705 108.0
243.996933 200.0
244.095078 172.0
244.168198 176.0
244.217972 100.0
244.314392 164.0
244.336182 52.0
244.438858 132.0
244.566452 160.0
244.600693 152.0
244.77504 164.0
245.036682 132.0
245.117706 152.0
245.151978 120.0
245.217422 128.0
245.267303 116.0
245.713242 148.0
245.738205 132.0
245.794373 172.0
245.922318 44.0
246.027008 260.0
246.186874 136.0
246.234543 92.0
246.450089 132.0
246.689697 120.0
246.725128 144.0
247.031601 112.0
247.144241 128.0
247.454102 116.0
247.476013 212.0
247.538651 196.0
247.591888 116.0
247.660782 100.0
247.858154 240.0
247.895767 144.0
247.972656 164.0
247.999191 120.0
248.033661 112.0
248.089706 196.0
248.143387 148.0
248.165344 212.0
248.2845 184.0
248.413574 188.0
248.488388 116.0
248.613907 152.0
248.651566 96.0
248.802246 96.0
248.915268 108.0
249.053467 220.0
249.122574 140.0
249.202911 184.0
249.323669 136.0
249.391602 156.0
249.449387 172.0
249.594009 196.0
249.70723 176.0
250.125702 160.0
250.223297 180.0
250.560287 180.0
251.023636 112.0
251.146637 164.0
251.178177 300.0
251.282288 188.0
251.604202 88.0
251.752609 40.0
251.850525 160.0
251.901062 76.0
252.036911 164.0
252.213898 180.0
252.236023 120.0
252.334015 36.0
252.419388 192.0
252.457336 128.0
252.485153 200.0
252.615494 152.0
252.745209 140.0
252.855972 172.0
253.058563 184.0
253.258072 124.0
253.384781 164.0
253.473511 168.0
253.511536 196.0
253.562241 172.0
253.701706 144.0
253.793655 140.0
253.822189 160.0
253.873413 112.0
253.920502 212.0
254.079102 364.0
254.186981 144.0
254.275848 104.0
254.320282 108.0
254.361542 152.0
254.463135 140.0
254.806137 136.0
254.898285 56.0
255.115616 180.0
255.349716 208.0
255.451508 156.0
255.489685 124.0
255.511948 140.0
255.61377 200.0
255.779266 56.0
255.8302 140.0
255.897064 124.0
255.919342 136.0
256.019623 176.0
256.056274 224.0
256.460907 164.0
256.546997 92.0
256.655396 56.0
256.853119 64.0
257.019012 112.0
257.115082 232.0
257.198792 132.0
257.232849 156.0
257.334534 180.0
257.405273 188.0
257.49469 116.0
257.619263 176.0
257.689545 160.0
257.743866 68.0
257.958008 188.0
258.002747 116.0
258.140228 144.0
258.599854 152.0
258.668152 100.0
258.780212 156.0
258.812225 152.0
258.997986 172.0
259.07486 164.0
259.369659 68.0
259.456238 200.0
259.937347 52.0
260.094604 148.0
260.239075 72.0
260.560242 112.0
260.712372 136.0
260.939484 164.0
261.013458 84.0
261.145294 176.0
261.253723 452.0
261.315796 92.0
261.38208 160.0
261.611877 304.0
261.666626 288.0
261.689148 172.0
261.743896 132.0
261.911377 116.0
262.017487 64.0
262.075684 136.0
262.264435 180.0
262.385071 200.0
262.710815 48.0
263.033508 180.0
263.081116 160.0
263.243378 180.0
263.2789 76.0
263.422058 144.0
263.479156 36.0
263.505005 164.0
263.559937 184.0
263.758118 164.0
263.8573 116.0
263.925201 112.0
264.17099 116.0
264.235687 160.0
264.287476 60.0
264.646759 148.0
264.743896 208.0
264.795715 124.0
264.850525 204.0
264.934998 160.0
264.990082 128.0
265.16507 144.0
265.213684 120.0
265.276978 136.0
265.505493 64.0
265.541168 132.0
265.619019 136.0
265.865601 96.0
266.034363 116.0
266.076569 52.0
266.206451 144.0
266.268158 140.0
266.375366 168.0
266.521545 80.0
266.63205 168.0
266.788055 148.0
267.00592 152.0
267.074951 160.0
267.129517 40.0
267.565613 156.0
267.695862 132.0
267.74469 184.0
267.803314 128.0
267.891266 172.0
268.171509 64.0
268.337769 192.0
268.425812 140.0
268.589081 148.0
268.618225 156.0
268.689911 164.0
268.871277 212.0
268.964111 44.0
268.9935 84.0
269.026154 184.0
269.078064 124.0
269.13205 236.0
269.228577 52.0
269.666382 92.0
269.784058 228.0
270.019501 136.0
270.068542 36.0
270.162659 176.0
270.235382 32.0
270.300842 152.0
270.363007 184.0
270.63797 168.0
270.680542 116.0
271.165405 124.0
271.299622 148.0
271.342438 128.0
271.394897 164.0
271.772095 168.0
271.834442 92.0
271.929596 236.0
271.98407 132.0
272.021515 180.0
272.438568 60.0
272.556854 64.0
272.588684 168.0
272.642303 140.0
272.678436 152.0
272.888916 180.0
272.93158 184.0
272.986847 124.0
273.033508 192.0
273.244049 200.0
273.401978 40.0
273.607208 192.0
273.648865 132.0
273.821838 144.0
273.875031 160.0
273.905731 212.0
273.988098 152.0
274.017761 116.0
274.086945 180.0
274.203674 144.0
274.307648 208.0
274.467194 216.0
274.581451 76.0
274.604523 124.0
274.6474 164.0
274.724823 144.0
274.869324 132.0
274.964142 132.0
274.99057 156.0
275.103699 188.0
275.112427 52.0
275.127991 236.0
275.238434 140.0
275.327301 148.0
275.386932 172.0
275.500488 144.0
275.548645 132.0
275.580872 164.0
275.703949 68.0
275.797302 160.0
275.941711 60.0
275.967163 152.0
276.034515 88.0
276.12381 148.0
276.167786 136.0
276.240326 216.0
276.290955 160.0
276.345459 124.0
276.37854 108.0
276.457611 124.0
276.497681 164.0
276.533203 92.0
276.596344 108.0
276.643311 152.0
276.673096 88.0
276.735413 152.0
276.778107 212.0
276.871765 248.0
276.894958 180.0
276.949738 128.0
277.010895 140.0
277.037292 120.0
277.097015 120.0
277.120209 108.0
277.148438 100.0
277.177399 204.0
277.20166 208.0
277.207245 120.0
277.252777 156.0
277.32959 292.0
277.362946 100.0
277.392944 192.0
277.417877 272.0
277.442139 264.0
277.479187 132.0
277.530334 304.0
277.569733 88.0
277.602814 368.0
277.630615 128.0
277.639496 208.0
277.666473 92.0
277.6716 212.0
277.691498 336.0
277.739014 228.0
277.75296 264.0
277.787933 220.0
277.822601 312.0
277.830688 68.0
277.856262 352.0
277.881134 208.0
277.933319 124.0
277.975342 240.0
278.005402 216.0
278.0401 328.0
278.07077 196.0
278.106964 336.0
278.150574 840.0
278.177368 540.0
278.204712 540.0
278.284698 238416.0
278.3591 180.0
278.416656 240.0
278.446472 192.0
278.479462 104.0
278.513367 248.0
278.552521 216.0
278.59787 440.0
278.646729 372.0
278.680908 312.0
278.72049 124.0
278.791595 364.0
278.831177 4680.0
278.893127 204.0
278.932831 212.0
278.95929 172.0
279.020477 240.0
279.077911 104.0
279.086792 148.0
279.101227 332.0
279.151031 160.0
279.182343 92.0
279.227112 136.0
279.286713 64536.0
279.369873 208.0
279.409576 168.0
279.452576 28.0
279.485413 244.0
279.524658 132.0
279.552948 92.0
279.590302 88.0
279.606049 164.0
279.654053 80.0
279.679932 124.0
279.69281 80.0
279.701355 116.0
279.745728 144.0
279.775299 92.0
279.811005 56.0
279.837616 68.0
279.870514 176.0
279.893921 148.0
279.953339 104.0
279.993591 184.0
280.023224 96.0
280.052429 80.0
280.080841 100.0
280.125854 236.0
280.191437 168.0
280.228485 160.0
280.288574 6452.0
280.36203 60.0
280.407837 148.0
280.430115 112.0
280.461823 56.0
280.49231 200.0
280.524323 96.0
280.551453 88.0
280.582367 88.0
280.616119 132.0
280.701935 116.0
280.757355 72.0
280.781494 180.0
280.814941 204.0
280.848206 132.0
280.856476 64.0
280.896362 236.0
280.956818 196.0
281.006592 128.0
281.027405 344.0
281.059723 232.0
281.070618 88.0
281.079376 172.0
281.102722 140.0
281.135376 240.0
281.163452 112.0
281.182434 80.0
281.214478 236.0
281.256226 176.0
281.294403 824.0
281.358185 224.0
281.392426 168.0
281.415619 132.0
281.460541 112.0
281.492432 160.0
281.513153 76.0
281.554047 64.0
281.598785 84.0
281.640472 64.0
281.64743 48.0
281.661072 104.0
281.694733 76.0
281.740845 80.0
281.780945 60.0
281.815002 120.0
281.836945 100.0
281.878265 56.0
281.916779 240.0
281.9422 160.0
281.980682 216.0
282.024658 184.0
282.076996 92.0
282.13324 68.0
282.160095 148.0
282.204834 32.0
282.235901 100.0
282.265594 124.0
282.356567 44.0
282.414856 56.0
282.45578 48.0
282.50238 108.0
282.530487 60.0
282.575256 96.0
282.661194 140.0
282.693909 72.0
282.747986 32.0
282.785706 196.0
282.836426 76.0
282.98233 48.0
283.012451 72.0
283.068878 80.0
283.156464 76.0
283.193298 52.0
283.24353 236.0
283.279083 92.0
283.313293 44.0
283.38089 48.0
283.521149 88.0
283.578613 44.0
283.612122 92.0
283.662415 68.0
283.76297 100.0
283.980957 84.0
284.109711 124.0
284.176544 100.0
284.259399 96.0
284.296143 68.0
284.383575 44.0
284.410431 44.0
284.638733 96.0
285.115753 160.0
285.169525 40.0
285.223328 84.0
285.556183 76.0
285.586456 68.0
285.744568 92.0
286.037354 44.0
286.118164 76.0
286.559357 56.0
286.69751 88.0
286.734589 76.0
287.021118 72.0
287.095306 36.0
287.287567 48.0
287.510284 56.0
287.861359 88.0
288.303925 60.0
288.530396 68.0
289.222412 92.0
289.481171 104.0
289.833466 44.0
289.918182 124.0
289.945312 32.0
289.969025 64.0
290.43692 60.0
290.609955 124.0
290.840729 48.0
290.884857 60.0
290.912018 108.0
291.017242 36.0
291.13269 76.0
291.407837 68.0
291.441833 200.0
291.465607 96.0
291.56076 128.0
291.703522 96.0
291.798706 108.0
292.03714 68.0
292.096893 136.0
292.523346 112.0
292.833191 88.0
292.86908 120.0
292.919464 132.0
293.222351 56.0
293.259766 104.0
293.651215 136.0
293.876343 68.0
294.251801 136.0
294.296173 72.0
294.425934 108.0
294.504486 112.0
294.709473 44.0
294.822906 80.0
294.887177 60.0
294.938446 92.0
295.608795 160.0
295.690918 52.0
296.276459 68.0
296.298889 68.0
296.399811 48.0
296.468353 52.0
296.567749 48.0
297.541962 72.0
297.710236 52.0
297.754883 120.0
297.981598 88.0
298.421539 32.0
298.517792 96.0
298.620972 52.0
298.992554 96.0
299.020081 40.0
299.870819 60.0
301.807495 80.0
302.014984 104.0
302.284851 96.0
302.333282 52.0
304.559174 76.0
305.031738 44.0
306.48999 96.0
307.288452 112.0
307.38266 144.0
307.658417 76.0
308.7276 116.0
309.427429 52.0
309.462463 40.0
309.872253 36.0
310.061462 40.0
310.107025 120.0
310.773346 116.0
311.327972 124.0
311.5914 124.0
311.936859 108.0
313.692413 32.0
314.351959 88.0
315.803986 44.0
317.021912 60.0
317.841064 80.0
317.94397 48.0
320.130341 76.0
321.099701 52.0
321.385071 100.0
321.602783 80.0
322.27417 56.0
322.363495 68.0
325.411774 40.0
326.730774 44.0
326.910675 96.0
327.317474 80.0
327.89386 116.0
327.965942 76.0
328.092133 76.0
329.246796 104.0
329.542999 84.0
332.744751 44.0
335.754059 72.0
336.483856 40.0
338.344788 68.0
338.546173 36.0
338.590118 108.0
338.64505 56.0
339.194672 72.0
339.752106 116.0
340.251221 36.0
340.802155 92.0
342.023102 80.0
342.733887 120.0
347.718933 40.0
348.060455 92.0
350.795044 96.0
352.594147 64.0
353.428101 52.0
353.970856 124.0
354.53653 68.0
355.046387 68.0
360.082062 52.0
363.068176 108.0
363.849823 60.0
364.845215 100.0
367.606659 80.0
368.389404 68.0
368.442871 84.0
370.118134 80.0
371.16037 76.0
371.662872 40.0
373.776276 84.0
374.249725 44.0
374.989349 120.0
377.765686 120.0
379.71402 116.0
380.447388 40.0
382.239197 60.0
383.394745 120.0
383.886993 76.0
388.51416 120.0
389.020416 112.0
389.342377 92.0
389.369873 76.0
393.267761 88.0
395.797913 80.0
399.250366 112.0
406.252411 72.0
406.858398 40.0
406.890503 56.0
407.577332 48.0
408.449768 56.0
409.210358 104.0
409.911224 100.0
410.080505 112.0
411.490173 116.0
412.918854 120.0
414.003479 64.0
416.010559 84.0
416.107971 64.0
417.904449 84.0
418.686035 120.0
420.941223 84.0
422.208069 116.0
424.288177 48.0
425.457428 68.0
425.633972 144.0
425.744843 48.0
425.888611 60.0
427.673126 120.0
427.87326 52.0
428.348419 56.0
429.370636 60.0
431.315338 104.0
432.204529 148.0
433.301727 48.0
433.807343 52.0
438.666962 60.0
441.83667 140.0
442.192352 88.0
442.665436 52.0
444.031647 104.0
444.199432 112.0
444.48053 188.0
445.084991 68.0
445.467163 64.0
445.563782 68.0
445.908356 124.0
446.825073 60.0
448.147125 92.0
449.893188 44.0
452.616058 76.0
452.836273 80.0
455.313141 60.0
455.895172 60.0
456.388275 72.0
456.562622 92.0
457.277374 44.0
458.879089 84.0
460.598938 48.0
461.380951 80.0
463.41391 84.0
463.945374 104.0
464.858978 36.0
465.820709 88.0
465.962494 104.0
469.104126 72.0
473.559143 76.0
474.287079 84.0
476.578491 80.0
478.048248 92.0
478.20929 44.0
479.189087 112.0
479.324188 80.0
480.117584 52.0
480.571259 64.0
482.952148 156.0
483.472778 68.0
483.831726 80.0
484.764679 68.0
485.395935 104.0
485.672211 52.0
486.220673 96.0
489.253662 76.0
489.738037 76.0
490.284363 96.0
491.227936 52.0
492.614075 68.0
493.347656 100.0
495.9328 64.0
496.833008 60.0
499.574036 68.0
502.389557 100.0
502.791138 80.0
503.157166 88.0
503.603699 52.0
504.206879 64.0
504.873016 92.0
505.20401 52.0
508.470551 52.0
509.687561 124.0
510.766571 72.0
511.644073 76.0
512.986572 44.0
517.373169 60.0
529.728394 36.0
530.218628 72.0
532.870972 80.0
536.082764 64.0
536.386963 84.0
536.640503 64.0
537.212402 92.0
538.158508 52.0
545.501709 88.0
549.548889 60.0
550.664612 40.0
550.879456 112.0
551.753357 80.0
555.687561 56.0
556.842346 64.0
558.299255 160.0
559.503845 52.0
570.023254 116.0
572.216003 96.0
572.820862 56.0
573.025696 88.0
574.217468 132.0
575.816284 88.0
577.044434 72.0
577.178284 124.0
579.691406 52.0
582.445374 72.0
582.62793 88.0
582.844116 56.0
583.127625 56.0
584.589661 72.0
584.820679 48.0
586.010193 36.0
586.140259 84.0
588.837036 76.0
591.835266 44.0
591.932129 104.0
604.374084 80.0
604.868408 48.0
605.411865 76.0
606.038879 84.0
611.913208 64.0
614.861023 76.0
617.350952 48.0
619.949951 36.0
626.311218 92.0
628.947266 100.0
629.481506 52.0
636.718018 120.0
637.702759 72.0
638.069702 100.0
639.211487 60.0
647.070557 56.0
648.929993 44.0
650.248901 132.0
653.389282 152.0
660.342102 56.0
660.541565 192.0
670.445984 100.0
674.347778 52.0
675.133667 72.0
675.387085 52.0
685.474731 56.0
686.00116 48.0
690.648621 56.0
696.498352 84.0
699.664124 64.0
701.228577 80.0
701.407837 108.0
704.40509 116.0
704.616394 44.0
706.128235 48.0
706.281616 40.0
706.810669 52.0
707.096436 100.0
709.003052 84.0
710.556702 184.0
717.454651 56.0
725.634583 216.0
726.358582 48.0
728.043884 68.0
729.672058 100.0
740.036682 68.0
741.672729 88.0
743.424561 76.0
744.363708 96.0
744.885132 148.0
745.471924 60.0
746.602661 68.0
747.875793 48.0
748.670715 40.0
750.190918 92.0
750.997925 40.0
753.093872 180.0
759.646118 172.0
761.237793 68.0
761.314697 128.0
764.222595 152.0
767.169128 76.0
769.182617 80.0
770.916931 96.0
774.319336 152.0
774.967468 52.0
776.303345 184.0
777.651489 180.0
781.703003 36.0
784.214722 128.0
786.378845 92.0
789.882263 200.0
795.132385 92.0
795.317627 96.0
796.665283 108.0
798.019775 132.0
798.784607 40.0
801.757507 56.0
802.856873 196.0
803.144531 116.0
803.657898 156.0
804.199646 64.0
804.905334 172.0
806.238525 168.0
808.461121 52.0
811.338562 96.0
812.308289 244.0
815.516541 132.0
817.091736 88.0
818.833618 180.0
819.186768 200.0
819.31781 140.0
819.739441 156.0
820.406311 188.0
820.463318 68.0
821.005005 144.0
823.601929 40.0
826.672119 176.0
827.977356 132.0
828.475708 128.0
829.567688 176.0
830.183777 76.0
831.497559 88.0
832.065857 48.0
834.07074 160.0
834.944702 164.0
835.128784 84.0
835.51416 96.0
835.571716 176.0
835.629272 144.0
835.96875 140.0
839.01001 144.0
842.461121 176.0
842.882874 136.0
845.114868 200.0
847.39032 52.0
847.598938 168.0
848.671265 240.0
850.968933 84.0
852.979004 196.0
855.829773 172.0
856.586853 204.0
856.872314 108.0
857.676575 144.0
859.000244 128.0
859.181091 164.0
859.916321 136.0
862.924805 28.0
863.404297 64.0
863.573914 88.0
868.230103 168.0
868.599609 68.0
868.986816 136.0
869.55603 172.0
870.730225 200.0
871.382263 188.0
871.746582 140.0
871.864136 220.0
872.845825 132.0
874.746216 172.0
874.852173 152.0
875.42334 56.0
875.482178 104.0
876.866699 260.0
878.38208 156.0
878.553162 88.0
878.671143 148.0
878.948425 56.0
879.692078 140.0
880.146729 84.0
880.938171 128.0
881.239441 48.0
883.58667 144.0
883.639954 236.0
884.432922 168.0
884.69928 156.0
885.178894 176.0
885.326965 240.0
892.209961 148.0
892.352661 104.0
893.155518 124.0
893.815918 168.0
894.303894 100.0
895.327942 164.0
897.026062 88.0
899.424072 92.0
900.49884 136.0
900.887085 72.0
901.436829 192.0
902.967285 96.0
903.296265 148.0
903.433838 96.0
903.72699 92.0
904.421204 192.0
905.103699 160.0
906.24176 144.0
909.510193 216.0
909.744324 216.0
911.15564 108.0
912.063049 112.0
913.84314 48.0
913.909302 88.0
914.264343 176.0
915.191406 164.0
915.721375 192.0
917.179504 188.0
920.322632 204.0
920.962769 120.0
922.122864 44.0
922.255859 180.0
923.247375 128.0
923.44696 80.0
923.604248 200.0
924.929382 160.0
925.219971 152.0
926.88562 132.0
927.06134 208.0
927.25531 96.0
927.32196 200.0
927.625061 164.0
927.891785 188.0
928.243469 140.0
928.595215 152.0
929.696045 208.0
931.776062 184.0
932.256104 164.0
932.961182 160.0
933.356384 168.0
935.041504 104.0
935.784119 184.0
936.015503 176.0
936.173889 112.0
936.326111 132.0
936.374817 172.0
936.910889 212.0
937.203308 268.0
937.398315 192.0
938.178467 152.0
938.263855 64.0
938.367493 140.0
939.019958 140.0
940.679688 148.0
941.161987 136.0
941.577271 152.0
942.786926 76.0
943.055847 220.0
943.557068 216.0
943.826111 60.0
944.211365 44.0
944.664001 120.0
944.858398 252.0
946.242981 136.0
946.94104 192.0
948.313538 236.0
949.423218 100.0
950.061157 168.0
950.36792 208.0
950.668579 184.0
951.153442 84.0
951.755127 168.0
952.123596 156.0
953.192505 184.0
953.555115 176.0
954.409607 124.0
955.110718 116.0
957.098572 140.0
958.909729 112.0
960.025635 204.0
961.648193 116.0
961.771667 124.0
961.839539 144.0
961.963013 72.0
962.22229 160.0
963.513123 192.0
964.501831 148.0
964.705872 184.0
965.045898 136.0
965.423096 220.0
965.488037 144.0
965.886963 168.0
966.004517 212.0
966.493286 40.0
967.198792 32.0
969.487244 172.0
969.682556 168.0
970.048279 140.0
970.928711 148.0
971.431152 156.0
972.001953 352.0
972.448792 64.0
972.538025 180.0
972.97644 236.0
973.137878 196.0
973.293091 208.0
973.56012 144.0
973.876831 196.0
975.281128 212.0
975.960876 176.0
977.003662 120.0
977.072083 148.0
977.63208 188.0
977.681885 184.0
978.391479 200.0
979.64325 116.0
981.082825 64.0
981.400757 204.0
982.473511 152.0
982.57959 68.0
982.810425 156.0
983.216064 160.0
983.409546 112.0
983.746643 208.0
984.081848 144.0
985.09552 44.0
985.914001 160.0
986.389038 160.0
986.482788 196.0
988.340332 108.0
988.87854 144.0
990.14325 136.0
990.725769 164.0
990.919983 64.0
992.562195 116.0
992.606079 180.0
992.731506 128.0
992.888306 132.0
993.251709 140.0
994.761902 248.0
994.852295 224.0
995.291809 64.0
995.36084 196.0
996.667419 212.0
997.949646 88.0
998.414978 212.0
998.484192 140.0
998.767212 108.0
999.308228 180.0
999.622864 288.0
1000.869202 192.0
1001.499023 172.0
1001.631287 36.0
1002.059692 80.0
1002.252197 72.0
1003.112122 128.0
1003.944397 172.0
1004.165161 252.0
1005.395386 120.0
1006.733765 224.0
1008.041443 160.0
1008.174194 112.0
1008.275269 140.0
1008.774658 156.0
1008.945312 184.0
1009.172913 152.0
1009.98877 144.0
1010.558105 164.0
1010.653015 28.0
1011.589722 72.0
1011.798584 204.0
1012.115173 156.0
1012.38562 216.0
1012.457153 204.0
1013.033569 156.0
1014.484741 76.0
1014.706665 148.0
1014.941284 84.0
1015.62616 140.0
1016.006775 176.0
1016.31134 44.0
1017.907898 200.0
1018.095093 124.0
1018.542114 168.0
1018.590515 56.0
1018.641357 160.0
1018.882751 160.0
1019.14325 164.0
1019.257629 112.0
1019.632568 40.0
1019.82959 112.0
1019.886841 144.0
1020.001221 140.0
1020.401733 184.0
1020.586121 60.0
1021.139404 116.0
1022.679138 192.0
1023.067444 132.0
1023.302979 188.0
1023.716919 180.0
1025.539062 164.0
1026.597412 128.0
1027.254272 152.0
1028.08374 176.0
1028.377319 152.0
1028.49231 168.0
1029.283936 164.0
1029.347778 204.0
1029.922607 140.0
1030.005615 96.0
1030.133423 244.0
1030.925659 148.0
1031.507324 116.0
1031.743774 76.0
1032.549561 108.0
1032.613525 176.0
1033.080444 180.0
1033.393921 92.0
1033.509033 68.0
1033.669067 160.0
1033.950684 104.0
1034.889404 80.0
1035.096558 212.0
1035.660156 76.0
1035.961182 276.0
1036.56543 152.0
1036.864624 164.0
1037.588989 32.0
1037.890381 140.0
1038.108398 180.0
1038.381714 160.0
1038.467529 48.0
1038.813965 224.0
1039.622437 224.0
1040.90625 148.0
1041.137451 200.0
1041.580688 160.0
1041.831177 216.0
1042.268066 152.0
1043.065063 80.0
1043.495728 152.0
1043.936035 160.0
1044.016602 164.0
1044.248169 152.0
1044.949341 256.0
1045.270996 216.0
1045.908203 136.0
1046.255859 120.0
1046.313721 204.0
1047.157349 104.0
1047.679077 136.0
1047.83374 228.0
1048.909912 232.0
1048.987305 180.0
1049.760986 176.0
1049.902832 168.0
1050.67688 200.0
1050.780151 52.0
1051.13501 164.0
1051.257568 176.0
1051.315674 208.0
1051.373779 184.0
1051.883667 96.0
1052.903809 176.0
1054.286377 120.0
1054.525513 36.0
1054.803467 196.0
1055.28833 200.0
1055.799194 152.0
1056.271362 196.0
1056.685425 160.0
1057.863281 56.0
1058.543091 112.0
1059.508179 160.0
1059.925293 184.0
1060.86792 132.0
1061.154419 168.0
1061.277588 156.0
1061.355347 132.0
1061.524048 152.0
1062.419067 132.0
1063.411865 144.0
1063.72998 172.0
1064.002686 184.0
1064.320801 164.0
1064.599976 232.0
1065.996704 92.0
1067.290283 140.0
1067.374756 228.0
1067.843018 116.0
1068.142212 160.0
1068.2854 208.0
1068.975098 164.0
1069.469727 208.0
1069.957886 184.0
1071.325562 176.0
1071.716431 180.0
1072.387695 116.0
1072.578979 172.0
1073.385132 40.0
1073.85498 100.0
1074.89856 196.0
1075.368408 104.0
1076.053833 136.0
1076.569702 76.0
1077.039917 212.0
1077.085693 168.0
1077.516846 120.0
1078.059204 216.0
1078.170288 156.0
1078.216064 184.0
1078.680176 208.0
1078.745483 172.0
1078.797729 196.0
1079.528198 96.0
1080.458862 188.0
1080.661743 132.0
1080.792603 136.0
1081.231079 152.0
1081.636841 144.0
1082.082031 56.0
1082.357056 152.0
1082.468384 60.0
1082.763062 260.0
1083.01123 180.0
1083.372192 132.0
1083.614624 124.0
1083.758911 176.0
1083.863647 120.0
1083.924927 164.0
1084.374756 48.0
1084.833618 200.0
1085.430298 172.0
1085.55481 208.0
1086.204102 52.0
1086.630615 184.0
1087.752808 144.0
1087.805298 204.0
1087.995728 100.0
1088.284546 156.0
1088.343628 124.0
1088.468384 212.0
1088.580078 196.0
1088.63916 188.0
1089.098877 152.0
1090.551025 180.0
1091.044067 160.0
1091.366211 168.0
1091.767334 224.0
1092.293579 120.0
1092.471191 68.0
1093.102783 144.0
1095.334717 156.0
1095.61145 180.0
1095.861694 128.0
1096.072632 168.0
1096.125366 104.0
1096.197754 188.0
1096.58667 220.0
1097.179932 204.0
1097.232666 156.0
1097.455444 136.0
1098.023926 40.0
1098.650635 64.0
1098.973877 128.0
1099.422607 192.0
1099.547974 240.0
1099.80542 36.0
1099.94397 196.0
1100.023193 160.0
1100.155273 180.0
1100.465576 156.0
1100.511841 216.0
1101.198608 148.0
1101.872437 180.0
1101.964844 68.0
1102.407593 172.0
1102.751221 164.0
1103.703247 152.0
1103.789185 128.0
1104.02063 228.0
1104.463745 124.0
1104.999634 168.0
1105.310669 132.0
1105.476074 152.0
1106.46228 132.0
1107.064819 184.0
1107.740479 168.0
1108.131348 112.0
1108.487915 192.0
1108.568726 144.0
1109.039185 196.0
1109.165161 132.0
1109.463501 148.0
1110.113281 124.0
1110.405029 108.0
1111.240967 176.0
1112.229736 116.0
1113.092773 132.0
1113.222168 208.0
1113.982788 124.0
1114.402832 188.0
1114.487793 192.0
1114.667114 144.0
1114.733643 68.0
1115.29187 200.0
1115.617554 100.0
1115.783813 192.0
1115.969971 188.0
1116.269165 184.0
1116.408813 100.0
1117.093994 132.0
1117.18042 160.0
1117.406616 124.0
1117.473145 148.0
1117.719238 188.0
1117.90564 40.0
1117.972168 156.0
1118.651123 144.0
1118.844238 120.0
1119.177124 68.0
1119.376831 104.0
1120.367188 52.0
1120.458496 192.0
1121.022217 152.0
1121.262085 168.0
1121.96875 216.0
1122.628906 44.0
1122.782227 136.0
1122.862305 168.0
1123.21582 128.0
1123.409302 156.0
1123.582764 164.0
1124.209961 172.0
1124.31665 56.0
1124.710449 180.0
1124.964111 176.0
1125.257935 136.0
1125.578369 92.0
1125.84314 164.0
1126.31311 160.0
1127.435547 140.0
1127.555786 128.0
1127.6427 156.0
1127.950195 284.0
1128.47168 148.0
1128.892944 152.0
1129.106934 132.0
1129.153687 200.0
1129.248657 172.0
1129.621948 196.0
1129.856079 92.0
1130.210693 176.0
1130.552002 172.0
1130.900024 148.0
1131.736816 36.0
1131.857422 216.0
1132.158691 148.0
1132.309448 148.0
1132.426636 104.0
1133.505127 192.0
1133.699585 124.0
1133.786621 164.0
1134.490479 196.0
1134.765381 128.0
1135.060425 340.0
1135.623779 204.0
1135.979248 160.0
1136.153687 188.0
1137.354858 172.0
1137.542847 172.0
1137.784546 112.0
1137.952393 136.0
1138.301514 244.0
1138.415649 224.0
1138.462646 124.0
1138.516357 152.0
1138.592163 112.0
1139.013428 40.0
1139.228394 96.0
1139.503906 184.0
1140.783691 156.0
1141.69519 180.0
1141.970947 168.0
1142.287109 164.0
1142.408203 212.0
1142.912842 176.0
1142.966675 172.0
1143.397339 96.0
1143.585815 136.0
1144.157959 56.0
1144.485962 184.0
1144.535034 96.0
1145.491333 132.0
1146.21228 164.0
1146.44812 132.0
1146.508789 80.0
1146.77832 232.0
1146.913208 208.0
1147.567139 152.0
1147.75061 228.0
1147.97168 156.0
1148.194214 184.0
1148.544922 164.0
1148.781128 172.0
1148.889038 140.0
1149.023926 188.0
1149.664917 180.0
1149.860718 148.0
1150.427734 164.0
1150.603271 72.0
1150.785522 160.0
1150.96106 196.0
1151.454102 120.0
1152.109253 184.0
1152.271362 152.0
1152.987671 96.0
1153.68396 148.0
1153.846191 128.0
1153.927246 80.0
1154.115479 200.0
1154.792847 44.0
1155.077026 216.0
1155.178467 200.0
1155.530273 208.0
1155.631714 120.0
1156.572388 128.0
1156.802612 164.0
1157.560913 112.0
1157.764038 200.0
1158.414307 60.0
1158.949463 132.0
1159.051147 128.0
1159.545898 252.0
1159.735596 200.0
1160.057495 204.0
1160.098755 232.0
1160.603394 100.0
1160.714111 212.0
1160.847534 148.0
1161.600342 40.0
1161.797119 148.0
1161.86499 276.0
1162.238159 164.0
1162.824951 116.0
1163.208618 204.0
1163.412231 152.0
1164.104858 184.0
1164.451172 144.0
1164.668579 120.0
1164.770386 188.0
1165.055786 164.0
1166.081787 240.0
1167.353149 180.0
1167.427979 48.0
1167.747559 52.0
1167.863159 136.0
1167.917603 128.0
1167.972046 224.0
1168.529907 148.0
1168.829224 144.0
1169.189941 124.0
1169.251221 188.0
1169.394165 140.0
1170.108887 128.0
1171.123535 28.0
1172.404419 88.0
1172.683838 172.0
1173.41333 140.0
1173.699707 168.0
1173.897461 72.0
1174.436157 88.0
1174.627197 160.0
1174.763672 116.0
1174.934204 136.0
1175.241211 128.0
1175.862183 32.0
1176.135254 84.0
1177.241333 52.0
1177.330078 136.0
1178.587036 188.0
1179.331909 172.0
1179.434448 192.0
1179.502808 88.0
1179.858276 156.0
1180.152222 128.0
1180.336914 152.0
1180.425781 124.0
1181.102295 132.0
1182.601318 144.0
1183.450195 208.0
1183.604614 140.0
1183.874756 156.0
1184.635132 68.0
1186.052856 140.0
1187.130005 192.0
1187.349487 152.0
1188.769531 128.0
1190.259155 128.0
1190.320923 196.0
1191.461182 116.0
1191.674072 192.0
1191.77002 160.0
1191.785522 152.0
1191.857056 256.0
1192.175781 164.0
1192.251343 128.0
1192.367188 160.0
1192.424316 164.0
1192.519409 176.0
1192.741333 112.0
1192.952393 160.0
1193.028076 136.0
1193.75 48.0
1193.83252 128.0
1193.963257 176.0
1194.224609 60.0
1194.901733 212.0
1195.882812 144.0
1196.096191 144.0
1196.626221 180.0
1196.819092 216.0
1197.818726 100.0
1199.299194 40.0
1199.361206 244.0
1199.964233 252.0
1202.126831 88.0
1202.368408 244.0
1202.554688 124.0
1202.775635 196.0
1202.920532 168.0
1203.583374 180.0
1203.811279 196.0
1204.07373 192.0
1204.432861 88.0
1204.571045 116.0
1204.89563 44.0
1205.227295 40.0
1205.344849 112.0
1205.483032 196.0
1207.09375 92.0
1207.411865 164.0
1208.14502 132.0
1209.7229 168.0
1210.863037 60.0
1210.913818 184.0
1211.26709 56.0
1211.392578 140.0
1211.613525 208.0
1211.765869 236.0
1211.970215 136.0
1213.172852 128.0
1213.470947 36.0
1213.624268 164.0
1213.678101 168.0
1213.803711 116.0
1213.914673 248.0
1214.358521 160.0
1214.483398 48.0
1214.608276 156.0
1215.288208 176.0
1215.537964 100.0
1215.811523 204.0
1216.710938 132.0
1217.252563 160.0
1217.773438 100.0
1218.023438 164.0
1218.127686 56.0
1218.349976 212.0
1219.1073 176.0
1219.50354 172.0
1220.532349 44.0
1220.796631 68.0
1221.450439 124.0
1221.5896 240.0
1221.742676 176.0
1222.132202 228.0
1222.584595 192.0
1223.092651 144.0
1224.018555 168.0
1224.199707 188.0
1224.387695 140.0
1224.659302 188.0
1224.770752 132.0
1225.160889 164.0
1225.87854 212.0
1226.024902 176.0
1226.498779 164.0
1226.728882 148.0
1226.784668 100.0
1226.848267 184.0
1227.300537 152.0
1227.481934 148.0
1227.670166 224.0
1228.576904 172.0
1228.828125 116.0
1229.177002 216.0
1229.532837 180.0
1229.595703 132.0
1230.265747 156.0
1231.690308 208.0
1232.514771 188.0
1232.696411 124.0
1234.479004 144.0
1234.877686 128.0
1235.129517 84.0
1235.451294 144.0
1235.906006 252.0
1236.157959 36.0
1236.262939 156.0
1236.41687 172.0
1236.997803 64.0
1237.270874 164.0
1237.63501 176.0
1238.330933 148.0
1238.650513 72.0
1239.393066 132.0
1239.547241 180.0
1240.079834 160.0
1241.285767 120.0
1241.375366 196.0
1241.713501 36.0
1242.239624 420.0
1242.32373 132.0
1242.401001 180.0
1242.555298 88.0
1243.664062 76.0
1243.860596 152.0
1244.464355 184.0
1244.618896 148.0
1244.955933 196.0
1245.012085 188.0
1245.159546 108.0
1245.742554 136.0
1245.819824 196.0
1246.424072 132.0
1246.550537 48.0
1246.916016 204.0
1247.105835 120.0
1247.288574 48.0
1247.372925 164.0
1247.520508 208.0
1248.315063 184.0
1248.547119 184.0
1248.772217 112.0
1249.19873 120.0
1249.623413 172.0
1249.855591 208.0
1249.915527 176.0
1249.996338 228.0
1250.348145 176.0
1250.664917 144.0
1250.714233 172.0
1250.981689 36.0
1251.80542 148.0
1252.380859 176.0
1252.516846 128.0
1252.946533 88.0
1254.229126 208.0
1254.447632 236.0
1254.764893 132.0
1254.919922 164.0
1255.061035 232.0
1255.187866 172.0
1255.397827 88.0
1255.773315 148.0
1256.144409 180.0
1256.24585 64.0
1256.372803 156.0
1256.549194 152.0
1256.598633 176.0
1256.711548 168.0
1256.824341 52.0
1256.887939 180.0
1257.007812 224.0
1257.276001 128.0
1257.755981 180.0
1258.066528 180.0
1258.709106 168.0
1258.765625 204.0
1259.259888 160.0
1259.339355 128.0
1259.94519 244.0
1260.383179 124.0
1260.993774 212.0
1261.400879 44.0
1261.712036 92.0
1261.853394 172.0
1262.037231 136.0
1262.10083 168.0
1262.638306 252.0
1264.428223 116.0
1264.718506 224.0
1264.874146 196.0
1265.114868 148.0
1265.355591 76.0
1265.498169 220.0
1266.819336 164.0
1267.246704 128.0
1267.404297 232.0
1267.515869 164.0
1268.047485 244.0
1268.125366 156.0
1268.189209 236.0
1268.352173 176.0
1268.889648 128.0
1268.961914 140.0
1269.011475 160.0
1269.14624 148.0
1269.366089 124.0
1269.65686 72.0
1270.848511 100.0
1271.210449 152.0
1271.345337 140.0
1271.891846 116.0
1272.346191 44.0
1272.417114 172.0
1272.800537 180.0
1273.64563 116.0
1274.351074 284.0
1275.407837 64.0
1275.656738 148.0
1275.912598 184.0
1276.047729 172.0
1276.701904 196.0
1276.837036 136.0
1276.943726 208.0
1277.22876 168.0
1277.505615 124.0
1277.918335 124.0
1278.053467 216.0
1278.266968 76.0
1278.651245 112.0
1279.320312 200.0
1279.598022 132.0
1280.367065 232.0
1280.651978 168.0
1280.716064 120.0
1280.865601 184.0
1281.421265 52.0
1281.763306 152.0
1282.03418 176.0
1282.356445 164.0
1283.196045 152.0
1283.310059 188.0
1283.630981 244.0
1284.522461 136.0
1284.900635 68.0
1285.014771 212.0
1285.285889 112.0
1285.457153 116.0
1286.484985 208.0
1287.027588 156.0
1287.163208 100.0
1287.42749 176.0
1287.755981 152.0
1288.070312 180.0
1288.462158 164.0
1288.841919 156.0
1288.949097 88.0
1289.426147 116.0
1289.570801 176.0
1289.921021 136.0
1290.246582 180.0
1290.59314 68.0
1291.677612 120.0
1291.851807 152.0
1292.180908 204.0
1292.817749 144.0
1293.168457 148.0
1293.376099 104.0
1293.526367 60.0
1293.648071 80.0
1294.356934 140.0
1294.528809 136.0
1295.430298 188.0
1295.517212 152.0
1295.846802 208.0
1295.925537 168.0
1296.004395 44.0
1296.119019 172.0
1296.21936 136.0
1297.445068 156.0
1297.595581 200.0
1297.717407 60.0
1297.975586 160.0
1298.240967 52.0
1298.427368 208.0
1298.542114 124.0
1298.692749 128.0
1299.015503 212.0
1299.108765 260.0
1299.316895 164.0
1299.417358 148.0
1299.575195 152.0
1300.536743 128.0
1300.60144 196.0
1300.694702 52.0
1300.917725 124.0
1301.118286 108.0
1301.254639 140.0
1301.714233 104.0
1301.872192 160.0
1302.482666 212.0
1302.820312 48.0
1303.43103 156.0
1303.589111 180.0
1303.754395 140.0
1303.970093 152.0
1304.224487 192.0
1304.422852 76.0
1304.559448 188.0
1304.796753 196.0
1304.868652 160.0
1305.420166 216.0
1306.055176 204.0
1306.206299 208.0
1306.450806 52.0
1306.609131 296.0
1306.781738 148.0
1307.170288 272.0
1307.220703 84.0
1307.508545 204.0
1307.731689 152.0
1308.095581 160.0
1308.242798 208.0
1308.52356 128.0
1308.595581 160.0
1308.775513 252.0
1309.373291 140.0
1309.819824 208.0
1310.064819 232.0
1310.158447 168.0
1310.237671 196.0
1310.633911 160.0
1310.713257 180.0
1311.325806 144.0
1311.498779 156.0
1311.693359 116.0
1311.859131 88.0
1311.967285 64.0
1312.118774 184.0
1312.356689 52.0
1313.308594 184.0
1313.943359 112.0
1314.210327 212.0
1314.484619 168.0
1314.989746 124.0
1315.105225 176.0
1315.264038 124.0
1315.393921 228.0
1316.238647 136.0
1316.88147 176.0
1316.932007 152.0
1317.379883 148.0
1318.05188 176.0
1318.716675 124.0
1319.302124 188.0
1320.061401 148.0
1320.177002 200.0
1320.343384 172.0
1320.460205 156.0
1320.582031 124.0
1320.943726 204.0
1321.204224 180.0
1321.406738 124.0
1321.4646 148.0
1321.580444 268.0
1321.833618 176.0
1322.000122 132.0
1322.276245 152.0
1322.369263 196.0
1322.890381 156.0
1323.303101 44.0
1323.62854 176.0
1324.092407 184.0
1324.186523 108.0
1324.295166 160.0
1324.541382 128.0
1324.664551 168.0
1324.715332 192.0
1325.606445 156.0
1325.896362 104.0
1326.483521 164.0
1326.722656 44.0
1327.484009 176.0
1327.643555 124.0
1327.701538 192.0
1327.817627 104.0
1328.434204 196.0
1328.499512 84.0
1328.680786 196.0
1329.747559 152.0
1329.841919 128.0
1330.21936 196.0
1330.270142 196.0
1330.393555 156.0
1330.850952 144.0
1331.417358 184.0
1331.620972 156.0
1331.954834 156.0
1332.129272 152.0
1332.281738 148.0
1333.081055 188.0
1333.669678 152.0
1334.054932 212.0
1334.183716 204.0
1334.489624 152.0
1334.709351 192.0
1335.371094 52.0
1335.640259 112.0
1336.280396 132.0
1336.651367 144.0
1336.964478 132.0
1337.277466 148.0
1337.342896 140.0
1337.444824 144.0
1337.859741 164.0
1337.976196 60.0
1338.027222 76.0
1338.136353 156.0
1338.740845 156.0
1338.799072 184.0
1338.959229 108.0
1339.090332 112.0
1339.323486 164.0
1339.817383 208.0
1340.467285 156.0
1340.547485 204.0
1340.809814 160.0
1341.130493 156.0
1341.487671 188.0
1342.078247 196.0
1342.595947 160.0
1342.851196 40.0
1342.986694 236.0
1343.077393 196.0
1343.164917 176.0
1343.252441 136.0
1343.40564 112.0
1343.661011 156.0
1344.208252 136.0
1344.78479 116.0
1344.916138 88.0
1345.558594 188.0
1345.616943 168.0
1345.879761 200.0
1345.963867 208.0
1346.347168 164.0
1346.858398 96.0
1347.588989 60.0
1347.822754 80.0
1348.714355 176.0
1348.853271 248.0
1349.043335 236.0
1349.094482 348.0
1349.174927 40.0
1349.686768 108.0
1349.840332 36.0
1350.498535 208.0
1350.674072 168.0
1350.849609 188.0
1350.966675 172.0
1351.881348 108.0
1352.48877 192.0
1352.9646 140.0
1353.020142 128.0
1353.71875 136.0
1353.878174 208.0
1354.399902 184.0
1354.963989 168.0
1356.026489 68.0
1356.407715 176.0
1356.689819 188.0
1356.906128 88.0
1357.089478 144.0
1357.243408 56.0
1357.331421 152.0
1357.382812 200.0
1357.612427 200.0
1357.837524 124.0
1358.468262 28.0
1358.673706 164.0
1359.116089 232.0
1359.480835 160.0
1359.737671 188.0
1359.811035 56.0
1360.236816 132.0
1360.499146 176.0
1361.037109 180.0
1361.088501 180.0
1361.455688 116.0
1361.558472 164.0
1361.977173 144.0
1362.043213 124.0
1362.138672 136.0
1362.204834 132.0
1362.373779 148.0
1362.43335 220.0
1362.498657 156.0
1363.328979 152.0
1363.461304 144.0
1363.777344 152.0
1363.836182 120.0
1364.067383 192.0
1364.262451 108.0
1364.850708 136.0
1364.998169 340.0
1365.071289 136.0
1365.284546 152.0
1365.33606 116.0
1365.733154 200.0
1366.108398 232.0
1366.314331 180.0
1367.116333 244.0
1367.760864 164.0
1367.999634 184.0
1368.095337 168.0
1368.397217 112.0
1368.669678 52.0
1368.948364 228.0
1369.05249 156.0
1369.391357 48.0
1369.546021 260.0
1370.20166 240.0
1370.267944 152.0
1370.36377 208.0
1371.159546 108.0
1371.417603 152.0
1371.734497 140.0
1371.933594 184.0
1371.985107 160.0
1372.164917 188.0
1372.744629 184.0
1372.83313 72.0
1373.098633 300.0
1373.194458 96.0
1373.393677 76.0
1373.96106 188.0
1374.367432 168.0
1374.751221 64.0
1374.943115 216.0
1375.040161 160.0
1375.149658 128.0
1375.238281 132.0
1375.356445 144.0
1375.45459 332.0
1375.62207 120.0
1375.710693 188.0
1375.821411 128.0
1375.873169 128.0
1375.998657 100.0
1376.25708 80.0
1377.800659 184.0
1378.258789 100.0
1378.739136 120.0
1378.90918 212.0
1379.44873 196.0
1379.589111 144.0
1379.894043 172.0
1380.091919 76.0
1380.483887 208.0
1380.794434 52.0
1381.060669 140.0
1381.31958 176.0
1381.38623 168.0
1382.086914 172.0
1382.15564 104.0
1382.245361 152.0
1382.718018 160.0
1383.508301 188.0
1384.206055 124.0
1384.629761 188.0
1385.672729 176.0
1385.924561 172.0
1386.473022 192.0
1386.591553 176.0
1386.658203 176.0
1386.880615 164.0
1387.095581 192.0
1387.177124 300.0
1387.295776 164.0
1387.35498 72.0
1387.555176 112.0
1387.607056 228.0
1387.659058 76.0
1387.799927 164.0
1388.244751 84.0
1388.414551 144.0
1388.786255 100.0
1389.194214 160.0
1389.246094 120.0
1389.30542 128.0
1389.847046 156.0
1390.129028 152.0
1390.500122 128.0
1390.61145 36.0
1391.324097 160.0
1391.47998 76.0
1391.814087 184.0
1391.925537 128.0
1392.096313 176.0
1392.244873 112.0
1393.002441 228.0
1393.448242 64.0
1393.648804 180.0
1393.7677 96.0
1394.168945 124.0
1394.273071 136.0
1394.342407 192.0
1394.481079 144.0
1395.1427 184.0
1395.261597 140.0
1395.425171 136.0
1395.990356 96.0
1396.481201 188.0
1396.756348 192.0
1396.897705 164.0
1397.686401 152.0
1397.745972 200.0
1397.946777 96.0
1398.222168 88.0
1398.616699 148.0
1398.972046 212.0
1399.204834 132.0
1399.271729 192.0
1399.361084 56.0
1399.56958 144.0
1399.852539 136.0
1399.946045 136.0
1400.669434 220.0
1400.999634 168.0
1401.111328 40.0
1401.267822 92.0
1401.319946 160.0
1401.41687 160.0
1401.692505 152.0
1401.791626 176.0
1401.871338 132.0
1402.370728 212.0
1403.101318 152.0
1403.188721 164.0
1403.24707 200.0
1403.697754 140.0
1404.212402 188.0
1404.279419 148.0
1404.369019 152.0
1404.443604 172.0
1404.615112 40.0
1405.165161 156.0
1405.211914 244.0
1405.338745 240.0
1405.50293 156.0
1405.80896 164.0
1406.017822 148.0
1406.189575 40.0
1406.406006 100.0
1406.928467 192.0
1407.040527 192.0
1407.137451 200.0
1407.361572 92.0
1407.732666 180.0
1407.794678 172.0
1408.048584 160.0
1408.407104 32.0
1408.481812 204.0
1408.994507 184.0
1409.09436 156.0
1409.998535 156.0
1410.148071 180.0
1410.544189 196.0
1410.596558 52.0
1411.224487 112.0
1411.353516 200.0
1412.047119 92.0
1412.11438 152.0
1412.278931 212.0
1412.346313 132.0
1412.720337 144.0
1413.041992 36.0
1413.984863 204.0
1414.096191 156.0
1414.853271 200.0
1415.175171 136.0
1415.343262 144.0
1416.448364 192.0
1416.560669 76.0
1416.7854 168.0
1416.957764 188.0
1417.324829 168.0
1417.766968 252.0
1417.826904 124.0
1417.939331 168.0
1418.186768 88.0
1419.723755 180.0
1419.851196 140.0
1420.293701 60.0
1420.617188 164.0
1420.751343 140.0
1420.901367 212.0
1421.223999 128.0
1421.321533 168.0
1421.771851 180.0
1421.956543 200.0
1422.032471 168.0
1422.112915 144.0
1422.327271 104.0
1422.417236 164.0
1422.507324 128.0
1422.732544 228.0
1422.822632 192.0
1423.228149 152.0
1423.318237 128.0
1423.400879 152.0
1423.475952 164.0
1423.56604 88.0
1423.836426 348.0
1424.189453 160.0
1424.271973 148.0
1424.497437 220.0
1425.196045 184.0
1425.496704 132.0
1425.639404 52.0
1425.752197 40.0
1425.834839 232.0
1425.977661 124.0
1426.030273 192.0
1426.584961 132.0
1426.646606 192.0
1426.900757 200.0
1427.09021 220.0
1427.22522 100.0
1427.541382 140.0
1428.100342 136.0
1428.248413 212.0
1428.301025 124.0
1428.72229 196.0
1429.345093 200.0
1429.429565 144.0
1429.497314 144.0
1429.617676 132.0
1430.325195 112.0
1430.402344 256.0
1430.618774 220.0
1430.678955 212.0
1430.859741 128.0
1431.032837 140.0
1431.216064 160.0
1431.326538 192.0
1431.868774 112.0
1432.049438 116.0
1432.185059 148.0
1432.667236 204.0
1432.921265 144.0
1433.413086 176.0
1433.601562 124.0
1434.114014 44.0
1434.204468 136.0
1434.483398 200.0
1434.566284 104.0
1434.739624 136.0
1435.335327 136.0
1435.961304 132.0
1436.202637 136.0
1436.281494 176.0
1436.730713 36.0
1436.881592 60.0
1436.941895 132.0
1437.349365 104.0
1437.417236 88.0
1437.711548 172.0
1438.338013 204.0
1438.390869 132.0
1438.57959 128.0
1440.089844 128.0
1440.293823 160.0
1440.530762 144.0
1440.743164 204.0
1441.230591 144.0
1441.411987 248.0
1442.296143 164.0
1443.989868 152.0
1444.436157 92.0
1444.504272 96.0
1444.632812 192.0
1444.829468 208.0
1444.91272 152.0
1445.374268 80.0
1445.50293 160.0
1445.571045 124.0
1446.494385 164.0
1446.585205 36.0
1447.304321 192.0
1447.425659 164.0
1447.486206 148.0
1447.574219 160.0
1447.728516 164.0
1448.016357 156.0
1448.076782 180.0
1448.417847 160.0
1448.515869 204.0
1448.64502 76.0
1449.413818 148.0
1449.736084 248.0
1449.9104 152.0
1450.213623 164.0
1450.478882 124.0
1450.741333 160.0
1450.986816 192.0
1451.130859 216.0
1451.34314 208.0
1451.464478 156.0
1451.926758 160.0
1452.253174 140.0
1452.351807 132.0
1452.807007 156.0
1453.224243 208.0
1453.474609 136.0
1453.550171 176.0
1453.634033 100.0
1454.559937 148.0
1454.673828 136.0
1454.802856 120.0
1455.023071 140.0
1455.197632 140.0
1455.455811 116.0
1455.713989 260.0
1455.782349 128.0
1456.032959 132.0
1456.442749 144.0
1456.490723 184.0
1456.800171 176.0
1456.997681 172.0
1457.088867 140.0
1457.347168 180.0
1457.445923 148.0
1457.795532 104.0
1458.044312 248.0
1458.393066 180.0
1458.730347 180.0
1459.095337 128.0
1459.316895 140.0
1459.56665 68.0
1460.251099 216.0
1460.327148 152.0
1460.806396 76.0
1460.943359 76.0
1460.996582 340.0
1461.240112 128.0
1461.521606 184.0
1461.630737 128.0
1462.099976 268.0
1462.183594 192.0
1462.358643 160.0
1463.302612 216.0
1463.652954 216.0
1464.285034 152.0
1465.06958 168.0
1465.161011 136.0
1465.221924 128.0
1465.381958 52.0
1465.549561 156.0
1465.770508 200.0
1465.84668 160.0
1466.120605 136.0
1466.258301 180.0
1466.540283 216.0
1466.700317 200.0
1466.880493 156.0
1467.10437 148.0
1467.172974 164.0
1467.554199 204.0
1467.668579 136.0
1468.492188 192.0
1468.743896 56.0
1468.858276 184.0
1468.968018 384.0
1469.034912 184.0
1469.526367 168.0
1469.683594 192.0
1469.888306 40.0
1470.620972 120.0
1470.849976 180.0
1470.987305 192.0
1471.140015 172.0
1471.399536 228.0
1471.552246 164.0
1471.664429 196.0
1471.94165 176.0
1472.292969 156.0
1472.491577 152.0
1472.583252 176.0
1473.018555 200.0
1473.196777 152.0
1473.231689 188.0
1473.331787 120.0
1473.49231 132.0
1473.851318 96.0
1474.325195 148.0
1474.60791 152.0
1474.730225 112.0
1474.944214 76.0
1475.178955 128.0
1475.25769 128.0
1475.685791 152.0
1476.114014 160.0
1476.175171 136.0
1476.42749 176.0
1476.542236 244.0
1476.641724 100.0
1476.746582 124.0
1476.901733 136.0
1477.049438 200.0
1477.804443 184.0
1478.464111 156.0
1479.358154 176.0
1479.633667 124.0
1479.700073 156.0
1480.039551 144.0
1480.544922 136.0
1480.759399 44.0
1480.843628 128.0
1480.943237 172.0
1481.157715 116.0
1482.069336 132.0
1482.283325 176.0
1482.34729 176.0
1482.429565 168.0
1482.743774 60.0
1482.828003 80.0
1482.889282 140.0
1482.996704 44.0
1483.326294 56.0
1483.379883 44.0
1484.169556 184.0
1484.468628 148.0
1484.58374 92.0
1484.936523 148.0
1485.141602 176.0
1485.626831 192.0
1485.972046 68.0
1486.025757 176.0
1486.248291 140.0
1487.192261 176.0
1487.912109 172.0
1488.197876 144.0
1488.474365 156.0
1488.697021 232.0
1488.881348 68.0
1489.098999 192.0
1489.265381 204.0
1489.603394 68.0
1489.764648 228.0
1490.095581 176.0
1490.271729 96.0
1490.463867 148.0
1490.5177 180.0
1490.848145 120.0
1490.947632 160.0
1491.655151 140.0
1492.052612 172.0
1492.385498 228.0
1492.723877 136.0
1492.831543 116.0
1493.162231 124.0
1493.585205 120.0
1493.654419 292.0
1493.854492 196.0
1493.969849 188.0
1494.077515 136.0
1494.203125 264.0
1494.31604 176.0
1494.685425 120.0
1494.862427 200.0
1494.91626 204.0
1495.239502 212.0
1495.454956 160.0
1495.578125 152.0
1495.716675 172.0
1495.855225 208.0
1496.663696 168.0
1496.917725 152.0
1497.187256 112.0
1497.379883 156.0
1498.019165 188.0
1498.304199 220.0
1498.543091 168.0
1498.843506 160.0
1499.86853 216.0
1499.991943 140.0
1500.678101 228.0
1501.171509 100.0
1501.264038 200.0
1501.441528 144.0
1501.561768 208.0
1502.351685 164.0
1502.536499 176.0
1503.182983 108.0
1503.277588 176.0
1503.37793 148.0
1503.655762 44.0
1503.712769 168.0
1503.986328 168.0
1504.265503 136.0
1504.636108 132.0
1505.15332 192.0
1505.292358 40.0
