>compound MLS002153882-01!Ipratropium bromide22254-24-6
>formula C20H30NO3
>ionization [M+H]+
>parentmass 333.22984527209053
#inchi InChI=1S/C20H30NO3/c1-14(2)21(3)16-9-10-17(21)12-18(11-16)24-20(23)19(13-22)15-7-5-4-6-8-15/h4-8,14,16-19,22H,9-13H2,1-3H3/q+1/t16-,17-,18?,19?,21?/m1/s1
#inchikey OEXHQOGQTVQTAT
#origInchi InChI=1S/C20H30NO3.BrH/c1-14(2)21(3)16-9-10-17(21)12-18(11-16)24-20(23)19(13-22)15-7-5-4-6-8-15;/h4-8,14,16-19,22H,9-13H2,1-3H3;1H/q+1;/p-1/t16-,17-,18?,19?,21?;/m1./s1
#Ion_Source LC-ESI
#Instrument qTof
#Compound_Source NIH Pharmacologically Active Library
#PI Dorrestein
#Data_Collector VP/LMS
#Scan -1
#Precursor_MZ 332.224
#ExactMass 332.223
#Charge 1
#CAS_Number N/A
#Pubmed_ID N/A
#Smiles CC(C)[N+]1(C)[C@@H]2CC[C@@H]1CC(C2)OC(=O)C(CO)c3ccccc3.[Br-]
#INCHI_AUX N/A
#Library_Class 1
#SpectrumID CCMSLIB00000085708
#IonMode Positive
#UpdateWorkflowName UPDATE-SINGLE-ANNOTATED-GOLD
#LibraryQualityString Gold
#TaskID d252d724072548979f1f6f1ced849daf
##Scan# 1299
#SpectrumFile p4-E06_GE6_01_18378.mzXML
#LibraryName Pharm_Active_Library.mgf
#MQScore -1
#Organism Pharm_Active_Library
#TIC_Query 0
#RT_Query -1
#MZErrorPPM -1
#SharedPeaks 0
#MassDiff 0
#LibMZ -1
#SpecMZ 332.224
#SpecCharge 0
#internalFilename spec-00000.mgf

>collision 10
44.901703 108.0
44.929714 148.0
44.960403 100.0
44.991955 176.0
45.013752 204.0
45.031166 188.0
45.060555 68.0
45.073917 144.0
45.139416 180.0
45.154129 212.0
45.175529 176.0
45.212997 152.0
45.249138 144.0
45.273987 172.0
45.29467 132.0
45.344246 176.0
45.444824 184.0
45.458477 320.0
45.474346 164.0
45.491795 220.0
45.510128 104.0
45.548309 188.0
45.64362 72.0
45.665138 104.0
45.714241 120.0
45.775547 104.0
45.828026 68.0
45.895424 128.0
45.912952 52.0
45.96944 156.0
45.989857 108.0
46.056023 124.0
46.067738 208.0
46.085743 56.0
46.096554 124.0
46.15155 128.0
46.17902 120.0
46.222988 160.0
46.256149 140.0
46.310577 204.0
46.342823 128.0
46.361797 136.0
46.402462 120.0
46.428226 88.0
46.452641 220.0
46.461716 180.0
46.497417 284.0
46.562363 172.0
46.60334 152.0
46.640034 132.0
46.69743 168.0
46.722984 164.0
46.783226 76.0
46.804649 176.0
46.850609 156.0
46.855423 116.0
46.858292 188.0
46.871399 236.0
46.894566 76.0
46.90617 144.0
46.920464 200.0
46.947735 204.0
46.965466 288.0
47.009125 180.0
47.020042 220.0
47.037788 152.0
47.110165 216.0
47.133392 156.0
47.147057 112.0
47.187481 192.0
47.226357 76.0
47.269691 136.0
47.300247 208.0
47.32626 192.0
47.408936 192.0
47.49894 116.0
47.529472 188.0
47.548038 184.0
47.568966 136.0
47.597759 44.0
47.610115 144.0
47.622543 172.0
47.682934 164.0
47.696678 132.0
47.740673 176.0
47.791573 204.0
47.801205 196.0
47.857529 244.0
47.907223 176.0
47.920998 144.0
47.967857 232.0
47.994053 52.0
48.00922 104.0
48.031288 192.0
48.051983 172.0
48.090622 176.0
48.101665 196.0
48.136181 116.0
48.155514 192.0
48.19696 48.0
48.216309 152.0
48.231647 164.0
48.252247 184.0
48.263309 96.0
48.295185 320.0
48.342155 172.0
48.361263 124.0
48.429379 196.0
48.438091 168.0
48.462627 160.0
48.482719 144.0
48.504898 112.0
48.52916 224.0
48.538864 192.0
48.558281 152.0
48.579086 136.0
48.608021 136.0
48.685963 168.0
48.726246 116.0
48.73875 160.0
48.767937 216.0
48.82494 152.0
48.887547 148.0
48.939049 196.0
48.955727 172.0
48.979439 140.0
49.018448 224.0
49.053291 92.0
49.068554 156.0
49.085423 172.0
49.103489 140.0
49.123539 192.0
49.157898 120.0
49.19698 172.0
49.231888 116.0
49.257027 112.0
49.266808 88.0
49.308727 164.0
49.336681 220.0
49.374435 80.0
49.414967 152.0
49.535633 224.0
49.556419 228.0
49.595863 216.0
49.654545 176.0
49.664364 128.0
49.717678 168.0
49.735924 220.0
49.753399 152.0
49.797707 156.0
49.861431 112.0
49.876392 152.0
49.88623 144.0
49.910133 48.0
49.939915 272.0
49.987499 196.0
50.011639 184.0
50.045868 232.0
50.075184 184.0
50.105778 40.0
50.172016 144.0
50.214317 180.0
50.241119 128.0
50.265106 168.0
50.296154 64.0
50.316502 268.0
50.332863 120.0
50.349133 192.0
50.37241 180.0
50.40773 176.0
50.428928 240.0
50.44479 236.0
50.458881 64.0
50.493969 196.0
50.513771 188.0
50.526501 116.0
50.536407 332.0
50.556217 156.0
50.575394 132.0
50.607437 196.0
50.619923 124.0
50.638405 156.0
50.652496 92.0
50.722786 192.0
50.734688 204.0
50.750507 180.0
50.81411 208.0
50.892403 176.0
50.931942 164.0
50.970299 120.0
51.012939 252.0
51.05275 176.0
51.071575 152.0
51.08831 48.0
51.114643 112.0
51.138115 136.0
51.152916 340.0
51.175125 148.0
51.222126 140.0
51.240643 196.0
51.286247 164.0
51.320461 188.0
51.35664 76.0
51.437447 124.0
51.448868 108.0
51.4818 128.0
51.52742 212.0
51.554569 144.0
51.564571 188.0
51.587597 148.0
51.614609 104.0
51.628628 164.0
51.697578 116.0
51.736225 120.0
51.794937 252.0
51.81786 176.0
51.84795 184.0
51.882351 108.0
51.898125 420.0
51.923935 152.0
51.933975 184.0
52.022861 140.0
52.053738 152.0
52.097622 72.0
52.143604 148.0
52.20686 196.0
52.219803 156.0
52.25803 176.0
52.312187 428.0
52.352852 144.0
52.391102 172.0
52.5093 148.0
52.551136 96.0
52.562679 204.0
52.58144 40.0
52.602493 328.0
52.635929 140.0
52.66663 256.0
52.71286 148.0
52.758331 136.0
52.81551 96.0
52.873386 180.0
52.897991 152.0
52.935635 148.0
52.968948 156.0
53.027805 216.0
53.141468 180.0
53.166138 32.0
53.19186 244.0
53.25325 76.0
53.266323 128.0
53.282303 152.0
53.350609 116.0
53.388412 180.0
53.40461 148.0
53.507732 160.0
53.525204 160.0
53.564529 132.0
53.602409 128.0
53.633015 148.0
53.692795 188.0
53.734295 204.0
53.746769 156.0
53.765739 64.0
53.77737 188.0
53.804363 160.0
53.843117 156.0
53.91909 164.0
53.968792 164.0
53.998039 136.0
54.077049 196.0
54.090221 196.0
54.145863 84.0
54.166367 268.0
54.192738 224.0
54.208378 196.0
54.236076 140.0
54.24963 196.0
54.314419 164.0
54.33147 152.0
54.362835 100.0
54.406414 116.0
54.422112 232.0
54.437706 176.0
54.456799 136.0
54.483875 184.0
54.502338 168.0
54.590538 172.0
54.608242 108.0
54.636135 64.0
54.674671 192.0
54.708248 112.0
54.730331 184.0
54.748005 40.0
54.799561 156.0
54.836403 116.0
54.849667 184.0
54.877678 160.0
54.899796 132.0
54.929115 208.0
54.949562 76.0
54.96323 296.0
55.000908 196.0
55.059185 132.0
55.097633 140.0
55.190742 184.0
55.214752 168.0
55.260223 80.0
55.288338 112.0
55.300179 196.0
55.343109 116.0
55.44236 192.0
55.4557 156.0
55.480186 100.0
55.524918 152.0
55.563953 200.0
55.594505 332.0
55.608471 180.0
55.626282 152.0
55.639412 180.0
55.654903 172.0
55.769352 164.0
55.784637 160.0
55.823891 144.0
55.840656 232.0
55.954243 212.0
55.979141 160.0
55.996529 164.0
56.018871 168.0
56.030788 148.0
56.044201 160.0
56.082947 156.0
56.097855 144.0
56.118725 400.0
56.156006 32.0
56.170925 164.0
56.202255 128.0
56.21867 388.0
56.279873 68.0
56.332146 168.0
56.357544 188.0
56.451717 80.0
56.466869 152.0
56.520527 64.0
56.533142 164.0
56.566925 140.0
56.586384 120.0
56.611843 140.0
56.623821 212.0
56.640713 188.0
56.700233 92.0
56.737705 180.0
56.767693 128.0
56.796192 256.0
56.832195 260.0
56.859207 148.0
56.878719 212.0
56.896736 104.0
56.919258 280.0
56.934273 156.0
56.952297 140.0
56.971825 148.0
56.983845 40.0
57.032475 156.0
57.046967 148.0
57.062 132.0
57.125164 220.0
57.16943 172.0
57.187935 180.0
57.249382 136.0
57.28624 144.0
57.302761 232.0
57.329937 148.0
57.347107 192.0
57.383701 180.0
57.426426 132.0
57.446037 176.0
57.468666 212.0
57.488285 224.0
57.542625 100.0
57.572826 172.0
57.594475 156.0
57.624184 64.0
57.636272 128.0
57.665722 172.0
57.717896 208.0
57.734016 188.0
57.759827 160.0
57.829849 100.0
57.842834 248.0
57.886913 248.0
57.910038 160.0
57.960091 320.0
57.999493 180.0
58.01762 200.0
58.052559 104.0
58.067722 104.0
58.098061 152.0
58.154209 156.0
58.170906 168.0
58.187603 116.0
58.224049 188.0
58.275696 120.0
58.338009 164.0
58.35321 232.0
58.511444 168.0
58.607399 272.0
58.68697 176.0
58.747948 236.0
58.842285 44.0
58.859081 156.0
58.903374 72.0
58.938351 188.0
58.974571 128.0
58.987419 196.0
59.014938 180.0
59.062347 156.0
59.110901 136.0
59.115833 100.0
59.119328 132.0
59.144695 152.0
59.207752 240.0
59.261139 188.0
59.313473 136.0
59.351799 112.0
59.396275 120.0
59.419289 176.0
59.461075 156.0
59.505238 144.0
59.51889 188.0
59.586636 108.0
59.611221 60.0
59.621979 140.0
59.66502 200.0
59.689621 172.0
59.712688 176.0
59.769608 132.0
59.800388 172.0
59.811607 208.0
59.821938 148.0
59.855812 152.0
59.907597 176.0
59.977383 176.0
59.992939 140.0
60.011436 208.0
60.025314 164.0
60.065414 140.0
60.131763 136.0
60.14933 232.0
60.181164 80.0
60.215137 176.0
60.235332 160.0
60.331738 148.0
60.346489 148.0
60.414539 108.0
60.433105 192.0
60.451675 68.0
60.468697 48.0
60.505848 200.0
60.518234 172.0
60.560047 136.0
60.588287 140.0
60.611172 144.0
60.626671 104.0
60.668522 136.0
60.685574 184.0
60.702633 144.0
60.725895 124.0
60.739853 168.0
60.751617 212.0
60.766228 64.0
60.814335 192.0
60.834515 168.0
60.845383 84.0
60.889439 248.0
60.90284 176.0
60.917606 308.0
60.958336 100.0
60.978973 176.0
61.100998 136.0
61.12516 172.0
61.142277 208.0
61.156288 160.0
61.168541 156.0
61.213654 132.0
61.249714 164.0
61.295883 164.0
61.343208 156.0
61.37439 196.0
61.427418 160.0
61.455502 148.0
61.491394 144.0
61.560211 196.0
61.652256 120.0
61.670006 168.0
61.70853 264.0
61.731983 160.0
61.75388 216.0
61.788296 136.0
61.831245 188.0
61.854023 140.0
61.908821 196.0
61.968346 128.0
61.982449 92.0
62.001255 140.0
62.012226 172.0
62.058346 160.0
62.136108 120.0
62.15023 152.0
62.170628 60.0
62.194172 152.0
62.271111 196.0
62.336731 156.0
62.364346 340.0
62.398396 252.0
62.4613 208.0
62.472313 168.0
62.486641 148.0
62.53368 104.0
62.569885 180.0
62.649647 224.0
62.675831 212.0
62.767048 152.0
62.798382 160.0
62.837818 132.0
62.863064 132.0
62.893238 204.0
62.938477 176.0
63.004578 80.0
63.041512 320.0
63.057316 448.0
63.071545 156.0
63.095257 192.0
63.105774 120.0
63.188271 148.0
63.202808 168.0
63.309525 164.0
63.353199 324.0
63.372231 132.0
63.396 164.0
63.43721 120.0
63.481606 180.0
63.497463 112.0
63.539047 168.0
63.564095 172.0
63.606949 76.0
63.619541 236.0
63.633934 176.0
63.703815 196.0
63.721291 188.0
63.756248 144.0
63.776909 132.0
63.795769 176.0
63.829376 180.0
63.955059 200.0
63.998119 168.0
64.036263 96.0
64.068787 296.0
64.082458 160.0
64.104767 144.0
64.166931 192.0
64.181282 148.0
64.197227 148.0
64.267418 160.0
64.302246 212.0
64.318489 160.0
64.428589 152.0
64.451958 140.0
64.46685 200.0
64.523529 204.0
64.57254 200.0
64.646133 168.0
64.668541 228.0
64.737381 40.0
64.769669 252.0
64.807861 104.0
64.83831 100.0
64.855942 72.0
64.876778 172.0
64.889603 148.0
64.91526 136.0
64.928093 144.0
64.948944 172.0
64.99707 164.0
65.013245 104.0
65.03344 188.0
65.059669 72.0
65.189774 196.0
65.201019 168.0
65.217094 308.0
65.257538 176.0
65.307137 140.0
65.342529 184.0
65.361832 40.0
65.382751 132.0
65.403679 132.0
65.416557 116.0
65.434067 128.0
65.52607 256.0
65.547012 132.0
65.559906 84.0
65.59214 156.0
65.638901 240.0
65.656639 132.0
65.667931 52.0
65.686493 168.0
65.705032 180.0
65.71701 244.0
65.758278 104.0
65.788948 184.0
65.803482 164.0
65.827698 192.0
65.841553 132.0
65.889076 192.0
65.902008 52.0
65.924629 284.0
65.942406 196.0
65.963364 224.0
65.981201 144.0
65.992516 116.0
66.016777 140.0
66.081474 164.0
66.118698 100.0
66.147827 168.0
66.180214 152.0
66.194786 148.0
66.24823 80.0
66.264435 248.0
66.293602 176.0
66.313332 208.0
66.333153 160.0
66.386002 192.0
66.424934 184.0
66.437912 72.0
66.47036 108.0
66.484962 140.0
66.496323 132.0
66.517426 84.0
66.549896 92.0
66.582375 164.0
66.616486 128.0
66.698433 176.0
66.77253 48.0
66.816452 120.0
66.840851 152.0
66.912476 256.0
66.984131 172.0
67.00042 576.0
67.018341 200.0
67.06234 220.0
67.107986 52.0
67.194427 160.0
67.214012 40.0
67.233597 92.0
67.253181 92.0
67.29818 220.0
67.347885 184.0
67.374023 124.0
67.395256 36.0
67.472076 156.0
67.504784 164.0
67.569359 180.0
67.689697 204.0
67.719505 180.0
67.729927 156.0
67.792221 136.0
67.816772 240.0
67.855232 140.0
67.898201 192.0
67.910942 144.0
68.070137 164.0
68.086555 132.0
68.114479 128.0
68.13842 196.0
68.167053 148.0
68.178558 80.0
68.204468 244.0
68.273911 212.0
68.301872 224.0
68.336906 204.0
68.357811 180.0
68.383087 212.0
68.417931 128.0
68.433372 152.0
68.471405 36.0
68.627228 188.0
68.667534 140.0
68.684029 124.0
68.713722 188.0
68.752014 196.0
68.792366 240.0
68.837517 140.0
68.923416 168.0
68.941597 148.0
68.96804 172.0
68.997795 264.0
69.010498 176.0
69.029213 188.0
69.113571 168.0
69.126808 156.0
69.156601 152.0
69.179779 108.0
69.254761 212.0
69.293777 244.0
69.312279 168.0
69.381889 88.0
69.393494 56.0
69.42334 156.0
69.448219 120.0
69.46447 136.0
69.493011 140.0
69.510666 228.0
69.541924 212.0
69.574333 196.0
69.589279 196.0
69.650726 164.0
69.717812 180.0
69.75209 168.0
69.808617 132.0
69.898445 160.0
69.936989 204.0
69.971687 188.0
70.004135 172.0
70.030312 176.0
70.084946 84.0
70.10527 144.0
70.162811 328.0
70.236656 156.0
70.275024 220.0
70.313408 168.0
70.356804 136.0
70.370163 136.0
70.432838 144.0
70.436043 80.0
70.459297 320.0
70.50547 208.0
70.519028 176.0
70.546272 320.0
70.622505 96.0
70.637558 192.0
70.665085 188.0
70.677711 40.0
70.704178 128.0
70.72625 108.0
70.818336 156.0
70.837189 204.0
70.855194 132.0
70.87027 124.0
70.908813 156.0
70.945694 96.0
70.975067 192.0
70.995888 236.0
71.034576 192.0
71.105049 148.0
71.126869 120.0
71.139809 128.0
71.157608 204.0
71.210464 132.0
71.229294 96.0
71.271301 216.0
71.313309 96.0
71.377197 80.0
71.399055 128.0
71.452888 176.0
71.471397 60.0
71.527397 312.0
71.559471 236.0
71.601021 128.0
71.633018 204.0
71.660919 256.0
71.683563 76.0
71.709885 156.0
71.756836 280.0
71.798203 96.0
71.847122 132.0
71.889305 196.0
71.923058 116.0
71.939941 136.0
71.961884 188.0
71.975395 208.0
71.989372 52.0
72.005791 32.0
72.022682 172.0
72.036575 248.0
72.107162 120.0
72.157257 272.0
72.200706 244.0
72.217064 64.0
72.386307 172.0
72.430336 88.0
72.469734 224.0
72.570999 172.0
72.586258 208.0
72.682953 168.0
72.703316 60.0
72.71859 172.0
72.733162 248.0
72.749146 216.0
72.762726 156.0
72.788193 64.0
72.803474 324.0
72.840843 92.0
72.905411 212.0
72.97316 168.0
73.017616 176.0
73.032326 148.0
73.109039 212.0
73.129906 196.0
73.148636 176.0
73.165291 168.0
73.208221 148.0
73.235474 100.0
73.274658 148.0
73.318848 184.0
73.356461 72.0
73.376915 216.0
73.405907 36.0
73.425827 164.0
73.445129 140.0
73.477539 144.0
73.498451 236.0
73.520203 64.0
73.564583 176.0
73.581902 164.0
73.608391 164.0
73.638733 140.0
73.672363 104.0
73.696083 132.0
73.711151 220.0
73.725136 156.0
73.742226 136.0
73.766159 116.0
73.778122 28.0
73.80719 212.0
73.834549 144.0
73.848236 192.0
73.908112 180.0
73.93087 200.0
73.978279 104.0
74.000542 104.0
74.012527 140.0
74.024513 124.0
74.100769 184.0
74.118729 156.0
74.135864 180.0
74.159859 152.0
74.173569 108.0
74.22554 216.0
74.271309 144.0
74.283318 148.0
74.297043 152.0
74.343369 156.0
74.360535 156.0
74.372543 172.0
74.394791 100.0
74.460114 160.0
74.485878 188.0
74.502243 220.0
74.528824 100.0
74.546013 156.0
74.5821 168.0
74.666351 144.0
74.694817 212.0
74.832314 212.0
74.855652 144.0
74.931442 156.0
75.002098 248.0
75.021873 148.0
75.046547 184.0
75.081413 120.0
75.096931 136.0
75.112457 168.0
75.145782 176.0
75.164215 364.0
75.185883 108.0
75.21772 180.0
75.231461 208.0
75.335144 164.0
75.359337 128.0
75.374886 212.0
75.440483 180.0
75.469208 148.0
75.528755 152.0
75.549515 136.0
75.64296 112.0
75.733582 168.0
75.758987 248.0
75.777176 184.0
75.798836 104.0
75.812294 152.0
75.876839 172.0
75.917801 180.0
75.961815 144.0
75.991302 156.0
76.015602 152.0
76.032951 184.0
76.060722 140.0
76.08329 156.0
76.125008 152.0
76.184021 120.0
76.218765 120.0
76.231606 176.0
76.247864 204.0
76.269165 44.0
76.290024 136.0
76.306641 164.0
76.326538 140.0
76.341827 192.0
76.358154 176.0
76.362839 32.0
76.36969 172.0
76.523346 148.0
76.56752 168.0
76.638893 148.0
76.665993 56.0
76.714798 140.0
76.782845 176.0
76.817688 100.0
76.829903 136.0
76.861641 144.0
76.890976 100.0
76.911919 176.0
76.954437 224.0
77.077827 128.0
77.090065 140.0
77.119774 156.0
77.145996 116.0
77.179176 172.0
77.214188 156.0
77.275414 160.0
77.338417 160.0
77.432961 136.0
77.446976 176.0
77.458374 172.0
77.485512 152.0
77.581146 92.0
77.645027 120.0
77.698044 180.0
77.743279 216.0
77.802956 124.0
77.827011 168.0
77.866173 184.0
77.87928 164.0
77.911842 216.0
77.92765 52.0
78.033112 220.0
78.057724 188.0
78.078827 176.0
78.100113 156.0
78.173241 144.0
78.265366 188.0
78.286499 164.0
78.303421 196.0
78.418633 128.0
78.538528 132.0
78.556168 156.0
78.644394 164.0
78.69062 132.0
78.762703 116.0
78.77507 132.0
78.79097 144.0
78.819237 132.0
78.852814 196.0
78.891701 184.0
78.905846 152.0
78.928833 100.0
78.941208 124.0
78.969505 124.0
78.985428 228.0
79.049118 272.0
79.095894 204.0
79.126999 112.0
79.240349 100.0
79.279335 60.0
79.295288 88.0
79.352013 136.0
79.366196 128.0
79.426498 144.0
79.460205 32.0
79.484787 192.0
79.509888 156.0
79.527634 72.0
79.54184 176.0
79.66259 132.0
79.676804 236.0
79.692795 124.0
79.740776 204.0
79.766548 208.0
79.838554 188.0
79.859901 132.0
79.906555 88.0
79.950638 104.0
79.964874 192.0
79.997932 220.0
80.022614 156.0
80.096634 176.0
80.117264 188.0
80.153488 224.0
80.244553 92.0
80.299835 108.0
80.317673 116.0
80.337288 68.0
80.378326 100.0
80.394386 172.0
80.419373 196.0
80.471321 200.0
80.484795 168.0
80.512215 396.0
80.562233 136.0
80.594391 100.0
80.64814 160.0
80.713806 208.0
80.840202 232.0
80.875694 180.0
80.910965 172.0
80.928871 176.0
81.000511 164.0
81.022003 52.0
81.038132 184.0
81.050674 144.0
81.118774 188.0
81.133118 204.0
81.163597 136.0
81.198524 304.0
81.325058 132.0
81.536995 180.0
81.560364 300.0
81.603508 140.0
81.644867 184.0
81.659348 152.0
81.677246 84.0
81.693436 28.0
81.718857 184.0
81.803207 132.0
81.941879 112.0
81.972511 196.0
81.995941 120.0
82.022972 132.0
82.0522 320.0
82.068047 116.0
82.095093 112.0
82.152809 276.0
82.172386 180.0
82.193787 208.0
82.235817 148.0
82.263771 132.0
82.280945 140.0
82.327896 64.0
82.345955 148.0
82.376663 156.0
82.399376 56.0
82.440178 156.0
82.476051 120.0
82.499969 236.0
82.553795 76.0
82.577301 192.0
82.590675 208.0
82.637001 328.0
82.682236 180.0
82.764778 256.0
82.770561 152.0
82.775146 224.0
82.823463 204.0
82.856071 180.0
82.875999 140.0
82.919495 152.0
83.122612 320.0
83.164352 180.0
83.204597 140.0
83.230278 152.0
83.244232 80.0
83.293983 184.0
83.313255 160.0
83.353226 76.0
83.380486 100.0
83.397873 224.0
83.411385 204.0
83.451385 252.0
83.491386 244.0
83.525948 248.0
83.564148 100.0
83.626022 204.0
83.680634 124.0
83.712685 120.0
83.74437 148.0
83.769875 140.0
83.802666 128.0
83.881035 148.0
83.910202 32.0
83.943024 136.0
83.955788 136.0
84.008224 176.0
84.026932 212.0
84.085014 120.0
84.091743 100.0
84.101646 172.0
84.144943 188.0
84.189384 108.0
84.230949 116.0
84.291687 140.0
84.319099 200.0
84.335548 140.0
84.375763 176.0
84.432449 104.0
84.487328 152.0
84.503792 144.0
84.550896 200.0
84.635574 136.0
84.723488 232.0
84.785789 176.0
84.829781 148.0
84.999771 228.0
85.044106 176.0
85.075607 116.0
85.125175 148.0
85.138031 144.0
85.165009 168.0
85.226212 132.0
85.262962 168.0
85.277664 88.0
85.311996 236.0
85.356506 176.0
85.503891 140.0
85.557274 168.0
85.659409 224.0
85.759903 180.0
85.824425 168.0
85.837334 156.0
85.868683 184.0
85.908409 172.0
85.927544 172.0
85.953545 216.0
86.00338 176.0
86.021835 180.0
86.045837 136.0
86.1548 160.0
86.169579 96.0
86.18251 172.0
86.204689 120.0
86.236107 84.0
86.258286 56.0
86.276772 140.0
86.313751 152.0
86.348892 100.0
86.38958 76.0
86.459892 176.0
86.535789 152.0
86.570847 180.0
86.630241 84.0
86.654327 184.0
86.721039 132.0
86.81031 184.0
86.834137 48.0
86.85083 312.0
86.905907 140.0
86.96402 88.0
87.045708 120.0
87.196182 148.0
87.227783 144.0
87.250092 192.0
87.415634 88.0
87.467072 176.0
87.521736 164.0
87.562706 196.0
87.642807 200.0
87.674492 172.0
87.708847 120.0
87.730408 124.0
87.745323 144.0
87.774368 152.0
87.79567 180.0
87.851624 156.0
87.9244 80.0
87.952393 80.0
88.0084 172.0
88.066292 156.0
88.096085 208.0
88.129486 184.0
88.264397 156.0
88.277481 176.0
88.296181 148.0
88.326111 100.0
88.350433 144.0
88.372879 44.0
88.412178 136.0
88.427147 132.0
88.4571 128.0
88.507652 204.0
88.546974 192.0
88.592216 132.0
88.629402 208.0
88.693123 172.0
88.711868 120.0
88.73999 196.0
88.773743 168.0
88.84314 180.0
88.94175 328.0
89.040237 148.0
89.095222 204.0
89.111412 164.0
89.24131 188.0
89.295845 360.0
89.32782 224.0
89.356041 176.0
89.43029 148.0
89.48262 188.0
89.500969 136.0
89.547379 192.0
89.627167 88.0
89.646011 96.0
89.676407 188.0
89.700287 200.0
89.722389 52.0
89.812904 224.0
89.885506 208.0
89.898712 316.0
89.92054 240.0
89.960785 172.0
89.965172 152.0
89.972809 204.0
89.993095 172.0
90.011978 152.0
90.0252 208.0
90.089417 216.0
90.183899 120.0
90.257629 160.0
90.28978 152.0
90.303017 132.0
90.323822 132.0
90.376793 128.0
90.390045 144.0
90.426582 156.0
90.470291 200.0
90.52066 148.0
90.550034 180.0
90.571793 48.0
90.589851 216.0
90.641891 128.0
90.706329 32.0
90.742348 112.0
90.808723 224.0
90.840965 108.0
90.856148 172.0
90.964317 212.0
90.990898 152.0
91.05442 11996.0
91.108833 40.0
91.129547 104.0
91.151299 152.0
91.191681 80.0
91.225739 176.0
91.303505 164.0
91.311043 84.0
91.316956 204.0
91.339867 120.0
91.361664 220.0
91.374611 188.0
91.403351 52.0
91.439507 164.0
91.49852 136.0
91.557549 168.0
91.595642 108.0
91.610886 76.0
91.637558 228.0
91.708733 252.0
91.765259 104.0
91.778603 92.0
91.84726 180.0
91.927391 148.0
91.959839 144.0
91.989395 136.0
92.022835 172.0
92.056976 1644.0
92.084923 140.0
92.11068 196.0
92.131691 56.0
92.145065 68.0
92.162537 140.0
92.202393 204.0
92.232491 188.0
92.255913 180.0
92.278854 200.0
92.355354 64.0
92.416573 148.0
92.445274 160.0
92.484612 152.0
92.529495 260.0
92.611839 172.0
92.625244 108.0
92.646317 164.0
92.720886 184.0
92.742134 232.0
92.772804 100.0
92.78997 176.0
92.859093 32.0
92.87252 88.0
92.908966 124.0
92.933907 240.0
92.949448 160.0
92.966568 180.0
93.045715 172.0
93.069923 18948.0
93.112488 140.0
93.128403 264.0
93.170059 48.0
93.200806 80.0
93.215279 60.0
93.223625 32.0
93.245003 104.0
93.28537 212.0
93.311234 168.0
93.399796 176.0
93.460388 72.0
93.530754 156.0
93.552765 172.0
93.570091 120.0
93.585495 340.0
93.61631 104.0
93.651253 28.0
93.706841 204.0
93.720329 172.0
93.816978 188.0
93.850449 244.0
93.866821 40.0
93.888039 144.0
93.981842 128.0
94.019226 124.0
94.034668 168.0
94.069374 2880.0
94.111717 136.0
94.169823 32.0
94.191063 224.0
94.218109 148.0
94.25869 120.0
94.276077 172.0
94.293083 128.0
94.31871 152.0
94.339867 156.0
94.353394 164.0
94.475235 116.0
94.506195 148.0
94.587479 40.0
94.615158 240.0
94.659637 264.0
94.705589 180.0
94.72496 80.0
94.744331 132.0
94.768318 180.0
94.796516 116.0
94.819908 116.0
94.846191 144.0
94.907143 124.0
95.08593 4528.0
95.130257 68.0
95.17588 144.0
95.205986 152.0
95.239044 180.0
95.29454 156.0
95.31974 136.0
95.371132 188.0
95.456673 188.0
95.498451 108.0
95.513077 288.0
95.547142 156.0
95.553055 80.0
95.558983 200.0
95.599617 108.0
95.691269 248.0
95.71743 144.0
95.736229 104.0
95.764168 176.0
95.787361 88.0
95.816566 160.0
95.864479 180.0
95.888863 204.0
95.92395 56.0
95.937592 68.0
95.971085 68.0
96.008842 196.0
96.025345 64.0
96.081093 22548.0
96.102333 496.0
96.14045 188.0
96.170113 60.0
96.200325 148.0
96.227341 132.0
96.247818 212.0
96.267242 160.0
96.327888 80.0
96.359444 216.0
96.427544 88.0
96.440598 136.0
96.474457 164.0
96.499954 192.0
96.526695 184.0
96.542511 104.0
96.567108 168.0
96.589828 52.0
96.623085 116.0
96.650482 212.0
96.681793 60.0
96.707863 100.0
96.754211 168.0
96.768738 168.0
96.789459 124.0
96.820793 40.0
96.834503 184.0
96.865837 184.0
96.919502 132.0
96.932457 164.0
97.010857 192.0
97.047195 172.0
97.084465 1736.0
97.119011 180.0
97.148933 136.0
97.208954 160.0
97.256058 176.0
97.314949 36.0
97.340477 68.0
97.385643 156.0
97.409218 52.0
97.464226 172.0
97.511795 152.0
97.556602 116.0
97.572334 68.0
97.598953 200.0
97.612465 148.0
97.651947 148.0
97.675995 224.0
97.724243 168.0
97.767067 336.0
97.780846 128.0
97.801765 184.0
97.816269 128.0
97.845802 128.0
97.927361 220.0
97.950172 232.0
98.009087 172.0
98.050713 168.0
98.096443 1348.0
98.142685 168.0
98.192612 204.0
98.207825 224.0
98.248055 168.0
98.283363 92.0
98.340263 180.0
98.371071 200.0
98.391914 120.0
98.417587 244.0
98.463005 208.0
98.504738 124.0
98.519669 160.0
98.566254 152.0
98.640831 64.0
98.670486 220.0
98.692238 208.0
98.729202 156.0
98.773323 208.0
98.840591 204.0
98.878189 136.0
98.89402 112.0
98.917778 176.0
99.024696 52.0
99.053894 212.0
99.080162 80.0
99.103371 504.0
99.151497 140.0
99.165375 144.0
99.249939 164.0
99.286316 180.0
99.302177 56.0
99.344795 124.0
99.411293 172.0
99.445038 156.0
99.524445 252.0
99.560188 216.0
99.618362 168.0
99.647591 140.0
99.669449 56.0
99.685341 168.0
99.710091 132.0
99.78672 76.0
99.832451 56.0
99.919975 84.0
99.981987 200.0
100.021461 160.0
100.107124 176.0
100.130974 236.0
100.170815 196.0
100.27256 128.0
100.316284 196.0
100.355476 176.0
100.643486 132.0
100.662437 212.0
100.681427 136.0
100.719955 124.0
100.740082 196.0
100.763321 148.0
100.900101 184.0
100.93322 128.0
101.005219 208.0
101.079247 60.0
101.110657 164.0
101.151596 160.0
101.185776 108.0
101.251404 100.0
101.293472 104.0
101.351837 152.0
101.373611 120.0
101.455795 164.0
101.475838 68.0
101.493889 52.0
101.509926 192.0
101.52597 204.0
101.600189 140.0
101.616241 72.0
101.678444 160.0
101.710556 180.0
101.726616 188.0
101.752716 172.0
101.768776 112.0
101.800911 116.0
101.871208 152.0
101.887276 112.0
101.94957 132.0
101.965546 160.0
102.030212 196.0
102.046051 132.0
102.152641 176.0
102.166725 148.0
102.184891 132.0
102.215767 204.0
102.273376 76.0
102.36599 108.0
102.388145 132.0
102.406273 144.0
102.453842 156.0
102.459175 212.0
102.488869 52.0
102.521111 228.0
102.589638 120.0
102.640045 416.0
102.655525 136.0
102.726768 48.0
102.759048 48.0
102.794975 264.0
102.872063 168.0
102.8862 236.0
102.915253 164.0
102.960907 164.0
102.979805 124.0
103.021278 108.0
103.054443 8556.0
103.102333 96.0
103.158333 68.0
103.179314 92.0
103.203407 124.0
103.235481 148.0
103.262047 240.0
103.292603 152.0
103.334877 148.0
103.350136 148.0
103.371292 140.0
103.38546 80.0
103.403984 164.0
103.44416 100.0
103.488701 128.0
103.569702 184.0
103.605003 156.0
103.671005 156.0
103.72776 100.0
103.750145 184.0
103.778442 196.0
103.792633 132.0
103.812912 180.0
103.871216 204.0
103.918396 184.0
103.963875 192.0
104.003632 188.0
104.058121 640.0
104.190453 36.0
104.247345 156.0
104.26564 128.0
104.287994 128.0
104.304253 148.0
104.350868 56.0
104.358681 52.0
104.420151 184.0
104.489319 92.0
104.503555 148.0
104.535149 168.0
104.578857 88.0
104.627853 116.0
104.642738 188.0
104.691444 160.0
104.705086 324.0
104.796753 144.0
104.86808 96.0
105.025749 216.0
105.03936 164.0
105.06987 196.0
105.145004 276.0
105.174034 180.0
105.198532 152.0
105.23732 176.0
105.251617 88.0
105.268028 108.0
105.33535 148.0
105.351692 128.0
105.386429 112.0
105.426079 176.0
105.447731 80.0
105.462044 176.0
105.517235 204.0
105.612778 104.0
105.625626 172.0
105.653976 144.0
105.688675 200.0
105.748795 148.0
105.80571 176.0
105.867134 136.0
105.942924 76.0
105.965462 344.0
105.994148 148.0
106.037178 168.0
106.062378 272.0
106.106194 256.0
106.143784 272.0
106.225822 164.0
106.246338 80.0
106.314049 164.0
106.337746 172.0
106.358131 136.0
106.406418 72.0
106.4795 340.0
106.564568 132.0
106.581009 164.0
106.630325 96.0
106.691757 140.0
106.741676 196.0
106.833893 144.0
106.895622 248.0
106.945015 76.0
106.959427 140.0
107.049767 204.0
107.078903 452.0
107.097733 216.0
107.198784 204.0
107.26429 148.0
107.308159 124.0
107.381226 180.0
107.404587 168.0
107.42514 228.0
107.494469 364.0
107.561333 148.0
107.584038 148.0
107.618546 180.0
107.641853 188.0
107.687286 100.0
107.733742 188.0
107.817451 144.0
107.851379 220.0
107.877388 140.0
107.902199 144.0
107.945618 36.0
107.980774 132.0
108.049454 128.0
108.078865 1348.0
108.111115 168.0
108.158722 88.0
108.204193 116.0
108.231178 60.0
108.245674 228.0
108.338692 220.0
108.382393 120.0
108.448708 216.0
108.499001 152.0
108.57103 120.0
108.616661 224.0
108.672676 180.0
108.691353 128.0
108.737007 156.0
108.799278 88.0
108.823753 228.0
108.952965 192.0
108.998672 96.0
109.015297 140.0
109.089119 1648.0
109.151482 140.0
109.233612 68.0
109.284958 176.0
109.312675 104.0
109.450577 176.0
109.497955 168.0
109.523949 148.0
109.552116 212.0
109.589897 208.0
109.642448 136.0
109.660469 48.0
109.686722 148.0
109.810173 100.0
109.849548 212.0
109.894028 148.0
109.984146 340.0
110.00882 168.0
110.031784 112.0
110.050575 116.0
110.097725 612.0
110.116531 240.0
110.138283 144.0
110.192604 188.0
110.247375 56.0
110.281258 160.0
110.343086 172.0
110.366081 176.0
110.393265 164.0
110.407906 60.0
110.453918 124.0
110.487389 40.0
110.548073 164.0
110.57737 196.0
110.648544 104.0
110.677856 148.0
110.711731 204.0
110.849625 220.0
110.887344 296.0
110.931366 112.0
110.969101 244.0
111.006927 196.0
111.078407 332.0
111.097031 160.0
111.112862 132.0
111.134796 180.0
111.193382 152.0
111.233627 180.0
111.275711 204.0
111.313217 136.0
111.330017 160.0
111.346825 216.0
111.369926 184.0
111.445557 132.0
111.479179 176.0
111.517006 148.0
111.558098 176.0
111.657875 104.0
111.681007 80.0
111.723083 116.0
111.737808 96.0
111.760948 84.0
111.817673 168.0
111.857765 176.0
111.872498 212.0
111.920921 164.0
111.956718 80.0
111.973572 176.0
111.988312 60.0
112.03466 88.0
112.050041 400.0
112.07254 208.0
112.112129 536.0
112.196747 180.0
112.240929 120.0
112.270729 276.0
112.314339 132.0
112.367767 112.0
112.46273 404.0
112.549286 152.0
112.568291 48.0
112.597488 176.0
112.644325 64.0
112.66967 156.0
112.716156 144.0
112.766876 172.0
112.817993 132.0
112.840866 112.0
112.868919 180.0
112.938019 352.0
113.005836 148.0
113.024879 48.0
113.049431 228.0
113.073555 288.0
113.105301 124.0
113.179405 180.0
113.194221 52.0
113.256287 236.0
113.310722 148.0
113.340385 100.0
113.359459 200.0
113.37429 128.0
113.399727 36.0
113.454834 180.0
113.476036 108.0
113.507164 248.0
113.56723 132.0
113.660576 204.0
113.736977 164.0
113.760323 168.0
113.809097 140.0
113.832512 52.0
113.849503 40.0
113.97541 164.0
114.025841 200.0
114.039749 88.0
114.102364 240.0
114.133133 136.0
114.161903 164.0
114.189552 132.0
114.240601 168.0
114.332092 40.0
114.383179 148.0
114.468201 184.0
114.509171 140.0
114.567688 248.0
114.638763 116.0
114.660072 184.0
114.724022 100.0
114.762398 144.0
114.790115 88.0
114.819969 148.0
114.8349 176.0
114.84906 168.0
114.893936 208.0
114.955505 176.0
114.988518 136.0
115.020538 144.0
115.054794 160.0
115.114479 168.0
115.146515 108.0
115.176414 172.0
115.195641 44.0
115.276833 184.0
115.390121 148.0
115.479935 112.0
115.524857 156.0
115.541893 112.0
115.591179 188.0
115.783852 240.0
115.86525 80.0
115.884529 172.0
115.98954 184.0
116.040993 164.0
116.101036 116.0
116.148224 136.0
116.255493 176.0
116.270523 96.0
116.319885 200.0
116.358528 176.0
116.401474 124.0
116.455162 92.0
116.50457 128.0
116.53035 32.0
116.661453 132.0
116.713051 160.0
116.732407 120.0
116.783028 104.0
116.893616 136.0
116.919563 168.0
116.956154 96.0
116.987045 156.0
117.01619 180.0
117.071388 192.0
117.160728 164.0
117.188736 208.0
117.21244 184.0
117.229683 136.0
117.27063 216.0
117.292183 140.0
117.322365 168.0
117.451752 140.0
117.492737 200.0
117.519417 252.0
117.545624 172.0
117.600822 200.0
117.620056 204.0
117.663231 172.0
117.682663 148.0
117.743134 44.0
117.766891 88.0
117.792809 152.0
117.827377 100.0
117.850578 168.0
117.99379 148.0
118.071274 144.0
118.079994 120.0
118.203598 92.0
118.283676 184.0
118.32914 140.0
118.350792 116.0
118.374207 140.0
118.430923 96.0
118.456917 128.0
118.511078 100.0
118.582588 36.0
118.63829 236.0
118.646774 164.0
118.677971 176.0
118.699661 120.0
118.786415 80.0
118.916603 148.0
119.070755 152.0
119.088135 140.0
119.218491 140.0
119.238983 176.0
119.248344 76.0
119.25354 156.0
119.344566 104.0
119.378555 228.0
119.446785 124.0
119.535988 140.0
119.562103 256.0
119.577438 172.0
119.70578 132.0
119.72538 164.0
119.742805 176.0
119.760231 80.0
119.803795 160.0
119.899673 156.0
119.930183 108.0
119.962883 172.0
119.98468 148.0
120.013023 200.0
120.098076 200.0
120.117706 60.0
120.165703 176.0
120.258629 192.0
120.342499 124.0
120.400566 264.0
120.425484 176.0
120.543457 48.0
120.606834 196.0
120.659302 32.0
120.711441 180.0
120.744583 132.0
120.810204 64.0
120.847397 204.0
120.89991 124.0
120.956818 140.0
121.016342 192.0
121.032387 124.0
121.064415 13356.0
121.105721 120.0
121.14296 216.0
121.169243 148.0
121.248131 188.0
121.281006 144.0
121.349541 168.0
121.390625 176.0
121.421333 52.0
121.454231 148.0
121.533211 116.0
121.58564 184.0
121.625381 200.0
121.643379 224.0
121.664894 168.0
121.715393 156.0
121.759758 180.0
121.791542 312.0
121.813721 224.0
121.869156 140.0
121.992233 180.0
122.007622 120.0
122.031609 136.0
122.069267 568.0
122.094948 1624.0
122.231964 132.0
122.258377 44.0
122.274261 164.0
122.295792 100.0
122.317802 96.0
122.35128 212.0
122.38385 128.0
122.406967 168.0
122.41539 184.0
122.421707 228.0
122.45652 76.0
122.541229 168.0
122.61956 148.0
122.674667 76.0
122.778297 148.0
122.796692 144.0
122.82164 120.0
122.843498 184.0
122.859787 140.0
122.901833 108.0
122.917282 108.0
122.981277 192.0
123.012184 232.0
123.037735 108.0
123.069588 140.0
123.099846 296.0
123.122581 164.0
123.173386 132.0
123.190552 140.0
123.21315 192.0
123.228615 140.0
123.259544 176.0
123.298004 180.0
123.363426 124.0
123.378899 128.0
123.456291 228.0
123.489464 180.0
123.549599 196.0
123.586807 104.0
123.613358 152.0
123.631065 140.0
123.682594 172.0
123.718338 128.0
123.722977 152.0
123.770523 152.0
123.796402 256.0
123.818733 52.0
123.861328 192.0
123.881897 180.0
123.904457 272.0
123.932678 544.0
123.974205 224.0
123.977646 76.0
123.992828 80.0
124.017151 220.0
124.033829 212.0
124.040459 376.0
124.074989 816.0
124.112511 120184.0
124.179123 204.0
124.203613 156.0
124.222206 40.0
124.245445 44.0
124.270248 64.0
124.305931 292.0
124.323723 176.0
124.360092 112.0
124.377983 72.0
124.404625 116.0
124.425194 80.0
124.451042 44.0
124.47715 1752.0
124.508514 168.0
124.53717 156.0
124.556931 68.0
124.592705 116.0
124.612984 100.0
124.635818 128.0
124.658226 156.0
124.677582 36.0
124.696442 64.0
124.743858 124.0
124.780083 116.0
124.821251 140.0
124.861671 52.0
124.880013 176.0
124.912209 160.0
124.929085 36.0
124.969131 128.0
124.990486 188.0
124.998062 112.0
125.005638 188.0
125.059929 152.0
125.074844 104.0
125.115723 13948.0
125.171028 160.0
125.216232 40.0
125.273605 148.0
125.291832 64.0
125.353592 140.0
125.380028 52.0
125.396698 204.0
125.422745 140.0
125.4505 156.0
125.503708 132.0
125.547249 128.0
125.631149 144.0
125.70446 56.0
125.724548 248.0
125.762405 104.0
125.834831 88.0
125.86335 180.0
125.882156 80.0
125.91655 120.0
125.949142 260.0
126.000854 292.0
126.028313 260.0
126.04554 176.0
126.080383 216.0
126.117096 460.0
126.16526 92.0
126.182465 132.0
126.219284 120.0
126.271912 52.0
126.298752 140.0
126.368507 88.0
126.401665 168.0
126.430756 132.0
126.506859 144.0
126.533722 68.0
126.609093 176.0
126.677055 176.0
126.726341 44.0
126.757713 52.0
126.803963 132.0
126.811714 84.0
126.816879 140.0
126.840637 148.0
126.869781 68.0
126.896683 60.0
126.914619 92.0
126.948257 76.0
126.97068 124.0
127.002083 112.0
127.046951 60.0
127.069382 52.0
127.114258 176.0
127.153603 204.0
127.179344 80.0
127.242203 124.0
127.257919 260.0
127.291595 124.0
127.354485 140.0
127.374695 132.0
127.410645 32.0
127.472336 128.0
127.509514 64.0
127.546928 68.0
127.560463 132.0
127.588646 156.0
127.626411 144.0
127.723114 236.0
127.781609 140.0
127.867119 108.0
127.957161 156.0
127.993179 160.0
128.076508 100.0
128.105789 180.0
128.150848 180.0
128.198181 136.0
128.234238 128.0
128.324402 96.0
128.525146 84.0
128.568024 136.0
128.586075 92.0
128.608658 84.0
128.660568 124.0
128.737335 224.0
128.759918 128.0
128.775742 72.0
128.939377 224.0
128.997177 120.0
129.078568 120.0
129.11702 204.0
129.171295 160.0
129.205231 168.0
129.39534 92.0
129.533493 96.0
129.726105 196.0
129.762375 252.0
129.896179 140.0
130.123123 120.0
130.148102 200.0
130.248032 112.0
130.327087 80.0
130.463913 136.0
130.482101 116.0
130.509384 128.0
130.585342 240.0
130.639023 160.0
130.665054 108.0
130.698181 268.0
130.723206 68.0
130.862061 192.0
130.964539 36.0
131.048401 784.0
131.188217 176.0
131.219772 60.0
131.308701 184.0
131.399948 228.0
131.460464 172.0
131.484375 152.0
131.52774 88.0
131.621109 76.0
131.751541 168.0
131.822372 40.0
131.975525 208.0
132.021255 120.0
132.05011 280.0
132.169952 164.0
132.195114 176.0
132.250046 144.0
132.302689 156.0
132.391998 152.0
132.474167 188.0
132.522568 100.0
132.648621 68.0
132.682999 132.0
132.82518 224.0
132.877945 148.0
132.937607 96.0
132.976624 200.0
133.011047 228.0
133.050079 80.0
133.066147 184.0
133.100586 88.0
133.196823 124.0
133.245285 104.0
133.312698 120.0
133.360199 104.0
133.412567 220.0
133.440643 132.0
133.507339 80.0
133.54866 136.0
133.657944 184.0
133.71669 100.0
133.737411 64.0
133.836746 164.0
133.903183 32.0
133.993027 132.0
134.090515 328.0
134.133606 192.0
134.246582 68.0
134.338837 128.0
134.444977 40.0
134.687408 44.0
134.719742 112.0
134.8815 100.0
134.978607 200.0
135.042175 148.0
135.118866 164.0
135.1521 96.0
135.233093 212.0
135.286331 180.0
135.346527 36.0
135.390533 116.0
135.497086 132.0
135.626846 200.0
135.673218 140.0
135.731186 236.0
135.763641 204.0
135.819305 124.0
135.83786 140.0
135.854111 104.0
135.902832 144.0
135.946915 136.0
136.083862 152.0
136.112579 196.0
136.13031 256.0
136.165146 148.0
136.18837 216.0
136.404465 184.0
136.427719 104.0
136.452576 156.0
136.485245 200.0
136.493515 148.0
136.550964 112.0
136.61377 156.0
136.8302 80.0
136.881424 56.0
136.916351 152.0
136.932663 152.0
136.974579 116.0
137.018845 144.0
137.312561 136.0
137.328888 120.0
137.394196 52.0
137.418976 136.0
137.532181 232.0
137.681305 188.0
137.792694 280.0
137.877548 196.0
137.905594 104.0
137.921967 236.0
138.013138 96.0
138.078018 224.0
138.126617 1712.0
138.151123 124.0
138.257507 168.0
138.296204 124.0
138.364105 112.0
138.478836 168.0
138.614716 148.0
138.668625 112.0
138.745972 112.0
138.804596 188.0
138.896057 128.0
138.931244 180.0
138.954712 72.0
138.996948 180.0
139.036835 188.0
139.133865 252.0
139.170639 164.0
139.201172 112.0
139.29277 148.0
139.311569 132.0
139.344452 128.0
139.386749 128.0
139.403198 32.0
139.490158 60.0
139.614777 224.0
139.694748 124.0
139.720627 176.0
139.748856 60.0
139.788864 76.0
139.887711 64.0
139.925385 148.0
139.958344 160.0
140.018173 148.0
140.053665 144.0
140.106003 8736.0
140.142563 456.0
140.167984 88.0
140.295258 192.0
140.317062 96.0
140.340057 108.0
140.367844 220.0
140.442688 92.0
140.458725 152.0
140.491501 136.0
140.507523 136.0
140.568863 192.0
140.631012 180.0
140.69632 148.0
140.738815 220.0
140.762436 156.0
140.859268 176.0
140.887619 144.0
140.93251 44.0
140.951416 128.0
140.967957 172.0
141.012848 196.0
141.067459 192.0
141.11087 1212.0
141.142883 104.0
141.237473 228.0
141.277695 116.0
141.30545 136.0
141.350296 132.0
141.431503 48.0
141.784409 164.0
141.841293 64.0
141.895828 108.0
141.955093 140.0
142.002533 48.0
142.076462 144.0
142.122864 2980.0
142.174347 128.0
142.225571 64.0
142.272858 52.0
142.290405 68.0
142.332397 144.0
142.539062 128.0
142.555695 212.0
142.626999 80.0
142.653152 48.0
142.679291 116.0
142.733978 40.0
142.819595 120.0
142.995026 280.0
143.055176 92.0
143.125427 324.0
143.180222 248.0
143.201889 144.0
143.250458 84.0
143.281418 172.0
143.312393 148.0
143.364822 140.0
143.441086 160.0
143.483994 184.0
143.622314 148.0
143.639008 40.0
143.679291 176.0
143.724106 40.0
143.825134 128.0
143.841843 68.0
143.906296 140.0
144.008987 152.0
144.047211 76.0
144.130829 160.0
144.161896 168.0
144.20491 132.0
144.267059 64.0
144.288574 108.0
144.341415 148.0
144.360306 160.0
144.415314 132.0
144.587585 216.0
144.649811 40.0
144.715912 144.0
144.738403 120.0
144.75592 188.0
144.781509 160.0
144.831802 124.0
144.918045 60.0
144.959824 192.0
144.999512 196.0
145.198517 108.0
145.28006 252.0
145.376038 108.0
145.406189 164.0
145.484055 156.0
145.74585 164.0
145.777084 124.0
145.832367 136.0
145.974213 120.0
146.181091 72.0
146.315872 256.0
146.535049 164.0
146.554321 116.0
146.597885 204.0
146.636261 108.0
146.679642 140.0
146.725449 188.0
146.932861 200.0
146.973877 180.0
147.029587 180.0
147.092133 56.0
147.15007 124.0
147.308777 168.0
147.531799 164.0
147.630936 128.0
147.864868 156.0
147.962433 144.0
148.06897 128.0
148.100464 188.0
148.190796 224.0
148.294296 100.0
148.393463 132.0
148.442184 168.0
148.476135 40.0
148.579575 160.0
148.764877 216.0
148.781876 112.0
148.85228 124.0
148.907928 176.0
148.990738 52.0
149.061386 528.0
149.126816 176.0
149.260529 136.0
149.40889 164.0
149.610886 160.0
149.644974 52.0
149.67662 48.0
149.710724 252.0
149.881241 160.0
149.947037 228.0
150.125 80.0
150.166473 152.0
150.249405 168.0
150.268921 172.0
150.290878 156.0
150.347015 104.0
150.383621 148.0
150.532654 188.0
150.566727 176.0
150.642456 28.0
150.746475 160.0
151.06781 72.0
151.141205 124.0
151.190155 172.0
151.259216 148.0
151.280716 76.0
151.305206 208.0
151.363968 84.0
151.434982 376.0
151.562378 156.0
151.584427 196.0
151.623642 132.0
151.67511 84.0
151.755554 212.0
151.812408 160.0
151.841843 236.0
151.866364 176.0
151.974304 144.0
152.003754 88.0
152.032181 180.0
152.092102 100.0
152.116333 240.0
152.142624 9124.0
152.22258 140.0
152.278717 68.0
152.346329 180.0
152.433487 68.0
152.492477 48.0
152.521973 128.0
152.59964 108.0
152.6203 68.0
152.649811 140.0
152.726059 160.0
152.772797 184.0
152.816391 200.0
152.84906 208.0
152.887283 128.0
153.145874 1132.0
153.181442 176.0
153.295135 196.0
153.329285 104.0
153.346527 56.0
153.418015 72.0
153.617691 132.0
153.659668 216.0
153.668182 212.0
153.706589 148.0
153.819046 136.0
153.871964 60.0
153.901596 144.0
153.946045 188.0
154.012726 72.0
154.054718 192.0
154.074478 132.0
154.107239 252.0
154.147308 168.0
154.344269 184.0
154.452713 60.0
154.482391 156.0
154.534119 128.0
154.573929 68.0
154.633331 84.0
154.660553 112.0
154.680359 100.0
154.83493 172.0
154.928131 72.0
154.958466 188.0
155.089066 148.0
155.170883 148.0
155.193192 188.0
155.252701 180.0
155.354218 216.0
155.394791 184.0
155.451172 132.0
155.488388 92.0
155.585144 192.0
155.755798 276.0
155.962784 152.0
155.992615 180.0
156.08461 120.0
156.161697 140.0
156.184464 188.0
156.213943 132.0
156.278625 188.0
156.296036 120.0
156.313461 112.0
156.363235 216.0
156.415497 200.0
156.463455 236.0
156.525055 168.0
156.561905 160.0
156.809052 172.0
156.873856 140.0
156.981079 76.0
156.998535 104.0
157.109451 300.0
157.195999 232.0
157.310425 164.0
157.543777 184.0
157.675095 100.0
157.850098 172.0
158.015182 116.0
158.047714 180.0
158.24794 160.0
158.536011 104.0
158.553558 160.0
158.583633 188.0
158.648804 176.0
158.90712 188.0
158.924698 168.0
158.954803 152.0
159.062729 96.0
159.122971 100.0
159.198303 244.0
159.261093 152.0
159.338974 156.0
159.467133 196.0
159.524933 144.0
159.610428 172.0
159.75882 152.0
159.883423 176.0
160.068512 180.0
160.204407 112.0
160.257309 136.0
160.337952 204.0
160.390884 192.0
160.557297 92.0
160.582504 148.0
160.698547 68.0
160.839874 208.0
160.902985 152.0
161.026505 136.0
161.045395 204.0
161.532257 128.0
161.610687 76.0
161.671417 164.0
161.73468 204.0
161.785309 140.0
161.820969 48.0
161.871124 180.0
162.008179 148.0
162.094315 132.0
162.157669 136.0
162.180481 140.0
162.234589 140.0
162.271744 156.0
162.36557 180.0
162.39093 148.0
162.464493 228.0
162.494949 116.0
162.55838 148.0
162.695435 132.0
162.743683 80.0
162.763992 120.0
162.807159 192.0
162.830872 180.0
162.852875 176.0
163.002777 144.0
163.053604 264.0
163.084091 120.0
163.151764 188.0
163.178162 152.0
163.284958 208.0
163.333282 84.0
163.351089 184.0
163.376526 56.0
163.531754 68.0
163.794022 172.0
163.840454 228.0
163.92395 64.0
163.997864 156.0
164.127884 108.0
164.201843 188.0
164.321732 224.0
164.340836 152.0
164.500381 128.0
164.533569 44.0
164.625488 224.0
164.888626 124.0
164.96019 112.0
164.995987 68.0
165.081345 160.0
165.103378 60.0
165.272217 192.0
165.302917 52.0
165.3797 208.0
165.46257 160.0
165.504318 148.0
165.542496 212.0
165.590088 160.0
165.637665 140.0
165.652435 212.0
165.676239 80.0
165.686188 64.0
165.698273 124.0
165.728226 172.0
165.759033 184.0
165.792816 148.0
165.817673 40.0
165.835617 136.0
165.853561 192.0
165.885818 268.0
165.912521 316.0
165.95488 268.0
165.982941 232.0
166.00885 216.0
166.035324 216.0
166.056076 404.0
166.075699 260.0
166.108566 508.0
166.123611 328.0
166.159317 147872.0
166.200974 412.0
166.229294 64.0
166.269806 124.0
166.307693 180.0
166.324799 212.0
166.357468 128.0
166.38353 264.0
166.4142 280.0
166.473953 164.0
166.527512 136.0
166.54834 104.0
166.580902 1432.0
166.628723 188.0
166.648605 172.0
166.681305 124.0
166.705658 96.0
166.727631 64.0
166.772675 148.0
166.825882 36.0
166.853958 80.0
166.90741 148.0
166.947296 168.0
166.983459 180.0
167.032181 64.0
167.073334 288.0
167.130798 240.0
167.16185 18380.0
167.232605 132.0
167.256042 48.0
167.290588 96.0
167.354782 68.0
167.389923 36.0
167.422165 100.0
167.454315 68.0
167.498093 80.0
167.525406 168.0
167.59642 264.0
167.626511 172.0
167.647079 112.0
167.673187 84.0
167.697067 36.0
167.727432 44.0
167.768677 40.0
167.786728 72.0
167.809174 192.0
167.830551 68.0
167.864075 60.0
167.907913 92.0
167.968048 64.0
167.988983 80.0
168.024002 184.0
168.068756 80.0
168.116882 80.0
168.137527 132.0
168.167923 1232.0
168.23877 160.0
168.265274 108.0
168.292389 304.0
168.315659 100.0
168.33812 120.0
168.361877 128.0
168.388611 116.0
168.409119 124.0
168.437881 260.0
168.459 152.0
168.508392 224.0
168.536896 152.0
168.570969 368.0
168.626099 72.0
168.65152 168.0
168.712845 84.0
168.751328 80.0
168.802216 152.0
168.845428 84.0
168.89975 52.0
168.946304 36.0
168.978317 140.0
169.122269 136.0
169.154022 136.0
169.162903 132.0
169.172256 192.0
169.282791 60.0
169.313858 136.0
169.421951 104.0
169.484833 164.0
169.527313 92.0
169.606644 92.0
169.635162 64.0
169.885666 80.0
170.019043 64.0
170.037201 120.0
170.098862 148.0
170.10849 112.0
170.359177 168.0
170.379959 84.0
170.416336 108.0
170.55928 96.0
170.708328 324.0
170.754288 60.0
170.775085 108.0
170.991043 64.0
171.040497 124.0
171.069122 128.0
171.16806 156.0
171.256607 128.0
171.303497 88.0
171.37384 136.0
171.410324 116.0
171.513672 116.0
171.590164 72.0
171.639709 64.0
171.824905 76.0
171.845779 176.0
172.120377 164.0
172.310516 208.0
172.409805 116.0
172.658173 96.0
172.70787 56.0
172.726181 152.0
172.809891 32.0
172.859604 84.0
172.985245 140.0
173.062347 88.0
173.180557 204.0
173.213058 32.0
173.268082 80.0
173.451523 208.0
173.522293 160.0
173.718994 132.0
173.795074 88.0
174.03656 152.0
174.060196 64.0
174.433273 108.0
174.510956 152.0
174.722549 92.0
174.798859 112.0
174.85556 124.0
174.8936 120.0
174.925186 252.0
174.964676 124.0
175.080536 160.0
175.101608 36.0
175.125305 164.0
175.237747 152.0
175.454697 44.0
175.47316 148.0
175.528534 144.0
175.554901 156.0
175.657761 36.0
175.787048 104.0
175.813431 220.0
175.860947 172.0
176.101212 184.0
176.296722 124.0
176.394516 172.0
176.709229 52.0
176.870651 124.0
176.971252 184.0
177.040649 176.0
177.196381 104.0
177.233475 128.0
177.318283 84.0
177.477341 148.0
177.50386 132.0
177.665649 156.0
177.684219 104.0
177.83548 160.0
177.85936 116.0
177.909805 72.0
177.946976 156.0
178.047882 100.0
178.217896 72.0
178.24942 88.0
178.299896 116.0
178.409256 164.0
178.51561 96.0
178.587418 160.0
178.818893 180.0
178.896088 72.0
179.034546 148.0
179.061172 124.0
179.117111 144.0
179.178391 252.0
179.207687 52.0
179.255661 76.0
179.292969 172.0
179.626251 120.0
179.807693 52.0
179.986557 180.0
180.088043 128.0
180.149734 200.0
180.308136 244.0
180.483566 216.0
180.529022 96.0
180.553085 52.0
180.646698 148.0
180.737671 248.0
180.783157 80.0
180.970535 164.0
181.010696 160.0
181.069626 196.0
181.211594 212.0
181.552032 120.0
181.772003 44.0
181.793472 44.0
181.812256 120.0
181.860565 80.0
181.919617 56.0
182.029709 116.0
182.053864 132.0
182.152359 660.0
182.357468 100.0
182.446167 76.0
182.542969 168.0
182.602951 184.0
182.766235 172.0
183.118881 148.0
183.164673 176.0
183.466492 100.0
183.568954 80.0
183.58783 88.0
183.609406 156.0
183.825226 220.0
183.906189 160.0
183.930481 204.0
184.027679 88.0
184.046005 176.0
184.100586 72.0
184.130859 172.0
184.168839 1916.0
184.395065 168.0
184.503189 48.0
184.641098 168.0
184.857513 48.0
184.971191 96.0
184.99826 148.0
185.101151 136.0
185.172897 480.0
185.339523 52.0
185.483154 48.0
185.597031 72.0
185.735336 152.0
185.8927 132.0
186.030228 228.0
186.107147 52.0
186.152023 152.0
186.357025 120.0
186.476608 136.0
186.547272 132.0
186.650589 112.0
186.794739 172.0
187.066864 48.0
187.363708 84.0
187.40184 40.0
188.024994 148.0
188.124588 148.0
188.447601 220.0
188.85965 180.0
188.881531 108.0
188.971817 120.0
189.034744 184.0
189.155167 144.0
189.357788 168.0
189.481064 120.0
189.596146 124.0
189.62355 48.0
189.919678 92.0
189.94162 224.0
190.08429 44.0
190.232498 80.0
190.610931 204.0
190.65274 48.0
190.677475 192.0
190.713211 60.0
190.792923 52.0
190.966171 156.0
191.109222 120.0
191.175262 172.0
191.383118 188.0
191.436783 144.0
191.511139 132.0
191.533173 136.0
191.563477 64.0
191.643372 168.0
191.709518 92.0
191.734314 44.0
191.836304 116.0
192.04863 140.0
192.070694 136.0
192.247269 120.0
192.368713 168.0
192.465347 92.0
192.747101 48.0
192.84935 144.0
193.20607 120.0
193.372101 236.0
193.507736 108.0
193.579742 36.0
193.657288 188.0
193.829041 92.0
193.878922 188.0
194.067429 172.0
194.486328 168.0
194.969604 124.0
195.112823 152.0
195.38176 124.0
195.578705 236.0
195.60376 128.0
195.837662 104.0
195.949081 192.0
196.049408 168.0
196.250107 184.0
196.320709 188.0
196.74321 124.0
197.134247 200.0
197.213226 96.0
197.285919 136.0
197.341827 140.0
197.470459 184.0
197.593552 172.0
197.615936 136.0
197.67189 96.0
197.909821 32.0
197.974228 180.0
198.035843 176.0
198.428162 96.0
198.757507 248.0
198.84053 104.0
199.343216 92.0
199.554031 116.0
199.719955 204.0
199.804352 108.0
199.871887 152.0
200.018234 128.0
200.44632 76.0
200.680283 112.0
201.173035 248.0
201.205048 136.0
201.416855 88.0
201.873199 172.0
202.083801 184.0
202.183487 112.0
202.358582 164.0
202.602158 68.0
202.641815 288.0
202.66449 116.0
202.760834 108.0
202.911072 108.0
203.021652 64.0
203.546646 132.0
203.577881 156.0
203.651718 184.0
204.015457 88.0
204.043884 76.0
204.15477 180.0
204.37381 132.0
204.530334 168.0
204.598663 80.0
205.126312 144.0
205.182693 64.0
205.208359 216.0
206.096039 84.0
206.116043 148.0
206.467651 160.0
206.550598 84.0
206.619263 104.0
206.653595 140.0
206.911179 100.0
206.954132 152.0
207.077271 104.0
207.360916 212.0
207.509979 92.0
208.046478 116.0
208.135483 72.0
208.15657 188.0
208.270462 56.0
208.523315 76.0
208.661301 172.0
208.776306 68.0
208.996826 140.0
209.115799 88.0
209.27179 196.0
209.305801 172.0
209.400848 104.0
209.432526 232.0
209.455566 84.0
209.553513 144.0
209.573685 160.0
209.743729 196.0
209.80426 216.0
209.913818 120.0
210.101303 120.0
210.363922 168.0
210.620926 196.0
210.667145 40.0
210.701813 168.0
210.785599 132.0
210.941666 180.0
211.175888 152.0
211.439178 136.0
211.465225 220.0
211.612854 216.0
212.003906 132.0
212.43013 164.0
212.453339 116.0
212.575195 116.0
212.752258 112.0
213.100769 124.0
213.339096 132.0
213.77829 260.0
213.804489 104.0
213.955841 104.0
214.008255 128.0
214.043198 116.0
214.10144 188.0
214.130554 212.0
214.159454 1012.0
214.276215 136.0
214.317001 152.0
214.39859 52.0
214.821381 104.0
214.990616 120.0
215.040222 36.0
215.159912 176.0
215.189102 88.0
215.358475 148.0
215.487015 56.0
215.679886 144.0
216.001541 196.0
216.182953 132.0
216.32637 152.0
216.543045 136.0
216.77449 108.0
216.806732 136.0
217.176147 152.0
217.416733 132.0
217.598724 148.0
217.642761 168.0
217.733795 152.0
217.801361 104.0
217.827789 72.0
217.874802 148.0
217.912994 176.0
218.171616 124.0
218.30687 104.0
218.363739 144.0
218.495132 124.0
218.518661 56.0
218.75705 176.0
218.836533 144.0
220.024719 164.0
220.187119 96.0
220.24028 60.0
220.272781 32.0
220.393906 144.0
220.81073 52.0
220.911301 140.0
221.390793 132.0
221.535934 112.0
221.595184 236.0
221.746323 56.0
221.853027 76.0
221.897507 176.0
222.08432 152.0
222.211884 212.0
222.636368 72.0
223.513321 188.0
223.688919 92.0
223.807999 148.0
223.855637 104.0
224.091354 152.0
224.365158 224.0
224.746918 168.0
224.860321 216.0
224.997635 152.0
225.53833 188.0
225.651932 168.0
225.717712 84.0
225.879227 136.0
225.962982 108.0
225.989914 168.0
226.079681 124.0
226.181442 168.0
226.367065 128.0
226.400009 64.0
226.675613 44.0
226.75354 64.0
226.789505 160.0
226.888428 136.0
226.929428 192.0
226.999374 144.0
227.458405 80.0
228.025101 120.0
228.170273 108.0
228.299683 56.0
228.350815 52.0
228.416977 80.0
228.464767 176.0
228.64566 128.0
228.796158 116.0
228.907562 148.0
228.94371 168.0
229.009964 196.0
229.308243 72.0
229.786285 84.0
230.165009 136.0
230.454987 176.0
230.51239 164.0
230.563766 132.0
230.603058 176.0
230.669556 84.0
230.760254 196.0
231.18071 48.0
231.501602 40.0
231.559143 176.0
231.671219 124.0
232.025803 72.0
232.050064 152.0
232.104645 108.0
232.274475 148.0
232.380661 244.0
232.501801 212.0
232.726669 64.0
232.890671 72.0
233.00914 140.0
233.036484 168.0
233.237061 112.0
233.44989 172.0
233.748001 156.0
233.872787 96.0
234.005096 156.0
234.122437 180.0
234.295547 120.0
234.317383 144.0
234.353958 200.0
234.576431 140.0
234.864594 112.0
235.036957 108.0
235.33609 148.0
235.827927 188.0
236.060287 160.0
236.149445 184.0
236.769943 148.0
237.055191 136.0
237.171646 184.0
237.324936 96.0
237.40773 140.0
237.650055 176.0
237.907867 184.0
237.992859 152.0
239.108353 188.0
239.180527 148.0
239.217468 232.0
239.546967 208.0
239.639389 256.0
239.802719 216.0
240.033936 152.0
240.576263 192.0
240.607834 68.0
240.654144 172.0
240.68811 176.0
240.750793 176.0
240.817825 204.0
240.851807 192.0
240.929031 184.0
240.978455 132.0
241.006271 128.0
241.04335 160.0
241.167725 212.0
241.309174 188.0
241.36174 168.0
241.451416 108.0
241.528748 88.0
241.621552 120.0
241.86293 148.0
241.93103 120.0
242.045593 152.0
242.150391 324.0
242.206635 104.0
242.367737 132.0
242.53038 164.0
242.550583 208.0
242.677139 204.0
242.742813 148.0
242.801727 96.0
242.857559 184.0
243.161621 156.0
243.304413 148.0
243.736145 88.0
243.9879 148.0
244.280228 124.0
244.370453 52.0
244.410904 184.0
244.582077 176.0
244.672348 96.0
244.815582 96.0
244.899673 168.0
244.968201 76.0
244.993118 144.0
245.214355 144.0
245.276703 92.0
245.348404 120.0
245.388931 160.0
245.507416 144.0
245.613464 216.0
245.703934 180.0
245.841232 116.0
245.903641 132.0
246.075058 136.0
246.359543 172.0
246.397034 168.0
246.437653 128.0
246.756454 104.0
246.862762 124.0
246.884659 164.0
247.081711 152.0
247.122391 124.0
247.263199 208.0
247.994156 180.0
248.171661 64.0
248.358658 172.0
248.604553 152.0
248.723816 44.0
249.003265 168.0
249.11319 88.0
249.169739 132.0
249.191742 160.0
249.286011 184.0
249.345718 88.0
249.436874 196.0
249.537476 204.0
249.763901 96.0
249.918045 204.0
249.965256 112.0
250.021896 180.0
250.182419 88.0
250.235947 116.0
250.333557 216.0
250.415436 76.0
250.535141 116.0
250.569794 72.0
250.591858 48.0
250.620209 196.0
250.79985 56.0
250.900726 128.0
251.41803 164.0
251.531647 144.0
251.733719 76.0
251.892471 120.0
251.904648 100.0
251.91452 132.0
251.992737 104.0
252.078049 144.0
252.255035 240.0
252.305618 116.0
253.527435 64.0
253.606659 224.0
253.838104 188.0
253.90152 72.0
254.180695 124.0
254.494934 148.0
254.542572 184.0
254.599731 156.0
254.691833 204.0
254.952362 100.0
255.025467 108.0
255.238464 88.0
255.327515 120.0
255.657471 168.0
255.94487 164.0
255.970352 140.0
256.059509 132.0
256.180573 148.0
256.226715 180.0
256.735168 244.0
256.811707 168.0
256.993561 60.0
257.191406 96.0
257.229706 96.0
257.264832 132.0
257.306335 140.0
257.44046 180.0
257.501129 92.0
257.606537 188.0
257.721558 44.0
258.018799 60.0
258.140289 116.0
258.287415 56.0
258.447388 240.0
258.687408 200.0
258.72583 156.0
259.046082 148.0
259.150482 768.0
259.204254 172.0
259.255646 224.0
259.289581 140.0
259.353699 128.0
259.388947 112.0
259.512573 108.0
259.680756 72.0
259.84436 208.0
260.118439 216.0
260.161957 2816.0
260.232697 168.0
260.287292 164.0
260.354736 148.0
260.528168 100.0
260.573151 60.0
260.659912 104.0
260.698486 184.0
260.855957 136.0
260.923462 132.0
261.116425 88.0
261.165466 656.0
261.238647 172.0
261.3255 36.0
261.386658 172.0
261.426605 184.0
261.476746 156.0
261.605499 148.0
261.660248 56.0
261.705322 164.0
261.946869 128.0
262.12085 164.0
262.167633 152.0
262.362579 144.0
262.456085 120.0
262.51413 68.0
262.552826 72.0
262.776947 124.0
263.130402 40.0
263.165924 128.0
263.2854 168.0
263.34671 196.0
263.456604 104.0
263.559998 56.0
263.87027 48.0
263.954987 160.0
263.980225 60.0
264.019043 152.0
264.46228 116.0
264.507599 76.0
264.601471 56.0
264.87674 100.0
265.051697 172.0
265.113281 180.0
265.19754 156.0
265.537964 140.0
265.599609 44.0
265.714966 100.0
265.868896 216.0
266.018188 208.0
266.141571 216.0
266.306 104.0
266.378662 108.0
266.500214 120.0
266.597839 84.0
266.672272 180.0
266.781616 112.0
267.019043 232.0
267.233704 172.0
267.289001 116.0
267.34433 160.0
267.403961 184.0
267.490784 144.0
267.757782 72.0
267.806641 168.0
268.947845 60.0
269.073303 128.0
269.225372 164.0
269.297241 172.0
269.643555 172.0
269.787384 176.0
270.140564 132.0
270.261627 156.0
270.310699 188.0
270.748047 164.0
270.886932 220.0
271.070435 152.0
271.486755 140.0
271.522827 88.0
271.555634 96.0
271.686829 104.0
272.116791 92.0
272.162354 408.0
272.221863 76.0
272.619354 180.0
272.842865 92.0
272.925049 148.0
273.082916 164.0
273.15332 264.0
273.188171 156.0
273.497498 112.0
273.560028 196.0
273.727966 260.0
274.471008 208.0
274.528717 88.0
275.423157 36.0
275.532166 120.0
275.604858 132.0
275.627991 68.0
275.783325 120.0
276.080872 156.0
276.352112 136.0
276.613586 160.0
276.916534 176.0
276.989868 140.0
277.070587 76.0
277.222992 80.0
277.430389 148.0
277.508057 144.0
277.91272 52.0
277.998993 100.0
278.078644 132.0
278.115173 180.0
278.168274 100.0
278.42395 108.0
278.576721 172.0
278.629883 132.0
278.673065 140.0
278.889099 324.0
279.028717 140.0
279.128448 104.0
279.407837 152.0
279.570892 176.0
279.81723 28.0
280.030334 140.0
280.094696 136.0
280.203552 188.0
280.33136 216.0
280.480164 64.0
280.987061 132.0
281.033752 72.0
281.177246 132.0
281.207306 148.0
281.300751 72.0
281.430969 44.0
281.464355 140.0
281.73822 72.0
281.858521 88.0
281.988861 104.0
282.159332 112.0
282.199463 84.0
282.691162 76.0
282.7146 164.0
282.83844 220.0
282.868561 132.0
282.965637 172.0
283.033813 100.0
283.133057 96.0
283.531738 144.0
283.682587 152.0
284.098419 132.0
284.239349 100.0
284.279602 116.0
284.470917 196.0
284.598511 168.0
284.67218 136.0
284.82016 160.0
285.1091 196.0
285.233459 56.0
285.425934 192.0
285.488983 176.0
285.660706 148.0
285.710999 244.0
285.75473 52.0
286.177155 224.0
286.209106 144.0
286.246155 84.0
286.289948 176.0
286.330353 48.0
286.586365 108.0
286.650391 148.0
286.734467 72.0
286.869476 156.0
287.021179 136.0
287.442841 188.0
287.549011 84.0
287.594635 176.0
287.641968 100.0
287.706116 132.0
287.856628 196.0
287.942474 212.0
288.156311 820.0
288.199219 128.0
288.385101 60.0
288.466217 64.0
288.571014 176.0
288.658936 276.0
288.704437 148.0
288.905853 72.0
288.936279 96.0
288.997192 96.0
289.075012 60.0
289.160248 316.0
289.2341 116.0
289.257782 188.0
289.295013 128.0
289.342407 40.0
289.410126 64.0
289.458771 252.0
289.538818 112.0
289.585052 128.0
289.6203 132.0
289.670898 88.0
289.735291 208.0
289.811707 136.0
289.836914 64.0
289.864044 168.0
289.891144 100.0
289.943726 200.0
290.029083 160.0
290.035797 212.0
290.174744 87236.0
290.280975 160.0
290.312531 80.0
290.341736 136.0
290.392273 44.0
290.405243 56.0
290.450562 32.0
290.48645 104.0
290.549133 68.0
290.593903 64.0
290.636871 48.0
290.655457 300.0
290.68454 112.0
290.729065 180.0
290.772888 32.0
290.828705 108.0
290.85437 76.0
290.892365 60.0
290.944733 160.0
291.009857 156.0
291.04657 116.0
291.09079 68.0
291.114471 112.0
291.121155 76.0
291.177551 12684.0
291.242645 52.0
291.352417 108.0
291.43042 68.0
291.541809 100.0
291.580688 124.0
291.610504 60.0
291.652588 100.0
291.70697 68.0
291.746216 84.0
291.783936 88.0
291.819183 44.0
291.879303 64.0
291.950012 84.0
292.019806 92.0
292.072632 76.0
292.097595 180.0
292.181213 1536.0
292.315796 88.0
292.358582 56.0
292.390656 64.0
292.435791 76.0
292.497864 72.0
292.574036 64.0
292.662811 136.0
292.693634 88.0
292.73111 232.0
292.789001 44.0
292.812836 52.0
292.878662 216.0
292.91391 172.0
292.965759 92.0
292.989441 80.0
292.998688 128.0
293.046265 84.0
293.083313 80.0
293.095062 104.0
293.109009 92.0
293.128387 252.0
293.180634 192.0
293.211304 100.0
293.224915 160.0
293.26532 208.0
293.312225 92.0
293.346466 72.0
293.433014 84.0
293.460297 136.0
293.487579 60.0
293.576233 132.0
293.610565 56.0
293.641022 44.0
293.774048 176.0
293.83548 160.0
294.002686 56.0
294.050446 180.0
294.126617 76.0
294.152863 120.0
294.184967 108.0
294.272339 88.0
294.36795 76.0
294.425995 52.0
294.50354 120.0
294.552368 136.0
294.613861 116.0
294.678772 48.0
294.709534 40.0
294.736877 44.0
294.887238 76.0
295.03421 32.0
295.058167 92.0
295.099731 76.0
295.283844 92.0
295.37619 148.0
295.526733 224.0
295.84845 160.0
295.954163 64.0
296.026489 48.0
296.081268 72.0
296.502686 40.0
296.536957 224.0
296.999847 184.0
297.092468 132.0
297.339508 204.0
297.46994 60.0
297.614136 68.0
297.679382 36.0
297.895752 152.0
297.954163 140.0
298.04007 168.0
298.325317 184.0
298.476593 56.0
298.603851 80.0
298.641693 168.0
299.037354 144.0
299.073486 160.0
299.192261 120.0
299.443634 120.0
299.519409 112.0
299.698547 192.0
300.194946 180.0
300.301849 192.0
300.605438 128.0
300.829803 180.0
300.971344 116.0
301.050781 40.0
301.164734 148.0
301.202911 164.0
301.461487 164.0
301.586304 148.0
301.638153 72.0
301.811005 148.0
301.870117 128.0
302.056549 148.0
302.211426 1448.0
302.333344 68.0
302.496033 124.0
302.579102 100.0
302.85614 116.0
303.001648 72.0
303.218628 468.0
303.431396 44.0
303.68454 56.0
303.899628 212.0
304.041901 52.0
304.082123 68.0
304.222412 164.0
304.420319 88.0
304.684296 164.0
304.944916 92.0
305.101349 104.0
305.282135 104.0
305.512421 140.0
305.727448 88.0
305.751801 144.0
305.82489 128.0
305.877106 164.0
306.009399 84.0
306.064331 180.0
306.901367 120.0
307.072235 144.0
307.131531 144.0
307.937836 44.0
308.259247 92.0
308.829102 108.0
308.916565 112.0
309.074005 148.0
309.420502 104.0
309.480011 164.0
309.595581 168.0
309.844269 220.0
309.991455 56.0
310.14917 116.0
310.327942 108.0
310.359497 168.0
310.47522 180.0
310.861115 156.0
311.127869 192.0
311.296417 56.0
311.60791 92.0
312.108154 168.0
312.132751 164.0
312.417664 112.0
312.635803 108.0
312.794189 224.0
312.875153 76.0
313.012482 168.0
313.185059 160.0
313.266052 136.0
313.30481 88.0
313.378815 184.0
313.509186 108.0
313.829956 124.0
313.893433 68.0
314.147369 52.0
314.182648 180.0
314.211121 120.0
314.335388 148.0
314.369659 176.0
314.422607 140.0
314.480621 128.0
314.549652 112.0
314.673218 112.0
314.768555 84.0
314.892181 212.0
314.962799 152.0
315.248993 156.0
315.584808 132.0
315.683807 104.0
316.370239 48.0
316.717255 176.0
317.192078 72.0
318.125061 48.0
318.231567 104.0
318.505005 124.0
318.536987 56.0
318.561859 132.0
318.647125 184.0
318.828339 112.0
318.948273 168.0
319.459808 128.0
319.725067 192.0
319.760132 52.0
320.322723 84.0
320.426025 44.0
320.454529 120.0
320.483063 200.0
320.636292 140.0
321.363739 88.0
322.02417 152.0
322.781799 132.0
322.817566 152.0
322.871216 176.0
322.978516 136.0
323.171692 68.0
323.221802 72.0
323.339874 136.0
323.708618 200.0
324.177917 212.0
324.547119 132.0
325.027771 148.0
325.947021 168.0
326.029663 104.0
326.274109 188.0
326.493439 260.0
326.774017 216.0
326.892761 184.0
327.047516 116.0
327.454376 168.0
327.576843 164.0
327.767792 100.0
327.836273 180.0
327.875916 152.0
327.901154 148.0
328.052521 88.0
328.351807 208.0
328.503296 128.0
328.571838 100.0
328.611542 124.0
328.734222 96.0
328.864136 72.0
329.10965 120.0
329.293823 72.0
329.37326 252.0
329.441895 160.0
329.483337 144.0
329.725616 148.0
329.799652 132.0
329.988892 84.0
330.134491 180.0
330.191498 160.0
330.248016 128.0
330.331207 40.0
330.36377 44.0
330.426483 144.0
330.465057 100.0
330.570007 60.0
330.597595 96.0
330.719208 244.0
330.763092 180.0
330.816132 144.0
330.946442 196.0
330.986664 148.0
331.015259 84.0
331.055084 104.0
331.110718 112.0
331.192627 140.0
331.201355 136.0
331.268799 124.0
331.315887 76.0
331.347473 124.0
331.407684 188.0
331.454773 132.0
331.496887 92.0
331.502808 88.0
331.531158 96.0
331.564941 136.0
331.593018 288.0
331.669189 104.0
331.762939 180.0
331.858124 204.0
331.908295 116.0
331.926605 232.0
331.940002 184.0
331.984161 404.0
332.027161 200.0
332.060547 384.0
332.116913 152.0
332.141541 512.0
332.221832 157944.0
332.329437 132.0
332.390076 76.0
332.420074 128.0
332.436005 76.0
332.442047 136.0
332.490509 68.0
332.527893 152.0
332.565735 160.0
332.649872 132.0
332.693573 176.0
332.733917 148.0
332.777283 148.0
332.820862 928.0
332.878326 156.0
332.962433 136.0
332.995056 88.0
333.036377 460.0
333.069 64.0
333.096558 84.0
333.111511 152.0
333.149872 120.0
333.162231 64.0
333.225128 32104.0
333.291199 112.0
333.302063 236.0
333.333557 48.0
333.347565 56.0
333.430389 104.0
333.472778 92.0
333.517456 64.0
333.54425 176.0
333.582764 104.0
333.603546 108.0
333.653503 108.0
333.707184 64.0
333.738892 100.0
333.779663 132.0
333.80368 112.0
333.868042 76.0
333.900818 44.0
333.927032 156.0
333.961945 60.0
334.044403 100.0
334.085419 60.0
334.116974 84.0
334.127533 80.0
334.165405 112.0
334.227875 4480.0
334.303467 60.0
334.339569 164.0
334.410339 84.0
334.4534 68.0
334.494659 60.0
334.529053 36.0
334.570496 64.0
334.605133 100.0
334.648956 128.0
334.667542 108.0
334.678528 92.0
334.757629 116.0
334.795654 28.0
334.834381 44.0
334.873718 92.0
334.901581 96.0
334.975891 108.0
335.014191 80.0
335.043335 156.0
335.077637 68.0
335.137573 204.0
335.188049 120.0
335.195953 156.0
335.228027 492.0
335.284393 240.0
335.321228 224.0
335.35498 100.0
335.369873 112.0
335.416718 52.0
335.424255 96.0
335.447968 124.0
335.523346 268.0
335.555603 248.0
335.58017 148.0
335.605652 280.0
335.634003 108.0
335.719208 168.0
335.766998 76.0
335.81308 100.0
335.838684 164.0
335.87085 80.0
335.940765 84.0
336.01535 72.0
336.070068 72.0
336.095886 140.0
336.134155 80.0
336.21167 116.0
336.266602 104.0
336.388 100.0
336.460052 124.0
336.524353 56.0
336.600769 84.0
336.637299 52.0
336.67746 36.0
336.732239 64.0
336.841827 52.0
337.006226 60.0
337.444824 60.0
337.561829 52.0
337.609375 52.0
337.71698 28.0
337.763 72.0
337.821533 80.0
337.894684 56.0
337.92395 32.0
338.095947 52.0
338.250427 92.0
338.333862 44.0
338.740356 72.0
338.963867 84.0
339.139771 76.0
339.176422 76.0
339.521088 32.0
339.587097 68.0
339.748505 152.0
339.920929 48.0
340.265961 76.0
340.339417 56.0
340.614838 100.0
341.019043 56.0
341.155029 80.0
341.979004 48.0
342.579224 56.0
343.036194 68.0
343.261078 100.0
343.460236 88.0
343.676239 48.0
343.814453 52.0
344.154053 100.0
344.47168 44.0
344.504913 36.0
344.959473 76.0
345.358826 96.0
345.506805 48.0
345.789001 76.0
345.850952 88.0
345.884247 40.0
346.181976 108.0
346.239716 84.0
346.339722 108.0
346.851074 108.0
347.106873 36.0
347.644775 68.0
347.860046 108.0
348.309357 80.0
349.078705 100.0
349.484161 80.0
349.651611 36.0
349.79306 96.0
349.915924 72.0
350.351654 76.0
350.679565 60.0
350.865967 80.0
351.138184 80.0
351.548553 68.0
352.067474 48.0
352.530701 100.0
352.863373 132.0
354.16568 92.0
354.566589 84.0
354.604065 76.0
355.849487 120.0
356.619598 96.0
357.360413 148.0
357.510956 32.0
358.358185 48.0
359.81781 92.0
365.278809 64.0
367.830414 92.0
367.923553 68.0
368.053375 40.0
369.417816 56.0
370.673645 68.0
371.217987 68.0
372.442291 36.0
372.838013 112.0
376.691071 44.0
378.083466 36.0
378.741241 88.0
382.048615 52.0
385.675201 108.0
387.573273 112.0
387.635956 100.0
387.855438 68.0
388.086761 144.0
389.45636 56.0
389.939636 100.0
390.25415 76.0
390.486145 104.0
394.784973 68.0
396.304993 92.0
396.848022 80.0
398.046356 40.0
399.564697 64.0
404.369202 80.0
406.746094 80.0
408.659027 144.0
408.892456 80.0
409.423859 76.0
410.104767 44.0
412.660156 144.0
417.310699 84.0
422.609039 104.0
423.849731 52.0
425.654602 128.0
426.928528 144.0
427.364563 56.0
429.127411 68.0
432.022552 52.0
432.183929 140.0
433.542175 76.0
435.014618 128.0
435.155762 40.0
435.637512 44.0
436.452148 80.0
436.481232 148.0
438.429474 72.0
445.610107 112.0
446.391937 128.0
446.757843 52.0
447.111298 140.0
447.814423 88.0
448.783691 72.0
449.804626 96.0
450.104401 80.0
450.488739 72.0
451.879639 56.0
455.844269 100.0
456.920013 64.0
457.12851 100.0
459.258728 88.0
460.7229 52.0
461.611938 160.0
462.411957 92.0
462.797241 100.0
463.186951 32.0
465.429993 104.0
470.847412 36.0
473.200684 120.0
473.897125 44.0
475.58844 96.0
478.152802 72.0
479.433228 52.0
484.20401 88.0
484.777924 108.0
485.242554 80.0
485.286407 72.0
488.860535 60.0
488.922516 80.0
492.04007 120.0
494.838715 56.0
495.104401 76.0
495.219543 140.0
496.012695 120.0
497.321228 104.0
498.271545 64.0
500.054718 124.0
501.154663 88.0
503.996948 36.0
506.108185 104.0
508.062347 156.0
508.165527 124.0
515.450989 72.0
516.056702 92.0
516.563232 92.0
521.633057 48.0
530.585449 76.0
534.480347 80.0
534.618408 104.0
535.695862 40.0
536.778931 96.0
540.025635 108.0
541.673462 80.0
542.373169 96.0
544.535339 48.0
549.180481 64.0
552.113525 80.0
552.97998 60.0
556.936401 52.0
557.500183 52.0
557.918518 56.0
558.332275 52.0
562.204834 72.0
563.975952 80.0
569.790588 132.0
569.904602 108.0
570.940857 80.0
575.988403 44.0
576.270264 104.0
579.31781 64.0
586.405457 48.0
587.99707 60.0
588.914429 44.0
589.439941 72.0
590.006531 68.0
594.71991 64.0
598.750549 76.0
600.56366 140.0
603.014709 84.0
604.393799 60.0
606.666382 32.0
610.368347 52.0
611.416199 100.0
612.997009 60.0
613.736389 68.0
619.727112 56.0
620.336731 88.0
620.634155 52.0
620.763123 92.0
624.726685 48.0
625.030151 64.0
632.686646 80.0
634.555359 60.0
635.302673 32.0
639.100952 48.0
639.901245 28.0
641.7453 48.0
643.167969 108.0
647.936707 100.0
652.957031 128.0
653.333435 56.0
657.108643 60.0
659.314575 96.0
659.846191 40.0
660.787292 72.0
660.986816 120.0
665.05603 72.0
666.129272 92.0
666.175476 128.0
668.684753 88.0
672.534973 92.0
676.287537 60.0
678.100342 108.0
679.619812 84.0
679.874084 56.0
681.094177 168.0
690.523193 136.0
695.317139 72.0
698.122559 48.0
698.890564 108.0
700.844055 88.0
703.190796 192.0
704.753906 76.0
708.187256 80.0
718.692139 44.0
718.740173 116.0
719.556824 232.0
722.59259 40.0
726.128052 152.0
726.8255 60.0
727.083069 196.0
734.211548 272.0
735.420105 44.0
740.963013 168.0
741.933105 140.0
749.771362 152.0
750.458191 116.0
758.275452 76.0
759.19104 132.0
761.781738 76.0
766.094177 88.0
773.195557 208.0
775.311157 156.0
777.651672 80.0
780.084656 60.0
783.289917 156.0
783.980835 188.0
784.560486 32.0
786.613403 208.0
788.954102 44.0
792.250366 84.0
792.306396 76.0
794.167542 156.0
796.115051 148.0
796.946411 96.0
797.772583 148.0
797.952454 72.0
799.544373 52.0
800.152344 152.0
803.105225 232.0
806.453491 44.0
806.724792 148.0
807.103638 208.0
809.191467 40.0
811.571167 84.0
813.375305 168.0
814.851807 124.0
815.362671 168.0
815.607666 192.0
817.26825 164.0
817.450378 172.0
818.173218 88.0
818.326965 160.0
818.41803 232.0
818.66864 96.0
820.349487 164.0
822.836853 88.0
824.527649 164.0
824.590576 56.0
825.173645 60.0
826.24884 40.0
828.086365 184.0
828.338379 68.0
833.346802 152.0
834.444641 188.0
834.824097 84.0
836.901428 156.0
837.091492 208.0
839.43512 108.0
840.625183 72.0
840.775269 148.0
840.815674 160.0
842.663513 80.0
843.513062 136.0
844.432434 112.0
845.033997 196.0
846.411621 164.0
848.120667 172.0
849.007751 92.0
849.674805 192.0
851.393005 176.0
856.068665 56.0
857.886597 156.0
860.453552 160.0
864.188354 164.0
865.241821 76.0
866.319397 180.0
868.118835 200.0
869.274475 152.0
871.270813 148.0
871.611633 132.0
873.169495 200.0
874.552124 116.0
875.129089 140.0
875.193848 80.0
875.959473 40.0
877.6745 192.0
877.928101 140.0
878.081421 192.0
879.981567 56.0
883.474487 32.0
883.634216 80.0
884.468628 72.0
885.07843 184.0
885.155396 132.0
885.694336 64.0
888.973022 112.0
889.786194 140.0
890.011841 88.0
891.722717 116.0
892.340942 60.0
892.513428 96.0
894.048157 84.0
896.471985 64.0
897.10376 88.0
899.060181 168.0
901.646179 152.0
901.945007 144.0
902.55481 92.0
903.535706 104.0
905.600952 92.0
907.110962 64.0
907.560608 164.0
907.830444 144.0
907.986389 128.0
908.09436 124.0
908.634216 212.0
908.868225 152.0
910.489075 188.0
910.663208 128.0
913.043274 144.0
915.004944 192.0
915.564941 148.0
916.962708 156.0
918.38562 92.0
919.284546 160.0
919.936462 160.0
920.075256 172.0
920.353027 176.0
921.832947 188.0
923.870605 196.0
924.294128 176.0
924.98407 168.0
925.304932 132.0
928.813782 64.0
929.620667 164.0
929.936279 140.0
930.045532 176.0
930.124451 140.0
930.24585 172.0
932.681763 84.0
932.73645 168.0
933.587646 132.0
933.849182 184.0
934.859131 44.0
934.956482 216.0
935.44342 60.0
935.753906 172.0
935.869568 44.0
936.046204 172.0
936.314148 100.0
936.52124 116.0
937.672791 220.0
939.414917 152.0
939.892578 116.0
941.583557 56.0
942.09668 176.0
942.218811 176.0
943.710144 168.0
944.388977 104.0
945.312744 144.0
946.635071 212.0
946.690186 204.0
947.461914 160.0
947.713135 132.0
949.484741 164.0
950.687195 56.0
951.006348 208.0
951.282593 40.0
952.977661 136.0
954.963257 128.0
955.408386 188.0
956.667786 140.0
957.572937 188.0
957.973328 180.0
958.725037 144.0
959.187317 164.0
959.359924 148.0
959.532532 68.0
959.723633 216.0
959.865479 52.0
960.179993 152.0
960.975769 264.0
961.234924 104.0
962.617676 160.0
962.969727 216.0
964.155945 224.0
964.6875 164.0
964.996643 148.0
965.287231 144.0
965.893372 144.0
966.059326 164.0
967.038086 60.0
967.229919 84.0
967.285645 152.0
967.880005 204.0
968.195862 160.0
969.199097 80.0
969.422485 184.0
970.122864 208.0
970.172485 184.0
970.215881 208.0
970.414246 192.0
970.835938 164.0
972.045715 180.0
972.430359 148.0
973.367798 152.0
973.727966 136.0
973.97644 164.0
974.05719 188.0
974.579041 176.0
975.722656 268.0
975.865662 144.0
976.425354 152.0
976.5 112.0
977.899902 116.0
978.049316 136.0
978.875366 140.0
979.462769 124.0
979.606079 176.0
979.780457 192.0
979.848999 176.0
979.973633 116.0
980.12561 196.0
981.288757 80.0
981.962219 104.0
982.461243 128.0
982.6297 96.0
982.922974 156.0
983.95282 200.0
985.982971 152.0
986.295471 228.0
987.883789 256.0
987.971375 196.0
988.165344 184.0
988.916321 160.0
989.538025 188.0
990.61322 340.0
991.208435 116.0
991.321228 128.0
991.603394 168.0
991.922913 72.0
992.054565 176.0
992.606323 196.0
993.440491 52.0
993.829468 128.0
994.187134 64.0
995.13501 116.0
995.248047 116.0
995.455261 124.0
996.644775 208.0
996.786987 192.0
996.875 64.0
998.358582 132.0
998.484375 152.0
999.21405 128.0
999.276978 60.0
999.748901 68.0
1000.403503 140.0
1000.523132 164.0
1000.756104 132.0
1001.001648 200.0
1001.278748 144.0
1001.37323 164.0
1001.480347 68.0
1001.543335 136.0
1001.845703 176.0
1004.386108 176.0
1004.575378 64.0
1004.745728 128.0
1005.420898 124.0
1006.266724 296.0
1006.683472 184.0
1007.018188 168.0
1007.416138 184.0
1007.750977 136.0
1008.269165 112.0
1008.332397 148.0
1008.398682 156.0
1008.736938 168.0
1008.831726 208.0
1009.103577 56.0
1009.634766 160.0
1009.894104 196.0
1010.514038 120.0
1010.710205 80.0
1011.773499 156.0
1012.216736 180.0
1012.926086 156.0
1013.470947 120.0
1014.503967 96.0
1014.802002 156.0
1015.233154 52.0
1015.505859 144.0
1015.727905 152.0
1016.470215 132.0
1016.736755 116.0
1017.206421 144.0
1017.860352 176.0
1018.000061 28.0
1019.245117 204.0
1019.798035 180.0
1020.21759 168.0
1020.758057 64.0
1020.872498 132.0
1021.01239 180.0
1021.853638 244.0
1021.953857 168.0
1022.011169 140.0
1022.348389 144.0
1023.303223 132.0
1023.430542 140.0
1024.306763 124.0
1024.513306 172.0
1024.917114 176.0
1025.15686 132.0
1025.309814 152.0
1025.653931 200.0
1026.380737 184.0
1028.090332 96.0
1028.428711 212.0
1029.399048 164.0
1029.501221 172.0
1029.986694 136.0
1030.12085 52.0
1030.248535 160.0
1030.46582 112.0
1030.670288 168.0
1031.296509 212.0
1031.839966 152.0
1032.178833 108.0
1032.959106 72.0
1033.528442 180.0
1033.784424 120.0
1033.880493 176.0
1034.014893 124.0
1034.731812 240.0
1034.859863 132.0
1036.21167 196.0
1036.275391 152.0
1036.358643 72.0
1037.281494 116.0
1037.890625 68.0
1038.012451 112.0
1038.153564 180.0
1038.281738 184.0
1038.827026 132.0
1039.584106 172.0
1039.757324 200.0
1039.905029 136.0
1039.994873 176.0
1042.628174 168.0
1042.801636 164.0
1042.943115 200.0
1043.630981 76.0
1043.817505 104.0
1043.91394 204.0
1044.016846 124.0
1044.248291 80.0
1044.569946 236.0
1044.692139 184.0
1044.988159 224.0
1045.206909 192.0
1046.326904 84.0
1046.371948 116.0
1046.494751 156.0
1046.867676 152.0
1047.09314 196.0
1047.234863 132.0
1047.34436 176.0
1047.924072 164.0
1049.638672 116.0
1049.748291 160.0
1050.032104 188.0
1050.140625 144.0
1050.238525 180.0
1050.283569 224.0
1050.561035 136.0
1051.425659 164.0
1052.41333 180.0
1053.24646 128.0
1054.435303 56.0
1054.874878 176.0
1055.805908 148.0
1056.718018 188.0
1056.808594 160.0
1057.69519 168.0
1058.193726 64.0
1058.382568 132.0
1058.744141 196.0
1058.795898 200.0
1059.158569 204.0
1059.294678 168.0
1059.573242 112.0
1060.927734 160.0
1061.005493 192.0
1062.02356 52.0
1062.231201 192.0
1063.094116 184.0
1063.892456 188.0
1063.983398 100.0
1064.184692 60.0
1065.269287 184.0
1065.522583 120.0
1066.146362 132.0
1066.393311 224.0
1066.555908 192.0
1067.485596 168.0
1067.602661 44.0
1067.966919 192.0
1068.519775 164.0
1068.806152 68.0
1070.713501 164.0
1070.987061 112.0
1071.052124 188.0
1071.11731 180.0
1071.534302 136.0
1071.983887 132.0
1072.055542 124.0
1072.264038 116.0
1072.472656 164.0
1073.091919 116.0
1073.613647 140.0
1074.931396 168.0
1075.518799 96.0
1075.63623 92.0
1075.736816 188.0
1075.903931 124.0
1076.184692 120.0
1076.752808 108.0
1077.0271 160.0
1077.739258 172.0
1077.882935 64.0
1078.307739 120.0
1079.680786 180.0
1080.001221 164.0
1080.543091 192.0
1080.871338 100.0
1081.008789 148.0
1081.059204 236.0
1081.774414 180.0
1082.278687 188.0
1082.730469 172.0
1083.195557 192.0
1083.424805 188.0
1083.582031 88.0
1083.791748 216.0
1083.896606 128.0
1084.014526 176.0
1084.20459 108.0
1084.477173 124.0
1084.532349 180.0
1084.807617 148.0
1085.004272 132.0
1087.037598 136.0
1087.162354 148.0
1088.790405 136.0
1088.974365 136.0
1089.056519 180.0
1089.269897 164.0
1089.74292 148.0
1090.032104 184.0
1090.334351 136.0
1090.715576 96.0
1090.764648 208.0
1091.109985 192.0
1091.248047 396.0
1091.609741 172.0
1091.885986 168.0
1091.991211 148.0
1092.057007 96.0
1093.247803 60.0
1093.293823 116.0
1093.629517 232.0
1093.879639 112.0
1093.991577 124.0
1094.222046 112.0
1094.28125 152.0
1094.497559 184.0
1094.51709 156.0
1094.656616 176.0
1094.801392 152.0
1095.36792 120.0
1095.848755 172.0
1096.020142 144.0
1096.171631 136.0
1096.408936 144.0
1096.837402 248.0
1098.004395 188.0
1098.070312 164.0
1098.710205 148.0
1098.86853 108.0
1099.270996 68.0
1100.241333 200.0
1100.327148 28.0
1101.278076 112.0
1101.819702 136.0
1101.885864 160.0
1103.928345 180.0
1104.034058 140.0
1104.33313 220.0
1104.417725 140.0
1104.7948 192.0
1105.072632 120.0
1105.396851 144.0
1105.575562 120.0
1106.495605 148.0
1107.343262 160.0
1107.720825 60.0
1108.052002 136.0
1108.734619 128.0
1108.999634 180.0
1109.629517 160.0
1109.80188 132.0
1110.365479 164.0
1111.062866 148.0
1111.194702 196.0
1111.79187 172.0
1112.202026 184.0
1112.336182 96.0
1112.747803 120.0
1112.873901 72.0
1112.983032 164.0
1113.544678 148.0
1114.654053 224.0
1115.019653 156.0
1115.072754 100.0
1115.651123 140.0
1116.136475 224.0
1116.196289 124.0
1116.382446 132.0
1116.668457 112.0
1116.754883 108.0
1117.233887 52.0
1117.466797 132.0
1117.832764 128.0
1118.1521 144.0
1118.331909 96.0
1118.624756 152.0
1118.77124 188.0
1118.871094 180.0
1119.037476 364.0
1119.377075 148.0
1119.476929 80.0
1119.909912 132.0
1120.016479 188.0
1120.416138 212.0
1121.78894 72.0
1121.835693 212.0
1121.968994 132.0
1122.109009 180.0
1122.215698 208.0
1122.275635 176.0
1122.409058 72.0
1123.376099 84.0
1123.496216 60.0
1123.936523 160.0
1124.367065 196.0
1124.730713 172.0
1125.192871 160.0
1125.565308 164.0
1126.146362 132.0
1127.39563 180.0
1127.830078 136.0
1127.896973 152.0
1129.060303 32.0
1129.240967 140.0
1129.294434 184.0
1129.783691 144.0
1130.237671 224.0
1130.371582 200.0
1130.578979 156.0
1130.853394 168.0
1131.911133 164.0
1133.44519 160.0
1133.793579 108.0
1133.840576 144.0
1133.907593 160.0
1133.994629 92.0
1134.396851 136.0
1134.450562 148.0
1135.214844 208.0
1135.436157 100.0
1135.79834 132.0
1136.080078 168.0
1136.522949 188.0
1137.543091 256.0
1137.609863 168.0
1137.670654 180.0
1138.241333 60.0
1138.677856 188.0
1138.899536 184.0
1139.168213 152.0
1139.221924 48.0
1139.893799 124.0
1140.25 188.0
1140.680176 36.0
1140.839111 204.0
1141.137329 192.0
1141.431519 164.0
1141.534058 144.0
1142.140991 80.0
1142.854736 164.0
1143.969727 196.0
1144.169434 120.0
1144.286133 180.0
1144.454468 256.0
1144.946167 180.0
1145.767822 76.0
1145.942993 100.0
1146.414673 72.0
1146.825806 204.0
1146.96228 132.0
1147.041504 92.0
1147.338135 84.0
1147.74939 168.0
1148.046143 172.0
1148.869019 156.0
1149.833984 176.0
1150.164673 176.0
1150.745239 248.0
1150.797729 168.0
1151.204468 156.0
1151.2854 56.0
1151.542114 176.0
1152.758179 128.0
1153.474609 176.0
1153.596313 204.0
1153.643555 200.0
1153.981567 116.0
1154.197998 184.0
1154.367065 164.0
1155.977051 200.0
1156.234253 124.0
1156.755371 300.0
1156.999146 208.0
1157.202271 212.0
1157.906494 188.0
1158.231567 128.0
1158.502563 80.0
1158.902344 84.0
1158.956543 116.0
1159.275024 192.0
1159.369873 172.0
1159.688477 168.0
1160.149414 64.0
1160.203613 104.0
1161.919434 188.0
1162.177246 168.0
1162.523315 124.0
1162.944092 136.0
1163.107056 152.0
1163.224243 232.0
1163.704468 212.0
1164.485352 124.0
1164.614502 160.0
1164.759521 184.0
1164.865845 144.0
1164.967651 124.0
1165.402466 52.0
1165.565552 172.0
1165.686646 156.0
1165.850952 120.0
1165.966064 188.0
1166.129639 40.0
1166.297974 220.0
1166.394775 148.0
1166.537476 40.0
1166.673218 204.0
1167.052368 316.0
1167.278564 132.0
1167.707031 192.0
1168.049194 216.0
1168.108398 136.0
1168.489258 100.0
1168.788696 140.0
1169.489624 140.0
1170.102295 120.0
1170.899048 236.0
1171.491699 164.0
1172.391357 168.0
1172.772705 160.0
1173.202148 136.0
1173.727173 192.0
1173.781738 100.0
1174.490967 160.0
1174.873047 144.0
1174.99585 168.0
1175.234619 184.0
1175.528076 208.0
1175.616821 140.0
1175.806274 172.0
1175.869263 224.0
1176.566772 208.0
1177.299561 144.0
1178.15686 136.0
1179.072388 144.0
1179.578003 124.0
1179.92688 160.0
1180.220947 44.0
1180.275635 164.0
1180.38501 204.0
1180.754272 60.0
1181.055298 172.0
1181.356201 72.0
1181.417847 152.0
1182.382568 180.0
1182.581055 164.0
1182.793335 200.0
1183.183472 92.0
1184.176392 132.0
1184.477783 152.0
1184.703857 208.0
1184.902466 112.0
1185.334229 56.0
1185.416382 136.0
1185.896118 152.0
1186.115479 120.0
1186.238892 176.0
1186.602295 32.0
1187.041138 160.0
1187.47998 148.0
1187.864136 76.0
1187.967041 200.0
1189.161011 220.0
1189.359985 172.0
1189.682617 136.0
1190.746948 168.0
1191.303345 176.0
1191.37207 172.0
1191.763672 176.0
1191.853027 136.0
1192.44397 168.0
1193.440796 156.0
1193.708984 132.0
1193.908447 188.0
1194.052856 144.0
1194.162964 60.0
1194.396729 124.0
1194.623779 184.0
1195.291138 136.0
1195.95874 192.0
1196.220337 212.0
1196.460693 176.0
1196.681519 172.0
1196.867432 136.0
1197.018921 164.0
1197.762817 88.0
1197.914307 180.0
1198.844482 124.0
1199.230469 196.0
1199.299438 172.0
1200.168091 96.0
1202.762085 136.0
1202.886353 172.0
1203.590576 44.0
1203.783936 68.0
1203.852905 152.0
1204.108521 100.0
1204.356079 180.0
1204.44458 256.0
1204.462158 168.0
1204.562744 228.0
1204.787964 184.0
1205.255249 132.0
1206.851929 172.0
1206.962524 144.0
1207.391357 208.0
1208.366699 72.0
1209.190186 132.0
1209.370117 64.0
1210.048462 168.0
1210.185791 184.0
1210.408569 160.0
1210.491699 148.0
1210.616333 128.0
1211.00415 160.0
1211.177368 144.0
1212.098755 156.0
1212.258179 172.0
1212.69873 216.0
1212.875 116.0
1213.686157 220.0
1214.060547 128.0
1214.213135 212.0
1214.379639 208.0
1214.476685 236.0
1215.642334 168.0
1216.35022 216.0
1216.398804 156.0
1217.329224 240.0
1217.488892 184.0
1217.65564 124.0
1217.759766 96.0
1217.912598 152.0
1218.579468 216.0
1218.89917 160.0
1219.302246 176.0
1220.324097 264.0
1220.761597 172.0
1220.852539 172.0
1221.269897 116.0
1221.687256 232.0
1222.007202 200.0
1222.550049 188.0
1222.633545 272.0
1222.734863 248.0
1222.821411 140.0
1223.816895 68.0
1224.081543 180.0
1224.743164 204.0
1224.9104 180.0
1224.97998 248.0
1225.607056 192.0
1226.039062 120.0
1226.101807 188.0
1226.415405 60.0
1226.478149 168.0
1226.645508 180.0
1226.952271 148.0
1227.265991 128.0
1227.363647 180.0
1228.221436 224.0
1228.395752 112.0
1228.99585 200.0
1229.565186 168.0
1229.986816 152.0
1230.901367 236.0
1231.131836 148.0
1231.236572 152.0
1231.627808 148.0
1231.732544 168.0
1231.802734 152.0
1231.984009 204.0
1232.137695 220.0
1234.302612 224.0
1234.675171 132.0
1235.38855 196.0
1235.731445 136.0
1236.081909 184.0
1236.263184 192.0
1236.375122 136.0
1236.452148 140.0
1236.669067 144.0
1236.918457 188.0
1237.061157 72.0
1237.229126 228.0
1237.334106 244.0
1237.468628 132.0
1237.7052 180.0
1237.880249 188.0
1238.195435 200.0
1238.459595 176.0
1238.846924 56.0
1239.624634 180.0
1239.890869 140.0
1240.472046 192.0
1240.706665 176.0
1241.229614 172.0
1241.342041 104.0
1241.55249 168.0
1241.847046 80.0
1241.938232 204.0
1242.296021 228.0
1242.63269 136.0
1243.285278 96.0
1243.650269 124.0
1243.874878 160.0
1244.106567 164.0
1244.254028 180.0
1244.485718 140.0
1245.41272 132.0
1245.553223 68.0
1245.637451 80.0
1245.820068 196.0
1245.876343 116.0
1246.178467 216.0
1246.227661 196.0
1246.438354 240.0
1246.867065 168.0
1246.972534 192.0
1247.218506 224.0
1247.2677 180.0
1247.323975 128.0
1247.513794 148.0
1248.026978 188.0
1248.090332 240.0
1248.709106 164.0
1248.821655 52.0
1249.18042 156.0
1249.264893 180.0
1249.785522 60.0
1250.221802 116.0
1251.179077 208.0
1251.74231 68.0
1251.85498 200.0
1251.925415 140.0
1252.169556 204.0
1252.291626 192.0
1252.481812 212.0
1252.650879 200.0
1252.924194 116.0
1253.080688 132.0
1253.136963 64.0
1253.609131 152.0
1254.194092 236.0
1254.504272 148.0
1255.076172 180.0
1255.209351 148.0
1255.618408 160.0
1256.72583 152.0
1256.95874 180.0
1257.078735 116.0
1257.2146 80.0
1258.285767 196.0
1258.43396 160.0
1258.483398 132.0
1258.582275 128.0
1258.829346 108.0
1259.090698 140.0
1259.295532 184.0
1259.500366 136.0
1259.687378 116.0
1259.761719 208.0
1259.825317 144.0
1260.143188 180.0
1260.270386 160.0
1260.461182 148.0
1260.51062 120.0
1260.574219 152.0
1260.991211 212.0
1261.429443 152.0
1261.479004 160.0
1261.620361 156.0
1261.811279 192.0
1261.966797 200.0
1262.064941 192.0
1262.136475 200.0
1262.192993 192.0
1262.320312 208.0
1262.843628 180.0
1263.169067 88.0
1263.600586 172.0
1263.763306 204.0
1263.834106 188.0
1264.152588 216.0
1264.301147 340.0
1264.435669 104.0
1264.520508 124.0
1264.640869 180.0
1265.462036 164.0
1265.82312 140.0
1265.879883 164.0
1265.944946 144.0
1266.377319 112.0
1266.779297 108.0
1266.90686 128.0
1267.282349 172.0
1267.686279 208.0
1267.920166 216.0
1268.231934 184.0
1268.451782 44.0
1268.508423 160.0
1269.040161 232.0
1269.227905 164.0
1269.30249 68.0
1269.380493 192.0
1269.699585 60.0
1270.338013 248.0
1270.58252 180.0
1270.761719 196.0
1271.267456 196.0
1271.416504 84.0
1271.693359 144.0
1272.028442 192.0
1272.147583 132.0
1272.221924 180.0
1272.325073 240.0
1272.726074 160.0
1272.786621 188.0
1272.885986 104.0
1273.329956 216.0
1273.411621 64.0
1273.738281 152.0
1274.086426 108.0
1274.164551 52.0
1274.235596 152.0
1274.932007 132.0
1274.995972 164.0
1275.656982 132.0
1275.905762 184.0
1276.23999 152.0
1276.364014 212.0
1276.439087 132.0
1276.595459 212.0
1276.979492 176.0
1277.569946 148.0
1277.797607 220.0
1278.615967 236.0
1278.801025 164.0
1279.312622 100.0
1279.626709 284.0
1280.196411 136.0
1280.531128 160.0
1281.214966 160.0
1281.699463 188.0
1281.799194 176.0
1281.88269 248.0
1282.155518 48.0
1282.226807 124.0
1282.319458 228.0
1282.440674 72.0
1282.953125 196.0
1283.13208 68.0
1283.317505 124.0
1283.859497 136.0
1284.098511 156.0
1284.304077 176.0
1285.086426 96.0
1285.393188 124.0
1285.507324 160.0
1286.034302 144.0
1286.383057 176.0
1286.892212 172.0
1287.071045 160.0
1287.184937 400.0
1287.534912 172.0
1287.756226 204.0
1287.856201 156.0
1287.949097 148.0
1288.106323 184.0
1288.220581 220.0
1288.27771 236.0
1288.492065 160.0
1288.756348 204.0
1288.863525 200.0
1288.956421 144.0
1289.392456 156.0
1289.54248 152.0
1289.649658 96.0
1289.928467 40.0
1290.321655 120.0
1290.393188 124.0
1290.490723 172.0
1290.714966 168.0
1291.251343 176.0
1292.317139 140.0
1292.523926 184.0
1292.703613 160.0
1292.954102 188.0
1293.190186 132.0
1293.790161 164.0
1293.984863 112.0
1294.487061 168.0
1294.579224 104.0
1294.700928 156.0
1295.04187 228.0
1296.033325 136.0
1296.137085 164.0
1296.269775 164.0
1296.699829 76.0
1297.395142 108.0
1298.026001 144.0
1298.098999 208.0
1298.226807 180.0
1298.425659 140.0
1298.886719 132.0
1299.087524 36.0
1299.202393 188.0
1299.274048 156.0
1299.48938 216.0
1299.647217 164.0
1299.941406 192.0
1300.285889 92.0
1300.483032 236.0
1300.623169 148.0
1300.723755 132.0
1300.9104 120.0
1301.039551 140.0
1301.204712 248.0
1301.585205 192.0
1301.733521 212.0
1301.815063 172.0
1302.067871 196.0
1302.526367 180.0
1302.691284 148.0
1302.770386 152.0
1303.380981 88.0
1303.977539 212.0
1304.523804 224.0
1304.631592 172.0
1304.919189 136.0
1305.041504 56.0
1305.846924 168.0
1306.069824 204.0
1306.177734 244.0
1306.33606 204.0
1306.415161 180.0
1306.535522 192.0
1306.550415 140.0
1306.684326 176.0
1307.019531 268.0
1307.127441 60.0
1307.235352 136.0
1307.642212 124.0
1307.818359 180.0
1307.919067 40.0
1308.214233 104.0
1308.329468 152.0
1308.401489 192.0
1308.516602 196.0
1308.775879 164.0
1309.189087 204.0
1309.52478 116.0
1309.604004 172.0
1309.733643 176.0
1310.031006 232.0
1310.165894 92.0
1310.216309 172.0
1310.324341 168.0
1310.835938 200.0
1311.109863 120.0
1311.592773 192.0
1311.657593 172.0
1312.068481 156.0
1312.587646 152.0
1312.688599 80.0
1313.005981 152.0
1313.554077 156.0
1313.604614 92.0
1313.806641 160.0
1314.160156 100.0
1314.282837 192.0
1315.053345 212.0
1315.177734 172.0
1315.235474 136.0
1315.397461 188.0
1315.488037 168.0
1315.542114 144.0
1315.740723 176.0
1315.986206 136.0
1316.657837 212.0
1317.151855 224.0
1317.423462 128.0
1317.495728 124.0
1318.247192 88.0
1318.478394 180.0
1318.74353 160.0
1318.818115 124.0
1319.067993 204.0
1319.201172 192.0
1319.477173 136.0
1319.685669 180.0
1320.401489 124.0
1320.864502 136.0
1320.9729 216.0
1321.226196 152.0
1321.805054 44.0
1321.913574 232.0
1321.978638 144.0
1322.492554 132.0
1322.543213 148.0
1322.738647 128.0
1323.245361 188.0
1323.52832 148.0
1323.766724 180.0
1324.463379 180.0
1324.635864 180.0
1324.708374 80.0
1325.150269 48.0
1325.316895 212.0
1325.570557 172.0
1325.700928 116.0
1325.816895 184.0
1325.867676 80.0
1326.102173 132.0
1326.22998 192.0
1326.498291 120.0
1326.759277 124.0
1327.041992 172.0
1327.597168 132.0
1327.745361 248.0
1328.638916 200.0
1328.717407 236.0
1328.891479 208.0
1329.137573 144.0
1329.334106 172.0
1329.392212 164.0
1329.580933 172.0
1329.900269 104.0
1330.103516 224.0
1330.196289 232.0
1330.415649 152.0
1330.466431 192.0
1330.713257 164.0
1330.851318 104.0
1331.403198 192.0
1331.483032 128.0
1331.72998 124.0
1331.824463 120.0
1332.165771 188.0
1332.267578 120.0
1332.768799 112.0
1332.935913 196.0
1333.081299 128.0
1333.146729 136.0
1333.568237 168.0
1333.751099 156.0
1333.924438 152.0
1334.12793 88.0
1334.207886 196.0
1334.695068 144.0
1335.59729 140.0
1335.909668 156.0
1336.106079 168.0
1336.273438 200.0
1336.586304 176.0
1336.797363 156.0
1336.928345 188.0
1337.0448 120.0
1337.86731 136.0
1338.049316 172.0
1338.406128 92.0
1338.544434 180.0
1338.624512 172.0
1339.535034 144.0
1339.786133 128.0
1340.146973 68.0
1340.635132 148.0
1340.766357 212.0
1340.861084 92.0
1340.99231 212.0
1341.159912 140.0
1341.721191 100.0
1341.808716 188.0
1342.873413 124.0
1342.931763 232.0
1343.757202 164.0
1344.142822 124.0
1344.77771 148.0
1344.951904 212.0
1345.091553 88.0
1345.361694 48.0
1345.54187 136.0
1346.106445 164.0
1346.473633 112.0
1346.705322 180.0
1347.107056 144.0
1347.435791 132.0
1347.76062 192.0
1348.095581 164.0
1348.371216 156.0
1348.51001 100.0
1349.175293 168.0
1349.445801 124.0
1349.496948 132.0
1349.548096 80.0
1349.760132 140.0
1349.877197 124.0
1350.089233 156.0
1350.140381 144.0
1350.732544 172.0
1350.900269 160.0
1351.252319 196.0
1352.166992 176.0
1352.44519 208.0
1352.606201 124.0
1352.664795 168.0
1352.737915 164.0
1353.001465 128.0
1353.082031 220.0
1353.30896 204.0
1354.04126 156.0
1354.121826 52.0
1354.187744 144.0
1354.290283 124.0
1354.517334 204.0
1354.986206 72.0
1355.096191 140.0
1355.247681 148.0
1355.682373 208.0
1355.982788 216.0
1357.337769 140.0
1357.36084 116.0
1357.551758 252.0
1357.779053 216.0
1357.87439 172.0
1357.962402 108.0
1358.237793 368.0
1358.475952 236.0
1358.527222 104.0
1358.671143 228.0
1358.747314 60.0
1358.80603 80.0
1359.202271 200.0
1359.459106 84.0
1359.745361 164.0
1359.811401 200.0
1360.075562 80.0
1360.956543 128.0
1361.208618 196.0
1361.749756 124.0
1362.047241 116.0
1362.396118 92.0
1362.469604 196.0
1362.542847 188.0
1362.697388 180.0
1363.138184 140.0
1363.439575 152.0
1363.623291 156.0
1363.748169 52.0
1363.829102 148.0
1363.946655 164.0
1364.218628 188.0
1364.461304 144.0
1364.740723 176.0
1364.864868 144.0
1364.910645 144.0
1365.130371 172.0
1365.71875 132.0
1365.836426 356.0
1365.924683 204.0
1365.983643 72.0
1366.226318 196.0
1366.866455 224.0
1367.020996 176.0
1367.300659 148.0
1367.403687 160.0
1367.68335 140.0
1367.874756 148.0
1367.994995 160.0
1368.448975 176.0
1368.522705 144.0
1368.831909 180.0
1368.912964 156.0
1369.119141 140.0
1369.421143 48.0
1369.605225 156.0
1369.656738 136.0
1369.715698 96.0
1369.767334 168.0
1370.045898 216.0
1370.184692 164.0
1370.437744 124.0
1371.019897 124.0
1371.204102 112.0
1371.366211 172.0
1371.454712 236.0
1371.616821 100.0
1371.683228 132.0
1371.793823 160.0
1371.933838 52.0
1372.059204 180.0
1372.368896 176.0
1372.531006 144.0
1372.631104 176.0
1372.887573 204.0
1373.033691 152.0
1373.139038 260.0
1373.275879 80.0
1373.534058 248.0
1373.835327 148.0
1374.227539 160.0
1374.280884 164.0
1374.34375 144.0
1374.445312 220.0
1374.537476 156.0
1374.899048 204.0
1375.098389 180.0
1375.164795 168.0
1375.54126 200.0
1375.644531 160.0
1375.858643 156.0
1376.125 152.0
1376.242554 204.0
1376.331177 116.0
1376.837646 184.0
1377.557251 96.0
1377.985718 140.0
1378.296021 116.0
1378.362549 172.0
1378.429077 52.0
1379.145874 136.0
1379.584961 200.0
1380.077393 196.0
1380.628296 128.0
1380.689697 308.0
1380.772583 48.0
1380.883545 248.0
1381.024048 176.0
1381.349487 184.0
1381.534424 232.0
1381.623169 216.0
1381.675049 204.0
1381.786011 148.0
1381.911743 52.0
1382.118896 256.0
1382.185547 108.0
1383.22168 148.0
1383.540039 136.0
1383.747314 136.0
1383.799072 244.0
1384.327515 180.0
1384.517456 188.0
1384.606323 168.0
1384.689575 164.0
1384.813721 248.0
1384.917358 48.0
1385.004028 160.0
1385.095093 180.0
1385.169189 156.0
1385.390381 120.0
1385.533447 148.0
1385.766846 144.0
1385.821167 172.0
1386.132324 120.0
1386.41394 148.0
1386.636353 204.0
1386.962402 120.0
1387.370117 172.0
1387.540649 160.0
1387.661011 228.0
1388.030029 176.0
1388.119019 272.0
1388.377441 208.0
1388.549194 140.0
1388.608521 28.0
1388.700562 140.0
1388.838379 156.0
1388.934814 128.0
1389.082764 152.0
1389.440918 148.0
1389.498657 132.0
1389.602539 204.0
1389.661865 184.0
1389.773193 216.0
1389.874268 216.0
1390.166504 216.0
1390.381714 244.0
1390.527344 168.0
1390.648926 160.0
1390.767578 116.0
1390.938354 116.0
1391.161011 180.0
1391.242676 216.0
1391.317017 168.0
1391.383789 184.0
1391.51001 128.0
1391.568726 180.0
1391.958984 176.0
1392.482788 152.0
1392.542236 196.0
1392.601685 180.0
1392.661011 152.0
1392.824463 180.0
1393.097046 196.0
1393.195923 260.0
1394.057861 40.0
1394.263672 224.0
1394.369995 44.0
1394.578003 236.0
1395.34375 84.0
1395.522217 120.0
1395.589111 60.0
1395.656006 132.0
1395.931152 176.0
1396.161621 136.0
1396.295532 156.0
1396.71521 172.0
1396.816162 140.0
1396.875732 200.0
1396.994751 168.0
1397.083984 184.0
1397.336914 148.0
1397.776001 136.0
1397.917358 184.0
1397.991821 184.0
1398.676514 176.0
1398.825439 176.0
1399.666748 124.0
1400.202881 184.0
1400.575317 100.0
1400.646606 144.0
1400.941528 224.0
1401.053955 192.0
1401.148926 112.0
1401.77478 128.0
1402.162354 196.0
1402.408325 180.0
1402.874268 104.0
1403.131348 220.0
1403.203125 180.0
1403.280518 124.0
1403.355103 64.0
1403.69812 32.0
1403.75769 224.0
1403.877075 156.0
1404.048584 148.0
1404.108276 96.0
1404.175415 148.0
1404.496094 140.0
1404.737305 204.0
1405.40625 168.0
1405.585327 156.0
1405.90625 164.0
1406.271973 152.0
1406.592896 264.0
1407.130371 32.0
1407.212524 188.0
1407.694214 136.0
1407.877075 196.0
1407.944336 148.0
1408.355103 152.0
1408.422363 144.0
1408.568481 228.0
1408.69873 164.0
1408.937744 60.0
1409.049805 148.0
1409.296387 160.0
1409.348755 124.0
1409.404663 172.0
1409.475708 188.0
1409.714844 168.0
1409.834473 164.0
1410.357666 168.0
1410.858521 140.0
1410.940674 148.0
1411.194946 80.0
1411.479004 176.0
1411.653809 120.0
1411.755737 176.0
1412.256836 172.0
1412.451294 36.0
1412.772949 152.0
1413.091431 144.0
1413.304199 156.0
1413.379028 212.0
1413.506226 84.0
1413.66333 212.0
1414.628906 192.0
1414.846069 132.0
1415.06311 108.0
1415.707153 172.0
1415.969238 244.0
1416.169067 200.0
1416.441162 156.0
1416.718262 128.0
1417.010498 172.0
1417.41748 204.0
1417.827271 212.0
1418.179565 192.0
1418.464355 108.0
1418.666748 140.0
1418.809204 236.0
1418.869141 72.0
1419.109131 136.0
1419.214111 192.0
1419.311523 164.0
1419.371582 44.0
1419.626465 220.0
1419.755737 204.0
1419.918945 64.0
1420.211548 180.0
1420.260254 156.0
1420.481567 68.0
1420.586548 144.0
1420.69165 256.0
1421.314331 92.0
1421.509399 116.0
1421.664429 172.0
1422.001831 184.0
1422.26001 132.0
1422.59021 136.0
1422.819702 192.0
1422.936157 168.0
1423.044189 140.0
1423.566284 108.0
1423.844238 180.0
1424.1521 156.0
1424.249756 124.0
1424.332397 128.0
1424.463745 172.0
1424.542725 172.0
1424.595337 136.0
1425.234009 72.0
1425.481934 200.0
1425.811523 176.0
1426.266846 140.0
1426.59436 132.0
1426.669556 120.0
1426.722168 140.0
1426.77478 160.0
1427.185547 216.0
1427.278564 192.0
1427.481567 188.0
1427.654541 108.0
1427.789917 116.0
1428.083252 112.0
1428.436768 112.0
1428.669922 116.0
1428.835449 204.0
1429.105713 140.0
1429.274048 204.0
1429.429932 204.0
1429.482544 60.0
1429.836304 152.0
1430.107178 164.0
1430.179321 204.0
1430.363159 132.0
1430.430908 156.0
1430.799805 152.0
1431.155273 196.0
1431.334351 172.0
1431.447266 236.0
1431.665649 152.0
1431.740967 156.0
1432.117554 60.0
1432.411377 160.0
1432.511963 172.0
1432.573608 160.0
1432.938721 120.0
1433.388428 256.0
1433.549072 160.0
1434.000854 212.0
1434.189697 216.0
1434.981201 236.0
1435.240967 184.0
1435.376831 156.0
1435.546753 180.0
1435.644775 144.0
1435.833374 60.0
1436.05957 160.0
1436.527344 212.0
1436.957275 56.0
1437.085571 140.0
1437.402466 84.0
1438.270386 196.0
1438.5271 216.0
1438.685669 196.0
1438.980103 144.0
1439.153687 104.0
1439.56897 208.0
1439.644531 60.0
1439.788086 148.0
1440.0448 176.0
1440.627441 148.0
1440.845581 112.0
1440.981567 136.0
1441.034424 120.0
1441.257935 144.0
1442.043457 204.0
1442.319214 96.0
1443.218872 116.0
1443.498657 140.0
1443.898804 196.0
1444.080933 116.0
1444.282715 148.0
1444.655884 136.0
1444.905518 140.0
1445.896729 136.0
1446.615845 36.0
1446.699097 96.0
1447.092773 140.0
1447.266968 124.0
1447.388062 56.0
1447.637939 172.0
1448.289307 112.0
1448.402954 220.0
1448.812012 168.0
1448.958984 188.0
1449.160522 60.0
1449.27417 76.0
1449.327271 144.0
1449.402954 284.0
1449.569702 132.0
1449.850098 124.0
1449.986572 28.0
1450.069946 124.0
1450.201782 220.0
1450.47168 140.0
1450.585327 132.0
1450.661133 232.0
1451.222168 184.0
1451.328369 188.0
1451.381348 132.0
1451.449707 252.0
1451.828857 180.0
1451.942627 136.0
1452.299072 136.0
1452.731445 144.0
1452.82251 252.0
1453.103149 216.0
1453.15625 140.0
1453.467407 128.0
1453.543213 160.0
1453.717773 148.0
1453.812622 228.0
1453.915161 184.0
1454.051758 40.0
1454.258667 148.0
1454.948975 176.0
1455.615356 120.0
1455.643066 172.0
1456.010498 144.0
1456.686523 88.0
1456.783081 352.0
1457.233521 204.0
1457.347534 80.0
1457.484253 216.0
1457.697021 152.0
1457.833862 44.0
1458.389526 164.0
1458.494995 76.0
1458.700317 128.0
1459.383545 180.0
1459.498535 208.0
1459.696289 96.0
1459.749512 160.0
1460.106934 172.0
1460.723022 140.0
1460.799072 148.0
1460.981689 196.0
1461.324097 128.0
1461.394531 152.0
1461.483887 52.0
1461.963257 68.0
1462.138306 100.0
1462.343384 144.0
1462.518799 224.0
1462.640625 196.0
1462.823364 136.0
1463.317261 160.0
1463.412598 232.0
1463.64563 128.0
1463.782715 88.0
1463.866455 192.0
1464.132935 112.0
1464.475708 208.0
1464.605225 200.0
1465.207031 192.0
1465.443237 148.0
1465.534668 136.0
1465.694702 132.0
1465.999512 200.0
1466.296631 216.0
1466.349976 140.0
1466.441528 136.0
1466.601562 208.0
1466.670166 204.0
1466.776855 108.0
1466.94458 140.0
1467.013184 148.0
1467.097046 180.0
1467.882324 144.0
1468.034912 176.0
1468.256104 192.0
1468.41626 228.0
1469.247192 168.0
1469.446289 144.0
1469.606812 156.0
1469.804688 136.0
1470.209106 248.0
1470.483887 216.0
1470.598389 168.0
1470.804443 148.0
1471.300659 204.0
1471.445679 172.0
1471.758789 164.0
1471.850342 156.0
1471.919067 164.0
1472.239868 164.0
1472.339111 156.0
1472.856689 220.0
1473.009766 184.0
1473.037964 148.0
1473.429077 192.0
1473.889893 148.0
1474.004517 176.0
1474.383423 124.0
1474.638794 52.0
1474.802368 180.0
1474.956299 144.0
1475.151001 44.0
1475.349731 172.0
1475.433838 140.0
1475.487305 168.0
1475.625 108.0
1475.932251 152.0
1476.359009 164.0
1476.534912 320.0
1476.9021 180.0
1477.070312 188.0
1477.261597 180.0
1477.582886 196.0
1477.820068 200.0
1478.011353 184.0
1478.179688 108.0
1478.294556 192.0
1478.401611 196.0
1478.876221 200.0
1479.144043 104.0
1479.205322 152.0
1479.603394 200.0
1479.687622 132.0
1479.86731 156.0
1480.803101 252.0
1481.265259 80.0
1481.824463 84.0
1482.108032 136.0
1482.2229 112.0
1482.498779 184.0
1482.62146 160.0
1482.705688 144.0
1482.920288 168.0
1483.035278 188.0
1483.1073 240.0
1483.326538 128.0
1483.72522 60.0
1484.269531 132.0
1484.323242 156.0
1484.415283 172.0
1484.691406 96.0
1484.744995 160.0
1485.15918 156.0
1485.512085 188.0
1485.711548 56.0
1485.916626 148.0
1486.217896 228.0
1486.286987 112.0
1486.379028 176.0
1486.586304 48.0
1486.747437 152.0
1487.019287 204.0
1487.269287 172.0
1487.960205 192.0
1488.106079 136.0
1488.45166 72.0
1488.543823 180.0
1488.78186 76.0
1489.050659 188.0
1489.234985 176.0
1489.38855 164.0
1489.511475 160.0
1489.619019 132.0
1489.711182 216.0
1489.934082 156.0
1490.273438 176.0
1490.356567 80.0
1490.61792 128.0
1490.756226 120.0
1491.140503 84.0
1491.348022 128.0
1491.409424 156.0
1491.586304 160.0
1491.693848 104.0
1491.839966 144.0
1492.055176 128.0
1492.285889 196.0
1492.401245 168.0
1492.547241 160.0
1492.808716 60.0
1492.993286 248.0
1493.185547 216.0
1493.324951 148.0
1493.662476 112.0
1494.000977 168.0
1494.308716 220.0
1494.408691 220.0
1494.898926 164.0
1495.747803 184.0
1495.962891 144.0
1496.148071 196.0
1496.348267 348.0
1496.581177 188.0
1496.856445 212.0
1496.9375 136.0
1496.995117 156.0
1497.110596 152.0
1497.303101 216.0
1497.493286 184.0
1498.081055 128.0
1498.239136 200.0
1498.438477 188.0
1498.866943 160.0
1498.967163 188.0
1499.500732 136.0
1499.676147 132.0
1499.930542 148.0
1499.992188 144.0
1500.578125 124.0
1500.824829 200.0
1501.056152 152.0
1501.249023 96.0
1501.835083 128.0
1502.055664 168.0
1502.236206 220.0
1502.297974 224.0
1502.43689 44.0
1502.490845 108.0
1503.589478 200.0
1503.671509 232.0
1503.987915 208.0
1504.734863 148.0
