>compound MLS001142427-01!
>formula C25H25BrN4O2
>ionization [M+H]+
>parentmass 493.123505
#inchi InChI=1S/C25H25BrN4O2/c26-18-6-3-5-17(15-18)23-24-20(19-7-1-2-8-21(19)28-24)16-22(29-23)25(31)27-9-4-10-30-11-13-32-14-12-30/h1-3,5-8,15-16,29H,4,9-14H2,(H,27,31)
#inchikey XSMQKIDAEVUBHU
#Ion_Source LC-ESI
#Instrument qTof
#Compound_Source NIH Natural Product Library
#PI Dorrestein
#Data_Collector VVP/LMS
#Scan -1
#Precursor_MZ 493.124
#ExactMass 492.116
#Charge 1
#CAS_Number N/A
#Pubmed_ID N/A
#Smiles Brc1cccc(c1)c2[nH]c(cc3c4ccccc4nc23)C(=O)NCCCN5CCOCC5
#INCHI_AUX N/A
#Library_Class 1
#SpectrumID CCMSLIB00000080337
#IonMode Positive
#UpdateWorkflowName UPDATE-SINGLE-ANNOTATED-GOLD
#LibraryQualityString Gold
#TaskID b1d8e8f6646f4e71acdff9ca3d919d08
##Scan# 1921
#SpectrumFile p2-D07_GD7_01_18019.mzXML
#LibraryName NIH_Natural_Products_Library.mgf
#MQScore -1
#Organism NIH_Natural_Products_Library
#TIC_Query 0
#RT_Query -1
#MZErrorPPM -1
#SharedPeaks 0
#MassDiff 0
#LibMZ -1
#SpecMZ 493.124
#SpecCharge 0
#internalFilename spec-00000.mgf

>collision 10
95.099991 176.0
95.453255 68.0
95.593307 184.0
95.842552 128.0
96.557014 160.0
96.676353 160.0
96.900536 148.0
97.113632 100.0
97.260399 96.0
97.348747 104.0
97.405701 128.0
97.541283 132.0
97.665161 160.0
97.694664 136.0
97.735985 212.0
97.978149 312.0
98.060913 164.0
98.131874 36.0
98.396248 184.0
98.658997 56.0
98.775673 124.0
98.989227 184.0
99.229164 136.0
99.42157 196.0
99.673767 204.0
99.687675 120.0
100.047676 208.0
100.074974 1000.0
100.135292 32.0
100.348511 160.0
100.698944 196.0
101.043533 196.0
101.081406 168.0
101.205704 152.0
101.59446 172.0
101.640602 188.0
101.765045 148.0
101.847382 140.0
102.004112 36.0
102.022202 160.0
102.058395 120.0
102.106651 92.0
102.267609 88.0
102.537323 216.0
102.604012 132.0
102.618118 148.0
102.868279 196.0
102.945 128.0
102.973274 120.0
103.033875 76.0
103.112679 132.0
103.203644 104.0
103.25824 120.0
103.414032 80.0
103.570343 220.0
103.679337 168.0
103.762444 136.0
103.922668 128.0
103.944992 156.0
104.13176 88.0
104.190666 84.0
104.746017 120.0
104.788795 60.0
104.943695 64.0
105.064026 116.0
105.253838 148.0
105.331444 160.0
105.478561 180.0
105.512474 224.0
105.533379 192.0
105.86525 156.0
106.236229 132.0
106.459946 116.0
106.813454 180.0
107.022438 204.0
107.093384 168.0
107.200516 168.0
107.433502 148.0
107.532539 152.0
107.625435 52.0
107.77002 88.0
107.794815 164.0
107.879555 92.0
107.939514 152.0
108.067749 100.0
108.098793 124.0
108.191925 128.0
108.28511 164.0
108.471588 128.0
108.591843 188.0
108.660301 104.0
108.701797 120.0
108.73085 196.0
108.996658 156.0
109.046532 136.0
109.081863 132.0
109.246147 200.0
109.298157 248.0
109.464684 256.0
109.520912 164.0
109.641754 88.0
109.733467 80.0
109.935799 188.0
110.123688 144.0
110.249039 132.0
110.324287 224.0
110.397469 176.0
110.757446 108.0
110.786957 136.0
110.987968 120.0
111.029907 196.0
111.059273 192.0
111.283813 92.0
111.336311 60.0
111.662056 124.0
111.75882 76.0
111.793396 140.0
111.986176 120.0
112.026199 224.0
112.062012 96.0
112.15052 104.0
112.331856 56.0
112.348732 104.0
112.673843 156.0
112.781616 80.0
113.01635 168.0
113.109467 224.0
113.139107 84.0
113.363617 104.0
113.391167 188.0
113.528496 180.0
113.671097 172.0
113.726273 64.0
113.928452 188.0
113.97049 44.0
114.020844 128.0
114.127777 172.0
114.170815 100.0
114.365807 108.0
114.391586 32.0
114.525734 152.0
114.651711 216.0
115.225418 56.0
115.248917 156.0
115.289513 108.0
115.441292 180.0
115.573914 132.0
115.642395 60.0
115.663795 160.0
115.738731 148.0
115.753716 160.0
116.128754 140.0
116.220993 104.0
116.321861 224.0
116.390564 96.0
116.429214 248.0
116.579597 180.0
116.725769 168.0
116.807495 180.0
117.532219 212.0
117.656548 124.0
117.688927 40.0
117.829315 128.0
117.924393 80.0
117.989243 48.0
118.218513 188.0
118.336456 180.0
118.385201 88.0
119.040092 168.0
119.066154 148.0
119.159554 212.0
119.410156 120.0
119.516129 172.0
119.681549 136.0
120.001831 48.0
120.119598 112.0
120.248329 192.0
120.307266 224.0
120.383682 144.0
120.536591 220.0
120.57811 168.0
120.723419 200.0
120.820824 144.0
121.157967 152.0
121.440735 172.0
121.497765 120.0
121.621727 196.0
121.769951 104.0
121.827057 100.0
121.985283 132.0
122.168777 120.0
122.242607 164.0
122.328438 164.0
122.412102 192.0
122.753662 168.0
122.826393 192.0
122.882973 204.0
122.954407 60.0
123.047112 120.0
123.11998 96.0
123.298927 140.0
123.391762 140.0
123.477936 128.0
123.579758 160.0
123.59967 128.0
123.624016 188.0
123.694839 160.0
123.869766 176.0
123.971687 160.0
123.993843 68.0
124.038177 80.0
124.091377 132.0
124.85746 96.0
124.933083 48.0
125.013184 40.0
125.429665 212.0
125.469788 144.0
125.570129 188.0
125.697289 92.0
125.757545 156.0
126.07093 148.0
126.089317 348.0
126.278122 148.0
126.318382 112.0
126.360886 144.0
126.403397 188.0
126.419067 148.0
126.457108 100.0
126.838997 124.0
127.027939 184.0
127.192284 72.0
127.216972 120.0
127.251938 188.0
127.333733 136.0
127.383148 236.0
127.437065 68.0
127.527878 156.0
127.686577 48.0
127.819305 104.0
127.949844 176.0
127.974609 128.0
128.04892 160.0
128.071442 168.0
128.106903 2452.0
128.143539 84.0
128.174164 196.0
128.330597 100.0
128.358337 220.0
128.474503 124.0
128.614838 68.0
128.906174 84.0
128.928772 168.0
129.108383 332.0
129.209152 72.0
129.569122 148.0
129.621231 52.0
129.646164 268.0
129.673111 180.0
129.854736 164.0
129.997665 204.0
130.024887 176.0
130.061203 188.0
130.208786 88.0
130.320099 132.0
130.399628 136.0
130.501923 72.0
130.686157 112.0
130.788559 128.0
130.854568 152.0
130.950211 112.0
131.237335 124.0
131.586426 196.0
131.636658 80.0
131.744003 124.0
131.780548 176.0
131.801117 172.0
131.890244 116.0
131.940536 204.0
132.146362 148.0
132.338623 148.0
132.458603 144.0
132.824463 176.0
133.364044 124.0
133.458298 120.0
133.648483 216.0
133.863281 116.0
133.962311 188.0
133.999588 112.0
134.199326 104.0
134.46463 136.0
134.597504 148.0
134.725891 128.0
134.769775 40.0
134.883026 212.0
134.92926 72.0
135.175003 64.0
135.392029 196.0
135.602859 284.0
135.645737 144.0
135.665436 136.0
135.68399 136.0
135.760498 128.0
136.015717 176.0
136.066788 116.0
136.089996 156.0
136.50824 52.0
136.59198 100.0
136.778122 168.0
136.880554 128.0
136.917816 116.0
137.141479 172.0
137.451981 112.0
137.488983 120.0
137.556671 128.0
137.608032 180.0
137.633331 124.0
137.74115 160.0
137.804214 144.0
137.866989 120.0
137.998199 116.0
138.040298 152.0
138.154907 116.0
138.250824 200.0
138.288269 120.0
138.527115 132.0
138.83342 128.0
138.90451 160.0
138.930313 172.0
139.02182 180.0
139.150925 96.0
139.418686 136.0
139.632629 208.0
139.651443 180.0
140.0186 96.0
140.260056 120.0
140.294113 180.0
140.558426 104.0
140.636307 104.0
140.683517 36.0
140.81102 140.0
140.862991 248.0
141.151321 32.0
141.196243 112.0
141.212799 164.0
141.316895 184.0
141.342911 48.0
141.41391 36.0
141.563065 148.0
141.593842 172.0
141.76442 108.0
141.799957 136.0
141.886551 136.0
141.956421 132.0
142.063156 136.0
142.117722 120.0
142.480972 92.0
142.523743 76.0
142.542572 164.0
142.585526 92.0
142.725784 96.0
142.951752 156.0
143.158859 140.0
143.175522 184.0
143.323212 160.0
143.587814 180.0
143.64267 116.0
143.719025 68.0
143.830368 188.0
143.926682 140.0
144.04126 192.0
144.112976 260.0
144.512268 144.0
144.651062 128.0
145.132599 132.0
145.245316 192.0
145.480484 136.0
145.598129 140.0
145.751877 204.0
146.138992 232.0
146.451935 52.0
146.468796 248.0
146.531433 160.0
146.59166 192.0
146.753159 124.0
146.801392 112.0
146.826675 164.0
146.876144 104.0
147.074005 184.0
147.250259 132.0
147.508347 216.0
147.552307 104.0
147.617584 132.0
147.828049 140.0
147.917587 204.0
148.216125 136.0
148.249405 148.0
148.309998 200.0
148.591293 176.0
148.618683 152.0
148.82428 124.0
148.887421 112.0
149.057465 128.0
149.25679 88.0
149.392975 152.0
149.444077 104.0
149.648514 152.0
149.736176 148.0
149.775146 144.0
149.794632 88.0
150.067581 196.0
150.130981 152.0
150.374954 72.0
150.438416 200.0
150.570267 136.0
150.599564 228.0
150.738815 116.0
150.891571 136.0
150.985718 76.0
151.029739 136.0
151.105576 44.0
151.296478 184.0
151.350342 100.0
151.462982 76.0
151.560974 68.0
151.602646 72.0
151.798752 136.0
151.874771 200.0
151.960632 112.0
152.250275 164.0
152.282211 120.0
152.319046 176.0
152.348526 156.0
152.402573 104.0
152.431992 132.0
152.491043 120.0
152.535278 104.0
152.781189 212.0
152.830399 104.0
152.953445 80.0
153.098709 136.0
153.229263 148.0
153.300705 100.0
153.436279 152.0
153.48558 136.0
153.803833 188.0
153.966782 160.0
154.001358 128.0
154.320602 216.0
154.463577 136.0
154.577377 156.0
154.624405 136.0
154.839783 108.0
154.948776 128.0
155.082596 140.0
155.211502 132.0
155.469482 184.0
155.50174 124.0
155.635803 204.0
155.96904 168.0
155.991058 72.0
156.408951 212.0
156.43634 240.0
156.511017 212.0
156.962021 48.0
157.076752 188.0
157.116653 128.0
157.521072 136.0
157.611008 72.0
157.678482 112.0
157.698471 28.0
157.85347 48.0
158.054321 152.0
158.25882 72.0
158.283859 156.0
158.406586 148.0
158.845459 216.0
158.867828 224.0
158.969742 240.0
159.076111 200.0
159.194107 176.0
159.224243 172.0
159.274475 140.0
159.390045 120.0
159.422714 244.0
159.447845 156.0
159.548386 192.0
159.70932 88.0
159.860275 92.0
159.895508 188.0
159.998703 108.0
160.205215 168.0
160.316071 108.0
160.437057 160.0
160.805328 92.0
160.863373 252.0
161.179077 168.0
161.472305 180.0
161.490021 108.0
161.910141 96.0
161.974976 220.0
161.996262 140.0
162.128006 124.0
162.290237 116.0
162.457626 156.0
162.51506 128.0
162.541351 176.0
162.64032 188.0
162.828201 116.0
162.901871 144.0
162.927261 96.0
162.98317 160.0
163.321274 88.0
163.476471 108.0
163.504974 100.0
163.573181 216.0
163.680115 176.0
163.748871 172.0
164.052078 148.0
164.110718 140.0
164.141312 120.0
164.373444 172.0
164.784515 124.0
165.006866 224.0
165.104034 164.0
165.237045 44.0
165.257507 120.0
165.344513 148.0
165.452026 104.0
165.539078 132.0
165.827072 184.0
165.85675 200.0
165.956741 152.0
166.079834 136.0
166.126007 216.0
166.287659 128.0
166.313324 72.0
166.608627 156.0
166.711395 128.0
166.863052 156.0
166.999329 84.0
167.102234 108.0
167.246338 172.0
167.369202 176.0
167.445068 148.0
167.566116 180.0
167.604309 104.0
167.885269 132.0
168.130356 132.0
168.264572 92.0
168.362701 40.0
168.398849 176.0
168.491852 40.0
168.54071 140.0
168.848557 60.0
169.285904 116.0
169.316971 72.0
169.405045 116.0
169.671967 148.0
169.725449 216.0
169.767899 172.0
169.791245 84.0
169.819763 104.0
169.990997 104.0
170.15451 168.0
170.575348 48.0
170.762558 124.0
170.843201 144.0
170.983704 64.0
171.184158 132.0
171.215408 152.0
171.49678 160.0
171.577591 200.0
171.64798 144.0
171.675385 164.0
171.9245 160.0
171.997574 132.0
172.229965 104.0
172.316162 164.0
172.649506 128.0
172.760605 184.0
172.791992 100.0
172.854782 108.0
172.899277 136.0
172.998734 176.0
173.074661 164.0
173.210846 60.0
173.265854 116.0
173.305161 96.0
173.3759 92.0
173.716751 104.0
173.735123 76.0
173.887314 100.0
173.994934 216.0
174.063187 116.0
174.089966 224.0
174.402084 164.0
175.151978 120.0
175.273178 48.0
175.4814 132.0
175.739868 112.0
175.935165 136.0
175.980042 152.0
176.003815 192.0
176.141144 144.0
176.19397 128.0
176.270599 152.0
176.323441 116.0
176.643372 164.0
176.675125 188.0
176.860352 172.0
176.990067 152.0
177.021851 108.0
177.703049 132.0
177.742844 132.0
177.803879 136.0
177.864929 188.0
177.981735 100.0
178.00032 128.0
178.138428 136.0
178.183594 112.0
178.250015 136.0
178.606262 96.0
178.686066 144.0
178.744598 216.0
178.853714 124.0
178.912277 144.0
178.936234 104.0
179.146622 104.0
179.271057 160.0
179.383789 120.0
179.637115 76.0
179.834579 132.0
179.98941 108.0
180.07486 64.0
180.149658 100.0
180.16835 144.0
180.216446 160.0
180.326004 180.0
180.387482 140.0
180.435608 160.0
180.545227 160.0
180.598267 144.0
180.668274 248.0
180.903763 48.0
180.930527 76.0
181.010849 80.0
181.209061 116.0
181.26532 80.0
181.640671 144.0
181.694321 104.0
181.788223 156.0
181.970749 76.0
182.009003 144.0
182.035187 92.0
182.221497 220.0
182.252762 200.0
182.448959 136.0
182.492386 156.0
182.614578 140.0
182.790543 120.0
182.814758 144.0
182.911652 128.0
182.941254 128.0
183.077957 104.0
183.263855 92.0
183.329102 156.0
183.447693 156.0
183.555542 132.0
183.684998 200.0
183.797348 148.0
183.827988 116.0
183.846878 128.0
183.865768 148.0
183.922592 140.0
184.019623 124.0
184.082153 180.0
184.184357 116.0
184.232986 140.0
184.411316 144.0
184.619492 184.0
184.69252 128.0
184.784485 184.0
184.846725 104.0
184.973969 208.0
185.023239 164.0
185.057846 120.0
185.079498 172.0
185.260956 92.0
185.290756 132.0
185.502136 196.0
185.540085 196.0
185.574814 164.0
185.735336 84.0
185.765167 112.0
185.917114 116.0
185.987686 108.0
186.348862 160.0
186.381454 132.0
186.414062 184.0
186.503754 172.0
186.59346 324.0
186.636963 116.0
186.772934 80.0
186.840942 116.0
186.906235 140.0
186.96611 248.0
187.012375 216.0
187.197495 240.0
187.230179 152.0
187.309158 176.0
187.388168 192.0
187.442657 204.0
187.475357 212.0
187.529861 124.0
187.578918 144.0
187.630722 156.0
187.775238 168.0
188.140869 176.0
188.170914 164.0
188.424896 108.0
188.536926 116.0
189.072937 148.0
189.20433 120.0
189.242661 232.0
189.349457 180.0
189.445312 232.0
189.535721 124.0
189.634201 192.0
189.705643 108.0
189.765198 172.0
189.850967 212.0
189.875641 132.0
189.938736 40.0
189.960678 144.0
190.074509 112.0
190.196655 112.0
190.325684 156.0
190.47673 52.0
190.619598 108.0
190.660812 108.0
190.6828 116.0
190.858734 148.0
190.904282 220.0
190.982483 172.0
191.056763 164.0
191.081512 176.0
191.136551 172.0
191.230103 96.0
191.345718 124.0
191.36499 144.0
191.537628 128.0
191.739624 152.0
191.78923 92.0
191.893982 56.0
192.029099 100.0
192.144958 124.0
192.420944 124.0
192.575577 152.0
192.608719 72.0
192.708176 176.0
192.749619 140.0
192.851868 176.0
193.302658 80.0
193.501938 136.0
193.532394 160.0
193.598846 128.0
193.817688 324.0
193.981201 104.0
194.025558 148.0
194.0616 184.0
194.166962 128.0
194.236237 172.0
194.279831 156.0
194.422195 184.0
194.500214 184.0
194.524887 192.0
194.616501 148.0
194.716476 172.0
194.827576 128.0
194.913712 84.0
194.994293 132.0
195.08046 188.0
195.119385 156.0
195.13884 64.0
195.28067 140.0
195.544968 116.0
195.747803 112.0
195.784393 196.0
195.86795 208.0
195.94873 152.0
195.982178 68.0
196.269547 176.0
196.32782 124.0
196.347336 172.0
196.414276 128.0
196.4617 184.0
196.523071 208.0
196.763107 128.0
196.804977 116.0
196.980927 164.0
197.13179 188.0
197.152664 136.0
197.291107 136.0
197.321854 156.0
197.419724 164.0
197.615524 96.0
197.77504 128.0
198.102646 124.0
198.322891 180.0
198.385681 136.0
198.422119 148.0
198.511841 112.0
198.618423 112.0
198.643661 148.0
198.783951 72.0
198.890594 128.0
198.957962 160.0
199.014114 172.0
199.08432 128.0
199.129242 172.0
199.148911 164.0
199.182617 176.0
199.247223 172.0
199.325897 328.0
199.353989 164.0
199.379288 316.0
199.511398 116.0
199.854507 84.0
200.216949 212.0
200.307907 156.0
200.4599 232.0
200.47963 116.0
200.569824 232.0
200.603638 144.0
200.657211 132.0
200.730515 152.0
200.748901 156.0
200.803833 104.0
200.894089 92.0
201.080322 216.0
201.149246 200.0
201.204529 84.0
201.23558 148.0
201.272278 60.0
201.297562 168.0
201.402191 132.0
201.421967 164.0
201.475632 160.0
201.670609 204.0
201.734024 160.0
201.984467 164.0
202.315552 120.0
202.338196 132.0
203.001205 92.0
203.072113 132.0
203.243332 144.0
203.426788 120.0
203.560226 132.0
203.719284 104.0
203.852814 176.0
203.915329 88.0
204.043243 48.0
204.174042 176.0
204.225235 172.0
204.575226 96.0
204.677719 316.0
204.774551 56.0
204.794479 164.0
204.871399 120.0
204.914124 168.0
205.169357 172.0
205.224792 220.0
205.281815 88.0
205.507156 180.0
205.560165 132.0
205.638428 124.0
205.666183 320.0
205.84111 112.0
205.958206 192.0
206.029617 112.0
206.212494 168.0
206.246796 128.0
206.386871 204.0
206.428299 148.0
206.455505 44.0
206.629974 188.0
206.721542 116.0
206.7845 180.0
206.965332 212.0
207.079391 172.0
207.17392 128.0
207.621048 176.0
207.735779 172.0
207.790283 120.0
207.925156 144.0
208.008041 164.0
208.11174 96.0
208.147018 140.0
208.225403 144.0
208.536896 148.0
208.637497 108.0
208.746429 180.0
208.904938 76.0
209.096085 180.0
209.204224 108.0
209.46962 172.0
209.517258 148.0
209.549805 56.0
209.705414 84.0
209.751114 196.0
209.789001 108.0
209.921631 112.0
210.083145 92.0
210.106232 80.0
210.195663 96.0
210.415024 184.0
210.472763 120.0
210.672043 180.0
210.69516 140.0
210.937897 48.0
211.056442 72.0
211.383286 180.0
211.678543 104.0
211.748047 204.0
211.941666 148.0
212.02327 192.0
212.165298 108.0
212.304092 152.0
212.346649 296.0
212.626495 132.0
212.658417 80.0
212.745499 152.0
212.771637 104.0
213.111435 184.0
213.346848 100.0
213.393356 96.0
213.515488 128.0
213.748215 112.0
213.803497 160.0
213.91597 260.0
214.039291 44.0
214.152863 236.0
214.281036 60.0
214.527908 236.0
214.607468 128.0
214.665787 96.0
215.007095 88.0
215.0392 200.0
215.077133 148.0
215.56778 92.0
215.623306 144.0
215.830856 80.0
215.918594 100.0
216.167252 156.0
216.202362 36.0
216.222855 176.0
216.544891 252.0
216.596268 172.0
216.737015 208.0
216.799774 240.0
216.873047 148.0
216.94632 160.0
217.351059 136.0
217.39801 116.0
217.471375 184.0
217.556503 128.0
217.941238 168.0
218.00589 96.0
218.096985 160.0
218.402786 164.0
218.426315 76.0
218.655807 248.0
218.73233 196.0
218.814758 196.0
218.835373 144.0
218.964935 44.0
219.094543 164.0
219.321442 192.0
219.834595 132.0
219.877182 236.0
220.08551 148.0
220.112076 208.0
220.179993 172.0
220.572952 124.0
220.794708 172.0
220.860947 160.0
220.93927 220.0
221.051514 128.0
221.256302 224.0
221.312546 100.0
221.336243 176.0
221.374725 152.0
221.43396 180.0
221.558365 372.0
221.688736 104.0
221.745041 136.0
222.139389 172.0
222.283997 184.0
222.507385 164.0
222.557846 56.0
222.756836 152.0
222.78653 180.0
223.143158 124.0
223.166946 156.0
223.217499 156.0
223.265076 192.0
223.32753 136.0
223.753052 200.0
223.904922 76.0
223.931717 136.0
224.065765 132.0
224.381668 152.0
224.432358 128.0
224.584442 184.0
224.742554 176.0
224.820145 84.0
224.873856 64.0
224.945496 180.0
225.363586 208.0
225.402435 180.0
225.471161 156.0
225.695358 180.0
225.725266 100.0
225.749191 128.0
225.982498 124.0
226.15007 168.0
226.18898 136.0
226.275803 140.0
226.392578 164.0
226.53035 144.0
226.587738 128.0
226.620224 84.0
226.697906 160.0
226.728104 156.0
226.867447 124.0
226.94693 200.0
227.060867 128.0
227.084869 164.0
227.158432 160.0
227.50795 188.0
227.549988 100.0
227.635025 260.0
227.748169 172.0
227.86232 184.0
228.021591 92.0
228.180893 192.0
228.379364 212.0
228.462219 140.0
228.529785 104.0
228.568893 180.0
228.659164 56.0
228.701309 112.0
229.04155 180.0
229.38205 128.0
229.412186 88.0
229.578018 184.0
229.60817 124.0
229.653412 208.0
229.786148 156.0
230.024551 92.0
230.353683 188.0
230.430527 168.0
230.51683 204.0
230.586349 136.0
230.616562 168.0
230.831207 148.0
230.906815 124.0
230.937057 104.0
230.986038 124.0
231.02478 160.0
231.061081 164.0
231.297119 116.0
231.415176 72.0
231.51207 124.0
231.618073 212.0
231.642319 36.0
231.702896 92.0
231.796829 108.0
231.830154 176.0
231.896835 68.0
232.124191 172.0
232.178787 116.0
232.22731 60.0
232.315277 132.0
232.375946 152.0
232.494293 56.0
232.621765 148.0
232.778152 212.0
233.003464 208.0
233.165451 116.0
233.31134 144.0
233.334351 148.0
233.36911 112.0
233.429916 120.0
233.530273 48.0
233.585022 200.0
233.843658 188.0
234.151154 112.0
234.285172 168.0
234.436142 160.0
234.500122 164.0
234.641739 104.0
234.8125 68.0
234.897903 124.0
235.087067 120.0
235.123688 184.0
235.160309 212.0
235.285461 228.0
235.319046 160.0
235.377045 132.0
235.435074 164.0
235.570892 128.0
235.639725 116.0
235.703888 248.0
235.734451 168.0
235.89032 112.0
235.982025 128.0
236.003433 140.0
236.040115 136.0
236.08905 156.0
236.134918 104.0
236.217514 120.0
236.503876 264.0
236.526566 84.0
236.609207 184.0
236.636765 136.0
236.746994 180.0
236.786804 176.0
237.087036 36.0
237.36293 96.0
237.433456 124.0
237.488663 168.0
237.563461 104.0
238.041077 76.0
238.065643 112.0
238.108627 152.0
238.151627 120.0
238.378967 168.0
238.483459 52.0
238.523422 168.0
238.544937 144.0
238.624863 116.0
238.772461 144.0
238.832184 124.0
239.30481 144.0
239.363312 140.0
239.458771 96.0
239.628189 172.0
239.81308 152.0
239.899399 176.0
240.105972 224.0
240.14299 144.0
240.170746 188.0
240.389786 100.0
240.485458 84.0
240.534851 144.0
240.661423 140.0
240.683029 124.0
240.797287 20.0
240.945557 168.0
241.004257 84.0
241.078369 248.0
241.149506 140.0
241.208221 172.0
241.278061 372.0
241.486511 168.0
241.517441 280.0
241.54837 156.0
241.576202 308.0
241.634979 72.0
241.656647 32.0
241.711441 220.0
241.756378 52.0
241.808273 108.0
241.876358 188.0
241.919693 28.0
241.944458 184.0
241.987808 124.0
242.033417 148.0
242.085495 40748.0
242.16066 176.0
242.166138 184.0
242.196884 176.0
242.282028 172.0
242.332214 40.0
242.391251 204.0
242.444794 232.0
242.471039 48.0
242.507111 188.0
242.561783 100.0
242.604309 44.0
242.664948 36.0
242.673737 184.0
242.719025 136.0
242.802536 56.0
242.934082 236.0
242.967148 204.0
243.026093 48.0
243.088654 8008.0
243.166458 156.0
243.224716 40.0
243.268173 132.0
243.309906 160.0
243.332504 120.0
243.367508 52.0
243.466873 40.0
243.522781 64.0
243.551559 132.0
243.603546 64.0
243.628387 52.0
243.662567 152.0
243.696625 200.0
243.779449 136.0
243.814819 40.0
243.855225 112.0
243.884552 92.0
243.926712 92.0
244.094971 744.0
244.131912 116.0
244.231781 72.0
244.31543 116.0
244.339157 108.0
244.418091 72.0
244.555939 108.0
244.586151 236.0
244.606293 144.0
244.729691 120.0
244.763596 68.0
244.7854 172.0
244.810303 52.0
244.90004 96.0
244.971558 140.0
245.037689 132.0
245.13739 320.0
245.258942 132.0
245.37001 216.0
245.43663 64.0
245.477173 112.0
245.548904 92.0
245.570724 152.0
245.617508 164.0
245.651825 156.0
245.676788 132.0
245.768951 280.0
245.829666 112.0
246.210526 40.0
246.241745 36.0
246.37294 108.0
246.49791 40.0
246.559494 68.0
246.791733 164.0
247.035675 160.0
247.079468 108.0
247.364243 212.0
247.420593 168.0
247.542694 80.0
247.743149 260.0
247.862198 244.0
247.953079 60.0
247.987549 212.0
248.210129 172.0
248.323029 92.0
248.746613 112.0
248.803116 104.0
248.859634 156.0
248.887894 56.0
249.082596 76.0
249.503693 108.0
249.613724 52.0
249.739517 188.0
249.761536 64.0
249.944016 160.0
250.041565 148.0
250.151718 168.0
250.526459 300.0
250.586319 216.0
250.737564 72.0
251.166351 144.0
251.375443 192.0
251.472412 36.0
251.538696 112.0
251.841812 132.0
251.996613 172.0
252.471939 148.0
252.60675 120.0
252.70166 180.0
252.802902 32.0
252.948502 188.0
253.182785 112.0
253.249298 116.0
253.803879 140.0
253.829239 128.0
253.952927 148.0
254.070282 116.0
254.187683 68.0
254.320969 144.0
254.343185 88.0
254.511444 116.0
254.559067 208.0
254.590836 144.0
254.616241 148.0
254.654343 228.0
254.70517 80.0
254.819534 60.0
254.972046 120.0
255.270874 168.0
255.391724 108.0
255.573059 208.0
255.64624 120.0
255.910431 132.0
255.948639 68.0
256.012421 160.0
256.063293 148.0
256.095123 88.0
256.133362 184.0
256.158844 136.0
256.200256 176.0
256.279907 160.0
256.464722 124.0
256.496613 92.0
256.580688 180.0
256.920715 164.0
257.172791 120.0
257.367523 180.0
257.434601 124.0
258.111664 208.0
258.159241 104.0
258.243134 136.0
258.364685 160.0
258.427826 100.0
258.476685 152.0
258.803162 140.0
258.83197 124.0
259.033752 140.0
259.107422 88.0
259.149078 120.0
259.213165 104.0
259.405457 100.0
259.572174 156.0
259.706848 152.0
259.876892 192.0
259.928223 156.0
260.072632 88.0
260.101532 52.0
260.149658 188.0
260.563934 116.0
260.625 156.0
261.177917 80.0
261.206879 232.0
261.982666 36.0
262.388733 104.0
262.498352 124.0
262.588654 64.0
262.614441 120.0
262.837036 124.0
262.985504 108.0
263.062958 92.0
263.104919 192.0
263.250214 156.0
263.292206 144.0
263.330963 60.0
263.505402 108.0
263.534454 76.0
263.68634 184.0
263.870605 48.0
263.930511 248.0
264.064606 92.0
264.159363 68.0
264.252228 188.0
264.346069 108.0
264.410797 160.0
264.553192 172.0
264.62442 144.0
264.656799 184.0
264.776611 112.0
264.831665 116.0
264.896454 212.0
265.100555 108.0
265.288544 120.0
265.382568 100.0
265.415009 140.0
265.460388 164.0
265.547943 180.0
266.482849 184.0
266.505585 44.0
266.687073 208.0
266.855865 216.0
266.927521 188.0
267.093994 148.0
267.276184 132.0
267.797028 68.0
267.855682 92.0
268.080566 316.0
268.152649 140.0
268.263 144.0
268.491241 192.0
268.540161 140.0
268.693451 112.0
268.761963 108.0
268.823975 100.0
268.941467 124.0
269.097198 668.0
269.251617 28.0
269.357239 104.0
269.447601 56.0
269.843079 100.0
269.885559 192.0
270.106384 136.0
270.225708 48.0
270.350067 252.0
270.402435 156.0
270.490784 184.0
270.677399 176.0
270.942688 152.0
271.011505 116.0
271.099976 124.0
271.222015 152.0
271.283508 140.0
271.358917 112.0
271.575348 172.0
271.632721 108.0
271.742645 176.0
271.893585 240.0
271.936249 148.0
272.287537 124.0
272.514191 168.0
272.737671 104.0
272.7771 288.0
272.859283 152.0
272.944763 144.0
273.08432 132.0
273.421753 148.0
273.652191 160.0
273.810242 144.0
273.85965 68.0
273.892578 156.0
273.95517 96.0
274.067505 176.0
274.175323 176.0
274.3638 228.0
274.508881 76.0
274.653992 120.0
274.776031 112.0
274.970734 120.0
274.997131 144.0
275.17868 80.0
275.26123 136.0
275.299438 148.0
275.472595 172.0
275.528778 140.0
275.763367 120.0
275.92865 136.0
275.975433 188.0
276.29245 96.0
276.543915 116.0
276.868378 156.0
276.914734 96.0
276.967743 192.0
277.014099 176.0
277.067108 100.0
277.10025 64.0
277.186371 92.0
277.325562 160.0
277.441589 100.0
277.527802 172.0
277.620636 132.0
277.849487 168.0
277.872711 120.0
277.917969 208.0
278.144836 120.0
278.284271 48.0
278.533325 132.0
279.178101 96.0
279.264557 132.0
279.384308 84.0
279.567322 132.0
279.663818 100.0
279.810303 232.0
279.950134 184.0
280.0867 76.0
280.189972 68.0
280.256592 132.0
280.348358 200.0
280.354095 108.0
280.523193 112.0
280.586548 204.0
280.980072 136.0
281.017853 148.0
281.307129 200.0
281.507446 108.0
281.564209 136.0
281.597626 164.0
281.681122 168.0
281.801392 144.0
281.891602 36.0
281.992889 180.0
282.018585 124.0
282.312805 140.0
282.534851 264.0
282.70752 172.0
282.804596 64.0
282.985352 96.0
283.109253 136.0
283.259949 52.0
283.333649 124.0
283.414062 140.0
283.598389 104.0
283.68219 224.0
283.857941 132.0
283.897583 216.0
284.011688 104.0
284.101349 84.0
284.20871 128.0
284.336243 220.0
284.493988 156.0
284.593018 104.0
284.614868 180.0
284.691437 164.0
285.034729 132.0
285.125458 112.0
285.239716 124.0
285.38092 128.0
285.649963 164.0
285.707153 140.0
285.851837 48.0
286.447723 72.0
286.545441 208.0
286.636414 168.0
287.25 80.0
287.28537 224.0
287.341095 92.0
287.567169 112.0
287.776459 108.0
287.884521 36.0
288.131073 164.0
288.171631 140.0
288.354095 204.0
288.398041 72.0
288.445343 224.0
289.020264 124.0
289.287628 228.0
289.346588 328.0
289.514496 176.0
289.541595 64.0
289.616089 120.0
289.683838 108.0
290.046417 36.0
290.211853 180.0
290.259979 108.0
290.321045 60.0
290.527924 144.0
290.599182 144.0
290.68399 164.0
290.812958 240.0
290.901215 172.0
290.999664 48.0
291.101532 180.0
291.257751 224.0
291.427612 168.0
291.468384 140.0
291.83548 68.0
292.076935 108.0
292.141541 96.0
292.250427 204.0
292.352509 96.0
292.580536 116.0
292.63501 156.0
292.672485 48.0
292.825714 116.0
293.016479 124.0
293.067566 124.0
293.265228 136.0
293.466339 188.0
293.623199 256.0
293.660736 204.0
293.773285 196.0
293.79715 36.0
293.841522 108.0
293.926819 108.0
293.958099 116.0
294.088593 216.0
294.144104 180.0
294.257874 48.0
294.317749 120.0
294.387634 72.0
294.59256 140.0
294.640381 200.0
294.852234 60.0
294.904205 136.0
295.033386 216.0
295.221466 92.0
295.560089 76.0
295.80307 116.0
295.830475 56.0
295.905792 256.0
295.991394 100.0
296.025421 252.0
296.23111 148.0
296.275665 112.0
296.323608 96.0
296.385284 120.0
296.837738 128.0
297.084686 152.0
297.170471 100.0
297.585754 84.0
297.609772 152.0
297.657867 88.0
297.704437 180.0
297.846741 144.0
298.052856 132.0
298.093414 184.0
298.204071 152.0
298.255615 84.0
298.283112 56.0
298.444702 148.0
298.836792 140.0
298.898743 132.0
299.074249 168.0
299.284637 140.0
299.363708 156.0
299.4151 168.0
299.518433 76.0
299.542542 188.0
299.614868 140.0
299.842285 100.0
299.931885 144.0
300.011169 172.0
300.290466 108.0
300.334198 208.0
300.390503 128.0
300.801147 60.0
300.828766 144.0
300.93924 220.0
300.987579 136.0
301.098083 164.0
301.131348 156.0
301.218964 172.0
301.464264 208.0
301.519562 164.0
301.557556 176.0
301.612854 152.0
301.643982 100.0
301.823761 100.0
301.896362 184.0
302.010498 116.0
302.301117 152.0
302.370331 200.0
302.436066 104.0
302.529541 56.0
302.647247 48.0
302.694061 224.0
302.723419 144.0
302.768433 128.0
302.906982 84.0
302.931244 140.0
303.109558 144.0
303.191101 140.0
303.333191 156.0
303.562012 172.0
303.679932 132.0
303.707672 156.0
303.98288 112.0
304.096283 172.0
304.269836 164.0
304.339264 192.0
304.443451 132.0
304.471222 92.0
304.495544 152.0
304.610138 112.0
304.70047 120.0
304.811646 124.0
304.912445 148.0
305.037567 52.0
305.134888 76.0
305.253113 96.0
305.527893 200.0
305.649658 168.0
305.729675 156.0
305.757538 216.0
306.11261 148.0
306.415649 112.0
306.673492 176.0
307.116302 112.0
307.398987 156.0
307.514038 76.0
307.538483 164.0
308.006348 172.0
308.114655 252.0
308.37323 208.0
308.459503 164.0
308.652893 104.0
308.729828 148.0
308.995667 108.0
309.226593 108.0
309.52417 144.0
309.611694 48.0
309.678253 88.0
310.049622 172.0
310.126709 52.0
310.197266 292.0
310.810577 104.0
310.838623 144.0
310.866699 124.0
311.017609 128.0
311.073792 160.0
311.15451 156.0
311.23175 132.0
311.505707 88.0
311.600555 104.0
311.709473 148.0
311.737579 164.0
311.881683 128.0
312.19809 156.0
312.307129 168.0
312.447815 48.0
312.806763 104.0
312.944061 244.0
312.996887 200.0
313.021515 168.0
313.116608 172.0
313.158875 52.0
313.21521 96.0
313.35614 160.0
313.461823 104.0
313.49707 188.0
313.592224 212.0
313.673309 128.0
313.82135 76.0
314.043518 132.0
314.283417 64.0
314.336334 160.0
314.449249 208.0
314.495148 136.0
314.629272 132.0
314.728149 192.0
314.841125 52.0
315.115723 180.0
315.169952 96.0
315.314545 144.0
315.371094 168.0
315.554901 232.0
315.855499 176.0
315.949219 172.0
316.131439 152.0
316.408813 216.0
316.448456 160.0
316.520813 188.0
316.627075 132.0
316.85376 92.0
317.162048 188.0
317.20105 104.0
317.34433 172.0
317.426575 188.0
317.502625 128.0
317.793274 92.0
317.839417 100.0
318.059448 224.0
318.27243 48.0
318.396729 72.0
318.474854 180.0
318.645386 120.0
318.728699 212.0
318.873474 104.0
318.915436 168.0
318.997192 52.0
319.121277 168.0
319.313629 104.0
319.342102 68.0
319.409668 144.0
319.480804 200.0
319.63736 144.0
319.803986 244.0
319.993286 112.0
320.018219 128.0
320.078735 160.0
320.1297 128.0
320.167755 112.0
320.231873 60.0
320.293427 140.0
320.300262 176.0
320.363678 120.0
320.452728 204.0
320.553741 184.0
320.595245 204.0
320.645142 156.0
320.677216 92.0
320.721436 136.0
320.773468 28.0
320.798431 160.0
320.83493 212.0
320.880524 132.0
320.949493 212.0
321.003876 34788.0
321.114349 364.0
321.162109 92.0
321.240601 44.0
321.265564 136.0
321.297272 128.0
321.385223 88.0
321.430603 132.0
321.474762 180.0
321.572205 132.0
321.627289 72.0
321.652832 68.0
321.685333 108.0
321.825897 44.0
321.858032 40.0
322.007355 7688.0
322.131165 200.0
322.162903 208.0
322.201477 72.0
322.235413 84.0
322.27948 68.0
322.304504 52.0
322.329529 40.0
322.372406 216.0
322.40097 164.0
322.447296 156.0
322.459564 172.0
322.494293 156.0
322.565399 164.0
322.628784 196.0
322.662659 152.0
322.714203 96.0
322.749176 108.0
322.79364 152.0
322.822601 140.0
322.897644 192.0
322.922852 168.0
323.001648 29332.0
323.108948 48.0
323.136475 64.0
323.169769 40.0
323.194824 244.0
323.233734 56.0
323.383484 188.0
323.410461 112.0
323.441498 172.0
323.520508 60.0
323.559875 52.0
323.61676 152.0
323.667236 144.0
323.813324 108.0
323.864258 52.0
323.914398 196.0
324.005249 5040.0
324.095642 108.0
324.130707 32.0
324.169922 112.0
324.243774 108.0
324.254211 100.0
324.333618 56.0
324.394562 80.0
324.47345 60.0
324.539642 88.0
324.65686 96.0
324.696747 72.0
324.7388 72.0
324.853577 80.0
324.882751 60.0
324.936066 64.0
324.964783 64.0
325.017181 216.0
325.054688 140.0
325.084686 48.0
325.219574 136.0
325.280579 76.0
325.352386 76.0
325.381104 148.0
325.639648 228.0
325.704285 132.0
325.80127 96.0
325.826263 84.0
325.85379 112.0
325.922394 88.0
325.969391 192.0
326.006073 144.0
326.03125 120.0
326.076599 168.0
326.159546 132.0
326.243286 100.0
326.315186 204.0
326.361938 84.0
326.606476 176.0
326.664032 100.0
326.750366 68.0
326.793549 68.0
326.900543 144.0
326.955475 176.0
327.005859 96.0
327.221832 164.0
327.592773 136.0
327.819763 84.0
327.9711 140.0
328.612671 180.0
328.663513 116.0
328.760956 64.0
328.843964 84.0
329.176086 132.0
329.208588 168.0
329.378326 104.0
329.461395 96.0
329.595093 168.0
329.667358 160.0
329.967346 232.0
330.137299 152.0
330.24942 60.0
330.488159 168.0
330.549683 60.0
330.716797 248.0
330.75235 80.0
330.810272 124.0
330.877594 148.0
331.112518 252.0
331.197723 136.0
331.248413 84.0
331.538269 180.0
331.603516 56.0
331.799255 132.0
331.828247 172.0
331.897156 108.0
331.95517 144.0
331.998688 116.0
332.031311 72.0
332.060333 116.0
332.092957 40.0
332.118347 228.0
332.299744 120.0
332.586426 152.0
332.706207 168.0
332.868408 172.0
332.898651 160.0
333.341797 104.0
333.742828 160.0
333.970734 176.0
334.174469 112.0
334.301819 128.0
334.378235 128.0
334.523834 184.0
334.549316 140.0
334.582062 88.0
334.709503 168.0
334.756836 124.0
334.898865 140.0
335.016235 680.0
335.066437 44.0
335.120056 100.0
335.274139 64.0
335.328796 76.0
335.460022 168.0
335.59491 76.0
335.698669 152.0
335.740753 132.0
335.788177 52.0
336.016449 144.0
336.211365 140.0
336.292389 240.0
336.423065 260.0
336.541199 212.0
336.598297 120.0
336.656738 128.0
336.696899 76.0
336.784546 44.0
336.936584 124.0
337.018677 828.0
337.087769 84.0
337.160858 136.0
337.318024 76.0
337.416748 40.0
337.442322 56.0
337.58493 44.0
337.643433 76.0
337.687317 120.0
337.797058 116.0
337.829987 184.0
337.868652 132.0
337.958038 180.0
338.023895 400.0
338.112091 80.0
338.139252 132.0
338.225159 96.0
338.26178 104.0
338.320343 160.0
338.396637 188.0
338.451813 224.0
338.55069 132.0
338.605957 92.0
338.638916 128.0
338.699829 152.0
338.728821 132.0
338.739624 72.0
338.789917 544.0
338.838104 188.0
338.876343 176.0
338.937927 132.0
339.014496 40288.0
339.081207 220.0
339.113953 192.0
339.192322 232.0
339.221497 72.0
339.266602 172.0
339.302155 104.0
339.343475 104.0
339.426239 72.0
339.482513 188.0
339.518494 44.0
339.566162 152.0
339.602844 200.0
339.628815 188.0
339.665497 140.0
339.701355 312.0
339.742676 64.0
339.777191 60.0
339.81192 52.0
339.849304 128.0
339.892639 64.0
339.92923 136.0
339.972443 140.0
340.018097 8700.0
340.126892 116.0
340.163971 156.0
340.256012 116.0
340.333099 64.0
340.421234 96.0
340.498352 84.0
340.552582 68.0
340.608551 44.0
340.657288 160.0
340.71875 80.0
340.804688 240.0
340.860748 200.0
340.887604 168.0
340.949432 136.0
341.01236 43288.0
341.092682 100.0
341.101746 168.0
341.128845 212.0
341.1539 92.0
341.354614 228.0
341.392273 116.0
341.497345 88.0
341.555145 60.0
341.593262 60.0
341.630432 60.0
341.689301 172.0
341.774963 128.0
341.814392 144.0
341.844879 136.0
341.880646 56.0
341.927307 124.0
342.014435 6232.0
342.084595 144.0
342.116211 52.0
342.171417 156.0
342.221497 140.0
342.271637 108.0
342.31369 100.0
342.421814 152.0
342.466003 36.0
342.583893 100.0
342.62439 128.0
342.779144 88.0
342.828033 208.0
342.922882 52.0
342.948669 76.0
343.018433 496.0
343.06662 76.0
343.09613 76.0
343.158783 52.0
343.206726 108.0
343.265717 40.0
343.334137 88.0
343.368988 76.0
343.405853 56.0
343.446442 124.0
343.510925 140.0
343.601349 96.0
343.730499 44.0
343.84491 108.0
343.926086 32.0
343.977783 48.0
344.007294 148.0
344.106964 112.0
344.210358 100.0
344.282806 148.0
344.313751 108.0
344.360413 140.0
344.419128 132.0
344.451904 120.0
344.509521 160.0
344.879028 56.0
344.930786 44.0
344.986237 68.0
345.023193 68.0
345.156281 56.0
345.23764 172.0
345.34491 44.0
345.411469 100.0
345.444763 72.0
345.48175 192.0
345.603851 200.0
345.663055 140.0
345.864319 128.0
346.010956 48.0
346.051331 164.0
346.140564 76.0
346.203522 160.0
346.319733 116.0
346.722137 116.0
346.781464 172.0
346.822205 88.0
346.856873 136.0
346.888947 72.0
346.913696 144.0
347.0224 56.0
347.04834 68.0
347.310181 200.0
347.523102 60.0
347.589905 176.0
347.671539 120.0
347.763763 188.0
347.871948 84.0
347.901642 128.0
348.016663 7276.0
348.135559 60.0
348.195312 140.0
348.327271 136.0
348.356262 124.0
348.399261 92.0
348.471893 160.0
348.562744 84.0
348.625916 36.0
348.659363 68.0
348.72998 124.0
348.791748 168.0
348.90976 196.0
348.936676 112.0
348.999908 17716.0
349.065277 144.0
349.108246 32.0
349.144379 64.0
349.18219 224.0
349.234711 144.0
349.28772 116.0
349.350952 44.0
349.418732 184.0
349.466278 60.0
349.49231 68.0
349.525818 84.0
349.556763 124.0
349.617279 96.0
349.644897 84.0
349.695801 152.0
349.741638 144.0
349.775146 36.0
349.834717 108.0
349.870575 128.0
349.89917 88.0
350.007629 7212.0
350.110229 60.0
350.143097 172.0
350.175415 112.0
350.221954 80.0
350.248047 52.0
350.34787 148.0
350.389587 168.0
350.460388 48.0
350.535553 160.0
350.572174 152.0
350.598267 72.0
350.645111 112.0
350.684265 104.0
350.736145 84.0
350.820068 132.0
350.893372 112.0
350.996674 17504.0
351.067963 172.0
351.103424 180.0
351.160858 168.0
351.284302 72.0
351.321594 64.0
351.355164 44.0
351.407135 176.0
351.420135 164.0
351.46875 100.0
351.518066 156.0
351.548645 56.0
351.593964 88.0
351.62384 100.0
351.649963 196.0
351.712311 96.0
351.801697 80.0
351.811432 108.0
351.847778 40.0
351.892578 128.0
351.93573 132.0
351.999603 3380.0
352.114777 180.0
352.190369 104.0
352.239014 204.0
352.40332 64.0
352.460663 112.0
352.497681 76.0
352.587372 128.0
352.68335 88.0
352.81366 96.0
352.87381 116.0
352.964905 76.0
353.012451 944.0
353.114502 80.0
353.305267 48.0
353.410217 76.0
353.555969 124.0
353.638306 28.0
353.889099 100.0
354.01828 140.0
354.049225 156.0
354.134949 80.0
354.229889 84.0
354.319794 68.0
354.398468 48.0
354.60083 104.0
354.818237 152.0
354.85199 164.0
355.005707 96.0
355.043213 72.0
355.253265 72.0
355.314209 128.0
355.380829 184.0
355.512146 192.0
355.666016 60.0
355.812408 200.0
355.876251 104.0
356.018921 112.0
356.229279 56.0
356.5336 140.0
356.901978 140.0
356.965912 140.0
357.375885 32.0
357.654388 136.0
357.91037 60.0
358.038391 44.0
358.132568 104.0
358.324677 208.0
358.351044 180.0
358.626129 132.0
358.671356 132.0
358.94281 112.0
359.000824 124.0
359.172852 64.0
359.455811 144.0
359.652039 188.0
359.720001 136.0
359.751709 176.0
359.85968 132.0
360.293976 124.0
360.388428 84.0
360.634064 68.0
360.913818 68.0
361.018097 180.0
361.254181 104.0
361.636353 176.0
361.893768 112.0
362.034454 572.0
362.261139 136.0
362.382355 40.0
362.628662 48.0
362.852325 44.0
363.030273 124.0
363.092316 188.0
363.277039 32.0
363.364319 128.0
363.551819 144.0
363.705841 152.0
363.819702 132.0
363.89563 128.0
363.956635 180.0
364.028778 540.0
364.300995 120.0
364.438751 168.0
364.526154 52.0
364.579346 156.0
364.750397 96.0
364.834015 92.0
364.944275 124.0
364.973999 124.0
365.037903 172.0
365.07074 216.0
365.366425 88.0
365.44632 108.0
365.788818 68.0
365.82309 92.0
365.88089 128.0
365.94873 112.0
365.990601 48.0
366.036743 496.0
366.165771 56.0
366.260986 184.0
366.291443 120.0
366.431244 156.0
366.531464 140.0
366.600067 148.0
366.699158 92.0
366.744873 136.0
366.806732 140.0
366.837524 144.0
366.952637 88.0
367.009155 20128.0
367.104584 52.0
367.149017 40.0
367.190948 108.0
367.324463 68.0
367.365417 136.0
367.400757 280.0
367.448151 132.0
367.509125 92.0
367.538086 116.0
367.660217 124.0
367.734772 112.0
367.890839 216.0
367.919769 108.0
367.954651 112.0
368.012848 4560.0
368.068024 48.0
368.074646 112.0
368.122131 88.0
368.170074 56.0
368.229858 228.0
368.290161 64.0
368.343628 60.0
368.389465 80.0
368.450592 40.0
368.496613 92.0
368.544678 208.0
368.610046 156.0
368.683655 152.0
368.752472 160.0
368.795868 112.0
368.821869 68.0
368.94046 128.0
369.007599 15708.0
369.127106 88.0
369.317505 56.0
369.379517 44.0
369.490448 84.0
369.531311 100.0
369.59375 76.0
369.766663 112.0
369.848358 120.0
370.010742 2008.0
370.148132 48.0
370.183228 68.0
370.299927 128.0
370.341797 84.0
370.41687 88.0
370.452911 92.0
370.539459 224.0
370.604584 44.0
370.654388 68.0
370.715698 76.0
370.788513 60.0
370.957153 48.0
371.014282 40.0
371.060669 108.0
371.205475 68.0
371.497864 120.0
371.540039 92.0
371.728058 96.0
371.762573 128.0
371.797119 48.0
371.831665 84.0
372.035095 92.0
372.181 132.0
372.292358 120.0
372.405945 132.0
372.47702 140.0
372.590424 112.0
372.641876 60.0
372.687988 76.0
372.953156 44.0
373.187653 124.0
373.410675 60.0
373.768433 88.0
374.288086 104.0
374.52298 140.0
374.573059 192.0
374.738708 100.0
374.764313 56.0
375.270599 156.0
375.37085 168.0
375.617676 116.0
375.652374 84.0
375.865692 140.0
376.265961 192.0
376.895508 92.0
377.021454 156.0
377.111847 188.0
377.118652 184.0
377.16217 96.0
377.517853 100.0
377.618408 244.0
377.722839 100.0
377.777008 176.0
377.927887 132.0
378.025665 13380.0
378.137909 216.0
378.206512 48.0
378.242828 168.0
378.283936 56.0
378.411682 136.0
378.481384 80.0
378.535583 52.0
378.702118 176.0
378.791199 44.0
378.883484 140.0
379.029053 3852.0
379.23291 68.0
379.29129 64.0
379.46936 152.0
379.519775 44.0
379.56662 48.0
379.608948 52.0
379.692474 164.0
379.74469 288.0
379.774109 48.0
379.861053 176.0
379.917236 208.0
380.023132 10560.0
380.189026 128.0
380.225769 76.0
380.253998 132.0
380.470306 48.0
380.497467 64.0
380.590668 44.0
380.653656 124.0
380.788696 76.0
380.878052 100.0
380.924652 44.0
381.024597 1916.0
381.099152 152.0
381.193573 128.0
381.258789 176.0
381.301544 72.0
381.437561 124.0
381.499756 96.0
381.62027 124.0
381.793152 48.0
381.838043 128.0
381.980469 52.0
382.031982 280.0
382.390503 116.0
382.530609 112.0
382.565643 32.0
382.729156 32.0
383.153687 176.0
383.217377 104.0
383.297455 116.0
383.358307 124.0
383.46933 88.0
383.648621 144.0
383.682709 92.0
383.882568 64.0
384.155579 152.0
384.244171 236.0
384.59259 164.0
384.940063 40.0
385.47522 116.0
385.584625 96.0
385.733154 128.0
385.936432 136.0
386.073303 132.0
386.315796 52.0
386.378387 72.0
386.988922 60.0
387.055481 168.0
387.298309 56.0
387.427551 76.0
387.490234 144.0
387.862518 100.0
388.064697 140.0
388.250671 116.0
388.336945 184.0
388.438934 48.0
388.588013 88.0
389.051086 124.0
389.282745 128.0
389.547363 172.0
389.782501 144.0
390.0448 644.0
390.069733 128.0
390.603271 96.0
390.764587 96.0
391.043945 148.0
391.228973 88.0
391.441559 88.0
391.764526 188.0
391.965454 108.0
392.063965 160.0
392.785492 112.0
393.322113 60.0
393.649811 232.0
393.874908 188.0
393.942047 180.0
394.048737 100.0
394.352997 116.0
394.380676 104.0
394.491333 140.0
394.980011 228.0
395.753357 92.0
396.475494 160.0
396.525818 60.0
396.811218 116.0
397.057068 120.0
397.108612 84.0
397.501373 132.0
398.049133 184.0
398.390717 76.0
399.38446 108.0
400.216187 208.0
400.455109 144.0
400.634369 100.0
401.311859 116.0
401.614929 80.0
401.922119 104.0
402.145599 96.0
402.221436 184.0
402.249359 208.0
402.293274 76.0
402.45697 92.0
402.488922 144.0
402.736511 52.0
403.303864 176.0
403.343842 72.0
403.515747 76.0
403.67569 76.0
403.955627 76.0
403.999634 132.0
404.219696 44.0
404.259705 120.0
404.769531 188.0
404.828156 108.0
404.943878 156.0
405.020386 164.0
405.108521 180.0
405.216675 180.0
405.270752 80.0
405.336884 140.0
405.364929 132.0
405.427734 124.0
405.521729 156.0
405.559418 172.0
405.635834 148.0
405.662628 144.0
405.709625 160.0
405.746521 76.0
405.783966 216.0
405.90976 244.0
405.973175 304.0
406.057007 63744.0
406.19281 204.0
406.26825 132.0
406.305023 196.0
406.363953 268.0
406.416962 268.0
406.460449 76.0
406.482361 72.0
406.48938 124.0
406.533112 100.0
406.547058 76.0
406.562653 160.0
406.637817 100.0
406.678833 64.0
406.718292 212.0
406.75293 188.0
406.799835 136.0
406.872894 88.0
406.913849 68.0
406.998932 88.0
407.059662 17764.0
407.194489 280.0
407.233002 188.0
407.270081 68.0
407.320068 144.0
407.358917 272.0
407.411133 220.0
407.490143 84.0
407.543488 264.0
407.58255 120.0
407.716095 76.0
407.779999 144.0
407.818695 56.0
407.871246 152.0
407.919586 76.0
407.971344 236.0
408.055267 61404.0
408.149719 260.0
408.236328 148.0
408.32077 156.0
408.406403 40.0
408.484375 192.0
408.533051 52.0
408.562836 68.0
408.601837 128.0
408.665466 40.0
408.738495 180.0
408.807892 132.0
408.845154 92.0
408.897583 112.0
408.951324 112.0
408.996124 148.0
409.058777 9388.0
409.135986 128.0
409.222168 64.0
409.234528 52.0
409.246582 84.0
409.281281 36.0
409.35675 124.0
409.410583 128.0
409.489807 36.0
409.59491 136.0
409.652161 100.0
409.677032 100.0
409.738617 132.0
409.804901 132.0
409.901611 60.0
409.92981 84.0
409.969879 68.0
410.061523 620.0
410.14624 256.0
410.253967 112.0
410.33725 52.0
410.406525 136.0
410.420685 72.0
410.433075 192.0
410.549866 64.0
410.607056 112.0
410.63562 48.0
410.744202 28.0
410.776459 60.0
410.827911 192.0
410.889435 124.0
410.990509 72.0
411.05365 68.0
411.123444 72.0
411.165161 108.0
411.260681 120.0
411.312836 116.0
411.377716 108.0
411.418091 60.0
411.449097 176.0
411.531128 92.0
411.587677 112.0
411.667816 136.0
411.682892 116.0
411.728851 104.0
411.734802 100.0
411.777466 196.0
411.811676 120.0
411.854187 84.0
411.906708 60.0
411.969452 68.0
412.084473 52.0
412.116791 120.0
412.157196 72.0
412.343079 108.0
412.407745 40.0
412.694763 44.0
412.771576 44.0
413.026367 80.0
413.252899 88.0
413.928864 76.0
414.017944 112.0
414.423004 100.0
414.512146 52.0
415.254028 64.0
415.813904 100.0
416.020905 104.0
416.061493 72.0
416.091309 164.0
416.146759 56.0
416.199524 96.0
416.50412 104.0
416.65036 40.0
416.979492 76.0
417.564911 80.0
418.586365 132.0
418.777771 56.0
419.413391 84.0
419.988281 68.0
420.04538 64.0
420.322815 96.0
420.763611 64.0
420.910583 88.0
421.993347 72.0
422.338623 136.0
422.615021 56.0
422.734863 128.0
423.011993 100.0
423.572998 168.0
423.746948 128.0
424.445923 64.0
424.511536 48.0
424.929901 92.0
425.393616 64.0
425.656372 80.0
425.865814 64.0
426.128723 112.0
426.399933 104.0
426.996063 48.0
427.670319 168.0
427.765472 72.0
428.288422 92.0
428.420227 84.0
428.609741 60.0
428.782806 84.0
429.009521 36.0
429.463104 28.0
430.614594 120.0
431.924835 92.0
432.144226 104.0
432.466858 56.0
432.71521 52.0
433.021637 92.0
433.717712 84.0
434.024475 156.0
434.099121 56.0
435.651398 108.0
435.701233 48.0
436.636475 68.0
437.252197 156.0
441.720795 56.0
443.70993 32.0
444.12088 76.0
444.51944 68.0
444.674713 48.0
446.334045 52.0
447.398468 44.0
448.696014 156.0
448.932129 48.0
455.135498 44.0
458.623901 64.0
458.777344 92.0
459.967499 128.0
460.437134 160.0
461.304504 192.0
461.415649 76.0
462.908905 96.0
464.717712 72.0
465.133972 48.0
465.185486 40.0
465.45166 116.0
468.828461 32.0
469.031006 132.0
471.625092 64.0
475.666382 76.0
477.33902 124.0
477.386841 56.0
480.139099 108.0
481.566223 60.0
481.705994 60.0
481.898224 92.0
482.66748 144.0
484.334869 80.0
485.163055 64.0
485.610291 72.0
487.177307 112.0
488.658844 56.0
489.398254 116.0
490.270447 180.0
491.094849 128.0
491.311005 132.0
491.875824 100.0
492.123047 176.0
492.153961 176.0
492.565155 180.0
492.798798 144.0
493.037415 128.0
493.123505 3964.0
493.457336 36.0
493.550201 52.0
493.875977 96.0
493.930511 132.0
493.974762 52.0
494.127777 2304.0
494.349365 148.0
494.356842 100.0
494.549042 76.0
494.604858 80.0
495.041595 164.0
495.122803 5064.0
495.35141 68.0
495.382416 44.0
495.767883 60.0
495.903473 148.0
495.951294 72.0
496.126312 1236.0
496.352997 60.0
496.397339 72.0
496.463013 104.0
496.774323 36.0
497.118164 192.0
497.151459 128.0
497.324554 56.0
497.399994 76.0
497.524292 68.0
497.559814 92.0
497.626404 40.0
497.821777 44.0
498.119354 108.0
498.781433 32.0
499.110413 44.0
499.684143 72.0
499.875458 40.0
499.973358 80.0
501.380646 52.0
501.853149 148.0
504.111725 40.0
505.063995 60.0
506.254456 132.0
507.132568 84.0
507.697449 108.0
508.994293 52.0
509.501801 28.0
509.870239 156.0
512.899231 96.0
515.661499 40.0
517.50708 120.0
519.115662 40.0
520.12738 60.0
523.528076 32.0
528.819336 120.0
531.945312 88.0
534.730713 112.0
537.984863 148.0
539.749756 92.0
540.809143 100.0
542.625 84.0
542.713074 52.0
542.880005 64.0
543.432007 52.0
545.377747 96.0
548.505615 104.0
548.915894 128.0
552.442078 76.0
552.760193 132.0
553.326538 116.0
556.110962 100.0
559.791992 76.0
560.182861 36.0
561.695984 48.0
563.626892 60.0
563.848999 72.0
566.650208 68.0
569.254211 76.0
570.194824 80.0
575.830872 88.0
580.362549 32.0
580.952454 60.0
582.575012 76.0
583.411133 48.0
586.535217 76.0
587.412781 88.0
587.518921 72.0
588.754578 120.0
590.441162 52.0
590.755554 156.0
591.089355 88.0
594.076843 96.0
596.326843 48.0
597.270081 92.0
597.917175 64.0
599.738647 28.0
601.919373 64.0
608.514587 40.0
610.863647 100.0
611.345764 104.0
628.640686 60.0
630.423401 104.0
630.598328 64.0
631.533264 52.0
631.798401 96.0
634.40741 56.0
636.896301 112.0
639.047852 152.0
639.556091 108.0
640.588318 44.0
640.935974 104.0
641.05188 144.0
641.208069 112.0
641.323975 164.0
644.119324 64.0
650.545166 88.0
650.743164 72.0
651.164612 124.0
652.414612 64.0
653.238403 92.0
665.478088 96.0
665.986511 88.0
669.365234 44.0
671.885559 52.0
672.633789 56.0
672.922913 64.0
675.289551 48.0
678.707397 124.0
679.168945 32.0
682.097412 124.0
683.184204 104.0
684.625977 88.0
686.564514 108.0
689.995056 36.0
692.61145 52.0
692.690063 128.0
693.172058 44.0
694.183716 144.0
695.962524 92.0
698.143188 64.0
703.739136 168.0
709.489929 32.0
713.89679 176.0
720.121399 76.0
725.606201 108.0
726.49646 52.0
726.673462 96.0
726.775391 72.0
726.914917 104.0
726.952454 96.0
727.113464 72.0
728.095947 60.0
728.815735 52.0
729.44989 88.0
730.310181 84.0
733.260559 88.0
737.31897 44.0
738.081177 52.0
740.566528 76.0
740.792603 52.0
741.545715 32.0
744.583923 44.0
748.651672 108.0
752.408447 60.0
756.409912 100.0
759.390564 152.0
764.626343 68.0
765.595276 80.0
765.975281 72.0
767.496338 20.0
770.21698 84.0
770.636841 88.0
772.787537 68.0
773.938782 60.0
774.714172 80.0
776.116272 108.0
786.033813 84.0
786.558411 48.0
788.300903 68.0
791.696472 84.0
794.268921 36.0
794.684082 104.0
796.564697 224.0
803.680664 72.0
812.058472 128.0
812.61438 112.0
814.067444 60.0
819.288696 148.0
820.502563 72.0
821.820007 64.0
833.420044 48.0
841.668152 28.0
844.48822 68.0
846.664307 124.0
847.150818 56.0
848.703979 76.0
853.45929 44.0
854.098999 116.0
855.274292 52.0
855.553711 60.0
863.816711 80.0
865.309021 48.0
866.26355 120.0
876.674622 52.0
877.281677 88.0
884.357971 76.0
891.688538 72.0
896.062073 96.0
901.354309 120.0
904.212769 96.0
907.753174 124.0
920.618713 80.0
922.443359 100.0
925.280518 96.0
925.322876 108.0
925.504517 76.0
925.577148 72.0
930.433594 72.0
933.909363 112.0
936.45343 36.0
938.287537 96.0
938.872864 72.0
940.172302 180.0
942.737122 52.0
947.399292 88.0
949.728638 76.0
958.612183 60.0
959.653809 56.0
961.072388 28.0
961.97345 136.0
965.847717 192.0
974.582458 76.0
990.452942 52.0
990.697266 52.0
991.793823 40.0
999.568604 164.0
1006.36322 92.0
1007.752747 84.0
1009.655396 56.0
1010.015869 64.0
1012.851501 96.0
1019.233582 60.0
1035.084229 88.0
1036.839478 64.0
1045.991821 72.0
1082.564575 96.0
1085.310059 48.0
1096.715698 172.0
1108.108032 96.0
1119.892212 108.0
1121.218018 100.0
1132.341431 184.0
1144.165894 64.0
1150.880981 112.0
1152.711426 160.0
1157.168701 176.0
1157.994751 140.0
1173.753784 108.0
1175.745728 56.0
1181.943481 56.0
1185.860596 92.0
1190.285278 84.0
1193.260376 76.0
1195.495728 76.0
1198.208618 72.0
1201.172729 112.0
1216.888672 40.0
1217.034424 92.0
1221.600342 120.0
1225.331787 108.0
1226.209717 48.0
1237.469971 72.0
1256.600586 84.0
1271.807739 56.0
1288.570435 80.0
1289.542236 20.0
1290.214233 80.0
1311.785889 96.0
1312.780762 240.0
1321.62207 84.0
1327.141113 76.0
1336.248657 84.0
1351.336304 84.0
1360.526367 76.0
1366.663086 80.0
1370.21167 136.0
1393.234131 84.0
1398.297607 152.0
1399.019653 280.0
1402.364136 56.0
1402.796387 44.0
1407.444214 64.0
1407.907227 60.0
1409.049927 60.0
1415.639404 124.0
1428.578613 68.0
1441.455811 76.0
1453.282715 196.0
1455.749634 92.0
1463.056152 188.0
1464.152588 64.0
1469.312866 64.0
1470.869507 72.0
1476.133301 184.0
1488.477661 92.0
1495.67334 88.0
1502.20752 36.0
