>compound Xylometazoline HCl
>formula C16H24N2
>ionization [M+H]+
>parentmass 245.201309
#inchi InChI=1S/C16H24N2/c1-11-8-13(16(3,4)5)9-12(2)14(11)10-15-17-6-7-18-15/h8-9H,6-7,10H2,1-5H3,(H,17,18)
#inchikey HUCJFAOMUPXHDK
#origInchi InChI=1S/C16H24N2.ClH/c1-11-8-13(16(3,4)5)9-12(2)14(11)10-15-17-6-7-18-15;/h8-9H,6-7,10H2,1-5H3,(H,17,18);1H
#Ion_Source LC-ESI
#Instrument qTof
#Compound_Source Commercial
#PI Dorrestein
#Data_Collector Garg_Neha
#Scan -1
#Precursor_MZ 245.201
#ExactMass 244.194
#Charge 1
#CAS_Number 1218-35-5
#Pubmed_ID N/A
#Smiles C1(=C(C=C(C(=C1C)CC2NCCN=2)C)C(C)(C)C).Cl
#INCHI_AUX N/A
#Library_Class 1
#SpectrumID CCMSLIB00000078516
#IonMode Positive
#UpdateWorkflowName UPDATE-SINGLE-ANNOTATED-GOLD
#LibraryQualityString Gold
#TaskID 77f51c88eb8b467eb4a01dd2d0cb90d2
##Scan# 1176
#SpectrumFile Plate8_41_60_GC11_01_15764.mzXML
#LibraryName FDALibrary_2_04302014.mgf
#MQScore -1
#Organism FDALibrary_2_04302014
#TIC_Query 0
#RT_Query -1
#MZErrorPPM -1
#SharedPeaks 0
#MassDiff 0
#LibMZ -1
#SpecMZ 245.201
#SpecCharge 0
#internalFilename spec-00000.mgf

>collision 10
46.032982 168.0
48.180305 252.0
49.237404 192.0
60.578579 156.0
67.062286 176.0
69.683891 140.0
70.550537 164.0
76.671158 196.0
79.192451 208.0
82.344078 192.0
85.079201 236.0
85.183876 164.0
86.87487 184.0
87.734055 204.0
91.685104 144.0
105.069839 316.0
108.148239 164.0
108.734795 192.0
108.792915 160.0
109.187714 172.0
112.969727 144.0
115.591026 232.0
118.474083 156.0
119.083618 272.0
125.838203 160.0
128.965332 180.0
129.372498 140.0
129.438156 156.0
131.344986 244.0
133.045273 184.0
133.097824 492.0
134.104477 168.0
134.585556 152.0
135.056656 152.0
136.072037 172.0
138.162582 148.0
140.998428 140.0
143.54335 220.0
143.779526 224.0
144.082108 228.0
144.889023 168.0
145.101791 356.0
146.09346 260.0
146.664902 152.0
147.112717 332.0
148.119553 152.0
149.299149 168.0
149.859024 200.0
152.430725 172.0
158.117447 144.0
159.039795 184.0
159.120132 152.0
159.869186 156.0
160.12294 1004.0
161.129791 1580.0
162.13356 296.0
164.625122 184.0
164.954712 180.0
165.123474 180.0
165.978821 156.0
169.052002 196.0
170.062775 144.0
170.104294 204.0
170.509491 140.0
170.751282 188.0
172.110229 220.0
174.837906 180.0
175.019547 164.0
175.146378 3012.0
176.149597 504.0
178.9702 160.0
184.116318 280.0
188.14328 144.0
189.138672 3336.0
189.466873 140.0
189.570984 276.0
189.777451 112.0
190.138077 200.0
191.141724 132.0
192.30748 144.0
194.955185 176.0
202.14856 188.0
211.256256 212.0
213.143723 228.0
214.435837 156.0
215.154953 452.0
216.15741 168.0
218.182709 252.0
219.419235 180.0
220.118515 180.0
220.987534 152.0
221.547104 232.0
221.79306 180.0
224.674606 152.0
228.768341 184.0
229.117676 152.0
229.167542 2100.0
230.178223 1228.0
231.177826 304.0
232.183029 120.0
232.844345 164.0
241.450607 148.0
243.828537 184.0
244.326981 148.0
244.651886 172.0
245.149536 204.0
245.201309 33120.0
245.292755 152.0
245.492599 108.0
245.519623 120.0
245.585709 144.0
245.98291 120.0
246.121323 256.0
246.144073 168.0
246.204239 4784.0
247.207336 492.0
247.965622 140.0
248.104095 144.0
250.972351 140.0
262.163208 120.0
271.7547 148.0
396.691376 140.0
462.345154 156.0
1826.092407 168.0
1846.938477 212.0
