>compound MLS000860003-01!S()-Raclopride (+)-tartrate salt
>formula C15H20Cl2N2O3
>ionization [M+H]+
>parentmass 347.0923743120905
#inchi InChI=1S/C15H20Cl2N2O3/c1-3-19-6-4-5-9(19)8-18-15(21)12-13(20)10(16)7-11(17)14(12)22-2/h7,9,20H,3-6,8H2,1-2H3,(H,18,21)/t9-/m0/s1
#inchikey WAOQONBSWFLFPE
#origInchi InChI=1S/C15H20Cl2N2O3.C4H6O6/c1-3-19-6-4-5-9(19)8-18-15(21)12-13(20)10(16)7-11(17)14(12)22-2;5-1(3(7)8)2(6)4(9)10/h7,9,20H,3-6,8H2,1-2H3,(H,18,21);1-2,5-6H,(H,7,8)(H,9,10)/t9-;/m0./s1
#Ion_Source LC-ESI
#Instrument qTof
#Compound_Source NIH Pharmacologically Active Library
#PI Dorrestein
#Data_Collector VP/LMS
#Scan -1
#Precursor_MZ 347.096
#ExactMass 346.085
#Charge 1
#CAS_Number N/A
#Pubmed_ID N/A
#Smiles CCN1CCC[C@H]1CNC(=O)c2c(O)c(Cl)cc(Cl)c2OC.OC(C(O)C(=O)O)C(=O)O
#INCHI_AUX N/A
#Library_Class 1
#SpectrumID CCMSLIB00000085756
#IonMode Positive
#UpdateWorkflowName UPDATE-SINGLE-ANNOTATED-GOLD
#LibraryQualityString Gold
#TaskID d252d724072548979f1f6f1ced849daf
##Scan# 1651
#SpectrumFile p4-F02_GF2_01_18386.mzXML
#LibraryName Pharm_Active_Library.mgf
#MQScore -1
#Organism Pharm_Active_Library
#TIC_Query 0
#RT_Query -1
#MZErrorPPM -1
#SharedPeaks 0
#MassDiff 0
#LibMZ -1
#SpecMZ 347.096
#SpecCharge 0
#internalFilename spec-00000.mgf

>collision 10
45.167709 200.0
45.252808 116.0
45.302269 128.0
45.323704 140.0
45.461826 196.0
45.471779 164.0
45.565224 136.0
45.577316 276.0
45.694168 212.0
45.711784 120.0
45.741398 192.0
45.771015 292.0
45.812771 196.0
45.838371 120.0
45.90712 160.0
45.919258 180.0
45.982674 152.0
46.017773 164.0
46.029922 204.0
46.056934 64.0
46.115036 240.0
46.165127 164.0
46.211052 96.0
46.292271 236.0
46.307701 204.0
46.334259 240.0
46.437286 192.0
46.549931 112.0
46.744324 64.0
46.760654 56.0
46.798107 164.0
46.890045 132.0
46.939121 148.0
47.178066 184.0
47.329937 112.0
47.451885 48.0
47.484795 172.0
47.539673 104.0
47.598373 184.0
47.600941 140.0
47.793858 144.0
47.83794 168.0
47.858589 248.0
47.957783 152.0
47.973434 180.0
47.993626 152.0
48.021206 52.0
48.091576 56.0
48.116425 140.0
48.156471 156.0
48.265263 244.0
48.351421 144.0
48.361107 248.0
48.390179 260.0
48.449734 208.0
48.478832 188.0
48.509808 320.0
48.577278 204.0
48.71471 168.0
48.775856 132.0
48.80088 56.0
48.831474 120.0
48.845383 192.0
48.872032 156.0
48.985981 156.0
49.090519 184.0
49.163059 100.0
49.239849 184.0
49.383808 140.0
49.408989 184.0
49.474556 212.0
49.502796 216.0
49.564407 104.0
49.64291 172.0
49.680782 196.0
49.718666 228.0
49.797291 112.0
49.819767 160.0
49.902687 64.0
49.923779 80.0
49.950504 184.0
50.018047 152.0
50.091274 116.0
50.103954 116.0
50.168274 200.0
50.219547 128.0
50.232243 180.0
50.311272 172.0
50.323978 180.0
50.338097 108.0
50.356457 108.0
50.3946 192.0
50.558636 204.0
50.572021 204.0
50.772564 152.0
50.810863 228.0
50.884666 256.0
50.92585 132.0
50.986942 156.0
51.058029 156.0
51.086479 164.0
51.271587 148.0
51.331463 132.0
51.40707 196.0
51.418488 120.0
51.562737 188.0
51.597046 188.0
51.763023 164.0
51.807426 232.0
51.830349 184.0
51.916275 132.0
51.969437 140.0
52.025356 200.0
52.04982 156.0
52.120209 176.0
52.184891 188.0
52.197388 220.0
52.259682 192.0
52.282707 60.0
52.321571 164.0
52.34029 216.0
52.356133 288.0
52.465641 200.0
52.569496 132.0
52.686455 236.0
52.731251 176.0
52.816559 56.0
52.919312 84.0
52.933792 168.0
52.974346 168.0
53.004772 164.0
53.022079 144.0
53.188965 120.0
53.238331 156.0
53.270283 112.0
53.309513 164.0
53.332767 172.0
53.3941 220.0
53.443298 184.0
53.470947 168.0
53.542286 216.0
53.558308 156.0
53.651573 164.0
53.664696 64.0
53.706985 196.0
53.723034 176.0
53.88509 144.0
53.953781 148.0
54.149864 140.0
54.160118 156.0
54.208469 140.0
54.252441 72.0
54.331635 152.0
54.372723 192.0
54.410889 160.0
54.604858 68.0
54.655231 200.0
54.666649 204.0
54.70639 188.0
54.75351 184.0
54.930386 192.0
54.983013 168.0
55.010075 164.0
55.105667 204.0
55.110306 148.0
55.115227 184.0
55.336807 116.0
55.356709 200.0
55.43457 188.0
55.461246 64.0
55.473106 244.0
55.504242 56.0
55.51907 148.0
55.582859 108.0
55.602154 184.0
55.651142 80.0
55.822025 108.0
55.954456 116.0
56.006001 140.0
56.036373 28.0
56.067604 200.0
56.12133 184.0
56.239185 160.0
56.301895 176.0
56.38855 120.0
56.467793 148.0
56.719345 200.0
56.840828 140.0
56.908375 156.0
57.060127 164.0
57.097721 160.0
57.17445 156.0
57.200035 124.0
57.249722 192.0
57.281353 200.0
57.317513 144.0
57.451702 132.0
57.546787 124.0
57.684269 152.0
57.712994 32.0
57.86763 160.0
57.982456 160.0
58.056744 148.0
58.1068 168.0
58.141701 212.0
58.342209 236.0
58.358932 184.0
58.416218 168.0
58.420528 112.0
58.4277 224.0
58.456284 128.0
58.466938 200.0
58.504993 192.0
58.524784 144.0
58.561333 192.0
58.610542 184.0
58.745781 124.0
58.783924 152.0
58.970486 180.0
59.162991 116.0
59.220222 192.0
59.276333 56.0
59.296257 212.0
59.385727 204.0
59.512558 140.0
59.569386 172.0
59.690807 212.0
59.750793 136.0
59.781567 124.0
59.807732 212.0
59.855457 164.0
59.86932 136.0
59.88472 72.0
59.895504 184.0
59.955593 132.0
60.01263 56.0
60.023422 140.0
60.097466 148.0
60.170006 40.0
60.190079 172.0
60.360058 72.0
60.397175 140.0
60.448231 140.0
60.463707 104.0
60.597485 188.0
60.624775 168.0
60.728012 148.0
60.79071 204.0
60.949104 128.0
61.0341 88.0
61.240025 260.0
61.280529 192.0
61.300785 116.0
61.320465 236.0
61.324036 148.0
61.329369 224.0
61.358459 152.0
61.427078 64.0
61.475147 208.0
61.565994 124.0
61.600357 124.0
61.800476 184.0
61.939812 212.0
61.983681 144.0
62.11224 136.0
62.157742 168.0
62.18285 164.0
62.210938 184.0
62.300621 196.0
62.402779 104.0
62.423218 188.0
62.478271 180.0
62.571129 208.0
62.598549 164.0
62.747585 164.0
62.974827 80.0
63.008003 124.0
63.022221 56.0
63.058571 144.0
63.074375 68.0
63.090183 144.0
63.166092 92.0
63.280041 40.0
63.295872 144.0
63.500313 204.0
63.606621 196.0
63.66798 180.0
63.690781 164.0
63.843365 132.0
63.891083 116.0
63.918133 132.0
64.051872 188.0
64.066208 136.0
64.086922 212.0
64.18734 140.0
64.268692 164.0
64.281456 48.0
64.314972 168.0
64.358078 124.0
64.503464 68.0
64.575417 144.0
64.609016 168.0
64.674622 140.0
64.708244 124.0
64.741867 180.0
64.773903 192.0
65.035278 152.0
65.057747 180.0
65.097893 204.0
65.159805 176.0
65.329384 172.0
65.345436 128.0
65.369568 92.0
65.388878 128.0
65.54026 204.0
65.588608 32.0
65.599892 180.0
65.696655 168.0
65.762817 236.0
65.793488 140.0
65.877464 152.0
65.922707 148.0
66.026169 124.0
66.105446 220.0
66.151184 124.0
66.260887 96.0
66.294914 120.0
66.411652 188.0
66.450584 148.0
66.513878 220.0
66.567459 180.0
66.59182 180.0
66.634056 136.0
66.645424 92.0
66.78199 96.0
66.809639 136.0
66.897522 208.0
67.019669 176.0
67.159874 152.0
67.234932 172.0
67.256149 160.0
67.337784 236.0
67.367188 88.0
67.386795 160.0
67.471786 160.0
67.506119 168.0
67.7369 156.0
67.886047 156.0
67.918854 152.0
67.95166 132.0
67.999252 184.0
68.071487 144.0
68.640862 148.0
68.708488 144.0
68.741486 56.0
68.858604 200.0
68.895042 188.0
69.244072 148.0
69.272232 144.0
69.308678 164.0
69.374977 104.0
69.388245 232.0
69.48278 56.0
69.549156 148.0
69.657089 196.0
69.673561 184.0
69.693642 76.0
69.72023 188.0
69.731865 188.0
69.763451 104.0
69.808342 164.0
69.876541 168.0
69.940376 156.0
69.9814 240.0
70.064674 80.0
70.119667 96.0
70.133003 192.0
70.178009 192.0
70.339844 188.0
70.391602 208.0
70.431679 172.0
70.580421 204.0
70.607185 188.0
70.704216 204.0
70.741043 104.0
70.766159 184.0
70.801323 152.0
70.891785 120.0
70.987343 144.0
71.076248 204.0
71.207191 128.0
71.237427 152.0
71.301285 120.0
71.341621 224.0
71.366844 156.0
71.609177 136.0
71.747353 168.0
71.806374 212.0
71.824928 136.0
72.027489 168.0
72.147476 136.0
72.184669 180.0
72.253647 180.0
72.325096 200.0
72.563965 164.0
72.618233 216.0
72.643677 112.0
72.657242 152.0
72.777756 144.0
72.791336 124.0
72.859276 140.0
72.884766 56.0
72.917618 168.0
72.968048 160.0
73.02417 172.0
73.109238 140.0
73.146683 156.0
73.310188 204.0
73.342575 204.0
73.412476 116.0
73.456825 128.0
73.547264 224.0
73.601898 124.0
73.624092 52.0
73.675339 148.0
73.82576 156.0
73.893837 120.0
73.933533 132.0
73.947227 176.0
73.962631 196.0
74.067085 168.0
74.384323 156.0
74.51828 156.0
74.532028 236.0
74.576706 176.0
74.628281 180.0
74.690193 156.0
74.786552 284.0
74.798599 240.0
74.812378 32.0
75.003586 156.0
75.01738 164.0
75.132927 156.0
75.16053 168.0
75.181244 188.0
75.217484 204.0
75.324547 164.0
75.347008 140.0
75.429962 44.0
75.530251 176.0
75.571777 100.0
75.65831 180.0
75.746635 132.0
75.805542 208.0
75.847137 108.0
75.865814 228.0
76.063972 208.0
76.077385 148.0
76.090012 200.0
76.154266 52.0
76.244606 204.0
76.291542 212.0
76.348923 152.0
76.533386 44.0
76.747704 160.0
76.803513 164.0
76.90995 248.0
76.990265 140.0
77.014488 152.0
77.030441 212.0
77.081108 156.0
77.107178 236.0
77.165009 180.0
77.187744 212.0
77.241959 168.0
77.254204 204.0
77.467781 192.0
77.50808 244.0
77.551895 204.0
77.599228 184.0
77.695686 56.0
77.729027 164.0
77.743065 188.0
77.772903 40.0
77.869354 156.0
78.296852 188.0
78.335609 100.0
78.575371 140.0
78.64949 196.0
78.67067 164.0
78.702454 196.0
78.84024 160.0
78.925095 168.0
78.986992 184.0
79.001144 152.0
79.025917 240.0
79.052879 152.0
79.093338 208.0
79.149818 164.0
79.23307 116.0
79.35891 172.0
79.486618 116.0
79.568268 124.0
79.600227 152.0
79.694374 144.0
79.804573 168.0
79.863266 56.0
79.95163 144.0
79.971802 156.0
80.041237 60.0
80.082191 124.0
80.146332 196.0
80.173058 180.0
80.479881 124.0
80.533463 196.0
80.595985 88.0
80.622795 172.0
80.674629 108.0
80.698196 176.0
80.724693 212.0
80.801605 172.0
80.864243 148.0
80.898254 164.0
81.098877 196.0
81.227982 172.0
81.276154 132.0
81.306931 212.0
81.479317 208.0
81.524239 200.0
81.760315 192.0
81.941704 188.0
82.208221 200.0
82.506607 196.0
82.553619 152.0
82.650398 176.0
82.698357 164.0
82.785263 120.0
82.824173 168.0
82.856712 184.0
82.874023 128.0
82.886711 160.0
82.959206 112.0
83.040535 108.0
83.155113 172.0
83.215019 144.0
83.22773 228.0
83.327629 136.0
83.429405 216.0
83.567627 152.0
83.645103 232.0
83.930099 176.0
84.020355 216.0
84.059616 144.0
84.22393 224.0
84.297012 80.0
84.313461 156.0
84.35733 164.0
84.481682 188.0
84.536575 136.0
84.617119 148.0
84.670219 180.0
84.831467 84.0
84.875465 216.0
84.959839 172.0
85.097488 208.0
85.147072 192.0
85.323479 188.0
85.338188 144.0
85.371284 144.0
85.411751 28.0
85.538185 220.0
85.553444 152.0
85.593956 224.0
85.67868 32.0
85.724747 144.0
85.752388 144.0
85.815063 132.0
85.973709 164.0
86.032776 176.0
86.176834 200.0
86.311768 172.0
86.381142 200.0
86.520844 76.0
86.681992 104.0
86.963524 204.0
87.001015 172.0
87.051147 168.0
87.099434 68.0
87.210922 108.0
87.223938 152.0
87.236954 84.0
87.346664 100.0
87.571312 220.0
87.597969 36.0
87.745201 72.0
87.76944 232.0
87.810471 196.0
87.928009 136.0
87.97094 220.0
88.282974 124.0
88.413933 148.0
88.428642 200.0
88.482536 296.0
88.59182 152.0
88.702385 156.0
88.730499 40.0
88.931946 156.0
88.985664 152.0
89.05703 192.0
89.154724 176.0
89.31002 356.0
89.508392 100.0
89.532875 80.0
89.610107 184.0
89.832573 120.0
89.970337 72.0
89.992996 144.0
90.105789 184.0
90.232628 196.0
90.310486 132.0
90.410759 92.0
90.546951 184.0
90.583061 84.0
90.738464 208.0
90.826302 188.0
90.875023 160.0
91.013588 168.0
91.064865 152.0
91.085754 160.0
91.135155 156.0
91.216873 76.0
91.256798 240.0
91.330971 172.0
91.370918 112.0
91.391846 196.0
91.416588 200.0
91.563179 176.0
91.616508 248.0
91.734665 216.0
91.820473 160.0
91.934944 156.0
91.976929 64.0
92.007477 144.0
92.036118 136.0
92.187027 152.0
92.351448 48.0
92.447105 156.0
92.514099 224.0
92.600273 232.0
92.816826 144.0
92.902336 180.0
93.033638 164.0
93.052834 96.0
93.08548 124.0
93.21418 188.0
93.229553 76.0
93.331444 92.0
93.408371 164.0
93.487259 48.0
93.598907 136.0
93.672096 96.0
93.693291 128.0
93.727966 208.0
93.789642 212.0
93.851334 256.0
93.872543 140.0
93.926552 48.0
93.95163 140.0
93.994072 300.0
94.021095 80.0
94.247032 104.0
94.415215 120.0
94.6455 88.0
94.678421 168.0
94.711349 144.0
94.82373 156.0
94.845047 132.0
94.868309 172.0
94.911392 180.0
94.932297 212.0
95.00988 164.0
95.05645 176.0
95.252548 40.0
95.301117 172.0
95.376907 108.0
95.513023 156.0
95.569443 116.0
95.66481 240.0
95.810875 88.0
95.83815 40.0
95.904411 52.0
95.955093 48.0
96.081871 168.0
96.280968 140.0
96.353249 224.0
96.439232 184.0
96.456825 148.0
96.535027 184.0
96.578056 136.0
96.605446 140.0
96.687622 136.0
96.734604 80.0
96.816841 184.0
96.908905 120.0
97.073563 152.0
97.090012 240.0
97.157906 124.0
97.173599 68.0
97.419006 144.0
97.566406 152.0
97.589996 152.0
97.674561 164.0
97.727684 184.0
97.747093 208.0
97.843803 152.0
97.875313 40.0
98.025017 172.0
98.096039 10484.0
98.135406 204.0
98.25769 36.0
98.30899 116.0
98.346489 60.0
98.41954 192.0
98.518288 196.0
98.540024 100.0
98.593376 180.0
98.642792 144.0
98.681114 104.0
98.771194 60.0
98.782425 144.0
99.000526 164.0
99.025108 320.0
99.099617 1280.0
99.238708 44.0
99.310104 20.0
99.337875 112.0
99.38549 108.0
99.424042 84.0
99.4748 152.0
99.492668 160.0
99.83287 148.0
99.916275 192.0
99.963745 220.0
100.083176 48.0
100.160851 128.0
100.182762 208.0
100.250511 140.0
100.346184 244.0
100.431938 164.0
100.497772 272.0
100.577606 148.0
100.607544 192.0
100.645485 168.0
100.669441 40.0
100.719376 172.0
100.773315 124.0
100.94722 100.0
100.995224 180.0
101.123276 104.0
101.216736 156.0
101.373619 124.0
101.459808 80.0
101.525978 100.0
101.60421 208.0
101.643684 172.0
101.674446 144.0
101.690498 148.0
101.871223 284.0
101.9114 136.0
101.937523 40.0
102.088295 156.0
102.158691 152.0
102.251259 80.0
102.283463 160.0
102.410316 124.0
102.441612 232.0
102.480087 152.0
102.511055 172.0
102.525162 80.0
102.559425 184.0
102.585625 88.0
102.724777 252.0
102.793373 172.0
102.819168 184.0
102.878143 48.0
102.940742 192.0
102.973053 116.0
103.118523 160.0
103.144798 172.0
103.221626 124.0
103.274216 304.0
103.326813 140.0
103.379417 156.0
103.459496 220.0
103.701439 144.0
103.752121 160.0
103.83931 224.0
103.863655 160.0
103.926544 52.0
104.149864 164.0
104.251251 208.0
104.426292 84.0
104.599251 160.0
104.619606 164.0
104.71328 112.0
104.747902 108.0
104.970062 152.0
105.288422 216.0
105.319061 160.0
105.439606 200.0
105.486618 172.0
105.507065 68.0
105.556137 144.0
105.605217 172.0
105.622887 220.0
105.661133 216.0
105.701378 144.0
105.734116 92.0
105.785294 44.0
105.902008 168.0
106.055687 144.0
106.080284 172.0
106.129486 160.0
106.23819 248.0
106.3256 160.0
106.361313 164.0
106.375687 164.0
106.488617 164.0
106.507111 168.0
106.566681 40.0
106.677666 128.0
106.698227 204.0
106.724953 184.0
106.945084 128.0
107.008896 148.0
107.350952 140.0
107.433891 152.0
107.466469 172.0
107.515991 124.0
107.589249 168.0
107.627472 332.0
107.726608 168.0
107.805122 180.0
107.878403 176.0
107.929153 164.0
107.943626 132.0
107.978783 184.0
108.07708 248.0
108.093025 164.0
108.140686 160.0
108.193993 120.0
108.388687 144.0
108.409409 128.0
108.510979 176.0
108.527565 108.0
108.652321 212.0
108.710106 224.0
108.737091 96.0
108.826355 100.0
108.955124 212.0
109.038246 148.0
109.06942 260.0
109.243187 164.0
109.304436 96.0
109.364792 44.0
109.47097 196.0
109.516792 136.0
109.664726 168.0
109.846138 232.0
109.867004 136.0
109.96508 172.0
110.00013 232.0
110.09687 2812.0
110.334824 180.0
110.428925 152.0
110.596313 144.0
110.659111 164.0
110.887451 144.0
111.061478 52.0
111.084129 180.0
111.100006 176.0
111.11602 52.0
111.185272 68.0
111.218857 152.0
111.271339 188.0
111.311234 76.0
111.38308 152.0
111.519218 232.0
111.551346 156.0
111.58744 92.0
111.60331 164.0
111.655777 156.0
111.803154 72.0
111.842834 164.0
111.864197 260.0
111.878929 144.0
111.921906 260.0
111.980652 144.0
112.032555 220.0
112.06427 384.0
112.112213 91048.0
112.14743 208.0
112.200134 52.0
112.222679 52.0
112.236923 44.0
112.258202 40.0
112.275101 252.0
112.298019 208.0
112.331718 56.0
112.367882 44.0
112.395317 88.0
112.410599 116.0
112.431572 244.0
112.457619 764.0
112.511215 92.0
112.514778 120.0
112.551216 84.0
112.583191 36.0
112.611313 64.0
112.638107 60.0
112.652893 84.0
112.701492 52.0
112.738548 284.0
112.775459 52.0
112.848236 168.0
112.885086 248.0
112.898712 180.0
112.92981 28.0
112.950958 196.0
112.977196 120.0
113.029243 164.0
113.052521 144.0
113.080032 56.0
113.115425 8552.0
113.198593 60.0
113.240631 40.0
113.254784 60.0
113.27272 44.0
113.296234 40.0
113.353233 76.0
113.389259 136.0
113.442253 60.0
113.52256 96.0
113.577232 104.0
113.614029 64.0
113.642822 184.0
113.667076 80.0
113.705276 92.0
113.764969 32.0
113.820663 136.0
113.871758 212.0
113.881027 36.0
113.888382 176.0
113.915489 112.0
113.973915 128.0
114.037567 204.0
114.06424 176.0
114.07766 128.0
114.118797 652.0
114.147156 64.0
114.183311 96.0
114.29393 124.0
114.466354 56.0
114.60907 260.0
114.62825 40.0
114.65947 148.0
114.773201 80.0
114.79879 120.0
114.858513 44.0
114.903313 76.0
114.997208 100.0
115.02282 52.0
115.142075 188.0
115.208611 156.0
115.268433 156.0
115.458702 116.0
115.781868 216.0
116.060448 212.0
116.438148 152.0
116.498291 140.0
116.663765 68.0
116.846573 72.0
116.928345 220.0
116.97139 136.0
117.038132 124.0
117.070435 72.0
117.128586 88.0
117.171677 64.0
117.216919 68.0
117.30529 136.0
117.451927 92.0
117.467026 80.0
117.812431 124.0
117.952896 96.0
118.107864 96.0
118.195122 48.0
118.217819 148.0
118.251396 64.0
118.320908 108.0
118.415947 132.0
118.4506 84.0
118.665154 44.0
118.699844 136.0
119.253456 80.0
119.312149 172.0
119.806175 60.0
119.902054 180.0
119.948769 172.0
119.96962 176.0
120.017586 236.0
120.041573 156.0
120.264114 156.0
120.331787 204.0
120.353622 132.0
120.451897 76.0
120.470833 48.0
120.981117 116.0
121.243965 68.0
121.298759 144.0
121.325066 56.0
121.355759 116.0
121.533432 144.0
121.60585 148.0
121.860588 172.0
121.933105 84.0
121.950691 176.0
121.966072 232.0
122.023232 128.0
122.058411 112.0
122.331238 60.0
122.395088 200.0
122.417107 184.0
122.558083 236.0
122.608772 212.0
122.639626 76.0
122.677101 132.0
122.787354 92.0
122.802788 108.0
122.885376 184.0
122.904274 176.0
122.921928 64.0
122.93737 136.0
123.094109 180.0
123.173622 124.0
123.45211 220.0
123.684425 184.0
124.140083 200.0
124.233994 220.0
124.773666 188.0
124.940468 44.0
125.047279 92.0
125.245445 104.0
125.363533 172.0
125.544106 52.0
125.695801 212.0
125.747131 136.0
125.847588 32.0
126.744545 148.0
126.992859 460.0
127.049469 140.0
127.12738 172.0
127.498558 124.0
127.678413 196.0
127.709908 144.0
127.80439 120.0
127.930428 100.0
127.999725 104.0
128.005051 372.0
128.121857 204.0
128.180435 168.0
128.457764 152.0
128.690918 192.0
128.717316 160.0
128.907074 96.0
128.988434 180.0
129.072083 56.0
129.10257 92.0
129.13826 18608.0
129.165848 204.0
129.237213 56.0
129.309631 48.0
129.382065 128.0
129.418289 60.0
129.440933 44.0
129.647797 76.0
129.771759 32.0
129.926147 56.0
129.950943 176.0
129.982712 40.0
129.998596 264.0
130.043991 64.0
130.143219 1912.0
130.166229 128.0
130.169266 156.0
130.275604 144.0
130.316498 56.0
130.368759 136.0
130.411942 72.0
130.436951 176.0
130.530167 60.0
130.864655 72.0
130.918945 204.0
131.014969 96.0
131.094727 172.0
131.148117 168.0
131.372894 64.0
131.418533 96.0
131.683334 228.0
131.891266 172.0
132.067337 192.0
132.110794 68.0
132.174866 100.0
132.403778 80.0
132.561859 104.0
132.699387 132.0
132.823227 148.0
132.92189 164.0
132.959793 148.0
132.976959 192.0
133.036652 228.0
133.412994 196.0
133.60199 132.0
133.747269 152.0
134.014114 180.0
134.108597 164.0
134.410721 148.0
134.563065 128.0
134.627716 80.0
134.740906 200.0
134.93924 108.0
134.956589 368.0
135.041412 36.0
135.057602 64.0
135.880005 120.0
136.077286 176.0
136.10051 88.0
136.21431 52.0
136.602524 112.0
136.646713 140.0
136.79567 96.0
136.930725 144.0
136.967987 144.0
137.037872 108.0
137.082153 120.0
137.107788 112.0
137.385269 144.0
137.455261 76.0
138.273209 128.0
138.826111 168.0
139.023178 76.0
139.048981 104.0
139.572861 132.0
139.725754 40.0
139.845764 96.0
139.965057 320.0
140.067108 188.0
140.189621 96.0
140.359344 156.0
140.392365 44.0
140.465485 84.0
140.923492 152.0
140.983582 204.0
141.174057 120.0
141.339645 124.0
141.796707 120.0
141.960297 124.0
142.022522 184.0
142.085999 224.0
142.263992 152.0
142.544266 156.0
142.87001 164.0
142.939011 140.0
142.986801 376.0
143.210419 156.0
143.229477 92.0
143.627548 208.0
143.725372 212.0
144.026184 132.0
144.050064 244.0
144.226898 148.0
144.659866 104.0
144.719727 132.0
144.746063 144.0
144.839462 148.0
144.861023 160.0
144.899353 120.0
145.002396 200.0
145.100677 192.0
145.345337 204.0
145.386124 124.0
146.056473 124.0
146.157516 164.0
146.405472 176.0
146.460861 108.0
146.699432 148.0
146.824814 124.0
146.938187 124.0
146.964722 164.0
147.314804 196.0
147.348633 228.0
147.549225 228.0
147.975052 92.0
148.610077 184.0
148.833389 212.0
148.932953 160.0
149.187332 224.0
149.543259 128.0
149.913452 80.0
149.996323 176.0
150.232864 136.0
150.249649 100.0
150.645447 32.0
150.88739 148.0
150.980316 200.0
151.565384 136.0
151.906174 172.0
152.259628 104.0
152.463425 168.0
152.569244 104.0
152.674973 200.0
153.085953 116.0
153.438324 100.0
153.784088 220.0
153.897232 160.0
154.097305 96.0
154.48793 216.0
154.505249 160.0
154.61412 120.0
154.987656 668.0
155.114456 136.0
155.201233 176.0
155.397186 184.0
155.637939 124.0
155.781998 152.0
155.994751 300.0
156.110092 56.0
156.353897 216.0
156.470886 104.0
156.493301 172.0
156.966736 112.0
156.986679 224.0
157.521515 156.0
157.990799 160.0
158.153458 152.0
158.251083 192.0
158.446442 108.0
158.536652 60.0
158.649445 60.0
158.794891 152.0
158.900253 140.0
158.968002 172.0
159.354691 196.0
159.523071 152.0
159.58342 196.0
159.616104 124.0
159.792175 108.0
159.865143 180.0
159.902893 128.0
159.968552 236.0
159.985565 124.0
160.071579 136.0
160.121948 144.0
160.210098 124.0
160.555435 136.0
160.661377 128.0
160.709305 40.0
160.782486 188.0
160.946579 108.0
161.664505 104.0
161.960724 128.0
162.607285 148.0
162.647903 208.0
162.891678 168.0
162.973068 604.0
163.425568 252.0
163.481552 48.0
163.924667 60.0
163.996017 184.0
164.738586 260.0
164.914902 108.0
164.966721 272.0
165.070862 176.0
165.290848 184.0
165.666611 176.0
165.692841 192.0
165.810715 140.0
165.836349 124.0
165.864548 120.0
166.53688 184.0
166.667847 68.0
166.762939 180.0
167.074081 140.0
167.120392 116.0
167.151276 108.0
167.179581 136.0
167.413849 168.0
167.491119 112.0
167.509155 172.0
168.177002 76.0
168.218307 92.0
168.430054 176.0
168.965515 292.0
169.014343 156.0
169.032455 92.0
169.077408 248.0
169.273193 168.0
169.50116 92.0
169.967911 96.0
170.035385 108.0
170.30542 164.0
170.476883 136.0
170.544464 236.0
170.960464 224.0
171.0569 140.0
171.077728 200.0
171.184479 156.0
171.348587 148.0
171.901367 168.0
171.977051 204.0
172.08931 144.0
172.282578 208.0
172.475967 116.0
172.604065 176.0
172.800247 164.0
172.954483 180.0
172.983444 108.0
173.109116 160.0
173.224365 124.0
173.287231 72.0
173.405151 164.0
173.767044 44.0
173.91925 124.0
174.155563 148.0
174.444626 92.0
174.622803 84.0
174.647812 236.0
174.934631 192.0
174.96814 160.0
175.12088 160.0
175.271042 132.0
175.445007 144.0
175.787888 272.0
175.941574 2952.0
176.017563 48.0
176.125137 156.0
176.228867 220.0
176.294937 36.0
176.321365 64.0
176.440308 104.0
176.77623 164.0
176.944763 324.0
177.009186 176.0
177.938644 1492.0
178.067352 176.0
178.266602 112.0
178.51384 132.0
178.779861 216.0
178.912949 176.0
178.938263 204.0
178.943329 224.0
178.984833 172.0
179.17395 172.0
179.603149 156.0
179.942062 60.0
180.038193 60.0
180.222519 168.0
180.537949 68.0
181.003586 156.0
181.445694 116.0
181.571716 148.0
181.644699 172.0
181.673645 200.0
181.731796 172.0
181.813187 124.0
181.993042 60.0
182.379898 76.0
182.82637 108.0
183.114441 164.0
183.348846 108.0
183.62384 72.0
183.747925 60.0
183.987244 456.0
184.444672 164.0
184.623123 116.0
184.777313 156.0
185.175247 64.0
185.55191 96.0
185.61969 240.0
185.877396 104.0
185.991379 172.0
186.275024 204.0
186.94809 112.0
186.97258 188.0
186.999802 120.0
187.048798 232.0
187.203995 120.0
187.378326 116.0
187.577271 200.0
187.87178 180.0
188.79776 180.0
188.868866 156.0
188.943863 288.0
189.208206 92.0
189.287613 168.0
189.353333 140.0
189.391678 152.0
189.550583 180.0
189.687622 168.0
189.758896 136.0
189.791809 164.0
189.827454 116.0
189.954956 148.0
190.145691 48.0
190.266464 60.0
190.368073 176.0
190.755478 152.0
190.917694 152.0
190.963409 292.0
190.997467 60.0
191.033218 64.0
191.104752 32.0
191.696777 148.0
191.798752 104.0
191.972458 108.0
192.151749 200.0
192.229004 88.0
192.463654 172.0
192.96312 296.0
193.099258 100.0
193.150467 140.0
193.185013 172.0
193.298447 160.0
193.356567 120.0
193.458984 116.0
193.533493 140.0
193.625122 60.0
193.799637 216.0
194.61235 140.0
194.637329 52.0
194.876221 88.0
195.240372 152.0
195.270966 96.0
195.407272 196.0
195.549194 260.0
196.198242 84.0
196.3293 132.0
196.429703 48.0
196.634857 144.0
196.893051 224.0
196.948898 212.0
197.356934 216.0
197.902557 164.0
197.952957 180.0
198.160233 156.0
198.261108 136.0
198.392853 176.0
198.440521 156.0
198.577927 56.0
198.84166 148.0
199.097153 168.0
199.172989 180.0
199.521454 128.0
199.543945 76.0
199.577682 104.0
200.97197 104.0
201.036407 124.0
201.774109 180.0
201.915497 108.0
201.997406 196.0
202.111084 124.0
202.481537 180.0
202.657166 100.0
202.954788 188.0
203.219559 208.0
203.258301 260.0
203.283844 88.0
203.738144 148.0
203.79213 196.0
203.82338 172.0
203.884201 188.0
203.937225 25512.0
203.984818 212.0
204.017761 72.0
204.142334 116.0
204.200104 140.0
204.306747 192.0
204.466095 88.0
204.517319 180.0
204.599869 32.0
204.64827 80.0
204.777496 100.0
204.861877 104.0
204.939407 1948.0
204.988983 232.0
205.055649 84.0
205.112137 112.0
205.163971 64.0
205.201035 228.0
205.223846 124.0
205.303284 56.0
205.380692 208.0
205.403519 72.0
205.426331 284.0
205.834473 144.0
205.933929 11712.0
205.980133 136.0
206.027206 84.0
206.068695 80.0
206.137283 52.0
206.174423 48.0
206.208725 64.0
206.314484 104.0
206.44101 72.0
206.491776 112.0
206.573242 108.0
206.746414 48.0
206.797928 144.0
206.937149 564.0
206.988892 136.0
207.064194 152.0
207.118622 68.0
207.290527 72.0
207.494034 52.0
207.602997 124.0
207.646011 40.0
207.800919 92.0
207.929214 356.0
208.021912 44.0
208.214279 164.0
208.541824 104.0
208.587814 48.0
208.607941 144.0
208.653931 48.0
208.970306 92.0
209.258133 92.0
210.027588 92.0
210.264191 108.0
211.168518 136.0
211.397064 180.0
211.625748 136.0
211.709717 140.0
212.631653 44.0
213.299713 220.0
213.619598 48.0
214.684875 244.0
214.741058 160.0
214.770218 88.0
214.919006 56.0
214.980286 128.0
216.157974 100.0
216.222351 44.0
216.465347 52.0
216.649872 72.0
216.720184 92.0
216.957596 184.0
217.033829 56.0
217.318344 96.0
217.410477 180.0
217.459198 88.0
217.606277 160.0
217.87912 44.0
217.955521 300.0
217.975281 160.0
218.049561 208.0
218.175949 164.0
218.367096 192.0
218.3965 152.0
218.426239 220.0
218.478867 108.0
218.714294 80.0
218.791718 132.0
218.846771 168.0
218.879166 168.0
218.960464 53152.0
219.039352 164.0
219.059479 164.0
219.13353 56.0
219.170776 64.0
219.205841 40.0
219.235611 92.0
219.287354 100.0
219.350723 72.0
219.533356 88.0
219.602463 148.0
219.667191 160.0
219.695587 72.0
219.725098 72.0
219.798859 36.0
219.869675 68.0
219.912369 112.0
219.963882 3664.0
220.030563 96.0
220.098129 176.0
220.218079 56.0
220.245743 76.0
220.298096 44.0
220.318512 188.0
220.41011 88.0
220.436691 48.0
220.498764 76.0
220.543091 52.0
220.590393 72.0
220.664307 56.0
220.794418 56.0
220.82399 104.0
220.877777 256.0
220.918564 320.0
220.957474 23720.0
221.035599 68.0
221.07843 80.0
221.147339 60.0
221.226028 60.0
221.255341 244.0
221.324127 112.0
221.368546 148.0
221.393402 112.0
221.439621 48.0
221.481094 52.0
221.575882 80.0
221.634064 120.0
221.662994 132.0
221.694412 96.0
221.744797 144.0
221.789261 68.0
221.851501 156.0
221.948349 6800.0
222.032379 52.0
222.159927 56.0
222.209137 68.0
222.237076 40.0
222.272675 28.0
222.418106 60.0
222.551697 36.0
222.584366 56.0
222.664551 40.0
222.696426 136.0
222.807129 36.0
222.951294 820.0
223.056763 88.0
223.125137 88.0
223.187576 48.0
223.229202 44.0
223.261917 100.0
223.373779 184.0
223.437408 108.0
223.520721 224.0
223.565369 72.0
223.59993 124.0
223.627869 76.0
223.675491 104.0
223.696335 104.0
223.75885 64.0
223.791595 72.0
223.942856 3728.0
223.991135 184.0
224.014969 108.0
224.052765 156.0
224.152023 132.0
224.223541 36.0
224.263885 120.0
224.559738 132.0
224.778244 72.0
224.852844 52.0
224.948593 344.0
225.088699 92.0
225.172318 84.0
225.465103 100.0
225.545807 84.0
225.943542 132.0
226.120087 200.0
226.515335 112.0
228.382416 60.0
229.020538 140.0
229.312805 28.0
229.909973 148.0
229.967316 140.0
230.628799 100.0
231.00679 128.0
231.397186 136.0
231.966751 36.0
232.685745 96.0
232.773804 88.0
234.002243 176.0
234.440887 120.0
234.983658 84.0
235.017212 136.0
235.166748 128.0
235.980225 280.0
236.395355 88.0
237.501389 60.0
237.973068 160.0
238.563889 28.0
238.868332 132.0
238.994461 40.0
240.047958 208.0
240.733032 60.0
241.156296 84.0
242.732117 60.0
243.296829 100.0
244.191757 48.0
245.974075 132.0
247.236816 80.0
247.290024 204.0
249.677643 160.0
250.001678 172.0
250.121277 140.0
250.269257 52.0
250.477112 40.0
250.990829 124.0
251.451416 44.0
251.986267 108.0
252.377029 124.0
255.797134 40.0
255.889465 152.0
256.989075 88.0
257.515808 156.0
258.094269 60.0
258.987152 128.0
261.820007 160.0
262.95163 92.0
264.011322 168.0
264.351013 76.0
266.387207 112.0
268.483368 172.0
272.168152 180.0
274.135284 184.0
274.90036 144.0
275.009277 104.0
276.437012 92.0
277.086029 68.0
278.233551 156.0
283.346375 76.0
284.929962 96.0
285.387054 104.0
285.992615 108.0
286.031128 144.0
286.477509 108.0
287.006653 84.0
288.98938 88.0
289.036774 200.0
289.178894 168.0
290.031586 124.0
290.534363 96.0
291.158936 132.0
292.035797 156.0
292.692627 52.0
295.221313 96.0
296.152222 172.0
298.34845 128.0
299.435791 60.0
299.94577 56.0
301.416016 48.0
301.98645 224.0
302.034576 260.0
302.100616 44.0
302.245911 88.0
302.779053 80.0
303.049225 44.0
303.295288 48.0
304.028564 328.0
304.277039 128.0
305.04483 136.0
305.14563 168.0
305.18042 84.0
307.189972 144.0
310.31308 104.0
310.912903 88.0
312.803925 52.0
314.870178 152.0
317.070801 72.0
318.063934 116.0
318.340851 92.0
319.062164 184.0
321.598511 164.0
322.277069 48.0
324.144928 132.0
324.69342 76.0
324.725708 56.0
325.971466 52.0
326.953247 140.0
327.399658 68.0
330.062897 100.0
331.771851 48.0
332.076233 140.0
332.468292 76.0
334.055298 284.0
334.343567 60.0
339.065857 124.0
341.831238 212.0
342.346619 60.0
343.75116 132.0
344.090729 200.0
344.345551 48.0
345.080719 152.0
345.424866 96.0
345.809692 136.0
345.883728 136.0
346.081238 140.0
346.231781 136.0
346.554047 160.0
346.750458 44.0
346.983643 164.0
347.021057 152.0
347.09024 12440.0
347.240265 36.0
347.288086 32.0
347.315369 72.0
347.352875 64.0
347.380798 48.0
347.499542 40.0
347.635376 72.0
347.718475 132.0
347.803833 136.0
347.896637 48.0
347.964294 36.0
348.008026 84.0
348.094635 2148.0
348.186279 40.0
348.217682 88.0
348.312561 104.0
348.344147 64.0
348.554047 36.0
348.583771 124.0
348.687836 44.0
348.771851 60.0
348.806793 104.0
348.951782 112.0
349.02243 44.0
349.087952 5692.0
349.197205 80.0
349.241852 48.0
349.321655 176.0
349.43158 92.0
349.502258 56.0
349.58786 64.0
349.662903 72.0
349.710663 40.0
349.881897 124.0
350.088623 532.0
350.138855 136.0
350.254303 88.0
350.399597 116.0
350.468536 104.0
350.675079 112.0
350.802094 40.0
350.891571 56.0
351.760803 40.0
351.943756 72.0
352.070709 124.0
352.141693 56.0
352.429321 92.0
352.672241 108.0
353.266815 64.0
353.394012 88.0
354.255127 60.0
355.458679 60.0
355.695129 104.0
356.051819 76.0
356.26593 56.0
359.085327 64.0
359.160767 80.0
359.609772 88.0
361.170288 148.0
365.400208 52.0
367.499573 88.0
371.551392 68.0
371.92746 92.0
372.995331 72.0
374.931366 44.0
379.031586 40.0
380.889954 68.0
387.533936 64.0
390.840088 72.0
391.406921 100.0
395.861298 68.0
399.918854 60.0
405.330353 116.0
405.975769 72.0
429.288513 116.0
430.927246 76.0
431.175201 52.0
440.616364 104.0
441.314362 140.0
455.679108 40.0
463.260406 104.0
471.254211 84.0
475.320129 76.0
477.427032 36.0
479.085449 80.0
486.168976 40.0
503.140472 68.0
514.869446 84.0
517.01239 68.0
518.380005 52.0
531.031616 64.0
548.431335 40.0
551.619507 72.0
556.792419 48.0
566.17926 64.0
566.286743 96.0
585.400574 96.0
586.585815 76.0
592.602783 88.0
594.75116 44.0
611.974731 148.0
619.556091 72.0
628.60553 40.0
640.044861 84.0
661.056213 60.0
673.126587 80.0
686.181763 48.0
694.134827 48.0
695.525146 92.0
711.287415 72.0
720.735535 48.0
724.480774 104.0
733.934937 108.0
756.871643 184.0
759.579102 48.0
779.566528 56.0
783.166199 192.0
794.693787 196.0
814.441956 148.0
820.799072 108.0
823.875488 188.0
833.552979 156.0
841.577026 152.0
842.454895 72.0
843.963379 228.0
852.037231 92.0
868.300293 76.0
869.473694 168.0
871.953979 64.0
879.379211 140.0
881.375305 160.0
881.972229 128.0
882.374207 204.0
883.432861 192.0
888.225281 176.0
889.803894 124.0
901.448914 200.0
906.050232 216.0
908.526245 172.0
919.429565 172.0
925.353577 172.0
928.437927 132.0
932.998108 208.0
933.928528 152.0
939.234009 164.0
942.042053 136.0
943.209229 136.0
944.69519 184.0
950.0802 108.0
951.04364 144.0
953.697144 48.0
954.945312 168.0
957.684326 160.0
959.890686 160.0
960.340942 140.0
962.000854 128.0
969.323975 116.0
969.516052 148.0
973.47406 184.0
973.952271 64.0
980.765869 192.0
981.058838 232.0
981.969238 204.0
982.299866 144.0
983.766357 168.0
987.678223 60.0
987.759521 164.0
990.394836 56.0
990.845886 196.0
994.45166 204.0
1003.170105 124.0
1005.39032 200.0
1006.665588 188.0
1008.643127 164.0
1013.744507 160.0
1014.682617 216.0
1015.297729 188.0
1015.836853 52.0
1016.604614 236.0
1017.734558 200.0
1018.522034 152.0
1019.163696 236.0
1021.337952 164.0
1024.578247 172.0
1026.783813 188.0
1027.096313 180.0
1033.734619 188.0
1035.623291 168.0
1036.257446 92.0
1039.226074 188.0
1040.72168 208.0
1041.384155 176.0
1041.672241 136.0
1042.391846 168.0
1062.609131 132.0
1063.270996 148.0
1065.277344 188.0
1065.51123 136.0
1066.330078 136.0
1067.064575 192.0
1067.246704 60.0
1067.669312 40.0
1068.196167 196.0
1072.383179 160.0
1072.741699 204.0
1073.811035 144.0
1074.87439 184.0
1075.050659 160.0
1078.992432 208.0
1079.846069 220.0
1081.357422 172.0
1081.92041 176.0
1082.555542 176.0
1083.223633 144.0
1084.226074 180.0
1085.812744 188.0
1086.285034 164.0
1087.774658 180.0
1089.613525 164.0
1091.782715 176.0
1092.23645 144.0
1092.664062 208.0
1093.170776 184.0
1094.07251 84.0
1095.290771 160.0
1096.008911 60.0
1097.861328 224.0
1098.32959 220.0
1098.883789 164.0
1099.160889 76.0
1100.309326 64.0
1102.416504 76.0
1102.799805 136.0
1103.209717 160.0
1103.289062 116.0
1103.632812 72.0
1105.716675 176.0
1105.954956 172.0
1106.054199 216.0
1106.279297 160.0
1107.212891 200.0
1108.491455 196.0
1109.903442 188.0
1111.037598 144.0
1111.535278 144.0
1112.557373 168.0
1113.58667 196.0
1113.786011 172.0
1114.390503 180.0
1116.078857 144.0
1116.650757 188.0
1116.703979 236.0
1116.823608 164.0
1116.98999 464.0
1117.216187 212.0
1117.874878 240.0
1119.365967 208.0
1119.559204 104.0
1120.138672 196.0
1121.424683 192.0
1123.231689 108.0
1125.133667 124.0
1125.574341 164.0
1126.689697 160.0
1127.832397 196.0
1128.541138 260.0
1130.146362 180.0
1130.300293 152.0
1132.355591 152.0
1136.43811 148.0
1136.505249 208.0
1136.619263 216.0
1136.880981 48.0
1137.746948 112.0
1138.372925 220.0
1139.103516 132.0
1139.448853 144.0
1140.487671 244.0
1141.482788 104.0
1141.81897 104.0
1142.619507 184.0
1145.891602 164.0
1146.32959 388.0
1147.751953 208.0
1147.832886 104.0
1147.94751 128.0
1148.419678 212.0
1149.465332 144.0
1150.288696 104.0
1150.477783 116.0
1150.943604 200.0
1151.612183 168.0
1151.875732 152.0
1152.787842 204.0
1153.004028 160.0
1154.82959 212.0
1155.370728 172.0
1155.722534 196.0
1156.270752 60.0
1156.338379 112.0
1156.764893 144.0
1157.712769 184.0
1158.4104 132.0
1159.535278 144.0
1159.636841 128.0
1159.996094 40.0
1160.043579 196.0
1161.067505 168.0
1161.372681 228.0
1162.858643 220.0
1162.926514 228.0
1163.449219 132.0
1165.969238 128.0
1166.295532 216.0
1166.458618 256.0
1166.669434 240.0
1167.274536 148.0
1169.213379 76.0
1169.444824 100.0
1170.643066 152.0
1172.141724 100.0
1172.4552 180.0
1173.041382 164.0
1175.913086 236.0
1176.315796 180.0
1176.664062 136.0
1176.739136 168.0
1177.661011 132.0
1177.824951 164.0
1178.849854 232.0
1179.341919 172.0
1181.05127 160.0
1181.290771 224.0
1181.530151 196.0
1181.920166 144.0
1182.002319 156.0
1182.570312 60.0
1183.556152 208.0
1184.378052 164.0
1185.981445 168.0
1186.776611 184.0
1188.004272 148.0
1190.317383 108.0
1190.907959 32.0
1190.963013 168.0
1192.275269 204.0
1193.68457 180.0
1195.135986 204.0
1195.851685 144.0
1196.657104 56.0
1197.008301 192.0
1197.449097 144.0
1198.351562 220.0
1200.819458 48.0
1200.909058 80.0
1202.268311 28.0
1202.45459 156.0
1202.986084 88.0
1203.24707 164.0
1203.793945 208.0
1205.590088 184.0
1205.894165 200.0
1206.440308 128.0
1208.812744 96.0
1209.331787 164.0
1209.414917 152.0
1210.204102 188.0
1210.536499 184.0
1211.319092 176.0
1212.871338 160.0
1214.070801 192.0
1214.459229 156.0
1214.833862 204.0
1214.979492 172.0
1215.16687 144.0
1215.22229 160.0
1216.062012 36.0
1216.985352 168.0
1217.11731 192.0
1217.422852 44.0
1219.500122 168.0
1219.799072 152.0
1220.946289 144.0
1221.920166 112.0
1222.015869 332.0
1222.128906 68.0
1223.333008 168.0
1223.702026 172.0
1224.272949 148.0
1225.324829 140.0
1225.93103 160.0
1226.237671 248.0
1226.349243 152.0
1227.255493 160.0
1227.394897 200.0
1228.636475 196.0
1229.24353 172.0
1229.690186 216.0
1230.201904 184.0
1230.856079 144.0
1230.939819 168.0
1231.561401 196.0
1233.944458 136.0
1238.052002 136.0
1238.451172 176.0
1238.927368 204.0
1239.29187 128.0
1239.831421 116.0
1239.957642 120.0
1240.518311 192.0
1240.749634 84.0
1241.289551 164.0
1242.292603 188.0
1243.485474 168.0
1243.618774 132.0
1244.117188 92.0
1244.756104 180.0
1244.86853 80.0
1245.627075 80.0
1246.048584 148.0
1246.456177 148.0
1246.758301 72.0
1247.074585 216.0
1249.085571 136.0
1252.830811 156.0
1254.169678 132.0
1254.345947 96.0
1254.493896 204.0
1254.775879 184.0
1254.832275 144.0
1254.94519 72.0
1255.83374 196.0
1256.003052 176.0
1257.061279 160.0
1257.435303 68.0
1257.943604 236.0
1258.741455 116.0
1258.812012 56.0
1259.016846 188.0
1259.143921 192.0
1263.463013 116.0
1264.050293 80.0
1264.489014 104.0
1264.708496 180.0
1265.359741 160.0
1265.805786 220.0
1265.855347 216.0
1265.98291 128.0
1267.102051 216.0
1267.860229 176.0
1268.795898 144.0
1269.12207 124.0
1269.306396 164.0
1269.448242 160.0
1269.739014 128.0
1270.959229 128.0
1271.304565 212.0
1272.776367 172.0
1273.578857 148.0
1273.841675 240.0
1274.246704 160.0
1274.495361 156.0
1275.333984 172.0
1275.689331 152.0
1276.713257 108.0
1277.652222 52.0
1278.022217 176.0
1278.577271 204.0
1279.944092 244.0
1280.442627 220.0
1280.998169 132.0
1281.59668 128.0
1281.796143 208.0
1282.590698 124.0
1282.665649 32.0
1283.493164 180.0
1284.427002 92.0
1285.857788 248.0
1286.253784 156.0
1286.682129 208.0
1287.0177 212.0
1287.710449 100.0
1290.812012 152.0
1291.813354 52.0
1293.40918 164.0
1293.580933 148.0
1294.296997 188.0
1294.361328 96.0
1294.819702 208.0
1294.90564 232.0
1295.220825 228.0
1296.094849 140.0
1296.503296 192.0
1297.492554 140.0
1297.714844 124.0
1297.851074 124.0
1299.341553 184.0
1299.708862 184.0
1300.082031 220.0
1300.340332 172.0
1300.788696 236.0
1301.072632 148.0
1301.675659 168.0
1302.4729 84.0
1302.817749 184.0
1303.687134 156.0
1303.953125 144.0
1304.61438 184.0
1305.182373 180.0
1305.434082 144.0
1306.081421 192.0
1308.038696 160.0
1308.916992 156.0
1310.436523 144.0
1310.559326 228.0
1310.847656 176.0
1311.907104 160.0
1312.036865 180.0
1312.447876 252.0
1312.995972 148.0
1313.847168 60.0
1313.969727 144.0
1314.554199 192.0
1315.369873 208.0
1315.521362 92.0
1315.571899 164.0
1316.452881 144.0
1316.561157 180.0
1316.711426 216.0
1318.121582 144.0
1318.584106 168.0
1318.923828 188.0
1319.386475 172.0
1320.22522 180.0
1321.975952 148.0
1322.7771 152.0
1323.459961 184.0
1323.916138 184.0
1323.966797 56.0
1324.495605 176.0
1324.828857 196.0
1325.082397 192.0
1326.03894 136.0
1326.35791 192.0
1326.437622 192.0
1328.018311 156.0
1329.324219 140.0
1329.375 128.0
1329.852905 200.0
1331.088257 132.0
1331.879883 168.0
1332.976929 120.0
1334.183594 156.0
1336.183594 136.0
1336.336304 160.0
1337.304199 172.0
1340.384888 120.0
1342.23645 144.0
1342.353027 100.0
1343.16272 68.0
1343.30127 236.0
1343.417969 124.0
1344.016235 68.0
1344.154907 196.0
1344.782593 128.0
1345.963135 176.0
1346.155029 40.0
1346.746704 204.0
1346.863525 212.0
1347.046143 228.0
1347.126465 212.0
1347.411133 196.0
1348.375977 148.0
1348.661011 172.0
1350.591431 168.0
1351.023071 228.0
1352.05481 92.0
1352.845337 160.0
1353.335815 228.0
1353.460327 132.0
1353.731323 136.0
1354.082764 188.0
1354.412476 152.0
1354.529663 160.0
1355.291626 184.0
1355.865356 172.0
1356.10498 132.0
1356.464233 116.0
1357.659302 188.0
1357.864746 168.0
1358.671631 64.0
1359.075195 60.0
1359.309937 196.0
1361.035034 228.0
1361.278564 208.0
1361.402222 160.0
1362.246826 132.0
1362.437866 48.0
1363.010986 156.0
1363.069702 48.0
1363.694458 188.0
1364.951538 200.0
1365.297241 72.0
1365.444336 192.0
1366.606689 168.0
1367.3573 160.0
1368.468872 152.0
1368.976929 44.0
1369.168335 84.0
1369.552124 184.0
1369.765015 236.0
1369.882935 196.0
1370.221802 152.0
1370.899658 104.0
1371.039673 140.0
1371.268188 128.0
1371.607178 160.0
1372.02002 52.0
1372.101196 156.0
1372.742676 196.0
1373.384277 160.0
1374.092529 56.0
1375.169922 152.0
1376.609619 240.0
1376.816406 48.0
1376.868042 212.0
1377.10437 68.0
1377.421997 180.0
1377.599365 188.0
1378.485962 136.0
1378.700317 200.0
1379.121582 164.0
1380.112183 176.0
1380.356201 208.0
1380.711182 172.0
1380.851685 104.0
1381.377441 176.0
1382.605225 144.0
1383.249146 192.0
1383.700684 168.0
1384.374512 216.0
1384.574463 52.0
1384.641235 184.0
1384.9375 124.0
1385.792725 208.0
1386.024902 216.0
1388.072388 296.0
1388.458008 48.0
1389.103394 156.0
1389.274048 236.0
1389.44458 36.0
1390.394409 204.0
1390.602295 204.0
1391.330322 168.0
1391.537598 148.0
1391.901489 136.0
1392.104736 228.0
1392.926392 192.0
1395.319336 112.0
1396.613403 196.0
1397.595337 160.0
1397.915405 240.0
1398.160889 200.0
1398.421387 160.0
1398.480957 212.0
1399.381714 156.0
1400.342407 192.0
1400.483887 208.0
1400.811646 152.0
1402.316895 160.0
1402.406372 164.0
1402.622437 148.0
1402.756714 140.0
1402.950439 160.0
1403.144287 196.0
1403.442627 116.0
1403.509644 212.0
1403.673706 36.0
1404.098877 204.0
1404.248047 184.0
1404.859619 160.0
1405.68042 188.0
1406.76416 160.0
1407.262817 168.0
1407.875244 152.0
1408.607178 192.0
1409.959595 124.0
1410.61731 168.0
1411.200562 160.0
1411.851074 180.0
1412.913208 172.0
1413.369629 172.0
1413.856079 212.0
1414.687012 180.0
1415.023804 196.0
1415.600464 224.0
1416.072266 180.0
1416.207031 140.0
1416.611572 188.0
1416.664062 156.0
1417.106079 160.0
1417.248413 140.0
1418.035278 176.0
1418.567505 148.0
1419.332031 196.0
1421.186157 184.0
1422.355713 180.0
1422.520874 148.0
1422.881226 160.0
1423.72229 160.0
1424.045166 188.0
1424.623657 212.0
1424.751343 220.0
1424.96167 180.0
1425.795776 164.0
1425.983765 132.0
1426.47229 84.0
1426.991089 180.0
1427.675293 192.0
1427.968628 116.0
1428.322144 208.0
1428.532837 196.0
1429.104614 84.0
1430.240967 108.0
1430.301147 160.0
1430.75293 160.0
1430.805542 84.0
1431.694092 136.0
1432.221313 180.0
1432.364502 44.0
1433.592651 120.0
1434.00708 204.0
1434.225708 168.0
1435.190674 164.0
1435.462158 156.0
1436.269165 180.0
1436.510498 148.0
1436.842529 108.0
1437.710205 124.0
1438.661377 156.0
1439.053955 224.0
1439.58252 196.0
1439.650513 80.0
1439.831665 164.0
1440.224487 176.0
1440.949707 104.0
1441.531494 148.0
1444.328979 168.0
1446.132935 168.0
1446.478027 168.0
1446.682373 172.0
1447.61377 156.0
1448.037842 124.0
1448.63623 116.0
1448.802856 148.0
1449.522705 140.0
1450.780884 196.0
1452.494751 160.0
1452.669189 184.0
1452.813354 148.0
1453.625244 208.0
1455.295166 84.0
1455.674927 152.0
1456.259644 196.0
1457.171265 160.0
1457.710815 100.0
1458.045166 56.0
1458.15918 256.0
1458.410034 172.0
1458.516357 200.0
1459.892578 168.0
1460.021851 136.0
1460.683594 228.0
1461.086792 64.0
1461.147583 228.0
1461.733521 236.0
1462.015137 164.0
1462.372803 220.0
1462.707764 156.0
1463.080811 192.0
1463.758423 124.0
1464.649536 144.0
1465.205566 152.0
1465.27417 140.0
1465.403687 188.0
1465.662842 152.0
1465.845703 160.0
1465.923218 160.0
1466.264771 56.0
1466.341064 156.0
1466.645874 172.0
1466.744995 156.0
1467.431152 128.0
1467.484497 60.0
1468.178467 232.0
1468.483521 176.0
1469.135498 216.0
1469.254028 180.0
1469.307373 120.0
1470.742065 104.0
1471.940674 160.0
1472.162964 156.0
1472.566895 140.0
1472.657715 164.0
1473.071045 116.0
1473.196045 232.0
1473.369019 164.0
1473.827393 180.0
1474.268921 204.0
1474.637573 104.0
1474.69104 176.0
1475.108643 156.0
1475.860718 204.0
1476.135986 68.0
1476.587158 172.0
1477.482178 192.0
1478.469238 176.0
1478.568726 172.0
1479.089233 156.0
1479.150513 100.0
1479.839478 152.0
1480.475098 164.0
1481.371216 196.0
1481.692993 136.0
1481.930542 184.0
1482.40564 180.0
1482.650879 160.0
1483.271729 168.0
1483.41272 220.0
1483.762329 188.0
1483.93103 164.0
1484.306763 208.0
1484.644165 192.0
1484.766846 88.0
1485.533936 204.0
1486.446899 112.0
1486.907349 132.0
1487.289185 156.0
1487.513794 184.0
1487.752075 172.0
1488.373657 148.0
1488.619385 140.0
1489.433472 164.0
1489.65625 172.0
1490.101929 148.0
1490.175903 228.0
1490.685913 156.0
1490.785767 80.0
1490.893311 136.0
1491.09314 56.0
1491.146973 176.0
1491.685059 244.0
1492.038696 212.0
1492.109131 172.0
1492.338501 64.0
1493.015259 164.0
1493.599854 204.0
1493.653687 112.0
1494.407593 152.0
1495.601929 256.0
1495.677368 144.0
1496.555054 116.0
1496.901611 160.0
1497.194214 140.0
1497.648682 176.0
1498.665527 224.0
1499.713623 168.0
1500.289307 192.0
1500.430542 232.0
1501.417603 148.0
1501.525635 136.0
1501.940674 172.0
1502.86792 108.0
1503.022217 184.0
1503.716797 180.0
1503.824829 192.0
1505.181152 200.0
1505.307129 44.0
1505.384399 88.0
