>compound MLS001143605-01!1-ethyl-9H-pyrido[3,4-b]indole
>formula C13H12N2
>ionization [M+H]+
>parentmass 197.108383
#inchi InChI=1S/C13H12N2/c1-2-11-13-10(7-8-14-11)9-5-3-4-6-12(9)15-13/h3-8,15H,2H2,1H3
#inchikey YTQRHYCHEIXUIU
#Ion_Source LC-ESI
#Instrument qTof
#Compound_Source NIH Natural Product Library
#PI Dorrestein
#Data_Collector VVP/LMS
#Scan -1
#Precursor_MZ 197.108
#ExactMass 196.1
#Charge 1
#CAS_Number N/A
#Pubmed_ID N/A
#Smiles CCc1nccc2c3ccccc3[nH]c12
#INCHI_AUX N/A
#Library_Class 1
#SpectrumID CCMSLIB00000080311
#IonMode Positive
#UpdateWorkflowName UPDATE-SINGLE-ANNOTATED-GOLD
#LibraryQualityString Gold
#TaskID b1d8e8f6646f4e71acdff9ca3d919d08
##Scan# 1488
#SpectrumFile p2-A07_GA7_01_17984.mzXML
#LibraryName NIH_Natural_Products_Library.mgf
#MQScore -1
#Organism NIH_Natural_Products_Library
#TIC_Query 0
#RT_Query -1
#MZErrorPPM -1
#SharedPeaks 0
#MassDiff 0
#LibMZ -1
#SpecMZ 197.108
#SpecCharge 0
#internalFilename spec-00000.mgf

>collision 10
94.980675 176.0
95.017532 252.0
95.044334 148.0
95.056747 152.0
95.069923 204.0
95.109711 176.0
95.135918 120.0
95.161491 164.0
95.176109 240.0
95.246605 152.0
95.262039 140.0
95.35347 100.0
95.431229 140.0
95.477898 116.0
95.491516 164.0
95.526527 192.0
95.563492 176.0
95.586838 172.0
95.652428 212.0
95.693893 164.0
95.723106 180.0
95.742683 144.0
95.762054 152.0
95.808807 32.0
95.857513 208.0
96.003723 96.0
96.017372 208.0
96.084961 160.0
96.124672 112.0
96.189842 136.0
96.243744 168.0
96.288658 108.0
96.30233 144.0
96.329674 152.0
96.362885 136.0
96.39415 188.0
96.419212 136.0
96.441055 188.0
96.492325 68.0
96.585747 176.0
96.609222 120.0
96.622917 140.0
96.64978 132.0
96.761879 60.0
96.779495 236.0
96.801041 196.0
96.85041 228.0
96.961678 200.0
96.98716 60.0
97.032249 136.0
97.145996 172.0
97.18676 180.0
97.216873 224.0
97.23822 156.0
97.316742 172.0
97.332451 52.0
97.36882 148.0
97.391602 168.0
97.421951 196.0
97.572159 128.0
97.688187 188.0
97.772797 204.0
97.798378 160.0
97.837753 120.0
97.865318 136.0
97.934242 152.0
98.054428 80.0
98.075752 156.0
98.109619 184.0
98.133278 164.0
98.158913 188.0
98.194412 120.0
98.251656 184.0
98.275368 200.0
98.326599 136.0
98.375237 200.0
98.437149 180.0
98.495804 172.0
98.597168 132.0
98.62413 212.0
98.662399 112.0
98.71907 200.0
98.785011 156.0
98.834473 164.0
98.929276 200.0
98.986893 204.0
99.010651 140.0
99.150215 360.0
99.222679 132.0
99.286697 140.0
99.413094 152.0
99.432945 120.0
99.454536 200.0
99.498451 144.0
99.532204 140.0
99.712982 188.0
99.790504 204.0
99.840218 156.0
99.854141 128.0
99.891937 180.0
99.945648 96.0
99.968597 264.0
100.000168 148.0
100.031235 172.0
100.055122 144.0
100.188988 128.0
100.22641 120.0
100.256302 148.0
100.376678 208.0
100.409813 236.0
100.45768 248.0
100.511551 152.0
100.541489 228.0
100.573418 172.0
100.628014 144.0
100.794792 180.0
100.86705 176.0
100.925026 248.0
100.943024 172.0
100.979027 136.0
101.007027 124.0
101.037735 308.0
101.054237 88.0
101.069397 204.0
101.147095 172.0
101.197151 264.0
101.318604 404.0
101.343361 160.0
101.35939 112.0
101.37542 180.0
101.523346 244.0
101.624069 84.0
101.640121 52.0
101.68026 128.0
101.716385 136.0
101.768585 184.0
101.8228 136.0
101.879044 240.0
101.971481 160.0
101.98555 100.0
102.045967 176.0
102.067978 76.0
102.144402 140.0
102.172562 116.0
102.224876 152.0
102.307404 44.0
102.321495 172.0
102.350739 160.0
102.363571 156.0
102.381905 148.0
102.396004 220.0
102.445763 124.0
102.470535 72.0
102.520393 172.0
102.554131 120.0
102.593468 220.0
102.609596 196.0
102.688423 208.0
102.832703 208.0
102.86985 176.0
102.950012 176.0
102.958527 100.0
102.965561 168.0
102.993149 192.0
103.011032 192.0
103.029388 292.0
103.052483 724.0
103.083939 124.0
103.138512 168.0
103.235558 216.0
103.308372 72.0
103.379189 56.0
103.452049 184.0
103.494568 76.0
103.52697 104.0
103.583961 200.0
103.610016 164.0
103.65287 132.0
103.67688 236.0
103.755997 136.0
103.877609 164.0
103.930359 168.0
104.02169 180.0
104.039963 188.0
104.093369 184.0
104.226814 140.0
104.247139 184.0
104.263397 160.0
104.375206 208.0
104.427628 216.0
104.470795 188.0
104.489105 188.0
104.521049 40.0
104.544044 196.0
104.575531 196.0
104.619354 148.0
104.653969 192.0
104.719131 164.0
104.798584 180.0
104.828392 216.0
104.898445 168.0
105.033028 128.0
105.05558 216.0
105.104439 144.0
105.142975 176.0
105.177902 156.0
105.200363 156.0
105.218674 132.0
105.225624 128.0
105.242981 212.0
105.258522 148.0
105.266823 196.0
105.304497 140.0
105.320839 108.0
105.377541 164.0
105.400513 132.0
105.416862 152.0
105.449562 144.0
105.49453 164.0
105.539391 208.0
105.638336 188.0
105.662231 224.0
105.7052 124.0
105.7332 336.0
105.754318 140.0
105.77829 180.0
105.789948 180.0
105.830429 156.0
105.878952 160.0
105.899689 116.0
105.939522 404.0
105.981819 132.0
106.071808 156.0
106.172279 164.0
106.24202 208.0
106.263466 148.0
106.301414 160.0
106.309029 152.0
106.31263 260.0
106.356934 132.0
106.373352 216.0
106.420174 164.0
106.45343 116.0
106.570511 100.0
106.658882 128.0
106.825447 108.0
106.866592 128.0
106.899513 200.0
106.97773 144.0
107.082741 152.0
107.09716 40.0
107.12188 72.0
107.150719 164.0
107.284683 136.0
107.30117 180.0
107.367157 128.0
107.412537 180.0
107.497124 144.0
107.517761 40.0
107.707718 148.0
107.755234 192.0
107.793098 184.0
107.851151 268.0
107.870964 144.0
107.885429 176.0
107.988823 208.0
108.011909 148.0
108.038467 136.0
108.152283 120.0
108.33036 160.0
108.344864 48.0
108.36718 428.0
108.395538 236.0
108.550064 168.0
108.570801 72.0
108.58532 124.0
108.639252 196.0
108.670372 208.0
108.720169 136.0
108.859261 52.0
108.892654 188.0
108.934036 112.0
108.952728 72.0
109.006325 196.0
109.026031 136.0
109.071724 152.0
109.08989 100.0
109.118996 228.0
109.135628 156.0
109.283302 184.0
109.297874 124.0
109.33741 152.0
109.360306 72.0
109.420151 112.0
109.450699 200.0
109.478973 212.0
109.524796 132.0
109.581047 136.0
109.5998 176.0
109.670654 472.0
109.70192 136.0
109.722771 168.0
109.843719 180.0
109.865585 216.0
109.902138 152.0
109.941338 240.0
109.979355 208.0
110.017403 176.0
110.054512 136.0
110.078827 260.0
110.213257 216.0
110.251472 124.0
110.36541 232.0
110.386749 236.0
110.411354 136.0
110.465866 552.0
110.479973 212.0
110.518532 136.0
110.543648 220.0
110.566666 180.0
110.598061 240.0
110.615791 144.0
110.654579 116.0
110.763481 124.0
110.866142 56.0
110.901772 96.0
111.028976 204.0
111.06012 168.0
111.103081 112.0
111.163322 196.0
111.187019 112.0
111.266785 388.0
111.447411 216.0
111.485504 124.0
111.531471 120.0
111.581924 172.0
111.676552 248.0
111.697586 188.0
111.720726 208.0
111.73735 184.0
111.775391 204.0
111.853302 56.0
111.897514 156.0
112.015495 168.0
112.051262 288.0
112.087082 76.0
112.11026 172.0
112.211441 164.0
112.247284 240.0
112.30423 340.0
112.335869 132.0
112.41288 48.0
112.441368 104.0
112.460365 200.0
112.494667 160.0
112.555367 148.0
112.584267 212.0
112.622948 156.0
112.719765 184.0
112.762398 64.0
112.876556 72.0
112.891357 132.0
112.912506 152.0
113.038147 824.0
113.079651 156.0
113.096581 164.0
113.151543 112.0
113.196091 176.0
113.219276 244.0
113.252838 176.0
113.314705 76.0
113.374031 160.0
113.443977 220.0
113.524551 164.0
113.582314 136.0
113.60939 144.0
113.632729 108.0
113.656799 152.0
113.681534 168.0
113.70488 120.0
113.723984 172.0
113.779121 168.0
113.816742 184.0
113.844261 204.0
113.90773 232.0
113.936333 176.0
114.047226 908.0
114.074471 228.0
114.110611 196.0
114.138252 168.0
114.195671 180.0
114.236084 172.0
114.280762 120.0
114.295654 132.0
114.348862 164.0
114.448746 200.0
114.585228 184.0
114.647018 196.0
114.721626 224.0
114.798378 128.0
114.877815 164.0
114.909302 172.0
114.960304 84.0
114.994865 152.0
115.020271 256.0
115.054955 16972.0
115.120407 40.0
115.145058 208.0
115.179581 112.0
115.201569 160.0
115.240242 100.0
115.259468 68.0
115.384506 88.0
115.412048 184.0
115.458275 204.0
115.533142 116.0
115.696754 196.0
115.740753 112.0
115.783577 200.0
115.803497 160.0
115.837318 184.0
115.856407 140.0
115.89283 56.0
116.00856 136.0
116.056427 1680.0
116.087898 188.0
116.122208 128.0
116.164322 120.0
116.197289 140.0
116.322548 152.0
116.345825 180.0
116.384636 56.0
116.467773 44.0
116.491409 100.0
116.521484 84.0
116.594543 232.0
116.622482 48.0
116.680527 200.0
116.695572 76.0
116.725677 236.0
116.749329 192.0
116.7882 56.0
116.814621 192.0
116.856888 160.0
116.877838 136.0
116.912834 180.0
116.934746 240.0
116.957329 184.0
116.988167 212.0
117.019058 160.0
117.034996 144.0
117.064201 320.0
117.089371 244.0
117.171227 144.0
117.274193 148.0
117.317772 148.0
117.341484 180.0
117.356583 104.0
117.381508 164.0
117.430511 120.0
117.510506 264.0
117.533455 184.0
117.555031 52.0
117.660797 204.0
117.682388 36.0
117.708298 84.0
117.796852 180.0
117.842216 116.0
117.863823 228.0
117.899048 240.0
117.978378 172.0
118.006264 120.0
118.041115 336.0
118.181679 200.0
118.229286 188.0
118.246597 116.0
118.285561 52.0
118.354836 216.0
118.463127 168.0
118.491295 156.0
118.508621 132.0
118.547539 188.0
118.619156 188.0
118.634331 156.0
118.671181 156.0
118.725693 204.0
118.96965 148.0
119.052567 232.0
119.072639 220.0
119.109566 224.0
119.143356 260.0
119.180328 128.0
119.221115 164.0
119.311668 152.0
119.335579 64.0
119.387772 100.0
119.418213 144.0
119.466072 104.0
119.600677 168.0
119.631462 124.0
119.716377 176.0
119.810043 168.0
119.831245 196.0
119.86451 164.0
119.884125 136.0
119.910278 160.0
119.93425 156.0
119.969131 196.0
119.988747 216.0
120.076797 216.0
120.134865 124.0
120.182869 140.0
120.250519 292.0
120.31382 164.0
120.412079 96.0
120.45755 196.0
120.512566 252.0
120.580315 240.0
120.637146 152.0
120.698364 148.0
120.831779 112.0
120.851471 104.0
120.919312 108.0
120.980606 224.0
121.055717 300.0
121.209175 144.0
121.238708 148.0
121.25441 192.0
121.310257 108.0
121.350288 232.0
121.412254 148.0
121.44516 200.0
121.480705 156.0
121.507126 224.0
121.557045 124.0
121.583382 116.0
121.59874 116.0
121.649231 120.0
121.690941 228.0
121.743645 224.0
121.759018 196.0
121.798546 216.0
121.893021 104.0
121.92379 180.0
121.977028 180.0
122.012009 148.0
122.04689 104.0
122.108467 132.0
122.176651 224.0
122.203224 160.0
122.273476 184.0
122.295486 60.0
122.352715 148.0
122.396225 160.0
122.447144 172.0
122.475609 308.0
122.510223 108.0
122.523567 132.0
122.572975 296.0
122.600433 140.0
122.680969 124.0
122.704559 252.0
122.77137 120.0
122.789017 80.0
122.813278 128.0
122.873329 216.0
122.890488 116.0
122.919174 124.0
122.996422 164.0
123.038361 156.0
123.078781 92.0
123.109024 188.0
123.133316 144.0
123.162025 108.0
123.241562 148.0
123.343643 172.0
123.365326 180.0
123.383011 176.0
123.495789 164.0
123.528969 136.0
123.5989 316.0
123.657562 172.0
123.682587 256.0
123.732567 188.0
123.774635 96.0
123.876518 112.0
123.908295 204.0
123.958496 212.0
124.087051 124.0
124.133621 204.0
124.18158 160.0
124.200157 60.0
124.246742 52.0
124.275581 80.0
124.31498 164.0
124.339935 140.0
124.37101 164.0
124.435387 164.0
124.457588 200.0
124.488678 44.0
124.528519 192.0
124.566414 104.0
124.635292 220.0
124.704178 200.0
124.737518 84.0
124.764198 120.0
124.784569 148.0
124.873154 112.0
124.933014 176.0
125.017769 152.0
125.044312 112.0
125.075638 84.0
125.149101 148.0
125.204773 192.0
125.224815 128.0
125.267136 132.0
125.296097 120.0
125.326477 208.0
125.378548 188.0
125.402451 176.0
125.478851 176.0
125.514526 124.0
125.594818 136.0
125.68898 116.0
125.697937 180.0
125.749809 192.0
125.811516 220.0
125.88942 116.0
125.921234 180.0
125.9944 116.0
126.045723 296.0
126.090485 124.0
126.124016 64.0
126.220146 124.0
126.262634 172.0
126.30513 104.0
126.37896 216.0
126.40712 168.0
126.542351 180.0
126.621048 168.0
126.663284 220.0
126.701363 168.0
126.721527 144.0
126.779793 60.0
126.8255 148.0
126.954651 124.0
126.995026 28.0
127.054298 2396.0
127.107193 136.0
127.134125 148.0
127.160645 152.0
127.167061 124.0
127.174919 112.0
127.181755 144.0
127.301743 108.0
127.336182 116.0
127.38784 56.0
127.466476 164.0
127.504684 144.0
127.603592 228.0
127.72728 48.0
127.758911 160.0
127.811287 188.0
127.817726 236.0
127.860023 56.0
127.982147 224.0
128.053726 1432.0
128.095551 348.0
128.132339 68.0
128.17981 92.0
128.215866 36.0
128.251923 124.0
128.272217 212.0
128.315048 180.0
128.362396 88.0
128.391708 236.0
128.454865 96.0
128.497726 176.0
128.522552 156.0
128.540604 136.0
128.599274 232.0
128.619598 144.0
128.685059 128.0
128.782166 176.0
128.816055 120.0
128.848206 204.0
128.895126 40.0
128.915466 164.0
128.944748 288.0
129.021698 164.0
129.058731 2608.0
129.090866 88.0
129.191315 200.0
129.22525 140.0
129.259186 172.0
129.279556 148.0
129.297668 132.0
129.420746 248.0
129.508224 164.0
129.571655 196.0
129.616974 136.0
129.634125 176.0
129.714417 136.0
129.736374 176.0
129.768829 96.0
129.798126 152.0
129.801483 140.0
129.898102 192.0
129.932129 140.0
129.948013 36.0
130.036514 156.0
130.065048 2584.0
130.136917 192.0
130.154556 244.0
130.177277 120.0
130.223846 204.0
130.320374 208.0
130.373138 180.0
130.404221 332.0
130.434006 172.0
130.47493 160.0
130.497894 236.0
130.51767 160.0
130.552231 112.0
130.643219 160.0
130.660065 204.0
130.679611 204.0
130.729675 176.0
130.845764 172.0
130.879913 156.0
130.905533 176.0
130.936844 152.0
130.957352 104.0
130.989243 160.0
131.049957 116.0
131.069122 532.0
131.223969 44.0
131.299225 136.0
131.349396 160.0
131.384583 180.0
131.402893 232.0
131.44751 140.0
131.520538 80.0
131.595871 124.0
131.659805 164.0
131.698639 116.0
131.778595 128.0
131.924866 176.0
131.954651 132.0
132.041473 116.0
132.071213 132.0
132.135269 132.0
132.167297 284.0
132.368729 396.0
132.400787 172.0
132.439728 124.0
132.554276 236.0
132.618454 156.0
132.639633 180.0
132.723907 60.0
132.77269 188.0
132.799362 168.0
132.869614 208.0
132.923462 176.0
132.953308 408.0
133.001495 88.0
133.054062 156.0
133.095627 76.0
133.270203 204.0
133.366714 224.0
133.486084 200.0
133.529968 176.0
133.617371 404.0
133.635773 104.0
133.658783 168.0
133.71402 180.0
133.739334 88.0
133.760056 120.0
133.833725 128.0
133.9673 104.0
133.985733 164.0
134.020294 80.0
134.060318 164.0
134.16449 100.0
134.208298 128.0
134.251892 316.0
134.28772 108.0
134.317703 60.0
134.338455 164.0
134.35968 100.0
134.382294 148.0
134.400757 132.0
134.490753 156.0
134.59465 120.0
134.643143 132.0
134.684708 152.0
134.72467 188.0
134.76326 116.0
134.779434 184.0
134.827072 188.0
134.851074 128.0
134.8918 232.0
134.911179 172.0
134.944504 164.0
135.020065 172.0
135.038361 200.0
135.096176 168.0
135.151718 108.0
135.17363 180.0
135.325302 68.0
135.378906 160.0
135.432831 132.0
135.492065 156.0
135.519867 212.0
135.598923 136.0
135.614883 212.0
135.702972 244.0
135.737747 60.0
135.788773 188.0
135.833191 224.0
135.856033 344.0
135.955811 172.0
136.039368 104.0
136.111664 148.0
136.206573 208.0
136.262314 200.0
136.350616 44.0
136.385483 60.0
136.406403 212.0
136.434296 124.0
136.45755 120.0
136.549911 208.0
136.650589 184.0
136.694168 192.0
136.743683 68.0
136.804474 172.0
136.848434 60.0
136.917343 128.0
136.953232 236.0
136.990494 168.0
137.025452 204.0
137.044083 108.0
137.125336 60.0
137.149734 108.0
137.383377 188.0
137.41481 144.0
137.496475 112.0
137.557159 176.0
137.592178 140.0
137.629532 160.0
137.725296 52.0
137.977676 308.0
137.996368 132.0
138.047516 196.0
138.188431 204.0
138.211166 120.0
138.219803 100.0
138.433945 56.0
138.461792 188.0
138.494827 88.0
138.571793 212.0
138.601395 164.0
138.689316 128.0
138.757294 156.0
138.778397 188.0
138.7995 148.0
138.844055 196.0
138.909729 152.0
138.951569 172.0
138.985413 204.0
139.041122 272.0
139.059906 88.0
139.07634 140.0
139.172592 208.0
139.189026 72.0
139.219543 152.0
139.259476 128.0
139.34169 64.0
139.369888 100.0
139.399612 200.0
139.428635 172.0
139.470947 196.0
139.51561 72.0
139.572037 144.0
139.814331 152.0
139.834946 200.0
139.868469 44.0
139.893326 172.0
139.979126 216.0
140.005035 172.0
140.0495 6264.0
140.160507 148.0
140.179352 128.0
140.199158 148.0
140.259491 164.0
140.323135 180.0
140.47171 136.0
140.504745 124.0
140.603851 68.0
140.684097 216.0
140.771133 144.0
140.847046 56.0
140.88031 144.0
140.953354 120.0
140.97226 108.0
141.033157 172.0
141.056702 2720.0
141.116455 208.0
141.151917 116.0
141.177017 192.0
141.334061 92.0
141.376251 168.0
141.412155 240.0
141.433456 48.0
141.452393 32.0
141.471329 224.0
141.551834 240.0
141.568405 160.0
141.587357 152.0
141.658401 76.0
141.855103 176.0
141.921478 128.0
142.007797 20.0
142.018051 160.0
142.025192 136.0
142.03447 144.0
142.064468 2892.0
142.103287 172.0
142.127838 92.0
142.260742 288.0
142.338104 172.0
142.410339 52.0
142.491318 180.0
142.560028 100.0
142.579041 44.0
142.70488 212.0
142.740692 128.0
142.758408 248.0
142.835815 248.0
142.957153 108.0
143.021423 52.0
143.070297 504.0
143.103806 232.0
143.170547 144.0
143.270523 112.0
143.279861 68.0
143.328644 168.0
143.409668 124.0
143.445419 136.0
143.478806 144.0
143.586105 56.0
143.665222 96.0
143.691055 248.0
143.796051 152.0
143.834244 124.0
143.929749 180.0
143.969421 176.0
144.044266 1392.0
144.082596 152.0
144.099335 108.0
144.139954 160.0
144.180573 188.0
144.309662 100.0
144.390961 144.0
144.453156 124.0
144.491486 160.0
144.524918 128.0
144.602158 204.0
144.620651 196.0
144.691696 256.0
144.759506 116.0
144.78688 140.0
144.891068 220.0
145.035034 152.0
145.068207 748.0
145.097351 176.0
145.120483 228.0
145.129471 212.0
145.26123 216.0
145.296417 148.0
145.333237 244.0
145.464401 88.0
145.574066 148.0
145.665955 172.0
145.702148 208.0
145.735794 156.0
145.841583 168.0
145.863159 220.0
145.926422 228.0
145.954514 48.0
145.976166 84.0
146.060898 536.0
146.110855 236.0
146.134918 244.0
146.169296 180.0
146.242233 148.0
146.28302 148.0
146.334839 128.0
146.414154 104.0
146.481598 160.0
146.546646 220.0
146.623749 252.0
146.724991 212.0
146.741867 160.0
146.765976 148.0
146.874512 152.0
146.891388 116.0
146.978241 40.0
147.062714 180.0
147.152023 156.0
147.173767 160.0
147.248627 164.0
147.311417 148.0
147.374237 60.0
147.440689 152.0
147.52243 164.0
147.640137 128.0
147.664322 144.0
147.71814 64.0
147.735107 260.0
147.797379 136.0
147.86998 208.0
147.899033 44.0
147.963196 196.0
147.993439 180.0
148.06366 44.0
148.092316 364.0
148.1436 136.0
148.165405 184.0
148.182358 88.0
148.204163 164.0
148.22113 172.0
148.255051 140.0
148.365311 136.0
148.398071 176.0
148.475662 176.0
148.492645 60.0
148.558136 232.0
148.643051 96.0
148.724884 156.0
148.810547 220.0
148.834824 168.0
148.857773 160.0
148.900391 116.0
148.963547 116.0
148.980545 64.0
149.013504 92.0
149.065582 176.0
149.123917 180.0
149.191971 252.0
149.213104 260.0
149.245468 212.0
149.325714 132.0
149.411728 148.0
149.544693 120.0
149.570755 204.0
149.661545 104.0
149.723495 140.0
149.817413 224.0
149.888077 52.0
149.907562 176.0
149.980682 176.0
150.026993 128.0
150.056259 120.0
150.109894 140.0
150.161118 164.0
150.187943 72.0
150.24791 180.0
150.290405 220.0
150.424637 180.0
150.492615 128.0
150.598007 384.0
150.703049 104.0
150.727478 224.0
150.749481 160.0
150.795914 116.0
150.849686 44.0
150.937698 208.0
150.971939 128.0
151.113815 84.0
151.130936 160.0
151.182327 120.0
151.221481 192.0
151.258209 148.0
151.297363 148.0
151.324295 172.0
151.456543 188.0
151.50798 200.0
151.565262 232.0
151.601089 112.0
151.637863 156.0
151.674622 172.0
151.721268 152.0
151.753067 140.0
151.782501 68.0
151.822342 224.0
151.857773 208.0
151.907578 116.0
151.95665 196.0
152.057068 188.0
152.118622 124.0
152.207001 160.0
152.234009 96.0
152.280685 212.0
152.30278 188.0
152.394699 136.0
152.479691 52.0
152.506729 176.0
152.57309 128.0
152.631424 180.0
152.654236 188.0
152.725555 240.0
152.764679 160.0
152.811661 184.0
152.863327 44.0
153.011017 144.0
153.059189 924.0
153.132645 164.0
153.20311 152.0
153.232681 148.0
153.262238 160.0
153.316452 88.0
153.410126 116.0
153.459885 184.0
153.494522 172.0
153.565659 324.0
153.584 184.0
153.62059 104.0
153.638733 120.0
153.654266 172.0
153.683884 104.0
153.720901 136.0
153.77272 128.0
153.867874 124.0
153.909454 196.0
153.932281 164.0
154.066101 63980.0
154.149658 52.0
154.167389 124.0
154.192871 136.0
154.221649 116.0
154.248352 100.0
154.290482 324.0
154.317001 160.0
154.347397 192.0
154.380478 148.0
154.407684 140.0
154.429474 60.0
154.473495 244.0
154.504715 204.0
154.552567 168.0
154.605606 148.0
154.6353 80.0
154.66098 312.0
154.67952 88.0
154.699661 140.0
154.755707 112.0
154.783829 112.0
154.801163 160.0
154.818512 172.0
154.868576 176.0
154.90271 76.0
154.92749 60.0
154.973984 224.0
155.022095 196.0
155.072388 34656.0
155.135666 136.0
155.168594 268.0
155.184235 188.0
155.210037 40.0
155.273773 40.0
155.324829 200.0
155.357498 124.0
155.375595 156.0
155.403824 32.0
155.438248 156.0
155.469025 36.0
155.487885 132.0
155.52005 200.0
155.56871 120.0
155.587173 76.0
155.604553 108.0
155.646759 104.0
155.68103 60.0
155.735245 172.0
155.742065 148.0
155.7845 196.0
155.869431 224.0
155.927475 92.0
155.979675 180.0
156.02475 148.0
156.031754 84.0
156.040649 144.0
156.077515 3660.0
156.109695 148.0
156.130142 284.0
156.19635 100.0
156.238449 140.0
156.272629 40.0
156.298019 164.0
156.323135 128.0
156.334885 88.0
156.369858 152.0
156.421906 92.0
156.478073 152.0
156.540466 232.0
156.646576 212.0
156.736267 72.0
156.762665 188.0
156.772934 112.0
156.781815 156.0
156.82753 124.0
156.875824 88.0
156.913223 68.0
156.930679 132.0
156.960815 184.0
157.035416 72.0
157.077271 416.0
157.103943 128.0
157.127716 136.0
157.183853 104.0
157.247498 76.0
157.266937 76.0
157.280869 96.0
157.308182 124.0
157.326202 120.0
157.366211 180.0
157.40477 56.0
157.42395 196.0
157.647079 128.0
157.670486 132.0
157.724564 32.0
157.782059 56.0
157.874573 84.0
157.941483 244.0
157.977127 196.0
158.024658 68.0
158.067276 136.0
158.087402 180.0
158.117249 56.0
158.137268 112.0
158.158859 172.0
158.18573 252.0
158.313583 160.0
158.352585 76.0
158.437759 164.0
158.563049 132.0
158.620697 196.0
158.725998 100.0
158.919144 120.0
158.949249 168.0
159.068253 188.0
159.170135 144.0
159.280655 144.0
159.44899 132.0
159.534454 248.0
159.600754 204.0
159.733124 192.0
159.851364 188.0
159.911774 68.0
160.00238 168.0
160.040161 264.0
160.072891 140.0
160.113174 56.0
160.148438 44.0
160.236618 232.0
160.314728 120.0
160.357574 144.0
160.503784 96.0
160.634933 220.0
160.877197 172.0
160.993332 84.0
161.021454 184.0
161.048508 468.0
161.101944 80.0
161.162582 228.0
161.185333 140.0
161.251038 100.0
161.328003 124.0
161.379959 188.0
161.534225 212.0
161.577698 160.0
161.736664 252.0
161.817673 152.0
161.837921 200.0
161.863251 176.0
161.908829 88.0
161.941757 144.0
161.960419 196.0
162.022812 84.0
162.048248 196.0
162.076019 188.0
162.096298 176.0
162.172318 136.0
162.200211 136.0
162.253448 192.0
162.28894 188.0
162.321899 152.0
162.375153 104.0
162.420807 156.0
162.443649 72.0
162.534973 76.0
162.634171 204.0
162.664413 164.0
162.684982 112.0
162.759628 188.0
162.83609 148.0
162.871658 160.0
162.903122 136.0
162.928085 164.0
163.054321 148.0
163.196091 188.0
163.229324 220.0
163.30983 52.0
163.332718 128.0
163.355606 188.0
163.421753 84.0
163.449753 164.0
163.49556 176.0
163.54776 188.0
163.701752 164.0
163.790894 112.0
163.818924 148.0
163.923386 76.0
163.976898 56.0
164.051636 336.0
164.106918 136.0
164.209198 184.0
164.280334 232.0
164.398285 212.0
164.484482 216.0
164.534103 200.0
164.594269 216.0
164.658112 176.0
164.744949 156.0
164.767944 108.0
164.881363 156.0
164.972397 140.0
164.997955 132.0
165.018417 188.0
165.057526 472.0
165.079239 168.0
165.174423 224.0
165.217911 176.0
165.358643 148.0
165.390793 200.0
165.452942 152.0
165.456787 128.0
165.527603 48.0
165.550659 168.0
165.65567 72.0
165.734039 236.0
165.82991 60.0
165.893997 152.0
165.934662 148.0
166.010696 232.0
166.055786 908.0
166.104263 248.0
166.20433 208.0
166.30954 72.0
166.363449 152.0
166.383987 96.0
166.401962 148.0
166.453308 160.0
166.481567 120.0
166.57402 164.0
166.699921 208.0
166.738464 216.0
167.01358 208.0
167.061371 1608.0
167.157654 152.0
167.227142 36.0
167.312088 112.0
167.371307 176.0
167.407349 176.0
167.546448 88.0
167.628891 96.0
167.646942 96.0
167.799011 224.0
167.837692 36.0
167.856735 104.0
168.000183 136.0
168.068497 4700.0
168.144669 200.0
168.196289 56.0
168.284073 84.0
168.304733 36.0
168.346039 56.0
168.385559 160.0
168.528442 144.0
168.570786 196.0
168.601807 48.0
168.634262 76.0
168.653488 184.0
168.718124 168.0
168.746552 36.0
168.787216 72.0
168.811203 172.0
168.881027 64.0
168.940521 184.0
169.006409 232.0
169.045181 156.0
169.076187 9652.0
169.133545 108.0
169.168259 188.0
169.227798 56.0
169.24852 112.0
169.308075 56.0
169.326202 80.0
169.355362 156.0
169.393555 48.0
169.42981 156.0
169.476868 176.0
169.517914 132.0
169.567154 32.0
169.606033 112.0
169.679733 84.0
169.707138 204.0
169.808273 144.0
169.826431 128.0
169.878311 108.0
169.896469 160.0
169.919815 100.0
169.95874 88.0
170.020126 176.0
170.077057 1416.0
170.119644 184.0
170.207932 236.0
170.288437 60.0
170.311813 176.0
170.410767 176.0
170.444305 340.0
170.613251 164.0
170.65007 184.0
170.727646 244.0
170.803085 64.0
170.821289 152.0
170.941345 140.0
171.028229 152.0
171.052887 160.0
171.078979 164.0
171.193481 160.0
171.216736 224.0
171.300262 68.0
171.379684 132.0
171.42012 196.0
171.440964 64.0
171.487885 80.0
171.879059 104.0
172.020676 200.0
172.074829 160.0
172.111374 116.0
172.226288 80.0
172.288544 168.0
172.390884 100.0
172.434433 112.0
172.464066 308.0
172.545914 244.0
172.636612 212.0
172.678467 236.0
172.722931 184.0
173.110275 140.0
173.196701 164.0
173.258362 232.0
173.304123 172.0
173.36438 188.0
173.403702 48.0
173.490204 140.0
173.521652 180.0
173.55574 88.0
173.579346 244.0
173.704987 168.0
173.833801 92.0
173.878403 112.0
173.915161 208.0
174.070053 200.0
174.118439 196.0
174.235519 120.0
174.332748 144.0
174.466797 140.0
174.602829 76.0
174.648239 132.0
174.732422 116.0
174.772919 164.0
174.875946 156.0
174.952301 160.0
174.982452 168.0
175.043015 132.0
175.090408 164.0
175.156265 164.0
175.282715 152.0
175.311707 184.0
175.467224 184.0
175.551605 80.0
175.641281 88.0
175.70723 108.0
175.836533 160.0
175.913498 148.0
176.000198 72.0
176.021317 92.0
176.174515 200.0
176.396484 192.0
176.615967 188.0
176.653 128.0
176.69986 56.0
176.721252 196.0
176.774643 160.0
176.838226 68.0
176.87793 304.0
176.967941 144.0
177.123123 376.0
177.173157 156.0
177.264603 252.0
177.423645 36.0
177.535004 208.0
177.569489 112.0
177.634979 184.0
177.723343 120.0
177.802948 208.0
177.885239 172.0
177.909637 232.0
177.933029 116.0
177.956924 80.0
177.983475 164.0
178.004715 96.0
178.058945 172.0
178.096359 196.0
178.145126 148.0
178.186157 128.0
178.202972 112.0
178.291626 116.0
178.368698 116.0
178.400604 176.0
178.475037 132.0
178.506943 108.0
178.724106 220.0
178.775635 108.0
178.932678 104.0
178.996582 192.0
179.017883 144.0
179.059631 1608.0
179.169708 188.0
179.245834 56.0
179.289612 132.0
179.334427 304.0
179.627136 220.0
179.676254 108.0
179.763199 68.0
179.815018 148.0
179.86087 288.0
179.905762 196.0
179.940475 164.0
180.028595 204.0
180.06723 476.0
180.124741 28.0
180.178177 152.0
180.236954 164.0
180.269012 108.0
180.306427 124.0
180.350677 316.0
180.375931 356.0
180.427368 160.0
180.446823 180.0
180.539017 108.0
180.557739 164.0
180.597168 172.0
180.625244 172.0
180.67009 152.0
180.703476 324.0
180.726151 184.0
180.732651 176.0
180.741333 76.0
180.751648 148.0
180.776794 268.0
180.809219 124.0
180.846695 136.0
180.885651 196.0
180.90744 168.0
180.917831 56.0
180.951981 348.0
180.987305 636.0
181.018417 336.0
181.077316 88836.0
181.141876 152.0
181.167542 120.0
181.210892 236.0
181.241898 120.0
181.269394 96.0
181.279739 144.0
181.284821 88.0
181.319305 44.0
181.346725 128.0
181.375427 152.0
181.403076 204.0
181.431519 164.0
181.454529 120.0
181.489166 96.0
181.495773 172.0
181.517227 492.0
181.55101 224.0
181.618729 216.0
181.663971 140.0
181.675659 124.0
181.681503 276.0
181.732025 344.0
181.751404 176.0
181.784027 580.0
181.810226 260.0
181.839188 176.0
181.876007 260.0
181.896286 212.0
181.918976 196.0
181.947739 280.0
181.995178 152.0
182.001419 512.0
182.085068 278072.0
182.169067 88.0
182.233047 196.0
182.255936 280.0
182.267776 224.0
182.272003 108.0
182.315796 116.0
182.344025 292.0
182.396667 112.0
182.434174 80.0
182.46254 44.0
182.468399 76.0
182.479218 208.0
182.498291 64.0
182.527603 1712.0
182.568497 84.0
182.588348 240.0
182.612823 132.0
182.638107 100.0
182.643555 60.0
182.67308 144.0
182.695267 96.0
182.716187 108.0
182.730865 136.0
182.74292 60.0
182.749695 148.0
182.783066 88.0
182.796127 92.0
182.826645 144.0
182.844421 152.0
182.862671 40.0
182.890854 212.0
182.914597 168.0
182.927338 180.0
182.952011 180.0
183.001846 120.0
183.053619 460.0
183.088104 41988.0
183.141953 156.0
183.169739 56.0
183.194397 136.0
183.223923 172.0
183.266953 140.0
183.303253 108.0
183.34903 128.0
183.37793 68.0
183.411667 72.0
183.422424 48.0
183.429276 52.0
183.440445 88.0
183.4478 132.0
183.470123 196.0
183.500076 100.0
183.51384 92.0
183.520172 124.0
183.53183 64.0
183.584335 328.0
183.61055 112.0
183.65184 76.0
183.697021 176.0
183.751358 120.0
183.780579 176.0
183.819382 40.0
183.857666 116.0
183.888214 180.0
183.937866 56.0
183.973068 204.0
184.005264 116.0
184.061874 244.0
184.090836 1612.0
184.174622 128.0
184.229034 136.0
184.257965 88.0
184.291016 300.0
184.310638 156.0
184.354431 136.0
184.375687 80.0
184.401871 156.0
184.4189 232.0
184.464066 184.0
184.494156 332.0
184.536484 128.0
184.55574 236.0
184.578751 156.0
184.60463 112.0
184.655121 44.0
184.697159 52.0
184.781021 128.0
184.816208 64.0
184.839401 84.0
184.865814 132.0
184.896729 116.0
184.929871 84.0
185.005661 72.0
185.071182 504.0
185.115433 44.0
185.173538 44.0
185.22229 144.0
185.246674 128.0
185.291458 60.0
185.342621 160.0
185.374023 96.0
185.398407 136.0
185.434937 104.0
185.482422 176.0
185.531219 104.0
185.558563 48.0
185.626114 64.0
185.661377 104.0
185.688217 40.0
185.748169 88.0
185.767151 112.0
185.867355 60.0
185.934357 84.0
185.956787 80.0
186.035812 68.0
186.074203 144.0
186.114548 44.0
186.223175 56.0
186.5112 64.0
186.758636 76.0
187.055222 120.0
187.101746 44.0
187.124283 76.0
187.256714 92.0
187.294846 68.0
187.387482 40.0
187.441971 88.0
187.534622 120.0
187.575516 44.0
187.619141 116.0
187.96553 316.0
187.998276 64.0
188.06105 60.0
188.25914 148.0
188.418777 76.0
188.459747 48.0
188.484344 64.0
188.785049 92.0
189.075027 112.0
189.499466 36.0
189.570709 100.0
189.654617 176.0
189.724213 144.0
189.806458 88.0
189.842117 160.0
189.905197 60.0
190.003937 52.0
190.212509 64.0
190.300354 88.0
190.547546 32.0
190.748169 52.0
190.783905 96.0
190.852631 124.0
190.94339 192.0
190.962631 48.0
191.047913 64.0
191.323105 96.0
191.59024 68.0
191.788651 124.0
191.82518 208.0
191.868591 40.0
191.987167 80.0
192.348602 40.0
192.40657 84.0
192.464554 48.0
192.533173 80.0
192.539612 68.0
192.608475 176.0
192.67601 136.0
192.815384 136.0
192.881729 104.0
192.920425 72.0
193.064209 200.0
193.151199 124.0
193.196976 200.0
193.255081 72.0
193.570633 92.0
193.613647 232.0
193.662018 152.0
193.814392 64.0
194.055527 116.0
194.213608 64.0
194.383575 136.0
194.406281 64.0
194.566025 48.0
194.63266 52.0
194.653091 168.0
194.71875 80.0
194.763184 88.0
194.863205 44.0
194.988251 96.0
195.093491 2176.0
195.202301 32.0
195.36084 68.0
195.897873 136.0
195.988983 72.0
196.062515 108.0
196.096451 468.0
196.243713 52.0
196.302261 104.0
196.321777 124.0
196.344101 56.0
196.383148 64.0
196.511459 100.0
196.57843 184.0
196.694382 220.0
196.720779 164.0
196.771027 204.0
196.835312 184.0
196.907852 176.0
196.964874 276.0
196.998764 140.0
197.031326 148.0
197.059692 156.0
197.068512 156.0
197.108383 71284.0
197.175354 208.0
197.216415 92.0
197.247162 64.0
197.265518 208.0
197.298813 44.0
197.315979 88.0
197.368515 204.0
197.421249 148.0
197.517181 68.0
197.547958 76.0
197.580795 92.0
197.615799 292.0
197.675613 148.0
197.706238 84.0
197.726151 100.0
197.794205 48.0
197.830597 44.0
198.009796 40.0
198.043411 44.0
198.064331 136.0
198.110397 6780.0
198.166672 80.0
198.203094 44.0
198.262573 72.0
198.28157 120.0
198.309586 80.0
198.349396 80.0
198.393692 52.0
198.434616 48.0
198.483398 60.0
198.512421 120.0
198.682541 164.0
198.73024 84.0
198.888931 80.0
198.922531 60.0
199.083923 156.0
199.109848 872.0
199.195496 100.0
199.239136 108.0
199.282196 96.0
199.317078 108.0
199.35614 204.0
199.39296 100.0
199.421066 168.0
199.446365 104.0
199.466034 52.0
199.511475 124.0
199.556 100.0
199.575684 120.0
199.597458 104.0
199.651611 160.0
199.879471 60.0
200.107208 132.0
200.19194 68.0
200.256714 36.0
200.358124 68.0
200.377838 84.0
200.435532 92.0
200.546921 136.0
200.634308 52.0
200.749908 68.0
200.871185 92.0
201.379272 32.0
201.562897 96.0
201.735306 52.0
201.820129 68.0
202.026581 64.0
202.083176 44.0
202.255798 64.0
202.521957 96.0
202.728775 48.0
202.808136 48.0
203.449234 52.0
203.48613 68.0
203.932129 144.0
203.974762 96.0
204.20224 52.0
204.415604 60.0
204.745834 64.0
205.136185 60.0
205.612534 72.0
206.581161 64.0
206.649826 72.0
207.182877 108.0
207.749969 64.0
208.240814 104.0
208.304016 100.0
208.922073 68.0
209.264557 116.0
209.754318 72.0
210.6633 120.0
210.871353 52.0
212.084106 96.0
212.818069 60.0
213.559113 64.0
214.02475 136.0
214.062592 88.0
214.149963 140.0
214.380127 56.0
214.709549 100.0
218.188248 84.0
218.82373 56.0
219.994156 96.0
220.647049 40.0
220.928009 108.0
221.443069 104.0
222.080307 60.0
222.543259 40.0
226.460312 20.0
232.258163 116.0
237.903595 100.0
238.265976 36.0
239.003891 44.0
240.609695 60.0
243.856079 52.0
244.229187 92.0
244.35051 104.0
246.692627 84.0
249.071045 124.0
249.209274 68.0
249.756271 104.0
251.621857 96.0
251.801849 192.0
252.997101 88.0
255.707901 144.0
256.571136 120.0
256.638092 68.0
261.719971 128.0
262.796509 60.0
263.038544 64.0
265.77652 84.0
266.897156 80.0
267.466492 84.0
269.138947 76.0
269.959137 128.0
270.446625 48.0
270.629944 64.0
273.107635 116.0
277.350616 60.0
279.160065 56.0
279.652435 60.0
280.788574 68.0
282.304779 80.0
283.111267 40.0
283.352448 100.0
284.147034 116.0
285.742889 48.0
286.527344 64.0
291.555634 104.0
292.627136 72.0
293.755188 148.0
295.514618 68.0
295.880829 116.0
296.881348 52.0
297.725586 72.0
300.36203 108.0
301.995819 104.0
303.21109 88.0
303.536957 76.0
305.976074 112.0
312.577423 88.0
312.897736 112.0
318.296875 52.0
320.252869 76.0
321.297333 48.0
321.329437 116.0
321.725586 56.0
321.889832 112.0
324.605865 32.0
325.579376 72.0
326.332977 60.0
326.552338 96.0
327.797974 108.0
332.063904 40.0
333.447205 184.0
334.491089 92.0
334.760529 108.0
335.970612 40.0
337.303497 120.0
337.493622 84.0
338.038635 84.0
339.247314 40.0
341.715271 84.0
342.746246 64.0
344.713043 52.0
345.05307 64.0
345.334137 32.0
346.907837 48.0
349.444397 72.0
353.537811 60.0
353.855957 80.0
357.098175 116.0
357.267456 68.0
360.071869 100.0
360.53656 108.0
361.107452 44.0
380.05246 56.0
381.326202 48.0
383.47464 44.0
384.316956 64.0
384.929779 56.0
385.733215 72.0
386.602905 104.0
387.10791 124.0
387.350739 68.0
387.74646 104.0
395.204956 68.0
398.86145 104.0
401.951996 64.0
406.501831 128.0
406.67038 48.0
406.826935 132.0
407.706573 72.0
408.382019 108.0
413.842072 60.0
414.068848 52.0
415.382111 100.0
423.309357 108.0
424.071381 92.0
424.849518 84.0
426.789032 80.0
427.262024 92.0
431.092529 48.0
433.716461 44.0
435.243164 84.0
438.546356 56.0
444.673767 68.0
445.164948 64.0
446.417236 120.0
451.85849 52.0
452.374817 52.0
456.260742 72.0
457.600922 100.0
459.702332 88.0
461.175751 48.0
461.547668 60.0
464.176819 44.0
464.622894 136.0
468.25946 56.0
468.780731 60.0
471.408783 52.0
475.418854 44.0
475.683594 108.0
480.527313 76.0
481.085938 52.0
500.900024 104.0
507.213959 72.0
507.908997 40.0
510.046356 72.0
510.47348 84.0
515.300964 132.0
529.397522 84.0
534.368713 68.0
542.955994 80.0
543.688965 84.0
545.147156 72.0
549.407532 72.0
550.784607 140.0
555.301392 32.0
559.954346 68.0
565.686584 92.0
570.14032 96.0
571.733459 108.0
574.964661 184.0
586.697327 64.0
621.64325 80.0
629.768311 100.0
631.017578 56.0
644.018005 48.0
644.533325 96.0
644.972961 96.0
662.862488 164.0
671.194946 64.0
683.486755 92.0
685.51239 204.0
685.679138 76.0
694.562439 140.0
701.487793 80.0
714.67511 132.0
716.804993 92.0
721.501892 120.0
724.016785 28.0
728.151672 52.0
742.675964 80.0
745.406738 104.0
746.755005 104.0
752.225586 104.0
760.617126 80.0
761.402283 84.0
762.319702 136.0
765.482788 180.0
769.347778 32.0
780.005981 84.0
796.349731 56.0
804.8703 96.0
807.424561 188.0
815.827698 136.0
821.368469 140.0
827.597717 132.0
831.271973 56.0
831.834412 76.0
832.575073 128.0
833.637878 60.0
836.985718 92.0
837.060547 60.0
845.002808 64.0
845.413635 192.0
849.817444 88.0
851.483459 64.0
852.715149 136.0
854.669067 168.0
856.642761 44.0
858.758606 144.0
862.004578 196.0
868.714233 64.0
869.195312 96.0
879.78363 224.0
884.252319 172.0
885.081055 60.0
890.465698 156.0
893.586487 100.0
895.431824 152.0
902.592957 48.0
908.414368 160.0
913.580627 228.0
920.252258 184.0
921.925476 32.0
924.786133 72.0
924.852661 152.0
925.028198 172.0
927.9422 244.0
928.069519 52.0
929.337158 68.0
936.821167 240.0
938.802063 48.0
941.39563 184.0
941.994202 164.0
942.183533 64.0
942.733459 164.0
942.93512 184.0
943.473022 132.0
944.090576 60.0
949.614746 172.0
950.768127 116.0
953.85144 168.0
954.48468 88.0
956.047119 164.0
959.582825 284.0
960.322815 80.0
971.004028 236.0
971.376221 96.0
972.418579 228.0
973.647888 116.0
974.343567 88.0
981.582214 184.0
984.3974 196.0
985.083557 204.0
985.383423 132.0
986.252014 40.0
986.370789 52.0
987.777771 136.0
989.13562 64.0
991.546997 216.0
991.998291 132.0
994.168457 164.0
996.334656 52.0
998.685669 180.0
1001.637695 140.0
1004.783386 104.0
1005.572144 228.0
1008.332153 152.0
1009.79895 176.0
1010.969299 108.0
1012.906677 164.0
1015.283508 196.0
1017.764648 148.0
1018.329834 84.0
1019.27002 80.0
1019.625916 36.0
1029.680054 164.0
1030.356323 48.0
1034.551636 156.0
1036.838257 116.0
1038.344849 180.0
1039.429077 76.0
1039.499634 48.0
1040.866821 44.0
1043.835571 144.0
1048.554321 152.0
1048.631714 176.0
1050.146851 28.0
1051.217773 244.0
1052.295654 52.0
1053.703613 204.0
1053.981445 136.0
1056.30896 168.0
1059.500366 120.0
1059.681763 264.0
1063.442871 260.0
1063.734985 148.0
1065.813232 144.0
1068.101685 124.0
1070.666016 88.0
1072.731445 116.0
1073.063965 172.0
1075.653809 180.0
1075.927979 32.0
1077.253662 160.0
1078.848145 152.0
1080.123291 160.0
1082.505615 52.0
1082.649658 164.0
1082.944458 212.0
1083.357056 120.0
1085.762573 156.0
1086.143066 120.0
1089.293823 44.0
1089.944214 208.0
1090.587891 200.0
1091.022095 220.0
1091.17334 128.0
1094.865723 188.0
1094.937134 32.0
1096.722656 216.0
1097.883057 96.0
1098.720703 224.0
1099.783081 64.0
1100.185791 88.0
1102.880859 96.0
1105.367554 168.0
1105.890381 160.0
1106.30835 136.0
1106.605347 84.0
1107.810669 88.0
1109.692749 220.0
1110.263062 168.0
1111.981323 160.0
1113.614624 92.0
1114.763916 64.0
1114.956665 144.0
1115.787598 180.0
1116.326172 104.0
1116.558838 140.0
1119.393799 180.0
1120.179688 160.0
1122.885864 204.0
1123.192627 128.0
1124.212646 140.0
1126.563721 172.0
1127.138306 164.0
1129.357788 216.0
1132.784912 48.0
1133.582153 244.0
1134.131714 72.0
1135.003296 140.0
1135.217896 96.0
1135.492798 172.0
1137.210327 240.0
1138.674072 72.0
1138.77478 192.0
1139.056885 148.0
1140.730103 84.0
1140.7771 180.0
1141.85022 160.0
1142.868774 164.0
1143.272461 184.0
1144.396606 136.0
1144.511108 216.0
1148.50061 128.0
1148.898682 136.0
1151.929688 104.0
1152.726929 56.0
1154.065308 196.0
1155.756226 136.0
1155.871216 256.0
1156.209595 224.0
1157.028564 236.0
1157.082764 156.0
1157.279175 164.0
1157.800537 204.0
1158.234009 172.0
1158.626831 200.0
1158.728516 64.0
1160.070312 156.0
1160.911133 188.0
1161.502563 148.0
1161.69104 116.0
1163.217896 100.0
1163.326538 176.0
1164.597534 112.0
1164.725342 180.0
1166.852295 108.0
1167.960815 288.0
1169.879761 172.0
1170.47522 200.0
1178.261108 148.0
1179.750977 56.0
1181.15271 144.0
1181.816406 160.0
1182.165283 176.0
1182.692261 412.0
1183.287842 216.0
1183.726074 168.0
1183.931519 52.0
1184.404053 168.0
1184.897339 132.0
1185.21936 168.0
1185.363281 152.0
1185.596191 184.0
1186.096558 172.0
1186.597046 124.0
1186.761597 108.0
1187.591309 144.0
1187.838257 212.0
1188.517456 176.0
1188.702759 144.0
1188.853638 100.0
1190.803467 100.0
1191.978149 164.0
1195.368164 172.0
1195.994507 224.0
1196.490112 76.0
1197.454102 160.0
1198.928467 136.0
1198.983643 48.0
1199.155884 136.0
1200.341675 204.0
1200.493408 60.0
1201.003662 192.0
1201.665894 144.0
1202.059204 216.0
1202.293823 132.0
1202.763184 140.0
1203.371704 168.0
1203.432861 76.0
1203.536377 120.0
1204.309814 168.0
1206.74231 140.0
1208.969604 184.0
1209.676514 88.0
1210.090942 180.0
1210.603394 32.0
1210.998169 228.0
1211.614624 164.0
1212.252075 116.0
1212.723389 164.0
1213.20166 144.0
1214.428955 44.0
1215.344727 132.0
1215.955322 108.0
1216.219116 180.0
1216.517578 204.0
1217.204956 36.0
1218.350952 176.0
1218.830322 52.0
1219.567017 164.0
1221.646118 136.0
1221.799072 64.0
1221.861694 48.0
1222.627197 188.0
1222.724609 176.0
1223.754761 156.0
1224.987427 160.0
1225.579712 120.0
1225.746826 156.0
1226.165039 116.0
1226.882935 152.0
1228.040527 180.0
1228.124146 136.0
1229.098389 180.0
1230.315308 120.0
1230.538696 152.0
1231.59314 132.0
1232.166016 196.0
1233.158203 148.0
1234.018066 228.0
1234.577393 56.0
1235.332764 228.0
1236.200439 32.0
1237.285278 168.0
1237.803467 116.0
1238.076538 120.0
1238.174561 84.0
1239.106201 160.0
1239.35144 40.0
1240.185059 204.0
1240.290527 92.0
1240.661987 120.0
1240.71106 56.0
1240.963501 60.0
1241.461304 168.0
1241.727783 188.0
1242.169678 156.0
1242.359131 164.0
1243.369507 184.0
1244.380371 168.0
1246.248535 164.0
1246.874023 148.0
1249.102783 172.0
1249.658569 136.0
1249.834473 184.0
1250.481689 148.0
1251.770264 76.0
1252.199829 156.0
1252.671753 144.0
1252.82666 172.0
1253.559448 164.0
1253.756836 128.0
1255.053833 132.0
1255.378174 140.0
1256.661987 264.0
1257.466431 184.0
1258.602905 140.0
1259.499878 184.0
1259.789429 176.0
1259.980225 164.0
1260.54541 32.0
1262.150024 144.0
1263.019897 220.0
1263.319946 48.0
1263.472656 176.0
1264.9729 188.0
1265.192383 156.0
1266.049072 256.0
1267.635864 168.0
1268.358765 140.0
1268.543091 120.0
1268.82666 140.0
1270.82666 200.0
1271.947998 180.0
1272.089966 144.0
1272.750244 192.0
1273.836792 84.0
1274.511719 172.0
1276.871826 108.0
1277.390991 176.0
1278.045532 268.0
1278.273315 44.0
1278.899536 220.0
1279.091675 224.0
1279.689697 176.0
1279.960327 184.0
1280.779297 216.0
1281.057129 176.0
1281.276733 120.0
1281.363403 136.0
1281.527344 156.0
1282.425171 124.0
1283.016846 196.0
1283.109497 204.0
1283.644287 124.0
1284.735474 76.0
1285.69165 104.0
1286.369019 208.0
1286.755127 132.0
1287.183594 160.0
1288.590698 188.0
1289.062256 192.0
1289.112305 116.0
1289.276611 112.0
1289.44104 52.0
1289.541016 148.0
1291.493042 148.0
1291.829224 116.0
1292.329956 204.0
1292.473022 52.0
1292.544678 68.0
1293.768555 84.0
1294.069214 184.0
1295.000122 184.0
1296.36853 140.0
1296.734009 192.0
1296.805664 136.0
1297.042236 252.0
1297.465088 160.0
1298.318359 112.0
1298.992554 132.0
1299.480469 120.0
1299.552124 132.0
1299.953979 140.0
1300.879883 184.0
1301.655273 148.0
1302.473999 116.0
1303.134888 212.0
1303.551636 172.0
1304.313477 124.0
1304.370972 224.0
1304.550659 56.0
1306.20459 132.0
1307.161499 220.0
1307.535645 184.0
1307.62207 176.0
1308.356201 148.0
1308.925049 204.0
1309.709961 132.0
1310.120605 152.0
1310.718628 172.0
1311.172607 176.0
1311.648315 80.0
1311.922241 124.0
1312.023193 132.0
1312.794678 184.0
1314.137329 148.0
1314.331055 184.0
1314.641357 128.0
1316.381104 156.0
1317.580078 128.0
1317.702881 156.0
1318.281006 204.0
1318.401123 168.0
1318.533936 56.0
1318.606201 120.0
1319.676025 132.0
1319.755615 200.0
1320.247314 180.0
1321.53479 132.0
1321.686768 96.0
1321.838745 136.0
1322.72168 96.0
1323.706299 64.0
1323.756958 80.0
1324.452271 56.0
1324.85791 56.0
1325.08252 188.0
1326.244751 196.0
1326.560913 160.0
1327.728271 136.0
1328.185181 104.0
1328.620483 120.0
1328.794556 144.0
1330.187866 152.0
1330.23877 172.0
1330.296753 152.0
1330.514526 160.0
1331.139038 144.0
1331.356812 120.0
1331.778076 128.0
1332.526245 180.0
1332.598999 124.0
1332.841187 116.0
1333.02771 148.0
1333.223877 160.0
1333.65271 216.0
1335.463135 128.0
1335.586792 128.0
1335.807129 216.0
1336.248779 184.0
1336.306885 204.0
1336.641602 204.0
1336.707153 128.0
1337.456787 176.0
1337.878906 132.0
1337.929932 152.0
1338.789062 140.0
1339.427246 204.0
1339.59021 192.0
1340.573853 128.0
1340.814331 164.0
1341.164185 168.0
1341.390137 152.0
1341.93689 196.0
1342.53479 196.0
1343.126343 196.0
1343.599731 104.0
1344.176147 172.0
1344.337524 148.0
1344.884033 184.0
1346.0448 136.0
1347.162231 44.0
1347.257202 164.0
1347.593262 120.0
1347.944092 152.0
1348.009766 152.0
1348.857544 152.0
1349.157349 104.0
1350.056641 96.0
1350.276001 152.0
1351.080688 108.0
1351.497681 152.0
1351.783081 72.0
1351.952881 168.0
1352.456421 188.0
1352.507568 216.0
1352.602783 152.0
1352.983398 216.0
1353.51062 164.0
1353.715576 216.0
1353.869385 168.0
1354.177002 152.0
1354.638428 80.0
1354.726318 92.0
1354.784912 40.0
1355.678833 136.0
1355.949951 160.0
1356.155151 176.0
1356.851562 196.0
1357.407349 96.0
1357.540771 108.0
1357.606812 156.0
1357.716797 136.0
1358.52832 220.0
1359.523315 228.0
1359.983887 176.0
1360.124512 200.0
1360.866333 172.0
1361.098511 116.0
1361.687256 164.0
1362.274902 196.0
1362.348267 216.0
1362.700928 184.0
1362.842896 152.0
1363.097778 220.0
1363.156494 160.0
1363.884033 164.0
1364.200195 100.0
1364.259033 52.0
1364.310425 184.0
1364.66333 132.0
1364.773682 100.0
1364.949951 168.0
1365.361938 184.0
1366.075317 184.0
1368.761719 60.0
1370.197876 124.0
1371.583374 116.0
1371.767578 216.0
1372.246826 256.0
1372.976807 120.0
1373.116943 188.0
1373.530029 276.0
1373.810303 160.0
1373.9375 192.0
1374.289795 196.0
1374.363647 140.0
1375.161865 112.0
1375.330322 76.0
1375.655151 160.0
1376.570679 184.0
1377.309204 152.0
1377.515991 196.0
1377.7229 180.0
1378.173584 132.0
1378.23999 200.0
1378.772095 160.0
1378.979004 164.0
1379.378174 120.0
1381.552246 164.0
1382.469727 124.0
1382.991333 144.0
1383.646606 232.0
1383.831665 200.0
1384.283325 208.0
1384.692383 196.0
1385.061035 216.0
1385.379517 180.0
1385.468384 204.0
1385.661011 444.0
1385.727783 176.0
1386.046387 108.0
1386.105591 60.0
1386.74292 260.0
1388.084717 156.0
1389.405029 208.0
1389.620117 204.0
1389.953979 112.0
1390.043091 100.0
1390.584839 152.0
1390.978271 136.0
1391.260254 152.0
1392.949585 132.0
1393.651733 120.0
1394.699585 124.0
1394.833374 60.0
1395.063843 104.0
1395.368652 340.0
1395.755249 184.0
1395.814697 148.0
1396.7146 160.0
1397.168457 172.0
1397.314087 152.0
1397.376709 128.0
1397.718994 160.0
1397.778442 160.0
1398.478027 172.0
1398.90979 216.0
1399.401123 80.0
1399.900024 116.0
1399.952148 184.0
1400.026611 184.0
1400.510742 224.0
1400.577759 108.0
1400.749023 28.0
1401.993286 100.0
1402.283936 48.0
1402.813232 176.0
1403.175903 176.0
1403.461792 152.0
1404.901245 172.0
1405.117554 264.0
1405.692139 172.0
1405.766724 168.0
1406.542847 156.0
1406.940918 204.0
1407.06543 148.0
1407.22229 128.0
1407.431274 92.0
1407.550781 128.0
1407.737427 148.0
1408.140747 148.0
1411.002686 108.0
1411.451294 300.0
1411.608276 128.0
1412.184082 148.0
1412.528198 116.0
1413.559082 240.0
1413.987183 208.0
1414.301514 184.0
1414.503662 176.0
1414.705811 192.0
1414.818115 116.0
1415.012695 196.0
1415.37207 172.0
1416.433716 196.0
1416.645264 164.0
1417.304565 136.0
1417.596802 92.0
1417.754272 188.0
1418.161621 296.0
1418.301392 128.0
1418.368774 176.0
1419.140991 168.0
1419.470825 48.0
1419.96582 136.0
1420.138306 156.0
1420.189819 148.0
1420.384888 196.0
1420.55835 180.0
1420.865967 132.0
1421.366211 200.0
1422.539429 136.0
1422.62207 36.0
1423.004883 124.0
1423.282715 100.0
1423.485474 212.0
1423.613159 80.0
1423.785889 140.0
1423.890991 180.0
1424.724731 128.0
1424.965088 172.0
1425.641357 168.0
1425.979614 200.0
1426.152466 208.0
1426.859009 148.0
1427.114746 96.0
1427.851562 208.0
1428.069702 140.0
1428.829468 96.0
1428.89209 212.0
1429.152954 160.0
1429.250854 152.0
1430.086182 128.0
1430.342041 120.0
1431.237915 192.0
1431.727417 152.0
1432.269653 124.0
1432.435425 164.0
1432.774414 48.0
1433.022949 168.0
1433.173706 56.0
1433.384644 184.0
1433.663452 152.0
1433.716187 216.0
1433.836792 204.0
1434.078003 148.0
1434.183472 192.0
1434.575439 116.0
1435.003296 80.0
1437.265137 164.0
1437.336914 176.0
1437.501831 128.0
1437.758423 204.0
1438.407593 128.0
1438.520752 172.0
1439.151245 140.0
1440.506714 236.0
1440.620117 216.0
1440.724731 156.0
1441.096069 132.0
1441.511597 156.0
1441.70813 196.0
1442.486572 164.0
1442.970459 204.0
1443.280396 212.0
1443.703857 160.0
1443.983643 124.0
1444.558472 148.0
1445.350464 196.0
1446.336792 180.0
1446.548706 188.0
1447.131592 116.0
1447.457153 140.0
1447.616211 136.0
1447.744995 104.0
1447.81311 148.0
1447.934326 152.0
1448.411499 128.0
1448.470703 232.0
1448.820557 176.0
1448.881104 64.0
1449.093262 208.0
1449.941895 160.0
1450.222412 196.0
1450.290527 164.0
1450.495239 196.0
1450.631714 48.0
1450.722656 216.0
1451.162354 60.0
1451.71582 112.0
1452.026855 88.0
1452.239136 160.0
1452.643433 152.0
1452.876343 128.0
1454.302979 132.0
1454.591309 196.0
1455.175903 188.0
1455.76062 160.0
1456.390869 160.0
1457.682495 132.0
1458.024414 120.0
1458.115601 168.0
1458.267578 196.0
1458.594482 160.0
1458.685669 144.0
1458.883301 164.0
1458.944092 92.0
1458.997314 104.0
1459.065796 244.0
1459.233032 132.0
1459.772827 172.0
1460.115112 144.0
1460.297607 104.0
1460.419312 176.0
1460.58667 172.0
1460.830078 108.0
1461.233276 132.0
1462.130737 144.0
1462.564941 56.0
1463.014038 184.0
1463.752563 208.0
1464.293091 156.0
1464.49707 128.0
1465.276001 156.0
1465.649292 164.0
1465.786377 228.0
1465.968872 128.0
1466.182739 232.0
1466.754272 60.0
1466.929688 124.0
1467.188843 36.0
1467.608154 84.0
1468.065674 192.0
1468.180054 152.0
1468.233398 64.0
1468.843628 204.0
1468.950439 140.0
1470.579468 140.0
1470.629028 232.0
1470.758789 108.0
1470.835205 228.0
1471.043213 176.0
1471.155762 140.0
1471.484009 184.0
1471.842896 92.0
1472.271484 156.0
1472.3927 204.0
1472.660034 132.0
1472.751709 148.0
1472.927368 200.0
1473.103027 20.0
1473.225342 108.0
1473.294067 220.0
1473.439209 208.0
1474.264404 156.0
1474.55481 44.0
1474.768799 124.0
1475.005737 156.0
1475.147827 216.0
1476.129639 156.0
1476.588501 232.0
1477.835327 164.0
1478.034302 140.0
1478.370972 44.0
1478.600586 144.0
1479.151611 136.0
1479.972778 212.0
1480.123901 168.0
1480.391968 164.0
1480.537476 156.0
1481.234375 168.0
1481.456543 168.0
1481.632812 160.0
1482.084839 108.0
1482.245728 56.0
1482.383667 196.0
1483.694336 136.0
1485.12146 172.0
1485.28894 144.0
1485.5271 184.0
1485.642212 180.0
1486.133179 220.0
1487.084717 132.0
1487.675781 148.0
1488.054932 268.0
1488.781372 152.0
1489.83374 136.0
1490.08728 148.0
1490.486816 144.0
1491.539673 172.0
1492.128662 184.0
1492.772095 256.0
1492.923584 168.0
1493.20813 20.0
1493.677246 152.0
1494.077271 196.0
1494.285034 188.0
1495.277588 108.0
1495.616333 120.0
1495.911743 156.0
1496.587769 148.0
1497.109863 184.0
1497.171509 128.0
1497.279297 116.0
1497.810791 140.0
1498.003296 216.0
1498.311523 144.0
1498.642822 168.0
1499.83728 232.0
1500.623535 156.0
1501.464111 248.0
1501.687744 84.0
1501.903687 184.0
1501.973145 196.0
1502.837891 172.0
1503.454468 120.0
1503.647949 156.0
1504.017822 184.0
