>compound Microcystin LR
>formula C49H74N10O12 
>ionization [M+H]+
>parentmass 995.5560442600906
#inchi InChI=1S/C49H74N10O12/c1-26(2)23-37-46(66)58-40(48(69)70)30(6)42(62)55-35(17-14-22-52-49(50)51)45(65)54-34(19-18-27(3)24-28(4)38(71-10)25-33-15-12-11-13-16-33)29(5)41(61)56-36(47(67)68)20-21-39(60)59(9)32(8)44(64)53-31(7)43(63)57-37/h11-13,15-16,18-19,24,26,28-31,34-38,40H,8,14,17,20-23,25H2,1-7,9-10H3,(H,53,64)(H,54,65)(H,55,62)(H,56,61)(H,57,63)(H,58,66)(H,67,68)(H,69,70)(H4,50,51,52)/b19-18+,27-24+/t28-,29-,30-,31+,34-,35-,36+,37-,38-,40+/m0/s1
#inchikey ZYZCGGRZINLQBL
#Ion_Source LC-ESI
#Instrument LCQ
#Compound_Source Commercial
#PI Gerwick
#Data_Collector E Briand
#Scan -1
#Precursor_MZ 995.61
#ExactMass 995.556
#Charge 1
#CAS_Number 101043-37-2
#Pubmed_ID N/A
#Smiles N/A
#INCHI_AUX N/A
#Library_Class 1
#SpectrumID CCMSLIB00000071748
#IonMode Positive
#UpdateWorkflowName UPDATE-SINGLE-ANNOTATED-GOLD
#LibraryQualityString Gold
#TaskID 6e221885dc494bf18708e4b1149ba4da
##Scan# 420
#SpectrumFile MCLR_Std_MSMS.mzXML
#LibraryName gnps_library.mgf
#MQScore -1
#Organism GNPS_Standard_Enora
#TIC_Query 0
#RT_Query -1
#MZErrorPPM -1
#SharedPeaks 0
#MassDiff 0
#LibMZ -1
#SpecMZ 995.61
#SpecCharge 0
#internalFilename spec-00000.mgf

>collision 10
347.733948 17186.0
374.963928 73709.0
375.657715 15.0
397.023315 9550.0
414.038513 8404.0
445.132568 14050.0
452.370605 6199.0
470.021851 18255.0
477.118652 9070.0
505.043579 28773.0
535.162842 18506.0
544.931885 14670.0
552.427734 44315.0
553.105225 21559.0
571.38208 28404.0
582.075562 15976.0
599.199707 121123.0
599.883301 8.0
636.718262 6820.0
668.154541 16128.0
681.297119 18205.0
687.802734 15285.0
710.151733 16305.0
725.33252 37043.0
744.570312 11089.0
753.617554 7434.0
778.084473 17132.0
838.480469 11528.0
844.021118 29114.0
861.421387 11980.0
865.511719 37155.0
866.420288 61995.0
882.980469 12467.0
890.563354 19213.0
894.412476 25282.0
907.356323 32865.0
910.404053 9530.0
923.338501 53501.0
924.0 1.0
928.264526 19404.0
928.883301 4.0
933.300903 10399.0
936.401733 30671.0
946.099243 6281.0
951.219482 40251.0
963.045288 17996.0
963.960571 18636.0
967.362427 95781.0
977.398926 128825.0
978.402344 57960.0
