>compound MLS002154033-01!Roxithromycin80214-83-1
>formula C41H76N2O15
>ionization [M+H]+
>parentmass 837.530762
#inchi InChI=1S/C41H76N2O15/c1-15-29-41(10,49)34(45)24(4)31(42-53-21-52-17-16-50-13)22(2)19-39(8,48)36(58-38-32(44)28(43(11)12)18-23(3)54-38)25(5)33(26(6)37(47)56-29)57-30-20-40(9,51-14)35(46)27(7)55-30/h22-30,32-36,38,44-46,48-49H,15-21H2,1-14H3/t22?,23?,24?,25?,26?,27?,28?,29?,30?,32?,33?,34?,35?,36?,38-,39+,40+,41+/m0/s1
#inchikey RXZBMPWDPOLZGW
#Ion_Source LC-ESI
#Instrument qTof
#Compound_Source NIH Pharmacologically Active Library
#PI Dorrestein
#Data_Collector VP/LMS
#Scan -1
#Precursor_MZ 837.545
#ExactMass 836.525
#Charge 1
#CAS_Number N/A
#Pubmed_ID N/A
#Smiles CCC1OC(=O)C(C)C(OC2C[C@@](C)(OC)C(O)C(C)O2)C(C)C(O[C@@H]3OC(C)CC(C3O)N(C)C)[C@](C)(O)CC(C)C(=NOCOCCOC)C(C)C(O)[C@]1(C)O
#INCHI_AUX N/A
#Library_Class 1
#SpectrumID CCMSLIB00000085629
#IonMode Positive
#UpdateWorkflowName UPDATE-SINGLE-ANNOTATED-GOLD
#LibraryQualityString Gold
#TaskID d252d724072548979f1f6f1ced849daf
##Scan# 1815
#SpectrumFile p4-D07_GD7_01_18367.mzXML
#LibraryName Pharm_Active_Library.mgf
#MQScore -1
#Organism Pharm_Active_Library
#TIC_Query 0
#RT_Query -1
#MZErrorPPM -1
#SharedPeaks 0
#MassDiff 0
#LibMZ -1
#SpecMZ 837.545
#SpecCharge 0
#internalFilename spec-00000.mgf

>collision 10
44.908222 80.0
44.935448 196.0
44.96159 184.0
45.013611 120.0
45.029678 96.0
45.039028 76.0
45.065006 144.0
45.07906 104.0
45.101791 132.0
45.127697 180.0
45.138939 180.0
45.1441 136.0
45.149586 128.0
45.155579 228.0
45.18148 156.0
45.192768 232.0
45.224888 148.0
45.239613 152.0
45.248981 104.0
45.258354 180.0
45.267727 156.0
45.306847 232.0
45.329742 180.0
45.347691 128.0
45.363499 152.0
45.40279 148.0
45.424679 240.0
45.488953 60.0
45.535946 208.0
45.549377 196.0
45.5625 132.0
45.572216 164.0
45.595062 124.0
45.607067 176.0
45.638428 468.0
45.662285 184.0
45.687027 132.0
45.699512 160.0
45.718788 124.0
45.753769 336.0
45.768597 208.0
45.779999 408.0
45.811352 236.0
45.823925 136.0
45.835781 132.0
45.854115 208.0
45.876381 172.0
45.909134 164.0
45.942459 100.0
45.978893 216.0
45.988338 208.0
46.003864 152.0
46.026138 164.0
46.040993 172.0
46.054501 208.0
46.074764 144.0
46.095032 100.0
46.104488 148.0
46.115303 84.0
46.130604 212.0
46.140919 128.0
46.15868 192.0
46.202389 248.0
46.220192 100.0
46.251301 168.0
46.282337 144.0
46.288216 108.0
46.317028 180.0
46.334518 156.0
46.347904 164.0
46.371666 176.0
46.390671 120.0
46.413132 144.0
46.447037 88.0
46.457577 156.0
46.462502 120.0
46.47245 316.0
46.509846 348.0
46.536865 168.0
46.545952 240.0
46.565121 212.0
46.586178 124.0
46.609985 168.0
46.622906 188.0
46.633831 140.0
46.64529 216.0
46.690643 260.0
46.705856 184.0
46.724163 196.0
46.751377 44.0
46.780182 172.0
46.805828 364.0
46.829845 196.0
46.852856 228.0
46.875301 52.0
46.893017 172.0
46.913464 152.0
46.922585 188.0
46.944824 180.0
46.974831 72.0
47.020527 132.0
47.033504 156.0
47.052143 92.0
47.060379 228.0
47.09935 72.0
47.109974 220.0
47.1619 168.0
47.174202 156.0
47.235119 132.0
47.251171 164.0
47.267059 232.0
47.280792 168.0
47.294579 288.0
47.327118 156.0
47.346607 128.0
47.359936 164.0
47.379478 152.0
47.390381 184.0
47.41547 196.0
47.448639 276.0
47.465904 148.0
47.47543 196.0
47.50423 208.0
47.53167 52.0
47.557747 124.0
47.58321 196.0
47.598682 176.0
47.613369 168.0
47.629147 160.0
47.645206 116.0
47.659412 136.0
47.679199 84.0
47.700176 208.0
47.728096 48.0
47.758354 156.0
47.776234 260.0
47.794121 100.0
47.809975 100.0
47.838097 168.0
47.885899 132.0
47.90564 160.0
47.915783 176.0
47.930439 128.0
47.951111 132.0
47.963516 184.0
47.980057 392.0
48.00005 224.0
48.018669 176.0
48.030479 140.0
48.064819 220.0
48.109329 188.0
48.133991 184.0
48.167736 200.0
48.186569 76.0
48.194794 308.0
48.214714 160.0
48.239594 116.0
48.261223 108.0
48.290756 164.0
48.32534 236.0
48.334797 156.0
48.35284 220.0
48.373779 108.0
48.389828 108.0
48.413929 148.0
48.424789 200.0
48.452209 220.0
48.490128 92.0
48.502602 148.0
48.515079 172.0
48.552425 136.0
48.573322 128.0
48.587193 120.0
48.606621 152.0
48.639374 140.0
48.656361 196.0
48.678802 108.0
48.705898 212.0
48.728588 152.0
48.744835 164.0
48.75066 88.0
48.752945 140.0
48.765057 184.0
48.791775 380.0
48.817905 120.0
48.848366 164.0
48.873665 212.0
48.910984 136.0
48.93465 216.0
48.947182 148.0
48.959713 124.0
48.972248 140.0
48.986179 156.0
49.029373 132.0
49.050278 48.0
49.068771 136.0
49.096554 148.0
49.108212 240.0
49.116405 204.0
49.142735 216.0
49.182793 120.0
49.193958 256.0
49.21909 100.0
49.250683 392.0
49.323872 164.0
49.374691 136.0
49.388855 244.0
49.413372 104.0
49.425964 124.0
49.459496 196.0
49.472153 184.0
49.483353 196.0
49.494553 152.0
49.511356 176.0
49.533115 172.0
49.558285 168.0
49.582474 152.0
49.598225 88.0
49.637791 144.0
49.692184 136.0
49.718845 36.0
49.773411 156.0
49.799572 156.0
49.809124 120.0
49.862095 100.0
49.895832 188.0
49.906425 172.0
49.950676 88.0
49.973186 88.0
49.986813 140.0
50.018219 60.0
50.030888 232.0
50.049603 164.0
50.069706 176.0
50.074272 188.0
50.092854 192.0
50.10553 208.0
50.127174 200.0
50.159081 40.0
50.170361 104.0
50.18325 168.0
50.194328 128.0
50.208431 172.0
50.229588 44.0
50.247925 140.0
50.303925 188.0
50.321316 164.0
50.346733 148.0
50.365505 196.0
50.380093 136.0
50.409111 156.0
50.442253 192.0
50.453362 320.0
50.483616 200.0
50.486496 144.0
50.495674 216.0
50.506844 156.0
50.521923 204.0
50.539532 152.0
50.553131 92.0
50.563038 224.0
50.58493 184.0
50.599842 168.0
50.632339 80.0
50.651787 188.0
50.678761 164.0
50.708916 292.0
50.725925 136.0
50.7509 156.0
50.803921 172.0
50.822685 160.0
50.876297 108.0
50.889462 220.0
50.903275 96.0
50.940277 148.0
50.958672 148.0
50.970039 116.0
50.986912 192.0
50.997974 140.0
51.014095 100.0
51.037804 156.0
51.04121 176.0
51.046173 140.0
51.076664 156.0
51.106541 120.0
51.147022 168.0
51.170589 188.0
51.18198 160.0
51.194798 108.0
51.207581 172.0
51.251774 152.0
51.275776 152.0
51.317341 140.0
51.334454 68.0
51.35014 48.0
51.368683 148.0
51.38723 136.0
51.402283 196.0
51.415768 184.0
51.448536 188.0
51.462875 184.0
51.475285 156.0
51.508282 196.0
51.530449 300.0
51.557327 328.0
51.567936 132.0
51.587963 204.0
51.605576 164.0
51.618622 280.0
51.64064 132.0
51.652439 224.0
51.692577 172.0
51.710812 136.0
51.732098 168.0
51.745968 72.0
51.77803 288.0
51.789173 120.0
51.830391 136.0
51.853405 104.0
51.871288 168.0
51.881878 176.0
51.905014 208.0
51.915051 136.0
51.942303 136.0
51.994881 124.0
52.010803 212.0
52.02132 180.0
52.068375 268.0
52.088718 108.0
52.100212 136.0
52.117104 148.0
52.149067 116.0
52.167755 188.0
52.188908 140.0
52.20985 120.0
52.241096 144.0
52.25692 104.0
52.323898 164.0
52.33997 172.0
52.359085 148.0
52.374966 56.0
52.385052 124.0
52.414604 232.0
52.428997 124.0
52.462868 48.0
52.480171 120.0
52.490601 188.0
52.514816 160.0
52.529575 152.0
52.552879 176.0
52.555447 212.0
52.562016 280.0
52.579704 116.0
52.594139 56.0
52.608017 52.0
52.63023 124.0
52.658459 168.0
52.675259 184.0
52.70245 132.0
52.73135 100.0
52.759541 156.0
52.770252 180.0
52.79641 172.0
52.80798 156.0
52.818104 208.0
52.83836 136.0
52.848488 40.0
52.877426 72.0
52.889771 148.0
52.909111 108.0
52.968647 176.0
52.978786 96.0
53.020809 120.0
53.047226 124.0
53.072994 124.0
53.090393 108.0
53.109249 128.0
53.119404 116.0
53.139008 148.0
53.18082 172.0
53.186466 156.0
53.215187 116.0
53.229706 200.0
53.251492 160.0
53.264351 136.0
53.289261 348.0
53.319019 192.0
53.369202 168.0
53.389557 108.0
53.42374 152.0
53.449215 268.0
53.523701 664.0
53.543533 200.0
53.566956 264.0
53.578033 124.0
53.597652 120.0
53.647243 168.0
53.649044 152.0
53.668484 132.0
53.675289 188.0
53.688889 312.0
53.704147 96.0
53.715816 204.0
53.747913 160.0
53.7771 168.0
53.798534 164.0
53.811954 144.0
53.8428 224.0
53.854839 148.0
53.885162 160.0
53.905781 180.0
53.919407 184.0
53.931927 148.0
53.948006 88.0
53.962814 196.0
53.975784 92.0
53.994797 164.0
54.012348 76.0
54.022587 180.0
54.040108 172.0
54.055779 140.0
54.086483 192.0
54.110394 160.0
54.123573 168.0
54.14238 204.0
54.174835 140.0
54.191559 152.0
54.209099 152.0
54.231983 248.0
54.275928 168.0
54.289593 216.0
54.322895 152.0
54.350769 132.0
54.371639 212.0
54.387459 188.0
54.401127 180.0
54.427376 148.0
54.448952 136.0
54.479973 132.0
54.490253 184.0
54.519642 264.0
54.553448 176.0
54.571758 212.0
54.615192 212.0
54.628448 116.0
54.653419 152.0
54.678474 132.0
54.698189 204.0
54.71233 124.0
54.733459 148.0
54.753132 192.0
54.764969 236.0
54.794804 216.0
54.838646 192.0
54.856701 176.0
54.904846 180.0
54.959938 192.0
54.973866 164.0
54.990929 116.0
55.010277 372.0
55.022972 136.0
55.039646 304.0
55.076569 164.0
55.089863 140.0
55.114979 172.0
55.160843 116.0
55.17635 168.0
55.186295 128.0
55.201794 208.0
55.23473 140.0
55.25396 148.0
55.289837 180.0
55.319271 212.0
55.342926 204.0
55.382748 148.0
55.403488 40.0
55.41534 208.0
55.437565 176.0
55.460499 220.0
55.499439 200.0
55.520584 156.0
55.573895 236.0
55.611874 328.0
55.632828 136.0
55.643745 176.0
55.658592 80.0
55.691265 100.0
55.711975 136.0
55.737011 184.0
55.748432 92.0
55.76704 152.0
55.786068 260.0
55.845844 252.0
55.865181 176.0
55.876991 132.0
55.896179 312.0
55.912796 128.0
55.925198 108.0
55.955006 156.0
55.987381 160.0
56.017765 272.0
56.032394 188.0
56.061722 308.0
56.128582 216.0
56.143715 320.0
56.156059 172.0
56.168472 120.0
56.197414 212.0
56.224274 124.0
56.237705 128.0
56.258606 52.0
56.287102 140.0
56.322002 132.0
56.356308 144.0
56.384033 144.0
56.402184 224.0
56.439384 140.0
56.465862 136.0
56.484184 176.0
56.513958 168.0
56.540905 208.0
56.574039 32.0
56.606548 280.0
56.665394 108.0
56.699287 200.0
56.713348 180.0
56.749325 132.0
56.76582 132.0
56.797314 84.0
56.82209 272.0
56.837822 184.0
56.863335 164.0
56.899361 220.0
56.933895 168.0
56.945911 128.0
56.966438 264.0
57.010578 184.0
57.030052 156.0
57.040573 204.0
57.051556 164.0
57.078159 212.0
57.100754 160.0
57.118767 144.0
57.159607 136.0
57.189487 40.0
57.20755 68.0
57.230373 224.0
57.25441 164.0
57.27734 212.0
57.294895 48.0
57.31147 132.0
57.328045 272.0
57.342842 220.0
57.372105 132.0
57.385323 132.0
57.402618 176.0
57.413975 100.0
57.442631 112.0
57.469994 88.0
57.501011 168.0
57.520596 120.0
57.524597 176.0
57.559628 356.0
57.578476 188.0
57.5966 92.0
57.607174 164.0
57.626812 68.0
57.654015 68.0
57.670639 132.0
57.683765 200.0
57.711235 164.0
57.726578 72.0
57.749531 176.0
57.799942 184.0
57.823444 128.0
57.835266 176.0
57.840332 148.0
57.861279 156.0
57.874844 148.0
57.891525 192.0
57.928711 168.0
57.955738 160.0
58.00819 144.0
58.045689 180.0
58.066998 176.0
58.080723 192.0
58.10828 188.0
58.131042 200.0
58.143181 196.0
58.163414 172.0
58.183208 168.0
58.196178 216.0
58.206871 180.0
58.212433 136.0
58.227909 208.0
58.270275 132.0
58.292007 244.0
58.313282 200.0
58.355846 60.0
58.380177 220.0
58.404575 176.0
58.448631 168.0
58.467457 140.0
58.480587 248.0
58.511032 108.0
58.539719 216.0
58.569744 224.0
58.594799 156.0
58.652706 164.0
58.672184 180.0
58.701492 52.0
58.715218 188.0
58.736572 104.0
58.76186 132.0
58.780815 160.0
58.794109 236.0
58.825077 64.0
58.841869 216.0
58.87088 112.0
58.887539 172.0
58.89336 156.0
58.896847 128.0
58.919758 36.0
58.931984 48.0
58.952129 152.0
58.962543 332.0
58.977829 152.0
58.989548 168.0
59.00135 196.0
59.024563 204.0
59.040947 212.0
59.078754 100.0
59.109642 192.0
59.127716 140.0
59.178585 208.0
59.18895 304.0
59.204605 180.0
59.221111 184.0
59.247154 52.0
59.26329 180.0
59.285458 52.0
59.339108 132.0
59.352905 164.0
59.41119 152.0
59.447857 196.0
59.450089 208.0
59.458374 288.0
59.4613 280.0
59.503967 236.0
59.546619 192.0
59.573917 92.0
59.623882 172.0
59.641392 400.0
59.658188 124.0
59.679962 100.0
59.69693 116.0
59.718407 128.0
59.736034 184.0
59.766098 92.0
59.781487 124.0
59.798454 300.0
59.826736 120.0
59.850754 124.0
59.864613 108.0
59.883606 180.0
59.896957 128.0
59.907742 116.0
59.946259 116.0
59.972042 208.0
59.983597 248.0
60.004833 120.0
60.030273 176.0
60.043381 328.0
60.108635 188.0
60.152313 132.0
60.175346 200.0
60.200794 88.0
60.221947 264.0
60.24287 132.0
60.276485 140.0
60.293488 92.0
60.329594 128.0
60.381611 156.0
60.408104 156.0
60.432659 100.0
60.455868 164.0
60.51292 144.0
60.520081 116.0
60.540489 280.0
60.554951 164.0
60.567814 164.0
60.638672 204.0
60.660561 128.0
60.6842 148.0
60.702179 152.0
60.719238 200.0
60.746277 212.0
60.763992 216.0
60.775745 192.0
60.789047 44.0
60.806206 144.0
60.835609 124.0
60.862003 188.0
60.874428 204.0
60.888405 132.0
60.942772 64.0
60.985558 128.0
60.988705 180.0
60.994553 176.0
61.023594 176.0
61.036034 172.0
61.046921 116.0
61.060917 192.0
61.092598 152.0
61.12801 188.0
61.148445 200.0
61.176727 112.0
61.192963 140.0
61.197388 120.0
61.225883 276.0
61.260151 192.0
61.274174 156.0
61.299244 132.0
61.320923 152.0
61.331902 176.0
61.364571 240.0
61.398941 192.0
61.422173 128.0
61.448792 204.0
61.460648 132.0
61.478561 180.0
61.497246 160.0
61.507027 176.0
61.522766 180.0
61.545155 108.0
61.570545 372.0
61.581478 120.0
61.595535 44.0
61.610577 204.0
61.634594 116.0
61.650219 212.0
61.666023 144.0
61.679916 108.0
61.698677 160.0
61.714607 148.0
61.73407 168.0
61.764355 116.0
61.775303 100.0
61.787819 284.0
61.801682 212.0
61.813637 104.0
61.831635 140.0
61.859055 112.0
61.885395 232.0
61.908344 136.0
61.951279 292.0
61.970009 180.0
61.983536 84.0
61.999207 144.0
62.030556 132.0
62.045303 108.0
62.061325 172.0
62.067833 184.0
62.083088 308.0
62.104252 152.0
62.124973 76.0
62.138786 140.0
62.158619 104.0
62.221176 196.0
62.237644 228.0
62.274933 140.0
62.29388 124.0
62.301579 68.0
62.304562 172.0
62.319321 164.0
62.33189 136.0
62.43829 176.0
62.451374 96.0
62.47554 176.0
62.493847 164.0
62.507572 352.0
62.520599 148.0
62.533855 208.0
62.572544 156.0
62.599312 184.0
62.620037 224.0
62.640709 140.0
62.659164 196.0
62.687473 128.0
62.715069 128.0
62.73481 168.0
62.759216 148.0
62.794731 124.0
62.814373 176.0
62.85463 128.0
62.887253 156.0
62.8988 188.0
62.934361 116.0
62.962025 120.0
62.982662 176.0
63.01165 100.0
63.042591 100.0
63.064911 160.0
63.101078 156.0
63.130962 160.0
63.157234 168.0
63.181736 284.0
63.205467 180.0
63.259281 116.0
63.303612 96.0
63.357319 176.0
63.381737 188.0
63.408829 184.0
63.466824 176.0
63.481873 204.0
63.528172 100.0
63.573181 164.0
63.60326 144.0
63.614372 224.0
63.628658 188.0
63.641361 168.0
63.673122 136.0
63.695358 108.0
63.730587 136.0
63.750965 148.0
63.768448 156.0
63.782753 244.0
63.809776 168.0
63.824047 152.0
63.827354 148.0
63.862774 132.0
63.874981 320.0
63.886116 160.0
63.92012 312.0
63.97205 248.0
63.989685 152.0
64.001389 244.0
64.022797 172.0
64.065392 184.0
64.09787 276.0
64.112213 96.0
64.124962 148.0
64.139305 92.0
64.153656 232.0
64.191917 100.0
64.206177 136.0
64.231796 128.0
64.244553 280.0
64.271675 72.0
64.295616 184.0
64.323349 160.0
64.349884 164.0
64.368332 260.0
64.389809 176.0
64.407379 104.0
64.428726 328.0
64.448837 172.0
64.471909 244.0
64.48262 164.0
64.518669 112.0
64.546181 188.0
64.576805 136.0
64.605255 112.0
64.629189 160.0
64.663239 168.0
64.717476 124.0
64.791306 84.0
64.835167 160.0
64.84697 184.0
64.851585 136.0
64.869003 156.0
64.888885 108.0
64.894371 116.0
64.933647 160.0
64.969856 252.0
64.982376 156.0
65.009888 148.0
65.027023 236.0
65.043076 104.0
65.067177 276.0
65.085007 132.0
65.100868 84.0
65.115326 144.0
65.165123 164.0
65.187622 224.0
65.203445 180.0
65.22007 124.0
65.251915 204.0
65.270844 160.0
65.289574 124.0
65.302094 104.0
65.314629 176.0
65.34198 124.0
65.387032 136.0
65.411583 204.0
65.422447 224.0
65.44252 168.0
65.454742 136.0
65.477318 152.0
65.506187 188.0
65.53196 112.0
65.560791 112.0
65.574707 212.0
65.580399 140.0
65.603882 140.0
65.616982 184.0
65.74659 188.0
65.794853 216.0
65.84491 224.0
65.870865 56.0
65.885292 108.0
65.926254 180.0
65.941841 140.0
65.97094 188.0
65.983871 148.0
66.002388 164.0
66.017494 136.0
66.039406 140.0
66.07444 120.0
66.097664 272.0
66.121368 272.0
66.132462 164.0
66.154663 128.0
66.169884 140.0
66.203041 152.0
66.221558 68.0
66.258759 184.0
66.284927 196.0
66.316238 188.0
66.339439 152.0
66.34481 220.0
66.361115 132.0
66.377769 192.0
66.391922 192.0
66.406471 140.0
66.409904 136.0
66.416336 152.0
66.432877 216.0
66.451118 396.0
66.489174 148.0
66.520103 336.0
66.536331 168.0
66.550949 164.0
66.571548 116.0
66.614532 132.0
66.629013 180.0
66.6614 172.0
66.682533 152.0
66.697159 184.0
66.728386 180.0
66.785439 136.0
66.819504 224.0
66.841148 216.0
66.88858 212.0
66.914291 164.0
66.948952 168.0
66.996094 148.0
67.024025 132.0
67.05983 132.0
67.077011 348.0
67.097221 148.0
67.160866 208.0
67.174271 176.0
67.190582 280.0
67.234634 172.0
67.265732 156.0
67.288269 416.0
67.306465 116.0
67.333336 412.0
67.357094 96.0
67.378326 120.0
67.393036 76.0
67.416763 148.0
67.435524 160.0
67.460045 72.0
67.476387 132.0
67.49572 156.0
67.501732 128.0
67.538528 304.0
67.564705 108.0
67.602341 176.0
67.632561 120.0
67.64489 200.0
67.677635 140.0
67.720215 152.0
67.752449 260.0
67.77919 144.0
67.797218 180.0
67.820953 108.0
67.836555 140.0
67.91526 100.0
67.936584 308.0
67.948067 124.0
67.959557 156.0
67.995621 180.0
68.030083 164.0
68.056396 180.0
68.070328 152.0
68.126038 148.0
68.132294 188.0
68.148376 168.0
68.173019 124.0
68.199318 112.0
68.229622 148.0
68.243568 148.0
68.256813 148.0
68.276596 100.0
68.296326 216.0
68.31649 156.0
68.354874 212.0
68.375305 176.0
68.398346 124.0
68.424683 176.0
68.437859 180.0
68.456772 144.0
68.485619 124.0
68.498367 116.0
68.52755 140.0
68.589424 164.0
68.60096 140.0
68.643677 132.0
68.670219 208.0
68.684418 144.0
68.702972 200.0
68.719704 260.0
68.737854 96.0
68.749405 160.0
68.780807 168.0
68.819572 192.0
68.825706 232.0
68.850113 136.0
68.871582 288.0
68.892616 136.0
68.917839 236.0
68.975677 164.0
69.00544 184.0
69.096161 200.0
69.109398 244.0
69.137772 140.0
69.172523 104.0
69.21888 76.0
69.232132 116.0
69.250351 120.0
69.270226 144.0
69.305016 124.0
69.341476 136.0
69.38623 168.0
69.400375 144.0
69.416077 160.0
69.454224 188.0
69.484077 164.0
69.49733 172.0
69.528885 272.0
69.565399 104.0
69.599693 208.0
69.631821 112.0
69.67569 108.0
69.696426 152.0
69.723091 128.0
69.741478 160.0
69.769081 204.0
69.819618 140.0
69.861359 288.0
69.87809 132.0
69.893509 152.0
69.931854 408.0
69.952431 148.0
69.958588 228.0
69.966484 124.0
69.99102 216.0
70.003288 104.0
70.021362 128.0
70.064545 164.0
70.075966 192.0
70.115959 208.0
70.135956 44.0
70.182098 224.0
70.195976 104.0
70.219025 176.0
70.223358 144.0
70.22998 236.0
70.251015 196.0
70.271126 152.0
70.287605 168.0
70.302582 160.0
70.329597 132.0
70.342796 156.0
70.356155 164.0
70.384537 180.0
70.396675 108.0
70.414597 68.0
70.439308 224.0
70.445999 60.0
70.449257 184.0
70.48806 152.0
70.51403 152.0
70.536339 164.0
70.558304 132.0
70.573349 192.0
70.586723 140.0
70.601776 152.0
70.615814 208.0
70.647995 380.0
70.67292 168.0
70.709061 192.0
70.735626 116.0
70.770782 144.0
70.802879 244.0
70.831978 168.0
70.843376 176.0
70.857483 252.0
70.887566 156.0
70.935059 216.0
70.980377 152.0
70.99794 208.0
71.039597 204.0
71.052361 184.0
71.077522 116.0
71.099342 52.0
71.121162 168.0
71.181145 192.0
71.204521 148.0
71.235115 148.0
71.276711 152.0
71.299469 196.0
71.327698 188.0
71.356346 56.0
71.368111 400.0
71.38121 172.0
71.418564 132.0
71.432022 120.0
71.452461 188.0
71.470215 460.0
71.484177 64.0
71.501007 124.0
71.519524 228.0
71.53437 200.0
71.577705 172.0
71.584099 156.0
71.589119 236.0
71.602356 348.0
71.634735 132.0
71.639526 180.0
71.669403 116.0
71.683655 156.0
71.704796 136.0
71.725021 124.0
71.748619 48.0
71.784897 116.0
71.79583 184.0
71.825089 188.0
71.843658 192.0
71.861618 196.0
71.879547 168.0
71.893677 188.0
71.905495 160.0
71.916611 156.0
71.942627 160.0
71.969643 124.0
71.981461 124.0
71.999405 64.0
72.018616 132.0
72.035103 200.0
72.087883 188.0
72.125061 180.0
72.150238 224.0
72.1754 160.0
72.20137 92.0
72.22821 96.0
72.252174 144.0
72.265297 204.0
72.270775 176.0
72.275864 212.0
72.339149 148.0
72.354874 188.0
72.386787 224.0
72.400848 168.0
72.453354 148.0
72.497559 140.0
72.580849 108.0
72.609215 156.0
72.685638 172.0
72.699013 200.0
72.718422 152.0
72.731461 72.0
72.756927 48.0
72.794281 176.0
72.816483 168.0
72.860519 104.0
72.881958 188.0
72.888763 116.0
72.891434 144.0
72.911499 216.0
72.973923 160.0
72.996185 176.0
73.002075 144.0
73.008972 216.0
73.025406 120.0
73.039017 96.0
73.06295 168.0
73.076439 132.0
73.098564 32.0
73.121864 144.0
73.13694 312.0
73.158134 164.0
73.203949 344.0
73.219429 88.0
73.29818 160.0
73.318245 216.0
73.33699 188.0
73.354034 148.0
73.37326 188.0
73.391541 156.0
73.418831 264.0
73.433449 112.0
73.465797 144.0
73.511604 312.0
73.541939 152.0
73.55793 208.0
73.579224 92.0
73.591171 248.0
73.606575 204.0
73.637283 148.0
73.66803 152.0
73.686821 44.0
73.717415 168.0
73.753464 112.0
73.781631 128.0
73.813301 60.0
73.835098 204.0
73.857773 28.0
73.873161 128.0
73.885139 228.0
73.900536 212.0
73.926201 44.0
73.955299 164.0
73.967278 344.0
73.993721 144.0
74.039192 212.0
74.092293 192.0
74.11628 112.0
74.131699 152.0
74.168907 180.0
74.173637 128.0
74.186226 132.0
74.230988 168.0
74.258568 164.0
74.277298 228.0
74.291153 212.0
74.303169 104.0
74.316895 92.0
74.340912 136.0
74.37397 108.0
74.394119 112.0
74.469673 112.0
74.490288 80.0
74.506668 124.0
74.522926 112.0
74.534958 136.0
74.549553 144.0
74.579689 144.0
74.591675 220.0
74.612305 112.0
74.627396 164.0
74.672485 192.0
74.725494 196.0
74.72998 160.0
74.73616 164.0
74.781204 148.0
74.843819 192.0
74.861794 100.0
74.906578 248.0
74.921242 224.0
74.96196 192.0
74.984695 160.0
74.992569 44.0
74.998466 152.0
75.035828 144.0
75.078163 152.0
75.104805 156.0
75.122055 128.0
75.144478 180.0
75.156555 128.0
75.170364 208.0
75.184166 128.0
75.203918 144.0
75.210373 176.0
75.225594 144.0
75.248039 172.0
75.264481 168.0
75.307213 328.0
75.332657 156.0
75.351662 156.0
75.381226 180.0
75.408684 180.0
75.45636 116.0
75.469009 224.0
75.472107 152.0
75.520393 260.0
75.543556 152.0
75.564995 144.0
75.573204 204.0
75.611038 196.0
75.633537 88.0
75.668259 144.0
75.692406 180.0
75.725304 196.0
75.779007 168.0
75.810196 184.0
75.831482 128.0
75.857849 160.0
75.876068 244.0
75.888199 212.0
75.910744 160.0
75.922882 80.0
75.940224 60.0
75.95237 132.0
75.981857 144.0
76.015823 164.0
76.033913 196.0
76.059952 168.0
76.076515 176.0
76.143288 184.0
76.174553 144.0
76.195404 344.0
76.252747 220.0
76.270126 176.0
76.29657 208.0
76.320541 324.0
76.345421 248.0
76.413437 192.0
76.444893 160.0
76.46862 164.0
76.499245 56.0
76.554787 128.0
76.58149 156.0
76.603378 128.0
76.646034 152.0
76.677406 52.0
76.733185 168.0
76.753883 124.0
76.771545 168.0
76.797394 200.0
76.80265 120.0
76.816895 124.0
76.829109 100.0
76.921593 120.0
76.950378 132.0
76.978729 188.0
77.008553 160.0
77.052574 56.0
77.07354 76.0
77.091011 156.0
77.106743 204.0
77.125969 148.0
77.141701 160.0
77.18541 88.0
77.231537 212.0
77.250885 140.0
77.311234 172.0
77.32222 196.0
77.328339 160.0
77.33387 172.0
77.365616 156.0
77.376579 108.0
77.400635 312.0
77.413773 144.0
77.459618 136.0
77.486458 144.0
77.511742 112.0
77.54171 128.0
77.556557 120.0
77.606201 212.0
77.638962 128.0
77.655678 296.0
77.661179 132.0
77.667603 204.0
77.6856 88.0
77.730179 76.0
77.77581 164.0
77.836052 152.0
77.881874 216.0
77.896385 48.0
77.90242 120.0
77.914986 284.0
77.927849 312.0
77.95636 244.0
77.972939 204.0
77.990097 180.0
78.00592 136.0
78.03405 192.0
78.053391 52.0
78.065697 96.0
78.078011 152.0
78.097359 96.0
78.120224 96.0
78.1343 152.0
78.146324 264.0
78.158928 68.0
78.188843 56.0
78.238129 124.0
78.261345 172.0
78.303192 152.0
78.322769 188.0
78.343796 112.0
78.363174 100.0
78.37822 196.0
78.399323 140.0
78.419296 168.0
78.463638 200.0
78.484795 132.0
78.516533 112.0
78.535934 108.0
78.564156 192.0
78.613037 160.0
78.64505 280.0
78.693893 120.0
78.73008 88.0
78.777443 160.0
78.795433 156.0
78.82724 140.0
78.869247 192.0
78.899704 108.0
78.912079 76.0
78.924454 260.0
78.959824 148.0
78.989273 96.0
79.002274 144.0
79.022293 228.0
79.042969 116.0
79.062439 76.0
79.08625 184.0
79.12262 156.0
79.159615 192.0
79.1661 172.0
79.171646 168.0
79.218338 368.0
79.268723 164.0
79.285576 148.0
79.312874 220.0
79.361801 128.0
79.37883 104.0
79.391945 156.0
79.4105 160.0
79.429192 112.0
79.46521 140.0
79.480499 176.0
79.497696 200.0
79.517914 104.0
79.558739 96.0
79.584167 160.0
79.618027 256.0
79.635895 124.0
79.641747 188.0
79.693718 160.0
79.705933 152.0
79.729256 196.0
79.793602 240.0
79.820625 140.0
79.859962 168.0
79.902657 100.0
79.919792 160.0
79.950554 184.0
79.954582 80.0
79.961342 160.0
79.974388 164.0
79.992493 148.0
80.013855 176.0
80.027016 328.0
80.055969 184.0
80.074356 168.0
80.092209 124.0
80.123505 204.0
80.140312 144.0
80.175507 176.0
80.195557 176.0
80.219437 320.0
80.25795 184.0
80.273994 252.0
80.302528 136.0
80.327423 172.0
80.371544 240.0
80.410423 144.0
80.436356 112.0
80.457024 332.0
80.495857 188.0
80.508812 240.0
80.521248 212.0
80.644753 208.0
80.65152 224.0
80.677513 148.0
80.710594 168.0
80.754402 100.0
80.7705 136.0
80.865334 156.0
80.920456 136.0
80.944107 156.0
80.968773 424.0
81.006378 140.0
81.047997 108.0
81.067757 152.0
81.083839 100.0
81.101761 156.0
81.147324 140.0
81.168091 172.0
81.189651 240.0
81.211891 228.0
81.235214 104.0
81.247009 192.0
81.265923 380.0
81.276695 272.0
81.315903 184.0
81.350952 244.0
81.374435 196.0
81.401367 160.0
81.458839 160.0
81.521729 168.0
81.54509 120.0
81.561264 100.0
81.609802 184.0
81.654762 92.0
81.670952 104.0
81.689644 112.0
81.731239 140.0
81.763359 132.0
81.785507 144.0
81.798286 220.0
81.83831 140.0
81.856316 132.0
81.881531 152.0
81.913948 132.0
81.938072 320.0
81.965164 132.0
81.987823 124.0
82.038933 224.0
82.069923 152.0
82.08593 208.0
82.133865 104.0
82.187988 116.0
82.213249 172.0
82.238518 204.0
82.25296 184.0
82.271912 160.0
82.338417 132.0
82.421181 140.0
82.440796 208.0
82.457062 148.0
82.484169 144.0
82.498634 196.0
82.527557 44.0
82.583618 140.0
82.651382 156.0
82.66684 104.0
82.679512 140.0
82.69471 204.0
82.713898 88.0
82.730186 76.0
82.755463 96.0
82.79496 192.0
82.807472 152.0
82.814156 140.0
82.848404 188.0
82.864204 180.0
82.887764 124.0
82.923248 196.0
82.953011 196.0
82.965698 84.0
83.017036 128.0
83.04985 688.0
83.072693 152.0
83.109512 68.0
83.150421 148.0
83.165237 172.0
83.19474 188.0
83.239296 136.0
83.243645 168.0
83.279625 108.0
83.292809 404.0
83.314651 156.0
83.349548 164.0
83.388565 196.0
83.403961 176.0
83.444992 104.0
83.457718 224.0
83.486816 140.0
83.504997 108.0
83.519554 108.0
83.554115 184.0
83.57473 192.0
83.615128 128.0
83.628723 344.0
83.657722 176.0
83.676048 152.0
83.692436 128.0
83.707008 188.0
83.730133 252.0
83.750717 164.0
83.775375 52.0
83.80172 180.0
83.831512 356.0
83.878265 160.0
83.918373 180.0
83.943901 156.0
83.963959 148.0
83.989494 124.0
84.015076 156.0
84.054214 176.0
84.073418 220.0
84.096832 140.0
84.117226 136.0
84.150047 200.0
84.164696 232.0
84.186699 160.0
84.204628 152.0
84.237747 136.0
84.263542 168.0
84.288528 252.0
84.356827 140.0
84.422348 76.0
84.459038 192.0
84.476532 332.0
84.490021 148.0
84.506493 112.0
84.547234 136.0
84.561386 176.0
84.584045 148.0
84.620354 132.0
84.676735 92.0
84.713051 256.0
84.767914 192.0
84.823654 172.0
84.856316 164.0
84.882767 216.0
84.905823 224.0
84.937004 144.0
84.964523 208.0
84.997841 176.0
85.026581 204.0
85.047455 148.0
85.069122 180.0
85.086121 200.0
85.099442 140.0
85.120529 244.0
85.139587 160.0
85.218231 188.0
85.27301 224.0
85.303291 144.0
85.361252 144.0
85.397598 152.0
85.431145 40.0
85.473976 432.0
85.504745 156.0
85.541557 160.0
85.564156 340.0
85.590591 152.0
85.644875 148.0
85.661255 76.0
85.689423 220.0
85.753464 188.0
85.797623 152.0
85.824501 180.0
85.849251 108.0
85.884293 140.0
85.915268 152.0
85.928917 148.0
85.947021 124.0
86.039299 236.0
86.057762 84.0
86.124245 52.0
86.157494 276.0
86.196297 144.0
86.218475 176.0
86.235962 156.0
86.259132 136.0
86.282974 76.0
86.325691 244.0
86.353439 252.0
86.38118 80.0
86.398102 108.0
86.414398 184.0
86.447784 132.0
86.474228 196.0
86.51442 136.0
86.534782 116.0
86.547745 176.0
86.594635 140.0
86.657028 136.0
86.694084 120.0
86.744179 284.0
86.766373 136.0
86.808441 296.0
86.8424 96.0
86.869423 148.0
86.924034 200.0
86.944443 208.0
86.961143 156.0
86.987137 124.0
87.016838 132.0
87.031693 176.0
87.046989 272.0
87.110085 208.0
87.165428 172.0
87.191101 112.0
87.196953 204.0
87.232338 140.0
87.275101 204.0
87.29892 188.0
87.351349 132.0
87.366234 104.0
87.388916 124.0
87.425919 396.0
87.449829 324.0
87.492783 128.0
87.520058 148.0
87.542084 100.0
87.557953 144.0
87.578941 192.0
87.597069 232.0
87.611969 140.0
87.640259 156.0
87.671593 140.0
87.721916 192.0
87.804726 176.0
87.838898 164.0
87.86174 320.0
87.88604 200.0
87.911446 188.0
87.931419 176.0
87.983093 152.0
88.009232 48.0
88.044708 108.0
88.059647 212.0
88.077499 472.0
88.123161 196.0
88.141846 104.0
88.17569 184.0
88.213371 164.0
88.231567 144.0
88.257576 180.0
88.287376 300.0
88.312057 180.0
88.33255 164.0
88.377403 160.0
88.42067 164.0
88.449554 180.0
88.467285 156.0
88.480385 132.0
88.497238 156.0
88.518478 152.0
88.530342 324.0
88.545647 100.0
88.551125 72.0
88.55825 172.0
88.587135 156.0
88.622726 140.0
88.645218 172.0
88.675987 200.0
88.714561 176.0
88.74456 96.0
88.763962 112.0
88.786415 124.0
88.824615 180.0
88.84771 256.0
88.861046 184.0
88.879784 128.0
88.919014 132.0
88.961632 148.0
88.987114 160.0
89.011261 176.0
89.035416 216.0
89.049835 124.0
89.056885 84.0
89.076263 372.0
89.101158 136.0
89.119949 148.0
89.176323 168.0
89.240311 112.0
89.284325 72.0
89.28968 124.0
89.297829 180.0
89.300865 236.0
89.321106 136.0
89.338036 80.0
89.422714 156.0
89.443756 220.0
89.464638 96.0
89.492363 104.0
89.521591 176.0
89.547394 72.0
89.577843 132.0
89.616676 52.0
89.641167 116.0
89.658127 132.0
89.682449 176.0
89.756226 216.0
89.776901 164.0
89.797646 136.0
89.810844 48.0
89.835274 152.0
89.854233 124.0
89.87101 148.0
89.884895 152.0
89.908958 48.0
89.949089 56.0
89.99482 164.0
90.050148 112.0
90.071327 88.0
90.110825 172.0
90.137451 132.0
90.167145 292.0
90.218727 152.0
90.231964 160.0
90.258743 96.0
90.292473 80.0
90.311386 176.0
90.326515 48.0
90.370026 204.0
90.38327 116.0
90.426796 128.0
90.44194 152.0
90.458977 88.0
90.487373 152.0
90.548409 172.0
90.594849 128.0
90.625633 92.0
90.650269 104.0
90.669266 168.0
90.683037 96.0
90.712814 208.0
90.729874 160.0
90.75811 192.0
90.777275 204.0
90.805725 120.0
90.819 164.0
90.859909 92.0
90.888618 168.0
90.906273 284.0
90.923355 188.0
90.963211 168.0
90.978401 116.0
91.003082 192.0
91.016373 128.0
91.058151 192.0
91.088539 240.0
91.187874 144.0
91.21315 180.0
91.246696 168.0
91.270988 168.0
91.286896 104.0
91.313797 204.0
91.367752 128.0
91.394531 240.0
91.419052 196.0
91.457428 216.0
91.478363 92.0
91.503113 228.0
91.532623 124.0
91.552948 188.0
91.569763 88.0
91.590714 140.0
91.608688 220.0
91.622437 292.0
91.655563 104.0
91.720901 112.0
91.756958 152.0
91.805244 200.0
91.820503 164.0
91.838226 164.0
91.848526 188.0
91.863304 216.0
91.913696 212.0
91.970161 156.0
91.986168 272.0
92.013893 176.0
92.068504 172.0
92.086632 180.0
92.139397 128.0
92.243309 212.0
92.270073 164.0
92.317497 220.0
92.387512 108.0
92.423088 68.0
92.478584 168.0
92.503128 68.0
92.507729 160.0
92.551491 140.0
92.57048 176.0
92.605186 164.0
92.627937 184.0
92.666252 160.0
92.685783 124.0
92.75824 148.0
92.777206 152.0
92.807716 188.0
92.832962 184.0
92.884796 148.0
92.923897 136.0
92.949478 196.0
93.013359 236.0
93.03064 216.0
93.074211 184.0
93.111282 196.0
93.145294 164.0
93.165634 484.0
93.191963 144.0
93.215019 140.0
93.246773 168.0
93.297592 200.0
93.324585 204.0
93.355347 320.0
93.395737 76.0
93.426514 40.0
93.44191 40.0
93.480392 244.0
93.524048 260.0
93.547752 212.0
93.56678 136.0
93.612747 132.0
93.637787 132.0
93.709328 136.0
93.72361 156.0
93.749992 108.0
93.774628 128.0
93.781265 140.0
93.787575 160.0
93.794014 152.0
93.799423 136.0
93.806274 240.0
93.829124 220.0
93.869232 208.0
93.921585 84.0
93.992111 180.0
94.008904 184.0
94.031563 160.0
94.065552 272.0
94.143532 92.0
94.187958 80.0
94.203354 140.0
94.228523 148.0
94.24398 92.0
94.259651 164.0
94.275734 120.0
94.305801 360.0
94.329834 152.0
94.364449 184.0
94.428757 220.0
94.48391 212.0
94.502716 152.0
94.566208 192.0
94.580482 184.0
94.599838 132.0
94.645775 220.0
94.672554 108.0
94.745079 220.0
94.760284 156.0
94.781952 260.0
94.790306 188.0
94.794983 180.0
94.815575 272.0
94.851662 156.0
94.870346 132.0
94.893486 196.0
94.907883 188.0
94.952484 156.0
95.027809 308.0
95.049385 872.0
95.070831 116.0
95.094543 196.0
95.161255 192.0
95.206726 136.0
95.231972 192.0
95.249451 184.0
95.290245 272.0
95.318893 108.0
95.343307 196.0
95.367981 208.0
95.397133 220.0
95.409668 200.0
95.459351 160.0
95.474915 92.0
95.493431 192.0
95.513809 220.0
95.594315 172.0
95.616928 128.0
95.63179 120.0
95.645935 112.0
95.67981 172.0
95.733253 160.0
95.766846 180.0
95.831131 152.0
95.846573 160.0
95.867775 144.0
95.918999 180.0
95.946121 180.0
95.962669 148.0
95.990463 184.0
96.014366 156.0
96.051071 252.0
96.077728 272.0
96.100197 48.0
96.127518 332.0
96.158554 296.0
96.189194 188.0
96.209496 152.0
96.261528 184.0
96.281738 72.0
96.30674 160.0
96.337364 156.0
96.376099 272.0
96.412186 88.0
96.427811 188.0
96.490822 176.0
96.536308 512.0
96.547935 172.0
96.587898 180.0
96.612961 176.0
96.643379 148.0
96.657074 72.0
96.681229 188.0
96.739273 184.0
96.752975 176.0
96.777122 180.0
96.8078 52.0
96.888657 128.0
96.926659 196.0
96.96257 164.0
97.011902 96.0
97.026634 304.0
97.063637 788.0
97.082153 328.0
97.117462 176.0
97.17218 192.0
97.253052 152.0
97.289436 100.0
97.336479 320.0
97.355423 128.0
97.387619 200.0
97.409012 196.0
97.434746 152.0
97.451187 84.0
97.49218 200.0
97.522461 160.0
97.609276 56.0
97.619301 208.0
97.636597 144.0
97.657883 164.0
97.67395 192.0
97.703262 112.0
97.721573 200.0
97.736931 208.0
97.776985 152.0
97.811073 156.0
97.824852 328.0
97.844536 180.0
97.869545 200.0
97.891792 212.0
97.905006 192.0
97.92762 188.0
97.958763 84.0
98.023026 188.0
98.039261 56.0
98.058929 1200.0
98.097168 40028.0
98.14727 160.0
98.168045 236.0
98.184669 156.0
98.190109 96.0
98.204773 216.0
98.219856 176.0
98.235817 168.0
98.253036 168.0
98.272224 156.0
98.29985 100.0
98.31958 124.0
98.33622 148.0
98.36219 116.0
98.381668 116.0
98.407097 128.0
98.421547 264.0
98.44841 140.0
98.478279 200.0
98.531654 200.0
98.561455 116.0
98.587639 120.0
98.599442 300.0
98.624466 120.0
98.640106 356.0
98.654015 164.0
98.678123 180.0
98.6931 184.0
98.719078 196.0
98.738411 228.0
98.752258 80.0
98.778702 96.0
98.79248 180.0
98.825478 280.0
98.885094 348.0
98.894554 48.0
98.900375 344.0
98.914513 116.0
98.946182 96.0
98.971924 120.0
98.993706 72.0
99.044617 164.0
99.080124 1856.0
99.099754 3432.0
99.124901 152.0
99.139076 188.0
99.153511 160.0
99.185883 44.0
99.22509 108.0
99.263283 212.0
99.294937 156.0
99.326149 152.0
99.357948 188.0
99.37735 168.0
99.409996 144.0
99.446465 172.0
99.491379 176.0
99.513794 156.0
99.564079 176.0
99.588928 192.0
99.637657 164.0
99.65123 172.0
99.659248 132.0
99.682053 48.0
99.702538 116.0
99.721802 56.0
99.739685 184.0
99.757286 324.0
99.772766 144.0
99.802223 236.0
99.819214 96.0
99.835121 40.0
99.860916 128.0
99.876175 112.0
99.895454 192.0
99.911552 188.0
99.945183 180.0
99.964424 104.0
100.013222 216.0
100.040817 136.0
100.055275 160.0
100.076195 5028.0
100.098587 336.0
100.112747 404.0
100.137558 124.0
100.162727 80.0
100.176468 96.0
100.219307 156.0
100.236153 148.0
100.298622 20.0
100.3106 188.0
100.360817 156.0
100.378014 148.0
100.422638 148.0
100.438599 268.0
100.475441 136.0
100.518402 148.0
100.540352 128.0
100.57428 240.0
100.621651 104.0
100.657616 216.0
100.68895 120.0
100.712051 140.0
100.754822 160.0
100.784714 140.0
100.820732 304.0
100.849152 176.0
100.8899 116.0
100.903893 404.0
100.934853 196.0
100.993881 152.0
101.041031 176.0
101.06131 232.0
101.080315 764.0
101.114815 108.0
101.137947 232.0
101.153091 120.0
101.177979 32.0
101.20076 212.0
101.239441 156.0
101.271286 148.0
101.314163 192.0
101.338097 120.0
101.362144 152.0
101.410347 32.0
101.441528 224.0
101.480507 68.0
101.544678 160.0
101.592819 116.0
101.655579 288.0
101.6791 28.0
101.693153 80.0
101.727272 152.0
101.79554 168.0
101.835701 136.0
101.857681 136.0
101.87883 196.0
101.937248 140.0
101.942894 124.0
101.983948 276.0
102.014542 92.0
102.043579 108.0
102.058769 120.0
102.087166 260.0
102.100616 168.0
102.108292 128.0
102.140381 316.0
102.189346 196.0
102.22007 168.0
102.253578 124.0
102.29023 168.0
102.296509 168.0
102.305634 188.0
102.329109 196.0
102.343987 224.0
102.368866 204.0
102.396843 60.0
102.420639 216.0
102.423897 176.0
102.476425 224.0
102.493546 192.0
102.519737 180.0
102.543922 100.0
102.563316 148.0
102.599579 144.0
102.626572 136.0
102.668922 144.0
102.725395 124.0
102.755653 124.0
102.789955 236.0
102.840408 128.0
102.858574 140.0
102.89595 164.0
102.922791 248.0
102.947411 136.0
103.001945 160.0
103.050224 188.0
103.06665 432.0
103.088821 212.0
103.132355 188.0
103.149452 180.0
103.186188 164.0
103.206062 200.0
103.238419 60.0
103.27684 152.0
103.303139 172.0
103.331459 88.0
103.363037 172.0
103.380089 252.0
103.404312 216.0
103.439857 248.0
103.495407 96.0
103.529831 252.0
103.55616 196.0
103.579437 264.0
103.610855 180.0
103.625809 84.0
103.654396 128.0
103.718254 76.0
103.746048 180.0
103.773666 144.0
103.821655 260.0
103.847557 140.0
103.855309 108.0
103.865517 204.0
103.877769 144.0
103.902794 96.0
103.927139 176.0
103.948189 236.0
103.986847 208.0
104.009048 176.0
104.048912 160.0
104.063126 124.0
104.08075 188.0
104.119606 172.0
104.200592 240.0
104.216492 204.0
104.254501 180.0
104.277512 268.0
104.302841 208.0
104.31707 204.0
104.386749 268.0
104.40654 132.0
104.436279 192.0
104.457382 56.0
104.481796 180.0
104.49604 164.0
104.531708 204.0
104.539902 108.0
104.547539 156.0
104.577438 176.0
104.59549 184.0
104.625488 152.0
104.646652 180.0
104.681267 228.0
104.70163 160.0
104.754059 200.0
104.787186 116.0
104.815712 196.0
104.864349 212.0
104.909462 224.0
104.977921 160.0
104.993538 120.0
105.009377 160.0
105.069168 244.0
105.130836 120.0
105.137527 64.0
105.145409 172.0
105.195061 168.0
105.221596 108.0
105.25515 204.0
105.286942 144.0
105.308235 140.0
105.33596 156.0
105.37886 120.0
105.395973 332.0
105.417686 44.0
105.449638 164.0
105.505867 168.0
105.53624 88.0
105.567612 188.0
105.587364 124.0
105.615067 208.0
105.628952 156.0
105.648209 220.0
105.674072 216.0
105.691696 100.0
105.708061 208.0
105.728531 156.0
105.820641 172.0
105.872772 152.0
105.894363 152.0
105.937683 188.0
105.953766 128.0
105.97953 104.0
105.988319 60.0
105.991905 156.0
106.02343 200.0
106.037781 212.0
106.130028 164.0
106.18161 208.0
106.197273 168.0
106.219749 224.0
106.252777 236.0
106.283867 188.0
106.316254 276.0
106.347481 84.0
106.370064 172.0
106.400856 92.0
106.445763 124.0
106.47683 208.0
106.499863 168.0
106.544617 164.0
106.581284 132.0
106.606255 220.0
106.649414 104.0
106.667915 88.0
106.784515 292.0
106.801399 144.0
106.858658 160.0
106.874008 152.0
106.889618 196.0
106.912674 140.0
106.938835 196.0
106.948112 232.0
106.983284 84.0
107.019714 96.0
107.042358 96.0
107.084244 128.0
107.133018 236.0
107.221588 120.0
107.246323 108.0
107.268997 168.0
107.311035 112.0
107.359711 124.0
107.384804 120.0
107.413925 56.0
107.497932 160.0
107.53508 372.0
107.588654 176.0
107.623283 176.0
107.640869 172.0
107.665146 480.0
107.693344 104.0
107.729172 64.0
107.746048 168.0
107.768196 176.0
107.784958 228.0
107.82888 204.0
107.863113 132.0
107.885292 132.0
107.908974 180.0
107.987556 192.0
108.006172 164.0
108.05407 204.0
108.086891 236.0
108.117897 172.0
108.144798 112.0
108.173775 128.0
108.201317 172.0
108.220291 60.0
108.279419 208.0
108.324944 284.0
108.35498 156.0
108.389168 184.0
108.437057 148.0
108.459999 184.0
108.483871 176.0
108.507317 116.0
108.521828 60.0
108.54464 96.0
108.586113 108.0
108.60334 312.0
108.621376 132.0
108.665901 124.0
108.6875 188.0
108.693512 140.0
108.747948 104.0
108.778473 232.0
108.818527 92.0
108.843437 52.0
108.859543 120.0
108.873642 220.0
108.937401 184.0
108.98053 196.0
109.017723 120.0
109.043724 156.0
109.065262 1928.0
109.0998 1092.0
109.178894 140.0
109.232086 120.0
109.254967 196.0
109.288834 188.0
109.302818 312.0
109.317383 168.0
109.339737 232.0
109.363174 128.0
109.413757 80.0
109.439049 248.0
109.462975 164.0
109.476738 356.0
109.501183 168.0
109.521416 148.0
109.543144 204.0
109.557121 200.0
109.603493 164.0
109.621063 164.0
109.629265 136.0
109.64463 260.0
109.666428 288.0
109.708961 88.0
109.7407 160.0
109.774918 164.0
109.821136 156.0
109.828636 92.0
109.852852 36.0
109.867455 160.0
109.9217 192.0
109.955093 344.0
109.984314 136.0
110.005188 120.0
110.060921 268.0
110.09977 600.0
110.132065 272.0
110.142311 96.0
110.146584 336.0
110.172249 228.0
110.240036 172.0
110.278816 116.0
110.30162 216.0
110.333168 196.0
110.357162 220.0
110.385437 112.0
110.415604 236.0
110.464912 160.0
110.488579 168.0
110.50885 132.0
110.544418 120.0
110.584648 152.0
110.616043 164.0
110.674202 192.0
110.693008 208.0
110.710884 188.0
110.737022 32.0
110.778915 132.0
110.821121 144.0
110.850151 128.0
110.879494 116.0
110.904106 156.0
110.911797 116.0
110.920219 204.0
110.936089 168.0
110.956322 208.0
110.986404 152.0
111.022781 104.0
111.042381 448.0
111.082115 132.0
111.087837 176.0
111.121735 220.0
111.176079 124.0
111.214066 200.0
111.254959 308.0
111.294197 180.0
111.309547 164.0
111.339874 380.0
111.40406 152.0
111.424126 304.0
111.443977 104.0
111.496193 184.0
111.528038 208.0
111.563774 36.0
111.584793 156.0
111.633156 124.0
111.668907 176.0
111.699425 252.0
111.714172 116.0
111.786362 164.0
111.802261 156.0
111.877228 52.0
111.925323 128.0
111.930801 108.0
111.936989 176.0
111.967529 176.0
112.00779 172.0
112.032845 156.0
112.059052 360.0
112.078148 140.0
112.113312 564.0
112.153175 108.0
112.169037 216.0
112.212204 76.0
112.269135 32.0
112.288116 96.0
112.328194 132.0
112.354218 332.0
112.374603 136.0
112.414696 140.0
112.480759 132.0
112.499123 196.0
112.516006 160.0
112.579933 232.0
112.618225 344.0
112.665901 160.0
112.69976 160.0
112.74202 128.0
112.761749 356.0
112.790314 136.0
112.825333 164.0
112.844635 216.0
112.881538 116.0
112.955833 160.0
112.995758 152.0
113.010574 128.0
113.028702 148.0
113.060051 21224.0
113.09359 172.0
113.115273 120.0
113.15094 396.0
113.179428 180.0
113.186737 140.0
113.218018 68.0
113.241463 112.0
113.285797 80.0
113.313835 204.0
113.336761 72.0
113.351906 176.0
113.372665 68.0
113.399879 100.0
113.424538 76.0
113.443459 140.0
113.465027 144.0
113.483299 188.0
113.532547 260.0
113.561356 208.0
113.597878 148.0
113.61322 204.0
113.635605 172.0
113.651917 80.0
113.671051 96.0
113.762939 172.0
113.795998 112.0
113.827827 164.0
113.86042 180.0
113.886101 188.0
113.92646 80.0
113.988075 112.0
114.00869 256.0
114.063309 1804.0
114.091072 8136.0
114.138817 200.0
114.187668 212.0
114.244957 444.0
114.275681 168.0
114.329575 88.0
114.379494 268.0
114.398132 40.0
114.421974 184.0
114.436882 40.0
114.463295 176.0
114.520134 232.0
114.583313 196.0
114.60611 212.0
114.6259 200.0
114.648842 216.0
114.690392 136.0
114.713837 56.0
114.745811 268.0
114.769264 340.0
114.789963 204.0
114.807648 72.0
114.824203 140.0
114.836288 188.0
114.877518 164.0
114.885193 124.0
114.906624 112.0
114.986855 236.0
115.036263 136.0
115.075569 10620.0
115.129166 184.0
115.148674 212.0
115.183296 100.0
115.198242 160.0
115.219124 192.0
115.240616 192.0
115.2668 92.0
115.306862 276.0
115.32563 52.0
115.355042 96.0
115.361107 76.0
115.368515 248.0
115.38604 64.0
115.395348 292.0
115.412613 288.0
115.438286 156.0
115.493523 148.0
115.513763 188.0
115.549515 220.0
115.573868 208.0
115.593102 100.0
115.59967 48.0
115.614426 248.0
115.67511 176.0
115.71302 252.0
115.74791 264.0
115.789505 204.0
115.828171 152.0
115.860313 220.0
115.88147 392.0
115.897751 440.0
115.934959 100.0
115.95842 164.0
115.976646 192.0
116.006187 384.0
116.011948 180.0
116.031258 720.0
116.071259 76196.0
116.10762 105856.0
116.137566 400.0
116.178238 292.0
116.206429 100.0
116.240417 244.0
116.265739 148.0
116.295013 232.0
116.31144 248.0
116.344925 216.0
116.388222 84.0
116.425278 304.0
116.458733 924.0
116.493774 120.0
116.501991 68.0
116.50563 140.0
116.527481 184.0
116.534187 160.0
116.543762 128.0
116.595131 64.0
116.598076 156.0
116.623642 192.0
116.651749 172.0
116.685547 44.0
116.723625 152.0
116.750053 112.0
116.779388 308.0
116.814613 240.0
116.842728 140.0
116.862732 304.0
116.887039 100.0
116.909943 112.0
116.937721 140.0
116.955986 56.0
116.992638 160.0
117.02549 56.0
117.043587 140.0
117.074471 4512.0
117.110115 8780.0
117.162979 152.0
117.179947 84.0
117.2033 144.0
117.239563 64.0
117.268539 52.0
117.305786 220.0
117.329926 144.0
117.37886 88.0
117.407181 180.0
117.447868 76.0
117.469444 180.0
117.498093 168.0
117.541466 220.0
117.568138 156.0
117.596008 104.0
117.645424 196.0
117.662369 192.0
117.697365 136.0
117.728027 380.0
117.746536 148.0
117.796959 72.0
117.834694 148.0
117.863991 260.0
117.898819 236.0
117.921761 100.0
117.943634 236.0
117.980736 84.0
118.006416 212.0
118.026787 192.0
118.045509 144.0
118.054131 164.0
118.062553 288.0
118.079155 436.0
118.112335 352.0
118.141876 132.0
118.17157 104.0
118.199699 116.0
118.216133 100.0
118.229988 164.0
118.249466 164.0
118.284103 68.0
118.299255 224.0
118.342552 128.0
118.380371 60.0
118.39415 164.0
118.409683 180.0
118.447716 144.0
118.463516 192.0
118.466942 92.0
118.522331 160.0
118.543999 140.0
118.581444 124.0
118.628922 44.0
118.693573 88.0
118.714638 220.0
118.734772 72.0
118.754295 120.0
118.78965 120.0
118.810692 144.0
118.83374 112.0
118.869278 92.0
118.893143 160.0
118.964859 408.0
118.989952 140.0
119.00602 56.0
119.034248 144.0
119.085197 408.0
119.114609 116.0
119.147041 56.0
119.155212 52.0
119.186302 72.0
119.217964 196.0
119.234108 168.0
119.27626 180.0
119.30584 196.0
119.33091 108.0
119.35273 148.0
119.380081 164.0
119.403687 44.0
119.420395 164.0
119.464592 148.0
119.47982 196.0
119.521156 36.0
119.586449 184.0
119.636513 108.0
119.651749 68.0
119.668678 160.0
119.707039 132.0
119.780235 80.0
119.812965 172.0
119.830338 168.0
119.845589 56.0
119.877701 136.0
119.932762 140.0
119.950203 48.0
119.972 188.0
120.017784 116.0
120.070122 212.0
120.123375 164.0
120.172646 188.0
120.203194 140.0
120.218468 48.0
120.249023 96.0
120.273132 84.0
120.308281 188.0
120.327606 76.0
120.358177 124.0
120.386559 68.0
120.419319 80.0
120.47393 72.0
120.521996 232.0
120.587555 160.0
120.642204 256.0
120.674995 116.0
120.716537 140.0
120.746384 136.0
120.754517 88.0
120.759132 168.0
120.804024 140.0
120.825905 112.0
120.866661 172.0
120.904427 208.0
120.908859 300.0
120.935318 232.0
120.965958 88.0
121.01387 136.0
121.027298 140.0
121.064491 84.0
121.100471 536.0
121.144661 172.0
121.216324 180.0
121.225655 168.0
121.230194 156.0
121.269608 140.0
121.306686 188.0
121.342056 148.0
121.443642 188.0
121.47435 204.0
121.507256 128.0
121.595032 180.0
121.6119 220.0
121.62812 156.0
121.6521 112.0
121.702599 176.0
121.770668 108.0
121.786049 160.0
121.82737 364.0
121.887405 176.0
121.931786 72.0
121.963272 164.0
122.001389 180.0
122.039169 132.0
122.065468 168.0
122.103371 220.0
122.126732 172.0
122.167923 264.0
122.188873 48.0
122.193871 100.0
122.236626 164.0
122.271942 36.0
122.290428 168.0
122.346779 120.0
122.371429 184.0
122.397697 160.0
122.423843 184.0
122.461288 128.0
122.499001 296.0
122.564827 140.0
122.586861 40.0
122.652466 188.0
122.670616 208.0
122.708092 148.0
122.722878 124.0
122.802917 152.0
122.819626 160.0
122.834663 152.0
122.85144 216.0
122.908318 180.0
122.933029 224.0
122.966408 156.0
123.009789 180.0
123.046585 284.0
123.080147 2012.0
123.107811 240.0
123.140602 56.0
123.169319 60.0
123.193619 68.0
123.217918 172.0
123.270851 92.0
123.287308 208.0
123.296486 172.0
123.326195 76.0
123.403572 32.0
123.42347 96.0
123.483177 172.0
123.507507 180.0
123.536346 172.0
123.565025 112.0
123.624763 136.0
123.643944 144.0
123.673004 216.0
123.733223 36.0
123.779724 168.0
123.819588 148.0
123.835091 144.0
123.877533 148.0
123.914833 180.0
123.945015 300.0
123.978043 160.0
124.001259 108.0
124.076797 496.0
124.111946 572.0
124.174187 152.0
124.189713 144.0
124.214119 80.0
124.246201 208.0
124.28511 48.0
124.300644 52.0
124.342804 68.0
124.382759 128.0
124.413834 176.0
124.441948 156.0
124.462341 132.0
124.483421 172.0
124.513756 224.0
124.611496 148.0
124.634193 168.0
124.675934 184.0
124.709053 40.0
124.729279 220.0
124.764923 224.0
124.789177 144.0
124.88533 152.0
124.931633 252.0
124.989487 164.0
125.01841 68.0
125.039719 216.0
125.061729 152.0
125.095123 1544.0
125.140839 128.0
125.158653 68.0
125.194283 108.0
125.25219 164.0
125.29229 80.0
125.319672 156.0
125.360062 224.0
125.410194 180.0
125.433899 92.0
125.506248 200.0
125.539696 32.0
125.595459 48.0
125.64399 148.0
125.669075 112.0
125.684692 148.0
125.715935 92.0
125.765907 340.0
125.793739 144.0
125.905693 144.0
126.008171 132.0
126.03302 96.0
126.062798 220.0
126.094429 244.0
126.149239 348.0
126.178299 108.0
126.215218 176.0
126.256561 152.0
126.28511 188.0
126.305763 32.0
126.334946 180.0
126.366165 80.0
126.398682 180.0
126.468414 116.0
126.491493 164.0
126.529358 132.0
126.565369 188.0
126.605629 184.0
126.643753 172.0
126.671188 208.0
126.746338 232.0
126.791626 128.0
126.806381 116.0
126.854385 128.0
126.89399 240.0
126.953033 112.0
126.97612 136.0
127.015839 76.0
127.040482 276.0
127.075584 12140.0
127.141479 88.0
127.177521 140.0
127.250038 44.0
127.300873 120.0
127.323326 56.0
127.367996 144.0
127.410927 204.0
127.433395 176.0
127.455864 100.0
127.481949 160.0
127.512047 120.0
127.542084 104.0
127.571526 128.0
127.627525 184.0
127.649597 128.0
127.680344 168.0
127.718895 128.0
127.736893 80.0
127.774292 64.0
127.849388 116.0
127.891762 160.0
127.914665 128.0
127.936546 156.0
127.9814 356.0
128.02626 348.0
128.049759 188.0
128.077576 1176.0
128.10556 2340.0
128.146622 144.0
128.171402 64.0
128.204147 120.0
128.231186 228.0
128.251526 160.0
128.310181 112.0
128.328339 192.0
128.356293 184.0
128.396835 64.0
128.411636 192.0
128.455475 144.0
128.55249 140.0
128.577316 48.0
128.606659 124.0
128.677277 324.0
128.701935 180.0
128.732925 56.0
128.74559 112.0
128.760193 168.0
128.827957 108.0
128.844986 164.0
128.893478 136.0
128.956909 236.0
128.979889 428.0
129.022308 120.0
129.049377 160.0
129.080231 180.0
129.105362 124.0
129.109161 164.0
129.135361 88.0
129.15892 164.0
129.180862 136.0
129.255264 88.0
129.277039 136.0
129.309586 96.0
129.361649 280.0
129.400131 180.0
129.432541 140.0
129.44664 96.0
129.488434 160.0
129.534485 160.0
129.566101 140.0
129.616241 164.0
129.640228 124.0
129.664658 164.0
129.704453 152.0
129.720383 120.0
129.770844 180.0
129.796646 48.0
129.885086 136.0
129.940796 144.0
129.980377 124.0
130.02803 176.0
130.085114 164.0
130.114288 204.0
130.143799 220.0
130.171051 52.0
130.204971 204.0
130.246002 84.0
130.272797 236.0
130.318695 88.0
130.352783 176.0
130.382324 124.0
130.427872 208.0
130.455063 252.0
130.477798 128.0
130.580124 172.0
130.596039 132.0
130.643814 224.0
130.671112 80.0
130.687042 128.0
130.735138 388.0
130.771133 96.0
130.788437 208.0
130.82814 48.0
130.850906 80.0
130.91011 104.0
130.935165 164.0
130.976151 176.0
131.037659 84.0
131.093246 352.0
131.115143 148.0
131.190353 168.0
131.21315 64.0
131.279282 148.0
131.299728 120.0
131.327179 140.0
131.349991 176.0
131.413864 124.0
131.432114 248.0
131.466339 156.0
131.50058 196.0
131.543945 100.0
131.56221 104.0
131.592407 156.0
131.634338 256.0
131.686707 92.0
131.71875 184.0
131.770035 160.0
131.850952 184.0
131.930008 108.0
131.953217 132.0
131.994034 64.0
132.011093 140.0
132.087799 84.0
132.124573 156.0
132.15506 140.0
132.19075 88.0
132.258606 136.0
132.306732 232.0
132.369308 108.0
132.399078 160.0
132.456329 84.0
132.476944 120.0
132.513611 156.0
132.554031 192.0
132.581451 152.0
132.65094 208.0
132.73111 148.0
132.861053 196.0
132.882736 168.0
132.898804 88.0
132.954269 192.0
132.981415 112.0
133.006607 160.0
133.082413 232.0
133.105286 160.0
133.132935 156.0
133.149017 232.0
133.194946 164.0
133.213318 388.0
133.256973 180.0
133.320404 152.0
133.394867 108.0
133.46843 200.0
133.530518 104.0
133.594925 144.0
133.627136 208.0
133.648727 160.0
133.692337 216.0
133.723785 152.0
133.74588 112.0
133.802048 68.0
133.829681 96.0
133.875732 140.0
133.968948 144.0
133.999313 148.0
134.003281 184.0
134.0439 128.0
134.080902 180.0
134.093063 168.0
134.13147 144.0
134.173294 196.0
134.253677 144.0
134.281342 128.0
134.307846 100.0
134.352859 196.0
134.408234 76.0
134.435913 144.0
134.459 152.0
134.521317 148.0
134.602127 96.0
134.625214 152.0
134.645996 128.0
134.706238 204.0
134.807709 304.0
134.897858 72.0
134.941788 148.0
134.968552 160.0
134.977432 124.0
135.034271 208.0
135.080566 376.0
135.103195 192.0
135.107544 172.0
135.171814 160.0
135.214737 200.0
135.267975 488.0
135.321213 112.0
135.36058 140.0
135.398438 172.0
135.418472 152.0
135.443954 160.0
135.469437 100.0
135.498596 184.0
135.564438 152.0
135.585846 132.0
135.610779 180.0
135.672958 156.0
135.696548 124.0
135.719025 168.0
135.737686 92.0
135.747162 160.0
135.775391 140.0
135.802795 212.0
135.812454 172.0
135.815598 108.0
135.844757 172.0
135.866348 152.0
135.921875 184.0
135.949387 140.0
135.984207 132.0
136.018356 84.0
136.08165 204.0
136.109711 280.0
136.190842 164.0
136.220108 156.0
136.262863 156.0
136.29306 108.0
136.320953 152.0
136.365097 172.0
136.397644 140.0
136.420883 156.0
136.467056 144.0
136.495285 112.0
136.530167 180.0
136.584045 208.0
136.609253 132.0
136.630524 164.0
136.690689 180.0
136.741882 208.0
136.759354 208.0
136.793091 204.0
136.869919 216.0
136.965408 156.0
136.988693 156.0
137.057953 236.0
137.095505 1008.0
137.126907 380.0
137.175125 148.0
137.198441 36.0
137.224243 168.0
137.245056 204.0
137.312683 156.0
137.333679 48.0
137.362686 156.0
137.38266 184.0
137.402328 84.0
137.412735 36.0
137.418945 80.0
137.465622 140.0
137.49234 172.0
137.513336 136.0
137.555359 112.0
137.644073 156.0
137.705246 184.0
137.795898 52.0
137.91452 168.0
137.943115 104.0
137.987534 180.0
138.008575 104.0
138.035751 136.0
138.069382 176.0
138.092773 328.0
138.148209 228.0
138.191025 136.0
138.240158 144.0
138.282288 124.0
138.308029 152.0
138.324417 60.0
138.382935 100.0
138.409561 164.0
138.457108 220.0
138.528137 112.0
138.553909 44.0
138.607803 80.0
138.651657 268.0
138.720291 180.0
138.804825 224.0
138.828156 80.0
138.886658 148.0
138.894028 140.0
138.940216 144.0
138.994705 212.0
139.049469 196.0
139.077087 152.0
139.113724 152.0
139.18248 320.0
139.254257 132.0
139.281998 172.0
139.323578 216.0
139.365692 152.0
139.386185 184.0
139.41188 104.0
139.440887 200.0
139.457352 132.0
139.474976 88.0
139.513763 192.0
139.545105 132.0
139.585678 220.0
139.60437 168.0
139.629929 148.0
139.664154 176.0
139.771545 212.0
139.812485 200.0
139.918411 124.0
139.9702 160.0
140.017563 184.0
140.038147 184.0
140.077362 156.0
140.106903 2032.0
140.151581 272.0
140.189285 160.0
140.285507 164.0
140.316055 148.0
140.342499 152.0
140.363724 152.0
140.397614 224.0
140.43689 152.0
140.498154 68.0
140.538269 128.0
140.570389 144.0
140.59726 128.0
140.635025 136.0
140.675156 116.0
140.694031 192.0
140.750702 152.0
140.802063 48.0
140.852646 192.0
140.862152 340.0
140.948334 144.0
140.979843 128.0
141.017654 44.0
141.052887 388.0
141.088562 48.0
141.110443 504.0
141.171326 160.0
141.237762 88.0
141.291946 180.0
141.344009 244.0
141.365295 148.0
141.422104 128.0
141.471024 120.0
141.477722 80.0
141.487198 160.0
141.535736 320.0
141.638092 164.0
141.673111 152.0
141.713379 152.0
141.731247 104.0
141.79158 156.0
141.812912 172.0
141.867432 140.0
141.900482 132.0
141.931442 100.0
141.952789 212.0
141.977386 224.0
142.038162 136.0
142.084579 392.0
142.122833 2544.0
142.184525 64.0
142.203384 120.0
142.235107 216.0
142.273529 204.0
142.320572 164.0
142.337967 272.0
142.356201 128.0
142.417603 140.0
142.539108 152.0
142.560501 200.0
142.598526 252.0
142.657944 56.0
142.710251 124.0
142.727493 172.0
142.835388 296.0
142.888626 168.0
142.936676 208.0
142.967148 144.0
143.008362 252.0
143.036179 192.0
143.065308 532.0
143.106293 760.0
143.126343 612.0
143.163818 144.0
143.193314 152.0
143.243332 128.0
143.285294 164.0
143.329102 56.0
143.348175 132.0
143.439438 108.0
143.450378 104.0
143.4888 200.0
143.505493 52.0
143.54364 108.0
143.581741 176.0
143.619751 140.0
143.667099 152.0
143.690262 308.0
143.720795 164.0
143.846634 180.0
143.882828 124.0
143.92543 116.0
143.966019 120.0
144.061798 196.0
144.105377 140.0
144.131622 240.0
144.177658 184.0
144.225784 176.0
144.263275 108.0
144.299088 248.0
144.357941 160.0
144.451218 128.0
144.518204 68.0
144.541107 180.0
144.5952 252.0
144.618713 112.0
144.741699 32.0
144.771927 156.0
144.829407 88.0
144.95639 128.0
144.98439 128.0
145.030685 152.0
145.064316 140.0
145.090912 344.0
145.109787 168.0
145.17453 116.0
145.234497 200.0
145.29686 140.0
145.316055 192.0
145.347244 180.0
145.36644 76.0
145.443237 136.0
145.484222 324.0
145.51767 132.0
145.562195 168.0
145.605621 232.0
145.637741 108.0
145.661758 192.0
145.719406 160.0
145.763962 148.0
145.846771 124.0
145.863602 192.0
145.928513 124.0
145.947739 124.0
145.964584 128.0
145.995834 120.0
146.024704 100.0
146.063126 148.0
146.10408 132.0
146.153275 152.0
146.190704 188.0
146.20755 168.0
146.267715 152.0
146.291794 28.0
146.377014 40.0
146.445892 100.0
146.563934 152.0
146.622375 144.0
146.641052 164.0
146.698898 100.0
146.766418 52.0
146.790527 52.0
146.815979 224.0
146.897446 180.0
146.990494 200.0
147.036102 188.0
147.06073 144.0
147.077621 148.0
147.115723 272.0
147.174194 144.0
147.197647 120.0
147.308685 272.0
147.346588 388.0
147.377075 328.0
147.553513 220.0
147.621124 216.0
147.669586 172.0
147.696198 144.0
147.811157 160.0
147.880081 128.0
147.916382 120.0
147.97049 124.0
147.998703 88.0
148.040787 400.0
148.07135 260.0
148.106018 168.0
148.211853 204.0
148.282379 152.0
148.318481 140.0
148.35643 92.0
148.416733 216.0
148.45668 148.0
148.480927 128.0
148.548843 116.0
148.587662 36.0
148.650757 192.0
148.710114 96.0
148.77211 108.0
148.792862 152.0
148.900803 164.0
148.963684 108.0
148.988754 208.0
149.018936 164.0
149.057297 312.0
149.09758 112.0
149.132782 748.0
149.160782 172.0
149.185715 124.0
149.253159 180.0
149.31752 160.0
149.340714 160.0
149.367462 208.0
149.402847 148.0
149.448074 220.0
149.530487 52.0
149.601074 148.0
149.683853 200.0
149.752045 148.0
149.791016 56.0
149.830002 132.0
149.866547 152.0
149.971329 132.0
150.005463 108.0
150.024963 112.0
150.087814 204.0
150.129074 548.0
150.15567 152.0
150.232254 228.0
150.295151 164.0
150.302307 128.0
150.31337 128.0
150.318436 160.0
150.373779 132.0
150.415268 192.0
150.459213 120.0
150.478745 136.0
150.5056 52.0
150.544662 212.0
150.605728 84.0
150.654572 92.0
150.671677 72.0
150.725815 180.0
150.762085 160.0
150.798752 200.0
150.834518 176.0
150.89653 180.0
150.945435 192.0
150.967438 172.0
150.999222 208.0
151.036774 136.0
151.074615 1064.0
151.120239 320.0
151.16803 144.0
151.197403 200.0
151.224319 136.0
151.256134 168.0
151.302658 204.0
151.349167 72.0
151.405487 168.0
151.422638 176.0
151.459381 136.0
151.476517 164.0
151.530426 52.0
151.596298 36.0
151.625992 116.0
151.652939 136.0
151.682358 156.0
151.728943 120.0
151.768158 212.0
151.785324 124.0
151.83699 244.0
151.920227 76.0
152.015915 168.0
152.050262 168.0
152.078888 148.0
152.111984 304.0
152.145157 208.0
152.168091 172.0
152.205261 200.0
152.276733 192.0
152.300705 136.0
152.440735 212.0
152.464462 184.0
152.498718 204.0
152.561172 176.0
152.585754 208.0
152.613235 276.0
152.639847 176.0
152.693832 164.0
152.703171 156.0
152.723465 208.0
152.765289 120.0
152.789444 196.0
152.883392 88.0
152.942459 40.0
153.023697 172.0
153.090698 1032.0
153.134506 136.0
153.151749 156.0
153.17392 112.0
153.218262 148.0
153.237976 36.0
153.257507 196.0
153.297104 120.0
153.315277 96.0
153.373459 176.0
153.411652 132.0
153.499237 116.0
153.525925 180.0
153.600357 88.0
153.622559 124.0
153.669434 116.0
153.743469 280.0
153.766937 196.0
153.817505 132.0
153.859482 108.0
153.878006 316.0
153.921204 128.0
153.95578 144.0
154.034805 56.0
154.059509 136.0
154.089874 152.0
154.124176 628.0
154.170044 76.0
154.209732 116.0
154.273376 272.0
154.291809 104.0
154.321487 192.0
154.380081 144.0
154.396561 156.0
154.425278 152.0
154.430634 148.0
154.440018 172.0
154.52182 104.0
154.614227 128.0
154.652161 184.0
154.709915 272.0
154.754471 328.0
154.781708 128.0
154.801514 220.0
154.841141 172.0
154.873337 160.0
154.900589 144.0
155.056686 208.0
155.105438 812.0
155.197983 184.0
155.240143 176.0
155.259796 112.0
155.296066 84.0
155.333694 184.0
155.388962 188.0
155.413849 128.0
155.488037 156.0
155.544113 248.0
155.572617 112.0
155.595032 144.0
155.632202 48.0
155.716629 120.0
155.734024 140.0
155.761337 208.0
155.84581 56.0
155.868958 184.0
155.922836 128.0
155.970062 196.0
155.997406 84.0
156.043106 116.0
156.069275 124.0
156.10228 428.0
156.137527 68.0
156.167831 112.0
156.270981 68.0
156.389664 220.0
156.403854 168.0
156.43158 128.0
156.544785 40.0
156.56839 116.0
156.594391 128.0
156.626114 116.0
156.647964 216.0
156.68811 132.0
156.708084 164.0
156.738434 140.0
156.789932 168.0
156.829407 212.0
156.839447 156.0
156.862732 144.0
156.88768 148.0
156.919861 204.0
156.940002 204.0
156.982666 252.0
157.019485 160.0
157.09314 284.0
157.112091 132.0
157.121796 80.0
157.130829 188.0
157.170074 184.0
157.217499 76.0
157.230042 124.0
157.234604 96.0
157.251419 316.0
157.278915 156.0
157.303497 208.0
157.348358 160.0
157.377243 128.0
157.421799 220.0
157.44313 216.0
157.461197 128.0
157.5 148.0
157.533188 84.0
157.562912 248.0
157.588562 136.0
157.624985 260.0
157.67157 492.0
157.697174 376.0
157.717148 196.0
157.734253 324.0
157.754684 440.0
157.777924 300.0
157.81813 316.0
157.831528 236.0
157.873459 380.0
157.89032 528.0
157.925369 300.0
157.966263 564.0
157.993027 180.0
158.024872 640.0
158.05368 652.0
158.1185 431328.0
158.195908 260.0
158.216095 332.0
158.240448 88.0
158.293732 240.0
158.301834 144.0
158.312485 244.0
158.316437 228.0
158.349457 608.0
158.373947 356.0
158.42514 280.0
158.462173 88.0
158.501358 960.0
158.53125 7852.0
158.562225 364.0
158.624863 156.0
158.665115 232.0
158.702652 236.0
158.750427 148.0
158.801056 124.0
158.825851 116.0
158.859451 312.0
158.877548 160.0
158.924942 204.0
158.956894 196.0
159.003876 72.0
159.019882 320.0
159.060791 356.0
159.121185 60528.0
159.15863 188.0
159.179138 248.0
159.212387 112.0
159.221832 112.0
159.250702 116.0
159.298538 64.0
159.355057 212.0
159.393555 128.0
159.435547 100.0
159.458374 52.0
159.475281 164.0
159.48671 104.0
159.49202 104.0
159.538818 100.0
159.576447 48.0
159.592453 84.0
159.600967 160.0
159.64389 172.0
159.678207 164.0
159.707199 68.0
159.724335 72.0
159.74733 92.0
159.765823 76.0
159.778915 104.0
159.805222 164.0
159.837769 56.0
159.85498 164.0
159.932922 84.0
159.964188 124.0
159.998276 248.0
160.034424 136.0
160.067749 76.0
160.122787 5284.0
160.17601 296.0
160.185257 256.0
160.240173 204.0
160.26857 192.0
160.287979 212.0
160.321548 320.0
160.35173 108.0
160.356369 384.0
160.36586 216.0
160.375 204.0
160.403259 440.0
160.432098 240.0
160.457581 224.0
160.482422 104.0
160.517456 180.0
160.533813 128.0
160.571426 68.0
160.5914 96.0
160.660446 72.0
160.705856 64.0
160.748276 168.0
160.760956 48.0
160.767639 108.0
160.811539 64.0
160.841293 52.0
160.877472 64.0
160.895889 124.0
160.919312 140.0
160.963318 80.0
161.008392 52.0
161.045715 96.0
161.128662 660.0
161.162872 68.0
161.18515 88.0
161.243668 112.0
161.286835 76.0
161.320557 92.0
161.348221 96.0
161.35614 60.0
161.368698 92.0
161.413116 100.0
161.433594 92.0
161.486557 92.0
161.534515 48.0
161.582581 104.0
161.600281 112.0
161.645828 184.0
161.711624 52.0
161.761032 132.0
161.853394 180.0
161.952164 76.0
161.97496 108.0
162.033218 28.0
162.068695 120.0
162.088882 128.0
162.128036 424.0
162.22847 92.0
162.251175 60.0
162.370361 72.0
162.39415 92.0
162.484497 36.0
162.530167 32.0
162.635605 88.0
162.782486 132.0
162.879883 192.0
163.044342 84.0
163.074844 132.0
163.106674 140.0
163.132721 112.0
163.154968 32.0
163.199127 152.0
163.282104 100.0
163.327896 84.0
163.389725 144.0
163.523804 72.0
163.549255 68.0
163.569626 64.0
163.638367 108.0
163.814087 96.0
164.076447 160.0
164.08255 104.0
164.106842 1032.0
164.13942 80.0
164.168365 96.0
164.188766 92.0
164.354584 56.0
164.47963 76.0
164.630264 48.0
164.673676 76.0
164.783524 40.0
165.021225 48.0
165.049347 68.0
165.092041 744.0
165.125519 984.0
165.160904 192.0
165.23349 44.0
165.363998 64.0
165.484314 68.0
165.543213 44.0
165.576508 124.0
165.661026 112.0
165.689209 176.0
165.768097 244.0
165.855255 60.0
166.086548 156.0
166.127197 252.0
166.153244 144.0
166.207123 96.0
166.245621 100.0
166.282394 48.0
166.422729 108.0
166.443268 40.0
166.497192 108.0
166.530594 40.0
166.555618 116.0
166.617355 36.0
166.656464 104.0
166.76088 108.0
166.782394 60.0
166.809616 128.0
167.031815 204.0
167.063354 92.0
167.08754 72.0
167.111298 156.0
167.11972 188.0
167.144684 396.0
167.168167 68.0
167.211914 40.0
167.232513 72.0
167.250519 76.0
167.280914 124.0
167.30162 80.0
167.311401 68.0
167.31604 124.0
167.477112 124.0
167.586792 104.0
167.652313 68.0
167.687592 72.0
167.72963 152.0
167.77861 136.0
167.799225 96.0
167.881744 132.0
167.97438 48.0
168.028763 52.0
168.099533 108.0
168.139725 168.0
168.219742 40.0
168.297195 40.0
168.315262 60.0
168.337296 68.0
168.410812 76.0
168.484283 256.0
168.568527 96.0
168.630432 48.0
168.648529 64.0
168.728668 116.0
168.817612 60.0
168.845032 60.0
168.932968 200.0
168.971771 72.0
169.031281 132.0
169.080124 148.0
169.19693 68.0
169.309067 104.0
169.362671 76.0
169.383392 68.0
169.432602 96.0
169.487015 120.0
169.51033 204.0
169.613998 172.0
169.785126 96.0
169.839584 184.0
169.894073 40.0
169.931564 168.0
169.982285 88.0
170.082626 144.0
170.121323 572.0
170.174362 52.0
170.234085 68.0
170.306793 84.0
170.39772 56.0
170.423706 80.0
170.520325 88.0
170.616028 40.0
170.714828 76.0
170.857895 36.0
170.935562 100.0
171.00621 56.0
171.040054 56.0
171.099487 144.0
171.12291 256.0
171.205612 176.0
171.277008 88.0
171.300446 68.0
171.394241 180.0
171.441147 96.0
171.548004 116.0
171.592331 136.0
171.615799 112.0
171.785309 52.0
171.841843 60.0
172.03714 176.0
172.074997 120.0
172.106903 128.0
172.130585 164.0
172.223846 44.0
172.252579 76.0
172.289154 180.0
173.031891 36.0
173.059616 88.0
173.110123 132.0
173.127396 128.0
173.162811 68.0
173.453659 68.0
173.542786 60.0
173.666046 36.0
173.789337 132.0
173.823456 40.0
173.860184 140.0
174.009811 56.0
174.070206 68.0
174.126328 632.0
174.303986 56.0
174.351288 56.0
174.537933 60.0
174.623016 68.0
175.109711 644.0
175.159027 104.0
175.185379 112.0
175.319748 88.0
175.522736 84.0
175.541183 36.0
175.564926 72.0
175.72583 128.0
175.781235 116.0
175.839615 168.0
176.063705 100.0
176.127487 2932.0
176.27504 64.0
176.314682 44.0
176.335831 64.0
176.354324 56.0
176.409836 44.0
176.438919 72.0
176.539398 36.0
176.780121 88.0
176.956268 132.0
177.05809 44.0
177.129028 564.0
177.174637 52.0
177.217026 140.0
177.256775 28.0
177.288574 172.0
177.383987 52.0
177.490036 88.0
177.532471 52.0
177.59346 104.0
177.666473 100.0
177.981873 96.0
178.123718 256.0
178.484268 84.0
178.685257 48.0
178.75444 92.0
178.802353 36.0
178.836945 164.0
178.948746 68.0
179.113953 264.0
179.143738 112.0
179.223099 68.0
179.502975 160.0
179.799088 92.0
180.098892 152.0
180.139038 808.0
180.165588 172.0
180.258408 68.0
180.349274 52.0
180.376007 224.0
180.627365 60.0
181.079712 144.0
181.141846 292.0
181.227051 156.0
181.422699 56.0
181.446823 108.0
181.54335 48.0
181.631851 100.0
182.085464 156.0
182.116287 256.0
182.151596 144.0
182.44014 60.0
182.531555 88.0
183.099106 864.0
183.140228 168.0
183.391541 136.0
183.956802 164.0
184.037796 40.0
184.094513 116.0
184.125488 184.0
184.148514 180.0
184.326828 56.0
184.662048 88.0
184.832474 132.0
184.873062 192.0
185.006607 132.0
185.080582 176.0
185.13295 280.0
185.246704 68.0
185.283112 100.0
185.360504 112.0
185.475021 156.0
185.593613 136.0
185.859436 128.0
185.981552 52.0
186.108627 276.0
186.571014 40.0
186.600922 172.0
186.630829 200.0
186.734177 92.0
186.951813 124.0
186.998077 68.0
187.098785 404.0
187.149307 308.0
187.25946 48.0
187.480133 184.0
188.096527 52.0
188.122742 140.0
188.268539 44.0
188.623734 112.0
188.645599 136.0
188.92453 112.0
189.154404 132.0
189.173569 80.0
189.389877 60.0
189.491241 116.0
189.694046 52.0
189.76532 40.0
189.787262 56.0
189.99295 92.0
190.069778 156.0
190.124664 196.0
190.259155 76.0
190.330536 76.0
190.421173 124.0
190.487091 196.0
191.100159 132.0
191.127167 132.0
191.493805 136.0
191.868561 72.0
191.987122 76.0
192.064346 156.0
192.135376 2248.0
192.18573 184.0
192.205734 84.0
192.257477 172.0
192.401016 136.0
192.704819 112.0
192.842987 124.0
192.959091 104.0
193.019913 220.0
193.0448 60.0
193.12233 3436.0
193.199692 52.0
193.462601 56.0
193.664734 124.0
193.689667 44.0
193.975082 68.0
194.016663 140.0
194.122223 568.0
194.149048 348.0
194.284042 48.0
194.515991 128.0
194.543747 100.0
194.821457 36.0
194.868683 84.0
195.104919 176.0
195.136765 788.0
195.341293 124.0
195.541641 128.0
195.636276 40.0
196.045715 56.0
196.132263 548.0
196.185074 72.0
196.26593 200.0
196.318909 28.0
196.52533 92.0
196.553238 144.0
196.835159 132.0
197.083755 140.0
197.139648 156.0
197.360474 140.0
197.486313 36.0
197.587021 80.0
197.777313 152.0
198.043304 148.0
198.111603 200.0
198.273056 116.0
198.735748 168.0
198.965881 92.0
199.007996 96.0
199.097855 52.0
199.129852 156.0
199.251038 148.0
199.384415 48.0
199.471542 140.0
199.55307 156.0
199.595245 156.0
200.121414 80.0
200.188995 136.0
200.279114 60.0
200.341095 76.0
200.434067 164.0
200.872391 152.0
201.099609 100.0
201.170181 108.0
201.424332 100.0
201.882187 180.0
202.118484 68.0
202.151459 108.0
202.30661 44.0
202.405701 116.0
202.674789 44.0
202.745636 32.0
202.839172 148.0
202.921387 68.0
202.972412 212.0
203.105301 136.0
203.131241 132.0
203.202164 160.0
203.281616 184.0
203.315659 76.0
203.625122 80.0
203.684769 64.0
203.877975 120.0
204.02861 56.0
204.153717 432.0
204.247574 92.0
204.463821 212.0
204.594757 36.0
204.617523 144.0
204.965012 44.0
205.161865 360.0
205.338455 192.0
205.689407 48.0
205.946396 144.0
206.023743 100.0
206.092087 124.0
206.125427 156.0
206.1521 132.0
206.192108 144.0
206.292145 96.0
206.472275 144.0
207.030334 160.0
207.250916 84.0
207.31395 352.0
207.442932 80.0
207.996552 72.0
208.134567 168.0
208.315292 204.0
208.476196 192.0
208.686035 100.0
208.711914 40.0
208.967896 48.0
209.002426 148.0
209.11293 240.0
209.316177 88.0
209.682037 48.0
209.780029 64.0
210.048218 92.0
210.105911 148.0
210.147476 1128.0
210.769974 80.0
210.940491 116.0
211.132462 1584.0
211.3396 156.0
211.437973 76.0
211.510345 120.0
211.536392 60.0
211.666672 88.0
211.996902 92.0
212.130096 172.0
212.165024 212.0
212.191116 100.0
212.730713 108.0
212.751038 176.0
212.823624 200.0
212.963013 60.0
213.000778 64.0
213.140823 224.0
213.169281 304.0
213.222473 92.0
213.38147 80.0
213.622849 148.0
213.937134 144.0
214.147766 276.0
214.741364 40.0
214.782196 76.0
214.974762 36.0
215.091507 124.0
215.145966 192.0
215.292953 88.0
215.620163 100.0
216.163727 176.0
216.603271 188.0
216.723373 128.0
216.796631 144.0
217.06633 160.0
217.095657 72.0
217.160172 116.0
217.245239 48.0
217.547501 56.0
217.888168 92.0
218.130829 196.0
218.154099 296.0
218.693893 196.0
218.720383 140.0
218.873474 52.0
219.1474 112.0
219.846252 56.0
219.881668 152.0
219.902328 72.0
219.998428 180.0
220.13176 1092.0
220.175415 144.0
220.374817 60.0
220.427994 92.0
220.862595 68.0
220.889221 196.0
221.116302 2088.0
221.174286 200.0
221.265045 84.0
221.347961 36.0
221.436798 64.0
221.463455 52.0
221.842743 68.0
222.115097 308.0
222.140305 192.0
222.192688 124.0
222.308395 48.0
222.807236 220.0
222.830994 80.0
223.003357 92.0
223.125366 168.0
223.398834 36.0
223.577347 56.0
223.66069 76.0
223.705338 84.0
224.131241 92.0
224.632111 132.0
225.109634 92.0
225.220139 124.0
225.566757 248.0
225.587677 136.0
225.907654 100.0
226.15004 144.0
226.180359 124.0
226.380554 156.0
226.856949 200.0
226.943893 140.0
227.130173 280.0
227.155136 120.0
227.318848 100.0
227.483917 72.0
228.155533 352.0
228.421478 84.0
228.725388 100.0
228.776566 92.0
228.921082 148.0
229.041565 68.0
229.101807 76.0
229.143982 204.0
229.276566 196.0
229.348907 104.0
229.967224 108.0
230.175537 116.0
230.311432 92.0
230.341644 100.0
230.737518 128.0
231.133743 168.0
231.154922 60.0
231.339554 76.0
231.724167 236.0
232.166763 208.0
232.206146 156.0
232.321411 48.0
232.415466 164.0
232.588455 188.0
232.831345 88.0
232.989288 72.0
233.016632 56.0
233.089554 112.0
233.153931 1676.0
233.299271 116.0
233.579041 104.0
233.676392 36.0
233.919846 180.0
234.020309 88.0
234.153061 612.0
234.193893 84.0
234.522964 148.0
234.651001 116.0
235.172073 108.0
235.181931 88.0
235.368011 152.0
235.412201 128.0
235.441299 104.0
236.124268 136.0
236.170715 128.0
236.205872 132.0
237.090256 124.0
237.155304 72.0
237.688248 56.0
237.792587 168.0
238.09346 136.0
238.140976 544.0
238.183395 232.0
238.391449 28.0
238.414566 92.0
238.963364 144.0
239.046448 96.0
239.126511 1816.0
239.170807 128.0
239.192688 120.0
239.409698 52.0
239.628403 92.0
239.649963 36.0
239.690018 60.0
239.967422 116.0
240.130783 328.0
240.154968 124.0
240.229568 96.0
240.333115 124.0
240.553589 208.0
241.053925 164.0
241.189911 48.0
241.25174 124.0
241.452728 148.0
241.48674 60.0
241.765182 160.0
242.133591 80.0
242.158371 116.0
242.46199 196.0
242.492981 76.0
242.703781 72.0
243.136612 204.0
243.544022 224.0
243.569656 76.0
244.135315 64.0
244.169525 72.0
244.366394 192.0
244.639359 204.0
244.710968 68.0
244.738998 212.0
245.050461 96.0
245.175095 200.0
245.200027 104.0
245.340302 52.0
245.449417 108.0
245.48996 160.0
245.964188 128.0
246.042236 108.0
246.082825 120.0
246.169434 3036.0
246.212677 108.0
246.282684 84.0
246.426392 92.0
246.82959 52.0
247.169601 588.0
247.208099 172.0
247.521133 32.0
247.724716 132.0
247.875092 76.0
247.934631 176.0
248.165649 516.0
248.285767 84.0
248.408081 76.0
248.502197 164.0
248.602615 80.0
248.911179 124.0
249.082977 56.0
249.174881 188.0
250.029373 120.0
250.179321 284.0
250.284363 160.0
250.39772 148.0
250.898743 180.0
251.164185 308.0
251.308746 168.0
251.595947 160.0
251.965454 128.0
252.022324 92.0
252.166031 156.0
252.196136 124.0
252.895142 52.0
252.967941 104.0
253.145889 80.0
254.089798 68.0
254.135132 168.0
254.167725 268.0
254.750137 120.0
254.775543 104.0
254.853378 80.0
254.928055 152.0
255.067902 84.0
255.155289 172.0
255.245941 76.0
256.155182 116.0
256.739441 72.0
256.841522 116.0
257.023346 152.0
257.136963 260.0
257.323395 92.0
257.355316 88.0
257.652344 108.0
257.693878 116.0
258.00708 64.0
258.09021 100.0
258.118988 88.0
258.149231 176.0
258.186401 140.0
258.218109 68.0
258.330078 92.0
258.710876 76.0
258.864563 92.0
259.316284 168.0
259.733124 68.0
259.877472 36.0
260.066803 92.0
260.163025 132.0
260.199738 724.0
260.59668 96.0
260.844147 156.0
260.895569 48.0
261.033813 152.0
261.163605 172.0
261.199097 164.0
262.189514 36.0
262.218536 48.0
262.250763 144.0
262.660248 92.0
263.195831 184.0
263.473755 176.0
263.535126 144.0
263.606964 192.0
264.029724 96.0
264.15686 376.0
264.183258 432.0
264.35968 64.0
265.101257 164.0
265.153564 152.0
265.175812 316.0
265.196686 200.0
265.40274 104.0
265.908783 32.0
266.17511 472.0
266.792328 36.0
267.143524 188.0
267.166321 116.0
267.377808 96.0
267.814087 120.0
268.003021 92.0
268.061676 172.0
268.139893 96.0
268.190796 188.0
268.384399 60.0
268.739929 60.0
268.951324 128.0
269.017334 96.0
269.169403 296.0
269.178925 304.0
269.592163 88.0
270.081055 180.0
270.181274 140.0
270.576721 96.0
270.861633 208.0
271.081146 92.0
271.162567 332.0
271.38269 84.0
271.517151 32.0
271.717224 72.0
272.015869 144.0
272.111084 128.0
272.147186 120.0
272.186951 256.0
272.23584 32.0
272.25885 48.0
272.413208 72.0
272.597198 48.0
272.643219 68.0
272.843719 144.0
273.031128 152.0
273.12323 52.0
273.187897 152.0
273.206665 156.0
273.235077 48.0
273.402893 124.0
273.501617 44.0
273.679413 176.0
273.870422 204.0
273.932983 108.0
274.156952 140.0
274.206482 112.0
274.41745 176.0
274.915527 160.0
275.116882 52.0
275.163086 124.0
275.189514 80.0
275.516479 88.0
275.704803 140.0
275.946106 96.0
276.045319 36.0
276.131287 56.0
276.156891 256.0
276.190033 140.0
276.405853 96.0
276.57135 104.0
276.978607 104.0
277.170776 80.0
277.33316 88.0
277.495605 36.0
277.591736 116.0
277.691254 112.0
277.790741 96.0
277.813965 116.0
278.174591 472.0
278.208374 1444.0
278.790131 56.0
278.979614 48.0
279.175964 288.0
279.215515 908.0
279.352051 124.0
279.538361 88.0
279.761383 36.0
279.834625 52.0
280.044403 84.0
280.134338 52.0
280.174316 72.0
280.217621 48.0
280.254272 136.0
280.284271 40.0
280.937744 76.0
281.024475 116.0
281.137939 160.0
281.181335 64.0
281.208038 136.0
281.475098 60.0
282.06311 100.0
282.16745 1168.0
282.50116 172.0
282.962982 60.0
283.135193 132.0
283.171448 404.0
283.210815 176.0
283.435272 260.0
283.780487 60.0
283.807312 76.0
283.901215 112.0
284.185272 432.0
284.605103 156.0
284.824188 120.0
285.005585 96.0
285.112823 132.0
285.170258 100.0
285.196533 132.0
285.334991 164.0
286.193756 444.0
286.27713 64.0
286.401733 84.0
287.153351 80.0
287.205627 328.0
287.429596 108.0
287.575806 136.0
287.875549 84.0
287.956604 104.0
288.034302 72.0
288.194122 1012.0
288.228729 224.0
288.277557 56.0
289.089172 56.0
289.173767 368.0
289.258392 72.0
289.525879 116.0
289.56311 60.0
289.602325 132.0
289.906097 168.0
290.143677 144.0
290.186951 140.0
290.211609 228.0
290.24765 168.0
290.656403 120.0
290.753113 156.0
290.968597 132.0
291.024689 96.0
291.123169 152.0
291.188538 144.0
291.26239 64.0
291.388092 172.0
291.483246 68.0
291.547791 104.0
291.795929 96.0
291.993164 48.0
292.156433 100.0
292.45929 108.0
293.194946 160.0
293.443787 44.0
293.55304 104.0
293.604065 60.0
293.73642 84.0
294.166199 144.0
294.207703 140.0
294.710052 100.0
294.843323 76.0
294.96637 96.0
295.007385 92.0
295.177338 116.0
295.303375 200.0
295.992737 144.0
296.11261 180.0
296.185547 448.0
296.223816 980.0
296.366089 112.0
296.811707 112.0
296.959167 124.0
297.171844 108.0
297.225159 252.0
297.322815 92.0
297.388031 168.0
297.597443 164.0
297.70047 68.0
297.830963 60.0
298.07489 120.0
298.136749 152.0
298.174561 80.0
298.208923 64.0
298.235809 380.0
298.480499 136.0
298.556152 140.0
298.89328 128.0
299.128418 100.0
299.210571 128.0
299.554291 64.0
299.619751 44.0
300.116058 132.0
300.184113 240.0
300.234009 100.0
300.705963 60.0
301.054657 180.0
302.184601 140.0
302.206787 260.0
302.38031 140.0
302.582977 44.0
302.669525 148.0
302.745728 156.0
302.811523 32.0
302.884247 212.0
303.187927 328.0
304.190155 660.0
304.330414 68.0
304.841003 88.0
305.122559 168.0
306.044556 248.0
306.079376 212.0
306.145538 164.0
306.209503 544.0
306.724854 116.0
307.194458 540.0
307.240021 232.0
308.218536 264.0
308.518188 76.0
308.6091 100.0
308.899353 132.0
308.927338 152.0
309.158264 120.0
309.224762 136.0
309.981201 72.0
310.17749 292.0
310.212524 164.0
310.261597 200.0
310.584229 180.0
310.664917 52.0
310.966675 64.0
311.159729 76.0
311.194855 68.0
311.244019 92.0
311.31073 72.0
311.658478 208.0
311.763885 52.0
312.181366 164.0
312.340515 88.0
312.39679 168.0
312.83316 132.0
313.738525 172.0
314.186798 236.0
314.231567 528.0
314.72287 44.0
314.832336 188.0
314.927673 140.0
315.157318 212.0
315.242126 88.0
315.616821 56.0
315.75473 84.0
315.884186 120.0
316.02356 224.0
316.213287 900.0
316.515564 196.0
316.561615 120.0
316.604095 172.0
316.698547 96.0
317.057556 60.0
317.085907 88.0
317.114258 32.0
317.211029 340.0
317.287964 84.0
317.351776 156.0
318.195892 324.0
318.248413 452.0
318.292053 228.0
318.327576 104.0
319.236816 128.0
319.329773 96.0
319.423309 84.0
319.500519 136.0
319.785187 128.0
320.215973 132.0
320.240906 168.0
320.401215 112.0
320.764709 52.0
320.960785 132.0
321.0 52.0
321.07489 40.0
321.121246 68.0
321.363831 40.0
321.435211 32.0
321.602936 32.0
321.756439 96.0
322.163544 148.0
322.199097 284.0
322.345764 116.0
322.817627 136.0
322.867706 116.0
322.949951 140.0
323.215393 440.0
323.454468 52.0
323.787476 88.0
324.070465 100.0
324.102692 144.0
324.167877 64.0
324.221741 108.0
324.269073 132.0
324.393005 44.0
324.486206 48.0
324.676239 52.0
324.758759 168.0
324.902222 72.0
324.93811 108.0
325.197723 632.0
325.31134 44.0
325.35083 92.0
325.605774 80.0
325.882355 92.0
325.97937 172.0
326.144714 64.0
326.202789 608.0
326.464691 124.0
326.781219 112.0
327.083527 32.0
327.211212 288.0
327.53363 68.0
327.807434 52.0
327.875916 136.0
327.991241 36.0
328.117401 112.0
328.196716 60.0
329.124054 92.0
329.210602 128.0
329.261261 128.0
329.362396 124.0
329.893585 160.0
330.228851 248.0
330.55545 80.0
330.656799 156.0
330.852264 140.0
331.152802 116.0
331.352051 88.0
331.562195 180.0
332.338226 112.0
332.526917 128.0
333.238678 116.0
334.129425 44.0
334.204895 292.0
334.235168 136.0
334.850159 52.0
334.941223 128.0
335.108795 100.0
335.218109 40.0
335.247253 400.0
335.378448 160.0
335.484161 56.0
335.542511 112.0
335.83786 108.0
336.213226 356.0
336.247986 672.0
336.397888 108.0
336.867249 164.0
336.918365 88.0
337.040009 48.0
337.174164 124.0
337.199738 120.0
337.252686 240.0
337.331329 96.0
337.717834 140.0
337.971344 116.0
338.07016 148.0
338.219696 116.0
338.410553 120.0
338.483795 148.0
338.912354 84.0
339.187225 104.0
339.229218 388.0
339.82901 232.0
340.027161 64.0
340.088135 128.0
340.204468 328.0
340.51178 96.0
340.706451 96.0
340.816681 64.0
340.945282 36.0
341.044525 104.0
341.195251 200.0
341.227386 312.0
341.930908 104.0
342.052399 136.0
342.224304 472.0
342.284332 192.0
342.696869 112.0
342.770569 88.0
342.859009 40.0
343.216217 188.0
343.655487 124.0
343.814178 104.0
343.939667 180.0
344.059387 92.0
344.215851 808.0
344.275635 124.0
344.308868 180.0
344.427063 212.0
344.593292 148.0
344.75589 76.0
344.877319 192.0
345.166199 144.0
345.221313 180.0
345.576782 148.0
345.602692 208.0
345.814972 184.0
346.017212 60.0
346.187531 144.0
346.228271 104.0
346.450531 44.0
346.611877 160.0
346.680237 80.0
346.965637 60.0
347.225006 468.0
347.299164 196.0
347.440338 100.0
347.503418 156.0
347.551666 128.0
347.89682 96.0
348.052856 136.0
348.216156 200.0
348.247253 312.0
348.502197 68.0
348.609955 144.0
348.687988 160.0
349.015137 44.0
349.595428 68.0
350.195648 108.0
350.266266 200.0
350.451843 64.0
350.500305 136.0
350.697815 176.0
350.802185 60.0
351.14151 212.0
351.249664 64.0
351.473511 100.0
351.813141 116.0
351.874634 120.0
351.932617 144.0
352.204468 96.0
352.227386 164.0
352.254333 140.0
352.481689 184.0
352.92276 52.0
353.008759 80.0
353.214752 316.0
353.248688 136.0
353.397797 168.0
353.483856 80.0
354.023651 140.0
354.064087 136.0
354.228912 132.0
354.266266 296.0
354.498657 76.0
354.629822 172.0
354.734772 80.0
355.019745 120.0
355.12851 92.0
355.25824 156.0
355.413605 52.0
355.665039 92.0
355.74765 136.0
355.773926 96.0
356.247101 88.0
356.273376 120.0
356.431183 104.0
356.863434 64.0
356.913513 200.0
356.936127 96.0
357.122925 120.0
357.240723 252.0
357.487854 72.0
357.555603 156.0
357.762604 112.0
357.811554 140.0
357.852966 60.0
357.920746 104.0
358.231354 436.0
358.257233 164.0
358.307678 180.0
358.384033 108.0
358.659149 140.0
358.738312 112.0
359.228546 76.0
359.258728 272.0
359.492645 108.0
359.605865 100.0
359.695007 124.0
359.887695 184.0
360.220459 160.0
360.257355 164.0
360.272522 132.0
360.508484 116.0
360.852448 112.0
360.954559 80.0
362.227325 1568.0
362.287445 164.0
362.370148 40.0
362.517944 52.0
362.559631 48.0
362.840118 76.0
362.878021 88.0
363.233795 368.0
363.283813 124.0
363.500092 120.0
363.648102 52.0
364.02774 112.0
364.153076 68.0
364.194855 132.0
364.227905 484.0
364.468384 124.0
365.183075 188.0
365.234497 384.0
365.472198 120.0
365.997467 48.0
366.168823 148.0
366.233002 228.0
366.30835 76.0
366.904236 136.0
366.942383 116.0
367.258881 96.0
367.350433 104.0
367.444336 136.0
367.674744 88.0
367.754913 28.0
368.022125 84.0
368.205414 120.0
368.53775 132.0
368.614197 104.0
369.275421 272.0
369.550995 100.0
369.623688 92.0
370.021759 52.0
370.210815 168.0
370.259857 112.0
370.960327 156.0
371.224884 124.0
371.347626 100.0
372.130463 156.0
372.163879 164.0
372.256683 164.0
372.287872 156.0
372.875671 108.0
373.048645 112.0
373.113983 164.0
373.158264 164.0
373.243439 120.0
373.560089 116.0
373.748596 100.0
373.991638 136.0
374.209808 160.0
374.220642 132.0
374.232361 164.0
374.691925 116.0
375.138947 80.0
375.719055 112.0
375.867889 44.0
376.346527 128.0
376.86795 168.0
377.28537 160.0
378.233093 84.0
378.446045 48.0
378.612549 152.0
378.767456 60.0
378.903046 208.0
379.139404 92.0
379.174286 96.0
379.321594 112.0
379.3526 172.0
379.402985 100.0
379.465027 96.0
379.911011 36.0
380.085602 84.0
380.241699 7984.0
380.302765 168.0
380.365051 40.0
380.485382 120.0
380.531982 36.0
380.570801 60.0
381.036865 40.0
381.102936 60.0
381.171783 160.0
381.246796 1696.0
381.290558 180.0
381.339966 124.0
381.425476 92.0
381.678192 44.0
381.712219 64.0
381.775391 56.0
381.923187 32.0
381.985443 164.0
382.016541 60.0
382.059357 116.0
382.251801 496.0
382.479614 52.0
382.549683 96.0
382.628571 120.0
382.86377 144.0
383.013062 72.0
383.241455 1352.0
383.297638 176.0
383.348114 76.0
383.472839 92.0
383.531311 68.0
383.5625 64.0
383.808105 92.0
383.839294 88.0
384.010895 100.0
384.038177 108.0
384.251923 456.0
384.62738 92.0
384.842102 88.0
384.881134 92.0
385.017822 84.0
385.22998 124.0
385.529572 100.0
385.787537 152.0
385.838379 56.0
386.069061 156.0
386.257294 124.0
386.311554 120.0
386.338959 144.0
386.374176 68.0
386.75766 112.0
386.914246 104.0
386.972961 132.0
387.772095 116.0
387.79953 80.0
388.764313 84.0
389.227509 80.0
389.844238 168.0
390.213745 128.0
390.634521 152.0
390.74469 32.0
390.941406 124.0
391.126526 132.0
391.862823 76.0
392.004669 128.0
392.111084 48.0
392.235016 384.0
392.954926 108.0
393.207489 132.0
393.244598 236.0
393.41275 168.0
393.46405 160.0
393.59436 72.0
393.704926 136.0
393.776001 104.0
393.949799 52.0
394.247864 192.0
394.633514 44.0
394.728424 212.0
394.886627 124.0
394.930115 164.0
395.032959 92.0
395.199127 76.0
395.257385 116.0
395.765137 100.0
395.883942 328.0
396.239624 112.0
396.43457 136.0
396.50592 188.0
396.779419 64.0
397.068878 120.0
397.108551 104.0
397.140259 140.0
397.275146 192.0
397.44574 80.0
397.478333 164.0
397.533051 140.0
397.691772 116.0
397.735443 132.0
397.838654 104.0
397.922028 100.0
398.253845 10564.0
398.321228 200.0
398.553558 124.0
398.585327 192.0
398.616089 84.0
398.65686 28.0
398.705597 76.0
398.773438 96.0
398.838806 72.0
398.88739 68.0
399.006653 72.0
399.082184 48.0
399.161713 112.0
399.19751 188.0
399.255463 2792.0
399.379181 76.0
399.466064 52.0
399.555481 84.0
399.63504 36.0
399.734528 36.0
399.822083 28.0
400.068848 100.0
400.144501 104.0
400.258423 784.0
400.315735 64.0
400.361237 48.0
400.41925 48.0
400.455994 164.0
400.937195 92.0
400.991028 92.0
401.204254 136.0
401.238037 276.0
401.268585 504.0
401.407593 72.0
401.454041 80.0
401.624054 144.0
401.73465 52.0
401.83551 128.0
401.894226 172.0
402.021606 104.0
402.115601 76.0
402.185547 136.0
402.216034 132.0
402.417084 48.0
402.732025 88.0
402.840424 52.0
403.156067 44.0
403.263977 80.0
403.771729 152.0
403.995728 60.0
404.279816 112.0
404.571564 116.0
404.676086 76.0
404.780182 76.0
404.848267 84.0
404.984436 68.0
405.076569 108.0
405.116638 192.0
405.164703 144.0
405.489258 132.0
405.529358 92.0
405.661621 100.0
406.227051 44.0
406.278412 124.0
407.174316 80.0
407.383179 164.0
407.503693 104.0
407.652374 100.0
408.187012 120.0
408.277008 1076.0
408.355927 152.0
408.593262 72.0
408.77832 72.0
408.951385 168.0
409.043976 176.0
409.23822 176.0
409.276093 424.0
409.486877 48.0
409.547302 88.0
409.764832 164.0
409.797058 120.0
409.98645 164.0
410.087189 68.0
410.131134 156.0
410.196045 96.0
410.252197 3884.0
410.3573 48.0
410.522614 92.0
410.591156 60.0
410.70813 68.0
411.145355 120.0
411.256195 696.0
411.394135 68.0
411.608093 156.0
411.69696 84.0
411.814056 44.0
412.262939 416.0
412.302917 148.0
412.416107 44.0
412.492889 72.0
412.719299 52.0
412.921478 88.0
413.172272 88.0
413.267639 272.0
413.390778 48.0
413.617432 124.0
413.706482 72.0
413.819824 40.0
413.856293 120.0
414.002045 56.0
414.249786 2048.0
414.322052 28.0
414.601624 144.0
414.877258 72.0
414.938049 84.0
415.084015 48.0
415.112427 48.0
415.24646 268.0
415.388214 100.0
415.518036 104.0
415.700623 144.0
415.964417 100.0
416.046387 124.0
416.129791 256.0
416.262482 4328.0
416.545105 72.0
416.650726 52.0
416.752289 112.0
416.815796 108.0
416.879822 108.0
417.000183 72.0
417.20343 44.0
417.269379 1516.0
417.337585 44.0
417.764618 104.0
417.862274 92.0
417.943634 84.0
418.061646 92.0
418.262238 264.0
418.403564 176.0
418.741547 56.0
418.867798 52.0
419.258942 128.0
419.654327 92.0
419.833771 84.0
419.931641 32.0
420.292175 192.0
420.792664 228.0
421.286835 112.0
421.360352 48.0
421.476837 172.0
422.28009 56.0
422.378265 80.0
422.971588 180.0
423.168091 112.0
423.233612 104.0
423.286835 128.0
423.753784 152.0
423.880798 44.0
424.188171 84.0
424.635101 80.0
424.717163 80.0
425.106903 136.0
425.250549 60.0
425.291595 172.0
425.505066 116.0
425.870514 140.0
426.251221 260.0
426.285065 140.0
427.233398 152.0
427.257935 172.0
427.321442 132.0
427.482117 116.0
427.527374 120.0
427.906067 136.0
428.261414 1760.0
428.457947 172.0
428.828827 96.0
429.12561 92.0
429.257385 364.0
429.571014 128.0
429.670044 72.0
429.785553 140.0
429.967133 200.0
430.078552 104.0
430.164673 88.0
430.214783 116.0
430.289093 88.0
430.429474 180.0
430.543274 72.0
430.89621 80.0
430.92926 104.0
431.082153 72.0
431.270111 1948.0
431.727051 52.0
431.813904 52.0
431.888336 200.0
432.012451 88.0
432.165527 84.0
432.266022 480.0
432.446899 124.0
432.798798 60.0
433.270325 108.0
433.320679 44.0
433.967224 68.0
434.016998 64.0
434.279144 260.0
434.693115 48.0
434.751221 116.0
435.099884 120.0
435.348999 180.0
435.436218 108.0
435.500397 124.0
435.564972 92.0
435.926453 28.0
435.976318 48.0
436.022034 96.0
436.433563 120.0
436.653961 160.0
437.278046 112.0
437.710999 104.0
437.977539 148.0
438.260803 108.0
438.314972 132.0
438.42749 160.0
438.931915 220.0
438.969421 128.0
439.207153 196.0
439.590973 180.0
439.753754 36.0
440.221344 64.0
440.268829 108.0
440.384979 108.0
441.173981 120.0
441.295197 136.0
441.483368 68.0
441.692505 120.0
441.730133 92.0
442.031372 100.0
442.713715 140.0
442.759796 136.0
442.864502 108.0
442.893829 96.0
443.086517 124.0
443.153534 40.0
443.199646 200.0
443.350494 40.0
443.543274 44.0
444.292877 760.0
444.401611 108.0
444.67157 64.0
444.734528 112.0
445.015778 112.0
445.16275 64.0
445.262817 136.0
445.302277 388.0
445.486176 84.0
445.561768 104.0
445.792877 84.0
445.881134 168.0
445.945648 148.0
446.045044 156.0
446.137543 120.0
446.183777 44.0
446.27359 3140.0
446.364563 108.0
446.473907 148.0
446.515961 88.0
446.911407 136.0
446.974518 68.0
447.0755 68.0
447.278656 1216.0
447.382751 108.0
447.622742 92.0
447.850189 124.0
448.278076 312.0
448.347321 60.0
448.423187 52.0
448.511688 44.0
448.574921 36.0
448.924866 116.0
449.097778 64.0
449.447937 52.0
449.51123 60.0
449.95636 140.0
450.136688 120.0
450.266907 104.0
450.562592 56.0
450.592163 108.0
450.665039 96.0
450.718903 96.0
450.828766 40.0
451.340271 204.0
451.775879 180.0
451.894348 76.0
452.84259 100.0
453.455078 140.0
453.495056 128.0
454.198914 180.0
454.254059 80.0
454.440735 76.0
454.678375 116.0
454.962769 80.0
455.306702 120.0
455.391632 44.0
455.506317 68.0
456.254242 120.0
456.288269 128.0
456.424316 120.0
456.615692 92.0
456.687988 68.0
456.896423 132.0
457.070862 76.0
457.284393 432.0
457.377289 72.0
458.294678 344.0
458.501709 36.0
458.535797 56.0
458.876831 124.0
459.299011 120.0
459.53363 152.0
459.956116 44.0
460.263519 88.0
460.617981 104.0
460.673523 108.0
461.515472 160.0
461.695068 72.0
461.874695 52.0
462.375305 88.0
462.585022 64.0
462.734863 68.0
462.829071 96.0
462.863312 140.0
462.931824 152.0
463.034607 140.0
463.820526 84.0
463.865845 48.0
464.157379 32.0
464.200256 52.0
464.300232 788.0
464.384674 88.0
464.526215 140.0
464.616302 52.0
464.710693 88.0
465.303345 340.0
465.573486 84.0
465.964386 124.0
465.998749 144.0
466.07608 68.0
466.26947 84.0
466.308289 140.0
466.424194 56.0
466.699341 36.0
466.875641 68.0
467.159515 168.0
467.22406 152.0
467.330872 92.0
467.460693 96.0
467.783508 36.0
467.882507 104.0
468.297272 708.0
468.9422 60.0
468.99823 188.0
469.291351 148.0
469.394836 80.0
470.227448 40.0
470.266113 88.0
470.546875 156.0
470.628937 112.0
470.935547 36.0
471.073761 52.0
471.31955 148.0
471.600922 136.0
471.713318 60.0
472.028931 112.0
472.286102 288.0
473.223145 132.0
473.422333 120.0
473.673553 68.0
474.011475 108.0
474.050476 68.0
474.509949 76.0
474.627014 56.0
475.156158 108.0
475.503296 112.0
475.920044 96.0
476.015564 48.0
476.300293 128.0
476.723633 68.0
478.176178 180.0
478.59845 164.0
478.646362 36.0
478.777008 112.0
478.920715 44.0
479.517639 60.0
479.661469 172.0
480.1716 104.0
480.791107 60.0
480.869659 72.0
481.004974 84.0
481.319336 92.0
481.445953 204.0
481.957062 120.0
482.310425 668.0
482.64328 216.0
482.953796 180.0
483.115631 80.0
483.303711 320.0
483.496307 124.0
483.658264 72.0
483.828979 184.0
484.507782 156.0
484.748779 88.0
484.94162 80.0
485.362457 128.0
485.880005 56.0
485.967773 48.0
486.020416 108.0
486.191559 96.0
486.299561 996.0
486.389069 184.0
486.503204 108.0
486.674408 136.0
486.792969 196.0
486.863251 136.0
486.942291 108.0
487.034515 128.0
487.21463 52.0
487.312012 404.0
487.355225 48.0
487.385986 108.0
487.456299 112.0
487.87384 88.0
488.299072 276.0
488.370728 40.0
488.457275 136.0
488.502686 100.0
488.947083 144.0
489.246216 92.0
489.281616 120.0
490.687042 52.0
491.423584 152.0
492.279907 112.0
492.513977 128.0
492.951355 112.0
493.362427 176.0
493.464111 84.0
493.614441 80.0
494.374634 132.0
494.423981 96.0
494.485962 172.0
494.742676 132.0
495.916534 112.0
496.182495 84.0
496.788025 112.0
497.020782 112.0
497.318054 520.0
497.424652 140.0
498.328094 120.0
498.517242 184.0
498.592804 60.0
499.139587 104.0
499.329315 124.0
499.704468 124.0
500.056 104.0
500.153931 88.0
500.320343 420.0
500.771667 92.0
501.169312 96.0
501.318268 300.0
501.387665 112.0
501.534729 348.0
501.613678 68.0
501.744263 152.0
501.90921 132.0
502.12326 96.0
502.181244 84.0
502.328461 112.0
502.395355 44.0
502.487305 92.0
502.59613 132.0
503.024567 88.0
503.185303 60.0
503.667603 108.0
503.949036 64.0
504.055145 168.0
504.316071 1596.0
504.713348 116.0
504.88327 84.0
505.05304 88.0
505.329895 168.0
505.706482 136.0
505.796021 52.0
505.894501 104.0
506.087006 76.0
506.140747 104.0
506.295563 188.0
506.339661 124.0
506.499023 28.0
506.530365 48.0
506.646851 72.0
506.702179 104.0
506.911194 40.0
507.000824 108.0
507.767456 192.0
508.234009 100.0
508.287842 140.0
508.786041 100.0
509.29306 132.0
509.329407 132.0
509.859589 192.0
510.030365 176.0
510.250641 100.0
510.623871 124.0
511.379059 192.0
511.502747 96.0
511.897461 88.0
511.933472 176.0
512.113647 40.0
512.194702 36.0
512.320801 108.0
512.350037 64.0
512.401917 168.0
512.541626 144.0
512.667786 48.0
513.136536 68.0
513.306458 128.0
513.359558 152.0
513.479248 120.0
513.569458 84.0
514.368103 104.0
514.553223 76.0
514.986755 344.0
515.32843 460.0
515.54071 124.0
515.646362 116.0
515.741272 104.0
515.845276 64.0
516.125549 76.0
516.17981 132.0
516.336243 288.0
516.410461 52.0
517.275879 156.0
517.376709 128.0
517.659546 64.0
518.837585 92.0
519.250244 120.0
519.286499 64.0
519.676636 128.0
519.926208 56.0
520.098694 56.0
520.221252 196.0
520.2771 168.0
520.562073 120.0
520.761597 124.0
520.797913 92.0
521.097778 52.0
521.35675 116.0
521.434021 52.0
521.647644 44.0
521.728577 104.0
521.774963 100.0
521.834045 128.0
521.92041 132.0
522.075012 108.0
522.134155 136.0
522.170532 108.0
522.225098 132.0
522.330383 11116.0
522.434387 88.0
522.548096 28.0
522.616333 104.0
522.670959 140.0
522.752869 100.0
522.893921 108.0
522.939453 100.0
522.971313 44.0
523.014343 132.0
523.056091 68.0
523.139709 84.0
523.189819 132.0
523.332581 3008.0
523.443237 92.0
523.601257 80.0
523.658386 44.0
523.757141 68.0
523.816101 64.0
523.920837 100.0
523.973145 76.0
524.100708 60.0
524.16333 48.0
524.2146 40.0
524.246521 196.0
524.332703 1112.0
524.611145 36.0
524.716003 72.0
524.830017 32.0
524.87561 40.0
525.032715 80.0
525.149231 32.0
525.267822 60.0
525.343079 176.0
525.473083 48.0
525.63739 56.0
525.701233 64.0
525.854919 72.0
526.087219 100.0
526.157715 100.0
526.217041 128.0
526.249023 136.0
526.331177 76.0
526.515869 100.0
526.568665 104.0
526.623474 92.0
526.733093 152.0
526.833557 64.0
527.41394 108.0
527.592224 40.0
527.723145 72.0
527.811646 76.0
527.857361 92.0
527.985413 40.0
528.09845 124.0
528.570984 136.0
528.822693 104.0
529.345459 172.0
529.394775 108.0
529.547791 152.0
529.784302 136.0
529.862183 40.0
530.398315 60.0
531.136597 88.0
531.237488 160.0
531.325195 96.0
532.072693 116.0
532.114014 144.0
532.311462 76.0
532.632996 144.0
532.917786 228.0
533.230286 68.0
533.460083 188.0
533.630188 144.0
533.69458 52.0
533.975098 100.0
534.191284 124.0
535.328125 136.0
535.46167 36.0
536.323242 52.0
536.562988 112.0
536.853455 100.0
537.263977 160.0
537.351135 400.0
537.782776 156.0
538.034668 104.0
538.334717 244.0
538.574951 52.0
538.810547 32.0
538.907593 164.0
539.02771 88.0
539.320312 116.0
539.360474 120.0
539.594482 84.0
539.771912 140.0
539.887512 88.0
539.98468 56.0
540.352112 3164.0
540.461121 48.0
540.562927 128.0
540.822083 44.0
540.900818 56.0
540.979492 80.0
541.08136 60.0
541.150757 76.0
541.197083 60.0
541.356995 1112.0
541.581482 44.0
541.743591 100.0
541.808411 128.0
542.35675 524.0
542.749329 36.0
543.358643 264.0
543.565674 52.0
543.61676 48.0
543.663147 164.0
543.820923 100.0
544.415222 124.0
544.512756 80.0
544.582397 40.0
544.638123 56.0
544.893616 92.0
545.07019 192.0
545.15387 68.0
545.205811 88.0
545.316528 144.0
545.572144 72.0
545.851135 92.0
545.888306 52.0
545.950806 112.0
546.130188 164.0
546.251099 44.0
546.325378 112.0
546.637268 40.0
546.837402 48.0
547.093384 48.0
547.144592 112.0
547.321533 84.0
547.437927 48.0
547.554382 52.0
547.624207 76.0
547.661499 44.0
548.211243 128.0
548.495544 52.0
548.747314 64.0
548.915161 72.0
549.512207 104.0
549.801514 56.0
550.328674 116.0
550.693237 80.0
550.777283 136.0
551.076294 80.0
551.1604 144.0
551.595032 108.0
551.679199 128.0
551.716553 88.0
551.768005 116.0
552.546082 76.0
552.581787 84.0
552.670654 92.0
552.792358 132.0
552.942078 44.0
553.096558 80.0
553.344666 172.0
553.442993 156.0
553.761414 72.0
554.267395 48.0
554.468872 32.0
554.506348 64.0
554.609497 144.0
554.941101 136.0
555.097412 100.0
555.204895 108.0
555.361328 5412.0
555.489929 172.0
555.580139 32.0
555.641174 60.0
555.692749 84.0
555.765381 84.0
555.894531 40.0
556.091614 84.0
556.202881 124.0
556.26062 160.0
556.365601 1852.0
556.463501 164.0
556.570496 48.0
556.664368 76.0
556.791199 52.0
556.871033 44.0
556.985046 72.0
557.058899 116.0
557.117615 64.0
557.289124 100.0
557.361938 516.0
557.477051 188.0
557.526245 112.0
557.669739 84.0
557.857788 56.0
557.895386 104.0
558.224487 96.0
558.360413 5012.0
558.478455 116.0
558.577271 56.0
558.610168 52.0
558.671326 52.0
558.840698 124.0
558.958313 56.0
559.024231 60.0
559.186218 104.0
559.257263 116.0
559.364746 1400.0
559.556091 92.0
559.783264 84.0
559.854248 88.0
559.890442 56.0
559.95636 72.0
560.022278 172.0
560.135376 64.0
560.196594 52.0
560.376465 812.0
560.460449 92.0
560.49176 88.0
560.549927 104.0
560.597046 112.0
560.667786 64.0
560.714905 56.0
560.776184 64.0
560.898682 60.0
560.931702 44.0
561.139465 60.0
561.233459 48.0
561.271179 56.0
561.313599 32.0
561.381104 204.0
561.563538 116.0
561.733337 116.0
561.874878 104.0
562.035278 68.0
562.389221 176.0
562.630005 108.0
562.809387 96.0
563.106873 148.0
563.233459 76.0
563.314758 36.0
564.453735 40.0
564.841553 140.0
565.17749 140.0
565.726501 40.0
567.142822 112.0
567.340698 260.0
567.35376 56.0
567.420898 108.0
568.261963 48.0
568.361633 136.0
568.891846 172.0
569.342712 124.0
569.410767 100.0
569.505737 148.0
569.795471 84.0
570.124023 116.0
570.170898 112.0
570.364868 188.0
571.361633 432.0
571.530945 56.0
571.626099 160.0
571.883057 88.0
572.330933 164.0
572.392456 120.0
572.530579 80.0
572.883057 120.0
572.944946 136.0
573.21698 200.0
573.37262 2408.0
573.52063 180.0
573.581177 52.0
574.184326 52.0
574.298767 112.0
574.370056 1556.0
575.119446 160.0
575.384277 560.0
575.482239 44.0
575.51886 72.0
575.630249 172.0
576.01239 84.0
576.35498 120.0
576.387573 172.0
576.528381 136.0
576.757751 80.0
577.226318 116.0
577.393677 92.0
577.460632 116.0
577.494141 60.0
577.857666 88.0
578.049072 92.0
578.2453 40.0
578.680786 148.0
579.097534 36.0
579.408875 36.0
579.940796 224.0
580.10376 124.0
581.115662 176.0
582.853821 88.0
583.199829 88.0
583.417603 92.0
584.517578 116.0
585.371033 1192.0
585.509277 48.0
585.807861 60.0
585.880127 148.0
586.381653 724.0
586.463196 52.0
586.723511 48.0
587.104431 88.0
587.382019 168.0
587.514404 44.0
587.855835 164.0
588.103149 80.0
588.305847 96.0
588.421753 52.0
588.46521 136.0
588.677673 108.0
588.94812 116.0
589.039856 32.0
589.339417 72.0
589.391846 80.0
589.503723 124.0
589.6922 28.0
589.982239 104.0
590.366577 160.0
590.552795 124.0
590.823669 44.0
591.386169 360.0
592.395203 220.0
592.445496 92.0
592.595642 156.0
592.968811 48.0
593.385681 116.0
593.498291 52.0
594.054932 68.0
594.462463 100.0
594.574097 168.0
594.807068 112.0
595.069214 160.0
595.214905 148.0
595.447998 40.0
595.729736 136.0
595.992065 100.0
596.239929 116.0
596.784363 64.0
597.703613 68.0
597.752319 148.0
598.13678 132.0
598.516541 48.0
598.930481 124.0
599.076599 156.0
599.505371 64.0
599.695435 80.0
600.090332 68.0
600.156799 104.0
600.370667 164.0
600.446289 88.0
601.168335 108.0
601.358643 96.0
601.407471 124.0
601.993286 152.0
602.134949 168.0
602.362915 124.0
602.708801 136.0
603.048584 52.0
603.229431 80.0
603.384705 7196.0
603.591248 104.0
603.654785 120.0
603.723267 68.0
603.794495 112.0
603.884644 56.0
604.021606 56.0
604.143921 72.0
604.287048 160.0
604.388367 2536.0
604.706482 120.0
604.760437 48.0
604.815613 88.0
604.921997 68.0
605.054138 52.0
605.279419 104.0
605.387451 440.0
605.48999 28.0
605.592834 40.0
605.632019 132.0
605.803467 104.0
605.906311 40.0
605.965088 52.0
606.082703 72.0
606.161133 44.0
606.389954 112.0
607.131714 88.0
607.568298 52.0
607.6026 88.0
607.64679 40.0
608.99762 116.0
609.099609 72.0
609.473267 40.0
609.559448 148.0
609.957458 44.0
610.058105 104.0
611.199158 36.0
611.706055 208.0
612.479187 124.0
613.080261 108.0
613.592896 92.0
614.085999 120.0
614.187012 160.0
614.26355 116.0
615.675171 104.0
615.872742 148.0
616.099976 84.0
616.139465 108.0
616.430969 128.0
616.959839 116.0
617.068604 112.0
617.388 108.0
617.597778 48.0
617.978699 100.0
618.364685 48.0
618.523071 124.0
618.838379 120.0
618.978516 48.0
619.201355 120.0
619.369751 84.0
619.582764 100.0
620.073364 148.0
620.167542 100.0
620.742615 100.0
620.916199 68.0
621.412231 72.0
621.481689 148.0
621.732544 108.0
621.987915 124.0
622.156677 84.0
622.390015 116.0
622.439697 116.0
623.671753 60.0
624.208679 80.0
624.447388 92.0
625.626709 64.0
625.761108 168.0
626.094727 64.0
626.29895 48.0
626.662598 160.0
626.948547 88.0
627.195801 140.0
627.26062 84.0
627.345337 124.0
627.396118 172.0
627.460022 188.0
628.193115 80.0
629.41333 92.0
630.27002 116.0
630.330017 108.0
630.404968 88.0
630.589844 76.0
631.39978 140.0
631.604858 48.0
632.455505 132.0
632.74585 168.0
632.886047 40.0
632.951111 92.0
633.336731 136.0
633.471985 144.0
634.375427 184.0
634.930542 44.0
636.822693 152.0
637.078857 68.0
638.285095 68.0
638.757874 132.0
639.083496 144.0
640.005981 100.0
640.403809 96.0
640.726196 116.0
640.882385 96.0
642.218323 112.0
643.333496 176.0
643.411438 556.0
643.636414 64.0
644.005066 96.0
644.390259 112.0
644.43158 216.0
645.369568 176.0
645.424927 152.0
645.495972 76.0
646.477356 76.0
647.575928 192.0
647.986267 132.0
648.340942 152.0
648.403687 84.0
648.974609 140.0
649.664368 104.0
649.735352 68.0
650.298645 136.0
651.024597 204.0
651.395386 120.0
651.659546 216.0
652.109375 140.0
652.584595 80.0
652.671021 100.0
653.464478 120.0
654.599548 92.0
654.711609 204.0
654.950989 60.0
656.077148 96.0
656.347351 140.0
656.464661 136.0
656.609802 88.0
657.811646 148.0
658.123047 80.0
658.291565 72.0
658.363037 108.0
658.424316 164.0
658.746094 104.0
659.422424 312.0
659.671021 56.0
659.824402 56.0
660.060608 104.0
660.141418 88.0
660.213013 56.0
660.535217 84.0
660.639526 108.0
660.719421 40.0
660.79895 44.0
661.098022 204.0
661.195251 132.0
661.33197 188.0
661.423706 7696.0
661.515564 200.0
661.664795 128.0
661.871033 176.0
662.014221 120.0
662.21991 64.0
662.43219 2848.0
662.531738 64.0
662.593201 64.0
662.697632 104.0
662.736633 112.0
662.798157 60.0
662.900635 64.0
663.013367 48.0
663.07489 48.0
663.27478 72.0
663.320862 52.0
663.43573 852.0
663.520813 104.0
663.841187 124.0
664.03363 52.0
664.069519 72.0
664.156677 40.0
664.197754 52.0
664.259277 68.0
664.300354 36.0
664.432312 348.0
664.510681 76.0
664.68512 168.0
664.864746 52.0
664.987915 48.0
665.203491 44.0
665.434509 40.0
665.804199 132.0
665.926392 152.0
666.091858 64.0
666.138062 28.0
666.235657 48.0
666.343567 152.0
666.497742 36.0
666.69812 64.0
666.847168 72.0
666.908813 80.0
666.97052 180.0
667.176147 92.0
667.304688 160.0
667.443481 84.0
667.872559 120.0
668.101807 132.0
668.30249 144.0
668.497986 120.0
668.580383 120.0
669.331909 88.0
669.548218 136.0
669.58429 92.0
669.754211 56.0
670.557983 104.0
670.609558 40.0
670.712402 92.0
670.732788 88.0
670.751221 172.0
671.068359 72.0
671.192078 180.0
671.243652 88.0
671.290039 176.0
671.558228 56.0
671.707825 28.0
671.755493 188.0
671.852295 76.0
671.958923 72.0
672.148438 128.0
672.351257 136.0
672.457764 104.0
672.523071 40.0
672.59021 96.0
672.810181 96.0
672.868958 228.0
673.003174 36.0
673.039368 88.0
673.158081 88.0
673.214905 76.0
673.35437 116.0
673.395691 76.0
673.457886 80.0
673.672058 172.0
673.855713 72.0
673.974243 200.0
674.020752 48.0
674.067261 172.0
674.151672 128.0
674.279175 88.0
674.346313 92.0
674.444519 72.0
674.650818 84.0
674.827087 64.0
674.894287 76.0
674.95636 84.0
675.033936 84.0
675.179688 44.0
675.193176 80.0
675.212646 144.0
675.318359 60.0
675.354553 108.0
675.514893 52.0
675.599854 152.0
675.644775 80.0
675.723999 96.0
675.743958 132.0
675.783936 80.0
675.830505 116.0
675.959839 156.0
676.055908 108.0
676.203125 68.0
676.265198 88.0
676.342834 84.0
676.384277 96.0
676.44635 88.0
676.549927 40.0
676.661743 120.0
676.708496 176.0
676.770386 164.0
676.845032 108.0
676.879639 128.0
676.917542 240.0
677.000366 100.0
677.081787 100.0
677.126892 52.0
677.16095 124.0
677.212708 44.0
677.405273 380.0
677.425964 244.0
677.612793 104.0
677.653015 64.0
677.729736 80.0
677.793884 128.0
677.870667 124.0
677.928406 88.0
677.976929 152.0
678.052063 160.0
678.099304 140.0
678.255737 148.0
678.308899 132.0
678.32312 120.0
678.376282 104.0
678.424072 248.0
678.598145 128.0
678.635681 108.0
678.746704 128.0
678.787415 56.0
678.858521 100.0
678.92218 152.0
679.024475 164.0
679.066223 52.0
679.084778 124.0
679.143616 192.0
679.19635 152.0
679.253723 456.0
679.289246 132.0
679.308105 144.0
679.331177 168.0
679.437622 49492.0
679.575928 164.0
679.662598 152.0
679.727844 132.0
679.785889 156.0
679.832458 168.0
679.87146 116.0
679.887085 96.0
679.907349 120.0
679.959656 156.0
679.974915 236.0
680.033142 120.0
680.123291 196.0
680.177307 60.0
680.230103 96.0
680.297058 156.0
680.333801 240.0
680.43988 23840.0
680.617249 124.0
680.690674 128.0
680.814636 176.0
680.912231 204.0
680.967773 160.0
681.030151 144.0
681.129028 160.0
681.183472 136.0
681.198425 112.0
681.217163 40.0
681.280029 232.0
681.32605 132.0
681.335571 136.0
681.439392 5088.0
681.601807 120.0
681.64978 88.0
681.713806 88.0
681.78009 104.0
681.797363 44.0
681.816223 120.0
681.957397 112.0
682.053406 108.0
682.062439 60.0
682.087097 108.0
682.147339 52.0
682.323425 116.0
682.444824 628.0
682.60022 76.0
682.667236 200.0
682.708862 88.0
682.759949 68.0
682.797302 80.0
682.890869 48.0
682.971985 88.0
683.008911 76.0
683.049316 80.0
683.110901 96.0
683.165649 108.0
683.310364 56.0
683.395081 52.0
683.436584 184.0
683.447693 124.0
683.513428 60.0
683.585144 152.0
683.654297 120.0
683.749329 36.0
683.829712 100.0
683.918152 160.0
683.997131 236.0
684.108826 116.0
684.167969 124.0
684.25824 136.0
684.311035 84.0
684.373779 96.0
684.468689 88.0
684.554443 116.0
684.646301 232.0
684.721924 168.0
684.8479 40.0
684.884399 64.0
685.07428 44.0
685.139648 64.0
685.202148 56.0
685.292786 108.0
685.384521 52.0
685.436584 136.0
685.49939 80.0
685.634644 156.0
685.785767 40.0
685.983826 92.0
686.205505 108.0
686.414612 128.0
686.487671 108.0
686.552185 76.0
686.823364 52.0
686.927734 48.0
687.245972 48.0
687.311829 76.0
687.480774 72.0
687.529907 88.0
687.778259 48.0
687.84613 76.0
688.261963 80.0
688.60321 64.0
688.893005 40.0
688.942749 68.0
689.130798 92.0
689.888611 176.0
690.061157 68.0
690.416748 76.0
691.054932 40.0
691.112488 56.0
691.285156 104.0
691.672424 68.0
692.175049 100.0
692.415955 44.0
692.772095 44.0
692.824463 48.0
692.887329 92.0
692.92926 44.0
693.039307 52.0
693.123108 80.0
693.280334 36.0
693.317017 44.0
693.464111 120.0
693.898865 52.0
694.01947 96.0
695.120972 88.0
695.278442 40.0
695.714111 104.0
695.808594 160.0
696.013367 32.0
696.107849 60.0
696.239136 80.0
696.465027 136.0
696.832703 36.0
697.242615 40.0
697.410767 92.0
698.146851 76.0
698.443237 216.0
698.825378 116.0
698.877991 108.0
699.467468 108.0
700.452148 104.0
700.689209 92.0
700.894653 28.0
701.021118 80.0
701.89093 44.0
702.386658 80.0
702.502747 128.0
702.956482 60.0
703.30481 68.0
704.297485 96.0
704.387268 100.0
706.1474 96.0
708.031494 48.0
709.181213 156.0
709.743164 68.0
710.236328 48.0
710.612976 92.0
711.239197 124.0
711.73822 92.0
712.354309 60.0
712.779358 96.0
713.455933 288.0
714.448853 80.0
716.476807 184.0
716.51178 208.0
717.454102 128.0
718.508362 140.0
719.468994 80.0
719.90686 136.0
722.092651 52.0
724.319275 40.0
724.60321 64.0
725.508911 124.0
726.45813 96.0
726.935608 112.0
727.096619 72.0
727.472351 112.0
728.578613 28.0
729.459961 80.0
730.447327 136.0
731.422546 80.0
731.463379 120.0
731.950928 196.0
732.460449 140.0
733.206116 80.0
733.993164 76.0
734.295166 44.0
734.451599 124.0
735.282471 80.0
736.032837 164.0
736.832214 44.0
737.772583 108.0
738.578308 96.0
741.632141 56.0
741.805603 96.0
743.40564 92.0
744.469604 96.0
745.52356 120.0
747.829529 40.0
748.188782 144.0
748.9729 140.0
749.348816 68.0
750.297119 160.0
750.67334 64.0
750.711548 104.0
750.973328 40.0
752.588623 128.0
752.665039 164.0
753.763306 68.0
753.834045 96.0
755.512634 44.0
757.801086 76.0
758.486145 144.0
758.913757 88.0
761.467285 252.0
761.899414 52.0
762.360962 52.0
762.476379 112.0
763.509949 88.0
764.544189 128.0
764.69281 48.0
765.276306 96.0
765.689331 164.0
766.680969 52.0
766.923462 52.0
769.935913 164.0
771.438782 160.0
773.419128 236.0
773.695923 92.0
773.778931 76.0
774.18866 212.0
775.584839 108.0
775.69574 88.0
776.377686 40.0
777.437317 100.0
777.687073 176.0
777.975708 68.0
778.253296 92.0
779.247498 224.0
779.96991 188.0
781.61615 96.0
782.584656 80.0
783.35321 108.0
784.629395 104.0
784.724121 212.0
785.951233 52.0
787.478699 136.0
788.503296 68.0
789.699707 124.0
790.382263 68.0
791.387451 96.0
797.487671 168.0
798.094788 144.0
801.327759 120.0
802.514771 112.0
803.056152 148.0
804.432922 60.0
805.476135 168.0
805.522766 108.0
805.96344 144.0
807.970581 84.0
814.26825 164.0
815.450012 136.0
815.965515 64.0
817.503052 84.0
818.12915 152.0
818.317017 80.0
819.517212 156.0
819.55481 204.0
820.145691 112.0
820.498718 112.0
820.551697 160.0
820.607422 104.0
821.16626 228.0
821.365906 172.0
821.528076 140.0
822.746887 172.0
822.906738 80.0
824.363281 108.0
824.517578 160.0
827.726868 132.0
827.807068 68.0
828.918335 48.0
831.016968 56.0
831.447327 76.0
832.469177 152.0
832.630005 60.0
833.158447 44.0
833.198669 96.0
833.440002 172.0
834.238831 32.0
834.302063 48.0
835.020874 160.0
835.245178 124.0
835.83197 232.0
836.528381 72.0
836.632019 104.0
836.839294 132.0
837.000488 116.0
837.242371 88.0
837.351746 68.0
837.530762 2488.0
837.641357 220.0
837.910522 36.0
837.996948 84.0
838.037292 96.0
838.336914 56.0
838.524475 1204.0
838.797974 56.0
838.947876 176.0
839.051636 64.0
839.213074 36.0
839.32843 68.0
839.420654 140.0
839.533875 328.0
840.014709 108.0
840.518372 80.0
840.596924 128.0
841.388184 96.0
841.77887 92.0
841.988708 184.0
842.225525 76.0
843.560364 164.0
843.618164 88.0
845.335938 132.0
846.013123 136.0
846.186829 200.0
846.516846 36.0
846.655823 32.0
846.771667 60.0
846.945435 36.0
847.038086 128.0
848.226013 44.0
848.370911 56.0
849.147949 152.0
849.960083 148.0
851.422974 76.0
852.067749 152.0
852.398926 108.0
853.974426 68.0
855.05658 192.0
855.14386 164.0
855.365051 80.0
855.685242 152.0
856.040405 76.0
856.518005 44.0
857.065613 60.0
858.14978 88.0
858.190552 116.0
858.907898 172.0
860.302551 152.0
861.266052 220.0
861.365356 192.0
861.476318 208.0
863.574829 132.0
864.668884 168.0
864.979126 160.0
866.238098 212.0
866.279114 152.0
867.585938 52.0
867.66803 84.0
869.040405 132.0
869.374878 76.0
870.00293 112.0
870.284729 124.0
871.817871 80.0
873.146545 144.0
874.994202 64.0
875.137146 128.0
875.406372 120.0
876.07782 96.0
876.490234 80.0
876.631653 96.0
876.955811 112.0
877.380249 124.0
877.586609 180.0
877.781189 76.0
878.795715 200.0
879.379944 248.0
880.796997 176.0
881.045105 108.0
881.854675 164.0
882.209351 48.0
883.149536 180.0
883.877197 188.0
884.149414 68.0
885.013672 196.0
885.167603 80.0
886.464905 196.0
886.63678 204.0
886.976135 156.0
887.53186 172.0
888.61731 164.0
889.204773 60.0
890.38031 180.0
891.360474 32.0
891.964172 132.0
892.98938 68.0
893.459351 60.0
893.697327 80.0
894.804382 64.0
894.89679 152.0
895.101868 132.0
895.614258 100.0
895.840576 52.0
896.150391 208.0
897.569031 48.0
898.075928 136.0
899.19165 148.0
900.355835 200.0
901.06665 144.0
901.275757 60.0
901.735901 208.0
901.885315 96.0
902.895752 120.0
903.069214 204.0
903.434082 76.0
904.51123 32.0
905.373413 132.0
906.583557 152.0
907.290833 212.0
907.416748 128.0
907.482666 256.0
907.560608 180.0
908.928223 108.0
909.420349 156.0
909.606384 112.0
910.362915 72.0
910.741272 148.0
912.393799 116.0
913.530396 208.0
913.656738 224.0
914.547363 172.0
916.215332 156.0
916.745605 48.0
917.746216 228.0
918.554382 112.0
918.620728 172.0
918.934448 136.0
919.755127 276.0
919.851746 32.0
919.912109 228.0
920.075073 64.0
920.59436 196.0
920.787598 100.0
920.848022 176.0
921.029236 204.0
921.077515 56.0
921.156067 192.0
922.249756 148.0
922.49762 172.0
923.616272 96.0
925.195679 92.0
927.794678 136.0
928.297913 140.0
928.473755 128.0
928.910461 132.0
929.905579 176.0
930.87085 128.0
931.247375 140.0
931.393188 132.0
931.648315 124.0
931.701904 144.0
932.705627 64.0
932.851562 176.0
934.098145 272.0
934.219788 76.0
934.311035 184.0
934.357239 216.0
934.633545 40.0
935.302979 52.0
935.467346 140.0
936.234497 184.0
936.38678 100.0
936.703491 160.0
936.871582 180.0
937.964844 184.0
938.153809 44.0
938.916016 116.0
938.983093 48.0
939.092834 160.0
939.263672 96.0
939.416138 340.0
940.954041 72.0
941.009033 112.0
941.39978 136.0
942.346558 256.0
942.450439 88.0
942.591003 144.0
943.149597 120.0
943.477234 68.0
945.15918 132.0
945.361145 132.0
946.132324 60.0
946.658936 188.0
947.412292 108.0
947.718628 160.0
948.748291 116.0
948.987366 136.0
949.536804 180.0
950.152649 148.0
950.314209 204.0
950.385803 48.0
950.557617 40.0
950.631287 128.0
951.132446 176.0
952.755737 40.0
952.860168 128.0
953.032166 168.0
953.892578 120.0
954.343994 304.0
954.716492 108.0
954.833313 44.0
955.073181 252.0
955.331543 44.0
955.571472 136.0
955.756104 220.0
955.897583 172.0
956.223755 156.0
956.297607 180.0
956.463806 136.0
956.574646 60.0
956.931702 184.0
957.60907 112.0
957.71991 96.0
957.806152 188.0
957.867798 136.0
958.335999 48.0
958.761169 116.0
958.832764 148.0
959.02002 48.0
959.833801 100.0
959.876953 180.0
959.920105 240.0
960.925537 32.0
961.055115 232.0
961.78949 136.0
961.875916 140.0
962.085815 160.0
962.561218 112.0
962.802063 240.0
963.259094 116.0
963.629761 92.0
963.771851 164.0
964.012878 176.0
964.136475 160.0
964.569092 160.0
965.150269 96.0
965.28009 160.0
965.805786 160.0
966.529602 52.0
967.488953 144.0
967.600403 36.0
967.866638 192.0
968.17627 68.0
968.492126 160.0
968.944336 132.0
969.316101 100.0
969.359497 136.0
969.495789 176.0
969.872192 44.0
970.26178 160.0
970.357422 96.0
970.406982 124.0
970.719849 184.0
971.301208 144.0
971.442688 128.0
971.60614 176.0
972.485168 100.0
973.391541 196.0
974.136841 108.0
974.295715 84.0
974.640076 124.0
974.845154 64.0
975.833496 132.0
976.965393 72.0
977.046265 176.0
977.743164 200.0
977.915588 152.0
978.106628 200.0
978.203735 156.0
978.25354 52.0
978.365601 72.0
978.695557 144.0
978.857483 212.0
979.262268 168.0
979.405518 136.0
980.165588 176.0
980.80127 180.0
981.044373 160.0
981.150391 136.0
981.318665 168.0
981.530701 220.0
981.792603 48.0
982.060791 44.0
982.578552 108.0
982.977844 160.0
984.388672 200.0
984.750854 200.0
985.163147 136.0
985.25061 72.0
985.456787 176.0
985.662964 184.0
986.025391 148.0
986.412964 220.0
986.644226 156.0
988.420532 56.0
989.41571 144.0
989.459534 192.0
989.591003 36.0
989.816406 260.0
989.979248 120.0
990.098206 100.0
990.480286 128.0
990.530396 284.0
991.257141 52.0
991.301025 124.0
991.451416 100.0
992.02179 132.0
992.115845 168.0
992.172241 200.0
992.234985 48.0
992.811829 132.0
993.232056 76.0
993.828064 168.0
994.062012 140.0
994.292419 164.0
994.769409 144.0
995.139832 168.0
995.384705 128.0
995.460083 140.0
995.610779 84.0
995.792908 56.0
995.924805 144.0
996.433655 112.0
996.477661 144.0
996.85968 352.0
996.93634 132.0
997.206604 112.0
997.616821 168.0
997.879211 52.0
998.03009 188.0
998.18103 156.0
998.577209 88.0
998.979797 92.0
999.105591 204.0
999.325806 128.0
999.431519 120.0
999.621521 128.0
1000.276062 148.0
1000.395691 196.0
1000.634888 156.0
1001.371704 184.0
1001.65509 172.0
1001.769653 132.0
1002.133911 156.0
1002.461548 188.0
1002.770386 160.0
1002.864746 128.0
1003.110352 192.0
1003.192688 192.0
1003.388123 120.0
1003.514221 160.0
1003.55835 212.0
1004.876587 92.0
1004.924194 176.0
1005.040588 224.0
1005.200073 132.0
1005.305664 164.0
1006.662903 120.0
1006.746399 160.0
1006.991272 112.0
1007.045227 192.0
1007.32605 172.0
1007.72406 180.0
1007.768311 176.0
1007.938904 120.0
1008.18811 136.0
1008.348877 192.0
1008.488708 176.0
1008.760498 68.0
1009.512878 96.0
1009.652039 180.0
1010.18335 128.0
1010.259216 140.0
1010.449036 208.0
1010.592773 128.0
1010.899658 204.0
1010.986877 160.0
1011.183044 144.0
1011.348328 148.0
1011.545898 176.0
1011.613464 192.0
1012.069336 156.0
1012.373291 152.0
1012.59491 168.0
1012.930603 132.0
1013.81134 64.0
1014.014099 132.0
1014.356384 204.0
1014.59729 100.0
1015.491394 120.0
1016.030579 144.0
1016.379517 112.0
1016.42395 184.0
1016.766602 132.0
1017.090332 192.0
1017.22998 276.0
1017.579163 168.0
1018.010925 184.0
1018.264954 132.0
1018.38562 136.0
1019.11615 164.0
1019.26886 328.0
1019.421204 60.0
1020.234741 184.0
1020.311035 164.0
1020.851501 120.0
1021.379395 172.0
1021.423889 108.0
1021.757202 168.0
1022.219177 196.0
1022.79834 140.0
1022.855652 176.0
1023.059326 156.0
1023.377686 192.0
1023.645081 56.0
1023.734253 176.0
1023.878357 192.0
1024.721558 112.0
1024.772583 116.0
1024.874512 84.0
1025.288696 192.0
1025.40979 52.0
1025.600952 220.0
1026.716797 148.0
1026.817871 188.0
1027.097046 116.0
1027.290771 128.0
1027.954346 92.0
1028.101074 184.0
1028.282227 160.0
1028.515991 136.0
1029.020264 164.0
1029.384277 156.0
1029.824951 188.0
1030.17627 100.0
1030.233765 204.0
1030.310425 132.0
1030.540405 120.0
1030.661743 128.0
1030.723633 352.0
1030.872681 152.0
1031.070801 204.0
1031.592285 196.0
1031.682495 176.0
1031.812256 56.0
1032.151123 128.0
1032.605225 168.0
1032.828979 144.0
1032.976196 228.0
1033.097656 172.0
1033.37915 44.0
1033.507202 128.0
1033.801514 212.0
1033.871948 64.0
1034.12146 68.0
1034.531128 188.0
1034.768066 104.0
1034.940918 120.0
1035.001465 196.0
1035.229126 112.0
1035.34436 160.0
1035.530029 96.0
1035.728638 112.0
1035.991333 208.0
1036.196289 164.0
1036.644775 108.0
1036.880981 180.0
1036.990845 140.0
1037.157593 188.0
1037.824219 168.0
1037.907593 40.0
1038.248657 204.0
1038.601562 204.0
1038.921021 112.0
1039.382935 136.0
1039.492065 152.0
1039.680664 196.0
1039.767944 76.0
1040.300659 156.0
1040.634521 152.0
1040.962036 124.0
1041.989746 152.0
1042.221069 136.0
1043.185059 176.0
1043.287964 204.0
1043.415039 160.0
1043.734131 160.0
1044.053101 160.0
1044.110962 184.0
1044.239624 176.0
1044.316772 148.0
1044.368286 152.0
1044.426147 152.0
1044.477539 128.0
1044.55481 188.0
1044.97937 48.0
1045.030884 180.0
1045.255981 184.0
1045.333252 120.0
1045.42334 144.0
1045.494141 64.0
1045.539185 92.0
1045.616455 228.0
1045.918945 212.0
1045.989746 320.0
1046.079834 184.0
1046.375977 80.0
1046.697876 172.0
1046.820312 84.0
1046.904053 140.0
1047.090698 144.0
1047.155151 136.0
1047.427124 196.0
1047.657593 148.0
1048.338501 124.0
1048.395264 164.0
1049.068848 152.0
1049.481567 192.0
1049.694336 80.0
1050.100586 152.0
1050.27478 188.0
1050.416626 172.0
1050.539185 120.0
1050.719604 168.0
1050.875732 180.0
1051.345703 124.0
1051.739502 196.0
1052.475464 116.0
1052.64978 152.0
1053.056641 164.0
1053.321411 176.0
1053.398926 44.0
1053.586304 148.0
1053.838257 128.0
1053.95459 152.0
1054.264771 88.0
1054.6073 108.0
1056.146118 156.0
1056.521362 96.0
1056.883667 200.0
1057.259033 128.0
1057.394897 44.0
1057.459595 232.0
1057.511353 180.0
1057.595581 208.0
1058.171631 176.0
1058.281738 104.0
1058.333496 196.0
1058.397095 232.0
1058.903442 132.0
1059.350342 160.0
1059.641846 76.0
1059.700195 184.0
1059.769531 160.0
1060.335205 52.0
1060.497314 68.0
1060.814941 156.0
1061.074219 124.0
1061.162231 220.0
1062.085815 220.0
1062.189575 156.0
1062.812378 124.0
1063.309692 152.0
1063.746948 136.0
1063.824951 152.0
1063.934082 208.0
1064.110596 176.0
1064.33313 288.0
1064.545654 204.0
1064.602661 152.0
1064.720947 84.0
1064.766357 168.0
1064.909302 120.0
1065.019653 160.0
1065.227539 80.0
1065.383423 132.0
1065.467896 128.0
1065.91626 152.0
1066.15332 168.0
1066.345215 112.0
1066.559692 64.0
1066.611694 112.0
1068.395874 148.0
1068.539185 20.0
1068.842407 220.0
1069.011597 44.0
1069.187256 56.0
1069.454102 164.0
1069.538696 196.0
1069.680786 172.0
1069.844727 160.0
1070.052979 52.0
1070.150635 180.0
1070.202759 164.0
1070.352539 144.0
1070.424194 140.0
1070.782349 176.0
1071.075439 68.0
1071.270264 144.0
1071.49231 168.0
1071.889771 132.0
1072.150513 180.0
1072.300415 140.0
1072.430786 164.0
1072.60022 160.0
1072.717529 176.0
1073.030518 144.0
1073.245605 164.0
1073.519531 128.0
1074.895508 248.0
1075.470215 180.0
1075.587646 128.0
1075.770508 232.0
1075.861938 92.0
1075.985962 56.0
1076.495239 52.0
1076.762939 148.0
1076.973389 188.0
1077.566406 176.0
1077.958496 208.0
1078.19519 204.0
1078.880127 112.0
1078.945435 92.0
1079.036987 212.0
1079.501221 188.0
1079.57312 120.0
1079.723511 172.0
1080.037476 196.0
1080.16748 156.0
1080.364624 264.0
1080.587769 168.0
1080.639404 156.0
1080.888062 168.0
1081.045044 108.0
1081.281616 176.0
1081.444214 196.0
1081.529419 168.0
1081.581787 48.0
1081.961426 128.0
1082.013794 204.0
1082.066162 192.0
1082.18396 60.0
1082.334595 212.0
1082.465576 124.0
1083.087769 168.0
1083.683838 268.0
1083.988159 148.0
1084.129517 180.0
1084.293335 164.0
1084.352295 136.0
1084.588257 52.0
1084.791504 76.0
1084.961914 100.0
1085.165161 128.0
1085.315918 148.0
1085.410767 180.0
1086.535889 112.0
1086.588379 192.0
1086.667114 84.0
1086.877075 128.0
1087.014893 160.0
1087.270752 148.0
1087.487427 136.0
1087.566162 80.0
1088.105225 128.0
1088.34082 80.0
1088.676025 72.0
1088.813599 76.0
1089.096069 304.0
1089.328857 216.0
1089.529541 120.0
1089.647827 80.0
1089.759521 168.0
1090.230591 112.0
1090.357544 248.0
1090.705811 84.0
1090.811035 228.0
1090.863647 116.0
1090.975342 120.0
1091.212036 176.0
1091.343506 136.0
1091.402588 144.0
1091.425903 140.0
1091.501343 124.0
1091.922241 160.0
1092.362915 108.0
1093.020874 160.0
1093.080078 144.0
1093.264282 176.0
1093.356445 116.0
1093.489502 116.0
1093.731689 132.0
1093.902832 140.0
1093.948853 108.0
1094.185913 68.0
1094.330688 216.0
1094.446045 132.0
1094.600708 180.0
1094.72583 32.0
1094.831177 188.0
1096.043213 140.0
1096.095947 244.0
1096.188232 240.0
1096.280518 208.0
1096.38916 104.0
1096.511108 108.0
1096.59021 136.0
1097.025269 72.0
1097.104492 156.0
1097.186523 128.0
1097.302124 96.0
1097.427368 188.0
1097.565918 124.0
1097.677979 188.0
1097.987915 152.0
1098.502441 88.0
1098.832275 108.0
1098.911377 188.0
1099.00061 136.0
1099.054932 200.0
1099.406372 120.0
1099.617554 156.0
1099.670288 116.0
1099.775879 44.0
1100.020142 168.0
1100.112549 108.0
1100.158813 148.0
1100.284424 156.0
1100.376709 188.0
1100.673828 176.0
1100.957764 68.0
1101.584351 164.0
1101.717285 124.0
1101.76355 136.0
1102.074097 212.0
1102.582886 108.0
1102.642334 212.0
1102.834106 140.0
1103.105103 72.0
1103.224121 76.0
1103.389404 160.0
1103.442261 140.0
1103.495117 228.0
1104.374634 172.0
1104.533447 192.0
1104.599487 200.0
1104.917114 204.0
1104.963379 208.0
1105.009766 208.0
1105.188354 188.0
1105.254517 172.0
1105.400146 120.0
1105.453003 200.0
1105.597534 140.0
1105.8302 104.0
1106.306885 60.0
1106.700684 108.0
1106.796753 80.0
1107.240479 156.0
1107.313354 164.0
1107.366333 48.0
1107.750244 124.0
1107.89624 164.0
1108.028687 144.0
1108.154663 172.0
1108.912231 84.0
1109.287842 160.0
1109.36084 136.0
1109.447021 160.0
1109.553101 168.0
1109.678955 240.0
1110.415039 44.0
1111.310425 164.0
1111.874634 96.0
1112.080444 108.0
1112.564941 100.0
1112.817261 224.0
1112.910278 168.0
1113.793457 128.0
1113.839966 92.0
1114.145508 164.0
1114.247559 204.0
1114.61731 132.0
1114.704468 192.0
1114.803345 116.0
1114.900879 120.0
1114.946777 188.0
1115.494629 44.0
1115.813721 200.0
1115.891235 224.0
1115.986572 40.0
1116.106201 328.0
1116.231567 180.0
1116.529297 188.0
1116.598389 148.0
1116.718018 208.0
1117.017334 120.0
1117.110474 124.0
1117.17041 48.0
1117.250244 212.0
1117.33667 244.0
1117.436523 156.0
1117.582886 64.0
1117.729248 184.0
1117.869019 36.0
1117.948853 144.0
1118.022095 40.0
1118.14856 140.0
1118.201782 88.0
1118.274902 128.0
1118.38855 212.0
1118.834106 120.0
1119.344238 104.0
1119.387817 200.0
1120.013428 168.0
1120.219238 196.0
1120.33252 84.0
1120.738892 260.0
1121.06543 168.0
1121.164917 168.0
1121.391968 132.0
1121.511963 132.0
1121.760376 124.0
1121.951904 144.0
1122.011963 152.0
1122.332031 132.0
1122.465332 168.0
1122.63208 168.0
1122.71875 172.0
1122.925537 76.0
1123.085571 116.0
1123.165649 196.0
1123.272339 124.0
1123.71936 224.0
1123.979492 72.0
1124.22644 80.0
1124.446655 132.0
1124.653564 76.0
1124.725708 348.0
1124.860474 116.0
1125.134155 132.0
1125.608276 128.0
1125.786499 144.0
1126.028931 228.0
1126.165527 148.0
1126.242676 140.0
1126.604858 132.0
1127.024292 112.0
1127.19812 160.0
1127.65918 132.0
1127.772827 216.0
1127.993408 164.0
1128.207275 140.0
1128.352295 112.0
1128.488159 148.0
1129.143433 176.0
1129.451172 228.0
1129.55127 128.0
1129.73877 112.0
1129.885986 172.0
1129.9729 164.0
1130.64209 140.0
1130.695557 148.0
1130.994019 188.0
1131.331543 144.0
1131.731445 136.0
1131.947266 140.0
1132.067993 248.0
1132.155029 136.0
1132.329224 148.0
1132.436401 168.0
1132.670776 284.0
1132.815552 164.0
1132.97229 180.0
1133.15979 176.0
1133.354126 136.0
1133.695923 208.0
1133.849976 152.0
1133.93042 108.0
1134.258911 196.0
1134.339355 112.0
1134.51355 140.0
1134.593994 172.0
1134.76062 200.0
1134.869873 148.0
1135.083496 128.0
1135.150513 156.0
1135.237793 112.0
1135.734009 188.0
1135.847412 132.0
1135.855957 160.0
1136.062744 196.0
1136.156616 144.0
1136.217041 60.0
1136.270752 172.0
1136.378052 208.0
1136.451904 140.0
1136.606201 60.0
1136.935059 72.0
1137.357788 140.0
1137.512207 60.0
1137.733765 144.0
1137.888184 236.0
1138.015747 176.0
1138.270874 120.0
1138.331299 180.0
1138.396484 184.0
1138.646973 144.0
1138.801392 136.0
1138.908936 156.0
1139.251465 164.0
1139.345581 160.0
1139.466431 164.0
1140.071167 56.0
1140.158569 156.0
1140.292969 108.0
1140.608887 208.0
1140.904663 236.0
1141.173584 168.0
1141.334961 112.0
1141.422363 136.0
1141.536743 324.0
1141.610718 272.0
1141.751953 164.0
1142.195801 168.0
1142.296753 148.0
1142.660034 228.0
1142.922363 108.0
1143.104126 72.0
1143.205078 208.0
1143.413696 132.0
1143.736694 108.0
1143.804077 32.0
1144.281982 180.0
1144.484009 148.0
1144.564819 120.0
1144.813965 140.0
1144.998779 176.0
1145.096802 188.0
1145.551392 148.0
1145.662598 108.0
1145.750244 116.0
1145.915039 180.0
1146.098511 144.0
1146.115967 100.0
1146.137085 172.0
1146.336426 160.0
1146.53186 156.0
1146.727295 136.0
1146.909302 156.0
1147.044189 152.0
1147.37439 156.0
1147.455322 252.0
1147.637329 60.0
1147.691284 88.0
1147.913818 140.0
1147.975342 132.0
1148.287354 168.0
1148.338379 168.0
1148.527588 192.0
1149.02002 120.0
1149.400269 216.0
1149.493408 72.0
1149.591431 196.0
1149.694702 132.0
1149.755493 144.0
1149.802734 76.0
1149.849976 132.0
1149.944458 136.0
1150.119995 96.0
1150.248169 128.0
1150.552002 180.0
1151.031372 172.0
1151.726929 112.0
1152.225586 144.0
1152.389038 196.0
1152.490356 240.0
1152.591675 92.0
1152.841797 220.0
1153.085083 220.0
1153.40271 136.0
1153.73291 228.0
1153.855591 160.0
1154.223145 132.0
1154.423584 28.0
1154.525024 84.0
1154.761719 164.0
1154.883545 176.0
1154.944336 184.0
1155.025513 204.0
1155.715576 200.0
1155.776489 112.0
1155.823853 116.0
1156.094604 168.0
1156.218994 132.0
1156.284058 184.0
1156.615723 96.0
1156.84082 136.0
1156.891724 156.0
1157.0896 212.0
1157.312988 156.0
1157.448364 172.0
1157.590576 36.0
1157.638062 140.0
1157.746338 104.0
1157.851929 208.0
1157.955444 164.0
1158.039062 196.0
1158.118896 200.0
1158.349121 148.0
1158.396606 148.0
1158.449585 108.0
1158.545654 88.0
1158.599854 172.0
1159.014404 204.0
1159.412964 128.0
1159.650146 148.0
1159.996216 196.0
1160.224487 180.0
1160.490723 148.0
1160.829712 84.0
1161.080688 208.0
1161.290894 96.0
1161.43335 48.0
1161.507935 164.0
1161.704712 176.0
1161.860718 204.0
1161.915039 172.0
1161.969238 132.0
1162.199951 136.0
1162.548218 124.0
1162.658813 288.0
1162.946411 180.0
1162.994019 144.0
1163.072754 192.0
1163.265503 152.0
1163.408081 112.0
1163.550659 148.0
1163.964844 136.0
1164.039429 160.0
1164.202515 136.0
1164.541992 152.0
1164.732178 76.0
1165.404785 164.0
1165.635864 120.0
1165.690186 132.0
1165.789185 168.0
1165.880493 120.0
1166.240723 124.0
1166.295044 204.0
1166.539795 172.0
1166.675659 116.0
1166.770874 228.0
1166.974854 192.0
1167.246826 208.0
1167.362427 200.0
1167.573242 80.0
1167.62085 168.0
1167.675293 148.0
1167.790894 248.0
1167.937622 132.0
1168.271606 84.0
1168.38269 140.0
1168.682007 104.0
1168.913452 148.0
1168.96106 160.0
1169.008667 200.0
1169.321777 160.0
1169.61438 52.0
1169.736938 180.0
1169.923462 188.0
1170.029663 160.0
1170.13855 156.0
1170.261108 64.0
1170.601562 208.0
1170.717407 120.0
1170.929565 188.0
1171.180542 72.0
1171.330322 168.0
1172.331909 124.0
1172.590942 80.0
1172.699707 192.0
1172.870361 32.0
1172.983276 200.0
1173.164429 204.0
1173.429321 80.0
1173.627075 44.0
1173.736206 132.0
1173.852051 160.0
1173.93396 96.0
1174.002075 148.0
1174.064697 160.0
1174.206665 168.0
1174.65686 112.0
1174.743164 144.0
1175.366455 164.0
1175.543823 192.0
1175.68103 248.0
1175.775879 56.0
1175.980591 96.0
1176.246826 108.0
1176.332397 244.0
1176.383301 124.0
1176.594971 148.0
1176.67688 172.0
1176.902222 184.0
1177.031982 136.0
1177.318726 200.0
1177.516846 88.0
1177.660278 180.0
1177.981323 116.0
1178.08374 84.0
1178.432129 92.0
1178.486816 204.0
1178.605957 164.0
1178.71228 52.0
1178.807983 140.0
1179.060791 124.0
1179.409424 184.0
1179.470947 148.0
1179.607666 180.0
1179.728027 164.0
1179.788574 168.0
1180.045166 140.0
1180.161377 148.0
1180.366577 132.0
1180.482788 160.0
1180.619507 184.0
1180.88269 108.0
1180.943115 204.0
1181.091431 104.0
1181.153076 164.0
1181.467773 176.0
1181.722534 164.0
1182.104004 176.0
1182.220337 164.0
1182.343384 140.0
1182.429321 152.0
1182.487305 204.0
1182.699463 164.0
1182.795288 132.0
1182.925293 148.0
1183.02124 240.0
1183.438843 76.0
1183.616821 128.0
1183.753784 148.0
1183.798706 136.0
1183.840332 208.0
1184.137329 112.0
1184.499878 140.0
1184.587646 112.0
1184.78125 116.0
1184.908325 164.0
1184.973022 120.0
1185.020996 148.0
1185.157959 144.0
1185.30188 72.0
1185.617188 140.0
1185.75415 120.0
1185.815918 104.0
1185.950439 232.0
1186.055786 184.0
1186.102783 172.0
1186.172363 244.0
1186.238037 184.0
1186.556274 164.0
1186.793579 132.0
1186.949219 148.0
1187.214478 156.0
1187.301636 184.0
1187.529907 148.0
1187.578003 160.0
1187.639648 204.0
1187.71521 112.0
1187.827881 168.0
1187.886597 212.0
1188.003296 148.0
1188.27771 72.0
1188.594849 220.0
1188.957031 400.0
1189.361938 52.0
1189.545166 152.0
1189.810669 140.0
1190.075928 88.0
1190.130859 220.0
1190.247559 104.0
1190.467285 464.0
1190.765991 360.0
1190.819824 148.0
1191.003052 148.0
1191.064819 124.0
1191.847656 80.0
1191.980591 140.0
1192.080078 192.0
1192.13855 204.0
1192.232788 148.0
1192.308472 92.0
1192.445923 60.0
1192.494019 200.0
1192.734619 168.0
1192.917358 128.0
1193.167725 200.0
1193.411499 128.0
1193.759033 116.0
1194.151001 400.0
1194.701294 136.0
1194.866455 172.0
1194.955811 172.0
1195.526978 124.0
1195.719604 124.0
1195.871094 152.0
1195.939331 180.0
1196.201416 108.0
1196.400757 164.0
1196.717773 180.0
1197.02771 176.0
1197.075806 188.0
1197.144775 244.0
1197.213623 124.0
1197.289307 180.0
1197.349976 224.0
1197.839722 180.0
1198.048828 204.0
1198.109009 192.0
1198.377686 148.0
1198.439697 96.0
1198.549927 108.0
1198.736084 112.0
1198.942749 156.0
1199.376953 312.0
1199.432129 148.0
1199.72168 120.0
1199.894043 112.0
1199.949097 124.0
1200.004272 204.0
1200.059448 88.0
1200.162842 40.0
1200.300781 124.0
1200.419556 328.0
1200.569702 164.0
1200.659424 128.0
1200.786255 152.0
1200.990479 44.0
1201.19043 132.0
1201.507812 148.0
1201.65271 128.0
1201.747192 180.0
1201.818237 132.0
1202.032227 176.0
1202.080444 104.0
1202.144043 172.0
1202.356567 196.0
1202.446289 168.0
1202.805176 156.0
1203.21936 192.0
1203.350586 60.0
1203.51416 168.0
1203.854614 168.0
1204.075562 172.0
1204.137817 136.0
1204.186157 224.0
1204.503906 160.0
1204.994385 144.0
1205.284546 100.0
1205.353638 112.0
1205.524658 204.0
1206.044678 156.0
1206.162231 304.0
1206.217529 164.0
1206.279785 136.0
1206.424927 136.0
1206.662231 72.0
1206.736084 136.0
1206.796875 176.0
1206.936523 120.0
1207.054077 136.0
1207.247681 164.0
1207.441406 92.0
1207.6073 96.0
1207.925537 72.0
1208.312988 60.0
1208.506714 64.0
1209.011841 196.0
1209.074097 104.0
1209.348145 120.0
1209.427124 152.0
1209.496338 208.0
1209.600464 348.0
1209.759277 188.0
1210.036255 228.0
1210.119385 144.0
1210.188599 148.0
1210.271606 108.0
1210.430908 56.0
1210.647583 124.0
1210.694092 228.0
1210.742554 180.0
1210.978027 168.0
1211.078857 144.0
1211.241211 128.0
1211.338257 108.0
1211.65686 44.0
1211.809326 96.0
1211.87854 148.0
1211.982544 104.0
1212.063477 128.0
1212.328979 120.0
1212.444946 208.0
1212.523071 136.0
1212.620117 232.0
1212.730957 140.0
1212.966675 164.0
1213.015137 152.0
1213.126099 100.0
1213.209229 224.0
1213.278564 128.0
1213.46582 120.0
1213.66687 44.0
1213.774414 116.0
1213.863037 176.0
1213.951172 160.0
1214.020508 152.0
1214.193848 136.0
1214.39502 180.0
1214.464355 176.0
1214.832031 100.0
1215.040161 152.0
1215.088745 176.0
1215.310669 88.0
1215.404297 176.0
1215.643799 40.0
1215.734009 160.0
1215.782593 168.0
1215.914429 180.0
1215.983887 120.0
1216.108765 212.0
1216.198975 112.0
1216.247559 156.0
1216.442017 168.0
1216.580811 180.0
1216.816895 156.0
1217.184814 120.0
1217.330688 128.0
1217.414062 160.0
1217.587646 140.0
1217.657104 96.0
1217.806396 292.0
1217.941895 44.0
1218.115479 100.0
1218.337769 112.0
1218.664307 76.0
1218.719971 184.0
1218.807007 180.0
1219.088257 124.0
1219.164673 204.0
1219.241089 176.0
1219.449585 308.0
1219.546875 128.0
1219.665039 60.0
1219.869141 216.0
1220.12854 228.0
1220.318481 168.0
1220.589722 116.0
1220.645386 108.0
1220.775513 208.0
1221.053467 168.0
1221.173706 136.0
1221.347778 116.0
1221.702515 152.0
1221.781006 116.0
1221.837524 80.0
1222.164307 300.0
1222.252197 160.0
1222.459106 204.0
1222.516602 220.0
1222.667236 172.0
1222.920288 176.0
1223.115112 136.0
1223.203735 200.0
1223.365723 124.0
1223.518921 180.0
1223.563965 140.0
1223.637329 148.0
1223.937866 136.0
1223.988403 156.0
1224.347534 132.0
1224.431152 180.0
1224.709717 188.0
1225.141602 164.0
1225.48999 328.0
1225.622314 124.0
1225.824341 188.0
1226.005615 176.0
1226.165894 232.0
1226.375 176.0
1226.444702 124.0
1226.521362 164.0
1226.876831 164.0
1227.030273 104.0
1227.106934 244.0
1227.176636 220.0
1227.295166 96.0
1227.420654 216.0
1227.591797 164.0
1227.720581 208.0
1227.811157 152.0
1227.902832 168.0
1228.152954 192.0
1228.221558 144.0
1228.408203 180.0
1228.489624 204.0
1228.53418 148.0
1229.157593 184.0
1229.206421 160.0
1229.285034 164.0
1229.470215 144.0
1229.604248 96.0
1229.726562 164.0
1229.911255 128.0
1230.28186 220.0
1230.420654 180.0
1230.700195 224.0
1230.776978 188.0
1230.86084 80.0
1230.916626 84.0
1230.992798 44.0
1231.184448 252.0
1231.237915 160.0
1231.377563 120.0
1231.635986 172.0
1231.825073 160.0
1232.110962 160.0
1232.197021 200.0
1232.327637 120.0
1232.409668 240.0
1232.558228 212.0
1232.669922 184.0
1232.776855 200.0
1232.83667 196.0
1233.270996 120.0
1233.466675 48.0
1233.592529 136.0
1233.893188 164.0
1234.130859 152.0
1234.22876 132.0
1234.459473 124.0
1234.711304 144.0
1234.922485 184.0
1235.005005 148.0
1235.053955 172.0
1235.354736 184.0
1235.417725 92.0
1235.606689 52.0
1235.746582 180.0
1236.075439 96.0
1236.274902 168.0
1236.341309 168.0
1236.425293 264.0
1236.572266 232.0
1236.684326 152.0
1236.838257 68.0
1237.006226 76.0
1237.111328 136.0
1237.405273 176.0
1237.475342 152.0
1237.566406 112.0
1237.87439 176.0
1237.99353 152.0
1238.276733 160.0
1238.350708 184.0
1238.469727 52.0
1238.85498 136.0
1238.932129 36.0
1239.10022 176.0
1239.184326 88.0
1239.352417 236.0
1239.454712 120.0
1239.653809 132.0
1239.716797 212.0
1239.88501 204.0
1240.009277 144.0
1240.291504 112.0
1240.64209 132.0
1240.880371 128.0
1241.07666 216.0
1241.303711 148.0
1241.658813 48.0
1241.74292 152.0
1242.114624 92.0
1242.191772 176.0
1242.584717 164.0
1242.746094 160.0
1242.921509 112.0
1243.027344 200.0
1243.137207 312.0
1243.209229 136.0
1243.30127 100.0
1243.578003 172.0
1243.630249 172.0
1243.728516 84.0
1243.918091 208.0
1244.088745 156.0
1244.1427 40.0
1244.283081 72.0
1244.353271 136.0
1244.542847 152.0
1244.592041 112.0
1244.872925 128.0
1245.054443 156.0
1245.075684 132.0
1245.349731 76.0
1245.63147 144.0
1246.067017 160.0
1246.151367 184.0
1246.295532 160.0
1246.355103 144.0
1246.62915 180.0
1246.739258 148.0
1246.825928 172.0
1247.078979 140.0
1247.42334 108.0
1247.613159 120.0
1247.746704 176.0
1248.105347 180.0
1248.3573 144.0
1248.470947 224.0
1248.63269 116.0
1248.866211 152.0
1249.094116 148.0
1249.237671 84.0
1249.336182 304.0
1249.413574 176.0
1249.490967 152.0
1249.716064 248.0
1249.899048 164.0
1249.951538 144.0
1250.032715 140.0
1250.145264 108.0
1250.279053 144.0
1250.398682 160.0
1250.64502 136.0
1250.842041 72.0
1251.046265 200.0
1251.130737 296.0
1251.320801 84.0
1251.40271 140.0
1251.602417 56.0
1251.68689 176.0
1251.869995 124.0
1252.137573 104.0
1252.482788 152.0
1252.796021 84.0
1252.908325 148.0
1253.053345 112.0
1253.116821 132.0
1253.201294 88.0
1253.497314 76.0
1253.659302 152.0
1253.722778 52.0
1253.849609 332.0
1254.039917 224.0
1254.131592 100.0
1254.44873 120.0
1254.80835 152.0
1255.218994 196.0
1255.471069 228.0
1255.527588 160.0
1255.619263 96.0
1255.82373 156.0
1255.971924 184.0
1256.02832 104.0
1256.575928 184.0
1256.903076 180.0
1257.05127 100.0
1257.115479 236.0
1257.30542 140.0
1257.354736 184.0
1257.425293 224.0
1257.644165 124.0
1257.714722 188.0
1257.792358 204.0
1257.950317 168.0
1258.139893 172.0
1258.383667 152.0
1258.604248 172.0
1258.691284 156.0
1258.881714 168.0
1259.077393 172.0
1259.238159 184.0
1259.409302 124.0
1259.45874 132.0
1259.564697 152.0
1259.734253 208.0
1259.790771 196.0
1259.896729 128.0
1260.129883 124.0
1260.22876 156.0
1260.776855 200.0
1260.914307 152.0
1261.006104 44.0
1261.110229 164.0
1261.280273 144.0
1261.430298 140.0
1261.508057 52.0
1261.614014 100.0
1261.804932 188.0
1261.86853 208.0
1262.080688 152.0
1262.172607 140.0
1262.234375 200.0
1262.363525 120.0
1262.420044 68.0
1262.533203 204.0
1262.632202 128.0
1262.887451 208.0
1263.19812 92.0
1263.282959 72.0
1263.502319 136.0
1263.711548 196.0
1263.969238 136.0
1264.09668 176.0
1264.371948 120.0
1264.57373 96.0
1264.661255 176.0
1265.023804 156.0
1265.214966 100.0
1265.298218 180.0
1265.434448 320.0
1265.756836 256.0
1265.830933 188.0
1266.19165 96.0
1266.3479 76.0
1266.510864 172.0
1266.83667 148.0
1267.148438 132.0
1267.438965 144.0
1267.672729 144.0
1268.08374 36.0
1268.147583 152.0
1268.296387 116.0
1268.530396 156.0
1268.601196 156.0
1268.891846 188.0
1268.991211 128.0
1269.428711 108.0
1269.686035 160.0
1270.192383 152.0
1270.359863 120.0
1270.423706 152.0
1270.579834 116.0
1270.690186 100.0
1270.87915 84.0
1270.963013 224.0
1271.097778 164.0
1271.147461 100.0
1271.275146 160.0
1271.594604 192.0
1271.73645 132.0
1271.807495 148.0
1271.864258 184.0
1271.977905 164.0
1272.034668 92.0
1272.155273 80.0
1272.252197 204.0
1272.460571 64.0
1272.609741 44.0
1272.680664 168.0
1272.800903 128.0
1272.918335 232.0
1273.021484 124.0
1273.092529 124.0
1273.163574 212.0
1273.277222 188.0
1273.436768 236.0
1273.554199 152.0
1273.745972 48.0
1273.852539 72.0
1273.937744 72.0
1274.079834 116.0
1274.136719 200.0
1274.609253 208.0
1274.733521 340.0
1274.833008 120.0
1274.968018 140.0
1275.182251 208.0
1275.292114 172.0
1275.349365 104.0
1275.378174 68.0
1275.397583 84.0
1275.47876 164.0
1275.749878 152.0
1275.821045 236.0
1275.870728 76.0
1275.963135 144.0
1276.034302 64.0
1276.119629 128.0
1276.190674 48.0
1276.254639 116.0
1276.432495 204.0
1276.50354 128.0
1277.06543 292.0
1277.222656 144.0
1277.349976 128.0
1277.40686 304.0
1277.510498 140.0
1277.698486 228.0
1277.754517 208.0
1278.001465 188.0
1278.474121 160.0
1278.531006 128.0
1278.730347 92.0
1278.787231 200.0
1279.034546 156.0
1279.059692 216.0
1279.217163 168.0
1279.387329 120.0
1279.491943 120.0
1279.605835 84.0
1279.758179 144.0
1279.93335 108.0
1280.068726 144.0
1280.136597 128.0
1280.239624 112.0
1280.545776 112.0
1280.602783 172.0
1280.681152 128.0
1280.777832 128.0
1280.958984 108.0
1281.041016 312.0
1281.09436 140.0
1281.251099 96.0
1281.32605 176.0
1281.42981 120.0
1281.529663 148.0
1281.600098 140.0
1281.673828 144.0
1281.967041 216.0
1282.2771 92.0
1282.487671 140.0
1282.640625 68.0
1282.755859 148.0
1283.139648 136.0
1283.189575 108.0
1283.260864 32.0
1283.594238 160.0
1283.713013 116.0
1283.966797 132.0
1284.023926 120.0
1284.080933 84.0
1284.337646 216.0
1284.4823 132.0
1284.672974 312.0
1285.076294 140.0
1285.329346 68.0
1285.379272 64.0
1285.657593 144.0
1285.714722 88.0
1285.769775 172.0
1285.957397 168.0
1286.135742 256.0
1286.200073 104.0
1286.499878 188.0
1286.621216 132.0
1286.755249 140.0
1286.856812 132.0
1287.056763 204.0
1287.141602 140.0
1287.356689 148.0
1287.431152 148.0
1287.525513 240.0
1287.592285 140.0
1287.978027 56.0
1288.079102 196.0
1288.142334 200.0
1288.556641 148.0
1288.656738 108.0
1288.787354 412.0
1288.849609 168.0
1288.950684 144.0
1289.063965 204.0
1289.492798 172.0
1289.652832 160.0
1289.785767 176.0
1289.8573 156.0
1290.000244 192.0
1290.115356 180.0
1290.342407 120.0
1290.370361 104.0
1290.389771 200.0
1290.679077 240.0
1290.779541 136.0
1291.079956 152.0
1291.322266 168.0
1291.449219 236.0
1291.559082 128.0
1291.620239 148.0
1291.752197 172.0
1291.902466 96.0
1291.952515 168.0
1292.253052 100.0
1292.374634 164.0
1292.567871 172.0
1292.639404 176.0
1292.696655 168.0
1292.753906 144.0
1292.911377 80.0
1293.04248 164.0
1293.097412 100.0
1293.154663 100.0
1293.362305 140.0
1293.412354 96.0
1293.495972 160.0
1293.577026 180.0
1293.875 204.0
1294.185547 216.0
1294.292969 168.0
1294.407471 156.0
1294.522095 140.0
1294.651001 140.0
1294.830078 160.0
1294.940918 108.0
1295.167969 152.0
1295.252686 148.0
1295.352905 212.0
1295.50061 212.0
1295.840088 112.0
1295.997681 148.0
1296.205444 144.0
1296.334473 152.0
1296.549438 108.0
1296.621094 116.0
1296.750122 80.0
1296.936523 120.0
1297.170288 188.0
1297.316162 120.0
1297.438232 176.0
1297.775269 40.0
1297.846924 156.0
1297.904297 156.0
1298.298706 192.0
1298.657349 164.0
1299.015991 40.0
1299.094849 168.0
1299.177856 116.0
1299.331665 180.0
1299.417725 48.0
1299.518188 240.0
1299.758911 172.0
1300.16394 60.0
1300.24292 256.0
1300.307495 252.0
1300.565918 144.0
1300.802734 132.0
1300.881714 164.0
1301.130249 152.0
1301.252563 128.0
1301.3125 180.0
1301.412964 256.0
1301.463257 120.0
1301.685913 100.0
1301.75769 232.0
1301.870483 160.0
1301.930054 156.0
1302.246094 160.0
1302.389648 124.0
1302.617432 184.0
1302.677002 92.0
1302.731567 128.0
1302.885376 116.0
1302.950073 152.0
1303.096436 176.0
1303.179932 28.0
1303.279419 256.0
1303.453003 180.0
1303.733276 168.0
1303.89856 124.0
1303.963989 188.0
1304.567017 156.0
1304.937012 144.0
1305.372314 128.0
1305.753418 220.0
1306.168945 176.0
1306.189453 136.0
1306.314453 168.0
1306.37915 120.0
1306.645264 176.0
1306.870117 168.0
1307.062744 236.0
1307.379272 96.0
1307.432251 168.0
1307.660034 172.0
1308.10437 120.0
1308.185425 208.0
1308.325195 112.0
1308.44458 260.0
1308.963013 236.0
1309.071045 88.0
1309.193481 132.0
1309.301514 148.0
1309.389526 160.0
1309.560791 228.0
1309.695068 240.0
1309.89209 100.0
1310.165894 144.0
1310.237915 264.0
1310.338745 252.0
1310.576538 108.0
1310.632935 180.0
1310.754395 352.0
1310.844849 188.0
1310.936646 196.0
1310.948364 192.0
1311.174683 88.0
1311.304321 148.0
1311.410767 212.0
1311.608398 116.0
1311.765747 76.0
1311.880493 160.0
1311.989014 144.0
1312.234253 128.0
1312.450562 128.0
1312.522705 120.0
1312.594849 144.0
1312.652466 152.0
1312.803955 192.0
1312.866211 220.0
1312.940918 92.0
1313.013062 164.0
1313.164551 160.0
1313.279907 68.0
1313.366455 128.0
1313.445801 104.0
1313.525146 152.0
1313.626221 32.0
1314.264038 124.0
1314.499146 380.0
1314.621826 100.0
1314.721802 180.0
1314.775391 208.0
1314.917725 80.0
1315.317749 188.0
1315.516846 56.0
1315.625122 96.0
1316.18103 172.0
1316.296631 120.0
1316.347168 220.0
1316.657715 216.0
1316.751587 140.0
1316.969849 164.0
1317.098267 124.0
1317.228271 120.0
1317.33667 36.0
1317.488281 64.0
1317.603882 136.0
1317.827148 200.0
1317.958008 232.0
1318.131348 124.0
1318.230957 132.0
1318.319214 128.0
1318.427124 176.0
1318.904663 88.0
1318.991455 176.0
1319.135986 136.0
1319.446899 68.0
1319.584229 100.0
1319.685425 168.0
1319.765015 168.0
1319.824829 168.0
1319.938477 124.0
1320.046997 156.0
1320.240601 224.0
1320.466431 68.0
1320.553223 352.0
1320.609131 176.0
1320.68335 132.0
1320.762939 108.0
1320.94043 156.0
1321.03418 184.0
1321.276611 184.0
1321.522583 176.0
1321.642334 164.0
1321.848145 176.0
1322.217285 128.0
1322.36377 176.0
1322.427124 160.0
1322.796265 60.0
1322.854248 128.0
1322.919312 260.0
1323.055786 80.0
1323.426147 116.0
1323.547729 112.0
1323.628906 120.0
1323.694092 32.0
1323.751953 128.0
1323.860596 112.0
1323.970581 172.0
1324.099609 156.0
1324.208252 132.0
1324.28064 96.0
1324.389282 148.0
1324.440063 128.0
1324.555908 136.0
1324.613892 172.0
1324.668945 152.0
1324.881958 160.0
1325.010132 100.0
1325.154053 184.0
1325.294312 152.0
1325.439819 144.0
1325.490479 136.0
1325.635498 144.0
1325.729614 128.0
1325.817749 204.0
1325.881836 156.0
1325.939819 76.0
1326.171753 72.0
1326.323975 164.0
1326.386841 204.0
1326.512451 172.0
1326.652466 204.0
1326.78064 152.0
1326.96814 172.0
1327.346558 228.0
1327.418701 164.0
1327.564575 168.0
1327.701538 136.0
1327.774048 200.0
1328.285156 180.0
1328.418335 132.0
1328.833618 112.0
1329.0 120.0
1329.181396 168.0
1329.232178 64.0
1329.297485 32.0
1329.362793 164.0
1329.435425 96.0
1329.515259 232.0
1329.631348 136.0
1329.780762 212.0
1329.969238 208.0
1330.212036 152.0
1330.299072 156.0
1330.538696 152.0
1330.662109 176.0
1330.981567 128.0
1331.379639 176.0
1331.412842 92.0
1331.482666 152.0
1331.642456 148.0
1331.78772 260.0
1331.954712 128.0
1332.063721 108.0
1332.12915 116.0
1332.216309 236.0
1332.317993 108.0
1332.54834 164.0
1332.732056 88.0
1332.848389 164.0
1332.906494 168.0
1333.080933 108.0
1333.21167 112.0
1333.36438 112.0
1333.514038 240.0
1333.606934 204.0
1333.880371 212.0
1333.960327 132.0
1334.028687 240.0
1334.137939 124.0
1334.325928 152.0
1334.760498 156.0
1334.859253 180.0
1335.072754 40.0
1335.174561 212.0
1335.320068 216.0
1335.414551 60.0
1335.494629 128.0
1335.60376 192.0
1335.763794 196.0
1335.880127 100.0
1336.047485 104.0
1336.127441 144.0
1336.20752 176.0
1336.360352 184.0
1336.532959 256.0
1336.595093 164.0
1336.651367 116.0
1336.745972 180.0
1336.796875 76.0
1336.883789 136.0
1336.957031 160.0
1337.080688 136.0
1337.189819 188.0
1337.320923 116.0
1337.591431 140.0
1337.662964 116.0
1337.919312 148.0
1338.034302 76.0
1338.099854 140.0
1338.187134 156.0
1338.242554 188.0
1338.675049 132.0
1338.747803 304.0
1338.820679 128.0
1338.871704 68.0
1339.048218 148.0
1339.126587 132.0
1339.286743 252.0
1339.556274 128.0
1339.702026 112.0
1339.818604 132.0
1340.077026 132.0
1340.165894 240.0
1340.321289 176.0
1340.42334 136.0
1340.561768 112.0
1340.660767 176.0
1340.926147 192.0
1341.088013 168.0
1341.2323 84.0
1341.302124 152.0
1341.501953 136.0
1341.585449 192.0
1341.691528 120.0
1341.844604 52.0
1342.158203 196.0
1342.231079 100.0
1342.318604 128.0
1342.666626 160.0
1342.852051 140.0
1342.923828 132.0
1343.084351 180.0
1343.164551 100.0
1343.390747 132.0
1343.507446 228.0
1343.65332 40.0
1343.755493 140.0
1344.098389 200.0
1344.251709 300.0
1344.477905 68.0
1344.558228 208.0
1344.645752 140.0
1344.966919 136.0
1345.428833 112.0
1345.594727 152.0
1345.696899 188.0
1345.784546 96.0
1345.921143 192.0
1346.010864 88.0
1346.146484 148.0
1346.332153 148.0
1346.478271 172.0
1346.595093 156.0
1346.675415 252.0
1346.84729 180.0
1346.989502 100.0
1347.079834 188.0
1347.100098 216.0
1347.179443 112.0
1347.406006 56.0
1347.693237 176.0
1347.77124 216.0
1347.859009 120.0
1348.032715 140.0
1348.151245 184.0
1348.629883 184.0
1348.692139 168.0
1348.765137 216.0
1348.9552 176.0
1349.020996 172.0
1349.072266 220.0
1349.21106 152.0
1349.386597 156.0
1349.525513 156.0
1349.591309 96.0
1349.7229 140.0
1349.817993 140.0
1350.059326 104.0
1350.256714 124.0
1350.337158 40.0
1350.450562 132.0
1350.812622 180.0
1350.995483 188.0
1351.054077 144.0
1351.105225 152.0
1351.27356 128.0
1351.324707 120.0
1351.525146 200.0
1351.793091 156.0
1351.888184 184.0
1351.953979 196.0
1352.11499 200.0
1352.238159 172.0
1352.519653 140.0
1352.627441 156.0
1352.769287 144.0
1352.869019 300.0
1352.97522 188.0
1353.040649 228.0
1353.149292 368.0
1353.220581 176.0
1353.366821 56.0
1353.418091 128.0
1353.527954 104.0
1353.601074 88.0
1353.666992 140.0
1353.798828 228.0
1354.128418 224.0
1354.414062 180.0
1354.6875 176.0
1354.83667 284.0
1355.153931 168.0
1355.278564 160.0
1355.359131 112.0
1355.46167 212.0
1355.626953 184.0
1355.710815 76.0
1355.813477 124.0
1355.930786 96.0
1356.223877 116.0
1356.407471 156.0
1356.575806 172.0
1356.64978 128.0
1356.802979 120.0
1356.890991 116.0
1357.000977 232.0
1357.05957 120.0
1357.143188 172.0
1357.30896 76.0
1357.418945 212.0
1357.514282 120.0
1357.609619 164.0
1357.83374 140.0
1358.130371 132.0
1358.240356 136.0
1358.357666 140.0
1358.526367 148.0
1358.849243 120.0
1358.959229 124.0
1359.1427 160.0
1359.260132 192.0
1359.392212 160.0
1359.502319 196.0
1359.678467 240.0
1359.759155 184.0
1359.849121 204.0
1359.976074 144.0
1360.060059 152.0
1360.217651 404.0
1360.353638 208.0
1360.412476 188.0
1360.647339 60.0
1360.794189 152.0
1360.845581 212.0
1361.014404 120.0
1361.065796 284.0
1361.234741 208.0
1361.351807 144.0
1361.499146 240.0
1361.65332 140.0
1361.756104 152.0
1361.807617 160.0
1361.950806 220.0
1362.013184 208.0
1362.072021 108.0
1362.189941 164.0
1362.270386 140.0
1362.446655 92.0
1362.571533 116.0
1362.637695 168.0
1362.719971 148.0
1362.843384 60.0
1362.894775 56.0
1362.988403 164.0
1363.085815 180.0
1363.266846 148.0
1363.40918 156.0
1363.497437 176.0
1363.600342 136.0
1363.659058 200.0
1363.710571 176.0
1363.872192 108.0
1364.216919 104.0
1364.342651 136.0
1364.453003 132.0
1364.559204 68.0
1364.80603 200.0
1364.886841 168.0
1364.945557 128.0
1365.033813 152.0
1365.085327 156.0
1365.247803 160.0
1365.298584 304.0
1365.394165 136.0
1365.445679 176.0
1365.622192 72.0
1365.835449 88.0
1365.960571 144.0
1366.137085 104.0
1366.218018 156.0
1366.416626 132.0
1366.630005 200.0
1366.777222 96.0
1366.983276 52.0
1367.049438 176.0
1367.15979 92.0
1367.414551 196.0
1367.607056 160.0
1367.726562 124.0
1367.807495 152.0
1367.859009 104.0
1367.976807 200.0
1368.07251 188.0
1368.405762 168.0
1368.63623 136.0
1368.791504 136.0
1368.818359 192.0
1368.904541 144.0
1368.99292 144.0
1369.375854 144.0
1369.439331 180.0
1369.505859 112.0
1369.535034 72.0
1369.556641 156.0
1369.657227 188.0
1369.745361 212.0
1370.164062 172.0
1370.230347 192.0
1370.377686 92.0
1370.473511 104.0
1370.672485 104.0
1371.004028 116.0
1371.085083 368.0
1371.52002 132.0
1371.689575 180.0
1371.877075 132.0
1372.198242 160.0
1372.252197 220.0
1372.448853 148.0
1372.552124 188.0
1372.73645 176.0
1372.79541 128.0
1372.906128 176.0
1373.20105 184.0
1373.392822 160.0
1373.459229 148.0
1373.510864 164.0
1373.638062 200.0
1373.86499 152.0
1374.041992 148.0
1374.182129 100.0
1374.374023 148.0
1374.425659 140.0
1374.555542 128.0
1374.600586 256.0
1374.69873 180.0
1374.878052 188.0
1374.986572 164.0
1375.196411 172.0
1375.247559 120.0
1375.362915 116.0
1375.481079 104.0
1375.540039 124.0
1375.613892 136.0
1375.798462 44.0
1375.983032 144.0
1376.131958 232.0
1376.270996 224.0
1376.381714 88.0
1376.551636 176.0
1376.706665 168.0
1376.876465 124.0
1377.205811 200.0
1377.55603 172.0
1377.703735 132.0
1377.762939 168.0
1377.881104 144.0
1377.957642 168.0
1378.066284 172.0
1378.191406 128.0
1378.250488 124.0
1378.435303 248.0
1378.620239 128.0
1378.733765 112.0
1378.967407 108.0
1379.041748 124.0
1379.18457 168.0
1379.369751 192.0
1379.543945 144.0
1379.750854 96.0
1379.832275 56.0
1379.891357 140.0
1380.091064 140.0
1380.201904 60.0
1380.357178 208.0
1380.46814 140.0
1380.556763 132.0
1380.638184 188.0
1380.822144 204.0
1381.008301 112.0
1381.074585 180.0
1381.141113 184.0
1381.224976 200.0
1381.289062 148.0
1381.377808 120.0
1381.509399 328.0
1381.681152 220.0
1381.755127 124.0
1381.932739 144.0
1382.102905 100.0
1382.184326 72.0
1382.310059 188.0
1382.378906 256.0
1382.435913 160.0
1382.524658 132.0
1382.606079 188.0
1382.686279 216.0
1382.75415 76.0
1382.894775 132.0
1383.064941 108.0
1383.18335 148.0
1383.257446 160.0
1383.350098 176.0
1383.479492 108.0
1383.675781 136.0
1383.815674 160.0
1383.938599 44.0
1384.005127 128.0
1384.171875 116.0
1384.293945 92.0
1384.537231 168.0
1384.685547 184.0
1384.982788 80.0
1385.034546 76.0
1385.380371 360.0
1385.572632 236.0
1385.693848 108.0
1385.775391 88.0
1385.893921 100.0
1385.971069 212.0
1386.168701 152.0
1386.41272 136.0
1386.553467 56.0
1386.746216 252.0
1386.907349 204.0
1387.050049 116.0
1387.139038 132.0
1387.302124 196.0
1387.368774 64.0
1387.462769 140.0
1387.62085 132.0
1387.91748 156.0
1388.088013 120.0
1388.362427 152.0
1388.666504 164.0
1388.792969 132.0
1389.111572 160.0
1389.140381 108.0
1389.158081 148.0
1389.37146 228.0
1389.437988 132.0
1389.586304 160.0
1389.791748 204.0
1389.895264 56.0
1389.964722 60.0
1390.016724 188.0
1390.070923 204.0
1390.298462 228.0
1390.558472 120.0
1390.617798 72.0
1390.740845 252.0
1390.818237 168.0
1390.892456 164.0
1391.208008 136.0
1391.270996 160.0
1391.382446 140.0
1391.582886 144.0
1391.642212 136.0
1391.812988 88.0
1391.872437 60.0
1392.127441 80.0
1392.206543 168.0
1392.39563 196.0
1392.637939 48.0
1392.927002 144.0
1392.993896 204.0
1393.083008 108.0
1393.172241 184.0
1393.387573 124.0
1393.481079 172.0
1393.730225 136.0
1393.803711 136.0
1394.063843 160.0
1394.138062 180.0
1394.583984 128.0
1394.747559 144.0
1394.853149 176.0
1394.970581 176.0
1395.074585 164.0
1395.133545 176.0
1395.196411 160.0
1395.483521 284.0
1395.736328 116.0
1395.835327 104.0
1395.996582 164.0
1396.078369 184.0
1396.182495 152.0
1396.316406 136.0
1396.427979 148.0
1396.47998 164.0
1396.628784 160.0
1396.725464 140.0
1396.799805 164.0
1396.913086 160.0
1397.000732 152.0
1397.052734 44.0
1397.136963 224.0
1397.351318 120.0
1397.811646 148.0
1397.953125 232.0
1398.142334 156.0
1398.317749 168.0
1398.399658 172.0
1398.667358 176.0
1398.720581 196.0
1398.838745 40.0
1398.890869 104.0
1399.006714 128.0
1399.212402 104.0
1399.277954 136.0
1399.330078 148.0
1399.577515 196.0
1399.74707 152.0
1399.985352 140.0
1400.094727 224.0
1400.247437 172.0
1400.365234 180.0
1400.700439 224.0
1400.789795 204.0
1400.901489 140.0
1400.978149 152.0
1401.032593 156.0
1401.453491 208.0
1401.719238 148.0
1401.840332 172.0
1401.94458 384.0
1402.054199 204.0
1402.108643 212.0
1402.250244 120.0
1402.317261 120.0
1402.399292 196.0
1402.450684 148.0
1402.651123 164.0
1402.958374 136.0
1403.271484 164.0
1403.323608 188.0
1403.40564 140.0
1403.745483 224.0
1403.860229 96.0
1403.972412 84.0
1404.031982 96.0
1404.262451 112.0
1404.382568 176.0
1404.475464 192.0
1404.578247 184.0
1405.019409 148.0
1405.198853 148.0
1405.553833 152.0
1405.680664 144.0
1405.785156 156.0
1405.857666 196.0
1406.011597 304.0
1406.225464 204.0
1406.351074 188.0
1406.434448 104.0
1406.486694 104.0
1406.67334 216.0
1406.785278 164.0
1406.882324 144.0
1406.994385 164.0
1407.22937 100.0
1407.362671 228.0
1407.493042 196.0
1407.591675 148.0
1407.875488 156.0
1407.950073 188.0
1408.204102 172.0
1408.451416 136.0
1408.532715 124.0
1408.658691 132.0
1408.707642 192.0
1408.898804 148.0
1409.048218 116.0
1409.336914 172.0
1409.466553 168.0
1409.593872 148.0
1409.877563 128.0
1410.2323 192.0
1410.348389 116.0
1410.400757 92.0
1410.520386 184.0
1410.587646 120.0
1410.647461 72.0
1410.893921 148.0
1410.968872 120.0
1411.118408 212.0
1411.396729 316.0
1411.555542 300.0
1411.605469 140.0
1411.754028 204.0
1411.876343 132.0
1411.937012 92.0
1412.045654 148.0
1412.348022 144.0
1412.472046 172.0
1412.793701 160.0
1412.846069 80.0
1412.965698 140.0
1413.040527 88.0
1413.265015 152.0
1413.332397 164.0
1413.519409 184.0
1413.67334 152.0
1413.729004 156.0
1413.975708 124.0
1414.053955 180.0
1414.342651 128.0
1414.529541 128.0
1414.618408 156.0
1414.802856 48.0
1414.956543 192.0
1415.061401 68.0
1415.121216 152.0
1415.323364 116.0
1415.410767 200.0
1415.488159 216.0
1415.536621 136.0
1415.746094 176.0
1415.849976 200.0
1415.952393 160.0
1416.334473 320.0
1416.401855 132.0
1416.490112 136.0
1416.70752 244.0
1416.821289 300.0
1416.92627 160.0
1417.098511 188.0
1417.248413 152.0
1417.359863 172.0
1417.668091 196.0
1417.878662 180.0
1417.945312 176.0
1418.050293 232.0
1418.143799 152.0
1418.290649 60.0
1418.345337 204.0
1418.425049 180.0
1418.544922 152.0
1419.005005 204.0
1419.264648 132.0
1419.339722 100.0
1419.399658 136.0
1419.474609 136.0
1419.63208 228.0
1419.715576 152.0
1419.879639 152.0
1420.044556 164.0
1420.224609 52.0
1420.307129 152.0
1420.472168 48.0
1420.547119 112.0
1420.674683 160.0
1420.796631 140.0
1420.857788 156.0
1421.019775 164.0
1421.102295 196.0
1421.162842 168.0
1421.304932 52.0
1421.539062 224.0
1421.612549 132.0
1421.785156 88.0
1421.986816 208.0
1422.05957 148.0
1422.182983 140.0
1422.340576 68.0
1422.408203 140.0
1422.670898 240.0
1422.743164 172.0
1422.929443 164.0
1423.15918 224.0
1423.316528 188.0
1423.369141 180.0
1423.571899 104.0
1423.669556 140.0
1423.810425 180.0
1424.05249 188.0
1424.270386 120.0
1424.330444 160.0
1424.398071 124.0
1424.469849 140.0
1424.653442 256.0
1424.772583 160.0
1424.86499 160.0
1425.079468 136.0
1425.141846 164.0
1425.224487 240.0
1425.416382 140.0
1425.540039 140.0
1425.655396 176.0
1425.712891 60.0
1425.853394 296.0
1425.968384 124.0
1426.031006 160.0
1426.28418 204.0
1426.502075 140.0
1426.697632 116.0
1426.975708 184.0
1427.057617 140.0
1427.083862 124.0
1427.106079 188.0
1427.238892 224.0
1427.310669 160.0
1427.389648 188.0
1427.629883 196.0
1427.727661 196.0
1427.870605 136.0
1428.058594 192.0
1428.156372 216.0
1428.246704 128.0
1428.329346 84.0
1428.547485 92.0
1428.674316 184.0
1428.960693 152.0
1429.059082 96.0
1429.140137 156.0
1429.276001 112.0
1429.326904 224.0
1429.488037 140.0
1429.585815 172.0
1429.769043 208.0
1429.960571 168.0
1430.18103 328.0
1430.237671 100.0
1430.265259 136.0
1430.368286 200.0
1430.451416 128.0
1430.519165 120.0
1430.610596 160.0
1430.778076 88.0
1431.064453 184.0
1431.136475 192.0
1431.256348 148.0
1431.377441 132.0
1431.520508 104.0
1431.77124 148.0
1431.859375 200.0
1432.01001 160.0
1432.091187 156.0
1432.160645 196.0
1432.273682 300.0
1432.371582 144.0
1432.439453 148.0
1432.603882 168.0
1432.766479 160.0
1432.936646 124.0
1433.004395 168.0
1433.125 52.0
1433.200317 112.0
1433.354492 172.0
1433.486694 40.0
1433.546997 152.0
1433.614746 120.0
1433.66748 172.0
1434.169678 196.0
1434.199463 124.0
1434.234863 144.0
1434.519165 116.0
1434.647339 168.0
1434.696533 124.0
1434.767822 148.0
1434.858521 136.0
1435.001709 100.0
1435.103149 128.0
1435.369629 176.0
1435.46167 44.0
1435.544678 80.0
1435.751709 96.0
1435.846313 44.0
1435.951904 344.0
1436.133911 232.0
1436.269165 168.0
1436.466553 176.0
1436.576172 244.0
1436.806519 176.0
1437.034424 132.0
1437.121094 100.0
1437.492065 172.0
1437.604004 240.0
1437.689209 208.0
1437.883911 160.0
1437.951172 148.0
1438.049316 44.0
1438.207153 172.0
1438.275757 200.0
1438.509766 148.0
1438.66687 148.0
1438.72876 176.0
1438.967041 112.0
1439.38562 144.0
1439.608887 104.0
1439.672485 64.0
1439.808228 156.0
1440.06543 132.0
1440.337158 224.0
1440.601562 188.0
1440.714844 52.0
1440.767822 72.0
1440.971802 136.0
1441.130371 120.0
1441.440186 220.0
1441.689575 184.0
1441.8927 136.0
1442.035522 164.0
1442.217163 160.0
1442.299438 116.0
1442.377319 92.0
1442.558838 168.0
1442.626831 192.0
1442.689453 140.0
1442.982178 180.0
1443.095581 172.0
1443.246826 84.0
1443.428711 196.0
1443.512207 240.0
1443.670288 44.0
1443.768555 92.0
1443.980347 48.0
1444.168945 204.0
1444.208008 216.0
1444.335815 128.0
1444.403931 184.0
1444.519287 160.0
1444.736694 160.0
1444.903198 156.0
1444.978882 208.0
1445.334473 124.0
1445.478271 112.0
1445.652222 204.0
1445.743042 136.0
1445.879272 108.0
1445.947388 156.0
1446.189575 244.0
1446.393921 152.0
1446.469727 140.0
1446.54541 84.0
1446.719482 100.0
1446.799194 204.0
1447.105103 196.0
1447.32666 104.0
1447.553101 172.0
1447.678833 108.0
1447.72876 132.0
1447.817139 216.0
1447.950195 212.0
1448.044556 128.0
1448.150635 104.0
1448.271851 100.0
1448.397583 184.0
1448.67334 112.0
1448.855103 168.0
1448.983887 184.0
1449.143921 276.0
1449.249023 136.0
1449.370361 152.0
1449.605225 160.0
1449.742798 172.0
1449.855347 176.0
1449.976562 140.0
1450.073364 236.0
1450.171631 104.0
1450.272095 124.0
1450.355469 160.0
1450.437988 144.0
1450.532715 108.0
1450.726929 196.0
1450.848267 140.0
1450.916504 144.0
1450.999878 60.0
1451.161011 224.0
1451.409302 136.0
1451.507935 96.0
1451.651978 164.0
1451.750488 160.0
1451.866455 360.0
1452.167725 128.0
1452.296631 160.0
1452.382324 156.0
1452.455933 120.0
1452.509033 160.0
1452.653076 192.0
1452.814331 456.0
1452.874878 160.0
1452.939209 156.0
1453.017212 124.0
1453.237305 140.0
1453.295288 144.0
1453.396606 148.0
1453.449707 176.0
1453.601562 88.0
1453.654663 108.0
1453.7229 196.0
1453.851929 168.0
1453.95813 140.0
1454.20105 164.0
1454.368286 208.0
1454.44397 108.0
1454.519897 100.0
1454.587158 184.0
1454.606934 160.0
1454.777954 120.0
1454.884155 176.0
1454.96582 156.0
1455.10437 196.0
1455.168457 152.0
1455.286621 136.0
1455.401245 156.0
1455.499146 72.0
1455.56958 208.0
1455.696655 84.0
1455.765015 192.0
1455.91687 208.0
1456.061157 232.0
1456.159912 176.0
1456.266235 156.0
1456.592896 124.0
1456.645996 332.0
1456.747437 172.0
1456.936035 156.0
1457.0177 156.0
1457.132202 148.0
1457.337402 128.0
1457.436646 180.0
1457.523315 200.0
1457.673584 132.0
1457.750366 180.0
1457.81604 240.0
1457.907227 288.0
1457.990845 160.0
1458.416504 192.0
1458.553345 152.0
1458.621704 64.0
1458.682495 132.0
1458.872559 164.0
1458.98645 208.0
1459.085449 124.0
1459.153809 44.0
1459.37439 132.0
1459.641846 88.0
1459.926025 340.0
1460.060669 444.0
1460.205322 100.0
1460.461792 148.0
1460.667236 156.0
1460.853882 156.0
1460.94873 148.0
1461.073608 140.0
1461.179932 124.0
1461.249756 152.0
1461.41333 156.0
1461.625854 56.0
1461.71814 144.0
1461.876953 208.0
1461.930176 124.0
1462.249878 164.0
1462.346558 200.0
1462.531494 132.0
1462.710327 184.0
1463.009888 160.0
1463.200439 160.0
1463.521118 112.0
1463.620117 164.0
1463.719116 108.0
1464.008423 192.0
1464.099854 136.0
1464.617798 124.0
1464.891968 188.0
1465.052979 96.0
1465.326294 160.0
1465.513916 188.0
1465.615967 148.0
1465.722412 256.0
1465.890137 108.0
1465.989136 72.0
1466.115112 144.0
1466.240601 136.0
1466.408325 144.0
1466.502197 204.0
1466.743652 152.0
1466.903809 80.0
1466.964722 148.0
1467.067261 144.0
1467.185791 160.0
1467.330688 100.0
1467.460327 124.0
1467.528931 132.0
1467.666138 256.0
1467.897583 172.0
1468.047485 140.0
1468.15332 164.0
1468.428711 164.0
1468.56604 148.0
1468.641846 128.0
1468.797119 164.0
1468.863525 184.0
1468.947388 124.0
1469.023682 132.0
1469.313599 52.0
1469.389893 148.0
1469.649292 148.0
1469.763794 132.0
1469.920166 144.0
1470.12207 164.0
1470.183472 204.0
1470.251709 156.0
1470.455933 172.0
1470.83374 180.0
1470.972046 148.0
1471.068848 156.0
1471.160522 196.0
1471.252075 168.0
1471.381836 124.0
1471.453125 176.0
1471.549805 164.0
1471.675781 160.0
1471.733032 148.0
1471.962158 192.0
1472.040405 188.0
1472.130127 160.0
1472.252319 264.0
1472.516235 176.0
1472.794556 180.0
1472.91687 212.0
1473.052002 156.0
1473.268188 64.0
1473.336914 180.0
1473.405762 180.0
1473.780151 196.0
1474.062866 100.0
1474.292114 196.0
1474.429688 120.0
1474.521362 160.0
1474.658936 112.0
1474.735352 76.0
1474.895874 124.0
1475.000977 156.0
1475.217407 136.0
1475.296509 124.0
1475.400024 184.0
1475.737061 112.0
1475.849731 352.0
1476.149658 196.0
1476.37146 56.0
1476.514404 104.0
1476.66626 312.0
1476.723267 84.0
1476.853271 148.0
1476.914551 180.0
1476.99585 272.0
1477.05249 108.0
1477.10791 220.0
1477.174561 152.0
1477.281494 144.0
1477.694824 164.0
1477.813599 232.0
1478.044067 104.0
1478.188354 192.0
1478.254883 184.0
1478.341431 124.0
1478.425781 176.0
1478.536499 156.0
1478.620728 148.0
1478.674316 156.0
1478.820557 168.0
1478.88855 60.0
1479.105957 120.0
1479.493286 120.0
1479.615845 48.0
1479.724854 380.0
1479.944214 176.0
1480.190063 140.0
1480.358521 168.0
1480.459229 180.0
1480.682495 336.0
1480.891724 160.0
1480.962524 176.0
1481.05542 68.0
1481.193359 128.0
1481.292969 140.0
1481.361816 164.0
1481.545776 148.0
1481.642334 168.0
1481.71875 136.0
1481.990112 168.0
1482.09021 176.0
1482.191895 204.0
1482.31189 76.0
1482.380859 60.0
1482.45752 152.0
1482.610718 48.0
1482.725708 88.0
1482.894287 116.0
1483.014282 244.0
1483.254639 196.0
1483.412964 244.0
1483.522949 72.0
1483.622559 144.0
1483.683838 140.0
1483.768188 56.0
1483.875488 164.0
1484.020264 156.0
1484.131958 156.0
1484.182251 152.0
1484.235962 204.0
1484.542603 176.0
1484.599976 172.0
1484.726685 168.0
1484.874634 84.0
1484.929443 200.0
1485.052002 200.0
1485.234253 176.0
1485.516724 120.0
1485.658447 264.0
1485.806519 124.0
1485.971924 500.0
1486.099731 224.0
1486.184204 192.0
1486.237915 88.0
1486.314575 152.0
1486.46814 160.0
1486.607544 164.0
1486.897827 140.0
1487.153564 152.0
1487.304688 156.0
1487.373779 196.0
1487.426636 176.0
1487.456421 156.0
1487.580933 192.0
1487.711914 148.0
1487.81897 180.0
1487.995605 332.0
1488.079956 208.0
1488.233521 164.0
1488.372437 136.0
1488.655884 208.0
1488.8479 44.0
1489.001465 92.0
1489.078247 168.0
1489.205322 140.0
1489.316406 104.0
1489.546875 120.0
1489.657715 192.0
1489.761963 64.0
1489.900146 120.0
1489.96167 120.0
1490.015381 212.0
1490.10498 212.0
1490.184448 40.0
1490.299683 216.0
1490.46875 212.0
1490.537964 196.0
1490.622437 160.0
1490.768433 68.0
1491.060425 28.0
1491.260254 184.0
1491.3125 112.0
1491.371338 224.0
1491.560059 160.0
1491.790649 88.0
1491.875244 252.0
1492.005981 140.0
1492.154541 160.0
1492.236572 40.0
1492.344238 156.0
1492.78833 128.0
1492.928589 92.0
1493.028564 196.0
1493.082397 168.0
1493.412476 160.0
1493.736816 204.0
1493.843872 80.0
1493.997803 104.0
1494.259399 180.0
1494.482422 212.0
1494.558716 204.0
1494.852051 108.0
1494.928711 132.0
1495.068604 116.0
1495.121216 144.0
1495.359741 112.0
1495.436768 92.0
1495.547729 188.0
1495.652954 180.0
1495.775391 160.0
1495.92981 172.0
1496.064819 316.0
1496.329712 120.0
1496.472412 156.0
1496.664551 88.0
1496.768555 216.0
1496.853271 168.0
1496.96582 104.0
1497.055054 192.0
1497.122803 140.0
1497.208618 132.0
1497.484741 132.0
1497.692749 280.0
1497.792847 104.0
1497.862183 176.0
1498.059937 204.0
1498.293579 212.0
1498.362915 80.0
1498.441162 152.0
1498.593994 152.0
1498.680664 128.0
1499.156494 140.0
1499.283691 292.0
1499.43396 220.0
1499.565063 140.0
1499.636841 128.0
1499.666992 168.0
1499.85376 160.0
1500.16626 148.0
1500.222412 184.0
1500.295898 280.0
1500.736816 112.0
1500.862183 136.0
1500.943848 116.0
1501.030762 188.0
1501.511719 152.0
1501.662109 156.0
1501.893555 180.0
1502.02417 200.0
1502.036865 188.0
1502.155762 180.0
1502.279175 140.0
1502.346436 364.0
1502.711304 140.0
1502.904175 176.0
1502.980225 164.0
1503.082886 144.0
1503.154785 144.0
1503.289917 148.0
1503.405762 180.0
1503.529175 184.0
1503.722168 32.0
1504.00769 200.0
1504.077148 244.0
1504.509521 168.0
1504.617554 64.0
1504.741089 32.0
1504.849243 140.0
1505.042236 140.0
1505.096313 84.0
1505.196045 188.0
1505.296997 244.0
