>compound VINDESINE SULFATE
>formula C43H55N5O7
>ionization [M+H]+
>parentmass 754.416504
#inchi InChI=1S/C43H55N5O7/c1-6-39(52)21-25-22-42(38(51)55-5,33-27(13-17-47(23-25)24-39)26-11-8-9-12-30(26)45-33)29-19-28-31(20-32(29)54-4)46(3)35-41(28)15-18-48-16-10-14-40(7-2,34(41)48)36(49)43(35,53)37(44)50/h8-12,14,19-20,25,34-36,45,49,52-53H,6-7,13,15-18,21-24H2,1-5H3,(H2,44,50)/t25-,34+,35-,36-,39+,40-,41-,42+,43+/m1/s1
#inchikey HHJUWIANJFBDHT
#Ion_Source LC-ESI
#Instrument qTof
#Compound_Source Commercial
#PI Dorrestein
#Data_Collector Garg_Neha
#Scan -1
#Precursor_MZ 754.417
#ExactMass 753.41
#Charge 1
#CAS_Number N/A
#Pubmed_ID N/A
#Smiles CC[C@]1(O)C[C@H]2CN(C1)CCc3c([nH]c4ccccc34)[C@@](C2)(C(=O)OC)c5cc6c(cc5OC)N(C)[C@@H]7[C@@]86CCN9CC=C[C@](CC)([C@H]98)[C@@H](O)[C@]7(O)C(=O)N
#INCHI_AUX N/A
#Library_Class 1
#SpectrumID CCMSLIB00000079214
#IonMode Positive
#UpdateWorkflowName UPDATE-SINGLE-ANNOTATED-GOLD
#LibraryQualityString Gold
#TaskID 278b19f5865741e282cec7349aa7e7a1
##Scan# 1038
#SpectrumFile NCP003672_A27B27C27D27_BE4_01_15740.mzXML
#LibraryName NIHcollectionI_05062014.mgf
#MQScore -1
#Organism NIHcollectionI_05062014
#TIC_Query 0
#RT_Query -1
#MZErrorPPM -1
#SharedPeaks 0
#MassDiff 0
#LibMZ -1
#SpecMZ 754.417
#SpecCharge 0
#internalFilename spec-00000.mgf

>collision 10
53.115887 196.0
64.90918 196.0
97.678123 180.0
105.089767 160.0
112.234093 156.0
117.071487 148.0
122.096703 168.0
124.111542 1392.0
126.12986 188.0
128.109055 184.0
134.102753 152.0
136.111603 324.0
138.095779 204.0
138.12384 152.0
140.107101 352.0
144.07869 512.0
145.081421 164.0
150.096252 148.0
151.171066 168.0
152.108261 184.0
154.126266 324.0
156.13858 120.0
157.143555 140.0
158.097336 188.0
158.183182 144.0
164.100006 340.0
166.12114 172.0
168.057617 160.0
168.080841 144.0
169.080902 192.0
170.006088 168.0
170.055389 176.0
171.090332 136.0
175.098862 156.0
179.175507 140.0
181.144348 156.0
182.114578 160.0
184.995193 204.0
186.152908 192.0
188.107742 156.0
190.083771 148.0
195.091858 112.0
196.073807 140.0
200.070572 124.0
200.115982 196.0
202.083191 164.0
202.117676 300.0
207.113815 268.0
208.122986 168.0
209.127106 1108.0
210.134857 224.0
211.142349 188.0
212.130219 576.0
214.090225 272.0
214.12265 500.0
215.474106 152.0
216.104065 156.0
216.436371 164.0
223.095474 140.0
224.119278 148.0
225.123749 264.0
226.119705 144.0
226.144684 216.0
228.102417 140.0
229.099762 168.0
230.116043 204.0
235.114487 184.0
236.125717 144.0
237.123795 140.0
238.097626 152.0
238.14241 200.0
239.132416 156.0
240.099823 256.0
240.143555 156.0
242.182922 160.0
248.13533 132.0
249.161209 156.0
251.210617 196.0
252.094666 140.0
252.121613 124.0
253.12944 172.0
254.114532 128.0
254.131393 272.0
263.127716 212.0
265.170685 248.0
266.167938 360.0
274.116913 164.0
277.178955 188.0
278.172729 132.0
279.177795 160.0
279.980469 140.0
281.165161 592.0
282.167847 220.0
283.175659 704.0
288.138275 152.0
293.172943 128.0
294.171143 176.0
295.176361 728.0
296.13916 164.0
297.195862 264.0
298.200775 176.0
303.143158 188.0
304.919983 160.0
305.165375 164.0
306.14209 188.0
307.171661 220.0
308.165771 180.0
309.202759 280.0
311.151703 152.0
312.15979 132.0
321.161102 456.0
323.174042 1548.0
324.177032 492.0
325.184509 204.0
331.178772 160.0
331.62616 140.0
333.152191 152.0
334.499298 236.0
335.183075 180.0
335.446381 204.0
336.175812 160.0
337.193237 1292.0
338.156616 164.0
338.19342 468.0
341.190155 324.0
353.187775 2596.0
354.191223 492.0
354.628235 200.0
355.123169 168.0
355.202026 5324.0
356.203735 1028.0
357.177734 148.0
357.211639 216.0
358.211182 108.0
361.191132 140.0
362.179047 144.0
365.188934 144.0
366.185364 100.0
367.201447 224.0
368.216187 144.0
369.181976 204.0
370.234375 144.0
371.177063 216.0
379.203278 128.0
381.23233 164.0
382.219055 160.0
383.242859 128.0
386.188293 196.0
393.185638 148.0
394.161255 260.0
395.234741 148.0
398.200439 200.0
399.230347 188.0
400.229218 120.0
402.183319 140.0
405.058258 172.0
408.25708 160.0
411.399841 220.0
412.222351 2112.0
413.222565 228.0
415.256989 196.0
420.863647 144.0
423.333435 192.0
424.218414 284.0
425.205139 152.0
426.229279 272.0
427.215118 136.0
427.24292 156.0
428.216034 124.0
430.224518 164.0
432.226135 124.0
438.208069 168.0
439.236084 100.0
439.467194 228.0
440.197662 164.0
440.240814 156.0
442.271515 248.0
446.853821 140.0
447.287262 176.0
452.225464 164.0
456.196442 108.0
458.264282 156.0
460.687531 180.0
464.278595 108.0
464.510223 160.0
465.978394 164.0
470.22757 416.0
471.221344 300.0
471.30072 140.0
472.248047 128.0
476.248047 124.0
479.265686 136.0
480.265839 400.0
481.265808 160.0
482.279755 224.0
483.234711 180.0
484.245422 360.0
485.255432 148.0
488.261658 156.0
490.27356 184.0
492.262878 152.0
494.267395 1036.0
495.18631 144.0
495.274139 160.0
496.546936 140.0
497.194641 164.0
498.242554 192.0
504.262573 148.0
507.288361 172.0
507.974457 184.0
508.28067 248.0
509.267059 144.0
510.266541 336.0
511.263733 184.0
512.292603 256.0
513.283936 156.0
515.21228 136.0
516.254028 196.0
520.312561 204.0
521.309082 124.0
522.280701 432.0
523.273987 132.0
524.286804 740.0
524.348877 160.0
526.293335 280.0
527.293701 192.0
528.276489 200.0
530.286743 108.0
531.304077 132.0
533.317993 232.0
534.287415 128.0
536.228943 172.0
536.270264 160.0
537.268921 140.0
538.310059 148.0
539.305298 332.0
540.287415 576.0
540.734497 148.0
541.274597 248.0
541.306702 216.0
542.296265 1080.0
542.642944 104.0
543.303955 512.0
544.299866 388.0
545.307434 144.0
546.286987 224.0
547.303528 100.0
548.308594 104.0
551.262146 148.0
552.315308 176.0
553.274597 148.0
553.333435 232.0
553.738159 224.0
554.274475 124.0
555.969727 140.0
562.304321 148.0
562.337341 176.0
566.305359 112.0
568.305237 104.0
569.320251 128.0
570.316162 132.0
571.288208 148.0
571.334717 380.0
572.336243 148.0
576.37384 156.0
578.32843 132.0
579.316467 148.0
582.137878 164.0
583.579407 172.0
585.307922 116.0
587.331604 104.0
589.300476 152.0
591.305481 128.0
591.370605 100.0
593.26416 144.0
593.312073 228.0
595.318848 216.0
596.331909 188.0
600.343445 144.0
601.314331 172.0
602.351135 120.0
605.311523 116.0
605.344604 196.0
606.329346 104.0
609.286072 364.0
609.323364 344.0
610.334534 268.0
611.338196 452.0
612.316101 144.0
613.320984 100.0
615.980774 144.0
618.705566 148.0
622.318359 96.0
623.348022 280.0
624.330566 148.0
625.327271 140.0
626.362976 140.0
629.34729 144.0
629.804626 140.0
632.369568 152.0
633.366821 328.0
634.373657 156.0
637.369385 96.0
641.342102 240.0
643.312378 144.0
645.358459 156.0
645.869202 152.0
647.349548 220.0
648.376892 124.0
649.369141 692.0
650.380859 868.0
651.385681 1552.0
652.384827 716.0
653.411438 324.0
653.541016 140.0
656.081116 148.0
658.014648 152.0
658.336365 164.0
659.338684 120.0
661.386047 264.0
662.354797 212.0
663.374756 144.0
670.319641 156.0
673.377563 568.0
674.382751 192.0
675.374023 240.0
677.38855 108.0
681.106628 156.0
681.375854 140.0
683.888367 184.0
684.36731 164.0
689.118835 152.0
689.37561 108.0
690.354858 112.0
691.379761 856.0
692.314819 152.0
692.380005 320.0
693.379272 120.0
694.399963 664.0
695.394104 260.0
701.365784 112.0
704.3797 204.0
705.289062 148.0
705.393799 128.0
706.375732 228.0
707.376038 128.0
709.393799 2792.0
710.144348 176.0
710.188782 172.0
710.399658 1152.0
710.773193 156.0
711.398682 320.0
717.370178 204.0
718.381775 196.0
719.382202 552.0
720.372681 344.0
721.368835 128.0
722.394775 152.0
730.554871 152.0
734.18512 144.0
734.387024 352.0
735.388489 252.0
735.963074 132.0
736.406616 1928.0
737.414001 1108.0
738.292297 164.0
738.39856 132.0
739.42804 216.0
740.300537 108.0
742.292908 148.0
746.091919 168.0
747.45166 144.0
751.177307 104.0
751.425842 188.0
751.726929 116.0
751.891052 116.0
752.158081 144.0
752.311035 192.0
752.401123 6100.0
752.605591 104.0
752.733643 140.0
753.272278 152.0
753.40448 3880.0
753.602295 100.0
753.695007 160.0
753.793335 148.0
753.929871 128.0
754.257874 252.0
754.416504 23792.0
755.218018 136.0
755.278442 180.0
755.420044 12600.0
755.538879 252.0
755.599976 104.0
755.845337 208.0
756.424011 3588.0
756.650574 120.0
757.428589 440.0
757.679504 112.0
758.417664 100.0
758.917847 268.0
759.098816 120.0
759.167236 192.0
759.243408 116.0
759.70575 96.0
760.456543 136.0
992.266541 168.0
1045.718872 176.0
1743.907227 148.0
1863.343018 152.0
1880.263306 152.0
1916.868408 160.0
1995.953491 184.0
