>compound MLS000736796-01!
>formula C23H28N2O5
>ionization [M+H]+
>parentmass 413.206207
#inchi InChI=1S/C23H28N2O5/c1-12-16-10-25-6-5-13-15-8-20(27-2)21(28-3)9-18(15)24-22(13)19(25)7-14(16)17(11-30-12)23(26)29-4/h8-9,11-12,14,16,19,24H,5-7,10H2,1-4H3
#inchikey FGWJRZQNNZVCHR
#origInchi InChI=1S/C23H28N2O5.C6H8O7/c1-12-16-10-25-6-5-13-15-8-20(27-2)21(28-3)9-18(15)24-22(13)19(25)7-14(16)17(11-30-12)23(26)29-4;7-3(8)1-6(13,5(11)12)2-4(9)10/h8-9,11-12,14,16,19,24H,5-7,10H2,1-4H3;13H,1-2H2,(H,7,8)(H,9,10)(H,11,12)
#Ion_Source LC-ESI
#Instrument qTof
#Compound_Source NIH Natural Product Library
#PI Dorrestein
#Data_Collector VVP/LMS
#Scan -1
#Precursor_MZ 413.208
#ExactMass 412.2
#Charge 1
#CAS_Number N/A
#Pubmed_ID N/A
#Smiles COC(=O)C1=COC(C)C2CN3CCc4c([nH]c5cc(OC)c(OC)cc45)C3CC21.OC(=O)CC(O)(CC(=O)O)C(=O)O
#INCHI_AUX N/A
#Library_Class 1
#SpectrumID CCMSLIB00000080067
#IonMode Positive
#UpdateWorkflowName UPDATE-SINGLE-ANNOTATED-GOLD
#LibraryQualityString Gold
#TaskID b1d8e8f6646f4e71acdff9ca3d919d08
##Scan# 1535
#SpectrumFile p2-F03_GF3_01_18039.mzXML
#LibraryName NIH_Natural_Products_Library.mgf
#MQScore -1
#Organism NIH_Natural_Products_Library
#TIC_Query 0
#RT_Query -1
#MZErrorPPM -1
#SharedPeaks 0
#MassDiff 0
#LibMZ -1
#SpecMZ 413.208
#SpecCharge 0
#internalFilename spec-00000.mgf

>collision 10
94.976357 128.0
95.00882 180.0
95.051659 252.0
95.069489 192.0
95.115517 212.0
95.141304 172.0
95.184021 132.0
95.215088 176.0
95.306396 156.0
95.368584 168.0
95.409401 204.0
95.424957 188.0
95.446342 172.0
95.517784 180.0
95.561813 176.0
95.606354 204.0
95.684952 164.0
95.715271 204.0
95.755768 216.0
95.769402 124.0
95.855125 152.0
95.911644 80.0
95.940887 128.0
95.970131 256.0
96.050087 180.0
96.071663 132.0
96.153503 36.0
96.243301 52.0
96.264778 152.0
96.327278 200.0
96.490013 204.0
96.539482 168.0
96.583351 208.0
96.690964 144.0
96.757515 168.0
96.810379 252.0
96.890694 212.0
96.912239 192.0
96.990341 164.0
97.035721 132.0
97.141624 124.0
97.239731 68.0
97.34967 172.0
97.390915 72.0
97.404663 180.0
97.577919 176.0
97.638565 140.0
97.701508 100.0
97.888489 112.0
97.929848 124.0
97.951515 124.0
98.091423 104.0
98.126915 144.0
98.199875 228.0
98.245247 184.0
98.351807 176.0
98.377464 32.0
98.444595 188.0
98.537155 172.0
98.565094 148.0
98.588806 160.0
98.602646 64.0
98.659966 72.0
98.709396 128.0
98.78653 188.0
98.865677 176.0
98.879532 184.0
98.95079 168.0
99.023827 136.0
99.085472 168.0
99.101318 144.0
99.146896 188.0
99.226189 92.0
99.244026 112.0
99.285675 188.0
99.313438 124.0
99.367004 104.0
99.394783 116.0
99.428513 124.0
99.511757 184.0
99.553589 168.0
99.569473 176.0
99.635414 164.0
99.67675 80.0
99.718483 144.0
99.760223 148.0
99.813568 164.0
99.847717 140.0
99.961113 200.0
99.994942 224.0
100.100456 80.0
100.118378 80.0
100.287727 200.0
100.393394 184.0
100.499115 148.0
100.52375 256.0
100.558983 176.0
100.596909 124.0
100.630852 180.0
100.736336 176.0
100.774658 92.0
100.862587 112.0
100.966133 244.0
101.005722 128.0
101.036568 244.0
101.068581 156.0
101.098778 180.0
101.14257 144.0
101.223801 148.0
101.266769 168.0
101.314842 64.0
101.332878 64.0
101.515091 212.0
101.522888 192.0
101.555389 160.0
101.750046 124.0
101.766106 204.0
101.80426 88.0
101.818314 220.0
101.995125 200.0
102.049408 164.0
102.228432 104.0
102.256607 144.0
102.38546 172.0
102.417686 172.0
102.482147 52.0
102.566795 132.0
102.637352 152.0
102.777763 216.0
102.818909 148.0
102.845146 160.0
102.877449 128.0
102.978409 152.0
103.05394 456.0
103.107712 132.0
103.157982 140.0
103.285645 156.0
103.322052 144.0
103.382759 44.0
103.498138 92.0
103.617645 200.0
103.683594 188.0
103.706802 180.0
103.84874 76.0
103.877136 172.0
103.907562 124.0
104.031364 112.0
104.080322 140.0
104.175545 132.0
104.218796 152.0
104.311699 84.0
104.417427 44.0
104.523216 96.0
104.561882 204.0
104.58223 188.0
104.600555 184.0
104.625999 128.0
104.69014 180.0
104.820953 72.0
104.87146 104.0
104.950966 144.0
105.032547 128.0
105.068314 360.0
105.114151 132.0
105.132523 140.0
105.214165 72.0
105.25296 200.0
105.340782 188.0
105.36734 144.0
105.434769 140.0
105.465431 120.0
105.494179 180.0
105.522667 116.0
105.557426 244.0
105.600372 220.0
105.626968 160.0
105.678368 128.0
105.710854 164.0
105.737457 60.0
105.764061 120.0
105.81115 128.0
105.907394 128.0
105.925827 148.0
105.957581 152.0
105.985245 184.0
106.02623 136.0
106.067009 348.0
106.095917 116.0
106.176857 144.0
106.270248 164.0
106.30513 160.0
106.366707 68.0
106.39357 184.0
106.454987 164.0
106.621391 228.0
106.64212 236.0
106.75502 100.0
106.822899 200.0
106.940186 240.0
107.048691 340.0
107.075005 396.0
107.098724 72.0
107.113144 216.0
107.16671 116.0
107.185257 196.0
107.236778 104.0
107.255325 176.0
107.290367 136.0
107.329544 116.0
107.348976 148.0
107.366661 168.0
107.428543 180.0
107.481949 176.0
107.527588 184.0
107.568871 140.0
107.667976 188.0
107.703087 124.0
107.723343 144.0
107.832222 176.0
107.872528 160.0
107.895271 124.0
107.932487 184.0
107.957306 168.0
107.982117 208.0
107.996597 48.0
108.043152 368.0
108.06073 196.0
108.080688 888.0
108.106247 160.0
108.124878 160.0
108.203537 180.0
108.271461 148.0
108.33194 180.0
108.356796 180.0
108.402382 44.0
108.433464 216.0
108.524681 172.0
108.595428 172.0
108.640823 164.0
108.711372 204.0
108.769485 184.0
108.796471 116.0
108.811005 112.0
108.923141 140.0
109.004173 108.0
109.023186 112.0
109.049889 156.0
109.067757 284.0
109.086662 180.0
109.22039 180.0
109.407677 132.0
109.53054 164.0
109.557625 176.0
109.654343 196.0
109.705582 64.0
109.736855 132.0
109.816101 148.0
109.944008 196.0
109.987198 220.0
110.043564 160.0
110.071571 184.0
110.097855 160.0
110.1119 168.0
110.273354 212.0
110.430161 180.0
110.463631 100.0
110.502579 168.0
110.559875 156.0
110.587082 156.0
110.693352 164.0
110.76506 124.0
110.798584 164.0
110.867729 364.0
110.91729 204.0
111.16552 164.0
111.182304 188.0
111.411179 96.0
111.459503 124.0
111.474213 56.0
111.528854 212.0
111.5569 152.0
111.583511 96.0
111.598228 152.0
111.680244 172.0
111.795959 108.0
111.899101 200.0
112.025467 188.0
112.147682 152.0
112.196167 128.0
112.362778 224.0
112.499954 180.0
112.607643 112.0
112.717499 204.0
112.757652 36.0
112.81472 44.0
112.898277 376.0
113.020035 160.0
113.240036 156.0
113.263336 192.0
113.326897 124.0
113.352318 100.0
113.494339 144.0
113.540993 48.0
113.585533 148.0
113.636452 32.0
113.772278 160.0
113.789261 152.0
113.810493 164.0
113.873589 152.0
113.980423 100.0
114.010178 172.0
114.076828 212.0
114.286621 180.0
114.305771 72.0
114.363564 152.0
114.382385 124.0
114.429222 104.0
114.461159 108.0
114.497368 48.0
114.659279 192.0
114.706169 184.0
114.753075 140.0
114.793587 188.0
114.894707 88.0
115.013336 124.0
115.053207 832.0
115.08831 168.0
115.120087 168.0
115.214073 164.0
115.229027 196.0
115.293129 128.0
115.372215 172.0
115.38932 48.0
115.442772 204.0
115.470581 172.0
115.547508 212.0
115.592522 112.0
115.639359 176.0
115.667427 148.0
115.705963 176.0
115.772339 192.0
115.855873 60.0
115.973732 156.0
116.001595 152.0
116.043938 160.0
116.060814 176.0
116.138832 224.0
116.28688 152.0
116.301903 168.0
116.349731 72.0
116.424286 188.0
116.542435 176.0
116.671387 156.0
116.707939 208.0
116.760155 188.0
116.834831 204.0
116.864136 116.0
116.946732 176.0
116.976868 120.0
117.057144 400.0
117.097443 156.0
117.131905 168.0
117.185768 88.0
117.220238 128.0
117.259308 216.0
117.276276 140.0
117.310768 188.0
117.34095 188.0
117.418579 132.0
117.494072 196.0
117.556648 260.0
117.580383 156.0
117.674614 172.0
117.720894 240.0
117.761742 176.0
117.807106 128.0
117.824387 112.0
117.871925 184.0
117.969185 212.0
118.062408 380.0
118.122719 44.0
118.15435 216.0
118.215752 164.0
118.2677 216.0
118.373779 108.0
118.436584 164.0
118.466911 200.0
118.539642 176.0
118.571991 276.0
118.61644 180.0
118.651123 112.0
118.722679 176.0
118.826797 240.0
118.850922 204.0
118.930962 100.0
118.952667 168.0
119.050751 204.0
119.072372 92.0
119.159164 96.0
119.18071 176.0
119.224167 120.0
119.26329 48.0
119.319809 168.0
119.367645 204.0
119.389389 208.0
119.41114 156.0
119.476395 104.0
119.519913 200.0
119.546761 260.0
119.670097 84.0
119.733246 148.0
119.763741 156.0
119.798592 140.0
119.859596 180.0
119.897079 160.0
119.979477 144.0
120.001274 132.0
120.023079 180.0
120.044891 168.0
120.078896 868.0
120.123405 92.0
120.222908 192.0
120.257362 204.0
120.41153 132.0
120.439919 152.0
120.487976 120.0
120.51857 128.0
120.557899 296.0
120.674881 132.0
120.693985 156.0
120.712212 188.0
120.756851 216.0
120.813721 156.0
120.835602 148.0
120.962532 164.0
121.029579 232.0
121.060471 180.0
121.082085 284.0
121.286728 104.0
121.3218 112.0
121.475304 156.0
121.571846 132.0
121.644279 212.0
121.668427 156.0
121.688187 208.0
121.710144 84.0
121.813438 124.0
121.931412 160.0
122.034531 176.0
122.059746 424.0
122.111977 192.0
122.16729 248.0
122.183777 160.0
122.228897 72.0
122.391785 192.0
122.407196 196.0
122.425529 172.0
122.468864 208.0
122.484283 232.0
122.623093 136.0
122.779633 204.0
122.843597 204.0
122.859039 112.0
123.021408 208.0
123.045784 196.0
123.070915 180.0
123.097412 140.0
123.132744 204.0
123.305077 188.0
123.333809 164.0
123.384651 164.0
123.504066 188.0
123.552734 148.0
123.705429 148.0
123.76078 224.0
123.778496 164.0
123.820572 156.0
123.84272 268.0
123.862656 184.0
123.918037 156.0
123.957924 152.0
123.986732 196.0
124.039001 468.0
124.195145 116.0
124.250603 76.0
124.272789 160.0
124.328262 220.0
124.381531 156.0
124.401512 164.0
124.448135 156.0
124.523727 196.0
124.559174 168.0
124.57695 164.0
124.668045 152.0
124.772514 160.0
124.821434 112.0
124.839218 180.0
124.892601 144.0
124.939316 80.0
124.960579 208.0
124.98381 64.0
125.038521 144.0
125.060051 140.0
125.141846 192.0
125.230919 180.0
125.326714 172.0
125.360138 180.0
125.37574 156.0
125.480507 200.0
125.625465 116.0
125.683472 404.0
125.745956 136.0
125.913406 156.0
125.969246 188.0
126.054146 44.0
126.121193 168.0
126.255348 140.0
126.275475 184.0
126.296623 204.0
126.322449 204.0
126.369431 96.0
126.437317 224.0
126.458939 176.0
126.541763 160.0
126.611183 176.0
126.65374 160.0
126.669418 200.0
126.723557 220.0
126.756798 132.0
126.807915 188.0
126.855415 80.0
126.883453 156.0
126.989952 72.0
127.036949 296.0
127.09539 116.0
127.263733 180.0
127.344574 96.0
127.442924 164.0
127.447632 128.0
127.458786 148.0
127.463165 132.0
127.638977 120.0
127.679451 192.0
127.786057 72.0
127.891327 188.0
127.944969 204.0
127.987747 232.0
128.014877 176.0
128.049469 216.0
128.083115 196.0
128.140915 172.0
128.201752 148.0
128.289658 168.0
128.39563 188.0
128.445435 200.0
128.465561 148.0
128.524216 156.0
128.604553 80.0
128.637054 192.0
128.78157 148.0
128.980408 60.0
129.05275 36.0
129.192978 52.0
129.271393 208.0
129.340073 144.0
129.410248 188.0
129.426102 132.0
129.444214 168.0
129.507629 52.0
129.549011 64.0
129.636765 132.0
129.673279 176.0
129.856674 236.0
129.940613 196.0
129.965561 136.0
130.001678 144.0
130.007645 132.0
130.025192 188.0
130.041321 188.0
130.065933 2000.0
130.13353 180.0
130.249344 60.0
130.274338 180.0
130.344772 168.0
130.365219 176.0
130.393585 184.0
130.433411 136.0
130.467499 88.0
130.619873 88.0
130.692215 140.0
130.742737 124.0
130.776871 172.0
130.856552 164.0
130.9216 140.0
130.943085 148.0
130.96727 180.0
131.027359 152.0
131.0513 300.0
131.069855 748.0
131.13446 56.0
131.20285 172.0
131.271255 100.0
131.332306 176.0
131.389862 176.0
131.419342 204.0
131.606674 144.0
131.682037 104.0
131.707169 164.0
131.773422 140.0
131.889969 132.0
131.949234 212.0
131.953232 196.0
131.997421 108.0
132.044647 164.0
132.079926 832.0
132.188461 176.0
132.281586 116.0
132.381866 144.0
132.441406 104.0
132.459732 152.0
132.512421 136.0
132.572006 164.0
132.647629 180.0
132.762283 224.0
132.780624 104.0
132.800003 152.0
132.828796 212.0
132.904495 124.0
132.925949 156.0
132.959579 72.0
133.010071 64.0
133.028427 180.0
133.057831 192.0
133.075912 284.0
133.143234 156.0
133.164703 120.0
133.19606 148.0
133.27417 104.0
133.315536 184.0
133.342484 244.0
133.419678 236.0
133.456329 208.0
133.487946 124.0
133.600647 48.0
133.625961 120.0
133.761475 140.0
133.835419 188.0
133.906799 164.0
134.021988 164.0
134.064133 512.0
134.093323 432.0
134.275894 168.0
134.347321 184.0
134.370132 116.0
134.617111 128.0
134.770889 164.0
134.820404 152.0
134.836594 104.0
134.879364 196.0
134.9776 84.0
135.042664 308.0
135.08139 156.0
135.098801 380.0
135.142456 176.0
135.163162 164.0
135.250595 348.0
135.273743 100.0
135.537781 180.0
135.669891 140.0
135.864685 124.0
135.897171 176.0
136.02475 152.0
136.028519 148.0
136.040161 92.0
136.049301 204.0
136.076981 156.0
136.129288 172.0
136.231369 156.0
136.359283 128.0
136.398804 136.0
136.482498 164.0
136.519699 32.0
136.567368 200.0
136.647644 136.0
136.696503 108.0
136.780289 148.0
136.803574 168.0
136.882736 192.0
136.973557 264.0
136.992203 156.0
137.024811 188.0
137.041122 144.0
137.057434 204.0
137.307251 248.0
137.330185 112.0
137.498184 188.0
137.568207 156.0
137.638733 212.0
137.727554 200.0
137.750351 148.0
137.783051 96.0
137.846146 192.0
137.87886 156.0
137.953018 148.0
138.019119 100.0
138.057419 328.0
138.105652 160.0
138.130829 136.0
138.201569 200.0
138.262405 188.0
138.316238 80.0
138.347244 148.0
138.367737 132.0
138.550415 200.0
138.637115 300.0
138.698044 180.0
138.862183 144.0
138.967117 132.0
138.988861 76.0
139.034637 192.0
139.074631 196.0
139.153168 124.0
139.193085 164.0
139.376297 180.0
139.409195 228.0
139.439743 192.0
139.47139 184.0
139.566055 284.0
139.589828 172.0
139.844284 152.0
139.871063 256.0
139.966705 180.0
140.002029 156.0
140.048431 80.0
140.064774 156.0
140.112366 176.0
140.162216 200.0
140.216415 120.0
140.247055 256.0
140.341415 144.0
140.383438 184.0
140.435684 32.0
140.476913 112.0
140.527695 156.0
140.544205 188.0
140.579605 124.0
140.61264 168.0
141.056702 132.0
141.078674 284.0
141.15126 176.0
141.212875 156.0
141.231003 160.0
141.264145 160.0
141.316315 140.0
141.387833 168.0
141.534592 224.0
141.565384 56.0
141.683807 196.0
141.701263 120.0
141.718765 176.0
141.760361 300.0
141.790451 48.0
141.821259 180.0
141.844955 148.0
141.876923 144.0
141.96376 152.0
141.991455 184.0
142.063919 1516.0
142.131927 188.0
142.155655 112.0
142.203125 204.0
142.274338 92.0
142.300446 224.0
142.321518 124.0
142.362183 88.0
142.450073 48.0
142.504715 48.0
142.537979 160.0
142.773315 268.0
142.794724 164.0
142.913666 192.0
142.930328 80.0
142.949356 180.0
143.073502 2668.0
143.115982 168.0
143.185043 136.0
143.22554 188.0
143.267731 84.0
143.344666 168.0
143.375641 192.0
143.392319 176.0
143.448563 216.0
143.521057 176.0
143.546356 184.0
143.611679 132.0
143.697556 156.0
143.864609 136.0
143.919525 128.0
143.955353 120.0
144.004684 128.0
144.044647 444.0
144.079956 5932.0
144.127228 96.0
144.182297 68.0
144.265961 140.0
144.301819 112.0
144.363403 212.0
144.466843 124.0
144.490753 180.0
144.521866 128.0
144.617767 156.0
144.646317 128.0
144.7099 128.0
144.744476 48.0
144.800415 208.0
144.81871 48.0
144.891434 180.0
144.910416 200.0
145.019058 236.0
145.082993 744.0
145.22139 328.0
145.236298 160.0
145.266647 156.0
145.298141 196.0
145.319733 188.0
145.341339 56.0
145.360535 116.0
145.528549 104.0
145.596161 232.0
145.619812 112.0
145.667847 112.0
145.691864 228.0
145.783173 152.0
145.826431 68.0
145.896149 160.0
145.949661 200.0
145.973083 152.0
146.029861 92.0
146.059967 5284.0
146.09259 608.0
146.128525 192.0
146.162354 164.0
146.18718 68.0
146.213654 36.0
146.243027 216.0
146.281052 56.0
146.306976 192.0
146.379395 132.0
146.419952 116.0
146.444794 48.0
146.492966 176.0
146.509827 100.0
146.615646 168.0
146.641647 172.0
146.700211 176.0
146.724319 168.0
146.967911 56.0
147.069794 1044.0
147.112717 92.0
147.28418 148.0
147.327652 188.0
147.354233 108.0
147.418045 212.0
147.457306 164.0
147.61528 164.0
147.641876 188.0
147.678162 96.0
147.738129 180.0
148.042191 272.0
148.075409 664.0
148.165024 124.0
148.239838 160.0
148.311722 220.0
148.348907 304.0
148.387695 152.0
148.419205 60.0
148.44722 156.0
148.593842 48.0
148.725906 248.0
148.792862 188.0
148.948273 60.0
148.970139 116.0
149.056442 140.0
149.084457 156.0
149.102615 216.0
149.18399 108.0
149.220459 136.0
149.24234 128.0
149.267639 144.0
149.400436 212.0
149.451523 180.0
149.470993 140.0
149.658417 204.0
149.690079 116.0
149.739105 152.0
149.770447 176.0
149.960495 164.0
150.028748 76.0
150.058212 516.0
150.090149 168.0
150.140915 144.0
150.211639 104.0
150.253113 152.0
150.314117 160.0
150.363663 184.0
150.401978 184.0
150.419067 168.0
150.606323 192.0
150.642197 252.0
150.704803 60.0
150.797653 100.0
150.843918 208.0
150.902771 168.0
150.934555 136.0
151.012817 164.0
151.073273 168.0
151.099579 180.0
151.149826 68.0
151.166946 172.0
151.255051 120.0
151.274643 144.0
151.316254 220.0
151.389587 144.0
151.424011 172.0
151.464584 120.0
151.507294 164.0
151.661667 200.0
151.707672 224.0
151.740112 184.0
151.79361 176.0
151.811508 172.0
151.929611 188.0
152.002563 44.0
152.022202 156.0
152.044281 224.0
152.066757 152.0
152.161728 160.0
152.27507 96.0
152.392975 176.0
152.410172 88.0
152.42984 176.0
152.552719 40.0
152.749451 152.0
152.796188 92.0
152.925034 236.0
152.988159 188.0
153.022629 168.0
153.055283 1364.0
153.143295 60.0
153.234436 48.0
153.253021 180.0
153.28125 180.0
153.318222 116.0
153.483383 148.0
153.564758 200.0
153.606689 120.0
153.633835 168.0
153.68811 204.0
153.715256 136.0
153.789017 112.0
153.797852 212.0
153.848526 108.0
153.902847 100.0
153.964584 140.0
154.056992 320.0
154.078552 144.0
154.110062 92.0
154.177048 124.0
154.238831 148.0
154.268494 188.0
154.372345 60.0
154.535599 180.0
154.581177 172.0
154.607361 88.0
154.706375 156.0
154.732208 164.0
154.78064 92.0
154.800461 176.0
154.973846 136.0
155.003586 172.0
155.070267 472.0
155.152298 216.0
155.204361 128.0
155.246521 124.0
155.332016 144.0
155.482193 144.0
155.631149 144.0
155.668396 48.0
155.695709 148.0
155.862152 200.0
155.901901 216.0
155.983932 48.0
156.0327 136.0
156.075287 188.0
156.177872 140.0
156.200272 108.0
156.232605 148.0
156.257477 136.0
156.289825 72.0
156.421738 52.0
156.533768 152.0
156.56366 188.0
156.807434 132.0
156.827011 68.0
156.892563 216.0
156.943665 184.0
157.052185 304.0
157.08847 256.0
157.119507 152.0
157.314911 200.0
157.419022 84.0
157.491455 168.0
157.531418 40.0
157.556396 48.0
157.573898 92.0
157.62886 64.0
157.776337 92.0
157.793823 188.0
157.82634 108.0
157.891022 124.0
157.94487 156.0
157.963135 188.0
158.011414 116.0
158.031433 168.0
158.059906 14888.0
158.114014 140.0
158.186035 164.0
158.289246 184.0
158.34111 96.0
158.412064 116.0
158.441284 240.0
158.547272 144.0
158.604263 200.0
158.645035 48.0
158.662582 108.0
158.700195 208.0
158.752853 152.0
158.805115 172.0
158.830597 152.0
158.903351 128.0
159.026306 168.0
159.066391 1812.0
159.111801 72.0
159.146805 80.0
159.209595 136.0
159.254791 152.0
159.287445 64.0
159.315994 204.0
159.337067 192.0
159.360306 200.0
159.382919 280.0
159.430664 104.0
159.494949 88.0
159.528687 236.0
159.551315 156.0
159.594055 160.0
159.661957 108.0
159.713089 212.0
159.732376 76.0
159.811295 152.0
159.843079 156.0
159.860703 124.0
159.903473 176.0
159.923462 132.0
159.9319 124.0
159.942841 44.0
159.959717 164.0
160.007034 200.0
160.076172 23852.0
160.125031 104.0
160.25351 56.0
160.290878 48.0
160.359344 164.0
160.394165 76.0
160.478043 284.0
160.606445 116.0
160.644699 72.0
160.694733 40.0
160.808304 48.0
160.84111 72.0
160.968536 144.0
160.987549 72.0
161.081726 3376.0
161.126144 212.0
161.153824 160.0
161.18013 184.0
161.336227 176.0
161.361511 60.0
161.460129 56.0
161.485428 56.0
161.56131 68.0
161.611908 112.0
161.700485 168.0
161.718201 104.0
161.753632 124.0
161.796677 136.0
161.928345 104.0
161.946075 168.0
162.058594 332.0
162.090927 6648.0
162.132767 128.0
162.161438 32.0
162.237488 128.0
162.274536 124.0
162.305939 112.0
162.359192 132.0
162.392792 48.0
162.475876 100.0
162.511398 32.0
162.568787 104.0
162.617981 48.0
162.709366 64.0
162.727127 160.0
162.757599 144.0
162.800766 48.0
162.839218 208.0
162.909988 156.0
162.953171 104.0
162.988693 184.0
163.047195 256.0
163.065506 560.0
163.093506 464.0
163.131744 184.0
163.158859 56.0
163.22261 168.0
163.243973 180.0
163.377029 156.0
163.443909 144.0
163.667908 156.0
163.711197 48.0
163.762131 188.0
163.779953 96.0
163.853836 188.0
163.874222 56.0
163.963409 332.0
164.016922 180.0
164.046097 188.0
164.070496 548.0
164.175003 32.0
164.30397 164.0
164.328049 164.0
164.357147 80.0
164.408524 104.0
164.524567 120.0
164.590958 96.0
164.67012 76.0
164.713547 164.0
164.74675 144.0
164.772293 168.0
164.797852 160.0
164.859467 176.0
164.879623 128.0
164.905182 252.0
165.053452 148.0
165.076385 236.0
165.125061 92.0
165.242722 204.0
165.319489 188.0
165.352768 120.0
165.386032 160.0
165.406509 92.0
165.432114 140.0
165.466599 136.0
165.560135 40.0
165.667709 160.0
165.754822 212.0
165.806076 116.0
165.970139 184.0
166.084656 368.0
166.136856 116.0
166.316483 112.0
166.516754 172.0
166.703644 176.0
166.724854 120.0
166.819946 124.0
166.840515 152.0
166.935654 76.0
167.010239 124.0
167.068039 448.0
167.132797 156.0
167.231522 76.0
167.398849 168.0
167.473541 104.0
167.509613 132.0
167.648743 136.0
167.799561 148.0
167.837524 272.0
168.035522 172.0
168.079926 424.0
168.101852 324.0
168.161972 144.0
168.198105 68.0
168.264862 248.0
168.311691 252.0
168.362167 184.0
168.394333 180.0
168.44342 288.0
168.47699 132.0
168.60878 188.0
168.719925 76.0
168.771637 164.0
168.846634 144.0
168.888016 88.0
168.927567 152.0
168.996658 104.0
169.058868 100.0
169.087646 240.0
169.170731 156.0
169.227081 176.0
169.263275 228.0
169.340958 64.0
169.416321 176.0
169.660233 192.0
169.737473 176.0
169.776367 32.0
169.937195 132.0
170.008881 216.0
170.061661 1024.0
170.089401 320.0
170.113678 40.0
170.386353 180.0
170.407135 168.0
170.50589 224.0
170.612457 88.0
170.651459 256.0
170.836914 52.0
170.859528 192.0
170.968811 112.0
171.026062 220.0
171.066345 3100.0
171.202408 164.0
171.362 76.0
171.440536 144.0
171.480148 212.0
171.570496 88.0
171.604401 112.0
171.62265 64.0
171.643509 48.0
171.701172 160.0
171.747833 80.0
171.849564 168.0
171.962189 152.0
171.980057 192.0
172.03653 536.0
172.043091 324.0
172.076233 4920.0
172.154572 240.0
172.188919 64.0
172.268661 136.0
172.34697 96.0
172.382248 152.0
172.404938 200.0
172.447586 112.0
172.468491 104.0
172.544296 164.0
172.578293 288.0
172.596588 172.0
172.617508 184.0
172.648895 60.0
172.695969 160.0
172.722122 192.0
172.761368 108.0
172.784912 96.0
172.817612 104.0
172.868637 136.0
172.907898 120.0
172.939728 288.0
172.965057 120.0
172.989349 100.0
173.011444 140.0
173.03006 156.0
173.083908 60728.0
173.126144 296.0
173.146652 124.0
173.185425 104.0
173.224716 56.0
173.250366 112.0
173.308563 92.0
173.339996 68.0
173.366211 68.0
173.395035 88.0
173.416 108.0
173.44043 160.0
173.473663 116.0
173.51767 140.0
173.55188 72.0
173.591385 40.0
173.632751 208.0
173.684631 128.0
173.711685 252.0
173.732162 112.0
173.81987 184.0
173.846115 56.0
173.865921 68.0
173.921677 132.0
173.979645 96.0
174.001129 140.0
174.05513 11508.0
174.087524 7684.0
174.137527 128.0
174.185471 72.0
174.207458 128.0
174.295151 48.0
174.33194 64.0
174.36438 192.0
174.408157 156.0
174.442337 80.0
174.462677 152.0
174.51857 40.0
174.586639 68.0
174.624222 80.0
174.665268 252.0
174.721085 28.0
174.778976 76.0
174.805283 48.0
174.823715 88.0
174.905304 56.0
174.93425 248.0
175.013245 88.0
175.061111 4392.0
175.089752 604.0
175.185135 60.0
175.208145 80.0
175.237122 60.0
175.272034 48.0
175.297989 84.0
175.33725 44.0
175.374496 124.0
175.394531 120.0
175.426865 64.0
175.498276 160.0
175.527054 36.0
175.56662 208.0
175.606171 64.0
175.741913 176.0
175.770813 196.0
175.801407 76.0
176.002029 152.0
176.068192 800.0
176.103958 620.0
176.132172 156.0
176.191559 100.0
176.25296 196.0
176.271454 76.0
176.313736 84.0
176.340164 96.0
176.374527 52.0
176.40625 180.0
176.522369 140.0
176.557922 196.0
176.713028 128.0
176.773895 124.0
176.951233 72.0
177.078568 668.0
177.106079 244.0
177.192245 84.0
177.282333 88.0
177.385712 40.0
177.406082 204.0
177.698639 140.0
177.820709 176.0
177.979996 144.0
178.011856 164.0
178.086456 2552.0
178.123474 204.0
178.156189 152.0
178.16243 52.0
178.173141 188.0
178.192474 116.0
178.296371 160.0
178.309036 144.0
178.418381 172.0
178.474213 140.0
178.54335 40.0
178.665085 64.0
178.75618 160.0
178.780136 52.0
178.826324 168.0
178.86264 244.0
178.931854 80.0
179.031586 192.0
179.089035 492.0
179.168884 104.0
179.187531 128.0
179.208847 48.0
179.240814 48.0
179.278122 208.0
179.326096 160.0
179.363419 60.0
179.387405 212.0
179.42952 136.0
179.453186 192.0
179.542053 244.0
179.592728 92.0
179.67543 48.0
179.798172 80.0
179.854218 128.0
179.891647 172.0
179.94223 136.0
180.006393 84.0
180.073898 280.0
180.096481 192.0
180.145279 132.0
180.206726 132.0
180.371338 268.0
180.417862 48.0
180.465988 124.0
180.548889 68.0
180.663895 68.0
180.714737 236.0
180.736145 76.0
180.762894 156.0
180.952942 140.0
180.993103 80.0
181.049835 216.0
181.081482 168.0
181.247574 196.0
181.445908 136.0
181.504898 156.0
181.566574 212.0
181.665817 152.0
181.706055 136.0
181.73558 148.0
181.818756 212.0
181.8815 204.0
181.901962 268.0
181.936874 48.0
182.036209 112.0
182.058945 328.0
182.092606 188.0
182.120239 224.0
182.398911 212.0
182.581757 216.0
182.635544 164.0
182.665131 96.0
182.713547 124.0
182.920776 152.0
183.001541 116.0
183.065842 260.0
183.198135 160.0
183.329102 224.0
183.374908 212.0
183.626724 156.0
183.856049 248.0
183.901932 128.0
184.007202 88.0
184.073822 928.0
184.123322 60.0
184.197433 128.0
184.441238 240.0
184.625992 92.0
184.769348 200.0
184.807236 168.0
184.901947 72.0
184.9263 56.0
185.013779 140.0
185.053009 204.0
185.082565 700.0
185.105972 176.0
185.284729 216.0
185.378586 164.0
185.4897 144.0
185.69577 132.0
185.79071 64.0
185.834122 160.0
185.891113 68.0
185.912811 160.0
185.953522 96.0
185.98378 192.0
186.055496 604.0
186.091324 1724.0
186.157059 144.0
186.161972 128.0
186.216888 128.0
186.273926 92.0
186.325546 124.0
186.345139 224.0
186.436951 152.0
186.494019 64.0
186.517014 176.0
186.594147 140.0
186.757767 172.0
186.883667 72.0
186.909714 132.0
187.057755 360.0
187.097076 900.0
187.123734 240.0
187.169861 180.0
187.272202 268.0
187.326675 204.0
187.351196 156.0
187.51741 136.0
187.542297 60.0
187.68721 112.0
187.760056 184.0
187.86586 208.0
187.926453 112.0
187.964661 132.0
188.070938 17812.0
188.126556 140.0
188.167175 284.0
188.226715 60.0
188.261444 172.0
188.270599 160.0
188.323486 212.0
188.36499 152.0
188.398712 160.0
188.432678 128.0
188.641998 76.0
188.699402 196.0
188.767761 68.0
188.786911 68.0
188.846359 76.0
188.936508 168.0
188.959763 188.0
188.996017 144.0
189.031738 144.0
189.078156 35468.0
189.115967 240.0
189.207565 304.0
189.255692 76.0
189.280594 208.0
189.313171 92.0
189.378067 48.0
189.457504 32.0
189.482162 92.0
189.537308 96.0
189.568649 64.0
189.611526 324.0
189.71785 144.0
189.798172 228.0
189.82753 84.0
189.879623 120.0
189.91803 132.0
189.937225 144.0
189.961914 136.0
190.04184 124.0
190.084839 10008.0
190.171082 224.0
190.194138 84.0
190.213379 88.0
190.250061 48.0
190.287888 180.0
190.362244 84.0
190.420303 164.0
190.447769 100.0
190.472488 52.0
190.492935 56.0
190.551208 156.0
190.619339 116.0
190.673157 76.0
190.733536 112.0
190.814957 228.0
190.882004 120.0
190.920502 52.0
190.95076 92.0
190.987762 96.0
191.033279 60.0
191.091232 2100.0
191.201111 84.0
191.253326 140.0
191.355743 252.0
191.379074 124.0
191.41156 36.0
191.458099 104.0
191.514984 48.0
191.534271 100.0
191.559067 112.0
191.589355 32.0
191.614151 136.0
191.694061 108.0
191.727127 124.0
192.063507 400.0
192.101257 464.0
192.190414 164.0
192.344955 132.0
192.373184 140.0
192.419495 60.0
192.565353 244.0
192.598999 88.0
192.632141 220.0
192.664093 240.0
192.703964 188.0
192.75647 104.0
192.797928 176.0
192.823593 124.0
192.983124 144.0
193.012131 164.0
193.035172 112.0
193.052887 160.0
193.092178 440.0
193.138 140.0
193.320602 124.0
193.367645 36.0
193.467285 56.0
193.749771 148.0
193.857834 108.0
193.891083 200.0
193.960373 88.0
194.068497 120.0
194.089783 160.0
194.12468 216.0
194.307022 144.0
194.369293 136.0
194.442993 200.0
194.5457 100.0
194.592896 72.0
194.706741 152.0
194.745621 72.0
195.101318 196.0
195.279282 168.0
195.412796 40.0
195.454544 180.0
195.549164 232.0
195.925079 104.0
196.039322 100.0
196.07547 468.0
196.100464 196.0
196.164734 200.0
196.227844 176.0
196.259537 104.0
196.316376 176.0
196.327438 68.0
196.33667 200.0
196.412918 140.0
196.532883 224.0
196.837128 144.0
196.915329 256.0
196.954437 128.0
197.077194 172.0
197.096375 212.0
197.141617 240.0
197.161179 84.0
197.26181 52.0
197.325516 248.0
197.407196 68.0
197.432358 144.0
197.491104 128.0
197.616989 192.0
197.663223 144.0
197.784897 140.0
197.810089 68.0
198.028488 92.0
198.048096 176.0
198.09053 640.0
198.185379 132.0
198.364731 176.0
198.442673 120.0
198.510529 108.0
198.555405 52.0
198.575027 164.0
198.633942 156.0
198.695648 220.0
198.7686 48.0
199.048203 132.0
199.09874 1200.0
199.144791 148.0
199.20462 188.0
199.27121 168.0
199.302109 192.0
199.344269 180.0
199.383606 112.0
199.600067 216.0
199.684433 92.0
199.735062 72.0
199.858856 68.0
200.02771 152.0
200.066864 1348.0
200.097168 192.0
200.129272 188.0
200.200424 116.0
200.267059 184.0
200.298035 148.0
200.357193 108.0
200.43045 212.0
200.538651 152.0
200.65593 124.0
200.686951 172.0
200.757446 76.0
200.808212 36.0
200.83078 136.0
200.858978 116.0
200.940796 108.0
201.038483 200.0
201.075974 852.0
201.112091 324.0
201.141159 116.0
201.254089 36.0
201.451782 156.0
201.48851 48.0
201.542191 124.0
201.612839 68.0
201.728714 196.0
201.773956 108.0
201.810715 144.0
201.861603 128.0
201.892715 184.0
201.929474 120.0
202.025742 144.0
202.085205 2092.0
202.305817 312.0
202.351044 172.0
202.455887 140.0
202.506866 116.0
202.554291 236.0
202.601791 196.0
202.668335 284.0
202.834839 128.0
202.872406 124.0
202.908249 192.0
202.974472 124.0
203.022675 192.0
203.051041 224.0
203.093826 2396.0
203.157639 144.0
203.237488 140.0
203.263657 80.0
203.267807 136.0
203.30069 160.0
203.323395 208.0
203.341904 184.0
203.371643 112.0
203.411209 200.0
203.440277 68.0
203.513596 128.0
203.553345 96.0
203.584579 140.0
203.606293 68.0
203.647385 176.0
203.684647 188.0
203.725006 164.0
203.77066 108.0
203.788605 172.0
203.813171 196.0
203.832947 184.0
203.865829 344.0
203.901611 148.0
203.920853 144.0
203.946182 228.0
203.972824 312.0
203.993164 124.0
204.032379 412.0
204.103256 156776.0
204.17218 220.0
204.20636 80.0
204.237778 100.0
204.273315 88.0
204.290207 108.0
204.312225 60.0
204.346436 116.0
204.36882 160.0
204.403107 288.0
204.47113 76.0
204.499847 60.0
204.507629 36.0
204.515518 124.0
204.571732 756.0
204.60791 196.0
204.65477 164.0
204.744888 52.0
204.761978 68.0
204.781921 76.0
204.802429 156.0
204.82843 40.0
204.883789 112.0
204.9272 212.0
204.962433 244.0
205.001526 96.0
205.058533 344.0
205.105301 20044.0
205.209457 96.0
205.266388 72.0
205.288971 132.0
205.322754 216.0
205.342545 40.0
205.378326 32.0
205.400696 44.0
205.425705 56.0
205.43866 96.0
205.456924 184.0
205.503052 124.0
205.536301 116.0
205.587738 68.0
205.611374 148.0
205.660095 148.0
205.692825 60.0
205.742096 52.0
205.791412 68.0
205.814255 88.0
205.85498 88.0
205.917068 84.0
205.942032 108.0
205.980392 188.0
206.002762 60.0
206.04245 76.0
206.049805 68.0
206.060745 108.0
206.107346 1744.0
206.194199 76.0
206.224274 92.0
206.233734 48.0
206.243225 132.0
206.279129 112.0
206.314255 120.0
206.342041 112.0
206.389816 140.0
206.455002 108.0
206.46463 88.0
206.476135 228.0
206.519424 208.0
206.530319 192.0
206.543716 92.0
206.578308 156.0
206.615219 152.0
206.65506 144.0
206.711395 168.0
206.764267 256.0
206.785324 140.0
206.806259 92.0
206.874969 108.0
206.90712 120.0
206.998077 40.0
207.110428 128.0
207.162994 228.0
207.200012 104.0
207.227234 148.0
207.261887 124.0
207.318924 72.0
207.344711 48.0
207.373383 208.0
207.456497 96.0
207.479431 44.0
207.519577 100.0
207.619934 96.0
207.677292 96.0
207.734665 132.0
207.776596 76.0
207.846558 80.0
207.878128 36.0
207.929779 44.0
207.949875 100.0
207.978577 140.0
208.027374 84.0
208.097458 1600.0
208.129471 204.0
208.176682 36.0
208.196777 60.0
208.317413 132.0
208.386368 40.0
208.443832 48.0
208.525238 208.0
208.647903 64.0
208.875092 124.0
208.929749 160.0
208.995911 92.0
209.04483 32.0
209.096725 320.0
209.182983 76.0
209.266479 40.0
209.419098 96.0
209.658234 52.0
209.871552 44.0
210.033051 124.0
210.053238 172.0
210.113403 1756.0
210.223465 84.0
210.809692 128.0
210.933975 60.0
210.968658 56.0
211.055389 176.0
211.099625 668.0
211.150818 48.0
211.214462 128.0
211.550125 44.0
211.609726 112.0
211.909241 32.0
211.964294 140.0
212.070053 704.0
212.095978 320.0
212.132401 160.0
212.213577 80.0
212.709671 44.0
212.802567 64.0
212.822891 40.0
212.857742 168.0
212.898392 136.0
213.071243 236.0
213.103531 372.0
213.20343 36.0
213.756638 204.0
213.785065 96.0
213.840363 32.0
213.916031 164.0
214.085785 2312.0
214.259674 44.0
214.42868 68.0
214.476257 124.0
214.507385 72.0
214.72023 108.0
214.749405 128.0
214.965286 128.0
215.061432 136.0
215.093979 2152.0
215.155975 72.0
215.253876 68.0
215.481094 160.0
215.542404 120.0
215.578537 52.0
215.748062 92.0
215.891342 88.0
216.100616 3880.0
216.477692 88.0
216.502975 88.0
216.664078 76.0
216.73439 128.0
216.83696 164.0
217.059769 104.0
217.108765 2116.0
217.177597 112.0
217.219894 100.0
217.474304 172.0
217.549744 196.0
217.658371 108.0
217.849274 52.0
217.963867 156.0
218.00206 60.0
218.083099 184.0
218.11615 3140.0
218.353088 140.0
218.419556 96.0
218.640228 136.0
218.681427 132.0
218.810959 192.0
218.837448 68.0
218.934616 180.0
219.11673 600.0
219.470932 48.0
219.518112 148.0
219.695084 180.0
219.8013 68.0
219.966583 172.0
220.081436 124.0
220.123352 40.0
220.235275 68.0
220.31041 92.0
220.347534 196.0
220.430267 156.0
220.450958 68.0
220.634216 100.0
220.690384 48.0
220.859863 100.0
221.006866 44.0
221.07428 72.0
221.113403 144.0
221.154846 80.0
221.326553 116.0
221.359116 80.0
221.735352 184.0
221.8302 120.0
221.945831 108.0
221.992477 220.0
222.052597 176.0
222.112564 17584.0
222.1931 76.0
222.218704 52.0
222.2733 60.0
222.298828 76.0
222.331467 80.0
222.352249 68.0
222.396759 48.0
222.44722 64.0
222.500656 48.0
222.539261 36.0
222.619064 96.0
222.655075 48.0
222.949188 64.0
222.972961 80.0
223.062134 356.0
223.11441 2344.0
223.219711 32.0
223.240524 52.0
223.338669 48.0
223.389236 44.0
223.561813 52.0
223.60347 88.0
223.886307 80.0
223.930969 48.0
223.959076 92.0
224.070984 208.0
224.106262 572.0
224.249771 52.0
224.336212 52.0
224.476349 48.0
224.541962 72.0
224.67131 164.0
224.795532 44.0
224.858215 136.0
225.077103 456.0
225.113785 292.0
225.240387 88.0
225.318069 60.0
225.721573 116.0
225.817276 96.0
226.085876 916.0
226.445801 172.0
226.961243 80.0
226.997223 128.0
227.060196 64.0
227.094681 1452.0
227.492279 80.0
227.540314 40.0
227.67543 88.0
227.954819 124.0
228.100494 1076.0
228.249405 120.0
228.803024 56.0
229.103088 1444.0
229.137833 396.0
229.51709 88.0
229.749329 132.0
229.925873 168.0
229.971451 92.0
230.011871 108.0
230.117111 5260.0
230.211136 52.0
230.244553 128.0
230.377258 60.0
230.482849 76.0
230.803406 108.0
231.08168 120.0
231.118317 748.0
231.363144 72.0
231.572083 60.0
231.838684 116.0
231.917496 64.0
232.097778 280.0
232.126724 472.0
232.314728 56.0
232.463394 48.0
232.67131 56.0
232.769989 76.0
232.867172 144.0
233.072647 132.0
233.133102 160.0
233.246979 148.0
233.432434 124.0
233.812714 64.0
234.095184 168.0
234.178055 72.0
234.790665 104.0
234.921814 40.0
235.101791 152.0
235.245285 192.0
235.297195 168.0
235.642303 64.0
235.935715 80.0
236.072922 164.0
236.107956 764.0
236.189514 160.0
236.627136 156.0
236.666931 136.0
236.918076 132.0
237.110153 480.0
237.218399 176.0
237.518921 76.0
237.804276 128.0
238.088821 176.0
238.122528 376.0
238.332474 68.0
238.916641 52.0
239.101501 328.0
239.138199 100.0
239.261322 72.0
239.489197 152.0
239.707932 140.0
240.102951 984.0
240.132492 100.0
240.222824 60.0
240.733704 92.0
241.094925 292.0
241.12883 276.0
241.458344 64.0
241.514008 64.0
242.021545 160.0
242.11673 2324.0
242.759048 152.0
242.80246 96.0
243.059937 136.0
243.117935 604.0
243.261673 120.0
243.342392 40.0
243.503876 192.0
243.715103 220.0
243.814545 52.0
244.121124 816.0
244.193848 48.0
244.252945 92.0
244.669937 84.0
245.087296 144.0
245.125702 416.0
245.361572 36.0
246.013596 128.0
246.114029 188.0
246.322754 40.0
246.438339 252.0
247.082397 160.0
247.55191 184.0
247.774292 152.0
248.037537 80.0
248.106735 648.0
249.114105 544.0
249.406097 40.0
249.582153 44.0
249.751984 68.0
250.088913 188.0
250.123352 528.0
250.170502 60.0
250.359421 56.0
250.652374 92.0
250.882462 92.0
251.076614 320.0
251.095413 112.0
251.132172 668.0
251.3461 228.0
252.066055 188.0
252.101562 888.0
252.133133 508.0
252.451706 136.0
253.1035 296.0
253.277771 112.0
254.081009 208.0
254.116776 888.0
254.765518 116.0
254.882065 100.0
255.082077 364.0
255.119827 320.0
255.491272 96.0
256.130646 476.0
256.378723 52.0
256.923737 164.0
257.064362 140.0
257.099457 116.0
257.13205 316.0
257.738129 100.0
258.009796 48.0
258.106689 144.0
258.14975 252.0
259.081909 48.0
259.14447 1668.0
259.360687 224.0
259.492126 100.0
259.870575 44.0
260.008575 148.0
260.104858 152.0
260.148285 524.0
260.477356 84.0
260.578552 72.0
260.695831 40.0
260.898315 96.0
260.949768 116.0
261.104126 164.0
261.148285 168.0
261.577087 80.0
261.828003 112.0
262.123474 800.0
262.174408 152.0
263.086609 92.0
263.11795 136.0
263.305328 44.0
264.066772 160.0
264.104492 448.0
264.317169 44.0
264.407776 76.0
264.606873 120.0
265.06842 156.0
265.104156 512.0
265.141571 388.0
265.408783 52.0
266.080414 220.0
266.119781 816.0
266.178223 152.0
266.418152 88.0
266.577362 120.0
266.986969 160.0
267.055267 220.0
267.11908 932.0
267.696411 132.0
268.098419 340.0
268.136414 1340.0
268.491577 48.0
269.134216 752.0
269.323853 44.0
270.075195 144.0
270.098511 152.0
270.130219 376.0
270.145264 180.0
270.235931 120.0
270.615601 96.0
271.080322 148.0
271.104279 168.0
271.134888 128.0
271.733246 92.0
272.005615 100.0
272.118591 144.0
272.151215 148.0
272.255157 96.0
272.540924 48.0
273.113647 156.0
273.191925 52.0
273.530853 36.0
274.080841 108.0
274.120392 156.0
275.083466 132.0
275.127808 132.0
275.301392 144.0
276.058136 140.0
276.096924 252.0
277.070984 296.0
277.097504 96.0
277.130615 156.0
277.23999 104.0
277.850098 116.0
277.929718 68.0
278.084412 220.0
278.122772 428.0
278.932678 48.0
279.101044 304.0
279.111084 140.0
279.135712 332.0
279.724365 56.0
280.129608 608.0
280.527191 104.0
280.727234 32.0
281.057495 60.0
281.128204 600.0
282.072144 64.0
282.11087 424.0
282.149872 1004.0
282.397095 80.0
282.658051 124.0
283.079834 176.0
283.111572 132.0
283.149963 624.0
283.227203 72.0
283.398041 120.0
284.088684 140.0
284.129364 468.0
284.756653 64.0
285.09256 128.0
285.130432 176.0
285.159698 400.0
285.200165 80.0
285.664215 112.0
285.832428 92.0
286.06131 160.0
286.12088 204.0
286.126831 112.0
286.141052 164.0
286.167603 320.0
286.233002 136.0
286.522675 136.0
287.105804 180.0
287.129395 196.0
287.173248 100.0
287.385773 64.0
287.851593 48.0
288.118164 272.0
289.126068 76.0
289.454437 68.0
289.56958 160.0
289.718597 76.0
290.119537 296.0
290.525452 88.0
291.074005 136.0
291.126709 316.0
291.153412 148.0
291.965637 68.0
292.096069 248.0
292.134705 344.0
292.179932 84.0
292.363678 180.0
293.102966 188.0
293.139679 400.0
293.900513 184.0
294.064331 264.0
294.106079 400.0
294.147247 728.0
295.068634 116.0
295.109222 160.0
295.146332 780.0
296.094177 124.0
296.127167 164.0
296.137085 316.0
296.160828 312.0
296.225342 76.0
296.4823 44.0
296.715393 64.0
296.763397 56.0
297.106354 136.0
297.139832 160.0
297.162872 140.0
297.408356 72.0
297.68988 40.0
297.731079 88.0
298.108643 220.0
298.115753 228.0
298.167389 144.0
298.267059 80.0
299.10791 156.0
299.560913 172.0
300.130981 428.0
300.857574 160.0
301.002563 64.0
301.131683 176.0
302.070526 108.0
302.471924 44.0
303.125366 164.0
303.292877 48.0
303.417664 124.0
304.083679 144.0
304.114868 160.0
304.246826 112.0
304.743469 108.0
305.17099 248.0
305.93454 76.0
306.112915 504.0
306.141266 152.0
306.228882 104.0
307.105652 168.0
307.141327 152.0
307.826141 100.0
308.095093 240.0
308.12738 308.0
309.084534 176.0
309.147675 128.0
309.522095 64.0
309.602631 40.0
310.091705 108.0
310.13678 132.0
310.15094 144.0
310.191254 160.0
310.461243 72.0
311.005035 152.0
311.11438 252.0
311.179352 828.0
311.223206 224.0
311.971039 36.0
312.124481 912.0
312.178162 124.0
312.45636 152.0
313.058258 144.0
313.124756 308.0
313.152374 192.0
313.176758 524.0
314.112091 140.0
314.14032 176.0
314.179108 148.0
315.747437 108.0
316.044586 80.0
316.147217 112.0
316.812866 180.0
317.046722 92.0
317.128235 124.0
317.550171 32.0
318.110107 164.0
318.143341 196.0
318.689697 100.0
319.118774 100.0
319.146973 180.0
319.318909 116.0
320.084015 96.0
320.11084 264.0
320.123901 140.0
320.429535 120.0
321.135223 144.0
321.166443 116.0
322.10968 268.0
322.141357 268.0
322.334869 112.0
323.089294 164.0
323.137482 200.0
323.300385 52.0
323.493683 100.0
324.119934 176.0
324.161011 472.0
324.812378 148.0
325.119751 108.0
325.157776 260.0
325.275269 52.0
325.668457 40.0
325.957642 32.0
325.982819 52.0
326.029541 100.0
326.094208 152.0
326.135071 264.0
326.186279 176.0
326.647949 100.0
326.838623 48.0
327.101349 160.0
327.140717 220.0
327.731598 48.0
327.767639 84.0
328.116913 128.0
328.61496 144.0
329.83197 208.0
330.153778 176.0
332.136963 192.0
333.132355 108.0
334.078339 152.0
334.103333 124.0
334.11795 108.0
334.151093 208.0
334.606049 52.0
334.715271 112.0
334.973846 96.0
335.126068 164.0
335.994598 80.0
336.132843 164.0
336.172546 156.0
337.120575 204.0
337.154175 728.0
337.183167 444.0
338.147034 284.0
338.886597 68.0
339.137695 176.0
340.122467 84.0
340.166504 132.0
341.128967 140.0
341.158356 84.0
341.504028 156.0
341.765228 88.0
341.971283 52.0
343.341858 124.0
343.666473 72.0
343.806671 128.0
343.910034 92.0
344.0466 108.0
344.146545 256.0
344.197998 96.0
344.534088 68.0
345.802429 36.0
345.957886 64.0
346.046722 44.0
346.143005 148.0
347.01004 112.0
347.138641 248.0
347.280762 44.0
348.121246 188.0
348.509521 36.0
349.12735 136.0
350.126312 292.0
350.139771 212.0
350.966156 40.0
351.138855 180.0
351.152252 220.0
351.719757 160.0
352.104309 120.0
352.159058 644.0
352.380737 88.0
352.799316 60.0
353.079742 116.0
353.177582 552.0
354.137573 100.0
354.185089 244.0
354.225098 68.0
354.551056 144.0
355.113434 148.0
355.199707 132.0
355.259735 60.0
356.08551 72.0
356.163605 152.0
356.17099 116.0
356.213226 180.0
356.664124 64.0
358.595032 72.0
358.824951 56.0
359.277527 48.0
360.436646 220.0
360.727661 144.0
361.313812 128.0
361.684662 92.0
361.86261 124.0
362.120117 140.0
363.169983 384.0
363.568359 92.0
363.62149 92.0
364.158478 168.0
365.146362 144.0
365.548248 200.0
366.166351 404.0
367.163757 240.0
368.123291 176.0
368.16449 152.0
368.495697 104.0
369.130219 232.0
369.183868 840.0
369.784393 56.0
370.1474 112.0
370.189453 144.0
371.877075 52.0
372.168823 84.0
372.967896 80.0
373.479309 68.0
376.141907 60.0
378.12088 100.0
378.173126 224.0
378.941803 72.0
380.17099 128.0
380.528107 136.0
381.182251 1432.0
381.378845 44.0
382.185699 400.0
382.318756 144.0
383.020874 208.0
383.16687 180.0
384.185822 908.0
384.295685 36.0
385.192169 312.0
386.182526 168.0
387.913239 40.0
389.753906 36.0
392.446198 80.0
393.149963 124.0
393.906403 108.0
394.720551 136.0
395.072571 100.0
395.15683 200.0
395.194977 172.0
396.12558 176.0
396.185425 844.0
397.049103 64.0
397.176697 488.0
398.084869 176.0
398.18158 140.0
398.692688 48.0
404.780273 48.0
407.712738 84.0
410.61142 56.0
411.197113 128.0
411.35788 116.0
412.192017 112.0
412.707245 196.0
412.881134 168.0
412.927246 120.0
413.033142 172.0
413.206207 3864.0
413.783478 52.0
413.977844 148.0
414.087189 60.0
414.211456 1300.0
414.455841 36.0
414.52066 60.0
414.605774 96.0
414.654388 100.0
415.073975 64.0
415.22406 228.0
416.204041 268.0
417.760651 76.0
418.346649 100.0
418.407715 80.0
418.721252 112.0
418.839386 40.0
420.062256 104.0
421.184814 56.0
421.311432 116.0
423.205048 72.0
424.016144 104.0
424.594208 44.0
425.098816 84.0
427.667419 56.0
432.306305 64.0
436.022156 92.0
437.894348 96.0
439.607819 88.0
447.256622 60.0
447.505005 108.0
448.659393 84.0
455.213409 108.0
462.24707 104.0
463.565979 68.0
465.92157 60.0
466.089142 124.0
485.003143 56.0
488.634827 76.0
490.709229 124.0
491.375214 88.0
492.50531 80.0
494.964203 60.0
496.55957 44.0
502.020874 40.0
502.181427 84.0
502.997955 132.0
506.149841 56.0
512.568787 84.0
515.099792 72.0
521.725098 96.0
528.983032 68.0
529.378052 52.0
539.124878 104.0
542.420288 144.0
545.628052 52.0
551.42218 88.0
559.09021 92.0
562.05896 84.0
567.479492 40.0
569.097412 60.0
570.123413 116.0
571.849854 44.0
576.021973 64.0
577.350708 104.0
580.842285 120.0
586.005432 108.0
589.875916 44.0
591.239868 48.0
591.513184 144.0
593.453552 40.0
594.710022 64.0
596.818359 60.0
597.460388 56.0
597.523621 40.0
603.821045 144.0
611.676514 148.0
616.943604 72.0
617.38501 64.0
622.941223 76.0
627.669373 60.0
628.731934 88.0
629.665466 32.0
633.101257 84.0
636.94812 72.0
638.541443 132.0
651.26825 104.0
656.801086 72.0
663.238647 80.0
663.35144 48.0
669.563416 112.0
683.358765 64.0
685.49884 64.0
686.81781 84.0
692.54126 28.0
704.672119 84.0
710.729248 32.0
721.632263 188.0
725.693237 64.0
732.1604 56.0
750.716248 52.0
763.305664 88.0
780.202515 32.0
797.475403 48.0
797.93634 92.0
812.252136 80.0
828.567566 48.0
829.719482 184.0
837.603821 180.0
844.056091 100.0
852.170837 164.0
863.590759 92.0
864.760925 40.0
867.982971 144.0
869.613831 52.0
870.782227 104.0
876.15271 96.0
877.119141 116.0
879.927124 132.0
893.350342 60.0
894.344055 64.0
920.362732 184.0
926.004883 76.0
927.374146 64.0
927.907593 144.0
936.804688 132.0
938.059998 48.0
944.36145 136.0
946.723816 88.0
947.636475 108.0
948.059265 156.0
951.905579 100.0
958.179382 152.0
961.243774 52.0
967.071533 64.0
973.022461 124.0
999.996033 144.0
1001.475647 144.0
1002.294617 28.0
1003.113892 180.0
1010.698914 72.0
1018.636353 176.0
1024.482422 196.0
1025.64856 220.0
1027.402222 100.0
1037.192383 168.0
1037.801392 284.0
1040.566772 192.0
1043.110718 88.0
1047.177246 168.0
1053.201416 180.0
1057.061035 164.0
1057.268066 128.0
1058.731201 88.0
1061.063843 232.0
1061.705811 132.0
1061.96521 188.0
1062.704712 200.0
1069.124634 132.0
1069.755981 116.0
1070.244263 180.0
1072.5896 112.0
1072.700439 164.0
1080.295044 188.0
1086.597168 180.0
1091.510132 164.0
1097.442749 116.0
1101.765625 44.0
1107.136597 180.0
1108.779541 168.0
1108.991577 132.0
1113.005127 200.0
1114.001343 220.0
1114.127563 224.0
1126.044189 152.0
1126.638672 208.0
1128.309448 144.0
1130.008179 172.0
1130.596924 84.0
1131.179321 116.0
1137.131348 164.0
1138.017456 148.0
1143.522949 224.0
1143.758545 156.0
1145.913452 164.0
1149.264404 172.0
1150.580444 172.0
1151.951416 160.0
1152.397217 136.0
1153.099976 68.0
1153.546143 160.0
1154.72937 144.0
1155.145142 156.0
1155.703491 52.0
1157.754517 184.0
1159.008545 204.0
1159.577026 100.0
1160.661621 176.0
1161.848511 96.0
1163.165039 144.0
1168.405396 132.0
1168.975952 128.0
1169.724609 220.0
1171.004639 156.0
1173.962402 120.0
1176.992188 184.0
1178.050781 196.0
1186.598389 160.0
1188.168945 136.0
1191.98645 132.0
1192.543091 176.0
1192.742432 160.0
1195.624146 104.0
1197.434814 108.0
1198.068604 156.0
1200.274048 56.0
1200.391235 88.0
1203.503296 108.0
1203.972778 140.0
1204.547363 184.0
1206.709106 148.0
1207.255371 84.0
1210.286255 196.0
1214.458008 80.0
1214.915894 100.0
1215.130981 164.0
1224.98877 216.0
1226.758789 132.0
1229.068848 160.0
1229.925659 52.0
1231.042725 172.0
1231.266235 184.0
1241.567749 128.0
1245.357666 172.0
1245.575439 144.0
1247.402466 152.0
1249.36438 148.0
1250.792847 136.0
1251.694092 140.0
1255.139648 196.0
1265.894531 148.0
1266.453979 136.0
1267.034912 224.0
1267.679688 164.0
1268.218262 112.0
1268.820801 180.0
1270.480347 192.0
1274.974854 144.0
1280.552612 204.0
1281.400269 164.0
1281.564087 148.0
1282.119995 200.0
1285.557251 164.0
1286.313721 48.0
1286.442261 48.0
1286.670654 72.0
1287.841797 72.0
1290.564575 100.0
1291.022217 64.0
1291.544312 280.0
1293.827026 152.0
1294.578735 156.0
1296.247803 216.0
1296.813965 132.0
1297.624023 192.0
1299.639404 196.0
1302.91333 148.0
1303.538452 148.0
1303.697144 144.0
1303.83313 104.0
1308.472534 172.0
1314.159058 180.0
1319.575928 52.0
1321.637329 44.0
1321.948486 76.0
1322.701172 164.0
1322.976196 136.0
1328.984375 140.0
1329.151245 188.0
1331.278076 156.0
1332.316772 156.0
1332.825317 96.0
1333.203125 224.0
1337.53064 188.0
1338.542603 100.0
1340.123169 132.0
1341.434937 184.0
1341.857788 168.0
1343.112061 124.0
1343.724854 96.0
1345.804932 72.0
1347.7771 220.0
1348.529785 168.0
1350.964722 172.0
1351.937866 64.0
1352.604004 140.0
1352.999146 176.0
1353.262695 48.0
1355.482056 160.0
1356.47876 44.0
1357.505249 96.0
1357.629883 148.0
1358.312012 144.0
1360.946655 96.0
1362.555054 120.0
1364.708496 136.0
1365.193848 164.0
1366.024902 172.0
1366.12793 128.0
1368.22522 152.0
1370.906372 120.0
1371.178955 176.0
1371.798096 200.0
1373.081055 120.0
1374.089233 220.0
1374.526978 196.0
1375.080444 196.0
1375.242798 184.0
1375.30188 224.0
1376.128662 148.0
1376.453613 216.0
1376.889282 104.0
1377.251099 160.0
1377.421021 84.0
1377.53186 180.0
1380.088867 40.0
1382.359741 144.0
1384.195557 172.0
1384.67688 156.0
1385.684326 172.0
1386.321533 128.0
1386.884766 184.0
1387.359253 168.0
1387.440796 196.0
1387.5 72.0
1387.863403 188.0
1388.256348 64.0
1390.652588 152.0
1391.298462 140.0
1392.761353 148.0
1393.058472 140.0
1393.444702 72.0
1393.689941 132.0
1393.74939 200.0
1394.128296 112.0
1394.849243 152.0
1395.161499 168.0
1396.455322 160.0
1397.556274 172.0
1398.449219 116.0
1400.809692 176.0
1401.107666 40.0
1401.182129 148.0
1401.711182 192.0
1402.724731 124.0
1403.328613 188.0
1405.655762 172.0
1406.461792 128.0
1406.775269 196.0
1407.339355 192.0
1408.05957 200.0
1410.734497 184.0
1411.698975 164.0
1412.222534 80.0
1412.424438 140.0
1413.898315 168.0
1414.714233 160.0
1414.789062 200.0
1415.013672 144.0
1416.511475 124.0
1418.302246 188.0
1418.834473 76.0
1419.351807 68.0
1420.596802 140.0
1421.692261 180.0
1421.812378 172.0
1422.630493 72.0
1423.561523 148.0
1423.621582 176.0
1423.727417 212.0
1423.861816 216.0
1423.99707 172.0
1424.139771 152.0
1424.275024 156.0
1424.395142 144.0
1424.838379 124.0
1425.55249 164.0
1425.709961 152.0
1426.033081 192.0
1426.386353 144.0
1427.010376 164.0
1427.356201 140.0
1427.799927 148.0
1428.40918 172.0
1430.124756 116.0
1430.749512 140.0
1432.481567 152.0
1432.699951 164.0
1433.370483 224.0
1434.297485 144.0
1435.081543 148.0
1435.722534 192.0
1436.159912 176.0
1437.321655 96.0
1437.404663 172.0
1437.495239 72.0
1437.548096 176.0
1437.797119 56.0
1438.325439 180.0
1438.612305 140.0
1438.876465 160.0
1439.359741 208.0
1439.926147 144.0
1442.56311 164.0
1443.054443 176.0
1444.544312 240.0
1444.748535 132.0
1444.824219 196.0
1445.036011 68.0
1445.701904 100.0
1446.32251 156.0
1446.754028 156.0
1450.443115 196.0
1450.738647 196.0
1452.687622 200.0
1453.288574 132.0
1454.189941 144.0
1456.695679 140.0
1457.022339 156.0
1457.394531 160.0
1457.865723 36.0
1459.1427 164.0
1459.817261 188.0
1459.971436 72.0
1461.287354 180.0
1461.416748 36.0
1462.383179 144.0
1462.512573 264.0
1463.334717 132.0
1463.646851 76.0
1464.286499 192.0
1464.461792 144.0
1465.497803 120.0
1466.389282 84.0
1468.691895 188.0
1469.447144 136.0
1469.714233 216.0
1470.042236 188.0
1470.496948 176.0
1471.439087 120.0
1471.790283 104.0
1474.517456 176.0
1474.777344 248.0
1475.916382 104.0
1476.291016 104.0
1476.436401 256.0
1476.772827 92.0
1477.140015 196.0
1477.392456 180.0
1477.537842 52.0
1478.042725 160.0
1478.410034 80.0
1479.098877 148.0
1479.558228 176.0
1479.749634 132.0
1480.553589 128.0
1481.304199 164.0
1481.679565 152.0
1481.894043 192.0
1482.231201 88.0
1482.484131 140.0
1483.886841 144.0
1484.201172 108.0
1485.121338 188.0
1485.520264 52.0
1485.673706 168.0
1486.786255 128.0
1488.444336 124.0
1488.505737 184.0
1489.127808 92.0
1489.266113 144.0
1489.834473 136.0
1490.187866 72.0
1490.787231 52.0
1491.086914 112.0
1492.678223 128.0
1493.255005 196.0
1493.793457 152.0
1494.655151 144.0
1494.878296 80.0
1495.824951 56.0
1496.194458 204.0
1496.471558 108.0
1496.856567 140.0
1498.474121 188.0
1498.535767 164.0
1499.086426 192.0
1499.1521 188.0
1503.246948 120.0
1503.432129 156.0
