>compound Rifaximin (Xifaxan)
>formula C43H51N3O11
>ionization [M+H]+
>parentmass 786.3596359040905
#inchi InChI=1S/C43H51N3O11/c1-19-14-16-46-28(18-19)44-32-29-30-37(50)25(7)40-31(29)41(52)43(9,57-40)55-17-15-27(54-10)22(4)39(56-26(8)47)24(6)36(49)23(5)35(48)20(2)12-11-13-21(3)42(53)45-33(34(32)46)38(30)51/h11-18,20,22-24,27,35-36,39,48-51H,1-10H3,(H,45,53)/b12-11+,17-15+,21-13-/t20-,22-,23+,24-,27+,35+,36-,39-,43-/m1/s1
#inchikey NZCRJKRKKOLAOJ
#Ion_Source LC-ESI
#Instrument qTof
#Compound_Source Commercial
#PI Dorrestein
#Data_Collector Garg_Neha
#Scan -1
#Precursor_MZ 786.36
#ExactMass 785.352
#Charge 1
#CAS_Number 80621-81-4
#Pubmed_ID N/A
#Smiles [C@@H]1([C@H]([C@@H]([C@@H]([C@H](/C=C/O[C@@]2(OC3C(=C(C4C(=C(NC(/C(=C\C=C\[C@H]([C@@H]([C@@H]1C)O)C)C)=O)C5=C(C=4C=3C2=O)N=C6N5C=CC(=C6)C)O)O)C)C)OC)C)OC(C)=O)C)O
#INCHI_AUX N/A
#Library_Class 1
#SpectrumID CCMSLIB00000078289
#IonMode Positive
#UpdateWorkflowName UPDATE-SINGLE-ANNOTATED-GOLD
#LibraryQualityString Gold
#TaskID 77f51c88eb8b467eb4a01dd2d0cb90d2
##Scan# 1616
#SpectrumFile Plate4_61_88_GH5_01_16506.mzXML
#LibraryName FDALibrary_2_04302014.mgf
#MQScore -1
#Organism FDALibrary_2_04302014
#TIC_Query 0
#RT_Query -1
#MZErrorPPM -1
#SharedPeaks 0
#MassDiff 0
#LibMZ -1
#SpecMZ 786.36
#SpecCharge 0
#internalFilename spec-00000.mgf

>collision 10
44.986149 200.0
45.24416 200.0
45.417023 184.0
45.59156 160.0
45.902523 152.0
46.295765 184.0
46.662125 144.0
46.68932 156.0
46.973682 180.0
47.023106 160.0
47.125523 184.0
47.406029 188.0
47.871719 212.0
48.107491 192.0
48.270523 164.0
48.755714 148.0
49.010368 184.0
49.061935 148.0
49.486652 176.0
49.828869 160.0
49.963837 224.0
50.546551 144.0
50.676819 144.0
51.000374 144.0
51.24514 172.0
51.54192 192.0
51.666309 156.0
52.017403 212.0
52.194115 232.0
52.317848 176.0
52.450375 160.0
52.659592 164.0
52.74773 148.0
53.196789 184.0
53.257774 240.0
53.378399 184.0
53.817661 196.0
53.865181 212.0
53.995266 156.0
54.838001 196.0
55.119873 156.0
55.398022 152.0
55.859688 204.0
55.917717 156.0
55.977264 152.0
56.50415 232.0
56.809765 180.0
56.860783 156.0
57.326984 144.0
58.735481 168.0
58.856049 156.0
58.973679 172.0
59.229202 160.0
59.393211 156.0
59.637348 140.0
59.680389 168.0
59.695766 172.0
59.844803 168.0
59.915871 244.0
60.086998 160.0
60.293911 180.0
60.411423 172.0
60.462482 140.0
60.898144 252.0
60.919727 244.0
60.95356 232.0
61.027122 180.0
61.162468 208.0
61.496021 184.0
61.635761 200.0
61.713161 180.0
61.817963 168.0
61.853958 156.0
61.988651 240.0
62.056049 208.0
62.145451 160.0
62.175266 176.0
62.357445 156.0
62.747829 156.0
63.467228 252.0
63.964489 240.0
64.026581 180.0
64.193916 172.0
64.24176 224.0
64.454102 152.0
64.535622 164.0
65.006546 204.0
65.083595 200.0
65.260338 140.0
65.37133 152.0
66.348526 188.0
66.49559 252.0
66.824379 164.0
66.871574 208.0
66.930176 196.0
67.158333 188.0
67.301941 168.0
67.466957 176.0
67.507828 172.0
67.522552 160.0
67.797585 200.0
67.809059 152.0
68.4189 136.0
68.434929 148.0
68.848953 204.0
69.333549 196.0
69.381615 204.0
69.418091 160.0
70.239693 224.0
70.45504 156.0
70.602127 172.0
70.834778 148.0
71.20546 152.0
71.402092 148.0
71.578789 180.0
71.713562 204.0
72.350388 220.0
72.604553 176.0
73.022339 172.0
73.206139 172.0
73.613701 212.0
73.955627 152.0
74.354965 172.0
74.629814 164.0
75.194839 172.0
76.131447 176.0
76.29303 208.0
76.491341 192.0
76.633171 188.0
76.750931 156.0
76.763138 220.0
76.927139 164.0
77.245178 144.0
77.323914 196.0
77.409691 220.0
77.581398 160.0
77.74276 232.0
77.886726 144.0
78.465691 152.0
78.518593 172.0
78.7286 172.0
78.770988 172.0
78.965424 168.0
79.200821 180.0
79.445442 148.0
79.475609 192.0
79.92337 164.0
80.003456 200.0
80.190491 204.0
80.450912 164.0
80.987358 228.0
81.353165 188.0
81.739586 184.0
82.107079 152.0
82.365173 176.0
82.475395 192.0
83.267166 148.0
83.319847 220.0
83.428886 152.0
83.470703 168.0
83.698158 168.0
83.763718 176.0
84.464661 148.0
84.532356 204.0
84.661621 208.0
84.796066 160.0
85.460823 184.0
86.955811 232.0
87.119209 140.0
88.144951 152.0
88.418839 180.0
88.801033 164.0
89.426689 144.0
90.290787 188.0
90.304024 140.0
90.721497 160.0
90.756622 168.0
90.959618 168.0
91.051483 200.0
91.07354 168.0
91.269287 180.0
91.566147 196.0
91.646965 240.0
91.983711 172.0
92.509399 176.0
93.003944 152.0
93.070068 156.0
93.205597 176.0
94.074203 324.0
94.402664 144.0
95.00309 228.0
95.020546 212.0
95.047897 1012.0
95.08548 2464.0
95.193298 204.0
95.377861 184.0
95.494522 156.0
96.069145 148.0
97.027199 168.0
97.064133 1016.0
97.168617 164.0
99.081627 300.0
99.221703 164.0
99.706032 152.0
100.350983 168.0
100.484962 204.0
101.28624 140.0
101.348343 160.0
101.566864 140.0
101.932251 148.0
102.046822 200.0
102.087036 172.0
102.533958 192.0
102.685165 176.0
103.054581 144.0
103.214256 168.0
103.979996 172.0
104.280586 164.0
104.34333 184.0
104.386299 176.0
104.718018 184.0
105.069305 920.0
105.272736 180.0
105.702011 148.0
106.068604 168.0
106.804977 168.0
107.050674 192.0
107.085197 2988.0
107.112457 148.0
107.637405 120.0
108.056595 164.0
108.088638 336.0
108.380951 156.0
108.745934 160.0
108.839348 140.0
108.9702 164.0
109.038773 228.0
109.063675 2008.0
109.10099 804.0
109.321602 156.0
109.613136 144.0
109.700676 148.0
109.79055 188.0
109.996887 208.0
110.028198 152.0
110.068291 252.0
110.099197 196.0
110.149323 144.0
111.043823 284.0
111.07988 1348.0
111.124878 184.0
111.315887 148.0
112.083069 164.0
112.140564 140.0
113.021179 168.0
113.059662 480.0
113.103714 208.0
113.482918 148.0
113.843643 212.0
113.941345 244.0
114.230461 152.0
114.59877 236.0
114.647774 188.0
114.822594 152.0
115.052032 152.0
115.254112 224.0
115.356384 196.0
115.375626 168.0
116.573776 212.0
116.625351 180.0
117.071358 172.0
117.607529 256.0
118.046097 220.0
118.072052 180.0
118.602875 160.0
118.710899 144.0
118.90966 200.0
118.990807 156.0
119.084251 1732.0
119.564659 228.0
120.054825 232.0
120.094765 252.0
120.849937 192.0
121.063507 596.0
121.100655 1088.0
121.417282 164.0
122.065529 380.0
122.106216 300.0
122.957298 144.0
123.079521 5424.0
123.117081 444.0
123.290779 184.0
123.370354 192.0
123.883759 160.0
123.923637 224.0
124.083031 496.0
124.660309 176.0
125.059853 288.0
125.093712 1512.0
125.234299 308.0
125.461586 164.0
125.974854 140.0
126.089111 204.0
126.158096 144.0
126.524986 160.0
126.905861 172.0
127.074448 200.0
127.112221 144.0
127.622101 204.0
127.727798 176.0
128.009521 184.0
128.061584 164.0
128.748795 160.0
129.070236 336.0
129.185028 180.0
129.320786 168.0
129.909927 156.0
130.241348 168.0
130.816635 180.0
131.084671 728.0
132.099823 140.0
132.266144 208.0
133.062531 956.0
133.100189 2352.0
133.282104 180.0
133.357941 168.0
133.744354 212.0
133.76738 144.0
134.073715 248.0
134.10083 520.0
134.382706 144.0
134.62738 188.0
134.895386 220.0
135.011002 144.0
135.079178 3476.0
135.114777 2016.0
135.524887 228.0
136.044388 244.0
136.082916 764.0
136.12323 284.0
136.232483 180.0
136.310898 160.0
136.73938 148.0
136.87674 236.0
136.993179 164.0
137.05632 280.0
137.094284 776.0
137.132721 336.0
137.271774 136.0
137.534164 188.0
137.992035 176.0
138.06218 304.0
138.098938 472.0
138.134689 184.0
138.195511 160.0
138.467056 172.0
138.506882 160.0
138.968704 180.0
139.074402 656.0
139.110458 268.0
139.967651 240.0
140.00769 176.0
140.083054 156.0
141.033997 192.0
141.071808 148.0
141.952576 208.0
142.07811 376.0
142.902679 164.0
143.085495 220.0
144.056549 152.0
144.087997 192.0
144.111496 148.0
144.563431 184.0
145.060501 208.0
145.100525 3044.0
145.143112 148.0
145.344604 184.0
145.534225 200.0
145.984955 132.0
146.065338 380.0
146.105286 680.0
146.462494 144.0
146.942215 140.0
147.07988 768.0
147.116287 3716.0
147.589523 160.0
147.628204 152.0
148.091537 188.0
148.116791 412.0
149.043854 144.0
149.09523 952.0
149.133835 348.0
149.858948 144.0
150.063675 308.0
150.1026 172.0
150.143433 204.0
150.241714 168.0
150.454041 144.0
150.681152 208.0
150.752014 140.0
150.974472 192.0
151.074646 15768.0
151.106003 636.0
151.890488 192.0
151.959167 192.0
152.078232 1752.0
152.111847 204.0
152.932526 132.0
153.016647 196.0
153.089798 2656.0
153.713531 216.0
153.851746 168.0
153.871506 184.0
154.094025 344.0
154.489334 200.0
154.912643 412.0
155.086533 160.0
155.104065 564.0
155.748581 200.0
155.785843 180.0
156.092773 140.0
156.111435 204.0
156.35524 172.0
156.50708 160.0
157.097748 632.0
157.180084 188.0
158.02211 212.0
158.10791 604.0
158.944168 164.0
159.073074 188.0
159.114059 2244.0
159.285599 164.0
159.768265 160.0
159.972092 160.0
160.091049 172.0
160.121323 736.0
160.866211 204.0
161.061432 152.0
161.094055 3764.0
161.128418 540.0
162.100174 368.0
162.560226 216.0
162.750595 176.0
162.807739 192.0
162.848267 200.0
163.072937 352.0
163.110428 10604.0
163.391907 148.0
164.111938 2208.0
164.443481 188.0
164.918533 188.0
165.072968 152.0
165.093033 516.0
165.124695 1580.0
165.337982 160.0
165.898926 176.0
166.082947 204.0
166.125519 300.0
166.406891 148.0
166.838501 176.0
167.083115 104.0
167.10202 272.0
167.131699 180.0
167.167725 144.0
168.069595 156.0
168.092819 156.0
169.104202 248.0
169.178345 180.0
169.761322 152.0
170.106659 416.0
170.356277 104.0
171.081696 176.0
171.115356 540.0
172.09024 216.0
172.124329 296.0
172.685974 164.0
173.093628 2552.0
173.132477 1488.0
173.207581 156.0
174.098862 432.0
174.135254 204.0
174.834671 180.0
175.073944 184.0
175.109482 3508.0
175.146317 504.0
175.426361 160.0
176.115387 536.0
176.155624 216.0
177.089157 1260.0
177.128098 784.0
178.128632 672.0
179.020096 232.0
179.105743 3732.0
179.497086 192.0
180.107803 584.0
180.789993 160.0
181.120087 700.0
182.103668 160.0
182.128952 208.0
183.115341 652.0
183.140671 332.0
183.432877 176.0
183.859039 156.0
184.129181 308.0
185.061935 152.0
185.096283 304.0
185.131088 1224.0
186.099625 352.0
186.134781 316.0
187.080902 188.0
187.108917 972.0
187.146423 356.0
188.112808 336.0
188.151016 148.0
188.647675 172.0
189.09111 328.0
189.125107 928.0
190.133514 180.0
190.799698 232.0
191.105728 4800.0
192.108902 964.0
193.120926 1884.0
193.190704 176.0
194.099136 160.0
194.127609 496.0
195.115051 680.0
196.123032 212.0
196.965698 168.0
197.095612 160.0
197.132553 380.0
198.105301 372.0
198.137299 664.0
199.111038 792.0
199.14534 652.0
200.111725 116.0
200.151505 184.0
200.608032 224.0
201.08461 184.0
201.125565 1068.0
201.167114 268.0
201.615677 192.0
202.092072 176.0
202.135391 224.0
203.102966 672.0
203.140717 732.0
203.527771 144.0
203.811813 148.0
204.123672 184.0
204.14473 332.0
205.088867 172.0
205.11911 608.0
205.172775 156.0
205.894165 148.0
207.115433 280.0
209.113785 676.0
209.364273 148.0
210.1017 156.0
210.125397 180.0
210.679535 236.0
211.131943 512.0
211.474731 148.0
212.109055 188.0
213.129303 764.0
213.162827 340.0
214.129837 276.0
215.141541 332.0
215.179886 156.0
215.642624 216.0
216.049072 184.0
216.148544 140.0
217.118805 732.0
217.160965 452.0
217.200302 196.0
218.107315 116.0
218.166962 212.0
218.698822 188.0
219.048157 100.0
219.13446 1580.0
219.626968 240.0
220.13974 380.0
221.148239 744.0
221.972198 216.0
222.099731 168.0
222.137558 196.0
222.143341 152.0
223.104721 164.0
223.142242 532.0
224.119797 256.0
224.154831 164.0
225.093689 180.0
225.126724 160.0
225.161942 412.0
226.140274 184.0
226.169952 200.0
226.454391 148.0
227.107224 196.0
227.141312 528.0
227.184998 356.0
227.41684 196.0
228.136154 136.0
228.727341 268.0
229.126083 184.0
229.157196 212.0
230.156342 160.0
231.136124 1640.0
231.166016 148.0
231.559494 200.0
232.141174 464.0
232.572174 188.0
233.11792 132.0
233.147278 288.0
234.147095 184.0
235.132263 440.0
235.155243 300.0
236.121689 172.0
236.15094 148.0
237.037018 176.0
237.122559 552.0
237.170868 236.0
238.121078 204.0
238.454819 184.0
238.799164 152.0
239.140671 160.0
241.152985 376.0
241.192337 156.0
242.160355 140.0
243.16922 352.0
244.541626 160.0
245.154434 212.0
246.128754 140.0
247.225616 196.0
249.149094 192.0
251.144943 300.0
251.180145 284.0
253.154221 240.0
254.161438 140.0
255.160004 272.0
256.145264 244.0
257.147247 216.0
259.171783 252.0
260.685242 164.0
261.171753 344.0
262.162231 148.0
263.142883 160.0
264.151062 120.0
265.012329 160.0
265.146332 168.0
269.186798 540.0
270.184479 240.0
271.163177 248.0
272.169769 300.0
273.140503 176.0
273.197998 180.0
276.348022 152.0
277.178497 172.0
279.1698 992.0
280.174744 356.0
281.183014 160.0
282.40918 156.0
284.731812 152.0
284.825836 156.0
285.182007 248.0
287.19931 296.0
289.16864 168.0
293.107941 176.0
297.18457 620.0
298.185791 340.0
299.185944 152.0
304.929413 148.0
305.117126 140.0
306.098297 200.0
306.739349 160.0
309.0513 180.0
315.196869 1136.0
316.203705 356.0
318.084045 140.0
318.197632 144.0
319.032501 172.0
319.095154 140.0
323.538208 156.0
325.165558 156.0
329.031525 156.0
330.292694 140.0
333.087402 152.0
333.201355 444.0
334.191803 112.0
335.105682 168.0
337.120636 160.0
344.236237 164.0
345.082184 200.0
346.096741 476.0
347.101074 3088.0
347.189331 204.0
347.215302 180.0
348.106323 496.0
348.221069 168.0
349.118591 96.0
355.00589 184.0
357.199402 420.0
358.208588 124.0
360.095245 152.0
360.869476 136.0
361.004822 180.0
361.104218 1916.0
362.063599 204.0
362.112457 10920.0
362.215942 176.0
362.318207 140.0
362.659973 256.0
363.115265 2092.0
364.124176 356.0
365.10614 144.0
365.134705 140.0
367.103577 176.0
372.116089 152.0
373.11261 284.0
374.109406 132.0
375.074402 184.0
375.108276 168.0
375.210236 136.0
376.084961 140.0
380.416443 192.0
380.513489 152.0
386.100647 108.0
386.578491 200.0
387.12262 164.0
388.093811 540.0
388.146362 144.0
388.294403 144.0
389.098114 136.0
390.115082 208.0
391.056396 164.0
399.108368 192.0
400.117645 176.0
401.141205 152.0
402.118439 160.0
403.156769 140.0
404.118622 272.0
405.137604 268.0
406.13266 300.0
406.19577 136.0
407.082611 140.0
407.138855 180.0
411.180847 156.0
412.129791 188.0
413.133728 312.0
413.516846 176.0
414.142395 144.0
416.157684 144.0
420.111664 164.0
423.586334 176.0
426.138855 168.0
427.151886 168.0
430.15332 164.0
430.405151 172.0
431.181763 168.0
436.176208 220.0
438.141846 192.0
439.148468 256.0
441.112518 144.0
442.18869 164.0
443.12207 116.0
450.837463 160.0
451.155518 176.0
454.149414 204.0
455.018158 164.0
455.149872 292.0
455.204956 180.0
456.158844 364.0
456.564819 148.0
458.154877 120.0
458.689392 152.0
458.766144 180.0
462.229919 144.0
463.261719 172.0
463.784515 312.0
464.163666 224.0
465.164825 428.0
465.844177 204.0
466.046082 184.0
466.175659 1384.0
466.570435 240.0
467.174316 964.0
467.26767 96.0
468.186554 444.0
469.196045 136.0
470.870758 180.0
472.158661 148.0
473.249115 144.0
477.176636 160.0
478.130493 132.0
479.179321 340.0
480.160675 128.0
482.175781 300.0
483.181671 372.0
484.18042 724.0
484.361298 136.0
485.188019 328.0
489.981659 172.0
492.173706 148.0
493.229553 156.0
493.291443 160.0
494.17334 632.0
495.177063 736.0
495.247223 148.0
495.885254 148.0
496.175781 1188.0
497.19455 300.0
498.180664 304.0
498.222931 160.0
500.968506 148.0
502.569031 152.0
504.082733 156.0
506.209564 236.0
507.222931 204.0
509.17627 300.0
510.183533 140.0
510.852814 144.0
511.172607 144.0
511.245117 144.0
512.170593 396.0
512.870117 176.0
513.177368 244.0
513.262329 156.0
513.451721 164.0
514.105896 164.0
515.184998 152.0
517.155151 160.0
517.188171 164.0
518.197998 148.0
520.159119 96.0
520.915466 164.0
521.883484 180.0
522.203125 244.0
524.223877 296.0
525.130371 140.0
525.223755 244.0
527.212158 256.0
527.888733 140.0
531.447815 196.0
534.20282 136.0
534.613831 176.0
537.853821 180.0
538.190369 224.0
539.20343 272.0
540.209106 348.0
540.335388 140.0
541.205505 164.0
542.238525 152.0
548.232422 120.0
552.201477 292.0
553.192749 132.0
553.232056 116.0
555.163635 156.0
555.274292 164.0
556.196411 112.0
557.161255 156.0
558.261108 140.0
561.477539 196.0
561.80304 148.0
562.12384 148.0
562.227661 180.0
563.540405 168.0
564.253906 140.0
564.447876 140.0
565.223633 160.0
568.237061 148.0
570.213196 132.0
571.232483 160.0
572.224609 152.0
572.78656 196.0
574.059021 188.0
576.258179 184.0
577.043335 156.0
578.863892 188.0
579.215942 148.0
582.617004 168.0
586.241638 172.0
586.654602 152.0
587.329712 156.0
588.292786 152.0
591.971802 120.0
592.880066 152.0
593.776917 156.0
593.885071 136.0
594.975464 168.0
595.95166 148.0
596.235901 160.0
596.675781 148.0
597.050232 148.0
599.060425 140.0
601.191101 164.0
602.867432 188.0
603.149597 156.0
603.247314 148.0
604.191162 184.0
604.258118 192.0
605.278809 140.0
606.242249 132.0
606.304077 116.0
606.428955 152.0
608.303772 192.0
609.928589 208.0
610.228455 152.0
610.272827 132.0
611.684631 140.0
612.758179 148.0
614.705811 164.0
614.824219 184.0
619.679993 144.0
620.277771 116.0
621.279053 120.0
622.268555 268.0
623.283569 156.0
624.295898 200.0
625.28125 168.0
629.00946 180.0
629.269043 152.0
630.922729 140.0
631.517761 156.0
632.158142 148.0
632.320496 96.0
637.147034 168.0
638.267883 144.0
640.033997 188.0
640.279053 292.0
641.266968 196.0
641.315735 224.0
642.014343 204.0
643.376709 188.0
643.901855 156.0
646.24231 152.0
647.290039 256.0
647.578674 192.0
648.281738 136.0
648.32074 148.0
648.87085 168.0
650.103455 176.0
650.270447 184.0
650.844543 148.0
653.787781 140.0
653.986267 252.0
654.474976 144.0
655.121765 192.0
658.288696 268.0
658.386108 144.0
659.291016 284.0
660.263489 160.0
660.305969 248.0
660.962524 256.0
661.085327 140.0
662.139893 172.0
662.180847 176.0
662.616272 156.0
663.844177 136.0
664.287537 288.0
664.769775 156.0
664.810852 148.0
666.498169 188.0
667.50708 128.0
668.119812 232.0
669.633118 144.0
670.550232 168.0
672.546204 176.0
673.160583 176.0
673.79071 212.0
674.274048 104.0
675.883362 168.0
676.117554 180.0
676.300781 1420.0
677.306885 1020.0
678.002625 180.0
678.127014 164.0
678.307068 108.0
679.125244 128.0
679.286621 120.0
680.300415 168.0
681.332031 152.0
683.06488 152.0
683.303772 180.0
683.621582 140.0
684.392273 140.0
685.537964 144.0
686.799622 144.0
687.037537 144.0
687.832764 172.0
690.9021 168.0
691.182739 160.0
691.331665 304.0
692.021057 120.0
692.315552 244.0
692.580566 164.0
693.287842 148.0
693.549866 140.0
694.311523 912.0
694.389404 188.0
695.305481 884.0
695.93219 140.0
696.290833 96.0
696.404175 184.0
697.123901 152.0
698.201599 152.0
698.355469 140.0
699.222229 148.0
699.601196 144.0
700.301514 168.0
701.286499 136.0
701.682129 152.0
702.684204 208.0
703.064148 152.0
703.887634 240.0
704.433472 112.0
705.89032 180.0
706.318726 184.0
707.321045 160.0
707.498779 192.0
707.737 144.0
707.813232 132.0
708.081238 160.0
708.324646 508.0
708.453064 156.0
708.69043 176.0
709.31958 696.0
709.549011 180.0
710.310547 388.0
710.980469 128.0
711.573486 196.0
712.33252 164.0
712.839783 172.0
714.142273 192.0
714.583801 140.0
716.096497 96.0
716.260742 176.0
716.836121 176.0
718.314331 944.0
719.311401 520.0
719.716492 148.0
720.317017 108.0
720.512329 140.0
720.929077 184.0
721.597229 152.0
721.950134 192.0
723.073608 192.0
725.167725 144.0
725.309875 188.0
726.340881 340.0
728.350952 184.0
729.859558 164.0
730.564148 152.0
732.728271 144.0
733.401917 164.0
734.297852 160.0
734.826416 120.0
735.4375 192.0
736.087463 156.0
736.321594 3044.0
737.329651 1512.0
738.323303 860.0
739.329834 276.0
739.990845 128.0
740.495972 168.0
740.563721 136.0
740.647644 160.0
740.749756 104.0
741.038391 152.0
741.622925 192.0
741.796387 180.0
743.239014 152.0
743.33667 208.0
744.780823 148.0
748.777588 136.0
749.464783 148.0
749.584656 160.0
749.780823 156.0
749.829895 172.0
750.32843 456.0
751.378479 180.0
751.497986 124.0
751.55957 192.0
751.778931 112.0
751.967773 148.0
752.173401 232.0
752.289246 280.0
752.327148 112.0
752.485168 148.0
752.568298 152.0
752.773499 176.0
752.835205 196.0
752.91095 100.0
753.018799 112.0
753.20636 104.0
753.254822 148.0
753.31488 272.0
753.572815 160.0
753.664001 124.0
753.705505 268.0
753.867737 164.0
753.923584 180.0
754.080566 104.0
754.204285 380.0
754.334106 44592.0
754.535828 208.0
754.690796 284.0
754.731567 264.0
754.869629 116.0
754.981262 176.0
755.102173 176.0
755.209106 136.0
755.335266 20664.0
755.828552 100.0
755.928406 148.0
756.250732 156.0
756.33844 5112.0
756.485291 156.0
756.723572 148.0
756.808105 116.0
756.974243 128.0
757.344116 944.0
757.580444 192.0
757.734985 140.0
758.012573 140.0
758.334595 584.0
758.575684 96.0
758.739136 104.0
759.039185 120.0
759.118042 164.0
759.481079 272.0
760.141296 108.0
760.358032 108.0
760.811218 140.0
761.637085 168.0
762.711304 184.0
763.081543 104.0
763.932251 96.0
764.873047 180.0
766.957825 180.0
767.253357 176.0
767.315979 124.0
768.049561 140.0
768.341125 1876.0
768.457825 188.0
768.92749 204.0
769.349976 496.0
770.359192 136.0
770.541382 132.0
771.340515 204.0
771.511902 160.0
772.465088 108.0
772.800537 192.0
773.077026 120.0
774.670166 148.0
774.712097 140.0
775.15741 128.0
775.762329 236.0
775.968567 160.0
776.118225 176.0
777.270264 116.0
777.323547 152.0
777.602295 152.0
777.910217 176.0
777.993469 160.0
778.690491 144.0
779.733765 100.0
780.303955 104.0
780.404663 184.0
780.648926 104.0
780.809692 144.0
781.336548 108.0
781.429626 100.0
781.906616 160.0
782.124207 116.0
782.286743 124.0
782.378113 148.0
782.563538 172.0
782.684631 168.0
782.912231 112.0
783.039612 132.0
783.100708 100.0
783.484131 348.0
783.546997 124.0
783.847778 124.0
783.926941 116.0
784.033203 408.0
784.235962 144.0
784.350403 1596.0
784.496643 184.0
784.534424 156.0
784.644409 236.0
784.710205 116.0
784.821716 316.0
784.907288 132.0
784.949829 244.0
785.153137 176.0
785.235107 256.0
785.350464 1008.0
785.575134 108.0
785.680359 184.0
785.746887 256.0
785.803406 184.0
785.841736 128.0
785.971436 192.0
786.068481 316.0
786.147888 168.0
786.17926 240.0
786.362 137088.0
786.48584 456.0
786.543823 304.0
786.696045 140.0
786.77594 372.0
786.866577 196.0
786.958984 424.0
786.99939 252.0
787.045105 308.0
787.141602 356.0
787.225037 124.0
787.364075 65620.0
787.60968 196.0
787.772156 180.0
787.893738 108.0
787.959839 180.0
788.0448 300.0
788.122803 300.0
788.2229 344.0
788.365967 20304.0
788.495972 240.0
788.602905 100.0
788.645996 212.0
788.948853 240.0
789.095764 220.0
789.279175 96.0
789.367188 3940.0
789.801575 140.0
789.872314 144.0
789.947144 300.0
790.244751 104.0
790.365906 632.0
790.580139 128.0
790.649048 212.0
790.715454 108.0
790.852417 160.0
790.944397 216.0
791.014038 364.0
791.05603 216.0
791.134521 188.0
791.226746 188.0
791.304382 360.0
791.382935 272.0
791.513062 136.0
791.623413 280.0
792.040161 112.0
792.12262 116.0
792.229553 248.0
792.33606 116.0
792.385132 116.0
792.442505 112.0
792.539795 208.0
792.611206 124.0
792.658691 120.0
792.708374 180.0
793.214355 108.0
793.921997 180.0
796.454712 144.0
798.303711 164.0
799.912842 144.0
808.169373 220.0
808.21814 116.0
809.956787 152.0
931.312988 164.0
946.933044 144.0
949.691101 180.0
1015.571167 172.0
1021.510193 140.0
1036.174072 220.0
1056.964355 248.0
1063.04248 140.0
1117.46521 200.0
1118.835449 112.0
1164.197021 160.0
1187.971069 204.0
1205.996948 140.0
1207.794678 156.0
1221.494141 188.0
1237.314331 144.0
1241.784912 156.0
1247.022461 168.0
1248.020752 156.0
1257.192017 156.0
1257.834351 156.0
1268.253296 196.0
1268.621826 164.0
1269.543579 140.0
1269.954956 148.0
1281.976929 172.0
1314.825806 160.0
1316.186768 160.0
1327.866577 144.0
1349.347778 180.0
1367.701904 248.0
1389.538818 192.0
1404.162964 172.0
1416.443115 144.0
1419.651001 172.0
1436.189209 140.0
1440.858521 144.0
1467.775757 208.0
1489.157593 172.0
1496.031738 144.0
1499.297485 220.0
1504.272339 164.0
1504.704712 200.0
1510.871826 244.0
1513.487793 188.0
1520.200562 212.0
1521.551147 140.0
1523.717896 160.0
1529.846069 180.0
1554.481567 164.0
1555.446899 176.0
1556.891602 144.0
1557.914429 120.0
1562.008179 180.0
1565.030151 220.0
1568.73291 140.0
1576.515137 248.0
1577.766357 204.0
1589.216187 156.0
1600.813354 184.0
1607.708862 152.0
1612.436646 160.0
1626.236206 168.0
1626.897583 144.0
1640.030151 188.0
1641.981323 196.0
1650.508789 144.0
1654.206177 176.0
1658.993652 148.0
1668.995972 276.0
1670.175171 180.0
1670.7771 212.0
1673.584961 200.0
1676.68042 144.0
1678.188354 148.0
1686.637695 192.0
1701.308716 196.0
1702.638916 232.0
1704.183228 192.0
1708.244385 148.0
1726.083618 216.0
1737.812134 224.0
1739.571533 160.0
1748.440063 196.0
1757.278564 160.0
1758.265625 172.0
1761.354858 152.0
1764.981934 148.0
1766.386963 192.0
1772.012573 216.0
1776.363525 176.0
1779.69519 184.0
1786.258789 204.0
1797.750732 152.0
1802.319092 180.0
1812.616699 188.0
1821.321045 164.0
1822.153564 160.0
1822.484863 208.0
1823.793579 164.0
1827.594849 148.0
1830.361206 160.0
1831.681274 168.0
1832.550171 176.0
1842.771484 224.0
1847.52478 160.0
1847.849854 232.0
1850.657227 184.0
1852.181519 220.0
1853.029663 212.0
1853.912231 192.0
1854.85498 176.0
1857.875 224.0
1861.727295 200.0
1862.817993 216.0
1864.476318 196.0
1864.931763 156.0
1865.275635 148.0
1865.980591 280.0
1876.406494 224.0
1878.752319 220.0
1881.470703 176.0
1883.551758 152.0
1888.768311 216.0
1889.430054 180.0
1890.975464 120.0
1891.818604 168.0
1894.442505 216.0
1905.034424 172.0
1905.816284 232.0
1907.736938 184.0
1907.823975 172.0
1913.165283 152.0
1914.471313 180.0
1914.601929 212.0
1915.037476 296.0
1916.640381 172.0
1917.720947 192.0
1926.276489 144.0
1931.481567 156.0
1938.099976 144.0
1938.538086 196.0
1941.38501 116.0
1941.922119 192.0
1943.281738 172.0
1944.720947 184.0
1945.431885 140.0
1950.043335 184.0
1951.036621 140.0
1952.66333 180.0
1952.848022 240.0
1955.197021 208.0
1955.337891 148.0
1962.658203 168.0
1963.989868 140.0
1968.137573 152.0
1977.552368 164.0
1978.862427 204.0
1986.049194 196.0
1987.140381 168.0
1991.409546 124.0
1993.337891 184.0
1996.164673 192.0
1997.151855 184.0
2000.657715 168.0
