>compound MLS001333724-01!
>formula C24H40N8O4
>ionization [M+H]+
>parentmass 505.325134
#inchi InChI=1S/C24H40N8O4/c33-15-11-31(12-16-34)23-26-20-19(21(27-23)29-7-3-1-4-8-29)25-24(32(13-17-35)14-18-36)28-22(20)30-9-5-2-6-10-30/h33-36H,1-18H2
#inchikey IZEKFCXSFNUWAM
#Ion_Source LC-ESI
#Instrument qTof
#Compound_Source NIH Pharmacologically Active Library
#PI Dorrestein
#Data_Collector VP/LMS
#Scan -1
#Precursor_MZ 505.335
#ExactMass 504.317
#Charge 1
#CAS_Number N/A
#Pubmed_ID N/A
#Smiles OCCN(CCO)c1nc(N2CCCCC2)c3nc(nc(N4CCCCC4)c3n1)N(CCO)CCO
#INCHI_AUX N/A
#Library_Class 1
#SpectrumID CCMSLIB00000085573
#IonMode Positive
#UpdateWorkflowName UPDATE-SINGLE-ANNOTATED-GOLD
#LibraryQualityString Gold
#TaskID d252d724072548979f1f6f1ced849daf
##Scan# 1641
#SpectrumFile p4-C09_GC9_01_18357.mzXML
#LibraryName Pharm_Active_Library.mgf
#MQScore -1
#Organism Pharm_Active_Library
#TIC_Query 0
#RT_Query -1
#MZErrorPPM -1
#SharedPeaks 0
#MassDiff 0
#LibMZ -1
#SpecMZ 505.335
#SpecCharge 0
#internalFilename spec-00000.mgf

>collision 10
44.918819 120.0
44.965519 96.0
45.096409 92.0
45.125816 136.0
45.167274 80.0
45.206074 140.0
45.258278 52.0
45.30917 152.0
45.357414 96.0
45.403 88.0
45.445923 120.0
45.484844 76.0
45.560043 192.0
45.594978 68.0
45.691792 132.0
45.788708 120.0
46.063862 176.0
46.08548 100.0
46.178753 160.0
46.33849 208.0
46.423882 144.0
46.456432 140.0
46.476784 132.0
46.51207 116.0
46.616646 108.0
46.632954 140.0
46.732224 124.0
46.839771 52.0
46.85067 64.0
46.955627 60.0
47.062065 108.0
47.089378 152.0
47.189133 136.0
47.20351 116.0
47.234261 100.0
47.264359 68.0
47.317474 168.0
47.394436 116.0
47.420708 164.0
47.458858 152.0
47.469826 104.0
47.490398 120.0
47.52195 192.0
47.545277 120.0
47.582336 56.0
47.607052 144.0
47.627655 152.0
47.655128 104.0
47.683987 92.0
47.772732 200.0
47.833912 168.0
47.875217 104.0
47.908272 140.0
47.926872 80.0
48.014404 144.0
48.028198 144.0
48.061306 116.0
48.084766 64.0
48.100014 84.0
48.199387 136.0
48.232555 120.0
48.303074 80.0
48.394413 44.0
48.434574 164.0
48.671722 40.0
48.745342 40.0
48.873268 128.0
48.948433 140.0
48.960964 84.0
48.993 72.0
49.006935 100.0
49.123516 212.0
49.16869 60.0
49.190464 120.0
49.24408 196.0
49.334908 76.0
49.494404 152.0
49.568642 120.0
49.731323 76.0
49.811356 128.0
49.835239 152.0
49.942078 132.0
49.995541 132.0
50.102551 80.0
50.379951 208.0
50.408726 160.0
50.465267 232.0
50.510521 100.0
50.557209 92.0
50.596523 160.0
50.648167 196.0
50.678986 144.0
50.70591 140.0
50.910202 72.0
50.920143 148.0
50.998283 148.0
51.048042 164.0
51.157597 104.0
51.232105 112.0
51.29435 144.0
51.308605 80.0
51.395267 84.0
51.436993 40.0
51.497318 112.0
51.515533 100.0
51.604137 184.0
51.695683 112.0
51.835732 120.0
51.874714 136.0
51.966499 136.0
52.023903 140.0
52.186249 160.0
52.238022 76.0
52.250969 52.0
52.301334 64.0
52.344524 88.0
52.383549 124.0
52.415104 196.0
52.428074 116.0
52.450222 172.0
52.481411 172.0
52.553528 68.0
52.591045 64.0
52.654575 148.0
52.679127 88.0
52.815006 172.0
53.077133 108.0
53.103233 112.0
53.162716 236.0
53.216423 84.0
53.344269 104.0
53.36026 68.0
53.384979 140.0
53.411156 104.0
53.546314 144.0
53.625191 84.0
53.651428 100.0
53.717052 184.0
53.842575 200.0
53.863022 160.0
53.949753 148.0
54.04723 140.0
54.154095 116.0
54.239079 64.0
54.328529 112.0
54.54847 196.0
54.743008 88.0
54.7785 124.0
54.944939 144.0
54.964622 200.0
54.99511 84.0
55.03054 104.0
55.054165 128.0
55.114731 112.0
55.139851 120.0
55.213772 112.0
55.365509 128.0
55.498085 44.0
55.563343 188.0
55.581978 208.0
55.606377 104.0
55.663544 112.0
55.695461 220.0
55.731113 164.0
55.745975 140.0
55.82476 148.0
55.835171 156.0
55.882771 184.0
55.988457 56.0
56.018246 124.0
56.104885 116.0
56.152393 128.0
56.164326 148.0
56.180737 144.0
56.191177 60.0
56.303616 184.0
56.34346 136.0
56.377823 80.0
56.39576 88.0
56.462116 244.0
56.587234 116.0
56.662121 152.0
56.742489 120.0
56.809036 200.0
56.855549 184.0
56.945629 128.0
56.987091 120.0
57.009567 172.0
57.058331 160.0
57.07938 128.0
57.089905 164.0
57.177158 160.0
57.199738 160.0
57.213284 156.0
57.23135 252.0
57.300632 144.0
57.330769 88.0
57.371464 176.0
57.404636 112.0
57.522316 120.0
57.590263 80.0
57.600838 120.0
57.662727 212.0
57.708134 168.0
57.73233 116.0
57.820072 40.0
57.903877 204.0
57.924545 116.0
58.067978 108.0
58.314495 92.0
58.399639 112.0
58.500065 72.0
58.518333 120.0
58.609722 104.0
58.64325 132.0
58.753036 128.0
58.778976 112.0
58.844608 140.0
58.916386 84.0
58.950001 44.0
58.979038 100.0
59.026432 108.0
59.109032 44.0
59.125866 52.0
59.154945 120.0
59.207005 176.0
59.226913 100.0
59.263432 172.0
59.311188 136.0
59.353405 172.0
59.375 200.0
59.492195 104.0
59.570515 44.0
59.623852 168.0
59.635048 140.0
59.765762 56.0
59.824245 124.0
59.850418 68.0
59.864277 156.0
59.879677 92.0
59.905865 192.0
59.936676 132.0
59.958252 148.0
59.96904 268.0
60.039959 168.0
60.060009 140.0
60.104748 168.0
60.134068 160.0
60.252918 124.0
60.271507 140.0
60.393639 112.0
60.460167 164.0
60.511246 152.0
60.549957 92.0
60.596428 96.0
60.608822 184.0
60.620392 96.0
60.642918 180.0
60.79335 156.0
60.843018 104.0
60.858543 116.0
60.878731 160.0
60.922222 152.0
60.965248 108.0
61.175701 148.0
61.191269 80.0
61.270695 68.0
61.281601 128.0
61.365765 52.0
61.432827 140.0
61.459347 160.0
61.668606 116.0
61.760857 184.0
61.825001 92.0
61.917984 92.0
62.014191 124.0
62.056831 136.0
62.103874 128.0
62.136818 144.0
62.168198 116.0
62.194878 160.0
62.230984 208.0
62.278095 68.0
62.311085 232.0
62.410103 104.0
62.441551 64.0
62.474583 148.0
62.605225 76.0
62.660351 140.0
62.690289 96.0
62.773838 116.0
62.879536 48.0
62.978004 228.0
63.076969 152.0
63.167103 96.0
63.179756 96.0
63.26363 124.0
63.298462 128.0
63.372906 196.0
63.518757 168.0
63.539379 180.0
63.577461 180.0
63.62508 168.0
63.661598 156.0
63.680656 76.0
63.707657 40.0
63.79665 180.0
63.83004 144.0
63.869797 44.0
63.904797 132.0
64.019402 148.0
64.033318 136.0
64.092674 108.0
64.251633 84.0
64.284027 140.0
64.306366 100.0
64.336693 124.0
64.371819 176.0
64.430916 148.0
64.507629 140.0
64.534805 128.0
64.582779 192.0
64.617973 212.0
64.766846 80.0
64.802094 156.0
64.840546 76.0
64.877937 184.0
64.904671 92.0
64.938156 136.0
64.959717 144.0
65.081169 228.0
65.095619 68.0
65.212898 80.0
65.254692 72.0
65.310974 132.0
65.449379 176.0
65.517021 180.0
65.529907 40.0
65.621773 60.0
65.645966 88.0
65.700798 56.0
65.763733 80.0
65.928467 160.0
65.967255 88.0
65.983421 136.0
65.996361 80.0
66.030319 148.0
66.064285 72.0
66.106354 132.0
66.129005 124.0
66.29744 120.0
66.316887 104.0
66.382904 144.0
66.519096 108.0
66.592705 76.0
66.621948 104.0
66.665817 176.0
66.722702 164.0
66.760101 116.0
66.805641 172.0
66.820282 100.0
66.86422 112.0
66.940735 92.0
67.131386 64.0
67.198265 96.0
67.273338 128.0
67.309258 108.0
67.350082 160.0
67.56913 116.0
67.670601 128.0
67.783623 164.0
67.908211 128.0
67.96727 36.0
68.00666 88.0
68.080536 88.0
68.098602 60.0
68.234993 120.0
68.262939 144.0
68.281113 168.0
68.323799 104.0
68.347214 156.0
68.437363 148.0
68.448883 136.0
68.534538 144.0
68.692802 96.0
68.730751 124.0
68.74395 104.0
68.765404 112.0
68.864471 128.0
68.885941 196.0
68.912376 36.0
68.975952 152.0
68.99501 156.0
69.042961 108.0
69.095894 52.0
69.120712 152.0
69.148842 88.0
69.181946 100.0
69.266403 60.0
69.354218 128.0
69.449615 216.0
69.47361 104.0
69.512428 152.0
69.594765 236.0
69.669502 88.0
69.682793 160.0
69.709373 140.0
69.747604 160.0
69.784866 192.0
69.815269 120.0
69.864006 96.0
69.882301 128.0
69.908928 148.0
69.933891 88.0
70.050446 96.0
70.073769 60.0
70.093765 208.0
70.140427 92.0
70.190445 156.0
70.208786 56.0
70.267944 112.0
70.38942 164.0
70.402374 136.0
70.432434 108.0
70.449135 28.0
70.536034 180.0
70.599564 156.0
70.667358 148.0
70.728394 72.0
70.798714 252.0
70.82383 160.0
70.845612 124.0
70.885818 32.0
70.899223 96.0
70.919334 44.0
70.962921 156.0
70.981369 92.0
71.033356 112.0
71.125648 100.0
71.157539 72.0
71.192802 272.0
71.223038 128.0
71.298637 68.0
71.362518 92.0
71.426056 256.0
71.484482 104.0
71.497086 112.0
71.535797 120.0
71.630096 108.0
71.646942 196.0
71.736259 124.0
71.749741 76.0
71.872864 132.0
71.903061 112.0
71.938683 128.0
71.970764 224.0
72.026497 100.0
72.06366 120.0
72.090378 128.0
72.131256 132.0
72.171829 112.0
72.319008 128.0
72.339317 116.0
72.361328 124.0
72.48996 140.0
72.530731 136.0
72.585388 252.0
72.61042 64.0
72.647736 108.0
72.684952 128.0
72.698639 176.0
72.854843 104.0
72.893921 128.0
72.910912 184.0
72.926208 64.0
72.978905 112.0
73.001015 220.0
73.069046 112.0
73.171165 108.0
73.203514 124.0
73.394623 104.0
73.413757 160.0
73.506943 220.0
73.537659 172.0
73.582039 84.0
73.631561 156.0
73.692184 196.0
73.756287 188.0
73.836639 72.0
73.869141 92.0
73.889671 140.0
73.905067 224.0
73.942711 88.0
74.016327 160.0
74.125954 152.0
74.155083 124.0
74.251091 88.0
74.278725 256.0
74.431282 220.0
74.48967 76.0
74.522316 192.0
74.597931 216.0
74.613403 196.0
74.680466 112.0
74.735512 148.0
74.776817 176.0
74.859451 204.0
74.89389 132.0
74.911118 112.0
74.996796 172.0
75.129745 112.0
75.150757 116.0
75.168007 48.0
75.321663 120.0
75.33548 92.0
75.408051 120.0
75.432251 40.0
75.475471 52.0
75.492935 120.0
75.532547 48.0
75.641556 136.0
75.667526 100.0
75.741989 112.0
75.927437 52.0
76.002029 56.0
76.014175 52.0
76.052361 148.0
76.139168 192.0
76.283379 164.0
76.305977 144.0
76.394676 112.0
76.434692 108.0
76.459053 96.0
76.553055 180.0
76.568733 84.0
76.622726 112.0
76.647125 108.0
76.67849 136.0
76.706375 128.0
76.809258 148.0
76.909164 140.0
77.006493 140.0
77.034439 144.0
77.22496 116.0
77.258194 128.0
77.310684 104.0
77.328186 160.0
77.399963 120.0
77.471771 48.0
77.531342 136.0
77.589188 116.0
77.634773 84.0
77.86116 68.0
77.887505 180.0
77.977112 168.0
78.005234 108.0
78.101944 140.0
78.20752 120.0
78.223358 64.0
78.300827 76.0
78.327248 44.0
78.36248 100.0
78.432976 144.0
78.522896 84.0
78.6464 140.0
78.667267 68.0
78.741737 80.0
78.795692 132.0
78.817703 40.0
78.882225 120.0
78.964424 64.0
78.992729 68.0
79.033035 224.0
79.051109 168.0
79.141388 240.0
79.171486 44.0
79.210457 84.0
79.227577 156.0
79.260056 124.0
79.291954 176.0
79.352226 132.0
79.410744 152.0
79.459831 184.0
79.476379 68.0
79.552315 224.0
79.575775 60.0
79.913467 180.0
80.016693 148.0
80.053543 172.0
80.114639 68.0
80.145897 140.0
80.319633 164.0
80.355316 120.0
80.490967 112.0
80.539185 112.0
80.555733 76.0
80.574913 188.0
80.589203 96.0
80.604057 244.0
80.647858 112.0
80.710747 100.0
80.725052 60.0
80.830589 156.0
80.920082 128.0
80.997086 84.0
81.072334 84.0
81.088463 124.0
81.109978 64.0
81.228317 104.0
81.330597 76.0
81.53894 84.0
81.74575 68.0
81.758621 132.0
81.796143 116.0
81.835747 84.0
81.865532 156.0
81.884369 140.0
82.026711 92.0
82.102432 108.0
82.133095 88.0
82.165565 144.0
82.187218 136.0
82.246773 200.0
82.272041 220.0
82.349686 104.0
82.44725 156.0
82.467407 128.0
82.510513 128.0
82.555717 96.0
82.629875 96.0
82.722168 120.0
82.764412 120.0
82.792778 56.0
82.805458 160.0
82.82357 96.0
82.83625 92.0
82.92141 200.0
83.026558 208.0
83.044701 96.0
83.104561 132.0
83.117264 108.0
83.253403 100.0
83.313347 140.0
83.440559 220.0
83.489655 152.0
83.524208 120.0
83.54422 136.0
83.558777 120.0
83.580605 64.0
83.622459 148.0
83.66069 96.0
83.673431 80.0
83.735344 284.0
83.771774 48.0
83.898972 112.0
83.944916 120.0
83.95768 104.0
83.99781 112.0
84.017876 44.0
84.041588 160.0
84.054367 68.0
84.143799 164.0
84.211365 144.0
84.233284 108.0
84.293571 92.0
84.52121 116.0
84.553246 32.0
84.584366 120.0
84.6045 172.0
84.637459 192.0
84.670418 116.0
84.741859 128.0
84.843315 144.0
84.882988 80.0
84.934074 164.0
84.98571 148.0
85.026634 132.0
85.075638 88.0
85.10685 72.0
85.13623 40.0
85.222565 116.0
85.240936 128.0
85.268501 124.0
85.292679 104.0
85.307098 68.0
85.325165 204.0
85.376968 140.0
85.454468 120.0
85.496552 196.0
85.605164 156.0
85.675545 180.0
85.700943 176.0
85.721214 72.0
85.763603 116.0
85.805855 104.0
85.809456 96.0
85.835503 60.0
85.866852 48.0
85.890823 128.0
85.908432 100.0
85.953552 84.0
85.986771 192.0
85.999687 72.0
86.025528 128.0
86.077225 56.0
86.095695 124.0
86.200989 184.0
86.22393 68.0
86.265678 160.0
86.321144 128.0
86.374779 204.0
86.463585 108.0
86.483589 156.0
86.556145 128.0
86.650604 136.0
86.67469 88.0
86.797028 192.0
86.815575 152.0
86.934296 132.0
87.007072 168.0
87.019684 160.0
87.12368 124.0
87.160843 136.0
87.212875 80.0
87.300255 124.0
87.341171 268.0
87.380241 164.0
87.460258 100.0
87.707985 160.0
87.778831 152.0
87.84597 136.0
87.918739 68.0
88.001419 136.0
88.027016 100.0
88.069969 144.0
88.131615 96.0
88.247498 108.0
88.273674 100.0
88.301727 56.0
88.333519 132.0
88.367195 56.0
88.385902 136.0
88.481529 88.0
88.510544 204.0
88.589981 72.0
88.623703 44.0
88.754906 64.0
88.796158 160.0
88.813477 120.0
88.910599 140.0
88.962196 164.0
89.026993 76.0
89.081459 36.0
89.134071 88.0
89.147224 184.0
89.209244 100.0
89.226166 68.0
89.329597 124.0
89.419426 216.0
89.559235 84.0
89.602562 156.0
89.621712 124.0
89.63575 52.0
89.693016 168.0
89.713753 88.0
89.745804 72.0
89.787285 148.0
89.868546 104.0
89.953262 124.0
90.062843 40.0
90.127075 72.0
90.155418 48.0
90.171776 140.0
90.196007 200.0
90.236694 184.0
90.259384 152.0
90.406937 112.0
90.437653 208.0
90.552711 104.0
90.581116 88.0
90.683434 132.0
90.698601 112.0
90.793396 64.0
90.823746 132.0
90.928093 48.0
90.950874 92.0
91.005928 236.0
91.021118 132.0
91.062897 108.0
91.089485 64.0
91.119881 124.0
91.176888 132.0
91.243416 180.0
91.328987 112.0
91.380348 132.0
91.395569 84.0
91.499229 112.0
91.546509 148.0
91.584114 100.0
91.61792 188.0
91.673576 84.0
91.723129 44.0
91.776512 128.0
91.803207 148.0
91.857735 88.0
91.953918 44.0
92.04937 128.0
92.148689 112.0
92.207932 236.0
92.261452 40.0
92.30925 136.0
92.343674 120.0
92.397232 104.0
92.490761 128.0
92.523544 96.0
92.71125 32.0
92.809013 124.0
92.849281 96.0
92.908745 128.0
92.929848 96.0
92.966301 104.0
93.073799 180.0
93.110779 140.0
93.192886 112.0
93.219788 104.0
93.298592 112.0
93.331276 116.0
93.421669 64.0
93.469238 160.0
93.476997 116.0
93.503151 160.0
93.517876 120.0
93.547073 144.0
93.583328 152.0
93.642265 152.0
93.660355 96.0
93.718155 176.0
93.74144 184.0
93.799095 144.0
93.885857 184.0
93.922501 88.0
93.968796 96.0
94.082664 168.0
94.111618 116.0
94.169556 200.0
94.209114 100.0
94.271042 164.0
94.289337 84.0
94.304802 96.0
94.324127 132.0
94.416931 216.0
94.459488 140.0
94.544617 160.0
94.567268 124.0
94.579453 200.0
94.596878 184.0
94.616234 88.0
94.649834 136.0
94.676865 192.0
94.715401 96.0
94.769234 160.0
94.86808 92.0
94.89328 116.0
94.946152 180.0
94.972786 96.0
94.996384 244.0
95.056206 148.0
95.089203 188.0
95.102783 52.0
95.128021 180.0
95.157143 100.0
95.173523 200.0
95.229614 124.0
95.265892 104.0
95.411644 140.0
95.46965 48.0
95.520546 132.0
95.573074 44.0
95.620476 188.0
95.685959 124.0
95.713219 172.0
95.750214 92.0
95.765793 44.0
95.888542 144.0
96.058174 168.0
96.077682 80.0
96.091339 100.0
96.161583 204.0
96.185005 144.0
96.204529 84.0
96.296303 152.0
96.31974 116.0
96.556236 148.0
96.573837 108.0
96.618828 164.0
96.642303 52.0
96.712753 132.0
96.754173 168.0
96.830231 92.0
96.885071 104.0
96.898788 160.0
96.957573 128.0
96.983047 208.0
97.011826 112.0
97.087944 100.0
97.100685 140.0
97.181114 192.0
97.208588 76.0
97.246933 200.0
97.25547 108.0
97.258484 188.0
97.277275 120.0
97.312614 100.0
97.381348 184.0
97.402954 28.0
97.475067 96.0
97.509048 76.0
97.558189 304.0
97.575165 164.0
97.60144 60.0
97.778488 48.0
97.831635 172.0
97.857857 236.0
97.943871 52.0
97.974022 224.0
98.001869 92.0
98.014793 184.0
98.058151 44.0
98.093628 80.0
98.2435 152.0
98.259666 184.0
98.318474 164.0
98.348083 168.0
98.409279 104.0
98.454697 136.0
98.523827 172.0
98.537651 108.0
98.567291 128.0
98.606812 220.0
98.646347 148.0
98.668091 140.0
98.725433 108.0
98.761032 116.0
98.822357 96.0
98.883698 100.0
98.899536 144.0
99.089638 188.0
99.192688 128.0
99.206566 96.0
99.234322 80.0
99.299759 204.0
99.394981 168.0
99.462456 104.0
99.506126 144.0
99.527969 120.0
99.55378 72.0
99.59137 108.0
99.651115 124.0
99.70874 40.0
99.74054 92.0
99.75843 148.0
99.788246 132.0
99.843925 60.0
99.881714 36.0
99.951347 120.0
100.039696 204.0
100.074753 184.0
100.088692 144.0
100.144447 84.0
100.158394 156.0
100.296272 100.0
100.383598 116.0
100.451408 160.0
100.533211 132.0
100.56514 132.0
100.729973 204.0
100.856758 108.0
100.872749 100.0
100.89254 120.0
101.12677 100.0
101.23288 140.0
101.290962 108.0
101.334267 136.0
101.359077 176.0
101.377113 132.0
101.407249 208.0
101.443253 168.0
101.542557 152.0
101.567574 152.0
101.659859 152.0
101.695984 156.0
101.949036 144.0
101.990402 128.0
102.023407 100.0
102.123947 184.0
102.164177 92.0
102.216484 100.0
102.242645 188.0
102.256737 104.0
102.286926 96.0
102.315109 112.0
102.339272 204.0
102.375511 116.0
102.391624 56.0
102.504433 136.0
102.54071 144.0
102.56691 72.0
102.754456 160.0
102.784721 188.0
102.85939 192.0
102.916031 144.0
102.952263 104.0
103.016899 168.0
103.037102 32.0
103.053261 104.0
103.103043 132.0
103.221024 176.0
103.318108 32.0
103.390953 88.0
103.474449 96.0
103.521484 192.0
103.536713 88.0
103.617737 116.0
103.652184 128.0
103.69474 76.0
103.715004 140.0
103.759605 148.0
103.808266 132.0
103.826515 160.0
103.887367 164.0
103.940117 144.0
103.954315 148.0
103.984756 68.0
104.049713 144.0
104.084877 120.0
104.187813 204.0
104.20813 164.0
104.260963 132.0
104.317871 60.0
104.350403 128.0
104.419533 88.0
104.466316 40.0
104.503914 148.0
104.531425 156.0
104.597267 216.0
104.618942 88.0
104.693398 232.0
104.777786 128.0
104.798164 88.0
104.849106 56.0
104.864304 156.0
104.916367 52.0
104.93676 132.0
104.951027 224.0
105.040764 140.0
105.136658 60.0
105.161537 84.0
105.177475 160.0
105.201355 160.0
105.236679 192.0
105.316139 92.0
105.365349 104.0
105.432556 188.0
105.639282 124.0
105.692474 188.0
105.870567 40.0
105.90538 164.0
105.92791 152.0
105.954544 168.0
105.999619 164.0
106.020111 72.0
106.086365 504.0
106.108253 144.0
106.142128 184.0
106.161491 116.0
106.214821 132.0
106.26207 160.0
106.399574 136.0
106.432426 128.0
106.450905 96.0
106.484734 280.0
106.500191 80.0
106.521645 220.0
106.543335 156.0
106.558945 140.0
106.586906 212.0
106.61795 140.0
106.664574 136.0
106.70549 124.0
106.713104 112.0
106.757095 144.0
106.839363 88.0
106.948425 132.0
107.045189 128.0
107.059601 108.0
107.088432 160.0
107.111092 128.0
107.205864 200.0
107.265633 40.0
107.397598 144.0
107.416161 156.0
107.440918 56.0
107.465675 140.0
107.513138 180.0
107.54203 100.0
107.626671 144.0
107.667969 100.0
107.701012 96.0
107.883278 136.0
107.920067 108.0
107.977966 120.0
108.030022 168.0
108.050362 128.0
108.081398 108.0
108.100021 164.0
108.321556 104.0
108.340195 88.0
108.405083 152.0
108.450912 148.0
108.497696 208.0
108.535019 104.0
108.557823 284.0
108.600464 172.0
108.676056 72.0
108.736237 132.0
108.790207 96.0
108.867027 160.0
108.914482 268.0
108.987503 72.0
109.008286 136.0
109.037376 92.0
109.076866 180.0
109.132996 76.0
109.253624 92.0
109.301476 72.0
109.33477 32.0
109.357666 120.0
109.613815 104.0
109.738876 160.0
109.761818 112.0
109.782669 100.0
109.851494 40.0
110.008003 116.0
110.089836 184.0
110.124931 204.0
110.162529 244.0
110.411255 96.0
110.488647 116.0
110.555603 104.0
110.618393 176.0
110.66864 108.0
110.702141 252.0
110.718895 144.0
110.741936 36.0
110.792542 152.0
110.86554 104.0
110.888596 84.0
110.91584 184.0
111.003899 84.0
111.02906 148.0
111.147041 116.0
111.243073 136.0
111.337646 96.0
111.41716 116.0
111.460373 148.0
111.572891 88.0
111.667511 192.0
111.685707 160.0
111.74955 144.0
111.774803 64.0
111.800056 104.0
111.869514 140.0
111.905884 144.0
111.943199 108.0
111.957939 72.0
111.985321 108.0
112.012703 124.0
112.042198 112.0
112.075905 152.0
112.092026 164.0
112.139122 176.0
112.187607 92.0
112.284599 116.0
112.326477 84.0
112.3964 136.0
112.451271 108.0
112.470268 132.0
112.5336 216.0
112.683548 104.0
112.787537 116.0
112.972122 128.0
112.988693 168.0
113.023956 156.0
113.072632 176.0
113.108612 108.0
113.127663 172.0
113.309784 124.0
113.394547 328.0
113.435883 136.0
113.570923 200.0
113.629921 80.0
113.691452 200.0
113.777908 148.0
113.823067 176.0
113.854919 160.0
113.872643 144.0
113.90802 132.0
113.930443 244.0
113.995125 80.0
114.055458 5720.0
114.095337 188.0
114.139671 124.0
114.156685 148.0
114.177948 108.0
114.207726 212.0
114.233253 48.0
114.380074 80.0
114.436584 140.0
114.488655 116.0
114.533386 144.0
114.595161 216.0
114.626831 116.0
114.650566 140.0
114.815071 96.0
114.850975 76.0
114.886238 128.0
114.910706 160.0
114.938446 136.0
114.974716 116.0
115.039902 104.0
115.058235 572.0
115.172523 184.0
115.201042 148.0
115.280098 124.0
115.354904 204.0
115.384834 156.0
115.453651 172.0
115.491753 36.0
115.517418 160.0
115.609421 216.0
115.630821 68.0
115.650085 196.0
115.66935 48.0
115.684334 64.0
115.701462 60.0
115.72287 108.0
115.737854 56.0
115.76165 72.0
115.776398 180.0
115.86422 64.0
115.892464 132.0
115.915642 112.0
115.962791 136.0
115.986366 128.0
116.01638 112.0
116.070351 960.0
116.133034 168.0
116.160049 120.0
116.195938 148.0
116.226562 164.0
116.25016 32.0
116.271622 120.0
116.325279 132.0
116.385391 120.0
116.449821 112.0
116.574425 104.0
116.634598 124.0
116.673294 168.0
116.705544 132.0
116.733498 104.0
116.776505 160.0
116.793709 108.0
116.810921 112.0
116.828133 116.0
116.862549 120.0
116.924957 92.0
117.044945 168.0
117.068962 196.0
117.133804 80.0
117.163963 104.0
117.267395 104.0
117.286789 140.0
117.317932 104.0
117.351326 124.0
117.398903 124.0
117.44635 192.0
117.483017 192.0
117.545586 104.0
117.584435 144.0
117.612488 116.0
117.679413 148.0
117.800354 136.0
117.895416 104.0
117.91703 76.0
117.953606 152.0
117.999443 128.0
118.025116 112.0
118.046738 40.0
118.077736 108.0
118.133255 48.0
118.252258 108.0
118.276123 152.0
118.359238 128.0
118.474792 140.0
118.532646 156.0
118.551125 208.0
118.605301 160.0
118.655159 88.0
118.68985 116.0
118.733223 144.0
118.789619 76.0
118.961044 224.0
119.013153 80.0
119.050064 100.0
119.239067 120.0
119.297752 88.0
119.312973 116.0
119.352379 140.0
119.404297 248.0
119.515625 136.0
119.534821 96.0
119.579109 172.0
119.632767 44.0
119.648003 72.0
119.666023 232.0
119.693726 132.0
119.739456 144.0
119.756882 56.0
119.78878 180.0
119.812111 236.0
119.837479 52.0
119.907211 120.0
119.967033 108.0
120.014023 64.0
120.032318 144.0
120.066826 168.0
120.165512 88.0
120.2006 164.0
120.393707 168.0
120.424286 112.0
120.445198 140.0
120.531326 144.0
120.590332 92.0
120.620758 136.0
120.667816 188.0
120.701828 104.0
120.759872 100.0
120.793678 112.0
120.848373 164.0
120.863686 116.0
120.879005 108.0
120.924965 184.0
120.977493 100.0
121.058502 64.0
121.125778 212.0
121.143921 144.0
121.202385 104.0
121.466156 188.0
121.51223 92.0
121.559677 140.0
121.604393 152.0
121.707565 172.0
121.748825 172.0
121.770248 176.0
121.865707 84.0
121.931633 112.0
121.955803 184.0
121.979271 160.0
122.001968 176.0
122.03714 40.0
122.05706 140.0
122.087715 148.0
122.187523 128.0
122.232903 144.0
122.279114 100.0
122.312134 180.0
122.349556 148.0
122.409004 112.0
122.442032 92.0
122.464058 116.0
122.499298 124.0
122.605057 76.0
122.653549 140.0
122.708656 76.0
122.769142 140.0
122.799072 56.0
122.816711 152.0
122.838097 144.0
122.867447 172.0
122.882896 148.0
122.911575 92.0
122.940262 120.0
123.044144 148.0
123.094513 64.0
123.114662 92.0
123.131729 156.0
123.23394 64.0
123.267082 80.0
123.298798 228.0
123.340546 168.0
123.377594 128.0
123.396812 108.0
123.447166 112.0
123.470467 176.0
123.565582 116.0
123.662941 60.0
123.680649 196.0
123.713852 88.0
123.729347 80.0
123.762558 132.0
123.778061 164.0
123.850266 152.0
123.877724 60.0
123.899879 100.0
123.964134 56.0
123.98629 76.0
124.026184 60.0
124.19162 72.0
124.234627 116.0
124.445457 40.0
124.464157 116.0
124.518738 128.0
124.585373 124.0
124.600929 68.0
124.6987 76.0
124.715782 140.0
124.769829 192.0
124.840981 68.0
124.881744 280.0
124.952194 212.0
125.014496 60.0
125.062279 128.0
125.121338 32.0
125.141373 64.0
125.161415 104.0
125.190361 96.0
125.212631 116.0
125.229408 120.0
125.252724 92.0
125.283905 128.0
125.341835 88.0
125.386406 48.0
125.445274 108.0
125.477791 112.0
125.495628 100.0
125.529358 96.0
125.546913 120.0
125.596886 148.0
125.696373 108.0
125.758858 160.0
125.851936 264.0
126.022369 112.0
126.156464 140.0
126.21357 228.0
126.311432 172.0
126.333122 132.0
126.35997 124.0
126.398621 88.0
126.418022 140.0
126.440529 252.0
126.483055 156.0
126.555901 148.0
126.653221 160.0
126.670967 152.0
126.679848 140.0
126.736542 124.0
126.752739 76.0
126.798859 120.0
126.931122 112.0
126.953545 144.0
126.993912 176.0
127.094063 124.0
127.131439 120.0
127.240746 124.0
127.287903 100.0
127.456367 108.0
127.501312 120.0
127.517044 128.0
127.541763 88.0
127.561996 84.0
127.58223 132.0
127.755386 124.0
127.800385 124.0
127.966934 132.0
127.984947 208.0
128.023224 52.0
128.038986 100.0
128.054764 188.0
128.087845 240.0
128.133591 176.0
128.165146 308.0
128.207962 124.0
128.245041 176.0
128.327423 120.0
128.37027 180.0
128.413116 132.0
128.505783 96.0
128.534927 100.0
128.57103 100.0
128.699646 152.0
128.796814 76.0
128.81424 112.0
128.846512 140.0
128.873627 80.0
128.934631 204.0
129.002441 64.0
129.018265 188.0
129.060028 144.0
129.081573 132.0
129.106445 184.0
129.156204 148.0
129.23111 136.0
129.28743 112.0
129.303268 128.0
129.334961 164.0
129.416458 156.0
129.446304 88.0
129.538437 148.0
129.54335 128.0
129.611237 156.0
129.683762 156.0
129.732712 208.0
129.800522 160.0
129.851532 164.0
129.894638 76.0
130.015411 136.0
130.096588 120.0
130.117569 132.0
130.278259 84.0
130.296432 116.0
130.382782 92.0
130.408676 92.0
130.432785 164.0
130.566925 144.0
130.623795 152.0
130.817215 84.0
130.844528 68.0
130.87413 108.0
130.896896 124.0
130.915115 72.0
130.974335 160.0
131.008499 156.0
131.049515 104.0
131.084869 332.0
131.181686 268.0
131.199921 88.0
131.278381 132.0
131.32991 72.0
131.366394 128.0
131.39328 164.0
131.42572 196.0
131.491898 148.0
131.557175 188.0
131.644272 136.0
131.690033 184.0
131.745178 140.0
131.82988 152.0
131.973892 120.0
131.996277 152.0
132.021912 104.0
132.043549 112.0
132.062088 184.0
132.111847 152.0
132.137726 132.0
132.188904 104.0
132.24382 128.0
132.268997 92.0
132.305634 124.0
132.362869 216.0
132.440735 140.0
132.569031 100.0
132.594238 108.0
132.681335 120.0
132.72261 100.0
132.809189 128.0
132.906113 156.0
132.961182 108.0
132.997192 156.0
133.065063 216.0
133.133362 148.0
133.190781 48.0
133.241318 44.0
133.324036 132.0
133.347015 152.0
133.427475 96.0
133.530945 104.0
133.57695 112.0
133.636765 224.0
133.701187 100.0
133.774841 148.0
133.844513 152.0
133.880219 172.0
133.991318 68.0
134.014359 112.0
134.050217 128.0
134.124252 140.0
134.188278 148.0
134.323273 100.0
134.354614 144.0
134.421219 140.0
134.447861 96.0
134.606476 244.0
134.634857 88.0
134.708771 136.0
134.754974 196.0
134.83815 132.0
134.865891 140.0
134.89209 132.0
134.968964 128.0
135.000809 56.0
135.04393 120.0
135.062744 116.0
135.085556 132.0
135.150345 140.0
135.198929 208.0
135.215134 156.0
135.263733 120.0
135.343384 140.0
135.379501 176.0
135.433014 188.0
135.52774 180.0
135.611176 124.0
135.66449 156.0
135.717484 84.0
135.742599 144.0
135.810577 124.0
135.861603 60.0
135.901306 176.0
135.931961 148.0
136.063507 140.0
136.200516 140.0
136.291122 144.0
136.319 104.0
136.384079 200.0
136.430557 88.0
136.509613 108.0
136.528214 132.0
136.559692 112.0
136.593338 76.0
136.625916 76.0
136.644516 104.0
136.694122 88.0
136.721313 80.0
136.756226 128.0
136.777161 120.0
136.812088 56.0
136.833038 56.0
136.857681 116.0
136.86673 68.0
136.902893 160.0
136.919189 136.0
136.965775 120.0
136.989059 332.0
137.016876 124.0
137.02626 116.0
137.056717 112.0
137.08226 128.0
137.099731 216.0
137.120834 116.0
137.147522 180.0
137.170822 92.0
137.189468 168.0
137.243103 100.0
137.275742 188.0
137.331711 180.0
137.36203 172.0
137.432861 144.0
137.579453 144.0
137.645966 116.0
137.679504 176.0
137.72522 100.0
137.769073 96.0
137.786911 116.0
137.82663 132.0
137.911972 192.0
137.999451 144.0
138.027649 84.0
138.060379 200.0
138.118851 160.0
138.142242 92.0
138.211914 272.0
138.235825 148.0
138.303696 176.0
138.341156 144.0
138.392654 104.0
138.42778 96.0
138.500381 112.0
138.529724 160.0
138.561279 104.0
138.599976 188.0
138.636963 108.0
138.678452 72.0
138.694855 176.0
138.753616 120.0
138.835526 92.0
138.908234 156.0
138.918228 124.0
138.97937 136.0
139.046677 136.0
139.072479 120.0
139.09111 64.0
139.151215 104.0
139.182816 108.0
139.243881 80.0
139.283859 196.0
139.311996 148.0
139.347229 152.0
139.380127 216.0
139.443573 144.0
139.489502 164.0
139.516312 136.0
139.563461 88.0
139.602463 172.0
139.642059 144.0
139.697525 172.0
139.721039 144.0
139.756805 60.0
139.796341 112.0
139.850464 160.0
139.881073 96.0
139.96582 132.0
140.003494 88.0
140.050598 184.0
140.084366 132.0
140.109497 116.0
140.151901 132.0
140.22023 188.0
140.24617 176.0
140.281525 76.0
140.387619 108.0
140.472534 136.0
140.58342 176.0
140.614471 128.0
140.64032 120.0
140.696716 96.0
140.717957 32.0
140.745392 104.0
140.793518 120.0
140.814697 116.0
140.891891 192.0
140.982513 92.0
141.041595 84.0
141.072327 112.0
141.24321 136.0
141.289886 68.0
141.315918 116.0
141.353302 136.0
141.387802 148.0
141.463379 192.0
141.510376 148.0
141.586945 128.0
141.652084 148.0
141.772919 96.0
141.829803 48.0
142.033539 172.0
142.044937 120.0
142.108154 180.0
142.244904 64.0
142.275757 48.0
142.356491 148.0
142.525726 160.0
142.611237 208.0
142.616394 100.0
142.760468 76.0
142.784241 192.0
142.81041 208.0
142.857986 192.0
142.877014 52.0
142.907944 108.0
142.937332 136.0
143.022171 68.0
143.050735 92.0
143.077286 104.0
143.176926 84.0
143.300797 148.0
143.379425 52.0
143.40802 68.0
143.455704 108.0
143.52124 188.0
143.665543 72.0
143.684631 84.0
143.727585 64.0
143.779221 168.0
143.854065 180.0
143.894653 132.0
143.913757 100.0
143.966293 48.0
144.042709 100.0
144.066605 140.0
144.085709 128.0
144.102432 108.0
144.121552 108.0
144.152618 112.0
144.186066 48.0
144.210571 48.0
144.236267 116.0
144.255386 188.0
144.300812 112.0
144.333084 148.0
144.370148 188.0
144.403641 116.0
144.46727 112.0
144.587845 340.0
144.623749 172.0
144.724304 132.0
144.91272 120.0
144.937469 72.0
144.97821 144.0
145.018951 80.0
145.051025 176.0
145.083664 164.0
145.106781 312.0
145.146011 144.0
145.186768 104.0
145.217957 160.0
145.28511 176.0
145.319839 160.0
145.350601 136.0
145.376282 96.0
145.436295 196.0
145.503494 208.0
145.55632 100.0
145.573135 108.0
145.63797 144.0
145.664398 152.0
145.753296 32.0
145.784225 172.0
145.903687 156.0
145.932419 212.0
145.976837 64.0
146.03215 220.0
146.053802 108.0
146.075439 92.0
146.092285 112.0
146.113937 84.0
146.133377 156.0
146.19072 132.0
146.234253 188.0
146.25145 136.0
146.313385 188.0
146.364243 84.0
146.379776 64.0
146.397964 180.0
146.449371 196.0
146.537659 72.0
146.578629 148.0
146.59549 112.0
146.629227 256.0
146.648514 100.0
146.66539 168.0
146.684662 208.0
146.711182 112.0
146.73288 132.0
146.918579 104.0
146.984039 180.0
147.022339 192.0
147.108582 136.0
147.143021 136.0
147.198547 84.0
147.22995 84.0
147.258926 136.0
147.295151 88.0
147.318481 140.0
147.327606 92.0
147.36763 112.0
147.401459 212.0
147.423203 124.0
147.493301 128.0
147.544052 160.0
147.641525 104.0
147.680679 136.0
147.744781 164.0
147.816757 176.0
147.848831 124.0
147.909332 96.0
147.981506 84.0
148.037659 68.0
148.064285 140.0
148.088974 208.0
148.124496 332.0
148.156326 124.0
148.207642 112.0
148.255676 232.0
148.317215 112.0
148.335663 148.0
148.360672 160.0
148.403534 120.0
148.425354 160.0
148.471436 104.0
148.493256 112.0
148.532074 308.0
148.584671 276.0
148.622147 120.0
148.760162 104.0
148.840286 140.0
148.885132 100.0
148.973862 132.0
149.049896 148.0
149.058899 144.0
149.102631 100.0
149.136658 164.0
149.154984 112.0
149.275238 56.0
149.323868 40.0
149.400314 132.0
149.49173 160.0
149.542847 128.0
149.586655 120.0
149.654816 120.0
149.71814 124.0
149.752228 128.0
149.788757 116.0
149.808258 136.0
149.864288 140.0
149.898392 128.0
150.049515 56.0
150.078766 304.0
150.101837 104.0
150.158127 184.0
150.208023 132.0
150.383713 76.0
150.439575 180.0
150.476471 152.0
150.503326 160.0
150.525299 68.0
150.570541 204.0
150.605896 228.0
150.652237 164.0
150.697693 220.0
150.747406 136.0
150.75853 84.0
150.786697 140.0
150.82579 32.0
150.855133 144.0
150.882019 112.0
151.028748 132.0
151.053207 60.0
151.107742 136.0
151.153503 92.0
151.258743 72.0
151.307709 140.0
151.359116 232.0
151.380264 176.0
151.388062 112.0
151.394836 268.0
151.419785 156.0
151.466248 144.0
151.480377 192.0
151.519196 168.0
151.581924 184.0
151.633484 132.0
151.692322 104.0
151.754761 212.0
151.773224 104.0
151.812454 120.0
151.84433 148.0
151.895844 156.0
151.979248 76.0
152.030777 156.0
152.116684 164.0
152.136322 92.0
152.173157 100.0
152.273834 196.0
152.322952 136.0
152.340149 180.0
152.359802 136.0
152.435715 152.0
152.517075 100.0
152.534271 88.0
152.592041 192.0
152.681686 88.0
152.733444 72.0
152.782639 60.0
152.821396 128.0
152.844147 92.0
152.969666 108.0
153.045288 128.0
153.069 152.0
153.159271 100.0
153.183411 144.0
153.203613 80.0
153.225784 80.0
153.284912 132.0
153.304626 188.0
153.4328 140.0
153.451538 280.0
153.477173 36.0
153.516632 216.0
153.601837 68.0
153.61882 148.0
153.727066 136.0
153.747574 84.0
153.794174 168.0
153.835129 184.0
153.85466 152.0
153.928726 196.0
153.987991 108.0
154.039871 120.0
154.086807 144.0
154.116455 84.0
154.151047 112.0
154.180695 112.0
154.210358 80.0
154.232605 104.0
154.333954 108.0
154.406235 156.0
154.438232 144.0
154.47493 212.0
154.566986 96.0
154.617935 120.0
154.707535 68.0
154.759521 100.0
154.816483 92.0
154.833817 88.0
154.875916 144.0
154.902527 140.0
154.926468 248.0
154.959854 172.0
155.017136 96.0
155.086136 172.0
155.130264 292.0
155.15593 72.0
155.185684 132.0
155.250153 256.0
155.302231 176.0
155.329529 148.0
155.361832 160.0
155.433716 176.0
155.490799 220.0
155.642227 60.0
155.659607 176.0
155.73259 92.0
155.772614 140.0
155.851379 152.0
155.880081 116.0
155.912628 136.0
155.962692 80.0
156.022354 188.0
156.07756 136.0
156.101913 152.0
156.13176 132.0
156.16658 136.0
156.188965 48.0
156.274673 112.0
156.325806 192.0
156.349594 188.0
156.490082 156.0
156.574738 152.0
156.628784 128.0
156.72171 208.0
156.741653 132.0
156.816406 200.0
156.876938 212.0
156.907761 124.0
156.951019 60.0
157.003387 176.0
157.025833 128.0
157.078217 116.0
157.120621 212.0
157.2379 140.0
157.314026 144.0
157.352722 176.0
157.380188 244.0
157.402664 212.0
157.440125 60.0
157.490067 92.0
157.602478 128.0
157.635345 472.0
157.684952 56.0
157.774933 124.0
157.815231 132.0
157.887115 152.0
158.002518 60.0
158.02002 200.0
158.057556 92.0
158.142136 200.0
158.188751 132.0
158.425598 76.0
158.499359 172.0
158.535843 128.0
158.555878 268.0
158.5905 148.0
158.646118 56.0
158.679245 168.0
158.703781 184.0
158.748917 160.0
158.799072 28.0
158.819138 104.0
158.859268 112.0
158.904114 128.0
159.003754 96.0
159.082611 84.0
159.101486 184.0
159.13327 156.0
159.303589 128.0
159.337311 180.0
159.406601 84.0
159.456863 92.0
159.517197 160.0
159.53479 128.0
159.554596 140.0
159.612732 92.0
159.663025 172.0
159.711578 52.0
159.735962 124.0
159.771179 128.0
159.834076 96.0
159.869308 108.0
159.886917 136.0
159.915985 132.0
160.03949 184.0
160.063141 132.0
160.084625 92.0
160.158829 40.0
160.191513 156.0
160.201065 152.0
160.207367 120.0
160.217651 184.0
160.287125 108.0
160.292053 100.0
160.384033 180.0
160.405762 172.0
160.443588 44.0
160.483917 116.0
160.525757 108.0
160.546387 284.0
160.597397 156.0
160.649399 208.0
160.688217 120.0
160.775391 312.0
160.779526 216.0
160.82196 204.0
160.847198 88.0
160.912827 148.0
160.9608 140.0
161.050949 92.0
161.069611 152.0
161.097183 120.0
161.137604 88.0
161.155289 132.0
161.18309 144.0
161.208359 160.0
161.248795 132.0
161.362549 160.0
161.3853 216.0
161.410583 212.0
161.537033 40.0
161.570969 200.0
161.631317 136.0
161.732605 172.0
161.757904 172.0
161.774902 96.0
161.860992 60.0
161.878708 80.0
161.898972 196.0
161.936966 180.0
161.98317 116.0
162.06073 144.0
162.126968 148.0
162.174774 232.0
162.195404 212.0
162.246094 176.0
162.294266 160.0
162.313812 264.0
162.424591 124.0
162.439758 76.0
162.478546 164.0
162.488159 108.0
162.5327 44.0
162.551804 132.0
162.585983 96.0
162.644363 92.0
162.67308 64.0
162.728134 100.0
162.748444 148.0
162.780136 128.0
162.806854 96.0
162.829697 92.0
162.850021 124.0
162.876846 108.0
162.905899 172.0
163.030396 48.0
163.066315 216.0
163.099243 188.0
163.254105 56.0
163.297348 120.0
163.360931 132.0
163.396545 180.0
163.480301 148.0
163.593704 152.0
163.676178 180.0
163.727448 144.0
163.79538 184.0
163.826782 128.0
163.871307 144.0
163.912277 144.0
163.956726 80.0
163.992416 144.0
164.020447 180.0
164.082428 140.0
164.107117 204.0
164.124969 200.0
164.163223 164.0
164.183624 76.0
164.204025 300.0
164.234634 120.0
164.252487 44.0
164.316254 116.0
164.351974 88.0
164.398956 136.0
164.504089 240.0
164.535202 152.0
164.568939 76.0
164.609787 108.0
164.671082 288.0
164.745148 268.0
164.782532 192.0
164.89183 168.0
164.972595 48.0
165.017731 184.0
165.063019 272.0
165.090195 76.0
165.111938 104.0
165.141357 156.0
165.159256 180.0
165.253906 112.0
165.325546 100.0
165.34346 224.0
165.484253 188.0
165.5457 128.0
165.574753 128.0
165.596924 60.0
165.635345 108.0
165.664322 64.0
165.696823 96.0
165.755753 116.0
165.778824 140.0
165.796753 52.0
165.858276 188.0
165.965942 132.0
166.019791 172.0
166.081345 144.0
166.116043 104.0
166.139404 88.0
166.159576 112.0
166.221558 256.0
166.273773 56.0
166.376434 140.0
166.42009 132.0
166.443192 124.0
166.509567 156.0
166.542664 208.0
166.599869 84.0
166.67041 112.0
166.736038 48.0
166.810577 148.0
166.851715 220.0
166.872284 104.0
166.95369 320.0
166.993134 100.0
167.01886 136.0
167.049728 140.0
167.080597 68.0
167.155212 96.0
167.193817 164.0
167.237564 112.0
167.296768 60.0
167.332809 88.0
167.383072 92.0
167.418762 188.0
167.44783 312.0
167.492477 64.0
167.513077 160.0
167.533691 136.0
167.551727 252.0
167.587784 92.0
167.636749 136.0
167.910004 136.0
167.931458 96.0
168.00029 112.0
168.107483 132.0
168.178329 100.0
168.219635 100.0
168.328064 60.0
168.431366 156.0
168.506287 80.0
168.547623 172.0
168.57196 164.0
168.723373 108.0
168.785431 92.0
168.818085 140.0
168.850082 88.0
168.885269 264.0
168.912155 128.0
169.031158 92.0
169.055573 260.0
169.135727 180.0
169.168335 76.0
169.194229 108.0
169.235641 40.0
169.290024 168.0
169.321106 96.0
169.354767 60.0
169.378006 152.0
169.435074 92.0
169.559448 100.0
169.614105 140.0
169.722763 176.0
169.748825 152.0
169.772034 140.0
169.823898 160.0
169.84465 112.0
169.930252 48.0
169.995117 200.0
170.087418 200.0
170.109314 156.0
170.140472 120.0
170.16124 84.0
170.226898 180.0
170.257309 48.0
170.324844 124.0
170.349625 156.0
170.452148 80.0
170.488525 100.0
170.629013 80.0
170.652283 116.0
170.682632 292.0
170.706894 192.0
170.748489 40.0
170.826523 72.0
170.870758 72.0
170.894165 192.0
170.961823 96.0
171.050308 132.0
171.071136 116.0
171.115387 56.0
171.133621 128.0
171.31366 124.0
171.349792 204.0
171.41333 72.0
171.435776 116.0
171.540024 92.0
171.668457 156.0
171.688644 92.0
171.725082 132.0
171.829498 108.0
172.042816 92.0
172.069611 184.0
172.111908 136.0
172.239349 88.0
172.323318 84.0
172.364365 84.0
172.406555 180.0
172.432693 188.0
172.469284 196.0
172.487579 164.0
172.525131 176.0
172.667984 40.0
172.718811 104.0
172.824936 144.0
172.969772 176.0
173.002747 144.0
173.048645 68.0
173.082611 172.0
173.108444 104.0
173.165253 128.0
173.220886 116.0
173.26741 100.0
173.324768 152.0
173.386383 148.0
173.445602 228.0
173.490158 108.0
173.536713 164.0
173.592422 40.0
173.654587 136.0
173.692078 144.0
173.762909 144.0
173.791763 68.0
173.823257 80.0
173.883743 84.0
173.991226 44.0
174.070663 212.0
174.104141 168.0
174.13121 156.0
174.190811 120.0
174.223099 152.0
174.245972 236.0
174.290649 116.0
174.395767 132.0
174.472 288.0
174.529831 64.0
174.556122 76.0
174.615341 124.0
174.626602 180.0
174.706039 248.0
174.729721 100.0
174.787827 324.0
174.813873 208.0
174.861282 128.0
174.884979 120.0
174.903397 108.0
174.954437 204.0
175.002014 140.0
175.083801 128.0
175.121201 156.0
175.180191 104.0
175.229935 140.0
175.253662 120.0
175.35907 228.0
175.386261 188.0
175.498779 96.0
175.519867 108.0
175.549423 136.0
175.612167 136.0
175.730881 92.0
175.778366 104.0
175.865463 152.0
175.910339 136.0
175.992935 252.0
176.052902 252.0
176.080475 116.0
176.200821 108.0
176.235168 144.0
176.314438 112.0
176.335236 152.0
176.362015 160.0
176.510986 184.0
176.662109 212.0
176.721664 104.0
176.744598 216.0
176.82486 156.0
176.846039 60.0
176.892288 236.0
176.994019 192.0
177.075851 600.0
177.116364 168.0
177.139954 160.0
177.187637 84.0
177.227371 136.0
177.293625 128.0
177.388229 148.0
177.415543 144.0
177.444702 72.0
177.473877 96.0
177.526901 160.0
177.550781 108.0
177.57608 192.0
177.614426 120.0
177.670135 184.0
177.696671 148.0
177.74527 112.0
177.817291 140.0
177.866501 84.0
177.916946 152.0
177.956757 116.0
177.976471 132.0
178.089325 204.0
178.124069 124.0
178.198456 60.0
178.280823 120.0
178.310059 100.0
178.49881 152.0
178.556839 160.0
178.613159 76.0
178.639755 100.0
178.663712 84.0
178.729019 140.0
178.783432 140.0
178.802063 48.0
178.84465 96.0
178.869583 120.0
178.925232 104.0
178.964447 108.0
179.0177 188.0
179.039001 112.0
179.070969 104.0
179.091263 252.0
179.133499 100.0
179.1642 176.0
179.193497 108.0
179.234619 148.0
179.278763 132.0
179.334732 132.0
179.359955 116.0
179.379959 140.0
179.426178 156.0
179.462692 100.0
179.513275 128.0
179.540024 88.0
179.565781 152.0
179.596024 108.0
179.630707 236.0
179.670715 176.0
179.694733 124.0
179.732086 268.0
179.854843 132.0
179.898407 112.0
179.92424 108.0
179.950943 132.0
179.998489 148.0
180.017456 220.0
180.057755 120.0
180.125992 132.0
180.193985 80.0
180.244232 104.0
180.289017 116.0
180.296478 124.0
180.335983 172.0
180.383728 192.0
180.407776 144.0
180.463608 168.0
180.544144 80.0
180.637756 104.0
180.77153 128.0
180.887207 108.0
180.906799 156.0
180.961578 92.0
181.069031 188.0
181.104034 400.0
181.133133 124.0
181.253525 232.0
181.299561 288.0
181.328552 112.0
181.457397 188.0
181.489395 184.0
181.563614 164.0
181.634216 128.0
181.678482 64.0
181.698593 64.0
181.733475 120.0
181.754944 140.0
181.783691 140.0
181.851547 128.0
181.88913 132.0
181.942871 252.0
182.001877 84.0
182.050217 208.0
182.118484 204.0
182.138153 124.0
182.351105 180.0
182.406006 168.0
182.421738 100.0
182.450562 132.0
182.504333 92.0
182.547348 100.0
182.568863 92.0
182.618576 128.0
182.668381 112.0
182.735641 108.0
182.871429 112.0
182.902481 112.0
182.924011 160.0
182.959015 184.0
183.012863 84.0
183.085556 116.0
183.174438 76.0
183.315536 264.0
183.395386 88.0
183.416962 84.0
183.452515 248.0
183.50322 40.0
183.562546 128.0
183.601135 128.0
183.631729 216.0
183.6866 168.0
183.708176 124.0
183.764832 44.0
183.796082 148.0
183.84433 208.0
183.87294 184.0
183.901215 144.0
184.02124 92.0
184.094147 72.0
184.131943 72.0
184.150848 72.0
184.172455 220.0
184.196777 108.0
184.412933 116.0
184.437256 80.0
184.458878 68.0
184.526489 180.0
184.556198 152.0
184.618393 144.0
184.707657 208.0
184.730881 144.0
184.774216 156.0
184.859238 124.0
185.00531 176.0
185.062164 68.0
185.132568 132.0
185.200272 112.0
185.219238 100.0
185.286957 156.0
185.305923 188.0
185.349274 112.0
185.376373 76.0
185.454971 84.0
185.491028 120.0
185.5354 164.0
185.601349 152.0
185.63118 76.0
185.796631 152.0
185.837326 48.0
185.859039 88.0
185.878021 172.0
185.924103 172.0
185.970383 136.0
186.017609 168.0
186.04631 144.0
186.068024 80.0
186.212265 164.0
186.243622 144.0
186.268723 128.0
186.347763 104.0
186.372208 44.0
186.396667 160.0
186.426559 80.0
186.480911 184.0
186.508087 144.0
186.532562 88.0
186.573334 32.0
186.602493 160.0
186.627701 92.0
186.740616 192.0
186.774551 52.0
186.845291 144.0
186.888824 168.0
186.907867 160.0
186.952042 172.0
186.973175 156.0
187.005829 116.0
187.067017 140.0
187.098923 292.0
187.22934 84.0
187.25087 132.0
187.348923 132.0
187.3909 216.0
187.449738 112.0
187.47699 100.0
187.536942 52.0
187.56192 144.0
187.584686 124.0
187.591461 76.0
187.629623 112.0
187.659607 116.0
187.703232 64.0
187.730515 132.0
187.755051 60.0
187.8396 168.0
187.88652 100.0
187.94873 128.0
187.975876 152.0
188.083679 160.0
188.127594 104.0
188.146912 144.0
188.301941 124.0
188.350037 124.0
188.418335 84.0
188.490616 88.0
188.519424 56.0
188.553238 172.0
188.587753 164.0
188.65062 108.0
188.680695 196.0
188.708038 60.0
188.735382 104.0
188.756393 128.0
188.811935 120.0
188.839294 88.0
188.875824 208.0
188.907318 156.0
188.930313 188.0
188.956909 92.0
188.994019 160.0
189.039001 64.0
189.083893 256.0
189.115936 140.0
189.189468 168.0
189.230606 164.0
189.342346 188.0
189.413666 104.0
189.569092 152.0
189.59491 304.0
189.625061 132.0
189.670517 192.0
189.819702 52.0
189.896652 132.0
189.932144 44.0
189.975922 196.0
190.094528 536.0
190.167496 180.0
190.247711 124.0
190.275162 120.0
190.308105 68.0
190.332825 324.0
190.382248 152.0
190.423447 72.0
190.468307 120.0
190.500351 92.0
190.566437 140.0
190.645966 160.0
190.689941 136.0
190.72467 140.0
190.795624 116.0
190.835632 168.0
190.879623 104.0
190.927704 184.0
190.995132 168.0
191.019897 148.0
191.093262 660.0
191.147003 80.0
191.201477 364.0
191.269684 36.0
191.297821 156.0
191.410706 88.0
191.551163 72.0
191.577606 160.0
191.597992 96.0
191.67514 96.0
191.724731 144.0
191.74678 128.0
191.792542 100.0
191.810532 184.0
191.84317 140.0
191.906662 48.0
191.934235 140.0
191.972839 144.0
192.039032 172.0
192.08812 216.0
192.119705 208.0
192.154892 168.0
192.213318 112.0
192.248703 144.0
192.270523 172.0
192.306656 88.0
192.355133 144.0
192.375656 92.0
192.407913 200.0
192.671677 176.0
192.759567 100.0
192.796478 112.0
192.804398 144.0
192.829971 92.0
192.896759 100.0
192.928162 164.0
193.007202 176.0
193.043793 156.0
193.048264 128.0
193.095901 396.0
193.13002 80.0
193.199173 168.0
193.240677 128.0
193.301544 164.0
193.331985 96.0
193.375122 252.0
193.404892 128.0
193.501114 196.0
193.534058 128.0
193.570053 132.0
193.639282 132.0
193.67157 152.0
193.747314 92.0
193.771698 100.0
193.818085 176.0
193.8526 80.0
193.915421 168.0
193.941284 80.0
193.968994 132.0
194.016129 120.0
194.042465 120.0
194.082504 388.0
194.149979 188.0
194.1819 92.0
194.218552 132.0
194.249069 96.0
194.333817 336.0
194.37114 72.0
194.418304 128.0
194.444595 108.0
194.4879 212.0
194.52655 256.0
194.593185 108.0
194.626495 100.0
194.693146 156.0
194.726471 136.0
194.754242 132.0
194.812851 120.0
194.893143 128.0
194.947235 240.0
194.968857 148.0
195.034882 236.0
195.061462 140.0
195.092224 184.0
195.123825 112.0
195.151642 140.0
195.183945 168.0
195.204468 124.0
195.279556 68.0
195.376907 184.0
195.419113 116.0
195.549423 212.0
195.577255 140.0
195.646851 136.0
195.669128 140.0
195.687683 256.0
195.797638 184.0
195.829239 128.0
195.874405 112.0
195.910538 140.0
195.955978 88.0
196.034286 120.0
196.098099 176.0
196.243057 176.0
196.272247 164.0
196.329498 208.0
196.368546 96.0
196.390854 76.0
196.466843 132.0
196.505219 108.0
196.533127 152.0
196.619629 80.0
196.669876 164.0
196.815033 68.0
196.865295 144.0
196.883179 88.0
196.932327 112.0
197.04126 136.0
197.090912 152.0
197.122299 128.0
197.178192 152.0
197.206558 244.0
197.2285 144.0
197.254654 156.0
197.284393 120.0
197.37529 228.0
197.418457 232.0
197.449371 188.0
197.488525 36.0
197.598404 100.0
197.706741 156.0
197.757126 108.0
197.776718 200.0
197.827103 140.0
197.877487 88.0
197.944687 172.0
197.981735 104.0
198.006302 120.0
198.076324 116.0
198.095932 104.0
198.133179 148.0
198.198944 156.0
198.252838 128.0
198.345535 104.0
198.373352 128.0
198.430634 184.0
198.477341 132.0
198.509247 140.0
198.545441 192.0
198.608887 252.0
198.636337 148.0
198.726715 192.0
198.774414 260.0
198.829102 156.0
198.931 136.0
198.967285 112.0
199.027039 100.0
199.073196 132.0
199.094437 136.0
199.150604 76.0
199.249817 304.0
199.303055 104.0
199.314133 132.0
199.434372 240.0
199.474091 92.0
199.5159 104.0
199.54248 228.0
199.611496 84.0
199.659302 176.0
199.691498 116.0
199.719498 212.0
199.80838 116.0
199.840836 112.0
199.874283 160.0
199.890945 104.0
200.016617 128.0
200.086319 132.0
200.132034 156.0
200.25032 168.0
200.281296 152.0
200.337631 72.0
200.402435 112.0
200.458786 100.0
200.609543 172.0
200.644806 104.0
200.692734 100.0
200.718109 116.0
200.737854 144.0
200.757599 68.0
200.791107 104.0
200.825287 104.0
200.915543 92.0
200.957657 168.0
201.010284 120.0
201.040207 156.0
201.087357 176.0
201.130005 28.0
201.180817 140.0
201.214691 92.0
201.320801 116.0
201.432144 52.0
201.543625 136.0
201.644058 168.0
201.690216 144.0
201.749588 168.0
201.808014 112.0
201.830627 164.0
201.859436 236.0
201.926773 164.0
201.971725 76.0
202.038818 124.0
202.084518 352.0
202.130463 72.0
202.164413 148.0
202.215347 112.0
202.286118 164.0
202.338547 92.0
202.35817 144.0
202.45755 196.0
202.479858 168.0
202.557953 136.0
202.578079 160.0
202.676941 124.0
202.726334 140.0
202.783768 92.0
202.814651 176.0
202.844147 148.0
202.932037 112.0
202.967926 140.0
202.997253 124.0
203.019943 108.0
203.049881 200.0
203.103592 324.0
203.172394 112.0
203.214554 164.0
203.292114 140.0
203.354706 132.0
203.445541 104.0
203.557449 192.0
203.584656 180.0
203.612671 204.0
203.675552 72.0
203.696808 152.0
203.756088 164.0
203.786331 112.0
203.831528 208.0
203.860214 76.0
203.934113 104.0
203.988113 136.0
204.010849 52.0
204.050659 80.0
204.098984 396.0
204.172928 60.0
204.224121 132.0
204.244034 156.0
204.263931 176.0
204.29808 100.0
204.332214 116.0
204.386276 148.0
204.417572 320.0
204.471649 116.0
204.517181 108.0
204.560913 336.0
204.622513 84.0
204.665207 92.0
204.690842 212.0
204.726151 240.0
204.779129 128.0
204.810455 232.0
204.828964 168.0
204.932953 124.0
204.962158 208.0
205.002304 164.0
205.101746 376.0
205.139267 172.0
205.172348 100.0
205.249329 164.0
205.269287 96.0
205.306366 200.0
205.337738 104.0
205.360138 168.0
205.426147 96.0
205.453659 112.0
205.506195 144.0
205.534561 216.0
205.557388 128.0
205.643005 112.0
205.671555 104.0
205.731491 112.0
205.794312 112.0
205.818573 104.0
205.866928 104.0
205.908524 160.0
205.95993 152.0
206.002777 76.0
206.03421 116.0
206.054199 44.0
206.101212 816.0
206.133347 184.0
206.188507 80.0
206.228516 156.0
206.254242 96.0
206.294266 132.0
206.319992 136.0
206.445801 96.0
206.512268 148.0
206.536606 128.0
206.545181 96.0
206.555969 200.0
206.605972 112.0
206.637436 116.0
206.671768 48.0
206.720413 200.0
206.776672 116.0
206.829178 160.0
206.933655 136.0
206.966583 96.0
207.038177 188.0
207.106491 220.0
207.127106 364.0
207.149872 176.0
207.178528 144.0
207.218628 44.0
207.285873 136.0
207.318924 136.0
207.357086 100.0
207.413498 124.0
207.444244 200.0
207.528168 168.0
207.556839 92.0
207.594116 136.0
207.614197 116.0
207.737518 108.0
207.817856 168.0
207.869507 112.0
207.892456 92.0
207.924377 192.0
208.010132 28.0
208.056061 136.0
208.084244 216.0
208.107025 512.0
208.145065 132.0
208.176651 128.0
208.211121 64.0
208.257858 272.0
208.282745 196.0
208.307678 188.0
208.4048 84.0
208.474747 156.0
208.522781 116.0
208.653625 84.0
208.708252 144.0
208.731247 156.0
208.76001 48.0
208.791641 132.0
208.81752 28.0
208.883682 64.0
208.909561 140.0
208.975739 168.0
209.051712 128.0
209.063614 156.0
209.092194 176.0
209.11882 212.0
209.133163 68.0
209.180786 128.0
209.217484 148.0
209.305634 188.0
209.338409 140.0
209.358566 92.0
209.459381 192.0
209.525635 52.0
209.623596 112.0
209.643768 136.0
209.675156 76.0
209.703415 132.0
209.725342 132.0
209.773468 156.0
209.799408 136.0
209.847321 140.0
209.906082 168.0
209.946457 164.0
209.986832 84.0
210.007019 140.0
210.07048 120.0
210.093552 72.0
210.180115 100.0
210.214737 68.0
210.248459 76.0
210.28978 164.0
210.344284 140.0
210.366043 352.0
210.393692 116.0
210.449554 156.0
210.496597 56.0
210.546722 196.0
210.596481 144.0
210.676697 60.0
210.711365 184.0
210.760483 68.0
210.800934 104.0
210.878967 140.0
210.919434 60.0
210.9599 192.0
211.020615 192.0
211.088333 180.0
211.146667 148.0
211.195663 112.0
211.285095 168.0
211.327194 100.0
211.408203 72.0
211.489136 104.0
211.589218 148.0
211.664337 100.0
211.71167 116.0
211.755615 104.0
211.793259 260.0
211.964188 128.0
211.996704 236.0
212.080109 224.0
212.338928 148.0
212.375763 120.0
212.398926 252.0
212.475861 132.0
212.497696 128.0
212.546204 100.0
212.562897 136.0
212.613754 104.0
212.693497 152.0
212.74437 288.0
212.770004 196.0
212.828568 112.0
212.857605 140.0
212.918579 168.0
212.988724 212.0
213.017334 112.0
213.065811 244.0
213.119019 96.0
213.153885 92.0
213.185852 52.0
213.233887 264.0
213.257477 132.0
213.310822 76.0
213.334091 84.0
213.418396 40.0
213.447479 204.0
213.482361 92.0
213.578339 144.0
213.597488 100.0
213.648148 280.0
213.674332 100.0
213.728058 120.0
213.74707 232.0
213.809189 100.0
213.871857 128.0
213.950729 140.0
213.993668 144.0
214.101456 152.0
214.134262 80.0
214.242035 124.0
214.314865 148.0
214.40094 164.0
214.451828 104.0
214.475143 32.0
214.515961 100.0
214.539139 164.0
214.549973 156.0
214.667557 144.0
214.71051 44.0
214.750443 76.0
214.781311 144.0
214.80835 104.0
214.827972 208.0
214.873383 128.0
214.884872 72.0
214.896606 92.0
214.907822 120.0
214.91893 136.0
214.974426 160.0
215.008881 84.0
215.061417 208.0
215.100906 612.0
215.134537 104.0
215.175262 108.0
215.292053 220.0
215.341705 148.0
215.435181 160.0
215.481918 52.0
215.531586 76.0
215.575424 144.0
215.628601 140.0
215.809265 136.0
215.853119 160.0
215.901672 172.0
215.93869 152.0
215.984726 108.0
216.060776 128.0
216.101028 528.0
216.188599 76.0
216.219788 152.0
216.283173 96.0
216.321228 128.0
216.419678 80.0
216.471298 140.0
216.505615 148.0
216.555481 136.0
216.598434 108.0
216.630768 352.0
216.663849 188.0
216.704803 188.0
216.751755 124.0
216.807434 92.0
216.842606 44.0
216.904144 168.0
216.938171 184.0
216.974503 184.0
217.094849 440.0
217.168045 144.0
217.214096 120.0
217.250168 112.0
217.28537 60.0
217.320312 140.0
217.40274 132.0
217.435028 136.0
217.463318 112.0
217.514267 128.0
217.534821 84.0
217.581787 132.0
217.602341 128.0
217.743408 92.0
217.778534 152.0
217.84903 60.0
217.910721 128.0
217.995926 112.0
218.051773 148.0
218.105682 580.0
218.146881 144.0
218.203278 168.0
218.294067 124.0
218.315506 188.0
218.343597 136.0
218.375168 36.0
218.448715 64.0
218.473984 164.0
218.507553 184.0
218.58699 156.0
218.645844 80.0
218.689987 112.0
218.731201 56.0
218.786392 80.0
218.854843 72.0
218.901962 76.0
218.954956 128.0
219.010925 284.0
219.033096 160.0
219.117599 556.0
219.199463 140.0
219.272629 136.0
219.305557 128.0
219.329147 100.0
219.349777 168.0
219.375519 136.0
219.450012 104.0
219.520782 104.0
219.559113 124.0
219.587387 164.0
219.632843 184.0
219.653488 80.0
219.697739 180.0
219.735031 144.0
219.80986 132.0
219.848221 56.0
219.895432 76.0
219.929276 180.0
220.011917 108.0
220.060745 128.0
220.091751 272.0
220.117203 808.0
220.193192 108.0
220.314728 108.0
220.335419 196.0
220.356094 184.0
220.43367 124.0
220.578659 204.0
220.693024 156.0
220.766953 184.0
220.894135 168.0
220.925735 152.0
221.008163 360.0
221.102051 236.0
221.177536 108.0
221.231094 124.0
221.299576 76.0
221.397278 124.0
221.490906 132.0
221.525253 196.0
221.5513 160.0
221.596603 288.0
221.649078 140.0
221.692215 136.0
221.749832 92.0
221.773544 136.0
221.803802 76.0
221.848816 92.0
221.883224 64.0
221.927704 52.0
221.966248 192.0
222.001831 132.0
222.067795 132.0
222.118439 272.0
222.250992 76.0
222.289566 92.0
222.331116 92.0
222.387497 128.0
222.491394 36.0
222.538895 120.0
222.562653 152.0
222.595322 356.0
222.630951 132.0
222.666656 180.0
222.70816 112.0
222.728958 124.0
222.764328 128.0
222.789124 148.0
222.922073 120.0
223.035004 112.0
223.084503 164.0
223.133102 32.0
223.175491 140.0
223.186615 108.0
223.254791 236.0
223.334549 156.0
223.371582 144.0
223.400757 160.0
223.462036 100.0
223.498062 164.0
223.540588 172.0
223.603088 124.0
223.666595 132.0
223.775162 124.0
223.795288 232.0
223.879959 80.0
223.927994 208.0
223.951431 112.0
223.972275 180.0
224.000687 124.0
224.063065 184.0
224.098053 100.0
224.124222 100.0
224.154526 224.0
224.204498 144.0
224.291885 156.0
224.335815 164.0
224.36264 124.0
224.407516 164.0
224.434204 88.0
224.505768 156.0
224.550507 100.0
224.580322 164.0
224.612488 184.0
224.648926 144.0
224.681747 168.0
224.711578 104.0
224.732468 84.0
224.783188 136.0
224.81601 100.0
224.854813 60.0
224.955826 268.0
225.013016 108.0
225.048843 172.0
225.100479 136.0
225.153351 148.0
225.180237 128.0
225.204041 148.0
225.264511 148.0
225.326599 132.0
225.362457 168.0
225.419891 180.0
225.447922 140.0
225.45401 100.0
225.465576 204.0
225.520844 112.0
225.551926 140.0
225.598633 164.0
225.642563 128.0
225.724121 196.0
225.753662 128.0
225.804871 120.0
225.837769 156.0
225.871552 136.0
225.894608 256.0
226.029236 160.0
226.068039 124.0
226.099655 172.0
226.129059 300.0
226.152008 148.0
226.247711 84.0
226.277649 84.0
226.316574 108.0
226.365524 92.0
226.377243 124.0
226.424377 136.0
226.475296 164.0
226.511246 116.0
226.545334 304.0
226.6008 76.0
226.62619 108.0
226.710434 156.0
226.717651 76.0
226.728424 148.0
226.773819 124.0
226.822876 128.0
226.885086 164.0
226.918793 100.0
227.02655 192.0
227.102768 184.0
227.143723 152.0
227.175323 260.0
227.203079 284.0
227.263855 84.0
227.296722 148.0
227.329727 100.0
227.374741 216.0
227.401749 140.0
227.45578 80.0
227.476791 160.0
227.511734 136.0
227.542831 156.0
227.575867 68.0
227.596878 100.0
227.695984 192.0
227.735748 148.0
227.768066 184.0
227.804108 140.0
227.844421 76.0
227.905182 156.0
227.917068 100.0
227.949951 148.0
227.975372 148.0
228.020447 128.0
228.11171 244.0
228.265854 132.0
228.298477 124.0
228.328247 144.0
228.387527 176.0
228.46846 72.0
228.543686 92.0
228.639969 80.0
228.679092 88.0
228.707718 124.0
228.733276 192.0
228.772568 156.0
228.810349 60.0
228.865738 108.0
228.892365 152.0
228.897644 128.0
228.91922 176.0
228.968124 124.0
229.025345 84.0
229.071686 220.0
229.084427 352.0
229.119659 468.0
229.154297 124.0
229.203278 192.0
229.234894 216.0
229.269394 188.0
229.320618 224.0
229.347748 156.0
229.384857 116.0
229.411392 208.0
229.492447 64.0
229.51355 136.0
229.554962 120.0
229.59021 180.0
229.63472 88.0
229.706573 172.0
229.750183 128.0
229.771423 128.0
229.83931 136.0
229.886917 144.0
229.996246 148.0
230.017365 156.0
230.078461 188.0
230.116653 476.0
230.148834 252.0
230.195496 136.0
230.266998 124.0
230.307236 56.0
230.340469 104.0
230.503616 220.0
230.53685 92.0
230.563934 120.0
230.612259 236.0
230.642624 72.0
230.690994 184.0
230.735718 116.0
230.769592 168.0
230.802902 264.0
230.83493 132.0
230.918533 80.0
230.978256 148.0
231.011841 120.0
231.110321 444.0
231.168869 164.0
231.306763 164.0
231.353485 140.0
231.433716 144.0
231.465515 156.0
231.493393 124.0
231.583618 120.0
231.627426 148.0
231.722961 168.0
231.800552 104.0
231.846207 140.0
231.895691 148.0
231.961929 184.0
231.987915 188.0
232.074539 124.0
232.124359 744.0
232.16629 236.0
232.223129 156.0
232.280014 120.0
232.35054 48.0
232.435486 152.0
232.469635 96.0
232.493149 60.0
232.514389 140.0
232.620621 72.0
232.660645 108.0
232.708664 188.0
232.778503 104.0
232.802795 152.0
232.863525 276.0
232.884796 64.0
232.938004 116.0
232.960724 140.0
233.000229 156.0
233.073135 172.0
233.114166 456.0
233.166199 96.0
233.2099 96.0
233.234207 124.0
233.258621 128.0
233.309769 56.0
233.367783 192.0
233.452194 160.0
233.538269 172.0
233.593018 124.0
233.632568 172.0
233.790054 100.0
233.830338 168.0
233.875992 84.0
234.068893 244.0
234.126938 752.0
234.189606 80.0
234.247482 156.0
234.269012 116.0
234.306519 172.0
234.335831 148.0
234.363251 80.0
234.446594 284.0
234.489899 132.0
234.509521 168.0
234.56134 304.0
234.590607 160.0
234.686325 76.0
234.721558 104.0
234.760178 92.0
234.83316 136.0
234.896759 80.0
234.985229 180.0
235.021835 108.0
235.046249 100.0
235.108383 536.0
235.164154 120.0
235.223267 52.0
235.287369 236.0
235.347351 124.0
235.375916 40.0
235.406448 164.0
235.498062 120.0
235.51944 156.0
235.55809 128.0
235.592758 132.0
235.620255 48.0
235.650803 112.0
235.685715 160.0
235.718018 196.0
235.73941 168.0
235.770782 152.0
235.871429 164.0
235.968338 112.0
236.021912 124.0
236.114883 468.0
236.165802 136.0
236.194962 72.0
236.242371 160.0
236.269852 272.0
236.326508 120.0
236.36644 200.0
236.42691 216.0
236.491745 76.0
236.546616 164.0
236.600693 172.0
236.636932 252.0
236.689163 132.0
236.718292 92.0
236.798218 204.0
236.907211 164.0
236.933945 148.0
236.990906 96.0
237.026138 112.0
237.049133 156.0
237.124817 436.0
237.160156 156.0
237.248474 104.0
237.32193 76.0
237.370987 248.0
237.426193 124.0
237.456863 96.0
237.4814 164.0
237.558075 48.0
237.616364 124.0
237.647461 160.0
237.686935 180.0
237.732956 64.0
237.785126 96.0
237.837448 176.0
237.931213 136.0
237.97084 88.0
238.049149 64.0
238.073715 104.0
238.095215 172.0
238.126007 156.0
238.157837 112.0
238.165573 44.0
238.184631 172.0
238.212921 192.0
238.251862 144.0
238.282578 232.0
238.371689 192.0
238.414703 204.0
238.436218 144.0
238.528275 168.0
238.639099 56.0
238.695175 184.0
238.749802 204.0
238.808228 164.0
238.852478 124.0
238.909744 56.0
238.949036 160.0
238.999496 320.0
239.05835 112.0
239.102661 244.0
239.12915 216.0
239.192398 164.0
239.223618 136.0
239.258957 144.0
239.288269 116.0
239.334457 160.0
239.374481 228.0
239.44223 276.0
239.577759 100.0
239.599335 132.0
239.621506 160.0
239.679428 60.0
239.724915 132.0
239.76445 136.0
239.867432 104.0
239.898254 116.0
239.927719 308.0
240.014481 172.0
240.042389 64.0
240.047501 108.0
240.094788 104.0
240.114792 132.0
240.15419 220.0
240.175781 152.0
240.229721 164.0
240.249802 260.0
240.276505 172.0
240.308426 112.0
240.342361 156.0
240.407166 108.0
240.445221 192.0
240.468414 104.0
240.575043 112.0
240.638672 148.0
240.660278 96.0
240.697327 284.0
240.768356 120.0
240.817764 148.0
240.857925 160.0
240.879547 104.0
240.92897 80.0
240.972229 52.0
241.003128 68.0
241.06366 192.0
241.117233 228.0
241.16217 128.0
241.211777 140.0
241.244995 184.0
241.290558 68.0
241.321472 96.0
241.398773 128.0
241.447571 164.0
241.479187 104.0
241.517426 220.0
241.578354 132.0
241.698822 140.0
241.735947 104.0
241.830246 152.0
241.860977 120.0
241.887604 120.0
241.980469 104.0
242.019791 132.0
242.060974 80.0
242.130447 304.0
242.167953 192.0
242.238846 56.0
242.309113 108.0
242.373825 132.0
242.398621 76.0
242.438187 104.0
242.445755 132.0
242.485397 92.0
242.598495 108.0
242.618683 212.0
242.665176 104.0
242.689987 88.0
242.717896 72.0
242.80162 100.0
242.845032 96.0
242.876053 88.0
242.903976 88.0
243.007965 176.0
243.03096 124.0
243.062454 124.0
243.105362 432.0
243.130325 488.0
243.183228 144.0
243.267029 164.0
243.329254 96.0
243.357697 316.0
243.38707 116.0
243.441147 180.0
243.52005 148.0
243.599304 160.0
243.639679 184.0
243.700027 180.0
243.728424 164.0
243.779495 132.0
243.823013 172.0
243.941116 72.0
243.977432 164.0
244.049927 144.0
244.112152 308.0
244.137939 568.0
244.196091 88.0
244.278915 348.0
244.321442 120.0
244.376511 188.0
244.479034 168.0
244.517685 152.0
244.547592 172.0
244.572556 172.0
244.597458 284.0
244.641037 40.0
244.734436 164.0
244.768692 136.0
244.829666 184.0
244.87146 116.0
244.902603 128.0
244.945724 128.0
244.980469 148.0
245.019745 112.0
245.129974 856.0
245.137466 324.0
245.245331 148.0
245.312607 96.0
245.354431 88.0
245.471375 252.0
245.528641 152.0
245.539734 132.0
245.569916 116.0
245.615219 108.0
245.70372 56.0
245.728683 156.0
245.782043 116.0
245.809799 28.0
246.001495 140.0
246.061646 140.0
246.127151 776.0
246.20314 188.0
246.253113 160.0
246.409912 80.0
246.488037 116.0
246.521393 164.0
246.553024 112.0
246.603027 72.0
246.624908 184.0
246.688736 172.0
246.740417 156.0
246.808746 184.0
246.816376 148.0
246.833679 72.0
246.871902 96.0
246.896912 56.0
246.965866 84.0
247.012634 44.0
247.037659 72.0
247.068939 84.0
247.128525 944.0
247.176361 156.0
247.206146 160.0
247.313553 140.0
247.373901 204.0
247.417984 196.0
247.446396 172.0
247.496475 100.0
247.518677 156.0
247.556595 180.0
247.66684 68.0
247.71051 292.0
247.755432 160.0
247.819412 68.0
247.876083 140.0
247.932159 140.0
247.995895 156.0
248.029709 84.0
248.126999 1068.0
248.293671 144.0
248.318756 36.0
248.351868 144.0
248.40007 52.0
248.443512 124.0
248.455856 96.0
248.497559 180.0
248.63562 92.0
248.712219 188.0
248.748611 48.0
248.830231 112.0
248.874191 132.0
248.909744 312.0
248.950851 148.0
248.998978 92.0
249.023834 160.0
249.080627 408.0
249.120239 472.0
249.200836 84.0
249.26416 160.0
249.294769 76.0
249.312515 148.0
249.366638 84.0
249.474258 92.0
249.526276 176.0
249.587433 152.0
249.618881 164.0
249.647186 172.0
249.668381 136.0
249.69751 180.0
249.727509 140.0
249.851639 88.0
249.898819 120.0
249.942871 164.0
249.980637 112.0
250.021545 60.0
250.062454 164.0
250.084488 136.0
250.123413 680.0
250.156342 92.0
250.167618 156.0
250.210403 92.0
250.246735 156.0
250.333191 244.0
250.370987 160.0
250.411926 148.0
250.461411 136.0
250.524734 120.0
250.535522 184.0
250.567963 164.0
250.589539 200.0
250.634781 172.0
250.646713 128.0
250.689163 132.0
250.767944 76.0
250.820938 152.0
250.856201 184.0
250.903488 108.0
250.942245 124.0
251.004379 72.0
251.029617 100.0
251.076141 212.0
251.103119 196.0
251.136276 268.0
251.160095 128.0
251.194443 168.0
251.231476 116.0
251.365448 112.0
251.398697 148.0
251.454453 116.0
251.47905 208.0
251.528015 152.0
251.586899 132.0
251.621658 120.0
251.708054 144.0
251.76973 224.0
251.82489 160.0
251.862793 108.0
251.927414 184.0
251.951248 144.0
251.973358 164.0
252.030228 204.0
252.104446 260.0
252.133255 452.0
252.170029 116.0
252.192795 72.0
252.223007 92.0
252.349457 112.0
252.453796 156.0
252.482269 184.0
252.513885 164.0
252.546936 320.0
252.640411 56.0
252.696274 176.0
252.737701 112.0
252.748428 84.0
252.755325 124.0
252.78595 60.0
252.830261 132.0
252.877731 80.0
252.936035 180.0
252.986313 172.0
253.053909 192.0
253.12178 544.0
253.145172 316.0
253.237778 216.0
253.249466 156.0
253.344162 144.0
253.437103 156.0
253.463593 108.0
253.488937 64.0
253.564987 60.0
253.615707 164.0
253.655273 140.0
253.683441 184.0
253.732986 216.0
253.771042 160.0
253.833099 264.0
253.858032 92.0
253.885193 96.0
253.923248 88.0
253.986679 68.0
254.020737 244.0
254.10672 544.0
254.149109 260.0
254.212067 156.0
254.240494 156.0
254.261444 100.0
254.30191 80.0
254.335709 132.0
254.370499 96.0
254.392853 160.0
254.427765 124.0
254.483063 144.0
254.535721 124.0
254.582138 84.0
254.611664 148.0
254.700851 104.0
254.723724 220.0
254.749878 120.0
254.799332 52.0
254.821579 112.0
254.846985 100.0
254.932785 48.0
254.965668 92.0
254.999527 156.0
255.021774 124.0
255.053558 116.0
255.090134 244.0
255.128876 640.0
255.1707 108.0
255.231583 132.0
255.264694 92.0
255.314087 72.0
255.32872 116.0
255.390594 124.0
255.43512 168.0
255.49411 96.0
255.57193 164.0
255.594193 192.0
255.649124 224.0
255.699203 72.0
255.734222 92.0
255.762863 172.0
255.791519 188.0
255.832901 128.0
255.86792 116.0
255.898544 148.0
255.985718 132.0
256.024689 292.0
256.082214 132.0
256.122375 380.0
256.143341 284.0
256.186371 140.0
256.215057 152.0
256.262299 116.0
256.32019 132.0
256.348877 132.0
256.371185 228.0
256.399841 204.0
256.479523 100.0
256.508209 60.0
256.581543 80.0
256.625183 136.0
256.640839 60.0
256.649963 112.0
256.689941 160.0
256.723297 244.0
256.768707 172.0
256.804108 176.0
256.944977 104.0
257.00943 124.0
257.07843 112.0
257.127197 748.0
257.149506 744.0
257.213165 76.0
257.273834 132.0
257.305756 136.0
257.371307 164.0
257.413177 180.0
257.455811 64.0
257.480255 140.0
257.540833 168.0
257.602295 140.0
257.641083 48.0
257.663422 132.0
257.732697 148.0
257.820007 168.0
257.86795 56.0
257.903107 184.0
257.963104 104.0
257.974854 80.0
257.987579 140.0
258.016449 168.0
258.08551 124.0
258.145416 1492.0
258.269287 136.0
258.291931 132.0
258.302795 48.0
258.313293 260.0
258.364594 200.0
258.438995 104.0
258.488342 128.0
258.546906 188.0
258.736145 172.0
258.773224 60.0
258.81485 60.0
258.869263 120.0
258.936523 176.0
258.994354 228.0
259.045441 80.0
259.148621 1316.0
259.224854 40.0
259.26532 208.0
259.320587 124.0
259.4328 104.0
259.463226 120.0
259.542175 180.0
259.604645 316.0
259.63681 156.0
259.660828 132.0
259.688782 172.0
259.715363 116.0
259.795563 208.0
259.838409 132.0
259.858734 156.0
259.899506 180.0
259.923889 56.0
259.997681 128.0
260.021881 200.0
260.127563 1096.0
260.151306 868.0
260.21228 160.0
260.239166 176.0
260.280182 112.0
260.337982 100.0
260.378967 284.0
260.462982 100.0
260.467651 160.0
260.543549 128.0
260.604584 60.0
260.63028 76.0
260.700989 152.0
260.821655 220.0
260.85144 140.0
260.906677 140.0
260.987061 200.0
261.044952 188.0
261.137177 572.0
261.262939 220.0
261.294495 192.0
261.320648 204.0
261.356964 108.0
261.393738 84.0
261.46637 112.0
261.499512 148.0
261.527527 152.0
261.566132 96.0
261.627319 44.0
261.661072 124.0
261.704407 168.0
261.777679 192.0
261.81897 92.0
261.862366 112.0
261.917114 140.0
261.965424 280.0
261.987976 160.0
262.036316 192.0
262.141205 868.0
262.229645 148.0
262.268982 120.0
262.299866 128.0
262.352142 204.0
262.406952 200.0
262.447876 140.0
262.477875 148.0
262.579987 156.0
262.608887 244.0
262.629456 320.0
262.677826 144.0
262.701233 156.0
262.746582 144.0
262.826233 116.0
262.950684 156.0
263.066284 116.0
263.132019 620.0
263.188507 120.0
263.203094 92.0
263.210419 176.0
263.224915 148.0
263.252319 140.0
263.291077 156.0
263.400879 132.0
263.438965 204.0
263.494568 100.0
263.536591 76.0
263.574554 128.0
263.63028 180.0
263.665833 124.0
263.70816 292.0
263.742065 168.0
263.782196 128.0
263.814514 128.0
263.846832 124.0
263.956757 188.0
264.018219 192.0
264.059082 160.0
264.145294 524.0
264.185669 332.0
264.213623 116.0
264.238159 88.0
264.264038 144.0
264.341705 120.0
264.377289 108.0
264.434143 92.0
264.462463 196.0
264.496338 128.0
264.522522 212.0
264.579437 48.0
264.623291 116.0
264.68158 120.0
264.76004 172.0
264.868683 68.0
264.995758 80.0
265.029907 104.0
265.057312 124.0
265.139404 796.0
265.20755 124.0
265.27124 164.0
265.340363 208.0
265.399384 136.0
265.44101 204.0
265.468994 112.0
265.588989 140.0
265.62793 112.0
265.69928 124.0
265.782959 188.0
265.791718 148.0
265.807434 112.0
265.821381 152.0
265.893982 100.0
265.936157 72.0
265.963989 272.0
266.024567 152.0
266.056335 124.0
266.101715 108.0
266.133453 140.0
266.157745 280.0
266.241364 228.0
266.273834 212.0
266.353058 228.0
266.378998 256.0
266.407013 108.0
266.437225 120.0
266.465485 64.0
266.514221 80.0
266.582458 168.0
266.624695 108.0
266.66803 120.0
266.704559 172.0
266.7612 240.0
266.790466 144.0
266.871735 196.0
266.914612 132.0
267.049805 148.0
267.08313 96.0
267.137695 356.0
267.17746 136.0
267.268555 120.0
267.330383 116.0
267.358215 112.0
267.409454 148.0
267.476837 196.0
267.510681 164.0
267.592468 116.0
267.613556 168.0
267.674866 140.0
267.711243 188.0
267.754303 128.0
267.805695 108.0
267.896912 280.0
267.988129 116.0
268.019989 164.0
268.033325 128.0
268.042755 132.0
268.085876 144.0
268.132385 372.0
268.19281 128.0
268.201111 200.0
268.24884 88.0
268.303253 184.0
268.409088 128.0
268.545563 76.0
268.581421 120.0
268.622894 224.0
268.659729 72.0
268.803284 148.0
268.861023 132.0
268.907135 156.0
268.946869 156.0
268.976257 152.0
269.020233 168.0
269.042633 120.0
269.128937 212.0
269.142487 224.0
269.192688 160.0
269.215515 224.0
269.301666 132.0
269.361572 116.0
269.387695 76.0
269.427185 136.0
269.456299 104.0
269.506439 148.0
269.579834 144.0
269.639282 180.0
269.687469 316.0
269.729156 112.0
269.830505 176.0
269.874634 72.0
269.91217 148.0
269.979279 60.0
270.024902 84.0
270.068634 136.0
270.1492 1028.0
270.19516 112.0
270.297852 268.0
270.334412 144.0
270.371429 152.0
270.428162 256.0
270.493073 104.0
270.508606 108.0
270.518494 80.0
270.548615 176.0
270.650085 132.0
270.684265 184.0
270.724396 180.0
270.805695 168.0
270.849762 132.0
270.894257 208.0
270.941589 80.0
270.980225 348.0
271.023499 100.0
271.09494 168.0
271.139282 816.0
271.272186 140.0
271.315186 96.0
271.370422 128.0
271.391724 164.0
271.456177 100.0
271.508636 100.0
271.538147 40.0
271.577972 168.0
271.615784 120.0
271.698883 124.0
271.731689 116.0
271.757935 96.0
271.78418 128.0
271.813721 96.0
271.8367 128.0
271.866211 96.0
271.91217 60.0
271.95285 204.0
272.007355 204.0
272.159027 1776.0
272.279877 32.0
272.319275 140.0
272.375122 64.0
272.411255 44.0
272.440826 180.0
272.493378 64.0
272.535553 124.0
272.561432 124.0
272.567017 192.0
272.605103 60.0
272.659637 328.0
272.687256 88.0
272.716827 120.0
272.759552 48.0
272.805573 96.0
272.848328 72.0
272.881195 168.0
272.938507 224.0
272.966217 140.0
272.9711 212.0
273.00943 108.0
273.035309 156.0
273.080658 184.0
273.15564 1916.0
273.275879 108.0
273.297638 196.0
273.334076 364.0
273.38446 140.0
273.431915 96.0
273.447327 136.0
273.50882 92.0
273.554504 168.0
273.580078 148.0
273.66095 64.0
273.68399 60.0
273.710358 144.0
273.736694 136.0
273.759735 128.0
273.789276 140.0
273.812103 40.0
273.832245 224.0
273.846039 136.0
273.907959 64.0
273.950775 44.0
273.982056 64.0
274.039703 92.0
274.069366 52.0
274.165497 1428.0
274.247314 128.0
274.294952 80.0
274.33963 140.0
274.372589 80.0
274.418976 120.0
274.454132 140.0
274.48468 80.0
274.51767 112.0
274.560547 128.0
274.600098 140.0
274.633087 172.0
274.701385 108.0
274.753754 128.0
274.781311 104.0
274.846924 124.0
274.855377 200.0
274.946533 108.0
275.002625 116.0
275.029022 68.0
275.05899 52.0
275.156555 1324.0
275.218658 72.0
275.254761 96.0
275.29184 240.0
275.324249 48.0
275.367737 144.0
275.405029 192.0
275.428558 76.0
275.453857 152.0
275.549011 52.0
275.574554 164.0
275.603638 116.0
275.669739 196.0
275.695557 264.0
275.739838 172.0
275.779114 168.0
275.790405 124.0
275.803467 232.0
275.830811 152.0
275.924255 80.0
275.970001 76.0
275.996979 160.0
276.036652 132.0
276.137054 676.0
276.168365 2020.0
276.249939 128.0
276.283813 72.0
276.321106 96.0
276.353638 192.0
276.380676 120.0
276.403839 112.0
276.43692 124.0
276.460083 104.0
276.491089 116.0
276.53183 172.0
276.590729 168.0
276.658661 96.0
276.705017 88.0
276.756287 140.0
276.769287 112.0
276.812134 96.0
276.86084 64.0
276.913544 144.0
277.023529 184.0
277.07782 92.0
277.105255 156.0
277.141541 884.0
277.208252 60.0
277.249084 64.0
277.29071 84.0
277.327789 184.0
277.35614 260.0
277.413971 136.0
277.437164 100.0
277.525269 56.0
277.593018 152.0
277.631042 136.0
277.654266 132.0
277.676727 128.0
277.7323 92.0
277.759583 140.0
277.855042 184.0
277.952789 164.0
277.967041 132.0
277.972809 264.0
278.011993 136.0
278.056549 372.0
278.142914 624.0
278.2276 148.0
278.259918 132.0
278.321411 240.0
278.346252 104.0
278.379456 144.0
278.405731 136.0
278.435425 136.0
278.462494 292.0
278.604858 172.0
278.648499 40.0
278.708313 128.0
278.758148 72.0
278.801117 116.0
278.937622 76.0
278.984161 132.0
279.014069 196.0
279.044006 172.0
279.146271 644.0
279.210999 144.0
279.270111 232.0
279.333313 48.0
279.372589 104.0
279.436462 164.0
279.503479 108.0
279.55957 264.0
279.599487 268.0
279.629456 164.0
279.666077 28.0
279.697845 284.0
279.725983 124.0
279.750275 188.0
279.799225 140.0
279.864166 156.0
279.911804 108.0
279.971161 100.0
280.026031 236.0
280.049805 128.0
280.085602 172.0
280.156738 308.0
280.191895 132.0
280.22467 96.0
280.232697 124.0
280.260742 160.0
280.319031 164.0
280.400543 128.0
280.460968 104.0
280.480438 56.0
280.512024 156.0
280.608795 144.0
280.643982 100.0
280.705475 152.0
280.742157 152.0
280.770966 156.0
280.83194 280.0
280.885681 140.0
280.960663 220.0
280.972992 276.0
281.005676 128.0
281.065735 100.0
281.103668 144.0
281.147675 268.0
281.156708 152.0
281.202545 92.0
281.272644 188.0
281.30603 68.0
281.342743 112.0
281.411743 180.0
281.425385 164.0
281.479645 96.0
281.529541 136.0
281.553558 148.0
281.646606 112.0
281.678589 112.0
281.7435 88.0
281.770203 96.0
281.79361 120.0
281.837036 128.0
281.892822 92.0
281.951935 124.0
281.980347 172.0
282.032471 252.0
282.096802 204.0
282.151947 344.0
282.180969 124.0
282.242554 124.0
282.312988 248.0
282.346283 164.0
282.409668 204.0
282.436401 100.0
282.468719 148.0
282.560883 112.0
282.600555 148.0
282.624451 104.0
282.645233 180.0
282.690216 160.0
282.729858 76.0
282.762177 140.0
282.793701 368.0
282.836975 332.0
282.863464 148.0
282.897217 136.0
282.920654 88.0
282.960205 108.0
283.021942 112.0
283.033264 44.0
283.048676 232.0
283.084717 56.0
283.108154 276.0
283.138153 188.0
283.155487 204.0
283.165527 248.0
283.258881 92.0
283.333679 180.0
283.446472 144.0
283.485931 88.0
283.534271 104.0
283.765533 152.0
283.8013 172.0
283.860046 236.0
283.888641 160.0
283.957153 132.0
284.034973 104.0
284.062256 132.0
284.095703 212.0
284.1604 840.0
284.218964 168.0
284.259949 108.0
284.396545 148.0
284.422424 104.0
284.641663 156.0
284.649719 68.0
284.697723 80.0
284.731079 60.0
284.766693 164.0
284.854584 164.0
284.885803 284.0
284.926117 152.0
284.95636 76.0
285.023804 104.0
285.064758 196.0
285.097046 76.0
285.156952 992.0
285.211761 84.0
285.250488 92.0
285.264404 48.0
285.280762 76.0
285.34317 132.0
285.388672 172.0
285.473999 124.0
285.547974 128.0
285.589478 140.0
285.639221 156.0
285.742523 100.0
285.779694 148.0
285.828857 200.0
285.857483 140.0
285.895721 132.0
285.928864 148.0
285.983917 160.0
286.022369 148.0
286.084564 80.0
286.174988 2552.0
286.235474 124.0
286.358734 80.0
286.407959 196.0
286.450592 168.0
286.505981 124.0
286.540985 232.0
286.585571 84.0
286.630371 180.0
286.675323 60.0
286.714722 164.0
286.73642 92.0
286.804779 112.0
286.838989 220.0
286.898224 112.0
286.992523 152.0
287.052399 112.0
287.171295 1664.0
287.282654 120.0
287.326508 92.0
287.360229 212.0
287.397369 256.0
287.434143 192.0
287.471863 152.0
287.525574 108.0
287.595184 124.0
287.67926 204.0
287.728241 112.0
287.791656 160.0
287.823761 192.0
287.894836 128.0
287.919006 112.0
287.946777 148.0
287.973999 176.0
287.99826 100.0
288.042175 100.0
288.165436 1820.0
288.249634 224.0
288.329346 116.0
288.372162 120.0
288.394775 172.0
288.427368 88.0
288.494965 92.0
288.53894 168.0
288.567017 196.0
288.617706 140.0
288.680939 132.0
288.711365 80.0
288.790283 292.0
288.866943 172.0
288.899567 168.0
288.986237 140.0
289.022583 120.0
289.056427 104.0
289.085663 180.0
289.16568 2428.0
289.302887 92.0
289.364319 120.0
289.394897 144.0
289.420258 148.0
289.478912 136.0
289.520172 208.0
289.605835 84.0
289.667297 128.0
289.713257 76.0
289.742065 96.0
289.859711 160.0
289.89621 200.0
290.004669 152.0
290.041382 144.0
290.071259 160.0
290.181183 1596.0
290.241974 132.0
290.362671 100.0
290.394562 124.0
290.446838 88.0
290.479279 140.0
290.523956 136.0
290.550598 168.0
290.577728 36.0
290.625244 116.0
290.65918 32.0
290.720245 48.0
290.847717 252.0
290.988403 204.0
291.056305 212.0
291.100464 172.0
291.153412 1192.0
291.173004 724.0
291.266876 48.0
291.294037 132.0
291.348846 92.0
291.391968 144.0
291.433319 52.0
291.526642 148.0
291.563629 140.0
291.643341 272.0
291.684814 32.0
291.746002 52.0
291.791077 140.0
291.832581 148.0
291.888794 136.0
291.912598 80.0
291.973053 164.0
292.01355 200.0
292.063538 180.0
292.09967 164.0
292.146881 760.0
292.152252 476.0
292.242554 128.0
292.320557 56.0
292.332336 92.0
292.419495 72.0
292.460327 32.0
292.489868 264.0
292.543884 204.0
292.573853 128.0
292.640747 56.0
292.720551 92.0
292.764435 200.0
292.792877 160.0
292.882538 108.0
292.907349 156.0
292.9711 180.0
293.005188 88.0
293.056274 184.0
293.144165 788.0
293.259308 180.0
293.399292 124.0
293.463562 176.0
293.505188 120.0
293.526642 260.0
293.584808 124.0
293.632385 136.0
293.65625 212.0
293.70401 60.0
293.783295 176.0
293.871155 228.0
293.949646 68.0
293.997406 116.0
294.093384 164.0
294.143219 160.0
294.190582 144.0
294.217133 128.0
294.264343 212.0
294.301208 204.0
294.340759 116.0
294.431488 132.0
294.47879 268.0
294.523193 104.0
294.553925 152.0
294.608368 128.0
294.618042 120.0
294.627228 220.0
294.656403 112.0
294.697418 112.0
294.741821 144.0
294.803345 92.0
294.897003 88.0
294.933197 196.0
295.049438 168.0
295.119751 188.0
295.151367 300.0
295.205505 204.0
295.248993 216.0
295.305878 88.0
295.360596 92.0
295.397034 68.0
295.438416 464.0
295.467651 164.0
295.509949 208.0
295.681976 120.0
295.750671 164.0
295.781677 116.0
295.808868 88.0
295.878021 160.0
295.908142 80.0
295.942383 148.0
295.990326 72.0
296.014282 196.0
296.066742 164.0
296.106445 156.0
296.156158 300.0
296.227509 124.0
296.354309 104.0
296.397919 112.0
296.471222 164.0
296.556152 192.0
296.632355 80.0
296.695374 176.0
296.734619 172.0
296.788696 132.0
296.850403 120.0
296.894989 168.0
296.963562 68.0
297.001312 76.0
297.031494 140.0
297.076782 120.0
297.169159 928.0
297.224304 60.0
297.259888 152.0
297.295624 132.0
297.36499 100.0
297.495422 124.0
297.56662 108.0
297.6362 84.0
297.673004 188.0
297.708313 108.0
297.73233 68.0
297.807892 248.0
297.842255 84.0
297.882172 140.0
297.888763 184.0
297.926056 100.0
297.962494 40.0
297.998505 164.0
298.174622 1604.0
298.247711 152.0
298.295807 76.0
298.333618 220.0
298.388641 228.0
298.440216 160.0
298.486084 116.0
298.494934 48.0
298.54303 164.0
298.602997 124.0
298.678925 68.0
298.763123 112.0
298.819733 244.0
298.857086 160.0
298.913391 160.0
298.946167 88.0
298.997467 100.0
299.024994 192.0
299.092133 236.0
299.124329 160.0
299.17038 1824.0
299.227783 336.0
299.260712 168.0
299.327942 136.0
299.437134 232.0
299.476227 68.0
299.527985 96.0
299.566132 156.0
299.641388 64.0
299.754089 192.0
299.858459 244.0
299.927399 148.0
299.989441 160.0
300.021942 132.0
300.096313 168.0
300.182129 1456.0
300.263123 172.0
300.297821 220.0
300.344604 76.0
300.376678 120.0
300.523346 128.0
300.587372 196.0
300.703339 152.0
300.77066 144.0
300.811432 76.0
300.870789 124.0
300.940857 88.0
301.041779 92.0
301.076599 100.0
301.176331 1768.0
301.230164 136.0
301.268646 108.0
301.30426 120.0
301.384186 120.0
301.451111 184.0
301.487396 100.0
301.55307 92.0
301.577271 76.0
301.618042 220.0
301.708618 56.0
301.744904 56.0
301.785217 204.0
301.838257 136.0
301.861511 164.0
301.891754 120.0
301.947205 180.0
301.993927 196.0
302.037109 132.0
302.069855 112.0
302.171906 8200.0
302.307281 48.0
302.397888 164.0
302.437439 80.0
302.469391 52.0
302.493073 208.0
302.527679 200.0
302.618317 220.0
302.65863 204.0
302.700836 92.0
302.730988 116.0
302.763947 156.0
302.788177 148.0
302.83432 308.0
302.862488 124.0
302.944519 176.0
302.980164 84.0
303.03653 196.0
303.068756 80.0
303.177032 4000.0
303.282928 140.0
303.307434 120.0
303.37439 244.0
303.42923 236.0
303.474304 112.0
303.509308 40.0
303.560974 104.0
303.604797 144.0
303.676453 176.0
303.708466 160.0
303.777344 124.0
303.810242 184.0
303.846893 156.0
303.887024 180.0
303.914795 64.0
303.944153 216.0
304.004852 176.0
304.038147 108.0
304.105835 164.0
304.184265 3380.0
304.25354 72.0
304.329254 72.0
304.414612 112.0
304.475861 120.0
304.515869 152.0
304.55069 156.0
304.6091 104.0
304.666382 172.0
304.712891 124.0
304.726685 52.0
304.739563 168.0
304.77298 96.0
304.836426 84.0
304.873169 104.0
304.902374 188.0
304.945648 148.0
304.995605 124.0
305.053894 100.0
305.083282 124.0
305.185852 1532.0
305.342499 144.0
305.383606 136.0
305.395905 112.0
305.414886 64.0
305.421143 164.0
305.460632 144.0
305.5289 88.0
305.566864 152.0
305.624268 208.0
305.671234 168.0
305.726257 104.0
305.777954 148.0
305.799011 164.0
305.824066 72.0
305.850464 180.0
305.880432 184.0
305.903381 40.0
305.928925 260.0
305.97229 76.0
306.017578 108.0
306.057129 148.0
306.096313 156.0
306.106567 136.0
306.165833 508.0
306.216583 252.0
306.289185 196.0
306.336121 132.0
306.368195 180.0
306.419495 116.0
306.456421 76.0
306.505188 152.0
306.553986 76.0
306.579681 204.0
306.617065 76.0
306.662781 92.0
306.700348 148.0
306.730682 120.0
306.857208 108.0
306.902557 124.0
306.926941 112.0
307.001373 268.0
307.035065 108.0
307.080536 164.0
307.166656 268.0
307.230377 136.0
307.272247 144.0
307.301605 80.0
307.370758 116.0
307.42926 100.0
307.454468 148.0
307.506042 160.0
307.556732 84.0
307.596802 92.0
307.624725 148.0
307.690308 104.0
307.70575 180.0
307.746918 108.0
307.802094 164.0
307.855164 168.0
307.91452 116.0
307.95993 72.0
307.987854 108.0
308.019745 196.0
308.068207 84.0
308.146698 136.0
308.185181 284.0
308.218445 140.0
308.246399 72.0
308.268616 160.0
308.344086 80.0
308.422729 96.0
308.526001 108.0
308.550476 168.0
308.599426 96.0
308.714813 176.0
308.743866 64.0
308.774261 160.0
308.798737 144.0
308.900177 200.0
308.93866 108.0
309.002502 96.0
309.116852 112.0
309.121674 104.0
309.14328 132.0
309.172791 420.0
309.216553 180.0
309.256409 104.0
309.30011 124.0
309.356262 220.0
309.397095 140.0
309.443359 184.0
309.488403 96.0
309.542389 120.0
309.587555 140.0
309.635193 92.0
309.659729 128.0
309.690369 80.0
309.714142 252.0
309.757782 76.0
309.782318 124.0
309.817352 172.0
309.843903 164.0
309.920502 116.0
310.039703 112.0
310.094147 136.0
310.153503 228.0
310.175995 484.0
310.237854 236.0
310.272919 108.0
310.324127 276.0
310.400238 52.0
310.472778 112.0
310.56131 184.0
310.606079 136.0
310.634125 136.0
310.662201 48.0
310.717926 184.0
310.795502 108.0
310.823578 148.0
310.851654 176.0
310.893768 156.0
310.921844 96.0
310.956635 132.0
310.980804 128.0
311.02713 116.0
311.070923 136.0
311.10083 160.0
311.178467 880.0
311.227234 164.0
311.264008 228.0
311.3396 88.0
311.367706 64.0
311.471375 100.0
311.511688 92.0
311.563202 224.0
311.613586 96.0
311.662109 104.0
311.725464 128.0
311.758545 172.0
311.789276 84.0
311.851501 144.0
311.891205 164.0
311.943939 152.0
312.001678 152.0
312.056427 204.0
312.114319 120.0
312.188934 612.0
312.281464 124.0
312.376434 140.0
312.408112 172.0
312.436249 80.0
312.464386 144.0
312.489014 160.0
312.5242 128.0
312.564209 284.0
312.591064 76.0
312.654388 160.0
312.765747 244.0
312.795197 128.0
312.831879 180.0
312.86911 112.0
312.939514 100.0
313.012207 260.0
313.062775 52.0
313.118896 132.0
313.183746 1716.0
313.237549 156.0
313.274872 216.0
313.305786 128.0
313.354004 100.0
313.445343 216.0
313.452667 164.0
313.499573 80.0
313.548737 140.0
313.622833 124.0
313.679321 96.0
313.70401 184.0
313.728699 152.0
313.758789 52.0
313.830078 168.0
313.91571 164.0
313.987976 156.0
314.014282 192.0
314.05246 140.0
314.115326 240.0
314.173035 2352.0
314.331909 212.0
314.363556 76.0
314.414734 164.0
314.520721 172.0
314.587189 120.0
314.637451 120.0
314.741241 108.0
314.769165 88.0
314.816711 140.0
314.847198 196.0
314.893097 56.0
314.935486 144.0
314.963745 124.0
314.999268 208.0
315.047821 164.0
315.090912 156.0
315.174988 3284.0
315.280731 128.0
315.317047 200.0
315.359863 108.0
315.400482 160.0
315.456024 172.0
315.507935 84.0
315.581055 172.0
315.65271 136.0
315.770782 176.0
315.781616 100.0
315.802124 244.0
315.858032 124.0
315.939301 84.0
315.979584 132.0
316.034912 148.0
316.051239 188.0
316.057373 264.0
316.097412 192.0
316.186615 7656.0
316.301361 124.0
316.330353 264.0
316.392517 100.0
316.426331 176.0
316.467773 132.0
316.500977 112.0
316.526276 52.0
316.577545 224.0
316.668549 96.0
316.750031 160.0
316.785431 72.0
316.817505 164.0
316.861023 384.0
316.883362 144.0
316.912994 76.0
316.962585 208.0
317.011047 148.0
317.052856 152.0
317.108124 120.0
317.183624 5108.0
317.270935 132.0
317.311066 404.0
317.373749 68.0
317.428864 68.0
317.444031 44.0
317.482513 180.0
317.50647 112.0
317.590485 136.0
317.640472 176.0
317.692932 44.0
317.744873 120.0
317.790009 56.0
317.856812 172.0
317.923584 32.0
318.015442 140.0
318.059753 136.0
318.099548 148.0
318.197601 3700.0
318.256927 180.0
318.340637 132.0
318.391388 144.0
318.425751 132.0
318.450867 184.0
318.480957 56.0
318.522797 260.0
318.580444 76.0
318.604523 72.0
318.655029 116.0
318.689301 192.0
318.748474 176.0
318.777252 112.0
318.839813 128.0
318.90509 108.0
318.936371 324.0
318.989075 176.0
319.023438 156.0
319.19931 1412.0
319.332611 124.0
319.415802 64.0
319.444244 96.0
319.52951 184.0
319.579437 168.0
319.613708 76.0
319.668396 136.0
319.692169 76.0
319.746674 88.0
319.775146 132.0
319.803619 92.0
319.873962 132.0
319.907654 120.0
319.952454 164.0
319.987579 168.0
320.033722 180.0
320.109802 52.0
320.195038 2916.0
320.319916 80.0
320.443024 152.0
320.483002 144.0
320.544373 140.0
320.590363 152.0
320.647491 124.0
320.691315 52.0
320.73761 188.0
320.804962 136.0
320.854279 220.0
320.87854 208.0
320.91864 96.0
320.943604 60.0
321.000122 80.0
321.032959 100.0
321.079102 64.0
321.166016 1420.0
321.197693 784.0
321.275269 148.0
321.332367 96.0
321.371613 132.0
321.407288 256.0
321.459076 156.0
321.542084 208.0
321.614136 208.0
321.653534 76.0
321.732086 192.0
321.764191 68.0
321.817749 168.0
321.88559 128.0
321.924866 108.0
322.01059 148.0
322.057007 64.0
322.170624 784.0
322.251709 152.0
322.306427 196.0
322.349976 108.0
322.43573 152.0
322.492615 92.0
322.535797 264.0
322.603729 32.0
322.750305 128.0
322.782501 108.0
322.881226 84.0
322.930023 120.0
322.974243 160.0
323.033966 116.0
323.081421 132.0
323.160339 224.0
323.175476 168.0
323.187134 276.0
323.244995 176.0
323.279724 124.0
323.372772 92.0
323.398926 248.0
323.426453 60.0
323.594696 192.0
323.626923 128.0
323.666321 172.0
323.700104 100.0
323.734344 136.0
323.763 124.0
323.815826 128.0
323.864807 124.0
323.992218 260.0
324.026306 184.0
324.061829 228.0
324.09256 52.0
324.141479 140.0
324.192322 736.0
324.234131 140.0
324.264557 100.0
324.318329 156.0
324.37912 112.0
324.468384 300.0
324.59848 136.0
324.633301 116.0
324.65979 132.0
324.7117 184.0
324.741394 116.0
324.899231 140.0
324.931396 116.0
324.960205 28.0
325.191803 1300.0
325.232697 60.0
325.312103 152.0
325.365753 108.0
325.409088 120.0
325.517365 124.0
325.595032 104.0
325.640778 184.0
325.699738 160.0
325.732056 132.0
325.825439 156.0
325.86496 104.0
325.896698 188.0
325.954803 144.0
325.983551 84.0
326.09201 112.0
326.190155 996.0
326.24234 180.0
326.284454 200.0
326.332214 36.0
326.364563 136.0
326.420837 152.0
326.526398 100.0
326.551575 116.0
326.576752 120.0
326.655884 60.0
326.687347 160.0
326.760193 200.0
326.796173 116.0
326.89563 100.0
326.983307 52.0
327.026489 148.0
327.058868 76.0
327.102081 96.0
327.194458 568.0
327.269714 140.0
327.316284 112.0
327.384888 116.0
327.454468 96.0
327.576813 172.0
327.632904 156.0
327.642853 188.0
327.674652 116.0
327.737518 200.0
327.771942 136.0
327.79715 140.0
327.82959 204.0
327.856781 152.0
327.892792 180.0
327.915039 396.0
327.955719 120.0
327.989868 96.0
328.013397 160.0
328.043915 172.0
328.102051 148.0
328.185394 2992.0
328.283569 128.0
328.316254 164.0
328.388397 72.0
328.438873 48.0
328.464142 116.0
328.53653 124.0
328.615479 180.0
328.680603 148.0
328.711639 180.0
328.757385 144.0
328.798676 184.0
328.841583 164.0
328.886292 116.0
328.928192 152.0
328.9646 132.0
328.989838 252.0
328.995697 172.0
329.052368 144.0
329.084839 128.0
329.189148 4176.0
329.306946 56.0
329.355682 48.0
329.384094 148.0
329.420715 136.0
329.469727 280.0
329.523132 196.0
329.616943 116.0
329.651947 96.0
329.684479 128.0
329.717682 212.0
329.757843 172.0
329.794373 156.0
329.835815 128.0
329.882782 204.0
329.949158 160.0
329.985962 128.0
330.045959 144.0
330.078156 180.0
330.199341 4608.0
330.341034 148.0
330.433594 200.0
330.478668 156.0
330.546753 176.0
330.617615 116.0
330.63327 100.0
330.647675 120.0
330.733307 76.0
330.791229 92.0
330.838928 160.0
330.87796 112.0
330.905609 168.0
331.003479 128.0
331.069885 116.0
331.120697 108.0
331.2034 3308.0
331.299652 108.0
331.357697 188.0
331.410492 60.0
331.466553 144.0
331.508331 132.0
331.544708 292.0
331.586365 120.0
331.616913 108.0
331.628876 92.0
331.670135 136.0
331.738586 72.0
331.794678 160.0
331.843414 180.0
331.88974 200.0
331.93927 136.0
331.976837 216.0
332.003082 100.0
332.055145 168.0
332.095642 84.0
332.124664 100.0
332.187714 2840.0
332.271667 144.0
332.30603 108.0
332.338684 112.0
332.378601 132.0
332.433624 148.0
332.498352 124.0
332.541199 116.0
332.567719 144.0
332.647186 144.0
332.6922 184.0
332.785126 48.0
332.853302 140.0
332.895935 108.0
332.929535 132.0
332.98587 204.0
333.017548 28.0
333.065704 124.0
333.095825 72.0
333.189087 2460.0
333.244293 164.0
333.268188 220.0
333.350311 152.0
333.430481 304.0
333.468628 76.0
333.511108 76.0
333.546814 144.0
333.621002 164.0
333.662842 152.0
333.721619 240.0
333.820557 100.0
333.878876 152.0
333.933441 164.0
334.020721 44.0
334.06073 128.0
334.087311 128.0
334.197876 2040.0
334.30661 76.0
334.375641 140.0
334.444122 144.0
334.478302 112.0
334.567871 100.0
334.580719 36.0
334.594696 132.0
334.712219 108.0
334.759552 152.0
334.788666 220.0
334.821442 124.0
335.006134 152.0
335.06015 196.0
335.109222 72.0
335.182861 1576.0
335.292511 148.0
335.375244 148.0
335.45813 152.0
335.495544 32.0
335.535645 272.0
335.648651 184.0
335.687012 140.0
335.699219 116.0
335.711945 124.0
335.722412 160.0
335.75528 256.0
335.78241 160.0
335.860168 36.0
335.900299 128.0
335.935852 252.0
335.96167 136.0
335.97171 56.0
336.044769 140.0
336.123016 84.0
336.17984 1068.0
336.291534 160.0
336.360077 96.0
336.430359 156.0
336.456177 176.0
336.509735 196.0
336.555511 60.0
336.582611 96.0
336.612915 124.0
336.699615 136.0
336.732483 116.0
336.797028 108.0
336.829498 144.0
336.931519 124.0
336.975098 244.0
337.070557 156.0
337.161469 852.0
337.258636 120.0
337.30249 132.0
337.434296 144.0
337.481049 128.0
337.517273 128.0
337.562073 80.0
337.658234 180.0
337.69455 208.0
337.73761 124.0
337.931488 72.0
337.971741 124.0
338.022034 112.0
338.051239 132.0
338.088837 64.0
338.164062 352.0
338.200439 468.0
338.314026 68.0
338.388977 88.0
338.421936 164.0
338.462219 84.0
338.543152 116.0
338.586731 72.0
338.642883 60.0
338.731232 136.0
338.764374 72.0
338.828461 88.0
338.88208 164.0
338.938385 44.0
338.971375 252.0
339.041473 252.0
339.095947 140.0
339.207672 772.0
339.280273 232.0
339.324493 128.0
339.400238 84.0
339.450867 208.0
339.484558 96.0
339.530457 148.0
339.557922 164.0
339.595917 144.0
339.645935 116.0
339.6745 192.0
339.699097 220.0
339.734558 124.0
339.777435 160.0
339.834747 180.0
339.910095 164.0
339.938263 100.0
339.968781 96.0
340.060547 116.0
340.093567 92.0
340.189423 564.0
340.218506 764.0
340.262451 136.0
340.302826 124.0
340.346313 128.0
340.423981 124.0
340.488037 64.0
340.552399 120.0
340.626495 120.0
340.690338 164.0
340.780273 132.0
340.835388 148.0
340.870209 196.0
340.897858 72.0
340.94931 136.0
340.990997 184.0
341.099335 244.0
341.217865 3456.0
341.29245 116.0
341.320587 144.0
341.378937 64.0
341.388031 164.0
341.402222 180.0
341.456665 60.0
341.531219 116.0
341.613556 132.0
341.709045 136.0
341.803467 116.0
341.846619 76.0
341.901825 88.0
341.934937 120.0
342.026794 104.0
342.068909 220.0
342.098785 108.0
342.131042 104.0
342.207397 1868.0
342.286835 116.0
342.3508 160.0
342.435638 108.0
342.491852 124.0
342.524048 76.0
342.562988 140.0
342.608765 124.0
342.654694 172.0
342.706512 120.0
342.785614 92.0
342.816254 204.0
342.859985 160.0
342.915253 184.0
343.018188 76.0
343.076385 180.0
343.134918 296.0
343.198669 4428.0
343.35611 148.0
343.439697 152.0
343.516846 144.0
343.596771 44.0
343.663177 156.0
343.701935 60.0
343.734344 116.0
343.777466 128.0
343.800659 124.0
343.845001 116.0
343.904846 92.0
343.973724 192.0
344.029724 112.0
344.081055 196.0
344.12085 60.0
344.20517 1848.0
344.312866 104.0
344.3461 132.0
344.431061 176.0
344.488312 152.0
344.519714 152.0
344.567719 148.0
344.63916 96.0
344.67688 112.0
344.719208 80.0
344.782043 124.0
344.811615 116.0
344.891052 132.0
344.918793 144.0
344.949799 184.0
344.997864 120.0
345.031494 172.0
345.09433 148.0
345.210815 1264.0
345.284149 108.0
345.321808 176.0
345.390289 280.0
345.423309 208.0
345.488251 156.0
345.54007 116.0
345.62146 156.0
345.684601 116.0
345.722168 164.0
345.776886 44.0
345.885284 56.0
345.950836 268.0
345.984161 208.0
346.032837 164.0
346.086243 84.0
346.197021 15056.0
346.289032 48.0
346.321228 304.0
346.439301 124.0
346.45163 132.0
346.490906 188.0
346.522827 152.0
346.553253 164.0
346.593567 196.0
346.619171 172.0
346.673096 92.0
346.699036 80.0
346.726715 152.0
346.759766 116.0
346.868774 176.0
346.910309 332.0
346.964172 184.0
347.07309 188.0
347.109039 108.0
347.201324 5808.0
347.28479 164.0
347.343018 204.0
347.417267 392.0
347.481415 108.0
347.539124 136.0
347.582458 324.0
347.618683 72.0
347.666931 152.0
347.733002 144.0
347.796844 68.0
347.860229 52.0
347.900757 296.0
347.929565 132.0
347.958496 168.0
348.085693 148.0
348.095459 164.0
348.212646 11868.0
348.327179 128.0
348.356232 176.0
348.370422 132.0
348.3815 132.0
348.440582 44.0
348.502655 136.0
348.538574 120.0
348.570831 108.0
348.610962 60.0
348.663513 180.0
348.697205 192.0
348.778229 128.0
348.813354 72.0
348.869141 172.0
348.909454 116.0
348.937256 144.0
349.011627 28.0
349.048798 168.0
349.08493 220.0
349.213898 2624.0
349.310181 188.0
349.362396 100.0
349.387543 108.0
349.465942 192.0
349.51239 108.0
349.574554 196.0
349.606445 124.0
349.65094 148.0
349.692383 144.0
349.736877 164.0
349.814331 148.0
349.828918 112.0
349.866852 92.0
349.93689 136.0
350.011871 88.0
350.055725 120.0
350.159241 188.0
350.204437 364.0
350.241211 200.0
350.290497 132.0
350.340302 48.0
350.377533 176.0
350.422241 100.0
350.510345 112.0
350.617004 112.0
350.682098 60.0
350.688995 48.0
350.742737 120.0
350.772552 212.0
350.806122 160.0
350.85434 192.0
350.888123 152.0
351.03476 264.0
351.084442 136.0
351.11557 112.0
351.16507 160.0
351.210388 236.0
351.324036 72.0
351.375061 136.0
351.455048 172.0
351.509399 284.0
351.559509 188.0
351.609985 160.0
351.707458 100.0
351.757324 480.0
351.78949 176.0
351.833221 180.0
351.929047 152.0
351.9552 232.0
352.014954 48.0
352.051025 132.0
352.118835 176.0
352.128845 144.0
352.14505 152.0
352.152954 96.0
352.191254 164.0
352.250244 124.0
352.295044 84.0
352.33725 176.0
352.376831 140.0
352.404907 100.0
352.439697 168.0
352.518951 220.0
352.53183 76.0
352.544342 104.0
352.559418 96.0
352.575287 148.0
352.641052 168.0
352.670197 112.0
352.73645 100.0
352.778381 156.0
352.836365 80.0
352.878052 40.0
352.934753 100.0
353.005829 112.0
353.144958 192.0
353.224274 564.0
353.288544 92.0
353.30188 112.0
353.374756 240.0
353.406494 212.0
353.460754 116.0
353.51767 140.0
353.562988 144.0
353.668182 56.0
353.69339 136.0
353.723511 144.0
353.753479 172.0
353.78717 144.0
353.852295 140.0
353.900574 128.0
354.058746 300.0
354.08374 136.0
354.098969 188.0
354.13916 152.0
354.221558 664.0
354.334381 168.0
354.369904 140.0
354.408875 116.0
354.476318 144.0
354.524872 204.0
354.578491 240.0
354.60498 160.0
354.681732 164.0
354.708679 112.0
354.757416 140.0
354.795837 156.0
354.843384 120.0
354.8526 112.0
354.863556 164.0
355.007599 88.0
355.070496 144.0
355.136139 48.0
355.209106 1756.0
355.231171 3076.0
355.309509 128.0
355.322296 152.0
355.356323 200.0
355.393188 228.0
355.477539 132.0
355.518616 160.0
355.5961 160.0
355.635132 152.0
355.676422 72.0
355.770264 72.0
355.832367 116.0
355.930878 192.0
356.04245 204.0
356.074432 212.0
356.107513 104.0
356.1492 168.0
356.216797 2008.0
356.298462 168.0
356.396851 144.0
356.410645 200.0
356.448578 120.0
356.493042 176.0
356.551544 128.0
356.596649 112.0
356.626709 64.0
356.667511 56.0
356.701904 144.0
356.740021 128.0
356.808228 180.0
356.844757 40.0
356.871063 56.0
356.931915 88.0
356.965057 208.0
356.998901 124.0
357.02771 212.0
357.070099 112.0
357.085114 104.0
357.12677 108.0
357.21225 3684.0
357.315369 168.0
357.344849 164.0
357.365509 260.0
357.427734 84.0
357.461609 180.0
357.499969 116.0
357.535461 108.0
357.58139 212.0
357.597748 92.0
357.641693 108.0
357.68103 132.0
357.709106 84.0
357.773987 36.0
357.807739 116.0
357.871887 52.0
357.973541 108.0
358.02594 112.0
358.048737 168.0
358.08606 132.0
358.198853 3168.0
358.322113 252.0
358.355225 48.0
358.383881 224.0
358.421814 36.0
358.476868 136.0
358.517822 140.0
358.57428 112.0
358.646484 84.0
358.738373 128.0
358.854126 256.0
358.931824 284.0
358.968353 76.0
358.994751 80.0
359.088257 132.0
359.096313 56.0
359.126801 232.0
359.201843 2532.0
359.322174 124.0
359.372467 152.0
359.44281 180.0
359.492706 56.0
359.58139 120.0
359.612457 176.0
359.736389 136.0
359.803833 260.0
359.845856 136.0
359.859711 176.0
359.930969 312.0
359.991882 372.0
360.051636 72.0
360.088409 96.0
360.114716 268.0
360.146942 156.0
360.212646 9432.0
360.287201 172.0
360.383087 120.0
360.440521 56.0
360.478302 56.0
360.507141 120.0
360.565796 52.0
360.625702 104.0
360.664276 176.0
360.731903 116.0
360.784332 136.0
360.838531 132.0
360.888611 124.0
360.924561 192.0
360.971222 80.0
361.021179 112.0
361.050598 300.0
361.10498 200.0
361.210693 7512.0
361.295105 72.0
361.329742 148.0
361.369659 168.0
361.417786 148.0
361.461487 208.0
361.566284 304.0
361.604645 48.0
361.670013 144.0
361.70047 128.0
361.783173 68.0
361.819824 152.0
361.881592 144.0
361.930817 44.0
361.984772 48.0
362.020294 152.0
362.036377 96.0
362.045624 140.0
362.095215 116.0
362.117035 136.0
362.213013 2788.0
362.319672 72.0
362.345764 108.0
362.391876 136.0
362.491821 76.0
362.522461 104.0
362.577698 88.0
362.584503 92.0
362.600098 64.0
362.624054 132.0
362.711243 144.0
362.750488 124.0
362.814728 120.0
362.879913 152.0
362.931122 128.0
363.010956 156.0
363.041077 164.0
363.101776 184.0
363.210175 280.0
363.348328 156.0
363.427734 120.0
363.451385 152.0
363.503876 120.0
363.533478 156.0
363.57663 116.0
363.608307 100.0
363.622528 136.0
363.65683 172.0
363.705963 160.0
363.731598 56.0
363.834076 96.0
363.87204 72.0
363.993561 188.0
364.020142 100.0
364.064697 152.0
364.163666 156.0
364.204224 220.0
364.242188 180.0
364.256714 152.0
364.323517 100.0
364.34848 160.0
364.395569 76.0
364.441772 124.0
364.479767 112.0
364.536743 160.0
364.578552 48.0
364.635681 124.0
364.696808 144.0
364.75235 88.0
364.83786 204.0
364.874146 68.0
364.943481 128.0
364.981476 112.0
365.024048 168.0
365.133606 92.0
365.18103 324.0
365.220673 500.0
365.280457 128.0
365.354919 64.0
365.411285 88.0
365.473724 136.0
365.514008 52.0
365.544464 124.0
365.58252 188.0
365.631989 64.0
365.727112 104.0
365.753784 148.0
365.80246 96.0
365.862122 60.0
365.904663 176.0
365.914307 212.0
365.944122 100.0
365.982178 148.0
366.092072 168.0
366.186829 312.0
366.214111 84.0
366.25766 84.0
366.286041 132.0
366.32724 172.0
366.375732 24.0
366.461243 88.0
366.506561 208.0
366.547272 184.0
366.629761 112.0
366.658264 176.0
366.690735 264.0
366.721161 140.0
366.772064 176.0
366.816498 64.0
366.856323 204.0
366.972809 132.0
367.007141 56.0
367.093018 152.0
367.177368 272.0
367.232941 2044.0
367.349121 160.0
367.407593 44.0
367.450409 72.0
367.50296 124.0
367.584778 128.0
367.633728 140.0
367.678497 64.0
367.766388 200.0
367.880798 52.0
367.998047 56.0
368.030487 144.0
368.117523 104.0
368.150696 168.0
368.230225 1928.0
368.388672 116.0
368.43454 92.0
368.542786 108.0
368.593201 180.0
368.624939 136.0
368.682892 100.0
368.751068 252.0
368.805176 92.0
368.902832 176.0
368.943787 108.0
368.995361 116.0
369.059357 172.0
369.122498 104.0
369.218536 3420.0
369.241364 1552.0
369.306061 208.0
369.351959 120.0
369.397858 80.0
369.508118 68.0
369.557617 180.0
369.609558 180.0
369.638885 56.0
369.677155 180.0
369.753693 108.0
369.780487 148.0
369.832458 132.0
369.882202 168.0
369.965759 120.0
370.041077 228.0
370.126587 108.0
370.142761 44.0
370.223389 908.0
370.31665 104.0
370.388397 88.0
370.438873 76.0
370.500366 84.0
370.535614 188.0
370.609375 140.0
370.649475 52.0
370.691925 152.0
370.724274 156.0
370.753235 132.0
370.805237 156.0
370.83374 176.0
370.900513 216.0
370.981659 128.0
371.05014 92.0
371.22699 1988.0
371.294861 116.0
371.333893 96.0
371.393524 116.0
371.438049 72.0
371.464111 108.0
371.49707 180.0
371.541107 100.0
371.596832 112.0
371.654388 76.0
371.681244 36.0
371.75415 64.0
371.784851 140.0
371.860657 112.0
371.876465 96.0
371.904327 136.0
371.936096 216.0
371.975555 168.0
372.029358 164.0
372.061218 152.0
372.141815 104.0
372.225281 2240.0
372.310791 196.0
372.370178 132.0
372.42215 68.0
372.480438 92.0
372.523865 244.0
372.610382 80.0
372.652527 140.0
372.712799 136.0
372.763489 276.0
372.847229 44.0
372.887054 88.0
372.91684 144.0
372.966217 100.0
372.990601 272.0
373.042511 136.0
373.108765 184.0
373.211395 4832.0
373.298401 124.0
373.325317 60.0
373.352234 56.0
373.429169 280.0
373.554535 80.0
373.580597 96.0
373.62149 128.0
373.688568 144.0
373.732849 140.0
373.775391 76.0
373.813416 108.0
373.857574 156.0
373.888519 256.0
373.93161 76.0
373.9729 232.0
374.00827 132.0
374.087128 140.0
374.126099 160.0
374.221741 3016.0
374.295013 92.0
374.410553 148.0
374.468323 88.0
374.53476 176.0
374.593262 136.0
374.664764 176.0
374.69397 132.0
374.745972 100.0
374.844147 144.0
374.903656 180.0
374.931946 84.0
374.983765 148.0
375.065521 152.0
375.102203 80.0
375.134918 40.0
375.226379 2452.0
375.307251 80.0
375.373962 36.0
375.40976 152.0
375.476776 96.0
375.65387 116.0
375.712799 224.0
375.783936 164.0
375.831116 84.0
375.873596 100.0
375.917084 140.0
375.97348 96.0
376.012115 112.0
376.072235 188.0
376.109772 116.0
376.205261 1284.0
376.296112 164.0
376.386261 92.0
376.465179 164.0
376.521057 112.0
376.581879 100.0
376.644592 112.0
376.676605 132.0
376.792175 108.0
376.832977 148.0
376.921844 132.0
376.983429 128.0
377.010712 160.0
377.055359 172.0
377.113068 184.0
377.164124 232.0
377.215546 3864.0
377.312195 100.0
377.377197 228.0
377.406494 72.0
377.501648 124.0
377.532593 108.0
377.569916 148.0
377.593658 76.0
377.640564 252.0
377.70932 52.0
377.753143 188.0
377.818817 104.0
377.845886 120.0
377.911499 64.0
377.917816 136.0
378.055573 88.0
378.141266 120.0
378.221741 7092.0
378.300995 132.0
378.370728 256.0
378.440094 76.0
378.476135 144.0
378.524017 156.0
378.600677 108.0
378.648254 168.0
378.697754 120.0
378.758789 160.0
378.802094 172.0
378.862762 60.0
378.938843 208.0
379.001068 220.0
379.046173 64.0
379.105804 100.0
379.172302 116.0
379.226105 1400.0
379.317444 88.0
379.385468 44.0
379.445374 144.0
379.476471 180.0
379.525055 132.0
379.539948 72.0
379.697418 176.0
379.77771 160.0
379.840942 100.0
379.868073 140.0
380.053131 300.0
380.112518 116.0
380.225739 476.0
380.284668 172.0
380.322083 280.0
380.414124 84.0
380.47464 160.0
380.508423 124.0
380.590912 48.0
380.628784 68.0
380.667603 120.0
380.712616 88.0
380.745361 160.0
380.815186 136.0
380.912292 68.0
381.017181 292.0
381.063782 92.0
381.128021 112.0
381.154755 244.0
381.244446 768.0
381.310852 180.0
381.369354 120.0
381.409637 112.0
381.439301 172.0
381.509094 200.0
381.594391 84.0
381.634613 124.0
381.673309 88.0
381.728455 140.0
381.778015 80.0
381.829559 164.0
381.961792 92.0
382.014038 160.0
382.024109 212.0
382.079773 244.0
382.132965 52.0
382.236694 860.0
382.242706 976.0
382.310303 188.0
382.349976 120.0
382.403992 68.0
382.43927 56.0
382.529327 176.0
382.599884 152.0
382.681396 144.0
382.719574 228.0
382.812744 128.0
382.835938 60.0
382.870789 44.0
382.899567 176.0
382.993286 120.0
383.028351 180.0
383.08548 156.0
383.229156 2692.0
383.313324 184.0
383.370758 232.0
383.432068 240.0
383.563354 172.0
383.608185 164.0
383.675201 176.0
383.702515 32.0
383.811676 172.0
383.870148 68.0
383.905487 136.0
383.951141 120.0
384.008209 192.0
384.033569 40.0
384.078217 104.0
384.093597 164.0
384.139282 80.0
384.233765 1092.0
384.398376 108.0
384.440826 196.0
384.474548 112.0
384.52774 100.0
384.574158 176.0
384.660858 296.0
384.753815 100.0
384.796143 176.0
384.856659 140.0
384.872589 108.0
384.89447 132.0
384.945709 256.0
384.979309 324.0
385.017273 88.0
385.058411 140.0
385.092712 332.0
385.14444 448.0
385.152039 400.0
385.246033 81580.0
385.342926 212.0
385.400665 112.0
385.446869 144.0
385.4935 124.0
385.542236 160.0
385.572784 248.0
385.61731 388.0
385.685974 92.0
385.737701 260.0
385.773499 60.0
385.802704 144.0
385.830292 128.0
385.89093 460.0
385.95401 120.0
385.983551 224.0
386.021301 100.0
386.040344 132.0
386.065765 76.0
386.095459 320.0
386.150391 120.0
386.247711 24908.0
386.316101 236.0
386.407867 120.0
386.470032 188.0
386.506927 124.0
386.561066 120.0
386.600281 108.0
386.657867 324.0
386.698486 192.0
386.74408 112.0
386.811768 120.0
386.846283 60.0
386.885437 200.0
386.950897 208.0
386.978912 132.0
387.069183 72.0
387.080261 196.0
387.115631 212.0
387.122253 248.0
387.137726 84.0
387.152771 200.0
387.237549 5168.0
387.31015 92.0
387.360931 116.0
387.402679 208.0
387.449097 92.0
387.547668 148.0
387.604462 196.0
387.644836 128.0
387.669373 104.0
387.67865 140.0
387.707031 216.0
387.761414 96.0
387.819733 160.0
387.8526 84.0
387.893219 152.0
387.969269 152.0
387.994385 248.0
388.030426 300.0
388.081909 148.0
388.120514 172.0
388.229279 1752.0
388.335388 164.0
388.369629 108.0
388.416901 116.0
388.456055 52.0
388.488861 264.0
388.556854 228.0
388.600372 112.0
388.662415 224.0
388.687561 156.0
388.71756 64.0
388.743988 156.0
388.809784 176.0
388.81958 220.0
388.876617 72.0
388.905182 128.0
388.978333 108.0
389.008972 88.0
389.045471 108.0
389.086853 120.0
389.239624 1056.0
389.356812 144.0
389.388123 172.0
389.429657 216.0
389.455566 160.0
389.486298 108.0
389.520477 132.0
389.556335 132.0
389.612 148.0
389.664612 128.0
389.691254 100.0
389.734222 132.0
389.77121 156.0
389.819946 100.0
389.827698 40.0
389.918488 136.0
389.975037 104.0
390.048187 152.0
390.133087 140.0
390.206299 208.0
390.250183 220.0
390.315521 156.0
390.340485 152.0
390.400818 284.0
390.459778 76.0
390.500366 156.0
390.54361 52.0
390.586731 160.0
390.648773 164.0
390.687408 108.0
390.728516 164.0
390.756042 68.0
390.803864 184.0
390.902863 80.0
390.933105 228.0
390.978241 140.0
391.082672 132.0
391.125946 32.0
391.22171 2056.0
391.334198 120.0
391.381836 232.0
391.442047 112.0
391.503906 52.0
391.620148 272.0
391.680084 132.0
391.696259 96.0
391.756012 68.0
391.793121 152.0
391.841248 168.0
391.874176 132.0
391.926971 152.0
391.962982 88.0
392.065247 116.0
392.114563 76.0
392.157898 124.0
392.233643 1136.0
392.335297 140.0
392.362885 88.0
392.414154 160.0
392.519409 92.0
392.58139 96.0
392.662567 72.0
392.721741 56.0
392.762482 120.0
392.799469 212.0
392.842041 160.0
392.871613 40.0
392.897034 228.0
392.937866 260.0
393.001801 68.0
393.064941 36.0
393.093933 160.0
393.132019 108.0
393.248688 332.0
393.302338 160.0
393.398438 92.0
393.458557 196.0
393.51886 100.0
393.546478 184.0
393.613617 104.0
393.683075 80.0
393.712341 56.0
393.769775 252.0
393.810638 180.0
393.857025 184.0
393.901917 104.0
393.928955 172.0
393.973022 232.0
394.016479 92.0
394.067841 224.0
394.127106 112.0
394.155304 120.0
394.242676 792.0
394.392853 148.0
394.439331 72.0
394.478851 104.0
394.546051 60.0
394.704193 60.0
394.783295 144.0
394.821564 136.0
394.925659 132.0
394.981049 192.0
395.05426 156.0
395.09668 136.0
395.127625 72.0
395.174866 64.0
395.240082 1116.0
395.335968 168.0
395.364716 184.0
395.432098 84.0
395.477936 124.0
395.618134 152.0
395.659149 120.0
395.703339 104.0
395.771332 132.0
395.800262 156.0
395.879456 48.0
395.976654 124.0
396.062561 140.0
396.132935 80.0
396.232788 540.0
396.305267 76.0
396.331024 104.0
396.382996 132.0
396.418182 196.0
396.487305 100.0
396.541718 140.0
396.838348 132.0
396.900909 72.0
396.987152 160.0
397.064362 76.0
397.101624 152.0
397.149689 412.0
397.244812 3608.0
397.334106 160.0
397.367706 136.0
397.403687 164.0
397.44519 228.0
397.511292 128.0
397.54837 124.0
397.587311 148.0
397.619812 48.0
397.695221 92.0
397.741455 80.0
397.83313 200.0
397.896027 112.0
397.946991 168.0
398.006897 92.0
398.016113 132.0
398.03302 128.0
398.096191 144.0
398.135895 120.0
398.163696 100.0
398.249023 3844.0
398.324188 84.0
398.367249 128.0
398.419647 64.0
398.465576 220.0
398.513245 140.0
398.602386 56.0
398.643066 228.0
398.692078 136.0
398.723846 84.0
398.751678 84.0
398.781006 64.0
398.851044 240.0
398.917725 196.0
398.982239 100.0
399.053314 188.0
399.141571 104.0
399.258789 12636.0
399.356018 160.0
399.409119 68.0
399.441101 148.0
399.479706 124.0
399.519531 300.0
399.565765 60.0
399.703125 220.0
399.748779 84.0
399.787109 144.0
399.827026 224.0
399.860596 68.0
399.881073 188.0
399.940582 264.0
399.994904 168.0
400.01123 72.0
400.019867 172.0
400.079803 120.0
400.116394 96.0
400.151886 48.0
400.262878 5108.0
400.370636 84.0
400.462494 116.0
400.499237 108.0
400.557556 64.0
400.585968 104.0
400.641724 28.0
400.721405 52.0
400.819305 80.0
400.842926 116.0
400.877838 220.0
400.916412 64.0
400.933594 96.0
401.008331 56.0
401.040192 64.0
401.076019 188.0
401.137604 188.0
401.243042 3100.0
401.352875 200.0
401.401184 276.0
401.442871 32.0
401.507294 100.0
401.539856 124.0
401.579834 128.0
401.630981 140.0
401.678589 168.0
401.726532 112.0
401.773926 36.0
401.811676 120.0
401.863739 148.0
401.909576 68.0
401.965973 256.0
402.025269 60.0
402.123322 212.0
402.225372 2644.0
402.334839 72.0
402.374634 128.0
402.408478 212.0
402.44455 120.0
402.50061 100.0
402.548218 40.0
402.592163 64.0
402.620117 132.0
402.654449 80.0
402.742493 156.0
402.77066 92.0
402.814667 56.0
402.88916 144.0
402.938446 264.0
402.969025 140.0
402.999573 80.0
403.039551 172.0
403.070526 148.0
403.099487 132.0
403.14978 124.0
403.219757 1412.0
403.292572 180.0
403.397369 60.0
403.466248 68.0
403.509094 140.0
403.577148 124.0
403.60202 44.0
403.612671 72.0
403.651764 144.0
403.717316 180.0
403.744904 128.0
403.791077 68.0
403.835052 72.0
403.87265 132.0
403.912903 164.0
403.940338 128.0
404.003082 100.0
404.041199 136.0
404.071075 88.0
404.115082 76.0
404.152466 128.0
404.238464 15172.0
404.369629 164.0
404.449799 188.0
404.498169 116.0
404.535858 180.0
404.564575 248.0
404.653198 160.0
404.740387 140.0
404.782379 56.0
404.816681 72.0
404.914795 72.0
404.968506 128.0
405.030731 88.0
405.071899 156.0
405.101318 184.0
405.152008 36.0
405.23819 4856.0
405.332306 116.0
405.440491 156.0
405.472565 40.0
405.507416 92.0
405.585266 196.0
405.610077 140.0
405.668549 76.0
405.713043 72.0
405.752533 260.0
405.793243 36.0
405.897491 48.0
405.949615 152.0
406.046265 120.0
406.08197 140.0
406.128784 136.0
406.158966 60.0
406.240601 948.0
406.314606 52.0
406.346039 156.0
406.394867 176.0
406.451019 84.0
406.49826 160.0
406.545929 80.0
406.557831 52.0
406.573547 112.0
406.673798 156.0
406.773865 128.0
406.852386 112.0
406.904572 92.0
406.982056 92.0
407.020996 88.0
407.093292 96.0
407.16156 108.0
407.22348 256.0
407.280457 356.0
407.338287 88.0
407.366394 124.0
407.416718 76.0
407.441467 128.0
407.475525 88.0
407.553009 168.0
407.626068 228.0
407.707916 124.0
407.764191 104.0
407.796326 52.0
407.848572 68.0
407.89682 80.0
407.924957 116.0
408.019318 256.0
408.083221 152.0
408.12674 64.0
408.170197 160.0
408.264648 264.0
408.314972 60.0
408.355194 152.0
408.407471 84.0
408.459778 108.0
408.487915 104.0
408.520111 40.0
408.61084 200.0
408.66684 76.0
408.740753 104.0
408.799805 132.0
408.930542 132.0
408.966736 128.0
409.037567 88.0
409.053619 76.0
409.069092 132.0
409.236633 316.0
409.29718 104.0
409.33139 120.0
409.385437 108.0
409.42572 84.0
409.514679 288.0
409.56485 88.0
409.635162 184.0
409.683502 112.0
409.766022 108.0
409.955933 240.0
410.005188 124.0
410.054596 72.0
410.114655 128.0
410.173798 172.0
410.230072 304.0
410.257294 216.0
410.316223 108.0
410.360565 104.0
410.393616 120.0
410.441193 164.0
410.495514 128.0
410.535553 120.0
410.602509 156.0
410.639648 144.0
410.695282 40.0
410.75174 184.0
410.77832 76.0
410.822083 108.0
410.863434 160.0
410.943665 340.0
411.033112 156.0
411.047028 168.0
411.181183 172.0
411.259888 7740.0
411.382111 56.0
411.431488 80.0
411.474091 132.0
411.546753 112.0
411.60733 88.0
411.665192 144.0
411.732513 52.0
411.7771 104.0
411.820099 292.0
411.858368 204.0
411.926453 208.0
411.999847 276.0
412.079895 68.0
412.159607 104.0
412.263794 6008.0
412.360931 136.0
412.411957 116.0
412.447388 328.0
412.519806 108.0
412.534058 168.0
412.601746 128.0
412.645721 32.0
412.698273 168.0
412.726593 148.0
412.788116 168.0
412.835754 88.0
412.900696 68.0
412.989441 156.0
413.073792 132.0
413.104309 152.0
413.151245 60.0
413.246124 1656.0
413.34198 260.0
413.377167 216.0
413.434479 168.0
413.464905 68.0
413.507324 132.0
413.591309 112.0
413.606781 84.0
413.639252 188.0
413.685425 104.0
413.734009 88.0
413.837311 140.0
413.907196 164.0
414.03363 52.0
414.102478 84.0
414.147797 148.0
414.255951 1032.0
414.376282 108.0
414.431885 216.0
414.481018 180.0
414.562744 92.0
414.615631 204.0
414.632111 116.0
414.647491 140.0
414.685913 56.0
414.714264 64.0
414.749695 76.0
414.915375 124.0
415.019226 152.0
415.079773 104.0
415.115356 60.0
415.14621 152.0
415.186157 172.0
415.253296 6380.0
415.342987 64.0
415.380981 112.0
415.470825 72.0
415.513123 172.0
415.568329 264.0
415.673401 128.0
415.72818 56.0
415.79007 124.0
415.839783 144.0
415.876099 168.0
415.950348 92.0
415.97052 84.0
415.987396 152.0
416.015594 348.0
416.06015 96.0
416.144012 188.0
416.259918 6840.0
416.379181 184.0
416.465698 176.0
416.561127 180.0
416.622833 92.0
416.651794 144.0
416.713654 120.0
416.749664 128.0
416.793762 164.0
416.861725 100.0
416.892151 112.0
416.938354 96.0
416.997131 96.0
417.046722 164.0
417.091095 136.0
417.147736 172.0
417.238495 9504.0
417.387451 84.0
417.437775 108.0
417.479034 48.0
417.537079 44.0
417.572571 100.0
417.609192 104.0
417.687164 92.0
417.854828 144.0
417.907471 184.0
417.95636 128.0
417.999329 168.0
418.058655 124.0
418.123596 152.0
418.245605 4744.0
418.406555 176.0
418.445221 88.0
418.532715 144.0
418.581451 92.0
418.650757 60.0
418.695831 56.0
418.727112 112.0
418.758575 108.0
418.824677 44.0
418.901886 108.0
419.008026 56.0
419.063324 260.0
419.092407 168.0
419.14624 156.0
419.248474 3228.0
419.343689 224.0
419.381714 208.0
419.455933 160.0
419.54248 120.0
419.600433 116.0
419.647491 132.0
419.694214 156.0
419.730652 104.0
419.770813 192.0
419.8172 144.0
419.863251 200.0
419.926636 160.0
419.9552 56.0
420.046936 212.0
420.054352 104.0
420.071747 244.0
420.14325 80.0
420.232941 8632.0
420.35907 48.0
420.388611 136.0
420.421936 148.0
420.457001 32.0
420.527527 188.0
420.575195 152.0
420.601837 124.0
420.646118 36.0
420.65509 76.0
420.730499 196.0
420.8013 208.0
420.835571 176.0
420.865845 80.0
420.880646 72.0
420.897522 176.0
420.930542 128.0
420.972229 100.0
421.014404 128.0
421.075653 60.0
421.144592 68.0
421.174713 128.0
421.234589 2372.0
421.311493 132.0
421.355438 92.0
421.396179 104.0
421.479553 184.0
421.561829 172.0
421.623322 244.0
421.678131 216.0
421.723114 108.0
421.768066 68.0
421.875519 92.0
421.91156 112.0
421.939758 168.0
421.984802 220.0
422.024597 48.0
422.091034 88.0
422.152374 112.0
422.24942 13284.0
422.345612 112.0
422.3815 116.0
422.457336 152.0
422.485992 176.0
422.53717 52.0
422.598419 96.0
422.646484 104.0
422.70459 192.0
422.779663 212.0
422.815094 48.0
422.884583 176.0
422.971558 384.0
423.03775 144.0
423.084351 88.0
423.252167 3820.0
423.339111 180.0
423.378021 140.0
423.427155 160.0
423.458771 156.0
423.507965 120.0
423.543884 120.0
423.607208 152.0
423.702271 128.0
423.764252 316.0
423.797485 348.0
423.878113 144.0
423.91861 120.0
423.987976 112.0
424.001648 44.0
424.020142 144.0
424.06012 156.0
424.086853 64.0
424.169312 76.0
424.263275 1920.0
424.326569 64.0
424.357513 44.0
424.386932 260.0
424.428345 44.0
424.44458 36.0
424.455719 72.0
424.516388 176.0
424.564392 32.0
424.609772 188.0
424.709747 192.0
424.793304 168.0
424.826904 88.0
424.911774 76.0
424.964966 92.0
424.991486 92.0
425.07132 168.0
425.125214 144.0
425.17157 228.0
425.273743 1224.0
425.335388 148.0
425.452393 180.0
425.495819 244.0
425.552307 152.0
425.598969 68.0
425.705444 252.0
425.758118 32.0
425.765625 136.0
425.827698 196.0
425.879822 140.0
425.927002 64.0
425.963531 108.0
425.978699 96.0
426.017395 160.0
426.062561 152.0
426.111877 92.0
426.159576 168.0
426.211365 120.0
426.268311 668.0
426.354309 48.0
426.402374 112.0
426.419769 108.0
426.429291 180.0
426.488281 168.0
426.546204 116.0
426.580658 164.0
426.611816 104.0
426.690216 144.0
426.712372 36.0
426.7547 108.0
426.828033 116.0
426.874634 196.0
426.932495 136.0
426.964142 268.0
427.035522 92.0
427.046722 124.0
427.063293 80.0
427.077087 160.0
427.101044 244.0
427.16156 188.0
427.254669 1476.0
427.320221 88.0
427.384644 184.0
427.448151 56.0
427.495819 48.0
427.547729 100.0
427.599792 128.0
427.622437 80.0
427.655273 184.0
427.740356 48.0
427.791595 116.0
427.833252 120.0
427.848297 92.0
427.867676 56.0
427.877777 180.0
427.940216 108.0
428.032654 112.0
428.061493 128.0
428.105133 80.0
428.18457 176.0
428.260223 620.0
428.347198 76.0
428.438416 164.0
428.490814 256.0
428.536072 156.0
428.579285 188.0
428.612 136.0
428.641541 192.0
428.701447 76.0
428.754517 52.0
428.803009 128.0
428.839417 112.0
428.895844 100.0
428.945984 164.0
428.993347 156.0
429.036194 196.0
429.106018 500.0
429.138947 320.0
429.168304 364.0
429.184174 196.0
429.200317 336.0
429.272217 106932.0
429.407104 332.0
429.521149 284.0
429.555817 172.0
429.569153 124.0
429.581879 156.0
429.627045 52.0
429.697906 224.0
429.745361 180.0
429.785339 108.0
429.876221 72.0
429.953156 436.0
430.026581 144.0
430.064514 260.0
430.104034 164.0
430.171753 128.0
430.190491 380.0
430.274994 35064.0
430.390015 96.0
430.423523 124.0
430.48111 120.0
430.522552 252.0
430.58371 52.0
430.610748 152.0
430.660034 120.0
430.72934 216.0
430.813446 52.0
430.852325 68.0
430.894165 236.0
430.96048 248.0
431.000824 160.0
431.094818 60.0
431.15097 148.0
431.264069 6552.0
431.355682 196.0
431.402771 176.0
431.430603 100.0
431.489319 164.0
431.516083 112.0
431.546295 164.0
431.626587 148.0
431.668213 124.0
431.746979 172.0
431.814087 64.0
431.886932 96.0
432.029633 128.0
432.060944 144.0
432.134033 72.0
432.150757 172.0
432.183167 112.0
432.257141 2556.0
432.360413 96.0
432.388916 72.0
432.460449 188.0
432.490967 144.0
432.506561 152.0
432.516388 180.0
432.621216 104.0
432.647797 80.0
432.717072 84.0
432.750092 96.0
432.822754 204.0
432.866821 40.0
432.984894 292.0
433.016113 140.0
433.069885 136.0
433.103333 116.0
433.158539 144.0
433.249817 600.0
433.333801 304.0
433.381531 364.0
433.467316 96.0
433.526184 144.0
433.589142 124.0
433.646576 272.0
433.656189 264.0
433.760468 100.0
433.795258 116.0
433.858643 136.0
433.919159 140.0
433.956085 132.0
434.010529 156.0
434.053162 52.0
434.094604 288.0
434.155731 108.0
434.245239 188.0
434.322723 64.0
434.384949 124.0
434.422272 44.0
434.5177 76.0
434.586884 160.0
434.631317 164.0
434.67807 104.0
434.808136 72.0
434.843262 96.0
434.878693 68.0
434.907745 152.0
434.976471 224.0
435.034119 144.0
435.051758 64.0
435.070312 124.0
435.173431 80.0
435.20166 156.0
435.246918 128.0
435.275238 160.0
435.316742 144.0
435.36618 144.0
435.455109 136.0
435.511993 100.0
435.541534 100.0
435.642731 128.0
435.688416 272.0
435.721649 40.0
435.755493 156.0
435.792297 104.0
435.850586 184.0
435.887848 116.0
435.916931 40.0
436.008362 104.0
436.194214 156.0
436.264252 588.0
436.32843 60.0
436.478119 64.0
436.515533 64.0
436.544647 92.0
436.607178 108.0
436.705658 56.0
436.760895 68.0
436.92337 68.0
436.983917 92.0
437.017059 56.0
437.050476 292.0
437.085388 96.0
437.182312 144.0
437.242554 288.0
437.305969 228.0
437.38504 112.0
437.465271 108.0
437.52243 60.0
437.559875 120.0
437.643158 108.0
437.677734 224.0
437.72644 56.0
437.788879 48.0
437.844635 88.0
437.890472 144.0
437.95462 116.0
437.97821 144.0
438.084625 92.0
438.13327 196.0
438.163757 60.0
438.213745 56.0
438.24292 228.0
438.285095 136.0
438.437103 80.0
438.474548 96.0
438.507324 116.0
438.555481 224.0
438.622162 140.0
438.763885 48.0
438.938995 84.0
439.031128 136.0
439.101654 68.0
439.143341 140.0
439.214264 44.0
439.281006 56.0
439.314362 112.0
439.368591 64.0
439.397797 132.0
439.427002 28.0
439.477081 80.0
439.544281 256.0
439.577209 72.0
439.613068 128.0
439.656494 208.0
439.850586 128.0
439.961212 140.0
440.044708 40.0
440.115692 112.0
440.211487 148.0
440.221252 140.0
440.275696 140.0
440.373535 80.0
440.421844 140.0
440.600159 80.0
440.654297 184.0
440.691345 116.0
440.721313 200.0
440.771454 92.0
440.809082 92.0
440.929749 164.0
440.970459 136.0
441.051453 44.0
441.135071 140.0
441.268982 1612.0
441.346619 100.0
441.542908 96.0
441.615936 124.0
441.670288 180.0
441.710632 124.0
441.799957 160.0
441.904572 88.0
441.941711 68.0
442.027191 296.0
442.111908 116.0
442.150238 108.0
442.178772 128.0
442.187134 160.0
442.205475 172.0
442.277771 5100.0
442.366272 272.0
442.427704 92.0
442.457001 136.0
442.532562 84.0
442.576691 156.0
442.632843 172.0
442.665527 180.0
442.699493 120.0
442.735657 196.0
442.748505 136.0
442.764191 144.0
442.823792 112.0
442.868225 60.0
442.909271 68.0
442.977509 176.0
443.056915 176.0
443.101959 92.0
443.183014 144.0
443.208862 212.0
443.286011 13832.0
443.406097 168.0
443.420532 140.0
443.481934 112.0
443.540497 160.0
443.627411 136.0
443.737946 64.0
443.767883 84.0
443.95575 80.0
444.018829 152.0
444.101227 96.0
444.143372 176.0
444.201447 132.0
444.288116 4800.0
444.386627 144.0
444.453583 156.0
444.526581 52.0
444.57135 100.0
444.615662 108.0
444.773865 52.0
444.901093 168.0
444.930481 92.0
445.013641 104.0
445.069031 32.0
445.098419 108.0
445.132019 140.0
445.184967 224.0
445.282227 1232.0
445.369659 164.0
445.4328 156.0
445.48468 124.0
445.514221 120.0
445.613831 96.0
445.709198 168.0
445.801453 88.0
445.841003 124.0
445.873962 84.0
445.90918 120.0
445.951233 92.0
445.989044 96.0
446.017487 68.0
446.042511 184.0
446.077332 52.0
446.10675 52.0
446.157196 160.0
446.186615 96.0
446.227386 176.0
446.293152 260.0
446.344482 124.0
446.413666 152.0
446.487274 144.0
446.549835 100.0
446.601379 68.0
446.636566 100.0
446.68161 96.0
446.733307 160.0
446.873474 180.0
446.908539 88.0
446.985748 64.0
447.044678 200.0
447.099365 100.0
447.156128 156.0
447.198059 200.0
447.253967 216.0
447.314026 56.0
447.352509 176.0
447.384399 120.0
447.444519 128.0
447.488953 124.0
447.553986 132.0
447.591888 92.0
447.634003 84.0
447.680145 96.0
447.729828 196.0
447.764557 52.0
447.810883 104.0
447.871674 128.0
448.036652 288.0
448.066467 136.0
448.129211 224.0
448.183868 96.0
448.232666 96.0
448.270081 176.0
448.341705 176.0
448.404938 36.0
448.4758 160.0
448.511871 140.0
448.580292 152.0
448.66626 104.0
448.699982 84.0
448.759033 44.0
448.839142 132.0
448.929169 148.0
449.033112 140.0
449.082428 104.0
449.159637 164.0
449.259369 5244.0
449.414734 112.0
449.429321 108.0
449.439453 160.0
449.616089 132.0
449.699738 60.0
449.729279 200.0
449.7789 168.0
449.850952 372.0
449.969879 104.0
450.037445 52.0
450.138763 116.0
450.206329 136.0
450.260132 1324.0
450.468201 156.0
450.54425 120.0
450.628723 108.0
450.74704 140.0
450.814667 120.0
450.847839 184.0
450.917938 172.0
450.97525 120.0
451.021759 116.0
451.162415 144.0
451.267303 308.0
451.351501 116.0
451.402252 152.0
451.431854 124.0
451.474121 64.0
451.516418 120.0
451.55661 152.0
451.601715 144.0
451.677124 80.0
451.706757 76.0
451.744812 104.0
451.804047 64.0
451.837891 244.0
452.007141 72.0
452.108704 108.0
452.155243 52.0
452.239441 116.0
452.273743 104.0
452.392273 164.0
452.476929 36.0
452.671722 68.0
452.717499 64.0
452.773346 132.0
452.845337 156.0
452.951233 188.0
453.0047 96.0
453.031708 188.0
453.061371 132.0
453.146088 156.0
453.205414 88.0
453.256256 76.0
453.396118 108.0
453.485107 76.0
453.552368 124.0
453.754425 132.0
453.807281 184.0
453.836945 48.0
453.879364 72.0
453.960449 164.0
454.049652 176.0
454.095642 100.0
454.177551 152.0
454.266998 120.0
454.392548 44.0
454.426514 104.0
454.473175 112.0
454.560913 136.0
454.628052 84.0
454.782959 104.0
454.865906 156.0
454.947693 164.0
455.026672 164.0
455.088623 116.0
455.188049 336.0
455.284851 112.0
455.35614 112.0
455.433746 104.0
455.472778 164.0
455.608887 80.0
455.70871 100.0
455.776703 132.0
455.848633 112.0
455.938171 92.0
456.010437 100.0
456.071503 140.0
456.11203 88.0
456.163452 304.0
456.214447 144.0
456.273041 376.0
456.316467 48.0
456.384521 76.0
456.431274 108.0
456.463867 120.0
456.501587 128.0
456.571625 88.0
456.652405 96.0
456.713379 96.0
456.805542 156.0
456.835327 164.0
456.899139 72.0
456.937408 112.0
456.984222 108.0
457.01825 148.0
457.26825 216.0
457.297089 396.0
457.339905 96.0
457.458984 120.0
457.511963 60.0
457.584686 236.0
457.642822 124.0
457.673737 156.0
457.716309 40.0
457.771667 156.0
457.858154 260.0
457.917572 228.0
457.984619 132.0
458.117279 108.0
458.208954 60.0
458.271667 456.0
458.320648 100.0
458.389343 128.0
458.445862 92.0
458.479034 80.0
458.549347 204.0
458.592255 52.0
458.689301 104.0
458.730286 116.0
458.81366 120.0
458.851807 64.0
458.927124 220.0
459.007294 132.0
459.079163 76.0
459.148132 140.0
459.177368 116.0
459.282837 1976.0
459.380829 108.0
459.435211 120.0
459.480865 120.0
459.572418 172.0
459.613129 52.0
459.642975 156.0
459.674286 120.0
459.72345 140.0
459.76886 72.0
459.804596 128.0
459.854156 240.0
459.948425 168.0
459.99295 156.0
460.024323 128.0
460.063202 104.0
460.082245 48.0
460.089752 148.0
460.161987 168.0
460.212769 232.0
460.288788 14080.0
460.419922 148.0
460.471161 124.0
460.500031 112.0
460.56015 292.0
460.616943 180.0
460.684631 180.0
460.729248 104.0
460.774445 92.0
460.829987 44.0
460.911163 72.0
460.943451 180.0
461.011444 144.0
461.048523 100.0
461.088959 116.0
461.146454 132.0
461.174469 188.0
461.214203 160.0
461.295441 11524.0
461.423767 136.0
461.494598 120.0
461.532959 128.0
461.575653 148.0
461.650665 56.0
461.751312 116.0
461.784912 152.0
461.863739 44.0
461.920105 156.0
461.999146 84.0
462.035156 112.0
462.151306 164.0
462.297607 3660.0
462.429291 44.0
462.512268 216.0
462.566254 48.0
462.652557 196.0
462.79245 136.0
462.864929 168.0
462.961884 108.0
463.056732 152.0
463.100372 108.0
463.158447 40.0
463.223145 60.0
463.300354 452.0
463.428741 224.0
463.598206 104.0
463.649872 80.0
463.701294 76.0
463.77359 160.0
463.817017 120.0
463.867554 148.0
463.941986 52.0
463.988495 48.0
464.042206 76.0
464.103363 156.0
464.1633 188.0
464.231476 108.0
464.285889 112.0
464.358246 124.0
464.408722 52.0
464.474854 144.0
464.520264 288.0
464.580322 64.0
464.636078 88.0
464.74646 112.0
464.786255 52.0
464.824463 156.0
464.918121 140.0
464.963318 136.0
464.995636 132.0
465.072784 140.0
465.09259 104.0
465.107697 84.0
465.162079 224.0
465.206848 80.0
465.249786 60.0
465.303253 72.0
465.333496 120.0
465.369995 104.0
465.431488 124.0
465.477325 68.0
465.547333 120.0
465.608826 116.0
465.67572 124.0
465.777954 96.0
465.828552 80.0
465.84436 148.0
465.856323 196.0
465.961273 148.0
466.284943 116.0
466.426788 32.0
466.461182 136.0
466.499878 108.0
466.599823 148.0
466.736328 112.0
466.843811 76.0
466.878235 100.0
466.908325 68.0
466.955627 80.0
467.013519 96.0
467.109985 140.0
467.235229 40.0
467.316284 124.0
467.450378 52.0
467.639709 172.0
467.694672 80.0
467.737 196.0
467.872162 40.0
467.931458 88.0
467.992706 180.0
468.022858 64.0
468.121613 64.0
468.147736 72.0
468.302765 76.0
468.363068 184.0
468.455017 128.0
468.49231 44.0
468.539673 80.0
468.716553 84.0
468.81546 160.0
469.005066 80.0
469.078369 52.0
469.112854 148.0
469.163788 156.0
469.199066 136.0
469.309753 700.0
469.565582 56.0
469.690674 124.0
469.798492 72.0
469.914978 120.0
470.014221 128.0
470.057373 208.0
470.096222 136.0
470.143677 60.0
470.300415 308.0
470.416931 328.0
470.488983 60.0
470.534515 80.0
470.596924 116.0
470.631439 164.0
470.661682 48.0
470.700531 40.0
470.798523 128.0
470.830078 296.0
470.938049 116.0
471.162689 60.0
471.221466 128.0
471.278656 196.0
471.314545 108.0
471.327911 100.0
471.340881 132.0
471.382019 132.0
471.417603 80.0
471.581818 152.0
471.616394 92.0
471.83255 140.0
471.92334 176.0
472.120758 128.0
472.19577 232.0
472.306091 128.0
472.363831 140.0
472.405945 156.0
472.572113 136.0
472.611053 88.0
472.732208 60.0
472.825897 136.0
472.950226 180.0
473.013519 80.0
473.169373 60.0
473.285828 272.0
473.349457 136.0
473.420502 84.0
473.528778 104.0
473.611053 44.0
473.647675 44.0
473.792999 164.0
473.823334 40.0
473.879639 116.0
473.913116 116.0
473.945984 116.0
473.964294 120.0
473.979309 120.0
474.015015 100.0
474.048645 128.0
474.20047 116.0
474.29657 236.0
474.43222 184.0
474.484833 132.0
474.537476 144.0
474.620819 132.0
474.664124 284.0
474.740356 176.0
474.789917 152.0
474.850647 56.0
474.910126 180.0
474.941742 132.0
474.975159 164.0
475.058838 284.0
475.0979 60.0
475.164703 100.0
475.277954 1124.0
475.445007 88.0
475.57843 124.0
475.705414 68.0
475.804108 164.0
476.026703 104.0
476.135284 40.0
476.280457 568.0
476.356781 116.0
476.422791 188.0
476.521881 48.0
476.552277 96.0
476.660919 144.0
476.739166 196.0
476.917328 128.0
477.052063 156.0
477.095551 156.0
477.147705 128.0
477.182495 120.0
477.289185 204.0
477.412262 104.0
477.456421 84.0
477.554932 216.0
477.613007 96.0
477.913452 124.0
478.043701 156.0
478.143799 60.0
478.185272 144.0
478.305328 200.0
478.477386 120.0
478.522675 128.0
478.627014 40.0
478.666199 184.0
478.701782 92.0
478.831665 124.0
478.953644 152.0
479.072357 156.0
479.148865 112.0
479.24115 120.0
479.290863 156.0
479.308685 64.0
479.321686 124.0
479.376221 180.0
479.445953 36.0
479.550537 180.0
479.580109 148.0
479.707458 128.0
479.737976 60.0
479.768494 104.0
479.799011 92.0
479.829529 140.0
479.890564 120.0
479.955048 168.0
480.054047 140.0
480.166656 80.0
480.239441 112.0
480.442932 160.0
480.4552 104.0
480.518616 92.0
480.574158 120.0
480.78479 124.0
480.887085 128.0
480.989929 136.0
481.032349 156.0
481.154266 216.0
481.234375 152.0
481.3479 104.0
481.387207 224.0
481.483276 92.0
481.672272 104.0
481.745361 44.0
481.815247 56.0
481.889526 208.0
481.95163 132.0
481.994385 72.0
482.048401 88.0
482.094879 132.0
482.239105 40.0
482.361511 112.0
482.584442 204.0
482.641296 64.0
482.671906 124.0
482.741333 132.0
482.821228 80.0
482.866821 128.0
483.008636 104.0
483.201141 180.0
483.244873 100.0
483.288635 48.0
483.341156 76.0
483.503052 72.0
483.593781 104.0
483.611786 76.0
483.627991 168.0
483.779449 108.0
483.822174 88.0
483.870728 132.0
483.971436 124.0
484.141144 192.0
484.313019 176.0
484.361206 60.0
484.404999 332.0
484.470245 188.0
484.536438 56.0
484.567108 80.0
484.628662 80.0
484.712402 144.0
484.97464 72.0
485.098694 132.0
485.171753 120.0
485.211334 104.0
485.301697 468.0
485.404266 100.0
485.474426 72.0
485.527344 120.0
485.597229 136.0
485.62793 80.0
485.693726 156.0
485.803375 64.0
485.927765 136.0
485.974487 124.0
486.079773 104.0
486.110504 204.0
486.141785 244.0
486.174805 116.0
486.192719 76.0
486.211609 96.0
486.268829 140.0
486.323425 124.0
486.358093 308.0
486.396362 128.0
486.45282 100.0
486.484741 180.0
486.514862 212.0
486.617462 132.0
486.65918 164.0
486.696716 116.0
486.757996 152.0
486.874329 148.0
486.909485 172.0
486.966827 148.0
487.000122 184.0
487.050018 32.0
487.135742 116.0
487.185059 200.0
487.22937 116.0
487.24057 284.0
487.312836 20136.0
487.414551 160.0
487.430328 116.0
487.444641 100.0
487.485962 104.0
487.567596 148.0
487.62558 36.0
487.687012 132.0
487.735474 104.0
487.775024 44.0
487.88858 212.0
487.946228 216.0
488.02121 72.0
488.103973 68.0
488.16452 152.0
488.314117 5732.0
488.394714 176.0
488.437134 164.0
488.518188 60.0
488.554169 204.0
488.614258 228.0
488.718567 92.0
488.760162 68.0
488.826172 160.0
488.865753 124.0
488.938934 108.0
488.984589 84.0
489.0242 28.0
489.068207 60.0
489.200256 48.0
489.315216 1088.0
489.375153 280.0
489.465607 60.0
489.559662 148.0
489.578064 104.0
489.684479 132.0
489.71463 176.0
489.762482 100.0
489.834381 176.0
489.874023 132.0
490.014984 40.0
490.065979 108.0
490.147156 216.0
490.19516 108.0
490.263794 224.0
490.294708 136.0
490.323425 232.0
490.358704 108.0
490.417206 160.0
490.481384 72.0
490.535004 56.0
490.565857 108.0
490.601135 72.0
490.671661 144.0
490.727295 156.0
490.770416 60.0
490.792816 168.0
490.865662 108.0
490.999634 136.0
491.099396 124.0
491.150848 48.0
491.187622 92.0
491.240417 132.0
491.304779 192.0
491.422363 96.0
491.452728 288.0
491.518158 52.0
491.567047 84.0
491.60675 92.0
491.730316 160.0
491.792114 188.0
491.845306 160.0
491.898041 116.0
491.968689 96.0
492.076324 168.0
492.125336 80.0
492.264496 120.0
492.3172 128.0
492.388153 80.0
492.524811 136.0
492.595734 36.0
492.649841 176.0
492.728271 104.0
492.779572 176.0
492.82547 60.0
492.899414 136.0
492.931519 104.0
492.997803 96.0
493.028717 260.0
493.107208 196.0
493.211853 204.0
493.293915 156.0
493.377899 96.0
493.479584 116.0
493.652039 292.0
493.744904 136.0
493.886444 56.0
493.957214 144.0
494.000732 172.0
494.057465 212.0
494.149261 148.0
494.290161 156.0
494.488159 56.0
494.53241 28.0
494.625366 300.0
494.678497 36.0
494.725616 116.0
494.754883 156.0
494.82016 116.0
494.899292 128.0
494.950409 124.0
494.983978 48.0
495.041534 156.0
495.189392 136.0
495.24527 152.0
495.293976 76.0
495.347137 96.0
495.462219 324.0
495.578918 100.0
495.630676 124.0
495.738495 108.0
495.771393 148.0
495.818298 220.0
495.880524 92.0
495.963043 48.0
496.038422 136.0
496.171387 104.0
496.233459 64.0
496.292328 144.0
496.331848 172.0
496.366486 128.0
496.401947 88.0
496.47049 136.0
496.512817 152.0
496.632568 256.0
496.685791 104.0
496.7612 148.0
496.920929 88.0
497.005219 116.0
497.061432 156.0
497.120575 88.0
497.202606 116.0
497.242554 108.0
497.309326 144.0
497.564453 248.0
497.657684 140.0
497.70932 228.0
497.744843 120.0
497.751801 184.0
497.79364 148.0
497.853058 224.0
497.893036 84.0
497.986298 44.0
498.041107 128.0
498.075134 64.0
498.156555 72.0
498.266296 120.0
498.315002 156.0
498.355011 204.0
498.433929 208.0
498.514954 104.0
498.572723 112.0
498.639221 196.0
498.706055 76.0
498.76828 52.0
498.80658 144.0
498.879425 88.0
498.939331 48.0
498.99057 120.0
499.066833 180.0
499.148865 224.0
499.199554 192.0
499.261078 124.0
499.301025 112.0
499.391968 60.0
499.488617 56.0
499.586487 96.0
499.617615 92.0
499.685303 132.0
499.758209 136.0
499.800049 96.0
499.875702 224.0
499.911285 56.0
499.968384 96.0
500.063538 208.0
500.183472 136.0
500.248138 96.0
500.318542 128.0
500.396454 240.0
500.450928 136.0
500.494415 328.0
500.545929 196.0
500.598785 136.0
500.654663 232.0
500.721527 100.0
500.765106 140.0
500.81427 116.0
500.846985 164.0
500.926392 352.0
500.99823 132.0
501.00882 64.0
501.032959 212.0
501.086792 72.0
501.143005 240.0
501.183716 116.0
501.266388 168.0
501.324127 256.0
501.405731 124.0
501.418945 108.0
501.430969 116.0
501.501434 72.0
501.560394 180.0
501.617798 168.0
501.703247 172.0
501.743225 208.0
501.762726 156.0
501.781097 96.0
501.882446 320.0
501.963806 260.0
501.979218 200.0
502.026184 168.0
502.073608 224.0
502.139221 80.0
502.156372 76.0
502.187592 152.0
502.209137 72.0
502.269287 228.0
502.299774 136.0
502.39621 192.0
502.44458 160.0
502.473846 132.0
502.555359 228.0
502.596863 96.0
502.629944 156.0
502.651123 164.0
502.678253 336.0
502.720123 156.0
502.776489 116.0
502.815002 200.0
502.829468 232.0
502.842407 84.0
502.883972 276.0
502.917877 156.0
502.964417 80.0
503.026276 356.0
503.075684 100.0
503.102448 308.0
503.153992 376.0
503.222229 100.0
503.30658 3604.0
503.37619 268.0
503.419586 200.0
503.487396 184.0
503.590515 420.0
503.644836 196.0
503.680725 200.0
503.736542 328.0
503.82312 64.0
503.843109 48.0
503.875031 328.0
503.935425 108.0
503.984741 256.0
504.025269 172.0
504.044586 144.0
504.062195 444.0
504.083344 272.0
504.096893 188.0
504.117767 156.0
504.149994 344.0
504.208496 456.0
504.3125 1632.0
504.402161 300.0
504.431915 196.0
504.495392 388.0
504.511017 308.0
504.540497 252.0
504.568726 296.0
504.601532 416.0
504.642151 532.0
504.687042 376.0
504.739838 300.0
504.82135 212.0
504.866913 660.0
504.912567 292.0
504.958252 508.0
505.021271 384.0
505.067932 428.0
505.110382 676.0
505.165771 1240.0
505.228455 1392.0
505.325134 357316.0
505.477814 384.0
505.578491 232.0
505.62561 508.0
505.685272 460.0
505.693085 248.0
505.738037 860.0
505.805084 600.0
505.849701 388.0
505.894592 240.0
505.915924 196.0
505.976898 596.0
506.007629 452.0
506.065125 4240.0
506.139557 648.0
506.211578 620.0
506.32724 158568.0
506.45343 656.0
506.488037 304.0
506.56073 360.0
506.593231 236.0
506.630249 192.0
506.675476 216.0
506.740173 276.0
506.752228 272.0
506.797058 656.0
506.850037 312.0
506.921326 188.0
506.968506 132.0
507.004181 184.0
507.122375 332.0
507.181 376.0
507.328094 17268.0
507.443512 164.0
507.511292 376.0
507.562836 148.0
507.650024 144.0
507.70163 240.0
507.758545 320.0
507.838928 216.0
507.871887 188.0
507.933655 276.0
508.013458 224.0
508.046783 76.0
508.099365 84.0
508.157501 60.0
508.204681 248.0
508.239258 252.0
508.332245 2340.0
508.448883 148.0
508.503143 192.0
508.533051 160.0
508.582489 384.0
508.623016 300.0
508.703613 208.0
508.781647 240.0
508.824432 144.0
508.840332 284.0
508.853516 332.0
508.921326 112.0
508.962769 296.0
509.023926 404.0
509.0383 332.0
509.073273 224.0
509.119476 268.0
509.148682 208.0
509.218597 308.0
509.249756 264.0
509.301483 420.0
509.343231 528.0
509.424652 248.0
509.458405 96.0
509.498779 388.0
509.593079 272.0
509.636841 200.0
509.674774 256.0
509.729462 120.0
509.821228 136.0
509.854004 264.0
509.914124 116.0
509.976624 88.0
510.011475 188.0
510.057556 108.0
510.105682 308.0
510.151459 212.0
510.188049 268.0
510.232147 108.0
510.302979 124.0
510.369537 180.0
510.417999 316.0
510.470306 264.0
510.510437 220.0
510.561127 152.0
510.612976 116.0
510.688995 100.0
510.724426 124.0
510.767883 180.0
510.800415 84.0
510.839447 228.0
510.89856 108.0
510.978485 172.0
511.029419 56.0
511.086334 120.0
511.156799 100.0
511.258759 280.0
511.301331 144.0
511.35022 108.0
511.397308 168.0
511.451599 120.0
511.518311 184.0
511.591156 68.0
511.652863 68.0
511.701324 124.0
511.766846 72.0
511.796173 56.0
511.849884 72.0
511.904358 84.0
511.97049 92.0
512.001038 64.0
512.044983 76.0
512.090088 60.0
512.124634 200.0
512.221741 140.0
512.322815 136.0
512.381348 44.0
512.439758 96.0
512.528198 88.0
512.624695 32.0
512.669006 72.0
512.721802 80.0
512.777893 64.0
512.829651 108.0
512.902893 136.0
512.952698 124.0
513.034851 72.0
513.101746 52.0
513.18335 136.0
513.228699 84.0
513.311707 68.0
513.34491 52.0
513.406494 56.0
513.483459 156.0
513.52417 68.0
513.625549 140.0
513.707947 76.0
513.778931 124.0
513.88269 68.0
513.945862 68.0
513.990967 116.0
514.067688 92.0
514.1427 180.0
514.195557 48.0
514.24823 76.0
514.361023 48.0
514.4021 80.0
514.43634 88.0
514.52356 56.0
514.579651 76.0
514.706482 140.0
514.753845 72.0
514.808044 44.0
514.845581 112.0
514.88562 52.0
515.049866 36.0
515.125305 92.0
515.282288 40.0
515.363953 200.0
515.458496 60.0
515.503662 92.0
515.589539 72.0
515.723999 80.0
515.860474 68.0
515.951172 52.0
516.064636 40.0
516.118408 32.0
516.291565 56.0
516.40332 100.0
516.724487 60.0
516.801392 76.0
516.853455 72.0
517.045776 96.0
517.113647 104.0
517.179565 92.0
517.261902 100.0
517.389771 68.0
517.426025 80.0
517.462219 84.0
517.534668 52.0
517.570496 100.0
517.652405 64.0
517.946777 56.0
518.123413 56.0
518.187378 68.0
518.35907 80.0
518.508606 40.0
518.605225 112.0
518.658142 32.0
518.713989 108.0
518.81488 56.0
518.866699 80.0
519.016296 152.0
519.07074 48.0
519.184082 64.0
519.268005 96.0
519.30603 104.0
519.347351 128.0
519.465271 60.0
519.524231 88.0
519.694702 112.0
519.959839 144.0
520.009766 64.0
520.046082 48.0
520.114136 148.0
520.155029 44.0
520.232178 76.0
520.334473 60.0
520.391052 68.0
520.45929 160.0
520.568176 128.0
520.808899 84.0
520.848328 76.0
520.949707 68.0
521.008728 92.0
521.120544 156.0
521.199585 88.0
521.280762 132.0
521.312256 176.0
521.354065 88.0
521.415283 76.0
521.567688 48.0
521.617676 72.0
521.808594 164.0
521.93811 108.0
521.981384 152.0
522.045044 68.0
522.199646 60.0
522.368774 92.0
522.458923 112.0
522.531738 76.0
522.684265 36.0
522.78656 40.0
522.81842 40.0
522.895752 36.0
522.945801 136.0
522.982239 108.0
523.118774 76.0
523.15979 112.0
523.209839 172.0
523.319092 68.0
523.432922 56.0
523.464783 48.0
523.52948 120.0
523.612732 60.0
523.681519 132.0
523.715271 116.0
523.760864 168.0
523.833557 96.0
523.93396 120.0
523.982361 64.0
524.04895 96.0
524.148071 100.0
524.225525 64.0
524.266541 76.0
524.351318 128.0
524.480774 76.0
524.549133 48.0
524.603821 128.0
524.649414 132.0
524.793274 244.0
524.983154 60.0
525.014221 116.0
525.092285 64.0
525.16925 84.0
525.201172 112.0
525.397339 80.0
525.50354 104.0
525.684753 36.0
525.757812 64.0
525.881042 48.0
525.916809 172.0
525.954041 104.0
526.036194 52.0
526.145752 60.0
526.227966 68.0
526.323853 84.0
526.374084 88.0
526.415161 52.0
526.483643 88.0
526.533264 60.0
526.712036 68.0
526.771423 84.0
526.8125 68.0
526.879211 132.0
526.954163 112.0
527.008972 44.0
527.091187 204.0
527.136902 208.0
527.25116 60.0
527.319702 36.0
527.861328 184.0
527.994812 96.0
528.152161 60.0
528.389709 64.0
528.433228 116.0
528.525757 80.0
528.586487 68.0
528.627625 48.0
528.735229 88.0
528.778687 104.0
529.135681 56.0
529.205078 52.0
529.387512 88.0
529.598206 36.0
529.808899 72.0
529.891357 52.0
530.354187 40.0
530.395447 120.0
530.432129 48.0
530.615479 104.0
530.69342 40.0
530.829468 108.0
530.88147 84.0
531.091614 96.0
531.207092 32.0
531.262146 32.0
531.355835 116.0
531.473206 48.0
531.601685 92.0
531.720947 88.0
532.03772 96.0
532.161621 100.0
532.23053 104.0
532.349915 32.0
532.519836 36.0
532.850586 56.0
533.342285 56.0
533.790222 100.0
534.15155 40.0
534.252747 40.0
534.85553 112.0
534.993652 112.0
535.062134 100.0
535.164001 72.0
535.486328 68.0
535.541626 36.0
535.689026 60.0
536.043762 48.0
536.384827 48.0
536.638367 88.0
537.191772 72.0
537.325562 40.0
538.031677 68.0
538.063965 48.0
538.22583 80.0
538.562683 44.0
538.673584 88.0
538.812134 68.0
539.538635 80.0
540.88385 56.0
541.050476 36.0
541.235718 136.0
541.439453 44.0
541.596924 112.0
541.763672 56.0
541.972168 88.0
543.562561 76.0
543.896729 60.0
544.268127 80.0
544.430664 64.0
544.709351 104.0
545.8573 92.0
546.332092 88.0
547.253174 88.0
548.562256 136.0
548.888611 76.0
550.134338 108.0
550.531189 84.0
550.984253 96.0
551.283325 56.0
551.428162 60.0
551.779602 44.0
552.046082 116.0
553.556763 52.0
554.746826 52.0
554.887451 36.0
555.070312 36.0
555.365723 76.0
555.783264 40.0
556.094849 60.0
556.153992 136.0
556.215027 52.0
556.271362 44.0
556.337097 104.0
557.08374 44.0
558.018982 48.0
558.070679 36.0
558.724426 92.0
558.762024 132.0
559.169861 124.0
559.256165 84.0
559.307922 48.0
560.169617 144.0
560.405151 136.0
560.570068 72.0
560.711487 32.0
561.201721 36.0
561.253601 40.0
561.37616 116.0
562.247437 88.0
562.362183 60.0
562.753418 64.0
562.928711 76.0
564.081482 76.0
565.197632 120.0
565.505188 128.0
565.831848 124.0
566.068604 156.0
566.73645 108.0
567.461609 76.0
567.589661 92.0
567.779297 84.0
568.144531 76.0
568.452942 60.0
569.865723 96.0
570.043701 76.0
570.219543 48.0
570.295593 52.0
570.766235 84.0
571.175232 68.0
571.703369 48.0
572.055542 84.0
572.250732 68.0
572.760315 76.0
573.389221 48.0
573.432129 136.0
573.77533 108.0
574.013733 112.0
574.311218 84.0
574.920044 96.0
575.020264 60.0
575.220764 40.0
575.707764 72.0
576.20929 120.0
576.586792 68.0
576.682373 52.0
576.844849 116.0
576.878357 88.0
577.485596 80.0
578.13147 64.0
578.385132 104.0
578.825562 76.0
579.05542 104.0
579.453003 108.0
579.984924 48.0
580.215027 100.0
580.301331 48.0
580.430786 84.0
580.541077 44.0
580.809631 68.0
581.428589 88.0
581.620544 96.0
581.668579 68.0
582.254333 40.0
582.37439 56.0
582.556946 36.0
582.715454 132.0
583.085449 56.0
583.229614 52.0
583.272888 68.0
583.691162 92.0
584.032593 68.0
584.330872 116.0
584.884277 44.0
584.966125 64.0
585.192383 96.0
585.543884 104.0
585.601685 64.0
587.457458 56.0
587.626282 68.0
587.744019 120.0
588.055786 44.0
588.09436 32.0
588.813721 84.0
589.38147 104.0
589.620544 44.0
590.103943 100.0
590.331177 32.0
591.192261 44.0
591.35199 68.0
591.390686 40.0
591.76825 72.0
592.13147 104.0
594.76416 60.0
594.968079 52.0
595.065125 60.0
595.171997 28.0
595.783936 80.0
596.87262 64.0
596.974731 48.0
597.621643 52.0
598.108337 96.0
598.244629 36.0
598.892212 96.0
599.696167 124.0
599.769287 96.0
600.32019 52.0
600.549438 104.0
600.666504 92.0
601.305664 60.0
601.527283 68.0
602.096558 76.0
602.677856 44.0
602.951477 56.0
604.095642 120.0
604.413635 112.0
604.648499 44.0
606.196045 80.0
607.259827 72.0
607.539429 56.0
607.662109 60.0
607.706238 64.0
608.388428 52.0
608.486633 56.0
608.786133 48.0
609.061157 60.0
609.247803 88.0
609.581909 76.0
609.680237 48.0
609.989868 88.0
610.324158 92.0
610.378235 88.0
610.506104 76.0
610.550354 40.0
611.962585 72.0
612.494446 76.0
613.041321 44.0
613.460266 48.0
613.992798 68.0
614.18512 60.0
615.20166 96.0
615.645996 72.0
615.794189 72.0
615.986816 44.0
616.312866 100.0
617.296509 188.0
617.817932 76.0
617.944458 36.0
618.018677 96.0
618.284668 96.0
619.152283 48.0
620.272034 80.0
621.675598 192.0
622.052795 68.0
622.266235 60.0
622.628723 52.0
623.190063 84.0
623.226807 132.0
623.503113 52.0
624.194092 136.0
624.268677 40.0
624.402954 92.0
624.97998 80.0
626.020325 112.0
626.080078 128.0
626.119934 116.0
626.498474 156.0
626.553284 92.0
626.647949 64.0
626.697754 44.0
627.624878 64.0
627.749512 48.0
628.45282 80.0
628.557617 32.0
629.466064 72.0
629.710815 28.0
630.410217 92.0
630.830017 84.0
630.905884 92.0
631.025024 76.0
631.825195 120.0
632.665955 56.0
632.796143 52.0
632.91626 64.0
633.256836 40.0
633.537292 104.0
633.797852 52.0
634.960815 80.0
635.482544 36.0
635.643066 44.0
636.01947 84.0
636.18512 92.0
636.230286 44.0
636.521545 68.0
637.586487 52.0
637.852844 96.0
637.908142 56.0
638.061218 96.0
638.607056 60.0
639.145386 100.0
639.839905 48.0
639.925537 56.0
640.479431 80.0
640.988281 124.0
641.613281 64.0
641.862122 68.0
642.107422 56.0
642.208313 48.0
642.823792 52.0
643.23761 88.0
643.278015 60.0
643.31842 48.0
643.505188 44.0
643.555664 92.0
643.671814 56.0
643.873779 80.0
645.445374 116.0
645.52124 84.0
645.981506 28.0
646.44696 80.0
646.700012 96.0
646.927795 52.0
647.160645 112.0
647.297363 72.0
647.656982 72.0
648.239563 100.0
648.523376 84.0
648.589294 116.0
648.751465 28.0
648.979614 40.0
649.167236 56.0
649.341187 108.0
649.735291 60.0
649.872314 116.0
650.577759 52.0
651.63916 48.0
651.801758 92.0
652.106628 60.0
652.172729 76.0
653.235474 56.0
653.586487 84.0
654.81842 76.0
655.088379 68.0
655.292175 36.0
655.465393 96.0
655.908752 40.0
655.975037 64.0
656.158569 100.0
656.648071 44.0
657.9646 168.0
658.567139 84.0
658.610291 80.0
659.328369 40.0
659.696411 72.0
660.212769 36.0
660.795898 84.0
661.108032 48.0
661.589172 88.0
662.300964 100.0
662.475098 100.0
663.705139 40.0
663.987183 76.0
665.239136 40.0
665.572815 52.0
665.868835 92.0
666.420288 104.0
666.754333 84.0
666.913635 100.0
667.967712 124.0
668.605713 68.0
669.882629 48.0
670.521545 80.0
670.604004 76.0
671.573303 32.0
671.80542 44.0
672.125305 112.0
672.816895 180.0
673.117432 140.0
673.16803 48.0
673.286804 48.0
673.808472 32.0
674.164978 64.0
674.340698 132.0
674.992065 60.0
675.354126 116.0
675.586853 28.0
675.674805 104.0
675.861084 64.0
675.985291 96.0
676.383789 128.0
676.727112 92.0
676.906677 56.0
677.289917 36.0
677.424622 68.0
677.875366 60.0
678.154236 64.0
678.528442 80.0
678.896545 56.0
679.176636 48.0
680.037903 80.0
680.162476 76.0
680.742126 56.0
681.195801 120.0
681.440002 64.0
681.585449 76.0
682.3703 64.0
683.176392 88.0
683.462524 76.0
683.587402 40.0
684.128723 80.0
684.50061 120.0
684.821228 56.0
685.305725 44.0
685.357849 120.0
685.644409 72.0
686.103088 56.0
687.281799 84.0
687.553162 88.0
687.746277 56.0
688.169128 52.0
688.565979 80.0
688.618225 28.0
688.874146 60.0
689.253052 92.0
689.453003 96.0
689.610901 48.0
689.741577 36.0
690.510132 60.0
690.766479 96.0
690.986145 48.0
691.038513 88.0
691.279175 92.0
691.546082 96.0
692.483276 28.0
692.792297 96.0
692.881348 80.0
693.028076 44.0
693.24292 104.0
693.651733 152.0
694.558838 64.0
694.7005 52.0
695.351135 80.0
696.569275 120.0
697.446777 92.0
697.49408 88.0
697.793701 52.0
698.440552 44.0
699.013977 72.0
699.066589 80.0
699.721924 104.0
700.16156 96.0
701.057129 52.0
701.215271 76.0
701.378662 68.0
701.626404 68.0
701.737122 76.0
701.974365 64.0
702.206421 96.0
702.886963 32.0
702.939697 104.0
703.742004 132.0
703.826538 44.0
704.016602 108.0
704.185608 40.0
704.877686 96.0
705.03418 96.0
705.221191 76.0
705.363892 36.0
705.966614 92.0
706.088257 84.0
706.643677 64.0
706.707153 84.0
706.892334 104.0
708.152283 64.0
708.284729 108.0
709.00531 68.0
709.121887 76.0
709.641357 112.0
710.39447 68.0
710.511169 120.0
710.824219 68.0
711.227539 88.0
711.577881 96.0
711.636292 140.0
712.512634 92.0
712.629883 104.0
713.852051 36.0
714.543518 44.0
715.879517 32.0
716.012634 56.0
716.199036 48.0
716.257629 80.0
716.465393 76.0
716.641174 96.0
716.811707 132.0
716.992859 84.0
717.440613 48.0
717.675232 104.0
717.771179 92.0
717.813843 96.0
717.968506 60.0
718.112488 72.0
718.432556 44.0
718.619263 56.0
718.902039 56.0
719.22229 96.0
719.969727 60.0
720.290222 52.0
720.36499 100.0
720.819092 44.0
721.513916 72.0
721.721375 60.0
721.904236 80.0
722.005859 72.0
722.267944 32.0
723.113281 76.0
723.257812 80.0
724.044861 88.0
725.216187 124.0
726.086731 36.0
726.370972 100.0
726.655334 56.0
727.229492 32.0
727.471069 60.0
727.981079 104.0
728.163696 52.0
729.039368 120.0
729.297363 56.0
729.388733 36.0
729.56073 48.0
729.668274 88.0
730.587891 156.0
730.867676 128.0
731.088257 120.0
731.524231 52.0
731.728821 84.0
732.601257 100.0
732.892151 68.0
732.96759 116.0
734.304504 100.0
734.363831 92.0
735.480713 40.0
738.652527 92.0
739.487549 108.0
740.232849 76.0
740.357422 56.0
740.79071 48.0
740.861145 56.0
741.104919 64.0
742.129333 56.0
742.894043 76.0
743.045959 52.0
743.909973 56.0
744.185669 96.0
744.310547 96.0
744.354004 156.0
744.819824 104.0
744.929688 52.0
745.706726 168.0
746.473206 120.0
746.556702 68.0
746.636353 32.0
747.115051 124.0
747.218384 72.0
747.996582 112.0
748.290527 48.0
748.905884 88.0
749.069275 68.0
749.494263 88.0
749.657715 84.0
749.913879 88.0
750.137329 60.0
750.720703 32.0
750.867981 52.0
751.79541 88.0
752.898132 40.0
753.051086 48.0
754.564697 112.0
754.624878 32.0
754.980286 100.0
755.034973 44.0
755.860962 112.0
757.191223 64.0
757.229553 36.0
757.799255 84.0
758.780334 104.0
759.295715 92.0
760.02533 76.0
760.607056 88.0
760.749756 80.0
761.595398 92.0
761.881042 48.0
762.35907 88.0
762.47998 72.0
763.117615 44.0
763.469543 68.0
763.937012 80.0
764.278137 68.0
764.872498 88.0
765.120239 76.0
765.334961 96.0
765.395508 144.0
765.648804 60.0
766.122498 48.0
766.307007 96.0
766.370422 40.0
766.612854 52.0
766.728577 80.0
767.461731 64.0
767.566528 108.0
768.421448 48.0
768.647644 56.0
769.332031 64.0
769.817932 44.0
769.978027 56.0
770.475159 72.0
771.477295 120.0
772.925537 64.0
774.424744 52.0
774.646301 40.0
775.632629 40.0
776.042847 56.0
776.436584 40.0
776.55304 120.0
776.591858 68.0
776.902466 32.0
777.060852 140.0
778.312195 116.0
779.061951 128.0
779.400879 112.0
779.517578 44.0
780.568176 84.0
781.168823 56.0
781.430298 88.0
782.18158 52.0
782.292908 64.0
782.554565 56.0
784.39856 52.0
784.961609 56.0
785.536377 80.0
786.283752 88.0
786.48468 96.0
786.691223 100.0
786.858704 104.0
788.288574 96.0
789.289124 92.0
789.579895 88.0
790.139282 100.0
790.178467 76.0
790.961914 56.0
792.005615 80.0
792.328247 92.0
792.412292 28.0
793.314575 52.0
793.555664 108.0
793.622925 88.0
793.679016 100.0
794.13324 60.0
794.307129 32.0
794.638123 104.0
795.289062 48.0
795.889709 48.0
796.844543 72.0
796.96814 60.0
798.182251 116.0
798.232849 36.0
798.345337 72.0
798.784058 52.0
799.085144 136.0
799.779968 44.0
800.421753 76.0
800.483704 32.0
801.024414 56.0
801.063843 100.0
802.179565 92.0
802.393799 44.0
803.551819 60.0
803.922363 132.0
804.069092 76.0
804.498047 120.0
805.785645 116.0
806.559875 104.0
806.808594 92.0
807.78125 112.0
807.900024 76.0
808.386597 108.0
808.714844 100.0
810.175781 36.0
810.243774 52.0
810.736755 76.0
812.318604 56.0
812.993774 108.0
813.237793 56.0
813.351318 76.0
813.544312 60.0
813.66925 84.0
813.964478 72.0
814.061035 76.0
814.441528 104.0
815.731384 40.0
816.817444 32.0
816.942627 48.0
817.471741 40.0
817.773376 112.0
818.018127 80.0
818.929138 68.0
819.196899 56.0
819.270935 96.0
820.524719 108.0
820.650146 72.0
820.809814 52.0
820.921692 64.0
821.210999 68.0
821.665344 108.0
822.464233 56.0
823.891846 44.0
824.391235 108.0
824.886169 76.0
825.252014 68.0
825.354919 64.0
825.955444 88.0
827.025391 72.0
828.766296 40.0
829.419617 40.0
830.512695 140.0
831.88623 128.0
833.919556 120.0
834.195496 48.0
834.793396 40.0
835.194092 60.0
837.239136 124.0
837.636597 56.0
838.310669 108.0
839.111877 72.0
840.455688 84.0
841.067444 76.0
841.973877 132.0
842.736389 52.0
842.958069 76.0
843.435669 96.0
844.540039 32.0
845.373108 52.0
845.500427 36.0
846.009766 192.0
846.195068 96.0
846.276123 112.0
848.17627 112.0
848.228394 72.0
849.50415 104.0
849.991516 124.0
850.252625 96.0
850.438354 76.0
850.519592 44.0
851.373047 92.0
852.407104 52.0
852.604675 36.0
853.121948 52.0
853.232422 52.0
855.05304 48.0
855.705017 112.0
856.316467 80.0
856.502808 92.0
857.423401 104.0
858.047058 72.0
858.705994 44.0
859.826172 60.0
860.106323 64.0
860.363159 84.0
860.573364 104.0
861.963501 56.0
863.091614 124.0
863.179321 100.0
863.296265 76.0
863.892883 40.0
865.110046 48.0
865.229004 76.0
867.658386 48.0
868.438293 44.0
869.388733 32.0
870.586304 36.0
870.94458 92.0
871.255493 88.0
871.626038 60.0
873.38385 68.0
875.166992 48.0
875.867798 96.0
875.950256 72.0
876.40979 84.0
876.863525 68.0
877.912903 80.0
878.980591 120.0
879.423218 72.0
880.167053 72.0
880.308777 52.0
880.515442 136.0
880.562683 112.0
880.609924 100.0
881.372009 40.0
881.437012 80.0
883.222412 184.0
884.636658 72.0
885.353088 68.0
886.294922 72.0
886.786804 76.0
887.990356 28.0
889.764587 48.0
889.806152 44.0
889.918945 64.0
890.002075 88.0
890.12677 104.0
890.168335 96.0
890.447449 44.0
891.302856 76.0
892.866272 48.0
893.389709 92.0
894.347717 96.0
895.252686 64.0
896.295105 40.0
896.777832 60.0
897.636292 88.0
897.779419 80.0
898.900879 72.0
899.05011 56.0
899.276855 92.0
900.464966 40.0
901.767456 116.0
902.126099 36.0
902.293457 44.0
902.532593 48.0
902.8974 64.0
903.184448 44.0
903.812622 128.0
905.41095 112.0
905.650513 120.0
905.8302 48.0
906.063843 112.0
907.993958 80.0
909.655945 68.0
911.463684 112.0
912.226929 40.0
912.954468 36.0
913.207031 92.0
913.67627 120.0
914.602966 120.0
914.645081 136.0
914.758057 52.0
915.229065 80.0
915.921631 48.0
916.373413 72.0
916.469849 92.0
917.000122 200.0
917.31958 92.0
919.032349 88.0
919.358215 60.0
919.418518 56.0
920.233459 52.0
921.058044 164.0
921.193665 84.0
922.063721 64.0
922.940247 44.0
923.118103 80.0
923.424072 60.0
926.014404 84.0
926.480835 60.0
926.535339 80.0
926.638367 84.0
926.923157 56.0
927.295776 92.0
927.547363 112.0
927.868652 44.0
928.923828 40.0
929.943237 128.0
930.501709 60.0
931.764893 60.0
931.953247 80.0
935.060669 76.0
935.316284 68.0
935.772827 92.0
935.998108 52.0
936.266052 28.0
936.564514 68.0
936.844727 52.0
937.380859 104.0
937.661194 112.0
938.484131 148.0
939.118347 120.0
939.764954 84.0
941.858887 68.0
943.270386 104.0
944.224243 84.0
944.297607 48.0
944.358765 32.0
944.542297 124.0
944.823669 96.0
945.258057 116.0
946.629272 76.0
946.727234 60.0
947.143738 116.0
947.646057 68.0
949.454346 52.0
949.509521 44.0
949.693542 40.0
949.742615 68.0
950.669006 88.0
950.77948 44.0
953.450928 156.0
953.924194 92.0
955.03717 44.0
955.775391 124.0
956.132263 48.0
957.0495 104.0
958.460022 92.0
959.304321 52.0
959.865417 52.0
959.982544 60.0
960.463623 124.0
961.352051 40.0
961.987732 36.0
962.327271 160.0
962.858337 48.0
963.352478 64.0
965.639465 72.0
967.12439 68.0
967.180115 52.0
969.539795 52.0
970.203003 60.0
970.878845 108.0
972.274719 92.0
972.423645 92.0
972.64093 96.0
973.336243 112.0
974.050415 52.0
974.106323 48.0
974.864319 96.0
977.289368 80.0
978.527954 60.0
979.30011 92.0
981.369019 40.0
981.693237 84.0
982.111084 72.0
983.564941 56.0
985.069824 80.0
986.169556 60.0
987.601318 44.0
988.226929 60.0
989.190674 68.0
989.985779 92.0
990.424194 68.0
993.094299 104.0
994.292664 96.0
994.449524 68.0
998.401306 60.0
999.420349 44.0
999.911133 44.0
1000.77356 68.0
1001.182861 164.0
1001.898315 116.0
1002.430176 80.0
1003.463867 48.0
1004.718933 28.0
1005.129028 68.0
1005.387756 32.0
1007.130249 124.0
1007.755676 60.0
1007.995789 136.0
1008.115845 132.0
1009.152466 40.0
1009.867065 56.0
1010.404724 64.0
1010.714783 184.0
1011.651428 124.0
1013.469055 80.0
1013.937988 48.0
1014.723999 60.0
1014.844482 68.0
1015.104431 32.0
1016.861694 128.0
1017.325073 108.0
1017.401245 76.0
1018.861877 92.0
1019.414673 36.0
1019.516357 68.0
1019.9422 40.0
1021.65271 48.0
1021.951721 64.0
1022.409912 60.0
1023.753113 36.0
1025.084473 104.0
1025.173706 64.0
1026.046997 116.0
1026.404053 44.0
1028.260376 64.0
1030.009766 56.0
1030.118408 100.0
1030.329224 112.0
1031.664917 64.0
1032.96936 56.0
1033.519531 88.0
1033.941895 76.0
1034.906616 80.0
1035.792236 132.0
1037.527588 96.0
1037.971313 48.0
1038.266235 64.0
1040.390137 44.0
1041.154175 68.0
1041.835083 64.0
1043.300293 56.0
1044.039673 36.0
1045.886108 80.0
1046.008423 80.0
1047.283325 168.0
1047.360718 124.0
1047.534546 168.0
1048.630005 136.0
1048.752441 92.0
1048.913574 52.0
1049.087646 52.0
1049.706543 76.0
1050.435303 132.0
1055.67981 96.0
1055.93457 80.0
1060.224243 100.0
1060.418701 68.0
1060.671509 44.0
1061.293823 108.0
1062.720703 44.0
1062.766113 108.0
1066.032349 52.0
1066.389771 68.0
1067.312866 40.0
1068.171387 76.0
1070.104126 40.0
1072.045166 64.0
1072.253784 112.0
1074.960083 60.0
1075.240723 104.0
1075.658447 80.0
1075.86084 60.0
1076.095825 100.0
1077.219116 68.0
1078.160034 56.0
1078.748169 28.0
1078.918213 60.0
1080.147583 84.0
1080.729858 64.0
1081.750732 80.0
1082.778687 76.0
1083.171753 52.0
1083.433716 48.0
1084.023438 44.0
1084.645996 60.0
1085.74646 48.0
1090.0802 84.0
1090.651978 88.0
1090.947754 64.0
1092.47998 108.0
1094.302979 88.0
1094.915405 48.0
1095.060303 220.0
1095.844238 28.0
1096.107788 124.0
1096.569092 80.0
1096.93811 180.0
1098.421875 56.0
1098.86377 40.0
1100.256348 80.0
1100.309204 80.0
1101.524292 44.0
1102.502075 116.0
1105.147095 80.0
1105.45813 64.0
1105.908081 40.0
1107.00708 56.0
1107.172729 136.0
1107.417725 44.0
1108.928345 96.0
1111.136475 124.0
1112.669556 104.0
1113.732056 68.0
1114.077393 72.0
1116.417114 84.0
1117.30835 52.0
1117.780762 88.0
1119.52478 120.0
1125.252563 76.0
1126.407837 72.0
1126.467896 52.0
1127.383301 124.0
1128.332397 72.0
1128.960938 176.0
1130.231934 48.0
1131.115356 92.0
1131.276001 80.0
1132.206665 80.0
1132.541504 156.0
1132.588379 68.0
1135.819214 40.0
1137.234985 56.0
1140.88916 104.0
1141.184937 88.0
1142.677979 88.0
1144.306763 68.0
1145.027222 96.0
1146.799194 88.0
1148.275757 104.0
1148.437622 36.0
1149.780151 76.0
1150.387695 80.0
1150.867065 124.0
1151.393677 68.0
1151.461304 144.0
1151.967896 100.0
1152.481323 72.0
1154.772949 112.0
1156.70813 56.0
1157.222534 96.0
1158.102905 108.0
1159.72229 72.0
1160.196777 68.0
1160.386597 56.0
1168.767944 40.0
1169.516479 100.0
1170.762451 40.0
1170.88501 84.0
1172.254272 84.0
1173.699341 60.0
1174.094849 100.0
1174.34729 132.0
1174.579102 136.0
1174.770142 92.0
1177.199951 76.0
1177.862427 52.0
1178.279175 60.0
1179.529663 36.0
1182.108032 100.0
1182.388672 52.0
1183.83313 120.0
1184.737183 112.0
1186.457397 56.0
1186.69043 60.0
1188.130737 112.0
1188.569824 108.0
1189.695312 80.0
1189.873901 68.0
1190.004272 92.0
1192.298584 128.0
1195.895508 48.0
1195.991943 48.0
1196.783569 40.0
1197.079712 88.0
1198.629517 44.0
1198.684692 100.0
1199.318726 120.0
1201.57373 72.0
1202.180908 120.0
1204.086304 52.0
1204.811523 100.0
1205.23291 100.0
1207.078491 36.0
1208.351196 88.0
1211.009399 84.0
1211.542725 48.0
1212.08313 80.0
1214.537354 60.0
1215.682007 48.0
1217.271729 112.0
1217.431396 160.0
1218.660889 124.0
1220.885254 32.0
1224.699219 140.0
1224.887207 84.0
1226.475952 88.0
1226.754761 76.0
1230.794312 84.0
1231.010742 76.0
1231.080566 56.0
1231.911743 88.0
1233.414062 104.0
1237.786621 112.0
1239.804077 108.0
1246.189575 80.0
1246.688477 56.0
1252.809814 108.0
1253.218384 96.0
1255.622192 76.0
1256.602661 32.0
1257.350708 68.0
1257.428345 112.0
1258.218872 100.0
1258.875488 68.0
1259.977417 88.0
1260.500244 44.0
1261.143311 120.0
1261.546265 72.0
1263.766968 184.0
1265.352295 60.0
1266.952881 56.0
1267.434692 76.0
1270.185303 56.0
1270.454956 72.0
1273.116577 76.0
1273.79126 164.0
1274.537231 120.0
1274.700684 92.0
1275.980103 108.0
1280.434448 32.0
1280.854736 140.0
1283.677002 28.0
1285.067871 124.0
1285.945679 164.0
1291.769043 152.0
1296.336914 76.0
1296.470581 92.0
1297.906738 64.0
1298.021362 100.0
1298.588013 44.0
1300.898438 88.0
1300.94873 60.0
1302.456665 88.0
1302.542847 104.0
1303.13916 76.0
1303.584595 72.0
1305.525513 56.0
1306.309448 108.0
1309.174072 76.0
1316.645264 48.0
1316.775269 132.0
1321.047119 80.0
1322.610107 76.0
1323.667114 176.0
1325.528687 152.0
1326.449097 60.0
1326.731812 76.0
1328.776978 80.0
1330.112305 76.0
1331.092407 92.0
1332.719482 88.0
1332.770264 52.0
1334.318359 36.0
1334.521973 76.0
1335.758301 72.0
1338.421875 112.0
1342.575562 56.0
1343.319458 52.0
1344.049072 132.0
1344.187622 88.0
1344.603638 112.0
1345.421143 56.0
1345.786255 136.0
1350.221802 68.0
1350.565552 180.0
1351.809204 56.0
1354.181152 108.0
1356.371948 40.0
1360.845215 148.0
1361.067261 92.0
1361.118652 60.0
1363.947144 88.0
1370.401123 168.0
1372.435425 84.0
1375.327271 132.0
1375.792236 36.0
1379.559814 60.0
1385.435669 96.0
1386.791626 60.0
1387.043701 72.0
1387.644165 100.0
1387.770142 100.0
1389.668945 68.0
1390.804321 88.0
1391.910522 108.0
1392.356079 104.0
1393.2771 68.0
1393.418335 56.0
1393.819458 80.0
1394.049805 108.0
1394.309937 108.0
1398.072998 92.0
1400.373413 80.0
1407.6521 68.0
1409.160889 112.0
1409.235596 164.0
1411.949097 168.0
1412.547485 68.0
1415.256592 72.0
1415.593506 108.0
1417.548706 76.0
1418.043335 104.0
1419.700195 64.0
1423.722534 32.0
1425.262451 68.0
1426.502563 48.0
1426.728027 132.0
1427.923584 60.0
1428.021362 72.0
1429.209961 80.0
1431.257324 48.0
1432.002808 84.0
1433.321167 108.0
1433.697998 52.0
1434.41394 104.0
1436.89502 68.0
1437.906128 56.0
1439.884155 44.0
1440.571533 64.0
1442.0979 68.0
1443.466187 68.0
1445.879395 88.0
1447.560059 40.0
1447.734131 92.0
1448.665771 116.0
1449.021851 72.0
1449.726562 128.0
1450.181274 72.0
1451.121216 56.0
1451.485229 68.0
1452.364868 168.0
1455.529541 52.0
1456.053467 36.0
1456.440918 144.0
1458.21875 80.0
1458.728027 52.0
1459.617554 60.0
1463.140259 48.0
1464.907104 172.0
1467.765015 124.0
1468.817505 32.0
1471.824463 92.0
1472.901245 48.0
1474.574463 80.0
1474.803833 96.0
1479.179077 72.0
1479.339844 96.0
1480.220215 132.0
1481.146973 120.0
1481.491699 116.0
1483.108521 116.0
1483.23877 132.0
1484.756836 176.0
1487.357788 44.0
1489.546265 116.0
1489.815063 40.0
1491.298096 64.0
1492.635742 84.0
1493.3125 84.0
1495.166626 76.0
1495.405273 80.0
1498.20813 60.0
1498.739746 100.0
1500.967285 144.0
1504.130493 100.0
