>compound MLS001401456-01!IMATINIB MESYLATE
>formula C29H31N7O
>ionization [M+H]+
>parentmass 494.264343
#inchi InChI=1S/C29H31N7O/c1-21-5-10-25(18-27(21)34-29-31-13-11-26(33-29)24-4-3-12-30-19-24)32-28(37)23-8-6-22(7-9-23)20-36-16-14-35(2)15-17-36/h3-13,18-19H,14-17,20H2,1-2H3,(H,32,37)(H,31,33,34)
#inchikey KTUFNOKKBVMGRW
#origInchi InChI=1S/C29H31N7O.CH4O3S/c1-21-5-10-25(18-27(21)34-29-31-13-11-26(33-29)24-4-3-12-30-19-24)32-28(37)23-8-6-22(7-9-23)20-36-16-14-35(2)15-17-36;1-5(2,3)4/h3-13,18-19H,14-17,20H2,1-2H3,(H,32,37)(H,31,33,34);1H3,(H,2,3,4)
#Ion_Source LC-ESI
#Instrument qTof
#Compound_Source NIH Pharmacologically Active Library
#PI Dorrestein
#Data_Collector VP/LMS
#Scan -1
#Precursor_MZ 494.271
#ExactMass 493.259
#Charge 1
#CAS_Number N/A
#Pubmed_ID N/A
#Smiles CN1CCN(Cc2ccc(cc2)C(=O)Nc3ccc(C)c(Nc4nccc(n4)c5cccnc5)c3)CC1.CS(=O)(=O)O
#INCHI_AUX N/A
#Library_Class 1
#SpectrumID CCMSLIB00000085719
#IonMode Positive
#UpdateWorkflowName UPDATE-SINGLE-ANNOTATED-GOLD
#LibraryQualityString Gold
#TaskID d252d724072548979f1f6f1ced849daf
##Scan# 1399
#SpectrumFile p4-E07_GE7_01_18379.mzXML
#LibraryName Pharm_Active_Library.mgf
#MQScore -1
#Organism Pharm_Active_Library
#TIC_Query 0
#RT_Query -1
#MZErrorPPM -1
#SharedPeaks 0
#MassDiff 0
#LibMZ -1
#SpecMZ 494.271
#SpecCharge 0
#internalFilename spec-00000.mgf

>collision 10
45.099373 208.0
45.124771 52.0
45.405983 132.0
45.929203 112.0
46.698566 140.0
46.925983 188.0
47.080181 184.0
48.079647 136.0
49.887707 116.0
50.135437 44.0
50.624241 140.0
51.663311 48.0
52.130741 120.0
52.60461 168.0
54.310097 32.0
55.464672 164.0
55.940025 132.0
56.78577 108.0
58.593769 152.0
59.203239 152.0
59.519138 88.0
59.746613 100.0
60.158089 168.0
60.815971 152.0
61.525822 140.0
61.672661 148.0
62.126781 84.0
62.373329 144.0
62.748005 160.0
64.080956 184.0
64.957054 72.0
65.189865 188.0
65.271843 108.0
65.60997 188.0
66.251564 172.0
66.416916 148.0
66.561356 208.0
66.575974 44.0
66.798645 168.0
66.922333 128.0
67.356148 116.0
67.593208 148.0
68.180298 164.0
68.548935 112.0
68.845871 176.0
69.41349 120.0
72.014336 176.0
72.423668 184.0
72.543976 232.0
73.016014 128.0
73.728661 132.0
74.733543 160.0
75.312798 124.0
76.005295 196.0
76.040001 256.0
76.535454 176.0
77.33152 72.0
77.60305 128.0
78.163383 188.0
78.244347 160.0
78.399353 184.0
78.513947 112.0
78.642746 136.0
79.148361 188.0
79.228065 180.0
79.811996 140.0
80.009491 124.0
80.127037 124.0
80.182274 128.0
80.474831 160.0
80.644539 92.0
83.912148 156.0
84.200462 172.0
84.363083 156.0
85.485603 64.0
86.756386 152.0
87.306 44.0
87.596359 176.0
87.739853 128.0
87.862946 132.0
88.057076 204.0
88.189735 192.0
88.238342 156.0
88.419792 240.0
88.487175 164.0
89.203835 152.0
89.297852 40.0
89.329826 200.0
89.846008 176.0
90.282341 184.0
90.426125 140.0
90.687508 140.0
91.053688 156.0
91.220894 224.0
91.746323 128.0
92.449234 144.0
93.393181 128.0
93.456665 184.0
93.470139 248.0
94.847176 152.0
95.35183 160.0
95.583244 200.0
96.46286 60.0
96.862061 164.0
97.077652 312.0
97.224792 172.0
97.613762 132.0
97.936523 208.0
97.958191 140.0
98.083443 340.0
99.091148 696.0
99.171463 84.0
99.234894 76.0
99.369766 200.0
99.415405 160.0
100.098343 184.0
101.722748 128.0
101.859299 116.0
102.120605 220.0
102.329887 80.0
102.882309 204.0
103.031754 144.0
103.602264 116.0
104.048759 304.0
105.032471 160.0
105.852951 124.0
106.965752 192.0
107.291237 276.0
108.080231 212.0
109.129776 148.0
109.506439 120.0
111.0896 336.0
111.294479 212.0
111.494041 124.0
112.102524 208.0
112.298309 172.0
112.796631 124.0
113.14357 108.0
113.17321 124.0
113.603447 152.0
113.709541 68.0
113.875153 144.0
113.96225 148.0
114.004745 48.0
114.221619 136.0
114.574997 40.0
114.792412 196.0
114.913994 176.0
115.052719 124.0
115.123184 204.0
115.525017 236.0
115.706924 136.0
116.721817 116.0
117.348396 316.0
117.486427 84.0
118.039703 380.0
118.056122 160.0
118.21891 64.0
119.046043 1052.0
119.333862 164.0
119.63192 144.0
119.85408 168.0
120.011017 140.0
120.076439 164.0
121.073784 296.0
121.248306 124.0
121.333794 152.0
122.064957 152.0
122.670433 156.0
122.714523 188.0
122.866707 196.0
123.080795 152.0
123.350334 120.0
124.422562 172.0
124.498055 144.0
124.704674 168.0
124.846962 120.0
125.218636 180.0
125.267639 136.0
125.597549 164.0
125.805077 140.0
125.963631 100.0
126.046295 128.0
126.12899 140.0
126.227364 192.0
126.515991 56.0
127.237892 120.0
127.273811 204.0
127.496208 132.0
127.572632 144.0
127.844788 176.0
128.360657 204.0
128.378708 204.0
128.457642 188.0
129.042572 148.0
129.185059 168.0
129.633362 132.0
130.548218 160.0
130.693817 216.0
131.058487 1236.0
131.162964 228.0
131.315735 176.0
131.493698 116.0
131.630661 104.0
131.776855 180.0
132.064209 344.0
132.16098 144.0
132.337219 140.0
132.359253 116.0
132.387604 140.0
132.710709 120.0
132.823074 192.0
132.87355 32.0
133.047974 144.0
133.070587 164.0
133.565018 132.0
133.746811 156.0
134.438248 116.0
135.092133 124.0
135.233276 180.0
135.323563 128.0
135.434723 152.0
135.613144 124.0
136.03299 148.0
136.093353 196.0
138.337311 228.0
139.053467 196.0
139.27417 208.0
139.361099 152.0
139.51857 140.0
139.953827 140.0
140.262451 80.0
140.878357 40.0
141.221115 124.0
141.900757 208.0
142.128464 148.0
143.074417 156.0
144.336594 80.0
144.556671 44.0
144.875122 176.0
145.789307 80.0
145.866226 128.0
145.993652 192.0
146.070618 172.0
146.106705 164.0
146.38591 172.0
147.029587 140.0
147.058548 168.0
147.640808 172.0
149.92775 188.0
150.730621 152.0
151.812622 104.0
152.011337 136.0
152.104599 184.0
152.90834 72.0
153.065903 152.0
153.647583 200.0
154.003067 136.0
155.012466 148.0
155.958038 148.0
156.035095 124.0
156.054993 120.0
156.216644 132.0
156.887177 80.0
156.983795 176.0
157.096024 184.0
158.063583 224.0
158.373383 152.0
158.756851 72.0
158.975098 220.0
159.072983 180.0
159.093079 112.0
160.076172 184.0
160.141663 144.0
160.782059 120.0
161.059784 208.0
161.102722 144.0
162.059067 168.0
162.855652 188.0
163.32843 244.0
163.773865 208.0
163.926743 88.0
164.100067 188.0
164.75087 160.0
165.072922 152.0
165.385056 224.0
165.984543 220.0
166.07431 52.0
166.158966 180.0
167.086304 160.0
167.168777 176.0
167.230545 136.0
168.106796 124.0
169.096619 152.0
169.420303 144.0
170.068588 180.0
171.066772 124.0
171.150085 140.0
171.582596 64.0
171.851227 104.0
172.069794 152.0
172.130524 80.0
172.821945 148.0
173.085251 244.0
174.087936 284.0
174.275833 156.0
175.101898 196.0
175.246735 48.0
176.069763 72.0
176.415909 232.0
177.027115 44.0
177.156891 108.0
177.841034 112.0
178.029541 100.0
178.080231 160.0
178.4095 168.0
178.478638 100.0
178.54245 112.0
178.891022 172.0
179.061432 128.0
179.081726 324.0
180.751297 200.0
181.068268 160.0
181.076904 64.0
181.087357 136.0
181.501328 128.0
182.051437 60.0
183.415543 168.0
183.64743 168.0
184.100845 192.0
184.130554 108.0
185.079269 180.0
185.816986 112.0
186.177048 192.0
186.324692 192.0
188.438919 104.0
189.134079 692.0
189.17186 216.0
189.303284 176.0
190.141159 192.0
190.169632 116.0
190.886673 148.0
191.150757 148.0
192.079239 92.0
192.131653 56.0
192.871735 128.0
192.921494 164.0
193.081863 160.0
193.131653 156.0
193.59108 76.0
193.638168 120.0
193.685257 136.0
193.890289 156.0
194.097778 1016.0
194.450516 160.0
195.097961 276.0
195.131104 88.0
195.687561 152.0
195.854645 64.0
195.968872 60.0
196.09967 128.0
196.219711 72.0
197.084534 244.0
197.728149 144.0
198.57988 164.0
199.090668 196.0
199.197403 168.0
199.281693 64.0
199.666809 84.0
200.7285 112.0
200.844131 44.0
201.696884 176.0
202.016418 128.0
202.064514 148.0
202.347549 188.0
202.942535 124.0
203.072998 256.0
203.265915 212.0
203.319824 192.0
204.079544 272.0
204.653046 160.0
204.869492 104.0
205.080643 364.0
205.18869 160.0
205.265671 156.0
205.391159 188.0
205.5224 48.0
205.799271 40.0
206.080093 512.0
206.176346 64.0
206.379303 148.0
206.862808 172.0
206.997375 172.0
207.03746 188.0
207.073471 84.0
207.444336 152.0
207.754059 248.0
208.213318 192.0
208.287994 140.0
208.589722 132.0
208.690338 104.0
209.032639 160.0
209.1017 252.0
209.997757 136.0
210.061218 164.0
210.092941 464.0
210.4133 172.0
211.763748 112.0
211.795609 116.0
212.110184 276.0
212.201324 112.0
213.540024 224.0
213.662201 104.0
214.215332 116.0
214.361008 108.0
214.626282 40.0
214.950058 136.0
215.390915 248.0
215.922882 140.0
215.963821 132.0
216.045731 124.0
216.399857 100.0
216.678101 148.0
217.13298 4016.0
217.185257 60.0
217.323135 72.0
217.880981 144.0
218.089615 72.0
218.132874 400.0
218.236618 196.0
218.313065 48.0
218.376846 180.0
218.510147 112.0
218.751465 128.0
219.016479 52.0
219.088821 352.0
219.134323 288.0
219.669754 52.0
220.09639 288.0
220.151993 64.0
220.651367 40.0
220.713455 104.0
220.787384 160.0
220.884125 156.0
221.106842 1256.0
221.216415 68.0
221.290436 220.0
221.317078 84.0
221.340775 164.0
221.530319 92.0
221.628098 84.0
221.676819 136.0
221.782196 76.0
221.968979 196.0
222.007523 88.0
222.089661 3848.0
222.381348 108.0
222.431808 60.0
222.485245 88.0
222.598068 84.0
222.803024 64.0
222.984283 180.0
223.095901 2604.0
223.198318 168.0
223.326202 108.0
223.406525 64.0
223.802567 56.0
223.867874 88.0
224.096741 432.0
224.508606 128.0
224.601059 196.0
224.72934 108.0
225.101624 172.0
225.864578 96.0
227.176651 64.0
228.00238 156.0
228.065491 144.0
228.510574 160.0
229.088654 180.0
229.242264 300.0
230.080795 152.0
230.506683 176.0
231.093018 176.0
232.283905 152.0
232.690567 148.0
233.085434 172.0
233.906601 140.0
234.079773 168.0
234.235474 104.0
234.445694 168.0
235.058655 144.0
235.147156 80.0
235.217361 200.0
235.351685 56.0
236.033096 208.0
236.9207 152.0
237.101135 444.0
237.214905 112.0
237.30687 208.0
237.435669 120.0
237.595169 192.0
237.779282 144.0
237.914337 180.0
237.935715 96.0
238.108337 1096.0
238.421158 32.0
239.111984 368.0
239.538071 204.0
240.092865 144.0
240.118698 172.0
240.602005 204.0
240.691544 48.0
241.662109 128.0
244.072189 140.0
244.448593 180.0
244.52327 128.0
245.270813 140.0
245.504654 72.0
245.738602 136.0
246.086914 168.0
246.125641 104.0
246.309906 152.0
246.375504 108.0
246.728653 48.0
247.035141 44.0
247.085312 5016.0
247.14151 148.0
247.225998 132.0
247.294846 56.0
247.316757 104.0
247.485809 152.0
247.542175 56.0
247.636139 140.0
247.717575 160.0
247.943176 56.0
248.09024 812.0
248.131256 228.0
248.360184 48.0
248.426056 64.0
249.091293 228.0
249.522095 52.0
249.926483 120.0
250.044281 160.0
250.095428 160.0
250.825409 68.0
251.03035 164.0
251.942535 56.0
252.091034 172.0
252.160568 120.0
252.875366 180.0
255.041718 216.0
256.069427 132.0
257.006683 148.0
257.08963 164.0
257.376953 184.0
258.809448 136.0
259.096039 300.0
259.376495 92.0
260.095093 436.0
260.229858 188.0
261.058899 180.0
261.111084 324.0
261.451385 204.0
262.111725 252.0
262.656403 100.0
262.766083 108.0
263.082581 168.0
263.115997 484.0
263.867432 100.0
264.11087 2904.0
264.524139 72.0
264.621277 108.0
264.718414 52.0
264.744324 188.0
264.770233 88.0
264.838257 96.0
265.10437 1404.0
265.470245 128.0
265.924438 52.0
266.103302 312.0
266.460266 156.0
266.619476 156.0
266.707245 64.0
266.95108 64.0
267.103943 120.0
267.201538 64.0
267.546509 132.0
267.917786 96.0
267.982941 104.0
268.171936 60.0
269.088623 224.0
270.252197 176.0
271.267456 144.0
271.759399 108.0
272.111694 132.0
273.104797 212.0
274.098999 960.0
274.911804 192.0
275.101379 556.0
275.16925 104.0
275.225403 36.0
275.800232 172.0
275.906006 164.0
275.958923 60.0
276.115112 268.0
277.131897 176.0
277.352661 32.0
277.687531 164.0
278.032593 100.0
278.11557 168.0
278.308105 72.0
279.125946 128.0
279.82428 136.0
280.280579 132.0
280.657257 80.0
281.488129 92.0
281.588318 168.0
281.668488 164.0
284.10553 112.0
284.296783 140.0
284.692932 60.0
285.112854 140.0
285.543213 132.0
286.064758 100.0
287.446625 108.0
288.121918 132.0
290.127258 1760.0
290.162872 176.0
290.698639 112.0
290.834412 104.0
291.131531 452.0
291.279236 280.0
291.833191 48.0
292.139282 176.0
292.312805 112.0
292.608917 136.0
293.638031 200.0
293.70285 108.0
295.195343 180.0
297.007111 124.0
297.116882 160.0
298.397949 172.0
299.027466 140.0
299.947113 140.0
300.081573 116.0
301.420837 120.0
301.780304 56.0
301.911713 164.0
302.105408 204.0
302.140015 128.0
304.113159 160.0
304.184662 184.0
304.472839 144.0
305.105255 176.0
305.575134 192.0
305.96109 148.0
307.651917 84.0
308.333069 72.0
308.47287 152.0
309.382416 128.0
309.70108 128.0
309.956848 92.0
311.121307 156.0
311.728943 160.0
312.12265 108.0
312.558838 148.0
313.093231 204.0
313.594208 200.0
314.264252 156.0
314.744293 128.0
315.118073 136.0
318.093567 116.0
318.285278 92.0
319.266083 132.0
319.671631 184.0
321.203644 104.0
321.321381 56.0
322.153198 132.0
323.190033 112.0
324.142517 152.0
324.601349 52.0
324.970825 152.0
325.139465 144.0
325.32254 144.0
326.091248 72.0
326.123596 124.0
326.148743 172.0
327.901611 172.0
328.745514 132.0
329.157043 152.0
330.053192 76.0
331.131622 104.0
331.925262 128.0
332.008667 128.0
333.114899 140.0
333.96994 104.0
334.126068 148.0
334.37381 232.0
334.432037 156.0
335.094666 132.0
335.2005 140.0
336.133453 292.0
336.484406 96.0
338.134857 176.0
338.707886 192.0
339.164917 204.0
340.13797 160.0
341.913239 124.0
342.800781 112.0
343.09198 168.0
344.043793 100.0
345.118927 124.0
346.110596 168.0
347.46344 132.0
348.07959 44.0
348.302429 168.0
348.98996 28.0
349.147858 252.0
350.138428 452.0
350.281372 76.0
350.631622 132.0
351.078979 52.0
351.154327 1060.0
351.269226 28.0
352.151886 308.0
352.363068 64.0
353.032135 28.0
353.073273 84.0
353.124908 164.0
353.159851 208.0
353.421173 56.0
353.489349 164.0
353.664429 176.0
354.143707 140.0
354.586975 180.0
354.683258 64.0
355.051422 104.0
355.568451 104.0
356.680237 100.0
357.854004 228.0
358.107117 168.0
358.98819 36.0
359.131531 44.0
359.165466 144.0
360.109528 172.0
360.148438 176.0
360.483124 96.0
360.592712 36.0
360.736359 192.0
360.796844 120.0
360.914032 48.0
360.989655 84.0
361.128418 240.0
361.417114 164.0
362.136414 360.0
362.443268 132.0
362.537994 92.0
362.996704 176.0
363.042206 116.0
363.119934 388.0
363.357025 48.0
363.421539 184.0
363.44809 120.0
363.573334 112.0
363.801056 80.0
363.842834 44.0
363.914978 132.0
364.11438 172.0
364.150391 564.0
365.115662 128.0
365.155548 140.0
365.302155 140.0
365.75116 184.0
365.96817 84.0
365.998627 112.0
366.044342 128.0
366.165894 1384.0
366.512848 92.0
366.562408 192.0
366.981689 64.0
367.165863 352.0
367.584381 52.0
367.981354 152.0
368.147247 124.0
368.182159 136.0
368.61496 68.0
369.039703 52.0
369.215607 128.0
369.513977 68.0
370.003876 156.0
370.528564 40.0
370.593689 192.0
370.835114 144.0
371.11496 212.0
371.237671 152.0
371.579071 120.0
372.550354 56.0
372.58493 160.0
372.91925 52.0
374.136627 108.0
374.284973 212.0
375.128845 160.0
375.514343 112.0
376.046783 56.0
376.151581 576.0
376.20401 148.0
376.826843 88.0
376.904114 28.0
376.999268 140.0
377.13678 1060.0
377.26355 48.0
377.29834 32.0
377.624542 204.0
377.754669 184.0
378.135651 4084.0
378.575226 84.0
378.706909 48.0
378.79599 60.0
378.846375 60.0
378.881226 148.0
378.957001 164.0
379.139618 4336.0
379.218353 60.0
379.252167 276.0
379.369537 56.0
379.602173 56.0
379.885315 128.0
379.962891 60.0
380.143066 1504.0
380.187958 160.0
380.282776 84.0
380.299286 88.0
380.349426 80.0
380.490723 52.0
380.634369 76.0
380.770294 92.0
380.851868 56.0
380.941223 116.0
381.144897 452.0
381.481384 116.0
381.524139 96.0
381.599213 196.0
381.640778 68.0
381.75354 64.0
381.807983 96.0
381.862427 92.0
382.138641 104.0
382.255371 72.0
382.317627 64.0
382.376007 100.0
382.780121 100.0
382.791779 80.0
382.839294 88.0
383.147034 36.0
383.482147 32.0
383.50943 108.0
383.836914 56.0
385.554565 48.0
386.215332 76.0
386.653564 92.0
387.178162 180.0
389.559052 96.0
390.132812 124.0
390.411987 112.0
391.651764 108.0
391.773865 28.0
391.880249 80.0
391.939362 144.0
392.06546 80.0
392.14566 308.0
392.211304 216.0
392.368988 64.0
392.652893 108.0
392.877716 148.0
393.130249 128.0
393.197357 152.0
393.288483 136.0
393.378906 124.0
393.561005 128.0
393.690826 52.0
393.743225 164.0
393.837769 216.0
393.876465 104.0
393.994019 164.0
394.038452 144.0
394.082001 368.0
394.16507 31004.0
394.316254 156.0
394.374329 60.0
394.430847 136.0
394.480804 60.0
394.502075 88.0
394.554077 180.0
394.605988 84.0
394.633026 220.0
394.68103 116.0
394.72226 64.0
394.803009 104.0
394.860657 40.0
395.006012 128.0
395.054474 144.0
395.082184 112.0
395.166046 9956.0
395.235077 216.0
395.30957 136.0
395.371033 124.0
395.465759 124.0
395.545166 56.0
395.600586 52.0
395.657104 88.0
395.671539 48.0
395.688568 128.0
395.755676 48.0
395.786072 80.0
395.869843 52.0
396.017029 76.0
396.117188 172.0
396.172424 1196.0
396.260712 84.0
396.289703 100.0
396.32782 108.0
396.357086 28.0
396.452179 52.0
396.553101 60.0
396.666199 48.0
396.824799 68.0
396.884277 60.0
396.987366 104.0
397.046844 84.0
397.182404 468.0
397.499115 80.0
397.530853 56.0
397.60733 176.0
397.714813 92.0
397.791504 196.0
397.856323 92.0
398.082642 44.0
398.281219 56.0
398.444092 76.0
398.525055 100.0
398.59906 132.0
398.821625 48.0
398.873291 76.0
399.294769 68.0
400.106537 60.0
400.285706 72.0
401.389496 76.0
402.438934 84.0
403.06604 56.0
403.213898 108.0
404.177673 172.0
407.453461 88.0
407.674438 140.0
407.851288 80.0
408.184967 172.0
408.506744 56.0
408.832642 60.0
409.154663 148.0
409.505005 48.0
411.258942 92.0
411.602081 80.0
412.111023 184.0
412.168823 144.0
414.279602 72.0
416.620392 92.0
417.190521 144.0
421.186951 184.0
423.0271 140.0
423.297302 56.0
428.288757 140.0
429.288849 56.0
437.20047 196.0
438.184235 100.0
438.225891 128.0
440.863129 44.0
443.839447 80.0
448.194214 48.0
458.018982 272.0
458.909668 68.0
459.033325 316.0
459.074371 160.0
459.267914 96.0
462.083099 72.0
470.722839 84.0
470.830811 104.0
473.287079 32.0
474.75177 160.0
476.258698 1048.0
477.079102 68.0
477.25415 388.0
477.835815 56.0
477.979401 48.0
478.057739 88.0
478.223114 136.0
478.823975 60.0
486.111755 144.0
487.899414 136.0
491.206665 100.0
492.226196 168.0
492.2836 188.0
492.78717 148.0
492.844604 88.0
493.251221 128.0
494.264343 4928.0
494.343658 124.0
494.432159 80.0
494.480835 52.0
494.836395 152.0
495.012085 64.0
495.265411 1336.0
495.760773 76.0
496.267395 640.0
496.554352 60.0
496.891479 136.0
497.272583 136.0
498.152283 92.0
498.685516 44.0
499.68161 80.0
499.930817 56.0
502.5242 96.0
503.635803 96.0
532.224182 36.0
540.132751 136.0
542.355408 100.0
562.106567 64.0
566.408936 104.0
566.731079 44.0
567.385132 64.0
567.418335 116.0
574.747925 72.0
592.945618 108.0
601.525818 112.0
609.130676 96.0
642.467407 48.0
644.022217 92.0
648.079529 80.0
648.322754 96.0
670.493469 56.0
671.56073 40.0
674.483276 144.0
680.555054 128.0
693.471924 128.0
695.612061 100.0
713.319458 76.0
727.15387 92.0
763.327271 64.0
770.238586 84.0
770.288269 52.0
788.731628 84.0
796.790222 76.0
803.269897 124.0
816.905334 84.0
825.660828 200.0
828.734863 108.0
829.130249 32.0
836.142761 172.0
876.161011 56.0
878.584045 52.0
899.903137 76.0
933.193726 132.0
951.431274 124.0
952.991272 56.0
959.355103 160.0
973.015259 96.0
973.220154 64.0
986.015625 84.0
1004.078491 52.0
1019.189392 84.0
1038.770752 100.0
1054.727661 216.0
1135.531616 160.0
1144.7052 40.0
1150.193237 36.0
1152.874634 88.0
1175.66626 168.0
1180.803833 228.0
1185.130249 120.0
1186.741089 196.0
1238.428345 232.0
1251.913086 52.0
1260.137939 132.0
1294.874634 132.0
1298.551392 104.0
1305.668945 164.0
1313.92395 224.0
1330.635376 60.0
1345.954956 152.0
1363.911865 208.0
1393.63623 124.0
1397.368652 172.0
1404.550293 160.0
1410.770752 76.0
1413.568115 128.0
1429.492065 160.0
1434.101196 144.0
1438.710327 216.0
1439.805176 156.0
1449.223145 60.0
1453.492188 96.0
1457.80542 72.0
1458.383057 196.0
1472.387085 84.0
1500.402954 80.0
