>compound Asaraldehyde
>formula C10H12O4
>ionization [M+H]+
>parentmass 197.08083531609054
#inchi InChI=1S/C10H12O4/c1-12-8-5-10(14-3)9(13-2)4-7(8)6-11/h4-6H,1-3H3
#inchikey IAJBQAYHSQIQRE
#Ion_Source DI-ESI
#Instrument qTof
#Compound_Source Isolated
#PI Norberto Lopes
#Data_Collector Denise Silva
#Scan -1
#Precursor_MZ 197.062
#ExactMass 196.074
#Charge 1
#CAS_Number 4460-86-0
#Pubmed_ID N/A
#Smiles O=C([H])C1=CC(OC)=C(OC)C=C1OC
#INCHI_AUX N/A
#Library_Class 3
#SpectrumID CCMSLIB00000081694
#IonMode Positive
#UpdateWorkflowName UPDATE-SINGLE-ANNOTATED-BRONZE
#LibraryQualityString Bronze
#TaskID 52bd5f0db6314c93924d5ce5c86348eb
##Scan# 1
#SpectrumFile gnps_Asaraldehyde_pos_MplusH.mgf
#LibraryName gnps_library.mgf
#MQScore -1
#Organism batch_27_05_V02
#TIC_Query 0
#RT_Query -1
#MZErrorPPM -1
#SharedPeaks 0
#MassDiff 0
#LibMZ -1
#SpecMZ 197.062
#SpecCharge 0
#internalFilename spec-00000.mgf

>collision 10
111.034309 1274.0
121.01783 627.0
122.024551 1492.0
123.032837 29992.0
124.038612 5187.0
125.046738 4220.0
126.056023 2691.0
135.029068 512.0
137.045456 1027.0
138.053223 70751.0
139.025116 37439.0
140.029312 1380.0
149.014862 465.0
151.026688 418.0
152.03093 444.0
153.041428 3985.0
154.049118 41250.0
155.051529 1972.0
167.018524 37777.0
168.057297 1554.0
169.070404 18259.0
170.072998 879.0
181.032684 712.0
182.040985 11526.0
183.041061 509.0
197.061722 1903.0
