>compound MLS001158594-01!(3S)-N-[(2S)-1-(2,4-dimethylanilino)-3-(1H-indol-3-yl)-1-oxopropan-2-yl]-1,2,3,4-tetrahydroisoquinoline-3-carboxamide
>formula C29H30N4O2
>ionization [M+H]+
>parentmass 467.245
#inchi InChI=1S/C29H30N4O2/c1-18-11-12-24(19(2)13-18)32-29(35)27(15-22-17-30-25-10-6-5-9-23(22)25)33-28(34)26-14-20-7-3-4-8-21(20)16-31-26/h3-13,17,26-27,30-31H,14-16H2,1-2H3,(H,32,35)(H,33,34)/t26-,27-/m0/s1
#inchikey CFQJYANOZLREKD
#Ion_Source LC-ESI
#Instrument qTof
#Compound_Source NIH Natural Product Library
#PI Dorrestein
#Data_Collector VVP/LMS
#Scan -1
#Precursor_MZ 467.245
#ExactMass 466.237
#Charge 1
#CAS_Number N/A
#Pubmed_ID N/A
#Smiles Cc1ccc(NC(=O)[C@H](Cc2c[nH]c3ccccc23)NC(=O)[C@@H]4Cc5ccccc5CN4)c(C)c1
#INCHI_AUX N/A
#Library_Class 1
#SpectrumID CCMSLIB00000079674
#IonMode Positive
#UpdateWorkflowName UPDATE-SINGLE-ANNOTATED-GOLD
#LibraryQualityString Gold
#TaskID b1d8e8f6646f4e71acdff9ca3d919d08
##Scan# 1914
#SpectrumFile p1-F09_GF9_01_17941.mzXML
#LibraryName NIH_Natural_Products_Library.mgf
#MQScore -1
#Organism NIH_Natural_Products_Library
#TIC_Query 0
#RT_Query -1
#MZErrorPPM -1
#SharedPeaks 0
#MassDiff 0
#LibMZ -1
#SpecMZ 467.245
#SpecCharge 0
#internalFilename spec-00000.mgf

>collision 10
94.957489 144.0
95.017616 152.0
95.062073 132.0
95.126656 172.0
95.141823 132.0
95.20784 228.0
95.221436 132.0
95.281654 60.0
95.359383 120.0
95.398254 164.0
95.418732 228.0
95.454636 148.0
95.543907 196.0
95.567459 168.0
95.631149 204.0
95.662819 116.0
95.688126 160.0
95.715385 96.0
95.754333 168.0
95.767967 148.0
95.799133 144.0
95.824463 156.0
95.853683 188.0
95.889191 216.0
95.923851 192.0
96.005356 144.0
96.175476 168.0
96.249924 148.0
96.275826 292.0
96.309776 148.0
96.383476 172.0
96.425476 168.0
96.439156 132.0
96.460663 100.0
96.488899 308.0
96.507492 160.0
96.540825 188.0
96.621017 224.0
96.689499 164.0
96.744308 232.0
96.954185 132.0
97.061707 160.0
97.098961 132.0
97.132309 132.0
97.155846 224.0
97.230408 44.0
97.250038 156.0
97.27948 172.0
97.29715 80.0
97.324638 136.0
97.375694 140.0
97.424248 228.0
97.45623 120.0
97.472656 144.0
97.535645 108.0
97.587921 184.0
97.66172 304.0
97.698059 176.0
97.719696 92.0
97.78669 180.0
97.822037 140.0
97.847626 68.0
97.867317 144.0
97.887009 240.0
97.934273 168.0
97.961845 104.0
97.987457 64.0
98.044601 188.0
98.099792 132.0
98.126984 168.0
98.206482 148.0
98.257561 164.0
98.302376 140.0
98.342407 120.0
98.360176 144.0
98.431252 96.0
98.512344 196.0
98.531982 216.0
98.634743 244.0
98.647064 208.0
98.660439 120.0
98.732613 48.0
98.769196 52.0
98.787003 172.0
98.802826 172.0
98.849976 164.0
98.925522 180.0
98.97403 208.0
99.103767 208.0
99.124542 320.0
99.159248 116.0
99.181053 148.0
99.204666 184.0
99.283295 84.0
99.303986 152.0
99.337875 184.0
99.387306 172.0
99.417068 96.0
99.448097 336.0
99.464394 128.0
99.504028 232.0
99.544113 216.0
99.609657 192.0
99.631363 164.0
99.732849 52.0
99.760681 92.0
99.824303 128.0
99.858116 164.0
99.895905 188.0
99.924721 144.0
99.950134 156.0
99.989426 144.0
100.040398 360.0
100.073029 124.0
100.100906 152.0
100.134758 180.0
100.152687 116.0
100.171173 128.0
100.187286 156.0
100.226067 96.0
100.280205 220.0
100.312096 48.0
100.328041 216.0
100.383514 200.0
100.435257 236.0
100.457779 144.0
100.477615 132.0
100.545456 32.0
100.615318 124.0
100.633286 108.0
100.659248 204.0
100.685944 152.0
100.707176 180.0
100.735138 116.0
100.75312 152.0
100.783089 204.0
100.799072 92.0
100.857033 192.0
100.896378 240.0
100.921005 128.0
100.955093 168.0
101.013 140.0
101.035004 244.0
101.09903 180.0
101.145065 128.0
101.185104 152.0
101.20713 120.0
101.278954 148.0
101.315277 148.0
101.373383 124.0
101.479622 164.0
101.529808 144.0
101.593933 136.0
101.61367 148.0
101.64209 208.0
101.68222 152.0
101.71418 156.0
101.750473 124.0
101.776573 192.0
101.814728 188.0
101.856903 32.0
101.93325 72.0
101.984406 256.0
101.999573 140.0
102.033745 148.0
102.050659 204.0
102.063904 224.0
102.084015 152.0
102.102112 256.0
102.132278 160.0
102.156418 192.0
102.185616 288.0
102.212753 152.0
102.240929 204.0
102.289337 232.0
102.317413 176.0
102.38588 144.0
102.420906 92.0
102.520851 180.0
102.567207 164.0
102.601479 196.0
102.631721 80.0
102.714409 76.0
102.733925 148.0
102.738968 180.0
102.776947 196.0
102.799141 160.0
102.81797 248.0
102.84758 124.0
102.865746 100.0
102.884903 360.0
102.904106 172.0
102.921425 188.0
103.000397 172.0
103.054214 2784.0
103.122269 160.0
103.152954 156.0
103.173477 188.0
103.204025 136.0
103.308296 116.0
103.366974 168.0
103.405426 160.0
103.431732 192.0
103.474251 208.0
103.53009 152.0
103.551193 144.0
103.569427 44.0
103.611115 172.0
103.626144 400.0
103.640327 192.0
103.670723 160.0
103.723419 64.0
103.806648 80.0
103.838303 188.0
103.899849 164.0
103.936363 116.0
103.962746 172.0
104.007774 172.0
104.02774 176.0
104.060852 256.0
104.100945 104.0
104.139122 128.0
104.178963 180.0
104.196251 180.0
104.273422 164.0
104.308701 180.0
104.33445 132.0
104.407646 164.0
104.465263 256.0
104.49604 148.0
104.561852 264.0
104.581306 236.0
104.670158 132.0
104.696632 144.0
104.755699 172.0
104.783211 208.0
104.806633 220.0
104.820786 216.0
104.971741 96.0
105.00676 208.0
105.022728 128.0
105.049248 164.0
105.070038 4060.0
105.103714 160.0
105.136978 116.0
105.163513 148.0
105.210457 152.0
105.26355 148.0
105.318687 300.0
105.345245 152.0
105.400406 176.0
105.437187 164.0
105.453537 116.0
105.476021 196.0
105.525085 136.0
105.543488 200.0
105.576202 100.0
105.631432 104.0
105.668854 204.0
105.689972 224.0
105.737595 180.0
105.782852 92.0
105.801636 116.0
105.821205 164.0
105.864754 108.0
105.916862 180.0
105.924606 232.0
105.985611 164.0
106.006104 184.0
106.072159 268.0
106.181923 188.0
106.270508 160.0
106.289078 208.0
106.310295 224.0
106.340385 176.0
106.375275 188.0
106.469727 124.0
106.497169 132.0
106.52066 180.0
106.555054 252.0
106.611473 108.0
106.636559 328.0
106.664917 176.0
106.685707 172.0
106.740982 164.0
106.802505 144.0
106.860283 184.0
106.880859 156.0
106.900528 172.0
106.930191 156.0
106.947197 200.0
106.991409 140.0
107.012894 212.0
107.077667 148.0
107.11187 172.0
107.1856 60.0
107.224754 156.0
107.277687 188.0
107.295586 188.0
107.356415 176.0
107.383842 148.0
107.407402 236.0
107.457771 124.0
107.492851 132.0
107.529488 228.0
107.560951 140.0
107.594963 152.0
107.627022 144.0
107.678787 168.0
107.722023 128.0
107.746811 132.0
107.771812 160.0
107.862534 144.0
107.881142 96.0
107.928185 212.0
107.945053 184.0
107.984528 132.0
108.052788 96.0
108.075226 128.0
108.104515 160.0
108.148041 136.0
108.18998 184.0
108.20594 120.0
108.278412 128.0
108.303268 56.0
108.361275 36.0
108.440018 164.0
108.454529 152.0
108.477325 156.0
108.498055 92.0
108.545746 136.0
108.632019 172.0
108.666046 164.0
108.693481 176.0
108.713768 156.0
108.81282 228.0
108.842468 144.0
108.92347 176.0
108.967094 108.0
109.004494 120.0
109.04612 128.0
109.073074 128.0
109.227364 180.0
109.260231 100.0
109.35804 148.0
109.371819 184.0
109.405914 136.0
109.434227 156.0
109.455421 160.0
109.555855 160.0
109.605858 132.0
109.683022 144.0
109.717285 168.0
109.74968 164.0
109.803947 180.0
109.856041 52.0
109.916122 236.0
109.949936 92.0
109.966637 140.0
110.081451 120.0
110.129486 160.0
110.157158 208.0
110.181709 168.0
110.236038 124.0
110.31546 100.0
110.466019 68.0
110.499496 168.0
110.564362 204.0
110.587387 160.0
110.636246 152.0
110.679497 144.0
110.702705 188.0
110.73185 144.0
110.760574 168.0
110.798882 48.0
110.828209 60.0
110.857544 148.0
110.893173 160.0
110.953888 112.0
111.004288 200.0
111.083984 284.0
111.104965 128.0
111.128036 132.0
111.168877 176.0
111.186485 192.0
111.207779 204.0
111.235069 136.0
111.300156 144.0
111.353836 192.0
111.422997 160.0
111.552261 196.0
111.591309 172.0
111.615334 228.0
111.686844 132.0
111.735222 212.0
111.751617 192.0
111.792038 212.0
111.886955 164.0
111.928864 100.0
111.965179 212.0
112.071068 140.0
112.091759 204.0
112.115601 212.0
112.167908 172.0
112.198547 152.0
112.232285 108.0
112.264267 196.0
112.280312 196.0
112.329437 116.0
112.348282 100.0
112.369377 204.0
112.413689 240.0
112.449562 224.0
112.527306 272.0
112.562538 164.0
112.578346 96.0
112.597351 176.0
112.616364 56.0
112.632683 176.0
112.647507 188.0
112.764259 204.0
112.783279 184.0
112.819214 156.0
112.869957 148.0
112.912254 132.0
112.982056 284.0
113.006371 204.0
113.036644 160.0
113.041298 96.0
113.048416 300.0
113.085739 84.0
113.100555 204.0
113.132309 188.0
113.167801 184.0
113.208534 244.0
113.227592 172.0
113.250893 140.0
113.267838 116.0
113.301094 160.0
113.336647 100.0
113.380554 140.0
113.435234 56.0
113.454315 68.0
113.487274 352.0
113.511559 128.0
113.526405 196.0
113.570602 200.0
113.576752 168.0
113.585899 156.0
113.621857 196.0
113.653679 188.0
113.731384 256.0
113.774658 168.0
113.800133 196.0
113.818619 244.0
113.87233 164.0
113.887199 152.0
113.913689 204.0
113.991302 148.0
114.033806 176.0
114.133064 208.0
114.148605 188.0
114.16349 132.0
114.192474 204.0
114.263458 168.0
114.309761 336.0
114.395401 176.0
114.424164 180.0
114.45076 216.0
114.46566 212.0
114.482697 200.0
114.497604 200.0
114.542336 268.0
114.574287 204.0
114.627556 160.0
114.712807 144.0
114.82795 212.0
114.872742 140.0
114.891937 168.0
114.923332 168.0
114.964485 176.0
115.002151 224.0
115.054199 8852.0
115.080887 120.0
115.118187 160.0
115.141258 148.0
115.165169 120.0
115.195076 68.0
115.21814 196.0
115.237801 160.0
115.267929 160.0
115.284904 164.0
115.312592 76.0
115.389549 216.0
115.451561 216.0
115.479362 372.0
115.547813 108.0
115.605583 220.0
115.625877 232.0
115.644104 164.0
115.746231 244.0
115.796021 168.0
115.817535 60.0
115.883949 152.0
115.92466 136.0
115.952805 180.0
115.984673 140.0
115.999672 204.0
116.056694 784.0
116.111168 220.0
116.151924 108.0
116.17337 156.0
116.224861 136.0
116.278511 192.0
116.295685 60.0
116.321198 176.0
116.341637 176.0
116.361824 148.0
116.410469 188.0
116.447357 216.0
116.50827 184.0
116.538345 100.0
116.553383 140.0
116.656548 188.0
116.721046 168.0
116.749001 36.0
116.809227 256.0
116.992836 176.0
117.020798 128.0
117.057808 9816.0
117.12307 184.0
117.164421 76.0
117.20903 148.0
117.260719 124.0
117.310028 276.0
117.331062 112.0
117.37133 212.0
117.386429 168.0
117.412308 48.0
117.448967 72.0
117.474854 196.0
117.526634 164.0
117.561157 104.0
117.604324 40.0
117.628067 88.0
117.69239 176.0
117.735191 188.0
117.755463 76.0
117.836281 232.0
117.852386 152.0
117.874275 320.0
117.900208 160.0
118.017731 164.0
118.062981 2144.0
118.084457 180.0
118.105797 176.0
118.146706 240.0
118.205124 184.0
118.248405 164.0
118.26416 172.0
118.296097 120.0
118.389122 196.0
118.404282 68.0
118.440407 224.0
118.460487 80.0
118.51693 220.0
118.558098 112.0
118.60083 168.0
118.652969 208.0
118.701172 168.0
118.75322 168.0
118.770576 96.0
118.857353 120.0
118.887733 164.0
118.959976 56.0
118.991379 160.0
119.028831 136.0
119.066895 504.0
119.095703 152.0
119.115707 208.0
119.233788 244.0
119.289543 136.0
119.322006 232.0
119.339546 120.0
119.363464 124.0
119.393913 172.0
119.463058 192.0
119.491798 220.0
119.507027 208.0
119.528786 180.0
119.542274 144.0
119.615837 116.0
119.652847 160.0
119.67897 232.0
119.717628 304.0
119.742447 136.0
119.82708 164.0
119.892448 140.0
119.960014 156.0
120.055954 188.0
120.080727 268.0
120.189018 308.0
120.21302 180.0
120.252304 164.0
120.274124 164.0
120.291588 152.0
120.309006 188.0
120.352722 108.0
120.389839 168.0
120.420418 132.0
120.453178 64.0
120.547272 180.0
120.625809 188.0
120.66716 192.0
120.689209 160.0
120.728134 120.0
120.763565 168.0
120.800743 184.0
120.866379 160.0
120.881699 224.0
120.932037 100.0
120.949547 32.0
120.998352 208.0
121.061623 180.0
121.091866 200.0
121.164146 144.0
121.20359 48.0
121.266655 164.0
121.313171 156.0
121.345901 172.0
121.409645 88.0
121.602509 44.0
121.653191 224.0
121.690811 180.0
121.710274 172.0
121.74102 196.0
121.790527 200.0
121.828873 68.0
121.929153 212.0
122.006882 152.0
122.024467 172.0
122.039864 184.0
122.066246 220.0
122.097015 1108.0
122.202621 148.0
122.350792 232.0
122.378891 136.0
122.405121 120.0
122.429344 180.0
122.49855 160.0
122.52626 188.0
122.559311 176.0
122.598976 156.0
122.639969 152.0
122.680527 156.0
122.702568 180.0
122.724617 116.0
122.754822 92.0
122.784157 180.0
122.843712 96.0
122.870186 44.0
122.936378 180.0
122.954033 92.0
122.998177 168.0
123.042328 188.0
123.061142 192.0
123.086487 192.0
123.101944 200.0
123.148323 120.0
123.207962 148.0
123.254364 172.0
123.268188 140.0
123.345955 288.0
123.364868 180.0
123.398026 172.0
123.428986 164.0
123.488693 196.0
123.523209 132.0
123.672333 220.0
123.703323 64.0
123.863586 160.0
123.900833 148.0
123.997917 180.0
124.034698 208.0
124.063637 148.0
124.146454 300.0
124.204117 188.0
124.232956 176.0
124.279541 48.0
124.319481 140.0
124.340919 140.0
124.424919 88.0
124.483757 168.0
124.534836 92.0
124.557045 116.0
124.608139 156.0
124.634804 180.0
124.670357 168.0
124.701469 160.0
124.73259 100.0
124.752594 184.0
124.845978 216.0
124.877113 228.0
124.941628 100.0
124.985237 188.0
125.064011 124.0
125.081818 168.0
125.096718 52.0
125.119667 84.0
125.161362 88.0
125.186462 72.0
125.208733 108.0
125.226547 44.0
125.259964 152.0
125.354584 144.0
125.363106 204.0
125.415939 160.0
125.489502 136.0
125.52964 40.0
125.554169 132.0
125.569778 168.0
125.609924 136.0
125.655746 312.0
125.68132 156.0
125.703629 76.0
125.72818 112.0
125.812996 144.0
125.858742 196.0
125.886681 64.0
125.958153 220.0
126.029266 148.0
126.070976 120.0
126.228577 160.0
126.250938 188.0
126.280014 132.0
126.403053 148.0
126.427673 60.0
126.45639 72.0
126.537354 148.0
126.55526 124.0
126.649323 312.0
126.69339 160.0
126.721008 140.0
126.810638 204.0
126.826332 240.0
126.841324 180.0
126.872658 204.0
126.931801 172.0
127.005707 104.0
127.059547 156.0
127.088715 148.0
127.119781 236.0
127.185211 140.0
127.232658 232.0
127.270515 40.0
127.328903 128.0
127.351868 248.0
127.414261 208.0
127.441223 196.0
127.48616 136.0
127.542496 124.0
127.742477 212.0
127.788101 172.0
127.805473 136.0
127.832474 168.0
127.912872 144.0
127.994545 128.0
128.026077 188.0
128.048218 220.0
128.080124 172.0
128.126709 176.0
128.157623 200.0
128.278427 152.0
128.319 128.0
128.397919 180.0
128.413712 256.0
128.438522 184.0
128.469345 60.0
128.515228 48.0
128.537781 96.0
128.585175 184.0
128.627686 168.0
128.675476 68.0
128.718369 196.0
128.765793 112.0
128.782822 176.0
128.798538 96.0
128.831299 204.0
128.91716 132.0
128.983887 160.0
129.052475 380.0
129.09314 212.0
129.101196 360.0
129.130386 248.0
129.181686 228.0
129.202057 156.0
129.245041 144.0
129.280869 144.0
129.33783 208.0
129.3582 116.0
129.423859 372.0
129.451126 176.0
129.479935 172.0
129.55069 120.0
129.566544 224.0
129.597107 212.0
129.639755 76.0
129.655914 240.0
129.685028 152.0
129.699432 124.0
129.720642 200.0
129.758163 224.0
129.81813 164.0
129.854553 200.0
129.878723 120.0
129.919861 180.0
129.944992 148.0
129.963806 404.0
129.991089 196.0
130.00499 216.0
130.028107 416.0
130.065872 78300.0
130.131577 196.0
130.156525 296.0
130.20285 176.0
130.218735 248.0
130.279541 276.0
130.315735 108.0
130.330292 108.0
130.352631 132.0
130.389084 136.0
130.423752 80.0
130.440094 648.0
130.467514 156.0
130.486694 240.0
130.502121 160.0
130.522079 80.0
130.547089 44.0
130.579803 196.0
130.60762 188.0
130.653381 164.0
130.668396 180.0
130.697723 160.0
130.714523 212.0
130.731842 184.0
130.756378 312.0
130.807129 204.0
130.841583 252.0
130.89183 164.0
130.930481 136.0
130.973434 204.0
130.999878 136.0
131.026672 148.0
131.035416 104.0
131.044952 172.0
131.068939 9052.0
131.110184 428.0
131.132172 152.0
131.150406 56.0
131.193726 84.0
131.224747 284.0
131.260727 164.0
131.282639 32.0
131.310898 72.0
131.330536 148.0
131.346497 168.0
131.410385 196.0
131.457413 176.0
131.487732 196.0
131.503586 52.0
131.509262 108.0
131.526764 64.0
131.549149 280.0
131.574707 156.0
131.592972 128.0
131.612228 92.0
131.643311 220.0
131.682129 168.0
131.719223 88.0
131.760605 272.0
131.777969 176.0
131.798538 100.0
131.825958 120.0
131.843628 148.0
131.86647 264.0
131.872864 208.0
131.907333 328.0
131.932587 172.0
131.961685 256.0
131.983459 424.0
132.006927 308.0
132.081802 181992.0
132.15239 104.0
132.170807 148.0
132.192871 116.0
132.229996 324.0
132.246002 132.0
132.292404 324.0
132.324799 284.0
132.342239 140.0
132.376694 380.0
132.427017 68.0
132.457703 2392.0
132.479004 244.0
132.508789 140.0
132.533981 132.0
132.580994 200.0
132.601196 128.0
132.630707 364.0
132.65831 68.0
132.673889 112.0
132.700043 128.0
132.729324 92.0
132.764023 124.0
132.803528 64.0
132.837402 72.0
132.867188 100.0
132.900162 72.0
132.923828 100.0
132.958466 136.0
132.981567 60.0
133.017517 184.0
133.040756 188.0
133.084229 30532.0
133.148102 144.0
133.220856 168.0
133.277786 196.0
133.296356 168.0
133.336014 56.0
133.357391 296.0
133.378357 92.0
133.394791 144.0
133.439163 60.0
133.469513 52.0
133.490204 68.0
133.527786 188.0
133.568405 112.0
133.589111 32.0
133.611115 204.0
133.630402 76.0
133.664154 220.0
133.698639 68.0
133.729462 128.0
133.800125 184.0
133.832123 156.0
133.863571 236.0
133.899841 100.0
133.922012 192.0
133.970596 272.0
133.999496 76.0
134.037552 196.0
134.086975 1612.0
134.130539 128.0
134.165314 200.0
134.206329 164.0
134.233734 36.0
134.272842 172.0
134.337158 256.0
134.411606 132.0
134.439301 40.0
134.45546 220.0
134.584732 64.0
134.711746 68.0
134.748718 56.0
134.798859 176.0
134.820343 156.0
134.84346 56.0
134.860321 148.0
134.993439 164.0
135.012222 132.0
135.029831 164.0
135.082687 172.0
135.151016 156.0
135.359344 136.0
135.472824 140.0
135.507584 88.0
135.556244 84.0
135.596375 108.0
135.61882 184.0
135.757919 28.0
135.804306 48.0
135.856354 136.0
135.876205 144.0
136.108307 156.0
136.26857 184.0
136.3685 76.0
136.398239 96.0
136.452179 132.0
136.601013 36.0
136.647552 124.0
136.74295 180.0
136.943192 100.0
136.982788 188.0
137.028519 184.0
137.050339 160.0
137.145889 208.0
137.176193 120.0
137.255463 120.0
137.320755 188.0
137.348755 80.0
137.40007 128.0
137.435074 68.0
137.463074 208.0
137.533081 92.0
137.65448 72.0
137.705856 52.0
137.787613 76.0
137.815659 120.0
137.843689 76.0
137.871735 84.0
137.888092 92.0
138.082138 92.0
138.175705 152.0
138.334854 88.0
138.351242 184.0
138.44957 260.0
138.651047 48.0
138.700272 80.0
138.960571 128.0
139.005005 180.0
139.028625 100.0
139.059128 72.0
139.156952 108.0
139.207031 188.0
139.244614 112.0
139.29628 60.0
139.37381 240.0
139.442917 188.0
139.517181 52.0
139.540695 132.0
139.597122 140.0
139.63945 148.0
139.797073 156.0
139.858276 40.0
140.018372 152.0
140.049057 312.0
140.152649 120.0
140.183792 156.0
140.265762 72.0
140.298767 168.0
140.364792 216.0
140.400162 92.0
140.423737 112.0
140.459122 124.0
140.480347 236.0
140.657333 104.0
140.773026 64.0
140.808441 60.0
140.839142 56.0
140.866791 148.0
140.891113 136.0
140.907654 84.0
140.9431 100.0
140.983261 152.0
141.061264 120.0
141.136917 32.0
141.271729 156.0
141.354538 116.0
141.373917 168.0
141.47998 56.0
141.617325 124.0
141.715363 164.0
141.757095 188.0
141.783157 92.0
141.825272 156.0
142.013138 188.0
142.03685 224.0
142.065857 3836.0
142.200577 52.0
142.295532 188.0
142.345383 216.0
142.404755 76.0
142.504532 120.0
142.540176 216.0
142.582947 160.0
142.639984 88.0
142.706558 64.0
142.754105 124.0
142.925385 72.0
142.949173 112.0
143.032471 216.0
143.070648 896.0
143.095932 188.0
143.185654 96.0
143.24202 304.0
143.282516 36.0
143.299194 148.0
143.38414 136.0
143.454758 204.0
143.485092 104.0
143.602783 180.0
143.634262 144.0
143.685425 60.0
143.725983 184.0
143.759399 180.0
143.785645 232.0
143.807129 68.0
143.854858 152.0
143.890411 108.0
143.912155 60.0
143.964691 40.0
143.983795 128.0
144.080612 1960.0
144.122345 176.0
144.139069 84.0
144.225113 72.0
144.275314 208.0
144.347031 200.0
144.394867 80.0
144.423569 152.0
144.461838 220.0
144.478592 48.0
144.622162 56.0
144.677216 100.0
144.708344 144.0
144.725098 116.0
144.772995 80.0
144.854431 64.0
144.916718 136.0
145.015839 220.0
145.051086 196.0
145.084534 316.0
145.132431 200.0
145.156403 172.0
145.216354 80.0
145.245148 164.0
145.285919 60.0
145.495712 164.0
145.597961 176.0
145.614777 180.0
145.650803 176.0
145.794388 196.0
145.857452 156.0
145.928833 184.0
145.963226 144.0
145.984879 108.0
146.02005 140.0
146.037781 76.0
146.063202 140.0
146.096939 5320.0
146.127106 180.0
146.153259 32.0
146.201385 96.0
146.247116 208.0
146.430099 100.0
146.545715 192.0
146.569809 108.0
146.663803 180.0
146.697556 152.0
146.753006 72.0
146.777115 64.0
146.885635 188.0
146.970078 96.0
147.098022 768.0
147.161087 124.0
147.363632 104.0
147.781921 172.0
147.81337 60.0
147.893234 144.0
147.948914 92.0
148.074799 288.0
148.232285 84.0
148.404388 188.0
148.542572 192.0
148.620255 36.0
148.734467 136.0
148.817108 76.0
148.889709 68.0
149.020874 188.0
149.084061 144.0
149.164261 236.0
149.227463 104.0
149.305283 168.0
149.356354 68.0
149.395279 264.0
149.490173 148.0
149.529114 172.0
149.621597 112.0
149.714737 48.0
149.782333 100.0
149.839401 176.0
149.957764 212.0
150.040634 176.0
150.091843 164.0
150.131516 132.0
150.171051 192.0
150.179001 92.0
150.188049 168.0
150.301605 92.0
150.330887 136.0
150.421204 148.0
150.474899 116.0
150.628754 36.0
150.666458 220.0
150.750916 124.0
150.836792 148.0
150.890533 168.0
151.226349 208.0
151.266983 120.0
151.395935 180.0
152.117584 136.0
152.181412 140.0
152.225616 184.0
152.48111 128.0
152.505981 168.0
152.557312 60.0
152.590027 168.0
152.719589 112.0
152.766327 184.0
152.783554 104.0
152.810623 156.0
152.933655 180.0
153.209457 148.0
153.234085 168.0
153.352371 168.0
153.394272 192.0
153.48056 184.0
153.709961 120.0
153.833359 180.0
153.998795 232.0
154.060608 172.0
154.12973 188.0
154.245895 56.0
154.349731 80.0
154.928879 180.0
154.963135 188.0
154.98587 148.0
155.052704 144.0
155.05928 140.0
155.233734 108.0
155.352798 180.0
155.767349 200.0
155.874176 252.0
156.043198 100.0
156.080109 1716.0
156.152618 168.0
156.194901 124.0
156.423828 164.0
156.446228 84.0
156.555786 256.0
156.59314 44.0
156.700989 152.0
156.8423 84.0
156.884674 100.0
156.917084 136.0
157.073288 324.0
157.109116 140.0
157.156525 136.0
157.216415 76.0
157.398636 184.0
157.623444 72.0
157.670929 152.0
157.813416 44.0
157.872711 180.0
157.997406 148.0
158.023514 136.0
158.062439 604.0
158.085022 1208.0
158.170654 100.0
158.263794 176.0
158.293839 176.0
158.37648 172.0
158.46666 76.0
158.516785 92.0
158.54184 112.0
158.55809 72.0
158.591965 132.0
158.637955 196.0
158.662155 52.0
158.702194 136.0
158.707657 244.0
158.753494 164.0
158.800064 392.0
158.820129 156.0
158.870026 188.0
158.887283 148.0
158.894608 164.0
158.908844 384.0
158.940552 176.0
158.978104 112.0
159.03537 312.0
159.041641 332.0
159.092392 121704.0
159.162735 116.0
159.185989 128.0
159.228287 168.0
159.25058 180.0
159.267365 200.0
159.30452 168.0
159.331223 104.0
159.351898 140.0
159.370499 96.0
159.393707 60.0
159.435806 120.0
159.44278 104.0
159.460068 76.0
159.505539 704.0
159.55191 136.0
159.574356 84.0
159.591721 112.0
159.62265 88.0
159.627762 48.0
159.639618 116.0
159.661331 56.0
159.670227 76.0
159.690643 160.0
159.728195 116.0
159.765808 120.0
159.786194 112.0
159.807404 104.0
159.830887 48.0
159.860458 144.0
159.896851 132.0
159.932693 76.0
159.94902 152.0
159.965958 172.0
159.983582 32.0
160.040359 108.0
160.094315 13212.0
160.163269 100.0
160.1922 104.0
160.223099 72.0
160.232056 72.0
160.27681 56.0
160.329041 52.0
160.348816 76.0
160.390015 80.0
160.400284 76.0
160.429474 52.0
160.457199 52.0
160.507629 60.0
160.532837 168.0
160.573196 88.0
160.62616 28.0
160.759888 200.0
160.80336 212.0
160.82132 92.0
160.845688 176.0
160.873932 148.0
160.955322 160.0
160.996506 204.0
161.097107 1736.0
161.144196 132.0
161.151566 68.0
161.160828 92.0
161.194733 136.0
161.240402 136.0
161.279755 104.0
161.286346 88.0
161.301682 100.0
161.322144 120.0
161.341797 124.0
161.382645 116.0
161.413025 64.0
161.441452 100.0
161.482941 176.0
161.555771 80.0
161.621552 188.0
161.643173 88.0
161.664566 116.0
161.737961 40.0
161.80632 144.0
161.834167 120.0
161.891022 80.0
161.977905 116.0
162.001312 68.0
162.090958 792.0
162.201508 64.0
162.256393 92.0
162.292435 180.0
162.313187 80.0
162.418259 192.0
162.508362 160.0
162.57724 220.0
162.726639 116.0
162.759644 52.0
162.79393 160.0
162.83075 260.0
162.881546 64.0
162.909485 116.0
162.973007 36.0
162.990799 96.0
163.016205 60.0
163.051788 48.0
163.083832 160.0
163.145828 192.0
163.285675 144.0
163.349258 156.0
163.379791 84.0
163.514648 80.0
163.692856 128.0
163.983276 152.0
164.044449 56.0
164.10054 140.0
164.184692 112.0
164.207642 256.0
164.281616 196.0
164.442368 164.0
164.465332 72.0
164.661926 92.0
164.730896 112.0
164.781998 108.0
164.843307 36.0
164.965988 172.0
165.037582 96.0
165.065704 156.0
165.124527 92.0
165.188477 180.0
165.211487 52.0
165.39061 252.0
165.687668 152.0
165.720978 196.0
165.759399 132.0
165.813217 72.0
166.008057 64.0
166.172226 212.0
166.544449 120.0
166.662613 32.0
166.712692 184.0
166.791122 144.0
167.259262 108.0
167.382843 196.0
167.444641 92.0
167.592255 160.0
167.640442 40.0
167.733215 32.0
167.751266 132.0
167.800247 120.0
167.833771 136.0
167.887909 156.0
168.080276 400.0
168.16655 112.0
168.422165 132.0
168.85379 52.0
169.076843 3804.0
169.130646 236.0
169.327408 68.0
169.423248 156.0
169.550217 212.0
169.734268 52.0
169.770569 156.0
169.928802 132.0
170.059952 6052.0
170.65863 148.0
170.918747 60.0
170.973389 260.0
171.028046 204.0
171.061584 952.0
171.092758 460.0
171.13739 56.0
171.270203 132.0
171.34053 152.0
171.474075 48.0
171.593338 48.0
171.630463 168.0
171.80719 112.0
171.903732 204.0
171.987244 112.0
172.008118 64.0
172.035995 168.0
172.074173 120.0
172.096893 132.0
172.149826 204.0
172.258804 148.0
172.358078 64.0
172.493988 188.0
172.650864 188.0
172.944366 304.0
172.972672 52.0
173.108826 324.0
173.190002 156.0
173.606033 76.0
174.043442 84.0
174.090729 1336.0
174.370682 192.0
174.495483 160.0
174.696732 208.0
174.944107 112.0
175.052048 72.0
175.076431 256.0
175.109985 148.0
175.560654 120.0
175.660873 224.0
175.732101 144.0
175.874603 136.0
176.103363 200.0
176.265472 92.0
176.439911 48.0
176.879044 92.0
177.10289 156.0
177.239227 52.0
177.689957 136.0
177.926163 180.0
178.092178 148.0
178.359161 124.0
178.396378 100.0
178.585175 64.0
178.699554 112.0
179.120407 140.0
179.485291 112.0
179.551971 72.0
180.080414 160.0
180.507996 72.0
180.620331 40.0
180.922714 64.0
181.252151 132.0
181.471939 48.0
181.520203 120.0
181.619431 148.0
181.667709 120.0
181.799179 52.0
182.097183 104.0
182.191193 44.0
182.403488 136.0
182.532532 64.0
182.884964 148.0
182.968414 136.0
183.096466 216.0
183.226959 76.0
183.499161 144.0
183.57196 120.0
183.666351 164.0
183.709518 144.0
183.830933 116.0
183.857925 208.0
183.992874 164.0
184.076584 104.0
184.152191 216.0
184.376434 152.0
184.535385 60.0
184.733353 156.0
184.825333 120.0
184.865921 144.0
184.944412 136.0
184.968765 236.0
185.020203 108.0
185.072906 240.0
185.099121 168.0
185.266647 144.0
185.52681 88.0
185.706696 176.0
185.751877 168.0
185.773392 172.0
185.814285 212.0
185.851028 88.0
185.947235 144.0
186.101974 124.0
186.16301 192.0
186.207886 136.0
186.248627 76.0
186.300232 48.0
186.319244 88.0
186.398041 116.0
186.596451 72.0
186.648117 172.0
186.713379 76.0
186.737625 328.0
186.794983 120.0
186.83374 208.0
186.891769 160.0
186.922852 180.0
186.953278 44.0
186.994247 180.0
187.027176 152.0
187.087219 97216.0
187.145279 196.0
187.188065 72.0
187.205841 132.0
187.259247 64.0
187.304855 60.0
187.338425 88.0
187.379303 100.0
187.439713 64.0
187.488525 100.0
187.536575 216.0
187.580978 68.0
187.606094 56.0
187.641922 76.0
187.666458 64.0
187.702545 172.0
187.734634 100.0
187.770081 76.0
187.797363 60.0
187.818039 96.0
187.892838 64.0
187.916992 260.0
187.946533 92.0
187.997452 164.0
188.018341 80.0
188.089279 10920.0
188.151611 68.0
188.183105 56.0
188.233017 88.0
188.285889 56.0
188.362885 84.0
188.415131 88.0
188.444321 40.0
188.463455 148.0
188.550903 44.0
188.612793 68.0
188.670212 96.0
188.705017 84.0
188.725845 64.0
188.765335 112.0
188.848907 56.0
188.903336 80.0
188.977478 108.0
189.016159 120.0
189.053848 136.0
189.093781 924.0
189.162064 88.0
189.299927 260.0
189.360443 116.0
189.364304 116.0
189.396332 88.0
189.417282 172.0
189.463898 48.0
189.48259 128.0
189.507156 88.0
189.579361 84.0
189.612778 80.0
189.663986 144.0
189.686783 108.0
189.719009 96.0
189.757324 60.0
189.859512 112.0
190.010376 52.0
190.111908 160.0
190.183258 56.0
190.210709 44.0
190.33699 72.0
190.395706 200.0
190.510025 100.0
190.633667 100.0
190.790329 48.0
190.856323 36.0
191.05159 124.0
191.42041 56.0
191.500275 52.0
191.74823 36.0
192.490326 180.0
192.763794 32.0
192.877106 112.0
193.463547 84.0
193.485703 48.0
193.793121 52.0
193.812515 52.0
193.948303 56.0
194.05365 120.0
194.325455 48.0
194.35321 144.0
194.489182 60.0
194.569687 64.0
194.614105 136.0
194.797409 168.0
195.612167 88.0
195.996506 44.0
196.145874 148.0
196.328232 48.0
196.403534 84.0
196.573715 72.0
196.891953 176.0
196.975754 128.0
197.069992 196.0
197.13501 132.0
197.244003 116.0
197.993835 96.0
198.091873 136.0
198.220749 48.0
198.330048 40.0
198.523499 104.0
198.543137 60.0
198.85173 60.0
199.090378 160.0
199.469666 188.0
200.06485 132.0
200.122345 68.0
200.725342 32.0
200.793015 76.0
201.027176 212.0
201.061035 132.0
201.100983 264.0
201.134415 56.0
201.219101 60.0
202.099014 148.0
202.681381 68.0
203.089615 176.0
203.112305 236.0
203.511978 72.0
204.629837 76.0
208.109436 112.0
208.718567 200.0
209.190399 72.0
209.227829 156.0
209.884445 180.0
210.066437 104.0
210.46759 124.0
211.314453 44.0
211.734177 96.0
212.075684 124.0
212.580688 204.0
213.34166 228.0
214.237976 68.0
214.459442 88.0
215.025269 136.0
215.082077 300.0
215.250046 72.0
215.451584 128.0
215.638596 60.0
217.046692 244.0
217.098877 784.0
217.733368 52.0
217.894928 48.0
218.100006 76.0
219.18364 116.0
220.098038 96.0
220.148239 148.0
220.754044 60.0
222.12532 176.0
224.406311 80.0
226.058121 60.0
226.094025 108.0
226.507217 168.0
227.803085 76.0
227.983353 88.0
228.094559 152.0
228.527618 132.0
228.771393 104.0
229.105667 120.0
229.529373 88.0
230.089172 168.0
230.868378 56.0
231.010544 64.0
231.103821 168.0
231.36763 164.0
231.44635 140.0
232.06749 188.0
232.10994 124.0
232.149368 52.0
233.719818 176.0
233.90242 120.0
234.13382 152.0
235.10022 172.0
235.44519 32.0
235.640686 144.0
235.824036 40.0
236.08696 112.0
236.126709 140.0
236.928696 124.0
243.924698 48.0
244.108414 88.0
244.444077 76.0
244.764694 100.0
245.113571 136.0
246.130447 160.0
247.126236 212.0
247.866486 112.0
247.941696 92.0
248.129761 88.0
248.955002 48.0
249.140305 116.0
249.36026 36.0
249.39798 152.0
250.300888 88.0
251.161255 160.0
255.087616 100.0
255.358002 48.0
256.108734 508.0
257.110352 176.0
257.745758 176.0
258.052582 68.0
258.100555 160.0
258.910156 80.0
259.108734 256.0
260.529968 204.0
260.642395 104.0
261.671661 96.0
261.794006 52.0
262.857788 108.0
263.152618 1620.0
263.250458 56.0
263.364655 120.0
263.422791 48.0
263.813812 84.0
263.968994 96.0
264.159973 276.0
264.357178 40.0
264.852539 76.0
264.943237 84.0
265.166809 216.0
265.679138 60.0
265.711578 56.0
266.331604 48.0
267.108459 184.0
267.323212 88.0
268.453583 176.0
268.512268 184.0
269.18454 144.0
269.530792 56.0
269.772644 68.0
269.841309 148.0
269.965546 52.0
270.168335 188.0
270.764069 76.0
270.859039 140.0
271.12088 212.0
272.130127 116.0
272.361359 108.0
272.394196 40.0
272.680054 168.0
272.781952 84.0
272.915375 184.0
273.138947 5160.0
273.851349 36.0
274.143646 1264.0
274.25 40.0
274.536835 100.0
275.044922 32.0
275.084534 44.0
275.137848 160.0
275.18689 32.0
275.995453 112.0
276.019531 128.0
276.112122 60.0
276.826935 176.0
277.105194 92.0
277.214539 124.0
277.456482 48.0
279.060059 64.0
279.549011 108.0
280.224945 152.0
282.006927 76.0
283.131073 144.0
284.086334 104.0
284.133301 160.0
285.120392 128.0
286.139709 104.0
286.429321 140.0
286.476471 76.0
287.14386 92.0
287.498108 60.0
288.088989 56.0
288.957825 140.0
290.165466 116.0
290.906464 140.0
291.059265 48.0
291.148041 4124.0
291.361542 44.0
291.504242 72.0
292.0448 44.0
292.151642 960.0
292.269318 80.0
293.106964 164.0
293.154022 304.0
293.553497 48.0
293.693329 32.0
293.901428 136.0
294.802917 72.0
295.120819 72.0
295.281525 84.0
295.805054 76.0
296.758209 104.0
297.594604 56.0
298.68399 100.0
298.749359 80.0
299.982178 116.0
300.15213 268.0
300.823883 104.0
301.133667 176.0
302.144012 136.0
303.151611 156.0
303.32489 160.0
304.056732 48.0
305.05011 108.0
305.253326 36.0
305.373474 36.0
307.145142 56.0
307.24057 88.0
307.80249 40.0
308.17514 1588.0
308.725037 84.0
309.116821 116.0
309.179413 268.0
309.701477 56.0
310.180634 176.0
311.834717 92.0
313.100128 196.0
314.68454 56.0
315.0271 96.0
316.746277 92.0
317.295563 48.0
317.760162 96.0
317.891449 144.0
318.065369 128.0
318.158203 3588.0
318.242859 28.0
318.278381 128.0
318.56604 80.0
318.679718 64.0
318.733032 156.0
318.878723 52.0
318.914276 56.0
319.16217 1576.0
319.600616 80.0
319.686035 160.0
319.952972 112.0
319.981445 52.0
320.081146 48.0
320.162933 356.0
320.234283 48.0
320.355408 72.0
320.70459 80.0
320.879272 64.0
321.103912 156.0
321.189514 116.0
322.081879 44.0
322.728729 96.0
324.350464 72.0
325.204132 128.0
327.631348 56.0
328.691345 84.0
328.911499 60.0
329.128113 108.0
331.200348 52.0
331.72937 76.0
333.010254 68.0
335.568451 68.0
336.068115 136.0
338.612366 124.0
338.84314 112.0
340.284515 56.0
341.236084 92.0
341.544983 76.0
343.755524 140.0
344.634338 112.0
346.154419 1092.0
346.869629 68.0
347.158813 104.0
347.882324 56.0
348.123657 68.0
348.157104 104.0
351.093353 36.0
352.82962 52.0
353.970795 92.0
354.32663 52.0
355.545288 104.0
356.183563 104.0
358.207275 96.0
358.384338 92.0
358.787628 64.0
360.535248 68.0
363.121002 80.0
367.289673 64.0
367.507111 128.0
367.873505 52.0
368.656464 44.0
368.924042 120.0
369.493866 56.0
370.554352 60.0
372.614624 60.0
374.095215 76.0
376.169159 76.0
377.33197 128.0
382.04007 40.0
382.133453 80.0
384.126312 168.0
386.272614 56.0
387.098419 48.0
387.180664 84.0
405.200806 136.0
406.849121 48.0
409.007782 88.0
413.981812 96.0
416.557281 116.0
417.146515 112.0
419.075562 116.0
420.009125 152.0
422.206451 80.0
422.640045 84.0
423.225372 68.0
424.93042 72.0
426.519653 88.0
431.152313 44.0
432.186096 120.0
432.885651 108.0
435.701965 48.0
436.071777 112.0
436.81189 56.0
439.265411 100.0
441.052582 48.0
446.196198 156.0
451.707977 64.0
451.991455 64.0
452.203033 108.0
452.986389 92.0
453.202454 84.0
456.615448 68.0
459.729645 80.0
460.865509 84.0
461.780334 148.0
462.845886 104.0
470.689026 92.0
474.041443 56.0
479.338562 80.0
483.075867 84.0
490.66452 80.0
496.053436 76.0
502.823181 216.0
503.528564 48.0
506.48053 76.0
509.557922 108.0
511.667206 136.0
512.000427 64.0
519.925537 100.0
529.481262 108.0
547.814331 80.0
549.063477 36.0
551.687622 56.0
567.66333 116.0
569.651978 56.0
569.827698 176.0
570.331421 104.0
580.385498 76.0
605.253601 68.0
605.655212 40.0
607.356018 124.0
609.093628 48.0
610.391113 44.0
611.000977 84.0
613.12323 140.0
614.385498 116.0
617.358948 76.0
623.799561 56.0
625.177246 88.0
627.937256 60.0
631.273254 52.0
641.208374 72.0
645.691528 76.0
650.027954 124.0
657.003601 220.0
658.514526 68.0
659.853333 88.0
659.90448 124.0
661.439209 236.0
663.272949 84.0
664.868042 104.0
668.002258 120.0
668.125732 100.0
669.257996 76.0
671.607971 76.0
672.872253 68.0
691.942627 156.0
694.830383 60.0
695.643799 52.0
702.389832 148.0
706.425537 56.0
709.815186 92.0
710.616089 236.0
720.337158 120.0
720.818054 216.0
721.641174 84.0
721.876465 140.0
724.895569 36.0
725.37793 108.0
730.553894 248.0
737.272888 168.0
737.753906 64.0
740.621887 116.0
742.009155 56.0
742.68158 80.0
744.972229 92.0
745.792786 188.0
747.582092 180.0
751.450806 200.0
751.805481 176.0
751.99646 108.0
752.318542 256.0
755.717896 172.0
756.330811 152.0
757.787476 116.0
758.401245 84.0
764.915771 140.0
767.12085 224.0
768.062134 80.0
772.337341 68.0
773.837036 40.0
778.13385 240.0
782.659729 80.0
783.121948 140.0
783.628845 144.0
785.273315 44.0
788.304749 168.0
788.53949 72.0
796.383423 72.0
799.329285 132.0
805.706116 140.0
810.073425 88.0
813.305542 140.0
814.855835 184.0
815.611633 288.0
816.384827 180.0
818.507385 64.0
819.999939 152.0
820.575684 136.0
821.687805 108.0
821.779114 164.0
822.207092 140.0
823.491638 228.0
825.314636 160.0
827.128174 120.0
827.511719 136.0
829.104126 40.0
829.310486 140.0
832.373962 44.0
833.614746 180.0
835.903381 332.0
838.362305 192.0
841.228882 108.0
842.066101 132.0
842.591797 108.0
844.869568 184.0
847.133057 236.0
848.860229 160.0
850.432434 128.0
850.832947 216.0
851.936401 196.0
853.040466 80.0
856.502747 180.0
857.510742 104.0
857.656433 44.0
857.755554 116.0
858.274841 204.0
858.460999 112.0
865.941528 200.0
868.59668 184.0
869.271423 168.0
871.502686 152.0
874.101685 144.0
874.660767 256.0
875.31427 168.0
875.355469 176.0
876.574829 96.0
877.016846 184.0
882.271912 180.0
882.666626 168.0
884.9328 232.0
886.899597 128.0
887.972717 148.0
890.150696 100.0
891.350586 184.0
894.330078 140.0
898.388062 120.0
899.044373 108.0
899.677063 208.0
903.501831 96.0
904.567017 88.0
904.992065 148.0
905.878418 112.0
906.303772 212.0
907.262695 156.0
907.478577 80.0
907.80835 220.0
910.833191 168.0
911.013428 168.0
912.582031 48.0
913.026978 168.0
915.56665 140.0
915.921997 168.0
916.138855 52.0
916.831787 236.0
919.956116 184.0
924.931091 228.0
925.221619 72.0
926.069397 108.0
926.820557 196.0
927.935791 92.0
929.688782 104.0
930.004395 156.0
931.886902 204.0
932.08136 108.0
934.300537 156.0
934.994202 172.0
936.437134 84.0
937.052368 160.0
937.137695 136.0
939.521484 128.0
939.692322 164.0
942.482605 152.0
944.604004 192.0
945.882935 180.0
947.297424 132.0
949.412048 88.0
952.800232 160.0
953.193481 152.0
953.236511 116.0
953.32251 156.0
953.549927 192.0
955.468384 144.0
956.200684 136.0
958.14032 140.0
959.742737 136.0
959.927734 228.0
960.840637 188.0
961.068909 72.0
962.204529 192.0
962.840515 180.0
963.201294 172.0
965.083679 176.0
965.714417 192.0
965.776306 164.0
966.147461 152.0
966.524841 148.0
967.942322 172.0
969.484802 164.0
970.216187 124.0
971.065735 184.0
971.592957 236.0
972.294128 120.0
973.616455 212.0
976.002686 132.0
976.357117 124.0
976.717896 148.0
976.814575 160.0
977.022705 212.0
979.942566 48.0
980.515869 192.0
981.332458 180.0
983.846741 48.0
984.177612 156.0
984.483582 132.0
985.139404 148.0
985.949219 248.0
986.032776 148.0
986.095398 164.0
987.677307 168.0
988.184021 72.0
988.81604 184.0
988.866089 68.0
989.047607 160.0
990.174622 156.0
990.832336 44.0
992.430542 132.0
992.499512 192.0
992.712708 192.0
994.532104 136.0
995.398438 204.0
995.875732 188.0
995.925964 152.0
996.25354 136.0
996.390869 36.0
996.648438 148.0
998.502869 136.0
999.597473 192.0
1000.661255 136.0
1001.114624 240.0
1001.177551 196.0
1001.517639 164.0
1002.053101 152.0
1002.160217 176.0
1002.582397 164.0
1003.376648 60.0
1003.439697 168.0
1005.710632 176.0
1006.525024 72.0
1007.472412 144.0
1007.990479 220.0
1008.236938 108.0
1008.458191 140.0
1012.684631 228.0
1012.874634 204.0
1012.931641 192.0
1013.768005 84.0
1013.939087 144.0
1016.164795 204.0
1016.824768 172.0
1017.16748 196.0
1017.256348 184.0
1017.651184 212.0
1019.36499 164.0
1020.158386 216.0
1021.208618 196.0
1021.971985 172.0
1022.455627 56.0
1022.7229 140.0
1023.079407 104.0
1023.28949 200.0
1023.747925 160.0
1025.066528 212.0
1025.952515 152.0
1026.029053 184.0
1026.360596 120.0
1027.329956 180.0
1027.795776 120.0
1027.897827 196.0
1028.344482 172.0
1028.401978 144.0
1029.148926 160.0
1029.321289 156.0
1030.54126 124.0
1032.190308 96.0
1032.439697 92.0
1034.269531 136.0
1034.704834 168.0
1035.594971 104.0
1036.434204 200.0
1037.504517 144.0
1038.023804 144.0
1040.063965 128.0
1040.429932 192.0
1042.536621 228.0
1043.166504 80.0
1044.098877 176.0
1045.932495 200.0
1045.996948 188.0
1046.569946 144.0
1047.986938 84.0
1048.218872 208.0
1050.204468 128.0
1050.707642 156.0
1051.030273 128.0
1051.540039 220.0
1053.858276 240.0
1054.039307 164.0
1054.116821 160.0
1055.002319 56.0
1055.118652 116.0
1055.260864 132.0
1055.513062 144.0
1055.804077 192.0
1057.227295 128.0
1058.677368 128.0
1059.525879 44.0
1059.635986 188.0
1061.126709 168.0
1061.236938 148.0
1062.041016 56.0
1062.157837 144.0
1064.169556 116.0
1065.085205 172.0
1066.612183 188.0
1068.36145 124.0
1068.641235 92.0
1070.190308 92.0
1070.678711 104.0
1070.737305 184.0
1072.339966 168.0
1072.418213 132.0
1072.515991 224.0
1074.929077 220.0
1075.229248 180.0
1076.443481 120.0
1076.580566 172.0
1079.109375 192.0
1079.52124 100.0
1080.240723 152.0
1080.293091 188.0
1081.215576 192.0
1081.857056 80.0
1082.348145 68.0
1082.891724 208.0
1083.140625 176.0
1083.265015 140.0
1083.736694 116.0
1083.861206 100.0
1084.228149 108.0
1086.943115 160.0
1087.336792 160.0
1087.428711 152.0
1087.986694 208.0
1088.052979 200.0
1088.505371 48.0
1089.208008 96.0
1089.477417 164.0
1089.878174 124.0
1089.924194 168.0
1090.581299 188.0
1090.910034 160.0
1091.146606 76.0
1091.455688 168.0
1091.85022 96.0
1091.955444 132.0
1092.008057 176.0
1092.290894 216.0
1093.07312 160.0
1093.383179 136.0
1094.166382 220.0
1095.187134 284.0
1095.615234 140.0
1095.70752 180.0
1096.017212 192.0
1096.234619 136.0
1096.94873 196.0
1097.005005 136.0
1097.539795 168.0
1099.116211 256.0
1099.749756 152.0
1099.939697 204.0
1100.350464 148.0
1103.078857 208.0
1103.224243 56.0
1103.55481 136.0
1104.851196 172.0
1105.13562 164.0
1105.486328 160.0
1106.062134 112.0
1106.386475 140.0
1107.432739 172.0
1108.17395 184.0
1108.645142 168.0
1109.367554 168.0
1109.546631 120.0
1111.151489 208.0
1111.197998 192.0
1113.109619 196.0
1113.348633 112.0
1114.889893 152.0
1115.009521 36.0
1115.44812 184.0
1117.915649 156.0
1118.800903 152.0
1118.960693 180.0
1119.839722 140.0
1120.012817 176.0
1120.226074 80.0
1121.732056 160.0
1121.938721 132.0
1122.585449 144.0
1122.852173 120.0
1123.112305 140.0
1125.047485 256.0
1126.703613 128.0
1127.993408 180.0
1129.323975 176.0
1129.411011 148.0
1129.825684 188.0
1130.407837 156.0
1130.628662 132.0
1130.949951 176.0
1131.72644 156.0
1132.617188 160.0
1132.938721 136.0
1134.813843 100.0
1135.327637 212.0
1135.801025 164.0
1136.53894 244.0
1136.673218 220.0
1137.371216 72.0
1137.894775 208.0
1138.055908 164.0
1138.834961 320.0
1139.58728 160.0
1140.138306 108.0
1141.267578 124.0
1141.395386 192.0
1141.57019 240.0
1141.691284 212.0
1141.940063 152.0
1142.256226 168.0
1142.659912 124.0
1143.265503 160.0
1143.642334 176.0
1143.797119 192.0
1144.187622 152.0
1144.753174 156.0
1145.696167 172.0
1145.75 164.0
1145.871338 128.0
1147.515747 112.0
1148.480103 148.0
1148.594727 132.0
1148.918579 188.0
1149.407227 168.0
1149.613525 204.0
1149.795776 140.0
1149.984741 132.0
1150.382935 132.0
1150.430298 36.0
1151.166138 120.0
1151.226929 164.0
1151.855103 124.0
1152.287476 180.0
1152.35498 64.0
1152.753662 204.0
1152.956421 164.0
1153.084839 196.0
1154.52478 144.0
1155.383789 148.0
1155.654419 164.0
1155.742432 48.0
1155.891235 240.0
1156.188965 212.0
1157.583496 64.0
1157.718994 260.0
1158.430176 136.0
1160.368408 196.0
1160.612427 128.0
1160.815918 152.0
1161.032837 228.0
1161.304199 252.0
1161.568726 96.0
1162.477905 192.0
1163.17688 156.0
1164.432983 220.0
1164.806641 192.0
1165.371216 148.0
1165.982056 164.0
1166.695801 208.0
1166.756958 176.0
1166.94043 268.0
1167.239624 52.0
1167.627319 124.0
1167.953735 68.0
1168.586426 180.0
1168.647705 188.0
1169.287354 140.0
1169.359985 208.0
1169.593628 76.0
1169.988403 204.0
1170.110962 164.0
1170.24707 216.0
1170.499023 60.0
1171.561523 192.0
1171.999146 88.0
1172.508667 144.0
1172.672241 216.0
1172.801758 200.0
1173.12207 52.0
1173.565308 212.0
1173.774414 176.0
1174.31543 192.0
1174.942993 140.0
1175.133911 208.0
1175.66626 48.0
1176.021118 124.0
1176.253174 88.0
1176.799316 124.0
1176.976807 168.0
1177.161255 112.0
1177.437256 192.0
1177.789551 196.0
1178.199341 88.0
1178.985229 108.0
1179.436279 136.0
1179.545654 168.0
1180.324951 204.0
1180.434448 140.0
1180.495972 220.0
1181.569946 180.0
1182.178833 140.0
1183.93811 108.0
1184.129883 188.0
1184.869751 140.0
1185.109497 220.0
1185.273926 120.0
1185.356201 204.0
1185.411011 132.0
1185.516846 184.0
1185.904419 192.0
1186.315674 124.0
1186.363647 116.0
1186.651611 220.0
1187.385376 152.0
1188.222168 184.0
1188.46228 164.0
1188.606445 128.0
1188.743652 204.0
1188.832886 104.0
1189.025024 160.0
1189.134888 188.0
1189.457397 160.0
1189.574097 220.0
1190.55603 148.0
1190.604004 176.0
1191.393921 176.0
1191.483276 216.0
1191.634399 76.0
1191.709961 148.0
1192.005493 128.0
1192.12915 168.0
1192.390259 36.0
1192.765137 52.0
1192.981445 48.0
1193.249512 120.0
1193.655151 144.0
1193.950928 108.0
1194.549316 152.0
1194.851929 176.0
1195.251099 176.0
1197.846558 80.0
1198.363281 128.0
1198.721558 132.0
1199.886353 152.0
1200.382812 156.0
1200.493164 124.0
1200.789673 164.0
1202.03833 84.0
1202.100464 172.0
1202.50769 184.0
1202.797485 140.0
1203.280762 148.0
1204.551392 200.0
1204.807007 56.0
1204.958984 192.0
1206.030151 188.0
1206.424194 144.0
1206.500244 172.0
1206.859741 136.0
1207.157104 164.0
1207.378296 132.0
1207.890137 96.0
1208.042358 84.0
1208.118408 152.0
1208.671875 192.0
1208.810303 124.0
1209.280884 152.0
1209.357056 28.0
1209.592407 200.0
1209.876221 164.0
1210.007812 200.0
1210.166992 144.0
1211.060303 112.0
1211.351196 140.0
1211.746094 144.0
1212.120239 56.0
1212.25061 128.0
1212.529175 152.0
1212.868774 176.0
1213.612549 140.0
1214.054321 164.0
1214.102905 152.0
1214.213867 156.0
1214.637939 144.0
1215.094727 188.0
1215.164185 204.0
1215.420898 160.0
1215.885864 168.0
1216.142578 128.0
1216.316162 144.0
1216.38562 220.0
1216.545166 224.0
1216.78125 228.0
1216.829834 144.0
1217.239502 160.0
1217.369629 256.0
1217.55896 208.0
1217.774292 160.0
1218.41333 108.0
1218.788452 152.0
1218.996948 116.0
1219.18457 216.0
1219.533936 220.0
1220.658325 160.0
1220.915649 148.0
1221.270386 144.0
1221.430298 204.0
1221.600098 172.0
1221.958984 180.0
1222.028564 184.0
1222.640991 144.0
1222.968018 184.0
1223.405884 128.0
1224.012329 124.0
1224.387695 160.0
1224.492798 72.0
1224.945557 148.0
1225.384399 192.0
1225.447144 196.0
1225.593506 104.0
1225.64917 160.0
1225.72583 136.0
1226.325195 160.0
1226.401855 96.0
1226.645874 140.0
1227.580078 52.0
1227.796265 224.0
1228.082275 124.0
1228.66626 88.0
1228.730957 120.0
1228.905396 168.0
1229.05188 128.0
1229.484497 188.0
1230.203491 168.0
1230.33606 120.0
1230.622314 228.0
1230.964478 152.0
1231.2229 124.0
1231.278809 140.0
1231.807983 196.0
1232.312622 148.0
1232.563232 168.0
1232.934448 132.0
1233.367798 152.0
1233.871094 128.0
1234.108887 136.0
1234.696289 144.0
1234.773193 164.0
1234.878052 216.0
1235.39563 84.0
1235.619507 220.0
1235.752441 372.0
1236.074341 172.0
1236.29834 108.0
1236.354248 168.0
1236.634155 44.0
1236.956177 152.0
1237.047241 120.0
1237.366333 156.0
1238.559692 140.0
1239.211182 160.0
1239.883911 136.0
1240.01709 128.0
1240.171265 32.0
1240.465698 148.0
1240.809204 220.0
1240.914307 192.0
1242.106445 164.0
1242.604614 184.0
1242.737915 104.0
1243.412842 212.0
1243.502808 208.0
1243.786377 160.0
1243.79895 200.0
1243.91687 116.0
1244.167603 168.0
1244.464478 104.0
1244.731323 184.0
1245.117554 188.0
1245.286133 124.0
1246.12207 120.0
1246.178223 168.0
1246.464966 140.0
1246.602173 192.0
1246.775513 132.0
1246.951294 72.0
1247.042603 160.0
1247.232422 84.0
1247.302612 180.0
1247.50647 68.0
1247.59082 156.0
1247.738525 232.0
1248.083008 112.0
1248.272827 116.0
1248.568237 128.0
1249.552979 128.0
1249.792236 172.0
1250.05957 168.0
1250.327026 188.0
1250.481934 164.0
1250.650757 108.0
1250.861938 96.0
1251.404053 128.0
1251.749023 184.0
1252.291382 132.0
1252.848877 228.0
1252.925293 76.0
1252.974609 68.0
1253.09436 100.0
1253.918823 140.0
1254.045654 148.0
1254.390137 156.0
1254.658936 168.0
1254.828125 180.0
1254.891602 204.0
1255.181641 144.0
1255.399292 88.0
1255.455688 168.0
1255.561523 168.0
1255.700439 196.0
1255.857788 124.0
1256.358521 160.0
1256.806396 212.0
1256.922974 204.0
1257.337646 180.0
1257.812256 124.0
1258.384033 152.0
1260.213379 232.0
1260.792725 76.0
1260.983643 192.0
1261.19165 172.0
1261.365234 180.0
1261.470581 180.0
1261.803589 160.0
1262.185425 72.0
1262.991577 144.0
1263.140137 160.0
1263.465576 84.0
1263.661011 224.0
1263.833496 192.0
1263.996216 104.0
1264.095215 164.0
1264.576538 132.0
1264.93042 172.0
1265.142822 136.0
1265.369385 132.0
1265.489746 184.0
1266.176514 140.0
1266.651123 180.0
1266.856567 192.0
1268.153198 124.0
1268.217896 204.0
1269.549927 108.0
1269.658569 180.0
1269.805176 236.0
1269.967407 172.0
1270.031494 172.0
1270.12439 160.0
1271.252441 144.0
1271.458252 144.0
1271.983521 216.0
1272.189331 124.0
1272.601074 188.0
1272.782959 112.0
1273.056885 176.0
1273.211792 176.0
1273.730347 216.0
1273.879517 104.0
1274.099731 160.0
1274.490479 144.0
1274.575684 196.0
1274.973633 64.0
1275.062622 144.0
1275.307739 160.0
1275.558228 164.0
1275.8479 92.0
1275.995972 188.0
1276.32312 168.0
1276.502075 88.0
1276.55896 200.0
1277.095947 192.0
1277.498047 144.0
1277.753906 232.0
1278.095459 184.0
1278.159424 164.0
1278.686035 44.0
1278.878174 160.0
1279.02063 148.0
1279.412109 108.0
1279.760986 256.0
1279.810791 120.0
1281.161255 180.0
1281.277954 164.0
1281.342041 176.0
1281.491699 164.0
1281.541626 60.0
1281.82666 188.0
1281.876465 132.0
1282.004761 148.0
1282.429688 140.0
1282.503662 128.0
1282.843506 164.0
1283.551636 156.0
1283.972412 88.0
1284.086426 140.0
1284.150635 92.0
1284.307617 172.0
1284.564331 112.0
1284.985229 192.0
1285.220703 56.0
1285.370605 120.0
1285.534668 164.0
1285.602905 108.0
1285.834473 172.0
1285.905762 76.0
1286.209961 252.0
1286.548218 136.0
1286.740967 176.0
1286.9552 208.0
1287.040894 136.0
1287.483521 224.0
1287.547852 100.0
1288.090698 180.0
1288.22644 184.0
1288.419312 164.0
1288.469238 108.0
1288.669312 240.0
1289.748413 176.0
1289.797607 136.0
1290.077271 144.0
1290.327515 160.0
1290.928101 160.0
1290.978149 176.0
1291.207031 168.0
1291.392944 204.0
1291.664795 116.0
1292.394409 236.0
1293.117188 64.0
1293.224609 132.0
1293.546631 176.0
1294.377197 100.0
1294.477417 164.0
1294.683716 164.0
1295.186401 180.0
1295.415649 160.0
1295.960205 132.0
1296.640869 160.0
1296.798584 208.0
1296.855957 192.0
1297.156982 168.0
1297.608643 148.0
1298.505005 160.0
1298.583862 160.0
1298.641235 172.0
1298.748779 164.0
1298.799561 156.0
1299.817749 168.0
1299.997192 168.0
1300.104858 104.0
1300.298584 152.0
1300.470825 52.0
1300.544189 212.0
1300.61438 212.0
1300.872803 128.0
1301.045044 160.0
1301.095337 176.0
1301.770264 156.0
1302.028809 164.0
1302.215576 164.0
1302.488525 164.0
1303.077515 132.0
1303.317749 124.0
1303.497314 188.0
1303.580566 180.0
1303.817627 192.0
1304.141113 208.0
1304.198242 164.0
1304.802368 72.0
1304.867065 136.0
1304.98938 148.0
1305.951172 208.0
1307.50708 228.0
1307.600586 152.0
1307.80127 180.0
1308.046875 216.0
1308.291626 64.0
1308.481812 212.0
1308.530518 144.0
1309.026001 144.0
1309.29248 168.0
1309.364502 164.0
1309.515747 204.0
1309.775024 136.0
1310.509766 172.0
1310.797974 32.0
1311.288086 148.0
1311.940552 184.0
1312.145874 104.0
1312.26123 172.0
1312.369385 136.0
1312.476685 252.0
1312.556885 164.0
1312.88855 168.0
1313.213135 100.0
1313.465576 144.0
1313.588135 84.0
1313.733643 124.0
1313.956055 152.0
1314.020996 100.0
1314.432251 184.0
1314.598267 204.0
1315.370483 112.0
1315.464355 168.0
1315.587036 136.0
1315.95874 140.0
1316.229614 184.0
1316.836304 196.0
1316.922974 176.0
1317.190186 40.0
1317.378052 116.0
1317.739258 156.0
1317.854858 120.0
1317.986084 188.0
1318.209839 156.0
1318.432861 92.0
1318.924438 196.0
1319.314697 168.0
1319.495483 212.0
1319.553345 124.0
1319.784668 180.0
1320.016113 220.0
1320.254761 184.0
1320.312622 216.0
1320.498413 168.0
1320.652466 156.0
1320.775391 168.0
1321.187744 128.0
1321.547241 208.0
1321.577637 144.0
1321.594727 192.0
1321.67981 184.0
1321.853394 156.0
1321.953979 152.0
1322.610962 236.0
1322.837769 192.0
1322.928589 204.0
1323.054932 172.0
1323.120117 148.0
1323.800659 132.0
1324.017944 156.0
1324.242432 184.0
1325.031982 136.0
1325.271118 136.0
1325.647949 148.0
1325.792847 132.0
1325.881592 192.0
1326.089966 144.0
1326.246094 324.0
1326.350952 152.0
1326.408936 208.0
1326.706055 124.0
1327.068604 56.0
1327.438354 196.0
1327.822754 156.0
1328.207153 140.0
1329.084961 140.0
1329.353516 176.0
1329.539795 300.0
1330.398682 172.0
1330.536621 124.0
1330.608154 176.0
1330.696289 196.0
1330.747192 128.0
1331.400635 128.0
1332.30127 220.0
1332.707153 260.0
1332.940674 152.0
1333.071533 172.0
1334.314453 144.0
1334.867065 392.0
1334.939697 188.0
1335.005127 144.0
1335.281494 140.0
1335.644409 188.0
1335.732544 160.0
1336.052612 124.0
1336.103516 184.0
1336.340576 216.0
1336.88208 156.0
1337.020264 48.0
1337.100342 116.0
1337.509766 164.0
1337.9375 188.0
1338.767456 112.0
1338.978638 64.0
1339.178955 216.0
1339.408447 224.0
1339.714355 148.0
1339.954834 164.0
1340.326416 248.0
1340.84375 124.0
1341.106201 120.0
1341.379517 120.0
1341.463379 156.0
1341.528931 28.0
1341.908081 208.0
1342.987305 132.0
1343.359253 120.0
1343.461426 188.0
1343.512451 212.0
1343.680298 108.0
1344.256714 168.0
1344.453735 192.0
1344.760254 168.0
1344.988159 160.0
1345.249268 140.0
1345.351562 164.0
1345.570557 120.0
1345.696899 204.0
1346.402954 132.0
1346.497925 152.0
1346.62207 224.0
1346.709717 204.0
1347.893188 184.0
1348.163574 184.0
1348.412109 128.0
1349.148193 236.0
1349.523193 196.0
1349.918091 40.0
1350.071655 136.0
1351.075195 172.0
1351.206909 192.0
1351.262085 160.0
1351.46875 168.0
1351.688232 196.0
1352.141968 80.0
1352.262451 184.0
1352.354248 288.0
1352.830322 192.0
1353.175903 220.0
1353.569458 60.0
1354.038208 168.0
1354.104126 224.0
1354.558228 108.0
1355.202881 200.0
1355.386108 60.0
1356.661377 188.0
1356.712646 140.0
1357.108521 188.0
1357.299194 224.0
1357.511841 156.0
1357.69519 232.0
1357.951904 132.0
1358.443359 188.0
1359.110962 116.0
1359.235718 188.0
1359.727417 124.0
1360.365967 144.0
1360.490723 248.0
1360.644897 156.0
1360.784424 156.0
1361.048706 176.0
1361.144165 128.0
1361.349731 144.0
1361.658203 200.0
1361.841797 164.0
1361.911987 208.0
1361.973999 132.0
1362.253174 168.0
1362.370728 36.0
1362.546021 144.0
1362.723389 144.0
1362.973145 172.0
1363.07605 84.0
1363.222168 180.0
1363.570679 196.0
1363.752197 164.0
1363.921265 228.0
1364.082886 172.0
1364.193237 160.0
1364.494629 220.0
1364.671021 136.0
1364.82959 200.0
1365.391724 180.0
1365.678589 148.0
1366.495117 216.0
1366.870361 140.0
1367.120483 188.0
1367.701904 172.0
1367.849121 204.0
1368.198242 228.0
1368.393921 204.0
1368.563232 140.0
1368.647583 236.0
1369.034546 168.0
1369.15979 120.0
1369.211304 188.0
1369.424927 176.0
1369.815308 196.0
1369.973389 200.0
1370.330933 184.0
1370.448853 168.0
1370.655151 176.0
1370.765747 200.0
1371.249268 160.0
1371.473145 160.0
1371.827026 136.0
1371.967041 52.0
1372.136597 184.0
1372.357788 204.0
1372.571655 152.0
1372.974487 140.0
1373.612549 148.0
1373.980347 160.0
1374.548462 208.0
1374.834351 152.0
1374.90332 140.0
1375.214844 156.0
1375.48584 100.0
1375.766357 140.0
1375.965698 168.0
1376.627563 244.0
1376.684082 172.0
1376.910767 84.0
1377.080688 192.0
1377.191528 172.0
1377.257935 208.0
1377.479492 212.0
1377.560791 180.0
1377.627319 240.0
1378.085327 136.0
1378.203491 112.0
1378.358765 176.0
1378.646973 144.0
1378.772583 112.0
1378.865723 184.0
1379.674316 160.0
1379.9552 172.0
1380.221436 128.0
1380.302734 144.0
1380.517212 184.0
1380.635498 152.0
1380.739136 160.0
1380.931396 180.0
1381.330811 244.0
1382.166748 140.0
1382.943848 156.0
1383.002197 216.0
1383.301758 216.0
1383.402832 156.0
1383.558228 188.0
1383.928467 116.0
1383.995117 88.0
1384.083862 176.0
1384.246826 188.0
1384.402344 128.0
1384.485352 160.0
1384.557861 148.0
1384.713379 184.0
1384.802246 244.0
1385.033203 212.0
1385.187378 56.0
1385.461548 208.0
1385.824585 224.0
1385.883789 184.0
1386.053833 84.0
1386.128296 120.0
1386.291382 144.0
1386.750854 84.0
1386.958374 132.0
1387.06958 120.0
1387.178223 208.0
1387.610718 184.0
1387.707153 104.0
1388.107544 216.0
1388.470947 164.0
1389.004883 252.0
1389.141846 244.0
1389.398071 116.0
1389.583496 156.0
1389.665161 160.0
1389.95459 256.0
1390.355225 124.0
1390.414673 244.0
1390.503662 200.0
1390.830322 48.0
1391.201416 204.0
1391.386963 196.0
1391.438965 132.0
1391.63208 224.0
1391.83252 48.0
1392.876099 176.0
1393.392212 176.0
1393.644897 208.0
1393.86853 160.0
1394.001465 168.0
1394.759644 152.0
1394.982544 148.0
1395.153564 128.0
1395.213379 168.0
1395.309692 196.0
1395.733521 184.0
1396.224243 372.0
1396.366089 220.0
1396.573853 28.0
1396.752319 172.0
1397.221069 48.0
1397.35498 168.0
1397.712036 144.0
1398.084106 156.0
1398.158569 128.0
1398.21814 192.0
1398.560425 116.0
1398.739136 208.0
1398.887939 60.0
1399.044312 184.0
1399.319824 100.0
1399.893066 216.0
1400.384155 180.0
1400.473999 140.0
1400.764526 212.0
1401.036377 176.0
1401.166748 204.0
1401.22644 120.0
1401.293457 176.0
1401.673462 116.0
1402.165283 64.0
1402.60498 152.0
1402.888306 148.0
1403.0896 164.0
1403.273926 176.0
1403.477295 124.0
1403.529419 236.0
1403.700928 156.0
1403.976929 116.0
1404.07312 156.0
1404.183716 164.0
1404.387085 152.0
1404.737671 124.0
1404.991333 104.0
1405.12146 308.0
1405.625488 96.0
1406.081665 128.0
1406.692749 148.0
1406.804688 100.0
1407.394531 172.0
1407.563843 232.0
1407.850098 120.0
1408.021851 188.0
1408.664185 124.0
1408.723877 108.0
1408.850952 184.0
1408.940552 224.0
1409.022705 144.0
1409.284302 176.0
1409.493408 72.0
1409.755005 160.0
1409.92688 96.0
1410.45752 152.0
1410.607056 128.0
1410.71167 236.0
1411.698608 164.0
1411.997803 184.0
1412.147339 204.0
1412.198608 188.0
1412.221558 160.0
1412.356812 232.0
1412.47644 148.0
1412.663452 172.0
1412.828003 148.0
1413.493896 152.0
1413.574097 164.0
1414.032715 160.0
1414.225586 188.0
1414.53418 120.0
1414.631592 144.0
1414.960938 120.0
1415.35022 116.0
1415.64978 208.0
1416.271362 172.0
1416.428711 84.0
1416.526123 136.0
1416.623535 148.0
1416.810791 168.0
1416.870728 128.0
1417.005493 116.0
1417.116699 168.0
1417.267822 188.0
1417.979736 132.0
1418.114624 132.0
1418.646851 112.0
1418.796753 276.0
1419.374023 156.0
1419.56311 168.0
1419.688965 332.0
1420.153931 132.0
1420.542114 156.0
1421.219238 132.0
1421.954712 180.0
1422.157349 168.0
1422.562622 136.0
1423.148193 216.0
1423.335938 188.0
1423.771484 124.0
1424.019287 228.0
1424.109497 184.0
1424.19043 184.0
1424.620239 180.0
1424.99585 116.0
1425.168701 152.0
1426.017822 152.0
1426.175659 156.0
1427.070312 44.0
1427.265747 132.0
1427.362061 184.0
1427.656738 124.0
1427.980225 148.0
1428.115601 120.0
1428.815186 152.0
1429.008545 148.0
1429.274048 188.0
1429.529907 152.0
1430.244873 136.0
1430.440674 176.0
1430.591187 248.0
1431.133179 176.0
1431.863647 160.0
1432.903198 172.0
1433.20459 128.0
1433.257324 188.0
1433.43811 76.0
1433.490845 164.0
1433.78479 224.0
1433.927979 80.0
1434.184204 144.0
1434.282227 200.0
1434.350098 184.0
1434.647949 48.0
1434.886475 184.0
1435.028564 156.0
1435.533813 124.0
1435.671753 92.0
1436.106934 168.0
1436.552002 180.0
1436.99707 120.0
1437.057373 148.0
1437.342529 188.0
1437.419556 76.0
1438.053589 176.0
1438.431274 192.0
1438.559326 128.0
1438.69519 132.0
1438.778198 200.0
1439.15564 232.0
1439.578491 212.0
1439.729614 116.0
1440.212891 164.0
1440.296021 116.0
1440.356445 164.0
1440.461426 188.0
1440.47644 168.0
1440.656982 148.0
1441.150391 196.0
1441.338623 176.0
1441.75415 176.0
1441.814697 180.0
1441.980957 188.0
1442.04895 148.0
1442.305908 184.0
1442.517578 80.0
1442.698975 172.0
1442.888184 160.0
1443.039185 132.0
1443.197998 172.0
1443.311401 232.0
1443.644165 188.0
1443.719727 120.0
1443.863403 188.0
1444.091309 196.0
1444.311523 184.0
1444.438232 132.0
1444.506348 168.0
1444.657593 200.0
1444.733276 56.0
1444.827759 192.0
1445.694214 148.0
1445.800171 176.0
1445.915283 416.0
1446.12561 88.0
1446.435913 144.0
1446.526733 96.0
1446.609985 152.0
1446.761475 96.0
1446.943115 216.0
1447.170288 112.0
1447.643677 176.0
1447.798828 180.0
1447.851807 92.0
1448.434937 264.0
1448.488037 164.0
1448.62439 172.0
1448.753174 208.0
1448.957642 148.0
1449.268311 156.0
1449.495605 204.0
1449.707764 188.0
1450.063354 152.0
1450.192871 108.0
1450.265015 108.0
1450.321655 108.0
1450.466431 204.0
1450.735229 196.0
1451.04187 80.0
1451.231445 212.0
1451.337524 192.0
1451.443726 208.0
1451.735474 192.0
1451.951782 228.0
1452.156616 184.0
1452.300659 132.0
1452.368896 128.0
1452.459961 188.0
1452.604126 184.0
1453.104492 192.0
1453.317261 144.0
1453.772461 184.0
1454.027954 180.0
1454.394897 168.0
1454.49707 204.0
1455.131226 168.0
1455.267822 184.0
1455.473999 196.0
1455.59436 84.0
1455.807007 188.0
1456.16394 96.0
1457.166626 148.0
1457.2229 120.0
1457.288208 188.0
1457.911255 124.0
1457.969238 168.0
1458.040527 192.0
1458.093628 180.0
1458.207642 140.0
1458.344482 228.0
1458.488892 200.0
1458.709351 184.0
1458.7854 124.0
1459.264282 144.0
1459.42395 132.0
1459.507568 160.0
1459.910645 56.0
1460.252808 156.0
1460.328857 40.0
1460.423096 200.0
1460.58728 128.0
1460.638184 140.0
1460.846191 100.0
1461.066772 136.0
1461.127686 140.0
1461.180908 164.0
1461.241699 256.0
1461.625977 120.0
1461.705933 180.0
1461.812378 152.0
1462.063599 172.0
1462.119873 144.0
1462.256348 156.0
1462.398438 104.0
1462.611572 96.0
1462.664795 260.0
1462.756104 156.0
1463.083496 172.0
1463.190063 164.0
1463.342407 164.0
1463.394775 156.0
1463.456543 172.0
1463.56311 184.0
1463.654541 192.0
1463.951538 132.0
1464.141846 180.0
1464.37793 152.0
1464.956909 64.0
1465.017822 128.0
1465.192993 156.0
1465.478882 156.0
1465.72644 160.0
1465.863525 148.0
1466.11499 124.0
1466.442749 120.0
1466.54187 324.0
1466.900024 172.0
1467.799683 216.0
1467.868286 176.0
1467.921021 136.0
1467.933472 124.0
1467.962891 204.0
1468.310669 220.0
1468.440308 356.0
1468.493652 152.0
1468.565552 196.0
1468.623291 184.0
1468.745361 312.0
1469.438354 220.0
1469.721924 200.0
1469.851562 156.0
1470.194946 220.0
1470.652954 120.0
1470.820801 172.0
1470.920044 140.0
1471.065063 148.0
1471.156738 116.0
1471.370483 308.0
1471.439209 176.0
1472.029541 204.0
1472.324951 132.0
1472.378418 144.0
1472.913086 172.0
1472.981812 204.0
1473.302612 216.0
1473.485962 156.0
1473.554688 184.0
1473.730469 144.0
1473.817017 396.0
1474.372314 152.0
1474.486938 160.0
1474.586304 144.0
1474.968018 172.0
1474.997925 160.0
1475.24939 348.0
1475.434814 144.0
1475.51123 172.0
1475.824707 264.0
1476.184082 164.0
1476.390625 172.0
1476.601562 136.0
1476.688843 156.0
1477.515015 212.0
1477.744507 104.0
1477.95874 124.0
1478.05896 200.0
1478.119385 108.0
1478.348999 144.0
1478.563232 144.0
1478.70105 192.0
1478.823486 184.0
1479.244507 140.0
1479.5354 160.0
1479.627197 56.0
1479.852051 180.0
1480.094238 68.0
1480.255127 132.0
1480.507812 284.0
1480.607422 116.0
1481.089844 176.0
1481.208496 152.0
1481.312012 192.0
1481.587769 76.0
1481.863647 148.0
1481.947876 108.0
1482.039795 180.0
1482.177734 136.0
1482.844482 180.0
1482.913452 172.0
1482.990479 136.0
1483.089722 120.0
1483.304321 124.0
1483.589355 160.0
1483.664673 388.0
1483.986694 164.0
1484.071045 104.0
1484.193726 148.0
1484.400757 168.0
1484.806885 124.0
1485.090942 172.0
1485.159912 84.0
1485.397705 40.0
1485.482056 144.0
1485.773682 120.0
1485.942383 140.0
1486.01123 176.0
1486.095825 104.0
1486.548584 68.0
1486.698608 208.0
1486.720337 116.0
1487.133057 152.0
1487.27771 196.0
1487.331421 88.0
1487.469604 184.0
1487.613037 124.0
1487.838013 124.0
1488.0979 132.0
1488.452271 220.0
1488.651978 112.0
1488.936035 108.0
1489.089722 196.0
1489.204834 52.0
1489.419922 180.0
1489.567383 140.0
1490.049805 152.0
1490.498901 128.0
1490.603027 228.0
1490.893921 156.0
1490.9198 132.0
1490.935669 184.0
1491.140991 140.0
1491.294678 68.0
1491.431885 132.0
1491.971191 152.0
1492.294067 64.0
1492.470947 268.0
1492.672607 176.0
1493.27063 168.0
1493.324585 76.0
1493.58606 120.0
1493.77832 208.0
1494.005005 312.0
1494.070679 240.0
1494.178345 128.0
1494.593872 184.0
1494.793945 36.0
1494.909302 136.0
1495.194092 180.0
1495.374146 376.0
1495.694336 60.0
1495.771362 284.0
1495.825195 120.0
1495.909912 216.0
1496.002319 60.0
1496.094604 152.0
1496.772461 132.0
1496.887695 152.0
1497.241943 144.0
1497.611572 148.0
1497.791138 140.0
1497.870605 160.0
1498.019897 92.0
1498.089233 208.0
1498.312622 160.0
1498.443604 220.0
1499.021484 224.0
1499.098511 116.0
1499.476074 56.0
1499.599487 140.0
1499.661133 100.0
1499.838379 156.0
1499.970581 140.0
1500.154419 52.0
1500.255981 112.0
1500.79248 204.0
1500.821411 156.0
1501.156738 144.0
1501.373169 176.0
1501.456665 148.0
1501.588623 116.0
1501.758301 164.0
1501.943359 160.0
1502.13623 100.0
1502.259644 172.0
1502.383057 212.0
1502.552856 120.0
1502.699463 152.0
1503.099976 196.0
1503.276489 152.0
1503.355225 184.0
1503.409302 208.0
1503.661987 184.0
1503.964966 180.0
1504.049438 192.0
