>compound MLS000756699-01!
>formula C22H26O5
>ionization [M+H]+
>parentmass 371.186462
#inchi InChI=1S/C22H26O5/c1-6-7-13-10-15(23)26-21-16(13)20-14(8-9-22(4,5)27-20)19-17(21)18(24)11(2)12(3)25-19/h8-12,18,24H,6-7H2,1-5H3
#inchikey NIDRYBLTWYFCFV
#Ion_Source LC-ESI
#Instrument qTof
#Compound_Source NIH Natural Product Library
#PI Dorrestein
#Data_Collector VVP/LMS
#Scan -1
#Precursor_MZ 371.186
#ExactMass 370.178
#Charge 1
#CAS_Number N/A
#Pubmed_ID N/A
#Smiles CCCc1cc(=O)oc2c3C(O)C(C)C(C)Oc3c4C=CC(C)(C)Oc4c12
#INCHI_AUX N/A
#Library_Class 1
#SpectrumID CCMSLIB00000080054
#IonMode Positive
#UpdateWorkflowName UPDATE-SINGLE-ANNOTATED-GOLD
#LibraryQualityString Gold
#TaskID b1d8e8f6646f4e71acdff9ca3d919d08
##Scan# 2748
#SpectrumFile p2-E03_GE3_01_18027.mzXML
#LibraryName NIH_Natural_Products_Library.mgf
#MQScore -1
#Organism NIH_Natural_Products_Library
#TIC_Query 0
#RT_Query -1
#MZErrorPPM -1
#SharedPeaks 0
#MassDiff 0
#LibMZ -1
#SpecMZ 371.186
#SpecCharge 0
#internalFilename spec-00000.mgf

>collision 10
94.950531 164.0
95.020363 156.0
95.04364 136.0
95.084396 140.0
95.272743 132.0
95.46711 80.0
95.607178 176.0
95.739563 164.0
96.10408 168.0
96.133347 140.0
96.240707 120.0
96.279762 188.0
96.309059 168.0
96.502525 116.0
96.576836 136.0
96.61792 156.0
96.653137 196.0
96.744217 88.0
97.009583 144.0
97.027229 164.0
97.086052 128.0
97.539597 152.0
97.842545 120.0
98.0336 144.0
98.074989 84.0
98.114418 156.0
98.258385 156.0
98.384689 168.0
98.418251 64.0
98.550591 132.0
98.601967 92.0
98.938232 172.0
99.023376 148.0
99.152153 144.0
99.550911 128.0
100.055946 92.0
100.133606 92.0
100.203323 160.0
100.650108 160.0
100.692039 92.0
100.749969 168.0
101.280067 136.0
101.400284 136.0
101.47245 104.0
101.604813 152.0
102.161301 88.0
102.352501 108.0
102.437088 192.0
102.475365 136.0
102.660805 156.0
102.951408 120.0
103.056442 176.0
103.173668 60.0
103.280838 48.0
103.337486 120.0
103.659431 52.0
103.894623 244.0
104.030594 172.0
104.119934 116.0
104.380051 176.0
104.445129 232.0
104.506157 188.0
104.571281 128.0
105.031761 128.0
105.046036 188.0
105.07016 876.0
105.129692 32.0
105.190918 72.0
105.566856 120.0
105.81649 148.0
106.03772 168.0
106.464447 84.0
106.575371 148.0
106.61647 176.0
106.795341 304.0
107.046715 168.0
107.273056 132.0
107.386459 192.0
107.483421 52.0
107.582489 56.0
107.851028 52.0
108.053055 172.0
108.086784 116.0
108.476151 196.0
108.563232 152.0
108.606789 140.0
109.066093 528.0
109.101006 136.0
109.286102 132.0
109.344368 112.0
109.623428 56.0
109.682327 200.0
109.746414 164.0
109.852776 128.0
109.925804 128.0
109.94458 140.0
110.289192 152.0
110.318459 128.0
110.397911 148.0
111.076508 64.0
111.506943 160.0
111.630974 204.0
111.72773 196.0
111.74456 88.0
111.868729 160.0
112.241638 216.0
112.923752 148.0
112.997795 128.0
113.107834 92.0
113.139587 136.0
113.334442 32.0
113.667343 144.0
113.690681 164.0
113.792572 196.0
113.926369 192.0
113.975235 192.0
114.539009 228.0
115.055305 328.0
115.134079 152.0
115.75209 124.0
115.80349 140.0
116.255852 108.0
116.466255 36.0
116.678993 144.0
116.853203 164.0
116.881172 180.0
116.980179 144.0
117.064148 60.0
117.447769 132.0
117.698112 164.0
117.72834 148.0
118.076286 176.0
118.197426 164.0
118.416077 96.0
118.595909 200.0
118.821434 148.0
119.048447 832.0
119.086578 512.0
119.290512 100.0
119.542809 164.0
119.998047 72.0
120.046021 152.0
120.087456 148.0
120.5634 216.0
120.720795 140.0
121.063179 452.0
121.180466 172.0
121.375587 188.0
121.871605 164.0
122.069427 196.0
122.241013 204.0
122.267418 40.0
122.395096 204.0
122.633018 48.0
122.966057 140.0
123.045525 128.0
123.081604 340.0
123.560471 104.0
124.100883 180.0
124.571373 172.0
124.653702 144.0
125.227554 108.0
125.267647 116.0
125.528412 160.0
125.907784 88.0
126.037354 160.0
126.082047 112.0
126.137924 68.0
126.303391 180.0
126.791481 192.0
127.150314 160.0
127.186226 112.0
127.372597 100.0
127.633293 148.0
128.062302 584.0
128.286209 96.0
128.629089 60.0
129.072098 536.0
129.274155 48.0
129.454315 140.0
129.476959 168.0
129.891739 140.0
129.930313 132.0
130.025604 76.0
130.075546 160.0
130.195877 164.0
130.218582 164.0
130.543579 160.0
130.907669 248.0
130.98967 104.0
131.012451 224.0
131.060638 180.0
131.084686 436.0
131.621414 264.0
132.01445 140.0
132.103653 100.0
132.227203 168.0
132.692215 176.0
132.972061 96.0
133.067322 280.0
133.099945 440.0
133.238419 232.0
133.449875 200.0
133.732819 136.0
133.804184 176.0
133.836411 180.0
134.04834 176.0
134.103638 172.0
135.044739 1036.0
135.08017 508.0
135.128937 140.0
135.765945 56.0
136.043945 172.0
136.076874 152.0
136.636841 124.0
136.720749 144.0
137.018799 196.0
137.060226 1604.0
137.094696 320.0
137.513153 216.0
137.737305 156.0
138.065857 684.0
138.111282 92.0
138.670883 124.0
138.706039 160.0
138.914734 32.0
139.154114 104.0
139.647598 148.0
139.927628 172.0
139.984131 100.0
140.198502 124.0
140.488525 172.0
140.604141 148.0
141.012726 136.0
141.071457 856.0
141.509476 136.0
141.781891 88.0
142.080658 876.0
142.128113 164.0
142.298996 192.0
142.595932 236.0
142.764603 164.0
142.90744 148.0
143.043091 132.0
143.08136 232.0
143.109756 112.0
143.202637 168.0
143.529114 96.0
143.693695 192.0
143.84404 92.0
143.865524 112.0
143.906113 168.0
144.087616 160.0
144.204712 176.0
144.462952 176.0
145.064011 476.0
145.101089 376.0
145.832123 168.0
146.067688 352.0
146.113464 64.0
146.684204 76.0
146.7276 116.0
146.773407 176.0
146.898819 60.0
147.045776 588.0
147.082458 620.0
147.121017 204.0
147.265717 100.0
147.369598 60.0
147.473511 68.0
147.778214 100.0
148.059998 176.0
148.085999 216.0
148.107437 212.0
148.131668 84.0
148.148621 172.0
148.424911 56.0
148.79129 56.0
148.968567 140.0
149.057434 284.0
149.087097 188.0
149.133804 176.0
149.172684 160.0
149.267502 152.0
149.338028 32.0
149.809448 120.0
149.87117 208.0
150.097855 144.0
150.256393 124.0
150.400375 156.0
150.854706 124.0
151.001419 192.0
151.03566 176.0
151.074799 176.0
151.111496 160.0
151.236298 112.0
151.380753 64.0
151.441971 124.0
151.653198 76.0
151.809586 56.0
152.05983 196.0
152.118729 80.0
152.280167 172.0
152.371674 48.0
152.482254 60.0
152.573212 76.0
152.757645 132.0
153.070847 516.0
153.254944 76.0
153.851791 140.0
153.945618 212.0
153.999954 212.0
154.075134 184.0
154.486908 124.0
154.603012 104.0
154.754196 132.0
155.085129 424.0
155.485458 164.0
155.532623 40.0
155.554962 136.0
155.753616 120.0
155.770996 224.0
155.937469 168.0
156.094772 628.0
156.11647 200.0
156.16124 204.0
156.407562 176.0
156.614227 112.0
156.863403 88.0
157.037949 120.0
157.063156 340.0
157.102051 588.0
157.809586 116.0
157.834595 164.0
158.071716 380.0
158.104752 160.0
158.555542 228.0
158.771149 148.0
158.994431 100.0
159.043427 176.0
159.082535 724.0
159.1138 136.0
159.44899 116.0
160.027557 132.0
160.050217 452.0
160.074997 212.0
160.377716 208.0
160.576904 140.0
160.740875 44.0
160.973114 40.0
161.0186 176.0
161.060623 884.0
161.097427 672.0
161.132111 172.0
161.529144 84.0
161.635391 164.0
162.010117 208.0
162.050644 172.0
162.070923 96.0
162.088654 156.0
162.474045 144.0
162.517166 116.0
162.770996 76.0
162.961502 72.0
163.043167 208.0
163.076324 288.0
163.190247 100.0
163.378448 192.0
163.439514 108.0
163.607483 128.0
165.066879 260.0
165.302246 164.0
165.507019 40.0
165.694 120.0
165.75293 236.0
165.832367 32.0
166.076202 280.0
166.232452 180.0
166.805176 204.0
166.910583 72.0
167.088516 284.0
167.873657 220.0
167.987137 176.0
168.095535 420.0
168.530106 128.0
168.681778 108.0
168.942963 228.0
169.062622 160.0
169.098221 592.0
169.191406 84.0
169.214706 224.0
169.854797 120.0
169.927429 84.0
169.974136 36.0
170.071716 288.0
170.112335 224.0
171.042282 192.0
171.079391 520.0
171.118088 748.0
172.027634 176.0
172.052917 472.0
172.08165 344.0
172.116241 308.0
172.220856 44.0
172.275711 148.0
172.8797 176.0
173.000092 124.0
173.058136 640.0
173.093414 612.0
173.134125 180.0
173.419205 100.0
173.563385 108.0
173.718124 240.0
173.804703 176.0
173.828323 176.0
174.006805 152.0
174.025177 88.0
174.066818 328.0
174.105438 92.0
174.216904 64.0
174.324631 208.0
174.369293 128.0
174.406097 72.0
174.427124 208.0
174.532288 104.0
174.558578 96.0
174.666412 144.0
174.716385 216.0
175.003265 168.0
175.041031 324.0
175.076477 780.0
175.112228 316.0
175.377335 124.0
175.416885 128.0
175.664764 156.0
175.823074 120.0
175.92601 120.0
176.044495 164.0
176.080002 288.0
176.47818 136.0
177.026001 128.0
177.09494 180.0
177.129196 132.0
177.42865 48.0
177.754898 56.0
177.903519 104.0
178.01503 80.0
178.052216 144.0
178.077438 152.0
178.948334 160.0
179.033554 216.0
179.081558 372.0
180.044281 192.0
180.090195 224.0
180.669739 108.0
180.958786 196.0
181.061478 148.0
181.104477 840.0
181.387421 148.0
181.449066 52.0
181.475891 152.0
181.972244 184.0
182.077347 216.0
182.096725 308.0
182.278442 72.0
182.563385 44.0
183.076889 276.0
183.123734 172.0
183.500443 184.0
183.705399 148.0
183.745865 176.0
184.045456 152.0
184.091141 168.0
184.115662 96.0
184.137268 56.0
184.329071 176.0
184.383118 32.0
184.667007 68.0
184.910507 136.0
185.059021 296.0
185.096039 1088.0
185.126953 172.0
185.658234 160.0
185.747742 116.0
186.06221 656.0
186.098663 144.0
186.190155 128.0
186.510757 92.0
186.687469 224.0
187.046616 100.0
187.071136 704.0
187.109085 340.0
187.308014 72.0
187.354324 116.0
188.083542 132.0
188.121353 220.0
188.20253 224.0
188.314499 28.0
188.568588 148.0
188.630051 188.0
189.019821 128.0
189.05484 352.0
189.093277 548.0
189.128571 452.0
189.444183 180.0
189.471588 200.0
189.608597 192.0
189.690811 192.0
190.050079 156.0
190.093277 280.0
190.516815 92.0
190.648697 188.0
190.670685 148.0
190.74765 116.0
190.945618 220.0
191.032196 280.0
191.071869 324.0
191.105164 144.0
191.611755 180.0
191.639313 144.0
191.931473 120.0
192.058334 192.0
192.098663 188.0
192.188004 44.0
192.425354 152.0
192.872879 40.0
193.033234 196.0
193.060883 80.0
193.097321 512.0
193.276657 60.0
193.379044 68.0
193.45932 128.0
193.55899 156.0
193.794434 140.0
194.072021 304.0
194.104782 340.0
194.33786 116.0
194.515472 108.0
195.004333 216.0
195.077789 680.0
195.116089 584.0
195.388077 52.0
195.577301 152.0
195.663589 160.0
195.819534 52.0
195.917023 160.0
196.088043 296.0
196.120621 120.0
196.145523 240.0
196.555496 92.0
196.653168 108.0
196.94075 132.0
197.060944 340.0
197.097885 508.0
197.131882 144.0
197.488586 216.0
197.572495 84.0
197.653641 216.0
197.765579 64.0
198.07048 464.0
198.098709 696.0
198.336975 188.0
198.513611 128.0
198.533234 112.0
199.038345 108.0
199.076752 1496.0
199.108978 864.0
199.164719 172.0
199.198425 52.0
199.277084 124.0
199.364197 44.0
199.594696 120.0
200.04361 136.0
200.081039 852.0
200.119675 556.0
200.155777 140.0
200.230682 152.0
200.416611 44.0
200.475784 132.0
200.501144 176.0
200.53064 120.0
200.690002 124.0
200.749222 144.0
200.774612 36.0
200.977707 92.0
201.057114 392.0
201.087494 420.0
201.128799 156.0
201.389862 44.0
201.443542 160.0
201.788315 152.0
202.057358 184.0
202.102448 204.0
202.143768 204.0
202.331512 164.0
202.379654 104.0
202.966171 176.0
203.037308 296.0
203.071075 444.0
203.108917 352.0
203.144852 168.0
203.411591 100.0
203.616028 52.0
203.667145 172.0
203.866028 84.0
203.902969 112.0
204.075226 468.0
204.094391 260.0
204.16452 64.0
204.221405 188.0
204.244156 148.0
204.431931 80.0
204.562851 84.0
204.998611 84.0
205.088181 612.0
205.372101 52.0
205.583221 56.0
205.626022 72.0
205.794449 52.0
206.062927 204.0
206.102859 348.0
206.32872 184.0
206.6147 200.0
206.740601 72.0
207.06868 208.0
207.121109 244.0
207.228409 224.0
207.534058 168.0
207.597153 120.0
208.086517 764.0
208.120453 280.0
208.354904 96.0
208.645172 64.0
208.786057 144.0
208.817688 56.0
208.855087 188.0
208.903992 140.0
209.060608 192.0
209.094635 552.0
209.407715 136.0
209.52005 120.0
209.566147 148.0
210.066055 148.0
210.103821 336.0
210.261093 144.0
210.388107 144.0
210.495468 128.0
210.763565 124.0
210.8358 96.0
210.858932 92.0
211.041046 172.0
211.074371 408.0
211.110275 1048.0
211.576279 216.0
211.628403 236.0
212.059296 160.0
212.084213 612.0
212.116592 128.0
212.158707 184.0
212.204971 140.0
213.059647 348.0
213.092621 1468.0
213.126663 552.0
213.16864 76.0
213.20932 40.0
213.36203 104.0
214.057068 164.0
214.09845 432.0
214.134415 164.0
214.178177 144.0
214.943634 228.0
215.03096 188.0
215.071625 840.0
215.105377 904.0
215.200195 156.0
215.254333 168.0
215.318573 44.0
216.045456 124.0
216.078186 360.0
216.099762 200.0
216.500076 92.0
216.576233 160.0
216.781311 228.0
217.086136 456.0
217.12204 440.0
217.546814 32.0
217.576172 80.0
217.59967 48.0
217.70874 232.0
217.755295 108.0
217.778793 60.0
217.799362 124.0
217.91098 164.0
218.042206 176.0
218.097809 324.0
218.112778 220.0
218.290161 104.0
218.448975 64.0
218.634338 72.0
218.914001 40.0
219.013885 92.0
219.039886 124.0
219.071579 272.0
219.127563 160.0
219.656723 68.0
219.727524 172.0
220.025604 60.0
220.058075 112.0
220.087601 164.0
220.125992 140.0
220.853012 52.0
221.009811 108.0
221.066025 284.0
221.092346 308.0
221.131134 72.0
222.068512 124.0
222.099457 368.0
222.150833 176.0
222.23053 132.0
222.58078 196.0
222.833252 140.0
223.077209 400.0
223.112747 764.0
223.148148 280.0
223.216675 84.0
223.243439 140.0
223.398102 92.0
223.987503 80.0
224.079666 192.0
224.116287 632.0
224.160294 180.0
224.309311 80.0
224.628387 176.0
224.819336 144.0
224.91185 52.0
224.971558 136.0
225.054901 184.0
225.061874 160.0
225.089005 668.0
225.125427 972.0
225.19252 52.0
225.467377 52.0
225.742416 196.0
225.763351 240.0
225.799225 136.0
226.061295 152.0
226.096298 476.0
226.136948 324.0
226.46666 64.0
226.916153 76.0
227.071457 1132.0
227.108261 2076.0
227.142822 564.0
227.174072 144.0
227.369095 68.0
227.51918 124.0
227.60025 56.0
227.6633 152.0
227.762421 140.0
227.888596 176.0
228.076813 136.0
228.110565 132.0
228.147919 256.0
228.327469 44.0
228.854065 228.0
229.058365 444.0
229.083191 376.0
229.120163 312.0
229.155258 164.0
229.405396 88.0
229.565201 180.0
229.67305 216.0
229.800476 72.0
229.900055 164.0
230.050964 168.0
230.096542 124.0
230.125443 168.0
230.159653 112.0
230.398254 124.0
230.582565 100.0
230.760925 156.0
230.893967 128.0
231.024033 144.0
231.067505 140.0
231.106888 696.0
231.14357 132.0
231.771851 176.0
231.893066 48.0
232.014313 124.0
232.035538 116.0
232.078079 132.0
232.109085 468.0
232.624069 148.0
232.985443 108.0
233.077072 876.0
233.135757 284.0
233.325821 180.0
233.803375 204.0
233.855118 40.0
233.986008 76.0
234.093445 168.0
234.12912 68.0
234.96431 196.0
235.068817 380.0
235.111145 412.0
235.149551 164.0
235.309174 84.0
235.510727 156.0
235.849884 84.0
235.95993 76.0
236.078781 400.0
236.08609 324.0
236.11409 184.0
236.14859 264.0
236.180115 108.0
236.284119 96.0
236.525864 104.0
236.614639 96.0
236.923965 108.0
236.991364 80.0
237.089523 116.0
237.129105 688.0
237.491058 200.0
237.722946 96.0
237.929871 140.0
238.058823 312.0
238.097656 136.0
238.121262 108.0
238.418243 36.0
239.020981 128.0
239.073853 1088.0
239.108109 1392.0
239.15274 324.0
239.371887 36.0
239.642944 84.0
239.67067 52.0
239.707657 120.0
239.818604 104.0
240.034042 140.0
240.078537 620.0
240.112564 544.0
240.149765 120.0
240.703995 176.0
240.7565 140.0
240.898575 196.0
240.966537 136.0
240.994354 60.0
241.046341 160.0
241.085068 1664.0
241.122772 1928.0
241.158127 124.0
241.458023 80.0
241.547729 32.0
241.869537 40.0
241.928345 160.0
242.08934 772.0
242.126831 616.0
242.389832 108.0
242.417725 164.0
242.458008 152.0
242.616089 132.0
243.064194 296.0
243.103165 1100.0
243.135437 420.0
243.422791 52.0
243.593613 140.0
243.671265 120.0
243.743973 160.0
243.783127 36.0
243.835968 44.0
243.857712 68.0
243.94072 68.0
243.96962 60.0
244.071182 408.0
244.106995 296.0
244.153076 204.0
244.174835 52.0
244.355255 76.0
244.647797 160.0
244.850189 64.0
244.90625 116.0
245.08313 848.0
245.110489 688.0
245.118164 656.0
245.189774 56.0
245.308212 88.0
245.56546 80.0
245.829071 180.0
245.854034 156.0
246.089447 172.0
246.132339 292.0
246.475449 44.0
246.678604 84.0
246.841171 120.0
246.934998 108.0
247.068314 176.0
247.10051 136.0
247.12619 268.0
247.310455 32.0
247.739441 100.0
248.087357 192.0
248.117996 156.0
248.360092 104.0
248.798859 160.0
248.868484 168.0
249.044342 204.0
249.083038 616.0
249.129822 268.0
249.496841 72.0
249.990662 48.0
250.10083 236.0
250.136993 300.0
250.286545 108.0
250.642487 88.0
250.683456 72.0
251.049118 156.0
251.101776 796.0
251.140732 272.0
251.167587 164.0
251.21344 184.0
251.329865 180.0
251.885513 48.0
252.046631 124.0
252.079208 268.0
252.109406 176.0
252.150909 284.0
252.406967 80.0
252.599899 92.0
252.694809 104.0
252.809509 144.0
252.97963 176.0
253.052444 300.0
253.086639 1004.0
253.120697 1068.0
253.302628 124.0
253.375488 88.0
253.670212 196.0
253.958755 72.0
254.01268 48.0
254.092896 408.0
254.126892 544.0
254.169479 208.0
254.216034 168.0
254.272858 128.0
254.625259 76.0
254.9366 120.0
254.987442 88.0
255.102142 3852.0
255.136658 2072.0
255.171616 228.0
255.314896 164.0
255.359421 28.0
255.477112 48.0
255.505753 104.0
255.750778 176.0
255.986359 28.0
256.104004 692.0
256.139893 404.0
256.178802 124.0
256.22525 204.0
256.300079 116.0
256.457855 104.0
256.540741 144.0
256.834106 68.0
256.907471 48.0
256.948944 52.0
257.031921 92.0
257.081665 820.0
257.115875 1060.0
257.306396 60.0
257.619354 64.0
257.833435 52.0
258.087341 208.0
258.121826 420.0
258.620239 104.0
258.655426 168.0
258.68103 156.0
258.815491 232.0
258.914764 192.0
259.099121 456.0
259.130554 412.0
259.401794 236.0
259.472321 76.0
259.661499 116.0
259.718903 152.0
259.783386 88.0
260.046509 68.0
260.10675 136.0
260.146027 148.0
260.194183 252.0
260.412537 32.0
260.756287 232.0
260.852722 72.0
261.077789 176.0
261.121643 132.0
261.169495 80.0
261.299744 148.0
261.721375 88.0
262.096771 240.0
262.220673 140.0
262.443115 140.0
263.074463 172.0
263.107147 420.0
263.182007 112.0
263.731171 156.0
264.022156 128.0
264.077148 156.0
264.121246 300.0
264.143433 300.0
264.238892 80.0
264.307343 172.0
264.776215 156.0
264.815094 164.0
264.983521 220.0
265.019165 224.0
265.045105 188.0
265.127228 1012.0
265.160156 308.0
265.236298 76.0
265.398407 136.0
265.485962 56.0
265.742188 32.0
266.098938 244.0
266.126312 460.0
266.274567 176.0
266.836731 116.0
266.914764 164.0
267.064728 448.0
267.101257 2132.0
267.138123 1000.0
267.177277 232.0
267.209534 140.0
267.366913 108.0
267.497131 108.0
267.562225 44.0
268.105957 872.0
268.140839 140.0
268.270325 212.0
268.859528 132.0
268.898682 132.0
269.08194 884.0
269.117462 2096.0
269.154297 512.0
269.190186 160.0
269.287964 156.0
269.39801 176.0
269.434204 108.0
269.535492 32.0
269.589172 176.0
269.698883 44.0
269.813293 36.0
270.085327 448.0
270.12265 1240.0
270.196259 188.0
270.464264 60.0
270.749115 44.0
271.034119 140.0
271.095886 672.0
271.131134 1144.0
271.348755 60.0
271.886719 172.0
272.014709 92.0
272.056915 136.0
272.122467 164.0
272.129883 188.0
272.333221 40.0
272.474457 164.0
272.500763 104.0
272.816254 148.0
272.960907 172.0
273.010223 108.0
273.065765 364.0
273.116241 508.0
273.158234 172.0
273.737488 32.0
274.027344 156.0
274.089966 316.0
274.13739 272.0
274.162445 116.0
274.907745 232.0
275.095856 148.0
275.144775 196.0
275.512756 116.0
276.140015 104.0
276.249176 68.0
277.0896 444.0
277.124237 844.0
277.663483 48.0
277.855865 160.0
278.091492 144.0
278.127411 176.0
278.337158 100.0
278.499878 116.0
278.562988 148.0
279.029205 136.0
279.101898 156.0
279.138885 308.0
279.176697 284.0
279.44397 160.0
279.520508 44.0
279.597046 136.0
280.01651 208.0
280.063141 128.0
280.102753 184.0
280.14975 104.0
280.632996 104.0
280.68634 32.0
280.914978 152.0
280.993195 204.0
281.089264 420.0
281.117798 2768.0
281.184906 168.0
281.240143 48.0
281.433777 100.0
281.948212 72.0
282.091003 424.0
282.125885 812.0
282.166962 228.0
282.302551 60.0
282.364624 164.0
282.496552 80.0
282.747498 104.0
282.985168 100.0
283.045441 196.0
283.095001 3540.0
283.132568 2556.0
283.169128 744.0
283.259766 56.0
283.383728 124.0
283.466248 76.0
283.500702 44.0
283.541229 156.0
283.7034 72.0
283.738983 56.0
283.769165 32.0
283.819458 80.0
284.017303 136.0
284.101013 624.0
284.135254 1032.0
284.235382 72.0
284.268921 104.0
284.30249 68.0
284.399811 136.0
284.47702 48.0
284.812805 48.0
285.113312 1484.0
285.172333 216.0
285.293335 120.0
285.437927 104.0
285.488342 56.0
285.750732 80.0
285.895416 108.0
286.009827 40.0
286.060333 124.0
286.121063 384.0
286.245514 72.0
286.693542 96.0
287.129456 432.0
287.22287 48.0
287.263336 68.0
287.361176 100.0
287.388184 36.0
287.911377 60.0
288.03299 56.0
288.099854 160.0
288.126221 172.0
288.394531 52.0
289.06076 80.0
289.101349 168.0
289.157043 316.0
289.544861 200.0
289.975128 40.0
290.159851 192.0
290.432831 88.0
290.554962 48.0
291.084442 196.0
291.108215 64.0
291.133484 212.0
291.818359 52.0
292.109863 124.0
292.134644 272.0
292.955048 132.0
293.006165 172.0
293.057281 172.0
293.119629 1012.0
293.151428 1288.0
294.005219 192.0
294.130524 624.0
294.16153 116.0
294.500275 176.0
294.777008 220.0
294.835083 100.0
295.053864 76.0
295.096588 1172.0
295.132904 1204.0
295.173065 148.0
295.217987 164.0
295.430023 212.0
295.525818 144.0
295.783539 144.0
295.805054 108.0
296.107391 388.0
296.140167 1052.0
296.185913 88.0
296.248199 80.0
296.741699 68.0
297.036621 136.0
297.113495 1252.0
297.14975 712.0
297.184814 808.0
297.273346 76.0
297.393463 44.0
297.987549 52.0
298.052856 56.0
298.116272 1264.0
298.185822 316.0
298.310608 28.0
298.57193 80.0
298.699188 52.0
299.094086 348.0
299.126953 1504.0
299.218811 144.0
299.694092 112.0
299.752686 192.0
300.127106 280.0
300.911621 92.0
301.122253 104.0
301.771912 100.0
302.31842 52.0
302.512268 32.0
304.70401 196.0
304.815186 168.0
305.117462 144.0
305.155823 144.0
305.430542 76.0
305.496643 140.0
306.131592 140.0
307.053589 80.0
307.125824 192.0
307.172821 660.0
307.210571 56.0
307.371063 100.0
307.587433 72.0
308.173462 168.0
308.186737 112.0
308.682037 132.0
308.775391 56.0
308.908295 88.0
309.054352 140.0
309.113129 2480.0
309.184723 164.0
309.422729 116.0
309.611816 64.0
309.878906 160.0
309.916565 40.0
310.039215 76.0
310.067261 84.0
310.11322 672.0
310.156281 444.0
310.603699 136.0
310.66684 48.0
310.870331 72.0
310.894897 40.0
310.933502 116.0
310.974579 176.0
311.128418 8420.0
311.164032 3080.0
311.309143 164.0
311.347778 56.0
311.400452 208.0
311.470703 56.0
311.590149 48.0
311.807983 56.0
311.854706 112.0
312.13205 1488.0
312.166443 1056.0
312.265045 108.0
312.41983 64.0
312.465546 40.0
312.560547 60.0
312.676666 32.0
313.13385 420.0
313.168915 144.0
313.285828 56.0
313.383148 116.0
313.440857 48.0
313.497223 96.0
313.79248 220.0
313.906158 124.0
313.962555 136.0
314.107178 116.0
314.131866 88.0
314.167145 120.0
314.255341 80.0
314.43576 96.0
314.738892 88.0
315.123657 672.0
315.215759 40.0
315.339447 160.0
315.569214 124.0
315.908722 60.0
316.036102 84.0
316.082092 36.0
316.130402 144.0
316.368774 76.0
316.411255 44.0
317.134979 176.0
317.62674 176.0
318.166138 144.0
319.438354 128.0
319.587769 160.0
320.100342 100.0
320.136871 140.0
321.13739 196.0
321.190887 120.0
321.365723 124.0
321.779724 136.0
322.233307 160.0
322.361938 72.0
322.487 44.0
322.733673 208.0
322.818146 156.0
322.941101 40.0
323.077026 36.0
323.128021 1512.0
323.280975 56.0
323.470642 60.0
324.079468 148.0
324.134064 1288.0
324.330322 144.0
324.448608 212.0
324.49881 116.0
324.832336 200.0
324.99588 144.0
325.065552 128.0
325.136353 664.0
325.179871 5672.0
325.228302 204.0
325.32843 96.0
325.399353 40.0
325.42807 88.0
325.787201 128.0
325.945282 168.0
326.005249 64.0
326.183777 792.0
326.261566 108.0
326.286743 104.0
326.67514 76.0
326.765076 48.0
326.934204 68.0
326.962982 92.0
327.076355 80.0
327.18454 204.0
327.337372 56.0
327.46701 136.0
327.582275 44.0
327.618317 44.0
327.719177 112.0
327.899353 52.0
328.186615 128.0
328.263458 92.0
328.42215 100.0
328.772095 60.0
329.273926 52.0
329.338928 92.0
329.483429 232.0
330.209991 128.0
330.759949 76.0
330.94458 80.0
331.904755 96.0
332.165894 124.0
333.138733 196.0
333.542084 160.0
334.89563 160.0
335.167816 1608.0
335.617188 80.0
336.1315 104.0
336.168304 296.0
336.883606 108.0
337.163055 92.0
338.144928 140.0
338.734589 52.0
340.158936 176.0
342.647003 84.0
343.233032 56.0
343.808502 92.0
343.871246 68.0
346.211456 68.0
348.418427 200.0
348.537323 56.0
349.392456 208.0
350.986542 48.0
351.165527 100.0
351.672943 192.0
352.038818 132.0
352.173279 192.0
352.296539 164.0
352.502045 96.0
352.722534 64.0
352.879547 40.0
352.94809 132.0
352.994659 132.0
353.030579 120.0
353.060425 136.0
353.118378 148.0
353.176117 26340.0
353.266144 96.0
353.310486 124.0
353.349213 184.0
353.356323 92.0
353.370697 168.0
353.489227 28.0
353.585968 108.0
353.718353 72.0
353.778046 124.0
353.810028 68.0
353.837006 136.0
353.882263 100.0
353.930939 72.0
353.968384 48.0
354.032043 48.0
354.106934 84.0
354.178192 4744.0
354.244141 152.0
354.309204 60.0
354.507782 36.0
354.608978 28.0
354.856384 176.0
354.963165 108.0
354.991364 44.0
355.043884 72.0
355.18042 804.0
355.232422 104.0
355.276428 156.0
355.42276 44.0
355.524323 56.0
355.95575 132.0
356.070923 128.0
356.143524 68.0
356.177765 400.0
356.263733 36.0
356.306549 152.0
356.354126 64.0
356.411987 128.0
356.470398 124.0
356.500458 124.0
356.695892 64.0
356.76355 92.0
356.940277 48.0
357.041809 52.0
357.141052 124.0
357.323914 132.0
357.372833 120.0
357.75293 144.0
358.027802 68.0
358.287689 48.0
358.623077 72.0
359.026459 100.0
359.052856 48.0
359.11322 80.0
359.218811 40.0
360.838928 88.0
360.990173 60.0
364.052094 52.0
364.728363 128.0
367.699188 108.0
367.737335 72.0
368.329163 44.0
368.703613 96.0
369.391815 52.0
369.445374 84.0
369.571625 136.0
370.693542 136.0
371.186462 704.0
372.112762 72.0
372.199951 152.0
372.788788 44.0
373.184692 64.0
374.839813 168.0
380.059875 40.0
385.679474 120.0
386.352051 72.0
390.419525 104.0
390.506042 96.0
392.786621 100.0
394.073578 40.0
398.451508 104.0
403.932922 100.0
406.039703 88.0
406.460907 184.0
407.468719 112.0
412.453583 84.0
416.562439 36.0
420.254944 112.0
426.080994 84.0
431.463318 88.0
436.958466 84.0
439.245514 124.0
439.2789 68.0
440.568817 76.0
442.446533 128.0
446.352692 72.0
449.794708 64.0
451.810425 76.0
451.886566 88.0
454.178375 108.0
469.106445 76.0
471.316132 44.0
484.363495 104.0
489.457947 64.0
499.175232 84.0
508.821899 92.0
523.453613 56.0
524.998413 84.0
530.718872 68.0
531.310486 80.0
540.034973 68.0
543.695068 36.0
548.196594 56.0
548.322449 76.0
554.421265 52.0
561.331604 92.0
562.289246 40.0
562.383606 88.0
570.15564 60.0
582.737305 44.0
590.933594 56.0
602.701782 36.0
608.20459 76.0
617.986755 44.0
619.263916 124.0
631.072693 32.0
638.760681 64.0
641.767212 60.0
655.412048 112.0
665.827148 48.0
666.135315 104.0
669.72052 68.0
680.341675 52.0
701.903259 92.0
707.83197 112.0
721.211914 88.0
737.087341 136.0
747.694397 80.0
751.492432 48.0
759.572571 220.0
775.546509 92.0
785.019897 64.0
809.657166 60.0
828.001099 96.0
849.958984 92.0
857.344055 68.0
858.807373 76.0
864.368958 104.0
865.252747 116.0
868.739624 60.0
871.404968 116.0
875.710083 140.0
879.490234 48.0
883.981812 80.0
917.038208 88.0
929.198669 100.0
954.891174 40.0
969.175781 96.0
984.365479 168.0
1003.72998 68.0
1037.093994 84.0
1037.760742 100.0
1060.147339 160.0
1082.05249 76.0
1106.861816 76.0
1140.458862 92.0
1154.373779 68.0
1163.113403 40.0
1163.805786 40.0
1172.117554 140.0
1173.678467 84.0
1176.782959 204.0
1184.907959 76.0
1189.14563 140.0
1190.896362 108.0
1198.456543 132.0
1200.572754 152.0
1204.175171 148.0
1216.305664 172.0
1218.3125 184.0
1221.600586 80.0
1236.707275 172.0
1241.106689 176.0
1244.593872 116.0
1246.342773 136.0
1253.78772 100.0
1271.971802 52.0
1284.744995 152.0
1285.986572 164.0
1292.84021 124.0
1293.427124 188.0
1301.492188 108.0
1304.150146 188.0
1311.296997 184.0
1312.818237 164.0
1317.300171 68.0
1337.036133 168.0
1346.791138 40.0
1367.481812 104.0
1376.977783 68.0
1381.005737 188.0
1382.529785 156.0
1385.694702 120.0
1386.795654 60.0
1390.667236 140.0
1393.548462 52.0
1401.926758 48.0
1415.88916 128.0
1418.728882 132.0
1439.993042 152.0
1441.942261 80.0
1444.278564 76.0
1444.482788 52.0
1445.685669 108.0
1448.380981 124.0
1449.43396 56.0
1456.952759 116.0
1457.94812 160.0
1459.962646 224.0
1467.836426 92.0
1470.407227 176.0
1471.20105 156.0
1472.964966 48.0
1475.028076 184.0
1475.456177 164.0
1476.710205 140.0
1485.76416 144.0
1488.419678 112.0
1498.033203 160.0
1498.179565 44.0
