>compound Amorolfine Hydrochloride
>formula C21H35NO
>ionization [M+H]+
>parentmass 318.280884
#inchi InChI=1S/C21H35NO/c1-7-21(5,6)20-10-8-19(9-11-20)12-16(2)13-22-14-17(3)23-18(4)15-22/h8-11,16-18H,7,12-15H2,1-6H3/t16?,17-,18+
#inchikey MQHLMHIZUIDKOO
#origInchi InChI=1S/C21H35NO.ClH/c1-7-21(5,6)20-10-8-19(9-11-20)12-16(2)13-22-14-17(3)23-18(4)15-22;/h8-11,16-18H,7,12-15H2,1-6H3;1H/t16?,17-,18+;
#Ion_Source LC-ESI
#Instrument qTof
#Compound_Source Commercial
#PI Dorrestein
#Data_Collector Garg_Neha
#Scan -1
#Precursor_MZ 318.279
#ExactMass 317.272
#Charge 1
#CAS_Number 78613-38-4
#Pubmed_ID N/A
#Smiles C1(=C(C=CC(=C1)CC(CN2C[C@@H](O[C@@H](C2)C)C)C)C(CC)(C)C).Cl
#INCHI_AUX N/A
#Library_Class 1
#SpectrumID CCMSLIB00000078236
#IonMode Positive
#UpdateWorkflowName UPDATE-SINGLE-ANNOTATED-GOLD
#LibraryQualityString Gold
#TaskID 77f51c88eb8b467eb4a01dd2d0cb90d2
##Scan# 1456
#SpectrumFile Plate4_1_20_GH2_01_16503.mzXML
#LibraryName FDALibrary_2_04302014.mgf
#MQScore -1
#Organism FDALibrary_2_04302014
#TIC_Query 0
#RT_Query -1
#MZErrorPPM -1
#SharedPeaks 0
#MassDiff 0
#LibMZ -1
#SpecMZ 318.279
#SpecCharge 0
#internalFilename spec-00000.mgf

>collision 10
44.964104 132.0
45.052231 112.0
45.137413 164.0
45.172047 204.0
45.214546 172.0
45.255608 160.0
45.281487 148.0
45.291504 200.0
45.311363 172.0
45.356964 168.0
45.413006 172.0
45.471138 140.0
45.487579 164.0
45.519699 176.0
45.690926 168.0
45.730881 268.0
45.751453 172.0
45.798698 240.0
45.87809 180.0
45.894268 160.0
45.9091 252.0
45.923237 124.0
45.92815 192.0
45.948215 140.0
46.050808 144.0
46.094036 356.0
46.107437 96.0
46.223141 244.0
46.279346 172.0
46.303719 192.0
46.345669 148.0
46.380924 212.0
46.398571 148.0
46.450432 148.0
46.486736 172.0
46.500305 148.0
46.570511 212.0
46.648361 164.0
46.708889 172.0
46.733768 140.0
46.766701 144.0
46.779667 152.0
46.808903 140.0
46.822159 144.0
46.867474 160.0
46.932899 220.0
47.027393 120.0
47.047504 156.0
47.132183 140.0
47.199471 420.0
47.218304 140.0
47.247028 140.0
47.358162 172.0
47.444435 192.0
47.468914 204.0
47.505947 148.0
47.544365 140.0
47.6796 196.0
47.882565 180.0
47.915623 244.0
47.941803 200.0
47.96077 252.0
47.981773 160.0
48.00935 140.0
48.046593 364.0
48.056252 216.0
48.075569 164.0
48.144592 176.0
48.195774 160.0
48.264816 212.0
48.288322 168.0
48.30579 128.0
48.32877 168.0
48.347054 204.0
48.376614 124.0
48.416748 156.0
48.437859 116.0
48.456638 156.0
48.506996 168.0
48.530067 192.0
48.576138 156.0
48.615276 152.0
48.727745 160.0
48.827831 288.0
48.838955 236.0
48.852867 204.0
49.019157 128.0
49.057575 196.0
49.167763 172.0
49.222816 128.0
49.240154 272.0
49.312004 124.0
49.327091 164.0
49.346561 168.0
49.402504 208.0
49.430485 144.0
49.569115 164.0
49.627983 156.0
49.649559 156.0
49.719597 116.0
49.875904 144.0
49.89193 196.0
49.918644 188.0
50.035427 152.0
50.13847 184.0
50.21096 140.0
50.232719 140.0
50.265171 172.0
50.324345 156.0
50.363033 176.0
50.375294 160.0
50.403759 136.0
50.474834 140.0
50.525864 268.0
50.547783 148.0
50.561752 156.0
50.663342 168.0
50.861206 104.0
50.970222 140.0
50.991901 176.0
51.082661 224.0
51.139114 160.0
51.162025 140.0
51.23217 148.0
51.259201 160.0
51.370411 176.0
51.526016 148.0
51.636082 180.0
51.647526 176.0
51.665283 176.0
51.676094 136.0
51.717232 224.0
51.780071 136.0
51.872334 144.0
51.904037 176.0
51.916779 200.0
51.95293 176.0
51.971291 196.0
52.024391 164.0
52.041618 184.0
52.076607 208.0
52.278099 248.0
52.333496 156.0
52.577663 204.0
52.602852 124.0
52.62056 140.0
52.633404 184.0
52.688206 140.0
52.733082 156.0
52.844429 140.0
52.893429 140.0
52.89677 120.0
52.94286 140.0
52.968029 340.0
53.007477 136.0
53.043556 144.0
53.094418 200.0
53.126938 184.0
53.161762 168.0
53.244511 200.0
53.292595 156.0
53.318604 200.0
53.362236 120.0
53.408745 260.0
53.42915 144.0
53.478157 136.0
53.528233 272.0
53.673798 168.0
53.691296 180.0
53.704422 140.0
53.751106 208.0
53.785 196.0
53.808289 336.0
53.939507 152.0
54.060902 160.0
54.094025 144.0
54.104809 164.0
54.173641 168.0
54.192314 316.0
54.206379 196.0
54.219063 196.0
54.2435 224.0
54.370117 140.0
54.466053 200.0
54.496399 140.0
54.509624 176.0
54.558823 152.0
54.583275 152.0
54.674057 196.0
54.699722 188.0
54.74057 208.0
54.77618 204.0
54.984215 236.0
55.024025 112.0
55.038841 188.0
55.055107 96.0
55.084213 180.0
55.128536 140.0
55.142662 172.0
55.172161 156.0
55.184708 168.0
55.308971 144.0
55.347466 152.0
55.377544 180.0
55.396339 224.0
55.456402 180.0
55.483772 172.0
55.526775 216.0
55.541607 160.0
55.629154 164.0
55.678596 160.0
55.707283 124.0
55.722713 152.0
55.747974 196.0
55.859482 148.0
55.908585 164.0
55.939945 168.0
55.960682 184.0
56.02243 320.0
56.049541 176.0
56.09029 368.0
56.121086 176.0
56.205769 176.0
56.242481 128.0
56.257359 152.0
56.302155 156.0
56.314102 160.0
56.346966 152.0
56.358917 212.0
56.371674 116.0
56.394783 388.0
56.421688 148.0
56.563805 156.0
56.616207 196.0
56.693859 156.0
56.739075 152.0
56.77206 200.0
56.85157 152.0
56.935551 136.0
56.939301 128.0
56.958576 192.0
56.988213 140.0
57.037807 252.0
57.099998 176.0
57.119507 132.0
57.155441 164.0
57.280666 124.0
57.403652 184.0
57.527126 148.0
57.541462 108.0
57.605724 140.0
57.661804 160.0
57.764935 172.0
57.785797 176.0
57.797047 368.0
57.822117 200.0
57.845657 368.0
57.862988 164.0
57.880398 224.0
57.947201 172.0
57.960434 140.0
57.975075 192.0
58.033176 308.0
58.138855 216.0
58.161621 140.0
58.176746 112.0
58.20565 220.0
58.217964 184.0
58.243618 176.0
58.293751 144.0
58.360153 164.0
58.375839 192.0
58.407776 152.0
58.445812 204.0
58.496632 228.0
58.524097 148.0
58.575218 152.0
58.654453 192.0
58.717697 160.0
58.739845 164.0
58.779057 136.0
58.902531 180.0
58.918377 164.0
58.961082 212.0
58.980251 172.0
59.021225 164.0
59.07798 136.0
59.112633 208.0
59.180973 304.0
59.238659 368.0
59.341816 192.0
59.362324 168.0
59.378025 168.0
59.420609 152.0
59.4422 164.0
59.540653 136.0
59.573807 212.0
59.64669 164.0
59.712784 232.0
59.804165 120.0
59.882446 116.0
59.926437 152.0
59.991165 140.0
60.00658 204.0
60.047688 128.0
60.088322 208.0
60.120724 176.0
60.251637 204.0
60.373016 180.0
60.429768 144.0
60.464798 144.0
60.527279 192.0
60.62952 144.0
60.652767 152.0
60.724091 152.0
60.766556 128.0
60.778793 200.0
60.877731 156.0
60.928085 220.0
60.964405 156.0
61.035076 140.0
61.06889 164.0
61.089199 140.0
61.106224 160.0
61.131962 192.0
61.144375 116.0
61.177177 216.0
61.205837 144.0
61.240719 156.0
61.353573 140.0
61.509064 96.0
61.601521 216.0
61.63166 148.0
61.675289 148.0
61.777058 160.0
61.853466 188.0
61.888176 164.0
61.961136 212.0
62.02599 132.0
62.124828 140.0
62.141678 184.0
62.181099 144.0
62.220558 212.0
62.259811 140.0
62.300652 232.0
62.320419 144.0
62.455067 120.0
62.529549 224.0
62.599491 184.0
62.618389 120.0
62.696175 160.0
62.798061 184.0
62.813835 284.0
62.859261 192.0
63.015713 132.0
63.092049 156.0
63.144833 200.0
63.239975 184.0
63.25412 348.0
63.400417 200.0
63.421021 220.0
63.532021 156.0
63.55106 168.0
63.566925 172.0
63.61454 164.0
63.658997 412.0
63.695892 156.0
63.747631 296.0
63.876854 160.0
63.938789 192.0
64.031128 216.0
64.059799 200.0
64.083694 144.0
64.102814 248.0
64.115562 164.0
64.173897 148.0
64.203247 180.0
64.223976 160.0
64.314209 160.0
64.350052 232.0
64.392815 128.0
64.41478 180.0
64.470894 144.0
64.500214 176.0
64.521111 112.0
64.584961 188.0
64.600281 132.0
64.611534 148.0
64.682564 140.0
64.713097 168.0
64.739601 212.0
64.762695 96.0
64.79039 176.0
64.824821 180.0
64.889839 128.0
64.900444 264.0
64.929306 300.0
64.954971 156.0
64.966805 140.0
64.983849 144.0
65.174919 324.0
65.20121 176.0
65.309952 196.0
65.341759 176.0
65.376007 148.0
65.396576 224.0
65.411324 140.0
65.509552 164.0
65.553055 168.0
65.619881 192.0
65.635269 256.0
65.659454 176.0
65.684654 180.0
65.725731 140.0
65.74173 188.0
65.767433 160.0
65.788536 140.0
65.828903 216.0
65.853966 108.0
65.887192 184.0
65.934921 160.0
65.950073 164.0
65.981155 208.0
66.064697 176.0
66.119888 200.0
66.149025 160.0
66.173309 192.0
66.217033 156.0
66.30452 180.0
66.375565 188.0
66.405197 216.0
66.426125 212.0
66.549461 172.0
66.577065 148.0
66.603447 348.0
66.646912 152.0
66.75061 292.0
66.82251 148.0
66.852951 144.0
66.876213 192.0
66.995079 192.0
67.038742 176.0
67.265236 144.0
67.375191 192.0
67.445457 184.0
67.534523 144.0
67.555016 200.0
67.614418 144.0
67.645363 152.0
67.685181 204.0
67.777672 216.0
67.790787 192.0
67.844818 228.0
67.901726 196.0
67.906738 132.0
67.911362 292.0
67.938347 172.0
68.007271 148.0
68.045753 152.0
68.132866 140.0
68.174782 176.0
68.248657 132.0
68.289017 128.0
68.335838 144.0
68.355606 100.0
68.406693 184.0
68.490105 232.0
68.571404 144.0
68.678284 168.0
68.724037 136.0
68.77758 184.0
68.818848 220.0
68.832695 192.0
68.856827 164.0
68.891357 124.0
68.961311 164.0
69.007202 140.0
69.050819 172.0
69.1632 212.0
69.176598 132.0
69.295181 140.0
69.371414 240.0
69.438545 184.0
69.475891 192.0
69.489922 96.0
69.548325 148.0
69.567162 268.0
69.611992 144.0
69.714989 204.0
69.741577 208.0
69.879044 108.0
69.899567 212.0
69.929321 132.0
69.933311 116.0
69.986816 184.0
70.063583 136.0
70.164398 216.0
70.255234 204.0
70.360756 172.0
70.428055 176.0
70.485123 172.0
70.572006 244.0
70.628632 204.0
70.644196 156.0
70.726654 164.0
70.754135 144.0
70.816093 172.0
70.886452 156.0
70.961884 160.0
71.05275 200.0
71.075935 192.0
71.099426 160.0
71.126282 148.0
71.141388 216.0
71.321129 180.0
71.337936 140.0
71.369881 196.0
71.403511 164.0
71.432922 140.0
71.528023 196.0
71.569588 208.0
71.725098 168.0
71.75544 176.0
71.799751 188.0
71.844177 156.0
71.921722 140.0
71.933975 168.0
72.043411 152.0
72.069374 148.0
72.118378 140.0
72.197197 116.0
72.295837 112.0
72.338272 168.0
72.358589 140.0
72.391479 132.0
72.441574 152.0
72.475456 184.0
72.566147 148.0
72.636513 212.0
72.655548 180.0
72.706673 124.0
72.750702 164.0
72.809631 200.0
72.833412 204.0
72.899673 172.0
73.03009 240.0
73.062935 200.0
73.13784 104.0
73.16478 180.0
73.250153 180.0
73.318306 144.0
73.384789 152.0
73.413773 168.0
73.455872 188.0
73.472809 164.0
73.507599 148.0
73.572456 180.0
73.590729 136.0
73.63649 224.0
73.659546 152.0
73.721054 220.0
73.74498 148.0
73.823959 120.0
73.872726 152.0
73.97316 100.0
74.005569 156.0
74.132088 204.0
74.189514 160.0
74.216469 144.0
74.239655 116.0
74.268913 216.0
74.328659 188.0
74.361557 144.0
74.412781 172.0
74.442245 208.0
74.464577 204.0
74.537155 180.0
74.549751 172.0
74.567085 300.0
74.595833 172.0
74.736397 160.0
74.84462 188.0
74.892838 260.0
74.907593 184.0
74.976631 216.0
75.05024 168.0
75.083328 176.0
75.147972 172.0
75.204926 140.0
75.272247 148.0
75.316582 252.0
75.332703 140.0
75.361069 188.0
75.399857 152.0
75.517433 220.0
75.53495 152.0
75.620354 224.0
75.662537 176.0
75.724388 116.0
75.749161 128.0
75.782509 220.0
75.881302 236.0
75.9524 152.0
75.99247 168.0
76.01416 120.0
76.126373 200.0
76.170975 296.0
76.221107 232.0
76.275368 228.0
76.289078 176.0
76.373093 140.0
76.491066 284.0
76.572273 212.0
76.650955 168.0
76.684402 208.0
76.759369 152.0
76.785522 204.0
76.810226 148.0
76.827385 160.0
76.858742 148.0
76.907761 136.0
76.921623 188.0
77.014168 192.0
77.032486 180.0
77.059586 152.0
77.21563 224.0
77.257141 172.0
77.296982 140.0
77.359268 188.0
77.411163 172.0
77.46241 204.0
77.477715 172.0
77.537292 240.0
77.607414 136.0
77.628456 180.0
77.647743 144.0
77.667572 144.0
77.716156 180.0
77.749496 184.0
77.831238 144.0
77.865372 156.0
77.904572 200.0
77.921577 160.0
77.933548 188.0
77.981613 148.0
78.032303 340.0
78.045547 188.0
78.130791 172.0
78.153008 292.0
78.21978 100.0
78.304108 164.0
78.334999 156.0
78.359657 164.0
78.564163 160.0
78.58004 152.0
78.64045 172.0
78.753891 240.0
78.772469 392.0
78.794739 132.0
78.819519 252.0
78.837082 204.0
78.860085 144.0
78.89917 264.0
79.006157 144.0
79.029144 152.0
79.048279 212.0
79.062271 128.0
79.095398 100.0
79.165115 176.0
79.181053 228.0
79.202141 308.0
79.246063 296.0
79.279434 248.0
79.363571 168.0
79.386627 144.0
79.405228 120.0
79.475082 176.0
79.58181 168.0
79.652565 300.0
79.767319 172.0
79.823463 172.0
79.847145 216.0
79.87616 108.0
79.969566 160.0
80.022751 144.0
80.147423 424.0
80.212311 128.0
80.307442 184.0
80.34211 204.0
80.393501 140.0
80.559555 148.0
80.57679 104.0
80.591331 188.0
80.62439 152.0
80.640556 176.0
80.752602 172.0
80.854897 212.0
80.911858 152.0
80.956619 188.0
80.984993 152.0
80.999649 156.0
81.028267 148.0
81.093491 180.0
81.130707 148.0
81.218285 140.0
81.230843 148.0
81.279892 152.0
81.298157 164.0
81.336708 212.0
81.357613 236.0
81.41391 148.0
81.430077 148.0
81.474983 160.0
81.493965 120.0
81.588203 228.0
81.612595 188.0
81.657013 104.0
81.735687 152.0
81.771843 128.0
81.798721 160.0
81.849083 156.0
81.870697 140.0
82.061295 196.0
82.136223 116.0
82.153671 232.0
82.178764 128.0
82.225822 172.0
82.249176 156.0
82.406967 160.0
82.464249 152.0
82.481705 140.0
82.518791 208.0
82.561882 160.0
82.581772 208.0
82.648636 104.0
82.669449 216.0
82.77179 144.0
82.80584 220.0
82.842422 212.0
82.914772 112.0
82.954781 168.0
82.979378 184.0
82.999283 140.0
83.095901 176.0
83.135895 140.0
83.180832 304.0
83.343163 156.0
83.433746 176.0
83.501312 144.0
83.538857 192.0
83.62867 216.0
83.641411 252.0
83.739731 156.0
83.796288 176.0
83.861389 176.0
83.982086 136.0
84.036873 188.0
84.094757 228.0
84.153679 136.0
84.179047 260.0
84.20388 188.0
84.21936 120.0
84.265091 168.0
84.372986 108.0
84.389336 172.0
84.502769 144.0
84.553169 148.0
84.611961 156.0
84.634552 144.0
84.68766 176.0
84.781876 188.0
84.830078 188.0
84.880089 160.0
84.925117 144.0
85.076401 192.0
85.113121 148.0
85.130714 172.0
85.137558 156.0
85.214142 176.0
85.239372 104.0
85.306137 140.0
85.326248 144.0
85.360664 184.0
85.392853 128.0
85.486275 156.0
85.502838 212.0
85.518204 160.0
85.573242 96.0
85.626183 160.0
85.657501 164.0
85.713219 212.0
85.766212 208.0
85.784645 172.0
85.895287 360.0
85.94899 168.0
85.972275 124.0
86.014305 160.0
86.03553 144.0
86.121429 256.0
86.150177 148.0
86.18441 144.0
86.259949 136.0
86.341591 144.0
86.388496 188.0
86.456451 160.0
86.477318 176.0
86.493118 144.0
86.661774 224.0
86.688438 232.0
86.825623 152.0
86.866814 116.0
86.916771 180.0
87.116257 220.0
87.133751 152.0
87.385696 148.0
87.408363 144.0
87.451973 124.0
87.487846 192.0
87.569923 200.0
87.59697 140.0
87.647278 140.0
87.678955 152.0
87.695686 168.0
87.747925 180.0
87.82811 168.0
87.90905 176.0
88.01963 224.0
88.133026 132.0
88.168098 208.0
88.207787 144.0
88.283394 176.0
88.302521 288.0
88.379219 148.0
88.404251 116.0
88.451164 244.0
88.491516 148.0
88.587868 340.0
88.91304 116.0
89.003426 180.0
89.046974 168.0
89.122581 304.0
89.146141 160.0
89.268089 304.0
89.295509 124.0
89.35862 328.0
89.588768 192.0
89.646706 224.0
89.684402 96.0
89.717209 208.0
89.74472 148.0
89.823929 192.0
89.87487 148.0
89.895164 148.0
89.929596 152.0
90.11277 328.0
90.159271 112.0
90.185303 156.0
90.369247 200.0
90.418686 272.0
90.435188 200.0
90.475891 156.0
90.493042 132.0
90.535744 176.0
90.555206 108.0
90.588638 244.0
90.633087 284.0
90.735176 148.0
90.774231 208.0
90.845428 164.0
90.886383 204.0
90.94574 128.0
90.984764 152.0
91.021614 200.0
91.054588 1260.0
91.088409 160.0
91.143997 168.0
91.180611 136.0
91.212425 284.0
91.236633 112.0
91.272751 140.0
91.364906 124.0
91.436356 172.0
91.487747 176.0
91.527725 200.0
91.542961 152.0
91.622955 144.0
91.673485 180.0
91.780151 176.0
91.867714 144.0
92.002029 104.0
92.056343 292.0
92.076935 164.0
92.156212 256.0
92.225761 188.0
92.25753 140.0
92.290962 176.0
92.338768 344.0
92.405716 172.0
92.426765 176.0
92.474609 152.0
92.534691 288.0
92.771355 204.0
92.866394 288.0
92.886559 160.0
92.926849 160.0
92.967484 144.0
93.063324 148.0
93.086159 156.0
93.121048 144.0
93.181297 140.0
93.203583 216.0
93.289818 184.0
93.311089 184.0
93.430565 128.0
93.614983 144.0
93.676613 164.0
93.72863 204.0
93.83078 196.0
93.86554 152.0
93.935883 248.0
93.976204 200.0
94.019814 224.0
94.156883 188.0
94.172333 184.0
94.211327 152.0
94.320312 288.0
94.340866 148.0
94.381134 172.0
94.435822 284.0
94.483551 168.0
94.522247 152.0
94.537727 168.0
94.559578 180.0
94.584183 176.0
94.742966 236.0
94.812645 192.0
94.863167 152.0
94.902023 204.0
94.938736 264.0
94.963943 200.0
94.977524 176.0
94.999397 160.0
95.122757 160.0
95.146233 196.0
95.270332 100.0
95.290176 144.0
95.321159 204.0
95.473267 336.0
95.492233 116.0
95.551521 108.0
95.57251 164.0
95.602669 172.0
95.703651 124.0
95.753677 212.0
95.778351 176.0
95.823761 124.0
95.850433 184.0
95.875244 240.0
95.922638 168.0
95.998581 148.0
96.033684 156.0
96.060989 204.0
96.078552 168.0
96.122292 220.0
96.152176 196.0
96.461304 176.0
96.561165 160.0
96.620262 168.0
96.635956 196.0
96.698784 184.0
96.739662 160.0
96.788269 216.0
96.830826 196.0
96.868881 128.0
96.921219 156.0
96.934937 152.0
97.004265 184.0
97.062347 144.0
97.147942 180.0
97.210983 152.0
97.235962 200.0
97.318497 240.0
97.470627 168.0
97.527405 100.0
97.553177 152.0
97.567871 180.0
97.645592 208.0
97.673126 152.0
97.745918 144.0
97.765594 160.0
97.782906 244.0
97.822678 168.0
97.844666 164.0
97.875832 168.0
97.911278 168.0
97.925064 148.0
97.952637 172.0
98.023132 292.0
98.070618 292.0
98.095963 8840.0
98.147858 148.0
98.219818 160.0
98.240135 180.0
98.283936 172.0
98.310364 128.0
98.34169 180.0
98.374916 196.0
98.443443 136.0
98.484871 140.0
98.502991 172.0
98.545792 120.0
98.639336 140.0
98.74543 188.0
98.861267 132.0
98.901764 132.0
98.954674 156.0
98.977638 192.0
99.074692 192.0
99.100624 648.0
99.213104 180.0
99.267914 188.0
99.350632 184.0
99.463036 100.0
99.506905 128.0
99.593025 132.0
99.640724 228.0
99.664162 252.0
99.767487 280.0
99.805336 116.0
99.838684 132.0
99.879242 172.0
99.895493 196.0
99.94429 164.0
99.969391 176.0
100.018761 144.0
100.108467 400.0
100.167915 192.0
100.195312 156.0
100.294113 164.0
100.377548 188.0
100.460457 156.0
100.539268 152.0
100.581772 96.0
100.751678 184.0
100.809731 280.0
100.825691 236.0
100.872993 132.0
100.952194 200.0
100.990677 200.0
101.069656 148.0
101.088142 116.0
101.133835 112.0
101.19976 196.0
101.238029 140.0
101.305901 176.0
101.330872 112.0
101.366135 184.0
101.407761 144.0
101.434547 232.0
101.464149 120.0
101.506927 160.0
101.564514 180.0
101.587204 244.0
101.60862 152.0
101.677498 208.0
101.737061 156.0
101.775917 192.0
101.791267 236.0
101.820595 264.0
101.869492 144.0
101.886787 232.0
101.914238 292.0
101.955864 160.0
101.981934 132.0
102.034889 304.0
102.054489 292.0
102.090462 1600.0
102.130905 192.0
102.186058 144.0
102.24675 208.0
102.324089 160.0
102.406021 140.0
102.442909 248.0
102.463547 148.0
102.479172 148.0
102.504471 144.0
102.654541 132.0
102.738289 160.0
102.858055 128.0
102.87648 224.0
102.97744 196.0
102.998268 128.0
103.01696 176.0
103.055511 336.0
103.083748 212.0
103.193657 348.0
103.209175 160.0
103.305855 148.0
103.357101 144.0
103.435295 208.0
103.456665 148.0
103.50869 172.0
103.533607 144.0
103.550621 200.0
103.575714 192.0
103.610504 224.0
103.698128 192.0
103.731316 172.0
103.790962 156.0
103.876137 144.0
103.918091 212.0
103.947479 172.0
103.984772 336.0
104.047836 584.0
104.067192 348.0
104.232483 180.0
104.251747 160.0
104.409302 112.0
104.438148 164.0
104.462334 252.0
104.512329 136.0
104.56131 152.0
104.644119 120.0
104.693909 148.0
104.871132 188.0
104.899582 312.0
104.932587 124.0
104.984146 176.0
104.995491 204.0
105.069733 19972.0
105.110687 152.0
105.250595 196.0
105.362221 172.0
105.465118 124.0
105.484245 152.0
105.554344 164.0
105.577026 148.0
105.618546 124.0
105.707764 148.0
105.786613 152.0
105.80117 176.0
105.874947 120.0
105.904236 132.0
105.949364 140.0
106.003105 168.0
106.073051 1408.0
106.176048 156.0
106.226112 172.0
106.29792 208.0
106.326653 156.0
106.382782 184.0
106.398491 144.0
106.529922 200.0
106.560738 320.0
106.60318 104.0
106.65435 148.0
106.766296 168.0
106.838287 304.0
106.871811 124.0
106.892273 116.0
106.912354 176.0
107.049797 152.0
107.081711 336.0
107.119118 152.0
107.135345 116.0
107.204468 236.0
107.231201 136.0
107.251289 120.0
107.483162 152.0
107.518242 144.0
107.566406 120.0
107.589272 156.0
107.655075 116.0
107.695801 172.0
107.766762 160.0
107.810089 188.0
107.878342 240.0
107.908112 184.0
107.915092 136.0
107.923325 200.0
108.004654 160.0
108.019264 188.0
108.063766 196.0
108.115494 176.0
108.163101 144.0
108.212532 196.0
108.308044 200.0
108.392708 148.0
108.419159 108.0
108.436501 148.0
108.493782 196.0
108.51593 200.0
108.532776 172.0
108.633484 180.0
108.811958 140.0
108.946953 192.0
109.128632 124.0
109.195824 152.0
109.334648 440.0
109.385727 184.0
109.583878 404.0
109.616905 224.0
109.675804 284.0
109.719147 168.0
109.77301 140.0
109.799522 200.0
109.835136 148.0
109.857719 144.0
109.953743 200.0
109.971436 180.0
110.083542 172.0
110.178818 180.0
110.244026 136.0
110.332817 176.0
110.349541 184.0
110.429001 184.0
110.492844 192.0
110.511635 184.0
110.59671 208.0
110.676895 244.0
110.720497 164.0
110.736664 160.0
110.79113 156.0
110.809982 144.0
110.893387 160.0
110.95459 160.0
111.02169 148.0
111.04686 152.0
111.075722 100.0
111.090172 176.0
111.192673 184.0
111.226921 132.0
111.28511 276.0
111.313477 244.0
111.539459 216.0
111.671196 204.0
111.724724 180.0
111.828888 148.0
111.861435 260.0
112.016327 192.0
112.058434 128.0
112.087471 164.0
112.110329 612.0
112.144371 200.0
112.213936 192.0
112.231224 160.0
112.262428 216.0
112.29158 156.0
112.400497 168.0
112.433311 216.0
112.464966 168.0
112.485107 104.0
112.544128 216.0
112.578972 180.0
112.642334 124.0
112.668854 148.0
112.695152 208.0
112.715073 192.0
112.755135 164.0
112.783905 148.0
112.92749 132.0
112.943459 176.0
112.989754 164.0
113.018646 176.0
113.113678 164.0
113.132828 156.0
113.22747 136.0
113.258896 132.0
113.288536 180.0
113.304474 144.0
113.382874 156.0
113.408249 152.0
113.443756 188.0
113.50795 148.0
113.533394 152.0
113.556725 156.0
113.59066 144.0
113.625572 192.0
113.667702 140.0
113.967621 164.0
113.997803 136.0
114.053558 152.0
114.090706 572.0
114.137497 184.0
114.169029 128.0
114.196404 108.0
114.236122 216.0
114.268341 164.0
114.288147 232.0
114.415192 148.0
114.587692 196.0
114.710205 164.0
114.743057 156.0
114.812172 180.0
114.887184 148.0
114.930969 140.0
114.951881 180.0
114.995193 124.0
115.022736 144.0
115.054283 468.0
115.096703 264.0
115.225609 208.0
115.249054 152.0
115.34832 308.0
115.40274 164.0
115.478249 192.0
115.554855 168.0
115.620293 112.0
115.636139 276.0
115.65757 208.0
115.766861 168.0
115.813881 160.0
115.861763 292.0
115.978859 208.0
116.009468 172.0
116.071465 216.0
116.10675 16240.0
116.316467 132.0
116.371437 156.0
116.39579 164.0
116.492828 168.0
116.558304 196.0
116.575279 160.0
116.639977 168.0
116.659317 152.0
116.74102 148.0
116.97554 144.0
116.998535 152.0
117.030479 100.0
117.070686 2072.0
117.093269 212.0
117.110603 640.0
117.15316 124.0
117.236977 188.0
117.255547 176.0
117.32283 352.0
117.412926 168.0
117.467445 136.0
117.497047 160.0
117.536148 164.0
117.656013 320.0
117.696907 160.0
117.846809 188.0
117.86705 152.0
117.884735 156.0
117.912964 160.0
117.95845 164.0
117.980804 172.0
118.074898 888.0
118.136932 184.0
118.26339 188.0
118.28582 176.0
118.313156 200.0
118.357986 264.0
118.435226 272.0
118.456444 156.0
118.640541 96.0
118.799393 148.0
118.841965 192.0
118.884789 208.0
118.925247 152.0
118.9608 104.0
119.057533 176.0
119.085022 4936.0
119.10981 140.0
119.191437 188.0
119.224648 196.0
119.290161 180.0
119.306 196.0
119.45108 192.0
119.490967 184.0
119.532898 112.0
119.590172 160.0
119.620277 164.0
119.6623 244.0
119.712257 164.0
119.732582 184.0
119.750595 172.0
119.867592 220.0
119.918549 156.0
119.944878 228.0
119.98925 144.0
120.056564 156.0
120.087524 452.0
120.115456 204.0
120.211456 212.0
120.238731 352.0
120.347122 260.0
120.460236 152.0
120.526749 244.0
120.58123 108.0
120.613312 192.0
120.692009 184.0
120.736168 124.0
120.757126 144.0
120.785172 108.0
120.817574 144.0
120.851677 296.0
120.917328 276.0
120.965424 152.0
121.062668 152.0
121.094231 140.0
121.215157 196.0
121.27433 320.0
121.425613 288.0
121.454124 176.0
121.507256 324.0
121.548363 176.0
121.603325 220.0
121.659988 232.0
121.756645 244.0
121.885513 152.0
122.038277 148.0
122.086731 116.0
122.113045 200.0
122.149063 96.0
122.174072 188.0
122.191292 252.0
122.374908 144.0
122.399506 140.0
122.43779 136.0
122.570938 152.0
122.599022 172.0
122.718033 196.0
122.824471 152.0
122.864128 168.0
122.935028 144.0
123.012032 192.0
123.049561 116.0
123.101517 136.0
123.129059 140.0
123.16404 180.0
123.199852 124.0
123.228371 100.0
123.285912 196.0
123.365479 196.0
123.456505 212.0
123.476036 148.0
123.557167 252.0
123.69838 128.0
123.748215 140.0
123.770355 200.0
123.839005 172.0
123.85672 344.0
123.974144 180.0
123.991875 180.0
124.011703 144.0
124.032715 228.0
124.127106 196.0
124.151711 132.0
124.228043 156.0
124.255745 180.0
124.303192 136.0
124.323158 168.0
124.343956 188.0
124.474449 120.0
124.509827 180.0
124.539886 148.0
124.579872 176.0
124.818047 172.0
124.919991 196.0
124.964485 160.0
124.999268 348.0
125.024635 116.0
125.106155 176.0
125.149216 340.0
125.164764 124.0
125.26815 176.0
125.316261 180.0
125.373955 160.0
125.429237 184.0
125.449539 204.0
125.533524 128.0
125.550545 136.0
125.626152 160.0
125.655151 180.0
125.807808 248.0
125.865143 288.0
125.986832 184.0
126.003288 96.0
126.173286 144.0
126.218002 256.0
126.25602 184.0
126.33654 152.0
126.367859 192.0
126.388 180.0
126.424232 124.0
126.467232 188.0
126.536652 140.0
126.568932 176.0
126.652519 152.0
126.795029 136.0
126.981636 140.0
127.010796 172.0
127.030983 180.0
127.071365 124.0
127.122543 168.0
127.136986 180.0
127.20153 152.0
127.244247 136.0
127.304802 208.0
127.342987 212.0
127.363197 180.0
127.404305 160.0
127.432076 188.0
127.624466 124.0
127.667007 180.0
127.800774 112.0
127.891594 196.0
127.920952 264.0
127.972633 152.0
128.03569 148.0
128.104797 480.0
128.152542 160.0
128.160217 140.0
128.41156 128.0
128.448151 236.0
128.584915 156.0
128.727997 152.0
128.822327 136.0
128.922272 160.0
128.964127 232.0
128.996857 156.0
129.026871 332.0
129.064545 184.0
129.107056 348.0
129.145004 160.0
129.212357 124.0
129.357574 208.0
129.39502 152.0
129.417664 144.0
129.473343 124.0
129.503052 364.0
129.635117 160.0
129.676926 160.0
129.811661 164.0
129.852753 164.0
129.877701 180.0
129.908585 272.0
129.925339 180.0
129.980057 212.0
130.025177 156.0
130.045486 144.0
130.122284 31792.0
130.23317 308.0
130.286148 120.0
130.36441 100.0
130.386215 160.0
130.415161 192.0
130.44281 96.0
130.475784 232.0
130.627686 116.0
130.644791 208.0
130.684158 224.0
130.707184 244.0
130.776169 148.0
130.839188 172.0
130.943085 172.0
130.963837 472.0
131.022797 152.0
131.044022 156.0
131.084869 2384.0
131.126389 2684.0
131.34404 268.0
131.413254 296.0
131.445206 160.0
131.547897 340.0
131.573013 144.0
131.638153 160.0
131.685715 304.0
131.730469 148.0
131.751083 160.0
131.835266 132.0
131.871323 104.0
131.900787 132.0
131.943115 192.0
132.022949 188.0
132.060852 336.0
132.092804 15200.0
132.329758 192.0
132.39502 124.0
132.412613 152.0
132.488937 120.0
132.519501 132.0
132.578384 268.0
132.689896 212.0
132.760544 176.0
132.81073 136.0
132.918823 140.0
132.946365 192.0
132.967682 192.0
133.00145 212.0
133.043671 264.0
133.100113 5688.0
133.16217 336.0
133.237976 144.0
133.304016 140.0
133.403427 188.0
133.515533 164.0
133.550598 140.0
133.613525 248.0
133.769745 108.0
133.789352 116.0
133.810623 180.0
133.837646 164.0
133.890228 204.0
133.91626 192.0
133.964172 268.0
134.046005 156.0
134.104187 676.0
134.183807 160.0
134.39447 204.0
134.427124 196.0
134.44487 128.0
134.568268 156.0
134.599167 176.0
134.626877 156.0
134.650787 136.0
134.687241 120.0
134.707977 144.0
134.72612 120.0
134.805649 188.0
134.830185 140.0
134.863419 148.0
134.927872 168.0
135.030807 108.0
135.046722 248.0
135.169205 152.0
135.218719 180.0
135.234924 180.0
135.271957 188.0
135.293869 264.0
135.31218 280.0
135.468246 104.0
135.515961 112.0
135.535965 148.0
135.562866 224.0
135.607635 104.0
135.684891 144.0
135.769302 164.0
135.803864 160.0
135.851212 128.0
135.886948 244.0
135.953369 144.0
136.029968 164.0
136.129791 264.0
136.146057 176.0
136.238968 208.0
136.254837 168.0
136.319763 160.0
136.397858 240.0
136.45665 168.0
136.538528 164.0
136.574371 124.0
136.607773 160.0
136.755936 160.0
136.774414 116.0
136.840195 168.0
136.857605 140.0
137.041611 156.0
137.109192 340.0
137.159241 192.0
137.220444 176.0
137.264648 224.0
137.361404 96.0
137.537994 168.0
137.615372 164.0
137.670807 204.0
137.714859 180.0
137.870911 164.0
137.902695 196.0
137.9272 184.0
138.040634 164.0
138.096756 140.0
138.237137 176.0
138.276917 184.0
138.374603 120.0
138.423462 180.0
138.472519 132.0
138.544144 160.0
138.608521 160.0
138.702484 196.0
138.731323 188.0
138.782547 104.0
138.819382 100.0
138.856293 188.0
138.883743 140.0
138.934036 316.0
138.964828 172.0
139.148911 168.0
139.21637 132.0
139.303238 168.0
139.440186 144.0
139.502747 124.0
139.557648 124.0
139.574692 224.0
139.689423 280.0
139.705353 228.0
139.821182 140.0
139.861206 152.0
140.119446 156.0
140.150864 148.0
140.261627 144.0
140.346497 156.0
140.376297 128.0
140.396011 296.0
140.427307 136.0
140.464539 152.0
140.571548 108.0
140.615417 344.0
140.729843 180.0
140.75943 148.0
140.825546 180.0
140.842087 140.0
140.927841 296.0
140.963074 172.0
141.005432 172.0
141.06395 148.0
141.248642 144.0
141.272308 180.0
141.304153 180.0
141.415131 244.0
141.600525 108.0
141.686584 204.0
141.739304 144.0
141.795593 160.0
141.831146 168.0
141.874634 172.0
141.922729 280.0
141.967255 232.0
141.983551 112.0
142.017365 156.0
142.039795 176.0
142.075378 148.0
142.261398 252.0
142.32222 168.0
142.350708 144.0
142.508743 132.0
142.595901 188.0
142.694061 164.0
142.908585 160.0
143.02919 144.0
143.183044 232.0
143.231339 248.0
143.293839 188.0
143.350601 144.0
143.383163 140.0
143.418274 208.0
143.484375 148.0
143.545273 148.0
143.600128 168.0
143.783829 204.0
143.861969 200.0
143.933701 168.0
143.966034 136.0
144.035782 152.0
144.137909 280.0
144.317841 224.0
144.34761 184.0
144.415222 132.0
144.518082 164.0
144.612228 104.0
144.651459 184.0
144.672852 136.0
144.709366 148.0
144.747009 136.0
144.771164 172.0
144.811691 152.0
144.951645 128.0
145.103592 408.0
145.188812 144.0
145.21933 156.0
145.288162 200.0
145.348877 152.0
145.384872 324.0
145.408859 164.0
145.52066 208.0
145.61438 160.0
145.677795 192.0
145.829132 160.0
145.865585 396.0
145.932938 212.0
146.049866 172.0
146.108398 2332.0
146.205643 156.0
146.298538 244.0
146.318619 220.0
146.445099 324.0
146.46463 148.0
146.504517 136.0
146.555923 196.0
146.607544 132.0
146.664368 148.0
146.743912 152.0
146.763718 156.0
146.840378 160.0
147.039429 128.0
147.112717 588.0
147.146835 140.0
147.265152 144.0
147.371445 236.0
147.398956 180.0
147.448273 96.0
147.554138 340.0
147.659103 148.0
147.692856 360.0
147.751328 256.0
147.785248 308.0
147.916138 160.0
147.964584 116.0
147.984116 156.0
148.012421 148.0
148.12265 180.0
148.186981 112.0
148.208572 196.0
148.227997 172.0
148.322327 200.0
148.420425 220.0
148.503006 208.0
148.548035 184.0
148.67775 200.0
148.831528 192.0
148.944519 188.0
149.013489 164.0
149.036011 140.0
149.216217 112.0
149.309525 148.0
149.410431 180.0
149.44693 152.0
149.485703 180.0
149.599213 120.0
149.649643 140.0
149.785324 228.0
149.865707 148.0
150.007065 140.0
150.055817 216.0
150.092392 156.0
150.129318 112.0
150.174423 132.0
150.211899 144.0
150.294846 196.0
150.357056 172.0
150.460815 152.0
150.521851 180.0
150.658615 152.0
150.837006 172.0
150.936874 156.0
151.002823 216.0
151.069321 156.0
151.22641 140.0
151.326691 192.0
151.35321 152.0
151.455093 184.0
151.492813 180.0
151.524658 164.0
151.566788 104.0
151.599823 160.0
151.693756 144.0
151.765671 312.0
151.859406 232.0
152.00827 184.0
152.105865 220.0
152.133224 164.0
152.195938 156.0
152.272827 336.0
152.345779 172.0
152.380066 140.0
152.429153 132.0
152.489029 160.0
152.547943 144.0
152.590012 152.0
152.625748 156.0
152.799805 228.0
152.827423 176.0
152.851624 268.0
152.919586 188.0
152.97374 112.0
153.001923 148.0
153.020508 184.0
153.051422 124.0
153.113937 304.0
153.152313 152.0
153.170578 144.0
153.450531 180.0
153.511215 96.0
153.676834 168.0
153.709824 180.0
153.761047 104.0
153.844162 180.0
153.886429 180.0
153.972183 188.0
153.9944 192.0
154.052963 300.0
154.093216 132.0
154.134048 152.0
154.219238 352.0
154.235168 316.0
154.295868 140.0
154.412094 292.0
154.442963 132.0
154.571243 120.0
154.631195 100.0
154.715637 136.0
154.756058 176.0
154.848633 156.0
154.96283 296.0
155.038788 172.0
155.061691 104.0
155.080566 140.0
155.133377 144.0
155.228592 148.0
155.340927 156.0
155.442657 156.0
155.549576 192.0
155.5914 392.0
155.651077 124.0
155.715729 152.0
155.735596 212.0
155.785278 176.0
155.844894 148.0
155.946793 384.0
155.98407 276.0
156.083511 168.0
156.130768 176.0
156.147766 208.0
156.182999 148.0
156.244797 272.0
156.373169 156.0
156.504028 308.0
156.547821 156.0
156.577515 288.0
156.623566 292.0
156.678482 180.0
156.74147 160.0
156.825378 196.0
156.847824 140.0
156.953674 156.0
157.012375 156.0
157.093826 124.0
157.198746 192.0
157.231918 152.0
157.374268 164.0
157.39418 140.0
157.43663 200.0
157.624664 160.0
157.701447 172.0
157.718948 260.0
157.761444 232.0
157.800705 136.0
157.86972 152.0
157.945816 104.0
157.996521 180.0
158.04155 148.0
158.121933 132.0
158.146805 268.0
158.213989 156.0
158.237778 196.0
158.37352 148.0
158.489746 160.0
158.512299 144.0
158.576065 140.0
158.608231 100.0
158.640121 172.0
158.727707 120.0
158.836639 236.0
158.868317 200.0
158.920151 268.0
158.966248 212.0
158.997971 220.0
159.033249 172.0
159.116089 3164.0
159.20079 112.0
159.244751 220.0
159.462372 144.0
159.488556 180.0
159.609222 164.0
159.666153 176.0
159.788284 104.0
159.856583 144.0
159.906067 144.0
160.031937 176.0
160.062317 176.0
160.097214 108.0
160.119919 516.0
160.190598 192.0
160.289627 144.0
160.3936 184.0
160.462143 172.0
160.503113 160.0
160.688782 160.0
160.755356 144.0
160.820633 212.0
160.853836 216.0
160.920197 404.0
160.976166 380.0
161.009491 192.0
161.039429 100.0
161.049774 264.0
161.105515 480.0
161.132812 137260.0
161.197739 152.0
161.232086 216.0
161.255707 96.0
161.296799 104.0
161.331421 316.0
161.394424 156.0
161.449631 208.0
161.545685 272.0
161.573807 176.0
161.609421 132.0
161.656464 216.0
161.685059 252.0
161.719666 172.0
161.755157 148.0
161.870438 180.0
161.898331 180.0
161.922012 236.0
161.981064 100.0
162.025467 340.0
162.085831 444.0
162.135269 13836.0
162.204605 196.0
162.250183 200.0
162.45015 132.0
162.474823 200.0
162.566437 232.0
162.596878 148.0
162.632797 116.0
162.656067 304.0
162.882065 148.0
162.90976 168.0
162.984726 204.0
163.043854 128.0
163.073578 148.0
163.092468 100.0
163.141098 540.0
163.181274 108.0
163.233444 196.0
163.252151 196.0
163.267776 264.0
163.310501 108.0
163.351379 252.0
163.393021 148.0
163.411865 328.0
163.451584 152.0
163.524094 204.0
163.569778 124.0
163.586441 272.0
163.697372 112.0
163.715836 188.0
163.805435 308.0
163.996536 260.0
164.07016 104.0
164.144394 152.0
164.162247 216.0
164.199432 160.0
164.226822 176.0
164.284668 200.0
164.395844 128.0
164.428009 160.0
164.473511 180.0
164.534851 124.0
164.626694 164.0
164.683945 96.0
164.71608 148.0
164.769287 356.0
164.87854 116.0
164.905151 148.0
165.012527 172.0
165.037643 156.0
165.066696 128.0
165.104477 104.0
165.142944 140.0
165.160843 148.0
165.290955 140.0
165.350174 280.0
165.38826 136.0
165.419281 168.0
165.496094 172.0
165.654877 152.0
165.683044 188.0
165.728622 172.0
165.812927 140.0
165.852173 156.0
165.959839 236.0
166.043152 148.0
166.272064 152.0
166.33815 96.0
166.367767 216.0
166.433212 112.0
166.474579 140.0
166.519104 188.0
166.682312 136.0
166.706375 96.0
166.747391 196.0
166.791763 112.0
166.915024 152.0
166.969025 144.0
167.046188 156.0
167.08284 228.0
167.19664 132.0
167.304504 116.0
167.387146 336.0
167.446243 224.0
167.490891 140.0
167.512024 112.0
167.584244 164.0
167.611008 228.0
167.726685 184.0
167.745758 216.0
167.843246 108.0
167.968369 188.0
168.001907 192.0
168.113647 116.0
168.137451 172.0
168.292099 96.0
168.348984 144.0
168.376175 164.0
168.438919 220.0
168.461411 168.0
168.496063 136.0
168.585434 172.0
168.644226 128.0
168.717255 140.0
168.738617 180.0
168.781891 164.0
168.834625 172.0
168.874985 152.0
168.902557 148.0
168.940506 212.0
168.965897 192.0
169.058167 224.0
169.121643 132.0
169.218185 248.0
169.265762 156.0
169.306229 108.0
169.443085 104.0
169.599121 184.0
169.737366 168.0
169.809677 104.0
169.864441 156.0
169.972641 176.0
170.052414 208.0
170.089615 160.0
170.118744 196.0
170.150375 504.0
170.182419 160.0
170.340897 304.0
170.482285 128.0
170.606339 144.0
170.62793 172.0
170.711136 224.0
170.755341 160.0
170.778137 180.0
170.866653 152.0
170.947861 180.0
170.979019 168.0
171.021698 128.0
171.078629 164.0
171.140305 136.0
171.16391 144.0
171.230408 172.0
171.325165 208.0
171.653854 156.0
171.722488 184.0
171.780685 116.0
171.807678 312.0
171.868698 144.0
172.105209 140.0
172.231003 176.0
172.657852 212.0
172.714676 144.0
172.885986 116.0
173.035797 204.0
173.131683 744.0
173.166916 148.0
173.207291 160.0
173.232407 184.0
173.258606 152.0
173.30838 156.0
173.331512 208.0
173.426163 140.0
173.550583 148.0
173.631989 124.0
173.678024 204.0
173.712112 188.0
173.735809 192.0
173.804169 140.0
173.929916 148.0
173.964233 160.0
174.140091 2768.0
174.185059 172.0
174.204056 200.0
174.24675 128.0
174.267151 128.0
174.289703 228.0
174.343018 192.0
174.467041 132.0
174.624878 128.0
174.820877 232.0
174.886673 164.0
174.906403 192.0
174.994598 140.0
175.034088 304.0
175.086761 244.0
175.148193 4148.0
175.261566 168.0
175.502426 244.0
175.706192 140.0
175.766876 172.0
175.878403 156.0
176.110077 192.0
176.150696 840.0
176.17807 156.0
176.208557 128.0
176.267685 200.0
176.330521 164.0
176.406021 156.0
176.42717 172.0
176.459991 124.0
176.490616 136.0
176.515594 108.0
176.569946 196.0
176.618546 172.0
176.80101 176.0
176.937759 140.0
177.160873 144.0
177.186707 148.0
177.315704 164.0
177.371216 176.0
177.405518 212.0
177.45874 180.0
177.52597 156.0
177.647339 176.0
177.764725 168.0
177.84433 148.0
177.977066 156.0
178.057297 96.0
178.101151 216.0
178.186371 168.0
178.290527 164.0
178.311783 152.0
178.341019 140.0
178.372925 148.0
178.482895 316.0
178.604248 208.0
178.627426 180.0
178.783981 128.0
178.948868 228.0
178.97142 136.0
179.003693 168.0
179.046066 152.0
179.072693 172.0
179.167389 116.0
179.211227 220.0
179.302261 156.0
179.432434 144.0
179.610764 124.0
179.672455 140.0
179.755173 168.0
179.837906 176.0
179.864594 164.0
179.998077 196.0
180.072601 164.0
180.123245 148.0
180.185043 208.0
180.259857 172.0
180.36409 152.0
180.395874 184.0
180.469299 248.0
180.584534 192.0
180.612762 164.0
180.659515 184.0
180.705505 144.0
180.759903 152.0
180.817535 116.0
180.907104 140.0
180.952789 148.0
181.024353 172.0
181.142761 168.0
181.178162 112.0
181.291458 192.0
181.329498 104.0
181.54747 160.0
181.57045 176.0
181.691605 152.0
181.778168 160.0
182.009018 212.0
182.057358 184.0
182.080307 176.0
182.163712 100.0
182.283005 176.0
182.312561 164.0
182.463089 340.0
182.524918 184.0
182.56694 120.0
182.601349 152.0
182.621735 276.0
182.709946 172.0
182.928482 164.0
182.993103 160.0
183.014633 348.0
183.049164 160.0
183.313629 164.0
183.356537 156.0
183.488831 172.0
183.548141 156.0
183.630325 132.0
183.866333 168.0
183.977127 196.0
184.074326 172.0
184.106735 180.0
184.165039 156.0
184.239822 188.0
184.314728 184.0
184.333649 160.0
184.394226 260.0
184.509338 152.0
184.54718 152.0
184.573898 328.0
184.600632 316.0
184.690506 148.0
184.728378 152.0
184.782486 172.0
184.893646 112.0
184.971924 212.0
185.028763 172.0
185.09433 240.0
185.217239 160.0
185.337524 164.0
185.386307 140.0
185.411453 156.0
185.459045 148.0
185.546219 144.0
185.600861 188.0
185.641129 140.0
185.763779 172.0
185.820145 148.0
185.917831 180.0
185.9543 152.0
186.303391 168.0
186.405334 96.0
186.441956 176.0
186.485443 168.0
186.565994 176.0
186.649887 252.0
186.955948 156.0
186.983963 108.0
187.031296 180.0
187.098419 196.0
187.142822 196.0
187.202454 216.0
187.395889 196.0
187.440033 208.0
187.490982 180.0
187.519684 164.0
187.554337 128.0
187.606842 140.0
187.674042 160.0
187.778702 104.0
187.799973 180.0
187.887283 124.0
187.928177 176.0
188.068298 252.0
188.088058 104.0
188.111923 192.0
188.152649 864.0
188.28891 148.0
188.463882 140.0
188.51033 156.0
188.636871 360.0
188.747894 128.0
189.03537 184.0
189.063858 136.0
189.090103 168.0
189.117477 168.0
189.29953 96.0
189.43718 184.0
189.502747 116.0
189.650543 180.0
189.744781 188.0
189.771591 128.0
190.01355 192.0
190.155197 192.0
190.202896 168.0
190.280838 152.0
190.395081 188.0
190.42804 156.0
190.578568 156.0
190.603195 200.0
190.645844 116.0
190.742233 172.0
190.795563 268.0
190.910141 148.0
191.133301 184.0
191.16954 200.0
191.24469 168.0
191.299683 148.0
191.346481 256.0
191.529312 184.0
191.573471 160.0
191.645187 168.0
191.778259 356.0
191.861664 140.0
191.913696 156.0
192.057449 168.0
192.079514 164.0
192.296112 192.0
192.394363 128.0
192.492081 148.0
192.552216 200.0
192.616547 296.0
192.661987 152.0
192.688599 176.0
192.720947 172.0
192.765518 164.0
192.80217 136.0
192.825012 140.0
192.887085 148.0
192.923615 196.0
193.076584 156.0
193.106827 120.0
193.182205 160.0
193.222885 144.0
193.34137 180.0
193.471619 104.0
193.519333 212.0
193.54805 172.0
193.646042 116.0
193.743668 184.0
193.763062 360.0
193.829437 208.0
194.042969 204.0
194.156662 144.0
194.291962 164.0
194.345291 232.0
194.383209 204.0
194.463638 260.0
194.555161 284.0
194.645676 200.0
194.811356 116.0
194.924805 164.0
195.087158 164.0
195.129883 316.0
195.174362 220.0
195.337082 176.0
195.403992 156.0
195.487335 172.0
195.5569 160.0
195.714142 124.0
195.76207 156.0
195.812973 152.0
195.879898 176.0
195.901779 164.0
195.96347 172.0
195.990967 244.0
196.067307 260.0
196.109909 116.0
196.150192 148.0
196.189209 160.0
196.253342 160.0
196.328629 148.0
196.441208 164.0
196.485382 180.0
196.651917 132.0
196.741577 148.0
196.827332 244.0
196.861633 164.0
196.903534 144.0
196.971954 164.0
197.018051 156.0
197.052948 104.0
197.133881 192.0
197.171722 184.0
197.198074 112.0
197.400162 140.0
197.494644 184.0
197.54361 148.0
197.693222 160.0
197.728271 220.0
197.756592 100.0
197.826233 140.0
197.908157 152.0
198.03595 300.0
198.100662 144.0
198.175781 148.0
198.226746 180.0
198.267426 124.0
198.350128 172.0
198.389435 168.0
198.452652 316.0
198.51268 184.0
198.53511 172.0
198.654129 172.0
198.6978 188.0
198.732758 200.0
198.899551 188.0
199.014938 164.0
199.046722 176.0
199.076721 192.0
199.098251 164.0
199.16098 140.0
199.240417 112.0
199.273438 112.0
199.387115 156.0
199.459503 164.0
199.495438 144.0
199.655624 144.0
199.743973 156.0
199.894745 160.0
200.158234 132.0
200.18605 164.0
200.204788 188.0
200.241013 184.0
200.359833 152.0
200.432571 140.0
200.643951 168.0
200.702148 112.0
200.810318 172.0
200.860992 124.0
200.886475 184.0
200.917511 140.0
201.052948 156.0
201.095123 136.0
201.160873 168.0
201.196899 152.0
201.329926 148.0
201.364487 296.0
201.392563 96.0
201.428467 156.0
201.47084 156.0
201.493439 172.0
201.566238 132.0
201.62059 176.0
201.679199 168.0
201.716248 156.0
201.744965 180.0
201.893188 264.0
201.925919 156.0
202.184769 284.0
202.293762 180.0
202.322983 124.0
202.373032 148.0
202.443817 160.0
202.547745 104.0
202.579773 216.0
202.63829 164.0
202.783783 248.0
203.03894 136.0
203.080643 248.0
203.178482 6264.0
203.240341 168.0
203.266006 148.0
203.336823 172.0
203.390762 188.0
203.485275 164.0
203.534088 208.0
203.636246 200.0
203.768448 188.0
203.82785 176.0
203.873993 136.0
204.038437 148.0
204.080017 160.0
204.181595 1368.0
204.432632 176.0
204.485031 144.0
204.524872 192.0
204.567673 112.0
204.630203 360.0
204.675766 164.0
204.697693 200.0
204.818161 204.0
204.884018 176.0
204.956039 96.0
205.082291 148.0
205.12941 104.0
205.185486 204.0
205.334045 208.0
205.365753 168.0
205.532761 212.0
205.592331 268.0
205.649002 132.0
205.723053 180.0
205.911179 332.0
206.0448 140.0
206.081345 172.0
206.324875 144.0
206.392731 152.0
206.445267 152.0
206.495804 180.0
206.532852 148.0
206.628815 140.0
206.701752 156.0
206.832382 224.0
206.937119 144.0
207.041885 164.0
207.104645 96.0
207.288498 232.0
207.358215 200.0
207.429871 176.0
207.464264 176.0
207.553696 168.0
207.621277 116.0
207.669281 256.0
207.706772 148.0
207.766342 96.0
207.824417 180.0
207.920334 192.0
207.94902 148.0
208.065231 168.0
208.086807 148.0
208.237396 200.0
208.377243 228.0
208.428024 156.0
208.521759 164.0
208.623245 200.0
208.731674 164.0
208.800842 96.0
208.960526 172.0
208.980667 244.0
209.043961 96.0
209.128159 140.0
209.343353 308.0
209.380112 208.0
209.405457 184.0
209.449722 192.0
209.578583 180.0
209.679398 160.0
209.764984 104.0
209.79985 220.0
209.895172 160.0
209.961502 144.0
210.12059 136.0
210.159698 144.0
210.326828 96.0
210.369766 192.0
210.404419 140.0
210.440613 104.0
210.470825 192.0
210.508362 152.0
210.550568 136.0
210.584641 184.0
210.71344 168.0
210.808792 152.0
210.84346 140.0
211.080505 156.0
211.24826 152.0
211.384705 148.0
211.469864 148.0
211.616196 148.0
211.659775 148.0
211.738602 156.0
211.891022 140.0
211.968246 176.0
212.042816 160.0
212.069183 156.0
212.171738 184.0
212.247437 184.0
212.299637 152.0
212.331543 172.0
212.488174 168.0
212.520355 128.0
212.668091 172.0
212.764877 396.0
212.790009 156.0
212.815048 192.0
212.893051 96.0
212.932114 192.0
213.024078 180.0
213.067612 144.0
213.132736 164.0
213.16214 132.0
213.204407 180.0
213.568802 176.0
213.644226 124.0
213.853943 192.0
213.88887 188.0
214.031525 172.0
214.111847 164.0
214.201126 136.0
214.275497 136.0
214.404633 196.0
214.432129 116.0
214.4711 180.0
214.494034 196.0
214.536957 224.0
214.672592 192.0
214.722168 176.0
214.885513 140.0
215.07782 156.0
215.285416 192.0
215.364273 200.0
215.416687 144.0
215.469421 168.0
215.527863 140.0
215.654617 160.0
215.702393 316.0
215.729523 216.0
215.755829 220.0
215.99202 120.0
216.014603 292.0
216.130203 156.0
216.180099 156.0
216.302795 172.0
216.332138 140.0
216.376053 280.0
216.455109 160.0
216.566391 196.0
216.596375 168.0
216.659027 96.0
216.782883 196.0
216.800507 132.0
216.996597 104.0
217.024323 168.0
217.081238 136.0
217.206757 244.0
217.325577 152.0
217.35672 136.0
217.409546 168.0
217.599808 156.0
218.100388 168.0
218.27504 220.0
218.333206 140.0
218.362625 208.0
218.419846 220.0
218.449875 196.0
218.482819 172.0
218.587662 144.0
218.780457 248.0
218.825287 104.0
218.895279 176.0
218.977737 144.0
219.14859 152.0
219.244141 140.0
219.351929 152.0
219.380951 152.0
219.559799 144.0
219.674606 340.0
219.722595 156.0
219.936035 196.0
219.968445 188.0
220.056641 164.0
220.154449 156.0
220.191864 156.0
220.3125 128.0
220.378937 168.0
220.430649 144.0
220.478668 160.0
220.506012 216.0
220.927643 168.0
221.026474 164.0
221.064362 160.0
221.091187 152.0
221.251419 140.0
221.301743 200.0
221.33017 160.0
221.390579 160.0
221.412643 136.0
221.626282 196.0
221.692093 180.0
221.763031 292.0
221.906158 228.0
222.048828 144.0
222.090942 232.0
222.128265 112.0
222.180679 100.0
222.383759 144.0
222.446808 252.0
222.517334 172.0
222.682281 124.0
222.717072 140.0
222.787598 192.0
222.829178 140.0
222.912384 260.0
222.939133 164.0
222.974274 116.0
223.119232 128.0
223.2509 192.0
223.358337 148.0
223.421906 152.0
223.451035 172.0
223.584457 240.0
223.649933 188.0
223.715424 144.0
224.032776 140.0
224.115692 140.0
224.183304 132.0
224.301437 160.0
224.34758 156.0
224.389542 172.0
224.487106 176.0
224.575714 196.0
224.679016 240.0
224.758545 160.0
224.790375 108.0
224.863251 188.0
224.908463 136.0
224.964478 160.0
224.993164 184.0
225.027176 204.0
225.262787 116.0
225.436386 188.0
225.462021 132.0
225.493179 156.0
225.58165 180.0
225.651596 316.0
225.685776 140.0
225.787384 196.0
225.920761 148.0
225.970154 120.0
226.020721 320.0
226.09816 180.0
226.139191 148.0
226.163132 140.0
226.381699 136.0
226.423721 120.0
226.522461 448.0
226.544464 160.0
226.678131 116.0
226.729721 160.0
226.795914 236.0
226.966888 136.0
227.074509 180.0
227.115967 156.0
227.172958 248.0
227.247589 164.0
227.37558 136.0
227.434006 156.0
227.557098 192.0
227.620148 152.0
227.699326 296.0
227.804916 192.0
227.847 136.0
228.034714 164.0
228.124573 116.0
228.163635 128.0
228.196106 128.0
228.26297 164.0
228.371841 132.0
228.523972 240.0
228.745132 128.0
228.803848 100.0
228.879684 100.0
228.90715 248.0
228.937256 192.0
229.022308 316.0
229.068451 136.0
229.109024 156.0
229.145645 196.0
229.19812 180.0
229.253448 184.0
229.283005 156.0
229.376556 204.0
229.407639 156.0
229.51503 156.0
229.603271 172.0
229.743607 160.0
229.794144 100.0
229.820465 140.0
229.920044 184.0
229.951904 208.0
229.977036 240.0
230.093216 196.0
230.125305 192.0
230.326889 212.0
230.365112 148.0
230.383469 116.0
230.432465 160.0
230.490768 152.0
230.527039 264.0
230.559402 124.0
230.606049 140.0
230.654068 120.0
230.680954 108.0
230.688797 100.0
230.723358 168.0
230.762802 192.0
230.85173 176.0
230.935165 204.0
230.997482 256.0
231.099289 176.0
231.234695 188.0
231.413681 96.0
231.443573 164.0
231.561676 192.0
231.702225 144.0
231.858582 200.0
232.098053 180.0
232.197784 96.0
232.283829 156.0
232.421265 188.0
232.478973 140.0
232.504547 176.0
232.589218 116.0
232.690445 196.0
232.916489 188.0
232.976334 168.0
233.014313 136.0
233.111099 240.0
233.260834 156.0
233.379395 160.0
233.42012 152.0
233.521912 120.0
233.626785 164.0
233.650085 348.0
233.686325 208.0
233.709122 216.0
233.750824 144.0
233.773346 140.0
233.892731 200.0
233.932556 184.0
234.026199 128.0
234.100388 144.0
234.444794 152.0
234.496597 192.0
234.62767 156.0
234.750015 160.0
234.819778 260.0
234.867493 124.0
234.888992 208.0
235.072983 204.0
235.094345 156.0
235.123428 144.0
235.224319 164.0
235.348389 176.0
235.392883 176.0
235.432373 148.0
235.534637 168.0
235.656738 132.0
235.940414 156.0
235.99762 196.0
236.026031 196.0
236.127411 104.0
236.160583 260.0
236.237061 188.0
236.34108 148.0
236.39003 152.0
236.416458 248.0
236.43988 124.0
236.523911 188.0
236.711456 184.0
236.82782 188.0
236.87706 220.0
237.014694 172.0
237.21637 144.0
237.29805 108.0
237.35997 144.0
237.399536 184.0
237.471466 212.0
237.503723 116.0
237.639404 156.0
237.70018 116.0
237.839737 156.0
237.919418 160.0
237.984589 152.0
238.008514 180.0
238.063782 336.0
238.231339 116.0
238.635315 168.0
238.672211 160.0
238.725723 136.0
238.761383 148.0
238.786285 120.0
238.905945 184.0
239.013626 172.0
239.086914 152.0
239.146805 132.0
239.181122 160.0
239.295258 168.0
239.355301 148.0
239.483704 196.0
239.518188 148.0
239.547928 208.0
239.811234 176.0
239.879044 340.0
239.91983 176.0
240.085617 204.0
240.138046 148.0
240.228668 212.0
240.253098 112.0
240.403366 316.0
240.430222 148.0
240.471268 148.0
240.492874 152.0
240.696625 168.0
240.854568 168.0
240.971512 216.0
241.075027 152.0
241.1604 224.0
241.198822 120.0
241.277481 308.0
241.341476 160.0
241.482666 204.0
241.618912 280.0
241.744537 168.0
241.930237 176.0
242.001556 112.0
242.060272 180.0
242.188797 104.0
242.218231 172.0
242.300797 188.0
242.430145 120.0
242.509476 160.0
242.588562 156.0
242.647781 196.0
242.686188 176.0
242.825806 148.0
243.114243 160.0
243.139816 236.0
243.198044 176.0
243.250809 140.0
243.351242 148.0
243.378098 160.0
243.440201 180.0
243.524048 144.0
243.547348 96.0
243.816895 188.0
243.871628 120.0
243.93956 116.0
243.996384 164.0
244.207825 308.0
244.289032 112.0
244.390213 184.0
244.594009 140.0
244.64035 188.0
244.683929 144.0
244.748688 160.0
244.811584 348.0
244.834457 116.0
245.031372 112.0
245.060776 152.0
245.154266 168.0
245.258835 152.0
245.290878 316.0
245.359985 236.0
245.503403 160.0
245.642807 156.0
245.720657 136.0
245.743378 284.0
245.767715 132.0
245.79248 332.0
245.834076 156.0
245.897629 176.0
246.099396 200.0
246.209259 176.0
246.233673 180.0
246.272141 140.0
246.31488 348.0
246.336746 164.0
246.402359 160.0
246.514847 152.0
246.567963 152.0
246.611725 224.0
246.642975 140.0
246.678268 152.0
246.717575 148.0
246.796158 156.0
246.830551 160.0
246.886841 160.0
246.979935 136.0
247.089554 128.0
247.146484 180.0
247.252777 140.0
247.353027 200.0
247.3806 124.0
247.525116 128.0
247.58046 276.0
247.616043 192.0
247.659882 180.0
247.701843 140.0
247.756989 140.0
247.954391 164.0
248.003342 148.0
248.11496 144.0
248.200073 1340.0
248.330627 164.0
248.355927 264.0
248.383316 160.0
248.557648 152.0
248.612061 164.0
248.652267 116.0
248.74794 308.0
248.8116 128.0
248.86795 108.0
249.122971 128.0
249.207748 336.0
249.241028 508.0
249.278717 396.0
249.360428 156.0
249.602493 176.0
249.643372 188.0
249.682007 140.0
249.737717 140.0
249.832565 184.0
250.099548 148.0
250.128128 156.0
250.151489 152.0
250.185333 144.0
250.259247 176.0
250.351425 184.0
250.397415 112.0
250.436447 156.0
250.606857 128.0
250.693222 160.0
250.752167 232.0
250.831482 248.0
250.927994 272.0
250.975342 188.0
251.000565 148.0
251.089981 168.0
251.124207 172.0
251.164215 148.0
251.259659 160.0
251.289246 200.0
251.457062 96.0
251.562485 152.0
251.644226 144.0
251.709274 160.0
251.794952 148.0
251.833694 156.0
251.864883 152.0
252.007385 208.0
252.115997 124.0
252.167068 172.0
252.204407 160.0
252.268661 208.0
252.312973 244.0
252.35817 112.0
252.393784 148.0
252.434158 192.0
252.46756 264.0
252.548233 164.0
252.585968 148.0
252.685257 180.0
252.721191 172.0
252.833832 164.0
252.911026 140.0
252.997345 148.0
253.201736 128.0
253.361084 168.0
253.448029 148.0
253.526306 128.0
253.599197 232.0
253.68222 252.0
253.774506 132.0
253.968887 140.0
254.195404 148.0
254.358414 188.0
254.372757 232.0
254.430283 188.0
254.532318 144.0
254.605118 132.0
254.640625 116.0
254.674789 204.0
254.72879 148.0
255.058212 288.0
255.091049 144.0
255.144287 144.0
255.307251 136.0
255.345413 144.0
255.393127 152.0
255.440842 160.0
255.521744 120.0
255.629669 168.0
255.655136 336.0
255.717651 168.0
255.778137 248.0
256.139557 160.0
256.179352 256.0
256.216003 160.0
256.269897 144.0
256.370514 180.0
256.445587 224.0
256.48175 116.0
256.510773 172.0
256.607727 304.0
256.764709 168.0
256.804108 144.0
256.861298 160.0
256.903809 140.0
257.004761 196.0
257.074188 176.0
257.238068 308.0
257.282745 148.0
257.618591 196.0
257.668549 120.0
257.713898 148.0
257.751251 128.0
257.82254 196.0
257.875214 108.0
257.927216 160.0
258.003235 136.0
258.246277 112.0
258.289337 148.0
258.565796 128.0
258.642822 120.0
258.68042 148.0
258.759766 160.0
258.8078 172.0
258.833801 180.0
258.977509 152.0
259.080017 164.0
259.147308 172.0
259.26535 152.0
259.436401 124.0
259.540405 124.0
259.883972 164.0
259.961548 124.0
259.980103 140.0
260.184662 168.0
260.237366 252.0
260.287933 308.0
260.318085 172.0
260.417633 140.0
260.469025 192.0
260.554749 172.0
260.581451 144.0
260.624634 100.0
260.718353 176.0
260.777466 192.0
260.827026 172.0
260.868103 216.0
260.999725 148.0
261.025024 140.0
261.083893 116.0
261.108643 140.0
261.23407 224.0
261.325928 108.0
261.404419 204.0
261.45285 256.0
261.512512 188.0
261.591492 112.0
261.643555 148.0
261.730469 136.0
261.82309 368.0
261.861206 172.0
261.942261 140.0
261.964813 160.0
262.009979 160.0
262.055023 140.0
262.124176 240.0
262.19809 188.0
262.450684 132.0
262.502777 96.0
262.671967 152.0
262.890137 208.0
263.030365 116.0
263.067657 288.0
263.246552 188.0
263.371277 156.0
263.451172 164.0
263.519806 180.0
263.605621 192.0
263.683289 156.0
263.909119 220.0
264.013824 108.0
264.117859 296.0
264.164886 112.0
264.279602 172.0
264.368683 128.0
264.397552 116.0
264.52121 104.0
264.609741 116.0
264.654633 300.0
264.710114 164.0
264.784607 140.0
264.818512 116.0
264.878784 196.0
264.956268 176.0
265.286438 196.0
265.322479 144.0
265.409332 152.0
265.471619 176.0
265.520264 140.0
265.727875 192.0
265.768768 120.0
265.873901 148.0
265.901398 120.0
265.94632 164.0
266.172333 168.0
266.199524 248.0
266.372284 116.0
266.41626 212.0
266.517151 172.0
266.551239 276.0
266.617584 140.0
266.64682 164.0
266.741089 164.0
266.845123 180.0
266.873169 184.0
266.96463 164.0
267.211029 204.0
267.25766 144.0
267.333038 140.0
267.362305 212.0
267.391602 256.0
267.45401 184.0
267.52832 248.0
267.598267 132.0
267.664673 132.0
267.751801 144.0
267.822876 104.0
267.935394 148.0
268.065735 232.0
268.180359 244.0
268.397644 208.0
268.580841 188.0
268.665649 176.0
268.750458 172.0
268.826813 216.0
268.868652 112.0
268.922211 96.0
268.990112 120.0
269.044189 172.0
269.09317 164.0
269.231812 104.0
269.276031 168.0
269.300507 188.0
269.370026 192.0
269.473999 320.0
269.527588 176.0
269.728302 128.0
269.772644 192.0
269.943268 120.0
269.986481 116.0
270.043488 348.0
270.148773 196.0
270.209625 160.0
270.268372 144.0
270.473816 192.0
270.590576 140.0
270.656036 152.0
270.69281 168.0
270.960083 272.0
271.019623 164.0
271.168671 152.0
271.216248 156.0
271.275269 164.0
271.304749 252.0
271.339417 232.0
271.444458 192.0
271.491669 144.0
271.53186 140.0
271.716583 188.0
271.855804 128.0
271.89389 132.0
271.920105 140.0
271.951996 308.0
272.058136 136.0
272.140198 168.0
272.172485 168.0
272.215607 204.0
272.288269 152.0
272.38623 172.0
272.578217 208.0
272.703735 164.0
272.846344 160.0
272.956238 200.0
273.022095 140.0
273.077179 112.0
273.119354 180.0
273.217743 196.0
273.248962 152.0
273.362518 236.0
273.456268 140.0
273.495758 212.0
273.670258 356.0
273.733307 264.0
273.77124 172.0
273.838348 168.0
273.904083 172.0
273.954712 140.0
274.032562 148.0
274.11676 228.0
274.148621 176.0
274.197296 144.0
274.279694 172.0
274.47049 188.0
274.698486 148.0
274.770142 128.0
274.852844 152.0
274.916229 148.0
274.964417 124.0
275.20343 172.0
275.398254 208.0
275.451111 176.0
275.487427 140.0
275.896118 128.0
275.983185 248.0
276.057953 196.0
276.083527 312.0
276.226929 368.0
276.270325 156.0
276.303986 152.0
276.466125 240.0
276.607849 132.0
276.731537 180.0
276.775909 116.0
276.90976 196.0
276.973999 212.0
277.16391 172.0
277.269897 292.0
277.433289 140.0
277.536072 188.0
277.581299 256.0
277.811035 136.0
277.836334 184.0
277.944061 144.0
278.076782 176.0
278.152222 112.0
278.190338 188.0
278.332397 168.0
278.408783 176.0
278.464081 156.0
278.497925 180.0
278.588135 140.0
278.69931 104.0
278.727692 140.0
278.797333 96.0
278.855927 192.0
278.953674 140.0
279.010193 160.0
279.101196 116.0
279.183105 152.0
279.260193 112.0
279.314819 152.0
279.452515 176.0
279.519073 140.0
279.643372 160.0
279.727051 100.0
279.828308 344.0
279.851685 164.0
279.907227 176.0
280.006317 192.0
280.03418 148.0
280.105011 148.0
280.275574 104.0
280.310913 152.0
280.394897 144.0
280.491119 184.0
280.530579 148.0
280.604889 156.0
280.634491 164.0
280.75766 172.0
280.799438 128.0
280.971771 160.0
281.162354 128.0
281.213074 140.0
281.245056 120.0
281.398956 156.0
281.424591 176.0
281.514679 176.0
281.563416 128.0
281.707397 156.0
281.787262 152.0
281.82312 148.0
282.081696 188.0
282.16394 140.0
282.274872 104.0
282.385498 216.0
282.652344 148.0
282.885071 188.0
282.98938 288.0
283.120422 140.0
283.174103 168.0
283.223389 112.0
283.442596 176.0
283.487823 164.0
283.639343 148.0
283.737549 144.0
283.879333 152.0
283.938812 148.0
284.07959 184.0
284.103088 204.0
284.175964 144.0
284.270844 220.0
284.324524 192.0
284.349884 188.0
284.401733 220.0
284.436615 232.0
284.505035 176.0
284.578552 208.0
284.64679 152.0
284.677032 184.0
284.788818 152.0
284.848328 264.0
285.151978 140.0
285.194031 176.0
285.2229 204.0
285.249359 208.0
285.311432 148.0
285.415314 124.0
285.428131 148.0
285.503357 272.0
285.649994 212.0
285.790985 140.0
285.950439 132.0
285.996246 168.0
286.115601 136.0
286.161438 144.0
286.230988 168.0
286.494934 132.0
286.706329 156.0
286.757965 108.0
286.811157 184.0
287.043457 120.0
287.145508 160.0
287.185699 160.0
287.255127 196.0
287.317932 156.0
287.379944 148.0
287.45755 232.0
287.511566 192.0
287.603973 180.0
287.643188 140.0
287.689484 140.0
287.762512 172.0
287.788361 292.0
287.824615 252.0
287.852509 168.0
287.928192 164.0
288.154022 216.0
288.232513 568.0
288.342529 140.0
288.432251 148.0
288.468842 164.0
288.665192 172.0
288.773224 108.0
288.807037 252.0
288.864136 120.0
288.896057 212.0
288.937469 188.0
289.062744 164.0
289.117523 152.0
289.240326 880.0
289.361328 176.0
289.428223 148.0
289.632751 176.0
289.725311 296.0
289.768585 132.0
289.916016 148.0
290.05838 152.0
290.244141 252.0
290.292297 224.0
290.326233 156.0
290.359375 176.0
290.393494 100.0
290.455109 156.0
290.492401 144.0
290.533112 188.0
290.590393 140.0
290.631561 156.0
290.668823 188.0
290.7435 196.0
290.774048 160.0
290.797791 148.0
290.925018 132.0
290.977692 168.0
291.032013 144.0
291.121948 132.0
291.181427 156.0
291.279938 196.0
291.459473 104.0
291.56839 160.0
291.707642 180.0
291.974518 236.0
292.032104 152.0
292.102539 152.0
292.165436 104.0
292.236481 108.0
292.339325 148.0
292.453033 144.0
292.586823 284.0
292.616425 180.0
292.764709 252.0
292.796875 184.0
292.830597 188.0
293.028503 184.0
293.234558 128.0
293.306427 168.0
293.569641 132.0
293.809235 172.0
293.844818 148.0
293.901245 112.0
293.968475 272.0
294.060181 192.0
294.295135 164.0
294.452759 148.0
294.531586 152.0
294.613708 184.0
294.638824 180.0
294.727661 304.0
294.826752 176.0
294.932709 200.0
294.964966 172.0
295.062592 192.0
295.141235 192.0
295.183014 200.0
295.208374 152.0
295.268799 196.0
295.332733 168.0
295.587585 228.0
295.648804 220.0
295.698853 164.0
295.742676 204.0
295.837036 96.0
295.881287 148.0
296.0047 164.0
296.137085 180.0
296.161041 172.0
296.250122 180.0
296.373444 148.0
296.534515 284.0
296.61676 152.0
296.658173 212.0
296.74704 180.0
296.836182 156.0
296.860199 208.0
296.897919 140.0
296.928772 148.0
297.056702 148.0
297.237518 164.0
297.266571 120.0
297.326752 140.0
297.786804 152.0
297.854828 132.0
297.954163 148.0
297.982605 144.0
298.017395 184.0
298.147552 148.0
298.320282 156.0
298.453461 160.0
298.549744 160.0
298.59079 208.0
298.616241 172.0
298.898041 96.0
298.982452 196.0
299.012054 168.0
299.083923 172.0
299.174744 144.0
299.232635 176.0
299.32724 120.0
299.401031 144.0
299.539551 152.0
299.624847 356.0
299.862854 144.0
300.003906 344.0
300.08548 140.0
300.120483 164.0
300.150146 208.0
300.202393 152.0
300.26767 656.0
300.420013 148.0
300.490204 176.0
300.700073 148.0
300.801849 124.0
301.267761 128.0
301.433929 204.0
301.675354 124.0
301.723907 100.0
301.782227 120.0
301.881012 184.0
301.91861 124.0
302.029724 240.0
302.123138 152.0
302.175018 272.0
302.257019 172.0
302.365326 176.0
302.455322 148.0
302.492126 200.0
302.589142 160.0
302.628693 96.0
302.792114 164.0
302.854797 152.0
302.967834 272.0
303.02887 116.0
303.10675 120.0
303.163574 120.0
303.244934 288.0
303.34903 220.0
303.382874 280.0
303.538025 124.0
303.615387 160.0
303.66803 156.0
303.784729 272.0
303.887604 176.0
303.979431 140.0
303.9935 264.0
304.212769 188.0
304.250336 176.0
304.418335 136.0
304.456909 152.0
304.494019 216.0
304.549591 160.0
304.577301 144.0
304.730225 152.0
304.915863 200.0
304.956116 176.0
304.983917 244.0
305.289856 172.0
305.378571 136.0
305.499725 144.0
306.085052 240.0
306.177582 144.0
306.234528 156.0
306.285736 176.0
306.469879 156.0
306.504425 196.0
306.576752 144.0
306.650238 208.0
306.738251 160.0
306.947418 152.0
307.010742 152.0
307.163635 156.0
307.384521 256.0
307.47049 136.0
307.533508 144.0
307.742432 128.0
307.777893 220.0
307.868683 128.0
308.022339 176.0
308.092224 152.0
308.124786 148.0
308.167664 152.0
308.205261 260.0
308.270416 152.0
308.404205 112.0
308.473114 216.0
308.497589 264.0
308.646667 192.0
308.727051 188.0
308.804504 180.0
308.89624 144.0
308.934845 112.0
308.983673 172.0
309.05249 272.0
309.10202 136.0
309.136414 112.0
309.21814 152.0
309.302124 240.0
309.424042 156.0
309.479584 160.0
309.567657 180.0
309.645264 144.0
310.004517 152.0
310.277893 228.0
310.343872 112.0
310.391693 144.0
310.656555 108.0
310.902771 184.0
311.080536 132.0
311.110931 216.0
311.170624 164.0
311.213165 276.0
311.313904 164.0
311.418243 300.0
311.558258 116.0
311.657043 228.0
311.711517 232.0
311.818756 148.0
311.852112 156.0
311.938751 160.0
312.112823 120.0
312.228516 128.0
312.26825 188.0
312.335754 116.0
312.410156 96.0
312.502655 172.0
312.567352 216.0
312.659271 212.0
312.695587 136.0
312.738068 184.0
312.786407 176.0
312.880005 128.0
312.925018 140.0
312.973114 144.0
313.057098 164.0
313.112427 160.0
313.220764 168.0
313.25177 208.0
313.308899 148.0
313.355988 140.0
313.395966 112.0
313.43219 144.0
313.685944 160.0
313.741455 264.0
313.923828 280.0
313.960785 148.0
313.974152 140.0
314.063232 204.0
314.121155 128.0
314.147888 172.0
314.28656 132.0
314.404449 104.0
314.474579 172.0
314.551605 160.0
314.747375 196.0
314.865936 168.0
315.039551 124.0
315.127136 128.0
315.162781 108.0
315.220947 336.0
315.30014 312.0
315.336487 144.0
315.397919 240.0
315.45575 188.0
315.518311 156.0
315.580597 160.0
315.612579 200.0
315.700653 128.0
315.777466 248.0
315.801208 256.0
315.859985 192.0
315.968597 116.0
316.006989 104.0
316.078003 160.0
316.109924 172.0
316.139893 132.0
316.173706 156.0
316.266144 508.0
316.335571 216.0
316.378387 228.0
316.43515 292.0
316.480377 232.0
316.50769 364.0
316.518005 188.0
316.576294 216.0
316.624939 264.0
316.668518 272.0
316.693176 172.0
316.746979 204.0
316.782349 208.0
316.838959 204.0
316.889343 572.0
316.930603 200.0
316.982635 112.0
317.027771 536.0
317.063507 368.0
317.126648 104.0
317.150024 432.0
317.176697 344.0
317.20932 480.0
317.239532 428.0
317.271851 352.0
317.314056 468.0
317.375519 300.0
317.459991 316.0
317.500183 280.0
317.522888 516.0
317.563293 388.0
317.602203 276.0
317.685852 380.0
317.717743 476.0
317.795746 536.0
317.861542 796.0
317.903931 1044.0
317.967346 1036.0
318.032532 628.0
318.0578 1040.0
318.104156 728.0
318.117767 784.0
318.149292 1444.0
318.17688 1240.0
318.20694 1724.0
318.280884 348104.0
318.412506 228.0
318.461914 244.0
318.521301 536.0
318.553833 320.0
318.61145 3320.0
318.669647 1072.0
318.724335 1428.0
318.767456 996.0
318.820251 2440.0
318.880615 20192.0
318.983643 484.0
319.042267 340.0
319.072571 188.0
319.14502 648.0
319.214355 1212.0
319.284058 180728.0
319.354919 168.0
319.421783 276.0
319.505432 196.0
319.541931 260.0
319.590576 224.0
319.670197 212.0
319.715027 372.0
319.770264 328.0
319.821991 220.0
319.871216 308.0
319.907867 120.0
319.932098 376.0
319.973938 196.0
320.010498 344.0
320.064209 168.0
320.089386 260.0
320.136078 224.0
320.184265 132.0
320.225128 208.0
320.285828 33892.0
320.364838 248.0
320.454132 200.0
320.502075 132.0
320.583252 104.0
320.617584 152.0
320.676086 124.0
320.727844 120.0
320.762268 128.0
320.795227 172.0
320.864319 100.0
320.931122 244.0
320.958954 252.0
321.025269 320.0
321.076477 364.0
321.138916 260.0
321.175446 320.0
321.219543 684.0
321.28656 1024.0
321.376953 300.0
321.429718 668.0
321.467468 284.0
321.521698 536.0
321.562439 224.0
321.571594 456.0
321.601288 404.0
321.655853 400.0
321.728729 264.0
321.779144 152.0
321.818298 120.0
321.871216 128.0
321.993073 112.0
322.025085 252.0
322.06955 188.0
322.149384 188.0
322.188904 264.0
322.223785 192.0
322.293976 304.0
322.342041 176.0
322.380219 148.0
322.425323 160.0
322.501831 172.0
322.555328 156.0
322.625092 196.0
322.65329 152.0
323.223907 180.0
323.285919 124.0
323.38913 140.0
323.456055 100.0
323.523773 148.0
323.673645 164.0
323.720581 120.0
324.379944 124.0
326.356995 148.0
327.598633 164.0
329.588776 116.0
330.547119 104.0
330.996063 164.0
331.419495 184.0
331.694916 104.0
331.954987 104.0
332.275848 108.0
332.352966 256.0
332.466217 132.0
332.558044 176.0
332.666168 120.0
332.801392 164.0
333.183167 132.0
333.49649 144.0
333.590118 124.0
333.747925 144.0
334.106232 100.0
334.78891 100.0
336.187225 108.0
336.294891 136.0
336.739471 240.0
337.341705 120.0
337.572021 112.0
341.872955 96.0
344.430725 176.0
346.157867 152.0
349.056885 108.0
351.088348 108.0
355.815063 172.0
357.006897 104.0
372.098053 116.0
398.393188 128.0
413.24826 164.0
428.680725 132.0
434.171814 104.0
435.90448 152.0
452.845673 116.0
459.975922 152.0
462.130341 140.0
476.382965 144.0
486.771271 96.0
492.537567 100.0
531.210388 108.0
540.426514 96.0
552.812744 156.0
557.224976 152.0
559.760193 160.0
577.889832 140.0
592.98645 120.0
626.205017 148.0
650.197449 140.0
667.366455 144.0
673.282043 200.0
684.635559 108.0
691.668762 104.0
731.793884 236.0
741.669006 144.0
807.730774 188.0
855.146606 144.0
900.238403 140.0
935.048767 140.0
983.228088 152.0
1025.787109 172.0
1042.008545 176.0
1048.153076 148.0
1115.820557 108.0
1155.266357 168.0
1181.744873 172.0
1182.703003 212.0
1195.227417 160.0
1205.405029 160.0
1221.308838 172.0
1221.976562 200.0
1224.872559 172.0
1227.827759 176.0
1242.601074 244.0
1247.432617 180.0
1251.822876 140.0
1255.889282 160.0
1256.439575 180.0
1272.966431 172.0
1276.697266 184.0
1281.615967 160.0
1282.022095 156.0
1296.099243 148.0
1298.685425 212.0
1305.531494 156.0
1306.049438 176.0
1310.296509 140.0
1310.584717 164.0
1314.463989 176.0
1318.373779 176.0
1319.151245 164.0
1320.416626 212.0
1326.694336 192.0
1333.05957 184.0
1335.996948 256.0
1338.740967 172.0
1341.152466 156.0
1345.559448 180.0
1350.000977 144.0
1355.088135 192.0
1355.842773 188.0
1360.963013 176.0
1361.880981 148.0
1363.798584 200.0
1364.629272 196.0
1367.593872 144.0
1371.902954 212.0
1373.016357 216.0
1373.392456 188.0
1383.36792 172.0
1392.376587 192.0
1393.386841 144.0
1398.279663 148.0
1402.629395 212.0
1405.787231 100.0
1406.791748 192.0
1410.990112 140.0
1411.171387 128.0
1415.509277 148.0
1415.958618 228.0
1416.400513 188.0
1416.655273 212.0
1418.236328 160.0
1420.058228 180.0
1421.641235 140.0
1423.119873 168.0
1424.554321 160.0
1431.556519 152.0
1431.774902 156.0
1437.043945 168.0
1437.50415 140.0
1444.644043 176.0
1445.491333 188.0
1446.815918 184.0
1447.489746 184.0
1448.110718 264.0
1452.901367 172.0
1453.606934 212.0
1455.443848 148.0
1456.780518 168.0
1459.470947 156.0
1462.445435 196.0
1464.196533 204.0
1467.778076 140.0
1468.052612 148.0
1475.672974 148.0
1476.942383 168.0
1477.141235 180.0
1481.037354 164.0
1482.385742 188.0
1485.88208 200.0
1486.150635 240.0
1486.580322 144.0
1486.749146 176.0
1488.130859 152.0
1493.525513 192.0
1496.126343 144.0
1502.754272 164.0
1504.050781 164.0
1505.950195 152.0
1509.837646 196.0
1511.531738 156.0
1512.816528 244.0
1514.884033 152.0
1519.977783 184.0
1520.326904 164.0
1521.427246 228.0
1522.943359 180.0
1524.023193 216.0
1524.598145 152.0
1525.375366 208.0
1528.354004 156.0
1529.373413 204.0
1530.408813 156.0
1530.564575 152.0
1532.137817 200.0
1533.431274 156.0
1533.55603 208.0
1535.785889 192.0
1536.948242 164.0
1538.157959 208.0
1541.797485 152.0
1542.235229 148.0
1547.296387 168.0
1547.740234 172.0
1549.990601 152.0
1550.194336 184.0
1550.335449 172.0
1552.287354 176.0
1554.585815 160.0
1556.336182 180.0
1558.464722 216.0
1559.415649 228.0
1559.840088 188.0
1561.876587 212.0
1562.301392 152.0
1562.867798 216.0
1563.033081 168.0
1564.221436 148.0
1566.780762 176.0
1568.474976 176.0
1570.013916 204.0
1570.816895 172.0
1571.006226 164.0
1573.610596 148.0
1574.992554 144.0
1578.115356 140.0
1580.391846 156.0
1580.842896 152.0
1583.170288 196.0
1583.50293 144.0
1585.435913 204.0
1585.879761 144.0
1586.624878 172.0
1588.575684 176.0
1589.00415 160.0
1591.647095 156.0
1592.615967 176.0
1593.680542 256.0
1593.839355 192.0
1594.570557 160.0
1596.383057 212.0
1597.416992 148.0
1599.525635 172.0
1600.528809 180.0
1603.229248 176.0
1603.729004 208.0
1605.509155 140.0
1606.418457 144.0
1610.848755 156.0
1611.58374 180.0
1612.758423 204.0
1623.558716 176.0
1623.654907 180.0
1624.112061 192.0
1627.803833 144.0
1627.868042 144.0
1632.922974 160.0
1635.811523 180.0
1638.86377 180.0
1641.0802 168.0
1643.435303 172.0
1644.274536 172.0
1644.508667 208.0
1648.158813 360.0
1651.165894 140.0
1655.479248 196.0
1655.60083 208.0
1657.905151 160.0
1662.913574 180.0
1663.351807 152.0
1666.543335 184.0
1666.722046 192.0
1667.819214 180.0
1668.900391 172.0
1668.957275 208.0
1669.160645 168.0
1669.355713 200.0
1673.790527 172.0
1674.588623 172.0
1674.735229 160.0
1675.631226 164.0
1678.418701 140.0
1679.821533 160.0
1680.416992 180.0
1681.325195 196.0
1681.567627 152.0
1682.081787 184.0
1683.23291 212.0
1683.469727 152.0
1684.825562 236.0
1688.062256 152.0
1688.937256 180.0
1689.976196 180.0
1691.711304 208.0
1692.37439 140.0
1694.331787 156.0
1694.561157 192.0
1694.774292 156.0
1697.659546 184.0
1699.283691 188.0
1699.464111 160.0
1700.071411 152.0
1702.98584 192.0
1703.593628 148.0
1704.094849 160.0
1704.218018 152.0
1705.508301 164.0
1705.902832 184.0
1708.830566 168.0
1710.081299 144.0
1712.460693 156.0
1713.597534 204.0
1715.047852 164.0
1715.449829 204.0
1715.855713 152.0
1716.016479 164.0
1716.119507 180.0
1716.432861 192.0
1717.251709 196.0
1717.447144 200.0
1718.016357 152.0
1718.932129 160.0
1723.655396 208.0
1724.041138 176.0
1724.151245 180.0
1724.217285 176.0
1727.119263 192.0
1727.337646 212.0
1729.113281 184.0
1732.532959 188.0
1732.814697 144.0
1732.963745 216.0
1734.192627 236.0
1737.465576 160.0
1739.100342 140.0
1739.224854 156.0
1743.011841 196.0
1743.27771 200.0
1743.593506 160.0
1744.092163 172.0
1745.713379 152.0
1746.054321 160.0
1747.110718 232.0
1747.426758 180.0
1748.267212 156.0
1748.525146 164.0
1751.655762 188.0
1753.272217 216.0
1753.88147 152.0
1754.22229 224.0
1754.630859 204.0
1756.682251 160.0
1758.309326 164.0
1759.603149 140.0
1760.788818 140.0
1761.640869 196.0
1766.531006 192.0
1767.610352 180.0
1768.179321 184.0
1771.009277 164.0
1772.014404 152.0
1772.131714 156.0
1773.271362 164.0
1773.388794 244.0
1773.915894 176.0
1774.327637 140.0
1775.543457 160.0
1777.204346 180.0
1779.218628 200.0
1779.881836 164.0
1780.553589 244.0
1781.662354 184.0
1783.326172 140.0
1784.966675 136.0
1785.335449 196.0
1787.472168 172.0
1787.79187 184.0
1788.086426 152.0
1788.1875 216.0
1788.751343 164.0
1789.803711 196.0
1791.791382 140.0
1792.490723 204.0
1793.889771 168.0
1794.078979 156.0
1794.252319 196.0
1795.272583 184.0
1795.390625 168.0
1796.115967 208.0
1798.588135 140.0
1798.740112 224.0
1801.02832 156.0
1801.602783 168.0
1803.859009 208.0
1805.626221 148.0
1806.206787 192.0
1807.258789 144.0
1807.752075 144.0
1809.332275 184.0
1810.204468 228.0
1810.695557 176.0
1812.186401 192.0
1813.199585 192.0
1813.550781 164.0
1816.413696 136.0
1816.51001 268.0
1817.307495 152.0
1818.724609 148.0
1819.250977 164.0
1820.337646 148.0
1820.898193 156.0
1821.144531 172.0
1821.535156 204.0
1825.011108 172.0
1825.759399 164.0
1825.878418 180.0
1827.103271 160.0
1827.452148 164.0
1828.354126 188.0
1830.235352 192.0
1830.635498 240.0
1831.904541 208.0
1832.040894 164.0
1832.884277 232.0
1833.105835 168.0
1833.41272 168.0
1834.188232 172.0
1836.840088 152.0
1837.915039 168.0
1840.024536 128.0
1842.764648 144.0
1843.969604 176.0
1844.260132 168.0
1844.567871 152.0
1846.158081 244.0
1847.346924 220.0
1848.810059 156.0
1849.991211 188.0
1850.898682 152.0
1851.181274 180.0
1851.343994 200.0
1851.720825 156.0
1852.208984 148.0
1853.38269 144.0
1853.802612 168.0
1853.875 140.0
1854.453857 172.0
1854.556763 140.0
1855.233887 232.0
1856.015015 160.0
1858.141235 156.0
1859.407349 192.0
1860.83606 200.0
1861.179443 184.0
1861.780518 160.0
1862.209961 140.0
1862.31311 152.0
1862.424683 164.0
1862.484863 148.0
1862.991699 140.0
1863.206421 220.0
1864.916382 140.0
1865.053955 144.0
1865.810425 164.0
1867.435547 152.0
1868.950684 124.0
1870.731079 164.0
1871.643677 184.0
1872.005371 192.0
1872.079834 192.0
1873.736572 212.0
1876.253052 148.0
1876.365234 144.0
1877.339478 144.0
1877.744873 208.0
1879.085693 252.0
1880.626465 140.0
1881.006226 152.0
1881.489746 176.0
1882.44812 204.0
1882.62085 168.0
1882.689941 180.0
1883.734985 172.0
1885.438721 172.0
1887.399292 160.0
1892.088745 180.0
1892.703369 148.0
1893.378906 216.0
1894.574097 160.0
1894.660767 184.0
1895.098022 152.0
1895.839111 188.0
1896.541138 156.0
1899.497925 172.0
1900.833984 180.0
1905.418335 176.0
1906.697266 152.0
1907.509644 196.0
1907.617065 168.0
1908.390747 212.0
1909.703857 224.0
1909.782104 232.0
1911.626465 180.0
1912.131226 176.0
1912.627319 256.0
1914.150879 172.0
1914.429565 148.0
1915.971191 204.0
1917.025513 148.0
1917.225952 156.0
1917.722656 152.0
1919.536011 156.0
1920.067871 184.0
1920.931396 172.0
1923.619019 172.0
1924.265015 172.0
1925.304077 152.0
1927.004028 216.0
1927.776367 208.0
1928.580444 144.0
1928.69397 148.0
1929.078613 168.0
1929.227295 164.0
1929.393311 296.0
1930.057861 196.0
1930.153931 188.0
1930.722412 148.0
1933.087769 204.0
1933.320557 156.0
1934.228027 184.0
1934.820679 176.0
1935.640381 148.0
1936.183228 176.0
1937.856323 148.0
1938.750122 176.0
1942.783325 236.0
1943.230835 208.0
1943.33606 144.0
1945.399658 124.0
1946.127197 176.0
1946.399292 252.0
1946.724243 160.0
1946.998901 148.0
1948.480957 140.0
1949.526489 152.0
1950.141724 156.0
1955.700439 144.0
1956.527832 176.0
1956.80957 208.0
1958.024658 148.0
1958.376953 156.0
1960.185547 180.0
1960.773438 156.0
1961.029053 248.0
1961.610718 180.0
1963.074341 168.0
1963.904907 112.0
1965.191284 148.0
1965.350098 192.0
1965.950073 152.0
1967.229858 164.0
1968.872192 172.0
1972.229492 184.0
1976.350464 168.0
1979.200562 160.0
1981.193237 164.0
1982.442505 240.0
1984.631958 188.0
1985.11084 148.0
1985.500977 200.0
1986.512085 156.0
1986.574219 208.0
1987.204102 200.0
1992.086792 224.0
1992.175659 160.0
1992.362793 180.0
1994.210449 164.0
1995.268188 160.0
1996.628662 220.0
1997.260132 184.0
1997.74939 144.0
1999.609009 188.0
2000.329956 144.0
2000.401245 188.0
2001.35376 248.0
2001.505127 172.0
2001.665405 172.0
