>compound MLS002154207-01!Isoconazole27523-40-6
>formula C18H14Cl4N2O
>ionization [M+H]+
>parentmass 414.99353
#inchi InChI=1S/C18H14Cl4N2O/c19-12-4-5-13(17(22)8-12)18(9-24-7-6-23-11-24)25-10-14-15(20)2-1-3-16(14)21/h1-8,11,18H,9-10H2
#inchikey MPIPASJGOJYODL
#Ion_Source LC-ESI
#Instrument qTof
#Compound_Source NIH Pharmacologically Active Library
#PI Dorrestein
#Data_Collector VP/LMS
#Scan -1
#Precursor_MZ 414.991
#ExactMass 414.993
#Charge 1
#CAS_Number N/A
#Pubmed_ID N/A
#Smiles Clc1ccc(C(Cn2ccnc2)OCc3c(Cl)cccc3Cl)c(Cl)c1
#INCHI_AUX N/A
#Library_Class 1
#SpectrumID CCMSLIB00000085023
#IonMode Positive
#UpdateWorkflowName UPDATE-SINGLE-ANNOTATED-GOLD
#LibraryQualityString Gold
#TaskID d252d724072548979f1f6f1ced849daf
##Scan# 2058
#SpectrumFile p3-D10_GD10_01_18267.mzXML
#LibraryName Pharm_Active_Library.mgf
#MQScore -1
#Organism Pharm_Active_Library
#TIC_Query 0
#RT_Query -1
#MZErrorPPM -1
#SharedPeaks 0
#MassDiff 0
#LibMZ -1
#SpecMZ 414.991
#SpecCharge 0
#internalFilename spec-00000.mgf

>collision 10
44.897999 160.0
44.918186 136.0
44.940178 268.0
44.961399 228.0
44.965237 152.0
44.972137 392.0
44.996063 176.0
45.010799 164.0
45.034718 148.0
45.061195 136.0
45.086426 64.0
45.104992 144.0
45.131256 448.0
45.14468 252.0
45.156704 128.0
45.197037 208.0
45.203922 56.0
45.213833 168.0
45.220177 228.0
45.234901 144.0
45.24453 124.0
45.257008 156.0
45.27478 204.0
45.288258 236.0
45.299179 176.0
45.323296 196.0
45.346333 368.0
45.355881 124.0
45.370819 112.0
45.394806 140.0
45.415806 116.0
45.427162 120.0
45.439056 164.0
45.467541 172.0
45.489746 300.0
45.507927 288.0
45.529892 152.0
45.540638 344.0
45.554485 156.0
45.568848 100.0
45.619267 144.0
45.638367 156.0
45.650848 116.0
45.664295 112.0
45.681782 128.0
45.6912 160.0
45.703312 312.0
45.719933 164.0
45.729771 320.0
45.743687 152.0
45.756439 220.0
45.805302 240.0
45.822945 240.0
45.844673 172.0
45.858185 176.0
45.871704 144.0
45.885162 388.0
45.897285 160.0
45.907383 228.0
45.920212 84.0
45.940308 200.0
45.950047 168.0
45.972935 152.0
45.987762 124.0
45.999729 188.0
46.023815 348.0
46.033936 196.0
46.071556 172.0
46.088966 100.0
46.103085 372.0
46.120983 168.0
46.137623 164.0
46.149662 84.0
46.161961 160.0
46.196873 316.0
46.202801 168.0
46.205357 196.0
46.215847 228.0
46.237663 136.0
46.253361 152.0
46.262951 188.0
46.272923 112.0
46.302887 312.0
46.32251 52.0
46.341999 184.0
46.357185 136.0
46.362656 148.0
46.394817 276.0
46.4161 180.0
46.419876 144.0
46.425068 144.0
46.450462 128.0
46.467175 288.0
46.481297 128.0
46.500141 228.0
46.520157 180.0
46.553154 164.0
46.569283 300.0
46.579052 88.0
46.594326 132.0
46.604008 128.0
46.624607 380.0
46.641224 100.0
46.654167 316.0
46.668789 196.0
46.682724 176.0
46.707146 164.0
46.733055 124.0
46.746864 188.0
46.762463 276.0
46.791801 172.0
46.80994 124.0
46.824295 176.0
46.833237 68.0
46.870583 168.0
46.886936 172.0
46.914135 328.0
46.930016 180.0
46.945015 200.0
46.963215 192.0
46.989212 160.0
47.012753 272.0
47.06221 100.0
47.075211 160.0
47.08477 108.0
47.097061 128.0
47.109356 92.0
47.136494 168.0
47.146629 244.0
47.162617 168.0
47.17614 168.0
47.20768 120.0
47.211613 188.0
47.216831 160.0
47.232391 56.0
47.241966 120.0
47.253368 120.0
47.260517 172.0
47.27161 228.0
47.2752 152.0
47.293266 164.0
47.323689 344.0
47.345882 144.0
47.357098 152.0
47.375355 148.0
47.402821 144.0
47.418133 204.0
47.425949 148.0
47.435753 188.0
47.445946 136.0
47.456997 312.0
47.466595 208.0
47.492798 152.0
47.518471 216.0
47.546539 176.0
47.561127 120.0
47.565567 208.0
47.581482 44.0
47.597874 180.0
47.627556 116.0
47.649754 124.0
47.660149 184.0
47.684887 136.0
47.706879 136.0
47.718796 120.0
47.741257 224.0
47.766449 128.0
47.801281 120.0
47.828804 264.0
47.844456 32.0
47.864563 308.0
47.874241 184.0
47.891277 180.0
47.902538 160.0
47.915974 160.0
47.934868 320.0
47.953972 168.0
47.985634 272.0
48.007465 172.0
48.038776 164.0
48.049015 124.0
48.084679 244.0
48.104359 140.0
48.134258 292.0
48.142784 80.0
48.157829 204.0
48.168705 168.0
48.173199 108.0
48.199318 164.0
48.223373 276.0
48.23764 124.0
48.251591 140.0
48.276093 168.0
48.288109 96.0
48.303318 152.0
48.325081 196.0
48.334583 216.0
48.345821 132.0
48.372204 44.0
48.383644 224.0
48.396286 180.0
48.405796 112.0
48.411205 100.0
48.413647 276.0
48.430759 300.0
48.443836 160.0
48.461445 164.0
48.502216 220.0
48.515942 152.0
48.54641 184.0
48.559238 96.0
48.594959 164.0
48.609447 136.0
48.626877 216.0
48.643303 292.0
48.679127 152.0
48.70047 48.0
48.720184 208.0
48.731033 168.0
48.743687 148.0
48.754654 128.0
48.764385 116.0
48.788723 120.0
48.808872 100.0
48.832317 136.0
48.854771 152.0
48.905006 164.0
48.924404 124.0
48.936825 172.0
48.950813 232.0
48.970879 304.0
49.001549 340.0
49.024239 204.0
49.030148 144.0
49.033207 172.0
49.054871 164.0
49.091782 104.0
49.123646 72.0
49.149227 132.0
49.164112 48.0
49.175278 108.0
49.185947 196.0
49.201355 148.0
49.213608 140.0
49.22554 168.0
49.239506 160.0
49.249283 152.0
49.262772 140.0
49.277222 112.0
49.299114 132.0
49.311489 192.0
49.333668 124.0
49.349396 44.0
49.375076 216.0
49.390053 164.0
49.393993 120.0
49.414246 188.0
49.432297 156.0
49.448601 160.0
49.465107 176.0
49.496952 140.0
49.519535 188.0
49.543736 164.0
49.54686 156.0
49.551746 196.0
49.568272 92.0
49.587662 192.0
49.60191 144.0
49.614422 160.0
49.624584 176.0
49.637333 152.0
49.663612 180.0
49.714119 140.0
49.747696 152.0
49.776318 144.0
49.7864 124.0
49.814156 228.0
49.828815 212.0
49.845917 160.0
49.871307 180.0
49.890736 136.0
49.903759 308.0
49.919228 136.0
49.934681 204.0
49.966839 156.0
49.983147 376.0
50.005619 148.0
50.021942 120.0
50.037426 164.0
50.056702 276.0
50.062317 148.0
50.06905 140.0
50.072071 120.0
50.088013 304.0
50.101151 164.0
50.119701 136.0
50.136032 340.0
50.171272 100.0
50.193832 68.0
50.203705 140.0
50.221436 140.0
50.236095 108.0
50.252228 200.0
50.2813 136.0
50.295414 368.0
50.322571 204.0
50.334145 176.0
50.344833 116.0
50.363194 232.0
50.391533 200.0
50.413265 164.0
50.437393 212.0
50.452225 164.0
50.469418 172.0
50.488987 192.0
50.49889 124.0
50.510189 172.0
50.523067 240.0
50.542747 32.0
50.554066 160.0
50.573883 32.0
50.584614 200.0
50.620415 60.0
50.642376 120.0
50.665451 272.0
50.685322 152.0
50.707027 220.0
50.731647 260.0
50.752113 184.0
50.76862 180.0
50.790314 184.0
50.795357 136.0
50.828121 280.0
50.853481 156.0
50.876244 188.0
50.895401 348.0
50.917606 200.0
50.92823 180.0
50.958206 184.0
50.967716 156.0
50.980423 316.0
50.983047 200.0
50.99638 368.0
51.029015 236.0
51.034081 168.0
51.049183 108.0
51.053856 112.0
51.059422 140.0
51.076206 140.0
51.098289 88.0
51.113197 116.0
51.130619 132.0
51.144932 324.0
51.171783 152.0
51.190945 104.0
51.194519 288.0
51.217129 108.0
51.262321 184.0
51.275551 64.0
51.288761 164.0
51.304058 180.0
51.340202 184.0
51.36562 120.0
51.374573 172.0
51.390293 104.0
51.406055 324.0
51.447189 196.0
51.468143 92.0
51.507607 152.0
51.51099 96.0
51.5158 152.0
51.541901 252.0
51.553856 172.0
51.571007 132.0
51.590614 156.0
51.602924 148.0
51.615482 220.0
51.625801 184.0
51.644112 192.0
51.656204 140.0
51.689713 156.0
51.69973 128.0
51.711178 180.0
51.725536 136.0
51.746075 188.0
51.76112 344.0
51.786907 144.0
51.802284 132.0
51.825748 172.0
51.836189 168.0
51.858334 312.0
51.867962 152.0
51.889595 124.0
51.903599 180.0
51.920841 156.0
51.948269 184.0
51.959534 184.0
51.969547 252.0
51.995079 152.0
52.02224 152.0
52.032291 104.0
52.045212 128.0
52.061714 204.0
52.085564 176.0
52.106205 276.0
52.116776 112.0
52.140728 128.0
52.162491 204.0
52.186451 164.0
52.200237 168.0
52.215229 196.0
52.271255 112.0
52.305061 76.0
52.318764 156.0
52.336514 264.0
52.34634 204.0
52.355835 192.0
52.375278 112.0
52.393715 216.0
52.432194 152.0
52.453773 136.0
52.470295 204.0
52.49707 116.0
52.527786 176.0
52.543133 120.0
52.561985 112.0
52.586189 192.0
52.590992 144.0
52.597023 116.0
52.602329 168.0
52.617653 92.0
52.633682 96.0
52.650005 136.0
52.653618 136.0
52.690361 128.0
52.714191 204.0
52.748302 172.0
52.775558 216.0
52.787262 148.0
52.817642 160.0
52.834999 156.0
52.855984 204.0
52.890549 204.0
52.913002 204.0
52.932106 336.0
52.989132 160.0
53.000137 172.0
53.023144 228.0
53.036938 268.0
53.08659 276.0
53.090443 160.0
53.126842 164.0
53.154514 148.0
53.166908 248.0
53.179802 140.0
53.201744 104.0
53.213051 164.0
53.233204 272.0
53.254021 112.0
53.273499 176.0
53.303417 164.0
53.316692 124.0
53.323765 96.0
53.35392 152.0
53.373192 104.0
53.386902 188.0
53.413918 176.0
53.432831 148.0
53.461479 436.0
53.482014 444.0
53.51725 192.0
53.546047 204.0
53.581337 88.0
53.598824 160.0
53.620682 176.0
53.647736 172.0
53.661499 176.0
53.694595 276.0
53.71648 204.0
53.749134 152.0
53.766403 184.0
53.768612 160.0
53.775352 180.0
53.796169 144.0
53.805084 272.0
53.822006 256.0
53.835098 116.0
53.858967 156.0
53.871666 132.0
53.904243 200.0
53.934727 196.0
53.968719 188.0
53.99641 176.0
54.001114 100.0
54.019318 228.0
54.029556 124.0
54.041203 196.0
54.100124 92.0
54.124516 200.0
54.153988 132.0
54.18182 172.0
54.195007 52.0
54.211861 240.0
54.236473 136.0
54.251804 160.0
54.2743 172.0
54.286572 164.0
54.304893 260.0
54.332832 156.0
54.356098 56.0
54.359367 128.0
54.374893 308.0
54.430359 72.0
54.45908 84.0
54.47377 184.0
54.488678 260.0
54.515434 168.0
54.535488 132.0
54.556381 56.0
54.559654 200.0
54.566135 132.0
54.571159 180.0
54.591969 192.0
54.61731 248.0
54.634014 200.0
54.64431 164.0
54.661968 32.0
54.680897 172.0
54.700447 112.0
54.720848 144.0
54.732628 96.0
54.743874 176.0
54.757172 120.0
54.778332 224.0
54.7896 212.0
54.801857 248.0
54.819809 132.0
54.841194 124.0
54.855564 152.0
54.867359 208.0
54.884972 172.0
54.908424 208.0
54.926769 188.0
54.956776 188.0
54.98177 188.0
55.00338 160.0
55.009354 148.0
55.012947 356.0
55.034679 176.0
55.062973 100.0
55.115547 156.0
55.125481 240.0
55.158108 156.0
55.175278 124.0
55.187698 220.0
55.215759 96.0
55.229721 236.0
55.243198 160.0
55.248856 80.0
55.251884 176.0
55.265503 124.0
55.284027 164.0
55.295101 116.0
55.307652 208.0
55.32021 192.0
55.44458 216.0
55.456142 324.0
55.478985 88.0
55.509811 180.0
55.529579 296.0
55.545845 144.0
55.559883 220.0
55.613773 208.0
55.625069 164.0
55.627666 100.0
55.633816 200.0
55.654175 148.0
55.671677 52.0
55.683033 204.0
55.709076 180.0
55.740635 240.0
55.751904 168.0
55.798271 172.0
55.818802 108.0
55.828934 352.0
55.842796 180.0
55.859165 116.0
55.8783 104.0
55.895298 132.0
55.913101 172.0
55.925922 124.0
55.938362 156.0
55.965427 356.0
55.993618 292.0
56.007053 164.0
56.017254 108.0
56.031406 120.0
56.04266 168.0
56.062553 204.0
56.078136 188.0
56.098209 140.0
56.112137 112.0
56.130466 416.0
56.163261 236.0
56.184807 184.0
56.203125 392.0
56.21563 188.0
56.23037 296.0
56.25016 280.0
56.267307 136.0
56.289703 176.0
56.330105 348.0
56.349903 252.0
56.36721 160.0
56.400265 260.0
56.42672 92.0
56.456146 156.0
56.478138 308.0
56.504948 160.0
56.519474 216.0
56.544773 184.0
56.554333 264.0
56.580406 364.0
56.598812 124.0
56.630695 140.0
56.653629 52.0
56.666653 136.0
56.685337 216.0
56.699619 164.0
56.715816 124.0
56.741062 136.0
56.771706 48.0
56.790546 348.0
56.811588 268.0
56.819958 332.0
56.830917 72.0
56.845608 180.0
56.868916 128.0
56.889866 176.0
56.91264 128.0
56.926155 156.0
56.93631 136.0
56.958748 240.0
56.979527 204.0
56.993092 136.0
57.008686 208.0
57.0364 176.0
57.051247 96.0
57.0644 120.0
57.08091 220.0
57.094597 200.0
57.108795 120.0
57.126492 172.0
57.139603 116.0
57.168324 272.0
57.18663 192.0
57.197403 128.0
57.214283 200.0
57.240456 160.0
57.274593 252.0
57.29314 188.0
57.315407 248.0
57.341393 140.0
57.356026 288.0
57.373047 344.0
57.387321 524.0
57.420361 224.0
57.434879 168.0
57.446362 176.0
57.46656 88.0
57.505596 152.0
57.519382 112.0
57.534477 160.0
57.573738 96.0
57.585667 168.0
57.588196 140.0
57.625099 300.0
57.635284 124.0
57.658638 164.0
57.669044 348.0
57.696373 460.0
57.742702 156.0
57.76033 128.0
57.773266 168.0
57.789009 128.0
57.804554 124.0
57.836777 248.0
57.850449 140.0
57.882244 80.0
57.906395 160.0
57.917324 172.0
57.942188 92.0
57.965561 120.0
57.978485 212.0
57.989143 276.0
58.003342 168.0
58.006847 196.0
58.026043 164.0
58.054054 160.0
58.079956 124.0
58.113571 180.0
58.125622 380.0
58.146759 192.0
58.159695 148.0
58.176342 124.0
58.178387 200.0
58.201012 168.0
58.218849 164.0
58.22406 132.0
58.230179 228.0
58.247356 176.0
58.259861 104.0
58.28727 116.0
58.301704 152.0
58.341 228.0
58.361752 124.0
58.376915 132.0
58.398663 304.0
58.413818 120.0
58.440704 168.0
58.456066 156.0
58.474327 116.0
58.49165 116.0
58.518517 152.0
58.538273 180.0
58.558071 136.0
58.571777 164.0
58.595028 184.0
58.627392 156.0
58.640583 120.0
58.660133 192.0
58.676651 152.0
58.692181 420.0
58.708035 152.0
58.725735 124.0
58.745064 188.0
58.760445 244.0
58.784256 200.0
58.795219 100.0
58.813633 224.0
58.827309 188.0
58.841713 100.0
58.871742 108.0
58.884289 300.0
58.919159 164.0
58.921711 116.0
58.933746 188.0
58.948639 84.0
58.982895 164.0
58.995621 160.0
59.000965 136.0
59.005638 192.0
59.025921 176.0
59.037518 116.0
59.070957 136.0
59.110237 172.0
59.132164 160.0
59.144409 148.0
59.173622 116.0
59.18502 144.0
59.204121 168.0
59.221066 128.0
59.246914 256.0
59.277447 148.0
59.294071 152.0
59.332443 360.0
59.349751 132.0
59.360435 188.0
59.375206 184.0
59.386509 80.0
59.403301 152.0
59.418427 308.0
59.435276 320.0
59.467773 104.0
59.478428 136.0
59.50621 240.0
59.524635 224.0
59.546093 144.0
59.570713 148.0
59.59837 84.0
59.612396 316.0
59.638584 144.0
59.673687 148.0
59.691097 364.0
59.716511 132.0
59.736485 204.0
59.76849 164.0
59.782948 132.0
59.801018 140.0
59.815224 172.0
59.833904 180.0
59.855408 188.0
59.88887 184.0
59.916866 152.0
59.928307 196.0
59.942738 196.0
59.952404 356.0
59.970238 196.0
60.010887 128.0
60.026306 128.0
60.040859 156.0
60.052525 128.0
60.073948 216.0
60.084919 316.0
60.11578 180.0
60.133362 184.0
60.13916 108.0
60.161774 216.0
60.164326 124.0
60.204548 88.0
60.214222 172.0
60.225399 148.0
60.241596 240.0
60.268284 124.0
60.280964 112.0
60.294651 200.0
60.31657 164.0
60.336758 264.0
60.36129 108.0
60.372601 140.0
60.386112 316.0
60.415455 140.0
60.419121 204.0
60.447594 140.0
60.453545 100.0
60.48275 168.0
60.506855 192.0
60.526981 144.0
60.538948 216.0
60.552654 132.0
60.585636 128.0
60.609081 280.0
60.621479 164.0
60.642605 336.0
60.656559 120.0
60.680382 300.0
60.691944 140.0
60.713516 184.0
60.760357 232.0
60.773445 152.0
60.788269 232.0
60.822479 164.0
60.847019 80.0
60.858997 172.0
60.892185 328.0
60.913952 136.0
60.939648 204.0
60.96553 232.0
60.98595 176.0
61.003307 116.0
61.023029 248.0
61.043526 296.0
61.054043 172.0
61.086586 180.0
61.111893 196.0
61.133018 184.0
61.151215 200.0
61.177357 356.0
61.201328 160.0
61.224262 188.0
61.241394 188.0
61.259048 140.0
61.269806 252.0
61.281898 168.0
61.297398 152.0
61.302689 140.0
61.307018 200.0
61.323975 128.0
61.340427 36.0
61.361389 136.0
61.376102 156.0
61.40155 452.0
61.415836 152.0
61.42535 168.0
61.446495 120.0
61.473259 148.0
61.494133 344.0
61.504593 156.0
61.51989 108.0
61.525696 64.0
61.540081 272.0
61.554916 148.0
61.580734 280.0
61.614231 256.0
61.625168 204.0
61.639229 440.0
61.667629 164.0
61.677891 516.0
61.698879 148.0
61.721554 168.0
61.744633 152.0
61.768517 116.0
61.78196 284.0
61.801292 332.0
61.824471 124.0
61.834282 324.0
61.861328 204.0
61.90498 132.0
61.915028 164.0
61.930229 124.0
61.945896 124.0
61.958427 84.0
61.969395 208.0
61.985836 136.0
62.002304 164.0
62.031273 176.0
62.04306 88.0
62.055603 392.0
62.076626 188.0
62.108925 232.0
62.119904 368.0
62.137161 132.0
62.157558 116.0
62.184597 176.0
62.209538 160.0
62.225441 196.0
62.24704 348.0
62.268169 192.0
62.283367 152.0
62.299561 164.0
62.320141 248.0
62.339725 112.0
62.350723 100.0
62.364872 36.0
62.387695 100.0
62.402714 164.0
62.418869 348.0
62.437195 200.0
62.467678 232.0
62.490376 348.0
62.526875 92.0
62.550343 176.0
62.552689 160.0
62.56131 208.0
62.565311 140.0
62.571674 172.0
62.61113 132.0
62.63237 112.0
62.646549 60.0
62.666443 140.0
62.68095 208.0
62.685364 44.0
62.701698 92.0
62.715885 204.0
62.741936 160.0
62.759239 168.0
62.775795 180.0
62.790356 156.0
62.814713 184.0
62.829426 148.0
62.841751 180.0
62.872383 196.0
62.888569 188.0
62.906757 140.0
62.920639 164.0
62.936756 212.0
62.965267 200.0
62.970173 200.0
62.977547 188.0
62.996086 124.0
63.013493 144.0
63.030933 180.0
63.055664 192.0
63.080864 152.0
63.090439 308.0
63.121819 208.0
63.14286 124.0
63.149349 84.0
63.153946 84.0
63.166931 168.0
63.204815 192.0
63.222958 168.0
63.280605 288.0
63.309444 148.0
63.31987 172.0
63.348988 324.0
63.378033 144.0
63.397762 104.0
63.414524 124.0
63.44558 244.0
63.463669 168.0
63.484283 240.0
63.505363 204.0
63.525112 184.0
63.550514 112.0
63.587616 124.0
63.591167 196.0
63.614571 144.0
63.628723 160.0
63.656937 252.0
63.677174 112.0
63.693878 76.0
63.705269 144.0
63.728046 372.0
63.778862 188.0
63.797901 196.0
63.814579 168.0
63.83007 156.0
63.866444 248.0
63.879765 216.0
63.892155 336.0
63.918049 80.0
63.934994 148.0
63.952087 128.0
63.97686 100.0
63.992783 104.0
64.00676 180.0
64.021446 280.0
64.055374 172.0
64.069908 204.0
64.092216 132.0
64.09655 272.0
64.135536 244.0
64.151428 348.0
64.182396 184.0
64.203529 48.0
64.208366 112.0
64.213829 144.0
64.225456 164.0
64.238426 372.0
64.262154 200.0
64.286087 160.0
64.31591 220.0
64.343346 220.0
64.375999 352.0
64.399445 180.0
64.412224 260.0
64.423409 88.0
64.436188 260.0
64.447372 32.0
64.478882 156.0
64.490341 168.0
64.501984 184.0
64.514999 140.0
64.532089 148.0
64.548073 140.0
64.585754 200.0
64.591438 140.0
64.604523 344.0
64.659378 336.0
64.712654 188.0
64.716492 160.0
64.734055 164.0
64.738914 128.0
64.746841 160.0
64.752167 160.0
64.759254 84.0
64.771996 220.0
64.792969 80.0
64.80864 108.0
64.823532 172.0
64.841927 124.0
64.858078 164.0
64.864769 160.0
64.885933 140.0
64.908379 124.0
64.920319 164.0
64.935669 220.0
64.955025 160.0
64.972336 220.0
64.976311 136.0
65.004631 268.0
65.027878 300.0
65.037117 208.0
65.056297 148.0
65.077286 184.0
65.09774 204.0
65.12793 256.0
65.146858 172.0
65.180641 132.0
65.197159 284.0
65.208328 120.0
65.224663 272.0
65.254372 168.0
65.257835 120.0
65.271721 332.0
65.285767 172.0
65.29702 164.0
65.314827 248.0
65.329193 148.0
65.362984 92.0
65.380371 212.0
65.405441 316.0
65.423737 252.0
65.441856 136.0
65.457169 236.0
65.483727 168.0
65.497574 172.0
65.513176 300.0
65.527046 144.0
65.531403 128.0
65.543694 160.0
65.559448 140.0
65.608124 276.0
65.622673 308.0
65.639404 304.0
65.654984 156.0
65.669083 72.0
65.690056 116.0
65.720184 116.0
65.733337 180.0
65.754639 184.0
65.777252 216.0
65.794167 140.0
65.827248 136.0
65.842094 176.0
65.861877 264.0
65.890244 172.0
65.902565 160.0
65.934334 112.0
65.937737 92.0
65.960098 176.0
65.988167 176.0
66.006508 176.0
66.042885 368.0
66.070038 404.0
66.090736 324.0
66.104607 112.0
66.144226 244.0
66.173088 100.0
66.176949 200.0
66.20488 204.0
66.223488 120.0
66.244095 72.0
66.247169 168.0
66.278145 168.0
66.293922 284.0
66.316147 128.0
66.337494 180.0
66.377342 304.0
66.439949 136.0
66.458557 92.0
66.478951 340.0
66.514893 204.0
66.533943 156.0
66.562416 216.0
66.587616 184.0
66.611031 140.0
66.616806 128.0
66.621506 200.0
66.653008 140.0
66.676163 156.0
66.693474 136.0
66.716469 136.0
66.728867 128.0
66.742821 80.0
66.765427 164.0
66.782585 124.0
66.798882 308.0
66.832283 132.0
66.847527 152.0
66.872574 460.0
66.886955 188.0
66.909889 144.0
66.925316 356.0
66.946228 204.0
66.968147 176.0
66.981049 64.0
66.989227 216.0
67.019539 164.0
67.037498 392.0
67.062248 192.0
67.096146 216.0
67.115501 128.0
67.151665 156.0
67.172791 140.0
67.183708 152.0
67.19532 220.0
67.230904 156.0
67.277237 124.0
67.29628 256.0
67.324791 160.0
67.35099 120.0
67.3666 196.0
67.373268 108.0
67.378395 164.0
67.396469 200.0
67.420616 200.0
67.444824 68.0
67.463478 144.0
67.479012 88.0
67.488319 164.0
67.504356 136.0
67.540337 192.0
67.556511 180.0
67.578323 128.0
67.591057 152.0
67.604103 168.0
67.628693 144.0
67.641174 376.0
67.656525 36.0
67.67218 124.0
67.686989 172.0
67.722733 112.0
67.748238 44.0
67.768059 168.0
67.780563 104.0
67.808411 72.0
67.827667 188.0
67.834694 132.0
67.838867 120.0
67.858749 168.0
67.880806 164.0
67.89904 184.0
67.917084 168.0
67.937393 148.0
67.947083 140.0
67.975449 168.0
67.980118 152.0
67.995842 136.0
68.01329 336.0
68.042709 152.0
68.079422 176.0
68.090019 196.0
68.10585 76.0
68.12709 56.0
68.154182 192.0
68.206085 104.0
68.223679 200.0
68.229004 208.0
68.234344 256.0
68.250038 120.0
68.270348 148.0
68.283363 96.0
68.297256 156.0
68.314529 144.0
68.331947 272.0
68.351486 108.0
68.357101 44.0
68.369164 164.0
68.396904 124.0
68.413361 132.0
68.449265 164.0
68.495628 180.0
68.520775 344.0
68.528511 240.0
68.530724 324.0
68.551949 188.0
68.577538 260.0
68.603172 336.0
68.620804 188.0
68.639091 68.0
68.670959 368.0
68.689651 144.0
68.704239 324.0
68.726517 136.0
68.750046 140.0
68.771072 112.0
68.784279 112.0
68.795837 112.0
68.807014 120.0
68.822762 220.0
68.854698 68.0
68.881836 320.0
68.906494 260.0
68.924767 196.0
68.946152 192.0
68.975899 80.0
68.997391 112.0
69.020538 128.0
69.035423 104.0
69.050011 88.0
69.08387 180.0
69.105995 224.0
69.161171 160.0
69.180092 288.0
69.20182 272.0
69.234016 120.0
69.25486 192.0
69.269646 152.0
69.281937 168.0
69.304642 196.0
69.32679 168.0
69.346275 188.0
69.368355 232.0
69.398071 148.0
69.411339 148.0
69.439529 160.0
69.464355 116.0
69.470856 136.0
69.47377 156.0
69.489113 176.0
69.51017 228.0
69.533234 132.0
69.549042 28.0
69.584892 184.0
69.591057 156.0
69.626282 184.0
69.63324 60.0
69.636215 192.0
69.661964 52.0
69.682861 132.0
69.696487 184.0
69.710022 104.0
69.729057 336.0
69.756142 160.0
69.785736 160.0
69.810875 216.0
69.832344 152.0
69.853134 136.0
69.8731 160.0
69.894859 156.0
69.91304 48.0
69.936745 180.0
69.961006 264.0
70.001266 76.0
70.042908 136.0
70.062279 224.0
70.075081 156.0
70.08783 536.0
70.111221 120.0
70.125771 148.0
70.147179 356.0
70.162895 172.0
70.180183 292.0
70.216255 152.0
70.232323 164.0
70.263 172.0
70.279648 160.0
70.295547 160.0
70.311356 192.0
70.332527 152.0
70.337677 104.0
70.358696 176.0
70.387451 192.0
70.404846 52.0
70.431343 176.0
70.448067 432.0
70.488914 112.0
70.517616 184.0
70.531021 160.0
70.548553 168.0
70.580315 200.0
70.599632 160.0
70.647217 72.0
70.688461 160.0
70.720474 180.0
70.749863 192.0
70.780144 268.0
70.792084 132.0
70.799919 176.0
70.814438 152.0
70.842964 108.0
70.870041 48.0
70.890007 200.0
70.907425 132.0
70.920174 196.0
70.936157 120.0
70.991379 204.0
71.019104 136.0
71.042236 96.0
71.081177 176.0
71.108032 196.0
71.123848 168.0
71.144958 172.0
71.170105 176.0
71.186935 108.0
71.205414 168.0
71.218849 196.0
71.238091 312.0
71.285301 188.0
71.302521 164.0
71.326546 220.0
71.354927 144.0
71.366783 164.0
71.406891 128.0
71.427116 120.0
71.448357 128.0
71.46701 124.0
71.475685 120.0
71.48156 108.0
71.496735 304.0
71.511757 180.0
71.540039 92.0
71.573708 136.0
71.588867 152.0
71.602287 280.0
71.606499 272.0
71.634346 120.0
71.649574 188.0
71.662933 160.0
71.691628 220.0
71.703209 296.0
71.743881 136.0
71.755684 112.0
71.777603 84.0
71.789413 136.0
71.804977 140.0
71.834373 184.0
71.847481 188.0
71.880058 196.0
71.885193 144.0
71.889839 308.0
71.924973 416.0
71.965187 144.0
71.980103 168.0
71.99192 272.0
72.009285 284.0
72.033546 172.0
72.047745 352.0
72.083145 68.0
72.108086 132.0
72.115227 196.0
72.118378 128.0
72.140617 208.0
72.164612 184.0
72.195808 56.0
72.205811 108.0
72.220093 104.0
72.234459 160.0
72.247162 128.0
72.263351 140.0
72.280998 212.0
72.310913 216.0
72.338547 136.0
72.358574 168.0
72.376274 140.0
72.402626 184.0
72.406929 156.0
72.424362 200.0
72.446136 124.0
72.487129 176.0
72.490456 128.0
72.497757 136.0
72.536743 128.0
72.566307 156.0
72.596054 184.0
72.611351 160.0
72.628761 196.0
72.647331 248.0
72.67485 156.0
72.714905 124.0
72.737221 176.0
72.75042 180.0
72.753891 172.0
72.809845 244.0
72.8312 252.0
72.876488 176.0
72.88166 176.0
72.888924 216.0
72.894867 164.0
72.925461 176.0
72.947556 156.0
72.984718 140.0
72.989273 120.0
73.005058 176.0
73.034393 124.0
73.047638 160.0
73.064903 200.0
73.083817 104.0
73.091072 116.0
73.105385 152.0
73.12011 108.0
73.136375 88.0
73.161911 92.0
73.179146 208.0
73.187279 40.0
73.193588 192.0
73.229744 96.0
73.243652 128.0
73.26384 156.0
73.282997 172.0
73.311806 232.0
73.323738 160.0
73.352455 132.0
73.396202 268.0
73.417686 204.0
73.429832 124.0
73.436615 156.0
73.45932 132.0
73.494614 140.0
73.510147 144.0
73.547173 180.0
73.574402 152.0
73.580894 144.0
73.606934 116.0
73.637672 140.0
73.653854 188.0
73.686043 228.0
73.702591 128.0
73.724808 92.0
73.753098 116.0
73.765823 136.0
73.805603 256.0
73.838425 192.0
73.850815 148.0
73.855339 148.0
73.896149 140.0
73.940079 156.0
73.960838 364.0
73.976242 140.0
74.011711 140.0
74.024406 92.0
74.039597 120.0
74.053581 344.0
74.087494 320.0
74.109833 192.0
74.13382 148.0
74.148041 136.0
74.176674 192.0
74.197243 196.0
74.217171 148.0
74.234421 172.0
74.259514 296.0
74.279259 144.0
74.305298 84.0
74.323357 488.0
74.361877 136.0
74.396759 208.0
74.414505 332.0
74.442619 280.0
74.48246 212.0
74.506042 160.0
74.524086 168.0
74.537743 100.0
74.555153 168.0
74.592003 300.0
74.639702 168.0
74.66552 168.0
74.686676 192.0
74.703873 168.0
74.724205 132.0
74.754852 172.0
74.781311 64.0
74.808189 156.0
74.832954 72.0
74.889076 132.0
74.916977 168.0
74.923615 132.0
74.942009 152.0
74.961151 104.0
74.971855 120.0
74.99025 300.0
75.013481 112.0
75.027565 172.0
75.037094 92.0
75.05957 184.0
75.073235 188.0
75.094894 72.0
75.124924 216.0
75.141609 156.0
75.155869 200.0
75.170807 148.0
75.182892 192.0
75.207344 164.0
75.226044 40.0
75.239777 300.0
75.266273 300.0
75.291679 188.0
75.317177 160.0
75.324203 204.0
75.32708 252.0
75.34758 160.0
75.37458 128.0
75.396721 128.0
75.402672 172.0
75.417564 140.0
75.456627 136.0
75.467918 148.0
75.483124 156.0
75.527138 148.0
75.54081 444.0
75.561317 196.0
75.60112 96.0
75.618423 128.0
75.635399 144.0
75.646194 196.0
75.674591 144.0
75.687675 132.0
75.712837 332.0
75.731956 176.0
75.776009 132.0
75.806282 248.0
75.845276 128.0
75.847595 156.0
75.872391 144.0
75.912598 588.0
75.949692 108.0
75.968201 164.0
75.984886 152.0
75.99929 88.0
76.018768 104.0
76.034393 152.0
76.050011 128.0
76.063896 96.0
76.082993 152.0
76.103027 148.0
76.132812 256.0
76.138908 320.0
76.180077 172.0
76.214355 108.0
76.228241 180.0
76.234795 112.0
76.239388 112.0
76.265396 184.0
76.287994 120.0
76.310799 196.0
76.332619 212.0
76.359367 268.0
76.37616 80.0
76.380608 108.0
76.404518 144.0
76.421364 176.0
76.435837 116.0
76.460197 148.0
76.4972 232.0
76.51458 152.0
76.54364 112.0
76.562027 104.0
76.595535 88.0
76.599808 204.0
76.621964 116.0
76.650024 236.0
76.672676 104.0
76.693596 184.0
76.712357 188.0
76.727898 136.0
76.750153 256.0
76.77108 144.0
76.78714 92.0
76.792862 60.0
76.799248 148.0
76.819145 136.0
76.838577 200.0
76.853828 148.0
76.889748 164.0
76.916412 92.0
76.923233 68.0
76.926468 136.0
76.943054 104.0
76.974731 112.0
77.000809 168.0
77.021637 92.0
77.039108 120.0
77.070442 152.0
77.075073 164.0
77.10453 228.0
77.131691 244.0
77.155403 228.0
77.174767 264.0
77.219154 128.0
77.233147 152.0
77.256187 260.0
77.284538 236.0
77.299629 120.0
77.313553 172.0
77.318115 164.0
77.340057 124.0
77.373146 128.0
77.393997 356.0
77.456032 336.0
77.490395 128.0
77.530312 188.0
77.555336 140.0
77.572861 148.0
77.590103 144.0
77.616859 128.0
77.648094 336.0
77.674576 76.0
77.695625 164.0
77.727211 168.0
77.743576 172.0
77.783791 168.0
77.80619 172.0
77.819412 136.0
77.856407 324.0
77.861038 136.0
77.868752 288.0
77.886978 164.0
77.907394 340.0
77.925621 156.0
77.937927 160.0
77.959015 72.0
77.973465 108.0
77.996727 192.0
78.022903 128.0
78.036354 140.0
78.049568 208.0
78.060646 508.0
78.07328 116.0
78.089111 132.0
78.104942 96.0
78.120392 536.0
78.139328 184.0
78.150711 176.0
78.165565 88.0
78.189651 196.0
78.219322 128.0
78.241005 164.0
78.249115 252.0
78.254135 160.0
78.260269 216.0
78.282707 144.0
78.302727 164.0
78.327339 192.0
78.347504 188.0
78.364365 224.0
78.382195 236.0
78.409554 156.0
78.43708 168.0
78.450096 288.0
78.488495 228.0
78.505905 308.0
78.518867 92.0
78.543503 168.0
78.568619 192.0
78.578308 232.0
78.604866 144.0
78.632988 216.0
78.650131 192.0
78.663551 116.0
78.695763 132.0
78.734955 156.0
78.750984 156.0
78.754669 80.0
78.761299 124.0
78.783897 136.0
78.819588 288.0
78.842552 248.0
78.874176 180.0
78.903816 168.0
78.91964 152.0
78.945595 156.0
78.963715 156.0
78.994011 132.0
79.008949 156.0
79.026512 324.0
79.055611 208.0
79.081497 236.0
79.100594 124.0
79.119667 168.0
79.139221 268.0
79.156845 136.0
79.172493 144.0
79.197914 172.0
79.211708 160.0
79.255875 124.0
79.276451 240.0
79.294724 352.0
79.337578 132.0
79.351517 88.0
79.372154 244.0
79.379143 172.0
79.394684 156.0
79.41674 168.0
79.435875 144.0
79.463501 144.0
79.497757 92.0
79.514496 184.0
79.528816 172.0
79.546867 160.0
79.57151 140.0
79.604538 140.0
79.616158 328.0
79.654587 308.0
79.679932 164.0
79.706444 200.0
79.713524 164.0
79.720047 168.0
79.725494 140.0
79.744362 204.0
79.768539 252.0
79.780563 84.0
79.789314 144.0
79.810516 140.0
79.825073 160.0
79.847328 112.0
79.877441 280.0
79.890785 200.0
79.919846 204.0
79.948227 120.0
79.965401 212.0
80.016258 180.0
80.057373 188.0
80.084557 188.0
80.123116 148.0
80.1399 352.0
80.169853 156.0
80.194397 220.0
80.212593 252.0
80.251129 136.0
80.268814 140.0
80.275124 172.0
80.311798 152.0
80.340622 112.0
80.377678 296.0
80.395493 108.0
80.407761 372.0
80.418228 188.0
80.423653 136.0
80.442856 252.0
80.473999 344.0
80.506073 220.0
80.542343 184.0
80.585991 260.0
80.623436 176.0
80.64534 156.0
80.671005 176.0
80.704132 136.0
80.721313 148.0
80.749443 120.0
80.769005 120.0
80.783669 144.0
80.806931 164.0
80.823029 132.0
80.840927 124.0
80.89283 152.0
80.923271 132.0
80.960686 116.0
80.985405 172.0
81.000488 68.0
81.020309 156.0
81.046967 136.0
81.073692 316.0
81.105461 172.0
81.127617 140.0
81.14006 204.0
81.158379 264.0
81.198517 240.0
81.218971 228.0
81.231422 136.0
81.24852 76.0
81.26004 148.0
81.278969 316.0
81.310249 220.0
81.317207 192.0
81.344681 148.0
81.365318 164.0
81.379509 44.0
81.423584 316.0
81.460785 152.0
81.472031 128.0
81.500717 124.0
81.533409 144.0
81.555931 268.0
81.569237 136.0
81.610481 164.0
81.635651 140.0
81.663948 120.0
81.681557 184.0
81.726234 204.0
81.745392 272.0
81.769264 152.0
81.78862 236.0
81.811569 188.0
81.828194 148.0
81.872391 176.0
81.875374 236.0
81.896622 132.0
81.913643 172.0
81.945267 200.0
81.972565 160.0
81.991356 332.0
82.017349 336.0
82.033577 124.0
82.046928 168.0
82.070511 156.0
82.093674 144.0
82.112717 180.0
82.118034 172.0
82.124153 196.0
82.140373 196.0
82.159813 112.0
82.204926 176.0
82.253525 160.0
82.274277 308.0
82.289764 144.0
82.307816 100.0
82.322266 120.0
82.342926 212.0
82.360954 192.0
82.374641 180.0
82.400787 144.0
82.413437 148.0
82.431839 200.0
82.459038 216.0
82.492104 128.0
82.522842 172.0
82.543732 256.0
82.550446 176.0
82.55706 208.0
82.58252 164.0
82.60849 180.0
82.63269 136.0
82.647034 204.0
82.665741 304.0
82.685692 192.0
82.700531 344.0
82.739601 224.0
82.792854 396.0
82.805489 84.0
82.827301 172.0
82.841377 224.0
82.874168 124.0
82.894859 164.0
82.921822 304.0
82.944855 192.0
82.960983 176.0
83.002899 200.0
83.025688 140.0
83.040771 232.0
83.072868 184.0
83.082985 176.0
83.099625 156.0
83.134315 348.0
83.147758 136.0
83.15535 132.0
83.17141 72.0
83.18412 300.0
83.209534 100.0
83.24778 196.0
83.265686 104.0
83.289436 60.0
83.313057 140.0
83.343452 356.0
83.358421 120.0
83.379211 128.0
83.4021 172.0
83.42189 120.0
83.438461 96.0
83.462097 116.0
83.477158 184.0
83.496529 184.0
83.51165 128.0
83.528412 276.0
83.542122 164.0
83.572395 200.0
83.603447 148.0
83.617043 184.0
83.64949 112.0
83.669518 72.0
83.682259 136.0
83.717499 188.0
83.756927 160.0
83.771782 176.0
83.781158 140.0
83.849205 124.0
83.871727 44.0
83.891777 228.0
83.919128 88.0
83.935539 132.0
83.960678 132.0
83.990013 144.0
84.021263 68.0
84.06041 368.0
84.072838 152.0
84.096085 172.0
84.115639 148.0
84.137733 152.0
84.144844 124.0
84.15741 492.0
84.174591 168.0
84.190132 152.0
84.20929 40.0
84.227554 140.0
84.243698 100.0
84.258606 180.0
84.282578 136.0
84.294304 240.0
84.313431 136.0
84.33075 368.0
84.366386 144.0
84.406578 176.0
84.423119 128.0
84.436798 260.0
84.47982 176.0
84.52359 156.0
84.535065 168.0
84.541557 168.0
84.550003 124.0
84.561592 216.0
84.576584 160.0
84.598778 140.0
84.612366 292.0
84.631729 168.0
84.65136 184.0
84.655983 132.0
84.690338 140.0
84.712318 148.0
84.726837 164.0
84.733772 152.0
84.752625 48.0
84.773582 144.0
84.795647 236.0
84.823074 256.0
84.837486 176.0
84.872513 148.0
84.885162 176.0
84.903778 336.0
84.918839 120.0
84.932426 152.0
84.952469 128.0
84.979988 68.0
84.992836 200.0
85.014854 132.0
85.027702 172.0
85.056061 292.0
85.076027 244.0
85.098587 156.0
85.11763 300.0
85.122162 124.0
85.145882 116.0
85.159897 80.0
85.187988 220.0
85.228554 172.0
85.262184 316.0
85.316093 176.0
85.345566 128.0
85.37072 208.0
85.387123 236.0
85.420624 76.0
85.440346 152.0
85.457916 184.0
85.472435 152.0
85.493248 168.0
85.518234 208.0
85.564461 148.0
85.590027 204.0
85.611565 276.0
85.627953 92.0
85.650009 236.0
85.68792 136.0
85.701683 112.0
85.737617 100.0
85.759735 108.0
85.778168 176.0
85.800468 168.0
85.816711 144.0
85.823486 172.0
85.856934 284.0
85.869919 184.0
85.877129 168.0
85.902893 88.0
85.930466 72.0
85.971832 220.0
86.01326 204.0
86.049362 164.0
86.076027 304.0
86.090897 240.0
86.124001 120.0
86.145905 176.0
86.160179 68.0
86.174957 152.0
86.201019 400.0
86.223007 268.0
86.240326 292.0
86.265984 272.0
86.287704 176.0
86.299637 172.0
86.314224 432.0
86.334801 196.0
86.356125 164.0
86.39312 132.0
86.420876 380.0
86.435677 156.0
86.477592 216.0
86.555229 192.0
86.568962 124.0
86.589333 276.0
86.603027 244.0
86.635323 140.0
86.653633 248.0
86.692642 152.0
86.714188 196.0
86.732002 160.0
86.755074 204.0
86.78167 208.0
86.839554 212.0
86.867004 140.0
86.892365 172.0
86.931915 228.0
86.961349 112.0
87.019363 264.0
87.031517 136.0
87.053032 152.0
87.084557 196.0
87.106842 160.0
87.130463 152.0
87.140198 212.0
87.145859 208.0
87.156097 188.0
87.192162 268.0
87.2202 112.0
87.24176 128.0
87.266678 284.0
87.286797 156.0
87.317253 120.0
87.350555 192.0
87.367958 248.0
87.401924 264.0
87.424461 136.0
87.478905 196.0
87.497459 244.0
87.529037 96.0
87.544189 116.0
87.575928 136.0
87.592117 120.0
87.602806 172.0
87.620621 264.0
87.663162 184.0
87.676208 160.0
87.691116 120.0
87.730225 172.0
87.772156 204.0
87.789932 152.0
87.81414 224.0
87.826759 200.0
87.853958 172.0
87.877098 132.0
87.905594 112.0
87.969704 252.0
87.983879 416.0
88.001472 252.0
88.017593 112.0
88.03627 140.0
88.066154 136.0
88.083176 144.0
88.092148 96.0
88.096588 136.0
88.119789 180.0
88.146988 176.0
88.199905 124.0
88.219383 132.0
88.247429 148.0
88.273605 144.0
88.288567 88.0
88.308144 120.0
88.337769 136.0
88.362663 164.0
88.401108 180.0
88.417656 108.0
88.440887 408.0
88.45388 136.0
88.570724 160.0
88.600212 124.0
88.633018 228.0
88.656799 156.0
88.669296 168.0
88.685493 132.0
88.69838 128.0
88.752518 128.0
88.764236 216.0
88.783371 176.0
88.82238 120.0
88.841133 192.0
88.874062 212.0
88.903023 224.0
88.921822 176.0
88.934959 132.0
88.957489 192.0
88.983864 244.0
89.038315 848.0
89.064522 64.0
89.094582 184.0
89.120964 200.0
89.133263 184.0
89.162735 192.0
89.203369 268.0
89.229897 164.0
89.25956 124.0
89.277481 308.0
89.307632 300.0
89.327644 156.0
89.348389 100.0
89.367203 144.0
89.389717 108.0
89.417854 192.0
89.435036 316.0
89.451897 116.0
89.474968 172.0
89.504608 68.0
89.542862 232.0
89.56665 224.0
89.595932 116.0
89.645241 380.0
89.65892 180.0
89.677956 160.0
89.697052 192.0
89.715637 196.0
89.738258 128.0
89.780586 116.0
89.810661 184.0
89.842117 180.0
89.924698 136.0
89.962234 168.0
89.967117 120.0
89.97599 84.0
89.980331 120.0
89.996109 276.0
90.012405 256.0
90.039528 152.0
90.055954 168.0
90.0923 164.0
90.143524 232.0
90.174881 152.0
90.225983 124.0
90.242722 228.0
90.250397 188.0
90.256523 84.0
90.265762 144.0
90.273643 136.0
90.278976 164.0
90.296219 180.0
90.332657 148.0
90.363441 136.0
90.395607 120.0
90.423996 104.0
90.446709 512.0
90.471321 220.0
90.494034 164.0
90.52137 272.0
90.539482 120.0
90.56897 108.0
90.603889 172.0
90.636635 156.0
90.652443 268.0
90.688126 212.0
90.721497 276.0
90.736557 60.0
90.753624 112.0
90.785225 204.0
90.819077 196.0
90.843834 280.0
90.863152 180.0
90.886398 84.0
90.902916 168.0
90.920555 96.0
90.95359 168.0
90.982491 188.0
91.013573 84.0
91.030663 104.0
91.052185 72.0
91.078148 160.0
91.092278 128.0
91.106117 204.0
91.122757 164.0
91.157166 108.0
91.183472 172.0
91.209259 204.0
91.230637 148.0
91.256157 132.0
91.269531 188.0
91.289574 196.0
91.365303 352.0
91.371346 208.0
91.400909 220.0
91.441315 192.0
91.461746 60.0
91.469093 128.0
91.497536 224.0
91.523102 136.0
91.544693 172.0
91.568878 172.0
91.598991 208.0
91.62886 156.0
91.648888 148.0
91.665039 160.0
91.685097 140.0
91.69883 176.0
91.722954 260.0
91.727684 128.0
91.753723 120.0
91.778503 76.0
91.797874 128.0
91.812553 136.0
91.824455 144.0
91.870056 204.0
91.88903 152.0
91.925392 176.0
91.942566 116.0
91.955673 288.0
92.001289 148.0
92.024521 244.0
92.049088 60.0
92.082359 220.0
92.097778 136.0
92.132545 132.0
92.147339 136.0
92.164085 204.0
92.181282 88.0
92.209946 152.0
92.240646 204.0
92.255615 144.0
92.282593 120.0
92.313187 216.0
92.334717 176.0
92.361 128.0
92.376678 144.0
92.395439 144.0
92.428093 344.0
92.450813 156.0
92.518227 200.0
92.556915 232.0
92.574516 172.0
92.612762 312.0
92.634743 128.0
92.683525 216.0
92.710831 528.0
92.714737 144.0
92.753548 232.0
92.769753 300.0
92.78801 176.0
92.807777 140.0
92.824409 100.0
92.863831 164.0
92.870041 128.0
92.874878 176.0
92.913551 120.0
92.922256 136.0
92.945335 128.0
92.972847 444.0
92.995239 140.0
93.021309 144.0
93.041306 124.0
93.07531 124.0
93.104675 180.0
93.145012 108.0
93.158455 312.0
93.198112 160.0
93.213593 384.0
93.244164 192.0
93.249237 248.0
93.271835 88.0
93.299004 208.0
93.315292 172.0
93.375153 212.0
93.38913 300.0
93.425674 124.0
93.445526 164.0
93.487251 128.0
93.516121 184.0
93.530853 128.0
93.547432 236.0
93.580101 136.0
93.599472 136.0
93.620552 216.0
93.636726 156.0
93.640656 100.0
93.669815 156.0
93.673111 128.0
93.697067 220.0
93.720772 224.0
93.745308 92.0
93.776115 312.0
93.798897 144.0
93.824623 160.0
93.874222 124.0
93.901329 112.0
93.955482 168.0
93.987427 172.0
94.019608 136.0
94.046181 180.0
94.066811 192.0
94.080154 80.0
94.135704 152.0
94.167671 316.0
94.197556 132.0
94.206367 88.0
94.213394 128.0
94.247093 116.0
94.26442 112.0
94.301338 164.0
94.328201 128.0
94.348549 160.0
94.389069 180.0
94.415367 148.0
94.447533 152.0
94.475037 120.0
94.492813 168.0
94.519676 140.0
94.556442 152.0
94.581177 180.0
94.597252 192.0
94.623428 232.0
94.642593 136.0
94.674324 212.0
94.681091 188.0
94.688751 284.0
94.732651 140.0
94.776009 212.0
94.801018 212.0
94.840973 316.0
94.859077 140.0
94.891167 124.0
94.914635 76.0
94.935081 364.0
94.978645 116.0
94.993965 412.0
95.023933 180.0
95.042862 108.0
95.085556 96.0
95.12632 108.0
95.147675 140.0
95.163101 148.0
95.169083 140.0
95.177513 152.0
95.18306 196.0
95.216095 152.0
95.254486 176.0
95.302757 236.0
95.358521 192.0
95.382736 188.0
95.422981 228.0
95.442696 124.0
95.485405 176.0
95.506821 336.0
95.534988 164.0
95.590843 144.0
95.611954 160.0
95.630402 272.0
95.684906 308.0
95.70311 196.0
95.71666 360.0
95.740486 196.0
95.747299 164.0
95.751587 136.0
95.776222 320.0
95.79274 156.0
95.827911 176.0
95.872025 156.0
95.906357 140.0
95.929535 108.0
95.98584 272.0
96.046494 244.0
96.062401 172.0
96.082253 204.0
96.108231 140.0
96.13092 144.0
96.178055 152.0
96.183929 172.0
96.192711 160.0
96.245819 196.0
96.270134 300.0
96.298012 320.0
96.313988 236.0
96.331757 128.0
96.347382 132.0
96.372658 192.0
96.39357 240.0
96.407417 232.0
96.433365 200.0
96.457794 184.0
96.465988 208.0
96.470764 208.0
96.49926 164.0
96.524208 300.0
96.53894 188.0
96.556335 76.0
96.593704 128.0
96.609352 148.0
96.627129 184.0
96.664955 172.0
96.687912 136.0
96.705994 124.0
96.72802 136.0
96.742844 332.0
96.772438 364.0
96.789421 272.0
96.81488 224.0
96.836243 196.0
96.848518 160.0
96.865807 116.0
96.882301 76.0
96.899757 168.0
96.942215 160.0
96.961815 184.0
96.982689 724.0
97.016701 212.0
97.030647 208.0
97.065529 212.0
97.080704 212.0
97.102661 168.0
97.125534 272.0
97.129021 216.0
97.162102 144.0
97.18145 132.0
97.212929 188.0
97.228546 148.0
97.247192 144.0
97.300545 144.0
97.334068 144.0
97.341026 148.0
97.348473 228.0
97.365974 236.0
97.40255 180.0
97.434784 252.0
97.45845 196.0
97.499847 292.0
97.516365 176.0
97.532982 196.0
97.556526 156.0
97.584099 92.0
97.613594 364.0
97.66449 132.0
97.692268 184.0
97.721779 168.0
97.762024 164.0
97.806404 172.0
97.824326 232.0
97.855034 108.0
97.872665 236.0
97.896973 344.0
97.944275 232.0
97.971817 184.0
97.986893 228.0
98.011879 120.0
98.02993 228.0
98.082703 120.0
98.109528 128.0
98.117371 108.0
98.127449 112.0
98.146263 152.0
98.167816 208.0
98.184273 164.0
98.217949 140.0
98.225861 120.0
98.250404 220.0
98.275284 144.0
98.306168 120.0
98.3256 116.0
98.350349 168.0
98.378731 168.0
98.40374 140.0
98.421509 124.0
98.440071 80.0
98.480759 132.0
98.502266 144.0
98.52787 160.0
98.554291 108.0
98.601219 132.0
98.606407 128.0
98.628738 148.0
98.660881 224.0
98.691643 152.0
98.704796 244.0
98.736404 128.0
98.771545 156.0
98.786934 144.0
98.792145 176.0
98.832283 164.0
98.854424 180.0
98.878342 540.0
98.919922 176.0
98.975357 136.0
98.999107 4516.0
99.032425 268.0
99.060341 168.0
99.076187 148.0
99.132607 212.0
99.156731 260.0
99.206085 132.0
99.228333 112.0
99.235374 164.0
99.259857 120.0
99.287651 100.0
99.309074 276.0
99.329941 132.0
99.353745 80.0
99.375572 168.0
99.424759 152.0
99.450516 188.0
99.468849 360.0
99.493744 200.0
99.508087 172.0
99.530418 160.0
99.549149 72.0
99.569801 104.0
99.595932 108.0
99.612518 396.0
99.630653 164.0
99.6717 176.0
99.723099 160.0
99.754898 80.0
99.770805 132.0
99.786713 96.0
99.809502 156.0
99.842216 140.0
99.857018 116.0
99.880699 252.0
99.909523 220.0
99.927925 188.0
99.945564 316.0
99.952423 128.0
99.971703 152.0
100.001976 248.0
100.03186 160.0
100.053314 164.0
100.067253 184.0
100.089149 144.0
100.126991 352.0
100.158859 148.0
100.203033 160.0
100.241081 164.0
100.284393 108.0
100.30632 172.0
100.338615 160.0
100.366127 148.0
100.402023 156.0
100.424721 148.0
100.451889 168.0
100.484367 164.0
100.504944 176.0
100.529625 172.0
100.561638 148.0
100.587532 144.0
100.623619 156.0
100.676407 140.0
100.709717 320.0
100.747345 136.0
100.7658 168.0
100.797295 128.0
100.819885 276.0
100.856659 168.0
100.897232 228.0
100.919411 176.0
100.965065 324.0
100.974754 120.0
100.997978 608.0
101.020226 160.0
101.046173 172.0
101.071243 180.0
101.093262 140.0
101.139137 172.0
101.172699 140.0
101.188591 160.0
101.215797 168.0
101.234726 216.0
101.262619 304.0
101.311508 200.0
101.332436 108.0
101.355591 136.0
101.383644 256.0
101.40274 288.0
101.416489 360.0
101.446449 468.0
101.484879 144.0
101.525986 136.0
101.554062 216.0
101.591293 172.0
101.631241 352.0
101.649513 236.0
101.653374 136.0
101.669487 356.0
101.719353 224.0
101.736671 180.0
101.752411 300.0
101.776115 180.0
101.789352 152.0
101.806946 120.0
101.827324 192.0
101.885284 128.0
101.901749 148.0
101.925125 116.0
101.979248 184.0
101.999016 188.0
102.042252 312.0
102.076904 264.0
102.09301 280.0
102.11084 136.0
102.148155 184.0
102.16272 148.0
102.200951 28.0
102.237167 336.0
102.251892 316.0
102.277428 176.0
102.317093 244.0
102.3367 316.0
102.353928 124.0
102.388161 132.0
102.414345 176.0
102.45665 128.0
102.483429 124.0
102.501617 140.0
102.545319 120.0
102.559425 112.0
102.593697 112.0
102.635612 176.0
102.643188 168.0
102.676094 148.0
102.699715 132.0
102.724365 176.0
102.748985 172.0
102.789131 384.0
102.806816 212.0
102.837524 128.0
102.845703 112.0
102.872093 152.0
102.927673 136.0
102.933228 72.0
102.940796 156.0
102.977097 188.0
102.992668 184.0
103.04454 248.0
103.062599 196.0
103.09832 116.0
103.137115 296.0
103.153503 184.0
103.17775 324.0
103.193016 156.0
103.21759 104.0
103.236725 180.0
103.269264 152.0
103.295959 184.0
103.30764 152.0
103.378036 184.0
103.418961 260.0
103.451782 396.0
103.482658 164.0
103.502907 176.0
103.517082 148.0
103.56398 256.0
103.594406 112.0
103.619225 196.0
103.635712 276.0
103.650337 164.0
103.654388 128.0
103.683205 56.0
103.707527 176.0
103.724457 140.0
103.798759 116.0
103.838684 128.0
103.88324 184.0
103.921043 180.0
103.950897 84.0
103.97731 260.0
104.00473 236.0
104.008972 124.0
104.017876 188.0
104.023575 124.0
104.055496 128.0
104.086128 132.0
104.131721 168.0
104.151894 136.0
104.173805 148.0
104.19973 168.0
104.230919 156.0
104.249039 276.0
104.28553 120.0
104.304298 108.0
104.3312 120.0
104.346199 228.0
104.379662 120.0
104.406425 192.0
104.446922 144.0
104.461884 140.0
104.477997 316.0
104.544418 68.0
104.57605 136.0
104.588036 392.0
104.601738 164.0
104.621597 204.0
104.627815 128.0
104.635284 220.0
104.673805 220.0
104.71199 208.0
104.748268 204.0
104.767365 188.0
104.801384 208.0
104.856491 248.0
104.879684 176.0
104.910934 148.0
104.939011 124.0
104.964912 232.0
104.984528 252.0
104.997215 192.0
105.013496 152.0
105.033287 72.0
105.066673 188.0
105.082253 172.0
105.10627 192.0
105.147484 124.0
105.173363 164.0
105.196167 132.0
105.211311 136.0
105.247581 104.0
105.267586 136.0
105.28434 208.0
105.305237 52.0
105.328468 268.0
105.349968 216.0
105.365349 232.0
105.386795 208.0
105.414917 144.0
105.429871 220.0
105.461517 212.0
105.4832 136.0
105.518257 192.0
105.535789 160.0
105.572777 268.0
105.584633 120.0
105.589645 220.0
105.604416 204.0
105.628578 100.0
105.657127 196.0
105.672218 64.0
105.689102 172.0
105.72184 36.0
105.743248 96.0
105.764824 84.0
105.791435 116.0
105.811905 120.0
105.839813 260.0
105.887917 184.0
105.917648 160.0
105.97718 156.0
106.010597 152.0
106.037239 200.0
106.051186 144.0
106.076569 192.0
106.163506 132.0
106.19101 92.0
106.206482 184.0
106.242157 320.0
106.265869 204.0
106.294098 200.0
106.328476 160.0
106.356781 228.0
106.379517 384.0
106.407471 216.0
106.428116 112.0
106.473358 144.0
106.494041 44.0
106.532227 160.0
106.560837 132.0
106.579124 148.0
106.601761 160.0
106.625557 136.0
106.653542 156.0
106.671501 148.0
106.689308 212.0
106.695702 140.0
106.702797 180.0
106.725502 300.0
106.741577 96.0
106.765831 164.0
106.781235 120.0
106.79528 164.0
106.82531 156.0
106.85392 200.0
106.860237 276.0
106.886063 124.0
106.901863 152.0
106.940964 140.0
106.959709 192.0
106.990128 172.0
107.011856 304.0
107.040382 216.0
107.055832 116.0
107.089211 132.0
107.11013 232.0
107.148956 196.0
107.176453 232.0
107.183365 40.0
107.18924 116.0
107.21492 208.0
107.23716 164.0
107.264359 276.0
107.288864 136.0
107.303734 360.0
107.323196 156.0
107.340645 192.0
107.356186 172.0
107.3741 320.0
107.391205 132.0
107.400009 204.0
107.440254 192.0
107.502701 172.0
107.538704 168.0
107.566498 200.0
107.590309 192.0
107.608887 284.0
107.639862 144.0
107.664642 108.0
107.703941 308.0
107.734871 120.0
107.758804 192.0
107.788589 96.0
107.819977 200.0
107.841812 176.0
107.871147 136.0
107.888245 240.0
107.914566 212.0
107.929649 188.0
107.946671 128.0
107.987144 184.0
108.023392 172.0
108.038254 128.0
108.080673 48.0
108.102577 228.0
108.131889 260.0
108.154129 140.0
108.198807 148.0
108.218834 196.0
108.247696 192.0
108.287231 148.0
108.304497 132.0
108.341034 104.0
108.368889 144.0
108.39283 88.0
108.419434 148.0
108.451248 192.0
108.486061 204.0
108.540009 152.0
108.554718 392.0
108.610756 256.0
108.645271 192.0
108.662384 184.0
108.698936 360.0
108.716248 184.0
108.762001 88.0
108.78772 320.0
108.831383 196.0
108.865181 276.0
108.898087 212.0
108.917633 208.0
108.943848 276.0
108.959076 212.0
108.993088 280.0
109.031006 116.0
109.055634 208.0
109.073898 184.0
109.100449 108.0
109.107315 140.0
109.134972 128.0
109.162987 40.0
109.185005 176.0
109.1968 108.0
109.23362 108.0
109.252426 156.0
109.27803 352.0
109.290436 148.0
109.308601 168.0
109.334145 140.0
109.391296 120.0
109.424393 268.0
109.454086 144.0
109.481384 132.0
109.5448 72.0
109.549385 188.0
109.557014 104.0
109.576553 128.0
109.582047 248.0
109.626503 152.0
109.661858 200.0
109.676468 152.0
109.695778 188.0
109.720802 312.0
109.735649 200.0
109.758545 192.0
109.787682 132.0
109.813362 352.0
109.836548 340.0
109.913513 152.0
109.931686 176.0
109.954643 152.0
109.979691 184.0
110.004738 76.0
110.023109 160.0
110.050468 168.0
110.075615 72.0
110.083008 140.0
110.104118 176.0
110.12645 196.0
110.147339 112.0
110.177063 116.0
110.191055 144.0
110.286545 256.0
110.315239 152.0
110.32341 96.0
110.404572 112.0
110.425194 208.0
110.452858 72.0
110.460007 116.0
110.485893 116.0
110.526337 156.0
110.546082 136.0
110.573288 120.0
110.596107 124.0
110.604385 112.0
110.607803 220.0
110.637039 336.0
110.660164 88.0
110.689575 212.0
110.709373 120.0
110.72403 88.0
110.757545 352.0
110.783554 168.0
110.8162 148.0
110.856018 164.0
110.876976 84.0
110.897934 180.0
110.935997 160.0
110.956627 116.0
110.984108 120.0
111.021629 392.0
111.044052 168.0
111.058273 188.0
111.081818 144.0
111.104454 124.0
111.145042 280.0
111.17688 132.0
111.223053 168.0
111.283775 160.0
111.314903 176.0
111.329231 168.0
111.363914 328.0
111.395241 100.0
111.418076 332.0
111.459793 144.0
111.477188 100.0
111.495972 128.0
111.507614 176.0
111.553055 124.0
111.567566 188.0
111.591934 136.0
111.614082 180.0
111.653442 224.0
111.680901 224.0
111.706367 168.0
111.721092 152.0
111.75853 136.0
111.782608 332.0
111.797691 356.0
111.828407 172.0
111.848198 160.0
111.876823 132.0
111.909813 84.0
111.915031 192.0
111.942253 176.0
111.982758 260.0
111.995995 196.0
112.029373 128.0
112.054909 196.0
112.074585 248.0
112.093773 136.0
112.145454 160.0
112.16111 164.0
112.195885 164.0
112.230782 108.0
112.248955 136.0
112.287964 208.0
112.304596 116.0
112.329414 220.0
112.361557 156.0
112.39286 296.0
112.434639 300.0
112.463806 88.0
112.483803 276.0
112.51516 440.0
112.543533 200.0
112.559959 164.0
112.602783 280.0
112.655151 288.0
112.668808 228.0
112.687737 244.0
112.711067 160.0
112.739059 168.0
112.785774 148.0
112.803513 132.0
112.81115 140.0
112.862137 80.0
112.928764 252.0
112.967041 212.0
113.017632 148.0
113.07785 308.0
113.125809 96.0
113.154694 208.0
113.179047 176.0
113.20282 336.0
113.230354 136.0
113.264946 196.0
113.288498 80.0
113.321442 152.0
113.353134 180.0
113.372299 148.0
113.420708 124.0
113.428947 204.0
113.448097 116.0
113.46981 148.0
113.497375 160.0
113.51796 232.0
113.552513 136.0
113.578812 260.0
113.594627 84.0
113.624268 152.0
113.675049 100.0
113.681572 120.0
113.687019 200.0
113.72641 104.0
113.743477 168.0
113.775047 156.0
113.813354 140.0
113.820839 128.0
113.858826 92.0
113.909401 236.0
113.93692 184.0
113.966469 192.0
113.986977 160.0
114.00441 380.0
114.063866 368.0
114.105049 300.0
114.140457 240.0
114.152184 164.0
114.17469 148.0
114.202896 340.0
114.218941 212.0
114.24572 180.0
114.272652 136.0
114.291801 124.0
114.317337 96.0
114.346664 128.0
114.361465 120.0
114.381187 128.0
114.440796 144.0
114.472092 132.0
114.478294 92.0
114.543022 180.0
114.581268 176.0
114.587311 188.0
114.595322 260.0
114.614311 52.0
114.619232 224.0
114.703293 236.0
114.727051 112.0
114.748718 132.0
114.769035 112.0
114.783859 212.0
114.800919 216.0
114.820053 136.0
114.833717 204.0
114.871719 164.0
114.890396 76.0
114.906494 308.0
114.946625 200.0
114.956146 168.0
114.960228 160.0
114.997803 196.0
115.016411 172.0
115.050491 324.0
115.055984 112.0
115.066597 220.0
115.093185 164.0
115.111176 280.0
115.148842 360.0
115.200058 168.0
115.249619 176.0
115.270195 216.0
115.279732 124.0
115.315445 76.0
115.368095 312.0
115.38813 124.0
115.405975 104.0
115.439445 152.0
115.461342 152.0
115.48436 84.0
115.516151 144.0
115.582703 192.0
115.617584 180.0
115.622536 48.0
115.644531 128.0
115.662804 192.0
115.687851 124.0
115.711197 372.0
115.74147 196.0
115.772881 168.0
115.792427 364.0
115.799019 212.0
115.84729 176.0
115.913597 260.0
115.986359 216.0
116.023994 96.0
116.041145 260.0
116.076355 124.0
116.101189 152.0
116.138268 224.0
116.161041 356.0
116.19252 308.0
116.215889 332.0
116.243835 176.0
116.281853 268.0
116.309311 184.0
116.331886 124.0
116.347954 164.0
116.384995 216.0
116.418808 180.0
116.446289 340.0
116.461761 176.0
116.478951 144.0
116.499619 252.0
116.534325 180.0
116.549355 172.0
116.604156 308.0
116.612671 224.0
116.640114 188.0
116.658867 496.0
116.691536 132.0
116.728264 100.0
116.749763 156.0
116.778976 156.0
116.808388 164.0
116.850868 232.0
116.883759 148.0
116.911316 160.0
116.946114 184.0
116.974884 128.0
117.00798 152.0
117.048798 184.0
117.106483 200.0
117.115654 124.0
117.120781 200.0
117.13604 208.0
117.15284 228.0
117.175659 188.0
117.214569 136.0
117.249237 128.0
117.282204 176.0
117.286674 152.0
117.320374 172.0
117.339699 336.0
117.353363 272.0
117.369965 168.0
117.397995 252.0
117.430344 136.0
117.44976 156.0
117.481445 320.0
117.512321 148.0
117.539505 172.0
117.592163 308.0
117.610603 148.0
117.633179 104.0
117.654175 116.0
117.668404 152.0
117.713402 128.0
117.757683 164.0
117.785637 200.0
117.815765 136.0
117.831863 192.0
117.864273 196.0
117.884628 124.0
117.909523 128.0
117.94136 188.0
117.974503 60.0
117.993958 112.0
118.011223 140.0
118.043747 156.0
118.073967 128.0
118.113319 196.0
118.135979 444.0
118.183601 212.0
118.191452 144.0
118.200119 256.0
118.217667 180.0
118.242561 212.0
118.281685 60.0
118.313194 188.0
118.326836 140.0
118.333336 224.0
118.368286 124.0
118.383446 132.0
118.413765 148.0
118.433258 292.0
118.460274 264.0
118.497673 196.0
118.532921 300.0
118.554588 88.0
118.573944 168.0
118.600403 112.0
118.628159 192.0
118.67598 148.0
118.74427 108.0
118.774376 184.0
118.820984 276.0
118.866043 188.0
118.885445 236.0
118.911171 252.0
118.949562 156.0
118.983917 164.0
119.035446 176.0
119.051392 136.0
119.088081 152.0
119.110992 208.0
119.153618 200.0
119.176117 268.0
119.220146 140.0
119.227448 304.0
119.259331 168.0
119.265038 120.0
119.273827 276.0
119.294281 112.0
119.314095 160.0
119.319626 144.0
119.368668 176.0
119.401291 172.0
119.418694 132.0
119.455994 268.0
119.477234 412.0
119.502769 148.0
119.516586 256.0
119.538345 112.0
119.581352 200.0
119.608772 268.0
119.653664 200.0
119.686867 140.0
119.709503 148.0
119.730682 188.0
119.778 152.0
119.810516 144.0
119.829895 108.0
119.8685 220.0
119.888695 140.0
119.925369 324.0
119.948807 192.0
119.982422 416.0
120.028366 176.0
120.079361 120.0
120.083542 160.0
120.107742 160.0
120.137794 172.0
120.165688 296.0
120.186699 196.0
120.195351 112.0
120.253181 136.0
120.269325 152.0
120.294655 168.0
120.327469 140.0
120.407402 152.0
120.442757 156.0
120.470482 148.0
120.484703 340.0
120.537094 176.0
120.553642 144.0
120.571526 296.0
120.596497 132.0
120.631416 268.0
120.647667 156.0
120.653343 192.0
120.686722 168.0
120.726242 252.0
120.75946 168.0
120.781342 156.0
120.814903 132.0
120.840363 144.0
120.854942 156.0
120.896614 328.0
120.924187 40.0
120.949486 136.0
121.002991 120.0
121.026505 108.0
121.044594 128.0
121.083427 120.0
121.113167 204.0
121.134018 140.0
121.182144 480.0
121.202171 128.0
121.205742 120.0
121.244812 152.0
121.277992 336.0
121.312096 132.0
121.327599 196.0
121.353493 192.0
121.383827 204.0
121.407051 192.0
121.420341 140.0
121.448128 192.0
121.479347 220.0
121.49675 140.0
121.522316 144.0
121.557968 188.0
121.592659 60.0
121.618721 280.0
121.649734 60.0
121.686249 284.0
121.723686 140.0
121.735519 312.0
121.75293 96.0
121.775993 272.0
121.792465 160.0
121.816132 176.0
121.836403 168.0
121.853981 156.0
121.886314 312.0
121.908913 192.0
121.951523 72.0
121.978363 316.0
122.000359 332.0
122.021019 112.0
122.056198 40.0
122.080383 40.0
122.105476 324.0
122.130608 180.0
122.146698 188.0
122.157234 132.0
122.162079 176.0
122.181564 208.0
122.204216 176.0
122.24395 204.0
122.269402 144.0
122.276459 132.0
122.283119 160.0
122.292107 156.0
122.301163 104.0
122.322205 176.0
122.343079 176.0
122.361977 276.0
122.395065 304.0
122.432083 148.0
122.463341 128.0
122.485367 352.0
122.505783 192.0
122.607819 148.0
122.640198 164.0
122.650406 200.0
122.679283 268.0
122.70105 252.0
122.714729 160.0
122.743805 184.0
122.780716 196.0
122.824928 92.0
122.847672 328.0
122.873306 160.0
122.905884 92.0
122.922005 268.0
122.944778 344.0
122.961784 224.0
122.999466 37356.0
123.038834 260.0
123.057098 212.0
123.091881 116.0
123.12252 252.0
123.148399 180.0
123.178703 80.0
123.196838 232.0
123.213531 156.0
123.238327 188.0
123.24807 152.0
123.292915 180.0
123.317009 164.0
123.326469 208.0
123.353378 252.0
123.36454 128.0
123.399017 112.0
123.420189 132.0
123.451241 52.0
123.465561 304.0
123.491997 288.0
123.524918 112.0
123.539566 320.0
123.582596 180.0
123.604729 72.0
123.669052 164.0
123.708748 176.0
123.72419 144.0
123.737968 204.0
123.756989 280.0
123.797745 124.0
123.814896 160.0
123.837509 164.0
123.859329 92.0
123.8843 148.0
123.908073 152.0
123.938622 132.0
123.961288 284.0
124.006332 11020.0
124.077553 68.0
124.092857 128.0
124.099464 176.0
124.12146 164.0
124.180443 280.0
124.198654 100.0
124.214134 200.0
124.2836 184.0
124.308998 172.0
124.334274 136.0
124.378212 160.0
124.408447 148.0
124.421638 116.0
124.444466 280.0
124.476494 104.0
124.495888 164.0
124.513657 156.0
124.533646 132.0
124.583458 364.0
124.610359 172.0
124.63269 248.0
124.673851 148.0
124.702507 128.0
124.723427 116.0
124.742813 120.0
124.773643 56.0
124.800323 312.0
124.844307 284.0
124.892242 72.0
124.91732 132.0
124.937645 204.0
124.943932 240.0
124.967598 288.0
124.996223 12076.0
125.032021 236.0
125.058868 276.0
125.091774 120.0
125.1465 96.0
125.151085 112.0
125.177452 220.0
125.204681 272.0
125.231354 140.0
125.269501 176.0
125.330048 212.0
125.368034 124.0
125.392838 172.0
125.417946 144.0
125.437057 80.0
125.454247 304.0
125.472725 196.0
125.514687 168.0
125.535156 200.0
125.572151 116.0
125.599373 116.0
125.61615 296.0
125.645996 128.0
125.663445 172.0
125.709267 172.0
125.795219 156.0
125.831932 92.0
125.849792 124.0
125.88105 196.0
125.896683 144.0
125.920593 136.0
125.942329 192.0
125.95713 320.0
125.97554 132.0
126.003868 3588.0
126.046356 128.0
126.078331 160.0
126.125595 132.0
126.156685 332.0
126.175255 216.0
126.199036 92.0
126.225189 204.0
126.245102 128.0
126.279518 164.0
126.329041 204.0
126.356827 192.0
126.362427 124.0
126.401909 188.0
126.419807 132.0
126.446663 164.0
126.4711 144.0
126.488312 276.0
126.537987 156.0
126.578934 336.0
126.621048 288.0
126.655365 116.0
126.691719 296.0
126.731857 228.0
126.751007 164.0
126.780365 132.0
126.813522 232.0
126.838638 116.0
126.863121 148.0
126.901276 192.0
126.923721 164.0
126.938362 344.0
126.968277 160.0
127.008759 304.0
127.028557 156.0
127.043068 400.0
127.05986 180.0
127.068993 112.0
127.07988 260.0
127.084007 196.0
127.110023 156.0
127.134132 388.0
127.148994 164.0
127.168884 176.0
127.19133 264.0
127.208778 164.0
127.243477 164.0
127.263428 128.0
127.291992 120.0
127.305824 168.0
127.350998 164.0
127.388428 136.0
127.424309 144.0
127.446327 140.0
127.481728 128.0
127.528351 204.0
127.552467 120.0
127.572701 136.0
127.596184 160.0
127.619919 140.0
127.653481 108.0
127.680634 192.0
127.696373 80.0
127.721954 236.0
127.761612 204.0
127.795601 264.0
127.829063 200.0
127.848938 168.0
127.88121 300.0
127.895912 88.0
127.922386 188.0
127.939133 136.0
127.97744 232.0
127.980537 112.0
128.006271 160.0
128.04213 168.0
128.114838 344.0
128.189758 216.0
128.228119 116.0
128.2435 144.0
128.268021 128.0
128.284439 180.0
128.308228 224.0
128.323853 372.0
128.362427 220.0
128.423889 180.0
128.446442 132.0
128.468826 156.0
128.507355 172.0
128.522079 168.0
128.550232 192.0
128.583878 296.0
128.624252 196.0
128.630173 144.0
128.648865 132.0
128.692627 212.0
128.714539 148.0
128.762115 112.0
128.792572 176.0
128.822098 188.0
128.854431 156.0
128.886688 48.0
128.922318 136.0
128.953217 156.0
128.975311 188.0
128.99292 164.0
129.022614 180.0
129.038376 408.0
129.052673 204.0
129.0811 160.0
129.097626 148.0
129.126266 160.0
129.144424 232.0
129.162521 120.0
129.189667 216.0
129.220581 144.0
129.256699 344.0
129.263123 128.0
129.269257 140.0
129.334488 152.0
129.364944 172.0
129.390549 272.0
129.443161 220.0
129.465576 176.0
129.492477 152.0
129.547348 84.0
129.574387 124.0
129.608521 224.0
129.632141 140.0
129.653198 140.0
129.667389 520.0
129.697983 156.0
129.714188 148.0
129.743408 68.0
129.762268 188.0
129.801193 124.0
129.832245 168.0
129.907791 172.0
129.937286 100.0
129.956024 140.0
129.973022 248.0
129.98468 104.0
129.989471 184.0
130.008102 196.0
130.024643 152.0
130.046219 144.0
130.062103 80.0
130.079987 168.0
130.114807 168.0
130.133026 248.0
130.168808 136.0
130.211456 176.0
130.229309 100.0
130.246811 128.0
130.270432 108.0
130.283539 164.0
130.304031 204.0
130.329926 160.0
130.368851 144.0
130.386902 200.0
130.412964 164.0
130.453888 136.0
130.460144 140.0
130.489136 168.0
130.541489 292.0
130.577942 164.0
130.600693 180.0
130.611374 132.0
130.615921 104.0
130.6315 140.0
130.636154 116.0
130.652954 156.0
130.70755 88.0
130.73259 152.0
130.752502 228.0
130.788635 232.0
130.818375 172.0
130.850952 144.0
130.884995 348.0
130.933914 176.0
130.954163 148.0
131.012131 140.0
131.049042 128.0
131.057373 172.0
131.067627 236.0
131.096954 136.0
131.128525 264.0
131.15213 184.0
131.171082 172.0
131.196518 176.0
131.213028 148.0
131.2453 164.0
131.264099 176.0
131.295303 184.0
131.310654 180.0
131.367859 128.0
131.412445 148.0
131.439026 136.0
131.470139 112.0
131.510941 256.0
131.517853 132.0
131.5242 196.0
131.539444 228.0
131.566025 148.0
131.626205 116.0
131.644928 200.0
131.674164 96.0
131.700562 192.0
131.726547 196.0
131.748383 144.0
131.787384 156.0
131.811234 148.0
131.818405 344.0
131.846558 96.0
131.8806 180.0
131.928696 304.0
131.985809 96.0
132.005203 352.0
132.011475 300.0
132.047333 220.0
132.057541 140.0
132.06691 164.0
132.092453 200.0
132.144592 96.0
132.164749 284.0
132.187759 164.0
132.222061 244.0
132.240997 156.0
132.265503 172.0
132.29715 116.0
132.321304 124.0
132.343445 208.0
132.374207 152.0
132.394241 140.0
132.421097 172.0
132.452118 132.0
132.467407 100.0
132.471237 180.0
132.481018 184.0
132.486816 132.0
132.52327 268.0
132.547607 136.0
132.562408 168.0
132.582428 84.0
132.611603 308.0
132.625305 316.0
132.652267 196.0
132.687225 140.0
132.703033 180.0
132.735809 168.0
132.76355 132.0
132.803558 192.0
132.841339 156.0
132.846802 232.0
132.85704 152.0
132.864929 268.0
132.872955 264.0
132.916534 116.0
132.959763 5960.0
133.011765 280.0
133.029938 280.0
133.051025 312.0
133.06517 144.0
133.08252 172.0
133.099915 248.0
133.141312 212.0
133.161606 148.0
133.199646 156.0
133.215729 52.0
133.241791 196.0
133.270859 40.0
133.288422 256.0
133.330612 284.0
133.35141 160.0
133.36969 124.0
133.414246 268.0
133.428436 144.0
133.465149 160.0
133.490753 132.0
133.532196 224.0
133.57663 96.0
133.601944 140.0
133.632477 132.0
133.651077 244.0
133.674088 248.0
133.683838 88.0
133.69101 180.0
133.719299 116.0
133.750366 100.0
133.764786 68.0
133.772354 332.0
133.799866 136.0
133.82991 164.0
133.844009 328.0
133.883804 204.0
133.908264 272.0
133.93573 152.0
133.963242 460.0
134.033646 144.0
134.038712 92.0
134.048019 136.0
134.058014 156.0
134.073166 140.0
134.108551 184.0
134.135132 352.0
134.187363 188.0
134.230743 128.0
134.285049 116.0
134.305527 204.0
134.322418 260.0
134.345551 240.0
134.380661 124.0
134.399124 116.0
134.430984 164.0
134.463745 116.0
134.544785 292.0
134.573105 200.0
134.58989 176.0
134.615875 152.0
134.646133 156.0
134.694824 168.0
134.722946 344.0
134.770874 164.0
134.805359 284.0
134.828659 160.0
134.850723 204.0
134.876205 248.0
134.957077 3100.0
135.000015 160.0
135.019852 124.0
135.063232 188.0
135.123352 144.0
135.161026 148.0
135.182053 156.0
135.21257 204.0
135.233078 176.0
135.27626 136.0
135.304733 192.0
135.349152 152.0
135.3741 124.0
135.420197 204.0
135.455688 96.0
135.471909 128.0
135.500534 124.0
135.506042 180.0
135.523575 240.0
135.554642 136.0
135.58197 116.0
135.598953 140.0
135.605103 116.0
135.627167 224.0
135.643539 192.0
135.660446 88.0
135.674637 180.0
135.705994 100.0
135.757004 180.0
135.831299 144.0
135.8535 140.0
135.875549 220.0
135.93457 312.0
135.953827 128.0
136.003357 356.0
136.046371 208.0
136.075974 176.0
136.116486 184.0
136.125549 152.0
136.188019 192.0
136.203964 168.0
136.24855 192.0
136.278 216.0
136.299942 176.0
136.320953 112.0
136.351898 200.0
136.369919 68.0
136.398621 140.0
136.42572 292.0
136.455307 132.0
136.502441 168.0
136.542145 204.0
136.572754 96.0
136.589203 172.0
136.63913 356.0
136.691544 272.0
136.739914 108.0
136.760986 188.0
136.786331 224.0
136.819122 180.0
136.843964 192.0
136.905029 124.0
136.92308 176.0
136.954208 648.0
136.983704 176.0
137.010635 340.0
137.04895 108.0
137.070435 132.0
137.089081 120.0
137.133362 164.0
137.177338 148.0
137.186096 128.0
137.259384 144.0
137.304932 168.0
137.348831 152.0
137.372696 172.0
137.402298 196.0
137.429062 264.0
137.457413 236.0
137.495758 148.0
137.57045 148.0
137.581543 152.0
137.613739 196.0
137.649048 144.0
137.66983 176.0
137.673309 156.0
137.702652 184.0
137.719009 92.0
137.739822 180.0
137.747787 164.0
137.766937 220.0
137.786453 156.0
137.825821 276.0
137.848907 136.0
137.889572 296.0
137.955017 164.0
138.006165 452.0
138.062149 196.0
138.111038 172.0
138.140686 180.0
138.163788 224.0
138.20871 172.0
138.236435 264.0
138.266708 192.0
138.303314 152.0
138.378433 188.0
138.403687 172.0
138.410278 144.0
138.419418 132.0
138.442947 220.0
138.474487 152.0
138.497269 232.0
138.505829 168.0
138.555435 144.0
138.600998 176.0
138.62912 132.0
138.655807 112.0
138.675354 164.0
138.708344 200.0
138.714539 144.0
138.724274 208.0
138.744827 284.0
138.786423 116.0
138.813721 112.0
138.85379 144.0
138.898605 380.0
138.981415 188.0
139.01265 396.0
139.086166 188.0
139.103851 148.0
139.128983 376.0
139.175674 184.0
139.200607 228.0
139.228241 128.0
139.24614 180.0
139.268982 160.0
139.290756 144.0
139.315308 168.0
139.342499 164.0
139.366547 108.0
139.399597 184.0
139.443497 124.0
139.478745 352.0
139.507111 176.0
139.55162 156.0
139.579849 156.0
139.603119 212.0
139.612122 172.0
139.618103 256.0
139.640411 148.0
139.657181 144.0
139.695724 148.0
139.740433 148.0
139.760971 156.0
139.7892 164.0
139.878845 48.0
139.883926 148.0
139.896881 80.0
139.906296 208.0
139.913834 148.0
139.924713 196.0
139.95105 136.0
139.968796 192.0
139.984955 156.0
140.009293 196.0
140.038849 112.0
140.061691 236.0
140.083511 168.0
140.11734 196.0
140.151779 152.0
140.18248 284.0
140.237625 160.0
140.290085 140.0
140.309204 152.0
140.33844 228.0
140.363983 124.0
140.386185 280.0
140.422943 132.0
140.439453 124.0
140.463043 136.0
140.490326 184.0
140.519669 272.0
140.574722 132.0
140.585602 152.0
140.625854 120.0
140.652863 296.0
140.696671 152.0
140.718643 196.0
140.758057 200.0
140.880066 92.0
140.932724 140.0
140.950455 144.0
140.955704 48.0
140.988998 168.0
141.014801 184.0
141.052994 144.0
141.083664 172.0
141.122864 156.0
141.15506 132.0
141.200211 212.0
141.215439 112.0
141.237839 348.0
141.281296 500.0
141.297546 132.0
141.340057 200.0
141.374802 260.0
141.400818 140.0
141.440781 104.0
141.462555 184.0
141.491043 184.0
141.508652 156.0
141.534561 148.0
141.604706 144.0
141.649597 84.0
141.673584 152.0
141.682281 128.0
141.691132 248.0
141.725967 240.0
141.746857 120.0
141.770248 188.0
141.793716 120.0
141.802032 56.0
141.806656 88.0
141.838226 304.0
141.907425 108.0
141.927002 148.0
141.950714 144.0
141.967239 112.0
141.985687 280.0
141.989243 148.0
142.028976 140.0
142.057449 136.0
142.102524 116.0
142.127487 220.0
142.175568 148.0
142.20668 112.0
142.230209 140.0
142.238556 112.0
142.254013 256.0
142.274719 188.0
142.294296 140.0
142.323273 244.0
142.352997 176.0
142.371826 300.0
142.418655 140.0
142.440521 320.0
142.467316 172.0
142.482269 140.0
142.497482 180.0
142.525772 172.0
142.544006 172.0
142.550949 160.0
142.582092 180.0
142.610718 160.0
142.627365 176.0
142.659958 448.0
142.684052 168.0
142.708191 172.0
142.749313 176.0
142.777649 136.0
142.815933 148.0
142.874237 164.0
142.929916 232.0
142.965103 160.0
142.994446 192.0
143.011993 292.0
143.035477 140.0
143.055847 124.0
143.079346 48.0
143.100876 192.0
143.118408 268.0
143.171814 144.0
143.210327 376.0
143.233185 180.0
143.242355 108.0
143.274643 140.0
143.2995 240.0
143.314484 376.0
143.341415 160.0
143.383942 180.0
143.390305 156.0
143.398117 264.0
143.440933 176.0
143.5121 216.0
143.563065 128.0
143.596878 156.0
143.613663 164.0
143.636627 152.0
143.660858 52.0
143.677551 52.0
143.709518 140.0
143.730042 164.0
143.772766 164.0
143.82074 272.0
143.868713 148.0
143.889969 136.0
143.91243 176.0
143.944122 180.0
143.96637 172.0
143.989258 144.0
144.014145 376.0
144.029755 172.0
144.086685 156.0
144.104919 128.0
144.157547 164.0
144.204758 164.0
144.235565 136.0
144.296814 184.0
144.331024 404.0
144.39238 176.0
144.418091 124.0
144.480347 280.0
144.503815 124.0
144.531387 224.0
144.568817 148.0
144.586578 188.0
144.604721 204.0
144.635834 168.0
144.674591 192.0
144.715744 148.0
144.753998 160.0
144.781952 152.0
144.801041 320.0
144.829788 112.0
144.863327 192.0
144.893555 120.0
144.922821 148.0
144.94957 128.0
144.96875 72.0
144.999893 124.0
145.033707 188.0
145.081131 144.0
145.119766 44.0
145.177307 160.0
145.204697 356.0
145.243683 148.0
145.278915 212.0
145.313736 128.0
145.348938 168.0
145.359528 140.0
145.374451 224.0
145.39563 156.0
145.424423 52.0
145.453232 152.0
145.480759 128.0
145.489761 164.0
145.541153 304.0
145.559311 284.0
145.60968 164.0
145.64151 324.0
145.669281 152.0
145.731812 180.0
145.772659 136.0
145.823135 152.0
145.84523 252.0
145.893478 604.0
145.910187 132.0
145.962128 176.0
145.981186 316.0
146.006729 168.0
146.026886 216.0
146.06012 164.0
146.082077 140.0
146.109299 140.0
146.151901 388.0
146.190979 152.0
146.205765 220.0
146.262405 296.0
146.303864 184.0
146.333893 188.0
146.376465 216.0
146.393326 188.0
146.411209 140.0
146.459335 164.0
146.516159 100.0
146.569168 124.0
146.588455 124.0
146.612793 80.0
146.652344 156.0
146.694504 140.0
146.71788 180.0
146.736023 144.0
146.779877 116.0
146.853958 164.0
146.885422 136.0
146.916367 168.0
146.973267 232.0
147.005646 132.0
147.045044 148.0
147.060287 292.0
147.087173 236.0
147.121658 164.0
147.191315 48.0
147.227325 188.0
147.235916 156.0
147.28476 192.0
147.314697 112.0
147.338348 208.0
147.360596 232.0
147.40657 144.0
147.452484 256.0
147.477509 148.0
147.518478 352.0
147.595734 484.0
147.654022 332.0
147.686249 196.0
147.725662 92.0
147.744904 168.0
147.780457 172.0
147.80748 240.0
147.82486 124.0
147.858429 152.0
147.864609 132.0
147.874756 140.0
147.909576 180.0
147.935303 216.0
147.957794 152.0
147.977814 172.0
148.008835 212.0
148.028992 184.0
148.046204 116.0
148.068192 188.0
148.089783 168.0
148.11055 44.0
148.130844 320.0
148.166275 96.0
148.202606 120.0
148.222 100.0
148.246033 152.0
148.269363 160.0
148.28624 284.0
148.313095 232.0
148.321228 136.0
148.330276 224.0
148.355301 76.0
148.385376 128.0
148.417587 88.0
148.451996 128.0
148.483429 204.0
148.509964 200.0
148.573563 252.0
148.590546 160.0
148.610016 172.0
148.643478 172.0
148.657822 508.0
148.70372 152.0
148.734283 256.0
148.770248 176.0
148.796555 160.0
148.829758 172.0
148.854752 104.0
148.87941 176.0
148.91098 64.0
148.954971 180.0
148.994202 184.0
149.013214 572.0
149.07132 156.0
149.093063 164.0
149.113129 200.0
149.154785 152.0
149.180695 64.0
149.21759 208.0
149.243515 168.0
149.261948 68.0
149.310318 188.0
149.356705 176.0
149.378555 156.0
149.431198 64.0
149.499268 168.0
149.539902 252.0
149.566696 288.0
149.640839 204.0
149.669739 144.0
149.704773 272.0
149.743149 136.0
149.75354 120.0
149.764618 216.0
149.794693 104.0
149.818298 128.0
149.837799 152.0
149.865402 272.0
149.898712 120.0
149.915771 312.0
150.001205 144.0
150.025803 164.0
150.071518 116.0
150.122711 144.0
150.145844 256.0
150.201553 204.0
150.224258 328.0
150.250687 180.0
150.276657 212.0
150.293747 324.0
150.314896 232.0
150.359634 124.0
150.407135 232.0
150.43222 108.0
150.459656 160.0
150.474487 184.0
150.495453 228.0
150.558441 244.0
150.605286 208.0
150.622757 332.0
150.6492 216.0
150.674637 40.0
150.717133 224.0
150.746826 228.0
150.818817 224.0
150.840256 168.0
150.87529 152.0
150.907288 148.0
150.953278 148.0
150.973145 224.0
150.98996 132.0
151.007736 484.0
151.065628 424.0
151.112381 180.0
151.148285 148.0
151.157013 112.0
151.165283 96.0
151.196106 156.0
151.223526 224.0
151.242935 172.0
151.288483 128.0
151.317032 152.0
151.334183 216.0
151.362854 272.0
151.380676 240.0
151.40155 292.0
151.428055 264.0
151.474594 48.0
151.499176 156.0
151.520981 232.0
151.560349 100.0
151.580597 212.0
151.606842 160.0
151.611176 156.0
151.646225 188.0
151.673523 156.0
151.700043 200.0
151.744492 248.0
151.790771 100.0
151.821182 308.0
151.876602 240.0
151.895142 196.0
151.946655 276.0
151.985901 152.0
152.003204 260.0
152.028625 160.0
152.067154 128.0
152.087631 360.0
152.104813 188.0
152.135437 340.0
152.156357 256.0
152.172836 180.0
152.203369 212.0
152.237747 56.0
152.259491 84.0
152.276688 100.0
152.315887 180.0
152.353882 312.0
152.400864 132.0
152.447937 268.0
152.46524 332.0
152.496323 112.0
152.526428 260.0
152.555832 352.0
152.602432 260.0
152.616501 200.0
152.650238 156.0
152.669922 160.0
152.692047 148.0
152.73259 156.0
152.760742 120.0
152.792038 192.0
152.827515 268.0
152.842789 148.0
152.886765 304.0
152.919495 140.0
152.950409 120.0
152.975021 80.0
153.010345 488.0
153.083557 144.0
153.112427 248.0
153.169556 200.0
153.205795 148.0
153.233337 144.0
153.239136 164.0
153.276672 152.0
153.309998 104.0
153.360718 368.0
153.393982 560.0
153.4431 124.0
153.467758 276.0
153.491318 152.0
153.519547 108.0
153.548248 208.0
153.606445 136.0
153.628067 56.0
153.660934 116.0
153.696182 152.0
153.715515 244.0
153.756287 200.0
153.762207 312.0
153.78183 128.0
153.80835 136.0
153.835373 92.0
153.860062 72.0
153.885818 240.0
153.917877 96.0
153.927521 112.0
153.957977 340.0
154.003983 348.0
154.05632 136.0
154.079865 268.0
154.130722 336.0
154.155396 224.0
154.178696 404.0
154.215775 380.0
154.265625 288.0
154.293289 180.0
154.32962 160.0
154.350983 208.0
154.38884 116.0
154.422455 120.0
154.463043 164.0
154.494125 64.0
154.545563 352.0
154.588226 200.0
154.597427 140.0
154.606598 252.0
154.654236 180.0
154.677521 136.0
154.703079 160.0
154.758408 328.0
154.777206 184.0
154.785828 172.0
154.791153 256.0
154.814438 136.0
154.831848 200.0
154.858185 160.0
154.877411 80.0
154.901077 188.0
154.923431 232.0
154.961441 176.0
154.985428 140.0
155.005188 320.0
155.027328 188.0
155.062256 112.0
155.079605 148.0
155.099426 140.0
155.121048 72.0
155.143875 268.0
155.169693 152.0
155.196869 264.0
155.226685 252.0
155.296371 140.0
155.347961 72.0
155.395111 176.0
155.450363 188.0
155.475235 248.0
155.501251 132.0
155.52948 308.0
155.565659 212.0
155.595581 216.0
155.615448 72.0
155.638397 180.0
155.671906 244.0
155.717148 168.0
155.726135 228.0
155.786804 76.0
155.828751 200.0
155.883713 164.0
155.905289 312.0
155.930923 176.0
155.949707 180.0
155.998718 560.0
156.0392 216.0
156.067368 328.0
156.094513 172.0
156.111008 184.0
156.132309 168.0
156.182053 168.0
156.259644 232.0
156.305038 204.0
156.337036 236.0
156.37883 236.0
156.413406 288.0
156.430298 204.0
156.471466 136.0
156.487595 176.0
156.520355 116.0
156.528366 108.0
156.552399 152.0
156.559753 128.0
156.594223 148.0
156.634796 168.0
156.703918 160.0
156.728882 140.0
156.753296 332.0
156.76561 136.0
156.815918 148.0
156.844376 204.0
156.87178 212.0
156.905228 140.0
156.946762 140.0
156.993317 160.0
157.015625 328.0
157.032883 136.0
157.058578 36.0
157.083786 100.0
157.111237 132.0
157.174957 192.0
157.208176 164.0
157.236786 184.0
157.258682 168.0
157.280426 208.0
157.318634 280.0
157.354431 108.0
157.382278 140.0
157.413162 120.0
157.452377 156.0
157.510162 176.0
157.520416 260.0
157.558228 196.0
157.580612 40.0
157.604904 260.0
157.639145 140.0
157.661499 344.0
157.685562 124.0
157.727722 184.0
157.736984 160.0
157.775009 148.0
157.787491 124.0
157.8069 164.0
157.838058 124.0
157.85611 228.0
157.87706 280.0
157.935837 468.0
157.969147 336.0
157.996552 208.0
158.021851 152.0
158.043518 108.0
158.078125 232.0
158.110565 172.0
158.139114 316.0
158.165802 216.0
158.185242 104.0
158.213623 396.0
158.26387 328.0
158.293777 316.0
158.322937 100.0
158.340179 192.0
158.369736 148.0
158.396454 188.0
158.425018 204.0
158.464691 840.0
158.522339 544.0
158.569244 220.0
158.575073 196.0
158.598755 380.0
158.606171 332.0
158.616501 264.0
158.625198 264.0
158.632782 236.0
158.645676 300.0
158.678452 304.0
158.723999 184.0
158.748322 400.0
158.769287 416.0
158.793045 252.0
158.836609 524.0
158.864273 556.0
158.903229 832.0
158.945145 1056.0
158.977737 483944.0
159.070648 236.0
159.123367 104.0
159.1492 384.0
159.165939 328.0
159.210861 1184.0
159.25441 508.0
159.289093 368.0
159.317429 336.0
159.333694 192.0
159.337891 172.0
159.361008 1168.0
159.390411 18740.0
159.423325 292.0
159.46402 324.0
159.52388 248.0
159.543915 100.0
159.55278 244.0
159.569489 164.0
159.596909 152.0
159.614075 272.0
159.648407 296.0
159.686234 108.0
159.718582 228.0
159.745224 292.0
159.775452 132.0
159.835281 440.0
159.873703 220.0
159.899902 376.0
159.948364 264.0
159.979721 99588.0
160.050674 368.0
160.091995 212.0
160.121719 208.0
160.12706 272.0
160.146652 124.0
160.185913 128.0
160.212067 148.0
160.226776 152.0
160.23082 108.0
160.258438 228.0
160.290512 196.0
160.320297 192.0
160.327545 176.0
160.340454 184.0
160.347885 128.0
160.37413 184.0
160.395035 256.0
160.420288 184.0
160.4879 512.0
160.507111 272.0
160.534958 288.0
160.55838 312.0
160.572525 188.0
160.586014 556.0
160.609451 160.0
160.649002 336.0
160.682022 328.0
160.75296 408.0
160.780045 424.0
160.799484 548.0
160.838593 188.0
160.874329 596.0
160.915421 972.0
160.944427 1300.0
160.974503 461516.0
161.047043 264.0
161.068451 312.0
161.124725 548.0
161.147079 528.0
161.163879 500.0
161.209793 1040.0
161.229691 648.0
161.276779 628.0
161.302628 300.0
161.360107 296.0
161.389893 8124.0
161.4151 384.0
161.436081 196.0
161.439789 284.0
161.513199 144.0
161.537292 64.0
161.54155 136.0
161.567474 220.0
161.59726 128.0
161.638641 292.0
161.671997 108.0
161.691727 208.0
161.698517 192.0
161.705811 168.0
161.71698 112.0
161.7509 248.0
161.809814 224.0
161.83078 376.0
161.850616 152.0
161.880951 300.0
161.918655 116.0
161.935898 176.0
161.976486 50104.0
162.013962 240.0
162.038376 308.0
162.079239 84.0
162.124908 100.0
162.139664 212.0
162.17276 128.0
162.209274 148.0
162.241516 136.0
162.273804 272.0
162.291153 96.0
162.320892 104.0
162.359512 84.0
162.389679 128.0
162.397476 248.0
162.410309 108.0
162.42511 172.0
162.463974 72.0
162.491852 232.0
162.523071 200.0
162.54657 284.0
162.586792 76.0
162.623642 132.0
162.648727 256.0
162.672714 136.0
162.676895 72.0
162.704544 228.0
162.755707 204.0
162.775146 308.0
162.821533 216.0
162.841309 316.0
162.880264 272.0
162.889603 136.0
162.899414 432.0
162.932831 260.0
162.970428 78228.0
163.023102 216.0
163.031952 164.0
163.076508 184.0
163.080627 272.0
163.092224 120.0
163.101257 296.0
163.125092 164.0
163.138412 448.0
163.183014 216.0
163.194275 364.0
163.203522 248.0
163.222 392.0
163.263 252.0
163.298172 244.0
163.31636 372.0
163.348511 304.0
163.357315 176.0
163.367294 300.0
163.432343 128.0
163.469238 184.0
163.499161 28.0
163.537186 104.0
163.570435 36.0
163.602783 156.0
163.645538 100.0
163.698883 116.0
163.737213 56.0
163.762787 100.0
163.818832 76.0
163.858215 136.0
163.892075 68.0
163.918686 60.0
163.946671 56.0
163.973602 4084.0
164.007828 204.0
164.025131 112.0
164.035873 56.0
164.041473 96.0
164.093964 120.0
164.136032 120.0
164.167877 128.0
164.189178 124.0
164.239471 100.0
164.258179 36.0
164.266449 88.0
164.302536 92.0
164.329681 56.0
164.333923 48.0
164.371307 68.0
164.391617 104.0
164.415024 88.0
164.435471 96.0
164.455978 88.0
164.480453 100.0
164.549133 120.0
164.61412 88.0
164.69751 48.0
164.718765 112.0
164.746033 40.0
164.794403 60.0
164.851929 200.0
164.913254 56.0
164.955933 152.0
164.97348 264.0
165.023285 84.0
165.049957 92.0
165.153641 136.0
165.187332 64.0
165.206116 112.0
165.214905 112.0
165.261032 84.0
165.285522 52.0
165.322205 96.0
165.354523 104.0
165.382767 68.0
165.463913 40.0
165.492859 128.0
165.513336 68.0
165.546844 96.0
165.643951 88.0
165.672134 52.0
165.69519 36.0
165.756683 104.0
165.815628 64.0
165.869461 76.0
165.895096 328.0
165.911591 92.0
165.958481 88.0
165.996063 76.0
166.022202 196.0
166.105362 56.0
166.186188 88.0
166.256744 104.0
166.308075 72.0
166.342636 208.0
166.361404 88.0
166.390228 76.0
166.458649 68.0
166.480103 60.0
166.629089 36.0
166.649643 44.0
166.667618 92.0
166.693314 68.0
166.76181 68.0
166.782333 92.0
166.952957 116.0
167.11116 60.0
167.130463 144.0
167.176773 80.0
167.210236 96.0
167.26944 124.0
167.354401 48.0
167.375 40.0
167.462387 60.0
167.511505 84.0
167.537262 120.0
167.596512 36.0
167.707336 116.0
167.759537 80.0
167.904861 100.0
168.00647 28.0
168.034836 60.0
168.065857 284.0
168.095627 72.0
168.125153 96.0
168.15097 36.0
168.20517 52.0
168.307449 104.0
168.354919 28.0
168.422638 92.0
168.48407 64.0
168.544281 132.0
168.618439 160.0
168.695984 48.0
168.727005 84.0
168.782242 100.0
168.820099 52.0
168.922546 44.0
168.949417 92.0
168.994781 60.0
169.019287 112.0
169.050339 72.0
169.069168 160.0
169.091736 112.0
169.129807 68.0
169.151276 44.0
169.171982 88.0
169.192215 104.0
169.239304 104.0
169.296265 64.0
169.337708 120.0
169.386917 40.0
169.419189 192.0
169.573486 96.0
169.630508 72.0
169.649796 72.0
169.7005 60.0
169.725266 80.0
169.747177 56.0
169.793854 44.0
169.863892 140.0
169.923569 112.0
169.988586 64.0
170.052109 136.0
170.056885 128.0
170.095764 108.0
170.128784 52.0
170.15715 164.0
170.185715 120.0
170.206482 36.0
170.288284 72.0
170.33374 96.0
170.357117 84.0
170.409546 68.0
170.448059 88.0
170.526016 44.0
170.55722 68.0
170.63768 84.0
170.700211 112.0
170.760025 64.0
170.827652 44.0
170.890091 92.0
170.927872 100.0
170.97496 728.0
171.017609 132.0
171.073792 116.0
171.098312 88.0
171.166 64.0
171.2285 88.0
171.271317 164.0
171.358429 32.0
171.372849 100.0
171.386032 68.0
171.391281 132.0
171.43692 44.0
171.45517 124.0
171.489044 68.0
171.514908 100.0
171.588104 112.0
171.61882 120.0
171.641327 156.0
171.693222 180.0
171.848923 84.0
171.888062 64.0
171.924606 84.0
171.981293 2052.0
172.04805 96.0
172.131973 124.0
172.151718 64.0
172.246475 100.0
172.266647 108.0
172.352371 148.0
172.457397 64.0
172.491379 72.0
172.511307 120.0
172.528992 104.0
172.560883 96.0
172.656113 80.0
172.695343 52.0
172.797363 40.0
172.85434 72.0
172.971817 784.0
173.038147 168.0
173.061722 68.0
173.124557 48.0
173.176941 100.0
173.213608 40.0
173.231949 116.0
173.271255 88.0
173.289597 108.0
173.425858 32.0
173.53334 72.0
173.578476 152.0
173.646103 148.0
173.698563 84.0
173.782516 48.0
173.874359 96.0
173.895355 48.0
173.934723 108.0
173.980621 1240.0
174.012482 200.0
174.03186 108.0
174.056091 80.0
174.123154 236.0
174.144791 60.0
174.175186 68.0
174.216827 256.0
174.262405 52.0
174.297165 68.0
174.347092 96.0
174.36702 124.0
174.446976 92.0
174.505692 132.0
174.531113 80.0
174.554779 80.0
174.582901 144.0
174.620514 36.0
174.65976 48.0
174.909958 56.0
174.988876 264.0
175.070557 84.0
175.089661 112.0
175.268127 88.0
175.356644 148.0
175.381195 80.0
175.476364 84.0
175.51886 132.0
175.56601 40.0
175.616119 60.0
175.740112 80.0
175.889572 76.0
175.940704 108.0
175.982269 344.0
176.028915 500.0
176.096497 88.0
176.191589 172.0
176.215378 64.0
176.249725 112.0
176.350143 96.0
176.57489 48.0
176.818283 88.0
176.889755 44.0
176.918869 68.0
176.980927 184.0
177.035522 356.0
177.179733 104.0
177.235382 152.0
177.332108 40.0
177.496475 60.0
177.645004 64.0
177.753784 72.0
177.777664 144.0
177.87587 104.0
178.019241 148.0
178.167984 120.0
178.21582 72.0
178.258331 40.0
178.311478 104.0
178.369965 80.0
178.39122 80.0
178.481613 32.0
178.561401 40.0
178.617264 64.0
178.649185 36.0
178.729004 76.0
178.74762 68.0
179.029251 192.0
179.053772 56.0
179.160324 68.0
179.258911 176.0
179.891022 56.0
179.939087 124.0
180.027206 180.0
180.187469 64.0
180.280991 72.0
180.358505 96.0
180.454742 92.0
180.794464 52.0
180.922943 72.0
180.977081 164.0
181.123779 116.0
181.222916 56.0
181.347778 76.0
181.541901 48.0
181.56604 92.0
181.608948 76.0
181.732346 56.0
181.873474 108.0
181.91217 120.0
182.468277 96.0
183.212311 144.0
183.439697 72.0
183.450745 60.0
183.628891 180.0
183.76918 132.0
183.966187 100.0
184.322708 152.0
184.357834 28.0
184.484879 84.0
184.850021 84.0
185.008301 108.0
185.050323 88.0
185.096344 44.0
185.551559 152.0
185.641037 48.0
185.867737 112.0
186.232681 80.0
186.659378 80.0
186.703903 96.0
186.779037 68.0
186.912354 68.0
186.996719 124.0
187.293503 112.0
187.451523 76.0
187.792313 168.0
187.846863 48.0
187.876877 48.0
187.975922 228.0
187.997742 108.0
188.018753 80.0
188.081543 84.0
188.190735 112.0
188.701675 108.0
188.808319 80.0
188.849335 104.0
188.871216 88.0
188.986969 156.0
188.996384 48.0
189.007324 192.0
189.124527 140.0
189.547455 140.0
189.57486 204.0
189.596786 92.0
190.010834 32.0
190.054733 84.0
190.418182 88.0
190.862305 64.0
191.035767 508.0
191.293167 112.0
191.548218 144.0
191.588928 88.0
191.814896 28.0
191.834198 52.0
191.958267 128.0
192.03273 152.0
192.466003 68.0
192.518463 80.0
192.623428 68.0
192.709061 48.0
192.772614 180.0
192.938461 104.0
193.038589 192.0
193.713333 76.0
194.038925 128.0
194.190109 52.0
194.223389 140.0
194.245575 104.0
194.561935 40.0
195.331726 100.0
195.478058 188.0
195.534622 100.0
195.639832 128.0
195.718582 180.0
195.868973 60.0
196.462738 328.0
196.529694 128.0
196.58551 220.0
196.761353 136.0
196.819992 52.0
197.141235 180.0
197.364868 32.0
198.086945 72.0
198.252258 92.0
198.361557 116.0
198.433487 84.0
198.745789 168.0
198.782272 80.0
198.897339 48.0
199.074219 104.0
199.141632 72.0
199.186569 164.0
199.228699 84.0
199.998962 188.0
200.066772 92.0
200.548462 104.0
200.616119 72.0
200.890701 76.0
201.044846 104.0
201.434494 84.0
201.513596 108.0
201.838654 200.0
201.909348 48.0
201.998154 152.0
202.081909 120.0
202.393265 172.0
202.713348 128.0
202.951462 184.0
203.036758 1696.0
203.164185 36.0
203.209564 148.0
203.936569 40.0
204.038895 304.0
204.158325 56.0
204.266403 48.0
204.787308 124.0
204.904099 100.0
204.935196 136.0
205.031891 560.0
205.056107 428.0
205.086487 136.0
205.211914 108.0
205.354507 56.0
205.388733 148.0
205.568283 116.0
205.973083 112.0
206.03804 428.0
206.079605 80.0
206.205338 60.0
206.713669 156.0
207.049347 124.0
207.072266 96.0
207.384567 64.0
207.536499 96.0
207.765961 64.0
207.846298 204.0
208.788544 68.0
208.837433 68.0
208.946747 124.0
209.378525 72.0
209.505264 68.0
209.61763 72.0
209.689682 60.0
209.934738 48.0
210.353104 204.0
210.621658 104.0
210.812347 48.0
210.861465 148.0
210.893265 60.0
210.948181 152.0
210.98288 136.0
211.029129 308.0
211.075394 36.0
211.124557 88.0
211.355988 80.0
211.746796 128.0
211.906128 44.0
212.000153 268.0
212.039871 752.0
212.352554 164.0
212.427963 72.0
212.622375 160.0
212.799454 72.0
212.83139 48.0
212.873459 156.0
212.986694 152.0
213.04631 76.0
213.104416 52.0
213.424149 52.0
213.540466 144.0
213.942032 92.0
214.030334 196.0
214.288605 52.0
214.4897 68.0
214.655884 104.0
214.778366 96.0
214.871719 124.0
215.143143 180.0
215.341705 88.0
215.50238 60.0
215.522827 104.0
215.651413 152.0
215.762497 124.0
216.002518 156.0
216.524612 116.0
216.866104 96.0
216.945251 88.0
217.041992 128.0
217.63472 48.0
217.810928 48.0
218.175323 84.0
218.2547 156.0
218.560623 128.0
218.710709 92.0
218.731308 144.0
218.963928 140.0
219.3116 68.0
220.047073 188.0
220.105194 60.0
220.424225 124.0
220.459686 84.0
220.693207 40.0
220.726685 100.0
221.045212 136.0
221.433029 208.0
221.498199 64.0
221.536713 184.0
221.604843 88.0
221.996124 116.0
222.022812 140.0
222.224533 104.0
222.33432 96.0
222.355103 136.0
222.497589 76.0
222.568848 56.0
222.776749 92.0
222.818344 88.0
223.032303 136.0
223.273132 56.0
223.356415 136.0
223.523026 104.0
223.767105 72.0
223.990448 116.0
224.431534 160.0
224.482224 84.0
224.652237 120.0
224.849167 208.0
225.853088 80.0
225.936844 40.0
226.022934 156.0
226.080475 84.0
226.307983 152.0
226.436752 152.0
226.559555 128.0
226.667419 136.0
226.715363 112.0
226.817276 168.0
226.840668 164.0
226.904205 112.0
227.013382 16768.0
227.099136 128.0
227.214401 92.0
227.40654 60.0
227.564285 36.0
227.627335 92.0
227.735458 48.0
227.822571 232.0
228.016266 1668.0
228.074982 68.0
228.246353 32.0
228.315521 72.0
228.529099 88.0
228.628403 68.0
228.703644 48.0
228.769867 140.0
228.866211 72.0
228.914398 124.0
229.01062 10460.0
229.064987 68.0
229.131439 68.0
229.335876 80.0
229.393448 52.0
229.431351 112.0
229.498978 116.0
229.637695 100.0
229.812668 36.0
229.900177 72.0
230.013199 1232.0
230.256409 96.0
230.310776 136.0
230.594803 56.0
230.652237 112.0
230.682465 60.0
230.788284 128.0
231.004883 1276.0
231.078644 104.0
231.136124 28.0
231.195877 172.0
231.284424 36.0
231.529678 52.0
231.550873 72.0
231.587219 76.0
231.678101 116.0
231.726562 56.0
231.765961 36.0
231.805344 64.0
231.863602 108.0
232.01004 168.0
232.442154 60.0
232.521057 88.0
232.918823 64.0
233.028183 92.0
233.149734 128.0
233.183167 72.0
233.487198 52.0
234.016678 92.0
234.074539 100.0
234.498001 48.0
234.656525 180.0
234.708359 104.0
235.196487 52.0
235.29892 152.0
236.284409 92.0
236.896698 84.0
236.991669 92.0
237.212326 112.0
237.724533 116.0
238.040726 92.0
238.142075 128.0
238.237305 108.0
238.415512 100.0
238.682968 128.0
238.744461 160.0
238.944412 128.0
239.013779 1448.0
239.212143 76.0
239.264481 148.0
239.418442 36.0
239.523163 80.0
239.837463 80.0
239.96077 44.0
240.016281 140.0
240.050201 120.0
240.118042 80.0
240.303131 120.0
241.011292 1044.0
241.044189 52.0
241.276001 32.0
241.353302 124.0
241.498657 100.0
241.928787 132.0
241.959732 32.0
242.00824 120.0
242.04953 56.0
242.573135 72.0
242.632034 156.0
243.011826 336.0
243.221451 88.0
243.898605 100.0
244.016739 84.0
244.234421 48.0
244.277969 52.0
244.461548 128.0
244.489548 112.0
244.654526 100.0
244.818436 56.0
244.860031 116.0
245.028244 120.0
245.364838 104.0
245.480209 48.0
245.601852 40.0
245.704788 120.0
245.994324 240.0
246.282303 92.0
246.397888 56.0
246.588501 76.0
246.644775 96.0
247.00412 148.0
247.014648 264.0
247.997223 452.0
248.319916 60.0
248.354416 92.0
248.523834 76.0
248.555206 48.0
249.003387 124.0
249.039108 148.0
249.459747 36.0
249.484894 104.0
249.588654 52.0
249.730164 104.0
249.786789 76.0
250.041656 52.0
250.120346 92.0
250.331284 96.0
250.513962 144.0
250.558075 36.0
250.608475 40.0
251.030869 128.0
251.05925 80.0
251.109711 128.0
251.216965 124.0
251.617767 92.0
251.747223 100.0
251.785126 64.0
251.936737 80.0
252.038437 108.0
252.091568 192.0
252.540512 68.0
252.73349 92.0
252.904373 72.0
252.989853 48.0
253.312851 72.0
254.495819 36.0
254.702255 184.0
255.00882 504.0
255.163055 84.0
255.847061 104.0
256.012634 116.0
256.2388 56.0
256.398132 160.0
256.700989 124.0
256.879578 44.0
257.003662 340.0
257.058258 120.0
257.396637 92.0
257.505219 164.0
258.249939 108.0
258.381073 152.0
258.68512 128.0
258.98291 64.0
259.104645 112.0
259.50528 32.0
260.01532 156.0
261.265289 112.0
262.131409 56.0
262.618225 188.0
262.769836 132.0
262.837616 72.0
262.998962 80.0
263.829163 172.0
263.955261 48.0
264.369324 68.0
264.652283 216.0
265.61026 124.0
265.759491 108.0
266.093781 48.0
266.483551 76.0
266.73703 200.0
266.899597 104.0
267.189056 128.0
267.42337 92.0
267.713104 128.0
268.589874 80.0
268.847626 148.0
268.93573 60.0
269.02713 176.0
269.108765 128.0
269.190399 112.0
269.318237 176.0
269.595459 136.0
270.20694 84.0
271.179504 120.0
271.595917 112.0
271.687775 48.0
272.324615 96.0
272.557861 40.0
272.998352 68.0
273.159515 152.0
273.65976 88.0
273.833344 56.0
274.328552 44.0
274.434052 184.0
274.556061 64.0
274.687988 64.0
275.404297 144.0
275.602509 92.0
275.896667 40.0
276.068604 132.0
276.177734 48.0
276.674103 96.0
277.01355 160.0
277.426147 104.0
277.761078 120.0
278.29538 88.0
278.996429 124.0
279.881439 92.0
280.037964 72.0
280.617798 48.0
280.731171 124.0
280.971252 336.0
281.268341 112.0
281.33844 88.0
281.769257 56.0
281.79599 68.0
281.974762 612.0
282.728943 44.0
282.968903 508.0
283.07196 120.0
283.147888 60.0
283.241211 80.0
283.315979 152.0
283.979187 300.0
284.166504 144.0
284.966644 264.0
285.40271 72.0
285.500061 140.0
285.644684 36.0
285.843201 76.0
285.967133 168.0
286.26062 124.0
286.712036 152.0
286.843475 56.0
286.94693 132.0
286.978333 108.0
287.626068 44.0
288.399597 132.0
288.470581 108.0
288.761383 64.0
288.998169 56.0
289.092926 192.0
289.211365 56.0
290.549927 132.0
290.722992 108.0
290.943604 76.0
292.323578 32.0
292.50058 36.0
292.623138 148.0
293.191986 84.0
293.236298 80.0
293.329651 124.0
293.91153 32.0
293.952484 128.0
294.310883 116.0
294.642212 148.0
294.765198 84.0
295.187012 132.0
295.558533 92.0
295.763855 60.0
295.890533 100.0
296.284363 136.0
296.428284 80.0
296.596222 168.0
296.630493 44.0
296.9151 36.0
297.21698 128.0
297.367981 96.0
297.670074 72.0
297.697571 76.0
298.096039 124.0
298.137299 116.0
298.267883 88.0
298.611725 128.0
299.131317 96.0
299.244904 84.0
299.31723 72.0
299.558319 152.0
300.040771 108.0
300.220093 56.0
300.285614 172.0
300.458099 48.0
300.520203 48.0
301.103577 100.0
301.324677 52.0
301.348846 80.0
301.376495 100.0
302.07486 140.0
302.137146 124.0
302.44165 100.0
303.283905 76.0
303.376953 116.0
303.418549 84.0
303.470551 28.0
304.140106 64.0
304.626251 128.0
304.765228 148.0
305.477936 76.0
305.546051 160.0
305.860718 104.0
306.247223 88.0
306.383087 40.0
306.630493 52.0
306.804779 152.0
308.239288 92.0
308.382599 68.0
308.761475 120.0
309.453033 160.0
309.495056 72.0
309.687683 124.0
310.630585 48.0
310.904266 80.0
311.17807 100.0
311.392273 164.0
311.620605 80.0
312.302612 76.0
312.496094 80.0
313.7388 132.0
313.795746 164.0
314.477753 156.0
315.144043 68.0
315.30304 64.0
315.476257 120.0
315.932465 96.0
316.084595 40.0
316.59436 80.0
316.856476 108.0
316.898987 116.0
316.947021 272.0
317.147064 72.0
317.593842 112.0
317.949127 144.0
318.346252 84.0
318.470551 84.0
318.61618 168.0
318.729889 116.0
318.836487 84.0
318.939758 520.0
319.45163 52.0
319.946289 228.0
320.163513 180.0
320.412842 120.0
320.958191 124.0
321.050903 68.0
321.18927 136.0
321.461151 52.0
321.860962 36.0
321.944702 176.0
322.51474 120.0
322.668457 48.0
322.936646 36.0
323.058258 112.0
323.584351 52.0
323.752655 96.0
324.29007 124.0
324.469299 124.0
324.802826 108.0
325.215454 48.0
325.337494 52.0
325.384186 56.0
325.495483 72.0
325.581665 184.0
325.865448 100.0
326.368652 112.0
327.495087 52.0
327.5383 152.0
328.089661 148.0
328.205017 60.0
328.262726 116.0
329.067383 128.0
329.573059 132.0
330.017639 48.0
330.339508 76.0
330.408264 52.0
331.030823 144.0
331.143097 144.0
331.188782 124.0
331.588745 72.0
332.44101 100.0
332.742279 88.0
332.847565 88.0
332.880249 88.0
332.916565 96.0
333.978699 164.0
334.221588 244.0
334.97522 64.0
336.028809 76.0
336.203949 52.0
336.713562 96.0
336.930603 156.0
337.153503 56.0
337.211975 136.0
337.274109 140.0
337.463135 192.0
338.481415 104.0
339.12619 172.0
339.577179 44.0
339.833984 184.0
340.895172 92.0
340.931915 52.0
341.273804 52.0
341.317902 88.0
342.123688 100.0
342.371521 88.0
344.646423 60.0
344.927307 80.0
345.602295 244.0
346.15564 64.0
347.104279 36.0
348.867889 64.0
348.908783 60.0
349.477844 128.0
349.797913 120.0
350.19632 104.0
350.367676 68.0
350.453369 132.0
350.576324 72.0
351.088593 108.0
351.363098 76.0
351.631775 156.0
351.758698 84.0
351.80722 64.0
352.180634 144.0
352.445892 148.0
352.617767 52.0
353.08139 124.0
353.537811 92.0
353.844757 156.0
354.297913 68.0
354.410309 44.0
354.816681 124.0
356.000824 80.0
356.335114 68.0
357.264862 80.0
357.338989 80.0
357.572296 52.0
358.057953 92.0
358.540192 64.0
359.33963 56.0
360.166382 48.0
361.134003 92.0
361.236145 92.0
361.512329 100.0
361.625885 48.0
361.760101 148.0
362.500732 84.0
362.929077 68.0
363.004913 124.0
363.251434 180.0
363.342499 108.0
363.714386 32.0
364.007935 124.0
364.337158 92.0
364.67157 60.0
365.017517 132.0
366.387756 64.0
366.543976 76.0
367.06778 180.0
367.359894 92.0
367.466705 72.0
367.722382 188.0
368.192841 160.0
370.647949 140.0
371.925079 92.0
371.967285 40.0
372.351257 60.0
372.650879 68.0
373.304352 108.0
373.488953 96.0
373.715942 60.0
373.877563 132.0
374.508972 148.0
374.574463 64.0
375.067688 88.0
375.194916 116.0
376.205658 104.0
376.951111 36.0
377.117279 132.0
377.198456 136.0
377.225525 48.0
377.329895 80.0
378.111298 56.0
378.312561 144.0
378.343536 36.0
378.819885 40.0
379.25 112.0
379.513611 120.0
380.425354 144.0
380.735992 100.0
381.019531 60.0
381.139984 216.0
381.808624 128.0
382.026459 148.0
382.512878 36.0
383.174927 44.0
383.810242 72.0
384.36026 92.0
384.781799 80.0
385.105896 140.0
385.633392 112.0
385.750641 124.0
386.098633 108.0
387.68811 120.0
387.95462 80.0
387.982086 96.0
388.061981 116.0
388.205566 104.0
389.084503 112.0
390.377228 188.0
391.227112 128.0
391.360962 28.0
391.486969 80.0
391.908478 144.0
392.535217 168.0
392.799469 156.0
393.134827 104.0
393.332184 200.0
393.888702 124.0
394.08255 84.0
394.711029 72.0
395.320221 80.0
395.45874 108.0
396.203186 136.0
396.242798 64.0
396.488495 96.0
396.599457 56.0
396.750092 68.0
396.845245 128.0
397.83313 84.0
398.023712 184.0
398.42691 148.0
399.31131 76.0
399.526123 104.0
399.836487 84.0
400.262817 164.0
400.891846 52.0
401.05127 88.0
401.593536 40.0
401.816925 96.0
401.964569 96.0
402.715118 172.0
402.862915 52.0
403.714264 168.0
404.206329 112.0
404.338379 136.0
404.378418 152.0
405.211334 172.0
405.367615 48.0
406.069183 100.0
406.293823 212.0
407.483734 148.0
407.642944 68.0
408.278107 60.0
408.591858 124.0
409.042572 132.0
409.533844 180.0
410.702728 124.0
411.021454 140.0
411.102173 152.0
411.207092 184.0
411.586578 128.0
411.893524 60.0
412.184418 116.0
412.726044 40.0
412.964661 84.0
413.02533 156.0
413.106232 192.0
413.276154 132.0
413.660645 40.0
413.705597 156.0
414.04126 164.0
414.077698 96.0
414.122253 64.0
414.292389 80.0
414.336945 104.0
414.431152 112.0
414.551697 152.0
414.657074 112.0
414.73407 124.0
414.761261 136.0
414.818542 200.0
414.894287 160.0
414.99353 12660.0
415.056488 228.0
415.171967 40.0
415.228729 32.0
415.277405 76.0
415.419373 40.0
415.466644 104.0
415.527435 180.0
415.654694 96.0
415.737366 76.0
415.77066 76.0
415.796722 224.0
415.84137 128.0
415.877899 96.0
415.994934 2844.0
416.07312 264.0
416.113586 128.0
416.170197 68.0
416.218933 92.0
416.248779 136.0
416.296082 76.0
416.393555 44.0
416.439362 152.0
416.499146 188.0
416.529907 84.0
416.600708 40.0
416.653534 124.0
416.702698 76.0
416.756531 124.0
416.803101 148.0
416.872925 136.0
416.927399 180.0
416.990479 27024.0
417.120972 340.0
417.192566 132.0
417.242828 272.0
417.376984 168.0
417.405457 40.0
417.433929 32.0
417.486786 88.0
417.542847 84.0
417.630554 212.0
417.714569 48.0
417.759308 84.0
417.797363 96.0
417.836609 48.0
417.865082 52.0
417.901703 188.0
417.992645 5980.0
418.045746 100.0
418.101105 60.0
418.202271 56.0
418.280182 68.0
418.412567 100.0
418.580414 108.0
418.61142 204.0
418.646637 64.0
418.68985 52.0
418.751678 116.0
418.821899 128.0
418.986176 15072.0
419.095367 124.0
419.180298 84.0
419.223877 92.0
419.252075 64.0
419.278961 120.0
419.310699 32.0
419.342102 108.0
419.428894 68.0
419.467316 84.0
419.516144 48.0
419.612335 136.0
419.697968 64.0
419.818604 48.0
419.906799 116.0
419.986603 2188.0
420.077271 76.0
420.122131 52.0
420.207825 64.0
420.244537 84.0
420.317993 48.0
420.358795 60.0
420.396851 148.0
420.440399 72.0
420.482208 116.0
420.559753 132.0
420.615906 44.0
420.652557 88.0
420.705719 60.0
420.812347 100.0
420.86496 160.0
420.984985 856.0
421.027252 184.0
421.056885 36.0
421.134491 48.0
421.187592 52.0
421.265198 28.0
421.314209 64.0
421.432709 68.0
421.518524 52.0
421.555298 104.0
421.737946 64.0
421.923157 56.0
422.017212 88.0
422.0867 100.0
422.15213 116.0
422.307556 68.0
422.405731 72.0
422.435822 92.0
422.529755 76.0
422.622253 56.0
422.664215 200.0
422.782135 152.0
422.81897 92.0
422.873169 148.0
422.904938 32.0
422.954041 52.0
423.044098 88.0
423.166931 28.0
423.310242 72.0
423.560089 60.0
423.617432 40.0
423.719849 44.0
423.814087 88.0
424.363312 36.0
424.658569 92.0
425.458771 44.0
426.169281 76.0
426.424072 44.0
426.818726 40.0
427.950287 140.0
428.42392 64.0
428.996735 44.0
429.21524 80.0
429.545197 40.0
429.813385 76.0
430.308685 44.0
430.77121 100.0
430.878632 48.0
431.581268 44.0
432.694275 60.0
434.177704 56.0
434.380951 88.0
434.779266 80.0
434.891327 48.0
435.015869 116.0
435.372955 40.0
435.721863 140.0
437.185516 72.0
437.264587 100.0
437.302063 128.0
439.335541 92.0
439.540009 60.0
442.603973 52.0
443.077271 40.0
443.337067 56.0
443.395721 48.0
444.32663 72.0
444.402161 36.0
444.64975 52.0
444.683319 100.0
447.381958 68.0
447.647217 68.0
448.6922 56.0
449.257324 72.0
450.194336 64.0
451.432556 88.0
451.923248 64.0
452.278717 32.0
452.889679 56.0
454.465515 64.0
454.847473 104.0
456.487457 72.0
458.292267 60.0
458.556488 60.0
458.603363 40.0
459.298401 104.0
459.870148 88.0
460.215942 48.0
461.160065 40.0
461.643188 56.0
461.780029 96.0
462.413269 52.0
464.714478 128.0
465.203735 68.0
465.865082 60.0
467.197754 64.0
467.348358 100.0
468.131775 76.0
468.523743 88.0
469.799835 84.0
471.673981 88.0
471.925903 44.0
472.850494 72.0
474.31015 92.0
474.565948 116.0
474.661316 48.0
478.576385 64.0
484.231628 52.0
484.411224 36.0
485.18927 140.0
485.761383 44.0
486.068512 88.0
486.920166 108.0
487.834106 88.0
489.369537 116.0
490.382751 60.0
490.889771 60.0
496.045074 44.0
496.679169 60.0
497.255981 80.0
497.420227 108.0
497.566711 104.0
497.810944 88.0
498.428406 68.0
498.708374 64.0
500.091675 48.0
501.329803 68.0
502.243774 40.0
503.716827 48.0
505.764832 84.0
506.087158 28.0
506.427521 88.0
507.3013 72.0
509.702515 52.0
510.457703 84.0
510.795013 88.0
515.181274 56.0
515.981201 108.0
519.377625 84.0
521.420776 88.0
523.026367 80.0
524.360901 100.0
525.761047 100.0
527.080811 36.0
527.213318 36.0
528.731689 48.0
531.366516 72.0
531.678528 108.0
532.743835 64.0
533.240051 40.0
533.612427 40.0
536.00592 132.0
537.864563 72.0
541.244141 60.0
542.819641 56.0
542.85675 132.0
543.315918 100.0
543.552551 48.0
543.77533 52.0
544.06311 108.0
544.550659 36.0
548.016418 124.0
548.888062 92.0
549.195862 108.0
550.997742 76.0
551.236084 64.0
554.146545 88.0
555.717224 88.0
556.801575 108.0
559.726685 48.0
560.97052 80.0
567.034973 68.0
568.097168 56.0
569.426208 84.0
570.276672 128.0
571.732056 80.0
572.736633 36.0
574.290527 108.0
576.730469 36.0
576.883423 60.0
578.055237 68.0
578.323242 52.0
578.452515 72.0
580.824463 108.0
581.184326 100.0
581.572998 84.0
582.591064 40.0
584.273682 88.0
586.161133 236.0
586.218933 48.0
588.008179 60.0
590.728577 56.0
591.730347 44.0
593.047974 80.0
595.328247 68.0
595.420532 140.0
595.72168 180.0
596.090942 92.0
599.887329 152.0
601.726562 96.0
602.371216 48.0
602.610596 56.0
602.82074 56.0
605.149048 36.0
605.207825 104.0
605.261658 76.0
606.398254 112.0
606.481567 60.0
607.442627 100.0
612.722534 80.0
614.058411 28.0
614.107788 52.0
614.152161 140.0
614.226135 84.0
614.7146 44.0
615.16864 108.0
615.968628 80.0
617.946167 52.0
619.837646 92.0
620.923279 60.0
623.142212 88.0
624.205933 100.0
627.736572 104.0
629.937622 56.0
636.830139 88.0
638.182007 76.0
638.533997 180.0
640.099121 48.0
640.587646 28.0
643.41687 88.0
643.512756 68.0
643.709717 68.0
645.685669 76.0
647.416504 96.0
647.720398 100.0
648.921509 44.0
649.418457 52.0
650.544983 200.0
652.470398 40.0
652.821228 68.0
655.025085 60.0
655.697693 76.0
658.478271 76.0
659.091309 60.0
659.806824 72.0
661.530884 56.0
664.134033 48.0
667.240845 48.0
667.518494 60.0
668.557678 68.0
674.716492 48.0
675.528442 56.0
677.1745 68.0
679.43457 68.0
680.597229 48.0
681.16333 60.0
682.228638 84.0
684.049377 68.0
686.002869 60.0
688.251526 80.0
690.493408 52.0
692.372314 84.0
696.353027 132.0
698.997437 80.0
699.950195 48.0
702.427307 80.0
703.551331 112.0
709.275146 52.0
713.134033 48.0
713.181824 52.0
715.181824 32.0
716.843445 100.0
718.93396 128.0
721.182434 80.0
722.358826 152.0
722.631653 92.0
725.309387 116.0
730.442871 88.0
731.384521 120.0
731.949829 180.0
734.035217 60.0
735.108765 44.0
736.463867 92.0
737.495911 48.0
739.886902 64.0
741.636658 192.0
744.229797 132.0
744.322083 96.0
745.289001 164.0
746.370667 52.0
746.425049 92.0
747.066833 128.0
748.073608 128.0
752.615173 192.0
754.440002 172.0
754.642273 96.0
754.992249 44.0
756.447693 40.0
756.562622 120.0
756.825439 104.0
757.307373 80.0
761.525269 124.0
764.49408 176.0
764.532654 48.0
764.84082 100.0
767.28125 136.0
769.118286 36.0
770.841431 160.0
777.564575 68.0
777.803284 64.0
778.191895 100.0
779.236084 108.0
780.080811 64.0
780.586731 64.0
780.964905 252.0
781.165161 172.0
781.905212 40.0
782.272583 56.0
784.127441 136.0
784.863281 140.0
785.331787 104.0
785.660889 96.0
787.056213 36.0
792.285767 200.0
792.683594 28.0
794.085144 184.0
794.623657 104.0
795.841614 116.0
797.476379 84.0
797.931763 160.0
798.516541 100.0
798.735962 100.0
800.159729 76.0
801.590393 132.0
801.855286 216.0
804.009705 112.0
806.01355 124.0
806.969727 100.0
807.574768 112.0
808.157471 168.0
810.802002 140.0
811.000366 64.0
811.091064 72.0
811.686401 164.0
812.04364 136.0
813.150024 200.0
815.916382 112.0
818.260437 116.0
818.545898 184.0
818.661865 176.0
820.288574 128.0
820.750366 164.0
820.870117 160.0
821.389099 140.0
821.520325 220.0
821.657227 184.0
822.667358 108.0
825.049622 108.0
825.106812 172.0
825.369812 60.0
825.772034 196.0
825.958923 84.0
826.531006 116.0
826.834351 192.0
826.97168 148.0
827.486877 144.0
829.13092 140.0
829.251282 84.0
830.627441 116.0
830.730652 60.0
831.597107 64.0
831.930054 216.0
832.584656 44.0
833.090088 80.0
833.205017 136.0
833.618713 48.0
835.757812 48.0
835.872925 100.0
836.459961 120.0
836.995422 56.0
837.479187 152.0
837.905457 116.0
839.133057 176.0
839.877014 212.0
840.71936 216.0
841.134949 80.0
841.308105 112.0
842.260925 168.0
844.254944 48.0
844.411133 40.0
844.613525 136.0
845.118896 136.0
846.477173 56.0
846.535095 84.0
846.575623 124.0
847.212769 144.0
847.363403 108.0
847.514038 116.0
847.664673 56.0
847.746948 208.0
848.134155 96.0
849.932007 40.0
850.024841 136.0
850.343994 168.0
851.365845 100.0
851.452942 204.0
852.434753 44.0
853.353149 148.0
853.707825 224.0
855.075012 180.0
855.494141 168.0
855.575623 52.0
855.668762 96.0
856.647156 76.0
857.62616 108.0
858.436523 88.0
858.926453 92.0
859.21814 72.0
860.216064 116.0
860.65979 180.0
861.354797 56.0
861.711121 56.0
862.283813 104.0
863.938599 184.0
864.435974 32.0
865.19397 140.0
865.267151 140.0
865.489624 84.0
866.708008 208.0
868.003418 204.0
868.519531 196.0
869.053406 176.0
869.11792 164.0
869.62854 140.0
870.661865 136.0
870.961365 152.0
871.472473 160.0
872.201233 160.0
872.994934 168.0
873.353699 128.0
873.647827 220.0
874.100891 96.0
874.195068 172.0
874.236206 68.0
874.4599 88.0
875.307617 136.0
875.448975 208.0
875.590271 140.0
875.766968 208.0
875.861267 52.0
875.902466 148.0
876.845215 196.0
877.010254 76.0
877.157593 132.0
878.053833 180.0
879.652893 160.0
879.705994 144.0
880.320068 40.0
881.02887 132.0
881.170654 56.0
881.235657 84.0
882.08075 244.0
882.234436 88.0
882.666077 116.0
882.837585 152.0
883.642029 84.0
883.713013 128.0
883.754456 152.0
885.293518 64.0
885.376404 136.0
885.471191 224.0
885.895813 168.0
885.945068 172.0
886.490173 152.0
886.662048 148.0
887.693604 140.0
888.215515 192.0
889.188599 108.0
890.797729 116.0
890.96405 164.0
891.160095 184.0
891.611755 220.0
892.033752 132.0
892.51532 156.0
893.4729 184.0
894.032227 196.0
894.234619 244.0
894.621521 164.0
894.746521 144.0
894.942993 160.0
895.991272 44.0
896.336853 136.0
896.569275 64.0
896.891113 32.0
897.03418 124.0
898.769714 236.0
900.309875 72.0
900.459167 140.0
900.907166 192.0
901.307495 192.0
901.576416 160.0
901.689941 108.0
902.706238 164.0
903.591553 192.0
904.052246 148.0
905.093872 180.0
906.585449 116.0
906.998047 176.0
907.424683 44.0
908.270264 192.0
908.882202 136.0
909.530334 144.0
909.872559 144.0
910.262817 200.0
910.803345 168.0
910.851379 120.0
911.061646 116.0
911.109741 152.0
911.626465 136.0
912.191467 176.0
912.239563 56.0
912.618286 88.0
913.520447 208.0
913.785156 176.0
913.983704 184.0
914.55542 188.0
915.024963 212.0
915.874084 160.0
916.675415 140.0
918.022888 144.0
918.080017 140.0
918.779724 112.0
919.057251 68.0
919.171936 200.0
920.210083 140.0
920.934753 236.0
921.025391 172.0
921.32135 44.0
922.481689 128.0
923.902832 156.0
924.187195 204.0
924.695557 32.0
924.780273 152.0
926.955322 196.0
927.881836 176.0
928.943176 52.0
929.404236 128.0
929.53772 128.0
929.853333 228.0
930.791077 180.0
930.921814 108.0
930.970398 120.0
931.146545 208.0
931.444153 104.0
932.189819 164.0
932.525696 76.0
932.981628 100.0
934.009338 172.0
934.08844 132.0
935.11676 168.0
935.214111 124.0
935.421082 212.0
936.584167 124.0
937.059326 36.0
937.5224 140.0
938.113647 232.0
938.199036 208.0
938.442871 208.0
939.113708 120.0
939.461426 164.0
939.601746 80.0
939.717651 184.0
939.78479 180.0
939.931213 88.0
940.346191 176.0
940.437744 104.0
941.005493 148.0
941.432922 224.0
941.640564 152.0
941.762695 136.0
941.860474 124.0
942.15979 168.0
942.391968 236.0
942.929688 188.0
943.259766 152.0
944.403259 144.0
945.149597 136.0
945.192444 128.0
945.345398 232.0
945.400513 104.0
945.859558 92.0
946.91272 44.0
947.022949 128.0
947.32312 128.0
949.112732 152.0
949.732178 196.0
950.762878 104.0
951.223267 156.0
951.524048 128.0
951.806519 100.0
952.248657 212.0
952.75238 116.0
952.807678 188.0
953.514343 152.0
953.680298 60.0
954.718994 160.0
955.82666 128.0
955.894348 100.0
956.06665 160.0
956.288208 76.0
956.959229 108.0
957.150085 100.0
957.230164 84.0
957.427185 60.0
957.556519 184.0
957.679749 192.0
957.735168 152.0
958.727112 128.0
958.868835 108.0
959.28186 192.0
959.340149 112.0
959.879883 212.0
960.052551 120.0
960.194397 176.0
960.484192 200.0
960.606934 132.0
960.934631 208.0
961.045715 64.0
961.446838 124.0
961.50238 92.0
962.008484 148.0
962.243103 76.0
962.693726 164.0
962.715942 160.0
962.842102 100.0
962.928528 96.0
963.700745 128.0
963.824341 108.0
964.368164 104.0
964.807068 116.0
965.375916 48.0
965.957336 140.0
966.452271 264.0
966.600769 136.0
967.30011 80.0
967.5849 116.0
967.944031 172.0
969.003235 136.0
969.077576 132.0
969.424561 104.0
969.635254 40.0
969.684875 84.0
970.143555 112.0
970.224182 164.0
970.968262 100.0
971.130676 284.0
971.177063 156.0
971.842957 40.0
972.010498 184.0
972.251709 160.0
972.482117 164.0
972.624878 184.0
973.324707 360.0
973.487915 160.0
973.556213 148.0
973.730103 120.0
974.37616 132.0
974.599792 180.0
974.699219 184.0
975.25238 112.0
975.724792 192.0
975.82428 124.0
975.929993 156.0
976.035706 96.0
976.247131 144.0
976.321716 156.0
976.6203 128.0
976.699951 104.0
976.98407 116.0
977.404175 156.0
977.603271 76.0
977.783752 124.0
978.225708 184.0
979.477356 96.0
979.601929 124.0
979.816895 144.0
979.907227 160.0
981.17865 140.0
981.490417 112.0
981.995544 136.0
982.176453 360.0
982.585693 192.0
983.243347 228.0
983.374451 52.0
983.561707 184.0
984.867371 196.0
985.054138 164.0
985.71637 236.0
986.272644 216.0
986.335144 44.0
986.428894 96.0
986.516418 124.0
986.666443 124.0
987.022827 188.0
987.423096 152.0
987.491882 88.0
987.692017 252.0
988.398987 160.0
988.60321 120.0
989.093689 140.0
989.412964 160.0
989.538208 136.0
989.880554 172.0
990.164368 156.0
990.208252 176.0
990.364807 104.0
990.571533 164.0
990.840881 72.0
991.724487 76.0
991.837341 88.0
992.915771 152.0
993.342285 152.0
993.527405 148.0
993.794006 116.0
994.308594 64.0
994.459167 120.0
994.509399 88.0
994.59729 172.0
995.708618 140.0
996.135742 108.0
996.332336 148.0
996.405884 208.0
996.606934 132.0
997.662842 168.0
997.914307 148.0
998.316772 124.0
998.473999 160.0
998.882812 176.0
999.316895 108.0
999.411316 108.0
999.707031 56.0
999.84552 172.0
999.983948 156.0
1000.160217 188.0
1000.859009 180.0
1001.00885 152.0
1001.173889 148.0
1001.791138 200.0
1002.024231 140.0
1002.093567 156.0
1002.27002 160.0
1002.402344 156.0
1002.704834 172.0
1002.876709 248.0
1003.795471 204.0
1003.896362 216.0
1004.148621 176.0
1004.421692 236.0
1004.789856 216.0
1005.132751 176.0
1005.385193 136.0
1005.555603 108.0
1005.763855 48.0
1006.287842 128.0
1007.007751 136.0
1007.115112 28.0
1008.201843 60.0
1008.52417 128.0
1009.352356 304.0
1009.453552 96.0
1009.561096 220.0
1010.282166 156.0
1010.649109 132.0
1010.744019 116.0
1011.123718 56.0
1011.275635 96.0
1011.32782 240.0
1011.402222 124.0
1011.617432 136.0
1011.763062 196.0
1012.529236 52.0
1012.649597 152.0
1013.00708 208.0
1013.213379 96.0
1013.289368 132.0
1013.891357 224.0
1014.512512 128.0
1014.721741 136.0
1015.000732 124.0
1015.045105 156.0
1015.140259 244.0
1015.933105 128.0
1016.040955 84.0
1016.344421 232.0
1016.497803 124.0
1017.183228 128.0
1017.239319 196.0
1017.69751 168.0
1018.02771 36.0
1018.319824 148.0
1019.768494 164.0
1020.036987 180.0
1020.664856 80.0
1021.033691 140.0
1021.6698 116.0
1022.029297 152.0
1022.382446 120.0
1023.133545 140.0
1023.229065 144.0
1023.279968 92.0
1023.630188 120.0
1024.376831 124.0
1024.520874 168.0
1024.6875 176.0
1024.75769 140.0
1025.044312 160.0
1025.65625 180.0
1025.732666 204.0
1025.841064 96.0
1026.204468 164.0
1026.383057 124.0
1027.677856 112.0
1027.799072 132.0
1028.284058 60.0
1028.916016 52.0
1029.088379 176.0
1029.797241 132.0
1030.235962 136.0
1030.279785 200.0
1030.5 116.0
1030.960083 140.0
1031.03186 84.0
1031.279663 172.0
1031.535278 228.0
1031.765503 164.0
1031.861328 184.0
1032.033936 216.0
1032.398438 172.0
1033.313232 136.0
1033.473145 152.0
1033.613892 468.0
1033.985107 192.0
1034.356323 148.0
1035.060547 128.0
1035.124634 140.0
1035.214233 148.0
1035.27832 140.0
1035.441162 368.0
1035.918823 176.0
1036.117432 132.0
1036.31604 184.0
1036.36731 180.0
1037.045044 176.0
1037.110718 144.0
1037.424805 112.0
1037.886475 144.0
1037.976196 80.0
1038.091675 40.0
1038.258423 212.0
1038.380249 136.0
1038.630371 204.0
1039.44519 220.0
1039.644165 104.0
1040.122559 156.0
1040.369385 116.0
1040.69043 32.0
1040.870239 188.0
1041.217041 128.0
1041.602417 188.0
1041.685913 224.0
1042.334839 48.0
1042.444092 124.0
1042.752563 96.0
1042.848999 140.0
1043.048218 80.0
1043.446777 184.0
1043.90332 180.0
1044.070557 184.0
1044.192749 120.0
1044.237793 104.0
1044.405029 160.0
1044.501465 156.0
1044.720215 172.0
1044.82959 136.0
1045.653198 128.0
1046.19397 124.0
1046.389038 168.0
1046.44165 140.0
1046.560913 148.0
1047.018188 168.0
1047.353027 156.0
1047.546265 152.0
1047.868408 76.0
1047.913574 76.0
1047.98645 124.0
1048.899536 192.0
1049.176758 172.0
1049.26062 60.0
1049.337891 172.0
1049.536987 96.0
1049.565063 144.0
1050.498779 328.0
1051.214966 160.0
1051.438965 176.0
1052.034668 180.0
1052.105713 148.0
1052.189575 168.0
1052.350586 176.0
1052.5448 128.0
1053.088623 216.0
1053.184082 156.0
1053.436035 128.0
1053.82373 176.0
1053.933472 176.0
1054.114502 172.0
1054.586304 120.0
1055.367676 120.0
1055.640015 156.0
1055.905273 124.0
1056.765625 128.0
1056.920898 168.0
1057.296265 148.0
1057.380371 104.0
1057.658691 80.0
1058.668701 216.0
1058.987915 324.0
1059.096191 104.0
1060.009644 160.0
1060.200928 128.0
1060.2948 120.0
1060.437378 120.0
1060.528076 148.0
1060.793945 60.0
1061.053223 132.0
1061.137451 172.0
1061.46167 84.0
1061.883301 112.0
1062.220581 212.0
1062.940674 304.0
1063.031494 52.0
1063.089966 208.0
1063.496826 140.0
1063.875366 64.0
1064.154053 124.0
1064.414185 196.0
1064.972778 164.0
1065.226074 124.0
1065.498901 172.0
1065.563965 204.0
1066.109741 40.0
1066.161743 100.0
1066.233276 148.0
1066.311157 136.0
1066.415161 236.0
1066.493164 132.0
1066.63623 140.0
1067.052246 68.0
1067.208374 176.0
1067.644043 100.0
1067.800049 132.0
1069.016724 188.0
1069.342041 36.0
1069.765137 44.0
1069.836792 72.0
1069.901855 120.0
1070.025635 184.0
1070.227417 36.0
1070.650757 156.0
1070.904663 56.0
1071.106689 112.0
1071.393311 200.0
1071.849365 132.0
1072.29248 176.0
1072.396851 124.0
1072.474976 52.0
1072.572754 176.0
1072.664062 136.0
1072.87915 208.0
1073.279785 232.0
1073.779053 160.0
1073.824707 136.0
1073.948608 132.0
1074.150879 124.0
1074.261719 44.0
1074.398682 176.0
1074.796753 76.0
1074.927246 148.0
1075.116455 176.0
1075.547241 160.0
1075.814941 48.0
1076.004272 192.0
1076.193604 168.0
1076.298096 52.0
1076.60498 196.0
1076.670654 144.0
1076.768188 100.0
1077.11438 268.0
1077.695923 256.0
1077.872314 80.0
1077.983398 192.0
1078.081421 196.0
1078.846191 128.0
1079.120728 92.0
1079.172363 148.0
1079.970947 160.0
1080.61853 192.0
1081.122437 40.0
1081.305786 160.0
1081.394287 164.0
1081.829346 128.0
1082.634644 160.0
1082.935913 128.0
1082.994873 108.0
1083.09314 60.0
1083.263428 44.0
1083.427246 156.0
1083.499512 152.0
1083.702393 88.0
1083.931763 148.0
1084.147949 96.0
1084.285645 92.0
1084.37085 180.0
1084.462646 252.0
1084.71167 180.0
1085.019775 144.0
1085.262329 72.0
1085.937866 192.0
1086.475708 80.0
1087.230347 200.0
1087.748901 140.0
1087.939209 36.0
1088.083618 120.0
1088.19043 168.0
1088.615479 156.0
1088.736084 180.0
1088.779663 132.0
1088.99646 104.0
1089.246094 112.0
1089.410278 124.0
1089.528564 248.0
1089.587646 132.0
1089.745361 140.0
1089.870239 176.0
1090.216919 156.0
1090.652222 176.0
1090.77063 160.0
1091.086182 160.0
1091.296509 132.0
1091.612183 148.0
1091.756836 144.0
1091.881836 156.0
1092.046265 116.0
1092.355347 80.0
1092.414551 172.0
1092.585571 184.0
1092.664551 144.0
1092.921143 156.0
1093.019897 52.0
1093.07251 116.0
1093.845947 124.0
1094.184937 124.0
1094.461426 184.0
1094.507568 132.0
1094.573364 224.0
1094.817017 148.0
1095.343994 72.0
1095.686523 172.0
1095.778809 184.0
1095.917114 136.0
1096.042358 172.0
1096.286133 132.0
1096.340576 148.0
1096.628784 100.0
1096.971558 168.0
1097.419922 108.0
1097.627441 112.0
1097.779907 228.0
1097.868286 136.0
1098.006836 104.0
1098.085938 160.0
1098.165161 100.0
1098.679688 132.0
1098.778564 216.0
1098.884155 60.0
1098.930298 160.0
1099.082153 112.0
1099.5177 132.0
1099.695801 100.0
1100.289917 160.0
1100.382446 60.0
1100.455078 116.0
1100.534302 184.0
1100.745605 224.0
1100.904053 140.0
1101.095581 128.0
1101.293701 272.0
1101.366333 92.0
1101.734009 104.0
1102.165771 176.0
1102.247803 164.0
1102.687866 196.0
1102.991943 108.0
1103.150513 192.0
1103.237549 192.0
1103.626587 184.0
1103.705933 176.0
1103.824951 160.0
1103.970459 196.0
1104.096069 116.0
1104.592163 128.0
1104.737183 156.0
1104.749268 144.0
1105.102539 164.0
1105.227295 144.0
1105.531738 228.0
1105.816284 140.0
1105.911987 136.0
1106.206787 164.0
1106.279663 56.0
1106.630493 192.0
1106.782837 208.0
1106.868896 208.0
1106.964233 160.0
1107.213257 96.0
1107.405273 164.0
1107.471558 152.0
1107.524536 92.0
1107.623901 192.0
1107.882202 152.0
1108.060547 152.0
1108.18042 136.0
1108.346069 128.0
1108.392456 144.0
1109.452881 132.0
1109.844116 180.0
1110.14917 200.0
1110.520508 260.0
1110.639893 60.0
1110.998169 104.0
1111.648438 132.0
1111.694824 160.0
1112.066528 184.0
1112.372314 180.0
1112.564331 148.0
1112.630737 168.0
1112.81665 96.0
1112.889648 172.0
1112.936157 128.0
1112.995972 148.0
1113.075562 116.0
1113.321289 132.0
1113.381104 148.0
1113.480713 160.0
1113.547119 224.0
1113.699829 212.0
1114.052002 148.0
1114.201172 136.0
1114.44397 228.0
1114.683105 104.0
1114.786255 180.0
1115.002197 180.0
1115.201538 140.0
1115.417969 144.0
1115.611328 192.0
1115.759888 208.0
1115.871582 120.0
1116.039185 136.0
1116.152954 140.0
1116.897095 212.0
1117.38269 124.0
1117.682129 188.0
1117.72876 172.0
1118.384888 228.0
1118.627197 96.0
1118.813599 152.0
1119.013306 200.0
1119.057495 116.0
1119.17981 152.0
1119.333008 152.0
1119.8125 100.0
1120.225464 112.0
1120.498535 164.0
1120.578491 80.0
1120.651855 204.0
1121.071655 140.0
1121.639526 176.0
1121.892212 120.0
1121.978149 84.0
1122.08728 192.0
1122.253662 176.0
1122.578247 184.0
1122.78125 156.0
1123.498657 140.0
1123.56543 120.0
1123.632202 268.0
1123.758911 132.0
1124.012451 48.0
1124.191162 144.0
1124.246094 172.0
1124.326172 152.0
1124.675659 140.0
1124.738892 152.0
1124.82666 180.0
1125.460938 72.0
1125.741455 116.0
1126.035278 160.0
1126.315796 124.0
1126.576294 140.0
1126.683228 156.0
1126.836914 180.0
1127.123535 164.0
1127.247925 128.0
1127.35144 176.0
1127.498413 244.0
1127.656006 216.0
1127.785889 128.0
1128.24707 188.0
1128.868896 60.0
1128.98291 172.0
1129.410645 120.0
1129.497559 152.0
1129.684937 304.0
1129.731689 176.0
1129.852905 136.0
1129.965942 196.0
1130.327271 60.0
1130.414185 76.0
1130.481079 96.0
1130.548096 184.0
1130.862671 188.0
1130.989746 188.0
1131.217407 168.0
1131.284302 68.0
1131.371338 188.0
1131.491821 176.0
1131.558838 164.0
1131.612427 128.0
1131.82666 120.0
1131.927124 184.0
1132.081055 164.0
1132.241821 196.0
1132.416016 152.0
1132.523193 156.0
1132.784424 196.0
1132.87146 220.0
1133.059082 144.0
1133.213135 132.0
1133.702271 112.0
1134.001099 256.0
1134.091064 180.0
1134.251953 148.0
1134.929077 92.0
1135.009521 156.0
1135.083252 168.0
1135.29187 192.0
1135.438721 84.0
1135.76062 148.0
1135.854614 92.0
1135.935059 124.0
1136.0271 204.0
1136.277222 212.0
1136.520996 188.0
1136.612671 128.0
1136.773804 104.0
1136.854248 120.0
1137.115967 116.0
1137.196533 184.0
1137.431519 108.0
1137.478516 164.0
1137.619507 200.0
1138.015503 196.0
1138.089478 128.0
1138.290894 160.0
1138.452026 44.0
1138.586304 204.0
1138.937622 124.0
1139.137085 76.0
1139.244629 148.0
1139.305054 56.0
1139.578491 212.0
1139.715332 172.0
1139.80896 184.0
1140.317261 204.0
1140.44751 120.0
1140.553345 160.0
1140.682739 200.0
1140.872437 124.0
1141.127686 132.0
1141.348267 172.0
1141.604858 160.0
1141.845947 160.0
1142.051514 136.0
1142.262939 76.0
1142.781006 220.0
1142.834839 132.0
1143.501099 128.0
1143.595337 124.0
1143.76355 220.0
1144.194458 124.0
1144.29541 164.0
1144.591675 152.0
1144.652222 232.0
1144.937012 144.0
1145.140015 172.0
1145.24292 176.0
1145.447021 52.0
1145.545654 172.0
1145.669312 48.0
1145.985962 180.0
1146.114014 52.0
1146.53186 116.0
1146.739258 132.0
1146.848633 52.0
1146.902466 128.0
1147.076904 128.0
1147.392944 100.0
1147.410645 160.0
1147.569946 156.0
1147.94751 256.0
1148.217285 404.0
1148.480347 132.0
1148.574707 96.0
1148.912109 180.0
1149.100952 124.0
1149.181885 152.0
1149.451782 148.0
1149.553101 124.0
1149.61377 72.0
1149.667114 164.0
1149.728516 124.0
1149.849976 148.0
1149.91748 60.0
1150.146973 112.0
1150.241455 124.0
1150.560303 120.0
1150.752441 200.0
1151.031372 200.0
1151.213745 84.0
1151.416382 104.0
1151.65271 208.0
1151.814819 84.0
1151.943237 160.0
1152.044556 144.0
1152.377319 220.0
1152.463379 148.0
1152.855347 196.0
1152.94397 168.0
1153.240601 116.0
1153.463623 72.0
1153.646118 60.0
1153.990967 268.0
1154.099121 176.0
1155.032471 184.0
1155.174561 128.0
1155.296265 168.0
1155.573608 132.0
1155.776611 204.0
1155.893921 176.0
1156.047363 88.0
1156.224487 160.0
1156.494019 72.0
1156.602295 176.0
1156.744507 160.0
1157.234497 168.0
1157.319946 168.0
1157.36731 160.0
1157.517456 140.0
1157.798096 188.0
1158.177734 208.0
1158.261353 180.0
1158.383667 180.0
1158.464478 128.0
1158.72876 64.0
1158.875244 356.0
1159.026855 136.0
1159.406372 184.0
1159.521606 132.0
1159.839966 184.0
1160.077393 180.0
1160.131592 128.0
1160.566284 160.0
1160.680786 108.0
1160.884277 100.0
1161.013062 156.0
1161.406494 164.0
1161.542114 148.0
1161.596436 56.0
1161.691406 104.0
1161.759277 28.0
1161.860962 180.0
1161.976318 140.0
1162.044189 184.0
1162.532715 220.0
1162.648071 148.0
1162.702393 208.0
1162.811035 180.0
1162.858521 140.0
1162.919556 104.0
1163.265747 172.0
1163.369873 164.0
1163.571289 212.0
1163.661987 160.0
1163.842896 152.0
1164.107666 96.0
1164.325073 192.0
1164.39978 132.0
1164.515137 108.0
1164.725708 148.0
1165.042603 156.0
1165.405151 144.0
1165.964966 196.0
1166.02356 168.0
1166.15271 128.0
1166.240967 52.0
1166.404175 132.0
1166.533569 196.0
1166.812012 180.0
1166.920776 32.0
1167.029663 400.0
1167.118042 112.0
1167.2948 192.0
1167.417236 196.0
1167.730103 104.0
1167.852539 68.0
1168.274292 136.0
1168.349121 104.0
1168.478394 84.0
1168.539551 108.0
1168.838989 152.0
1169.124756 168.0
1169.294922 100.0
1169.342529 148.0
1169.424194 112.0
1169.628418 112.0
1169.710083 136.0
1170.145874 152.0
1170.384155 216.0
1170.731445 168.0
1170.806396 204.0
1170.896484 116.0
1170.99707 148.0
1171.37854 160.0
1171.471069 188.0
1171.580811 200.0
1171.916748 148.0
1172.107544 44.0
1172.257446 144.0
1172.625366 104.0
1172.87085 68.0
1172.932129 64.0
1172.994751 156.0
1173.109375 132.0
1173.252563 136.0
1173.354858 88.0
1173.504761 160.0
1173.572998 52.0
1173.65918 168.0
1173.763916 104.0
1174.023071 64.0
1174.316284 144.0
1174.541382 172.0
1174.960327 212.0
1175.018921 92.0
1175.108765 160.0
1175.32605 156.0
1175.55603 148.0
1175.70813 180.0
1175.769531 144.0
1175.947021 128.0
1176.050415 136.0
1176.158569 144.0
1176.520386 164.0
1176.595459 184.0
1176.684326 216.0
1176.745728 148.0
1176.820801 96.0
1177.155396 128.0
1177.216919 128.0
1177.285156 44.0
1177.34668 184.0
1177.421753 172.0
1177.673218 168.0
1178.31665 160.0
1178.569458 48.0
1178.617188 112.0
1178.665039 144.0
1178.760742 120.0
1178.863281 120.0
1178.911133 116.0
1178.97937 144.0
1179.328003 208.0
1179.895386 164.0
1180.025269 232.0
1180.480347 248.0
1180.733032 136.0
1180.829956 192.0
1180.900635 152.0
1181.057861 124.0
1181.166138 180.0
1181.21521 156.0
1181.568115 208.0
1181.824097 148.0
1181.970093 180.0
1182.474243 208.0
1182.58374 152.0
1182.652222 88.0
1183.131348 128.0
1183.281982 112.0
1183.898315 120.0
1183.987305 112.0
1184.26123 128.0
1184.446167 68.0
1184.747681 164.0
1184.884644 144.0
1185.028564 128.0
1185.138184 160.0
1185.192993 220.0
1185.291748 224.0
1185.332275 136.0
1185.524414 64.0
1185.6521 124.0
1185.815552 160.0
1186.063354 176.0
1186.275879 180.0
1186.495239 156.0
1186.632324 152.0
1186.7146 184.0
1186.906616 116.0
1187.167236 132.0
1187.46521 184.0
1187.633545 112.0
1187.720459 128.0
1187.880493 184.0
1188.0177 140.0
1188.11731 184.0
1188.546021 144.0
1188.857178 224.0
1189.012695 160.0
1189.273438 152.0
1189.575562 76.0
1189.623535 176.0
1189.705933 136.0
1189.815796 188.0
1189.939331 164.0
1190.001221 212.0
1190.205322 212.0
1190.34668 200.0
1190.432861 120.0
1190.502441 144.0
1190.612305 180.0
1190.738159 132.0
1191.03125 168.0
1191.11377 120.0
1191.36792 120.0
1191.491577 152.0
1192.04126 128.0
1192.342163 164.0
1192.556763 132.0
1192.63916 128.0
1192.831665 360.0
1193.00354 48.0
1193.299194 156.0
1193.687256 136.0
1193.788818 168.0
1193.849243 132.0
1193.935791 116.0
1194.00061 204.0
1194.199951 152.0
1194.255005 120.0
1194.344482 176.0
1194.571411 164.0
1194.674683 168.0
1194.729736 132.0
1194.819092 164.0
1195.121826 132.0
1195.328247 172.0
1195.376465 84.0
1195.458618 124.0
1195.548462 176.0
1195.658569 116.0
1195.796265 116.0
1195.95459 168.0
1196.057861 132.0
1196.243652 168.0
1196.339355 76.0
1196.436401 140.0
1196.581055 36.0
1196.650391 224.0
1196.849487 128.0
1197.054443 100.0
1197.200806 172.0
1197.400513 168.0
1197.538208 180.0
1197.881592 208.0
1198.199585 88.0
1198.289062 164.0
1198.397095 220.0
1198.493408 212.0
1198.610107 212.0
1198.854126 144.0
1199.060913 88.0
1199.21936 172.0
1199.37793 208.0
1199.536499 52.0
1199.638184 160.0
1199.68811 152.0
1199.743286 136.0
1199.804688 180.0
1199.991455 164.0
1200.294922 96.0
1200.612061 76.0
1200.881104 120.0
1200.943115 172.0
1201.122559 100.0
1201.350098 188.0
1201.674438 72.0
1201.846924 188.0
1201.946655 116.0
1201.966309 108.0
1201.99292 148.0
1202.116089 164.0
1202.219604 160.0
1202.27478 48.0
1202.592285 196.0
1202.654297 172.0
1202.944336 116.0
1203.130615 124.0
1203.779663 148.0
1203.938599 180.0
1204.042114 172.0
1204.17334 120.0
1204.22168 124.0
1204.304565 164.0
1204.520508 188.0
1204.615479 60.0
1204.677612 136.0
1204.73291 192.0
1204.912476 132.0
1205.023071 164.0
1205.09436 232.0
1205.17334 160.0
1205.520508 152.0
1205.838501 92.0
1206.018188 192.0
1206.541016 144.0
1206.598877 148.0
1206.709473 160.0
1206.965332 148.0
1207.179688 152.0
1207.283447 192.0
1207.78833 356.0
1207.86438 120.0
1208.054932 160.0
1208.604736 296.0
1208.708496 156.0
1208.88147 184.0
1209.083862 168.0
1209.223633 180.0
1209.359009 176.0
1209.407471 76.0
1209.471069 144.0
1209.67749 144.0
1209.80896 180.0
1209.878174 168.0
1209.975098 144.0
1210.230713 176.0
1210.362915 180.0
1210.501343 164.0
1211.006958 196.0
1211.13855 176.0
1211.318604 164.0
1211.427612 168.0
1211.561035 108.0
1211.658081 156.0
1212.025269 172.0
1212.13623 164.0
1212.305908 204.0
1212.434204 92.0
1212.58667 176.0
1212.837524 144.0
1212.884644 176.0
1213.007446 112.0
1213.133667 136.0
1213.432373 196.0
1213.522461 132.0
1213.640381 124.0
1213.723511 208.0
1213.799805 116.0
1213.87915 164.0
1214.042603 132.0
1214.188232 92.0
1214.403198 136.0
1214.472534 128.0
1214.763916 120.0
1214.844727 116.0
1215.145508 140.0
1215.450806 120.0
1216.325195 160.0
1216.429321 112.0
1216.533203 164.0
1216.790405 156.0
1216.852905 148.0
1216.936157 148.0
1217.012573 68.0
1217.137573 120.0
1217.37793 184.0
1217.398682 112.0
1217.423706 140.0
1217.845947 120.0
1218.054321 160.0
1218.199341 136.0
1218.346069 48.0
1218.415527 160.0
1218.464233 164.0
1218.603149 36.0
1218.943604 152.0
1219.172974 112.0
1219.28418 184.0
1219.379272 176.0
1219.498047 144.0
1219.523682 112.0
1219.666382 172.0
1219.715088 128.0
1220.070068 172.0
1220.60498 128.0
1220.730225 152.0
1221.126587 136.0
1221.328247 100.0
1221.383911 164.0
1221.454102 152.0
1221.571777 168.0
1221.856201 184.0
1222.003052 196.0
1222.337036 184.0
1222.416748 164.0
1222.634399 112.0
1223.088745 104.0
1223.167969 172.0
1223.241943 196.0
1223.367188 92.0
1223.415894 192.0
1223.587402 260.0
1223.764038 172.0
1223.833618 176.0
1224.202759 164.0
1224.384644 164.0
1224.78772 176.0
1224.947754 216.0
1225.170898 128.0
1225.498413 72.0
1225.616821 96.0
1225.739258 220.0
1225.867676 100.0
1225.93042 208.0
1226.250977 180.0
1226.543701 144.0
1226.690063 180.0
1227.045654 100.0
1227.3927 160.0
1227.498169 192.0
1227.631348 160.0
1227.70813 96.0
1227.763916 168.0
1228.000977 160.0
1228.133911 148.0
1228.195068 184.0
1228.552124 104.0
1228.60791 120.0
1228.656738 168.0
1228.796265 132.0
1228.888428 156.0
1229.001221 180.0
1229.085938 148.0
1229.431274 140.0
1229.647583 184.0
1230.185059 144.0
1230.464355 160.0
1230.541138 168.0
1230.937988 100.0
1230.961914 136.0
1231.19751 180.0
1231.321899 336.0
1231.37915 124.0
1231.442017 176.0
1231.79126 52.0
1231.951904 208.0
1232.217407 104.0
1232.34314 164.0
1232.43396 196.0
1232.762451 148.0
1233.169067 136.0
1233.221191 152.0
1233.328491 124.0
1233.390015 196.0
1233.453613 140.0
1233.601196 140.0
1233.845825 36.0
1233.947266 228.0
1234.076538 140.0
1234.352295 180.0
1234.531128 160.0
1234.598389 160.0
1234.628174 100.0
1234.652588 148.0
1235.003906 248.0
1235.149414 168.0
1235.293457 140.0
1235.503418 124.0
1235.63623 164.0
1235.83374 176.0
1236.070068 128.0
1236.364014 36.0
1236.636963 136.0
1236.937988 92.0
1237.155029 176.0
1237.224976 160.0
1237.366333 572.0
1237.771118 152.0
1238.171509 156.0
1238.192871 140.0
1238.226807 160.0
1238.380371 120.0
1238.443481 128.0
1238.51355 248.0
1238.69165 192.0
1238.86377 132.0
1239.052856 60.0
1239.255859 124.0
1239.403198 140.0
1239.571411 176.0
1239.774658 180.0
1239.830688 104.0
1239.908325 148.0
1239.996216 116.0
1240.054932 144.0
1240.19519 132.0
1240.248291 152.0
1240.432983 100.0
1240.692871 140.0
1241.157959 228.0
1241.400513 148.0
1241.555908 172.0
1241.709595 172.0
1241.903198 132.0
1241.983154 136.0
1242.074341 128.0
1242.231934 160.0
1242.398682 156.0
1242.481201 144.0
1242.656616 188.0
1242.806152 208.0
1242.90979 156.0
1242.96106 208.0
1243.127563 212.0
1243.33728 204.0
1243.449585 192.0
1243.498779 128.0
1243.707153 176.0
1243.881226 136.0
1244.062378 144.0
1244.130493 184.0
1244.207764 140.0
1244.320068 156.0
1244.397339 156.0
1244.446411 140.0
1245.043335 216.0
1245.352295 156.0
1245.492798 120.0
1245.554443 152.0
1245.638306 124.0
1245.710571 196.0
1245.80896 104.0
1245.911011 184.0
1246.286255 144.0
1246.39917 132.0
1246.492554 176.0
1246.588867 152.0
1246.80481 100.0
1247.017578 152.0
1247.354126 128.0
1247.416626 156.0
1247.462891 156.0
1247.483398 212.0
1247.571655 180.0
1247.657227 36.0
1248.022827 132.0
1248.163452 204.0
1248.247925 128.0
1248.297119 128.0
1248.360352 152.0
1248.598022 236.0
1248.6698 164.0
1248.845703 168.0
1248.908936 120.0
1248.96521 60.0
1249.075439 132.0
1249.23645 124.0
1249.319336 176.0
1249.443604 184.0
1249.542114 204.0
1249.619507 152.0
1249.753174 132.0
1250.031982 340.0
1250.147217 132.0
1250.224609 136.0
1250.309082 60.0
1250.393555 188.0
1250.485107 108.0
1250.766602 176.0
1250.865112 136.0
1251.101318 288.0
1251.174927 104.0
1251.323608 140.0
1251.548096 140.0
1251.714478 144.0
1251.863159 172.0
1252.020752 160.0
1252.203003 164.0
1252.252319 180.0
1252.343872 124.0
1252.555176 188.0
1252.741821 180.0
1252.801758 148.0
1253.005615 116.0
1253.263184 188.0
1253.372437 88.0
1253.553589 140.0
1253.76001 172.0
1253.823486 88.0
1254.088623 104.0
1254.260498 208.0
1254.377441 220.0
1254.595459 136.0
1254.648193 140.0
1254.937256 48.0
1255.000977 116.0
1255.092407 48.0
1255.184082 140.0
1255.37439 244.0
1255.472046 176.0
1255.536133 172.0
1255.656494 72.0
1255.705933 220.0
1255.903442 160.0
1255.954712 152.0
1256.164429 104.0
1256.284302 88.0
1256.404297 120.0
1256.552368 104.0
1256.630005 88.0
1256.779419 132.0
1256.996948 92.0
1257.053345 168.0
1257.131958 152.0
1257.506714 168.0
1257.743896 100.0
1257.771606 84.0
1257.893311 120.0
1258.043213 200.0
1258.105103 136.0
1258.253296 208.0
1258.345093 156.0
1258.563965 164.0
1258.796997 108.0
1258.924194 72.0
1258.987671 88.0
1259.213745 128.0
1259.616333 88.0
1259.679932 84.0
1259.861938 156.0
1260.139038 144.0
1260.266235 104.0
1260.464111 148.0
1260.52771 148.0
1260.881104 200.0
1260.939209 192.0
1261.160889 212.0
1261.333496 44.0
1261.559692 168.0
1261.72937 120.0
1261.814941 108.0
1261.955566 108.0
1262.019165 152.0
1262.160645 172.0
1262.234985 168.0
1262.255005 256.0
1262.44104 216.0
1262.54248 96.0
1262.745361 168.0
1262.995117 136.0
1263.094238 180.0
1263.275391 152.0
1263.426636 204.0
1263.504517 40.0
1263.575195 124.0
1263.653076 148.0
1263.746094 160.0
1264.126953 148.0
1264.154053 144.0
1264.233276 288.0
1264.304077 112.0
1264.495117 132.0
1264.672119 164.0
1264.881348 192.0
1265.040161 152.0
1265.302124 236.0
1265.3573 128.0
1265.479126 148.0
1265.875732 180.0
1266.222656 188.0
1266.39978 144.0
1266.449341 96.0
1266.846069 128.0
1266.90979 168.0
1267.005127 136.0
1267.299438 188.0
1267.469482 152.0
1267.526245 80.0
1267.625488 152.0
1267.696289 52.0
1268.042847 184.0
1268.159546 188.0
1268.238281 152.0
1268.405029 76.0
1268.547729 168.0
1268.617065 168.0
1268.731201 180.0
1268.865845 140.0
1269.00769 196.0
1269.099731 132.0
1269.281616 56.0
1269.421997 168.0
1269.565674 184.0
1269.681274 164.0
1269.922485 168.0
1269.986328 112.0
1270.177856 188.0
1270.248779 136.0
1270.355225 204.0
1270.48999 124.0
1270.731201 112.0
1270.901489 76.0
1271.009399 152.0
1271.076538 156.0
1271.1427 184.0
1271.245972 212.0
1271.313965 192.0
1271.504639 184.0
1271.689209 220.0
1271.747437 240.0
1271.842773 132.0
1271.973145 204.0
1272.092896 168.0
1272.174194 188.0
1272.356445 156.0
1272.557739 164.0
1272.687744 92.0
1272.76123 116.0
1272.816895 184.0
1272.842773 156.0
1272.931641 84.0
1273.046875 192.0
1273.208618 124.0
1273.286743 116.0
1273.379028 156.0
1273.620483 116.0
1273.677368 120.0
1273.883301 144.0
1274.217285 136.0
1274.480103 44.0
1274.796509 176.0
1274.878052 152.0
1275.084229 216.0
1275.297363 104.0
1275.352173 180.0
1275.560425 132.0
1275.62439 116.0
1275.944336 108.0
1276.036743 40.0
1276.100708 112.0
1276.171875 240.0
1276.378052 124.0
1276.456299 104.0
1276.69043 192.0
1277.053589 140.0
1277.198242 236.0
1277.380859 112.0
1277.501831 180.0
1277.664062 188.0
1277.821899 148.0
1277.99585 356.0
1278.175537 160.0
1278.561157 180.0
1278.818237 136.0
1278.889404 152.0
1278.967651 220.0
1279.053711 172.0
1279.352661 160.0
1279.406738 112.0
1279.736572 128.0
1279.814819 140.0
1279.914551 368.0
1280.035645 128.0
1280.085449 136.0
1280.139038 172.0
1280.213623 212.0
1280.370361 148.0
1280.53418 200.0
1280.591064 152.0
1280.662354 136.0
1280.740723 124.0
1280.926636 184.0
1281.098877 188.0
1281.296387 112.0
1281.445923 176.0
1281.780884 120.0
1281.963379 264.0
1282.330322 160.0
1282.429443 256.0
1282.479248 156.0
1282.664673 164.0
1282.800049 120.0
1282.964722 188.0
1283.092407 132.0
1283.377563 80.0
1283.441772 152.0
1283.513062 204.0
1283.562988 128.0
1283.795166 192.0
1283.96228 120.0
1284.040771 52.0
1284.090698 156.0
1284.169189 84.0
1284.312256 220.0
1284.44397 120.0
1284.526855 152.0
1284.61853 196.0
1284.900513 144.0
1285.018066 160.0
1285.082275 156.0
1285.186646 188.0
1285.320435 192.0
1285.381958 160.0
1285.494263 76.0
1285.835083 160.0
1285.995728 180.0
1286.124146 124.0
1286.331177 156.0
1286.514526 228.0
1286.573853 124.0
1286.738159 140.0
1286.795288 136.0
1286.902344 196.0
1287.002319 84.0
1287.123657 148.0
1287.195068 120.0
1287.26709 140.0
1287.330811 124.0
1287.39502 160.0
1287.530762 156.0
1287.837891 104.0
1288.002197 128.0
1288.280762 152.0
1288.766602 152.0
1288.930908 156.0
1288.980957 208.0
1289.231079 188.0
1289.298218 228.0
1289.381104 212.0
1289.597656 164.0
1289.752808 172.0
1289.988647 128.0
1290.095947 184.0
1290.238892 172.0
1290.324707 92.0
1290.496338 180.0
1290.592163 148.0
1290.660767 168.0
1290.748535 212.0
1290.839478 136.0
1291.175659 180.0
1291.247192 224.0
1291.350708 108.0
1291.41272 316.0
1291.584106 144.0
1291.776489 356.0
1291.969604 184.0
1292.198608 212.0
1292.435913 136.0
1292.610474 128.0
1292.79248 188.0
1292.856934 116.0
1292.928467 96.0
1293.264893 92.0
1293.407959 132.0
1293.529663 108.0
1293.594116 148.0
1293.90918 148.0
1293.966431 128.0
1294.202637 44.0
1294.324463 192.0
1294.397461 268.0
1294.569946 156.0
1294.678833 144.0
1294.85437 184.0
1294.97876 232.0
1295.102295 136.0
1295.149902 164.0
1295.290527 120.0
1295.391602 116.0
1295.463257 124.0
1295.596802 56.0
1295.699585 124.0
1295.792725 160.0
1295.895752 212.0
1295.979004 172.0
1296.153564 180.0
1296.388794 136.0
1296.459229 188.0
1296.559448 168.0
1296.752686 176.0
1296.925049 92.0
1297.046875 132.0
1297.147217 204.0
1297.20459 216.0
1297.390991 224.0
1297.484131 180.0
1297.620361 88.0
1297.841919 188.0
1297.894043 188.0
1297.993286 48.0
1298.115112 156.0
1298.179688 152.0
1298.265259 168.0
1298.286133 156.0
1298.380493 144.0
1298.53833 80.0
1298.650513 136.0
1298.782227 144.0
1298.832397 176.0
1299.200928 164.0
1299.255615 188.0
1299.478027 160.0
1299.808105 96.0
1299.958862 120.0
1300.03772 220.0
1300.102295 192.0
1300.195679 108.0
1300.24585 68.0
1300.317627 132.0
1300.36792 220.0
1300.465576 152.0
1300.647827 168.0
1300.7052 240.0
1300.769897 128.0
1301.02478 292.0
1301.180786 160.0
1301.198608 44.0
1301.232178 312.0
1301.344238 228.0
1301.446899 148.0
1301.516479 264.0
1301.588257 168.0
1301.864136 136.0
1301.954102 136.0
1302.150635 132.0
1302.281372 152.0
1302.539551 180.0
1302.626343 120.0
1302.687256 88.0
1302.82373 132.0
1302.877319 100.0
1302.938599 204.0
1303.010498 48.0
1303.067993 164.0
1303.129272 160.0
1303.283569 192.0
1303.44165 144.0
1303.714722 192.0
1303.908691 144.0
1303.994995 84.0
1304.05249 156.0
1304.224609 88.0
1304.345825 172.0
1304.419067 104.0
1304.649048 72.0
1304.747681 152.0
1304.893555 124.0
1305.030029 176.0
1305.135132 140.0
1305.238647 204.0
1305.368164 116.0
1305.587402 100.0
1305.662964 52.0
1305.86438 176.0
1305.983276 148.0
1306.044189 140.0
1306.123291 128.0
1306.245605 232.0
1306.295898 120.0
1306.396606 148.0
1306.619629 264.0
1306.670044 108.0
1306.972168 156.0
1307.029785 152.0
1307.124512 192.0
1307.288818 160.0
1307.421631 180.0
1307.497559 240.0
1307.555176 72.0
1307.672485 180.0
1308.130981 152.0
1308.195312 172.0
1308.324829 124.0
1308.42334 176.0
1308.481201 124.0
1308.584839 164.0
1308.836548 44.0
1308.922974 136.0
1308.973389 96.0
1309.049316 192.0
1309.203857 204.0
1309.496582 176.0
1309.563965 140.0
1309.643188 444.0
1309.931274 180.0
1310.056885 116.0
1310.147583 200.0
1310.2771 108.0
1310.371216 132.0
1310.442749 164.0
1310.558105 176.0
1310.676392 152.0
1310.774292 132.0
1310.875122 144.0
1311.007324 156.0
1311.055298 128.0
1311.158936 100.0
1311.343628 132.0
1311.415649 160.0
1311.466064 68.0
1311.549316 204.0
1311.650513 176.0
1311.804932 180.0
1311.855347 100.0
1311.934692 172.0
1312.059326 164.0
1312.158203 204.0
1312.21582 148.0
1312.278931 128.0
1312.359985 148.0
1312.434326 132.0
1312.585205 156.0
1312.790649 152.0
1313.194702 108.0
1313.29187 172.0
1313.472046 172.0
1313.607788 120.0
1313.995117 160.0
1314.07666 124.0
1314.150269 180.0
1314.264526 180.0
1314.35083 60.0
1314.646729 228.0
1315.10144 152.0
1315.15686 128.0
1315.28186 76.0
1315.505615 132.0
1315.596313 112.0
1316.018188 100.0
1316.19873 152.0
1316.270996 112.0
1316.395264 176.0
1316.515625 164.0
1316.653687 160.0
1316.783691 320.0
1317.004761 252.0
1317.141968 256.0
1317.253174 404.0
1317.323486 144.0
1317.411621 100.0
1317.498901 132.0
1317.599976 116.0
1317.708374 148.0
1317.849487 180.0
1318.163574 68.0
1318.293701 164.0
1318.343506 124.0
1318.371338 112.0
1318.452637 160.0
1318.647827 176.0
1318.759399 208.0
1318.886353 144.0
1319.088745 124.0
1319.233276 140.0
1319.329102 160.0
1319.412842 192.0
1319.623657 120.0
1319.85791 184.0
1320.064819 172.0
1320.134521 180.0
1320.209351 156.0
1320.662842 216.0
1320.824219 124.0
1321.11084 76.0
1321.193115 152.0
1321.475342 132.0
1321.648926 152.0
1321.989014 164.0
1322.189941 176.0
1322.268799 136.0
1322.337891 196.0
1322.442017 176.0
1322.493774 136.0
1322.563232 344.0
1322.731079 184.0
1322.799683 212.0
1322.966187 180.0
1323.10376 124.0
1323.208008 120.0
1323.299194 180.0
1323.371582 84.0
1323.559937 108.0
1323.617798 152.0
1323.784424 204.0
1323.95813 188.0
1324.552124 112.0
1325.109009 128.0
1325.211426 136.0
1325.325195 196.0
1325.494019 160.0
1325.569092 184.0
1325.592896 68.0
1325.618652 160.0
1325.779907 148.0
1325.928833 136.0
1326.001221 152.0
1326.127808 124.0
1326.23645 256.0
1326.593018 144.0
1326.675415 92.0
1326.769653 208.0
1326.827026 148.0
1326.961548 292.0
1327.059692 192.0
1327.159668 140.0
1327.302856 128.0
1327.436768 132.0
1327.543945 164.0
1327.618042 212.0
1327.699341 168.0
1328.132812 164.0
1328.307007 180.0
1328.379639 172.0
1328.50293 160.0
1328.568237 160.0
1328.619019 116.0
1328.698853 188.0
1328.772827 200.0
1328.952759 164.0
1329.046265 204.0
1329.198853 140.0
1329.373657 164.0
1329.700195 120.0
1329.881592 100.0
1329.961548 124.0
1330.077637 136.0
1330.273682 188.0
1330.368042 104.0
1330.476929 96.0
1330.535034 156.0
1330.67981 172.0
1330.865112 212.0
1330.9198 132.0
1331.123169 128.0
1331.203003 124.0
1331.282837 256.0
1331.355469 128.0
1331.420532 160.0
1331.558838 96.0
1331.76062 168.0
1331.900269 124.0
1332.016479 156.0
1332.1604 168.0
1332.219971 168.0
1332.277954 188.0
1332.423218 140.0
1332.492554 104.0
1332.614258 152.0
1332.669678 132.0
1332.815674 128.0
1332.894897 124.0
1333.157227 104.0
1333.265015 216.0
1333.417236 228.0
1333.491455 52.0
1333.724121 160.0
1333.884033 132.0
1334.043945 92.0
1334.119751 284.0
1334.320435 152.0
1334.421997 116.0
1334.480103 156.0
1334.552368 196.0
1334.720093 216.0
1334.829224 192.0
1334.905273 132.0
1335.010986 184.0
1335.105469 104.0
1335.156372 168.0
1335.490967 116.0
1335.672852 324.0
1335.978394 196.0
1336.087524 120.0
1336.196655 64.0
1336.502197 196.0
1336.895142 208.0
1336.97522 140.0
1337.055298 148.0
1337.158569 140.0
1337.266357 72.0
1337.330078 132.0
1337.44104 156.0
1337.521973 172.0
1337.615723 180.0
1337.72229 164.0
1337.775879 28.0
1337.863281 172.0
1337.936035 124.0
1338.043945 184.0
1338.298584 224.0
1338.423828 240.0
1338.51123 112.0
1338.617188 148.0
1338.809326 168.0
1338.889893 60.0
1339.071533 132.0
1339.312378 84.0
1339.487183 164.0
1339.771118 160.0
1339.931641 168.0
1340.019043 308.0
1340.176514 196.0
1340.317749 68.0
1340.383301 116.0
1340.445923 216.0
1340.762329 224.0
1340.980957 184.0
1341.141235 264.0
1341.192261 76.0
1341.301636 112.0
1341.447388 128.0
1341.584106 152.0
1341.731812 120.0
1341.855713 100.0
1342.016113 28.0
1342.191162 344.0
1342.379028 224.0
1342.448608 180.0
1342.562988 160.0
1342.617188 120.0
1342.835205 152.0
1342.964111 164.0
1343.061035 188.0
1343.156616 148.0
1343.352295 176.0
1343.503906 208.0
1343.591553 112.0
1343.69165 192.0
1343.705078 140.0
1343.738525 132.0
1343.753296 160.0
1343.8396 32.0
1343.890625 156.0
1344.079834 172.0
1344.138794 92.0
1344.189819 188.0
1344.434082 148.0
1344.536743 164.0
1344.664185 124.0
1344.795532 60.0
1345.005371 240.0
1345.160522 120.0
1345.226196 112.0
1345.299194 56.0
1345.639648 184.0
1345.670532 116.0
1345.688477 168.0
1345.744629 324.0
1345.950195 124.0
1345.980103 128.0
1345.994141 156.0
1346.138916 132.0
1346.219727 188.0
1346.550537 144.0
1346.788574 104.0
1346.861938 344.0
1347.000732 144.0
1347.081055 140.0
1347.139526 152.0
1347.201538 152.0
1347.263794 140.0
1347.385864 136.0
1347.497559 300.0
1347.560181 140.0
1347.686768 156.0
1347.804443 96.0
1347.877441 188.0
1348.038208 92.0
1348.1521 212.0
1348.288574 184.0
1348.476685 128.0
1348.527954 212.0
1348.643799 144.0
1348.791016 136.0
1348.867188 116.0
1349.105347 140.0
1349.288208 88.0
1349.595215 156.0
1349.668335 164.0
1349.726807 88.0
1349.843872 160.0
1349.946289 120.0
1350.216797 116.0
1350.273071 140.0
1350.377686 148.0
1350.428955 148.0
1350.480103 148.0
1350.538696 136.0
1350.725098 124.0
1350.794678 140.0
1350.875122 160.0
1350.926392 88.0
1351.004395 196.0
1351.116577 196.0
1351.255615 116.0
1351.343384 164.0
1351.42334 204.0
1351.569458 228.0
1351.643311 164.0
1351.78186 160.0
1351.91272 128.0
1352.032715 380.0
1352.116089 120.0
1352.179688 152.0
1352.509888 188.0
1352.561279 132.0
1352.70459 148.0
1352.763184 120.0
1352.87439 84.0
1352.975464 232.0
1353.045044 212.0
1353.136597 316.0
1353.193726 216.0
1353.334229 136.0
1353.414795 148.0
1353.532837 160.0
1353.612427 284.0
1353.741455 172.0
1353.86145 180.0
1353.932495 68.0
1354.007935 136.0
1354.154419 76.0
1354.307739 212.0
1354.374146 164.0
1354.584229 232.0
1354.65979 108.0
1354.769775 96.0
1354.857666 128.0
1354.923584 68.0
1355.136108 180.0
1355.256836 168.0
1355.370483 168.0
1355.509766 180.0
1355.591309 92.0
1355.748901 108.0
1355.824829 52.0
1355.949463 160.0
1356.055542 144.0
1356.228027 144.0
1356.393799 172.0
1356.568604 208.0
1356.697144 68.0
1356.763062 168.0
1356.873047 120.0
1356.946411 204.0
1357.033813 152.0
1357.057861 208.0
1357.137085 112.0
1357.376587 168.0
1357.532959 180.0
1357.679688 292.0
1357.727783 60.0
1357.931885 144.0
1358.134399 348.0
1358.435181 140.0
1358.528687 204.0
1358.679688 136.0
1358.739502 232.0
1358.934082 96.0
1359.010986 168.0
1359.110107 200.0
1359.193237 208.0
1359.300293 180.0
1359.616455 220.0
1359.73877 220.0
1359.797729 224.0
1359.983521 176.0
1360.283813 152.0
1360.34668 140.0
1360.44519 148.0
1360.525513 180.0
1360.622192 108.0
1360.687988 160.0
1360.795532 124.0
1361.107422 208.0
1361.216919 100.0
1361.275635 140.0
1361.356445 116.0
1361.415161 32.0
1361.535767 164.0
1361.581055 168.0
1361.68689 172.0
1361.738281 352.0
1361.855835 104.0
1361.949097 208.0
1362.200684 132.0
1362.296631 188.0
1362.377441 208.0
1362.600464 164.0
1362.818237 180.0
1362.893921 104.0
1362.976074 108.0
1363.023926 204.0
1363.119507 128.0
1363.296509 176.0
1363.412109 172.0
1363.670654 64.0
1363.920532 152.0
1364.0896 188.0
1364.167358 180.0
1364.302856 104.0
1364.413086 120.0
1364.479248 104.0
1364.54541 112.0
1364.667358 292.0
1364.802856 64.0
1364.908203 164.0
1365.041382 180.0
1365.099976 96.0
1365.310181 136.0
1365.530884 144.0
1365.612183 128.0
1365.906006 112.0
1366.021973 168.0
1366.111938 120.0
1366.163452 132.0
1366.259033 164.0
1366.347412 220.0
1366.422974 148.0
1366.575439 164.0
1366.766724 136.0
1366.943359 196.0
1367.02002 156.0
1367.208252 168.0
1367.292236 116.0
1367.539551 72.0
1367.626831 144.0
1367.697632 224.0
1367.823242 132.0
1367.909912 232.0
1367.988525 112.0
1368.371094 232.0
1368.444946 60.0
1369.115112 132.0
1369.181396 192.0
1369.407959 172.0
1369.727295 136.0
1369.930054 100.0
1370.079956 80.0
1370.338379 172.0
1370.66687 156.0
1370.700439 96.0
1370.724365 176.0
1370.897949 140.0
1371.045898 188.0
1371.202881 156.0
1371.288452 84.0
1371.413818 160.0
1371.520142 152.0
1371.797119 128.0
1371.848755 148.0
1372.143555 72.0
1372.217285 164.0
1372.416382 252.0
1372.519653 144.0
1372.644653 120.0
1372.69812 184.0
1372.866211 132.0
1373.002686 224.0
1373.086548 164.0
1373.168579 140.0
1373.279297 220.0
1373.402222 276.0
1373.458374 144.0
1373.539429 164.0
1373.655396 108.0
1373.714478 124.0
1374.170654 188.0
1374.238281 72.0
1374.341553 280.0
1374.393188 32.0
1374.467041 148.0
1374.668945 120.0
1374.748047 224.0
1374.86438 148.0
1374.931885 120.0
1375.027832 164.0
1375.224854 212.0
1375.389526 84.0
1375.482056 128.0
1375.559326 180.0
1375.635864 188.0
1375.764526 196.0
1375.862061 144.0
1376.002319 100.0
1376.108154 164.0
1376.140503 56.0
1376.158569 148.0
1376.427124 172.0
1376.585571 164.0
1376.880981 200.0
1376.94751 128.0
1377.006592 192.0
1377.065674 124.0
1377.191284 52.0
1377.304321 132.0
1377.553223 148.0
1377.619263 140.0
1377.715698 116.0
1377.955811 208.0
1378.099854 224.0
1378.373291 156.0
1378.46936 144.0
1378.670166 140.0
1378.770874 184.0
1378.855225 128.0
1379.001465 132.0
1379.147095 160.0
1379.270874 168.0
1379.322876 172.0
1379.367554 176.0
1379.474365 152.0
1379.560669 168.0
1379.629272 108.0
1379.789062 260.0
1380.081055 192.0
1380.236084 132.0
1380.358032 296.0
1380.409912 152.0
1380.509644 256.0
1380.561401 88.0
1380.67981 132.0
1380.812866 128.0
1380.879517 128.0
1380.983032 156.0
1381.086548 124.0
1381.338013 88.0
1381.44165 172.0
1381.673218 116.0
1381.769409 144.0
1381.860596 192.0
1381.966919 168.0
1382.10376 164.0
1382.161621 104.0
1382.272461 284.0
1382.366455 168.0
1382.440552 304.0
1382.516602 144.0
1382.569824 192.0
1382.72168 120.0
1382.799316 160.0
1382.883545 180.0
1383.039551 212.0
1383.236816 244.0
1383.749268 296.0
1383.859497 184.0
1384.157959 176.0
1384.298462 136.0
1384.375977 184.0
1384.476318 208.0
1384.609619 164.0
1384.714966 172.0
1384.807007 100.0
1384.950317 108.0
1385.033569 156.0
1385.150146 124.0
1385.212891 212.0
1385.274048 404.0
1385.446655 148.0
1385.641357 200.0
1385.713379 164.0
1385.817139 120.0
1386.217285 128.0
1386.283936 116.0
1386.369263 236.0
1386.552734 208.0
1386.691528 116.0
1386.750854 120.0
1386.802734 116.0
1386.868286 156.0
1386.942627 188.0
1387.232666 164.0
1387.343628 128.0
1387.521851 264.0
1387.584229 184.0
1387.7229 252.0
1387.885132 252.0
1387.988892 188.0
1388.070557 224.0
1388.122437 148.0
1388.181763 152.0
1388.367188 156.0
1388.456177 120.0
1388.648926 160.0
1388.730591 140.0
1388.797363 124.0
1388.875 96.0
1388.985352 180.0
1389.057007 216.0
1389.249878 364.0
1389.349976 192.0
1389.40564 160.0
1389.672729 160.0
1389.729248 216.0
1389.954712 160.0
1390.006592 188.0
1390.073364 272.0
1390.140137 124.0
1390.214355 136.0
1390.33313 180.0
1390.437012 148.0
1390.486572 256.0
1390.622559 188.0
1390.695557 172.0
1390.869019 176.0
1391.0271 144.0
1391.350098 116.0
1391.509033 228.0
1391.591431 128.0
1391.680786 332.0
1391.80603 280.0
1391.905518 236.0
1392.018311 144.0
1392.129395 176.0
1392.233643 164.0
1392.342773 144.0
1392.501099 140.0
1392.575317 284.0
1392.845703 172.0
1393.206787 124.0
1393.444458 212.0
1393.555908 136.0
1393.637695 120.0
1393.75354 180.0
1393.821289 256.0
1393.898193 192.0
1394.051758 284.0
1394.062256 204.0
1394.176758 168.0
1394.208618 92.0
1394.227661 152.0
1394.291626 188.0
1394.514526 208.0
1394.626099 168.0
1394.723145 220.0
1394.824097 144.0
1394.847778 92.0
1394.870239 128.0
1394.899048 72.0
1395.13562 168.0
1395.28418 188.0
1395.421509 160.0
1395.488892 140.0
1395.577637 156.0
1395.713623 156.0
1395.793335 208.0
1395.87146 240.0
1395.986572 108.0
1396.105591 104.0
1396.201538 40.0
1396.291504 200.0
1396.481079 172.0
1396.603882 224.0
1396.721436 156.0
1396.886597 188.0
1396.968384 48.0
1397.033936 168.0
1397.124634 64.0
1397.303223 164.0
1397.441895 208.0
1397.519165 128.0
1397.801758 176.0
1398.131592 176.0
1398.245728 128.0
1398.389648 180.0
1398.476807 188.0
1398.598022 160.0
1398.739502 236.0
1398.791626 300.0
1398.858643 116.0
1399.080933 200.0
1399.193604 108.0
1399.26062 208.0
1399.342529 120.0
1399.416992 160.0
1399.480225 172.0
1399.628906 88.0
1399.699951 232.0
1399.885376 124.0
1400.012695 144.0
1400.08606 104.0
1400.09668 116.0
1400.228638 284.0
1400.355347 112.0
1400.481934 116.0
1400.548096 180.0
1400.702759 140.0
1400.845215 188.0
1400.948242 172.0
1400.969604 104.0
1400.992432 220.0
1401.085327 172.0
1401.143311 144.0
1401.172363 112.0
1401.26416 228.0
1401.313843 160.0
1401.448608 180.0
1401.501099 200.0
1401.589111 176.0
1401.793213 172.0
1402.277588 148.0
1402.38501 148.0
1402.478882 100.0
1402.709961 240.0
1402.784424 424.0
1402.831787 148.0
1403.0271 196.0
1403.12561 216.0
1403.187012 144.0
1403.237671 180.0
1403.385254 240.0
1403.431519 152.0
1403.523315 124.0
1403.731323 192.0
1403.78894 132.0
1403.901855 172.0
1404.096802 236.0
1404.241699 212.0
1404.350342 184.0
1404.410034 212.0
1404.551758 124.0
1404.745728 88.0
1404.797974 140.0
1404.850098 88.0
1405.063477 120.0
1405.200806 140.0
1405.290283 212.0
1405.372437 148.0
1405.566406 304.0
1405.685791 172.0
1405.834106 152.0
1405.909668 52.0
1406.190063 212.0
1406.203979 120.0
1406.239502 144.0
1406.268311 108.0
1406.372437 216.0
1406.514282 72.0
1406.613281 124.0
1406.696045 200.0
1406.765137 172.0
1406.865112 176.0
1407.014404 156.0
1407.062866 92.0
1407.261597 116.0
1407.596802 116.0
1407.813354 176.0
1407.932129 124.0
1408.015015 104.0
1408.134521 104.0
1408.220703 120.0
1408.328735 160.0
1408.485596 140.0
1408.560303 244.0
1408.688721 148.0
1408.94873 192.0
1409.030884 116.0
1409.136841 156.0
1409.434448 216.0
1409.509155 148.0
1409.658569 108.0
1409.750244 164.0
1409.916382 112.0
1409.937134 172.0
1410.106934 152.0
1410.155518 148.0
1410.226562 52.0
1410.381836 108.0
1410.531982 328.0
1410.834473 152.0
1410.90686 104.0
1410.974121 136.0
1411.086304 184.0
1411.194214 128.0
1411.265747 176.0
1411.400269 168.0
1411.48999 132.0
1411.607666 188.0
1411.656006 256.0
1411.72937 252.0
1411.789185 296.0
1411.983643 156.0
1412.050903 176.0
1412.25647 148.0
1412.338501 152.0
1412.440186 96.0
1412.6521 184.0
1412.715454 184.0
1412.890503 132.0
1412.953369 200.0
1413.068237 144.0
1413.16272 192.0
1413.318726 152.0
1413.443481 168.0
1413.602295 188.0
1413.677368 220.0
1413.760742 132.0
1413.929443 160.0
1414.089478 188.0
1414.175415 152.0
1414.373169 184.0
1414.520142 168.0
1414.632446 148.0
1414.750854 252.0
1414.843506 148.0
1415.006714 152.0
1415.111572 116.0
1415.186401 92.0
1415.280396 220.0
1415.373657 220.0
1415.635742 104.0
1415.837891 196.0
1415.958862 140.0
1416.031616 176.0
1416.107544 156.0
1416.154053 136.0
1416.267822 208.0
1416.377197 88.0
1416.437134 112.0
1416.540894 112.0
1416.599243 184.0
1416.67688 192.0
1416.725342 136.0
1416.835083 160.0
1416.916626 164.0
1416.999023 80.0
1417.186279 236.0
1417.3573 228.0
1417.433594 188.0
1417.579224 232.0
1417.700684 192.0
1417.866089 180.0
1417.988159 180.0
1418.100586 148.0
1418.370483 92.0
1418.488159 268.0
1418.587769 168.0
1418.787231 148.0
1418.940186 180.0
1419.022705 212.0
1419.075195 164.0
1419.367554 144.0
1419.564819 160.0
1419.682495 144.0
1419.780029 196.0
1419.9375 128.0
1420.200073 120.0
1420.342529 152.0
1420.39502 120.0
1420.556152 144.0
1420.620117 112.0
1420.800171 148.0
1421.10022 128.0
1421.205322 124.0
1421.27771 212.0
1421.335205 196.0
1421.469971 180.0
1421.65918 132.0
1421.895752 176.0
1422.010864 228.0
1422.11438 140.0
1422.225952 128.0
1422.293579 136.0
1422.376099 116.0
1422.443604 164.0
1422.536377 288.0
1422.661377 140.0
1422.743896 128.0
1422.894043 56.0
1423.023315 116.0
1423.177856 136.0
1423.427246 136.0
1423.509766 108.0
1423.604492 132.0
1423.709473 248.0
1423.802734 244.0
1423.915894 164.0
1424.009644 64.0
1424.157959 196.0
1424.313477 96.0
1424.651489 132.0
1424.846802 128.0
1424.929443 132.0
1425.064697 204.0
1425.274902 136.0
1425.395996 176.0
1425.665894 168.0
1425.786133 156.0
1425.94043 168.0
1426.001587 160.0
1426.288574 184.0
1426.313354 156.0
1426.338867 96.0
1426.42395 204.0
1426.549072 56.0
1426.751831 388.0
1426.92334 188.0
1427.011353 116.0
1427.373657 208.0
1427.574951 180.0
1427.695679 144.0
1427.798584 164.0
1427.90625 292.0
1427.991821 120.0
1428.071777 144.0
1428.237671 172.0
1428.349976 136.0
1428.477417 116.0
1428.62085 120.0
1428.804932 204.0
1428.828857 136.0
1429.000488 256.0
1429.124878 156.0
1429.207642 192.0
1429.274536 184.0
1429.395874 112.0
1429.501221 68.0
1429.594971 192.0
1429.877563 384.0
1430.008667 132.0
1430.058105 192.0
1430.163574 192.0
1430.27002 132.0
1430.349976 156.0
1430.919678 124.0
1431.149658 136.0
1431.311035 188.0
1431.37561 152.0
1431.428345 184.0
1431.516724 132.0
1431.747803 164.0
1432.106079 472.0
1432.226562 180.0
1432.317017 240.0
1432.374268 212.0
1432.407227 128.0
1432.42334 152.0
1432.47522 256.0
1432.580688 140.0
1432.689941 120.0
1432.826416 116.0
1432.840332 120.0
1432.987549 144.0
1433.040283 156.0
1433.100464 140.0
1433.203125 188.0
1433.303955 252.0
1433.364258 144.0
1433.441772 196.0
1433.463501 180.0
1433.567993 296.0
1433.725952 188.0
1433.868408 160.0
1434.04187 136.0
1434.160034 240.0
1434.271973 152.0
1434.540039 148.0
1434.62207 136.0
1434.698364 196.0
1434.991211 188.0
1435.13562 84.0
1435.331665 220.0
1435.424683 308.0
1435.486816 104.0
1435.591919 132.0
1435.817627 200.0
1435.949341 176.0
1436.108521 112.0
1436.191406 204.0
1436.274292 172.0
1436.327271 196.0
1436.425293 244.0
1436.523315 156.0
1436.621582 144.0
1436.744141 148.0
1436.942505 232.0
1437.033081 224.0
1437.127319 168.0
1437.194824 148.0
1437.383423 220.0
1437.436279 160.0
1437.575684 188.0
1437.738159 208.0
1437.836304 160.0
1437.927734 128.0
1437.982788 124.0
1438.009277 52.0
1438.036743 120.0
1438.249023 120.0
1438.364624 104.0
1438.510742 324.0
1438.689209 92.0
1438.900635 200.0
1439.012817 176.0
1439.164917 148.0
1439.285645 148.0
1439.346069 212.0
1439.503418 148.0
1439.587769 132.0
1439.723633 156.0
1439.873047 204.0
1439.965332 36.0
1440.025757 84.0
1440.086182 116.0
1440.244873 124.0
1440.314575 316.0
1440.380737 152.0
1440.485107 172.0
1440.622437 140.0
1440.713135 120.0
1440.917114 72.0
1440.992676 164.0
1441.1073 144.0
1441.189209 112.0
1441.287354 192.0
1441.378052 128.0
1441.616211 228.0
1441.734497 148.0
1441.808838 108.0
1442.129395 192.0
1442.216919 140.0
1442.297119 212.0
1442.435303 172.0
1442.583862 172.0
1442.713013 140.0
1442.849731 132.0
1443.063721 68.0
1443.156982 212.0
1443.377808 220.0
1443.493164 140.0
1443.683716 112.0
1443.736694 72.0
1443.89917 196.0
1443.966797 240.0
1444.11145 128.0
1444.36438 228.0
1444.488037 168.0
1444.547119 140.0
1444.717896 444.0
1444.772949 148.0
1444.86377 140.0
1445.007446 88.0
1445.104126 360.0
1445.234497 112.0
1445.34021 196.0
1445.431152 176.0
1445.499268 80.0
1445.55603 148.0
1445.620361 104.0
1445.688477 36.0
1445.741455 200.0
1445.824707 88.0
1445.877686 172.0
1445.97876 200.0
1446.182861 200.0
1446.299561 140.0
1446.437744 128.0
1446.540771 180.0
1446.627075 68.0
1446.786011 40.0
1447.022583 152.0
1447.10144 176.0
1447.467529 128.0
1447.614014 180.0
1447.732544 356.0
1447.823364 172.0
1448.048462 100.0
1448.105957 152.0
1448.202148 108.0
1448.265991 72.0
1448.43689 144.0
1448.499023 144.0
1448.626343 104.0
1448.703247 132.0
1448.866577 340.0
1449.111206 88.0
1449.346069 180.0
1449.429443 108.0
1449.543091 208.0
1449.664307 140.0
1449.863159 324.0
1449.918335 168.0
1450.028076 316.0
1450.088013 140.0
1450.313965 128.0
1450.334473 216.0
1450.52832 108.0
1450.598511 132.0
1450.649658 144.0
1450.814331 132.0
1450.921997 108.0
1450.964966 248.0
1451.096924 324.0
1451.203125 64.0
1451.311401 196.0
1451.43811 160.0
1451.513916 108.0
1451.58667 184.0
1451.741455 88.0
1451.923462 132.0
1452.014526 112.0
1452.077759 156.0
1452.293091 132.0
1452.431641 132.0
1452.499878 200.0
1452.71228 120.0
1452.777466 180.0
1452.840454 152.0
1452.904419 136.0
1452.981445 112.0
1453.008789 52.0
1453.027588 116.0
1453.117432 112.0
1453.250977 132.0
1453.40918 124.0
1453.647583 200.0
1453.795898 212.0
1453.888428 188.0
1454.093384 176.0
1454.156494 288.0
1454.214844 124.0
1454.381714 132.0
1454.434692 120.0
1454.526001 108.0
1454.680054 192.0
1454.920776 136.0
1454.981445 164.0
1455.034668 84.0
1455.127075 164.0
1455.216797 76.0
1455.36084 196.0
1455.467407 168.0
1455.581299 148.0
1455.634521 100.0
1455.756836 208.0
1455.862305 208.0
1455.967896 128.0
1456.029419 132.0
1456.135742 212.0
1456.33313 136.0
1456.424316 132.0
1456.53064 228.0
1456.641968 196.0
1456.78833 140.0
1456.864868 96.0
1456.93335 172.0
1457.0 132.0
1457.206787 144.0
1457.267578 232.0
1457.541138 204.0
1457.64209 184.0
1457.745117 176.0
1457.822266 116.0
1457.983521 192.0
1458.049072 160.0
1458.179443 156.0
1458.331543 60.0
1458.384766 164.0
1458.529175 132.0
1458.654053 220.0
1458.84082 116.0
1459.365112 184.0
1459.468506 284.0
1459.559814 268.0
1459.686035 456.0
1459.753174 56.0
1459.829224 132.0
1459.979248 296.0
1460.095459 72.0
1460.151978 136.0
1460.376831 100.0
1460.445312 116.0
1460.498535 240.0
1460.690552 220.0
1460.848511 236.0
1460.993042 132.0
1461.11731 372.0
1461.199951 164.0
1461.276001 164.0
1461.383301 200.0
1461.53479 152.0
1461.776733 132.0
1461.980591 248.0
1462.111572 192.0
1462.339844 96.0
1462.499756 176.0
1462.62915 192.0
1462.784424 344.0
1462.852539 92.0
1462.988159 280.0
1463.212402 180.0
1463.293701 152.0
1463.344727 208.0
1463.410767 256.0
1463.476807 212.0
1463.771484 180.0
1463.870117 116.0
1464.03772 136.0
1464.098633 148.0
1464.189087 332.0
1464.273804 172.0
1464.578491 160.0
1464.692749 116.0
1464.789429 384.0
1464.842896 244.0
1464.921265 128.0
1465.049561 180.0
1465.241211 60.0
1465.294556 280.0
1465.408813 92.0
1465.546021 156.0
1465.614502 192.0
1465.759277 164.0
1465.908325 204.0
1466.098511 116.0
1466.124023 196.0
1466.238647 152.0
1466.255737 136.0
1466.279175 172.0
1466.505493 84.0
1466.68811 316.0
1466.78064 164.0
1467.149292 296.0
1467.356567 364.0
1467.438477 96.0
1467.486694 168.0
1467.550659 136.0
1467.863281 176.0
1468.000488 152.0
1468.098633 184.0
1468.259766 324.0
1468.33606 80.0
1468.473389 128.0
1468.585449 132.0
1468.709839 84.0
1468.770874 124.0
1468.869995 152.0
1468.965576 160.0
1469.083618 76.0
1469.212524 496.0
1469.444214 180.0
1469.569702 184.0
1469.779785 112.0
1469.805664 120.0
1469.833252 160.0
1469.907593 176.0
1469.965698 164.0
1470.060181 88.0
1470.136597 136.0
1470.277588 124.0
1470.441772 192.0
1470.597656 172.0
1470.670776 40.0
1470.815796 124.0
1470.967285 176.0
1471.105957 172.0
1471.200806 208.0
1471.285278 160.0
1471.39917 172.0
1471.464722 76.0
1471.647949 188.0
1471.828735 156.0
1471.906494 136.0
1472.029785 172.0
1472.235962 312.0
1472.296997 40.0
1472.610229 200.0
1472.854614 128.0
1472.92334 296.0
1472.992065 96.0
1473.157104 172.0
1473.282349 140.0
1473.343506 240.0
1473.466553 144.0
1473.539429 148.0
1473.626221 152.0
1473.824829 236.0
1473.970093 164.0
1474.220581 144.0
1474.335205 148.0
1474.390381 40.0
1474.451538 184.0
1474.520264 76.0
1474.745117 76.0
1474.872437 112.0
1474.950317 136.0
1475.047729 180.0
1475.231201 140.0
1475.308228 136.0
1475.483398 168.0
1475.543457 156.0
1475.628662 176.0
1475.739014 220.0
1475.828369 68.0
1476.033936 168.0
1476.12915 200.0
1476.1521 88.0
1476.174805 152.0
1476.282471 120.0
1476.416382 104.0
1476.565186 148.0
1476.729858 112.0
1476.798706 160.0
1476.939331 116.0
1477.007446 228.0
1477.081787 132.0
1477.237671 208.0
1477.343872 232.0
1477.428711 148.0
1477.462524 168.0
1477.479126 136.0
1477.563721 36.0
1477.663208 120.0
1477.839111 76.0
1477.928467 512.0
1477.984497 108.0
1478.045776 120.0
1478.116943 344.0
1478.214111 100.0
1478.43335 196.0
1478.490967 188.0
1478.600342 164.0
1478.688354 188.0
1478.873779 288.0
1478.964111 112.0
1479.063599 136.0
1479.161865 168.0
1479.239746 188.0
1479.400513 188.0
1479.614868 168.0
1479.680054 108.0
1479.793701 200.0
1479.940063 288.0
1480.016113 232.0
1480.166138 44.0
1480.443115 180.0
1480.549072 156.0
1480.729248 180.0
1480.863037 140.0
1480.945068 224.0
1481.016724 176.0
1481.210571 300.0
1481.320923 148.0
1481.460571 100.0
1481.677612 128.0
1481.994751 188.0
1482.142456 144.0
1482.218994 48.0
1482.398315 144.0
1482.432495 56.0
1482.453491 136.0
1482.553101 208.0
1482.684082 152.0
1482.79187 184.0
1482.916504 192.0
1482.97876 204.0
1483.077393 108.0
1483.166382 228.0
1483.18689 140.0
1483.226929 128.0
1483.241211 204.0
1483.322754 200.0
1483.376343 44.0
1483.453003 176.0
1483.64917 128.0
1483.813721 208.0
1483.879272 200.0
1483.974365 144.0
1484.081543 180.0
1484.227417 164.0
1484.34436 180.0
1484.463257 284.0
1484.565308 320.0
1484.626099 172.0
1484.829224 140.0
1485.032471 168.0
1485.132324 64.0
1485.246094 72.0
1485.486328 164.0
1485.540527 164.0
1485.65686 96.0
1485.768433 148.0
1485.842285 252.0
1485.942261 220.0
1486.004639 112.0
1486.060547 128.0
1486.244751 116.0
1486.302002 132.0
1486.58374 344.0
1486.724854 204.0
1486.815308 148.0
1486.912354 128.0
1487.058228 108.0
1487.200562 136.0
1487.273193 160.0
1487.326904 180.0
1487.418945 140.0
1487.469238 156.0
1487.756714 128.0
1487.952881 184.0
1488.039917 136.0
1488.21582 152.0
1488.30957 84.0
1488.488525 236.0
1488.567871 192.0
1488.613525 48.0
1488.62854 104.0
1488.701172 120.0
1488.805176 156.0
1488.870117 216.0
1489.008423 152.0
1489.200195 164.0
1489.430786 320.0
1489.504761 128.0
1489.709473 228.0
1489.814941 140.0
1489.882202 164.0
1490.030029 92.0
1490.163208 204.0
1490.227661 160.0
1490.483398 112.0
1490.629395 324.0
1490.780762 160.0
1490.893677 192.0
1491.037598 160.0
1491.089233 128.0
1491.21582 300.0
1491.274902 148.0
1491.378174 140.0
1491.444092 220.0
1491.551392 112.0
1491.62561 244.0
1491.822021 216.0
1492.014282 172.0
1492.108521 112.0
1492.305054 44.0
1492.481934 136.0
1492.585815 160.0
1492.658813 76.0
1492.804932 128.0
1492.866455 88.0
1493.042236 152.0
1493.092773 204.0
1493.218506 148.0
1493.289429 136.0
1493.358276 160.0
1493.469482 184.0
1493.588379 324.0
1493.644775 160.0
1493.830688 108.0
1493.880005 188.0
1493.964355 244.0
1494.112549 144.0
1494.259277 144.0
1494.32019 156.0
1494.383057 140.0
1494.512573 144.0
1494.580811 124.0
1494.651123 80.0
1494.704956 184.0
1494.860596 140.0
1495.015991 280.0
1495.135864 204.0
1495.277466 216.0
1495.387207 340.0
1495.443726 48.0
1495.543823 132.0
1495.76709 160.0
1495.851318 132.0
1495.886475 124.0
1496.018311 204.0
1496.134399 208.0
1496.221436 152.0
1496.409546 180.0
1496.450317 128.0
1496.509033 208.0
1496.580933 152.0
1496.649414 180.0
1496.767944 156.0
1496.83728 104.0
1496.903687 136.0
1496.981934 452.0
1497.033203 120.0
1497.122192 88.0
1497.258423 104.0
1497.319824 80.0
1497.381958 184.0
1497.562012 240.0
1497.709229 160.0
1497.83728 128.0
1498.018677 252.0
1498.379395 236.0
1498.435547 104.0
1498.508667 148.0
1498.75415 308.0
1498.839966 164.0
1498.924805 184.0
1498.97876 112.0
1499.071167 152.0
1499.125122 124.0
1499.286987 144.0
1499.371704 220.0
1499.448853 332.0
1499.588745 192.0
1499.64917 80.0
1499.789062 180.0
1499.891479 152.0
1499.996094 216.0
1500.227417 160.0
1500.301025 144.0
1500.373779 96.0
1500.478149 176.0
1500.628296 108.0
1500.736206 128.0
1500.93689 176.0
1500.998413 156.0
1501.095825 152.0
1501.16748 252.0
1501.252808 176.0
1501.391724 80.0
1501.524048 168.0
1501.602905 184.0
1501.74646 68.0
1501.800415 172.0
1502.039307 100.0
1502.116699 116.0
1502.487061 268.0
1502.549927 172.0
1502.687622 120.0
1502.841919 180.0
1503.025513 192.0
1503.098999 152.0
1503.166016 180.0
1503.353882 224.0
1503.436157 116.0
1503.562378 268.0
1503.621338 168.0
1503.70105 232.0
1503.791138 80.0
1503.959961 128.0
1504.029297 164.0
1504.093872 180.0
1504.231079 200.0
1504.285156 120.0
1504.362305 160.0
1504.478149 144.0
1504.551025 236.0
1504.690308 184.0
1504.748413 192.0
1504.810181 100.0
1504.881592 192.0
1504.9646 48.0
1505.049438 200.0
1505.134399 88.0
1505.194824 160.0
1505.333984 160.0
