>compound NCGC00160140-01!LOBARIC ACID
>formula C25H28O8
>ionization [M+H]+
>parentmass 457.18569430809055
#inchi InChI=1S/C25H28O8/c1-4-6-8-9-14-22(24(28)29)18(27)12-21-23(14)32-20-13-19(31-3)15(17(26)10-7-5-2)11-16(20)25(30)33-21/h11-13,27H,4-10H2,1-3H3,(H,28,29)
#inchikey RQGOSSYDPQTDRA
#Ion_Source LC-ESI
#Instrument qTOF
#Compound_Source Prestwick Phytochem Lib
#PI Dorrestein
#Data_Collector VVP/LMS
#Scan -1
#Precursor_MZ 457.186
#ExactMass 456.178
#Charge 1
#CAS_Number N/A
#Pubmed_ID N/A
#Smiles CCCCCC1=C(C(O)=O)C(O)=CC2=C1OC3=C(C=C(C(=O)CCCC)C(OC)=C3)C(=O)O2
#INCHI_AUX N/A
#Library_Class 1
#SpectrumID CCMSLIB00000078791
#IonMode Positive
#UpdateWorkflowName UPDATE-SINGLE-ANNOTATED-GOLD
#LibraryQualityString Gold
#TaskID 67c915c6594c435cadc1fe2b5358144d
##Scan# 2767
#SpectrumFile p1-B04_GB4_01_17888.mzXML
#LibraryName phytochem_lib.mgf
#MQScore -1
#Organism phytochem_lib
#TIC_Query 0
#RT_Query -1
#MZErrorPPM -1
#SharedPeaks 0
#MassDiff 0
#LibMZ -1
#SpecMZ 457.186
#SpecCharge 0
#internalFilename spec-00000.mgf

>collision 10
95.141464 136.0
95.392059 40.0
95.456215 164.0
95.785126 204.0
95.919579 168.0
96.091187 172.0
96.335213 108.0
96.700859 36.0
96.916267 140.0
97.235901 208.0
97.601288 144.0
97.654381 196.0
97.679955 152.0
97.695686 188.0
97.78817 148.0
97.831474 120.0
97.87085 200.0
98.048134 216.0
98.111214 176.0
98.140785 136.0
98.203453 72.0
98.32621 160.0
99.043915 160.0
99.305542 124.0
99.355133 184.0
99.589363 156.0
100.028801 32.0
100.433289 120.0
100.654808 224.0
100.704735 120.0
101.076576 132.0
101.194664 212.0
101.276764 108.0
101.649658 156.0
101.697823 104.0
102.857201 116.0
102.996521 76.0
103.052605 116.0
103.073288 184.0
103.228935 140.0
103.950081 192.0
104.039383 152.0
104.59433 176.0
104.669662 180.0
105.068474 784.0
106.456879 44.0
107.189186 208.0
107.407722 208.0
107.961227 180.0
107.994316 208.0
108.083275 120.0
108.103966 136.0
108.126732 56.0
108.53067 96.0
108.67794 144.0
108.833603 44.0
108.933289 184.0
108.958221 304.0
109.025307 328.0
109.719917 252.0
110.037025 172.0
110.055817 76.0
110.13726 152.0
110.454979 176.0
110.662155 240.0
110.708221 64.0
110.821335 124.0
111.083389 104.0
111.51593 180.0
111.833519 196.0
112.033562 128.0
112.273842 136.0
112.351891 124.0
112.805916 212.0
112.839737 168.0
113.135918 104.0
113.517296 40.0
114.514 188.0
114.724945 140.0
115.000114 224.0
115.052704 352.0
115.141022 56.0
115.354683 136.0
115.679832 140.0
115.793312 80.0
115.896141 172.0
116.064529 492.0
116.15554 200.0
116.350822 244.0
116.67952 180.0
116.834358 128.0
116.860176 204.0
117.071121 208.0
117.183128 92.0
117.23484 160.0
117.275787 144.0
117.493584 148.0
117.558311 28.0
117.671463 228.0
117.923286 140.0
118.040024 156.0
118.081116 224.0
118.121964 176.0
118.15033 100.0
118.358109 128.0
118.646263 140.0
118.683121 184.0
119.045494 160.0
119.088371 172.0
119.665184 192.0
119.737045 116.0
119.826355 232.0
120.059586 152.0
120.0923 160.0
120.386925 152.0
120.743141 136.0
120.867828 132.0
121.063377 384.0
121.1875 200.0
121.652443 112.0
121.709518 148.0
121.803909 192.0
122.047897 172.0
122.640083 108.0
123.043945 144.0
123.080177 292.0
123.185097 72.0
123.274475 44.0
123.379562 188.0
123.625076 56.0
123.642776 128.0
123.830963 124.0
124.02594 116.0
124.08136 160.0
124.551811 192.0
124.978645 192.0
125.107727 164.0
125.261383 164.0
125.279198 124.0
125.363869 72.0
125.406212 204.0
125.928291 108.0
126.073509 132.0
126.366432 120.0
126.476082 76.0
126.58802 184.0
126.617134 204.0
127.060951 192.0
127.128265 264.0
127.146217 128.0
127.633682 140.0
127.818123 132.0
128.060165 440.0
128.151367 140.0
128.494064 112.0
128.999924 164.0
129.067215 496.0
129.092621 168.0
129.783249 172.0
129.976044 124.0
130.032776 88.0
130.273453 200.0
130.323441 180.0
130.512085 136.0
130.528 148.0
130.57576 68.0
130.751968 108.0
130.935349 176.0
130.969513 144.0
131.086243 348.0
131.539551 252.0
131.781631 192.0
131.831894 132.0
131.973618 64.0
132.019348 148.0
132.051361 116.0
132.090256 160.0
132.470245 140.0
132.648972 60.0
132.749847 144.0
132.983856 140.0
133.030838 180.0
133.062881 340.0
133.245636 288.0
133.601974 80.0
133.675598 104.0
134.032516 216.0
134.066299 112.0
134.131607 180.0
134.295319 148.0
134.352478 112.0
134.673843 168.0
134.812454 128.0
135.004333 144.0
135.049713 312.0
135.082962 184.0
135.316696 36.0
135.520508 56.0
135.622482 136.0
136.044647 148.0
136.07251 76.0
136.225784 136.0
136.418655 152.0
136.476776 112.0
136.758255 156.0
136.809464 212.0
136.874664 164.0
137.021255 388.0
137.06308 184.0
137.637131 144.0
137.779602 132.0
137.905792 144.0
137.982925 204.0
138.022675 144.0
138.566055 148.0
138.849304 20.0
138.919678 160.0
139.055496 208.0
139.143478 228.0
139.173569 176.0
139.292908 180.0
140.069153 112.0
140.27179 172.0
140.639755 168.0
140.771973 144.0
140.821564 120.0
141.065186 76.0
141.270676 88.0
141.306152 160.0
141.728531 204.0
141.848465 108.0
142.01918 228.0
142.083939 188.0
142.363312 148.0
142.451187 208.0
142.624649 184.0
142.862442 116.0
142.895737 176.0
143.052979 336.0
143.086655 168.0
143.987473 164.0
144.056747 76.0
144.094971 148.0
144.656952 152.0
144.680893 116.0
144.784485 240.0
144.951538 148.0
144.970703 216.0
145.018646 192.0
145.064651 292.0
145.099579 348.0
145.606445 56.0
145.635269 148.0
145.714539 188.0
145.904388 116.0
145.94046 136.0
146.06311 196.0
146.128052 76.0
146.474716 164.0
146.556625 180.0
146.884491 160.0
146.952042 176.0
147.049149 200.0
147.076355 204.0
147.147537 108.0
147.422897 128.0
147.461563 64.0
147.509903 108.0
147.553406 96.0
147.686417 168.0
147.720276 204.0
147.892075 156.0
147.96228 96.0
148.047668 192.0
148.090607 144.0
149.027176 344.0
149.065292 244.0
149.284637 116.0
149.362473 136.0
150.029694 144.0
150.051392 164.0
150.107513 152.0
150.134537 168.0
150.332672 232.0
150.429764 172.0
150.54451 176.0
150.952606 144.0
151.038849 424.0
151.07373 144.0
151.09935 140.0
151.123825 204.0
151.282898 108.0
151.520447 136.0
151.593948 116.0
152.079544 236.0
152.627365 164.0
153.063995 196.0
153.960495 100.0
154.068085 228.0
154.096344 144.0
154.205078 184.0
154.880539 184.0
155.049011 172.0
155.08992 212.0
155.314301 104.0
155.604645 124.0
155.83313 220.0
156.058014 176.0
156.089142 164.0
156.731339 204.0
157.060547 144.0
157.095337 140.0
157.112793 160.0
157.607132 220.0
158.073105 972.0
158.122269 144.0
158.563049 68.0
158.595642 116.0
158.868958 100.0
159.034393 164.0
159.074539 156.0
159.152557 228.0
159.408096 180.0
159.567123 144.0
159.63501 132.0
159.861404 216.0
159.919281 220.0
160.049988 192.0
160.092148 176.0
161.026108 124.0
161.06012 148.0
161.090485 160.0
161.22316 64.0
161.653061 216.0
161.723923 196.0
161.853027 188.0
161.91127 60.0
162.063583 156.0
162.671921 212.0
163.004623 52.0
163.040024 580.0
163.462341 104.0
163.681244 56.0
163.709259 152.0
164.04303 152.0
164.060867 312.0
164.077423 152.0
164.106766 232.0
164.125641 128.0
164.208755 176.0
164.377136 200.0
164.466461 172.0
164.617081 152.0
165.053833 184.0
165.312393 96.0
165.558136 164.0
165.734894 224.0
166.045074 212.0
166.078217 176.0
166.137405 48.0
166.268265 148.0
166.442825 124.0
166.483917 96.0
166.62262 160.0
166.812775 156.0
167.051926 172.0
167.082443 432.0
167.43544 144.0
168.05542 232.0
168.088684 196.0
168.154724 108.0
168.405167 136.0
168.93248 200.0
169.028198 172.0
169.059586 156.0
169.100662 124.0
169.621277 128.0
169.680893 232.0
169.935059 172.0
170.015503 120.0
170.063217 240.0
170.173843 184.0
170.215393 164.0
170.488144 164.0
170.771515 200.0
171.043762 196.0
171.077957 332.0
171.146255 84.0
171.391098 172.0
171.656967 132.0
171.722168 144.0
172.052475 164.0
172.091537 256.0
172.15538 112.0
172.301651 120.0
172.495026 116.0
172.65976 64.0
172.722855 160.0
173.060684 312.0
173.09697 632.0
173.198914 124.0
173.736282 192.0
173.8806 92.0
173.967209 192.0
174.06517 500.0
174.09996 164.0
174.12738 168.0
174.495255 116.0
175.072891 520.0
175.097839 164.0
175.624969 212.0
175.965378 228.0
176.041946 220.0
176.078918 204.0
176.340469 128.0
176.454147 184.0
176.610153 104.0
176.885345 160.0
177.015076 156.0
177.057785 320.0
177.0923 804.0
177.603424 168.0
177.852829 192.0
177.882034 36.0
178.076599 176.0
178.105072 208.0
178.392059 44.0
178.538284 136.0
178.610092 52.0
178.78569 132.0
178.814972 252.0
178.905472 136.0
179.014633 200.0
179.034286 348.0
179.08429 360.0
179.376968 248.0
179.987915 184.0
180.086731 116.0
180.763092 140.0
181.068359 516.0
181.10376 276.0
181.175415 88.0
181.277222 220.0
181.373718 80.0
181.574799 172.0
181.727692 152.0
182.02832 52.0
182.071289 308.0
182.111572 180.0
182.305008 176.0
182.829407 244.0
183.04837 176.0
183.079559 456.0
183.323593 144.0
183.858856 100.0
184.047302 400.0
184.090057 152.0
184.120728 168.0
185.058228 472.0
185.094696 224.0
185.572266 168.0
185.617203 256.0
185.912888 60.0
186.063644 144.0
186.30658 140.0
186.34462 216.0
186.703415 128.0
186.760529 104.0
187.005402 184.0
187.038071 176.0
187.076309 572.0
187.106125 160.0
187.204147 124.0
187.926468 184.0
188.049271 172.0
188.082016 296.0
188.103867 164.0
188.666595 204.0
188.710342 144.0
188.873917 152.0
189.056351 128.0
189.064133 180.0
189.092194 328.0
189.843948 124.0
189.99205 176.0
190.07016 240.0
190.101807 132.0
190.225311 120.0
190.530136 96.0
190.667526 248.0
190.978195 168.0
191.036697 296.0
191.083847 388.0
191.106186 484.0
191.190033 44.0
191.514908 256.0
191.897949 160.0
192.043091 136.0
192.112 312.0
192.30069 100.0
192.527084 116.0
192.780167 176.0
192.861374 168.0
193.048523 476.0
193.097946 308.0
193.87709 56.0
193.95192 120.0
194.012909 176.0
194.069275 340.0
194.090225 180.0
194.10936 152.0
194.145996 140.0
194.179276 76.0
194.201462 84.0
194.243073 88.0
194.664932 52.0
194.964951 176.0
195.062027 156.0
195.08374 428.0
195.128952 164.0
195.184555 144.0
195.306915 116.0
195.526718 132.0
195.796753 92.0
196.062851 172.0
196.084244 164.0
196.354141 84.0
196.716873 84.0
196.817383 160.0
197.060699 256.0
197.090851 240.0
197.675781 192.0
197.801453 140.0
197.958237 128.0
198.062637 348.0
198.109482 200.0
198.786835 68.0
199.036728 152.0
199.072372 976.0
199.100449 156.0
199.21756 100.0
199.619476 100.0
199.726334 72.0
199.757278 152.0
199.990829 176.0
200.041489 112.0
200.080902 312.0
200.106247 200.0
200.819183 184.0
200.932007 104.0
200.957397 64.0
201.053345 376.0
201.08876 2332.0
201.131042 188.0
201.279175 132.0
201.305954 76.0
201.358246 76.0
201.454269 72.0
201.680328 156.0
201.793762 64.0
202.036621 100.0
202.057785 300.0
202.094711 340.0
202.169601 96.0
202.404556 132.0
202.63681 84.0
202.801163 176.0
202.959915 172.0
203.033646 164.0
203.074066 164.0
203.106216 204.0
203.249237 180.0
203.305984 132.0
203.533081 144.0
204.079483 132.0
204.098511 172.0
204.195206 204.0
204.556564 40.0
204.641968 108.0
205.049271 272.0
205.075562 208.0
205.096359 496.0
205.340103 168.0
205.582596 84.0
205.896622 140.0
206.068817 156.0
206.11087 140.0
206.628372 40.0
206.782898 184.0
207.037689 128.0
207.080933 272.0
207.115021 140.0
207.390091 44.0
207.544891 180.0
207.596512 180.0
207.946503 252.0
208.046967 304.0
208.085358 312.0
208.108734 200.0
208.377228 168.0
208.900452 200.0
209.074753 172.0
209.097 412.0
209.211243 112.0
209.312012 168.0
209.435852 144.0
209.597168 116.0
209.761444 76.0
209.830627 136.0
210.029602 132.0
210.070312 464.0
210.093155 184.0
210.237335 116.0
210.39032 68.0
210.635773 128.0
210.887146 160.0
210.950729 200.0
211.020126 176.0
211.073746 636.0
211.165741 200.0
211.289078 132.0
211.346954 60.0
211.581375 156.0
211.656662 276.0
211.897049 156.0
211.949524 180.0
212.045837 576.0
212.08049 408.0
212.169479 160.0
212.20137 152.0
212.308655 132.0
212.384064 200.0
212.462387 124.0
212.49913 216.0
212.546524 176.0
213.050003 256.0
213.094543 232.0
213.129715 272.0
213.165009 56.0
213.60112 116.0
214.059174 332.0
214.092987 232.0
214.57959 236.0
214.626236 160.0
214.742889 140.0
214.789551 112.0
214.842056 152.0
214.950012 108.0
215.071426 344.0
215.108887 184.0
215.501862 180.0
216.025177 124.0
216.048569 216.0
216.082993 172.0
216.189026 136.0
216.247543 72.0
216.417343 100.0
216.71022 160.0
216.754181 128.0
216.85968 120.0
217.054062 200.0
217.084885 1100.0
217.323013 164.0
217.378754 156.0
217.43158 180.0
217.801514 116.0
218.054123 160.0
218.077972 176.0
218.13356 68.0
218.194565 192.0
218.292328 172.0
218.327606 164.0
218.395248 164.0
218.583542 136.0
218.618851 128.0
218.827835 100.0
218.907333 92.0
219.010406 124.0
219.075623 188.0
219.106674 100.0
219.187164 44.0
219.343369 168.0
219.414124 40.0
219.434753 176.0
219.561554 152.0
219.815247 196.0
220.042511 364.0
220.086807 284.0
220.17244 128.0
220.482635 116.0
220.760529 100.0
221.018738 176.0
221.056244 176.0
221.097931 400.0
221.168793 108.0
221.2724 180.0
221.636703 232.0
222.066895 440.0
222.108093 340.0
222.639343 156.0
222.948288 76.0
223.073959 528.0
223.111633 172.0
223.465683 60.0
224.07869 500.0
224.63945 172.0
224.675247 220.0
224.702103 76.0
224.824448 200.0
225.05452 488.0
225.089172 604.0
225.121185 228.0
225.275284 240.0
225.343994 212.0
225.41272 132.0
225.604004 104.0
225.983826 120.0
226.013748 116.0
226.061172 540.0
226.094345 252.0
226.133438 132.0
226.226227 172.0
226.453796 36.0
226.726425 132.0
226.801361 116.0
226.969238 208.0
227.034119 140.0
227.068878 2016.0
227.099258 208.0
227.104492 432.0
227.353195 68.0
227.404221 152.0
227.80658 156.0
227.938766 136.0
227.995865 192.0
228.040405 292.0
228.078522 652.0
228.107071 352.0
228.576248 176.0
228.780899 100.0
229.049149 480.0
229.081116 264.0
229.120346 140.0
229.410507 104.0
230.031921 232.0
230.057816 104.0
230.088913 156.0
230.355026 40.0
230.799286 148.0
230.823486 144.0
230.856735 44.0
230.920258 172.0
231.020065 92.0
231.072342 176.0
231.083801 372.0
231.13504 176.0
231.171341 144.0
231.413498 160.0
231.44075 120.0
231.767868 104.0
232.105103 272.0
232.146774 84.0
232.283249 168.0
232.325714 168.0
232.365158 84.0
232.44101 52.0
232.717224 156.0
233.055832 296.0
233.090668 356.0
233.139999 152.0
233.355255 120.0
233.921097 40.0
234.072189 256.0
234.10022 316.0
234.338318 68.0
234.694931 140.0
235.077347 496.0
235.096558 548.0
235.204391 112.0
235.311234 232.0
235.509735 160.0
235.583038 52.0
235.616638 64.0
235.971161 104.0
236.08429 280.0
236.125 180.0
236.332062 88.0
236.653442 144.0
236.717743 136.0
236.854767 188.0
237.053101 544.0
237.08873 488.0
237.120529 460.0
237.232468 80.0
237.407227 44.0
237.802979 68.0
237.876648 172.0
237.956467 284.0
237.996384 164.0
238.063522 572.0
238.094086 232.0
238.24823 52.0
238.312897 240.0
238.761536 112.0
238.90918 152.0
238.93071 56.0
239.03389 200.0
239.067505 576.0
239.104996 300.0
239.139572 192.0
239.820633 112.0
240.036835 368.0
240.074905 560.0
240.112732 172.0
240.155411 184.0
240.352051 112.0
240.536224 64.0
240.71637 164.0
240.838821 140.0
241.044159 284.0
241.086121 776.0
241.11705 308.0
241.385834 100.0
241.435318 160.0
241.611618 104.0
241.825134 72.0
241.905609 120.0
242.058548 604.0
242.085724 176.0
242.119247 224.0
242.376358 104.0
242.487915 160.0
242.608795 140.0
242.915802 136.0
243.011978 188.0
243.036331 244.0
243.065186 716.0
243.101868 340.0
243.13179 120.0
244.040024 188.0
244.072159 456.0
244.106888 356.0
244.375931 136.0
244.496384 152.0
244.615555 104.0
244.855301 176.0
245.001694 144.0
245.08107 344.0
245.112305 236.0
246.083542 292.0
246.101181 320.0
246.221283 164.0
246.475098 160.0
246.643082 128.0
246.711853 176.0
246.877563 180.0
246.89946 148.0
247.079803 128.0
247.104431 568.0
247.650589 100.0
247.819748 44.0
248.081558 548.0
248.109268 304.0
248.23349 36.0
248.51265 164.0
248.622482 44.0
248.677521 224.0
248.773132 152.0
248.930115 152.0
248.955246 88.0
249.00235 180.0
249.059479 336.0
249.093719 780.0
249.354218 72.0
249.577408 56.0
250.024094 56.0
250.059952 352.0
250.095398 1244.0
250.132202 152.0
250.206665 156.0
250.609787 96.0
250.78627 108.0
250.830383 44.0
251.069214 1220.0
251.103561 464.0
251.25296 140.0
251.644302 160.0
251.849564 120.0
251.890625 168.0
252.030411 464.0
252.07724 1192.0
252.114044 524.0
252.18132 68.0
252.276138 68.0
252.301437 140.0
252.402603 132.0
252.453201 108.0
252.519608 60.0
252.835983 228.0
252.934097 176.0
253.04953 664.0
253.085495 404.0
253.126312 512.0
253.238052 56.0
253.28241 76.0
253.317245 84.0
253.434464 48.0
253.52002 28.0
253.605591 124.0
253.678497 220.0
253.72287 56.0
253.776779 132.0
253.798965 84.0
254.053497 488.0
254.095322 608.0
254.217682 136.0
254.436676 136.0
254.512878 160.0
254.805084 64.0
254.942795 108.0
254.987518 96.0
255.064362 2260.0
255.10054 552.0
255.246872 104.0
255.474228 124.0
255.52359 80.0
255.587219 160.0
255.622223 104.0
255.876862 168.0
256.034546 468.0
256.06842 480.0
256.11145 276.0
256.259033 172.0
256.475739 144.0
256.517181 88.0
257.043365 516.0
257.073364 252.0
257.1138 572.0
257.541443 152.0
257.621277 176.0
257.883301 188.0
257.940826 84.0
258.048218 172.0
258.089661 444.0
258.115082 80.0
258.171051 64.0
258.247803 160.0
258.286163 72.0
258.686157 88.0
258.990356 148.0
259.019165 220.0
259.094574 376.0
259.135315 272.0
259.221008 204.0
259.936096 132.0
259.977814 44.0
260.048431 160.0
260.071503 164.0
260.11673 112.0
260.252106 256.0
260.414429 60.0
260.449768 88.0
261.094269 352.0
261.549408 156.0
261.674957 148.0
262.022797 112.0
262.100189 624.0
262.125519 164.0
262.341827 40.0
262.593353 52.0
262.644958 56.0
262.806244 68.0
262.999878 76.0
263.069 580.0
263.104828 1104.0
263.23233 48.0
263.254913 108.0
263.406708 140.0
263.526245 108.0
263.639343 212.0
263.771851 140.0
263.881775 148.0
263.923798 44.0
263.965851 108.0
264.077057 1376.0
264.109619 376.0
264.140472 152.0
264.33136 176.0
264.383148 120.0
264.425201 108.0
264.920624 84.0
265.011322 188.0
265.047607 124.0
265.079071 664.0
265.121063 1804.0
265.176605 220.0
265.280304 76.0
265.393799 60.0
265.520264 68.0
265.562408 208.0
265.598083 44.0
265.634857 60.0
266.026184 164.0
266.050354 536.0
266.093231 348.0
266.129028 564.0
266.399872 112.0
266.682556 164.0
266.715057 52.0
266.884094 32.0
266.910126 104.0
267.063721 1588.0
267.102844 628.0
267.136261 140.0
267.174683 128.0
267.312347 92.0
267.362274 100.0
267.469696 172.0
267.691071 48.0
267.736664 172.0
267.765961 108.0
267.811554 104.0
267.902771 176.0
267.964661 104.0
268.067719 588.0
268.104156 280.0
268.14389 108.0
268.430756 112.0
268.58078 48.0
268.673218 120.0
268.753693 132.0
268.926636 152.0
268.997101 268.0
269.03949 244.0
269.077667 1628.0
269.115021 1588.0
269.210663 236.0
269.249878 188.0
269.333008 88.0
269.392029 88.0
269.651703 52.0
269.680847 96.0
269.824951 136.0
270.012115 300.0
270.054077 264.0
270.086517 356.0
270.118652 480.0
270.728027 108.0
270.760773 76.0
270.888519 156.0
271.061279 456.0
271.097839 752.0
271.137726 280.0
271.212921 120.0
271.321075 124.0
271.750732 68.0
271.954193 172.0
272.068878 492.0
272.094086 436.0
272.141296 160.0
272.348175 40.0
272.486145 160.0
273.005493 52.0
273.072327 308.0
273.111633 844.0
273.192963 172.0
273.400238 140.0
273.8414 100.0
274.012695 40.0
274.055542 148.0
274.117249 288.0
274.249969 32.0
274.731384 40.0
274.945862 84.0
274.985718 104.0
275.03067 196.0
275.069489 452.0
275.128845 288.0
275.451019 96.0
275.643768 140.0
275.807861 120.0
276.041199 240.0
276.075592 156.0
276.11377 120.0
276.14209 172.0
276.185242 156.0
277.046265 412.0
277.088257 668.0
277.117493 204.0
277.579071 80.0
277.963837 264.0
278.056152 296.0
278.091858 1068.0
278.123932 444.0
278.206146 44.0
278.435242 104.0
278.843872 44.0
278.893738 120.0
279.030029 252.0
279.062988 816.0
279.100494 1012.0
279.132782 560.0
279.289398 84.0
279.412476 32.0
279.495667 88.0
279.828491 76.0
279.994995 164.0
280.036896 264.0
280.072327 1052.0
280.109436 572.0
280.140594 128.0
280.191528 84.0
280.614777 48.0
280.714813 168.0
281.042694 748.0
281.076294 628.0
281.112457 536.0
281.19519 156.0
281.515686 80.0
281.833008 172.0
281.990082 92.0
282.046783 120.0
282.077667 252.0
282.087708 208.0
282.102173 140.0
282.11676 104.0
282.13858 428.0
282.180603 164.0
282.364532 88.0
282.43811 116.0
282.464874 88.0
282.498322 108.0
282.615417 72.0
282.655548 152.0
282.930023 244.0
283.024506 688.0
283.062408 172.0
283.093414 420.0
283.127441 720.0
283.221344 40.0
283.251495 128.0
283.299622 76.0
283.395538 56.0
283.462555 56.0
283.724426 184.0
284.031555 684.0
284.073853 216.0
284.089264 172.0
284.228943 80.0
284.470551 184.0
284.767548 148.0
284.90863 92.0
285.038239 668.0
285.109344 476.0
285.295105 68.0
285.557373 144.0
286.029205 160.0
286.107697 132.0
287.015503 164.0
287.067139 276.0
287.123932 1460.0
287.1875 156.0
287.307343 176.0
287.720673 80.0
287.825317 128.0
288.034332 172.0
288.069763 184.0
288.127533 1084.0
288.403015 28.0
288.578796 56.0
289.058105 152.0
289.084076 760.0
289.126556 192.0
289.153839 80.0
289.648193 188.0
289.763367 92.0
289.844666 168.0
289.939545 40.0
290.059662 196.0
290.089325 348.0
290.126129 304.0
290.220917 112.0
291.025055 156.0
291.063141 1280.0
291.09967 704.0
291.138184 340.0
291.619537 168.0
291.796295 32.0
291.918701 52.0
291.944885 168.0
292.030914 132.0
292.068542 772.0
292.112274 872.0
292.148132 256.0
292.272461 72.0
292.30307 148.0
292.599182 100.0
292.657074 172.0
292.922699 84.0
293.042786 284.0
293.0784 988.0
293.115448 1656.0
293.400513 132.0
293.611176 96.0
293.908966 68.0
293.959137 28.0
294.023987 112.0
294.051147 496.0
294.090393 532.0
294.10199 160.0
294.120361 416.0
294.165131 172.0
294.642029 44.0
294.741089 84.0
294.932495 156.0
295.094238 776.0
295.132416 316.0
295.493317 76.0
295.722565 48.0
295.767059 44.0
296.065887 456.0
296.098419 1016.0
296.132263 484.0
296.335541 60.0
296.897675 140.0
297.036163 256.0
297.071838 164.0
297.108582 508.0
297.182404 100.0
297.244171 156.0
297.268188 132.0
297.329956 72.0
297.656067 96.0
297.982361 200.0
298.046448 964.0
298.079224 648.0
298.174805 56.0
298.295074 108.0
298.374146 80.0
298.411987 144.0
298.460114 64.0
298.539185 132.0
298.896942 184.0
299.000183 112.0
299.046478 924.0
299.086914 280.0
299.124481 308.0
299.166199 132.0
299.199829 172.0
299.276306 132.0
299.719879 208.0
299.902527 52.0
300.061768 216.0
300.101227 108.0
300.133514 172.0
300.571564 52.0
300.940887 52.0
301.089569 116.0
301.141571 244.0
301.179169 136.0
302.098877 232.0
303.101562 312.0
303.137787 164.0
303.487427 96.0
303.803009 204.0
303.844635 160.0
304.035492 104.0
304.070129 144.0
304.110809 516.0
305.079987 664.0
305.123138 296.0
305.155212 316.0
305.560883 128.0
305.609589 80.0
305.839264 40.0
305.881042 132.0
306.093323 240.0
306.125519 152.0
306.232697 160.0
306.995941 168.0
307.061554 624.0
307.093506 1008.0
307.130646 684.0
307.178101 176.0
307.281952 60.0
307.421539 100.0
307.487823 112.0
307.637909 204.0
307.885284 108.0
307.910278 48.0
308.024933 192.0
308.066956 392.0
308.102966 1628.0
308.140778 516.0
308.493774 128.0
308.5672 64.0
308.61615 100.0
308.780487 72.0
309.035492 276.0
309.075684 376.0
309.111481 1756.0
309.147888 232.0
309.256317 44.0
309.522369 164.0
309.651947 48.0
309.739502 68.0
309.848114 40.0
309.907654 140.0
310.016296 52.0
310.053741 180.0
310.113983 996.0
310.151215 120.0
310.157593 176.0
310.209045 52.0
310.261627 108.0
310.475525 112.0
310.707031 72.0
310.917572 72.0
311.021271 168.0
311.050507 400.0
311.125275 700.0
311.163147 412.0
311.328308 44.0
311.373962 72.0
311.521484 132.0
312.033356 212.0
312.062469 312.0
312.12912 532.0
312.157104 136.0
312.203339 72.0
312.285583 144.0
312.38623 108.0
312.431946 168.0
312.681793 136.0
312.83667 68.0
312.935242 60.0
312.973969 64.0
313.033295 408.0
313.102478 568.0
313.164124 208.0
313.290924 148.0
313.407196 52.0
314.036438 96.0
314.083008 168.0
314.091858 76.0
314.104767 328.0
314.136963 140.0
314.182831 112.0
314.68045 144.0
314.952362 152.0
315.118042 532.0
315.284454 80.0
315.344543 108.0
315.62735 152.0
316.017487 688.0
316.057251 200.0
316.101349 140.0
316.135315 288.0
316.23584 140.0
316.33493 108.0
316.490723 172.0
316.618195 152.0
316.713806 244.0
317.017761 136.0
317.104034 144.0
317.162292 176.0
317.259521 76.0
317.443878 100.0
318.057648 116.0
318.099518 288.0
318.153503 136.0
318.373627 124.0
319.055847 136.0
319.10495 436.0
319.806396 176.0
319.874023 156.0
320.069824 140.0
320.101135 360.0
320.127289 240.0
320.152618 176.0
320.215851 108.0
320.440247 108.0
320.504395 176.0
321.033783 532.0
321.074371 488.0
321.108521 516.0
321.144958 224.0
321.189209 188.0
321.460022 92.0
321.492126 148.0
321.690308 184.0
321.891937 64.0
321.982635 60.0
322.041168 340.0
322.085938 456.0
322.115967 616.0
322.284851 160.0
322.452789 72.0
322.531433 52.0
322.610077 164.0
322.731628 128.0
322.837067 156.0
322.942627 76.0
323.006989 148.0
323.047363 176.0
323.089752 1400.0
323.130035 1244.0
323.162689 732.0
323.747864 40.0
323.805176 108.0
323.898285 76.0
324.047852 124.0
324.061279 120.0
324.089661 180.0
324.123444 508.0
324.171631 164.0
324.288849 32.0
324.403534 44.0
324.969513 164.0
325.045532 180.0
325.106903 620.0
325.17276 736.0
325.307526 52.0
325.530121 64.0
325.824646 44.0
326.099701 420.0
326.152374 136.0
326.180298 152.0
326.378143 108.0
326.465912 96.0
327.045044 736.0
327.085052 460.0
327.125122 336.0
327.202057 104.0
327.367676 80.0
327.857605 48.0
328.040955 124.0
328.080933 112.0
328.11438 184.0
329.103577 144.0
329.136169 176.0
329.164856 232.0
329.260956 84.0
329.325989 216.0
329.35849 104.0
329.886047 196.0
330.092133 56.0
330.122559 136.0
330.175293 116.0
330.638367 172.0
330.822968 144.0
331.095795 364.0
331.117035 192.0
331.148102 172.0
331.224915 236.0
331.261139 84.0
331.743103 148.0
332.065796 104.0
332.105682 276.0
332.141785 164.0
332.84964 120.0
332.904114 40.0
333.045471 208.0
333.070435 400.0
333.105591 468.0
333.146332 180.0
333.25415 120.0
333.785675 220.0
333.859863 28.0
333.91806 180.0
334.070831 124.0
334.111267 320.0
334.150848 304.0
335.049347 332.0
335.091949 940.0
335.114014 488.0
335.12149 264.0
335.345245 112.0
335.935944 120.0
336.094879 652.0
336.152893 144.0
336.253387 40.0
336.278931 64.0
336.362885 64.0
336.511292 116.0
336.95813 216.0
337.059113 188.0
337.10614 1744.0
337.169983 564.0
337.539276 60.0
337.711151 84.0
337.784302 36.0
338.112213 376.0
338.175201 116.0
338.18924 144.0
338.450378 48.0
338.681091 136.0
339.045685 320.0
339.07312 60.0
339.120728 312.0
339.194061 136.0
339.245392 72.0
339.450714 164.0
339.56073 60.0
339.751465 204.0
339.825623 184.0
339.85318 148.0
339.901886 80.0
339.993622 132.0
340.105011 332.0
340.130127 264.0
340.459869 88.0
340.559021 104.0
340.603088 124.0
340.90802 100.0
341.047699 332.0
341.097473 1116.0
341.175232 332.0
341.220459 272.0
341.448456 84.0
341.735352 132.0
342.105682 384.0
342.178864 224.0
342.633698 108.0
343.110046 124.0
343.191376 720.0
343.239502 108.0
343.452026 128.0
343.754547 76.0
343.787781 56.0
343.813599 168.0
343.854187 36.0
343.920624 68.0
344.092041 392.0
344.188995 116.0
344.31842 92.0
345.074158 240.0
345.13974 140.0
345.207428 356.0
345.635376 100.0
345.724182 48.0
346.052887 20.0
346.112885 140.0
346.141174 196.0
346.168427 140.0
346.327667 60.0
347.094513 148.0
347.123047 912.0
347.168945 232.0
347.206024 148.0
347.291687 124.0
347.899872 100.0
348.127716 244.0
348.138733 192.0
348.148987 368.0
348.464386 128.0
348.560974 88.0
348.884338 176.0
348.977295 152.0
349.070679 536.0
349.105438 440.0
349.136963 248.0
349.505432 88.0
349.576141 76.0
349.70639 192.0
349.747345 40.0
349.7771 208.0
350.071167 248.0
350.117279 248.0
350.25 108.0
350.965515 132.0
351.085297 1988.0
351.121185 548.0
351.158508 200.0
351.196838 156.0
351.252686 208.0
352.081879 280.0
352.133545 140.0
352.159698 176.0
352.301636 60.0
352.480957 152.0
352.615509 132.0
352.694427 156.0
352.836029 220.0
353.10025 216.0
353.131439 156.0
353.170898 812.0
353.516785 176.0
353.745087 48.0
353.977203 180.0
354.091553 204.0
354.122253 168.0
354.140106 96.0
354.170013 320.0
355.118042 884.0
355.172119 144.0
355.330292 56.0
356.120605 940.0
356.464203 56.0
357.13089 784.0
357.186035 164.0
358.138519 652.0
359.08847 128.0
359.567261 60.0
359.959869 96.0
359.986298 100.0
360.099609 148.0
361.144806 372.0
361.180573 136.0
361.637756 212.0
361.929901 144.0
362.108002 128.0
362.146179 300.0
362.36554 172.0
363.084412 240.0
363.119232 572.0
363.152985 256.0
363.588898 184.0
363.863525 124.0
364.079651 252.0
364.086304 332.0
364.124451 544.0
365.11203 440.0
365.173706 1312.0
365.699554 40.0
366.011719 84.0
366.133575 156.0
366.17868 168.0
366.32019 64.0
366.567841 84.0
367.076813 268.0
367.10379 216.0
367.125946 404.0
367.18222 316.0
367.284576 36.0
367.513458 52.0
367.6203 56.0
367.77298 88.0
368.123627 184.0
368.201263 180.0
368.246399 48.0
368.376282 96.0
368.800415 100.0
368.934204 148.0
369.093842 4740.0
369.173981 560.0
369.328064 100.0
369.408386 36.0
369.618256 64.0
369.683868 68.0
369.924988 56.0
370.097107 732.0
370.169708 476.0
370.311707 80.0
370.338531 72.0
371.104767 288.0
371.182892 1300.0
371.411743 48.0
371.503784 68.0
371.751801 128.0
371.781158 140.0
372.064087 96.0
372.124298 188.0
372.186859 392.0
372.544128 48.0
372.57486 164.0
373.097504 116.0
373.132111 84.0
373.188721 260.0
373.347412 48.0
373.605347 76.0
374.086151 92.0
374.124664 112.0
374.582886 96.0
374.667664 100.0
375.076111 188.0
375.153168 240.0
375.504089 60.0
375.673218 132.0
376.161652 124.0
376.519104 152.0
377.056122 92.0
377.094757 104.0
377.125671 152.0
377.173462 424.0
377.392426 72.0
377.674713 108.0
377.985077 160.0
378.131256 72.0
378.179962 124.0
378.255127 76.0
378.336395 180.0
378.591949 108.0
379.060669 96.0
379.153198 5492.0
379.289337 44.0
379.5867 108.0
379.700317 48.0
380.045563 100.0
380.107635 160.0
380.158783 1424.0
380.592834 40.0
380.647186 124.0
381.157928 120.0
381.655884 88.0
383.109589 244.0
383.190948 176.0
383.280579 60.0
383.806763 136.0
384.111542 192.0
384.157776 40.0
384.372345 120.0
384.489441 92.0
384.540161 144.0
385.168793 44.0
385.563385 108.0
385.778381 112.0
387.112549 136.0
387.60611 160.0
388.970886 72.0
389.120087 264.0
389.190735 136.0
389.488892 96.0
389.556 68.0
389.92926 80.0
390.133667 144.0
390.353821 112.0
391.137848 184.0
391.361145 160.0
391.565918 48.0
392.127258 256.0
392.160828 136.0
392.551117 60.0
393.059967 144.0
393.167084 2296.0
393.235718 28.0
393.273071 128.0
393.327759 164.0
393.438873 104.0
393.683655 132.0
394.075317 128.0
394.170135 360.0
394.307861 104.0
394.386902 56.0
394.548981 156.0
395.134277 168.0
395.180756 932.0
395.256927 40.0
395.391479 136.0
395.537933 168.0
395.640839 92.0
395.882355 68.0
395.937805 168.0
395.969482 92.0
396.096222 184.0
396.178772 456.0
396.484528 156.0
396.59549 48.0
396.734222 184.0
396.849213 112.0
396.999878 400.0
397.0354 88.0
397.073517 176.0
397.163452 15624.0
397.248901 112.0
397.25769 232.0
397.306671 60.0
397.404877 116.0
397.467957 152.0
397.539368 40.0
397.649536 116.0
397.777527 56.0
397.868805 40.0
397.908508 116.0
397.964111 88.0
398.003815 32.0
398.093048 168.0
398.164642 4236.0
398.32373 96.0
398.463776 64.0
398.473389 52.0
398.647308 84.0
398.718842 40.0
398.851166 176.0
398.933472 44.0
399.167755 660.0
399.247589 92.0
399.366882 92.0
399.904022 64.0
399.963715 124.0
400.03537 92.0
400.111023 112.0
400.141174 152.0
400.169403 104.0
400.229797 48.0
400.258331 72.0
400.361847 72.0
400.471375 56.0
400.509216 104.0
400.592865 152.0
400.640686 108.0
400.87973 140.0
401.031158 76.0
401.063049 100.0
401.174683 28.0
401.206573 124.0
401.306244 76.0
401.653168 76.0
401.764862 96.0
403.002502 124.0
403.07843 256.0
403.149384 324.0
403.326202 176.0
403.454132 104.0
403.753998 100.0
404.146027 136.0
404.237091 84.0
404.8992 80.0
405.868347 44.0
405.952545 164.0
406.135956 164.0
406.526184 88.0
406.586395 40.0
407.144409 160.0
408.144989 148.0
408.305847 176.0
409.154846 180.0
409.424622 148.0
411.176208 132.0
412.333374 164.0
413.191162 232.0
413.227814 164.0
413.312439 156.0
413.562897 64.0
414.200195 128.0
414.38089 60.0
415.16803 448.0
415.325409 72.0
416.25885 156.0
416.652802 100.0
416.701569 80.0
416.77063 108.0
416.896606 124.0
417.628387 148.0
418.845398 80.0
419.286377 244.0
419.395477 128.0
420.466583 212.0
420.669739 152.0
420.762024 128.0
420.885132 132.0
421.011108 148.0
421.041809 228.0
421.100861 172.0
421.162628 21304.0
421.332642 100.0
421.374634 48.0
421.504883 68.0
421.542145 56.0
421.615723 148.0
421.684601 28.0
421.81189 72.0
421.907837 144.0
422.010437 92.0
422.049011 36.0
422.165955 7232.0
422.265747 60.0
422.327942 96.0
422.421173 60.0
422.552094 36.0
422.830322 64.0
422.970184 48.0
423.066254 132.0
423.168182 644.0
423.43924 60.0
423.686096 80.0
423.714783 92.0
423.743469 48.0
423.784424 68.0
424.056335 124.0
424.104065 36.0
424.17511 568.0
424.404816 88.0
424.441101 132.0
424.49765 72.0
424.530457 108.0
424.596069 36.0
424.734314 68.0
424.792938 124.0
424.840118 100.0
424.925903 108.0
425.12027 116.0
425.17041 52.0
425.264801 128.0
425.363312 36.0
425.691772 72.0
425.916931 116.0
426.242188 44.0
426.698425 80.0
426.973541 44.0
428.418671 96.0
428.946136 72.0
431.484924 80.0
431.580017 96.0
433.276917 164.0
433.430206 76.0
433.521393 108.0
435.064301 144.0
437.080048 52.0
438.466736 120.0
438.620972 72.0
438.650146 92.0
439.087921 140.0
439.173615 1044.0
439.588531 44.0
439.876526 116.0
439.926605 40.0
439.972534 108.0
440.177399 792.0
440.423523 132.0
441.177643 204.0
441.234192 44.0
441.464172 84.0
441.798767 52.0
445.933197 60.0
455.25296 132.0
457.182251 264.0
458.185242 132.0
459.112762 136.0
459.321747 140.0
460.341766 160.0
461.23468 80.0
465.476044 124.0
474.797272 140.0
479.48819 96.0
480.757233 68.0
486.640228 56.0
487.848389 80.0
492.89032 76.0
497.128052 240.0
498.789093 76.0
499.763 84.0
504.034576 64.0
504.915192 32.0
520.81189 80.0
529.326416 92.0
545.911438 40.0
549.600647 68.0
559.927734 80.0
562.332153 48.0
576.427307 128.0
584.059692 56.0
586.226135 72.0
589.058228 96.0
590.082764 52.0
600.952393 108.0
605.449524 144.0
608.268677 36.0
615.639099 116.0
622.512512 64.0
623.158264 108.0
641.601074 80.0
679.329956 60.0
682.118469 132.0
685.287781 60.0
686.26239 52.0
708.93927 40.0
722.538208 120.0
724.197632 120.0
735.310791 116.0
768.258667 88.0
770.588379 76.0
770.660217 56.0
775.009094 128.0
775.474609 32.0
782.028381 128.0
806.777283 68.0
807.291809 120.0
816.183105 40.0
823.528809 140.0
826.101013 236.0
826.266907 136.0
831.159912 56.0
834.042847 112.0
837.708252 68.0
844.160828 208.0
851.84021 132.0
865.873718 72.0
866.043518 100.0
870.905884 136.0
879.455139 208.0
880.01593 76.0
882.917236 40.0
894.719177 64.0
910.648987 64.0
914.56311 44.0
935.458496 132.0
941.079407 200.0
942.588074 76.0
950.00238 60.0
961.54541 204.0
963.688171 52.0
977.577637 60.0
978.106628 112.0
979.501465 52.0
982.300232 88.0
984.809448 60.0
985.05304 92.0
985.802795 52.0
1012.026855 124.0
1019.295776 112.0
1029.117554 44.0
1038.293701 20.0
1064.241211 200.0
1082.354614 148.0
1110.189331 188.0
1148.775024 124.0
1168.939087 68.0
1177.603882 164.0
1193.763794 68.0
1232.087158 164.0
1240.134155 132.0
1275.525513 48.0
1280.036133 68.0
1291.311523 172.0
1307.849609 156.0
1314.039673 92.0
1318.98645 112.0
1325.065063 56.0
1345.056152 120.0
1355.595093 160.0
1364.270386 112.0
1374.581665 164.0
1376.729736 48.0
1390.477417 172.0
1427.652222 192.0
1440.752075 144.0
1448.725586 96.0
1453.866333 72.0
1471.418823 44.0
1476.951416 180.0
1480.364746 152.0
1504.052002 180.0
