>compound MLS001165696-01!citalopram
>formula C20H21FN2O
>ionization [M+H]+
>parentmass 325.17038
#inchi InChI=1S/C20H21FN2O/c1-23(2)11-3-10-20(17-5-7-18(21)8-6-17)19-9-4-15(13-22)12-16(19)14-24-20/h4-9,12H,3,10-11,14H2,1-2H3/t20-/m1/s1
#inchikey WSEQXVZVJXJVFP
#Ion_Source LC-ESI
#Instrument qTof
#Compound_Source NIH Pharmacologically Active Library
#PI Dorrestein
#Data_Collector VP/LMS
#Scan -1
#Precursor_MZ 325.177
#ExactMass 324.164
#Charge 1
#CAS_Number N/A
#Pubmed_ID N/A
#Smiles CN(C)CCC[C@@]1(OCc2cc(C#N)ccc21)c3ccc(F)cc3
#INCHI_AUX N/A
#Library_Class 1
#SpectrumID CCMSLIB00000085473
#IonMode Positive
#UpdateWorkflowName UPDATE-SINGLE-ANNOTATED-GOLD
#LibraryQualityString Gold
#TaskID d252d724072548979f1f6f1ced849daf
##Scan# 1652
#SpectrumFile p4-B05_GB5_01_18341.mzXML
#LibraryName Pharm_Active_Library.mgf
#MQScore -1
#Organism Pharm_Active_Library
#TIC_Query 0
#RT_Query -1
#MZErrorPPM -1
#SharedPeaks 0
#MassDiff 0
#LibMZ -1
#SpecMZ 325.177
#SpecCharge 0
#internalFilename spec-00000.mgf

>collision 10
44.891861 212.0
44.918133 232.0
44.932037 180.0
44.946644 172.0
44.956825 104.0
44.979244 180.0
44.996574 192.0
45.01136 164.0
45.044941 56.0
45.059399 180.0
45.081059 244.0
45.107746 200.0
45.121113 112.0
45.153206 88.0
45.162567 108.0
45.178581 136.0
45.208057 200.0
45.234825 164.0
45.261921 216.0
45.2924 120.0
45.305798 176.0
45.317856 116.0
45.327232 140.0
45.350018 152.0
45.372803 64.0
45.382797 120.0
45.395599 132.0
45.417057 196.0
45.471027 176.0
45.520393 116.0
45.564716 84.0
45.596966 192.0
45.617031 112.0
45.649395 148.0
45.660156 188.0
45.684364 80.0
45.696472 120.0
45.722038 200.0
45.751595 96.0
45.847282 112.0
45.868984 196.0
45.880981 108.0
45.910645 240.0
45.920086 120.0
45.933571 252.0
45.957855 140.0
46.007793 52.0
46.023994 108.0
46.034794 112.0
46.072613 232.0
46.091145 324.0
46.151588 136.0
46.161278 204.0
46.173988 144.0
46.192924 188.0
46.205101 148.0
46.276878 116.0
46.327122 208.0
46.337776 96.0
46.381142 100.0
46.419704 60.0
46.432663 152.0
46.478355 164.0
46.488564 156.0
46.512714 176.0
46.529003 152.0
46.54937 56.0
46.592834 52.0
46.658066 132.0
46.69886 168.0
46.709743 112.0
46.726974 180.0
46.739674 104.0
46.787308 168.0
46.803646 72.0
46.851902 148.0
46.864937 136.0
46.899006 116.0
46.92218 124.0
46.993103 140.0
47.010841 220.0
47.049057 132.0
47.070904 180.0
47.087288 140.0
47.129322 156.0
47.132961 120.0
47.155602 224.0
47.171677 168.0
47.184307 228.0
47.215755 124.0
47.226696 72.0
47.239006 156.0
47.265003 144.0
47.289635 164.0
47.353985 148.0
47.364941 92.0
47.388229 308.0
47.425625 236.0
47.445789 176.0
47.48967 128.0
47.525337 96.0
47.552784 168.0
47.566509 148.0
47.581608 44.0
47.61731 140.0
47.639286 172.0
47.651653 136.0
47.690128 208.0
47.706623 108.0
47.717621 64.0
47.732651 176.0
47.767433 180.0
47.827156 180.0
47.914425 116.0
47.932529 212.0
47.957146 424.0
47.97942 176.0
47.995743 120.0
48.018497 120.0
48.027039 196.0
48.039875 180.0
48.07851 164.0
48.10574 192.0
48.119919 108.0
48.179306 200.0
48.20694 148.0
48.217175 180.0
48.235962 172.0
48.255318 112.0
48.267761 144.0
48.300529 92.0
48.353527 364.0
48.367371 176.0
48.396442 156.0
48.412354 140.0
48.471863 204.0
48.528313 180.0
48.61541 124.0
48.682087 88.0
48.711254 128.0
48.73209 112.0
48.764675 152.0
48.809929 84.0
48.866955 152.0
48.885044 172.0
48.905918 164.0
48.917591 124.0
48.932365 84.0
48.964394 128.0
48.989464 212.0
49.067505 200.0
49.115986 136.0
49.193592 240.0
49.211998 396.0
49.279648 112.0
49.289429 172.0
49.352325 176.0
49.381771 140.0
49.409271 184.0
49.441853 44.0
49.455845 36.0
49.489445 128.0
49.499245 100.0
49.545464 108.0
49.560875 124.0
49.572086 120.0
49.584461 164.0
49.636566 160.0
49.649189 200.0
49.663315 112.0
49.712315 124.0
49.770771 224.0
49.806381 196.0
49.833309 164.0
49.852741 116.0
49.873825 76.0
49.910374 156.0
49.952568 164.0
50.015259 188.0
50.039818 160.0
50.065361 268.0
50.083092 192.0
50.100376 104.0
50.116375 180.0
50.190395 124.0
50.21455 160.0
50.291897 180.0
50.350037 120.0
50.382828 260.0
50.400181 188.0
50.436218 28.0
50.463078 156.0
50.474392 64.0
50.485703 160.0
50.570587 204.0
50.610226 132.0
50.625801 112.0
50.676796 128.0
50.693798 136.0
50.713638 184.0
50.725685 208.0
50.743408 104.0
50.805809 168.0
50.855473 164.0
50.869667 176.0
50.888123 92.0
50.919125 120.0
50.929302 96.0
50.940742 152.0
50.958252 180.0
50.981869 84.0
50.991817 160.0
51.024014 192.0
51.037308 164.0
51.057217 412.0
51.107086 136.0
51.164474 220.0
51.188904 200.0
51.199528 84.0
51.256508 136.0
51.293056 180.0
51.330631 168.0
51.362839 192.0
51.395748 400.0
51.410515 148.0
51.456593 200.0
51.493317 36.0
51.567612 48.0
51.584763 96.0
51.606209 120.0
51.637665 156.0
51.647678 160.0
51.687737 52.0
51.706337 68.0
51.762169 76.0
51.787945 188.0
51.809433 188.0
51.871384 156.0
51.904026 76.0
51.9198 188.0
51.955658 176.0
51.987942 136.0
52.012539 188.0
52.03307 136.0
52.08358 140.0
52.176823 132.0
52.192638 220.0
52.212769 104.0
52.284702 212.0
52.326443 80.0
52.368443 144.0
52.381168 124.0
52.409981 208.0
52.421509 152.0
52.443123 128.0
52.453213 212.0
52.467628 160.0
52.481327 132.0
52.508892 188.0
52.519543 192.0
52.532524 68.0
52.555607 160.0
52.572372 168.0
52.575699 104.0
52.580643 160.0
52.624241 152.0
52.646072 256.0
52.718777 124.0
52.763584 124.0
52.80407 172.0
52.883644 80.0
52.941555 136.0
52.979626 224.0
53.006741 116.0
53.032719 160.0
53.098072 204.0
53.111122 80.0
53.124443 88.0
53.173512 204.0
53.196735 148.0
53.214157 128.0
53.235935 156.0
53.301304 152.0
53.319633 216.0
53.366711 140.0
53.384708 148.0
53.415092 164.0
53.467079 140.0
53.493279 108.0
53.5327 160.0
53.547153 40.0
53.561718 180.0
53.584244 216.0
53.599598 140.0
53.617085 208.0
53.652065 120.0
53.691433 136.0
53.72644 156.0
53.738487 116.0
53.755619 224.0
53.77911 216.0
53.782806 140.0
53.816647 188.0
53.831528 244.0
53.841782 196.0
53.863659 252.0
53.908951 232.0
53.924934 128.0
53.93964 96.0
53.949875 156.0
53.961571 212.0
53.972401 108.0
54.001053 140.0
54.024456 40.0
54.056644 148.0
54.115192 128.0
54.143013 104.0
54.162052 192.0
54.174896 172.0
54.19252 216.0
54.213329 272.0
54.22945 168.0
54.248508 220.0
54.274899 184.0
54.302761 212.0
54.322243 244.0
54.341328 212.0
54.432411 184.0
54.462742 52.0
54.503876 112.0
54.526436 256.0
54.542084 152.0
54.568962 240.0
54.605309 168.0
54.617073 160.0
54.658268 176.0
54.727448 172.0
54.763168 108.0
54.802563 160.0
54.827141 128.0
54.837929 108.0
54.865936 160.0
54.910172 320.0
54.923447 144.0
54.978035 140.0
55.022316 184.0
55.03265 148.0
55.04594 168.0
55.061604 184.0
55.134972 192.0
55.16539 188.0
55.180172 184.0
55.25692 156.0
55.292812 140.0
55.377205 172.0
55.410034 148.0
55.432018 184.0
55.454247 156.0
55.466103 212.0
55.510582 156.0
55.551857 164.0
55.598103 196.0
55.608494 92.0
55.627789 208.0
55.653027 100.0
55.681789 152.0
55.707977 100.0
55.721348 188.0
55.731747 120.0
55.751949 176.0
55.764439 196.0
55.793411 220.0
55.814983 180.0
55.827442 180.0
55.836739 184.0
55.899769 184.0
55.912708 196.0
55.965355 132.0
56.0159 176.0
56.084442 144.0
56.114254 192.0
56.1492 156.0
56.166451 232.0
56.193092 224.0
56.21312 156.0
56.250957 176.0
56.275135 236.0
56.285194 176.0
56.307484 180.0
56.326164 156.0
56.341103 52.0
56.366398 148.0
56.448715 164.0
56.46965 176.0
56.530987 128.0
56.560921 88.0
56.577385 184.0
56.601963 116.0
56.626801 200.0
56.656078 176.0
56.671741 120.0
56.685093 136.0
56.700211 160.0
56.728233 224.0
56.757175 144.0
56.799389 188.0
56.811768 204.0
56.82917 112.0
56.864613 184.0
56.891953 120.0
56.912472 112.0
56.921452 108.0
56.946259 176.0
56.985313 156.0
57.043926 260.0
57.070091 128.0
57.079601 192.0
57.098053 84.0
57.110779 136.0
57.152206 104.0
57.170265 100.0
57.204277 120.0
57.247036 188.0
57.302769 148.0
57.317284 196.0
57.337425 128.0
57.375111 116.0
57.38868 120.0
57.400742 96.0
57.462582 148.0
57.487595 152.0
57.492279 88.0
57.497723 124.0
57.507851 188.0
57.532692 180.0
57.553139 160.0
57.573441 108.0
57.624126 56.0
57.65073 224.0
57.680359 152.0
57.701202 104.0
57.714809 140.0
57.767742 112.0
57.79649 144.0
57.841259 168.0
57.864597 136.0
57.889107 236.0
57.902454 148.0
57.938805 148.0
57.96608 164.0
58.003319 112.0
58.055923 164.0
58.078266 132.0
58.1035 188.0
58.125294 96.0
58.140404 188.0
58.181084 132.0
58.198151 208.0
58.2589 156.0
58.290806 160.0
58.403309 116.0
58.448948 188.0
58.474476 196.0
58.48547 160.0
58.505394 136.0
58.530025 180.0
58.596767 252.0
58.613396 152.0
58.668262 136.0
58.694267 140.0
58.713169 136.0
58.724682 32.0
58.75824 144.0
58.815006 180.0
58.838287 328.0
58.849812 196.0
58.874245 212.0
58.893414 152.0
58.918541 184.0
58.972813 108.0
59.002594 240.0
59.051525 184.0
59.094894 136.0
59.121899 256.0
59.137203 152.0
59.152508 176.0
59.204731 228.0
59.268902 148.0
59.279629 140.0
59.327141 176.0
59.337872 136.0
59.367004 80.0
59.403767 128.0
59.418106 316.0
59.4744 132.0
59.48975 52.0
59.5051 144.0
59.519592 128.0
59.541954 180.0
59.569603 80.0
59.589573 172.0
59.601864 140.0
59.651043 216.0
59.692554 144.0
59.712547 180.0
59.731003 116.0
59.744846 120.0
59.760231 40.0
59.778698 160.0
59.795624 152.0
59.871059 64.0
59.892624 156.0
60.014767 216.0
60.042122 160.0
60.104416 168.0
60.139774 232.0
60.18409 184.0
60.197987 372.0
60.210022 156.0
60.262859 140.0
60.281403 152.0
60.353096 136.0
60.367287 136.0
60.389618 112.0
60.421204 184.0
60.44067 168.0
60.4515 112.0
60.484001 128.0
60.505672 148.0
60.518059 304.0
60.535816 120.0
60.586857 228.0
60.612545 160.0
60.626488 180.0
60.652836 152.0
60.700733 208.0
60.778828 200.0
60.797073 108.0
60.807938 52.0
60.820652 208.0
60.857613 124.0
60.902805 156.0
60.92038 164.0
60.937267 112.0
60.969833 180.0
60.986549 168.0
61.020882 140.0
61.112511 120.0
61.137409 304.0
61.180511 240.0
61.201229 60.0
61.239948 88.0
61.242325 144.0
61.257294 144.0
61.285587 124.0
61.297802 100.0
61.311829 132.0
61.394451 132.0
61.405369 136.0
61.438126 128.0
61.456844 164.0
61.486496 116.0
61.515121 188.0
61.641209 164.0
61.661411 108.0
61.71925 136.0
61.739578 80.0
61.869446 184.0
61.922684 188.0
61.944611 152.0
61.971245 180.0
61.989563 168.0
61.999119 76.0
62.029228 36.0
62.043335 52.0
62.06842 180.0
62.11861 112.0
62.135864 116.0
62.172928 116.0
62.185513 200.0
62.219116 224.0
62.251148 176.0
62.289707 116.0
62.339985 144.0
62.360413 204.0
62.412292 172.0
62.432732 216.0
62.444187 212.0
62.462616 236.0
62.505535 400.0
62.531082 140.0
62.543629 140.0
62.55703 108.0
62.579071 164.0
62.604263 172.0
62.644505 124.0
62.656242 200.0
62.683025 120.0
62.711395 92.0
62.727154 200.0
62.741611 280.0
62.829266 376.0
62.857224 136.0
62.883308 72.0
62.914875 156.0
62.949387 136.0
62.962246 176.0
63.025433 208.0
63.050713 156.0
63.062626 164.0
63.083908 120.0
63.123199 136.0
63.131744 156.0
63.176117 180.0
63.197395 160.0
63.216763 172.0
63.24337 172.0
63.284824 148.0
63.302696 168.0
63.389366 152.0
63.459515 156.0
63.47435 196.0
63.513023 180.0
63.547924 52.0
63.571728 208.0
63.586121 168.0
63.603466 200.0
63.632042 192.0
63.670151 192.0
63.722939 172.0
63.743397 224.0
63.81316 120.0
63.841782 172.0
63.860867 180.0
63.899967 172.0
63.905216 100.0
63.910778 160.0
63.969067 128.0
64.039124 160.0
64.074173 176.0
64.086647 192.0
64.121208 216.0
64.174576 44.0
64.216034 208.0
64.241562 84.0
64.259109 104.0
64.270279 236.0
64.303787 128.0
64.316559 156.0
64.329323 112.0
64.356468 76.0
64.386536 188.0
64.412361 184.0
64.44751 160.0
64.481064 148.0
64.535416 108.0
64.576988 84.0
64.613785 332.0
64.661789 136.0
64.700203 160.0
64.72422 148.0
64.740913 168.0
64.751442 156.0
64.78624 304.0
64.825134 168.0
64.845963 88.0
64.890038 156.0
64.919708 180.0
64.935745 152.0
64.971039 152.0
64.997574 268.0
65.019173 132.0
65.075356 52.0
65.123528 224.0
65.147621 112.0
65.160164 272.0
65.223816 168.0
65.266556 52.0
65.277809 204.0
65.326057 176.0
65.366158 212.0
65.398605 188.0
65.440323 88.0
65.467697 120.0
65.491852 96.0
65.509415 160.0
65.514946 144.0
65.526917 276.0
65.561348 120.0
65.598198 156.0
65.662697 108.0
65.740135 108.0
65.759499 116.0
65.826988 184.0
65.866196 144.0
65.901604 136.0
65.91938 148.0
65.9907 256.0
66.032539 52.0
66.094009 124.0
66.105339 156.0
66.12059 208.0
66.149033 212.0
66.162834 168.0
66.200089 128.0
66.215424 456.0
66.257057 136.0
66.288223 196.0
66.31749 176.0
66.361259 116.0
66.405045 112.0
66.416397 136.0
66.43586 108.0
66.454483 100.0
66.467506 176.0
66.481293 48.0
66.507622 180.0
66.520241 232.0
66.536804 180.0
66.611176 164.0
66.633919 164.0
66.655045 120.0
66.671295 152.0
66.708855 144.0
66.802994 200.0
66.826118 240.0
66.851799 172.0
66.888039 208.0
66.903885 76.0
66.928307 140.0
66.987495 164.0
67.006485 136.0
67.029297 176.0
67.046425 176.0
67.097748 240.0
67.128731 172.0
67.146667 172.0
67.169067 164.0
67.192444 132.0
67.219704 188.0
67.262512 164.0
67.304581 208.0
67.353409 216.0
67.382828 344.0
67.483055 160.0
67.503143 84.0
67.516708 192.0
67.530472 196.0
67.558266 204.0
67.584457 112.0
67.597549 124.0
67.616562 216.0
67.635193 172.0
67.659416 100.0
67.663834 80.0
67.670273 140.0
67.699043 148.0
67.713783 160.0
67.743263 128.0
67.766197 148.0
67.789139 164.0
67.800606 188.0
67.817291 156.0
67.854034 244.0
67.872734 168.0
67.944168 152.0
67.975662 208.0
68.000694 168.0
68.041725 200.0
68.07621 212.0
68.105774 148.0
68.117271 132.0
68.136978 244.0
68.173012 224.0
68.201065 60.0
68.214218 164.0
68.238876 136.0
68.250389 152.0
68.289795 220.0
68.302856 84.0
68.327377 168.0
68.354721 148.0
68.385284 116.0
68.418205 132.0
68.429726 180.0
68.495598 164.0
68.517914 176.0
68.535133 200.0
68.570518 196.0
68.592819 160.0
68.607651 92.0
68.624718 148.0
68.65052 92.0
68.671959 132.0
68.685158 244.0
68.743141 212.0
68.767654 152.0
68.82708 72.0
68.851852 152.0
68.866714 164.0
68.881584 284.0
68.902924 212.0
68.931145 76.0
68.965851 128.0
69.000565 220.0
69.021233 168.0
69.101448 156.0
69.131233 256.0
69.151093 144.0
69.200752 112.0
69.215652 332.0
69.229424 184.0
69.324982 44.0
69.341446 120.0
69.362206 168.0
69.399574 176.0
69.421127 156.0
69.470886 156.0
69.523979 88.0
69.567131 136.0
69.582077 112.0
69.597015 216.0
69.626907 92.0
69.640198 108.0
69.653481 132.0
69.670837 448.0
69.682167 104.0
69.687202 148.0
69.714378 144.0
69.773232 196.0
69.788094 120.0
69.82135 156.0
69.856827 172.0
69.904526 112.0
69.951126 144.0
69.972771 188.0
69.991081 164.0
70.006073 176.0
70.019005 264.0
70.041046 228.0
70.055206 120.0
70.07103 132.0
70.102692 160.0
70.121017 144.0
70.13269 124.0
70.152687 108.0
70.230438 132.0
70.294456 352.0
70.356293 156.0
70.487411 100.0
70.499855 104.0
70.544136 268.0
70.595139 128.0
70.613388 184.0
70.650337 244.0
70.662048 112.0
70.713921 140.0
70.747421 124.0
70.76545 352.0
70.792603 196.0
70.814369 144.0
70.833885 192.0
70.846199 156.0
70.857925 124.0
70.877335 48.0
70.920525 348.0
70.965187 56.0
70.976929 92.0
71.019508 184.0
71.061958 172.0
71.076363 156.0
71.131271 56.0
71.155739 188.0
71.179955 148.0
71.220123 140.0
71.247612 172.0
71.329483 160.0
71.364716 188.0
71.43335 140.0
71.448875 180.0
71.484871 160.0
71.514061 168.0
71.527252 232.0
71.549255 136.0
71.602051 136.0
71.616356 136.0
71.637306 184.0
71.675972 168.0
71.704819 160.0
71.760445 76.0
71.772247 116.0
71.826218 204.0
71.859764 108.0
71.885872 128.0
71.912842 280.0
71.927452 308.0
72.04937 204.0
72.064247 48.0
72.081139 128.0
72.09552 200.0
72.129555 136.0
72.182564 136.0
72.219765 172.0
72.24852 48.0
72.262054 400.0
72.286613 180.0
72.338211 140.0
72.358528 72.0
72.405937 52.0
72.443199 160.0
72.480476 132.0
72.494026 148.0
72.538094 184.0
72.551659 144.0
72.563522 124.0
72.579788 216.0
72.633049 108.0
72.668678 84.0
72.709404 176.0
72.733658 164.0
72.772209 132.0
72.860695 120.0
72.879936 160.0
72.964096 152.0
72.985916 200.0
73.021286 408.0
73.065674 180.0
73.091751 52.0
73.105362 212.0
73.120682 180.0
73.134293 148.0
73.151314 120.0
73.164627 156.0
73.316528 180.0
73.347206 140.0
73.36084 52.0
73.394943 192.0
73.463158 108.0
73.487045 212.0
73.514343 160.0
73.594574 116.0
73.656052 128.0
73.68338 164.0
73.715767 168.0
73.73806 164.0
73.770538 184.0
73.825249 148.0
73.885292 192.0
73.917336 96.0
73.934464 100.0
73.992935 112.0
74.012833 180.0
74.044304 156.0
74.141953 108.0
74.157379 92.0
74.198303 160.0
74.21566 88.0
74.23967 168.0
74.279114 204.0
74.327148 196.0
74.358536 168.0
74.399239 256.0
74.421555 120.0
74.445595 160.0
74.479095 228.0
74.490784 168.0
74.53997 224.0
74.555534 172.0
74.62429 204.0
74.639771 116.0
74.663841 140.0
74.720604 144.0
74.741249 144.0
74.832474 152.0
74.863472 144.0
74.888153 168.0
74.902618 176.0
74.939255 200.0
74.968552 208.0
74.983681 128.0
74.989853 100.0
74.99688 132.0
75.115097 168.0
75.261795 228.0
75.292442 144.0
75.372337 172.0
75.38681 180.0
75.410355 180.0
75.436279 136.0
75.507172 60.0
75.537811 224.0
75.555603 56.0
75.617363 160.0
75.654243 204.0
75.682541 184.0
75.756416 152.0
75.799141 176.0
75.815331 244.0
75.870789 68.0
75.887337 152.0
75.905464 188.0
76.048431 196.0
76.094589 128.0
76.13974 96.0
76.191849 184.0
76.217911 112.0
76.249191 176.0
76.266571 208.0
76.325676 148.0
76.361923 260.0
76.435791 144.0
76.45974 136.0
76.472427 156.0
76.508354 180.0
76.522285 112.0
76.536217 164.0
76.548637 148.0
76.567558 132.0
76.592957 192.0
76.614098 156.0
76.630264 176.0
76.654663 180.0
76.697044 200.0
76.738327 44.0
76.76622 168.0
76.7864 112.0
76.856926 136.0
76.877869 80.0
76.930229 144.0
76.945938 128.0
76.966888 120.0
76.987846 128.0
77.00531 144.0
77.083923 208.0
77.108391 144.0
77.129364 144.0
77.181808 156.0
77.21669 296.0
77.23777 168.0
77.290253 188.0
77.305801 172.0
77.345383 136.0
77.367264 216.0
77.423294 216.0
77.446739 196.0
77.477592 44.0
77.537163 160.0
77.566963 192.0
77.592453 248.0
77.66729 164.0
77.710762 172.0
77.737083 136.0
77.821495 176.0
77.914421 136.0
77.926651 112.0
77.968834 136.0
78.023521 192.0
78.040962 104.0
78.062248 188.0
78.08316 160.0
78.109543 204.0
78.128891 124.0
78.142967 116.0
78.192238 52.0
78.275787 304.0
78.292587 180.0
78.35968 176.0
78.434708 168.0
78.456451 116.0
78.547028 120.0
78.556084 152.0
78.687561 84.0
78.721107 160.0
78.733627 88.0
78.761726 152.0
78.81649 136.0
78.848297 204.0
78.869507 132.0
78.894257 164.0
78.938461 44.0
78.964981 176.0
78.984444 172.0
79.021591 144.0
79.044594 112.0
79.083527 140.0
79.115387 176.0
79.138405 148.0
79.17765 152.0
79.278839 156.0
79.304924 112.0
79.336296 160.0
79.382927 128.0
79.411575 104.0
79.433556 180.0
79.446777 112.0
79.476334 212.0
79.496765 208.0
79.563904 76.0
79.583435 108.0
79.605057 112.0
79.618942 136.0
79.638481 176.0
79.652695 416.0
79.670456 176.0
79.704208 232.0
79.755119 204.0
79.772537 140.0
79.788887 100.0
79.809082 144.0
79.825012 232.0
79.830849 216.0
79.837563 224.0
79.880219 116.0
79.899788 196.0
79.914017 164.0
79.952888 172.0
79.966454 224.0
79.985199 120.0
79.999458 212.0
80.026146 128.0
80.04847 104.0
80.084915 164.0
80.113411 64.0
80.131226 116.0
80.156174 160.0
80.168877 156.0
80.193596 184.0
80.241722 152.0
80.261337 128.0
80.275604 136.0
80.311272 152.0
80.33268 124.0
80.357651 292.0
80.375496 212.0
80.387985 124.0
80.448669 128.0
80.489899 168.0
80.520035 132.0
80.542114 168.0
80.561172 140.0
80.580826 140.0
80.605545 176.0
80.636215 100.0
80.723816 124.0
80.747063 116.0
80.763161 72.0
80.80072 144.0
80.830055 224.0
80.879463 108.0
80.926003 80.0
80.942299 236.0
80.973404 188.0
80.99028 148.0
81.040634 132.0
81.067513 184.0
81.139206 156.0
81.17421 208.0
81.187714 156.0
81.227745 192.0
81.264748 160.0
81.276703 236.0
81.302429 124.0
81.343712 108.0
81.389191 132.0
81.435326 168.0
81.54248 236.0
81.609406 76.0
81.670738 136.0
81.686928 136.0
81.751167 176.0
81.859703 176.0
81.894775 236.0
81.984543 264.0
82.040695 220.0
82.072182 200.0
82.128227 132.0
82.157883 160.0
82.194641 148.0
82.218437 124.0
82.252533 184.0
82.296059 244.0
82.347572 112.0
82.38636 188.0
82.434425 192.0
82.455177 140.0
82.512863 140.0
82.532074 268.0
82.575302 128.0
82.628609 160.0
82.648506 184.0
82.661179 168.0
82.688324 208.0
82.784271 160.0
82.800568 148.0
82.876648 156.0
82.945511 132.0
82.967407 144.0
82.981773 256.0
83.025742 160.0
83.030426 96.0
83.083328 84.0
83.096031 124.0
83.110695 144.0
83.249153 156.0
83.280365 176.0
83.315704 96.0
83.392059 344.0
83.408379 204.0
83.44445 180.0
83.459282 80.0
83.486557 140.0
83.506561 188.0
83.527748 204.0
83.579285 168.0
83.602226 144.0
83.646194 156.0
83.682274 236.0
83.710388 188.0
83.739525 168.0
83.806923 120.0
83.825813 196.0
83.850883 224.0
83.947281 180.0
83.961868 204.0
83.981926 44.0
84.053078 188.0
84.149811 196.0
84.1772 172.0
84.20813 124.0
84.237473 132.0
84.265327 208.0
84.287384 212.0
84.344978 144.0
84.394638 80.0
84.434868 160.0
84.478767 80.0
84.493401 156.0
84.513527 172.0
84.539284 156.0
84.570259 120.0
84.592224 156.0
84.609467 104.0
84.651619 172.0
84.670013 184.0
84.698425 132.0
84.747887 92.0
84.771706 164.0
84.795456 204.0
84.812027 224.0
84.870689 220.0
84.883522 152.0
84.909195 204.0
84.971565 184.0
85.022209 200.0
85.059647 168.0
85.103706 228.0
85.12574 168.0
85.169327 164.0
85.191299 156.0
85.197922 108.0
85.234138 184.0
85.249344 168.0
85.281845 132.0
85.318665 104.0
85.335213 152.0
85.360954 116.0
85.401413 96.0
85.5131 268.0
85.530205 156.0
85.590958 180.0
85.620422 160.0
85.648605 172.0
85.670151 152.0
85.694107 200.0
85.723587 120.0
85.749382 152.0
85.762283 176.0
85.785713 332.0
85.86544 156.0
85.943008 140.0
86.007904 136.0
86.135048 168.0
86.163597 184.0
86.256958 136.0
86.315643 216.0
86.336212 120.0
86.360504 148.0
86.4049 148.0
86.467812 112.0
86.516113 168.0
86.550148 84.0
86.557266 124.0
86.597412 116.0
86.632607 156.0
86.667908 144.0
86.693748 168.0
86.714134 92.0
86.728958 104.0
86.747498 140.0
86.773453 168.0
86.80217 228.0
86.851334 172.0
86.881012 48.0
86.893997 76.0
86.90699 140.0
86.922516 184.0
86.942749 352.0
86.962662 144.0
86.988647 148.0
87.015633 336.0
87.031342 164.0
87.083344 168.0
87.10006 44.0
87.133492 192.0
87.153175 148.0
87.165817 176.0
87.231987 184.0
87.275406 176.0
87.29892 128.0
87.311935 168.0
87.34037 116.0
87.375923 80.0
87.3992 92.0
87.451469 180.0
87.466362 96.0
87.524071 44.0
87.576218 76.0
87.635826 168.0
87.68428 188.0
87.755112 156.0
87.783081 132.0
87.803596 44.0
87.824112 96.0
87.840897 116.0
87.903511 264.0
87.950989 100.0
87.96405 172.0
88.018196 144.0
88.038734 140.0
88.053673 184.0
88.079025 188.0
88.092903 224.0
88.10598 104.0
88.120926 108.0
88.135681 120.0
88.173241 128.0
88.227448 148.0
88.28167 164.0
88.337784 144.0
88.362099 136.0
88.382683 148.0
88.411919 152.0
88.461067 376.0
88.538048 124.0
88.596115 184.0
88.659821 144.0
88.680435 124.0
88.732918 108.0
88.757294 116.0
88.783546 160.0
88.80793 76.0
88.832314 108.0
88.855179 300.0
88.892395 168.0
88.918625 152.0
88.93824 164.0
88.963669 116.0
88.981682 244.0
89.037048 304.0
89.062553 264.0
89.107063 68.0
89.153374 144.0
89.211639 88.0
89.226677 112.0
89.258644 160.0
89.293625 152.0
89.306786 200.0
89.360207 168.0
89.449516 236.0
89.476891 128.0
89.512665 184.0
89.573944 152.0
89.603073 128.0
89.639679 168.0
89.684898 152.0
89.710495 136.0
89.727463 184.0
89.742538 160.0
89.770828 168.0
89.821068 188.0
89.853821 168.0
89.929298 172.0
89.953835 128.0
90.027176 180.0
90.056587 124.0
90.095467 128.0
90.180496 172.0
90.223969 120.0
90.241493 208.0
90.263672 96.0
90.295006 212.0
90.316628 172.0
90.348785 212.0
90.377167 132.0
90.394196 184.0
90.450974 212.0
90.518196 160.0
90.547531 160.0
90.568367 112.0
90.596779 124.0
90.619514 176.0
90.638458 216.0
90.653618 168.0
90.683945 368.0
90.696739 240.0
90.71048 288.0
90.726158 176.0
90.754082 116.0
90.818558 148.0
90.833733 188.0
90.859428 176.0
90.888748 308.0
90.90583 248.0
90.932396 168.0
91.051849 196.0
91.08239 144.0
91.126083 192.0
91.156235 360.0
91.203995 164.0
91.234413 160.0
91.268387 156.0
91.286964 244.0
91.369438 168.0
91.383888 188.0
91.434128 172.0
91.475578 180.0
91.506462 132.0
91.519791 64.0
91.547043 204.0
91.607391 156.0
91.627487 144.0
91.660744 52.0
91.676903 164.0
91.720207 236.0
91.75032 152.0
91.763664 156.0
91.801796 108.0
91.818962 148.0
91.836128 160.0
91.896759 184.0
91.928123 180.0
91.95285 248.0
91.970459 208.0
92.026955 100.0
92.063354 196.0
92.089973 64.0
92.133904 56.0
92.151772 148.0
92.187828 200.0
92.206566 144.0
92.261948 132.0
92.314743 196.0
92.33078 120.0
92.356186 156.0
92.430252 152.0
92.533875 144.0
92.560417 204.0
92.589142 176.0
92.606377 64.0
92.621696 108.0
92.679169 92.0
92.728996 56.0
92.751991 132.0
92.772018 192.0
92.801842 184.0
92.964882 252.0
93.010941 196.0
93.023979 116.0
93.055092 196.0
93.080055 180.0
93.143433 116.0
93.242828 136.0
93.273453 264.0
93.350998 216.0
93.364456 132.0
93.384247 136.0
93.397156 160.0
93.433701 164.0
93.451019 124.0
93.484184 152.0
93.506821 116.0
93.529915 60.0
93.558792 220.0
93.620132 172.0
93.656998 160.0
93.718643 148.0
93.744774 148.0
93.768745 88.0
93.785309 216.0
93.815002 192.0
93.828178 144.0
93.845848 144.0
93.940208 168.0
93.988579 128.0
94.002274 376.0
94.027176 132.0
94.042618 128.0
94.090874 192.0
94.114044 332.0
94.133354 60.0
94.172798 320.0
94.21447 264.0
94.229927 156.0
94.249245 156.0
94.26664 152.0
94.301422 212.0
94.324615 148.0
94.369942 252.0
94.409683 200.0
94.459976 44.0
94.521881 200.0
94.553444 304.0
94.568329 168.0
94.600677 140.0
94.604095 168.0
94.630272 156.0
94.703857 88.0
94.73098 180.0
94.748413 52.0
94.845123 88.0
94.892487 352.0
94.928185 132.0
94.955956 168.0
95.032761 720.0
95.078041 116.0
95.109093 164.0
95.130447 196.0
95.151917 132.0
95.187622 124.0
95.210052 144.0
95.27803 88.0
95.314949 176.0
95.332436 140.0
95.365479 172.0
95.381027 172.0
95.43351 172.0
95.448814 200.0
95.482956 160.0
95.528809 84.0
95.574524 128.0
95.606636 148.0
95.691452 188.0
95.746147 212.0
95.766075 232.0
95.799393 144.0
95.849182 176.0
95.879272 188.0
95.937752 340.0
95.98259 108.0
96.005989 168.0
96.033028 204.0
96.065338 140.0
96.095718 196.0
96.158157 116.0
96.185486 32.0
96.206955 232.0
96.255768 172.0
96.322166 108.0
96.351471 148.0
96.376869 236.0
96.437454 112.0
96.452126 164.0
96.496094 112.0
96.539108 88.0
96.552803 224.0
96.6092 144.0
96.652565 200.0
96.705399 196.0
96.719101 172.0
96.744553 112.0
96.763901 172.0
96.770256 152.0
96.775505 192.0
96.782288 116.0
96.79937 216.0
96.822258 140.0
96.85421 124.0
96.871689 156.0
96.879074 144.0
96.88324 112.0
96.923424 120.0
96.946289 164.0
96.985481 124.0
97.046349 808.0
97.091354 200.0
97.11293 128.0
97.136467 204.0
97.19532 332.0
97.279716 132.0
97.321838 156.0
97.340576 120.0
97.395569 188.0
97.442711 156.0
97.488213 128.0
97.51738 200.0
97.55162 144.0
97.568489 180.0
97.594048 56.0
97.617966 196.0
97.631264 212.0
97.735664 168.0
97.763214 80.0
97.782104 120.0
97.78936 168.0
97.802574 256.0
97.845879 88.0
97.895103 160.0
97.921715 164.0
97.944344 164.0
97.973892 108.0
98.021179 156.0
98.045532 176.0
98.063293 156.0
98.088547 192.0
98.132301 192.0
98.17585 232.0
98.194603 164.0
98.245941 240.0
98.294609 184.0
98.382103 84.0
98.430115 208.0
98.448486 164.0
98.470963 148.0
98.484787 232.0
98.532196 148.0
98.565781 196.0
98.579613 100.0
98.599373 172.0
98.613213 200.0
98.634949 212.0
98.676468 196.0
98.689392 164.0
98.711418 112.0
98.735786 184.0
98.795128 152.0
98.823692 172.0
98.838654 92.0
98.895226 68.0
98.907913 124.0
98.950706 188.0
99.001442 84.0
99.046776 124.0
99.076233 164.0
99.137657 56.0
99.151527 220.0
99.187202 164.0
99.210991 152.0
99.228836 104.0
99.252625 164.0
99.282372 140.0
99.33989 164.0
99.371696 120.0
99.387505 184.0
99.40139 220.0
99.446075 116.0
99.493446 136.0
99.522476 164.0
99.606476 288.0
99.727905 164.0
99.790695 48.0
99.836433 132.0
99.861305 220.0
99.895409 196.0
99.959763 140.0
99.985634 140.0
100.053307 156.0
100.103088 84.0
100.185295 232.0
100.230125 216.0
100.26046 132.0
100.292351 148.0
100.328224 208.0
100.344177 128.0
100.36013 160.0
100.411972 208.0
100.443886 156.0
100.48378 316.0
100.531624 320.0
100.536751 176.0
100.567596 240.0
100.623489 92.0
100.637466 128.0
100.6754 96.0
100.710991 176.0
100.715401 144.0
100.721741 180.0
100.745308 208.0
100.777367 168.0
100.855209 84.0
100.895546 200.0
100.915184 80.0
100.960335 172.0
100.99617 144.0
101.039688 476.0
101.089203 156.0
101.110519 116.0
101.165718 172.0
101.187279 156.0
101.204437 148.0
101.232658 192.0
101.267372 160.0
101.31144 116.0
101.337898 212.0
101.367073 260.0
101.386971 132.0
101.409302 124.0
101.435684 140.0
101.463745 204.0
101.525063 160.0
101.545959 212.0
101.57605 120.0
101.607018 100.0
101.630005 196.0
101.728554 284.0
101.776253 200.0
101.816803 172.0
101.849274 168.0
101.895813 208.0
101.911308 40.0
101.935417 180.0
101.981522 140.0
102.044724 388.0
102.064064 56.0
102.083229 132.0
102.108299 152.0
102.128418 332.0
102.178703 144.0
102.20285 172.0
102.235046 128.0
102.286057 104.0
102.305489 228.0
102.321594 128.0
102.341728 120.0
102.474655 160.0
102.490776 204.0
102.506897 164.0
102.583481 124.0
102.617752 132.0
102.664131 124.0
102.682281 108.0
102.697189 156.0
102.72464 152.0
102.746826 148.0
102.764984 84.0
102.779106 120.0
102.793236 88.0
102.835365 164.0
102.864578 176.0
102.892136 192.0
102.924438 176.0
103.003197 140.0
103.033501 56.0
103.055252 1608.0
103.10759 164.0
103.127342 136.0
103.163437 108.0
103.186668 188.0
103.21125 156.0
103.228668 228.0
103.249779 180.0
103.275734 48.0
103.306412 176.0
103.389366 40.0
103.427826 144.0
103.446037 168.0
103.472359 160.0
103.493202 68.0
103.52581 160.0
103.560684 168.0
103.586685 140.0
103.642487 52.0
103.713417 124.0
103.73774 48.0
103.771088 112.0
103.842529 176.0
103.944435 92.0
103.995087 96.0
104.040634 328.0
104.056503 368.0
104.092789 104.0
104.123062 176.0
104.169533 368.0
104.203651 316.0
104.27359 128.0
104.2929 64.0
104.30603 168.0
104.341721 124.0
104.373199 132.0
104.397598 32.0
104.448448 144.0
104.474892 192.0
104.503372 100.0
104.525757 76.0
104.546104 152.0
104.591782 108.0
104.629555 132.0
104.664169 136.0
104.678421 172.0
104.721474 288.0
104.765999 312.0
104.796555 144.0
104.823044 184.0
104.847504 168.0
104.881577 128.0
104.908958 156.0
104.94738 140.0
104.973892 108.0
105.006516 96.0
105.037117 276.0
105.057243 184.0
105.088112 220.0
105.12484 44.0
105.229927 136.0
105.27182 152.0
105.318741 160.0
105.402168 64.0
105.411804 136.0
105.424873 160.0
105.514961 140.0
105.557899 184.0
105.572212 108.0
105.594711 212.0
105.615166 112.0
105.629478 192.0
105.670395 144.0
105.691589 200.0
105.742012 220.0
105.758392 148.0
105.784996 80.0
105.832085 124.0
105.893616 260.0
105.936531 64.0
105.952675 168.0
105.981606 164.0
106.02034 164.0
106.059479 200.0
106.082085 136.0
106.174294 128.0
106.219414 232.0
106.237877 120.0
106.319946 184.0
106.363731 168.0
106.397354 180.0
106.419785 188.0
106.453384 136.0
106.50267 140.0
106.543755 116.0
106.57457 164.0
106.599228 212.0
106.627632 292.0
106.699944 148.0
106.715569 180.0
106.734894 56.0
106.771912 168.0
106.798264 208.0
106.889908 212.0
106.915916 140.0
106.948845 140.0
106.975601 72.0
106.994743 108.0
107.02813 176.0
107.115112 208.0
107.171249 116.0
107.208344 140.0
107.231483 176.0
107.255745 256.0
107.28476 52.0
107.31028 88.0
107.348938 176.0
107.398582 160.0
107.43927 208.0
107.481842 136.0
107.506775 184.0
107.529663 124.0
107.548637 224.0
107.57547 68.0
107.635345 108.0
107.691101 192.0
107.715889 144.0
107.757362 156.0
107.800591 124.0
107.854004 128.0
107.908852 192.0
107.926682 316.0
107.958763 164.0
108.011475 156.0
108.056305 208.0
108.106644 96.0
108.12812 212.0
108.163483 200.0
108.197716 184.0
108.219193 256.0
108.245338 164.0
108.274841 176.0
108.295036 200.0
108.320457 192.0
108.348892 188.0
108.450432 160.0
108.478653 156.0
108.493233 272.0
108.529205 276.0
108.554359 152.0
108.587273 228.0
108.610085 168.0
108.646141 164.0
108.680176 284.0
108.700005 140.0
108.717804 152.0
108.747139 148.0
108.78231 84.0
108.815804 148.0
108.85067 376.0
108.865173 316.0
108.896507 112.0
108.946426 336.0
108.97303 116.0
108.988808 500.0
109.017715 752.0
109.046661 134588.0
109.104996 72.0
109.121391 104.0
109.135818 272.0
109.161667 108.0
109.182747 44.0
109.201874 380.0
109.221619 200.0
109.238571 152.0
109.269173 136.0
109.295723 204.0
109.312286 184.0
109.33181 84.0
109.347664 164.0
109.364319 52.0
109.38739 2388.0
109.415161 160.0
109.43013 280.0
109.459496 128.0
109.475349 144.0
109.497566 200.0
109.532761 132.0
109.560509 176.0
109.574638 212.0
109.591301 48.0
109.619919 108.0
109.632019 216.0
109.660675 124.0
109.704422 72.0
109.731438 268.0
109.753876 44.0
109.768471 212.0
109.796104 192.0
109.819244 128.0
109.839836 100.0
109.86998 80.0
109.885887 204.0
109.909424 168.0
109.925148 236.0
109.939613 188.0
109.984932 180.0
110.014877 164.0
110.049072 11328.0
110.085266 264.0
110.121155 128.0
110.155487 304.0
110.22374 116.0
110.254868 124.0
110.28511 68.0
110.300476 180.0
110.331551 132.0
110.34893 208.0
110.369835 152.0
110.393288 148.0
110.406342 236.0
110.441505 192.0
110.482773 52.0
110.512352 288.0
110.551819 144.0
110.584801 152.0
110.590668 64.0
110.624825 200.0
110.630264 104.0
110.637558 212.0
110.643967 168.0
110.691269 104.0
110.71344 136.0
110.73243 200.0
110.777061 256.0
110.804169 336.0
110.851425 116.0
110.870552 120.0
110.897522 88.0
110.916473 84.0
110.944229 68.0
110.950378 168.0
110.961311 232.0
110.995255 172.0
111.014099 124.0
111.053757 416.0
111.0756 96.0
111.114616 180.0
111.208763 64.0
111.237175 100.0
111.293854 56.0
111.321152 180.0
111.342155 132.0
111.361053 80.0
111.403061 316.0
111.432472 32.0
111.457687 176.0
111.482903 76.0
111.562775 136.0
111.577492 116.0
111.596413 100.0
111.627953 52.0
111.650574 148.0
111.699455 180.0
111.745735 88.0
111.768883 176.0
111.802551 188.0
111.821793 84.0
111.846748 264.0
111.892296 144.0
111.901115 92.0
111.90799 112.0
111.97271 92.0
111.989487 116.0
112.008881 84.0
112.025734 116.0
112.053116 140.0
112.107903 116.0
112.150055 212.0
112.211182 172.0
112.234375 100.0
112.280334 176.0
112.312408 120.0
112.346939 204.0
112.375694 112.0
112.419998 172.0
112.510757 88.0
112.546654 200.0
112.635353 216.0
112.685661 196.0
112.705063 128.0
112.764236 124.0
112.805061 176.0
112.859543 200.0
112.893196 184.0
112.91011 144.0
113.037712 368.0
113.125931 136.0
113.144981 128.0
113.169777 188.0
113.186905 120.0
113.206383 140.0
113.223328 68.0
113.238152 104.0
113.313332 244.0
113.38221 84.0
113.428841 148.0
113.459633 132.0
113.481842 60.0
113.539093 148.0
113.592743 176.0
113.709427 152.0
113.874138 132.0
113.938141 108.0
113.991257 220.0
114.046936 160.0
114.075813 112.0
114.158974 120.0
114.235756 116.0
114.264496 204.0
114.318733 144.0
114.367683 148.0
114.388969 144.0
114.405998 136.0
114.616844 144.0
114.66111 164.0
114.677864 84.0
114.71701 196.0
114.746857 104.0
114.931297 160.0
114.966553 52.0
115.055634 2568.0
115.137337 136.0
115.154427 68.0
115.184326 108.0
115.207825 48.0
115.250557 56.0
115.280975 152.0
115.318939 284.0
115.411674 156.0
115.432243 120.0
115.449348 116.0
115.483223 100.0
115.575554 216.0
115.68042 48.0
115.723236 88.0
115.740364 176.0
115.766716 128.0
115.785332 188.0
115.819336 204.0
115.828842 140.0
115.854774 204.0
115.889763 132.0
115.923409 124.0
115.929306 156.0
115.956909 92.0
115.972076 264.0
115.995308 364.0
116.020493 192.0
116.050339 34604.0
116.11776 56.0
116.141113 52.0
116.214142 168.0
116.234482 260.0
116.280571 132.0
116.303902 124.0
116.340675 76.0
116.368584 68.0
116.400787 56.0
116.445885 120.0
116.549248 172.0
116.583382 124.0
116.602371 220.0
116.643562 128.0
116.671501 164.0
116.709869 208.0
116.725258 180.0
116.764732 256.0
116.797592 164.0
116.813431 184.0
116.865585 116.0
116.89724 88.0
116.914558 40.0
116.938232 64.0
116.958275 128.0
117.053894 2808.0
117.080322 120.0
117.111595 100.0
117.136635 108.0
117.24189 200.0
117.289307 96.0
117.325951 192.0
117.353981 140.0
117.387085 124.0
117.407883 148.0
117.427299 48.0
117.511307 76.0
117.567528 32.0
117.587021 120.0
117.648537 180.0
117.681931 88.0
117.705322 72.0
117.739616 184.0
117.758812 256.0
117.780479 44.0
117.81295 104.0
117.83934 136.0
117.869843 60.0
117.908737 160.0
117.95282 116.0
117.990875 208.0
118.006012 172.0
118.034119 124.0
118.062492 576.0
118.131569 140.0
118.161888 164.0
118.198509 52.0
118.228806 184.0
118.25045 172.0
118.272087 128.0
118.32621 56.0
118.356522 48.0
118.403473 240.0
118.436646 188.0
118.466972 124.0
118.484306 60.0
118.555809 60.0
118.586151 84.0
118.634193 144.0
118.669243 132.0
118.683701 264.0
118.737907 136.0
118.759598 136.0
118.796471 188.0
118.82563 100.0
118.878494 224.0
118.898407 204.0
118.941856 116.0
118.97216 192.0
119.042702 200.0
119.09922 144.0
119.198128 52.0
119.241592 200.0
119.263321 152.0
119.324188 104.0
119.355736 108.0
119.391594 176.0
119.432724 184.0
119.444649 232.0
119.465546 172.0
119.482948 124.0
119.527527 180.0
119.66169 156.0
119.7202 176.0
119.744156 164.0
119.761581 52.0
119.883583 116.0
119.931526 56.0
119.946785 88.0
119.983131 196.0
120.071518 232.0
120.095055 188.0
120.162476 128.0
120.199768 136.0
120.317627 108.0
120.385315 168.0
120.413704 184.0
120.442101 208.0
120.466125 220.0
120.509819 204.0
120.55352 240.0
120.585205 128.0
120.63205 172.0
120.684669 128.0
120.756836 148.0
120.794014 204.0
120.881531 100.0
120.92749 104.0
121.044823 3140.0
121.0895 96.0
121.133186 144.0
121.138847 236.0
121.15889 248.0
121.225327 36.0
121.264465 144.0
121.356842 104.0
121.401703 148.0
121.421791 116.0
121.451134 184.0
121.475266 228.0
121.53669 84.0
121.582771 140.0
121.622276 36.0
121.640327 144.0
121.671211 156.0
121.705704 164.0
121.734245 120.0
121.749619 232.0
121.792435 164.0
121.965836 204.0
121.99144 196.0
122.048378 312.0
122.090248 152.0
122.121033 128.0
122.172653 160.0
122.248634 160.0
122.286049 60.0
122.30806 128.0
122.339691 136.0
122.360886 176.0
122.387848 164.0
122.464386 220.0
122.479805 144.0
122.497421 32.0
122.523857 72.0
122.563515 124.0
122.590652 140.0
122.609734 156.0
122.636978 168.0
122.669136 104.0
122.706779 48.0
122.772926 172.0
122.794983 168.0
122.821449 272.0
122.858948 116.0
122.887695 180.0
122.927345 184.0
122.990868 148.0
123.025276 2336.0
123.061218 1636.0
123.282875 132.0
123.318237 132.0
123.360413 196.0
123.423637 68.0
123.468575 148.0
123.497322 124.0
123.518753 176.0
123.54599 108.0
123.583595 124.0
123.718597 144.0
123.751808 140.0
123.784409 144.0
123.858109 152.0
123.882469 224.0
123.905579 196.0
123.928993 156.0
123.96521 192.0
123.999908 140.0
124.027748 288.0
124.060562 284.0
124.152878 52.0
124.18943 372.0
124.217194 124.0
124.312599 112.0
124.405815 100.0
124.443558 136.0
124.47908 124.0
124.525719 108.0
124.54126 140.0
124.640015 160.0
124.687897 144.0
124.722816 180.0
124.796822 188.0
124.908012 120.0
124.959702 68.0
125.000145 156.0
125.040947 804.0
125.11274 152.0
125.134827 152.0
125.173691 192.0
125.180771 224.0
125.212936 84.0
125.238274 160.0
125.328773 296.0
125.346596 76.0
125.388939 200.0
125.44912 256.0
125.464722 152.0
125.48996 176.0
125.542763 120.0
125.567291 128.0
125.632118 128.0
125.652054 148.0
125.706024 172.0
125.765862 192.0
125.826134 56.0
125.86409 140.0
125.951134 336.0
125.995865 152.0
126.021393 168.0
126.027534 204.0
126.050163 328.0
126.088036 128.0
126.094582 156.0
126.181358 120.0
126.197006 136.0
126.246201 148.0
126.264091 160.0
126.295403 72.0
126.312004 132.0
126.351326 212.0
126.37146 180.0
126.416214 228.0
126.512451 96.0
126.613556 128.0
126.675926 172.0
126.790192 120.0
126.818893 144.0
126.836365 292.0
126.868011 164.0
126.953842 76.0
126.977997 156.0
127.007668 140.0
127.05407 412.0
127.100708 116.0
127.171455 104.0
127.22982 56.0
127.348831 228.0
127.427452 256.0
127.506096 140.0
127.542061 172.0
127.557793 128.0
127.593758 116.0
127.626091 104.0
127.733185 180.0
127.751236 152.0
127.778175 80.0
127.796951 104.0
127.856934 88.0
127.906448 192.0
127.94471 184.0
127.964973 96.0
127.985237 176.0
128.010635 196.0
128.062012 1848.0
128.118118 80.0
128.151917 160.0
128.185715 160.0
128.201477 40.0
128.236664 124.0
128.262329 60.0
128.320953 156.0
128.386337 140.0
128.422562 132.0
128.483322 192.0
128.501373 200.0
128.528824 112.0
128.546234 236.0
128.561035 192.0
128.650497 160.0
128.727692 332.0
128.795837 136.0
128.855835 160.0
128.982376 80.0
129.047119 560.0
129.070648 5228.0
129.181366 60.0
129.37146 136.0
129.387299 192.0
129.405411 68.0
129.443909 52.0
129.495453 144.0
129.554886 172.0
129.602463 144.0
129.702179 32.0
129.71933 196.0
129.794266 96.0
129.847275 128.0
129.897171 184.0
129.917587 48.0
130.029907 152.0
130.064636 2664.0
130.133194 168.0
130.184647 132.0
130.218246 204.0
130.235382 112.0
130.270691 88.0
130.298782 176.0
130.329834 192.0
130.351242 212.0
130.369431 88.0
130.401321 124.0
130.473053 280.0
130.560379 96.0
130.585403 160.0
130.608139 116.0
130.666748 152.0
130.683914 168.0
130.71962 124.0
130.771637 164.0
130.819366 164.0
130.913116 132.0
130.95491 136.0
130.989014 196.0
131.008774 104.0
131.07106 116.0
131.095352 188.0
131.186279 192.0
131.2686 124.0
131.33017 52.0
131.362106 180.0
131.391754 64.0
131.45108 236.0
131.467056 96.0
131.526627 324.0
131.558243 184.0
131.606293 172.0
131.663269 152.0
131.759872 100.0
131.791306 68.0
131.827866 132.0
131.864426 196.0
131.891861 104.0
131.960434 216.0
132.131149 144.0
132.158539 156.0
132.165329 96.0
132.180603 328.0
132.244095 116.0
132.290115 112.0
132.384293 132.0
132.415802 60.0
132.443283 60.0
132.498322 156.0
132.530716 120.0
132.592209 196.0
132.624298 192.0
132.667313 172.0
132.734329 60.0
132.760254 184.0
132.807724 124.0
132.897583 228.0
132.954559 104.0
133.009644 160.0
133.045441 3184.0
133.204056 96.0
133.264481 152.0
133.384048 44.0
133.447266 116.0
133.507095 184.0
133.584091 84.0
133.603943 148.0
133.729065 108.0
133.776382 328.0
133.857224 416.0
133.887909 156.0
133.945251 188.0
134.000778 72.0
134.022766 88.0
134.043015 368.0
134.060547 628.0
134.132141 312.0
134.189774 32.0
134.228958 144.0
134.281998 276.0
134.307373 36.0
134.385803 68.0
134.42482 168.0
134.480469 168.0
134.505814 56.0
134.535812 188.0
134.678986 140.0
134.734421 196.0
134.787567 136.0
134.826843 192.0
134.863068 208.0
134.92392 156.0
134.951675 104.0
135.039734 144.0
135.05925 936.0
135.099686 176.0
135.123093 172.0
135.19223 116.0
135.217682 136.0
135.27092 192.0
135.287125 288.0
135.31723 160.0
135.376266 92.0
135.547226 160.0
135.664719 140.0
135.704132 172.0
135.734283 192.0
135.765335 172.0
135.813126 192.0
135.93808 84.0
135.961609 148.0
136.001694 132.0
136.021957 36.0
136.065323 172.0
136.098572 76.0
136.163589 136.0
136.198929 128.0
136.217453 132.0
136.233276 160.0
136.305939 188.0
136.340363 176.0
136.358612 144.0
136.469696 148.0
136.598236 180.0
136.642426 116.0
136.702927 128.0
136.721542 152.0
136.779724 200.0
136.805328 52.0
136.879837 152.0
136.905457 156.0
136.93573 148.0
136.970657 108.0
137.077301 504.0
137.119781 56.0
137.147751 112.0
137.173386 132.0
137.202286 172.0
137.258163 144.0
137.329605 180.0
137.357605 128.0
137.394928 132.0
137.418259 40.0
137.543457 184.0
137.565277 140.0
137.611969 128.0
137.69603 164.0
137.808151 160.0
137.833862 332.0
137.868912 180.0
137.969421 104.0
138.006821 112.0
138.076981 180.0
138.105042 124.0
138.273499 140.0
138.306259 244.0
138.355423 180.0
138.402237 184.0
138.474625 180.0
138.503723 108.0
138.529602 148.0
138.537415 56.0
138.546448 132.0
138.579834 112.0
138.648849 260.0
138.718521 232.0
138.734924 96.0
138.820419 152.0
138.87561 120.0
138.915497 144.0
138.962418 116.0
138.98587 112.0
139.016373 156.0
139.054535 2076.0
139.080505 184.0
139.10321 76.0
139.133728 128.0
139.154861 164.0
139.180695 28.0
139.218262 172.0
139.31456 156.0
139.38739 160.0
139.408539 148.0
139.450836 156.0
139.473633 92.0
139.497787 140.0
139.533112 60.0
139.566025 64.0
139.725967 112.0
139.78775 168.0
139.805969 140.0
139.848328 124.0
139.864807 276.0
139.888336 132.0
139.907166 168.0
139.94249 144.0
139.970734 288.0
139.996399 156.0
140.050613 12624.0
140.115204 48.0
140.145035 144.0
140.177277 188.0
140.194519 96.0
140.218094 76.0
140.255493 252.0
140.329971 180.0
140.381165 232.0
140.437347 184.0
140.57634 140.0
140.609589 212.0
140.674728 180.0
140.73233 36.0
140.764694 216.0
140.790497 184.0
140.814987 124.0
140.844666 144.0
140.881119 196.0
140.989807 40.0
141.056412 1912.0
141.086456 280.0
141.112717 112.0
141.143463 176.0
141.179535 172.0
141.200211 256.0
141.237213 284.0
141.266434 180.0
141.309464 168.0
141.342926 84.0
141.413574 216.0
141.473282 224.0
141.503036 176.0
141.529129 52.0
141.635696 180.0
141.68782 220.0
141.748871 140.0
141.830994 124.0
141.891098 124.0
141.950912 88.0
141.979889 216.0
142.065659 4096.0
142.099609 196.0
142.135925 116.0
142.178635 80.0
142.254761 164.0
142.323441 84.0
142.349564 176.0
142.418427 100.0
142.453339 100.0
142.534836 60.0
142.626144 172.0
142.653015 160.0
142.689331 128.0
142.767792 156.0
142.836761 208.0
142.924789 128.0
142.958099 148.0
142.995529 176.0
143.052948 324.0
143.073593 328.0
143.212845 140.0
143.234268 176.0
143.260483 224.0
143.286682 80.0
143.35817 104.0
143.408218 176.0
143.429657 180.0
143.589401 68.0
143.691971 160.0
143.744461 184.0
143.805679 204.0
143.856644 104.0
143.882904 56.0
143.921097 80.0
143.959305 60.0
143.983185 140.0
144.045013 3832.0
144.083511 156.0
144.100235 144.0
144.131287 44.0
144.158127 88.0
144.265472 396.0
144.312943 76.0
144.362091 164.0
144.394241 148.0
144.413376 136.0
144.442078 224.0
144.523422 224.0
144.556915 100.0
144.607178 80.0
144.738602 156.0
144.825394 228.0
144.881836 204.0
145.046951 620.0
145.06485 420.0
145.14949 116.0
145.171753 132.0
145.212341 156.0
145.330872 112.0
145.424133 172.0
145.515671 128.0
145.540894 40.0
145.623734 124.0
145.676575 68.0
145.729431 196.0
145.766891 196.0
145.803925 120.0
145.902466 172.0
145.928925 112.0
145.989029 96.0
146.053619 1080.0
146.098618 100.0
146.158401 176.0
146.184662 168.0
146.241638 156.0
146.268112 156.0
146.301819 76.0
146.4543 124.0
146.49205 52.0
146.583603 60.0
146.641449 248.0
146.728226 164.0
146.827087 140.0
146.851196 244.0
146.885223 196.0
146.919373 200.0
147.01767 388.0
147.059418 1552.0
147.184219 176.0
147.221786 152.0
147.275986 168.0
147.340988 172.0
147.387115 184.0
147.418533 132.0
147.462036 124.0
147.616745 152.0
147.66835 296.0
147.712479 76.0
147.827209 128.0
147.874664 280.0
147.95549 156.0
148.003342 172.0
148.032959 180.0
148.06752 244.0
148.132645 124.0
148.171021 200.0
148.263092 148.0
148.318848 160.0
148.350357 120.0
148.378235 96.0
148.396408 160.0
148.544342 148.0
148.563751 152.0
148.624405 116.0
148.692352 192.0
148.711761 164.0
148.736038 164.0
148.760315 176.0
148.805878 156.0
148.864716 156.0
148.913284 208.0
148.942429 84.0
148.964294 140.0
148.995865 112.0
149.032104 132.0
149.053696 160.0
149.061478 172.0
149.070328 204.0
149.095261 128.0
149.132431 220.0
149.202438 148.0
149.219452 168.0
149.311859 76.0
149.365372 180.0
149.426178 56.0
149.482147 116.0
149.557587 184.0
149.650101 204.0
149.680634 124.0
149.706345 116.0
149.785934 164.0
149.789749 128.0
149.801086 208.0
149.871735 164.0
149.898544 208.0
149.935089 48.0
149.998459 148.0
150.049652 132.0
150.086227 100.0
150.105728 140.0
150.405807 140.0
150.454636 72.0
150.488815 296.0
150.581604 128.0
150.730621 144.0
150.808624 148.0
150.84549 208.0
150.889481 140.0
150.93782 104.0
151.053329 92.0
151.082687 104.0
151.104706 132.0
151.170029 204.0
151.236847 120.0
151.263779 124.0
151.41803 128.0
151.44252 144.0
151.479263 168.0
151.555206 268.0
151.611557 68.0
151.646271 172.0
151.721863 168.0
151.811356 184.0
151.868988 124.0
151.902969 164.0
151.908951 96.0
152.053894 196.0
152.084473 184.0
152.109451 204.0
152.160995 72.0
152.259216 204.0
152.278244 192.0
152.327988 160.0
152.409058 140.0
152.432571 136.0
152.45575 56.0
152.475403 192.0
152.517197 208.0
152.541763 136.0
152.57048 112.0
152.617294 144.0
152.673004 264.0
152.701584 128.0
152.782928 120.0
152.805878 196.0
152.839355 112.0
152.881241 172.0
153.000061 140.0
153.05838 796.0
153.088562 132.0
153.119659 152.0
153.140076 192.0
153.201813 180.0
153.229385 220.0
153.258316 128.0
153.302277 192.0
153.342773 232.0
153.447708 108.0
153.467422 144.0
153.516739 112.0
153.561127 204.0
153.629425 204.0
153.636688 140.0
153.667206 148.0
153.718964 176.0
153.788116 148.0
153.810333 116.0
153.877228 168.0
153.914017 216.0
153.938721 192.0
153.957001 248.0
154.012802 196.0
154.065033 4856.0
154.119034 84.0
154.141266 128.0
154.206787 156.0
154.264847 176.0
154.311111 112.0
154.395889 156.0
154.472565 84.0
154.561615 96.0
154.717545 140.0
154.738342 220.0
154.784393 92.0
154.856842 188.0
154.873154 304.0
154.987503 116.0
155.012283 220.0
155.065292 1116.0
155.101501 124.0
155.149948 96.0
155.170044 148.0
155.188263 148.0
155.221115 192.0
155.279556 216.0
155.346985 120.0
155.416458 140.0
155.472107 196.0
155.573807 208.0
155.624939 144.0
155.659561 144.0
155.691986 156.0
155.711853 140.0
155.73172 120.0
155.766617 164.0
155.798477 160.0
155.932968 140.0
155.990051 224.0
156.029419 160.0
156.04689 496.0
156.08017 7916.0
156.280609 140.0
156.333588 176.0
156.390594 148.0
156.490173 108.0
156.510086 156.0
156.581543 180.0
156.614685 160.0
156.729279 176.0
156.746719 100.0
156.779114 176.0
156.818985 152.0
156.877808 220.0
157.082001 620.0
157.110733 116.0
157.177536 216.0
157.229538 176.0
157.417725 152.0
157.457687 144.0
157.53511 104.0
157.597565 100.0
157.70752 280.0
157.727524 124.0
157.88504 44.0
157.940063 52.0
157.967575 80.0
157.987579 64.0
158.005096 140.0
158.062943 408.0
158.086716 204.0
158.096191 148.0
158.100861 116.0
158.15274 92.0
158.31546 132.0
158.37056 372.0
158.386765 128.0
158.439056 176.0
158.533401 160.0
158.601074 172.0
158.66745 176.0
158.742462 176.0
158.792236 196.0
158.836777 224.0
158.903931 204.0
158.967239 100.0
159.020767 120.0
159.060623 3312.0
159.158005 196.0
159.185623 140.0
159.202072 116.0
159.293625 56.0
159.316223 144.0
159.46196 100.0
159.529831 112.0
159.575073 164.0
159.622849 184.0
159.763702 164.0
159.839172 120.0
159.859314 176.0
159.909637 152.0
159.959976 212.0
160.007812 148.0
160.030472 68.0
160.05928 440.0
160.077942 112.0
160.121124 300.0
160.158905 204.0
160.199203 80.0
160.312576 136.0
160.345337 116.0
160.425003 152.0
160.526855 144.0
160.68071 132.0
160.718552 44.0
160.761444 236.0
160.791733 44.0
160.852798 124.0
160.953293 124.0
160.970963 188.0
161.06015 472.0
161.075592 112.0
161.085373 160.0
161.162933 208.0
161.192261 224.0
161.218521 144.0
161.299393 160.0
161.360077 172.0
161.423279 240.0
161.504211 156.0
161.524445 40.0
161.554794 92.0
161.607925 52.0
161.663589 96.0
161.710709 136.0
161.725204 128.0
161.74205 176.0
161.820053 192.0
161.890793 144.0
161.929413 160.0
162.011459 268.0
162.068085 156.0
162.196457 160.0
162.256287 120.0
162.276566 140.0
162.364182 204.0
162.454102 180.0
162.497223 144.0
162.524307 160.0
162.672333 156.0
162.811966 124.0
162.850067 372.0
162.899536 84.0
162.961838 116.0
162.987244 144.0
163.030289 128.0
163.04892 164.0
163.256699 192.0
163.28212 172.0
163.375366 164.0
163.416946 124.0
163.583542 232.0
163.719849 172.0
163.758041 116.0
163.811539 204.0
163.916 160.0
163.988678 184.0
164.055023 308.0
164.122452 220.0
164.142853 88.0
164.329056 136.0
164.380936 104.0
164.431122 176.0
164.571518 184.0
164.597244 52.0
164.632797 140.0
164.653229 60.0
164.680664 172.0
164.751831 152.0
164.855042 172.0
164.90361 184.0
164.922348 156.0
164.94194 136.0
165.05658 100.0
165.108124 220.0
165.166962 40.0
165.212997 180.0
165.272049 152.0
165.335815 100.0
165.384445 152.0
165.416977 180.0
165.435638 156.0
165.513519 160.0
165.561096 152.0
165.638779 204.0
165.663544 40.0
165.737839 120.0
165.768951 200.0
165.83522 248.0
165.85759 204.0
165.896744 180.0
165.919815 248.0
165.940323 144.0
165.970474 192.0
166.005066 176.0
166.065811 44464.0
166.102234 244.0
166.148682 296.0
166.178848 156.0
166.202682 136.0
166.235291 52.0
166.268661 60.0
166.29071 128.0
166.322556 44.0
166.342117 144.0
166.385971 240.0
166.403305 96.0
166.466324 108.0
166.518082 200.0
166.543533 60.0
166.563919 84.0
166.640976 100.0
166.670761 136.0
166.694946 60.0
166.785507 152.0
166.817245 68.0
166.857727 96.0
166.890396 100.0
166.92366 164.0
167.01384 352.0
167.069168 5452.0
167.137207 288.0
167.167068 100.0
167.210556 108.0
167.228134 200.0
167.265244 176.0
167.304504 92.0
167.379166 80.0
167.443542 188.0
167.488449 184.0
167.559464 188.0
167.577499 140.0
167.732117 180.0
167.773361 152.0
167.827148 144.0
167.86557 180.0
167.884232 56.0
167.924194 128.0
167.975784 88.0
168.079681 2208.0
168.13446 120.0
168.222214 220.0
168.242874 100.0
168.286392 112.0
168.309998 144.0
168.330658 132.0
168.361649 116.0
168.397797 124.0
168.418457 136.0
168.552795 160.0
168.583801 188.0
168.645828 68.0
168.667389 224.0
168.685501 280.0
168.728546 156.0
168.757126 236.0
168.789871 200.0
168.83197 124.0
168.90152 180.0
169.054779 540.0
169.079773 348.0
169.207169 52.0
169.243408 156.0
169.269302 140.0
169.308151 144.0
169.326279 104.0
169.353622 136.0
169.380661 188.0
169.414337 132.0
169.437653 144.0
169.50502 80.0
169.608688 176.0
169.634613 176.0
169.73053 40.0
169.760605 100.0
169.919861 112.0
169.96138 168.0
169.992844 160.0
170.059647 1132.0
170.087845 300.0
170.097855 156.0
170.304047 176.0
170.330032 100.0
170.387177 192.0
170.412964 272.0
170.504288 164.0
170.563889 72.0
170.607208 144.0
170.678268 140.0
170.699066 208.0
170.743896 200.0
170.857727 60.0
170.896179 180.0
170.904404 140.0
170.912842 172.0
170.943588 212.0
170.995636 128.0
171.05542 384.0
171.133606 108.0
171.246048 232.0
171.295059 188.0
171.334137 100.0
171.368011 68.0
171.390656 144.0
171.487869 144.0
171.511337 124.0
171.615616 136.0
171.766861 164.0
171.803391 92.0
171.884262 168.0
171.910355 80.0
172.038254 140.0
172.080734 176.0
172.160965 44.0
172.180573 196.0
172.200134 52.0
172.25499 172.0
172.338593 196.0
172.372559 144.0
172.414368 120.0
172.448349 140.0
172.468369 200.0
172.537216 48.0
172.581665 152.0
172.654877 60.0
172.68103 132.0
172.715027 240.0
172.756882 188.0
172.829391 112.0
172.940567 224.0
172.971466 264.0
173.044144 300.0
173.087387 144.0
173.182678 120.0
173.212357 68.0
173.249039 108.0
173.269989 120.0
173.301437 136.0
173.353836 144.0
173.398392 76.0
173.424591 272.0
173.566162 124.0
173.623856 44.0
173.642212 72.0
173.792664 124.0
173.844208 148.0
173.865204 180.0
174.046326 188.0
174.16713 160.0
174.290604 140.0
174.314255 180.0
174.369431 144.0
174.450912 128.0
174.469315 68.0
174.508759 56.0
174.556091 148.0
174.579483 116.0
174.616562 240.0
174.708633 116.0
174.779312 180.0
174.882294 156.0
174.913879 176.0
175.02182 168.0
175.074722 200.0
175.111008 156.0
175.132431 204.0
175.192795 144.0
175.223694 80.0
175.290497 92.0
175.332657 168.0
175.361649 144.0
175.403824 124.0
175.458252 148.0
175.498718 108.0
175.525925 140.0
175.681808 124.0
175.852203 148.0
175.902359 156.0
176.03154 168.0
176.050797 208.0
176.087814 688.0
176.13736 124.0
176.237762 88.0
176.327606 116.0
176.34874 40.0
176.502075 56.0
176.5867 164.0
176.615784 124.0
176.68457 216.0
176.742767 192.0
176.771881 100.0
176.806274 168.0
176.941269 116.0
176.976974 228.0
177.010117 116.0
177.069992 256.0
177.095657 280.0
177.222015 172.0
177.247726 164.0
177.280304 140.0
177.362457 84.0
177.388977 152.0
177.481766 168.0
177.51889 152.0
177.590485 152.0
177.638229 136.0
177.688629 180.0
177.715164 160.0
177.773544 132.0
177.802734 104.0
177.898285 156.0
177.962006 168.0
178.07753 152.0
178.121338 148.0
178.16069 172.0
178.246201 144.0
178.270126 208.0
178.307327 68.0
178.336563 200.0
178.373779 116.0
178.533295 112.0
178.591812 220.0
178.674271 184.0
178.848114 236.0
178.868195 156.0
178.959045 156.0
178.980347 104.0
179.053146 152.0
179.162979 160.0
179.252029 140.0
179.278687 168.0
179.339981 36.0
179.489273 140.0
179.615219 176.0
179.737335 116.0
179.854752 112.0
179.873444 168.0
180.002487 188.0
180.068008 204.0
180.137054 188.0
180.175201 136.0
180.231308 152.0
180.388977 48.0
180.4077 40.0
180.45314 120.0
180.497208 100.0
180.560104 96.0
180.581497 124.0
180.618942 132.0
180.680466 112.0
180.715149 184.0
180.775833 112.0
180.791916 208.0
180.843689 84.0
180.889191 112.0
180.98558 80.0
181.020386 108.0
181.077362 176.0
181.108765 192.0
181.135544 208.0
181.226639 164.0
181.264145 220.0
181.31366 144.0
181.340515 136.0
181.396713 240.0
181.443497 96.0
181.497345 100.0
181.55365 168.0
181.698502 96.0
181.829971 160.0
181.859497 52.0
181.964188 140.0
182.067902 176.0
182.097137 164.0
182.157547 100.0
182.203217 84.0
182.230301 140.0
182.261444 148.0
182.345627 144.0
182.396683 156.0
182.437012 176.0
182.470551 80.0
182.509598 64.0
182.540222 140.0
182.603714 140.0
182.641373 140.0
182.695175 104.0
182.750519 108.0
182.80011 80.0
182.844681 220.0
182.880844 200.0
182.934677 164.0
182.964279 108.0
183.06192 2392.0
183.089966 460.0
183.249756 252.0
183.34407 152.0
183.411453 192.0
183.468063 180.0
183.562424 60.0
183.581299 136.0
183.601105 152.0
183.632538 52.0
183.656815 76.0
183.732346 80.0
183.775513 184.0
183.826279 88.0
183.886154 136.0
183.905045 208.0
183.942825 172.0
183.97522 112.0
184.029221 164.0
184.072632 908.0
184.115005 180.0
184.226364 164.0
184.256088 192.0
184.277695 200.0
184.401993 68.0
184.442535 128.0
184.476532 216.0
184.523636 248.0
184.546585 140.0
184.580414 64.0
184.607452 60.0
184.639908 128.0
184.658844 96.0
184.823853 152.0
184.842789 128.0
184.947052 160.0
185.075668 356.0
185.124313 144.0
185.178482 112.0
185.20015 156.0
185.251617 116.0
185.362686 172.0
185.452118 156.0
185.473801 32.0
185.644608 156.0
185.740509 256.0
185.807358 76.0
185.842621 120.0
186.051743 144.0
186.10025 196.0
186.368851 212.0
186.426422 108.0
186.53241 88.0
186.586777 144.0
186.649323 100.0
186.796173 120.0
187.051956 152.0
187.087585 180.0
187.124008 164.0
187.179916 108.0
187.297028 108.0
187.35968 100.0
187.386917 180.0
187.713989 104.0
187.780167 200.0
187.848602 180.0
187.896744 120.0
187.965332 144.0
188.047043 144.0
188.079575 216.0
188.10141 116.0
188.120514 208.0
188.224609 160.0
188.336227 152.0
188.379929 128.0
188.448227 120.0
188.478287 52.0
188.527466 132.0
188.570908 148.0
188.70787 168.0
188.785538 184.0
188.845642 148.0
188.975906 52.0
189.069214 648.0
189.157684 180.0
189.318054 132.0
189.342712 60.0
189.392014 192.0
189.507065 220.0
189.548157 248.0
189.602417 196.0
189.630371 80.0
189.665665 128.0
189.672958 112.0
189.682877 144.0
189.758591 196.0
189.778885 184.0
189.844208 156.0
189.86615 136.0
189.907379 132.0
189.940201 140.0
189.967636 36.0
190.01976 160.0
190.065353 3984.0
190.099884 288.0
190.132263 176.0
190.167938 40.0
190.258514 64.0
190.340881 48.0
190.40506 76.0
190.521744 108.0
190.64151 224.0
190.708344 184.0
190.758484 180.0
190.812134 132.0
190.905426 36.0
190.977448 120.0
191.022461 208.0
191.046021 208.0
191.065506 1016.0
191.10965 352.0
191.141953 168.0
191.187546 252.0
191.226959 124.0
191.26593 92.0
191.31691 128.0
191.369217 124.0
191.490387 44.0
191.520676 200.0
191.575775 124.0
191.603317 152.0
191.65567 180.0
191.699753 316.0
191.754868 60.0
191.798965 132.0
191.917511 100.0
192.060913 156.0
192.087051 188.0
192.121597 120.0
192.267838 80.0
192.289917 140.0
192.317505 136.0
192.429108 216.0
192.516281 136.0
192.547928 244.0
192.599136 152.0
192.668198 164.0
192.690308 208.0
192.784241 112.0
192.93074 144.0
193.019211 68.0
193.042343 252.0
193.087509 252.0
193.530609 208.0
193.561646 120.0
193.616928 188.0
193.69725 200.0
193.730499 168.0
193.785904 204.0
193.810837 140.0
193.952164 176.0
194.055847 368.0
194.132385 88.0
194.201706 108.0
194.426437 228.0
194.57077 256.0
194.667953 236.0
194.689133 248.0
194.845703 120.0
194.881821 68.0
194.94017 112.0
194.965195 152.0
195.061005 1544.0
195.089752 132.0
195.144012 144.0
195.176453 172.0
195.1987 52.0
195.264038 72.0
195.32663 172.0
195.370224 228.0
195.440689 168.0
195.485214 136.0
195.540863 84.0
195.596527 156.0
195.697952 152.0
195.727371 152.0
195.838776 168.0
195.908401 156.0
195.939056 152.0
196.01149 104.0
196.067368 1016.0
196.122971 128.0
196.209198 180.0
196.251205 176.0
196.29303 68.0
196.332062 108.0
196.367737 172.0
196.440842 184.0
196.493851 104.0
196.518951 44.0
196.569183 168.0
196.74501 208.0
196.798065 136.0
196.833603 212.0
196.846756 64.0
196.872681 144.0
196.957901 168.0
197.074692 460.0
197.105606 456.0
197.211502 40.0
197.256226 36.0
197.289764 208.0
197.317719 196.0
197.359665 168.0
197.524658 136.0
197.589005 188.0
197.643143 148.0
197.776489 136.0
197.798523 160.0
197.847168 128.0
197.891266 112.0
197.924866 248.0
197.992065 148.0
198.039673 80.0
198.076096 164.0
198.105865 196.0
198.147202 128.0
198.246994 136.0
198.333878 80.0
198.434784 80.0
198.472931 232.0
198.500488 176.0
198.512558 76.0
198.517548 156.0
198.541336 152.0
198.600098 152.0
198.678787 124.0
198.746109 132.0
198.788208 80.0
198.882843 116.0
198.912781 152.0
198.948181 88.0
198.971344 160.0
199.054443 564.0
199.111038 116.0
199.157471 232.0
199.189682 36.0
199.276764 168.0
199.375122 80.0
199.408844 188.0
199.490356 132.0
199.546341 144.0
199.555527 176.0
199.630539 116.0
199.653427 72.0
199.704056 180.0
199.883743 164.0
200.056061 304.0
200.143051 72.0
200.18573 152.0
200.23317 168.0
200.543076 128.0
200.579712 192.0
200.647369 248.0
200.667114 32.0
200.771439 88.0
200.830658 100.0
200.873184 160.0
200.909653 176.0
200.935043 76.0
200.959076 204.0
201.043579 136.0
201.077972 152.0
201.212128 152.0
201.274567 176.0
201.316223 312.0
201.400803 180.0
201.423401 144.0
201.513809 108.0
201.621185 112.0
201.79361 96.0
201.816223 136.0
201.881256 80.0
201.912369 244.0
201.997223 148.0
202.074997 1908.0
202.207748 176.0
202.300003 108.0
202.325485 112.0
202.356628 52.0
202.379272 312.0
202.410416 104.0
202.509537 144.0
202.536942 188.0
202.614334 116.0
202.654007 140.0
202.733337 76.0
202.761688 164.0
202.790024 116.0
202.832535 188.0
202.87146 192.0
202.923248 164.0
203.036606 144.0
203.040894 140.0
203.073288 3140.0
203.195526 112.0
203.24408 104.0
203.425385 128.0
203.496567 160.0
203.615616 172.0
203.638336 64.0
203.673996 188.0
203.794586 100.0
203.85994 112.0
203.96225 68.0
204.036163 48.0
204.081055 272.0
204.20108 116.0
204.260803 120.0
204.312836 208.0
204.400208 132.0
204.442902 60.0
204.473541 120.0
204.508362 40.0
204.531128 148.0
204.602295 64.0
204.649979 112.0
204.711487 160.0
204.747513 184.0
204.80011 184.0
204.995239 112.0
205.002625 108.0
205.013504 172.0
205.058044 148.0
205.081802 284.0
205.157089 144.0
205.19487 56.0
205.26329 148.0
205.320328 112.0
205.363113 172.0
205.383072 144.0
205.502884 192.0
205.571365 92.0
205.832047 136.0
205.884018 192.0
205.973923 168.0
206.063416 140.0
206.119629 160.0
206.142487 144.0
206.219635 160.0
206.24823 92.0
206.273956 124.0
206.351135 320.0
206.432632 144.0
206.54274 136.0
206.647293 348.0
206.69722 124.0
206.72583 192.0
206.871796 92.0
206.933319 160.0
206.975815 180.0
207.012985 128.0
207.060608 4396.0
207.192535 136.0
207.267029 124.0
207.318604 72.0
207.341537 64.0
207.370193 228.0
207.522125 72.0
207.562271 88.0
207.608139 88.0
207.654037 128.0
207.682709 44.0
207.754425 108.0
207.780243 144.0
207.804276 180.0
207.906494 168.0
207.943802 76.0
208.021301 172.0
208.057434 3960.0
208.127182 176.0
208.173462 224.0
208.228027 176.0
208.248306 68.0
208.276855 152.0
208.328552 144.0
208.348663 136.0
208.390717 132.0
208.43486 76.0
208.522003 232.0
208.544067 96.0
208.590057 28.0
208.768311 112.0
208.853149 128.0
208.928131 120.0
208.975418 180.0
209.005417 204.0
209.071213 1548.0
209.125046 64.0
209.197006 116.0
209.255051 124.0
209.338089 212.0
209.393982 176.0
209.548355 128.0
209.71788 216.0
209.761597 76.0
209.951889 112.0
209.981644 140.0
210.075684 468.0
210.118057 236.0
210.186264 132.0
210.20575 156.0
210.225952 180.0
210.303864 180.0
210.332733 168.0
210.35582 152.0
210.419327 52.0
210.563049 176.0
210.571533 136.0
210.615692 112.0
210.648743 112.0
210.667694 184.0
210.737366 140.0
210.864166 92.0
210.936432 120.0
210.990265 212.0
211.057373 324.0
211.123505 128.0
211.186798 116.0
211.220596 160.0
211.259399 128.0
211.312378 100.0
211.364456 44.0
211.561264 60.0
211.697342 156.0
211.732086 112.0
211.758163 140.0
211.813187 168.0
211.842163 84.0
212.062393 280.0
212.084518 100.0
212.166718 172.0
212.216003 100.0
212.410309 152.0
212.485733 116.0
212.523453 36.0
212.584381 140.0
212.633713 132.0
212.671448 140.0
212.696503 184.0
212.774048 116.0
212.799179 132.0
213.06987 440.0
213.141907 84.0
213.165146 132.0
213.200027 188.0
213.287216 160.0
213.442612 220.0
213.473282 156.0
213.493637 120.0
213.626221 208.0
213.650024 104.0
213.781631 116.0
213.822372 164.0
213.944626 164.0
214.065826 2644.0
214.113495 88.0
214.149292 152.0
214.22023 156.0
214.250397 108.0
214.305756 92.0
214.490845 180.0
214.52771 124.0
214.593094 156.0
214.615906 156.0
214.748856 156.0
214.769272 192.0
214.792603 144.0
214.821762 76.0
214.86261 144.0
214.920959 104.0
214.970566 116.0
214.999756 132.0
215.0858 9528.0
215.207001 84.0
215.2603 172.0
215.344254 100.0
215.364685 56.0
215.386902 188.0
215.421814 172.0
215.464005 252.0
215.493225 100.0
215.534134 72.0
215.576035 176.0
215.607178 184.0
215.697784 148.0
215.718246 68.0
215.748291 144.0
215.7733 236.0
215.80011 48.0
215.881271 164.0
215.925842 188.0
215.966797 60.0
216.013596 228.0
216.040161 148.0
216.085403 3492.0
216.145248 96.0
216.180359 76.0
216.256454 164.0
216.320847 72.0
216.347183 116.0
216.394028 40.0
216.464294 140.0
216.487732 48.0
216.534592 156.0
216.587311 228.0
216.614334 188.0
216.651749 180.0
216.678116 44.0
216.710342 188.0
216.774216 220.0
216.845139 204.0
216.87738 148.0
216.933075 140.0
216.965317 156.0
217.012222 104.0
217.088394 676.0
217.120728 108.0
217.196976 112.0
217.229248 224.0
217.302582 60.0
217.340729 80.0
217.378525 172.0
217.458969 204.0
217.52562 148.0
217.549622 68.0
217.583191 220.0
217.631302 60.0
217.65773 148.0
217.693069 112.0
217.759506 188.0
217.822189 152.0
217.869186 68.0
217.945572 28.0
217.973541 280.0
218.007202 140.0
218.059555 7816.0
218.141479 152.0
218.166 32.0
218.192459 188.0
218.2836 124.0
218.324768 112.0
218.368881 284.0
218.514114 184.0
218.560104 148.0
218.611969 64.0
218.697052 164.0
218.757278 240.0
218.807327 88.0
218.877991 144.0
218.899887 184.0
218.91156 80.0
218.91748 136.0
218.941147 152.0
218.994843 112.0
219.062164 1372.0
219.125397 184.0
219.160751 48.0
219.181381 96.0
219.233368 180.0
219.305923 168.0
219.393585 264.0
219.426208 116.0
219.538055 76.0
219.582291 192.0
219.623581 96.0
219.688477 136.0
219.778412 184.0
219.806488 56.0
219.844849 248.0
219.968811 148.0
219.992188 200.0
220.066772 9568.0
220.111221 284.0
220.132706 140.0
220.175491 164.0
220.244888 232.0
220.27887 52.0
220.316498 264.0
220.368042 80.0
220.42067 52.0
220.466309 216.0
220.488632 96.0
220.524109 136.0
220.555893 172.0
220.598007 136.0
220.642349 152.0
220.666489 132.0
220.729614 136.0
220.763565 232.0
220.798981 164.0
220.825668 180.0
220.86116 40.0
220.887787 412.0
220.915253 100.0
220.94104 104.0
220.99147 160.0
221.025131 172.0
221.064819 32396.0
221.152649 96.0
221.176254 216.0
221.200699 80.0
221.238129 132.0
221.269058 76.0
221.328918 68.0
221.397461 116.0
221.435349 36.0
221.514221 140.0
221.55278 304.0
221.619797 136.0
221.70256 184.0
221.760071 132.0
221.793854 44.0
221.82431 176.0
221.855743 32.0
221.928741 152.0
221.961029 268.0
222.030197 264.0
222.070663 19508.0
222.125061 120.0
222.139252 116.0
222.220398 48.0
222.23735 128.0
222.287079 116.0
222.297012 140.0
222.309204 220.0
222.34552 44.0
222.379868 124.0
222.400101 80.0
222.43927 68.0
222.457428 136.0
222.500244 112.0
222.547958 100.0
222.575333 144.0
222.609726 68.0
222.632324 72.0
222.677338 160.0
222.700027 196.0
222.758224 88.0
222.858932 40.0
222.896454 68.0
222.936493 128.0
222.977066 244.0
223.074036 2632.0
223.168549 116.0
223.198074 152.0
223.245651 36.0
223.336411 124.0
223.358658 156.0
223.397339 100.0
223.465759 148.0
223.51416 60.0
223.566711 176.0
223.602631 80.0
223.652695 44.0
223.685974 116.0
223.709656 88.0
223.803024 192.0
223.822922 140.0
223.855682 228.0
223.882477 256.0
223.912003 168.0
223.997101 140.0
224.050674 860.0
224.088928 1180.0
224.140488 208.0
224.180374 96.0
224.251907 52.0
224.327972 192.0
224.418839 144.0
224.455093 192.0
224.510803 152.0
224.558456 68.0
224.594131 184.0
224.624603 100.0
224.68129 252.0
224.743042 196.0
224.785721 128.0
224.884201 52.0
224.90509 104.0
224.93103 156.0
225.068314 452.0
225.146927 76.0
225.209641 220.0
225.34407 80.0
225.466568 180.0
225.539764 180.0
225.605637 252.0
225.642929 112.0
225.663864 88.0
225.750565 176.0
225.780472 72.0
225.825333 140.0
225.912079 96.0
225.950974 136.0
226.072525 816.0
226.104599 152.0
226.169418 52.0
226.307129 164.0
226.343048 80.0
226.42775 140.0
226.466309 128.0
226.498779 224.0
226.621613 296.0
226.675537 32.0
226.738464 144.0
226.762451 112.0
226.783432 188.0
226.836243 220.0
226.870361 92.0
226.891342 64.0
226.920944 128.0
226.975037 140.0
227.022949 112.0
227.033463 100.0
227.07373 46472.0
227.135941 176.0
227.159729 120.0
227.188232 80.0
227.243301 100.0
227.269241 64.0
227.295486 48.0
227.317245 64.0
227.391815 124.0
227.399353 100.0
227.422028 192.0
227.488312 160.0
227.514877 104.0
227.601501 80.0
227.630234 148.0
227.671997 112.0
227.713516 92.0
227.743546 188.0
227.789642 196.0
227.830078 144.0
227.857422 44.0
227.881042 140.0
227.96933 52.0
228.009537 120.0
228.076782 6908.0
228.14888 196.0
228.236389 68.0
228.272476 116.0
228.320587 64.0
228.342926 196.0
228.383743 104.0
228.443909 272.0
228.504074 88.0
228.636475 48.0
228.663559 144.0
228.715622 104.0
228.743576 48.0
228.783951 28.0
228.82309 148.0
228.907394 168.0
228.988708 40.0
229.086761 760.0
229.148361 40.0
229.184509 124.0
229.214645 100.0
229.253815 48.0
229.30806 72.0
229.347244 52.0
229.393753 272.0
229.552811 64.0
229.587082 116.0
229.619919 156.0
229.657806 88.0
229.708984 116.0
229.721405 48.0
229.732376 120.0
229.769409 80.0
229.795181 156.0
229.803757 84.0
229.864075 160.0
229.918594 100.0
230.007248 216.0
230.061798 172.0
230.090286 368.0
230.113892 340.0
230.152023 52.0
230.173233 196.0
230.207077 252.0
230.22821 124.0
230.279556 228.0
230.333923 48.0
230.439651 128.0
230.491013 52.0
230.521225 48.0
230.60585 88.0
230.633057 108.0
230.771149 152.0
230.82048 36.0
230.944473 128.0
231.023117 104.0
231.054947 156.0
231.104813 336.0
231.186508 152.0
231.220657 140.0
231.319672 108.0
231.434311 208.0
231.537155 116.0
231.579147 92.0
231.637619 40.0
231.710327 244.0
231.737595 128.0
231.855774 108.0
231.883041 132.0
231.954056 168.0
232.056137 2452.0
232.108429 196.0
232.183182 60.0
232.243835 164.0
232.308167 196.0
232.401596 56.0
232.471375 60.0
232.501724 68.0
232.529037 124.0
232.592773 128.0
232.641342 124.0
232.695068 212.0
232.741531 300.0
232.796188 108.0
232.835663 104.0
232.917679 176.0
232.949951 128.0
232.99057 156.0
233.024002 192.0
233.074219 8000.0
233.154648 44.0
233.215439 148.0
233.245834 188.0
233.27504 132.0
233.309448 56.0
233.320892 52.0
233.326187 92.0
233.352234 168.0
233.387711 120.0
233.41304 220.0
233.482925 208.0
233.521866 184.0
233.571182 156.0
233.625946 112.0
233.65303 128.0
233.662231 116.0
233.720367 208.0
233.746872 96.0
233.815033 164.0
233.887894 192.0
233.941101 184.0
233.970154 224.0
233.990524 120.0
234.028122 292.0
234.072113 79532.0
234.120651 308.0
234.164703 204.0
234.193573 76.0
234.221695 84.0
234.251282 220.0
234.27771 40.0
234.307114 124.0
234.337021 156.0
234.365265 112.0
234.390213 132.0
234.41478 136.0
234.485535 132.0
234.508972 44.0
234.529877 84.0
234.57045 196.0
234.595978 96.0
234.647964 212.0
234.684891 136.0
234.707123 180.0
234.732956 152.0
234.758972 72.0
234.781525 156.0
234.837753 72.0
234.845978 60.0
234.868057 192.0
234.897079 132.0
234.929123 132.0
234.953415 168.0
234.99646 168.0
235.079071 17020.0
235.243118 64.0
235.280716 52.0
235.319046 40.0
235.369629 108.0
235.418518 60.0
235.445587 32.0
235.48941 224.0
235.521408 68.0
235.583038 72.0
235.620667 148.0
235.682327 40.0
235.727234 72.0
235.807526 128.0
235.833313 128.0
235.897339 252.0
235.926712 140.0
235.955872 132.0
235.997391 132.0
236.086319 5824.0
236.162689 100.0
236.193558 44.0
236.231094 104.0
236.258636 64.0
236.294601 196.0
236.374893 28.0
236.403458 156.0
236.496582 168.0
236.538544 144.0
236.563095 144.0
236.591263 224.0
236.673279 116.0
236.696304 88.0
236.719482 96.0
236.761688 104.0
236.797119 92.0
236.821762 132.0
236.858856 216.0
236.86998 124.0
236.898438 172.0
236.968903 220.0
236.996918 220.0
237.010223 128.0
237.018616 224.0
237.058228 3256.0
237.08963 816.0
237.14119 88.0
237.165024 56.0
237.223251 40.0
237.257904 92.0
237.293762 68.0
237.342346 228.0
237.373489 60.0
237.422546 64.0
237.445557 44.0
237.474686 112.0
237.536026 28.0
237.577377 44.0
237.673141 220.0
237.723175 144.0
237.756943 100.0
237.784378 68.0
237.873566 92.0
237.901199 100.0
237.949097 152.0
238.066147 11508.0
238.142319 76.0
238.171417 128.0
238.257431 68.0
238.283264 68.0
238.314499 76.0
238.361023 160.0
238.395691 104.0
238.475601 48.0
238.502045 80.0
238.533997 60.0
238.5672 184.0
238.580109 228.0
238.592941 184.0
238.602005 224.0
238.666183 76.0
238.71347 84.0
238.743057 36.0
238.844559 128.0
238.87532 64.0
238.92453 132.0
238.976395 56.0
239.070526 2036.0
239.173782 72.0
239.207642 64.0
239.259979 52.0
239.296921 96.0
239.352463 200.0
239.375854 120.0
239.438568 192.0
239.490921 168.0
239.666519 80.0
239.697327 176.0
239.762039 120.0
239.877625 104.0
240.008652 172.0
240.08107 8196.0
240.175186 108.0
240.206024 44.0
240.265167 196.0
240.304749 104.0
240.337845 148.0
240.372437 64.0
240.403488 28.0
240.452866 160.0
240.509567 104.0
240.538345 176.0
240.560883 48.0
240.619537 128.0
240.659683 40.0
240.719955 176.0
240.757797 88.0
240.817078 140.0
240.894394 168.0
240.928375 168.0
241.088028 9632.0
241.167023 120.0
241.190125 232.0
241.231216 64.0
241.252853 36.0
241.287308 56.0
241.328568 132.0
241.414948 84.0
241.447647 76.0
241.484756 32.0
241.578064 232.0
241.642517 184.0
241.701309 32.0
241.752975 92.0
241.833054 200.0
241.949112 116.0
241.99234 136.0
242.096039 17220.0
242.18425 52.0
242.218307 44.0
242.249832 116.0
242.319092 60.0
242.377136 76.0
242.500641 168.0
242.545456 144.0
242.571564 164.0
242.613235 252.0
242.664566 152.0
242.73587 56.0
242.791702 92.0
242.8134 92.0
242.876984 152.0
242.916824 116.0
243.024338 124.0
243.100647 3396.0
243.191528 96.0
243.234177 136.0
243.296753 176.0
243.443375 92.0
243.491241 68.0
243.544174 44.0
243.606735 128.0
243.688766 96.0
243.850357 104.0
243.875214 40.0
243.921844 156.0
243.976456 156.0
244.069855 3180.0
244.100586 432.0
244.158127 44.0
244.234085 76.0
244.263885 40.0
244.288773 124.0
244.369659 148.0
244.43158 168.0
244.519012 204.0
244.547028 172.0
244.639862 116.0
244.696442 136.0
244.743149 172.0
244.77739 80.0
244.820984 76.0
244.849014 80.0
244.93718 184.0
244.978119 192.0
245.034576 196.0
245.067642 4364.0
245.132507 180.0
245.182358 148.0
245.292038 64.0
245.348129 220.0
245.384644 160.0
245.45285 148.0
245.475388 204.0
245.524506 108.0
245.546204 96.0
245.578308 152.0
245.617889 116.0
245.656281 136.0
245.70932 84.0
245.765472 164.0
245.849731 44.0
245.876312 208.0
245.917191 136.0
245.973221 188.0
245.998337 104.0
246.023697 184.0
246.071884 31448.0
246.181137 352.0
246.220337 56.0
246.243698 184.0
246.278351 68.0
246.311798 108.0
246.360046 72.0
246.400528 208.0
246.445816 164.0
246.462311 84.0
246.488586 116.0
246.510864 168.0
246.583923 208.0
246.62738 224.0
246.664886 160.0
246.718033 144.0
246.741241 152.0
246.768051 64.0
246.794708 120.0
246.82608 72.0
246.8405 164.0
246.849731 100.0
246.871674 212.0
246.883926 144.0
246.895172 140.0
246.906342 144.0
246.932556 280.0
246.978592 168.0
247.001663 296.0
247.079697 83108.0
247.14386 200.0
247.187378 124.0
247.225677 64.0
247.272537 112.0
247.333221 84.0
247.370926 152.0
247.394958 116.0
247.417648 108.0
247.443832 76.0
247.485748 72.0
247.495804 60.0
247.544876 104.0
247.597473 228.0
247.659912 120.0
247.700623 48.0
247.725677 28.0
247.750748 72.0
247.782074 36.0
247.807144 220.0
247.835342 148.0
247.873383 112.0
247.886932 120.0
247.910156 100.0
247.95282 148.0
247.98262 112.0
248.013412 152.0
248.082855 13516.0
248.167572 72.0
248.194504 68.0
248.24501 144.0
248.277313 76.0
248.320435 48.0
248.330292 36.0
248.341187 44.0
248.43187 60.0
248.47348 52.0
248.538177 80.0
248.58873 104.0
248.643372 76.0
248.689316 100.0
248.725967 88.0
248.813873 100.0
248.867416 72.0
248.939453 120.0
248.976364 112.0
249.086044 1092.0
249.127914 52.0
249.183334 108.0
249.231583 52.0
249.343964 156.0
249.36824 80.0
249.420135 40.0
249.479874 64.0
249.533127 136.0
249.541351 172.0
249.566422 64.0
249.614258 172.0
249.649658 92.0
249.687973 64.0
249.744843 96.0
249.78331 64.0
249.829346 212.0
249.853989 116.0
249.862442 268.0
249.890091 136.0
249.921783 124.0
249.976807 60.0
250.103149 8252.0
250.178238 40.0
250.216019 72.0
250.282135 36.0
250.313873 48.0
250.338806 56.0
250.408096 136.0
250.445892 64.0
250.499435 48.0
250.53157 40.0
250.562439 64.0
250.688477 124.0
250.716827 40.0
250.817688 84.0
250.858673 76.0
250.8965 104.0
250.941971 160.0
250.972168 40.0
251.006851 128.0
251.041534 176.0
251.103561 1120.0
251.142456 48.0
251.174576 192.0
251.203033 196.0
251.233932 100.0
251.259171 88.0
251.319107 40.0
251.356979 64.0
251.427795 108.0
251.606308 72.0
251.716827 124.0
251.745239 68.0
251.802078 112.0
251.824188 48.0
251.960022 36.0
252.044357 340.0
252.078995 220.0
252.114914 236.0
252.228622 152.0
252.293732 228.0
252.525833 56.0
252.962479 112.0
253.054291 128.0
253.083878 220.0
253.146118 148.0
253.288635 48.0
253.35199 184.0
253.444962 92.0
253.57695 116.0
253.694229 36.0
253.767151 100.0
253.928864 72.0
254.036713 132.0
254.069977 520.0
254.128708 104.0
254.157272 80.0
254.246124 152.0
254.446091 64.0
255.065536 272.0
255.275375 52.0
255.342148 168.0
255.428024 104.0
255.463028 40.0
255.564819 96.0
255.730301 140.0
255.755768 96.0
256.09964 104.0
256.456482 140.0
256.517059 60.0
256.670074 252.0
256.896515 60.0
257.060852 396.0
257.123047 120.0
257.435913 40.0
257.595612 172.0
257.685059 84.0
257.77771 64.0
257.848022 292.0
257.870392 56.0
257.924713 92.0
257.950287 168.0
257.972656 116.0
258.071289 1304.0
258.27005 64.0
258.381561 60.0
258.522797 136.0
258.564392 64.0
258.721222 48.0
258.823669 92.0
258.916534 56.0
259.077484 780.0
259.208069 52.0
259.361877 144.0
259.470886 116.0
259.525391 44.0
259.557434 104.0
259.616547 184.0
259.735107 108.0
259.862152 184.0
259.911743 156.0
260.038635 252.0
260.086853 8628.0
260.147766 64.0
260.172394 80.0
260.245117 136.0
260.462463 52.0
260.520264 148.0
260.552399 40.0
260.587585 144.0
260.709839 100.0
260.796631 164.0
260.839142 236.0
260.880188 144.0
260.941284 136.0
261.005585 216.0
261.028076 156.0
261.056854 228.0
261.093933 8304.0
261.179688 88.0
261.206177 52.0
261.256439 72.0
261.282166 100.0
261.437897 200.0
261.554749 96.0
261.611603 164.0
261.632965 256.0
261.737396 96.0
261.764954 68.0
261.834869 96.0
261.864807 116.0
261.890381 132.0
261.907867 140.0
261.947815 88.0
261.993958 208.0
262.023895 204.0
262.10321 74452.0
262.186005 40.0
262.226715 184.0
262.283661 52.0
262.316376 52.0
262.353088 44.0
262.399689 100.0
262.447205 248.0
262.530304 104.0
262.575867 80.0
262.589081 44.0
262.629211 96.0
262.652588 100.0
262.720245 88.0
262.745941 88.0
262.770599 88.0
262.805145 188.0
262.865692 84.0
262.899353 84.0
262.94162 48.0
262.973877 160.0
263.024323 104.0
263.054016 92.0
263.106689 11100.0
263.215149 92.0
263.244446 168.0
263.275665 52.0
263.296722 192.0
263.345856 56.0
263.40332 92.0
263.438843 92.0
263.529297 140.0
263.597168 64.0
263.671478 52.0
263.703796 88.0
263.74646 40.0
263.794312 64.0
263.815674 76.0
263.902618 48.0
263.930328 52.0
264.000946 88.0
264.045105 120.0
264.11087 1272.0
264.216919 128.0
264.287445 144.0
264.356415 80.0
264.510651 124.0
264.560974 84.0
264.601227 48.0
264.671051 76.0
264.748779 44.0
264.776245 124.0
264.805634 64.0
264.853058 140.0
264.949585 68.0
264.978729 84.0
265.056519 64.0
265.091553 176.0
265.126526 60.0
265.189362 100.0
265.348206 84.0
265.406555 68.0
265.4552 64.0
265.484406 72.0
265.544037 164.0
265.730896 104.0
265.753632 32.0
265.818512 84.0
265.906128 104.0
265.958069 240.0
266.04245 64.0
266.097168 192.0
266.162598 76.0
266.25885 88.0
266.396423 36.0
266.467896 48.0
266.516632 52.0
266.617371 68.0
266.854645 140.0
266.939178 40.0
266.981476 92.0
267.069275 84.0
267.176605 116.0
267.319763 128.0
267.378357 92.0
267.453217 80.0
267.710419 88.0
267.840668 48.0
267.980774 136.0
268.115204 608.0
268.375122 128.0
268.541443 60.0
268.609924 60.0
268.642548 100.0
268.779572 44.0
268.923187 156.0
269.117493 164.0
269.285583 68.0
269.644958 44.0
269.981689 60.0
270.649231 76.0
270.760559 76.0
271.055389 64.0
271.284821 132.0
272.061066 108.0
272.413635 52.0
272.715942 220.0
272.952637 56.0
273.054596 52.0
273.087799 116.0
273.518494 68.0
274.08493 144.0
274.737732 72.0
275.047913 124.0
275.094147 156.0
275.417725 140.0
275.473877 156.0
276.105194 92.0
276.36319 60.0
277.058441 180.0
277.114136 104.0
278.115936 128.0
278.182617 60.0
278.308777 68.0
278.434967 96.0
278.68924 132.0
279.039734 96.0
279.0896 156.0
279.558594 108.0
280.110748 676.0
280.297852 56.0
280.631165 80.0
280.807892 60.0
280.917969 88.0
281.120209 180.0
281.92627 104.0
282.120148 120.0
282.755646 84.0
282.789124 96.0
283.036835 36.0
283.133972 60.0
283.710266 224.0
283.83432 104.0
285.015839 52.0
286.18631 96.0
286.243561 52.0
286.297455 104.0
286.351318 76.0
286.674744 140.0
287.150085 120.0
287.500946 84.0
288.832092 76.0
288.953857 80.0
289.39386 152.0
289.576721 228.0
291.12793 420.0
291.242035 76.0
291.571594 172.0
291.738129 136.0
292.136902 836.0
292.404816 76.0
292.435425 112.0
293.138123 152.0
293.876892 48.0
294.67923 124.0
295.130371 136.0
295.482666 60.0
296.41394 96.0
296.609283 176.0
297.140839 68.0
298.558807 112.0
298.700439 72.0
300.667786 84.0
301.62793 84.0
301.904541 176.0
302.967133 56.0
303.081451 100.0
303.417633 76.0
303.480042 68.0
303.816437 56.0
303.962158 112.0
304.094055 60.0
304.413422 216.0
304.80246 124.0
305.13974 124.0
305.466492 112.0
305.656677 200.0
306.730499 160.0
306.96759 44.0
307.160828 4900.0
307.377228 64.0
307.668884 160.0
307.800934 208.0
307.860901 76.0
307.885345 60.0
308.09494 64.0
308.162201 712.0
308.23819 36.0
308.489807 100.0
308.821991 36.0
309.122864 64.0
309.163208 292.0
309.889679 76.0
309.917694 124.0
310.103424 72.0
310.317261 116.0
310.52063 136.0
310.562714 184.0
310.671448 96.0
310.745148 224.0
311.029388 36.0
311.082031 44.0
312.702393 136.0
313.028046 224.0
313.797913 136.0
314.080017 40.0
314.252869 76.0
314.902405 96.0
315.011902 196.0
319.243744 60.0
319.361115 92.0
319.492706 60.0
319.624359 88.0
319.962463 128.0
320.942261 56.0
321.466583 52.0
321.862823 80.0
321.891388 92.0
322.052094 84.0
322.266418 128.0
322.323578 92.0
323.153107 204.0
323.374969 156.0
323.62912 32.0
323.829651 76.0
323.890564 140.0
324.159241 112.0
324.363525 156.0
324.453156 156.0
324.521271 152.0
324.575043 124.0
324.773193 64.0
324.887085 112.0
325.085785 168.0
325.17038 12216.0
325.2229 104.0
325.342834 52.0
325.425415 80.0
325.475677 72.0
325.675476 212.0
325.913879 56.0
325.974945 124.0
326.032471 100.0
326.093567 144.0
326.172913 2132.0
326.251709 56.0
326.352386 92.0
326.420685 84.0
326.521393 52.0
326.589722 56.0
326.6185 92.0
326.755188 104.0
327.178558 272.0
327.305878 120.0
327.583191 68.0
327.738098 76.0
327.961517 80.0
328.0336 60.0
328.105713 172.0
328.143036 80.0
328.199463 108.0
328.25058 132.0
328.318451 76.0
328.412201 120.0
329.09787 36.0
329.21637 196.0
329.64328 48.0
330.051727 52.0
330.11322 104.0
330.218079 48.0
330.302917 88.0
330.576233 124.0
330.605194 40.0
331.235168 84.0
331.891113 92.0
332.228394 40.0
332.732849 48.0
332.892578 100.0
333.637421 92.0
334.030151 96.0
335.027588 104.0
336.577606 76.0
337.129181 36.0
337.432587 44.0
337.90802 56.0
338.197113 92.0
338.482666 60.0
340.433472 88.0
341.241821 128.0
341.661102 32.0
344.137726 100.0
348.329895 64.0
349.519562 52.0
350.342377 104.0
350.931213 68.0
355.224457 68.0
355.697266 60.0
356.354462 128.0
356.632538 36.0
358.167664 76.0
361.773834 80.0
363.289642 80.0
364.462769 28.0
366.060364 76.0
367.646149 84.0
367.760651 100.0
370.142334 52.0
370.582794 72.0
370.701569 96.0
371.295776 84.0
372.005615 96.0
372.467102 64.0
373.423431 128.0
374.778473 60.0
376.989471 168.0
377.174988 32.0
383.490021 96.0
384.152893 44.0
385.015472 40.0
385.511597 100.0
385.847748 40.0
387.581573 132.0
388.330322 56.0
388.703003 100.0
389.578552 52.0
393.319397 48.0
393.500977 80.0
393.730011 64.0
394.283081 48.0
394.488617 40.0
394.880066 100.0
395.916931 92.0
396.063477 52.0
396.729187 92.0
398.050385 80.0
398.169495 68.0
398.47934 64.0
399.855164 60.0
402.274567 40.0
402.438232 72.0
404.89035 108.0
405.021637 60.0
406.019592 104.0
406.966583 100.0
409.069153 104.0
409.54834 60.0
409.939117 72.0
410.596222 88.0
411.035919 100.0
411.233673 120.0
412.170563 80.0
413.375549 84.0
413.994904 64.0
414.367523 80.0
414.489075 76.0
414.639038 100.0
414.683594 52.0
416.078979 92.0
417.366913 64.0
419.753021 48.0
420.154907 92.0
421.410156 52.0
422.231781 68.0
423.525085 48.0
423.906097 44.0
424.356964 56.0
424.75885 56.0
425.128113 72.0
426.861633 28.0
427.367554 84.0
427.799683 72.0
428.190826 88.0
430.574585 64.0
431.504303 68.0
433.942841 72.0
434.096252 76.0
434.9758 60.0
437.919617 76.0
439.007355 116.0
440.430511 84.0
441.00708 136.0
442.261871 92.0
443.380096 72.0
443.992188 52.0
448.322205 64.0
449.275085 60.0
450.88382 80.0
452.216034 40.0
455.527557 44.0
456.177704 56.0
459.1539 44.0
459.341583 52.0
459.533539 132.0
462.944489 96.0
465.94696 56.0
466.264923 68.0
467.09903 72.0
467.331329 108.0
468.075958 80.0
470.49472 92.0
471.877197 44.0
472.859131 92.0
476.405975 92.0
481.401672 32.0
483.346863 96.0
484.253052 80.0
486.133759 56.0
488.493103 32.0
488.655884 80.0
490.527496 52.0
493.631226 120.0
497.592346 104.0
500.379883 40.0
500.771729 120.0
501.778809 88.0
503.644104 72.0
504.359009 32.0
504.873138 100.0
505.606812 52.0
508.017365 92.0
508.26413 32.0
510.627045 104.0
512.914246 72.0
513.387695 60.0
515.111755 112.0
518.70459 56.0
520.369507 72.0
520.623779 76.0
521.286987 116.0
525.343689 44.0
529.260376 100.0
530.579895 68.0
532.83783 108.0
535.911133 104.0
536.169189 60.0
540.232361 68.0
540.32489 72.0
542.088989 48.0
542.31604 40.0
544.687073 32.0
550.522766 84.0
553.417175 88.0
554.391479 64.0
557.126892 108.0
558.400696 84.0
563.973572 72.0
566.969421 48.0
567.249084 128.0
575.937744 76.0
576.396362 104.0
577.931213 72.0
578.113037 116.0
582.034119 40.0
587.221741 56.0
587.713806 56.0
588.234985 96.0
590.713928 32.0
590.936462 128.0
597.933655 40.0
598.834351 88.0
600.813354 76.0
600.8573 84.0
601.267151 40.0
606.054443 88.0
607.883423 44.0
608.997803 52.0
616.160156 56.0
619.722351 68.0
620.069214 60.0
627.216431 44.0
627.924438 92.0
636.742737 40.0
641.694214 112.0
642.586853 72.0
645.253479 56.0
646.502869 76.0
647.956055 36.0
649.223206 60.0
650.511902 88.0
651.451355 48.0
657.995361 116.0
658.521301 68.0
661.164429 64.0
662.42395 44.0
664.772156 128.0
668.610901 140.0
668.909424 76.0
671.537231 80.0
672.078918 68.0
678.030762 96.0
678.844666 60.0
679.487854 64.0
681.289307 120.0
684.852417 108.0
690.468201 56.0
693.572937 60.0
695.356201 128.0
695.760376 84.0
698.214172 108.0
698.424561 100.0
701.373169 52.0
702.549072 112.0
705.538086 44.0
707.903137 80.0
709.174622 112.0
710.675354 116.0
711.95459 128.0
713.128723 44.0
722.850708 36.0
727.314941 28.0
727.9646 128.0
728.088074 88.0
734.309448 100.0
737.619263 64.0
742.714478 208.0
755.942444 64.0
757.026306 76.0
757.530151 36.0
759.048279 144.0
764.629639 140.0
767.58783 60.0
768.177979 52.0
770.148499 60.0
773.272339 60.0
773.920044 60.0
775.842468 52.0
784.999817 52.0
790.255859 120.0
791.985657 76.0
793.672424 96.0
794.693237 80.0
795.125366 188.0
796.860413 52.0
804.734131 92.0
822.360291 204.0
830.536499 68.0
836.224609 84.0
837.865662 100.0
838.891479 152.0
840.425537 72.0
841.435547 140.0
841.533691 108.0
842.284424 64.0
843.769592 196.0
845.609009 144.0
848.064697 44.0
848.29657 72.0
850.094543 160.0
852.376587 116.0
852.870605 80.0
853.108887 40.0
854.32428 176.0
854.923584 80.0
863.844543 132.0
865.606201 92.0
865.863831 92.0
869.310852 76.0
869.639526 204.0
872.811768 204.0
874.088196 48.0
874.300049 112.0
876.472961 144.0
877.592834 172.0
878.105835 36.0
880.980408 144.0
881.323059 68.0
881.429382 200.0
885.333618 240.0
886.577637 80.0
886.927307 128.0
887.045837 96.0
890.160645 196.0
890.627441 124.0
891.616028 116.0
891.883484 172.0
892.406616 48.0
895.441467 172.0
895.977539 140.0
896.066895 200.0
897.861084 164.0
898.362122 152.0
899.167603 184.0
899.919739 132.0
900.540771 144.0
902.752014 104.0
903.703064 140.0
904.068054 96.0
905.72644 140.0
907.572266 192.0
908.117981 188.0
908.525879 60.0
909.738037 52.0
910.026245 68.0
914.276001 144.0
915.847351 132.0
916.528076 148.0
918.414978 152.0
920.303833 64.0
921.680969 52.0
921.753479 48.0
922.388062 196.0
923.50061 72.0
925.303894 100.0
925.358337 96.0
926.1698 164.0
926.335388 168.0
926.418152 196.0
927.7453 124.0
928.042358 140.0
928.612427 212.0
931.36792 36.0
931.495483 140.0
931.62915 28.0
931.96936 168.0
934.553406 168.0
934.802917 120.0
935.131531 164.0
935.953369 132.0
936.099487 144.0
936.151978 168.0
939.555359 144.0
941.563538 160.0
941.8302 200.0
942.101013 64.0
942.388184 152.0
942.510376 136.0
944.540039 164.0
946.616089 272.0
947.404846 144.0
947.686646 88.0
949.912048 132.0
950.513306 180.0
952.461121 244.0
954.327637 80.0
954.616638 220.0
955.348511 184.0
955.803772 188.0
956.443848 220.0
957.151794 68.0
958.217346 40.0
960.664795 128.0
961.948303 156.0
962.497803 176.0
965.136169 104.0
965.185608 164.0
965.420593 128.0
966.261841 176.0
966.354614 176.0
966.80011 148.0
968.998291 120.0
969.221313 172.0
969.270874 136.0
969.61792 96.0
969.865845 120.0
972.042603 136.0
972.830872 60.0
973.072937 160.0
975.240906 148.0
975.52063 136.0
975.60144 236.0
975.918518 172.0
977.392639 80.0
978.270142 196.0
978.475586 180.0
979.104492 180.0
979.490662 136.0
979.970337 124.0
980.437683 120.0
980.711914 48.0
981.123291 152.0
981.497375 120.0
981.884033 168.0
982.158447 84.0
982.64502 188.0
984.342712 176.0
984.904785 96.0
986.65448 388.0
986.842041 176.0
987.567444 132.0
988.111633 124.0
988.474548 176.0
988.699829 180.0
988.881348 76.0
989.38208 184.0
989.851685 104.0
991.380127 96.0
991.749878 184.0
992.063293 204.0
992.370483 112.0
992.74231 176.0
993.079102 124.0
993.49939 112.0
995.90979 132.0
996.399719 176.0
996.750427 160.0
997.386353 188.0
998.64386 56.0
999.103027 56.0
1000.563049 112.0
1000.733032 164.0
1001.129761 144.0
1001.898193 72.0
1002.074585 116.0
1003.026123 56.0
1003.498962 204.0
1003.700684 172.0
1003.820496 216.0
1004.772888 152.0
1005.290283 88.0
1005.845703 164.0
1006.072937 128.0
1006.729614 40.0
1007.695984 200.0
1007.992981 172.0
1008.043518 80.0
1008.934692 40.0
1010.009705 100.0
1010.560059 108.0
1011.895508 124.0
1012.332397 168.0
1012.769348 116.0
1013.250793 164.0
1013.421875 104.0
1013.599304 216.0
1013.903442 72.0
1014.581665 180.0
1014.914124 156.0
1014.937012 180.0
1015.15863 152.0
1015.291809 200.0
1015.697754 156.0
1016.319458 56.0
1016.560547 220.0
1016.693848 144.0
1017.595154 164.0
1018.471497 128.0
1019.456238 140.0
1019.532532 112.0
1020.117249 176.0
1020.314331 96.0
1020.924744 160.0
1022.025146 132.0
1023.228088 156.0
1023.374512 160.0
1023.527344 80.0
1023.743835 140.0
1024.024048 104.0
1024.278809 184.0
1024.686523 136.0
1025.635986 164.0
1025.777832 216.0
1026.483887 196.0
1026.719849 124.0
1027.785156 112.0
1028.86377 44.0
1029.776855 200.0
1031.182495 152.0
1032.071045 160.0
1032.921631 236.0
1033.107056 128.0
1033.254272 164.0
1033.39502 124.0
1034.050537 136.0
1034.354858 84.0
1034.751831 152.0
1034.899048 212.0
1035.558594 132.0
1036.372192 144.0
1037.512939 164.0
1037.6604 208.0
1037.878418 140.0
1038.057983 172.0
1038.173462 192.0
1038.353027 60.0
1039.251099 116.0
1039.482056 120.0
1040.001831 40.0
1041.125366 132.0
1041.876831 144.0
1042.384521 152.0
1042.429443 136.0
1043.586426 72.0
1043.792236 124.0
1044.171631 80.0
1044.235962 132.0
1044.345215 128.0
1045.033569 88.0
1045.561157 108.0
1045.651367 132.0
1045.767212 196.0
1045.876587 144.0
1046.655518 36.0
1046.990356 192.0
1047.825317 136.0
1048.852417 176.0
1049.890381 152.0
1050.264404 96.0
1050.399902 176.0
1050.874268 184.0
1051.006348 104.0
1051.387085 176.0
1051.44519 176.0
1052.658813 88.0
1052.994629 132.0
1053.10437 92.0
1053.634033 60.0
1054.286621 124.0
1054.934204 128.0
1055.042847 56.0
1056.433228 160.0
1056.776123 92.0
1056.834351 172.0
1056.879639 172.0
1057.002563 64.0
1057.106079 216.0
1057.164429 184.0
1057.229126 140.0
1057.565674 172.0
1057.66272 148.0
1058.115845 120.0
1058.297119 152.0
1059.566528 112.0
1059.689697 128.0
1060.441284 120.0
1060.551514 144.0
1062.393066 144.0
1062.594238 36.0
1062.782349 136.0
1063.067871 156.0
1063.171631 144.0
1063.638916 156.0
1063.710327 136.0
1064.034912 144.0
1064.086914 144.0
1064.171265 124.0
1064.229736 140.0
1064.307617 60.0
1065.327271 152.0
1065.678101 168.0
1067.160034 228.0
1067.589111 124.0
1067.634644 116.0
1068.311035 140.0
1068.38269 68.0
1068.493286 44.0
1068.636353 132.0
1069.501831 108.0
1069.710205 144.0
1070.296143 192.0
1071.718628 192.0
1071.833252 36.0
1072.217773 164.0
1072.276489 124.0
1072.563232 136.0
1073.391113 172.0
1073.68457 108.0
1074.60437 132.0
1074.663086 116.0
1075.074219 160.0
1075.465698 164.0
1075.531006 120.0
1076.170776 152.0
1077.06543 172.0
1077.313721 72.0
1077.482544 192.0
1078.025879 204.0
1078.123901 156.0
1078.457153 144.0
1079.015137 160.0
1079.222046 176.0
1080.386108 92.0
1080.562744 136.0
1081.269531 108.0
1082.002563 120.0
1083.099365 176.0
1083.523682 184.0
1084.347656 124.0
1084.718018 228.0
1085.291504 164.0
1085.337402 132.0
1085.842407 132.0
1086.891968 120.0
1087.023193 148.0
1088.224365 164.0
1088.276855 68.0
1088.44104 204.0
1089.551025 108.0
1089.715332 172.0
1090.293579 140.0
1090.546997 160.0
1090.727783 200.0
1091.292603 108.0
1091.588501 124.0
1091.660889 164.0
1092.423828 104.0
1092.719849 40.0
1093.312012 140.0
1093.456787 104.0
1093.674072 156.0
1093.884644 204.0
1095.043457 96.0
1095.287231 108.0
1096.025024 256.0
1096.22937 124.0
1096.282104 264.0
1096.443359 176.0
1096.809326 132.0
1097.488281 132.0
1097.580688 164.0
1098.062012 188.0
1098.233887 124.0
1098.738647 112.0
1098.893188 164.0
1099.552979 132.0
1099.817017 184.0
1100.16687 216.0
1100.272461 120.0
1100.932739 120.0
1101.018677 92.0
1101.17395 156.0
1101.613525 140.0
1101.685791 156.0
1101.877319 136.0
1102.002808 172.0
1102.049072 172.0
1102.987549 140.0
1103.199097 160.0
1103.291626 112.0
1103.397339 208.0
1103.754395 120.0
1103.820557 120.0
1105.067627 232.0
1105.222778 140.0
1105.295654 80.0
1105.85144 164.0
1106.208862 116.0
1106.328125 68.0
1106.52002 172.0
1106.725342 140.0
1107.082886 144.0
1107.235229 184.0
1107.400757 56.0
1107.599487 176.0
1107.897583 108.0
1108.169189 160.0
1108.460693 172.0
1109.183105 156.0
1109.322266 128.0
1109.547729 212.0
1109.600708 152.0
1110.171021 176.0
1111.351685 204.0
1111.80957 140.0
1112.148071 144.0
1113.542236 260.0
1113.668457 156.0
1113.841187 188.0
1113.894287 144.0
1114.047119 172.0
1114.492188 80.0
1114.784546 48.0
1115.442505 128.0
1117.047485 112.0
1117.430908 208.0
1118.429077 112.0
1118.628784 184.0
1118.994995 164.0
1119.148071 108.0
1119.567627 108.0
1120.045898 104.0
1120.799927 164.0
1121.079834 48.0
1121.217651 136.0
1121.632935 52.0
1121.719604 164.0
1122.753052 72.0
1123.77002 148.0
1124.621094 124.0
1124.901489 56.0
1124.988281 172.0
1125.095093 152.0
1125.38562 188.0
1125.549438 144.0
1125.882935 140.0
1126.938354 148.0
1127.352661 156.0
1127.626709 160.0
1128.91687 120.0
1129.351318 240.0
1129.679321 180.0
1129.833252 148.0
1130.754395 252.0
1131.238525 120.0
1131.747314 72.0
1132.135742 128.0
1132.196045 124.0
1132.403564 152.0
1132.684937 160.0
1133.127075 44.0
1133.462036 160.0
1133.569336 140.0
1133.703369 140.0
1133.884277 200.0
1134.360107 40.0
1134.554565 88.0
1136.834961 136.0
1137.06311 156.0
1137.210815 156.0
1137.311523 220.0
1137.694092 172.0
1137.989502 232.0
1139.117798 108.0
1139.741089 172.0
1140.02478 164.0
1140.483765 108.0
1140.764038 140.0
1141.174194 148.0
1141.261597 132.0
1141.759155 76.0
1142.364502 152.0
1143.414185 112.0
1143.87854 76.0
1144.033447 152.0
1144.504639 132.0
1144.861572 124.0
1145.494629 188.0
1146.303101 148.0
1146.512085 124.0
1146.808594 132.0
1147.152344 152.0
1147.678223 164.0
1147.887207 148.0
1148.817993 140.0
1149.3302 112.0
1150.21875 144.0
1150.498291 160.0
1150.640137 92.0
1151.328857 136.0
1151.673218 180.0
1151.821899 136.0
1151.936646 188.0
1152.010986 64.0
1152.186646 152.0
1152.535034 184.0
1152.700073 188.0
1154.214233 152.0
1154.417114 88.0
1154.706421 188.0
1155.235474 204.0
1155.57373 96.0
1155.75647 120.0
1155.979736 148.0
1156.067749 56.0
1156.372192 156.0
1156.720459 84.0
1156.80542 172.0
1156.886597 56.0
1158.728638 120.0
1159.223267 180.0
1159.501221 180.0
1159.772217 96.0
1160.707764 184.0
1161.046875 128.0
1161.650513 148.0
1162.084717 148.0
1162.634277 120.0
1162.837891 116.0
1162.946533 68.0
1163.102661 156.0
1163.428223 144.0
1164.195679 148.0
1164.277222 100.0
1164.365479 188.0
1164.854492 56.0
1164.969971 192.0
1165.037964 116.0
1165.302856 124.0
1165.384399 196.0
1165.601807 36.0
1166.227051 68.0
1166.376587 128.0
1166.662109 84.0
1167.600464 156.0
1167.649902 168.0
1167.94043 172.0
1168.273804 76.0
1168.389404 192.0
1168.777222 212.0
1169.178711 148.0
1169.274048 148.0
1169.457764 116.0
1169.798096 168.0
1170.369995 136.0
1170.683228 124.0
1170.894287 188.0
1171.630005 152.0
1172.038696 144.0
1172.26355 156.0
1172.359009 148.0
1173.088257 184.0
1173.524536 56.0
1173.599609 116.0
1174.015503 76.0
1174.738525 184.0
1174.956787 208.0
1175.188843 140.0
1175.502686 144.0
1175.68689 56.0
1175.772217 160.0
1176.082764 136.0
1176.301147 84.0
1176.6698 72.0
1176.717651 156.0
1176.874634 148.0
1177.216064 168.0
1177.414062 180.0
1178.233765 140.0
1178.766724 252.0
1178.951172 188.0
1179.32019 172.0
1179.812378 132.0
1179.887573 152.0
1180.147339 172.0
1180.243164 100.0
1180.393555 116.0
1181.262085 144.0
1181.699951 220.0
1182.322632 176.0
1182.784424 164.0
1183.161499 164.0
1183.274048 172.0
1183.722778 144.0
1184.465576 128.0
1184.732788 136.0
1184.80127 156.0
1184.972534 156.0
1185.506958 108.0
1185.829102 216.0
1186.192383 108.0
1186.336304 40.0
1186.411743 200.0
1186.596802 72.0
1186.713379 132.0
1187.303101 108.0
1187.351074 156.0
1187.515747 156.0
1187.652954 140.0
1187.787109 248.0
1187.860596 168.0
1188.105591 100.0
1188.235962 160.0
1188.443848 148.0
1188.627075 88.0
1189.207031 196.0
1189.835083 224.0
1190.260742 148.0
1190.308838 96.0
1191.496948 84.0
1191.59314 140.0
1191.675659 180.0
1191.81311 196.0
1191.888672 108.0
1192.022949 72.0
1192.369629 144.0
1192.795776 176.0
1192.998535 192.0
1193.320557 232.0
1193.593262 180.0
1193.937134 160.0
1194.122803 128.0
1194.473633 100.0
1194.611206 176.0
1194.714355 132.0
1195.113403 64.0
1195.884155 148.0
1196.08374 144.0
1196.13147 120.0
1196.558716 96.0
1196.779053 192.0
1197.40564 128.0
1197.543457 240.0
1197.660522 376.0
1197.743164 132.0
1197.915405 192.0
1198.335571 140.0
1198.404541 188.0
1198.496582 164.0
1198.562988 192.0
1199.355469 136.0
1199.410645 152.0
1199.866577 140.0
1200.265503 108.0
1200.327515 144.0
1200.593262 156.0
1200.665405 160.0
1201.175903 176.0
1202.721436 132.0
1203.108032 56.0
1203.233032 140.0
1203.342773 176.0
1203.453247 52.0
1204.102295 192.0
1204.461426 184.0
1204.544434 76.0
1204.620361 128.0
1204.668701 148.0
1204.882812 192.0
1205.083252 132.0
1205.283569 112.0
1205.635986 172.0
1206.119751 200.0
1206.278809 120.0
1206.513794 168.0
1206.721191 180.0
1207.191406 192.0
1207.267456 224.0
1207.344727 184.0
1207.391968 128.0
1207.481812 60.0
1208.055908 144.0
1208.152832 156.0
1209.208496 348.0
1209.468018 112.0
1209.644897 204.0
1209.926025 168.0
1210.090576 136.0
1210.416016 192.0
1210.644531 192.0
1211.122437 156.0
1211.475708 84.0
1211.835938 148.0
1213.23584 152.0
1213.395264 144.0
1213.471558 296.0
1213.568604 184.0
1213.963867 144.0
1214.095703 200.0
1214.158081 228.0
1214.271606 108.0
1214.336304 132.0
1214.657471 208.0
1214.782349 140.0
1214.851685 116.0
1215.000732 132.0
1215.429077 196.0
1215.538574 60.0
1215.674683 124.0
1215.718994 176.0
1215.87854 236.0
1216.232544 184.0
1216.57959 104.0
1216.7323 140.0
1217.100342 216.0
1217.155884 160.0
1217.35022 204.0
1217.421021 196.0
1217.579468 76.0
1217.898926 164.0
1218.029419 132.0
1218.176758 72.0
1218.294922 124.0
1218.440796 212.0
1218.52417 116.0
1219.114746 216.0
1219.16333 108.0
1219.399658 40.0
1219.698486 148.0
1219.795898 96.0
1219.997437 132.0
1220.190918 124.0
1220.268555 136.0
1220.637085 136.0
1220.748291 148.0
1220.929199 128.0
1221.353394 116.0
1222.2323 164.0
1222.974609 180.0
1223.280884 252.0
1223.43396 192.0
1223.538452 104.0
1223.61499 108.0
1223.677612 60.0
1223.754272 208.0
1224.673462 152.0
1225.175049 200.0
1225.446655 216.0
1225.599976 120.0
1225.96228 200.0
1226.722046 196.0
1226.805664 224.0
1227.063599 148.0
1227.713013 172.0
1228.416504 60.0
1228.465332 180.0
1228.939819 196.0
1229.470093 140.0
1229.525879 196.0
1229.810547 188.0
1230.677734 216.0
1231.131592 164.0
1231.215332 140.0
1231.529663 56.0
1231.627441 100.0
1232.130371 120.0
1232.235229 136.0
1233.143555 164.0
1233.437134 68.0
1233.814697 136.0
1234.031372 92.0
1234.457886 164.0
1234.58374 364.0
1234.793579 108.0
1234.912476 120.0
1235.017334 88.0
1235.08728 124.0
1235.199219 240.0
1235.304199 192.0
1235.430054 28.0
1235.528076 164.0
1236.234741 124.0
1236.45166 196.0
1237.130615 120.0
1237.396606 116.0
1237.508667 100.0
1237.676636 220.0
1238.2229 136.0
1238.489014 164.0
1238.615112 84.0
1238.895264 40.0
1239.028442 48.0
1239.098511 96.0
1239.455811 200.0
1239.708008 148.0
1239.851929 144.0
1239.939331 168.0
1240.058472 160.0
1240.12854 168.0
1241.04126 156.0
1241.1521 200.0
1241.579834 140.0
1241.741089 108.0
1242.042725 152.0
1242.091797 208.0
1242.232056 208.0
1242.456543 188.0
1242.645996 96.0
1242.709106 180.0
1242.933716 120.0
1243.560425 168.0
1243.663574 120.0
1244.112793 136.0
1244.604248 176.0
1244.709595 172.0
1244.871094 76.0
1244.98999 180.0
1245.727905 88.0
1245.889526 64.0
1246.051025 132.0
1246.149414 44.0
1246.226685 104.0
1246.346191 156.0
1246.465576 164.0
1246.718628 140.0
1246.788818 76.0
1246.950439 48.0
1246.999634 180.0
1247.147339 132.0
1247.252686 148.0
1247.702637 160.0
1247.758911 116.0
1247.955688 160.0
1248.13855 152.0
1248.581543 100.0
1249.059814 76.0
1249.833618 192.0
1249.988525 160.0
1250.255859 136.0
1250.319214 240.0
1250.424805 68.0
1251.044189 56.0
1251.614136 196.0
1251.741211 132.0
1251.959473 116.0
1252.227173 180.0
1252.931519 152.0
1253.164062 132.0
1253.762939 36.0
1253.840454 124.0
1253.903931 196.0
1254.030762 176.0
1254.333862 164.0
1255.06189 164.0
1255.490112 156.0
1255.765137 112.0
1255.896362 196.0
1256.131958 124.0
1256.505859 64.0
1256.72583 112.0
1257.147949 212.0
1257.521973 60.0
1257.627808 96.0
1257.867798 136.0
1258.164307 188.0
1258.291382 156.0
1258.496094 156.0
1259.258789 172.0
1259.414185 116.0
1260.374878 136.0
1260.53418 204.0
1260.707031 112.0
1260.827148 144.0
1261.090454 144.0
1261.36438 160.0
1261.445801 180.0
1261.590576 92.0
1261.769409 176.0
1262.669678 116.0
1262.942749 220.0
1263.011841 112.0
1263.125 180.0
1263.436279 212.0
1263.58606 116.0
1263.712158 144.0
1263.775879 108.0
1263.945679 140.0
1264.122559 108.0
1264.200439 204.0
1264.377319 72.0
1264.872803 140.0
1264.922363 168.0
1265.014404 232.0
1265.189575 160.0
1265.375366 184.0
1265.424927 192.0
1266.095947 164.0
1266.529663 136.0
1266.671387 136.0
1267.230957 116.0
1267.436523 48.0
1267.953735 120.0
1268.010498 128.0
1268.414429 152.0
1268.577515 176.0
1268.977173 136.0
1269.03125 196.0
1269.286499 176.0
1269.598511 200.0
1269.818359 168.0
1269.896362 172.0
1270.371582 216.0
1271.16626 40.0
1271.258423 288.0
1271.521118 168.0
1271.599121 136.0
1271.938232 164.0
1272.529053 112.0
1272.976318 36.0
1273.295898 128.0
1273.437988 100.0
1273.714966 204.0
1273.786011 140.0
1274.027588 112.0
1274.254883 120.0
1274.574585 76.0
1274.688232 152.0
1275.612183 172.0
1276.060059 160.0
1276.955933 132.0
1277.503784 192.0
1277.664795 200.0
1277.916382 168.0
1278.571045 196.0
1279.152588 172.0
1279.610229 172.0
1279.845215 144.0
1279.923584 136.0
1280.009033 120.0
1280.179932 236.0
1280.443359 76.0
1280.721191 144.0
1281.070435 188.0
1281.405029 144.0
1281.466919 176.0
1281.775513 116.0
1282.043213 180.0
1282.595093 228.0
1282.780396 44.0
1282.851685 168.0
1282.994263 196.0
1283.143921 228.0
1283.236694 136.0
1283.293701 100.0
1283.596802 168.0
1283.75 152.0
1283.928345 232.0
1284.436401 192.0
1284.605957 116.0
1284.712891 184.0
1285.458618 156.0
1286.225708 132.0
1286.38269 184.0
1286.454102 100.0
1286.732544 180.0
1287.317993 200.0
1287.832275 40.0
1288.112427 92.0
1288.267944 180.0
1288.339355 164.0
1288.510864 96.0
1288.939575 196.0
1289.039551 148.0
1289.682739 140.0
1290.111694 176.0
1290.183105 180.0
1290.869507 136.0
1290.962524 144.0
1291.177002 180.0
1291.234253 80.0
1292.178467 112.0
1292.242798 200.0
1292.295532 176.0
1292.886841 44.0
1293.11853 152.0
1293.230347 268.0
1293.324463 184.0
1293.631226 196.0
1293.831665 220.0
1294.304199 148.0
1294.55481 160.0
1294.662231 160.0
1294.884277 128.0
1295.091919 248.0
1295.593384 128.0
1296.008911 196.0
1296.059082 136.0
1296.254517 408.0
1296.825806 176.0
1296.897461 192.0
1297.06958 120.0
1297.52832 160.0
1297.667236 304.0
1297.9729 152.0
1298.352905 140.0
1298.453369 68.0
1298.603882 128.0
1298.847778 220.0
1299.206421 148.0
1299.543701 116.0
1299.723999 212.0
1299.809082 68.0
1299.866577 184.0
1300.00293 92.0
1300.505249 180.0
1300.864136 120.0
1301.495972 176.0
1301.553345 152.0
1302.004395 236.0
1302.415161 172.0
1302.670654 268.0
1302.764526 188.0
1302.925171 120.0
1303.061646 140.0
1303.19104 92.0
1303.61499 56.0
1304.146729 236.0
1305.555908 116.0
1305.60144 108.0
1306.289551 132.0
1306.54126 184.0
1307.685425 164.0
1307.879761 120.0
1308.05249 180.0
1308.138794 164.0
1308.599609 140.0
1308.678833 168.0
1308.851562 192.0
1308.988403 232.0
1309.369629 204.0
1309.506958 388.0
1309.629395 164.0
1309.777588 212.0
1309.874268 108.0
1310.155151 148.0
1310.717163 64.0
1310.86853 212.0
1311.603638 140.0
1311.755005 76.0
1312.194702 76.0
1312.771484 156.0
1313.007324 180.0
1313.157593 84.0
1313.579346 168.0
1313.838989 120.0
1313.896729 124.0
1313.96167 112.0
1314.084351 128.0
1314.170898 164.0
1314.228638 216.0
1314.517212 132.0
1314.592773 144.0
1314.679199 236.0
1314.928589 48.0
1315.044067 164.0
1315.303833 56.0
1315.383301 144.0
1315.592651 152.0
1315.715332 232.0
1315.951172 244.0
1316.53125 116.0
1317.188477 160.0
1317.506348 212.0
1317.571411 180.0
1317.658081 136.0
1317.860352 156.0
1318.012085 188.0
1318.648071 192.0
1318.727539 40.0
1318.899414 252.0
1319.218994 144.0
1319.450317 184.0
1319.558838 116.0
1319.652832 260.0
1320.571167 108.0
1320.857544 316.0
1321.157104 184.0
1321.482666 160.0
1321.57666 176.0
1321.634644 164.0
1321.902344 128.0
1322.126587 84.0
1322.316162 216.0
1322.437866 92.0
1322.488525 172.0
1323.082031 104.0
1323.197876 136.0
1323.349976 220.0
1323.893066 172.0
1324.114746 220.0
1324.610107 124.0
1324.776611 132.0
1325.240356 204.0
1325.291016 132.0
1325.37793 228.0
1325.595337 192.0
1326.146118 108.0
1326.874512 168.0
1327.05957 152.0
1327.248047 124.0
1327.538086 144.0
1327.828125 80.0
1327.88623 124.0
1328.408447 132.0
1329.003296 60.0
1329.344116 128.0
1329.615723 240.0
1329.752563 132.0
1330.166748 124.0
1330.396729 160.0
1330.462158 140.0
1330.614624 176.0
1330.8396 208.0
1330.934082 132.0
1331.064697 132.0
1331.376953 100.0
1331.616577 120.0
1331.878052 220.0
1331.950806 212.0
1332.081543 148.0
1332.139648 168.0
1332.321167 64.0
1332.53186 152.0
1332.902466 172.0
1333.047729 212.0
1333.997925 192.0
1334.101685 100.0
1334.271729 132.0
1334.341553 152.0
1334.945068 168.0
1335.054199 188.0
1335.250488 144.0
1335.403198 152.0
1335.643311 100.0
1335.694214 168.0
1336.197754 176.0
1336.407104 176.0
1336.661743 180.0
1337.032837 200.0
1337.302124 156.0
1337.822754 168.0
1338.088379 132.0
1338.498657 244.0
1338.561646 176.0
1338.699951 132.0
1339.268066 164.0
1339.785156 276.0
1340.30249 108.0
1340.557495 112.0
1340.665405 180.0
1341.016724 80.0
1341.293579 108.0
1341.548706 132.0
1341.628906 168.0
1341.796631 132.0
1341.942505 164.0
1342.029907 312.0
1342.43103 152.0
1342.715332 52.0
1342.817505 308.0
1343.196777 180.0
1343.459351 300.0
1343.714722 176.0
1343.904419 124.0
1344.210815 200.0
1344.400635 180.0
1344.473511 148.0
1344.787354 160.0
1345.159668 208.0
1345.422485 180.0
1345.560547 208.0
1345.714478 192.0
1346.108765 164.0
1346.503052 136.0
1346.671143 184.0
1347.204346 188.0
1347.303833 180.0
1347.613403 168.0
1347.912964 156.0
1348.109253 140.0
1348.32959 228.0
1348.965454 124.0
1349.043823 160.0
1349.213989 160.0
1349.733032 156.0
1349.864746 252.0
1349.94519 140.0
1349.996338 132.0
1350.047485 148.0
1350.20105 168.0
1350.405884 136.0
1350.749634 164.0
1350.917847 60.0
1351.016968 104.0
1351.239746 148.0
1351.890991 140.0
1352.330078 100.0
1352.491089 172.0
1352.710693 120.0
1352.805908 68.0
1353.552612 144.0
1353.655151 172.0
1353.786987 220.0
1354.548706 128.0
1354.629272 96.0
1354.768433 104.0
1354.922241 248.0
1355.208008 140.0
1355.291748 320.0
1355.354492 112.0
1355.596313 156.0
1355.669678 232.0
1355.918823 164.0
1356.014038 180.0
1356.102051 132.0
1356.59314 152.0
1356.835083 172.0
1356.886353 180.0
1356.959717 168.0
1357.13562 48.0
1357.377563 348.0
1357.612305 168.0
1357.751587 132.0
1357.868896 56.0
1358.000977 164.0
1358.162354 196.0
1358.279663 152.0
1358.516235 212.0
1359.097534 168.0
1359.189331 184.0
1359.942993 180.0
1360.004028 184.0
1360.172852 140.0
1360.657349 92.0
1360.745361 128.0
1360.804077 184.0
1361.769165 184.0
1362.085693 160.0
1362.280273 92.0
1362.365234 172.0
1362.478638 116.0
1362.530029 92.0
1362.61084 240.0
1362.772461 56.0
1363.088379 156.0
1363.279541 216.0
1363.353027 84.0
1363.455811 164.0
1363.533203 144.0
1363.545776 188.0
1364.080566 164.0
1364.241455 136.0
1364.635376 176.0
1364.749634 228.0
1364.953125 200.0
1365.054443 220.0
1365.536499 160.0
1365.808594 116.0
1366.264648 88.0
1366.831177 248.0
1366.890015 136.0
1366.963623 208.0
1367.11084 160.0
1367.213867 100.0
1367.515625 120.0
1367.594116 180.0
1367.684814 148.0
1367.755005 204.0
1367.935181 144.0
1367.986694 172.0
1368.111816 188.0
1368.590332 208.0
1368.870117 160.0
1369.208862 128.0
1369.50354 144.0
1369.577148 124.0
1370.009888 144.0
1370.092773 172.0
1370.254883 140.0
1370.468506 68.0
1370.542236 176.0
1370.623291 64.0
1371.573975 128.0
1371.90564 148.0
1372.016235 140.0
1372.185791 164.0
1372.775635 176.0
1373.151733 152.0
1373.461548 132.0
1373.547607 152.0
1373.680664 148.0
1373.773193 116.0
1373.971313 180.0
1374.22876 100.0
1374.389648 168.0
1374.553467 160.0
1374.686279 144.0
1374.804321 176.0
1374.981445 196.0
1375.033081 140.0
1375.180664 104.0
1375.874512 76.0
1376.206787 192.0
1376.314819 224.0
1376.369263 148.0
1376.428345 88.0
1376.679321 204.0
1376.797485 148.0
1376.982178 68.0
1377.085571 100.0
1377.159424 160.0
1377.314575 140.0
1377.380981 144.0
1377.499146 128.0
1377.572998 96.0
1377.720825 148.0
1377.912842 128.0
1378.127075 124.0
1378.56311 128.0
1378.651733 156.0
1378.858643 160.0
1378.925171 204.0
1379.00647 144.0
1379.065674 64.0
1379.19873 140.0
1379.346558 228.0
1379.664429 356.0
1379.745728 100.0
1379.864014 176.0
1380.063599 208.0
1380.351929 160.0
1380.743896 208.0
1381.439209 152.0
1381.502075 200.0
1381.912598 40.0
1382.108154 292.0
1382.275269 156.0
1382.859863 116.0
1383.124268 148.0
1383.333618 188.0
1383.466797 160.0
1383.696289 172.0
1383.792603 40.0
1383.948486 220.0
1384.007324 120.0
1384.518188 144.0
1384.604126 208.0
1384.71814 96.0
1385.132935 108.0
1385.607056 180.0
1385.932983 112.0
1386.236816 340.0
1386.422119 152.0
1386.596069 156.0
1386.702881 164.0
1386.963135 128.0
1387.044678 196.0
1387.608032 124.0
1387.704468 104.0
1387.864502 176.0
1387.993652 156.0
1388.075195 212.0
1388.193848 164.0
1388.401489 172.0
1388.601685 160.0
1388.824219 64.0
1389.410278 196.0
1389.855347 116.0
1389.989014 140.0
1390.10022 108.0
1390.198242 180.0
1390.350586 148.0
1390.723633 140.0
1390.864624 156.0
1391.134155 200.0
1391.278564 152.0
1391.621826 120.0
1391.928467 192.0
1392.030273 120.0
1392.171387 132.0
1392.505493 112.0
1392.661499 220.0
1392.765503 200.0
1392.958618 56.0
1393.084961 124.0
1393.60498 192.0
1393.810547 192.0
1393.872437 128.0
1394.125122 140.0
1394.535645 184.0
1394.682495 96.0
1395.009521 192.0
1395.076416 152.0
1395.217773 96.0
1395.43335 156.0
1395.651855 164.0
1395.760498 160.0
1395.842285 188.0
1396.109985 220.0
1396.452026 144.0
1396.526489 108.0
1396.623169 192.0
1396.816528 36.0
1396.875977 88.0
1396.957886 68.0
1397.352173 180.0
1397.525635 112.0
1397.672119 172.0
1397.813477 144.0
1398.349243 136.0
1398.840454 208.0
1398.959595 84.0
1399.063843 180.0
1399.175537 192.0
1399.249146 148.0
1399.361572 188.0
1399.480713 116.0
1399.547729 140.0
1399.979614 188.0
1400.061523 188.0
1400.903198 160.0
1401.015015 36.0
1401.387451 164.0
1401.914795 192.0
1402.020874 136.0
1402.490356 108.0
1402.87793 144.0
1402.967407 136.0
1403.34021 280.0
1403.571289 128.0
1403.645874 144.0
1403.69812 116.0
1403.806641 128.0
1404.009888 180.0
1404.182861 136.0
1404.339478 204.0
1404.555786 156.0
1404.749756 84.0
1404.921265 212.0
1404.973511 140.0
1405.055542 196.0
1405.256958 168.0
1405.672974 164.0
1405.741943 200.0
1405.838989 100.0
1405.891235 112.0
1406.256958 104.0
1406.473389 136.0
1406.779419 152.0
1406.898926 200.0
1407.167603 176.0
1407.436401 180.0
1407.647705 120.0
1407.787354 208.0
1407.869507 68.0
1408.183838 188.0
1408.661255 216.0
1408.742798 140.0
1408.877808 140.0
1409.154297 184.0
1409.497925 180.0
1409.556519 144.0
1409.886597 208.0
1410.036011 228.0
1410.372314 184.0
1410.479736 204.0
1410.619019 96.0
1410.887695 132.0
1411.000244 140.0
1411.14978 144.0
1411.275024 172.0
1411.531128 156.0
1411.964844 160.0
1412.069092 144.0
1412.129395 148.0
1412.234131 76.0
1412.488403 320.0
1412.682861 168.0
1412.869873 172.0
1413.221558 112.0
1413.33374 212.0
1413.401123 116.0
1413.513428 176.0
1413.924927 100.0
1414.059692 196.0
1415.167603 132.0
1415.676758 144.0
1416.193481 136.0
1416.8302 180.0
1416.920044 140.0
1418.051514 128.0
1418.119019 180.0
1418.283936 128.0
1418.388794 132.0
1418.501343 148.0
1418.711182 144.0
1418.823608 176.0
1419.011108 128.0
1419.130981 156.0
1419.753418 144.0
1419.873413 268.0
1419.993408 160.0
1420.248413 200.0
1420.388672 340.0
1420.563477 52.0
1420.840942 136.0
1421.103638 120.0
1421.606323 128.0
1421.696411 96.0
1421.989014 216.0
1422.259277 160.0
1422.497314 172.0
1422.552002 164.0
1422.739624 124.0
1422.807251 164.0
1422.904785 128.0
1423.538452 156.0
1424.098755 172.0
1424.324097 240.0
1424.409668 192.0
1424.48938 136.0
1424.674683 204.0
1424.970215 128.0
1425.030273 160.0
1425.0979 128.0
1425.255615 140.0
1425.526245 144.0
1426.27771 160.0
1426.390503 156.0
1426.803955 116.0
1427.061646 144.0
1427.209961 192.0
1427.676147 108.0
1428.074707 144.0
1428.165039 188.0
1428.232666 132.0
1428.714111 96.0
1428.834473 192.0
1428.902222 144.0
1429.120361 168.0
1429.263306 192.0
1429.692261 84.0
1430.053833 160.0
1430.264282 116.0
1430.362061 196.0
1430.435913 144.0
1430.535278 128.0
1430.783691 56.0
1431.118408 332.0
1431.212769 128.0
1431.599731 184.0
1431.732422 136.0
1431.950806 100.0
1432.010986 140.0
1432.229492 92.0
1432.30481 92.0
1432.545776 156.0
1432.63623 184.0
1432.734131 204.0
1432.884888 116.0
1432.937622 72.0
1433.24646 168.0
1433.367065 124.0
1433.638306 140.0
1434.203613 168.0
1434.437256 264.0
1434.625732 104.0
1435.17041 172.0
1435.288086 176.0
1435.681274 48.0
1435.998047 132.0
1436.088501 140.0
1436.360107 180.0
1436.616577 196.0
1436.935059 128.0
1437.046509 116.0
1437.287964 180.0
1437.657715 88.0
1437.952026 148.0
1438.027588 136.0
1438.087891 168.0
1438.186035 208.0
1438.238892 128.0
1438.291748 116.0
1438.389893 144.0
1438.978638 128.0
1439.446777 152.0
1439.892334 140.0
1440.285156 124.0
1440.349121 120.0
1441.365479 116.0
1441.584595 140.0
1442.037964 48.0
1442.211792 168.0
1442.423462 160.0
1442.657837 116.0
1442.839233 96.0
1443.179443 184.0
1443.307983 168.0
1443.421387 168.0
1443.731445 164.0
1443.950806 60.0
1444.071777 72.0
1444.162598 128.0
1444.276001 112.0
1444.404541 132.0
1445.130859 168.0
1445.297852 152.0
1445.546997 168.0
1445.618286 164.0
1446.137329 108.0
1446.621704 196.0
1446.932129 136.0
1447.303101 88.0
1447.5 36.0
1447.719604 160.0
1447.780151 200.0
1447.984619 148.0
1448.166382 148.0
1448.431519 180.0
1448.810303 120.0
1449.272461 156.0
1449.355713 172.0
1449.408813 160.0
1449.658813 184.0
1449.817993 192.0
1449.916504 216.0
1450.45459 176.0
1450.772949 116.0
1450.864014 152.0
1450.94812 168.0
1451.265747 120.0
1451.41748 44.0
1451.500854 128.0
1451.607056 128.0
1451.682861 192.0
1452.06958 268.0
1452.164673 176.0
1452.388184 192.0
1452.790161 204.0
1453.014648 184.0
1453.144409 192.0
1453.25293 264.0
1453.353638 168.0
1453.419922 148.0
1453.708252 112.0
1453.806885 124.0
1454.102905 148.0
1454.262207 48.0
1454.376099 128.0
1454.832275 84.0
1454.96814 220.0
1455.165527 136.0
1455.214355 132.0
1455.401001 192.0
1455.628784 200.0
1455.852051 156.0
1456.015991 112.0
1456.251465 144.0
1456.327393 228.0
1456.502075 192.0
1456.714844 168.0
1456.813599 176.0
1457.064209 160.0
1457.73291 176.0
1457.949829 176.0
1458.086548 168.0
1458.941406 152.0
1459.025024 144.0
1459.192261 120.0
1459.282349 184.0
1459.534424 180.0
1459.602783 148.0
1459.655762 120.0
1460.028687 120.0
1460.157959 148.0
1460.256836 168.0
1460.690308 80.0
1460.812012 128.0
1460.987061 188.0
1461.169556 104.0
1461.390259 208.0
1461.557617 144.0
1461.679443 48.0
1461.740234 164.0
1461.983765 160.0
1462.036987 148.0
1462.212036 180.0
1462.272949 60.0
1462.417603 96.0
1463.072144 208.0
1463.224487 164.0
1463.346313 132.0
1463.513794 336.0
1463.704102 68.0
1463.818359 76.0
1463.924927 216.0
1464.161011 184.0
1464.328613 152.0
1464.40979 180.0
1464.724609 152.0
1464.81604 176.0
1465.00647 156.0
1465.123779 176.0
1465.273193 152.0
1465.715088 124.0
1465.80957 156.0
1466.202759 172.0
1466.317017 92.0
1466.560913 160.0
1466.80481 60.0
1466.919189 124.0
1467.003052 188.0
1467.140259 152.0
1467.269897 140.0
1467.696777 152.0
1467.757812 72.0
1467.818848 164.0
1468.220947 196.0
1468.60437 188.0
1468.665405 240.0
1468.726318 84.0
1468.793457 192.0
1469.306152 216.0
1469.672363 176.0
1469.794434 96.0
1470.121826 180.0
1470.549927 120.0
1470.607422 152.0
1470.855225 140.0
1471.06897 112.0
1471.557495 156.0
1471.776001 148.0
1471.980469 176.0
1472.221802 116.0
1472.314209 204.0
1472.41272 156.0
1472.557861 144.0
1472.710571 148.0
1473.031494 100.0
1473.222412 128.0
1473.378662 232.0
1473.79541 144.0
1473.932983 140.0
1474.062134 132.0
1474.407104 164.0
1474.467896 124.0
1474.643677 160.0
1475.239868 184.0
1475.400391 64.0
1475.606812 212.0
1475.85437 132.0
1477.059814 132.0
1477.177612 228.0
1477.452148 224.0
1477.541748 232.0
1477.725342 176.0
1477.824829 136.0
1477.924194 160.0
1478.023682 180.0
1478.360352 236.0
1478.425415 224.0
1478.513428 168.0
1479.27124 192.0
1479.324829 136.0
1479.518433 176.0
1479.975586 124.0
1480.258179 180.0
1480.565186 92.0
1480.626465 344.0
1480.779541 196.0
1480.856201 176.0
1481.1073 168.0
1481.246826 80.0
1481.936279 164.0
1482.204468 168.0
1482.258057 180.0
1482.35791 184.0
1482.702515 144.0
1483.055054 112.0
1483.193115 104.0
1483.246704 124.0
1483.415405 180.0
1483.492065 108.0
1483.545654 116.0
1483.660645 132.0
1483.934326 180.0
1483.9646 124.0
1484.343018 164.0
1484.442749 156.0
1484.519409 136.0
1485.662231 136.0
1486.283691 56.0
1486.615601 108.0
1486.874268 108.0
1486.893555 208.0
1487.281372 40.0
1487.396484 132.0
1487.580688 92.0
1487.972168 84.0
1488.04126 140.0
1488.37915 128.0
1488.501953 152.0
1488.578735 156.0
1488.806396 204.0
1488.98584 160.0
1489.124023 204.0
1489.250488 148.0
1489.497192 132.0
1489.730835 128.0
1490.394165 180.0
1490.450439 176.0
1490.552856 188.0
1490.668213 92.0
1491.167725 156.0
1491.367554 184.0
1491.667236 172.0
1492.336182 192.0
1492.589844 256.0
1492.843628 152.0
1493.028198 148.0
1493.140625 156.0
1493.228149 128.0
1493.42041 164.0
1493.497314 104.0
1493.613647 224.0
1493.674194 124.0
1493.935791 140.0
1494.466675 172.0
1494.951416 96.0
1495.259277 188.0
1495.744507 160.0
1495.844238 48.0
1495.967285 180.0
1496.429199 88.0
1496.669556 172.0
1496.83728 144.0
1497.004883 180.0
1497.3302 108.0
1497.474121 180.0
1497.624756 148.0
1497.715332 168.0
1497.994873 120.0
1498.362305 164.0
1499.025024 36.0
1499.659668 188.0
1499.741699 220.0
1500.597412 140.0
1500.751587 64.0
1500.882202 184.0
1500.998535 164.0
1501.545776 220.0
1501.638428 212.0
1501.800293 44.0
1502.563965 76.0
1502.648926 160.0
1502.710571 160.0
1502.764648 140.0
1502.880371 128.0
1503.096436 204.0
1503.613403 180.0
1503.82959 140.0
1504.069336 128.0
1504.156616 144.0
1504.269531 180.0
1504.387085 192.0
1504.694092 188.0
1504.987427 164.0
1505.103271 132.0
1505.234619 220.0
