>compound Camptothecin
>formula C20H16N2O4 
>ionization [M+H]+
>parentmass 349.119
#inchi InChI=1S/C20H16N2O4/c1-2-20(25)14-8-16-17-12(7-11-5-3-4-6-15(11)21-17)9-22(16)18(23)13(14)10-26-19(20)24/h3-8,25H,2,9-10H2,1H3/t20-/m0/s1
#inchikey VSJKWCGYPAHWDS
#Ion_Source LC-ESI
#Instrument qTof
#Compound_Source Isolated
#PI Sirenas
#Data_Collector Ed Esquenazi 
#Scan -1
#Precursor_MZ 349.119
#ExactMass 0.0
#Charge 1
#CAS_Number N/A
#Pubmed_ID N/A
#Smiles N/A
#INCHI_AUX N/A
#Library_Class 3
#SpectrumID CCMSLIB00000005873
#IonMode Positive
#UpdateWorkflowName UPDATE-SINGLE-ANNOTATED-BRONZE
#LibraryQualityString Bronze
#TaskID d19310cd93df49b68e9fcbec27720eb5
##Scan# 3
#SpectrumFile Camptothecin.mgf
#LibraryName fda_library.mgf
#MQScore -1
#Organism fda_library
#TIC_Query 0
#RT_Query -1
#MZErrorPPM -1
#SharedPeaks 0
#MassDiff 0
#LibMZ -1
#SpecMZ 349.119
#SpecCharge 0
#internalFilename spec-00000.mgf

>collision 10
107.051033 57.034531
107.190521 8.510417
109.062164 7.594136
109.308876 3.361111
114.944344 67.598686
114.990387 2.782408
115.053452 12.58333
115.591454 14.93056
117.627548 11.68056
119.047081 28.126499
123.043259 60.976219
123.077187 1.672619
127.055672 30.655649
128.048264 24.816179
128.386002 5.366667
128.630447 13.3447
129.052917 27.160259
134.023849 15.21365
137.649124 20.046511
139.38121 4.898148
140.047592 63.334381
141.055527 179.718597
141.078262 7.682539
141.196136 2.4
141.384201 1.672619
141.83078 17.37862
142.063995 65.611687
142.135986 4.833333
142.756805 5.88587
143.072678 325.416199
143.143555 2.333333
143.305923 6.357143
151.050842 37.43779
151.463974 48.873329
152.061554 77.811729
152.368103 8.160088
154.066162 29.03479
155.464203 6.097222
156.078049 70.594917
156.102539 6.481482
156.96962 3.208333
158.058044 18.512819
165.193756 13.08255
166.06369 394.724701
166.22821 14.33333
166.421432 12.92004
167.064819 248.260605
167.075287 23.63158
167.121552 4.481482
167.150177 5.002778
167.172852 19.976919
167.207474 26.334221
167.266159 3.490385
167.29744 6.088768
167.436935 9.03858
167.459473 17.107759
167.504578 6.927469
167.545395 5.107143
167.896439 5.0625
168.068253 6404.632812
168.123154 52.013611
168.144455 6.001984
168.184372 11.90705
168.193161 6.041667
168.206573 26.08247
168.24472 66.817734
168.320435 9.735544
168.329758 8.755208
168.354172 6.375
168.36409 16.36915
168.378372 53.837399
168.464142 41.55196
168.482956 6.160257
168.507797 6.125
168.528122 12.68883
168.538391 21.038931
168.559738 4.673077
168.645981 5.633333
168.672043 6.136111
168.690735 14.68056
168.767563 2.4
169.166229 19.70833
169.445297 14.30183
169.590561 5.833333
169.641006 20.385071
169.66835 9.769231
169.781433 8.700757
169.806992 4.761905
169.835831 8.338235
169.853973 11.82315
170.053848 3.857143
170.089951 3.125
170.230499 3.714286
171.030716 76.040833
172.187866 5.702587
176.145401 5.720238
177.056152 13.34205
178.064529 177.952606
178.661438 7.706141
178.970627 4.125
179.080429 52.982182
179.131851 9.858334
180.080978 580.189697
180.137924 7.453432
180.22728 13.85192
180.442917 22.683201
180.924377 52.93565
181.008102 6.146739
181.040024 16.93788
181.075836 2904.837891
181.116074 3.857143
181.134613 29.304819
181.170532 25.336309
181.196075 9.114899
181.2146 5.966667
181.228119 14.33712
181.265045 60.203529
181.293869 8.666667
181.325012 6.185606
181.346252 30.37899
181.365448 10.22715
181.387985 3.185606
181.457672 3.336111
181.481171 9.001543
181.560791 8.347826
181.601151 5.802778
181.710815 11.3592
181.985825 17.49342
182.161301 16.08003
182.372559 28.667139
182.38765 3.816667
182.744232 13.35714
182.852173 3.680556
183.089615 440.630096
183.485443 3.291667
189.950272 5.041667
190.059464 42.446659
190.697342 20.63377
190.93689 13.04012
191.071487 265.264313
191.36734 10.95833
191.413055 15.21185
191.683975 19.85294
191.846481 13.93548
192.00116 7.041667
192.079453 214.293503
192.136963 32.026981
192.153763 2.444444
192.179092 11.04412
192.198395 14.20455
192.235718 14.01077
192.458939 13.04012
193.088684 972.761475
193.125687 2.027778
193.23674 9.721847
193.357864 4.711957
193.638336 8.20119
193.949524 4.888889
194.042374 6.633772
194.059738 53.541088
194.096176 390.115295
194.803024 14.88971
194.816498 8.004386
195.151688 9.696428
195.44339 8.109649
196.857117 8.888888
197.101517 48.489269
197.139481 1.666667
198.07756 6.0
200.068161 35.090912
201.010056 21.01667
201.066467 15.67628
202.886032 5.121212
202.953644 18.9697
203.074387 16.084841
203.181854 8.890476
203.253983 6.394608
203.911545 3.1875
204.080704 1122.751953
204.121811 21.707331
204.268433 26.886669
204.297226 7.341667
204.355682 3.490385
204.390259 5.335
204.407242 20.1702
204.473785 8.557099
204.713669 4.674242
204.783371 25.474171
204.818207 10.00144
204.941101 33.302971
205.007446 3.675
205.077057 2291.36792
205.150391 8.374123
205.179977 10.74909
205.336395 51.897869
205.388794 15.10889
205.415787 21.144449
205.460983 10.33654
205.535721 9.449713
205.560791 7.00926
205.585663 7.667929
205.661423 15.25962
205.695068 7.470085
205.805206 9.361111
205.912292 29.4091
205.989899 20.0
206.04805 47.384769
206.088608 3098.229004
206.146103 27.88409
206.170944 27.783331
206.229874 7.927469
206.298035 20.231291
206.363495 12.4623
206.384583 9.642095
206.44548 6.075
206.466141 13.81349
206.495773 17.37281
206.533081 33.1712
206.567261 16.468969
206.59967 18.4161
206.658112 18.184521
206.709534 7.333333
206.740433 15.92803
206.928909 8.375
206.944534 19.580429
207.513092 14.25
207.764557 4.013889
208.036957 3.041667
208.112396 7.721847
208.147522 5.742284
208.813507 4.387821
209.069244 95.031059
209.106079 251.8004
209.177704 1.666667
209.459839 18.605
210.068665 35.81649
210.624252 5.346264
212.085907 10.5328
214.943512 31.01775
215.658707 2.444444
216.064453 101.496399
216.439774 8.435606
216.675308 16.724541
216.808136 14.0336
216.835541 5.483334
216.881409 57.330639
216.914017 10.08333
216.92627 5.037037
217.0233 34.873219
217.081619 518.569885
217.146637 4.363636
217.23381 13.14352
217.372269 5.720238
217.450226 3.75
217.485168 6.686403
217.577484 5.366667
217.673981 7.5
217.714722 10.36667
217.740143 9.5625
217.757187 8.284091
217.844711 41.688789
217.872055 20.71653
217.952271 12.71902
217.993179 10.32545
218.039566 12.05235
218.083221 1137.05896
218.14653 55.639061
218.16806 12.03157
218.209824 15.49167
218.236954 19.68174
218.281235 17.337959
218.338577 90.403778
218.409943 14.1697
218.425583 7.704166
218.473053 8.491228
218.534363 15.47222
218.566422 13.83333
218.584427 8.700269
218.685104 11.91576
218.723328 26.702591
218.763153 8.721774
218.779953 27.3631
218.792206 15.66833
218.920853 34.022419
218.958252 8.875
218.989197 18.436871
219.051254 93.211792
219.06366 12.20167
219.091782 8619.887695
219.175613 200.292404
219.233612 15.92064
219.246277 13.39096
219.280075 101.197502
219.300247 27.686319
219.320557 17.00901
219.356613 10.01754
219.385941 229.311905
219.42627 23.37528
219.449921 38.537979
219.477692 72.9431
219.532181 23.857071
219.579254 15.93452
219.625809 23.0075
219.645248 22.43417
219.660721 9.810714
219.73111 29.10684
219.767166 12.42558
219.808578 39.773239
219.893555 8.518678
219.916916 15.2247
219.929428 5.531863
220.011475 9.035714
220.050247 61.70536
220.077164 25.39706
220.099426 10560.099609
220.182068 34.687092
220.199402 57.21265
220.238464 39.805698
220.262924 31.98138
220.3367 6.342593
220.350647 52.877979
220.415573 29.033991
220.434814 11.06888
220.491623 4.363636
220.514725 27.45076
220.527802 13.04012
220.55748 45.85379
220.577515 18.23184
220.600174 60.867561
220.642502 27.025209
220.724152 25.602871
220.746704 24.52466
220.769379 24.56797
220.829056 18.698231
220.992996 3.0
221.022903 27.199459
221.067886 78.396507
221.107071 6205.022949
221.213409 42.93367
221.261993 51.957802
221.319 21.08914
221.336716 28.818251
221.36145 19.391199
221.416016 17.36928
221.44548 28.58569
221.515396 17.939739
221.546707 8.334259
221.641479 26.23591
221.662933 15.93889
221.799744 27.23241
221.830643 36.061409
221.893768 16.04854
221.969101 19.672621
222.093185 134.753601
222.178818 1.666667
222.510895 10.68333
222.848358 7.560484
222.88974 10.86786
223.023346 9.5625
223.040527 4.345238
223.206818 4.022059
223.755432 2.25
224.060013 3.686404
224.12149 16.111111
224.716782 8.333333
225.9543 14.71605
226.741028 6.222222
228.081772 14.67083
228.209167 18.52466
229.076309 50.575851
229.76152 16.70833
230.097778 189.447403
230.125519 3.760417
230.624405 31.99052
230.685944 7.639493
230.76329 32.50676
230.790955 5.001437
230.898056 10.82843
230.980392 11.48007
231.091293 570.393921
231.163712 1.833333
231.206879 35.809978
231.314468 4.011905
231.478531 15.47748
232.073822 362.14801
232.106644 662.648682
232.156525 1.672619
232.22876 9.694445
232.267853 29.33651
232.285278 21.933941
232.304962 2.00463
232.326172 10.34543
232.36412 1.777778
232.437057 5.416667
232.525253 19.522409
232.551819 5.875
232.617966 6.022059
232.698257 8.148809
232.734711 23.60417
232.846115 23.188061
232.944122 7.337963
233.10788 642.968384
233.175369 4.684524
233.313507 14.61829
233.685623 9.695513
233.717529 6.333333
233.829254 12.1086
233.958237 7.5625
234.079407 348.860992
234.116135 649.705322
234.183899 7.490278
234.212875 8.787879
234.228348 3.388889
234.288437 2.893518
234.350128 3.083333
234.484024 7.435606
234.762222 4.297619
234.915436 9.675926
234.937485 13.27899
235.085251 2021.137939
235.125168 317.868713
235.188599 3.802778
235.209106 5.160714
235.36084 10.13225
235.422684 16.161619
235.435333 25.581051
235.492783 3.555556
235.774597 2.0
235.806656 3.375
235.818863 14.14826
236.042084 8.761905
236.464569 2.020833
236.876648 2.4
237.350769 6.583333
237.938354 9.796875
238.121307 22.60465
240.077835 17.89855
240.94899 29.51557
242.096252 176.088806
242.412903 27.18261
242.461502 10.7963
242.569305 7.047619
242.809097 44.84354
243.008987 14.51716
243.040085 35.32
243.093109 236.982803
243.129288 3.416667
243.619308 10.27222
243.638901 4.054824
244.045975 16.023439
244.073868 24.00441
244.100174 567.741577
244.176422 2.003788
244.255264 6.666667
244.366531 7.656609
244.432114 5.75
244.519058 43.569221
244.622498 10.7002
244.671371 3.025
244.785797 23.35417
244.927963 39.065708
245.070068 79.956177
245.106827 296.256287
245.139694 42.27042
245.336884 12.48522
245.36937 15.92803
245.399277 15.98994
245.499191 12.15648
245.541153 6.306159
246.079178 2533.979004
246.113525 932.864929
246.191956 3.669872
246.231979 20.06222
246.279633 94.44957
246.322968 4.37037
246.36113 15.39524
246.415085 3.15
246.481522 10.7815
246.543549 7.520833
246.564835 14.64338
246.59523 9.552536
246.639557 17.30862
246.665359 21.302271
246.683472 4.66821
246.705322 2.333333
246.78183 10.0
246.831009 4.408333
246.874741 4.083333
246.896744 16.08003
246.935089 20.864111
247.002731 7.300438
247.032532 41.520828
247.085785 2238.531006
247.180878 62.180679
247.25029 46.635181
247.297775 13.41554
247.346298 64.922478
247.410706 11.53846
247.48732 5.008333
247.515137 38.298241
247.568253 35.481979
247.604736 21.04167
247.636154 23.796049
247.700226 18.004169
247.72583 18.321699
247.766525 10.56522
247.810196 10.86786
247.863205 8.134921
247.885605 2.444444
247.901596 44.34782
247.958511 6.678572
247.988495 42.988739
248.048767 16.046881
248.094009 5883.939941
248.130676 181.096207
248.144501 16.075809
248.161301 26.35833
248.199799 15.17729
248.220001 14.43048
248.332397 32.632729
248.367447 79.132393
248.41391 42.721779
248.427368 16.371531
248.448471 24.107531
248.508453 16.414921
248.550201 11.675
248.567703 37.098179
248.59137 26.76894
248.61055 8.745098
248.692459 22.03602
248.727325 19.427219
248.755432 19.600929
248.793045 10.11111
248.846954 7.916667
248.880524 14.67051
248.90033 62.39727
248.920151 39.754829
249.047821 37.811111
249.102142 7556.942871
249.137253 1006.187988
249.226074 16.361111
249.279007 33.637611
249.29985 63.777649
249.383652 37.771999
249.455978 41.02018
249.494385 17.43539
249.536987 31.061581
249.607269 34.742069
249.631851 11.37186
249.673691 46.797279
249.719818 29.296659
249.742661 11.84762
249.850616 4.259615
249.936035 10.26833
249.971069 8.891666
249.986115 20.14683
250.123856 54.239578
250.22049 11.9616
250.401962 4.333333
250.512085 3.760417
250.54512 17.35417
250.861145 10.27222
251.138657 25.8848
252.266144 8.041667
255.286499 10.01333
255.338715 15.40833
256.094666 60.418961
256.381592 9.427083
257.10733 316.485413
257.888916 8.712037
258.079437 53.215
258.145325 18.46377
258.244568 16.40761
258.352814 12.25
258.722656 3.341666
258.839539 12.19133
259.123169 1370.819946
259.209076 7.016304
259.24469 33.358631
259.29541 7.306159
259.44693 28.8547
259.567474 9.227151
259.583893 19.210779
259.645996 14.41093
259.78067 29.333759
259.793579 21.698231
259.86496 4.136111
259.904053 9.527778
260.022064 13.12821
260.053345 12.34722
260.108124 1009.288025
260.185577 9.069445
260.375397 4.120098
260.487671 4.382936
260.538269 10.34194
260.670166 16.9697
261.068176 92.037933
261.138947 678.119385
261.325256 27.86791
261.409302 9.34543
261.448975 9.25
261.493683 2.0
261.735657 3.380953
261.835144 9.558333
261.938293 11.05921
262.018646 60.005291
262.109619 1137.567017
262.164673 19.695511
262.242432 5.669117
262.390289 27.19342
262.43988 33.06134
262.555756 17.934999
262.608734 7.383333
262.642578 5.684524
262.852386 8.595239
262.868134 9.33772
262.986969 12.84314
263.079956 385.062286
263.274536 7.969086
263.302643 4.333333
263.627319 7.625
263.71109 3.560185
263.754639 7.34375
263.960327 13.42857
264.036835 9.682971
264.845978 12.06667
265.219788 5.66821
265.242462 6.482143
265.540283 11.92308
265.990875 9.019608
266.524475 3.336538
267.091248 12.18534
268.105225 32.097221
268.951324 11.66786
269.114685 17.758329
269.177704 1.720238
270.091675 12.33446
270.427887 11.88587
270.562195 11.66494
270.783936 9.204166
271.081696 10.04412
271.471161 5.09375
272.094727 339.015411
272.298767 18.52002
272.676392 5.742284
272.828125 13.89302
273.064026 41.73476
273.099365 217.597198
273.153381 3.669118
273.434875 17.75
273.481232 12.0
273.62558 14.69444
273.705658 7.675813
273.780457 6.422101
274.073059 155.352707
274.254059 2.14881
274.374481 30.05344
274.477417 6.0
274.598785 21.66297
274.921387 5.334677
275.023499 55.106918
275.082916 1050.967041
275.116486 2016.409058
275.198944 10.27174
275.22998 4.791667
275.279388 4.531863
275.417694 35.11853
275.452179 15.54949
275.56131 13.34405
275.671783 16.007071
275.720032 4.083333
275.773438 21.945101
275.825714 14.21032
275.89743 21.811159
276.353119 5.932018
276.498352 1.720238
276.664154 8.320652
276.878784 5.336111
276.938202 8.334184
277.00647 19.4181
277.097412 354.465912
277.133423 2091.780029
277.216187 6.354167
277.314087 31.785521
277.340149 12.19048
277.383972 5.069444
277.43631 14.83627
277.465302 4.681667
277.496765 35.376301
277.652161 13.66667
277.703094 23.570681
277.772797 16.791849
277.871094 9.122968
277.959015 18.61256
278.016388 12.05357
278.062714 20.102079
278.596436 2.683333
279.181366 6.669445
279.270691 4.469445
280.411072 3.333333
282.360199 3.677083
282.927521 2.671296
285.101776 203.370407
285.149658 2.4
285.273041 6.668478
285.731537 12.46377
286.155151 6.564103
286.319885 8.41565
286.361115 4.349638
287.045441 18.308331
287.077057 26.75901
287.118225 390.460999
287.239594 13.81931
287.654755 3.333333
288.089081 208.993698
288.132446 6.111111
288.369141 11.5
289.095795 563.755798
289.217529 12.3373
289.282593 7.366936
289.424561 2.733333
289.456757 19.526779
289.495667 4.375
289.595978 6.916667
289.753204 12.54167
290.044678 11.72208
290.108032 336.765686
290.400482 7.370614
290.777069 7.5625
291.074432 364.730713
291.112396 514.615173
291.185089 2.695513
291.243896 21.087469
291.263519 20.667931
291.386963 9.677381
291.405914 12.15
291.523407 4.080128
291.725555 9.66793
291.9935 20.35294
292.046509 5.688889
292.121857 345.0578
292.314087 5.041667
292.355743 7.35
292.508514 10.42672
292.956818 2.670455
293.264038 7.387821
293.439331 5.334677
293.86261 13.94444
301.054779 148.228607
301.087097 24.007351
301.346344 6.333333
301.50943 1.6875
301.546997 4.15
302.555573 6.083333
303.080139 104.345001
303.111938 761.278809
303.188507 26.991409
303.249756 29.551319
303.275299 66.099998
303.305847 20.749319
303.366028 17.459789
303.40863 7.041667
303.450745 7.020833
303.639526 9.667792
303.709442 22.42815
303.827789 4.367424
303.912384 18.84363
303.979584 14.06586
304.015503 7.880051
304.039734 8.681818
304.058258 25.01827
304.822784 9.078488
305.060089 39.313431
305.127991 6619.368164
305.199463 5.674242
305.219604 43.193531
305.248077 8.689815
305.278412 12.02083
305.291046 15.76894
305.321045 11.34483
305.357208 11.00833
305.367554 19.40354
305.38501 19.79459
305.423462 22.36252
305.483978 56.019588
305.540344 25.1684
305.576447 8.962963
305.631866 10.7037
305.678741 36.49052
305.771027 41.123291
305.81665 35.120049
305.917908 33.9086
305.935516 40.406349
306.008514 16.048479
306.043549 44.905682
306.575562 8.639493
306.787781 5.357143
306.854858 9.642095
306.976868 10.41667
307.007172 14.00682
307.244965 13.68056
307.287048 14.33532
307.34317 8.041667
307.562134 8.789216
307.659027 8.466666
307.685974 11.05518
309.817566 9.830426
310.444885 6.218137
310.610596 7.721154
313.033966 32.876591
313.092285 43.59903
314.112732 24.793421
316.089569 27.392389
317.463715 11.20427
318.217957 18.444441
319.068695 121.2005
319.112061 29.35107
320.020203 52.174671
320.077271 181.095505
320.775726 10.47704
321.128235 23.089821
321.424103 4.481482
322.154236 15.72803
322.185425 6.334596
331.104156 182.543198
331.499817 7.810714
331.688171 14.0819
347.141968 6.306159
349.111145 179.524796
349.641968 2.361111
350.269531 5.625
1604.041504 9.676802
