>compound Glaucolide B
>formula C21H26O10
>ionization [M+H]+
>parentmass 439.160034
#inchi InChI=1S/C21H26O10/c1-10(22)27-9-13-16-14(28-11(2)23)8-21(5,30-12(3)24)15(25)6-7-20(4)18(31-20)17(16)29-19(13)26/h14,17-18H,6-9H2,1-5H3/t14?,17-,18-,20+,21+/m0/s1
#inchikey JNLNEIIZZQABDP
#Ion_Source DI-ESI
#Instrument qTof
#Compound_Source Isolated
#PI Norberto Lopes
#Data_Collector Denise Silva
#Scan -1
#Precursor_MZ 439.16
#ExactMass 438.153
#Charge 1
#CAS_Number 11091-27-3
#Pubmed_ID  
#Smiles C[C@@]([C@@H]1[C@@H](O2)C(C(OC(C)=O)C[C@]3(OC(C)=O)C)=C(COC(C)=O)C2=O)(O1)CCC3=O
#INCHI_AUX  
#Library_Class 3
#SpectrumID CCMSLIB00000078859
#IonMode Positive
#UpdateWorkflowName UPDATE-SINGLE-ANNOTATED-BRONZE
#LibraryQualityString Bronze
#TaskID fc99afd59e0349058f167cd321502ca0
##Scan# 1
#SpectrumFile glaucolide_B_pos_MSMS_439.mgf
#LibraryName gnps_library.mgf
#MQScore -1
#Organism gnps_library
#TIC_Query 0
#RT_Query -1
#MZErrorPPM -1
#SharedPeaks 0
#MassDiff 0
#LibMZ -1
#SpecMZ 439.16
#SpecCharge 0
#internalFilename spec-00000.mgf

>collision 10
127.076027 8856.0
133.06604 3011.0
137.058823 5622.0
145.064575 3368.0
149.060303 3003.0
155.070114 7199.0
157.101257 3081.0
161.058578 10882.0
165.054077 3785.0
169.101639 2610.0
171.079773 4923.0
173.059845 17970.0
175.109985 2793.0
179.070786 2443.0
185.095566 12009.0
187.10878 2763.0
189.053818 35930.0
190.058334 2531.0
191.069473 3477.0
199.077438 10474.0
203.10817 13248.0
207.068512 3708.0
213.090729 28752.0
214.094177 2958.0
215.106644 4204.0
217.088089 16727.0
231.101517 61322.0
232.106323 5923.0
241.086288 24753.0
242.091614 2767.0
249.111206 35114.0
259.099609 243931.0
277.110199 138063.0
291.122559 4160.0
295.117889 29933.0
301.109375 2820.0
309.132721 115343.0
319.117249 68420.0
337.128998 137833.0
355.141632 9512.0
379.141632 120514.0
397.152557 153496.0
439.160034 25813.0
