>compound MLS001335941-01!Hesperidin520-26-3
>formula C28H34O15
>ionization [M+H]+
>parentmass 611.1970468400905
#inchi InChI=1S/C28H34O15/c1-10-21(32)23(34)25(36)27(40-10)39-9-19-22(33)24(35)26(37)28(43-19)41-12-6-14(30)20-15(31)8-17(42-18(20)7-12)11-3-4-16(38-2)13(29)5-11/h3-7,10,17,19,21-30,32-37H,8-9H2,1-2H3/t10?,17-,19?,21-,22+,23-,24+,25?,26?,27+,28+/m0/s1
#inchikey QUQPHWDTPGMPEX
#Ion_Source LC-ESI
#Instrument qTof
#Compound_Source NIH Pharmacologically Active Library
#PI Dorrestein
#Data_Collector VP/LMS
#Scan -1
#Precursor_MZ 611.203
#ExactMass 610.19
#Charge 1
#CAS_Number N/A
#Pubmed_ID N/A
#Smiles COc1ccc(cc1O)[C@@H]2CC(=O)c3c(O)cc(O[C@@H]4OC(CO[C@@H]5OC(C)[C@H](O)[C@H](O)C5O)[C@@H](O)[C@@H](O)C4O)cc3O2
#INCHI_AUX N/A
#Library_Class 1
#SpectrumID CCMSLIB00000085736
#IonMode Positive
#UpdateWorkflowName UPDATE-SINGLE-ANNOTATED-GOLD
#LibraryQualityString Gold
#TaskID d252d724072548979f1f6f1ced849daf
##Scan# 1463
#SpectrumFile p4-E09_GE9_01_18381.mzXML
#LibraryName Pharm_Active_Library.mgf
#MQScore -1
#Organism Pharm_Active_Library
#TIC_Query 0
#RT_Query -1
#MZErrorPPM -1
#SharedPeaks 0
#MassDiff 0
#LibMZ -1
#SpecMZ 611.203
#SpecCharge 0
#internalFilename spec-00000.mgf

>collision 10
44.960781 188.0
45.58754 168.0
45.735485 140.0
45.9673 168.0
46.167236 144.0
46.328308 228.0
46.378448 120.0
46.614601 180.0
46.997238 96.0
47.118755 172.0
47.322548 76.0
47.447227 144.0
47.519917 36.0
47.753452 116.0
47.780964 60.0
47.813988 184.0
48.207035 132.0
48.542046 176.0
49.228043 164.0
49.244869 164.0
49.590466 196.0
50.552395 184.0
50.677006 216.0
50.742203 88.0
50.845757 196.0
51.199764 180.0
51.219704 124.0
51.520706 160.0
51.635059 172.0
51.842651 148.0
51.943016 128.0
52.009026 176.0
52.195793 184.0
52.359852 184.0
53.062141 76.0
53.198513 156.0
53.285652 164.0
53.332157 88.0
53.399929 144.0
53.557693 120.0
54.128742 208.0
54.570408 168.0
54.585114 124.0
54.764935 216.0
55.534748 132.0
55.628231 28.0
56.470135 132.0
56.637775 144.0
56.751675 148.0
56.891205 200.0
56.927242 52.0
56.961788 176.0
57.092552 184.0
57.535557 236.0
57.763752 124.0
58.644463 224.0
58.859573 188.0
58.917614 156.0
59.407513 176.0
59.868629 164.0
60.042782 184.0
60.249626 88.0
60.430515 168.0
60.650425 56.0
60.754326 152.0
61.2845 76.0
61.374905 176.0
61.463818 144.0
61.6684 236.0
61.699665 220.0
62.202541 108.0
62.215099 216.0
62.425648 116.0
62.442947 144.0
62.475979 96.0
62.587727 196.0
62.666485 152.0
63.149548 64.0
63.52179 160.0
63.582085 152.0
63.861717 176.0
64.250404 232.0
64.32222 128.0
64.443596 216.0
64.851677 160.0
64.904579 160.0
65.789497 168.0
65.854095 128.0
65.884781 132.0
65.904175 60.0
66.017326 168.0
66.552078 152.0
66.612167 192.0
67.027046 168.0
67.162369 204.0
67.230896 136.0
67.466103 152.0
67.508614 208.0
67.521698 172.0
67.877068 184.0
68.402824 196.0
69.437195 152.0
69.997246 264.0
71.574669 244.0
71.994568 124.0
72.149261 168.0
72.231201 268.0
72.552956 152.0
72.812576 176.0
73.278679 164.0
73.338326 216.0
73.544708 160.0
73.771904 140.0
73.853981 140.0
74.56382 196.0
74.796021 156.0
75.399712 136.0
75.441193 144.0
75.901749 196.0
76.827049 136.0
77.04528 184.0
77.340813 188.0
77.526466 172.0
77.907219 200.0
77.945877 228.0
78.539185 140.0
78.65741 100.0
78.786324 156.0
78.800461 168.0
79.067474 160.0
79.869461 144.0
79.881912 220.0
79.974442 164.0
80.222046 136.0
80.30407 164.0
80.66655 208.0
81.080025 48.0
81.153519 184.0
81.5233 132.0
81.699516 152.0
82.205826 84.0
82.587036 176.0
82.927437 64.0
83.139641 100.0
83.803368 144.0
84.506325 256.0
84.75901 164.0
85.263672 228.0
85.298599 140.0
85.647438 228.0
86.194321 136.0
86.564293 252.0
86.584663 184.0
86.621704 200.0
87.258255 176.0
87.289871 80.0
87.481506 152.0
87.513161 124.0
87.688271 136.0
87.973663 216.0
88.016609 224.0
88.265129 160.0
88.675117 164.0
89.268379 200.0
89.942879 124.0
90.377922 204.0
90.718468 188.0
90.963181 120.0
91.535461 148.0
92.199341 108.0
92.384819 28.0
92.470924 144.0
92.739075 124.0
92.815758 140.0
92.994179 204.0
93.345749 220.0
93.559326 68.0
93.842545 176.0
93.952477 188.0
94.209244 168.0
94.559235 176.0
94.572784 160.0
94.613434 172.0
94.809074 116.0
95.152412 72.0
95.418579 120.0
95.739647 176.0
96.182243 124.0
96.197861 152.0
96.352142 100.0
96.659119 124.0
96.688469 208.0
97.264717 228.0
97.441467 176.0
97.520073 140.0
97.663605 164.0
97.899788 152.0
98.027832 188.0
98.165825 136.0
98.916626 116.0
99.011665 148.0
99.04528 460.0
99.358551 184.0
99.58287 196.0
99.837265 180.0
100.070084 120.0
100.209503 76.0
100.25135 68.0
100.668289 164.0
100.690254 128.0
100.810127 184.0
101.060081 176.0
101.580978 140.0
101.631134 176.0
101.697357 72.0
101.741524 220.0
102.004692 268.0
102.069023 184.0
102.089134 52.0
102.16758 84.0
102.207817 200.0
102.235992 144.0
102.3004 136.0
102.566307 76.0
102.763947 168.0
102.854759 68.0
102.947632 180.0
103.26696 188.0
103.37014 200.0
103.746872 108.0
104.563446 144.0
104.705963 172.0
104.942345 220.0
105.070839 124.0
105.301506 172.0
105.48745 124.0
105.698112 120.0
105.906937 48.0
106.867706 120.0
106.902687 192.0
107.040611 136.0
107.677864 140.0
108.213448 172.0
108.588531 200.0
109.031891 176.0
109.070251 172.0
109.088959 196.0
109.363533 36.0
109.430153 188.0
109.713501 232.0
109.778137 72.0
110.112053 124.0
110.146454 168.0
110.224861 204.0
110.327278 132.0
110.949066 232.0
110.97422 152.0
111.010742 396.0
111.042877 336.0
111.509529 208.0
111.684044 180.0
112.012421 160.0
112.204193 160.0
112.2295 112.0
112.442558 160.0
112.501663 204.0
112.522774 132.0
112.958122 220.0
113.129539 132.0
113.159172 168.0
113.190933 168.0
113.580902 80.0
113.667892 228.0
113.693352 148.0
114.382004 140.0
114.643982 76.0
115.036446 156.0
115.051384 168.0
115.282066 192.0
115.493736 180.0
115.795525 96.0
115.855507 212.0
115.954071 136.0
116.524879 140.0
116.591492 144.0
116.701126 176.0
117.031281 352.0
117.051865 180.0
117.086319 200.0
118.312813 180.0
118.360443 256.0
118.403755 148.0
118.555405 132.0
118.865517 180.0
119.050034 356.0
119.439079 148.0
119.704605 156.0
119.896317 120.0
121.060738 136.0
121.428925 176.0
121.980064 136.0
122.031265 152.0
122.138382 220.0
122.312218 128.0
122.669083 64.0
122.799179 116.0
122.876381 156.0
123.042145 152.0
123.570137 168.0
123.806992 56.0
125.020233 136.0
125.059654 176.0
125.219505 88.0
125.881866 104.0
126.355736 116.0
126.458672 176.0
126.848427 252.0
127.03904 116.0
127.065956 148.0
127.449905 180.0
127.566772 196.0
127.784927 140.0
128.163193 140.0
128.399887 112.0
128.422455 152.0
128.630035 348.0
128.815216 104.0
129.05397 1108.0
129.865509 132.0
130.160538 220.0
131.051407 216.0
131.540253 140.0
131.581345 148.0
131.711517 156.0
131.791473 204.0
132.248581 160.0
132.438904 164.0
132.470978 40.0
132.672653 96.0
132.845673 148.0
133.356705 160.0
133.455566 104.0
133.892792 200.0
133.989532 56.0
134.035614 152.0
134.060974 136.0
134.367645 132.0
135.045563 496.0
135.222656 156.0
135.521378 184.0
136.044525 156.0
136.210419 224.0
136.259201 128.0
136.368423 124.0
136.647476 124.0
136.724274 136.0
136.884903 60.0
137.059906 1420.0
137.127182 172.0
137.188156 180.0
137.232086 112.0
137.31604 168.0
137.423355 168.0
137.638092 132.0
137.946487 56.0
138.065735 248.0
138.843277 88.0
139.03801 112.0
139.145981 132.0
139.310074 156.0
139.552444 120.0
139.957153 112.0
140.357742 164.0
140.508698 168.0
140.812668 204.0
140.893524 104.0
140.94313 200.0
141.040039 148.0
141.29306 144.0
141.449265 152.0
141.515549 72.0
141.655273 224.0
141.74057 164.0
142.606796 160.0
143.02066 124.0
143.04924 164.0
143.716553 56.0
144.139206 128.0
144.163101 92.0
144.404572 184.0
144.993546 152.0
145.026627 952.0
145.329269 208.0
146.02684 160.0
146.064423 228.0
146.266541 84.0
146.627838 184.0
147.068527 312.0
147.141647 32.0
147.202011 164.0
148.588959 168.0
148.80983 96.0
148.923965 44.0
149.021133 148.0
149.059784 612.0
149.388245 176.0
149.419876 200.0
149.699799 100.0
149.867874 148.0
150.165283 176.0
150.323868 172.0
150.721893 148.0
150.814758 196.0
151.039169 284.0
151.074539 1376.0
151.166946 44.0
151.225677 224.0
151.431351 52.0
151.568542 236.0
151.75766 204.0
152.015244 192.0
152.056564 104.0
152.076904 220.0
152.152298 176.0
152.565033 216.0
152.815887 152.0
152.916794 184.0
153.017365 26408.0
153.054657 140.0
153.083435 152.0
153.127899 184.0
153.16301 64.0
153.186569 100.0
153.241852 88.0
153.259094 56.0
153.276352 224.0
153.330566 48.0
153.45047 56.0
153.695541 76.0
153.742416 108.0
153.811539 28.0
153.949799 92.0
154.019836 2532.0
154.100479 56.0
154.130127 60.0
154.345184 128.0
154.377319 68.0
154.726212 80.0
154.785645 116.0
154.80545 60.0
154.897095 104.0
154.924347 84.0
155.02037 324.0
155.065582 72.0
155.095322 148.0
155.147385 48.0
155.214325 128.0
155.250565 228.0
155.271362 132.0
155.323456 76.0
155.777725 132.0
156.062454 120.0
156.409348 164.0
157.049728 164.0
157.107101 200.0
157.34169 120.0
157.886429 80.0
158.366974 168.0
158.469681 128.0
159.423218 132.0
159.757629 144.0
159.805435 144.0
160.678314 36.0
160.72261 208.0
161.121536 44.0
161.260513 136.0
161.563965 92.0
161.986725 164.0
162.028793 152.0
163.039139 320.0
163.075302 216.0
163.769913 120.0
164.041336 180.0
164.371582 156.0
164.716263 220.0
164.831223 224.0
164.905334 148.0
164.995789 168.0
165.018631 1412.0
165.061295 240.0
165.155914 112.0
165.542374 156.0
165.580795 108.0
166.016479 48.0
166.060074 172.0
166.32692 36.0
166.388535 112.0
166.61969 184.0
166.799576 164.0
167.0271 156.0
167.185379 132.0
167.262589 48.0
167.31665 188.0
167.393906 232.0
167.447983 140.0
168.696869 148.0
168.839081 72.0
169.136627 160.0
169.475891 72.0
169.530304 168.0
169.864777 44.0
170.031128 132.0
170.222946 136.0
171.024963 568.0
171.328384 216.0
172.210068 72.0
172.339111 152.0
172.447845 176.0
172.706696 52.0
173.11499 112.0
174.497818 148.0
174.613525 80.0
174.768738 128.0
175.039978 184.0
175.075058 396.0
175.271667 68.0
176.078918 144.0
176.380127 180.0
176.483231 236.0
176.663086 136.0
176.718643 132.0
176.853607 84.0
176.909195 120.0
176.951553 88.0
176.986572 212.0
177.016907 676.0
177.054352 23020.0
177.136932 64.0
177.177902 60.0
177.224365 56.0
177.303864 56.0
177.351578 196.0
177.5186 116.0
177.569321 108.0
177.619385 48.0
177.70163 56.0
177.80246 156.0
177.898026 188.0
178.05722 1528.0
178.144989 28.0
178.19812 36.0
178.346939 180.0
178.365555 128.0
178.461258 52.0
178.487854 36.0
178.50647 100.0
178.556992 56.0
178.607529 124.0
178.772491 208.0
178.852325 64.0
178.910904 92.0
179.033676 2904.0
179.061264 352.0
179.121277 140.0
179.219849 112.0
179.406418 60.0
179.42775 148.0
179.448563 104.0
179.561081 52.0
179.619751 136.0
179.699783 88.0
180.033295 136.0
180.567978 80.0
180.947952 116.0
181.491867 128.0
181.516006 120.0
181.859406 44.0
183.023468 112.0
183.58667 132.0
183.983322 200.0
185.246246 80.0
185.669083 72.0
186.244492 212.0
186.494278 116.0
186.652145 128.0
187.035767 36.0
187.452469 184.0
188.082474 56.0
188.891312 48.0
189.019913 164.0
189.064911 260.0
189.200562 164.0
189.468948 156.0
189.578552 200.0
190.028259 204.0
190.470245 160.0
191.033447 608.0
191.059769 196.0
191.30072 128.0
191.995071 164.0
192.469727 136.0
193.047256 56.0
193.149597 56.0
193.39032 228.0
193.661667 112.0
194.227127 180.0
194.943436 76.0
194.987915 156.0
195.027939 3980.0
195.313217 116.0
195.338257 56.0
195.800308 108.0
195.833725 96.0
195.986954 76.0
196.031448 1204.0
196.159744 32.0
196.27684 44.0
196.441391 132.0
196.544632 132.0
196.650681 88.0
196.938263 84.0
197.029709 244.0
197.105896 168.0
197.304337 156.0
197.609192 100.0
197.723923 92.0
198.037048 172.0
198.261642 68.0
200.524094 100.0
201.052032 904.0
201.113586 104.0
201.17569 72.0
201.251907 148.0
201.285797 96.0
201.347931 132.0
201.373352 32.0
201.410065 108.0
202.050507 268.0
203.033279 292.0
203.491562 36.0
203.57959 136.0
203.625031 124.0
204.04068 160.0
204.068329 192.0
204.403976 188.0
205.027924 200.0
205.909225 168.0
205.957779 252.0
206.520874 132.0
206.924362 148.0
207.030869 288.0
207.061813 172.0
208.068314 60.0
209.103165 180.0
210.039597 84.0
210.992584 204.0
211.064865 160.0
211.988297 160.0
212.234695 176.0
212.304291 152.0
213.012497 180.0
213.038025 152.0
213.53569 72.0
213.640411 188.0
214.036255 188.0
214.420792 108.0
214.767746 200.0
215.027435 104.0
215.065369 88.0
215.158783 200.0
215.52681 76.0
215.889282 132.0
217.047104 220.0
217.089981 108.0
217.148636 100.0
217.242493 160.0
217.491928 212.0
217.856049 128.0
218.647018 120.0
218.675461 188.0
219.026611 1592.0
219.065933 368.0
220.034286 332.0
220.065704 200.0
220.720901 220.0
221.045792 208.0
221.674088 64.0
222.044662 180.0
222.899643 104.0
223.473526 136.0
223.818802 172.0
226.04866 140.0
226.818375 200.0
227.916809 172.0
228.433929 224.0
229.264954 168.0
229.910339 112.0
230.843826 204.0
231.025314 264.0
231.488403 168.0
232.109619 132.0
232.522186 112.0
232.561646 176.0
233.028397 184.0
233.080978 140.0
233.482254 72.0
234.298019 88.0
234.895538 120.0
235.060287 172.0
235.509079 136.0
235.57933 60.0
236.334503 176.0
237.054871 144.0
239.044037 176.0
239.068649 136.0
240.063705 124.0
240.202499 160.0
240.369095 220.0
240.399963 128.0
241.666885 160.0
242.075485 128.0
242.357361 176.0
243.039185 180.0
243.060059 344.0
243.415131 220.0
244.076996 108.0
244.942215 44.0
245.043732 1908.0
245.431519 88.0
245.481415 172.0
246.05069 620.0
246.152328 164.0
246.714737 76.0
247.05043 132.0
247.180771 188.0
247.327866 184.0
247.381088 96.0
247.556427 132.0
247.838348 80.0
248.747864 216.0
249.684204 92.0
249.743973 108.0
250.978485 132.0
251.391724 96.0
253.06073 104.0
254.052734 92.0
254.452621 164.0
254.655853 116.0
255.231064 204.0
255.2724 140.0
255.386902 136.0
257.079529 208.0
258.059326 128.0
258.391937 200.0
258.532745 40.0
258.590363 152.0
259.067474 60.0
259.394348 80.0
259.833679 192.0
259.984497 140.0
260.157837 144.0
260.450043 128.0
261.036957 528.0
261.070892 468.0
261.578735 212.0
261.639893 52.0
262.032806 116.0
262.148804 200.0
262.993805 196.0
263.053894 1816.0
263.830475 68.0
263.885437 156.0
263.946869 128.0
264.05722 352.0
264.12149 120.0
264.150604 36.0
266.173035 48.0
267.064423 284.0
269.247223 156.0
269.704651 160.0
270.047699 144.0
270.483154 208.0
271.052765 156.0
271.057678 144.0
272.73996 152.0
273.588654 132.0
274.343079 192.0
274.531036 116.0
275.089844 132.0
275.603851 124.0
277.619812 128.0
278.080994 236.0
278.602325 56.0
279.037689 148.0
279.356964 36.0
279.393555 48.0
279.952759 112.0
280.052673 176.0
281.056305 248.0
281.359863 40.0
281.433319 120.0
281.663757 52.0
282.071442 248.0
283.057465 128.0
284.399445 124.0
285.074738 1304.0
285.323242 56.0
285.78067 28.0
286.043701 220.0
286.062592 172.0
286.245178 224.0
286.558441 152.0
287.054626 344.0
287.08429 128.0
287.543121 68.0
288.056366 284.0
288.319916 80.0
289.35498 36.0
290.056244 100.0
290.090149 136.0
291.189545 164.0
293.057159 48.0
295.518921 68.0
296.484589 216.0
296.583984 104.0
296.662842 112.0
297.055481 128.0
297.091522 136.0
299.070831 136.0
299.242981 120.0
299.670044 256.0
300.625214 132.0
301.066986 1640.0
301.115448 44.0
301.20871 116.0
301.29245 188.0
301.485138 140.0
301.509308 56.0
301.533508 124.0
301.70636 80.0
301.803162 140.0
301.83429 48.0
301.926086 152.0
301.979523 96.0
302.020569 152.0
302.072968 900.0
302.152496 120.0
302.4328 180.0
302.475952 180.0
302.501373 108.0
302.5401 60.0
302.588562 220.0
302.696381 172.0
302.722229 60.0
302.779022 92.0
302.824036 152.0
302.848297 108.0
302.872528 220.0
302.927338 112.0
302.967499 156.0
303.020721 140.0
303.085083 34896.0
303.17569 164.0
303.20285 44.0
303.289368 108.0
303.36618 100.0
303.416595 124.0
303.447815 104.0
303.539429 124.0
303.638092 92.0
303.690552 72.0
303.763397 140.0
303.801849 48.0
303.864014 64.0
303.912598 132.0
303.97287 88.0
304.038727 184.0
304.088531 5824.0
304.148193 36.0
304.157257 136.0
304.204132 72.0
304.240479 88.0
304.283966 104.0
304.308289 36.0
304.381195 84.0
304.540955 56.0
304.593048 52.0
304.756348 128.0
304.865845 124.0
304.905762 84.0
304.954407 192.0
305.055786 124.0
305.089905 716.0
305.242981 156.0
305.285919 92.0
305.385559 84.0
305.502899 104.0
305.583862 48.0
305.710175 80.0
305.757843 64.0
305.789154 44.0
305.820496 40.0
305.850739 104.0
305.928558 88.0
305.957275 152.0
306.001953 160.0
306.032837 40.0
306.099152 160.0
306.126862 148.0
306.182953 120.0
306.241791 112.0
306.276489 92.0
306.288177 88.0
306.298462 120.0
306.335846 128.0
306.360229 28.0
306.387939 80.0
306.54837 52.0
307.067841 60.0
307.266663 40.0
307.374847 44.0
307.507446 44.0
309.077759 200.0
309.164062 76.0
313.233459 52.0
314.73941 56.0
315.079712 340.0
315.10675 92.0
316.091736 120.0
316.174652 40.0
316.224213 116.0
316.464935 108.0
317.740875 104.0
318.90564 60.0
319.076263 104.0
327.088776 496.0
328.084106 164.0
328.924652 64.0
330.388245 80.0
334.041382 56.0
336.063354 120.0
336.09256 128.0
337.166168 148.0
339.083954 172.0
341.555054 52.0
345.097412 548.0
346.075958 108.0
346.105591 116.0
347.940918 60.0
348.275146 128.0
351.077698 80.0
353.095886 112.0
356.104065 92.0
356.306915 112.0
357.111359 128.0
358.108795 60.0
360.462952 68.0
362.066956 220.0
365.008026 140.0
365.761322 116.0
366.195404 176.0
367.117706 40.0
367.983917 108.0
368.119293 220.0
369.099823 224.0
369.860962 64.0
370.098328 108.0
371.067688 68.0
371.094543 164.0
377.111542 168.0
378.107971 212.0
378.949738 88.0
381.067749 176.0
381.080322 132.0
381.092712 192.0
381.274139 108.0
388.835358 80.0
389.066925 132.0
395.104614 208.0
396.110229 148.0
397.117035 204.0
398.11322 52.0
408.022949 112.0
408.891846 112.0
411.100342 88.0
413.116516 212.0
413.161072 40.0
414.105347 116.0
414.139496 348.0
415.032257 44.0
415.133636 96.0
415.405396 76.0
416.164337 132.0
416.403931 76.0
417.741241 76.0
418.815887 108.0
420.414124 60.0
424.714203 96.0
425.099884 136.0
427.043152 76.0
429.164001 80.0
429.696075 32.0
431.128906 52.0
432.531036 76.0
434.843903 100.0
444.110962 128.0
447.089783 56.0
449.150116 112.0
450.146179 164.0
453.238373 136.0
455.877838 60.0
463.126587 120.0
467.712463 44.0
468.009521 60.0
488.602081 84.0
521.301086 44.0
530.05365 108.0
544.465576 72.0
550.930908 208.0
563.054626 68.0
587.230042 72.0
611.352417 140.0
646.944458 100.0
654.647034 88.0
657.34375 116.0
665.041077 116.0
678.816284 68.0
699.501648 56.0
731.141418 100.0
764.674927 36.0
879.026794 68.0
887.088379 52.0
904.770203 124.0
929.052063 68.0
932.513245 52.0
935.804382 64.0
953.237549 56.0
966.186035 224.0
1046.985962 88.0
1076.911987 168.0
1101.373169 164.0
1134.473389 168.0
1142.713989 148.0
1149.431885 176.0
1161.142334 192.0
1175.469604 104.0
1177.71582 204.0
1183.118042 64.0
1185.097412 132.0
1198.248169 160.0
1199.681641 172.0
1200.633179 144.0
1213.113892 72.0
1253.520996 68.0
1279.964966 160.0
1280.164429 48.0
1282.971802 164.0
1307.282349 152.0
1311.488403 96.0
1312.079468 208.0
1324.291992 172.0
1331.356201 188.0
1331.479614 80.0
1331.806519 60.0
1353.056763 52.0
1354.265015 36.0
1366.64978 72.0
1374.644897 216.0
1379.475342 132.0
1381.435059 184.0
1382.071289 132.0
1388.353149 196.0
1397.534668 120.0
1399.87207 68.0
1408.57605 184.0
1412.335938 200.0
1413.60791 156.0
1417.644287 164.0
1420.568481 144.0
1427.478394 80.0
1431.067749 136.0
1434.442871 160.0
1435.234497 128.0
1438.161743 92.0
1441.099365 172.0
1441.28833 188.0
1448.657471 156.0
1449.362061 100.0
1450.968994 164.0
1456.979736 128.0
1459.82251 200.0
1461.975464 160.0
1462.41687 156.0
1467.696411 184.0
1470.778564 172.0
1475.721436 184.0
1486.038574 116.0
1486.552612 116.0
1497.354126 120.0
1497.515869 112.0
1498.9104 136.0
1499.187744 184.0
1502.109985 180.0
