>compound EZETIMIBE
>formula C24H21F2NO3
>ionization [M+H]+
>parentmass 410.15622642409056
#inchi InChI=1S/C24H21F2NO3/c25-17-5-1-15(2-6-17)22(29)14-13-21-23(16-3-11-20(28)12-4-16)27(24(21)30)19-9-7-18(26)8-10-19/h1-12,21-23,28-29H,13-14H2/t21-,22+,23-/m1/s1
#inchikey OLNTVTPDXPETLC
#Ion_Source LC-ESI
#Instrument qTof
#Compound_Source Commercial
#PI Dorrestein
#Data_Collector Garg_Neha
#Scan -1
#Precursor_MZ 410.156
#ExactMass 409.149
#Charge 1
#CAS_Number N/A
#Pubmed_ID N/A
#Smiles O[C@@H](CC[C@@H]1[C@H](N(C1=O)c2ccc(F)cc2)c3ccc(O)cc3)c4ccc(F)cc4
#INCHI_AUX N/A
#Library_Class 1
#SpectrumID CCMSLIB00000079021
#IonMode Positive
#UpdateWorkflowName UPDATE-SINGLE-ANNOTATED-GOLD
#LibraryQualityString Gold
#TaskID 278b19f5865741e282cec7349aa7e7a1
##Scan# 2046
#SpectrumFile NCP003352_E2_F11_BC6_01_15720.mzXML
#LibraryName NIHcollectionI_05062014.mgf
#MQScore -1
#Organism NIHcollectionI_05062014
#TIC_Query 0
#RT_Query -1
#MZErrorPPM -1
#SharedPeaks 0
#MassDiff 0
#LibMZ -1
#SpecMZ 410.156
#SpecCharge 0
#internalFilename spec-00000.mgf

>collision 10
44.92207 212.0
45.766415 192.0
50.29924 196.0
50.909462 152.0
54.17387 180.0
55.877583 232.0
57.864765 164.0
60.52137 144.0
61.313614 176.0
63.324677 196.0
65.453506 176.0
65.733978 208.0
70.660767 208.0
75.194939 164.0
75.29335 168.0
76.235779 184.0
79.316101 164.0
83.39991 156.0
85.923378 144.0
86.957771 184.0
87.130463 212.0
90.889496 188.0
93.780846 148.0
94.4105 180.0
99.225761 196.0
103.056686 156.0
103.372124 144.0
105.083092 164.0
105.634583 156.0
106.403069 140.0
106.606415 164.0
107.050674 504.0
107.667358 228.0
109.045753 244.0
109.078346 156.0
110.038719 192.0
110.067947 216.0
111.041046 156.0
115.053825 1176.0
116.057442 240.0
116.406281 144.0
121.027 160.0
123.021355 180.0
124.498184 164.0
127.206512 184.0
127.442322 164.0
128.574997 184.0
129.191833 180.0
131.045563 164.0
132.03508 220.0
132.321106 156.0
133.045135 888.0
133.064865 1516.0
133.11673 164.0
134.049408 612.0
134.068985 424.0
134.412704 160.0
135.004745 136.0
135.06131 17068.0
135.136368 224.0
136.063019 1692.0
137.067734 160.0
141.874298 148.0
145.973907 144.0
147.042587 400.0
148.044403 172.0
149.058472 520.0
151.05484 568.0
159.042618 772.0
161.060059 2300.0
162.062302 396.0
165.072342 164.0
166.065475 168.0
167.077545 188.0
177.065323 180.0
193.059555 164.0
195.821854 172.0
209.068985 128.0
211.096313 144.0
216.082092 300.0
227.090576 356.0
242.097794 148.0
256.074554 264.0
256.125519 172.0
263.10025 208.0
267.056793 184.0
268.074097 108.0
270.088501 312.0
270.865936 196.0
271.11496 420.0
272.11618 332.0
277.562866 200.0
281.087189 140.0
282.104126 168.0
288.118164 296.0
289.140747 216.0
290.136597 164.0
296.117126 152.0
298.104462 132.0
299.107422 1964.0
300.112335 244.0
300.934479 144.0
304.032501 144.0
306.832581 152.0
316.114258 328.0
317.146637 220.0
328.186218 184.0
392.145905 1484.0
393.148224 776.0
394.134277 176.0
409.186554 184.0
410.160309 368.0
599.647461 140.0
1152.035278 144.0
1484.020264 140.0
1528.822998 188.0
1667.602905 232.0
1680.15918 184.0
1712.974854 172.0
1722.081055 152.0
1777.8125 148.0
1793.405029 196.0
1809.167236 228.0
1843.880127 204.0
1859.561768 176.0
1860.179688 156.0
1866.23645 160.0
1904.928345 184.0
1910.187378 152.0
1924.506104 216.0
1940.456055 156.0
1947.001953 144.0
1950.683472 156.0
1957.079346 152.0
1978.621948 184.0
