>compound MLS000860017-01!5-(N-Ethyl-N-isopropyl)amiloride
>formula C11H18ClN7O
>ionization [M+H]+
>parentmass 300.1334123280905
#inchi InChI=1S/C11H18ClN7O/c1-4-19(5(2)3)9-7(12)16-6(8(13)17-9)10(20)18-11(14)15/h5H,4H2,1-3H3,(H2,13,17)(H4,14,15,18,20)
#inchikey QDERNBXNXJCIQK
#Ion_Source LC-ESI
#Instrument qTof
#Compound_Source NIH Pharmacologically Active Library
#PI Dorrestein
#Data_Collector VP/LMS
#Scan -1
#Precursor_MZ 300.14
#ExactMass 299.126
#Charge 1
#CAS_Number N/A
#Pubmed_ID N/A
#Smiles CCN(C(C)C)c1nc(N)c(nc1Cl)C(=O)N=C(N)N
#INCHI_AUX N/A
#Library_Class 1
#SpectrumID CCMSLIB00000085540
#IonMode Positive
#UpdateWorkflowName UPDATE-SINGLE-ANNOTATED-GOLD
#LibraryQualityString Gold
#TaskID d252d724072548979f1f6f1ced849daf
##Scan# 1682
#SpectrumFile p4-C05_GC5_01_18353.mzXML
#LibraryName Pharm_Active_Library.mgf
#MQScore -1
#Organism Pharm_Active_Library
#TIC_Query 0
#RT_Query -1
#MZErrorPPM -1
#SharedPeaks 0
#MassDiff 0
#LibMZ -1
#SpecMZ 300.14
#SpecCharge 0
#internalFilename spec-00000.mgf

>collision 10
44.895851 180.0
44.939873 184.0
44.950546 104.0
44.982578 148.0
45.026638 128.0
45.042667 204.0
45.073395 196.0
45.284847 188.0
45.312893 80.0
45.343712 144.0
45.398678 192.0
45.434895 128.0
45.471123 108.0
45.495285 156.0
45.535564 176.0
45.565117 116.0
45.900261 216.0
45.932629 152.0
45.951511 140.0
45.97715 216.0
45.991997 136.0
46.006516 148.0
46.018997 160.0
46.046001 160.0
46.1068 152.0
46.118961 172.0
46.162224 144.0
46.18792 120.0
46.203197 164.0
46.227154 172.0
46.236629 148.0
46.267761 116.0
46.312447 132.0
46.370705 188.0
46.427647 208.0
46.446636 88.0
46.53756 184.0
46.680229 52.0
46.768661 132.0
46.78587 168.0
46.816311 48.0
46.873524 136.0
46.899418 164.0
46.908962 148.0
46.922592 68.0
46.939514 176.0
46.974415 176.0
47.111324 136.0
47.168316 172.0
47.205231 128.0
47.269524 196.0
47.299629 120.0
47.340164 192.0
47.351662 128.0
47.40509 88.0
47.493118 192.0
47.521542 172.0
47.583401 208.0
47.62075 100.0
47.638332 60.0
47.693295 200.0
47.711166 228.0
47.823963 276.0
47.840481 156.0
47.899693 148.0
47.94585 144.0
47.959381 112.0
48.005817 148.0
48.076172 196.0
48.240532 120.0
48.25021 176.0
48.277863 196.0
48.362259 60.0
48.446724 136.0
48.504925 128.0
48.538197 208.0
48.603985 176.0
48.618656 124.0
48.650578 120.0
48.671406 188.0
48.740856 108.0
48.828434 164.0
48.909 168.0
48.943935 132.0
49.056786 96.0
49.081879 164.0
49.194889 152.0
49.241665 88.0
49.257729 188.0
49.347 136.0
49.369537 180.0
49.387722 200.0
49.46048 220.0
49.50108 96.0
49.540295 144.0
49.568317 180.0
49.584766 168.0
49.606159 208.0
49.664322 200.0
49.708542 156.0
49.771709 132.0
49.812435 280.0
49.841938 100.0
49.856247 176.0
49.896755 88.0
49.934719 184.0
49.961445 164.0
49.974106 124.0
50.006474 128.0
50.092365 148.0
50.109268 200.0
50.126175 228.0
50.198067 128.0
50.210758 224.0
50.282711 196.0
50.318001 160.0
50.39003 196.0
50.424992 140.0
50.440903 152.0
50.464935 288.0
50.484734 124.0
50.496044 136.0
50.534241 228.0
50.576984 136.0
50.617176 188.0
50.7155 256.0
50.724911 144.0
50.741016 192.0
50.78923 188.0
50.88715 96.0
50.92691 200.0
50.951057 72.0
50.969528 168.0
51.027802 136.0
51.039482 224.0
51.054821 148.0
51.163296 220.0
51.202827 64.0
51.269783 176.0
51.284035 244.0
51.331081 208.0
51.378895 176.0
51.399551 192.0
51.447559 188.0
51.508053 116.0
51.53091 76.0
51.569492 128.0
51.582355 172.0
51.625801 184.0
51.658146 156.0
51.672623 140.0
51.718243 224.0
51.745441 196.0
51.764053 56.0
51.808456 216.0
51.824215 268.0
51.852875 124.0
51.951813 176.0
51.969257 124.0
51.987682 176.0
52.01495 172.0
52.043663 208.0
52.101112 224.0
52.145657 164.0
52.187344 188.0
52.272209 40.0
52.321144 132.0
52.347061 80.0
52.375866 148.0
52.456558 192.0
52.473858 164.0
52.621017 160.0
52.638344 288.0
52.672436 132.0
52.696121 148.0
52.743809 144.0
52.859509 208.0
52.892796 176.0
52.918854 152.0
52.940571 144.0
52.966736 188.0
53.002861 176.0
53.048077 120.0
53.095058 164.0
53.143505 120.0
53.205914 112.0
53.217525 140.0
53.227692 152.0
53.311943 160.0
53.332291 172.0
53.436993 136.0
53.492294 208.0
53.515587 192.0
53.668575 80.0
53.686195 140.0
53.71524 144.0
53.764847 48.0
53.775066 108.0
53.875816 84.0
53.886044 140.0
53.902115 184.0
53.92926 160.0
53.94202 132.0
53.9949 208.0
54.060043 160.0
54.090778 112.0
54.115665 120.0
54.166924 176.0
54.224064 196.0
54.272442 176.0
54.300304 172.0
54.332573 116.0
54.348713 176.0
54.394207 180.0
54.411823 168.0
54.455875 36.0
54.498478 56.0
54.519047 32.0
54.548161 236.0
54.629322 132.0
54.658398 176.0
54.683765 188.0
54.825146 212.0
54.844307 84.0
54.884109 240.0
54.903278 180.0
55.010986 148.0
55.025574 168.0
55.136536 208.0
55.206017 136.0
55.28442 220.0
55.325863 140.0
55.340668 176.0
55.351032 260.0
55.422131 164.0
55.492378 172.0
55.54073 196.0
55.631245 164.0
55.654999 88.0
55.690639 208.0
55.705494 104.0
55.717381 132.0
55.76939 60.0
55.779793 148.0
55.815147 236.0
55.864552 176.0
55.927048 56.0
55.941936 156.0
56.006336 220.0
56.031288 200.0
56.068539 136.0
56.108784 204.0
56.143078 196.0
56.187828 180.0
56.216175 84.0
56.272896 196.0
56.350559 112.0
56.364006 144.0
56.404663 156.0
56.462669 76.0
56.493977 172.0
56.606331 224.0
56.657257 152.0
56.696213 140.0
56.715698 124.0
56.758404 328.0
56.790985 168.0
56.849174 192.0
56.882195 104.0
56.957272 120.0
57.018875 132.0
57.062466 108.0
57.119568 136.0
57.182804 48.0
57.197857 148.0
57.227016 248.0
57.246216 132.0
57.39069 80.0
57.490246 188.0
57.503826 112.0
57.550625 212.0
57.569824 196.0
57.609524 212.0
57.650318 64.0
57.669964 132.0
57.724392 116.0
57.750099 116.0
57.760689 248.0
57.772789 52.0
57.790943 184.0
57.801537 160.0
57.836342 216.0
57.851482 84.0
57.901447 184.0
58.01054 60.0
58.083324 132.0
58.107597 160.0
58.134491 160.0
58.142887 156.0
58.178925 208.0
58.219921 144.0
58.283722 140.0
58.355202 136.0
58.512222 236.0
58.540154 124.0
58.650486 128.0
58.674877 200.0
58.689331 216.0
58.705372 156.0
58.7435 52.0
58.758755 128.0
58.793156 272.0
58.815216 56.0
58.867126 168.0
58.897671 168.0
58.932808 216.0
59.015343 56.0
59.035221 220.0
59.084164 124.0
59.182117 164.0
59.231121 164.0
59.289345 236.0
59.323063 128.0
59.347591 180.0
59.543243 248.0
59.614681 148.0
59.694614 148.0
59.731277 420.0
59.815598 164.0
59.940884 272.0
59.964371 212.0
60.007183 188.0
60.050362 108.0
60.133675 224.0
60.144478 112.0
60.336029 212.0
60.402523 148.0
60.47834 164.0
60.544914 168.0
60.592934 172.0
60.70298 136.0
60.775883 128.0
60.786747 164.0
60.822441 180.0
60.861252 132.0
60.912502 72.0
60.926483 132.0
61.010403 204.0
61.064823 164.0
61.080379 204.0
61.131721 196.0
61.169075 160.0
61.198654 196.0
61.212666 124.0
61.226681 196.0
61.284317 216.0
61.2999 112.0
61.351768 244.0
61.40123 140.0
61.446899 132.0
61.471352 160.0
61.496399 124.0
61.508884 208.0
61.530739 216.0
61.566654 112.0
61.601013 156.0
61.618198 220.0
61.681377 392.0
61.743084 152.0
61.78548 104.0
61.808949 216.0
61.860596 172.0
61.891907 148.0
61.915398 144.0
61.931057 72.0
62.048744 196.0
62.073261 92.0
62.153667 112.0
62.167793 164.0
62.189457 224.0
62.236858 160.0
62.278114 280.0
62.318531 208.0
62.345245 152.0
62.367249 128.0
62.382969 36.0
62.456871 176.0
62.595325 156.0
62.680424 144.0
62.729282 228.0
62.756084 100.0
62.775005 212.0
62.79393 104.0
62.822193 148.0
62.84914 176.0
62.932796 188.0
62.958061 196.0
63.038742 220.0
63.089203 144.0
63.237892 204.0
63.318634 96.0
63.432713 196.0
63.467594 172.0
63.508823 176.0
63.546242 388.0
63.572285 124.0
63.58498 220.0
63.613548 140.0
63.650066 188.0
63.662769 140.0
63.678802 168.0
63.721539 180.0
63.740608 52.0
63.816902 128.0
63.851013 168.0
63.931427 124.0
63.977585 184.0
64.085884 176.0
64.108192 140.0
64.162384 96.0
64.192352 176.0
64.208626 172.0
64.241409 152.0
64.256477 128.0
64.277222 148.0
64.323502 108.0
64.349045 180.0
64.377792 176.0
64.408134 196.0
64.432098 128.0
64.444878 152.0
64.527985 104.0
64.593552 100.0
64.660751 108.0
64.694366 216.0
64.705574 164.0
64.720627 368.0
64.784042 124.0
64.872772 184.0
64.947548 100.0
65.027771 212.0
65.05024 228.0
65.168716 136.0
65.223724 152.0
65.249443 120.0
65.266342 180.0
65.305664 112.0
65.34111 360.0
65.46505 156.0
65.476326 204.0
65.545593 148.0
65.585419 168.0
65.611671 132.0
65.627792 136.0
65.643921 112.0
65.724571 204.0
65.820686 196.0
65.892769 136.0
66.008858 124.0
66.02356 88.0
66.068703 196.0
66.091354 132.0
66.109154 64.0
66.132332 268.0
66.21907 188.0
66.288902 28.0
66.381302 140.0
66.415985 204.0
66.458405 180.0
66.532188 180.0
66.546806 112.0
66.706009 164.0
66.741776 196.0
66.762917 176.0
66.803581 32.0
66.819084 256.0
66.837746 180.0
66.854019 172.0
66.86866 228.0
66.888191 96.0
66.917198 284.0
66.958206 116.0
66.98101 64.0
66.998924 64.0
67.022812 188.0
67.062294 176.0
67.103157 172.0
67.174988 216.0
67.248413 248.0
67.261467 236.0
67.33004 164.0
67.37088 212.0
67.42643 184.0
67.473206 208.0
67.505432 148.0
67.578506 216.0
67.607964 200.0
67.619415 120.0
67.632507 52.0
67.657066 84.0
67.694725 188.0
67.761879 108.0
67.875793 172.0
67.912689 256.0
67.934013 152.0
67.947136 160.0
67.958626 164.0
68.01442 64.0
68.191803 172.0
68.219299 116.0
68.298676 364.0
68.333221 216.0
68.380295 152.0
68.405632 184.0
68.440208 152.0
68.471359 220.0
68.698837 164.0
68.715454 116.0
68.760002 240.0
68.824387 108.0
68.848625 188.0
68.860718 188.0
68.879372 176.0
68.931755 136.0
68.954887 84.0
69.118599 132.0
69.226364 400.0
69.353767 144.0
69.531227 128.0
69.55011 96.0
69.622536 128.0
69.664062 168.0
69.708923 164.0
69.786339 188.0
69.816971 136.0
69.931137 184.0
69.94342 224.0
70.010017 60.0
70.026672 168.0
70.06665 88.0
70.078308 184.0
70.099968 176.0
70.156792 180.0
70.218338 76.0
70.23835 128.0
70.273384 64.0
70.296745 108.0
70.34848 124.0
70.393562 172.0
70.43531 148.0
70.45536 140.0
70.482094 108.0
70.515511 168.0
70.528885 220.0
70.555634 208.0
70.711189 252.0
70.803268 148.0
70.903786 268.0
70.917198 156.0
70.9524 260.0
70.976944 236.0
71.021149 136.0
71.042961 208.0
71.066444 132.0
71.163795 92.0
71.259529 92.0
71.304893 128.0
71.391891 144.0
71.486519 160.0
71.594261 140.0
71.691963 168.0
71.777939 156.0
71.845398 140.0
71.863251 184.0
71.970291 120.0
71.983803 128.0
72.005753 192.0
72.029404 168.0
72.055672 148.0
72.091911 76.0
72.20932 232.0
72.233459 200.0
72.254234 136.0
72.293152 92.0
72.332077 100.0
72.426895 140.0
72.450615 160.0
72.482803 160.0
72.542122 148.0
72.557381 176.0
72.59977 132.0
72.674408 116.0
72.737198 136.0
72.800018 152.0
72.82209 148.0
72.840775 232.0
72.94249 172.0
72.990334 172.0
73.022644 136.0
73.03965 176.0
73.104301 176.0
73.208267 172.0
73.235397 240.0
73.254128 184.0
73.277679 68.0
73.291611 168.0
73.313766 120.0
73.335922 188.0
73.351257 140.0
73.385353 228.0
73.438217 160.0
73.492805 48.0
73.506454 200.0
73.542297 156.0
73.573021 68.0
73.596924 168.0
73.631554 172.0
73.652115 268.0
73.68232 208.0
73.756554 208.0
73.798538 72.0
73.851555 228.0
73.884056 116.0
73.91143 128.0
74.08606 216.0
74.10833 128.0
74.164886 136.0
74.204308 144.0
74.321228 192.0
74.339813 164.0
74.367271 176.0
74.405037 184.0
74.422211 120.0
74.473724 144.0
74.489182 160.0
74.514091 140.0
74.575096 120.0
74.679977 220.0
74.719543 108.0
74.755676 144.0
74.784935 132.0
74.809845 160.0
74.840019 108.0
74.865845 28.0
74.910629 52.0
74.987625 128.0
75.031258 112.0
75.048546 140.0
75.120934 176.0
75.191177 320.0
75.25209 92.0
75.277992 128.0
75.300446 228.0
75.329803 124.0
75.355721 100.0
75.428299 232.0
75.440399 136.0
75.495728 152.0
75.644768 168.0
75.70166 200.0
75.774406 128.0
75.788269 144.0
75.809059 204.0
75.831589 68.0
75.843719 148.0
75.874924 132.0
75.920006 132.0
75.989388 128.0
76.001534 148.0
76.060539 168.0
76.103943 56.0
76.199463 56.0
76.284622 176.0
76.314171 92.0
76.347763 216.0
76.406349 216.0
76.425491 156.0
76.515297 156.0
76.545677 168.0
76.559525 132.0
76.610031 220.0
76.639648 232.0
76.760696 216.0
76.780846 224.0
76.865456 176.0
76.869026 88.0
76.875664 136.0
76.899483 152.0
76.92392 80.0
77.049652 164.0
77.067467 204.0
77.082855 188.0
77.117805 144.0
77.17025 156.0
77.196472 196.0
77.283936 168.0
77.303185 176.0
77.322433 192.0
77.361908 180.0
77.3974 208.0
77.593941 188.0
77.606209 152.0
77.67334 144.0
77.693863 168.0
77.764091 92.0
77.781639 80.0
77.814995 124.0
77.936188 120.0
78.001213 168.0
78.048676 172.0
78.159492 152.0
78.198204 204.0
78.215805 100.0
78.259819 192.0
78.388397 168.0
78.460663 144.0
78.56295 120.0
78.636482 148.0
78.652946 140.0
78.712967 188.0
78.734161 180.0
78.818954 156.0
78.843689 48.0
78.923233 104.0
78.94799 200.0
78.963905 208.0
79.016975 176.0
79.045288 212.0
79.064751 132.0
79.095291 172.0
79.125 196.0
79.156296 196.0
79.176285 100.0
79.240051 156.0
79.302071 128.0
79.34639 176.0
79.406677 180.0
79.422638 172.0
79.566376 224.0
79.63208 208.0
79.699577 180.0
79.76889 212.0
79.804451 128.0
79.829338 112.0
79.888031 152.0
79.902267 216.0
79.939583 148.0
80.037537 164.0
80.058899 212.0
80.245995 40.0
80.263824 104.0
80.663734 180.0
80.728096 212.0
80.85511 188.0
80.919434 116.0
80.930847 156.0
80.994865 144.0
81.081123 100.0
81.092964 104.0
81.120201 124.0
81.145294 244.0
81.173988 60.0
81.35083 200.0
81.365913 128.0
81.392899 160.0
81.427422 160.0
81.55307 200.0
81.597725 144.0
81.630089 184.0
81.726974 228.0
81.763214 236.0
81.824409 168.0
81.842415 108.0
81.891083 172.0
81.952286 208.0
82.004547 140.0
82.210136 144.0
82.253952 136.0
82.284142 188.0
82.39431 132.0
82.414185 208.0
82.431435 220.0
82.497314 220.0
82.553368 100.0
82.572334 164.0
82.593155 152.0
82.619507 200.0
82.652855 108.0
82.669144 156.0
82.77594 148.0
82.803024 184.0
82.909996 120.0
82.929932 68.0
82.964371 216.0
83.042343 244.0
83.055038 204.0
83.127602 132.0
83.153015 148.0
83.234703 132.0
83.247414 192.0
83.298271 136.0
83.352432 172.0
83.418198 140.0
83.581879 52.0
83.646973 248.0
83.778511 156.0
83.986412 148.0
84.093964 224.0
84.121338 144.0
84.185242 132.0
84.285713 168.0
84.305809 208.0
84.360641 108.0
84.427177 184.0
84.541718 128.0
84.642395 164.0
84.66803 156.0
84.73764 152.0
84.772453 200.0
84.812775 108.0
84.856766 52.0
84.886101 96.0
84.9599 220.0
85.021851 84.0
85.125145 188.0
85.199425 124.0
85.226425 384.0
85.251404 132.0
85.282646 220.0
85.33596 68.0
85.374573 204.0
85.405838 224.0
85.464706 156.0
85.490471 132.0
85.527275 132.0
85.564095 196.0
85.604599 180.0
85.623016 112.0
85.6838 176.0
85.709595 168.0
85.755669 148.0
85.828529 92.0
85.85891 112.0
85.908714 116.0
86.036041 76.0
86.063736 196.0
86.146843 160.0
86.222603 128.0
86.265114 156.0
86.322426 88.0
86.411789 192.0
86.475975 152.0
86.496338 132.0
86.511147 72.0
86.545738 140.0
86.6241 176.0
86.679688 132.0
86.809441 204.0
86.86879 108.0
86.88549 180.0
86.907753 136.0
86.943008 68.0
87.143547 204.0
87.199295 48.0
87.236473 68.0
87.288528 196.0
87.39827 248.0
87.455963 168.0
87.580711 256.0
87.647774 44.0
87.677681 164.0
87.770798 116.0
87.806587 104.0
87.869652 88.0
87.908836 296.0
87.933617 200.0
87.962959 204.0
87.98349 176.0
87.996559 216.0
88.065651 136.0
88.145988 176.0
88.187103 188.0
88.245049 160.0
88.364746 196.0
88.38533 180.0
88.413399 128.0
88.490143 160.0
88.593147 140.0
88.701828 168.0
88.746826 208.0
88.765572 160.0
88.829338 60.0
88.848099 152.0
88.893394 172.0
88.928787 216.0
88.989441 312.0
89.015144 156.0
89.043312 68.0
89.069611 196.0
89.090271 100.0
89.227463 64.0
89.2425 136.0
89.300797 180.0
89.355347 160.0
89.372284 108.0
89.400505 212.0
89.428734 176.0
89.504036 160.0
89.553001 156.0
89.573723 104.0
89.603859 132.0
89.632126 80.0
89.803673 172.0
89.971321 156.0
89.99427 180.0
90.04583 172.0
90.11515 136.0
90.29171 372.0
90.355255 140.0
90.387421 160.0
90.466911 196.0
90.555901 160.0
90.607048 120.0
90.698006 160.0
90.724548 228.0
90.815651 168.0
90.870575 148.0
90.904274 168.0
90.94648 148.0
91.028114 148.0
91.041405 228.0
91.060402 168.0
91.147942 144.0
91.343605 136.0
91.372177 204.0
91.394974 168.0
91.433029 156.0
91.495842 140.0
91.575821 168.0
91.650116 92.0
91.674881 112.0
91.754936 124.0
91.825493 180.0
91.939957 132.0
91.955223 144.0
91.976219 180.0
91.993401 136.0
92.014847 204.0
92.030235 504.0
92.058319 312.0
92.113701 172.0
92.132805 132.0
92.146179 112.0
92.203506 120.0
92.258934 260.0
92.375587 188.0
92.48848 168.0
92.524475 164.0
92.543579 204.0
92.588036 140.0
92.634003 104.0
92.6819 144.0
92.70623 172.0
92.732597 132.0
92.814156 100.0
92.852509 184.0
92.93116 212.0
92.947754 172.0
93.046585 452.0
93.086632 104.0
93.144249 148.0
93.16922 104.0
93.249924 140.0
93.296059 136.0
93.349892 196.0
93.390282 200.0
93.424904 92.0
93.48262 164.0
93.561539 280.0
93.635963 172.0
93.659744 184.0
93.677078 124.0
93.731026 168.0
93.760124 184.0
93.796555 132.0
93.840889 148.0
93.929604 172.0
93.955284 152.0
94.008705 136.0
94.041512 140.0
94.066605 152.0
94.151558 64.0
94.342842 64.0
94.364159 196.0
94.466606 72.0
94.499496 168.0
94.538193 164.0
94.56916 128.0
94.591232 128.0
94.633041 188.0
94.731812 160.0
94.799004 176.0
94.882965 104.0
94.954712 112.0
95.030365 188.0
95.052315 128.0
95.059929 168.0
95.098282 120.0
95.238358 220.0
95.4254 184.0
95.473244 172.0
95.504356 108.0
95.541321 168.0
95.591904 212.0
95.630028 248.0
95.710815 180.0
95.794151 200.0
95.848938 116.0
95.909355 104.0
95.94249 188.0
95.961288 168.0
96.066254 220.0
96.082901 172.0
96.151199 80.0
96.209755 128.0
96.239037 212.0
96.252708 204.0
96.293716 48.0
96.414841 176.0
96.479347 120.0
96.516495 124.0
96.586678 184.0
96.627975 172.0
96.714081 204.0
96.764977 188.0
96.813927 84.0
96.843773 188.0
96.907196 156.0
96.933426 196.0
96.954979 124.0
96.986336 184.0
97.058868 152.0
97.084366 220.0
97.146873 156.0
97.184402 192.0
97.302162 160.0
97.34536 212.0
97.363029 184.0
97.411438 172.0
97.445534 184.0
97.458549 228.0
97.480896 100.0
97.553619 112.0
97.571312 156.0
97.589005 200.0
97.724716 184.0
97.752266 84.0
97.799271 172.0
97.897934 148.0
97.934982 128.0
97.995438 88.0
98.016129 144.0
98.029915 136.0
98.182358 184.0
98.21524 148.0
98.236938 148.0
98.302048 116.0
98.349411 152.0
98.377045 72.0
98.412582 216.0
98.465897 148.0
98.570602 184.0
98.775246 152.0
98.829628 72.0
98.873161 376.0
98.938477 124.0
98.958275 176.0
98.976097 140.0
99.140511 152.0
99.156364 88.0
99.231689 212.0
99.29911 132.0
99.316956 192.0
99.370522 208.0
99.388374 180.0
99.42981 164.0
99.471725 176.0
99.503494 92.0
99.533272 192.0
99.650459 172.0
99.72995 100.0
99.765724 120.0
99.805489 144.0
99.847252 208.0
99.881065 168.0
99.989952 176.0
100.163712 116.0
100.185623 208.0
100.241409 44.0
100.263329 156.0
100.287247 172.0
100.329109 156.0
100.42881 260.0
100.510605 128.0
100.536545 124.0
100.577232 196.0
100.615944 144.0
100.646332 172.0
100.662308 296.0
100.685768 180.0
100.790649 196.0
100.810127 116.0
100.842102 148.0
100.893967 216.0
100.913101 136.0
100.946487 132.0
100.962059 160.0
100.991158 33528.0
101.029427 304.0
101.055672 40.0
101.069313 84.0
101.104095 128.0
101.14212 180.0
101.16214 68.0
101.193588 108.0
101.222206 80.0
101.260254 36.0
101.290298 72.0
101.318695 156.0
101.34639 80.0
101.364426 128.0
101.484688 44.0
101.568581 72.0
101.598549 176.0
101.63913 232.0
101.833855 40.0
101.851936 152.0
101.902153 196.0
101.93631 104.0
101.972488 80.0
101.995399 1472.0
102.011223 3300.0
102.066971 40.0
102.085068 212.0
102.103165 64.0
102.195694 152.0
102.217827 80.0
102.28022 48.0
102.295494 204.0
102.358612 192.0
102.449364 104.0
102.487648 56.0
102.503769 120.0
102.538025 180.0
102.642853 228.0
102.660995 172.0
102.678551 216.0
102.723526 48.0
102.745712 80.0
102.765701 156.0
102.851387 152.0
102.897072 56.0
102.959442 176.0
102.988029 7540.0
103.014877 300.0
103.037582 216.0
103.058083 132.0
103.119171 80.0
103.130463 164.0
103.147568 188.0
103.169807 136.0
103.247375 220.0
103.382179 56.0
103.508659 100.0
103.523407 204.0
103.546165 180.0
103.576973 152.0
103.596802 116.0
103.671768 88.0
103.769058 212.0
103.836891 232.0
103.927261 232.0
103.959724 132.0
104.008354 2348.0
104.031334 156.0
104.134315 40.0
104.19323 184.0
104.325317 260.0
104.341583 192.0
104.386314 140.0
104.400551 136.0
104.461571 68.0
104.510391 148.0
104.57869 168.0
104.596748 204.0
104.632507 136.0
104.705811 212.0
104.78286 208.0
104.815819 244.0
104.840271 88.0
104.887146 136.0
104.91568 152.0
104.982971 148.0
105.013397 148.0
105.066597 176.0
105.103317 76.0
105.16658 192.0
105.37487 112.0
105.468872 176.0
105.49749 160.0
105.551041 292.0
105.618134 168.0
105.638588 160.0
105.87574 176.0
105.966141 172.0
106.013268 76.0
106.039711 204.0
106.17112 108.0
106.288353 188.0
106.304466 92.0
106.423515 136.0
106.464584 156.0
106.571396 116.0
106.604271 156.0
106.624825 160.0
106.64743 168.0
106.698822 192.0
106.727608 148.0
106.748169 96.0
106.795471 220.0
106.86953 136.0
106.888046 148.0
106.902451 128.0
106.954735 148.0
107.017715 192.0
107.045563 92.0
107.054039 100.0
107.062599 176.0
107.069748 240.0
107.08567 80.0
107.120689 128.0
107.206589 168.0
107.213478 116.0
107.220261 172.0
107.252037 220.0
107.277298 176.0
107.370087 76.0
107.531006 172.0
107.553711 224.0
107.56913 144.0
107.632156 176.0
107.73336 200.0
107.751953 216.0
107.775131 164.0
107.802422 160.0
107.855278 176.0
107.946243 144.0
107.977257 216.0
108.010147 176.0
108.056534 1856.0
108.087341 300.0
108.12001 72.0
108.159332 116.0
108.177963 36.0
108.208946 124.0
108.327057 160.0
108.382996 204.0
108.410896 180.0
108.432732 72.0
108.476433 144.0
108.800682 380.0
109.028351 144.0
109.061676 356.0
109.10318 28.0
109.146759 108.0
109.171791 56.0
109.213684 56.0
109.230026 60.0
109.263313 228.0
109.277878 184.0
109.365273 56.0
109.392334 180.0
109.506615 140.0
109.525604 132.0
109.54435 196.0
109.602684 140.0
109.642273 164.0
109.72982 308.0
109.754845 132.0
109.819298 216.0
109.844521 168.0
109.865379 212.0
109.990585 152.0
110.016815 184.0
110.04277 168.0
110.075752 312.0
110.101242 232.0
110.237022 172.0
110.282898 156.0
110.328987 132.0
110.369667 176.0
110.391716 56.0
110.421631 144.0
110.550697 168.0
110.64489 200.0
110.670013 192.0
110.856438 140.0
110.963333 144.0
111.151245 196.0
111.233948 112.0
111.275055 156.0
111.333298 164.0
111.412445 156.0
111.492287 148.0
111.538528 32.0
111.561653 132.0
111.694626 184.0
111.733696 172.0
111.748825 104.0
111.769859 72.0
111.80143 144.0
111.830894 84.0
111.866676 96.0
112.03093 132.0
112.049889 164.0
112.068848 152.0
112.160728 228.0
112.18055 128.0
112.266403 100.0
112.275085 124.0
112.282585 204.0
112.311279 124.0
112.340813 108.0
112.442093 164.0
112.515968 156.0
112.570869 112.0
112.602547 216.0
112.636337 308.0
112.729477 144.0
112.752541 224.0
112.843437 76.0
112.885727 136.0
112.949173 156.0
113.00206 136.0
113.023216 120.0
113.045509 172.0
113.154442 208.0
113.179848 144.0
113.201027 228.0
113.366257 172.0
113.463753 172.0
113.521004 172.0
113.629181 184.0
113.673737 128.0
113.764999 196.0
113.905151 76.0
114.004326 224.0
114.038322 148.0
114.104904 44.0
114.143181 232.0
114.230377 148.0
114.415512 196.0
114.43042 156.0
114.728676 184.0
114.786247 128.0
114.826759 84.0
114.880089 128.0
114.941956 164.0
114.978233 160.0
115.012489 164.0
115.041512 204.0
115.06575 132.0
115.116997 180.0
115.161842 136.0
115.228065 184.0
115.246399 220.0
115.272934 84.0
115.294304 160.0
115.441811 72.0
115.520943 140.0
115.591545 64.0
115.675011 216.0
115.801346 180.0
115.831329 164.0
115.891312 168.0
116.00161 6500.0
116.026535 888.0
116.057007 184.0
116.296616 136.0
116.423286 200.0
116.513496 188.0
116.545151 120.0
116.569359 192.0
116.689728 144.0
116.721977 152.0
116.74778 168.0
116.76284 184.0
116.844574 264.0
116.952171 176.0
117.001511 484.0
117.022507 416.0
117.072731 204.0
117.167503 144.0
117.19767 220.0
117.32267 128.0
117.346382 56.0
117.391663 88.0
117.42617 212.0
117.475777 132.0
117.499512 48.0
117.773659 184.0
117.822205 280.0
117.880241 156.0
117.950371 148.0
117.998962 1892.0
118.039833 680.0
118.136803 184.0
118.151947 56.0
118.318291 176.0
118.383545 76.0
118.405197 56.0
118.624039 96.0
118.658722 144.0
118.678238 208.0
118.7845 184.0
118.83223 128.0
118.856094 124.0
118.911774 176.0
118.95993 208.0
119.003586 200.0
119.032997 172.0
119.1492 176.0
119.196999 128.0
119.388298 160.0
119.440491 104.0
119.490524 144.0
119.577568 140.0
119.612389 188.0
119.753922 140.0
119.902069 196.0
120.003471 356.0
120.058685 312.0
120.261932 40.0
120.292488 116.0
120.312134 128.0
120.430054 160.0
120.519615 176.0
120.639816 140.0
120.692291 136.0
120.902283 160.0
120.968246 176.0
121.051003 2936.0
121.076324 136.0
121.134369 132.0
121.222008 144.0
121.254875 156.0
121.34256 212.0
121.384216 204.0
121.561897 84.0
121.649689 152.0
121.792419 116.0
121.965996 200.0
122.051125 500.0
122.073593 332.0
122.111115 172.0
122.137505 128.0
122.2211 152.0
122.287117 148.0
122.328941 136.0
122.45665 216.0
122.606461 76.0
122.64769 196.0
122.740929 36.0
122.769592 100.0
122.846794 100.0
122.871056 104.0
122.88871 100.0
123.043198 180.0
123.065842 380.0
123.166862 116.0
123.197784 52.0
123.240196 164.0
123.323738 180.0
123.373566 188.0
123.597961 188.0
123.675415 180.0
123.701973 84.0
123.735184 196.0
123.759537 124.0
123.825966 140.0
123.887993 132.0
123.927864 136.0
123.961105 160.0
124.025314 148.0
124.071922 340.0
124.127357 64.0
124.145096 80.0
124.169487 180.0
124.280449 188.0
124.340317 48.0
124.374718 128.0
124.482391 132.0
124.527573 152.0
124.555687 112.0
124.573456 120.0
124.613647 176.0
124.648994 52.0
124.753456 68.0
124.77124 168.0
124.793472 176.0
124.875748 100.0
124.944702 136.0
124.978683 132.0
125.070351 232.0
125.129425 192.0
125.358841 188.0
125.394852 200.0
125.441307 100.0
125.479523 196.0
125.592934 100.0
125.635315 124.0
125.728668 256.0
125.787056 164.0
125.896744 188.0
125.938889 60.0
125.9925 188.0
126.065643 76.0
126.095284 80.0
126.233719 156.0
126.242584 144.0
126.250183 140.0
126.327827 56.0
126.374809 176.0
126.394943 180.0
126.455368 144.0
126.50013 172.0
126.522514 100.0
126.553864 160.0
126.59417 128.0
126.654633 176.0
126.670319 204.0
126.703918 140.0
126.829407 116.0
127.002869 148.0
127.141151 160.0
127.221954 228.0
127.239914 88.0
127.291557 216.0
127.392624 152.0
127.464523 156.0
127.538681 180.0
127.727554 184.0
127.782616 152.0
127.828796 140.0
127.882812 108.0
127.939079 400.0
128.002014 1048.0
128.074188 144.0
128.098969 180.0
128.162048 132.0
128.180069 172.0
128.262589 164.0
128.281494 144.0
128.368118 180.0
128.441589 188.0
128.549011 196.0
128.58374 116.0
128.640167 120.0
128.671768 136.0
128.691055 132.0
128.716919 180.0
128.748535 68.0
128.786942 168.0
128.813187 96.0
128.830872 116.0
128.850937 124.0
128.881866 168.0
128.914444 300.0
128.929565 216.0
128.960205 220.0
129.022705 94132.0
129.074539 60.0
129.096786 84.0
129.174301 280.0
129.200226 72.0
129.21019 84.0
129.236176 232.0
129.267883 136.0
129.302429 80.0
129.330307 220.0
129.356293 100.0
129.371338 120.0
129.394165 972.0
129.426865 188.0
129.447311 312.0
129.508331 152.0
129.554535 280.0
129.586945 80.0
129.610397 72.0
129.633057 56.0
129.648911 52.0
129.666061 84.0
129.712372 64.0
129.766785 88.0
129.816666 84.0
129.834015 80.0
129.868134 160.0
129.887665 156.0
129.902954 124.0
129.923279 212.0
129.949493 168.0
129.997375 312.0
130.025085 7376.0
130.093475 112.0
130.120255 156.0
130.142776 196.0
130.197922 52.0
130.247879 128.0
130.325119 52.0
130.378677 52.0
130.411484 104.0
130.447479 248.0
130.465454 204.0
130.509705 208.0
130.547882 140.0
130.582001 176.0
130.64386 140.0
130.67981 140.0
130.700287 100.0
130.720764 84.0
130.742508 260.0
130.768555 132.0
130.789124 112.0
130.818176 136.0
130.850555 168.0
130.907425 240.0
130.936584 164.0
130.945007 136.0
130.949539 172.0
131.019333 30620.0
131.06369 148.0
131.090378 140.0
131.097549 96.0
131.10405 140.0
131.126038 104.0
131.14563 36.0
131.19101 64.0
131.219055 276.0
131.250534 156.0
131.292557 72.0
131.329041 52.0
131.349579 56.0
131.374664 72.0
131.399765 204.0
131.417587 64.0
131.422043 52.0
131.440704 104.0
131.476196 92.0
131.519638 120.0
131.545807 116.0
131.59375 180.0
131.641708 44.0
131.70108 196.0
131.72821 128.0
131.733521 160.0
131.846191 248.0
131.945587 164.0
131.961594 72.0
131.993301 168.0
132.022736 1284.0
132.17659 268.0
132.256699 48.0
132.29332 80.0
132.320786 188.0
132.359711 180.0
132.384903 124.0
132.400925 92.0
132.43071 28.0
132.508591 220.0
132.545242 208.0
132.59108 60.0
132.656265 220.0
132.69194 36.0
132.726334 44.0
132.794724 112.0
132.824936 80.0
132.877701 68.0
133.014801 524.0
133.047531 216.0
133.095749 44.0
133.111816 52.0
133.127899 192.0
133.212875 128.0
133.24733 116.0
133.40361 224.0
133.615173 164.0
133.77626 148.0
133.919022 68.0
133.937454 100.0
133.983521 76.0
134.020386 88.0
134.045303 152.0
134.137924 96.0
134.299332 172.0
134.440063 152.0
134.587799 48.0
134.839584 248.0
134.920486 220.0
135.006042 136.0
135.030777 460.0
135.066696 7164.0
135.147949 148.0
135.181473 148.0
135.198471 152.0
135.24202 84.0
135.262848 44.0
135.295258 88.0
135.338287 220.0
135.39946 72.0
135.443466 44.0
135.508331 80.0
135.536133 136.0
135.596375 48.0
135.675186 56.0
135.76561 152.0
135.784164 36.0
135.83287 148.0
135.856277 136.0
135.900162 76.0
136.034576 152.0
136.075104 7960.0
136.175125 80.0
136.22081 164.0
136.306488 56.0
136.397125 188.0
136.425018 108.0
136.671555 192.0
136.757645 116.0
136.820496 72.0
136.929947 152.0
136.957886 144.0
137.076202 556.0
137.111664 52.0
137.137299 140.0
137.236923 200.0
137.356476 168.0
137.494125 112.0
137.52681 156.0
137.549393 136.0
137.706589 204.0
138.010376 88.0
138.036087 128.0
138.088669 152.0
138.195145 92.0
138.302795 28.0
138.419846 60.0
138.513535 180.0
138.569748 160.0
138.669952 152.0
138.699814 192.0
138.717392 100.0
138.740829 40.0
138.773651 76.0
139.059845 124.0
139.080963 128.0
139.123215 376.0
139.172516 140.0
139.210083 136.0
139.311081 152.0
139.445023 152.0
139.649567 48.0
139.680145 188.0
139.703659 72.0
139.786011 96.0
139.80954 184.0
139.939011 132.0
140.19104 116.0
140.249359 140.0
140.266464 72.0
140.371674 80.0
140.436234 64.0
140.478683 104.0
140.602234 188.0
140.634415 136.0
140.804413 100.0
140.943787 160.0
141.025253 116.0
141.149429 132.0
141.537476 108.0
141.584839 248.0
141.648788 32.0
141.781464 32.0
141.843094 100.0
141.862061 116.0
141.902359 248.0
141.996017 200.0
142.014633 328.0
142.274826 164.0
142.382568 212.0
142.605011 76.0
142.621643 64.0
142.873703 120.0
142.978821 180.0
143.011551 4284.0
143.038193 700.0
143.149796 76.0
143.323685 148.0
143.35466 160.0
143.373718 172.0
143.480988 52.0
143.523331 144.0
143.676544 152.0
143.860291 164.0
143.997559 436.0
144.032104 4784.0
144.084778 140.0
144.175568 52.0
144.708984 76.0
144.835907 144.0
144.92215 56.0
145.008972 1512.0
145.035141 792.0
145.058899 184.0
145.080322 80.0
145.173828 160.0
145.245789 48.0
145.320145 168.0
145.649033 236.0
145.685059 88.0
145.713898 228.0
145.762726 148.0
145.811157 92.0
145.84343 84.0
145.882111 184.0
145.995117 112.0
146.030548 1780.0
146.076889 124.0
146.160751 220.0
146.228485 64.0
146.331985 164.0
146.365692 152.0
146.659607 184.0
146.777725 100.0
146.946564 68.0
147.032669 336.0
147.127579 52.0
147.191406 172.0
147.250717 180.0
147.371506 172.0
147.538254 140.0
147.574524 120.0
147.777695 244.0
147.908035 232.0
148.022156 152.0
148.087479 196.0
148.148102 212.0
148.257126 56.0
148.327408 212.0
148.414688 156.0
148.499557 244.0
148.720352 28.0
148.781036 128.0
148.87088 144.0
148.924301 196.0
149.053055 172.0
149.089508 232.0
149.114319 96.0
149.164856 88.0
149.21347 276.0
149.269394 36.0
149.634369 200.0
149.770737 132.0
149.915756 172.0
149.946152 188.0
150.004654 48.0
150.103226 212.0
150.209488 160.0
150.553619 120.0
150.600693 144.0
150.673309 164.0
150.717285 124.0
150.812592 52.0
151.039978 216.0
151.091354 176.0
151.169647 148.0
151.191681 148.0
151.208801 160.0
151.247971 128.0
151.365479 208.0
151.412003 180.0
151.541824 124.0
151.706024 148.0
151.867859 168.0
152.774261 144.0
152.843155 96.0
152.884979 148.0
153.062943 164.0
153.07901 264.0
153.222321 156.0
153.24202 196.0
153.367706 212.0
153.745041 156.0
153.841309 60.0
153.863525 192.0
153.900558 200.0
153.922775 144.0
154.016113 596.0
154.080078 64.0
154.108032 140.0
154.189575 116.0
154.241486 44.0
154.283508 156.0
154.362625 132.0
154.457077 188.0
154.587723 140.0
154.624847 128.0
154.758514 164.0
154.912064 164.0
154.988861 216.0
155.021072 256.0
155.083038 100.0
155.120209 104.0
155.160919 172.0
155.239227 172.0
155.318588 120.0
155.703293 168.0
155.887512 176.0
156.015945 444.0
156.078522 168.0
156.150635 120.0
156.168045 116.0
156.195404 132.0
156.284958 192.0
156.5289 228.0
156.593643 120.0
156.663391 120.0
156.735641 124.0
156.890167 236.0
157.009842 128.0
157.037277 172.0
157.216904 280.0
157.367798 208.0
157.411621 220.0
157.439087 104.0
157.698914 188.0
158.016418 148.0
158.044937 216.0
158.437088 184.0
158.670151 44.0
158.692719 112.0
158.795532 208.0
158.925964 148.0
159.269897 204.0
159.405853 172.0
159.562729 180.0
159.601074 184.0
159.75 136.0
159.906006 88.0
160.013474 424.0
160.089783 164.0
160.434967 140.0
160.513062 160.0
160.815857 128.0
160.955017 160.0
161.022736 304.0
161.053192 140.0
161.247742 152.0
161.26796 120.0
161.457581 152.0
161.51828 132.0
161.546097 92.0
161.733353 140.0
161.948563 132.0
162.008743 180.0
162.092972 132.0
162.272919 124.0
162.539246 124.0
162.562088 228.0
162.605225 144.0
162.939072 388.0
163.01796 252.0
163.061844 680.0
163.09726 340.0
163.176758 156.0
163.19455 68.0
163.50235 36.0
163.527802 160.0
163.639801 128.0
163.795151 164.0
164.098404 148.0
164.251404 324.0
164.601044 160.0
164.677658 192.0
164.899933 156.0
164.981735 208.0
165.339828 172.0
165.416611 260.0
165.723923 224.0
166.034088 212.0
166.313751 84.0
166.46521 52.0
166.508865 88.0
166.570511 172.0
166.693832 184.0
166.742661 64.0
166.902039 136.0
166.945755 200.0
167.079498 104.0
167.102661 148.0
167.205582 156.0
167.272507 208.0
167.627914 88.0
167.798035 124.0
168.074005 336.0
168.12561 92.0
168.203049 120.0
168.293396 140.0
168.385803 128.0
168.443192 144.0
168.673157 164.0
168.691254 140.0
169.02269 368.0
169.061111 184.0
169.154282 160.0
169.221588 188.0
169.283737 232.0
169.335526 64.0
169.54744 196.0
169.737213 144.0
169.864288 228.0
169.903198 156.0
170.030334 172.0
170.121185 88.0
170.173111 172.0
170.191284 200.0
170.362686 104.0
170.409454 144.0
170.46402 56.0
170.541992 164.0
170.583527 192.0
170.667404 388.0
170.755188 164.0
170.818588 92.0
170.853775 208.0
170.935883 148.0
170.957611 212.0
171.004776 604.0
171.043671 15608.0
171.068314 14576.0
171.152512 140.0
171.217133 80.0
171.293213 124.0
171.31282 152.0
171.365509 124.0
171.395569 96.0
171.424225 108.0
171.472824 68.0
171.499802 72.0
171.52066 60.0
171.53891 68.0
171.583221 60.0
171.632767 32.0
171.66304 72.0
171.700562 160.0
171.728851 144.0
171.741638 64.0
171.74881 128.0
171.795273 64.0
171.815323 40.0
171.871521 52.0
171.905624 112.0
171.943192 44.0
172.006882 128.0
172.044739 1696.0
172.072937 1108.0
172.120697 200.0
172.204269 56.0
172.253891 32.0
172.306137 44.0
172.345322 72.0
172.453903 160.0
172.479538 112.0
172.603012 48.0
172.622406 128.0
172.706223 76.0
172.763992 180.0
172.800262 144.0
172.87352 68.0
172.894455 168.0
173.001511 156.0
173.040909 4460.0
173.06488 5340.0
173.115509 300.0
173.158875 60.0
173.337021 76.0
173.410385 144.0
173.475845 88.0
173.504761 36.0
173.572922 112.0
173.701431 40.0
173.751282 36.0
173.822113 92.0
173.869354 52.0
173.906097 236.0
173.958588 184.0
174.04129 520.0
174.072403 300.0
174.107971 220.0
174.197556 72.0
174.581284 116.0
174.599686 76.0
174.778564 148.0
175.03389 116.0
175.059006 612.0
175.115524 188.0
175.141861 80.0
175.181381 56.0
175.236694 136.0
175.260406 160.0
175.323654 108.0
175.452438 116.0
175.626846 216.0
175.721817 76.0
175.779861 64.0
175.79834 32.0
175.882782 236.0
176.049118 92.0
176.286865 180.0
176.374084 228.0
176.397873 160.0
176.450745 160.0
176.575012 64.0
176.728439 176.0
176.760193 188.0
176.998428 80.0
177.118103 188.0
177.544312 208.0
177.722031 108.0
178.109024 180.0
178.377991 124.0
178.569122 132.0
178.816864 148.0
179.129807 372.0
179.744247 104.0
179.850998 132.0
179.891037 100.0
180.027206 136.0
180.134033 108.0
180.540283 136.0
180.623199 92.0
180.861343 112.0
181.035568 152.0
181.064819 184.0
181.246445 120.0
181.348816 176.0
181.461395 184.0
181.523071 176.0
181.732285 176.0
181.764481 172.0
181.826202 72.0
182.008667 192.0
182.074539 144.0
182.220932 168.0
182.271973 184.0
182.293472 184.0
182.640289 220.0
182.669876 128.0
182.73175 180.0
182.790939 212.0
182.944351 228.0
183.104767 216.0
183.235199 144.0
183.29718 216.0
183.456192 84.0
184.005264 164.0
184.0522 136.0
184.130737 96.0
184.230682 160.0
184.249588 32.0
184.33876 220.0
184.498215 128.0
184.774063 116.0
185.429367 184.0
185.787277 156.0
185.912094 192.0
186.028793 360.0
186.077667 208.0
186.13739 328.0
186.175415 36.0
186.432419 192.0
186.737976 212.0
186.778778 128.0
186.996445 192.0
187.036728 564.0
187.072662 176.0
187.24147 172.0
187.320465 128.0
187.361313 216.0
187.805649 88.0
187.827469 220.0
187.942047 68.0
188.042038 100.0
188.18222 120.0
188.305115 120.0
188.332428 144.0
188.359741 72.0
188.411636 148.0
188.597458 176.0
188.648987 248.0
188.704132 152.0
188.85994 188.0
188.955673 112.0
189.054153 7504.0
189.188293 156.0
189.297226 160.0
189.369019 68.0
189.412842 168.0
189.475845 140.0
189.610107 68.0
189.727982 204.0
189.765152 208.0
189.934845 136.0
190.018677 68.0
190.057968 704.0
190.265686 80.0
190.295883 68.0
190.34256 60.0
190.39473 176.0
190.556793 120.0
190.630981 80.0
190.674957 164.0
190.89212 104.0
190.976913 116.0
191.050934 2804.0
191.125931 64.0
191.153458 32.0
191.202988 64.0
191.263062 184.0
191.346115 172.0
191.415085 80.0
191.687653 176.0
191.875076 32.0
192.052185 300.0
192.145355 80.0
192.206055 76.0
192.236404 184.0
192.288834 148.0
192.590393 72.0
192.664368 180.0
192.747253 156.0
193.084503 156.0
193.23111 124.0
193.433121 152.0
193.530014 64.0
193.674026 180.0
193.759903 172.0
194.106354 120.0
194.261658 84.0
194.297729 128.0
194.344894 128.0
194.369873 192.0
194.708542 192.0
194.825195 236.0
194.875198 124.0
194.911316 176.0
195.066956 200.0
195.161484 148.0
195.506409 152.0
195.715179 128.0
195.734665 116.0
196.233414 208.0
196.487198 132.0
196.653 168.0
196.785828 140.0
196.855637 208.0
197.022354 276.0
197.11821 48.0
197.162918 40.0
197.271927 84.0
197.325043 132.0
197.551575 124.0
198.024612 180.0
198.063049 224.0
198.130447 324.0
198.170273 80.0
198.212311 100.0
198.341217 188.0
198.377655 124.0
198.430923 160.0
198.456161 220.0
198.4814 140.0
198.524673 120.0
198.594452 164.0
198.669296 172.0
198.726608 468.0
198.8573 156.0
198.895493 284.0
198.906189 172.0
198.938705 120.0
198.963425 184.0
199.002991 344.0
199.038376 51524.0
199.107162 112.0
199.146484 40.0
199.170319 124.0
199.19577 132.0
199.219666 120.0
199.261093 80.0
199.290771 64.0
199.322495 156.0
199.35553 88.0
199.393723 144.0
199.424637 100.0
199.472427 48.0
199.494354 40.0
199.542877 68.0
199.584885 64.0
199.613876 64.0
199.635498 128.0
199.654053 80.0
199.702057 144.0
199.775604 64.0
199.818329 200.0
199.863342 88.0
199.913452 84.0
199.961838 124.0
200.041077 4968.0
200.119476 52.0
200.147629 44.0
200.181412 52.0
200.294067 52.0
200.316605 48.0
200.353226 200.0
200.389099 120.0
200.418549 160.0
200.516083 124.0
200.626587 84.0
200.71962 60.0
200.774567 124.0
200.832428 132.0
200.866272 44.0
200.909821 72.0
200.950912 64.0
200.987778 184.0
201.035385 13612.0
201.097641 76.0
201.118683 88.0
201.142471 68.0
201.152969 60.0
201.176956 168.0
201.235962 60.0
201.267029 136.0
201.306259 76.0
201.328888 128.0
201.360214 52.0
201.422012 72.0
201.477554 52.0
201.51181 96.0
201.586212 120.0
201.611649 84.0
201.632019 164.0
201.730362 112.0
201.781235 96.0
201.868896 52.0
201.99617 68.0
202.039581 828.0
202.141922 116.0
202.199875 56.0
202.233841 88.0
202.417862 56.0
202.446182 104.0
202.584961 168.0
202.644455 144.0
202.800308 72.0
202.820145 72.0
202.854156 52.0
203.407303 360.0
203.688416 64.0
204.000992 44.0
204.375153 180.0
204.421921 200.0
204.444687 116.0
204.735062 208.0
204.755005 136.0
204.777786 60.0
204.822006 212.0
205.108292 88.0
205.202362 80.0
205.476166 220.0
205.912888 160.0
206.089996 188.0
206.195724 36.0
206.475906 60.0
207.108414 116.0
207.220139 92.0
207.417877 132.0
208.218369 144.0
208.350494 56.0
208.422318 208.0
208.540146 116.0
208.589005 120.0
208.66951 140.0
208.755768 108.0
208.81041 140.0
209.006012 164.0
209.132645 136.0
209.239151 132.0
209.449356 56.0
209.570358 76.0
209.665451 152.0
209.772095 156.0
210.123917 136.0
210.38942 144.0
210.793777 56.0
210.967194 140.0
211.150238 156.0
211.366318 168.0
211.670242 60.0
211.742645 124.0
211.794769 96.0
211.846909 68.0
211.962799 56.0
212.130905 84.0
212.30864 92.0
212.801041 208.0
212.908478 188.0
213.096222 288.0
213.212555 168.0
213.236771 84.0
213.312347 148.0
214.05423 164.0
214.322205 168.0
214.464996 256.0
214.564117 144.0
214.599091 80.0
214.683655 136.0
214.90242 192.0
215.031677 136.0
215.105438 1040.0
215.211807 44.0
215.284805 204.0
215.322769 148.0
215.483429 188.0
215.804932 116.0
216.106873 100.0
216.170547 196.0
216.252487 200.0
216.313965 88.0
216.791367 120.0
217.047989 8464.0
217.103546 468.0
217.149017 72.0
217.229431 56.0
217.35144 48.0
217.562149 136.0
217.631531 56.0
217.780045 160.0
218.046753 440.0
218.100967 264.0
218.22377 220.0
218.417862 76.0
218.61792 184.0
218.756256 208.0
219.045868 3276.0
219.090622 184.0
219.227509 36.0
219.351288 156.0
219.504593 48.0
219.590118 188.0
219.71106 108.0
219.740555 140.0
219.855637 244.0
219.935318 156.0
220.042984 144.0
220.048096 276.0
220.128693 40.0
220.339874 188.0
220.398972 132.0
221.016937 48.0
221.108673 132.0
221.129395 48.0
221.327728 76.0
221.620956 104.0
221.822479 156.0
222.110519 116.0
222.145706 128.0
222.724533 52.0
222.867126 184.0
223.093002 124.0
223.3517 120.0
223.426071 96.0
223.512344 48.0
223.658173 52.0
223.789154 140.0
224.432739 168.0
224.802612 108.0
225.081879 156.0
225.119034 116.0
225.447632 216.0
225.504425 244.0
225.525345 80.0
226.297134 140.0
226.443863 140.0
226.587646 128.0
226.659546 68.0
227.025253 128.0
227.280228 108.0
227.424271 156.0
228.527145 200.0
228.752853 72.0
229.090118 116.0
229.111206 168.0
229.418594 160.0
229.536179 60.0
230.006805 148.0
230.184937 52.0
230.670959 188.0
230.961624 160.0
231.10347 512.0
231.373169 144.0
232.100311 160.0
232.770905 192.0
233.387726 112.0
233.859253 248.0
234.221573 116.0
234.700043 168.0
234.736633 88.0
234.940979 164.0
235.069122 156.0
235.605118 196.0
236.028259 140.0
236.312714 152.0
236.376968 176.0
236.514694 104.0
236.799438 156.0
237.05983 56.0
237.599472 144.0
237.903015 212.0
238.115143 72.0
238.302536 208.0
238.345551 76.0
238.46846 68.0
238.948166 96.0
239.034317 48.0
239.240524 64.0
239.412949 180.0
239.53923 100.0
239.665543 176.0
239.714844 128.0
239.96759 124.0
240.096375 288.0
240.245148 176.0
240.351257 224.0
240.482742 32.0
240.572266 76.0
240.601059 244.0
240.740097 204.0
240.763275 116.0
240.810013 76.0
240.847076 96.0
240.875809 196.0
240.946152 328.0
241.02803 240.0
241.08606 70148.0
241.158585 44.0
241.182617 88.0
241.250854 36.0
241.296448 180.0
241.324677 132.0
241.351135 76.0
241.358536 96.0
241.372375 160.0
241.42688 60.0
241.469269 144.0
241.482117 96.0
241.534409 76.0
241.596527 156.0
241.645721 92.0
241.668274 88.0
241.718079 76.0
241.769333 108.0
241.811737 96.0
241.842682 52.0
241.907684 60.0
241.952179 184.0
242.034622 40.0
242.086807 7064.0
242.147141 104.0
242.196945 240.0
242.238113 68.0
242.261948 80.0
242.462112 36.0
242.561295 76.0
242.605133 56.0
242.668411 116.0
242.700806 176.0
242.760376 56.0
242.889969 76.0
242.968674 192.0
242.97818 120.0
242.98761 84.0
243.044769 364.0
243.082199 16136.0
243.150253 36.0
243.15506 64.0
243.237503 44.0
243.259232 76.0
243.28717 48.0
243.33548 100.0
243.375717 116.0
243.42598 56.0
243.443878 80.0
243.499527 56.0
243.521439 60.0
243.548004 48.0
243.615097 100.0
243.638092 124.0
243.653366 48.0
243.661697 120.0
243.731003 128.0
243.777466 148.0
243.83638 44.0
243.902222 108.0
243.926224 116.0
243.938629 84.0
243.973709 60.0
244.025208 92.0
244.081772 984.0
244.188263 60.0
244.312683 76.0
244.33757 32.0
244.410889 92.0
244.486923 48.0
244.567841 68.0
244.661224 88.0
244.709839 104.0
244.826248 60.0
245.034943 96.0
245.094147 180.0
245.143997 44.0
245.296722 124.0
245.340363 40.0
245.476501 88.0
245.592941 120.0
245.674042 68.0
245.813446 128.0
245.973602 52.0
246.032913 124.0
246.226517 48.0
246.413925 80.0
246.448303 52.0
247.011017 144.0
247.104874 72.0
247.28949 40.0
247.350937 88.0
249.111252 160.0
250.555191 108.0
250.908157 196.0
251.558014 64.0
251.652725 80.0
251.962234 108.0
252.031738 88.0
252.486938 148.0
253.024841 84.0
253.632324 52.0
253.661591 84.0
253.740845 72.0
253.985016 48.0
254.467377 128.0
255.137711 80.0
255.392105 124.0
255.449356 92.0
256.124176 156.0
256.35675 156.0
256.914734 76.0
257.361542 48.0
258.2883 156.0
258.409851 84.0
258.525055 176.0
258.733093 80.0
258.902802 32.0
258.954041 204.0
259.043732 164.0
259.094757 11696.0
259.150757 68.0
259.248779 104.0
259.312866 56.0
259.421875 76.0
259.527649 152.0
259.736115 52.0
259.970306 56.0
260.096039 748.0
260.304169 120.0
260.339478 136.0
260.368378 68.0
260.503296 36.0
260.609314 96.0
260.662628 128.0
260.747467 32.0
261.09314 2988.0
261.220123 76.0
261.290131 140.0
261.619171 88.0
261.66745 36.0
261.754395 44.0
261.854218 28.0
261.973389 116.0
262.013123 72.0
262.09256 328.0
262.23761 44.0
263.105316 36.0
263.386261 76.0
263.916229 52.0
264.543884 88.0
267.013062 100.0
267.328644 92.0
269.124664 80.0
270.812073 68.0
273.372803 52.0
274.097229 100.0
275.106445 152.0
284.078278 132.0
286.424561 72.0
286.491943 44.0
290.280762 48.0
292.635437 124.0
292.792084 72.0
293.425873 124.0
294.087616 152.0
294.517853 92.0
295.403137 156.0
295.563934 144.0
295.875397 132.0
295.906219 48.0
297.153717 36.0
300.130737 540.0
300.249542 144.0
301.143402 148.0
301.205566 104.0
301.233215 40.0
301.281555 76.0
301.320953 80.0
302.133759 360.0
304.7565 44.0
305.156189 100.0
313.363647 40.0
314.322693 40.0
314.95108 88.0
317.797302 100.0
319.965271 52.0
322.977081 72.0
324.244507 88.0
325.471344 48.0
326.545837 52.0
332.757538 60.0
336.547699 64.0
338.994781 68.0
340.99118 148.0
344.221985 52.0
350.759094 92.0
358.185883 108.0
361.375854 80.0
364.219025 104.0
366.718811 40.0
367.966187 60.0
368.730164 40.0
368.990082 84.0
370.482605 80.0
376.224152 92.0
376.745514 32.0
378.125885 92.0
379.772522 48.0
380.513672 76.0
387.518372 68.0
394.824219 124.0
396.998322 100.0
397.442596 96.0
404.644745 76.0
405.141357 48.0
410.966888 68.0
411.209015 108.0
415.960846 44.0
418.465057 116.0
422.894196 116.0
424.984131 64.0
431.847168 88.0
445.057709 72.0
445.549103 40.0
447.121704 100.0
449.760101 136.0
450.87088 80.0
451.466949 68.0
458.322418 56.0
459.008667 100.0
461.934204 44.0
469.959381 56.0
475.433228 92.0
478.362671 104.0
482.135437 140.0
485.953735 68.0
488.198303 76.0
493.953979 32.0
497.867554 64.0
498.467255 72.0
500.482239 48.0
502.175629 132.0
508.919434 108.0
515.075623 96.0
528.226135 76.0
529.617615 100.0
536.846985 92.0
537.594299 112.0
543.846741 48.0
544.278503 68.0
548.58197 100.0
557.216309 160.0
557.3526 56.0
558.048218 44.0
567.320435 100.0
567.875183 124.0
569.935486 40.0
575.322021 68.0
579.616943 96.0
605.266296 104.0
621.750916 68.0
625.309326 84.0
626.907959 92.0
627.615784 52.0
629.207336 72.0
632.121277 96.0
637.622498 136.0
644.829712 100.0
650.710571 48.0
652.39209 152.0
657.28656 92.0
668.009644 108.0
683.63501 68.0
695.908264 40.0
698.572693 40.0
701.985596 64.0
702.803223 84.0
705.919678 88.0
711.684753 96.0
715.464844 88.0
724.16864 164.0
724.725769 112.0
727.144226 76.0
727.213989 204.0
731.266479 132.0
733.749695 72.0
756.447144 128.0
760.887512 60.0
773.257019 112.0
778.212708 84.0
779.995972 48.0
786.105591 100.0
796.345032 208.0
809.445557 96.0
811.388916 220.0
813.028198 168.0
825.595459 160.0
829.781067 40.0
843.724915 176.0
851.733398 72.0
853.953674 196.0
862.220825 152.0
866.357605 136.0
870.439697 216.0
870.6922 188.0
878.862732 104.0
878.915833 64.0
881.32489 76.0
892.545288 72.0
893.699158 184.0
894.216919 184.0
897.427673 232.0
898.978577 168.0
904.758362 188.0
905.956055 60.0
907.981995 124.0
912.395325 160.0
913.152954 96.0
914.633118 152.0
917.253296 152.0
917.512512 216.0
919.961792 172.0
920.148926 216.0
920.88562 48.0
923.133789 128.0
923.666016 136.0
924.773254 120.0
925.560242 28.0
926.462646 224.0
928.608398 100.0
930.337769 160.0
931.023865 184.0
931.388245 172.0
931.649475 148.0
934.34259 132.0
934.567688 40.0
935.437988 200.0
935.681519 188.0
937.990295 176.0
939.161011 152.0
944.864014 172.0
947.339661 212.0
950.619812 156.0
951.804504 192.0
953.444702 104.0
953.90564 136.0
956.415283 208.0
956.630737 196.0
961.358093 252.0
962.370422 152.0
963.222656 172.0
964.176392 152.0
967.576111 152.0
967.960022 108.0
969.40332 168.0
970.512878 148.0
972.528992 124.0
972.578674 172.0
975.429749 132.0
976.810181 168.0
981.755432 188.0
983.414917 88.0
984.301392 176.0
984.919678 184.0
985.788086 48.0
985.869324 92.0
986.43811 172.0
989.728882 140.0
992.981201 156.0
995.887085 168.0
996.628418 160.0
998.268982 128.0
998.979675 92.0
1005.507385 192.0
1007.401611 156.0
1011.904358 156.0
1012.92395 148.0
1014.2229 176.0
1014.482788 216.0
1015.288025 168.0
1019.172913 108.0
1019.503296 112.0
1019.706665 88.0
1021.429749 260.0
1023.561768 128.0
1023.803772 96.0
1024.918457 216.0
1026.276123 168.0
1026.748047 136.0
1027.481567 204.0
1030.124512 64.0
1033.039429 212.0
1036.720947 148.0
1037.400269 96.0
1040.768555 132.0
1040.890503 136.0
1041.552002 144.0
1043.505615 148.0
1043.685547 56.0
1045.364502 48.0
1045.744141 236.0
1046.439331 200.0
1048.22998 200.0
1048.449097 128.0
1056.345459 200.0
1057.270752 80.0
1058.105713 224.0
1058.694946 232.0
1058.915161 112.0
1059.303711 196.0
1060.346924 248.0
1063.161499 164.0
1063.343262 212.0
1063.881958 180.0
1064.609253 152.0
1064.661133 160.0
1064.797485 192.0
1065.583496 96.0
1065.6875 176.0
1066.467285 168.0
1068.613281 180.0
1068.873535 232.0
1072.122925 152.0
1073.315796 84.0
1073.694092 172.0
1076.715698 56.0
1078.290161 128.0
1078.773804 192.0
1080.029297 136.0
1081.370605 168.0
1083.514893 180.0
1083.564209 236.0
1083.800171 144.0
1084.783203 228.0
1086.061768 120.0
1086.973755 116.0
1087.203369 128.0
1089.245239 120.0
1089.974487 68.0
1090.230835 132.0
1090.736816 88.0
1092.196655 180.0
1092.68335 212.0
1093.815308 164.0
1096.126953 128.0
1098.645508 140.0
1101.134033 188.0
1103.393799 160.0
1108.940918 148.0
1109.139771 116.0
1109.882324 40.0
1110.180664 164.0
1110.603516 156.0
1110.797485 136.0
1110.843994 80.0
1111.80603 204.0
1112.244019 156.0
1112.575928 68.0
1112.841553 192.0
1113.020752 200.0
1113.99707 208.0
1114.78772 156.0
1115.21106 188.0
1116.037354 108.0
1116.449707 92.0
1116.935181 196.0
1118.711914 176.0
1118.778442 152.0
1119.291138 200.0
1119.637329 116.0
1119.970215 196.0
1122.242798 140.0
1122.849609 120.0
1124.297363 52.0
1124.470825 172.0
1125.044922 140.0
1125.745972 160.0
1126.160034 176.0
1126.994995 128.0
1127.195435 244.0
1127.329102 160.0
1127.442749 108.0
1129.093994 264.0
1129.655884 104.0
1131.382324 56.0
1133.023071 160.0
1133.136963 184.0
1133.746826 164.0
1135.234985 88.0
1135.335571 160.0
1135.818481 148.0
1135.892212 176.0
1137.032837 80.0
1137.818237 176.0
1139.671875 156.0
1141.298462 88.0
1141.755737 100.0
1142.179443 168.0
1142.536011 116.0
1142.745483 140.0
1143.249268 152.0
1143.404053 152.0
1144.366577 156.0
1145.444092 120.0
1145.598999 212.0
1145.888672 136.0
1146.987183 88.0
1147.047852 152.0
1147.499512 148.0
1147.674805 92.0
1148.235107 232.0
1149.226074 164.0
1149.401489 156.0
1149.69165 68.0
1151.676636 164.0
1151.912964 152.0
1152.041382 160.0
1152.143555 156.0
1152.494019 160.0
1152.90625 208.0
1153.325195 112.0
1154.021484 148.0
1154.278442 136.0
1155.353882 164.0
1155.414795 176.0
1156.605713 44.0
1156.741089 200.0
1156.971313 156.0
1157.154053 120.0
1157.688965 168.0
1158.339233 68.0
1158.704956 184.0
1158.894653 140.0
1160.467163 148.0
1161.993164 188.0
1162.067749 152.0
1163.669556 144.0
1163.866455 156.0
1163.968262 144.0
1164.144775 188.0
1164.783203 200.0
1165.075317 148.0
1165.442139 160.0
1165.503296 172.0
1166.291626 172.0
1166.346069 224.0
1166.48877 112.0
1166.66687 140.0
1166.733521 196.0
1166.883057 212.0
1167.787476 196.0
1169.964966 192.0
1170.584473 108.0
1171.21106 196.0
1171.313232 196.0
1172.0354 160.0
1172.423828 156.0
1172.846313 112.0
1173.364502 164.0
1173.909912 180.0
1176.625488 192.0
1176.85083 212.0
1177.779541 176.0
1178.230469 148.0
1179.973145 140.0
1180.178223 48.0
1181.135742 208.0
1182.237183 128.0
1182.421997 164.0
1182.798462 164.0
1185.298096 144.0
1185.435181 236.0
1185.805298 140.0
1186.353638 144.0
1187.148315 176.0
1187.327271 124.0
1188.534546 76.0
1189.680664 152.0
1190.181885 160.0
1190.779297 168.0
1191.026611 136.0
1191.589966 164.0
1191.912842 148.0
1192.600098 212.0
1193.50061 160.0
1193.720703 160.0
1193.858154 124.0
1193.968262 164.0
1194.759277 144.0
1194.924316 92.0
1195.798218 136.0
1196.087402 208.0
1196.500366 100.0
1197.734985 192.0
1198.594116 124.0
1199.145264 140.0
1199.662476 152.0
1200.25354 224.0
1201.131226 48.0
1202.166138 204.0
1202.870117 132.0
1203.394775 128.0
1203.912598 156.0
1204.693115 112.0
1204.831299 156.0
1205.1698 64.0
1205.435791 20.0
1205.805542 124.0
1206.254761 160.0
1206.489868 108.0
1206.759521 52.0
1207.5271 192.0
1207.616943 204.0
1207.907471 132.0
1208.03894 144.0
1208.2948 188.0
1208.488525 184.0
1208.855347 176.0
1209.478149 80.0
1209.665039 84.0
1210.443359 168.0
1210.772827 116.0
1210.883667 164.0
1211.874268 136.0
1212.421753 180.0
1212.518677 192.0
1213.870483 176.0
1214.293579 148.0
1214.501587 152.0
1215.146729 152.0
1215.521484 168.0
1217.201294 116.0
1217.527588 280.0
1218.277832 144.0
1218.361084 228.0
1218.4375 132.0
1219.125488 96.0
1219.827393 112.0
1220.126343 160.0
1220.905151 124.0
1223.187134 192.0
1223.514404 108.0
1223.925171 148.0
1224.40564 120.0
1226.105469 148.0
1226.69104 160.0
1226.753662 180.0
1227.430054 224.0
1228.441284 160.0
1228.552856 176.0
1228.922607 144.0
1229.327393 228.0
1229.787964 248.0
1230.130005 148.0
1230.185791 160.0
1230.45813 212.0
1230.849121 148.0
1231.002686 124.0
1231.770996 136.0
1232.092285 204.0
1232.336792 108.0
1232.644287 164.0
1233.538818 72.0
1233.895386 140.0
1234.769409 64.0
1234.909302 96.0
1235.343018 148.0
1235.965698 176.0
1236.882446 36.0
1237.35144 68.0
1238.170776 172.0
1239.571777 128.0
1239.929199 128.0
1240.076416 132.0
1240.160522 180.0
1240.665161 100.0
1241.057739 180.0
1241.148926 124.0
1241.464478 124.0
1242.439453 156.0
1243.000732 80.0
1243.779663 176.0
1244.650269 204.0
1245.556152 184.0
1245.74585 92.0
1245.83374 124.0
1246.06897 32.0
1246.237671 92.0
1247.446411 188.0
1247.615112 200.0
1248.859741 108.0
1252.012695 120.0
1253.999512 68.0
1254.069946 40.0
1254.873535 144.0
1255.063965 148.0
1255.296631 164.0
1256.008911 156.0
1257.610596 224.0
1258.062378 224.0
1258.514282 188.0
1260.350708 152.0
1260.802856 136.0
1261.057373 220.0
1262.036011 164.0
1262.259155 148.0
1263.751587 208.0
1263.900146 176.0
1264.671509 196.0
1265.594482 124.0
1265.873535 184.0
1266.137085 88.0
1266.243286 68.0
1266.356689 180.0
1266.533691 172.0
1266.682495 200.0
1266.946289 180.0
1267.291748 168.0
1267.957764 256.0
1268.205933 200.0
1268.397217 208.0
1268.730469 220.0
1269.240845 180.0
1269.658325 136.0
1270.013916 164.0
1270.290527 192.0
1271.085205 132.0
1271.177368 216.0
1272.16394 128.0
1272.625366 224.0
1272.966187 116.0
1273.562744 196.0
1273.747437 180.0
1274.280273 184.0
1274.507568 236.0
1274.80603 144.0
1274.92688 140.0
1275.346191 220.0
1275.914917 188.0
1276.995728 100.0
1277.045532 216.0
1278.105469 200.0
1278.197998 152.0
1278.489746 136.0
1278.625 132.0
1279.593018 152.0
1279.728271 116.0
1280.98877 168.0
1281.081421 144.0
1281.359253 144.0
1281.565918 100.0
1281.915039 112.0
1282.406738 220.0
1282.649048 88.0
1282.763184 68.0
1283.903931 132.0
1284.003784 224.0
1284.681396 176.0
1286.144165 172.0
1286.244873 124.0
1286.44397 48.0
1286.758179 108.0
1288.043579 124.0
1288.143555 92.0
1288.60791 156.0
1288.879395 212.0
1289.372437 124.0
1289.536865 172.0
1289.715576 152.0
1289.887695 100.0
1289.987183 152.0
1290.130127 68.0
1290.20874 188.0
1290.280273 236.0
1290.451904 160.0
1290.787964 192.0
1291.410034 116.0
1291.510254 148.0
1291.717651 152.0
1292.411621 208.0
1292.905396 164.0
1293.105713 160.0
1294.193848 200.0
1294.788208 132.0
1295.038818 152.0
1295.685425 228.0
1295.848267 40.0
1296.514771 52.0
1297.195557 172.0
1297.554077 96.0
1297.977051 148.0
1298.328491 160.0
1298.414551 164.0
1298.50769 216.0
1298.801758 104.0
1299.354126 128.0
1300.42334 176.0
1302.304443 220.0
1302.598999 148.0
1302.886353 124.0
1303.346191 180.0
1303.662354 116.0
1304.043213 140.0
1305.107178 160.0
1306.689453 160.0
1307.826416 148.0
1308.186279 224.0
1308.330322 140.0
1308.575073 104.0
1308.913452 168.0
1309.043091 56.0
1309.849731 88.0
1310.029785 200.0
1310.354004 136.0
1310.454834 164.0
1311.211426 120.0
1311.910645 120.0
1312.083618 236.0
1312.18457 148.0
1312.451416 196.0
1312.992188 148.0
1314.117432 228.0
1314.427734 176.0
1315.149414 144.0
1315.474243 136.0
1315.625854 112.0
1315.683594 176.0
1316.210693 92.0
1317.236206 196.0
1318.38501 120.0
1318.731812 180.0
1319.042725 184.0
1319.418579 124.0
1319.599365 152.0
1319.765625 156.0
1320.011475 136.0
1320.626221 128.0
1320.901001 144.0
1320.95166 116.0
1321.089111 104.0
1321.718506 216.0
1321.957275 152.0
1322.094849 156.0
1322.377075 140.0
1322.463989 164.0
1323.412231 188.0
1323.542603 160.0
1323.636719 172.0
1324.976685 164.0
1325.650513 172.0
1325.954834 156.0
1326.172241 260.0
1326.360718 168.0
1327.165405 124.0
1327.723755 176.0
1328.006592 236.0
1328.158936 128.0
1328.289551 220.0
1328.993164 92.0
1329.290771 100.0
1329.363281 116.0
1329.530151 160.0
1330.248779 152.0
1330.916626 216.0
1331.817139 100.0
1332.187622 48.0
1332.710693 124.0
1333.226685 60.0
1334.360596 196.0
1334.694946 148.0
1335.174927 156.0
1335.247681 140.0
1335.502197 188.0
1336.149658 160.0
1336.4552 124.0
1336.54248 200.0
1336.862671 140.0
1337.656006 128.0
1337.932617 144.0
1338.238403 172.0
1338.289429 148.0
1338.879272 112.0
1339.615723 196.0
1340.336182 28.0
1340.540161 216.0
1340.72229 136.0
1340.78064 168.0
1342.749023 84.0
1342.967896 80.0
1343.026245 200.0
1343.233765 200.0
1343.300049 204.0
1343.463867 184.0
1343.595215 176.0
1343.70459 176.0
1344.018311 152.0
1345.237183 116.0
1345.463501 72.0
1345.572998 184.0
1346.010986 100.0
1346.901978 152.0
1347.36853 152.0
1348.553345 100.0
1348.874878 152.0
1349.064941 120.0
1349.62793 176.0
1351.00293 228.0
1351.280884 120.0
1351.332153 160.0
1351.624756 160.0
1351.776611 196.0
1352.078491 164.0
1352.532227 148.0
1354.121094 128.0
1354.357788 168.0
1355.062256 120.0
1355.527588 152.0
1355.600952 140.0
1355.806152 236.0
1356.026001 160.0
1356.773682 148.0
1356.876221 140.0
1357.022949 172.0
1357.104004 180.0
1357.484863 156.0
1357.616821 132.0
1358.422974 180.0
1358.562988 188.0
1358.74646 152.0
1358.937134 164.0
1359.355469 148.0
1359.428833 100.0
1359.59021 120.0
1359.671021 144.0
1359.854492 120.0
1360.059937 156.0
1360.676636 164.0
1361.46228 32.0
1361.557739 84.0
1361.609131 132.0
1362.248169 128.0
1362.365723 168.0
1363.173828 188.0
1363.568604 184.0
1364.724854 160.0
1364.827759 144.0
1365.026245 208.0
1365.151245 188.0
1365.335205 220.0
1365.467529 196.0
1365.916138 132.0
1366.239868 172.0
1366.394409 128.0
1366.585693 132.0
1366.960938 208.0
1367.152222 36.0
1367.21106 144.0
1367.365601 128.0
1367.792603 212.0
1368.38147 76.0
1368.646484 124.0
1368.727539 184.0
1369.760742 160.0
1370.797729 108.0
1370.871094 164.0
1370.974243 220.0
1371.232178 144.0
1371.89563 104.0
1372.278931 124.0
1372.684448 40.0
1372.795044 180.0
1374.868042 164.0
1375.067261 128.0
1375.229614 56.0
1375.768555 168.0
1376.565918 152.0
1376.676636 32.0
1376.970093 196.0
1378.068604 136.0
1378.190918 192.0
1379.942627 152.0
1380.075684 124.0
1380.415894 180.0
1380.497192 168.0
1380.704224 172.0
1381.577026 252.0
1382.02832 112.0
1382.353882 116.0
1383.175415 180.0
1383.789917 116.0
1384.011963 48.0
1384.15271 72.0
1384.352661 168.0
1384.552612 88.0
1384.60437 164.0
1384.65625 48.0
1384.952515 148.0
1385.374756 212.0
1385.559937 152.0
1386.538086 280.0
1386.656616 280.0
1387.064209 64.0
1387.37561 156.0
1387.442383 184.0
1387.879761 156.0
1388.272705 128.0
1388.969971 124.0
1389.036621 140.0
1389.400146 136.0
1389.600464 136.0
1389.726562 160.0
1389.986328 136.0
1390.186646 80.0
1390.260864 168.0
1391.166382 44.0
1391.396484 124.0
1391.663818 136.0
1391.790039 176.0
1392.413818 120.0
1392.569824 100.0
1393.141724 164.0
1393.345581 144.0
1393.594849 148.0
1393.744385 228.0
1393.869873 100.0
1394.219116 176.0
1395.118408 168.0
1396.018066 64.0
1396.672607 140.0
1397.156128 92.0
1397.260254 136.0
1397.475952 136.0
1397.8927 164.0
1398.04895 124.0
1398.711304 160.0
1399.220215 56.0
1399.563232 216.0
1399.977051 100.0
1400.364258 152.0
1400.714355 132.0
1400.893188 140.0
1401.089355 132.0
1401.818359 108.0
1402.040649 128.0
1403.591064 156.0
1403.762573 28.0
1405.567749 176.0
1405.746826 148.0
1405.873779 112.0
1406.105103 136.0
1406.690308 188.0
1406.978394 236.0
1407.456299 48.0
1407.69519 100.0
1407.807251 144.0
1408.329956 144.0
1408.627075 128.0
1408.740845 144.0
1408.905151 268.0
1408.964966 184.0
1409.301147 136.0
1409.390747 104.0
1409.622437 144.0
1409.839111 92.0
1410.19043 304.0
1410.825806 132.0
1411.438843 172.0
1411.521729 196.0
1412.440918 116.0
1412.942139 148.0
1413.054443 172.0
1413.256348 156.0
1413.525757 136.0
1414.184326 120.0
1414.293945 200.0
1414.790649 92.0
1415.015259 148.0
1415.846436 112.0
1415.913818 216.0
1416.283081 240.0
1416.542969 136.0
1416.910034 220.0
1417.055054 172.0
1417.247192 164.0
1417.314575 140.0
1417.61438 192.0
1417.764282 196.0
1418.453735 196.0
1419.026978 200.0
1419.203491 240.0
1419.998291 208.0
1420.208374 112.0
1420.280762 192.0
1420.580322 184.0
1420.928467 180.0
1421.116089 84.0
1421.483765 212.0
1422.001587 108.0
1422.234253 128.0
1422.309326 184.0
1422.557007 144.0
1422.759644 156.0
1422.939819 108.0
1423.108398 200.0
1423.608154 36.0
1424.344116 136.0
1424.644653 144.0
1425.192993 48.0
1425.305786 104.0
1425.718994 148.0
1426.085083 212.0
1426.402954 276.0
1426.463135 128.0
1426.711182 168.0
1426.771362 300.0
1427.039429 200.0
1427.350342 112.0
1427.417969 220.0
1427.771362 156.0
1427.959473 104.0
1428.335449 92.0
1428.418213 76.0
1428.756714 168.0
1429.009033 236.0
1429.178101 192.0
1429.298462 152.0
1429.418823 236.0
1429.591919 80.0
1429.659668 88.0
1429.727417 128.0
1429.832764 164.0
1430.216553 168.0
1430.269287 80.0
1430.322021 28.0
1430.460815 228.0
1430.64563 160.0
1432.453003 60.0
1432.641235 128.0
1433.27417 120.0
1434.155884 124.0
1434.969971 96.0
1435.158447 152.0
1435.331909 112.0
1435.422363 140.0
1435.801514 224.0
1435.882446 192.0
1435.988037 144.0
1436.116211 64.0
1436.764893 136.0
1436.88562 200.0
1437.044678 108.0
1437.293091 216.0
1437.40625 204.0
1437.901733 328.0
1439.029053 184.0
1439.248047 200.0
1439.429199 88.0
1439.633179 136.0
1439.708618 224.0
1439.824097 152.0
1439.874756 412.0
1440.335571 124.0
1440.61499 160.0
1440.766113 212.0
1441.937256 156.0
1442.292969 152.0
1442.783936 192.0
1443.030518 200.0
1443.358521 160.0
1443.562622 172.0
1446.180298 168.0
1446.26355 204.0
1446.861572 176.0
1447.10376 148.0
1447.164429 152.0
1447.364258 228.0
1447.497559 176.0
1447.633789 44.0
1447.997314 88.0
1448.156372 164.0
1448.497192 160.0
1448.550293 160.0
1449.868652 80.0
1450.103516 144.0
1450.732666 176.0
1451.002441 224.0
1451.073853 152.0
1451.19519 192.0
1451.369507 200.0
1451.56665 156.0
1451.801758 132.0
1452.135498 164.0
1452.393311 184.0
1452.514648 124.0
1452.651245 124.0
1453.174683 120.0
1453.394653 176.0
1453.485718 104.0
1453.607178 208.0
1454.18396 188.0
1454.421143 176.0
1455.231445 144.0
1455.52002 152.0
1456.492065 140.0
1456.879517 236.0
1458.12561 136.0
1459.081177 224.0
1459.205078 156.0
1459.828491 72.0
1459.9198 140.0
1460.125122 196.0
1460.376099 204.0
1460.885742 168.0
1461.244385 164.0
1461.730225 148.0
1462.18689 184.0
1462.811035 164.0
1463.648438 160.0
1463.937866 160.0
1464.16626 180.0
1464.443359 216.0
1465.00415 252.0
1465.461182 108.0
1466.032715 204.0
1466.246094 148.0
1466.642456 220.0
1467.77832 208.0
1468.487549 108.0
1468.876587 196.0
1469.158813 164.0
1469.616577 164.0
1470.539917 156.0
1470.700195 108.0
1471.056519 248.0
1471.448242 168.0
1471.784302 172.0
1471.898804 64.0
1472.10498 148.0
1472.379883 152.0
1472.502075 232.0
1472.692993 96.0
1472.74646 76.0
1472.975586 120.0
1473.097778 200.0
1473.288818 116.0
1474.15979 116.0
1474.809448 112.0
1474.931763 116.0
1475.222168 172.0
1475.451538 160.0
1475.505127 132.0
1475.89502 176.0
1476.047974 184.0
1476.239136 176.0
1477.401733 144.0
1477.569946 156.0
1477.860718 148.0
1477.944824 120.0
1478.189697 136.0
1478.350464 184.0
1478.4729 116.0
1479.406616 80.0
1479.498535 104.0
1479.697632 76.0
1479.835449 92.0
1480.241211 204.0
1480.700684 220.0
1481.030029 240.0
1481.428345 112.0
1483.022095 140.0
1483.081543 160.0
1483.428345 168.0
1484.018677 208.0
1484.248779 128.0
1484.463379 176.0
1484.51709 132.0
1484.586182 160.0
1484.954224 100.0
1485.214966 180.0
1485.406738 200.0
1485.729004 176.0
1485.920776 164.0
1486.012817 204.0
1486.066528 160.0
1486.21228 60.0
1486.68042 220.0
1486.810669 132.0
1487.202271 172.0
1487.616821 164.0
1487.785645 52.0
1488.008301 132.0
1488.338501 160.0
1488.806885 148.0
1491.311401 112.0
1491.672729 132.0
1492.664429 208.0
1492.795166 164.0
1492.941284 176.0
1493.125854 72.0
1493.89502 124.0
1493.987305 180.0
1494.325806 288.0
1494.718262 36.0
1494.864502 108.0
1494.918335 136.0
1495.318481 128.0
1495.393799 196.0
1495.980469 212.0
1497.212402 152.0
1497.597534 148.0
1498.037476 160.0
1498.290771 152.0
1498.733032 224.0
1498.991943 124.0
1500.479492 248.0
1501.159424 148.0
1501.574463 148.0
1501.906128 188.0
1502.014038 88.0
1502.438354 184.0
1502.885864 128.0
1503.016968 184.0
1504.058838 76.0
1505.101074 156.0
1505.240112 116.0
