>compound MLS001076518-01!
>formula C16H24N2
>ionization [M+H]+
>parentmass 245.202774
#inchi InChI=1S/C16H24N2/c1-11-8-13(16(3,4)5)9-12(2)14(11)10-15-17-6-7-18-15/h8-9H,6-7,10H2,1-5H3,(H,17,18)
#inchikey HUCJFAOMUPXHDK
#origInchi InChI=1S/C16H24N2.ClH/c1-11-8-13(16(3,4)5)9-12(2)14(11)10-15-17-6-7-18-15;/h8-9H,6-7,10H2,1-5H3,(H,17,18);1H
#Ion_Source LC-ESI
#Instrument qTof
#Compound_Source NIH Pharmacologically Active Library
#PI Dorrestein
#Data_Collector VP/LMS
#Scan -1
#Precursor_MZ 245.204
#ExactMass 244.194
#Charge 1
#CAS_Number N/A
#Pubmed_ID N/A
#Smiles Cc1cc(cc(C)c1CC2=NCCN2)C(C)(C)C.Cl
#INCHI_AUX N/A
#Library_Class 1
#SpectrumID CCMSLIB00000084739
#IonMode Positive
#UpdateWorkflowName UPDATE-SINGLE-ANNOTATED-GOLD
#LibraryQualityString Gold
#TaskID d252d724072548979f1f6f1ced849daf
##Scan# 1718
#SpectrumFile p3-A02_GA2_01_18224.mzXML
#LibraryName Pharm_Active_Library.mgf
#MQScore -1
#Organism Pharm_Active_Library
#TIC_Query 0
#RT_Query -1
#MZErrorPPM -1
#SharedPeaks 0
#MassDiff 0
#LibMZ -1
#SpecMZ 245.204
#SpecCharge 0
#internalFilename spec-00000.mgf

>collision 10
44.895172 196.0
44.92585 48.0
44.936523 176.0
45.002216 220.0
45.025963 152.0
45.067375 116.0
45.094101 192.0
45.118359 192.0
45.12886 48.0
45.164967 104.0
45.176868 196.0
45.207024 188.0
45.230076 216.0
45.280075 148.0
45.306824 128.0
45.31015 124.0
45.361813 204.0
45.379238 140.0
45.427578 192.0
45.455696 144.0
45.481197 164.0
45.603062 220.0
45.614182 216.0
45.662586 272.0
45.683292 172.0
45.733898 124.0
45.75005 176.0
45.816605 200.0
45.933323 156.0
45.945465 176.0
45.976501 156.0
45.988647 156.0
46.03455 156.0
46.044003 108.0
46.062912 108.0
46.088585 152.0
46.116619 188.0
46.131275 176.0
46.142647 120.0
46.154816 176.0
46.194038 172.0
46.248775 160.0
46.27924 168.0
46.281029 160.0
46.286404 212.0
46.321003 96.0
46.336189 52.0
46.361935 104.0
46.437592 184.0
46.456848 108.0
46.509769 192.0
46.525482 188.0
46.554577 184.0
46.587173 104.0
46.604836 152.0
46.652405 144.0
46.66328 128.0
46.686398 52.0
46.719044 200.0
46.747616 180.0
46.790768 188.0
46.807514 232.0
46.827831 148.0
46.85218 156.0
46.862644 204.0
46.890614 196.0
46.919239 144.0
46.939693 160.0
46.954693 152.0
46.967705 160.0
46.987431 160.0
47.020184 152.0
47.03656 148.0
47.070694 92.0
47.110302 100.0
47.119865 140.0
47.129288 116.0
47.147194 164.0
47.173164 156.0
47.205978 180.0
47.248383 44.0
47.270275 48.0
47.282589 148.0
47.304489 60.0
47.314072 160.0
47.35022 212.0
47.353436 204.0
47.358265 280.0
47.393513 148.0
47.434628 80.0
47.477131 200.0
47.507309 40.0
47.518284 216.0
47.536659 200.0
47.577877 260.0
47.588284 236.0
47.600639 100.0
47.628109 136.0
47.6707 152.0
47.727058 96.0
47.751812 140.0
47.773823 88.0
47.786205 144.0
47.80547 204.0
47.827488 432.0
47.870171 192.0
47.901848 200.0
47.919758 104.0
47.939648 164.0
47.962479 208.0
48.010426 196.0
48.030045 140.0
48.063156 284.0
48.086617 156.0
48.11488 160.0
48.126652 180.0
48.141842 188.0
48.15361 200.0
48.176373 132.0
48.225067 200.0
48.235794 204.0
48.249619 196.0
48.270359 116.0
48.281422 64.0
48.2994 248.0
48.318005 188.0
48.345058 148.0
48.367207 44.0
48.385201 204.0
48.397663 232.0
48.40934 204.0
48.428131 156.0
48.462765 232.0
48.477943 176.0
48.508499 208.0
48.552868 168.0
48.592529 284.0
48.616154 220.0
48.677364 124.0
48.712643 108.0
48.739338 172.0
48.832031 56.0
48.849129 164.0
48.876545 132.0
48.904381 180.0
48.926655 152.0
49.000469 124.0
49.024258 164.0
49.043667 128.0
49.077126 212.0
49.144981 136.0
49.181808 260.0
49.211075 176.0
49.240398 144.0
49.265541 328.0
49.300472 108.0
49.311653 148.0
49.331223 192.0
49.348 144.0
49.452919 200.0
49.469719 100.0
49.490719 140.0
49.511723 192.0
49.552345 188.0
49.596577 192.0
49.635372 136.0
49.647949 216.0
49.672913 280.0
49.692554 196.0
49.752903 164.0
49.764133 184.0
49.793625 112.0
49.806263 180.0
49.855438 180.0
49.924328 180.0
49.938389 140.0
49.958084 204.0
49.993259 48.0
50.008789 116.0
50.028309 200.0
50.042526 160.0
50.101681 172.0
50.115768 188.0
50.131943 176.0
50.165096 160.0
50.180603 136.0
50.213039 148.0
50.261795 192.0
50.287815 228.0
50.328754 132.0
50.364063 216.0
50.402206 44.0
50.458744 180.0
50.475712 124.0
50.49551 148.0
50.530167 160.0
50.588902 144.0
50.639877 164.0
50.661125 196.0
50.682377 208.0
50.710869 152.0
50.729313 172.0
50.845459 116.0
50.871006 108.0
50.885204 36.0
50.905083 152.0
50.927807 164.0
50.947693 184.0
50.963581 220.0
50.986057 184.0
51.012043 128.0
51.030125 68.0
51.047821 180.0
51.069942 128.0
51.132545 160.0
51.170982 196.0
51.227947 160.0
51.26379 280.0
51.279243 64.0
51.292072 128.0
51.34483 168.0
51.354813 148.0
51.368488 200.0
51.394451 204.0
51.472191 192.0
51.496117 100.0
51.534687 172.0
51.601864 156.0
51.640724 160.0
51.66193 152.0
51.691975 136.0
51.733482 188.0
51.819904 164.0
51.829372 164.0
51.851723 92.0
51.87674 204.0
51.902546 200.0
51.919754 156.0
51.965302 176.0
51.970573 132.0
51.976322 232.0
51.991081 184.0
52.00584 148.0
52.023785 148.0
52.088707 416.0
52.164093 164.0
52.189724 196.0
52.219925 144.0
52.231434 212.0
52.250031 220.0
52.28701 364.0
52.316334 212.0
52.332172 160.0
52.398426 116.0
52.437332 332.0
52.461838 220.0
52.511757 116.0
52.54837 160.0
52.651535 168.0
52.662411 128.0
52.692749 104.0
52.704308 68.0
52.724537 60.0
52.748268 140.0
52.765766 184.0
52.799717 232.0
52.81852 148.0
52.876396 208.0
52.915482 152.0
52.94038 164.0
52.984173 168.0
53.070511 196.0
53.140133 120.0
53.153191 140.0
53.199635 192.0
53.227222 220.0
53.237389 156.0
53.254814 176.0
53.288517 140.0
53.312931 148.0
53.333279 144.0
53.445259 152.0
53.468544 264.0
53.478729 176.0
53.498978 176.0
53.526772 180.0
53.590862 108.0
53.676865 196.0
53.723537 192.0
53.752716 224.0
53.770229 136.0
53.780449 116.0
53.807491 160.0
53.867741 164.0
53.884705 216.0
53.911892 148.0
53.974751 112.0
53.997673 172.0
54.024479 84.0
54.050285 176.0
54.081299 164.0
54.110828 116.0
54.128399 132.0
54.14304 80.0
54.18259 160.0
54.194313 200.0
54.224476 212.0
54.229435 124.0
54.233006 208.0
54.261734 120.0
54.313377 184.0
54.339191 172.0
54.395233 64.0
54.410511 384.0
54.46278 244.0
54.484814 188.0
54.525627 212.0
54.552418 112.0
54.588551 208.0
54.60535 124.0
54.626141 148.0
54.671555 196.0
54.743969 148.0
54.763355 136.0
54.808506 144.0
54.852718 108.0
54.924973 224.0
54.947102 232.0
54.95713 160.0
55.006134 120.0
55.128723 152.0
55.147934 164.0
55.178371 244.0
55.21151 44.0
55.223343 124.0
55.263283 116.0
55.287186 156.0
55.298798 160.0
55.325443 248.0
55.343212 144.0
55.368385 140.0
55.390602 172.0
55.408379 164.0
55.439495 76.0
55.449871 120.0
55.53138 168.0
55.551109 188.0
55.587132 252.0
55.60907 284.0
55.627502 196.0
55.667995 136.0
55.684288 196.0
55.70657 208.0
55.722912 132.0
55.760063 68.0
55.775169 204.0
55.797222 172.0
55.820557 156.0
55.862705 128.0
55.874561 264.0
55.914227 128.0
55.940041 172.0
55.968597 180.0
55.978752 132.0
55.993645 204.0
56.015987 160.0
56.030884 184.0
56.057274 248.0
56.090492 72.0
56.100929 216.0
56.151123 188.0
56.179356 184.0
56.202347 124.0
56.227673 132.0
56.299377 220.0
56.314312 184.0
56.37706 256.0
56.406952 184.0
56.444328 204.0
56.455338 156.0
56.471249 188.0
56.484711 200.0
56.505653 64.0
56.542477 192.0
56.554642 196.0
56.58498 192.0
56.611931 36.0
56.624477 212.0
56.637066 184.0
56.655666 200.0
56.674847 52.0
56.69133 148.0
56.763283 164.0
56.781281 92.0
56.799278 156.0
56.862297 152.0
56.910336 176.0
56.929855 72.0
56.940369 148.0
56.952385 168.0
56.980927 120.0
57.003433 192.0
57.008068 188.0
57.12149 216.0
57.170387 116.0
57.19146 136.0
57.236626 168.0
57.260719 148.0
57.283966 184.0
57.299885 168.0
57.320118 196.0
57.348789 208.0
57.370716 172.0
57.39484 132.0
57.415489 196.0
57.435284 196.0
57.48082 76.0
57.494404 204.0
57.521572 172.0
57.563847 124.0
57.606136 156.0
57.662041 192.0
57.672623 176.0
57.7202 180.0
57.739147 140.0
57.749737 132.0
57.777084 100.0
57.787556 160.0
57.813602 224.0
57.849728 196.0
57.879887 184.0
57.903595 128.0
57.951077 152.0
57.97197 208.0
57.992485 148.0
58.011021 188.0
58.040504 112.0
58.066284 268.0
58.081451 164.0
58.105724 156.0
58.148212 128.0
58.178425 104.0
58.19059 312.0
58.281849 56.0
58.294006 60.0
58.333523 156.0
58.36393 356.0
58.377617 40.0
58.403469 176.0
58.474983 168.0
58.508469 140.0
58.522171 176.0
58.556309 192.0
58.570286 156.0
58.596806 120.0
58.764515 52.0
58.7813 52.0
58.795036 172.0
58.883587 164.0
58.895805 316.0
58.920246 184.0
58.949142 176.0
59.013367 164.0
59.07618 180.0
59.099937 212.0
59.195564 320.0
59.212986 128.0
59.235386 92.0
59.287479 212.0
59.331932 220.0
59.373333 120.0
59.413002 196.0
59.425381 116.0
59.454212 156.0
59.542152 180.0
59.588234 144.0
59.652782 140.0
59.665081 100.0
59.680454 124.0
59.721977 176.0
59.743515 140.0
59.769669 180.0
59.780441 308.0
59.808144 124.0
59.825077 168.0
59.903614 68.0
59.946754 176.0
60.002243 168.0
60.132698 204.0
60.147255 100.0
60.192646 140.0
60.202431 212.0
60.247841 204.0
60.295532 156.0
60.33263 40.0
60.343452 104.0
60.35582 136.0
60.408405 112.0
60.430065 132.0
60.456398 208.0
60.490421 220.0
60.517063 192.0
60.583549 144.0
60.619137 168.0
60.691826 116.0
60.724392 176.0
60.747833 180.0
60.763172 160.0
60.776749 144.0
60.79731 300.0
60.869934 184.0
60.883007 180.0
60.933186 388.0
60.942337 132.0
60.981354 168.0
61.000782 176.0
61.044315 116.0
61.064255 148.0
61.084755 328.0
61.095642 180.0
61.146992 96.0
61.189022 228.0
61.200401 156.0
61.250668 164.0
61.291821 120.0
61.309578 132.0
61.324547 88.0
61.414982 164.0
61.439941 148.0
61.497677 160.0
61.508602 176.0
61.546074 136.0
61.587433 216.0
61.605419 128.0
61.61948 152.0
61.646046 136.0
61.667923 108.0
61.704941 224.0
61.717949 168.0
61.742168 224.0
61.761738 88.0
61.811802 136.0
61.852493 176.0
61.890068 124.0
61.910976 136.0
61.983791 120.0
62.022015 108.0
62.103199 256.0
62.12516 160.0
62.137711 152.0
62.244442 180.0
62.27404 156.0
62.302555 156.0
62.333038 160.0
62.339973 140.0
62.385487 208.0
62.420437 204.0
62.458183 116.0
62.499256 148.0
62.535282 156.0
62.547138 168.0
62.566765 176.0
62.599831 112.0
62.632904 168.0
62.705383 160.0
62.787365 124.0
62.804714 208.0
62.823643 136.0
62.884216 196.0
62.918335 164.0
62.949913 156.0
62.966625 192.0
63.000454 176.0
63.020992 156.0
63.057339 148.0
63.069984 80.0
63.088955 136.0
63.104763 188.0
63.124348 156.0
63.144299 196.0
63.159172 176.0
63.204411 136.0
63.2234 60.0
63.269302 136.0
63.331062 124.0
63.350071 148.0
63.370667 184.0
63.421375 112.0
63.432472 40.0
63.484795 180.0
63.526031 140.0
63.541897 172.0
63.624836 108.0
63.637127 212.0
63.651417 152.0
63.663113 164.0
63.681591 120.0
63.72123 172.0
63.78487 164.0
63.838928 208.0
63.850063 148.0
63.862785 152.0
63.891418 112.0
63.905739 112.0
63.932789 80.0
64.002724 176.0
64.044754 136.0
64.069725 124.0
64.11721 200.0
64.135056 124.0
64.160568 84.0
64.178101 172.0
64.192451 132.0
64.222755 40.0
64.238708 80.0
64.267143 160.0
64.271057 132.0
64.27636 180.0
64.291138 164.0
64.344032 32.0
64.37471 228.0
64.420692 124.0
64.454247 172.0
64.465431 108.0
64.487236 192.0
64.569344 168.0
64.630486 200.0
64.648338 148.0
64.671738 184.0
64.687744 188.0
64.700386 260.0
64.748589 196.0
64.774216 108.0
64.81427 196.0
64.831902 136.0
64.879982 116.0
64.926483 228.0
64.953751 112.0
65.001884 96.0
65.04361 164.0
65.082436 224.0
65.099808 116.0
65.136749 180.0
65.160965 52.0
65.189766 148.0
65.209846 140.0
65.252457 172.0
65.286224 144.0
65.328041 128.0
65.408501 164.0
65.430428 124.0
65.542175 232.0
65.563118 140.0
65.661461 164.0
65.72438 96.0
65.820824 128.0
65.947243 136.0
65.997353 136.0
66.008675 132.0
66.023224 148.0
66.049103 188.0
66.108971 156.0
66.147125 188.0
66.181015 136.0
66.235069 168.0
66.277374 244.0
66.321136 128.0
66.388596 300.0
66.407845 268.0
66.441483 204.0
66.457359 176.0
66.502419 224.0
66.583977 132.0
66.603813 224.0
66.631081 124.0
66.652206 116.0
66.663582 184.0
66.696083 292.0
66.73835 104.0
66.754196 92.0
66.772499 172.0
66.818047 192.0
66.83757 144.0
66.853844 112.0
66.875 208.0
66.898331 252.0
66.962013 172.0
66.986961 132.0
67.046013 60.0
67.106323 148.0
67.16227 240.0
67.2099 192.0
67.263664 136.0
67.323349 104.0
67.341316 92.0
67.388687 180.0
67.465828 240.0
67.478584 160.0
67.504745 172.0
67.51619 160.0
67.552177 100.0
67.613953 148.0
67.686378 172.0
67.727364 148.0
67.758446 212.0
67.76992 152.0
67.81012 180.0
67.839294 228.0
67.863548 160.0
67.937141 168.0
67.966675 196.0
68.012627 140.0
68.042175 188.0
68.070663 184.0
68.093079 52.0
68.114433 132.0
68.162079 156.0
68.172752 136.0
68.204811 132.0
68.221245 152.0
68.240974 36.0
68.293602 100.0
68.324852 180.0
68.352829 124.0
68.464645 232.0
68.496063 420.0
68.520775 212.0
68.537247 124.0
68.620499 176.0
68.653381 124.0
68.67408 192.0
68.693871 128.0
68.807739 152.0
68.86554 252.0
68.885361 184.0
68.910141 88.0
68.943192 124.0
68.966133 168.0
68.98893 208.0
68.994514 76.0
69.00045 212.0
69.078133 260.0
69.136681 172.0
69.153229 192.0
69.27742 212.0
69.305588 152.0
69.326492 168.0
69.340385 132.0
69.356956 144.0
69.408997 236.0
69.438202 216.0
69.452591 148.0
69.479675 188.0
69.5112 124.0
69.564308 132.0
69.598 136.0
69.615776 168.0
69.631676 272.0
69.657303 192.0
69.707886 180.0
69.76532 180.0
69.82518 168.0
69.840149 244.0
69.880074 140.0
69.93499 180.0
69.959953 208.0
70.079391 224.0
70.098198 92.0
70.163536 200.0
70.223236 144.0
70.299309 260.0
70.314995 124.0
70.403481 156.0
70.450012 200.0
70.49057 176.0
70.568909 164.0
70.590645 164.0
70.607033 160.0
70.624092 68.0
70.644165 292.0
70.674278 156.0
70.707748 140.0
70.736206 168.0
70.799828 120.0
70.821602 160.0
70.837975 232.0
70.856781 196.0
70.870186 156.0
70.987518 192.0
71.024597 184.0
71.046227 132.0
71.076424 68.0
71.092621 172.0
71.242165 212.0
71.277733 184.0
71.340111 176.0
71.355286 196.0
71.430916 140.0
71.462883 164.0
71.493172 72.0
71.526833 188.0
71.5504 152.0
71.636284 192.0
71.669983 104.0
71.690201 164.0
71.705368 128.0
71.730278 184.0
71.782921 160.0
71.800911 180.0
71.879074 204.0
71.988792 156.0
72.01413 180.0
72.037773 140.0
72.087532 232.0
72.094185 104.0
72.100578 168.0
72.140862 180.0
72.161148 144.0
72.179581 164.0
72.232178 100.0
72.282928 120.0
72.296471 196.0
72.333702 136.0
72.355713 88.0
72.405663 164.0
72.455635 208.0
72.476509 212.0
72.565796 160.0
72.640121 200.0
72.681137 176.0
72.742233 148.0
72.834076 184.0
72.854309 152.0
72.879799 196.0
72.969879 152.0
73.025681 196.0
73.114464 92.0
73.131485 116.0
73.168434 164.0
73.204689 108.0
73.237984 164.0
73.288155 180.0
73.309258 260.0
73.336357 152.0
73.371071 228.0
73.404068 192.0
73.42112 148.0
73.456474 176.0
73.543663 228.0
73.566154 140.0
73.670433 180.0
73.71759 192.0
73.722061 128.0
73.729164 228.0
73.742088 184.0
73.786537 112.0
73.810631 168.0
73.830994 128.0
73.859924 48.0
73.877174 340.0
73.901123 200.0
73.937057 104.0
73.971291 44.0
73.992119 192.0
74.012383 44.0
74.026077 116.0
74.094597 108.0
74.116867 120.0
74.130577 148.0
74.149429 180.0
74.204285 180.0
74.224854 144.0
74.277939 160.0
74.305702 236.0
74.343742 132.0
74.376732 128.0
74.406731 152.0
74.44516 188.0
74.480499 204.0
74.513214 188.0
74.525238 172.0
74.554451 208.0
74.568199 160.0
74.582596 204.0
74.619492 196.0
74.666199 124.0
74.68512 240.0
74.700119 300.0
74.82106 80.0
74.850334 180.0
74.895737 180.0
74.924393 172.0
74.948517 168.0
74.974365 160.0
74.989876 76.0
75.057884 124.0
75.129379 244.0
75.176132 192.0
75.200294 176.0
75.226189 144.0
75.319435 116.0
75.350555 156.0
75.399254 228.0
75.41674 208.0
75.433479 152.0
75.485352 84.0
75.506104 188.0
75.549339 220.0
75.599518 156.0
75.67395 104.0
75.753616 104.0
75.772583 160.0
75.775093 152.0
75.895729 176.0
75.930412 240.0
75.94429 132.0
76.006744 164.0
76.020622 56.0
76.049782 148.0
76.081375 92.0
76.118393 212.0
76.162994 156.0
76.182098 192.0
76.22834 176.0
76.25737 188.0
76.277672 184.0
76.310707 84.0
76.358269 68.0
76.385483 140.0
76.406364 120.0
76.442902 124.0
76.482933 68.0
76.51078 148.0
76.600586 176.0
76.671036 156.0
76.705574 144.0
76.766914 112.0
76.780869 176.0
76.841919 40.0
76.861107 224.0
76.880157 204.0
76.923943 136.0
77.054916 172.0
77.144051 176.0
77.158035 196.0
77.174622 196.0
77.199997 136.0
77.264717 136.0
77.276962 144.0
77.299706 132.0
77.313705 124.0
77.350464 184.0
77.371681 200.0
77.415245 196.0
77.436264 140.0
77.495239 216.0
77.554886 136.0
77.593971 56.0
77.673721 168.0
77.723763 228.0
77.784386 184.0
77.871223 180.0
77.90081 180.0
77.948524 196.0
77.995972 132.0
78.10675 144.0
78.157776 148.0
78.192024 172.0
78.253685 144.0
78.272186 140.0
78.402885 184.0
78.426796 168.0
78.501266 172.0
78.513611 208.0
78.553894 148.0
78.560555 124.0
78.636086 152.0
78.661819 176.0
78.766487 160.0
78.778366 196.0
78.810173 140.0
78.829109 212.0
78.840485 180.0
78.85601 136.0
78.905609 184.0
78.976349 168.0
79.041801 172.0
79.075951 152.0
79.097847 204.0
79.15509 140.0
79.178825 160.0
79.189819 164.0
79.205162 208.0
79.241882 236.0
79.261375 120.0
79.273781 140.0
79.293274 168.0
79.309227 148.0
79.379402 192.0
79.403191 180.0
79.433548 176.0
79.475288 156.0
79.491898 96.0
79.58242 184.0
79.659782 164.0
79.670151 152.0
79.683662 116.0
79.701424 160.0
79.7192 168.0
79.73204 192.0
79.742645 144.0
79.760071 200.0
79.790298 172.0
79.80761 184.0
79.875656 148.0
79.923691 188.0
79.952164 208.0
80.008148 184.0
80.064133 268.0
80.099945 228.0
80.149826 140.0
80.210419 200.0
80.265686 136.0
80.278168 60.0
80.306702 112.0
80.324539 44.0
80.340599 176.0
80.353088 156.0
80.394676 260.0
80.42205 204.0
80.454811 164.0
80.489761 132.0
80.519096 56.0
80.542313 124.0
80.579826 320.0
80.608414 168.0
80.624496 216.0
80.637009 200.0
80.648613 136.0
80.670975 216.0
80.690636 204.0
80.767883 144.0
80.78363 184.0
80.830093 136.0
80.849831 120.0
80.883842 168.0
80.901962 164.0
80.91745 196.0
80.958641 144.0
81.012772 164.0
81.030685 136.0
81.070107 148.0
81.103844 68.0
81.116707 120.0
81.215332 88.0
81.234261 168.0
81.258385 156.0
81.276917 292.0
81.297859 208.0
81.398384 236.0
81.448669 204.0
81.463043 80.0
81.482018 180.0
81.542099 196.0
81.591087 144.0
81.606819 212.0
81.649971 160.0
81.721931 140.0
81.830246 132.0
81.855034 152.0
81.900124 240.0
81.934189 176.0
81.952393 132.0
81.986015 212.0
82.001045 168.0
82.024483 108.0
82.078568 180.0
82.123161 148.0
82.161102 140.0
82.183182 96.0
82.196022 172.0
82.255371 156.0
82.291481 164.0
82.331207 140.0
82.364204 192.0
82.435982 84.0
82.499245 136.0
82.520172 132.0
82.548058 152.0
82.564331 124.0
82.586037 184.0
82.602966 228.0
82.631264 176.0
82.652977 132.0
82.725372 112.0
82.779686 208.0
82.848511 152.0
82.868706 116.0
82.946365 144.0
82.962685 152.0
82.997131 144.0
83.011635 160.0
83.038841 112.0
83.060608 144.0
83.08419 152.0
83.134995 172.0
83.178551 168.0
83.193077 104.0
83.267517 148.0
83.29113 224.0
83.318382 212.0
83.332916 120.0
83.356537 52.0
83.407425 168.0
83.447418 228.0
83.476509 200.0
83.56382 176.0
83.602036 144.0
83.668762 176.0
83.714897 140.0
83.731827 204.0
83.745346 212.0
83.773186 132.0
83.815086 136.0
83.838776 48.0
83.866112 176.0
83.902573 176.0
83.934204 112.0
83.951225 176.0
83.964569 176.0
83.993752 232.0
84.060081 160.0
84.097755 132.0
84.136726 196.0
84.165306 332.0
84.277954 232.0
84.327888 176.0
84.360794 112.0
84.417473 128.0
84.52906 156.0
84.558342 116.0
84.613251 144.0
84.626068 148.0
84.657196 196.0
84.688332 220.0
84.701157 180.0
84.750618 156.0
84.772606 56.0
84.864258 76.0
84.930275 152.0
84.943115 60.0
84.968803 124.0
85.022011 152.0
85.079025 132.0
85.108292 56.0
85.126656 192.0
85.141342 164.0
85.187263 144.0
85.240944 200.0
85.25708 140.0
85.287552 188.0
85.321098 140.0
85.384911 204.0
85.440956 160.0
85.597404 224.0
85.610298 388.0
85.682129 348.0
85.747871 112.0
85.827736 160.0
85.864532 168.0
85.916092 168.0
85.943939 40.0
86.004837 52.0
86.021454 144.0
86.044579 356.0
86.084229 212.0
86.146736 156.0
86.211693 208.0
86.226479 208.0
86.276382 36.0
86.293022 140.0
86.341698 112.0
86.350761 220.0
86.37439 144.0
86.479858 212.0
86.505066 208.0
86.674309 52.0
86.698402 252.0
86.775749 132.0
86.828178 132.0
86.90052 164.0
86.989601 220.0
87.016716 112.0
87.052979 180.0
87.080162 244.0
87.1129 172.0
87.163292 196.0
87.197632 124.0
87.240387 256.0
87.324059 188.0
87.402191 208.0
87.438347 140.0
87.450577 168.0
87.494431 192.0
87.547386 164.0
87.593956 200.0
87.657295 168.0
87.68898 228.0
87.742569 96.0
87.759819 176.0
87.778465 104.0
87.794502 80.0
87.821358 108.0
87.835495 172.0
87.884781 164.0
87.916504 124.0
87.970634 192.0
87.993034 140.0
88.026649 140.0
88.101357 184.0
88.134987 76.0
88.178558 152.0
88.213478 224.0
88.242256 184.0
88.273308 64.0
88.288269 128.0
88.316322 156.0
88.336899 92.0
88.358505 196.0
88.36441 108.0
88.371216 164.0
88.385544 192.0
88.402382 152.0
88.443558 180.0
88.473511 156.0
88.490356 56.0
88.516571 228.0
88.534767 140.0
88.567139 160.0
88.636459 216.0
88.655197 144.0
88.683304 200.0
88.70018 184.0
88.795624 208.0
88.847328 136.0
88.914856 148.0
88.967628 404.0
89.002228 224.0
89.031944 116.0
89.065353 196.0
89.118683 260.0
89.154381 212.0
89.1726 144.0
89.316071 192.0
89.368752 36.0
89.38945 320.0
89.412033 52.0
89.427086 164.0
89.455322 140.0
89.489204 92.0
89.532516 208.0
89.559204 236.0
89.64743 192.0
89.683884 248.0
89.719147 172.0
89.758118 128.0
89.77845 104.0
89.802025 128.0
89.840843 176.0
89.862175 172.0
89.924667 152.0
89.992035 128.0
90.017166 164.0
90.049271 132.0
90.077606 40.0
90.113503 92.0
90.130508 180.0
90.146843 128.0
90.166412 172.0
90.190979 224.0
90.204216 212.0
90.22879 156.0
90.531212 140.0
90.55426 104.0
90.569412 148.0
90.624352 120.0
90.659218 120.0
90.738068 148.0
90.774094 164.0
90.829094 172.0
90.847702 208.0
90.870827 152.0
90.910164 148.0
90.944839 112.0
90.973312 276.0
91.000481 204.0
91.054184 1260.0
91.084785 188.0
91.112305 188.0
91.141579 188.0
91.168945 140.0
91.184151 192.0
91.197456 140.0
91.214561 104.0
91.262093 256.0
91.278267 160.0
91.310951 184.0
91.364792 68.0
91.38382 256.0
91.402802 172.0
91.427582 256.0
91.477074 196.0
91.503723 208.0
91.531288 136.0
91.562752 152.0
91.60656 244.0
91.629425 168.0
91.655037 144.0
91.698479 116.0
91.738052 176.0
91.766602 176.0
91.799065 200.0
91.858185 64.0
91.875359 128.0
91.91507 172.0
91.932198 232.0
91.951683 152.0
92.010857 152.0
92.057449 188.0
92.112068 152.0
92.146454 80.0
92.165558 196.0
92.199738 176.0
92.266861 144.0
92.300423 288.0
92.348953 172.0
92.353615 212.0
92.379684 36.0
92.394203 204.0
92.427277 188.0
92.452393 148.0
92.486847 104.0
92.576828 204.0
92.672607 160.0
92.690941 212.0
92.726257 160.0
92.77951 164.0
92.830032 152.0
92.850876 56.0
92.897926 204.0
92.916092 128.0
92.939117 120.0
92.977501 140.0
93.004372 152.0
93.021645 204.0
93.049828 188.0
93.072533 560.0
93.092682 56.0
93.131096 140.0
93.156067 144.0
93.204094 108.0
93.290581 172.0
93.30954 172.0
93.332878 140.0
93.350586 348.0
93.432892 136.0
93.488953 148.0
93.546432 132.0
93.604195 152.0
93.631149 144.0
93.647736 164.0
93.667747 48.0
93.688942 296.0
93.721695 304.0
93.789139 112.0
93.806488 40.0
93.841194 396.0
93.937622 132.0
93.999901 228.0
94.024254 164.0
94.041817 172.0
94.105522 176.0
94.126762 100.0
94.149933 196.0
94.20401 136.0
94.240723 36.0
94.25618 144.0
94.302559 140.0
94.438042 112.0
94.476585 96.0
94.530762 160.0
94.559792 160.0
94.572678 168.0
94.606247 200.0
94.639389 136.0
94.689507 124.0
94.710815 116.0
94.739868 168.0
94.775864 104.0
94.797997 180.0
94.823189 140.0
94.928299 148.0
95.044266 168.0
95.088219 388.0
95.128105 160.0
95.167191 132.0
95.244225 148.0
95.285645 144.0
95.339424 172.0
95.361595 116.0
95.386787 196.0
95.448288 228.0
95.479721 328.0
95.512711 160.0
95.535812 196.0
95.564995 128.0
95.636993 380.0
95.685661 92.0
95.701233 224.0
95.732391 164.0
95.761604 192.0
95.780609 164.0
95.80056 156.0
95.835632 184.0
95.897987 172.0
95.96817 128.0
96.01107 80.0
96.067635 36.0
96.089096 172.0
96.184715 200.0
96.229614 160.0
96.24794 456.0
96.301872 172.0
96.329216 116.0
96.357262 208.0
96.417137 120.0
96.464996 124.0
96.512924 188.0
96.553993 196.0
96.587242 108.0
96.639603 272.0
96.655716 80.0
96.672905 148.0
96.716385 200.0
96.736572 184.0
96.972961 56.0
97.010208 188.0
97.074966 144.0
97.098663 176.0
97.145515 112.0
97.210266 192.0
97.267853 176.0
97.292702 84.0
97.376221 224.0
97.398743 164.0
97.434097 160.0
97.454742 316.0
97.491081 152.0
97.526459 156.0
97.573639 140.0
97.597229 212.0
97.626724 248.0
97.651512 212.0
97.690758 144.0
97.766403 220.0
97.8097 172.0
97.837257 220.0
97.8983 136.0
97.924461 224.0
97.972168 160.0
97.994812 172.0
98.014519 72.0
98.029198 176.0
98.059845 100.0
98.075615 216.0
98.097298 76.0
98.211662 88.0
98.247169 176.0
98.260979 156.0
98.318199 204.0
98.361626 176.0
98.424797 68.0
98.495895 136.0
98.537155 140.0
98.559113 96.0
98.576897 216.0
98.600616 140.0
98.616425 164.0
98.644096 76.0
98.685959 160.0
98.725159 188.0
98.765587 328.0
98.807343 200.0
98.826004 164.0
98.861664 100.0
98.883636 156.0
98.930939 108.0
98.960632 112.0
98.974495 140.0
99.009659 132.0
99.049751 236.0
99.113144 184.0
99.137512 176.0
99.158722 144.0
99.195518 228.0
99.216209 156.0
99.239281 220.0
99.277679 148.0
99.322151 160.0
99.362968 208.0
99.426468 216.0
99.462189 248.0
99.495934 116.0
99.515793 140.0
99.53894 320.0
99.592529 224.0
99.625023 104.0
99.678665 264.0
99.712372 224.0
99.746239 96.0
99.780037 224.0
99.801903 232.0
99.833717 56.0
99.849632 224.0
99.94957 236.0
100.038658 124.0
100.054581 92.0
100.118301 292.0
100.146904 176.0
100.164108 160.0
100.219887 140.0
100.25576 136.0
100.290253 196.0
100.315552 172.0
100.407272 144.0
100.429207 108.0
100.445168 28.0
100.54493 204.0
100.578857 188.0
100.596825 104.0
100.612793 96.0
100.648735 168.0
100.663551 228.0
100.698494 168.0
100.802544 156.0
100.924469 128.0
100.964462 148.0
101.008469 124.0
101.054482 92.0
101.082314 144.0
101.104507 148.0
101.118515 204.0
101.136162 132.0
101.230881 216.0
101.296951 208.0
101.328773 104.0
101.350807 136.0
101.372856 184.0
101.400047 248.0
101.434982 140.0
101.507156 164.0
101.53112 232.0
101.595406 104.0
101.62751 140.0
101.667053 204.0
101.753792 148.0
101.758499 136.0
101.766525 184.0
101.852356 76.0
101.873825 180.0
101.900566 168.0
101.958839 192.0
101.979965 180.0
102.032059 160.0
102.046646 100.0
102.062759 224.0
102.091522 108.0
102.110466 236.0
102.155884 180.0
102.180023 188.0
102.211227 148.0
102.236366 184.0
102.266678 200.0
102.306816 84.0
102.361176 188.0
102.419975 164.0
102.451813 116.0
102.494179 136.0
102.546516 92.0
102.600945 176.0
102.629166 148.0
102.694565 208.0
102.751968 176.0
102.786499 108.0
102.806816 116.0
102.826485 108.0
102.855118 176.0
102.873604 200.0
102.890434 168.0
102.966164 184.0
102.986359 104.0
103.004539 60.0
103.033302 168.0
103.055557 624.0
103.081314 128.0
103.1278 168.0
103.159401 112.0
103.27742 32.0
103.327988 184.0
103.356194 200.0
103.487885 140.0
103.537987 176.0
103.599274 240.0
103.647896 120.0
103.66613 160.0
103.751259 144.0
103.808037 344.0
103.828316 220.0
103.885109 96.0
103.909447 148.0
103.927711 156.0
103.945969 68.0
103.968292 196.0
103.984528 140.0
104.012947 192.0
104.063187 340.0
104.140175 292.0
104.214325 100.0
104.273941 144.0
104.281532 188.0
104.316414 172.0
104.352203 204.0
104.372536 252.0
104.386772 132.0
104.413208 120.0
104.451851 128.0
104.468124 148.0
104.484406 56.0
104.51899 132.0
104.537308 52.0
104.561722 128.0
104.61261 100.0
104.645187 156.0
104.722565 144.0
104.738861 168.0
104.75927 220.0
104.78775 128.0
104.825089 124.0
104.84481 352.0
104.863152 232.0
104.901405 200.0
104.914993 184.0
104.948769 160.0
104.992584 172.0
105.001495 84.0
105.020378 264.0
105.050537 204.0
105.070709 10816.0
105.102539 152.0
105.133888 176.0
105.1548 148.0
105.173019 108.0
105.206802 168.0
105.22625 224.0
105.258179 144.0
105.295074 48.0
105.362137 212.0
105.420296 104.0
105.459984 448.0
105.512276 48.0
105.542938 128.0
105.557259 196.0
105.573616 212.0
105.610878 200.0
105.639114 160.0
105.655434 36.0
105.692078 180.0
105.718857 160.0
105.751602 196.0
105.767616 180.0
105.81916 116.0
105.851921 52.0
105.90107 108.0
105.970718 216.0
106.013306 176.0
106.074181 1240.0
106.126488 168.0
106.140846 176.0
106.186111 164.0
106.284424 204.0
106.335159 72.0
106.370621 184.0
106.426056 164.0
106.455063 436.0
106.495872 124.0
106.540123 212.0
106.580101 80.0
106.598595 156.0
106.656143 212.0
106.707535 144.0
106.746948 192.0
106.773338 108.0
106.830925 124.0
106.857674 112.0
107.012032 92.0
107.047607 160.0
107.086815 1648.0
107.106125 232.0
107.145905 200.0
107.167007 232.0
107.230743 164.0
107.277794 128.0
107.308609 144.0
107.315086 136.0
107.389145 168.0
107.423256 172.0
107.451027 156.0
107.469597 180.0
107.494362 56.0
107.527374 200.0
107.586075 128.0
107.603752 200.0
107.657997 192.0
107.694969 116.0
107.742126 148.0
107.823425 208.0
107.83992 180.0
107.89299 100.0
107.919868 80.0
107.942612 132.0
107.979836 116.0
108.02327 184.0
108.096802 224.0
108.19883 204.0
108.234375 168.0
108.350357 64.0
108.379364 148.0
108.408623 200.0
108.487251 152.0
108.512436 272.0
108.574219 196.0
108.599106 144.0
108.649734 148.0
108.690384 264.0
108.721397 212.0
108.767174 184.0
108.811386 228.0
108.914604 124.0
108.935371 124.0
108.997704 160.0
109.043419 136.0
109.064201 76.0
109.107918 152.0
109.328339 200.0
109.346237 120.0
109.358757 188.0
109.384537 44.0
109.461571 40.0
109.500267 212.0
109.528717 164.0
109.576126 156.0
109.638634 152.0
109.674652 172.0
109.73661 68.0
109.753288 132.0
109.807503 92.0
109.867996 128.0
109.913902 72.0
110.085068 192.0
110.168617 80.0
110.186905 212.0
110.243835 184.0
110.268211 312.0
110.275459 208.0
110.327499 188.0
110.455353 164.0
110.480103 172.0
110.54496 184.0
110.591003 112.0
110.612587 128.0
110.653801 208.0
110.741196 120.0
110.786751 168.0
110.832581 124.0
110.95549 116.0
111.030983 188.0
111.102783 224.0
111.148453 176.0
111.166473 232.0
111.224007 188.0
111.375183 132.0
111.408798 204.0
111.426186 228.0
111.444511 188.0
111.465523 156.0
111.597946 212.0
111.612663 252.0
111.655449 196.0
111.675751 164.0
111.722031 144.0
111.801987 156.0
111.877762 176.0
111.905128 88.0
111.93882 88.0
111.959808 124.0
111.985153 144.0
112.052559 132.0
112.08477 152.0
112.103127 216.0
112.128181 72.0
112.135399 64.0
112.141701 92.0
112.17263 180.0
112.292862 196.0
112.330833 184.0
112.358253 196.0
112.420448 168.0
112.453209 68.0
112.489098 196.0
112.522873 136.0
112.581993 124.0
112.651695 180.0
112.693947 264.0
112.731979 256.0
112.767906 140.0
112.793274 152.0
112.812302 164.0
112.850349 184.0
112.877838 164.0
112.913628 152.0
112.941284 204.0
113.025909 192.0
113.055534 144.0
113.085167 144.0
113.132591 168.0
113.207954 192.0
113.242943 184.0
113.263092 120.0
113.311745 80.0
113.421936 128.0
113.496399 196.0
113.544914 100.0
113.560669 164.0
113.574608 184.0
113.591576 172.0
113.699661 208.0
113.716057 120.0
113.721855 200.0
113.761337 128.0
113.797432 144.0
113.816536 176.0
113.899361 112.0
113.984344 216.0
114.079987 136.0
114.100601 172.0
114.168076 220.0
114.236336 164.0
114.256935 192.0
114.290535 168.0
114.32914 224.0
114.458694 196.0
114.483162 212.0
114.539619 256.0
114.569443 112.0
114.606133 108.0
114.637627 172.0
114.668861 152.0
114.727142 184.0
114.748459 112.0
114.771919 148.0
114.799637 204.0
114.873283 128.0
114.923355 132.0
114.944695 156.0
115.021523 244.0
115.054092 1596.0
115.198761 120.0
115.220123 140.0
115.252174 168.0
115.31398 104.0
115.386818 192.0
115.418892 52.0
115.468079 200.0
115.483047 128.0
115.503334 136.0
115.532249 68.0
115.579002 216.0
115.682045 56.0
115.704285 152.0
115.765549 128.0
115.795532 120.0
115.866219 236.0
115.928352 136.0
115.973183 96.0
115.989754 184.0
116.019478 132.0
116.036972 208.0
116.06118 616.0
116.099564 148.0
116.1642 260.0
116.250664 160.0
116.280067 92.0
116.318703 152.0
116.343468 252.0
116.434639 184.0
116.462753 184.0
116.509819 164.0
116.546349 84.0
116.568771 156.0
116.603844 236.0
116.638756 128.0
116.672691 224.0
116.694649 152.0
116.75486 164.0
116.789268 192.0
116.841278 216.0
116.875565 140.0
116.905449 104.0
116.929405 312.0
116.982933 144.0
117.011597 140.0
117.030296 108.0
117.070084 3616.0
117.099205 140.0
117.116432 576.0
117.157364 164.0
117.191383 120.0
117.222672 64.0
117.2845 124.0
117.303902 200.0
117.355637 224.0
117.369308 132.0
117.422485 128.0
117.55825 176.0
117.588615 252.0
117.605881 176.0
117.620987 176.0
117.66848 48.0
117.720306 188.0
117.769974 148.0
117.890961 372.0
117.911339 168.0
117.977417 232.0
118.02282 136.0
118.046608 300.0
118.076797 1156.0
118.146103 116.0
118.174225 152.0
118.213173 188.0
118.31057 44.0
118.336548 140.0
118.366867 196.0
118.429672 236.0
118.544495 208.0
118.581993 92.0
118.646362 164.0
118.665878 76.0
118.691063 192.0
118.730927 156.0
118.756119 148.0
118.882782 224.0
118.905174 176.0
118.934875 136.0
118.973221 168.0
119.030174 196.0
119.065117 352.0
119.087029 29804.0
119.128075 148.0
119.153915 92.0
119.195068 232.0
119.216751 76.0
119.233696 144.0
119.25872 96.0
119.286011 184.0
119.294693 68.0
119.302086 80.0
119.33606 172.0
119.361053 140.0
119.386055 152.0
119.431831 184.0
119.470711 132.0
119.525993 156.0
119.573257 404.0
119.589859 104.0
119.626114 96.0
119.643524 128.0
119.665298 208.0
119.691429 80.0
119.711571 96.0
119.761116 208.0
119.785072 216.0
119.817749 188.0
119.837357 140.0
119.872223 116.0
119.898376 72.0
119.928886 60.0
119.957222 184.0
119.992104 108.0
120.044434 144.0
120.066238 76.0
120.090286 1584.0
120.119026 140.0
120.16658 148.0
120.205856 164.0
120.229858 72.0
120.299454 148.0
120.376122 100.0
120.4198 184.0
120.446007 88.0
120.539955 156.0
120.577103 188.0
120.591026 152.0
120.644867 44.0
120.679848 100.0
120.712646 208.0
120.749077 140.0
120.766068 112.0
120.818764 200.0
120.832436 120.0
120.865341 84.0
120.937981 272.0
120.965912 100.0
121.065094 68.0
121.101768 4864.0
121.175278 88.0
121.209541 124.0
121.265938 196.0
121.297203 104.0
121.329918 152.0
121.360779 248.0
121.415604 124.0
121.466049 148.0
121.4814 40.0
121.498955 40.0
121.527473 100.0
121.542831 164.0
121.571297 132.0
121.599892 120.0
121.663544 172.0
121.69648 60.0
121.749176 124.0
121.777725 128.0
121.821663 252.0
121.842438 128.0
121.862267 264.0
121.866287 128.0
121.874985 176.0
121.940315 184.0
121.955696 184.0
122.105301 388.0
122.171196 148.0
122.210793 100.0
122.243996 180.0
122.261406 176.0
122.290016 92.0
122.422112 152.0
122.437523 160.0
122.468361 76.0
122.485977 220.0
122.530472 224.0
122.565292 148.0
122.624794 148.0
122.655647 208.0
122.690918 144.0
122.710106 188.0
122.779114 140.0
122.836464 168.0
122.854111 128.0
122.918091 320.0
122.935745 152.0
122.957817 92.0
123.019615 132.0
123.072601 180.0
123.113617 188.0
123.183968 140.0
123.218307 136.0
123.226608 132.0
123.252769 148.0
123.285423 116.0
123.412872 84.0
123.430557 180.0
123.467369 260.0
123.490273 312.0
123.638496 208.0
123.696045 104.0
123.715973 160.0
123.744751 160.0
123.775749 124.0
123.817825 136.0
123.882057 148.0
123.901993 168.0
123.983978 104.0
124.061554 456.0
124.081512 152.0
124.108116 176.0
124.153557 144.0
124.170204 104.0
124.195648 212.0
124.246132 140.0
124.317749 196.0
124.341034 76.0
124.361008 48.0
124.434265 172.0
124.525307 140.0
124.59124 188.0
124.638603 124.0
124.665268 192.0
124.694733 188.0
124.723053 144.0
124.763069 172.0
124.840889 104.0
124.872025 152.0
124.920959 228.0
124.940979 232.0
124.983253 220.0
125.016632 220.0
125.054466 60.0
125.204773 216.0
125.397461 148.0
125.415291 120.0
125.433121 248.0
125.46656 136.0
125.535675 200.0
125.600288 132.0
125.72982 144.0
125.773407 144.0
125.816811 200.0
125.912094 220.0
125.944099 140.0
126.02005 164.0
126.040161 188.0
126.122543 148.0
126.155464 204.0
126.192146 108.0
126.232399 160.0
126.283829 216.0
126.342766 120.0
126.393448 120.0
126.431488 208.0
126.496399 64.0
126.516548 292.0
126.536697 220.0
126.610588 92.0
126.664345 68.0
126.681046 128.0
126.744995 92.0
126.796059 192.0
126.854813 96.0
126.944496 204.0
126.987106 172.0
127.020752 248.0
127.056923 276.0
127.088051 240.0
127.15313 140.0
127.184547 96.0
127.200264 160.0
127.224594 100.0
127.229988 132.0
127.280647 164.0
127.343964 196.0
127.376862 124.0
127.429016 184.0
127.463028 196.0
127.485504 100.0
127.514717 144.0
127.555176 172.0
127.597885 280.0
127.633865 164.0
127.713173 164.0
127.735924 128.0
127.789055 232.0
127.816055 44.0
127.843063 56.0
127.865562 116.0
128.000641 156.0
128.023148 128.0
128.061203 1408.0
128.094376 308.0
128.120544 172.0
128.178314 132.0
128.221405 160.0
128.280014 184.0
128.372452 108.0
128.412903 64.0
128.428833 380.0
128.514664 160.0
128.569183 208.0
128.620621 64.0
128.749313 148.0
128.800308 220.0
128.857742 152.0
128.891632 132.0
128.95192 176.0
129.02272 160.0
129.070908 2208.0
129.113052 176.0
129.129562 176.0
129.16066 144.0
129.201431 192.0
129.241592 124.0
129.300934 180.0
129.316788 28.0
129.348465 148.0
129.384689 152.0
129.402802 128.0
129.425446 140.0
129.45488 84.0
129.505814 172.0
129.600616 196.0
129.628983 28.0
129.649307 340.0
129.729034 192.0
129.771774 216.0
129.861206 136.0
129.878693 140.0
129.895676 156.0
129.96489 176.0
129.985321 204.0
130.014816 184.0
130.078186 2792.0
130.119232 52.0
130.143509 116.0
130.149628 72.0
130.159195 180.0
130.182816 164.0
130.223694 172.0
130.26239 192.0
130.358887 204.0
130.42363 172.0
130.498657 344.0
130.518402 164.0
130.527405 112.0
130.56459 160.0
130.602219 148.0
130.624939 60.0
130.676056 212.0
130.760254 412.0
130.786087 264.0
130.805771 264.0
130.894348 124.0
130.92189 152.0
130.939987 152.0
130.960312 152.0
130.980728 192.0
131.003891 156.0
131.086395 9288.0
131.112381 228.0
131.175461 164.0
131.206711 212.0
131.232849 188.0
131.322998 124.0
131.343536 156.0
131.366348 44.0
131.38916 72.0
131.409683 72.0
131.436859 168.0
131.478149 140.0
131.494125 100.0
131.516937 136.0
131.560318 176.0
131.604599 312.0
131.631088 204.0
131.651108 232.0
131.729294 80.0
131.763565 60.0
131.825256 184.0
131.876511 176.0
131.925827 32.0
131.944107 52.0
131.971558 220.0
131.993317 92.0
132.024139 100.0
132.092545 2676.0
132.123795 204.0
132.246063 124.0
132.264221 232.0
132.360535 92.0
132.395325 184.0
132.421249 144.0
132.445786 124.0
132.465881 104.0
132.481918 160.0
132.569138 196.0
132.717972 92.0
132.74382 220.0
132.779892 76.0
132.815933 360.0
132.878525 28.0
132.902145 192.0
132.927719 164.0
132.94278 264.0
132.980362 172.0
133.007034 172.0
133.041214 88.0
133.045792 68.0
133.057205 168.0
133.060349 116.0
133.102325 30296.0
133.157242 144.0
133.187698 100.0
133.224121 96.0
133.241272 136.0
133.276306 156.0
133.295013 152.0
133.34697 128.0
133.400467 44.0
133.40715 152.0
133.433884 232.0
133.455017 100.0
133.476135 108.0
133.5056 164.0
133.526291 60.0
133.543808 124.0
133.576859 216.0
133.584671 212.0
133.625519 236.0
133.662018 172.0
133.67688 140.0
133.698227 164.0
133.711121 180.0
133.737961 64.0
133.804184 252.0
133.84906 176.0
133.892227 172.0
133.90834 208.0
133.961319 152.0
133.998184 168.0
134.016617 188.0
134.041962 176.0
134.076965 168.0
134.105499 2448.0
134.171036 56.0
134.189484 52.0
134.223404 84.0
134.232208 60.0
134.253616 132.0
134.373978 128.0
134.396347 208.0
134.433975 108.0
134.450134 76.0
134.495483 148.0
134.554001 144.0
134.602493 168.0
134.671768 184.0
134.706421 80.0
134.73291 100.0
134.761856 128.0
134.787277 200.0
134.817245 120.0
134.857315 132.0
134.886658 172.0
134.909775 120.0
134.934021 168.0
134.980118 132.0
134.999557 144.0
135.041275 156.0
135.069809 124.0
135.117325 4184.0
135.159164 120.0
135.182404 128.0
135.217407 108.0
135.252121 40.0
135.276657 80.0
135.293701 100.0
135.344727 100.0
135.393356 168.0
135.41188 132.0
135.518448 232.0
135.608185 148.0
135.650543 144.0
135.702103 184.0
135.736328 112.0
135.810532 76.0
135.89418 144.0
135.939423 144.0
135.977585 284.0
136.005447 204.0
136.021683 48.0
136.039474 232.0
136.082047 164.0
136.12326 292.0
136.151703 184.0
136.244614 280.0
136.267853 52.0
136.29805 96.0
136.361588 212.0
136.410568 196.0
136.447998 112.0
136.530518 176.0
136.592834 96.0
136.654388 156.0
136.753922 164.0
136.777145 48.0
136.84465 168.0
136.877243 88.0
136.935471 108.0
137.063599 152.0
137.09259 132.0
137.135834 128.0
137.184784 116.0
137.280457 240.0
137.345139 204.0
137.376007 124.0
137.417603 144.0
137.457672 144.0
137.48761 240.0
137.625732 176.0
137.737823 156.0
137.765854 168.0
137.82193 92.0
137.866318 108.0
137.88736 200.0
137.924149 80.0
137.943451 180.0
137.9832 208.0
138.072052 184.0
138.137543 164.0
138.179657 120.0
138.207733 64.0
138.289627 76.0
138.352829 68.0
138.387955 168.0
138.446487 100.0
138.479279 132.0
138.500351 80.0
138.540497 240.0
138.570084 204.0
138.685989 176.0
138.720627 140.0
138.784409 228.0
138.819092 136.0
138.938309 212.0
139.030228 224.0
139.123932 208.0
139.147583 180.0
139.184555 204.0
139.26265 164.0
139.288483 180.0
139.347214 148.0
139.375412 152.0
139.408264 184.0
139.429245 180.0
139.452667 220.0
139.491745 124.0
139.498138 184.0
139.525833 136.0
139.585617 96.0
139.648102 240.0
139.676331 168.0
139.692795 244.0
139.732788 224.0
139.801025 192.0
139.833984 108.0
139.879471 196.0
139.935196 208.0
139.97052 88.0
140.022324 80.0
140.044525 180.0
140.073502 348.0
140.166031 76.0
140.182526 140.0
140.23436 104.0
140.295654 308.0
140.399399 176.0
140.64241 104.0
140.701416 156.0
140.754486 212.0
140.836029 156.0
140.85965 312.0
140.885635 212.0
140.937607 92.0
140.980133 40.0
141.004044 240.0
141.036865 152.0
141.062866 136.0
141.116119 164.0
141.145615 160.0
141.214722 160.0
141.247299 200.0
141.263855 136.0
141.318268 184.0
141.422974 180.0
141.459702 100.0
141.483948 128.0
141.528931 68.0
141.544769 124.0
141.566818 148.0
141.602341 176.0
141.674103 160.0
141.720779 152.0
141.798721 144.0
141.849792 248.0
141.959183 124.0
142.01474 144.0
142.052689 112.0
142.076416 284.0
142.100128 276.0
142.137558 160.0
142.297119 292.0
142.368362 68.0
142.413483 76.0
142.503601 132.0
142.558411 228.0
142.62323 144.0
142.729553 104.0
142.774734 188.0
142.793762 112.0
142.855606 156.0
142.898422 148.0
142.960297 164.0
142.986465 144.0
143.01741 176.0
143.086044 1340.0
143.117401 100.0
143.153107 148.0
143.174545 156.0
143.236877 116.0
143.272797 48.0
143.31633 176.0
143.357986 248.0
143.398422 124.0
143.44989 192.0
143.489075 148.0
143.517685 236.0
143.536758 164.0
143.675095 136.0
143.770538 132.0
143.875488 148.0
143.932144 132.0
143.955688 164.0
143.999725 100.0
144.023605 168.0
144.088165 1400.0
144.116776 140.0
144.179657 140.0
144.209976 60.0
144.248215 192.0
144.286469 72.0
144.307983 108.0
144.401245 168.0
144.436874 156.0
144.489548 192.0
144.539413 196.0
144.580673 184.0
144.606171 112.0
144.624939 160.0
144.659668 104.0
144.705597 128.0
144.750641 120.0
144.769806 196.0
144.788956 196.0
144.820099 144.0
144.858414 176.0
144.877991 208.0
144.913513 168.0
144.930298 176.0
144.961441 156.0
144.994995 204.0
145.037216 176.0
145.06395 140.0
145.102295 62136.0
145.139069 216.0
145.189178 40.0
145.231094 200.0
145.268997 116.0
145.289337 136.0
145.308456 168.0
145.326431 92.0
145.351425 296.0
145.385895 76.0
145.403946 152.0
145.42601 84.0
145.498428 68.0
145.535553 116.0
145.552505 108.0
145.611572 148.0
145.628159 84.0
145.644394 84.0
145.690979 68.0
145.764511 84.0
145.831482 140.0
145.884644 220.0
145.938385 60.0
145.955215 88.0
145.978851 212.0
146.014664 156.0
146.055084 144.0
146.075211 248.0
146.106659 13264.0
146.151077 172.0
146.200577 108.0
146.276367 104.0
146.333878 168.0
146.37149 48.0
146.43486 140.0
146.502625 152.0
146.512268 68.0
146.522278 152.0
146.556961 84.0
146.589844 168.0
146.622025 144.0
146.652069 144.0
146.679855 72.0
146.723251 120.0
146.747284 124.0
146.813766 156.0
146.86879 196.0
146.901413 80.0
146.945129 180.0
146.965942 180.0
146.987762 48.0
147.012695 88.0
147.040756 184.0
147.117035 13108.0
147.179718 156.0
147.203049 108.0
147.211487 92.0
147.245773 164.0
147.284897 384.0
147.331406 148.0
147.396652 112.0
147.423233 96.0
147.481232 168.0
147.502991 100.0
147.522324 160.0
147.558578 76.0
147.603668 56.0
147.638382 64.0
147.655304 172.0
147.694 92.0
147.744812 216.0
147.761734 120.0
147.805298 164.0
147.939941 120.0
148.034409 172.0
148.038544 112.0
148.0905 208.0
148.098618 144.0
148.121506 1228.0
148.206421 72.0
148.265396 92.0
148.293777 56.0
148.347321 100.0
148.379318 60.0
148.400024 140.0
148.441574 208.0
148.469025 168.0
148.51268 188.0
148.590317 120.0
148.646118 96.0
148.7966 164.0
148.861465 152.0
148.88002 112.0
148.90831 72.0
148.954453 120.0
149.027328 88.0
149.075928 172.0
149.108078 284.0
149.19017 136.0
149.250778 168.0
149.307465 132.0
149.350662 152.0
149.383453 136.0
149.435806 200.0
149.474731 92.0
149.591553 76.0
149.617828 176.0
149.7547 316.0
149.774185 108.0
149.793671 180.0
149.927673 72.0
149.9496 228.0
149.981293 124.0
150.006821 152.0
150.044662 56.0
150.083679 52.0
150.15683 76.0
150.205612 148.0
150.249527 108.0
150.28125 176.0
150.37645 368.0
150.447205 68.0
150.498474 136.0
150.564407 48.0
150.603485 124.0
150.662109 36.0
150.734467 168.0
150.78183 160.0
150.809937 152.0
150.874725 128.0
150.90889 188.0
150.970078 144.0
151.041 156.0
151.089935 164.0
151.125412 176.0
151.173477 164.0
151.202484 204.0
151.26123 140.0
151.306854 200.0
151.479156 104.0
151.537964 200.0
151.591599 180.0
151.615723 152.0
151.650681 108.0
151.707062 108.0
151.724213 232.0
151.780609 184.0
151.892761 192.0
151.919342 152.0
151.984192 200.0
152.013641 124.0
152.057816 128.0
152.087265 132.0
152.160919 68.0
152.195282 68.0
152.301071 216.0
152.396698 160.0
152.421265 224.0
152.512192 132.0
152.567184 164.0
152.594345 180.0
152.652328 104.0
152.703964 308.0
152.728928 160.0
152.767929 104.0
152.793594 228.0
152.854034 60.0
152.979553 88.0
153.063263 300.0
153.170135 344.0
153.211044 108.0
153.228287 188.0
153.277557 160.0
153.331772 168.0
153.430374 60.0
153.514206 168.0
153.565994 176.0
153.585724 104.0
153.644928 136.0
153.698364 176.0
153.857025 68.0
153.889267 76.0
154.037445 104.0
154.064606 152.0
154.133789 196.0
154.18074 268.0
154.225235 124.0
154.284561 160.0
154.336472 120.0
154.390884 116.0
154.433517 168.0
154.477448 28.0
154.501816 136.0
154.573929 120.0
154.623428 184.0
154.646896 172.0
154.707581 100.0
154.771957 124.0
154.816528 152.0
154.926117 180.0
154.985916 260.0
155.00975 192.0
155.08049 324.0
155.126236 156.0
155.153503 88.0
155.208054 136.0
155.242767 32.0
155.27005 68.0
155.299805 136.0
155.332047 52.0
155.390762 108.0
155.428802 276.0
155.475952 252.0
155.530563 168.0
155.5802 88.0
155.599289 116.0
155.65271 192.0
155.680878 184.0
155.784088 200.0
155.873276 220.0
155.903107 128.0
155.933716 136.0
155.952805 200.0
155.980286 148.0
156.066284 332.0
156.147736 268.0
156.174088 192.0
156.243744 168.0
156.328339 164.0
156.36319 144.0
156.415451 108.0
156.432877 112.0
156.537445 148.0
156.589737 164.0
156.674438 164.0
156.772903 176.0
156.804001 68.0
156.836411 40.0
156.893738 244.0
156.918671 200.0
156.946091 48.0
156.993469 192.0
157.02803 192.0
157.053329 144.0
157.091461 344.0
157.153122 160.0
157.193039 76.0
157.237961 144.0
157.28038 92.0
157.34079 164.0
157.372757 152.0
157.40271 212.0
157.425186 108.0
157.475952 136.0
157.49762 108.0
157.595047 132.0
157.625031 68.0
157.699997 140.0
157.737488 144.0
157.782486 144.0
157.834991 148.0
157.972549 128.0
157.990067 144.0
158.067017 132.0
158.099136 1524.0
158.195267 184.0
158.222809 156.0
158.252853 216.0
158.271927 116.0
158.277603 72.0
158.290131 180.0
158.345505 136.0
158.468613 164.0
158.570984 172.0
158.658722 240.0
158.734512 172.0
158.786591 144.0
158.859329 112.0
159.117081 7284.0
159.178085 112.0
159.220764 108.0
159.247421 184.0
159.288589 204.0
159.322693 160.0
159.344559 176.0
159.425964 212.0
159.444366 196.0
159.552444 216.0
159.573715 80.0
159.615311 116.0
159.65303 188.0
159.693268 88.0
159.741058 112.0
159.768097 176.0
159.8246 136.0
159.864334 104.0
159.904602 164.0
159.927261 132.0
159.952423 132.0
159.992706 228.0
160.022919 56.0
160.04306 88.0
160.073151 160.0
160.125549 40552.0
160.168915 172.0
160.212402 184.0
160.257736 52.0
160.299179 252.0
160.347107 100.0
160.391769 204.0
160.463058 80.0
160.492569 100.0
160.519287 60.0
160.54213 48.0
160.589905 116.0
160.61261 60.0
160.638855 148.0
160.663055 52.0
160.693008 124.0
160.718979 48.0
160.749634 152.0
160.790695 164.0
160.84726 148.0
160.917953 152.0
160.961761 216.0
161.006332 172.0
161.041077 180.0
161.061081 308.0
161.078781 188.0
161.132858 39884.0
161.183014 384.0
161.216003 24.0
161.243805 92.0
161.283875 80.0
161.310638 64.0
161.34491 100.0
161.357346 48.0
161.36557 144.0
161.409744 112.0
161.448181 156.0
161.50766 132.0
161.549164 136.0
161.572525 144.0
161.593903 80.0
161.615234 172.0
161.673737 36.0
161.751129 124.0
161.807892 240.0
161.82814 88.0
161.848404 236.0
161.891037 228.0
161.91539 132.0
161.93634 132.0
161.999786 196.0
162.044006 160.0
162.07843 172.0
162.108475 220.0
162.136459 3284.0
162.173584 196.0
162.192932 160.0
162.238571 80.0
162.279129 308.0
162.310608 136.0
162.350128 124.0
162.373795 84.0
162.412628 112.0
162.44397 172.0
162.502319 100.0
162.530228 136.0
162.563217 216.0
162.626663 112.0
162.64444 96.0
162.705353 76.0
162.768829 52.0
162.79422 76.0
162.811996 192.0
162.883118 176.0
162.944092 128.0
162.973099 96.0
163.017776 108.0
163.035355 48.0
163.058426 140.0
163.081314 44.0
163.120392 220.0
163.144318 348.0
163.178391 168.0
163.2491 220.0
163.291656 76.0
163.301239 96.0
163.305618 124.0
163.335571 124.0
163.356049 132.0
163.376266 108.0
163.396622 40.0
163.462036 76.0
163.484406 120.0
163.491669 124.0
163.512665 100.0
163.615494 52.0
163.656235 148.0
163.684235 100.0
163.76828 80.0
163.913483 92.0
163.938965 60.0
163.959366 204.0
164.094452 96.0
164.14035 136.0
164.290833 116.0
164.341858 164.0
164.400543 152.0
164.420959 104.0
164.477112 32.0
164.530716 128.0
164.611389 128.0
164.719696 160.0
164.837219 184.0
164.950943 184.0
165.028915 144.0
165.067276 156.0
165.087723 220.0
165.139359 196.0
165.174683 84.0
165.225845 208.0
165.28981 108.0
165.320526 148.0
165.403732 172.0
165.482941 88.0
165.602127 132.0
165.702042 144.0
165.741821 208.0
165.769363 160.0
165.912766 176.0
165.999359 152.0
166.0327 68.0
166.07373 80.0
166.178909 164.0
166.230225 124.0
166.435577 120.0
166.512619 184.0
166.599945 128.0
166.63591 160.0
166.67189 132.0
166.7901 64.0
166.844574 188.0
166.890366 188.0
166.921219 112.0
166.941788 148.0
166.982941 216.0
167.028397 196.0
167.082993 156.0
167.160446 156.0
167.19133 160.0
167.25058 176.0
167.358643 108.0
167.388123 140.0
167.500992 148.0
167.536346 112.0
167.650085 116.0
167.803116 168.0
167.832748 140.0
167.961685 100.0
168.031342 72.0
168.094604 176.0
168.113907 48.0
168.225403 204.0
168.302292 180.0
168.36174 292.0
168.41597 148.0
168.43663 192.0
168.496048 164.0
168.545135 120.0
168.576141 192.0
168.607162 120.0
168.666611 104.0
168.811386 124.0
168.876038 184.0
168.969162 256.0
169.000214 132.0
169.063461 144.0
169.101028 212.0
169.155487 264.0
169.189148 200.0
169.212448 156.0
169.265137 220.0
169.290756 180.0
169.312363 204.0
169.404083 40.0
169.585464 140.0
169.671005 168.0
169.766937 180.0
169.797714 148.0
169.878464 184.0
169.969269 408.0
170.021179 192.0
170.05751 172.0
170.103806 336.0
170.172318 140.0
170.324936 120.0
170.363907 72.0
170.428864 192.0
170.571793 92.0
170.725189 76.0
170.7798 52.0
170.798019 116.0
170.931061 56.0
170.956726 280.0
171.108658 460.0
171.305603 132.0
171.407211 212.0
171.495819 164.0
171.589417 168.0
171.674606 136.0
171.758179 112.0
171.850479 224.0
171.949631 100.0
171.975739 136.0
172.11142 820.0
172.167633 112.0
172.215942 176.0
172.255127 168.0
172.279938 128.0
172.430176 148.0
172.498138 192.0
172.537354 120.0
172.573959 120.0
172.610565 164.0
172.647171 132.0
172.673325 204.0
172.702087 188.0
172.730865 132.0
172.838135 136.0
172.903137 76.0
172.976273 168.0
172.993393 196.0
173.016434 172.0
173.078186 180.0
173.10762 4804.0
173.133286 1028.0
173.162735 180.0
173.266647 140.0
173.335632 68.0
173.368683 76.0
173.422119 44.0
173.474777 44.0
173.508621 64.0
173.592529 64.0
173.616135 168.0
173.642349 152.0
173.704514 228.0
173.899475 236.0
173.957962 184.0
174.038605 84.0
174.056976 192.0
174.114166 1924.0
174.156784 40.0
174.201431 48.0
174.238205 176.0
174.259232 208.0
174.314407 200.0
174.366959 360.0
174.401398 116.0
174.453705 168.0
174.474106 288.0
174.517593 172.0
174.556244 172.0
174.611465 68.0
174.640396 88.0
174.658813 120.0
174.700897 136.0
174.719315 124.0
174.748245 160.0
174.814026 140.0
174.861404 248.0
174.907776 200.0
174.951981 224.0
174.998291 156.0
175.027252 412.0
175.04509 212.0
175.093887 276.0
175.148972 39924.0
175.214783 160.0
175.237961 156.0
175.269196 56.0
175.276489 76.0
175.306061 104.0
175.340607 164.0
175.365112 180.0
175.387238 68.0
175.42598 52.0
175.47699 152.0
175.57164 136.0
175.596466 88.0
175.630753 32.0
175.675598 100.0
175.715164 104.0
175.744781 140.0
175.81543 144.0
175.836548 292.0
175.934982 176.0
175.992126 256.0
176.066223 184.0
176.152206 5140.0
176.268311 160.0
176.30072 204.0
176.323212 176.0
176.372711 104.0
176.401779 44.0
176.427689 220.0
176.457306 64.0
176.487457 148.0
176.512817 68.0
176.557053 176.0
176.607498 160.0
176.681213 108.0
176.715118 100.0
176.799301 216.0
176.848801 152.0
177.12677 224.0
177.15683 472.0
177.203552 112.0
177.330841 176.0
177.37326 60.0
177.430588 240.0
177.465622 68.0
177.550888 72.0
177.702087 164.0
177.803665 200.0
177.927673 108.0
177.958344 140.0
178.024078 52.0
178.102066 164.0
178.172012 68.0
178.195923 88.0
178.254379 60.0
178.330078 140.0
178.4617 40.0
178.541473 76.0
178.663834 212.0
178.719315 164.0
179.025818 120.0
179.121689 52.0
179.166977 32.0
179.197876 168.0
179.396164 232.0
179.417496 76.0
179.52681 140.0
179.629379 176.0
179.793579 176.0
179.876328 52.0
179.921707 192.0
179.980438 176.0
180.057877 52.0
180.08493 156.0
180.148697 64.0
180.197342 76.0
180.244873 156.0
180.279617 156.0
180.405243 124.0
180.488113 136.0
180.64859 76.0
180.682831 180.0
180.75293 156.0
180.774338 140.0
180.918869 32.0
180.942963 200.0
181.09024 44.0
181.130829 180.0
181.307251 152.0
181.377762 168.0
181.419815 124.0
181.468079 80.0
181.537064 340.0
181.564606 208.0
181.626297 108.0
181.91507 104.0
182.077194 52.0
182.10675 176.0
182.17659 108.0
182.198074 168.0
182.219574 264.0
182.289429 228.0
182.337799 148.0
182.47757 136.0
182.50177 76.0
182.52597 452.0
182.695419 152.0
182.827255 184.0
182.873016 236.0
182.913376 192.0
182.956451 104.0
183.025482 264.0
183.111206 448.0
183.30928 40.0
183.336243 144.0
183.360489 44.0
183.427872 124.0
183.468307 164.0
183.500656 164.0
183.562668 112.0
183.623489 132.0
183.65976 156.0
183.743393 164.0
183.84053 168.0
183.886398 144.0
183.964676 124.0
184.072678 124.0
184.111908 260.0
184.283356 212.0
184.596909 184.0
184.67804 196.0
184.753616 136.0
184.78894 132.0
184.905304 80.0
184.943192 88.0
185.008163 88.0
185.113541 452.0
185.122009 452.0
185.230209 236.0
185.249176 152.0
185.343994 148.0
185.368378 164.0
185.465942 144.0
185.566254 160.0
185.631317 104.0
185.671997 64.0
185.690979 136.0
185.77272 244.0
186.01387 216.0
186.127289 1324.0
186.231094 100.0
186.276489 84.0
186.375076 80.0
186.513184 136.0
186.652313 192.0
186.682236 48.0
186.705322 120.0
186.761108 212.0
186.793747 96.0
186.841141 168.0
186.865967 88.0
186.997818 224.0
187.082199 160.0
187.124573 2608.0
187.270081 248.0
187.30928 184.0
187.501663 64.0
187.65976 148.0
187.681564 220.0
187.82338 36.0
187.883392 152.0
187.910675 192.0
187.94342 152.0
188.041077 76.0
188.056931 148.0
188.131332 2944.0
188.17984 112.0
188.199982 100.0
188.254898 224.0
188.283127 224.0
188.320297 144.0
188.344727 124.0
188.363846 132.0
188.410278 108.0
188.496735 200.0
188.508392 128.0
188.51506 208.0
188.573273 68.0
188.615723 296.0
188.646484 120.0
188.719116 168.0
188.739624 160.0
188.777451 120.0
188.833969 168.0
188.864822 312.0
188.910782 192.0
188.942947 152.0
188.985184 200.0
188.990509 272.0
189.00177 176.0
189.013382 132.0
189.021225 196.0
189.033463 348.0
189.044174 168.0
189.052383 260.0
189.139954 107152.0
189.197662 180.0
189.232407 204.0
189.259171 212.0
189.300995 168.0
189.326462 48.0
189.351578 148.0
189.375412 92.0
189.400101 176.0
189.486176 104.0
189.545441 152.0
189.582016 192.0
189.616989 184.0
189.634872 148.0
189.664261 76.0
189.701004 116.0
189.734848 116.0
189.774963 124.0
189.812103 68.0
189.836304 84.0
189.927719 60.0
189.939545 68.0
189.960068 160.0
189.982819 160.0
190.00499 56.0
190.027145 208.0
190.05574 208.0
190.074951 144.0
190.094162 124.0
190.142365 9356.0
190.212173 56.0
190.257507 140.0
190.291779 44.0
190.317657 132.0
190.347992 136.0
190.388382 88.0
190.427368 80.0
190.471542 96.0
190.526321 180.0
190.574936 116.0
190.645798 104.0
190.656998 92.0
190.69664 64.0
190.74231 88.0
190.780807 64.0
190.866028 72.0
190.885284 96.0
190.904526 52.0
190.937531 88.0
190.96228 60.0
191.004395 136.0
191.047546 48.0
191.066803 252.0
191.143646 680.0
191.231918 176.0
191.252548 168.0
191.30275 244.0
191.322601 224.0
191.369324 148.0
191.404083 100.0
191.453369 208.0
191.501724 168.0
191.545807 28.0
191.599121 92.0
191.633957 44.0
191.685837 140.0
191.704025 232.0
191.726181 128.0
191.751709 60.0
191.80481 112.0
191.826874 88.0
191.876495 128.0
191.975754 136.0
192.006088 152.0
192.092926 132.0
192.121933 200.0
192.157806 184.0
192.208725 140.0
192.276459 124.0
192.298538 132.0
192.497299 128.0
192.569412 108.0
192.602249 160.0
192.627106 172.0
192.656311 96.0
192.712753 68.0
192.745911 64.0
192.798416 136.0
192.817749 140.0
193.016647 160.0
193.155075 92.0
193.202103 244.0
193.240829 72.0
193.265732 128.0
193.37088 48.0
193.53421 156.0
193.561081 204.0
193.65329 160.0
193.847214 200.0
193.966385 172.0
194.030151 184.0
194.127197 176.0
194.182663 48.0
194.33522 76.0
194.360199 136.0
194.396271 212.0
194.493408 124.0
194.576691 172.0
194.610001 128.0
194.632217 72.0
194.671097 88.0
194.854416 52.0
194.904419 148.0
194.948502 384.0
195.041473 232.0
195.075165 128.0
195.175491 144.0
195.232437 132.0
195.365936 312.0
195.660934 36.0
195.738892 204.0
195.794586 204.0
195.858093 120.0
195.928284 184.0
195.967285 168.0
196.11499 128.0
196.184677 164.0
196.251587 112.0
196.337509 196.0
196.381668 176.0
196.483078 148.0
196.594681 160.0
196.680084 220.0
196.717484 124.0
196.804031 112.0
196.840332 124.0
196.859879 164.0
197.121979 188.0
197.17276 148.0
197.295746 260.0
197.578201 156.0
197.643097 224.0
197.723709 156.0
197.746094 116.0
197.807678 96.0
197.893066 176.0
198.005188 192.0
198.1129 320.0
198.185745 156.0
198.215378 220.0
198.320267 92.0
198.690414 36.0
198.847549 148.0
198.909302 180.0
198.948593 140.0
199.123856 444.0
199.150772 100.0
199.226608 128.0
199.263138 104.0
199.383957 172.0
199.47142 156.0
199.516068 80.0
199.569489 100.0
199.603226 144.0
199.811356 148.0
199.879639 180.0
200.016785 180.0
200.04213 48.0
200.127213 336.0
200.155029 184.0
200.191345 196.0
200.244858 168.0
200.273026 48.0
200.365982 140.0
200.385696 196.0
200.523148 236.0
200.664719 76.0
200.881866 116.0
200.997543 196.0
201.02858 128.0
201.107605 48.0
201.139221 476.0
201.22052 84.0
201.254395 156.0
201.299576 176.0
201.460556 148.0
201.517059 240.0
201.545319 184.0
201.727402 160.0
201.88736 32.0
202.003311 152.0
202.113647 192.0
202.145752 2936.0
202.287354 152.0
202.360947 172.0
202.453339 120.0
202.676682 104.0
202.713181 176.0
202.747955 196.0
202.855667 40.0
202.901031 204.0
202.937881 40.0
203.07251 176.0
203.119385 140.0
203.151871 608.0
203.199448 112.0
203.22435 112.0
203.454224 204.0
203.655838 164.0
203.925766 224.0
204.129166 124.0
204.158447 180.0
204.201538 152.0
204.244202 100.0
204.323853 84.0
204.491745 248.0
204.668564 108.0
204.822021 172.0
204.847656 80.0
205.109818 232.0
205.161133 36.0
205.212448 44.0
205.317947 36.0
205.403519 132.0
205.423477 96.0
205.549011 180.0
205.754517 68.0
205.96051 116.0
206.088669 104.0
206.185837 128.0
206.257278 184.0
206.305878 160.0
206.337326 160.0
206.448837 88.0
206.508896 332.0
206.571823 88.0
206.640488 232.0
206.669098 156.0
206.843658 48.0
206.946732 148.0
206.98967 136.0
207.109955 152.0
207.23732 140.0
207.382156 196.0
207.473969 132.0
207.577103 180.0
207.625854 172.0
207.654526 56.0
207.68895 128.0
207.717636 104.0
207.783615 144.0
207.878296 172.0
207.932816 140.0
207.964386 84.0
208.030411 40.0
208.053375 88.0
208.189804 124.0
208.570435 152.0
208.604935 112.0
208.63736 156.0
208.699814 76.0
208.938522 44.0
209.030594 164.0
209.08815 172.0
209.393311 68.0
209.436523 100.0
209.52005 180.0
209.678543 116.0
209.848602 56.0
209.940872 180.0
210.059128 200.0
210.393875 96.0
210.506485 128.0
210.63356 68.0
210.668228 104.0
210.772232 196.0
210.838699 60.0
210.861816 156.0
210.887375 228.0
211.260834 184.0
211.338943 168.0
211.385254 144.0
211.618027 228.0
211.712357 84.0
211.738419 240.0
212.028137 48.0
212.051315 200.0
212.094788 112.0
212.139923 200.0
212.219452 140.0
212.294846 40.0
212.341248 172.0
212.373138 184.0
212.415421 132.0
212.463074 232.0
212.55011 96.0
212.982681 124.0
213.10759 128.0
213.138489 896.0
213.180237 144.0
213.299393 140.0
213.409866 92.0
213.45929 140.0
213.52327 128.0
213.543625 180.0
213.627991 84.0
213.837479 108.0
213.898605 220.0
214.06456 180.0
214.146988 500.0
214.253876 248.0
214.297577 196.0
214.411224 112.0
214.457855 76.0
214.546509 116.0
214.828171 104.0
214.88652 164.0
215.027084 164.0
215.064606 156.0
215.077377 140.0
215.155457 16540.0
215.188873 232.0
215.213409 312.0
215.242615 36.0
215.286407 144.0
215.499649 96.0
215.601913 100.0
215.786072 48.0
215.815308 48.0
215.923508 220.0
215.987839 164.0
216.02002 40.0
216.096085 240.0
216.159119 1976.0
216.262878 188.0
216.500031 196.0
216.554703 144.0
216.582031 140.0
216.622223 156.0
216.653702 128.0
216.713959 116.0
216.754883 152.0
216.854523 188.0
216.948318 208.0
217.103714 208.0
217.159439 220.0
217.229828 200.0
217.341324 60.0
217.488052 88.0
217.567307 148.0
217.620148 76.0
217.66803 132.0
217.690628 160.0
217.775787 112.0
217.934433 228.0
217.964905 172.0
218.060791 108.0
218.195999 204.0
218.222458 168.0
218.248917 48.0
218.404785 44.0
218.478333 52.0
218.572479 180.0
218.660751 124.0
218.707855 148.0
218.813889 184.0
219.155472 176.0
219.198532 196.0
219.400085 208.0
219.450211 128.0
219.500336 76.0
219.683197 108.0
219.736298 124.0
219.824814 168.0
220.119858 2424.0
220.173157 168.0
220.241089 144.0
220.303116 52.0
220.338562 136.0
220.385834 68.0
220.474487 104.0
220.61203 120.0
220.764191 108.0
220.841095 232.0
221.083694 184.0
221.129013 544.0
221.219833 132.0
221.317535 32.0
221.378113 80.0
221.44191 148.0
221.468567 144.0
221.690765 132.0
222.127243 164.0
222.28978 72.0
222.328079 132.0
222.447067 116.0
222.549301 192.0
222.666611 136.0
222.729172 148.0
222.865814 180.0
222.922638 196.0
222.946045 160.0
223.05304 124.0
223.139252 196.0
223.168991 120.0
223.237381 92.0
223.424759 136.0
223.475342 184.0
223.519806 72.0
223.544296 228.0
223.630081 172.0
223.671753 132.0
223.725327 172.0
223.92186 60.0
223.987381 152.0
224.035049 120.0
224.228714 164.0
224.259262 80.0
224.31218 168.0
224.425461 72.0
224.613342 180.0
224.684937 44.0
224.762512 172.0
224.873489 232.0
224.977402 52.0
225.13266 164.0
225.191788 248.0
225.361252 136.0
225.440353 140.0
225.673508 140.0
225.694427 124.0
225.802094 76.0
226.102585 168.0
226.239014 200.0
226.391647 68.0
226.535416 132.0
226.757141 152.0
226.794388 176.0
226.936996 120.0
227.027985 76.0
227.068939 140.0
227.110336 224.0
227.146927 116.0
227.17392 124.0
227.284927 76.0
227.308044 148.0
227.389954 36.0
227.561066 64.0
227.600098 88.0
227.690186 156.0
227.713715 144.0
227.780289 92.0
227.804031 168.0
227.881332 176.0
227.986038 108.0
228.056717 100.0
228.137741 200.0
228.173782 232.0
228.209595 188.0
228.267166 88.0
228.294235 168.0
228.35437 160.0
228.465042 152.0
228.492294 188.0
228.537872 96.0
228.561005 224.0
228.586807 152.0
228.620087 112.0
228.636581 192.0
228.679886 148.0
228.712418 160.0
228.737686 176.0
228.76001 340.0
228.815872 120.0
228.860016 260.0
228.893051 252.0
228.917786 360.0
228.964142 152.0
229.013092 144.0
229.1008 316.0
229.171127 109548.0
229.238297 320.0
229.288651 124.0
229.321991 76.0
229.368362 248.0
229.421371 68.0
229.45282 172.0
229.473648 96.0
229.520599 360.0
229.556122 252.0
229.592163 84.0
229.615356 336.0
229.636978 56.0
229.668259 492.0
229.700745 88.0
229.740601 116.0
229.771973 180.0
229.812378 152.0
229.854843 88.0
229.881775 44.0
229.915833 160.0
229.957214 176.0
229.995667 108.0
230.015594 120.0
230.04808 276.0
230.072662 224.0
230.101151 164.0
230.176727 44356.0
230.258514 136.0
230.291733 136.0
230.327301 164.0
230.3405 68.0
230.353958 240.0
230.390167 248.0
230.409149 156.0
230.437485 184.0
230.512131 64.0
230.53511 180.0
230.569733 132.0
230.612289 72.0
230.643509 256.0
230.674759 132.0
230.700272 88.0
230.722534 140.0
230.745621 72.0
230.777588 112.0
230.821365 76.0
230.878143 128.0
230.952805 256.0
230.982941 152.0
231.014587 144.0
231.07663 148.0
231.111588 108.0
231.133835 212.0
231.179749 3844.0
231.259872 56.0
231.31015 92.0
231.331436 124.0
231.372818 88.0
231.405167 96.0
231.452179 188.0
231.465347 188.0
231.48996 176.0
231.550049 152.0
231.593933 116.0
231.641006 96.0
231.686234 80.0
231.73642 236.0
231.773178 104.0
231.804993 108.0
231.871964 120.0
231.901337 96.0
231.940414 144.0
231.988327 104.0
232.043152 132.0
232.127441 128.0
232.182892 164.0
232.214249 156.0
232.240036 60.0
232.262787 44.0
232.34166 96.0
232.438736 236.0
232.481232 64.0
232.587448 40.0
232.63298 232.0
232.742279 64.0
232.771576 132.0
232.799973 64.0
232.824265 136.0
232.851593 128.0
232.918427 116.0
232.955994 108.0
233.002335 160.0
233.05011 80.0
233.125015 96.0
233.196487 248.0
233.307632 96.0
233.337784 124.0
233.35907 200.0
233.438126 124.0
233.486786 64.0
233.550644 84.0
233.572327 64.0
233.757523 124.0
233.836655 76.0
233.973618 208.0
234.031464 192.0
234.123383 164.0
234.137726 76.0
234.274841 136.0
234.416992 176.0
234.717041 232.0
234.771927 124.0
234.826828 164.0
235.012909 76.0
235.125809 160.0
235.284531 128.0
235.385284 60.0
235.736572 140.0
235.797699 172.0
235.933212 72.0
235.996399 104.0
236.106476 120.0
236.140121 124.0
236.409332 184.0
236.455246 40.0
236.522583 112.0
236.562378 148.0
236.586868 148.0
236.623596 92.0
236.694016 68.0
236.799911 104.0
236.856339 144.0
237.174744 144.0
237.39267 96.0
237.546021 72.0
237.616592 204.0
237.641129 52.0
237.702499 124.0
237.76387 80.0
237.849808 156.0
238.279724 104.0
238.473328 64.0
238.571609 164.0
238.746948 136.0
238.771545 180.0
238.993027 176.0
239.066879 40.0
239.193069 64.0
239.350082 220.0
239.383942 124.0
239.467102 100.0
239.491745 60.0
239.531784 204.0
239.713318 208.0
239.839905 176.0
239.920059 108.0
240.141037 152.0
240.345673 52.0
240.385788 136.0
240.484543 180.0
240.512329 124.0
240.605377 168.0
240.629623 72.0
240.77475 260.0
240.796371 164.0
240.867416 176.0
241.021881 160.0
241.327881 40.0
241.491776 248.0
241.590759 104.0
241.747849 248.0
241.770218 216.0
241.798065 128.0
242.274918 84.0
242.304947 132.0
242.349274 156.0
242.376663 128.0
242.583191 292.0
242.699509 84.0
242.730515 184.0
242.811142 80.0
243.018982 156.0
243.068619 88.0
243.112579 244.0
243.156982 240.0
243.187347 364.0
243.273468 108.0
243.388336 104.0
243.54361 144.0
243.580887 196.0
243.608841 120.0
243.646118 228.0
243.695831 124.0
243.75798 160.0
243.801483 92.0
243.891617 80.0
243.942993 136.0
243.973984 184.0
244.022171 140.0
244.093689 340.0
244.154343 132.0
244.214401 108.0
244.22261 88.0
244.231781 148.0
244.253586 300.0
244.279846 280.0
244.308289 152.0
244.365738 236.0
244.407852 128.0
244.456863 80.0
244.490433 196.0
244.572784 104.0
244.612335 108.0
244.665985 340.0
244.686966 88.0
244.693497 160.0
244.733597 272.0
244.7444 148.0
244.755981 104.0
244.789124 312.0
244.833603 200.0
244.877884 520.0
244.901108 116.0
244.909836 160.0
244.933975 140.0
244.971176 136.0
244.995346 228.0
245.030136 60.0
245.036819 168.0
245.050934 176.0
245.078918 180.0
245.131531 628.0
245.202774 220540.0
245.263489 196.0
245.288803 280.0
245.341507 116.0
245.37735 204.0
245.4142 128.0
245.456482 328.0
245.506348 228.0
245.53511 216.0
245.595947 140.0
245.646149 176.0
245.682587 132.0
245.715057 2292.0
245.759537 336.0
245.812881 232.0
245.855911 40.0
245.910446 160.0
245.944641 68.0
245.985062 128.0
246.020996 148.0
246.07724 152.0
246.099258 116.0
246.111847 140.0
246.124725 88.0
246.132294 168.0
246.204849 33368.0
246.28685 144.0
246.34198 148.0
246.385452 132.0
246.431396 56.0
246.491486 52.0
246.52037 92.0
246.546616 268.0
246.583282 84.0
246.680069 120.0
246.707733 72.0
246.762573 108.0
246.79837 68.0
246.843582 124.0
246.887756 40.0
246.935638 104.0
246.984238 52.0
246.995529 96.0
247.023727 120.0
247.108063 64.0
247.163284 100.0
247.208359 2288.0
247.308487 84.0
247.330032 44.0
247.365036 88.0
247.421417 72.0
247.454819 180.0
247.497711 148.0
247.547745 80.0
247.578903 160.0
247.611313 40.0
247.641037 116.0
247.655716 232.0
247.663757 76.0
247.708557 92.0
247.746048 124.0
247.805542 192.0
247.854477 248.0
247.905853 164.0
247.977631 168.0
248.006851 144.0
248.057037 96.0
248.096863 88.0
248.132629 56.0
248.151489 192.0
248.193542 48.0
248.230713 80.0
248.243713 180.0
248.315842 116.0
248.350342 80.0
248.386475 116.0
248.41011 124.0
248.453857 72.0
248.538574 80.0
248.596893 96.0
248.70961 148.0
248.795929 60.0
248.823013 104.0
248.907211 108.0
248.987473 44.0
249.055099 128.0
249.10054 96.0
249.141373 96.0
249.180084 88.0
249.223068 72.0
249.332916 96.0
249.392761 60.0
249.414185 44.0
249.531082 44.0
249.60025 52.0
249.804672 96.0
249.826691 64.0
249.999741 92.0
250.122482 116.0
250.172852 80.0
250.222778 28.0
250.286194 100.0
250.336578 116.0
250.412155 44.0
250.500351 108.0
250.558899 96.0
250.661026 96.0
250.780792 64.0
250.903717 36.0
251.077148 40.0
251.376831 240.0
251.550415 136.0
251.775253 76.0
251.954636 92.0
252.033615 52.0
252.422409 64.0
252.555237 80.0
253.375107 44.0
253.733231 64.0
253.866394 80.0
254.24707 80.0
254.554993 148.0
254.596283 76.0
255.180954 48.0
255.206375 76.0
255.228638 48.0
255.359024 60.0
255.744003 68.0
256.294922 156.0
256.329987 120.0
256.400085 96.0
256.502075 44.0
256.572205 80.0
256.697357 96.0
256.856018 104.0
256.980438 88.0
257.187866 84.0
257.39856 60.0
257.549194 72.0
257.618958 116.0
257.641296 104.0
257.68924 40.0
257.916107 104.0
257.973663 88.0
257.996033 80.0
258.223053 52.0
258.75766 124.0
259.503937 92.0
259.705963 72.0
259.773315 56.0
259.901642 148.0
260.02359 92.0
260.155212 44.0
260.608032 104.0
260.643372 128.0
260.746216 116.0
260.794434 68.0
260.871552 40.0
260.951935 116.0
261.09021 132.0
261.157745 40.0
261.405457 44.0
261.698364 60.0
261.920563 88.0
262.121857 180.0
262.168884 3620.0
262.458771 124.0
262.642578 108.0
262.674835 56.0
262.987823 88.0
263.010437 84.0
263.052399 32.0
263.171326 516.0
263.391449 28.0
263.543274 52.0
264.174591 144.0
264.458435 104.0
264.788696 104.0
265.018677 124.0
265.15155 140.0
265.320099 80.0
266.592438 88.0
267.034576 100.0
267.822235 56.0
267.89389 96.0
268.281677 72.0
269.655853 68.0
272.690765 104.0
273.345215 52.0
273.524689 104.0
273.723755 68.0
274.831268 56.0
275.511383 60.0
277.115936 84.0
278.323242 88.0
278.891327 48.0
279.323578 116.0
279.443359 84.0
279.709564 128.0
281.710327 72.0
282.148102 64.0
284.791992 60.0
285.837524 72.0
287.920807 76.0
289.236023 48.0
290.689941 108.0
291.844849 68.0
291.882233 60.0
292.463989 120.0
292.828278 88.0
293.561005 72.0
296.463287 124.0
296.878082 84.0
298.082977 60.0
298.120789 88.0
299.583038 116.0
301.795288 120.0
301.961273 92.0
307.157379 64.0
307.467896 104.0
309.365814 152.0
309.870117 60.0
311.037903 44.0
311.905487 56.0
314.762665 88.0
315.168884 100.0
315.200684 64.0
315.695557 44.0
317.140015 148.0
317.246368 104.0
320.594513 136.0
324.404572 100.0
327.952362 116.0
329.381195 44.0
329.840118 48.0
331.842041 104.0
332.487701 108.0
332.516724 120.0
332.607483 40.0
334.388428 80.0
335.207825 152.0
335.772888 64.0
335.988068 104.0
336.338409 60.0
337.712219 84.0
340.295715 64.0
341.737885 92.0
341.923737 84.0
342.638458 60.0
344.276154 128.0
344.431274 40.0
346.723755 156.0
347.207123 80.0
347.934387 104.0
348.866852 140.0
348.970947 124.0
351.182922 60.0
351.455261 136.0
355.503998 84.0
356.108429 48.0
356.491638 72.0
357.665039 100.0
358.429535 48.0
358.810211 108.0
359.281616 140.0
359.538208 44.0
360.089386 112.0
360.123383 92.0
360.996399 124.0
364.225433 128.0
364.426758 40.0
365.639801 40.0
366.938721 56.0
367.396362 80.0
368.14444 100.0
369.069153 56.0
370.301392 52.0
371.83493 72.0
374.075775 100.0
374.295227 48.0
375.324005 44.0
375.516846 56.0
377.095917 80.0
380.244659 84.0
380.819244 68.0
382.195404 84.0
382.537903 84.0
383.811859 40.0
384.674072 68.0
385.298889 72.0
386.479614 124.0
386.690918 56.0
386.972778 52.0
389.88739 112.0
390.484802 56.0
390.81131 84.0
392.800781 36.0
396.406494 52.0
396.913849 56.0
398.879059 52.0
400.156036 112.0
401.48291 92.0
402.576355 60.0
402.732117 80.0
403.551331 96.0
406.647827 124.0
407.117554 48.0
407.523254 68.0
408.061798 68.0
410.848724 104.0
411.732666 96.0
414.669861 76.0
414.856293 76.0
417.101074 104.0
419.376373 132.0
422.262939 116.0
422.483826 44.0
423.00351 104.0
425.106049 44.0
425.545258 84.0
425.812164 44.0
431.411835 60.0
432.462494 84.0
432.743958 60.0
433.211945 48.0
434.37262 140.0
434.870544 72.0
434.990906 124.0
435.472565 56.0
438.372223 68.0
440.136688 44.0
441.21463 32.0
443.114655 68.0
446.371735 52.0
446.981659 68.0
447.983704 60.0
448.341827 72.0
451.994537 76.0
452.104584 52.0
452.146881 64.0
453.239441 40.0
453.391968 76.0
454.685455 88.0
458.879608 80.0
459.516968 64.0
461.112122 136.0
466.977234 76.0
467.60968 156.0
468.694885 84.0
468.931915 72.0
472.849152 48.0
477.113007 100.0
479.533203 80.0
485.77713 60.0
488.047668 96.0
489.918121 80.0
491.748047 108.0
491.809845 40.0
492.821106 92.0
493.753815 124.0
496.362122 144.0
500.503357 52.0
502.741089 88.0
504.90329 60.0
505.91452 48.0
507.038757 84.0
509.906555 92.0
510.311127 108.0
511.836426 124.0
514.821594 76.0
518.28656 124.0
521.0224 68.0
524.448914 36.0
527.219177 56.0
530.152588 76.0
531.445679 72.0
532.983826 112.0
533.126282 104.0
543.808533 84.0
544.44458 68.0
545.964233 76.0
546.773682 48.0
555.201599 60.0
557.970764 80.0
559.957642 116.0
560.706726 56.0
562.801208 84.0
563.065613 112.0
579.280518 60.0
583.724792 108.0
584.566589 120.0
586.198975 76.0
586.767761 76.0
587.317505 44.0
587.587646 132.0
588.383911 92.0
589.673645 64.0
590.88739 52.0
594.526306 112.0
597.621582 84.0
598.030396 60.0
603.347351 84.0
609.444275 80.0
609.906189 64.0
612.179199 36.0
618.869934 52.0
620.618958 48.0
627.370483 36.0
630.345154 212.0
630.590027 60.0
631.044861 68.0
632.620789 116.0
634.223694 116.0
634.40918 44.0
637.480835 76.0
640.091553 108.0
644.409119 64.0
649.486633 56.0
650.318726 68.0
650.912659 188.0
653.001343 84.0
657.663269 188.0
659.420227 48.0
669.75885 84.0
671.511292 128.0
673.41571 60.0
673.942627 72.0
684.086914 92.0
687.563416 100.0
688.675476 36.0
689.798889 64.0
691.849487 204.0
693.588623 64.0
694.548157 68.0
694.663574 60.0
695.377197 112.0
697.315186 44.0
702.960632 76.0
704.555176 68.0
706.833923 68.0
708.729553 68.0
710.579895 64.0
712.220276 52.0
719.296814 92.0
721.192993 56.0
722.03772 100.0
725.083984 128.0
726.193787 196.0
739.085083 56.0
740.286804 188.0
744.924011 40.0
746.331604 68.0
746.995117 156.0
748.856628 140.0
753.700867 76.0
756.002991 92.0
756.227417 116.0
759.38324 140.0
764.58606 88.0
767.676514 68.0
772.393127 212.0
781.713806 68.0
784.258911 116.0
784.314636 88.0
787.087341 96.0
795.468384 180.0
798.221313 68.0
800.252563 68.0
800.466553 128.0
805.288269 96.0
805.757141 116.0
806.847839 48.0
807.543396 180.0
813.748413 40.0
816.367859 224.0
818.46759 104.0
821.03186 216.0
821.197266 84.0
821.727783 132.0
827.23114 196.0
828.771729 80.0
832.437073 104.0
838.264221 148.0
840.565002 124.0
843.013428 52.0
844.892578 92.0
845.245483 68.0
851.117249 88.0
854.546509 116.0
860.333618 164.0
863.734558 60.0
863.834045 84.0
867.441162 128.0
871.784363 256.0
872.054688 52.0
872.142883 136.0
874.707458 88.0
878.343079 108.0
880.916748 112.0
885.950928 176.0
885.992432 184.0
888.690002 180.0
889.675171 124.0
890.643066 148.0
891.320312 160.0
891.498596 112.0
891.552063 224.0
891.819519 120.0
894.377136 240.0
894.627136 192.0
898.345642 260.0
898.542542 68.0
902.024109 196.0
903.572937 68.0
907.214111 136.0
911.763794 76.0
913.158569 132.0
915.614075 100.0
916.101929 216.0
916.246521 180.0
924.010437 232.0
925.923218 108.0
930.707764 84.0
931.576233 96.0
932.56665 116.0
933.314392 140.0
933.521118 52.0
935.382874 96.0
936.064758 168.0
937.06366 168.0
938.026489 164.0
941.485962 68.0
941.889038 176.0
943.954773 160.0
945.826843 92.0
952.565796 224.0
953.057251 220.0
954.120544 200.0
956.938293 188.0
958.015991 64.0
958.675293 136.0
959.254639 224.0
960.72229 184.0
960.777832 28.0
964.414917 76.0
964.989807 144.0
969.32251 112.0
970.831543 176.0
971.864746 40.0
975.522766 148.0
976.660645 116.0
976.903259 68.0
978.571106 196.0
979.193848 52.0
979.573792 224.0
979.978699 116.0
981.72406 68.0
983.914124 132.0
986.656677 164.0
988.257812 152.0
989.15271 220.0
989.215332 60.0
989.966614 144.0
990.235901 184.0
990.805908 64.0
991.595459 200.0
994.003601 112.0
996.791626 88.0
998.312866 60.0
998.507812 48.0
998.639893 52.0
1009.740173 76.0
1010.473938 188.0
1012.170166 88.0
1013.082214 156.0
1013.918579 72.0
1014.070679 140.0
1015.237183 108.0
1017.311951 192.0
1019.210938 160.0
1021.493286 148.0
1021.550537 88.0
1022.982361 196.0
1023.287903 120.0
1024.313232 176.0
1024.918457 208.0
1025.63855 132.0
1026.123047 180.0
1026.359009 40.0
1026.862793 92.0
1029.223877 156.0
1029.658081 60.0
1029.868896 176.0
1030.986938 96.0
1032.44458 60.0
1033.621582 104.0
1033.698364 196.0
1036.112183 92.0
1036.842651 172.0
1038.105591 156.0
1038.657104 236.0
1040.710693 76.0
1040.851929 84.0
1040.967529 144.0
1043.306274 188.0
1045.782837 160.0
1046.259155 208.0
1047.927124 216.0
1048.552246 192.0
1048.810059 160.0
1049.106567 148.0
1049.848022 208.0
1051.5448 116.0
1054.871216 124.0
1055.019897 132.0
1056.384399 60.0
1056.681885 224.0
1057.257812 148.0
1057.32251 204.0
1057.840332 176.0
1059.077148 164.0
1059.873901 60.0
1061.513916 204.0
1064.706665 132.0
1065.075439 208.0
1068.060303 104.0
1068.626343 52.0
1069.940918 200.0
1079.296997 76.0
1079.970581 180.0
1080.195923 200.0
1080.441528 128.0
1081.1875 180.0
1085.137329 68.0
1085.497925 76.0
1087.748291 112.0
1088.194702 60.0
1090.723877 156.0
1091.072266 140.0
1094.68457 160.0
1094.829346 164.0
1095.283813 68.0
1096.713623 152.0
1097.544312 224.0
1097.906982 160.0
1098.619385 100.0
1098.869995 196.0
1099.411133 180.0
1100.236206 168.0
1102.495117 112.0
1103.380859 244.0
1106.106323 192.0
1108.225464 100.0
1108.762207 164.0
1109.093628 168.0
1109.491333 164.0
1112.655884 120.0
1112.987793 152.0
1113.107422 44.0
1113.877808 184.0
1114.004028 192.0
1114.296265 156.0
1116.456543 196.0
1117.341187 196.0
1118.918457 40.0
1119.451172 212.0
1120.716797 180.0
1121.949707 228.0
1121.99646 116.0
1122.103027 200.0
1122.356445 184.0
1122.543213 232.0
1123.043335 148.0
1125.285522 80.0
1130.070923 128.0
1135.007324 156.0
1135.959717 64.0
1137.086914 56.0
1137.501099 204.0
1139.24231 156.0
1139.685669 144.0
1140.98291 184.0
1141.029907 204.0
1142.69104 168.0
1143.108276 112.0
1143.498535 164.0
1144.346802 52.0
1144.770996 120.0
1145.181763 132.0
1145.478149 224.0
1145.673462 168.0
1146.495483 160.0
1148.976807 168.0
1149.557129 152.0
1149.813599 124.0
1150.326538 160.0
1150.893677 136.0
1151.703979 176.0
1154.677856 96.0
1154.914551 236.0
1155.205444 136.0
1155.469238 196.0
1155.888794 104.0
1156.220337 64.0
1156.572266 180.0
1156.694214 176.0
1157.824829 84.0
1158.058838 196.0
1158.332886 132.0
1158.685059 172.0
1158.935791 80.0
1159.118774 168.0
1160.501465 184.0
1162.068237 28.0
1162.197144 48.0
1163.710693 152.0
1164.023071 192.0
1165.306763 44.0
1167.237061 208.0
1168.032837 116.0
1168.270874 196.0
1169.29834 212.0
1169.631836 164.0
1170.217285 148.0
1170.455566 164.0
1171.736084 176.0
1171.920044 88.0
1172.06311 132.0
1172.151733 188.0
1174.265015 180.0
1175.295166 32.0
1175.417969 168.0
1176.209595 60.0
1176.728394 212.0
1176.953735 68.0
1177.595703 48.0
1177.937134 156.0
1178.053345 204.0
1179.009888 208.0
1179.310547 160.0
1180.910522 200.0
1181.115723 192.0
1181.888794 160.0
1183.298706 224.0
1183.351318 156.0
1184.462891 220.0
1185.648193 152.0
1186.031982 84.0
1186.710693 224.0
1188.027466 184.0
1188.487061 100.0
1189.255737 220.0
1189.516479 144.0
1190.587646 132.0
1190.958496 156.0
1192.277588 144.0
1192.648804 184.0
1192.717529 168.0
1192.806885 176.0
1192.971802 188.0
1193.102417 140.0
1193.64563 116.0
1195.076294 180.0
1195.149414 240.0
1195.337769 160.0
1196.57666 168.0
1197.272095 156.0
1197.644043 40.0
1198.084961 212.0
1198.353638 216.0
1198.863525 244.0
1198.987549 204.0
1199.097778 52.0
1199.911255 116.0
1200.311157 132.0
1200.904175 200.0
1201.421509 112.0
1201.476685 96.0
1201.600952 168.0
1201.676758 120.0
1201.814819 156.0
1203.057129 88.0
1203.257324 232.0
1203.3125 140.0
1203.60498 256.0
1203.795898 72.0
1205.108276 120.0
1205.405396 108.0
1206.338379 200.0
1210.046509 292.0
1210.565796 60.0
1210.870483 148.0
1210.939697 152.0
1211.286011 100.0
1211.937256 76.0
1212.824341 72.0
1213.150146 216.0
1213.36499 228.0
1213.545288 148.0
1213.690918 200.0
1214.668701 192.0
1214.731201 200.0
1215.300049 64.0
1216.5354 176.0
1217.194946 148.0
1217.771362 64.0
1218.0979 224.0
1218.987183 144.0
1219.244263 144.0
1220.773682 188.0
1220.87793 220.0
1221.761353 168.0
1222.192627 144.0
1222.422363 192.0
1222.902466 168.0
1224.148682 160.0
1224.852051 156.0
1225.047119 112.0
1225.743896 144.0
1226.663818 124.0
1226.914795 180.0
1227.2146 60.0
1227.946777 128.0
1228.246704 144.0
1228.553589 104.0
1228.972168 172.0
1229.216431 188.0
1229.509521 116.0
1230.179565 168.0
1230.612427 240.0
1230.961548 156.0
1231.275757 212.0
1231.736816 132.0
1232.04248 196.0
1232.155884 212.0
1232.22583 92.0
1233.064331 76.0
1233.658447 204.0
1233.758057 164.0
1234.560425 188.0
1235.287842 52.0
1235.406738 192.0
1235.490601 172.0
1237.268188 48.0
1237.331177 72.0
1240.213867 164.0
1240.637939 188.0
1240.974365 136.0
1241.977173 200.0
1243.703247 120.0
1243.787476 176.0
1244.517578 176.0
1245.535889 204.0
1245.648315 176.0
1246.133057 92.0
1246.196289 120.0
1246.596802 148.0
1246.927124 208.0
1247.053589 144.0
1247.299561 184.0
1247.855469 132.0
1248.923828 208.0
1248.980103 164.0
1250.155029 52.0
1250.317993 136.0
1250.612549 108.0
1251.006714 144.0
1251.065308 356.0
1251.323486 140.0
1251.401001 160.0
1251.577026 180.0
1252.105103 140.0
1252.746094 156.0
1253.239258 184.0
1254.063721 100.0
1254.169434 76.0
1254.585327 152.0
1255.346802 44.0
1255.904053 116.0
1256.630615 180.0
1257.004517 152.0
1257.703247 224.0
1257.837402 144.0
1258.712769 136.0
1259.574463 208.0
1259.935791 236.0
1261.814575 172.0
1261.977173 168.0
1263.250122 164.0
1263.349243 188.0
1263.632202 176.0
1264.021362 44.0
1264.212402 68.0
1264.588257 152.0
1265.352051 168.0
1265.854736 172.0
1266.010498 164.0
1266.208862 188.0
1266.907715 256.0
1266.973755 172.0
1267.824097 160.0
1268.64624 220.0
1269.575073 196.0
1271.036377 96.0
1271.29187 160.0
1271.540283 48.0
1272.522827 168.0
1272.789673 96.0
1272.853516 152.0
1273.102051 72.0
1273.166016 204.0
1273.272461 208.0
1273.371948 96.0
1274.01123 188.0
1274.16748 192.0
1274.821167 196.0
1274.913574 196.0
1274.998901 192.0
1275.460815 140.0
1276.114868 152.0
1277.188721 156.0
1277.238525 192.0
1277.423462 128.0
1278.512085 60.0
1279.752075 224.0
1280.334473 212.0
1280.726196 152.0
1281.033569 144.0
1281.11084 140.0
1281.488525 124.0
1281.573975 148.0
1283.954834 136.0
1285.01123 204.0
1285.666992 172.0
1286.088135 140.0
1286.173706 160.0
1287.073242 172.0
1287.580322 64.0
1287.680298 172.0
1287.82312 44.0
1288.716064 60.0
1288.894653 160.0
1289.030518 168.0
1289.123413 172.0
1289.673706 192.0
1290.531494 216.0
1290.724609 148.0
1291.096436 124.0
1291.539795 68.0
1292.076294 120.0
1292.233765 160.0
1292.584351 88.0
1293.135376 160.0
1293.300049 168.0
1294.137573 212.0
1294.538574 156.0
1294.836304 208.0
1294.939575 136.0
1295.089966 88.0
1295.261963 132.0
1295.369385 156.0
1296.25061 84.0
1296.66626 236.0
1296.737915 176.0
1296.888428 128.0
1297.404541 116.0
1297.834717 124.0
1298.006836 164.0
1299.082642 108.0
1299.197388 208.0
1300.098633 192.0
1300.338257 56.0
1300.819214 112.0
1302.312744 188.0
1302.844238 112.0
1303.031128 168.0
1303.634644 88.0
1304.511475 144.0
1305.216064 148.0
1305.403076 216.0
1306.366821 152.0
1306.647339 92.0
1306.704956 96.0
1307.093506 148.0
1307.769897 132.0
1307.942627 108.0
1309.065796 148.0
1309.685181 172.0
1309.973267 132.0
1310.715332 156.0
1310.953125 76.0
1311.349487 148.0
1311.414429 176.0
1311.565796 164.0
1312.279419 148.0
1312.354248 160.0
1314.248535 164.0
1314.400513 172.0
1315.316528 132.0
1315.39209 164.0
1315.557373 272.0
1316.233398 140.0
1316.623413 264.0
1316.811646 120.0
1317.562378 44.0
1317.829712 180.0
1318.848633 184.0
1320.128296 152.0
1320.280151 48.0
1320.38147 68.0
1321.792114 116.0
1322.088745 28.0
1322.146606 192.0
1322.31311 164.0
1322.49292 160.0
1323.442383 136.0
1323.514771 84.0
1323.789917 160.0
1323.92749 124.0
1324.217285 140.0
1324.441772 152.0
1324.528687 96.0
1325.151733 148.0
1326.172729 148.0
1326.978149 156.0
1327.043335 232.0
1327.202881 200.0
1328.355957 116.0
1328.972656 96.0
1329.516846 96.0
1329.828491 140.0
1330.562134 200.0
1330.726807 128.0
1331.077637 168.0
1331.230103 140.0
1331.847412 148.0
1331.927368 156.0
1332.108887 160.0
1332.690186 152.0
1332.835449 136.0
1334.289062 152.0
1334.378662 256.0
1334.718018 64.0
1335.212524 176.0
1335.485107 220.0
1335.627075 92.0
1336.099976 120.0
1336.597656 188.0
1337.613525 212.0
1338.005981 176.0
1338.967896 116.0
1339.164551 180.0
1339.630615 160.0
1339.812744 308.0
1339.922119 108.0
1340.577881 136.0
1340.672607 224.0
1340.76001 220.0
1341.536255 164.0
1342.093994 68.0
1342.473145 272.0
1342.662842 188.0
1343.299927 140.0
1344.630249 164.0
1345.304077 44.0
1345.377075 112.0
1345.472046 100.0
1346.567383 204.0
1346.961792 176.0
1347.480469 224.0
1347.655762 172.0
1348.715454 180.0
1348.91272 152.0
1349.13208 112.0
1349.409912 92.0
1349.6073 140.0
1349.914429 144.0
1350.163086 180.0
1350.228882 96.0
1350.594604 68.0
1351.804443 240.0
1351.999268 232.0
1352.065186 200.0
1352.647217 212.0
1352.841064 148.0
1353.089966 72.0
1353.507324 172.0
1354.315308 168.0
1354.635132 216.0
1355.369995 120.0
1355.756104 120.0
1355.838013 112.0
1355.894653 192.0
1356.454346 220.0
1357.486206 188.0
1358.175537 172.0
1358.447021 172.0
1358.578979 160.0
1359.430176 216.0
1359.83374 124.0
1360.090698 204.0
1360.788086 188.0
1360.868774 128.0
1361.720703 168.0
1361.948364 220.0
1363.042969 220.0
1363.278076 212.0
1363.535278 120.0
1363.638184 248.0
1364.52771 80.0
1365.020264 140.0
1365.137939 184.0
1365.66748 132.0
1366.134644 120.0
1366.557617 112.0
1367.382568 152.0
1368.25769 196.0
1368.331299 144.0
1368.890869 180.0
1369.353638 180.0
1369.708374 144.0
1369.826294 192.0
1370.054688 180.0
1371.159912 124.0
1371.705322 124.0
1371.815918 156.0
1372.125488 180.0
1372.774414 148.0
1372.89978 88.0
1373.180054 192.0
1373.371704 236.0
1373.688965 180.0
1373.984009 188.0
1374.07251 100.0
1374.311401 212.0
1374.780884 136.0
1375.496826 184.0
1375.865967 72.0
1376.020996 192.0
1376.249878 188.0
1376.803711 96.0
1376.921875 68.0
1377.158203 196.0
1379.072876 216.0
1380.055054 188.0
1380.321167 132.0
1381.678223 120.0
1382.022461 164.0
1382.747681 184.0
1383.127686 136.0
1383.236084 172.0
1383.310181 164.0
1384.731812 124.0
1384.798462 132.0
1385.035522 56.0
1385.094727 196.0
1385.235474 176.0
1385.294678 176.0
1385.954102 60.0
1386.843384 36.0
1387.228882 172.0
1387.480835 236.0
1387.977661 68.0
1388.296509 72.0
1388.674683 172.0
1389.134644 56.0
1389.929932 168.0
1389.995239 132.0
1390.195557 212.0
1390.804199 192.0
1390.9823 252.0
1391.14563 200.0
1391.754395 56.0
1392.199951 80.0
1392.296509 180.0
1392.592529 180.0
1393.120972 76.0
1393.975342 148.0
1394.250366 180.0
1394.35437 204.0
1395.595825 172.0
1395.774292 152.0
1395.908081 168.0
1396.332031 156.0
1396.614624 204.0
1396.881104 200.0
1397.232056 156.0
1397.552002 108.0
1397.671021 160.0
1398.028198 200.0
1398.087769 192.0
1398.392822 144.0
1399.122314 204.0
1399.457397 152.0
1399.546753 108.0
1399.695679 132.0
1399.807373 148.0
1399.93396 88.0
1400.127563 120.0
1400.679932 192.0
1401.244873 40.0
1401.326782 100.0
1402.074951 256.0
1402.888306 136.0
1402.904785 160.0
1403.562866 132.0
1404.592041 152.0
1404.860596 120.0
1404.986328 132.0
1405.099365 128.0
1406.039551 48.0
1406.539551 80.0
1407.398071 156.0
1407.950684 60.0
1408.00293 148.0
1408.07019 224.0
1408.174805 172.0
1408.264404 260.0
1408.921753 192.0
1409.114136 180.0
1409.190674 156.0
1409.749878 172.0
1410.18457 172.0
1410.498413 184.0
1411.104004 180.0
1411.335815 104.0
1411.410522 48.0
1411.477905 132.0
1411.634888 108.0
1411.812866 216.0
1411.896606 168.0
1412.002197 140.0
1412.599731 108.0
1413.310425 32.0
1413.789307 216.0
1414.013794 160.0
1414.724976 144.0
1414.919556 116.0
1415.016846 204.0
1415.481079 148.0
1415.707886 244.0
1415.885498 156.0
1416.447266 148.0
1416.859253 200.0
1417.076538 160.0
1417.728394 200.0
1418.170654 152.0
1419.557495 160.0
1419.763672 212.0
1420.119995 132.0
1420.480103 140.0
1420.697632 168.0
1421.13269 44.0
1421.320312 192.0
1421.736694 144.0
1423.061646 144.0
1423.258179 176.0
1423.329956 192.0
1423.564697 152.0
1423.872681 84.0
1424.345825 120.0
1424.702026 188.0
1424.931763 176.0
1426.013916 148.0
1426.246826 152.0
1426.367065 188.0
1426.540039 80.0
1426.607666 160.0
1426.660278 44.0
1426.87085 72.0
1427.20166 104.0
1427.359497 172.0
1428.284546 124.0
1428.419922 192.0
1428.77356 144.0
1428.976685 196.0
1429.405518 176.0
1429.87207 156.0
1430.203247 204.0
1430.782837 200.0
1430.843994 132.0
1431.121704 92.0
1431.475586 68.0
1431.731689 116.0
1432.266357 48.0
1432.786133 120.0
1433.095093 132.0
1433.728027 240.0
1433.939087 136.0
1434.082275 48.0
1434.640015 152.0
1435.032104 176.0
1435.356323 188.0
1436.072754 108.0
1436.184692 148.0
1436.381958 172.0
1436.472534 132.0
1436.623413 136.0
1436.932617 52.0
1437.143921 176.0
1437.375 136.0
1437.483521 92.0
1437.747559 196.0
1439.098755 128.0
1439.725464 184.0
1439.94458 212.0
1440.103149 116.0
1440.397705 136.0
1440.850952 148.0
1441.266479 140.0
1441.865356 184.0
1441.961792 108.0
1442.415283 52.0
1442.79187 156.0
1443.095703 52.0
1443.398071 184.0
1444.623291 168.0
1444.708374 160.0
1445.175537 152.0
1446.378906 180.0
1446.45459 140.0
1446.658936 92.0
1447.356445 196.0
1449.006592 188.0
1449.180908 144.0
1449.597656 124.0
1449.732056 204.0
1449.859985 192.0
1450.50708 168.0
1450.772461 160.0
1450.924072 128.0
1451.075684 76.0
1451.424438 200.0
1451.841553 144.0
1452.046265 60.0
1452.19043 128.0
1452.380005 188.0
1454.026367 212.0
1454.216187 128.0
1454.405884 76.0
1454.960083 160.0
1455.233398 92.0
1455.491577 120.0
1455.817993 120.0
1455.932007 144.0
1456.213013 160.0
1456.547119 136.0
1456.661133 204.0
1457.215698 164.0
1457.440796 220.0
1457.633545 128.0
1459.161377 124.0
1459.617554 144.0
1459.800049 76.0
1460.370361 252.0
1460.933228 144.0
1460.986572 136.0
1461.07019 164.0
1461.366943 148.0
1462.188721 228.0
1462.310547 128.0
1462.546509 92.0
1462.900024 172.0
1463.840698 120.0
1465.21936 212.0
1465.645996 160.0
1465.981323 240.0
1466.095581 132.0
1466.42334 172.0
1466.62146 164.0
1466.713013 216.0
1466.834961 196.0
1467.246582 144.0
1468.253052 220.0
1468.527588 140.0
1468.596313 104.0
1468.718262 208.0
1468.87854 176.0
1469.282837 160.0
1469.565063 52.0
1469.870361 204.0
1469.929443 172.0
1470.183228 280.0
1470.313232 228.0
1470.96936 164.0
1471.129639 192.0
1471.198364 128.0
1471.618164 108.0
1472.038208 132.0
1472.175659 108.0
1472.290161 184.0
1472.969971 48.0
1473.206787 184.0
1474.2229 160.0
1474.391113 76.0
1474.834351 156.0
1474.933716 180.0
1475.063721 160.0
1475.124878 176.0
1475.438232 124.0
1476.378784 116.0
1476.692261 136.0
1476.757202 176.0
1477.824463 44.0
1478.22229 156.0
1478.406006 148.0
1478.482544 76.0
1478.650879 180.0
1479.508179 148.0
1479.668945 140.0
1480.281494 108.0
1480.495972 156.0
1480.57251 172.0
1481.024414 64.0
1481.139282 92.0
1481.24646 140.0
1481.698486 180.0
1481.851685 140.0
1482.748291 140.0
1482.84082 144.0
1483.346802 124.0
1483.514771 84.0
1483.654785 204.0
1483.982422 132.0
1484.227783 160.0
1484.611206 140.0
1484.695557 200.0
1485.416504 200.0
1485.531616 160.0
1486.114624 88.0
1486.812866 112.0
1486.963623 220.0
1487.165894 184.0
1487.473022 136.0
1488.048706 168.0
1488.122192 204.0
1488.355835 184.0
1488.570923 80.0
1490.268433 132.0
1490.383667 160.0
1490.740967 184.0
1490.94458 176.0
1491.536377 192.0
1491.613281 160.0
1491.744019 108.0
1492.228271 136.0
1492.597412 136.0
1492.904907 148.0
1493.604858 148.0
1494.097168 180.0
1494.512573 72.0
1494.812744 152.0
1495.111694 144.0
1495.628662 132.0
1495.944092 176.0
1496.483032 152.0
1496.59082 164.0
1496.844849 172.0
1497.060547 104.0
1497.351196 188.0
1498.262085 136.0
1498.485474 168.0
1499.202026 136.0
1499.379395 396.0
1499.758545 136.0
1499.864868 208.0
1500.227173 80.0
1500.282104 168.0
1500.481567 48.0
1500.843994 168.0
1500.951904 204.0
1501.7771 52.0
1501.962158 84.0
1502.016235 116.0
1502.89563 164.0
1503.003662 148.0
1503.064575 140.0
1503.543823 140.0
1503.844849 160.0
1504.300293 184.0
1504.879272 60.0
1505.175171 260.0
