>compound LEVOFLOXACIN
>formula C18H20FN3O4
>ionization [M+H]+
>parentmass 362.15106079209056
#inchi InChI=1S/C18H20FN3O4/c1-10-9-26-17-14-11(16(23)12(18(24)25)8-22(10)14)7-13(19)15(17)21-5-3-20(2)4-6-21/h7-8,10H,3-6,9H2,1-2H3,(H,24,25)/t10-/m0/s1
#inchikey GSDSWSVVBLHKDQ
#Ion_Source LC-ESI
#Instrument qTof
#Compound_Source Commercial
#PI Dorrestein
#Data_Collector Garg_Neha
#Scan -1
#Precursor_MZ 362.151
#ExactMass 361.144
#Charge 1
#CAS_Number N/A
#Pubmed_ID N/A
#Smiles C[C@H]1COc2c(N3CCN(C)CC3)c(F)cc4c(=O)c(cn1c24)C(=O)O
#INCHI_AUX N/A
#Library_Class 1
#SpectrumID CCMSLIB00000079014
#IonMode Positive
#UpdateWorkflowName UPDATE-SINGLE-ANNOTATED-GOLD
#LibraryQualityString Gold
#TaskID 278b19f5865741e282cec7349aa7e7a1
##Scan# 1021
#SpectrumFile NCP003352_E2_F11_BC6_01_15720.mzXML
#LibraryName NIHcollectionI_05062014.mgf
#MQScore -1
#Organism NIHcollectionI_05062014
#TIC_Query 0
#RT_Query -1
#MZErrorPPM -1
#SharedPeaks 0
#MassDiff 0
#LibMZ -1
#SpecMZ 362.151
#SpecCharge 0
#internalFilename spec-00000.mgf

>collision 10
46.046829 140.0
47.541706 248.0
47.677666 168.0
48.332687 164.0
48.397743 188.0
48.864094 164.0
49.50478 188.0
50.214497 160.0
51.876759 140.0
53.821129 160.0
54.061039 184.0
56.270954 140.0
56.899761 180.0
57.13586 188.0
58.252899 160.0
58.424683 196.0
62.454895 180.0
63.821274 172.0
63.96764 152.0
64.391769 148.0
67.484909 164.0
69.053726 204.0
70.901337 140.0
72.548569 160.0
73.311729 188.0
74.535255 144.0
75.28286 160.0
76.081062 164.0
76.117523 172.0
77.10527 180.0
77.507759 168.0
78.25248 204.0
79.408165 152.0
80.120964 144.0
80.235023 180.0
80.322403 144.0
80.921516 176.0
81.295692 236.0
81.654999 172.0
82.215973 184.0
82.459099 180.0
82.753952 216.0
83.975121 184.0
84.234306 220.0
85.47551 228.0
85.779388 172.0
85.860519 156.0
87.372002 140.0
87.737015 180.0
88.321503 160.0
90.544334 172.0
91.810036 144.0
92.090591 156.0
92.239624 184.0
92.348618 152.0
92.815887 164.0
93.392021 188.0
93.75782 236.0
94.358131 168.0
95.40696 168.0
95.432236 164.0
95.726051 188.0
96.326759 160.0
97.598686 172.0
98.077538 200.0
98.327553 144.0
98.809692 232.0
99.737762 172.0
100.205414 172.0
100.460594 140.0
100.584312 140.0
101.504616 144.0
101.9804 140.0
102.034676 160.0
103.11512 152.0
104.178902 144.0
104.45536 156.0
104.886185 160.0
104.995102 156.0
106.437798 152.0
107.050575 180.0
108.326981 176.0
111.049248 172.0
112.647789 172.0
112.892021 176.0
112.940666 240.0
113.012848 200.0
113.245453 164.0
113.270874 204.0
115.40329 244.0
117.225662 220.0
118.446342 172.0
119.851952 204.0
120.926369 200.0
121.062103 176.0
121.810005 140.0
122.6175 180.0
123.321556 216.0
124.153999 168.0
124.360329 152.0
126.392754 192.0
126.993134 152.0
127.04248 160.0
127.183853 156.0
127.307335 208.0
127.725365 216.0
129.130554 140.0
130.648041 152.0
131.815399 156.0
133.495667 148.0
136.944595 168.0
137.051193 144.0
137.135086 196.0
137.587616 144.0
137.823517 140.0
138.494614 152.0
139.170303 164.0
139.261215 196.0
139.330017 176.0
139.494522 148.0
141.547104 160.0
143.539749 152.0
143.619461 164.0
144.135117 236.0
144.288086 168.0
145.05481 156.0
145.839035 224.0
146.01033 192.0
146.062653 196.0
146.239105 120.0
147.229172 156.0
147.877106 236.0
148.611359 156.0
148.727844 276.0
149.160202 156.0
149.520172 196.0
149.960709 136.0
150.036331 268.0
150.558716 148.0
151.052429 188.0
151.08757 132.0
151.566559 156.0
151.813522 192.0
151.929214 148.0
151.988297 160.0
152.275513 208.0
152.447479 188.0
153.079697 156.0
153.296463 144.0
153.903275 144.0
155.001495 220.0
155.480103 148.0
155.696091 192.0
156.036514 176.0
156.848053 172.0
157.038803 152.0
157.77417 156.0
157.90387 152.0
158.023804 360.0
158.059296 140.0
158.677948 192.0
159.04921 248.0
160.027115 164.0
160.057327 144.0
161.215179 168.0
161.564102 172.0
161.655182 148.0
163.065216 176.0
163.952438 140.0
163.971252 192.0
164.017136 152.0
164.203262 164.0
166.00705 140.0
166.044678 156.0
167.236801 164.0
168.231781 148.0
169.639038 144.0
170.087799 180.0
171.059097 484.0
171.281296 164.0
171.771347 168.0
172.068848 112.0
172.277771 160.0
173.062225 152.0
173.379318 164.0
173.43959 176.0
174.071121 140.0
174.479126 148.0
174.689499 152.0
174.842392 180.0
175.045807 328.0
175.056107 124.0
175.064972 364.0
176.051254 340.0
176.078552 156.0
176.382401 160.0
176.451141 168.0
176.686508 172.0
177.054489 252.0
177.695908 164.0
178.027496 384.0
178.051605 296.0
179.035309 732.0
179.068298 160.0
179.182083 144.0
179.787354 172.0
180.043716 448.0
181.271515 240.0
181.700516 152.0
181.805161 176.0
181.993073 148.0
182.05751 224.0
182.369156 156.0
182.912491 168.0
184.317581 224.0
184.56897 252.0
184.885468 140.0
185.04245 156.0
185.072739 152.0
185.153473 152.0
185.52739 156.0
185.703644 184.0
186.053696 196.0
186.298096 220.0
187.029404 480.0
187.083252 104.0
187.451706 280.0
187.803391 156.0
187.998581 220.0
188.045135 172.0
188.491348 176.0
188.6772 176.0
189.027298 124.0
189.0681 220.0
189.405106 168.0
189.569489 188.0
189.607864 140.0
190.060608 588.0
191.061066 248.0
191.107162 204.0
191.175964 180.0
191.294312 164.0
191.839737 220.0
192.046036 308.0
192.113388 120.0
192.159653 152.0
193.041656 1320.0
193.076721 396.0
194.02977 1208.0
194.059906 472.0
194.337082 204.0
194.778397 112.0
195.025787 148.0
195.057205 288.0
195.086929 160.0
195.17868 148.0
195.643311 144.0
196.077835 176.0
196.10849 140.0
196.546326 172.0
197.733978 160.0
198.512787 156.0
198.6474 216.0
199.048401 648.0
199.536072 224.0
200.0569 440.0
200.381958 192.0
200.412949 180.0
201.017136 132.0
201.061646 308.0
201.083694 288.0
201.971268 204.0
202.059601 408.0
203.033569 520.0
203.060791 820.0
203.403702 144.0
203.476013 148.0
203.785583 176.0
204.048172 900.0
204.364227 132.0
204.436737 156.0
204.863815 144.0
205.042465 2820.0
205.077118 2828.0
205.154495 144.0
205.182999 144.0
205.336975 288.0
205.559494 160.0
205.582321 160.0
206.006363 448.0
206.051254 724.0
206.081619 956.0
207.036835 856.0
208.253448 160.0
208.986496 248.0
209.018143 304.0
209.052673 192.0
210.53476 136.0
211.088074 200.0
212.279404 168.0
212.775558 160.0
213.068253 212.0
213.10083 176.0
213.385666 180.0
214.045074 164.0
214.071289 192.0
214.82431 140.0
215.026321 784.0
215.060562 208.0
215.190903 136.0
215.636032 176.0
215.843597 292.0
216.0103 204.0
216.038437 308.0
216.071213 264.0
216.584015 144.0
217.042633 704.0
217.078796 276.0
218.053925 600.0
218.450897 188.0
218.999634 152.0
219.056976 5148.0
219.325439 188.0
219.874023 144.0
220.025116 236.0
220.063736 1664.0
220.44693 196.0
221.0186 764.0
221.071777 9136.0
222.033264 332.0
222.075439 1572.0
222.155304 148.0
222.68959 144.0
222.778702 156.0
222.968872 236.0
223.007507 156.0
223.709488 176.0
224.051956 168.0
224.176208 244.0
224.364868 176.0
224.391708 176.0
224.719772 232.0
225.068985 152.0
225.115158 144.0
225.218307 236.0
225.724548 224.0
226.074341 248.0
226.663284 196.0
226.939041 148.0
227.081589 136.0
227.118973 148.0
227.166962 144.0
227.968597 200.0
228.068436 304.0
229.055679 200.0
229.077133 100.0
229.962296 148.0
230.048279 180.0
230.802109 160.0
231.054352 292.0
231.091873 760.0
231.697983 180.0
231.970718 188.0
232.031342 144.0
232.076553 620.0
232.90834 200.0
233.016403 328.0
233.073273 3016.0
233.199158 112.0
234.023804 368.0
234.07959 708.0
234.709976 188.0
235.035034 4784.0
235.084229 452.0
235.548828 292.0
235.64238 112.0
235.928162 140.0
236.037964 656.0
236.085327 156.0
236.463455 164.0
237.039032 168.0
237.66777 176.0
237.870316 140.0
238.512299 176.0
238.619904 176.0
238.789017 156.0
239.105911 304.0
240.088486 156.0
240.986603 116.0
241.097656 1344.0
241.531006 164.0
242.051178 104.0
242.099823 652.0
242.174805 156.0
243.058411 204.0
243.095581 232.0
243.474304 156.0
243.729034 176.0
244.072952 828.0
245.071838 1500.0
245.144852 228.0
245.319397 196.0
245.880829 152.0
246.080734 180.0
246.177399 152.0
246.349182 188.0
246.567902 144.0
246.76796 144.0
247.034195 136.0
247.08844 3816.0
247.322845 180.0
248.089127 1072.0
248.675674 164.0
249.002182 160.0
249.046509 684.0
249.095749 180.0
250.020798 160.0
250.051743 216.0
251.049484 104.0
252.063751 156.0
252.250702 164.0
253.097519 204.0
253.124084 424.0
253.374115 152.0
254.033508 140.0
254.094452 152.0
254.13121 196.0
254.388916 152.0
254.871658 340.0
255.102798 740.0
255.60463 140.0
255.641174 164.0
256.105408 400.0
257.059479 220.0
257.112 112.0
257.517517 144.0
257.592407 180.0
258.023804 180.0
258.060028 224.0
258.090973 152.0
258.532379 196.0
258.714844 196.0
259.084045 380.0
259.60556 144.0
259.961639 140.0
260.083405 136.0
260.192749 208.0
260.350067 148.0
260.377167 200.0
260.456512 124.0
260.494598 144.0
260.562073 200.0
260.78714 176.0
260.872345 204.0
261.058655 300.0
261.104218 91232.0
261.220154 96.0
261.310059 156.0
261.355804 200.0
261.573914 108.0
261.63385 204.0
261.968506 108.0
262.069305 272.0
262.106842 12652.0
262.547424 196.0
262.889343 136.0
263.065338 18632.0
263.109955 1656.0
263.172058 108.0
263.318481 144.0
263.945679 140.0
263.994354 220.0
264.019928 116.0
264.067657 2416.0
264.11319 192.0
264.208282 140.0
264.328003 152.0
264.498413 104.0
265.060425 320.0
265.800171 124.0
266.63858 144.0
267.10611 148.0
267.300354 200.0
267.922211 164.0
268.078613 172.0
268.109894 396.0
268.144165 212.0
269.113708 576.0
269.168121 156.0
269.462067 176.0
269.981812 156.0
270.071777 300.0
270.123657 1744.0
271.081726 216.0
271.125641 412.0
272.088409 196.0
272.112213 260.0
272.97168 160.0
273.025116 184.0
273.103699 1300.0
273.143524 140.0
273.82486 264.0
274.105194 176.0
274.464142 216.0
275.066681 296.0
275.117065 668.0
275.563232 140.0
276.059326 176.0
276.117554 160.0
277.07782 340.0
277.768036 176.0
278.076599 172.0
278.574646 176.0
279.086456 168.0
281.091675 140.0
281.542328 168.0
282.131287 148.0
283.135498 144.0
283.207886 152.0
283.921753 156.0
284.049591 140.0
284.082733 144.0
284.156555 184.0
284.304199 204.0
284.586151 148.0
284.73053 256.0
284.982483 188.0
285.100891 348.0
285.590942 152.0
285.61496 140.0
286.089752 280.0
286.493073 188.0
287.083801 404.0
287.121948 212.0
288.04776 136.0
289.004913 156.0
289.04538 116.0
289.121033 492.0
290.073578 252.0
291.103088 192.0
291.174408 188.0
291.799652 216.0
294.003479 160.0
294.829926 232.0
296.097534 332.0
296.143494 764.0
297.052002 200.0
297.104431 196.0
297.140686 108.0
297.84491 200.0
298.064789 156.0
298.111237 120.0
298.151031 920.0
299.113739 188.0
299.173065 172.0
299.444275 148.0
300.07486 200.0
300.118774 152.0
300.153259 224.0
300.761353 152.0
300.799316 236.0
301.084808 420.0
301.119598 2612.0
302.005219 184.0
302.123322 800.0
303.084503 1784.0
303.117493 172.0
303.16156 180.0
303.421539 140.0
304.088562 184.0
304.914124 156.0
305.087341 172.0
306.218781 188.0
306.365082 152.0
306.438232 176.0
308.319885 176.0
308.908051 140.0
310.401886 216.0
311.275635 176.0
312.031036 148.0
312.080261 172.0
312.646606 156.0
312.988068 160.0
313.99469 116.0
314.152985 144.0
314.895874 140.0
315.109436 180.0
315.910309 152.0
316.145325 4168.0
316.294556 144.0
316.470551 172.0
316.660706 152.0
317.053955 200.0
317.144012 828.0
317.443909 148.0
317.577026 180.0
317.678772 316.0
317.970245 208.0
318.039093 168.0
318.071869 168.0
318.108551 636.0
318.162292 86824.0
318.275604 136.0
318.335266 176.0
318.384521 236.0
318.415375 108.0
318.503662 140.0
318.575104 168.0
318.609711 144.0
318.764496 100.0
318.80368 112.0
318.862976 160.0
318.94812 224.0
319.079163 116.0
319.164307 12468.0
319.283417 152.0
319.32373 112.0
319.437317 120.0
319.563538 112.0
319.608276 112.0
319.672821 132.0
319.746338 100.0
319.998047 164.0
320.048401 136.0
320.123322 16836.0
320.165405 1308.0
320.421661 160.0
320.525879 116.0
320.711121 136.0
320.994904 168.0
321.05127 236.0
321.086395 140.0
321.12677 2156.0
321.187622 300.0
321.288788 188.0
321.39093 184.0
321.781281 144.0
321.902679 176.0
322.11969 284.0
322.297668 104.0
322.734589 132.0
323.074097 112.0
323.13501 124.0
324.133545 276.0
324.241486 108.0
324.661743 228.0
324.9487 160.0
325.138855 168.0
327.987396 140.0
328.210907 152.0
328.257446 120.0
329.264618 140.0
330.305573 184.0
331.047516 140.0
331.090973 144.0
333.547241 112.0
333.579956 164.0
334.372894 140.0
334.620422 144.0
336.168152 184.0
336.888794 140.0
338.483398 180.0
339.942322 140.0
340.147858 204.0
341.23526 152.0
341.448517 184.0
342.795898 152.0
343.087067 216.0
343.148224 204.0
343.190308 216.0
344.140686 3076.0
344.397034 148.0
345.051086 156.0
345.091766 144.0
345.142242 828.0
345.761292 144.0
346.10321 188.0
347.113434 220.0
347.777496 164.0
349.92984 140.0
351.2901 184.0
352.167267 148.0
352.481079 160.0
353.262482 168.0
353.61795 164.0
354.011047 208.0
355.180359 148.0
356.734955 148.0
357.739349 148.0
358.23114 140.0
358.315521 244.0
358.432312 156.0
359.26062 196.0
359.487518 96.0
359.838196 100.0
359.878326 132.0
360.141296 216.0
360.242065 136.0
360.351074 128.0
360.391785 104.0
360.572144 176.0
360.642578 112.0
360.749969 136.0
360.857178 100.0
360.905029 124.0
361.00296 160.0
361.07605 172.0
361.107513 132.0
361.150085 152.0
361.290741 136.0
361.421753 112.0
361.58725 196.0
361.639282 96.0
361.699768 248.0
361.787384 224.0
361.822357 140.0
361.883759 216.0
361.95517 132.0
361.98407 336.0
362.066284 196.0
362.077759 600.0
362.153351 191764.0
362.244537 224.0
362.303894 144.0
362.422913 128.0
362.469574 188.0
362.52948 136.0
362.613068 248.0
362.641296 176.0
362.714691 136.0
362.776215 2564.0
362.813446 172.0
362.830475 268.0
362.869781 172.0
362.90976 252.0
362.941956 240.0
362.969055 240.0
363.036743 128.0
363.077576 140.0
363.089508 164.0
363.155029 48572.0
363.290924 216.0
363.349976 224.0
363.40152 244.0
363.669434 220.0
363.722717 176.0
363.789673 184.0
363.820984 256.0
363.845642 296.0
363.901093 120.0
363.928131 188.0
363.970337 168.0
364.008759 136.0
364.057159 148.0
364.113312 53048.0
364.156952 4264.0
364.238251 156.0
364.317505 216.0
364.377289 140.0
364.406677 272.0
364.460632 164.0
364.499481 100.0
364.809479 104.0
364.88028 292.0
364.984955 104.0
365.018372 124.0
365.115417 7148.0
365.255981 152.0
365.404327 160.0
365.508942 200.0
365.557861 148.0
365.590637 208.0
365.649963 116.0
365.736389 132.0
365.943481 100.0
366.025787 140.0
366.112457 532.0
366.334412 104.0
366.581482 112.0
366.617126 180.0
366.748169 136.0
366.876373 176.0
367.018707 116.0
367.06369 112.0
367.120117 144.0
367.286346 188.0
367.406494 152.0
367.480927 140.0
367.734009 112.0
367.81366 140.0
368.174011 144.0
371.050476 108.0
376.030243 148.0
377.623901 128.0
381.821838 128.0
402.076355 192.0
512.862671 164.0
589.783936 148.0
690.263306 148.0
1381.6427 148.0
1415.186523 156.0
1633.479248 136.0
1710.444092 188.0
1720.889038 172.0
1815.485107 224.0
1860.854858 176.0
1865.502563 212.0
