>compound MLS002154027-01!Securinine5610-40-2
>formula C13H15NO2
>ionization [M+H]+
>parentmass 218.116531
#inchi InChI=1S/C13H15NO2/c15-12-7-9-4-5-10-8-13(9,16-12)11-3-1-2-6-14(10)11/h4-5,7,10-11H,1-3,6,8H2/t10-,11-,13?/m1/s1
#inchikey SWZMSZQQJRKFBP
#Ion_Source LC-ESI
#Instrument qTof
#Compound_Source NIH Pharmacologically Active Library
#PI Dorrestein
#Data_Collector VP/LMS
#Scan -1
#Precursor_MZ 218.115
#ExactMass 217.11
#Charge 1
#CAS_Number N/A
#Pubmed_ID N/A
#Smiles O=C1OC2(C[C@H]3C=CC2=C1)[C@H]4CCCCN34
#INCHI_AUX N/A
#Library_Class 3
#SpectrumID CCMSLIB00000085942
#IonMode Positive
#UpdateWorkflowName UPDATE-SINGLE-ANNOTATED-BRONZE
#LibraryQualityString Bronze
#TaskID d252d724072548979f1f6f1ced849daf
##Scan# 133
#SpectrumFile p4-H05_GH5_01_18413.mzXML
#LibraryName Pharm_Active_Library.mgf
#MQScore -1
#Organism Pharm_Active_Library
#TIC_Query 0
#RT_Query -1
#MZErrorPPM -1
#SharedPeaks 0
#MassDiff 0
#LibMZ -1
#SpecMZ 218.115
#SpecCharge 0
#internalFilename spec-00000.mgf

>collision 10
57.353558 104.0
83.776817 188.0
91.053268 172.0
93.695007 176.0
95.137756 144.0
110.056686 164.0
110.338753 256.0
115.054588 180.0
116.043037 168.0
117.048637 120.0
117.939667 168.0
118.060738 92.0
119.007706 160.0
119.424965 140.0
128.056244 160.0
129.069778 152.0
130.069992 332.0
133.905548 124.0
134.958923 296.0
135.036499 188.0
144.078415 152.0
145.092178 164.0
146.093338 148.0
146.908905 188.0
147.06778 172.0
151.78566 232.0
152.928055 124.0
158.057297 212.0
159.09816 136.0
162.09227 544.0
163.091599 176.0
169.918243 120.0
170.066162 140.0
170.092117 108.0
170.915985 80.0
172.107071 156.0
172.36058 56.0
174.131546 140.0
178.920547 192.0
180.925537 204.0
183.062866 160.0
189.914795 48.0
190.087631 172.0
190.129623 188.0
191.86174 228.0
194.942474 108.0
201.092865 192.0
217.608429 132.0
218.060822 104.0
218.116531 484.0
218.163712 164.0
218.522522 68.0
219.126297 224.0
220.900406 76.0
221.551697 124.0
337.494659 88.0
425.518402 56.0
586.223022 20.0
1251.884155 136.0
1380.907837 208.0
