>compound MLS000737289-01!
>formula C10H13NO2
>ionization [M+H]+
>parentmass 180.102
#inchi InChI=1S/C10H13NO2/c1-2-3-7-13-10(12)9-5-4-6-11-8-9/h4-6,8H,2-3,7H2,1H3
#inchikey DQULIMIQTCDUAN
#Ion_Source LC-ESI
#Instrument qTof
#Compound_Source NIH Natural Product Library
#PI Dorrestein
#Data_Collector VVP/LMS
#Scan -1
#Precursor_MZ 180.102
#ExactMass 179.095
#Charge 1
#CAS_Number N/A
#Pubmed_ID N/A
#Smiles CCCCOC(=O)c1cccnc1
#INCHI_AUX N/A
#Library_Class 1
#SpectrumID CCMSLIB00000080264
#IonMode Positive
#UpdateWorkflowName UPDATE-SINGLE-ANNOTATED-GOLD
#LibraryQualityString Gold
#TaskID b1d8e8f6646f4e71acdff9ca3d919d08
##Scan# 1942
#SpectrumFile p2-C06_GC6_01_18006.mzXML
#LibraryName NIH_Natural_Products_Library.mgf
#MQScore -1
#Organism NIH_Natural_Products_Library
#TIC_Query 0
#RT_Query -1
#MZErrorPPM -1
#SharedPeaks 0
#MassDiff 0
#LibMZ -1
#SpecMZ 180.102
#SpecCharge 0
#internalFilename spec-00000.mgf

>collision 10
95.051392 144.0
95.068855 200.0
95.987022 120.0
96.045525 392.0
96.066986 108.0
97.748024 100.0
97.905502 168.0
98.556465 196.0
100.448463 132.0
101.003761 204.0
103.114944 60.0
103.315125 40.0
104.3657 196.0
105.722198 52.0
105.965866 152.0
106.029953 440.0
106.725281 120.0
107.900482 208.0
108.312294 44.0
109.032242 144.0
109.404564 192.0
109.433708 132.0
111.832741 144.0
114.000511 140.0
114.822258 160.0
115.959648 152.0
117.868484 104.0
118.147392 148.0
118.658501 148.0
118.960045 156.0
121.671425 148.0
122.022598 1024.0
122.183487 32.0
122.454239 104.0
122.634903 264.0
122.886292 120.0
122.917183 140.0
123.297012 132.0
123.363319 216.0
123.994141 168.0
124.017036 384.0
124.040543 15488.0
124.105293 56.0
124.131584 60.0
124.322365 48.0
124.346771 44.0
124.402267 72.0
124.693237 48.0
124.975655 60.0
125.015701 164.0
125.043739 1560.0
125.318535 76.0
125.374245 60.0
125.461166 84.0
125.65966 80.0
125.925293 116.0
126.025818 120.0
126.047989 168.0
126.428314 52.0
129.836899 60.0
130.281784 84.0
140.033813 320.0
140.962555 160.0
141.045273 96.0
144.383438 92.0
148.363678 72.0
169.050735 80.0
179.147049 108.0
240.702133 32.0
241.765518 28.0
261.886658 56.0
400.384369 64.0
932.057434 232.0
1016.099548 124.0
1041.287842 88.0
1041.808105 232.0
1046.213135 168.0
1078.24292 148.0
1086.230713 76.0
1097.04126 172.0
1103.484497 132.0
1118.223755 152.0
1139.676025 236.0
1140.704224 100.0
1142.27771 188.0
1147.213623 152.0
1226.693604 192.0
1243.578491 44.0
1253.832397 204.0
1257.365601 164.0
1263.590698 128.0
1264.850342 116.0
1266.755127 188.0
1268.831421 180.0
1270.022705 132.0
1271.839111 236.0
1281.567383 160.0
1282.572144 156.0
1302.154785 136.0
1308.216064 180.0
1309.036865 128.0
1309.591309 124.0
1318.776001 116.0
1319.708496 232.0
1322.623779 176.0
1337.212402 116.0
1340.066772 132.0
1341.480591 240.0
1351.551636 164.0
1354.765625 200.0
1356.568359 148.0
1369.979248 200.0
1372.182739 164.0
1374.343628 212.0
1380.851562 164.0
1385.737061 168.0
1388.227539 160.0
1394.790405 204.0
1395.043213 172.0
1399.521851 188.0
1400.430298 152.0
1405.775513 164.0
1409.47168 240.0
1410.89917 144.0
1424.928467 140.0
1428.634644 56.0
1446.995605 216.0
1447.609009 180.0
1450.798706 196.0
1457.158203 148.0
1457.325317 172.0
1461.514771 140.0
1461.803833 96.0
1462.085449 52.0
1464.118042 140.0
1465.641479 144.0
1474.22583 124.0
