>compound MLS001075272-01![3,4-dibenzoyloxy-5-(3,5-dioxo-1,2,4-triazin-2-yl)oxolan-2-yl]methyl benzoate
>formula C29H23N3O9
>ionization [M+H]+
>parentmass 558.151
#inchi InChI=1S/C29H23N3O9/c33-22-16-30-32(29(37)31-22)25-24(41-28(36)20-14-8-3-9-15-20)23(40-27(35)19-12-6-2-7-13-19)21(39-25)17-38-26(34)18-10-4-1-5-11-18/h1-16,21,23-25H,17H2,(H,31,33,37)
#inchikey SRPSJMLVXZRXTM
#Ion_Source LC-ESI
#Instrument qTof
#Compound_Source NIH Natural Product Library
#PI Dorrestein
#Data_Collector VVP/LMS
#Scan -1
#Precursor_MZ 558.151
#ExactMass 557.143
#Charge 1
#CAS_Number N/A
#Pubmed_ID N/A
#Smiles O=C(OCC1OC(C(OC(=O)c2ccccc2)C1OC(=O)c3ccccc3)n4ncc(=O)[nH]c4=O)c5ccccc5
#INCHI_AUX N/A
#Library_Class 1
#SpectrumID CCMSLIB00000079697
#IonMode Positive
#UpdateWorkflowName UPDATE-SINGLE-ANNOTATED-GOLD
#LibraryQualityString Gold
#TaskID b1d8e8f6646f4e71acdff9ca3d919d08
##Scan# 2566
#SpectrumFile p1-H09_GH9_01_17965.mzXML
#LibraryName NIH_Natural_Products_Library.mgf
#MQScore -1
#Organism NIH_Natural_Products_Library
#TIC_Query 0
#RT_Query -1
#MZErrorPPM -1
#SharedPeaks 0
#MassDiff 0
#LibMZ -1
#SpecMZ 558.151
#SpecCharge 0
#internalFilename spec-00000.mgf

>collision 10
95.040184 204.0
95.103462 76.0
95.284058 124.0
95.307373 184.0
95.348183 76.0
95.470825 144.0
95.513451 256.0
95.546524 140.0
95.750908 304.0
95.861954 196.0
95.955513 124.0
95.988663 140.0
96.029617 200.0
96.318497 84.0
96.676285 84.0
96.815285 64.0
96.977898 132.0
97.005341 240.0
97.081566 212.0
97.191658 156.0
97.321205 128.0
97.391899 164.0
97.43512 176.0
97.549103 68.0
97.580559 188.0
97.696587 188.0
97.94265 32.0
98.031311 204.0
98.185081 56.0
98.323181 176.0
98.340942 68.0
98.61351 180.0
98.736092 176.0
98.785538 108.0
98.84687 236.0
98.951782 180.0
99.381874 220.0
99.526772 256.0
99.554573 136.0
99.707542 208.0
99.84671 152.0
100.111397 160.0
100.165176 156.0
100.230919 88.0
100.302666 148.0
100.671776 148.0
100.87957 200.0
101.171371 176.0
101.249733 184.0
101.267761 188.0
101.488197 188.0
101.504242 120.0
101.584465 204.0
102.022247 132.0
102.03833 232.0
102.091057 200.0
102.21936 172.0
102.241493 96.0
102.382423 152.0
102.620201 144.0
102.827972 156.0
102.9067 136.0
103.042023 136.0
103.065689 168.0
103.371605 156.0
103.663208 116.0
103.728065 140.0
103.799026 172.0
104.156219 48.0
104.272034 140.0
104.310654 172.0
104.369614 140.0
104.487579 132.0
104.689095 276.0
104.705383 172.0
104.733902 172.0
104.751534 140.0
104.777794 308.0
104.832626 272.0
104.852074 148.0
104.874001 164.0
104.900093 244.0
104.927498 280.0
104.94696 124.0
104.970345 132.0
104.986626 452.0
105.011009 340.0
105.034012 74484.0
105.100586 88.0
105.133186 80.0
105.151878 52.0
105.224533 144.0
105.272331 148.0
105.311722 56.0
105.369278 1040.0
105.392914 84.0
105.442749 76.0
105.464378 44.0
105.505104 52.0
105.565475 80.0
105.578873 116.0
105.600296 88.0
105.630005 64.0
105.657738 72.0
105.69165 92.0
105.728218 68.0
105.754372 128.0
105.824425 156.0
105.848999 36.0
105.894333 88.0
105.930923 60.0
105.955505 164.0
105.998535 188.0
106.036636 9796.0
106.088715 52.0
106.117416 52.0
106.157784 140.0
106.310234 172.0
106.328705 156.0
106.370781 20.0
106.486794 68.0
106.504112 120.0
106.535454 104.0
106.579231 100.0
106.632668 76.0
106.661438 120.0
106.694328 76.0
106.710777 40.0
106.750671 60.0
106.782753 112.0
106.815659 108.0
106.834175 60.0
106.858864 116.0
106.895905 80.0
106.909363 76.0
106.936951 72.0
106.959702 28.0
107.038635 500.0
107.107964 108.0
107.192429 36.0
107.264565 28.0
107.342911 60.0
107.377968 28.0
107.406845 140.0
107.443977 56.0
107.58638 40.0
107.733002 92.0
107.768127 112.0
108.096901 76.0
108.488358 68.0
108.54641 156.0
109.030106 48.0
109.367043 240.0
112.454514 112.0
112.572739 68.0
112.942596 68.0
115.283447 156.0
115.392464 40.0
115.415985 76.0
116.570885 88.0
116.754105 132.0
117.025238 164.0
117.072609 196.0
117.167381 32.0
117.290215 76.0
117.659103 108.0
117.983162 140.0
119.272995 156.0
121.039276 648.0
121.566277 60.0
121.627731 28.0
121.662849 80.0
121.928635 36.0
122.014359 152.0
122.657173 60.0
123.087387 152.0
124.227219 204.0
124.45359 192.0
124.762413 176.0
126.052933 60.0
127.547821 200.0
129.069611 160.0
130.064178 316.0
130.363968 96.0
130.77562 132.0
131.203873 56.0
131.429672 236.0
131.660233 180.0
132.083069 260.0
134.710541 204.0
136.047424 68.0
137.000214 104.0
138.025589 172.0
138.345367 60.0
139.201157 128.0
142.484375 116.0
144.063873 200.0
144.709595 172.0
145.06424 152.0
146.556656 156.0
148.558502 256.0
149.038071 436.0
150.02005 160.0
150.361542 200.0
150.740067 48.0
152.602951 152.0
154.860962 64.0
154.977386 96.0
155.155838 96.0
155.873154 188.0
162.972046 204.0
164.046051 156.0
166.07637 176.0
166.975311 160.0
167.546753 44.0
168.093369 52.0
170.122543 132.0
173.697662 96.0
174.96431 192.0
176.370346 156.0
177.053406 192.0
178.204208 60.0
180.044891 104.0
184.80835 128.0
184.93013 244.0
185.320099 100.0
187.834824 140.0
188.741547 148.0
191.8909 156.0
192.038483 1544.0
193.036774 592.0
194.322037 132.0
194.480225 104.0
198.08847 124.0
198.929733 112.0
199.637787 72.0
199.874084 176.0
200.144562 84.0
200.183716 60.0
200.341446 44.0
200.572525 76.0
200.667221 244.0
200.758606 124.0
200.882706 80.0
200.998383 200.0
201.053604 9916.0
201.164902 128.0
201.187485 36.0
201.235489 96.0
201.26442 48.0
201.308899 60.0
201.339966 56.0
201.447678 60.0
201.486847 60.0
201.582916 40.0
201.636948 68.0
201.676178 44.0
201.792084 112.0
201.876907 44.0
202.056381 1780.0
202.304153 88.0
202.33812 68.0
202.995483 28.0
203.059219 248.0
203.565872 156.0
203.852783 60.0
204.242279 136.0
204.407303 32.0
205.00531 64.0
208.623215 64.0
210.9207 68.0
214.563965 120.0
214.709763 120.0
226.15361 64.0
231.894501 140.0
234.776672 56.0
243.073639 120.0
252.080017 84.0
257.24762 104.0
266.478027 96.0
272.066132 136.0
273.943909 20.0
277.082367 40.0
283.168365 48.0
289.154022 160.0
292.140625 92.0
295.364258 48.0
313.969116 96.0
314.074921 132.0
324.097015 200.0
332.702728 76.0
341.060883 192.0
341.174835 40.0
345.530396 48.0
354.264404 68.0
355.160309 60.0
391.049835 68.0
395.244843 76.0
400.282104 100.0
413.749329 80.0
419.342865 116.0
437.463776 116.0
443.353149 120.0
444.367889 120.0
456.703522 104.0
460.603729 160.0
492.340454 92.0
535.640198 60.0
545.901245 96.0
561.336243 132.0
562.331665 92.0
616.01532 56.0
617.547668 132.0
756.546997 64.0
772.09137 56.0
791.502014 124.0
814.189087 144.0
856.920532 168.0
857.549866 116.0
877.8526 152.0
881.075317 136.0
885.304504 96.0
893.936096 188.0
895.150452 256.0
900.219238 180.0
906.488464 172.0
909.259094 192.0
912.045959 172.0
918.844788 144.0
920.347656 140.0
929.505981 156.0
929.657654 184.0
929.833679 56.0
931.655273 108.0
932.044128 196.0
933.4422 144.0
940.271362 64.0
950.239563 316.0
957.160522 224.0
967.230042 176.0
977.94342 120.0
979.730591 184.0
986.264099 116.0
987.583374 192.0
989.898987 168.0
995.875793 128.0
996.742737 96.0
1001.30072 136.0
1004.171265 252.0
1004.884094 68.0
1005.174377 172.0
1006.588318 148.0
1007.820068 152.0
1009.292847 140.0
1009.798767 156.0
1010.133972 156.0
1012.615234 180.0
1014.408386 104.0
1015.47998 184.0
1015.917664 160.0
1016.406189 200.0
1022.475037 144.0
1024.754761 124.0
1026.105957 180.0
1028.108887 144.0
1030.861206 200.0
1031.704956 192.0
1033.796509 196.0
1034.353882 204.0
1034.782227 196.0
1035.535767 60.0
1036.876953 176.0
1037.761475 180.0
1039.628174 180.0
1040.38562 172.0
1040.456177 72.0
1042.004028 160.0
1044.549805 132.0
1045.53418 168.0
1046.789551 124.0
1047.865234 160.0
1048.303345 56.0
1050.798706 188.0
1052.425171 92.0
1052.922485 188.0
1055.326294 100.0
1055.494385 92.0
1058.74292 84.0
1059.235229 160.0
1060.239502 236.0
1060.887695 132.0
1062.813965 228.0
1064.917236 224.0
1065.592896 92.0
1066.684692 136.0
1066.743164 208.0
1066.821167 204.0
1068.394897 220.0
1069.169312 180.0
1071.448242 192.0
1073.840576 116.0
1075.081055 244.0
1076.144165 172.0
1076.27478 176.0
1076.346558 176.0
1077.535278 180.0
1078.280273 164.0
1079.60083 120.0
1081.949829 96.0
1084.930664 52.0
1085.009399 200.0
1085.311035 256.0
1085.691284 200.0
1086.754028 172.0
1091.568726 152.0
1092.042236 116.0
1093.950439 220.0
1097.949951 204.0
1099.163818 136.0
1101.269775 188.0
1101.31604 164.0
1101.401855 88.0
1102.743164 144.0
1103.007568 204.0
1107.659424 160.0
1107.878052 128.0
1109.369141 140.0
1109.926025 148.0
1112.095337 136.0
1112.387451 104.0
1112.779175 200.0
1115.96167 52.0
1116.154541 216.0
1117.218628 180.0
1118.769287 160.0
1119.641479 216.0
1121.347046 56.0
1121.600342 168.0
1122.33374 128.0
1122.707153 72.0
1125.176025 188.0
1126.138916 176.0
1126.231079 92.0
1129.185303 184.0
1130.617065 52.0
1130.898193 144.0
1132.016235 148.0
1132.371094 120.0
1132.980713 204.0
1136.326172 128.0
1137.628174 160.0
1137.681885 152.0
1140.422485 140.0
1141.63269 144.0
1142.298462 156.0
1142.547485 200.0
1142.614746 128.0
1143.240479 128.0
1144.041504 144.0
1144.398315 128.0
1145.657715 196.0
1145.8396 196.0
1146.479736 144.0
1149.298462 96.0
1153.756104 176.0
1153.803345 184.0
1154.682495 196.0
1154.925903 152.0
1155.297974 188.0
1160.004517 120.0
1163.572876 204.0
1164.857666 208.0
1169.39856 176.0
1169.915894 168.0
1170.446899 180.0
1171.918213 192.0
1172.061279 120.0
1174.154053 72.0
1174.345093 180.0
1174.508789 152.0
1175.991089 140.0
1177.444702 100.0
1177.600708 200.0
1179.062744 148.0
1179.548096 152.0
1180.908813 148.0
1182.527466 200.0
1182.626099 196.0
1184.550293 156.0
1185.392944 136.0
1185.675903 216.0
1186.777588 208.0
1187.381104 228.0
1189.508057 144.0
1190.689087 160.0
1191.444458 176.0
1193.107788 160.0
1194.276855 220.0
1194.937256 292.0
1195.129883 184.0
1196.306763 176.0
1197.126099 160.0
1198.235107 144.0
1198.496826 148.0
1199.241089 168.0
1200.33728 136.0
1200.640747 244.0
1203.973999 124.0
1204.40918 104.0
1204.609497 168.0
1204.802979 168.0
1206.392456 192.0
1207.426392 44.0
1207.581787 128.0
1208.557129 132.0
1208.764771 132.0
1209.92749 168.0
1210.074463 128.0
1211.797485 132.0
1214.306885 152.0
1214.473389 44.0
1215.11853 152.0
1215.409912 160.0
1217.652222 168.0
1219.145874 148.0
1219.514282 104.0
1220.529175 188.0
1221.788086 168.0
1221.836792 84.0
1223.374878 184.0
1224.920776 144.0
1225.66626 172.0
1226.384033 208.0
1227.262451 140.0
1227.764526 132.0
1229.013184 220.0
1230.087891 208.0
1231.393677 184.0
1231.903564 168.0
1232.825806 168.0
1234.349731 188.0
1236.035645 152.0
1236.504517 164.0
1237.309448 160.0
1238.471924 164.0
1239.662964 132.0
1240.041382 144.0
1241.878296 128.0
1242.376343 72.0
1246.378418 176.0
1246.589111 144.0
1246.95459 148.0
1248.649048 144.0
1249.401611 168.0
1251.175171 96.0
1254.888062 104.0
1254.973633 56.0
1255.078491 132.0
1256.827759 160.0
1259.679932 88.0
1260.075562 120.0
1260.690308 180.0
1260.824585 60.0
1262.570801 164.0
1262.959839 188.0
1263.497437 268.0
1263.931152 160.0
1264.488159 176.0
1265.004883 40.0
1266.718506 264.0
1268.653076 164.0
1269.461426 212.0
1269.752197 192.0
1271.540039 172.0
1273.094849 156.0
1273.499634 192.0
1273.883179 200.0
1274.067871 68.0
1275.602905 220.0
1276.29248 156.0
1277.380615 132.0
1277.714966 196.0
1277.971191 180.0
1278.305542 136.0
1278.946167 116.0
1279.522705 180.0
1280.462646 164.0
1281.381592 144.0
1282.892456 200.0
1283.32019 32.0
1284.924927 188.0
1285.789917 148.0
1288.258911 140.0
1289.80249 196.0
1290.617432 140.0
1291.81897 68.0
1292.047852 228.0
1292.749146 152.0
1293.121216 124.0
1294.345459 200.0
1295.025757 164.0
1298.250854 152.0
1299.125977 164.0
1299.556396 164.0
1299.757324 188.0
1300.654419 120.0
1301.968262 140.0
1303.01709 108.0
1308.159058 180.0
1309.023071 144.0
1310.557373 180.0
1312.60437 164.0
1314.075806 128.0
1314.689209 156.0
1314.891235 176.0
1317.269409 240.0
1317.331787 120.0
1317.518311 180.0
1319.131226 188.0
1320.259155 196.0
1322.682983 136.0
1323.385132 188.0
1323.55896 168.0
1324.333862 144.0
1325.587158 172.0
1326.420654 152.0
1327.109375 48.0
1327.734619 72.0
1329.270996 196.0
1329.466919 172.0
1330.040283 152.0
1331.637695 88.0
1331.964478 144.0
1332.641113 152.0
1334.748047 188.0
1335.686157 188.0
1337.119629 264.0
1338.437256 208.0
1340.119751 104.0
1340.491333 152.0
1340.702759 136.0
1341.220215 188.0
1341.723145 144.0
1341.869019 216.0
1342.846191 176.0
1343.043091 92.0
1343.269165 172.0
1348.636108 232.0
1349.045532 172.0
1349.374512 128.0
1349.813232 204.0
1349.974121 136.0
1350.595703 216.0
1354.834106 160.0
1356.307129 180.0
1356.849609 164.0
1358.646362 52.0
1358.778442 148.0
1359.372681 172.0
1359.548828 116.0
1362.978271 160.0
1363.514648 200.0
1364.470215 172.0
1365.727783 152.0
1366.198486 156.0
1366.794434 92.0
1368.115967 176.0
1368.914429 176.0
1369.024902 168.0
1369.31958 204.0
1370.888794 48.0
1370.969849 172.0
1371.375122 256.0
1371.832153 180.0
1372.282471 236.0
1375.360107 200.0
1375.93396 132.0
1376.10376 136.0
1376.369629 72.0
1376.480347 172.0
1377.152344 208.0
1377.839355 32.0
1378.230957 252.0
1380.04187 180.0
1380.137939 140.0
1380.470703 132.0
1385.089111 160.0
1385.459473 224.0
1388.090698 136.0
1389.418335 160.0
1391.719116 148.0
1392.350342 104.0
1392.469116 108.0
1392.595459 224.0
1393.301147 200.0
1393.865845 212.0
1396.319092 180.0
1397.05542 216.0
1397.539062 96.0
1398.097168 244.0
1400.241211 44.0
1400.561523 212.0
1401.053223 144.0
1401.91748 56.0
1402.297607 200.0
1402.37207 56.0
1403.184692 128.0
1404.623901 176.0
1406.653687 144.0
1407.295654 204.0
1407.907959 164.0
1408.311279 220.0
1408.632568 156.0
1409.387085 196.0
1410.248169 208.0
1410.351196 36.0
1410.911743 212.0
1412.893677 184.0
1414.472656 208.0
1415.850342 148.0
1420.422363 180.0
1420.721436 180.0
1422.410889 204.0
1423.019409 188.0
1425.599854 216.0
1426.339478 164.0
1426.617676 128.0
1426.99353 184.0
1427.384521 172.0
1427.790649 184.0
1430.33374 60.0
1431.478149 220.0
1432.276489 160.0
1432.381836 48.0
1432.487305 180.0
1434.031982 112.0
1434.77832 208.0
1437.078613 152.0
1437.418213 168.0
1437.553955 184.0
1437.637085 124.0
1438.46936 188.0
1439.879272 264.0
1440.113403 164.0
1440.317261 148.0
1440.562134 136.0
1442.409302 200.0
1443.55957 352.0
1445.123047 232.0
1446.139404 172.0
1446.866089 140.0
1447.075073 192.0
1447.176514 160.0
1449.411011 204.0
1450.108154 204.0
1451.230103 188.0
1452.223633 180.0
1452.618042 180.0
1453.111084 124.0
1453.391846 172.0
1453.921753 248.0
1454.287354 152.0
1454.49231 160.0
1454.833862 148.0
1455.228638 120.0
1456.238647 188.0
1456.694458 260.0
1458.260376 224.0
1458.449707 36.0
1460.981934 124.0
1461.902588 272.0
1464.506348 144.0
1465.580566 180.0
1466.388306 172.0
1467.120117 148.0
1467.264893 132.0
1468.950317 180.0
1469.217285 160.0
1469.690308 224.0
1471.781738 156.0
1472.575928 228.0
1472.919678 100.0
1473.446777 224.0
1474.36377 48.0
1474.440186 104.0
1474.95105 128.0
1475.143311 128.0
1476.251953 180.0
1476.710815 124.0
1477.154541 188.0
1478.562378 148.0
1478.883789 236.0
1478.983276 164.0
1479.389038 208.0
1481.517944 152.0
1481.809082 160.0
1482.912598 76.0
1483.387085 216.0
1484.25415 152.0
1485.24353 208.0
1486.261353 156.0
1487.115723 192.0
1487.330566 180.0
1487.852539 56.0
1488.482178 76.0
1489.664917 176.0
1490.871216 132.0
1491.332397 216.0
1491.539062 184.0
1492.108765 176.0
1492.354858 164.0
1492.493286 156.0
1494.223755 184.0
1494.760132 48.0
1494.931641 212.0
1495.324219 168.0
1496.455811 124.0
1496.548218 48.0
1497.202759 76.0
1498.627808 140.0
1499.460083 172.0
1499.621948 200.0
1499.729858 216.0
1500.940186 120.0
1501.387451 112.0
1503.246582 116.0
1504.24231 120.0
