>compound MLS001401389-01!TOLTERODINE TARTRATE
>formula C22H31NO
>ionization [M+H]+
>parentmass 326.248657
#inchi InChI=1S/C22H31NO/c1-16(2)23(17(3)4)14-13-20(19-9-7-6-8-10-19)21-15-18(5)11-12-22(21)24/h6-12,15-17,20,24H,13-14H2,1-5H3/t20-/m1/s1
#inchikey OOGJQPCLVADCPB
#origInchi InChI=1S/C22H31NO.C4H6O6/c1-16(2)23(17(3)4)14-13-20(19-9-7-6-8-10-19)21-15-18(5)11-12-22(21)24;5-1(3(7)8)2(6)4(9)10/h6-12,15-17,20,24H,13-14H2,1-5H3;1-2,5-6H,(H,7,8)(H,9,10)/t20-;/m1./s1
#Ion_Source LC-ESI
#Instrument qTof
#Compound_Source NIH Pharmacologically Active Library
#PI Dorrestein
#Data_Collector VP/LMS
#Scan -1
#Precursor_MZ 326.247
#ExactMass 325.241
#Charge 1
#CAS_Number N/A
#Pubmed_ID N/A
#Smiles CC(C)N(CC[C@H](c1ccccc1)c2cc(C)ccc2O)C(C)C.OC(C(O)C(=O)O)C(=O)O
#INCHI_AUX N/A
#Library_Class 1
#SpectrumID CCMSLIB00000085968
#IonMode Positive
#UpdateWorkflowName UPDATE-SINGLE-ANNOTATED-GOLD
#LibraryQualityString Gold
#TaskID d252d724072548979f1f6f1ced849daf
##Scan# 1740
#SpectrumFile p4-H08_GH8_01_18416.mzXML
#LibraryName Pharm_Active_Library.mgf
#MQScore -1
#Organism Pharm_Active_Library
#TIC_Query 0
#RT_Query -1
#MZErrorPPM -1
#SharedPeaks 0
#MassDiff 0
#LibMZ -1
#SpecMZ 326.247
#SpecCharge 0
#internalFilename spec-00000.mgf

>collision 10
44.896515 168.0
44.913853 160.0
44.966179 244.0
44.977905 212.0
44.988583 64.0
44.997929 152.0
45.020355 156.0
45.02998 168.0
45.04361 136.0
45.056065 204.0
45.061344 108.0
45.066444 148.0
45.095135 172.0
45.10614 148.0
45.117233 148.0
45.152229 272.0
45.157238 168.0
45.177116 328.0
45.198421 100.0
45.212875 160.0
45.241982 132.0
45.287304 144.0
45.305416 360.0
45.318935 100.0
45.343056 128.0
45.362995 196.0
45.36478 172.0
45.370213 232.0
45.392746 184.0
45.408752 204.0
45.427532 140.0
45.455944 396.0
45.479256 272.0
45.492813 192.0
45.504028 112.0
45.517456 180.0
45.538944 152.0
45.592686 120.0
45.622257 156.0
45.631668 132.0
45.650265 168.0
45.66663 124.0
45.685265 188.0
45.718819 132.0
45.723427 168.0
45.735252 64.0
45.750061 140.0
45.76218 52.0
45.780022 192.0
45.791805 160.0
45.809315 192.0
45.843128 128.0
45.863216 80.0
45.876926 188.0
45.89497 152.0
45.90263 120.0
45.935501 152.0
45.94532 104.0
45.949997 160.0
45.968414 180.0
46.023144 172.0
46.034225 264.0
46.042068 136.0
46.047001 172.0
46.07436 164.0
46.089947 96.0
46.115623 284.0
46.131989 224.0
46.138428 184.0
46.179173 264.0
46.200932 140.0
46.221111 92.0
46.230583 184.0
46.241409 60.0
46.255604 140.0
46.273014 136.0
46.283379 160.0
46.292858 184.0
46.328072 160.0
46.367367 140.0
46.387962 208.0
46.414268 168.0
46.426487 132.0
46.461964 84.0
46.477348 200.0
46.496212 60.0
46.505714 144.0
46.517929 168.0
46.541245 208.0
46.567997 156.0
46.592903 136.0
46.622322 144.0
46.645622 144.0
46.665039 356.0
46.691853 152.0
46.707092 156.0
46.720951 112.0
46.754215 196.0
46.763962 192.0
46.773491 136.0
46.78302 176.0
46.793861 112.0
46.815697 304.0
46.837467 224.0
46.841034 220.0
46.845383 136.0
46.850147 192.0
46.863377 212.0
46.879833 156.0
46.901081 168.0
46.908916 148.0
46.921207 148.0
46.931526 56.0
46.962894 96.0
46.979092 148.0
46.996998 96.0
47.017181 208.0
47.038548 108.0
47.065987 172.0
47.083145 188.0
47.111385 164.0
47.132729 204.0
47.165863 212.0
47.17865 192.0
47.196423 76.0
47.209297 124.0
47.231766 164.0
47.247028 160.0
47.279564 196.0
47.284618 188.0
47.301769 144.0
47.314091 80.0
47.347584 244.0
47.359444 136.0
47.382568 240.0
47.400383 100.0
47.436016 48.0
47.466179 172.0
47.476166 128.0
47.482361 140.0
47.491299 192.0
47.511444 164.0
47.5252 144.0
47.547119 96.0
47.558578 252.0
47.585712 128.0
47.603405 248.0
47.630173 156.0
47.653542 208.0
47.674644 140.0
47.709206 180.0
47.721581 160.0
47.754585 60.0
47.777969 172.0
47.802822 176.0
47.813747 112.0
47.828888 112.0
47.84935 208.0
47.868813 144.0
47.881207 196.0
47.894981 324.0
47.906002 172.0
47.924328 148.0
47.945244 104.0
47.954231 364.0
47.975269 168.0
47.985935 64.0
47.995586 304.0
48.029091 192.0
48.047218 116.0
48.068699 152.0
48.087406 144.0
48.095673 176.0
48.119701 164.0
48.143963 292.0
48.177086 224.0
48.19693 148.0
48.223377 104.0
48.249641 208.0
48.259319 196.0
48.282825 248.0
48.297642 156.0
48.31464 188.0
48.327095 372.0
48.35294 136.0
48.364998 144.0
48.39032 136.0
48.409389 204.0
48.421227 148.0
48.436462 176.0
48.448933 60.0
48.465794 140.0
48.478031 316.0
48.51268 152.0
48.528679 208.0
48.548733 160.0
48.575581 172.0
48.585518 100.0
48.609772 104.0
48.643871 200.0
48.684765 152.0
48.712513 160.0
48.73222 392.0
48.741745 304.0
48.775726 204.0
48.798679 88.0
48.811073 156.0
48.8251 152.0
48.840473 76.0
48.864052 112.0
48.873791 112.0
48.888512 124.0
48.940472 212.0
48.945213 192.0
48.95076 272.0
48.971691 136.0
49.011349 176.0
49.031395 168.0
49.04509 204.0
49.070183 96.0
49.115582 224.0
49.131054 136.0
49.134617 180.0
49.148975 188.0
49.170574 124.0
49.19112 128.0
49.21051 172.0
49.239033 108.0
49.300735 144.0
49.313751 200.0
49.316772 100.0
49.355812 184.0
49.374409 308.0
49.387096 184.0
49.405373 56.0
49.423393 236.0
49.45668 156.0
49.480946 132.0
49.513744 252.0
49.527615 160.0
49.54744 252.0
49.560589 172.0
49.563934 208.0
49.571205 64.0
49.584335 144.0
49.595024 204.0
49.626156 200.0
49.636726 136.0
49.663124 196.0
49.676289 436.0
49.703434 320.0
49.745071 140.0
49.765114 116.0
49.803436 172.0
49.818096 144.0
49.858891 148.0
49.884991 168.0
49.893345 144.0
49.956818 212.0
49.977814 140.0
50.012268 180.0
50.028233 140.0
50.047546 364.0
50.081631 172.0
50.098331 148.0
50.120029 152.0
50.132713 132.0
50.145088 128.0
50.163094 184.0
50.198971 32.0
50.211258 168.0
50.229576 40.0
50.247421 224.0
50.256805 148.0
50.272713 176.0
50.279148 200.0
50.284153 184.0
50.304157 276.0
50.325966 124.0
50.341499 132.0
50.352798 148.0
50.390938 140.0
50.42271 236.0
50.426556 176.0
50.437084 276.0
50.451714 168.0
50.469849 140.0
50.491211 184.0
50.492939 180.0
50.531815 176.0
50.558575 156.0
50.569923 152.0
50.58469 160.0
50.603096 112.0
50.621952 176.0
50.651936 148.0
50.673439 96.0
50.685249 152.0
50.701527 172.0
50.716427 144.0
50.729744 132.0
50.742992 212.0
50.788052 168.0
50.813538 300.0
50.827049 160.0
50.839821 100.0
50.851173 96.0
50.864822 332.0
50.906544 156.0
50.922165 192.0
50.93779 120.0
50.960068 188.0
50.974731 164.0
50.993206 92.0
51.023556 216.0
51.047653 188.0
51.058605 168.0
51.079803 164.0
51.095589 264.0
51.106468 124.0
51.109749 80.0
51.114563 120.0
51.125473 216.0
51.152515 84.0
51.179317 160.0
51.241745 116.0
51.269032 244.0
51.290691 128.0
51.312073 328.0
51.327778 224.0
51.338261 136.0
51.353428 92.0
51.364841 148.0
51.427311 364.0
51.441673 152.0
51.469025 120.0
51.491295 76.0
51.520695 136.0
51.547592 68.0
51.569744 188.0
51.594761 84.0
51.611916 184.0
51.641705 164.0
51.646072 136.0
51.670559 128.0
51.687729 148.0
51.699455 228.0
51.724762 160.0
51.743553 160.0
51.756439 160.0
51.765594 152.0
51.788845 108.0
51.801701 372.0
51.838821 196.0
51.876461 140.0
51.891125 148.0
51.914322 112.0
51.935474 164.0
51.983654 132.0
52.007324 100.0
52.028095 136.0
52.046085 156.0
52.066193 60.0
52.076244 72.0
52.090611 132.0
52.129246 220.0
52.154499 140.0
52.172421 220.0
52.195526 76.0
52.225731 164.0
52.238396 144.0
52.271717 112.0
52.280342 192.0
52.29911 212.0
52.319267 56.0
52.330784 196.0
52.355652 148.0
52.371632 208.0
52.381889 144.0
52.398087 200.0
52.434502 188.0
52.461891 212.0
52.482075 164.0
52.523312 128.0
52.544094 148.0
52.561409 164.0
52.57069 148.0
52.591717 156.0
52.610859 168.0
52.615383 172.0
52.619907 364.0
52.636208 132.0
52.649368 200.0
52.662685 184.0
52.674023 128.0
52.685581 340.0
52.699024 144.0
52.74194 144.0
52.758579 172.0
52.772209 200.0
52.789928 124.0
52.807003 344.0
52.822914 204.0
52.833042 144.0
52.866322 164.0
52.882576 104.0
52.906849 320.0
52.947395 132.0
52.973991 172.0
52.989403 168.0
53.007553 200.0
53.032879 192.0
53.057198 108.0
53.060841 152.0
53.083622 304.0
53.098122 148.0
53.135838 76.0
53.148899 148.0
53.160507 156.0
53.180824 128.0
53.192291 120.0
53.209068 172.0
53.238899 148.0
53.251225 140.0
53.292015 192.0
53.312992 36.0
53.326073 156.0
53.358051 168.0
53.369682 116.0
53.383873 148.0
53.397312 84.0
53.408951 216.0
53.428864 180.0
53.465694 116.0
53.494804 148.0
53.507046 176.0
53.521011 148.0
53.543781 136.0
53.574902 148.0
53.586555 120.0
53.599174 176.0
53.621529 116.0
53.634647 148.0
53.655056 104.0
53.667393 156.0
53.725998 168.0
53.761539 48.0
53.774673 172.0
53.789268 88.0
53.810593 228.0
53.843731 244.0
53.85936 156.0
53.879929 200.0
53.913422 148.0
53.930885 156.0
53.939587 368.0
53.958736 332.0
53.970432 52.0
53.985054 168.0
54.023083 116.0
54.041286 208.0
54.068443 172.0
54.086983 328.0
54.106503 168.0
54.122608 40.0
54.141693 172.0
54.156929 328.0
54.181194 308.0
54.217743 132.0
54.254471 176.0
54.283775 280.0
54.300419 244.0
54.317532 152.0
54.329533 176.0
54.345459 188.0
54.367416 236.0
54.386497 52.0
54.432812 168.0
54.43721 96.0
54.460621 228.0
54.489296 164.0
54.54808 116.0
54.575977 164.0
54.586155 296.0
54.620678 140.0
54.634109 104.0
54.643673 160.0
54.677517 136.0
54.702538 148.0
54.717262 136.0
54.753654 140.0
54.790466 300.0
54.820126 120.0
54.850338 160.0
54.874908 128.0
54.916199 156.0
54.939804 156.0
54.964886 224.0
55.000572 200.0
55.01646 112.0
55.037212 76.0
55.048061 208.0
55.072784 140.0
55.096462 176.0
55.141808 100.0
55.160839 124.0
55.175224 232.0
55.187927 148.0
55.199802 132.0
55.239693 192.0
55.269283 172.0
55.285561 104.0
55.295921 216.0
55.308197 232.0
55.325947 140.0
55.349911 136.0
55.366985 240.0
55.386917 140.0
55.38961 160.0
55.401054 108.0
55.453201 228.0
55.486916 160.0
55.503857 292.0
55.563992 124.0
55.578972 56.0
55.609123 300.0
55.620388 128.0
55.642796 156.0
55.657642 164.0
55.676727 268.0
55.70517 168.0
55.720707 132.0
55.748257 224.0
55.761635 144.0
55.806194 156.0
55.839745 112.0
55.855045 136.0
55.857166 112.0
55.863216 164.0
55.914539 188.0
55.931961 148.0
55.958843 56.0
55.998199 148.0
56.011608 232.0
56.032288 184.0
56.054287 192.0
56.081638 104.0
56.103344 188.0
56.12027 136.0
56.145752 148.0
56.175583 160.0
56.202438 184.0
56.22337 188.0
56.24572 148.0
56.262138 192.0
56.283043 116.0
56.298626 184.0
56.360088 152.0
56.366013 88.0
56.396584 224.0
56.416943 168.0
56.433739 152.0
56.461235 216.0
56.483311 60.0
56.493782 108.0
56.5252 52.0
56.535675 120.0
56.546597 324.0
56.570103 136.0
56.58807 128.0
56.606037 140.0
56.627224 108.0
56.679436 132.0
56.710911 124.0
56.730396 244.0
56.770016 320.0
56.783646 92.0
56.798553 136.0
56.810905 388.0
56.832191 168.0
56.844387 148.0
56.863895 176.0
56.875175 172.0
56.885693 92.0
56.901718 392.0
56.917915 148.0
56.945526 144.0
56.958492 132.0
57.002064 144.0
57.038132 132.0
57.054237 208.0
57.072712 168.0
57.108807 124.0
57.134842 52.0
57.156948 40.0
57.17049 164.0
57.186253 152.0
57.208893 148.0
57.226719 192.0
57.24353 232.0
57.266846 204.0
57.280861 132.0
57.305882 136.0
57.326767 176.0
57.345093 224.0
57.363506 164.0
57.385899 180.0
57.396454 40.0
57.422779 228.0
57.455711 152.0
57.494232 152.0
57.50956 140.0
57.520744 220.0
57.5424 220.0
57.569992 76.0
57.612286 220.0
57.64817 144.0
57.686337 120.0
57.696918 108.0
57.713551 316.0
57.733208 116.0
57.74926 176.0
57.764973 136.0
57.78603 148.0
57.803551 84.0
57.819443 80.0
57.843658 120.0
57.880978 284.0
57.895138 164.0
57.925434 184.0
57.946156 200.0
57.964825 120.0
57.975433 160.0
57.989643 192.0
58.028591 176.0
58.06712 180.0
58.08215 208.0
58.112434 208.0
58.124046 124.0
58.140739 228.0
58.163551 128.0
58.174133 156.0
58.190491 160.0
58.214943 232.0
58.226719 356.0
58.236866 172.0
58.296204 184.0
58.310417 188.0
58.354923 112.0
58.365566 96.0
58.403587 192.0
58.43285 324.0
58.473114 184.0
58.479382 128.0
58.483017 160.0
58.501545 196.0
58.53587 144.0
58.560364 176.0
58.60302 200.0
58.618256 180.0
58.642815 212.0
58.660275 148.0
58.683067 176.0
58.69854 160.0
58.702412 136.0
58.709579 212.0
58.714722 116.0
58.737179 120.0
58.792065 144.0
58.805843 236.0
58.842548 208.0
58.853729 152.0
58.87149 160.0
58.88982 124.0
58.915482 200.0
58.931065 104.0
58.958145 200.0
58.990669 104.0
59.017391 176.0
59.028942 124.0
59.057549 152.0
59.093136 120.0
59.117619 112.0
59.169662 220.0
59.181427 208.0
59.2155 120.0
59.21801 112.0
59.223862 184.0
59.27013 180.0
59.281216 116.0
59.329514 184.0
59.359661 152.0
59.37653 104.0
59.394936 124.0
59.428688 168.0
59.455441 172.0
59.508503 96.0
59.527313 152.0
59.540611 88.0
59.559883 100.0
59.583759 164.0
59.603733 132.0
59.628323 200.0
59.655991 196.0
59.672901 112.0
59.684895 176.0
59.71003 140.0
59.749802 36.0
59.763649 144.0
59.788273 108.0
59.811359 156.0
59.837265 164.0
59.885296 220.0
59.892548 176.0
59.928326 240.0
59.94672 176.0
59.969357 216.0
60.008926 148.0
60.050457 328.0
60.091839 232.0
60.147774 196.0
60.162834 68.0
60.176727 188.0
60.191643 176.0
60.216881 232.0
60.238503 36.0
60.258976 64.0
60.282681 108.0
60.353367 424.0
60.380707 120.0
60.397163 200.0
60.43021 168.0
60.477123 216.0
60.48848 196.0
60.507519 160.0
60.52153 196.0
60.558224 144.0
60.58968 128.0
60.609821 136.0
60.654766 112.0
60.679668 196.0
60.708046 264.0
60.721249 260.0
60.726173 228.0
60.729683 140.0
60.744076 108.0
60.754528 420.0
60.794743 340.0
60.811275 40.0
60.893719 48.0
60.912643 240.0
60.92865 168.0
60.96674 132.0
61.002899 316.0
61.014603 176.0
61.063206 240.0
61.077888 164.0
61.107475 172.0
61.119137 132.0
61.140285 88.0
61.185753 160.0
61.210285 180.0
61.224991 268.0
61.248356 120.0
61.279301 236.0
61.285076 196.0
61.289974 140.0
61.31847 188.0
61.3325 88.0
61.354324 164.0
61.401196 208.0
61.420628 108.0
61.449459 112.0
61.492737 172.0
61.51947 228.0
61.53479 228.0
61.553989 120.0
61.575623 156.0
61.586838 204.0
61.599335 64.0
61.64201 236.0
61.659164 96.0
61.68372 108.0
61.703796 152.0
61.716232 204.0
61.750362 180.0
61.777294 124.0
61.806881 160.0
61.82655 176.0
61.878189 520.0
61.90015 168.0
61.929348 168.0
61.956017 76.0
61.990948 136.0
62.02977 192.0
62.053185 112.0
62.087162 144.0
62.115444 436.0
62.13533 172.0
62.158253 164.0
62.177334 112.0
62.197514 360.0
62.217815 200.0
62.233894 308.0
62.262413 156.0
62.297218 252.0
62.341713 168.0
62.368515 312.0
62.403637 176.0
62.424488 120.0
62.434765 204.0
62.455212 160.0
62.472023 140.0
62.485062 152.0
62.514999 108.0
62.537304 116.0
62.552269 188.0
62.56694 200.0
62.602787 240.0
62.639172 148.0
62.643764 128.0
62.663013 168.0
62.674042 204.0
62.686649 104.0
62.760738 132.0
62.790699 140.0
62.803318 112.0
62.816967 204.0
62.858887 108.0
62.87989 128.0
62.895535 172.0
62.913704 252.0
62.932724 44.0
62.953255 100.0
62.973785 72.0
62.98484 212.0
62.999386 116.0
63.009666 84.0
63.021179 76.0
63.038559 140.0
63.049622 92.0
63.070168 112.0
63.130409 156.0
63.152691 84.0
63.176117 136.0
63.198269 188.0
63.220856 132.0
63.252079 148.0
63.270737 168.0
63.29324 64.0
63.362934 120.0
63.375607 164.0
63.416813 208.0
63.434189 324.0
63.459087 144.0
63.468983 176.0
63.500359 156.0
63.545303 220.0
63.569984 152.0
63.589695 124.0
63.61372 176.0
63.641304 120.0
63.661747 188.0
63.707199 168.0
63.735798 112.0
63.769173 112.0
63.791428 232.0
63.832764 68.0
63.893208 136.0
63.907093 176.0
63.945408 164.0
63.986313 256.0
63.997036 136.0
64.008713 132.0
64.030106 172.0
64.049217 72.0
64.066742 300.0
64.090637 128.0
64.124367 168.0
64.152794 108.0
64.170334 144.0
64.23584 160.0
64.259651 116.0
64.294754 80.0
64.328278 120.0
64.355415 304.0
64.400131 164.0
64.430573 140.0
64.454453 104.0
64.473991 164.0
64.503998 216.0
64.516785 148.0
64.529572 208.0
64.54673 164.0
64.557167 188.0
64.56456 168.0
64.568108 168.0
64.609703 176.0
64.627144 104.0
64.646141 192.0
64.666199 168.0
64.679955 224.0
64.692673 148.0
64.704048 320.0
64.716774 248.0
64.727982 168.0
64.742218 108.0
64.760017 108.0
64.787247 152.0
64.801666 92.0
64.813995 184.0
64.848137 116.0
64.860962 40.0
64.893028 168.0
64.926697 136.0
64.971611 172.0
64.988983 284.0
65.017212 172.0
65.054153 204.0
65.075935 212.0
65.105507 212.0
65.146599 124.0
65.162392 212.0
65.190826 168.0
65.230606 132.0
65.25267 128.0
65.263931 104.0
65.275185 172.0
65.297844 136.0
65.3274 212.0
65.347595 136.0
65.36747 356.0
65.386185 132.0
65.403275 208.0
65.42804 92.0
65.446884 176.0
65.487625 136.0
65.511887 184.0
65.536156 188.0
65.564957 176.0
65.586952 248.0
65.610092 240.0
65.650398 216.0
65.690529 164.0
65.705246 124.0
65.766563 72.0
65.784882 196.0
65.802078 152.0
65.821541 76.0
65.83725 128.0
65.849174 148.0
65.863449 304.0
65.880844 172.0
65.894142 312.0
65.965248 156.0
66.00621 176.0
66.020943 180.0
66.04261 152.0
66.065514 88.0
66.090637 136.0
66.106964 156.0
66.123764 104.0
66.143188 184.0
66.157761 160.0
66.180428 104.0
66.204117 212.0
66.253311 176.0
66.267319 124.0
66.292725 260.0
66.304405 180.0
66.316505 204.0
66.327858 160.0
66.351135 156.0
66.376495 136.0
66.403954 300.0
66.42691 188.0
66.443947 164.0
66.45961 200.0
66.472931 128.0
66.493637 276.0
66.511154 144.0
66.537125 168.0
66.572845 128.0
66.587334 148.0
66.615082 132.0
66.644081 188.0
66.649925 160.0
66.673576 308.0
66.690979 148.0
66.701202 240.0
66.733719 164.0
66.792053 152.0
66.827446 160.0
66.862228 140.0
66.878983 136.0
66.893158 188.0
66.912689 68.0
66.932182 144.0
66.944099 344.0
66.990273 308.0
67.010605 136.0
67.028336 40.0
67.044533 320.0
67.059303 116.0
67.084587 172.0
67.116821 328.0
67.135925 160.0
67.188126 176.0
67.219864 80.0
67.240631 212.0
67.299713 108.0
67.313805 144.0
67.330139 44.0
67.35614 196.0
67.392212 208.0
67.412712 136.0
67.443108 112.0
67.465759 232.0
67.485382 120.0
67.499252 128.0
67.519722 60.0
67.534439 128.0
67.563385 264.0
67.574387 240.0
67.590828 172.0
67.605721 304.0
67.611588 172.0
67.617714 168.0
67.634766 228.0
67.654999 244.0
67.666504 140.0
67.678452 492.0
67.698105 304.0
67.716118 232.0
67.742851 164.0
67.769669 240.0
67.813713 128.0
67.81871 72.0
67.823082 100.0
67.839012 192.0
67.864258 172.0
67.886208 164.0
67.899681 220.0
67.916962 112.0
67.930847 108.0
67.960381 132.0
67.972565 132.0
67.998238 228.0
68.011894 124.0
68.030952 116.0
68.083496 108.0
68.101562 208.0
68.152489 140.0
68.174095 164.0
68.18689 180.0
68.241249 76.0
68.254402 148.0
68.270851 92.0
68.319855 136.0
68.336647 324.0
68.369553 212.0
68.382721 124.0
68.393448 124.0
68.41819 164.0
68.436989 112.0
68.452354 136.0
68.473717 164.0
68.500458 152.0
68.527641 84.0
68.554054 140.0
68.619026 304.0
68.634346 168.0
68.652206 148.0
68.672707 292.0
68.700081 148.0
68.733749 328.0
68.761803 92.0
68.773361 172.0
68.801422 188.0
68.834816 208.0
68.89109 148.0
68.915382 136.0
68.946198 164.0
68.959999 128.0
68.976532 136.0
68.990471 100.0
69.029434 160.0
69.044655 140.0
69.073914 72.0
69.093948 152.0
69.109261 172.0
69.133041 204.0
69.147346 248.0
69.150528 164.0
69.174446 152.0
69.186264 128.0
69.212677 176.0
69.234642 200.0
69.251205 108.0
69.264458 160.0
69.308792 168.0
69.314781 128.0
69.327026 136.0
69.353935 136.0
69.391472 180.0
69.418716 108.0
69.431755 124.0
69.448448 100.0
69.460526 204.0
69.479965 312.0
69.496559 68.0
69.526917 124.0
69.553978 128.0
69.581207 192.0
69.592133 196.0
69.652618 84.0
69.667564 40.0
69.682869 172.0
69.712624 172.0
69.74054 184.0
69.76133 180.0
69.773926 120.0
69.793884 140.0
69.80526 128.0
69.820488 104.0
69.855827 164.0
69.870796 120.0
69.898674 204.0
69.923637 216.0
69.95372 164.0
69.985855 208.0
70.020233 160.0
70.04805 128.0
70.073509 40.0
70.10466 196.0
70.140175 128.0
70.167206 204.0
70.206741 132.0
70.234894 124.0
70.248039 132.0
70.2836 60.0
70.313637 52.0
70.327499 92.0
70.350037 164.0
70.353088 132.0
70.360435 248.0
70.372009 120.0
70.392097 108.0
70.4086 168.0
70.429726 204.0
70.453903 128.0
70.514404 116.0
70.532997 132.0
70.544762 108.0
70.549782 172.0
70.569221 112.0
70.600998 116.0
70.637825 224.0
70.654518 256.0
70.68129 40.0
70.700203 212.0
70.729828 132.0
70.763306 152.0
70.776703 120.0
70.794312 280.0
70.821922 104.0
70.842026 184.0
70.853752 132.0
70.868828 184.0
70.897316 88.0
70.919182 176.0
70.938126 176.0
70.971306 144.0
70.986168 132.0
71.025673 36.0
71.067642 128.0
71.087166 192.0
71.092644 144.0
71.128632 236.0
71.162315 176.0
71.175789 136.0
71.198647 124.0
71.222809 192.0
71.242287 172.0
71.266624 152.0
71.279892 188.0
71.305145 184.0
71.339638 168.0
71.362183 180.0
71.373581 276.0
71.407166 176.0
71.466087 300.0
71.491821 120.0
71.514511 224.0
71.53727 164.0
71.553574 152.0
71.581673 236.0
71.593597 144.0
71.611359 88.0
71.636879 184.0
71.669945 108.0
71.702339 188.0
71.713623 144.0
71.742416 340.0
71.761284 128.0
71.766548 88.0
71.771858 84.0
71.808556 144.0
71.850731 136.0
71.870201 160.0
72.004974 296.0
72.021225 196.0
72.041664 148.0
72.055016 112.0
72.071915 208.0
72.089783 132.0
72.106377 132.0
72.118767 160.0
72.171356 148.0
72.200386 132.0
72.273125 104.0
72.29174 140.0
72.359665 124.0
72.393311 124.0
72.410248 172.0
72.432266 128.0
72.469543 136.0
72.500046 192.0
72.561066 172.0
72.574631 180.0
72.588196 72.0
72.621635 100.0
72.654991 176.0
72.687698 152.0
72.705246 120.0
72.71785 240.0
72.741417 224.0
72.757866 144.0
72.788864 188.0
72.805412 168.0
72.818375 240.0
72.84977 172.0
72.893631 204.0
72.924339 92.0
72.936241 208.0
72.948143 180.0
72.96344 248.0
72.988869 172.0
73.008232 280.0
73.031738 180.0
73.054474 212.0
73.099518 72.0
73.121635 260.0
73.135735 212.0
73.153976 224.0
73.168541 172.0
73.182228 176.0
73.207298 152.0
73.224449 196.0
73.251045 96.0
73.268082 168.0
73.292618 140.0
73.32943 208.0
73.389664 144.0
73.402267 176.0
73.414673 204.0
73.426605 192.0
73.441956 104.0
73.465843 172.0
73.499962 152.0
73.517654 132.0
73.528976 144.0
73.543602 112.0
73.554329 164.0
73.57737 148.0
73.626289 192.0
73.645081 332.0
73.761269 168.0
73.805725 104.0
73.843483 152.0
73.87384 184.0
73.890671 60.0
73.908455 132.0
73.929443 320.0
73.951134 176.0
73.97982 348.0
73.999069 200.0
74.037933 328.0
74.045418 196.0
74.081276 148.0
74.092621 192.0
74.108688 132.0
74.132088 128.0
74.152138 224.0
74.170387 160.0
74.224518 132.0
74.25531 204.0
74.278412 132.0
74.309296 224.0
74.331596 224.0
74.342903 116.0
74.357346 136.0
74.395355 164.0
74.414467 232.0
74.439751 128.0
74.453484 212.0
74.477531 132.0
74.492989 176.0
74.508453 116.0
74.530571 188.0
74.553131 228.0
74.565933 168.0
74.587242 236.0
74.603432 180.0
74.616203 52.0
74.633919 156.0
74.657997 172.0
74.677139 124.0
74.734818 176.0
74.761246 272.0
74.790474 64.0
74.812859 156.0
74.850731 160.0
74.884125 176.0
74.900421 236.0
74.919296 124.0
74.943481 128.0
74.973045 296.0
74.998901 156.0
75.012215 132.0
75.028748 164.0
75.058846 192.0
75.082489 224.0
75.109253 104.0
75.123055 120.0
75.158966 128.0
75.176437 128.0
75.21106 148.0
75.239525 156.0
75.252495 144.0
75.271484 96.0
75.293938 156.0
75.310745 104.0
75.340775 176.0
75.367905 132.0
75.383774 156.0
75.406342 136.0
75.445709 156.0
75.483788 168.0
75.506516 176.0
75.527275 120.0
75.541687 180.0
75.564011 168.0
75.587822 132.0
75.614044 184.0
75.650795 84.0
75.66745 148.0
75.679565 84.0
75.691689 164.0
75.721931 276.0
75.742882 172.0
75.749565 96.0
75.75499 212.0
75.784309 120.0
75.802551 136.0
75.816032 164.0
75.844147 128.0
75.85965 204.0
75.87693 180.0
75.899628 212.0
75.91523 152.0
75.927368 112.0
75.962059 92.0
75.974205 56.0
75.989601 160.0
76.018806 212.0
76.032387 204.0
76.04882 156.0
76.061562 236.0
76.079605 180.0
76.101891 212.0
76.131775 164.0
76.159988 212.0
76.192772 152.0
76.224976 164.0
76.251968 216.0
76.279846 124.0
76.310097 180.0
76.342438 108.0
76.359833 124.0
76.374283 300.0
76.387375 268.0
76.401512 104.0
76.427673 156.0
76.45726 112.0
76.505203 192.0
76.521156 176.0
76.563744 364.0
76.631393 84.0
76.64753 92.0
76.664864 192.0
76.68293 248.0
76.71505 168.0
76.737717 152.0
76.765877 160.0
76.784988 260.0
76.807472 244.0
76.842361 164.0
76.878525 144.0
76.913918 96.0
76.933113 148.0
76.950829 136.0
76.991669 160.0
77.016937 100.0
77.057922 148.0
77.08857 196.0
77.104294 216.0
77.120682 160.0
77.146248 108.0
77.192238 232.0
77.212692 108.0
77.230186 112.0
77.282669 188.0
77.307167 188.0
77.324982 244.0
77.336014 340.0
77.364929 72.0
77.382431 228.0
77.431702 176.0
77.449593 172.0
77.479958 164.0
77.486954 112.0
77.498535 252.0
77.521286 296.0
77.539619 228.0
77.571068 156.0
77.597137 324.0
77.645958 156.0
77.671593 124.0
77.700676 408.0
77.727737 96.0
77.763977 80.0
77.771217 124.0
77.783745 180.0
77.814812 188.0
77.829292 196.0
77.844124 240.0
77.858673 176.0
77.871696 200.0
77.885742 204.0
77.901352 172.0
77.916939 116.0
77.94548 60.0
77.966568 56.0
77.986954 180.0
77.993172 208.0
78.021057 80.0
78.035126 164.0
78.056412 152.0
78.0952 172.0
78.111031 148.0
78.127373 204.0
78.159393 160.0
78.167549 136.0
78.203773 248.0
78.224289 236.0
78.255058 228.0
78.306938 104.0
78.318962 164.0
78.350166 108.0
78.368767 256.0
78.388924 184.0
78.417336 136.0
78.436066 236.0
78.454834 148.0
78.466484 260.0
78.49646 44.0
78.514091 264.0
78.563484 176.0
78.58387 196.0
78.602303 116.0
78.628242 112.0
78.659401 180.0
78.682747 204.0
78.712044 164.0
78.717743 160.0
78.72435 192.0
78.741081 144.0
78.772453 160.0
78.804657 212.0
78.837166 168.0
78.849541 140.0
78.869667 144.0
78.898552 176.0
78.93808 188.0
78.986008 196.0
79.00914 108.0
79.045837 188.0
79.071396 308.0
79.100601 140.0
79.107414 132.0
79.124542 160.0
79.139351 248.0
79.176025 200.0
79.22821 36.0
79.294731 200.0
79.311501 136.0
79.388382 308.0
79.418671 372.0
79.446266 160.0
79.562744 184.0
79.591805 208.0
79.60424 116.0
79.680618 144.0
79.699486 252.0
79.707222 156.0
79.710152 148.0
79.729462 156.0
79.748146 148.0
79.800224 264.0
79.844154 148.0
79.881508 164.0
79.899666 260.0
79.919174 140.0
79.970398 88.0
80.006081 292.0
80.01918 100.0
80.031006 92.0
80.074242 144.0
80.096336 152.0
80.110046 136.0
80.154778 152.0
80.173515 204.0
80.214508 140.0
80.241249 280.0
80.27359 176.0
80.312584 140.0
80.353165 192.0
80.389297 196.0
80.405891 148.0
80.426712 224.0
80.457649 136.0
80.47242 92.0
80.492302 268.0
80.497093 188.0
80.520782 160.0
80.53286 176.0
80.56517 160.0
80.617355 320.0
80.633965 104.0
80.705475 120.0
80.737663 112.0
80.764 276.0
80.802055 228.0
80.846199 160.0
80.87722 184.0
80.893326 140.0
80.911232 112.0
80.936302 168.0
80.957787 188.0
80.973907 164.0
80.991814 40.0
81.027649 52.0
81.05452 56.0
81.075455 188.0
81.08213 128.0
81.113205 188.0
81.131592 108.0
81.1549 136.0
81.170502 228.0
81.202942 152.0
81.240364 80.0
81.256523 224.0
81.300362 88.0
81.333702 288.0
81.341003 192.0
81.35022 140.0
81.358086 164.0
81.375717 128.0
81.397194 188.0
81.42408 220.0
81.449226 152.0
81.485153 164.0
81.500725 208.0
81.522461 184.0
81.549446 196.0
81.576012 172.0
81.60714 124.0
81.618881 180.0
81.646935 116.0
81.679306 128.0
81.709129 236.0
81.740479 196.0
81.764984 188.0
81.771629 272.0
81.81073 128.0
81.836205 132.0
81.861877 200.0
81.888107 120.0
81.929665 144.0
81.968224 156.0
81.992233 212.0
82.003708 120.0
82.032257 76.0
82.096031 164.0
82.142258 132.0
82.16864 212.0
82.204575 104.0
82.221649 152.0
82.237892 144.0
82.255943 64.0
82.295662 176.0
82.36132 168.0
82.394997 140.0
82.411263 168.0
82.425964 148.0
82.44017 176.0
82.453941 116.0
82.479355 188.0
82.493958 132.0
82.517151 184.0
82.532806 344.0
82.559135 380.0
82.591728 116.0
82.598526 96.0
82.605507 172.0
82.656654 168.0
82.683395 172.0
82.695976 172.0
82.726875 176.0
82.740433 160.0
82.754128 108.0
82.781532 304.0
82.809914 120.0
82.836418 168.0
82.864624 252.0
82.898735 152.0
82.935692 224.0
82.954208 124.0
82.989922 168.0
83.006203 112.0
83.051399 224.0
83.074638 160.0
83.092216 240.0
83.130478 172.0
83.158173 140.0
83.179146 204.0
83.216827 124.0
83.244507 204.0
83.279015 160.0
83.295364 136.0
83.311279 184.0
83.337151 248.0
83.352554 176.0
83.384888 192.0
83.398933 196.0
83.415535 184.0
83.457802 220.0
83.508034 140.0
83.529266 332.0
83.56974 156.0
83.582436 156.0
83.605782 220.0
83.636497 200.0
83.649323 80.0
83.666595 196.0
83.703461 124.0
83.734261 628.0
83.758896 180.0
83.790192 308.0
83.8321 100.0
83.84668 136.0
83.874268 180.0
83.899536 100.0
83.913727 148.0
83.917831 116.0
83.924057 80.0
83.959389 224.0
84.009361 128.0
84.035362 180.0
84.075195 40.0
84.118744 200.0
84.142136 144.0
84.16597 144.0
84.204727 176.0
84.222534 180.0
84.247902 172.0
84.26638 200.0
84.293785 200.0
84.308411 220.0
84.337296 224.0
84.363419 208.0
84.403755 164.0
84.43821 144.0
84.456543 180.0
84.474426 356.0
84.494255 308.0
84.518707 188.0
84.59362 176.0
84.630096 140.0
84.640503 260.0
84.661491 168.0
84.808311 204.0
84.836876 156.0
84.872795 116.0
84.914429 164.0
84.932747 56.0
84.979668 132.0
85.001099 204.0
85.016907 152.0
85.047401 140.0
85.064491 172.0
85.085205 52.0
85.103424 112.0
85.127296 160.0
85.164024 48.0
85.180847 128.0
85.19709 136.0
85.211792 252.0
85.230164 284.0
85.246986 156.0
85.263634 244.0
85.276703 348.0
85.289505 124.0
85.312874 72.0
85.336769 104.0
85.362 72.0
85.386421 128.0
85.405991 156.0
85.422134 212.0
85.452721 100.0
85.475563 192.0
85.511696 180.0
85.550285 148.0
85.564919 96.0
85.618317 76.0
85.649628 144.0
85.666077 116.0
85.677673 160.0
85.706741 132.0
85.723915 336.0
85.76387 180.0
85.782455 148.0
85.809898 352.0
85.852371 96.0
85.867119 128.0
85.880035 132.0
85.926147 180.0
85.947289 236.0
86.01252 160.0
86.061478 224.0
86.090454 180.0
86.108902 148.0
86.129074 104.0
86.162468 164.0
86.203125 172.0
86.216057 124.0
86.247475 164.0
86.280754 180.0
86.296562 168.0
86.327065 168.0
86.393562 112.0
86.462029 220.0
86.478683 80.0
86.510155 164.0
86.529259 176.0
86.536362 208.0
86.573105 292.0
86.59584 332.0
86.613853 160.0
86.63826 160.0
86.663879 176.0
86.68055 168.0
86.704643 136.0
86.746315 176.0
86.77578 300.0
86.795479 132.0
86.810318 184.0
86.839989 100.0
86.893784 100.0
86.918327 248.0
86.946045 172.0
86.983147 132.0
87.011932 176.0
87.046707 156.0
87.066582 180.0
87.097992 208.0
87.11657 276.0
87.16214 228.0
87.224258 156.0
87.254097 140.0
87.283585 228.0
87.321091 136.0
87.334061 240.0
87.348938 116.0
87.387695 196.0
87.430809 172.0
87.443832 120.0
87.457581 128.0
87.47773 96.0
87.497505 168.0
87.548096 148.0
87.575111 180.0
87.595901 84.0
87.632561 208.0
87.677452 128.0
87.698044 180.0
87.728271 160.0
87.751205 164.0
87.771362 168.0
87.801208 176.0
87.823936 144.0
87.852051 168.0
87.876999 160.0
87.895134 120.0
87.909172 64.0
87.926552 228.0
87.948044 148.0
88.018028 36.0
88.064713 164.0
88.080276 168.0
88.113281 128.0
88.128227 160.0
88.164856 136.0
88.208977 348.0
88.236954 304.0
88.268517 164.0
88.278976 56.0
88.286598 200.0
88.321404 168.0
88.343239 116.0
88.360847 136.0
88.399666 152.0
88.425514 144.0
88.45739 216.0
88.499443 112.0
88.521767 208.0
88.535309 176.0
88.548088 192.0
88.565651 196.0
88.573021 160.0
88.577187 156.0
88.614365 220.0
88.631569 340.0
88.683914 176.0
88.690674 164.0
88.72419 96.0
88.759384 128.0
88.783409 188.0
88.8228 72.0
88.839684 148.0
88.867821 112.0
88.895599 324.0
88.931953 168.0
88.964966 132.0
88.989822 96.0
89.038345 288.0
89.063065 112.0
89.083725 156.0
89.098038 160.0
89.118134 140.0
89.145134 164.0
89.157715 180.0
89.17392 184.0
89.222801 168.0
89.235962 192.0
89.25946 144.0
89.296135 44.0
89.349915 148.0
89.384064 184.0
89.443886 388.0
89.470779 184.0
89.520088 156.0
89.537323 188.0
89.555878 36.0
89.573578 200.0
89.587898 164.0
89.599976 136.0
89.620712 124.0
89.65377 96.0
89.681892 168.0
89.710396 108.0
89.73362 364.0
89.768845 72.0
89.793358 192.0
89.815994 120.0
89.837288 152.0
89.857246 120.0
89.898094 116.0
89.919769 148.0
89.936066 88.0
89.954185 144.0
89.968651 156.0
89.991501 148.0
90.004723 104.0
90.020844 156.0
90.048813 80.0
90.064346 140.0
90.080269 100.0
90.102936 104.0
90.125671 128.0
90.174744 164.0
90.194061 200.0
90.233345 112.0
90.279915 136.0
90.309494 208.0
90.37632 196.0
90.403587 92.0
90.418724 104.0
90.447113 172.0
90.465622 252.0
90.495575 208.0
90.513382 128.0
90.526634 204.0
90.544243 284.0
90.577682 164.0
90.606728 140.0
90.620293 72.0
90.634438 176.0
90.640724 160.0
90.700714 164.0
90.721535 88.0
90.751747 140.0
90.757278 112.0
90.764473 220.0
90.797638 136.0
90.813782 228.0
90.831779 376.0
90.845581 328.0
90.87542 208.0
90.892494 56.0
90.916191 172.0
90.924667 84.0
90.937584 264.0
90.949974 112.0
91.017029 280.0
91.05513 22776.0
91.171646 112.0
91.201447 124.0
91.219543 100.0
91.236275 108.0
91.259354 176.0
91.274414 132.0
91.299644 184.0
91.329453 140.0
91.342766 112.0
91.363754 124.0
91.378571 160.0
91.39576 176.0
91.408821 208.0
91.456322 168.0
91.512146 108.0
91.560112 180.0
91.609276 108.0
91.653099 160.0
91.667305 88.0
91.711647 188.0
91.75045 204.0
91.758636 184.0
91.76651 88.0
91.792252 100.0
91.806419 112.0
91.860916 140.0
91.910736 208.0
91.933418 144.0
91.954407 88.0
91.978966 120.0
92.002129 76.0
92.058548 2276.0
92.102165 144.0
92.120956 36.0
92.141678 108.0
92.165848 156.0
92.19696 184.0
92.211967 108.0
92.225632 164.0
92.250481 108.0
92.26825 300.0
92.290634 132.0
92.312881 208.0
92.340355 88.0
92.390884 212.0
92.421814 144.0
92.443665 148.0
92.459518 196.0
92.500206 244.0
92.5299 148.0
92.56517 100.0
92.610229 56.0
92.639236 232.0
92.677055 204.0
92.697968 236.0
92.72496 232.0
92.763519 128.0
92.780777 152.0
92.813431 132.0
92.832642 244.0
92.861313 184.0
92.881195 176.0
92.918861 232.0
92.938049 80.0
92.955322 128.0
92.973122 144.0
93.004272 228.0
93.031822 200.0
93.070793 3992.0
93.103882 324.0
93.123459 116.0
93.14846 124.0
93.182999 160.0
93.210716 160.0
93.242462 140.0
93.316284 268.0
93.329041 180.0
93.345192 180.0
93.367256 196.0
93.385666 144.0
93.399124 216.0
93.417702 220.0
93.44915 144.0
93.475616 148.0
93.506775 148.0
93.539597 72.0
93.556923 132.0
93.589401 212.0
93.61084 164.0
93.639404 144.0
93.663101 176.0
93.676704 224.0
93.70092 104.0
93.721802 132.0
93.756195 88.0
93.799652 176.0
93.829933 96.0
93.864105 156.0
93.88063 184.0
93.890091 212.0
93.896904 376.0
93.910965 176.0
93.983154 188.0
94.008583 172.0
94.029182 72.0
94.042694 100.0
94.071808 784.0
94.092888 128.0
94.115379 240.0
94.132591 216.0
94.14888 48.0
94.172058 148.0
94.189445 124.0
94.210693 116.0
94.233879 164.0
94.250877 60.0
94.289917 184.0
94.31366 140.0
94.335381 184.0
94.356018 224.0
94.374977 152.0
94.388512 92.0
94.403976 96.0
94.434921 176.0
94.452332 132.0
94.481346 152.0
94.505043 196.0
94.529724 220.0
94.56012 176.0
94.597275 284.0
94.641815 172.0
94.694283 68.0
94.7314 124.0
94.759468 240.0
94.762627 156.0
94.785263 104.0
94.823006 200.0
94.845413 100.0
94.876434 48.0
94.903572 132.0
94.917145 148.0
94.933617 220.0
94.973335 136.0
94.99279 376.0
95.025772 132.0
95.045174 40.0
95.069603 104.0
95.117363 224.0
95.15387 32.0
95.172943 184.0
95.223938 140.0
95.262619 124.0
95.278465 104.0
95.308479 252.0
95.334267 156.0
95.338402 136.0
95.383102 96.0
95.412697 140.0
95.447258 160.0
95.486153 208.0
95.503662 60.0
95.523109 192.0
95.553421 468.0
95.567856 180.0
95.591881 140.0
95.616508 108.0
95.650192 144.0
95.682693 32.0
95.712067 380.0
95.726532 124.0
95.750847 144.0
95.776169 168.0
95.801491 164.0
95.838783 160.0
95.893074 156.0
95.923088 200.0
95.943756 156.0
95.96888 140.0
96.000214 176.0
96.0149 132.0
96.033455 116.0
96.052963 60.0
96.077789 116.0
96.109543 124.0
96.154114 124.0
96.173943 136.0
96.195412 148.0
96.220795 116.0
96.253883 188.0
96.269608 208.0
96.298126 180.0
96.336212 160.0
96.35788 236.0
96.373138 112.0
96.393692 216.0
96.431404 216.0
96.449471 344.0
96.515831 148.0
96.544975 124.0
96.566673 112.0
96.584282 132.0
96.624245 124.0
96.638718 116.0
96.650757 188.0
96.688469 160.0
96.757599 120.0
96.765129 68.0
96.795647 288.0
96.823067 120.0
96.857727 132.0
96.860603 184.0
96.875954 104.0
96.89946 148.0
96.968788 232.0
96.99353 108.0
97.032944 76.0
97.091415 156.0
97.118774 180.0
97.153549 140.0
97.195534 96.0
97.231369 168.0
97.276001 180.0
97.29171 140.0
97.308968 184.0
97.325089 144.0
97.341133 140.0
97.388985 364.0
97.455467 148.0
97.476662 144.0
97.497955 184.0
97.523506 128.0
97.541199 132.0
97.58033 84.0
97.596634 168.0
97.639511 144.0
97.656883 168.0
97.695564 112.0
97.726433 148.0
97.745743 192.0
97.769356 160.0
97.783127 136.0
97.805504 132.0
97.819817 188.0
97.863838 56.0
97.897156 148.0
97.938675 140.0
97.955719 184.0
97.976105 148.0
97.999748 124.0
98.053223 176.0
98.074638 216.0
98.133774 232.0
98.171272 164.0
98.206955 188.0
98.238304 140.0
98.252113 108.0
98.289146 172.0
98.313225 132.0
98.334206 160.0
98.36618 160.0
98.374405 228.0
98.391876 132.0
98.42778 156.0
98.483231 160.0
98.536415 120.0
98.57225 196.0
98.599648 140.0
98.653915 256.0
98.691803 148.0
98.71817 80.0
98.731934 240.0
98.7668 156.0
98.780617 176.0
98.80204 192.0
98.834976 124.0
98.879669 96.0
98.922058 128.0
98.935913 180.0
98.955711 120.0
99.006882 124.0
99.033722 184.0
99.072067 364.0
99.092377 124.0
99.137436 200.0
99.162415 164.0
99.1875 164.0
99.205345 72.0
99.230202 156.0
99.252014 148.0
99.262062 152.0
99.289642 164.0
99.315399 144.0
99.330276 188.0
99.381859 148.0
99.406357 160.0
99.464577 176.0
99.485062 176.0
99.51767 216.0
99.544624 152.0
99.558525 188.0
99.584351 164.0
99.610168 56.0
99.62606 176.0
99.654564 244.0
99.668625 180.0
99.673538 76.0
99.682526 172.0
99.714378 200.0
99.741318 196.0
99.757225 208.0
99.781082 76.0
99.805931 168.0
99.832314 120.0
99.8825 184.0
99.923798 148.0
99.936424 156.0
99.970047 184.0
99.983116 232.0
100.020462 196.0
100.051605 168.0
100.074188 200.0
100.09745 176.0
100.113312 124.0
100.198654 192.0
100.234978 188.0
100.269386 196.0
100.296677 188.0
100.310631 160.0
100.332565 108.0
100.347298 156.0
100.370834 184.0
100.39637 116.0
100.425697 232.0
100.454208 92.0
100.498787 184.0
100.517433 132.0
100.560219 256.0
100.591904 40.0
100.605881 132.0
100.620712 168.0
100.673767 372.0
100.707718 112.0
100.743675 180.0
100.767059 324.0
100.783234 176.0
100.819778 136.0
100.860588 316.0
100.94207 168.0
100.965546 176.0
101.001549 116.0
101.033379 92.0
101.046051 200.0
101.075226 116.0
101.106102 204.0
101.113098 188.0
101.143654 132.0
101.16964 168.0
101.183655 180.0
101.227455 220.0
101.267967 192.0
101.295807 96.0
101.332024 244.0
101.340569 152.0
101.348633 152.0
101.40345 172.0
101.445068 132.0
101.463913 176.0
101.491295 140.0
101.573959 100.0
101.596512 168.0
101.631493 192.0
101.664726 120.0
101.682793 152.0
101.728378 128.0
101.757927 56.0
101.80526 128.0
101.84269 144.0
101.860725 136.0
101.906067 140.0
101.923775 220.0
101.947891 116.0
101.980789 184.0
102.017929 128.0
102.044456 620.0
102.104233 172.0
102.128052 1840.0
102.159012 48.0
102.189194 156.0
102.209312 144.0
102.223785 84.0
102.250153 240.0
102.263649 148.0
102.338531 184.0
102.372932 156.0
102.395424 232.0
102.430779 164.0
102.49353 188.0
102.519432 180.0
102.567101 264.0
102.596657 192.0
102.61515 288.0
102.640381 292.0
102.672646 144.0
102.706284 136.0
102.732208 136.0
102.768227 136.0
102.7836 140.0
102.811852 56.0
102.847282 180.0
102.871918 100.0
102.902687 156.0
102.938156 120.0
102.965286 144.0
103.012138 144.0
103.054245 4164.0
103.088524 136.0
103.129128 132.0
103.159676 240.0
103.203743 120.0
103.218666 144.0
103.2575 196.0
103.286659 40.0
103.32914 160.0
103.365562 196.0
103.424255 40.0
103.45462 160.0
103.47023 188.0
103.503212 116.0
103.538528 184.0
103.574097 120.0
103.589622 180.0
103.608536 156.0
103.624741 108.0
103.642242 132.0
103.654564 296.0
103.669319 100.0
103.693024 184.0
103.71357 168.0
103.761749 180.0
103.800346 328.0
103.81749 164.0
103.851334 172.0
103.886475 40.0
103.914955 148.0
103.928505 108.0
103.951729 184.0
103.957794 160.0
103.996376 236.0
104.032051 96.0
104.061737 1756.0
104.106041 88.0
104.12825 76.0
104.167816 116.0
104.186729 124.0
104.215179 108.0
104.23687 148.0
104.261093 204.0
104.280205 208.0
104.304596 140.0
104.330643 192.0
104.368118 116.0
104.416428 192.0
104.433823 116.0
104.518143 124.0
104.562912 128.0
104.580261 148.0
104.607697 204.0
104.637268 152.0
104.693214 64.0
104.722816 112.0
104.742096 184.0
104.763992 144.0
104.792709 180.0
104.796562 152.0
104.826088 160.0
104.842636 104.0
104.864349 100.0
104.899002 180.0
104.918427 144.0
104.945267 208.0
104.977501 144.0
104.992325 156.0
105.034981 488.0
105.070244 4296.0
105.10907 72.0
105.135605 324.0
105.162361 144.0
105.211884 184.0
105.236359 168.0
105.250519 136.0
105.268295 164.0
105.300972 152.0
105.345909 116.0
105.376556 132.0
105.430862 208.0
105.45311 156.0
105.472908 140.0
105.513298 176.0
105.543404 172.0
105.566658 164.0
105.62883 160.0
105.635941 64.0
105.655708 412.0
105.703712 124.0
105.722557 212.0
105.747292 232.0
105.791985 192.0
105.822433 148.0
105.858932 284.0
105.878281 212.0
105.899506 208.0
105.92804 312.0
105.944321 156.0
105.998749 104.0
106.040024 184.0
106.073242 816.0
106.116806 232.0
106.153931 380.0
106.209763 152.0
106.250786 136.0
106.280525 380.0
106.310295 124.0
106.33889 304.0
106.348305 160.0
106.364563 136.0
106.383926 156.0
106.402664 104.0
106.42057 172.0
106.467964 220.0
106.488907 196.0
106.511505 240.0
106.534103 152.0
106.564919 212.0
106.582024 320.0
106.597588 144.0
106.622452 116.0
106.645279 116.0
106.668854 160.0
106.705872 76.0
106.731079 200.0
106.740494 296.0
106.760201 120.0
106.795387 144.0
106.820862 144.0
106.848648 176.0
106.870399 208.0
106.92067 172.0
106.935074 128.0
106.966301 116.0
106.986534 176.0
107.007156 232.0
107.049217 3592.0
107.086044 252.0
107.141953 112.0
107.172218 156.0
107.187057 144.0
107.206345 140.0
107.231659 92.0
107.256096 196.0
107.306519 144.0
107.348625 60.0
107.380867 228.0
107.396606 104.0
107.412422 128.0
107.446121 72.0
107.495636 200.0
107.52478 100.0
107.555489 136.0
107.590584 152.0
107.619316 188.0
107.669052 100.0
107.684433 164.0
107.702095 260.0
107.733086 124.0
107.774406 152.0
107.795067 32.0
107.8116 292.0
107.831261 164.0
107.867233 188.0
107.896347 232.0
107.912376 176.0
107.939476 140.0
107.973595 304.0
108.000862 208.0
108.013046 196.0
108.054054 832.0
108.080841 144.0
108.159073 36.0
108.193039 176.0
108.223579 228.0
108.246033 156.0
108.284492 384.0
108.30658 140.0
108.355812 156.0
108.37513 160.0
108.393105 192.0
108.409615 120.0
108.417755 116.0
108.425186 224.0
108.488022 116.0
108.49575 92.0
108.503868 164.0
108.539848 116.0
108.570259 168.0
108.646057 60.0
108.673035 148.0
108.699898 200.0
108.715675 116.0
108.745667 272.0
108.820396 112.0
108.848938 172.0
108.876465 124.0
108.899048 256.0
108.930336 124.0
108.975113 172.0
108.989281 248.0
109.005844 220.0
109.02047 232.0
109.038353 168.0
109.064301 436.0
109.105408 176.0
109.13961 184.0
109.160713 220.0
109.186348 188.0
109.233971 120.0
109.255814 72.0
109.280472 204.0
109.321358 284.0
109.342117 172.0
109.366638 148.0
109.374573 112.0
109.378532 212.0
109.396774 188.0
109.423347 136.0
109.437927 112.0
109.454582 124.0
109.480598 348.0
109.50296 268.0
109.560295 312.0
109.585243 376.0
109.601471 168.0
109.628151 340.0
109.645004 108.0
109.69001 120.0
109.719193 84.0
109.733788 120.0
109.771278 372.0
109.786613 188.0
109.793907 140.0
109.833893 128.0
109.865181 172.0
109.886108 132.0
109.934036 196.0
109.98204 224.0
110.025879 172.0
110.046112 168.0
110.065392 104.0
110.102425 140.0
110.147003 156.0
110.181 388.0
110.201317 148.0
110.23893 108.0
110.258263 176.0
110.297661 200.0
110.324631 160.0
110.342155 136.0
110.347069 164.0
110.354431 204.0
110.412453 188.0
110.439636 328.0
110.456375 144.0
110.491936 168.0
110.512863 152.0
110.54071 168.0
110.566177 140.0
110.583496 292.0
110.613319 104.0
110.641907 164.0
110.67662 204.0
110.71801 128.0
110.751518 92.0
110.77037 140.0
110.799698 116.0
110.826019 164.0
110.840919 208.0
110.856056 156.0
110.893997 144.0
110.919151 196.0
110.954788 56.0
110.974358 156.0
111.007889 160.0
111.042862 140.0
111.070404 184.0
111.138931 156.0
111.162788 212.0
111.19043 236.0
111.206512 32.0
111.221207 140.0
111.240097 168.0
111.284462 152.0
111.330383 100.0
111.345085 44.0
111.359787 388.0
111.389198 144.0
111.409691 196.0
111.466934 120.0
111.490051 160.0
111.513168 112.0
111.529984 140.0
111.54348 116.0
111.588844 204.0
111.603561 152.0
111.698204 44.0
111.719238 132.0
111.748695 136.0
111.788673 188.0
111.805511 128.0
111.834976 148.0
111.85392 104.0
111.888626 140.0
111.917076 140.0
111.947304 204.0
111.971832 36.0
111.990509 184.0
112.066025 380.0
112.112427 180.0
112.136169 132.0
112.157249 132.0
112.175713 100.0
112.207024 144.0
112.253242 152.0
112.303879 148.0
112.320862 196.0
112.351257 120.0
112.405266 128.0
112.439919 420.0
112.475761 132.0
112.500267 92.0
112.518974 136.0
112.572975 92.0
112.613007 200.0
112.63279 164.0
112.676384 136.0
112.695396 140.0
112.714417 132.0
112.752449 264.0
112.773903 216.0
112.812569 168.0
112.828552 336.0
112.84758 160.0
112.879051 196.0
112.904671 140.0
112.919479 72.0
112.940849 268.0
112.99218 136.0
113.012558 120.0
113.036407 176.0
113.060257 204.0
113.088737 92.0
113.118134 140.0
113.143166 124.0
113.175537 184.0
113.205185 96.0
113.233109 172.0
113.260254 192.0
113.280716 164.0
113.306854 140.0
113.321625 132.0
113.328636 128.0
113.332787 168.0
113.35041 144.0
113.355263 52.0
113.41037 104.0
113.441559 204.0
113.462631 256.0
113.503975 68.0
113.527298 108.0
113.551163 144.0
113.567139 92.0
113.597298 160.0
113.652458 132.0
113.667969 188.0
113.703506 148.0
113.73539 156.0
113.768288 136.0
113.786171 172.0
113.817413 224.0
113.857338 140.0
113.916634 196.0
113.958214 168.0
114.015701 148.0
114.040733 144.0
114.096916 184.0
114.127518 780.0
114.168655 148.0
114.240082 220.0
114.255287 132.0
114.27784 380.0
114.300552 160.0
114.322807 364.0
114.340981 192.0
114.36911 180.0
114.398453 144.0
114.428596 212.0
114.443161 180.0
114.462326 224.0
114.527794 340.0
114.547516 164.0
114.573082 80.0
114.592255 172.0
114.60717 84.0
114.641266 224.0
114.679634 168.0
114.72226 148.0
114.74691 168.0
114.794823 128.0
114.810844 228.0
114.838623 148.0
114.86171 92.0
114.886047 80.0
114.909943 68.0
114.924873 248.0
114.949898 176.0
114.965973 124.0
114.996979 356.0
115.026375 188.0
115.054977 27788.0
115.105728 176.0
115.130692 116.0
115.159706 160.0
115.188988 108.0
115.206696 192.0
115.243088 132.0
115.267548 132.0
115.282425 136.0
115.320747 108.0
115.352013 140.0
115.378433 168.0
115.398987 132.0
115.425926 148.0
115.433914 144.0
115.493835 180.0
115.524643 200.0
115.607338 96.0
115.655762 196.0
115.670616 176.0
115.739258 140.0
115.792793 212.0
115.825592 128.0
115.84597 160.0
115.867767 48.0
115.906372 236.0
115.92907 92.0
115.982635 180.0
116.034676 160.0
116.058525 3872.0
116.110741 172.0
116.132362 168.0
116.150749 220.0
116.173439 148.0
116.218521 236.0
116.251587 56.0
116.278053 156.0
116.296135 284.0
116.317673 536.0
116.3452 156.0
116.403999 36.0
116.446953 32.0
116.470581 136.0
116.5028 116.0
116.522141 116.0
116.543625 224.0
116.579956 176.0
116.5952 136.0
116.618843 120.0
116.645889 240.0
116.670433 44.0
116.69838 140.0
116.732788 112.0
116.747559 56.0
116.791374 116.0
116.814835 328.0
116.833359 120.0
116.877037 168.0
116.916733 248.0
116.939316 180.0
116.960464 68.0
116.982368 96.0
117.011108 276.0
117.01825 160.0
117.036926 316.0
117.070641 60164.0
117.115875 104.0
117.150124 96.0
117.154129 72.0
117.162041 236.0
117.184814 40.0
117.213768 256.0
117.222755 112.0
117.226768 212.0
117.260017 40.0
117.275757 60.0
117.335968 244.0
117.359268 60.0
117.3769 68.0
117.404411 84.0
117.423813 96.0
117.472984 48.0
117.480858 76.0
117.499397 176.0
117.553001 80.0
117.607491 112.0
117.629082 172.0
117.66362 44.0
117.691048 108.0
117.756477 68.0
117.800354 152.0
117.827209 140.0
117.846687 296.0
117.886101 200.0
117.900795 120.0
117.908615 96.0
117.937973 64.0
117.957428 112.0
117.974716 104.0
117.994179 88.0
118.019905 192.0
118.039162 320.0
118.073219 5308.0
118.139877 184.0
118.168411 136.0
118.174721 116.0
118.203987 56.0
118.258736 148.0
118.27874 312.0
118.312531 116.0
118.328499 156.0
118.350548 96.0
118.3685 100.0
118.409653 108.0
118.424812 112.0
118.447197 208.0
118.467445 164.0
118.513634 192.0
118.556969 96.0
118.595352 152.0
118.659851 104.0
118.703117 164.0
118.726234 156.0
118.74707 216.0
118.767426 120.0
118.785278 296.0
118.825768 200.0
118.873528 136.0
118.920044 188.0
118.928932 112.0
118.977776 128.0
119.009415 216.0
119.013451 176.0
119.033966 428.0
119.053596 600.0
119.086372 72060.0
119.135429 148.0
119.166336 392.0
119.20768 132.0
119.224136 124.0
119.240807 44.0
119.26062 252.0
119.293945 276.0
119.324905 112.0
119.388489 208.0
119.42495 128.0
119.443359 436.0
119.482224 152.0
119.518967 80.0
119.538551 84.0
119.571953 92.0
119.600525 236.0
119.620537 168.0
119.673515 152.0
119.697464 184.0
119.717064 64.0
119.736664 180.0
119.787506 244.0
119.815666 148.0
119.858826 192.0
119.877472 120.0
119.913139 124.0
119.945129 136.0
120.034775 208.0
120.056694 296.0
120.089233 5696.0
120.118019 156.0
120.125961 152.0
120.150345 76.0
120.17215 160.0
120.210197 172.0
120.228661 172.0
120.255569 108.0
120.299934 172.0
120.336067 192.0
120.351624 156.0
120.387253 140.0
120.414955 128.0
120.448219 104.0
120.468643 76.0
120.489227 112.0
120.523193 112.0
120.545517 116.0
120.562157 32.0
120.60009 416.0
120.625366 148.0
120.657478 280.0
120.685936 376.0
120.69986 152.0
120.7211 248.0
120.758728 56.0
120.789841 204.0
120.809868 132.0
120.815781 184.0
120.831451 280.0
120.870766 244.0
120.89975 172.0
120.903801 128.0
120.922943 232.0
120.951439 288.0
120.97261 408.0
120.993454 268.0
121.002785 232.0
121.0233 200.0
121.039352 464.0
121.065926 111956.0
121.112625 180.0
121.141914 176.0
121.159554 80.0
121.186981 204.0
121.231339 208.0
121.264854 80.0
121.282158 216.0
121.296638 96.0
121.322777 140.0
121.3461 180.0
121.383232 36.0
121.425102 932.0
121.470276 184.0
121.490822 160.0
121.524773 200.0
121.541779 72.0
121.583549 132.0
121.641083 136.0
121.66864 92.0
121.690544 76.0
121.705444 280.0
121.727692 96.0
121.767433 148.0
121.79007 112.0
121.814972 180.0
121.850815 168.0
121.903343 132.0
121.922981 268.0
121.944267 60.0
121.964973 172.0
121.994827 80.0
122.035866 224.0
122.068314 13760.0
122.090225 96.0
122.099274 64.0
122.149246 160.0
122.178963 64.0
122.197159 72.0
122.234566 92.0
122.254059 196.0
122.286682 88.0
122.325172 168.0
122.363464 236.0
122.388649 132.0
122.413498 284.0
122.432236 172.0
122.467934 76.0
122.509789 112.0
122.536224 48.0
122.591309 220.0
122.612671 108.0
122.652451 92.0
122.679893 332.0
122.700638 120.0
122.720261 208.0
122.739502 160.0
122.762093 68.0
122.78656 128.0
122.807373 148.0
122.836273 108.0
122.866692 280.0
122.902237 60.0
122.921211 40.0
122.956612 168.0
122.982071 192.0
122.999084 68.0
123.022629 160.0
123.053169 408.0
123.072983 1012.0
123.114151 188.0
123.134628 88.0
123.157547 136.0
123.176384 184.0
123.21051 148.0
123.235649 208.0
123.252678 96.0
123.293098 104.0
123.332886 52.0
123.350571 132.0
123.366043 208.0
123.416389 164.0
123.463867 164.0
123.498718 204.0
123.533829 188.0
123.570869 228.0
123.597206 124.0
123.615974 40.0
123.661896 112.0
123.724434 76.0
123.739929 56.0
123.761559 172.0
123.788643 36.0
123.813004 140.0
123.837051 224.0
123.865639 152.0
123.907799 108.0
123.925735 104.0
123.957001 116.0
123.994675 104.0
124.015541 116.0
124.041222 84.0
124.072258 112.0
124.129906 72.0
124.172043 72.0
124.190704 148.0
124.21862 156.0
124.237724 216.0
124.350609 208.0
124.378395 92.0
124.440552 100.0
124.462761 276.0
124.516052 64.0
124.531601 144.0
124.553818 96.0
124.593803 152.0
124.62796 256.0
124.682686 276.0
124.703651 312.0
124.740532 156.0
124.771599 92.0
124.829407 64.0
124.849426 36.0
124.897408 188.0
124.913925 132.0
124.949516 108.0
125.020721 112.0
125.067833 216.0
125.096405 204.0
125.117508 224.0
125.143158 44.0
125.16375 240.0
125.182144 180.0
125.209602 248.0
125.238831 216.0
125.290894 120.0
125.307976 84.0
125.333931 268.0
125.372597 56.0
125.424599 84.0
125.452835 208.0
125.514839 148.0
125.550941 144.0
125.591095 88.0
125.64463 172.0
125.71347 108.0
125.762901 140.0
125.785225 160.0
125.814247 44.0
125.86113 220.0
125.883652 92.0
125.930031 188.0
125.937119 160.0
125.941902 192.0
125.975777 264.0
125.992905 204.0
126.008545 140.0
126.041039 180.0
126.112007 108.0
126.132423 176.0
126.167229 120.0
126.254997 252.0
126.299164 108.0
126.458031 44.0
126.488281 132.0
126.522942 160.0
126.563248 180.0
126.605797 120.0
126.625954 144.0
126.672989 116.0
126.704353 272.0
126.733482 108.0
126.759666 140.0
126.796227 188.0
126.816399 184.0
126.846367 232.0
126.854996 164.0
126.883507 112.0
126.888916 172.0
126.90921 168.0
126.925652 120.0
126.942856 148.0
126.959183 204.0
127.009232 92.0
127.053032 1448.0
127.089676 224.0
127.103905 220.0
127.156616 180.0
127.213432 196.0
127.265068 152.0
127.283417 196.0
127.309479 196.0
127.32795 64.0
127.345917 56.0
127.370445 180.0
127.3993 180.0
127.429474 188.0
127.447006 112.0
127.481186 152.0
127.503937 132.0
127.539314 168.0
127.575119 216.0
127.602097 96.0
127.632988 184.0
127.653809 208.0
127.690567 228.0
127.728035 184.0
127.7575 120.0
127.782021 176.0
127.820274 112.0
127.845032 148.0
127.883293 212.0
127.905586 168.0
127.932816 140.0
127.957443 132.0
128.001419 220.0
128.022873 108.0
128.062195 4156.0
128.090912 196.0
128.112976 116.0
128.183304 184.0
128.221741 264.0
128.258224 96.0
128.29274 208.0
128.329086 72.0
128.406006 148.0
128.4263 148.0
128.444351 144.0
128.503159 184.0
128.522644 272.0
128.529648 84.0
128.587631 188.0
128.596863 68.0
128.602936 128.0
128.672287 140.0
128.697113 164.0
128.746796 84.0
128.762604 104.0
128.807327 120.0
128.841888 124.0
128.895554 112.0
128.928925 152.0
128.979507 60.0
128.995331 168.0
129.070053 10048.0
129.106125 48.0
129.128952 224.0
129.160416 132.0
129.179062 148.0
129.219788 248.0
129.278061 68.0
129.305222 36.0
129.336472 168.0
129.407089 48.0
129.444565 588.0
129.502197 164.0
129.554916 208.0
129.608673 168.0
129.672974 152.0
129.699326 52.0
129.749207 136.0
129.788422 160.0
129.837753 256.0
129.860321 184.0
129.894348 132.0
129.930634 112.0
129.965927 144.0
129.996841 184.0
130.024811 136.0
130.031143 192.0
130.075104 1204.0
130.107666 36.0
130.131195 208.0
130.161224 156.0
130.195053 112.0
130.242249 132.0
130.274963 204.0
130.364334 104.0
130.380234 240.0
130.418015 252.0
130.434784 172.0
130.462067 164.0
130.532547 192.0
130.564392 88.0
130.580307 56.0
130.625793 176.0
130.652298 200.0
130.717712 320.0
130.800766 280.0
130.829468 160.0
130.880707 180.0
130.897552 140.0
130.92923 64.0
130.954712 272.0
130.963821 136.0
130.968582 116.0
131.020309 188.0
131.049942 3712.0
131.085251 2404.0
131.107742 156.0
131.140045 192.0
131.158646 88.0
131.184341 44.0
131.20874 160.0
131.216812 156.0
131.228226 240.0
131.261047 48.0
131.300598 124.0
131.375351 144.0
131.381561 144.0
131.434601 148.0
131.475739 168.0
131.555573 72.0
131.580673 156.0
131.61264 140.0
131.634384 348.0
131.658325 156.0
131.68573 172.0
131.732132 172.0
131.761612 168.0
131.774475 132.0
131.783463 148.0
131.79129 168.0
131.820511 84.0
131.84671 112.0
131.872833 260.0
131.91478 180.0
131.937088 116.0
131.961349 196.0
131.976013 164.0
132.021744 164.0
132.057251 12072.0
132.080917 736.0
132.131485 80.0
132.19133 328.0
132.225296 136.0
132.309708 164.0
132.328308 176.0
132.390137 72.0
132.435944 32.0
132.484818 72.0
132.509247 48.0
132.528229 184.0
132.565201 144.0
132.628418 108.0
132.670074 116.0
132.68985 144.0
132.732986 228.0
132.791367 172.0
132.802551 136.0
132.807663 164.0
132.885269 228.0
132.901321 188.0
132.96788 140.0
133.004608 140.0
133.022964 40.0
133.063126 2680.0
133.10141 1748.0
133.183701 148.0
133.232361 220.0
133.259521 48.0
133.277893 140.0
133.37677 160.0
133.3974 184.0
133.459702 84.0
133.477722 244.0
133.530777 200.0
133.567001 228.0
133.626038 48.0
133.642181 140.0
133.659607 144.0
133.703323 208.0
133.724045 188.0
133.774109 160.0
133.804611 108.0
133.839371 80.0
133.856766 168.0
133.89357 192.0
133.916397 256.0
133.943298 308.0
133.9814 152.0
134.034821 168.0
134.068161 432.0
134.099884 536.0
134.13237 160.0
134.163544 200.0
134.185822 200.0
134.229034 196.0
134.245163 244.0
134.260132 152.0
134.279297 188.0
134.302368 192.0
134.327744 120.0
134.357605 140.0
134.367462 92.0
134.374863 160.0
134.415421 164.0
134.459747 152.0
134.486954 40.0
134.517487 260.0
134.558319 132.0
134.585739 152.0
134.603806 156.0
134.620789 120.0
134.626923 116.0
134.633331 192.0
134.649643 80.0
134.683228 172.0
134.702454 100.0
134.739578 176.0
134.761765 216.0
134.895813 60.0
134.946671 140.0
135.043808 188.0
135.080063 1472.0
135.107422 324.0
135.194183 220.0
135.219772 140.0
135.258987 140.0
135.279831 144.0
135.302109 128.0
135.341156 180.0
135.36087 140.0
135.379395 92.0
135.43869 132.0
135.465302 224.0
135.497528 176.0
135.52301 160.0
135.53923 276.0
135.569351 136.0
135.620346 80.0
135.678299 396.0
135.694519 76.0
135.773193 112.0
135.81279 48.0
135.838318 252.0
135.855606 132.0
135.875427 144.0
135.898636 104.0
135.933441 80.0
135.965927 208.0
135.996094 132.0
136.08316 428.0
136.21077 152.0
136.251541 152.0
136.270126 116.0
136.298492 324.0
136.325897 48.0
136.35611 184.0
136.400269 164.0
136.434341 128.0
136.487015 116.0
136.505508 176.0
136.541855 112.0
136.566071 208.0
136.595596 120.0
136.642136 308.0
136.735153 180.0
136.823669 200.0
136.84642 160.0
136.883423 144.0
136.965714 132.0
137.001282 136.0
137.034668 192.0
137.071671 176.0
137.089203 120.0
137.124161 160.0
137.157043 136.0
137.200592 132.0
137.22551 176.0
137.250046 108.0
137.296677 280.0
137.320007 96.0
137.420319 160.0
137.465302 200.0
137.532333 88.0
137.548676 88.0
137.579025 184.0
137.625717 164.0
137.64476 156.0
137.691101 140.0
137.726318 104.0
137.761169 136.0
137.791611 136.0
137.814911 84.0
137.921371 288.0
137.955139 204.0
137.997559 140.0
138.025955 124.0
138.066544 124.0
138.093109 144.0
138.112839 156.0
138.138504 272.0
138.156265 80.0
138.177322 216.0
138.220596 96.0
138.306442 164.0
138.371582 120.0
138.390305 212.0
138.469925 152.0
138.488663 148.0
138.531952 216.0
138.596436 112.0
138.620346 216.0
138.649475 172.0
138.7164 128.0
138.739395 36.0
138.884796 112.0
138.905899 148.0
138.931503 140.0
138.95282 184.0
138.977463 176.0
139.020874 96.0
139.05925 324.0
139.099136 196.0
139.154663 156.0
139.173447 112.0
139.236847 108.0
139.316711 160.0
139.373108 176.0
139.401306 180.0
139.417755 32.0
139.43779 120.0
139.539093 116.0
139.546677 156.0
139.587006 144.0
139.655212 56.0
139.695206 144.0
139.812851 252.0
139.83638 128.0
139.855209 156.0
139.878754 168.0
139.904648 140.0
139.928787 160.0
139.961151 320.0
139.976196 124.0
139.991455 368.0
140.020035 168.0
140.038315 136.0
140.060806 76.0
140.085983 104.0
140.109543 144.0
140.153656 204.0
140.177872 188.0
140.199081 104.0
140.240143 180.0
140.281296 220.0
140.305695 88.0
140.357285 180.0
140.42305 160.0
140.451202 232.0
140.472595 164.0
140.498535 76.0
140.552811 128.0
140.618484 160.0
140.647202 172.0
140.686005 176.0
140.716705 180.0
140.73616 124.0
140.744675 84.0
140.752106 148.0
140.788864 348.0
140.805405 164.0
140.835907 140.0
140.926819 180.0
141.002472 164.0
141.01709 168.0
141.04306 144.0
141.070618 15168.0
141.114014 180.0
141.140472 208.0
141.182907 88.0
141.211914 84.0
141.305099 92.0
141.332138 180.0
141.349136 48.0
141.411804 192.0
141.466766 160.0
141.500153 176.0
141.531525 220.0
141.556061 192.0
141.599411 172.0
141.649826 72.0
141.673508 176.0
141.7043 128.0
141.734619 196.0
141.791748 40.0
141.860443 132.0
141.876465 112.0
141.95668 68.0
141.976913 128.0
142.018829 124.0
142.038315 188.0
142.074921 1532.0
142.126358 76.0
142.14772 156.0
142.223221 128.0
142.260254 184.0
142.299622 172.0
142.370865 160.0
142.394608 124.0
142.439743 116.0
142.456375 88.0
142.484879 148.0
142.540482 140.0
142.556381 192.0
142.646484 116.0
142.665497 116.0
142.687683 192.0
142.762985 132.0
142.784393 144.0
142.822449 36.0
142.874786 168.0
142.928406 112.0
142.948547 136.0
142.976105 144.0
143.026459 200.0
143.033264 148.0
143.048553 424.0
143.084167 532.0
143.117249 96.0
143.125229 124.0
143.21579 192.0
143.253784 100.0
143.294174 280.0
143.322998 156.0
143.397461 160.0
143.448715 196.0
143.465393 124.0
143.502426 352.0
143.592346 100.0
143.644577 144.0
143.676514 148.0
143.703049 224.0
143.738876 156.0
143.756393 164.0
143.779068 208.0
143.808899 108.0
143.861984 168.0
143.962601 180.0
144.011841 152.0
144.056503 320.0
144.093063 304.0
144.13208 148.0
144.200607 164.0
144.224503 56.0
144.246017 180.0
144.265137 152.0
144.372742 160.0
144.391876 76.0
144.425217 208.0
144.434784 196.0
144.441757 196.0
144.450363 168.0
144.497131 100.0
144.53743 168.0
144.573059 196.0
144.592178 368.0
144.631134 80.0
144.654633 176.0
144.664124 144.0
144.70697 112.0
144.748505 156.0
144.7659 112.0
144.820297 192.0
144.853836 144.0
144.882584 164.0
144.901749 172.0
144.935287 208.0
145.016769 116.0
145.065353 1980.0
145.096069 120.0
145.134247 212.0
145.170212 140.0
145.221329 156.0
145.316528 132.0
145.343781 232.0
145.386124 140.0
145.441208 176.0
145.460175 188.0
145.478928 168.0
145.51799 184.0
145.539749 132.0
145.568573 148.0
145.594986 44.0
145.62381 176.0
145.643021 208.0
145.693024 132.0
145.699966 108.0
145.706635 208.0
145.744766 160.0
145.782074 192.0
145.820816 112.0
145.8479 376.0
145.883224 220.0
145.925613 88.0
145.998734 152.0
146.036545 72.0
146.072662 260.0
146.102158 132.0
146.150284 204.0
146.209244 240.0
146.231247 336.0
146.260986 172.0
146.288879 308.0
146.31395 108.0
146.359695 120.0
146.396042 176.0
146.425858 160.0
146.446396 172.0
146.503708 96.0
146.525894 136.0
146.558731 140.0
146.562561 180.0
146.592545 200.0
146.598541 132.0
146.608475 220.0
146.63179 148.0
146.679321 160.0
146.711456 108.0
146.740189 140.0
146.747162 84.0
146.752945 192.0
146.775269 360.0
146.804031 184.0
146.808792 176.0
146.821167 176.0
146.851074 116.0
146.871338 168.0
146.908813 48.0
146.939148 384.0
146.992874 356.0
147.014709 336.0
147.053696 672.0
147.081436 168444.0
147.163559 260.0
147.204498 204.0
147.242416 156.0
147.262543 236.0
147.288025 88.0
147.310898 188.0
147.340988 92.0
147.365479 144.0
147.382202 204.0
147.422989 92.0
147.437408 160.0
147.455612 104.0
147.478516 1204.0
147.502014 92.0
147.509384 144.0
147.532074 208.0
147.559052 124.0
147.607117 196.0
147.610519 188.0
147.638031 136.0
147.666107 100.0
147.696716 52.0
147.715179 92.0
147.720383 56.0
147.729279 196.0
147.754486 204.0
147.793488 124.0
147.833557 136.0
147.861252 116.0
147.900177 140.0
147.918396 92.0
147.933548 280.0
147.965225 96.0
147.999466 80.0
148.047241 208.0
148.08429 17364.0
148.133621 128.0
148.16539 276.0
148.199066 56.0
148.258804 232.0
148.277054 132.0
148.298828 84.0
148.319016 52.0
148.35936 164.0
148.405228 100.0
148.441833 276.0
148.473099 212.0
148.503296 124.0
148.565659 68.0
148.586151 64.0
148.618652 80.0
148.643616 188.0
148.673126 152.0
148.718246 176.0
148.806641 120.0
148.85968 128.0
148.885757 128.0
148.91272 140.0
148.930832 116.0
148.987946 96.0
149.020157 136.0
149.054871 132.0
149.089066 1064.0
149.140472 220.0
149.177383 168.0
149.199493 120.0
149.217728 284.0
149.24646 256.0
149.311325 96.0
149.341263 140.0
149.361893 100.0
149.39267 124.0
149.423981 48.0
149.446976 176.0
149.477509 64.0
149.50351 172.0
149.512634 92.0
149.519806 116.0
149.553513 176.0
149.579926 152.0
149.609268 208.0
149.625992 164.0
149.647491 212.0
149.669815 204.0
149.713318 108.0
149.777939 172.0
149.8004 136.0
149.820648 116.0
149.839462 92.0
149.86113 140.0
149.910965 156.0
149.940216 148.0
149.988312 60.0
150.047165 156.0
150.093491 124.0
150.142273 180.0
150.147552 88.0
150.175598 140.0
150.213303 120.0
150.235931 116.0
150.242828 152.0
150.25087 252.0
150.284058 120.0
150.306015 56.0
150.343781 168.0
150.36702 168.0
150.408295 44.0
150.479324 80.0
150.542801 188.0
150.577927 136.0
150.645386 48.0
150.669815 68.0
150.774887 148.0
150.848083 148.0
150.885193 160.0
150.916214 260.0
150.935349 220.0
150.955795 96.0
150.980255 180.0
151.004715 88.0
151.026718 140.0
151.054337 952.0
151.082993 72.0
151.111984 368.0
151.138535 208.0
151.168533 160.0
151.199539 316.0
151.225784 136.0
151.259186 132.0
151.319244 128.0
151.372025 176.0
151.410995 76.0
151.450684 200.0
151.471359 104.0
151.491821 188.0
151.538376 280.0
151.58493 136.0
151.674011 208.0
151.712723 236.0
151.736496 148.0
151.83989 92.0
151.871094 72.0
151.951675 224.0
151.994431 168.0
152.028793 32.0
152.061646 2844.0
152.119614 88.0
152.167709 128.0
152.242004 160.0
152.288177 148.0
152.330475 124.0
152.372559 220.0
152.392212 80.0
152.416794 128.0
152.435379 156.0
152.487152 264.0
152.529846 208.0
152.561798 152.0
152.609909 120.0
152.640472 216.0
152.709335 116.0
152.746231 124.0
152.777634 172.0
152.831207 136.0
152.85936 208.0
152.896317 132.0
152.933548 228.0
152.967285 144.0
152.986404 296.0
153.026001 240.0
153.070343 7588.0
153.14006 64.0
153.159775 168.0
153.188599 224.0
153.197525 244.0
153.224121 204.0
153.251526 132.0
153.287888 28.0
153.324463 252.0
153.343689 124.0
153.370636 280.0
153.500778 200.0
153.61055 244.0
153.635544 160.0
153.660217 284.0
153.696625 132.0
153.763855 128.0
153.781128 68.0
153.815689 136.0
153.879868 176.0
153.911972 88.0
153.958237 264.0
154.018173 172.0
154.047806 256.0
154.077728 27528.0
154.135651 60.0
154.171356 80.0
154.210403 60.0
154.22525 252.0
154.243027 148.0
154.267746 48.0
154.302353 88.0
154.48912 124.0
154.532379 52.0
154.586823 208.0
154.648682 80.0
154.675919 152.0
154.714615 184.0
154.745026 48.0
154.779892 224.0
154.817047 44.0
154.842941 96.0
154.85965 176.0
154.997879 144.0
155.022659 92.0
155.058395 624.0
155.083725 5408.0
155.144119 208.0
155.191727 140.0
155.25322 72.0
155.314667 124.0
155.32132 96.0
155.366318 148.0
155.383728 140.0
155.411972 124.0
155.457596 104.0
155.482544 144.0
155.583221 264.0
155.600601 140.0
155.641693 48.0
155.660202 140.0
155.74588 48.0
155.794464 204.0
155.869217 84.0
155.913757 124.0
155.958328 160.0
156.003067 124.0
156.052795 56.0
156.089264 1356.0
156.136383 52.0
156.143066 120.0
156.152267 56.0
156.199524 92.0
156.249283 68.0
156.267197 140.0
156.341354 92.0
156.36322 112.0
156.390121 188.0
156.411041 148.0
156.453384 176.0
156.493195 92.0
156.535522 164.0
156.565048 84.0
156.595291 36.0
156.625183 148.0
156.658478 140.0
156.70491 156.0
156.769684 92.0
156.789627 104.0
156.83699 168.0
156.862198 176.0
156.896805 44.0
156.92424 140.0
156.947235 108.0
157.008194 268.0
157.04393 144.0
157.067215 716.0
157.099854 432.0
157.131241 124.0
157.148712 124.0
157.168335 160.0
157.249573 96.0
157.273499 208.0
157.315933 88.0
157.350876 124.0
157.388336 112.0
157.405807 64.0
157.435776 84.0
157.517075 124.0
157.568161 152.0
157.597794 56.0
157.623138 152.0
157.653122 216.0
157.682709 172.0
157.769318 132.0
157.840607 84.0
157.872833 104.0
157.881927 92.0
157.886612 152.0
157.923141 88.0
157.963165 104.0
157.98317 144.0
158.035721 76.0
158.068817 296.0
158.115616 172.0
158.140823 60.0
158.17836 140.0
158.215912 180.0
158.248932 108.0
158.283524 76.0
158.306061 240.0
158.323593 160.0
158.343521 96.0
158.37619 36.0
158.411255 208.0
158.438812 32.0
158.473892 156.0
158.493927 136.0
158.534027 84.0
158.584152 192.0
158.624252 316.0
158.684418 172.0
158.704483 124.0
158.754639 348.0
158.825821 200.0
158.853653 92.0
158.908661 148.0
158.933716 100.0
158.989197 424.0
159.055557 192.0
159.078308 156.0
159.115021 368.0
159.164764 64.0
159.187592 84.0
159.254395 172.0
159.27417 96.0
159.314362 164.0
159.41774 140.0
159.44754 144.0
159.465134 128.0
159.4953 228.0
159.538025 232.0
159.555634 108.0
159.582275 188.0
159.668259 152.0
159.734848 216.0
159.824753 132.0
159.850922 140.0
159.880112 76.0
159.975769 56.0
160.005966 220.0
160.031158 184.0
160.086548 108.0
160.113083 444.0
160.187302 136.0
160.225082 148.0
160.247757 132.0
160.323349 124.0
160.378799 140.0
160.409698 240.0
160.472076 152.0
160.497299 84.0
160.542679 80.0
160.562866 104.0
160.651138 132.0
160.684219 252.0
160.701599 168.0
160.752075 184.0
160.773514 120.0
160.846802 172.0
160.870697 76.0
160.890884 308.0
160.941742 140.0
160.981796 156.0
161.042404 156.0
161.097916 228.0
161.17511 132.0
161.196518 212.0
161.214203 84.0
161.28244 64.0
161.317841 304.0
161.338058 188.0
161.365875 152.0
161.393677 216.0
161.424026 92.0
161.46701 88.0
161.489777 368.0
161.508362 172.0
161.601089 156.0
161.618805 132.0
161.679535 140.0
161.721451 112.0
161.795975 60.0
161.833954 84.0
161.87204 188.0
161.903351 116.0
161.938385 216.0
162.016312 108.0
162.072052 112.0
162.098206 160.0
162.126694 1680.0
162.203827 136.0
162.224228 92.0
162.277359 120.0
162.313019 124.0
162.361038 116.0
162.391464 156.0
162.41684 124.0
162.485229 104.0
162.533539 112.0
162.553833 48.0
162.588257 204.0
162.736603 88.0
162.755829 208.0
162.783096 256.0
162.816376 96.0
162.929626 140.0
163.027145 168.0
163.052582 344.0
163.113007 1760.0
163.189545 208.0
163.260056 52.0
163.298218 164.0
163.333817 216.0
163.397415 184.0
163.535431 132.0
163.548676 64.0
163.556046 96.0
163.629028 240.0
163.648621 224.0
163.738556 248.0
163.769928 168.0
163.80455 160.0
163.878632 144.0
163.944412 172.0
164.063965 748.0
164.113602 908.0
164.144409 220.0
164.191772 128.0
164.227875 164.0
164.347778 116.0
164.467728 108.0
164.500916 136.0
164.518784 144.0
164.556 216.0
164.626022 172.0
164.649002 220.0
164.769058 260.0
164.789505 180.0
164.878937 60.0
164.964569 164.0
165.018631 256.0
165.042542 152.0
165.069717 3152.0
165.112488 268.0
165.178101 112.0
165.213913 112.0
165.272827 144.0
165.360092 128.0
165.446793 156.0
165.528442 140.0
165.595215 188.0
165.672165 204.0
165.71315 48.0
165.887436 148.0
166.009766 140.0
166.028458 160.0
166.07756 2256.0
166.129227 152.0
166.16954 132.0
166.190063 164.0
166.253906 132.0
166.302979 136.0
166.362015 116.0
166.431335 160.0
166.462158 176.0
166.531494 148.0
166.553497 240.0
166.665085 44.0
166.690781 168.0
166.712784 100.0
166.780731 80.0
166.818832 112.0
166.897263 316.0
166.937561 196.0
166.960709 136.0
167.004425 136.0
167.025009 232.0
167.084808 4848.0
167.120483 216.0
167.202545 60.0
167.264313 52.0
167.398666 244.0
167.43425 60.0
167.526978 128.0
167.612 60.0
167.649139 136.0
167.702209 168.0
167.720245 100.0
167.740875 236.0
167.823364 36.0
167.916199 76.0
167.96579 124.0
168.057007 1524.0
168.090836 1228.0
168.211411 156.0
168.239059 236.0
168.316208 112.0
168.349731 184.0
168.371109 140.0
168.403763 124.0
168.442764 144.0
168.489258 112.0
168.520264 144.0
168.540939 240.0
168.569366 124.0
168.613937 128.0
168.674576 96.0
168.698593 292.0
168.734787 56.0
168.769836 208.0
168.821198 144.0
168.884781 136.0
168.914276 328.0
168.96756 100.0
168.990845 144.0
169.02562 136.0
169.063995 1732.0
169.101288 25928.0
169.135773 104.0
169.198608 160.0
169.228653 136.0
169.272446 132.0
169.335144 52.0
169.356964 64.0
169.392242 168.0
169.438751 76.0
169.483414 160.0
169.529709 116.0
169.559372 88.0
169.599426 52.0
169.635712 152.0
169.653854 148.0
169.672012 76.0
169.696609 108.0
169.761795 108.0
169.780914 76.0
169.832031 152.0
169.853531 92.0
169.87706 316.0
169.90802 32.0
169.928772 240.0
169.954712 188.0
170.002899 148.0
170.010574 84.0
170.047989 132.0
170.066696 692.0
170.105225 2904.0
170.162292 144.0
170.207184 76.0
170.24794 92.0
170.287003 144.0
170.305008 116.0
170.338959 96.0
170.364929 136.0
170.398712 188.0
170.424698 64.0
170.47406 220.0
170.49556 88.0
170.536438 192.0
170.695023 136.0
170.73143 52.0
170.772293 156.0
170.799057 144.0
170.871902 156.0
170.915298 112.0
170.932907 192.0
170.958466 104.0
171.012421 200.0
171.041275 48.0
171.082367 312.0
171.111481 400.0
171.146576 120.0
171.165375 48.0
171.186859 116.0
171.218323 48.0
171.240387 144.0
171.275406 200.0
171.332718 160.0
171.361374 104.0
171.414398 148.0
171.44606 112.0
171.479874 76.0
171.517563 236.0
171.608978 108.0
171.653534 140.0
171.736771 136.0
171.778503 168.0
171.804977 136.0
171.867203 276.0
171.89592 60.0
171.944855 180.0
171.989868 112.0
172.029022 100.0
172.047302 48.0
172.078629 172.0
172.117798 104.0
172.199982 152.0
172.218124 200.0
172.266663 48.0
172.292786 196.0
172.334595 132.0
172.423447 136.0
172.478195 224.0
172.528 160.0
172.556763 44.0
172.575058 116.0
172.701706 180.0
172.752686 292.0
172.860168 160.0
172.96225 84.0
172.998901 128.0
173.02507 92.0
173.059113 112.0
173.094299 292.0
173.140289 112.0
173.191269 336.0
173.337357 180.0
173.459946 120.0
173.486588 200.0
173.551712 100.0
173.577927 44.0
173.633011 96.0
173.669952 280.0
173.756287 124.0
173.790405 152.0
173.870605 184.0
173.942078 232.0
173.974121 52.0
174.00563 36.0
174.050262 116.0
174.071274 164.0
174.094894 172.0
174.124069 580.0
174.170395 168.0
174.249878 120.0
174.279709 192.0
174.288681 68.0
174.298782 176.0
174.351761 140.0
174.391785 212.0
174.418076 136.0
174.468018 60.0
174.521729 28.0
174.554779 128.0
174.615265 260.0
174.64946 172.0
174.666016 136.0
174.71376 120.0
174.749435 140.0
174.781006 192.0
174.853043 172.0
174.936295 176.0
174.955978 96.0
174.991577 128.0
175.01001 40.0
175.041611 60.0
175.073212 136.0
175.10144 176.0
175.1371 312.0
175.215439 128.0
175.315567 124.0
175.344559 208.0
175.375046 72.0
175.420746 200.0
175.486908 216.0
175.563385 104.0
175.614426 248.0
175.658737 156.0
175.704269 232.0
175.748032 60.0
175.82457 128.0
175.85675 144.0
175.894058 188.0
175.985596 168.0
176.006714 124.0
176.025208 88.0
176.067368 340.0
176.093872 140.0
176.142044 920.0
176.239166 112.0
176.358078 132.0
176.42305 160.0
176.477051 152.0
176.543152 192.0
176.688629 108.0
176.738907 136.0
176.762726 52.0
176.903 240.0
176.942703 136.0
176.964706 116.0
177.041763 160.0
177.068176 1236.0
177.123108 260.0
177.147034 288.0
177.21022 68.0
177.247314 36.0
177.316208 216.0
177.357513 164.0
177.40184 224.0
177.451401 172.0
177.515045 120.0
177.548508 168.0
177.59726 84.0
177.650314 120.0
177.692169 188.0
177.713989 124.0
177.761749 204.0
177.788803 144.0
177.822784 108.0
177.925919 136.0
177.977982 216.0
178.011276 160.0
178.077133 15724.0
178.117523 156.0
178.154709 220.0
178.183929 64.0
178.203445 152.0
178.244049 96.0
178.309616 136.0
178.359329 36.0
178.3806 52.0
178.431107 52.0
178.486465 144.0
178.49559 112.0
178.52417 116.0
178.571045 168.0
178.576828 60.0
178.58786 144.0
178.640472 204.0
178.726334 156.0
178.749756 180.0
178.776901 160.0
178.831909 144.0
178.867386 188.0
178.908508 224.0
178.932983 100.0
178.97963 176.0
179.009506 200.0
179.032104 176.0
179.08609 50580.0
179.135849 128.0
179.145462 180.0
179.189636 48.0
179.225571 132.0
179.252487 116.0
179.287292 112.0
179.35376 72.0
179.376175 148.0
179.40155 260.0
179.447617 144.0
179.471741 240.0
179.483963 84.0
179.494354 136.0
179.527954 232.0
179.605179 128.0
179.647919 160.0
179.674866 152.0
179.715317 320.0
179.80687 176.0
179.862427 80.0
179.907593 276.0
179.968613 136.0
180.003159 132.0
180.089096 7392.0
180.124451 252.0
180.160172 112.0
180.18428 168.0
180.210342 164.0
180.234512 120.0
180.270294 116.0
180.294357 52.0
180.320892 124.0
180.360184 88.0
180.394424 248.0
180.441376 56.0
180.465073 264.0
180.55101 96.0
180.570251 164.0
180.600372 128.0
180.6259 68.0
180.651703 136.0
180.675507 176.0
180.681778 184.0
180.694168 156.0
180.703842 208.0
180.759674 140.0
180.813187 68.0
180.876358 208.0
180.896164 60.0
180.934097 224.0
180.963226 352.0
180.992554 116.0
181.024857 128.0
181.064621 16868.0
181.097519 1100.0
181.194946 92.0
181.248459 216.0
181.257095 116.0
181.266098 304.0
181.297363 64.0
181.3134 224.0
181.346176 116.0
181.37175 148.0
181.39769 292.0
181.433853 308.0
181.464127 196.0
181.485184 168.0
181.500336 184.0
181.522812 172.0
181.544571 60.0
181.572205 92.0
181.584595 100.0
181.593353 128.0
181.626144 116.0
181.665604 164.0
181.694717 232.0
181.713974 284.0
181.764832 224.0
181.784775 148.0
181.82254 356.0
181.866684 324.0
181.890045 276.0
181.928268 208.0
181.962524 264.0
182.001297 680.0
182.073151 107952.0
182.163605 76.0
182.199829 136.0
182.230942 164.0
182.253204 160.0
182.299255 116.0
182.349182 92.0
182.373352 56.0
182.421448 96.0
182.438599 108.0
182.473297 60.0
182.513733 560.0
182.567581 120.0
182.61557 248.0
182.640381 176.0
182.68013 168.0
182.733765 84.0
182.762939 72.0
182.858322 124.0
182.887939 40.0
182.936386 80.0
182.97821 112.0
183.032257 48.0
183.075638 15380.0
183.157196 140.0
183.181442 80.0
183.202011 220.0
183.238022 160.0
183.259277 180.0
183.305847 116.0
183.347412 120.0
183.369247 40.0
183.392166 100.0
183.437302 156.0
183.483276 64.0
183.522781 116.0
183.580765 76.0
183.618103 56.0
183.680145 104.0
183.717194 160.0
183.752975 212.0
183.811325 80.0
183.86734 84.0
183.887253 132.0
183.922989 40.0
183.955383 316.0
184.025574 72.0
184.080109 732.0
184.110458 152.0
184.147095 40.0
184.174957 128.0
184.195267 124.0
184.228287 144.0
184.256393 296.0
184.303787 116.0
184.330627 172.0
184.35817 96.0
184.382156 188.0
184.417297 124.0
184.466431 68.0
184.493408 116.0
184.536758 124.0
184.587097 128.0
184.613846 132.0
184.666046 180.0
184.683563 92.0
184.735016 56.0
184.766129 148.0
184.821564 148.0
184.855423 136.0
184.874359 32.0
184.909088 140.0
184.946411 84.0
184.955231 100.0
185.006989 92.0
185.078506 136.0
185.105652 64.0
185.130615 104.0
185.134888 136.0
185.166748 52.0
185.22905 120.0
185.253433 196.0
185.345551 108.0
185.3862 80.0
185.415054 148.0
185.431992 40.0
185.519012 184.0
185.537079 160.0
185.600342 172.0
185.651062 40.0
185.710938 108.0
185.79834 44.0
185.844467 52.0
185.915024 52.0
186.08728 192.0
186.129471 72.0
186.262558 152.0
186.300583 152.0
186.331314 244.0
186.341339 44.0
186.351639 212.0
186.403046 128.0
186.53157 80.0
186.569641 84.0
186.713745 128.0
186.770874 48.0
186.819839 136.0
186.916519 172.0
186.981674 100.0
186.991028 48.0
186.99852 144.0
187.029358 140.0
187.048416 140.0
187.067474 156.0
187.102859 152.0
187.128967 152.0
187.198166 88.0
187.260803 128.0
187.290771 176.0
187.369766 168.0
187.418808 124.0
187.44606 88.0
187.555069 136.0
187.624908 200.0
187.672699 136.0
187.722748 136.0
187.795975 184.0
187.908798 136.0
187.924667 140.0
187.952133 136.0
187.983887 124.0
188.089706 120.0
188.125198 168.0
188.182526 120.0
188.250793 144.0
188.30542 196.0
188.332733 48.0
188.381897 148.0
188.405228 140.0
188.425262 160.0
188.5495 224.0
188.575912 176.0
188.619644 168.0
188.748138 36.0
188.819244 68.0
188.991577 172.0
189.084625 188.0
189.125275 1648.0
189.183167 64.0
189.225571 172.0
189.253555 180.0
189.292679 152.0
189.390961 132.0
189.424149 204.0
189.451538 72.0
189.533737 160.0
189.573883 340.0
189.613297 136.0
189.648849 108.0
189.802368 216.0
189.854477 192.0
189.940598 120.0
189.98613 140.0
190.005341 56.0
190.041 164.0
190.07399 248.0
190.13147 212.0
190.17247 128.0
190.543335 184.0
190.782547 100.0
190.856781 52.0
190.911789 96.0
190.976135 156.0
191.034637 216.0
191.084564 724.0
191.211655 176.0
191.291489 176.0
191.54483 60.0
191.59166 72.0
191.682587 100.0
191.779037 184.0
191.842438 152.0
191.872086 128.0
191.940262 136.0
191.983063 164.0
192.038223 192.0
192.091965 2792.0
192.137527 140.0
192.163376 108.0
192.214783 108.0
192.246506 192.0
192.283783 112.0
192.363831 192.0
192.416275 44.0
192.463211 168.0
192.507401 148.0
192.616531 164.0
192.66069 212.0
192.66864 192.0
192.679199 240.0
192.703522 152.0
192.750488 28.0
192.789185 212.0
192.931488 132.0
193.036163 200.0
193.062088 184.0
193.09584 720.0
193.143082 76.0
193.213058 68.0
193.29248 152.0
193.331223 208.0
193.369965 80.0
193.516907 144.0
193.580368 120.0
193.641296 220.0
193.67453 144.0
193.718796 172.0
193.749329 88.0
193.801971 104.0
193.881393 144.0
193.923904 164.0
194.03479 140.0
194.073273 132.0
194.09935 336.0
194.134079 84.0
194.17067 72.0
194.209503 168.0
194.237228 48.0
194.303818 96.0
194.326004 76.0
194.392075 208.0
194.448105 120.0
194.473083 124.0
194.492523 224.0
194.545761 156.0
194.557159 112.0
194.628555 76.0
194.66539 188.0
194.734085 108.0
194.779755 144.0
194.825745 100.0
194.864655 64.0
194.924637 156.0
194.974747 192.0
195.006165 160.0
195.036942 100.0
195.080139 9400.0
195.139801 96.0
195.178726 40.0
195.24971 160.0
195.365082 48.0
195.401245 172.0
195.437424 88.0
195.513046 296.0
195.530869 124.0
195.588272 332.0
195.634705 240.0
195.662872 100.0
195.721329 64.0
195.740829 112.0
195.793732 48.0
195.832733 120.0
195.921875 52.0
195.965851 168.0
196.014908 216.0
196.050568 284.0
196.08667 2572.0
196.118271 92.0
196.125931 160.0
196.153168 132.0
196.175003 120.0
196.257858 168.0
196.303406 172.0
196.313126 152.0
196.322327 132.0
196.357437 184.0
196.375 108.0
196.415222 160.0
196.433289 80.0
196.470154 176.0
196.541214 208.0
196.570892 140.0
196.581039 108.0
196.602539 352.0
196.656662 188.0
196.685959 164.0
196.729675 188.0
196.769684 508.0
196.811584 128.0
196.841843 96.0
196.861313 172.0
196.886475 168.0
196.917084 260.0
196.928452 108.0
196.938797 408.0
196.971954 372.0
196.995773 304.0
197.003479 220.0
197.019135 624.0
197.096878 233516.0
197.176315 156.0
197.199158 364.0
197.265045 120.0
197.290512 340.0
197.325638 188.0
197.335312 92.0
197.387039 136.0
197.390533 148.0
197.438156 184.0
197.46138 464.0
197.489807 176.0
197.528976 84.0
197.556198 1520.0
197.587433 164.0
197.621552 124.0
197.645737 100.0
197.678711 136.0
197.718506 144.0
197.753891 160.0
197.779175 104.0
197.814697 144.0
197.856277 200.0
197.916183 272.0
197.985977 144.0
198.019516 128.0
198.053986 340.0
198.099518 32308.0
198.151352 272.0
198.172516 36.0
198.190338 144.0
198.224197 68.0
198.263031 60.0
198.270493 108.0
198.298203 152.0
198.329529 104.0
198.339539 68.0
198.406036 140.0
198.430786 200.0
198.503708 136.0
198.534134 56.0
198.554718 40.0
198.585861 92.0
198.619736 220.0
198.64566 104.0
198.670013 100.0
198.704742 168.0
198.737274 144.0
198.840637 252.0
198.882339 224.0
198.911682 120.0
198.936401 52.0
198.981537 44.0
199.013062 120.0
199.040497 76.0
199.104034 1948.0
199.176392 192.0
199.198776 136.0
199.263275 76.0
199.291611 120.0
199.312073 208.0
199.396576 208.0
199.403976 104.0
199.413513 176.0
199.465912 180.0
199.500458 128.0
199.531738 148.0
199.560837 172.0
199.591583 268.0
199.599014 104.0
199.613098 168.0
199.619186 192.0
199.630341 168.0
199.691803 292.0
199.701797 120.0
199.712936 324.0
199.742996 228.0
199.82251 72.0
199.852844 220.0
199.875351 136.0
199.893692 100.0
199.940079 88.0
199.970352 148.0
200.01889 80.0
200.075882 240.0
200.107285 268.0
200.163528 92.0
200.198914 72.0
200.224426 160.0
200.246948 52.0
200.328644 32.0
200.37001 76.0
200.384048 36.0
200.389603 100.0
200.411819 84.0
200.441345 148.0
200.461075 72.0
200.514618 28.0
200.55368 116.0
200.618912 32.0
200.649414 44.0
200.683258 160.0
200.714767 76.0
200.765533 116.0
200.852966 80.0
200.878357 80.0
200.898102 180.0
200.94606 88.0
201.027893 92.0
201.089981 44.0
201.109741 88.0
201.1436 72.0
201.208542 80.0
201.255402 80.0
201.281952 64.0
201.320358 160.0
201.3582 44.0
201.39209 140.0
201.44519 112.0
201.507919 152.0
201.567245 108.0
201.678177 64.0
201.72876 56.0
201.756622 124.0
201.817322 68.0
201.920624 44.0
202.046677 100.0
202.112991 36.0
202.183609 80.0
202.220535 152.0
202.390396 112.0
202.44754 156.0
202.475342 92.0
202.755829 92.0
202.838028 60.0
203.022324 68.0
203.077423 196.0
203.166977 128.0
203.205917 188.0
203.266281 64.0
203.45929 156.0
203.533112 160.0
203.555832 184.0
203.629669 100.0
203.845581 60.0
203.913788 108.0
203.933685 108.0
203.962112 68.0
204.032059 80.0
204.171906 308.0
204.471237 140.0
204.881271 188.0
204.969604 136.0
205.003799 52.0
205.023743 88.0
205.086197 156.0
205.094147 164.0
205.305984 140.0
205.374435 56.0
205.394409 68.0
205.551315 120.0
205.620636 220.0
205.648346 172.0
206.033859 144.0
206.056366 168.0
206.103745 268.0
206.156937 104.0
206.196732 152.0
206.222458 96.0
206.251038 88.0
206.284088 64.0
206.339661 132.0
206.382553 52.0
206.462616 192.0
206.55986 240.0
206.605637 28.0
206.711502 128.0
206.730423 124.0
206.900406 48.0
206.9319 196.0
206.974854 84.0
206.997757 52.0
207.09198 7880.0
207.155289 32.0
207.224045 72.0
207.249832 56.0
207.272751 108.0
207.301407 72.0
207.330078 84.0
207.38559 140.0
207.424652 64.0
207.484863 32.0
207.573746 40.0
207.612335 140.0
207.662643 136.0
207.708542 160.0
207.748703 128.0
207.791733 68.0
207.826172 108.0
207.854858 132.0
207.952438 100.0
207.986404 48.0
208.038544 92.0
208.094833 1032.0
208.163651 84.0
208.181152 144.0
208.202225 60.0
208.23381 204.0
208.259659 36.0
208.36882 176.0
208.426285 176.0
208.478012 44.0
208.532623 160.0
208.624603 104.0
208.64473 128.0
208.684982 108.0
208.739609 208.0
208.791382 132.0
208.817261 100.0
208.860413 100.0
208.903549 204.0
208.986984 56.0
209.033035 72.0
209.095657 2116.0
209.243149 92.0
209.292099 84.0
209.313736 124.0
209.346802 48.0
209.369843 32.0
209.436096 44.0
209.496582 68.0
209.571487 64.0
209.59166 68.0
209.704056 104.0
209.727112 108.0
209.759659 96.0
209.807831 180.0
210.021225 100.0
210.100662 1276.0
210.1315 156.0
210.393478 108.0
210.509735 184.0
210.659164 60.0
210.682281 132.0
210.771851 56.0
210.962601 76.0
211.044861 116.0
211.072021 464.0
211.110718 684.0
211.18335 188.0
211.202606 188.0
211.289398 196.0
211.353058 36.0
211.440796 124.0
211.590393 64.0
211.703323 40.0
211.723587 116.0
212.070129 164.0
212.108475 220.0
212.137939 88.0
212.190125 188.0
212.311905 84.0
212.459839 140.0
212.521271 160.0
212.567184 52.0
212.657166 60.0
213.055847 176.0
213.127625 112.0
213.27002 92.0
213.339783 152.0
213.485168 180.0
213.566605 48.0
213.685883 160.0
213.833191 148.0
213.912872 104.0
214.006042 44.0
214.096313 112.0
214.220657 160.0
214.367233 132.0
214.492569 84.0
214.615005 244.0
214.661667 120.0
214.682083 96.0
215.058441 48.0
215.103745 116.0
215.204407 116.0
215.359192 56.0
215.379639 92.0
215.452667 100.0
215.476028 128.0
215.581223 132.0
215.698135 72.0
215.815079 136.0
215.847244 100.0
216.013962 100.0
216.104645 96.0
216.189514 112.0
216.212921 140.0
216.540833 84.0
216.748825 116.0
216.801575 204.0
216.827957 84.0
217.138733 148.0
217.402771 64.0
217.47908 40.0
217.528976 100.0
217.749207 148.0
217.787384 160.0
217.951904 120.0
217.986359 116.0
218.03418 32.0
218.139999 148.0
218.189972 128.0
218.47525 188.0
218.51265 112.0
218.578232 156.0
218.83136 84.0
218.906708 184.0
219.11116 176.0
219.296814 144.0
219.367554 72.0
219.405884 228.0
219.630005 76.0
219.771606 124.0
220.462601 132.0
220.746399 108.0
220.793716 112.0
220.878433 108.0
220.920898 116.0
221.130997 184.0
221.207947 96.0
221.661102 132.0
221.880432 124.0
222.015472 208.0
222.120651 184.0
222.331833 136.0
222.607391 112.0
222.738083 112.0
222.824982 252.0
222.913376 168.0
222.949036 152.0
223.111877 2920.0
223.148987 224.0
223.189819 72.0
223.216583 72.0
223.252274 104.0
223.317703 56.0
223.461823 152.0
223.496201 76.0
223.665833 64.0
223.71048 52.0
223.83255 140.0
223.92189 196.0
223.954666 140.0
223.986176 124.0
224.029129 104.0
224.117996 2256.0
224.154007 184.0
224.181091 160.0
224.210892 176.0
224.294342 36.0
224.324158 72.0
224.401672 28.0
224.443405 108.0
224.476212 88.0
224.514984 68.0
224.571655 40.0
224.834198 176.0
224.890915 96.0
224.911804 152.0
224.935684 32.0
225.067047 112.0
225.12645 5076.0
225.237274 108.0
225.261169 100.0
225.308975 48.0
225.422516 236.0
225.443436 96.0
225.509186 148.0
225.559998 152.0
225.748367 32.0
225.856033 52.0
226.032547 116.0
226.129486 1100.0
226.254028 160.0
226.48761 48.0
226.547531 124.0
226.646393 80.0
226.703339 100.0
226.832214 168.0
226.922699 108.0
227.144394 192.0
227.21907 52.0
227.309082 44.0
227.442978 176.0
227.474167 80.0
227.540207 88.0
227.729401 176.0
227.807495 168.0
227.906647 44.0
227.948715 56.0
228.108002 104.0
228.252319 136.0
228.331207 52.0
228.417175 128.0
228.628342 84.0
228.685532 80.0
228.876511 192.0
228.914337 112.0
229.007706 128.0
229.309006 160.0
229.491379 108.0
229.945389 132.0
230.051041 176.0
230.253342 88.0
230.703568 144.0
230.857773 152.0
231.039261 200.0
231.157257 76.0
231.269241 140.0
231.320694 28.0
231.381241 48.0
231.478134 160.0
231.553848 76.0
231.639587 196.0
231.671982 144.0
231.850754 84.0
232.002319 160.0
232.396591 208.0
232.463348 176.0
232.511902 160.0
232.867126 164.0
232.891434 168.0
233.037247 56.0
233.088898 116.0
233.19223 100.0
233.277344 188.0
233.356384 168.0
233.879639 164.0
233.995316 128.0
234.114075 84.0
234.187164 120.0
234.254181 148.0
234.351669 128.0
234.64299 152.0
234.723541 64.0
235.358231 112.0
235.630081 124.0
235.678955 256.0
235.721741 100.0
236.088577 144.0
236.256821 120.0
236.284348 60.0
236.342484 56.0
236.381699 132.0
236.492432 144.0
236.562836 160.0
236.584274 144.0
236.614883 100.0
236.817001 64.0
236.881317 152.0
237.075821 204.0
237.115219 108.0
237.258255 160.0
237.362503 140.0
238.129379 192.0
238.188095 164.0
238.258759 52.0
238.387802 116.0
238.772095 108.0
238.805923 208.0
238.836685 60.0
238.883743 148.0
238.894562 44.0
238.906464 140.0
239.059479 192.0
239.142944 6328.0
239.193771 84.0
239.241608 68.0
239.292145 40.0
239.969971 172.0
240.004486 164.0
240.065567 36.0
240.145996 1164.0
240.330841 60.0
240.454285 112.0
240.522186 212.0
240.642593 104.0
240.769196 176.0
240.851135 68.0
241.003967 64.0
241.154694 296.0
241.217224 100.0
241.381073 192.0
241.402725 80.0
241.436264 76.0
241.532623 160.0
241.647095 124.0
241.772461 116.0
241.823486 72.0
241.931824 88.0
241.962784 156.0
242.003036 108.0
242.033997 72.0
242.154083 2964.0
242.222916 196.0
242.278671 96.0
242.357574 164.0
242.926605 72.0
243.060013 152.0
243.097244 152.0
243.12207 176.0
243.155746 212.0
243.292801 52.0
243.4263 64.0
243.460464 160.0
243.488419 48.0
243.525681 128.0
243.646835 40.0
243.724518 72.0
243.792877 96.0
243.942062 216.0
244.159973 144.0
244.284134 76.0
244.346359 88.0
244.39856 124.0
244.424149 96.0
244.741653 76.0
245.199585 64.0
245.277496 172.0
245.392853 96.0
245.604919 68.0
245.7453 60.0
245.819855 184.0
245.923172 60.0
246.076141 128.0
246.135468 184.0
246.394714 160.0
246.500946 192.0
246.622833 144.0
246.763504 204.0
246.916733 64.0
247.051239 64.0
247.141968 156.0
247.545776 76.0
247.837097 60.0
247.962448 120.0
248.056473 48.0
248.159927 92.0
248.191818 164.0
248.28537 140.0
248.36377 112.0
248.453461 156.0
248.545731 128.0
248.788681 128.0
248.906723 176.0
248.97612 164.0
249.022919 44.0
249.092026 176.0
249.129715 144.0
249.173706 152.0
249.321396 188.0
249.993088 164.0
250.073074 44.0
250.364914 164.0
250.413116 48.0
250.548569 148.0
251.138489 116.0
251.232681 160.0
251.26738 132.0
251.504059 152.0
251.59877 180.0
251.683365 196.0
251.86377 96.0
251.952484 172.0
252.010544 192.0
252.142075 160.0
252.236893 104.0
252.26535 196.0
252.293808 136.0
252.442413 152.0
252.46994 136.0
252.701782 184.0
252.765076 172.0
253.151276 136.0
253.173447 88.0
253.889664 164.0
253.915039 132.0
254.152969 128.0
254.424164 216.0
254.492599 128.0
254.51799 148.0
255.213867 96.0
255.716232 48.0
256.065918 160.0
256.264221 100.0
256.337524 180.0
256.461823 204.0
256.500214 96.0
256.90506 124.0
256.946533 64.0
257.166718 120.0
257.616974 60.0
257.91095 156.0
257.95401 84.0
258.003662 152.0
258.109161 176.0
258.2211 160.0
258.473816 124.0
258.56662 160.0
258.777893 188.0
258.861145 108.0
258.927307 124.0
259.05014 176.0
259.187897 88.0
259.351349 96.0
259.373779 140.0
259.52124 172.0
259.591797 92.0
259.627075 68.0
259.954285 88.0
260.063416 68.0
260.130829 144.0
260.175751 160.0
260.326691 88.0
260.455139 140.0
260.580444 208.0
261.017578 156.0
261.220184 164.0
261.474396 32.0
261.506592 64.0
261.653778 116.0
261.831757 144.0
261.954163 112.0
262.060486 84.0
262.128143 152.0
262.373779 76.0
262.431152 80.0
262.606354 192.0
262.647217 176.0
262.750427 124.0
262.869812 108.0
262.95697 148.0
263.212006 76.0
263.35733 144.0
263.515625 168.0
263.903473 108.0
264.113678 232.0
264.136322 128.0
264.511688 128.0
264.605591 152.0
264.641205 92.0
264.783691 184.0
264.858185 48.0
265.020172 104.0
265.088196 56.0
265.123871 112.0
265.14978 128.0
265.409119 136.0
265.509644 120.0
265.808105 220.0
266.015839 96.0
266.045044 164.0
266.071014 132.0
266.126221 76.0
266.165192 200.0
266.366547 88.0
266.499725 180.0
266.548492 176.0
266.625183 132.0
266.658966 120.0
266.687836 176.0
266.834503 144.0
267.000366 84.0
267.169495 184.0
267.361481 32.0
267.59259 172.0
267.755402 180.0
267.836823 124.0
267.921539 136.0
267.993225 124.0
268.090973 176.0
268.169067 676.0
268.207458 124.0
268.234375 136.0
268.30188 204.0
268.443054 192.0
268.973053 108.0
269.17099 112.0
269.416992 152.0
269.807892 164.0
270.033508 36.0
270.105469 188.0
270.206879 140.0
270.5047 116.0
270.57016 208.0
270.691315 40.0
270.894379 72.0
270.969727 60.0
271.028717 156.0
271.120483 136.0
271.172913 132.0
271.402374 172.0
271.438446 160.0
271.828827 76.0
272.019196 120.0
272.258881 128.0
273.28479 88.0
273.472046 176.0
273.610321 112.0
273.699219 56.0
273.821075 32.0
274.07663 160.0
274.223022 44.0
274.328491 40.0
274.361481 76.0
274.490051 116.0
274.635162 116.0
274.711029 128.0
274.836395 152.0
274.879303 144.0
275.031128 176.0
275.179688 124.0
275.404236 48.0
275.951385 260.0
276.723724 52.0
276.789948 192.0
277.247467 108.0
277.316711 60.0
277.479126 136.0
277.507172 124.0
277.625031 40.0
277.797516 92.0
278.033112 196.0
278.165863 52.0
278.497925 128.0
278.58429 112.0
278.710541 128.0
278.790283 132.0
278.86673 180.0
278.913269 148.0
279.102783 92.0
279.395447 144.0
279.49527 164.0
279.625061 212.0
279.688293 172.0
279.831451 160.0
280.171173 76.0
280.387756 124.0
280.494415 144.0
280.616882 100.0
281.134796 176.0
281.188202 132.0
281.829376 64.0
282.009827 156.0
282.06665 68.0
282.183899 2260.0
282.223297 316.0
282.245026 124.0
282.310547 76.0
282.322296 140.0
282.397675 52.0
282.461945 96.0
282.501373 88.0
282.601746 120.0
282.630951 132.0
282.785797 132.0
282.985718 144.0
283.058716 92.0
283.092712 148.0
283.188721 1108.0
283.240784 208.0
283.281372 60.0
283.325684 248.0
283.438843 184.0
283.461487 164.0
283.488434 160.0
283.580414 92.0
283.604889 96.0
283.612213 60.0
283.699463 528.0
283.746552 100.0
283.783112 176.0
283.823578 140.0
283.869415 132.0
283.90921 304.0
283.954254 232.0
284.020203 196.0
284.065186 416.0
284.132507 352.0
284.201477 133584.0
284.263184 320.0
284.28476 108.0
284.323639 76.0
284.388794 124.0
284.406219 80.0
284.417664 88.0
284.440247 124.0
284.493103 124.0
284.518585 76.0
284.544037 216.0
284.575653 292.0
284.635193 112.0
284.709106 192.0
284.754425 524.0
284.81543 220.0
284.860687 132.0
284.90741 160.0
284.947479 172.0
284.981567 52.0
285.0177 92.0
285.04126 60.0
285.069366 196.0
285.102631 220.0
285.114166 128.0
285.16037 412.0
285.204254 19788.0
285.295319 132.0
285.340729 80.0
285.390686 148.0
285.451263 92.0
285.510101 76.0
285.548218 60.0
285.595245 120.0
285.624451 28.0
285.674927 56.0
285.727356 88.0
285.757874 176.0
285.78952 68.0
285.874359 84.0
285.910889 92.0
285.958679 96.0
286.009125 88.0
286.048462 168.0
286.080994 84.0
286.129242 96.0
286.206299 2576.0
286.306946 52.0
286.349945 52.0
286.381805 44.0
286.432343 52.0
286.484894 100.0
286.55127 88.0
286.604156 64.0
286.656891 104.0
286.684418 44.0
286.713776 76.0
286.763214 232.0
286.806274 120.0
286.873779 88.0
286.933289 136.0
286.980988 60.0
287.025513 112.0
287.067657 112.0
287.13266 88.0
287.169098 160.0
287.197296 268.0
287.261749 180.0
287.306 120.0
287.33606 208.0
287.413422 116.0
287.450531 148.0
287.488647 148.0
287.520447 156.0
287.548401 60.0
287.586487 56.0
287.654175 60.0
287.696259 80.0
287.722626 164.0
287.788086 64.0
287.818481 108.0
287.847626 100.0
287.99408 116.0
288.041382 152.0
288.072296 80.0
288.100159 80.0
288.160736 120.0
288.172455 40.0
288.184509 152.0
288.274506 84.0
288.348846 92.0
288.375885 160.0
288.409698 60.0
288.490814 140.0
288.646362 88.0
288.673401 72.0
288.886475 60.0
289.150909 84.0
289.290253 64.0
289.458496 40.0
289.621063 92.0
289.698975 84.0
289.881927 32.0
290.159882 48.0
290.248016 56.0
290.302277 76.0
290.40741 160.0
290.705963 148.0
290.753479 40.0
291.008087 40.0
291.177032 180.0
291.239014 160.0
291.361298 132.0
291.50061 96.0
291.561768 56.0
291.609375 196.0
291.714722 60.0
291.843933 152.0
292.017365 48.0
292.085388 172.0
292.337158 44.0
292.657135 72.0
292.738861 160.0
293.116974 128.0
293.35556 148.0
293.590851 92.0
293.614716 120.0
293.766388 96.0
293.792084 116.0
294.140167 52.0
294.338165 72.0
294.618256 68.0
295.083069 96.0
295.13092 112.0
295.750153 120.0
295.815186 164.0
296.084564 112.0
296.585907 36.0
296.729889 36.0
296.781311 136.0
296.966492 120.0
297.584198 48.0
297.783386 76.0
297.900177 108.0
298.068542 80.0
298.181946 96.0
298.223175 56.0
298.338654 68.0
298.64267 176.0
298.728668 108.0
298.783691 176.0
298.824982 116.0
298.983276 160.0
299.028015 84.0
299.055542 104.0
299.207031 84.0
299.240295 96.0
299.275879 144.0
299.5755 156.0
299.796021 148.0
299.947693 84.0
300.033875 204.0
300.285583 60.0
300.492554 44.0
300.813507 32.0
301.034485 156.0
301.065582 72.0
301.141571 60.0
301.172638 104.0
301.248627 60.0
301.43866 44.0
301.621857 28.0
301.673706 76.0
301.912262 140.0
302.254761 100.0
302.351654 80.0
302.566254 148.0
302.971466 96.0
303.859009 72.0
304.136627 92.0
304.226868 116.0
304.337982 164.0
304.428253 64.0
304.594971 64.0
304.751312 120.0
305.721497 48.0
305.777161 124.0
305.839813 108.0
305.944244 160.0
306.076569 88.0
306.696686 56.0
306.829163 40.0
306.895416 124.0
306.947693 56.0
307.034882 112.0
307.078552 164.0
307.188354 44.0
307.313965 120.0
307.767731 120.0
307.837555 56.0
308.054108 60.0
308.120483 144.0
308.37207 116.0
308.501404 68.0
308.585327 44.0
308.704224 160.0
309.291992 72.0
309.733185 120.0
309.810272 184.0
309.946899 116.0
310.244812 124.0
310.279877 44.0
310.890228 204.0
310.918304 256.0
311.268036 184.0
311.466034 32.0
311.617096 76.0
311.659241 84.0
312.144318 64.0
312.299072 52.0
312.411652 136.0
313.767517 112.0
314.010834 88.0
314.109589 56.0
314.324829 164.0
314.603638 160.0
314.737823 140.0
314.875549 100.0
315.359589 116.0
315.529266 108.0
315.568146 72.0
315.843994 176.0
315.943054 60.0
316.176605 104.0
316.243835 128.0
316.799774 276.0
317.051361 52.0
317.111603 80.0
317.469696 124.0
318.026703 104.0
318.303619 56.0
318.601959 136.0
318.673035 120.0
319.060425 184.0
319.263123 72.0
319.384033 140.0
319.743408 192.0
319.835938 80.0
320.626648 88.0
320.658722 208.0
320.772766 124.0
321.065155 56.0
321.467285 156.0
321.78595 168.0
322.314606 128.0
322.425385 56.0
322.5755 120.0
322.700623 52.0
322.732788 168.0
322.757843 144.0
323.208527 96.0
323.502014 76.0
323.60553 96.0
323.659546 88.0
323.785095 212.0
323.881592 140.0
323.910248 144.0
323.949646 76.0
324.035645 124.0
324.128784 104.0
324.239899 108.0
324.343842 48.0
324.372498 92.0
324.411957 52.0
324.4729 280.0
324.533844 72.0
324.673706 128.0
324.731079 72.0
324.756195 104.0
324.845856 72.0
324.878143 32.0
324.910431 184.0
324.964264 144.0
325.03244 92.0
325.122131 236.0
325.151398 372.0
325.204681 76.0
325.313934 176.0
325.35202 92.0
325.405273 100.0
325.486053 160.0
325.564606 144.0
325.657349 160.0
325.682251 160.0
325.736115 280.0
325.7771 140.0
325.801941 208.0
325.840302 152.0
325.901367 72.0
326.000366 160.0
326.062317 204.0
326.096985 84.0
326.10849 140.0
326.121429 168.0
326.147522 188.0
326.198151 304.0
326.248657 100120.0
326.342041 84.0
326.371185 340.0
326.445953 200.0
326.470795 72.0
326.498688 152.0
326.534088 52.0
326.566895 128.0
326.608887 120.0
326.632507 120.0
326.678619 68.0
326.724457 56.0
326.752106 148.0
326.800293 48.0
326.838654 260.0
326.880615 64.0
326.907715 56.0
326.936554 60.0
326.993591 80.0
327.004333 40.0
327.041382 136.0
327.089722 72.0
327.169708 352.0
327.196747 180.0
327.249969 17408.0
327.350555 184.0
327.391693 96.0
327.497223 236.0
327.547516 136.0
327.555359 60.0
327.568756 88.0
327.631012 84.0
327.662323 104.0
327.746918 84.0
327.77121 56.0
327.777893 52.0
327.8573 180.0
327.940918 92.0
327.983093 100.0
328.008972 60.0
328.048492 76.0
328.089661 104.0
328.130493 148.0
328.25238 2040.0
328.349274 108.0
328.432251 72.0
328.457489 64.0
328.527313 100.0
328.565704 120.0
328.596283 68.0
328.630646 120.0
328.681183 44.0
328.787903 88.0
328.826813 68.0
328.859222 84.0
328.894104 52.0
328.928802 104.0
329.021545 76.0
329.114319 92.0
329.161407 112.0
329.237549 156.0
329.266479 176.0
329.315796 136.0
329.40387 176.0
329.430359 56.0
329.446594 72.0
329.487244 272.0
329.535522 132.0
329.574219 116.0
329.620026 72.0
329.670624 52.0
329.813965 176.0
329.952576 32.0
330.017639 84.0
330.050171 56.0
330.123169 88.0
330.361237 124.0
330.393402 76.0
330.473389 68.0
330.552979 96.0
330.588348 124.0
330.618134 128.0
330.668793 60.0
330.918579 96.0
330.962036 48.0
331.02359 44.0
331.157593 44.0
331.44339 76.0
331.530762 56.0
331.944031 32.0
332.078217 84.0
332.2995 76.0
332.379303 52.0
332.404724 100.0
332.48819 48.0
332.58255 44.0
332.771332 96.0
332.972076 84.0
333.265289 64.0
333.374298 64.0
334.039673 76.0
334.257965 72.0
334.469055 52.0
334.589203 84.0
334.643799 104.0
335.514587 112.0
335.941254 64.0
336.1091 96.0
336.437592 68.0
336.49234 88.0
336.653015 32.0
337.201019 68.0
337.270447 80.0
337.493469 72.0
337.80069 144.0
337.877502 60.0
338.302032 92.0
338.602295 88.0
338.730499 64.0
338.756134 88.0
339.375519 60.0
339.650574 108.0
339.76062 96.0
340.373566 60.0
340.399261 104.0
340.722504 64.0
340.862122 28.0
340.935608 36.0
341.163513 96.0
341.233368 152.0
341.461365 68.0
342.105286 76.0
342.440369 100.0
343.313843 144.0
343.71225 108.0
343.793427 108.0
344.30661 64.0
344.332458 176.0
344.554077 48.0
344.653839 84.0
344.738831 84.0
344.919952 120.0
346.626129 40.0
347.096893 92.0
347.133972 92.0
347.855774 96.0
348.45166 68.0
349.358795 100.0
349.67511 36.0
349.982452 120.0
350.144196 60.0
351.243744 104.0
351.560913 40.0
351.829651 64.0
352.386139 88.0
353.451782 96.0
354.148102 88.0
354.342896 80.0
354.653931 100.0
354.867615 80.0
355.088867 80.0
357.737946 72.0
357.786896 124.0
358.449799 60.0
358.747559 68.0
359.311584 116.0
359.683075 108.0
359.954926 36.0
360.283539 108.0
362.750916 108.0
363.187012 68.0
364.610809 48.0
365.504486 64.0
368.310455 84.0
369.920319 52.0
371.921295 88.0
373.769867 64.0
375.349213 72.0
375.403198 48.0
376.140106 64.0
376.823669 120.0
378.24295 48.0
379.544708 92.0
379.761902 100.0
379.843353 168.0
380.860352 176.0
381.439331 36.0
381.645386 152.0
381.711487 56.0
382.869385 104.0
384.126251 80.0
387.868469 124.0
390.168915 68.0
391.790375 64.0
391.991302 56.0
393.900909 120.0
394.228851 72.0
395.031494 44.0
395.466736 40.0
397.846741 160.0
398.377319 128.0
398.798523 40.0
399.084747 84.0
399.156311 32.0
399.339264 76.0
400.059509 60.0
400.326263 84.0
400.382019 64.0
400.895935 80.0
401.569702 100.0
402.343842 44.0
404.470581 108.0
404.738831 64.0
406.20166 116.0
408.073151 60.0
408.213898 64.0
409.590363 84.0
409.638702 92.0
410.134338 108.0
410.392334 84.0
412.188568 100.0
412.422974 116.0
412.821686 52.0
412.887939 48.0
413.025452 76.0
413.094238 80.0
414.041382 104.0
416.308411 96.0
416.706482 36.0
417.552002 64.0
417.844879 64.0
418.500183 64.0
419.029663 84.0
419.408661 56.0
422.119568 72.0
422.393585 132.0
423.093384 80.0
423.429169 76.0
423.547943 52.0
425.38501 96.0
426.017426 76.0
430.399689 84.0
432.143951 60.0
433.005005 72.0
434.663239 104.0
437.002625 40.0
437.439606 76.0
437.535339 96.0
438.985382 68.0
439.623627 80.0
440.086975 68.0
441.553772 56.0
442.311096 48.0
444.226135 44.0
449.265961 76.0
451.699219 64.0
452.10965 108.0
454.109375 88.0
457.513092 80.0
457.900574 108.0
459.533264 100.0
459.588715 116.0
461.109009 48.0
462.674591 72.0
463.552673 48.0
463.698364 44.0
466.888306 88.0
467.28833 112.0
469.506744 96.0
470.201355 152.0
470.235901 48.0
470.775543 48.0
471.678558 52.0
472.49588 84.0
472.599731 100.0
473.175385 72.0
473.599762 72.0
474.29306 40.0
474.713623 68.0
475.48584 116.0
475.668121 80.0
478.298004 48.0
478.868408 48.0
482.328552 104.0
483.894714 44.0
484.950439 56.0
486.261871 148.0
487.566254 84.0
488.1026 44.0
488.507233 52.0
490.519684 116.0
491.613525 160.0
491.900391 76.0
492.30661 104.0
492.434692 108.0
492.779266 36.0
495.163605 124.0
496.05423 128.0
496.089691 104.0
496.537537 48.0
497.216339 48.0
498.175446 108.0
498.522003 76.0
499.780457 68.0
501.218689 44.0
501.57077 64.0
503.149994 84.0
503.913696 68.0
504.199707 104.0
504.915039 152.0
506.360626 96.0
506.633881 84.0
506.683167 60.0
508.683289 76.0
509.024506 76.0
513.101074 100.0
513.52948 76.0
514.188171 36.0
515.805237 100.0
515.891113 52.0
516.062927 44.0
516.954041 96.0
519.80896 36.0
520.267334 68.0
522.457886 48.0
526.446167 80.0
528.585571 80.0
529.569885 96.0
529.844727 124.0
530.183838 96.0
531.261353 80.0
532.629333 48.0
532.712036 56.0
534.022095 36.0
534.284241 56.0
535.591614 40.0
537.606445 60.0
537.91571 28.0
538.040344 44.0
538.400513 84.0
538.876282 56.0
539.65741 72.0
540.244812 88.0
540.855591 48.0
542.384216 48.0
546.768799 84.0
547.653442 160.0
547.690674 100.0
553.299194 92.0
555.417358 60.0
557.995544 92.0
558.108398 36.0
559.345764 76.0
559.807129 48.0
560.76355 80.0
562.154785 40.0
563.462708 60.0
564.072388 52.0
564.980347 44.0
565.392029 76.0
569.953979 52.0
570.338928 108.0
570.709717 96.0
574.157471 116.0
576.262573 68.0
578.180115 132.0
579.942688 72.0
580.508423 72.0
582.365723 36.0
583.514282 96.0
586.744812 84.0
587.024475 76.0
587.058228 96.0
589.428467 140.0
591.905151 88.0
592.1521 120.0
592.413086 92.0
594.367615 176.0
594.445251 120.0
596.908142 136.0
598.299683 88.0
599.127563 80.0
599.585632 72.0
602.127502 88.0
605.365051 100.0
607.688477 68.0
609.898376 76.0
617.590515 84.0
617.996155 76.0
620.492432 104.0
620.775024 144.0
620.928772 44.0
621.995544 80.0
623.913086 40.0
626.645447 48.0
628.24585 40.0
628.764771 44.0
629.024353 88.0
632.553528 96.0
632.828918 32.0
635.043884 104.0
635.982178 56.0
636.865906 88.0
638.599976 80.0
641.228027 112.0
642.872314 112.0
646.566589 100.0
647.832458 104.0
648.014832 52.0
651.083801 124.0
651.591736 56.0
652.089783 68.0
652.37439 84.0
654.7099 60.0
657.304688 72.0
658.279663 72.0
658.519714 84.0
658.821106 80.0
663.534668 64.0
665.992737 68.0
668.584045 48.0
669.047302 60.0
671.984985 120.0
674.355286 64.0
675.073914 84.0
675.234253 88.0
675.482544 32.0
678.764771 56.0
679.149902 52.0
681.08606 68.0
681.226318 80.0
681.844604 272.0
683.831421 56.0
691.14801 72.0
692.697693 100.0
696.127869 68.0
696.34845 120.0
696.984131 92.0
700.930664 108.0
701.204712 92.0
703.103333 56.0
704.153992 56.0
706.522156 96.0
707.27356 52.0
710.187866 80.0
711.689758 44.0
712.151733 36.0
712.412048 104.0
712.486389 40.0
713.156006 100.0
720.248108 208.0
725.186829 156.0
725.492371 48.0
728.986572 64.0
729.411194 200.0
729.572449 120.0
731.745972 172.0
734.036011 68.0
740.088013 36.0
741.566956 224.0
742.439819 152.0
744.208862 48.0
749.212585 124.0
753.648315 40.0
753.768494 108.0
754.615723 36.0
756.196655 36.0
756.47583 84.0
758.387573 100.0
762.069885 72.0
763.279175 108.0
763.367188 136.0
764.071228 72.0
764.786621 136.0
768.10376 84.0
769.130127 164.0
769.950989 148.0
772.274109 140.0
773.159363 64.0
773.286682 228.0
774.067261 148.0
774.654358 156.0
775.036621 72.0
775.269409 120.0
775.346985 64.0
775.940063 200.0
776.893982 96.0
779.392456 88.0
780.109436 104.0
781.622253 164.0
784.19519 116.0
785.773315 172.0
787.179932 108.0
787.799866 200.0
788.079224 152.0
789.336914 64.0
791.172119 136.0
794.001831 64.0
796.106384 124.0
796.387207 144.0
797.196228 120.0
798.944946 152.0
799.19812 176.0
799.749634 116.0
800.081726 184.0
800.256287 168.0
800.425232 48.0
801.25885 196.0
801.895203 108.0
803.908997 60.0
803.993652 156.0
806.258301 76.0
806.382629 184.0
807.304199 68.0
807.881104 36.0
808.395996 200.0
808.831787 172.0
809.72644 80.0
809.924683 56.0
811.749634 168.0
812.044556 196.0
812.804749 72.0
813.292786 156.0
814.524963 36.0
815.269287 140.0
815.934326 160.0
817.976685 136.0
818.284119 44.0
818.688354 148.0
818.870605 164.0
820.067139 96.0
820.306519 88.0
821.572571 64.0
822.177368 192.0
822.53125 68.0
823.050781 176.0
823.3078 72.0
824.044678 168.0
824.118958 148.0
824.496094 116.0
824.63324 184.0
825.696716 204.0
826.543335 116.0
827.350403 192.0
827.762634 140.0
828.043274 140.0
828.862488 192.0
829.017212 136.0
829.120361 176.0
829.160461 68.0
829.945862 160.0
830.008911 112.0
830.685669 124.0
830.943848 60.0
832.063049 232.0
832.83252 104.0
832.930176 40.0
833.085266 132.0
835.074158 40.0
835.442322 164.0
835.747253 156.0
836.230652 68.0
837.169067 144.0
837.554993 68.0
837.963989 64.0
839.912537 68.0
840.460632 88.0
840.841492 100.0
843.475342 144.0
844.637634 124.0
846.136475 64.0
846.408569 168.0
847.572876 108.0
847.8974 132.0
848.071289 128.0
848.459717 180.0
848.523438 176.0
849.277344 140.0
850.379761 140.0
851.75592 180.0
852.441467 136.0
852.703003 84.0
852.761108 112.0
853.854187 164.0
854.033691 152.0
854.121704 212.0
854.505676 156.0
854.860657 172.0
855.57074 152.0
858.86908 164.0
859.0849 200.0
859.583679 204.0
859.656677 176.0
859.884277 196.0
859.930969 136.0
860.345459 132.0
860.771667 112.0
860.94104 192.0
861.858154 128.0
862.460083 156.0
862.588684 48.0
862.676392 144.0
863.079834 100.0
863.419006 64.0
864.735413 36.0
865.642822 56.0
866.28125 76.0
866.767517 108.0
867.166077 240.0
867.22467 228.0
867.486206 240.0
867.629944 128.0
868.209656 140.0
868.450134 140.0
868.784485 204.0
869.787964 228.0
870.269348 212.0
870.421997 212.0
870.568848 108.0
870.868347 132.0
870.991699 56.0
871.767273 156.0
872.384399 204.0
874.431396 140.0
875.432251 216.0
875.620728 40.0
876.734192 128.0
877.17627 164.0
877.682129 100.0
878.685974 148.0
879.553528 248.0
879.966736 132.0
882.129028 144.0
883.808655 52.0
884.702393 164.0
885.383301 80.0
888.453796 184.0
888.916565 212.0
889.581299 240.0
889.694153 100.0
890.293823 112.0
890.43042 124.0
890.976929 140.0
891.452271 148.0
892.706604 112.0
893.622681 140.0
893.908264 72.0
894.057068 188.0
894.711792 112.0
894.973755 188.0
895.759949 184.0
896.361694 180.0
896.5047 132.0
896.808655 152.0
896.89563 128.0
897.255737 132.0
897.315369 196.0
897.804199 160.0
897.881897 112.0
898.597717 100.0
902.091431 176.0
902.157166 52.0
902.396301 124.0
902.701294 160.0
902.892639 120.0
903.26947 196.0
903.585083 164.0
904.412354 160.0
905.567993 136.0
906.005249 68.0
907.113953 92.0
908.577209 104.0
909.531372 108.0
909.633423 96.0
910.376648 112.0
910.570129 148.0
911.4953 192.0
911.970032 264.0
912.02417 72.0
912.162415 152.0
912.384827 156.0
913.010193 44.0
913.551514 176.0
914.357849 108.0
914.671204 120.0
915.959473 168.0
916.073914 196.0
916.215942 164.0
916.31488 52.0
916.453491 208.0
916.730652 124.0
917.188721 184.0
917.345459 132.0
917.544373 80.0
917.731323 116.0
917.785583 136.0
918.032776 212.0
918.399658 160.0
918.431885 160.0
918.503235 124.0
918.895386 260.0
920.845215 144.0
920.929749 192.0
921.491577 196.0
921.932678 60.0
921.981018 184.0
922.887756 108.0
925.295837 168.0
925.538025 116.0
925.610718 100.0
925.949829 180.0
926.234558 184.0
926.555603 176.0
926.979736 216.0
927.385803 124.0
927.907166 168.0
928.489258 96.0
929.908997 48.0
930.552429 184.0
931.165771 156.0
931.382935 160.0
932.405212 60.0
932.447754 144.0
932.648315 184.0
933.529907 92.0
934.369324 244.0
934.722229 132.0
936.074646 204.0
936.311096 128.0
936.798401 176.0
937.395508 180.0
937.541748 88.0
938.26709 164.0
938.358582 196.0
938.706116 116.0
938.967224 188.0
939.438049 164.0
939.566162 68.0
939.944458 184.0
940.28009 96.0
940.512024 120.0
941.482788 104.0
942.111938 144.0
942.582397 80.0
943.133423 152.0
943.242493 164.0
943.581604 68.0
943.658203 80.0
943.71936 116.0
943.921143 220.0
945.456604 116.0
946.050354 144.0
946.258484 156.0
947.079102 140.0
947.520203 144.0
948.041016 184.0
948.175842 64.0
948.709106 152.0
948.782715 128.0
949.303894 144.0
949.622803 132.0
950.039917 236.0
950.493958 124.0
950.561462 184.0
951.347107 120.0
951.561951 152.0
952.427856 160.0
952.734985 44.0
954.068604 124.0
954.781921 148.0
955.415466 56.0
955.729248 216.0
956.046021 76.0
956.231201 120.0
956.484619 188.0
957.175781 240.0
957.34613 144.0
957.545288 152.0
957.588379 124.0
957.791626 132.0
957.847107 192.0
958.031921 152.0
958.530945 188.0
960.658081 192.0
961.213379 152.0
961.509583 132.0
961.75647 192.0
962.021912 304.0
962.305908 100.0
962.417053 204.0
963.47937 100.0
963.850098 260.0
965.148193 36.0
965.741882 96.0
966.422363 168.0
966.465698 140.0
966.525085 160.0
966.948425 120.0
967.037842 100.0
967.325989 44.0
968.502502 100.0
968.917542 192.0
969.456604 176.0
970.392639 92.0
971.074768 112.0
971.167786 188.0
972.24115 172.0
972.948792 168.0
973.215759 216.0
974.072815 32.0
974.470398 76.0
974.563599 208.0
975.303162 112.0
975.464783 236.0
975.626404 136.0
976.397461 132.0
976.472107 180.0
976.677368 212.0
977.324341 212.0
977.53595 48.0
977.709778 120.0
977.977783 176.0
978.712402 124.0
978.812073 104.0
979.466003 128.0
979.777466 116.0
980.649902 148.0
980.768311 160.0
981.878113 112.0
983.08844 196.0
984.032288 132.0
984.137146 132.0
984.237061 160.0
984.649231 176.0
985.273865 52.0
986.192444 148.0
986.848877 208.0
987.098999 200.0
987.424194 128.0
987.68689 120.0
987.980896 156.0
988.043457 108.0
988.174866 32.0
988.907043 40.0
989.520508 72.0
989.620667 44.0
990.065247 128.0
990.378418 156.0
990.735474 160.0
991.825867 156.0
992.032715 172.0
992.120483 156.0
992.38385 76.0
992.528076 52.0
992.716187 172.0
993.186584 180.0
993.41864 116.0
993.487671 144.0
993.90802 148.0
993.989624 128.0
994.410095 204.0
995.0755 84.0
995.34552 40.0
995.395752 128.0
995.61554 56.0
995.935852 152.0
996.262512 112.0
996.915955 148.0
997.337036 144.0
997.406189 172.0
997.714233 168.0
998.776978 196.0
998.971985 80.0
999.141846 176.0
999.185913 148.0
999.252869 208.0
1000.092041 156.0
1000.350159 28.0
1000.876526 204.0
1001.50238 176.0
1001.628479 188.0
1001.836365 180.0
1001.924561 120.0
1002.031677 204.0
1002.22699 116.0
1002.649231 124.0
1002.9328 184.0
1002.976929 156.0
1003.531738 124.0
1003.815491 96.0
1004.067749 56.0
1004.111877 52.0
1004.256958 192.0
1004.357056 244.0
1004.534485 216.0
1005.373657 128.0
1005.720825 140.0
1006.749939 172.0
1007.577393 76.0
1008.61377 152.0
1009.031006 84.0
1009.302917 92.0
1009.701294 100.0
1009.751892 200.0
1010.656555 136.0
1010.776794 164.0
1010.941284 244.0
1011.02356 172.0
1012.042725 112.0
1012.137695 204.0
1012.20105 284.0
1012.296936 172.0
1012.390991 36.0
1012.441711 132.0
1012.809021 164.0
1012.963867 288.0
1013.100403 216.0
1013.144592 124.0
1013.347534 100.0
1013.512268 76.0
1014.236877 128.0
1015.401367 104.0
1015.60437 132.0
1015.820007 116.0
1015.908813 156.0
1016.004028 140.0
1016.816223 172.0
1018.50769 132.0
1018.69574 60.0
1019.038818 136.0
1019.337463 204.0
1019.540771 108.0
1019.617065 96.0
1019.706055 176.0
1019.77594 48.0
1020.468872 240.0
1020.805908 144.0
1021.460999 148.0
1021.709106 204.0
1022.237183 120.0
1022.326294 140.0
1022.453552 80.0
1022.55542 96.0
1022.769165 164.0
1023.351135 168.0
1024.185425 180.0
1024.523071 104.0
1025.370483 232.0
1025.54895 88.0
1025.657349 192.0
1026.014282 144.0
1026.084473 144.0
1026.416016 176.0
1026.5 120.0
1026.671143 76.0
1026.887939 56.0
1027.057129 232.0
1027.513062 164.0
1027.787476 204.0
1027.908691 232.0
1028.036377 132.0
1028.100098 116.0
1028.361816 168.0
1029.012939 36.0
1029.427979 236.0
1030.015625 44.0
1030.085815 140.0
1030.130615 124.0
1031.069824 148.0
1031.181885 168.0
1031.555664 132.0
1032.450806 148.0
1032.610718 188.0
1032.97522 104.0
1033.135254 160.0
1033.423096 272.0
1033.570312 124.0
1033.940186 220.0
1034.029907 152.0
1034.741577 168.0
1035.170654 176.0
1035.990479 116.0
1036.233887 120.0
1036.278687 56.0
1036.477417 124.0
1036.599121 120.0
1037.073364 64.0
1037.592651 192.0
1038.252441 184.0
1038.734131 228.0
1038.856079 152.0
1038.926636 152.0
1038.996826 172.0
1039.424561 208.0
1039.574707 124.0
1040.133057 112.0
1040.582397 136.0
1040.659546 112.0
1040.755859 188.0
1040.942017 44.0
1041.256714 112.0
1041.552124 100.0
1041.76416 96.0
1042.117554 124.0
1043.383667 196.0
1043.460815 144.0
1043.621826 160.0
1044.933594 124.0
1044.998047 244.0
1045.821777 124.0
1045.91394 120.0
1046.156494 164.0
1047.154541 196.0
1047.257568 132.0
1047.502319 144.0
1048.043579 112.0
1048.584839 172.0
1048.788696 204.0
1048.932861 120.0
1049.146851 156.0
1049.526001 80.0
1049.95166 44.0
1050.048462 168.0
1050.285034 180.0
1050.49353 100.0
1050.929321 128.0
1051.028931 64.0
1051.176025 132.0
1051.254883 172.0
1051.351685 124.0
1052.384521 168.0
1052.694458 240.0
1053.133545 152.0
1053.295044 120.0
1053.756836 116.0
1053.908813 92.0
1054.542114 144.0
1055.12439 172.0
1055.188599 44.0
1055.427856 120.0
1055.654175 104.0
1056.081055 160.0
1056.223145 144.0
1056.346191 176.0
1056.404419 128.0
1056.462036 172.0
1056.595459 168.0
1056.85083 152.0
1057.14856 112.0
1057.776367 108.0
1059.15564 160.0
1059.745117 148.0
1059.883545 180.0
1059.952515 116.0
1060.014648 164.0
1060.393188 152.0
1060.929932 144.0
1061.006226 92.0
1061.047852 156.0
1061.441162 152.0
1061.53418 40.0
1061.77417 136.0
1061.89917 132.0
1062.001099 216.0
1062.662842 112.0
1063.389648 148.0
1063.662231 104.0
1063.843262 144.0
1064.064819 144.0
1064.493286 140.0
1064.882935 172.0
1064.981079 188.0
1065.591064 144.0
1065.708008 136.0
1066.032959 172.0
1066.173096 168.0
1066.246704 156.0
1066.460449 192.0
1066.61792 192.0
1067.105469 84.0
1067.333008 160.0
1067.91272 192.0
1068.113403 184.0
1068.315063 184.0
1068.438721 124.0
1068.757568 116.0
1068.959229 112.0
1069.043823 208.0
1069.171509 136.0
1069.525513 96.0
1069.821289 148.0
1069.954834 220.0
1070.222046 176.0
1070.57373 212.0
1070.808228 128.0
1071.192261 124.0
1071.420532 132.0
1071.544312 148.0
1071.641968 108.0
1072.430542 116.0
1072.730713 144.0
1072.906372 160.0
1073.017212 76.0
1073.22583 152.0
1073.388916 172.0
1073.44104 180.0
1073.721558 132.0
1073.917114 88.0
1073.988892 60.0
1074.191162 128.0
1074.295532 164.0
1074.615601 188.0
1075.293823 80.0
1075.496216 124.0
1075.868286 160.0
1075.959717 148.0
1076.194702 248.0
1076.264404 260.0
1076.560425 204.0
1076.606079 164.0
1077.102539 92.0
1077.220093 108.0
1077.572876 168.0
1077.664307 160.0
1077.823486 136.0
1078.775391 188.0
1079.488037 128.0
1079.668823 136.0
1079.86084 124.0
1080.331787 140.0
1080.41687 192.0
1080.69165 160.0
1080.776733 160.0
1081.077393 148.0
1081.228271 176.0
1081.54895 200.0
1081.765015 160.0
1082.249512 192.0
1082.531006 116.0
1083.048462 124.0
1083.133667 252.0
1083.264648 124.0
1083.533203 140.0
1083.579102 44.0
1083.716675 164.0
1083.939453 132.0
1084.54895 124.0
1085.099609 148.0
1085.31604 48.0
1085.552124 192.0
1085.676636 156.0
1085.91272 192.0
1086.089844 56.0
1086.319458 148.0
1086.424561 140.0
1086.476929 196.0
1086.522827 176.0
1086.575317 80.0
1086.804932 52.0
1086.923096 100.0
1087.064209 140.0
1087.566284 168.0
1087.796021 88.0
1087.855103 156.0
1088.268677 148.0
1088.380249 180.0
1088.518188 112.0
1088.629883 172.0
1088.925415 132.0
1089.174927 156.0
1089.334351 300.0
1089.477173 208.0
1089.69397 288.0
1089.785889 176.0
1090.002808 168.0
1090.607422 116.0
1090.850586 188.0
1091.258301 208.0
1091.416016 188.0
1091.468628 168.0
1091.587036 124.0
1091.866211 228.0
1092.527588 148.0
1092.889404 144.0
1093.048462 228.0
1093.363281 92.0
1093.863525 152.0
1094.31958 208.0
1094.429688 200.0
1094.587769 56.0
1094.765503 204.0
1094.9104 208.0
1094.976318 132.0
1095.18042 192.0
1095.338501 124.0
1095.636719 180.0
1096.326904 136.0
1096.405884 104.0
1096.480713 148.0
1096.616821 56.0
1096.755249 204.0
1096.90686 84.0
1096.992554 96.0
1097.078247 140.0
1097.341919 156.0
1097.764038 148.0
1098.073975 144.0
1098.337769 100.0
1098.574097 160.0
1098.680786 168.0
1098.86731 180.0
1098.944702 144.0
1099.558472 84.0
1099.617798 104.0
1099.693604 144.0
1100.324097 88.0
1100.410034 148.0
1100.621216 204.0
1100.720337 68.0
1100.859009 220.0
1101.076904 76.0
1101.360962 176.0
1101.482422 248.0
1101.61853 148.0
1102.351929 68.0
1102.827881 92.0
1103.078979 80.0
1103.270752 168.0
1103.343628 156.0
1103.402954 144.0
1103.469116 148.0
1103.521973 144.0
1103.707153 124.0
1104.209717 124.0
1104.298096 192.0
1104.487549 160.0
1104.659424 108.0
1104.765381 96.0
1104.921265 236.0
1105.00354 184.0
1105.102783 104.0
1105.281372 188.0
1105.36084 72.0
1105.532837 116.0
1105.784302 144.0
1105.83728 176.0
1106.339111 124.0
1106.355347 172.0
1106.512573 204.0
1106.599976 172.0
1106.750854 116.0
1106.870117 104.0
1107.075317 164.0
1107.213257 160.0
1107.232544 132.0
1107.413086 100.0
1107.658203 84.0
1107.797363 76.0
1108.34729 220.0
1108.439941 140.0
1108.705078 112.0
1108.771362 100.0
1108.864136 116.0
1108.990112 164.0
1109.195557 152.0
1109.546875 68.0
1109.619873 120.0
1109.924805 152.0
1110.236572 132.0
1111.284546 124.0
1111.42395 164.0
1111.496948 192.0
1112.373047 192.0
1112.552246 160.0
1112.758057 152.0
1113.156494 56.0
1113.481934 188.0
1113.52832 184.0
1113.594849 172.0
1113.920288 88.0
1114.132812 100.0
1114.491577 88.0
1114.591309 124.0
1114.837158 108.0
1115.162842 128.0
1115.4021 112.0
1115.668091 132.0
1115.973877 176.0
1116.299683 92.0
1116.446045 176.0
1116.525757 160.0
1116.612305 60.0
1116.709717 148.0
1116.931519 176.0
1117.343384 128.0
1117.470459 140.0
1117.787109 168.0
1117.843018 92.0
1118.107544 164.0
1118.209106 152.0
1118.282227 92.0
1118.462036 88.0
1118.588501 196.0
1118.668335 148.0
1118.868042 168.0
1118.914673 132.0
1119.161011 208.0
1119.220947 124.0
1119.573853 124.0
1119.633789 168.0
1119.793701 136.0
1119.927002 208.0
1120.020142 148.0
1120.812988 152.0
1120.979492 120.0
1121.039551 212.0
1121.139526 180.0
1121.319458 76.0
1121.432739 132.0
1121.666016 208.0
1121.752686 80.0
1122.532715 164.0
1122.726196 124.0
1122.90625 128.0
1123.072998 176.0
1123.162598 92.0
1123.413208 148.0
1123.571899 100.0
1123.773438 168.0
1123.82019 228.0
1124.067993 176.0
1124.227173 112.0
1124.327271 108.0
1124.629883 248.0
1125.061523 144.0
1125.442139 124.0
1125.508911 116.0
1125.689209 212.0
1125.929565 176.0
1126.036499 140.0
1126.223511 200.0
1126.268433 176.0
1126.410522 292.0
1126.657715 124.0
1126.924927 136.0
1127.03186 60.0
1127.2323 136.0
1127.33252 152.0
1127.425293 128.0
1127.59314 44.0
1127.720215 156.0
1128.02771 68.0
1128.094482 152.0
1128.18811 196.0
1128.448853 64.0
1128.957031 136.0
1129.344971 56.0
1129.431885 120.0
1129.659302 132.0
1129.709473 164.0
1129.916138 184.0
1129.973755 176.0
1130.02063 112.0
1130.201294 120.0
1130.423462 156.0
1130.489014 192.0
1130.770142 160.0
1131.151611 168.0
1131.365845 92.0
1131.426147 128.0
1131.473022 108.0
1132.001953 132.0
1132.115845 112.0
1132.326782 180.0
1132.382935 288.0
1133.080322 52.0
1133.171021 156.0
1133.334961 80.0
1133.455566 160.0
1133.5896 60.0
1133.656616 184.0
1133.750366 300.0
1133.844238 120.0
1134.030396 88.0
1134.192749 200.0
1134.300049 124.0
1134.393921 92.0
1134.648193 216.0
1134.722412 156.0
1134.849731 156.0
1134.990601 96.0
1136.003296 116.0
1136.171021 208.0
1136.298584 168.0
1136.50647 152.0
1136.600464 148.0
1136.90918 100.0
1137.050049 180.0
1137.466187 112.0
1137.607178 72.0
1137.788452 100.0
1138.050293 140.0
1138.137573 52.0
1138.237183 212.0
1138.325684 116.0
1138.459961 180.0
1138.553955 128.0
1139.286133 96.0
1139.575073 132.0
1139.689209 168.0
1139.924438 44.0
1140.428467 128.0
1140.506348 224.0
1141.08728 48.0
1142.128052 160.0
1142.210327 108.0
1142.439087 140.0
1142.526489 72.0
1143.562866 120.0
1143.627319 304.0
1143.818604 92.0
1143.913818 192.0
1143.993652 84.0
1144.13501 72.0
1144.34375 120.0
1144.968018 224.0
1145.067749 192.0
1145.114624 188.0
1145.202148 232.0
1145.32019 200.0
1145.519409 184.0
1145.713745 204.0
1145.769653 140.0
1145.899536 160.0
1146.229736 248.0
1146.371216 128.0
1146.519531 124.0
1146.869995 56.0
1146.92395 184.0
1146.977905 44.0
1147.496948 100.0
1147.544189 216.0
1147.793579 104.0
1147.963501 160.0
1148.194214 172.0
1148.89978 80.0
1149.000977 116.0
1149.210083 96.0
1149.339966 148.0
1149.567749 156.0
1149.770264 136.0
1149.905151 124.0
1150.377686 256.0
1150.455811 108.0
1150.688232 88.0
1150.816528 124.0
1151.052856 192.0
1151.22168 152.0
1151.404053 108.0
1151.789062 124.0
1152.099731 120.0
1152.282227 180.0
1152.579468 64.0
1152.809204 156.0
1153.034302 148.0
1153.268799 124.0
1153.316162 76.0
1153.565308 152.0
1153.59314 132.0
1153.714966 104.0
1153.870483 140.0
1154.100342 100.0
1154.161255 164.0
1154.235596 128.0
1154.334473 136.0
1154.519775 164.0
1154.58728 108.0
1154.715698 72.0
1154.803711 76.0
1154.905151 180.0
1155.114868 84.0
1155.223022 60.0
1155.297485 180.0
1155.371948 192.0
1155.480103 148.0
1155.649292 116.0
1155.726562 188.0
1155.803833 192.0
1156.380127 56.0
1156.515503 160.0
1156.630615 48.0
1156.99292 204.0
1157.226318 284.0
1157.578491 208.0
1157.639404 200.0
1157.700317 52.0
1157.761353 148.0
1158.068726 172.0
1158.147339 148.0
1158.295898 128.0
1158.858643 140.0
1159.02124 112.0
1159.109375 148.0
1159.692261 200.0
1159.983643 164.0
1160.085327 292.0
1160.153198 160.0
1160.227783 144.0
1160.397217 156.0
1160.458252 144.0
1160.773926 196.0
1160.831177 96.0
1161.149902 140.0
1161.428223 144.0
1161.4823 148.0
1161.624756 176.0
1161.787598 144.0
1161.970703 180.0
1162.48645 188.0
1163.009033 60.0
1163.063354 168.0
1163.185547 64.0
1163.37561 84.0
1163.457031 176.0
1163.524902 64.0
1163.674316 136.0
1163.966309 124.0
1164.03418 96.0
1164.176758 96.0
1164.326172 128.0
1164.957886 36.0
1165.37915 56.0
1165.712158 96.0
1166.02478 136.0
1166.079102 108.0
1166.133423 124.0
1167.085205 140.0
1167.363403 132.0
1167.470703 116.0
1167.67688 140.0
1167.79248 120.0
1168.057739 176.0
1168.268677 192.0
1168.465942 180.0
1168.516724 180.0
1168.663208 116.0
1168.713257 244.0
1168.860596 164.0
1169.241699 92.0
1169.381226 64.0
1169.799805 56.0
1170.099365 124.0
1170.157715 184.0
1170.311768 188.0
1170.402344 92.0
1171.229858 108.0
1171.309326 180.0
1171.45459 100.0
1171.563599 60.0
1172.319946 144.0
1172.5448 128.0
1172.837891 84.0
1172.947021 244.0
1173.069702 176.0
1173.379883 144.0
1173.676514 132.0
1173.785522 104.0
1173.893311 172.0
1174.140137 76.0
1174.300049 144.0
1174.365234 152.0
1174.490479 148.0
1174.699463 160.0
1174.822266 208.0
1174.972412 52.0
1175.047485 124.0
1175.218018 136.0
1175.470215 108.0
1176.460205 88.0
1176.562622 132.0
1176.856201 132.0
1177.061035 32.0
1177.156616 172.0
1177.545898 140.0
1177.737183 132.0
1177.825928 140.0
1177.880615 52.0
1178.229004 152.0
1178.43396 112.0
1178.509155 316.0
1178.611572 96.0
1178.693604 96.0
1178.891724 108.0
1179.028442 184.0
1179.2677 40.0
1179.342896 204.0
1179.630005 144.0
1180.026489 164.0
1180.454224 136.0
1180.628174 196.0
1180.706055 232.0
1180.819702 232.0
1180.901123 132.0
1181.100098 28.0
1181.176636 212.0
1181.428467 124.0
1181.531128 156.0
1181.674805 204.0
1181.832153 176.0
1181.94165 128.0
1182.023804 176.0
1182.16748 112.0
1182.420654 112.0
1183.059204 84.0
1183.160034 136.0
1183.214722 208.0
1183.262695 128.0
1183.666626 128.0
1183.906372 116.0
1184.029663 64.0
1184.255615 132.0
1184.420044 168.0
1184.506348 160.0
1184.680298 132.0
1184.824219 100.0
1185.009155 132.0
1185.249023 104.0
1185.350708 168.0
1185.413452 140.0
1185.488892 52.0
1185.783569 104.0
1186.010986 180.0
1186.153687 128.0
1186.215332 132.0
1186.44165 108.0
1186.537598 68.0
1186.626709 164.0
1186.880371 148.0
1186.955811 136.0
1187.05188 124.0
1187.134155 112.0
1187.285034 216.0
1187.353638 60.0
1187.497559 76.0
1187.744507 148.0
1187.895508 152.0
1188.003052 232.0
1188.238525 108.0
1188.472168 144.0
1188.650146 144.0
1188.787354 188.0
1188.835449 132.0
1189.093262 160.0
1189.390869 196.0
1189.604248 104.0
1189.974976 96.0
1190.064209 152.0
1190.119141 136.0
1190.167114 92.0
1190.610229 120.0
1190.833374 200.0
1190.881348 148.0
1190.976562 136.0
1191.020142 144.0
1191.286621 152.0
1191.398926 236.0
1191.513428 112.0
1191.685181 80.0
1191.815674 152.0
1191.891235 140.0
1192.020142 164.0
1192.115112 160.0
1192.335083 48.0
1192.551025 156.0
1192.606079 108.0
1192.661011 92.0
1192.750366 32.0
1192.839722 128.0
1193.046021 144.0
1193.162842 48.0
1193.4104 196.0
1193.530762 148.0
1193.602295 192.0
1193.751099 148.0
1193.8573 156.0
1194.03125 156.0
1194.10498 228.0
1194.208618 152.0
1194.421265 40.0
1194.593262 132.0
1195.26062 104.0
1195.590942 124.0
1195.721802 144.0
1195.811279 76.0
1195.928223 124.0
1195.990234 128.0
1196.165283 176.0
1196.281494 168.0
1196.35498 76.0
1196.56543 220.0
1196.91272 152.0
1197.441162 196.0
1197.505005 188.0
1197.697876 164.0
1197.835571 180.0
1197.883789 136.0
1198.223022 168.0
1198.46521 180.0
1198.820923 104.0
1198.953613 164.0
1199.012695 100.0
1199.144775 288.0
1199.243042 140.0
1199.427368 264.0
1199.661743 140.0
1199.772095 264.0
1199.841064 128.0
1200.261597 60.0
1200.43396 144.0
1200.509888 300.0
1200.64978 208.0
1200.758179 104.0
1201.030151 204.0
1201.103027 184.0
1201.378906 232.0
1201.454834 160.0
1201.640137 116.0
1201.737671 52.0
1201.834351 152.0
1201.929077 136.0
1202.303589 36.0
1202.427734 116.0
1202.483032 232.0
1202.55896 228.0
1202.807373 196.0
1202.966187 148.0
1203.463257 124.0
1204.189697 148.0
1204.243652 92.0
1204.513062 120.0
1204.913696 156.0
1205.058838 124.0
1205.141724 72.0
1205.950317 168.0
1206.406494 72.0
1206.848999 84.0
1207.001099 100.0
1207.153198 84.0
1207.25 132.0
1207.526733 72.0
1208.12854 140.0
1208.342896 136.0
1208.668213 148.0
1208.965698 92.0
1209.097168 140.0
1209.637085 136.0
1209.893188 168.0
1210.022827 160.0
1210.10791 56.0
1210.26355 200.0
1210.35022 132.0
1210.440186 120.0
1210.557983 88.0
1210.613403 52.0
1210.758789 96.0
1210.938843 196.0
1211.368286 184.0
1211.423706 128.0
1211.532227 132.0
1211.673096 116.0
1211.728516 96.0
1211.839478 136.0
1211.950317 156.0
1212.081909 224.0
1212.158203 140.0
1212.228027 108.0
1212.657104 132.0
1212.989868 136.0
1213.305176 228.0
1213.419678 148.0
1213.489014 256.0
1213.627686 72.0
1213.814941 204.0
1213.925903 132.0
1213.995483 160.0
1214.057617 112.0
1215.039062 300.0
1215.118896 136.0
1215.264648 236.0
1215.408081 172.0
1215.937744 156.0
1216.111328 128.0
1216.180664 160.0
1216.292725 164.0
1216.451782 148.0
1216.90271 160.0
1216.951294 164.0
1217.035034 140.0
1217.49292 172.0
1217.638794 152.0
1217.791504 184.0
1217.979126 96.0
1218.177246 184.0
1218.25 168.0
1218.321045 164.0
1218.54187 144.0
1219.076904 140.0
1219.160278 132.0
1219.292358 36.0
1219.563354 160.0
1219.769165 112.0
1219.855347 184.0
1219.936157 228.0
1220.070801 148.0
1220.173828 104.0
1220.219238 104.0
1220.828735 96.0
1221.100586 128.0
1221.245972 124.0
1221.63562 188.0
1221.899902 96.0
1222.240845 180.0
1222.400879 120.0
1222.714111 156.0
1222.908936 164.0
1223.131714 60.0
1223.285645 140.0
1223.786133 152.0
1223.949829 148.0
1224.075562 200.0
1224.189941 52.0
1224.252686 136.0
1224.956177 44.0
1225.346313 108.0
1225.485596 120.0
1225.70166 156.0
1225.81311 100.0
1225.889771 100.0
1226.054199 216.0
1226.140625 204.0
1226.238281 336.0
1226.338501 156.0
1226.412476 164.0
1226.460571 160.0
1226.55188 92.0
1226.754028 92.0
1226.914429 164.0
1227.019043 248.0
1227.067749 156.0
1227.283936 140.0
1227.444336 124.0
1227.500122 156.0
1227.740845 196.0
1227.857422 100.0
1228.051025 152.0
1228.232422 124.0
1228.574219 176.0
1228.685913 120.0
1228.811401 84.0
1228.996338 164.0
1229.132446 152.0
1229.371948 192.0
1229.446411 232.0
1229.558105 176.0
1229.725586 120.0
1229.79541 188.0
1229.963989 216.0
1230.109497 160.0
1230.409668 184.0
1230.695923 108.0
1231.078491 108.0
1231.191772 52.0
1231.56897 104.0
1231.694702 220.0
1231.87793 188.0
1232.043945 88.0
1232.099854 192.0
1232.176636 136.0
1232.372314 136.0
1232.442139 72.0
1232.526001 104.0
1232.60791 136.0
1232.889404 96.0
1232.994263 108.0
1233.078125 180.0
1233.148071 68.0
1233.24585 124.0
1233.310547 156.0
1233.406616 32.0
1233.598145 196.0
1234.060669 180.0
1234.224609 140.0
1234.434448 156.0
1234.63855 180.0
1234.721191 196.0
1234.881714 168.0
1234.944946 160.0
1235.014893 168.0
1235.140747 152.0
1235.308716 172.0
1235.432739 292.0
1235.714478 172.0
1235.973389 56.0
1236.127319 172.0
1236.276123 204.0
1236.624146 72.0
1236.743164 188.0
1236.855225 164.0
1236.995117 116.0
1237.058228 152.0
1237.184204 60.0
1237.310181 124.0
1237.702271 32.0
1237.772339 212.0
1237.88147 176.0
1238.073486 172.0
1238.133667 224.0
1238.374634 180.0
1238.528687 160.0
1238.577759 176.0
1238.878906 180.0
1239.503662 180.0
1239.558594 40.0
1240.07019 124.0
1240.168335 116.0
1240.238403 80.0
1240.287476 80.0
1240.546875 184.0
1240.743164 152.0
1240.981567 116.0
1241.191895 180.0
1241.46228 156.0
1241.611206 188.0
1241.780762 108.0
1242.124268 148.0
1242.254272 176.0
1242.622437 232.0
1242.747437 168.0
1242.882324 156.0
1242.938477 212.0
1243.008667 120.0
1243.219604 144.0
1243.438599 188.0
1243.710571 140.0
1243.815796 128.0
1244.022827 172.0
1244.194946 112.0
1244.321289 188.0
1245.187866 284.0
1245.303589 108.0
1245.430786 72.0
1245.503296 240.0
1245.564331 108.0
1245.634521 132.0
1245.833252 168.0
1246.034912 188.0
1246.30896 232.0
1246.393311 128.0
1246.484619 92.0
1246.602539 156.0
1246.744629 176.0
1246.962524 124.0
1247.080688 152.0
1247.271851 72.0
1247.328003 144.0
1247.377197 132.0
1247.468628 144.0
1247.925659 140.0
1248.122559 124.0
1248.29834 120.0
1248.389038 160.0
1248.488159 340.0
1248.574829 176.0
1248.628784 160.0
1249.219727 68.0
1249.458862 144.0
1249.613647 152.0
1250.00769 124.0
1250.071045 60.0
1250.45813 116.0
1250.507324 188.0
1250.691406 164.0
1251.035645 176.0
1251.126831 108.0
1251.345093 84.0
1251.626709 132.0
1251.929565 148.0
1252.140869 176.0
1253.014282 164.0
1253.158569 144.0
1253.540771 204.0
1253.613281 124.0
1253.831665 200.0
1253.93042 140.0
1254.594604 168.0
1254.740967 156.0
1254.811523 64.0
1255.107666 204.0
1255.213501 188.0
1255.262817 172.0
1255.497314 128.0
1255.784668 284.0
1256.073853 164.0
1256.137329 80.0
1256.222046 132.0
1256.454834 116.0
1256.553589 220.0
1256.733521 112.0
1256.760742 136.0
1256.842896 156.0
1257.118042 192.0
1257.174561 116.0
1257.472534 192.0
1257.640381 136.0
1257.76062 160.0
1257.82019 84.0
1257.866211 208.0
1257.958008 48.0
1258.056885 188.0
1258.656982 136.0
1258.981812 88.0
1259.04126 176.0
1259.801147 184.0
1260.020142 120.0
1260.210083 96.0
1260.461426 116.0
1260.811646 124.0
1261.002441 132.0
1261.05188 176.0
1261.172119 160.0
1261.270996 144.0
1261.483154 180.0
1261.5896 124.0
1261.664795 456.0
1261.864868 116.0
1261.921387 164.0
1262.055786 172.0
1262.524048 108.0
1262.61438 148.0
1262.755859 72.0
1262.903809 100.0
1262.914673 184.0
1263.094116 176.0
1263.198975 112.0
1263.479858 164.0
1263.517822 84.0
1263.529785 140.0
1263.866333 148.0
1263.944092 116.0
1264.078857 96.0
1264.192017 212.0
1264.373413 188.0
1264.446777 84.0
1264.637939 144.0
1264.691406 172.0
1264.897949 148.0
1265.067993 128.0
1265.175903 132.0
1265.225464 192.0
1265.459106 244.0
1265.741821 160.0
1265.81311 148.0
1265.905273 132.0
1265.979004 176.0
1266.096436 72.0
1266.188477 232.0
1266.524414 76.0
1266.626709 148.0
1266.740967 172.0
1266.84729 160.0
1267.073975 248.0
1267.137695 120.0
1267.775513 156.0
1267.963135 240.0
1268.186523 56.0
1268.304688 180.0
1268.63208 156.0
1268.739502 52.0
1268.817383 248.0
1268.902466 108.0
1268.97644 204.0
1269.143555 264.0
1269.221558 128.0
1269.505249 148.0
1269.661255 128.0
1269.810181 184.0
1269.953369 148.0
1270.100952 120.0
1270.306763 60.0
1270.689819 180.0
1270.90271 140.0
1271.151001 152.0
1271.5271 140.0
1271.699585 180.0
1271.8396 140.0
1271.952881 184.0
1272.009766 116.0
1272.087891 172.0
1272.641724 116.0
1272.954102 248.0
1273.000732 204.0
1273.160034 140.0
1273.273682 116.0
1273.323364 204.0
1273.550659 156.0
1273.621704 116.0
1273.820557 112.0
1274.104736 136.0
1274.180054 136.0
1274.204224 80.0
1274.228516 136.0
1274.360596 148.0
1274.445801 224.0
1274.531128 216.0
1274.677002 184.0
1274.78125 196.0
1274.893555 168.0
1274.95752 128.0
1275.049805 152.0
1275.220459 220.0
1275.277588 116.0
1275.405273 56.0
1275.483398 140.0
1275.664673 156.0
1275.76062 100.0
1275.976807 208.0
1276.620972 104.0
1276.784546 140.0
1276.877075 140.0
1277.157959 128.0
1277.189087 64.0
1277.20752 120.0
1277.460327 160.0
1277.673706 100.0
1277.876099 164.0
1278.10791 180.0
1278.264282 148.0
1278.321167 144.0
1278.722656 164.0
1279.203735 232.0
1279.253662 300.0
1279.373901 156.0
1279.552612 208.0
1279.915771 176.0
1279.986938 180.0
1280.122314 132.0
1280.221924 208.0
1280.286011 64.0
1280.599487 124.0
1280.756104 120.0
1280.81311 112.0
1280.900269 168.0
1280.955566 124.0
1281.090942 152.0
1281.147949 224.0
1281.276123 156.0
1281.568237 216.0
1281.68335 196.0
1282.009644 120.0
1282.124146 156.0
1282.280884 192.0
1282.408081 240.0
1282.461182 140.0
1282.551758 216.0
1282.644409 156.0
1282.915283 200.0
1283.107788 76.0
1283.457153 164.0
1283.724609 144.0
1283.835083 236.0
1283.892212 96.0
1284.026978 164.0
1284.106079 180.0
1284.15625 156.0
1284.213135 112.0
1284.284424 208.0
1284.405029 164.0
1284.52417 196.0
1284.612549 52.0
1284.705322 164.0
1284.776611 112.0
1284.940796 156.0
1285.119141 140.0
1285.23584 192.0
1285.404541 108.0
1285.568726 128.0
1285.681396 120.0
1286.08252 188.0
1286.1604 132.0
1286.284302 224.0
1286.446045 140.0
1286.52478 172.0
1286.760742 140.0
1287.381958 168.0
1287.446289 152.0
1287.531982 144.0
1287.596191 140.0
1287.810425 148.0
1288.062012 148.0
1288.117676 68.0
1288.260498 100.0
1288.460571 200.0
1288.567749 184.0
1288.824951 128.0
1289.103638 224.0
1289.182251 156.0
1289.282227 136.0
1289.332275 60.0
1289.46814 184.0
1289.646729 264.0
1289.739746 64.0
1289.839722 160.0
1290.054199 96.0
1290.28064 132.0
1290.418823 144.0
1290.518921 152.0
1290.640503 168.0
1290.690552 52.0
1290.747803 168.0
1290.866577 204.0
1291.262695 88.0
1291.348877 152.0
1291.727661 132.0
1291.78479 184.0
1291.834961 160.0
1291.942261 56.0
1291.99231 136.0
1292.221191 216.0
1292.328613 224.0
1292.400146 156.0
1292.600464 40.0
1292.729248 100.0
1293.044189 124.0
1293.294678 160.0
1293.523682 196.0
1293.66687 120.0
1294.089355 156.0
1294.332764 124.0
1294.468872 92.0
1294.775513 92.0
1295.009277 176.0
1295.077637 324.0
1295.185059 160.0
1295.421387 96.0
1295.504883 148.0
1295.612671 160.0
1295.930054 124.0
1296.248657 320.0
1296.84021 168.0
1297.059204 168.0
1297.471069 140.0
1297.575439 184.0
1297.681885 164.0
1297.75061 184.0
1297.851074 172.0
1297.915527 168.0
1298.14502 152.0
1298.28125 348.0
1298.462524 168.0
1298.561035 220.0
1298.819214 108.0
1298.962646 112.0
1299.239502 200.0
1299.385986 200.0
1299.479248 172.0
1299.644287 128.0
1299.90564 232.0
1299.974365 132.0
1300.146606 128.0
1300.318848 136.0
1300.512573 180.0
1300.756714 128.0
1300.936157 80.0
1301.058228 172.0
1301.158691 188.0
1301.585205 108.0
1301.664673 448.0
1301.855225 140.0
1301.990723 216.0
1302.296997 144.0
1302.35791 128.0
1302.623779 160.0
1302.760254 196.0
1302.842896 188.0
1302.939819 168.0
1303.083496 116.0
1303.29187 180.0
1303.557739 172.0
1303.704468 208.0
1303.823608 132.0
1303.912964 192.0
1304.229004 188.0
1304.384277 104.0
1304.520874 112.0
1304.643066 176.0
1304.786865 128.0
1304.865967 108.0
1304.980957 176.0
1305.10022 244.0
1305.297363 184.0
1305.405273 72.0
1305.736084 136.0
1305.807983 148.0
1306.087036 100.0
1306.246826 224.0
1306.354614 132.0
1306.491333 140.0
1306.584839 196.0
1306.743164 248.0
1306.960815 140.0
1307.095703 188.0
1307.260376 184.0
1307.388672 180.0
1307.492676 244.0
1307.786621 120.0
1307.865845 28.0
1307.923462 124.0
1308.009766 112.0
1308.065674 136.0
1308.200928 132.0
1308.312134 128.0
1308.384644 164.0
1308.513672 140.0
1308.715332 88.0
1308.867676 144.0
1309.003296 208.0
1309.529053 132.0
1309.723511 160.0
1310.062134 192.0
1310.191772 216.0
1310.270996 184.0
1310.346436 148.0
1310.532959 204.0
1310.667358 160.0
1310.732178 224.0
1310.98291 140.0
1311.164551 156.0
1311.499634 196.0
1311.652954 116.0
1311.755615 76.0
1312.123291 92.0
1312.391724 140.0
1312.454956 184.0
1312.505493 60.0
1312.649658 144.0
1312.729004 124.0
1312.80835 116.0
1312.930908 152.0
1313.154541 128.0
1313.212158 192.0
1313.37085 224.0
1313.460571 164.0
1313.616089 180.0
1313.883057 148.0
1314.033081 132.0
1314.126709 168.0
1314.22937 184.0
1314.49292 160.0
1314.59021 176.0
1314.748901 176.0
1314.86438 172.0
1315.030396 100.0
1315.109863 112.0
1315.34082 76.0
1315.431274 192.0
1315.716187 160.0
1315.838867 160.0
1316.012207 176.0
1316.113281 176.0
1316.175537 240.0
1316.31543 60.0
1316.373291 32.0
1316.546631 92.0
1316.698242 124.0
1317.025635 208.0
1317.160522 164.0
1317.355591 132.0
1317.449463 100.0
1317.809937 156.0
1317.919067 152.0
1318.152222 204.0
1318.417725 144.0
1318.65271 256.0
1318.865845 180.0
1318.916382 208.0
1319.136475 160.0
1319.241699 172.0
1319.357422 232.0
1319.429688 140.0
1319.559204 188.0
1319.932983 124.0
1320.029785 268.0
1320.102173 144.0
1320.15271 88.0
1320.376953 132.0
1320.427612 296.0
1320.499878 68.0
1320.824829 56.0
1320.896973 156.0
1321.165405 64.0
1321.242188 240.0
1321.418579 216.0
1321.534424 180.0
1321.700806 120.0
1321.855469 344.0
1322.05542 148.0
1322.149414 164.0
1322.24353 120.0
1322.308716 168.0
1322.482422 100.0
1322.588257 144.0
1322.692261 152.0
1322.808105 56.0
1322.873291 136.0
1322.945679 124.0
1323.191772 144.0
1323.256104 164.0
1323.276489 144.0
1323.368164 264.0
1323.503174 148.0
1323.763794 92.0
1323.981079 164.0
1324.08252 108.0
1324.393921 168.0
1324.502563 208.0
1324.553345 228.0
1324.712646 112.0
1324.799561 156.0
1324.908325 88.0
1324.966187 172.0
1325.113647 244.0
1325.241577 156.0
1325.401367 148.0
1325.545898 96.0
1325.683594 76.0
1325.755981 132.0
1325.806763 100.0
1325.922729 164.0
1326.041992 124.0
1326.118408 92.0
1326.209473 172.0
1326.314087 380.0
1326.379395 144.0
1326.531616 152.0
1326.749023 164.0
1327.046387 120.0
1327.219971 148.0
1327.466919 120.0
1327.594116 176.0
1327.798462 180.0
1327.935181 148.0
1328.025391 168.0
1328.13855 208.0
1328.500732 188.0
1328.67688 176.0
1328.781372 164.0
1328.98291 112.0
1329.055542 60.0
1329.14978 136.0
1329.229614 168.0
1329.389282 240.0
1329.440063 128.0
1329.548828 160.0
1329.576294 156.0
1329.674316 160.0
1329.788452 148.0
1329.955444 200.0
1330.04248 112.0
1330.107788 108.0
1330.18042 156.0
1330.43457 108.0
1330.703125 168.0
1330.891602 88.0
1330.986328 136.0
1331.385742 204.0
1331.508057 204.0
1331.616211 208.0
1331.690796 156.0
1331.799683 124.0
1331.865112 136.0
1332.093872 204.0
1332.329956 172.0
1332.518921 124.0
1332.649658 176.0
1332.758789 172.0
1332.831299 160.0
1332.882202 96.0
1333.098755 80.0
1333.161377 164.0
1333.529053 112.0
1333.587158 76.0
1333.718018 88.0
1333.772949 188.0
1333.943359 144.0
1334.019531 176.0
1334.43042 172.0
1334.510376 192.0
1334.60498 148.0
1334.844849 136.0
1335.071045 124.0
1335.179443 236.0
1335.24585 200.0
1335.324829 128.0
1335.526733 172.0
1335.703125 108.0
1335.826782 104.0
1336.187012 160.0
1336.329956 152.0
1336.459717 104.0
1336.554321 124.0
1336.881836 124.0
1336.938843 180.0
1337.144287 120.0
1337.245728 120.0
1337.385254 196.0
1337.609619 148.0
1337.718872 120.0
1337.959106 120.0
1338.03186 64.0
1338.162964 176.0
1338.359497 208.0
1338.580444 192.0
1338.861938 208.0
1339.175171 176.0
1339.278564 124.0
1339.412109 172.0
1339.517456 208.0
1339.58313 44.0
1339.743286 160.0
1339.867188 88.0
1340.03479 124.0
1340.100342 144.0
1340.165894 132.0
1340.282471 208.0
1340.391846 144.0
1340.479004 104.0
1340.575439 136.0
1340.654175 184.0
1340.856812 184.0
1341.018555 116.0
1341.090576 220.0
1341.146729 212.0
1341.434082 48.0
1341.689209 164.0
1341.787964 140.0
1341.944336 112.0
1342.062988 88.0
1342.147583 160.0
1342.175171 140.0
1342.294434 112.0
1342.572144 48.0
1342.716431 164.0
1342.812134 128.0
1342.863281 120.0
1343.103882 220.0
1343.293579 144.0
1343.43689 160.0
1343.716064 272.0
1343.97937 168.0
1344.183716 116.0
1344.300415 112.0
1344.495117 184.0
1344.621582 144.0
1344.687256 140.0
1344.957275 200.0
1345.084961 108.0
1345.48291 112.0
1345.63623 192.0
1345.709229 124.0
1346.118164 56.0
1346.329956 136.0
1346.665894 140.0
1346.873169 156.0
1347.155273 108.0
1347.274902 200.0
1347.374512 132.0
1347.564453 212.0
1347.630249 184.0
1347.72522 260.0
1347.885986 104.0
1347.958984 176.0
1348.105225 248.0
1348.265991 128.0
1348.324463 152.0
1348.453369 124.0
1348.689819 100.0
1348.784912 68.0
1349.00415 188.0
1349.187012 180.0
1349.360718 156.0
1349.486694 80.0
1349.655762 212.0
1349.874268 232.0
1350.013184 88.0
1350.115601 256.0
1350.210693 136.0
1350.342285 128.0
1350.46936 200.0
1350.689209 180.0
1350.78125 128.0
1350.872314 184.0
1350.993408 176.0
1351.373779 180.0
1351.490845 92.0
1351.557373 196.0
1351.629883 200.0
1351.842407 92.0
1351.959229 176.0
1352.090942 140.0
1352.303223 200.0
1352.361694 164.0
1352.471558 264.0
1352.596313 168.0
1352.69873 100.0
1352.824951 144.0
1352.934937 156.0
1353.05542 168.0
1353.335449 88.0
1353.442383 136.0
1353.518433 168.0
1353.752808 140.0
1353.884644 104.0
1354.023438 168.0
1354.14978 172.0
1354.252441 148.0
1354.419312 156.0
1354.529175 140.0
1354.62439 132.0
1354.76355 172.0
1354.823364 152.0
1355.10791 144.0
1355.239746 168.0
1355.291138 176.0
1355.357056 64.0
1355.432861 180.0
1355.576904 228.0
1355.730713 248.0
1355.794678 200.0
1355.810791 48.0
1356.053223 76.0
1356.419678 184.0
1356.759766 96.0
1356.837646 52.0
1357.003296 208.0
1357.127563 168.0
1357.402222 84.0
1357.541504 164.0
1357.614868 140.0
1357.716187 180.0
1357.776245 144.0
1357.871826 160.0
1358.194214 128.0
1358.25293 180.0
1358.311646 132.0
1358.363037 136.0
1358.421631 176.0
1358.524414 96.0
1358.612427 76.0
1359.22876 180.0
1359.302124 224.0
1359.350586 168.0
1359.49292 188.0
1360.138794 124.0
1360.241577 148.0
1360.536499 160.0
1360.71875 132.0
1360.850952 80.0
1360.935669 208.0
1360.997803 152.0
1361.320923 144.0
1361.644043 316.0
1361.724731 176.0
1361.852783 172.0
1361.908447 124.0
1361.996582 92.0
1362.386597 84.0
1362.456299 160.0
1362.606323 144.0
1362.682373 136.0
1363.025146 112.0
1363.208862 68.0
1363.296997 140.0
1363.495483 156.0
1363.554199 136.0
1363.664429 224.0
1363.77478 132.0
1363.951172 96.0
1364.039551 128.0
1364.311401 144.0
1364.561279 140.0
1364.793213 204.0
1365.046631 136.0
1365.171631 184.0
1365.499023 144.0
1365.76001 132.0
1365.995361 140.0
1366.275024 124.0
1366.451538 144.0
1366.669556 132.0
1366.76062 192.0
1367.025513 120.0
1367.246216 276.0
1367.364014 180.0
1367.574341 128.0
1367.740723 168.0
1368.018921 156.0
1368.050049 136.0
1368.065186 184.0
1368.456421 160.0
1368.509155 128.0
1368.600708 172.0
1368.748047 148.0
1368.998413 120.0
1369.20459 68.0
1369.406494 48.0
1369.508423 160.0
1369.587646 164.0
1369.690796 96.0
1369.754639 156.0
1369.904419 156.0
1370.022217 88.0
1370.154907 212.0
1370.48645 124.0
1370.667358 152.0
1370.810669 128.0
1370.972778 96.0
1371.098022 116.0
1371.280518 152.0
1371.488647 140.0
1371.628784 68.0
1371.709839 136.0
1371.761475 156.0
1371.842529 140.0
1371.93103 208.0
1372.188965 144.0
1372.432373 132.0
1372.638794 124.0
1372.727295 176.0
1372.882202 124.0
1373.376343 228.0
1373.442627 156.0
1373.634521 176.0
1373.700928 108.0
1373.804199 176.0
1373.855835 184.0
1373.929565 168.0
1374.010742 152.0
1374.123047 140.0
1374.193237 208.0
1374.276367 148.0
1374.475586 80.0
1374.637939 140.0
1374.748535 48.0
1375.015503 152.0
1375.147095 100.0
1375.41626 176.0
1375.508789 60.0
1375.612183 172.0
1375.93103 148.0
1376.010864 300.0
1376.069946 160.0
1376.180664 148.0
1376.269287 208.0
1376.34314 184.0
1376.424316 152.0
1376.483398 120.0
1376.594116 148.0
1376.682739 152.0
1377.155396 120.0
1377.450928 148.0
1377.52478 136.0
1377.672485 104.0
1377.786255 256.0
1377.894165 40.0
1377.953247 140.0
1378.0271 36.0
1378.297119 144.0
1378.529663 144.0
1378.662842 140.0
1378.736572 180.0
1378.831543 268.0
1379.268677 136.0
1379.456299 152.0
1379.608765 108.0
1379.815796 136.0
1379.941406 64.0
1380.059814 184.0
1380.15918 164.0
1380.392456 192.0
1380.45166 120.0
1380.616577 208.0
1380.725342 136.0
1380.874512 136.0
1380.932373 116.0
1381.154297 40.0
1381.318848 128.0
1381.427979 152.0
1381.531616 192.0
1381.598145 176.0
1381.775757 60.0
1381.890381 112.0
1382.002441 172.0
1382.190063 120.0
1382.397217 88.0
1382.473267 272.0
1382.542236 208.0
1382.657715 148.0
1382.730347 176.0
1382.893066 140.0
1383.063354 180.0
1383.155518 124.0
1383.21875 168.0
1383.360352 124.0
1383.541748 208.0
1383.645264 172.0
1383.840698 72.0
1384.05542 32.0
1384.203491 140.0
1384.344238 332.0
1384.407593 288.0
1384.522827 128.0
1384.692261 164.0
1384.988525 92.0
1385.202026 160.0
1385.307129 116.0
1385.399292 224.0
1385.544189 172.0
1385.670044 156.0
1385.72937 140.0
1385.788696 132.0
1386.040527 168.0
1386.114624 180.0
1386.207153 220.0
1386.314819 92.0
1386.689575 236.0
1386.955444 368.0
1387.182007 60.0
1387.388062 144.0
1387.429321 184.0
1387.490845 168.0
1387.678711 200.0
1387.864014 176.0
1387.938232 148.0
1388.049438 120.0
1388.197754 280.0
1388.368286 48.0
1388.479492 132.0
1388.531494 172.0
1388.843018 140.0
1388.998779 132.0
1389.057251 100.0
1389.128662 176.0
1389.199097 208.0
1389.384766 128.0
1389.457642 144.0
1389.61084 180.0
1389.869019 168.0
1390.006592 132.0
1390.074585 116.0
1390.141357 136.0
1390.193237 112.0
1390.438232 192.0
1390.613159 120.0
1390.794434 144.0
1390.846436 84.0
1390.951782 172.0
1391.129395 212.0
1391.209595 112.0
1391.284424 140.0
1391.386963 260.0
1391.581421 96.0
1391.670532 220.0
1391.856079 192.0
1392.13147 152.0
1392.346191 124.0
1392.442749 124.0
1392.494751 168.0
1392.546753 112.0
1392.658203 136.0
1392.717651 144.0
1393.05188 140.0
1393.309814 216.0
1393.401001 128.0
1393.756714 192.0
1393.832031 136.0
1393.891479 148.0
1394.11438 176.0
1394.22583 108.0
1394.32251 116.0
1394.403076 172.0
1394.733276 188.0
1395.162476 108.0
1395.239746 132.0
1395.452393 200.0
1395.995239 52.0
1396.06958 144.0
1396.147339 120.0
1396.255493 192.0
1396.486084 164.0
1396.565918 212.0
1396.805908 112.0
1396.915771 68.0
1397.105103 188.0
1397.192749 200.0
1397.281982 164.0
1397.415894 400.0
1397.497803 92.0
1397.629395 284.0
1397.765625 136.0
1397.881836 192.0
1397.90271 116.0
1397.932251 124.0
1397.960938 164.0
1398.026123 40.0
1398.09314 168.0
1398.174927 196.0
1398.234497 164.0
1398.390869 60.0
1398.459229 148.0
1398.544434 220.0
1398.673706 168.0
1398.770386 152.0
1398.911865 152.0
1399.246826 152.0
1399.527588 164.0
1399.641479 140.0
1399.746582 104.0
1399.857422 128.0
1399.946777 136.0
1400.073364 120.0
1400.183472 180.0
1400.20874 140.0
1400.232178 204.0
1400.579834 200.0
1400.803345 124.0
1400.984009 156.0
1401.088257 224.0
1401.171509 144.0
1401.369629 104.0
1401.570801 164.0
1401.65271 104.0
1401.853882 156.0
1401.928467 108.0
1402.114746 128.0
1402.219116 168.0
1402.278687 64.0
1402.330933 180.0
1402.383057 108.0
1402.457642 32.0
1402.554565 124.0
1402.793091 132.0
1402.934692 156.0
1403.091309 196.0
1403.255249 172.0
1403.329834 128.0
1403.471558 196.0
1403.531128 120.0
1403.799561 120.0
1403.971191 144.0
1404.105347 160.0
1404.199341 236.0
1404.310059 204.0
1404.603271 100.0
1404.78418 132.0
1404.881104 144.0
1405.022705 200.0
1405.10498 72.0
1405.209351 176.0
1405.421997 220.0
1405.679443 164.0
1405.746704 120.0
1405.895874 116.0
1405.970581 360.0
1406.125732 180.0
1406.154663 144.0
1406.228394 228.0
1406.624023 196.0
1406.716919 108.0
1406.918457 164.0
1407.052856 160.0
1407.174438 132.0
1407.327515 160.0
1407.386475 160.0
1407.612915 204.0
1407.784668 160.0
1408.00415 284.0
1408.098267 112.0
1408.18042 136.0
1408.237305 160.0
1408.347656 128.0
1408.531494 136.0
1408.583862 156.0
1408.739136 168.0
1408.769287 48.0
1408.934937 168.0
1409.054443 144.0
1409.286133 120.0
1409.345825 168.0
1409.607422 136.0
1409.674683 108.0
1409.874512 180.0
1409.973633 136.0
1410.05603 200.0
1410.235229 152.0
1410.369751 108.0
1410.466431 176.0
1410.60144 108.0
1410.768677 88.0
1410.967773 168.0
1411.071899 164.0
1411.162109 76.0
1411.266235 188.0
1411.349121 192.0
1411.491211 136.0
1411.636841 192.0
1411.764526 152.0
1411.860596 176.0
1411.954834 132.0
1412.24646 124.0
1412.523315 136.0
1412.628052 208.0
1413.009521 104.0
1413.237671 220.0
1413.401978 200.0
1413.510864 204.0
1413.900024 164.0
1414.012329 168.0
1414.146973 112.0
1414.236816 56.0
1414.334595 176.0
1414.483032 144.0
1414.573608 140.0
1414.669067 204.0
1414.756958 132.0
1415.075928 144.0
1415.14563 120.0
1415.255005 48.0
1415.326294 144.0
1415.357056 76.0
1415.371826 192.0
1415.487061 184.0
1415.613037 156.0
1415.689331 132.0
1415.839111 128.0
1415.973877 128.0
1416.047363 184.0
1416.254395 228.0
1416.348389 140.0
1416.438232 184.0
1416.542114 220.0
1416.760376 160.0
1416.970215 116.0
1417.202393 172.0
1417.314819 276.0
1417.505127 224.0
1417.623047 156.0
1417.674561 212.0
1417.753784 176.0
1417.981812 144.0
1418.146729 120.0
1418.206665 148.0
1418.364014 164.0
1418.438965 200.0
1418.514038 32.0
1418.723877 80.0
1418.806396 108.0
1418.957153 144.0
1419.11377 100.0
1419.196289 168.0
1419.529541 136.0
1419.793335 152.0
1419.951294 220.0
1420.238647 164.0
1420.343628 84.0
1420.478882 140.0
1420.578125 212.0
1420.720459 140.0
1421.213989 120.0
1421.281494 128.0
1421.356567 96.0
1421.454102 232.0
1421.536621 124.0
1421.700928 184.0
1421.797974 200.0
1421.904297 132.0
1421.964355 176.0
1422.016968 136.0
1422.253662 336.0
1422.369751 208.0
1422.452271 116.0
1422.504883 164.0
1422.571045 160.0
1422.684937 172.0
1422.797607 148.0
1422.983643 228.0
1423.112915 188.0
1423.458374 144.0
1423.651978 220.0
1423.751221 132.0
1423.87146 156.0
1423.999023 52.0
1424.119263 112.0
1424.477295 168.0
1424.697632 52.0
1424.983154 76.0
1425.088379 172.0
1425.283447 196.0
1425.423462 396.0
1425.515015 136.0
1425.576782 148.0
1425.675537 176.0
1425.869873 204.0
1426.11792 156.0
1426.200562 180.0
1426.275757 116.0
1426.403564 240.0
1426.531372 176.0
1426.606567 196.0
1426.719238 160.0
1426.842041 120.0
1426.89978 256.0
1427.166748 144.0
1427.363403 132.0
1427.389648 224.0
1427.62915 88.0
1427.696777 148.0
1427.786987 232.0
1428.012695 56.0
1428.070801 188.0
1428.222412 188.0
1428.388794 148.0
1428.599365 124.0
1428.779907 160.0
1428.840088 132.0
1428.937988 100.0
1429.065796 132.0
1429.342773 184.0
1429.36499 148.0
1429.449585 152.0
1429.554932 116.0
1429.627319 236.0
1430.034302 104.0
1430.443115 152.0
1430.541016 208.0
1430.631348 228.0
1430.774292 160.0
1431.052856 168.0
1431.188843 168.0
1431.608154 140.0
1431.775879 108.0
1431.990723 176.0
1432.268799 132.0
1432.449707 156.0
1432.792725 172.0
1433.041382 192.0
1433.132812 140.0
1433.213867 176.0
1433.422852 172.0
1433.531128 132.0
1433.666748 40.0
1433.980469 116.0
1434.201904 164.0
1434.299927 176.0
1434.456787 236.0
1434.714478 116.0
1434.863647 160.0
1435.008545 172.0
1435.083984 208.0
1435.245239 168.0
1435.317749 104.0
1435.417236 188.0
1435.513794 64.0
1435.822998 152.0
1435.934326 192.0
1436.132202 120.0
1436.241333 160.0
1436.364746 168.0
1436.524414 120.0
1436.65271 112.0
1436.841309 56.0
1437.21106 156.0
1437.357056 272.0
1437.512451 176.0
1437.709106 160.0
1437.852417 44.0
1437.912842 116.0
1437.99585 136.0
1438.070068 124.0
1438.131714 176.0
1438.203857 144.0
1438.341797 120.0
1438.562012 56.0
1438.614868 200.0
1438.740356 188.0
1438.826172 132.0
1439.036865 156.0
1439.051392 140.0
1439.112671 196.0
1439.22644 140.0
1439.332153 308.0
1439.392456 140.0
1439.518555 152.0
1439.613647 232.0
1439.687012 164.0
1439.747437 80.0
1439.803833 244.0
1440.060791 172.0
1440.138306 164.0
1440.215698 112.0
1440.268555 176.0
1440.359253 160.0
1440.457397 124.0
1440.710938 232.0
1441.182007 164.0
1441.236572 172.0
1441.341431 156.0
1441.432739 144.0
1441.500122 132.0
1441.59082 172.0
1441.822021 376.0
1441.96106 144.0
1442.059326 104.0
1442.202271 176.0
1442.323853 152.0
1442.376831 112.0
1442.444824 220.0
1442.611206 100.0
1442.739624 64.0
1442.845459 164.0
1442.939697 192.0
1442.957886 88.0
1442.992676 180.0
1443.124756 128.0
1443.306274 72.0
1443.374756 196.0
1443.450439 160.0
1443.546631 184.0
1443.855469 120.0
1444.167969 136.0
1444.305054 132.0
1444.395752 108.0
1444.486572 252.0
1444.586304 152.0
1444.766479 156.0
1445.069092 72.0
1445.176025 188.0
1445.264404 168.0
1445.57605 172.0
1445.682007 212.0
1445.833374 80.0
1445.924194 172.0
1446.234497 204.0
1446.385864 40.0
1446.444824 232.0
1446.745972 276.0
1446.984009 140.0
1447.32373 200.0
1447.521606 168.0
1447.568604 156.0
1447.650269 168.0
1447.931274 156.0
1448.203247 112.0
1448.286499 172.0
1448.405762 172.0
1448.458374 164.0
1448.559204 164.0
1448.697266 144.0
1449.332031 64.0
1449.447021 156.0
1449.529053 68.0
1449.627563 140.0
1449.808105 148.0
1450.067017 28.0
1450.127686 132.0
1450.233765 160.0
1450.362671 96.0
1450.559814 200.0
1450.665894 156.0
1451.161499 132.0
1451.262695 168.0
1451.325439 204.0
1451.383179 228.0
1451.532349 232.0
1451.621216 144.0
1451.681885 108.0
1451.780518 88.0
1451.848755 164.0
1451.94104 196.0
1452.008057 124.0
1452.114136 156.0
1452.187622 192.0
1452.349365 136.0
1452.463135 140.0
1452.523804 72.0
1452.609741 172.0
1452.667969 144.0
1452.717041 128.0
1452.812012 196.0
1453.116333 148.0
1453.365967 172.0
1453.672974 116.0
1453.745361 156.0
1453.886108 216.0
1453.957764 136.0
1454.12085 208.0
1454.200684 164.0
1454.352539 160.0
1454.439453 196.0
1454.511719 136.0
1454.690308 480.0
1454.812134 124.0
1454.929443 100.0
1455.045654 132.0
1455.240723 112.0
1455.356445 180.0
1455.415405 204.0
1455.491333 204.0
1455.70874 164.0
1455.793457 188.0
1455.904907 200.0
1455.966675 228.0
1456.046997 196.0
1456.182373 32.0
1456.258911 164.0
1456.424316 116.0
1456.476074 176.0
1456.70105 180.0
1456.843262 168.0
1456.935913 180.0
1457.130615 168.0
1457.215454 104.0
1457.329468 188.0
1457.410767 188.0
1457.557373 168.0
1457.779053 124.0
1457.802734 160.0
1457.837158 168.0
1457.967773 172.0
1458.040405 96.0
1458.127441 160.0
1458.185059 124.0
1458.283813 200.0
1458.527832 168.0
1458.666992 112.0
1458.803833 188.0
1458.896729 156.0
1459.18396 160.0
1459.445801 204.0
1459.678223 200.0
1459.84314 180.0
1460.028076 132.0
1460.088867 228.0
1460.195435 152.0
1460.357666 184.0
1460.514038 196.0
1460.666992 116.0
1460.811523 148.0
1460.933228 140.0
1461.07019 148.0
1461.130981 188.0
1461.286743 328.0
1461.686523 172.0
1461.831055 156.0
1462.061646 120.0
1462.203979 192.0
1462.36377 232.0
1462.455078 120.0
1462.537964 164.0
1462.866211 176.0
1463.052734 192.0
1463.196533 164.0
1463.307739 148.0
1463.479614 176.0
1463.543823 196.0
1463.597046 124.0
1463.665649 152.0
1463.772217 124.0
1463.84668 140.0
1463.993042 140.0
1464.057495 392.0
1464.320557 180.0
1464.442383 136.0
1464.503296 124.0
1464.625244 264.0
1464.716675 204.0
1464.899414 164.0
1464.960449 112.0
1465.036621 116.0
1465.105103 164.0
1465.410156 248.0
1465.470825 128.0
1465.577515 148.0
1465.828979 136.0
1465.912842 148.0
1466.164307 180.0
1466.309082 152.0
1466.551392 112.0
1466.570679 88.0
1466.601074 52.0
1466.720093 188.0
1466.819824 256.0
1466.907715 164.0
1467.126221 100.0
1467.185669 168.0
1467.322998 60.0
1467.437256 228.0
1467.912231 320.0
1468.197021 152.0
1468.210083 96.0
1468.241699 184.0
1468.756592 160.0
1468.899048 180.0
1469.023682 340.0
1469.145752 260.0
1469.305908 140.0
1469.41687 240.0
1469.710327 136.0
1470.053711 132.0
1470.183472 108.0
1470.248901 216.0
1470.358887 112.0
1470.576172 144.0
1470.641357 172.0
1470.74585 152.0
1471.00769 136.0
1471.145142 92.0
1471.213867 136.0
1471.351318 176.0
1471.481079 108.0
1471.733032 136.0
1471.914062 108.0
1472.043945 188.0
1472.221802 148.0
1472.402954 208.0
1472.472412 136.0
1472.672363 168.0
1472.720947 164.0
1472.892334 60.0
1473.054321 156.0
1473.127686 92.0
1473.271851 204.0
1473.558472 112.0
1473.619629 100.0
1473.673096 160.0
1473.894775 176.0
1473.963379 156.0
1474.039917 136.0
1474.162231 148.0
1474.274292 244.0
1474.483154 292.0
1474.55188 104.0
1474.705688 108.0
1474.77356 216.0
1474.995239 148.0
1475.048828 136.0
1475.238525 176.0
1475.257202 240.0
1475.316284 192.0
1475.385132 80.0
1475.438599 108.0
1475.511108 132.0
1475.583862 252.0
1475.670898 148.0
1475.782715 204.0
1475.874512 168.0
1475.958618 88.0
1476.165039 148.0
1476.310303 116.0
1476.363892 132.0
1476.455688 216.0
1476.646851 216.0
1476.71936 180.0
1476.94519 168.0
1477.002808 172.0
1477.166992 120.0
1477.25647 176.0
1477.385254 148.0
1477.54187 116.0
1477.625977 232.0
1477.762817 164.0
1477.87854 120.0
1477.977905 188.0
1478.125 276.0
1478.314697 172.0
1478.383545 128.0
1478.437134 172.0
1478.566772 140.0
1478.743286 104.0
1478.814697 196.0
1479.011108 140.0
1479.118286 200.0
1479.198853 176.0
1479.349976 164.0
1479.44751 144.0
1479.593994 92.0
1479.672607 184.0
1479.783081 188.0
1480.052368 80.0
1480.335693 296.0
1480.481201 128.0
1480.669678 188.0
1480.808472 192.0
1481.093872 116.0
1481.170532 168.0
1481.30835 60.0
1481.407959 140.0
1481.557007 204.0
1481.653076 196.0
1481.761597 156.0
1481.975342 160.0
1482.197144 116.0
1482.250732 72.0
1482.534302 152.0
1482.735229 152.0
1482.794922 152.0
1483.03772 100.0
1483.116821 148.0
1483.247803 176.0
1483.35437 204.0
1483.698364 172.0
1483.768433 208.0
1484.036743 144.0
1484.251465 192.0
1484.343506 164.0
1484.473877 132.0
1484.564087 216.0
1484.894165 164.0
1485.327515 136.0
1485.578369 160.0
1485.74707 140.0
1485.869873 160.0
1485.929443 216.0
1486.099976 212.0
1486.32251 156.0
1486.383911 160.0
1486.53064 128.0
1486.828979 48.0
1487.013794 212.0
1487.151245 200.0
1487.466064 132.0
1487.819214 156.0
1487.880615 76.0
1488.03418 144.0
1488.149414 112.0
1488.233887 108.0
1488.425781 156.0
1488.59375 152.0
1488.929199 140.0
1489.093872 132.0
1489.193726 124.0
1489.279541 172.0
1489.370483 192.0
1489.846924 164.0
1489.942139 124.0
1490.008057 192.0
1490.184814 136.0
1490.307739 156.0
1490.399902 132.0
1490.461426 136.0
1490.537964 132.0
1490.607422 112.0
1490.723267 148.0
1490.846436 112.0
1490.977905 152.0
1491.068115 200.0
1491.168335 156.0
1491.329834 100.0
1491.46814 164.0
1491.580688 204.0
1491.606079 132.0
1491.62439 196.0
1491.721802 180.0
1491.863281 200.0
1491.983154 192.0
1492.036377 188.0
1492.275391 124.0
1492.547974 200.0
1492.670166 200.0
1492.786377 192.0
1492.905884 88.0
1493.101562 264.0
1493.210815 68.0
1493.375 124.0
1493.559692 216.0
1493.694214 76.0
1493.751953 44.0
1493.85376 192.0
1493.978516 208.0
1494.105835 180.0
1494.290527 184.0
1494.398193 120.0
1494.598267 164.0
1494.790649 52.0
1494.913818 204.0
1495.094238 276.0
1495.190796 168.0
1495.248413 328.0
1495.532227 352.0
1495.766479 196.0
1495.9375 108.0
1495.991333 184.0
1496.268433 124.0
1496.322388 156.0
1496.37793 144.0
1496.584106 248.0
1496.699707 144.0
1496.75354 488.0
1496.822876 220.0
1496.892212 160.0
1497.015381 164.0
1497.098999 80.0
1497.269531 88.0
1497.361938 180.0
1497.587524 152.0
1497.777832 84.0
1497.98584 192.0
1498.047485 100.0
1498.124512 156.0
1498.240112 172.0
1498.378784 212.0
1498.428833 188.0
1498.587524 128.0
1498.9104 168.0
1498.963867 56.0
1499.028564 172.0
1499.096313 216.0
1499.210938 144.0
1499.303467 276.0
1499.474121 168.0
1499.667969 200.0
1499.725952 216.0
1499.966309 188.0
1500.106689 136.0
1500.182129 132.0
1500.243774 152.0
1500.482788 164.0
1500.590698 108.0
1500.671265 232.0
1500.756836 140.0
1500.868164 208.0
1500.953125 276.0
1501.005371 144.0
1501.315552 72.0
1501.415894 200.0
1501.512573 120.0
1501.593262 256.0
1501.693481 120.0
1501.75293 152.0
1501.831543 188.0
1501.898315 244.0
1502.125488 156.0
1502.272095 96.0
1502.366821 124.0
1502.518921 100.0
1502.848145 192.0
1502.910645 136.0
1503.016357 168.0
1503.159302 304.0
1503.383911 160.0
1503.533447 108.0
1503.703247 132.0
1503.807617 220.0
1504.178101 112.0
1504.23999 172.0
1504.343262 164.0
1504.703125 148.0
1504.75708 124.0
1504.927002 132.0
1505.00415 116.0
1505.081421 104.0
1505.251343 116.0
1505.305298 240.0
1505.371582 140.0
