>compound Dibucaine (Cinchocaine) HCl
>formula C20H29N3O2
>ionization [M+H]+
>parentmass 344.235107
#inchi InChI=1S/C20H29N3O2/c1-4-7-14-25-19-15-17(16-10-8-9-11-18(16)22-19)20(24)21-12-13-23(5-2)6-3/h8-11,15H,4-7,12-14H2,1-3H3,(H,21,24)
#inchikey PUFQVTATUTYEAL
#origInchi InChI=1S/C20H29N3O2.ClH/c1-4-7-14-25-19-15-17(16-10-8-9-11-18(16)22-19)20(24)21-12-13-23(5-2)6-3;/h8-11,15H,4-7,12-14H2,1-3H3,(H,21,24);1H
#Ion_Source LC-ESI
#Instrument qTof
#Compound_Source Commercial
#PI Dorrestein
#Data_Collector Garg_Neha
#Scan -1
#Precursor_MZ 344.233
#ExactMass 343.226
#Charge 1
#CAS_Number 61-12-1, 85-79-0 (free base)
#Pubmed_ID N/A
#Smiles C12(=C(C=C(N=C1C=CC=C2)OCCCC)C(NCCN(CC)CC)=O).Cl
#INCHI_AUX N/A
#Library_Class 1
#SpectrumID CCMSLIB00000078632
#IonMode Positive
#UpdateWorkflowName UPDATE-SINGLE-ANNOTATED-GOLD
#LibraryQualityString Gold
#TaskID 77f51c88eb8b467eb4a01dd2d0cb90d2
##Scan# 1170
#SpectrumFile Plate10_21_40_GC2_01_15744.mzXML
#LibraryName FDALibrary_2_04302014.mgf
#MQScore -1
#Organism FDALibrary_2_04302014
#TIC_Query 0
#RT_Query -1
#MZErrorPPM -1
#SharedPeaks 0
#MassDiff 0
#LibMZ -1
#SpecMZ 344.233
#SpecCharge 0
#internalFilename spec-00000.mgf

>collision 10
45.339813 168.0
45.430988 200.0
45.77507 172.0
45.915428 132.0
46.404736 148.0
46.49155 172.0
46.723904 140.0
46.933571 132.0
47.212227 140.0
47.88747 172.0
48.376286 212.0
48.725765 152.0
48.823067 152.0
48.882885 184.0
48.952488 148.0
49.151825 176.0
49.281681 200.0
49.649837 152.0
49.719982 216.0
49.833725 180.0
49.889942 144.0
50.333759 156.0
50.415691 236.0
50.511833 152.0
50.582588 172.0
50.925728 200.0
51.069286 188.0
51.274307 140.0
51.307091 176.0
51.624073 192.0
51.711712 124.0
51.734245 168.0
51.751427 192.0
51.987942 164.0
52.062595 204.0
53.08577 184.0
53.178619 148.0
54.159908 152.0
54.225842 152.0
55.133911 148.0
55.290672 140.0
55.385429 164.0
55.422657 156.0
55.616741 160.0
55.726719 144.0
55.833664 208.0
55.966103 168.0
56.01078 184.0
56.392757 140.0
56.681591 208.0
56.765537 220.0
56.860046 168.0
57.041985 124.0
58.230259 220.0
58.370762 164.0
58.413349 168.0
58.655464 164.0
58.768318 208.0
59.073872 168.0
59.127426 140.0
59.147324 204.0
59.33728 148.0
59.905907 184.0
60.154179 184.0
60.526779 240.0
60.886551 140.0
61.015522 144.0
61.121288 216.0
61.152412 140.0
61.376743 172.0
61.471733 192.0
61.933102 152.0
62.049065 160.0
62.108654 192.0
62.154152 176.0
62.308022 184.0
62.702213 160.0
62.960136 156.0
63.080219 140.0
63.110256 144.0
63.469688 144.0
63.534718 168.0
63.550583 164.0
63.620415 196.0
63.87479 108.0
63.947865 260.0
64.479218 200.0
64.662888 176.0
64.715714 160.0
64.76226 248.0
65.047577 152.0
65.629967 172.0
65.723297 128.0
65.750954 220.0
66.297157 156.0
66.668282 176.0
66.804161 180.0
67.125015 140.0
67.224525 156.0
67.397614 180.0
67.638062 164.0
67.698601 172.0
67.952667 208.0
68.213783 164.0
68.243378 140.0
68.650093 144.0
68.768883 292.0
69.286789 100.0
69.995682 148.0
70.629875 192.0
70.683601 176.0
70.828575 136.0
70.907928 168.0
71.129211 204.0
71.236687 160.0
71.426636 192.0
71.66906 164.0
72.547913 140.0
72.957047 144.0
73.142464 156.0
73.220787 180.0
73.924141 204.0
74.70137 232.0
75.233864 152.0
75.38932 212.0
75.463646 244.0
75.769981 148.0
76.009254 212.0
76.407143 160.0
76.52549 140.0
77.531647 244.0
78.250809 164.0
78.364563 164.0
78.676727 188.0
79.380928 156.0
79.728874 164.0
80.159531 180.0
81.271652 164.0
81.374046 168.0
81.839722 224.0
81.864929 172.0
82.481964 164.0
82.715309 172.0
82.759987 212.0
82.936295 168.0
83.319191 224.0
83.430046 144.0
83.515511 148.0
84.005508 212.0
84.049294 164.0
84.681816 180.0
84.797241 144.0
85.000687 124.0
86.007507 144.0
86.760391 140.0
86.901344 184.0
87.038696 160.0
87.570564 204.0
87.822182 144.0
88.354568 200.0
88.38076 192.0
88.523026 144.0
88.714394 144.0
89.177773 172.0
89.708588 192.0
89.84436 200.0
89.883987 152.0
90.934296 216.0
91.0653 164.0
91.649323 240.0
91.986885 184.0
92.566193 148.0
93.003304 216.0
93.053215 144.0
93.606979 144.0
94.042679 152.0
94.218399 148.0
95.58532 204.0
95.979416 136.0
96.004143 172.0
96.416061 172.0
96.430618 256.0
97.769257 160.0
98.100159 188.0
98.163422 184.0
98.831131 148.0
99.197281 200.0
99.225037 176.0
99.49485 156.0
99.808769 172.0
100.017662 216.0
100.111908 2020.0
100.150391 164.0
100.70755 204.0
100.833694 128.0
100.963371 144.0
101.116951 264.0
101.700668 148.0
101.778961 192.0
101.805069 204.0
102.000664 216.0
102.118584 212.0
102.878242 140.0
103.045868 184.0
103.066071 180.0
103.395691 140.0
103.604248 176.0
103.993576 148.0
104.184456 216.0
104.353142 224.0
104.809067 160.0
104.966019 188.0
105.468239 192.0
105.742317 168.0
105.75869 140.0
106.307945 188.0
106.517365 144.0
106.716705 188.0
106.796913 176.0
106.817482 184.0
107.050049 168.0
107.222496 192.0
107.402473 168.0
107.652199 164.0
107.817467 208.0
107.891884 160.0
107.945641 176.0
108.867798 172.0
109.002823 176.0
109.169128 204.0
109.735497 152.0
109.810562 184.0
109.848114 228.0
110.067253 188.0
110.545944 188.0
111.933495 160.0
112.028267 148.0
112.544983 216.0
112.878838 264.0
113.206841 144.0
114.032104 224.0
114.721764 156.0
115.014 180.0
115.471237 160.0
115.734451 180.0
115.860809 156.0
115.959381 160.0
116.000107 184.0
116.023689 160.0
116.050186 3852.0
116.829018 156.0
116.973198 164.0
117.054649 448.0
117.293343 148.0
118.071434 232.0
118.186089 168.0
118.363579 204.0
118.385231 184.0
118.515198 160.0
118.879494 264.0
119.161766 144.0
119.520523 184.0
119.9561 156.0
120.707146 224.0
121.500023 176.0
121.708527 236.0
121.995422 172.0
123.084732 168.0
123.281334 156.0
123.482513 160.0
123.949615 172.0
124.033836 176.0
124.58416 148.0
125.14801 192.0
125.371819 168.0
125.407478 180.0
126.393661 136.0
126.773003 188.0
127.284454 220.0
127.457413 164.0
127.650642 104.0
127.821686 240.0
127.983749 152.0
128.050995 428.0
128.168457 152.0
128.220276 140.0
128.418686 168.0
128.491943 160.0
128.804657 152.0
128.976379 140.0
128.994461 160.0
129.050995 152.0
129.109787 164.0
129.279449 188.0
130.065079 608.0
130.105927 196.0
131.540939 152.0
132.045883 564.0
132.212906 200.0
132.808594 216.0
132.825714 160.0
133.065613 172.0
133.461395 148.0
133.644806 152.0
134.056976 160.0
134.308273 148.0
134.465164 148.0
135.359818 168.0
135.71434 168.0
136.195847 144.0
136.817932 244.0
137.018204 160.0
137.189072 288.0
137.587265 200.0
137.92131 160.0
138.108353 200.0
138.428986 148.0
138.581238 148.0
138.915344 176.0
139.160568 188.0
139.670517 180.0
139.988251 140.0
140.011795 144.0
140.096588 172.0
140.445465 168.0
140.808929 200.0
141.068848 144.0
141.272629 116.0
141.399994 188.0
141.931976 212.0
142.065308 280.0
142.393372 176.0
142.571564 168.0
142.628601 168.0
143.071472 348.0
143.37117 220.0
143.552353 212.0
143.790909 140.0
144.008179 140.0
144.04451 17372.0
144.080795 476.0
144.156403 100.0
144.415955 112.0
144.641815 184.0
144.708832 188.0
144.837906 188.0
145.047043 2100.0
145.085892 124.0
145.334412 204.0
146.060425 1468.0
146.086395 208.0
146.23317 164.0
147.063293 336.0
147.084 168.0
147.542984 164.0
148.191605 164.0
148.526154 192.0
149.043259 164.0
149.880051 168.0
150.163071 160.0
150.844299 220.0
150.946991 140.0
151.157349 144.0
151.688812 176.0
151.872726 140.0
152.047943 144.0
152.206482 156.0
152.519806 152.0
152.577484 144.0
152.634033 184.0
152.784058 176.0
153.043396 764.0
153.293732 192.0
153.656189 176.0
154.159012 100.0
154.204376 164.0
154.370026 248.0
154.808029 204.0
154.855087 156.0
155.067551 216.0
155.536942 144.0
155.797668 176.0
156.044144 348.0
156.08342 164.0
157.089706 356.0
157.129593 144.0
158.059738 1732.0
158.094696 512.0
158.196701 224.0
158.387024 172.0
158.469681 148.0
159.064972 176.0
159.217194 176.0
159.6922 184.0
160.074738 152.0
160.7276 160.0
161.055786 140.0
161.078522 152.0
162.366837 144.0
162.772858 160.0
162.808411 148.0
162.838898 188.0
162.98877 152.0
164.940948 196.0
167.071075 376.0
167.198013 216.0
167.581696 256.0
167.643951 172.0
168.04805 164.0
168.598373 196.0
169.074097 232.0
169.164825 148.0
169.439331 176.0
169.685532 156.0
170.061798 728.0
170.094818 368.0
170.612366 184.0
170.7892 152.0
170.992142 172.0
171.055115 11616.0
171.093613 680.0
171.312408 144.0
171.390564 244.0
171.987427 124.0
172.03949 38648.0
172.112411 776.0
172.177628 156.0
172.335098 188.0
172.417648 136.0
172.561905 144.0
172.716782 160.0
173.042725 2940.0
173.0858 292.0
173.113327 100.0
173.267517 124.0
173.684235 132.0
174.04718 284.0
174.09314 160.0
174.345367 148.0
175.331818 140.0
175.408264 152.0
175.642944 152.0
175.722076 272.0
176.104843 180.0
176.21051 172.0
176.456299 172.0
176.585876 168.0
176.720795 140.0
176.919281 172.0
177.041901 368.0
177.229156 184.0
177.406723 160.0
177.449142 160.0
177.597641 140.0
178.309189 160.0
178.495285 152.0
178.673492 152.0
178.899857 192.0
179.150009 200.0
179.948105 172.0
180.288559 208.0
180.341019 168.0
180.556671 168.0
180.805466 176.0
181.091949 148.0
181.42421 140.0
182.096207 1228.0
182.547485 168.0
182.656784 244.0
182.804764 144.0
182.958176 168.0
183.070145 144.0
183.101547 452.0
183.389175 180.0
183.437698 144.0
183.726242 172.0
184.072418 248.0
184.190552 180.0
184.285095 164.0
184.339142 252.0
184.363464 140.0
184.993668 164.0
185.068573 300.0
185.110092 172.0
185.348465 148.0
185.511078 108.0
185.782257 148.0
186.054947 196.0
186.082077 152.0
186.321854 184.0
186.407532 132.0
186.572525 176.0
186.637238 160.0
187.087509 2760.0
187.448929 144.0
187.639725 152.0
188.090622 252.0
188.256393 160.0
188.384766 160.0
188.480377 144.0
189.067993 160.0
190.68367 200.0
190.763382 160.0
191.848007 180.0
192.554382 176.0
193.80751 144.0
194.722946 144.0
194.967438 188.0
195.45224 164.0
195.62941 144.0
196.624481 160.0
196.8461 196.0
197.015396 176.0
197.071915 280.0
197.11998 408.0
197.412292 140.0
197.504578 316.0
197.619278 148.0
198.090073 524.0
198.127869 620.0
198.437119 156.0
198.835434 160.0
198.857895 140.0
198.9487 192.0
199.086792 372.0
199.123154 264.0
199.295975 140.0
199.697968 168.0
199.827362 148.0
200.106201 2640.0
200.42543 116.0
200.483444 188.0
201.02771 208.0
201.111176 892.0
201.84407 188.0
201.965683 156.0
202.121124 1556.0
202.393005 140.0
203.127563 280.0
203.708527 160.0
204.237671 164.0
204.408356 160.0
204.67308 140.0
205.562439 200.0
205.873596 380.0
206.219284 164.0
206.556686 144.0
206.714035 148.0
206.828522 172.0
207.490982 204.0
207.66803 144.0
208.173141 204.0
208.333984 172.0
208.690353 244.0
208.819763 200.0
209.133377 144.0
209.833374 192.0
210.600967 144.0
210.762741 140.0
210.788757 144.0
211.01709 172.0
211.396011 212.0
211.610199 172.0
211.951981 172.0
212.088028 144.0
212.134567 144.0
213.06485 184.0
213.394699 132.0
213.470123 156.0
213.998169 144.0
214.062302 144.0
214.165695 184.0
214.240112 168.0
214.301834 168.0
214.422089 168.0
214.454147 96.0
214.602814 212.0
214.70488 148.0
214.735809 124.0
214.767654 168.0
214.839752 104.0
214.870224 152.0
214.968979 148.0
215.022812 264.0
215.082352 171300.0
215.248764 228.0
215.318924 240.0
215.346222 188.0
215.393982 156.0
215.423981 140.0
215.450272 108.0
215.563293 496.0
215.589096 308.0
215.649612 124.0
215.679306 120.0
215.965347 144.0
216.084625 19244.0
216.124649 348.0
216.15712 156.0
216.298126 164.0
216.327667 156.0
216.358475 136.0
216.500229 96.0
216.732269 128.0
216.937195 136.0
216.98877 128.0
217.054718 104.0
217.087463 1544.0
217.253784 96.0
217.320282 168.0
217.39505 160.0
217.573105 168.0
217.601654 148.0
217.642471 152.0
217.666702 208.0
217.709656 296.0
217.729904 356.0
218.012436 104.0
218.097229 332.0
218.148849 112.0
219.085449 252.0
219.327744 140.0
219.661789 152.0
219.921448 156.0
221.802643 156.0
221.885651 184.0
222.577148 192.0
223.114731 160.0
223.263412 152.0
223.472229 160.0
223.569824 188.0
224.046234 172.0
224.093903 188.0
224.888565 136.0
225.10379 180.0
225.135452 1024.0
226.879318 168.0
227.116669 3632.0
227.250458 96.0
227.305222 140.0
228.028961 164.0
228.101883 13164.0
228.359695 164.0
229.10347 2388.0
229.881073 140.0
229.973236 112.0
230.107941 388.0
230.636108 172.0
230.660294 164.0
230.699585 188.0
230.865891 156.0
230.971741 176.0
231.238007 236.0
231.686142 148.0
232.435028 144.0
232.559464 156.0
233.182083 160.0
233.267197 148.0
233.708176 144.0
233.969467 192.0
234.045319 136.0
234.40242 156.0
234.566986 156.0
235.054962 204.0
235.357162 144.0
235.943771 168.0
236.982849 212.0
237.32457 160.0
237.450302 172.0
237.714127 148.0
238.109573 172.0
238.285248 160.0
238.328262 160.0
240.937851 176.0
241.089005 148.0
241.119751 152.0
241.146484 108.0
241.624176 168.0
242.330078 220.0
242.479034 108.0
242.953232 224.0
242.993561 220.0
243.037003 160.0
243.147385 1512.0
243.782242 180.0
244.024689 164.0
244.150192 512.0
244.790131 152.0
244.88356 324.0
245.12825 752.0
245.338486 204.0
246.29248 128.0
246.549561 216.0
247.300156 208.0
248.26973 124.0
248.465851 172.0
249.272781 168.0
249.514801 152.0
249.892212 140.0
251.811951 168.0
252.143692 200.0
252.561371 184.0
252.804642 160.0
252.997711 200.0
253.133087 1660.0
253.187698 144.0
253.223419 128.0
253.978073 148.0
254.073624 128.0
254.139771 404.0
254.77681 204.0
254.986526 152.0
255.132751 160.0
255.702118 144.0
256.057159 120.0
257.768616 168.0
259.538727 144.0
259.747192 212.0
260.154999 136.0
260.20929 144.0
260.286346 140.0
261.099396 168.0
261.520844 212.0
262.635681 168.0
263.110474 124.0
263.168152 196.0
263.672089 216.0
264.318848 164.0
264.581024 184.0
265.173798 208.0
267.398529 160.0
267.907562 172.0
268.374756 184.0
268.618286 196.0
268.907532 140.0
268.93692 152.0
268.972809 148.0
269.126251 184.0
269.277954 116.0
269.557434 168.0
269.634888 136.0
269.701233 148.0
269.84079 156.0
269.962769 176.0
270.021637 248.0
270.065399 212.0
270.330597 108.0
270.48056 156.0
270.519592 244.0
270.56311 160.0
270.65036 260.0
270.698608 144.0
270.72171 232.0
270.813477 124.0
270.862396 120.0
270.923401 340.0
270.960693 152.0
270.990906 308.0
271.026642 296.0
271.086334 148.0
271.144714 233520.0
271.25528 296.0
271.29483 216.0
271.352142 140.0
271.387939 172.0
271.429443 216.0
271.485291 152.0
271.547485 96.0
271.60965 96.0
271.681488 440.0
271.791016 104.0
271.863312 236.0
271.946075 184.0
271.994873 100.0
272.052368 152.0
272.147339 31812.0
272.23941 140.0
272.280884 160.0
272.382812 176.0
272.433594 152.0
272.522491 156.0
272.734375 200.0
272.808624 108.0
272.897491 156.0
273.053894 108.0
273.07663 180.0
273.149139 2792.0
273.285675 136.0
273.416473 212.0
273.463654 132.0
273.691711 104.0
273.792023 200.0
273.867523 216.0
273.974792 132.0
274.016876 124.0
274.061432 324.0
274.102844 180.0
274.143066 160.0
274.179047 188.0
274.256317 104.0
274.943115 148.0
275.082825 240.0
275.115997 220.0
275.166656 116.0
275.337738 104.0
275.735718 208.0
276.092773 156.0
276.339386 144.0
278.014221 176.0
279.629364 200.0
279.928986 156.0
280.038879 144.0
280.328735 180.0
280.695404 232.0
280.862152 140.0
282.736511 168.0
283.09137 216.0
283.362671 164.0
284.714478 140.0
286.145172 108.0
286.864471 168.0
288.170288 1796.0
288.579498 176.0
288.903839 168.0
289.073334 144.0
289.130859 164.0
289.173035 272.0
289.293335 144.0
289.357666 160.0
289.505463 160.0
290.109863 108.0
290.71347 148.0
291.03595 156.0
291.644043 140.0
291.725616 164.0
293.39032 168.0
293.540344 156.0
294.02475 168.0
296.435699 208.0
301.715637 228.0
301.836639 144.0
302.210449 176.0
303.467468 240.0
303.78653 148.0
305.127045 156.0
305.617432 156.0
308.963318 164.0
309.651031 128.0
310.858856 144.0
310.971161 140.0
311.195801 160.0
312.162109 148.0
313.486816 176.0
314.049774 148.0
314.550812 144.0
314.639069 152.0
315.557648 148.0
317.629333 156.0
318.079987 212.0
318.60553 152.0
318.930695 200.0
319.401825 144.0
320.9617 160.0
321.175659 144.0
321.768036 176.0
323.845642 184.0
324.067749 188.0
326.638184 148.0
327.28598 152.0
327.321991 168.0
327.595734 168.0
328.32019 164.0
330.158386 172.0
332.175812 156.0
332.458801 172.0
332.731049 192.0
333.566559 200.0
334.370392 192.0
337.6539 172.0
338.272247 308.0
339.714874 148.0
339.789429 168.0
341.021057 208.0
341.229126 176.0
341.449158 100.0
341.524414 264.0
341.606934 120.0
341.752747 108.0
341.874298 112.0
341.901398 156.0
342.058594 100.0
342.108978 124.0
342.257233 268.0
342.311615 148.0
342.545807 208.0
342.747162 164.0
342.780945 136.0
342.855988 204.0
342.918732 140.0
342.956024 136.0
343.020935 104.0
343.091278 360.0
343.14032 108.0
343.270325 120.0
343.424286 172.0
343.464691 108.0
343.53186 100.0
343.653442 176.0
343.696289 164.0
343.732086 168.0
343.777649 156.0
343.788483 192.0
343.802582 288.0
343.887268 372.0
343.942291 312.0
343.982758 188.0
344.032013 112.0
344.043884 172.0
344.08078 328.0
344.235107 221288.0
344.339722 112.0
344.367859 144.0
344.453278 140.0
344.513977 192.0
344.542053 292.0
344.581787 756.0
344.627563 260.0
344.691559 360.0
344.738892 100.0
344.786682 128.0
344.841766 7172.0
344.890564 252.0
345.000793 324.0
345.051422 208.0
345.129608 176.0
345.148407 216.0
345.180573 140.0
345.236603 81932.0
345.330841 120.0
345.42215 180.0
345.501587 160.0
345.621918 120.0
345.691406 308.0
345.7341 224.0
345.812927 288.0
345.875 172.0
345.983154 148.0
346.027435 192.0
346.09729 140.0
346.134125 160.0
346.195099 144.0
346.238251 9040.0
346.340027 128.0
346.644135 140.0
346.75769 120.0
346.810577 120.0
346.862091 128.0
346.896271 188.0
346.9664 148.0
346.999451 148.0
347.071625 132.0
347.13504 232.0
347.172028 280.0
347.238922 796.0
347.305145 224.0
347.348541 300.0
347.398346 156.0
347.455139 144.0
347.517273 112.0
347.570282 252.0
347.622894 220.0
347.686066 152.0
347.721924 184.0
347.867554 96.0
347.964935 104.0
348.067719 96.0
348.251434 96.0
348.334076 136.0
348.594543 128.0
348.669464 176.0
349.265839 108.0
349.31485 100.0
349.480774 140.0
349.562805 104.0
352.196594 96.0
355.067291 104.0
356.732544 168.0
357.358124 104.0
357.446198 128.0
363.183716 100.0
365.744598 148.0
374.272644 160.0
392.795197 128.0
481.27536 148.0
483.253723 164.0
503.827911 140.0
567.772278 140.0
692.921631 144.0
1154.807739 176.0
1208.442505 144.0
1380.168457 156.0
1383.416382 148.0
1388.833008 144.0
1392.232178 160.0
1415.364014 164.0
1416.390015 192.0
1438.059814 148.0
1547.490479 164.0
1570.460571 172.0
1594.48999 148.0
1612.342041 232.0
1657.747192 160.0
1695.143188 244.0
1710.838989 160.0
1728.120972 184.0
1749.058838 176.0
1756.633301 156.0
1764.600342 208.0
1802.145142 164.0
1822.98999 148.0
1833.934692 168.0
1839.718018 216.0
1842.442261 172.0
1844.698364 164.0
1852.416992 244.0
1859.028442 152.0
1865.25415 164.0
1866.827515 192.0
1875.859253 216.0
1883.098633 152.0
1888.837891 220.0
1897.853271 224.0
1901.487915 148.0
1902.460083 172.0
1906.020996 224.0
1931.119507 176.0
1946.982666 188.0
1950.778442 148.0
1959.834473 184.0
1995.139404 220.0
1997.033447 152.0
1999.560303 148.0
2000.37915 152.0
