>compound MLS000728601-01!(2S)-3-benzoyl-2,7b-dihydro-1aH-oxireno[2,3-c]quinoline-2-carbonitrile
>formula C17H12N2O2
>ionization [M+H]+
>parentmass 277.098
#inchi InChI=1S/C17H12N2O2/c18-10-14-16-15(21-16)12-8-4-5-9-13(12)19(14)17(20)11-6-2-1-3-7-11/h1-9,14-16H/t14-,15?,16?/m0/s1
#inchikey VOYWJNWCKFCMPN
#Ion_Source LC-ESI
#Instrument qTof
#Compound_Source NIH Natural Product Library
#PI Dorrestein
#Data_Collector VVP/LMS
#Scan -1
#Precursor_MZ 277.098
#ExactMass 276.09
#Charge 1
#CAS_Number N/A
#Pubmed_ID N/A
#Smiles O=C(N1[C@@H](C#N)C2OC2c3ccccc13)c4ccccc4
#INCHI_AUX N/A
#Library_Class 1
#SpectrumID CCMSLIB00000079351
#IonMode Positive
#UpdateWorkflowName UPDATE-SINGLE-ANNOTATED-GOLD
#LibraryQualityString Gold
#TaskID b1d8e8f6646f4e71acdff9ca3d919d08
##Scan# 2185
#SpectrumFile p1-A05_GA5_01_17878.mzXML
#LibraryName NIH_Natural_Products_Library.mgf
#MQScore -1
#Organism NIH_Natural_Products_Library
#TIC_Query 0
#RT_Query -1
#MZErrorPPM -1
#SharedPeaks 0
#MassDiff 0
#LibMZ -1
#SpecMZ 277.098
#SpecCharge 0
#internalFilename spec-00000.mgf

>collision 10
98.730972 152.0
101.785851 204.0
102.04705 96.0
102.350861 72.0
102.840721 160.0
103.29332 52.0
103.655708 76.0
103.712456 188.0
104.051254 176.0
104.79557 168.0
105.005531 80.0
105.033981 11460.0
105.440376 92.0
105.757385 72.0
105.906845 120.0
106.037491 504.0
106.249168 96.0
106.60437 60.0
106.733864 132.0
107.039474 180.0
107.114594 76.0
107.283569 84.0
108.439003 128.0
116.047325 196.0
119.251167 152.0
120.22683 52.0
128.046814 180.0
129.032867 240.0
129.059998 188.0
130.027145 160.0
134.107483 160.0
135.007843 168.0
142.689911 148.0
144.046448 376.0
146.064117 124.0
146.256622 152.0
151.046463 204.0
155.057297 284.0
157.056244 136.0
158.496185 148.0
160.920792 152.0
163.763428 156.0
165.057266 176.0
171.076508 44.0
171.425507 64.0
176.063522 192.0
177.065826 128.0
178.961777 172.0
179.0896 160.0
180.080719 184.0
181.087372 176.0
189.068863 148.0
191.080124 164.0
192.836609 68.0
193.085434 180.0
193.990814 200.0
194.095612 320.0
196.376495 60.0
197.079956 220.0
203.078918 156.0
203.973297 296.0
204.079041 860.0
204.118286 232.0
205.082932 292.0
205.8936 60.0
206.091797 428.0
206.253586 112.0
206.751236 72.0
207.106232 124.0
209.150558 96.0
209.988968 40.0
219.051193 156.0
219.091782 144.0
220.092224 136.0
221.102859 240.0
232.070892 180.0
232.415985 144.0
233.090042 244.0
234.085556 160.0
235.096756 156.0
237.170288 140.0
242.121353 88.0
245.418732 132.0
247.086029 132.0
249.108002 148.0
259.088257 144.0
260.093292 168.0
261.110413 124.0
276.073883 120.0
277.105743 172.0
277.156281 124.0
278.091431 96.0
301.017883 40.0
394.336578 20.0
401.125763 32.0
473.208588 20.0
527.570007 28.0
789.565857 80.0
966.491333 204.0
980.419312 156.0
980.662415 168.0
980.762146 40.0
981.535156 164.0
992.891113 232.0
999.870667 228.0
1012.883118 160.0
1025.374268 120.0
1053.87854 132.0
1055.843628 52.0
1065.572876 144.0
1151.055664 164.0
1157.370972 224.0
1157.425171 76.0
1163.37085 164.0
1179.713013 176.0
1191.005371 176.0
1204.008423 120.0
1204.913208 172.0
1211.547607 104.0
1238.224976 192.0
1264.046387 212.0
1270.131958 88.0
1281.413452 172.0
1288.204834 136.0
1308.161133 56.0
1343.072754 172.0
1343.824219 168.0
1343.904419 140.0
1344.196289 148.0
1356.094482 176.0
1364.682983 212.0
1368.022949 124.0
1368.613159 244.0
1371.278564 224.0
1379.552734 172.0
1389.008789 104.0
1403.816162 124.0
1418.93457 136.0
1426.411377 112.0
1428.56189 88.0
1429.946411 176.0
1432.310547 200.0
1466.45166 120.0
1468.487305 124.0
1486.372803 80.0
1488.959717 168.0
