>compound MLS001148655-01!
>formula C20H21NO4
>ionization [M+H]+
>parentmass 340.155304
#inchi InChI=1S/C20H21NO4/c1-22-17-6-5-13(10-18(17)23-2)9-16-15-12-20(25-4)19(24-3)11-14(15)7-8-21-16/h5-8,10-12H,9H2,1-4H3
#inchikey XQYZDYMELSJDRZ
#origInchi InChI=1S/C20H21NO4.ClH/c1-22-17-6-5-13(10-18(17)23-2)9-16-15-12-20(25-4)19(24-3)11-14(15)7-8-21-16;/h5-8,10-12H,9H2,1-4H3;1H
#Ion_Source LC-ESI
#Instrument qTof
#Compound_Source NIH Pharmacologically Active Library
#PI Dorrestein
#Data_Collector VP/LMS
#Scan -1
#Precursor_MZ 340.161
#ExactMass 339.147
#Charge 1
#CAS_Number N/A
#Pubmed_ID N/A
#Smiles COc1ccc(Cc2nccc3cc(OC)c(OC)cc23)cc1OC.Cl
#INCHI_AUX N/A
#Library_Class 1
#SpectrumID CCMSLIB00000085463
#IonMode Positive
#UpdateWorkflowName UPDATE-SINGLE-ANNOTATED-GOLD
#LibraryQualityString Gold
#TaskID d252d724072548979f1f6f1ced849daf
##Scan# 1476
#SpectrumFile p4-B04_GB4_01_18340.mzXML
#LibraryName Pharm_Active_Library.mgf
#MQScore -1
#Organism Pharm_Active_Library
#TIC_Query 0
#RT_Query -1
#MZErrorPPM -1
#SharedPeaks 0
#MassDiff 0
#LibMZ -1
#SpecMZ 340.161
#SpecCharge 0
#internalFilename spec-00000.mgf

>collision 10
44.888847 168.0
44.910187 92.0
44.922977 224.0
44.948872 180.0
44.972897 164.0
44.991585 164.0
45.032978 244.0
45.058357 156.0
45.075726 424.0
45.085083 56.0
45.110477 116.0
45.133476 156.0
45.145237 140.0
45.163589 216.0
45.193394 152.0
45.221497 276.0
45.234879 128.0
45.253593 176.0
45.267014 256.0
45.283081 160.0
45.292458 164.0
45.32193 68.0
45.347393 60.0
45.358116 124.0
45.410408 168.0
45.438576 156.0
45.464069 172.0
45.49897 192.0
45.521793 112.0
45.533882 112.0
45.575947 152.0
45.592991 128.0
45.605732 144.0
45.623905 220.0
45.636642 220.0
45.661793 152.0
45.669498 84.0
45.671532 144.0
45.69281 136.0
45.714588 152.0
45.74498 140.0
45.773251 160.0
45.790333 152.0
45.831169 104.0
45.886429 48.0
45.955215 132.0
45.983341 280.0
45.997051 232.0
46.021351 104.0
46.056461 144.0
46.07132 188.0
46.082127 144.0
46.111858 108.0
46.121319 112.0
46.165112 184.0
46.186291 156.0
46.221394 128.0
46.236767 200.0
46.260643 176.0
46.283657 172.0
46.294491 120.0
46.318214 140.0
46.340546 140.0
46.356804 180.0
46.379261 180.0
46.396221 200.0
46.431366 204.0
46.461899 92.0
46.545357 132.0
46.561649 40.0
46.609196 176.0
46.627712 180.0
46.654045 152.0
46.679878 108.0
46.696198 184.0
46.711159 108.0
46.730206 188.0
46.749256 140.0
46.799618 268.0
46.811874 132.0
46.825363 168.0
46.862427 348.0
46.888161 152.0
46.904602 132.0
46.924965 232.0
46.959965 168.0
47.004074 108.0
47.042503 128.0
47.065498 196.0
47.095543 120.0
47.112488 148.0
47.137589 168.0
47.152203 196.0
47.160984 192.0
47.178898 180.0
47.214447 44.0
47.231838 196.0
47.243172 60.0
47.271904 232.0
47.281483 132.0
47.303383 120.0
47.31707 172.0
47.326656 148.0
47.394756 200.0
47.41703 160.0
47.448593 172.0
47.484245 192.0
47.540489 128.0
47.552841 140.0
47.569351 152.0
47.602264 196.0
47.613815 204.0
47.639347 128.0
47.654327 296.0
47.705307 72.0
47.719055 112.0
47.72868 76.0
47.768562 140.0
47.7892 220.0
47.840122 128.0
47.854099 188.0
47.864235 260.0
47.878433 148.0
47.893822 236.0
47.907597 128.0
47.918877 320.0
47.940666 148.0
47.969517 176.0
47.984772 96.0
48.002323 132.0
48.024765 132.0
48.054131 180.0
48.075809 104.0
48.089611 200.0
48.118599 160.0
48.133678 152.0
48.153122 240.0
48.17802 152.0
48.19318 208.0
48.220818 96.0
48.238789 336.0
48.262291 60.0
48.332832 156.0
48.377621 176.0
48.401196 276.0
48.413116 180.0
48.422813 180.0
48.431492 164.0
48.462227 176.0
48.520035 148.0
48.569729 68.0
48.583645 140.0
48.614124 184.0
48.626617 116.0
48.645908 196.0
48.661392 152.0
48.673817 148.0
48.712704 252.0
48.74955 384.0
48.796223 80.0
48.840584 108.0
48.857277 112.0
48.87397 140.0
48.885105 112.0
48.915722 164.0
48.93911 140.0
48.973705 56.0
48.992313 100.0
49.081509 100.0
49.116375 64.0
49.139366 108.0
49.18869 188.0
49.215458 184.0
49.232216 140.0
49.255192 240.0
49.285297 116.0
49.313 136.0
49.345398 184.0
49.359379 60.0
49.387348 196.0
49.402737 112.0
49.418125 172.0
49.444767 188.0
49.490906 40.0
49.551132 228.0
49.565144 152.0
49.581009 136.0
49.615597 108.0
49.670288 72.0
49.687122 124.0
49.698345 144.0
49.715183 88.0
49.733429 176.0
49.76712 160.0
49.792866 108.0
49.836441 192.0
49.848591 132.0
49.860249 248.0
49.875294 136.0
49.90451 208.0
49.926781 148.0
49.984131 124.0
50.020172 160.0
50.04129 248.0
50.075268 276.0
50.120163 80.0
50.140648 164.0
50.156437 200.0
50.175591 196.0
50.19532 204.0
50.222515 192.0
50.258343 132.0
50.268219 36.0
50.285156 136.0
50.317619 144.0
50.344204 184.0
50.370842 256.0
50.424976 112.0
50.47533 200.0
50.506981 144.0
50.521126 180.0
50.560745 100.0
50.580559 92.0
50.597546 124.0
50.623032 96.0
50.645691 236.0
50.716537 140.0
50.744377 188.0
50.776085 152.0
50.798737 140.0
50.817223 180.0
50.827152 180.0
50.849079 124.0
50.896851 148.0
50.967724 152.0
50.998989 188.0
51.024574 132.0
51.067234 160.0
51.078613 204.0
51.136433 176.0
51.149761 188.0
51.175213 200.0
51.19532 136.0
51.208691 196.0
51.225231 152.0
51.2523 136.0
51.279415 136.0
51.292202 148.0
51.317863 316.0
51.346382 104.0
51.360645 188.0
51.375744 152.0
51.398731 328.0
51.412148 228.0
51.475254 144.0
51.521809 160.0
51.541183 164.0
51.557671 208.0
51.569103 52.0
51.579109 108.0
51.594833 168.0
51.60627 60.0
51.626289 128.0
51.643452 104.0
51.676353 144.0
51.693523 200.0
51.740757 120.0
51.756916 208.0
51.808064 156.0
51.842911 212.0
51.858025 120.0
51.878284 288.0
51.932774 152.0
51.960026 96.0
51.974979 152.0
51.994465 160.0
52.054756 160.0
52.08873 264.0
52.109341 148.0
52.119396 116.0
52.172573 112.0
52.186951 168.0
52.197014 168.0
52.219666 144.0
52.247356 120.0
52.290524 88.0
52.315758 120.0
52.340019 188.0
52.363949 124.0
52.382637 160.0
52.394196 164.0
52.421539 212.0
52.446072 204.0
52.476345 168.0
52.487789 64.0
52.50951 80.0
52.557117 216.0
52.590305 120.0
52.60041 108.0
52.633095 144.0
52.642826 148.0
52.656723 124.0
52.679916 336.0
52.692833 184.0
52.713062 156.0
52.734062 188.0
52.759312 188.0
52.801598 196.0
52.834888 216.0
52.870686 64.0
52.886013 176.0
52.913086 164.0
52.931641 148.0
52.959454 204.0
52.977833 224.0
52.993767 116.0
53.021297 200.0
53.036793 180.0
53.063335 184.0
53.093784 80.0
53.138752 188.0
53.153263 160.0
53.176479 184.0
53.186642 136.0
53.238907 60.0
53.254375 112.0
53.267956 188.0
53.288292 188.0
53.311543 108.0
53.344971 180.0
53.368233 72.0
53.411861 136.0
53.428276 224.0
53.44241 304.0
53.468601 148.0
53.494652 116.0
53.522465 68.0
53.555958 144.0
53.567612 116.0
53.579266 148.0
53.593674 72.0
53.614277 136.0
53.627354 136.0
53.656506 168.0
53.66671 216.0
53.700253 164.0
53.752769 104.0
53.819077 168.0
53.838692 200.0
53.873787 212.0
53.893375 292.0
53.913403 64.0
53.944096 124.0
53.977722 172.0
53.993805 192.0
54.024521 120.0
54.075737 152.0
54.085423 156.0
54.099155 84.0
54.110867 368.0
54.128437 160.0
54.140152 176.0
54.176769 208.0
54.207539 184.0
54.244179 156.0
54.287094 132.0
54.321896 168.0
54.339752 256.0
54.364445 132.0
54.376183 120.0
54.389439 132.0
54.41156 176.0
54.434959 112.0
54.486313 124.0
54.508919 140.0
54.543671 128.0
54.570084 160.0
54.609249 200.0
54.62891 196.0
54.638577 212.0
54.659805 140.0
54.678936 144.0
54.702488 92.0
54.718681 92.0
54.761383 104.0
54.789371 156.0
54.799683 208.0
54.848103 196.0
54.91024 56.0
54.924149 164.0
54.959515 248.0
55.020329 184.0
55.034195 224.0
55.048962 52.0
55.069637 156.0
55.088837 184.0
55.105167 212.0
55.131687 276.0
55.150051 216.0
55.247509 108.0
55.298801 164.0
55.311089 120.0
55.326832 124.0
55.380234 140.0
55.391537 224.0
55.408379 192.0
55.426159 192.0
55.457279 164.0
55.477764 132.0
55.507683 256.0
55.556629 148.0
55.567013 160.0
55.589584 188.0
55.61153 176.0
55.672657 184.0
55.696163 140.0
55.726192 148.0
55.770454 108.0
55.78532 44.0
55.809105 156.0
55.823975 148.0
55.843307 68.0
55.856693 164.0
55.892399 128.0
55.922165 200.0
55.943783 328.0
55.959377 156.0
55.970818 228.0
55.983204 152.0
55.993626 164.0
56.033844 188.0
56.044273 148.0
56.099018 180.0
56.21426 188.0
56.275459 204.0
56.29039 88.0
56.308491 164.0
56.385998 148.0
56.412903 236.0
56.466732 212.0
56.481686 204.0
56.493652 132.0
56.532555 120.0
56.55201 108.0
56.573586 136.0
56.59692 180.0
56.619381 160.0
56.64185 336.0
56.652336 192.0
56.683796 208.0
56.710773 36.0
56.725334 168.0
56.729759 120.0
56.741478 124.0
56.755222 172.0
56.775768 216.0
56.794739 64.0
56.828491 80.0
56.852222 252.0
56.874954 104.0
56.896778 72.0
56.927864 108.0
56.939304 196.0
56.979378 236.0
57.004921 132.0
57.02457 156.0
57.045498 64.0
57.063538 136.0
57.074982 216.0
57.104633 268.0
57.123695 132.0
57.142471 208.0
57.163563 120.0
57.18689 196.0
57.214432 148.0
57.253132 184.0
57.28175 84.0
57.299431 228.0
57.328018 152.0
57.376686 80.0
57.437008 104.0
57.467178 160.0
57.50943 148.0
57.547173 208.0
57.56076 64.0
57.592316 228.0
57.605183 188.0
57.622299 104.0
57.635975 164.0
57.651436 148.0
57.669533 108.0
57.693718 144.0
57.711143 152.0
57.771599 160.0
57.788994 148.0
57.801102 144.0
57.834282 232.0
57.882839 164.0
57.933891 168.0
57.951466 104.0
58.010101 56.0
58.031326 104.0
58.045605 144.0
58.055462 240.0
58.081177 156.0
58.172417 144.0
58.213409 124.0
58.245937 172.0
58.265049 120.0
58.279205 228.0
58.30481 144.0
58.330395 180.0
58.391212 116.0
58.404003 176.0
58.429111 188.0
58.473293 132.0
58.487846 312.0
58.500767 140.0
58.528168 104.0
58.558628 108.0
58.576241 112.0
58.611946 132.0
58.644371 156.0
58.682789 200.0
58.747723 208.0
58.768993 72.0
58.810196 136.0
58.833092 92.0
58.844563 168.0
58.903057 284.0
58.965981 44.0
58.984589 92.0
59.034775 60.0
59.050789 184.0
59.070206 240.0
59.094429 92.0
59.10973 44.0
59.126564 128.0
59.146461 68.0
59.180271 184.0
59.215359 40.0
59.239868 164.0
59.275105 128.0
59.295029 100.0
59.316486 124.0
59.341015 120.0
59.359413 88.0
59.383949 192.0
59.408142 204.0
59.433105 148.0
59.451454 140.0
59.472218 136.0
59.512852 116.0
59.547764 136.0
59.591183 120.0
59.624989 156.0
59.652657 144.0
59.742405 220.0
59.761845 92.0
59.820911 232.0
59.833469 104.0
59.849579 56.0
59.883457 156.0
59.916294 188.0
59.944962 184.0
59.958946 196.0
59.980816 276.0
60.003651 96.0
60.041813 192.0
60.069962 152.0
60.090054 156.0
60.111618 180.0
60.122421 148.0
60.167183 148.0
60.181793 112.0
60.191883 140.0
60.210415 164.0
60.272205 128.0
60.292259 172.0
60.306206 160.0
60.32872 212.0
60.353104 180.0
60.391243 132.0
60.41135 116.0
60.42218 224.0
60.457767 160.0
60.487858 172.0
60.511768 212.0
60.530521 48.0
60.54509 108.0
60.575695 168.0
60.620365 100.0
60.643612 60.0
60.665314 148.0
60.682331 176.0
60.714931 304.0
60.735825 116.0
60.746838 188.0
60.763187 356.0
60.774754 120.0
60.829124 160.0
60.843716 104.0
60.871662 124.0
60.890297 148.0
60.901169 128.0
60.924183 152.0
60.938824 180.0
61.007523 208.0
61.020824 104.0
61.069733 204.0
61.103046 152.0
61.117928 388.0
61.163944 124.0
61.185471 164.0
61.215321 152.0
61.235565 140.0
61.273281 132.0
61.290089 68.0
61.311905 72.0
61.329308 144.0
61.339958 248.0
61.366459 132.0
61.38673 56.0
61.403885 92.0
61.438927 152.0
61.461605 100.0
61.474636 148.0
61.500858 156.0
61.524719 428.0
61.535976 80.0
61.592739 112.0
61.603676 96.0
61.621613 232.0
61.652039 176.0
61.708382 116.0
61.748665 208.0
61.769489 320.0
61.791328 112.0
61.831955 152.0
61.918659 220.0
61.931644 268.0
61.937172 180.0
61.967777 168.0
61.988884 192.0
62.00079 164.0
62.017746 160.0
62.051445 232.0
62.120255 124.0
62.167324 136.0
62.20813 176.0
62.234821 128.0
62.245811 244.0
62.281094 156.0
62.316494 76.0
62.340061 112.0
62.365128 156.0
62.39822 124.0
62.432549 168.0
62.501385 300.0
62.520908 100.0
62.545094 248.0
62.563404 68.0
62.583874 164.0
62.603783 180.0
62.623241 200.0
62.64687 140.0
62.690983 248.0
62.725658 116.0
62.774086 164.0
62.798687 156.0
62.813961 112.0
62.829735 84.0
62.870426 132.0
62.879204 160.0
62.914955 132.0
62.978115 188.0
63.031853 192.0
63.056091 136.0
63.088524 188.0
63.125092 144.0
63.174255 192.0
63.200768 192.0
63.217857 224.0
63.235832 140.0
63.275406 172.0
63.302322 180.0
63.343498 152.0
63.423878 248.0
63.500416 112.0
63.527382 256.0
63.590851 60.0
63.608311 128.0
63.619419 184.0
63.644867 144.0
63.665466 152.0
63.676582 44.0
63.705173 152.0
63.720142 284.0
63.760784 48.0
63.872082 104.0
63.890018 144.0
63.922989 128.0
63.934937 140.0
63.958004 164.0
63.975513 180.0
63.995132 124.0
64.023277 136.0
64.045578 92.0
64.087883 172.0
64.125237 128.0
64.144592 228.0
64.171471 172.0
64.188057 228.0
64.214523 176.0
64.237709 208.0
64.292885 184.0
64.38369 144.0
64.406052 140.0
64.426819 92.0
64.469109 60.0
64.495529 160.0
64.508453 92.0
64.541893 132.0
64.587692 156.0
64.623169 284.0
64.653862 140.0
64.685875 84.0
64.73391 144.0
64.77182 184.0
64.801178 144.0
64.813995 172.0
64.830917 208.0
64.847801 172.0
64.906013 160.0
64.935829 240.0
64.949318 212.0
65.011269 176.0
65.038513 152.0
65.08828 128.0
65.130035 152.0
65.162712 188.0
65.184662 112.0
65.211983 96.0
65.406052 156.0
65.43264 160.0
65.443626 192.0
65.474541 200.0
65.489395 180.0
65.518364 192.0
65.529144 164.0
65.548325 220.0
65.566048 112.0
65.636978 136.0
65.651489 148.0
65.664391 144.0
65.687897 144.0
65.716011 172.0
65.770882 124.0
65.787018 84.0
65.800598 204.0
65.817696 116.0
65.841919 176.0
65.854836 60.0
65.866142 180.0
65.882301 164.0
65.906532 212.0
65.937317 152.0
65.950165 104.0
65.978752 164.0
65.991776 108.0
66.004509 208.0
66.023567 136.0
66.04718 208.0
66.089241 52.0
66.111893 176.0
66.123222 120.0
66.134552 180.0
66.153976 176.0
66.21981 204.0
66.254379 156.0
66.272202 124.0
66.283539 52.0
66.296806 196.0
66.358101 120.0
66.387726 88.0
66.422012 176.0
66.442436 76.0
66.475479 172.0
66.508965 132.0
66.538185 232.0
66.608696 144.0
66.632378 116.0
66.651878 144.0
66.683632 192.0
66.69738 148.0
66.719627 128.0
66.75428 128.0
66.783554 132.0
66.825851 180.0
66.850258 160.0
66.881767 188.0
66.916992 140.0
66.939789 116.0
66.962585 156.0
67.020973 152.0
67.039154 180.0
67.052841 152.0
67.093727 192.0
67.105988 140.0
67.162437 136.0
67.189407 160.0
67.201035 404.0
67.255127 208.0
67.267494 176.0
67.30014 132.0
67.352402 120.0
67.394875 40.0
67.416122 136.0
67.499489 192.0
67.521355 108.0
67.556732 192.0
67.577995 108.0
67.640182 148.0
67.658195 72.0
67.672928 52.0
67.692574 96.0
67.705673 76.0
67.74662 36.0
67.783195 112.0
67.884583 184.0
67.897415 144.0
67.910538 120.0
67.959755 144.0
67.985344 256.0
68.01738 140.0
68.050018 268.0
68.066444 136.0
68.091072 148.0
68.128853 124.0
68.188004 112.0
68.205536 180.0
68.252113 144.0
68.271851 120.0
68.307808 256.0
68.350334 140.0
68.38372 156.0
68.398537 40.0
68.430565 184.0
68.457306 80.0
68.508759 188.0
68.530281 64.0
68.550194 184.0
68.57312 128.0
68.598778 184.0
68.644012 44.0
68.666443 176.0
68.678642 140.0
68.690193 104.0
68.703384 180.0
68.721581 156.0
68.741333 112.0
68.76609 136.0
68.784248 184.0
68.817261 188.0
68.833771 92.0
68.85524 172.0
68.918015 100.0
68.93454 40.0
68.957672 172.0
68.984123 40.0
68.997345 180.0
69.035378 264.0
69.091614 192.0
69.131317 128.0
69.146217 184.0
69.166077 128.0
69.190857 152.0
69.226906 140.0
69.263969 132.0
69.303772 108.0
69.333359 140.0
69.359299 172.0
69.373131 220.0
69.412926 136.0
69.447754 148.0
69.463654 68.0
69.502495 464.0
69.516975 116.0
69.540382 164.0
69.565559 56.0
69.612053 76.0
69.653572 172.0
69.675163 164.0
69.721687 136.0
69.734451 212.0
69.760529 120.0
69.79982 144.0
69.83049 224.0
69.846909 76.0
69.853561 192.0
69.900124 132.0
69.907776 40.0
69.912773 168.0
69.933327 236.0
69.96228 216.0
69.979515 152.0
69.991173 184.0
70.004387 124.0
70.032806 204.0
70.082329 148.0
70.108383 164.0
70.169449 136.0
70.197029 148.0
70.240181 272.0
70.287872 140.0
70.310699 164.0
70.355598 124.0
70.369263 184.0
70.409729 140.0
70.428101 60.0
70.449493 104.0
70.499939 156.0
70.511192 60.0
70.548012 200.0
70.59523 168.0
70.681374 148.0
70.705635 216.0
70.721725 164.0
70.75753 144.0
70.799385 200.0
70.862984 124.0
70.867706 112.0
70.890663 156.0
70.913315 276.0
70.950188 112.0
70.961922 160.0
70.981285 212.0
70.992599 164.0
71.003845 208.0
71.027023 200.0
71.053123 168.0
71.072624 188.0
71.092758 136.0
71.105095 136.0
71.12706 200.0
71.140915 132.0
71.175011 104.0
71.193481 180.0
71.27243 216.0
71.349739 216.0
71.393463 104.0
71.442574 40.0
71.451576 160.0
71.474358 132.0
71.528053 48.0
71.541527 36.0
71.590347 140.0
71.61393 172.0
71.647621 96.0
71.689743 68.0
71.72345 140.0
71.737724 280.0
71.768967 184.0
71.785828 124.0
71.804375 148.0
71.824615 140.0
71.858353 176.0
71.897163 144.0
71.93589 140.0
71.955902 20.0
71.995079 192.0
72.025032 228.0
72.04744 96.0
72.065155 148.0
72.08799 136.0
72.103203 108.0
72.132622 128.0
72.155602 152.0
72.172508 64.0
72.22155 132.0
72.240845 276.0
72.283051 164.0
72.350876 184.0
72.379784 180.0
72.417885 140.0
72.460236 72.0
72.472092 180.0
72.488091 208.0
72.504288 156.0
72.521103 208.0
72.539879 100.0
72.572845 144.0
72.594131 192.0
72.639931 200.0
72.651802 36.0
72.666435 160.0
72.696693 96.0
72.707794 288.0
72.740044 136.0
72.751923 160.0
72.783234 136.0
72.823242 152.0
72.876305 188.0
72.93708 108.0
72.969513 164.0
72.989784 120.0
73.011887 96.0
73.063972 168.0
73.080246 212.0
73.095688 168.0
73.123886 140.0
73.149704 56.0
73.173233 156.0
73.212326 180.0
73.236542 176.0
73.25869 96.0
73.321602 212.0
73.335365 236.0
73.35289 128.0
73.383095 124.0
73.411446 128.0
73.448097 136.0
73.459839 180.0
73.475143 132.0
73.505905 184.0
73.54174 152.0
73.582932 156.0
73.596367 188.0
73.647186 180.0
73.662971 176.0
73.702271 108.0
73.719353 32.0
73.767212 128.0
73.779175 184.0
73.797073 196.0
73.816795 184.0
73.852707 156.0
73.87162 144.0
73.897186 216.0
73.910873 152.0
73.948517 136.0
73.987816 228.0
74.046104 172.0
74.059807 100.0
74.111198 200.0
74.128334 152.0
74.202042 168.0
74.216988 244.0
74.244209 216.0
74.268913 124.0
74.292931 148.0
74.326019 188.0
74.344406 168.0
74.363281 148.0
74.380447 232.0
74.404404 188.0
74.449722 164.0
74.489731 212.0
74.543602 116.0
74.584846 76.0
74.603104 148.0
74.673416 172.0
74.680511 180.0
74.710381 184.0
74.729446 232.0
74.751503 124.0
74.802223 224.0
74.827538 200.0
74.860451 188.0
74.9049 148.0
74.968376 128.0
74.985878 124.0
75.003113 176.0
75.022072 160.0
75.03759 216.0
75.061356 92.0
75.088608 172.0
75.140579 156.0
75.146614 112.0
75.153412 180.0
75.186714 132.0
75.203194 116.0
75.241165 124.0
75.281624 176.0
75.296425 140.0
75.311966 116.0
75.325211 156.0
75.391411 116.0
75.420052 184.0
75.476143 84.0
75.489975 88.0
75.514183 88.0
75.539345 176.0
75.596321 200.0
75.662994 96.0
75.675117 156.0
75.689064 140.0
75.763611 200.0
75.805023 208.0
75.830803 228.0
75.858749 124.0
75.921799 112.0
75.959328 48.0
75.974937 132.0
76.006653 172.0
76.026993 104.0
76.040878 176.0
76.056496 108.0
76.111412 228.0
76.139153 112.0
76.160675 220.0
76.179779 172.0
76.195564 140.0
76.231903 84.0
76.275322 216.0
76.302231 296.0
76.318817 104.0
76.334465 104.0
76.459717 160.0
76.527603 152.0
76.578728 164.0
76.641609 324.0
76.667488 356.0
76.769806 188.0
76.832596 180.0
76.850861 120.0
76.895416 168.0
76.926834 96.0
76.940132 144.0
76.968735 156.0
76.991432 140.0
77.016945 132.0
77.05072 140.0
77.056488 132.0
77.063461 172.0
77.104988 108.0
77.134041 148.0
77.157425 120.0
77.169662 200.0
77.18763 176.0
77.215134 80.0
77.244865 72.0
77.279915 108.0
77.323601 196.0
77.384865 172.0
77.409378 204.0
77.428642 300.0
77.472435 128.0
77.509224 112.0
77.524994 88.0
77.53804 220.0
77.563553 84.0
77.59861 68.0
77.618172 156.0
77.638939 92.0
77.659729 136.0
77.677528 52.0
77.698013 136.0
77.72139 96.0
77.772278 180.0
77.792152 124.0
77.824944 68.0
77.860062 132.0
77.874115 152.0
77.893433 40.0
77.954926 156.0
77.984802 136.0
78.001923 384.0
78.028748 128.0
78.062645 144.0
78.099968 176.0
78.123947 152.0
78.169456 124.0
78.208176 268.0
78.229454 136.0
78.245026 120.0
78.262749 128.0
78.310295 156.0
78.322624 96.0
78.343765 184.0
78.375694 352.0
78.443993 132.0
78.507057 192.0
78.511902 316.0
78.533676 168.0
78.562355 204.0
78.581764 296.0
78.611382 168.0
78.719437 180.0
78.740173 140.0
78.764893 76.0
78.881981 140.0
78.929718 100.0
78.943047 132.0
78.957176 144.0
79.067696 208.0
79.085396 408.0
79.097786 56.0
79.193306 160.0
79.220665 192.0
79.267807 160.0
79.281982 144.0
79.344017 156.0
79.35997 340.0
79.400551 172.0
79.418495 168.0
79.444374 176.0
79.481064 148.0
79.500107 136.0
79.578201 156.0
79.603065 32.0
79.620819 164.0
79.661674 116.0
79.691872 112.0
79.718529 212.0
79.738075 200.0
79.762833 232.0
79.782509 160.0
79.811752 184.0
79.848305 68.0
79.871422 160.0
79.894547 112.0
79.911812 228.0
79.944366 140.0
79.962166 104.0
79.982147 176.0
80.013786 144.0
80.036934 36.0
80.052956 176.0
80.074326 60.0
80.098671 120.0
80.120636 168.0
80.143288 228.0
80.168076 288.0
80.212822 164.0
80.263176 164.0
80.319954 172.0
80.355247 348.0
80.38398 160.0
80.404144 88.0
80.439842 196.0
80.467583 116.0
80.495186 96.0
80.515396 164.0
80.536263 84.0
80.548767 104.0
80.595215 200.0
80.629456 124.0
80.65419 148.0
80.688156 116.0
80.741798 160.0
80.759682 156.0
80.813347 112.0
80.829262 112.0
80.89209 168.0
80.938637 72.0
80.966522 176.0
81.019234 164.0
81.036705 248.0
81.058655 88.0
81.074783 180.0
81.114212 180.0
81.153648 164.0
81.185928 204.0
81.221794 276.0
81.282852 228.0
81.369568 196.0
81.419685 140.0
81.441086 116.0
81.464127 92.0
81.49675 124.0
81.519821 188.0
81.550377 108.0
81.58992 132.0
81.64566 120.0
81.688828 40.0
81.740997 148.0
81.763214 280.0
81.77951 196.0
81.809395 100.0
81.829079 120.0
81.845398 140.0
81.867012 164.0
81.900696 176.0
81.951981 252.0
81.967636 172.0
81.987709 148.0
82.02771 184.0
82.063416 124.0
82.085052 52.0
82.142761 100.0
82.184258 196.0
82.196251 192.0
82.22937 176.0
82.253654 48.0
82.276299 140.0
82.304909 204.0
82.322456 164.0
82.350334 120.0
82.402641 176.0
82.435242 248.0
82.45874 204.0
82.509346 172.0
82.525299 136.0
82.549126 200.0
82.578583 140.0
82.596558 176.0
82.640877 160.0
82.661278 124.0
82.710144 152.0
82.735489 284.0
82.748016 152.0
82.768127 148.0
82.796082 132.0
82.813347 92.0
82.833275 160.0
82.892639 228.0
82.943802 144.0
82.956497 156.0
82.980064 100.0
82.994568 64.0
83.025391 124.0
83.038086 120.0
83.054413 204.0
83.103394 176.0
83.218262 152.0
83.342323 128.0
83.382858 164.0
83.407394 192.0
83.442894 116.0
83.462448 140.0
83.474815 140.0
83.493935 344.0
83.515762 300.0
83.532127 184.0
83.583069 216.0
83.606728 172.0
83.705025 84.0
83.756386 128.0
83.78334 96.0
83.803383 156.0
83.818344 132.0
83.841652 112.0
83.868752 156.0
83.896332 152.0
83.912605 112.0
83.969269 180.0
83.99115 192.0
84.00975 144.0
84.028999 220.0
84.051353 180.0
84.074417 132.0
84.100632 108.0
84.122719 160.0
84.140785 148.0
84.179131 140.0
84.215729 208.0
84.251854 308.0
84.297867 156.0
84.319794 144.0
84.360329 184.0
84.431313 72.0
84.485992 76.0
84.491051 128.0
84.513634 140.0
84.542908 164.0
84.556343 176.0
84.581924 152.0
84.660072 108.0
84.729675 116.0
84.749825 96.0
84.786476 124.0
84.916077 196.0
84.945984 100.0
84.95948 180.0
84.980843 60.0
85.006348 200.0
85.043236 260.0
85.063202 164.0
85.06842 144.0
85.11483 136.0
85.12989 140.0
85.189262 152.0
85.206665 220.0
85.230415 108.0
85.234886 100.0
85.240303 144.0
85.312271 184.0
85.363167 216.0
85.385445 152.0
85.405975 180.0
85.436462 120.0
85.462646 140.0
85.487984 60.0
85.627899 160.0
85.65184 104.0
85.690529 72.0
85.745804 188.0
85.76297 192.0
85.790039 76.0
85.810318 100.0
85.887772 40.0
85.931938 128.0
85.980026 108.0
86.037239 316.0
86.064339 152.0
86.094482 128.0
86.125877 180.0
86.168365 44.0
86.20462 212.0
86.218254 124.0
86.261505 240.0
86.302773 116.0
86.323624 48.0
86.378342 164.0
86.3862 96.0
86.392708 148.0
86.521599 156.0
86.572311 164.0
86.617897 184.0
86.634567 120.0
86.6605 116.0
86.702316 156.0
86.721458 224.0
86.759636 112.0
86.77787 196.0
86.806969 216.0
86.832893 104.0
86.856224 180.0
86.891457 252.0
86.927505 176.0
86.956779 228.0
86.986977 184.0
87.003044 268.0
87.042442 128.0
87.07045 140.0
87.091499 168.0
87.13166 176.0
87.185631 232.0
87.233238 156.0
87.24646 160.0
87.270294 220.0
87.295311 112.0
87.326927 168.0
87.37529 136.0
87.399475 124.0
87.442276 120.0
87.494392 132.0
87.52977 112.0
87.549042 148.0
87.578583 172.0
87.628487 164.0
87.654572 156.0
87.673203 232.0
87.734711 128.0
87.775162 184.0
87.799973 112.0
87.814896 204.0
87.839142 108.0
87.867928 148.0
87.896973 148.0
87.91861 216.0
87.944199 172.0
88.007057 296.0
88.046318 152.0
88.065826 312.0
88.086517 152.0
88.115425 164.0
88.130371 108.0
88.156532 112.0
88.209755 160.0
88.231033 200.0
88.246254 140.0
88.281784 140.0
88.350983 136.0
88.377174 108.0
88.40712 140.0
88.442673 128.0
88.463264 196.0
88.526924 128.0
88.540031 144.0
88.63932 132.0
88.695541 160.0
88.736549 164.0
88.753654 168.0
88.773087 176.0
88.79866 392.0
88.834808 200.0
88.871078 172.0
88.92289 176.0
88.982559 156.0
89.038887 252.0
89.072693 116.0
89.094322 160.0
89.110268 76.0
89.131935 128.0
89.145966 184.0
89.196709 112.0
89.230247 124.0
89.277557 100.0
89.313293 132.0
89.326454 116.0
89.340439 172.0
89.353584 176.0
89.375374 104.0
89.399834 176.0
89.426903 156.0
89.475174 168.0
89.500053 132.0
89.517365 220.0
89.567398 156.0
89.602638 152.0
89.623909 180.0
89.652176 48.0
89.742653 136.0
89.794487 140.0
89.846382 108.0
89.867134 324.0
89.885918 268.0
89.935936 160.0
89.995064 164.0
90.048355 164.0
90.084244 140.0
90.103134 132.0
90.123917 140.0
90.167854 224.0
90.189049 180.0
90.216522 120.0
90.241096 164.0
90.257141 128.0
90.277908 128.0
90.316742 116.0
90.331871 128.0
90.363747 160.0
90.376167 68.0
90.418907 52.0
90.489784 216.0
90.545753 140.0
90.572266 196.0
90.663208 112.0
90.706802 104.0
90.75074 136.0
90.780739 180.0
90.807114 212.0
90.831947 60.0
90.847122 100.0
90.860405 244.0
90.882286 172.0
90.921967 280.0
90.942726 136.0
91.013779 192.0
91.054253 580.0
91.073837 140.0
91.088203 120.0
91.115845 276.0
91.132812 168.0
91.147095 160.0
91.165657 176.0
91.194611 148.0
91.251633 292.0
91.278297 164.0
91.308678 120.0
91.341011 160.0
91.356232 152.0
91.369545 108.0
91.403793 144.0
91.420799 184.0
91.457085 132.0
91.477585 140.0
91.54847 64.0
91.567513 80.0
91.587349 144.0
91.609413 76.0
91.664665 128.0
91.716125 56.0
91.738632 148.0
91.776207 208.0
91.796867 68.0
91.824799 152.0
91.870575 148.0
91.904991 108.0
91.953194 168.0
91.973618 128.0
91.996529 132.0
92.036949 184.0
92.045555 176.0
92.088181 124.0
92.10537 268.0
92.156952 120.0
92.177963 128.0
92.21727 240.0
92.225182 136.0
92.228554 136.0
92.24868 124.0
92.271622 64.0
92.293198 136.0
92.3013 168.0
92.30896 144.0
92.315178 128.0
92.352852 280.0
92.39019 152.0
92.418892 152.0
92.445679 128.0
92.468643 96.0
92.485474 212.0
92.535637 148.0
92.550957 136.0
92.564362 196.0
92.589653 344.0
92.605606 156.0
92.623734 108.0
92.645599 212.0
92.660126 212.0
92.700188 172.0
92.741539 148.0
92.765526 52.0
92.821129 256.0
92.840302 120.0
92.859482 32.0
92.91127 164.0
92.929192 164.0
92.983192 208.0
93.007217 168.0
93.047844 148.0
93.064812 284.0
93.087852 164.0
93.115906 164.0
93.155075 148.0
93.170441 132.0
93.1884 160.0
93.216553 144.0
93.256172 228.0
93.306892 112.0
93.329903 132.0
93.365997 248.0
93.403038 288.0
93.428047 180.0
93.449211 128.0
93.470718 204.0
93.493111 172.0
93.537514 208.0
93.567139 212.0
93.609215 124.0
93.636932 176.0
93.69371 96.0
93.757301 52.0
93.802017 188.0
93.855606 48.0
93.880676 176.0
93.896103 156.0
93.910484 140.0
93.942696 156.0
94.004135 108.0
94.044159 168.0
94.081337 156.0
94.106438 84.0
94.139259 128.0
94.162437 180.0
94.214584 416.0
94.261024 120.0
94.295746 236.0
94.313141 128.0
94.34742 180.0
94.367264 100.0
94.390465 192.0
94.417542 76.0
94.436882 80.0
94.475227 188.0
94.479286 104.0
94.510391 136.0
94.543289 156.0
94.583931 60.0
94.605225 144.0
94.632523 120.0
94.674202 236.0
94.733582 196.0
94.76403 148.0
94.802574 168.0
94.851685 172.0
94.877129 156.0
94.913826 136.0
94.930725 52.0
94.961754 116.0
94.978844 128.0
95.021889 148.0
95.049515 2228.0
95.083443 436.0
95.103386 76.0
95.125389 136.0
95.198517 176.0
95.24707 188.0
95.377258 100.0
95.403862 128.0
95.425858 144.0
95.443962 192.0
95.460854 240.0
95.517258 124.0
95.563004 116.0
95.622322 216.0
95.649574 156.0
95.711868 120.0
95.725502 124.0
95.776138 176.0
95.863808 172.0
95.89109 164.0
95.923248 168.0
95.947647 120.0
96.052917 252.0
96.169991 376.0
96.188332 152.0
96.222694 64.0
96.267601 140.0
96.303764 124.0
96.326195 132.0
96.378265 356.0
96.389542 160.0
96.407631 188.0
96.437569 128.0
96.482529 244.0
96.529457 200.0
96.543144 164.0
96.578346 224.0
96.599991 180.0
96.640945 164.0
96.709557 64.0
96.740753 172.0
96.789703 200.0
96.815155 160.0
96.838661 140.0
96.855942 160.0
96.885887 152.0
96.90918 92.0
96.94249 88.0
96.977768 200.0
97.051727 132.0
97.059937 96.0
97.063171 220.0
97.103241 140.0
97.185631 296.0
97.227608 212.0
97.247398 228.0
97.262169 160.0
97.279839 120.0
97.295158 164.0
97.33284 256.0
97.413368 140.0
97.442833 156.0
97.500351 192.0
97.521439 212.0
97.539124 108.0
97.580406 116.0
97.619682 152.0
97.666504 216.0
97.717361 176.0
97.738861 160.0
97.761368 204.0
97.781265 108.0
97.82798 140.0
97.843285 200.0
97.862389 136.0
97.901779 172.0
97.934616 212.0
97.956284 120.0
98.011978 104.0
98.05677 128.0
98.087799 232.0
98.199936 208.0
98.245956 172.0
98.261841 332.0
98.327095 176.0
98.349808 160.0
98.366287 456.0
98.394073 64.0
98.461205 212.0
98.483284 136.0
98.489326 248.0
98.50901 216.0
98.544174 124.0
98.560616 160.0
98.595543 120.0
98.620071 192.0
98.635078 148.0
98.654839 100.0
98.746635 104.0
98.767555 48.0
98.817009 148.0
98.900124 132.0
98.927597 116.0
99.074326 148.0
99.100128 160.0
99.141747 260.0
99.160004 168.0
99.217064 176.0
99.238869 148.0
99.278526 104.0
99.294395 168.0
99.322159 112.0
99.359848 112.0
99.395798 168.0
99.413689 164.0
99.437286 168.0
99.461731 152.0
99.492813 196.0
99.512672 288.0
99.566345 124.0
99.586143 96.0
99.61145 184.0
99.631828 164.0
99.64772 164.0
99.745102 124.0
99.760208 132.0
99.774918 120.0
99.814598 176.0
99.839592 200.0
99.905434 152.0
99.925446 116.0
99.948776 180.0
100.001678 136.0
100.019592 124.0
100.033524 108.0
100.054314 156.0
100.097237 180.0
100.111176 288.0
100.170929 348.0
100.236557 212.0
100.287987 64.0
100.325645 204.0
100.404167 200.0
100.479919 228.0
100.51033 216.0
100.545769 156.0
100.569717 164.0
100.59346 116.0
100.629601 108.0
100.657906 160.0
100.699661 144.0
100.727455 128.0
100.789391 68.0
100.819359 204.0
100.845345 88.0
100.892174 84.0
100.925308 40.0
100.952568 360.0
100.987297 68.0
101.013298 168.0
101.042511 212.0
101.087326 212.0
101.101189 108.0
101.179085 180.0
101.235458 240.0
101.25148 104.0
101.273697 164.0
101.306915 136.0
101.337616 140.0
101.463036 160.0
101.483925 136.0
101.509987 196.0
101.547607 132.0
101.599319 200.0
101.631844 144.0
101.659378 204.0
101.716019 156.0
101.752007 276.0
101.797943 216.0
101.80349 108.0
101.810112 244.0
101.833092 140.0
101.917458 128.0
101.931526 100.0
101.973732 176.0
102.007896 168.0
102.04493 564.0
102.070183 216.0
102.130554 208.0
102.194931 48.0
102.231148 96.0
102.269936 196.0
102.339844 116.0
102.377815 184.0
102.416367 144.0
102.450607 124.0
102.467346 144.0
102.486877 136.0
102.532356 56.0
102.555389 176.0
102.573532 336.0
102.595703 92.0
102.613853 208.0
102.64521 188.0
102.670799 180.0
102.692413 104.0
102.705864 108.0
102.736244 180.0
102.742661 124.0
102.749466 164.0
102.767136 152.0
102.790291 84.0
102.841103 320.0
102.900337 116.0
102.930626 160.0
102.944756 176.0
102.976181 168.0
103.001312 128.0
103.018738 204.0
103.055054 2044.0
103.080658 216.0
103.092926 92.0
103.120522 324.0
103.155403 200.0
103.209465 108.0
103.224419 132.0
103.2687 192.0
103.330818 152.0
103.346863 164.0
103.382935 148.0
103.405685 220.0
103.431999 136.0
103.452019 108.0
103.480934 140.0
103.515007 44.0
103.538498 200.0
103.57576 160.0
103.594872 120.0
103.61425 160.0
103.628433 128.0
103.662315 216.0
103.725319 212.0
103.778419 156.0
103.8125 148.0
103.853447 184.0
103.87912 128.0
103.943695 140.0
103.968697 164.0
104.021858 112.0
104.049133 448.0
104.061958 464.0
104.091759 168.0
104.140617 164.0
104.218857 44.0
104.318741 212.0
104.389328 120.0
104.435196 152.0
104.456711 140.0
104.512726 120.0
104.565674 152.0
104.627007 176.0
104.658188 136.0
104.693634 168.0
104.714417 220.0
104.75798 192.0
104.784462 140.0
104.843552 112.0
104.874123 160.0
104.887001 152.0
104.9832 128.0
105.024315 204.0
105.06694 352.0
105.091034 152.0
105.176529 168.0
105.191994 148.0
105.238319 176.0
105.269905 152.0
105.293312 132.0
105.339088 188.0
105.363129 300.0
105.415329 220.0
105.453773 172.0
105.474152 144.0
105.486725 180.0
105.504448 116.0
105.537582 72.0
105.637794 160.0
105.66848 96.0
105.700821 144.0
105.749619 172.0
105.761871 308.0
105.789223 256.0
105.865349 132.0
105.90184 220.0
105.94339 156.0
105.976257 356.0
106.004272 176.0
106.045761 328.0
106.061424 176.0
106.090355 152.0
106.112907 140.0
106.159348 148.0
106.188782 124.0
106.227753 104.0
106.25647 100.0
106.321365 108.0
106.338547 180.0
106.367287 112.0
106.41861 144.0
106.488258 212.0
106.521286 60.0
106.56443 124.0
106.580872 152.0
106.613747 136.0
106.628128 184.0
106.646629 204.0
106.681572 156.0
106.739143 116.0
106.776344 44.0
106.798782 48.0
106.83786 84.0
106.858437 144.0
106.909035 124.0
107.010452 116.0
107.050285 1280.0
107.085327 144.0
107.103401 128.0
107.154907 152.0
107.171387 116.0
107.207123 140.0
107.22496 212.0
107.251755 84.0
107.276489 164.0
107.323914 112.0
107.357086 180.0
107.395828 192.0
107.468864 200.0
107.546707 80.0
107.563217 128.0
107.651993 148.0
107.672798 164.0
107.714485 128.0
107.73645 184.0
107.742622 164.0
107.749954 168.0
107.776939 148.0
107.806931 148.0
107.834824 104.0
107.879265 188.0
107.921875 164.0
107.95163 28.0
107.996841 172.0
108.033844 160.0
108.057808 760.0
108.100571 156.0
108.173012 76.0
108.203476 176.0
108.224762 152.0
108.303459 220.0
108.340622 164.0
108.368996 132.0
108.382805 132.0
108.400826 64.0
108.425697 124.0
108.442665 192.0
108.489952 180.0
108.554222 188.0
108.64341 164.0
108.686981 152.0
108.728477 196.0
108.788673 144.0
108.811508 80.0
108.830193 180.0
108.857185 208.0
108.913506 136.0
108.947128 156.0
108.998436 196.0
109.038589 212.0
109.060783 124.0
109.125229 60.0
109.143936 112.0
109.164734 228.0
109.200089 108.0
109.24585 172.0
109.269562 280.0
109.300224 176.0
109.33033 264.0
109.345573 168.0
109.363365 192.0
109.442688 180.0
109.453468 132.0
109.46843 220.0
109.481499 164.0
109.516441 112.0
109.536911 228.0
109.558105 112.0
109.626656 236.0
109.655418 404.0
109.678833 188.0
109.685547 176.0
109.695099 216.0
109.735252 156.0
109.769524 188.0
109.793633 160.0
109.812408 172.0
109.854118 96.0
109.882919 164.0
109.911087 92.0
109.960533 204.0
109.99115 216.0
110.027328 136.0
110.04612 60.0
110.077438 124.0
110.096237 156.0
110.131737 152.0
110.173515 184.0
110.215302 152.0
110.261276 176.0
110.313049 140.0
110.326836 180.0
110.38736 316.0
110.447769 180.0
110.48291 384.0
110.50383 128.0
110.535797 156.0
110.583618 156.0
110.611839 144.0
110.636665 180.0
110.667084 164.0
110.700584 100.0
110.735466 116.0
110.855598 88.0
110.918472 76.0
110.955421 288.0
111.004433 156.0
111.035889 204.0
111.077835 116.0
111.098816 176.0
111.129021 220.0
111.144966 188.0
111.168053 120.0
111.213654 236.0
111.243607 36.0
111.275101 104.0
111.295334 260.0
111.325417 112.0
111.377998 104.0
111.437172 120.0
111.46833 128.0
111.515526 140.0
111.552399 40.0
111.592346 148.0
111.632294 108.0
111.649117 192.0
111.691711 144.0
111.738556 92.0
111.764977 156.0
111.790062 116.0
111.865829 160.0
111.969002 216.0
112.05442 172.0
112.084862 124.0
112.120689 172.0
112.152298 116.0
112.178268 200.0
112.290199 396.0
112.333641 148.0
112.36528 156.0
112.401154 180.0
112.422249 120.0
112.441246 168.0
112.487114 180.0
112.510902 252.0
112.541313 100.0
112.575073 244.0
112.637451 112.0
112.662949 144.0
112.710167 92.0
112.762566 56.0
112.787628 140.0
112.806648 156.0
112.829903 168.0
112.846817 160.0
112.861618 56.0
112.886993 136.0
112.901794 120.0
112.95768 152.0
112.977936 244.0
113.039047 124.0
113.14724 152.0
113.219986 144.0
113.275436 224.0
113.315765 160.0
113.404549 204.0
113.428848 184.0
113.472153 84.0
113.486221 140.0
113.505302 180.0
113.535034 196.0
113.557526 224.0
113.586403 168.0
113.590439 196.0
113.606476 216.0
113.648033 180.0
113.682503 292.0
113.764145 68.0
113.806602 108.0
113.863937 80.0
113.884262 188.0
113.90136 116.0
113.953156 144.0
113.979317 200.0
114.0075 264.0
114.044106 308.0
114.080666 192.0
114.123032 172.0
114.174217 144.0
114.234818 244.0
114.265678 152.0
114.28891 196.0
114.294571 180.0
114.303841 120.0
114.311005 172.0
114.501953 132.0
114.527512 188.0
114.602074 160.0
114.642555 140.0
114.670265 108.0
114.686821 172.0
114.712982 96.0
114.777702 40.0
114.843185 224.0
114.859917 172.0
114.898422 128.0
114.961678 192.0
115.027306 172.0
115.054688 6332.0
115.141373 180.0
115.149025 148.0
115.153252 240.0
115.179214 156.0
115.231812 176.0
115.261383 160.0
115.309631 140.0
115.355415 148.0
115.370384 192.0
115.402451 140.0
115.474068 128.0
115.529831 148.0
115.571419 148.0
115.633476 160.0
115.666267 100.0
115.681595 116.0
115.714821 212.0
115.746849 104.0
115.776917 176.0
115.800468 60.0
115.821892 68.0
115.899879 148.0
115.933212 300.0
115.968391 240.0
116.012604 148.0
116.050667 1612.0
116.08979 108.0
116.106941 112.0
116.126244 96.0
116.151985 176.0
116.175285 116.0
116.197029 112.0
116.263702 168.0
116.289299 264.0
116.330086 36.0
116.377319 120.0
116.428848 156.0
116.469658 160.0
116.551292 56.0
116.609314 204.0
116.640617 64.0
116.660614 184.0
116.708076 348.0
116.822098 100.0
116.88324 200.0
116.962402 148.0
117.070938 1016.0
117.127846 140.0
117.216179 120.0
117.274361 152.0
117.330406 164.0
117.390854 124.0
117.42675 124.0
117.475784 272.0
117.495277 224.0
117.526672 136.0
117.551392 184.0
117.589256 156.0
117.618484 228.0
117.718781 156.0
117.743324 280.0
117.80368 176.0
117.8311 168.0
117.906723 128.0
117.921852 88.0
117.958595 208.0
117.988861 164.0
118.039925 576.0
118.065865 804.0
118.106567 176.0
118.140244 156.0
118.159714 140.0
118.192169 120.0
118.218132 160.0
118.263435 180.0
118.289558 84.0
118.339348 176.0
118.356667 148.0
118.395645 172.0
118.449791 124.0
118.467125 236.0
118.488785 148.0
118.516579 140.0
118.522141 232.0
118.540787 92.0
118.575462 152.0
118.601471 132.0
118.651321 224.0
118.682823 220.0
118.699028 252.0
118.720711 132.0
118.746956 192.0
118.846519 108.0
118.881241 84.0
118.906334 248.0
118.935493 160.0
118.951591 144.0
118.98542 204.0
119.04982 328.0
119.088486 428.0
119.1092 144.0
119.13092 192.0
119.154823 76.0
119.180893 172.0
119.198273 96.0
119.230873 172.0
119.263474 140.0
119.306381 108.0
119.323387 128.0
119.343903 192.0
119.393379 356.0
119.424591 156.0
119.461342 116.0
119.502678 40.0
119.530968 60.0
119.563042 308.0
119.588654 252.0
119.613998 200.0
119.628502 260.0
119.652847 84.0
119.702927 80.0
119.761543 140.0
119.799866 252.0
119.830246 136.0
119.863815 144.0
119.889328 148.0
119.906166 148.0
119.92514 168.0
119.940399 128.0
119.983994 184.0
120.015907 240.0
120.055946 140.0
120.081215 364.0
120.113075 144.0
120.155533 128.0
120.194237 292.0
120.209122 148.0
120.242859 148.0
120.326836 160.0
120.376732 144.0
120.391151 208.0
120.418221 116.0
120.448051 116.0
120.463234 168.0
120.483749 100.0
120.519829 304.0
120.604111 256.0
120.638908 140.0
120.669518 124.0
120.697937 88.0
120.71981 140.0
120.742455 124.0
120.781044 56.0
120.830238 320.0
120.862999 104.0
120.869202 148.0
120.922668 148.0
120.946953 340.0
120.954742 136.0
120.960609 212.0
121.024994 160.0
121.069107 644.0
121.100601 200.0
121.118126 148.0
121.190414 88.0
121.215973 204.0
121.231155 216.0
121.251396 184.0
121.269791 200.0
121.282768 196.0
121.43367 128.0
121.477707 88.0
121.506126 180.0
121.543427 128.0
121.589508 204.0
121.609261 48.0
121.647057 128.0
121.690483 144.0
121.71244 148.0
121.734398 156.0
121.765144 92.0
121.787506 188.0
121.799065 144.0
121.841942 112.0
121.880318 112.0
121.935204 128.0
121.96508 224.0
121.981773 148.0
122.006844 140.0
122.036232 296.0
122.066208 172.0
122.083801 208.0
122.106224 184.0
122.147926 192.0
122.173981 128.0
122.25386 184.0
122.292488 204.0
122.309219 224.0
122.375595 164.0
122.412567 180.0
122.483002 136.0
122.513 256.0
122.546043 132.0
122.565804 120.0
122.634186 160.0
122.656227 136.0
122.74958 164.0
122.766029 204.0
122.812439 128.0
122.86158 228.0
122.901878 124.0
122.928925 124.0
122.971634 172.0
122.993706 116.0
123.045128 7896.0
123.082016 188.0
123.113846 280.0
123.163406 220.0
123.17775 92.0
123.196861 148.0
123.301292 152.0
123.341827 152.0
123.350197 92.0
123.357437 96.0
123.368195 156.0
123.409019 144.0
123.434158 220.0
123.47094 124.0
123.48642 232.0
123.502151 140.0
123.557205 132.0
123.578896 204.0
123.614075 176.0
123.66851 120.0
123.73114 128.0
123.79245 168.0
123.833893 116.0
123.857063 52.0
123.863243 120.0
123.911423 60.0
123.953522 80.0
123.98233 156.0
124.048203 1400.0
124.074074 184.0
124.161903 100.0
124.221786 160.0
124.265984 180.0
124.28038 272.0
124.341599 140.0
124.381554 96.0
124.433968 196.0
124.47197 132.0
124.528419 164.0
124.588066 180.0
124.617943 196.0
124.659279 80.0
124.721046 128.0
124.801422 184.0
124.825882 180.0
124.892059 180.0
125.013458 136.0
125.052361 164.0
125.097313 152.0
125.111824 116.0
125.129555 116.0
125.222702 192.0
125.271004 76.0
125.351212 144.0
125.393555 100.0
125.438904 144.0
125.527313 156.0
125.56076 228.0
125.578911 144.0
125.620979 144.0
125.672295 132.0
125.692375 52.0
125.732651 212.0
125.774948 284.0
125.822182 152.0
125.859779 128.0
125.877647 160.0
125.91497 168.0
125.96698 56.0
125.992874 140.0
126.05143 180.0
126.086784 348.0
126.131935 136.0
126.192688 100.0
126.236626 80.0
126.302269 196.0
126.323853 148.0
126.358192 352.0
126.373856 64.0
126.435822 104.0
126.48127 108.0
126.516655 228.0
126.560593 176.0
126.590973 168.0
126.608887 152.0
126.6716 152.0
126.698486 124.0
126.71785 124.0
126.75898 100.0
126.78096 84.0
126.810524 36.0
126.849785 56.0
126.89138 164.0
126.922607 184.0
126.940544 204.0
127.001099 220.0
127.043961 1084.0
127.106537 124.0
127.140198 64.0
127.206665 176.0
127.252632 360.0
127.29351 216.0
127.318314 176.0
127.373695 180.0
127.405144 72.0
127.434349 176.0
127.461311 52.0
127.530113 208.0
127.605263 172.0
127.636169 172.0
127.659126 168.0
127.719849 112.0
127.755836 72.0
127.800072 200.0
127.821083 156.0
127.885933 152.0
127.893135 156.0
127.919159 132.0
127.94487 112.0
127.980347 212.0
128.00058 188.0
128.050034 7860.0
128.093582 100.0
128.124405 112.0
128.157211 100.0
128.192627 384.0
128.237701 160.0
128.298141 168.0
128.343658 148.0
128.394516 200.0
128.451904 156.0
128.472214 200.0
128.499802 140.0
128.522476 100.0
128.542145 160.0
128.618881 248.0
128.66449 252.0
128.727173 132.0
128.75209 76.0
128.784393 144.0
128.840836 136.0
128.867126 148.0
128.882538 112.0
128.890945 212.0
128.949493 424.0
128.969421 144.0
128.993561 188.0
129.034439 324.0
129.058273 1412.0
129.100113 264.0
129.13559 116.0
129.173233 132.0
129.209778 132.0
129.247131 176.0
129.294662 224.0
129.337662 144.0
129.360352 152.0
129.422195 188.0
129.475769 136.0
129.514267 444.0
129.539459 100.0
129.627502 208.0
129.670609 160.0
129.720139 244.0
129.73793 80.0
129.768173 228.0
129.792511 216.0
129.840637 140.0
129.874664 184.0
129.981277 48.0
130.039459 532.0
130.065414 2628.0
130.108383 48.0
130.154419 160.0
130.192398 116.0
130.280655 144.0
130.303696 180.0
130.324142 68.0
130.371399 160.0
130.421219 424.0
130.467316 144.0
130.493652 76.0
130.497818 184.0
130.553726 236.0
130.596939 132.0
130.631058 152.0
130.662903 152.0
130.681427 332.0
130.747345 156.0
130.765305 140.0
130.792618 160.0
130.822205 80.0
130.856354 152.0
130.874557 144.0
130.890503 132.0
130.922379 64.0
130.941559 152.0
130.9823 256.0
131.049301 2576.0
131.071426 1796.0
131.128662 192.0
131.191238 64.0
131.211761 108.0
131.257767 376.0
131.274704 276.0
131.301147 196.0
131.310486 40.0
131.316956 140.0
131.342072 276.0
131.349533 124.0
131.358597 204.0
131.382797 240.0
131.417023 136.0
131.462494 132.0
131.490036 76.0
131.51059 64.0
131.531128 164.0
131.577698 268.0
131.603973 184.0
131.649841 152.0
131.672684 136.0
131.70694 148.0
131.73436 144.0
131.759476 164.0
131.791473 116.0
131.812943 272.0
131.852982 144.0
131.901169 160.0
131.921738 180.0
131.971466 224.0
132.005783 116.0
132.056381 1408.0
132.08223 348.0
132.122116 128.0
132.129379 80.0
132.138046 192.0
132.153503 152.0
132.17482 200.0
132.207642 148.0
132.258347 308.0
132.312927 76.0
132.339249 104.0
132.363297 124.0
132.41597 196.0
132.441437 164.0
132.461044 152.0
132.507599 300.0
132.546143 140.0
132.635757 164.0
132.681366 160.0
132.713867 176.0
132.732208 144.0
132.763412 224.0
132.79129 176.0
132.817062 160.0
132.86763 88.0
132.938889 132.0
132.9487 128.0
132.973511 128.0
133.028107 856.0
133.063736 1364.0
133.101639 128.0
133.131485 60.0
133.16037 104.0
133.207275 152.0
133.22287 120.0
133.248627 132.0
133.293152 196.0
133.331345 280.0
133.363525 160.0
133.380737 196.0
133.4095 164.0
133.431015 136.0
133.47879 200.0
133.506073 84.0
133.545166 180.0
133.59346 132.0
133.621078 168.0
133.644928 324.0
133.706207 208.0
133.760986 60.0
133.774277 112.0
133.793213 176.0
133.837982 244.0
133.931839 136.0
133.975601 120.0
134.037811 316.0
134.069885 448.0
134.100143 88.0
134.158371 156.0
134.199158 100.0
134.244476 184.0
134.285431 144.0
134.309845 32.0
134.325989 140.0
134.382996 136.0
134.399826 172.0
134.429825 216.0
134.448273 156.0
134.473663 88.0
134.499908 108.0
134.547974 164.0
134.673477 176.0
134.687164 180.0
134.706863 124.0
134.743835 152.0
134.819092 204.0
134.875549 56.0
134.907639 204.0
134.949265 72.0
134.992172 232.0
135.042618 1040.0
135.101288 116.0
135.136871 124.0
135.157684 168.0
135.188248 176.0
135.262375 116.0
135.372971 176.0
135.39827 168.0
135.483688 164.0
135.542542 176.0
135.572189 108.0
135.597672 156.0
135.627808 96.0
135.669525 256.0
135.703186 140.0
135.727493 40.0
135.787781 136.0
135.812759 136.0
135.871292 108.0
135.890854 224.0
135.954849 268.0
136.05069 1072.0
136.087128 100.0
136.108231 88.0
136.146408 144.0
136.186981 208.0
136.21254 200.0
136.240417 124.0
136.277588 68.0
136.317078 140.0
136.344299 252.0
136.352051 180.0
136.360565 112.0
136.444016 196.0
136.48909 128.0
136.522873 276.0
136.563507 72.0
136.598404 32.0
136.619339 172.0
136.649582 176.0
136.670517 68.0
136.713699 144.0
136.749634 252.0
136.791153 172.0
136.860184 100.0
136.903442 176.0
136.955658 164.0
137.035416 200.0
137.060959 276.0
137.098969 88.0
137.143951 176.0
137.1689 116.0
137.220184 196.0
137.250122 408.0
137.290131 116.0
137.306458 128.0
137.322784 120.0
137.347504 160.0
137.389465 136.0
137.416092 136.0
137.458084 164.0
137.539764 164.0
137.577744 136.0
137.712555 68.0
137.77562 160.0
137.794312 76.0
137.824677 156.0
137.852951 84.0
137.873749 136.0
137.892944 172.0
137.960403 108.0
138.042068 204.0
138.067032 1172.0
138.115646 104.0
138.132736 204.0
138.212875 212.0
138.240906 96.0
138.278122 128.0
138.304092 168.0
138.327499 152.0
138.352448 212.0
138.40242 196.0
138.5242 116.0
138.592773 132.0
138.608536 176.0
138.670929 96.0
138.721039 136.0
138.739792 148.0
138.79184 340.0
138.818039 128.0
138.861572 188.0
138.974319 132.0
138.997681 200.0
139.053894 136.0
139.07547 568.0
139.101517 176.0
139.180862 196.0
139.232529 172.0
139.27179 200.0
139.312378 152.0
139.348022 116.0
139.399323 212.0
139.421387 156.0
139.449371 112.0
139.475647 200.0
139.505737 172.0
139.530945 160.0
139.554443 116.0
139.582367 224.0
139.62178 208.0
139.683594 144.0
139.709671 116.0
139.751831 148.0
139.756653 136.0
139.800613 196.0
139.818802 208.0
139.851181 148.0
139.87204 228.0
139.890869 84.0
139.919113 140.0
139.940308 100.0
139.982544 128.0
140.049149 2888.0
140.138153 116.0
140.166428 100.0
140.225342 76.0
140.291336 60.0
140.319626 112.0
140.372971 144.0
140.410477 220.0
140.442245 36.0
140.47998 128.0
140.515762 172.0
140.549881 248.0
140.60379 136.0
140.613297 64.0
140.627396 148.0
140.652237 92.0
140.720703 120.0
140.746872 144.0
140.786819 172.0
140.83313 92.0
140.860031 164.0
140.895462 80.0
140.92514 164.0
140.969757 160.0
140.986847 172.0
141.020035 140.0
141.058624 2428.0
141.086884 160.0
141.106125 148.0
141.150787 144.0
141.183838 356.0
141.233505 132.0
141.264252 68.0
141.297897 176.0
141.328125 84.0
141.394379 220.0
141.422775 72.0
141.499954 372.0
141.526215 144.0
141.569565 124.0
141.595047 132.0
141.648514 192.0
141.69249 268.0
141.755234 168.0
141.792252 72.0
141.846771 160.0
141.897705 384.0
141.964706 156.0
141.986649 208.0
142.019852 116.0
142.066238 4832.0
142.094925 144.0
142.171692 112.0
142.204926 76.0
142.231033 80.0
142.24765 116.0
142.271378 112.0
142.304626 208.0
142.354263 176.0
142.454239 108.0
142.516006 132.0
142.544571 172.0
142.596802 156.0
142.632446 208.0
142.650009 156.0
142.69664 148.0
142.761169 208.0
142.861099 168.0
142.898788 60.0
142.938492 88.0
142.980042 112.0
143.006531 200.0
143.072784 1508.0
143.13205 140.0
143.158249 144.0
143.202026 176.0
143.264145 120.0
143.268402 160.0
143.297256 216.0
143.355637 180.0
143.424362 160.0
143.513275 104.0
143.539505 208.0
143.575272 108.0
143.627747 192.0
143.652359 152.0
143.677841 176.0
143.742264 160.0
143.770905 96.0
143.801712 132.0
143.832947 108.0
143.862213 184.0
143.886993 156.0
143.914124 136.0
143.935608 100.0
143.972397 176.0
143.995316 252.0
144.045624 2916.0
144.0802 1216.0
144.126694 36.0
144.145813 144.0
144.191208 176.0
144.217499 248.0
144.248581 112.0
144.291611 148.0
144.353775 140.0
144.41481 204.0
144.459 204.0
144.475754 316.0
144.496597 168.0
144.53772 164.0
144.569061 80.0
144.604965 132.0
144.626511 208.0
144.662415 156.0
144.705505 192.0
144.72226 268.0
144.740173 192.0
144.788666 176.0
144.837204 164.0
144.862686 436.0
144.885117 148.0
144.921051 152.0
144.986954 128.0
145.06601 2144.0
145.167938 192.0
145.187134 124.0
145.218307 152.0
145.241592 236.0
145.286163 192.0
145.319061 180.0
145.335846 116.0
145.365875 180.0
145.391037 80.0
145.412643 188.0
145.443848 312.0
145.465439 60.0
145.482254 48.0
145.513458 164.0
145.569748 272.0
145.624786 88.0
145.643127 104.0
145.695984 176.0
145.751068 292.0
145.812119 220.0
145.856979 212.0
145.911285 156.0
145.977188 112.0
145.999878 92.0
146.033569 152.0
146.061386 1548.0
146.113678 136.0
146.157593 208.0
146.182434 184.0
146.231079 148.0
146.246628 200.0
146.301773 124.0
146.3461 188.0
146.371826 124.0
146.400543 216.0
146.428085 208.0
146.446472 112.0
146.542831 128.0
146.602142 208.0
146.644043 128.0
146.685043 256.0
146.725998 108.0
146.747696 40.0
146.771805 72.0
146.788681 212.0
146.814026 112.0
146.948029 124.0
146.993713 160.0
147.046494 328.0
147.080551 1496.0
147.149094 204.0
147.183441 192.0
147.220169 124.0
147.241364 420.0
147.30275 40.0
147.349838 132.0
147.413879 152.0
147.449234 156.0
147.486389 236.0
147.504929 156.0
147.563736 96.0
147.641556 176.0
147.667343 132.0
147.688812 128.0
147.720932 220.0
147.738953 160.0
147.764053 180.0
147.814743 176.0
147.841904 60.0
147.867264 184.0
147.885468 144.0
147.912094 84.0
147.940048 160.0
147.975098 168.0
148.010849 172.0
148.051743 3352.0
148.074875 628.0
148.130936 184.0
148.163834 96.0
148.179428 220.0
148.200287 116.0
148.25116 56.0
148.275406 76.0
148.311752 136.0
148.356094 184.0
148.377197 240.0
148.396606 164.0
148.430542 152.0
148.458466 240.0
148.47905 184.0
148.525131 172.0
148.548981 144.0
148.595474 160.0
148.617462 164.0
148.651276 152.0
148.745941 204.0
148.790573 224.0
148.830902 124.0
148.853699 176.0
148.946365 224.0
148.998489 164.0
149.015488 108.0
149.057648 708.0
149.128677 180.0
149.164017 172.0
149.213287 232.0
149.26828 200.0
149.292587 168.0
149.324203 288.0
149.387451 192.0
149.481232 132.0
149.5383 184.0
149.574814 140.0
149.635666 144.0
149.658768 116.0
149.708725 188.0
149.725769 180.0
149.747681 88.0
149.805313 152.0
149.8573 148.0
149.883179 148.0
149.909882 148.0
149.925537 200.0
150.032776 76.0
150.064468 60.0
150.096161 168.0
150.168304 192.0
150.220551 116.0
150.270905 236.0
150.31221 148.0
150.35907 208.0
150.380371 232.0
150.437729 148.0
150.465652 128.0
150.485977 204.0
150.506256 116.0
150.528061 164.0
150.559357 152.0
150.591553 32.0
150.696594 148.0
150.752792 116.0
150.779678 120.0
150.802795 148.0
150.831009 248.0
150.858139 176.0
150.9207 168.0
150.952133 120.0
150.969177 152.0
150.99971 108.0
151.047607 288.0
151.075974 1824.0
151.14296 180.0
151.147369 100.0
151.161377 236.0
151.197876 72.0
151.218628 108.0
151.294388 112.0
151.347198 200.0
151.381485 156.0
151.40889 104.0
151.486557 144.0
151.508835 80.0
151.555389 208.0
151.605301 152.0
151.665665 128.0
151.709793 160.0
151.741776 84.0
151.763733 80.0
151.822571 120.0
151.858597 128.0
151.916626 268.0
151.948212 144.0
151.997467 204.0
152.05365 168.0
152.075272 336.0
152.101349 224.0
152.148911 188.0
152.201172 212.0
152.226868 96.0
152.270584 204.0
152.299362 176.0
152.3638 104.0
152.372208 52.0
152.382523 100.0
152.393433 64.0
152.400726 136.0
152.42128 116.0
152.467514 152.0
152.552948 220.0
152.588669 160.0
152.619064 144.0
152.637314 148.0
152.699326 72.0
152.741135 184.0
152.780487 136.0
152.839539 204.0
152.868515 160.0
152.913361 112.0
152.957672 188.0
153.065994 136.0
153.091934 120.0
153.111862 192.0
153.159637 168.0
153.184204 124.0
153.27417 220.0
153.292618 96.0
153.30986 116.0
153.339432 32.0
153.361618 280.0
153.389771 200.0
153.406158 264.0
153.445435 64.0
153.464905 80.0
153.509537 324.0
153.544449 228.0
153.582062 272.0
153.613129 176.0
153.726746 144.0
153.751099 100.0
153.77597 56.0
153.799484 168.0
153.862366 208.0
153.916351 180.0
153.980896 108.0
154.023376 232.0
154.064468 500.0
154.126633 56.0
154.165451 152.0
154.188034 128.0
154.208115 128.0
154.254761 176.0
154.269974 204.0
154.306793 172.0
154.329315 44.0
154.346619 64.0
154.379868 180.0
154.408447 84.0
154.473099 116.0
154.507385 136.0
154.54158 156.0
154.573868 184.0
154.606354 104.0
154.633575 156.0
154.673187 64.0
154.730118 188.0
154.789536 148.0
154.80687 76.0
154.866318 180.0
154.919571 132.0
154.948059 128.0
154.972824 124.0
155.038239 2384.0
155.073151 924.0
155.113922 116.0
155.124802 228.0
155.156235 160.0
155.202423 240.0
155.230606 176.0
155.250458 164.0
155.267807 36.0
155.293076 148.0
155.326187 52.0
155.330246 124.0
155.379425 160.0
155.426575 100.0
155.445816 160.0
155.478683 208.0
155.524628 92.0
155.5457 188.0
155.587891 128.0
155.610016 132.0
155.653 200.0
155.682251 332.0
155.744888 108.0
155.800064 164.0
155.846191 52.0
155.87793 140.0
155.933228 172.0
155.969147 180.0
155.994568 136.0
156.004837 96.0
156.045029 15932.0
156.079971 268.0
156.121628 204.0
156.151169 256.0
156.189255 48.0
156.213684 132.0
156.241959 152.0
156.273239 168.0
156.315903 92.0
156.319077 156.0
156.342499 128.0
156.37149 132.0
156.395767 96.0
156.416931 152.0
156.435593 152.0
156.465469 128.0
156.492859 88.0
156.562576 248.0
156.59166 156.0
156.632309 124.0
156.669052 192.0
156.693222 444.0
156.72699 128.0
156.759933 284.0
156.794373 196.0
156.831573 128.0
156.85907 60.0
156.901382 156.0
156.926376 124.0
156.953796 148.0
157.050949 5160.0
157.087051 1084.0
157.122543 376.0
157.158325 208.0
157.18782 176.0
157.215027 388.0
157.237381 112.0
157.24379 172.0
157.275055 176.0
157.300583 52.0
157.325455 116.0
157.355499 144.0
157.404282 112.0
157.420425 156.0
157.492218 232.0
157.527817 40.0
157.568512 164.0
157.585281 156.0
157.603851 128.0
157.623795 96.0
157.651413 120.0
157.679672 108.0
157.684479 228.0
157.747711 176.0
157.851913 112.0
157.877731 104.0
157.922348 80.0
157.947754 136.0
157.970276 60.0
157.995621 148.0
158.026077 296.0
158.060883 17816.0
158.124863 148.0
158.16893 132.0
158.192978 164.0
158.224609 88.0
158.275604 160.0
158.299698 128.0
158.322205 144.0
158.365753 128.0
158.385788 156.0
158.410843 96.0
158.488495 196.0
158.516418 140.0
158.591003 320.0
158.646393 200.0
158.676483 72.0
158.736526 240.0
158.784302 88.0
158.82048 196.0
158.84198 112.0
158.91246 128.0
158.982483 112.0
159.001358 116.0
159.067505 11156.0
159.123291 128.0
159.176285 184.0
159.223495 144.0
159.253494 200.0
159.339035 216.0
159.371704 68.0
159.395676 184.0
159.421951 172.0
159.445053 144.0
159.493561 112.0
159.510788 184.0
159.555161 140.0
159.578827 136.0
159.633102 128.0
159.655746 60.0
159.732285 264.0
159.789047 116.0
159.849442 216.0
159.891388 164.0
159.920959 96.0
159.941254 232.0
159.960175 280.0
159.979965 232.0
160.053665 2168.0
160.074371 4604.0
160.111252 124.0
160.160004 200.0
160.247269 136.0
160.264908 48.0
160.286179 192.0
160.310394 152.0
160.359558 220.0
160.393433 124.0
160.413895 172.0
160.453934 48.0
160.481659 168.0
160.501831 160.0
160.52655 120.0
160.543961 144.0
160.575089 76.0
160.608139 160.0
160.676392 148.0
160.72583 292.0
160.755539 200.0
160.779312 180.0
160.816086 204.0
160.906677 132.0
160.957825 184.0
160.985428 244.0
161.060959 1644.0
161.115616 100.0
161.14798 32.0
161.173233 60.0
161.193451 140.0
161.250824 332.0
161.361664 124.0
161.400726 48.0
161.444687 176.0
161.49585 152.0
161.524643 96.0
161.542358 104.0
161.606903 144.0
161.641022 188.0
161.658737 224.0
161.700485 200.0
161.737198 172.0
161.76535 160.0
161.811569 220.0
161.846054 36.0
161.869431 408.0
161.899231 112.0
161.957474 80.0
161.981689 364.0
162.025513 140.0
162.06604 1280.0
162.100021 240.0
162.153809 132.0
162.182159 160.0
162.204102 96.0
162.24231 236.0
162.275223 76.0
162.33255 116.0
162.373672 224.0
162.408646 184.0
162.426392 152.0
162.48909 228.0
162.532074 208.0
162.586227 116.0
162.607376 120.0
162.644608 192.0
162.673141 168.0
162.712479 212.0
162.752808 168.0
162.776627 164.0
162.799484 204.0
162.846924 188.0
162.897034 136.0
162.977509 228.0
163.010773 132.0
163.029373 112.0
163.048431 144.0
163.081909 148.0
163.170441 184.0
163.21875 180.0
163.274994 140.0
163.327515 288.0
163.35376 48.0
163.368225 104.0
163.415924 156.0
163.447678 72.0
163.470581 124.0
163.508759 160.0
163.557434 180.0
163.613113 212.0
163.648758 228.0
163.707321 124.0
163.740417 160.0
163.777405 116.0
163.801559 104.0
163.819382 104.0
163.848907 244.0
163.893265 188.0
163.916824 212.0
163.971817 116.0
164.030106 52.0
164.051346 152.0
164.13031 60.0
164.161255 180.0
164.21817 132.0
164.225342 180.0
164.289795 188.0
164.352219 224.0
164.369125 172.0
164.421112 80.0
164.467056 176.0
164.505341 180.0
164.548752 128.0
164.592148 112.0
164.648331 64.0
164.671829 180.0
164.73262 124.0
164.799042 180.0
164.86557 328.0
164.94548 152.0
164.977341 240.0
165.006058 192.0
165.056335 180.0
165.121124 140.0
165.22496 276.0
165.289673 144.0
165.364166 92.0
165.406708 480.0
165.446075 100.0
165.487045 164.0
165.579224 116.0
165.598282 320.0
165.654114 136.0
165.673996 136.0
165.702179 120.0
165.751648 208.0
165.779053 352.0
165.86409 112.0
165.896942 144.0
165.948227 228.0
165.970078 148.0
165.989243 144.0
166.018707 148.0
166.063614 160.0
166.097839 152.0
166.120041 208.0
166.164368 348.0
166.261444 180.0
166.302231 96.0
166.435715 196.0
166.484756 200.0
166.53038 204.0
166.534317 152.0
166.57312 232.0
166.623215 152.0
166.652725 188.0
166.680603 212.0
166.743973 172.0
166.775848 260.0
166.819565 148.0
166.993195 188.0
167.0522 160.0
167.088531 76.0
167.106552 128.0
167.134842 168.0
167.226486 200.0
167.244507 132.0
167.305832 120.0
167.315598 52.0
167.324295 132.0
167.356201 328.0
167.388306 124.0
167.445511 232.0
167.474655 256.0
167.521027 72.0
167.559662 160.0
167.65242 260.0
167.678192 124.0
167.698822 184.0
167.770996 156.0
167.80542 184.0
167.823685 136.0
167.843185 136.0
167.860809 100.0
167.961807 164.0
168.005188 176.0
168.054581 860.0
168.094391 180.0
168.176498 232.0
168.230179 136.0
168.262421 100.0
168.280365 224.0
168.299881 120.0
168.326584 400.0
168.34996 132.0
168.363083 92.0
168.370834 176.0
168.475876 84.0
168.522003 176.0
168.547836 168.0
168.59285 180.0
168.623962 148.0
168.640869 188.0
168.661545 184.0
168.719711 176.0
168.760986 148.0
168.780609 152.0
168.825409 200.0
168.848755 128.0
168.892471 208.0
168.942154 248.0
168.949951 128.0
168.961288 188.0
169.009308 212.0
169.054855 452.0
169.091034 188.0
169.127121 144.0
169.147827 96.0
169.16983 72.0
169.179626 100.0
169.292816 176.0
169.319962 92.0
169.373428 132.0
169.407822 388.0
169.44046 188.0
169.468964 148.0
169.489685 212.0
169.509476 188.0
169.55188 156.0
169.629639 88.0
169.648819 196.0
169.7034 248.0
169.755035 144.0
169.790527 152.0
169.813721 136.0
169.847443 136.0
169.893097 348.0
169.927856 76.0
169.974564 72.0
170.000214 156.0
170.060501 7956.0
170.108856 172.0
170.140884 188.0
170.161438 60.0
170.191605 284.0
170.237701 156.0
170.257523 344.0
170.281998 160.0
170.30899 160.0
170.3526 184.0
170.40921 228.0
170.486984 72.0
170.555313 156.0
170.634277 96.0
170.670364 404.0
170.690811 136.0
170.730484 164.0
170.75589 188.0
170.769867 244.0
170.800705 148.0
170.838211 208.0
170.867691 216.0
170.890823 156.0
170.900223 248.0
170.9189 344.0
170.952469 316.0
170.972412 268.0
171.00351 204.0
171.011078 264.0
171.030869 324.0
171.069 121152.0
171.154221 252.0
171.190399 152.0
171.238968 116.0
171.268555 124.0
171.310089 104.0
171.341034 192.0
171.360901 124.0
171.387955 104.0
171.420593 164.0
171.453125 160.0
171.471481 104.0
171.497269 576.0
171.515594 160.0
171.568634 112.0
171.578629 180.0
171.62709 280.0
171.673996 144.0
171.712601 36.0
171.732086 124.0
171.767365 188.0
171.795776 128.0
171.848541 196.0
171.88205 160.0
171.91478 124.0
171.978424 148.0
172.01236 120.0
172.040298 2512.0
172.073517 23352.0
172.125092 308.0
172.18338 72.0
172.219452 168.0
172.265656 88.0
172.285385 36.0
172.34201 196.0
172.361282 152.0
172.397385 72.0
172.428848 124.0
172.452286 64.0
172.469467 148.0
172.488693 56.0
172.507584 48.0
172.530319 156.0
172.61647 144.0
172.636826 164.0
172.660324 128.0
172.707397 44.0
172.751221 160.0
172.784103 100.0
172.803497 76.0
172.853912 172.0
172.872223 124.0
172.890533 172.0
172.935028 60.0
172.964539 164.0
173.04689 1000.0
173.077652 920.0
173.126144 156.0
173.145172 136.0
173.154266 44.0
173.162659 200.0
173.197906 120.0
173.216324 68.0
173.241455 172.0
173.258316 96.0
173.293396 132.0
173.346588 132.0
173.368088 132.0
173.412445 144.0
173.434433 204.0
173.486298 156.0
173.499237 112.0
173.555374 184.0
173.594009 192.0
173.642426 64.0
173.663406 84.0
173.700058 156.0
173.749969 68.0
173.768326 80.0
173.798477 196.0
173.8172 224.0
173.856323 164.0
173.901352 180.0
173.944153 68.0
173.965164 156.0
174.007156 44.0
174.057404 3508.0
174.090454 1988.0
174.147125 212.0
174.167435 120.0
174.222504 84.0
174.263123 80.0
174.30658 88.0
174.338974 268.0
174.397873 152.0
174.475449 96.0
174.52475 176.0
174.545776 320.0
174.570892 160.0
174.603638 164.0
174.654251 196.0
174.695694 60.0
174.714111 200.0
174.775467 224.0
174.79567 172.0
174.816727 124.0
174.882523 200.0
174.90094 112.0
174.932281 132.0
174.968597 244.0
174.998337 156.0
175.030426 148.0
175.039703 360.0
175.075333 8208.0
175.145813 128.0
175.194839 228.0
175.230118 176.0
175.250778 252.0
175.285446 124.0
175.302505 76.0
175.319901 48.0
175.366165 124.0
175.46994 116.0
175.562225 208.0
175.586121 208.0
175.614975 168.0
175.688828 160.0
175.716736 276.0
175.7836 100.0
175.836716 208.0
175.862991 92.0
175.919968 136.0
175.946228 164.0
176.021378 96.0
176.044998 136.0
176.077713 1444.0
176.166031 148.0
176.213425 156.0
176.245895 180.0
176.288177 40.0
176.334854 180.0
176.363342 128.0
176.459991 92.0
176.485062 132.0
176.57486 152.0
176.597488 160.0
176.618652 172.0
176.645111 216.0
176.66362 132.0
176.692719 96.0
176.737701 32.0
176.770935 196.0
176.790085 176.0
176.846191 128.0
176.876236 228.0
176.911789 144.0
176.955368 100.0
176.999741 84.0
177.069321 176.0
177.077194 128.0
177.09137 208.0
177.106506 140.0
177.145401 168.0
177.17984 192.0
177.216934 140.0
177.268356 168.0
177.298416 192.0
177.304901 60.0
177.32695 108.0
177.346786 136.0
177.397141 120.0
177.43956 108.0
177.487427 68.0
177.513794 116.0
177.542969 160.0
177.574799 36.0
177.635315 176.0
177.657028 184.0
177.676544 100.0
177.763153 216.0
177.800308 120.0
177.818878 88.0
177.850723 72.0
177.869308 132.0
177.958237 120.0
177.98877 44.0
178.058517 212.0
178.075485 160.0
178.095001 160.0
178.142807 176.0
178.184937 140.0
178.249084 48.0
178.27034 104.0
178.28894 116.0
178.350067 164.0
178.432068 208.0
178.464676 36.0
178.520218 140.0
178.586716 136.0
178.637253 216.0
178.708374 120.0
178.730362 136.0
178.754318 300.0
178.776443 156.0
178.81926 208.0
178.898041 204.0
178.919327 272.0
178.966568 216.0
179.003876 288.0
179.084961 140.0
179.127045 68.0
179.256378 316.0
179.305557 104.0
179.328415 180.0
179.372513 172.0
179.397308 104.0
179.430832 180.0
179.476517 148.0
179.542831 148.0
179.618011 376.0
179.694214 180.0
179.761566 108.0
179.8013 316.0
179.852982 160.0
179.90303 160.0
179.927841 124.0
179.961761 76.0
179.980453 100.0
180.02713 116.0
180.051453 136.0
180.079391 320.0
180.103302 120.0
180.128342 112.0
180.156723 196.0
180.196793 152.0
180.244888 28.0
180.268936 56.0
180.289093 100.0
180.334335 228.0
180.357849 180.0
180.40181 112.0
180.452637 160.0
180.46286 116.0
180.47258 108.0
180.536255 48.0
180.621841 124.0
180.809128 172.0
180.837799 280.0
180.864426 320.0
180.926895 80.0
181.001862 160.0
181.023285 96.0
181.061951 228.0
181.086685 232.0
181.144943 152.0
181.162567 192.0
181.182343 136.0
181.20108 84.0
181.221497 124.0
181.248291 144.0
181.302917 236.0
181.323654 172.0
181.384094 196.0
181.449921 88.0
181.480331 112.0
181.490143 228.0
181.554428 140.0
181.614197 252.0
181.645065 144.0
181.808731 156.0
181.903152 164.0
181.999313 100.0
182.034225 128.0
182.061279 164.0
182.099655 276.0
182.12822 132.0
182.155594 128.0
182.20343 184.0
182.263657 212.0
182.294785 56.0
182.334534 132.0
182.399612 172.0
182.429169 64.0
182.447998 140.0
182.493698 96.0
182.520584 156.0
182.54747 208.0
182.615921 88.0
182.723862 180.0
182.74382 184.0
182.765976 156.0
182.912262 196.0
182.92247 116.0
182.968475 184.0
183.003036 196.0
183.070694 820.0
183.128769 132.0
183.163788 124.0
183.196106 76.0
183.240738 120.0
183.265945 160.0
183.357773 272.0
183.391296 144.0
183.427231 132.0
183.445816 132.0
183.466034 140.0
183.508728 368.0
183.562653 88.0
183.640854 96.0
183.665131 160.0
183.724472 140.0
183.759552 196.0
183.823273 188.0
183.831558 140.0
183.841187 188.0
183.870178 96.0
183.897171 100.0
183.953857 112.0
183.978149 96.0
184.002441 172.0
184.042953 256.0
184.074265 884.0
184.129364 68.0
184.163116 104.0
184.203537 132.0
184.231995 96.0
184.283325 156.0
184.342148 120.0
184.386017 140.0
184.42926 128.0
184.456284 160.0
184.483322 180.0
184.511993 236.0
184.567123 180.0
184.634735 160.0
184.653656 148.0
184.733139 184.0
184.756454 60.0
184.813263 224.0
184.86467 184.0
184.891739 92.0
184.956696 52.0
184.98938 156.0
185.048325 264.0
185.079178 148.0
185.18454 208.0
185.227463 72.0
185.254547 160.0
185.278259 196.0
185.319565 216.0
185.39386 164.0
185.424286 124.0
185.440826 312.0
185.471329 208.0
185.501144 244.0
185.518814 164.0
185.544083 172.0
185.591385 188.0
185.628571 68.0
185.649338 152.0
185.734344 156.0
185.762848 180.0
185.804871 156.0
185.834717 100.0
185.859131 100.0
185.89537 124.0
185.900543 168.0
185.983963 200.0
186.012405 168.0
186.05574 18180.0
186.11911 320.0
186.171295 100.0
186.191254 208.0
186.231903 52.0
186.27179 56.0
186.293518 60.0
186.35997 140.0
186.427399 136.0
186.472855 52.0
186.497314 136.0
186.516342 180.0
186.557114 72.0
186.588409 84.0
186.615738 128.0
186.675858 220.0
186.712097 156.0
186.747452 144.0
186.766571 140.0
186.796417 100.0
186.858215 212.0
186.893936 52.0
186.911636 68.0
186.950211 256.0
186.973587 200.0
187.063278 23976.0
187.132172 148.0
187.159805 92.0
187.212128 308.0
187.238083 176.0
187.256348 200.0
187.285004 52.0
187.33812 140.0
187.365356 256.0
187.402222 60.0
187.440659 84.0
187.459564 104.0
187.505875 84.0
187.53157 124.0
187.567688 128.0
187.594269 160.0
187.622543 108.0
187.686569 56.0
187.708771 76.0
187.758224 152.0
187.839691 52.0
187.867691 144.0
187.887207 124.0
187.907883 92.0
187.946091 48.0
188.01355 144.0
188.069504 8592.0
188.115036 196.0
188.137466 284.0
188.172623 116.0
188.208847 108.0
188.268188 36.0
188.294495 132.0
188.328278 92.0
188.347778 220.0
188.385635 48.0
188.411331 168.0
188.466293 232.0
188.508575 160.0
188.546844 188.0
188.606964 140.0
188.654968 164.0
188.712036 92.0
188.776474 236.0
188.813217 128.0
188.854416 152.0
188.892258 104.0
188.916931 112.0
188.98436 72.0
189.078201 2804.0
189.172562 104.0
189.230682 60.0
189.288177 92.0
189.318298 128.0
189.348419 176.0
189.379623 184.0
189.506683 252.0
189.568222 136.0
189.602203 164.0
189.623871 156.0
189.642807 152.0
189.679947 200.0
189.770416 176.0
189.792343 124.0
189.874619 204.0
189.910263 88.0
189.938095 136.0
189.9953 120.0
190.025482 28.0
190.052917 156.0
190.086014 2792.0
190.124268 200.0
190.146225 156.0
190.168167 116.0
190.269257 68.0
190.311798 176.0
190.364151 124.0
190.390549 232.0
190.442734 124.0
190.462646 156.0
190.535751 356.0
190.558105 232.0
190.596191 172.0
190.641357 176.0
190.671875 220.0
190.769714 172.0
190.836395 188.0
190.885193 180.0
190.921799 192.0
190.951416 252.0
191.026276 160.0
191.085815 276.0
191.088898 728.0
191.13826 84.0
191.166916 172.0
191.224533 148.0
191.251083 40.0
191.311646 172.0
191.361191 176.0
191.411926 172.0
191.454819 156.0
191.504395 36.0
191.528641 200.0
191.584274 168.0
191.606308 148.0
191.639374 200.0
191.696442 112.0
191.760818 164.0
191.785431 196.0
191.826767 80.0
191.86261 124.0
191.944321 144.0
191.992203 192.0
192.019775 124.0
192.080139 704.0
192.113556 112.0
192.142593 260.0
192.173874 116.0
192.25914 184.0
192.311523 148.0
192.337296 168.0
192.386765 144.0
192.453018 156.0
192.50824 172.0
192.569 156.0
192.59166 116.0
192.640808 172.0
192.673965 112.0
192.721069 208.0
192.748566 152.0
192.797318 124.0
192.817642 168.0
192.903076 172.0
192.944733 156.0
192.991089 156.0
193.013916 168.0
193.03923 132.0
193.081329 152.0
193.270721 128.0
193.307388 164.0
193.34256 124.0
193.382767 180.0
193.403931 196.0
193.48909 172.0
193.539642 268.0
193.557388 108.0
193.601944 128.0
193.639328 48.0
193.669327 220.0
193.694717 40.0
193.735489 112.0
193.775055 252.0
193.80307 148.0
193.874893 124.0
193.927475 168.0
193.952408 120.0
193.972855 160.0
194.002304 108.0
194.055359 316.0
194.095718 264.0
194.218597 128.0
194.240784 208.0
194.312912 188.0
194.348984 104.0
194.408936 164.0
194.504395 28.0
194.52597 160.0
194.546021 216.0
194.587662 144.0
194.640427 96.0
194.676529 112.0
194.795944 272.0
194.832062 136.0
194.880478 300.0
194.920975 72.0
194.943207 232.0
194.967041 228.0
194.996933 144.0
195.022446 164.0
195.054367 116.0
195.105194 220.0
195.137772 108.0
195.232651 132.0
195.263916 164.0
195.354691 196.0
195.374069 120.0
195.407547 104.0
195.440826 164.0
195.540176 132.0
195.647903 120.0
195.660202 112.0
195.664871 208.0
195.693237 172.0
195.751984 192.0
195.80838 216.0
195.840073 276.0
195.94487 40.0
196.020096 168.0
196.038513 132.0
196.074036 648.0
196.184052 116.0
196.257736 140.0
196.286148 116.0
196.350906 132.0
196.374146 192.0
196.402039 112.0
196.430862 120.0
196.463364 192.0
196.519196 108.0
196.574936 156.0
196.630814 104.0
196.689438 152.0
196.778763 52.0
196.801102 120.0
196.820648 120.0
196.852646 216.0
196.900696 168.0
196.920151 144.0
196.949112 100.0
196.98262 196.0
197.088303 372.0
197.205093 220.0
197.246719 132.0
197.283386 228.0
197.382919 228.0
197.410233 40.0
197.456543 136.0
197.513718 136.0
197.654099 132.0
197.699646 236.0
197.754349 84.0
197.796326 144.0
197.824875 140.0
197.849518 132.0
197.88533 136.0
197.91391 72.0
197.939041 172.0
198.016907 284.0
198.068954 388.0
198.079727 132.0
198.092285 392.0
198.110626 296.0
198.14357 216.0
198.195862 60.0
198.256424 164.0
198.308899 120.0
198.367752 136.0
198.432236 140.0
198.520447 276.0
198.526062 156.0
198.569641 148.0
198.6418 108.0
198.673416 88.0
198.711899 140.0
198.754044 76.0
198.788452 152.0
198.824936 168.0
198.872574 304.0
198.900711 116.0
198.920364 184.0
199.004578 368.0
199.04538 188.0
199.093994 184.0
199.133759 112.0
199.181503 192.0
199.244873 96.0
199.302307 60.0
199.448441 140.0
199.527847 192.0
199.540497 48.0
199.548889 180.0
199.608688 172.0
199.628372 32.0
199.681793 108.0
199.706314 212.0
199.75058 208.0
199.86377 216.0
199.949066 36.0
199.985657 140.0
200.007385 128.0
200.070206 1184.0
200.134857 92.0
200.196808 164.0
200.258759 112.0
200.284988 284.0
200.343262 124.0
200.377075 72.0
200.42778 112.0
200.450333 172.0
200.488144 172.0
200.527939 104.0
200.612518 88.0
200.677124 164.0
200.76683 72.0
200.788605 52.0
200.829178 96.0
200.856934 152.0
200.898026 212.0
200.95842 152.0
201.003006 204.0
201.034042 136.0
201.081512 248.0
201.144394 312.0
201.173813 100.0
201.231064 128.0
201.27623 284.0
201.323181 104.0
201.344574 176.0
201.392303 276.0
201.431076 96.0
201.468674 124.0
201.49408 176.0
201.515976 192.0
201.549179 140.0
201.588821 164.0
201.63382 264.0
201.683609 212.0
201.710678 152.0
201.764664 148.0
201.783966 292.0
201.818176 192.0
201.83934 152.0
201.882767 172.0
201.919983 512.0
201.957306 220.0
201.964783 200.0
201.986313 156.0
202.016907 340.0
202.038971 556.0
202.087616 239060.0
202.149658 268.0
202.173019 152.0
202.183258 88.0
202.193253 228.0
202.23848 276.0
202.264923 108.0
202.272552 132.0
202.295441 220.0
202.337143 180.0
202.367935 332.0
202.391739 288.0
202.434631 124.0
202.474228 168.0
202.518188 224.0
202.552628 1688.0
202.582626 280.0
202.60408 156.0
202.654877 196.0
202.681839 224.0
202.714203 88.0
202.767776 64.0
202.811356 108.0
202.852814 140.0
202.902023 132.0
202.92305 100.0
202.953094 220.0
202.977509 236.0
203.017853 148.0
203.049072 300.0
203.091385 34912.0
203.147186 156.0
203.166794 152.0
203.18898 124.0
203.208771 160.0
203.248138 108.0
203.264969 196.0
203.290939 140.0
203.319763 100.0
203.342819 88.0
203.353668 160.0
203.377136 156.0
203.419052 76.0
203.439072 60.0
203.474854 156.0
203.511581 144.0
203.534042 160.0
203.557755 176.0
203.600449 140.0
203.664154 164.0
203.688889 172.0
203.727783 160.0
203.769272 72.0
203.79483 88.0
203.822189 160.0
203.842575 88.0
203.871552 116.0
203.894684 104.0
203.917618 200.0
203.969666 100.0
204.008453 100.0
204.066864 3660.0
204.095734 2736.0
204.168015 140.0
204.198486 200.0
204.216263 156.0
204.257446 148.0
204.284363 172.0
204.318405 236.0
204.373917 96.0
204.380005 140.0
204.387375 40.0
204.396439 260.0
204.439484 236.0
204.491318 320.0
204.5513 108.0
204.595978 168.0
204.638474 148.0
204.672577 148.0
204.70343 92.0
204.724976 172.0
204.762772 280.0
204.801163 96.0
204.887329 64.0
204.950974 212.0
205.00415 72.0
205.065109 368.0
205.091644 364.0
205.179794 180.0
205.223633 28.0
205.291245 196.0
205.411301 124.0
205.422913 192.0
205.486496 112.0
205.507538 140.0
205.53656 92.0
205.55719 116.0
205.610657 148.0
205.662766 72.0
205.699142 112.0
205.722 116.0
205.749771 116.0
205.825668 44.0
205.88736 120.0
205.918381 120.0
205.942764 88.0
205.982742 172.0
206.037308 80.0
206.069611 620.0
206.096161 564.0
206.137024 64.0
206.187378 84.0
206.206192 136.0
206.241074 176.0
206.3228 52.0
206.357117 120.0
206.443848 156.0
206.499817 124.0
206.534409 216.0
206.614502 88.0
206.63739 152.0
206.671722 108.0
206.692703 80.0
206.723236 148.0
206.800507 108.0
206.854889 140.0
206.978348 96.0
207.016602 140.0
207.074997 316.0
207.103271 268.0
207.158417 36.0
207.187073 140.0
207.234665 104.0
207.275879 88.0
207.313141 112.0
207.350388 128.0
207.408752 232.0
207.480179 172.0
207.523941 192.0
207.617004 120.0
207.725998 100.0
207.777634 140.0
207.86058 112.0
207.906754 68.0
207.960739 212.0
208.013336 148.0
208.038788 120.0
208.076736 676.0
208.103973 196.0
208.156494 144.0
208.234039 188.0
208.344589 164.0
208.389145 168.0
208.415543 196.0
208.452362 148.0
208.474564 248.0
208.525177 224.0
208.605728 200.0
208.636826 88.0
208.724121 148.0
208.821777 168.0
208.877853 80.0
209.007324 128.0
209.0522 168.0
209.082428 664.0
209.120544 208.0
209.17688 96.0
209.205032 144.0
209.254852 112.0
209.323639 152.0
209.387299 144.0
209.495926 140.0
209.580307 96.0
209.61377 124.0
209.671906 112.0
209.735916 92.0
209.758545 156.0
209.813034 144.0
209.853302 184.0
209.929092 188.0
209.966568 156.0
210.089066 436.0
210.1483 112.0
210.172577 96.0
210.220444 208.0
210.252182 96.0
210.272385 68.0
210.324341 116.0
210.380051 120.0
210.470291 76.0
210.500717 124.0
210.546646 88.0
210.569748 48.0
210.661087 116.0
210.702621 224.0
210.737289 84.0
210.76329 196.0
210.783524 132.0
210.847382 208.0
210.887558 80.0
210.928024 88.0
210.997406 136.0
211.062912 108.0
211.097305 160.0
211.153549 56.0
211.240311 128.0
211.295288 148.0
211.360489 156.0
211.405228 168.0
211.489166 68.0
211.543701 152.0
211.619431 32.0
211.710495 240.0
211.741043 68.0
211.803406 216.0
211.880081 48.0
211.949615 112.0
211.978012 60.0
212.042343 188.0
212.071533 340.0
212.099045 128.0
212.124664 200.0
212.285858 52.0
212.314865 92.0
212.35257 52.0
212.390274 36.0
212.413467 72.0
212.448288 128.0
212.542282 180.0
212.599152 68.0
212.648499 184.0
212.854614 192.0
212.883652 184.0
213.02887 160.0
213.080048 188.0
213.113113 84.0
213.182846 152.0
213.2061 108.0
213.302017 196.0
213.449585 184.0
213.513092 140.0
213.543335 184.0
213.566605 160.0
213.586975 32.0
213.648056 184.0
213.682968 128.0
213.764435 188.0
213.847107 168.0
213.936157 192.0
214.01767 136.0
214.166199 108.0
214.188812 120.0
214.260986 184.0
214.413696 156.0
214.501282 132.0
214.577072 168.0
214.622269 172.0
214.740372 92.0
214.792862 144.0
214.816208 216.0
214.874542 112.0
214.924149 48.0
214.974548 176.0
214.994186 220.0
215.035034 128.0
215.078812 96.0
215.113846 60.0
215.14447 188.0
215.284851 112.0
215.367874 132.0
215.391251 44.0
215.437988 160.0
215.473038 152.0
215.569458 264.0
215.592834 192.0
215.665909 284.0
215.689285 188.0
215.736053 44.0
215.772781 180.0
215.821518 192.0
215.904221 128.0
215.933533 112.0
216.034332 88.0
216.090271 188.0
216.15593 136.0
216.232269 256.0
216.335754 96.0
216.414078 132.0
216.465866 144.0
216.520218 60.0
216.567078 180.0
216.608078 148.0
216.648361 48.0
216.68132 132.0
216.716476 92.0
216.739914 92.0
216.795441 152.0
216.82782 224.0
216.947998 168.0
216.994904 140.0
217.069855 100.0
217.089142 116.0
217.115128 100.0
217.206848 160.0
217.305054 208.0
217.331528 176.0
217.3862 208.0
217.672684 172.0
217.713791 104.0
217.754913 148.0
217.919403 124.0
217.954666 52.0
218.050354 64.0
218.092056 532.0
218.155273 116.0
218.2034 108.0
218.246506 152.0
218.289764 156.0
218.310349 36.0
218.345627 84.0
218.433868 72.0
218.506104 152.0
218.605606 188.0
218.778168 164.0
218.811783 104.0
218.855942 144.0
218.890045 68.0
218.913605 52.0
219.001007 112.0
219.047607 136.0
219.071808 168.0
219.103989 396.0
219.181656 168.0
219.228455 204.0
219.35553 64.0
219.413254 204.0
219.452576 100.0
219.513504 48.0
219.618118 176.0
219.700546 104.0
219.771362 164.0
219.821518 48.0
219.859879 136.0
219.93071 76.0
219.977936 144.0
220.036987 28.0
220.076263 1640.0
220.111755 828.0
220.14032 64.0
220.213257 196.0
220.240738 208.0
220.329361 248.0
220.364807 164.0
220.416397 96.0
220.468231 112.0
220.530289 112.0
220.606842 116.0
220.719482 172.0
220.820038 144.0
220.848938 108.0
220.878952 152.0
221.03598 168.0
221.081589 1364.0
221.120407 396.0
221.18692 56.0
221.239136 136.0
221.269806 180.0
221.293488 148.0
221.358627 180.0
221.385345 184.0
221.477097 220.0
221.542267 108.0
221.628174 96.0
221.669662 136.0
221.779312 128.0
221.820816 180.0
221.951263 188.0
222.054535 152.0
222.091721 1344.0
222.188538 144.0
222.328949 172.0
222.384369 104.0
222.421371 192.0
222.473419 40.0
222.494202 112.0
222.615936 264.0
222.663452 80.0
222.764435 104.0
222.832764 104.0
222.978363 184.0
223.020065 136.0
223.049698 112.0
223.09874 1636.0
223.156723 100.0
223.189423 168.0
223.25618 188.0
223.293503 104.0
223.333801 220.0
223.376785 272.0
223.457108 64.0
223.499054 168.0
223.525543 164.0
223.632675 188.0
223.661591 56.0
223.719421 28.0
223.896423 88.0
223.976212 200.0
224.071655 936.0
224.107162 1664.0
224.144897 76.0
224.201019 48.0
224.234879 208.0
224.299866 116.0
224.380356 200.0
224.414902 344.0
224.484711 132.0
224.51976 176.0
224.550613 84.0
224.576721 184.0
224.58551 140.0
224.651733 108.0
224.735275 196.0
224.917313 124.0
224.947159 128.0
225.079193 624.0
225.112686 200.0
225.165115 148.0
225.218094 184.0
225.306778 132.0
225.347336 132.0
225.428009 76.0
225.472839 92.0
225.51767 268.0
225.538589 32.0
225.589401 172.0
225.62117 160.0
225.711975 48.0
225.747864 136.0
225.766953 104.0
225.788376 88.0
225.81987 180.0
225.873474 192.0
225.988434 140.0
226.009552 164.0
226.083527 464.0
226.112869 176.0
226.17569 108.0
226.244537 80.0
226.36615 116.0
226.439163 176.0
226.460129 128.0
226.552979 56.0
226.600922 144.0
226.690903 120.0
226.72377 56.0
226.761795 160.0
226.807693 176.0
226.831665 92.0
226.879639 124.0
226.928909 92.0
227.095032 1288.0
227.129288 164.0
227.155518 176.0
227.192963 160.0
227.296524 128.0
227.323532 92.0
227.347534 152.0
227.46759 136.0
227.602692 324.0
227.701782 124.0
227.725815 160.0
227.759033 196.0
227.800903 148.0
227.845963 116.0
227.957138 212.0
227.978165 100.0
228.023239 140.0
228.063858 164.0
228.098907 276.0
228.230667 212.0
228.287796 104.0
228.326889 104.0
228.383011 188.0
228.456223 144.0
228.679611 152.0
228.727051 188.0
228.748123 160.0
228.924484 152.0
228.988998 324.0
229.03418 92.0
229.093521 188.0
229.175766 172.0
229.275208 156.0
229.303665 144.0
229.42865 88.0
229.486206 236.0
229.679199 156.0
229.700317 128.0
229.724457 164.0
229.831299 152.0
229.881348 124.0
229.929626 100.0
230.056396 104.0
230.094055 312.0
230.128845 148.0
230.151596 180.0
230.215042 172.0
230.38858 252.0
230.433411 100.0
230.467133 40.0
230.727051 140.0
230.76889 176.0
230.77951 148.0
230.831635 180.0
230.884277 144.0
230.936447 144.0
231.062744 200.0
231.126282 160.0
231.286667 164.0
231.319962 76.0
231.398682 120.0
231.422897 96.0
231.463043 168.0
231.559082 156.0
231.625793 148.0
231.768188 160.0
231.889404 112.0
231.94603 244.0
232.013672 108.0
232.070251 188.0
232.108398 392.0
232.150116 180.0
232.244125 216.0
232.2957 152.0
232.338165 128.0
232.400406 192.0
232.466339 148.0
232.5961 84.0
232.629486 192.0
232.662888 180.0
232.70842 172.0
232.747131 160.0
232.799515 116.0
232.893661 128.0
232.924042 92.0
233.025848 136.0
233.084732 888.0
233.123413 576.0
233.215729 124.0
233.251816 284.0
233.305786 128.0
233.363907 156.0
233.425491 104.0
233.556274 156.0
233.626236 68.0
233.649414 168.0
233.689911 116.0
233.796616 128.0
233.84227 164.0
233.906189 40.0
233.957932 140.0
233.996414 176.0
234.089157 2192.0
234.130997 160.0
234.138306 200.0
234.19545 196.0
234.253006 116.0
234.328583 148.0
234.421906 192.0
234.45137 148.0
234.474274 132.0
234.512314 88.0
234.545853 144.0
234.579376 196.0
234.650269 156.0
234.673599 88.0
234.710403 192.0
234.750107 76.0
234.784485 204.0
234.847702 60.0
234.89798 108.0
234.930161 124.0
234.949753 344.0
235.021591 60.0
235.058441 200.0
235.097763 2452.0
235.155853 96.0
235.177216 140.0
235.238266 128.0
235.290161 156.0
235.453629 184.0
235.503922 52.0
235.592499 56.0
235.613876 64.0
235.638321 196.0
235.733047 116.0
235.791107 92.0
235.818375 152.0
235.823761 140.0
235.867523 140.0
235.899933 128.0
235.937302 164.0
235.965332 160.0
236.03566 84.0
236.070587 512.0
236.108261 1772.0
236.188568 196.0
236.283401 96.0
236.323288 224.0
236.421967 168.0
236.50679 100.0
236.581909 184.0
236.623108 176.0
236.678223 160.0
236.718033 36.0
236.80072 100.0
236.828278 100.0
236.940598 144.0
236.975311 60.0
237.018219 68.0
237.077896 1524.0
237.116592 992.0
237.141846 220.0
237.333923 132.0
237.363815 128.0
237.404449 240.0
237.432053 72.0
237.499527 128.0
237.538025 144.0
237.579269 144.0
237.6651 144.0
237.677277 140.0
237.684402 136.0
237.725357 144.0
237.78627 156.0
237.793549 72.0
237.80481 144.0
237.880005 176.0
237.926056 88.0
237.997452 124.0
238.085815 2672.0
238.205505 160.0
238.26387 64.0
238.452148 132.0
238.501144 148.0
238.534286 112.0
238.555817 112.0
238.586548 56.0
238.774109 144.0
238.804871 112.0
238.958679 112.0
239.004822 132.0
239.091843 1072.0
239.130096 136.0
239.198715 268.0
239.263351 164.0
239.380356 72.0
239.466583 144.0
239.574387 176.0
239.599731 232.0
239.630005 76.0
239.697632 200.0
239.811066 180.0
239.828201 76.0
239.85524 128.0
239.904129 108.0
239.941116 124.0
239.974258 160.0
240.05986 236.0
240.101776 5180.0
240.172394 120.0
240.208755 188.0
240.278198 160.0
240.307724 92.0
240.345154 36.0
240.37738 180.0
240.431564 168.0
240.508713 168.0
240.538635 144.0
240.549286 132.0
240.562943 148.0
240.595154 72.0
240.625854 156.0
240.66925 32.0
240.692841 156.0
240.721741 176.0
240.743347 192.0
240.769363 152.0
240.787903 112.0
240.891602 204.0
240.937943 160.0
240.967026 240.0
241.002823 36.0
241.027542 44.0
241.063263 64.0
241.107925 3912.0
241.246979 32.0
241.272568 144.0
241.344467 144.0
241.4263 112.0
241.506714 40.0
241.655197 92.0
241.713989 76.0
241.769241 108.0
241.863846 132.0
241.895569 140.0
241.930634 44.0
242.008148 220.0
242.076187 220.0
242.109543 576.0
242.162872 180.0
242.19693 148.0
242.229492 172.0
242.255783 164.0
242.317749 184.0
242.339432 148.0
242.421432 156.0
242.466476 64.0
242.528473 276.0
242.579025 96.0
242.615921 164.0
242.704514 208.0
242.738068 204.0
242.788895 152.0
242.971893 268.0
243.083603 144.0
243.106186 180.0
243.140488 168.0
243.204636 92.0
243.238876 128.0
243.310165 160.0
243.387787 164.0
243.457291 180.0
243.505798 152.0
243.545547 124.0
243.605194 92.0
243.664215 176.0
243.728027 104.0
243.828903 208.0
243.881729 112.0
243.912811 132.0
243.971878 68.0
244.072998 160.0
244.130447 96.0
244.183319 80.0
244.220642 116.0
244.248627 188.0
244.360626 224.0
244.444626 128.0
244.639481 136.0
244.665619 188.0
244.721649 72.0
244.796387 64.0
244.89537 116.0
244.931686 156.0
244.985123 220.0
245.0802 264.0
245.145279 212.0
245.268845 184.0
245.280319 120.0
245.336624 152.0
245.386597 164.0
245.507324 172.0
245.563019 168.0
245.628525 108.0
245.656586 116.0
245.792801 140.0
245.834427 112.0
245.893265 164.0
246.031067 80.0
246.056046 92.0
246.090057 256.0
246.118362 212.0
246.15596 248.0
246.209045 140.0
246.417175 168.0
246.476044 152.0
246.518311 132.0
246.568314 144.0
246.644592 196.0
246.687088 160.0
246.780869 120.0
246.921585 148.0
246.946609 44.0
246.987259 140.0
247.099518 444.0
247.237564 128.0
247.2939 148.0
247.340836 120.0
247.409714 160.0
247.453537 96.0
247.541214 100.0
247.623947 220.0
247.691544 140.0
247.732254 112.0
247.760452 144.0
247.80011 92.0
247.841919 128.0
247.995468 140.0
248.069122 896.0
248.109131 1792.0
248.227448 168.0
248.283905 100.0
248.385651 180.0
248.453278 184.0
248.487793 128.0
248.50975 176.0
248.530457 100.0
248.578781 92.0
248.603882 112.0
248.647812 120.0
248.701172 128.0
248.789062 52.0
248.845566 148.0
248.876968 60.0
248.952621 212.0
249.002579 120.0
249.079437 1148.0
249.114151 2996.0
249.191055 144.0
249.292313 88.0
249.299515 116.0
249.360733 84.0
249.466187 156.0
249.535248 124.0
249.64682 168.0
249.687698 64.0
249.750534 172.0
249.785202 212.0
249.813507 164.0
249.841827 156.0
249.896164 132.0
249.932114 80.0
249.964523 320.0
249.99501 132.0
250.085922 3216.0
250.119431 1144.0
250.159668 80.0
250.246323 76.0
250.314987 128.0
250.386353 116.0
250.417847 64.0
250.449356 100.0
250.545334 68.0
250.557632 32.0
250.567795 80.0
250.641525 60.0
250.665314 112.0
250.69194 144.0
250.789627 76.0
250.848694 168.0
250.896805 192.0
251.001648 128.0
251.044998 100.0
251.093826 2836.0
251.164841 60.0
251.265213 176.0
251.296799 136.0
251.322586 160.0
251.48526 132.0
251.52803 160.0
251.567581 152.0
251.635818 344.0
251.680038 160.0
251.760315 184.0
251.88768 140.0
251.947906 288.0
252.101837 11648.0
252.150345 120.0
252.174652 184.0
252.238419 332.0
252.277328 164.0
252.36171 48.0
252.399658 120.0
252.432449 312.0
252.589401 120.0
252.614716 108.0
252.646347 44.0
252.741257 112.0
252.81189 88.0
252.819046 144.0
252.833023 132.0
252.897629 156.0
252.943802 168.0
252.965958 92.0
252.998932 140.0
253.106445 2368.0
253.184433 48.0
253.206589 92.0
253.327744 176.0
253.39032 48.0
253.463181 116.0
253.504379 152.0
253.536072 64.0
253.587631 196.0
253.706024 84.0
253.748444 60.0
253.777725 152.0
253.816925 168.0
253.914429 336.0
253.961136 112.0
254.030685 152.0
254.070282 124.0
254.117432 3412.0
254.18689 236.0
254.259125 40.0
254.302216 172.0
254.383896 172.0
254.409958 124.0
254.494553 148.0
254.552887 116.0
254.647171 176.0
254.700455 164.0
254.740753 64.0
254.779526 112.0
254.946442 32.0
254.987488 128.0
255.04361 220.0
255.110138 608.0
255.170502 96.0
255.23494 176.0
255.266159 200.0
255.311951 188.0
255.447433 36.0
255.564087 168.0
255.627304 180.0
255.651062 144.0
255.693573 156.0
255.744049 184.0
255.873871 92.0
255.899338 44.0
255.947968 176.0
256.020325 272.0
256.054352 240.0
256.107269 252.0
256.189148 44.0
256.222168 176.0
256.295349 180.0
256.33252 188.0
256.368103 144.0
256.552979 164.0
256.61618 156.0
256.69339 112.0
256.753296 128.0
256.812164 220.0
256.855377 148.0
256.893646 148.0
256.953094 240.0
257.024445 136.0
257.107422 240.0
257.1521 48.0
257.193604 128.0
257.233673 108.0
257.284973 268.0
257.361145 148.0
257.383942 256.0
257.45166 192.0
257.463196 160.0
257.58313 172.0
257.643829 152.0
257.677795 152.0
257.799683 124.0
257.835541 76.0
257.957001 140.0
257.985474 164.0
258.027344 68.0
258.095428 292.0
258.136047 92.0
258.247986 116.0
258.394897 172.0
258.42392 184.0
258.513519 184.0
258.660736 204.0
258.801575 140.0
258.870392 180.0
258.904053 180.0
259.00412 232.0
259.064209 164.0
259.099457 136.0
259.201202 180.0
259.224396 116.0
259.314117 128.0
259.451965 188.0
259.663605 148.0
259.836792 160.0
259.865692 128.0
259.888153 112.0
259.921387 300.0
259.986053 72.0
260.040283 204.0
260.066772 252.0
260.10498 404.0
260.153412 128.0
260.209076 72.0
260.387787 228.0
260.430664 96.0
260.6026 288.0
260.624207 204.0
260.658752 216.0
260.681 148.0
260.713379 152.0
260.751953 232.0
260.865845 156.0
260.889099 144.0
260.922302 80.0
260.983398 116.0
261.079254 308.0
261.11438 148.0
261.205292 176.0
261.243896 160.0
261.285004 176.0
261.414825 124.0
261.494873 56.0
261.517395 100.0
261.662262 136.0
261.748718 136.0
261.829681 148.0
261.861725 152.0
261.876404 184.0
261.92453 140.0
261.993958 124.0
262.086853 2012.0
262.119293 144.0
262.184052 152.0
262.225586 132.0
262.264648 120.0
262.311951 100.0
262.351685 108.0
262.454834 124.0
262.483856 152.0
262.517426 136.0
262.564972 104.0
262.626587 92.0
262.722534 152.0
262.764465 84.0
262.806396 100.0
262.860016 84.0
262.902496 112.0
262.945374 116.0
263.038757 140.0
263.094299 2824.0
263.145294 76.0
263.195221 164.0
263.300293 144.0
263.326141 52.0
263.410095 212.0
263.468262 140.0
263.507019 208.0
263.557556 224.0
263.623352 216.0
263.689575 268.0
263.723633 132.0
263.765533 124.0
263.82782 164.0
263.862518 100.0
263.93042 196.0
264.065247 388.0
264.101929 8264.0
264.176208 196.0
264.216919 172.0
264.23938 208.0
264.27652 188.0
264.305634 144.0
264.350922 120.0
264.383301 184.0
264.405945 80.0
264.433197 104.0
264.46524 212.0
264.514374 168.0
264.55484 124.0
264.624115 164.0
264.671387 84.0
264.714081 88.0
264.73938 148.0
264.817749 140.0
264.833069 164.0
264.885132 160.0
264.914276 84.0
264.95639 176.0
264.979065 120.0
265.000885 60.0
265.10553 2452.0
265.143158 88.0
265.171326 168.0
265.227234 192.0
265.290192 84.0
265.325836 64.0
265.364746 32.0
265.395752 156.0
265.430237 144.0
265.497681 96.0
265.547974 72.0
265.590698 184.0
265.682587 92.0
265.711761 40.0
265.796143 96.0
265.890228 100.0
265.957001 200.0
265.985413 184.0
266.020081 92.0
266.081421 3060.0
266.117462 9940.0
266.194366 116.0
266.331787 56.0
266.360077 220.0
266.438995 72.0
266.461731 92.0
266.483887 44.0
266.541626 128.0
266.609222 204.0
266.711945 52.0
266.753052 140.0
266.786713 164.0
266.837646 48.0
266.873596 192.0
266.900848 180.0
266.924286 128.0
266.94928 52.0
266.986145 212.0
267.03244 124.0
267.087494 2936.0
267.122589 2628.0
267.183441 104.0
267.222504 52.0
267.263702 236.0
267.290833 104.0
267.322662 92.0
267.367188 104.0
267.394958 52.0
267.456787 84.0
267.492615 96.0
267.57074 112.0
267.626068 32.0
267.651215 188.0
267.689575 72.0
267.762848 64.0
267.794037 172.0
267.865479 148.0
267.896393 108.0
268.020203 196.0
268.056732 204.0
268.095428 836.0
268.127686 604.0
268.251587 88.0
268.319153 116.0
268.34491 60.0
268.382172 76.0
268.404816 140.0
268.433624 120.0
268.497192 140.0
268.531982 68.0
268.607025 80.0
268.655945 96.0
268.684204 120.0
268.705231 180.0
268.729858 212.0
268.786438 88.0
268.845184 160.0
268.882263 220.0
268.906128 136.0
269.014893 128.0
269.041016 152.0
269.099182 364.0
269.135773 116.0
269.220612 112.0
269.295715 152.0
269.41684 296.0
269.506287 120.0
269.566864 164.0
269.593018 168.0
269.749878 108.0
269.780151 156.0
269.817474 224.0
269.857758 64.0
269.967682 144.0
270.041351 132.0
270.076874 96.0
270.099762 96.0
270.12265 48.0
270.145569 276.0
270.174988 132.0
270.197906 128.0
270.25351 132.0
270.368042 112.0
270.406494 256.0
270.489136 132.0
270.587341 52.0
270.662659 48.0
270.693451 168.0
270.719269 116.0
270.767456 156.0
270.893219 80.0
270.914856 176.0
270.958679 136.0
271.079071 96.0
271.137634 116.0
271.199921 40.0
271.301544 216.0
271.350708 60.0
271.38678 68.0
271.409729 168.0
271.446899 200.0
271.511383 88.0
271.596649 100.0
271.688507 156.0
271.721313 64.0
271.839417 156.0
271.865143 148.0
271.90506 152.0
271.941162 136.0
271.967407 92.0
272.006805 128.0
272.10202 132.0
272.195923 180.0
272.262909 168.0
272.358154 224.0
272.413269 184.0
272.549866 132.0
272.573517 108.0
272.679169 192.0
272.732727 168.0
272.857635 40.0
272.909851 136.0
272.946411 128.0
272.982574 104.0
273.039703 96.0
273.081116 104.0
273.114136 212.0
273.189789 88.0
273.255585 88.0
273.295044 40.0
273.321381 144.0
273.383911 196.0
273.437775 76.0
273.485931 136.0
273.522125 60.0
273.656006 180.0
273.821747 100.0
273.900787 92.0
273.946869 236.0
273.975922 124.0
273.981049 100.0
274.008392 156.0
274.082306 120.0
274.105621 164.0
274.129639 244.0
274.275757 360.0
274.306091 84.0
274.375305 140.0
274.485901 184.0
274.523682 68.0
274.550079 92.0
274.675415 200.0
274.713715 216.0
274.764465 72.0
274.827148 32.0
274.853546 292.0
274.876648 180.0
274.903046 108.0
274.936066 148.0
274.978943 224.0
275.011963 324.0
275.09317 292.0
275.1539 300.0
275.196808 368.0
275.254425 180.0
275.33551 220.0
275.358612 152.0
275.437897 176.0
275.511902 148.0
275.533691 132.0
275.566742 124.0
275.622894 136.0
275.665863 72.0
275.715424 36.0
275.784821 132.0
275.827789 144.0
275.909515 128.0
276.041321 260.0
276.066681 224.0
276.100555 792.0
276.145844 64.0
276.217987 116.0
276.265991 188.0
276.396637 120.0
276.435089 256.0
276.482666 140.0
276.505829 68.0
276.548859 72.0
276.638214 92.0
276.664703 188.0
276.840179 192.0
276.899811 124.0
276.9263 184.0
276.963531 148.0
277.077148 412.0
277.103333 640.0
277.158661 168.0
277.189667 120.0
277.229431 204.0
277.279175 140.0
277.313934 184.0
277.366455 328.0
277.413391 176.0
277.465088 160.0
277.474579 96.0
277.577209 156.0
277.62558 52.0
277.721741 188.0
277.764862 112.0
277.838287 120.0
277.877655 80.0
277.906555 152.0
277.946198 92.0
278.080688 1896.0
278.118896 4736.0
278.164795 100.0
278.226776 184.0
278.270294 40.0
278.312439 64.0
278.346802 236.0
278.388824 160.0
278.412933 172.0
278.447113 80.0
278.475677 180.0
278.52832 220.0
278.568176 152.0
278.624634 196.0
278.714355 120.0
278.81073 184.0
278.850586 88.0
278.892578 164.0
278.949615 212.0
279.03009 164.0
279.088806 3052.0
279.120758 1284.0
279.183044 184.0
279.255981 60.0
279.28949 72.0
279.352661 104.0
279.400543 112.0
279.442505 128.0
279.479095 184.0
279.54007 172.0
279.574005 96.0
279.644012 124.0
279.675446 156.0
279.724487 192.0
279.746948 132.0
279.783234 208.0
279.813995 168.0
279.822937 104.0
279.836823 200.0
279.873016 264.0
279.939789 184.0
279.986053 260.0
280.097748 40076.0
280.181671 140.0
280.221313 212.0
280.237213 104.0
280.24295 180.0
280.27594 60.0
280.326569 148.0
280.440979 228.0
280.515106 132.0
280.563019 164.0
280.611511 148.0
280.647186 76.0
280.678192 56.0
280.701538 60.0
280.748138 84.0
280.803375 112.0
280.87149 188.0
280.931671 76.0
280.959198 124.0
280.992279 184.0
281.029877 148.0
281.10202 9768.0
281.181915 132.0
281.270935 296.0
281.373901 92.0
281.437653 72.0
281.465668 36.0
281.492371 36.0
281.531464 296.0
281.559143 148.0
281.652679 72.0
281.766266 28.0
281.812164 92.0
281.868622 176.0
281.895142 160.0
282.000153 52.0
282.11261 13180.0
282.185577 68.0
282.232788 236.0
282.296936 196.0
282.346649 152.0
282.404297 128.0
282.448181 52.0
282.471619 44.0
282.543945 152.0
282.56427 120.0
282.589417 220.0
282.619446 64.0
282.66861 200.0
282.673798 176.0
282.729248 80.0
282.79953 56.0
282.822937 132.0
282.876495 116.0
282.928558 224.0
283.015259 216.0
283.047241 172.0
283.079773 156.0
283.117859 2424.0
283.171143 252.0
283.206085 112.0
283.226257 88.0
283.263763 160.0
283.291748 152.0
283.318542 64.0
283.38031 248.0
283.449188 132.0
283.482574 52.0
283.505341 164.0
283.529633 88.0
283.60672 76.0
283.656982 96.0
283.689697 196.0
283.79187 132.0
283.814545 168.0
284.043121 276.0
284.11142 268.0
284.221924 240.0
284.25061 80.0
284.280792 48.0
284.331146 152.0
284.427124 140.0
284.464325 148.0
284.545959 68.0
284.601562 180.0
284.650055 108.0
284.673553 96.0
284.84552 152.0
284.940247 100.0
284.972504 148.0
285.01236 148.0
285.057739 44.0
285.081573 204.0
285.134247 368.0
285.174133 228.0
285.214447 124.0
285.251556 120.0
285.325378 64.0
285.395996 112.0
285.419525 48.0
285.503601 156.0
285.561646 336.0
285.628052 80.0
285.665405 180.0
285.702057 92.0
285.786163 124.0
285.829132 108.0
285.883026 192.0
285.984711 104.0
286.028442 116.0
286.055389 68.0
286.115967 156.0
286.149658 104.0
286.190033 208.0
286.267487 144.0
286.297791 140.0
286.340088 180.0
286.365143 76.0
286.388733 48.0
286.459473 368.0
286.493164 68.0
286.543671 80.0
286.570648 72.0
286.600952 128.0
286.685211 192.0
286.725647 76.0
286.762726 100.0
286.789673 120.0
286.836853 112.0
286.897125 156.0
286.934631 40.0
287.10321 236.0
287.138306 200.0
287.167297 104.0
287.223389 336.0
287.293549 116.0
287.34137 112.0
287.410187 92.0
287.524261 104.0
287.55191 52.0
287.619415 156.0
287.659912 88.0
287.788208 172.0
287.83548 92.0
287.973938 80.0
288.027985 136.0
288.115814 148.0
288.186768 144.0
288.262543 96.0
288.367035 136.0
288.403046 36.0
288.436829 124.0
288.46051 228.0
288.487549 136.0
288.545013 140.0
288.599091 212.0
288.697174 212.0
288.724213 172.0
288.751099 152.0
288.759155 144.0
288.769135 200.0
288.808777 148.0
288.869659 172.0
288.991455 60.0
289.130188 100.0
289.306183 144.0
289.33667 188.0
289.3815 96.0
289.449921 204.0
289.581696 132.0
289.627106 124.0
289.637329 96.0
289.682068 148.0
289.756042 196.0
289.854858 168.0
289.885345 152.0
290.013458 160.0
290.082642 244.0
290.089294 480.0
290.108551 136.0
290.116455 364.0
290.159912 168.0
290.259277 96.0
290.346405 132.0
290.422638 208.0
290.624542 144.0
290.695801 116.0
290.809814 208.0
290.879059 116.0
290.943573 192.0
291.035248 232.0
291.086456 544.0
291.125122 220.0
291.174469 92.0
291.277039 196.0
291.291412 148.0
291.378265 168.0
291.425842 240.0
291.565155 136.0
291.628113 144.0
291.696442 216.0
291.788239 136.0
291.950806 224.0
292.042786 172.0
292.096344 3732.0
292.17038 56.0
292.261383 132.0
292.306488 132.0
292.338501 88.0
292.353729 36.0
292.369019 120.0
292.449402 216.0
292.503876 212.0
292.636627 128.0
292.694519 64.0
292.755829 132.0
292.810303 192.0
292.864807 128.0
292.919312 148.0
292.946533 160.0
292.970398 68.0
293.103729 2184.0
293.15155 108.0
293.235901 204.0
293.29071 168.0
293.338409 220.0
293.397919 176.0
293.460052 240.0
293.539581 176.0
293.615021 196.0
293.656219 160.0
293.693054 160.0
293.764587 144.0
293.798798 180.0
293.846558 156.0
293.93866 144.0
294.000092 164.0
294.076477 4044.0
294.112823 12840.0
294.172791 196.0
294.226654 148.0
294.248352 212.0
294.30188 164.0
294.329987 124.0
294.382416 88.0
294.419189 184.0
294.424286 140.0
294.498535 48.0
294.550568 176.0
294.578827 32.0
294.641235 124.0
294.664337 148.0
294.721863 144.0
294.771851 196.0
294.802612 48.0
294.843414 216.0
294.922211 180.0
294.971924 280.0
295.020233 148.0
295.082245 3564.0
295.119476 7844.0
295.177246 288.0
295.250427 140.0
295.362518 164.0
295.40213 56.0
295.4263 280.0
295.455658 72.0
295.483032 152.0
295.532104 92.0
295.563599 168.0
295.610077 184.0
295.633148 160.0
295.642273 104.0
295.733276 120.0
295.794434 144.0
295.832153 144.0
295.894501 132.0
295.942657 188.0
295.982422 172.0
296.015717 160.0
296.128632 49284.0
296.229889 184.0
296.255188 108.0
296.296387 284.0
296.358429 128.0
296.388367 168.0
296.442871 36.0
296.477539 112.0
296.522552 68.0
296.579407 212.0
296.636169 88.0
296.649719 64.0
296.663269 84.0
296.688293 64.0
296.70929 132.0
296.771698 220.0
296.811035 156.0
296.857544 160.0
296.913422 148.0
296.954559 164.0
296.999176 128.0
297.035736 140.0
297.065735 108.0
297.131958 7596.0
297.220245 128.0
297.283508 184.0
297.320007 36.0
297.383392 76.0
297.39389 44.0
297.40741 104.0
297.453491 136.0
297.498108 140.0
297.544098 168.0
297.660309 132.0
297.729004 164.0
297.764221 56.0
297.800262 144.0
297.865753 128.0
297.889587 192.0
297.930817 84.0
297.961548 172.0
298.011597 124.0
298.087189 148.0
298.132874 1172.0
298.240051 232.0
298.277863 148.0
298.367249 140.0
298.422577 264.0
298.46109 108.0
298.499237 92.0
298.559814 32.0
298.635468 100.0
298.69162 136.0
298.742096 80.0
298.804016 80.0
298.876282 128.0
298.910675 104.0
298.947388 156.0
298.97049 148.0
299.038971 128.0
299.089111 156.0
299.133514 220.0
299.161926 48.0
299.198486 132.0
299.234222 56.0
299.273743 116.0
299.306519 144.0
299.371948 36.0
299.405914 176.0
299.462799 156.0
299.501129 148.0
299.545776 160.0
299.599274 48.0
299.802551 220.0
299.843903 32.0
299.868042 48.0
299.899048 148.0
299.941254 148.0
300.057617 104.0
300.102875 148.0
300.130035 56.0
300.157593 124.0
300.197815 160.0
300.281769 52.0
300.338043 124.0
300.385223 68.0
300.419739 196.0
300.468018 88.0
300.526672 148.0
300.650909 28.0
300.675049 60.0
300.72113 160.0
300.769562 136.0
300.806213 124.0
300.875244 64.0
300.975372 92.0
301.120422 184.0
301.192932 120.0
301.255127 64.0
301.295532 120.0
301.393311 52.0
301.417511 116.0
301.462585 92.0
301.500427 48.0
301.538452 192.0
301.579926 96.0
301.60788 44.0
301.647278 60.0
301.815002 164.0
301.929108 132.0
302.075562 140.0
302.292358 88.0
302.316559 132.0
302.513855 56.0
302.603851 168.0
302.753021 200.0
302.780457 148.0
302.835205 208.0
302.867035 124.0
302.905151 72.0
302.953644 92.0
303.119934 64.0
303.329834 180.0
303.348328 80.0
303.354004 172.0
303.471741 80.0
303.723175 104.0
303.813354 220.0
303.859436 172.0
304.028473 196.0
304.073608 232.0
304.133362 144.0
304.19162 116.0
304.229797 92.0
304.292297 128.0
304.379089 124.0
304.462433 168.0
304.563141 100.0
304.632629 320.0
304.684723 200.0
304.736328 224.0
304.8237 152.0
304.861938 80.0
305.054321 268.0
305.115662 164.0
305.146942 112.0
305.174774 156.0
305.218567 48.0
305.32428 240.0
305.442688 88.0
305.581696 140.0
305.616486 176.0
305.698029 204.0
305.800903 76.0
305.863861 144.0
305.922729 108.0
306.069519 100.0
306.110504 820.0
306.257019 92.0
306.299377 128.0
306.337128 228.0
306.384552 288.0
306.434692 104.0
306.478394 136.0
306.511322 240.0
306.56012 108.0
306.615875 116.0
306.696045 44.0
306.75528 84.0
306.783173 124.0
306.905121 164.0
307.020172 144.0
307.059875 136.0
307.118134 888.0
307.160522 224.0
307.234131 192.0
307.28537 124.0
307.314453 132.0
307.365601 136.0
307.412567 96.0
307.463196 108.0
307.472595 104.0
307.482208 176.0
307.521484 236.0
307.531464 156.0
307.549805 120.0
307.592468 44.0
307.620605 124.0
307.674377 220.0
307.76004 128.0
307.787964 148.0
307.834991 172.0
307.85556 112.0
307.870911 48.0
307.884918 100.0
307.908569 208.0
307.928802 156.0
307.952515 272.0
307.990967 216.0
308.01947 208.0
308.033112 168.0
308.093262 41660.0
308.197266 124.0
308.21933 228.0
308.266632 228.0
308.292358 172.0
308.329071 244.0
308.33902 64.0
308.417206 76.0
308.468079 128.0
308.502747 128.0
308.526917 64.0
308.559845 52.0
308.608582 92.0
308.662506 84.0
308.70697 72.0
308.745422 36.0
308.787415 80.0
308.822388 88.0
308.848083 92.0
308.896912 116.0
308.925293 144.0
308.988464 128.0
309.046936 448.0
309.098297 20764.0
309.176575 264.0
309.205475 80.0
309.246216 144.0
309.294739 68.0
309.338348 132.0
309.372131 136.0
309.443054 164.0
309.520111 128.0
309.569855 172.0
309.607849 176.0
309.672882 204.0
309.7099 92.0
309.737366 168.0
309.762268 76.0
309.791962 88.0
309.830505 40.0
309.877014 96.0
309.925079 68.0
309.956573 172.0
309.988007 188.0
310.041229 316.0
310.106293 15924.0
310.168823 132.0
310.205536 168.0
310.246643 128.0
310.278107 188.0
310.292816 48.0
310.308624 184.0
310.371063 100.0
310.40033 152.0
310.447388 60.0
310.485107 100.0
310.512451 144.0
310.570557 236.0
310.668335 104.0
310.699921 64.0
310.776733 76.0
310.803741 128.0
310.843781 40.0
310.882355 136.0
310.929413 84.0
310.966583 88.0
310.990631 52.0
311.027557 140.0
311.111786 4400.0
311.175262 120.0
311.207825 100.0
311.26358 72.0
311.324677 108.0
311.37384 80.0
311.45874 96.0
311.493256 48.0
311.53894 204.0
311.563538 88.0
311.605682 56.0
311.62851 72.0
311.686493 168.0
311.753265 108.0
311.820038 132.0
311.862213 60.0
311.939697 84.0
312.001312 56.0
312.057465 180.0
312.113617 828.0
312.160309 216.0
312.224335 124.0
312.248444 56.0
312.275726 124.0
312.301697 68.0
312.350281 84.0
312.417786 84.0
312.485321 164.0
312.554993 128.0
312.614807 136.0
312.674652 108.0
312.729431 112.0
312.81543 112.0
312.846985 116.0
312.982117 104.0
313.019623 88.0
313.079498 132.0
313.112244 180.0
313.139374 76.0
313.173157 60.0
313.255585 108.0
313.389465 152.0
313.443085 132.0
313.470123 248.0
313.503693 76.0
313.638275 192.0
313.689026 100.0
313.752472 36.0
313.794769 100.0
313.875885 144.0
313.921722 136.0
314.000092 176.0
314.033569 140.0
314.076477 156.0
314.119568 160.0
314.193298 116.0
314.239899 116.0
314.263855 172.0
314.302673 92.0
314.340637 148.0
314.376465 144.0
314.510895 32.0
314.574432 176.0
314.680328 72.0
314.705048 168.0
314.757996 176.0
314.793304 52.0
314.869537 124.0
314.984039 168.0
315.044098 240.0
315.104156 84.0
315.134888 96.0
315.160675 68.0
315.188934 152.0
315.235931 200.0
315.294952 80.0
315.347961 176.0
315.41864 100.0
315.503479 128.0
315.536774 132.0
315.596436 124.0
315.648438 80.0
315.712097 40.0
315.754547 44.0
315.818207 164.0
315.885406 188.0
316.042267 200.0
316.076447 60.0
316.164917 44.0
316.201874 76.0
316.348969 236.0
316.437469 204.0
316.533081 84.0
316.596802 144.0
316.858826 156.0
316.904968 136.0
316.975861 124.0
317.032532 96.0
317.064423 172.0
317.135315 84.0
317.163666 216.0
317.231018 124.0
317.298828 192.0
317.372681 92.0
317.433105 236.0
317.5466 60.0
317.599792 204.0
317.651062 140.0
317.709747 152.0
317.891235 212.0
317.947479 56.0
318.009766 124.0
318.041718 168.0
318.068176 72.0
318.156921 136.0
318.195953 216.0
318.277924 196.0
318.391266 48.0
318.444519 184.0
318.47757 128.0
318.543976 184.0
318.654114 256.0
318.718048 128.0
318.74292 88.0
318.821106 112.0
318.86731 136.0
318.92514 192.0
318.950958 120.0
319.059906 128.0
319.11615 92.0
319.283264 128.0
319.35083 56.0
319.407745 152.0
319.46109 156.0
319.567841 36.0
319.621185 176.0
319.681702 60.0
319.742188 180.0
319.781342 28.0
319.827606 60.0
319.902344 84.0
319.97641 40.0
320.006134 184.0
320.076813 172.0
320.351044 116.0
320.483429 156.0
320.516724 156.0
320.557678 172.0
320.596893 60.0
320.668152 140.0
320.785797 72.0
320.842651 80.0
320.896301 48.0
320.93457 164.0
320.948639 76.0
321.003265 88.0
321.060638 44.0
321.128082 132.0
321.233826 104.0
321.266083 180.0
321.299316 52.0
321.363525 96.0
321.409912 124.0
321.452606 128.0
321.550446 156.0
321.641876 200.0
321.715363 96.0
321.773956 164.0
321.848938 116.0
321.993805 324.0
322.05072 252.0
322.105804 6552.0
322.205627 188.0
322.21402 164.0
322.268372 128.0
322.399048 48.0
322.438354 176.0
322.471954 168.0
322.542694 148.0
322.569275 180.0
322.593536 152.0
322.648346 112.0
322.690216 164.0
322.718628 128.0
322.745178 168.0
322.782959 152.0
322.812836 132.0
322.845886 172.0
322.878235 132.0
322.920074 80.0
322.976013 232.0
323.022247 276.0
323.074585 64.0
323.11264 496.0
323.184662 140.0
323.223938 380.0
323.275452 204.0
323.311981 236.0
323.366638 276.0
323.418427 128.0
323.453705 176.0
323.493927 212.0
323.549957 356.0
323.598236 124.0
323.645447 328.0
323.679169 404.0
323.711792 288.0
323.748169 212.0
323.785553 332.0
323.800934 156.0
323.828918 604.0
323.865387 212.0
323.878357 248.0
323.904816 404.0
323.932648 432.0
323.958862 452.0
323.995544 628.0
324.124451 294280.0
324.228851 452.0
324.240662 168.0
324.254486 240.0
324.345428 264.0
324.368896 164.0
324.403503 224.0
324.452911 344.0
324.475067 328.0
324.513885 196.0
324.54895 108.0
324.588409 344.0
324.628265 100.0
324.636871 196.0
324.66629 220.0
324.716309 1796.0
324.750153 80.0
324.777435 196.0
324.81189 120.0
324.845306 248.0
324.862 96.0
324.888947 296.0
324.930756 292.0
324.960876 304.0
324.968414 152.0
324.982544 244.0
325.009949 348.0
325.128418 75640.0
325.227783 236.0
325.2659 88.0
325.32193 236.0
325.355988 56.0
325.384979 108.0
325.458038 264.0
325.490448 252.0
325.52655 56.0
325.568817 268.0
325.624207 184.0
325.654724 164.0
325.685333 80.0
325.71283 152.0
325.749786 152.0
325.85257 208.0
325.910858 164.0
325.965088 72.0
326.002289 144.0
326.056915 308.0
326.130005 7420.0
326.228851 144.0
326.264435 268.0
326.313232 76.0
326.358398 100.0
326.368744 100.0
326.409576 116.0
326.45401 52.0
326.482605 44.0
326.516663 56.0
326.56012 176.0
326.627777 120.0
326.686157 124.0
326.780914 212.0
326.84021 108.0
326.904694 68.0
326.944336 160.0
326.969391 72.0
327.004639 272.0
327.028381 140.0
327.057129 144.0
327.133759 1052.0
327.204498 104.0
327.231689 164.0
327.274231 264.0
327.326324 416.0
327.373901 180.0
327.404755 412.0
327.445435 124.0
327.533813 44.0
327.57666 56.0
327.638153 348.0
327.726135 92.0
327.774994 92.0
327.83847 92.0
327.86911 108.0
327.902222 148.0
327.91571 120.0
328.010864 76.0
328.05603 76.0
328.085449 136.0
328.149231 88.0
328.179321 92.0
328.246735 84.0
328.276459 116.0
328.320068 132.0
328.39621 148.0
328.47641 76.0
328.500183 148.0
328.528046 88.0
328.592987 148.0
328.621857 56.0
328.654327 48.0
328.766174 76.0
328.81311 44.0
328.921387 112.0
328.946655 68.0
329.000793 64.0
329.054962 124.0
329.091064 56.0
329.148834 72.0
329.188538 100.0
329.239319 140.0
329.306244 88.0
329.351074 72.0
329.39566 128.0
329.430542 100.0
329.476746 156.0
329.51239 84.0
329.589478 60.0
329.632843 44.0
329.671356 116.0
329.751465 136.0
329.828003 76.0
329.865967 96.0
329.897583 80.0
329.944763 76.0
330.020508 136.0
330.056152 116.0
330.172913 160.0
330.205383 128.0
330.279968 112.0
330.376648 88.0
330.431915 132.0
330.540466 48.0
330.649353 88.0
330.677979 152.0
330.710297 52.0
330.757599 196.0
330.810608 80.0
330.868103 124.0
330.948181 80.0
331.065338 136.0
331.132904 116.0
331.224701 48.0
331.257294 76.0
331.318878 128.0
331.416718 72.0
331.481934 124.0
331.655884 164.0
331.750916 216.0
331.838776 44.0
331.895142 56.0
331.920532 56.0
331.967682 88.0
332.188904 164.0
332.26889 168.0
332.314178 60.0
332.343658 92.0
332.620728 176.0
332.664276 64.0
332.889374 56.0
332.996887 112.0
333.092773 64.0
333.129089 80.0
333.194489 48.0
333.248962 104.0
333.392883 172.0
333.539703 136.0
333.579681 32.0
333.761444 44.0
333.808716 76.0
333.851746 192.0
333.936005 88.0
334.17041 120.0
334.285248 96.0
334.376221 112.0
334.412628 68.0
334.492706 64.0
334.656525 76.0
334.765747 164.0
334.922363 212.0
335.014679 140.0
335.264832 84.0
335.600189 128.0
335.680389 156.0
335.727814 88.0
335.764282 80.0
335.870056 148.0
335.899231 100.0
335.924774 104.0
335.980316 104.0
336.035797 120.0
336.063385 100.0
336.09259 84.0
336.136353 104.0
336.165558 40.0
336.191101 176.0
336.256805 136.0
336.395844 164.0
336.4758 48.0
336.567078 52.0
336.66568 88.0
336.775238 32.0
336.917694 56.0
337.121674 232.0
337.15155 76.0
337.203979 104.0
337.28418 188.0
337.37085 132.0
337.416473 92.0
337.463348 160.0
337.510956 140.0
337.549988 124.0
337.630432 52.0
337.681641 100.0
337.941376 112.0
337.974304 144.0
338.084076 80.0
338.122437 164.0
338.175568 76.0
338.270111 164.0
338.313141 144.0
338.360779 220.0
338.402527 108.0
338.552643 92.0
338.682495 132.0
338.712189 108.0
338.75116 96.0
338.879028 76.0
338.922607 240.0
338.94577 88.0
338.99646 160.0
339.020691 100.0
339.088928 196.0
339.146484 300.0
339.243835 236.0
339.33432 148.0
339.37381 124.0
339.411804 192.0
339.446533 116.0
339.483459 124.0
339.52005 196.0
339.547272 316.0
339.604095 192.0
339.6698 124.0
339.692261 60.0
339.712341 152.0
339.740936 136.0
339.794312 128.0
339.856598 360.0
339.866425 200.0
339.877441 264.0
339.9086 448.0
339.938324 116.0
339.998383 396.0
340.071564 232.0
340.155304 150104.0
340.226166 260.0
340.261322 176.0
340.313477 148.0
340.375061 196.0
340.427155 224.0
340.469391 156.0
340.498657 88.0
340.551422 96.0
340.621155 276.0
340.660309 284.0
340.715576 132.0
340.759735 900.0
340.81488 92.0
340.847931 112.0
340.895782 116.0
340.936218 112.0
340.973907 108.0
341.016785 128.0
341.055298 172.0
341.088623 168.0
341.158508 23468.0
341.267059 344.0
341.293549 136.0
341.337769 140.0
341.3909 84.0
341.433929 80.0
341.478546 108.0
341.523315 116.0
341.572662 216.0
341.637604 64.0
341.690491 64.0
341.725891 136.0
341.799103 60.0
341.850372 64.0
341.865479 92.0
341.910217 204.0
341.965118 192.0
342.031708 40.0
342.073669 68.0
342.161011 3816.0
342.205688 308.0
342.253723 92.0
342.31134 72.0
342.335449 76.0
342.366608 64.0
342.400757 148.0
342.421234 152.0
342.463959 28.0
342.524048 108.0
342.605774 64.0
342.660767 120.0
342.737488 132.0
342.763397 136.0
342.802246 200.0
342.846039 160.0
342.876343 112.0
342.92218 172.0
342.98349 68.0
343.040375 180.0
343.07431 220.0
343.108521 144.0
343.118134 116.0
343.169189 296.0
343.218475 92.0
343.246094 124.0
343.273438 108.0
343.311859 96.0
343.338562 176.0
343.38324 76.0
343.400116 100.0
343.470795 100.0
343.539001 104.0
343.582184 68.0
343.593903 164.0
343.61972 120.0
343.662048 160.0
343.700897 128.0
343.758636 88.0
343.805939 68.0
343.855988 128.0
343.883453 104.0
343.94989 84.0
344.042175 80.0
344.117493 128.0
344.208313 128.0
344.262512 100.0
344.304321 80.0
344.33017 160.0
344.375153 160.0
344.399384 108.0
344.436768 88.0
344.449341 120.0
344.482391 76.0
344.542328 268.0
344.59613 68.0
344.620209 52.0
344.695892 36.0
344.758911 76.0
344.791962 72.0
344.817841 100.0
344.927063 80.0
345.058105 40.0
345.086548 44.0
345.191223 140.0
345.239288 68.0
345.287354 80.0
345.342834 44.0
345.409424 76.0
345.439026 48.0
345.476013 48.0
345.557404 104.0
345.609192 48.0
345.664703 56.0
345.738708 40.0
345.835388 128.0
345.878052 68.0
346.045929 76.0
346.157013 60.0
346.323669 28.0
346.848969 124.0
347.012909 56.0
347.211914 60.0
347.272491 140.0
347.394897 92.0
347.598969 48.0
347.643494 48.0
347.988678 60.0
348.244904 68.0
348.493805 48.0
349.002991 60.0
349.114563 52.0
349.144318 32.0
349.177765 48.0
349.3526 76.0
349.471649 68.0
349.52002 72.0
349.851257 40.0
349.962952 56.0
350.155518 156.0
350.182648 72.0
350.353973 28.0
350.767609 40.0
351.032318 124.0
351.251801 80.0
351.364288 76.0
351.599365 56.0
352.476898 56.0
352.674988 68.0
353.037628 100.0
353.223206 128.0
354.134155 52.0
354.269012 96.0
354.40387 84.0
354.752411 60.0
354.801147 96.0
355.314941 60.0
355.412476 116.0
355.859985 88.0
355.968018 72.0
356.080688 148.0
356.13327 56.0
356.591644 80.0
356.734467 60.0
356.835968 36.0
356.941254 76.0
357.065338 72.0
357.765198 152.0
358.062653 36.0
358.13797 32.0
358.691864 76.0
359.001038 116.0
359.234863 32.0
359.582001 64.0
359.699005 80.0
360.254089 52.0
360.972198 112.0
361.07431 84.0
361.358002 92.0
361.479065 80.0
361.728851 60.0
362.577271 80.0
362.98288 72.0
364.098572 64.0
364.307465 84.0
365.387115 80.0
365.508881 64.0
365.771454 72.0
366.152191 108.0
366.525513 96.0
367.066772 92.0
367.226959 92.0
367.688599 112.0
368.009247 92.0
368.169617 52.0
368.585999 92.0
369.522736 48.0
370.146606 80.0
370.633087 44.0
371.418976 60.0
371.595428 104.0
371.821838 52.0
371.979187 56.0
373.370056 60.0
374.078003 52.0
374.543945 148.0
374.651794 68.0
375.596222 80.0
376.086243 64.0
376.182739 72.0
376.283112 68.0
376.495483 136.0
377.434479 48.0
377.496338 60.0
377.937317 64.0
377.972137 112.0
378.630219 96.0
380.253876 84.0
380.503052 92.0
380.763214 40.0
382.05368 52.0
382.13147 76.0
382.322144 84.0
382.629639 116.0
385.437836 28.0
386.76358 132.0
386.841858 112.0
386.888855 44.0
387.484131 92.0
387.593811 56.0
387.676117 80.0
387.891663 92.0
388.091614 64.0
388.370026 32.0
388.464172 112.0
389.818695 68.0
390.152771 64.0
391.801697 84.0
391.931702 72.0
392.357361 80.0
392.455933 48.0
392.87793 148.0
393.379089 76.0
393.410675 56.0
393.458038 64.0
393.501465 132.0
393.852936 32.0
393.999084 88.0
395.743195 92.0
396.4245 80.0
396.999298 72.0
397.205536 68.0
398.555328 60.0
398.722229 40.0
398.821594 60.0
399.195282 52.0
400.580322 124.0
401.49704 72.0
402.542572 72.0
402.941986 84.0
403.469513 52.0
404.405518 84.0
404.87793 92.0
406.060211 64.0
407.432983 72.0
407.537445 36.0
410.153229 80.0
410.536224 68.0
411.670197 144.0
411.997345 116.0
412.955322 80.0
413.655304 76.0
414.364014 60.0
416.684631 168.0
417.342377 48.0
417.436554 124.0
418.189178 36.0
420.177704 96.0
420.369476 48.0
420.66333 48.0
420.7164 52.0
421.574127 112.0
422.072815 80.0
422.948303 124.0
423.038361 76.0
423.968109 168.0
424.119751 104.0
424.156647 68.0
424.775787 56.0
425.555542 52.0
427.347504 68.0
427.948425 56.0
431.695038 92.0
432.675629 32.0
432.750153 100.0
433.698822 28.0
434.432739 112.0
434.814484 96.0
436.490601 132.0
436.663269 92.0
437.12085 76.0
437.94516 88.0
437.974304 52.0
438.161774 52.0
439.016235 100.0
439.454193 92.0
440.238922 104.0
440.414337 108.0
440.631561 80.0
440.96167 84.0
441.133026 124.0
441.484253 72.0
441.881622 64.0
442.928162 68.0
443.946594 88.0
444.340881 84.0
444.491913 88.0
444.983002 80.0
445.264343 64.0
445.49115 60.0
446.08786 76.0
446.251801 88.0
446.668152 120.0
447.686646 68.0
447.796143 76.0
448.048889 76.0
449.495056 132.0
449.53302 64.0
450.014221 76.0
450.111328 88.0
450.597046 84.0
450.799866 72.0
451.192932 68.0
452.258911 48.0
452.407074 48.0
452.597595 36.0
453.830566 72.0
454.161346 80.0
454.937866 100.0
454.976074 84.0
455.184113 144.0
455.776855 80.0
456.127258 96.0
457.28418 60.0
458.446808 48.0
459.465851 104.0
459.730408 140.0
460.39209 84.0
460.609894 28.0
460.866211 84.0
461.096985 32.0
462.011993 32.0
462.251617 120.0
462.495544 56.0
463.249176 80.0
463.339142 60.0
463.56192 44.0
464.440796 96.0
465.44931 116.0
465.621063 76.0
465.990479 44.0
466.102203 104.0
466.506195 96.0
466.592163 88.0
466.746948 88.0
467.439484 96.0
468.610626 40.0
468.722656 72.0
469.239868 80.0
469.606415 56.0
469.696991 116.0
470.132751 60.0
471.46283 100.0
472.050751 56.0
472.197784 76.0
472.444305 116.0
473.370544 92.0
473.535095 52.0
476.250183 80.0
476.541229 60.0
477.150238 96.0
477.258392 60.0
477.523651 48.0
477.767242 64.0
478.036987 128.0
478.180603 88.0
478.7117 52.0
478.842346 128.0
478.881561 60.0
479.491516 40.0
480.014618 72.0
480.437683 100.0
481.131561 60.0
481.751678 124.0
482.319733 100.0
483.106842 60.0
484.017181 56.0
484.367523 36.0
484.823181 36.0
485.471985 100.0
485.871124 100.0
485.93692 64.0
486.200195 116.0
486.405243 112.0
486.546967 76.0
487.056335 68.0
488.603699 72.0
489.026123 96.0
489.114136 228.0
491.229218 44.0
492.672729 36.0
492.853882 92.0
493.00412 76.0
494.034302 52.0
494.131622 76.0
494.202423 108.0
494.273224 152.0
495.938354 56.0
496.332886 44.0
496.403839 180.0
496.81189 116.0
496.949432 96.0
497.264465 48.0
497.513062 100.0
498.165833 64.0
498.900452 64.0
499.041321 48.0
499.588348 112.0
499.74408 48.0
499.967712 76.0
500.006592 88.0
501.311432 56.0
501.452637 64.0
501.815094 60.0
501.980072 40.0
502.252136 36.0
502.854462 140.0
503.162445 84.0
503.984253 68.0
504.355164 64.0
504.855896 40.0
506.453644 36.0
506.856812 52.0
508.341034 64.0
508.911102 96.0
511.113495 92.0
511.642853 104.0
511.878723 72.0
512.004822 72.0
512.369629 76.0
512.401184 104.0
512.486816 76.0
512.716614 40.0
513.537109 104.0
513.609314 40.0
513.71759 112.0
514.037903 92.0
514.159729 44.0
514.448608 60.0
514.579529 72.0
516.065979 80.0
516.31012 60.0
516.866516 48.0
517.07019 52.0
517.998352 40.0
518.628174 76.0
519.14502 172.0
519.231201 76.0
519.553223 52.0
520.061462 52.0
520.120483 108.0
520.415527 56.0
521.951294 84.0
522.542603 60.0
523.803589 60.0
523.990356 84.0
525.1026 56.0
525.180115 100.0
525.321533 28.0
525.62262 116.0
526.051636 72.0
527.252869 56.0
527.586548 76.0
528.043762 104.0
529.554138 128.0
530.722656 52.0
531.351013 52.0
532.33783 32.0
532.57666 88.0
532.976318 64.0
533.325562 124.0
533.389893 100.0
533.987671 52.0
534.1026 40.0
534.222229 80.0
534.305054 56.0
535.032166 80.0
535.266968 140.0
536.077698 72.0
537.331848 80.0
537.839478 92.0
539.835266 68.0
540.260803 56.0
543.035339 84.0
543.708069 104.0
545.217407 104.0
546.119324 44.0
546.677612 40.0
547.152344 52.0
548.004639 40.0
549.529236 148.0
549.72052 60.0
549.823181 104.0
549.865234 32.0
550.962524 32.0
552.276001 120.0
552.729797 104.0
552.884216 76.0
553.076111 68.0
553.249329 140.0
553.79718 84.0
554.154419 132.0
554.781189 76.0
554.921814 68.0
555.193787 40.0
559.078857 44.0
560.599915 76.0
561.622925 68.0
561.811646 48.0
561.981445 72.0
562.340088 76.0
562.543091 76.0
563.005798 52.0
563.138 132.0
563.284424 36.0
565.847534 52.0
566.273743 60.0
567.482056 132.0
567.889893 100.0
568.003723 76.0
568.800903 52.0
569.693604 92.0
570.781982 72.0
572.633179 48.0
572.961853 44.0
574.682922 120.0
576.306274 100.0
577.38916 68.0
580.700745 68.0
582.726501 100.0
584.97229 60.0
585.906555 132.0
587.849609 100.0
588.100586 76.0
589.385132 84.0
591.101685 32.0
592.844971 36.0
593.247253 112.0
594.736389 60.0
595.051941 100.0
595.896973 80.0
597.185181 112.0
597.837097 136.0
598.138855 144.0
598.35791 40.0
599.215088 76.0
601.116638 64.0
601.990417 64.0
602.693787 96.0
603.32428 40.0
604.18988 40.0
607.908691 36.0
609.263794 68.0
609.706055 36.0
609.760071 124.0
610.694214 40.0
612.382385 108.0
612.810974 64.0
613.86084 48.0
618.168335 48.0
618.485046 56.0
618.643494 132.0
619.628967 76.0
620.005554 60.0
620.575623 48.0
621.354248 68.0
623.896973 72.0
624.160461 40.0
624.762268 60.0
626.365112 104.0
626.474731 48.0
628.708435 76.0
630.021606 64.0
630.891113 52.0
631.651245 32.0
632.15155 60.0
633.984375 52.0
634.305115 72.0
635.05719 40.0
635.518738 52.0
636.211304 84.0
636.889221 56.0
638.100281 84.0
638.155579 92.0
639.010559 76.0
639.58429 72.0
640.359619 40.0
640.88855 84.0
642.865173 96.0
643.592041 84.0
643.97583 100.0
644.627563 84.0
646.093811 60.0
646.650391 56.0
647.723816 96.0
647.759277 100.0
649.766724 48.0
650.959534 36.0
651.040771 68.0
651.990723 56.0
652.483765 112.0
653.816467 64.0
654.972168 60.0
657.863403 140.0
659.702454 132.0
663.111389 52.0
665.897278 128.0
666.164368 84.0
666.744934 88.0
668.982361 40.0
669.260376 40.0
669.48175 56.0
672.379028 88.0
673.13324 80.0
673.582031 60.0
676.358704 100.0
677.917603 64.0
679.877869 48.0
680.287903 100.0
681.996826 76.0
682.901489 68.0
683.478943 40.0
683.718323 68.0
683.957703 32.0
684.608521 60.0
686.229004 64.0
687.261719 60.0
687.950623 116.0
689.852112 80.0
690.945068 76.0
691.830627 72.0
693.238403 72.0
695.220642 68.0
695.70874 80.0
696.071045 72.0
696.365112 60.0
698.841003 80.0
699.246216 120.0
699.909485 76.0
700.968262 76.0
703.70575 64.0
704.482056 104.0
709.074829 48.0
710.755798 76.0
711.063599 60.0
712.24762 36.0
713.018005 40.0
714.432373 52.0
715.76825 56.0
715.991882 48.0
717.329224 92.0
717.489197 28.0
717.931702 80.0
718.614502 100.0
719.02533 80.0
719.158752 56.0
720.274719 40.0
722.311279 84.0
722.942566 108.0
724.254272 104.0
725.052551 64.0
725.588562 56.0
729.098999 44.0
732.97345 36.0
735.545959 200.0
735.734863 164.0
736.742981 60.0
736.831177 88.0
737.652588 96.0
737.825562 28.0
740.547363 72.0
741.148682 56.0
741.94458 112.0
742.406311 76.0
743.925476 76.0
744.09375 64.0
745.131104 60.0
745.647278 92.0
746.071289 56.0
746.778137 96.0
747.371094 60.0
750.355774 60.0
750.568359 36.0
754.280762 84.0
755.494751 112.0
755.658875 100.0
756.578247 112.0
756.630554 92.0
760.519531 44.0
764.272888 72.0
767.803833 112.0
770.160522 116.0
770.326233 68.0
772.039612 72.0
773.909912 64.0
773.976379 76.0
775.050903 104.0
775.876709 52.0
777.979248 84.0
779.580933 96.0
780.629456 60.0
781.385925 80.0
784.354065 40.0
788.528931 88.0
788.763672 44.0
790.771667 76.0
791.913818 76.0
793.477234 84.0
793.527649 88.0
794.049133 32.0
794.408142 112.0
796.872681 88.0
798.14856 100.0
801.869568 40.0
803.002747 68.0
804.164978 84.0
806.113342 188.0
809.246948 68.0
809.858521 132.0
810.838684 120.0
811.320435 40.0
812.483032 188.0
813.078796 108.0
816.385132 76.0
816.783203 124.0
821.431274 72.0
825.331909 76.0
828.525513 48.0
829.608582 56.0
831.432556 52.0
832.695557 92.0
832.735779 96.0
832.965515 84.0
833.505554 96.0
835.552429 44.0
836.870361 64.0
838.558167 48.0
840.813171 88.0
841.742615 60.0
841.892761 76.0
842.285461 100.0
845.928406 172.0
846.391541 64.0
847.932495 120.0
848.112122 44.0
848.645508 60.0
849.457397 80.0
852.703064 64.0
854.075256 72.0
859.259705 104.0
859.382263 168.0
859.994995 120.0
861.226929 60.0
863.950928 88.0
866.843201 36.0
867.33551 60.0
867.915894 44.0
873.048096 88.0
873.842163 60.0
877.971313 112.0
880.160583 124.0
882.80188 44.0
883.736511 160.0
886.116577 160.0
886.880981 68.0
891.486389 164.0
891.982178 124.0
894.650635 64.0
894.793518 44.0
894.870911 64.0
896.16333 60.0
896.246765 36.0
896.425537 144.0
896.532776 148.0
896.818848 60.0
900.756958 100.0
901.605347 144.0
902.753113 156.0
903.333252 40.0
903.638367 108.0
904.440247 52.0
907.111755 120.0
909.151001 88.0
910.189453 64.0
912.015747 124.0
912.544739 88.0
912.749207 92.0
913.085938 188.0
913.567139 60.0
913.771667 36.0
915.523254 164.0
915.854492 144.0
916.029175 200.0
916.282227 88.0
918.102539 68.0
918.488525 84.0
919.019409 80.0
924.433411 120.0
925.716736 36.0
926.249756 164.0
927.073669 136.0
927.928345 56.0
928.825867 64.0
930.397522 92.0
936.910706 68.0
938.94043 148.0
939.202698 68.0
940.893005 92.0
942.102173 64.0
942.664307 124.0
944.694153 68.0
945.991455 56.0
946.70166 60.0
948.711304 40.0
950.612671 88.0
951.742065 172.0
953.794006 92.0
954.406982 56.0
955.134399 64.0
956.315796 44.0
956.88208 88.0
957.818115 52.0
958.249329 160.0
960.33905 164.0
964.48822 140.0
965.823792 64.0
967.680298 196.0
968.479126 120.0
970.592346 156.0
971.020264 48.0
971.06366 224.0
972.031433 72.0
972.608582 108.0
973.165405 132.0
973.248047 188.0
973.89386 176.0
976.193298 64.0
980.551086 88.0
986.880798 212.0
989.276917 188.0
989.458435 196.0
992.948608 88.0
993.042725 204.0
994.648926 148.0
994.994202 164.0
997.155029 216.0
1000.375427 172.0
1001.23175 76.0
1002.20575 168.0
1003.430847 52.0
1008.525085 260.0
1012.409668 164.0
1014.424438 80.0
1014.532227 180.0
1015.534058 160.0
1015.806824 140.0
1016.701416 140.0
1017.259949 104.0
1017.374207 140.0
1017.844055 164.0
1020.067688 144.0
1022.160095 120.0
1022.465515 72.0
1024.732422 184.0
1025.420532 128.0
1025.847656 84.0
1027.786499 160.0
1031.925293 64.0
1033.44751 60.0
1035.72644 44.0
1037.802856 80.0
1038.630127 108.0
1038.918701 80.0
1039.387085 72.0
1039.849121 80.0
1040.683594 180.0
1042.122314 52.0
1042.674927 224.0
1042.796997 56.0
1043.761353 84.0
1044.90625 152.0
1044.970581 60.0
1046.49585 104.0
1047.403931 172.0
1047.532715 132.0
1047.590698 188.0
1048.325195 48.0
1048.544312 52.0
1049.182495 148.0
1049.807861 120.0
1050.439941 48.0
1051.059326 48.0
1051.46582 60.0
1051.672363 244.0
1053.906738 156.0
1055.697266 148.0
1058.913696 168.0
1061.110352 96.0
1061.181641 180.0
1062.413818 116.0
1062.874512 204.0
1063.380615 60.0
1065.757446 208.0
1066.186279 152.0
1067.538696 208.0
1069.418579 56.0
1070.147705 132.0
1070.642578 260.0
1073.118652 148.0
1075.610718 196.0
1075.832642 68.0
1075.963135 120.0
1077.399902 196.0
1078.41272 168.0
1079.105713 216.0
1079.720337 132.0
1080.7146 296.0
1081.729004 152.0
1082.305176 68.0
1082.77002 92.0
1083.542969 92.0
1083.929565 128.0
1084.230957 212.0
1084.322754 100.0
1087.004883 152.0
1087.801025 108.0
1087.871216 84.0
1088.074707 44.0
1089.565552 116.0
1090.163452 76.0
1090.735229 232.0
1091.39917 108.0
1091.872681 76.0
1094.247437 184.0
1094.827515 68.0
1095.664062 128.0
1097.390747 164.0
1097.6875 200.0
1099.620361 152.0
1100.095703 156.0
1100.366333 108.0
1101.046387 80.0
1101.561646 52.0
1102.394043 120.0
1102.969116 144.0
1103.345825 152.0
1104.046753 260.0
1104.97937 216.0
1106.574463 156.0
1107.037842 88.0
1109.217651 132.0
1109.383301 224.0
1109.907104 176.0
1111.372925 104.0
1112.979248 88.0
1113.557007 92.0
1113.709717 56.0
1113.869141 220.0
1114.001953 100.0
1116.687378 148.0
1117.066406 64.0
1117.918091 148.0
1118.97644 120.0
1119.429199 140.0
1120.28833 144.0
1121.421143 140.0
1121.834351 180.0
1122.014404 204.0
1122.107666 124.0
1122.347656 152.0
1123.348145 172.0
1123.821777 52.0
1124.188721 56.0
1124.408936 84.0
1126.13147 128.0
1127.935547 168.0
1128.925049 132.0
1129.359741 124.0
1130.871826 136.0
1131.23999 260.0
1131.668457 168.0
1132.117065 184.0
1132.512207 188.0
1134.055176 164.0
1134.321289 92.0
1136.406982 172.0
1136.997437 180.0
1137.487427 188.0
1137.534424 80.0
1140.167358 220.0
1140.402588 92.0
1140.486938 36.0
1140.590698 140.0
1141.16626 220.0
1141.44458 88.0
1141.883179 192.0
1142.318848 240.0
1143.772339 212.0
1144.223267 228.0
1144.506104 172.0
1145.26709 40.0
1146.109131 104.0
1148.394409 120.0
1148.778931 116.0
1151.911133 180.0
1152.708374 212.0
1152.769165 160.0
1152.978638 140.0
1153.384155 152.0
1155.236938 168.0
1155.866089 68.0
1156.840698 164.0
1156.948975 148.0
1157.443237 100.0
1157.714111 180.0
1158.567505 164.0
1161.543457 108.0
1161.835083 228.0
1161.984375 176.0
1162.052246 192.0
1162.371094 112.0
1163.009033 100.0
1163.158325 212.0
1163.975342 120.0
1164.025391 140.0
1165.073364 180.0
1165.134521 156.0
1165.657593 192.0
1166.724731 116.0
1167.357056 108.0
1167.771851 72.0
1168.322876 60.0
1168.438477 152.0
1168.99646 128.0
1170.235229 72.0
1170.841309 84.0
1171.175049 148.0
1172.251465 160.0
1172.912476 108.0
1173.471558 136.0
1173.737427 80.0
1173.82605 128.0
1173.880615 172.0
1174.214722 84.0
1174.480835 28.0
1174.890015 48.0
1175.708862 152.0
1176.732666 128.0
1177.463379 104.0
1177.763916 68.0
1181.037842 168.0
1181.783569 92.0
1182.392578 136.0
1183.196533 168.0
1183.980835 192.0
1185.364624 108.0
1186.029419 60.0
1186.783447 108.0
1186.865723 204.0
1186.934326 96.0
1188.052246 176.0
1188.230591 124.0
1188.64917 152.0
1191.292358 120.0
1191.553467 208.0
1191.622192 144.0
1192.178711 136.0
1192.694214 116.0
1193.079102 152.0
1193.42981 192.0
1194.268677 200.0
1194.633301 176.0
1195.059814 196.0
1195.211182 112.0
1195.686035 172.0
1196.209106 100.0
1196.684082 156.0
1197.269409 272.0
1198.681641 144.0
1199.508667 120.0
1200.046387 244.0
1200.577271 104.0
1201.053223 156.0
1201.225586 212.0
1202.094971 76.0
1202.723022 96.0
1203.033569 148.0
1203.627319 176.0
1204.172852 152.0
1204.311035 212.0
1204.463013 92.0
1204.815308 128.0
1205.091675 136.0
1206.515381 152.0
1206.950928 176.0
1207.718506 156.0
1207.870728 212.0
1208.050537 136.0
1208.098999 104.0
1208.35498 124.0
1209.226807 208.0
1209.953613 176.0
1210.680664 132.0
1211.491089 288.0
1212.835327 208.0
1213.355225 164.0
1213.590942 184.0
1213.895996 144.0
1214.013916 200.0
1214.270508 144.0
1215.132935 176.0
1215.880127 144.0
1216.095215 112.0
1217.678223 200.0
1217.880859 156.0
1218.615967 172.0
1219.658325 168.0
1221.160156 136.0
1222.669922 124.0
1223.06665 128.0
1223.317139 40.0
1223.546875 176.0
1224.069092 56.0
1224.619263 136.0
1224.981445 76.0
1225.413452 160.0
1225.887207 116.0
1226.681763 148.0
1228.006592 180.0
1228.21582 84.0
1228.285522 104.0
1228.99707 84.0
1229.457642 132.0
1230.071899 132.0
1230.141724 152.0
1231.328613 76.0
1231.398438 48.0
1232.641968 100.0
1234.060913 124.0
1234.669189 128.0
1234.830078 204.0
1234.942017 124.0
1235.886353 44.0
1236.012329 52.0
1236.887085 176.0
1237.594238 40.0
1237.790283 140.0
1238.126343 204.0
1238.714722 176.0
1239.989868 128.0
1240.431519 148.0
1240.690918 176.0
1240.985352 132.0
1242.058228 220.0
1242.409058 132.0
1242.724731 116.0
1243.145752 44.0
1243.721191 84.0
1244.198608 60.0
1244.310913 172.0
1245.160522 136.0
1245.378296 132.0
1245.66626 104.0
1246.888794 60.0
1247.453979 196.0
1247.950195 44.0
1248.696289 168.0
1248.899536 132.0
1251.137329 188.0
1251.404785 132.0
1253.088135 144.0
1253.26416 148.0
1254.060547 204.0
1254.835327 236.0
1255.583374 204.0
1255.914307 244.0
1256.563843 124.0
1257.841187 128.0
1259.592285 172.0
1259.825439 140.0
1260.157471 116.0
1260.256348 156.0
1261.797119 124.0
1262.765869 212.0
1262.900269 168.0
1263.232666 176.0
1263.876465 96.0
1264.470947 80.0
1264.548828 72.0
1265.447754 140.0
1265.716797 144.0
1266.247925 152.0
1266.439209 132.0
1267.112183 212.0
1267.175903 212.0
1267.707275 180.0
1269.600098 144.0
1271.394897 164.0
1271.46582 112.0
1272.282104 160.0
1273.148315 40.0
1273.21936 36.0
1273.602905 104.0
1274.917236 172.0
1275.094971 128.0
1275.35791 144.0
1275.407715 160.0
1275.798584 160.0
1276.054565 72.0
1278.15271 144.0
1278.736328 140.0
1279.143066 80.0
1279.220337 148.0
1280.209961 164.0
1280.936401 92.0
1281.370972 84.0
1281.720093 136.0
1282.012207 216.0
1282.247437 136.0
1283.003052 152.0
1283.156738 128.0
1283.502075 120.0
1284.05835 168.0
1284.436279 88.0
1284.521973 176.0
1284.921265 148.0
1285.806152 96.0
1286.006104 160.0
1287.18396 76.0
1287.866211 224.0
1288.019531 104.0
1288.248169 204.0
1288.32666 124.0
1288.626831 172.0
1288.884033 220.0
1289.748657 144.0
1290.384888 192.0
1291.493286 156.0
1292.559326 48.0
1292.68811 76.0
1293.117432 188.0
1294.033691 96.0
1294.119629 152.0
1294.198364 140.0
1295.759766 140.0
1295.903076 188.0
1296.390259 160.0
1296.784424 44.0
1297.250366 116.0
1297.924316 96.0
1298.046143 224.0
1298.397583 120.0
1298.569702 84.0
1299.02478 104.0
1299.093262 100.0
1299.358765 44.0
1299.7677 84.0
1300.040405 112.0
1300.557129 184.0
1300.614502 120.0
1301.081177 176.0
1301.734497 164.0
1302.194092 200.0
1302.661011 84.0
1302.833374 80.0
1304.644409 152.0
1305.197998 128.0
1307.003418 72.0
1307.39917 220.0
1307.701416 104.0
1307.794922 140.0
1308.032471 136.0
1308.464478 136.0
1308.802856 148.0
1308.910767 136.0
1309.040405 168.0
1310.416138 152.0
1310.898926 80.0
1311.216064 96.0
1311.742188 88.0
1311.900757 96.0
1312.787598 188.0
1313.241943 128.0
1314.013794 136.0
1314.179688 32.0
1314.785889 124.0
1314.966309 148.0
1315.218872 108.0
1316.114136 68.0
1316.590698 152.0
1316.65564 172.0
1317.327393 204.0
1317.40686 136.0
1317.724731 172.0
1317.898071 196.0
1318.967651 136.0
1319.173584 184.0
1319.849609 108.0
1320.811523 120.0
1321.187622 132.0
1321.462646 132.0
1321.741089 196.0
1321.824341 200.0
1323.583252 180.0
1324.452393 172.0
1325.097046 148.0
1325.481079 144.0
1325.75647 268.0
1326.611694 156.0
1326.734985 124.0
1327.09021 44.0
1329.976562 176.0
1330.280029 212.0
1330.855835 152.0
1331.008301 68.0
1331.276978 144.0
1331.879761 152.0
1332.519043 208.0
1333.449097 120.0
1333.834351 172.0
1334.830322 124.0
1335.244873 168.0
1335.34668 124.0
1335.550415 140.0
1335.608521 164.0
1336.932739 100.0
1337.937134 148.0
1339.400757 220.0
1339.495483 100.0
1339.881592 136.0
1340.362427 112.0
1340.63208 160.0
1340.967285 84.0
1341.380737 132.0
1342.308716 176.0
1343.213013 92.0
1343.628784 176.0
1343.920654 116.0
1345.031494 136.0
1345.562866 168.0
1345.738037 128.0
1346.059326 172.0
1346.205322 176.0
1346.74585 156.0
1347.081787 200.0
1347.483643 132.0
1347.834351 112.0
1348.163086 176.0
1349.413086 204.0
1350.11499 196.0
1350.407593 120.0
1350.80249 196.0
1350.85376 112.0
1351.277832 156.0
1351.424316 96.0
1351.55603 76.0
1352.624512 196.0
1352.712402 128.0
1353.290771 124.0
1353.56311 136.0
1354.447754 88.0
1354.520996 92.0
1354.579712 144.0
1355.407471 132.0
1356.030396 92.0
1356.477539 168.0
1357.071289 220.0
1358.100342 212.0
1358.714233 172.0
1359.139771 180.0
1359.359863 232.0
1360.658936 172.0
1362.487671 184.0
1362.634644 124.0
1362.840332 152.0
1362.921143 136.0
1363.163574 156.0
1363.575195 132.0
1363.839722 204.0
1364.677734 96.0
1364.788086 132.0
1365.096924 184.0
1365.626343 108.0
1366.16333 156.0
1366.685669 52.0
1366.847534 120.0
1366.945801 144.0
1367.531982 128.0
1367.715942 64.0
1367.914795 160.0
1368.9823 84.0
1369.159058 60.0
1369.586182 88.0
1370.057617 188.0
1370.68396 220.0
1371.008179 204.0
1371.361938 240.0
1371.442993 172.0
1371.568237 164.0
1371.870483 148.0
1372.098999 68.0
1372.401367 224.0
1372.674194 168.0
1372.955444 108.0
1373.050293 144.0
1373.109253 132.0
1373.441162 104.0
1373.780396 108.0
1374.075562 140.0
1375.005249 144.0
1375.130737 144.0
1375.750732 96.0
1375.854126 132.0
1376.378296 168.0
1376.828735 164.0
1377.08728 172.0
1377.840698 384.0
1378.047607 204.0
1378.099243 48.0
1378.535278 172.0
1378.971313 164.0
1379.303833 168.0
1379.392578 124.0
1379.466553 128.0
1379.680908 64.0
1380.353638 152.0
1380.491211 320.0
1381.270752 168.0
1381.56665 156.0
1381.633301 156.0
1381.998291 76.0
1382.942993 108.0
1383.720215 68.0
1384.475464 172.0
1384.808716 160.0
1384.882812 212.0
1385.127319 108.0
1385.371704 136.0
1385.860718 140.0
1386.638794 144.0
1387.468994 160.0
1387.535645 188.0
1387.928589 216.0
1388.13623 116.0
1388.291992 164.0
1388.71582 188.0
1388.774048 164.0
1389.011353 136.0
1389.241333 136.0
1389.453735 224.0
1389.545532 84.0
1389.671631 332.0
1389.782959 188.0
1389.982422 172.0
1390.354248 200.0
1390.584351 144.0
1390.829346 32.0
1391.089111 136.0
1391.178223 200.0
1391.437988 264.0
1391.727539 156.0
1391.935425 88.0
1392.046875 196.0
1392.321655 116.0
1392.373657 156.0
1392.536987 148.0
1393.034668 180.0
1393.896484 204.0
1395.078247 112.0
1395.420166 160.0
1395.553955 216.0
1395.658081 104.0
1395.955566 184.0
1396.3125 72.0
1396.595093 60.0
1396.67688 132.0
1397.465454 204.0
1397.777954 152.0
1397.926758 168.0
1398.125488 212.0
1399.020874 156.0
1399.445312 148.0
1399.557007 48.0
1399.981445 72.0
1400.063354 44.0
1400.219727 132.0
1401.247681 192.0
1401.38916 112.0
1401.441406 136.0
1402.141846 112.0
1402.19397 140.0
1402.733154 192.0
1403.06604 120.0
1403.386719 104.0
1403.722168 196.0
1403.776733 128.0
1404.042847 164.0
1405.042358 148.0
1405.348267 116.0
1405.542236 60.0
1406.519897 104.0
1408.02063 136.0
1409.641724 128.0
1409.701538 84.0
1409.783691 168.0
1409.850952 148.0
1410.217163 148.0
1410.456299 168.0
1411.203857 120.0
1411.256226 156.0
1411.779663 132.0
1412.445312 260.0
1413.006348 196.0
1413.874268 56.0
1414.390747 72.0
1416.292603 144.0
1416.375 164.0
1417.004272 68.0
1417.933472 68.0
1418.015869 208.0
1418.270752 144.0
1418.681885 224.0
1419.912598 52.0
1420.085205 152.0
1420.145142 168.0
1420.265137 72.0
1421.022827 128.0
1421.412964 140.0
1421.713135 196.0
1421.788208 152.0
1422.426147 116.0
1422.673828 120.0
1422.842529 188.0
1423.215088 44.0
1423.394653 252.0
1423.935303 124.0
1424.55127 84.0
1424.994507 140.0
1425.129761 124.0
1425.197388 224.0
1425.48291 116.0
1425.550537 124.0
1426.535034 104.0
1426.918457 76.0
1427.34375 200.0
1427.407227 108.0
1427.926147 76.0
1428.234497 152.0
1428.460083 144.0
1428.572998 340.0
1428.979248 108.0
1429.122192 180.0
1429.468262 156.0
1430.205811 64.0
1430.657471 128.0
1430.7854 184.0
1431.447998 120.0
1431.583618 128.0
1431.977783 216.0
1432.411987 84.0
1432.525024 52.0
1432.622925 44.0
1432.992065 144.0
1433.760742 196.0
1434.031982 156.0
1434.212891 232.0
1434.431519 156.0
1434.544556 136.0
1434.740601 204.0
1435.622681 152.0
1435.690552 96.0
1436.052612 136.0
1436.422241 152.0
1437.319946 144.0
1437.470947 204.0
1437.734985 52.0
1437.832153 152.0
1438.09729 76.0
1438.423706 176.0
1438.618042 100.0
1439.071045 72.0
1439.244751 52.0
1439.358032 136.0
1439.593994 144.0
1439.788452 220.0
1440.173584 116.0
1440.407715 152.0
1441.454346 228.0
1441.661987 84.0
1441.926392 128.0
1442.0625 104.0
1442.387451 120.0
1442.818359 168.0
1443.491333 172.0
1443.63501 84.0
1444.126587 164.0
1444.262695 208.0
1444.429077 132.0
1444.739258 108.0
1445.04187 60.0
1445.836426 104.0
1446.101196 156.0
1446.207153 180.0
1446.631104 208.0
1446.796265 204.0
1447.462036 192.0
1447.592651 132.0
1448.039429 180.0
1448.190918 140.0
1448.372437 120.0
1448.531738 200.0
1448.586792 196.0
1449.077271 168.0
1450.031982 148.0
1450.714111 28.0
1451.275146 176.0
1452.056274 104.0
1452.109375 144.0
1452.177612 116.0
1452.367188 192.0
1452.730347 152.0
1452.890625 96.0
1452.985107 148.0
1453.421753 52.0
1453.527954 156.0
1454.040283 108.0
1454.150269 132.0
1454.590454 156.0
1454.825806 156.0
1455.144653 172.0
1455.562256 36.0
1458.228638 164.0
1458.528076 120.0
1458.897583 136.0
1459.011597 156.0
1459.840332 172.0
1460.608521 96.0
1460.714966 116.0
1460.821533 120.0
1461.125732 96.0
1461.194214 160.0
1461.696411 160.0
1461.94751 172.0
1462.510742 52.0
1462.624878 232.0
1462.731445 168.0
1462.914185 212.0
1463.370972 252.0
1463.599365 136.0
1463.690674 176.0
1463.82019 188.0
1463.931763 184.0
1463.963135 120.0
1463.981812 156.0
1464.071533 152.0
1464.307617 88.0
1464.383667 104.0
1464.680786 124.0
1465.457764 96.0
1465.674683 148.0
1466.357056 148.0
1466.753296 144.0
1467.119263 332.0
1467.172607 92.0
1467.614746 216.0
1467.797729 160.0
1468.079956 88.0
1468.323364 164.0
1468.438354 160.0
1468.560425 144.0
1468.629028 72.0
1469.971802 140.0
1470.330444 156.0
1471.36084 124.0
1471.444824 120.0
1471.51355 124.0
1471.796021 100.0
1472.370972 128.0
1472.59021 132.0
1472.666626 172.0
1473.178467 156.0
1473.728516 104.0
1474.072266 196.0
1474.79834 28.0
1474.867188 172.0
1475.21106 116.0
1475.318115 148.0
1475.516846 68.0
1475.708008 200.0
1476.373291 180.0
1476.579712 164.0
1476.736206 104.0
1477.130493 184.0
1477.52063 104.0
1477.734863 156.0
1477.979614 180.0
1478.109741 112.0
1479.112305 108.0
1479.747681 124.0
1479.923828 156.0
1480.115234 208.0
1480.199463 180.0
1480.591187 132.0
1480.873291 192.0
1481.026489 192.0
1481.332886 160.0
1481.853882 172.0
1482.382568 116.0
1482.589233 180.0
1482.796387 168.0
1482.949707 144.0
1483.087646 112.0
1483.746826 236.0
1484.270386 200.0
1484.452271 204.0
1484.781982 148.0
1484.889404 140.0
1485.43396 192.0
1485.495361 160.0
1485.909546 128.0
1485.963257 144.0
1486.201172 120.0
1486.470825 188.0
1487.260132 128.0
1487.574829 164.0
1488.288818 80.0
1489.187378 120.0
1490.109131 148.0
1490.55481 68.0
1491.108032 144.0
1491.928223 192.0
1492.022827 100.0
1492.161133 208.0
1492.507202 104.0
1492.753174 228.0
1492.833252 204.0
1492.922363 176.0
1493.283813 120.0
1493.745361 80.0
1494.206909 112.0
1494.814697 72.0
1495.022461 164.0
1495.907593 128.0
1496.246338 108.0
1496.546631 140.0
1496.639038 96.0
1496.777588 232.0
1496.877686 116.0
1497.347412 184.0
1497.855835 180.0
1498.764893 188.0
1499.042236 132.0
1499.204102 112.0
1499.74353 76.0
1499.805298 112.0
1500.568359 196.0
1500.622437 108.0
1500.852905 172.0
1501.416626 64.0
1501.748291 132.0
1502.434692 136.0
1502.596802 148.0
1502.662109 84.0
1503.244873 220.0
1503.599854 132.0
1503.908569 132.0
1504.418091 140.0
1504.811768 160.0
1504.873535 136.0
1504.966187 164.0
1505.213257 168.0
