>compound MLS000028440-01!ACEMETACIN
>formula C21H18ClNO6
>ionization [M+H]+
>parentmass 416.0895414280905
#inchi InChI=1S/C21H18ClNO6/c1-12-16(10-20(26)29-11-19(24)25)17-9-15(28-2)7-8-18(17)23(12)21(27)13-3-5-14(22)6-4-13/h3-9H,10-11H2,1-2H3,(H,24,25)
#inchikey FSQKKOOTNAMONP
#Ion_Source LC-ESI
#Instrument qTof
#Compound_Source NIH Pharmacologically Active Library
#PI Dorrestein
#Data_Collector VP/LMS
#Scan -1
#Precursor_MZ 416.097
#ExactMass 415.082
#Charge 1
#CAS_Number N/A
#Pubmed_ID N/A
#Smiles COc1ccc2n(C(=O)c3ccc(Cl)cc3)c(C)c(CC(=O)OCC(=O)O)c2c1
#INCHI_AUX N/A
#Library_Class 1
#SpectrumID CCMSLIB00000086037
#IonMode Positive
#UpdateWorkflowName UPDATE-SINGLE-ANNOTATED-GOLD
#LibraryQualityString Gold
#TaskID d252d724072548979f1f6f1ced849daf
##Scan# 2275
#SpectrumFile p5-C02_GC2_01_18447.mzXML
#LibraryName Pharm_Active_Library.mgf
#MQScore -1
#Organism Pharm_Active_Library
#TIC_Query 0
#RT_Query -1
#MZErrorPPM -1
#SharedPeaks 0
#MassDiff 0
#LibMZ -1
#SpecMZ 416.097
#SpecCharge 0
#internalFilename spec-00000.mgf

>collision 10
45.155537 188.0
45.623501 268.0
46.365875 180.0
46.968182 132.0
47.002285 236.0
47.3769 184.0
47.413895 116.0
48.874916 156.0
49.019726 148.0
50.376465 180.0
51.216206 56.0
51.397255 228.0
51.614368 212.0
52.126091 168.0
52.620125 128.0
53.53215 144.0
54.127922 100.0
55.68969 212.0
57.126656 120.0
58.237148 132.0
59.311314 196.0
59.941418 160.0
60.175861 160.0
60.444801 180.0
60.773285 164.0
62.231075 208.0
62.81966 132.0
65.365723 28.0
66.410965 224.0
67.69519 144.0
67.893471 124.0
69.223343 104.0
70.283844 244.0
70.450798 204.0
70.626312 172.0
71.071922 192.0
71.582909 136.0
73.728882 92.0
74.314507 160.0
74.823227 112.0
74.845604 152.0
74.90416 136.0
75.657059 136.0
75.767891 160.0
76.097412 120.0
76.192932 248.0
77.371849 136.0
77.903214 152.0
77.947136 164.0
78.184532 156.0
78.743393 132.0
80.555122 200.0
82.709335 240.0
83.46402 248.0
84.108932 248.0
84.787476 176.0
86.394913 184.0
86.856155 112.0
87.002754 192.0
87.812172 104.0
87.91851 124.0
88.994629 152.0
90.791237 192.0
91.439064 136.0
91.701889 124.0
93.032364 208.0
93.442528 136.0
93.577248 132.0
96.446411 128.0
96.581322 108.0
96.822052 132.0
98.731003 228.0
99.150696 248.0
99.517662 180.0
101.703613 200.0
102.715714 248.0
103.05278 124.0
103.13974 200.0
103.858742 196.0
104.057404 140.0
104.484192 156.0
105.070915 248.0
106.978828 128.0
106.99942 80.0
107.085693 200.0
107.663361 208.0
108.072639 92.0
109.136658 84.0
110.885979 172.0
111.001907 896.0
112.695686 104.0
112.951477 116.0
113.002136 120.0
113.98819 116.0
114.09446 120.0
114.745911 156.0
114.995491 148.0
115.055252 200.0
115.125717 44.0
115.149208 68.0
115.910774 176.0
116.155174 136.0
116.176628 96.0
116.993233 196.0
119.02121 120.0
119.083557 1024.0
119.73011 120.0
119.961067 148.0
120.089714 116.0
120.979034 116.0
121.586174 224.0
121.78157 148.0
122.392921 272.0
122.866776 168.0
124.402588 120.0
124.744675 136.0
126.57412 152.0
127.406204 172.0
127.682671 80.0
127.799644 52.0
128.814133 164.0
129.015915 136.0
130.066315 236.0
131.012268 364.0
131.072739 180.0
133.066956 448.0
133.102692 284.0
133.428955 176.0
133.587631 204.0
135.080093 168.0
135.399506 160.0
135.883957 212.0
136.485504 132.0
138.146042 176.0
138.839813 256.0
138.914383 152.0
138.995834 11920.0
139.071594 72.0
139.213699 72.0
139.287613 48.0
139.304062 60.0
139.332245 68.0
139.569626 76.0
139.644882 48.0
139.858978 204.0
139.998657 1316.0
140.382004 68.0
140.478699 60.0
140.754822 140.0
140.830399 184.0
140.993866 4584.0
141.125793 52.0
141.142334 112.0
141.199097 80.0
141.255859 68.0
141.620377 132.0
141.993591 512.0
142.07312 160.0
142.855453 108.0
144.246628 76.0
147.874451 120.0
149.101608 160.0
150.643936 100.0
157.087067 232.0
158.878189 112.0
160.293701 76.0
162.100433 204.0
163.26561 72.0
174.091049 796.0
174.147415 196.0
175.096298 188.0
182.107819 112.0
186.444046 216.0
196.952988 160.0
198.139053 128.0
208.976761 160.0
215.041962 196.0
234.946381 76.0
250.078873 176.0
262.091644 140.0
264.419922 164.0
269.254272 44.0
273.97757 172.0
276.351318 88.0
281.019409 208.0
281.900909 84.0
284.301941 80.0
295.887848 176.0
296.041931 204.0
300.210297 128.0
305.120087 168.0
312.088135 116.0
313.083954 44.0
316.247253 176.0
349.0336 132.0
368.888702 164.0
372.052917 112.0
374.286682 112.0
376.913452 40.0
404.36618 140.0
415.264526 92.0
417.282684 156.0
441.886322 144.0
513.018799 68.0
580.235474 128.0
738.494812 108.0
878.883057 212.0
934.113464 28.0
1036.792236 120.0
1074.65979 152.0
1106.218506 132.0
1159.605347 132.0
1169.235596 164.0
1189.32251 144.0
1192.213867 224.0
1195.721191 80.0
1208.791382 212.0
1224.013794 124.0
1241.80603 120.0
1250.679932 196.0
1259.550049 72.0
1260.616821 244.0
1261.069092 108.0
1267.487671 212.0
1286.748169 180.0
1302.186523 112.0
1333.535645 244.0
1363.588745 112.0
1367.494019 104.0
1375.350952 148.0
1376.052124 152.0
1385.274048 136.0
1387.556519 40.0
1392.097412 144.0
1395.039551 164.0
1410.11084 204.0
1416.088623 112.0
1426.653442 180.0
1428.548462 120.0
1446.114258 160.0
1447.908569 192.0
1452.448364 164.0
1454.185913 156.0
1455.66626 148.0
1466.19458 36.0
1471.022461 184.0
1472.603027 124.0
1488.109619 220.0
1491.528076 192.0
1495.458374 140.0
1497.39856 136.0
1498.222778 172.0
1499.725342 164.0
