>compound MLS002153312-01!(-)-cis-(1S,2R)-U-50488 tartrate
>formula C19H26Cl2N2O
>ionization [M+H]+
>parentmass 369.1492
#inchi InChI=1S/C19H26Cl2N2O/c1-22(19(24)13-14-8-9-15(20)16(21)12-14)17-6-2-3-7-18(17)23-10-4-5-11-23/h8-9,12,17-18H,2-7,10-11,13H2,1H3/t17-,18+/m0/s1
#inchikey VQLPLYSROCPWFF
#origInchi InChI=1S/C19H26Cl2N2O.C4H6O6/c1-22(19(24)13-14-8-9-15(20)16(21)12-14)17-6-2-3-7-18(17)23-10-4-5-11-23;5-1(3(7)8)2(6)4(9)10/h8-9,12,17-18H,2-7,10-11,13H2,1H3;1-2,5-6H,(H,7,8)(H,9,10)/t17-,18+;/m0./s1
#Ion_Source LC-ESI
#Instrument qTof
#Compound_Source NIH Pharmacologically Active Library
#PI Dorrestein
#Data_Collector VP/LMS
#Scan -1
#Precursor_MZ 369.157
#ExactMass 368.142
#Charge 1
#CAS_Number N/A
#Pubmed_ID N/A
#Smiles CN([C@H]1CCCC[C@H]1N2CCCC2)C(=O)Cc3ccc(Cl)c(Cl)c3.OC(C(O)C(=O)O)C(=O)O
#INCHI_AUX N/A
#Library_Class 1
#SpectrumID CCMSLIB00000085504
#IonMode Positive
#UpdateWorkflowName UPDATE-SINGLE-ANNOTATED-GOLD
#LibraryQualityString Gold
#TaskID d252d724072548979f1f6f1ced849daf
##Scan# 1696
#SpectrumFile p4-B09_GB9_01_18345.mzXML
#LibraryName Pharm_Active_Library.mgf
#MQScore -1
#Organism Pharm_Active_Library
#TIC_Query 0
#RT_Query -1
#MZErrorPPM -1
#SharedPeaks 0
#MassDiff 0
#LibMZ -1
#SpecMZ 369.157
#SpecCharge 0
#internalFilename spec-00000.mgf

>collision 10
44.887363 132.0
44.905201 180.0
44.917175 204.0
44.970074 96.0
45.000778 244.0
45.051525 160.0
45.063549 128.0
45.083591 140.0
45.098293 84.0
45.108986 140.0
45.125031 136.0
45.161137 124.0
45.179474 352.0
45.189228 164.0
45.248116 104.0
45.276089 224.0
45.312401 180.0
45.353237 168.0
45.402378 220.0
45.434551 152.0
45.474117 120.0
45.540443 152.0
45.572681 76.0
45.614342 144.0
45.639206 156.0
45.659557 160.0
45.677544 96.0
45.710693 164.0
45.731365 140.0
45.745987 148.0
45.774445 144.0
45.80542 64.0
45.82428 176.0
45.851231 136.0
45.863358 128.0
45.872795 120.0
45.888973 132.0
45.908772 228.0
45.955353 184.0
45.972603 244.0
45.990147 184.0
46.006344 168.0
46.017143 168.0
46.042801 184.0
46.074295 120.0
46.109295 184.0
46.123062 188.0
46.136932 180.0
46.154987 192.0
46.169834 140.0
46.28215 236.0
46.324005 172.0
46.372913 144.0
46.43647 164.0
46.448841 92.0
46.466476 168.0
46.495823 176.0
46.504734 208.0
46.530056 132.0
46.569641 144.0
46.585941 124.0
46.611908 108.0
46.649811 152.0
46.681084 168.0
46.712364 164.0
46.743656 72.0
46.774956 132.0
46.7981 92.0
46.817165 100.0
46.845764 180.0
46.862114 156.0
46.886642 124.0
46.905724 136.0
46.930264 132.0
46.945717 180.0
46.979359 156.0
46.998459 144.0
47.016197 172.0
47.032578 52.0
47.098118 36.0
47.146713 112.0
47.171902 212.0
47.182987 148.0
47.201981 64.0
47.22559 212.0
47.253956 52.0
47.273113 212.0
47.283298 324.0
47.315563 160.0
47.340187 188.0
47.374474 120.0
47.386761 100.0
47.411423 140.0
47.475258 192.0
47.51289 188.0
47.529354 108.0
47.547192 124.0
47.578762 100.0
47.589745 140.0
47.618584 192.0
47.643307 204.0
47.652924 244.0
47.673534 188.0
47.705948 220.0
47.725769 168.0
47.762901 212.0
47.806477 208.0
47.823441 380.0
47.857185 180.0
47.870251 160.0
47.887367 112.0
47.923969 248.0
47.945004 364.0
47.969448 160.0
47.98737 212.0
47.997021 136.0
48.016327 316.0
48.02874 176.0
48.048687 244.0
48.075188 120.0
48.08625 252.0
48.118988 300.0
48.141911 204.0
48.235859 140.0
48.374077 148.0
48.40102 168.0
48.406506 152.0
48.409229 220.0
48.443424 96.0
48.453121 60.0
48.484993 168.0
48.496078 180.0
48.534828 160.0
48.566532 192.0
48.6222 188.0
48.69949 152.0
48.708466 348.0
48.747272 172.0
48.816956 156.0
48.859894 100.0
48.890507 56.0
48.915558 176.0
48.951756 76.0
48.990753 144.0
49.033524 196.0
49.123184 160.0
49.161751 224.0
49.18877 208.0
49.215427 168.0
49.239033 152.0
49.254395 192.0
49.287926 116.0
49.333565 128.0
49.356415 128.0
49.367603 104.0
49.38871 172.0
49.451782 208.0
49.503342 128.0
49.543961 172.0
49.573383 164.0
49.593002 192.0
49.654694 132.0
49.675732 132.0
49.724842 128.0
49.74028 196.0
49.764145 164.0
49.799278 216.0
49.807911 244.0
49.855446 104.0
49.867889 192.0
49.872246 164.0
49.8992 188.0
49.918705 188.0
49.936989 176.0
49.973564 204.0
50.001705 152.0
50.046497 176.0
50.07914 32.0
50.098862 208.0
50.131268 168.0
50.14677 204.0
50.163685 48.0
50.184597 216.0
50.231369 148.0
50.254757 352.0
50.284985 152.0
50.297455 192.0
50.318863 180.0
50.375351 180.0
50.39785 108.0
50.415009 176.0
50.44318 92.0
50.453075 152.0
50.465797 176.0
50.491253 152.0
50.542179 164.0
50.584827 172.0
50.601624 52.0
50.625694 168.0
50.638439 188.0
50.663937 136.0
50.689438 188.0
50.732571 232.0
50.783005 256.0
50.817051 88.0
50.897953 180.0
50.926353 136.0
50.951923 124.0
50.971817 100.0
50.991554 72.0
51.062645 152.0
51.089821 148.0
51.100624 128.0
51.14674 212.0
51.166672 148.0
51.182255 144.0
51.242153 196.0
51.259251 100.0
51.38615 260.0
51.497425 184.0
51.526062 140.0
51.63031 180.0
51.666134 184.0
51.701935 144.0
51.716248 168.0
51.73056 128.0
51.776379 120.0
51.802162 192.0
51.837978 120.0
51.855175 180.0
51.865208 56.0
51.876675 180.0
51.911087 112.0
51.929729 48.0
51.959019 124.0
51.962833 52.0
51.967876 128.0
51.981373 40.0
52.000031 204.0
52.010078 96.0
52.027267 164.0
52.056019 152.0
52.07756 232.0
52.119221 140.0
52.132153 140.0
52.14365 64.0
52.155148 44.0
52.172398 396.0
52.19109 124.0
52.235672 200.0
52.247177 96.0
52.273079 228.0
52.28315 156.0
52.306118 192.0
52.399784 140.0
52.44157 144.0
52.454544 152.0
52.471844 204.0
52.500271 168.0
52.528084 152.0
52.562603 164.0
52.59013 228.0
52.603119 172.0
52.61932 560.0
52.633438 168.0
52.649181 204.0
52.699879 144.0
52.738899 112.0
52.754799 124.0
52.798176 180.0
52.815529 116.0
52.840504 76.0
52.864857 192.0
52.879192 168.0
52.922619 196.0
52.96172 100.0
52.981998 164.0
53.004086 180.0
53.022572 164.0
53.051559 160.0
53.116814 164.0
53.157436 188.0
53.190815 176.0
53.256157 72.0
53.269135 184.0
53.304096 64.0
53.324444 132.0
53.36768 204.0
53.402954 188.0
53.414051 172.0
53.453869 144.0
53.464058 164.0
53.479015 172.0
53.495815 200.0
53.522282 60.0
53.574467 236.0
53.611927 540.0
53.635674 168.0
53.664391 168.0
53.690834 180.0
53.709988 220.0
53.735695 108.0
53.754047 164.0
53.76572 40.0
53.78508 180.0
53.830364 156.0
53.860622 140.0
53.907646 236.0
53.936604 168.0
53.95623 320.0
54.024342 96.0
54.038971 164.0
54.0858 124.0
54.12001 184.0
54.138504 232.0
54.175121 112.0
54.219078 176.0
54.229336 256.0
54.246925 76.0
54.279671 132.0
54.290562 184.0
54.301178 160.0
54.334915 140.0
54.383339 144.0
54.405357 144.0
54.421505 164.0
54.482388 192.0
54.497883 180.0
54.518456 160.0
54.562771 132.0
54.603722 256.0
54.614017 120.0
54.646381 320.0
54.659622 212.0
54.674339 208.0
54.696415 144.0
54.714081 260.0
54.730274 196.0
54.816521 188.0
54.883511 104.0
54.908474 168.0
54.937008 176.0
55.005806 152.0
55.035484 68.0
55.063541 112.0
55.101051 224.0
55.118984 136.0
55.203938 124.0
55.234993 128.0
55.308449 292.0
55.338585 116.0
55.358131 240.0
55.387455 104.0
55.408066 140.0
55.430416 164.0
55.462666 184.0
55.522327 216.0
55.54863 180.0
55.566502 184.0
55.589081 228.0
55.621735 168.0
55.651424 80.0
55.689812 160.0
55.692173 136.0
55.698029 220.0
55.718258 180.0
55.783459 160.0
55.827347 112.0
55.861607 224.0
55.879566 160.0
55.90284 200.0
55.953789 172.0
55.991947 72.0
56.039616 372.0
56.070908 160.0
56.090282 148.0
56.108902 88.0
56.129047 192.0
56.182739 276.0
56.205116 84.0
56.215565 68.0
56.263325 176.0
56.287689 188.0
56.330524 120.0
56.34359 204.0
56.366383 176.0
56.39233 308.0
56.459061 132.0
56.48748 212.0
56.507267 176.0
56.518898 140.0
56.544338 160.0
56.554813 192.0
56.575771 128.0
56.596729 152.0
56.612549 156.0
56.625828 116.0
56.662308 216.0
56.715206 140.0
56.730934 208.0
56.761551 168.0
56.800331 140.0
56.850056 156.0
56.868183 152.0
56.883076 144.0
56.944637 176.0
56.959656 168.0
56.995712 140.0
57.024265 368.0
57.04332 124.0
57.077744 132.0
57.08424 76.0
57.08984 200.0
57.140049 228.0
57.155094 196.0
57.165627 112.0
57.191212 240.0
57.264805 216.0
57.299706 172.0
57.319221 176.0
57.365944 148.0
57.406651 168.0
57.417206 140.0
57.464741 168.0
57.522823 176.0
57.537918 192.0
57.568981 164.0
57.625515 76.0
57.641079 172.0
57.684452 156.0
57.711666 156.0
57.741909 196.0
57.799393 220.0
57.824223 176.0
57.896271 100.0
57.944744 60.0
57.999298 140.0
58.029617 140.0
58.073593 96.0
58.093311 108.0
58.132072 124.0
58.143383 168.0
58.176254 260.0
58.211269 200.0
58.232956 224.0
58.243587 60.0
58.273968 128.0
58.289165 144.0
58.3074 44.0
58.357563 140.0
58.374287 140.0
58.391014 84.0
58.406227 176.0
58.462517 168.0
58.523403 132.0
58.543201 164.0
58.569313 168.0
58.581276 196.0
58.63308 228.0
58.649845 72.0
58.686432 164.0
58.71693 204.0
58.731495 180.0
58.747437 156.0
58.764217 160.0
58.821167 248.0
58.857323 148.0
58.906193 136.0
58.936749 180.0
58.952705 244.0
58.9636 252.0
58.999409 192.0
59.013527 172.0
59.026176 136.0
59.065369 208.0
59.100349 192.0
59.16769 176.0
59.187595 192.0
59.199844 108.0
59.21669 372.0
59.238609 168.0
59.250393 136.0
59.264179 192.0
59.316284 140.0
59.330082 148.0
59.353081 104.0
59.419029 128.0
59.474274 128.0
59.505661 188.0
59.515404 192.0
59.547894 160.0
59.595852 188.0
59.664753 140.0
59.704731 332.0
59.732414 140.0
59.74472 80.0
59.768322 188.0
59.797035 168.0
59.835518 124.0
59.850914 104.0
59.954124 176.0
59.998821 188.0
60.049706 212.0
60.062046 144.0
60.088272 116.0
60.118088 192.0
60.128391 152.0
60.146912 128.0
60.168522 112.0
60.204964 172.0
60.329185 36.0
60.34256 172.0
60.369385 180.0
60.408054 136.0
60.435162 176.0
60.4589 148.0
60.487041 172.0
60.521488 148.0
60.558071 152.0
60.578331 164.0
60.592274 168.0
60.606102 160.0
60.634109 132.0
60.685265 80.0
60.699219 104.0
60.72403 140.0
60.739826 216.0
60.751949 144.0
60.770443 148.0
60.842609 160.0
60.868351 148.0
60.900097 172.0
60.927372 180.0
60.962303 208.0
60.979256 184.0
61.015957 156.0
61.043941 184.0
61.064159 228.0
61.078156 108.0
61.104603 132.0
61.143505 144.0
61.157005 136.0
61.188816 144.0
61.204212 84.0
61.254177 196.0
61.278973 288.0
61.306511 244.0
61.353783 88.0
61.366253 192.0
61.377167 168.0
61.391201 180.0
61.437992 124.0
61.455154 188.0
61.474018 180.0
61.511337 96.0
61.528507 176.0
61.580036 176.0
61.603367 124.0
61.623775 192.0
61.634712 176.0
61.650341 160.0
61.663162 176.0
61.677258 144.0
61.758213 152.0
61.772293 56.0
61.786369 220.0
61.820793 188.0
61.852348 272.0
61.887669 232.0
61.941689 264.0
61.977379 240.0
62.00177 172.0
62.022827 116.0
62.091812 164.0
62.109444 116.0
62.14201 52.0
62.212631 200.0
62.234612 124.0
62.258163 96.0
62.302055 144.0
62.317852 112.0
62.340237 180.0
62.385593 156.0
62.418324 204.0
62.437904 216.0
62.475067 120.0
62.502209 240.0
62.57579 200.0
62.607281 168.0
62.637207 96.0
62.65926 124.0
62.687622 140.0
62.763283 320.0
62.804916 40.0
62.864235 92.0
62.895802 144.0
62.910007 172.0
62.930531 324.0
62.949478 152.0
62.976326 156.0
63.061642 148.0
63.105904 152.0
63.120136 152.0
63.180237 68.0
63.215046 156.0
63.266556 132.0
63.314777 160.0
63.325863 188.0
63.386063 148.0
63.396595 136.0
63.444706 212.0
63.530338 160.0
63.565243 204.0
63.616032 124.0
63.689075 228.0
63.701523 220.0
63.738323 180.0
63.778053 140.0
63.808254 148.0
63.836876 136.0
63.859566 180.0
63.874092 248.0
63.922775 152.0
63.933914 148.0
64.003441 236.0
64.019722 204.0
64.053322 160.0
64.083481 116.0
64.120239 152.0
64.137772 128.0
64.150269 220.0
64.182411 156.0
64.223877 148.0
64.257378 176.0
64.287689 96.0
64.306839 132.0
64.319611 216.0
64.343559 172.0
64.369102 136.0
64.389862 252.0
64.40583 84.0
64.448967 180.0
64.46814 204.0
64.495308 224.0
64.541672 176.0
64.554466 128.0
64.632843 140.0
64.666451 120.0
64.68158 168.0
64.693665 148.0
64.732086 200.0
64.764114 164.0
64.817749 152.0
64.837814 152.0
64.860252 140.0
64.908295 124.0
64.910324 120.0
64.916702 152.0
64.932442 172.0
64.948441 60.0
65.073608 212.0
65.084473 188.0
65.104118 156.0
65.132561 204.0
65.147484 124.0
65.185165 204.0
65.241409 340.0
65.255554 180.0
65.280891 156.0
65.316269 196.0
65.40638 184.0
65.451668 184.0
65.482048 204.0
65.495979 204.0
65.527191 192.0
65.548836 180.0
65.596878 136.0
65.675461 116.0
65.694817 100.0
65.706108 132.0
65.730644 192.0
65.759361 276.0
65.774925 216.0
65.788101 84.0
65.822319 116.0
65.854614 156.0
65.872383 136.0
65.89547 204.0
65.933777 208.0
65.960091 176.0
66.02108 120.0
66.066368 188.0
66.098724 124.0
66.111671 172.0
66.12664 168.0
66.17318 156.0
66.183678 116.0
66.221756 164.0
66.253166 184.0
66.304382 96.0
66.315727 180.0
66.32637 156.0
66.344215 188.0
66.37571 160.0
66.387062 144.0
66.401657 160.0
66.417877 140.0
66.448853 124.0
66.48764 192.0
66.509247 176.0
66.549324 108.0
66.598267 176.0
66.633354 168.0
66.637451 124.0
66.644142 200.0
66.66465 220.0
66.693909 192.0
66.706909 188.0
66.745094 184.0
66.781708 156.0
66.807732 184.0
66.844841 188.0
66.884209 156.0
66.90863 252.0
66.923279 192.0
66.978653 104.0
67.003082 112.0
67.017746 172.0
67.034393 184.0
67.047081 240.0
67.094345 132.0
67.120583 172.0
67.137962 192.0
67.157272 224.0
67.216675 216.0
67.257065 208.0
67.270531 224.0
67.283592 108.0
67.295021 172.0
67.322777 144.0
67.356606 252.0
67.379944 124.0
67.397919 176.0
67.424065 60.0
67.446945 156.0
67.469833 228.0
67.486176 32.0
67.501015 320.0
67.568443 160.0
67.61541 192.0
67.667786 172.0
67.744026 144.0
67.756226 180.0
67.810295 72.0
67.831604 160.0
67.857834 192.0
67.87751 156.0
67.91523 140.0
67.935234 164.0
67.948219 464.0
68.046509 152.0
68.080994 160.0
68.104317 156.0
68.237091 212.0
68.29464 140.0
68.353867 128.0
68.383492 120.0
68.403389 264.0
68.477554 148.0
68.543228 128.0
68.605858 224.0
68.627289 152.0
68.64048 200.0
68.653969 156.0
68.683937 172.0
68.785667 216.0
68.817032 180.0
68.841797 132.0
68.855011 84.0
68.919014 240.0
68.939262 172.0
68.990501 224.0
69.005379 120.0
69.088066 60.0
69.112885 148.0
69.131882 192.0
69.150948 72.0
69.20723 144.0
69.220474 140.0
69.240349 212.0
69.259171 208.0
69.290039 156.0
69.314896 168.0
69.328148 280.0
69.344719 144.0
69.360756 184.0
69.381699 208.0
69.399429 160.0
69.424232 192.0
69.460785 216.0
69.48455 260.0
69.510559 112.0
69.540428 204.0
69.586906 160.0
69.620117 140.0
69.63839 208.0
69.671608 176.0
69.687103 212.0
69.701515 176.0
69.766335 168.0
69.797302 208.0
69.902718 348.0
69.921021 216.0
69.935997 116.0
69.950119 160.0
69.979279 188.0
69.99926 120.0
70.06089 152.0
70.097542 116.0
70.130875 108.0
70.187691 148.0
70.20256 136.0
70.250931 164.0
70.265945 164.0
70.289299 100.0
70.366081 104.0
70.377762 188.0
70.414505 172.0
70.427864 172.0
70.441063 160.0
70.469627 212.0
70.508057 48.0
70.52108 152.0
70.525215 120.0
70.532043 184.0
70.545387 40.0
70.605026 172.0
70.631783 112.0
70.658546 124.0
70.682663 136.0
70.765663 268.0
70.785751 108.0
70.844872 108.0
70.881233 144.0
70.923126 140.0
70.968391 168.0
70.985161 64.0
71.003609 44.0
71.020378 120.0
71.099228 160.0
71.246986 244.0
71.286339 200.0
71.29908 140.0
71.322609 256.0
71.342781 148.0
71.362404 332.0
71.38475 216.0
71.423988 176.0
71.447327 144.0
71.47924 144.0
71.561485 164.0
71.583374 48.0
71.596848 148.0
71.620422 196.0
71.659172 128.0
71.677704 112.0
71.691185 172.0
71.730453 204.0
71.737976 168.0
71.767036 92.0
71.783897 128.0
71.800766 156.0
71.826141 172.0
71.852516 196.0
71.900299 196.0
71.930252 204.0
71.988083 200.0
72.023544 56.0
72.043816 124.0
72.1213 224.0
72.129242 116.0
72.175179 216.0
72.199234 156.0
72.231453 160.0
72.250893 228.0
72.286324 152.0
72.300407 244.0
72.321129 192.0
72.351601 180.0
72.424416 80.0
72.437965 180.0
72.466766 140.0
72.498962 200.0
72.511879 164.0
72.592194 140.0
72.604065 192.0
72.619331 176.0
72.637451 164.0
72.683418 180.0
72.710945 108.0
72.733582 236.0
72.757431 144.0
72.80986 136.0
72.828094 236.0
72.862831 168.0
72.880821 208.0
72.911339 144.0
72.940239 148.0
72.986137 84.0
73.084068 180.0
73.112015 148.0
73.135841 160.0
73.157974 140.0
73.180099 184.0
73.222206 160.0
73.226669 244.0
73.307854 196.0
73.341934 184.0
73.370476 156.0
73.373856 116.0
73.438744 144.0
73.474052 136.0
73.497124 288.0
73.514359 184.0
73.551735 236.0
73.594414 56.0
73.628563 152.0
73.647354 200.0
73.659309 164.0
73.68219 152.0
73.7174 60.0
73.737534 184.0
73.772087 192.0
73.796028 192.0
73.812569 108.0
73.847328 400.0
73.865555 188.0
73.948273 128.0
73.970688 164.0
73.996201 148.0
74.037292 148.0
74.0811 292.0
74.107521 164.0
74.143509 144.0
74.165787 396.0
74.18293 132.0
74.253227 172.0
74.272095 156.0
74.292679 156.0
74.320129 108.0
74.385345 120.0
74.450867 148.0
74.490089 28.0
74.504204 168.0
74.574287 180.0
74.596626 92.0
74.644768 144.0
74.658524 204.0
74.704964 72.0
74.723885 120.0
74.78756 124.0
74.817413 192.0
74.828873 192.0
74.858147 168.0
74.882256 68.0
74.896034 140.0
74.909813 228.0
74.944084 152.0
74.977005 92.0
74.999413 124.0
75.028404 132.0
75.063202 56.0
75.123566 112.0
75.144264 156.0
75.196037 148.0
75.228828 152.0
75.242638 108.0
75.265724 88.0
75.280624 144.0
75.31517 172.0
75.337624 184.0
75.377357 100.0
75.412331 152.0
75.460327 176.0
75.527763 148.0
75.546791 196.0
75.566895 220.0
75.593506 92.0
75.614273 112.0
75.635437 212.0
75.681786 92.0
75.709373 172.0
75.723412 312.0
75.742401 32.0
75.841164 108.0
75.863693 104.0
75.907043 276.0
75.966011 36.0
75.995499 152.0
76.049294 100.0
76.096786 236.0
76.132629 188.0
76.146523 192.0
76.209061 152.0
76.231651 184.0
76.295959 236.0
76.35215 152.0
76.379578 180.0
76.395081 192.0
76.421173 172.0
76.442055 116.0
76.471642 32.0
76.49427 120.0
76.583778 192.0
76.617912 164.0
76.640556 84.0
76.678894 144.0
76.718361 168.0
76.74688 124.0
76.793114 140.0
76.81559 180.0
76.866142 160.0
76.877701 196.0
76.991173 176.0
77.029404 144.0
77.111717 144.0
77.136192 204.0
77.157166 152.0
77.192139 56.0
77.23761 196.0
77.263847 176.0
77.284843 248.0
77.30584 116.0
77.32679 136.0
77.365349 224.0
77.423126 144.0
77.440689 148.0
77.475677 168.0
77.518387 148.0
77.533493 124.0
77.554527 144.0
77.589584 176.0
77.612381 116.0
77.68428 220.0
77.698318 200.0
77.710602 196.0
77.761261 188.0
77.796593 156.0
77.810143 200.0
77.848335 136.0
77.863312 124.0
77.901283 180.0
77.961693 188.0
78.138626 160.0
78.191536 184.0
78.23629 132.0
78.266006 260.0
78.282021 84.0
78.294777 236.0
78.310028 148.0
78.338547 256.0
78.394455 200.0
78.415741 128.0
78.431602 128.0
78.473915 164.0
78.494133 256.0
78.546219 132.0
78.580505 164.0
78.610001 180.0
78.669739 144.0
78.682098 124.0
78.724472 128.0
78.743896 148.0
78.825157 152.0
78.875687 336.0
78.894608 204.0
78.927681 156.0
78.940056 100.0
78.963051 152.0
79.074509 148.0
79.180733 208.0
79.244499 180.0
79.301208 148.0
79.324165 168.0
79.349487 168.0
79.40287 152.0
79.459023 144.0
79.480316 184.0
79.50161 188.0
79.59214 88.0
79.627655 196.0
79.643639 132.0
79.684074 236.0
79.716484 212.0
79.737808 184.0
79.756142 164.0
79.812469 184.0
79.840919 144.0
79.901398 140.0
79.931641 88.0
79.966362 116.0
80.015297 124.0
80.035149 132.0
80.067947 128.0
80.074478 220.0
80.111458 172.0
80.209465 152.0
80.241508 148.0
80.266518 148.0
80.299332 168.0
80.313835 172.0
80.363297 216.0
80.390335 292.0
80.450279 156.0
80.51992 204.0
80.548195 212.0
80.569733 144.0
80.587799 236.0
80.62175 80.0
80.660545 204.0
80.684311 84.0
80.711128 240.0
80.729004 168.0
80.755836 164.0
80.796974 224.0
80.832756 128.0
80.857811 188.0
80.89003 200.0
80.924324 152.0
80.997467 44.0
81.020752 88.0
81.042252 120.0
81.061966 60.0
81.084839 136.0
81.13121 188.0
81.21991 160.0
81.282417 140.0
81.302261 132.0
81.316612 128.0
81.37471 140.0
81.390213 124.0
81.453072 92.0
81.480743 208.0
81.517754 36.0
81.559082 104.0
81.623802 136.0
81.636948 188.0
81.648979 336.0
81.681358 280.0
81.737129 112.0
81.751518 212.0
81.805557 180.0
81.87574 108.0
81.890144 120.0
81.947792 132.0
81.977959 204.0
82.079361 184.0
82.117233 164.0
82.135269 220.0
82.156914 208.0
82.187592 176.0
82.214653 132.0
82.229095 148.0
82.274506 152.0
82.321159 116.0
82.369171 172.0
82.387993 152.0
82.424126 148.0
82.445808 64.0
82.502403 180.0
82.53952 152.0
82.556549 140.0
82.649925 164.0
82.677284 124.0
82.717781 128.0
82.772888 192.0
82.809448 132.0
82.858597 120.0
82.880096 140.0
82.905464 148.0
82.927002 136.0
82.968376 192.0
82.996056 172.0
83.016045 40.0
83.040764 184.0
83.063202 184.0
83.103111 120.0
83.142509 180.0
83.170258 92.0
83.241058 200.0
83.259216 124.0
83.277382 96.0
83.300468 348.0
83.399605 148.0
83.426376 212.0
83.444176 168.0
83.519112 80.0
83.539124 148.0
83.55732 160.0
83.570053 156.0
83.613724 248.0
83.630104 220.0
83.666512 168.0
83.728416 148.0
83.748451 168.0
83.773956 164.0
83.795815 160.0
83.812172 176.0
83.855949 116.0
83.914276 124.0
83.939804 136.0
83.964363 184.0
83.989044 160.0
84.012985 128.0
84.036476 208.0
84.073547 140.0
84.091217 32.0
84.117607 272.0
84.139229 212.0
84.178848 212.0
84.20076 40.0
84.230125 156.0
84.266518 228.0
84.297447 164.0
84.339615 152.0
84.390434 180.0
84.43042 72.0
84.469437 208.0
84.485901 160.0
84.506027 164.0
84.522491 164.0
84.550354 144.0
84.585594 192.0
84.599365 152.0
84.642059 200.0
84.69458 148.0
84.77153 184.0
84.789856 168.0
84.821014 76.0
84.841179 140.0
84.870506 164.0
84.883347 144.0
84.951447 152.0
85.037445 216.0
85.050293 216.0
85.102303 72.0
85.120056 176.0
85.199028 200.0
85.232101 196.0
85.301941 172.0
85.33503 112.0
85.371803 240.0
85.42981 148.0
85.463776 180.0
85.607353 152.0
85.634766 208.0
85.657074 124.0
85.671127 196.0
85.701294 156.0
85.728928 160.0
85.749466 196.0
85.757408 168.0
85.791595 88.0
85.810036 180.0
85.830315 228.0
85.85244 116.0
85.863197 164.0
85.883797 76.0
85.902237 160.0
85.959435 344.0
85.972351 132.0
86.005569 144.0
86.048027 104.0
86.073875 156.0
86.136673 108.0
86.179161 48.0
86.203285 144.0
86.245689 196.0
86.258629 132.0
86.275261 168.0
86.319633 220.0
86.349228 72.0
86.376968 116.0
86.389915 140.0
86.418037 120.0
86.445374 156.0
86.452728 152.0
86.528671 188.0
86.55278 96.0
86.595375 156.0
86.608337 136.0
86.641685 244.0
86.667618 116.0
86.688004 152.0
86.723213 164.0
86.741753 264.0
86.758438 136.0
86.86599 96.0
86.919197 200.0
86.933449 212.0
86.953194 312.0
87.040443 160.0
87.065201 368.0
87.104767 132.0
87.148415 124.0
87.187195 216.0
87.203918 96.0
87.226227 180.0
87.288986 132.0
87.352669 304.0
87.371269 204.0
87.417786 196.0
87.444977 164.0
87.464317 368.0
87.630051 116.0
87.705467 204.0
87.736282 148.0
87.795952 148.0
87.812363 140.0
87.819328 112.0
87.826607 200.0
87.910866 212.0
88.001205 200.0
88.023094 144.0
88.05349 180.0
88.074036 136.0
88.096451 184.0
88.122604 112.0
88.164406 268.0
88.232872 120.0
88.255302 168.0
88.27774 172.0
88.29866 184.0
88.360176 164.0
88.440506 168.0
88.457268 172.0
88.464523 164.0
88.502281 416.0
88.528496 168.0
88.624031 160.0
88.70649 172.0
88.733719 320.0
88.768356 152.0
88.805862 136.0
88.879295 140.0
88.90374 188.0
88.920311 376.0
88.984131 244.0
89.040466 192.0
89.053612 220.0
89.066757 172.0
89.113724 176.0
89.147545 136.0
89.166229 136.0
89.188889 196.0
89.222725 152.0
89.235886 184.0
89.296059 208.0
89.319588 260.0
89.360016 64.0
89.399529 148.0
89.412704 228.0
89.467293 184.0
89.491768 168.0
89.536957 108.0
89.567993 144.0
89.62571 176.0
89.696121 216.0
89.718719 188.0
89.732849 96.0
89.737122 124.0
89.757675 160.0
89.802284 172.0
89.827217 164.0
89.847969 152.0
89.903557 112.0
89.946205 196.0
89.963249 184.0
89.981964 220.0
90.057495 148.0
90.074493 204.0
90.099236 164.0
90.117691 208.0
90.145386 192.0
90.161987 168.0
90.187698 176.0
90.220169 180.0
90.331566 148.0
90.40905 252.0
90.464027 164.0
90.52272 144.0
90.582642 188.0
90.609383 212.0
90.645851 220.0
90.664795 160.0
90.73114 176.0
90.751991 120.0
90.767159 204.0
90.784225 92.0
90.797501 192.0
90.820259 200.0
90.850609 180.0
90.90184 332.0
90.947388 192.0
90.96067 272.0
90.979263 212.0
90.998642 152.0
91.011932 140.0
91.103249 144.0
91.127792 140.0
91.182899 88.0
91.21521 136.0
91.249428 108.0
91.289085 384.0
91.359726 112.0
91.38636 284.0
91.447258 104.0
91.512726 164.0
91.529114 56.0
91.551964 124.0
91.603394 152.0
91.631317 164.0
91.671982 140.0
91.689133 132.0
91.731064 68.0
91.763474 288.0
91.776817 120.0
91.817535 248.0
91.841652 44.0
91.856392 204.0
91.874084 104.0
91.910889 164.0
91.941368 196.0
91.990486 324.0
92.016518 240.0
92.048676 376.0
92.064949 152.0
92.093254 176.0
92.18721 156.0
92.2369 144.0
92.250282 176.0
92.287468 152.0
92.341766 208.0
92.380074 156.0
92.385208 136.0
92.390671 232.0
92.420494 188.0
92.439301 188.0
92.442719 156.0
92.491302 144.0
92.525757 56.0
92.548569 188.0
92.644493 372.0
92.659813 232.0
92.684723 120.0
92.720474 164.0
92.743607 132.0
92.759468 136.0
92.799004 212.0
92.811935 208.0
92.855331 196.0
92.893692 196.0
92.908989 160.0
92.953171 172.0
92.979103 144.0
92.995392 156.0
93.041458 144.0
93.084602 140.0
93.129791 196.0
93.154762 124.0
93.170128 240.0
93.193184 152.0
93.238228 144.0
93.268318 180.0
93.289276 32.0
93.323875 284.0
93.368103 144.0
93.389259 224.0
93.464287 52.0
93.478378 208.0
93.502769 188.0
93.552818 112.0
93.584946 192.0
93.619408 348.0
93.660255 224.0
93.667343 152.0
93.673042 268.0
93.693138 120.0
93.793602 156.0
93.831818 228.0
93.87265 92.0
93.897713 176.0
93.948059 200.0
93.956985 132.0
93.959816 164.0
93.98645 120.0
94.001427 184.0
94.005966 140.0
94.012115 200.0
94.032768 108.0
94.067787 180.0
94.094536 132.0
94.117706 64.0
94.222 132.0
94.339882 120.0
94.388214 216.0
94.401749 172.0
94.419456 288.0
94.442696 164.0
94.484924 148.0
94.530045 112.0
94.584747 292.0
94.607811 172.0
94.647659 228.0
94.68042 48.0
94.699783 252.0
94.757896 148.0
94.808273 140.0
94.828629 280.0
94.84449 152.0
94.897438 208.0
95.002167 120.0
95.025444 176.0
95.043686 220.0
95.075867 352.0
95.157417 140.0
95.189232 208.0
95.235092 164.0
95.248695 160.0
95.275887 112.0
95.328346 136.0
95.343895 116.0
95.374992 112.0
95.42041 120.0
95.45433 84.0
95.522766 124.0
95.550003 164.0
95.567131 164.0
95.585022 176.0
95.60643 236.0
95.657036 168.0
95.6791 216.0
95.684776 192.0
95.801132 116.0
95.861534 184.0
95.912651 204.0
95.935593 140.0
95.962891 140.0
95.990288 160.0
96.004326 144.0
96.05455 164.0
96.082077 640.0
96.134537 116.0
96.167236 180.0
96.193924 128.0
96.206757 180.0
96.222374 192.0
96.315117 356.0
96.364944 44.0
96.386436 104.0
96.423561 184.0
96.439201 140.0
96.468521 76.0
96.512505 164.0
96.574898 88.0
96.615723 204.0
96.642578 124.0
96.659424 196.0
96.699326 156.0
96.716942 172.0
96.754135 192.0
96.842995 168.0
96.863792 180.0
96.899055 164.0
96.914734 128.0
96.956062 220.0
96.987778 160.0
97.012718 128.0
97.067619 128.0
97.088028 344.0
97.112724 152.0
97.12645 80.0
97.167458 204.0
97.232399 124.0
97.2481 152.0
97.305031 172.0
97.338409 168.0
97.389534 180.0
97.450363 148.0
97.493591 180.0
97.529167 196.0
97.615471 44.0
97.6371 172.0
97.669472 192.0
97.719719 188.0
97.740852 216.0
97.788589 196.0
97.816147 112.0
97.887024 136.0
97.961388 364.0
98.022858 188.0
98.056931 240.0
98.075211 168.0
98.096687 436.0
98.11557 204.0
98.139282 160.0
98.160919 104.0
98.174728 276.0
98.208252 148.0
98.251648 76.0
98.267433 128.0
98.328606 180.0
98.372025 56.0
98.422783 144.0
98.449028 148.0
98.468773 120.0
98.498405 188.0
98.516724 204.0
98.555695 100.0
98.577431 112.0
98.591263 176.0
98.609047 180.0
98.66835 136.0
98.686142 140.0
98.725685 148.0
98.76722 188.0
98.790955 180.0
98.831535 100.0
98.848335 208.0
98.918404 188.0
98.951256 132.0
98.971054 192.0
99.001503 432.0
99.05027 152.0
99.06414 304.0
99.085014 104.0
99.100342 248.0
99.119614 168.0
99.151443 124.0
99.177086 100.0
99.244484 92.0
99.262329 116.0
99.284142 188.0
99.349594 188.0
99.363487 136.0
99.387009 168.0
99.417061 132.0
99.440872 304.0
99.460716 188.0
99.48851 164.0
99.540131 96.0
99.589783 148.0
99.638756 244.0
99.69706 184.0
99.737267 176.0
99.760666 204.0
99.774582 140.0
99.832848 92.0
99.849297 180.0
99.903847 236.0
99.929703 172.0
100.050682 188.0
100.078979 172.0
100.11084 192.0
100.130753 168.0
100.150414 196.0
100.198479 116.0
100.246109 168.0
100.290138 152.0
100.388702 200.0
100.419334 216.0
100.455643 156.0
100.537445 160.0
100.555405 156.0
100.62722 164.0
100.651222 172.0
100.67392 164.0
100.721825 148.0
100.745094 124.0
100.790764 172.0
100.819023 108.0
100.854996 152.0
100.874985 68.0
100.898972 140.0
101.022964 220.0
101.070976 176.0
101.127007 204.0
101.171043 116.0
101.193069 56.0
101.301376 148.0
101.331261 104.0
101.349289 172.0
101.37133 44.0
101.399391 136.0
101.415421 172.0
101.449501 172.0
101.478943 192.0
101.539726 184.0
101.56179 164.0
101.606026 152.0
101.633202 172.0
101.648056 180.0
101.664108 44.0
101.736366 156.0
101.756439 156.0
101.774467 184.0
101.862877 132.0
101.911591 144.0
101.957306 128.0
101.997505 44.0
102.049118 196.0
102.063843 136.0
102.083954 204.0
102.134232 124.0
102.192574 184.0
102.210678 120.0
102.244888 44.0
102.286232 148.0
102.301247 120.0
102.331444 268.0
102.364876 152.0
102.368576 208.0
102.376595 360.0
102.391853 164.0
102.411995 176.0
102.482498 168.0
102.50869 156.0
102.544968 132.0
102.571167 180.0
102.589043 208.0
102.638092 164.0
102.671982 328.0
102.704247 156.0
102.744591 196.0
102.791 100.0
102.825302 148.0
102.847504 124.0
102.908661 424.0
102.962585 176.0
102.980766 128.0
103.048592 164.0
103.073112 196.0
103.091881 140.0
103.13028 216.0
103.172722 212.0
103.285965 184.0
103.30619 172.0
103.332809 152.0
103.358604 168.0
103.366142 152.0
103.372597 112.0
103.405342 260.0
103.447845 152.0
103.522758 160.0
103.54908 160.0
103.565285 200.0
103.615929 208.0
103.670639 196.0
103.692924 136.0
103.719276 108.0
103.743813 192.0
103.76664 196.0
103.793022 128.0
103.812538 140.0
103.845421 204.0
103.865265 164.0
103.879463 152.0
103.911926 92.0
103.950478 176.0
104.074295 188.0
104.088509 148.0
104.133186 60.0
104.177872 168.0
104.21241 200.0
104.301056 148.0
104.328247 156.0
104.362808 132.0
104.403481 160.0
104.500656 196.0
104.525528 160.0
104.582512 48.0
104.628685 176.0
104.656525 180.0
104.688377 268.0
104.74337 32.0
104.769852 128.0
104.806572 156.0
104.834328 180.0
104.89212 124.0
104.906387 164.0
104.94651 172.0
104.961433 168.0
104.99202 148.0
105.012413 136.0
105.120049 168.0
105.287933 164.0
105.302231 128.0
105.318565 128.0
105.35125 40.0
105.398239 140.0
105.469765 220.0
105.518829 196.0
105.557678 144.0
105.578125 340.0
105.614937 156.0
105.701851 224.0
105.809341 136.0
105.84005 212.0
105.87281 376.0
105.919922 172.0
105.958313 172.0
106.041618 232.0
106.097214 172.0
106.124855 176.0
106.237648 192.0
106.270477 192.0
106.293861 152.0
106.335258 208.0
106.38723 184.0
106.422356 152.0
106.453125 300.0
106.482185 204.0
106.514771 280.0
106.529144 36.0
106.606438 136.0
106.656487 132.0
106.675049 140.0
106.721512 300.0
106.769623 200.0
106.834038 152.0
106.849846 184.0
106.887566 184.0
106.92392 144.0
106.939804 156.0
106.954796 196.0
107.001495 128.0
107.016548 184.0
107.040207 188.0
107.073914 392.0
107.113251 176.0
107.136002 216.0
107.162781 116.0
107.201607 156.0
107.224602 120.0
107.304993 204.0
107.327675 136.0
107.352417 180.0
107.421211 192.0
107.449509 216.0
107.490738 140.0
107.538086 184.0
107.583519 180.0
107.625877 212.0
107.641312 204.0
107.661957 136.0
107.740494 180.0
107.782829 140.0
107.812767 140.0
107.845833 168.0
107.924721 252.0
107.940926 208.0
107.959541 104.0
107.988495 160.0
108.014877 180.0
108.083466 668.0
108.127457 212.0
108.147804 136.0
108.163712 204.0
108.250008 240.0
108.274094 168.0
108.321732 152.0
108.336235 164.0
108.400322 120.0
108.419113 156.0
108.458961 220.0
108.491661 176.0
108.601555 56.0
108.616074 212.0
108.648209 196.0
108.688683 164.0
108.717735 76.0
108.747116 128.0
108.765472 176.0
108.794533 168.0
108.826736 172.0
108.839172 88.0
108.867203 100.0
108.894203 160.0
108.923279 120.0
108.973137 172.0
108.998993 176.0
109.033195 124.0
109.056259 160.0
109.083282 120.0
109.108223 160.0
109.129013 156.0
109.14357 88.0
109.162285 192.0
109.199249 152.0
109.226753 168.0
109.297081 204.0
109.342796 176.0
109.38282 44.0
109.403633 124.0
109.443192 232.0
109.460327 192.0
109.484833 184.0
109.536652 200.0
109.540321 144.0
109.576485 180.0
109.618156 172.0
109.661919 172.0
109.677902 48.0
109.739052 132.0
109.764069 128.0
109.78492 92.0
109.824547 64.0
109.870438 84.0
109.931511 184.0
109.96434 172.0
110.022316 160.0
110.049927 168.0
110.097343 6424.0
110.153236 304.0
110.186447 152.0
110.201225 100.0
110.217018 216.0
110.246269 240.0
110.340332 76.0
110.38842 112.0
110.465805 92.0
110.49041 204.0
110.511383 64.0
110.554947 132.0
110.579399 124.0
110.601814 72.0
110.635307 124.0
110.696022 208.0
110.72953 48.0
110.767235 324.0
110.783989 88.0
110.817513 164.0
110.834274 148.0
110.876183 244.0
110.928413 200.0
110.975731 124.0
111.004059 140.0
111.029663 152.0
111.043259 196.0
111.073265 216.0
111.103271 824.0
111.132622 232.0
111.148209 116.0
111.153481 152.0
111.214111 128.0
111.247429 132.0
111.272408 176.0
111.28006 148.0
111.285797 204.0
111.318138 124.0
111.375519 72.0
111.400726 124.0
111.415428 144.0
111.461655 212.0
111.486366 172.0
111.542191 372.0
111.579857 84.0
111.619865 456.0
111.709892 320.0
111.743393 156.0
111.774139 164.0
111.80809 172.0
111.830978 360.0
111.848068 168.0
111.890747 448.0
111.921906 128.0
111.951271 424.0
111.974144 180.0
111.97818 108.0
111.986839 276.0
112.012383 196.0
112.041626 800.0
112.052177 228.0
112.058014 344.0
112.090019 1256.0
112.113762 197468.0
112.187332 92.0
112.207436 108.0
112.213455 188.0
112.256325 184.0
112.27121 228.0
112.313393 248.0
112.332756 176.0
112.348541 156.0
112.380875 108.0
112.417755 244.0
112.43692 304.0
112.459839 5044.0
112.487305 124.0
112.533218 112.0
112.568443 148.0
112.620636 84.0
112.645676 64.0
112.66983 176.0
112.687775 56.0
112.693283 52.0
112.717323 264.0
112.722672 72.0
112.758614 52.0
112.765755 48.0
112.775787 124.0
112.795143 156.0
112.827408 60.0
112.854431 72.0
112.872337 100.0
112.888725 76.0
112.922386 160.0
112.929008 128.0
112.934502 216.0
112.959808 180.0
112.979675 132.0
113.003258 80.0
113.027946 176.0
113.031036 144.0
113.08149 112.0
113.116302 19644.0
113.150032 300.0
113.171547 148.0
113.197754 172.0
113.242142 64.0
113.281898 124.0
113.313072 172.0
113.345261 92.0
113.369186 164.0
113.387733 192.0
113.424362 64.0
113.440063 108.0
113.475243 60.0
113.492203 76.0
113.509956 60.0
113.526131 40.0
113.549034 40.0
113.574097 84.0
113.599281 272.0
113.624031 152.0
113.658134 104.0
113.676743 148.0
113.702209 352.0
113.727676 48.0
113.744888 256.0
113.781921 180.0
113.788353 116.0
113.840904 168.0
113.865349 196.0
113.903854 196.0
113.927155 112.0
113.953369 312.0
113.962418 100.0
113.966637 372.0
113.988274 240.0
114.013748 80.0
114.038765 392.0
114.066971 236.0
114.08963 172.0
114.117699 688.0
114.161072 116.0
114.186592 52.0
114.204781 64.0
114.222748 88.0
114.248276 60.0
114.263168 48.0
114.278061 84.0
114.325798 204.0
114.340836 224.0
114.384468 64.0
114.444077 116.0
114.52713 56.0
114.567596 48.0
114.586769 32.0
114.636253 140.0
114.667747 152.0
114.714638 120.0
114.744484 144.0
114.776779 192.0
114.804184 132.0
114.819115 40.0
114.848892 56.0
114.885323 100.0
114.963417 56.0
114.996193 116.0
115.092255 232.0
115.129585 124.0
115.16671 148.0
115.190491 40.0
115.243896 44.0
115.280228 172.0
115.318695 80.0
115.337929 200.0
115.362511 144.0
115.41111 156.0
115.523354 160.0
115.586006 180.0
115.607407 56.0
115.630943 220.0
115.720848 124.0
115.755112 80.0
115.792786 128.0
115.812584 148.0
115.842918 68.0
115.909164 100.0
115.973167 168.0
116.044365 92.0
116.089394 48.0
116.110573 164.0
116.190201 144.0
116.226677 168.0
116.278183 184.0
116.308228 120.0
116.400963 132.0
116.428459 184.0
116.469269 176.0
116.722855 76.0
116.74221 92.0
116.763718 60.0
116.800278 128.0
116.838799 212.0
116.884178 180.0
116.912155 124.0
116.931526 132.0
117.030357 136.0
117.062843 112.0
117.144684 248.0
117.181305 124.0
117.213631 144.0
117.248108 168.0
117.308456 184.0
117.353729 108.0
117.414108 124.0
117.571594 184.0
117.634186 124.0
117.67952 176.0
117.724861 76.0
117.828537 52.0
118.029541 152.0
118.057655 40.0
118.167969 40.0
118.222061 144.0
118.349777 32.0
118.364929 52.0
118.421234 128.0
118.43856 48.0
118.475388 244.0
118.589996 112.0
118.622742 108.0
118.644424 152.0
118.835274 60.0
118.861305 140.0
118.927574 208.0
118.969826 80.0
119.008904 104.0
119.082733 40.0
119.125908 196.0
119.15876 168.0
119.173973 56.0
119.213448 168.0
119.243507 64.0
119.291328 100.0
119.351044 128.0
119.396919 356.0
119.430489 164.0
119.456589 56.0
119.488167 216.0
119.524033 192.0
119.538353 76.0
119.595848 152.0
119.669861 192.0
119.726479 56.0
119.759148 152.0
119.804893 152.0
119.868073 108.0
119.95961 136.0
120.033737 104.0
120.070808 44.0
120.090439 224.0
120.155876 48.0
120.190788 72.0
120.217903 84.0
120.269897 208.0
120.292694 144.0
120.328285 72.0
120.354492 168.0
120.397896 164.0
120.4599 164.0
120.542336 148.0
120.568558 200.0
120.594696 92.0
120.623848 204.0
120.667229 256.0
120.701904 184.0
120.733597 364.0
120.763138 220.0
120.782822 100.0
120.857201 172.0
120.8769 144.0
120.9338 164.0
120.96225 48.0
120.996559 184.0
121.082672 132.0
121.214111 52.0
121.270996 188.0
121.30835 156.0
121.330276 152.0
121.396782 216.0
121.459656 124.0
121.525467 172.0
121.573738 160.0
121.608856 140.0
121.646164 120.0
121.674706 132.0
121.771324 36.0
121.793282 228.0
121.883354 72.0
121.942688 104.0
122.059204 48.0
122.078995 208.0
122.09536 504.0
122.144974 44.0
122.183136 92.0
122.292389 168.0
122.316605 60.0
122.395859 120.0
122.420082 112.0
122.525803 168.0
122.550934 128.0
122.589699 76.0
122.752823 136.0
122.786156 140.0
122.861191 72.0
122.935913 104.0
122.999557 2080.0
123.074974 52.0
123.101807 296.0
123.118156 448.0
123.216324 120.0
123.287033 72.0
123.315765 36.0
123.415237 60.0
123.483788 128.0
123.574486 168.0
123.640144 172.0
123.685135 172.0
123.716125 180.0
123.824623 208.0
123.8955 72.0
123.942024 216.0
123.957535 60.0
124.006187 532.0
124.037323 124.0
124.090523 68.0
124.110191 680.0
124.172066 176.0
124.214714 140.0
124.243553 160.0
124.280907 124.0
124.390007 144.0
124.469933 152.0
124.545441 168.0
124.614304 176.0
124.6343 52.0
124.75209 224.0
124.775398 116.0
124.808311 84.0
124.885506 60.0
124.918869 76.0
124.950012 176.0
124.997986 980.0
125.017456 268.0
125.050148 100.0
125.123604 160.0
125.15255 96.0
125.202751 220.0
125.239395 220.0
125.279495 128.0
125.306229 32.0
125.37307 152.0
125.437126 168.0
125.529114 172.0
125.581474 92.0
125.607178 160.0
125.682236 268.0
125.70311 148.0
125.738815 144.0
125.776756 72.0
125.803543 92.0
125.832565 128.0
125.948685 184.0
126.005524 172.0
126.096146 96.0
126.167671 60.0
126.236984 148.0
126.272766 148.0
126.360008 188.0
126.423401 120.0
126.599503 204.0
126.615181 188.0
126.733902 116.0
126.774239 200.0
126.795555 164.0
126.825783 36.0
126.884064 172.0
126.958061 192.0
127.004623 168.0
127.0215 216.0
127.164452 88.0
127.30233 116.0
127.307388 48.0
127.317207 148.0
127.368774 92.0
127.469872 144.0
127.532799 168.0
127.564262 224.0
127.593491 156.0
127.666206 152.0
127.697365 144.0
127.755409 160.0
127.840904 164.0
127.933189 132.0
128.005234 244.0
128.048019 172.0
128.103378 236.0
128.203461 132.0
128.313904 188.0
128.340973 176.0
128.361267 220.0
128.395081 220.0
128.485306 116.0
128.501099 164.0
128.551193 192.0
128.661331 184.0
128.706497 180.0
128.726807 152.0
128.744873 108.0
128.794571 180.0
128.821671 48.0
128.85556 156.0
128.934647 92.0
128.96402 100.0
128.997925 188.0
129.18335 136.0
129.226334 212.0
129.30101 76.0
129.325912 84.0
129.4142 168.0
129.455673 100.0
129.541016 160.0
129.618042 144.0
129.747238 168.0
129.908249 144.0
129.973511 156.0
130.010345 112.0
130.171524 128.0
130.475983 52.0
130.589676 160.0
130.607864 80.0
130.646652 164.0
130.701141 144.0
130.726166 56.0
130.969772 76.0
130.996689 196.0
131.028992 224.0
131.088242 140.0
131.149765 148.0
131.201447 208.0
131.270599 184.0
131.334457 192.0
131.523834 72.0
131.787872 180.0
131.849014 128.0
131.871002 116.0
131.971588 148.0
132.148819 164.0
132.27356 176.0
132.314774 180.0
132.410934 180.0
132.555267 132.0
132.63089 112.0
132.724884 152.0
132.807434 40.0
132.896912 68.0
132.917557 108.0
132.956177 548.0
133.018539 164.0
133.050674 168.0
133.083817 164.0
133.188446 64.0
133.225204 128.0
133.307922 112.0
133.378693 156.0
133.461929 56.0
133.52861 168.0
133.666641 140.0
133.687347 104.0
133.74028 140.0
133.761002 144.0
133.797836 204.0
133.880722 276.0
133.986679 68.0
134.030441 160.0
134.072357 208.0
134.159515 252.0
134.300629 140.0
134.36937 216.0
134.440231 220.0
134.519379 192.0
134.540146 204.0
134.65329 220.0
134.690247 120.0
134.741074 132.0
134.757248 184.0
134.805771 172.0
134.842743 164.0
134.90773 140.0
134.955414 292.0
135.025375 228.0
135.064697 180.0
135.101715 204.0
135.180374 188.0
135.31694 244.0
135.418823 140.0
135.455887 188.0
135.516113 192.0
135.629669 64.0
135.730103 144.0
135.771088 148.0
135.787323 116.0
135.879745 152.0
135.885483 128.0
135.894806 192.0
135.949722 112.0
135.991501 120.0
136.042618 152.0
136.095963 140.0
136.113434 312.0
136.16098 172.0
136.198135 272.0
136.21785 120.0
136.33754 140.0
136.370071 80.0
136.442139 88.0
136.472351 132.0
136.651443 124.0
136.75235 128.0
136.851608 144.0
136.867905 160.0
136.916809 108.0
136.942429 148.0
136.963379 56.0
137.009979 176.0
137.069336 184.0
137.096176 208.0
137.121811 176.0
137.309387 104.0
137.329315 204.0
137.352646 124.0
137.441299 148.0
137.569656 212.0
137.593002 104.0
137.716751 220.0
137.814865 124.0
137.833572 120.0
137.906006 116.0
137.957428 140.0
138.027573 160.0
138.130585 320.0
138.29895 116.0
138.380875 72.0
138.582291 140.0
138.605728 160.0
138.798782 208.0
138.887054 196.0
138.924576 160.0
138.962112 132.0
138.997314 264.0
139.018433 152.0
139.100571 184.0
139.200119 192.0
139.240143 184.0
139.260239 144.0
139.298737 92.0
139.342453 196.0
139.375351 164.0
139.3965 180.0
139.436447 216.0
139.452896 124.0
139.490509 168.0
139.514008 128.0
139.593948 120.0
139.727203 184.0
139.763306 176.0
139.808014 64.0
139.838608 188.0
139.885681 160.0
139.960861 172.0
140.053085 172.0
140.081131 148.0
140.12825 232.0
140.154297 140.0
140.182449 148.0
140.218475 156.0
140.375732 156.0
140.462997 104.0
140.557373 196.0
140.69426 152.0
140.710785 156.0
140.748764 180.0
140.783981 128.0
140.921616 164.0
140.936752 136.0
140.956421 80.0
140.992218 220.0
141.050949 72.0
141.098236 172.0
141.191895 184.0
141.526459 184.0
141.576187 176.0
141.763336 184.0
141.78891 168.0
141.945862 144.0
142.050217 224.0
142.074997 160.0
142.145111 176.0
142.173584 132.0
142.27565 168.0
142.378632 152.0
142.479889 180.0
142.524597 200.0
142.548798 192.0
142.572556 216.0
142.6082 136.0
142.642609 164.0
142.658112 236.0
142.865005 72.0
142.922104 148.0
143.012543 288.0
143.034027 148.0
143.224442 212.0
143.24826 108.0
143.369781 116.0
143.3936 164.0
143.50087 176.0
143.522339 108.0
143.632034 44.0
143.648727 88.0
143.739395 196.0
143.760864 352.0
143.808594 136.0
143.894531 156.0
143.955292 216.0
144.126205 144.0
144.322205 152.0
144.358063 164.0
144.468094 224.0
144.664322 160.0
144.710434 212.0
144.807983 116.0
144.824753 164.0
144.976532 68.0
144.992447 212.0
145.049973 244.0
145.13382 164.0
145.172256 132.0
145.234604 116.0
145.323364 176.0
145.343002 152.0
145.681076 96.0
145.714706 152.0
145.759552 196.0
145.825241 144.0
145.878128 216.0
145.894943 236.0
145.911774 196.0
145.940628 136.0
146.043137 356.0
146.133041 136.0
146.195602 204.0
146.279846 124.0
146.337616 128.0
146.383041 120.0
146.405045 296.0
146.448395 144.0
146.489334 84.0
146.51889 180.0
146.597763 124.0
146.665237 200.0
146.766495 124.0
146.797211 216.0
146.891129 244.0
146.93129 204.0
146.952209 156.0
147.07045 120.0
147.125961 104.0
147.142868 48.0
147.159775 132.0
147.205643 212.0
147.263611 124.0
147.291077 224.0
147.321579 208.0
147.372314 116.0
147.503159 208.0
147.607864 92.0
147.715591 176.0
147.737366 208.0
147.778503 196.0
147.797852 208.0
147.841415 476.0
147.923706 204.0
148.111984 332.0
148.192505 200.0
148.311249 180.0
148.381546 76.0
148.466415 100.0
148.493088 220.0
148.536758 120.0
148.731445 84.0
148.854691 104.0
148.97612 184.0
149.119354 156.0
149.199692 216.0
149.250748 68.0
149.282364 176.0
149.345596 204.0
149.362625 148.0
149.389374 148.0
149.410141 156.0
149.44046 128.0
149.479401 88.0
149.518326 116.0
149.571869 132.0
149.618134 160.0
149.659515 36.0
149.759354 164.0
149.777588 80.0
149.808075 156.0
149.827072 220.0
149.995712 160.0
150.039032 160.0
150.127686 10480.0
150.183731 184.0
150.207504 224.0
150.242004 168.0
150.286606 140.0
150.351791 80.0
150.437057 60.0
150.468964 116.0
150.544647 88.0
150.573959 52.0
150.622803 132.0
150.702591 236.0
150.764511 28.0
150.825806 176.0
150.930725 172.0
150.969849 88.0
151.004089 108.0
151.050568 80.0
151.089706 228.0
151.132614 1568.0
151.189621 220.0
151.212051 116.0
151.250214 304.0
151.290375 108.0
151.312408 224.0
151.329544 108.0
151.361374 168.0
151.383957 180.0
151.493637 128.0
151.559784 40.0
151.592422 176.0
151.658417 112.0
151.704376 132.0
151.749695 124.0
151.76889 164.0
151.790192 168.0
151.829224 100.0
151.866211 148.0
151.88829 124.0
151.912811 288.0
151.942261 140.0
151.971695 116.0
151.990692 156.0
151.998352 116.0
152.009277 140.0
152.026703 300.0
152.061432 140.0
152.086899 352.0
152.11351 696.0
152.144211 141844.0
152.209778 40.0
152.218124 144.0
152.251801 72.0
152.292419 92.0
152.318115 180.0
152.341827 68.0
152.370605 100.0
152.380737 132.0
152.395355 196.0
152.446915 188.0
152.465439 228.0
152.493256 124.0
152.510147 104.0
152.547806 616.0
152.578323 324.0
152.599762 72.0
152.607605 92.0
152.625824 88.0
152.659912 176.0
152.688354 108.0
152.719299 48.0
152.732864 76.0
152.761932 72.0
152.795502 64.0
152.834595 200.0
152.876266 60.0
152.914185 112.0
152.947311 36.0
152.985992 56.0
153.001465 48.0
153.026962 80.0
153.044586 108.0
153.068604 240.0
153.146805 12316.0
153.183807 352.0
153.206635 64.0
153.249222 100.0
153.27977 136.0
153.304413 128.0
153.328247 48.0
153.341385 84.0
153.370453 108.0
153.385742 152.0
153.4048 88.0
153.422729 32.0
153.496613 132.0
153.517029 76.0
153.536865 68.0
153.565735 56.0
153.610672 96.0
153.636566 56.0
153.723633 60.0
153.794342 68.0
153.838593 104.0
153.865555 64.0
153.911697 156.0
153.968781 148.0
154.01358 108.0
154.048187 172.0
154.074066 120.0
154.15123 1024.0
154.176468 160.0
154.206665 168.0
154.22464 124.0
154.24968 68.0
154.282639 116.0
154.333969 128.0
154.358459 124.0
154.37825 80.0
154.415939 164.0
154.436325 116.0
154.49202 56.0
154.540329 140.0
154.593033 68.0
154.67514 32.0
154.723877 64.0
154.801407 128.0
154.853409 180.0
154.933105 92.0
154.964874 64.0
154.992126 112.0
155.046646 140.0
155.067322 164.0
155.093735 120.0
155.149948 184.0
155.230087 204.0
155.309448 148.0
155.381393 56.0
155.411163 116.0
155.44342 132.0
155.495529 220.0
155.512909 60.0
155.644363 184.0
155.704071 84.0
155.7314 80.0
155.850632 160.0
155.880447 204.0
156.007202 100.0
156.046982 312.0
156.133163 152.0
156.196198 124.0
156.288239 64.0
156.576996 120.0
156.614349 104.0
156.728943 104.0
156.871002 80.0
156.913376 44.0
157.157806 196.0
157.427383 96.0
157.472336 120.0
157.517288 72.0
157.552261 80.0
157.629715 220.0
157.764679 124.0
157.802185 36.0
157.882202 80.0
157.899704 180.0
158.062302 184.0
158.094833 108.0
158.179932 128.0
158.242523 60.0
158.312622 188.0
158.337662 72.0
158.362717 112.0
158.385254 180.0
158.497986 176.0
158.566345 160.0
158.622086 216.0
158.648361 136.0
158.675949 144.0
158.708542 160.0
158.732803 112.0
158.772995 232.0
158.79631 156.0
158.818878 96.0
158.838943 128.0
158.865356 164.0
158.906479 204.0
158.935898 148.0
158.946869 224.0
158.977234 76548.0
159.023911 184.0
159.033234 436.0
159.069138 112.0
159.085983 80.0
159.094193 128.0
159.104034 44.0
159.140091 108.0
159.196426 52.0
159.212906 244.0
159.242371 104.0
159.283081 140.0
159.350739 32.0
159.389557 576.0
159.429794 72.0
159.453613 212.0
159.517487 144.0
159.558517 88.0
159.579773 76.0
159.662552 104.0
159.70047 64.0
159.851425 88.0
159.894196 64.0
159.926971 168.0
159.980576 4804.0
160.085373 68.0
160.108185 56.0
160.159866 92.0
160.188629 124.0
160.227173 92.0
160.259323 68.0
160.289566 44.0
160.337433 40.0
160.375244 64.0
160.449844 108.0
160.458588 64.0
160.464554 112.0
160.503815 80.0
160.529022 48.0
160.546677 52.0
160.587219 56.0
160.657654 144.0
160.715683 132.0
160.773834 92.0
160.793915 40.0
160.821045 160.0
160.868011 156.0
160.905426 292.0
160.916443 140.0
160.974136 41152.0
161.033661 200.0
161.07515 228.0
161.110535 64.0
161.14502 180.0
161.155106 252.0
161.164948 120.0
161.171677 148.0
161.198685 28.0
161.217392 172.0
161.253555 144.0
161.279602 80.0
161.336517 104.0
161.368439 244.0
161.40271 92.0
161.436523 96.0
161.467285 60.0
161.503082 52.0
161.647369 72.0
161.769547 84.0
161.830307 104.0
161.921478 160.0
161.976288 2544.0
162.017731 100.0
162.096268 68.0
162.175186 64.0
162.233124 108.0
162.273697 132.0
162.343369 92.0
162.387802 68.0
162.463898 52.0
162.529861 76.0
162.610107 120.0
162.649139 208.0
162.73291 116.0
162.821777 80.0
162.867508 52.0
162.935455 108.0
162.970779 1672.0
163.02681 96.0
163.063232 100.0
163.117523 40.0
163.162781 40.0
163.213516 248.0
163.274948 140.0
163.317383 76.0
163.470032 136.0
163.599838 112.0
163.648209 56.0
163.727142 168.0
163.887619 68.0
163.938583 84.0
164.104263 60.0
164.165451 180.0
164.27002 40.0
164.39505 40.0
164.476715 156.0
164.509903 56.0
164.63501 116.0
164.767822 44.0
164.941589 48.0
165.032211 104.0
165.063461 168.0
165.097549 120.0
165.220322 164.0
165.284286 68.0
165.445526 60.0
166.258041 56.0
166.296539 56.0
166.494217 184.0
166.990219 48.0
167.013382 144.0
167.05304 200.0
167.237228 144.0
167.255234 136.0
167.600327 128.0
167.984467 32.0
168.005096 168.0
168.082489 64.0
168.130768 192.0
168.552444 224.0
168.676498 108.0
168.90921 80.0
169.243057 196.0
169.292252 136.0
169.3311 60.0
169.393265 60.0
169.478745 112.0
169.499481 68.0
169.592773 80.0
170.080399 188.0
170.407593 136.0
170.75592 56.0
170.841751 92.0
171.159271 84.0
171.25824 96.0
171.766495 72.0
171.92305 216.0
172.019608 156.0
172.110992 140.0
172.189331 140.0
172.481949 168.0
172.586533 144.0
172.610062 188.0
172.709442 196.0
172.973709 188.0
172.992035 180.0
173.405884 156.0
174.253448 80.0
174.313873 132.0
174.93457 32.0
174.997757 108.0
175.139954 168.0
175.184738 148.0
175.334915 100.0
175.413986 72.0
175.701431 168.0
176.269089 96.0
176.337799 56.0
176.631287 52.0
176.670959 156.0
177.245483 188.0
177.478729 156.0
177.714783 144.0
177.897903 128.0
178.05722 96.0
178.216599 200.0
178.495697 84.0
178.785645 60.0
178.998596 128.0
179.043869 120.0
179.081161 212.0
179.102463 84.0
179.182373 64.0
179.768967 144.0
179.835693 140.0
180.268326 136.0
180.380585 136.0
180.511581 108.0
180.65065 112.0
180.672058 136.0
180.92897 80.0
181.05481 152.0
181.124451 108.0
181.16629 224.0
181.269119 88.0
181.362915 144.0
181.698105 44.0
182.004074 172.0
182.03093 64.0
182.081955 100.0
182.174469 188.0
182.329117 72.0
182.432419 156.0
182.530731 192.0
182.592575 76.0
182.736267 192.0
182.939667 76.0
182.984421 180.0
182.995239 112.0
183.002121 140.0
183.047363 144.0
183.082367 192.0
183.110641 120.0
183.127213 172.0
183.185959 34848.0
183.265533 84.0
183.287094 80.0
183.31134 64.0
183.348877 56.0
183.395386 76.0
183.456879 40.0
183.499283 148.0
183.56424 100.0
183.589005 56.0
183.619461 48.0
183.640244 72.0
183.710373 76.0
183.732727 88.0
183.787354 112.0
183.826202 60.0
183.939743 48.0
183.977524 196.0
184.006897 96.0
184.061234 124.0
184.18779 3440.0
184.300476 76.0
184.334045 192.0
184.417816 44.0
184.451614 64.0
184.4935 52.0
184.547577 112.0
184.590836 140.0
184.663406 72.0
184.71524 160.0
184.772049 44.0
184.888412 60.0
184.912766 76.0
185.050812 72.0
185.069092 48.0
185.084793 80.0
185.121216 100.0
185.192764 364.0
185.256638 56.0
185.299988 100.0
185.360001 240.0
185.397079 120.0
185.414246 164.0
185.471466 128.0
185.510666 136.0
185.541183 88.0
185.575073 72.0
185.712021 60.0
185.994202 200.0
186.175461 236.0
186.211411 144.0
186.317337 108.0
186.339081 104.0
186.41243 144.0
186.458633 124.0
186.610855 68.0
186.654358 92.0
186.937256 240.0
186.95903 112.0
187.014938 72.0
188.196564 60.0
188.83873 132.0
188.912582 232.0
189.284805 120.0
189.495697 32.0
189.756714 204.0
190.123627 120.0
190.249878 136.0
190.711349 120.0
190.821304 116.0
191.110092 112.0
191.167877 116.0
191.38533 84.0
191.528534 128.0
191.798553 56.0
192.121185 168.0
192.15773 164.0
192.399918 136.0
193.051987 72.0
193.195801 52.0
193.314774 112.0
193.370117 92.0
193.658066 168.0
193.767761 116.0
193.876923 124.0
193.965622 184.0
194.287292 236.0
194.448227 60.0
194.634216 72.0
194.909195 44.0
195.137115 28.0
195.303955 120.0
195.569748 168.0
196.01387 156.0
196.312134 132.0
196.379059 100.0
196.780884 96.0
196.926102 164.0
197.155182 136.0
197.457108 168.0
197.487885 104.0
197.745285 204.0
197.899246 204.0
197.932846 128.0
198.925308 104.0
198.989868 192.0
199.411224 116.0
199.50679 128.0
199.875229 324.0
199.973724 120.0
200.003342 828.0
200.421478 148.0
200.813309 44.0
200.881012 88.0
201.004791 128.0
201.259186 128.0
202.000916 412.0
202.047714 156.0
202.194839 128.0
202.302399 32.0
202.996552 92.0
203.470383 176.0
203.541351 176.0
203.677673 128.0
204.004456 104.0
204.055618 152.0
204.084061 56.0
204.223404 176.0
204.258331 200.0
204.320114 168.0
204.573395 164.0
204.701508 156.0
204.769852 64.0
204.95787 160.0
205.565216 148.0
205.622299 376.0
205.742188 36.0
209.0728 112.0
209.455719 132.0
209.856293 124.0
210.794373 144.0
210.869507 168.0
210.91864 52.0
210.994843 144.0
211.031387 100.0
211.092102 96.0
211.355331 120.0
211.688202 132.0
212.430161 176.0
212.743561 92.0
213.187943 88.0
213.542618 56.0
213.6008 72.0
213.784088 156.0
213.999481 124.0
214.083923 96.0
214.252853 132.0
215.504456 176.0
215.644714 72.0
215.779175 156.0
217.05574 132.0
217.780609 152.0
217.824661 140.0
217.874603 172.0
217.942184 140.0
217.974503 104.0
218.012299 7196.0
218.057632 208.0
218.091385 124.0
218.618484 120.0
218.718552 40.0
218.945251 56.0
219.014954 628.0
219.222168 92.0
219.354797 108.0
219.466827 184.0
219.561188 192.0
219.966949 160.0
220.010544 4404.0
220.074615 156.0
220.209869 80.0
220.322708 104.0
220.372925 80.0
220.491119 68.0
220.586884 212.0
220.650742 112.0
220.674393 32.0
220.789719 108.0
220.824265 224.0
221.016693 272.0
221.189133 92.0
221.440811 88.0
221.585953 148.0
221.707443 40.0
222.003616 172.0
222.072098 112.0
222.110657 60.0
222.401428 52.0
222.519135 80.0
222.641922 108.0
222.769623 64.0
222.876587 72.0
223.161911 160.0
223.399841 172.0
223.512894 184.0
223.706345 180.0
224.164993 76.0
225.128525 36.0
225.708221 32.0
225.791962 92.0
226.360535 148.0
226.447388 36.0
226.552216 124.0
226.684052 64.0
226.794937 204.0
226.863876 176.0
226.98381 112.0
227.716034 44.0
228.605896 120.0
228.702194 228.0
228.7323 104.0
228.955093 96.0
229.027374 148.0
230.025436 136.0
230.895599 120.0
231.031708 168.0
231.49176 148.0
231.73407 188.0
232.143265 140.0
232.173599 116.0
232.304016 176.0
232.54068 112.0
232.926285 160.0
233.436874 60.0
233.646744 100.0
234.31955 76.0
234.487152 156.0
234.508484 48.0
234.743225 36.0
234.880463 164.0
234.941467 180.0
235.039093 120.0
235.356537 124.0
235.39624 116.0
235.484802 184.0
235.594757 80.0
235.826981 112.0
236.062393 128.0
236.55191 72.0
236.772354 56.0
237.39444 232.0
237.984146 196.0
238.026566 92.0
238.487381 108.0
238.555008 164.0
238.721024 60.0
239.021439 212.0
239.096344 56.0
239.87558 136.0
240.017395 148.0
240.214767 184.0
240.578903 152.0
240.714752 116.0
240.819748 204.0
240.977295 172.0
241.032913 144.0
241.13797 80.0
241.369827 104.0
241.552292 152.0
241.589417 100.0
241.703888 140.0
241.778152 52.0
243.020721 172.0
243.259689 104.0
243.545349 124.0
243.595047 256.0
243.88092 144.0
244.229141 140.0
245.01358 132.0
245.515411 56.0
245.602737 116.0
245.902267 152.0
245.930344 144.0
246.470612 40.0
246.836319 140.0
247.612396 184.0
248.132553 156.0
249.05513 56.0
249.771774 56.0
250.615463 104.0
250.684784 156.0
251.0 148.0
251.044159 48.0
251.116684 128.0
251.16716 64.0
251.299652 168.0
252.019516 260.0
252.190155 220.0
252.319763 96.0
252.439911 116.0
252.806854 172.0
252.939789 140.0
253.538391 184.0
253.570084 144.0
253.658829 124.0
253.845886 96.0
253.928329 160.0
254.921982 144.0
255.297089 108.0
255.344788 148.0
255.551559 144.0
255.997177 128.0
256.659973 124.0
256.819427 140.0
256.9151 88.0
257.141663 164.0
257.908203 96.0
258.042969 472.0
258.173553 40.0
258.493439 104.0
258.762299 32.0
259.037689 200.0
259.220337 104.0
259.53125 164.0
260.034302 160.0
260.288483 108.0
260.551849 64.0
260.805695 108.0
260.834625 140.0
260.985718 92.0
261.204407 112.0
261.281616 68.0
261.555145 96.0
261.793396 120.0
261.957642 148.0
262.128387 152.0
262.457184 136.0
262.59906 116.0
262.876495 92.0
263.041107 104.0
263.163788 100.0
264.395355 108.0
264.822693 168.0
265.876373 140.0
266.168518 120.0
266.389343 148.0
266.616791 124.0
266.646057 152.0
267.397308 128.0
267.543793 204.0
268.205048 64.0
268.244171 196.0
268.955231 156.0
269.154388 32.0
269.307861 104.0
269.360138 72.0
269.830719 196.0
270.068176 136.0
270.084473 216.0
270.16629 72.0
270.25589 196.0
270.340942 36.0
270.409668 132.0
270.904114 180.0
270.956512 192.0
271.19574 160.0
271.402252 168.0
272.069092 128.0
272.659485 188.0
272.899445 60.0
273.702271 128.0
273.804352 128.0
273.840576 40.0
274.048126 152.0
274.130493 100.0
274.203003 152.0
274.377686 84.0
274.991241 136.0
275.618652 68.0
275.959991 120.0
276.167419 196.0
276.322906 48.0
276.488342 144.0
276.557861 224.0
276.852509 52.0
277.946411 124.0
278.324799 120.0
279.248627 124.0
279.619324 180.0
279.837616 72.0
279.877563 136.0
280.064056 104.0
281.748596 108.0
282.071106 164.0
282.086884 172.0
282.09668 204.0
282.591095 216.0
283.077454 116.0
283.692902 124.0
284.093109 152.0
284.249634 36.0
285.028656 152.0
285.082428 60.0
285.327789 44.0
285.63913 140.0
285.66745 36.0
286.020752 60.0
286.131836 52.0
286.306946 132.0
286.603363 196.0
286.98761 132.0
287.395721 36.0
287.611694 112.0
287.763611 68.0
289.18335 200.0
289.254425 48.0
290.813599 76.0
291.217621 48.0
291.282166 156.0
292.748016 144.0
293.235168 48.0
293.412445 96.0
293.674988 188.0
293.883087 128.0
293.995697 160.0
294.203888 120.0
294.459991 100.0
294.818695 52.0
295.978302 96.0
296.084473 120.0
296.205811 168.0
296.701233 128.0
296.749207 164.0
296.989258 56.0
297.09317 220.0
297.164215 48.0
297.236267 76.0
297.291168 76.0
297.586365 64.0
297.648163 132.0
297.706543 88.0
297.775238 164.0
297.816437 192.0
297.857666 204.0
297.929138 164.0
297.970581 180.0
298.026001 248.0
298.075562 17040.0
298.157349 160.0
298.184052 104.0
298.243652 84.0
298.297485 48.0
298.412842 176.0
298.448761 80.0
298.492767 120.0
298.57254 68.0
298.661957 52.0
298.772034 64.0
298.844299 184.0
298.899353 88.0
298.985382 108.0
299.030121 32.0
299.078888 2776.0
299.209106 56.0
299.246979 120.0
299.357147 68.0
299.65683 64.0
299.96286 208.0
299.998871 112.0
300.073059 8720.0
300.208313 216.0
300.335297 172.0
300.394562 28.0
300.46701 80.0
300.649536 40.0
300.66214 36.0
300.749969 36.0
300.949463 76.0
301.005432 72.0
301.073822 760.0
301.140106 96.0
301.223022 124.0
301.36499 80.0
301.440674 68.0
301.517517 84.0
301.616943 40.0
301.668793 176.0
301.769043 88.0
301.952301 64.0
302.064606 172.0
302.142548 96.0
302.249817 124.0
302.312073 100.0
302.474762 56.0
302.793274 164.0
303.268921 128.0
303.297485 184.0
303.56955 52.0
304.062164 80.0
304.60379 112.0
304.70108 96.0
304.760132 160.0
305.024261 44.0
306.161957 92.0
306.534698 84.0
307.284332 132.0
307.559998 88.0
307.853271 36.0
308.18512 44.0
309.115204 124.0
309.388184 228.0
309.458221 132.0
309.58078 92.0
309.924042 188.0
310.110077 180.0
310.516479 148.0
310.786591 224.0
311.372803 80.0
312.072083 184.0
313.201691 36.0
313.469452 168.0
313.522308 96.0
314.00882 52.0
314.051147 100.0
314.449829 100.0
315.350433 108.0
315.63678 176.0
316.036469 160.0
316.362061 148.0
317.23349 44.0
318.063538 156.0
318.525146 128.0
320.089966 116.0
321.04422 76.0
322.240723 136.0
322.555206 56.0
322.666016 56.0
322.74826 112.0
323.141693 156.0
323.388611 144.0
324.221344 176.0
324.52774 164.0
324.628143 108.0
324.721375 132.0
325.317017 228.0
325.945526 152.0
326.143188 124.0
326.29776 52.0
326.51709 156.0
327.881531 160.0
328.180725 156.0
328.252838 120.0
330.684113 96.0
330.843353 100.0
331.571411 60.0
332.202301 92.0
332.659515 68.0
332.833801 64.0
333.189728 128.0
334.331421 132.0
334.757355 104.0
334.986786 88.0
335.114319 52.0
336.485626 120.0
336.533081 164.0
338.741974 96.0
338.866516 124.0
339.159698 220.0
339.618011 148.0
340.124359 64.0
340.258606 140.0
340.877228 176.0
341.231689 160.0
342.105652 40.0
343.048676 148.0
343.284637 140.0
343.516998 156.0
343.967194 60.0
344.824066 88.0
347.022888 104.0
347.241669 108.0
348.492615 116.0
349.608154 56.0
350.367706 116.0
350.811157 136.0
351.053528 104.0
351.135376 300.0
351.344452 88.0
351.415314 80.0
351.475037 132.0
351.616821 108.0
351.870636 120.0
352.142853 80.0
352.214203 128.0
352.65509 36.0
352.838257 92.0
353.132935 144.0
353.204742 88.0
353.605072 84.0
353.762268 52.0
353.829651 68.0
354.091766 80.0
354.128967 108.0
354.777466 76.0
354.826202 44.0
355.332489 208.0
355.760315 88.0
356.319885 148.0
356.380005 164.0
356.417572 44.0
357.267242 236.0
357.436554 52.0
357.620941 96.0
358.370331 96.0
359.241211 148.0
359.31665 148.0
359.694031 180.0
360.967194 124.0
361.845001 136.0
361.962372 188.0
362.348694 144.0
362.636688 116.0
364.120117 48.0
364.169495 88.0
365.100616 92.0
365.127228 132.0
365.75119 156.0
365.796875 116.0
366.021484 32.0
366.30072 140.0
366.360474 40.0
366.402374 188.0
366.509033 76.0
366.7034 68.0
366.760559 88.0
366.886353 88.0
366.951172 28.0
366.985474 88.0
367.090118 188.0
367.11261 128.0
367.139526 240.0
367.187592 164.0
367.279114 140.0
367.343964 148.0
367.397369 124.0
367.580505 140.0
367.797546 92.0
367.882019 52.0
367.910797 208.0
367.970673 160.0
368.004181 44.0
368.055511 152.0
368.103455 72.0
368.206573 92.0
368.264191 88.0
368.466309 52.0
368.493042 68.0
368.519806 132.0
368.577118 44.0
368.768188 96.0
368.817078 156.0
368.844086 60.0
368.901947 48.0
368.95166 116.0
368.978424 148.0
369.031647 108.0
369.094849 160.0
369.1492 40416.0
369.249634 88.0
369.275269 184.0
369.311096 76.0
369.344574 120.0
369.447723 164.0
369.483246 96.0
369.532135 164.0
369.582031 304.0
369.639008 156.0
369.733765 160.0
369.776093 108.0
369.831818 72.0
370.018097 84.0
370.091125 152.0
370.151489 5636.0
370.213135 120.0
370.257477 144.0
370.304565 112.0
370.335693 192.0
370.365692 132.0
370.45871 64.0
370.532196 96.0
370.559021 72.0
370.625061 136.0
370.695618 132.0
370.76004 136.0
370.792755 72.0
370.854095 128.0
370.884369 40.0
370.96759 140.0
371.006104 104.0
371.049591 284.0
371.145752 20796.0
371.270508 156.0
371.341003 64.0
371.401642 148.0
371.462402 124.0
371.52594 56.0
371.570038 108.0
371.599182 92.0
371.638824 76.0
371.664581 76.0
371.774811 104.0
371.885834 48.0
371.912689 84.0
371.94339 64.0
372.012482 224.0
372.148865 3116.0
372.231323 84.0
372.26828 52.0
372.30896 56.0
372.342682 48.0
372.373413 84.0
372.402954 148.0
372.444458 164.0
372.602264 156.0
372.653839 120.0
372.691986 60.0
372.763641 124.0
373.095795 52.0
373.139618 372.0
373.388031 124.0
373.441864 28.0
373.609436 52.0
374.030548 80.0
374.072906 56.0
374.103699 92.0
374.31546 56.0
374.361664 40.0
374.443756 76.0
374.511841 68.0
374.681335 36.0
374.708313 48.0
374.771057 140.0
375.15921 112.0
375.25943 144.0
375.645081 48.0
375.787811 56.0
375.956177 76.0
376.104248 64.0
376.146729 40.0
376.540558 128.0
377.591766 84.0
378.698639 100.0
379.593842 60.0
380.373657 100.0
381.092102 116.0
384.093567 72.0
384.749146 72.0
386.007233 64.0
386.640961 88.0
387.670898 148.0
388.156952 96.0
390.666626 80.0
390.890869 28.0
391.390778 76.0
392.332397 96.0
396.030945 96.0
396.133942 128.0
399.030914 60.0
401.511627 80.0
401.930481 108.0
402.153961 44.0
404.016022 72.0
405.689941 36.0
406.295502 80.0
406.584381 80.0
406.736908 100.0
407.921875 56.0
409.289734 40.0
413.12381 76.0
414.358551 96.0
414.476044 36.0
415.217896 116.0
418.061615 68.0
423.667572 40.0
424.782562 52.0
427.210297 100.0
440.233276 64.0
440.692749 40.0
440.780487 64.0
443.970276 120.0
448.308594 64.0
453.303436 48.0
458.057556 64.0
458.189606 132.0
461.616974 48.0
463.727509 124.0
466.453033 76.0
473.611481 76.0
474.473785 56.0
475.315216 128.0
475.553894 108.0
481.134308 32.0
483.853546 72.0
484.655029 84.0
484.996857 108.0
487.063477 60.0
488.430481 116.0
491.082001 48.0
494.944366 76.0
495.599884 112.0
496.552948 80.0
501.701965 104.0
509.587585 84.0
513.986511 100.0
515.268799 132.0
519.401794 44.0
520.677185 56.0
526.780457 120.0
527.045471 108.0
534.588501 112.0
538.022278 36.0
544.997131 80.0
553.734436 56.0
561.338074 68.0
564.251282 72.0
564.984314 92.0
566.286011 108.0
566.518127 36.0
566.589172 112.0
567.299988 100.0
569.311707 132.0
577.418152 60.0
584.503479 64.0
584.748901 68.0
588.310974 40.0
592.251892 80.0
596.653137 68.0
597.066467 112.0
598.618835 56.0
605.328247 100.0
607.06781 80.0
609.325623 72.0
615.314331 60.0
617.634399 20.0
621.709412 80.0
626.641968 48.0
633.61145 140.0
634.954773 92.0
650.967468 100.0
664.801514 132.0
675.864807 152.0
677.495667 112.0
690.947937 68.0
700.828857 68.0
702.12561 120.0
705.409729 36.0
712.123047 100.0
718.409302 72.0
721.923767 92.0
726.170593 80.0
728.704285 60.0
737.412292 48.0
739.748962 204.0
739.857239 96.0
747.025818 204.0
748.696777 108.0
752.98877 76.0
757.358765 60.0
757.709351 92.0
758.865784 180.0
770.688232 92.0
778.581848 116.0
783.693787 96.0
789.247437 168.0
805.234985 84.0
808.106567 80.0
812.945557 120.0
818.220154 72.0
826.747742 148.0
826.913696 168.0
829.921143 92.0
831.647827 136.0
834.31311 68.0
835.095154 128.0
835.354004 40.0
844.276611 144.0
844.444336 72.0
845.647705 44.0
847.425476 208.0
848.984741 92.0
851.944824 76.0
852.851318 192.0
859.356018 84.0
866.916504 172.0
868.083008 156.0
869.355957 216.0
871.95166 168.0
874.663086 184.0
875.693481 188.0
876.170593 116.0
876.907166 84.0
879.095093 228.0
880.824951 164.0
882.030334 188.0
883.011841 128.0
884.742798 120.0
885.219177 228.0
885.823303 196.0
887.209961 212.0
889.743103 180.0
895.153687 112.0
896.809875 156.0
899.810364 160.0
904.443176 156.0
905.059814 144.0
905.664673 64.0
906.07196 124.0
906.317627 164.0
906.88092 148.0
907.426453 100.0
910.744934 228.0
912.000671 152.0
912.619873 44.0
913.058838 40.0
915.170959 172.0
915.634583 172.0
918.720703 120.0
919.6922 88.0
919.843079 104.0
923.389771 172.0
923.940247 136.0
924.176208 136.0
928.719604 132.0
929.223083 132.0
929.678162 184.0
931.171631 136.0
931.69397 256.0
935.251282 136.0
935.446045 148.0
936.621277 132.0
937.011108 152.0
937.986145 156.0
940.718933 148.0
942.279419 188.0
942.777222 164.0
942.862793 164.0
943.65741 196.0
949.198608 84.0
951.241638 152.0
956.257141 152.0
956.435669 180.0
957.439209 120.0
960.249512 156.0
963.761963 200.0
964.126526 52.0
964.818787 156.0
965.34436 168.0
966.346375 148.0
968.054749 216.0
968.345825 184.0
969.696411 220.0
971.575256 88.0
971.69928 56.0
972.164673 176.0
972.648743 200.0
972.946716 120.0
972.996399 160.0
973.101929 88.0
974.598755 52.0
975.288574 136.0
975.356934 188.0
976.078125 156.0
976.239807 88.0
976.544495 116.0
976.637817 64.0
977.390564 172.0
978.218262 256.0
979.108643 120.0
979.557068 172.0
979.76886 192.0
981.264587 248.0
981.570129 60.0
982.923706 132.0
983.001099 188.0
983.996033 212.0
984.459045 116.0
984.896484 132.0
985.864868 412.0
986.183594 180.0
986.264832 96.0
988.147095 168.0
988.297241 184.0
989.004395 164.0
989.417542 184.0
991.540955 164.0
991.747803 212.0
995.405273 148.0
995.819702 68.0
997.330017 220.0
998.566223 148.0
998.79895 144.0
999.019104 148.0
999.635681 160.0
999.761536 232.0
999.975525 48.0
1000.938721 132.0
1001.089844 152.0
1002.154358 52.0
1003.679688 200.0
1006.032959 72.0
1006.234924 160.0
1007.239014 164.0
1007.990845 96.0
1008.035034 64.0
1009.836792 180.0
1010.519958 132.0
1010.855286 140.0
1011.455017 252.0
1012.342896 112.0
1013.14093 108.0
1013.679504 104.0
1015.822449 240.0
1016.044434 100.0
1016.133301 176.0
1016.964539 236.0
1017.135925 256.0
1017.320007 192.0
1017.573975 172.0
1017.732666 176.0
1017.99939 152.0
1018.202576 140.0
1018.945801 200.0
1019.263428 228.0
1021.310486 112.0
1022.232971 144.0
1022.48114 156.0
1022.551147 116.0
1022.76123 140.0
1023.44635 148.0
1023.614319 196.0
1023.70343 68.0
1023.996399 144.0
1024.799072 152.0
1024.907349 112.0
1025.299072 216.0
1025.740479 244.0
1026.226685 36.0
1026.768677 152.0
1026.819702 336.0
1027.18335 136.0
1027.380981 192.0
1027.60437 144.0
1027.687256 156.0
1028.287109 164.0
1028.401978 168.0
1028.733887 132.0
1028.970093 156.0
1029.276611 200.0
1030.125977 140.0
1031.583008 96.0
1032.049683 136.0
1032.235107 68.0
1032.989746 124.0
1033.539917 112.0
1033.87915 216.0
1034.282349 160.0
1034.429565 96.0
1034.5 180.0
1034.807251 184.0
1035.178589 228.0
1036.338013 48.0
1036.510986 200.0
1037.215942 40.0
1037.356934 104.0
1037.690796 160.0
1037.889648 168.0
1038.187134 120.0
1038.235352 100.0
1038.639404 192.0
1038.812622 116.0
1039.139771 224.0
1039.35144 72.0
1039.800659 212.0
1040.384766 188.0
1040.673706 172.0
1040.782837 288.0
1040.898438 200.0
1041.900391 224.0
1043.063477 40.0
1043.50061 188.0
1043.667847 212.0
1043.937866 164.0
1044.050049 116.0
1044.12439 192.0
1044.504883 148.0
1045.449585 100.0
1045.771362 80.0
1045.94519 176.0
1046.749878 92.0
1047.065674 140.0
1047.696655 236.0
1047.825562 132.0
1048.218628 192.0
1048.366821 120.0
1048.953247 148.0
1049.301392 212.0
1050.511719 200.0
1050.56543 240.0
1050.726685 172.0
1051.552612 140.0
1051.772095 124.0
1052.301392 144.0
1052.385376 168.0
1052.746948 180.0
1052.996704 168.0
1055.797119 132.0
1056.062378 188.0
1056.851562 228.0
1056.90332 156.0
1057.459839 88.0
1058.048828 136.0
1058.52124 208.0
1059.130249 84.0
1059.222046 200.0
1061.34021 232.0
1061.489258 48.0
1061.664429 212.0
1062.423218 60.0
1062.755981 272.0
1062.838501 256.0
1063.124023 168.0
1063.331665 56.0
1064.649536 68.0
1065.097656 192.0
1065.532959 192.0
1065.669312 136.0
1065.883789 148.0
1066.049194 156.0
1066.962646 128.0
1067.294312 132.0
1068.640625 72.0
1069.076538 132.0
1069.27832 184.0
1069.864136 128.0
1069.929199 160.0
1070.131104 208.0
1070.222168 152.0
1070.424072 164.0
1070.704102 240.0
1070.821289 140.0
1071.687622 172.0
1071.733276 180.0
1071.951904 136.0
1072.710815 160.0
1073.160645 152.0
1073.527466 128.0
1074.124512 196.0
1074.497681 64.0
1074.947876 180.0
1075.89978 176.0
1075.972656 100.0
1076.142334 164.0
1076.449219 52.0
1076.915894 208.0
1077.455078 196.0
1077.729492 60.0
1077.918945 212.0
1078.199951 120.0
1078.637939 204.0
1078.905884 220.0
1079.363525 60.0
1080.678223 128.0
1080.8396 204.0
1081.869385 128.0
1082.452026 156.0
1083.303467 156.0
1084.115967 100.0
1084.168335 76.0
1084.666504 220.0
1085.026978 108.0
1085.689209 160.0
1086.082764 120.0
1086.128662 164.0
1086.351685 172.0
1086.528809 260.0
1087.322754 160.0
1087.821655 264.0
1088.0448 204.0
1088.33374 104.0
1089.680176 144.0
1090.048096 176.0
1090.422607 176.0
1090.734375 132.0
1091.757202 260.0
1092.494263 196.0
1092.605713 108.0
1093.415039 92.0
1093.954712 156.0
1094.211548 188.0
1094.270752 172.0
1094.448486 140.0
1094.613159 148.0
1094.77771 140.0
1094.942383 196.0
1095.008301 164.0
1096.380127 168.0
1096.464233 256.0
1096.681763 88.0
1097.578247 176.0
1097.72998 120.0
1097.815674 144.0
1098.521362 140.0
1098.679688 112.0
1099.095337 120.0
1099.260376 172.0
1099.524292 148.0
1099.946655 160.0
1100.118286 176.0
1100.208984 144.0
1100.890869 116.0
1100.992065 180.0
1101.74292 196.0
1102.000488 200.0
1102.720825 180.0
1103.890869 156.0
1105.710205 176.0
1106.557373 104.0
1106.676636 168.0
1106.94812 160.0
1107.365234 172.0
1107.544067 148.0
1107.60376 132.0
1108.040894 212.0
1108.111084 212.0
1109.16748 156.0
1109.266968 396.0
1109.359741 208.0
1109.76416 144.0
1110.546631 180.0
1110.898193 112.0
1110.951294 192.0
1111.057373 152.0
1111.362549 124.0
1111.973145 128.0
1112.650146 184.0
1113.174683 192.0
1113.413696 188.0
1113.958374 176.0
1114.230713 156.0
1114.277222 48.0
1114.602783 172.0
1114.755615 216.0
1114.88855 164.0
1115.114502 108.0
1115.606323 176.0
1116.138306 84.0
1117.308838 120.0
1117.428589 180.0
1117.754639 232.0
1118.073975 160.0
1118.187134 168.0
1118.426758 132.0
1118.792847 172.0
1118.872803 212.0
1119.019165 204.0
1119.761719 192.0
1120.131348 144.0
1120.255615 212.0
1120.344482 120.0
1120.584351 108.0
1120.674072 264.0
1121.127808 180.0
1121.780884 200.0
1122.003906 148.0
1122.190552 108.0
1122.25061 132.0
1122.42395 156.0
1122.757324 152.0
1122.957397 164.0
1123.270874 104.0
1123.878052 240.0
1124.071533 156.0
1124.485229 144.0
1125.306274 160.0
1125.66687 168.0
1125.907349 196.0
1125.980713 168.0
1126.521729 160.0
1126.708862 112.0
1126.760742 144.0
1127.637573 104.0
1127.791382 80.0
1128.239258 116.0
1129.226074 192.0
1129.309082 188.0
1129.362549 116.0
1131.390137 160.0
1131.463745 108.0
1131.644531 152.0
1131.69812 108.0
1131.744995 176.0
1132.756226 112.0
1133.935425 148.0
1134.706299 140.0
1134.806885 136.0
1135.242676 192.0
1135.531982 200.0
1135.651855 84.0
1136.134766 136.0
1136.376343 56.0
1136.470215 200.0
1136.711792 208.0
1137.275513 168.0
1137.658081 212.0
1137.785645 164.0
1138.114624 28.0
1138.625 176.0
1138.853394 128.0
1139.296753 180.0
1139.444458 100.0
1139.948364 164.0
1140.244141 164.0
1140.875977 260.0
1141.11792 200.0
1141.353271 96.0
1141.481079 140.0
1141.816406 196.0
1142.173706 120.0
1143.001221 104.0
1143.310791 152.0
1143.485718 208.0
1144.583008 80.0
1144.704224 204.0
1145.12854 132.0
1145.330566 160.0
1145.647217 52.0
1145.990723 196.0
1146.091797 120.0
1146.186157 220.0
1146.873535 76.0
1147.743164 128.0
1148.046631 220.0
1148.1073 160.0
1148.532227 156.0
1149.193359 80.0
1149.355225 176.0
1149.793945 172.0
1149.949097 132.0
1150.307983 164.0
1151.103516 248.0
1151.211548 200.0
1151.488403 44.0
1151.677612 224.0
1152.32605 52.0
1152.636841 132.0
1152.819336 152.0
1153.16394 124.0
1153.393799 60.0
1153.860229 140.0
1153.921021 180.0
1154.671631 44.0
1154.935425 140.0
1155.526978 160.0
1156.078735 104.0
1156.53894 152.0
1156.674316 176.0
1156.769165 176.0
1157.182129 156.0
1157.249756 176.0
1157.606201 168.0
1158.157227 172.0
1158.678833 140.0
1159.32251 152.0
1159.702026 148.0
1159.925659 232.0
1160.248535 136.0
1160.434082 176.0
1160.996948 168.0
1161.281738 164.0
1161.661621 92.0
1161.899048 36.0
1162.06189 40.0
1162.18396 156.0
1162.557251 60.0
1163.045898 176.0
1163.385254 168.0
1163.493896 148.0
1164.308716 164.0
1164.430908 144.0
1164.580322 172.0
1164.919922 180.0
1165.348022 220.0
1165.497437 48.0
1165.701294 240.0
1166.115845 108.0
1166.183838 136.0
1166.489624 152.0
1166.663696 148.0
1167.237549 128.0
1167.536743 188.0
1168.136841 176.0
1168.31897 172.0
1168.61145 144.0
1169.400879 160.0
1169.530151 168.0
1169.693115 188.0
1169.829712 200.0
1170.101929 180.0
1171.245972 152.0
1171.620605 148.0
1172.165771 160.0
1172.683594 140.0
1173.010864 108.0
1173.719849 168.0
1173.903931 152.0
1174.016724 108.0
1174.244873 136.0
1175.083984 80.0
1175.534302 160.0
1175.88916 132.0
1176.025635 100.0
1176.107544 188.0
1176.578613 180.0
1178.285889 108.0
1178.736816 156.0
1178.873535 204.0
1179.133179 212.0
1179.515991 172.0
1179.967163 232.0
1180.486816 212.0
1180.534668 200.0
1180.650879 144.0
1180.794556 152.0
1181.081787 192.0
1181.239136 132.0
1181.834229 144.0
1182.224365 184.0
1182.552856 176.0
1182.659546 252.0
1182.744507 176.0
1183.641235 48.0
1183.969971 164.0
1184.038452 140.0
1184.223389 128.0
1184.916504 172.0
1185.798096 204.0
1185.897949 172.0
1186.071899 164.0
1186.278931 160.0
1186.439209 196.0
1186.532593 208.0
1186.601196 132.0
1186.923462 164.0
1187.053711 180.0
1187.592529 176.0
1187.698364 140.0
1187.936768 132.0
1188.345215 140.0
1188.748047 100.0
1188.81665 200.0
1189.297119 192.0
1189.386353 124.0
1189.708984 104.0
1190.574097 120.0
1190.709229 252.0
1191.178467 168.0
1191.467041 200.0
1192.284668 236.0
1192.428345 172.0
1193.288208 40.0
1194.381592 152.0
1194.601807 152.0
1194.677368 196.0
1195.296631 76.0
1195.670654 320.0
1195.812744 184.0
1196.193359 188.0
1196.776489 152.0
1197.313599 80.0
1197.602905 144.0
1197.651123 220.0
1198.181519 108.0
1198.229736 200.0
1198.787842 124.0
1199.373657 116.0
1200.338745 152.0
1200.635376 148.0
1200.745728 72.0
1200.9646 196.0
1201.960449 116.0
1202.357666 212.0
1202.525635 140.0
1202.787964 120.0
1202.974365 160.0
1203.640503 144.0
1204.327637 92.0
1204.396729 140.0
1204.527954 132.0
1204.914795 156.0
1205.115234 148.0
1205.336304 152.0
1205.546997 300.0
1205.795654 208.0
1206.310791 120.0
1206.697876 232.0
1206.822388 96.0
1207.159424 176.0
1207.569214 240.0
1208.159668 184.0
1208.966675 196.0
1209.035889 140.0
1209.181274 136.0
1209.831909 208.0
1209.894165 164.0
1210.039551 116.0
1210.25415 188.0
1210.524292 112.0
1210.683472 136.0
1210.856689 336.0
1210.960571 136.0
1211.105957 192.0
1211.209839 156.0
1211.279175 184.0
1211.417725 320.0
1211.556274 144.0
1211.672119 148.0
1211.732788 212.0
1212.034302 120.0
1212.165894 128.0
1212.226929 208.0
1212.470825 352.0
1212.928345 124.0
1212.976807 216.0
1213.039185 132.0
1213.940552 208.0
1214.793579 88.0
1214.946167 120.0
1215.244507 220.0
1215.987061 116.0
1216.202148 120.0
1216.264648 220.0
1216.611694 132.0
1216.868652 84.0
1217.264404 52.0
1217.465698 160.0
1217.590698 148.0
1217.757446 216.0
1217.944946 172.0
1218.820312 148.0
1219.014893 184.0
1219.313721 116.0
1219.369263 140.0
1219.529175 140.0
1219.654297 176.0
1219.834961 68.0
1220.822266 124.0
1221.28125 168.0
1221.462158 192.0
1222.283081 192.0
1222.665771 180.0
1222.979492 164.0
1223.354858 164.0
1223.570679 132.0
1223.735596 168.0
1223.953613 88.0
1224.002319 132.0
1224.831055 300.0
1225.03186 176.0
1225.207275 148.0
1225.575439 164.0
1225.987549 164.0
1226.150146 152.0
1226.224609 240.0
1226.308228 52.0
1226.405762 136.0
1226.475464 92.0
1226.970337 184.0
1227.172607 144.0
1227.28418 332.0
1227.368896 180.0
1227.570068 156.0
1227.932617 108.0
1228.392944 140.0
1228.525513 176.0
1228.914551 244.0
1228.982178 204.0
1229.411621 144.0
1229.55127 208.0
1229.607056 152.0
1230.032837 144.0
1230.507568 200.0
1230.730957 208.0
1230.954346 152.0
1231.135986 132.0
1231.450195 168.0
1231.575928 100.0
1231.70166 168.0
1231.826782 136.0
1232.183716 120.0
1232.442139 140.0
1232.802124 212.0
1232.9104 100.0
1233.022217 84.0
1233.098999 136.0
1233.266846 244.0
1233.333984 232.0
1234.056763 180.0
1234.450439 212.0
1234.51123 164.0
1235.189575 132.0
1235.245605 116.0
1235.343506 48.0
1235.47644 156.0
1235.616333 92.0
1235.665283 172.0
1235.987183 116.0
1236.288086 136.0
1236.400024 156.0
1236.498047 88.0
1236.553955 68.0
1236.630127 136.0
1236.784912 216.0
1237.078979 140.0
1237.639038 52.0
1237.730103 160.0
1238.234253 188.0
1238.311279 140.0
1238.395386 160.0
1238.584473 200.0
1238.955688 84.0
1239.011719 280.0
1239.264038 128.0
1239.558228 136.0
1240.890015 252.0
1241.233032 168.0
1241.461792 132.0
1241.56311 144.0
1241.647339 120.0
1242.369751 204.0
1242.559204 204.0
1242.746338 324.0
1242.853882 180.0
1242.952026 80.0
1243.274902 128.0
1243.44104 136.0
1243.611694 196.0
1243.969727 152.0
1244.032959 204.0
1244.390991 176.0
1244.47522 212.0
1244.608643 120.0
1244.699829 44.0
1244.833252 128.0
1245.542603 216.0
1245.669067 180.0
1246.048462 172.0
1246.238159 180.0
1246.329468 196.0
1247.144653 172.0
1247.52417 240.0
1247.848999 224.0
1248.030396 164.0
1248.08667 140.0
1248.241333 168.0
1248.754761 180.0
1248.867188 128.0
1249.587891 224.0
1249.697388 212.0
1249.880249 140.0
1250.351807 52.0
1250.788086 196.0
1251.141846 156.0
1251.615112 188.0
1252.125122 184.0
1252.259644 160.0
1252.407593 288.0
1253.083862 176.0
1253.26001 192.0
1253.316406 208.0
1253.379761 100.0
1253.682739 180.0
1254.387573 92.0
1254.479248 168.0
1254.577881 68.0
1254.669556 192.0
1254.782349 120.0
1254.831665 176.0
1254.929443 176.0
1255.156006 112.0
1255.239746 160.0
1255.388794 204.0
1255.522705 116.0
1255.708984 176.0
1256.005859 164.0
1256.143433 132.0
1256.383179 152.0
1256.55957 176.0
1257.166382 200.0
1257.455811 140.0
1257.843994 164.0
1258.338135 96.0
1258.467773 148.0
1258.619873 220.0
1258.966553 144.0
1259.123047 224.0
1259.3479 244.0
1259.432739 128.0
1259.912964 236.0
1259.976562 124.0
1260.552124 256.0
1260.605469 172.0
1260.746826 164.0
1260.916382 192.0
1261.121338 180.0
1261.184937 160.0
1261.354614 144.0
1261.856567 188.0
1261.924072 172.0
1262.648438 176.0
1263.341675 184.0
1263.511475 84.0
1263.766113 104.0
1264.233154 68.0
1264.707275 220.0
1264.898438 200.0
1265.1604 192.0
1265.457642 136.0
1265.634644 124.0
1266.094971 140.0
1266.548218 72.0
1266.867065 152.0
1267.058228 132.0
1267.164551 308.0
1267.327515 80.0
1267.677734 180.0
1267.731445 180.0
1267.96521 196.0
1268.29834 108.0
1268.404663 140.0
1268.482666 220.0
1268.752075 204.0
1270.177368 196.0
1270.255371 72.0
1270.354736 132.0
1270.583496 168.0
1270.723633 72.0
1270.950684 156.0
1271.042847 152.0
1271.319702 172.0
1271.720825 188.0
1272.029419 180.0
1272.135864 140.0
1272.277832 156.0
1272.512085 152.0
1272.607788 184.0
1272.675415 168.0
1272.859985 160.0
1273.009155 168.0
1273.271973 152.0
1273.428101 144.0
1273.669678 140.0
1273.968018 160.0
1274.15979 160.0
1275.157471 212.0
1275.474487 236.0
1275.794312 164.0
1275.886719 220.0
1275.981323 160.0
1276.355957 172.0
1276.540894 208.0
1276.789795 156.0
1276.910645 152.0
1277.062378 172.0
1277.124023 152.0
1277.74292 156.0
1277.878052 192.0
1278.675049 156.0
1278.731934 200.0
1278.995361 132.0
1279.073608 224.0
1279.258667 180.0
1279.458008 132.0
1279.564819 172.0
1279.628906 120.0
1279.765381 144.0
1280.58313 156.0
1280.796753 144.0
1280.917847 112.0
1281.388672 128.0
1281.623169 160.0
1281.71582 152.0
1282.100586 128.0
1282.642212 168.0
1282.998657 116.0
1283.188965 304.0
1283.283813 192.0
1283.426392 228.0
1283.818604 120.0
1284.039673 196.0
1284.496216 204.0
1285.309448 200.0
1285.387939 140.0
1285.687744 144.0
1285.780518 168.0
1286.318726 128.0
1286.658447 188.0
1286.851196 140.0
1287.079712 128.0
1287.161621 184.0
1287.350952 132.0
1287.529541 192.0
1287.628174 168.0
1287.865234 224.0
1288.055298 132.0
1288.172363 164.0
1288.82959 112.0
1288.922485 48.0
1289.455078 144.0
1289.551392 152.0
1289.694458 188.0
1289.958862 100.0
1290.015991 216.0
1290.137573 116.0
1290.228516 72.0
1290.480713 216.0
1290.616577 100.0
1291.204346 172.0
1291.302979 128.0
1291.467529 124.0
1292.34021 36.0
1292.504883 176.0
1292.633667 176.0
1292.755249 216.0
1293.213257 152.0
1293.907715 192.0
1294.322876 160.0
1294.695312 164.0
1295.289795 180.0
1295.404419 92.0
1296.455688 200.0
1296.822754 176.0
1297.143066 192.0
1297.769287 168.0
1298.04895 124.0
1298.407471 156.0
1298.472046 168.0
1298.57251 120.0
1298.803955 136.0
1298.889282 232.0
1299.01001 200.0
1299.210938 104.0
1299.332886 164.0
1299.592163 204.0
1299.741821 312.0
1299.849487 180.0
1300.014526 228.0
1300.653198 168.0
1300.782471 180.0
1300.904419 164.0
1301.177246 212.0
1301.450073 152.0
1301.550659 208.0
1301.780396 160.0
1302.211304 148.0
1302.283081 112.0
1302.440063 140.0
1302.571167 176.0
1302.721313 48.0
1302.936768 184.0
1303.203979 204.0
1303.389404 136.0
1303.79187 168.0
1303.90686 196.0
1304.050537 144.0
1304.115234 132.0
1304.213257 192.0
1304.294922 208.0
1304.798096 304.0
1304.99939 164.0
1305.253174 152.0
1305.308594 156.0
1306.301147 192.0
1306.41626 72.0
1306.671021 96.0
1306.718384 176.0
1306.977417 112.0
1307.034912 216.0
1307.322754 196.0
1307.431641 188.0
1307.716309 200.0
1308.031616 160.0
1308.611206 208.0
1308.784058 160.0
1308.834351 180.0
1308.891968 120.0
1309.22583 316.0
1309.482544 108.0
1309.612183 208.0
1309.785034 344.0
1310.310913 112.0
1310.361328 176.0
1310.541504 208.0
1310.707153 208.0
1310.937744 148.0
1311.038696 124.0
1311.355713 236.0
1311.844482 208.0
1312.011719 140.0
1312.127075 164.0
1312.206299 224.0
1312.256836 212.0
1312.322021 156.0
1312.509155 164.0
1313.107666 136.0
1313.259155 192.0
1313.521484 216.0
1313.58374 220.0
1313.648682 160.0
1313.699219 164.0
1313.759888 188.0
1313.776001 80.0
1313.803711 160.0
1313.886719 36.0
1314.305176 92.0
1314.637085 176.0
1314.724976 208.0
1314.781494 160.0
1314.882446 144.0
1315.012451 128.0
1315.43103 52.0
1315.58667 72.0
1315.864136 188.0
1315.993896 148.0
1316.218018 136.0
1316.49231 184.0
1316.636841 232.0
1317.510742 196.0
1317.691406 48.0
1317.937012 132.0
1318.117676 80.0
1318.577393 164.0
1318.731934 240.0
1318.858276 116.0
1319.057251 200.0
1319.297241 180.0
1319.44751 148.0
1320.206787 152.0
1320.257446 180.0
1320.525024 188.0
1320.980713 208.0
1321.21936 132.0
1321.9646 184.0
1322.529175 68.0
1322.707275 208.0
1323.680176 104.0
1323.8927 184.0
1324.164795 172.0
1324.434204 188.0
1324.621704 112.0
1324.723145 120.0
1324.933228 156.0
1325.186768 176.0
1325.549072 132.0
1325.657715 172.0
1325.882446 236.0
1326.020142 176.0
1326.201294 88.0
1326.375244 184.0
1326.549194 148.0
1326.773926 172.0
1327.493652 228.0
1327.702026 252.0
1327.789062 192.0
1328.40564 184.0
1328.674072 176.0
1329.138306 172.0
1329.289062 188.0
1329.464844 64.0
1329.530273 132.0
1329.595581 200.0
1329.951172 168.0
1330.546387 160.0
1331.149048 136.0
1331.228882 180.0
1331.555664 180.0
1331.962402 240.0
1332.049561 180.0
1332.104858 216.0
1332.173096 180.0
1332.420044 120.0
1332.478271 228.0
1332.667114 44.0
1333.415527 152.0
1333.502808 152.0
1333.648193 132.0
1333.706299 228.0
1333.808105 200.0
1333.90979 140.0
1334.079224 180.0
1334.222412 188.0
1334.273315 156.0
1334.396851 184.0
1334.535034 132.0
1334.724121 188.0
1334.913086 148.0
1335.233154 184.0
1335.553101 144.0
1335.626709 168.0
1335.785889 176.0
1336.120483 76.0
1336.258789 148.0
1336.66626 196.0
1336.94043 212.0
1337.146484 100.0
1337.386719 76.0
1337.452148 148.0
1337.604004 140.0
1337.870117 192.0
1337.936157 156.0
1338.070923 100.0
1338.391357 36.0
1338.959351 408.0
1339.141357 256.0
1339.636719 80.0
1339.731323 44.0
1339.884399 200.0
1340.012939 124.0
1340.183105 60.0
1340.467285 36.0
1340.634888 172.0
1340.751465 128.0
1341.072144 188.0
1341.211914 152.0
1341.451172 168.0
1341.553833 236.0
1341.6698 156.0
1342.019775 164.0
1342.092651 76.0
1342.223999 148.0
1342.851074 144.0
1343.33252 136.0
1343.489502 216.0
1343.602417 136.0
1343.72644 168.0
1343.828613 152.0
1343.879639 156.0
1343.981812 264.0
1344.310181 176.0
1344.454468 144.0
1344.813721 236.0
1344.945068 180.0
1345.00354 148.0
1345.125122 224.0
1345.361206 220.0
1345.697021 180.0
1345.777344 124.0
1345.857666 48.0
1346.098633 136.0
1346.26062 228.0
1346.449097 100.0
1346.6521 152.0
1346.734009 132.0
1347.091919 132.0
1347.712891 56.0
1347.975952 120.0
1348.282837 260.0
1348.529907 172.0
1349.10144 184.0
1349.218384 148.0
1349.415771 132.0
1349.620483 92.0
1349.88916 204.0
1349.993408 164.0
1350.307983 168.0
1350.528687 192.0
1351.046753 120.0
1351.105225 188.0
1351.471069 72.0
1351.588135 164.0
1352.251099 100.0
1352.400391 196.0
1352.45166 140.0
1352.551147 208.0
1352.671265 216.0
1352.874878 152.0
1352.956787 224.0
1353.044556 176.0
1353.213013 148.0
1353.549805 112.0
1353.740112 160.0
1353.813354 168.0
1353.893921 144.0
1354.177124 168.0
1354.245483 172.0
1354.428589 124.0
1354.560425 96.0
1354.721558 60.0
1354.801147 176.0
1355.593506 112.0
1355.8573 164.0
1356.035278 108.0
1356.084473 108.0
1356.143066 140.0
1357.184082 140.0
1357.47168 136.0
1357.521362 156.0
1357.624023 196.0
1357.704712 40.0
1357.961426 160.0
1358.166748 116.0
1358.555542 212.0
1358.897461 120.0
1358.973755 108.0
1359.237915 196.0
1359.318604 92.0
1359.575439 184.0
1360.053711 384.0
1360.42688 228.0
1360.683716 88.0
1361.292969 144.0
1361.733765 192.0
1361.814575 224.0
1362.074707 136.0
1362.132324 144.0
1362.196533 192.0
1362.416992 156.0
1362.468384 180.0
1362.563843 360.0
1362.688721 156.0
1362.841553 176.0
1363.144287 152.0
1363.217773 136.0
1363.776367 368.0
1363.974854 100.0
1364.401123 148.0
1364.958618 184.0
1365.143799 48.0
1365.423218 140.0
1365.50415 132.0
1365.621826 336.0
1365.702759 228.0
1366.320557 232.0
1366.72522 164.0
1366.843018 144.0
1366.997559 164.0
1367.088867 396.0
1367.29187 180.0
1367.468506 128.0
1367.651611 168.0
1368.1604 96.0
1368.54126 180.0
1368.756836 48.0
1368.881958 188.0
1368.948242 80.0
1369.176514 168.0
1369.42688 156.0
1369.695679 144.0
1369.804932 148.0
1369.876221 216.0
1369.97937 148.0
1370.170898 176.0
1370.399292 136.0
1370.554077 60.0
1370.884033 168.0
1371.032959 196.0
1371.084595 128.0
1371.401489 64.0
1371.53418 164.0
1371.821655 192.0
1371.88147 208.0
1372.103882 168.0
1373.126709 140.0
1373.613525 60.0
1373.916016 100.0
1374.240601 128.0
1374.579956 152.0
1374.668579 204.0
1374.746216 256.0
1375.177734 216.0
1375.229492 144.0
1375.480347 164.0
1375.608521 204.0
1375.783081 144.0
1375.952881 80.0
1376.026733 116.0
1376.270264 56.0
1376.403198 172.0
1376.477051 184.0
1376.587891 128.0
1376.802002 112.0
1377.451904 80.0
1377.547974 132.0
1377.73999 184.0
1377.799194 196.0
1377.85083 128.0
1378.005981 120.0
1378.250854 256.0
1378.465576 188.0
1378.922241 108.0
1379.067627 164.0
1379.173584 80.0
1379.230835 192.0
1379.328979 156.0
1379.636719 128.0
1379.680786 216.0
1380.112427 124.0
1380.208496 164.0
1380.304688 184.0
1380.452515 188.0
1380.548706 140.0
1380.652222 48.0
1380.739746 212.0
1380.829712 128.0
1381.100098 184.0
1381.317871 168.0
1381.399292 212.0
1381.739502 236.0
1381.955811 140.0
1382.07251 192.0
1382.181641 148.0
1382.250122 144.0
1382.420288 164.0
1382.566895 188.0
1382.753296 124.0
1382.901367 32.0
1383.125488 180.0
1383.323242 88.0
1383.389893 52.0
1383.552734 164.0
1383.678589 120.0
1383.77478 72.0
1383.833984 168.0
1383.974731 180.0
1384.063599 92.0
1384.15979 132.0
1384.83374 152.0
1384.930054 184.0
1385.122559 152.0
1385.233765 164.0
1385.292969 120.0
1385.396729 72.0
1385.522583 64.0
1385.604736 180.0
1385.759644 196.0
1385.893066 176.0
1385.962769 252.0
1386.626709 152.0
1386.752686 96.0
1386.881592 196.0
1387.056519 144.0
1387.152954 164.0
1387.43457 128.0
1387.899536 140.0
1388.146362 160.0
1388.672974 140.0
1388.758545 192.0
1388.813843 100.0
1389.515137 224.0
1389.577881 216.0
1389.815308 52.0
1390.061523 160.0
1390.126953 136.0
1390.193726 140.0
1390.253174 168.0
1390.453491 184.0
1390.72229 208.0
1390.987915 132.0
1391.28479 136.0
1391.351685 212.0
1391.500122 208.0
1391.656006 224.0
1391.7229 156.0
1391.813354 172.0
1391.88623 116.0
1392.302124 180.0
1392.570557 180.0
1392.970581 144.0
1393.193359 176.0
1393.431152 156.0
1393.572266 236.0
1394.047852 148.0
1394.159302 128.0
1394.553223 144.0
1394.718506 180.0
1394.776123 160.0
1394.865356 140.0
1395.095825 140.0
1395.33374 156.0
1395.815552 192.0
1396.11438 132.0
1396.389648 172.0
1396.579834 200.0
1396.851929 200.0
1397.141357 112.0
1397.609619 124.0
1397.700317 192.0
1397.847656 176.0
1397.914673 184.0
1398.115601 272.0
1398.398438 36.0
1398.636597 104.0
1398.777954 116.0
1399.008789 208.0
1399.122803 540.0
1399.291626 180.0
1399.480835 164.0
1399.626709 196.0
1399.946899 156.0
1400.013916 148.0
1400.06604 188.0
1400.185181 200.0
1400.359985 204.0
1400.498047 164.0
1401.332275 156.0
1401.65271 136.0
1401.71228 172.0
1401.801758 160.0
1401.858154 204.0
1402.062622 96.0
1402.114746 84.0
1402.532104 120.0
1402.614136 136.0
1402.71106 156.0
1402.84314 128.0
1402.964478 136.0
1403.180664 196.0
1403.232788 128.0
1403.427734 204.0
1403.590698 160.0
1403.672729 176.0
1403.756714 196.0
1403.939697 176.0
1404.291748 188.0
1404.485596 108.0
1405.179443 164.0
1405.29126 204.0
1405.387939 176.0
1405.604736 156.0
1405.671875 68.0
1405.850952 172.0
1405.903198 116.0
1406.023682 172.0
1406.176025 188.0
1406.29541 204.0
1406.403198 156.0
1406.55249 176.0
1406.606445 200.0
1406.918335 184.0
1407.103027 216.0
1407.396118 152.0
1407.67981 156.0
1407.88147 168.0
1408.449097 196.0
1408.73291 160.0
1409.011963 232.0
1409.113892 136.0
1409.405273 184.0
1409.562256 196.0
1409.645386 164.0
1410.092773 72.0
1410.586182 176.0
1411.393555 220.0
1411.52063 152.0
1411.894531 48.0
1412.258911 140.0
1412.447998 132.0
1412.650024 132.0
1412.762207 220.0
1412.822021 172.0
1412.896851 96.0
1412.986572 172.0
1413.447876 172.0
1413.540283 172.0
1413.769531 220.0
1413.963135 176.0
1414.042603 172.0
1414.153931 188.0
1414.206299 276.0
1414.342041 164.0
1414.415894 96.0
1414.57312 188.0
1414.805176 176.0
1414.872559 168.0
1414.924927 184.0
1415.082153 204.0
1415.149536 168.0
1415.651245 84.0
1415.771118 156.0
1415.973267 176.0
1416.145508 80.0
1416.302856 124.0
1416.437622 72.0
1416.512573 124.0
1416.654907 168.0
1417.014526 92.0
1417.246704 184.0
1417.396606 188.0
1418.00354 124.0
1418.273438 140.0
1418.490723 204.0
1418.67981 108.0
1419.015503 120.0
1419.975342 128.0
1420.080322 164.0
1420.605469 208.0
1420.665405 196.0
1420.905518 196.0
1420.988037 136.0
1421.078003 40.0
1421.14563 124.0
1421.205566 68.0
1421.273193 132.0
1421.359131 272.0
1421.423218 144.0
1421.513306 120.0
1421.593994 228.0
1421.783447 180.0
1421.858398 48.0
1421.957886 160.0
1422.096802 176.0
1422.21875 128.0
1422.316284 212.0
1422.657227 160.0
1422.729126 152.0
1423.487427 104.0
1423.5625 148.0
1423.65271 180.0
1424.291016 144.0
1424.497803 160.0
1424.576538 152.0
1424.651611 136.0
1424.71167 252.0
1424.874878 212.0
1425.027222 112.0
1425.155029 156.0
1425.240723 188.0
1425.297729 124.0
1425.50061 184.0
1425.665894 172.0
1425.786133 148.0
1426.109375 132.0
1426.30481 204.0
1426.485229 140.0
1426.612915 64.0
1426.891113 200.0
1427.101685 152.0
1427.199341 172.0
1427.462524 120.0
1427.590332 216.0
1427.695679 136.0
1428.004028 168.0
1428.192017 176.0
1428.312378 172.0
1428.372559 100.0
1428.425171 136.0
1428.741211 324.0
1428.831421 176.0
1429.049683 148.0
1429.418335 100.0
1429.672607 172.0
1429.776978 144.0
1430.080566 192.0
1430.42749 168.0
1430.588867 296.0
1430.810791 220.0
1430.885986 68.0
1431.00647 60.0
1431.167969 160.0
1431.224854 136.0
1431.393066 224.0
1431.541138 156.0
1431.608887 196.0
1432.075806 248.0
1432.56543 76.0
1432.708496 132.0
1432.782471 68.0
1433.153076 128.0
1433.386597 176.0
1433.461914 152.0
1433.522217 128.0
1433.612671 116.0
1434.087524 156.0
1434.226196 152.0
1434.373901 188.0
1434.55481 208.0
1434.754761 360.0
1434.83374 56.0
1435.308716 188.0
1435.632935 168.0
1435.715942 76.0
1435.97229 208.0
1436.719116 172.0
1436.968018 120.0
1437.194458 204.0
1437.29248 44.0
1437.450928 160.0
1437.526367 536.0
1437.699951 56.0
1437.865967 136.0
1437.93396 56.0
1438.069824 120.0
1438.371704 256.0
1438.658569 144.0
1439.043579 184.0
1439.19458 184.0
1439.262573 160.0
1439.330444 180.0
1439.504883 136.0
1439.730713 140.0
1439.987427 108.0
1440.065186 192.0
1440.297119 172.0
1440.773071 272.0
1440.905273 164.0
1441.368896 120.0
1441.604126 108.0
1441.732666 132.0
1441.921631 156.0
1442.065186 172.0
1442.375122 40.0
1442.54895 48.0
1442.722778 108.0
1443.577148 176.0
1443.864502 192.0
1443.978027 124.0
1444.030884 152.0
1444.295654 188.0
1444.779785 188.0
1445.006958 160.0
1445.120239 184.0
1445.185059 188.0
1445.294189 132.0
1445.672607 192.0
1445.793701 124.0
1446.096436 168.0
1446.473145 192.0
1446.686768 148.0
1446.91394 188.0
1447.083008 180.0
1447.514648 244.0
1447.561401 172.0
1448.079956 140.0
1448.201172 120.0
1449.121216 160.0
1449.337524 188.0
1449.602783 172.0
1449.843384 224.0
1449.872314 168.0
1449.893921 152.0
1450.019531 168.0
1450.224121 180.0
1450.406128 56.0
1450.596924 164.0
1450.694092 176.0
1450.804565 184.0
1450.997314 116.0
1451.164185 92.0
1451.330933 176.0
1451.656982 180.0
1451.793457 168.0
1451.904175 220.0
1451.990723 152.0
1452.622559 324.0
1452.749146 48.0
1452.817505 152.0
1452.984375 168.0
1453.037476 180.0
1453.227173 244.0
1453.285889 176.0
1453.363647 264.0
1453.515503 40.0
1453.651978 132.0
1453.947998 200.0
1454.046631 164.0
1454.291992 148.0
1454.373047 148.0
1454.456543 52.0
1454.927124 96.0
1455.08252 188.0
1455.191528 240.0
1455.291504 172.0
1455.581177 164.0
1455.739502 148.0
1455.833252 152.0
1456.051636 172.0
1456.271118 168.0
1456.324341 172.0
1456.643311 148.0
1456.91687 140.0
1457.152344 180.0
1457.304321 144.0
1457.425903 204.0
1457.619629 128.0
1457.737427 76.0
1457.873291 168.0
1457.980591 156.0
1458.256592 264.0
1458.3302 112.0
1458.44458 196.0
1458.588623 208.0
1458.717773 172.0
1458.959839 148.0
1459.478027 92.0
1459.819946 120.0
1459.865845 340.0
1460.192871 108.0
1460.28418 168.0
1460.408203 160.0
1460.580811 144.0
1460.915405 160.0
1461.250244 264.0
1461.417603 184.0
1461.508911 156.0
1461.569702 208.0
1461.699097 144.0
1461.84375 424.0
1461.924072 228.0
1462.23645 152.0
1462.604736 152.0
1462.680908 76.0
1462.817871 40.0
1462.977783 136.0
1463.35083 32.0
1463.442139 184.0
1463.693359 68.0
1463.807617 176.0
1464.158691 192.0
1464.22644 140.0
1464.386353 168.0
1464.485474 136.0
1464.622559 184.0
1464.799927 196.0
1465.010986 168.0
1465.209106 152.0
1465.711914 96.0
1465.894775 148.0
1465.955811 100.0
1466.077759 176.0
1466.267944 188.0
1466.672119 172.0
1466.900879 208.0
1467.0 204.0
1467.053345 204.0
1467.388794 144.0
1467.487793 176.0
1467.640381 152.0
1468.054321 176.0
1468.166504 224.0
1468.311401 176.0
1468.585938 148.0
1468.662231 124.0
1468.787598 228.0
1469.081787 160.0
1469.241943 208.0
1469.379272 348.0
1469.563721 132.0
1469.653931 128.0
1469.783691 140.0
1470.035522 184.0
1470.101929 196.0
1470.165161 324.0
1470.325439 124.0
1470.409424 136.0
1470.584961 248.0
1470.744141 112.0
1470.970459 160.0
1471.172729 228.0
1471.325317 124.0
1471.821655 128.0
1471.90564 120.0
1472.324097 184.0
1472.394409 172.0
1472.55481 128.0
1473.356812 216.0
1473.589233 180.0
1473.887207 180.0
1473.945068 192.0
1474.006104 204.0
1474.145264 160.0
1474.28894 236.0
1474.457031 168.0
1474.523926 192.0
1474.648193 192.0
1474.915649 188.0
1475.015015 172.0
1475.38501 132.0
1475.588379 128.0
1475.795166 180.0
1476.085327 160.0
1476.353027 220.0
1476.743286 144.0
1476.840576 168.0
1477.056641 184.0
1477.125488 152.0
1477.194336 160.0
1477.270874 152.0
1477.515625 148.0
1477.615112 44.0
1478.334351 112.0
1478.609863 88.0
1478.808838 128.0
1478.900635 164.0
1479.222168 184.0
1479.421143 164.0
1479.911133 144.0
1480.105225 160.0
1480.209717 72.0
1480.270996 228.0
1480.477783 148.0
1480.531372 136.0
1480.791748 156.0
1481.116821 200.0
1481.404541 164.0
1481.629639 328.0
1481.917847 188.0
1482.262573 328.0
1482.545044 224.0
1482.622803 180.0
1482.781006 160.0
1483.074951 224.0
1483.358521 208.0
1483.46582 84.0
1483.711182 136.0
1483.803223 176.0
1483.872192 184.0
1483.925903 436.0
1483.987183 324.0
1484.209595 156.0
1484.306396 192.0
1484.540527 176.0
1484.608276 164.0
1484.869019 140.0
1484.993774 152.0
1485.060791 192.0
1485.436646 140.0
1485.720459 172.0
1485.881592 148.0
1485.965698 160.0
1486.027344 112.0
1486.111694 132.0
1486.169556 168.0
1486.249878 220.0
1486.42627 244.0
1486.572144 164.0
1486.694946 216.0
1487.055542 164.0
1487.147705 156.0
1487.539185 156.0
1487.699951 144.0
1488.15332 172.0
1488.383667 316.0
1488.698486 116.0
1488.821411 208.0
1488.889648 144.0
1489.335938 36.0
1489.681641 200.0
1490.004272 188.0
1490.142578 152.0
1490.741821 148.0
1490.809448 80.0
1491.023804 196.0
1491.225952 152.0
1491.664185 148.0
1491.833252 152.0
1491.979248 180.0
1492.256104 140.0
1492.440552 132.0
1492.502075 112.0
1492.711304 136.0
1492.832764 184.0
1493.038086 340.0
1493.171143 160.0
1493.351685 156.0
1493.447998 192.0
1493.802246 164.0
1493.957397 176.0
1494.348022 196.0
1494.432617 224.0
1494.571167 164.0
1494.853271 204.0
1494.940552 144.0
1495.340698 28.0
1495.407227 264.0
1495.494629 180.0
1495.579346 136.0
1495.702393 128.0
1495.778687 180.0
1496.008423 172.0
1496.341431 180.0
1496.772583 200.0
1496.86499 132.0
1496.945312 220.0
1497.049805 116.0
1497.265381 136.0
1497.457886 152.0
1498.174316 112.0
1498.636475 40.0
1498.713623 172.0
1498.859985 124.0
1499.000488 300.0
1499.484131 168.0
1499.707642 164.0
1499.767334 108.0
1500.30127 140.0
1500.366943 180.0
1500.52478 120.0
1500.609619 192.0
1500.702148 52.0
1500.756104 148.0
1500.902588 180.0
1500.995972 152.0
1501.149292 88.0
1501.21106 72.0
1501.666016 188.0
1501.735474 204.0
1501.876831 204.0
1501.965454 196.0
1502.063477 152.0
1502.290771 192.0
1502.44873 368.0
1502.7229 204.0
1503.147217 132.0
1503.216675 180.0
1503.417358 212.0
1503.525391 116.0
1503.594849 172.0
1503.656494 336.0
1503.725952 168.0
1503.973022 88.0
1504.026978 156.0
1504.088745 156.0
1504.158203 172.0
1504.52478 184.0
1505.046997 256.0
1505.177368 228.0
