>compound MLS001075528-01!
>formula C21H24N2O2
>ionization [M+H]+
>parentmass 337.192291
#inchi InChI=1S/C21H24N2O2/c1-2-18(16-7-4-3-5-8-16)21(25)22-12-15-11-17(14-22)19-9-6-10-20(24)23(19)13-15/h3-10,15,17-18H,2,11-14H2,1H3/t15-,17+,18?/m1/s1
#inchikey VBXUEFAIPJPNBO
#Ion_Source LC-ESI
#Instrument qTof
#Compound_Source NIH Natural Product Library
#PI Dorrestein
#Data_Collector VVP/LMS
#Scan -1
#Precursor_MZ 337.192
#ExactMass 336.184
#Charge 1
#CAS_Number N/A
#Pubmed_ID N/A
#Smiles CCC(C(=O)N1C[C@H]2C[C@@H](C1)c3cccc(=O)n3C2)c4ccccc4
#INCHI_AUX N/A
#Library_Class 1
#SpectrumID CCMSLIB00000080175
#IonMode Positive
#UpdateWorkflowName UPDATE-SINGLE-ANNOTATED-GOLD
#LibraryQualityString Gold
#TaskID b1d8e8f6646f4e71acdff9ca3d919d08
##Scan# 1783
#SpectrumFile p2-B05_GB5_01_17993.mzXML
#LibraryName NIH_Natural_Products_Library.mgf
#MQScore -1
#Organism NIH_Natural_Products_Library
#TIC_Query 0
#RT_Query -1
#MZErrorPPM -1
#SharedPeaks 0
#MassDiff 0
#LibMZ -1
#SpecMZ 337.192
#SpecCharge 0
#internalFilename spec-00000.mgf

>collision 10
95.044174 76.0
95.081047 144.0
95.181992 176.0
95.26162 176.0
96.046089 344.0
96.096809 176.0
96.143875 168.0
96.282249 196.0
96.305687 208.0
96.360809 148.0
96.581291 120.0
96.712036 112.0
96.855324 148.0
96.904297 28.0
97.337776 124.0
97.38295 124.0
97.492966 136.0
97.626648 208.0
97.679749 228.0
97.835213 164.0
97.898216 108.0
98.016411 92.0
98.053856 60.0
98.11084 176.0
98.180031 44.0
98.219475 172.0
98.333916 60.0
98.355629 136.0
98.410904 196.0
98.507675 208.0
98.529625 180.0
98.644028 132.0
98.792336 136.0
98.835861 188.0
98.849716 200.0
98.896332 136.0
99.002144 56.0
99.019966 64.0
99.085335 88.0
99.293472 140.0
99.335121 124.0
99.368851 76.0
99.73822 156.0
99.805817 136.0
100.054512 92.0
100.191933 176.0
100.283592 180.0
100.592766 124.0
100.688606 172.0
100.996407 316.0
101.062424 44.0
101.11245 172.0
101.152481 192.0
101.196526 116.0
101.583313 88.0
101.649521 104.0
101.707726 76.0
101.729805 200.0
101.769958 188.0
102.037094 184.0
102.103539 100.0
102.604843 208.0
102.611977 200.0
102.701714 176.0
102.780396 184.0
102.796539 160.0
102.925728 148.0
103.055779 340.0
103.110771 160.0
103.204567 120.0
103.238945 144.0
103.267899 180.0
103.718781 128.0
103.737022 172.0
103.856659 232.0
103.891144 120.0
104.053032 456.0
104.25663 144.0
104.272888 132.0
104.324692 176.0
104.370461 92.0
104.384697 76.0
104.553543 224.0
104.606461 156.0
104.700127 144.0
104.722527 72.0
104.759193 132.0
104.991554 68.0
105.052101 140.0
105.069885 584.0
105.169052 152.0
105.532684 232.0
105.681992 80.0
105.712685 172.0
105.751572 172.0
105.903084 200.0
106.065834 224.0
106.08136 132.0
106.110054 80.0
106.134659 120.0
106.423973 244.0
106.588295 116.0
106.660225 184.0
106.816505 144.0
107.121162 140.0
107.230362 76.0
107.504654 192.0
107.518059 156.0
107.533928 108.0
107.865059 196.0
108.040848 340.0
108.074707 136.0
108.151543 132.0
108.169655 240.0
108.346199 200.0
108.368988 192.0
108.46537 136.0
108.650955 220.0
108.769241 148.0
108.812836 144.0
108.865318 188.0
108.886627 200.0
108.916298 228.0
108.956139 128.0
109.022629 220.0
109.051315 184.0
109.149429 156.0
109.388687 136.0
109.728264 144.0
109.941025 200.0
110.05687 312.0
110.373436 128.0
110.463364 36.0
110.503113 196.0
110.804596 192.0
110.894707 96.0
110.940819 168.0
111.061501 116.0
111.492851 136.0
111.724144 212.0
111.770432 228.0
111.980949 188.0
112.105247 80.0
112.136856 120.0
112.19799 80.0
112.522888 44.0
112.664383 176.0
112.708755 188.0
112.87574 196.0
112.901115 124.0
112.915924 196.0
112.968803 168.0
113.099998 52.0
113.286339 188.0
113.513123 220.0
113.555542 236.0
113.606445 456.0
113.827179 264.0
113.969498 200.0
114.101273 120.0
114.137413 192.0
114.169312 128.0
114.26078 68.0
114.556694 124.0
114.582253 172.0
114.699463 144.0
114.846588 180.0
114.891388 196.0
114.972466 204.0
114.991676 140.0
115.021553 108.0
115.053391 372.0
115.230843 84.0
115.4617 152.0
115.62001 184.0
115.81913 88.0
116.207146 76.0
116.235039 160.0
116.327332 140.0
116.742004 252.0
116.759209 152.0
116.780716 160.0
116.890434 156.0
116.911949 148.0
116.982979 160.0
117.019577 188.0
117.05851 296.0
117.183266 48.0
117.326225 192.0
117.420387 92.0
117.55555 248.0
117.621048 60.0
117.856445 164.0
117.921272 104.0
118.063873 352.0
118.193756 164.0
118.336609 92.0
118.434059 128.0
118.609573 188.0
118.710419 144.0
118.726654 180.0
118.751511 208.0
118.804741 160.0
118.839447 232.0
118.911064 108.0
118.996979 200.0
119.019608 232.0
119.085777 16528.0
119.109955 236.0
119.169472 84.0
119.208366 156.0
119.212448 36.0
119.222328 148.0
119.278137 56.0
119.295525 96.0
119.315094 148.0
119.370392 184.0
119.444031 316.0
119.57177 88.0
119.615295 64.0
119.752472 40.0
119.970375 124.0
120.054161 216.0
120.086533 2160.0
120.248154 180.0
120.285774 344.0
120.333176 148.0
120.398041 184.0
120.472305 196.0
120.544403 100.0
120.625267 160.0
120.787086 112.0
120.822083 132.0
120.843964 136.0
120.874596 56.0
120.933235 116.0
120.99498 176.0
121.023438 120.0
121.046661 132.0
121.077354 200.0
121.100266 192.0
121.266602 36.0
121.391563 132.0
121.525368 80.0
121.646072 128.0
121.8591 184.0
121.979965 140.0
122.059258 360.0
122.243896 128.0
122.364952 40.0
122.479469 148.0
122.525726 100.0
122.757164 168.0
123.044006 188.0
123.178711 160.0
123.220688 164.0
123.365997 192.0
123.687302 144.0
123.84008 148.0
123.886597 104.0
123.930908 96.0
123.984085 100.0
124.0849 192.0
124.234642 92.0
124.296768 168.0
124.727615 168.0
124.807655 56.0
124.832115 188.0
124.901054 184.0
124.949997 64.0
125.014526 180.0
125.06794 184.0
125.152534 144.0
125.203751 172.0
125.230476 152.0
125.455536 176.0
125.763367 156.0
125.959862 72.0
126.044754 84.0
126.084984 132.0
126.248177 148.0
126.290672 196.0
126.472359 100.0
126.548027 172.0
126.893059 132.0
127.151024 264.0
127.200401 112.0
127.25428 44.0
127.609268 120.0
127.838707 196.0
127.894646 196.0
128.003036 128.0
128.062607 152.0
128.097626 100.0
128.113403 96.0
128.192261 96.0
128.386124 108.0
128.61174 40.0
128.632065 144.0
128.790115 68.0
128.866928 216.0
128.923416 244.0
129.126892 176.0
129.425598 92.0
129.500336 164.0
129.700745 152.0
129.835754 40.0
129.876587 120.0
130.039948 236.0
130.06633 636.0
130.114853 40.0
130.189789 120.0
130.257935 160.0
130.276108 44.0
130.366989 156.0
130.478363 152.0
130.603439 80.0
130.792282 104.0
130.940277 156.0
130.990387 72.0
131.058746 180.0
131.072617 200.0
131.090637 180.0
131.122543 168.0
131.330032 176.0
131.353729 144.0
131.375641 132.0
131.453217 72.0
131.482895 52.0
131.617569 180.0
131.852859 68.0
131.912292 104.0
131.928299 112.0
132.047455 204.0
132.081604 256.0
132.413391 124.0
132.429428 168.0
132.527924 208.0
132.724686 124.0
132.892487 124.0
133.053207 1136.0
133.09906 80.0
133.209305 200.0
133.307495 136.0
133.360962 132.0
133.386246 140.0
133.452911 196.0
133.475906 60.0
133.5242 188.0
133.742767 124.0
133.786514 120.0
133.816437 120.0
133.901184 160.0
134.016815 120.0
134.057678 916.0
134.092834 308.0
134.111313 112.0
134.18277 192.0
134.293457 52.0
134.399567 92.0
134.454956 156.0
134.503693 172.0
134.532059 88.0
134.600388 136.0
134.668427 216.0
134.916931 52.0
135.044098 120.0
135.064926 172.0
135.099625 128.0
135.25235 92.0
135.268555 116.0
135.421371 124.0
135.581238 76.0
135.7435 300.0
135.826996 128.0
135.961563 144.0
136.084595 132.0
136.126389 172.0
136.182129 176.0
136.210007 212.0
136.405197 72.0
136.642395 156.0
136.977631 204.0
137.033539 32.0
137.210663 200.0
137.698364 100.0
137.857224 152.0
138.011505 44.0
138.079315 88.0
138.165863 216.0
138.444397 160.0
138.488907 124.0
138.54277 148.0
138.620102 120.0
138.652908 128.0
138.910812 180.0
138.960083 100.0
139.126709 180.0
139.178375 196.0
139.232376 168.0
139.267609 120.0
139.293442 68.0
139.422668 76.0
139.448517 184.0
139.608398 124.0
139.878967 168.0
139.933105 36.0
140.016724 204.0
140.06308 128.0
140.378448 240.0
140.66629 180.0
140.789062 180.0
140.999329 152.0
141.056046 144.0
141.377716 28.0
141.400467 188.0
141.460556 104.0
141.477127 132.0
141.749496 200.0
141.785049 84.0
141.808502 76.0
142.033997 140.0
142.071045 352.0
142.143127 184.0
142.337784 176.0
142.684677 212.0
143.073547 264.0
143.196289 164.0
143.639618 196.0
144.002426 228.0
144.073776 340.0
144.485291 224.0
144.525955 112.0
144.64801 212.0
144.794067 56.0
144.810837 156.0
144.851547 188.0
145.077087 172.0
145.237473 236.0
145.525452 32.0
145.563873 172.0
145.769226 200.0
145.816116 200.0
145.856979 104.0
145.881012 160.0
145.897842 192.0
146.060486 1676.0
146.094086 180.0
146.126755 196.0
146.210541 104.0
146.263489 72.0
146.352554 228.0
146.506699 208.0
146.578979 116.0
146.774231 164.0
146.829697 88.0
146.921234 156.0
146.969604 204.0
146.991318 196.0
147.068802 1408.0
147.097519 152.0
147.124069 156.0
147.210999 192.0
147.239975 44.0
147.288284 148.0
147.316971 196.0
147.508163 208.0
147.527512 248.0
147.578278 44.0
147.627014 204.0
147.699203 136.0
147.729965 144.0
147.786972 196.0
147.89035 172.0
147.908844 236.0
147.93634 108.0
147.960602 196.0
147.994446 164.0
148.032333 348.0
148.07692 60776.0
148.12355 156.0
148.163712 108.0
148.195984 116.0
148.224548 96.0
148.245239 268.0
148.277863 56.0
148.31665 108.0
148.389374 60.0
148.417374 80.0
148.470551 128.0
148.501602 92.0
148.556717 72.0
148.578552 52.0
148.614944 56.0
148.641296 148.0
148.66832 56.0
148.695023 192.0
148.713577 44.0
148.733856 52.0
148.760559 112.0
148.778839 60.0
148.801819 196.0
148.823669 208.0
148.852814 164.0
148.90509 40.0
148.944901 192.0
148.976746 232.0
149.009079 60.0
149.079544 3788.0
149.115189 48.0
149.180817 44.0
149.217285 72.0
149.29509 76.0
149.329132 72.0
149.375351 108.0
149.436172 152.0
149.477539 80.0
149.591919 240.0
149.613831 212.0
149.660095 140.0
149.691742 292.0
149.716095 88.0
149.757507 124.0
149.837891 80.0
149.879318 60.0
149.935364 72.0
149.962173 68.0
149.994766 128.0
150.030426 104.0
150.081863 708.0
150.132538 232.0
150.186676 104.0
150.226791 76.0
150.254791 124.0
150.295227 216.0
150.79689 164.0
150.818878 196.0
150.85672 96.0
150.992477 108.0
151.053619 164.0
151.082977 188.0
151.381592 56.0
151.820251 132.0
152.162231 128.0
152.252167 140.0
152.291458 156.0
152.52243 116.0
152.829834 32.0
152.925812 40.0
153.167114 160.0
153.236099 148.0
153.376556 136.0
153.674957 148.0
153.768738 176.0
153.786011 188.0
154.060104 204.0
154.084808 224.0
154.680786 156.0
154.712967 212.0
154.844208 156.0
154.928421 140.0
155.528519 132.0
155.76358 192.0
156.010422 160.0
156.082535 140.0
156.199417 188.0
156.649979 176.0
156.759598 132.0
156.849335 116.0
156.926605 144.0
157.082413 320.0
157.355743 132.0
157.405685 164.0
157.613007 96.0
157.805466 84.0
157.877975 84.0
158.065598 180.0
158.087357 136.0
158.615982 84.0
158.927567 144.0
158.945129 172.0
159.037979 180.0
159.073883 196.0
159.108261 160.0
159.148438 152.0
159.21373 156.0
159.291595 152.0
159.39209 224.0
159.573059 120.0
159.754135 92.0
159.965515 188.0
160.075241 2280.0
160.111542 108.0
160.166962 52.0
160.31813 92.0
160.663559 164.0
161.032089 152.0
161.079391 700.0
161.11293 244.0
161.465836 52.0
161.48703 76.0
162.000885 108.0
162.090469 1680.0
162.162552 224.0
162.271194 176.0
162.454651 184.0
162.472412 156.0
162.568832 208.0
162.74144 64.0
162.835388 112.0
163.09201 312.0
163.30304 32.0
163.847794 56.0
164.023621 80.0
164.105209 236.0
164.138351 92.0
164.186798 168.0
164.225052 140.0
164.441925 208.0
164.701096 208.0
165.101074 128.0
165.400421 76.0
165.530991 112.0
165.71286 28.0
166.423325 196.0
166.446426 92.0
166.472107 84.0
166.616196 208.0
166.757278 140.0
166.854889 160.0
166.880661 128.0
167.016205 164.0
167.094131 48.0
167.552399 100.0
167.609085 196.0
167.768875 112.0
167.817871 176.0
167.923599 72.0
168.398499 160.0
168.494064 204.0
168.726669 140.0
168.819748 112.0
169.342529 132.0
169.529068 60.0
169.777939 184.0
170.154175 64.0
170.190521 352.0
170.255447 168.0
170.884491 132.0
171.040634 40.0
171.113525 140.0
171.292984 220.0
171.751984 140.0
171.85112 124.0
172.110519 908.0
172.203537 112.0
172.274063 204.0
172.558929 116.0
172.891129 128.0
173.116257 132.0
173.234131 44.0
173.601059 192.0
173.640396 152.0
174.092117 756.0
174.132919 200.0
174.612152 144.0
175.099701 144.0
175.199127 208.0
175.512772 148.0
176.097748 184.0
176.262421 156.0
176.799225 36.0
177.071915 132.0
177.177872 156.0
177.976196 84.0
177.994781 184.0
178.061172 184.0
178.127579 192.0
178.664566 192.0
179.09314 184.0
179.396912 148.0
180.021255 196.0
180.646667 36.0
180.761719 168.0
181.155289 100.0
182.698898 140.0
182.717728 224.0
182.946472 108.0
183.59584 164.0
183.644379 136.0
184.378738 140.0
184.454422 128.0
184.638275 132.0
184.800583 148.0
185.599609 160.0
185.746063 152.0
185.811172 88.0
185.830154 104.0
186.126022 180.0
186.229813 144.0
186.655884 160.0
186.783707 192.0
187.025879 188.0
187.156555 132.0
187.464355 172.0
187.61972 52.0
187.758774 352.0
188.367447 156.0
188.408417 136.0
189.042755 40.0
189.100891 332.0
189.17688 180.0
189.593201 80.0
189.686386 116.0
189.883804 128.0
190.130722 112.0
190.218552 136.0
190.259735 192.0
190.323502 88.0
190.410751 68.0
190.462936 252.0
190.482162 80.0
190.516113 56.0
190.677246 144.0
190.760666 216.0
190.86058 208.0
190.917938 196.0
190.946686 232.0
190.982574 228.0
191.026443 176.0
191.05127 196.0
191.084076 560.0
191.119446 93292.0
191.210617 60.0
191.238022 128.0
191.261902 248.0
191.269806 128.0
191.279251 268.0
191.319977 48.0
191.347504 140.0
191.373154 112.0
191.37677 164.0
191.398514 64.0
191.426483 92.0
191.469589 52.0
191.499725 104.0
191.532852 128.0
191.53978 124.0
191.572388 436.0
191.640381 56.0
191.704468 116.0
191.764389 48.0
191.791946 64.0
191.811249 48.0
191.831909 96.0
191.859482 104.0
191.956238 108.0
192.015274 100.0
192.121338 7096.0
192.200104 208.0
192.29393 80.0
192.322983 44.0
192.419235 136.0
192.436981 80.0
192.497467 44.0
192.569046 56.0
192.588348 44.0
192.644028 76.0
192.688812 76.0
192.713669 108.0
192.766174 28.0
192.887787 72.0
192.908508 96.0
192.933426 76.0
192.967957 88.0
192.995605 52.0
193.017715 44.0
193.124176 588.0
193.202728 108.0
193.306793 80.0
193.313538 68.0
193.374588 48.0
193.422379 120.0
193.479782 168.0
193.53862 204.0
193.579453 48.0
193.598831 120.0
193.643143 160.0
193.688217 44.0
193.742874 84.0
193.761383 76.0
194.111496 40.0
194.289001 88.0
194.511734 168.0
194.560974 116.0
194.669266 88.0
194.783142 56.0
194.910934 32.0
194.997406 68.0
195.497681 160.0
195.857178 64.0
196.858063 48.0
197.073151 80.0
197.366638 64.0
197.912262 84.0
198.633591 52.0
199.354065 76.0
199.458054 52.0
199.612686 100.0
199.654861 36.0
200.902649 72.0
201.653748 152.0
201.718765 36.0
202.352463 88.0
203.151657 72.0
203.401367 184.0
203.710892 92.0
203.841583 48.0
204.071823 96.0
204.894333 164.0
205.413177 120.0
206.327011 72.0
206.584381 136.0
207.41481 72.0
208.278503 76.0
209.187164 116.0
209.380081 172.0
209.684021 20.0
209.991074 68.0
211.67012 160.0
212.319244 44.0
213.472137 164.0
216.510071 156.0
217.096191 132.0
218.927002 132.0
219.944168 36.0
222.674072 128.0
223.884506 196.0
224.197311 100.0
224.30162 96.0
225.262466 164.0
226.113129 20.0
227.919907 88.0
229.090256 80.0
230.478088 132.0
236.726196 152.0
236.778259 80.0
240.960541 148.0
243.070267 132.0
243.324783 92.0
244.845322 124.0
244.941879 192.0
245.618286 168.0
247.775284 56.0
250.001495 96.0
251.406998 32.0
254.169556 68.0
255.061966 88.0
258.893799 140.0
262.264038 128.0
263.251282 168.0
263.312622 152.0
265.062775 128.0
265.134064 112.0
266.194855 128.0
270.23999 156.0
271.287994 72.0
271.481415 128.0
271.884949 68.0
273.011749 72.0
277.856628 128.0
282.019958 180.0
282.320862 40.0
287.46402 128.0
290.739807 32.0
292.251953 68.0
294.152313 160.0
294.935852 152.0
295.370117 84.0
295.496674 148.0
295.630127 132.0
295.849182 160.0
296.530823 140.0
298.150726 44.0
298.7146 92.0
304.865875 212.0
306.786835 160.0
308.291168 172.0
309.540009 144.0
313.203033 76.0
313.421448 120.0
315.705353 64.0
316.352844 96.0
319.130737 148.0
319.297852 80.0
320.67926 152.0
325.591461 64.0
327.868744 68.0
329.907501 148.0
330.881256 56.0
331.674591 116.0
334.256775 244.0
334.438721 52.0
334.923004 148.0
335.695648 72.0
336.213654 260.0
336.272064 60.0
336.538544 108.0
336.673645 80.0
336.848969 164.0
337.09375 164.0
337.119324 164.0
337.192291 9884.0
337.33194 48.0
337.422699 136.0
337.466583 124.0
337.649414 80.0
337.744507 108.0
337.828644 76.0
337.898163 88.0
338.026215 88.0
338.055481 72.0
338.194397 1528.0
338.289734 36.0
338.403229 60.0
338.970978 40.0
339.102905 104.0
339.202423 448.0
339.234863 48.0
339.458496 52.0
339.744598 80.0
339.777618 104.0
340.135345 116.0
340.214325 156.0
340.2547 120.0
340.317108 164.0
340.412598 92.0
340.555817 136.0
340.610931 128.0
340.724792 36.0
340.832916 64.0
341.426849 72.0
343.45993 116.0
345.010864 68.0
347.032318 64.0
348.104645 104.0
350.529999 108.0
352.840393 72.0
353.577271 92.0
355.908936 104.0
364.395966 68.0
366.515259 76.0
366.721039 48.0
382.514282 108.0
395.131409 124.0
406.507324 88.0
413.85968 92.0
424.433441 68.0
424.728699 96.0
429.479462 132.0
434.932983 76.0
436.569916 36.0
448.561279 36.0
453.159241 68.0
465.409119 92.0
469.363434 68.0
478.840973 72.0
481.6586 56.0
486.234009 80.0
489.592773 32.0
495.303528 96.0
507.590851 80.0
508.061798 96.0
520.314697 76.0
523.415527 80.0
528.843567 40.0
536.523987 64.0
536.943604 112.0
565.132385 48.0
569.180237 84.0
571.632996 80.0
599.302551 64.0
637.361572 88.0
670.373352 108.0
670.832092 76.0
683.125671 176.0
690.459167 44.0
690.783447 180.0
707.894165 52.0
722.884521 40.0
725.653748 208.0
729.126709 44.0
753.106995 132.0
753.806274 212.0
756.245422 68.0
762.948486 68.0
763.151917 140.0
765.65564 148.0
767.259094 92.0
772.096069 80.0
776.454529 64.0
791.11438 120.0
799.978271 84.0
802.214661 128.0
814.238342 176.0
818.645691 212.0
835.358276 208.0
835.640198 84.0
842.714478 104.0
843.425293 56.0
844.11908 176.0
849.569153 100.0
852.361816 64.0
857.611084 168.0
861.257751 208.0
865.117065 196.0
866.698364 144.0
868.416016 116.0
869.924011 192.0
872.026794 116.0
875.868896 196.0
877.931702 92.0
884.093262 100.0
885.484497 108.0
885.810242 164.0
886.248657 136.0
888.323608 48.0
891.024719 148.0
892.397583 176.0
893.414612 172.0
897.231934 44.0
901.111206 140.0
902.904419 96.0
905.717407 192.0
906.610107 148.0
909.410889 264.0
910.023193 132.0
911.086182 44.0
912.522522 40.0
912.600708 220.0
913.430603 136.0
914.537781 160.0
918.731689 212.0
918.858337 200.0
919.003174 44.0
925.712585 156.0
931.820557 132.0
931.911682 168.0
934.526062 172.0
935.353699 200.0
942.134705 160.0
943.161255 180.0
946.618591 180.0
947.132324 76.0
947.322205 108.0
949.853882 80.0
952.413452 172.0
952.634583 36.0
956.588562 168.0
958.953796 160.0
960.809875 156.0
961.16156 148.0
963.192688 204.0
966.011414 128.0
966.18457 196.0
966.469177 164.0
969.850464 220.0
970.414551 232.0
971.946594 144.0
975.175781 176.0
975.903137 200.0
978.858643 160.0
982.398743 168.0
984.458435 416.0
987.770874 172.0
989.185059 144.0
991.640381 184.0
995.793762 200.0
996.170654 108.0
997.578247 180.0
998.615723 168.0
998.678589 132.0
1002.56311 124.0
1002.726929 152.0
1002.916016 68.0
1007.28241 184.0
1007.554077 164.0
1011.297485 128.0
1012.500427 108.0
1013.3302 100.0
1014.528015 56.0
1014.838623 168.0
1015.650391 188.0
1017.535095 168.0
1022.251282 224.0
1023.906433 192.0
1028.554443 292.0
1031.166748 128.0
1031.377686 96.0
1031.556641 176.0
1033.212891 148.0
1035.504395 148.0
1035.651001 164.0
1035.734985 96.0
1036.952393 216.0
1037.433105 52.0
1039.389282 176.0
1039.7229 168.0
1041.327881 136.0
1041.546265 236.0
1042.021729 212.0
1042.63855 116.0
1044.329468 168.0
1045.178589 240.0
1046.15686 212.0
1046.723389 48.0
1046.987427 140.0
1049.268433 148.0
1049.984131 60.0
1050.325928 208.0
1050.693726 160.0
1053.017456 40.0
1054.503418 200.0
1057.776245 108.0
1058.119385 124.0
1058.598511 180.0
1064.48645 148.0
1064.928101 192.0
1066.402954 172.0
1071.120239 152.0
1072.3125 152.0
1073.270752 88.0
1076.840332 112.0
1078.27771 136.0
1078.781006 160.0
1080.435547 192.0
1080.926147 160.0
1082.97522 204.0
1083.335571 132.0
1084.239746 168.0
1088.109741 136.0
1088.378906 188.0
1089.961914 168.0
1090.435059 152.0
1092.151123 132.0
1094.039673 164.0
1096.713989 152.0
1101.517578 132.0
1102.812622 200.0
1103.724976 168.0
1104.214233 164.0
1105.305786 68.0
1106.106567 188.0
1108.749268 180.0
1109.869507 256.0
1109.942505 120.0
1110.055176 156.0
1112.403809 44.0
1113.831543 156.0
1115.692139 180.0
1115.944702 164.0
1118.279663 136.0
1120.543701 164.0
1121.27002 176.0
1121.663208 212.0
1122.516602 132.0
1123.503662 208.0
1124.391113 192.0
1125.425781 188.0
1129.475586 152.0
1130.057617 192.0
1130.285156 160.0
1131.891602 48.0
1132.755493 184.0
1137.066772 188.0
1142.859253 72.0
1143.505249 192.0
1143.727417 132.0
1144.669922 140.0
1146.030518 164.0
1148.369629 152.0
1152.751099 180.0
1152.960571 84.0
1153.06189 188.0
1153.616211 204.0
1153.663452 104.0
1153.873047 148.0
1157.709595 164.0
1158.115845 136.0
1158.332642 232.0
1158.894897 232.0
1159.152466 48.0
1159.226929 148.0
1159.328613 164.0
1160.223267 188.0
1162.62439 200.0
1164.375854 160.0
1164.437012 68.0
1165.653076 188.0
1166.726929 156.0
1167.039673 96.0
1170.29187 116.0
1171.224854 212.0
1172.676147 300.0
1173.37146 132.0
1173.705444 172.0
1174.148804 136.0
1176.099976 156.0
1176.373047 124.0
1176.796387 120.0
1177.028442 192.0
1177.26062 156.0
1178.018799 136.0
1179.139282 64.0
1179.241821 120.0
1179.747681 116.0
1179.898071 48.0
1180.137329 156.0
1181.060547 104.0
1181.368408 232.0
1181.648804 204.0
1183.092896 176.0
1183.667969 220.0
1184.373413 228.0
1186.477051 256.0
1186.998169 68.0
1187.10791 124.0
1187.828003 192.0
1188.593262 284.0
1189.447388 144.0
1190.958008 132.0
1191.596802 196.0
1191.992188 172.0
1193.150024 228.0
1193.60376 132.0
1195.956543 72.0
1197.588379 180.0
1198.291016 156.0
1198.704468 136.0
1198.821533 224.0
1200.57251 160.0
1200.875977 176.0
1201.655518 188.0
1202.193726 172.0
1205.259644 180.0
1207.01062 164.0
1209.457397 184.0
1209.651123 208.0
1210.848999 120.0
1211.964233 112.0
1213.766357 192.0
1214.113159 164.0
1214.543091 220.0
1214.785889 152.0
1216.361084 172.0
1216.444336 192.0
1217.256714 204.0
1217.79834 212.0
1221.280518 208.0
1222.240479 172.0
1222.887695 144.0
1223.12439 160.0
1223.490112 172.0
1223.792725 160.0
1225.63147 44.0
1229.222534 168.0
1237.260254 100.0
1237.512207 36.0
1241.260864 228.0
1242.937256 196.0
1243.610962 96.0
1243.856567 172.0
1246.838379 136.0
1247.24231 40.0
1248.114014 216.0
1250.28064 104.0
1251.053833 180.0
1252.434937 136.0
1254.823853 60.0
1256.671631 192.0
1258.845703 204.0
1259.799194 168.0
1260.109985 180.0
1260.34314 200.0
1260.413818 120.0
1260.675781 112.0
1261.410278 156.0
1261.933472 240.0
1264.10498 200.0
1264.692383 164.0
1265.124146 164.0
1267.489624 80.0
1268.949707 160.0
1269.424805 156.0
1270.233276 100.0
1270.588013 204.0
1271.503296 136.0
1272.568115 180.0
1273.81189 188.0
1274.905029 152.0
1275.225464 208.0
1276.084961 92.0
1278.773804 228.0
1281.251831 164.0
1281.380005 112.0
1282.498779 140.0
1282.769653 172.0
1282.897949 208.0
1283.140381 84.0
1283.332886 184.0
1286.040161 156.0
1289.764893 232.0
1290.057983 100.0
1292.232056 108.0
1292.811646 148.0
1294.859131 164.0
1294.930664 164.0
1295.131226 200.0
1297.668091 184.0
1297.888428 136.0
1298.342041 172.0
1299.253052 148.0
1299.877197 152.0
1301.040649 172.0
1302.045166 208.0
1302.914307 260.0
1303.517822 152.0
1303.81958 168.0
1303.891479 164.0
1304.64624 228.0
1305.386719 200.0
1306.616699 56.0
1309.856079 100.0
1311.275513 132.0
1312.825439 192.0
1313.250977 184.0
1314.354736 184.0
1314.520752 156.0
1314.816528 44.0
1315.307373 204.0
1315.718872 180.0
1317.784302 144.0
1318.543091 156.0
1319.085205 192.0
1319.779175 160.0
1320.979736 224.0
1321.030273 148.0
1322.028809 196.0
1325.120605 160.0
1325.714722 196.0
1326.345337 76.0
1329.32605 236.0
1329.413086 164.0
1331.670898 180.0
1332.193848 184.0
1332.658813 140.0
1332.724243 144.0
1333.327393 148.0
1333.487183 144.0
1334.272339 36.0
1334.4104 140.0
1334.742676 68.0
1335.006592 196.0
1336.410522 200.0
1337.225586 128.0
1337.836914 204.0
1338.011719 188.0
1339.067505 156.0
1342.820923 156.0
1343.397095 176.0
1344.002686 224.0
1344.871094 172.0
1345.863892 268.0
1346.017212 200.0
1348.208618 164.0
1348.30835 220.0
1349.392822 108.0
1349.560913 192.0
1350.058228 140.0
1350.891968 216.0
1352.289551 204.0
1356.032104 192.0
1358.451782 184.0
1359.104614 148.0
1361.791504 176.0
1363.055054 212.0
1363.466553 176.0
1364.069214 156.0
1364.120728 188.0
1364.657349 124.0
1365.105835 208.0
1365.311768 164.0
1365.782471 232.0
1366.201782 144.0
1367.268677 160.0
1367.526245 48.0
1368.019409 76.0
1368.954468 40.0
1369.352173 204.0
1369.411011 204.0
1370.265503 212.0
1372.211182 184.0
1373.044434 116.0
1373.472168 56.0
1373.87793 184.0
1374.209961 200.0
1374.859253 168.0
1375.449707 92.0
1376.41687 176.0
1376.814697 132.0
1377.391602 88.0
1377.56897 208.0
1377.820068 184.0
1378.22644 200.0
1378.352051 148.0
1379.307373 228.0
1380.3479 200.0
1380.695435 184.0
1381.516357 160.0
1382.929688 136.0
1384.876953 224.0
1385.151001 188.0
1386.692139 152.0
1387.129395 124.0
1387.507568 200.0
1389.79187 208.0
1389.858643 180.0
1390.259277 108.0
1390.927246 104.0
1391.194458 208.0
1392.649902 140.0
1393.1698 164.0
1393.481934 60.0
1394.247192 156.0
1394.730347 104.0
1395.012817 184.0
1395.087158 156.0
1395.540649 164.0
1396.083374 160.0
1396.626343 132.0
1397.578491 96.0
1398.382202 200.0
1398.672485 108.0
1399.215942 216.0
1400.958496 144.0
1401.375732 168.0
1401.472656 212.0
1401.629028 144.0
1401.964355 200.0
1405.290039 244.0
1405.476562 256.0
1406.842285 124.0
1407.469482 156.0
1409.471191 176.0
1409.628174 272.0
1410.076538 164.0
1410.599731 148.0
1411.235229 168.0
1411.609009 164.0
1411.661377 92.0
1413.598755 204.0
1413.987915 156.0
1414.047852 64.0
1415.013428 140.0
1416.930664 148.0
1417.747437 156.0
1418.48938 184.0
1418.714355 176.0
1419.044189 216.0
1419.404053 176.0
1420.31897 88.0
1420.806641 88.0
1420.926636 152.0
1421.001587 140.0
1421.21167 140.0
1421.399292 56.0
1423.095581 160.0
1423.771484 196.0
1424.469971 132.0
1425.123535 60.0
1425.529297 108.0
1426.386108 148.0
1427.844604 128.0
1428.860107 60.0
1429.235474 192.0
1431.170654 124.0
1432.526245 104.0
1433.814819 176.0
1435.037964 216.0
1435.548584 204.0
1436.159424 180.0
1436.446045 152.0
1436.800659 156.0
1437.072266 136.0
1437.336304 104.0
1438.068359 144.0
1438.423096 152.0
1438.506104 212.0
1439.193115 164.0
1441.799194 160.0
1442.245117 152.0
1442.592773 72.0
1444.39563 136.0
1444.595703 148.0
1445.393921 152.0
1445.519775 148.0
1446.057007 108.0
1446.821533 172.0
1446.965332 44.0
1447.359131 132.0
1448.093628 112.0
1448.411743 148.0
1449.093506 180.0
1449.593628 196.0
1450.04834 156.0
1450.215088 164.0
1450.533447 160.0
1451.382446 96.0
1451.443115 44.0
1452.269409 152.0
1455.942993 264.0
1456.375977 148.0
1457.295166 124.0
1457.956177 180.0
1458.039795 196.0
1458.90625 204.0
1460.099976 204.0
1460.853027 196.0
1461.317139 196.0
1461.811646 216.0
1461.963867 172.0
1462.511841 156.0
1463.234985 136.0
1463.357666 144.0
1463.463379 176.0
1464.270508 188.0
1465.664551 172.0
1466.098999 144.0
1466.662964 208.0
1467.12793 100.0
1468.515625 132.0
1468.996216 72.0
1469.232666 240.0
1469.499756 240.0
1469.69043 80.0
1469.858276 144.0
1470.842773 176.0
1471.117554 216.0
1471.239746 148.0
1471.93457 124.0
1472.57605 136.0
1474.761108 132.0
1475.471436 152.0
1475.777832 160.0
1475.900146 112.0
1477.628662 152.0
1478.187256 144.0
1478.37085 192.0
1478.638794 36.0
1479.090332 136.0
1480.973877 152.0
1481.59436 196.0
1483.195923 252.0
1483.724854 56.0
1484.330444 132.0
1484.95166 160.0
1485.626709 172.0
1486.41687 156.0
1486.854248 60.0
1487.683228 144.0
1487.77478 156.0
1488.420288 184.0
1489.67981 196.0
1490.70166 156.0
1491.324219 220.0
1491.401001 152.0
1494.32312 124.0
1494.415527 116.0
1496.262573 148.0
1497.167114 204.0
1500.075806 60.0
1500.353394 152.0
1501.486816 196.0
1502.28894 520.0
1502.597534 160.0
1503.214844 176.0
1503.446289 132.0
1504.102417 176.0
