>compound MLS002222270-01!
>formula C21H26N2OS2
>ionization [M+H]+
>parentmass 387.1559319040905
#inchi InChI=1S/C21H26N2OS2/c1-22-13-6-5-7-16(22)12-14-23-18-8-3-4-9-20(18)25-21-11-10-17(26(2)24)15-19(21)23/h3-4,8-11,15-16H,5-7,12-14H2,1-2H3
#inchikey SLVMESMUVMCQIY
#origInchi InChI=1S/C21H26N2OS2.C6H6O3S/c1-22-13-6-5-7-16(22)12-14-23-18-8-3-4-9-20(18)25-21-11-10-17(26(2)24)15-19(21)23;7-10(8,9)6-4-2-1-3-5-6/h3-4,8-11,15-16H,5-7,12-14H2,1-2H3;1-5H,(H,7,8,9)
#Ion_Source LC-ESI
#Instrument qTof
#Compound_Source NIH Pharmacologically Active Library
#PI Dorrestein
#Data_Collector VP/LMS
#Scan -1
#Precursor_MZ 387.16
#ExactMass 386.149
#Charge 1
#CAS_Number N/A
#Pubmed_ID N/A
#Smiles CN1CCCCC1CCN2c3ccccc3Sc4ccc(cc24)S(=O)C.OS(=O)(=O)c1ccccc1
#INCHI_AUX N/A
#Library_Class 1
#SpectrumID CCMSLIB00000085168
#IonMode Positive
#UpdateWorkflowName UPDATE-SINGLE-ANNOTATED-GOLD
#LibraryQualityString Gold
#TaskID d252d724072548979f1f6f1ced849daf
##Scan# 1640
#SpectrumFile p3-F07_GF7_01_18288.mzXML
#LibraryName Pharm_Active_Library.mgf
#MQScore -1
#Organism Pharm_Active_Library
#TIC_Query 0
#RT_Query -1
#MZErrorPPM -1
#SharedPeaks 0
#MassDiff 0
#LibMZ -1
#SpecMZ 387.16
#SpecCharge 0
#internalFilename spec-00000.mgf

>collision 10
44.921753 148.0
44.931091 128.0
44.997829 76.0
45.009846 176.0
45.021866 172.0
45.031216 192.0
45.081985 128.0
45.096687 128.0
45.107384 104.0
45.120148 212.0
45.143486 184.0
45.175587 120.0
45.21048 160.0
45.258572 232.0
45.279686 192.0
45.302773 160.0
45.396603 96.0
45.435501 160.0
45.449272 320.0
45.47068 224.0
45.507984 176.0
45.530811 156.0
45.548275 136.0
45.585896 132.0
45.647739 152.0
45.670155 216.0
45.702892 176.0
45.756733 152.0
45.799519 208.0
45.820038 180.0
45.839764 188.0
45.851032 68.0
46.025066 184.0
46.050724 208.0
46.072338 120.0
46.081329 196.0
46.091255 168.0
46.1264 136.0
46.145325 224.0
46.189957 104.0
46.203487 160.0
46.281994 164.0
46.347015 188.0
46.362865 184.0
46.424286 100.0
46.450058 180.0
46.466339 300.0
46.488049 144.0
46.614349 128.0
46.632019 356.0
46.660568 68.0
46.686405 92.0
46.729935 148.0
46.742184 216.0
46.763958 128.0
46.812973 116.0
46.832043 188.0
46.874279 156.0
46.902901 80.0
46.951988 188.0
46.965626 124.0
46.995644 160.0
47.005196 108.0
47.122631 212.0
47.172096 228.0
47.226013 184.0
47.245682 180.0
47.257999 228.0
47.292213 56.0
47.320961 236.0
47.337669 220.0
47.348351 120.0
47.385956 132.0
47.405891 168.0
47.445644 512.0
47.503246 136.0
47.555393 108.0
47.582012 216.0
47.592934 128.0
47.63229 188.0
47.651279 180.0
47.660126 200.0
47.689037 176.0
47.719875 176.0
47.740879 116.0
47.778469 196.0
47.820248 204.0
47.831264 276.0
47.885395 100.0
47.925346 184.0
48.041168 156.0
48.108791 196.0
48.146076 140.0
48.230362 160.0
48.270458 212.0
48.470032 144.0
48.515545 56.0
48.533569 140.0
48.62788 196.0
48.682888 200.0
48.752911 196.0
48.793224 216.0
48.935146 152.0
48.957428 132.0
48.983891 140.0
48.995037 96.0
49.042488 160.0
49.064724 148.0
49.123299 132.0
49.201454 156.0
49.251732 200.0
49.282043 184.0
49.327194 108.0
49.35236 144.0
49.365822 172.0
49.392487 196.0
49.432095 236.0
49.485291 108.0
49.502094 172.0
49.517498 156.0
49.556164 204.0
49.560322 148.0
49.576344 212.0
49.586155 96.0
49.59737 136.0
49.636627 232.0
49.64537 184.0
49.668884 116.0
49.73484 84.0
49.821911 228.0
49.838326 152.0
49.90765 132.0
49.921577 212.0
49.931557 96.0
50.013168 184.0
50.031124 164.0
50.073715 112.0
50.090618 168.0
50.130474 168.0
50.144165 180.0
50.175179 120.0
50.185684 176.0
50.238388 176.0
50.2584 64.0
50.28627 208.0
50.321918 164.0
50.3657 84.0
50.440594 144.0
50.487255 172.0
50.519791 168.0
50.577812 184.0
50.609783 248.0
50.62862 172.0
50.652866 204.0
50.695374 252.0
50.759171 164.0
50.773701 244.0
50.796047 204.0
50.83144 144.0
50.863316 208.0
50.88755 76.0
50.901081 144.0
50.924259 224.0
50.936588 292.0
50.949375 192.0
50.993427 196.0
51.016171 156.0
51.065945 88.0
51.111679 164.0
51.14278 180.0
51.200607 196.0
51.219677 132.0
51.262421 168.0
51.330853 144.0
51.355099 200.0
51.377495 160.0
51.410236 188.0
51.465034 132.0
51.505707 204.0
51.555054 176.0
51.569283 144.0
51.581417 192.0
51.595314 172.0
51.67511 108.0
51.693714 224.0
51.72234 192.0
51.732361 112.0
51.760998 136.0
51.801102 256.0
51.855553 64.0
51.927246 116.0
51.954502 220.0
51.9832 108.0
51.993248 120.0
52.031113 148.0
52.053543 148.0
52.079353 136.0
52.123356 208.0
52.138309 96.0
52.156994 256.0
52.194374 184.0
52.204929 172.0
52.24184 84.0
52.253349 116.0
52.393009 100.0
52.403095 68.0
52.482376 156.0
52.495304 116.0
52.551613 200.0
52.570374 116.0
52.580475 120.0
52.59058 296.0
52.679974 164.0
52.704674 180.0
52.742252 116.0
52.759602 124.0
52.795052 256.0
52.811661 144.0
52.82468 176.0
52.843491 56.0
52.860855 88.0
52.923328 76.0
52.962559 196.0
52.972343 312.0
52.986832 192.0
53.000927 220.0
53.043839 132.0
53.063652 256.0
53.078152 120.0
53.097008 156.0
53.117878 196.0
53.143429 44.0
53.162292 244.0
53.211651 140.0
53.226387 268.0
53.284756 168.0
53.327869 276.0
53.342407 300.0
53.358398 60.0
53.374393 128.0
53.394753 124.0
53.4207 148.0
53.435486 208.0
53.458908 188.0
53.474781 144.0
53.527191 192.0
53.55323 164.0
53.61861 144.0
53.642029 172.0
53.659794 112.0
53.740093 236.0
53.764828 204.0
53.864117 160.0
53.926952 68.0
53.983974 156.0
54.017616 304.0
54.04834 192.0
54.074684 68.0
54.108353 120.0
54.122997 144.0
54.144962 212.0
54.175087 176.0
54.238739 176.0
54.266598 108.0
54.288593 168.0
54.298859 204.0
54.309128 152.0
54.339561 204.0
54.360027 208.0
54.387775 504.0
54.41626 64.0
54.463257 124.0
54.504395 156.0
54.52644 180.0
54.5676 196.0
54.583775 60.0
54.605839 212.0
54.6618 212.0
54.688236 144.0
54.757442 320.0
54.789848 232.0
54.857643 176.0
54.88271 192.0
54.906303 216.0
54.935806 188.0
54.966793 148.0
55.015503 144.0
55.058323 284.0
55.076946 244.0
55.095253 148.0
55.163239 72.0
55.182457 180.0
55.219429 72.0
55.229782 152.0
55.262836 164.0
55.275234 92.0
55.291222 148.0
55.30798 204.0
55.343742 148.0
55.389656 152.0
55.426098 316.0
55.447445 140.0
55.500816 100.0
55.576469 152.0
55.59576 152.0
55.628414 136.0
55.698212 172.0
55.759132 116.0
55.808193 116.0
55.839424 176.0
55.885647 164.0
55.906376 136.0
55.925041 148.0
55.964855 224.0
56.018642 128.0
56.049343 52.0
56.07766 136.0
56.129841 104.0
56.159668 104.0
56.175262 168.0
56.198456 68.0
56.23925 264.0
56.262638 112.0
56.308929 60.0
56.349266 236.0
56.373177 192.0
56.386627 136.0
56.468861 124.0
56.504765 152.0
56.51973 192.0
56.629021 116.0
56.669468 140.0
56.690449 184.0
56.708809 256.0
56.756409 164.0
56.775219 332.0
56.855194 236.0
56.87043 92.0
56.980061 68.0
57.004105 124.0
57.014622 148.0
57.029655 180.0
57.040176 384.0
57.050449 96.0
57.105904 248.0
57.116955 200.0
57.211681 156.0
57.222218 144.0
57.261372 140.0
57.294514 124.0
57.306568 192.0
57.32465 72.0
57.370094 192.0
57.387962 204.0
57.402184 168.0
57.437733 180.0
57.469418 168.0
57.514694 132.0
57.528282 120.0
57.597748 132.0
57.640053 216.0
57.651371 204.0
57.664234 312.0
57.69598 228.0
57.715015 136.0
57.753445 152.0
57.810944 152.0
57.824562 220.0
57.91087 148.0
58.076092 140.0
58.086712 140.0
58.098724 212.0
58.137852 176.0
58.17387 168.0
58.195988 176.0
58.235474 140.0
58.250664 128.0
58.28257 316.0
58.311993 92.0
58.335766 144.0
58.355083 176.0
58.387466 184.0
58.400265 136.0
58.539658 172.0
58.599068 160.0
58.61879 140.0
58.662773 172.0
58.696625 140.0
58.770149 140.0
58.792736 132.0
58.803421 92.0
58.818684 160.0
58.830898 152.0
58.861435 80.0
58.872128 120.0
58.901146 196.0
58.921009 216.0
58.940002 148.0
58.942841 208.0
59.00507 172.0
59.052479 172.0
59.101707 112.0
59.141224 196.0
59.179501 100.0
59.213192 164.0
59.253021 160.0
59.268345 176.0
59.302059 224.0
59.332722 164.0
59.36005 68.0
59.407871 52.0
59.437725 140.0
59.463531 220.0
59.478462 132.0
59.490746 160.0
59.504562 164.0
59.573841 112.0
59.577915 116.0
59.584724 200.0
59.645905 40.0
59.661278 196.0
59.747406 156.0
59.815121 164.0
59.859772 128.0
59.910603 120.0
59.995369 136.0
60.026207 156.0
60.052425 140.0
60.078651 172.0
60.103893 144.0
60.137291 156.0
60.155216 196.0
60.199051 140.0
60.246933 60.0
60.263668 168.0
60.275261 168.0
60.309299 168.0
60.3232 264.0
60.33812 124.0
60.417824 308.0
60.449375 260.0
60.466518 172.0
60.489105 176.0
60.539284 200.0
60.565617 140.0
60.581108 72.0
60.633793 200.0
60.657043 252.0
60.715965 160.0
60.757851 160.0
60.796261 172.0
60.840107 172.0
60.913097 128.0
60.986263 220.0
61.01878 112.0
61.074768 172.0
61.119884 148.0
61.172806 132.0
61.218544 96.0
61.236492 156.0
61.256901 148.0
61.269363 152.0
61.319233 176.0
61.371391 140.0
61.374241 196.0
61.39563 108.0
61.411179 136.0
61.425713 224.0
61.518902 224.0
61.553253 188.0
61.571991 156.0
61.604797 204.0
61.664215 328.0
61.708694 168.0
61.749077 200.0
61.78146 108.0
61.797314 180.0
61.809624 164.0
61.87291 196.0
61.935772 236.0
61.992317 224.0
62.016357 96.0
62.035172 168.0
62.118286 156.0
62.145432 80.0
62.237572 144.0
62.250134 172.0
62.29097 160.0
62.32893 200.0
62.344395 112.0
62.368389 196.0
62.44455 376.0
62.542576 180.0
62.559544 180.0
62.586658 180.0
62.613434 148.0
62.69326 60.0
62.719002 164.0
62.731709 136.0
62.78838 72.0
62.825081 136.0
62.846947 228.0
62.86253 160.0
62.950401 188.0
62.968311 216.0
63.020443 80.0
63.085934 276.0
63.113705 116.0
63.226028 52.0
63.325775 328.0
63.353062 196.0
63.371719 44.0
63.414509 232.0
63.466827 168.0
63.478428 228.0
63.509647 148.0
63.598507 72.0
63.647724 164.0
63.687431 188.0
63.701729 116.0
63.778004 192.0
63.835472 168.0
63.852318 152.0
63.914783 156.0
63.946613 128.0
63.957756 132.0
64.023041 184.0
64.11544 92.0
64.150513 176.0
64.198349 216.0
64.252579 144.0
64.283524 236.0
64.300453 196.0
64.319611 152.0
64.346748 144.0
64.384254 140.0
64.397034 132.0
64.425392 184.0
64.541695 144.0
64.575279 188.0
64.645676 252.0
64.658478 176.0
64.724113 156.0
64.767357 176.0
64.791809 168.0
64.842667 212.0
64.865112 120.0
64.897827 176.0
64.91642 84.0
64.961838 216.0
64.987106 184.0
65.014282 204.0
65.041565 208.0
65.052803 116.0
65.067253 140.0
65.088127 176.0
65.104187 140.0
65.129189 224.0
65.173668 144.0
65.207016 68.0
65.244186 260.0
65.282578 192.0
65.301323 196.0
65.316559 160.0
65.344284 128.0
65.356575 164.0
65.369453 112.0
65.411301 328.0
65.456383 72.0
65.470879 144.0
65.486565 108.0
65.548203 144.0
65.559486 116.0
65.599579 64.0
65.630417 196.0
65.661057 52.0
65.701385 140.0
65.723976 96.0
65.735275 116.0
65.768867 172.0
65.814369 212.0
65.875748 172.0
65.908066 152.0
65.937675 172.0
65.988884 156.0
66.01799 176.0
66.033279 180.0
66.045486 244.0
66.066513 108.0
66.135201 176.0
66.207344 120.0
66.228401 188.0
66.286728 120.0
66.33049 68.0
66.354805 144.0
66.411568 144.0
66.445969 136.0
66.468353 164.0
66.494324 136.0
66.522491 188.0
66.541397 152.0
66.581993 136.0
66.596519 204.0
66.625854 160.0
66.666481 172.0
66.684776 108.0
66.739006 156.0
66.757668 180.0
66.781914 140.0
66.798187 140.0
66.882805 128.0
66.899681 152.0
66.944672 384.0
66.969109 132.0
67.001686 136.0
67.016541 204.0
67.040665 232.0
67.057091 188.0
67.073395 140.0
67.107628 228.0
67.127197 156.0
67.181946 172.0
67.238136 136.0
67.25547 208.0
67.272415 152.0
67.314873 172.0
67.399818 180.0
67.417793 172.0
67.463562 180.0
67.483345 424.0
67.505768 172.0
67.581322 136.0
67.605873 144.0
67.651703 116.0
67.686554 140.0
67.721664 408.0
67.745056 136.0
67.766609 152.0
67.789291 172.0
67.813881 124.0
67.83847 168.0
67.927025 208.0
67.946709 84.0
67.995941 176.0
68.02549 132.0
68.127312 212.0
68.147026 172.0
68.166077 208.0
68.179893 212.0
68.201256 172.0
68.212769 164.0
68.22921 208.0
68.285118 32.0
68.301567 140.0
68.326851 228.0
68.345985 96.0
68.405243 236.0
68.46946 120.0
68.492516 144.0
68.533707 152.0
68.557343 200.0
68.578201 124.0
68.66629 228.0
68.733238 136.0
68.753036 88.0
68.815765 164.0
68.827324 192.0
68.872025 188.0
68.921486 140.0
68.94297 188.0
68.954536 200.0
68.978439 208.0
69.044327 208.0
69.075249 144.0
69.130997 144.0
69.220901 188.0
69.282188 192.0
69.296082 156.0
69.306488 180.0
69.341843 108.0
69.355103 156.0
69.384079 192.0
69.399864 64.0
69.434692 172.0
69.488396 204.0
69.527603 184.0
69.540878 160.0
69.562462 180.0
69.620575 188.0
69.668747 152.0
69.695847 156.0
69.730232 124.0
69.761818 164.0
69.777611 136.0
69.795067 60.0
69.825005 148.0
69.849953 128.0
69.863266 176.0
69.888222 84.0
69.918175 220.0
69.938148 108.0
69.971443 144.0
69.991425 200.0
70.016411 160.0
70.060349 232.0
70.120399 356.0
70.214745 200.0
70.243103 132.0
70.274803 120.0
70.324112 328.0
70.37648 172.0
70.441757 60.0
70.493553 192.0
70.54203 176.0
70.61895 196.0
70.630661 124.0
70.84494 148.0
70.859566 180.0
70.876778 376.0
70.900238 92.0
70.913643 132.0
70.93853 208.0
70.977356 128.0
71.01593 140.0
71.0354 216.0
71.055305 144.0
71.157677 156.0
71.203918 68.0
71.272797 156.0
71.323593 208.0
71.364433 116.0
71.403923 164.0
71.429153 116.0
71.440933 100.0
71.463562 160.0
71.488045 160.0
71.578957 176.0
71.619377 152.0
71.695198 132.0
71.713448 164.0
71.760941 128.0
71.801414 136.0
71.863831 152.0
71.89045 212.0
71.999405 220.0
72.034355 128.0
72.09687 124.0
72.166183 92.0
72.197464 240.0
72.225372 216.0
72.24398 140.0
72.301514 164.0
72.323517 136.0
72.387856 156.0
72.420036 56.0
72.52491 184.0
72.558998 108.0
72.57489 140.0
72.587013 108.0
72.613266 188.0
72.627625 172.0
72.665855 160.0
72.715073 120.0
72.726952 152.0
72.799713 272.0
72.818642 80.0
72.830528 152.0
72.862808 164.0
72.91098 184.0
72.917564 236.0
72.974991 160.0
73.000496 184.0
73.060951 140.0
73.167252 176.0
73.182579 180.0
73.214935 184.0
73.257515 160.0
73.281372 72.0
73.294998 200.0
73.33667 240.0
73.373405 168.0
73.387047 124.0
73.400688 64.0
73.422859 140.0
73.453568 152.0
73.473122 156.0
73.497925 136.0
73.518402 136.0
73.548454 240.0
73.610588 104.0
73.726761 192.0
73.743851 144.0
73.759239 148.0
73.844734 168.0
73.860916 148.0
73.914879 80.0
73.989998 176.0
74.012451 120.0
74.130653 120.0
74.156364 112.0
74.206078 28.0
74.396523 128.0
74.41713 180.0
74.429146 92.0
74.456627 176.0
74.489258 224.0
74.504723 144.0
74.5494 44.0
74.570023 308.0
74.619873 176.0
74.659706 172.0
74.69899 156.0
74.760933 180.0
74.795357 180.0
74.831512 32.0
74.862511 84.0
74.876282 148.0
74.902016 132.0
74.917625 172.0
74.943474 116.0
74.986557 136.0
75.001732 184.0
75.062416 104.0
75.086555 144.0
75.135422 144.0
75.153839 104.0
75.176048 184.0
75.196983 152.0
75.279854 140.0
75.326714 156.0
75.348953 172.0
75.36277 288.0
75.379005 152.0
75.392151 180.0
75.431908 148.0
75.45092 76.0
75.487236 152.0
75.536354 160.0
75.584114 156.0
75.596222 116.0
75.656807 188.0
75.66893 160.0
75.705421 216.0
75.729538 168.0
75.760719 248.0
75.826569 176.0
75.911407 188.0
75.916092 176.0
75.921761 124.0
75.949677 184.0
75.986115 148.0
76.004372 176.0
76.032967 116.0
76.053795 212.0
76.090454 172.0
76.135399 172.0
76.190987 100.0
76.203148 192.0
76.2211 132.0
76.248329 144.0
76.272667 144.0
76.321342 76.0
76.357864 180.0
76.411797 164.0
76.462257 172.0
76.486526 208.0
76.59111 136.0
76.610275 160.0
76.645119 152.0
76.686714 148.0
76.725296 240.0
76.747452 460.0
76.81002 160.0
76.864639 180.0
76.923706 248.0
76.964104 220.0
76.999268 180.0
77.016739 220.0
77.030708 156.0
77.072647 96.0
77.090118 88.0
77.111092 200.0
77.146049 124.0
77.186264 172.0
77.25798 160.0
77.340233 56.0
77.374672 148.0
77.44529 132.0
77.467735 244.0
77.571602 228.0
77.611145 228.0
77.680191 136.0
77.731071 60.0
77.743355 196.0
77.767929 208.0
77.798294 208.0
77.850883 196.0
77.868988 144.0
77.875038 188.0
77.897873 156.0
77.933937 160.0
77.975189 188.0
77.996284 164.0
78.013863 112.0
78.027931 140.0
78.068375 188.0
78.112343 152.0
78.170937 344.0
78.228493 80.0
78.267227 176.0
78.293648 176.0
78.331047 188.0
78.379967 180.0
78.40715 168.0
78.424026 108.0
78.464577 140.0
78.519241 196.0
78.549225 140.0
78.600395 148.0
78.634903 304.0
78.655106 136.0
78.695717 156.0
78.723969 208.0
78.793236 260.0
78.842339 144.0
78.867081 288.0
78.899178 128.0
78.95195 256.0
78.99971 200.0
79.024483 164.0
79.038635 172.0
79.055908 168.0
79.088196 56.0
79.128914 208.0
79.231636 120.0
79.288223 184.0
79.294899 172.0
79.365868 192.0
79.410683 56.0
79.428421 204.0
79.502945 200.0
79.520691 168.0
79.55619 144.0
79.595253 120.0
79.630775 168.0
79.699608 144.0
79.718483 304.0
79.735603 132.0
79.754532 160.0
79.771492 208.0
79.785378 204.0
79.842285 120.0
79.861847 68.0
79.881416 136.0
79.911827 172.0
79.96505 100.0
79.995308 72.0
80.036263 180.0
80.078644 140.0
80.142921 196.0
80.166306 160.0
80.199463 152.0
80.271431 144.0
80.29467 132.0
80.322861 184.0
80.419563 56.0
80.455269 160.0
80.471336 228.0
80.503479 56.0
80.524918 216.0
80.5392 88.0
80.553497 200.0
80.642838 156.0
80.699776 184.0
80.732239 52.0
80.754616 172.0
80.785896 276.0
80.819893 184.0
80.852104 72.0
80.896965 128.0
80.912971 148.0
80.938934 192.0
80.960686 148.0
80.994286 168.0
81.029388 164.0
81.041931 172.0
81.065224 148.0
81.144096 204.0
81.15844 196.0
81.181755 132.0
81.20961 164.0
81.272423 204.0
81.303749 180.0
81.337852 124.0
81.371964 132.0
81.481529 192.0
81.506683 168.0
81.639717 192.0
81.715263 276.0
81.760422 168.0
81.781853 172.0
81.808853 132.0
81.83226 172.0
81.918709 112.0
82.031464 212.0
82.066498 80.0
82.122406 144.0
82.17112 60.0
82.187355 164.0
82.263161 48.0
82.317329 184.0
82.429329 164.0
82.512482 164.0
82.61557 220.0
82.673477 172.0
82.707863 152.0
82.747696 148.0
82.776665 180.0
82.845497 64.0
82.908913 192.0
82.948662 168.0
82.977798 164.0
83.024948 164.0
83.041267 184.0
83.12291 40.0
83.146507 212.0
83.230011 108.0
83.275414 80.0
83.337944 144.0
83.377838 152.0
83.397156 120.0
83.438972 108.0
83.473518 136.0
83.5214 208.0
83.577209 188.0
83.62429 196.0
83.724419 180.0
83.751091 148.0
83.839447 156.0
83.899597 148.0
83.916008 144.0
83.934242 92.0
84.022026 188.0
84.063759 208.0
84.078362 184.0
84.123993 148.0
84.19899 176.0
84.213478 156.0
84.231743 120.0
84.282898 136.0
84.331329 176.0
84.344627 124.0
84.359665 156.0
84.396233 196.0
84.412689 200.0
84.495003 184.0
84.522446 124.0
84.555389 144.0
84.568199 180.0
84.584679 80.0
84.606644 188.0
84.640213 120.0
84.714699 152.0
84.842987 248.0
84.86866 144.0
84.921844 28.0
84.947525 40.0
84.972397 188.0
85.035599 88.0
85.064972 148.0
85.092514 128.0
85.120056 28.0
85.154945 112.0
85.211899 148.0
85.226601 80.0
85.245628 212.0
85.290924 176.0
85.325851 144.0
85.3424 124.0
85.362625 32.0
85.38102 188.0
85.40493 164.0
85.460121 152.0
85.509811 40.0
85.5411 108.0
85.590813 124.0
85.620277 192.0
85.635529 176.0
85.666328 132.0
85.704689 156.0
85.75 228.0
85.81424 80.0
85.835899 160.0
85.864487 144.0
85.896767 84.0
85.928131 116.0
85.968727 96.0
86.005646 156.0
86.101654 168.0
86.133057 192.0
86.147835 96.0
86.173698 232.0
86.193535 164.0
86.218056 100.0
86.230988 176.0
86.24855 136.0
86.349319 148.0
86.402512 228.0
86.423325 132.0
86.532532 156.0
86.552971 192.0
86.588081 96.0
86.610313 148.0
86.649887 232.0
86.682571 152.0
86.697845 148.0
86.792908 252.0
86.81234 104.0
86.836449 104.0
86.863998 164.0
86.957054 156.0
86.981186 128.0
87.014603 348.0
87.040596 204.0
87.10746 152.0
87.148338 164.0
87.168777 152.0
87.181786 168.0
87.198509 152.0
87.231972 216.0
87.272873 148.0
87.292152 196.0
87.310066 144.0
87.364502 272.0
87.41053 236.0
87.471947 104.0
87.496147 164.0
87.552017 232.0
87.612007 96.0
87.647026 100.0
87.702934 48.0
87.721581 220.0
87.77565 172.0
87.81739 188.0
87.856407 148.0
87.887451 188.0
87.930496 100.0
87.965958 164.0
87.980896 56.0
88.00428 216.0
88.03878 104.0
88.096687 204.0
88.111633 160.0
88.155777 192.0
88.261162 188.0
88.282326 204.0
88.309792 152.0
88.329491 180.0
88.335976 96.0
88.345039 180.0
88.349586 248.0
88.401466 296.0
88.429543 144.0
88.444519 240.0
88.488449 196.0
88.538132 148.0
88.563492 164.0
88.598076 108.0
88.624306 92.0
88.650543 92.0
88.677689 348.0
88.714272 176.0
88.736771 144.0
88.7799 64.0
88.799866 56.0
88.856812 140.0
88.894341 128.0
88.914986 140.0
89.042656 116.0
89.093376 124.0
89.130951 132.0
89.1474 160.0
89.228699 172.0
89.251259 104.0
89.303108 152.0
89.390465 44.0
89.416809 236.0
89.443169 148.0
89.469521 156.0
89.49588 236.0
89.524124 312.0
89.5466 176.0
89.617195 228.0
89.652237 148.0
89.665428 168.0
89.682396 136.0
89.733292 168.0
89.74649 168.0
89.787979 176.0
89.814384 172.0
89.864883 240.0
89.895515 112.0
89.912506 208.0
89.929489 172.0
89.950256 180.0
89.997452 204.0
90.061668 144.0
90.114563 160.0
90.154251 132.0
90.222298 100.0
90.241203 196.0
90.280914 184.0
90.31118 148.0
90.375504 180.0
90.436066 144.0
90.492584 192.0
90.606499 184.0
90.670204 212.0
90.741982 216.0
90.782784 204.0
90.815025 352.0
90.845383 104.0
90.877304 184.0
90.958267 156.0
90.991516 140.0
91.023796 188.0
91.048485 140.0
91.073593 164.0
91.111176 128.0
91.177681 184.0
91.217598 156.0
91.23851 144.0
91.253723 116.0
91.301971 152.0
91.317825 152.0
91.409698 132.0
91.44101 204.0
91.459183 100.0
91.472511 168.0
91.638206 168.0
91.678223 352.0
91.760193 164.0
91.796417 160.0
91.83773 180.0
91.857452 168.0
91.88607 272.0
91.945229 100.0
91.991043 164.0
92.027313 128.0
92.141914 108.0
92.168671 204.0
92.191597 48.0
92.218361 164.0
92.302475 132.0
92.355728 152.0
92.42205 364.0
92.48806 180.0
92.526352 180.0
92.585716 160.0
92.637428 144.0
92.650841 208.0
92.698746 28.0
92.719826 156.0
92.735161 160.0
92.757011 220.0
92.811844 208.0
92.831024 164.0
92.848488 152.0
92.873215 116.0
92.898766 88.0
92.944206 184.0
92.968483 184.0
93.037743 164.0
93.071152 192.0
93.173386 296.0
93.189987 120.0
93.214966 76.0
93.320694 128.0
93.436096 148.0
93.468803 144.0
93.487595 136.0
93.500656 196.0
93.522247 208.0
93.563118 176.0
93.601631 96.0
93.64978 96.0
93.67675 180.0
93.746117 136.0
93.76078 184.0
93.823219 216.0
93.875023 152.0
93.913857 92.0
93.927078 84.0
94.019974 112.0
94.033485 172.0
94.06179 384.0
94.075951 184.0
94.137741 164.0
94.186028 172.0
94.237274 144.0
94.261375 144.0
94.288429 164.0
94.334694 180.0
94.385094 140.0
94.417969 204.0
94.483803 120.0
94.501152 104.0
94.566956 220.0
94.609543 172.0
94.702492 180.0
94.750923 144.0
94.767616 148.0
94.812935 200.0
94.832314 220.0
94.877914 176.0
95.010719 100.0
95.043709 136.0
95.083435 556.0
95.150459 164.0
95.171822 188.0
95.228142 176.0
95.26017 156.0
95.268631 76.0
95.27549 172.0
95.328285 176.0
95.360268 180.0
95.389427 104.0
95.426361 64.0
95.540123 188.0
95.587814 156.0
95.611168 148.0
95.652046 136.0
95.700714 200.0
95.743561 144.0
95.75914 176.0
95.79129 156.0
95.833168 196.0
95.861916 144.0
95.891632 172.0
95.98716 148.0
96.026169 208.0
96.079796 2228.0
96.12957 52.0
96.156898 164.0
96.22522 240.0
96.252655 156.0
96.281853 164.0
96.304771 120.0
96.332634 120.0
96.346313 68.0
96.418396 144.0
96.436203 236.0
96.450821 176.0
96.467484 120.0
96.499054 268.0
96.559387 116.0
96.674088 140.0
96.688354 144.0
96.708855 184.0
96.77269 140.0
96.799911 160.0
96.845154 176.0
96.888252 160.0
96.922234 152.0
96.934814 220.0
96.976433 180.0
96.992119 152.0
97.009758 168.0
97.047012 224.0
97.067139 152.0
97.087502 328.0
97.141151 144.0
97.156853 200.0
97.200714 112.0
97.270676 112.0
97.284416 160.0
97.322975 100.0
97.357765 348.0
97.382599 60.0
97.399391 160.0
97.416634 148.0
97.445465 112.0
97.49852 148.0
97.544708 232.0
97.572716 140.0
97.597824 272.0
97.632843 200.0
97.663681 248.0
97.693192 164.0
97.706963 136.0
97.729179 260.0
97.747849 568.0
97.77932 228.0
97.807327 184.0
97.847427 144.0
97.875618 216.0
97.91304 188.0
97.95092 196.0
97.958908 160.0
97.965652 192.0
97.989326 416.0
98.025169 300.0
98.030075 176.0
98.037964 412.0
98.066978 440.0
98.095924 147300.0
98.139168 196.0
98.153824 224.0
98.186958 60.0
98.200142 44.0
98.222939 96.0
98.244949 100.0
98.28241 240.0
98.314316 268.0
98.329086 68.0
98.344452 328.0
98.380859 112.0
98.399681 440.0
98.419548 1560.0
98.440422 324.0
98.472649 68.0
98.495537 52.0
98.519402 144.0
98.543655 112.0
98.562706 104.0
98.58474 56.0
98.62793 108.0
98.650253 96.0
98.66687 196.0
98.690491 204.0
98.734642 136.0
98.757965 84.0
98.778214 164.0
98.794044 176.0
98.809868 56.0
98.831017 64.0
98.849442 156.0
98.878006 120.0
98.906448 88.0
98.937813 260.0
98.957558 64.0
99.001884 152.0
99.043472 372.0
99.069969 160.0
99.098656 12168.0
99.162529 144.0
99.190857 96.0
99.23175 156.0
99.263474 124.0
99.304131 132.0
99.317024 224.0
99.356232 84.0
99.413254 80.0
99.427879 124.0
99.463867 132.0
99.479744 116.0
99.515144 116.0
99.567116 188.0
99.594299 76.0
99.643394 120.0
99.653236 188.0
99.680702 252.0
99.711502 136.0
99.765823 120.0
99.792488 68.0
99.822807 156.0
99.848167 144.0
99.874062 140.0
99.894554 132.0
99.932297 120.0
99.971367 96.0
100.058289 44.0
100.072227 48.0
100.101692 484.0
100.118484 156.0
100.137947 156.0
100.159859 104.0
100.200584 108.0
100.253502 48.0
100.373634 168.0
100.400528 152.0
100.438934 152.0
100.460876 88.0
100.529488 196.0
100.552666 256.0
100.566635 28.0
100.582603 116.0
100.617775 128.0
100.664467 152.0
100.699562 196.0
100.722389 76.0
100.830284 80.0
100.853004 140.0
100.902252 124.0
100.924835 136.0
101.05426 160.0
101.101273 136.0
101.237404 160.0
101.264465 144.0
101.330574 148.0
101.402718 176.0
101.499664 168.0
101.573158 188.0
101.70359 188.0
101.719643 148.0
101.78791 136.0
101.846153 92.0
101.888344 28.0
101.910446 104.0
101.948624 56.0
102.041092 68.0
102.06115 152.0
102.109467 180.0
102.129578 136.0
102.143661 56.0
102.16378 80.0
102.250305 184.0
102.282509 84.0
102.350967 136.0
102.403328 172.0
102.48391 160.0
102.788399 92.0
102.822708 208.0
102.842888 136.0
102.857018 96.0
102.899414 48.0
102.917587 156.0
102.950966 160.0
102.968079 156.0
103.024635 184.0
103.065224 140.0
103.129723 156.0
103.184303 152.0
103.240921 164.0
103.275307 224.0
103.289467 244.0
103.33802 160.0
103.376465 64.0
103.390633 160.0
103.524689 148.0
103.54248 128.0
103.589073 60.0
103.636116 236.0
103.69693 192.0
103.823494 184.0
103.846512 68.0
103.968246 160.0
103.998688 228.0
104.10833 108.0
104.132698 100.0
104.148949 212.0
104.187546 108.0
104.228188 104.0
104.250542 228.0
104.29026 140.0
104.356247 164.0
104.416122 108.0
104.45533 156.0
104.481888 196.0
104.535255 128.0
104.62278 156.0
104.696083 108.0
104.731255 120.0
104.747002 136.0
104.812836 176.0
104.830544 128.0
104.848885 156.0
104.910431 216.0
104.934502 84.0
104.950813 80.0
104.979362 108.0
104.999756 88.0
105.175232 136.0
105.230354 192.0
105.289574 144.0
105.322258 152.0
105.401939 168.0
105.489822 76.0
105.596153 76.0
105.61866 112.0
105.675941 116.0
105.723007 60.0
105.757957 104.0
105.870407 128.0
105.892937 48.0
105.920113 132.0
105.940056 140.0
106.011772 132.0
106.036362 144.0
106.108986 172.0
106.136818 84.0
106.16758 84.0
106.214752 108.0
106.257835 136.0
106.346085 88.0
106.378922 120.0
106.419991 132.0
106.45079 144.0
106.472809 72.0
106.571983 68.0
106.629532 164.0
106.670639 200.0
106.722298 64.0
107.01516 132.0
107.065704 104.0
107.104836 128.0
107.23259 84.0
107.288246 164.0
107.312988 176.0
107.333611 176.0
107.364548 80.0
107.414047 188.0
107.434677 116.0
107.459435 104.0
107.49852 208.0
107.521347 136.0
107.667931 100.0
107.690872 188.0
107.711311 196.0
107.750298 156.0
107.804733 288.0
107.839348 112.0
107.906609 160.0
107.957268 148.0
107.980675 164.0
108.027596 184.0
108.077255 144.0
108.091736 368.0
108.106224 148.0
108.26149 152.0
108.412727 160.0
108.435524 64.0
108.506012 176.0
108.54126 168.0
108.580666 76.0
108.652466 156.0
108.71759 128.0
108.852531 104.0
108.881607 160.0
108.912766 144.0
108.95639 92.0
109.043671 196.0
109.066536 168.0
109.090012 340.0
109.133064 184.0
109.224571 116.0
109.297386 120.0
109.353577 40.0
109.416199 148.0
109.482666 156.0
109.520157 164.0
109.538902 132.0
109.651428 128.0
109.668098 144.0
109.745239 184.0
109.780685 64.0
109.832832 56.0
109.8675 168.0
109.92672 144.0
110.064499 108.0
110.095505 2212.0
110.127151 32.0
110.202362 48.0
110.219078 164.0
110.323586 176.0
110.413498 220.0
110.440689 64.0
110.474953 168.0
110.495079 104.0
110.551575 140.0
110.603905 76.0
110.819618 60.0
110.924408 116.0
110.985207 164.0
111.031349 236.0
111.067802 116.0
111.102974 456.0
111.287369 132.0
111.346169 212.0
111.425354 264.0
111.445953 168.0
111.453209 84.0
111.458534 164.0
111.592041 164.0
111.610962 184.0
111.735062 184.0
111.765755 204.0
111.779755 184.0
111.799149 176.0
111.865547 144.0
111.949768 112.0
112.017174 104.0
112.04203 200.0
112.047821 160.0
112.057137 128.0
112.110664 1944.0
112.1689 64.0
112.196007 200.0
112.201401 172.0
112.308075 132.0
112.323807 192.0
112.379799 64.0
112.396683 92.0
112.411453 144.0
112.441002 144.0
112.466331 328.0
112.595131 72.0
112.656387 92.0
112.694412 96.0
112.728226 60.0
112.759926 144.0
112.790436 148.0
112.833916 160.0
112.848717 124.0
112.874092 172.0
112.896156 240.0
113.087769 56.0
113.114357 296.0
113.170334 132.0
113.363106 64.0
113.479691 68.0
113.515739 176.0
113.554153 144.0
113.602707 76.0
113.651344 164.0
113.656303 152.0
113.664772 204.0
113.685455 184.0
113.708801 64.0
113.84156 188.0
113.974266 144.0
114.231529 180.0
114.274078 56.0
114.308121 140.0
114.425194 172.0
114.446487 152.0
114.478432 140.0
114.508247 132.0
114.546593 144.0
114.629684 60.0
114.766113 160.0
114.902618 88.0
115.049881 196.0
115.108398 168.0
115.137321 156.0
115.244225 224.0
115.274162 180.0
115.386505 108.0
115.453423 188.0
115.505074 164.0
115.588516 96.0
115.609657 164.0
115.669853 152.0
115.727654 52.0
115.798325 156.0
115.89521 224.0
115.937592 128.0
116.012611 308.0
116.143425 280.0
116.167023 132.0
116.207787 148.0
116.237831 204.0
116.323677 68.0
116.424538 148.0
116.574982 196.0
116.648064 212.0
116.766731 192.0
116.800743 172.0
116.886803 176.0
116.910477 144.0
117.123634 120.0
117.188263 148.0
117.207436 176.0
117.235672 168.0
117.272316 132.0
117.29818 172.0
117.321892 144.0
117.386581 240.0
117.423241 204.0
117.438339 180.0
117.528954 164.0
117.561325 96.0
117.608803 132.0
117.656296 160.0
117.693008 156.0
117.740517 160.0
117.77507 92.0
117.793877 176.0
117.831245 120.0
117.986855 152.0
118.222633 52.0
118.250771 260.0
118.326538 200.0
118.36335 168.0
118.429703 144.0
118.475975 76.0
118.606003 140.0
118.66671 96.0
118.816917 156.0
118.840233 192.0
118.963943 124.0
119.007362 188.0
119.033424 140.0
119.050797 80.0
119.202194 180.0
119.231117 184.0
119.276764 460.0
119.326767 172.0
119.344162 180.0
119.365906 152.0
119.383301 124.0
119.437683 240.0
119.476509 224.0
119.585648 76.0
119.627007 176.0
119.646599 84.0
119.664017 80.0
119.738052 36.0
119.781616 76.0
119.986473 144.0
120.030083 156.0
120.04644 100.0
120.088974 108.0
120.115143 52.0
120.347488 192.0
120.455688 92.0
120.53653 188.0
120.555641 156.0
120.602097 340.0
120.641449 88.0
120.746407 140.0
120.839478 132.0
120.860168 124.0
120.87645 136.0
120.936417 176.0
121.116318 180.0
121.157944 76.0
121.193001 160.0
121.241211 136.0
121.267509 44.0
121.299461 104.0
121.532181 140.0
121.570175 144.0
121.73922 152.0
121.753006 144.0
121.774361 108.0
121.791931 112.0
121.816101 140.0
121.838066 156.0
121.857841 156.0
121.950142 188.0
122.002899 76.0
122.027084 88.0
122.044586 192.0
122.064468 216.0
122.115219 104.0
122.141022 188.0
122.216248 200.0
122.240456 152.0
122.326294 184.0
122.374725 60.0
122.412163 100.0
122.603828 144.0
122.64949 212.0
122.711845 132.0
122.763268 204.0
122.819908 84.0
122.98761 376.0
123.053841 68.0
123.101013 176.0
123.10714 204.0
123.142174 60.0
123.179726 224.0
123.210655 212.0
123.261475 120.0
123.352097 124.0
123.444954 204.0
123.471497 84.0
123.57547 64.0
123.597595 164.0
123.686127 40.0
123.794617 132.0
123.887642 64.0
123.905373 232.0
124.020607 168.0
124.110703 3572.0
124.178032 204.0
124.27565 120.0
124.346664 152.0
124.395493 152.0
124.437675 144.0
124.533173 120.0
124.55761 28.0
124.615372 92.0
124.655365 144.0
124.726486 152.0
124.792007 136.0
124.879921 104.0
124.928856 176.0
124.960007 152.0
125.049019 144.0
125.118195 1888.0
125.146973 44.0
125.164787 164.0
125.202644 56.0
125.226707 204.0
125.296204 204.0
125.345757 184.0
125.40094 204.0
125.438667 160.0
125.505592 140.0
125.532478 52.0
125.56147 208.0
125.621696 60.0
125.641777 148.0
125.6689 180.0
125.711121 156.0
125.755585 152.0
125.793121 168.0
125.822044 488.0
125.845825 124.0
125.864983 276.0
125.889275 164.0
125.90712 276.0
125.929787 220.0
125.976357 152.0
125.985535 156.0
125.994469 292.0
125.999123 292.0
126.027634 168.0
126.046104 292.0
126.069153 408.0
126.127388 115352.0
126.16893 288.0
126.219292 188.0
126.262314 116.0
126.28656 160.0
126.311012 136.0
126.32988 92.0
126.350014 92.0
126.382683 40.0
126.405739 144.0
126.440399 44.0
126.459579 256.0
126.494431 1296.0
126.533195 180.0
126.548683 60.0
126.57856 140.0
126.610893 148.0
126.649994 56.0
126.678932 120.0
126.713387 148.0
126.738914 64.0
126.813004 204.0
126.832733 216.0
126.882515 164.0
126.902344 100.0
126.952873 208.0
126.970512 96.0
127.009842 64.0
127.032616 176.0
127.064735 144.0
127.085907 100.0
127.105774 164.0
127.129898 13528.0
127.167236 124.0
127.210373 76.0
127.243675 88.0
127.261024 88.0
127.292999 52.0
127.331863 72.0
127.352234 80.0
127.379036 68.0
127.405998 132.0
127.465805 168.0
127.52285 56.0
127.54982 60.0
127.567802 76.0
127.597031 236.0
127.621765 32.0
127.639755 108.0
127.66674 28.0
127.713402 204.0
127.737473 116.0
127.765717 88.0
127.797211 48.0
127.893196 80.0
127.913307 96.0
127.941689 84.0
127.971222 104.0
128.002716 108.0
128.031326 28.0
128.053131 116.0
128.075653 100.0
128.084808 80.0
128.1091 84.0
128.130981 576.0
128.162735 108.0
128.174026 152.0
128.212128 172.0
128.249878 64.0
128.306244 56.0
128.382904 56.0
128.538574 32.0
128.554367 176.0
128.594986 52.0
128.659302 152.0
128.757553 40.0
128.811768 136.0
128.834351 88.0
128.863724 124.0
128.886322 132.0
128.988037 48.0
129.0242 60.0
129.069427 56.0
129.085251 60.0
129.105606 128.0
129.124893 76.0
129.168945 56.0
129.220978 108.0
129.252655 124.0
129.302444 48.0
129.359024 176.0
129.44281 124.0
129.494888 64.0
129.696564 116.0
129.76004 128.0
129.881577 140.0
129.970978 104.0
130.151321 72.0
130.22525 56.0
130.407028 144.0
130.750473 212.0
130.852905 160.0
130.930328 136.0
130.982346 120.0
131.064743 148.0
131.112595 92.0
131.320068 204.0
131.454681 104.0
131.598495 108.0
131.673859 112.0
131.737808 160.0
131.998383 204.0
132.160797 108.0
132.348495 120.0
132.38121 220.0
132.501953 144.0
132.591324 252.0
132.66925 72.0
132.723602 108.0
132.743362 112.0
132.783905 112.0
132.898621 128.0
132.944504 44.0
132.991989 128.0
133.107498 72.0
133.141953 124.0
133.215454 200.0
133.254517 116.0
133.311874 100.0
133.355621 112.0
133.39241 64.0
133.465973 108.0
133.56488 112.0
133.65921 108.0
133.735214 156.0
133.76738 60.0
133.795609 156.0
133.866394 160.0
133.928574 100.0
134.013809 176.0
134.209747 92.0
134.295074 136.0
134.391968 80.0
134.507355 80.0
134.745239 48.0
134.766022 124.0
134.793762 184.0
134.915024 232.0
135.094345 180.0
135.122101 132.0
135.172333 68.0
135.270218 72.0
135.344315 60.0
135.564377 96.0
135.626953 132.0
135.775345 144.0
135.865814 172.0
135.923828 212.0
136.035233 136.0
136.376709 40.0
136.421829 208.0
136.611572 56.0
136.763489 200.0
137.00502 144.0
137.149506 96.0
137.22644 220.0
137.27774 44.0
137.504044 124.0
137.562393 124.0
137.578735 120.0
137.840332 208.0
137.877731 128.0
137.95253 40.0
137.987595 108.0
138.102188 116.0
138.258957 124.0
138.280014 128.0
138.352585 188.0
138.502457 148.0
138.556335 136.0
138.598511 252.0
138.711014 136.0
138.891571 180.0
138.931458 144.0
139.034698 108.0
139.098083 128.0
139.257751 100.0
139.330582 148.0
139.396378 52.0
139.51265 212.0
139.718506 132.0
139.805573 52.0
139.897369 172.0
139.941086 120.0
139.975067 100.0
140.174011 160.0
140.373322 56.0
140.406342 160.0
140.559692 68.0
140.670624 92.0
140.939865 116.0
140.972733 172.0
141.06514 116.0
141.145523 128.0
141.642548 188.0
141.775223 164.0
141.8013 120.0
142.114334 76.0
142.211639 112.0
142.228256 140.0
142.413467 180.0
142.463348 164.0
142.493561 312.0
142.544144 112.0
142.717667 148.0
142.783295 252.0
142.903198 116.0
142.934128 160.0
143.005524 84.0
143.072449 144.0
143.191254 184.0
143.355637 44.0
143.474823 204.0
143.91861 80.0
143.947266 48.0
144.121643 112.0
144.19812 68.0
144.245926 132.0
144.329605 128.0
144.375046 72.0
144.51857 196.0
144.585571 132.0
144.621475 180.0
144.676544 132.0
144.702881 224.0
144.734009 128.0
144.822617 128.0
145.117386 176.0
145.275681 160.0
145.44606 132.0
145.565475 228.0
145.640564 144.0
145.666992 164.0
145.72464 192.0
145.789536 36.0
146.116562 184.0
146.143021 132.0
146.159866 116.0
146.376511 116.0
146.482498 144.0
146.523453 228.0
146.587509 180.0
146.848892 136.0
146.885071 32.0
147.021622 112.0
147.056396 64.0
147.073288 76.0
147.090195 152.0
147.140884 188.0
147.628998 84.0
147.677368 180.0
147.929031 56.0
147.958084 136.0
148.178482 232.0
148.406326 168.0
148.466949 240.0
148.588226 124.0
148.634338 64.0
148.758118 120.0
148.913528 140.0
148.935394 88.0
149.319427 76.0
149.34375 144.0
149.377808 44.0
149.414307 92.0
149.494598 44.0
149.548141 180.0
149.599258 204.0
149.650391 188.0
149.708832 144.0
149.850113 132.0
149.874481 140.0
149.99147 156.0
150.13533 140.0
150.159714 152.0
150.491608 72.0
150.611282 156.0
150.640594 56.0
150.704117 76.0
150.882767 152.0
151.064133 204.0
151.195648 188.0
151.477234 132.0
151.771347 120.0
151.813034 152.0
151.835098 128.0
151.947937 260.0
152.313736 144.0
152.348129 116.0
152.667679 164.0
152.694733 60.0
152.810349 120.0
152.884171 136.0
153.055542 152.0
153.335388 252.0
153.381714 60.0
153.435944 124.0
153.751694 164.0
154.059525 312.0
154.438568 84.0
154.587021 200.0
155.069962 128.0
155.21376 84.0
155.489136 116.0
155.566086 108.0
155.660431 80.0
155.687744 52.0
155.74736 40.0
155.898926 152.0
155.988403 92.0
156.015747 160.0
156.036713 200.0
156.079727 212.0
156.169922 132.0
156.285294 128.0
156.329163 156.0
156.433701 88.0
156.485977 56.0
156.578125 116.0
156.922012 180.0
156.996826 208.0
157.026749 108.0
157.151489 164.0
157.198898 100.0
157.246307 180.0
157.570541 104.0
157.650909 172.0
157.923431 188.0
157.943451 144.0
157.990982 36.0
158.248779 168.0
158.459167 120.0
158.494247 192.0
158.5168 124.0
158.534348 124.0
158.57695 244.0
158.654663 128.0
159.124146 136.0
159.261948 120.0
159.342346 128.0
159.470505 152.0
159.69429 40.0
159.857819 148.0
160.185135 180.0
160.316162 112.0
160.406906 40.0
160.512802 160.0
160.578369 108.0
160.843307 196.0
160.863007 180.0
160.939255 48.0
161.093307 112.0
161.148895 124.0
161.277786 136.0
161.461899 88.0
161.520538 160.0
161.699631 216.0
161.755875 124.0
161.826767 140.0
161.910324 164.0
162.113007 36.0
162.195419 132.0
162.254959 52.0
162.331024 164.0
162.353851 160.0
162.584717 140.0
163.016449 120.0
163.247803 108.0
163.319016 104.0
163.369888 180.0
163.504745 120.0
163.750931 180.0
163.802658 244.0
163.912216 176.0
164.003967 36.0
164.062607 156.0
164.086655 256.0
164.315094 112.0
164.33551 64.0
164.751678 80.0
164.793945 244.0
165.007248 96.0
165.062469 212.0
165.165817 120.0
165.296295 196.0
165.590714 88.0
165.813614 208.0
165.864548 208.0
165.993088 176.0
166.028976 140.0
166.061264 280.0
166.113632 116.0
166.259888 128.0
166.490952 168.0
166.537186 188.0
166.809555 100.0
166.963837 132.0
167.005814 88.0
167.028137 64.0
167.071655 2508.0
167.117538 160.0
167.167084 160.0
167.259735 52.0
167.403915 192.0
167.465729 152.0
167.527557 180.0
167.581665 148.0
167.60228 144.0
167.646088 76.0
167.687317 196.0
167.725983 92.0
167.764648 156.0
168.079254 120.0
168.143845 156.0
168.179977 116.0
168.223862 160.0
168.267746 216.0
168.288406 156.0
168.359421 40.0
168.714722 148.0
168.913849 216.0
169.027679 180.0
169.255478 104.0
169.524902 176.0
169.565353 144.0
169.719315 148.0
170.092911 244.0
170.261688 56.0
170.446136 108.0
170.555298 48.0
170.654083 192.0
170.775162 144.0
170.784775 192.0
170.922012 152.0
170.97406 40.0
171.059875 144.0
171.140671 232.0
171.416779 188.0
171.458481 296.0
171.505402 128.0
171.602966 236.0
171.656616 132.0
171.789642 188.0
172.019287 148.0
172.095001 44.0
172.149841 72.0
172.178574 96.0
172.298721 156.0
172.411087 80.0
172.445068 140.0
172.813812 52.0
172.902786 68.0
173.065079 220.0
173.156738 172.0
173.180313 136.0
173.230087 180.0
173.286987 128.0
173.31131 128.0
173.405655 168.0
173.497406 280.0
173.725571 28.0
174.016891 240.0
174.163956 172.0
174.205994 160.0
174.295319 116.0
174.329483 48.0
174.413589 248.0
174.53978 68.0
174.581863 124.0
174.610794 72.0
174.63446 164.0
174.660767 212.0
174.797577 120.0
174.897598 132.0
175.145111 204.0
175.23996 88.0
175.461349 136.0
175.487717 168.0
175.55365 148.0
175.689346 144.0
175.743576 152.0
175.827026 180.0
175.949448 108.0
175.973206 188.0
175.991699 112.0
176.107895 216.0
176.340408 96.0
176.401215 204.0
176.448792 192.0
176.578369 60.0
176.631271 192.0
176.726517 72.0
176.90593 148.0
177.015045 136.0
177.052124 164.0
177.183228 180.0
177.396591 136.0
177.587524 196.0
177.749359 212.0
177.775894 84.0
177.930206 120.0
178.063736 1568.0
178.131683 124.0
178.19545 64.0
178.283142 148.0
178.344269 116.0
178.37085 140.0
178.457657 172.0
178.594223 96.0
178.642105 128.0
179.01207 140.0
179.070938 3424.0
179.265152 156.0
179.291809 76.0
179.393097 136.0
179.539017 188.0
179.558426 176.0
179.630432 60.0
179.649109 80.0
179.739822 32.0
179.857269 112.0
179.875946 52.0
180.079605 952.0
180.367462 60.0
180.501144 156.0
180.54393 136.0
180.609589 200.0
180.743195 224.0
180.867691 228.0
180.891785 44.0
180.974777 144.0
181.03511 120.0
181.087799 972.0
181.183685 156.0
181.42836 108.0
181.489243 172.0
181.534836 140.0
181.561646 168.0
181.58847 196.0
181.652847 148.0
181.752121 168.0
181.907791 56.0
182.059204 112.0
182.114563 136.0
182.149475 128.0
182.208572 60.0
182.412827 148.0
182.619888 76.0
182.638718 140.0
182.681747 88.0
182.864731 160.0
182.986404 176.0
183.061264 124.0
183.093582 60.0
183.139374 168.0
183.212112 92.0
183.389374 92.0
183.487015 28.0
183.778305 40.0
183.888962 152.0
183.926743 40.0
183.982224 160.0
184.026321 312.0
184.600861 160.0
184.721222 40.0
185.027298 468.0
185.073059 84.0
185.303299 124.0
185.387085 156.0
185.655685 152.0
185.769608 132.0
185.951416 204.0
185.978561 156.0
186.029953 588.0
186.059998 84.0
186.18219 168.0
186.397934 164.0
186.497375 160.0
186.525284 192.0
186.614273 64.0
186.641464 92.0
186.946136 148.0
187.033234 148.0
187.065903 256.0
187.316437 84.0
187.387268 200.0
187.646194 140.0
187.681641 160.0
187.883484 112.0
187.940781 160.0
187.978989 140.0
188.066315 132.0
188.085434 140.0
188.180984 88.0
188.71019 164.0
188.910706 116.0
189.135101 164.0
189.261032 144.0
189.639099 104.0
189.658295 44.0
189.702148 148.0
189.918793 112.0
190.075165 156.0
190.302994 148.0
190.33046 108.0
190.37439 108.0
190.456787 220.0
190.566681 192.0
190.781067 84.0
190.838791 140.0
190.882797 68.0
191.182663 40.0
191.493774 72.0
191.780334 76.0
191.893356 132.0
191.915421 192.0
192.017456 184.0
192.036758 204.0
192.11676 168.0
192.420349 32.0
192.453476 160.0
192.533569 80.0
192.84024 72.0
193.066956 148.0
193.089081 176.0
193.194199 200.0
193.434967 172.0
193.482025 64.0
193.728516 204.0
193.789459 188.0
194.013962 116.0
194.061249 152.0
194.099152 160.0
194.199753 168.0
194.432831 152.0
194.485565 184.0
194.616043 132.0
195.055008 172.0
195.093933 116.0
195.191238 68.0
195.249649 52.0
195.500031 116.0
195.91214 168.0
195.940002 92.0
196.073761 108.0
196.129501 112.0
196.505997 128.0
196.528305 48.0
196.56459 152.0
196.704147 184.0
196.762772 168.0
197.025803 188.0
197.076813 200.0
197.117508 92.0
197.139862 128.0
197.369095 116.0
197.506134 148.0
197.699188 68.0
197.788757 176.0
197.83075 108.0
197.931549 136.0
197.973557 180.0
198.033508 624.0
198.119202 148.0
198.20607 192.0
198.267715 216.0
198.301346 140.0
198.371429 64.0
198.494797 196.0
198.525635 120.0
198.803375 92.0
198.867935 148.0
198.904419 124.0
199.039017 720.0
199.185242 108.0
199.429703 132.0
199.497696 172.0
199.623703 160.0
199.691193 164.0
199.997894 120.0
200.034485 136.0
200.057007 104.0
200.124588 344.0
200.237228 148.0
200.324554 48.0
200.384003 156.0
200.679672 140.0
200.846054 64.0
200.961731 48.0
201.052032 104.0
201.147995 176.0
201.229874 116.0
201.263748 52.0
201.294815 196.0
201.46994 148.0
201.535446 172.0
201.585785 172.0
201.636658 116.0
201.677719 152.0
201.806274 124.0
201.936356 56.0
202.021225 156.0
202.106094 80.0
202.148544 76.0
202.174011 196.0
202.275909 140.0
202.377838 144.0
202.406158 104.0
202.471283 136.0
202.50528 152.0
202.534927 120.0
202.58165 304.0
202.782944 204.0
202.808456 212.0
202.978561 112.0
203.094849 84.0
203.120377 124.0
203.188461 124.0
203.30481 120.0
203.408371 136.0
203.636993 180.0
203.753464 56.0
204.080551 176.0
204.415466 200.0
204.566833 132.0
204.598145 168.0
204.65509 64.0
204.686417 56.0
205.085388 244.0
205.161911 152.0
205.264893 188.0
205.511108 140.0
205.550156 164.0
205.764236 84.0
205.815628 216.0
205.916641 304.0
206.067001 84.0
206.096466 128.0
206.287064 200.0
206.324219 96.0
206.39856 96.0
206.427155 112.0
206.564453 232.0
206.727539 52.0
206.819122 84.0
206.893555 76.0
206.996643 172.0
207.073959 200.0
207.191406 176.0
207.240128 172.0
207.303162 136.0
207.328949 160.0
207.443604 132.0
207.500946 156.0
207.601318 148.0
207.713165 216.0
207.741852 136.0
207.888199 152.0
207.911148 156.0
207.962814 112.0
208.120712 148.0
208.226974 124.0
208.29303 172.0
208.327515 136.0
208.367737 132.0
208.49704 164.0
208.54303 44.0
208.568893 104.0
208.678146 156.0
208.882339 132.0
208.954254 124.0
209.023315 272.0
209.052094 44.0
209.132675 244.0
209.181625 116.0
209.224808 132.0
209.328461 124.0
209.596359 224.0
209.754883 136.0
209.791046 68.0
209.989502 96.0
210.036591 608.0
210.124023 228.0
210.190384 136.0
210.239441 80.0
210.438629 92.0
210.476166 72.0
210.617691 212.0
210.687012 140.0
210.735382 200.0
210.796814 120.0
210.82283 284.0
210.895554 172.0
210.996262 184.0
211.044052 16908.0
211.114044 120.0
211.155304 48.0
211.242813 80.0
211.262329 112.0
211.294159 80.0
211.363602 116.0
211.396698 64.0
211.414429 64.0
211.463104 136.0
211.471344 176.0
211.505417 72.0
211.58287 180.0
211.658859 80.0
211.728363 80.0
211.809464 180.0
211.873428 184.0
211.922455 108.0
211.989105 64.0
212.049515 4248.0
212.102142 40.0
212.252899 56.0
212.296402 188.0
212.325409 128.0
212.447235 60.0
212.595215 160.0
212.682907 76.0
212.720032 36.0
212.780991 164.0
212.815842 100.0
212.882629 48.0
212.905853 44.0
213.055283 1692.0
213.096802 224.0
213.222534 144.0
213.356247 104.0
213.405685 100.0
213.463837 336.0
213.612167 160.0
213.676178 44.0
213.827499 104.0
213.871155 116.0
214.027176 288.0
214.054977 480.0
214.182724 120.0
214.238083 152.0
214.412918 64.0
214.512604 80.0
214.576157 92.0
214.646133 164.0
214.669464 156.0
214.888245 144.0
215.005417 184.0
215.039185 364.0
215.050766 168.0
215.055817 296.0
215.254822 116.0
215.387466 104.0
215.574463 120.0
215.720596 36.0
216.043274 204.0
216.130066 136.0
216.285187 96.0
216.314453 52.0
216.469635 72.0
216.528214 156.0
216.970688 188.0
217.021851 132.0
217.082123 88.0
217.102646 88.0
217.137833 104.0
217.167175 156.0
217.431229 100.0
217.466461 120.0
217.498749 180.0
217.586823 112.0
217.733643 104.0
217.801193 36.0
218.017319 192.0
218.095215 508.0
218.36261 152.0
218.50676 160.0
218.630341 136.0
218.754974 164.0
218.783401 176.0
219.036667 124.0
219.095596 192.0
219.22229 156.0
219.570175 60.0
219.635071 160.0
219.776688 156.0
219.806183 168.0
220.114471 192.0
220.207703 204.0
220.402679 108.0
220.701233 140.0
220.896439 188.0
220.961517 152.0
221.047333 204.0
221.298935 208.0
221.36705 144.0
221.387772 164.0
221.593094 64.0
221.719589 84.0
221.743301 148.0
221.78183 180.0
221.909317 148.0
222.036819 128.0
222.294937 124.0
222.520523 136.0
222.556152 112.0
222.770004 184.0
222.942337 104.0
223.046265 524.0
223.090958 136.0
223.134735 188.0
223.21286 116.0
223.254501 72.0
223.281265 212.0
223.733566 44.0
223.796097 140.0
223.81694 136.0
223.992935 172.0
224.048599 708.0
224.153549 188.0
224.20105 196.0
224.293625 148.0
224.377106 128.0
224.406921 144.0
224.517242 92.0
224.70816 88.0
225.021561 440.0
225.057877 940.0
225.11113 116.0
225.230606 180.0
225.469635 92.0
225.616104 148.0
225.759644 140.0
225.978012 140.0
226.025803 292.0
226.065109 1360.0
226.103195 48.0
226.37912 92.0
226.445007 176.0
226.597794 140.0
226.729645 116.0
226.921494 160.0
226.959503 160.0
226.991074 156.0
227.038696 6500.0
227.155167 140.0
227.209427 72.0
227.308441 40.0
227.37146 148.0
227.422485 40.0
227.477081 108.0
227.538742 188.0
227.637283 132.0
227.698715 144.0
227.781891 188.0
227.915024 132.0
227.995407 456.0
228.043793 2784.0
228.141006 148.0
228.275742 56.0
228.299805 80.0
228.405075 60.0
228.426132 108.0
228.486298 76.0
228.519394 32.0
228.69696 72.0
228.748123 152.0
228.846024 132.0
229.001007 1948.0
229.031784 424.0
229.082001 180.0
229.127594 116.0
229.202927 112.0
229.273468 68.0
229.459122 188.0
229.635452 76.0
229.73172 108.0
229.953857 196.0
230.004166 708.0
230.056488 144.0
230.104095 204.0
230.289017 116.0
230.371109 224.0
230.494446 136.0
230.826965 168.0
231.011627 520.0
231.056854 128.0
231.081055 108.0
231.111313 232.0
231.170029 148.0
231.232361 52.0
231.365555 220.0
231.417023 152.0
231.554733 164.0
231.732025 188.0
231.804749 168.0
231.841125 124.0
231.874939 128.0
231.974487 156.0
231.997528 240.0
232.030579 168.0
232.101837 152.0
232.195847 100.0
232.320206 92.0
232.42337 108.0
232.532623 108.0
232.559937 64.0
232.620651 168.0
232.975967 132.0
233.005432 160.0
233.115738 152.0
233.182602 192.0
233.574844 28.0
233.675247 108.0
233.87001 124.0
233.90654 60.0
233.997864 120.0
234.058777 140.0
234.604156 152.0
234.671234 128.0
234.692581 92.0
234.823715 188.0
234.899979 96.0
235.042847 296.0
235.208176 100.0
235.229553 88.0
235.250916 96.0
235.314163 140.0
235.424957 100.0
235.641846 152.0
235.697739 136.0
235.803802 136.0
235.94136 152.0
236.050568 1336.0
236.124847 132.0
236.146255 148.0
236.327148 120.0
236.464462 80.0
236.525681 160.0
236.795135 92.0
236.908478 152.0
237.058456 1556.0
237.227188 96.0
237.26091 40.0
237.355972 156.0
237.446671 76.0
237.512375 172.0
237.63063 132.0
237.902115 168.0
238.066055 944.0
238.166199 140.0
238.319809 116.0
238.390488 212.0
238.455032 144.0
238.528809 116.0
238.574921 80.0
238.654861 112.0
238.679459 100.0
238.771713 132.0
238.817856 180.0
239.065918 512.0
239.21788 136.0
239.254837 84.0
239.467316 144.0
239.531998 112.0
239.593613 148.0
239.667557 104.0
239.763092 128.0
239.917206 160.0
240.059052 180.0
240.181519 204.0
240.382278 236.0
240.475555 144.0
240.524948 356.0
240.602127 168.0
240.688568 180.0
240.762695 204.0
240.876968 140.0
240.929489 196.0
240.995087 308.0
241.056183 216.0
241.077805 144.0
241.451904 116.0
241.566345 168.0
241.678024 168.0
241.739609 172.0
241.798416 164.0
242.006149 3860.0
242.056641 224.0
242.080551 92.0
242.238113 124.0
242.312469 140.0
242.358948 56.0
242.430222 68.0
242.498398 176.0
242.665802 96.0
242.69371 196.0
242.751144 136.0
242.870483 104.0
242.932526 112.0
242.96666 180.0
243.024109 2248.0
243.143524 176.0
243.21492 172.0
243.245956 128.0
243.343277 164.0
243.467087 92.0
243.509903 92.0
243.531647 132.0
243.666321 180.0
243.749115 200.0
243.836136 180.0
243.910736 132.0
243.951141 44.0
244.02388 2108.0
244.06308 228.0
244.117599 184.0
244.203018 188.0
244.315002 144.0
244.383453 64.0
244.414581 84.0
244.539062 96.0
244.610657 80.0
244.704056 64.0
244.993942 288.0
245.032211 1884.0
245.134949 208.0
245.302231 108.0
245.352097 224.0
245.488144 140.0
245.645248 44.0
245.676453 116.0
245.766937 120.0
245.827652 96.0
245.857651 116.0
245.913605 180.0
246.002762 4668.0
246.126129 240.0
246.178986 128.0
246.335159 32.0
246.480072 116.0
246.610138 40.0
246.763321 104.0
246.809174 228.0
246.863388 168.0
247.007599 1864.0
247.13063 148.0
247.26384 88.0
247.298279 280.0
247.32019 152.0
247.442276 112.0
247.620773 60.0
248.003555 856.0
248.050049 320.0
248.111343 196.0
248.14296 160.0
248.244446 176.0
248.329132 60.0
248.369904 148.0
248.429504 68.0
248.55188 48.0
248.995605 296.0
249.022797 120.0
249.0569 172.0
249.113892 132.0
249.145309 76.0
249.32756 72.0
249.402054 108.0
249.41507 76.0
249.489212 168.0
249.547607 60.0
249.657669 252.0
249.877853 64.0
250.00058 136.0
250.064606 260.0
250.117035 116.0
250.479172 76.0
250.564224 208.0
250.721786 116.0
250.85733 176.0
250.885696 44.0
251.021286 152.0
251.072647 532.0
251.220505 264.0
251.409317 52.0
251.750275 164.0
251.827942 164.0
252.076523 252.0
252.265305 72.0
252.420227 136.0
252.654297 92.0
252.711243 204.0
252.923279 188.0
253.059692 140.0
253.094254 160.0
253.181824 140.0
253.3508 112.0
253.417328 124.0
253.613815 132.0
253.908691 88.0
254.010971 124.0
254.065033 168.0
254.118057 132.0
254.156143 148.0
254.422745 132.0
254.502121 164.0
254.648209 112.0
254.711746 140.0
254.873779 144.0
255.015732 372.0
255.04776 116.0
255.131226 72.0
255.433334 132.0
255.49379 136.0
255.531967 160.0
255.926651 156.0
255.983963 184.0
256.022736 312.0
256.079529 124.0
256.305695 120.0
256.426819 136.0
256.921082 80.0
256.952972 156.0
257.03186 608.0
257.109344 224.0
257.135834 304.0
257.1604 176.0
257.185944 108.0
257.343628 152.0
257.431793 140.0
257.463715 224.0
257.604279 124.0
257.690521 60.0
257.741638 88.0
257.872986 164.0
257.942993 48.0
258.039215 3544.0
258.127777 192.0
258.166809 84.0
258.2052 128.0
258.291565 44.0
258.323547 200.0
258.364746 188.0
258.394623 132.0
258.438019 160.0
258.467529 40.0
258.57431 184.0
258.608337 56.0
258.646759 56.0
258.71701 68.0
258.765198 136.0
258.803619 140.0
258.839417 360.0
258.889343 188.0
258.894196 144.0
258.916779 388.0
258.94577 240.0
259.010803 67600.0
259.128632 500.0
259.199249 120.0
259.20874 64.0
259.233795 348.0
259.266754 56.0
259.293091 120.0
259.344391 76.0
259.41394 188.0
259.451416 92.0
259.498138 84.0
259.53891 240.0
259.607971 76.0
259.63385 60.0
259.659271 76.0
259.708801 64.0
259.749084 84.0
259.780121 148.0
259.817261 48.0
259.841431 148.0
259.853973 152.0
259.863342 196.0
259.893463 88.0
259.940338 92.0
259.967285 52.0
260.014587 13360.0
260.137115 232.0
260.18515 128.0
260.236908 156.0
260.272247 32.0
260.341003 144.0
260.384369 152.0
260.466553 64.0
260.505493 96.0
260.56955 60.0
260.623688 68.0
260.680206 88.0
260.715546 36.0
260.760559 132.0
260.82901 136.0
260.866638 156.0
260.905212 48.0
261.014191 4956.0
261.129974 80.0
261.20108 44.0
261.259521 148.0
261.293793 112.0
261.323334 96.0
261.43924 104.0
261.482544 76.0
261.590454 60.0
261.631226 80.0
261.646027 124.0
261.709564 168.0
261.751434 48.0
261.786865 144.0
261.815857 60.0
261.854492 108.0
261.882294 76.0
261.914337 188.0
261.957581 72.0
262.02121 992.0
262.061249 176.0
262.0961 172.0
262.129486 112.0
262.183136 132.0
262.228241 120.0
262.399109 100.0
262.466797 104.0
262.492615 44.0
262.573242 36.0
262.704712 68.0
262.799042 144.0
262.834534 64.0
262.870056 112.0
262.931366 164.0
262.962341 80.0
263.018494 480.0
263.077911 340.0
263.176697 60.0
263.20575 76.0
263.257446 60.0
263.283264 128.0
263.351105 48.0
263.404144 152.0
263.444763 112.0
263.480316 76.0
263.535248 144.0
263.561096 128.0
263.590179 128.0
263.623291 64.0
263.662537 132.0
263.743378 100.0
263.777618 128.0
263.877869 60.0
263.903717 200.0
263.936066 144.0
263.958679 80.0
264.044067 260.0
264.054108 104.0
264.071655 116.0
264.078033 180.0
264.168915 52.0
264.599945 244.0
264.695129 196.0
264.910278 64.0
264.973602 160.0
265.089233 244.0
265.13385 156.0
265.182465 44.0
265.286194 56.0
265.319916 60.0
265.513184 196.0
265.662384 72.0
265.69809 172.0
265.792175 44.0
265.967438 60.0
266.029114 80.0
266.054626 148.0
266.094421 272.0
266.337616 64.0
266.483795 168.0
266.535797 100.0
266.574768 144.0
266.734039 84.0
266.808807 164.0
266.85434 56.0
266.98114 104.0
267.018738 312.0
267.072235 152.0
267.557098 144.0
267.65152 120.0
267.954468 56.0
268.0224 2168.0
268.061981 120.0
268.355347 48.0
268.449921 36.0
268.524933 132.0
268.64563 136.0
268.828339 176.0
268.92627 140.0
268.985016 168.0
269.028564 612.0
269.455292 220.0
269.8573 120.0
270.036774 800.0
270.082977 280.0
270.164764 28.0
270.220367 52.0
270.243286 168.0
270.361084 200.0
270.546021 128.0
270.629517 36.0
270.704834 136.0
270.86203 104.0
271.029083 496.0
271.150391 160.0
271.373291 136.0
271.593018 84.0
271.934265 96.0
272.016327 128.0
272.059021 208.0
272.147675 172.0
272.180511 68.0
272.262604 48.0
272.433411 116.0
272.502411 60.0
272.647003 112.0
272.676575 144.0
272.852783 160.0
273.042877 116.0
273.150726 60.0
273.20929 116.0
273.337616 116.0
273.62854 92.0
273.663483 160.0
273.755676 268.0
273.798492 180.0
273.824829 72.0
273.910492 124.0
273.96701 124.0
274.033997 21920.0
274.128235 64.0
274.155212 68.0
274.236694 32.0
274.292755 196.0
274.431213 64.0
274.458466 76.0
274.493164 56.0
274.543335 144.0
274.629089 44.0
274.82843 56.0
274.891418 156.0
274.960358 60.0
275.036743 4136.0
275.132629 108.0
275.145111 32.0
275.152039 120.0
275.19342 40.0
275.219818 140.0
275.269348 68.0
275.322205 176.0
275.381653 116.0
275.50058 64.0
275.755432 92.0
275.804596 192.0
275.864105 204.0
275.940125 76.0
276.030548 1944.0
276.184845 60.0
276.399902 96.0
276.440948 168.0
276.717133 216.0
276.808716 120.0
276.863373 140.0
276.899323 84.0
276.936249 104.0
277.031342 596.0
277.064545 60.0
277.090729 344.0
277.459839 44.0
277.546021 48.0
277.599091 92.0
277.83429 84.0
277.920868 88.0
278.010468 116.0
278.090515 540.0
278.186371 116.0
278.256104 132.0
278.28598 176.0
278.390961 100.0
278.52179 96.0
278.701172 300.0
278.734406 92.0
278.850739 100.0
279.10849 480.0
279.429352 52.0
279.452637 132.0
279.583862 84.0
280.020782 120.0
280.094818 180.0
280.1492 112.0
280.331757 80.0
281.027802 152.0
281.096313 168.0
281.116364 208.0
281.238922 44.0
281.385834 36.0
281.573425 200.0
281.683502 120.0
281.763245 204.0
282.039642 272.0
282.090759 292.0
282.358246 48.0
282.464111 204.0
282.669373 172.0
282.779816 168.0
282.830017 164.0
283.041321 328.0
283.744598 116.0
284.014801 412.0
284.053772 2156.0
284.103455 160.0
284.526337 148.0
284.878967 108.0
284.919281 116.0
285.028625 124.0
285.055878 412.0
285.124268 104.0
285.399902 84.0
285.554626 104.0
285.907867 212.0
286.034637 428.0
286.096375 180.0
286.423035 140.0
286.813934 108.0
287.04657 116.0
287.07016 104.0
287.296143 96.0
287.454742 132.0
287.859833 52.0
288.0625 108.0
288.282104 76.0
288.318085 192.0
288.643829 92.0
288.684418 112.0
289.01593 176.0
289.080231 164.0
289.164825 112.0
290.097931 300.0
290.191284 48.0
290.252319 72.0
290.560974 76.0
290.822296 72.0
290.907166 192.0
291.105743 636.0
291.175415 128.0
291.202576 160.0
291.226349 180.0
291.484558 52.0
291.508331 64.0
291.895874 120.0
292.11377 312.0
292.18161 84.0
292.219025 56.0
293.077087 144.0
293.119934 504.0
293.163666 136.0
293.250885 52.0
293.622528 64.0
294.034058 676.0
294.119995 192.0
294.253815 80.0
294.281128 108.0
295.044952 152.0
295.097748 172.0
295.122772 164.0
296.023773 168.0
296.053192 320.0
296.107269 148.0
296.381348 68.0
297.025909 116.0
297.063049 164.0
297.125397 44.0
297.293518 72.0
297.860046 96.0
298.024963 140.0
298.286163 128.0
298.585297 44.0
298.757294 40.0
298.802032 124.0
299.056671 168.0
299.218475 96.0
299.79718 88.0
300.031586 192.0
300.057037 100.0
300.186737 140.0
300.559296 184.0
300.683533 136.0
300.707703 116.0
300.773285 160.0
301.232544 52.0
301.598846 188.0
301.778625 128.0
301.896179 32.0
301.937683 80.0
302.055298 184.0
302.117554 96.0
302.373627 104.0
303.087036 196.0
303.617432 276.0
304.54306 204.0
304.606659 100.0
305.109528 196.0
305.385315 144.0
305.461823 80.0
305.795868 68.0
306.123535 716.0
306.555115 140.0
306.684082 172.0
306.868835 144.0
307.043213 116.0
307.125885 176.0
307.242035 124.0
307.276917 120.0
308.054993 144.0
308.10083 224.0
308.520264 128.0
308.971436 48.0
309.058899 156.0
309.111389 148.0
309.173401 184.0
310.037811 148.0
310.150421 180.0
310.193665 92.0
310.786377 248.0
311.067261 140.0
311.418304 188.0
311.818848 144.0
311.931335 224.0
312.036804 112.0
312.077087 208.0
312.240753 48.0
312.557373 140.0
312.684082 52.0
312.803741 148.0
312.842468 88.0
313.060791 100.0
313.096008 120.0
313.310883 96.0
313.511719 100.0
313.784637 124.0
314.153473 240.0
314.396942 208.0
315.071381 128.0
315.371735 160.0
315.552032 108.0
316.649048 100.0
316.854523 100.0
317.318817 108.0
317.868622 196.0
318.003479 68.0
318.109985 152.0
318.703094 96.0
318.90921 180.0
319.480988 184.0
319.709473 124.0
319.955078 148.0
320.142212 168.0
320.254211 152.0
320.41095 184.0
320.435913 72.0
320.767334 92.0
321.140076 1044.0
321.844818 72.0
322.069275 288.0
322.142548 232.0
322.452118 180.0
322.538483 208.0
323.074005 244.0
323.157501 584.0
323.392822 44.0
323.467987 152.0
324.085968 268.0
324.1586 636.0
324.42807 84.0
324.582245 188.0
325.084869 200.0
325.11319 172.0
325.172089 124.0
325.450623 92.0
325.658936 140.0
326.064941 364.0
326.164368 108.0
326.499969 136.0
326.546722 60.0
326.755371 132.0
326.794952 84.0
326.964081 136.0
327.116577 352.0
327.360077 160.0
327.543793 164.0
327.73053 172.0
327.745331 144.0
328.113495 124.0
329.11264 164.0
329.242645 108.0
329.311249 168.0
330.109985 80.0
330.435547 148.0
330.612854 104.0
330.978485 48.0
331.134186 136.0
331.181274 152.0
331.347931 140.0
331.434875 120.0
331.608856 120.0
331.652344 188.0
331.706726 124.0
332.149109 176.0
332.319641 136.0
333.867126 172.0
334.019897 40.0
334.321899 120.0
334.587616 132.0
334.631317 152.0
335.155823 88.0
335.731812 76.0
336.13913 184.0
336.14563 120.0
336.169891 340.0
336.52002 176.0
336.633209 136.0
336.983887 108.0
337.151978 144.0
337.177551 124.0
337.312805 68.0
337.491943 108.0
337.546814 96.0
337.59433 108.0
338.055298 176.0
338.094757 476.0
338.179749 148.0
338.315186 64.0
339.107574 256.0
339.162628 432.0
339.242035 144.0
339.440033 232.0
339.465698 108.0
339.513397 36.0
339.623413 192.0
339.744476 136.0
340.123596 180.0
340.879059 208.0
341.084656 216.0
341.143707 136.0
341.217224 124.0
341.941925 108.0
341.989777 48.0
342.098022 116.0
342.538422 68.0
342.892151 20.0
343.09491 128.0
343.884338 160.0
344.031982 44.0
344.065216 64.0
344.094757 96.0
344.881622 72.0
344.911194 92.0
345.114532 80.0
346.086212 132.0
346.35434 104.0
346.419983 132.0
346.543274 40.0
346.799866 244.0
346.893494 116.0
347.13266 40.0
347.173462 128.0
347.897003 144.0
348.231232 104.0
348.357513 152.0
349.086029 132.0
349.517548 72.0
349.733398 88.0
350.448425 40.0
350.537872 136.0
350.608673 192.0
350.888245 104.0
350.966553 84.0
351.302216 128.0
351.4664 140.0
351.499969 124.0
352.115967 172.0
352.257904 80.0
352.766144 68.0
353.042847 164.0
353.083984 76.0
354.0271 148.0
354.122253 820.0
354.161926 180.0
354.873993 212.0
355.042725 96.0
355.125244 556.0
355.832123 144.0
355.891388 84.0
356.022278 160.0
356.138031 564.0
356.311523 48.0
356.909149 148.0
357.107544 496.0
357.191223 244.0
357.21756 108.0
357.319122 44.0
357.718048 136.0
358.109344 148.0
358.184998 168.0
359.114838 112.0
359.18396 104.0
359.255615 36.0
359.629211 208.0
359.659393 108.0
359.94635 152.0
360.108734 184.0
360.22583 160.0
360.599915 88.0
360.664185 132.0
361.102783 164.0
361.545471 144.0
361.727142 104.0
361.83316 108.0
362.007324 168.0
364.465485 140.0
365.187805 84.0
365.214417 108.0
365.347565 168.0
365.615417 156.0
365.682434 128.0
365.84613 152.0
365.903229 92.0
366.253601 220.0
366.489807 140.0
366.592682 56.0
366.656891 128.0
366.764191 164.0
367.134033 180.0
368.175934 132.0
368.271423 136.0
368.32489 100.0
368.492981 176.0
368.607635 112.0
369.039551 36.0
369.147552 464.0
369.311096 108.0
369.456451 184.0
369.521484 116.0
369.567413 168.0
369.643951 104.0
369.970581 156.0
370.045868 140.0
370.072662 56.0
370.151581 2336.0
370.20285 164.0
370.239349 136.0
370.305298 124.0
370.357178 136.0
370.402039 80.0
370.512024 152.0
370.628082 104.0
370.735382 132.0
370.922241 96.0
371.054535 76.0
371.151184 824.0
371.201416 208.0
371.240906 148.0
371.400146 208.0
371.444702 112.0
371.504608 332.0
371.544464 64.0
371.59433 116.0
371.669891 144.0
371.685181 100.0
371.772888 68.0
371.815674 240.0
371.884338 216.0
371.922302 148.0
371.947601 80.0
371.97406 152.0
372.013367 196.0
372.131012 69908.0
372.220398 212.0
372.250732 28.0
372.298462 84.0
372.31897 124.0
372.331696 100.0
372.407135 44.0
372.442383 40.0
372.463623 120.0
372.509277 120.0
372.545258 60.0
372.588745 80.0
372.634186 128.0
372.662628 100.0
372.705963 100.0
372.732574 64.0
372.774719 328.0
372.804199 32.0
372.840759 68.0
372.875732 180.0
372.934814 300.0
372.971283 192.0
373.012817 132.0
373.058533 112.0
373.133087 12380.0
373.273315 132.0
373.316772 128.0
373.400391 192.0
373.522827 124.0
373.572083 144.0
373.603699 76.0
373.668396 88.0
373.696655 88.0
373.744446 96.0
373.773499 112.0
373.807648 136.0
373.842255 140.0
373.901093 128.0
373.917603 84.0
373.95752 72.0
373.983551 68.0
374.076721 184.0
374.129181 5588.0
374.269562 96.0
374.30423 92.0
374.401001 120.0
374.442688 84.0
374.451813 188.0
374.481384 36.0
374.619171 52.0
374.670135 24.0
374.706268 52.0
374.744385 60.0
374.789581 36.0
374.866638 56.0
374.974548 148.0
375.013489 80.0
375.052582 100.0
375.131012 984.0
375.199158 136.0
375.304901 44.0
375.370605 128.0
375.409058 172.0
375.494141 84.0
375.5224 260.0
375.565704 156.0
375.660919 108.0
375.691803 136.0
375.736389 128.0
375.828674 84.0
375.873138 68.0
375.947906 64.0
375.985687 120.0
376.010986 72.0
376.075745 104.0
376.138458 200.0
376.188354 84.0
376.346558 148.0
376.38269 120.0
376.456055 64.0
376.579651 124.0
376.589569 56.0
376.604523 100.0
376.645294 116.0
376.869385 68.0
377.043274 40.0
377.070343 136.0
377.688995 84.0
377.828247 200.0
377.866943 40.0
378.021729 44.0
378.118469 76.0
378.350739 52.0
378.408813 88.0
378.46582 72.0
378.513367 76.0
378.598572 48.0
378.676025 112.0
378.730255 32.0
379.075073 48.0
379.489838 72.0
379.532501 52.0
379.610046 80.0
380.331696 48.0
380.879211 48.0
380.906403 160.0
381.139526 120.0
381.415466 116.0
383.677277 88.0
383.704559 192.0
384.359833 64.0
384.430084 112.0
384.910248 92.0
385.058655 76.0
385.13678 240.0
385.19928 68.0
385.457153 144.0
385.484497 132.0
385.76593 108.0
385.828461 120.0
386.013916 56.0
386.08075 140.0
386.116608 228.0
386.235168 128.0
386.379913 68.0
386.462097 56.0
386.524689 100.0
386.675385 124.0
386.812775 264.0
386.857391 64.0
386.884796 108.0
386.986389 304.0
387.016724 196.0
387.087311 144.0
387.153931 32140.0
387.383636 84.0
387.433075 48.0
387.480103 88.0
387.509949 84.0
387.593018 152.0
387.674072 72.0
387.697479 160.0
387.766174 92.0
387.823486 80.0
387.857635 48.0
387.907288 104.0
387.973938 76.0
388.031433 72.0
388.156769 6264.0
388.220947 40.0
388.259338 76.0
388.273254 60.0
388.28125 96.0
388.354309 116.0
388.443085 120.0
388.483765 72.0
388.596741 40.0
388.642548 84.0
388.735504 76.0
388.799011 116.0
388.844757 84.0
388.87616 56.0
388.922394 108.0
389.00177 64.0
389.029266 80.0
389.150787 3036.0
389.250397 488.0
389.280762 68.0
389.331604 64.0
389.382172 64.0
389.488708 48.0
389.579071 40.0
389.619385 92.0
389.716583 44.0
389.749817 52.0
389.934998 84.0
389.975952 52.0
390.030975 52.0
390.101624 136.0
390.154114 504.0
390.244781 180.0
390.300751 84.0
390.38089 36.0
390.452606 56.0
390.522491 136.0
390.596222 124.0
390.632629 144.0
390.698425 144.0
390.750671 160.0
390.829346 28.0
390.874512 100.0
391.60321 168.0
391.711273 112.0
392.034363 60.0
392.353638 80.0
392.408844 72.0
392.467987 176.0
392.586273 96.0
392.696716 80.0
393.742645 40.0
393.861145 52.0
393.904602 56.0
394.102142 140.0
394.402496 68.0
394.699005 52.0
397.329041 48.0
398.548004 44.0
399.064728 48.0
399.283447 80.0
399.518127 72.0
400.326141 44.0
401.641418 56.0
401.960602 72.0
403.362488 76.0
403.390472 92.0
404.158386 80.0
404.274445 96.0
404.33847 52.0
404.646729 120.0
405.632263 112.0
406.867889 72.0
407.715454 64.0
408.382874 136.0
408.809357 100.0
409.058899 88.0
409.606567 44.0
409.775757 72.0
413.474762 64.0
415.659119 104.0
416.532043 140.0
417.812622 52.0
418.62265 88.0
419.441589 32.0
420.061432 88.0
421.65799 48.0
422.844086 84.0
423.445953 56.0
424.630463 76.0
426.276764 52.0
427.263611 144.0
428.548218 72.0
432.132172 104.0
433.67746 144.0
438.023376 44.0
439.858185 80.0
440.806274 52.0
442.211517 104.0
444.063477 20.0
444.835571 128.0
445.885681 144.0
449.292328 68.0
450.761719 68.0
451.171692 152.0
451.869568 88.0
454.31839 68.0
455.124817 48.0
456.595215 68.0
459.534546 28.0
459.63269 128.0
460.700104 108.0
466.528595 132.0
471.368958 52.0
471.654205 164.0
472.168762 84.0
477.129547 40.0
480.897675 40.0
481.05484 68.0
485.649536 84.0
486.509644 140.0
487.330963 112.0
487.55069 60.0
497.71579 52.0
502.853302 48.0
506.582611 52.0
509.63797 68.0
510.11438 68.0
512.067261 80.0
512.986511 112.0
514.281128 96.0
517.273621 36.0
520.383728 84.0
524.874817 64.0
525.61377 96.0
526.855713 68.0
526.947083 64.0
527.184692 88.0
527.385803 64.0
532.131897 112.0
536.802429 132.0
538.468506 64.0
539.461975 96.0
540.33606 80.0
546.600159 56.0
546.902649 96.0
548.523682 40.0
549.974426 56.0
551.927307 92.0
552.048889 120.0
558.37561 64.0
562.144592 112.0
562.399414 120.0
567.267029 52.0
568.158569 100.0
569.582764 92.0
570.105408 116.0
570.157715 60.0
572.512695 56.0
573.341675 36.0
578.318481 40.0
578.715881 108.0
579.261841 92.0
580.052551 92.0
582.605591 72.0
582.836243 76.0
592.374817 28.0
594.775208 88.0
595.935974 80.0
598.971741 64.0
601.663757 48.0
602.366943 60.0
603.745361 80.0
603.867615 116.0
604.454712 80.0
604.958862 48.0
605.125305 112.0
614.404663 40.0
615.485596 64.0
616.458801 108.0
618.313354 52.0
620.507874 68.0
620.750854 60.0
621.981262 80.0
628.27655 68.0
630.263733 32.0
630.823486 60.0
632.899841 124.0
638.550659 84.0
638.691528 68.0
648.076904 52.0
654.242859 72.0
654.370117 36.0
654.823364 144.0
657.290833 80.0
658.245422 232.0
668.220398 92.0
668.436523 108.0
668.76593 112.0
673.256714 84.0
676.524597 112.0
676.809387 84.0
679.7901 100.0
683.921997 40.0
686.832397 84.0
691.511414 68.0
692.438171 184.0
694.975464 88.0
700.638123 64.0
703.612732 116.0
704.589783 116.0
709.310425 56.0
710.705261 72.0
711.538574 20.0
713.164124 52.0
714.961853 44.0
715.334473 208.0
721.432129 88.0
725.039917 128.0
727.899292 88.0
727.969116 148.0
729.946716 72.0
732.708008 124.0
733.300781 44.0
737.186646 104.0
739.912842 44.0
741.136963 172.0
741.651855 52.0
742.329529 56.0
742.926208 36.0
743.208313 96.0
744.668701 40.0
746.190308 52.0
749.368896 128.0
752.095703 216.0
757.498413 104.0
757.553223 156.0
761.057861 196.0
761.189636 188.0
761.629028 76.0
761.793823 52.0
761.958679 92.0
767.330444 184.0
770.802368 100.0
770.90741 80.0
771.27771 172.0
773.772705 144.0
775.168579 116.0
776.427002 44.0
778.274963 108.0
779.686035 192.0
783.781921 180.0
784.534363 128.0
790.421387 72.0
790.471802 84.0
791.680969 176.0
796.302429 192.0
798.050171 200.0
798.370667 100.0
801.08374 116.0
802.537842 288.0
803.524902 60.0
804.879578 156.0
805.082886 196.0
805.195801 136.0
806.427551 168.0
808.565491 136.0
809.233521 196.0
809.726196 84.0
810.083008 136.0
810.791321 28.0
811.726746 208.0
812.384705 44.0
815.95697 160.0
816.624695 96.0
817.322083 72.0
818.318176 132.0
818.859192 236.0
819.041443 164.0
822.474243 240.0
826.108643 120.0
827.310486 188.0
829.046082 148.0
829.114807 176.0
829.441528 84.0
830.37616 80.0
831.552368 192.0
831.78772 156.0
833.263672 52.0
836.507324 220.0
836.898804 92.0
837.180969 176.0
841.401917 232.0
843.013489 152.0
844.562988 132.0
845.471375 44.0
846.051086 136.0
846.57135 212.0
847.411316 136.0
847.741638 144.0
849.388245 148.0
851.756653 104.0
852.994446 80.0
853.133911 208.0
854.203979 168.0
854.343628 76.0
854.465759 144.0
857.721252 144.0
858.560852 212.0
862.735901 76.0
862.776794 128.0
865.245728 64.0
865.48584 92.0
865.643921 76.0
865.983643 172.0
867.430969 148.0
871.791992 228.0
873.273621 192.0
874.067871 212.0
875.769287 148.0
876.169922 160.0
877.448853 108.0
878.215881 188.0
878.687439 96.0
878.746399 216.0
878.941162 144.0
879.053284 132.0
879.366089 152.0
880.233948 196.0
880.71228 60.0
880.936768 184.0
881.208557 144.0
881.403564 160.0
882.27832 188.0
882.520752 180.0
882.562134 208.0
883.419739 160.0
884.769104 104.0
885.521118 180.0
887.518311 108.0
887.654663 36.0
887.761414 84.0
888.212219 56.0
889.066589 96.0
890.984619 200.0
892.309998 72.0
893.440002 212.0
894.695801 92.0
895.440125 164.0
895.577148 140.0
896.065613 60.0
896.196716 144.0
897.716797 72.0
897.937439 152.0
899.04718 244.0
900.073975 148.0
900.928101 148.0
901.244751 132.0
901.561462 100.0
902.117371 28.0
903.044189 164.0
904.055359 152.0
904.528198 180.0
904.612 156.0
904.971191 148.0
905.456299 208.0
905.63739 200.0
905.857605 116.0
906.594604 164.0
909.209473 168.0
909.341492 228.0
909.869751 152.0
909.911804 276.0
910.42218 152.0
911.016846 184.0
911.233154 160.0
912.212769 208.0
912.934265 132.0
917.709595 160.0
918.17395 160.0
918.288513 148.0
918.433289 52.0
919.06073 176.0
919.694397 212.0
919.990234 172.0
920.231689 176.0
920.394714 148.0
920.962463 156.0
921.125549 164.0
921.627014 128.0
921.904968 140.0
922.551758 68.0
923.283386 152.0
923.380188 208.0
924.208984 212.0
924.438904 84.0
925.116821 156.0
925.988831 144.0
926.73999 140.0
927.091492 208.0
928.115967 148.0
928.382812 108.0
928.588989 112.0
929.213806 156.0
929.808533 192.0
930.130249 128.0
930.397339 228.0
931.004578 160.0
931.065308 124.0
931.709167 132.0
932.876038 224.0
933.149597 200.0
933.453674 152.0
933.569214 136.0
934.025391 88.0
934.280884 224.0
934.335632 76.0
935.199768 212.0
935.437195 72.0
935.82074 176.0
935.899902 68.0
936.015564 192.0
936.149536 164.0
936.265259 108.0
936.350525 164.0
936.715271 168.0
936.971863 216.0
937.812866 68.0
937.92865 96.0
937.983521 64.0
938.715149 96.0
939.07782 156.0
939.197021 304.0
939.941345 168.0
940.47229 204.0
941.131653 136.0
941.272095 188.0
941.711792 72.0
942.322693 180.0
942.554932 120.0
943.710205 140.0
944.272827 212.0
944.333984 140.0
944.688782 144.0
944.989014 168.0
945.83313 184.0
946.580078 156.0
946.812805 256.0
946.855652 160.0
947.725586 120.0
947.995178 168.0
948.160645 160.0
948.473267 116.0
949.392944 148.0
949.546265 120.0
949.908203 176.0
949.957275 60.0
950.405151 156.0
950.44812 112.0
950.650452 148.0
950.834717 144.0
951.393311 196.0
951.626648 204.0
952.093323 160.0
953.199158 196.0
953.42041 188.0
953.881409 184.0
953.985901 68.0
954.164185 172.0
954.889832 164.0
955.474182 188.0
955.769531 156.0
956.372681 160.0
956.421936 180.0
957.185364 108.0
958.386536 76.0
958.996643 184.0
959.446655 88.0
959.724121 200.0
960.464233 148.0
960.741821 176.0
960.791199 184.0
961.500793 40.0
961.593384 172.0
961.821777 136.0
962.445312 40.0
962.883789 168.0
963.359436 128.0
963.526245 120.0
963.612732 48.0
963.798096 172.0
964.3172 180.0
964.638672 176.0
965.089966 160.0
965.170349 164.0
965.45105 168.0
965.597107 244.0
967.521606 160.0
967.564941 116.0
967.750671 164.0
968.723022 168.0
969.206299 120.0
969.466553 168.0
970.042175 200.0
970.204224 160.0
970.458435 184.0
971.078552 180.0
971.221252 112.0
971.30188 248.0
971.376282 132.0
971.742371 188.0
971.99054 176.0
972.201538 160.0
972.598755 192.0
972.760193 68.0
975.014954 212.0
975.5495 104.0
977.060791 196.0
977.185181 124.0
977.807495 136.0
977.863525 172.0
978.461121 60.0
978.918762 176.0
979.706726 180.0
980.093018 152.0
980.510559 156.0
981.040405 152.0
981.82605 188.0
982.187866 156.0
983.076355 176.0
984.13501 100.0
984.24115 248.0
984.37854 192.0
984.466003 92.0
984.740784 64.0
985.034363 160.0
985.746643 176.0
986.159119 200.0
987.046936 160.0
988.078979 196.0
988.61084 220.0
989.18042 176.0
990.194824 184.0
990.432861 52.0
990.614502 172.0
991.692322 208.0
992.156189 140.0
992.588867 176.0
993.159546 252.0
993.228577 176.0
993.354004 68.0
993.994019 268.0
994.508667 172.0
994.897827 136.0
994.973206 76.0
995.111328 224.0
995.902588 164.0
997.171814 176.0
998.25946 196.0
998.397827 204.0
998.573975 132.0
999.59314 140.0
1000.121826 156.0
1000.373596 116.0
1001.091431 204.0
1001.324463 212.0
1001.407166 148.0
1001.449585 156.0
1001.610779 96.0
1001.948059 184.0
1002.326111 168.0
1002.666443 156.0
1002.830322 124.0
1003.242432 204.0
1003.378784 128.0
1004.185913 192.0
1004.362549 140.0
1004.561279 164.0
1004.621216 156.0
1005.211914 180.0
1005.302673 180.0
1005.637146 204.0
1005.700256 172.0
1005.978027 100.0
1006.18634 160.0
1006.937805 160.0
1007.114685 200.0
1008.91571 200.0
1009.288757 80.0
1009.370972 120.0
1009.497437 160.0
1009.984436 100.0
1010.09198 92.0
1010.465271 144.0
1010.534851 188.0
1010.712036 192.0
1010.870239 72.0
1011.503174 100.0
1011.965332 92.0
1012.440247 176.0
1013.49884 116.0
1013.580566 208.0
1013.840393 232.0
1014.12561 160.0
1014.620056 124.0
1014.753174 184.0
1016.370667 164.0
1016.910095 132.0
1017.011658 152.0
1017.132263 148.0
1017.252869 200.0
1017.309998 172.0
1017.760803 156.0
1017.963989 44.0
1018.700806 136.0
1019.247192 48.0
1019.774719 188.0
1020.035339 144.0
1020.187866 132.0
1020.632935 216.0
1020.969971 136.0
1021.192627 156.0
1021.434326 76.0
1022.083252 60.0
1022.535095 228.0
1023.190796 172.0
1023.419983 168.0
1023.490051 168.0
1023.541016 88.0
1023.604675 156.0
1023.744751 112.0
1025.033325 252.0
1025.490479 88.0
1025.828369 208.0
1026.242798 192.0
1026.701904 88.0
1027.110107 156.0
1028.418213 124.0
1029.312012 160.0
1029.616821 200.0
1030.212646 136.0
1030.282837 188.0
1030.397949 164.0
1030.58313 144.0
1031.075195 144.0
1031.567383 160.0
1031.874268 200.0
1032.104492 172.0
1032.219849 172.0
1032.520142 228.0
1032.980713 168.0
1033.089478 136.0
1033.175537 108.0
1033.319824 188.0
1033.482178 176.0
1033.703735 188.0
1033.786865 152.0
1033.998169 196.0
1034.224731 256.0
1034.779053 260.0
1035.656494 184.0
1035.701294 180.0
1035.951172 124.0
1036.053589 208.0
1036.964355 160.0
1037.123779 208.0
1037.617432 160.0
1038.200928 136.0
1038.495972 164.0
1038.842407 144.0
1039.285156 104.0
1039.490479 168.0
1039.779297 128.0
1039.991089 244.0
1040.414795 184.0
1040.581665 200.0
1040.774292 92.0
1041.02478 76.0
1042.123169 168.0
1042.720825 144.0
1042.990845 272.0
1044.148193 152.0
1044.74646 112.0
1045.119385 136.0
1045.505737 252.0
1045.685913 240.0
1045.930542 172.0
1046.162231 184.0
1046.458374 180.0
1046.715942 156.0
1046.767456 108.0
1047.340698 188.0
1047.488892 236.0
1048.152466 172.0
1048.281372 156.0
1048.474731 116.0
1048.519897 200.0
1048.842163 152.0
1049.396606 184.0
1049.701538 200.0
1050.589722 220.0
1050.72522 188.0
1050.834961 116.0
1051.093018 128.0
1051.254395 168.0
1051.648071 152.0
1051.718994 40.0
1051.91272 48.0
1052.152954 136.0
1052.209717 196.0
1052.752075 216.0
1052.913574 244.0
1052.96521 152.0
1053.010376 160.0
1053.313965 156.0
1053.934204 160.0
1054.212158 128.0
1054.554688 208.0
1054.932251 168.0
1055.097656 184.0
1055.298096 116.0
1055.343384 44.0
1055.582642 52.0
1055.918945 116.0
1057.406982 152.0
1057.452393 80.0
1057.737183 184.0
1058.229126 36.0
1058.449341 216.0
1058.721313 148.0
1058.84436 44.0
1058.922119 192.0
1059.245972 116.0
1059.97168 188.0
1060.386475 144.0
1060.515991 88.0
1060.587402 152.0
1060.956909 176.0
1061.112427 136.0
1061.229126 136.0
1062.143677 252.0
1062.286377 128.0
1062.416138 200.0
1062.695068 176.0
1062.967651 152.0
1063.214233 192.0
1064.082275 144.0
1064.129517 128.0
1064.246338 176.0
1064.330811 76.0
1064.588379 208.0
1064.720459 184.0
1065.1427 140.0
1065.233643 112.0
1065.909302 104.0
1066.351196 148.0
1066.903809 172.0
1067.892212 120.0
1068.04834 116.0
1068.113403 212.0
1068.464722 180.0
1069.245605 148.0
1069.636108 264.0
1069.681641 92.0
1069.727295 168.0
1070.541138 132.0
1070.664917 148.0
1070.944946 148.0
1071.172974 192.0
1071.583374 184.0
1071.79834 124.0
1071.90271 196.0
1072.234985 204.0
1072.332764 232.0
1072.391479 192.0
1072.469727 200.0
1072.969482 180.0
1073.115112 200.0
1073.167236 228.0
1073.467163 200.0
1073.552002 176.0
1073.989014 176.0
1074.191162 148.0
1074.46521 112.0
1074.543457 260.0
1074.895874 164.0
1074.95459 76.0
1075.104736 116.0
1075.737793 68.0
1075.992432 116.0
1077.148438 156.0
1077.246338 304.0
1077.429321 164.0
1078.612183 176.0
1078.671021 244.0
1078.845703 164.0
1079.455566 156.0
1079.749878 144.0
1079.841431 180.0
1080.567627 220.0
1081.051758 160.0
1081.503418 160.0
1082.498535 156.0
1082.70166 160.0
1082.950439 168.0
1083.369751 112.0
1083.468018 116.0
1083.684204 104.0
1083.821777 96.0
1083.959473 176.0
1084.011841 208.0
1084.241211 140.0
1084.641113 164.0
1085.027832 112.0
1085.165527 124.0
1085.224609 176.0
1085.782227 180.0
1085.900024 140.0
1086.08374 160.0
1086.746338 212.0
1087.067871 172.0
1087.225342 168.0
1087.579712 172.0
1087.704468 36.0
1088.019653 132.0
1088.48584 180.0
1088.604004 144.0
1089.035767 216.0
1089.122925 148.0
1089.398804 208.0
1089.576172 188.0
1089.766724 68.0
1090.121582 224.0
1090.640747 136.0
1090.976074 152.0
1091.153564 96.0
1091.35083 116.0
1091.600708 80.0
1091.758545 128.0
1091.843994 168.0
1091.995239 156.0
1092.251831 140.0
1092.376831 116.0
1092.495239 164.0
1092.870239 140.0
1093.054443 140.0
1093.495483 136.0
1094.002319 152.0
1094.153687 180.0
1094.232666 176.0
1094.535645 148.0
1094.661377 268.0
1095.273315 204.0
1095.345703 176.0
1095.490601 164.0
1095.681641 232.0
1095.793701 208.0
1095.964966 220.0
1096.077026 152.0
1096.663574 208.0
1096.769043 140.0
1097.171143 180.0
1097.44812 144.0
1098.147217 136.0
1098.351685 48.0
1098.437378 132.0
1098.635254 140.0
1098.938843 140.0
1099.295166 68.0
1099.420532 172.0
1099.803345 68.0
1100.245605 112.0
1100.483398 172.0
1100.742554 132.0
1101.130493 184.0
1101.764648 88.0
1102.848389 160.0
1103.212036 164.0
1103.35083 128.0
1103.793823 128.0
1104.210449 212.0
1104.8125 128.0
1105.077148 144.0
1105.507202 60.0
1106.133911 204.0
1106.215454 184.0
1106.447144 168.0
1106.526611 172.0
1106.632568 112.0
1107.029907 192.0
1107.353638 184.0
1107.612793 112.0
1107.811523 156.0
1108.467407 160.0
1108.72229 168.0
1108.841431 160.0
1109.859497 164.0
1110.081055 228.0
1110.244141 192.0
1110.297119 176.0
1110.35022 256.0
1110.588989 180.0
1110.7052 156.0
1110.953857 192.0
1111.292236 144.0
1111.451538 160.0
1111.79541 120.0
1112.115112 136.0
1112.785645 160.0
1113.237183 224.0
1113.350098 212.0
1113.449707 232.0
1113.853027 180.0
1114.131226 132.0
1114.207031 188.0
1114.32666 88.0
1114.592407 124.0
1114.658813 200.0
1114.931274 132.0
1115.74231 164.0
1115.96167 184.0
1116.234375 188.0
1117.092285 212.0
1117.338501 132.0
1118.682861 140.0
1119.361938 148.0
1119.615112 184.0
1120.121216 136.0
1120.241211 220.0
1121.060791 124.0
1121.84729 140.0
1122.540649 140.0
1123.387573 200.0
1123.657104 64.0
1124.422119 140.0
1124.622314 44.0
1124.749146 200.0
1125.129639 144.0
1125.31665 124.0
1125.410034 176.0
1125.746582 156.0
1125.797363 96.0
1126.208252 144.0
1127.08667 116.0
1127.140137 120.0
1127.641357 148.0
1128.196167 208.0
1128.644165 140.0
1129.192627 172.0
1129.326294 196.0
1129.80127 172.0
1130.028809 188.0
1130.503906 136.0
1130.932251 164.0
1131.15979 132.0
1131.280273 156.0
1131.715576 244.0
1132.257935 92.0
1132.324951 144.0
1132.445557 56.0
1132.633057 164.0
1132.706787 116.0
1132.915771 160.0
1132.988159 208.0
1133.202515 164.0
1133.32312 148.0
1133.490601 124.0
1133.865967 200.0
1134.040161 196.0
1134.241333 120.0
1134.385376 144.0
1134.428955 208.0
1134.522827 68.0
1134.791016 36.0
1135.153076 124.0
1135.240356 148.0
1135.508545 100.0
1135.56897 132.0
1135.998291 240.0
1136.35791 176.0
1136.662476 220.0
1136.787231 168.0
1136.805176 228.0
1137.420898 136.0
1138.052002 196.0
1138.898193 176.0
1139.664062 140.0
1140.11438 112.0
1140.369751 48.0
1140.430176 240.0
1141.331055 160.0
1141.425293 148.0
1141.485718 36.0
1142.050659 208.0
1142.376709 96.0
1142.689819 176.0
1143.06665 52.0
1143.147339 176.0
1143.29541 172.0
1143.591553 216.0
1143.706055 204.0
1143.928101 136.0
1144.170532 92.0
1144.464478 172.0
1145.308594 36.0
1145.443359 164.0
1145.510742 188.0
1145.706665 176.0
1145.867798 152.0
1145.941895 40.0
1146.137329 168.0
1146.197998 128.0
1146.615723 196.0
1146.703369 160.0
1147.599976 144.0
1147.768555 140.0
1148.018066 44.0
1148.125977 160.0
1148.88147 140.0
1149.387573 216.0
1149.947632 168.0
1150.082642 140.0
1150.204224 176.0
1150.582275 140.0
1150.78479 176.0
1150.852295 144.0
1151.811279 104.0
1151.953247 132.0
1152.162598 168.0
1152.365356 152.0
1152.480225 76.0
1152.824829 220.0
1152.953247 52.0
1153.607178 400.0
1153.717041 148.0
1154.400391 184.0
1154.582642 172.0
1155.177856 180.0
1155.319946 52.0
1155.877441 128.0
1156.158936 232.0
1156.457764 164.0
1157.045776 132.0
1157.201416 68.0
1158.210571 104.0
1158.318848 152.0
1158.420532 108.0
1158.650879 160.0
1158.786377 144.0
1158.89917 144.0
1159.043823 120.0
1159.511475 64.0
1160.385986 140.0
1160.731812 140.0
1160.806396 124.0
1160.853882 48.0
1160.94873 208.0
1161.023315 100.0
1161.138672 160.0
1161.545654 104.0
1161.59314 140.0
1161.905151 208.0
1162.346191 128.0
1163.242188 188.0
1163.439087 180.0
1163.697021 156.0
1164.029785 244.0
1164.090942 172.0
1164.310303 236.0
1164.844849 48.0
1165.082642 104.0
1165.306763 184.0
1165.816406 220.0
1166.366943 128.0
1166.880249 244.0
1167.468506 152.0
1168.339111 160.0
1168.502441 128.0
1169.189697 256.0
1169.448364 156.0
1169.747925 164.0
1170.258423 172.0
1170.626221 168.0
1170.925903 192.0
1171.177856 220.0
1171.373047 152.0
1171.811401 160.0
1171.974976 132.0
1172.036255 172.0
1172.247559 124.0
1172.370239 176.0
1172.533813 180.0
1172.779175 140.0
1173.365479 148.0
1173.522217 136.0
1173.658691 164.0
1174.340576 100.0
1174.442871 164.0
1174.545288 216.0
1174.71582 196.0
1175.077393 140.0
1175.227539 124.0
1175.275269 80.0
1175.350342 152.0
1175.52771 124.0
1176.96814 200.0
1177.111572 124.0
1177.186768 148.0
1177.473511 172.0
1177.568726 160.0
1178.170288 204.0
1178.361572 188.0
1178.853516 176.0
1179.072266 116.0
1179.222534 152.0
1179.287964 76.0
1179.673706 228.0
1180.070312 112.0
1180.184814 260.0
1180.446411 84.0
1180.61731 180.0
1180.665161 176.0
1180.767822 220.0
1180.82251 232.0
1181.007202 196.0
1181.185059 128.0
1181.365234 128.0
1181.528442 188.0
1181.677612 144.0
1181.855591 72.0
1182.279785 200.0
1182.37561 176.0
1182.697266 384.0
1183.053345 140.0
1183.388794 144.0
1183.464111 148.0
1184.190063 176.0
1184.443481 164.0
1185.005737 168.0
1185.231323 192.0
1185.513184 136.0
1186.42395 220.0
1186.917603 132.0
1187.287964 208.0
1187.677734 156.0
1187.8573 128.0
1188.440674 196.0
1188.536499 208.0
1188.694336 204.0
1189.167847 152.0
1189.552246 96.0
1189.89563 196.0
1190.232056 148.0
1190.41748 76.0
1190.465454 36.0
1190.577881 120.0
1190.719604 224.0
1190.795166 140.0
1191.04248 136.0
1191.358398 196.0
1191.660767 180.0
1192.203613 168.0
1192.554199 176.0
1192.904663 212.0
1193.020752 236.0
1193.200317 136.0
1193.262207 156.0
1193.43689 180.0
1193.736694 168.0
1193.998047 200.0
1194.271362 204.0
1194.479492 180.0
1194.706543 72.0
1195.126221 68.0
1195.229492 144.0
1195.387695 180.0
1195.435913 204.0
1195.490967 128.0
1195.903931 156.0
1196.192993 192.0
1196.268799 172.0
1196.469482 128.0
1196.757568 152.0
1197.205078 204.0
1197.377319 96.0
1197.459961 132.0
1197.70105 188.0
1197.783813 228.0
1197.955933 192.0
1198.190186 200.0
1198.472656 152.0
1198.851685 152.0
1198.962036 180.0
1199.141235 204.0
1199.522949 180.0
1199.658203 144.0
1199.761597 156.0
1199.88269 216.0
1200.016724 160.0
1200.064941 140.0
1200.202881 92.0
1200.368408 124.0
1200.451172 156.0
1200.821899 136.0
1201.340942 120.0
1201.472046 132.0
1201.913574 176.0
1202.037842 68.0
1202.493286 172.0
1202.962646 112.0
1203.02478 136.0
1203.287109 140.0
1203.408936 196.0
1203.570312 72.0
1203.680786 168.0
1203.918701 180.0
1203.970825 168.0
1204.053711 108.0
1204.405884 144.0
1204.737549 44.0
1204.799683 164.0
1204.986206 140.0
1205.338623 132.0
1205.559814 156.0
1205.704956 84.0
1205.774048 120.0
1206.223267 108.0
1206.347778 172.0
1206.657715 236.0
1206.89917 168.0
1207.011475 92.0
1207.17749 200.0
1207.32959 188.0
1207.806885 188.0
1208.318848 152.0
1208.422607 32.0
1208.554077 152.0
1208.678589 184.0
1208.969238 132.0
1209.190552 172.0
1209.474487 76.0
1209.678711 144.0
1210.928589 124.0
1211.094849 156.0
1211.42041 224.0
1212.009399 148.0
1212.390015 264.0
1212.9104 196.0
1213.525757 152.0
1214.019653 288.0
1214.345703 180.0
1214.553711 180.0
1214.678589 108.0
1214.754883 228.0
1215.088013 196.0
1215.483521 52.0
1216.059448 148.0
1216.2052 188.0
1216.425659 216.0
1216.809204 184.0
1217.107788 136.0
1217.22583 152.0
1217.326904 208.0
1217.69812 328.0
1217.85791 88.0
1218.073242 196.0
1218.198242 212.0
1218.615112 68.0
1218.670654 148.0
1218.733276 164.0
1218.872192 172.0
1219.004272 152.0
1219.059814 172.0
1219.247437 164.0
1219.685303 304.0
1220.039917 72.0
1220.338867 164.0
1220.505737 164.0
1220.561401 168.0
1221.201172 164.0
1221.361206 48.0
1221.615356 196.0
1222.168213 156.0
1222.432861 128.0
1222.898926 136.0
1223.093872 160.0
1223.233154 156.0
1223.783081 432.0
1224.180054 152.0
1224.514282 160.0
1225.099609 220.0
1226.409546 164.0
1226.487061 168.0
1226.555908 164.0
1226.611694 40.0
1226.709351 168.0
1226.862671 124.0
1227.336792 156.0
1227.441406 152.0
1227.900513 188.0
1228.110962 208.0
1228.341064 216.0
1228.557373 176.0
1228.913208 184.0
1229.038818 164.0
1229.645996 276.0
1230.169434 48.0
1230.518555 172.0
1230.644287 116.0
1230.902588 160.0
1231.021362 208.0
1231.093018 184.0
1231.649902 124.0
1231.929321 168.0
1232.006226 136.0
1232.066528 156.0
1232.677002 128.0
1232.816772 168.0
1232.865723 188.0
1232.963501 136.0
1233.285034 44.0
1233.466797 140.0
1233.585571 140.0
1233.669556 140.0
1234.200928 152.0
1234.347778 160.0
1234.396729 236.0
1234.543579 224.0
1234.660034 92.0
1234.802368 196.0
1235.012085 220.0
1235.655762 180.0
1235.837646 168.0
1235.992432 144.0
1236.327515 156.0
1236.474487 176.0
1237.069458 148.0
1237.342529 148.0
1238.25293 116.0
1238.399902 120.0
1238.448975 152.0
1238.554077 68.0
1238.624146 104.0
1238.680176 156.0
1239.296631 156.0
1239.519775 172.0
1239.583984 240.0
1239.997437 196.0
1240.151733 104.0
1240.594971 224.0
1240.915771 140.0
1241.245361 60.0
1241.38562 196.0
1241.757324 172.0
1241.904663 184.0
1242.164185 196.0
1242.705811 76.0
1242.788574 188.0
1243.10437 208.0
1243.300903 204.0
1243.378784 176.0
1243.852173 144.0
1244.36792 160.0
1244.61084 128.0
1244.690918 196.0
1245.365112 124.0
1245.561768 156.0
1245.674194 136.0
1245.744385 200.0
1246.264404 104.0
1246.700073 196.0
1246.763306 152.0
1246.861694 180.0
1246.967163 240.0
1247.782593 188.0
1247.965332 184.0
1248.963989 92.0
1249.118774 164.0
1249.189087 156.0
1249.245483 160.0
1249.37915 140.0
1249.433228 92.0
1249.998291 164.0
1250.11792 120.0
1250.223511 184.0
1250.385376 196.0
1250.758423 132.0
1250.864014 124.0
1251.046997 140.0
1251.13855 172.0
1251.223022 136.0
1251.399048 192.0
1251.511719 168.0
1251.701904 224.0
1252.039917 160.0
1252.12439 148.0
1252.4021 124.0
1252.532959 84.0
1253.011963 208.0
1253.202271 128.0
1253.463013 204.0
1253.639282 176.0
1254.492065 108.0
1254.590698 292.0
1254.640015 128.0
1255.317017 160.0
1255.366333 248.0
1255.42981 96.0
1255.675415 160.0
1255.789551 196.0
1256.135132 172.0
1256.290405 88.0
1256.36084 128.0
1256.544312 148.0
1256.599487 184.0
1256.847778 164.0
1257.341675 168.0
1257.728638 240.0
1258.393555 144.0
1258.824341 180.0
1258.951416 180.0
1259.026001 136.0
1259.269287 52.0
1259.52356 156.0
1259.799072 232.0
1260.361694 140.0
1261.021484 160.0
1261.120483 184.0
1261.219482 112.0
1261.435425 204.0
1262.258789 188.0
1262.739624 140.0
1262.973022 128.0
1263.036743 76.0
1263.151367 204.0
1263.291382 104.0
1263.376343 172.0
1263.425781 60.0
1263.539062 140.0
1263.758423 100.0
1263.897705 156.0
1264.529785 84.0
1264.734985 232.0
1265.258911 152.0
1265.343872 120.0
1265.556274 136.0
1265.973999 48.0
1266.274292 208.0
1267.327026 144.0
1267.42627 160.0
1267.596313 140.0
1267.872681 212.0
1267.964844 180.0
1268.035767 60.0
1268.368896 244.0
1268.575562 164.0
1268.702026 172.0
1269.148804 192.0
1269.297729 120.0
1269.423706 164.0
1269.645142 136.0
1270.234131 144.0
1270.326172 144.0
1270.486816 104.0
1270.822754 176.0
1270.936279 128.0
1271.255615 168.0
1271.641479 192.0
1271.695679 216.0
1271.972534 120.0
1272.171265 112.0
1272.27771 180.0
1272.4198 200.0
1272.856323 136.0
1272.994873 112.0
1273.151123 204.0
1273.378418 176.0
1273.818848 160.0
1273.896973 196.0
1273.946655 220.0
1274.088745 136.0
1274.259277 144.0
1274.337402 192.0
1274.42981 124.0
1274.635864 176.0
1274.742554 172.0
1274.842041 108.0
1275.131958 204.0
1275.281738 196.0
1275.446167 164.0
1275.662842 140.0
1275.825684 72.0
1276.015259 136.0
1276.157104 80.0
1276.384644 76.0
1276.626343 140.0
1276.691895 228.0
1276.782837 156.0
1276.903809 116.0
1276.953613 160.0
1277.004517 148.0
1277.259399 176.0
1277.693359 160.0
1277.814331 132.0
1277.921021 36.0
1278.490356 148.0
1279.185669 152.0
1279.515381 188.0
1279.664917 48.0
1280.292114 148.0
1280.483887 116.0
1280.583618 144.0
1280.768799 168.0
1281.210449 116.0
1281.27356 148.0
1281.80188 224.0
1281.851685 48.0
1282.300659 176.0
1282.350586 264.0
1282.514526 144.0
1282.958008 140.0
1283.063477 216.0
1283.191772 120.0
1284.461304 132.0
1284.995361 120.0
1285.617188 176.0
1285.724243 168.0
1286.05249 144.0
1286.175537 228.0
1286.380859 60.0
1287.359131 252.0
1287.496094 212.0
1287.659058 128.0
1287.772095 216.0
1287.901855 104.0
1287.987671 220.0
1288.200562 160.0
1288.794922 124.0
1288.923584 220.0
1289.066528 172.0
1289.31665 152.0
1289.423828 192.0
1289.731201 136.0
1289.824097 160.0
1290.144653 192.0
1290.610474 168.0
1291.218384 144.0
1291.275635 244.0
1291.633301 152.0
1291.940186 172.0
1292.227051 168.0
1292.584839 48.0
1292.928345 160.0
1292.985596 176.0
1293.042847 128.0
1293.192505 172.0
1293.450806 156.0
1293.515991 228.0
1293.601196 228.0
1293.780151 196.0
1293.92334 52.0
1294.080933 168.0
1294.259888 52.0
1294.413452 156.0
1294.639404 132.0
1294.904419 200.0
1295.112183 128.0
1295.527588 56.0
1295.642212 224.0
1295.821411 156.0
1296.158203 208.0
1296.796021 272.0
1296.939331 160.0
1297.291016 144.0
1297.597046 112.0
1297.727905 248.0
1297.864746 196.0
1297.935913 164.0
1298.294434 212.0
1298.552612 112.0
1298.889771 208.0
1299.334595 136.0
1299.63855 108.0
1299.930176 128.0
1299.987549 136.0
1300.245972 188.0
1300.296143 132.0
1300.540161 184.0
1300.604858 180.0
1300.813232 140.0
1300.927856 312.0
1301.301147 168.0
1301.531006 44.0
1301.782471 180.0
1301.961792 148.0
1302.256348 232.0
1302.335327 152.0
1302.550781 208.0
1302.601074 108.0
1302.77356 232.0
1303.178467 200.0
1303.305176 172.0
1303.578247 112.0
1303.966431 208.0
1304.04541 180.0
1304.138916 176.0
1304.311401 260.0
1304.483887 260.0
1304.555786 120.0
1304.785889 208.0
1305.45459 172.0
1305.836548 188.0
1306.075928 188.0
1306.130737 92.0
1306.303345 132.0
1306.375244 128.0
1306.799805 180.0
1306.886108 280.0
1306.994019 232.0
1307.361084 64.0
1307.526611 72.0
1308.124023 132.0
1308.410767 72.0
1308.894409 208.0
1309.124878 140.0
1309.304932 152.0
1309.39856 144.0
1309.686646 164.0
1309.744263 164.0
1310.018066 180.0
1310.205322 116.0
1310.623291 196.0
1310.745728 184.0
1310.904297 204.0
1311.149292 116.0
1311.437622 240.0
1311.584473 164.0
1311.675537 208.0
1311.764648 192.0
1311.985474 160.0
1312.086426 208.0
1312.168213 136.0
1312.360229 148.0
1312.586182 176.0
1312.663208 156.0
1313.081543 176.0
1313.452881 188.0
1313.527466 152.0
1313.673096 224.0
1313.812256 224.0
1313.954468 128.0
1314.019409 56.0
1314.120361 216.0
1314.387329 132.0
1314.495605 196.0
1314.676025 180.0
1315.0802 148.0
1315.224609 192.0
1315.469971 124.0
1315.628784 188.0
1315.809326 164.0
1315.932007 168.0
1316.05481 84.0
1316.105347 216.0
1316.170288 280.0
1316.329224 192.0
1316.401367 164.0
1316.632568 156.0
1316.769775 128.0
1316.834717 208.0
1316.964722 124.0
1317.362061 176.0
1317.817261 104.0
1318.192993 88.0
1318.908569 144.0
1319.176025 156.0
1319.289795 136.0
1319.414551 176.0
1319.602539 172.0
1319.761597 224.0
1320.007446 128.0
1320.347412 188.0
1320.528198 148.0
1320.658447 200.0
1320.737915 220.0
1320.834961 116.0
1320.87854 84.0
1320.933228 168.0
1320.998413 64.0
1321.135864 124.0
1321.280518 124.0
1321.905518 196.0
1322.016479 212.0
1322.262573 176.0
1322.339233 188.0
1322.474609 188.0
1322.655518 168.0
1322.713501 132.0
1323.459229 192.0
1324.060181 136.0
1324.197876 160.0
1324.270264 136.0
1324.364502 252.0
1324.531006 120.0
1324.632446 100.0
1324.71936 212.0
1324.907715 140.0
1325.023682 132.0
1325.154053 156.0
1325.567139 160.0
1325.835327 200.0
1326.590454 220.0
1326.835571 36.0
1327.553467 200.0
1327.85083 172.0
1327.974121 192.0
1328.053955 212.0
1328.416626 316.0
1328.468384 144.0
1328.692261 152.0
1328.801147 180.0
1328.856445 188.0
1328.919189 160.0
1329.006714 240.0
1329.309082 64.0
1329.40271 212.0
1329.475952 180.0
1329.926025 148.0
1330.136475 172.0
1330.273682 176.0
1330.390625 132.0
1330.717285 160.0
1331.007812 216.0
1331.588745 220.0
1332.126221 204.0
1332.196045 208.0
1332.380493 84.0
1332.751099 148.0
1333.107178 172.0
1333.427002 220.0
1333.544556 160.0
1333.985352 308.0
1334.13208 236.0
1334.422852 228.0
1334.539185 120.0
1334.786499 216.0
1334.837402 184.0
1335.23999 180.0
1335.550171 168.0
1335.804688 164.0
1335.97937 152.0
1336.139404 136.0
1336.437744 196.0
1336.532349 176.0
1336.597778 148.0
1336.925293 168.0
1337.050171 212.0
1337.49292 112.0
1337.762329 184.0
1337.864258 176.0
1338.075439 120.0
1338.140869 156.0
1338.381226 128.0
1338.555908 244.0
1338.62146 148.0
1338.818115 104.0
1338.978394 212.0
1339.109497 72.0
1339.429932 104.0
1339.552856 184.0
1339.830688 192.0
1339.925415 200.0
1340.049194 204.0
1340.238647 168.0
1340.460083 200.0
1340.697754 176.0
1341.770752 168.0
1341.878662 180.0
1341.966187 236.0
1342.060913 116.0
1342.133911 220.0
1342.658936 88.0
1342.731934 160.0
1342.877808 144.0
1342.943359 156.0
1343.621826 200.0
1343.709351 180.0
1343.759399 116.0
1344.402588 128.0
1345.139771 132.0
1345.272705 216.0
1345.373413 136.0
1345.599731 28.0
1345.672729 152.0
1345.856567 156.0
1346.088989 180.0
1346.176636 120.0
1346.841309 164.0
1347.03125 132.0
1347.155396 192.0
1347.403809 128.0
1347.474243 168.0
1347.981079 80.0
1348.434204 196.0
1348.775391 152.0
1348.836182 176.0
1349.187134 216.0
1349.346069 200.0
1349.464966 184.0
1349.677002 164.0
1349.746216 176.0
1349.797363 156.0
1350.09375 184.0
1350.152344 232.0
1350.320557 184.0
1350.744751 152.0
1350.905762 136.0
1351.000854 160.0
1351.19104 152.0
1351.308105 188.0
1351.593506 164.0
1351.669678 192.0
1352.033936 176.0
1352.105713 128.0
1352.296021 156.0
1352.727905 228.0
1352.82312 136.0
1353.284424 236.0
1353.569946 204.0
1353.672485 124.0
1353.731079 204.0
1354.207153 128.0
1354.500122 136.0
1354.712524 164.0
1355.200562 196.0
1355.562012 172.0
1355.911743 220.0
1356.363281 220.0
1356.654663 120.0
1357.123901 212.0
1357.901245 136.0
1357.974609 208.0
1358.143311 212.0
1358.26062 68.0
1358.3927 172.0
1358.451416 152.0
1358.502686 288.0
1358.561401 100.0
1358.97229 152.0
1359.214478 64.0
1359.353882 148.0
1359.742798 160.0
1360.032349 172.0
1360.330078 128.0
1360.528687 160.0
1360.932129 168.0
1361.012817 180.0
1361.100952 156.0
1361.374268 168.0
1361.462158 204.0
1361.622437 208.0
1361.820679 176.0
1361.879517 132.0
1362.195312 168.0
1362.437744 204.0
1362.900635 188.0
1363.062378 184.0
1363.262207 140.0
1363.517944 352.0
1363.598877 176.0
1363.709106 144.0
1364.3927 200.0
1364.624634 164.0
1365.208496 172.0
1365.510498 184.0
1365.628174 128.0
1365.775269 52.0
1365.878296 112.0
1365.981201 120.0
1366.304932 180.0
1366.385864 72.0
1366.46936 176.0
1366.871582 176.0
1367.062866 180.0
1367.165894 184.0
1367.570679 132.0
1367.696045 136.0
1367.835693 160.0
1367.983154 208.0
1368.660278 84.0
1368.741333 104.0
1368.902466 164.0
1369.065308 180.0
1369.448364 272.0
1369.529297 144.0
1369.868164 132.0
1370.030273 176.0
1370.288086 120.0
1370.743042 200.0
1370.795044 188.0
1370.95874 208.0
1371.032349 212.0
1371.206421 236.0
1371.673706 132.0
1371.72522 172.0
1372.005127 184.0
1372.388794 76.0
1372.728027 160.0
1372.882935 68.0
1372.941895 88.0
1373.436035 184.0
1373.620483 60.0
1373.768066 164.0
1373.841797 96.0
1374.446777 112.0
1374.542725 196.0
1374.646118 144.0
1374.774292 288.0
1375.354614 224.0
1375.487427 112.0
1375.657227 76.0
1375.958862 140.0
1376.196289 192.0
1376.39563 192.0
1376.779663 120.0
1376.934692 152.0
1377.023315 120.0
1377.097168 152.0
1377.326172 156.0
1377.3927 184.0
1377.496094 132.0
1377.739868 44.0
1378.205322 116.0
1379.00354 132.0
1379.328735 72.0
1379.631836 160.0
1380.178955 100.0
1380.304688 228.0
1380.600464 156.0
1380.711426 164.0
1381.606445 140.0
1382.220581 192.0
1382.583252 172.0
1382.760864 212.0
1383.649658 176.0
1383.708374 140.0
1383.930542 184.0
1384.026855 112.0
1384.522949 132.0
1384.848877 148.0
1385.485962 112.0
1385.537842 164.0
1386.086182 236.0
1386.137939 76.0
1386.664185 172.0
1386.842041 164.0
1386.908813 148.0
1387.145996 160.0
1387.228149 144.0
1387.702026 188.0
1388.167114 208.0
1388.725464 124.0
1388.792236 196.0
1389.074097 44.0
1389.167358 148.0
1389.919922 204.0
1390.07251 228.0
1390.335449 152.0
1390.417114 148.0
1390.483887 188.0
1390.639771 196.0
1390.803101 128.0
1390.914429 128.0
1391.077759 148.0
1391.168335 168.0
1392.013306 140.0
1392.533203 192.0
1392.644531 176.0
1392.800537 180.0
1392.878418 176.0
1393.261108 188.0
1393.31189 168.0
1393.513794 124.0
1393.833252 92.0
1394.063721 68.0
1394.219727 44.0
1394.32373 240.0
1394.42041 140.0
1394.806885 188.0
1394.94812 176.0
1395.00769 152.0
1395.21582 108.0
1395.609863 148.0
1395.780884 232.0
1396.033691 188.0
1396.24939 112.0
1396.316406 196.0
1396.427002 164.0
1396.611206 168.0
1396.837036 160.0
1397.186646 84.0
1397.45459 184.0
1398.362427 168.0
1398.421997 60.0
1398.503906 216.0
1398.756958 204.0
1399.263184 136.0
1399.352539 276.0
1399.605713 184.0
1399.695068 204.0
1400.484497 364.0
1400.700562 40.0
1400.886841 160.0
1401.236938 132.0
1401.326294 112.0
1401.43811 100.0
1402.086426 164.0
1402.260498 256.0
1402.332397 156.0
1402.395996 184.0
1402.638062 184.0
1402.816895 164.0
1403.025635 196.0
1403.14502 212.0
1403.420898 224.0
1403.643555 172.0
1404.166626 164.0
1404.241211 152.0
1404.599243 192.0
1405.069214 128.0
1405.300537 268.0
1405.482544 120.0
1405.755737 104.0
1405.949707 224.0
1406.203491 188.0
1406.494629 200.0
1406.576782 172.0
1407.009766 176.0
1407.477051 188.0
1407.539917 152.0
1407.741455 64.0
1408.660156 184.0
1408.844849 184.0
1409.026245 112.0
1409.377441 176.0
1409.489502 156.0
1409.911255 92.0
1410.760132 144.0
1411.059204 168.0
1411.171387 168.0
1411.320923 148.0
1411.395752 188.0
1411.762085 176.0
1411.829468 56.0
1411.889282 136.0
1411.94165 52.0
1412.36792 104.0
1412.510132 180.0
1412.794434 164.0
1412.929077 60.0
1413.482788 128.0
1413.827026 196.0
1413.976685 160.0
1414.283569 148.0
1414.424805 148.0
1414.442871 128.0
1414.583008 112.0
1414.882446 156.0
1415.107056 208.0
1415.178345 308.0
1415.311279 144.0
1415.666016 256.0
1415.945801 292.0
1416.005737 152.0
1416.425171 152.0
1416.485107 412.0
1416.724854 128.0
1416.919678 120.0
1417.541504 172.0
1417.921021 152.0
1418.07373 140.0
1418.208618 184.0
1418.500977 132.0
1418.598267 184.0
1418.91333 216.0
1419.198242 120.0
1419.28064 184.0
1419.490601 224.0
1419.648071 88.0
1419.723145 124.0
1419.828125 148.0
1420.32312 144.0
1420.480713 124.0
1420.953369 200.0
1421.238525 192.0
1421.385986 128.0
1421.412476 208.0
1422.022461 152.0
1422.311646 136.0
1422.431763 196.0
1422.581909 232.0
1422.649536 116.0
1422.724609 124.0
1422.852173 48.0
1422.948975 132.0
1423.272705 52.0
1423.986206 184.0
1424.038696 148.0
1424.196411 188.0
1424.249023 196.0
1424.504395 168.0
1424.557007 208.0
1424.827515 140.0
1425.566162 184.0
1425.78186 136.0
1425.954712 72.0
1426.292969 228.0
1427.127441 148.0
1427.353027 168.0
1427.47876 168.0
1427.619141 196.0
1428.044312 216.0
1428.331421 144.0
1428.511353 140.0
1428.578979 152.0
1428.639282 196.0
1429.045532 116.0
1429.286255 68.0
1429.354004 132.0
1429.421753 164.0
1429.662598 208.0
1429.858276 72.0
1429.960083 164.0
1430.285278 152.0
1430.570923 124.0
1430.776611 76.0
1430.877686 168.0
1430.952271 204.0
1431.145508 72.0
1431.495117 168.0
1431.650146 220.0
1431.717896 308.0
1431.875977 172.0
1432.049316 224.0
1432.297852 140.0
1432.410889 176.0
1432.720703 180.0
1432.915649 164.0
1433.352661 200.0
1433.706787 112.0
1433.970581 160.0
1434.656616 228.0
1434.814941 148.0
1435.03479 200.0
1435.463379 48.0
1435.659424 64.0
1436.640015 144.0
1436.851318 160.0
1437.009766 112.0
1437.115356 196.0
1437.190796 164.0
1437.349243 136.0
1437.454956 144.0
1437.62854 188.0
1437.688843 156.0
1437.781738 72.0
1438.330444 140.0
1439.081543 172.0
1439.168457 128.0
1439.259033 156.0
1440.135132 224.0
1440.210693 168.0
1440.565674 112.0
1440.648804 96.0
1440.973755 188.0
1441.351562 180.0
1441.721802 144.0
1441.782227 88.0
1441.850342 188.0
1442.175293 140.0
1442.341553 156.0
1442.409668 140.0
1443.188354 124.0
1443.362305 72.0
1443.536255 140.0
1444.07312 148.0
1444.330322 48.0
1444.534546 192.0
1445.230713 132.0
1445.344116 100.0
1445.518188 148.0
1445.717773 140.0
1445.995117 180.0
1446.055542 176.0
1446.267456 96.0
1446.396118 176.0
1446.464355 160.0
1446.532471 132.0
1446.638428 328.0
1446.729248 280.0
1447.115356 48.0
1447.297119 80.0
1447.363403 164.0
1447.5177 164.0
1447.952515 336.0
1448.11499 148.0
1448.168091 96.0
1448.433228 60.0
1449.327148 132.0
1449.486328 164.0
1449.577271 160.0
1449.694214 264.0
1450.067505 192.0
1450.388184 160.0
1450.479248 172.0
1450.744507 140.0
1451.032593 116.0
1451.123657 128.0
1451.624023 120.0
1451.692383 148.0
1452.48877 224.0
1452.557007 120.0
1452.610107 164.0
1452.739014 144.0
1452.82251 152.0
1453.004639 140.0
1453.095581 152.0
1453.391602 176.0
1453.452271 140.0
1453.649536 148.0
1453.839355 216.0
1453.912476 160.0
1454.309814 136.0
1454.719727 116.0
1455.015869 112.0
1455.190552 180.0
1455.342407 124.0
1455.395508 192.0
1455.547363 172.0
1455.623291 256.0
1455.805542 40.0
1455.873901 172.0
1456.565063 148.0
1456.679077 224.0
1456.944946 132.0
1457.180542 128.0
1457.355225 148.0
1457.567993 140.0
1457.704834 112.0
1458.457275 216.0
1458.692871 212.0
1459.133789 152.0
1459.590088 72.0
1459.780151 136.0
1459.932251 204.0
1460.244141 88.0
1460.380981 292.0
1460.721802 168.0
1461.233032 104.0
1461.301514 144.0
1461.682007 136.0
1461.749756 124.0
1461.910278 144.0
1461.971191 36.0
1462.267944 40.0
1462.747559 168.0
1462.953125 96.0
1463.105347 68.0
1463.211914 88.0
1463.326172 252.0
1463.529175 204.0
1463.729736 96.0
1463.988647 28.0
1464.521729 184.0
1464.62085 160.0
1464.910278 164.0
1465.344482 48.0
1465.748413 136.0
1466.022705 172.0
1466.098999 120.0
1466.236938 220.0
1466.548584 40.0
1466.856689 164.0
1467.125366 160.0
1467.349121 104.0
1467.455688 160.0
1467.791382 136.0
1467.966675 132.0
1468.02771 192.0
1468.165039 128.0
1468.218384 152.0
1468.584473 220.0
1468.721802 136.0
1468.912476 120.0
1469.194824 160.0
1469.518433 192.0
1469.629639 192.0
1469.77832 176.0
1469.896729 180.0
1469.946167 164.0
1470.377563 152.0
1470.522583 200.0
1470.644653 204.0
1470.999023 196.0
1471.438599 148.0
1472.117554 180.0
1472.339722 76.0
1472.408447 156.0
1472.645264 180.0
1472.775024 200.0
1472.85144 180.0
1472.927856 224.0
1473.172363 152.0
1473.653687 196.0
1473.745361 104.0
1474.490356 132.0
1474.670044 92.0
1474.937622 144.0
1475.090454 92.0
1475.335083 184.0
1475.442139 160.0
1475.579712 96.0
1475.85498 152.0
1476.053833 212.0
1476.122681 180.0
1476.199097 120.0
1476.348755 168.0
1476.657959 48.0
1477.078735 200.0
1477.27002 172.0
1477.409912 200.0
1477.820801 132.0
1478.041016 164.0
1478.275757 124.0
1478.448364 128.0
1478.670288 160.0
1478.831055 152.0
1478.991821 116.0
1479.10437 192.0
1479.305664 172.0
1479.481689 184.0
1480.244751 228.0
1480.546021 168.0
1480.713135 256.0
1481.342651 152.0
1481.442261 220.0
1481.51123 132.0
1481.687378 108.0
1481.786987 224.0
1481.924927 148.0
1482.315796 148.0
1482.683594 144.0
1483.020874 148.0
1483.350464 152.0
1484.002075 192.0
1484.147827 180.0
1484.308838 192.0
1484.502197 224.0
1484.784302 160.0
1485.421021 168.0
1485.544434 208.0
1485.704834 152.0
1485.758545 116.0
1485.909424 208.0
1485.958008 296.0
1486.037354 364.0
1486.118042 176.0
1486.195923 112.0
1486.257324 240.0
1486.337769 144.0
1486.548828 156.0
1486.883301 152.0
1487.116821 168.0
1487.377808 116.0
1487.578369 156.0
1487.677246 300.0
1487.9646 208.0
1488.385254 132.0
1488.798218 164.0
1488.997925 272.0
1489.059326 116.0
1489.581665 148.0
1489.819824 212.0
1490.480103 156.0
1490.657104 180.0
1491.119995 192.0
1491.618164 164.0
1491.748779 208.0
1491.910278 168.0
1492.033325 208.0
1492.102417 208.0
1492.363892 160.0
1493.156006 164.0
1493.317505 144.0
1493.428955 180.0
1493.520386 172.0
1493.786743 188.0
1493.994507 56.0
1494.083252 156.0
1494.112549 240.0
1494.340698 96.0
1494.563843 196.0
1494.794678 204.0
1494.848511 144.0
1495.033203 132.0
1495.171753 128.0
1495.487305 172.0
1496.272583 156.0
1496.372681 96.0
1496.543701 192.0
1496.690063 200.0
1496.942505 228.0
1497.158081 140.0
1497.242798 120.0
1497.419922 92.0
1497.473877 196.0
1497.832764 136.0
1497.912964 136.0
1498.105591 144.0
1498.321289 84.0
1498.406006 172.0
1498.606323 120.0
1498.914551 204.0
1499.130371 220.0
1499.639038 160.0
1499.816284 124.0
1499.955078 156.0
1500.101562 172.0
1500.19397 176.0
1500.271118 124.0
1500.363647 128.0
1500.448486 136.0
1500.827271 180.0
1500.972778 124.0
1501.107056 176.0
1501.215088 140.0
1501.612915 184.0
1501.983154 128.0
1502.130737 184.0
1502.237671 92.0
1502.291748 176.0
1502.361084 132.0
1502.422852 132.0
1502.885742 216.0
1503.101807 92.0
1503.194458 212.0
1503.27771 192.0
1503.441406 220.0
1503.765625 180.0
1503.827271 132.0
1504.067139 120.0
1504.143799 132.0
1504.213257 72.0
1504.290527 36.0
1504.344482 128.0
1504.661011 208.0
1504.8927 264.0
1505.178345 180.0
1505.286499 144.0
1505.394653 148.0
