>compound Ruxolitinib (INCB018424)
>formula C17H18N6
>ionization [M+H]+
>parentmass 307.1665710280905
#inchi InChI=1S/C17H18N6/c18-7-5-15(12-3-1-2-4-12)23-10-13(9-22-23)16-14-6-8-19-17(14)21-11-20-16/h6,8-12,15H,1-5H2,(H,19,20,21)/t15-/m0/s1
#inchikey HFNKQEVNSGCOJV
#Ion_Source LC-ESI
#Instrument qTof
#Compound_Source Commercial
#PI Dorrestein
#Data_Collector Garg_Neha
#Scan -1
#Precursor_MZ 307.167
#ExactMass 306.159
#Charge 1
#CAS_Number 941678-49-5, 941678-50-8 (TFA), 1092939-15-5 (Maleic acid)
#Pubmed_ID N/A
#Smiles N1=CN=C2C(=C1C3=CN(N=C3)[C@@H](CC#N)C4CCCC4)C=CN2
#INCHI_AUX N/A
#Library_Class 1
#SpectrumID CCMSLIB00000078122
#IonMode Positive
#UpdateWorkflowName UPDATE-SINGLE-ANNOTATED-GOLD
#LibraryQualityString Gold
#TaskID 77f51c88eb8b467eb4a01dd2d0cb90d2
##Scan# 1125
#SpectrumFile Plate2_41_60_GG7_01_16495.mzXML
#LibraryName FDALibrary_2_04302014.mgf
#MQScore -1
#Organism FDALibrary_2_04302014
#TIC_Query 0
#RT_Query -1
#MZErrorPPM -1
#SharedPeaks 0
#MassDiff 0
#LibMZ -1
#SpecMZ 307.167
#SpecCharge 0
#internalFilename spec-00000.mgf

>collision 10
44.909077 136.0
44.974331 180.0
45.004421 200.0
45.070572 160.0
45.102287 104.0
45.132061 176.0
45.217674 172.0
45.269924 144.0
45.285957 192.0
45.311409 184.0
45.332848 164.0
45.359653 200.0
45.379765 216.0
45.456219 140.0
45.528709 164.0
45.636211 160.0
45.668488 192.0
45.691357 216.0
45.712883 168.0
45.830032 184.0
45.873161 172.0
45.926399 224.0
45.968922 236.0
46.076942 188.0
46.087749 140.0
46.136406 144.0
46.149925 172.0
46.172913 148.0
46.343967 144.0
46.427006 156.0
46.584969 144.0
46.651558 196.0
46.692348 156.0
46.808975 160.0
46.837986 156.0
46.976101 200.0
47.065483 192.0
47.086224 184.0
47.186474 132.0
47.246151 172.0
47.275856 248.0
47.309296 172.0
47.421429 184.0
47.439632 156.0
47.613506 140.0
47.675327 188.0
47.730312 220.0
47.763321 156.0
47.782581 144.0
47.812851 160.0
47.826618 152.0
47.862411 164.0
47.974072 176.0
48.013996 176.0
48.026058 188.0
48.157032 176.0
48.181641 248.0
48.203125 176.0
48.239059 212.0
48.270859 208.0
48.338974 232.0
48.428104 116.0
48.447292 220.0
48.466854 304.0
48.481277 144.0
48.563076 208.0
48.661602 156.0
48.892044 164.0
48.941071 144.0
48.959175 208.0
49.039982 188.0
49.058102 176.0
49.073437 148.0
49.165504 148.0
49.273556 188.0
49.435219 172.0
49.452011 152.0
49.517818 176.0
49.547127 156.0
49.590675 240.0
49.601887 180.0
49.655792 224.0
49.668659 124.0
49.700817 192.0
49.759674 160.0
49.998417 292.0
50.03653 172.0
50.094715 220.0
50.142036 136.0
50.194893 208.0
50.346413 304.0
50.52853 144.0
50.57806 336.0
50.596462 148.0
50.634697 200.0
50.654526 212.0
50.758129 160.0
51.155014 184.0
51.205639 220.0
51.292553 180.0
51.321068 172.0
51.341293 240.0
51.396664 200.0
51.412361 176.0
51.422352 204.0
51.53231 304.0
51.648106 160.0
51.675991 244.0
51.74828 144.0
51.806999 224.0
51.827057 200.0
51.954659 148.0
51.969006 148.0
52.014931 192.0
52.04221 172.0
52.257805 212.0
52.316811 188.0
52.443573 160.0
52.579147 204.0
52.630112 132.0
52.661446 160.0
52.681667 164.0
52.700447 188.0
52.748138 168.0
52.766933 188.0
52.905819 140.0
53.088387 188.0
53.26255 168.0
53.306137 144.0
53.417618 168.0
53.782379 180.0
53.861229 196.0
53.906517 148.0
53.967911 168.0
53.986866 108.0
54.061531 160.0
54.074699 164.0
54.193279 156.0
54.22702 164.0
54.280369 216.0
54.350208 168.0
54.361946 160.0
54.52496 164.0
54.655838 208.0
54.770668 200.0
54.792767 140.0
54.866455 168.0
55.09816 172.0
55.111458 140.0
55.158749 144.0
55.225288 200.0
55.237499 188.0
55.300747 152.0
55.373295 208.0
55.405254 216.0
55.503704 288.0
55.617939 192.0
55.678814 212.0
55.692181 180.0
55.753429 144.0
55.912228 184.0
55.939373 184.0
55.999352 108.0
56.034328 180.0
56.049229 140.0
56.067112 144.0
56.181927 172.0
56.268486 220.0
56.291965 168.0
56.367065 160.0
56.471714 184.0
56.57872 196.0
56.622879 164.0
56.699287 196.0
56.727764 268.0
56.828247 172.0
56.845654 180.0
56.880775 140.0
56.901791 164.0
57.002426 156.0
57.091122 224.0
57.117199 200.0
57.152794 160.0
57.223537 144.0
57.26461 160.0
57.298843 204.0
57.331745 172.0
57.425465 160.0
57.438629 220.0
57.698784 160.0
57.794071 200.0
57.809978 148.0
57.866722 144.0
57.904579 192.0
57.930328 172.0
57.981846 252.0
58.242813 208.0
58.333988 240.0
58.350708 240.0
58.411541 176.0
58.475445 168.0
58.603363 148.0
58.722267 172.0
58.76498 140.0
59.041466 180.0
59.182247 188.0
59.208279 216.0
59.263428 156.0
59.353863 144.0
59.395271 228.0
59.486488 180.0
59.653248 224.0
59.683994 152.0
59.708599 300.0
59.790138 184.0
59.876083 204.0
59.905621 200.0
59.990376 184.0
60.035091 144.0
60.08445 196.0
60.143089 176.0
60.163158 140.0
60.178596 240.0
60.248493 124.0
60.301449 296.0
60.33773 176.0
60.470764 184.0
60.56126 152.0
60.670586 180.0
60.682945 136.0
60.967052 172.0
61.075886 148.0
61.149014 328.0
61.206615 164.0
61.322533 220.0
61.413887 144.0
61.471611 148.0
61.51659 180.0
61.53561 188.0
61.619949 168.0
61.654324 168.0
61.731392 208.0
61.782543 172.0
61.838875 192.0
61.885342 164.0
61.976685 140.0
61.990917 200.0
62.041618 176.0
62.059586 184.0
62.431915 184.0
62.461796 232.0
62.492214 144.0
62.578255 192.0
62.612896 180.0
62.631798 164.0
62.735802 160.0
62.775219 216.0
62.796074 160.0
62.831169 152.0
62.937748 196.0
62.963017 176.0
62.975651 192.0
63.055099 196.0
63.312527 160.0
63.356277 152.0
63.386295 148.0
63.483681 220.0
63.509056 204.0
63.634819 192.0
63.704395 204.0
63.921127 172.0
64.051079 188.0
64.092163 188.0
64.259918 144.0
64.282257 152.0
64.296623 164.0
64.37619 200.0
64.489876 172.0
64.589012 160.0
64.699425 180.0
64.760277 184.0
64.821159 164.0
64.835579 180.0
64.883667 160.0
64.957436 156.0
65.082771 164.0
65.105095 152.0
65.193459 156.0
65.259697 184.0
65.270615 220.0
65.532524 156.0
65.57653 156.0
65.626465 140.0
65.750679 396.0
65.826553 148.0
65.837852 168.0
66.001068 148.0
66.044731 140.0
66.141724 136.0
66.206581 144.0
66.219536 152.0
66.363762 148.0
66.379974 184.0
66.423767 200.0
66.462967 200.0
66.522751 172.0
66.537369 152.0
66.59095 144.0
66.626686 156.0
66.662437 160.0
66.724716 196.0
66.768135 200.0
66.813652 184.0
66.895187 116.0
66.914513 164.0
66.93084 140.0
66.981323 156.0
67.051384 148.0
67.144318 164.0
67.196129 204.0
67.243835 180.0
67.266685 160.0
67.302605 176.0
67.40744 180.0
67.93763 192.0
68.14048 136.0
68.167496 176.0
68.195435 208.0
68.208588 172.0
68.277344 200.0
68.320412 196.0
68.387878 160.0
68.536087 424.0
68.56575 152.0
68.684464 172.0
68.869331 172.0
68.991615 172.0
69.036102 124.0
69.196762 160.0
69.234467 224.0
69.256378 180.0
69.292824 164.0
69.349602 184.0
69.662781 156.0
69.742538 164.0
69.774124 148.0
69.953796 144.0
70.316742 188.0
70.41066 188.0
70.445732 184.0
70.510902 148.0
70.524315 144.0
70.596161 236.0
70.704903 156.0
70.754692 156.0
70.847229 172.0
70.959518 176.0
70.97316 128.0
71.014854 240.0
71.026596 140.0
71.049362 232.0
71.226707 132.0
71.412918 140.0
71.444832 140.0
71.600212 156.0
71.631744 144.0
71.673241 184.0
71.742966 168.0
71.817162 204.0
71.952156 220.0
71.99559 172.0
72.049957 176.0
72.173492 160.0
72.258064 192.0
72.349449 268.0
72.396866 144.0
72.545967 240.0
72.568008 148.0
72.618881 152.0
72.817459 200.0
72.999298 144.0
73.012909 196.0
73.109879 176.0
73.145622 192.0
73.319756 152.0
73.336754 152.0
73.365372 212.0
73.454048 176.0
73.505234 164.0
73.643517 164.0
73.681099 144.0
73.775093 160.0
73.954704 172.0
73.978668 200.0
74.059143 168.0
74.149429 196.0
74.211662 156.0
74.228813 144.0
74.359932 224.0
74.388184 144.0
74.477669 148.0
74.51622 180.0
74.551544 192.0
74.769951 168.0
74.876434 160.0
74.897362 160.0
74.99353 192.0
75.06971 172.0
75.147018 372.0
75.250893 216.0
75.318909 144.0
75.492798 176.0
75.52739 200.0
75.645058 236.0
75.679688 176.0
75.818268 164.0
75.886604 272.0
76.073074 128.0
76.119858 164.0
76.210442 184.0
76.245193 148.0
76.283432 164.0
76.349655 136.0
76.361961 192.0
76.420822 148.0
76.441704 212.0
76.480598 188.0
76.518288 200.0
76.53688 124.0
76.614449 112.0
76.654152 188.0
76.747169 208.0
76.769203 156.0
76.842468 220.0
76.886093 236.0
76.935951 332.0
77.062454 160.0
77.084961 168.0
77.128868 148.0
77.249519 172.0
77.373772 224.0
77.608551 156.0
77.661163 172.0
77.697998 144.0
77.710281 172.0
77.75415 168.0
77.91394 160.0
78.036964 168.0
78.114349 160.0
78.204086 172.0
78.339676 140.0
78.398071 112.0
78.521225 160.0
78.537102 228.0
78.598846 184.0
78.687103 196.0
78.7258 208.0
78.851379 156.0
78.867287 160.0
78.892036 144.0
78.952026 172.0
79.012291 192.0
79.037064 164.0
79.075996 176.0
79.153091 196.0
79.322205 176.0
79.355888 172.0
79.496765 180.0
79.526184 140.0
79.547485 152.0
79.576706 200.0
79.668556 196.0
79.787315 232.0
79.815765 148.0
79.854889 172.0
79.879791 140.0
79.971771 260.0
80.109428 224.0
80.187828 164.0
80.243088 160.0
80.319771 172.0
80.461853 188.0
80.497658 244.0
80.53492 240.0
80.594704 196.0
80.714462 288.0
80.852211 164.0
80.924774 172.0
81.111153 160.0
81.255386 220.0
81.304291 416.0
81.334343 184.0
81.37384 176.0
81.609207 228.0
81.625389 144.0
81.684738 168.0
81.81971 300.0
81.889938 352.0
81.993782 188.0
82.098999 352.0
82.539619 192.0
82.568558 144.0
82.646339 160.0
82.769424 156.0
82.91761 220.0
82.981422 192.0
83.135605 124.0
83.151932 140.0
83.177345 156.0
83.222359 176.0
83.333527 160.0
83.51194 168.0
83.540787 168.0
83.566254 152.0
83.762871 152.0
83.794716 192.0
83.901367 232.0
83.932365 212.0
84.058228 156.0
84.072823 152.0
84.208122 112.0
84.249939 228.0
84.304474 208.0
84.403465 180.0
84.462372 212.0
84.555405 140.0
84.575439 168.0
84.626694 184.0
84.718269 180.0
84.838539 184.0
84.936409 144.0
84.963974 144.0
84.991447 160.0
85.106186 196.0
85.143814 244.0
85.20443 144.0
85.24485 148.0
85.316536 180.0
85.602074 188.0
85.644081 180.0
85.666573 268.0
85.721458 148.0
85.841728 148.0
85.927979 160.0
85.951782 168.0
85.970413 144.0
86.005478 180.0
86.025543 152.0
86.066406 188.0
86.143974 152.0
86.325401 172.0
86.399086 176.0
86.417587 140.0
86.717583 192.0
86.813988 264.0
86.93457 156.0
87.044098 144.0
87.155548 216.0
87.237846 252.0
87.27079 180.0
87.408432 188.0
87.443794 168.0
87.469849 164.0
87.566673 220.0
87.708282 200.0
87.775398 224.0
87.891045 192.0
87.978767 196.0
88.041916 160.0
88.062798 240.0
88.187981 156.0
88.233276 172.0
88.360016 264.0
88.576027 196.0
88.618393 188.0
88.635254 140.0
88.668991 160.0
88.742096 104.0
88.785225 176.0
88.803177 112.0
88.925934 172.0
88.997269 212.0
89.138153 164.0
89.170097 156.0
89.249054 148.0
89.287582 180.0
89.312996 168.0
89.36039 168.0
89.497421 148.0
89.57 176.0
89.734825 168.0
89.90271 180.0
89.94989 156.0
90.01786 208.0
90.174667 148.0
90.208099 212.0
90.255951 192.0
90.331604 212.0
90.511398 160.0
90.566322 152.0
90.662949 180.0
90.678108 196.0
90.729286 168.0
90.784279 156.0
90.87677 152.0
90.93605 196.0
91.001633 220.0
91.28907 176.0
91.515854 156.0
91.569176 216.0
91.839828 204.0
92.042122 164.0
92.065041 200.0
92.140953 140.0
92.175835 144.0
92.279053 224.0
92.314392 128.0
92.332596 140.0
92.474174 172.0
92.602455 200.0
92.742325 176.0
92.809418 160.0
92.861198 152.0
92.914024 156.0
92.991661 160.0
93.045738 756.0
93.141434 172.0
93.169334 152.0
93.191124 208.0
93.360535 184.0
93.528885 120.0
93.592117 104.0
93.631897 156.0
93.657791 240.0
93.724777 184.0
93.818802 212.0
93.838081 236.0
93.944153 160.0
93.992386 160.0
94.065903 392.0
94.08696 192.0
94.121712 240.0
94.307175 168.0
94.340034 148.0
94.359856 204.0
94.39257 164.0
94.447678 168.0
94.469604 224.0
94.603134 140.0
94.72126 160.0
94.752251 144.0
94.889992 176.0
94.917 184.0
94.986824 176.0
95.070091 516.0
95.086288 348.0
95.116013 152.0
95.206146 180.0
95.235275 232.0
95.412109 232.0
95.576012 148.0
95.71447 260.0
95.735107 196.0
95.760429 160.0
95.79744 144.0
95.841484 204.0
95.858604 112.0
95.90461 228.0
95.966995 208.0
96.02803 160.0
96.094925 244.0
96.1894 200.0
96.272507 176.0
96.311844 164.0
96.374931 168.0
96.419876 144.0
96.451462 172.0
96.474602 140.0
96.550865 208.0
96.593895 172.0
96.631065 180.0
96.777855 192.0
96.84687 176.0
96.942398 180.0
97.025665 200.0
97.061974 208.0
97.151672 224.0
97.240494 148.0
97.281715 200.0
97.339554 184.0
97.584267 144.0
97.630234 132.0
97.649429 144.0
97.834122 152.0
97.989708 192.0
98.060646 248.0
98.197334 172.0
98.370331 140.0
98.498924 100.0
98.522392 248.0
98.74292 304.0
98.769981 176.0
98.869576 280.0
98.899139 188.0
99.00502 216.0
99.230911 184.0
99.25074 208.0
99.425308 192.0
99.510666 184.0
99.53846 160.0
99.574203 196.0
99.6362 212.0
99.715637 108.0
99.770927 152.0
99.805405 200.0
99.846962 268.0
99.900192 160.0
99.96241 132.0
100.188217 240.0
100.255623 100.0
100.328285 228.0
100.435341 188.0
100.493889 220.0
100.537788 172.0
100.569725 172.0
100.589684 172.0
100.731163 176.0
100.877388 180.0
100.901939 144.0
100.941414 176.0
101.155396 184.0
101.255508 144.0
101.429825 224.0
101.444946 140.0
101.468651 240.0
101.578217 172.0
101.670258 188.0
101.742775 192.0
101.848236 192.0
101.877327 188.0
101.923538 144.0
101.953674 164.0
102.106468 160.0
102.223152 140.0
102.237694 212.0
102.376144 168.0
102.396286 208.0
102.458733 168.0
102.515144 164.0
102.529251 152.0
102.613914 184.0
102.67643 152.0
102.774734 164.0
102.823708 140.0
102.886276 196.0
102.916565 160.0
102.948875 180.0
103.043808 176.0
103.05938 96.0
103.098366 220.0
103.190674 120.0
103.232712 184.0
103.321777 212.0
103.351135 168.0
103.462456 204.0
103.501465 164.0
103.551552 160.0
103.735939 140.0
103.898178 168.0
104.051193 336.0
104.186455 200.0
104.214905 224.0
104.306351 148.0
104.414497 172.0
104.503624 160.0
104.539032 172.0
104.554497 144.0
104.705147 288.0
104.800888 176.0
104.82534 208.0
104.86203 120.0
104.92318 152.0
105.046837 704.0
105.069214 344.0
105.121033 200.0
105.142899 156.0
105.255486 180.0
105.468224 160.0
105.513199 152.0
105.617493 140.0
105.644569 136.0
105.69812 264.0
105.747368 344.0
105.818039 152.0
105.929047 236.0
105.957314 232.0
106.06916 200.0
106.106201 260.0
106.219711 220.0
106.238174 188.0
106.25869 184.0
106.284485 176.0
106.467041 168.0
106.574593 112.0
106.61393 160.0
106.733154 196.0
106.936821 168.0
106.998215 208.0
107.064468 156.0
107.081474 124.0
107.136559 160.0
107.186005 304.0
107.247833 172.0
107.341064 272.0
107.427231 172.0
107.451988 172.0
107.503571 192.0
107.621231 204.0
107.701775 156.0
107.784409 160.0
107.980804 160.0
108.044373 164.0
108.148392 208.0
108.280907 164.0
108.31926 224.0
108.347191 160.0
108.368576 100.0
108.430077 168.0
108.536751 296.0
108.624977 164.0
108.671692 116.0
108.901047 144.0
108.982735 144.0
109.36055 168.0
109.416756 212.0
109.442795 144.0
109.468811 208.0
109.560455 224.0
109.587585 184.0
109.615036 164.0
109.67807 136.0
109.736214 192.0
109.825195 140.0
109.871086 168.0
109.929512 224.0
110.029701 184.0
110.169624 244.0
110.183388 184.0
110.2323 140.0
110.407906 184.0
110.49276 120.0
110.543884 160.0
110.770004 144.0
110.807709 160.0
110.82238 140.0
110.838173 252.0
110.935555 160.0
111.058975 144.0
111.118004 172.0
111.220833 148.0
111.344803 144.0
111.430832 152.0
111.530083 140.0
111.555588 144.0
111.578247 200.0
111.613701 240.0
111.655159 232.0
111.680992 192.0
111.720963 144.0
111.772095 128.0
111.880905 192.0
111.913574 124.0
112.030426 232.0
112.144211 168.0
112.202576 140.0
112.242645 180.0
112.289696 176.0
112.329765 196.0
112.526031 188.0
112.652748 192.0
112.70253 128.0
112.792213 152.0
112.906387 180.0
113.058708 196.0
113.165337 204.0
113.183609 164.0
113.213257 140.0
113.266205 144.0
113.291626 148.0
113.490845 156.0
113.66478 144.0
113.743309 144.0
113.768784 176.0
113.919556 148.0
114.015175 180.0
114.093819 140.0
114.134216 216.0
114.17675 168.0
114.206528 160.0
114.363976 200.0
114.378876 192.0
114.472557 368.0
114.547516 144.0
114.728233 168.0
114.84552 220.0
114.982071 148.0
115.031158 164.0
115.06105 152.0
115.163109 216.0
115.178497 152.0
115.27037 192.0
115.462769 216.0
115.672455 200.0
115.760231 140.0
115.893471 160.0
116.004486 184.0
116.036644 140.0
116.173897 176.0
116.360611 164.0
116.40847 180.0
116.485168 144.0
116.502029 160.0
116.538879 192.0
116.65493 188.0
116.718956 200.0
116.83773 184.0
116.980736 124.0
117.04435 140.0
117.064758 184.0
117.128342 196.0
117.328751 148.0
117.455986 140.0
117.491737 112.0
117.67395 164.0
117.738869 124.0
117.886986 96.0
118.043335 556.0
118.123978 336.0
118.219742 136.0
118.251122 152.0
118.287918 172.0
118.500153 188.0
118.523987 244.0
118.687157 188.0
118.854973 236.0
118.925529 104.0
119.044945 248.0
119.08152 148.0
119.220566 204.0
119.300987 172.0
119.464088 152.0
119.51368 196.0
119.607704 156.0
119.773193 160.0
119.804161 204.0
119.912643 180.0
119.950737 328.0
119.993301 160.0
120.05217 156.0
120.077141 160.0
120.187416 416.0
120.288445 96.0
120.342949 172.0
120.405716 368.0
120.451584 184.0
120.508385 168.0
120.534607 192.0
120.580498 160.0
120.635139 340.0
120.772903 148.0
120.80571 148.0
120.895424 236.0
120.963272 144.0
121.063988 200.0
121.083694 188.0
121.109978 188.0
121.241081 124.0
121.379547 164.0
121.405861 192.0
121.434372 160.0
121.471657 172.0
121.515533 180.0
121.566635 128.0
121.640625 156.0
121.683083 188.0
121.800926 156.0
121.826576 136.0
122.096764 2460.0
122.135864 212.0
122.152634 328.0
122.182419 196.0
122.212036 176.0
122.313271 168.0
122.384354 172.0
122.438766 304.0
122.480614 236.0
122.534645 160.0
122.595184 164.0
122.676735 164.0
122.749496 164.0
122.826241 180.0
122.869392 156.0
123.073242 100.0
123.107086 172.0
123.175453 144.0
123.209145 208.0
123.2351 144.0
123.292557 180.0
123.380974 168.0
123.409714 152.0
123.431061 104.0
123.579903 152.0
123.825737 144.0
123.853539 192.0
123.901054 200.0
124.15818 192.0
124.182709 132.0
124.337883 388.0
124.384491 164.0
124.477737 192.0
124.499947 172.0
124.531036 248.0
124.580307 156.0
124.744354 152.0
124.824394 224.0
124.882217 240.0
124.955627 176.0
124.976082 164.0
125.109184 164.0
125.153137 184.0
125.19825 140.0
125.545906 168.0
125.599663 116.0
125.773483 268.0
125.984009 344.0
126.00573 212.0
126.351143 208.0
126.535782 224.0
126.594681 184.0
126.764252 292.0
126.988441 152.0
127.049011 160.0
127.147736 192.0
127.235458 200.0
127.259979 148.0
127.320602 188.0
127.570015 152.0
127.642677 144.0
127.866875 192.0
127.993904 148.0
128.035782 196.0
128.164185 196.0
128.285049 212.0
128.372818 200.0
128.441483 148.0
128.497879 140.0
128.678192 192.0
128.711853 140.0
128.94046 188.0
128.99202 168.0
129.046265 716.0
129.11647 196.0
129.248978 188.0
129.331741 180.0
129.676025 164.0
129.737228 164.0
129.789368 224.0
129.986725 156.0
130.017212 156.0
130.047897 300.0
130.191025 200.0
130.21788 160.0
130.411118 160.0
130.732285 188.0
130.827682 164.0
130.914856 112.0
130.942688 396.0
131.000748 148.0
131.021255 160.0
131.061096 4856.0
131.099518 172.0
131.169388 184.0
131.200699 152.0
131.219543 168.0
131.257614 156.0
131.341492 192.0
131.448471 164.0
131.506973 156.0
131.580078 148.0
131.724152 136.0
131.829437 140.0
131.946701 128.0
131.984421 208.0
132.005951 184.0
132.036133 184.0
132.057297 3684.0
132.279556 200.0
132.297195 256.0
132.421707 260.0
132.444168 196.0
132.575027 256.0
132.689636 200.0
132.711441 148.0
132.753082 160.0
132.803894 212.0
132.874969 168.0
133.055771 436.0
133.340118 192.0
133.387527 324.0
133.437973 152.0
133.55423 216.0
133.698029 140.0
133.779053 248.0
133.801605 140.0
133.831543 160.0
133.866074 196.0
133.905457 208.0
133.930557 152.0
133.956604 108.0
133.976639 160.0
134.000061 164.0
134.08493 196.0
134.215744 172.0
134.278595 260.0
134.474716 244.0
134.546936 224.0
134.570663 120.0
134.719864 164.0
134.774918 164.0
134.91008 116.0
134.959839 184.0
135.013016 192.0
135.05928 156.0
135.114853 184.0
135.218262 308.0
135.313828 156.0
135.348007 164.0
135.485214 144.0
135.56871 128.0
135.707718 168.0
135.777283 164.0
136.020905 160.0
136.053406 152.0
136.174835 188.0
136.267441 152.0
136.292633 184.0
136.316788 120.0
136.353043 144.0
136.373962 144.0
136.494858 272.0
136.535049 156.0
136.576248 148.0
136.661621 204.0
136.760071 144.0
136.778687 192.0
136.857849 140.0
136.875198 168.0
136.92305 160.0
137.01622 168.0
137.081467 188.0
137.134018 168.0
137.232971 184.0
137.328583 188.0
137.375244 164.0
137.514969 168.0
137.552582 200.0
137.751083 212.0
137.842194 184.0
138.022186 172.0
138.050247 152.0
138.097015 140.0
138.160172 140.0
138.42981 164.0
138.520691 172.0
138.61348 272.0
138.703461 392.0
138.776276 208.0
138.927582 412.0
138.956741 172.0
139.015396 160.0
139.137451 160.0
139.178482 236.0
139.254089 120.0
139.37468 168.0
139.478088 168.0
139.63562 144.0
140.066345 144.0
140.155869 164.0
140.224213 200.0
140.286301 164.0
140.412827 144.0
140.436417 152.0
140.509537 196.0
140.575607 144.0
140.653488 168.0
140.760254 144.0
140.858932 148.0
140.998337 316.0
141.044128 420.0
141.187469 160.0
141.242371 148.0
141.375458 256.0
141.423126 152.0
141.521118 204.0
141.615845 176.0
141.639526 156.0
141.665588 248.0
141.781693 156.0
141.949997 164.0
141.976089 228.0
142.050201 148.0
142.235672 128.0
142.555344 276.0
142.632828 132.0
142.707458 216.0
142.771011 124.0
142.977814 284.0
143.056122 336.0
143.082367 188.0
143.136902 184.0
143.159515 168.0
143.190536 144.0
143.299377 208.0
143.338837 204.0
143.362061 176.0
143.383514 164.0
143.507477 144.0
143.540848 144.0
143.595703 168.0
143.686356 196.0
143.928406 184.0
143.948914 176.0
144.03244 152.0
144.057251 488.0
144.357544 164.0
144.556091 180.0
144.587204 188.0
144.675766 200.0
144.902252 144.0
144.974487 168.0
145.05751 192.0
145.108521 152.0
145.157349 196.0
145.217911 176.0
145.341995 140.0
145.37146 176.0
145.402054 192.0
145.418854 148.0
145.641327 192.0
145.743042 200.0
145.781494 188.0
145.895889 144.0
145.946014 200.0
146.00975 156.0
146.04837 184.0
146.077225 176.0
146.154221 164.0
146.199173 176.0
146.276962 172.0
146.296219 160.0
146.3564 200.0
146.520187 188.0
146.570786 156.0
146.623795 176.0
146.640671 188.0
146.737091 192.0
146.809433 212.0
146.837067 140.0
146.954498 176.0
147.018097 164.0
147.05423 172.0
147.095703 204.0
147.20488 244.0
147.28006 144.0
147.331772 196.0
147.456451 172.0
147.637772 160.0
147.831299 204.0
147.906326 204.0
147.962006 148.0
148.054016 312.0
148.143631 148.0
148.312256 164.0
148.407806 144.0
148.48056 208.0
148.557007 100.0
148.814468 232.0
148.92601 180.0
148.956284 160.0
149.201736 140.0
149.486313 188.0
149.588531 144.0
149.935791 240.0
150.344345 124.0
150.385605 192.0
150.42955 188.0
150.478378 188.0
150.598038 164.0
150.615128 212.0
150.648605 148.0
150.747055 184.0
150.848923 172.0
151.008652 156.0
151.062469 156.0
151.298431 228.0
151.353714 176.0
151.380646 148.0
151.522705 160.0
151.596222 180.0
151.751938 272.0
151.797836 124.0
151.902695 192.0
151.97139 168.0
152.005737 208.0
152.12355 160.0
152.234039 204.0
152.418274 196.0
152.494461 188.0
152.590317 140.0
152.614914 164.0
152.646881 160.0
152.804291 260.0
152.98642 140.0
153.045502 180.0
153.381897 140.0
153.449585 148.0
153.528488 172.0
153.639481 144.0
153.710037 172.0
153.730774 144.0
153.82457 176.0
153.873947 176.0
153.970245 144.0
154.004822 240.0
154.050186 208.0
154.103638 144.0
154.130814 152.0
154.212372 160.0
154.280472 192.0
154.368118 208.0
154.655457 200.0
154.791275 300.0
154.882904 168.0
154.912628 176.0
154.962173 336.0
155.083603 160.0
155.128632 124.0
155.224915 216.0
155.403519 212.0
155.470108 172.0
155.505264 148.0
155.756042 228.0
155.91777 216.0
155.991058 152.0
156.053009 368.0
156.133774 180.0
156.193527 192.0
156.370178 144.0
156.465942 136.0
156.497131 152.0
156.566864 144.0
156.632874 128.0
156.660095 176.0
156.70137 200.0
156.913345 160.0
156.971222 136.0
157.020447 220.0
157.063873 7592.0
157.324478 204.0
157.434738 176.0
157.502167 180.0
157.54213 144.0
157.655853 180.0
157.706161 112.0
157.764542 144.0
157.78096 172.0
157.833267 156.0
157.972107 220.0
157.992126 156.0
158.027145 204.0
158.071396 10088.0
158.117233 176.0
158.150269 160.0
158.24971 156.0
158.30249 160.0
158.379471 136.0
158.459808 164.0
158.488724 224.0
158.712418 108.0
158.807312 128.0
158.848724 188.0
158.886505 152.0
159.011185 180.0
159.030777 244.0
159.067627 27460.0
159.157349 220.0
159.217056 156.0
159.263046 196.0
159.284775 112.0
159.394989 140.0
159.443954 184.0
159.475906 152.0
159.562088 156.0
159.670212 168.0
159.775864 144.0
159.821991 156.0
159.941956 212.0
160.007401 196.0
160.040131 152.0
160.069687 3968.0
160.158493 208.0
160.184769 224.0
160.252701 192.0
160.299988 148.0
160.614731 156.0
160.654068 180.0
160.889786 144.0
161.023621 160.0
161.048523 144.0
161.069244 196.0
161.18045 116.0
161.304092 184.0
161.352127 172.0
161.474747 316.0
161.605042 148.0
161.727539 204.0
161.794861 144.0
162.202713 140.0
162.220459 180.0
162.271164 156.0
162.322739 140.0
162.346115 192.0
162.448761 140.0
162.565399 156.0
162.682159 204.0
162.709381 252.0
162.81926 176.0
162.880219 192.0
162.925949 168.0
162.957977 152.0
163.32251 160.0
163.442078 184.0
163.486038 220.0
163.811249 156.0
163.850937 152.0
163.900421 140.0
164.453491 224.0
164.499756 180.0
164.520187 212.0
164.612106 228.0
164.629974 148.0
164.688156 216.0
164.805511 172.0
164.959579 180.0
165.015823 156.0
165.205078 160.0
165.249451 196.0
165.509644 156.0
165.606949 204.0
165.68248 140.0
165.768356 152.0
165.786301 172.0
165.934967 144.0
166.011887 220.0
166.199142 140.0
166.271225 132.0
166.355698 208.0
166.425644 232.0
166.551941 104.0
166.59967 188.0
166.681885 220.0
166.785492 216.0
166.839005 124.0
166.918365 148.0
166.941513 164.0
166.967224 160.0
167.005112 248.0
167.088135 204.0
167.131866 228.0
167.184723 128.0
167.249451 268.0
167.399582 140.0
167.42276 188.0
167.589615 216.0
167.712555 152.0
167.840881 140.0
167.890152 188.0
167.914993 204.0
167.956268 144.0
168.082687 160.0
168.213623 152.0
168.276627 196.0
168.40538 152.0
168.558594 208.0
168.631424 124.0
168.772354 144.0
168.796906 180.0
168.824066 148.0
168.904251 164.0
168.9534 140.0
169.002121 168.0
169.030441 144.0
169.174149 160.0
169.367584 224.0
169.502304 316.0
169.56723 152.0
169.616333 204.0
169.686325 240.0
169.831558 200.0
169.9431 164.0
170.052094 156.0
170.075455 204.0
170.111801 152.0
170.207672 164.0
170.514053 148.0
170.555984 196.0
170.659973 184.0
170.735382 160.0
170.791031 232.0
170.890381 116.0
171.020447 184.0
171.063736 364.0
171.085205 380.0
171.266403 148.0
171.404922 132.0
171.618454 176.0
171.659866 144.0
171.714645 180.0
171.837234 188.0
171.911606 184.0
171.962494 164.0
172.006866 160.0
172.035583 152.0
172.068573 216.0
172.149734 204.0
172.207932 156.0
172.657455 144.0
172.725464 156.0
172.762085 176.0
172.898148 164.0
172.916473 152.0
172.973694 172.0
173.000229 524.0
173.081772 196.0
173.112823 164.0
173.191391 160.0
173.214966 164.0
173.235916 172.0
173.327621 172.0
173.387894 180.0
173.408859 164.0
173.539871 164.0
173.587128 148.0
173.660568 152.0
173.882065 168.0
173.967575 208.0
174.059372 236.0
174.217056 172.0
174.313873 268.0
174.469345 208.0
174.63501 156.0
174.69722 184.0
174.740234 156.0
174.787582 140.0
174.884964 168.0
174.945511 144.0
174.985001 140.0
175.110046 212.0
175.237839 172.0
175.279999 140.0
175.411774 144.0
175.432861 168.0
175.49086 152.0
175.527786 244.0
175.604263 164.0
175.840439 164.0
175.873383 180.0
176.08461 148.0
176.21669 160.0
176.369431 180.0
176.43869 180.0
176.647614 144.0
176.722305 104.0
176.758728 156.0
176.944016 164.0
176.967834 252.0
177.018158 172.0
177.218933 176.0
177.381119 148.0
177.450058 192.0
177.637115 180.0
177.717941 184.0
177.744476 180.0
177.804489 176.0
177.826736 176.0
177.856873 200.0
177.934006 216.0
178.007568 144.0
178.102875 188.0
178.137405 216.0
178.276917 168.0
178.32341 228.0
178.392517 192.0
178.411133 172.0
178.462753 164.0
178.575989 212.0
178.713486 176.0
178.853363 232.0
178.908615 156.0
179.049728 140.0
179.124313 188.0
179.166122 196.0
179.276184 144.0
179.342819 152.0
179.411087 144.0
179.442245 188.0
179.469727 192.0
179.548111 168.0
179.661026 148.0
179.680847 152.0
179.97908 216.0
180.170044 180.0
180.21814 172.0
180.242188 156.0
180.335724 172.0
180.406525 188.0
180.453339 224.0
180.514847 260.0
180.641586 176.0
180.776993 156.0
180.873352 152.0
180.932236 168.0
180.953659 144.0
181.068802 244.0
181.095596 184.0
181.185608 132.0
181.214813 128.0
181.283127 144.0
181.468079 168.0
181.88121 188.0
181.972672 172.0
182.074524 140.0
182.267944 184.0
182.359314 188.0
182.384079 152.0
182.515244 164.0
182.668533 144.0
182.757324 192.0
182.8246 160.0
183.231186 216.0
183.39679 168.0
183.487228 192.0
183.570816 248.0
183.622757 184.0
183.746811 144.0
183.786606 152.0
183.824387 156.0
183.851791 176.0
183.879883 208.0
183.902649 172.0
183.926407 200.0
183.997131 148.0
184.066086 112.0
184.275314 152.0
184.325211 180.0
184.395981 200.0
184.479111 212.0
184.560745 184.0
184.635559 148.0
184.837723 224.0
185.024475 180.0
185.071106 844.0
185.136368 112.0
185.171188 180.0
185.244583 160.0
185.279694 168.0
185.390137 168.0
185.423599 124.0
185.457901 184.0
185.533722 144.0
185.609894 348.0
185.66069 296.0
185.691666 284.0
185.72226 176.0
185.771698 260.0
185.84491 332.0
185.889923 300.0
185.910004 340.0
185.93808 248.0
185.968811 288.0
186.026581 624.0
186.048157 392.0
186.07959 231744.0
186.17662 108.0
186.269943 344.0
186.323425 284.0
186.359512 136.0
186.387848 264.0
186.41684 176.0
186.461594 160.0
186.498047 248.0
186.52533 5216.0
186.599213 112.0
186.678864 216.0
186.753372 348.0
186.792694 196.0
186.84494 104.0
186.921204 124.0
186.950867 368.0
186.985733 152.0
187.015808 268.0
187.081177 32344.0
187.151505 132.0
187.182129 148.0
187.206146 152.0
187.365433 264.0
187.407852 172.0
187.450211 116.0
187.593658 116.0
187.658386 212.0
187.68483 100.0
187.72995 140.0
187.867752 164.0
187.929581 132.0
187.96608 96.0
188.03064 252.0
188.083008 1312.0
188.149139 196.0
188.252121 96.0
188.296249 240.0
188.360092 200.0
188.409973 212.0
188.45961 124.0
188.49614 260.0
188.521942 168.0
188.561157 540.0
188.627792 116.0
188.65657 248.0
188.71106 148.0
188.83577 140.0
189.047516 176.0
189.075272 284.0
189.23439 164.0
189.270615 120.0
189.505264 180.0
189.554855 176.0
189.600388 136.0
189.658981 200.0
189.75148 192.0
189.917328 100.0
189.979904 124.0
190.075134 212.0
190.150833 164.0
190.182724 140.0
190.311188 260.0
190.484207 156.0
190.567413 152.0
190.816742 148.0
190.879974 156.0
190.995483 220.0
191.067902 148.0
191.207352 224.0
191.432846 184.0
191.595596 168.0
191.631332 144.0
191.853882 208.0
192.042023 264.0
192.15802 176.0
192.293243 184.0
192.39537 168.0
192.666016 176.0
193.03363 180.0
193.288116 148.0
193.382004 168.0
193.847473 292.0
193.872421 140.0
194.078964 140.0
194.205109 216.0
194.82135 100.0
194.871368 176.0
194.940826 148.0
195.057556 176.0
195.171555 216.0
195.266098 140.0
195.402405 188.0
195.425354 96.0
195.535965 148.0
195.591644 216.0
195.627823 188.0
195.647308 184.0
195.897949 160.0
196.062332 196.0
196.233231 156.0
196.34671 144.0
196.385757 180.0
196.689896 160.0
196.858841 188.0
196.882538 228.0
197.081787 344.0
197.117203 152.0
197.248566 200.0
197.63353 104.0
197.689529 128.0
197.750732 120.0
197.824814 144.0
197.864014 220.0
197.887604 188.0
197.933151 184.0
197.987808 176.0
198.044495 160.0
198.078842 15216.0
198.206879 108.0
198.286835 216.0
198.360504 124.0
198.59259 140.0
198.808624 184.0
199.08194 1412.0
199.33252 100.0
199.412384 304.0
199.607178 148.0
200.096008 192.0
200.287506 140.0
200.319778 140.0
200.47345 180.0
200.583801 180.0
200.631546 180.0
200.666382 124.0
200.746902 196.0
200.808945 176.0
200.966919 144.0
201.251999 148.0
201.308472 172.0
201.452515 156.0
201.636169 152.0
201.732285 156.0
201.867996 160.0
202.193329 144.0
202.223053 144.0
202.457565 156.0
202.56424 156.0
202.686066 164.0
202.824936 176.0
203.383057 184.0
203.460373 232.0
203.695724 156.0
204.553406 132.0
204.959274 160.0
205.005524 224.0
205.11554 164.0
205.204391 192.0
205.238617 168.0
205.321304 168.0
205.396606 180.0
205.725098 144.0
205.919037 184.0
205.945358 148.0
206.229233 212.0
206.43222 188.0
206.621002 172.0
206.775513 148.0
207.033173 160.0
207.919037 180.0
208.087326 192.0
208.121124 192.0
208.19371 172.0
208.562393 196.0
208.709015 144.0
209.293121 144.0
209.49762 240.0
209.549469 168.0
209.838562 276.0
209.955917 140.0
210.076828 200.0
210.096024 328.0
210.20401 156.0
210.689224 228.0
210.86644 220.0
210.923141 260.0
210.954941 188.0
211.117798 172.0
211.361374 152.0
211.550873 240.0
211.797012 264.0
211.840454 192.0
212.011414 156.0
212.060684 156.0
212.093369 228.0
212.141846 192.0
212.37381 144.0
212.539185 140.0
212.57988 144.0
212.78299 188.0
212.817825 192.0
212.846863 180.0
213.133331 196.0
213.245255 120.0
213.36113 172.0
213.675232 144.0
213.718948 144.0
213.746704 156.0
214.074005 164.0
214.304123 168.0
214.592667 228.0
214.970642 188.0
215.050659 156.0
215.13063 336.0
215.285355 124.0
215.392288 200.0
215.415665 156.0
215.702042 148.0
215.996796 140.0
216.139252 160.0
216.228516 168.0
216.278275 232.0
216.377808 212.0
216.483215 140.0
216.587952 176.0
216.629669 168.0
216.8172 180.0
216.998932 212.0
217.063446 204.0
217.37439 216.0
217.491776 172.0
218.264435 144.0
218.290894 176.0
218.546814 188.0
218.637177 208.0
218.732208 196.0
218.841141 172.0
218.897095 204.0
219.097565 120.0
219.38913 192.0
219.408401 168.0
219.674561 172.0
219.805008 204.0
220.082184 128.0
220.168106 156.0
220.436935 168.0
220.930389 116.0
220.94162 104.0
221.084686 144.0
221.31662 212.0
222.029617 200.0
222.086853 364.0
222.270599 204.0
223.042084 192.0
223.106644 156.0
223.241272 172.0
223.366837 128.0
223.408081 152.0
223.520905 212.0
223.68161 140.0
223.744125 172.0
223.941727 168.0
224.091583 256.0
224.117859 196.0
224.205826 148.0
224.27272 180.0
224.3638 212.0
224.622711 264.0
225.041061 160.0
225.55191 180.0
225.622238 168.0
225.69841 240.0
225.725311 140.0
225.877411 128.0
226.108948 272.0
226.656265 144.0
226.67984 124.0
226.769043 196.0
226.982986 168.0
227.102768 128.0
227.156937 176.0
227.255951 144.0
227.363968 164.0
227.42099 172.0
227.631149 272.0
227.871445 152.0
227.955582 144.0
228.000656 180.0
228.04274 148.0
228.193039 172.0
228.27478 152.0
228.55397 144.0
228.659302 192.0
229.074814 244.0
229.388214 196.0
229.879837 160.0
230.035156 140.0
230.199829 148.0
230.483765 256.0
231.084167 128.0
231.565598 172.0
231.709167 140.0
231.975845 340.0
232.081955 144.0
232.30336 196.0
232.47934 220.0
232.700928 164.0
232.822388 208.0
232.904388 164.0
233.041092 140.0
233.071487 156.0
233.129211 164.0
233.2052 172.0
233.640045 144.0
233.715408 212.0
233.746536 140.0
233.843918 156.0
233.936935 164.0
234.133148 180.0
234.168198 176.0
234.203201 172.0
234.291962 144.0
234.445267 212.0
235.014114 192.0
235.093811 104.0
235.468964 172.0
235.498138 224.0
235.588776 196.0
235.668091 192.0
236.011337 232.0
236.860657 240.0
237.08432 184.0
237.271301 204.0
237.295822 224.0
237.387802 204.0
237.48288 176.0
237.538239 164.0
237.594727 144.0
237.782242 148.0
237.838806 168.0
237.933975 224.0
238.108002 1464.0
238.53302 156.0
238.858963 204.0
238.902039 148.0
239.018112 176.0
239.111221 400.0
239.194382 192.0
239.422226 168.0
239.711792 192.0
239.83815 168.0
239.909058 180.0
240.111069 128.0
240.479721 140.0
240.568283 208.0
241.114639 212.0
241.505524 232.0
241.573563 164.0
242.032578 168.0
242.067139 140.0
242.251511 192.0
242.474609 176.0
242.725723 168.0
242.772232 168.0
243.110382 188.0
243.144516 144.0
243.183167 184.0
243.287292 176.0
243.336044 160.0
243.408386 160.0
243.61026 176.0
243.64444 172.0
243.847168 148.0
243.896149 160.0
243.987411 168.0
244.023254 212.0
244.165863 240.0
244.776596 140.0
244.88559 168.0
244.991501 184.0
245.081848 160.0
245.25325 160.0
245.356125 172.0
245.443436 196.0
245.630554 148.0
245.721024 208.0
245.82399 152.0
245.911377 180.0
245.992538 180.0
246.139267 184.0
246.164261 148.0
246.364151 148.0
246.689148 148.0
247.358582 180.0
247.582748 188.0
247.682068 172.0
247.746902 232.0
248.405212 156.0
248.469528 184.0
248.568359 192.0
248.736877 104.0
249.113724 288.0
249.290619 200.0
249.383759 184.0
249.419479 160.0
249.448883 124.0
249.526352 172.0
250.080002 160.0
250.119553 180.0
250.218521 204.0
250.514557 156.0
250.766632 188.0
250.794998 184.0
250.92424 140.0
250.974686 156.0
251.154449 192.0
251.520477 180.0
251.548889 176.0
251.921707 136.0
251.962585 144.0
252.026199 148.0
252.124588 104.0
252.322876 144.0
252.474655 176.0
252.737213 228.0
252.825821 152.0
252.974228 220.0
253.126801 104.0
253.275406 268.0
253.392609 240.0
253.59285 172.0
253.677841 140.0
253.727325 164.0
253.868073 148.0
253.928329 140.0
254.290024 220.0
254.400589 144.0
254.87117 172.0
255.01561 152.0
255.227173 180.0
255.46489 200.0
255.67186 132.0
255.86351 148.0
255.904907 160.0
256.099152 164.0
256.204285 192.0
256.264801 152.0
256.433716 188.0
256.704681 184.0
256.752533 140.0
257.020477 176.0
257.524902 156.0
257.933899 140.0
257.978638 156.0
258.074554 164.0
258.148102 140.0
258.388 144.0
258.898834 188.0
259.246674 236.0
259.3703 172.0
259.646851 168.0
259.864838 180.0
259.95163 180.0
260.160248 180.0
260.197357 108.0
260.620117 156.0
260.648438 172.0
260.725586 156.0
260.976318 156.0
261.043823 164.0
261.124237 168.0
261.146759 192.0
261.236816 152.0
261.336548 168.0
261.68277 176.0
261.729248 204.0
262.212463 172.0
262.251129 152.0
262.699341 168.0
262.726898 272.0
262.815491 168.0
262.986511 144.0
263.080139 168.0
263.132568 252.0
263.160858 152.0
263.315857 160.0
263.516113 164.0
263.571045 140.0
263.728394 216.0
263.955719 164.0
264.067383 204.0
264.127136 148.0
264.39566 156.0
264.476593 148.0
264.541168 200.0
264.674072 176.0
264.972046 164.0
265.06601 196.0
265.140564 172.0
265.256012 160.0
265.360962 148.0
265.474457 160.0
265.652863 224.0
265.755981 172.0
265.782623 196.0
265.861847 136.0
265.899445 152.0
266.139313 1744.0
267.142731 264.0
267.189484 164.0
267.397736 196.0
267.749359 164.0
267.821014 228.0
267.852722 128.0
267.918732 140.0
267.975464 96.0
268.107727 200.0
268.410889 176.0
268.538086 160.0
268.697906 172.0
268.795227 204.0
269.167938 144.0
269.723328 140.0
269.841003 144.0
270.089569 192.0
270.256409 164.0
270.312012 152.0
270.469116 204.0
270.593506 152.0
270.711395 144.0
270.734314 216.0
270.818848 168.0
270.940674 152.0
270.97345 148.0
271.016022 164.0
271.297882 200.0
271.369781 104.0
272.068542 128.0
272.683105 176.0
272.746948 160.0
272.924042 96.0
272.975677 168.0
273.428284 104.0
273.818176 252.0
274.108063 188.0
274.275513 156.0
274.355255 144.0
274.384949 188.0
274.440979 184.0
274.721313 144.0
274.981995 172.0
275.074432 176.0
275.123932 240.0
275.222992 188.0
275.827576 176.0
276.006104 240.0
276.318787 192.0
276.426178 176.0
276.568695 208.0
276.598297 208.0
276.629333 148.0
276.688965 176.0
276.714172 160.0
277.071838 208.0
277.095032 152.0
277.254089 148.0
277.41983 140.0
277.506012 200.0
277.595551 144.0
277.784607 180.0
278.355469 144.0
278.671021 184.0
278.820557 144.0
278.983429 208.0
279.685303 152.0
279.775177 188.0
279.851746 144.0
279.938324 176.0
280.463837 148.0
280.5914 168.0
280.621429 152.0
281.209656 144.0
281.241913 144.0
281.307465 220.0
281.434631 160.0
281.722748 208.0
281.749481 160.0
282.013489 172.0
282.317719 316.0
282.381256 212.0
282.702423 192.0
282.899902 236.0
282.989044 200.0
283.080719 220.0
283.357971 196.0
283.573181 192.0
283.62088 224.0
283.717316 184.0
283.973358 252.0
284.223785 208.0
284.962463 184.0
285.016205 144.0
285.675201 212.0
285.732391 164.0
285.856873 152.0
286.001587 140.0
286.048706 192.0
286.210327 176.0
286.671997 144.0
286.802887 144.0
286.958313 144.0
287.015656 236.0
287.124878 220.0
287.265228 240.0
287.325928 144.0
287.423798 164.0
287.490997 140.0
287.548645 192.0
287.80426 172.0
287.869354 148.0
287.930145 156.0
288.024719 152.0
288.058502 188.0
288.18689 204.0
288.217285 140.0
288.338959 180.0
288.789062 196.0
288.986603 164.0
289.038971 144.0
289.120178 164.0
289.441254 132.0
289.631439 140.0
289.990601 188.0
290.141876 172.0
290.258423 204.0
291.341125 184.0
291.41925 188.0
291.497406 176.0
291.541595 192.0
291.680542 164.0
291.738739 144.0
291.925751 196.0
291.98877 208.0
292.225067 172.0
292.456482 188.0
292.547363 172.0
292.895721 148.0
293.093323 224.0
293.242767 216.0
293.301727 128.0
293.427338 176.0
293.485291 180.0
293.529633 168.0
293.908264 152.0
294.177887 172.0
294.266632 156.0
294.526184 140.0
294.64917 144.0
294.758514 180.0
294.824341 164.0
295.113983 168.0
295.148193 160.0
295.257599 148.0
295.504517 176.0
295.572327 140.0
295.627502 160.0
295.698395 168.0
296.130341 168.0
296.210846 144.0
296.377014 208.0
296.57077 184.0
296.764313 152.0
296.862366 148.0
297.018097 204.0
297.536285 160.0
297.59256 180.0
297.711395 164.0
297.877991 248.0
297.944977 144.0
297.989624 168.0
298.253113 200.0
298.395172 164.0
298.515533 160.0
298.74942 168.0
298.852631 156.0
298.973083 176.0
299.117523 136.0
299.379303 200.0
299.523956 148.0
299.575623 152.0
299.968475 156.0
300.093414 180.0
301.048401 180.0
301.138184 168.0
301.169281 168.0
301.248718 184.0
301.36618 180.0
301.535522 184.0
301.862305 184.0
302.202942 232.0
302.295776 200.0
302.396729 172.0
302.434784 156.0
302.566345 168.0
302.722015 192.0
302.814178 160.0
302.969849 140.0
303.099396 200.0
303.19574 152.0
303.285461 216.0
303.31546 128.0
303.373535 164.0
303.408203 148.0
303.761719 140.0
303.862518 164.0
303.938873 172.0
304.00827 144.0
304.101257 156.0
304.240265 152.0
304.251678 128.0
304.551697 156.0
304.662048 108.0
304.729736 140.0
304.798065 152.0
304.834747 140.0
304.91391 216.0
304.984192 184.0
305.063232 196.0
305.098389 108.0
305.152374 400.0
305.2565 124.0
305.314484 256.0
305.427795 324.0
305.480743 140.0
305.544373 140.0
305.590942 144.0
305.617554 128.0
305.630646 120.0
305.662537 332.0
305.71109 224.0
305.765717 360.0
305.835968 200.0
305.941284 236.0
305.98114 204.0
306.067291 204.0
306.113037 368.0
306.164337 288.0
306.210999 104.0
306.269348 116.0
306.305023 364.0
306.378052 240.0
306.435242 196.0
306.484467 308.0
306.555206 152.0
306.614838 324.0
306.675018 268.0
306.726013 520.0
306.763062 300.0
306.829834 344.0
306.905396 108.0
306.940155 280.0
306.986664 168.0
307.030853 400.0
307.043396 320.0
307.086273 864.0
307.169098 277128.0
307.271667 312.0
307.290527 272.0
307.340668 228.0
307.409363 352.0
307.45166 212.0
307.49057 848.0
307.518555 320.0
307.528839 548.0
307.560242 324.0
307.637787 224.0
307.696259 396.0
307.743317 9268.0
307.798889 384.0
307.849243 276.0
307.920898 172.0
307.988708 312.0
308.025055 312.0
308.052826 368.0
308.098785 332.0
308.170349 98620.0
308.262756 260.0
308.307068 192.0
308.367279 588.0
308.494781 204.0
308.534485 192.0
308.566406 312.0
308.615356 156.0
308.667114 172.0
308.692627 216.0
308.741882 212.0
308.857117 140.0
308.926819 260.0
309.055542 384.0
309.172455 8148.0
309.25946 220.0
309.476196 120.0
309.527618 120.0
309.594879 176.0
309.64801 200.0
309.724884 120.0
309.782349 184.0
309.861389 100.0
309.889801 232.0
309.936218 176.0
310.00235 172.0
310.01532 268.0
310.026581 196.0
310.077362 200.0
310.175873 952.0
310.237183 428.0
310.308868 280.0
310.342804 400.0
310.394348 420.0
310.458588 272.0
310.696564 152.0
310.846588 244.0
310.91153 112.0
311.020874 104.0
311.063171 140.0
311.148224 156.0
311.310028 216.0
311.379974 228.0
311.500305 148.0
311.627838 104.0
312.090515 156.0
312.611145 100.0
314.900208 160.0
315.087433 148.0
315.793182 104.0
318.815063 164.0
319.102966 244.0
320.644318 144.0
321.011536 104.0
321.37439 116.0
321.621613 168.0
324.110718 156.0
325.181122 372.0
326.179718 112.0
327.815521 164.0
358.347473 140.0
388.973694 148.0
408.220703 152.0
422.187653 140.0
590.110901 144.0
619.397766 144.0
681.174072 148.0
752.838562 140.0
824.813843 156.0
847.172485 104.0
957.694824 172.0
963.746704 188.0
985.300171 180.0
1083.506958 160.0
1107.088135 204.0
1133.461426 228.0
1162.145874 140.0
1164.970093 168.0
1215.817627 148.0
1230.875122 204.0
1240.375977 144.0
1254.850952 212.0
1266.369629 180.0
1288.485718 164.0
1292.275024 156.0
1303.920654 288.0
1312.768433 160.0
1331.483276 176.0
1333.997314 156.0
1338.668335 144.0
1350.118408 192.0
1369.943726 184.0
1386.287354 184.0
1387.88855 200.0
1399.961914 188.0
1403.786743 172.0
1410.521118 160.0
1414.440796 156.0
1415.646118 176.0
1415.87085 236.0
1419.138062 172.0
1430.791016 176.0
1431.046997 236.0
1440.685547 140.0
1441.350342 208.0
1444.790527 152.0
1452.934692 160.0
1453.306396 156.0
1457.277466 168.0
1460.873413 160.0
1461.550659 152.0
1464.938599 248.0
1473.89563 144.0
1476.372314 220.0
1476.578857 144.0
1477.007202 164.0
1486.192749 196.0
1486.883423 152.0
1492.176025 168.0
1493.245117 148.0
1499.088135 172.0
1503.892944 192.0
1509.215698 140.0
1510.200562 204.0
1511.056396 160.0
1512.50354 172.0
1516.314331 156.0
1517.035156 164.0
1517.57019 160.0
1518.702393 164.0
1521.953979 172.0
1524.890503 160.0
1529.004761 168.0
1543.585083 196.0
1548.178711 152.0
1553.320312 180.0
1558.596191 152.0
1570.641479 188.0
1571.162109 200.0
1571.461914 144.0
1584.07959 156.0
1584.911377 180.0
1586.924683 172.0
1587.995239 140.0
1589.185181 152.0
1589.296265 164.0
1598.004517 144.0
1601.889526 180.0
1602.439209 164.0
1605.109619 128.0
1613.732788 196.0
1617.580933 164.0
1619.214355 188.0
1625.86853 212.0
1628.140625 192.0
1634.225708 160.0
1634.37854 204.0
1639.878906 140.0
1640.822021 184.0
1641.047729 176.0
1642.370361 220.0
1643.838623 152.0
1644.113037 232.0
1649.15271 156.0
1650.519043 148.0
1650.834351 164.0
1651.085083 152.0
1652.921387 180.0
1653.512207 140.0
1654.402588 180.0
1656.678223 160.0
1657.221069 168.0
1657.528931 184.0
1657.739624 156.0
1659.758057 188.0
1668.421143 156.0
1669.047241 164.0
1669.136719 176.0
1672.480347 156.0
1677.001831 188.0
1680.825806 168.0
1680.94812 192.0
1683.184814 188.0
1687.678833 160.0
1689.003784 144.0
1693.460693 124.0
1693.612061 208.0
1693.882324 184.0
1695.209595 208.0
1698.128296 188.0
1698.578979 148.0
1702.494385 176.0
1704.038696 212.0
1705.295898 156.0
1707.260864 224.0
1708.478271 148.0
1708.889526 140.0
1709.259888 152.0
1710.963623 184.0
1712.272827 188.0
1714.62915 152.0
1715.173096 196.0
1716.327271 172.0
1716.813843 152.0
1717.0448 192.0
1718.546143 180.0
1719.197998 148.0
1722.657471 156.0
1724.475342 192.0
1724.698608 148.0
1725.550049 168.0
1726.484375 220.0
1726.782104 140.0
1727.692017 188.0
1729.338745 180.0
1730.597046 156.0
1731.209839 152.0
1731.922119 216.0
1733.985107 168.0
1734.067993 196.0
1736.895386 192.0
1750.042725 160.0
1752.999756 164.0
1756.768433 168.0
1760.098511 200.0
1761.242676 164.0
1763.064087 148.0
1765.062012 244.0
1766.257935 144.0
1767.311279 228.0
1769.253784 144.0
1772.30249 152.0
1772.402954 248.0
1772.595703 156.0
1775.88208 160.0
1776.351807 204.0
1777.870483 156.0
1782.430298 160.0
1782.682373 176.0
1788.704346 212.0
1789.125366 180.0
1789.765137 156.0
1792.662842 176.0
1796.080444 100.0
1796.305176 216.0
1796.440186 144.0
1797.005371 168.0
1797.815552 168.0
1798.98877 140.0
1800.331177 188.0
1800.669067 144.0
1801.898193 272.0
1804.725342 152.0
1807.186646 200.0
1808.413696 140.0
1809.327881 224.0
1810.49646 144.0
1810.716675 152.0
1812.182129 168.0
1813.834717 176.0
1817.676636 180.0
1820.766724 224.0
1825.092041 164.0
1830.997803 168.0
1833.098267 196.0
1833.315063 148.0
1834.54248 220.0
1835.369507 140.0
1839.336548 216.0
1840.361084 140.0
1841.018555 168.0
1845.33374 196.0
1849.636841 168.0
1850.004883 172.0
1850.111694 128.0
1851.674683 168.0
1854.804932 208.0
1855.222046 152.0
1856.370972 164.0
1857.383057 148.0
1858.446777 176.0
1860.051636 196.0
1861.089233 196.0
1861.760254 164.0
1862.851074 176.0
1864.741455 180.0
1865.23999 192.0
1865.411865 196.0
1866.916504 160.0
1868.27063 232.0
1868.791748 236.0
1870.64209 228.0
1871.115601 180.0
1871.48584 144.0
1872.941284 188.0
1873.940552 220.0
1874.672974 168.0
1880.14917 216.0
1880.442627 160.0
1881.089966 148.0
1882.929077 160.0
1883.265869 176.0
1883.430054 144.0
1884.77771 184.0
1885.088867 152.0
1885.242188 188.0
1885.451782 152.0
1886.022217 140.0
1886.575439 228.0
1889.599243 152.0
1890.425049 160.0
1890.77063 176.0
1891.947754 212.0
1893.896118 180.0
1893.956787 172.0
1896.833618 168.0
1898.579956 136.0
1899.270142 156.0
1899.834106 208.0
1900.484741 160.0
1900.753784 220.0
1902.480957 140.0
1902.654541 156.0
1904.069946 200.0
1906.285156 156.0
1906.589355 212.0
1906.937012 176.0
1908.171387 196.0
1908.658325 188.0
1909.397461 196.0
1912.146729 152.0
1918.217773 144.0
1919.046021 144.0
1919.447021 148.0
1921.26123 224.0
1923.381714 272.0
1929.444336 160.0
1929.575439 152.0
1930.038818 204.0
1931.60437 248.0
1932.689209 148.0
1932.837891 148.0
1933.28418 140.0
1934.474609 176.0
1935.779175 200.0
1935.901733 204.0
1937.364502 144.0
1937.513428 160.0
1939.713013 152.0
1941.431519 156.0
1943.396362 164.0
1944.282715 156.0
1944.352905 212.0
1947.144775 160.0
1950.061646 204.0
1951.213257 272.0
1958.127686 176.0
1958.455566 144.0
1958.675781 156.0
1959.116211 168.0
1960.728638 176.0
1962.430054 156.0
1964.32605 144.0
1966.05542 152.0
1968.64209 268.0
1969.159912 144.0
1970.099487 144.0
1970.984253 144.0
1971.460205 204.0
1971.981567 212.0
1973.599365 172.0
1973.714233 208.0
1974.262573 184.0
1975.129272 152.0
1979.598755 144.0
1980.103638 184.0
1981.441162 156.0
1983.75415 248.0
1984.685059 184.0
1985.35022 168.0
1988.193359 164.0
1989.964355 184.0
1993.810669 148.0
1994.483398 188.0
1996.273193 204.0
1998.21228 140.0
2000.063354 180.0
2002.25354 208.0
