>compound Loratadine
>formula C22H23ClN2O2 
>ionization [M+H]+
>parentmass 383.154053
#inchi InChI=1S/C22H23ClN2O2/c1-2-27-22(26)25-12-9-15(10-13-25)20-19-8-7-18(23)14-17(19)6-5-16-4-3-11-24-21(16)20/h3-4,7-8,11,14H,2,5-6,9-10,12-13H2,1H3
#inchikey JCCNYMKQOSZNPW
#Ion_Source LC-ESI
#Instrument qTof
#Compound_Source Isolated
#PI Sirenas
#Data_Collector Ed Esquenazi 
#Scan -1
#Precursor_MZ 383.153
#ExactMass 0.0
#Charge 1
#CAS_Number N/A
#Pubmed_ID N/A
#Smiles N/A
#INCHI_AUX N/A
#Library_Class 3
#SpectrumID CCMSLIB00000006533
#IonMode Positive
#UpdateWorkflowName UPDATE-SINGLE-ANNOTATED-BRONZE
#LibraryQualityString Bronze
#TaskID d19310cd93df49b68e9fcbec27720eb5
##Scan# 14
#SpectrumFile Loratadine.mgf
#LibraryName fda_library.mgf
#MQScore -1
#Organism fda_library
#TIC_Query 0
#RT_Query -1
#MZErrorPPM -1
#SharedPeaks 0
#MassDiff 0
#LibMZ -1
#SpecMZ 383.153
#SpecCharge 0
#internalFilename spec-00000.mgf

>collision 10
224.62088 19.125
225.656891 24.00403
226.043427 575.259277
226.560654 39.14286
226.69281 9.008333
227.048813 1829.662964
227.242813 92.088768
227.31131 23.055559
227.348297 69.320053
227.503494 21.44643
227.552658 41.0
227.579254 52.120762
227.809921 39.259621
227.904388 25.0
227.925034 28.2663
229.111984 27.125
232.114716 133.068893
267.076324 62.02
272.495331 14.28571
282.114288 102.028603
293.105988 29.560181
294.104156 144.453094
311.124023 64.242813
335.168671 6.625
335.193298 13.16346
335.611298 109.071404
337.067291 115.916603
337.111633 3912.779053
337.185333 14.8
337.211975 5.041667
337.276917 67.120102
337.34079 30.004999
337.412567 14.00833
337.436951 103.207603
337.717926 8.013889
337.87851 13.78125
365.201691 259.205811
380.66745 21.02273
380.798187 62.529499
383.154053 2031.322998
383.360077 39.336109
383.531219 19.049999
383.639038 42.172871
383.699646 26.14286
383.729248 11.66667
383.837036 15.13587
383.918823 14.13587
384.386841 12.33333
384.443878 29.142441
384.539368 34.002449
384.594116 51.028568
384.621399 17.25
868.566223 21.004629
