>compound MLS001140556-01!
>formula C24H23N3O2
>ionization [M+H]+
>parentmass 386.18811
#inchi InChI=1S/C24H23N3O2/c1-15-8-10-16(11-9-15)22-23-19(18-6-2-3-7-20(18)26-23)13-21(27-22)24(28)25-14-17-5-4-12-29-17/h2-3,6-11,13,17,27H,4-5,12,14H2,1H3,(H,25,28)
#inchikey NBONCKXCKGSEAW
#Ion_Source LC-ESI
#Instrument qTof
#Compound_Source NIH Natural Product Library
#PI Dorrestein
#Data_Collector VVP/LMS
#Scan -1
#Precursor_MZ 386.187
#ExactMass 385.179
#Charge 1
#CAS_Number N/A
#Pubmed_ID N/A
#Smiles Cc1ccc(cc1)c2[nH]c(cc3c4ccccc4nc23)C(=O)NCC5CCCO5
#INCHI_AUX N/A
#Library_Class 1
#SpectrumID CCMSLIB00000080035
#IonMode Positive
#UpdateWorkflowName UPDATE-SINGLE-ANNOTATED-GOLD
#LibraryQualityString Gold
#TaskID b1d8e8f6646f4e71acdff9ca3d919d08
##Scan# 2467
#SpectrumFile p2-C03_GC3_01_18003.mzXML
#LibraryName NIH_Natural_Products_Library.mgf
#MQScore -1
#Organism NIH_Natural_Products_Library
#TIC_Query 0
#RT_Query -1
#MZErrorPPM -1
#SharedPeaks 0
#MassDiff 0
#LibMZ -1
#SpecMZ 386.187
#SpecCharge 0
#internalFilename spec-00000.mgf

>collision 10
94.957489 108.0
94.979309 176.0
94.987389 136.0
94.993645 244.0
95.000565 156.0
95.015068 228.0
95.041687 264.0
95.062477 184.0
95.078506 144.0
95.093719 160.0
95.124588 136.0
95.154549 216.0
95.180565 188.0
95.185768 200.0
95.221588 140.0
95.23497 192.0
95.248749 136.0
95.28627 188.0
95.294266 80.0
95.298141 248.0
95.328972 84.0
95.34462 128.0
95.372772 172.0
95.400963 260.0
95.40448 184.0
95.412209 164.0
95.434143 312.0
95.459679 212.0
95.499207 232.0
95.514404 316.0
95.56221 376.0
95.57029 288.0
95.57756 340.0
95.612167 104.0
95.635742 144.0
95.658455 144.0
95.67247 76.0
95.693268 316.0
95.715103 172.0
95.735573 156.0
95.755264 344.0
95.768394 236.0
95.799843 160.0
95.824783 300.0
95.840698 260.0
95.882622 176.0
95.896896 272.0
95.912437 244.0
95.939499 320.0
95.970703 108.0
95.99247 352.0
96.021004 168.0
96.042572 108.0
96.062195 112.0
96.079056 176.0
96.104424 188.0
96.121147 176.0
96.138054 136.0
96.161072 248.0
96.200729 216.0
96.225426 288.0
96.241905 200.0
96.259598 152.0
96.291443 268.0
96.312057 452.0
96.340652 312.0
96.367508 200.0
96.393402 112.0
96.407082 268.0
96.424675 372.0
96.448227 252.0
96.469955 108.0
96.496536 248.0
96.527473 436.0
96.555916 124.0
96.573166 176.0
96.592873 324.0
96.628036 128.0
96.6427 152.0
96.659737 180.0
96.674995 148.0
96.688698 64.0
96.716095 152.0
96.752357 420.0
96.772186 60.0
96.786575 136.0
96.821037 160.0
96.843987 316.0
96.860046 140.0
96.874352 112.0
96.904831 60.0
96.931244 184.0
96.954147 176.0
96.981133 360.0
96.99855 120.0
97.017548 84.0
97.043999 160.0
97.054283 108.0
97.073547 208.0
97.109131 188.0
97.123039 188.0
97.156136 132.0
97.210823 268.0
97.233566 200.0
97.256096 200.0
97.276703 144.0
97.313972 148.0
97.368607 216.0
97.37838 92.0
97.388664 292.0
97.410233 64.0
97.425835 160.0
97.456116 404.0
97.484299 436.0
97.512405 172.0
97.527405 188.0
97.539787 112.0
97.567253 124.0
97.596939 60.0
97.618973 116.0
97.652725 184.0
97.671928 428.0
97.69017 208.0
97.719917 384.0
97.776871 128.0
97.82753 192.0
97.85862 156.0
97.913757 124.0
97.945381 220.0
97.969727 160.0
97.999031 152.0
98.005951 124.0
98.013603 76.0
98.021965 112.0
98.02758 192.0
98.049698 96.0
98.070824 280.0
98.099823 120.0
98.125618 232.0
98.134262 120.0
98.138756 160.0
98.154175 72.0
98.191696 288.0
98.216415 100.0
98.246979 292.0
98.270546 260.0
98.294037 136.0
98.316338 156.0
98.333694 116.0
98.353287 176.0
98.381927 192.0
98.409615 148.0
98.422165 44.0
98.430916 108.0
98.450966 360.0
98.463448 172.0
98.479797 144.0
98.519302 128.0
98.546959 172.0
98.566902 128.0
98.571266 120.0
98.590141 272.0
98.603622 232.0
98.624031 104.0
98.642441 128.0
98.664627 148.0
98.698769 156.0
98.703674 112.0
98.737968 264.0
98.75769 260.0
98.771843 164.0
98.821785 88.0
98.841125 144.0
98.876152 236.0
98.920738 96.0
98.95002 192.0
98.974808 168.0
99.006981 316.0
99.024063 108.0
99.030571 136.0
99.056297 324.0
99.072693 224.0
99.094513 160.0
99.1119 84.0
99.126587 308.0
99.150719 180.0
99.175667 264.0
99.19239 264.0
99.205292 124.0
99.241066 156.0
99.270691 260.0
99.290276 140.0
99.321007 156.0
99.352081 204.0
99.368004 104.0
99.400757 40.0
99.420837 176.0
99.434494 200.0
99.464264 144.0
99.500793 180.0
99.527176 144.0
99.534721 200.0
99.552483 120.0
99.572067 140.0
99.62252 116.0
99.648552 264.0
99.668427 92.0
99.697029 152.0
99.724388 324.0
99.740112 188.0
99.767342 140.0
99.774277 108.0
99.788155 156.0
99.80323 156.0
99.823471 260.0
99.839638 152.0
99.865883 188.0
99.880554 160.0
99.892159 52.0
99.908707 212.0
99.945251 324.0
99.970032 136.0
99.974396 92.0
99.991425 244.0
100.016449 232.0
100.062233 176.0
100.087074 120.0
100.106041 152.0
100.13208 208.0
100.149918 244.0
100.165428 88.0
100.19104 212.0
100.205231 176.0
100.210617 160.0
100.228859 164.0
100.257149 220.0
100.271698 128.0
100.277977 184.0
100.294731 152.0
100.324951 188.0
100.345901 116.0
100.359215 252.0
100.394028 140.0
100.446854 116.0
100.472786 272.0
100.505577 128.0
100.538483 264.0
100.567436 184.0
100.573166 264.0
100.601601 184.0
100.625183 328.0
100.670815 272.0
100.694633 168.0
100.710327 84.0
100.739426 204.0
100.776657 120.0
100.812492 120.0
100.827164 140.0
100.857452 208.0
100.874268 172.0
100.923241 148.0
100.940071 204.0
100.956154 72.0
100.96048 196.0
100.976151 84.0
100.997063 176.0
101.012611 220.0
101.027725 344.0
101.053246 164.0
101.076958 348.0
101.111046 188.0
101.148552 132.0
101.173416 116.0
101.181755 64.0
101.201912 156.0
101.224297 112.0
101.239037 100.0
101.252724 144.0
101.296486 96.0
101.328896 236.0
101.353821 148.0
101.371498 224.0
101.399216 204.0
101.421181 160.0
101.449585 104.0
101.481369 292.0
101.493645 296.0
101.544319 168.0
101.567253 120.0
101.587921 128.0
101.607124 68.0
101.622505 156.0
101.648888 216.0
101.655479 96.0
101.662834 132.0
101.693413 136.0
101.722519 152.0
101.750954 120.0
101.772972 152.0
101.781075 96.0
101.806175 240.0
101.844894 188.0
101.871773 140.0
101.896225 176.0
101.911362 180.0
101.946671 380.0
101.966377 136.0
102.017876 408.0
102.048698 88.0
102.058441 184.0
102.077126 176.0
102.092751 308.0
102.122772 252.0
102.136574 136.0
102.162178 276.0
102.194328 156.0
102.231613 276.0
102.258179 224.0
102.274902 168.0
102.290382 128.0
102.312828 128.0
102.343803 60.0
102.359001 148.0
102.394348 196.0
102.421272 248.0
102.456909 196.0
102.477577 84.0
102.508301 60.0
102.527168 128.0
102.549622 108.0
102.588516 200.0
102.621941 280.0
102.640205 208.0
102.682396 280.0
102.695839 188.0
102.732033 316.0
102.762146 176.0
102.795876 168.0
102.803947 212.0
102.817787 144.0
102.83181 316.0
102.851059 208.0
102.874977 112.0
102.891121 80.0
102.921913 104.0
102.937561 108.0
102.958832 128.0
102.979973 128.0
103.001587 160.0
103.014313 264.0
103.039543 100.0
103.056648 160.0
103.076942 184.0
103.091629 184.0
103.109276 124.0
103.157784 172.0
103.187241 112.0
103.205322 176.0
103.228546 200.0
103.253265 140.0
103.28437 220.0
103.329681 92.0
103.346313 324.0
103.370316 48.0
103.390083 100.0
103.396233 144.0
103.402077 244.0
103.415443 152.0
103.454834 152.0
103.483498 176.0
103.51947 136.0
103.533432 164.0
103.540749 152.0
103.565819 308.0
103.580704 172.0
103.621223 100.0
103.639458 144.0
103.655853 172.0
103.677223 228.0
103.71666 236.0
103.749428 316.0
103.772179 116.0
103.793694 128.0
103.852577 144.0
103.89222 156.0
103.930641 364.0
103.945412 108.0
103.948509 96.0
103.958435 52.0
103.965927 112.0
104.022758 96.0
104.047119 124.0
104.067757 228.0
104.112099 180.0
104.129036 140.0
104.158432 196.0
104.176773 152.0
104.196884 172.0
104.224747 168.0
104.255417 80.0
104.279228 252.0
104.298805 180.0
104.301422 152.0
104.353386 268.0
104.369766 184.0
104.390503 160.0
104.406113 92.0
104.425461 188.0
104.432053 176.0
104.448822 272.0
104.472847 172.0
104.513008 160.0
104.552025 208.0
104.570992 164.0
104.602089 156.0
104.627914 332.0
104.654068 312.0
104.679939 152.0
104.701859 132.0
104.726433 120.0
104.761948 136.0
104.79467 96.0
104.82933 168.0
104.834335 140.0
104.843895 136.0
104.85215 228.0
104.857376 120.0
104.868355 148.0
104.906708 208.0
104.930077 248.0
104.969521 152.0
104.98513 132.0
105.003578 252.0
105.041458 156.0
105.066765 172.0
105.085083 164.0
105.112015 200.0
105.129967 128.0
105.151779 160.0
105.179199 168.0
105.203445 128.0
105.219009 116.0
105.237839 104.0
105.262367 140.0
105.266006 100.0
105.289207 124.0
105.311859 352.0
105.340271 108.0
105.370132 432.0
105.398262 108.0
105.413589 212.0
105.449501 148.0
105.466957 160.0
105.493271 352.0
105.516685 172.0
105.5392 176.0
105.584312 60.0
105.601898 76.0
105.619301 156.0
105.6427 92.0
105.677109 272.0
105.69191 88.0
105.698051 104.0
105.723167 292.0
105.73793 156.0
105.776619 92.0
105.780937 88.0
105.799942 148.0
105.836777 156.0
105.873718 256.0
105.921158 328.0
105.967094 268.0
105.996078 168.0
106.033112 216.0
106.063576 164.0
106.077461 156.0
106.111267 248.0
106.14254 140.0
106.175354 164.0
106.199814 108.0
106.211617 308.0
106.230354 172.0
106.263245 132.0
106.292633 140.0
106.316566 48.0
106.346725 136.0
106.370018 360.0
106.391273 332.0
106.408264 276.0
106.429626 136.0
106.432457 124.0
106.463631 136.0
106.492935 92.0
106.512878 184.0
106.554276 300.0
106.573586 140.0
106.59816 200.0
106.632973 120.0
106.641167 140.0
106.668518 104.0
106.692039 188.0
106.726128 176.0
106.744987 292.0
106.791565 220.0
106.820442 244.0
106.855263 60.0
106.884583 112.0
106.909821 280.0
106.947861 172.0
106.972168 284.0
107.002663 168.0
107.016594 204.0
107.032578 132.0
107.048744 132.0
107.081558 308.0
107.121361 416.0
107.149162 196.0
107.157578 148.0
107.171638 208.0
107.190208 136.0
107.204765 200.0
107.220779 228.0
107.251816 176.0
107.277328 144.0
107.311661 160.0
107.352493 156.0
107.372284 264.0
107.398895 164.0
107.405586 192.0
107.421791 188.0
107.443382 80.0
107.465111 92.0
107.495171 176.0
107.51786 228.0
107.543533 60.0
107.571739 192.0
107.591179 176.0
107.628304 128.0
107.663101 264.0
107.700783 176.0
107.733345 156.0
107.759712 64.0
107.794746 244.0
107.813705 132.0
107.8545 176.0
107.869568 104.0
107.877892 124.0
107.924431 220.0
107.938118 328.0
107.958595 148.0
107.996017 424.0
108.009514 168.0
108.024979 124.0
108.041985 104.0
108.056747 184.0
108.073555 216.0
108.095734 180.0
108.134392 296.0
108.153267 100.0
108.169296 308.0
108.194672 120.0
108.218719 144.0
108.273354 176.0
108.300278 308.0
108.315269 152.0
108.326324 216.0
108.333702 148.0
108.339317 104.0
108.356522 160.0
108.37616 88.0
108.394951 252.0
108.436966 176.0
108.46611 120.0
108.484459 140.0
108.512062 120.0
108.532379 144.0
108.548698 92.0
108.554672 80.0
108.568611 148.0
108.598633 428.0
108.627586 200.0
108.643631 148.0
108.667198 144.0
108.685944 120.0
108.706703 108.0
108.733521 100.0
108.765579 164.0
108.799988 132.0
108.806572 144.0
108.83532 112.0
108.867767 64.0
108.893028 172.0
108.931122 244.0
108.967079 176.0
108.999413 132.0
109.020271 168.0
109.042946 132.0
109.050064 128.0
109.0653 172.0
109.08548 148.0
109.107491 160.0
109.128647 136.0
109.155731 168.0
109.174881 104.0
109.194511 240.0
109.222656 132.0
109.247047 148.0
109.253937 172.0
109.259636 204.0
109.291092 116.0
109.309143 124.0
109.346153 124.0
109.368134 576.0
109.395958 192.0
109.42115 256.0
109.438011 208.0
109.466057 144.0
109.478928 140.0
109.502846 168.0
109.517044 176.0
109.549896 288.0
109.593346 144.0
109.61702 220.0
109.658585 144.0
109.695816 208.0
109.709808 160.0
109.747719 228.0
109.777939 184.0
109.794312 216.0
109.822845 308.0
109.842133 180.0
109.868011 152.0
109.902046 224.0
109.921875 112.0
109.948624 176.0
109.965179 204.0
109.986938 148.0
110.009155 220.0
110.030411 140.0
110.057396 160.0
110.08429 196.0
110.121567 116.0
110.139427 136.0
110.168243 132.0
110.182861 44.0
110.197487 44.0
110.219849 112.0
110.24012 220.0
110.265968 372.0
110.289436 172.0
110.311607 132.0
110.328789 208.0
110.364693 116.0
110.385353 176.0
110.409264 192.0
110.421898 124.0
110.443047 224.0
110.455437 72.0
110.462234 100.0
110.476768 292.0
110.496658 212.0
110.521729 136.0
110.575783 240.0
110.590469 160.0
110.609467 164.0
110.635063 284.0
110.647179 144.0
110.702667 128.0
110.720436 160.0
110.735092 112.0
110.771461 176.0
110.810371 124.0
110.832504 80.0
110.852219 172.0
110.881302 188.0
110.903625 156.0
110.931419 184.0
110.975189 172.0
111.022263 172.0
111.041084 84.0
111.074852 144.0
111.092781 112.0
111.108307 220.0
111.12722 264.0
111.147476 84.0
111.178192 216.0
111.215996 132.0
111.261673 176.0
111.313599 140.0
111.331306 248.0
111.349602 100.0
111.380608 128.0
111.386635 152.0
111.395393 148.0
111.419731 176.0
111.461205 272.0
111.479851 104.0
111.529701 356.0
111.589523 320.0
111.60321 140.0
111.608788 212.0
111.63121 172.0
111.66729 76.0
111.697868 172.0
111.715118 196.0
111.73848 128.0
111.793526 148.0
111.846397 84.0
111.875267 56.0
111.894218 120.0
111.920906 172.0
111.933449 76.0
111.966324 144.0
112.020576 88.0
112.048561 56.0
112.075348 228.0
112.088966 192.0
112.107498 140.0
112.134354 136.0
112.168961 116.0
112.195282 372.0
112.23085 196.0
112.239532 152.0
112.244522 180.0
112.275604 188.0
112.304321 272.0
112.341919 184.0
112.350075 144.0
112.368195 144.0
112.409645 156.0
112.43634 216.0
112.461006 204.0
112.509819 112.0
112.540405 296.0
112.556343 112.0
112.575539 124.0
112.59639 144.0
112.63443 376.0
112.65905 192.0
112.669724 156.0
112.689041 124.0
112.718918 116.0
112.739815 236.0
112.745903 52.0
112.753761 212.0
112.814842 280.0
112.836945 144.0
112.841866 164.0
112.872421 148.0
112.907059 36.0
112.934555 136.0
112.949356 160.0
112.9785 348.0
113.004364 152.0
113.029755 168.0
113.046677 100.0
113.074188 76.0
113.125389 64.0
113.162796 252.0
113.231308 288.0
113.281868 196.0
113.312027 208.0
113.364326 60.0
113.379158 172.0
113.395447 204.0
113.403076 140.0
113.411781 136.0
113.449265 160.0
113.485916 88.0
113.490036 104.0
113.499985 120.0
113.535904 156.0
113.581215 308.0
113.613297 132.0
113.64357 128.0
113.667557 156.0
113.699348 376.0
113.716484 236.0
113.756577 336.0
113.780052 104.0
113.815193 116.0
113.824516 216.0
113.830338 152.0
113.850258 124.0
113.87368 128.0
113.902931 208.0
113.924126 128.0
113.95845 164.0
113.982391 60.0
114.011147 80.0
114.016373 248.0
114.028618 224.0
114.044495 84.0
114.058861 112.0
114.063049 128.0
114.07177 112.0
114.087563 120.0
114.113991 44.0
114.1297 112.0
114.174057 252.0
114.194412 184.0
114.213936 204.0
114.230156 328.0
114.251846 64.0
114.269897 164.0
114.301308 64.0
114.324036 156.0
114.329124 100.0
114.335556 308.0
114.358963 164.0
114.373375 140.0
114.379959 176.0
114.400375 156.0
114.437607 364.0
114.454948 140.0
114.48172 220.0
114.526588 176.0
114.54847 176.0
114.583099 304.0
114.602531 140.0
114.641266 156.0
114.646843 140.0
114.675461 132.0
114.702766 196.0
114.748344 140.0
114.773964 136.0
114.79599 176.0
114.816368 120.0
114.845398 116.0
114.89093 312.0
114.913185 160.0
114.93235 268.0
114.95591 148.0
114.973625 172.0
114.99334 128.0
115.018547 256.0
115.056107 576.0
115.09478 140.0
115.111252 204.0
115.151741 160.0
115.208405 176.0
115.256042 148.0
115.277412 124.0
115.311607 152.0
115.349548 380.0
115.369148 356.0
115.417297 272.0
115.464485 188.0
115.491203 124.0
115.508316 68.0
115.532013 100.0
115.554718 168.0
115.591476 176.0
115.624634 164.0
115.652992 296.0
115.685814 128.0
115.707825 104.0
115.733543 132.0
115.742477 96.0
115.783348 184.0
115.807976 56.0
115.825958 132.0
115.832092 108.0
115.865204 196.0
115.870705 308.0
115.893661 240.0
115.912766 596.0
115.941414 344.0
115.96093 144.0
115.988571 196.0
116.011536 152.0
116.034836 188.0
116.042305 116.0
116.04837 200.0
116.066483 116.0
116.082291 176.0
116.098671 144.0
116.131699 108.0
116.154274 384.0
116.175354 72.0
116.190132 216.0
116.226273 132.0
116.260925 280.0
116.283028 232.0
116.320442 148.0
116.352592 196.0
116.372437 352.0
116.380859 140.0
116.388176 264.0
116.418907 144.0
116.440681 276.0
116.459351 92.0
116.490082 180.0
116.526604 76.0
116.560982 144.0
116.599876 160.0
116.642578 260.0
116.679459 96.0
116.699257 168.0
116.735275 144.0
116.789963 136.0
116.817207 212.0
116.851738 192.0
116.877121 432.0
116.902267 176.0
116.922905 220.0
116.947136 200.0
116.973907 144.0
116.993286 116.0
117.010506 72.0
117.031738 296.0
117.053978 324.0
117.089706 252.0
117.119507 268.0
117.146179 104.0
117.174187 32.0
117.203064 124.0
117.223282 248.0
117.237289 140.0
117.284088 260.0
117.303391 100.0
117.326729 128.0
117.355789 124.0
117.414291 140.0
117.443642 128.0
117.472404 180.0
117.508575 112.0
117.520309 216.0
117.547691 120.0
117.569901 300.0
117.591705 112.0
117.623817 228.0
117.654694 204.0
117.677887 212.0
117.715569 92.0
117.73069 148.0
117.756607 104.0
117.779022 156.0
117.818069 240.0
117.838692 180.0
117.868942 148.0
117.886627 108.0
117.911232 140.0
117.929451 196.0
117.952171 156.0
117.968353 124.0
117.989975 148.0
118.013275 176.0
118.039093 156.0
118.066872 192.0
118.113106 136.0
118.166458 188.0
118.172699 164.0
118.204674 108.0
118.240059 156.0
118.260368 208.0
118.306946 228.0
118.34182 240.0
118.378052 100.0
118.412712 252.0
118.42775 340.0
118.476906 148.0
118.498573 212.0
118.519356 196.0
118.541908 52.0
118.557076 156.0
118.574417 252.0
118.589584 160.0
118.608498 136.0
118.6231 104.0
118.647537 136.0
118.667366 100.0
118.690636 124.0
118.716911 224.0
118.739548 220.0
118.784218 136.0
118.831787 124.0
118.852295 112.0
118.873688 172.0
118.887901 152.0
118.961189 176.0
118.987068 236.0
119.008507 96.0
119.032204 156.0
119.100761 164.0
119.125366 192.0
119.148499 152.0
119.182022 152.0
119.21534 312.0
119.231194 172.0
119.250374 124.0
119.260201 148.0
119.283638 296.0
119.311256 156.0
119.326286 120.0
119.349174 124.0
119.373581 128.0
119.392395 108.0
119.397331 84.0
119.405228 112.0
119.435287 72.0
119.463959 204.0
119.484238 176.0
119.521835 148.0
119.569725 152.0
119.61171 228.0
119.629936 164.0
119.666634 168.0
119.706245 160.0
119.729156 140.0
119.753883 116.0
119.779518 112.0
119.815285 204.0
119.834084 316.0
119.848892 368.0
119.889481 212.0
119.913658 212.0
119.944839 132.0
119.954308 140.0
119.98732 148.0
120.02002 36.0
120.062401 296.0
120.078735 504.0
120.095085 172.0
120.135208 412.0
120.1689 188.0
120.202225 232.0
120.225243 152.0
120.232391 136.0
120.261093 308.0
120.280464 116.0
120.309059 184.0
120.345169 288.0
120.370522 216.0
120.408455 128.0
120.443398 168.0
120.469933 216.0
120.488297 380.0
120.508049 236.0
120.535156 112.0
120.550453 236.0
120.565033 156.0
120.584709 184.0
120.600471 180.0
120.608772 140.0
120.643234 248.0
120.668144 104.0
120.672165 52.0
120.68129 112.0
120.694977 208.0
120.721443 348.0
120.757866 380.0
120.781403 132.0
120.793297 240.0
120.811165 116.0
120.845795 192.0
120.864754 212.0
120.890671 132.0
120.921356 120.0
120.956818 224.0
120.981499 176.0
121.015587 192.0
121.040977 180.0
121.06749 164.0
121.075142 180.0
121.078674 160.0
121.101952 260.0
121.119286 136.0
121.163101 612.0
121.190231 104.0
121.214935 176.0
121.231018 332.0
121.262711 444.0
121.298828 64.0
121.342758 316.0
121.358833 104.0
121.374588 152.0
121.409027 140.0
121.429756 196.0
121.454651 392.0
121.494522 112.0
121.524223 224.0
121.575516 176.0
121.593422 248.0
121.606857 108.0
121.636536 164.0
121.656303 116.0
121.691528 168.0
121.705589 92.0
121.726997 160.0
121.752785 100.0
121.772903 160.0
121.80545 148.0
121.84745 188.0
121.86956 104.0
121.895927 208.0
121.919853 108.0
121.935265 200.0
121.943542 168.0
121.961357 88.0
122.004623 132.0
122.044868 176.0
122.080276 88.0
122.084167 76.0
122.09304 60.0
122.115768 112.0
122.139511 136.0
122.164154 104.0
122.181755 112.0
122.205124 200.0
122.231705 200.0
122.249908 152.0
122.276314 84.0
122.304085 168.0
122.324692 164.0
122.346016 232.0
122.374016 180.0
122.444481 360.0
122.502716 196.0
122.522995 184.0
122.561073 56.0
122.585236 144.0
122.597733 256.0
122.620537 152.0
122.638611 36.0
122.662399 200.0
122.698181 140.0
122.725632 144.0
122.745468 132.0
122.76741 108.0
122.791824 192.0
122.805969 224.0
122.823929 340.0
122.852112 388.0
122.883888 144.0
122.907722 64.0
122.94278 96.0
122.978561 156.0
123.020462 128.0
123.03878 200.0
123.076584 120.0
123.092041 132.0
123.107498 124.0
123.12516 104.0
123.16674 196.0
123.181648 152.0
123.188065 176.0
123.198982 152.0
123.203751 152.0
123.247948 156.0
123.266228 140.0
123.283577 288.0
123.30378 232.0
123.321404 204.0
123.352539 464.0
123.388977 384.0
123.419136 232.0
123.449707 168.0
123.46904 156.0
123.484222 276.0
123.52301 108.0
123.556259 132.0
123.589378 252.0
123.616219 152.0
123.635086 372.0
123.648827 208.0
123.710442 188.0
123.739166 124.0
123.768661 128.0
123.785599 112.0
123.828865 560.0
123.867676 164.0
123.91317 392.0
123.971252 168.0
124.00058 244.0
124.034164 128.0
124.059776 192.0
124.089836 176.0
124.115631 88.0
124.152924 192.0
124.173172 164.0
124.19886 276.0
124.275063 136.0
124.290291 96.0
124.308578 172.0
124.33194 156.0
124.414894 284.0
124.431541 144.0
124.489731 128.0
124.514526 116.0
124.546478 164.0
124.582619 60.0
124.629448 408.0
124.651009 92.0
124.673447 304.0
124.693161 180.0
124.752014 248.0
124.774185 168.0
124.802788 136.0
124.824402 132.0
124.865601 128.0
124.885803 192.0
124.906311 104.0
124.912018 200.0
124.966408 108.0
124.991463 144.0
125.017181 152.0
125.049454 88.0
125.078499 268.0
125.09948 252.0
125.122017 204.0
125.135216 168.0
125.166306 440.0
125.186432 184.0
125.212021 124.0
125.237083 164.0
125.258575 92.0
125.306427 80.0
125.332214 156.0
125.351463 176.0
125.367104 316.0
125.395699 172.0
125.413559 188.0
125.421188 80.0
125.4272 176.0
125.451889 264.0
125.476288 248.0
125.497971 240.0
125.529747 192.0
125.557526 120.0
125.599907 100.0
125.614265 88.0
125.631134 128.0
125.656891 88.0
125.670586 152.0
125.68914 188.0
125.722618 160.0
125.747162 184.0
125.770882 64.0
125.792664 244.0
125.815163 120.0
125.840973 160.0
125.863495 148.0
125.905922 72.0
125.93354 160.0
125.938248 264.0
125.954224 76.0
125.970749 144.0
125.994064 196.0
126.011879 148.0
126.034019 264.0
126.053116 84.0
126.070213 264.0
126.090126 128.0
126.108406 124.0
126.126152 176.0
126.164864 160.0
126.18206 116.0
126.209053 168.0
126.241577 140.0
126.267303 264.0
126.289406 184.0
126.315384 156.0
126.323242 156.0
126.328766 392.0
126.34993 304.0
126.369133 228.0
126.397224 216.0
126.428802 160.0
126.456833 172.0
126.480133 124.0
126.540718 56.0
126.558372 140.0
126.584358 228.0
126.593498 112.0
126.597542 180.0
126.616348 160.0
126.638672 140.0
126.661362 124.0
126.691299 196.0
126.718773 136.0
126.758247 136.0
126.793091 96.0
126.82354 128.0
126.840309 120.0
126.858406 124.0
126.86628 152.0
126.916985 124.0
126.952621 140.0
126.977524 236.0
127.01207 204.0
127.034554 240.0
127.06768 244.0
127.093903 168.0
127.120346 124.0
127.159996 172.0
127.183495 256.0
127.236847 124.0
127.262665 112.0
127.282074 124.0
127.288261 80.0
127.310707 152.0
127.345757 52.0
127.376305 180.0
127.393448 292.0
127.420403 172.0
127.452171 204.0
127.482399 176.0
127.50499 128.0
127.535172 132.0
127.567184 176.0
127.613121 360.0
127.636864 172.0
127.653641 64.0
127.685486 176.0
127.717705 256.0
127.743736 184.0
127.758453 284.0
127.780579 212.0
127.807076 140.0
127.824348 180.0
127.83844 188.0
127.865105 48.0
127.892113 104.0
127.916962 108.0
127.941872 268.0
127.972496 232.0
127.997345 140.0
128.014893 176.0
128.045334 224.0
128.073929 128.0
128.089005 108.0
128.095871 172.0
128.132904 116.0
128.174194 156.0
128.216034 136.0
128.236649 220.0
128.247375 168.0
128.265381 212.0
128.286316 156.0
128.309769 216.0
128.345657 136.0
128.362244 124.0
128.404373 312.0
128.457611 108.0
128.460449 144.0
128.486145 52.0
128.516235 164.0
128.52681 100.0
128.531158 228.0
128.559219 176.0
128.59404 316.0
128.609924 128.0
128.621521 152.0
128.628616 112.0
128.642044 144.0
128.665985 172.0
128.69014 268.0
128.70787 232.0
128.737564 116.0
128.766571 128.0
128.780899 216.0
128.798279 180.0
128.816208 212.0
128.844635 236.0
128.864044 336.0
128.886642 160.0
128.906281 136.0
128.960281 108.0
128.979309 124.0
129.017914 336.0
129.031906 220.0
129.056976 156.0
129.094681 128.0
129.128677 192.0
129.164429 152.0
129.205444 44.0
129.229233 116.0
129.261566 88.0
129.289856 136.0
129.314636 260.0
129.332092 124.0
129.344818 128.0
129.350998 100.0
129.377579 184.0
129.4142 164.0
129.438095 176.0
129.479324 132.0
129.51152 128.0
129.540039 148.0
129.583527 148.0
129.607025 160.0
129.634705 184.0
129.640762 108.0
129.673111 260.0
129.694565 120.0
129.733856 180.0
129.78157 148.0
129.810181 132.0
129.828323 224.0
129.857941 204.0
129.889557 136.0
129.908737 132.0
129.950821 200.0
129.976883 140.0
130.001129 196.0
130.029739 228.0
130.047791 168.0
130.072281 172.0
130.095947 180.0
130.137375 124.0
130.167068 116.0
130.18988 168.0
130.209137 316.0
130.225891 252.0
130.234375 44.0
130.242172 148.0
130.263046 176.0
130.282166 116.0
130.288147 232.0
130.298386 136.0
130.304337 152.0
130.350433 284.0
130.369888 216.0
130.390701 124.0
130.416351 196.0
130.433548 140.0
130.449097 204.0
130.482269 172.0
130.504272 148.0
130.535126 164.0
130.555023 116.0
130.594894 332.0
130.622772 128.0
130.646011 192.0
130.672455 300.0
130.710587 200.0
130.733749 128.0
130.765182 192.0
130.788467 324.0
130.815125 176.0
130.836166 36.0
130.847076 160.0
130.876953 136.0
130.882706 64.0
130.892822 136.0
130.909622 196.0
130.935455 148.0
130.97113 140.0
130.99202 92.0
131.030533 128.0
131.05809 88.0
131.083664 284.0
131.10701 104.0
131.12645 132.0
131.162979 164.0
131.183273 224.0
131.196701 168.0
131.202591 160.0
131.214874 172.0
131.246536 316.0
131.268768 112.0
131.295944 128.0
131.316483 104.0
131.338058 248.0
131.359024 204.0
131.386642 268.0
131.405899 168.0
131.451096 136.0
131.470123 156.0
131.498108 128.0
131.516891 152.0
131.546402 96.0
131.583084 304.0
131.599289 256.0
131.644379 156.0
131.661758 44.0
131.700241 124.0
131.721497 416.0
131.745285 176.0
131.769943 68.0
131.792572 160.0
131.837967 192.0
131.861084 136.0
131.885483 136.0
131.926086 160.0
131.943359 148.0
131.952576 136.0
131.967087 100.0
131.991776 72.0
132.015396 168.0
132.053406 108.0
132.069412 120.0
132.089111 124.0
132.114487 156.0
132.12355 144.0
132.134598 128.0
132.15744 208.0
132.166779 100.0
132.174088 164.0
132.196304 276.0
132.217194 236.0
132.225555 168.0
132.277817 224.0
132.320419 156.0
132.348038 108.0
132.372391 176.0
132.388779 132.0
132.410431 176.0
132.440201 124.0
132.465408 164.0
132.481445 172.0
132.502457 184.0
132.512558 196.0
132.546173 364.0
132.56871 44.0
132.602875 140.0
132.621765 152.0
132.648727 204.0
132.68338 232.0
132.719788 156.0
132.73584 208.0
132.782013 120.0
132.812119 344.0
132.86853 216.0
132.897659 276.0
132.951477 128.0
132.976135 324.0
132.997131 116.0
133.021637 28.0
133.025681 156.0
133.041992 128.0
133.07724 272.0
133.110382 236.0
133.119629 144.0
133.128677 124.0
133.15657 48.0
133.199173 68.0
133.221405 252.0
133.29068 392.0
133.324112 256.0
133.351349 348.0
133.376678 152.0
133.391693 120.0
133.404068 136.0
133.412003 80.0
133.451935 200.0
133.477524 160.0
133.504517 312.0
133.537323 96.0
133.565826 244.0
133.577118 172.0
133.608627 148.0
133.665375 48.0
133.712799 156.0
133.738403 188.0
133.765106 52.0
133.788132 148.0
133.809479 160.0
133.838348 176.0
133.864563 120.0
133.896713 172.0
133.922668 112.0
133.95224 120.0
133.971252 152.0
134.019241 148.0
134.054306 452.0
134.091736 104.0
134.13446 140.0
134.172852 220.0
134.188995 108.0
134.22467 128.0
134.256882 148.0
134.282028 172.0
134.319168 160.0
134.350433 48.0
134.371033 176.0
134.394699 252.0
134.417114 124.0
134.449646 328.0
134.467911 144.0
134.491196 172.0
134.513397 124.0
134.536118 252.0
134.575089 236.0
134.603027 328.0
134.640045 152.0
134.664032 160.0
134.68515 208.0
134.721695 184.0
134.751999 112.0
134.757217 304.0
134.791519 96.0
134.844177 120.0
134.869339 324.0
134.89595 172.0
134.92189 440.0
134.946274 52.0
134.984161 52.0
135.010895 208.0
135.048447 208.0
135.070755 160.0
135.079773 132.0
135.1073 64.0
135.128616 100.0
135.146255 156.0
135.16832 96.0
135.196091 136.0
135.210922 128.0
135.22879 160.0
135.255493 216.0
135.286728 100.0
135.325089 104.0
135.344238 148.0
135.368973 212.0
135.426376 308.0
135.458908 224.0
135.494568 384.0
135.528122 160.0
135.555023 332.0
135.571793 360.0
135.603699 72.0
135.633453 100.0
135.66835 148.0
135.714355 188.0
135.728882 340.0
135.754181 224.0
135.777573 128.0
135.793808 88.0
135.835434 124.0
135.883774 200.0
135.901978 172.0
135.941147 188.0
135.960068 280.0
135.989441 100.0
135.999603 132.0
136.006989 192.0
136.024124 168.0
136.044205 44.0
136.064987 132.0
136.084213 140.0
136.109009 152.0
136.146042 88.0
136.175751 100.0
136.207474 120.0
136.231689 136.0
136.26059 92.0
136.296738 280.0
136.345688 176.0
136.375916 132.0
136.402832 192.0
136.460007 184.0
136.48317 116.0
136.501434 284.0
136.534668 260.0
136.555603 260.0
136.576538 84.0
136.604614 172.0
136.625885 224.0
136.676697 156.0
136.735184 412.0
136.778549 200.0
136.813705 148.0
136.841888 152.0
136.862778 132.0
136.879089 172.0
136.91626 112.0
136.920425 108.0
136.951477 180.0
136.9617 144.0
136.97081 124.0
136.980835 116.0
136.987274 212.0
137.021164 336.0
137.054199 356.0
137.073517 228.0
137.089981 232.0
137.093826 192.0
137.103683 144.0
137.145355 416.0
137.178055 348.0
137.203964 128.0
137.227066 348.0
137.244308 108.0
137.269241 164.0
137.290955 124.0
137.326935 92.0
137.372467 148.0
137.417511 92.0
137.453857 248.0
137.46991 244.0
137.501511 248.0
137.535645 140.0
137.560287 92.0
137.628738 180.0
137.704224 236.0
137.719284 160.0
137.757797 208.0
137.779373 248.0
137.801025 120.0
137.825027 148.0
137.844803 60.0
137.865036 208.0
137.890198 168.0
137.909225 160.0
137.933609 304.0
137.97464 180.0
137.999069 184.0
138.025146 228.0
138.046478 200.0
138.089005 52.0
138.130524 168.0
138.152191 152.0
138.188568 168.0
138.212631 180.0
138.24353 352.0
138.282379 180.0
138.303665 308.0
138.343475 148.0
138.389801 164.0
138.436005 164.0
138.461868 224.0
138.486725 308.0
138.494232 80.0
138.503799 404.0
138.538895 240.0
138.574142 172.0
138.601746 192.0
138.619049 180.0
138.633469 136.0
138.663116 160.0
138.67923 148.0
138.696686 108.0
138.724335 156.0
138.745041 308.0
138.78035 308.0
138.808273 356.0
138.835007 108.0
138.88031 440.0
138.904327 188.0
138.937759 248.0
138.942123 48.0
138.95192 128.0
138.960007 180.0
138.979492 176.0
138.987579 104.0
139.00798 196.0
139.033508 192.0
139.053055 600.0
139.071487 116.0
139.103348 284.0
139.121475 188.0
139.155014 204.0
139.176682 172.0
139.18576 196.0
139.196106 160.0
139.222458 124.0
139.251816 176.0
139.269196 244.0
139.284363 88.0
139.303802 148.0
139.329727 144.0
139.365051 200.0
139.381012 128.0
139.400681 220.0
139.420624 156.0
139.458542 120.0
139.504181 140.0
139.532028 292.0
139.550064 108.0
139.558548 220.0
139.587418 196.0
139.643875 308.0
139.667984 408.0
139.685242 184.0
139.719208 164.0
139.748764 92.0
139.765228 176.0
139.789474 128.0
139.817993 200.0
139.857361 136.0
139.87764 184.0
139.894012 100.0
139.918213 120.0
139.953537 124.0
139.99057 156.0
140.030228 196.0
140.050049 912.0
140.091034 140.0
140.12117 272.0
140.170898 404.0
140.192566 92.0
140.210175 168.0
140.259247 164.0
140.282684 84.0
140.290833 212.0
140.313522 152.0
140.33345 164.0
140.365646 120.0
140.383148 212.0
140.410629 172.0
140.449966 196.0
140.46965 80.0
140.511505 156.0
140.555649 148.0
140.572693 208.0
140.606659 124.0
140.659012 148.0
140.687195 260.0
140.736328 192.0
140.759628 132.0
140.789658 376.0
140.8237 104.0
140.852051 156.0
140.870239 132.0
140.888916 92.0
140.920563 32.0
140.947083 160.0
140.97905 196.0
141.008606 164.0
141.051712 196.0
141.062759 164.0
141.087418 60.0
141.092209 108.0
141.164352 172.0
141.184677 320.0
141.215714 140.0
141.237335 140.0
141.265076 472.0
141.282166 84.0
141.298676 176.0
141.328156 92.0
141.362793 148.0
141.398224 188.0
141.417908 76.0
141.43898 200.0
141.498428 276.0
141.523422 180.0
141.553497 176.0
141.58461 168.0
141.618973 352.0
141.642136 204.0
141.660202 124.0
141.672546 180.0
141.705261 400.0
141.722641 112.0
141.774963 228.0
141.805588 192.0
141.824936 192.0
141.863892 100.0
141.8965 224.0
141.931229 92.0
141.95314 276.0
141.996353 164.0
142.025452 60.0
142.052689 156.0
142.076645 152.0
142.101807 392.0
142.126221 152.0
142.14093 148.0
142.164139 128.0
142.186172 152.0
142.228699 92.0
142.253876 152.0
142.272766 168.0
142.344254 180.0
142.361923 280.0
142.380966 288.0
142.397705 160.0
142.42424 188.0
142.443115 52.0
142.492264 168.0
142.537827 184.0
142.581772 84.0
142.622696 180.0
142.64798 84.0
142.687271 188.0
142.762253 136.0
142.789459 432.0
142.820648 168.0
142.84346 292.0
142.883469 456.0
142.922104 424.0
142.954605 184.0
142.959778 64.0
142.991913 144.0
143.029144 112.0
143.060776 144.0
143.105713 184.0
143.124237 172.0
143.154984 56.0
143.176727 144.0
143.19928 420.0
143.225006 20.0
143.276306 268.0
143.282944 260.0
143.344437 172.0
143.371765 212.0
143.414215 216.0
143.476517 112.0
143.510025 184.0
143.545792 160.0
143.562485 124.0
143.581558 148.0
143.62619 184.0
143.652512 112.0
143.684509 112.0
143.715591 152.0
143.755417 268.0
143.7612 236.0
143.784485 172.0
143.808029 156.0
143.849213 136.0
143.869461 132.0
143.894226 124.0
143.940216 188.0
143.957687 144.0
143.964691 88.0
143.994293 248.0
144.043198 308.0
144.068481 92.0
144.104111 188.0
144.112991 248.0
144.117462 192.0
144.145035 148.0
144.200989 100.0
144.218018 228.0
144.235046 136.0
144.253448 80.0
144.284912 208.0
144.305389 304.0
144.328583 244.0
144.359741 84.0
144.374207 356.0
144.402878 152.0
144.429672 280.0
144.445923 148.0
144.471176 116.0
144.51506 168.0
144.563034 300.0
144.607834 168.0
144.647705 220.0
144.678879 148.0
144.709778 164.0
144.728577 192.0
144.748734 128.0
144.806229 132.0
144.858871 204.0
144.899628 184.0
144.929825 132.0
144.948944 76.0
144.976212 168.0
145.056412 204.0
145.083008 64.0
145.097824 148.0
145.12532 204.0
145.159744 136.0
145.184494 228.0
145.230576 92.0
145.270538 344.0
145.30426 184.0
145.345383 108.0
145.362503 136.0
145.412552 156.0
145.440582 140.0
145.46431 108.0
145.503494 168.0
145.542175 140.0
145.566925 276.0
145.598389 148.0
145.658051 152.0
145.682098 316.0
145.72876 216.0
145.759079 264.0
145.765915 164.0
145.815125 100.0
145.839294 80.0
145.861496 168.0
145.878433 184.0
145.901276 212.0
145.939804 244.0
145.977905 92.0
146.002777 324.0
146.021149 216.0
146.035248 148.0
146.055893 244.0
146.085342 144.0
146.101395 188.0
146.126724 172.0
146.145859 92.0
146.178665 140.0
146.199142 128.0
146.214127 292.0
146.237366 264.0
146.280899 284.0
146.308365 112.0
146.342972 196.0
146.360886 108.0
146.378036 124.0
146.416718 156.0
146.436508 168.0
146.473557 140.0
146.488235 272.0
146.525116 204.0
146.561249 136.0
146.579773 228.0
146.648911 160.0
146.675507 140.0
146.707001 368.0
146.724792 136.0
146.751663 116.0
146.771942 292.0
146.828186 120.0
146.853546 236.0
146.894714 164.0
146.923401 76.0
146.954254 88.0
147.002762 156.0
147.036301 104.0
147.056854 164.0
147.078583 132.0
147.118744 184.0
147.127441 148.0
147.136017 148.0
147.159286 152.0
147.18399 156.0
147.202377 156.0
147.239105 68.0
147.278885 136.0
147.309692 176.0
147.354279 100.0
147.400543 140.0
147.435638 296.0
147.457779 116.0
147.482925 152.0
147.513245 304.0
147.563965 296.0
147.59288 220.0
147.613678 276.0
147.641373 88.0
147.710724 388.0
147.743774 168.0
147.78894 220.0
147.814041 268.0
147.838882 124.0
147.856277 332.0
147.872726 92.0
147.908142 120.0
147.923111 224.0
147.948898 144.0
147.986069 260.0
148.004074 116.0
148.029877 88.0
148.06105 156.0
148.100189 256.0
148.137726 284.0
148.180267 132.0
148.205322 272.0
148.231705 164.0
148.270126 200.0
148.293777 112.0
148.322968 320.0
148.338333 312.0
148.371689 164.0
148.390915 272.0
148.415482 212.0
148.448395 152.0
148.485031 200.0
148.510864 324.0
148.53479 156.0
148.563995 200.0
148.58374 172.0
148.605927 128.0
148.636536 148.0
148.6642 108.0
148.670502 120.0
148.689651 196.0
148.715805 248.0
148.7509 164.0
148.784195 176.0
148.871124 196.0
148.896881 132.0
148.914093 172.0
148.945862 164.0
148.993576 280.0
149.016785 100.0
149.024582 76.0
149.053909 232.0
149.098038 300.0
149.123566 176.0
149.138809 304.0
149.175049 132.0
149.193954 208.0
149.212418 268.0
149.246613 220.0
149.273865 212.0
149.292953 144.0
149.305908 148.0
149.361649 168.0
149.392883 340.0
149.426758 352.0
149.464462 116.0
149.491226 60.0
149.526352 148.0
149.534225 108.0
149.55838 196.0
149.562698 88.0
149.608063 96.0
149.627533 140.0
149.656754 168.0
149.677063 188.0
149.705414 240.0
149.710648 184.0
149.738403 288.0
149.766907 224.0
149.819931 188.0
149.854034 124.0
149.881592 188.0
149.923203 196.0
149.950577 116.0
149.976562 220.0
150.006302 92.0
150.036819 176.0
150.056961 112.0
150.089767 112.0
150.118607 176.0
150.158478 72.0
150.169769 108.0
150.179321 128.0
150.197556 136.0
150.200882 276.0
150.222961 160.0
150.253265 272.0
150.279831 124.0
150.303894 200.0
150.335739 264.0
150.364685 136.0
150.386414 164.0
150.426834 224.0
150.44693 456.0
150.480179 232.0
150.513229 440.0
150.537003 236.0
150.55899 48.0
150.585846 180.0
150.619537 244.0
150.64357 176.0
150.671341 132.0
150.693039 192.0
150.700302 112.0
150.706863 176.0
150.72699 88.0
150.756866 168.0
150.778793 164.0
150.784744 108.0
150.809998 224.0
150.830032 192.0
150.860168 164.0
150.894928 140.0
150.922531 88.0
150.940735 140.0
150.977982 248.0
150.982559 160.0
151.028809 188.0
151.049683 120.0
151.059723 72.0
151.063675 180.0
151.083694 268.0
151.103378 128.0
151.134628 172.0
151.165848 192.0
151.188446 520.0
151.231522 320.0
151.276062 188.0
151.314545 256.0
151.336304 208.0
151.359818 344.0
151.398621 280.0
151.441696 160.0
151.495773 128.0
151.562195 128.0
151.570007 148.0
151.601364 96.0
151.620331 288.0
151.649292 252.0
151.669754 152.0
151.68837 108.0
151.70285 128.0
151.726135 160.0
151.753098 180.0
151.819061 116.0
151.872238 204.0
151.890854 212.0
151.909241 144.0
151.915833 204.0
151.925735 216.0
151.956665 204.0
151.99791 148.0
152.022049 192.0
152.052582 224.0
152.075317 68.0
152.0858 116.0
152.096268 140.0
152.102158 240.0
152.110046 208.0
152.132889 164.0
152.171356 136.0
152.19101 124.0
152.211334 308.0
152.229477 164.0
152.261047 256.0
152.295197 168.0
152.327362 160.0
152.361374 156.0
152.376495 452.0
152.425949 416.0
152.454147 300.0
152.476959 248.0
152.508026 132.0
152.546066 168.0
152.576859 152.0
152.625412 292.0
152.659164 80.0
152.704926 132.0
152.717957 172.0
152.724091 288.0
152.758621 196.0
152.783707 204.0
152.8022 52.0
152.812668 148.0
152.829819 180.0
152.851791 220.0
152.868942 160.0
152.8918 220.0
152.937164 124.0
152.956238 144.0
153.017242 260.0
153.051849 144.0
153.110168 120.0
153.116699 96.0
153.125412 176.0
153.157913 168.0
153.17659 208.0
153.202774 136.0
153.227737 156.0
153.254105 224.0
153.283661 248.0
153.323837 120.0
153.368622 212.0
153.392853 116.0
153.414185 236.0
153.428391 420.0
153.449554 116.0
153.481613 168.0
153.500748 172.0
153.528961 136.0
153.565887 448.0
153.59816 292.0
153.645325 156.0
153.667206 176.0
153.687134 248.0
153.720169 156.0
153.730331 220.0
153.737564 244.0
153.800827 120.0
153.832642 56.0
153.870041 156.0
153.907898 208.0
153.91452 160.0
153.940414 128.0
154.015961 164.0
154.065689 592.0
154.109451 152.0
154.146072 192.0
154.1884 232.0
154.240723 140.0
154.264969 140.0
154.281906 136.0
154.303497 100.0
154.328796 72.0
154.361099 244.0
154.396973 168.0
154.439987 204.0
154.475479 168.0
154.525574 196.0
154.594833 196.0
154.634003 240.0
154.668488 236.0
154.694519 228.0
154.719345 124.0
154.734039 380.0
154.798889 156.0
154.840942 100.0
154.884521 380.0
154.902664 140.0
154.927216 296.0
154.950974 180.0
154.986176 204.0
155.035278 160.0
155.064056 500.0
155.123444 204.0
155.153305 176.0
155.175278 488.0
155.217422 140.0
155.242218 120.0
155.259583 120.0
155.279251 220.0
155.294479 112.0
155.321579 212.0
155.363785 384.0
155.393021 140.0
155.418289 128.0
155.438339 128.0
155.468704 228.0
155.498581 80.0
155.529526 124.0
155.559799 260.0
155.603134 204.0
155.621658 192.0
155.654144 120.0
155.673035 120.0
155.697601 264.0
155.755585 236.0
155.779877 164.0
155.841125 208.0
155.886963 160.0
155.903168 192.0
155.936386 160.0
155.972885 188.0
156.003143 196.0
156.02684 120.0
156.046494 232.0
156.089478 204.0
156.110382 248.0
156.164185 200.0
156.191956 260.0
156.232147 172.0
156.28038 304.0
156.31955 192.0
156.354919 112.0
156.394989 80.0
156.430847 200.0
156.448227 164.0
156.468292 144.0
156.503342 168.0
156.524445 196.0
156.542145 220.0
156.584457 168.0
156.642288 140.0
156.681351 384.0
156.698196 172.0
156.738663 108.0
156.765762 160.0
156.782959 160.0
156.817307 252.0
156.836243 212.0
156.902802 164.0
156.927292 124.0
156.945541 296.0
156.992783 132.0
157.054474 176.0
157.06012 68.0
157.0914 248.0
157.137817 176.0
157.180527 156.0
157.217712 148.0
157.256226 76.0
157.301422 136.0
157.323944 204.0
157.349167 160.0
157.372208 180.0
157.400284 164.0
157.42662 320.0
157.451111 164.0
157.467789 116.0
157.503769 160.0
157.529495 320.0
157.547073 188.0
157.590851 236.0
157.62648 180.0
157.651367 200.0
157.682022 196.0
157.701813 140.0
157.750885 152.0
157.755692 88.0
157.767868 108.0
157.800201 132.0
157.81694 196.0
157.843048 384.0
157.877518 160.0
157.917587 96.0
157.951981 152.0
157.985947 288.0
158.016098 180.0
158.0569 188.0
158.091263 156.0
158.131409 68.0
158.184708 260.0
158.232269 108.0
158.250473 132.0
158.283615 204.0
158.316025 116.0
158.339447 144.0
158.38414 160.0
158.410065 144.0
158.452896 128.0
158.477844 156.0
158.502823 196.0
158.545364 352.0
158.581345 56.0
158.603897 456.0
158.64061 156.0
158.663025 124.0
158.702774 156.0
158.726486 176.0
158.782623 240.0
158.82608 328.0
158.886765 180.0
158.919891 260.0
158.967026 144.0
159.024765 80.0
159.058304 176.0
159.09317 116.0
159.117264 108.0
159.143631 216.0
159.153488 108.0
159.17926 144.0
159.207321 88.0
159.217209 124.0
159.262909 56.0
159.283859 200.0
159.312622 188.0
159.341965 180.0
159.364182 140.0
159.403214 180.0
159.423141 372.0
159.445557 128.0
159.477448 136.0
159.524399 124.0
159.543762 208.0
159.593567 244.0
159.61647 280.0
159.649948 156.0
159.688446 196.0
159.713409 224.0
159.738678 216.0
159.758102 416.0
159.789764 144.0
159.81398 156.0
159.841934 88.0
159.858429 96.0
159.866211 120.0
159.875702 92.0
159.884125 188.0
159.91629 116.0
159.93425 132.0
159.966278 116.0
159.996887 124.0
160.024689 128.0
160.05658 216.0
160.067596 248.0
160.071671 364.0
160.095322 244.0
160.141708 80.0
160.179916 148.0
160.237839 72.0
160.29187 228.0
160.335785 320.0
160.352753 376.0
160.377167 104.0
160.400238 116.0
160.42775 236.0
160.474304 212.0
160.504608 312.0
160.523773 152.0
160.551514 88.0
160.574219 156.0
160.593124 160.0
160.612457 120.0
160.640564 208.0
160.702866 264.0
160.735657 88.0
160.768127 264.0
160.801315 172.0
160.838943 108.0
160.881851 176.0
160.915695 240.0
160.951141 208.0
160.981873 164.0
160.99176 88.0
161.002136 64.0
161.007034 120.0
161.05629 76.0
161.076157 92.0
161.084625 92.0
161.106659 348.0
161.129761 136.0
161.152588 96.0
161.188126 192.0
161.20787 148.0
161.228088 84.0
161.246918 248.0
161.283691 320.0
161.347961 308.0
161.402512 52.0
161.437469 284.0
161.477066 216.0
161.530014 124.0
161.568298 320.0
161.600708 132.0
161.654388 300.0
161.688522 124.0
161.710236 312.0
161.740356 148.0
161.759369 228.0
161.800049 32.0
161.822525 156.0
161.846512 116.0
161.875458 328.0
161.918243 180.0
161.934143 192.0
161.975143 164.0
161.999588 148.0
162.026291 200.0
162.05246 340.0
162.093536 128.0
162.11554 88.0
162.146759 256.0
162.202011 128.0
162.253036 116.0
162.287933 184.0
162.327652 304.0
162.352112 208.0
162.419662 156.0
162.458496 152.0
162.511917 284.0
162.551361 112.0
162.572174 64.0
162.576965 144.0
162.586578 252.0
162.614929 252.0
162.649384 184.0
162.672211 168.0
162.698929 220.0
162.70607 152.0
162.717239 172.0
162.72699 108.0
162.731659 316.0
162.767868 280.0
162.798386 172.0
162.803345 128.0
162.83223 532.0
162.855682 208.0
162.916306 84.0
162.949432 184.0
162.986023 280.0
163.029907 100.0
163.056656 136.0
163.079483 444.0
163.115936 152.0
163.213745 76.0
163.220016 92.0
163.256958 224.0
163.337418 136.0
163.35112 164.0
163.370621 128.0
163.388931 160.0
163.407516 176.0
163.425751 108.0
163.453049 144.0
163.488678 164.0
163.512589 116.0
163.536011 112.0
163.553833 84.0
163.586929 200.0
163.605286 112.0
163.632141 168.0
163.651276 196.0
163.672348 312.0
163.689499 164.0
163.707703 424.0
163.727097 168.0
163.756989 288.0
163.775696 152.0
163.806412 144.0
163.861496 108.0
163.908707 404.0
163.943176 172.0
163.961624 172.0
163.98288 192.0
164.009766 140.0
164.03006 212.0
164.054459 392.0
164.076584 136.0
164.095093 260.0
164.117462 344.0
164.146286 320.0
164.213181 140.0
164.249985 96.0
164.280304 128.0
164.322815 284.0
164.363998 80.0
164.367783 156.0
164.392197 156.0
164.445847 140.0
164.505585 180.0
164.539688 152.0
164.567657 144.0
164.591934 200.0
164.627182 160.0
164.653244 160.0
164.676392 172.0
164.715286 200.0
164.731979 232.0
164.781769 276.0
164.819931 192.0
164.846008 96.0
164.911209 128.0
164.959946 296.0
164.9841 156.0
165.025452 120.0
165.052277 352.0
165.077026 168.0
165.115997 116.0
165.152985 152.0
165.222717 160.0
165.249466 44.0
165.268997 140.0
165.291702 288.0
165.319183 120.0
165.386414 412.0
165.405975 228.0
165.425247 168.0
165.48027 144.0
165.508713 92.0
165.56337 136.0
165.638107 208.0
165.658722 328.0
165.693695 116.0
165.739166 140.0
165.763809 108.0
165.788589 204.0
165.815475 196.0
165.835449 152.0
165.852463 132.0
165.874863 188.0
165.901367 148.0
165.924438 92.0
165.950439 400.0
165.996826 104.0
166.020569 240.0
166.062286 200.0
166.079483 208.0
166.104752 252.0
166.126923 96.0
166.160568 224.0
166.191177 60.0
166.216827 184.0
166.250885 228.0
166.283096 156.0
166.31691 180.0
166.363708 104.0
166.371887 136.0
166.37999 160.0
166.409256 248.0
166.433212 216.0
166.478668 196.0
166.517181 124.0
166.551529 288.0
166.585953 140.0
166.59613 196.0
166.623352 164.0
166.649551 136.0
166.670975 120.0
166.693588 196.0
166.716812 228.0
166.736145 140.0
166.785782 140.0
166.824036 132.0
166.874771 224.0
166.919983 340.0
166.961044 96.0
166.983429 272.0
167.026093 52.0
167.059464 256.0
167.100189 132.0
167.136719 124.0
167.155487 108.0
167.192932 208.0
167.231934 232.0
167.260254 92.0
167.280838 220.0
167.314301 152.0
167.333618 304.0
167.344254 152.0
167.354004 172.0
167.375549 336.0
167.417419 88.0
167.46022 308.0
167.496536 168.0
167.542221 128.0
167.597061 132.0
167.631119 128.0
167.649155 56.0
167.679337 140.0
167.712677 228.0
167.755066 208.0
167.792496 156.0
167.827682 76.0
167.868271 48.0
167.901184 84.0
167.951141 88.0
167.981598 344.0
168.006439 188.0
168.035339 88.0
168.075653 176.0
168.104553 96.0
168.127228 104.0
168.154617 148.0
168.192123 132.0
168.244659 164.0
168.283173 176.0
168.287567 216.0
168.300735 328.0
168.339111 172.0
168.364746 196.0
168.41333 120.0
168.418503 156.0
168.456726 212.0
168.509094 148.0
168.527359 228.0
168.546783 168.0
168.582275 232.0
168.620361 120.0
168.636246 184.0
168.665314 352.0
168.695801 248.0
168.720612 140.0
168.745819 296.0
168.777771 232.0
168.802094 108.0
168.811401 272.0
168.838486 176.0
168.859619 160.0
168.888123 192.0
168.94429 136.0
168.980362 140.0
169.043274 132.0
169.070297 156.0
169.098465 252.0
169.116394 140.0
169.169678 148.0
169.211685 176.0
169.249924 268.0
169.279633 188.0
169.301682 356.0
169.305771 348.0
169.339905 268.0
169.369827 124.0
169.402344 232.0
169.475204 84.0
169.509827 168.0
169.537582 208.0
169.589859 96.0
169.624817 164.0
169.651031 200.0
169.687531 140.0
169.722275 120.0
169.743027 112.0
169.771545 160.0
169.800247 60.0
169.828613 96.0
169.855865 204.0
169.87262 120.0
169.888153 312.0
169.916809 148.0
169.941727 216.0
169.979767 292.0
170.005371 148.0
170.033325 124.0
170.077011 184.0
170.095718 152.0
170.104202 132.0
170.117569 144.0
170.134445 204.0
170.184174 248.0
170.21936 116.0
170.240784 240.0
170.255508 180.0
170.292755 96.0
170.337067 144.0
170.375458 212.0
170.383163 132.0
170.421677 152.0
170.441849 324.0
170.468719 208.0
170.511322 204.0
170.563202 256.0
170.629181 148.0
170.669998 60.0
170.6978 180.0
170.756531 192.0
170.778366 96.0
170.787964 112.0
170.806381 92.0
170.817902 124.0
170.862625 208.0
170.889069 212.0
170.946396 284.0
170.976349 272.0
171.011612 256.0
171.038437 132.0
171.058167 200.0
171.102188 72.0
171.126663 180.0
171.148224 192.0
171.167816 152.0
171.233093 328.0
171.252731 140.0
171.303619 204.0
171.334595 136.0
171.36853 156.0
171.412064 116.0
171.47699 120.0
171.49852 124.0
171.518692 120.0
171.539551 144.0
171.561737 164.0
171.596161 112.0
171.612549 108.0
171.631989 96.0
171.672516 196.0
171.698593 312.0
171.724625 184.0
171.747147 180.0
171.768677 120.0
171.812851 204.0
171.839691 224.0
171.890305 300.0
171.934052 416.0
171.969574 148.0
171.996231 132.0
172.029968 160.0
172.062012 220.0
172.11496 236.0
172.17099 336.0
172.19841 332.0
172.216431 104.0
172.251984 176.0
172.278046 248.0
172.326416 296.0
172.359375 96.0
172.418182 120.0
172.44426 180.0
172.46312 224.0
172.486389 340.0
172.515854 84.0
172.539673 168.0
172.56456 140.0
172.596909 100.0
172.624954 188.0
172.647247 220.0
172.655884 108.0
172.666779 256.0
172.689453 196.0
172.719421 344.0
172.772141 156.0
172.799698 248.0
172.83493 56.0
172.855865 52.0
172.883453 140.0
172.944519 64.0
172.970917 108.0
173.034409 224.0
173.063217 136.0
173.106873 136.0
173.141739 260.0
173.162155 288.0
173.183945 212.0
173.217163 76.0
173.245743 352.0
173.314178 156.0
173.342285 100.0
173.363876 48.0
173.404144 176.0
173.449234 240.0
173.484314 152.0
173.523773 108.0
173.559586 436.0
173.589233 128.0
173.633118 188.0
173.669205 104.0
173.692627 188.0
173.728378 196.0
173.782822 236.0
173.822784 72.0
173.859512 132.0
173.901505 144.0
173.929321 276.0
173.957596 200.0
173.997025 176.0
174.029922 124.0
174.058289 100.0
174.100494 184.0
174.157104 288.0
174.174789 192.0
174.228638 192.0
174.251007 340.0
174.286224 148.0
174.30397 184.0
174.324081 168.0
174.332977 152.0
174.341461 116.0
174.381958 112.0
174.414444 236.0
174.437347 172.0
174.460999 56.0
174.481033 168.0
174.538086 136.0
174.570419 136.0
174.605774 236.0
174.668747 96.0
174.693359 256.0
174.711731 268.0
174.737137 152.0
174.769653 112.0
174.794586 120.0
174.823975 128.0
174.860809 172.0
174.880798 88.0
174.910568 120.0
174.930344 208.0
175.003387 308.0
175.036469 144.0
175.062042 120.0
175.078323 200.0
175.101059 208.0
175.141068 460.0
175.171509 124.0
175.212387 108.0
175.261002 136.0
175.309372 160.0
175.328506 164.0
175.37291 312.0
175.41774 200.0
175.464966 124.0
175.492203 64.0
175.52356 180.0
175.559631 124.0
175.602524 176.0
175.627457 196.0
175.672409 132.0
175.728745 216.0
175.757568 216.0
175.786789 180.0
175.797531 128.0
175.818954 68.0
175.824402 476.0
175.870773 124.0
175.901672 160.0
175.908829 256.0
175.915909 360.0
175.942856 136.0
175.96936 148.0
175.991638 180.0
176.024963 128.0
176.029785 176.0
176.080765 132.0
176.118469 408.0
176.13678 148.0
176.144379 128.0
176.157043 132.0
176.164795 140.0
176.208313 168.0
176.244919 184.0
176.285889 256.0
176.318756 192.0
176.346603 196.0
176.386703 240.0
176.431793 224.0
176.476303 136.0
176.49411 136.0
176.53035 132.0
176.534149 112.0
176.55864 124.0
176.569183 276.0
176.619095 152.0
176.645889 140.0
176.690918 260.0
176.749451 124.0
176.768021 92.0
176.792633 116.0
176.816452 164.0
176.850204 196.0
176.899704 148.0
176.966217 228.0
176.986938 100.0
177.00705 100.0
177.066498 172.0
177.123062 180.0
177.172562 288.0
177.190887 104.0
177.215591 252.0
177.279404 212.0
177.330017 88.0
177.373169 168.0
177.392883 140.0
177.447723 124.0
177.481277 156.0
177.538101 176.0
177.573975 56.0
177.590698 304.0
177.611298 224.0
177.655273 272.0
177.698944 344.0
177.721329 212.0
177.765656 168.0
177.790787 124.0
177.815109 156.0
177.833923 80.0
177.853867 184.0
177.903915 176.0
177.936096 168.0
177.957642 148.0
178.026154 304.0
178.062256 476.0
178.099701 180.0
178.130493 128.0
178.137192 144.0
178.147217 112.0
178.172119 212.0
178.218094 232.0
178.249741 208.0
178.295364 448.0
178.315979 236.0
178.353302 232.0
178.394196 48.0
178.401962 128.0
178.445816 96.0
178.466431 168.0
178.485413 404.0
178.511795 128.0
178.537201 164.0
178.555634 320.0
178.585953 156.0
178.616592 332.0
178.645233 144.0
178.684357 136.0
178.688339 468.0
178.736038 196.0
178.753937 268.0
178.779663 148.0
178.813751 88.0
178.834869 188.0
178.862808 188.0
178.883621 156.0
178.900543 200.0
178.924362 172.0
178.977295 120.0
179.005432 196.0
179.059891 520.0
179.090164 280.0
179.113708 124.0
179.153931 272.0
179.188919 44.0
179.219543 260.0
179.256973 220.0
179.301712 172.0
179.308655 132.0
179.339798 52.0
179.36586 112.0
179.378967 52.0
179.383987 152.0
179.402542 312.0
179.413452 192.0
179.421036 116.0
179.47821 104.0
179.507202 156.0
179.539047 148.0
179.59758 252.0
179.622971 216.0
179.637131 144.0
179.643692 180.0
179.683594 144.0
179.725479 292.0
179.774643 220.0
179.815598 144.0
179.868576 288.0
179.906219 132.0
179.929718 132.0
179.940109 104.0
179.968246 192.0
180.004288 104.0
180.056244 240.0
180.090088 128.0
180.103363 148.0
180.116043 156.0
180.14415 200.0
180.180603 60.0
180.210129 384.0
180.23732 152.0
180.269669 120.0
180.294464 432.0
180.331207 152.0
180.339676 172.0
180.374771 116.0
180.390106 220.0
180.41156 68.0
180.434052 92.0
180.480927 260.0
180.516281 132.0
180.539246 104.0
180.585373 136.0
180.606323 292.0
180.656647 68.0
180.68811 164.0
180.712891 244.0
180.747955 216.0
180.787384 160.0
180.807419 184.0
180.844055 484.0
180.885117 212.0
180.911819 244.0
180.964554 168.0
180.990448 148.0
181.022461 48.0
181.037827 116.0
181.074829 280.0
181.09845 192.0
181.124466 92.0
181.148239 168.0
181.178665 392.0
181.233704 144.0
181.253052 152.0
181.275848 160.0
181.307281 120.0
181.35881 112.0
181.381699 344.0
181.400452 180.0
181.450348 188.0
181.46402 96.0
181.46875 96.0
181.50029 188.0
181.547195 164.0
181.567749 112.0
181.59375 92.0
181.625702 204.0
181.680969 152.0
181.686996 132.0
181.696259 172.0
181.721115 228.0
181.749374 656.0
181.769592 176.0
181.805786 96.0
181.860428 132.0
181.90477 252.0
181.939987 236.0
181.977249 176.0
181.999847 96.0
182.011002 84.0
182.020355 144.0
182.048035 136.0
182.098083 192.0
182.127563 172.0
182.154037 116.0
182.159286 92.0
182.169266 300.0
182.208221 104.0
182.245834 216.0
182.281952 272.0
182.304184 168.0
182.30835 120.0
182.322281 200.0
182.332031 96.0
182.371841 152.0
182.41449 244.0
182.468735 136.0
182.488953 124.0
182.509247 84.0
182.538177 316.0
182.594498 108.0
182.638199 268.0
182.654938 240.0
182.674744 200.0
182.708191 156.0
182.71489 156.0
182.757385 352.0
182.799744 132.0
182.823044 280.0
182.851273 136.0
182.890961 236.0
182.925461 124.0
182.95163 176.0
182.977982 164.0
182.98909 116.0
183.012848 260.0
183.057419 272.0
183.068237 152.0
183.078903 164.0
183.106949 240.0
183.137268 196.0
183.163208 116.0
183.201447 80.0
183.259766 116.0
183.273117 40.0
183.278046 108.0
183.315247 156.0
183.325485 136.0
183.33638 188.0
183.356857 292.0
183.39946 200.0
183.432663 144.0
183.458542 108.0
183.481186 160.0
183.503647 96.0
183.53479 144.0
183.572906 256.0
183.602432 128.0
183.645569 128.0
183.65239 172.0
183.662415 216.0
183.702255 152.0
183.767929 176.0
183.773315 88.0
183.803635 116.0
183.857468 160.0
183.920044 116.0
183.943787 288.0
183.972168 168.0
183.992157 140.0
184.011703 180.0
184.036972 68.0
184.095032 232.0
184.128784 260.0
184.157043 104.0
184.222061 164.0
184.266312 272.0
184.307068 132.0
184.327957 224.0
184.359772 128.0
184.391388 20.0
184.420578 288.0
184.437683 268.0
184.489655 280.0
184.499176 128.0
184.507629 148.0
184.533035 160.0
184.563675 236.0
184.572952 260.0
184.578491 96.0
184.597549 288.0
184.640701 124.0
184.654297 72.0
184.664566 148.0
184.7117 148.0
184.754623 104.0
184.782486 172.0
184.816147 276.0
184.882797 256.0
184.915756 208.0
184.96814 236.0
185.014786 272.0
185.076721 176.0
185.126694 112.0
185.151825 204.0
185.193863 284.0
185.221558 128.0
185.281708 224.0
185.288437 184.0
185.323486 152.0
185.361343 128.0
185.415207 112.0
185.466965 352.0
185.496964 144.0
185.516815 292.0
185.53685 280.0
185.56897 92.0
185.597977 280.0
185.628006 192.0
185.649704 112.0
185.678268 308.0
185.718979 132.0
185.7453 248.0
185.799286 368.0
185.84465 228.0
185.853455 188.0
185.897568 300.0
185.935852 208.0
185.970657 264.0
186.043945 184.0
186.087463 84.0
186.141266 216.0
186.160919 244.0
186.195572 280.0
186.22052 84.0
186.257751 204.0
186.314697 72.0
186.344208 132.0
186.364517 136.0
186.391861 140.0
186.413345 168.0
186.440689 364.0
186.461243 124.0
186.476547 268.0
186.545776 124.0
186.585724 220.0
186.608917 140.0
186.654434 116.0
186.682983 168.0
186.726837 164.0
186.780121 112.0
186.803802 164.0
186.822479 112.0
186.864548 304.0
186.87117 88.0
186.882614 288.0
186.891235 140.0
186.900665 296.0
186.921005 144.0
186.93898 116.0
186.959106 56.0
187.006149 120.0
187.031082 180.0
187.070694 148.0
187.112457 188.0
187.139267 172.0
187.230804 212.0
187.267853 168.0
187.289322 660.0
187.317444 144.0
187.3414 252.0
187.372787 112.0
187.382492 128.0
187.428925 168.0
187.458954 104.0
187.494461 124.0
187.510544 140.0
187.558167 288.0
187.613144 152.0
187.633347 216.0
187.640167 128.0
187.649796 136.0
187.662018 80.0
187.705704 116.0
187.731567 408.0
187.751343 124.0
187.792633 152.0
187.803452 144.0
187.812103 140.0
187.822708 156.0
187.857239 132.0
187.880646 252.0
187.900711 148.0
187.940933 64.0
187.962769 456.0
188.027405 248.0
188.056183 168.0
188.090729 220.0
188.157028 220.0
188.186783 428.0
188.216034 204.0
188.251266 148.0
188.272675 156.0
188.333191 128.0
188.362671 116.0
188.38974 148.0
188.418961 144.0
188.449631 260.0
188.471832 160.0
188.491913 216.0
188.511765 176.0
188.576355 124.0
188.603851 144.0
188.628296 92.0
188.658707 156.0
188.710312 56.0
188.740585 200.0
188.764893 116.0
188.771149 112.0
188.779266 144.0
188.800537 160.0
188.851135 124.0
188.890076 120.0
188.919983 164.0
188.946289 112.0
188.983902 252.0
189.005569 104.0
189.015076 132.0
189.024628 176.0
189.038025 208.0
189.071854 152.0
189.12645 196.0
189.157516 300.0
189.184799 204.0
189.195374 200.0
189.246567 124.0
189.277756 208.0
189.325974 120.0
189.347839 144.0
189.351837 136.0
189.366959 208.0
189.373505 124.0
189.382004 340.0
189.440811 336.0
189.482101 108.0
189.521301 132.0
189.551971 160.0
189.577545 188.0
189.646072 160.0
189.669586 272.0
189.707291 212.0
189.73233 164.0
189.765671 164.0
189.793854 172.0
189.825745 140.0
189.885361 312.0
189.914902 68.0
189.948074 160.0
189.956924 136.0
190.005402 132.0
190.038803 236.0
190.050812 216.0
190.074341 292.0
190.101242 224.0
190.154663 148.0
190.201324 176.0
190.228027 152.0
190.274612 116.0
190.285583 112.0
190.340591 140.0
190.384354 128.0
190.41185 156.0
190.437302 196.0
190.486984 164.0
190.535599 280.0
190.566681 296.0
190.589569 196.0
190.62352 108.0
190.655197 364.0
190.683731 180.0
190.716965 232.0
190.754471 180.0
190.762314 64.0
190.793701 188.0
190.814865 132.0
190.83609 100.0
190.874588 160.0
190.905533 164.0
190.951584 192.0
190.971466 196.0
191.032211 136.0
191.075104 244.0
191.117889 228.0
191.126358 180.0
191.158127 244.0
191.17746 200.0
191.210587 304.0
191.299545 236.0
191.304611 316.0
191.364136 152.0
191.394501 156.0
191.419693 92.0
191.460556 148.0
191.483932 152.0
191.522491 248.0
191.533646 188.0
191.575485 344.0
191.606216 160.0
191.630783 160.0
191.665482 464.0
191.737061 144.0
191.798935 132.0
191.817978 140.0
191.889664 116.0
191.922241 248.0
191.933151 176.0
191.998367 140.0
192.010559 128.0
192.018127 136.0
192.050751 132.0
192.111526 436.0
192.138596 240.0
192.190796 208.0
192.228928 164.0
192.254654 336.0
192.29129 292.0
192.342224 156.0
192.380722 116.0
192.407654 284.0
192.415298 184.0
192.424393 156.0
192.43483 188.0
192.474411 124.0
192.516037 428.0
192.546783 84.0
192.569153 184.0
192.614151 96.0
192.663284 164.0
192.713867 128.0
192.733368 128.0
192.765732 108.0
192.806549 148.0
192.832199 204.0
192.859024 104.0
192.871399 108.0
192.877106 92.0
192.914398 148.0
192.95134 128.0
193.00383 144.0
193.017838 100.0
193.064789 176.0
193.107437 120.0
193.143311 140.0
193.175354 180.0
193.214005 184.0
193.248703 200.0
193.276672 160.0
193.33313 148.0
193.354355 76.0
193.373611 156.0
193.399338 128.0
193.446274 244.0
193.467728 116.0
193.499481 296.0
193.554153 104.0
193.577667 224.0
193.609985 172.0
193.629944 136.0
193.670441 164.0
193.712021 352.0
193.750946 328.0
193.777328 100.0
193.801025 116.0
193.82077 300.0
193.848953 184.0
193.869263 240.0
193.891281 224.0
193.910706 120.0
193.928711 528.0
193.963364 92.0
193.98349 112.0
194.022202 124.0
194.071167 124.0
194.129227 192.0
194.151199 136.0
194.19902 164.0
194.234512 340.0
194.289108 132.0
194.32132 132.0
194.341553 168.0
194.371323 120.0
194.423859 368.0
194.471222 124.0
194.511322 112.0
194.552078 168.0
194.602112 136.0
194.630722 216.0
194.65303 156.0
194.658829 104.0
194.702026 132.0
194.722046 292.0
194.737564 176.0
194.762833 188.0
194.801529 152.0
194.841888 256.0
194.871399 344.0
194.895462 44.0
194.952896 160.0
194.992737 140.0
195.014008 116.0
195.039841 144.0
195.09938 224.0
195.131714 200.0
195.1492 136.0
195.231339 140.0
195.275146 168.0
195.315247 184.0
195.361877 116.0
195.421204 144.0
195.481155 140.0
195.529053 152.0
195.539276 108.0
195.574097 196.0
195.609619 76.0
195.6577 148.0
195.700287 444.0
195.719269 184.0
195.745743 324.0
195.793076 88.0
195.832962 188.0
195.860641 204.0
195.890182 152.0
195.915298 228.0
195.966675 96.0
195.991745 144.0
196.033539 204.0
196.072861 228.0
196.113037 168.0
196.133881 172.0
196.174652 172.0
196.185394 172.0
196.221939 348.0
196.264816 264.0
196.292862 348.0
196.320023 224.0
196.348099 136.0
196.393738 112.0
196.406952 64.0
196.410919 104.0
196.436447 252.0
196.485474 140.0
196.52356 300.0
196.54837 236.0
196.598068 200.0
196.636383 240.0
196.684158 160.0
196.733551 200.0
196.758469 296.0
196.783997 176.0
196.814575 224.0
196.840561 192.0
196.872849 148.0
196.904297 328.0
196.946609 192.0
196.99704 156.0
197.022705 192.0
197.042999 184.0
197.063202 296.0
197.101379 144.0
197.113144 140.0
197.138153 88.0
197.14859 180.0
197.169815 136.0
197.185257 196.0
197.226547 172.0
197.236755 184.0
197.260086 192.0
197.287674 364.0
197.309204 452.0
197.357758 240.0
197.380829 184.0
197.417633 160.0
197.455658 116.0
197.50235 312.0
197.536469 128.0
197.568634 180.0
197.618484 136.0
197.640259 264.0
197.662384 244.0
197.692947 192.0
197.740234 216.0
197.769699 128.0
197.777939 188.0
197.838593 256.0
197.868637 132.0
197.913574 80.0
197.948898 104.0
197.989304 172.0
198.031052 160.0
198.056442 144.0
198.077896 132.0
198.100922 140.0
198.110962 136.0
198.132416 204.0
198.162994 224.0
198.186676 232.0
198.205002 84.0
198.211411 136.0
198.231644 380.0
198.257751 144.0
198.295563 136.0
198.353058 156.0
198.396393 124.0
198.440186 192.0
198.477646 288.0
198.529541 236.0
198.54837 96.0
198.556976 212.0
198.580078 160.0
198.612198 140.0
198.680359 144.0
198.712234 164.0
198.746658 148.0
198.795227 344.0
198.832886 116.0
198.864426 136.0
198.894913 124.0
198.920425 364.0
198.95845 196.0
198.966766 144.0
198.976807 152.0
198.988358 156.0
198.994965 108.0
199.062012 244.0
199.086319 132.0
199.115311 148.0
199.136108 72.0
199.158569 140.0
199.178238 84.0
199.205307 156.0
199.234772 160.0
199.259766 472.0
199.316315 188.0
199.353378 308.0
199.388016 216.0
199.422684 224.0
199.479752 192.0
199.544342 264.0
199.568375 212.0
199.597061 140.0
199.621185 132.0
199.654572 100.0
199.703613 160.0
199.73999 120.0
199.764725 336.0
199.851593 276.0
199.877563 112.0
199.91925 184.0
199.959869 264.0
199.999268 188.0
200.023788 124.0
200.03215 88.0
200.064896 340.0
200.104004 128.0
200.193771 168.0
200.232162 176.0
200.248856 276.0
200.267822 224.0
200.289291 84.0
200.314255 88.0
200.35463 264.0
200.400482 128.0
200.45018 152.0
200.470627 168.0
200.516022 68.0
200.579514 248.0
200.614594 96.0
200.646759 164.0
200.656845 140.0
200.703644 108.0
200.735626 140.0
200.778687 164.0
200.800125 108.0
200.867569 156.0
200.908737 176.0
200.928558 420.0
200.969574 168.0
201.028976 188.0
201.070557 364.0
201.106613 124.0
201.189209 308.0
201.239761 108.0
201.272369 92.0
201.315353 128.0
201.358246 288.0
201.389832 308.0
201.410828 104.0
201.459671 168.0
201.48201 248.0
201.511475 132.0
201.544769 144.0
201.565338 112.0
201.620041 244.0
201.661026 124.0
201.689697 156.0
201.745804 296.0
201.784042 120.0
201.81073 224.0
201.851715 136.0
201.904266 160.0
201.934799 224.0
201.992203 148.0
202.033554 92.0
202.077911 392.0
202.138794 196.0
202.160156 300.0
202.200943 472.0
202.222275 212.0
202.255386 472.0
202.290298 340.0
202.365402 120.0
202.405487 124.0
202.450851 296.0
202.470749 140.0
202.496933 200.0
202.525589 136.0
202.536469 112.0
202.545609 296.0
202.605453 108.0
202.636826 168.0
202.664368 100.0
202.693497 108.0
202.74147 176.0
202.788635 252.0
202.808533 256.0
202.82782 192.0
202.852203 116.0
202.878036 316.0
202.928543 360.0
202.966476 144.0
202.994904 168.0
203.015366 124.0
203.051224 268.0
203.08078 372.0
203.133514 176.0
203.159729 252.0
203.185867 272.0
203.216766 196.0
203.249252 88.0
203.27948 180.0
203.319 200.0
203.329987 116.0
203.353287 276.0
203.387039 168.0
203.428055 180.0
203.468094 304.0
203.516068 80.0
203.544449 96.0
203.59494 260.0
203.628036 120.0
203.66333 56.0
203.683365 92.0
203.687668 156.0
203.734894 192.0
203.769882 192.0
203.798676 80.0
203.84317 148.0
203.893555 112.0
203.904877 208.0
203.912643 164.0
203.980881 176.0
204.011444 164.0
204.079422 1068.0
204.127686 172.0
204.168045 180.0
204.203751 204.0
204.239746 200.0
204.275238 120.0
204.333099 388.0
204.35997 168.0
204.381851 224.0
204.428955 112.0
204.459015 276.0
204.464966 152.0
204.498779 92.0
204.524567 148.0
204.589874 316.0
204.632065 124.0
204.63765 92.0
204.662506 288.0
204.686752 160.0
204.695572 112.0
204.709656 144.0
204.7202 180.0
204.759308 196.0
204.784622 248.0
204.811432 208.0
204.845352 284.0
204.854095 116.0
204.866364 128.0
204.887772 260.0
204.925491 140.0
204.946854 464.0
204.990768 124.0
205.043625 268.0
205.081116 448.0
205.111725 172.0
205.148422 140.0
205.19455 140.0
205.228149 164.0
205.24704 188.0
205.29451 116.0
205.349503 324.0
205.387268 168.0
205.449554 184.0
205.497864 84.0
205.519852 160.0
205.558456 116.0
205.569427 96.0
205.609619 148.0
205.661011 120.0
205.695969 324.0
205.734314 316.0
205.758682 164.0
205.78688 240.0
205.82753 388.0
205.864868 164.0
205.875229 120.0
205.906219 348.0
205.937546 316.0
206.017426 128.0
206.024063 92.0
206.034561 240.0
206.095078 160.0
206.106873 152.0
206.111588 196.0
206.149155 144.0
206.19136 204.0
206.232162 116.0
206.243698 196.0
206.258514 172.0
206.289062 332.0
206.300339 112.0
206.306839 252.0
206.338013 336.0
206.357697 104.0
206.388153 200.0
206.439285 272.0
206.460724 180.0
206.48526 152.0
206.54805 132.0
206.559372 120.0
206.566055 120.0
206.604706 196.0
206.639847 116.0
206.680344 188.0
206.715332 240.0
206.74292 184.0
206.774338 108.0
206.808685 136.0
206.838181 132.0
206.858414 160.0
206.870697 60.0
206.88327 140.0
206.945465 128.0
206.957092 100.0
206.975113 116.0
207.014816 112.0
207.057602 180.0
207.076691 228.0
207.129974 148.0
207.15625 104.0
207.17514 180.0
207.183578 52.0
207.205154 248.0
207.241104 228.0
207.279755 188.0
207.314148 268.0
207.352753 208.0
207.390121 144.0
207.411682 136.0
207.438248 244.0
207.48082 248.0
207.518951 144.0
207.529404 136.0
207.575012 316.0
207.595444 260.0
207.638367 148.0
207.656998 148.0
207.690277 128.0
207.712814 248.0
207.797745 188.0
207.836319 148.0
207.877655 128.0
207.919693 164.0
207.949615 168.0
207.999374 196.0
208.02774 368.0
208.054749 252.0
208.088089 180.0
208.118835 228.0
208.146057 160.0
208.173325 152.0
208.199738 208.0
208.241516 108.0
208.302811 144.0
208.354111 132.0
208.366699 112.0
208.404846 120.0
208.438705 148.0
208.500122 384.0
208.528885 68.0
208.54216 84.0
208.561783 248.0
208.61084 240.0
208.650299 112.0
208.678848 172.0
208.736313 152.0
208.78421 160.0
208.805573 128.0
208.838715 120.0
208.899704 296.0
208.959381 160.0
208.982162 216.0
209.003479 216.0
209.051193 168.0
209.08168 148.0
209.111069 152.0
209.153702 124.0
209.190964 412.0
209.22023 288.0
209.255966 164.0
209.289734 76.0
209.323639 144.0
209.416977 212.0
209.436737 176.0
209.48497 216.0
209.497711 248.0
209.528061 144.0
209.563599 84.0
209.615723 132.0
209.649078 92.0
209.672134 72.0
209.708435 224.0
209.776398 372.0
209.809052 208.0
209.834412 148.0
209.860275 180.0
209.885361 172.0
209.951187 176.0
209.988235 56.0
210.007828 92.0
210.016754 196.0
210.065491 84.0
210.098877 36.0
210.142151 120.0
210.182541 168.0
210.213638 124.0
210.231918 172.0
210.278564 132.0
210.314651 280.0
210.334 216.0
210.352737 132.0
210.364029 100.0
210.375183 140.0
210.400635 156.0
210.433044 264.0
210.471191 100.0
210.533798 100.0
210.575592 156.0
210.622009 324.0
210.685181 132.0
210.730026 324.0
210.749268 132.0
210.791824 280.0
210.832275 268.0
210.8759 200.0
210.896469 236.0
210.938446 136.0
210.94603 172.0
210.999771 280.0
211.036484 192.0
211.069901 212.0
211.110214 196.0
211.164673 164.0
211.19722 140.0
211.234436 128.0
211.279373 76.0
211.32663 112.0
211.351395 100.0
211.356888 172.0
211.381042 172.0
211.40683 312.0
211.445618 196.0
211.506638 168.0
211.556915 168.0
211.566437 136.0
211.58638 188.0
211.628906 228.0
211.659592 72.0
211.719711 132.0
211.765564 164.0
211.789917 88.0
211.81131 172.0
211.86322 104.0
211.904602 240.0
211.94635 172.0
211.975143 300.0
212.034317 204.0
212.054962 148.0
212.075455 160.0
212.102844 152.0
212.157181 268.0
212.182205 204.0
212.2164 140.0
212.237198 140.0
212.272491 124.0
212.320496 176.0
212.390106 168.0
212.455536 208.0
212.494095 144.0
212.505112 168.0
212.554825 132.0
212.592987 156.0
212.613983 172.0
212.652542 108.0
212.687576 88.0
212.716843 368.0
212.749664 396.0
212.808701 204.0
212.845276 192.0
212.869034 288.0
212.884857 200.0
212.949341 84.0
212.977356 216.0
213.001068 144.0
213.02153 240.0
213.062286 292.0
213.112411 136.0
213.122452 204.0
213.165253 188.0
213.2043 136.0
213.284225 152.0
213.327728 312.0
213.352417 136.0
213.409698 224.0
213.483612 268.0
213.538116 328.0
213.569412 140.0
213.62265 184.0
213.655411 68.0
213.672943 136.0
213.723343 68.0
213.775116 320.0
213.832809 132.0
213.868271 180.0
213.91008 224.0
213.923019 196.0
213.956665 128.0
214.003738 432.0
214.06691 856.0
214.122269 108.0
214.154114 144.0
214.179565 332.0
214.237076 168.0
214.288727 220.0
214.317337 60.0
214.340576 192.0
214.345596 104.0
214.356506 144.0
214.393097 120.0
214.422607 192.0
214.460129 228.0
214.510727 276.0
214.546722 136.0
214.552048 172.0
214.567093 132.0
214.577698 220.0
214.626297 204.0
214.657028 148.0
214.678024 172.0
214.72319 52.0
214.754608 104.0
214.785049 228.0
214.81694 204.0
214.854553 196.0
214.876083 324.0
214.93132 104.0
214.976334 48.0
215.003204 212.0
215.071335 976.0
215.11058 220.0
215.140945 40.0
215.149139 136.0
215.17276 148.0
215.193542 96.0
215.215683 60.0
215.243729 232.0
215.272034 180.0
215.339737 164.0
215.376297 136.0
215.409744 348.0
215.453781 232.0
215.495407 132.0
215.506378 312.0
215.561661 144.0
215.59053 216.0
215.628159 184.0
215.658951 192.0
215.69812 152.0
215.760101 164.0
215.804489 100.0
215.85112 68.0
215.892029 304.0
215.914078 224.0
215.939453 184.0
216.00589 72.0
216.079056 628.0
216.111923 144.0
216.139603 172.0
216.185944 180.0
216.218338 96.0
216.256378 200.0
216.285233 112.0
216.345612 340.0
216.388718 156.0
216.45018 260.0
216.47998 164.0
216.51384 204.0
216.545578 292.0
216.59436 172.0
216.62558 128.0
216.686844 76.0
216.72702 180.0
216.759537 144.0
216.816208 168.0
216.872635 120.0
216.897842 60.0
216.97113 196.0
217.003372 200.0
217.023895 144.0
217.046936 84.0
217.088547 780.0
217.12822 188.0
217.155853 148.0
217.207809 168.0
217.24147 232.0
217.284714 312.0
217.309845 240.0
217.334808 100.0
217.363037 144.0
217.40448 252.0
217.452179 144.0
217.480927 136.0
217.519379 184.0
217.526535 144.0
217.570404 180.0
217.59169 84.0
217.622009 204.0
217.674957 284.0
217.724106 200.0
217.751419 460.0
217.805984 128.0
217.886215 144.0
217.955856 132.0
217.985306 104.0
217.99324 136.0
218.01973 124.0
218.092133 652.0
218.131531 96.0
218.168427 200.0
218.178955 76.0
218.207062 224.0
218.239456 160.0
218.306458 360.0
218.365479 232.0
218.434769 204.0
218.44313 140.0
218.478455 136.0
218.531937 108.0
218.553726 80.0
218.587189 36.0
218.622498 352.0
218.656693 252.0
218.662262 104.0
218.674011 116.0
218.701309 136.0
218.735184 128.0
218.784454 148.0
218.819138 148.0
218.84111 104.0
218.91835 344.0
218.927185 216.0
218.963806 296.0
219.000107 280.0
219.062973 268.0
219.089188 556.0
219.140564 140.0
219.17131 148.0
219.204758 148.0
219.230331 148.0
219.281311 104.0
219.301056 68.0
219.308975 168.0
219.343353 156.0
219.373734 196.0
219.400955 148.0
219.431686 124.0
219.476059 364.0
219.495972 124.0
219.519714 136.0
219.552246 64.0
219.582809 260.0
219.627197 84.0
219.680557 232.0
219.728836 108.0
219.75946 216.0
219.791061 184.0
219.801285 204.0
219.847763 352.0
219.882965 264.0
219.911224 388.0
219.954025 216.0
219.995438 240.0
220.046524 84.0
220.073837 460.0
220.094147 120.0
220.14328 136.0
220.173096 160.0
220.224564 128.0
220.283447 336.0
220.346786 252.0
220.394058 172.0
220.431534 164.0
220.451782 124.0
220.490372 108.0
220.529892 128.0
220.569336 128.0
220.624344 100.0
220.6371 152.0
220.646912 72.0
220.716232 172.0
220.745804 152.0
220.789444 160.0
220.816605 144.0
220.847702 176.0
220.899139 160.0
220.937012 284.0
220.967026 172.0
220.996536 104.0
221.044922 244.0
221.078232 380.0
221.102234 268.0
221.128693 244.0
221.153549 160.0
221.159576 88.0
221.197571 112.0
221.223877 212.0
221.233704 124.0
221.247192 200.0
221.309067 124.0
221.390213 176.0
221.420013 324.0
221.486404 296.0
221.498291 140.0
221.526169 152.0
221.551636 108.0
221.59024 136.0
221.63382 236.0
221.67395 176.0
221.705109 64.0
221.735504 152.0
221.745682 48.0
221.757523 188.0
221.793518 184.0
221.839294 168.0
221.848267 56.0
221.860565 188.0
221.890701 356.0
221.939041 164.0
221.98111 356.0
222.006775 200.0
222.030457 332.0
222.066193 112.0
222.101944 312.0
222.129532 152.0
222.169998 304.0
222.217331 144.0
222.252914 196.0
222.274002 84.0
222.281082 96.0
222.362778 220.0
222.395569 288.0
222.429947 160.0
222.469727 160.0
222.501495 152.0
222.541412 148.0
222.568146 104.0
222.602783 84.0
222.646484 104.0
222.672348 156.0
222.716629 156.0
222.737427 200.0
222.778687 132.0
222.856247 180.0
222.893005 416.0
222.920135 184.0
222.934998 188.0
222.982651 252.0
223.016785 180.0
223.051407 120.0
223.079803 256.0
223.105164 244.0
223.126709 72.0
223.162384 148.0
223.203842 200.0
223.24855 356.0
223.306808 284.0
223.329773 112.0
223.364761 152.0
223.404266 120.0
223.460785 124.0
223.52037 180.0
223.587753 132.0
223.648148 232.0
223.669678 152.0
223.701752 188.0
223.726044 324.0
223.743973 116.0
223.771164 284.0
223.807785 320.0
223.84845 364.0
223.878311 80.0
223.903336 160.0
223.934494 232.0
223.966858 212.0
224.007782 184.0
224.026932 160.0
224.066666 144.0
224.134354 216.0
224.161865 140.0
224.170853 128.0
224.196259 184.0
224.225876 156.0
224.258774 92.0
224.279831 196.0
224.334137 392.0
224.38681 140.0
224.411545 284.0
224.428558 224.0
224.455887 104.0
224.49472 304.0
224.529068 236.0
224.570236 208.0
224.610168 304.0
224.633286 84.0
224.644058 116.0
224.653778 220.0
224.713989 188.0
224.725449 180.0
224.775925 156.0
224.817871 140.0
224.848389 160.0
224.873245 132.0
224.900223 164.0
224.940918 168.0
224.970764 84.0
225.003403 112.0
225.044266 124.0
225.067841 92.0
225.101334 428.0
225.162979 140.0
225.200699 64.0
225.226486 88.0
225.247803 136.0
225.293991 152.0
225.333054 164.0
225.363846 244.0
225.375351 172.0
225.383438 328.0
225.413132 144.0
225.472076 216.0
225.511581 72.0
225.565033 268.0
225.612686 176.0
225.662613 152.0
225.689911 108.0
225.723969 208.0
225.755615 132.0
225.800339 132.0
225.806274 164.0
225.85527 308.0
225.91832 152.0
225.970444 132.0
225.996872 92.0
226.019455 136.0
226.030273 160.0
226.064499 264.0
226.092484 132.0
226.117157 188.0
226.141663 300.0
226.185333 428.0
226.211349 160.0
226.237518 248.0
226.263184 212.0
226.306961 448.0
226.311615 252.0
226.364243 180.0
226.388718 164.0
226.420929 164.0
226.483826 116.0
226.514145 136.0
226.572327 272.0
226.586609 140.0
226.610947 288.0
226.642975 128.0
226.686325 244.0
226.741211 128.0
226.794205 164.0
226.832657 84.0
226.86467 128.0
226.878799 144.0
226.890823 156.0
226.923538 164.0
226.972321 200.0
226.99144 248.0
227.014297 108.0
227.044159 208.0
227.064117 400.0
227.093536 204.0
227.134338 160.0
227.163498 144.0
227.225143 160.0
227.274216 172.0
227.325516 128.0
227.365097 188.0
227.416702 216.0
227.44632 104.0
227.474503 200.0
227.51973 132.0
227.568665 292.0
227.579788 192.0
227.591202 216.0
227.604355 412.0
227.639511 184.0
227.674377 264.0
227.705658 348.0
227.731277 168.0
227.742081 152.0
227.770889 112.0
227.794159 368.0
227.826614 232.0
227.831161 168.0
227.851852 252.0
227.88414 192.0
227.889282 152.0
227.935181 248.0
227.998199 160.0
228.003891 132.0
228.038025 384.0
228.082062 784.0
228.159698 144.0
228.225388 280.0
228.303787 180.0
228.328308 80.0
228.343796 80.0
228.369217 312.0
228.407852 104.0
228.435135 232.0
228.489822 144.0
228.511719 168.0
228.581345 124.0
228.611511 204.0
228.649734 92.0
228.69281 192.0
228.754715 396.0
228.793777 220.0
228.83136 176.0
228.853348 176.0
228.870056 176.0
228.879349 204.0
228.90744 216.0
228.940125 240.0
228.965958 204.0
228.97905 152.0
228.990585 184.0
229.018524 116.0
229.088028 1812.0
229.138748 212.0
229.1698 128.0
229.19519 204.0
229.216827 124.0
229.249557 108.0
229.278229 340.0
229.343689 184.0
229.366928 132.0
229.42543 100.0
229.445038 212.0
229.482086 136.0
229.493576 260.0
229.534927 236.0
229.566025 116.0
229.5979 164.0
229.625854 244.0
229.660828 152.0
229.71637 368.0
229.754379 160.0
229.787338 160.0
229.810226 276.0
229.841873 212.0
229.866684 72.0
229.910767 148.0
229.957092 136.0
229.988998 148.0
229.993774 96.0
230.008026 320.0
230.049988 288.0
230.097763 18596.0
230.149506 148.0
230.174149 308.0
230.195679 168.0
230.240417 396.0
230.281189 244.0
230.343033 176.0
230.375061 284.0
230.404022 160.0
230.467316 144.0
230.495071 112.0
230.523499 236.0
230.552612 120.0
230.607422 144.0
230.627365 160.0
230.679916 224.0
230.707443 144.0
230.732864 236.0
230.774658 320.0
230.819992 152.0
230.825562 164.0
230.8591 160.0
230.911041 288.0
230.933289 160.0
230.969742 108.0
231.001053 180.0
231.027206 196.0
231.102554 5276.0
231.184235 204.0
231.234131 168.0
231.263596 352.0
231.288177 148.0
231.297379 212.0
231.3396 172.0
231.40683 156.0
231.453766 168.0
231.505783 252.0
231.531586 128.0
231.542038 172.0
231.571762 80.0
231.618378 224.0
231.642838 160.0
231.652969 92.0
231.659988 304.0
231.686813 368.0
231.70575 256.0
231.744965 176.0
231.785431 168.0
231.814514 100.0
231.830627 188.0
231.87149 124.0
231.900513 136.0
231.936981 188.0
231.962677 148.0
232.003815 108.0
232.027786 220.0
232.075638 500.0
232.106506 1016.0
232.169769 384.0
232.194275 152.0
232.199081 232.0
232.227066 136.0
232.268402 288.0
232.317154 164.0
232.378784 336.0
232.448654 148.0
232.493042 156.0
232.522751 124.0
232.564224 232.0
232.611374 232.0
232.66124 144.0
232.683502 116.0
232.689453 136.0
232.714188 128.0
232.750397 308.0
232.772903 176.0
232.861893 192.0
232.879456 204.0
232.95311 100.0
233.005844 120.0
233.064743 136.0
233.141327 152.0
233.168564 116.0
233.2173 188.0
233.250244 164.0
233.272217 196.0
233.299347 384.0
233.339828 152.0
233.34436 104.0
233.373184 340.0
233.470566 128.0
233.50032 196.0
233.532516 216.0
233.571411 236.0
233.611877 180.0
233.640152 316.0
233.669205 412.0
233.696548 448.0
233.727798 256.0
233.747437 128.0
233.79393 108.0
233.833603 220.0
233.857285 104.0
233.916519 132.0
233.963821 432.0
233.986237 128.0
234.007736 152.0
234.036316 212.0
234.09082 696.0
234.134964 232.0
234.197479 344.0
234.23027 276.0
234.274445 128.0
234.302597 100.0
234.360062 256.0
234.392822 136.0
234.448883 412.0
234.477188 148.0
234.530777 228.0
234.560043 116.0
234.587646 124.0
234.592896 64.0
234.636261 176.0
234.647629 120.0
234.679108 164.0
234.690842 128.0
234.701965 116.0
234.738495 192.0
234.771255 252.0
234.795654 320.0
234.826157 280.0
234.877396 100.0
234.909775 160.0
234.960709 180.0
235.004105 116.0
235.05249 124.0
235.098648 296.0
235.128189 236.0
235.162842 332.0
235.260315 200.0
235.282654 152.0
235.312271 132.0
235.350967 192.0
235.386261 164.0
235.435425 232.0
235.487015 196.0
235.507645 120.0
235.544724 188.0
235.569641 180.0
235.593292 148.0
235.652039 196.0
235.71228 196.0
235.738205 112.0
235.771469 380.0
235.791489 128.0
235.816376 188.0
235.85849 180.0
235.872574 156.0
235.880661 100.0
235.958527 148.0
235.982681 392.0
235.991165 196.0
236.021255 92.0
236.032257 80.0
236.057388 48.0
236.101303 136.0
236.149719 112.0
236.176849 152.0
236.202438 320.0
236.269638 184.0
236.279282 148.0
236.287018 348.0
236.327423 180.0
236.359375 184.0
236.389008 180.0
236.412766 212.0
236.456909 128.0
236.484055 164.0
236.515778 144.0
236.568985 84.0
236.606232 216.0
236.660553 432.0
236.743881 120.0
236.81955 180.0
236.844635 240.0
236.868713 172.0
236.948502 68.0
236.970566 220.0
236.994415 124.0
237.028488 428.0
237.064865 280.0
237.084106 200.0
237.092636 116.0
237.105286 220.0
237.13414 460.0
237.203156 348.0
237.238693 172.0
237.278549 96.0
237.302994 272.0
237.338272 132.0
237.361343 136.0
237.385101 120.0
237.438736 388.0
237.472855 120.0
237.492737 120.0
237.525558 168.0
237.584778 272.0
237.620255 272.0
237.646408 168.0
237.677414 200.0
237.721222 100.0
237.752533 120.0
237.787933 132.0
237.819489 232.0
237.858337 236.0
237.905884 164.0
237.94957 240.0
237.954102 148.0
238.011002 248.0
238.03566 132.0
238.042786 152.0
238.088531 160.0
238.147278 156.0
238.1866 124.0
238.222778 164.0
238.254486 160.0
238.309647 96.0
238.337006 172.0
238.387878 124.0
238.427628 148.0
238.456375 188.0
238.513504 248.0
238.555634 164.0
238.637436 132.0
238.657806 300.0
238.709244 180.0
238.767059 100.0
238.780014 284.0
238.81691 256.0
238.91066 304.0
238.947037 148.0
238.972656 168.0
239.018524 240.0
239.043701 64.0
239.052963 120.0
239.062012 132.0
239.076279 176.0
239.135269 380.0
239.193344 116.0
239.218765 180.0
239.271317 200.0
239.300491 248.0
239.334442 148.0
239.370956 360.0
239.439011 160.0
239.476547 112.0
239.502884 304.0
239.509109 144.0
239.522598 152.0
239.585831 68.0
239.623428 200.0
239.649399 312.0
239.697784 116.0
239.739532 80.0
239.774643 196.0
239.807816 184.0
239.839233 276.0
239.877228 168.0
239.914154 276.0
239.976929 156.0
240.012695 328.0
240.079651 1208.0
240.118271 80.0
240.161331 144.0
240.182755 192.0
240.228714 156.0
240.26593 128.0
240.29863 136.0
240.332657 60.0
240.380142 232.0
240.402451 316.0
240.42865 148.0
240.460617 392.0
240.508041 148.0
240.516754 268.0
240.527618 324.0
240.557602 140.0
240.590622 280.0
240.61496 128.0
240.671097 180.0
240.697708 160.0
240.718384 184.0
240.796341 152.0
240.83255 116.0
240.86142 244.0
240.891449 212.0
240.926727 152.0
240.955429 192.0
240.964005 228.0
240.9776 156.0
240.989944 360.0
241.010178 136.0
241.080948 3148.0
241.152878 320.0
241.174774 156.0
241.211487 216.0
241.239243 168.0
241.259918 324.0
241.28511 92.0
241.319153 212.0
241.344299 208.0
241.398315 68.0
241.431671 288.0
241.47644 108.0
241.509659 112.0
241.560547 244.0
241.601898 220.0
241.613495 300.0
241.65657 260.0
241.668015 188.0
241.680038 360.0
241.693878 180.0
241.707169 180.0
241.740433 188.0
241.787369 288.0
241.810242 236.0
241.845932 296.0
241.873062 524.0
241.943237 248.0
241.977982 460.0
242.01683 452.0
242.0867 199228.0
242.172012 272.0
242.19989 248.0
242.236588 272.0
242.285782 92.0
242.299789 48.0
242.343475 216.0
242.37648 344.0
242.421066 192.0
242.445358 200.0
242.508179 176.0
242.548965 468.0
242.594971 1204.0
242.64801 148.0
242.706146 292.0
242.768677 272.0
242.827011 260.0
242.854813 120.0
242.889893 396.0
242.903275 372.0
242.913895 124.0
242.923492 440.0
243.000671 156.0
243.024918 312.0
243.088806 43480.0
243.158829 144.0
243.192551 332.0
243.261627 396.0
243.309219 128.0
243.340149 224.0
243.348068 104.0
243.378433 284.0
243.404343 268.0
243.431839 216.0
243.454651 160.0
243.48703 48.0
243.513535 280.0
243.526184 108.0
243.537766 208.0
243.574387 192.0
243.607681 244.0
243.617828 220.0
243.66214 276.0
243.685623 160.0
243.742691 240.0
243.77739 164.0
243.809921 60.0
243.835876 152.0
243.862396 88.0
243.904633 156.0
243.917465 200.0
243.957993 200.0
243.990051 160.0
244.011566 84.0
244.045441 232.0
244.091339 3464.0
244.131241 164.0
244.168396 276.0
244.213364 120.0
244.267792 136.0
244.290207 140.0
244.362 348.0
244.416016 232.0
244.424667 208.0
244.436188 212.0
244.464249 256.0
244.476944 160.0
244.498764 196.0
244.522568 96.0
244.533478 112.0
244.558029 144.0
244.596405 228.0
244.618378 256.0
244.672501 200.0
244.706635 268.0
244.733109 156.0
244.758606 220.0
244.764114 236.0
244.776215 268.0
244.787567 280.0
244.801346 272.0
244.837906 316.0
244.86441 208.0
244.886734 220.0
244.94519 388.0
245.001831 236.0
245.037079 148.0
245.095657 308.0
245.143158 100.0
245.166748 296.0
245.208923 388.0
245.233185 184.0
245.260544 124.0
245.305725 108.0
245.327682 176.0
245.350037 348.0
245.409744 120.0
245.432526 104.0
245.459198 168.0
245.48671 268.0
245.544037 172.0
245.547745 224.0
245.590973 148.0
245.62265 76.0
245.669418 132.0
245.69574 116.0
245.708771 136.0
245.730301 212.0
245.807816 292.0
245.845749 232.0
245.891525 144.0
245.915771 240.0
245.941055 260.0
246.005356 316.0
246.08931 780.0
246.168335 172.0
246.191132 136.0
246.22583 132.0
246.254654 248.0
246.279694 180.0
246.311829 76.0
246.342453 96.0
246.366531 132.0
246.39563 240.0
246.459351 176.0
246.522766 176.0
246.571869 136.0
246.61235 140.0
246.655945 112.0
246.693298 112.0
246.716751 160.0
246.750946 344.0
246.818802 252.0
246.852097 236.0
246.908646 160.0
246.942749 284.0
247.002792 160.0
247.059799 240.0
247.089615 792.0
247.154709 96.0
247.188858 76.0
247.218369 204.0
247.265991 168.0
247.334167 164.0
247.372971 192.0
247.434402 264.0
247.467514 152.0
247.493256 192.0
247.517395 180.0
247.541107 124.0
247.591202 204.0
247.616257 40.0
247.638184 184.0
247.678589 204.0
247.683945 216.0
247.733887 192.0
247.762955 184.0
247.779922 160.0
247.826141 144.0
247.857468 156.0
247.898209 148.0
247.975357 268.0
248.048645 288.0
248.068939 192.0
248.106155 788.0
248.153488 360.0
248.184814 184.0
248.210632 72.0
248.2603 444.0
248.294235 124.0
248.32724 96.0
248.357452 256.0
248.395462 120.0
248.404129 132.0
248.417709 168.0
248.491867 120.0
248.502609 148.0
248.544159 116.0
248.603027 296.0
248.613708 120.0
248.657135 148.0
248.725037 132.0
248.744797 56.0
248.778549 100.0
248.826202 124.0
248.893356 96.0
248.92778 160.0
248.952988 116.0
248.984421 144.0
249.015045 32.0
249.08252 116.0
249.123047 412.0
249.16861 112.0
249.191772 108.0
249.23494 140.0
249.299454 136.0
249.321274 160.0
249.367966 420.0
249.423508 144.0
249.454514 268.0
249.522827 256.0
249.554977 204.0
249.588638 204.0
249.629044 128.0
249.635483 160.0
249.675034 160.0
249.699432 100.0
249.727173 172.0
249.734024 100.0
249.746094 248.0
249.790985 120.0
249.817642 164.0
249.840164 112.0
249.895615 128.0
249.946548 224.0
249.977753 208.0
250.026901 212.0
250.073853 464.0
250.100006 160.0
250.121323 160.0
250.210968 208.0
250.282776 260.0
250.307999 196.0
250.332733 44.0
250.381119 280.0
250.403275 360.0
250.449265 140.0
250.48645 196.0
250.534317 120.0
250.590714 164.0
250.618546 152.0
250.672104 208.0
250.678619 160.0
250.704453 112.0
250.744461 196.0
250.788864 148.0
250.814774 144.0
250.84314 40.0
250.87291 96.0
250.884766 156.0
250.926178 108.0
250.983658 112.0
251.00531 240.0
251.057281 148.0
251.12149 200.0
251.163239 248.0
251.231003 272.0
251.260971 120.0
251.292831 348.0
251.377014 232.0
251.416702 292.0
251.447815 248.0
251.491882 164.0
251.513901 172.0
251.584763 80.0
251.620331 140.0
251.639908 208.0
251.714066 160.0
251.756943 140.0
251.809357 192.0
251.840225 40.0
251.885025 288.0
251.954315 172.0
251.974228 284.0
252.011719 56.0
252.059555 116.0
252.093994 148.0
252.104553 192.0
252.143524 60.0
252.167084 72.0
252.209351 140.0
252.275497 192.0
252.318985 112.0
252.342377 140.0
252.380005 140.0
252.422958 184.0
252.478638 188.0
252.524948 124.0
252.5504 152.0
252.597336 136.0
252.654846 216.0
252.693726 140.0
252.715881 176.0
252.766724 144.0
252.793594 148.0
252.819489 232.0
252.844208 260.0
252.885712 164.0
252.900085 152.0
252.974915 160.0
253.010742 176.0
253.049911 192.0
253.076111 244.0
253.115265 168.0
253.168869 440.0
253.196487 216.0
253.24353 276.0
253.286575 116.0
253.332947 184.0
253.346588 148.0
253.374786 100.0
253.395782 220.0
253.424942 140.0
253.441086 92.0
253.499649 116.0
253.533188 332.0
253.555634 292.0
253.597 184.0
253.634415 140.0
253.674408 384.0
253.710266 180.0
253.734482 176.0
253.761063 344.0
253.824707 140.0
253.840179 84.0
253.850311 152.0
253.92244 328.0
253.954956 132.0
253.981201 276.0
254.009827 172.0
254.036102 220.0
254.084381 160.0
254.118668 116.0
254.127777 148.0
254.181198 208.0
254.216003 216.0
254.243088 104.0
254.279007 172.0
254.310776 136.0
254.404053 112.0
254.435318 84.0
254.467453 68.0
254.511749 108.0
254.525146 44.0
254.538071 248.0
254.574905 304.0
254.625519 204.0
254.686554 172.0
254.720551 116.0
254.75972 320.0
254.780457 204.0
254.813782 156.0
254.867874 440.0
254.913666 244.0
254.947174 256.0
254.985626 132.0
255.011581 352.0
255.057602 412.0
255.092621 11452.0
255.146606 592.0
255.21077 456.0
255.237259 216.0
255.260071 284.0
255.306564 160.0
255.345139 148.0
255.370377 196.0
255.392105 92.0
255.400482 312.0
255.434723 260.0
255.465103 120.0
255.519623 352.0
255.575912 436.0
255.62674 524.0
255.652725 208.0
255.693558 316.0
255.721344 236.0
255.757828 392.0
255.848099 408.0
255.874817 292.0
255.90358 364.0
255.913239 580.0
255.937775 492.0
255.972137 476.0
255.997742 384.0
256.047028 340.0
256.101898 89344.0
256.198486 628.0
256.214539 308.0
256.219299 376.0
256.247681 388.0
256.267853 332.0
256.300415 548.0
256.325104 384.0
256.332458 240.0
256.360107 428.0
256.396149 876.0
256.406586 436.0
256.417938 508.0
256.448608 312.0
256.47226 360.0
256.482574 384.0
256.551697 608.0
256.556427 420.0
256.583954 564.0
256.594147 532.0
256.635254 396.0
256.683167 364.0
256.72049 476.0
256.766113 452.0
256.803284 560.0
256.824188 584.0
256.863098 1076.0
256.876068 868.0
256.890289 680.0
256.946472 1068.0
256.998627 872.0
257.067352 3024.0
257.111389 492632.0
257.2276 436.0
257.28363 72.0
257.329041 860.0
257.404633 3636.0
257.457001 1204.0
257.505859 824.0
257.546906 1456.0
257.595673 2216.0
257.638184 27560.0
257.723206 380.0
257.731079 232.0
257.760315 760.0
257.790527 532.0
257.820709 280.0
257.843231 344.0
257.888428 628.0
257.927368 1036.0
257.969635 436.0
257.99292 444.0
258.002045 356.0
258.035248 492.0
258.113098 328580.0
258.189819 252.0
258.230927 508.0
258.278503 128.0
258.329498 240.0
258.391968 416.0
258.414948 500.0
258.463593 628.0
258.490387 280.0
258.540558 204.0
258.566833 196.0
258.578827 192.0
258.60437 332.0
258.640411 1032.0
258.685974 524.0
258.713318 356.0
258.750122 244.0
258.777313 280.0
258.800262 328.0
258.829681 72.0
258.852386 216.0
258.887177 320.0
258.942627 292.0
258.967407 324.0
258.977112 292.0
259.009552 360.0
259.115479 27952.0
259.173737 224.0
259.184998 244.0
259.219025 300.0
259.260406 148.0
259.302948 216.0
259.339752 256.0
259.384949 156.0
259.415436 88.0
259.462372 484.0
259.484039 396.0
259.505798 284.0
259.550079 324.0
259.575775 284.0
259.609833 596.0
259.653961 352.0
259.692322 268.0
259.714752 524.0
259.749969 268.0
259.76181 348.0
259.807098 672.0
259.854889 264.0
259.894379 708.0
259.926392 704.0
259.938477 392.0
259.95752 396.0
259.96524 572.0
259.993774 640.0
260.018341 776.0
260.052917 688.0
260.114594 1324.0
260.165985 532.0
260.200775 300.0
260.226471 192.0
260.234741 296.0
260.245453 224.0
260.2742 208.0
260.312469 160.0
260.338898 160.0
260.349518 120.0
260.365845 164.0
260.371216 120.0
260.394623 204.0
260.406891 116.0
260.447174 296.0
260.486694 172.0
260.532837 120.0
260.577393 232.0
260.598236 224.0
260.649109 100.0
260.658234 136.0
260.67868 136.0
260.724365 284.0
260.772827 136.0
260.821777 192.0
260.826721 192.0
260.841003 204.0
260.876831 156.0
260.905304 228.0
260.994385 148.0
261.011841 208.0
261.020386 236.0
261.046783 320.0
261.095825 476.0
261.102539 280.0
261.134979 364.0
261.198975 236.0
261.2435 124.0
261.274628 236.0
261.291809 112.0
261.305176 272.0
261.350708 80.0
261.400177 44.0
261.424469 156.0
261.445221 76.0
261.481323 76.0
261.520386 284.0
261.569122 108.0
261.600861 56.0
261.649536 56.0
261.680359 128.0
261.723419 140.0
261.748108 60.0
261.786896 268.0
261.822021 116.0
261.879791 224.0
261.922241 252.0
261.95752 92.0
261.976776 172.0
262.006836 56.0
262.043427 188.0
262.086945 568.0
262.161926 60.0
262.174408 48.0
262.186859 60.0
262.225189 84.0
262.25174 68.0
262.280029 180.0
262.327332 80.0
262.363068 72.0
262.389679 56.0
262.424805 204.0
262.458221 172.0
262.511963 264.0
262.543945 108.0
262.578217 116.0
262.661804 140.0
262.727142 104.0
262.76123 28.0
262.785156 68.0
262.836731 80.0
262.874176 72.0
262.927521 308.0
262.950531 216.0
262.958984 116.0
262.969788 76.0
262.981171 160.0
262.99118 140.0
263.038513 88.0
263.079437 120.0
263.101501 92.0
263.188232 148.0
263.276245 76.0
263.325256 200.0
263.383911 124.0
263.428192 76.0
263.468262 44.0
263.493378 72.0
263.539337 52.0
263.564514 76.0
263.629547 52.0
263.648193 156.0
263.683136 60.0
263.710266 68.0
263.767853 248.0
263.803467 60.0
263.830872 76.0
263.879517 48.0
263.901337 96.0
263.955902 96.0
263.997986 108.0
264.04361 48.0
264.092865 88.0
264.141785 96.0
264.178558 128.0
264.264709 104.0
264.336548 72.0
264.360657 40.0
264.441559 28.0
264.467438 72.0
264.493347 136.0
264.521362 92.0
264.551605 48.0
264.580231 104.0
264.684357 40.0
264.763489 228.0
264.817139 44.0
264.881897 104.0
264.907806 172.0
264.930481 144.0
264.99054 204.0
265.010071 160.0
265.043762 112.0
265.077484 108.0
265.102936 92.0
265.156311 180.0
265.255798 104.0
265.282837 104.0
265.295593 108.0
265.380981 200.0
265.413391 160.0
265.482971 120.0
265.533386 44.0
265.591766 88.0
265.633453 184.0
265.706604 120.0
265.737762 52.0
265.770203 156.0
265.799408 72.0
265.834015 72.0
265.846985 48.0
265.913177 64.0
265.952545 124.0
265.975922 132.0
266.012482 156.0
266.036316 40.0
266.070831 116.0
266.14505 100.0
266.188904 144.0
266.222717 68.0
266.283081 108.0
266.320129 180.0
266.364288 56.0
266.390289 64.0
266.468262 152.0
266.497498 148.0
266.554474 148.0
266.611206 100.0
266.682159 236.0
266.710022 80.0
266.743103 300.0
266.770477 84.0
266.797058 300.0
266.819977 72.0
266.899078 72.0
266.952545 120.0
267.002838 96.0
267.042419 56.0
267.101807 120.0
267.137329 108.0
267.152435 152.0
267.163879 128.0
267.197693 88.0
267.262665 152.0
267.311859 72.0
267.342255 180.0
267.37442 100.0
267.413544 172.0
267.450317 152.0
267.499512 112.0
267.567505 68.0
267.603333 136.0
267.662567 144.0
267.722534 52.0
267.761932 176.0
267.796783 128.0
267.845795 184.0
267.869873 156.0
267.91272 92.0
268.004517 112.0
268.042694 76.0
268.055695 68.0
268.068726 68.0
268.082794 60.0
268.121887 80.0
268.161011 160.0
268.275848 104.0
268.32254 156.0
268.360291 168.0
268.398193 176.0
268.481201 124.0
268.503204 100.0
268.532043 124.0
268.650635 112.0
268.685333 48.0
268.708191 132.0
268.730194 116.0
268.763763 244.0
268.802795 88.0
268.825653 72.0
268.859924 72.0
268.88913 88.0
268.917023 176.0
268.944336 172.0
268.985565 32.0
269.080505 144.0
269.105713 208.0
269.11084 108.0
269.172302 104.0
269.212738 192.0
269.251251 60.0
269.284058 240.0
269.306549 184.0
269.366882 56.0
269.4151 180.0
269.492737 80.0
269.528992 80.0
269.542114 136.0
269.555969 216.0
269.628998 104.0
269.750183 64.0
269.779175 136.0
269.808105 116.0
269.878815 132.0
269.90686 60.0
269.970428 260.0
270.003693 224.0
270.025818 160.0
270.057281 64.0
270.100037 92.0
270.134155 104.0
270.187958 76.0
270.243866 120.0
270.279755 52.0
270.317505 148.0
270.386169 148.0
270.443817 108.0
270.471741 204.0
270.519653 156.0
270.573608 72.0
270.601379 80.0
270.642395 172.0
270.702698 112.0
270.72821 44.0
270.803528 212.0
270.86084 68.0
270.899872 128.0
270.906464 84.0
270.961334 208.0
271.042664 184.0
271.065613 220.0
271.126953 816.0
271.158661 132.0
271.247589 168.0
271.278656 88.0
271.306519 52.0
271.349731 76.0
271.393402 64.0
271.463837 164.0
271.49054 136.0
271.513336 76.0
271.523254 132.0
271.565918 168.0
271.589478 96.0
271.629517 212.0
271.653473 80.0
271.694183 196.0
271.733398 120.0
271.831177 144.0
271.876343 104.0
271.889709 184.0
271.902405 160.0
271.990448 136.0
272.07785 160.0
272.123077 332.0
272.167206 292.0
272.223755 132.0
272.254364 52.0
272.264099 164.0
272.29718 124.0
272.394348 96.0
272.437805 288.0
272.498871 44.0
272.529968 284.0
272.552887 308.0
272.621033 108.0
272.647339 108.0
272.674744 84.0
272.703217 60.0
272.729492 72.0
272.762878 132.0
272.814453 76.0
272.853821 152.0
272.903442 112.0
272.960938 60.0
272.983521 164.0
272.994049 112.0
273.006409 160.0
273.062531 232.0
273.102081 124.0
273.138245 220.0
273.162109 156.0
273.207916 192.0
273.258942 84.0
273.283844 156.0
273.341187 52.0
273.428192 192.0
273.466248 84.0
273.492584 68.0
273.51709 40.0
273.584747 76.0
273.627533 88.0
273.65509 76.0
273.698883 192.0
273.73291 216.0
273.754913 148.0
273.773682 128.0
273.812531 400.0
273.909424 76.0
273.970123 192.0
274.021973 176.0
274.061157 292.0
274.085236 276.0
274.106628 168.0
274.130127 244.0
274.160248 244.0
274.230225 208.0
274.238586 112.0
274.264069 172.0
274.271881 168.0
274.295288 40.0
274.3284 108.0
274.34964 340.0
274.410889 324.0
274.466461 156.0
274.49408 112.0
274.562927 168.0
274.608734 288.0
274.636292 164.0
274.698975 204.0
274.737854 280.0
274.759735 572.0
274.830994 408.0
274.843811 336.0
274.857544 248.0
274.870728 232.0
274.925568 380.0
274.956604 496.0
275.003571 540.0
275.028076 840.0
275.071014 816.0
275.12088 316180.0
275.235931 140.0
275.27533 92.0
275.281311 104.0
275.303131 244.0
275.325134 72.0
275.356323 248.0
275.433167 224.0
275.462036 396.0
275.504669 168.0
275.533966 324.0
275.619385 140.0
275.664276 3160.0
275.721191 140.0
275.754456 204.0
275.799561 416.0
275.828674 124.0
275.880127 60.0
275.903015 180.0
275.93277 172.0
275.973053 316.0
276.0224 132.0
276.045319 208.0
276.123138 72752.0
276.187805 120.0
276.24295 344.0
276.26001 180.0
276.265198 180.0
276.339264 168.0
276.391113 76.0
276.418274 84.0
276.441772 188.0
276.455078 44.0
276.479218 112.0
276.540802 104.0
276.550873 76.0
276.582062 212.0
276.605774 116.0
276.633148 156.0
276.661652 84.0
276.693665 236.0
276.717865 188.0
276.763733 100.0
276.786377 60.0
276.803314 60.0
276.815552 108.0
276.873413 104.0
276.894592 112.0
276.949646 180.0
277.001007 232.0
277.039398 120.0
277.078979 68.0
277.124878 5924.0
277.196381 24.0
277.206879 80.0
277.233307 100.0
277.243408 36.0
277.29306 120.0
277.331726 164.0
277.377533 76.0
277.414673 64.0
277.467194 140.0
277.507599 172.0
277.553955 256.0
277.613525 92.0
277.635986 76.0
277.647919 136.0
277.699585 232.0
277.739899 276.0
277.791138 136.0
277.802185 180.0
277.816742 280.0
277.842621 184.0
277.85498 228.0
277.878662 132.0
277.912323 184.0
277.942322 176.0
277.976959 208.0
278.012787 284.0
278.031677 216.0
278.059265 244.0
278.085297 332.0
278.130615 916.0
278.212585 172.0
278.245026 152.0
278.256439 224.0
278.309174 172.0
278.318359 124.0
278.370453 156.0
278.384399 44.0
278.402863 248.0
278.430206 92.0
278.484497 180.0
278.512604 68.0
278.55365 80.0
278.577148 144.0
278.618835 108.0
278.68338 128.0
278.739532 116.0
278.795746 172.0
278.838135 148.0
278.882874 128.0
278.895264 88.0
278.907593 136.0
278.94577 148.0
278.98877 128.0
279.012146 160.0
279.055389 188.0
279.101929 100.0
279.116119 148.0
279.150116 168.0
279.210571 172.0
279.236206 112.0
279.245056 196.0
279.281647 196.0
279.306793 52.0
279.350311 128.0
279.44577 80.0
279.479767 120.0
279.502167 124.0
279.559082 48.0
279.604858 116.0
279.703278 72.0
279.723755 116.0
279.826782 176.0
279.871979 88.0
279.928558 88.0
279.961212 160.0
280.009613 72.0
280.055115 44.0
280.084198 88.0
280.111755 128.0
280.14505 152.0
280.200714 116.0
280.285828 80.0
280.444519 152.0
280.504944 116.0
280.601624 80.0
280.698792 56.0
280.744995 40.0
280.786621 124.0
280.845062 68.0
280.920197 76.0
280.998505 92.0
281.038544 68.0
281.1716 132.0
281.256439 192.0
281.308868 160.0
281.355591 52.0
281.388977 44.0
281.508484 96.0
281.579132 68.0
281.607849 144.0
281.652802 72.0
281.682861 72.0
281.769714 56.0
281.852112 140.0
281.922607 116.0
282.018036 104.0
282.070465 44.0
282.107239 108.0
282.214233 156.0
282.297821 172.0
282.331268 36.0
282.45166 88.0
282.475098 76.0
282.541992 76.0
282.565399 108.0
282.592163 108.0
282.618958 48.0
282.660736 148.0
282.723938 104.0
282.840942 108.0
282.918152 168.0
282.973724 180.0
283.00293 88.0
283.104065 112.0
283.123871 52.0
283.154541 176.0
283.251678 72.0
283.445984 104.0
283.479492 120.0
283.587616 148.0
283.623444 160.0
283.676117 108.0
283.733978 108.0
283.841522 120.0
283.911835 140.0
283.986328 176.0
284.032532 136.0
284.06781 148.0
284.120239 40476.0
284.220215 124.0
284.2565 84.0
284.265015 112.0
284.326935 232.0
284.374664 108.0
284.410828 140.0
284.43869 80.0
284.464142 76.0
284.518311 176.0
284.543976 156.0
284.579681 180.0
284.622253 148.0
284.675507 164.0
284.745148 132.0
284.800476 140.0
284.838287 32.0
284.879425 76.0
284.923065 368.0
284.975067 200.0
284.998199 224.0
285.028351 104.0
285.033661 240.0
285.105042 73976.0
285.216431 160.0
285.257263 176.0
285.285767 148.0
285.31546 48.0
285.367188 156.0
285.39975 112.0
285.437988 36.0
285.47287 88.0
285.544037 204.0
285.582947 120.0
285.620392 76.0
285.65509 32.0
285.697327 108.0
285.729919 164.0
285.789673 76.0
285.816589 60.0
285.853607 76.0
285.899292 124.0
285.933746 64.0
286.003662 116.0
286.050354 148.0
286.106354 11456.0
286.198883 80.0
286.291992 140.0
286.329224 56.0
286.35614 88.0
286.390747 44.0
286.42569 112.0
286.454132 140.0
286.497894 144.0
286.52597 140.0
286.612518 200.0
286.647705 60.0
286.684784 92.0
286.771118 116.0
286.841919 136.0
286.898865 68.0
286.988129 44.0
287.111755 1796.0
287.174194 76.0
287.25 76.0
287.258881 76.0
287.329376 84.0
287.366486 40.0
287.436737 108.0
287.504486 76.0
287.516785 52.0
287.530151 104.0
287.589203 48.0
287.618378 112.0
287.653351 72.0
287.695679 172.0
287.730988 188.0
287.76474 84.0
287.812225 64.0
287.845764 100.0
287.877533 84.0
287.926819 128.0
288.049408 112.0
288.088165 136.0
288.117584 372.0
288.173889 56.0
288.205841 100.0
288.251007 112.0
288.305206 60.0
288.344177 60.0
288.378143 92.0
288.404205 112.0
288.430237 32.0
288.505341 164.0
288.549133 180.0
288.607452 120.0
288.646606 116.0
288.682495 112.0
288.757721 56.0
288.852905 52.0
288.917175 80.0
288.958771 148.0
289.015289 132.0
289.040344 100.0
289.06485 156.0
289.121033 196.0
289.164215 64.0
289.194672 56.0
289.231903 68.0
289.265747 92.0
289.289429 124.0
289.319916 80.0
289.355682 92.0
289.414703 104.0
289.44519 48.0
289.47226 112.0
289.621277 52.0
289.659973 76.0
289.687927 148.0
289.729675 60.0
289.785126 88.0
289.835968 152.0
289.871979 44.0
289.89679 112.0
289.970245 60.0
290.010925 96.0
290.103851 172.0
290.134857 72.0
290.182739 100.0
290.227875 88.0
290.285522 52.0
290.492432 56.0
290.57724 108.0
290.710052 140.0
290.77655 76.0
290.862274 128.0
290.90036 112.0
290.953033 76.0
291.09314 72.0
291.289917 64.0
291.301788 112.0
291.327484 32.0
291.470184 52.0
291.507568 52.0
291.599335 72.0
291.660492 52.0
291.789673 80.0
291.819794 56.0
291.88147 52.0
291.905273 84.0
291.971863 124.0
292.048126 44.0
292.095734 84.0
292.129761 48.0
292.265839 100.0
292.29306 52.0
292.328308 68.0
292.395142 60.0
292.418976 48.0
292.483643 112.0
292.59259 92.0
292.718567 40.0
292.788757 124.0
292.910522 120.0
293.055756 48.0
293.093231 60.0
293.130737 124.0
293.246582 44.0
293.273865 96.0
293.352264 104.0
293.476288 148.0
293.517487 156.0
293.590942 72.0
293.648895 88.0
294.002075 108.0
294.071259 84.0
294.127991 96.0
294.454102 108.0
294.573914 76.0
294.776947 112.0
294.932678 140.0
295.031799 56.0
295.110107 120.0
295.319031 64.0
295.356659 168.0
295.486664 104.0
295.529633 76.0
295.568787 104.0
295.602997 36.0
295.676758 104.0
295.822052 108.0
295.874542 76.0
295.921326 100.0
295.958984 48.0
296.020599 36.0
296.117432 160.0
296.275543 56.0
296.417969 44.0
296.500214 116.0
296.558472 88.0
296.592743 88.0
296.637299 76.0
296.692169 88.0
296.716156 52.0
296.877319 100.0
296.971436 136.0
297.028229 72.0
297.143036 76.0
297.288971 84.0
297.392517 92.0
297.525787 104.0
297.580719 60.0
297.731812 72.0
297.806305 104.0
297.877686 120.0
297.927612 52.0
297.96637 56.0
298.031342 48.0
298.133942 520.0
298.17157 48.0
298.230927 156.0
298.308563 180.0
298.443115 52.0
298.484375 64.0
298.53595 148.0
298.68042 96.0
299.041687 120.0
299.094208 76.0
299.13678 332.0
299.258545 80.0
299.299866 48.0
299.327423 68.0
299.413513 56.0
299.640839 152.0
299.668427 120.0
299.745087 48.0
299.772217 92.0
299.878601 64.0
299.908142 84.0
300.03717 188.0
300.102692 188.0
300.144867 152.0
300.181976 56.0
300.250946 40.0
300.651154 72.0
300.834076 68.0
300.865143 80.0
300.910034 76.0
300.947998 152.0
300.975616 40.0
301.390106 148.0
301.435028 40.0
301.486877 56.0
301.583649 48.0
301.621643 52.0
301.645844 44.0
301.735718 56.0
301.804871 68.0
301.943207 132.0
302.038055 244.0
302.068604 140.0
302.13031 1744.0
302.176178 116.0
302.24176 156.0
302.296631 120.0
302.384247 108.0
302.469116 60.0
302.583344 80.0
302.656067 124.0
302.70108 228.0
302.735687 72.0
302.829193 124.0
302.921417 116.0
302.952637 120.0
302.958588 112.0
303.002411 76.0
303.114899 46460.0
303.20929 96.0
303.238037 216.0
303.289215 112.0
303.327606 104.0
303.380371 64.0
303.444366 92.0
303.500153 52.0
303.570831 136.0
303.670258 36.0
303.707245 120.0
303.734314 60.0
303.759644 116.0
303.792816 36.0
303.828156 64.0
303.851776 292.0
303.914246 56.0
303.945465 160.0
303.997528 136.0
304.058411 140.0
304.117096 8492.0
304.221924 140.0
304.250885 56.0
304.309906 80.0
304.381958 80.0
304.438385 80.0
304.466156 180.0
304.576385 152.0
304.603058 80.0
304.65921 104.0
304.771851 56.0
304.817017 88.0
304.841553 120.0
304.94577 88.0
304.973419 60.0
305.037933 120.0
305.120941 1256.0
305.17157 72.0
305.210815 84.0
305.301727 52.0
305.331512 48.0
305.366943 84.0
305.404816 108.0
305.469788 64.0
305.515564 48.0
305.567474 72.0
305.609802 80.0
305.644592 60.0
305.672424 64.0
305.819946 108.0
305.881256 44.0
305.905609 88.0
305.929993 120.0
305.97525 68.0
306.01355 64.0
306.085266 120.0
306.131622 220.0
306.173706 68.0
306.201569 188.0
306.304291 88.0
306.372253 80.0
306.450287 60.0
306.473297 108.0
306.515106 168.0
306.563873 36.0
306.692841 60.0
306.717224 52.0
306.784729 120.0
306.806122 88.0
306.839233 88.0
306.884552 112.0
306.947327 68.0
306.993225 128.0
307.090454 88.0
307.161224 48.0
307.257751 76.0
307.287598 152.0
307.344971 72.0
307.372894 168.0
307.421722 120.0
307.770813 104.0
307.910492 32.0
308.046692 128.0
308.085114 76.0
308.116577 88.0
308.154999 92.0
308.444183 96.0
308.903137 60.0
308.99408 56.0
309.04538 96.0
309.487579 80.0
309.59613 100.0
309.669678 176.0
309.743225 44.0
309.911377 60.0
310.083099 104.0
310.137329 168.0
310.163269 132.0
310.647614 44.0
310.67215 68.0
310.696716 244.0
310.868652 128.0
310.931793 108.0
311.012543 160.0
311.135651 160.0
311.219666 48.0
311.472504 124.0
311.591949 100.0
311.751556 56.0
311.859009 68.0
312.098053 108.0
312.150696 136.0
312.372375 48.0
312.437561 120.0
312.632721 80.0
312.687378 120.0
312.724243 92.0
312.833344 72.0
313.005859 64.0
313.143188 148.0
313.336945 64.0
313.471588 112.0
313.604736 100.0
313.670959 112.0
313.699921 104.0
313.863617 128.0
314.13147 328.0
314.299469 80.0
314.334747 76.0
314.422974 52.0
314.465332 64.0
314.490051 92.0
314.57373 140.0
314.755859 80.0
314.885468 64.0
315.143341 128.0
315.267029 40.0
315.464935 44.0
315.539185 28.0
315.713623 156.0
315.885742 88.0
315.935272 48.0
316.271423 64.0
316.671539 112.0
316.873444 48.0
316.976196 40.0
317.461823 96.0
317.554047 68.0
317.671082 100.0
317.695923 72.0
317.724304 80.0
318.615387 32.0
318.729065 76.0
318.80368 76.0
318.917419 52.0
318.988525 124.0
319.297852 76.0
319.50058 88.0
319.653595 92.0
319.952545 56.0
320.123474 96.0
320.372772 72.0
320.657837 96.0
320.882416 48.0
321.13916 104.0
321.303253 68.0
321.563721 72.0
321.588715 56.0
322.13324 128.0
322.213623 76.0
322.245758 32.0
322.270782 28.0
322.37796 44.0
322.749725 32.0
323.12854 96.0
323.726593 56.0
324.093048 72.0
324.356354 144.0
324.511292 92.0
324.67984 36.0
325.045746 80.0
325.178528 48.0
325.214417 148.0
325.422607 36.0
325.634491 104.0
325.720673 100.0
325.814087 40.0
326.09436 72.0
326.482635 168.0
326.529388 88.0
326.651672 40.0
326.702026 64.0
326.831543 32.0
327.083466 52.0
327.133881 136.0
327.223877 76.0
327.580383 88.0
327.681274 148.0
328.102936 68.0
328.160614 32.0
328.402222 124.0
328.470734 60.0
328.687195 92.0
328.734131 160.0
328.93985 80.0
329.05896 108.0
329.163666 112.0
329.333405 104.0
329.394806 60.0
329.730835 84.0
329.770599 124.0
329.88266 60.0
330.566223 164.0
330.674774 88.0
331.13681 124.0
331.384521 72.0
331.453369 40.0
331.478729 36.0
331.601959 116.0
331.808563 68.0
332.062378 80.0
332.276398 56.0
332.345337 80.0
332.49411 60.0
332.573975 144.0
332.719177 116.0
332.762726 88.0
332.820831 40.0
333.060516 160.0
333.089569 100.0
333.122253 136.0
333.194916 48.0
333.580109 64.0
333.638275 76.0
333.860077 104.0
333.960388 76.0
334.351196 68.0
334.416718 112.0
334.726868 100.0
334.955597 48.0
335.378265 76.0
335.411072 124.0
335.48111 56.0
335.896027 48.0
336.224396 124.0
336.611359 48.0
336.684387 60.0
336.815887 40.0
337.656494 112.0
337.718689 96.0
337.779724 148.0
337.824768 48.0
337.980011 128.0
338.167023 264.0
338.428619 64.0
338.51651 120.0
338.630035 88.0
338.673981 112.0
338.824158 164.0
338.849823 72.0
339.014709 36.0
339.120972 68.0
339.373932 48.0
339.450928 84.0
339.531586 56.0
339.762695 164.0
339.788361 60.0
339.887421 76.0
340.125977 52.0
340.151672 92.0
340.18103 132.0
340.316864 128.0
340.346252 52.0
340.393982 92.0
340.489441 40.0
340.581268 112.0
340.658417 96.0
340.794342 60.0
340.831482 76.0
340.887634 92.0
340.974396 160.0
341.117737 80.0
341.156403 140.0
341.21701 104.0
341.27951 152.0
341.338348 92.0
341.40451 128.0
341.463379 32.0
341.65097 92.0
342.088867 108.0
342.225098 52.0
342.690796 116.0
342.81076 68.0
342.94342 88.0
343.183044 120.0
343.352661 140.0
343.540771 96.0
344.293732 76.0
344.378693 92.0
344.426697 116.0
344.914429 48.0
344.944 48.0
345.212891 200.0
345.326172 80.0
345.709595 96.0
345.883545 64.0
346.150116 88.0
346.672424 56.0
346.727997 32.0
346.787323 104.0
347.069061 124.0
347.161743 76.0
347.237946 44.0
347.506714 56.0
347.664459 140.0
347.903809 104.0
348.004059 84.0
348.186005 76.0
348.650391 96.0
348.724701 48.0
348.795319 56.0
349.129944 172.0
349.204315 60.0
349.628448 80.0
349.818268 112.0
349.851776 48.0
350.170807 212.0
350.343353 108.0
350.440216 40.0
350.652618 48.0
350.928467 80.0
351.077606 76.0
351.159637 132.0
351.458099 96.0
351.584961 156.0
351.637207 68.0
351.74173 76.0
352.152435 92.0
352.186035 124.0
352.223389 60.0
352.537231 100.0
352.881104 124.0
352.963379 108.0
352.993286 44.0
353.094269 88.0
353.438416 100.0
353.479584 116.0
353.554413 136.0
353.588104 92.0
353.644226 96.0
353.775238 196.0
353.853851 128.0
354.056061 44.0
354.175903 20.0
354.228363 76.0
354.273315 124.0
354.513092 64.0
354.583374 164.0
354.749207 92.0
355.000427 72.0
355.142944 64.0
355.18045 84.0
355.300476 84.0
355.596924 156.0
355.732056 168.0
355.829651 36.0
355.889709 56.0
355.968994 104.0
356.173889 240.0
356.565887 184.0
356.622253 68.0
356.671112 48.0
357.163696 144.0
357.201294 196.0
357.385651 56.0
357.573792 280.0
358.034241 52.0
358.082062 124.0
358.179993 108.0
358.20636 48.0
358.49646 136.0
358.605743 104.0
358.931366 64.0
359.024231 76.0
359.095886 76.0
359.54483 68.0
359.6203 72.0
359.695801 68.0
360.315125 88.0
360.636322 52.0
360.738373 116.0
360.866913 108.0
361.071106 48.0
361.32074 92.0
361.58316 148.0
361.657532 40.0
361.706726 108.0
361.733246 96.0
362.089142 72.0
362.233612 56.0
362.278534 60.0
362.513428 32.0
362.653656 52.0
362.680206 56.0
362.95694 72.0
363.127594 124.0
363.522125 64.0
363.692902 160.0
363.89212 88.0
364.384033 120.0
364.467621 44.0
364.520813 92.0
364.691833 56.0
364.946533 156.0
365.136658 56.0
365.250763 80.0
365.281189 156.0
365.867218 52.0
366.297546 68.0
366.651886 100.0
366.739532 60.0
367.036896 108.0
367.231384 88.0
367.380157 160.0
367.651031 140.0
367.693024 96.0
367.741272 124.0
367.857147 180.0
367.922028 160.0
367.967865 136.0
368.087769 200.0
368.177582 5276.0
368.236359 88.0
368.441406 80.0
368.592346 136.0
368.636292 52.0
368.980286 88.0
369.180084 1396.0
369.24411 104.0
369.316772 112.0
369.355042 68.0
370.020905 108.0
370.184174 296.0
370.392334 80.0
370.419159 76.0
370.543457 116.0
370.641357 48.0
371.098969 92.0
371.653168 92.0
371.722687 72.0
371.807098 84.0
371.895386 76.0
371.937592 48.0
372.340729 80.0
372.486694 56.0
372.836334 104.0
372.96701 92.0
373.182281 100.0
373.343781 60.0
373.513 56.0
373.593781 80.0
373.643799 40.0
374.278839 40.0
374.448273 96.0
374.509918 76.0
374.768005 48.0
374.995361 72.0
375.039093 104.0
375.091736 100.0
375.222809 40.0
375.612274 72.0
375.932495 84.0
376.588806 60.0
376.716278 88.0
377.149048 80.0
377.415802 68.0
377.529663 72.0
377.667816 120.0
377.907013 100.0
378.781921 36.0
379.223633 68.0
379.28952 144.0
379.409698 128.0
379.44458 96.0
379.471527 80.0
379.588043 44.0
379.61908 100.0
379.70639 124.0
379.778076 72.0
379.909973 80.0
379.948761 128.0
379.975922 68.0
380.468781 48.0
380.709503 212.0
380.841553 84.0
380.92923 68.0
381.331116 160.0
381.439941 52.0
381.579895 124.0
381.852081 156.0
382.093262 128.0
382.163269 72.0
382.408447 140.0
382.708191 76.0
382.769226 124.0
383.039215 76.0
383.448334 44.0
383.599548 72.0
383.651001 108.0
383.787842 84.0
383.916138 36.0
383.97464 84.0
384.04483 52.0
384.12674 100.0
384.204773 84.0
384.251587 32.0
384.298401 48.0
384.368652 60.0
384.567657 76.0
384.69751 136.0
384.762848 64.0
384.883881 28.0
384.942444 172.0
385.155334 156.0
385.192413 80.0
385.223663 88.0
385.278351 56.0
385.33786 172.0
385.395538 52.0
385.473999 140.0
385.544037 172.0
385.606567 108.0
385.641754 48.0
385.688538 120.0
385.717072 160.0
385.768585 176.0
385.817627 128.0
385.897705 136.0
385.946655 36.0
386.009216 144.0
386.047058 248.0
386.062164 108.0
386.073059 260.0
386.118073 284.0
386.18811 45284.0
386.273041 88.0
386.304443 100.0
386.375092 92.0
386.404449 80.0
386.507812 76.0
386.602417 188.0
386.644714 72.0
386.678833 108.0
386.714508 112.0
386.757751 60.0
386.827606 72.0
386.891541 188.0
386.969666 168.0
386.997437 108.0
387.051117 144.0
387.077881 144.0
387.115875 124.0
387.1922 11292.0
387.292877 28.0
387.35318 140.0
387.41684 124.0
387.457397 96.0
387.523804 80.0
387.600616 104.0
387.65329 40.0
387.702576 84.0
387.758118 64.0
387.800842 128.0
387.841431 60.0
387.872772 72.0
387.91037 128.0
387.947266 40.0
388.00528 60.0
388.034454 164.0
388.080536 48.0
388.197998 1680.0
388.257019 124.0
388.284454 36.0
388.453125 132.0
388.490265 40.0
388.59433 56.0
388.715973 56.0
388.764954 116.0
388.82193 112.0
388.865112 108.0
388.948273 112.0
388.998566 76.0
389.067719 52.0
389.0961 208.0
389.147461 60.0
389.191467 144.0
389.258972 104.0
389.308716 76.0
389.363708 124.0
389.422607 96.0
389.467255 120.0
389.539673 80.0
389.615082 120.0
389.674011 92.0
389.709381 72.0
389.742126 88.0
389.786011 48.0
389.818298 72.0
389.854767 36.0
389.910339 84.0
389.95694 36.0
390.048737 124.0
390.177063 84.0
390.232117 100.0
390.27536 64.0
390.338287 60.0
390.373657 68.0
390.461945 104.0
390.527039 80.0
390.558502 216.0
390.596924 68.0
390.865356 236.0
391.070007 80.0
391.121185 56.0
391.227448 140.0
391.274689 100.0
391.404633 44.0
391.81424 88.0
391.897186 168.0
391.991547 112.0
392.030945 124.0
392.507904 92.0
392.744537 100.0
392.811584 76.0
392.84314 48.0
392.97879 116.0
393.111176 64.0
393.427185 48.0
393.490356 72.0
393.518005 40.0
393.620636 52.0
394.065948 92.0
394.177612 72.0
394.240845 64.0
394.37915 56.0
394.513245 52.0
394.724823 128.0
394.936646 92.0
395.079071 112.0
395.146301 44.0
395.375824 40.0
395.518311 68.0
395.704346 64.0
395.918182 144.0
396.639252 72.0
396.674927 76.0
397.071411 100.0
397.424469 120.0
397.709961 64.0
397.721832 60.0
397.928528 44.0
398.049316 104.0
398.424957 40.0
398.945557 76.0
399.01712 84.0
399.331268 84.0
399.450592 76.0
399.73703 112.0
399.987762 80.0
400.047485 44.0
400.111176 84.0
400.226624 152.0
400.338135 116.0
400.421753 128.0
400.453613 80.0
400.593018 40.0
400.788239 76.0
400.912354 84.0
400.955597 72.0
401.103088 76.0
401.230652 96.0
401.315887 208.0
401.469879 44.0
401.56958 64.0
401.661316 60.0
401.87674 36.0
401.988464 68.0
402.056305 104.0
402.088226 64.0
402.203979 52.0
402.267853 128.0
402.721161 120.0
403.018646 84.0
403.186493 60.0
403.326355 108.0
403.510254 36.0
403.700836 84.0
403.942139 80.0
404.218201 60.0
404.310242 116.0
404.606445 92.0
404.698517 60.0
405.03891 36.0
405.119049 36.0
405.174133 112.0
405.523743 32.0
405.700104 88.0
405.80835 32.0
406.181305 64.0
406.221405 48.0
406.518311 76.0
406.899628 28.0
406.991974 88.0
407.06424 80.0
407.453857 56.0
407.606506 56.0
408.044617 64.0
408.303253 112.0
408.438721 40.0
408.619751 64.0
408.66803 32.0
409.787292 60.0
409.831635 76.0
409.859833 72.0
410.399933 116.0
410.460419 40.0
410.565247 44.0
410.621704 116.0
410.774994 108.0
411.04126 80.0
411.796173 104.0
411.903503 132.0
412.474976 76.0
412.644745 88.0
413.03299 32.0
413.169189 92.0
413.389008 48.0
413.579224 124.0
414.065063 72.0
414.158203 52.0
414.279724 44.0
414.38913 72.0
414.5755 108.0
414.620087 52.0
414.722351 52.0
414.956512 40.0
415.094391 60.0
415.447235 56.0
415.720917 88.0
416.16153 64.0
416.709808 44.0
417.148712 44.0
417.27475 116.0
417.396729 64.0
418.405731 160.0
418.462738 64.0
418.788513 56.0
418.845551 92.0
419.187744 60.0
419.271576 68.0
419.398621 76.0
419.860382 48.0
419.929718 120.0
420.133667 84.0
420.598846 128.0
420.68457 84.0
420.778473 60.0
421.162323 100.0
421.428101 64.0
421.538177 68.0
421.570862 96.0
421.64444 92.0
421.816101 64.0
421.897858 88.0
421.983704 60.0
422.057312 128.0
422.094116 100.0
422.222931 40.0
422.77597 116.0
422.904114 120.0
423.210632 64.0
423.338074 36.0
423.620667 88.0
423.788635 64.0
424.034515 76.0
424.108276 32.0
424.464966 60.0
424.948944 88.0
425.376495 88.0
425.806854 80.0
426.538208 56.0
426.784882 80.0
427.163239 80.0
427.233154 32.0
427.30722 40.0
427.50882 40.0
427.698151 64.0
428.126343 44.0
428.315796 88.0
428.707184 64.0
428.760742 72.0
428.954468 44.0
429.123505 32.0
429.482269 36.0
429.630768 76.0
429.684387 64.0
430.344727 84.0
430.71228 76.0
431.020477 108.0
431.191559 44.0
431.332092 60.0
431.778625 96.0
431.90683 68.0
432.179871 60.0
432.28537 56.0
432.469543 44.0
432.630981 100.0
432.813141 56.0
432.875244 84.0
433.078186 148.0
433.533905 52.0
433.620941 72.0
433.732849 72.0
433.894501 88.0
434.047913 100.0
434.329926 108.0
434.807068 92.0
435.031189 44.0
435.134979 136.0
435.251221 52.0
435.442261 44.0
435.757965 60.0
436.71405 76.0
436.897064 48.0
437.143768 88.0
437.571259 104.0
437.829437 112.0
437.958527 108.0
438.345978 56.0
438.558533 108.0
438.746094 68.0
439.171417 80.0
439.288208 92.0
439.392517 88.0
439.526031 84.0
439.613647 76.0
439.880768 48.0
440.064453 52.0
440.237549 88.0
440.482056 104.0
440.532196 44.0
440.578156 76.0
441.046143 128.0
441.347137 80.0
441.85321 56.0
442.121002 116.0
442.476807 56.0
442.547974 48.0
442.623352 52.0
443.809113 108.0
443.867828 88.0
443.932831 176.0
444.119446 88.0
444.199158 44.0
444.559967 76.0
444.593536 68.0
445.093079 36.0
445.214844 32.0
445.424835 84.0
445.618073 80.0
445.67691 88.0
445.962677 56.0
446.13501 72.0
446.854156 92.0
447.136078 36.0
447.329681 48.0
447.401245 76.0
447.776001 68.0
447.83075 92.0
448.100342 104.0
448.365814 108.0
448.719879 76.0
448.787354 44.0
448.821075 64.0
448.989746 44.0
449.02771 48.0
449.13736 80.0
449.1922 124.0
449.322968 64.0
449.35672 72.0
449.403137 76.0
449.6521 112.0
449.842041 76.0
450.228455 92.0
450.331848 84.0
450.750061 72.0
450.878632 76.0
450.986725 84.0
451.654785 88.0
451.709778 92.0
451.764771 84.0
451.814209 96.0
451.862061 112.0
452.027069 60.0
452.166748 72.0
452.894958 52.0
453.038971 96.0
453.183014 116.0
453.297424 96.0
453.327087 44.0
453.37793 128.0
453.950226 84.0
454.009583 68.0
454.128357 48.0
454.522858 96.0
454.764771 80.0
455.62677 56.0
456.332245 80.0
456.44281 48.0
456.863861 48.0
456.948944 80.0
457.106384 72.0
457.35321 56.0
457.787476 56.0
457.915222 44.0
458.51593 76.0
458.771667 60.0
458.81308 84.0
458.912354 100.0
459.168213 84.0
459.441193 48.0
459.625793 152.0
459.692932 48.0
459.767151 100.0
460.004486 92.0
460.986816 76.0
461.127838 48.0
462.34671 128.0
462.376648 72.0
462.436584 36.0
463.24585 48.0
463.794312 52.0
464.257324 52.0
464.570435 48.0
464.887939 52.0
465.089661 60.0
465.166901 80.0
465.265656 96.0
465.772369 104.0
466.825317 84.0
466.941437 88.0
467.007843 72.0
467.126373 52.0
467.229614 96.0
467.461975 64.0
467.492096 76.0
467.570892 124.0
467.668549 40.0
467.698669 68.0
468.210999 112.0
468.327301 124.0
468.439301 68.0
468.534058 100.0
468.577148 72.0
468.710693 72.0
468.982208 64.0
469.465057 116.0
469.570801 92.0
469.857574 88.0
470.591248 28.0
470.794189 60.0
471.295288 112.0
471.433563 100.0
471.507019 96.0
471.653961 92.0
471.736084 84.0
471.852814 72.0
472.315521 184.0
472.402039 108.0
472.908295 108.0
472.977539 100.0
473.007843 84.0
473.237274 64.0
473.878296 84.0
473.945251 132.0
474.289978 76.0
474.363647 84.0
474.580414 88.0
474.675812 84.0
474.749542 104.0
475.062897 60.0
475.191956 60.0
475.517426 108.0
475.717072 72.0
475.790863 116.0
476.194702 88.0
476.646484 104.0
476.768158 56.0
476.872467 108.0
476.928986 48.0
477.137634 36.0
477.485474 60.0
477.663818 72.0
478.172882 48.0
478.220764 40.0
478.412292 48.0
478.44577 92.0
478.53418 36.0
478.917389 132.0
479.048065 64.0
479.104706 68.0
479.156982 84.0
479.547943 72.0
480.203125 52.0
480.639374 52.0
480.83139 76.0
481.128204 76.0
481.232971 44.0
481.311554 32.0
481.355225 68.0
481.630371 128.0
481.984222 96.0
482.228943 68.0
482.263916 84.0
482.482483 40.0
482.644226 84.0
482.744812 124.0
483.541016 76.0
484.041168 96.0
484.101379 96.0
484.171448 92.0
484.447388 40.0
484.570038 92.0
484.924988 56.0
485.091522 96.0
485.652802 72.0
486.824585 80.0
487.180328 68.0
487.356079 56.0
487.646088 132.0
488.978699 48.0
489.066742 56.0
489.581848 52.0
490.097229 96.0
490.145691 88.0
490.410095 128.0
490.582001 96.0
490.617279 44.0
491.128784 64.0
491.675873 64.0
491.834747 108.0
491.940704 76.0
492.240906 56.0
492.815125 56.0
493.097931 76.0
493.305664 40.0
494.008789 68.0
494.22113 68.0
494.274231 68.0
494.318481 84.0
494.424683 72.0
494.947021 88.0
495.212738 84.0
495.305756 40.0
495.722198 68.0
495.850739 112.0
495.934937 124.0
496.165436 76.0
496.626617 56.0
496.693146 44.0
497.238861 52.0
497.6073 56.0
498.348999 108.0
498.42453 108.0
498.677856 44.0
498.717834 72.0
498.815643 84.0
499.495972 76.0
499.718384 80.0
499.762878 52.0
500.150055 56.0
500.24353 60.0
500.515106 56.0
501.209961 80.0
501.619965 44.0
501.709137 152.0
502.199615 152.0
502.462799 88.0
503.413513 64.0
503.677032 84.0
503.989746 60.0
505.451874 48.0
505.711426 64.0
506.172516 36.0
506.217316 56.0
506.503937 44.0
506.642792 44.0
506.857849 108.0
507.12674 76.0
508.315155 132.0
508.409393 44.0
508.462128 112.0
508.759491 64.0
509.078278 112.0
509.177063 92.0
509.540924 96.0
509.585846 60.0
509.815521 104.0
509.900391 92.0
511.416046 84.0
511.483582 68.0
511.569092 88.0
511.780701 36.0
511.866241 108.0
511.983337 40.0
512.082397 104.0
512.240051 84.0
512.713135 72.0
512.857361 84.0
512.888916 48.0
512.929504 60.0
514.503845 80.0
515.60144 56.0
515.687256 60.0
516.722778 68.0
516.926392 100.0
517.053101 44.0
517.641602 116.0
517.705017 72.0
518.176086 76.0
518.307495 92.0
518.462952 64.0
518.529541 36.0
518.778809 92.0
519.050842 36.0
519.118896 56.0
519.191406 136.0
519.91272 48.0
520.362122 96.0
520.452942 52.0
520.817871 84.0
521.007019 60.0
521.216003 88.0
521.502319 56.0
521.61969 48.0
521.984192 36.0
522.22522 48.0
522.948608 40.0
523.171692 76.0
524.561035 20.0
525.669312 36.0
526.112061 104.0
526.207886 40.0
526.422485 52.0
526.545776 128.0
526.596069 76.0
526.806152 68.0
527.276794 76.0
527.477905 52.0
527.834473 88.0
527.866516 68.0
528.021973 84.0
528.371582 48.0
528.406189 124.0
528.712769 48.0
528.758545 52.0
530.214905 60.0
530.480713 52.0
530.771362 68.0
530.98053 56.0
531.017212 84.0
531.159363 48.0
531.62738 44.0
532.119751 100.0
532.39856 100.0
532.481262 68.0
532.513367 52.0
532.899231 60.0
533.213928 116.0
533.588623 88.0
534.016296 124.0
534.076111 64.0
534.365906 28.0
534.503906 96.0
535.516724 80.0
536.189331 52.0
537.033081 124.0
537.618958 72.0
538.075928 80.0
538.449951 52.0
538.836792 80.0
539.831726 96.0
540.460815 84.0
540.502441 84.0
540.747681 120.0
540.854187 60.0
540.946716 68.0
541.253601 144.0
541.599609 44.0
541.696899 108.0
541.942444 128.0
542.090698 40.0
542.943665 112.0
543.101379 72.0
543.175598 52.0
543.797302 56.0
544.109741 92.0
544.516968 80.0
545.43689 56.0
545.864624 36.0
545.925049 44.0
546.306458 92.0
546.390198 36.0
546.632141 76.0
546.836914 88.0
546.920654 44.0
546.957886 132.0
547.339661 76.0
547.642334 44.0
547.865967 120.0
549.105835 40.0
549.161804 84.0
549.730957 96.0
549.763611 56.0
549.844666 64.0
549.873474 52.0
550.305054 44.0
550.62262 52.0
551.370056 52.0
551.482239 44.0
551.60376 76.0
551.739319 40.0
552.501648 72.0
552.595215 84.0
553.737366 84.0
553.831055 84.0
553.971558 44.0
554.588501 60.0
555.068237 100.0
555.682678 44.0
556.442993 108.0
557.330688 48.0
557.880554 104.0
557.983948 68.0
558.049805 92.0
558.101501 60.0
558.449463 84.0
558.778748 92.0
560.577393 64.0
561.708923 60.0
561.923218 132.0
562.185425 72.0
562.331726 52.0
563.058777 88.0
563.238281 72.0
563.413025 80.0
563.739075 64.0
564.45282 36.0
565.436829 56.0
565.772888 72.0
565.905457 108.0
566.729553 56.0
567.758179 48.0
568.137634 92.0
568.270447 116.0
569.101013 80.0
569.884705 92.0
571.572632 48.0
571.972412 64.0
572.700928 44.0
572.877136 80.0
575.070557 80.0
575.251892 96.0
575.987305 44.0
576.140137 40.0
576.316284 64.0
576.904724 124.0
577.531128 76.0
578.314636 80.0
578.478577 48.0
580.092896 72.0
580.284607 64.0
580.6203 76.0
580.797729 120.0
581.154602 92.0
581.603821 112.0
581.978271 84.0
583.087891 92.0
583.193665 80.0
583.664795 32.0
583.92926 52.0
584.602783 100.0
585.117798 60.0
585.570435 104.0
586.235229 92.0
586.640076 96.0
586.81366 72.0
587.131897 48.0
587.38269 72.0
587.503296 72.0
587.816895 112.0
587.985779 108.0
588.029236 72.0
588.314026 44.0
588.371948 56.0
588.439514 52.0
588.903137 52.0
589.067322 60.0
589.246094 100.0
589.313721 64.0
591.151123 92.0
591.276917 92.0
591.528625 44.0
591.591553 96.0
591.978882 48.0
592.884766 84.0
593.354919 56.0
593.495544 88.0
593.932007 60.0
594.121155 100.0
594.169678 104.0
594.232788 60.0
594.800537 92.0
595.150085 60.0
595.256897 68.0
596.014648 64.0
596.753418 100.0
596.79718 48.0
597.424561 176.0
597.570496 72.0
597.721375 56.0
598.320007 56.0
598.441711 72.0
598.539124 44.0
598.821533 68.0
599.22583 48.0
599.844727 72.0
600.241394 68.0
600.571289 44.0
600.810303 84.0
601.19574 100.0
601.527649 48.0
601.610596 84.0
602.577576 48.0
603.416321 124.0
603.540405 64.0
604.176208 48.0
605.889648 156.0
606.173828 60.0
606.237549 92.0
607.983337 40.0
608.047119 92.0
608.096191 40.0
608.99469 68.0
609.073303 68.0
609.402405 92.0
609.495789 108.0
610.488464 72.0
610.74939 44.0
611.238586 84.0
611.531677 104.0
611.782715 96.0
612.092896 40.0
613.493469 108.0
613.6203 132.0
614.537659 112.0
614.833679 80.0
615.268066 44.0
615.356934 72.0
615.411255 104.0
615.98407 112.0
616.265686 72.0
616.41394 28.0
616.45343 68.0
617.323486 36.0
617.516357 44.0
617.719116 72.0
619.496216 96.0
620.09082 76.0
620.31665 100.0
621.727417 88.0
621.876282 40.0
622.581299 64.0
622.839539 92.0
622.95874 100.0
623.326416 60.0
623.718994 52.0
623.813477 80.0
623.922791 44.0
624.365356 100.0
624.648865 108.0
624.977173 44.0
625.240906 136.0
625.405151 60.0
625.98761 52.0
626.949097 80.0
627.088623 92.0
627.646912 36.0
627.741699 60.0
628.100769 76.0
628.355164 84.0
628.953979 60.0
629.652954 76.0
630.117554 140.0
630.172485 32.0
630.367371 60.0
631.197144 56.0
631.877869 112.0
632.292664 116.0
633.208801 36.0
634.155334 52.0
634.521667 124.0
635.610046 76.0
635.926208 116.0
636.724487 96.0
639.524841 88.0
639.816772 92.0
640.028259 92.0
640.219604 40.0
640.829102 144.0
640.980225 48.0
642.64917 52.0
642.906555 68.0
643.204285 76.0
643.254761 60.0
643.401184 96.0
643.699097 40.0
644.375916 76.0
644.608337 72.0
644.754883 100.0
645.396851 76.0
646.717163 56.0
646.767822 100.0
647.734924 72.0
647.815979 76.0
650.493408 48.0
650.544434 80.0
651.519165 68.0
651.600464 60.0
651.635986 60.0
651.676636 208.0
652.683044 100.0
654.535156 28.0
655.966736 108.0
657.051941 100.0
658.272827 96.0
658.339172 64.0
658.773315 128.0
659.667603 68.0
659.79541 52.0
660.705688 56.0
660.741516 56.0
661.166199 40.0
661.329956 92.0
661.66272 76.0
662.384766 72.0
662.866333 60.0
663.266052 68.0
664.224915 104.0
664.265991 84.0
664.45575 64.0
665.990601 80.0
667.362671 60.0
667.681519 64.0
668.396545 80.0
668.942078 52.0
669.343628 72.0
669.596008 116.0
669.750488 52.0
670.172913 120.0
670.379028 44.0
670.69342 96.0
671.152222 56.0
671.404907 116.0
672.039368 96.0
672.101257 92.0
673.407349 96.0
674.063416 48.0
674.518188 68.0
675.790344 80.0
675.961121 52.0
676.401001 44.0
677.690491 36.0
677.830444 68.0
677.983948 32.0
678.804932 92.0
680.57428 92.0
680.684021 60.0
680.948181 76.0
682.273193 88.0
682.678772 40.0
683.061523 100.0
683.172852 84.0
683.38092 56.0
684.114746 32.0
684.421936 44.0
684.838501 92.0
685.088562 56.0
685.135437 32.0
685.317749 80.0
686.673096 92.0
686.980835 64.0
687.721802 84.0
689.053345 36.0
690.265991 68.0
690.401917 92.0
690.783752 44.0
692.191589 56.0
692.736267 56.0
693.999268 40.0
694.665283 68.0
695.25293 96.0
695.756836 48.0
696.113831 88.0
696.486145 72.0
696.505127 64.0
697.111938 44.0
697.5271 40.0
697.666016 140.0
698.115967 72.0
698.394714 44.0
699.08136 100.0
699.131226 88.0
699.24176 48.0
699.278625 96.0
700.041931 92.0
701.559326 52.0
701.79657 92.0
702.112976 148.0
702.85675 44.0
703.263123 44.0
703.50592 132.0
704.752258 48.0
705.166199 72.0
706.142578 172.0
706.25769 92.0
706.444031 80.0
707.036621 48.0
707.862427 80.0
708.826538 132.0
708.996094 100.0
709.123291 36.0
709.170959 64.0
710.008667 48.0
710.560303 76.0
710.682312 92.0
710.719482 124.0
710.947632 120.0
712.992188 116.0
713.656616 76.0
713.837402 60.0
714.422485 128.0
714.624634 104.0
714.757629 52.0
715.422913 128.0
715.593262 100.0
715.981995 120.0
716.360168 40.0
716.647827 52.0
717.873779 40.0
717.937805 44.0
718.764587 92.0
719.175537 80.0
719.714722 48.0
719.880249 60.0
721.087585 108.0
721.600708 88.0
722.488525 60.0
722.648987 56.0
723.002136 128.0
724.212097 92.0
724.844238 60.0
726.586792 36.0
727.037476 196.0
727.075073 48.0
727.595703 72.0
728.374329 92.0
728.481812 108.0
729.242065 40.0
731.01947 60.0
731.148621 84.0
731.52002 100.0
731.670715 60.0
731.966858 60.0
732.004578 100.0
732.53772 64.0
732.586243 36.0
733.038818 120.0
733.685547 96.0
734.737183 40.0
734.818115 76.0
734.9422 112.0
735.578979 100.0
736.993958 60.0
737.674866 64.0
737.966797 116.0
740.071472 88.0
740.217712 32.0
740.320557 104.0
743.0578 144.0
743.508179 40.0
744.631958 60.0
746.283936 88.0
746.495972 136.0
749.059387 100.0
750.574463 44.0
750.868896 64.0
750.977966 88.0
751.239807 132.0
751.981873 52.0
752.41272 108.0
752.849915 80.0
753.46167 68.0
754.150146 60.0
754.80072 60.0
755.539062 84.0
756.381775 124.0
756.628113 40.0
757.307129 56.0
758.413879 48.0
760.90979 176.0
761.75824 40.0
762.557678 72.0
763.915833 56.0
764.163391 96.0
764.333923 48.0
765.153992 120.0
767.010437 124.0
767.374268 88.0
767.517639 40.0
767.666504 48.0
767.776794 112.0
767.842957 40.0
768.449768 72.0
768.742188 52.0
768.907349 108.0
770.172058 44.0
770.35437 80.0
770.652649 132.0
772.38855 52.0
772.609802 92.0
773.257202 48.0
774.386597 76.0
774.519531 76.0
774.730042 68.0
775.378296 68.0
777.435791 76.0
778.251709 28.0
779.879395 84.0
783.57428 84.0
785.185181 44.0
785.575623 84.0
786.016418 144.0
786.5354 72.0
787.289124 44.0
787.389648 64.0
787.551636 68.0
787.786194 92.0
788.490234 40.0
789.513306 84.0
791.331787 40.0
792.855408 56.0
793.783386 44.0
793.836426 96.0
794.229004 56.0
794.767578 60.0
795.036865 108.0
795.418518 68.0
795.974365 104.0
798.716858 100.0
799.161316 68.0
800.14624 48.0
800.82196 80.0
801.131714 100.0
801.819153 48.0
801.993835 68.0
804.137085 128.0
805.576904 72.0
806.729675 64.0
806.98407 68.0
807.323364 124.0
807.713623 40.0
807.838013 68.0
807.905945 56.0
808.019043 60.0
808.777344 44.0
809.575623 108.0
813.334473 44.0
814.11792 104.0
815.907715 80.0
816.726562 36.0
818.490723 100.0
818.655884 48.0
819.470398 76.0
819.619568 68.0
820.382263 84.0
823.314941 76.0
825.211975 68.0
827.65509 52.0
829.259094 72.0
829.408997 76.0
829.901123 48.0
830.554871 40.0
830.887573 52.0
834.94281 84.0
835.017578 56.0
835.471985 64.0
836.104858 52.0
838.166382 88.0
839.596008 32.0
841.390442 112.0
842.233521 56.0
842.609009 40.0
842.834351 76.0
843.41803 48.0
846.339478 128.0
847.868713 84.0
849.526978 36.0
851.332031 40.0
851.428955 88.0
852.470581 104.0
852.877441 36.0
852.958801 68.0
856.927612 92.0
857.125732 52.0
857.492859 96.0
859.407349 88.0
859.662231 56.0
859.872375 108.0
861.279419 76.0
861.332031 56.0
861.834412 100.0
861.898682 76.0
865.776978 56.0
867.206421 144.0
870.667847 56.0
870.914551 84.0
872.407043 40.0
879.599487 32.0
879.788391 56.0
880.059937 96.0
881.400696 60.0
884.197754 88.0
884.322083 104.0
884.629822 48.0
884.902161 60.0
885.281128 60.0
885.938538 80.0
886.436218 76.0
887.68103 48.0
889.206787 64.0
889.49054 68.0
890.458313 88.0
890.577148 80.0
891.200867 92.0
891.480164 72.0
892.960449 84.0
893.692078 68.0
898.529846 112.0
900.10553 48.0
900.52356 80.0
900.666931 36.0
901.401733 52.0
905.709167 88.0
906.547913 104.0
907.027405 60.0
908.322571 72.0
909.690674 40.0
910.579346 48.0
910.69342 44.0
911.474426 112.0
911.786865 108.0
912.941101 72.0
916.058777 36.0
916.959961 64.0
920.304443 52.0
921.397583 60.0
923.362061 76.0
924.493347 100.0
925.171204 88.0
928.370361 92.0
931.259094 104.0
931.556702 84.0
931.73291 92.0
932.121765 156.0
933.161072 28.0
933.440796 40.0
934.845947 76.0
936.830811 60.0
937.15979 80.0
937.610718 68.0
937.732605 40.0
938.964111 48.0
940.178101 96.0
942.907959 64.0
942.99353 96.0
944.142883 68.0
944.314087 152.0
944.785095 76.0
944.846252 48.0
945.066528 88.0
945.329651 88.0
945.672363 112.0
947.546082 112.0
947.619629 84.0
949.979858 108.0
950.525879 64.0
950.955444 76.0
952.005249 72.0
952.730042 40.0
953.393616 48.0
955.865601 36.0
957.459961 28.0
958.741333 92.0
958.870789 140.0
959.912598 128.0
960.239441 172.0
961.386902 92.0
961.831299 56.0
963.201172 84.0
964.833435 96.0
966.497131 56.0
966.63324 112.0
966.973572 192.0
967.512085 48.0
968.335632 92.0
970.560303 96.0
973.718872 64.0
975.937256 48.0
976.789246 68.0
978.668701 40.0
980.817932 32.0
981.915222 164.0
983.768372 72.0
985.42334 112.0
985.560791 48.0
986.598206 40.0
986.848328 44.0
988.186707 76.0
991.05426 104.0
991.430237 48.0
995.105896 48.0
995.815491 100.0
995.909668 76.0
998.826111 44.0
1001.860229 60.0
1001.916931 64.0
1002.710876 68.0
1004.53302 36.0
1004.589783 156.0
1006.148499 64.0
1006.508423 60.0
1007.152527 76.0
1008.277161 52.0
1013.421631 112.0
1013.567322 100.0
1013.9729 56.0
1014.89209 76.0
1015.710144 40.0
1015.900452 56.0
1018.318787 76.0
1018.604614 112.0
1020.943481 88.0
1021.229675 64.0
1022.960388 80.0
1024.980713 64.0
1026.974609 40.0
1027.78479 36.0
1028.161255 52.0
1028.346313 48.0
1029.476318 60.0
1030.006348 72.0
1031.424927 120.0
1031.559082 68.0
1033.266602 44.0
1033.400879 68.0
1033.567261 116.0
1033.61853 56.0
1033.842407 48.0
1034.988281 84.0
1035.54541 128.0
1036.275635 176.0
1037.057373 56.0
1038.628296 44.0
1040.70105 40.0
1041.805664 56.0
1044.376831 76.0
1044.704956 68.0
1044.859253 60.0
1046.294434 108.0
1047.086426 64.0
1047.30542 84.0
1047.569458 48.0
1048.7229 28.0
1049.767212 216.0
1050.412231 120.0
1052.172241 76.0
1053.168335 52.0
1054.828857 60.0
1055.294312 108.0
1056.743042 36.0
1056.872559 80.0
1058.568359 72.0
1059.332642 44.0
1060.168457 92.0
1063.021606 68.0
1064.183472 64.0
1065.696777 32.0
1066.229614 76.0
1070.646851 72.0
1072.770874 32.0
1075.412598 40.0
1075.856445 108.0
1076.137207 36.0
1076.907715 60.0
1079.024902 64.0
1079.168823 140.0
1081.818359 100.0
1083.861694 48.0
1085.421631 132.0
1086.084106 60.0
1087.763794 48.0
1089.313477 96.0
1090.24646 100.0
1091.002319 116.0
1091.797852 40.0
1092.620117 96.0
1092.784546 92.0
1093.172729 52.0
1094.983154 56.0
1096.399536 100.0
1097.863037 204.0
1098.906738 84.0
1101.301392 52.0
1101.783691 100.0
1102.642578 84.0
1103.885376 92.0
1104.238403 76.0
1105.274536 88.0
1107.962524 100.0
1108.5802 72.0
1109.267944 104.0
1111.642334 92.0
1114.404541 48.0
1115.334839 44.0
1115.833374 68.0
1115.946411 40.0
1117.263184 84.0
1117.562622 64.0
1117.802124 60.0
1118.015137 76.0
1119.659424 136.0
1120.898438 84.0
1121.998169 80.0
1124.245972 76.0
1124.593018 32.0
1125.033569 60.0
1125.10022 60.0
1125.460815 52.0
1126.562744 48.0
1126.709717 52.0
1126.843384 84.0
1130.233154 100.0
1130.326782 36.0
1130.995972 76.0
1135.015503 108.0
1138.605591 72.0
1140.009644 88.0
1142.658813 72.0
1144.664551 116.0
1145.459229 44.0
1147.453979 76.0
1148.310303 96.0
1152.042969 76.0
1152.333374 192.0
1152.651001 68.0
1152.961792 44.0
1153.115601 84.0
1153.407837 92.0
1153.495728 132.0
1158.462524 36.0
1159.802734 112.0
1161.587524 84.0
1163.005615 184.0
1165.266846 68.0
1165.38916 156.0
1166.129883 80.0
1167.965698 56.0
1168.822876 68.0
1169.231079 68.0
1169.619019 108.0
1170.973999 168.0
1171.76416 180.0
1172.990723 60.0
1173.202026 144.0
1175.73938 36.0
1176.961182 36.0
1177.377808 68.0
1177.630493 92.0
1178.320435 84.0
1179.573486 116.0
1183.203369 72.0
1183.456665 132.0
1185.319702 80.0
1188.048462 128.0
1188.178833 72.0
1188.281738 124.0
1188.364014 100.0
1188.508057 104.0
1188.755127 116.0
1189.029663 68.0
1189.674805 144.0
1189.860107 44.0
1191.858765 112.0
1193.652832 96.0
1196.081299 64.0
1197.091064 184.0
1197.754517 72.0
1198.147095 188.0
1198.767212 32.0
1201.235474 160.0
1201.325073 216.0
1201.387207 92.0
1202.781128 56.0
1203.354004 132.0
1204.023804 48.0
1204.666138 88.0
1205.287964 156.0
1205.896118 76.0
1205.972046 200.0
1207.071289 80.0
1207.285645 172.0
1208.143311 52.0
1210.738892 168.0
1213.746216 160.0
1214.744873 108.0
1215.154175 52.0
1215.737061 160.0
1217.375366 148.0
1217.67395 72.0
1219.661011 52.0
1221.23938 144.0
1222.97876 48.0
1223.145752 36.0
1224.385132 204.0
1225.248779 140.0
1226.663452 92.0
1227.235107 96.0
1228.448486 96.0
1228.609009 136.0
1228.867065 128.0
1229.432251 52.0
1229.990601 128.0
1230.318726 72.0
1231.289307 96.0
1233.385254 152.0
1236.224731 60.0
1236.462646 56.0
1237.603638 172.0
1238.373901 176.0
1238.843262 148.0
1238.899292 144.0
1239.060425 44.0
1239.340576 128.0
1239.536865 72.0
1240.286743 68.0
1240.686279 160.0
1241.92041 56.0
1242.53064 64.0
1243.593506 104.0
1243.800781 84.0
1244.418579 56.0
1247.481567 84.0
1247.645752 104.0
1247.769775 144.0
1248.050903 64.0
1248.332275 40.0
1248.606445 108.0
1249.942993 72.0
1250.076782 84.0
1250.30896 92.0
1252.639404 148.0
1256.297974 140.0
1256.537842 160.0
1256.700073 104.0
1257.257568 64.0
1257.793945 116.0
1258.146851 48.0
1258.96582 172.0
1260.41394 164.0
1260.633057 104.0
1261.763916 40.0
1262.15979 108.0
1262.619507 108.0
1263.022583 184.0
1263.567261 32.0
1263.956421 52.0
1267.475464 200.0
1268.070801 28.0
1268.850464 164.0
1269.05603 136.0
1270.51709 160.0
1271.943359 176.0
1273.967163 76.0
1275.914307 72.0
1277.808594 156.0
1280.10498 56.0
1280.425415 112.0
1280.959595 184.0
1282.192261 188.0
1282.327637 104.0
1283.332764 44.0
1283.553833 156.0
1283.646484 172.0
1284.067261 52.0
1284.202759 148.0
1284.516602 216.0
1285.137207 84.0
1288.178467 160.0
1288.242676 36.0
1288.442749 112.0
1289.743286 64.0
1289.964844 60.0
1291.845459 52.0
1292.254395 124.0
1292.389282 68.0
1293.018921 56.0
1294.737061 292.0
1294.887451 64.0
1295.195435 176.0
1295.403198 52.0
1295.84021 136.0
1298.39917 136.0
1299.152222 68.0
1299.632935 108.0
1300.092163 48.0
1300.25 48.0
1301.147339 92.0
1302.48291 92.0
1302.67688 96.0
1302.849243 132.0
1305.594971 132.0
1306.089478 84.0
1306.630737 140.0
1307.278198 64.0
1307.645264 60.0
1308.379517 148.0
1309.466797 80.0
1310.187012 152.0
1310.244629 108.0
1310.921997 88.0
1312.478882 116.0
1312.536621 148.0
1313.142334 160.0
1314.166626 140.0
1314.686157 68.0
1314.866577 56.0
1315.422363 172.0
1316.779785 36.0
1317.661011 136.0
1317.899414 168.0
1318.231812 80.0
1318.857544 48.0
1319.503906 100.0
1319.637329 168.0
1319.872559 36.0
1320.53064 192.0
1321.789429 100.0
1322.527588 128.0
1323.287598 144.0
1324.685303 92.0
1324.851929 84.0
1325.011353 124.0
1325.460571 108.0
1325.895264 160.0
1327.910767 168.0
1329.274536 176.0
1329.390625 172.0
1329.818848 120.0
1330.196289 132.0
1330.443115 52.0
1331.575806 116.0
1332.185913 164.0
1333.232178 132.0
1334.231567 160.0
1334.467896 200.0
1334.802368 148.0
1334.896851 108.0
1335.158691 84.0
1335.529541 40.0
1335.675049 52.0
1335.821655 132.0
1336.19873 144.0
1336.875488 108.0
1337.035522 44.0
1337.406738 116.0
1338.280273 168.0
1339.991821 72.0
1342.951294 240.0
1343.44873 104.0
1344.213379 140.0
1345.804565 88.0
1346.162354 176.0
1347.86438 132.0
1348.27356 68.0
1348.726685 124.0
1349.362671 96.0
1350.883789 88.0
1352.347168 128.0
1352.486084 188.0
1353.09375 124.0
1353.782104 168.0
1353.994385 76.0
1354.682983 120.0
1355.129761 48.0
1356.463501 164.0
1356.998657 48.0
1358.234985 136.0
1359.316406 40.0
1359.521973 196.0
1360.351318 144.0
1361.526001 68.0
1361.753662 116.0
1361.8125 112.0
1363.972656 112.0
1364.325439 144.0
1364.862549 132.0
1365.774048 92.0
1365.943237 36.0
1366.347778 72.0
1366.513794 156.0
1367.768066 128.0
1368.336182 128.0
1368.467407 68.0
1369.417358 92.0
1369.822388 184.0
1370.131836 80.0
1370.30127 52.0
1370.493286 56.0
1370.964355 168.0
1372.519775 124.0
1373.0802 32.0
1373.21814 216.0
1373.677612 152.0
1374.142334 168.0
1374.562866 164.0
1375.241821 96.0
1375.72168 172.0
1375.839722 68.0
1377.161499 104.0
1377.220581 76.0
1377.774536 124.0
1378.025757 184.0
1378.624268 220.0
1379.548096 48.0
1382.047852 156.0
1382.240234 152.0
1382.375854 148.0
1382.506592 184.0
1382.958008 152.0
1383.883423 48.0
1384.216553 72.0
1384.838623 92.0
1385.423828 56.0
1386.344238 52.0
1386.416626 108.0
1386.676025 68.0
1386.853882 112.0
1387.34314 152.0
1387.869507 164.0
1388.596191 204.0
1389.345337 220.0
1391.267334 56.0
1391.890991 120.0
1392.529663 60.0
1393.673706 92.0
1393.818481 164.0
1394.126953 168.0
1394.721436 108.0
1394.922119 204.0
1395.383057 60.0
1395.494629 124.0
1395.762207 104.0
1395.821777 216.0
1396.171265 100.0
1396.416626 332.0
1396.476196 152.0
1396.669556 64.0
1396.729004 108.0
1397.115845 200.0
1397.696167 148.0
1397.882202 124.0
1397.971436 208.0
1398.87207 84.0
1400.122803 120.0
1400.361206 128.0
1400.443115 140.0
1400.785767 92.0
1401.441284 148.0
1401.567993 164.0
1401.703003 128.0
1402.067261 164.0
1402.633667 84.0
1403.103271 84.0
1403.483521 136.0
1403.938354 104.0
1404.341064 172.0
1405.264771 288.0
1405.795898 48.0
1405.997314 164.0
1406.713867 132.0
1407.243896 152.0
1408.580688 152.0
1408.871948 196.0
1409.170776 120.0
1409.761108 224.0
1410.246826 112.0
1410.575684 76.0
1411.584961 124.0
1411.719604 124.0
1411.906616 84.0
1412.235596 52.0
1412.542236 180.0
1412.646973 172.0
1412.759277 164.0
1413.267944 224.0
1413.454956 128.0
1413.64209 80.0
1413.881592 140.0
1414.93689 176.0
1416.292358 116.0
1416.487061 96.0
1416.636841 52.0
1417.063843 140.0
1417.236206 328.0
1417.43103 140.0
1417.535889 168.0
1418.262817 240.0
1420.267578 160.0
1420.422241 132.0
1420.812378 136.0
1420.962402 172.0
1421.29248 128.0
1421.577637 192.0
1422.702515 64.0
1423.229004 76.0
1423.349121 88.0
1423.439209 28.0
1423.942383 208.0
1424.02124 96.0
1424.145142 140.0
1424.370483 104.0
1424.550781 36.0
1425.121704 144.0
1425.219482 144.0
1425.444824 164.0
1426.009521 136.0
1427.293945 120.0
1427.692505 188.0
1427.93042 200.0
1428.092285 172.0
1429.166748 108.0
1429.324829 176.0
1429.537109 144.0
1429.768799 128.0
1430.273071 152.0
1430.814941 108.0
1430.927979 152.0
1431.018311 132.0
1431.342041 64.0
1431.680908 128.0
1431.793823 136.0
1432.33606 40.0
1432.652466 168.0
1432.788086 136.0
1433.421021 28.0
1433.526489 236.0
1434.001221 40.0
1434.07666 128.0
1434.21228 172.0
1434.922974 176.0
1435.516479 88.0
1435.757812 128.0
1436.159424 164.0
1436.30835 100.0
1437.281616 156.0
1437.417358 156.0
1438.700439 52.0
1438.791016 144.0
1439.500732 76.0
1439.576294 124.0
1439.976562 80.0
1440.082275 156.0
1440.497681 136.0
1440.575928 168.0
1440.648804 132.0
1441.162476 80.0
1441.290894 120.0
1441.396729 52.0
1441.955933 132.0
1442.50769 132.0
1442.628662 144.0
1442.832764 144.0
1442.983887 140.0
1443.119995 208.0
1443.414917 108.0
1443.490479 92.0
1444.942627 96.0
1445.177246 172.0
1445.275635 52.0
1445.600952 136.0
1445.911255 152.0
1446.138306 136.0
1446.524292 128.0
1447.054199 128.0
1447.523682 188.0
1447.614502 128.0
1447.678345 132.0
1447.735596 72.0
1447.849243 152.0
1447.955322 184.0
1448.182495 176.0
1448.538452 76.0
1448.909668 108.0
1449.19751 72.0
1450.259155 132.0
1450.607178 216.0
1450.660156 144.0
1451.031616 160.0
1451.107422 180.0
1451.168091 124.0
1451.82019 60.0
1453.972412 248.0
1454.247925 136.0
1454.422485 108.0
1454.604614 64.0
1454.672974 216.0
1455.677979 220.0
1456.518066 60.0
1456.82959 108.0
1457.339478 96.0
1457.437378 60.0
1458.174438 76.0
1458.36438 44.0
1458.759644 48.0
1459.296631 80.0
1459.550293 84.0
1459.687256 40.0
1460.668213 248.0
1461.094238 160.0
1461.200806 128.0
1461.695312 220.0
1461.809448 140.0
1462.372559 92.0
1462.486816 108.0
1462.882568 192.0
1462.95105 160.0
1463.247925 108.0
1463.65918 144.0
1463.902832 144.0
1464.001831 88.0
1464.298828 152.0
1464.390137 152.0
1464.568604 132.0
1464.854858 172.0
1465.174683 96.0
1465.349976 132.0
1466.134766 112.0
1466.355835 196.0
1466.485352 100.0
1466.797852 156.0
1467.072266 120.0
1467.14856 60.0
1467.261353 228.0
1467.35437 160.0
1467.499146 84.0
1467.697388 80.0
1467.904053 168.0
1468.176758 232.0
1468.258179 156.0
1468.940552 164.0
1469.054932 128.0
1469.543213 132.0
1469.817871 140.0
1470.145996 156.0
1470.870972 112.0
1471.054199 68.0
1471.260376 68.0
1471.748901 120.0
1471.962769 84.0
1472.237671 192.0
1472.619507 152.0
1472.802856 124.0
1473.872314 100.0
1474.109131 120.0
1474.16272 172.0
1474.32312 148.0
1474.460693 60.0
1474.590576 224.0
1474.697632 164.0
1474.796997 124.0
1474.881104 120.0
1475.247925 100.0
1475.546143 144.0
1476.173096 124.0
1476.264771 144.0
1476.471313 88.0
1477.006714 204.0
1477.159668 52.0
1477.236206 56.0
1477.871094 136.0
1477.962891 76.0
1478.896606 60.0
1479.286865 76.0
1479.501221 84.0
1479.82019 136.0
1479.884033 36.0
1479.953003 92.0
1480.213257 128.0
1481.032715 176.0
1481.208862 56.0
1481.331421 56.0
1481.49231 216.0
1481.974976 124.0
1482.189941 260.0
1483.12439 76.0
1483.193359 132.0
1483.38501 48.0
1484.369385 72.0
1484.466064 100.0
1484.775146 204.0
1485.255981 80.0
1485.524414 96.0
1485.593506 180.0
1486.153564 136.0
1486.414429 36.0
1486.51416 52.0
1486.775024 76.0
1487.036011 76.0
1487.343018 84.0
1487.404419 116.0
1487.772827 136.0
1487.8573 84.0
1488.156738 64.0
1488.632812 128.0
1489.085815 124.0
1489.139648 196.0
1489.377686 152.0
1489.562012 76.0
1489.684937 188.0
1490.168945 156.0
1490.345703 52.0
1490.722168 172.0
1490.783691 116.0
1490.937378 204.0
1491.267822 176.0
1491.362915 148.0
1491.498413 196.0
1492.021118 168.0
1492.874512 156.0
1493.097534 32.0
1493.37439 92.0
1493.489746 164.0
1493.55896 88.0
1494.19751 144.0
1494.289795 136.0
1494.512939 84.0
1494.859131 124.0
1494.974609 204.0
1496.059814 140.0
1496.729614 100.0
1496.79126 136.0
1497.014526 188.0
1498.362427 144.0
1498.516479 140.0
1498.686035 96.0
1499.040405 124.0
1500.145264 152.0
1500.551147 52.0
1500.86731 172.0
1500.990601 140.0
1501.584351 112.0
1501.916016 120.0
1502.000854 140.0
1502.242188 180.0
1502.733765 124.0
1502.911255 120.0
1503.057861 112.0
1503.513062 172.0
1503.675171 140.0
1504.00708 144.0
