>compound MLS001032285-01!
>formula C28H30N2O5
>ionization [M+H]+
>parentmass 475.224731
#inchi InChI=1S/C28H30N2O5/c1-17(2)16-34-21-7-8-22-18(3)23(28(33)35-25(22)12-21)9-10-26(31)29-13-19-11-20(15-29)24-5-4-6-27(32)30(24)14-19/h4-8,12,19-20H,1,9-11,13-16H2,2-3H3/t19-,20+/m1/s1
#inchikey OFKLOSRBXXSPGL
#Ion_Source LC-ESI
#Instrument qTof
#Compound_Source NIH Natural Product Library
#PI Dorrestein
#Data_Collector VVP/LMS
#Scan -1
#Precursor_MZ 475.223
#ExactMass 474.215
#Charge 1
#CAS_Number N/A
#Pubmed_ID N/A
#Smiles CC(=C)COc1ccc2c(C)c(CCC(=O)N3C[C@H]4C[C@@H](C3)c5cccc(=O)n5C4)c(=O)oc2c1
#INCHI_AUX N/A
#Library_Class 1
#SpectrumID CCMSLIB00000079989
#IonMode Positive
#UpdateWorkflowName UPDATE-SINGLE-ANNOTATED-GOLD
#LibraryQualityString Gold
#TaskID b1d8e8f6646f4e71acdff9ca3d919d08
##Scan# 2051
#SpectrumFile p2-F02_GF2_01_18038.mzXML
#LibraryName NIH_Natural_Products_Library.mgf
#MQScore -1
#Organism NIH_Natural_Products_Library
#TIC_Query 0
#RT_Query -1
#MZErrorPPM -1
#SharedPeaks 0
#MassDiff 0
#LibMZ -1
#SpecMZ 475.223
#SpecCharge 0
#internalFilename spec-00000.mgf

>collision 10
94.96637 156.0
94.97995 180.0
95.073082 152.0
95.308044 180.0
95.426613 192.0
95.491386 268.0
95.512177 172.0
95.543304 60.0
95.584167 364.0
95.607513 48.0
95.627274 184.0
95.64917 168.0
95.703156 184.0
95.778854 128.0
95.80217 256.0
95.850937 64.0
95.864578 88.0
95.917198 156.0
95.942543 68.0
96.008842 184.0
96.141502 56.0
96.16687 136.0
96.194199 168.0
96.22348 176.0
96.405136 228.0
96.424683 48.0
96.469643 120.0
96.511536 232.0
96.526337 132.0
96.581627 208.0
96.606934 156.0
96.631966 64.0
96.679359 180.0
96.706322 204.0
96.763092 176.0
96.792465 204.0
96.806175 160.0
96.898232 124.0
96.945259 140.0
97.020027 140.0
97.135445 240.0
97.149178 228.0
97.168793 200.0
97.306183 144.0
97.34938 32.0
97.376869 176.0
97.405563 148.0
97.424019 120.0
97.479027 144.0
97.593948 224.0
97.638268 40.0
97.685471 164.0
97.724823 96.0
97.75827 184.0
97.905922 40.0
97.998505 168.0
98.039886 64.0
98.055649 164.0
98.118729 56.0
98.1483 120.0
98.166054 208.0
98.200104 180.0
98.247475 200.0
98.264671 108.0
98.290329 140.0
98.36927 148.0
98.408752 112.0
98.45417 184.0
98.475899 120.0
98.489723 184.0
98.703163 104.0
98.718987 132.0
98.776344 124.0
98.88121 56.0
98.91684 140.0
98.949173 36.0
98.992073 184.0
99.043106 120.0
99.083191 180.0
99.125977 188.0
99.154526 128.0
99.176323 36.0
99.267525 136.0
99.299255 60.0
99.410355 72.0
99.434746 164.0
99.490288 148.0
99.533424 120.0
99.619759 308.0
99.875259 168.0
100.018776 96.0
100.050377 180.0
100.13002 132.0
100.185799 180.0
100.287422 160.0
100.307358 164.0
100.377136 120.0
100.432976 136.0
100.474869 260.0
100.574646 192.0
100.626549 116.0
100.700439 72.0
100.842293 56.0
100.910263 224.0
100.942253 144.0
101.074867 176.0
101.112297 96.0
101.13723 152.0
101.156334 88.0
101.19838 140.0
101.222404 104.0
101.262459 144.0
101.320282 148.0
101.360619 148.0
101.438522 152.0
101.451485 132.0
101.541046 140.0
101.611252 132.0
101.677475 56.0
101.709587 180.0
101.74572 104.0
101.797867 136.0
101.848137 40.0
101.902374 144.0
101.966682 124.0
102.041054 116.0
102.095345 220.0
102.14563 172.0
102.203972 164.0
102.281059 172.0
102.492493 112.0
102.512062 76.0
102.667145 164.0
102.709648 128.0
102.73587 128.0
102.796402 136.0
102.911461 156.0
102.970016 148.0
103.056885 140.0
103.117508 68.0
103.176132 120.0
103.26915 88.0
103.400658 168.0
103.435066 188.0
103.456139 196.0
103.554535 148.0
103.629486 84.0
103.672035 164.0
103.783524 100.0
103.874794 156.0
103.921455 184.0
103.943771 120.0
103.96756 188.0
104.002625 56.0
104.020668 176.0
104.067917 228.0
104.110229 92.0
104.129913 180.0
104.171165 108.0
104.195541 180.0
104.274796 152.0
104.29715 156.0
104.428261 232.0
104.475212 176.0
104.514755 220.0
104.547318 128.0
104.677605 164.0
104.720367 200.0
104.748886 88.0
104.771294 192.0
104.822235 192.0
104.846687 192.0
104.897644 188.0
104.926186 160.0
104.948616 156.0
105.023895 188.0
105.070984 184.0
105.157578 184.0
105.358849 204.0
105.383362 132.0
105.420143 60.0
105.481461 156.0
105.516212 44.0
105.542793 116.0
105.584473 116.0
105.624603 48.0
105.662148 124.0
105.755554 100.0
105.778069 196.0
105.811218 228.0
105.840157 196.0
105.931473 180.0
105.997215 128.0
106.040253 128.0
106.071098 160.0
106.099701 180.0
106.140701 180.0
106.388962 212.0
106.444397 164.0
106.473152 164.0
106.579971 160.0
106.627235 156.0
106.671715 144.0
106.730026 80.0
106.860275 172.0
107.032501 88.0
107.049782 224.0
107.127243 52.0
107.141663 220.0
107.189049 84.0
107.224083 100.0
107.238106 196.0
107.302414 188.0
107.428215 148.0
107.446198 192.0
107.504562 148.0
107.531387 116.0
107.562347 108.0
107.655342 148.0
107.735252 176.0
107.76474 168.0
107.781265 96.0
107.797272 204.0
107.822601 180.0
107.882538 128.0
107.930092 80.0
108.029366 48.0
108.051727 188.0
108.072815 164.0
108.099716 140.0
108.159737 208.0
108.176292 172.0
108.265327 156.0
108.399979 44.0
108.435211 160.0
108.471992 156.0
108.526062 204.0
108.543015 72.0
108.559601 108.0
108.663315 92.0
108.808594 240.0
108.8414 140.0
108.904648 220.0
108.997604 60.0
109.065933 128.0
109.095291 96.0
109.110512 212.0
109.139671 196.0
109.209663 152.0
109.230461 132.0
109.281937 188.0
109.407349 380.0
109.486473 152.0
109.538597 160.0
109.611465 240.0
109.632301 132.0
109.651054 132.0
109.673981 156.0
109.734436 80.0
109.80619 192.0
109.964607 284.0
110.024437 92.0
110.057739 156.0
110.105873 196.0
110.210327 72.0
110.275108 128.0
110.388 144.0
110.457016 40.0
110.524803 180.0
110.570007 52.0
110.674675 148.0
110.731216 180.0
110.75325 184.0
110.957527 136.0
111.047699 76.0
111.163696 164.0
111.196663 184.0
111.226044 112.0
111.347824 220.0
111.37513 240.0
111.410843 136.0
111.42765 80.0
111.45076 160.0
111.473877 176.0
111.503296 164.0
111.530617 116.0
111.624405 164.0
111.719879 108.0
111.760033 212.0
111.907486 168.0
111.930351 60.0
111.995636 104.0
112.069366 180.0
112.157883 160.0
112.301262 132.0
112.381424 176.0
112.421516 128.0
112.4384 128.0
112.466148 164.0
112.505997 160.0
112.557129 132.0
112.687576 72.0
112.715042 168.0
112.738724 232.0
112.789017 160.0
112.860893 180.0
112.951675 188.0
113.013184 120.0
113.055504 192.0
113.102066 128.0
113.131706 212.0
113.24865 176.0
113.309601 156.0
113.364159 192.0
113.407082 152.0
113.462196 152.0
113.515205 48.0
113.536407 156.0
113.625496 204.0
113.663689 276.0
113.678543 184.0
113.695518 200.0
113.784676 152.0
113.829262 168.0
113.898102 136.0
113.91703 136.0
114.011955 148.0
114.060844 232.0
114.156517 156.0
114.192673 116.0
114.275635 168.0
114.290527 136.0
114.403328 216.0
114.433136 200.0
114.537483 56.0
114.597137 180.0
114.699432 184.0
114.720749 96.0
114.780449 140.0
114.865891 124.0
114.916656 144.0
114.98951 112.0
115.054138 344.0
115.074898 196.0
115.124008 116.0
115.150551 188.0
115.171822 196.0
115.258591 200.0
115.374001 192.0
115.396683 184.0
115.411026 164.0
115.462303 176.0
115.498032 148.0
115.590027 144.0
115.679924 228.0
115.709892 144.0
115.774132 136.0
115.794067 140.0
115.816673 116.0
115.851242 140.0
115.954094 132.0
116.059135 136.0
116.076286 140.0
116.123466 228.0
116.235023 180.0
116.291809 156.0
116.307991 64.0
116.380981 164.0
116.469032 148.0
116.550674 204.0
116.615143 148.0
116.735535 120.0
116.761169 200.0
116.791458 100.0
116.81942 184.0
116.840935 76.0
116.864601 168.0
116.886116 172.0
116.965195 124.0
116.998039 72.0
117.037315 136.0
117.066536 152.0
117.138016 144.0
117.163231 204.0
117.191872 184.0
117.215576 204.0
117.243591 168.0
117.269455 164.0
117.31041 156.0
117.369026 492.0
117.382164 128.0
117.42038 280.0
117.513138 156.0
117.538857 152.0
117.556419 180.0
117.577873 176.0
117.610245 172.0
117.633987 164.0
117.653419 164.0
117.754906 232.0
117.806747 184.0
117.875885 92.0
117.89534 180.0
117.93856 124.0
118.009903 136.0
118.059196 188.0
118.074776 160.0
118.098564 128.0
118.118034 184.0
118.237038 172.0
118.343109 144.0
118.4189 76.0
118.436226 180.0
118.505554 236.0
118.551537 180.0
118.581398 200.0
118.624748 88.0
118.661835 152.0
118.714966 164.0
118.757019 112.0
118.774376 184.0
118.908897 116.0
118.941452 404.0
118.995728 72.0
119.051414 212.0
119.071732 208.0
119.136894 192.0
119.167313 108.0
119.260757 140.0
119.291191 152.0
119.421654 200.0
119.491264 140.0
119.566902 200.0
119.617485 144.0
119.728531 204.0
119.765556 124.0
119.796051 172.0
119.822197 60.0
119.885384 128.0
119.901642 188.0
119.918076 168.0
119.976929 84.0
120.048889 152.0
120.07724 156.0
120.099045 204.0
120.142677 260.0
120.203766 84.0
120.247414 156.0
120.262695 188.0
120.280159 64.0
120.319931 128.0
120.382866 184.0
120.430817 184.0
120.463585 156.0
120.52861 272.0
120.574783 184.0
120.60125 148.0
120.679947 124.0
120.710556 344.0
120.78492 112.0
120.805168 156.0
120.839615 168.0
120.886414 268.0
120.903069 188.0
121.004364 160.0
121.022461 96.0
121.097923 68.0
121.192123 160.0
121.22937 120.0
121.246902 164.0
121.327202 180.0
121.356506 104.0
121.385017 156.0
121.424492 184.0
121.472748 160.0
121.501266 128.0
121.524231 128.0
121.580254 156.0
121.780045 144.0
121.807045 152.0
121.823677 144.0
121.856934 112.0
121.889893 188.0
122.004181 248.0
122.076721 268.0
122.107529 148.0
122.169762 164.0
122.221924 112.0
122.356186 48.0
122.415764 136.0
122.48362 240.0
122.505943 96.0
122.527969 144.0
122.600685 116.0
122.629333 132.0
122.664604 48.0
122.70649 96.0
122.728539 156.0
122.759407 116.0
122.795967 208.0
122.88073 164.0
122.93148 128.0
122.962372 160.0
123.04184 196.0
123.097038 136.0
123.192017 220.0
123.331223 184.0
123.404175 160.0
123.421867 96.0
123.585548 104.0
123.645294 88.0
123.660789 120.0
123.725891 156.0
123.753761 172.0
123.893295 76.0
123.930962 184.0
123.988571 140.0
124.006302 100.0
124.052422 164.0
124.08564 172.0
124.192551 40.0
124.250229 208.0
124.330109 48.0
124.401222 204.0
124.421112 144.0
124.445541 132.0
124.504646 220.0
124.549911 124.0
124.587173 280.0
124.652115 144.0
124.669891 128.0
124.747681 68.0
124.763245 128.0
124.950058 64.0
125.034615 28.0
125.052422 156.0
125.139236 188.0
125.164291 80.0
125.301826 204.0
125.341225 88.0
125.390961 180.0
125.434235 180.0
125.4935 76.0
125.656319 140.0
125.772362 252.0
125.825943 192.0
125.841568 216.0
125.881516 180.0
125.942062 236.0
125.977798 124.0
126.006844 188.0
126.069412 96.0
126.125282 156.0
126.165741 164.0
126.223656 204.0
126.243782 108.0
126.315353 140.0
126.342194 140.0
126.373146 120.0
126.424988 164.0
126.476463 136.0
126.498848 104.0
126.543625 348.0
126.644394 156.0
126.700592 188.0
126.816925 140.0
126.859512 108.0
126.937988 120.0
126.96714 132.0
127.101738 164.0
127.18148 200.0
127.213951 144.0
127.229668 192.0
127.36216 172.0
127.401482 208.0
127.544167 72.0
127.625999 220.0
127.656578 136.0
127.74205 96.0
127.845543 156.0
127.883804 140.0
127.940079 108.0
127.967102 152.0
128.033859 192.0
128.063843 104.0
128.102219 80.0
128.257706 212.0
128.318573 140.0
128.363678 128.0
128.469681 180.0
128.530594 172.0
128.548645 128.0
128.587006 140.0
128.60733 40.0
128.695374 132.0
128.894135 200.0
128.937073 164.0
128.968719 128.0
129.004562 196.0
129.07045 632.0
129.217468 140.0
129.371048 84.0
129.620514 168.0
129.7565 116.0
129.779175 156.0
129.797318 140.0
129.819992 212.0
129.910721 184.0
129.996933 172.0
130.072906 164.0
130.196716 76.0
130.264862 168.0
130.328476 140.0
130.396637 44.0
130.473923 144.0
130.513901 284.0
130.589905 120.0
130.631699 204.0
130.700256 188.0
130.762817 244.0
130.79924 240.0
130.844772 48.0
130.908524 160.0
130.944962 144.0
130.976852 124.0
131.003693 168.0
131.049713 412.0
131.084702 340.0
131.188766 192.0
131.205002 164.0
131.22261 128.0
131.277695 180.0
131.334717 172.0
131.35524 120.0
131.385635 148.0
131.471603 244.0
131.528656 268.0
131.558334 180.0
131.61998 136.0
131.727325 376.0
131.766159 152.0
131.805008 184.0
131.843857 144.0
132.004333 140.0
132.089279 344.0
132.106796 96.0
132.200607 64.0
132.223495 168.0
132.301315 144.0
132.459854 248.0
132.516022 104.0
132.571594 96.0
132.621185 276.0
132.641983 164.0
132.695374 152.0
132.721893 192.0
132.76416 88.0
132.814621 164.0
132.862793 140.0
132.899506 88.0
132.949997 80.0
132.995895 160.0
133.066391 284.0
133.099701 164.0
133.138245 128.0
133.168106 192.0
133.214035 80.0
133.384079 208.0
133.409378 328.0
133.478348 88.0
133.533539 208.0
133.605164 192.0
133.731415 152.0
133.828094 224.0
133.87645 136.0
134.016235 112.0
134.065475 152.0
134.129898 112.0
134.310837 212.0
134.374344 192.0
134.397415 140.0
134.459732 88.0
134.491226 260.0
134.556671 168.0
134.744278 248.0
134.754654 200.0
134.788391 192.0
134.815384 136.0
134.845428 180.0
134.893768 144.0
135.005997 176.0
135.046921 132.0
135.110123 212.0
135.19928 164.0
135.222412 144.0
135.266388 192.0
135.301117 224.0
135.379852 220.0
135.401749 216.0
135.436737 184.0
135.456284 168.0
135.50029 196.0
135.526459 152.0
135.546631 148.0
135.660202 128.0
135.745987 112.0
135.821671 228.0
135.864868 176.0
135.891754 224.0
135.968231 160.0
135.977539 128.0
136.053696 168.0
136.077805 168.0
136.158218 260.0
136.179031 148.0
136.391418 96.0
136.432205 204.0
136.466049 160.0
136.491394 212.0
136.542542 196.0
136.637924 176.0
136.672821 144.0
136.777542 188.0
136.797272 160.0
136.87999 180.0
136.907928 108.0
137.057709 268.0
137.076126 160.0
137.126923 88.0
137.173553 108.0
137.213989 240.0
137.231827 152.0
137.304123 176.0
137.32045 168.0
137.3461 292.0
137.378983 124.0
137.430084 232.0
137.497757 60.0
137.532776 84.0
137.555908 136.0
137.595795 144.0
137.633163 92.0
137.670517 152.0
137.703217 100.0
137.719559 92.0
137.763641 156.0
137.887787 152.0
137.918167 132.0
138.014023 208.0
138.05513 180.0
138.107574 156.0
138.152008 76.0
138.17775 192.0
138.236252 136.0
138.264328 44.0
138.418839 168.0
138.435226 132.0
138.544907 208.0
138.592163 148.0
138.615601 144.0
138.684067 228.0
138.753891 64.0
138.782028 176.0
138.821884 140.0
138.888794 168.0
138.946213 80.0
139.007217 84.0
139.042419 92.0
139.110489 164.0
139.164474 132.0
139.199707 216.0
139.29834 144.0
139.321838 168.0
139.340637 144.0
139.434631 148.0
139.602524 144.0
139.653275 172.0
139.749725 108.0
139.857986 152.0
139.883881 108.0
140.048706 212.0
140.076981 40.0
140.166504 140.0
140.182999 160.0
140.272568 176.0
140.317352 172.0
140.369232 148.0
140.447052 164.0
140.504578 120.0
140.527267 104.0
140.553223 168.0
140.628738 264.0
140.659744 148.0
140.678299 44.0
140.694824 180.0
140.796371 148.0
140.949921 220.0
141.011353 156.0
141.069916 644.0
141.153198 144.0
141.266724 112.0
141.346909 180.0
141.401596 216.0
141.422897 36.0
141.527069 168.0
141.595749 176.0
141.65123 180.0
141.681015 136.0
141.730774 124.0
141.785278 116.0
142.051147 152.0
142.075439 348.0
142.162354 72.0
142.197952 184.0
142.300018 172.0
142.459137 136.0
142.56369 192.0
142.687286 32.0
142.71582 112.0
142.734848 136.0
142.770508 96.0
142.794296 204.0
142.82135 160.0
142.851379 168.0
142.929886 124.0
142.99176 160.0
143.017944 136.0
143.085556 2408.0
143.134598 148.0
143.189377 152.0
143.225098 100.0
143.248917 92.0
143.287048 164.0
143.308487 168.0
143.401474 196.0
143.477707 116.0
143.525391 156.0
143.611893 176.0
143.675018 180.0
143.735291 36.0
143.814056 48.0
143.845078 132.0
144.02417 76.0
144.058304 332.0
144.08606 732.0
144.124512 140.0
144.147491 168.0
144.193817 144.0
144.225586 124.0
144.279861 192.0
144.380295 108.0
144.530319 224.0
144.566895 180.0
144.602783 96.0
144.739243 108.0
144.813492 140.0
144.837433 160.0
144.875061 216.0
144.909302 168.0
144.952438 128.0
144.993179 128.0
145.026733 172.0
145.065918 456.0
145.100449 420.0
145.140503 148.0
145.176331 176.0
145.288101 144.0
145.328888 64.0
145.355286 212.0
145.381683 120.0
145.513702 264.0
145.657791 168.0
145.674606 144.0
145.756302 240.0
145.831924 128.0
145.85965 188.0
145.946198 132.0
145.987076 200.0
146.035172 136.0
146.062943 456.0
146.138611 148.0
146.172302 112.0
146.196365 52.0
146.213211 120.0
146.234879 236.0
146.266159 180.0
146.316711 156.0
146.399597 200.0
146.437119 140.0
146.457825 308.0
146.502151 40.0
146.550858 132.0
146.584076 64.0
146.600937 60.0
146.622635 200.0
146.658066 200.0
146.67807 96.0
146.767273 180.0
146.899918 120.0
146.940933 176.0
146.960236 120.0
146.99884 108.0
147.04007 144.0
147.065186 512.0
147.107452 132.0
147.22818 132.0
147.252335 144.0
147.319962 36.0
147.356201 196.0
147.374985 204.0
147.411774 160.0
147.447739 208.0
147.523254 164.0
147.569916 176.0
147.619675 132.0
147.648682 128.0
147.694641 176.0
147.730927 132.0
147.764801 168.0
147.791412 184.0
147.80835 192.0
147.837387 208.0
147.895477 100.0
147.943893 148.0
148.029343 204.0
148.07515 4512.0
148.156998 124.0
148.210312 204.0
148.278946 160.0
148.346024 292.0
148.372696 152.0
148.457397 116.0
148.528305 188.0
148.566711 116.0
148.658905 160.0
148.736572 180.0
148.787552 172.0
148.809402 188.0
148.884674 160.0
148.974548 56.0
149.013428 120.0
149.055939 168.0
149.077911 428.0
149.202988 112.0
149.312912 284.0
149.436478 212.0
149.470535 136.0
149.50499 180.0
149.580063 176.0
149.599533 128.0
149.640915 168.0
149.828445 184.0
149.898544 120.0
149.952728 200.0
149.972229 156.0
150.020981 184.0
150.052673 172.0
150.157532 172.0
150.19899 72.0
150.335617 176.0
150.354324 96.0
150.406403 224.0
150.442245 164.0
150.477188 120.0
150.577911 132.0
150.665253 100.0
150.833862 152.0
150.854401 204.0
150.885208 112.0
150.930679 120.0
150.963455 108.0
151.022781 176.0
151.04538 208.0
151.186066 28.0
151.21788 136.0
151.315796 128.0
151.421097 76.0
151.479889 200.0
151.555832 84.0
151.602386 128.0
151.63179 152.0
151.653854 116.0
151.693069 172.0
151.842651 180.0
151.901505 164.0
151.934509 116.0
151.94397 168.0
151.994736 156.0
152.019287 168.0
152.134644 144.0
152.200928 252.0
152.231033 156.0
152.333557 92.0
152.471146 144.0
152.549805 172.0
152.594055 152.0
152.707169 140.0
152.741608 152.0
152.796478 252.0
152.90892 180.0
152.938461 176.0
153.019699 96.0
153.036926 60.0
153.070786 372.0
153.137894 32.0
153.162537 152.0
153.211792 136.0
153.268463 44.0
153.288177 192.0
153.362122 220.0
153.411407 152.0
153.453323 128.0
153.52977 124.0
153.574158 100.0
153.628433 200.0
153.645691 68.0
153.690109 112.0
153.778214 140.0
153.828323 168.0
153.862885 128.0
153.880157 196.0
153.998688 48.0
154.033386 204.0
154.078445 416.0
154.213654 176.0
154.230957 216.0
154.250732 152.0
154.360748 184.0
154.426285 84.0
154.495544 248.0
154.549973 112.0
154.594513 236.0
154.700943 32.0
154.720703 172.0
154.792557 172.0
154.822281 172.0
154.844559 120.0
154.901535 88.0
154.928787 216.0
155.015503 176.0
155.035324 140.0
155.052673 192.0
155.086426 492.0
155.113281 116.0
155.141907 188.0
155.201416 164.0
155.221252 204.0
155.243576 184.0
155.265884 120.0
155.370071 112.0
155.476761 168.0
155.528885 72.0
155.585983 124.0
155.630676 224.0
155.665436 180.0
155.710144 168.0
155.727524 84.0
155.754852 224.0
155.846771 172.0
155.871613 168.0
155.905899 136.0
155.955093 156.0
155.999268 176.0
156.065414 132.0
156.093231 1116.0
156.147552 152.0
156.204773 108.0
156.31424 152.0
156.378937 72.0
156.443665 52.0
156.46109 60.0
156.485489 140.0
156.578125 140.0
156.60054 100.0
156.662811 136.0
156.710144 152.0
156.774933 180.0
156.864655 160.0
156.902924 208.0
156.941635 84.0
156.999298 80.0
157.064987 532.0
157.098648 408.0
157.135376 132.0
157.181412 132.0
157.288727 152.0
157.311188 188.0
157.39119 180.0
157.451019 108.0
157.470993 40.0
157.500961 64.0
157.588821 144.0
157.609924 160.0
157.628387 120.0
157.793427 148.0
157.833359 108.0
157.950653 200.0
158.025955 116.0
158.072067 1400.0
158.113541 156.0
158.141068 116.0
158.183624 120.0
158.214127 196.0
158.241196 132.0
158.31131 48.0
158.393967 476.0
158.425751 188.0
158.470795 144.0
158.499191 156.0
158.644547 104.0
158.734818 160.0
158.757385 208.0
158.807968 120.0
158.840149 168.0
158.858841 176.0
158.892838 176.0
159.040894 120.0
159.079468 1348.0
159.117706 296.0
159.155502 196.0
159.186508 144.0
159.30455 160.0
159.344742 216.0
159.397507 28.0
159.422638 80.0
159.480453 104.0
159.546326 232.0
159.568436 216.0
159.621231 128.0
159.696686 120.0
159.754532 192.0
159.779694 92.0
159.824982 184.0
159.915237 176.0
160.006195 176.0
160.061432 124.0
160.082886 184.0
160.127075 208.0
160.230347 100.0
160.255539 168.0
160.300903 124.0
160.356705 88.0
160.386597 208.0
160.410172 124.0
160.496307 180.0
160.531845 144.0
160.644424 176.0
160.681641 248.0
160.744339 240.0
160.782578 68.0
160.860809 136.0
160.895065 92.0
161.019882 140.0
161.059326 2284.0
161.089615 464.0
161.148727 140.0
161.216949 148.0
161.233749 88.0
161.27002 88.0
161.37114 116.0
161.38884 136.0
161.408142 132.0
161.426483 176.0
161.61142 92.0
161.664566 116.0
161.697464 140.0
161.73407 292.0
161.81897 132.0
161.955719 44.0
162.056396 504.0
162.061523 392.0
162.089813 300.0
162.115326 104.0
162.168549 208.0
162.295303 180.0
162.361237 132.0
162.40062 160.0
162.434799 96.0
162.500748 148.0
162.518509 44.0
162.68602 136.0
162.792664 108.0
162.818054 120.0
162.845993 212.0
162.876465 116.0
162.903122 196.0
162.957764 180.0
163.037766 1068.0
163.066299 372.0
163.074966 196.0
163.098679 252.0
163.117874 156.0
163.217026 140.0
163.270432 120.0
163.295868 84.0
163.362 136.0
163.384888 80.0
163.415421 100.0
163.438324 188.0
163.46376 124.0
163.575928 168.0
163.669952 124.0
163.703644 188.0
163.731064 48.0
163.753998 196.0
163.815125 76.0
163.84314 128.0
163.904297 184.0
163.955261 72.0
163.998596 152.0
164.042984 116.0
164.131149 128.0
164.193069 188.0
164.28418 176.0
164.32756 192.0
164.37204 120.0
164.513855 148.0
164.570023 188.0
164.623154 184.0
164.661957 140.0
164.753922 188.0
164.843338 144.0
164.88678 136.0
164.94046 76.0
165.014603 88.0
165.039978 184.0
165.067825 464.0
165.170593 52.0
165.219208 68.0
165.265259 136.0
165.295303 108.0
165.361221 216.0
165.406006 184.0
165.449524 136.0
165.477692 64.0
165.545288 328.0
165.680862 180.0
165.745728 248.0
165.869659 176.0
165.926056 148.0
166.000412 172.0
166.077164 288.0
166.200485 164.0
166.364746 120.0
166.457184 76.0
166.482864 196.0
166.531662 68.0
166.554779 80.0
166.631836 124.0
166.788605 164.0
166.824585 124.0
166.850296 148.0
166.888855 140.0
166.920914 176.0
166.978867 164.0
167.037292 212.0
167.088699 256.0
167.326248 224.0
167.408646 164.0
167.590286 196.0
167.64566 160.0
167.689468 136.0
167.723129 192.0
167.789993 252.0
167.924515 180.0
168.047913 188.0
168.068558 192.0
168.098099 188.0
168.120163 164.0
168.176941 144.0
168.2957 164.0
168.337006 152.0
168.38092 164.0
168.466156 232.0
168.491989 152.0
168.545303 120.0
168.618607 116.0
168.649612 140.0
168.758194 232.0
168.900436 220.0
168.941818 180.0
168.991592 184.0
169.059845 552.0
169.100845 3548.0
169.171204 100.0
169.17926 64.0
169.186554 148.0
169.223923 92.0
169.262756 36.0
169.305389 172.0
169.443314 192.0
169.541397 164.0
169.60733 164.0
169.633255 148.0
169.668839 220.0
169.703247 148.0
169.749924 168.0
169.794006 80.0
169.817352 180.0
169.892578 172.0
169.980789 132.0
170.065826 136.0
170.106354 576.0
170.162491 60.0
170.183258 148.0
170.219604 184.0
170.263748 116.0
170.33728 236.0
170.393631 124.0
170.438965 180.0
170.567749 176.0
170.614548 120.0
170.66037 172.0
170.697739 124.0
170.76796 60.0
170.804382 224.0
170.832993 164.0
170.878525 176.0
170.921448 148.0
170.957886 148.0
170.986511 160.0
171.04274 216.0
171.080215 1252.0
171.116684 3284.0
171.153107 168.0
171.176544 116.0
171.275513 216.0
171.351059 192.0
171.408264 168.0
171.46051 148.0
171.516617 152.0
171.536087 124.0
171.594696 184.0
171.676895 180.0
171.770782 84.0
171.885574 136.0
171.979523 116.0
172.00563 156.0
172.08725 808.0
172.121658 324.0
172.19101 84.0
172.293182 144.0
172.337479 184.0
172.419571 164.0
172.525482 156.0
172.559464 152.0
172.606537 120.0
172.687607 152.0
172.886444 124.0
172.915222 184.0
172.936157 44.0
173.025284 280.0
173.059265 2604.0
173.096954 1244.0
173.161087 84.0
173.177963 184.0
173.232056 64.0
173.268738 80.0
173.342102 148.0
173.37355 48.0
173.439072 88.0
173.504608 136.0
173.638336 92.0
173.656693 224.0
173.685547 120.0
173.709152 176.0
173.730133 196.0
173.821976 180.0
173.840332 144.0
173.914322 192.0
173.959518 108.0
174.031281 140.0
174.064728 920.0
174.104492 208.0
174.163269 76.0
174.231567 168.0
174.278854 124.0
174.315643 96.0
174.334045 136.0
174.365585 72.0
174.394485 88.0
174.43129 324.0
174.449692 136.0
174.520676 120.0
174.58905 168.0
174.720093 156.0
174.768753 176.0
174.810028 232.0
174.949524 144.0
174.98111 144.0
175.041382 212.0
175.072464 452.0
175.123322 196.0
175.184509 196.0
175.278748 140.0
175.357803 156.0
175.405258 104.0
175.439529 200.0
175.471161 136.0
175.539719 288.0
175.598099 232.0
175.618835 216.0
175.684784 64.0
175.72171 92.0
175.77713 112.0
175.824631 104.0
175.861572 120.0
176.046387 244.0
176.074646 216.0
176.104492 136.0
176.146744 164.0
176.202225 36.0
176.223358 160.0
176.281494 188.0
176.347565 44.0
176.366074 204.0
176.508255 184.0
176.577591 192.0
176.664871 108.0
176.707199 92.0
176.754837 336.0
176.823639 124.0
176.92688 64.0
177.081558 172.0
177.149323 288.0
177.194366 128.0
177.27916 172.0
177.321564 176.0
177.401077 160.0
177.488571 172.0
177.629135 336.0
177.703415 200.0
177.74321 100.0
177.798935 104.0
177.82814 104.0
177.86795 180.0
177.976807 184.0
178.045837 136.0
178.122131 124.0
178.218506 172.0
178.316833 36.0
178.391266 84.0
178.435623 116.0
178.577393 220.0
178.792892 168.0
178.863434 104.0
178.974976 176.0
179.021835 156.0
179.08522 1092.0
179.176331 212.0
179.215179 184.0
179.248276 140.0
179.397522 320.0
179.421524 276.0
179.458847 172.0
179.490936 192.0
179.552185 180.0
179.693558 132.0
179.81897 112.0
179.845673 148.0
179.891037 120.0
179.91507 152.0
180.096786 236.0
180.193985 120.0
180.232895 152.0
180.321091 152.0
180.339798 128.0
180.398605 168.0
180.43161 232.0
180.564392 72.0
180.609848 88.0
180.888138 136.0
180.917099 152.0
181.018265 60.0
181.069641 352.0
181.101929 1032.0
181.212189 172.0
181.276505 168.0
181.359573 164.0
181.381027 80.0
181.499298 148.0
181.520432 156.0
181.560669 104.0
181.596954 180.0
181.635666 112.0
181.641724 144.0
181.675995 120.0
181.759171 176.0
181.82225 172.0
181.86116 148.0
181.91626 128.0
181.949738 160.0
182.019547 168.0
182.072845 900.0
182.105484 124.0
182.226364 64.0
182.309677 184.0
182.355362 176.0
182.387619 220.0
182.52742 64.0
182.66188 88.0
182.785645 28.0
182.80986 180.0
182.871765 148.0
182.922913 108.0
183.017136 236.0
183.078278 804.0
183.110504 188.0
183.194885 248.0
183.227219 256.0
183.364639 196.0
183.398453 244.0
183.615372 168.0
183.680115 84.0
183.758347 108.0
183.788025 68.0
183.812317 148.0
183.906769 116.0
183.955353 124.0
184.006653 180.0
184.087692 644.0
184.120056 128.0
184.238907 148.0
184.271332 136.0
184.319962 92.0
184.506454 224.0
184.568649 248.0
184.655182 212.0
184.715302 232.0
184.744446 212.0
184.787735 152.0
184.820206 32.0
184.877029 144.0
184.914917 168.0
184.950104 176.0
185.000015 264.0
185.058701 276.0
185.079498 176.0
185.099731 204.0
185.126083 176.0
185.17131 144.0
185.215469 164.0
185.242554 160.0
185.283188 164.0
185.345505 176.0
185.442413 116.0
185.548782 144.0
185.779297 208.0
185.882401 192.0
185.936676 120.0
185.961105 212.0
186.045258 92.0
186.072998 300.0
186.104477 192.0
186.142166 156.0
186.179688 156.0
186.267929 136.0
186.368454 176.0
186.414642 100.0
186.460846 176.0
186.513977 168.0
186.648422 108.0
186.672821 140.0
186.749039 168.0
186.806168 60.0
186.936768 140.0
186.974869 120.0
187.073837 1496.0
187.111206 3148.0
187.175598 148.0
187.204712 96.0
187.236221 64.0
187.274353 92.0
187.309769 152.0
187.350632 296.0
187.386047 216.0
187.405121 124.0
187.456894 172.0
187.535919 124.0
187.574081 212.0
187.737671 172.0
187.766479 100.0
187.845535 168.0
187.868591 172.0
187.950439 132.0
188.032318 212.0
188.079315 352.0
188.11348 256.0
188.160614 88.0
188.242966 124.0
188.275299 68.0
188.357239 144.0
188.379089 64.0
188.441925 28.0
188.466507 100.0
188.506485 172.0
188.562561 216.0
188.608627 128.0
188.651474 216.0
188.693375 44.0
188.717484 132.0
188.816422 100.0
188.841034 164.0
188.876587 36.0
188.897537 228.0
188.935577 184.0
188.955917 120.0
188.975082 164.0
189.010651 136.0
189.05484 10856.0
189.09549 176.0
189.144455 148.0
189.166046 144.0
189.203568 132.0
189.239944 168.0
189.289856 112.0
189.317245 192.0
189.415833 48.0
189.440491 92.0
189.467896 64.0
189.508987 112.0
189.586349 104.0
189.622086 160.0
189.721634 176.0
189.780548 144.0
189.805008 152.0
189.824203 128.0
189.867371 192.0
189.994263 96.0
190.027191 48.0
190.057159 2336.0
190.087296 232.0
190.107697 520.0
190.307144 176.0
190.329102 172.0
190.367554 160.0
190.412827 172.0
190.452698 208.0
190.492889 76.0
190.546097 56.0
190.607147 180.0
190.696777 172.0
190.741959 160.0
190.788452 192.0
190.816132 220.0
190.904602 212.0
191.064041 280.0
191.118347 15720.0
191.162537 84.0
191.208786 60.0
191.233566 256.0
191.283112 88.0
191.329483 52.0
191.35051 96.0
191.395676 84.0
191.443161 120.0
191.492844 80.0
191.587952 160.0
191.627426 172.0
191.663773 184.0
191.690735 144.0
191.774323 204.0
191.863312 156.0
191.925034 176.0
191.947083 136.0
191.970657 140.0
192.054443 268.0
192.119247 1984.0
192.200867 48.0
192.227859 116.0
192.255203 160.0
192.300217 148.0
192.330566 152.0
192.371979 160.0
192.452042 168.0
192.5625 256.0
192.626038 104.0
192.667465 148.0
192.708908 80.0
192.75322 132.0
192.776855 136.0
192.913422 60.0
192.957657 88.0
192.991898 168.0
193.065506 32.0
193.096634 124.0
193.121811 164.0
193.146576 152.0
193.20607 220.0
193.237 92.0
193.311707 148.0
193.342148 168.0
193.365219 344.0
193.417114 48.0
193.466705 52.0
193.499924 204.0
193.522079 188.0
193.579895 132.0
193.699326 284.0
193.745682 228.0
193.948135 168.0
193.995483 160.0
194.040192 224.0
194.286758 256.0
194.389679 224.0
194.417755 172.0
194.438904 76.0
194.495148 140.0
194.620071 36.0
194.658951 40.0
194.781143 168.0
194.853378 124.0
194.972855 108.0
195.014557 212.0
195.077148 224.0
195.184128 100.0
195.220276 104.0
195.245316 212.0
195.356567 180.0
195.406906 172.0
195.44838 272.0
195.509598 124.0
195.554138 64.0
195.598343 168.0
195.679398 176.0
195.774078 132.0
195.860413 164.0
195.900253 172.0
195.953506 228.0
196.00528 152.0
196.085129 256.0
196.214325 156.0
196.275665 148.0
196.31749 188.0
196.48764 132.0
196.507172 172.0
196.537872 40.0
196.677399 136.0
196.719269 72.0
196.842117 116.0
196.915466 168.0
197.020874 116.0
197.063995 92.0
197.096115 10884.0
197.173828 136.0
197.199722 180.0
197.224869 52.0
197.277985 160.0
197.308731 144.0
197.361862 120.0
197.414993 88.0
197.525131 136.0
197.566528 244.0
197.621979 112.0
197.661148 164.0
197.691208 152.0
197.77681 136.0
197.841293 244.0
197.906158 128.0
197.992874 164.0
198.015411 228.0
198.100586 2496.0
198.181976 208.0
198.282852 124.0
198.486588 140.0
198.580673 124.0
198.655777 120.0
198.714691 108.0
198.737137 200.0
198.756775 80.0
198.84938 72.0
198.944824 52.0
198.992554 192.0
199.078781 164.0
199.112305 2028.0
199.19194 60.0
199.270599 148.0
199.315567 40.0
199.349289 92.0
199.371338 160.0
199.402679 40.0
199.430786 176.0
199.501053 200.0
199.655701 184.0
199.684311 164.0
199.790131 132.0
199.844727 164.0
199.903275 132.0
199.97644 144.0
200.082474 296.0
200.11116 324.0
200.169998 276.0
200.271545 188.0
200.317154 192.0
200.362289 196.0
200.385818 160.0
200.421265 180.0
200.438858 244.0
200.50647 124.0
200.582031 96.0
200.644043 104.0
200.681274 196.0
200.737091 176.0
200.774948 200.0
200.816055 160.0
200.844269 148.0
200.885468 152.0
200.909149 204.0
200.948654 156.0
200.971222 104.0
200.996613 124.0
201.054871 18592.0
201.091446 2576.0
201.126923 380.0
201.242188 72.0
201.283234 296.0
201.35025 204.0
201.380554 52.0
201.419098 88.0
201.448349 88.0
201.490723 356.0
201.544403 160.0
201.581146 272.0
201.626358 140.0
201.718307 152.0
201.744156 160.0
201.78183 152.0
201.817566 72.0
201.861603 132.0
201.997787 120.0
202.062103 7424.0
202.143875 132.0
202.16922 92.0
202.231018 116.0
202.27063 148.0
202.321442 136.0
202.411835 188.0
202.509079 152.0
202.534576 52.0
202.60112 196.0
202.684143 116.0
202.718735 120.0
202.853729 140.0
202.89447 36.0
203.005051 44.0
203.024902 144.0
203.069748 2408.0
203.126999 196.0
203.206436 148.0
203.273132 136.0
203.311432 52.0
203.357498 160.0
203.382385 164.0
203.467545 36.0
203.507294 56.0
203.528732 152.0
203.641754 60.0
203.710022 124.0
203.771439 136.0
203.845306 196.0
203.873734 40.0
203.94194 148.0
203.972534 136.0
204.018692 160.0
204.036957 104.0
204.073914 508.0
204.172241 64.0
204.226273 184.0
204.268051 64.0
204.317307 140.0
204.345749 136.0
204.453888 156.0
204.482346 188.0
204.506973 204.0
204.532059 172.0
204.655991 176.0
204.674103 144.0
204.764206 180.0
204.786987 336.0
204.854904 176.0
204.946518 28.0
205.002411 144.0
205.050385 116.0
205.163376 184.0
205.19075 180.0
205.216476 152.0
205.254364 128.0
205.2798 148.0
205.364594 128.0
205.396072 236.0
205.429398 192.0
205.516785 148.0
205.562439 220.0
205.622375 192.0
205.762238 32.0
205.885025 56.0
205.905014 108.0
205.937698 108.0
206.117752 180.0
206.227875 180.0
206.256454 224.0
206.29361 212.0
206.365082 144.0
206.41655 56.0
206.506989 200.0
206.53096 48.0
206.602463 280.0
206.699753 168.0
206.731232 72.0
206.894379 176.0
206.970871 156.0
207.077377 196.0
207.110489 160.0
207.286774 36.0
207.36702 152.0
207.438675 100.0
207.524673 96.0
207.565186 140.0
207.640335 60.0
207.659088 152.0
207.702484 112.0
207.820114 384.0
207.854538 120.0
207.943497 120.0
208.098511 48.0
208.144226 192.0
208.270828 72.0
208.316788 96.0
208.408722 60.0
208.515045 100.0
208.598404 36.0
208.633743 136.0
208.995285 124.0
209.065948 136.0
209.107513 132.0
209.135956 168.0
209.274475 136.0
209.487595 100.0
209.5625 192.0
209.617249 184.0
209.76712 76.0
209.89975 84.0
210.015106 132.0
210.06105 272.0
210.143265 196.0
210.195877 172.0
210.254578 48.0
210.367142 164.0
210.53038 60.0
210.566376 188.0
210.621262 84.0
210.663971 152.0
210.7686 156.0
210.791718 44.0
210.910202 156.0
211.066315 148.0
211.111542 1344.0
211.142685 108.0
211.195435 56.0
211.260101 136.0
211.303497 44.0
211.34111 144.0
211.396088 164.0
211.427917 156.0
211.471329 144.0
211.526932 212.0
211.643311 180.0
211.755081 164.0
211.815903 100.0
211.894119 172.0
211.966553 164.0
212.034393 128.0
212.121155 164.0
212.198441 172.0
212.259323 156.0
212.314423 200.0
212.346329 184.0
212.522018 228.0
212.569717 132.0
212.613235 112.0
212.648071 120.0
212.679993 32.0
212.706116 116.0
212.793701 72.0
212.82225 212.0
212.881897 148.0
212.906464 112.0
212.974762 132.0
213.053345 176.0
213.083237 140.0
213.125198 272.0
213.182434 160.0
213.336487 64.0
213.412079 44.0
213.505096 156.0
213.551666 148.0
213.579727 192.0
213.630203 176.0
213.697113 68.0
213.764038 136.0
213.884735 136.0
213.960648 176.0
213.972305 160.0
214.049149 140.0
214.057083 132.0
214.090088 156.0
214.131439 100.0
214.222504 164.0
214.261932 132.0
214.291077 404.0
214.355179 168.0
214.404724 144.0
214.445526 136.0
214.492157 116.0
214.542511 116.0
214.562119 168.0
214.625946 72.0
214.655426 96.0
214.702087 148.0
214.737076 148.0
214.912109 164.0
214.941299 68.0
215.002579 180.0
215.025925 144.0
215.070099 1708.0
215.107147 12868.0
215.266235 140.0
215.323563 152.0
215.355301 64.0
215.422394 72.0
215.487305 68.0
215.534058 156.0
215.595413 96.0
215.713058 208.0
215.75325 108.0
215.79126 36.0
215.820496 136.0
215.8936 156.0
215.931625 64.0
216.046341 276.0
216.075043 280.0
216.111069 2160.0
216.188736 152.0
216.256393 36.0
216.358841 264.0
216.467178 68.0
216.502319 128.0
216.528671 132.0
216.580429 72.0
216.625336 76.0
216.77916 64.0
216.861267 132.0
216.900787 160.0
216.959412 208.0
217.041504 80.0
217.076706 136.0
217.112473 464.0
217.158813 184.0
217.334824 64.0
217.358307 48.0
217.399384 108.0
217.419937 140.0
217.456284 104.0
217.484497 52.0
217.537338 200.0
217.654663 204.0
217.665878 200.0
217.718872 116.0
217.726227 96.0
217.738037 148.0
217.830994 80.0
217.869873 136.0
217.92157 168.0
218.033722 124.0
218.112076 228.0
218.156006 188.0
218.28949 104.0
218.360062 176.0
218.434723 176.0
218.573593 260.0
218.618958 152.0
218.654282 76.0
218.704315 128.0
218.724915 180.0
218.769073 184.0
218.972977 176.0
219.031586 220.0
219.068237 184.0
219.109268 176.0
219.163727 216.0
219.372986 84.0
219.396561 172.0
219.440781 128.0
219.555786 164.0
219.659027 156.0
219.706223 152.0
219.874405 108.0
219.983627 112.0
220.137146 192.0
220.184402 404.0
220.335052 184.0
220.40596 56.0
220.442429 212.0
220.52121 56.0
220.59111 132.0
220.666061 56.0
220.704498 84.0
220.728165 188.0
220.769562 168.0
220.831665 144.0
220.915207 196.0
221.254639 216.0
221.48877 152.0
221.651703 80.0
221.672455 136.0
221.73172 56.0
221.770248 200.0
221.796921 160.0
221.820648 384.0
221.865112 140.0
221.954056 176.0
222.04895 180.0
222.283997 176.0
222.396088 148.0
222.472549 132.0
222.705521 168.0
222.758347 132.0
222.832626 152.0
222.877197 164.0
222.981201 112.0
223.09845 260.0
223.126526 180.0
223.283432 152.0
223.397491 148.0
223.5737 252.0
223.671249 176.0
223.733765 212.0
223.787354 120.0
223.873718 176.0
223.99881 124.0
224.034546 108.0
224.082565 276.0
224.177567 160.0
224.34906 148.0
224.475677 256.0
224.618835 188.0
224.675507 128.0
224.753082 164.0
224.79187 100.0
224.847824 224.0
224.945404 184.0
224.967972 152.0
225.018723 132.0
225.091293 6004.0
225.147125 96.0
225.200882 64.0
225.35025 48.0
225.401047 168.0
225.442886 100.0
225.493256 140.0
225.541504 80.0
225.58934 64.0
225.616867 152.0
225.648636 220.0
225.708923 108.0
225.906326 44.0
225.945206 180.0
225.993088 188.0
226.028992 188.0
226.095215 1644.0
226.164474 220.0
226.272385 164.0
226.337296 196.0
226.403183 192.0
226.478058 120.0
226.528976 192.0
226.57692 156.0
226.601974 196.0
226.654816 84.0
226.696762 80.0
226.750702 88.0
226.927567 192.0
226.987534 128.0
227.032516 204.0
227.089508 148.0
227.128494 140.0
227.155487 152.0
227.18219 196.0
227.218491 172.0
227.259323 112.0
227.329514 44.0
227.37558 156.0
227.476852 136.0
227.560364 192.0
227.64772 88.0
227.798126 156.0
227.842957 128.0
227.869995 216.0
227.930084 176.0
227.954132 144.0
227.992615 144.0
228.021332 232.0
228.07605 236.0
228.155502 136.0
228.567566 72.0
228.615707 152.0
228.75116 100.0
228.802338 188.0
228.892654 184.0
228.952881 296.0
229.015091 104.0
229.038651 128.0
229.085419 48.0
229.120682 548.0
229.259277 176.0
229.368668 120.0
229.56163 144.0
229.673218 76.0
229.700363 164.0
229.799927 108.0
229.824066 136.0
229.962875 192.0
230.038345 164.0
230.067184 188.0
230.088196 248.0
230.126785 148.0
230.204407 124.0
230.319168 40.0
230.436981 192.0
230.503464 236.0
230.808762 228.0
230.841827 184.0
230.850998 124.0
230.8638 140.0
230.953918 208.0
230.975098 108.0
231.023834 180.0
231.065369 744.0
231.122543 440.0
231.153595 124.0
231.372604 248.0
231.429047 152.0
231.479462 272.0
231.538071 188.0
231.568344 176.0
231.592575 108.0
231.621719 196.0
231.70079 144.0
231.85141 204.0
231.874359 164.0
231.953156 188.0
232.068359 216.0
232.101715 96.0
232.144165 116.0
232.259415 184.0
232.289749 112.0
232.32312 160.0
232.371658 244.0
232.395935 188.0
232.459656 188.0
232.496078 132.0
232.541595 160.0
232.585098 228.0
232.636703 180.0
232.665436 156.0
232.83609 164.0
233.310745 200.0
233.383087 40.0
233.40741 152.0
233.443893 200.0
233.535141 184.0
233.568588 160.0
233.611176 140.0
233.645844 260.0
233.675064 176.0
233.708542 96.0
233.828461 216.0
233.900269 76.0
233.92157 120.0
233.961151 56.0
234.000732 220.0
234.070755 116.0
234.168213 128.0
234.311386 96.0
234.354034 136.0
234.586029 164.0
234.61615 112.0
234.656219 164.0
234.733185 176.0
234.832642 276.0
234.898468 164.0
235.056839 140.0
235.288589 172.0
235.309708 108.0
235.391129 52.0
235.439987 148.0
235.501068 136.0
235.531616 128.0
235.638535 132.0
235.678268 144.0
235.708817 96.0
235.834122 232.0
235.907074 180.0
235.983459 188.0
236.051178 60.0
236.104431 212.0
236.164337 156.0
236.216553 276.0
236.280579 124.0
236.308121 204.0
236.451935 180.0
236.549881 56.0
236.635605 140.0
236.675415 128.0
236.704437 208.0
236.779526 204.0
236.850174 180.0
237.133194 192.0
237.248337 200.0
237.272873 140.0
237.47525 212.0
237.508987 60.0
237.690002 88.0
237.778992 164.0
237.818893 116.0
237.91713 68.0
237.944763 104.0
237.966248 64.0
238.024582 36.0
238.079865 168.0
238.193512 44.0
238.239578 124.0
238.328674 108.0
238.371704 168.0
238.48848 132.0
238.531525 172.0
238.602219 48.0
238.789795 184.0
238.814407 132.0
238.84877 324.0
238.903168 164.0
239.020523 148.0
239.105545 352.0
239.205185 180.0
239.245209 192.0
239.408401 184.0
239.543915 252.0
239.571289 152.0
239.70755 184.0
239.80275 48.0
239.839737 52.0
239.916794 96.0
239.987717 152.0
240.074051 184.0
240.109131 160.0
240.166458 204.0
240.348587 132.0
240.397964 188.0
240.47821 120.0
240.539932 108.0
240.58194 224.0
240.607849 208.0
240.678864 148.0
240.706665 76.0
240.750275 160.0
240.85173 160.0
240.90741 168.0
240.944458 180.0
240.954453 176.0
241.009613 100.0
241.04599 136.0
241.074265 228.0
241.095901 116.0
241.124191 204.0
241.16217 224.0
241.216431 44.0
241.250443 144.0
241.284454 32.0
241.306091 180.0
241.389572 100.0
241.414307 136.0
241.435959 88.0
241.457611 100.0
241.497818 96.0
241.528748 136.0
241.587524 76.0
241.621552 128.0
241.689499 104.0
241.767517 208.0
241.782257 120.0
241.786789 200.0
241.820526 116.0
241.866028 136.0
241.934128 100.0
241.970825 136.0
241.9767 112.0
242.042831 192.0
242.095901 132.0
242.134552 88.0
242.172043 120.0
242.211884 92.0
242.254333 80.0
242.287003 72.0
242.331177 140.0
242.359848 180.0
242.402832 232.0
242.428406 168.0
242.476578 160.0
242.509186 144.0
242.558212 452.0
242.602661 348.0
242.626083 420.0
242.675461 232.0
242.694046 176.0
242.700897 164.0
242.721878 160.0
242.754242 336.0
242.775497 132.0
242.806122 96.0
242.867996 272.0
242.880524 260.0
242.92334 232.0
242.946747 364.0
242.973785 320.0
243.038803 680.0
243.103119 285644.0
243.209045 252.0
243.217987 188.0
243.268524 156.0
243.299332 100.0
243.321854 300.0
243.345444 272.0
243.359772 200.0
243.389587 428.0
243.41507 268.0
243.453918 88.0
243.473358 256.0
243.504944 480.0
243.5327 184.0
243.551483 248.0
243.583633 120.0
243.61496 2240.0
243.639267 436.0
243.686172 176.0
243.760681 148.0
243.790176 192.0
243.83754 60.0
243.861191 204.0
243.910904 208.0
243.949875 264.0
244.008636 112.0
244.026596 88.0
244.105728 67332.0
244.196442 88.0
244.244492 76.0
244.285416 120.0
244.328613 100.0
244.384277 184.0
244.431564 172.0
244.529236 228.0
244.616852 196.0
244.66777 172.0
244.696259 164.0
244.722137 108.0
244.735519 108.0
244.796234 60.0
244.850372 124.0
244.883926 88.0
244.907486 212.0
244.9655 140.0
245.013779 100.0
245.03772 104.0
245.108276 6000.0
245.19426 128.0
245.235107 108.0
245.272583 156.0
245.305237 168.0
245.318741 88.0
245.328247 124.0
245.363708 104.0
245.368713 144.0
245.405167 128.0
245.466614 116.0
245.478027 168.0
245.529785 132.0
245.585938 180.0
245.613266 180.0
245.654861 100.0
245.680801 160.0
245.693787 100.0
245.726578 104.0
245.765823 84.0
245.785645 328.0
245.814316 188.0
245.867386 220.0
245.896469 128.0
245.901627 160.0
245.923004 352.0
245.959427 204.0
246.010635 104.0
246.049347 156.0
246.069046 192.0
246.108612 368.0
246.197952 128.0
246.226837 60.0
246.274231 68.0
246.307877 100.0
246.349075 84.0
246.503006 60.0
246.530685 76.0
246.570877 104.0
246.585724 80.0
246.593292 68.0
246.613525 124.0
246.665741 120.0
246.690735 128.0
246.722 112.0
246.775146 80.0
246.805664 100.0
246.834885 116.0
246.868958 120.0
246.904602 180.0
246.958099 128.0
247.018463 92.0
247.043045 284.0
247.074005 72.0
247.145035 76.0
247.204697 184.0
247.26001 32.0
247.353027 140.0
247.379929 128.0
247.422165 100.0
247.44783 68.0
247.564774 208.0
247.6138 120.0
247.641983 64.0
247.692093 48.0
247.736938 140.0
247.767288 96.0
247.900345 120.0
248.016754 204.0
248.093216 72.0
248.177856 100.0
248.262527 64.0
248.387985 44.0
248.469543 148.0
248.580276 164.0
248.609619 100.0
248.682938 208.0
248.802216 108.0
248.943512 68.0
249.069138 120.0
249.153961 116.0
249.197937 100.0
249.289062 168.0
249.323639 52.0
249.361343 140.0
249.383347 44.0
249.693649 136.0
249.713486 196.0
249.927399 76.0
250.056076 184.0
250.185486 64.0
250.251587 136.0
250.29567 116.0
250.327164 216.0
250.380707 52.0
250.412201 68.0
250.758774 224.0
250.947906 100.0
251.061432 224.0
251.115036 268.0
251.421066 84.0
251.762756 52.0
251.812561 176.0
251.881836 124.0
251.940628 120.0
252.394028 68.0
252.498383 28.0
252.555313 72.0
252.615417 192.0
252.824249 140.0
253.296005 88.0
253.510864 152.0
253.543137 76.0
253.799911 88.0
253.847473 92.0
253.926758 184.0
254.028259 296.0
254.082184 164.0
254.204971 100.0
254.33606 104.0
254.380493 68.0
254.472763 64.0
254.548767 68.0
254.672623 44.0
254.790161 144.0
254.910904 56.0
255.017685 140.0
255.066635 144.0
255.198914 112.0
255.225601 84.0
255.327362 64.0
255.36615 120.0
255.508667 168.0
255.554611 164.0
255.594574 76.0
255.629578 64.0
255.712326 96.0
255.847641 156.0
255.931976 80.0
255.954269 128.0
256.030701 80.0
256.093506 128.0
256.221802 80.0
256.311035 96.0
256.451233 144.0
256.508606 88.0
256.561829 116.0
256.59787 52.0
256.674408 76.0
256.699921 100.0
256.752502 104.0
256.897491 156.0
256.990173 76.0
257.015717 120.0
257.117737 22696.0
257.236816 184.0
257.354919 80.0
257.396759 160.0
257.453033 40.0
257.497101 104.0
257.548859 32.0
257.593567 80.0
257.638306 80.0
257.689423 176.0
257.711792 32.0
257.749725 100.0
257.815643 48.0
257.93222 152.0
257.939819 148.0
257.988464 152.0
258.051422 164.0
258.120178 4260.0
258.169983 188.0
258.180573 196.0
258.188995 192.0
258.325623 168.0
258.357605 88.0
258.399017 80.0
258.469574 136.0
258.495178 56.0
258.533569 32.0
258.597595 36.0
258.6586 132.0
258.709625 60.0
258.746765 60.0
258.792877 76.0
258.831299 92.0
258.855133 252.0
258.96579 68.0
259.004242 40.0
259.12384 1120.0
259.206055 68.0
259.316986 92.0
259.372711 76.0
259.404785 108.0
259.462494 48.0
259.54007 100.0
259.581116 52.0
259.603577 36.0
259.688934 104.0
259.728638 160.0
259.758301 132.0
259.786377 148.0
259.818481 60.0
259.86203 124.0
259.897675 116.0
260.043091 124.0
260.088013 124.0
260.134216 112.0
260.232483 172.0
260.328827 52.0
260.380188 92.0
260.482971 52.0
260.534393 144.0
260.566498 88.0
260.605072 32.0
260.704681 100.0
260.916809 56.0
261.044647 148.0
261.109741 92.0
261.174072 72.0
261.309204 52.0
261.370331 48.0
261.416565 108.0
261.584381 148.0
261.663208 96.0
261.814575 176.0
261.907959 56.0
262.127045 124.0
262.633209 192.0
262.781586 48.0
263.065582 148.0
263.191498 40.0
263.269012 132.0
263.608215 44.0
263.818298 152.0
264.19989 72.0
264.248444 108.0
264.67569 160.0
264.698334 116.0
264.746918 144.0
265.124603 160.0
265.300995 80.0
265.466339 104.0
265.735565 160.0
266.027649 84.0
266.170502 64.0
266.384857 76.0
266.48233 164.0
266.732574 112.0
266.992676 132.0
267.103241 92.0
267.282196 48.0
267.731415 204.0
267.881256 120.0
268.324463 108.0
268.565765 68.0
268.862671 132.0
269.061798 68.0
269.110748 128.0
269.162994 96.0
269.20871 124.0
269.963623 164.0
270.04538 80.0
270.08429 164.0
270.127136 196.0
270.257996 148.0
270.487091 212.0
270.735931 212.0
270.844025 44.0
271.368347 128.0
271.489685 116.0
271.752106 76.0
271.843964 116.0
271.949005 116.0
272.106567 140.0
272.507263 128.0
272.553253 128.0
272.641968 76.0
272.687988 292.0
272.868774 152.0
272.908234 164.0
273.368744 52.0
273.549774 172.0
273.579407 120.0
273.697937 164.0
273.842834 88.0
274.066833 112.0
274.106384 60.0
274.185486 104.0
274.792633 92.0
275.052917 256.0
275.107941 240.0
275.178375 124.0
275.287323 116.0
275.492126 48.0
275.677155 40.0
275.766388 132.0
275.954803 184.0
276.298767 120.0
276.4245 120.0
276.858154 152.0
276.997253 164.0
277.033722 156.0
277.109894 120.0
277.341888 172.0
277.378326 124.0
277.451263 200.0
277.703278 72.0
277.748566 312.0
278.41684 40.0
279.091431 164.0
279.274323 108.0
279.660278 60.0
279.840057 56.0
279.95993 152.0
279.993225 52.0
280.3797 136.0
280.606354 100.0
280.816437 240.0
280.883148 84.0
281.160095 180.0
281.260223 132.0
281.283569 160.0
281.38501 200.0
281.574066 40.0
281.707672 68.0
282.048523 120.0
282.165527 60.0
282.188934 52.0
282.257477 208.0
282.319336 204.0
282.556824 184.0
282.643799 196.0
282.777679 164.0
282.955078 132.0
283.142609 148.0
283.216278 136.0
283.300018 92.0
283.621735 76.0
283.680237 316.0
283.725647 100.0
283.821198 72.0
283.853058 140.0
283.957001 176.0
283.989929 128.0
284.08783 168.0
284.123505 108.0
284.164978 204.0
284.198547 184.0
284.257629 184.0
284.295868 92.0
284.399902 196.0
284.440186 60.0
284.492676 220.0
284.530975 172.0
284.578156 116.0
284.641632 212.0
284.688629 112.0
284.721466 160.0
284.727966 124.0
284.786041 156.0
284.815887 212.0
284.856049 188.0
284.917725 156.0
284.949585 76.0
284.95813 172.0
284.968018 208.0
284.993134 144.0
285.034607 260.0
285.059113 264.0
285.11377 114388.0
285.224152 112.0
285.273621 180.0
285.295044 84.0
285.328552 80.0
285.359772 268.0
285.389465 52.0
285.429657 92.0
285.455078 208.0
285.495544 160.0
285.547882 192.0
285.558777 48.0
285.613403 132.0
285.669006 304.0
285.719208 92.0
285.77243 176.0
285.797424 172.0
285.838287 44.0
285.870026 48.0
285.900604 80.0
285.935699 184.0
285.993256 52.0
286.061554 48.0
286.11673 22456.0
286.222198 76.0
286.259064 84.0
286.316193 76.0
286.390411 44.0
286.419708 128.0
286.454407 56.0
286.483765 112.0
286.518433 112.0
286.572235 136.0
286.612518 52.0
286.639709 60.0
286.675049 100.0
286.746155 96.0
286.832672 108.0
286.942352 168.0
287.010651 88.0
287.047607 92.0
287.071198 256.0
287.118195 2472.0
287.256561 48.0
287.341034 80.0
287.401794 96.0
287.529999 52.0
287.560394 72.0
287.611572 72.0
287.658264 88.0
287.688202 88.0
287.717743 124.0
287.748169 76.0
287.800079 148.0
287.826721 68.0
287.848206 220.0
287.873138 100.0
287.906799 332.0
287.956787 124.0
288.030396 80.0
288.078796 144.0
288.119293 356.0
288.1604 116.0
288.18811 140.0
288.229034 96.0
288.276825 156.0
288.331238 236.0
288.414917 28.0
288.492676 36.0
288.547943 116.0
288.608246 64.0
288.643677 132.0
288.803772 256.0
288.854492 104.0
288.884949 64.0
288.912018 136.0
289.110443 124.0
289.21994 52.0
289.294434 108.0
289.351959 52.0
289.638428 68.0
289.74823 68.0
290.039673 60.0
290.088928 60.0
290.15152 156.0
290.27359 88.0
290.344818 52.0
290.54834 32.0
290.836761 44.0
291.111755 96.0
291.167816 60.0
291.244232 36.0
291.268005 116.0
292.138214 40.0
292.451294 76.0
292.938202 88.0
293.289185 88.0
293.521027 108.0
293.544891 104.0
293.643799 84.0
295.18399 92.0
295.488403 48.0
295.7211 28.0
295.762177 72.0
296.738495 36.0
296.807068 68.0
297.379974 64.0
297.960327 48.0
298.118378 84.0
298.19397 132.0
298.231781 92.0
298.307404 112.0
298.403687 124.0
298.740692 40.0
298.785431 48.0
299.119904 104.0
299.157104 80.0
299.264832 68.0
299.339569 84.0
299.622009 28.0
299.684021 116.0
299.773621 112.0
299.904602 40.0
300.211426 76.0
300.316345 48.0
300.728943 72.0
302.035034 68.0
302.079987 100.0
302.921173 40.0
303.004333 132.0
303.066681 68.0
304.33963 48.0
304.801605 124.0
304.961487 124.0
305.163086 60.0
305.650055 168.0
306.457855 56.0
308.010315 76.0
308.083679 64.0
308.503021 72.0
309.678741 72.0
310.256927 164.0
310.804077 48.0
311.056763 124.0
311.123444 68.0
312.673584 136.0
313.557587 164.0
314.421631 92.0
314.742889 36.0
315.541382 112.0
315.73587 100.0
315.87735 76.0
316.284302 40.0
316.475464 48.0
317.850739 64.0
318.273163 80.0
318.585693 108.0
318.802429 88.0
318.980133 56.0
319.040588 76.0
319.154358 116.0
321.530396 68.0
322.487579 64.0
322.526886 124.0
322.712769 52.0
322.945221 36.0
323.274353 112.0
323.940308 172.0
324.001221 56.0
325.737518 64.0
327.831512 132.0
329.466003 120.0
329.603302 48.0
329.997284 56.0
330.138306 68.0
331.93808 60.0
334.896362 80.0
336.157776 92.0
337.560516 68.0
338.127563 92.0
338.288605 76.0
338.757324 48.0
338.808624 44.0
339.178741 196.0
341.388977 92.0
342.209534 84.0
344.134186 40.0
345.035675 176.0
345.708862 76.0
346.075317 84.0
346.423431 52.0
347.261169 40.0
349.586212 72.0
350.052155 28.0
351.039673 88.0
351.714935 92.0
353.924408 96.0
357.558228 116.0
359.246277 52.0
361.203033 52.0
361.793365 44.0
361.903168 88.0
362.744202 68.0
363.149933 148.0
363.916473 128.0
364.782684 60.0
366.731567 96.0
367.688873 112.0
368.166107 72.0
370.993713 52.0
374.055359 152.0
374.151611 176.0
375.862885 68.0
377.013641 72.0
377.903015 112.0
378.684998 80.0
379.146027 40.0
383.760162 68.0
384.509125 88.0
385.329163 36.0
385.845032 156.0
387.477051 64.0
388.010071 48.0
390.975708 48.0
391.617432 108.0
392.413452 60.0
392.634277 92.0
392.776276 72.0
392.890656 60.0
396.829803 56.0
397.25415 220.0
398.020142 128.0
398.115448 40.0
398.225555 116.0
402.843262 32.0
404.907196 76.0
406.02533 72.0
407.213318 56.0
408.676575 92.0
411.1185 68.0
412.390686 92.0
412.479614 128.0
413.227753 120.0
414.134552 56.0
414.284424 92.0
415.062592 68.0
415.33432 84.0
415.439789 160.0
416.304321 100.0
417.324219 56.0
417.490936 44.0
417.686157 104.0
418.654846 104.0
418.691498 84.0
419.465637 72.0
420.126251 124.0
420.171143 148.0
420.256805 180.0
420.309845 64.0
421.175354 116.0
422.577545 124.0
423.265198 56.0
423.62149 88.0
424.322296 132.0
425.167267 48.0
426.259644 84.0
428.300232 56.0
428.671021 208.0
430.308563 44.0
431.304138 60.0
431.543915 60.0
432.46228 116.0
433.613678 56.0
433.746307 128.0
434.52182 80.0
434.758331 72.0
435.721649 56.0
438.351288 68.0
440.913605 84.0
442.344055 52.0
442.528259 72.0
442.603638 40.0
443.085297 104.0
443.282227 124.0
443.495972 140.0
443.571411 124.0
444.959991 176.0
445.186737 64.0
445.787476 56.0
446.401215 156.0
447.314178 88.0
447.625763 140.0
448.923645 28.0
449.729462 72.0
449.970093 56.0
451.220642 68.0
452.134308 80.0
454.346161 40.0
455.670776 32.0
456.878174 40.0
457.212097 108.0
457.452667 76.0
458.006226 52.0
458.884094 64.0
459.831116 124.0
460.497162 60.0
461.420166 48.0
464.709442 84.0
465.366119 112.0
465.778412 228.0
466.324097 68.0
472.105499 48.0
472.295135 112.0
472.481781 112.0
473.511993 72.0
474.430634 96.0
474.517334 140.0
474.729797 120.0
474.825195 132.0
474.933624 76.0
475.128845 160.0
475.224731 5044.0
475.380493 56.0
475.567108 52.0
475.910065 88.0
475.962158 60.0
476.088104 60.0
476.22467 2236.0
476.366089 104.0
476.518127 56.0
476.596344 48.0
476.813629 52.0
476.845856 48.0
477.070068 124.0
477.225189 424.0
477.278748 60.0
477.309204 144.0
478.209717 68.0
478.253235 80.0
478.75827 44.0
479.071899 68.0
479.119812 52.0
479.248474 136.0
479.398651 152.0
479.860718 80.0
480.030762 68.0
481.016785 108.0
481.658661 52.0
482.008179 84.0
482.397156 20.0
482.620117 108.0
483.55191 64.0
484.712402 52.0
484.944672 80.0
487.077148 64.0
487.841736 124.0
490.67688 100.0
492.556824 112.0
493.838654 92.0
496.269836 48.0
502.37616 88.0
502.710785 116.0
503.746613 60.0
504.345398 104.0
505.288971 136.0
505.356079 140.0
505.620087 152.0
506.291626 104.0
507.891663 100.0
509.624512 32.0
510.671936 76.0
512.878174 88.0
514.190674 100.0
518.922302 104.0
520.251587 108.0
524.623413 128.0
525.412354 108.0
525.75 56.0
525.804749 100.0
527.892517 68.0
528.725098 68.0
532.094177 48.0
536.893433 68.0
542.92865 60.0
547.343262 32.0
548.19574 132.0
554.401672 60.0
556.329468 96.0
557.372131 56.0
558.302856 52.0
563.161987 80.0
564.069153 96.0
564.830505 68.0
566.657837 108.0
569.831848 64.0
570.154968 72.0
571.605408 68.0
573.24823 60.0
573.496094 28.0
575.972473 48.0
577.578552 96.0
578.607361 64.0
579.943909 48.0
585.396729 72.0
589.028442 100.0
589.424622 80.0
591.117065 100.0
592.632629 124.0
592.715027 56.0
593.927002 64.0
593.985229 84.0
602.616699 84.0
604.704773 100.0
606.218079 40.0
606.968079 32.0
610.223389 52.0
615.801697 36.0
616.873901 92.0
617.932251 88.0
619.709656 116.0
619.853394 76.0
620.8349 80.0
621.077881 80.0
622.09021 44.0
622.944336 72.0
623.95813 92.0
624.957825 48.0
632.628662 48.0
637.614441 72.0
638.428894 28.0
644.786133 80.0
647.310486 52.0
650.301575 88.0
663.052124 52.0
664.298096 68.0
669.473816 56.0
669.58197 84.0
669.824036 84.0
678.091187 68.0
678.386597 92.0
683.465942 104.0
686.758362 84.0
687.353088 56.0
689.891418 80.0
693.304077 96.0
700.338989 112.0
707.647644 60.0
709.894287 112.0
711.045532 80.0
714.366394 72.0
715.920532 52.0
725.581238 40.0
729.338928 76.0
750.659485 76.0
754.191711 96.0
754.22998 48.0
754.809509 116.0
757.036682 100.0
778.427734 96.0
779.327576 48.0
780.861816 40.0
781.55719 68.0
792.607422 96.0
800.246277 52.0
800.736206 40.0
802.201172 104.0
804.497131 52.0
810.254211 80.0
814.213501 108.0
818.939758 96.0
820.238892 76.0
822.218018 92.0
835.009705 92.0
856.379883 108.0
867.259277 104.0
875.596375 68.0
877.971375 44.0
892.152344 304.0
893.799805 116.0
902.657837 64.0
907.525879 64.0
908.947449 76.0
914.819336 72.0
922.075562 44.0
930.586426 76.0
935.863953 88.0
951.583435 72.0
953.985535 96.0
955.190796 92.0
957.326477 104.0
957.634399 84.0
958.342834 88.0
958.576965 64.0
959.717285 60.0
976.760559 240.0
981.942688 52.0
983.951965 112.0
994.66925 56.0
999.961548 144.0
1000.591003 40.0
1011.714783 52.0
1012.094666 76.0
1012.64563 188.0
1017.375916 84.0
1024.804199 96.0
1029.735229 76.0
1032.003784 152.0
1033.282959 96.0
1035.254395 144.0
1039.8125 176.0
1053.107788 84.0
1055.091553 132.0
1065.506226 172.0
1067.761719 68.0
1068.692017 132.0
1074.686279 48.0
1077.637451 192.0
1084.796997 44.0
1090.51416 80.0
1093.157959 60.0
1095.277954 164.0
1098.969604 224.0
1099.187378 84.0
1100.091553 124.0
1111.607788 64.0
1113.924927 112.0
1117.049194 68.0
1118.553101 108.0
1120.990601 52.0
1126.595215 76.0
1126.64856 44.0
1133.881836 56.0
1135.973755 44.0
1136.9198 112.0
1142.321777 52.0
1142.685059 164.0
1145.202637 80.0
1151.373779 52.0
1153.150635 136.0
1157.432739 244.0
1157.744263 148.0
1157.812012 216.0
1159.702271 64.0
1160.088623 204.0
1166.190918 128.0
1182.012573 112.0
1182.115234 160.0
1183.189819 88.0
1184.888306 184.0
1185.086914 44.0
1191.343872 196.0
1191.467529 184.0
1191.570557 128.0
1198.726318 76.0
1198.871094 80.0
1200.360107 64.0
1200.663452 204.0
1202.160522 128.0
1209.500244 220.0
1214.863647 152.0
1221.177612 220.0
1222.882324 180.0
1224.594971 180.0
1226.27417 72.0
1232.703857 132.0
1239.713379 40.0
1241.157349 112.0
1241.725342 208.0
1242.195312 60.0
1243.142456 108.0
1257.047485 56.0
1257.774414 160.0
1262.196899 212.0
1262.493896 132.0
1264.043213 52.0
1267.58374 68.0
1269.036743 144.0
1270.760254 76.0
1271.88147 116.0
1272.946411 144.0
1274.459351 216.0
1276.094116 208.0
1276.307373 204.0
1281.025879 168.0
1285.960083 144.0
1287.530762 92.0
1288.237915 100.0
1288.366455 136.0
1297.670288 120.0
1304.547852 232.0
1305.439453 112.0
1307.568848 80.0
1309.505493 296.0
1315.555176 208.0
1315.670654 136.0
1316.789917 148.0
1317.143799 196.0
1317.859009 192.0
1318.740601 140.0
1320.041992 128.0
1320.258911 96.0
1320.63501 220.0
1323.421021 136.0
1323.80481 148.0
1324.934692 48.0
1331.411987 88.0
1332.254639 68.0
1332.748657 44.0
1333.882324 164.0
1335.598389 144.0
1336.882812 172.0
1337.031616 176.0
1340.126465 104.0
1342.45166 96.0
1343.027832 96.0
1343.407104 192.0
1344.297241 128.0
1346.786743 144.0
1347.415039 52.0
1350.068237 208.0
1350.141357 56.0
1350.229126 168.0
1351.011841 196.0
1352.285034 124.0
1354.957764 140.0
1360.619507 40.0
1362.389282 200.0
1362.683228 128.0
1365.542725 240.0
1366.057617 60.0
1367.161255 140.0
1370.518188 144.0
1372.162598 144.0
1372.848389 60.0
1375.570801 92.0
1375.644653 172.0
1375.82251 120.0
1380.979492 152.0
1382.814453 52.0
1383.584229 72.0
1383.754517 188.0
1384.346802 48.0
1384.665283 220.0
1385.85791 204.0
1386.146851 104.0
1386.761963 72.0
1387.28833 80.0
1388.526489 96.0
1390.091797 36.0
1390.232788 184.0
1392.311401 112.0
1394.956543 156.0
1395.581055 176.0
1397.180054 60.0
1398.85437 180.0
1400.768188 128.0
1401.818726 108.0
1403.227417 164.0
1403.659912 252.0
1406.845703 200.0
1408.854492 44.0
1415.106689 176.0
1415.608398 136.0
1417.188843 212.0
1417.428711 212.0
1417.938232 148.0
1418.215576 228.0
1422.468506 168.0
1422.528564 100.0
1423.024048 104.0
1423.677368 208.0
1424.082886 64.0
1424.811523 92.0
1425.487671 112.0
1426.389648 80.0
1426.509888 44.0
1427.07373 68.0
1427.968628 120.0
1428.92395 44.0
1429.58606 116.0
1432.15332 200.0
1432.816162 88.0
1432.981934 188.0
1435.001831 108.0
1435.348633 132.0
1435.89917 100.0
1436.947632 156.0
1437.226807 96.0
1437.966309 84.0
1441.455322 56.0
1441.689575 212.0
1441.976685 184.0
1444.630737 112.0
1447.196289 208.0
1448.112549 120.0
1449.173096 68.0
1449.786865 196.0
1453.624023 120.0
1454.283447 164.0
1454.792847 164.0
1456.349365 136.0
1456.896362 168.0
1460.218018 176.0
1460.560303 172.0
1461.769897 180.0
1461.899292 148.0
1462.485352 108.0
1462.909058 180.0
1463.360718 136.0
1464.15271 156.0
1464.655273 112.0
1465.089478 196.0
1465.691406 216.0
1466.087646 108.0
1468.405273 164.0
1469.831787 144.0
1472.863159 220.0
1474.597046 112.0
1478.964233 212.0
1479.15564 172.0
1480.556763 140.0
1481.138794 120.0
1482.709473 80.0
1482.855103 124.0
1485.768921 112.0
1486.80481 156.0
1488.700928 60.0
1488.900635 80.0
1489.714722 136.0
1489.783936 164.0
1491.405273 212.0
1493.95813 208.0
1494.081299 144.0
1494.481323 160.0
1495.420166 104.0
1495.789551 56.0
1495.966675 40.0
1497.922607 152.0
1498.06897 224.0
1498.176758 172.0
1500.157227 176.0
1501.537476 76.0
1501.869141 152.0
1501.923096 152.0
1502.787109 192.0
1503.4198 164.0
