>compound MLS002154046-01!50-55-5
>formula C33H40N2O9
>ionization [M+H]+
>parentmass 609.280334
#inchi InChI=1S/C33H40N2O9/c1-38-19-7-8-20-21-9-10-35-16-18-13-27(44-32(36)17-11-25(39-2)30(41-4)26(12-17)40-3)31(42-5)28(33(37)43-6)22(18)15-24(35)29(21)34-23(20)14-19/h7-8,11-12,14,18,22,24,27-28,31,34H,9-10,13,15-16H2,1-6H3/t18-,22+,24-,27-,28+,31+/m1/s1
#inchikey QEVHRUUCFGRFIF
#Ion_Source LC-ESI
#Instrument qTof
#Compound_Source NIH Pharmacologically Active Library
#PI Dorrestein
#Data_Collector VP/LMS
#Scan -1
#Precursor_MZ 609.287
#ExactMass 608.273
#Charge 1
#CAS_Number N/A
#Pubmed_ID N/A
#Smiles CO[C@H]1[C@@H](C[C@@H]2CN3CCc4c([nH]c5cc(OC)ccc45)[C@H]3C[C@@H]2[C@@H]1C(=O)OC)OC(=O)c6cc(OC)c(OC)c(OC)c6
#INCHI_AUX N/A
#Library_Class 1
#SpectrumID CCMSLIB00000084857
#IonMode Positive
#UpdateWorkflowName UPDATE-SINGLE-ANNOTATED-GOLD
#LibraryQualityString Gold
#TaskID d252d724072548979f1f6f1ced849daf
##Scan# 1903
#SpectrumFile p3-B08_GB8_01_18241.mzXML
#LibraryName Pharm_Active_Library.mgf
#MQScore -1
#Organism Pharm_Active_Library
#TIC_Query 0
#RT_Query -1
#MZErrorPPM -1
#SharedPeaks 0
#MassDiff 0
#LibMZ -1
#SpecMZ 609.287
#SpecCharge 0
#internalFilename spec-00000.mgf

>collision 10
44.885105 208.0
44.89777 228.0
44.908138 64.0
44.934448 144.0
44.942886 188.0
44.958836 132.0
45.000217 100.0
45.014904 108.0
45.040279 172.0
45.067001 56.0
45.091667 132.0
45.108429 192.0
45.173958 104.0
45.207809 132.0
45.223648 148.0
45.239529 140.0
45.33865 112.0
45.370819 184.0
45.386906 144.0
45.407024 188.0
45.458004 124.0
45.491558 148.0
45.513039 120.0
45.529152 204.0
45.564079 152.0
45.599014 204.0
45.617832 212.0
45.653259 184.0
45.683151 196.0
45.702564 132.0
45.714676 128.0
45.728134 212.0
45.738029 176.0
45.751019 168.0
45.771214 144.0
45.810272 144.0
45.839912 152.0
45.868755 260.0
45.958351 168.0
46.046322 180.0
46.06118 116.0
46.070637 32.0
46.101715 168.0
46.126041 180.0
46.140865 220.0
46.150791 144.0
46.165607 212.0
46.262672 160.0
46.280731 188.0
46.310066 124.0
46.339867 180.0
46.37664 180.0
46.392147 160.0
46.408279 152.0
46.446968 60.0
46.470028 184.0
46.513458 160.0
46.531105 228.0
46.541969 188.0
46.581352 184.0
46.608524 200.0
46.619396 148.0
46.677853 128.0
46.73362 160.0
46.744507 124.0
46.764919 136.0
46.786701 196.0
46.808487 44.0
46.823795 256.0
46.852383 192.0
46.899765 84.0
46.912033 160.0
46.929756 64.0
46.974766 156.0
47.002052 164.0
47.019451 120.0
47.03426 100.0
47.038902 60.0
47.043762 100.0
47.079685 92.0
47.092152 196.0
47.105812 120.0
47.155003 152.0
47.205006 132.0
47.243885 120.0
47.264408 56.0
47.276722 164.0
47.323265 168.0
47.35202 100.0
47.364349 160.0
47.382156 132.0
47.415047 160.0
47.507446 196.0
47.528866 204.0
47.543274 184.0
47.547184 92.0
47.552982 216.0
47.60429 148.0
47.615353 160.0
47.638702 168.0
47.707417 172.0
47.743164 224.0
47.754169 172.0
47.840858 148.0
47.85738 208.0
47.908337 148.0
47.948299 220.0
47.989655 44.0
48.014473 124.0
48.040684 112.0
48.330822 184.0
48.352962 144.0
48.387569 176.0
48.425407 148.0
48.439362 212.0
48.553967 196.0
48.601017 160.0
48.634323 180.0
48.669033 180.0
48.683842 168.0
48.712852 188.0
48.727367 156.0
48.750988 180.0
48.766277 112.0
48.805202 68.0
48.828842 52.0
48.852489 204.0
48.919285 120.0
48.933208 128.0
48.958271 148.0
48.969414 172.0
48.98613 180.0
49.037685 60.0
49.079506 176.0
49.115768 192.0
49.133904 160.0
49.143147 96.0
49.326622 116.0
49.336407 200.0
49.34832 156.0
49.397938 80.0
49.416126 148.0
49.441315 108.0
49.490307 160.0
49.504311 128.0
49.54213 180.0
49.570152 160.0
49.586967 56.0
49.613602 144.0
49.662682 224.0
49.735645 156.0
49.766529 128.0
49.783379 44.0
49.807255 156.0
49.828327 108.0
49.877514 188.0
49.904224 144.0
49.950634 148.0
50.022705 148.0
50.047745 104.0
50.060822 208.0
50.077316 60.0
50.13649 148.0
50.150883 164.0
50.163269 268.0
50.181599 204.0
50.223904 124.0
50.240833 172.0
50.263252 184.0
50.311394 224.0
50.370708 116.0
50.384834 188.0
50.396702 140.0
50.413094 36.0
50.435707 156.0
50.534698 164.0
50.613964 160.0
50.635208 192.0
50.711716 156.0
50.723057 152.0
50.83794 144.0
50.857807 136.0
50.879101 232.0
50.923321 144.0
50.961479 232.0
50.991322 68.0
51.073788 100.0
51.103748 132.0
51.162201 244.0
51.190491 192.0
51.250317 208.0
51.298775 276.0
51.311604 176.0
51.332893 56.0
51.383167 136.0
51.414307 148.0
51.424297 76.0
51.465698 112.0
51.494259 100.0
51.565697 124.0
51.575703 224.0
51.601433 144.0
51.635754 212.0
51.662933 88.0
51.680099 76.0
51.694408 96.0
51.741486 144.0
51.860542 168.0
51.870575 160.0
51.923626 140.0
51.975269 120.0
52.057175 140.0
52.133232 148.0
52.238632 108.0
52.255455 156.0
52.268406 132.0
52.311256 212.0
52.347706 132.0
52.377823 276.0
52.418449 180.0
52.429691 176.0
52.492973 140.0
52.520523 148.0
52.537834 96.0
52.571022 188.0
52.588341 200.0
52.599888 224.0
52.612881 196.0
52.628761 128.0
52.670643 40.0
52.69231 152.0
52.711094 124.0
52.73711 228.0
52.783371 180.0
52.822422 148.0
52.874508 188.0
52.897667 96.0
52.928074 208.0
52.949795 160.0
53.003395 148.0
53.042625 240.0
53.064785 136.0
53.126633 104.0
53.149849 80.0
53.161293 356.0
53.186131 240.0
53.212261 164.0
53.223286 152.0
53.240345 164.0
53.255825 60.0
53.288429 108.0
53.305222 128.0
53.329929 168.0
53.399719 144.0
53.448734 208.0
53.517391 144.0
53.536522 148.0
53.571751 108.0
53.673504 284.0
53.691002 132.0
53.747894 180.0
53.777081 100.0
53.807735 180.0
53.817959 44.0
53.859928 148.0
53.873455 132.0
53.889526 180.0
53.905014 192.0
53.945061 152.0
53.987465 92.0
54.034271 144.0
54.066463 160.0
54.097202 248.0
54.108913 120.0
54.123962 216.0
54.166027 224.0
54.193863 92.0
54.205585 56.0
54.24292 160.0
54.30381 80.0
54.349285 104.0
54.365429 212.0
54.431835 232.0
54.493176 148.0
54.575485 264.0
54.594635 188.0
54.626995 176.0
54.66 176.0
54.681881 172.0
54.719677 92.0
54.740292 144.0
54.7668 172.0
54.777111 184.0
54.802158 136.0
54.837524 176.0
54.874378 124.0
54.897972 168.0
54.919281 196.0
54.940746 80.0
54.971729 192.0
55.01487 176.0
55.064739 148.0
55.095757 160.0
55.113487 112.0
55.14452 216.0
55.156345 192.0
55.175564 200.0
55.200699 164.0
55.215488 40.0
55.236195 56.0
55.289459 108.0
55.347195 172.0
55.362003 72.0
55.399029 196.0
55.419773 144.0
55.466774 196.0
55.486469 176.0
55.520573 76.0
55.53392 196.0
55.569523 128.0
55.581394 120.0
55.634827 124.0
55.67046 208.0
55.698681 136.0
55.778118 216.0
55.795273 180.0
55.854759 132.0
55.969303 116.0
56.002117 104.0
56.02446 192.0
56.076614 160.0
56.090027 212.0
56.139229 160.0
56.182224 184.0
56.20039 136.0
56.213818 128.0
56.245159 176.0
56.280991 116.0
56.353981 180.0
56.396023 160.0
56.45134 204.0
56.463303 180.0
56.480598 156.0
56.528973 156.0
56.572533 176.0
56.617451 156.0
56.641415 112.0
56.74332 152.0
56.77066 168.0
56.795006 224.0
56.848141 224.0
56.95845 136.0
57.012009 156.0
57.02253 164.0
57.042068 164.0
57.052593 248.0
57.105221 116.0
57.133572 156.0
57.18346 124.0
57.198509 80.0
57.268318 232.0
57.28133 140.0
57.29258 128.0
57.309956 104.0
57.358181 128.0
57.368732 120.0
57.381222 296.0
57.424526 64.0
57.445641 144.0
57.471291 112.0
57.506001 332.0
57.566387 212.0
57.579979 180.0
57.592064 176.0
57.625298 400.0
57.640408 52.0
57.655956 208.0
57.692448 164.0
57.782536 248.0
57.902119 140.0
57.918781 144.0
57.930901 212.0
57.950596 192.0
58.012733 248.0
58.065804 128.0
58.077934 212.0
58.134026 136.0
58.170498 220.0
58.211926 196.0
58.243385 96.0
58.357365 140.0
58.377132 204.0
58.413708 160.0
58.444061 112.0
58.466888 164.0
58.600887 212.0
58.665134 180.0
58.696915 204.0
58.713692 128.0
58.73085 144.0
58.753349 104.0
58.811337 108.0
58.867825 204.0
58.894733 168.0
58.933506 140.0
59.0084 108.0
59.026749 208.0
59.049686 172.0
59.08181 184.0
59.193542 156.0
59.224171 180.0
59.291023 196.0
59.308445 124.0
59.323776 164.0
59.355972 136.0
59.369774 52.0
59.380508 224.0
59.401981 200.0
59.474102 52.0
59.489143 224.0
59.527988 164.0
59.552883 156.0
59.575451 160.0
59.608475 140.0
59.633842 264.0
59.758373 204.0
59.815342 64.0
59.907738 120.0
59.940811 224.0
59.952091 168.0
60.024876 144.0
60.060146 184.0
60.095829 152.0
60.128235 260.0
60.145214 168.0
60.165279 176.0
60.186012 168.0
60.240261 144.0
60.261036 144.0
60.352226 156.0
60.384701 148.0
60.401718 200.0
60.439777 252.0
60.472893 140.0
60.491467 128.0
60.52243 144.0
60.592247 156.0
60.660316 124.0
60.695976 176.0
60.717686 208.0
60.762669 116.0
60.784393 144.0
60.82164 192.0
60.877758 164.0
60.925682 128.0
60.946754 220.0
61.186958 68.0
61.302219 152.0
61.344303 240.0
61.403553 336.0
61.416031 112.0
61.427776 208.0
61.494045 52.0
61.511215 144.0
61.529949 44.0
61.603348 152.0
61.656471 156.0
61.667412 148.0
61.686409 184.0
61.7813 168.0
61.811291 196.0
61.853546 148.0
61.868629 220.0
61.900517 104.0
61.960033 40.0
61.983536 204.0
62.016449 172.0
62.049984 224.0
62.063477 72.0
62.074455 188.0
62.090137 188.0
62.154453 152.0
62.169384 144.0
62.19212 128.0
62.258923 224.0
62.300468 64.0
62.322464 152.0
62.35463 132.0
62.457664 44.0
62.508011 92.0
62.554108 180.0
62.578842 264.0
62.633961 104.0
62.665466 172.0
62.685951 80.0
62.709591 176.0
62.728504 216.0
62.760036 180.0
62.777382 180.0
62.796848 408.0
62.834167 132.0
62.873615 188.0
62.950134 148.0
62.988995 160.0
63.02047 140.0
63.034691 200.0
63.054367 204.0
63.078945 160.0
63.127956 128.0
63.189648 204.0
63.214962 172.0
63.230789 192.0
63.279861 128.0
63.427193 304.0
63.446213 272.0
63.481983 136.0
63.509644 160.0
63.520748 220.0
63.582626 236.0
63.609612 184.0
63.705521 188.0
63.743019 140.0
63.784344 152.0
63.818031 188.0
63.879753 168.0
63.914753 88.0
63.984787 144.0
64.021408 176.0
64.061455 140.0
64.118591 176.0
64.136124 152.0
64.15844 44.0
64.212654 96.0
64.227005 64.0
64.268982 128.0
64.298805 164.0
64.31356 132.0
64.356216 116.0
64.405777 140.0
64.428146 192.0
64.466492 88.0
64.482475 156.0
64.556015 168.0
64.56881 140.0
64.635567 164.0
64.71537 184.0
64.772079 196.0
64.799316 108.0
64.823349 212.0
64.834564 196.0
64.873032 140.0
64.990112 160.0
65.006157 64.0
65.051315 356.0
65.118538 140.0
65.132996 52.0
65.174438 156.0
65.222977 196.0
65.237442 76.0
65.288895 56.0
65.32106 116.0
65.34198 196.0
65.387032 176.0
65.419228 156.0
65.488464 164.0
65.50135 148.0
65.553841 360.0
65.567055 164.0
65.588364 188.0
65.615768 228.0
65.64299 172.0
65.662529 188.0
65.67382 176.0
65.699631 220.0
65.717377 180.0
65.794846 100.0
65.820679 124.0
65.861053 212.0
65.881294 204.0
65.896599 176.0
65.916687 184.0
65.945076 136.0
65.96447 120.0
65.977402 184.0
66.003128 176.0
66.032379 116.0
66.101944 140.0
66.161835 208.0
66.197456 160.0
66.24604 148.0
66.326363 196.0
66.354622 204.0
66.460052 120.0
66.537956 192.0
66.58992 148.0
66.643089 180.0
66.708534 168.0
66.77195 192.0
66.816002 140.0
66.832138 124.0
66.843529 56.0
66.895607 128.0
66.94445 100.0
67.022644 56.0
67.099251 44.0
67.118813 144.0
67.131859 136.0
67.166107 156.0
67.242798 232.0
67.296745 164.0
67.313515 212.0
67.334221 148.0
67.42408 64.0
67.445328 216.0
67.468208 140.0
67.486198 96.0
67.497643 84.0
67.531982 136.0
67.545067 100.0
67.579399 132.0
67.613388 156.0
67.650055 256.0
67.691254 164.0
67.721848 104.0
67.740929 136.0
67.805405 160.0
67.839828 168.0
67.861137 148.0
67.87426 160.0
67.908699 192.0
67.930023 128.0
67.944786 192.0
67.969398 112.0
67.990318 176.0
68.044899 152.0
68.064171 92.0
68.090874 88.0
68.109848 152.0
68.139397 216.0
68.202599 184.0
68.230034 232.0
68.276657 196.0
68.320999 160.0
68.342384 156.0
68.439499 172.0
68.485207 212.0
68.533386 84.0
68.566086 156.0
68.655365 216.0
68.67186 124.0
68.734291 156.0
68.754349 124.0
68.789009 144.0
68.812126 196.0
68.896355 88.0
68.917831 152.0
68.959145 204.0
68.978981 160.0
69.071579 192.0
69.101357 192.0
69.121208 136.0
69.158424 148.0
69.205627 172.0
69.222191 144.0
69.243713 160.0
69.282394 148.0
69.367989 128.0
69.423454 168.0
69.475777 92.0
69.490707 152.0
69.575348 48.0
69.593613 172.0
69.635132 176.0
69.658386 132.0
69.706566 108.0
69.734261 168.0
69.751549 180.0
69.804642 188.0
69.849548 80.0
69.906372 180.0
69.961983 176.0
69.977692 160.0
70.04763 184.0
70.060959 148.0
70.084282 96.0
70.257683 68.0
70.269356 156.0
70.296051 180.0
70.35614 160.0
70.379517 204.0
70.392876 184.0
70.406235 164.0
70.424858 160.0
70.444649 140.0
70.46804 224.0
70.494774 204.0
70.533211 196.0
70.595078 204.0
70.638557 140.0
70.653618 140.0
70.682343 164.0
70.7239 160.0
70.73896 168.0
70.752357 148.0
70.84111 168.0
70.874619 124.0
70.918823 220.0
70.954811 144.0
71.000343 176.0
71.071518 172.0
71.206772 124.0
71.240372 144.0
71.259811 156.0
71.279015 392.0
71.32103 136.0
71.345978 156.0
71.379868 156.0
71.421913 204.0
71.489212 180.0
71.500992 212.0
71.559174 128.0
71.612816 184.0
71.631676 176.0
71.748604 152.0
71.760406 96.0
71.795815 152.0
71.819427 108.0
71.837982 184.0
71.973 76.0
72.000015 308.0
72.020287 208.0
72.070969 140.0
72.135185 140.0
72.177452 136.0
72.275558 116.0
72.297562 156.0
72.314484 144.0
72.422844 188.0
72.4347 136.0
72.463501 64.0
72.526207 40.0
72.560104 60.0
72.64151 96.0
72.704285 156.0
72.716164 192.0
72.787468 80.0
72.828224 280.0
72.850311 200.0
72.891083 168.0
72.904678 76.0
73.04599 176.0
73.08123 160.0
73.118965 168.0
73.268089 124.0
73.318222 136.0
73.34095 204.0
73.43499 172.0
73.45462 152.0
73.586029 48.0
73.608223 156.0
73.657753 28.0
73.721725 136.0
73.736351 144.0
73.770538 224.0
73.79789 80.0
73.811569 152.0
73.830376 48.0
73.850899 160.0
73.898941 192.0
73.938156 212.0
73.977524 144.0
74.003204 152.0
74.046021 100.0
74.066574 188.0
74.189774 180.0
74.203667 200.0
74.239677 148.0
74.265396 192.0
74.282555 164.0
74.32373 168.0
74.347755 132.0
74.364914 176.0
74.395813 124.0
74.422264 148.0
74.433777 212.0
74.485107 112.0
74.504623 156.0
74.553833 212.0
74.607086 204.0
74.660263 132.0
74.681053 148.0
74.765358 164.0
74.882431 148.0
74.942726 208.0
75.032349 92.0
75.066833 220.0
75.07988 184.0
75.189316 180.0
75.21003 184.0
75.239372 112.0
75.253181 320.0
75.273903 36.0
75.311897 44.0
75.401741 208.0
75.420753 152.0
75.434128 212.0
75.457054 140.0
75.482994 156.0
75.503586 176.0
75.550446 140.0
75.59935 196.0
75.614471 136.0
75.628311 152.0
75.65947 132.0
75.676376 84.0
75.69635 284.0
75.728737 124.0
75.772041 160.0
75.827492 96.0
75.869095 196.0
75.888168 144.0
75.915909 180.0
75.945396 164.0
75.967941 176.0
75.993965 140.0
76.014786 252.0
76.0495 168.0
76.089424 148.0
76.120674 136.0
76.148399 228.0
76.193626 96.0
76.250969 88.0
76.268349 80.0
76.303116 184.0
76.317024 172.0
76.343109 188.0
76.381371 132.0
76.428345 208.0
76.529716 168.0
76.564125 60.0
76.598961 160.0
76.614639 48.0
76.628578 144.0
76.672142 156.0
76.785461 48.0
76.86396 144.0
76.881706 188.0
76.921555 108.0
76.954292 192.0
77.002213 164.0
77.026329 136.0
77.070007 164.0
77.090553 164.0
77.106697 204.0
77.156227 172.0
77.169632 192.0
77.185364 164.0
77.223839 128.0
77.26757 168.0
77.295677 192.0
77.32357 56.0
77.344574 96.0
77.370827 188.0
77.388336 224.0
77.439117 164.0
77.460762 124.0
77.479408 176.0
77.523216 184.0
77.553009 128.0
77.567032 168.0
77.609108 156.0
77.667374 232.0
77.702065 128.0
77.721916 164.0
77.77401 224.0
77.812477 188.0
77.872337 56.0
77.960175 80.0
78.033264 152.0
78.04631 112.0
78.069786 184.0
78.092033 176.0
78.107864 108.0
78.121933 148.0
78.172798 344.0
78.200783 148.0
78.245125 236.0
78.280342 124.0
78.306755 116.0
78.333176 152.0
78.350021 132.0
78.410706 156.0
78.42363 208.0
78.444191 184.0
78.486504 156.0
78.505798 204.0
78.544708 152.0
78.574692 152.0
78.597633 148.0
78.701775 128.0
78.761253 176.0
78.834251 60.0
78.897026 164.0
78.921448 208.0
78.949165 156.0
78.970383 176.0
78.993378 164.0
79.00753 192.0
79.072998 92.0
79.104858 72.0
79.120796 172.0
79.147354 116.0
79.170372 180.0
79.225281 168.0
79.252007 144.0
79.299736 200.0
79.35466 152.0
79.367065 140.0
79.390121 140.0
79.432686 144.0
79.542702 72.0
79.562233 92.0
79.583534 100.0
79.619049 156.0
79.661682 236.0
79.686569 332.0
79.704323 172.0
79.729195 288.0
79.748749 148.0
79.788422 68.0
79.818077 176.0
79.880325 88.0
79.920151 236.0
79.990654 168.0
80.019142 144.0
80.076118 148.0
80.142036 284.0
80.168762 176.0
80.188362 204.0
80.202621 96.0
80.231148 48.0
80.256104 180.0
80.389893 160.0
80.471199 296.0
80.554146 208.0
80.56665 124.0
80.580948 184.0
80.688179 152.0
80.851982 200.0
80.870636 120.0
80.936874 148.0
81.021057 144.0
81.062393 112.0
81.108864 176.0
81.137543 36.0
81.198509 172.0
81.225624 172.0
81.286415 144.0
81.309746 60.0
81.32769 80.0
81.374367 228.0
81.437401 120.0
81.496498 200.0
81.558777 244.0
81.581451 236.0
81.640305 136.0
81.652893 188.0
81.703255 256.0
81.74913 156.0
81.777039 148.0
81.818436 160.0
81.836441 128.0
82.010605 176.0
82.077888 132.0
82.146416 168.0
82.178894 200.0
82.234833 208.0
82.260101 168.0
82.279961 140.0
82.317879 116.0
82.368446 116.0
82.388321 188.0
82.462402 108.0
82.513641 216.0
82.536522 92.0
82.617912 84.0
82.632385 44.0
82.670387 108.0
82.757271 156.0
82.773788 196.0
82.804482 172.0
82.83152 140.0
82.889496 164.0
82.976494 160.0
83.030899 160.0
83.046906 164.0
83.139748 168.0
83.192383 120.0
83.248672 100.0
83.269325 200.0
83.293518 196.0
83.346657 208.0
83.390373 100.0
83.451881 152.0
83.495827 284.0
83.544937 204.0
83.559486 132.0
83.577682 184.0
83.60498 148.0
83.626816 160.0
83.675964 208.0
83.725128 88.0
83.741524 148.0
83.777954 196.0
83.811577 148.0
83.839905 176.0
83.876358 156.0
83.904739 204.0
84.000351 176.0
84.029541 80.0
84.056908 188.0
84.118011 192.0
84.210495 184.0
84.259583 164.0
84.350952 148.0
84.409454 80.0
84.426247 132.0
84.44603 172.0
84.459702 160.0
84.485291 208.0
84.50457 168.0
84.528358 144.0
84.55764 116.0
84.63269 108.0
84.696785 52.0
84.720604 228.0
84.735535 160.0
84.763885 128.0
84.770164 80.0
84.776291 132.0
84.856216 92.0
84.925903 116.0
84.968094 124.0
85.028648 164.0
85.072701 176.0
85.113922 168.0
85.136963 168.0
85.157166 100.0
85.173698 228.0
85.291298 172.0
85.357483 116.0
85.397942 256.0
85.431046 192.0
85.454964 204.0
85.543304 108.0
85.635368 272.0
85.668526 236.0
85.795631 152.0
85.871735 164.0
85.92662 260.0
85.941383 164.0
85.960236 184.0
85.996742 180.0
86.022583 76.0
86.044739 236.0
86.120445 100.0
86.135223 100.0
86.228867 176.0
86.24794 84.0
86.270119 168.0
86.310799 220.0
86.36998 64.0
86.449532 172.0
86.623573 132.0
86.697685 68.0
86.753723 152.0
86.862694 144.0
86.896385 176.0
86.920212 44.0
86.938766 108.0
86.970314 156.0
87.011154 132.0
87.048019 188.0
87.076256 216.0
87.087708 196.0
87.177719 160.0
87.223618 196.0
87.240234 168.0
87.305588 184.0
87.498253 164.0
87.542938 168.0
87.62117 80.0
87.643524 180.0
87.703163 180.0
87.734848 312.0
87.751633 192.0
87.764679 156.0
87.794319 152.0
87.829956 104.0
87.858833 100.0
87.926971 176.0
87.953102 204.0
87.96804 132.0
88.020309 196.0
88.053925 156.0
88.102493 88.0
88.129799 140.0
88.150879 232.0
88.283798 168.0
88.362358 128.0
88.392387 328.0
88.418495 116.0
88.510223 92.0
88.547676 132.0
88.570152 180.0
88.600121 72.0
88.673203 124.0
88.695694 220.0
88.725685 188.0
88.791313 196.0
88.862511 176.0
88.96769 168.0
88.992096 116.0
89.033409 160.0
89.145012 216.0
89.17244 168.0
89.217552 148.0
89.24575 144.0
89.275833 196.0
89.291267 176.0
89.334145 224.0
89.401314 200.0
89.43367 184.0
89.463989 124.0
89.486794 144.0
89.516708 148.0
89.546188 92.0
89.59726 188.0
89.603928 144.0
89.663651 212.0
89.699463 32.0
89.7202 156.0
89.742821 212.0
89.816368 184.0
89.83712 48.0
89.872963 120.0
89.928192 180.0
89.95034 168.0
89.981628 232.0
90.006851 140.0
90.025864 120.0
90.048531 156.0
90.113495 204.0
90.165901 156.0
90.246948 116.0
90.269638 112.0
90.309349 212.0
90.343506 148.0
90.367996 144.0
90.413368 176.0
90.423172 204.0
90.528389 168.0
90.549721 176.0
90.585709 72.0
90.61602 136.0
90.655479 252.0
90.693718 156.0
90.718361 216.0
90.837822 120.0
90.851105 132.0
90.900436 128.0
90.951408 144.0
90.968758 68.0
91.004829 152.0
91.054207 544.0
91.067497 136.0
91.099792 144.0
91.135887 116.0
91.2005 132.0
91.229012 180.0
91.35128 256.0
91.36525 244.0
91.429138 148.0
91.453468 136.0
91.483925 116.0
91.617233 76.0
91.688812 240.0
91.716316 128.0
91.752541 64.0
91.783043 176.0
91.826904 212.0
91.844353 188.0
91.882179 172.0
92.000542 180.0
92.055206 216.0
92.143776 188.0
92.237419 168.0
92.279472 204.0
92.310066 200.0
92.470764 224.0
92.563583 120.0
92.588974 172.0
92.664169 68.0
92.702492 184.0
92.737259 144.0
92.763824 112.0
92.843307 176.0
92.869286 184.0
92.886551 60.0
92.911484 124.0
92.984406 160.0
93.007439 180.0
93.067474 452.0
93.159134 148.0
93.189873 124.0
93.210312 176.0
93.274429 64.0
93.320572 80.0
93.357101 156.0
93.370567 172.0
93.478294 116.0
93.562981 176.0
93.612099 196.0
93.666969 168.0
93.702774 164.0
93.720406 168.0
93.782578 136.0
93.825798 124.0
93.833298 52.0
93.837769 140.0
93.890549 108.0
93.917549 112.0
93.931488 212.0
93.958061 172.0
93.973495 64.0
94.000504 176.0
94.028839 348.0
94.065826 984.0
94.129837 44.0
94.156876 140.0
94.230278 200.0
94.268921 228.0
94.305641 172.0
94.382973 132.0
94.41584 120.0
94.43325 136.0
94.448723 164.0
94.464195 120.0
94.504822 212.0
94.571884 184.0
94.677101 108.0
94.706429 168.0
94.742958 156.0
94.789459 64.0
94.83403 52.0
94.874741 136.0
95.01825 116.0
95.043045 200.0
95.080345 92.0
95.099754 88.0
95.117226 180.0
95.149391 112.0
95.212357 136.0
95.293945 148.0
95.307549 72.0
95.423042 180.0
95.517509 148.0
95.544746 320.0
95.571983 136.0
95.680969 108.0
95.70549 156.0
95.752068 164.0
95.783752 144.0
95.866013 212.0
95.93618 184.0
95.955673 348.0
95.984924 68.0
95.998573 156.0
96.042015 248.0
96.055984 512.0
96.080078 188.0
96.135124 192.0
96.15464 88.0
96.172203 124.0
96.195625 128.0
96.226868 152.0
96.314743 148.0
96.347954 180.0
96.396797 160.0
96.463249 144.0
96.48558 228.0
96.497063 144.0
96.539551 164.0
96.58448 208.0
96.639259 160.0
96.670944 164.0
96.701881 160.0
96.721451 52.0
96.756691 172.0
96.780182 128.0
96.863777 216.0
96.91349 128.0
96.94651 364.0
96.987839 96.0
97.06263 388.0
97.109406 160.0
97.146675 116.0
97.16433 64.0
97.225159 136.0
97.286003 172.0
97.301704 180.0
97.322426 232.0
97.386551 176.0
97.42543 152.0
97.474548 208.0
97.504028 136.0
97.522903 164.0
97.592484 212.0
97.610687 264.0
97.674858 176.0
97.690819 200.0
97.755753 216.0
97.962479 48.0
97.992035 156.0
98.049179 28.0
98.08268 164.0
98.100426 120.0
98.171402 80.0
98.195068 192.0
98.212822 120.0
98.255234 240.0
98.286568 240.0
98.313438 96.0
98.499031 156.0
98.558296 176.0
98.591888 192.0
98.625488 164.0
98.648491 260.0
98.731789 120.0
98.827202 148.0
98.890526 132.0
98.936058 180.0
99.005356 40.0
99.031105 228.0
99.05751 216.0
99.106377 132.0
99.144028 140.0
99.173759 112.0
99.221336 132.0
99.237198 152.0
99.264954 192.0
99.284782 148.0
99.328423 164.0
99.383965 132.0
99.499084 192.0
99.521935 172.0
99.614166 172.0
99.717583 72.0
99.767281 180.0
99.789146 128.0
99.900513 136.0
99.916435 80.0
100.009956 204.0
100.080528 176.0
100.125435 100.0
100.179214 320.0
100.330666 144.0
100.370544 84.0
100.406776 140.0
100.435059 148.0
100.522141 164.0
100.53611 88.0
100.576027 140.0
100.609131 96.0
100.631927 192.0
100.73307 148.0
100.747757 68.0
100.773727 136.0
100.793709 104.0
100.814926 272.0
100.843674 136.0
100.883652 184.0
100.896973 260.0
100.949631 100.0
100.975624 164.0
101.059586 144.0
101.099663 148.0
101.118462 228.0
101.140427 152.0
101.154724 204.0
101.183731 32.0
101.259827 268.0
101.315323 164.0
101.328644 224.0
101.398064 232.0
101.422684 156.0
101.451714 188.0
101.462852 212.0
101.492279 112.0
101.508324 44.0
101.532387 68.0
101.546425 168.0
101.571075 180.0
101.62867 156.0
101.668808 156.0
101.803307 96.0
101.881638 156.0
101.908257 144.0
101.955986 80.0
101.992432 296.0
102.00824 176.0
102.047791 184.0
102.073204 88.0
102.088661 144.0
102.128891 164.0
102.185211 144.0
102.231491 228.0
102.303955 140.0
102.32811 168.0
102.39859 220.0
102.428802 144.0
102.46006 116.0
102.515434 100.0
102.559776 204.0
102.577919 108.0
102.616219 84.0
102.683807 180.0
102.71524 116.0
102.743279 192.0
102.778694 108.0
102.80867 176.0
102.832108 172.0
102.850227 356.0
102.939056 164.0
102.991989 228.0
103.021866 128.0
103.055588 424.0
103.070358 172.0
103.092583 148.0
103.14109 44.0
103.157257 304.0
103.17141 144.0
103.187584 164.0
103.205139 164.0
103.220917 140.0
103.331886 252.0
103.373192 168.0
103.426292 60.0
103.519417 128.0
103.572075 48.0
103.59436 212.0
103.633667 208.0
103.797035 36.0
103.936996 76.0
103.96946 116.0
103.997871 124.0
104.014114 160.0
104.052414 300.0
104.072983 124.0
104.131874 296.0
104.225647 152.0
104.239548 208.0
104.288849 196.0
104.32473 184.0
104.394043 96.0
104.436745 140.0
104.462685 176.0
104.503883 160.0
104.530334 172.0
104.551048 176.0
104.566521 148.0
104.583244 224.0
104.616386 256.0
104.659813 164.0
104.691147 184.0
104.748177 176.0
104.764473 188.0
104.806656 460.0
104.884697 188.0
104.923431 180.0
105.039673 244.0
105.068008 588.0
105.104958 80.0
105.149849 100.0
105.166176 44.0
105.188629 160.0
105.315224 188.0
105.462341 56.0
105.478691 104.0
105.574783 148.0
105.601372 204.0
105.636147 152.0
105.708961 156.0
105.729286 140.0
105.758919 156.0
105.851044 108.0
105.899887 188.0
105.91658 76.0
105.987373 244.0
106.004677 104.0
106.039513 100.0
106.065567 1160.0
106.115356 184.0
106.188911 304.0
106.246086 156.0
106.321701 128.0
106.380005 80.0
106.410797 140.0
106.472397 176.0
106.517586 72.0
106.564835 168.0
106.585381 348.0
106.59977 148.0
106.634705 128.0
106.710762 132.0
106.729263 128.0
106.749832 224.0
106.770393 144.0
106.78933 168.0
106.910553 152.0
106.932922 196.0
106.984383 136.0
107.013382 304.0
107.048965 264.0
107.068359 468.0
107.082787 284.0
107.120293 124.0
107.147888 172.0
107.246811 300.0
107.27729 192.0
107.295464 112.0
107.334633 172.0
107.371902 144.0
107.470772 168.0
107.544144 144.0
107.588219 216.0
107.613182 144.0
107.732964 176.0
107.747429 104.0
107.770157 124.0
107.798538 136.0
107.830826 208.0
107.902428 152.0
107.958839 228.0
107.978935 72.0
107.993416 212.0
108.016167 120.0
108.056396 248.0
108.080231 724.0
108.187927 336.0
108.221046 208.0
108.283173 244.0
108.405403 348.0
108.441978 148.0
108.467575 84.0
108.513184 124.0
108.548431 184.0
108.569168 188.0
108.616875 160.0
108.633469 284.0
108.653618 168.0
108.719261 184.0
108.737915 320.0
108.755898 56.0
108.785194 208.0
108.818169 140.0
108.841011 160.0
108.855545 152.0
109.013199 152.0
109.029991 156.0
109.065659 1448.0
109.118195 76.0
109.146454 132.0
109.237694 184.0
109.263908 152.0
109.27977 208.0
109.30246 148.0
109.41391 156.0
109.442032 152.0
109.468246 160.0
109.635643 128.0
109.726341 148.0
109.789909 168.0
109.803108 156.0
109.835793 164.0
109.852486 136.0
109.925507 204.0
109.965157 152.0
110.063431 108.0
110.100861 152.0
110.132187 108.0
110.169815 176.0
110.196945 184.0
110.22599 120.0
110.281059 192.0
110.35997 140.0
110.412254 184.0
110.455727 132.0
110.481277 132.0
110.510567 180.0
110.529396 52.0
110.608925 188.0
110.652885 32.0
110.686386 132.0
110.713608 164.0
110.738739 192.0
110.757591 236.0
110.815002 208.0
110.854362 148.0
110.906357 228.0
110.937798 180.0
110.962959 164.0
110.994408 212.0
111.044891 1744.0
111.079704 544.0
111.139137 124.0
111.1604 120.0
111.228806 204.0
111.311256 152.0
111.441483 176.0
111.512932 140.0
111.60881 204.0
111.64328 132.0
111.677437 176.0
111.717934 184.0
111.756866 208.0
111.786324 124.0
111.836838 168.0
111.886238 168.0
111.969475 176.0
112.015282 188.0
112.051155 176.0
112.075928 228.0
112.097984 128.0
112.25367 168.0
112.29615 156.0
112.314102 160.0
112.359436 140.0
112.410072 188.0
112.505051 132.0
112.545166 192.0
112.564537 184.0
112.58078 240.0
112.597954 192.0
112.619072 108.0
112.677658 164.0
112.731049 132.0
112.760635 180.0
112.781769 108.0
112.849419 104.0
112.90036 128.0
112.917084 348.0
112.946693 116.0
112.982658 152.0
113.009407 180.0
113.024139 580.0
113.061386 348.0
113.088455 136.0
113.105392 184.0
113.120209 80.0
113.145615 204.0
113.187958 96.0
113.215485 252.0
113.324287 208.0
113.363777 152.0
113.440079 160.0
113.469757 444.0
113.505798 224.0
113.542236 216.0
113.582146 132.0
113.626694 132.0
113.707329 380.0
113.783745 144.0
113.809227 168.0
113.887794 172.0
113.910133 144.0
113.940903 216.0
114.055656 132.0
114.102425 140.0
114.138565 116.0
114.174721 112.0
114.195984 156.0
114.321503 196.0
114.398125 160.0
114.453484 244.0
114.502464 192.0
114.521629 172.0
114.545059 128.0
114.582481 148.0
114.615364 364.0
114.660118 116.0
114.695099 180.0
114.727119 184.0
114.751778 140.0
114.773094 132.0
114.788948 188.0
114.865936 164.0
114.915253 216.0
114.947746 196.0
115.00563 180.0
115.023933 132.0
115.054817 1168.0
115.102409 216.0
115.120911 48.0
115.142273 128.0
115.182854 164.0
115.21489 112.0
115.264038 176.0
115.345245 168.0
115.373039 172.0
115.390137 48.0
115.405106 104.0
115.430763 180.0
115.470505 208.0
115.539848 80.0
115.576218 124.0
115.631859 136.0
115.683228 188.0
115.71962 136.0
115.758163 172.0
115.811699 148.0
115.856689 108.0
115.908104 116.0
115.923103 144.0
115.989548 192.0
116.013123 168.0
116.035065 256.0
116.058006 556.0
116.098892 140.0
116.116043 56.0
116.133202 84.0
116.182541 128.0
116.231888 140.0
116.330513 172.0
116.357437 340.0
116.373917 164.0
116.442268 168.0
116.485222 160.0
116.575867 192.0
116.594803 156.0
116.616295 312.0
116.660866 212.0
116.687233 120.0
116.781509 204.0
116.88961 132.0
116.930405 172.0
117.037933 216.0
117.067337 480.0
117.111153 136.0
117.130539 180.0
117.158546 132.0
117.186554 52.0
117.229301 176.0
117.251198 236.0
117.281372 188.0
117.337952 244.0
117.356819 124.0
117.378387 172.0
117.503487 108.0
117.521416 220.0
117.54232 156.0
117.579002 140.0
117.653801 172.0
117.67614 128.0
117.691254 156.0
117.739845 168.0
117.805717 188.0
117.872803 164.0
117.889984 152.0
117.928886 152.0
117.948708 140.0
117.99157 212.0
118.041306 292.0
118.063087 428.0
118.129776 128.0
118.160263 136.0
118.1819 112.0
118.236 148.0
118.313919 216.0
118.381042 196.0
118.415688 136.0
118.555725 232.0
118.586853 152.0
118.617195 144.0
118.633575 144.0
118.670586 172.0
118.71476 112.0
118.729942 172.0
118.752846 164.0
118.759834 48.0
118.767548 188.0
118.92086 180.0
118.972961 152.0
119.025063 160.0
119.047997 300.0
119.066208 148.0
119.086418 416.0
119.114105 68.0
119.16729 108.0
119.198837 216.0
119.227089 184.0
119.244476 208.0
119.268379 104.0
119.300987 160.0
119.337952 176.0
119.387962 84.0
119.414055 120.0
119.447182 192.0
119.536842 220.0
119.618591 132.0
119.683434 168.0
119.697533 204.0
119.714386 208.0
119.751411 144.0
119.784081 192.0
119.821114 144.0
119.879944 208.0
119.912636 156.0
119.973663 116.0
119.993286 132.0
120.045113 156.0
120.058998 352.0
120.080666 1272.0
120.135216 152.0
120.159042 64.0
120.178673 48.0
120.217949 36.0
120.237595 68.0
120.348923 200.0
120.380844 284.0
120.401329 128.0
120.445007 148.0
120.499626 144.0
120.52829 168.0
120.613258 32.0
120.691963 212.0
120.713829 76.0
120.742256 112.0
120.76413 108.0
120.801315 208.0
120.820274 132.0
120.875275 184.0
120.966972 188.0
121.028557 512.0
121.064995 1000.0
121.086105 300.0
121.103378 172.0
121.142509 216.0
121.257072 108.0
121.278664 204.0
121.304962 160.0
121.322502 120.0
121.366348 128.0
121.500801 176.0
121.528656 144.0
121.613022 36.0
121.620094 144.0
121.662537 196.0
121.697662 144.0
121.78331 164.0
121.847008 156.0
121.895187 160.0
121.934906 132.0
121.987656 64.0
122.035446 1740.0
122.068703 116.0
122.18998 112.0
122.205376 164.0
122.233986 164.0
122.291199 120.0
122.379257 108.0
122.399323 184.0
122.44091 72.0
122.460083 204.0
122.487167 140.0
122.568413 132.0
122.625977 52.0
122.663445 192.0
122.776505 172.0
122.821571 180.0
122.89637 156.0
123.041946 476.0
123.083122 544.0
123.151085 196.0
123.173172 88.0
123.219559 248.0
123.246078 180.0
123.277008 164.0
123.345528 64.0
123.460495 92.0
123.50473 156.0
123.652969 116.0
123.695023 60.0
123.763649 76.0
123.806656 160.0
123.825653 148.0
123.856659 140.0
123.903183 104.0
123.920906 128.0
123.960747 192.0
124.052803 1020.0
124.074341 164.0
124.133141 144.0
124.185631 152.0
124.248474 64.0
124.301651 184.0
124.324471 132.0
124.366638 68.0
124.442116 100.0
124.48156 204.0
124.511871 164.0
124.537605 316.0
124.65535 108.0
124.684235 84.0
124.733131 164.0
124.790932 104.0
124.826508 84.0
124.888779 192.0
125.014977 144.0
125.031715 228.0
125.056282 544.0
125.077911 216.0
125.097946 56.0
125.113525 116.0
125.178093 232.0
125.25827 128.0
125.410011 164.0
125.432083 204.0
125.446373 132.0
125.511909 104.0
125.541328 228.0
125.581467 124.0
125.610466 172.0
125.679626 96.0
125.702538 120.0
125.735413 188.0
125.821938 168.0
125.882286 96.0
125.948341 184.0
125.973618 216.0
125.98996 108.0
126.016769 168.0
126.045815 128.0
126.072632 220.0
126.092606 176.0
126.116333 184.0
126.135216 60.0
126.170982 248.0
126.21122 200.0
126.276138 148.0
126.315491 180.0
126.356606 228.0
126.38121 192.0
126.479683 144.0
126.566994 92.0
126.584908 168.0
126.640892 156.0
126.847038 68.0
126.889626 172.0
126.949333 204.0
126.968857 192.0
127.010719 224.0
127.041809 280.0
127.068733 144.0
127.119011 180.0
127.156563 108.0
127.24649 128.0
127.257507 124.0
127.292938 208.0
127.313713 168.0
127.351891 64.0
127.383339 160.0
127.408051 160.0
127.455231 112.0
127.491188 152.0
127.531639 164.0
127.55703 108.0
127.618217 160.0
127.779564 176.0
127.80825 116.0
127.855499 44.0
127.968048 60.0
128.010834 124.0
128.046982 632.0
128.063553 440.0
128.108887 172.0
128.140244 228.0
128.176697 196.0
128.199677 136.0
128.24675 172.0
128.296066 188.0
128.330795 60.0
128.408646 152.0
128.422348 200.0
128.439041 280.0
128.457092 88.0
128.56488 296.0
128.619553 180.0
128.655136 164.0
128.707596 132.0
128.725662 68.0
128.76857 124.0
128.818268 320.0
128.894409 148.0
128.940277 140.0
128.985474 208.0
129.04425 128.0
129.06813 684.0
129.098526 136.0
129.157318 148.0
129.220673 116.0
129.270905 208.0
129.304657 136.0
129.338333 140.0
129.367767 132.0
129.625961 120.0
129.645538 144.0
129.687302 120.0
129.752884 172.0
129.776657 208.0
129.857437 152.0
129.884857 144.0
129.911636 40.0
129.957016 160.0
129.988785 192.0
130.064575 2276.0
130.155914 184.0
130.189713 168.0
130.208984 112.0
130.283936 164.0
130.363464 128.0
130.438461 204.0
130.477112 192.0
130.4953 148.0
130.525009 184.0
130.579773 184.0
130.690903 88.0
130.742294 156.0
130.811523 120.0
130.854767 160.0
130.879822 48.0
130.904861 108.0
131.010498 148.0
131.048401 884.0
131.073288 3996.0
131.138489 160.0
131.157745 68.0
131.182831 152.0
131.210175 160.0
131.241592 160.0
131.259277 164.0
131.277267 152.0
131.344727 64.0
131.493027 40.0
131.609451 164.0
131.666138 248.0
131.690369 156.0
131.72821 60.0
131.778473 40.0
131.826447 60.0
131.844727 252.0
131.90416 140.0
131.924728 148.0
132.051392 236.0
132.081329 2996.0
132.125977 52.0
132.277008 164.0
132.318222 92.0
132.354843 156.0
132.408829 208.0
132.488693 100.0
132.556427 364.0
132.575302 152.0
132.651703 140.0
132.673309 124.0
132.726044 160.0
132.747543 256.0
132.778793 252.0
132.833832 100.0
132.885635 276.0
132.978394 148.0
133.061325 232.0
133.086517 328.0
133.240158 100.0
133.312103 180.0
133.412521 224.0
133.479202 120.0
133.499893 164.0
133.606674 140.0
133.688522 176.0
133.720749 88.0
133.849457 224.0
133.870392 196.0
133.930038 196.0
134.039261 364.0
134.060043 556.0
134.094879 164.0
134.173462 172.0
134.183548 92.0
134.187073 164.0
134.222946 136.0
134.26445 104.0
134.303665 120.0
134.386719 144.0
134.446701 136.0
134.492889 252.0
134.534409 124.0
134.659103 204.0
134.69606 148.0
134.712067 116.0
134.774612 144.0
134.802338 152.0
134.904037 148.0
134.934082 180.0
134.954895 172.0
134.973389 60.0
135.045853 776.0
135.081314 636.0
135.123734 176.0
135.142242 172.0
135.197769 184.0
135.235367 272.0
135.252426 52.0
135.289429 180.0
135.381744 272.0
135.417709 64.0
135.454773 204.0
135.470993 184.0
135.601913 172.0
135.630875 100.0
135.709686 116.0
135.760712 168.0
135.778732 160.0
135.853485 160.0
135.885956 196.0
135.906845 68.0
135.953247 144.0
135.981094 116.0
136.003296 196.0
136.041458 148.0
136.072632 876.0
136.12735 44.0
136.176712 176.0
136.194702 116.0
136.224899 144.0
136.387558 216.0
136.410797 244.0
136.476669 108.0
136.544846 120.0
136.573578 112.0
136.594513 108.0
136.668945 96.0
136.720139 148.0
136.74234 156.0
136.800262 152.0
136.828064 288.0
136.908707 132.0
136.976257 108.0
137.023621 964.0
137.060303 916.0
137.095551 300.0
137.146347 176.0
137.164276 192.0
137.211624 80.0
137.248932 140.0
137.290054 208.0
137.36554 200.0
137.41452 164.0
137.52887 40.0
137.559219 276.0
137.585556 140.0
137.617538 128.0
137.720322 160.0
137.771713 148.0
137.855835 56.0
137.873337 164.0
137.890884 116.0
137.932983 172.0
137.953995 52.0
137.985489 192.0
138.007767 160.0
138.043579 64.0
138.068665 284.0
138.095459 140.0
138.251038 148.0
138.295502 248.0
138.356369 192.0
138.379776 84.0
138.411331 164.0
138.444092 112.0
138.51561 176.0
138.539032 244.0
138.607452 156.0
138.646805 280.0
138.674942 164.0
138.775742 260.0
138.871887 220.0
138.900024 124.0
138.968063 32.0
138.991516 68.0
139.03334 268.0
139.075806 4704.0
139.134689 120.0
139.218597 180.0
139.249756 104.0
139.282837 364.0
139.32962 152.0
139.360153 144.0
139.378952 40.0
139.397751 212.0
139.449448 152.0
139.576401 136.0
139.600876 168.0
139.630493 180.0
139.661057 204.0
139.708817 128.0
139.77153 284.0
139.813995 116.0
139.834061 152.0
139.882248 164.0
139.941101 36.0
139.98819 224.0
140.007309 204.0
140.041855 184.0
140.075729 688.0
140.171936 180.0
140.190781 172.0
140.215012 152.0
140.256775 148.0
140.410019 116.0
140.435974 92.0
140.499664 148.0
140.6082 200.0
140.729172 160.0
140.794708 160.0
140.838364 156.0
140.847153 196.0
140.86792 32.0
140.957703 168.0
140.978973 116.0
140.997879 124.0
141.017761 516.0
141.054077 408.0
141.080017 160.0
141.1539 204.0
141.220993 172.0
141.279785 204.0
141.459091 116.0
141.558533 60.0
141.59642 168.0
141.635818 196.0
141.733826 352.0
141.757523 208.0
141.790695 144.0
141.88591 236.0
141.942413 160.0
141.989227 172.0
142.024643 136.0
142.064697 1228.0
142.096375 140.0
142.148788 132.0
142.174881 120.0
142.194931 108.0
142.292831 156.0
142.329681 176.0
142.369553 136.0
142.38855 200.0
142.435837 172.0
142.550095 212.0
142.569107 132.0
142.596344 156.0
142.621384 116.0
142.673065 168.0
142.702209 156.0
142.773544 212.0
142.793076 152.0
142.859177 180.0
142.901398 80.0
142.930557 148.0
143.011459 244.0
143.073151 3812.0
143.186478 172.0
143.217194 144.0
143.26387 128.0
143.301987 36.0
143.340103 168.0
143.363937 112.0
143.417374 104.0
143.42807 44.0
143.432327 144.0
143.564758 148.0
143.602341 204.0
143.82901 208.0
143.995087 216.0
144.053879 732.0
144.080734 2688.0
144.106659 420.0
144.190399 144.0
144.244629 172.0
144.278107 72.0
144.360016 124.0
144.400055 156.0
144.416794 124.0
144.474197 68.0
144.50206 192.0
144.61145 156.0
144.680008 76.0
144.730286 176.0
144.750732 200.0
144.7686 172.0
144.893143 160.0
145.057632 728.0
145.086639 768.0
145.112274 144.0
145.132828 368.0
145.206329 184.0
145.305511 60.0
145.331894 232.0
145.449493 180.0
145.466293 296.0
145.538315 200.0
145.562332 148.0
145.665604 132.0
145.704041 140.0
145.740082 164.0
145.841003 212.0
145.860245 144.0
145.87706 124.0
145.896301 152.0
146.058624 404.0
146.095856 480.0
146.162262 116.0
146.19455 220.0
146.237869 100.0
146.300446 96.0
146.332428 128.0
146.452148 56.0
146.48587 144.0
146.531647 184.0
146.608749 144.0
146.636566 200.0
146.679794 168.0
146.714798 140.0
146.770264 156.0
146.794373 104.0
146.828384 196.0
146.97287 164.0
147.079956 1544.0
147.185272 136.0
147.325363 160.0
147.384811 144.0
147.395203 88.0
147.401718 224.0
147.426834 164.0
147.463089 196.0
147.484756 128.0
147.525131 192.0
147.562195 164.0
147.587357 88.0
147.62265 56.0
147.65741 212.0
147.75325 128.0
147.808899 116.0
147.910553 156.0
148.007385 52.0
148.024338 132.0
148.046127 204.0
148.076675 2852.0
148.125351 232.0
148.145432 72.0
148.196304 168.0
148.248642 148.0
148.271423 92.0
148.319901 80.0
148.344147 212.0
148.412033 32.0
148.462952 132.0
148.569672 40.0
148.597977 208.0
148.624847 232.0
148.666718 116.0
148.703125 140.0
148.752045 180.0
148.790512 168.0
148.85849 112.0
148.892502 168.0
148.943497 44.0
148.964508 112.0
149.001801 144.0
149.024963 344.0
149.059219 1020.0
149.116211 280.0
149.179199 36.0
149.22435 176.0
149.247284 108.0
149.287827 208.0
149.29744 184.0
149.348038 120.0
149.394485 144.0
149.474487 204.0
149.506866 132.0
149.609787 192.0
149.67308 80.0
149.836426 184.0
149.875259 144.0
149.892303 140.0
149.96785 168.0
150.028793 352.0
150.065048 292.0
150.092682 916.0
150.119003 124.0
150.20108 104.0
150.298462 180.0
150.336121 172.0
150.353195 188.0
150.377609 80.0
150.436188 148.0
150.465485 132.0
150.514313 40.0
150.531403 68.0
150.54985 144.0
150.660065 112.0
150.734146 72.0
150.789658 140.0
150.814804 160.0
150.843048 288.0
150.880798 172.0
150.966385 152.0
150.998169 200.0
151.039551 812.0
151.075211 652.0
151.101562 320.0
151.163956 188.0
151.218369 120.0
151.256622 152.0
151.325623 180.0
151.44606 128.0
151.556305 84.0
151.589279 84.0
151.661682 148.0
151.691818 148.0
151.72171 124.0
151.769547 136.0
151.80632 116.0
151.894623 184.0
151.919144 108.0
151.975571 220.0
152.047699 8224.0
152.147369 56.0
152.181747 96.0
152.233307 44.0
152.314438 132.0
152.358047 132.0
152.434738 52.0
152.48143 64.0
152.572372 64.0
152.656113 72.0
152.678116 228.0
152.764191 128.0
152.816559 156.0
152.839813 180.0
152.872452 156.0
152.956131 132.0
152.993469 176.0
153.053345 1052.0
153.128479 200.0
153.160507 236.0
153.207306 132.0
153.24379 252.0
153.266434 116.0
153.293533 164.0
153.323715 212.0
153.417465 320.0
153.468079 148.0
153.520325 184.0
153.559784 76.0
153.577057 68.0
153.638718 44.0
153.700119 168.0
153.717682 204.0
153.760376 132.0
153.796646 152.0
153.843124 116.0
153.933945 156.0
154.008545 244.0
154.061249 1000.0
154.08577 172.0
154.137451 152.0
154.219711 156.0
154.273392 96.0
154.307999 232.0
154.33519 156.0
154.372284 124.0
154.404434 144.0
154.49086 140.0
154.525635 136.0
154.554703 188.0
154.604828 116.0
154.65184 212.0
154.736008 76.0
154.791153 164.0
154.80719 176.0
154.838654 168.0
154.859818 216.0
154.895691 216.0
154.988647 140.0
155.045258 204.0
155.072952 684.0
155.127426 148.0
155.191879 224.0
155.238235 336.0
155.274963 152.0
155.333252 100.0
155.365494 88.0
155.415115 124.0
155.484589 136.0
155.519333 140.0
155.588852 220.0
155.712997 188.0
155.732864 152.0
155.752731 204.0
155.775101 124.0
155.83223 92.0
155.862411 108.0
155.958969 172.0
156.008682 156.0
156.041092 1704.0
156.080322 408.0
156.120575 132.0
156.145447 132.0
156.175278 176.0
156.223282 148.0
156.266403 108.0
156.29718 136.0
156.317093 160.0
156.34198 36.0
156.379211 192.0
156.453979 212.0
156.497101 200.0
156.556061 136.0
156.590927 188.0
156.648224 188.0
156.700531 120.0
156.740402 152.0
156.790009 132.0
156.803574 184.0
156.832611 152.0
156.852554 128.0
156.884964 212.0
156.952332 156.0
156.974716 128.0
157.06041 588.0
157.086411 308.0
157.140625 308.0
157.256622 172.0
157.276031 216.0
157.316528 172.0
157.428879 188.0
157.478821 196.0
157.531281 312.0
157.603729 204.0
157.716934 244.0
157.738693 96.0
157.791183 152.0
157.898712 100.0
157.946228 104.0
158.021042 168.0
158.059555 1272.0
158.091232 476.0
158.148895 192.0
158.166412 60.0
158.246521 104.0
158.279083 60.0
158.32666 148.0
158.349197 244.0
158.426849 44.0
158.458939 84.0
158.484467 140.0
158.519745 152.0
158.558182 220.0
158.614777 112.0
158.642365 124.0
158.695007 124.0
158.746063 188.0
158.787781 160.0
158.813675 124.0
158.895645 120.0
159.031158 136.0
159.068283 12948.0
159.108963 204.0
159.13031 72.0
159.160385 168.0
159.197617 156.0
159.23201 228.0
159.279724 140.0
159.341232 224.0
159.380219 44.0
159.40535 80.0
159.428879 176.0
159.505875 120.0
159.523468 56.0
159.56369 36.0
159.60643 100.0
159.624039 36.0
159.659241 104.0
159.679367 116.0
159.696976 152.0
159.734695 140.0
159.875595 92.0
159.961166 88.0
159.998932 156.0
160.075745 8144.0
160.133224 60.0
160.153564 236.0
160.182251 176.0
160.230621 140.0
160.24826 112.0
160.278488 56.0
160.301178 136.0
160.331406 132.0
160.364182 100.0
160.40451 100.0
160.493652 156.0
160.608002 204.0
160.61438 156.0
160.656677 192.0
160.73407 248.0
160.8237 168.0
160.872818 148.0
160.903992 88.0
160.924194 48.0
160.946915 172.0
160.989777 144.0
161.025192 148.0
161.055481 368.0
161.083145 3448.0
161.121185 92.0
161.162323 160.0
161.189407 168.0
161.207825 148.0
161.250046 132.0
161.283691 224.0
161.318298 160.0
161.389084 72.0
161.444717 48.0
161.487717 136.0
161.518066 68.0
161.561066 168.0
161.663193 300.0
161.720032 312.0
161.738205 40.0
161.772415 68.0
161.857178 132.0
161.903442 196.0
161.966522 160.0
162.014206 48.0
162.05127 144.0
162.09053 1828.0
162.176392 116.0
162.209076 240.0
162.23468 48.0
162.26004 184.0
162.290466 60.0
162.398529 168.0
162.4198 176.0
162.44516 212.0
162.531418 48.0
162.620239 140.0
162.680313 148.0
162.79541 168.0
162.82872 136.0
162.891922 136.0
162.942734 164.0
162.970688 64.0
163.072998 800.0
163.094315 628.0
163.179092 140.0
163.240112 108.0
163.278259 140.0
163.337311 112.0
163.410538 132.0
163.502136 220.0
163.528824 148.0
163.570862 88.0
163.588684 48.0
163.680328 160.0
163.741455 212.0
163.812775 164.0
163.839096 144.0
163.89502 196.0
163.970734 152.0
164.016617 208.0
164.074081 480.0
164.105789 792.0
164.159393 152.0
164.187439 132.0
164.210388 220.0
164.279266 200.0
164.350693 60.0
164.477432 176.0
164.51149 32.0
164.562546 132.0
164.582962 136.0
164.720871 364.0
164.755188 240.0
164.777084 80.0
164.823074 188.0
164.856293 52.0
164.89566 180.0
164.925293 148.0
164.968124 132.0
164.99176 80.0
165.026947 424.0
165.060791 132.0
165.085464 444.0
165.108627 292.0
165.137512 176.0
165.170761 32.0
165.244949 188.0
165.285873 92.0
165.35968 172.0
165.485519 200.0
165.608444 116.0
165.658524 232.0
165.721161 136.0
165.767151 152.0
165.814758 240.0
165.887741 48.0
165.949265 120.0
165.989227 184.0
166.062668 504.0
166.089035 568.0
166.172394 348.0
166.20575 108.0
166.233978 148.0
166.339203 140.0
166.375153 192.0
166.453171 176.0
166.639679 148.0
166.804138 172.0
166.834991 176.0
166.863266 100.0
166.892029 152.0
166.914688 36.0
166.951492 308.0
166.989273 140.0
167.009842 384.0
167.070267 3552.0
167.140137 312.0
167.1642 52.0
167.343842 172.0
167.37738 224.0
167.429352 196.0
167.479797 116.0
167.502151 144.0
167.590027 32.0
167.630295 56.0
167.650909 124.0
167.798752 100.0
167.94223 156.0
167.983505 52.0
168.005173 120.0
168.075882 440.0
168.113876 176.0
168.151215 36.0
168.184769 132.0
168.414566 116.0
168.456558 156.0
168.476562 112.0
168.512741 100.0
168.57991 160.0
168.631607 184.0
168.690292 176.0
168.714325 148.0
168.794464 192.0
168.884979 152.0
168.94281 152.0
168.98587 184.0
169.085297 892.0
169.192917 144.0
169.24469 172.0
169.322388 160.0
169.44931 240.0
169.490768 36.0
169.532227 204.0
169.558136 152.0
169.630707 140.0
169.664413 172.0
169.695526 196.0
169.78627 132.0
169.871872 168.0
169.89003 148.0
169.936722 136.0
170.060013 396.0
170.087448 172.0
170.113205 192.0
170.166138 164.0
170.268982 124.0
170.315735 124.0
170.359192 88.0
170.427444 68.0
170.466415 136.0
170.487213 92.0
170.562576 156.0
170.635376 148.0
170.697769 92.0
170.72377 100.0
170.760178 44.0
170.805649 92.0
170.87204 132.0
170.965714 180.0
171.011856 164.0
171.066025 156.0
171.111359 164.0
171.233856 212.0
171.297607 184.0
171.316406 116.0
171.398849 192.0
171.431854 176.0
171.59346 196.0
171.618729 156.0
171.684723 116.0
171.7108 228.0
171.747314 128.0
171.846436 136.0
171.924713 168.0
171.95343 128.0
171.9953 184.0
172.074707 2112.0
172.17247 164.0
172.181686 148.0
172.193619 80.0
172.204987 148.0
172.238022 288.0
172.256302 228.0
172.320358 356.0
172.37648 112.0
172.499329 180.0
172.518127 188.0
172.63266 32.0
172.65358 68.0
172.702957 168.0
172.76741 116.0
172.786987 160.0
172.859726 140.0
172.891342 140.0
172.930908 124.0
172.982697 168.0
173.004196 216.0
173.039032 144.0
173.082886 1516.0
173.106903 124.0
173.184875 144.0
173.219986 168.0
173.241943 208.0
173.304993 140.0
173.324417 104.0
173.384949 308.0
173.416245 116.0
173.454758 152.0
173.504562 168.0
173.521927 172.0
173.542435 252.0
173.604202 204.0
173.63829 148.0
173.692825 136.0
173.703674 108.0
173.745834 84.0
173.774033 272.0
173.800934 228.0
173.840286 188.0
173.880005 152.0
173.908066 68.0
173.937347 188.0
173.95192 392.0
173.994232 168.0
174.022049 376.0
174.060165 428.0
174.092514 134696.0
174.157303 228.0
174.18306 36.0
174.187668 156.0
174.232239 140.0
174.238388 168.0
174.271179 312.0
174.326279 252.0
174.361084 180.0
174.381104 112.0
174.3965 152.0
174.405258 200.0
174.465393 76.0
174.497528 184.0
174.524353 572.0
174.578766 104.0
174.618973 128.0
174.625397 52.0
174.636398 120.0
174.669067 240.0
174.730057 100.0
174.762589 32.0
174.784317 104.0
174.816223 188.0
174.840515 136.0
174.909027 168.0
174.959976 196.0
174.979446 156.0
175.026123 292.0
175.09494 16048.0
175.144058 236.0
175.186447 80.0
175.242218 240.0
175.274414 136.0
175.329666 180.0
175.357895 124.0
175.382996 128.0
175.412903 128.0
175.460526 36.0
175.505676 156.0
175.571274 168.0
175.599182 116.0
175.633575 192.0
175.697876 76.0
175.724258 72.0
175.779587 136.0
175.813309 48.0
175.86113 92.0
175.903717 40.0
175.930115 52.0
175.959152 56.0
175.989182 324.0
176.020798 80.0
176.102432 2140.0
176.169662 84.0
176.176956 76.0
176.187943 120.0
176.194748 152.0
176.216431 96.0
176.248535 148.0
176.276108 132.0
176.300949 80.0
176.319397 116.0
176.34137 148.0
176.364731 120.0
176.400055 256.0
176.439728 132.0
176.466675 316.0
176.522125 108.0
176.568436 124.0
176.610764 80.0
176.667404 152.0
176.720322 76.0
176.74942 40.0
176.775757 80.0
176.868515 120.0
176.928772 84.0
176.974411 156.0
177.032654 144.0
177.05159 208.0
177.096741 364.0
177.171463 128.0
177.260468 136.0
177.28299 144.0
177.327774 152.0
177.352615 96.0
177.380493 128.0
177.42421 72.0
177.431595 92.0
177.483124 100.0
177.549423 128.0
177.572006 180.0
177.644318 180.0
177.734772 64.0
177.790833 196.0
178.085312 1624.0
178.124313 240.0
178.174545 180.0
178.224838 164.0
178.274857 196.0
178.328506 132.0
178.361862 176.0
178.380463 196.0
178.49678 124.0
178.534668 56.0
178.585205 140.0
178.613083 192.0
178.633087 92.0
178.736084 212.0
178.811356 180.0
178.859268 76.0
178.933792 132.0
178.965744 148.0
179.021667 156.0
179.074829 576.0
179.082642 452.0
179.240097 220.0
179.41333 208.0
179.503983 56.0
179.546661 64.0
179.64801 108.0
179.765411 100.0
179.792084 132.0
179.861481 148.0
179.941574 148.0
180.044525 480.0
180.095261 216.0
180.144531 104.0
180.194763 184.0
180.279404 96.0
180.363647 192.0
180.424911 148.0
180.508881 160.0
180.5401 120.0
180.608322 156.0
180.651764 96.0
180.658813 156.0
180.68721 48.0
180.708618 204.0
180.772827 172.0
180.847763 112.0
180.962875 148.0
180.997681 168.0
181.085571 844.0
181.161057 136.0
181.185165 100.0
181.252151 140.0
181.321823 144.0
181.461212 164.0
181.47998 144.0
181.53093 124.0
181.614059 148.0
181.640884 100.0
181.670654 84.0
181.724045 188.0
181.795822 144.0
181.917282 108.0
181.938751 144.0
182.002548 68.0
182.038101 140.0
182.061478 192.0
182.068817 136.0
182.095078 516.0
182.121353 28.0
182.199249 48.0
182.236176 204.0
182.29866 48.0
182.317474 132.0
182.454559 136.0
182.597061 148.0
182.653549 132.0
182.78537 120.0
182.809586 132.0
182.82843 60.0
182.860733 180.0
182.898407 188.0
183.071442 176.0
183.104645 308.0
183.135345 180.0
183.208084 168.0
183.259262 48.0
183.337402 296.0
183.355377 144.0
183.429047 136.0
183.464096 76.0
183.482956 184.0
183.555756 188.0
183.593506 204.0
183.615082 196.0
183.647446 152.0
183.72084 116.0
183.782333 120.0
183.830902 92.0
184.036514 592.0
184.07489 576.0
184.144058 104.0
184.173767 176.0
184.249405 184.0
184.318802 76.0
184.373703 76.0
184.57103 148.0
184.589966 176.0
184.658127 232.0
184.811768 196.0
184.841522 124.0
184.960602 144.0
184.999954 196.0
185.048981 124.0
185.054626 120.0
185.082703 1260.0
185.12323 172.0
185.182846 100.0
185.212418 136.0
185.261032 176.0
185.350586 124.0
185.380386 40.0
185.480667 188.0
185.556061 148.0
185.635208 176.0
185.736557 152.0
185.84407 76.0
185.862137 116.0
185.898331 136.0
185.917328 140.0
185.939041 64.0
185.958038 156.0
185.990616 152.0
186.036758 100.0
186.090439 3900.0
186.129059 56.0
186.153503 68.0
186.194244 56.0
186.340485 124.0
186.43602 108.0
186.471359 44.0
186.550171 176.0
186.789474 120.0
186.849319 228.0
186.890137 104.0
186.984146 116.0
187.053848 152.0
187.097015 1984.0
187.151428 60.0
187.279419 104.0
187.346542 124.0
187.402008 68.0
187.521896 80.0
187.647293 160.0
187.682739 84.0
187.704559 168.0
187.728256 236.0
187.791824 148.0
187.950043 136.0
188.007355 128.0
188.033386 156.0
188.069748 340.0
188.106903 5736.0
188.144501 164.0
188.166641 168.0
188.191147 156.0
188.212875 176.0
188.288544 124.0
188.315842 136.0
188.367752 152.0
188.419647 100.0
188.450684 156.0
188.490692 264.0
188.550812 52.0
188.569931 200.0
188.610931 276.0
188.630066 60.0
188.684738 160.0
188.723022 88.0
188.750366 68.0
188.821716 84.0
188.859756 112.0
188.884369 96.0
188.966446 180.0
189.04306 144.0
189.069626 404.0
189.0793 140.0
189.10704 1576.0
189.138763 188.0
189.272995 52.0
189.353851 144.0
189.402786 172.0
189.467453 44.0
189.497589 76.0
189.533203 148.0
189.588821 108.0
189.6698 204.0
189.861786 152.0
189.87088 132.0
189.879288 176.0
189.920609 152.0
189.969116 108.0
190.013016 204.0
190.086502 2460.0
190.144714 52.0
190.213333 128.0
190.284714 128.0
190.422012 136.0
190.452225 88.0
190.531555 164.0
190.589584 108.0
190.628052 156.0
190.732391 124.0
190.935944 112.0
191.03772 216.0
191.089828 484.0
191.114624 348.0
191.222061 172.0
191.281021 276.0
191.486374 44.0
191.519424 68.0
191.580017 136.0
191.640625 120.0
191.679214 76.0
191.706757 144.0
191.742584 148.0
191.814255 192.0
191.939087 200.0
192.007248 136.0
192.038605 152.0
192.070389 148.0
192.102097 13316.0
192.266571 164.0
192.294174 108.0
192.318878 152.0
192.390793 148.0
192.440475 156.0
192.511185 148.0
192.550934 104.0
192.5746 120.0
192.600647 156.0
192.633789 100.0
192.697342 124.0
192.719437 60.0
192.758118 216.0
192.794052 124.0
192.821686 168.0
192.863144 76.0
192.914139 124.0
192.961731 132.0
193.017303 68.0
193.056274 172.0
193.105209 2028.0
193.17836 156.0
193.211563 136.0
193.240479 160.0
193.277954 36.0
193.435715 104.0
193.468933 196.0
193.543686 40.0
193.612915 96.0
193.653809 120.0
193.727203 180.0
193.762482 140.0
193.809586 32.0
194.053375 92.0
194.114838 376.0
194.13945 104.0
194.163391 152.0
194.184891 156.0
194.232361 68.0
194.310593 160.0
194.339157 84.0
194.382858 48.0
194.399399 180.0
194.433502 172.0
194.471664 284.0
194.511139 124.0
194.569901 176.0
194.621902 268.0
194.640671 108.0
194.669327 156.0
194.704575 228.0
194.734482 196.0
194.754944 216.0
194.784149 316.0
194.811523 112.0
194.830566 220.0
194.874695 208.0
194.90799 104.0
194.91774 244.0
194.971436 292.0
194.975647 240.0
194.999268 180.0
195.066406 182108.0
195.16185 188.0
195.184799 168.0
195.226013 44.0
195.258484 132.0
195.292068 328.0
195.321198 80.0
195.354416 128.0
195.384094 84.0
195.399094 140.0
195.406311 136.0
195.427353 108.0
195.46991 80.0
195.493546 116.0
195.523987 1004.0
195.578354 52.0
195.608322 280.0
195.657166 52.0
195.697037 72.0
195.744888 92.0
195.775879 168.0
195.832306 124.0
195.865097 80.0
195.899109 72.0
195.937851 148.0
195.984695 140.0
196.025879 96.0
196.069168 21788.0
196.150497 348.0
196.206909 128.0
196.232407 204.0
196.250916 140.0
196.288986 76.0
196.328033 108.0
196.357712 168.0
196.398056 76.0
196.421555 60.0
196.462387 164.0
196.496002 224.0
196.515411 92.0
196.556778 92.0
196.587463 72.0
196.618164 40.0
196.640488 88.0
196.680161 204.0
196.723511 204.0
196.797607 80.0
196.831558 36.0
196.866623 116.0
196.891037 108.0
196.947617 104.0
196.983521 84.0
197.020248 40.0
197.072739 2584.0
197.111206 100.0
197.137772 64.0
197.183533 136.0
197.217331 112.0
197.236359 248.0
197.289154 132.0
197.327026 288.0
197.382385 112.0
197.411987 200.0
197.434662 144.0
197.460434 272.0
197.523621 248.0
197.546616 92.0
197.5681 140.0
197.598434 228.0
197.646515 48.0
197.699677 160.0
197.752289 60.0
197.763107 48.0
197.782639 112.0
197.864822 52.0
197.912415 44.0
197.940414 140.0
197.993622 64.0
198.032837 76.0
198.09137 1656.0
198.188019 84.0
198.223206 88.0
198.321411 48.0
198.351334 160.0
198.361862 84.0
198.385178 176.0
198.410461 120.0
198.502792 92.0
198.548508 152.0
198.596191 184.0
198.646912 48.0
198.694366 72.0
198.79924 128.0
198.840286 120.0
198.868347 44.0
198.902023 56.0
198.975601 76.0
199.005905 68.0
199.030075 164.0
199.097351 1724.0
199.139389 112.0
199.163162 148.0
199.182816 60.0
199.210907 124.0
199.303619 96.0
199.380615 140.0
199.435699 148.0
199.495438 160.0
199.646561 32.0
199.760345 176.0
199.812515 200.0
199.851898 76.0
199.871597 100.0
199.896927 44.0
199.970093 220.0
200.106995 6436.0
200.175598 236.0
200.220657 132.0
200.271362 48.0
200.311722 156.0
200.333328 104.0
200.385773 172.0
200.428558 180.0
200.584122 88.0
200.682785 104.0
200.807846 80.0
200.939438 68.0
201.001297 152.0
201.062561 184.0
201.074203 116.0
201.104004 2164.0
201.190613 148.0
201.252731 156.0
201.292252 96.0
201.317673 140.0
201.357208 60.0
201.391098 84.0
201.424988 48.0
201.487137 40.0
201.537994 56.0
201.578339 84.0
201.60582 96.0
201.656677 180.0
201.696259 84.0
201.766922 72.0
201.792374 28.0
201.814987 88.0
201.843262 160.0
201.919617 160.0
202.088837 340.0
202.097534 212.0
202.11763 812.0
202.143997 144.0
202.201279 72.0
202.324249 80.0
202.349716 72.0
202.429001 176.0
202.505463 72.0
202.528122 140.0
202.584778 72.0
202.637405 104.0
202.686768 128.0
202.720779 124.0
202.811462 132.0
203.013794 228.0
203.097137 112.0
203.121216 572.0
203.202805 136.0
203.304947 96.0
203.483765 144.0
203.543396 48.0
203.613098 120.0
203.848816 148.0
203.87291 140.0
203.971786 152.0
204.054825 148.0
204.101425 4764.0
204.154343 28.0
204.194153 184.0
204.242508 40.0
204.299408 128.0
204.344925 108.0
204.424591 52.0
204.472977 44.0
204.638077 176.0
204.675079 120.0
204.7202 92.0
204.746735 100.0
204.806091 96.0
204.863052 100.0
204.982712 72.0
205.022614 124.0
205.103928 880.0
205.147415 212.0
205.196487 112.0
205.341003 112.0
205.381836 76.0
205.41037 124.0
205.438889 56.0
205.547302 180.0
205.567276 92.0
205.664322 40.0
205.801346 40.0
205.845032 132.0
205.915573 144.0
206.009186 96.0
206.055542 144.0
206.117172 760.0
206.14772 192.0
206.19072 64.0
206.237427 80.0
206.352768 172.0
206.384216 192.0
206.429962 68.0
206.570114 188.0
206.695816 128.0
206.736053 64.0
206.839081 180.0
206.882019 208.0
206.985092 220.0
207.013733 76.0
207.062408 132.0
207.101624 1604.0
207.148346 44.0
207.208496 120.0
207.25238 88.0
207.391891 28.0
207.497955 136.0
207.595444 160.0
207.819183 144.0
207.928223 84.0
207.979889 132.0
208.004868 152.0
208.079865 116.0
208.100983 276.0
208.134903 196.0
208.516968 56.0
208.577332 84.0
208.909531 84.0
208.974182 184.0
209.048996 32.0
209.079208 556.0
209.184265 120.0
209.213242 64.0
209.28215 108.0
209.335983 92.0
209.627808 56.0
209.665268 128.0
209.708878 152.0
209.731552 76.0
209.780563 156.0
210.008759 140.0
210.049789 304.0
210.093002 1204.0
210.142914 196.0
210.327881 124.0
210.374817 60.0
210.415222 176.0
210.451645 124.0
210.498962 56.0
210.568268 60.0
210.631805 152.0
210.796494 184.0
210.964401 124.0
211.058075 184.0
211.065903 116.0
211.100662 1088.0
211.156128 188.0
211.305374 36.0
211.345871 104.0
211.3806 116.0
211.467422 40.0
211.632416 112.0
211.686722 184.0
212.105576 1468.0
212.148117 100.0
212.201904 296.0
212.252487 68.0
212.411987 116.0
212.458405 96.0
212.559952 152.0
212.66153 84.0
212.743988 136.0
212.766022 204.0
212.800858 204.0
212.85022 52.0
212.913696 124.0
213.10466 1224.0
213.151154 100.0
213.233688 164.0
213.401596 184.0
213.559311 236.0
213.604843 128.0
213.666946 88.0
213.789139 136.0
213.914291 156.0
213.940491 124.0
214.024933 72.0
214.110718 2504.0
214.257919 76.0
214.304535 68.0
214.35408 236.0
214.397781 64.0
214.511459 32.0
214.566849 44.0
214.667145 80.0
214.700974 200.0
215.036469 160.0
215.11647 3440.0
215.202866 104.0
215.366394 100.0
215.594284 76.0
215.798889 52.0
215.907089 180.0
216.003601 56.0
216.062103 160.0
216.120285 1156.0
216.228897 172.0
216.273468 156.0
216.381546 80.0
216.483582 52.0
216.53923 76.0
216.571442 176.0
216.600739 164.0
216.700348 72.0
216.761871 128.0
216.887894 144.0
216.917206 100.0
216.937729 112.0
216.958237 96.0
217.054993 132.0
217.111237 200.0
217.192825 120.0
217.266174 120.0
217.35582 72.0
217.624222 156.0
217.682953 176.0
217.715256 96.0
217.826859 160.0
217.929672 44.0
218.080032 168.0
218.11792 380.0
218.197128 56.0
218.332382 132.0
218.402969 64.0
218.623627 80.0
218.723694 188.0
218.803177 52.0
218.91507 164.0
219.015198 156.0
219.035812 80.0
219.065277 108.0
219.103439 184.0
219.189011 160.0
219.29216 132.0
219.31279 208.0
219.46608 116.0
219.516205 128.0
219.56929 184.0
219.712601 204.0
219.784637 196.0
219.820038 148.0
220.071335 176.0
220.103592 224.0
220.131088 160.0
220.159515 96.0
220.508118 56.0
220.709137 116.0
220.920731 128.0
221.081802 460.0
221.100784 172.0
221.135635 160.0
221.333466 136.0
221.448959 180.0
221.851944 152.0
221.902344 172.0
221.965927 164.0
222.02095 100.0
222.041702 132.0
222.110596 1476.0
222.326508 36.0
222.448196 80.0
222.498657 76.0
222.540222 36.0
222.757019 48.0
223.021469 204.0
223.098938 792.0
223.148727 124.0
223.182007 80.0
223.327713 96.0
223.399109 200.0
223.497284 40.0
223.747299 116.0
223.788971 60.0
223.851501 128.0
223.899155 144.0
223.919998 116.0
223.967651 156.0
224.006378 40.0
224.064606 228.0
224.127548 6948.0
224.261566 136.0
224.298569 184.0
224.352051 164.0
224.402725 72.0
224.432541 60.0
224.462357 68.0
224.513062 148.0
224.579666 176.0
224.644287 96.0
224.692017 60.0
224.778549 80.0
224.802414 48.0
224.868073 144.0
225.070221 512.0
225.124512 1408.0
225.177765 44.0
225.25325 64.0
225.274155 136.0
225.426529 152.0
225.459396 44.0
225.489288 196.0
225.590912 44.0
225.662659 104.0
225.782272 44.0
225.84642 204.0
226.012604 160.0
226.121078 1756.0
226.229584 72.0
226.275986 116.0
226.320892 68.0
226.398758 196.0
226.452667 108.0
226.514816 112.0
226.604965 128.0
226.680344 192.0
226.736191 320.0
226.834595 128.0
226.937012 164.0
227.055054 96.0
227.117737 2352.0
227.251572 148.0
227.343063 180.0
227.579803 92.0
227.640244 84.0
227.784409 68.0
227.805435 56.0
227.925613 76.0
227.96167 96.0
227.985703 96.0
228.123932 1816.0
228.299438 132.0
228.668381 180.0
228.80986 48.0
228.845993 80.0
228.882126 224.0
228.906204 148.0
228.927292 92.0
228.951385 68.0
229.100754 148.0
229.132309 536.0
229.17128 116.0
229.340027 196.0
229.373184 100.0
229.475677 160.0
229.532974 96.0
229.566147 72.0
229.605347 92.0
229.656616 172.0
229.698837 124.0
229.741074 88.0
229.780289 120.0
229.900986 136.0
230.039825 84.0
230.123703 412.0
230.184738 116.0
230.281387 140.0
230.308563 236.0
230.396164 172.0
230.654434 136.0
230.704407 68.0
230.813248 160.0
230.949341 104.0
231.058701 156.0
231.107956 352.0
231.164139 240.0
231.321136 140.0
231.445648 108.0
231.584946 144.0
231.660675 132.0
231.833374 108.0
231.909988 128.0
232.072433 120.0
232.118317 76.0
232.145615 56.0
232.203232 168.0
232.291183 228.0
232.722122 184.0
232.801071 168.0
232.968124 184.0
233.075058 116.0
233.116776 108.0
233.235535 148.0
233.335846 108.0
233.378418 144.0
233.411865 132.0
233.448349 128.0
233.814667 144.0
233.916885 112.0
233.965591 180.0
234.091949 240.0
234.215012 128.0
234.416367 164.0
234.452942 108.0
234.565704 172.0
234.742538 92.0
234.910278 148.0
235.100204 632.0
235.206268 284.0
235.291351 156.0
235.502441 240.0
235.563446 136.0
235.569916 132.0
235.719345 108.0
235.74379 192.0
235.774155 184.0
235.973038 148.0
236.028076 192.0
236.127686 17404.0
236.186142 132.0
236.220749 68.0
236.242157 36.0
236.273621 204.0
236.330872 152.0
236.397598 204.0
236.445694 92.0
236.471405 144.0
236.522324 180.0
236.552795 164.0
236.633881 36.0
236.658371 140.0
236.691055 208.0
236.7332 156.0
236.782471 152.0
236.845856 172.0
236.912842 136.0
237.004486 80.0
237.05658 56.0
237.128494 3376.0
237.173035 104.0
237.208191 128.0
237.249985 152.0
237.328552 100.0
237.406036 136.0
237.483902 144.0
237.600601 104.0
237.725067 84.0
237.752686 124.0
237.807938 96.0
237.927643 84.0
237.991898 216.0
238.086121 264.0
238.123199 3784.0
238.194809 132.0
238.215698 144.0
238.26239 60.0
238.431396 180.0
238.526672 116.0
238.591751 92.0
238.637344 160.0
238.705399 128.0
238.779449 132.0
238.855682 44.0
238.901825 48.0
238.935669 52.0
238.975662 132.0
239.126923 1084.0
239.195084 148.0
239.271118 88.0
239.295746 40.0
239.520554 124.0
239.668427 112.0
239.699234 112.0
239.788605 64.0
239.881073 64.0
239.951981 100.0
240.10173 564.0
240.182739 168.0
240.399216 188.0
240.541199 76.0
240.606018 28.0
240.825256 96.0
240.964264 220.0
241.084595 132.0
241.12912 300.0
241.390808 88.0
241.465027 68.0
241.510315 212.0
241.529846 96.0
241.537018 132.0
241.754837 136.0
242.006561 112.0
242.062286 44.0
242.11673 1044.0
242.37204 188.0
242.440216 144.0
242.552673 192.0
242.585892 80.0
242.762009 164.0
242.802933 60.0
242.889771 100.0
243.101364 372.0
243.130554 152.0
243.30249 64.0
243.34285 28.0
243.58197 124.0
243.634781 152.0
243.716446 140.0
243.814728 96.0
243.824738 88.0
243.929993 88.0
244.121231 236.0
244.611221 140.0
244.938171 92.0
245.119202 340.0
245.365097 196.0
245.474228 88.0
245.676956 116.0
245.74559 104.0
246.094711 472.0
246.112625 148.0
246.295013 104.0
246.391861 112.0
246.435593 112.0
246.624878 84.0
246.788773 152.0
247.062134 148.0
247.100006 416.0
247.386765 140.0
247.486511 52.0
247.527206 128.0
247.843567 140.0
247.865509 128.0
248.009659 48.0
248.108795 1524.0
248.247925 104.0
248.29184 88.0
248.853516 160.0
248.976898 124.0
249.112381 1524.0
249.151871 76.0
249.360306 180.0
249.500717 188.0
249.598175 152.0
249.648483 56.0
249.859222 140.0
249.963058 76.0
250.054321 120.0
250.11998 1868.0
250.227448 128.0
250.381744 180.0
250.419525 36.0
250.441574 28.0
250.696762 48.0
250.728287 132.0
250.82283 104.0
251.122299 1564.0
251.289551 48.0
251.336884 92.0
251.415771 84.0
251.463104 44.0
251.715668 104.0
251.740921 52.0
251.76619 152.0
251.889359 176.0
252.129089 1124.0
252.19902 216.0
252.23378 148.0
252.265396 120.0
252.314819 76.0
252.338104 128.0
252.467743 156.0
252.603745 68.0
252.83847 156.0
252.872696 96.0
252.89801 96.0
252.980316 52.0
253.053131 48.0
253.133804 2816.0
253.328644 148.0
253.404678 76.0
253.487061 132.0
253.559952 28.0
253.698013 120.0
253.787247 68.0
253.813553 124.0
253.840652 176.0
254.13768 1716.0
254.403671 68.0
254.454453 196.0
254.524307 96.0
254.571945 76.0
254.746628 160.0
254.794281 64.0
254.965866 124.0
255.022034 172.0
255.113968 304.0
255.148407 288.0
255.242416 72.0
255.507584 152.0
255.550949 180.0
255.592316 136.0
255.745056 144.0
255.87558 88.0
256.022034 148.0
256.11322 148.0
256.142303 180.0
256.171753 116.0
256.464905 324.0
256.538208 140.0
256.614716 96.0
256.767792 180.0
256.837952 160.0
256.908112 176.0
257.03894 148.0
257.122223 340.0
257.281494 52.0
257.69986 48.0
257.741394 40.0
257.795715 192.0
257.830872 124.0
257.984711 92.0
258.06424 160.0
258.116638 584.0
258.224121 112.0
258.460846 184.0
258.496033 76.0
258.53125 184.0
258.601532 124.0
259.027496 164.0
259.096741 136.0
259.131622 192.0
259.238953 112.0
259.270996 48.0
259.504089 128.0
259.825714 260.0
259.867401 124.0
259.966888 108.0
260.106262 540.0
260.512543 168.0
260.711914 116.0
260.843689 88.0
260.974915 176.0
261.116089 1196.0
261.345367 180.0
261.380768 76.0
261.419373 124.0
261.541687 116.0
261.615723 68.0
261.918396 204.0
262.081299 64.0
262.123108 2200.0
262.279297 116.0
262.307922 176.0
262.50174 236.0
262.647644 172.0
262.930786 144.0
263.034058 92.0
263.066345 124.0
263.129242 1360.0
263.243927 132.0
263.285889 40.0
263.49585 132.0
263.663879 112.0
263.74469 68.0
263.783478 104.0
263.951569 132.0
264.127899 572.0
264.207092 44.0
264.275024 176.0
264.381805 132.0
264.453003 248.0
264.488617 40.0
264.650482 240.0
264.712433 156.0
265.000275 84.0
265.079407 92.0
265.134277 2060.0
265.285461 44.0
265.454071 112.0
265.557831 28.0
265.697327 44.0
265.778442 108.0
265.823853 188.0
265.869293 116.0
266.044556 124.0
266.140503 1652.0
266.41803 164.0
266.594421 136.0
266.638977 108.0
266.700439 92.0
266.801483 116.0
266.85025 88.0
266.970551 152.0
267.108887 280.0
267.151184 392.0
267.191742 124.0
267.741821 108.0
268.038269 64.0
268.10434 220.0
268.117798 196.0
268.160767 336.0
268.402374 84.0
268.429413 176.0
268.523987 84.0
268.833923 112.0
268.886139 48.0
268.925293 212.0
269.03302 160.0
269.114532 124.0
269.119232 276.0
269.170135 136.0
269.206055 164.0
269.268097 44.0
269.516388 120.0
269.630737 100.0
269.885712 124.0
269.938049 80.0
270.045959 172.0
270.068848 136.0
270.107819 400.0
270.144073 116.0
270.166992 116.0
270.238953 100.0
270.589142 100.0
270.942841 120.0
271.098297 100.0
271.152985 120.0
271.191895 68.0
271.22467 72.0
271.329559 124.0
271.496796 124.0
271.52301 160.0
271.700165 168.0
271.729675 288.0
271.916718 120.0
271.95282 144.0
272.077362 140.0
272.099274 220.0
272.125244 152.0
272.317261 176.0
272.984375 188.0
273.06662 36.0
273.123962 696.0
273.178436 112.0
273.527252 80.0
273.589783 124.0
273.621796 160.0
273.665497 44.0
273.764282 188.0
273.81369 36.0
273.928406 160.0
274.121704 984.0
274.510834 112.0
274.647552 180.0
274.838867 100.0
274.865265 72.0
274.980774 188.0
275.040192 72.0
275.091003 272.0
275.127289 880.0
275.205261 56.0
275.367065 48.0
275.485962 148.0
276.008148 140.0
276.096619 508.0
276.138 3596.0
276.236359 60.0
276.289276 64.0
276.325684 64.0
276.487823 156.0
276.5242 68.0
276.613586 64.0
276.686401 44.0
276.712891 28.0
276.746002 84.0
276.805603 44.0
276.875153 108.0
276.95462 276.0
277.070587 80.0
277.102295 380.0
277.143951 2116.0
277.200653 156.0
277.256134 96.0
277.295898 236.0
277.375427 48.0
277.518005 36.0
277.750122 100.0
277.892792 44.0
277.952515 80.0
278.038666 128.0
278.118835 220.0
278.152374 620.0
278.193481 164.0
278.281097 48.0
278.493622 84.0
278.619293 72.0
278.82254 72.0
278.988739 84.0
279.147675 800.0
279.387787 52.0
279.723907 40.0
279.760681 72.0
279.89035 148.0
280.030212 56.0
280.093597 156.0
280.130249 200.0
280.150909 352.0
280.35672 156.0
280.57373 104.0
280.656708 84.0
280.753418 108.0
281.020264 140.0
281.056976 112.0
281.122406 412.0
281.136261 288.0
281.16507 832.0
281.237183 132.0
281.574371 144.0
281.697968 32.0
281.802307 156.0
282.015411 156.0
282.055511 120.0
282.078918 132.0
282.114838 404.0
282.180176 184.0
282.23938 108.0
282.393219 132.0
282.516205 88.0
282.74115 80.0
282.801392 124.0
282.888428 276.0
283.042419 160.0
283.106903 140.0
283.13324 136.0
283.357269 64.0
283.782898 52.0
283.963989 132.0
284.125854 440.0
284.319611 172.0
284.836639 168.0
285.018066 116.0
285.075195 184.0
285.129486 464.0
285.26004 72.0
285.495392 96.0
285.531281 156.0
285.673645 68.0
285.788055 72.0
286.132996 412.0
286.340118 100.0
286.400726 148.0
286.612976 44.0
286.69046 68.0
286.754486 112.0
287.081207 88.0
287.088257 164.0
287.133545 376.0
287.39859 96.0
287.455963 168.0
287.641571 92.0
287.820496 176.0
287.987915 76.0
288.053528 48.0
288.137665 3064.0
288.273132 120.0
288.526642 156.0
288.640198 128.0
288.743042 120.0
288.844513 152.0
289.106934 464.0
289.14151 2048.0
289.572205 96.0
289.839813 40.0
289.97876 84.0
290.043152 72.0
290.119354 1568.0
290.152008 744.0
290.229614 40.0
290.296234 192.0
290.382233 240.0
290.4263 136.0
290.470398 72.0
290.589142 112.0
290.78595 72.0
290.897949 156.0
290.92511 100.0
290.982697 104.0
291.127411 600.0
291.180908 132.0
291.247711 228.0
291.366608 172.0
291.485504 52.0
291.543274 96.0
291.63504 148.0
291.757416 120.0
291.79483 164.0
291.913818 80.0
291.971619 32.0
292.091492 244.0
292.132324 560.0
292.206329 208.0
292.308411 68.0
292.985962 88.0
293.105377 264.0
293.131073 456.0
293.169769 172.0
293.210846 104.0
293.261963 104.0
293.377869 76.0
293.446045 56.0
293.555145 204.0
293.660858 104.0
293.766602 140.0
293.991791 116.0
294.066864 96.0
294.111481 344.0
294.152069 864.0
294.261444 40.0
294.292175 192.0
294.445831 156.0
294.513245 152.0
294.555145 44.0
294.602966 96.0
294.640533 44.0
294.762726 136.0
295.002777 176.0
295.109009 164.0
295.143433 456.0
295.248962 220.0
295.368652 48.0
295.409698 36.0
295.530975 200.0
295.810089 64.0
296.08548 120.0
296.125031 484.0
296.371735 40.0
296.789886 64.0
296.860138 136.0
296.940765 136.0
296.968201 136.0
297.139557 608.0
297.187744 44.0
297.486328 128.0
297.513794 168.0
297.767883 228.0
298.01178 124.0
298.039276 108.0
298.122986 284.0
298.1745 168.0
298.465485 136.0
299.046844 68.0
299.098083 136.0
299.143646 272.0
299.336029 132.0
299.401459 148.0
299.559906 132.0
299.587463 128.0
299.711487 164.0
299.828644 112.0
299.873444 116.0
299.928589 96.0
300.063049 100.0
300.200958 96.0
300.432037 40.0
300.576965 40.0
300.804718 200.0
300.984253 144.0
301.029144 152.0
301.106537 588.0
301.302002 120.0
301.651031 40.0
302.007172 80.0
302.114777 528.0
302.207825 140.0
302.232056 76.0
302.476898 112.0
302.633545 148.0
302.740875 132.0
303.110596 324.0
303.155975 140.0
303.224518 160.0
303.493774 72.0
303.558685 100.0
303.693939 100.0
303.825775 152.0
303.987091 232.0
304.058228 188.0
304.132538 2232.0
304.180389 244.0
304.267761 140.0
304.308167 104.0
304.467896 56.0
304.502625 196.0
304.530396 100.0
304.724945 92.0
304.906921 60.0
305.069 88.0
305.161835 1636.0
305.620636 148.0
305.837738 156.0
305.966522 48.0
306.109528 264.0
306.166687 1552.0
306.398346 44.0
306.433197 136.0
306.588501 56.0
306.677124 56.0
306.973236 128.0
307.057159 56.0
307.108002 420.0
307.113464 408.0
307.127502 312.0
307.174622 656.0
307.228058 140.0
307.293427 180.0
307.401794 76.0
307.556091 120.0
307.608856 100.0
307.682587 164.0
307.713165 48.0
308.127106 356.0
308.165375 1208.0
308.226593 68.0
308.362885 92.0
308.48172 76.0
308.674011 40.0
309.13147 504.0
309.173035 560.0
309.363251 76.0
309.398254 116.0
309.440277 92.0
309.47879 192.0
309.562836 68.0
309.643372 96.0
310.104858 128.0
310.147369 160.0
310.180481 188.0
310.217987 48.0
310.302124 128.0
310.368744 152.0
310.456421 116.0
310.561646 128.0
310.621246 96.0
310.80719 32.0
310.856323 80.0
311.059875 168.0
311.109039 80.0
311.148651 396.0
311.185272 224.0
311.535126 60.0
311.779907 140.0
311.804504 148.0
312.103302 164.0
312.150055 112.0
312.21933 124.0
312.53241 192.0
312.74707 228.0
312.997009 176.0
313.09906 164.0
313.240021 32.0
313.264679 144.0
313.373901 176.0
313.454926 124.0
313.803864 92.0
314.177704 72.0
314.414124 108.0
314.523529 128.0
315.088531 72.0
315.139404 200.0
315.258118 132.0
315.314667 76.0
315.374756 104.0
315.406555 44.0
315.813171 88.0
316.130981 768.0
316.188202 140.0
316.273163 68.0
316.379364 96.0
316.542206 40.0
316.627197 76.0
316.761322 120.0
316.839722 132.0
317.080688 152.0
317.135956 384.0
317.169922 180.0
317.215363 72.0
317.289795 132.0
317.325256 40.0
317.562836 212.0
317.828918 104.0
317.902557 232.0
318.137817 388.0
318.21933 52.0
318.546051 60.0
318.57782 68.0
318.826721 72.0
319.124359 148.0
319.171539 192.0
319.441833 40.0
319.527222 172.0
320.134552 604.0
320.159546 340.0
320.852051 132.0
320.983948 152.0
321.132263 804.0
321.155701 304.0
321.262146 96.0
321.297821 160.0
321.545898 160.0
321.63324 88.0
322.004578 120.0
322.144684 1440.0
322.243896 72.0
322.27829 136.0
322.43103 196.0
322.469025 160.0
322.493866 152.0
322.672791 172.0
322.776459 64.0
322.915924 112.0
323.145233 920.0
323.167206 676.0
323.36673 80.0
323.453033 184.0
323.613739 56.0
323.671021 208.0
323.785614 84.0
323.982605 100.0
324.110291 100.0
324.156677 620.0
324.55603 124.0
324.652863 88.0
324.950562 116.0
325.140076 128.0
325.165863 288.0
325.341766 112.0
325.514099 52.0
325.966705 192.0
326.063568 192.0
326.110138 48.0
326.144012 144.0
326.170654 128.0
326.35849 180.0
326.574249 192.0
326.610229 176.0
326.653595 136.0
327.142792 156.0
327.693787 208.0
327.819885 108.0
327.938812 132.0
328.021545 76.0
328.083008 68.0
328.129883 124.0
328.173859 140.0
328.387085 120.0
329.082336 184.0
329.161774 116.0
329.187073 220.0
329.880737 184.0
330.021729 172.0
330.151917 120.0
330.318298 84.0
330.52359 172.0
330.564301 80.0
330.71991 68.0
330.814026 160.0
330.951599 200.0
331.096466 68.0
331.151306 136.0
331.179749 208.0
331.483063 172.0
331.618164 144.0
331.799408 100.0
331.995209 136.0
332.117371 140.0
332.151855 312.0
332.383331 100.0
332.448639 88.0
332.52124 76.0
332.560272 164.0
332.604706 60.0
332.722961 140.0
333.036804 80.0
333.065857 116.0
333.161133 3104.0
333.369141 148.0
333.414642 76.0
333.472778 76.0
333.679993 100.0
333.716339 84.0
333.986725 80.0
334.090942 48.0
334.143921 1540.0
334.443909 108.0
334.662323 76.0
335.015594 72.0
335.14975 408.0
335.285217 60.0
335.456512 60.0
335.507568 140.0
335.678925 188.0
335.762787 92.0
335.791962 28.0
335.93631 160.0
336.050964 216.0
336.159821 8404.0
336.258972 48.0
336.295471 44.0
336.339264 76.0
336.473846 184.0
336.50354 188.0
336.667847 64.0
336.69342 64.0
336.762787 88.0
336.890656 40.0
336.950378 60.0
337.162903 1896.0
337.187256 1260.0
337.354736 124.0
337.486359 128.0
337.592407 88.0
337.647247 188.0
337.680176 80.0
337.749664 144.0
337.782562 64.0
337.90329 56.0
338.106232 232.0
338.127594 204.0
338.166412 620.0
338.193512 416.0
338.302185 108.0
338.390045 152.0
338.470612 64.0
338.499908 160.0
338.628082 108.0
338.855194 144.0
338.921143 64.0
339.008362 100.0
339.176453 472.0
339.259186 100.0
339.415955 92.0
339.448975 60.0
339.566315 232.0
339.682556 52.0
339.753387 64.0
339.808411 156.0
339.962524 80.0
340.024902 48.0
340.154541 704.0
340.219452 100.0
340.355286 68.0
340.461792 24.0
340.487488 196.0
340.531555 112.0
340.678497 108.0
340.807068 180.0
340.965088 144.0
341.020203 132.0
341.187164 336.0
341.259155 44.0
341.365784 72.0
341.446686 108.0
341.512878 120.0
341.586456 148.0
341.678436 164.0
342.132843 172.0
342.171722 100.0
342.199921 92.0
342.399872 168.0
342.466156 156.0
342.495636 128.0
342.690887 64.0
343.284302 104.0
343.315277 152.0
343.723267 104.0
343.845062 64.0
344.084991 68.0
344.461639 120.0
344.664856 132.0
344.797882 88.0
344.930939 52.0
345.326569 172.0
345.507812 132.0
345.722412 176.0
346.13501 152.0
346.306396 108.0
346.312592 184.0
346.892792 132.0
346.933594 104.0
347.052216 108.0
347.177887 624.0
347.590057 104.0
347.667969 152.0
348.098389 156.0
348.159027 4380.0
348.500427 64.0
348.704132 160.0
349.012665 168.0
349.05249 152.0
349.159393 1364.0
349.604095 52.0
350.009857 60.0
350.164062 1496.0
350.490356 48.0
350.538788 52.0
350.620789 104.0
350.740051 76.0
350.803406 76.0
350.915253 80.0
351.163361 580.0
351.234161 132.0
351.262085 44.0
351.329224 108.0
351.461945 148.0
351.504578 176.0
351.560547 120.0
351.780762 108.0
351.836761 144.0
352.051239 196.0
352.171692 224.0
352.186798 172.0
352.255005 116.0
352.553894 140.0
353.058075 152.0
353.124939 288.0
353.164154 140.0
353.223145 120.0
353.527435 168.0
353.619751 180.0
353.657166 112.0
353.687103 92.0
353.788177 140.0
353.848083 64.0
353.93045 172.0
354.012817 144.0
354.166473 948.0
354.22522 152.0
354.257568 220.0
354.338684 64.0
354.541046 112.0
354.589752 128.0
354.687195 108.0
354.803406 112.0
354.867157 60.0
355.176208 476.0
355.23468 128.0
355.429749 212.0
355.87265 32.0
356.060425 172.0
356.131165 176.0
356.185394 144.0
356.216156 172.0
356.432312 32.0
356.503693 132.0
356.834473 128.0
357.135315 128.0
357.180695 160.0
357.455078 56.0
357.62442 100.0
357.774994 176.0
357.812653 136.0
358.015961 132.0
358.144012 100.0
358.17038 128.0
358.377594 172.0
358.445404 176.0
358.637604 112.0
358.679962 172.0
358.75824 52.0
358.784607 76.0
358.860016 144.0
359.406921 156.0
359.973114 112.0
360.120392 216.0
360.146851 164.0
360.313049 208.0
360.53598 180.0
361.103058 156.0
361.269501 116.0
361.504089 92.0
361.56842 176.0
361.610046 156.0
362.17038 112.0
362.522736 80.0
362.556824 244.0
362.700867 92.0
363.034485 76.0
363.061035 104.0
363.168884 864.0
363.299988 180.0
363.421387 72.0
363.493469 40.0
363.605133 104.0
363.721191 112.0
363.766754 84.0
363.79834 160.0
363.97934 124.0
364.17099 316.0
364.438934 116.0
364.510468 136.0
364.602325 112.0
364.637604 104.0
364.760651 188.0
364.92923 100.0
364.955841 80.0
364.990082 44.0
365.024292 188.0
365.123688 176.0
365.185608 22276.0
365.282898 92.0
365.313354 36.0
365.39212 68.0
365.412262 88.0
365.489349 144.0
365.543701 80.0
365.586426 140.0
365.663727 96.0
365.711304 68.0
365.739532 108.0
365.823273 68.0
365.834198 76.0
365.847412 196.0
365.937866 76.0
366.01709 88.0
366.064301 84.0
366.188324 5008.0
366.296326 52.0
366.370392 184.0
366.405914 36.0
366.456299 176.0
366.508789 68.0
366.535461 40.0
366.604065 164.0
366.634552 36.0
366.692505 96.0
366.741241 156.0
366.821289 48.0
366.982513 120.0
367.137054 200.0
367.19281 1480.0
367.248352 112.0
367.286499 136.0
367.320831 216.0
367.469604 60.0
367.542084 100.0
367.580261 124.0
367.66684 64.0
367.721436 60.0
367.796417 100.0
367.897034 56.0
367.923767 128.0
367.992462 160.0
368.030884 68.0
368.065033 148.0
368.152466 2004.0
368.185638 3744.0
368.241364 156.0
368.332367 120.0
368.3591 112.0
368.403259 92.0
368.481323 196.0
368.528351 184.0
368.584503 84.0
368.626251 56.0
368.725891 128.0
368.829071 104.0
369.031708 64.0
369.18692 1576.0
369.300507 76.0
369.337616 40.0
369.37204 88.0
369.5336 52.0
369.676392 132.0
369.753784 136.0
369.815887 144.0
370.062897 76.0
370.137482 156.0
370.146332 128.0
370.191345 416.0
370.270874 144.0
370.327118 100.0
370.432373 80.0
370.535797 52.0
370.562622 56.0
370.911346 136.0
371.030182 120.0
371.119873 140.0
371.152863 148.0
371.18869 176.0
371.264069 112.0
371.336945 132.0
371.506683 92.0
371.640625 96.0
371.68219 100.0
371.812653 88.0
372.085205 48.0
372.115906 208.0
372.158142 128.0
372.200378 128.0
372.415436 104.0
372.507629 44.0
372.849579 92.0
372.926422 96.0
372.9841 164.0
373.014832 76.0
373.13562 180.0
373.314728 156.0
373.8302 160.0
374.17276 200.0
374.384521 48.0
375.232239 200.0
375.286194 156.0
375.363312 48.0
375.706573 116.0
376.080872 188.0
376.181244 132.0
377.042542 108.0
377.073486 192.0
377.108246 60.0
377.158508 132.0
377.490997 104.0
377.835205 116.0
378.028137 84.0
378.156403 104.0
378.615265 160.0
378.733276 28.0
378.926971 96.0
378.996704 48.0
379.023834 172.0
379.093597 76.0
379.20459 612.0
379.240845 40.0
379.523834 52.0
379.969879 96.0
380.004791 144.0
380.120087 196.0
380.186096 2256.0
380.295837 68.0
380.392853 56.0
380.614166 52.0
380.785034 80.0
380.831635 116.0
380.889893 108.0
380.963684 84.0
381.029724 96.0
381.184692 896.0
381.44165 84.0
381.554382 36.0
381.663269 76.0
381.725464 144.0
381.834351 120.0
382.083313 56.0
382.192047 936.0
382.503571 72.0
382.892914 52.0
383.192169 516.0
383.266876 76.0
383.301941 84.0
383.730682 92.0
383.808685 76.0
383.843781 104.0
383.890564 72.0
383.964661 120.0
384.085571 180.0
384.140076 156.0
384.144684 156.0
384.491333 60.0
384.799683 108.0
384.951965 112.0
385.158112 120.0
385.584839 96.0
385.627838 80.0
385.725555 104.0
385.803711 80.0
386.117371 168.0
386.193237 496.0
386.26123 60.0
386.323822 104.0
386.47641 84.0
386.597717 76.0
386.773834 88.0
386.801239 64.0
386.848206 128.0
387.151794 276.0
387.691986 92.0
387.749084 64.0
388.17746 160.0
388.227356 88.0
388.258728 156.0
388.58429 100.0
388.827576 164.0
389.000275 156.0
389.059174 72.0
389.337952 40.0
389.895782 84.0
389.931152 64.0
389.962616 164.0
390.288879 200.0
390.438324 128.0
390.776581 164.0
390.831665 76.0
390.902496 172.0
391.154388 172.0
391.307922 208.0
391.378784 140.0
391.410278 196.0
391.796265 120.0
392.150909 120.0
392.623993 40.0
392.836975 92.0
392.915894 76.0
393.053986 76.0
393.182251 116.0
393.781982 100.0
393.847473 76.0
393.910675 84.0
394.072662 132.0
394.159576 44.0
394.199097 84.0
394.48761 132.0
394.598297 104.0
394.657623 68.0
394.863251 120.0
395.009583 96.0
395.147034 328.0
395.19696 1252.0
395.262939 100.0
395.302338 56.0
395.470306 136.0
395.575439 184.0
395.626801 100.0
395.662537 168.0
395.698151 32.0
395.832794 100.0
395.939697 124.0
396.022858 148.0
396.110016 80.0
396.197388 636.0
396.276398 136.0
396.335815 140.0
396.391296 124.0
396.426971 68.0
396.462646 108.0
396.551788 88.0
396.589447 140.0
396.627777 60.0
396.692505 160.0
396.736115 176.0
396.780365 148.0
396.87085 184.0
396.934357 108.0
396.991425 112.0
397.06015 180.0
397.097412 152.0
397.14386 356.0
397.213074 66140.0
397.32016 228.0
397.374207 112.0
397.452301 184.0
397.512115 128.0
397.582794 112.0
397.626587 152.0
397.670563 152.0
397.77594 88.0
397.812805 184.0
397.875977 204.0
397.925232 104.0
397.987579 120.0
398.049805 152.0
398.121216 88.0
398.135742 80.0
398.152405 140.0
398.214539 18536.0
398.303558 124.0
398.332062 68.0
398.365021 176.0
398.394989 172.0
398.44165 168.0
398.54425 184.0
398.593567 124.0
398.647522 76.0
398.682983 72.0
398.730225 124.0
398.814117 64.0
398.873962 84.0
398.944275 116.0
399.05545 76.0
399.098358 96.0
399.131775 128.0
399.21817 3108.0
399.336975 116.0
399.488098 52.0
399.560577 164.0
399.597137 108.0
399.609985 44.0
399.626068 88.0
399.67688 108.0
399.726837 64.0
399.808258 60.0
399.819611 88.0
399.912354 128.0
400.025055 104.0
400.090912 92.0
400.103851 44.0
400.12265 124.0
400.164978 140.0
400.226837 212.0
400.29483 260.0
400.349945 128.0
400.395599 108.0
400.431458 44.0
400.466278 104.0
400.499481 104.0
400.612183 128.0
400.640045 68.0
400.68045 140.0
400.745636 184.0
400.811981 112.0
400.92868 84.0
401.021118 120.0
401.108795 72.0
401.140686 152.0
401.176544 52.0
401.227997 160.0
401.343994 52.0
401.427734 68.0
401.455658 84.0
401.51947 40.0
401.60321 76.0
401.651093 228.0
401.730865 108.0
401.836029 132.0
401.900757 124.0
401.97821 48.0
402.060272 76.0
402.091736 84.0
402.15506 1304.0
402.613129 84.0
402.644897 56.0
402.688812 96.0
402.800659 64.0
402.835205 80.0
402.88855 56.0
402.972443 44.0
403.057251 52.0
403.088318 88.0
403.155182 424.0
403.230652 116.0
403.316101 68.0
403.481384 140.0
403.699921 84.0
404.16806 1084.0
404.231934 100.0
404.299957 112.0
404.347992 48.0
404.448059 96.0
404.720276 140.0
404.9245 84.0
405.00061 204.0
405.172089 644.0
405.216919 52.0
405.264984 80.0
405.681793 44.0
405.737915 56.0
405.778015 56.0
405.842163 40.0
405.874237 76.0
406.140686 128.0
406.158112 56.0
406.173706 172.0
406.479919 80.0
407.154327 104.0
407.246704 60.0
407.42746 52.0
407.604248 116.0
407.81723 104.0
407.857422 108.0
408.078522 28.0
408.203156 188.0
408.722076 40.0
409.064148 76.0
409.539276 88.0
409.716522 124.0
410.187988 108.0
411.038971 64.0
411.115631 228.0
411.164062 104.0
411.204407 140.0
411.420013 164.0
411.450653 52.0
411.519287 40.0
411.671509 40.0
411.741364 76.0
412.290802 80.0
412.509064 168.0
412.65863 80.0
413.067078 128.0
413.156067 140.0
413.207428 1904.0
413.342194 136.0
413.398834 48.0
413.455505 48.0
413.56073 132.0
413.659119 116.0
413.98175 172.0
414.030365 148.0
414.08194 136.0
414.158112 140.0
414.211639 488.0
414.263214 196.0
414.305786 44.0
414.435425 36.0
414.467834 88.0
414.60968 144.0
414.844757 36.0
415.010986 64.0
415.21405 136.0
415.270508 84.0
415.469269 56.0
415.789825 44.0
416.025238 64.0
416.16275 572.0
416.224182 172.0
416.401917 140.0
416.455658 56.0
416.646576 84.0
416.764374 128.0
416.805023 84.0
417.148865 152.0
418.149567 144.0
418.164124 168.0
418.269073 100.0
418.391205 92.0
418.684357 100.0
418.830994 96.0
419.144684 144.0
420.155823 140.0
421.125092 132.0
422.17627 320.0
422.439392 44.0
422.558044 48.0
423.188324 60.0
423.221069 72.0
423.450409 112.0
423.720764 124.0
423.942017 128.0
423.978882 156.0
424.056763 116.0
424.454407 108.0
424.483124 108.0
424.725067 28.0
424.774292 48.0
425.796295 56.0
426.174316 148.0
426.568756 96.0
426.80307 40.0
426.97168 112.0
427.247253 104.0
427.477661 132.0
427.759583 40.0
427.905731 172.0
428.404053 104.0
428.668579 172.0
428.778992 144.0
428.820221 108.0
429.121124 136.0
429.376801 100.0
429.517029 132.0
430.396057 96.0
430.441467 104.0
430.590149 120.0
430.978424 72.0
431.26358 164.0
431.722473 68.0
432.049225 108.0
432.163208 340.0
432.260254 56.0
432.479584 72.0
432.562378 112.0
432.897736 68.0
432.97226 148.0
433.075806 116.0
433.129639 84.0
433.187653 116.0
433.241486 164.0
433.287079 116.0
433.407227 76.0
433.809235 100.0
433.858978 84.0
434.028961 180.0
434.178894 1876.0
434.307556 112.0
434.410492 80.0
434.476868 36.0
434.583008 172.0
434.955688 168.0
435.185272 748.0
435.236389 132.0
435.323608 72.0
435.606018 132.0
435.757233 80.0
435.938385 140.0
436.042297 44.0
436.084106 128.0
436.196045 4568.0
436.337402 156.0
436.457977 60.0
436.599365 92.0
436.653076 48.0
436.728302 36.0
436.760162 208.0
436.941437 136.0
437.052795 108.0
437.119354 60.0
437.199677 1304.0
437.306641 52.0
437.348236 40.0
437.427338 60.0
437.504547 124.0
437.543884 48.0
437.906158 40.0
437.956146 100.0
438.026947 48.0
438.060272 84.0
438.199585 280.0
438.335266 128.0
438.464447 124.0
438.672852 104.0
438.973022 112.0
439.177368 120.0
439.210754 156.0
439.263428 76.0
439.473572 108.0
439.698883 108.0
439.819916 88.0
440.634216 48.0
440.930908 124.0
441.595642 140.0
441.683502 60.0
441.967957 48.0
442.039093 28.0
442.11441 152.0
442.156281 60.0
442.78006 148.0
442.868011 80.0
443.006256 88.0
443.161255 68.0
443.266571 60.0
444.185638 112.0
444.276428 124.0
444.482025 144.0
444.964691 80.0
445.380432 76.0
445.451843 68.0
445.690186 152.0
445.867798 240.0
445.926636 192.0
446.010681 164.0
446.225067 152.0
446.405884 104.0
446.439514 160.0
446.620361 176.0
446.685791 160.0
446.851746 84.0
446.885406 56.0
447.045288 140.0
447.167328 68.0
447.213623 64.0
447.280975 88.0
447.362518 84.0
447.470398 124.0
447.527985 200.0
447.624084 200.0
447.660736 120.0
447.697784 116.0
447.748322 108.0
447.828339 36.0
447.89151 116.0
447.937866 208.0
447.975769 68.0
448.060028 208.0
448.091309 316.0
448.10437 136.0
448.12262 252.0
448.197205 19964.0
448.296295 144.0
448.332642 120.0
448.347992 184.0
448.413971 68.0
448.447693 68.0
448.502106 136.0
448.567291 128.0
448.595001 76.0
448.692169 44.0
448.75119 40.0
448.784943 132.0
448.83551 48.0
448.905243 164.0
448.975769 88.0
449.050598 152.0
449.078796 104.0
449.198608 5532.0
449.312134 168.0
449.351685 128.0
449.45755 76.0
449.57962 180.0
449.641235 92.0
449.687683 68.0
449.736084 68.0
449.797394 92.0
449.881165 76.0
450.021149 76.0
450.05072 136.0
450.109833 28.0
450.202148 1632.0
450.299866 60.0
450.358978 40.0
450.477264 100.0
450.650452 64.0
450.701172 132.0
450.789917 88.0
450.853302 84.0
450.885193 68.0
451.010864 112.0
451.094208 80.0
451.211243 356.0
451.259064 36.0
451.36203 60.0
451.411285 116.0
451.445129 56.0
451.526642 116.0
451.580444 60.0
451.694641 76.0
451.761169 276.0
451.935791 88.0
451.969635 52.0
452.007721 72.0
452.0979 128.0
452.196442 108.0
452.312439 116.0
452.422485 228.0
452.541046 32.0
452.642212 76.0
452.701935 116.0
452.735809 52.0
452.951813 100.0
452.998413 60.0
453.070435 100.0
453.176361 84.0
453.434845 56.0
453.608612 28.0
454.134399 32.0
454.244659 104.0
454.694427 76.0
454.872681 32.0
455.131653 76.0
455.428925 36.0
455.824005 156.0
456.167908 92.0
456.784851 32.0
457.001801 112.0
457.742432 40.0
457.882965 116.0
458.066101 72.0
458.201019 120.0
458.675446 44.0
458.769226 156.0
459.007965 80.0
459.349152 76.0
459.703278 124.0
460.411926 232.0
460.783539 100.0
460.877533 80.0
461.569977 52.0
462.036163 40.0
462.091797 76.0
462.254364 152.0
462.329041 80.0
462.369904 64.0
462.427917 104.0
462.977814 124.0
463.063477 72.0
463.16626 84.0
463.23053 116.0
463.778992 80.0
463.954742 80.0
463.99762 240.0
464.139099 76.0
464.662354 124.0
464.945557 100.0
465.812836 104.0
466.487488 116.0
467.106689 92.0
467.240051 100.0
467.640228 116.0
468.238678 124.0
468.772858 84.0
469.253418 104.0
470.187347 144.0
470.873779 32.0
471.19342 92.0
471.487244 124.0
471.802795 84.0
472.005981 100.0
473.031342 92.0
473.195831 60.0
474.010132 76.0
475.206818 128.0
475.425964 176.0
476.214935 136.0
476.817841 100.0
477.522125 36.0
478.122528 68.0
478.731964 80.0
479.062988 100.0
479.768951 56.0
479.882294 72.0
480.248627 128.0
480.379456 140.0
480.501617 68.0
481.352722 176.0
481.461914 80.0
481.802582 220.0
482.182739 144.0
483.209137 140.0
484.475525 68.0
486.146027 180.0
486.206909 176.0
487.18222 84.0
487.832581 48.0
488.294281 36.0
488.910187 156.0
489.130249 28.0
489.685028 108.0
490.310608 160.0
490.583893 56.0
490.747009 136.0
491.863129 60.0
492.291382 72.0
492.600555 104.0
492.702148 44.0
493.462311 80.0
494.125702 128.0
494.400024 120.0
494.466431 168.0
494.926788 44.0
494.957794 92.0
495.157074 60.0
496.814819 76.0
496.92572 104.0
497.502655 88.0
497.569244 52.0
497.906708 92.0
498.20874 108.0
499.208801 140.0
499.359985 168.0
500.321136 68.0
502.455811 44.0
503.143097 68.0
503.428833 132.0
503.723633 72.0
503.879974 112.0
504.143585 48.0
504.688934 48.0
504.720245 140.0
504.791779 156.0
505.453796 56.0
505.740204 116.0
506.138 84.0
506.201324 120.0
508.62677 92.0
508.712067 88.0
509.286804 176.0
510.365356 208.0
510.441772 32.0
510.963531 152.0
512.300598 112.0
513.233459 140.0
513.65741 120.0
514.049927 64.0
514.225952 36.0
514.72699 100.0
514.826355 96.0
515.246399 32.0
515.760864 148.0
516.222717 180.0
517.082275 48.0
517.236145 164.0
518.246033 136.0
518.903198 76.0
518.998413 164.0
519.066406 116.0
519.202454 84.0
520.05542 104.0
520.513916 96.0
520.704651 80.0
521.867981 92.0
521.958862 124.0
522.481934 124.0
523.333008 88.0
523.688171 132.0
524.759094 148.0
525.945129 88.0
526.511292 132.0
527.64447 68.0
528.206909 96.0
528.289307 60.0
529.20282 128.0
530.195862 156.0
530.6203 44.0
530.867859 60.0
531.010071 140.0
531.202271 136.0
531.395386 92.0
531.748718 120.0
532.157227 164.0
532.244507 64.0
532.621094 92.0
533.057495 68.0
533.243835 160.0
533.512512 132.0
533.662292 76.0
534.068909 112.0
534.216125 140.0
534.722229 132.0
535.108948 152.0
535.491089 104.0
535.749084 84.0
536.283569 108.0
536.749207 112.0
537.090454 108.0
537.12738 36.0
537.870239 148.0
538.331909 128.0
538.484314 68.0
538.826172 136.0
538.96936 92.0
539.168091 96.0
540.379578 140.0
541.120056 68.0
542.190063 112.0
542.917908 60.0
543.1745 112.0
543.213196 108.0
544.885986 84.0
545.227905 496.0
545.880676 120.0
546.06665 132.0
546.173645 104.0
546.234131 96.0
546.499268 160.0
547.039124 88.0
547.220886 172.0
547.467468 44.0
548.035767 136.0
548.11499 160.0
548.209595 440.0
548.249573 180.0
549.199524 124.0
549.242554 176.0
549.719055 112.0
549.905701 156.0
550.167114 92.0
550.274475 80.0
550.549988 148.0
551.01709 88.0
551.247253 164.0
551.760132 64.0
552.218384 144.0
552.419556 88.0
553.219727 48.0
553.275879 232.0
555.117249 116.0
555.994507 56.0
556.811401 40.0
557.267029 144.0
558.080139 84.0
559.230408 576.0
559.331482 92.0
560.235779 240.0
561.074463 64.0
561.240234 144.0
562.758728 180.0
562.947632 64.0
563.048401 116.0
563.216797 100.0
563.259338 108.0
563.585266 124.0
563.67981 168.0
564.246948 124.0
564.625244 144.0
565.263855 112.0
565.424744 52.0
566.242004 128.0
566.892822 48.0
567.101379 68.0
567.263306 144.0
567.599121 44.0
567.817261 108.0
569.017761 180.0
569.240906 148.0
569.582886 176.0
569.61615 68.0
570.918396 68.0
571.389282 128.0
571.603394 68.0
573.222046 152.0
573.765747 84.0
574.089966 88.0
574.461975 52.0
574.686218 204.0
575.115723 168.0
575.229187 300.0
575.269775 132.0
575.330505 92.0
575.817566 52.0
575.989502 148.0
576.253784 124.0
576.591492 124.0
576.725342 112.0
577.059814 124.0
577.169922 64.0
577.252197 5280.0
577.334534 168.0
577.38739 216.0
577.454346 92.0
577.576416 68.0
577.705566 48.0
577.767761 76.0
577.923035 140.0
578.073975 36.0
578.189819 136.0
578.255005 1392.0
578.35321 152.0
578.492371 96.0
578.562195 124.0
578.672302 36.0
578.897339 100.0
579.170288 60.0
579.243469 640.0
579.400269 48.0
579.505676 52.0
579.884216 36.0
580.240784 112.0
580.301941 168.0
580.338501 112.0
580.996643 112.0
581.250122 336.0
581.649292 104.0
581.687683 156.0
581.942139 116.0
582.187012 76.0
582.249451 112.0
582.676941 48.0
583.056519 140.0
584.282654 96.0
585.341553 96.0
585.996582 56.0
586.488098 72.0
586.719482 40.0
588.152161 128.0
588.277649 92.0
588.364563 116.0
588.538391 164.0
588.775024 156.0
588.818481 36.0
589.016479 120.0
589.050293 80.0
589.881409 84.0
590.069946 176.0
590.55835 168.0
590.955017 140.0
591.206665 108.0
591.264648 188.0
591.275391 416.0
591.351868 172.0
591.719727 232.0
591.855286 112.0
592.26355 532.0
592.344421 104.0
592.993713 124.0
593.248596 432.0
593.318481 52.0
593.392151 100.0
593.745178 128.0
594.021606 100.0
594.261414 240.0
594.34668 80.0
594.705811 100.0
595.244629 52.0
595.385498 100.0
595.725464 200.0
596.303711 116.0
596.362 88.0
596.571045 132.0
597.028076 172.0
597.212891 68.0
597.363647 56.0
597.855042 240.0
598.078918 64.0
598.741089 136.0
598.877441 160.0
598.935913 52.0
599.621033 104.0
599.876343 80.0
600.173706 116.0
600.427307 44.0
600.578491 44.0
601.652039 88.0
601.979126 52.0
602.243958 92.0
602.355225 92.0
602.545715 64.0
602.702087 68.0
603.073486 76.0
603.577026 136.0
603.811768 140.0
604.03186 88.0
604.256897 168.0
604.39386 96.0
605.19165 160.0
605.309204 140.0
605.54425 100.0
605.612854 44.0
605.783508 128.0
605.987976 136.0
606.186035 108.0
606.358398 92.0
606.465332 68.0
606.525879 100.0
606.61731 156.0
606.685913 132.0
606.787598 132.0
606.911438 48.0
606.978088 108.0
607.043884 136.0
607.108887 168.0
607.263977 764.0
607.344116 108.0
607.386963 96.0
607.465637 112.0
607.5 120.0
607.570374 208.0
607.632446 124.0
607.680786 56.0
607.735474 168.0
607.815002 128.0
607.922668 120.0
608.000427 52.0
608.067017 148.0
608.106201 124.0
608.14447 164.0
608.257202 552.0
608.392212 152.0
608.462463 208.0
608.501099 116.0
608.564941 104.0
608.658264 96.0
608.723816 112.0
608.732971 144.0
608.844482 324.0
608.9151 356.0
608.958984 132.0
609.026245 128.0
609.040283 60.0
609.074463 176.0
609.129517 120.0
609.185791 272.0
609.280334 41524.0
609.43335 208.0
609.485107 104.0
609.590332 352.0
609.599304 48.0
609.690002 156.0
609.75354 68.0
609.769409 40.0
609.810303 216.0
609.865112 144.0
609.94458 280.0
609.992493 296.0
610.027039 188.0
610.101562 140.0
610.121948 92.0
610.136108 240.0
610.197693 100.0
610.282043 19728.0
610.424866 136.0
610.466553 128.0
610.503357 216.0
610.559998 132.0
610.630615 100.0
610.68158 132.0
610.740784 84.0
610.7771 260.0
610.830505 140.0
610.924683 84.0
610.977539 76.0
611.035645 40.0
611.093689 152.0
611.184692 120.0
611.285706 3556.0
611.394775 144.0
611.45166 48.0
611.504578 40.0
611.568542 116.0
611.616028 148.0
611.665771 132.0
611.763489 80.0
611.814636 68.0
611.888489 88.0
611.922974 60.0
612.009888 92.0
612.092834 64.0
612.193787 36.0
612.293762 616.0
612.385864 28.0
612.452209 164.0
612.553345 48.0
612.639893 84.0
612.779907 40.0
612.82428 64.0
612.858765 48.0
612.974304 72.0
613.050964 168.0
613.10022 56.0
613.16571 96.0
613.230835 112.0
613.278625 116.0
613.326904 28.0
613.376038 84.0
613.403625 144.0
613.4823 84.0
613.559814 128.0
613.596191 160.0
613.637512 60.0
613.681885 72.0
613.741028 104.0
613.78894 132.0
613.864319 108.0
613.915833 124.0
613.972778 72.0
614.032715 56.0
614.101013 32.0
614.15033 52.0
614.194763 96.0
614.249023 48.0
614.311157 80.0
614.437012 104.0
614.485779 72.0
614.583679 112.0
614.779724 120.0
614.864929 124.0
615.043396 80.0
615.082886 88.0
615.250732 88.0
615.319885 60.0
615.459106 40.0
615.522278 112.0
615.591431 100.0
615.63092 72.0
615.71698 60.0
615.769226 60.0
615.818604 96.0
616.03595 92.0
616.431213 108.0
616.968323 100.0
617.25177 96.0
617.691895 20.0
617.944214 56.0
619.280762 64.0
619.355042 92.0
619.850464 116.0
620.727844 56.0
620.91626 60.0
621.466858 64.0
621.610779 64.0
622.196472 64.0
622.24115 32.0
622.608582 68.0
622.891663 40.0
622.941345 64.0
623.234497 40.0
624.12915 76.0
624.303162 76.0
624.417542 44.0
625.034424 44.0
625.532104 52.0
626.891785 108.0
627.210754 80.0
628.272888 84.0
628.452515 56.0
628.692017 88.0
629.201111 116.0
629.750427 48.0
630.140015 44.0
630.429871 72.0
630.864685 104.0
631.554749 60.0
632.84082 84.0
633.25647 44.0
633.592041 60.0
634.454041 72.0
634.754883 72.0
634.860168 112.0
635.135986 40.0
635.34668 88.0
635.672791 76.0
636.511108 92.0
636.927917 88.0
640.584839 64.0
641.365845 48.0
641.592712 256.0
642.157471 60.0
644.833313 80.0
646.178345 60.0
646.289673 108.0
647.053894 116.0
648.563477 48.0
651.00885 36.0
652.218018 48.0
653.341797 108.0
656.295715 116.0
658.515564 76.0
660.754456 136.0
660.867004 48.0
661.419739 64.0
661.742249 56.0
663.068909 72.0
663.386719 64.0
665.505554 52.0
666.193726 136.0
667.627747 36.0
667.967163 84.0
669.825378 104.0
674.009399 48.0
674.795044 132.0
675.306946 56.0
676.823242 52.0
677.139099 68.0
677.698547 104.0
682.467041 76.0
683.524353 96.0
684.336304 64.0
685.883545 108.0
686.107666 44.0
686.842957 84.0
687.604675 40.0
687.923096 84.0
689.150391 32.0
692.330688 84.0
693.493774 96.0
693.955078 48.0
694.752258 40.0
694.993591 56.0
700.982666 56.0
701.28302 76.0
701.483337 72.0
702.026367 112.0
705.215088 56.0
705.627441 92.0
705.949951 72.0
706.484192 100.0
707.182617 80.0
709.529236 72.0
709.831482 68.0
712.628662 56.0
713.835266 136.0
714.399048 100.0
719.146729 168.0
720.802246 76.0
723.487122 84.0
724.038635 84.0
725.855225 76.0
727.0354 72.0
727.711731 104.0
730.646179 132.0
732.013245 92.0
741.071472 52.0
742.30188 76.0
743.110046 64.0
743.196838 96.0
745.444824 52.0
746.689758 52.0
750.278076 72.0
753.678223 76.0
755.728638 76.0
757.622864 56.0
759.26178 48.0
761.149475 84.0
761.555847 96.0
764.359558 116.0
764.629211 32.0
766.562134 40.0
773.266418 48.0
776.734924 232.0
776.818115 52.0
777.733643 164.0
779.360779 32.0
780.172241 56.0
780.939575 52.0
781.490295 80.0
787.421448 160.0
788.723267 100.0
790.401001 88.0
791.391724 88.0
793.307739 96.0
801.310364 64.0
801.907715 104.0
803.300415 96.0
807.955261 76.0
810.843018 36.0
814.150513 80.0
815.724304 244.0
815.900513 140.0
816.747803 56.0
817.299622 176.0
817.61261 96.0
818.996094 136.0
819.081543 108.0
820.500488 56.0
822.588379 40.0
826.754944 80.0
828.444031 48.0
829.143066 52.0
830.174927 92.0
831.597717 40.0
832.275146 56.0
832.705811 76.0
838.441711 36.0
840.517639 96.0
841.187134 72.0
844.307129 140.0
844.94342 40.0
845.226868 156.0
845.985046 172.0
848.713806 180.0
849.456177 52.0
851.313416 44.0
856.011963 248.0
861.120605 196.0
862.055359 100.0
866.877197 120.0
867.334351 52.0
868.114075 56.0
869.228638 44.0
875.335999 100.0
881.358459 116.0
883.942383 52.0
884.356689 56.0
886.518311 96.0
887.253296 60.0
895.298462 144.0
897.31842 68.0
905.94812 72.0
906.181763 64.0
907.668213 92.0
908.25592 92.0
908.441895 72.0
913.066772 80.0
914.799683 180.0
916.793274 36.0
917.896423 56.0
919.494995 76.0
919.790771 44.0
923.004761 96.0
923.422058 60.0
925.794373 84.0
932.449524 52.0
932.85675 80.0
933.282349 44.0
933.908691 132.0
934.218933 140.0
934.675232 160.0
936.263977 144.0
941.649109 172.0
944.344421 48.0
946.516907 60.0
949.170105 92.0
950.378479 116.0
952.416565 228.0
953.934326 136.0
954.229431 148.0
955.102661 96.0
962.584412 196.0
962.660217 44.0
967.078857 140.0
967.134521 144.0
967.382141 52.0
968.955139 176.0
969.661499 120.0
969.92804 184.0
970.293762 52.0
974.041931 80.0
975.234924 48.0
976.944946 80.0
979.490906 44.0
981.522583 204.0
982.869873 172.0
988.474854 192.0
992.201538 264.0
993.267578 132.0
993.384949 224.0
996.569702 88.0
998.065613 56.0
999.461975 204.0
1000.481567 168.0
1001.199341 152.0
1002.503357 56.0
1005.966003 136.0
1007.570007 108.0
1009.466187 112.0
1010.079651 88.0
1013.213196 160.0
1015.393677 40.0
1016.916321 76.0
1019.386719 156.0
1019.99054 136.0
1020.257507 160.0
1022.80835 172.0
1023.069336 248.0
1025.419678 52.0
1026.930786 164.0
1026.988159 144.0
1029.151489 172.0
1033.882935 108.0
1035.341309 208.0
1036.641846 40.0
1039.334961 164.0
1046.572388 140.0
1046.746216 64.0
1046.945801 156.0
1047.705811 160.0
1049.652344 108.0
1051.142334 108.0
1052.226685 128.0
1052.362305 60.0
1053.498901 188.0
1055.049927 144.0
1056.783203 156.0
1059.165527 160.0
1060.441895 76.0
1061.349487 108.0
1062.004395 216.0
1063.237183 36.0
1067.036987 84.0
1068.890747 140.0
1072.322632 208.0
1077.516846 148.0
1078.673462 108.0
1079.745728 172.0
1082.762817 60.0
1086.00708 184.0
1092.010132 28.0
1092.731567 176.0
1093.306152 60.0
1094.398926 180.0
1095.518433 60.0
1099.712158 112.0
1101.693115 132.0
1101.759155 268.0
1101.977173 104.0
1102.816406 168.0
1103.543579 68.0
1105.693359 140.0
1105.984619 152.0
1111.000854 156.0
1111.969604 140.0
1112.925537 104.0
1113.290649 200.0
1114.519531 88.0
1114.698975 156.0
1116.839722 208.0
1118.583008 188.0
1119.535156 160.0
1120.727417 156.0
1120.940674 128.0
1121.247192 144.0
1122.24707 40.0
1122.967285 124.0
1124.975708 160.0
1127.005981 176.0
1127.467041 56.0
1131.112183 40.0
1132.324097 96.0
1132.81311 136.0
1133.911987 172.0
1134.877197 216.0
1135.192383 176.0
1137.254395 120.0
1139.158936 136.0
1147.328491 44.0
1147.834229 152.0
1148.306274 140.0
1148.636719 48.0
1150.188721 88.0
1150.364258 144.0
1151.957886 168.0
1152.417236 184.0
1154.431641 208.0
1154.898193 68.0
1155.324341 112.0
1156.373169 244.0
1157.971069 140.0
1158.675537 160.0
1159.298828 152.0
1159.522461 64.0
1160.952881 108.0
1161.380249 136.0
1161.58374 192.0
1164.230713 136.0
1165.956177 108.0
1167.9823 68.0
1168.213623 148.0
1169.465576 96.0
1172.843994 112.0
1173.791504 132.0
1173.975708 88.0
1174.957886 112.0
1175.879028 144.0
1175.92688 208.0
1176.145264 136.0
1177.503906 164.0
1177.702026 148.0
1179.69812 128.0
1180.599731 216.0
1180.866455 108.0
1181.714722 96.0
1182.241577 192.0
1183.751953 196.0
1184.411987 76.0
1188.243896 120.0
1189.211548 152.0
1189.987183 140.0
1190.035278 64.0
1192.254028 188.0
1192.398315 152.0
1193.140625 168.0
1197.847656 168.0
1200.073608 156.0
1200.239136 168.0
1200.466675 144.0
1200.894287 64.0
1201.753052 240.0
1202.83313 176.0
1203.067749 104.0
1207.586792 176.0
1208.963501 148.0
1209.261108 80.0
1214.325806 216.0
1214.783569 96.0
1215.109619 212.0
1215.283081 144.0
1215.560547 112.0
1216.060303 192.0
1216.476685 84.0
1217.664062 160.0
1218.233643 148.0
1218.317017 188.0
1218.511475 156.0
1218.907593 136.0
1218.990967 212.0
1220.547974 160.0
1221.076416 144.0
1221.347778 188.0
1222.488647 72.0
1222.560425 208.0
1223.19165 44.0
1223.254272 128.0
1223.978394 132.0
1224.403076 148.0
1225.204102 204.0
1225.935791 180.0
1226.089111 108.0
1226.228516 168.0
1228.131836 116.0
1229.506348 140.0
1230.30896 188.0
1231.070068 172.0
1231.845337 180.0
1232.676758 156.0
1234.543091 92.0
1235.305542 128.0
1236.243042 192.0
1236.480957 172.0
1236.970947 232.0
1238.280273 144.0
1239.814575 176.0
1240.326172 48.0
1240.445312 232.0
1240.921997 132.0
1241.132446 188.0
1241.553101 144.0
1241.651367 96.0
1242.871948 184.0
1243.55957 160.0
1244.16333 168.0
1245.146362 180.0
1246.923828 128.0
1248.456421 136.0
1249.77832 184.0
1249.919556 32.0
1252.834351 160.0
1254.271851 100.0
1255.961426 100.0
1257.424561 152.0
1257.721069 124.0
1257.989258 100.0
1260.312866 64.0
1260.948853 164.0
1261.252686 96.0
1261.811157 236.0
1263.494385 104.0
1265.447754 104.0
1265.886719 132.0
1265.97876 160.0
1266.276245 156.0
1266.771973 132.0
1267.133301 92.0
1267.671875 148.0
1267.983643 88.0
1268.494019 160.0
1268.564819 148.0
1269.536133 112.0
1270.380249 92.0
1270.947754 192.0
1272.196899 132.0
1272.928223 112.0
1273.197998 156.0
1275.563965 52.0
1277.092773 140.0
1277.320312 116.0
1277.434204 40.0
1277.491089 144.0
1278.408936 136.0
1279.547729 204.0
1282.525391 212.0
1284.165283 164.0
1285.01416 164.0
1285.235352 132.0
1287.012573 172.0
1287.869507 136.0
1288.248169 124.0
1288.988159 124.0
1289.627197 40.0
1289.691528 228.0
1289.93457 152.0
1290.027466 140.0
1290.606567 208.0
1290.921265 68.0
1291.407471 96.0
1291.72229 180.0
1293.840454 160.0
1295.064941 116.0
1297.056885 92.0
1297.924316 164.0
1298.282837 164.0
1298.828003 152.0
1299.990234 96.0
1300.277222 128.0
1300.621826 40.0
1301.066772 96.0
1301.26062 148.0
1301.985962 144.0
1302.265991 64.0
1302.431152 112.0
1304.464722 232.0
1304.881714 52.0
1305.219604 88.0
1305.572021 92.0
1307.154541 180.0
1307.427979 116.0
1308.147705 192.0
1308.450073 48.0
1308.853271 96.0
1309.198975 156.0
1309.688721 120.0
1311.180054 192.0
1312.009033 84.0
1312.405518 212.0
1313.025635 164.0
1313.725342 176.0
1314.865356 188.0
1315.663086 188.0
1317.310547 140.0
1317.443115 140.0
1319.408813 200.0
1320.442749 116.0
1321.60022 40.0
1321.67981 80.0
1323.141846 112.0
1323.279297 52.0
1323.619629 136.0
1323.836914 240.0
1324.068604 104.0
1324.220703 48.0
1324.626343 140.0
1325.481201 116.0
1325.560913 148.0
1326.532104 56.0
1328.076538 144.0
1328.337769 140.0
1332.424805 152.0
1332.686279 132.0
1333.056885 192.0
1333.151367 144.0
1333.500244 204.0
1333.747314 164.0
1335.27417 88.0
1336.408936 68.0
1337.573364 180.0
1337.667969 132.0
1338.337769 156.0
1339.291748 156.0
1339.830811 156.0
1341.120605 72.0
1342.482544 208.0
1344.438965 184.0
1344.533813 208.0
1345.460815 124.0
1345.833252 152.0
1346.534302 128.0
1346.716797 160.0
1346.870239 76.0
1347.001709 112.0
1348.579956 140.0
1349.625366 52.0
1349.764282 148.0
1351.746582 168.0
1352.090576 136.0
1352.229614 160.0
1352.288086 100.0
1352.983521 180.0
1353.920776 44.0
1353.97937 172.0
1354.111206 84.0
1354.623901 112.0
1355.407837 160.0
1356.543823 176.0
1357.071655 100.0
1357.262329 116.0
1357.643311 96.0
1357.863647 156.0
1358.223022 156.0
1358.281616 120.0
1358.399048 168.0
1358.472412 216.0
1358.553101 48.0
1359.903198 144.0
1360.10144 192.0
1360.314209 132.0
1360.549194 196.0
1360.644653 120.0
1361.268677 164.0
1362.385132 148.0
1363.582764 196.0
1363.751831 176.0
1363.935669 84.0
1364.060547 120.0
1364.430786 188.0
1364.869263 128.0
1365.575195 152.0
1365.884155 36.0
1366.391724 240.0
1367.782593 124.0
1367.94458 116.0
1368.408325 88.0
1368.585083 168.0
1369.026855 68.0
1369.277222 224.0
1369.741211 144.0
1370.619019 216.0
1371.642334 116.0
1372.442017 236.0
1373.55957 36.0
1374.275146 120.0
1374.754761 144.0
1374.885376 160.0
1375.514893 152.0
1375.56665 172.0
1377.656372 112.0
1379.954834 116.0
1380.080566 56.0
1380.272705 196.0
1381.330322 64.0
1381.707642 192.0
1382.268921 176.0
1382.410522 68.0
1382.881714 200.0
1383.994629 80.0
1384.07605 88.0
1384.209351 100.0
1384.905518 32.0
1385.075806 180.0
1385.194336 100.0
1386.1427 132.0
1387.536133 148.0
1388.129272 136.0
1389.019287 188.0
1389.115723 160.0
1389.212158 124.0
1389.405029 212.0
1390.325073 128.0
1390.607056 156.0
1390.703613 204.0
1390.770386 84.0
1391.134033 192.0
1391.245483 92.0
1392.782593 152.0
1392.960815 40.0
1393.064819 116.0
1393.183716 196.0
1393.666626 208.0
1393.748291 152.0
1393.800293 176.0
1393.956421 196.0
1394.974609 268.0
1395.46521 228.0
1396.774048 152.0
1396.989868 136.0
1397.272461 184.0
1397.689209 120.0
1398.619385 40.0
1398.827881 136.0
1399.259644 224.0
1399.334473 220.0
1399.483032 76.0
1399.728638 156.0
1400.391479 112.0
1400.547852 120.0
1401.143799 172.0
1402.850464 120.0
1403.290283 160.0
1403.349854 168.0
1403.501099 168.0
1404.140381 132.0
1404.968262 208.0
1405.535278 164.0
1406.027832 124.0
1406.81897 64.0
1407.879272 152.0
1408.200439 168.0
1408.282593 140.0
1408.51416 184.0
1409.261597 144.0
1409.978516 72.0
1410.03833 164.0
1410.516602 140.0
1411.286621 84.0
1411.660522 116.0
1411.772705 164.0
1413.19397 36.0
1414.30896 208.0
1415.903687 132.0
1416.255737 176.0
1416.404907 108.0
1416.577759 152.0
1416.780029 48.0
1416.85498 152.0
1419.200806 160.0
1419.463257 180.0
1419.815674 48.0
1420.520752 172.0
1420.74585 172.0
1420.820801 48.0
1421.878784 208.0
1422.066406 156.0
1422.171509 160.0
1423.997681 144.0
1425.445923 92.0
1425.505981 148.0
1425.708862 152.0
1425.852905 152.0
1426.069702 196.0
1426.287598 164.0
1427.325073 124.0
1427.941772 168.0
1428.56604 92.0
1428.814331 148.0
1430.740845 176.0
1431.109863 132.0
1431.569092 100.0
1432.031372 128.0
1432.171631 184.0
1432.540771 152.0
1433.399658 32.0
1434.198486 92.0
1434.907104 236.0
1435.231323 128.0
1435.804321 188.0
1436.759399 52.0
1437.139526 124.0
1437.87146 188.0
1438.060181 144.0
1438.203613 72.0
1438.852783 116.0
1439.52478 164.0
1439.736206 164.0
1440.846558 176.0
1441.194092 96.0
1441.36792 164.0
1441.783569 52.0
1442.214355 136.0
1443.439087 152.0
1444.059204 224.0
1445.594849 164.0
1445.731079 120.0
1446.404663 160.0
1446.578857 172.0
1447.078491 188.0
1447.502441 128.0
1447.570679 40.0
1448.290039 120.0
1448.797607 168.0
1449.290039 176.0
1449.676514 196.0
1449.805298 136.0
1450.328247 44.0
1450.495117 172.0
1451.533691 144.0
1452.762329 60.0
1453.263062 252.0
1454.492554 136.0
1455.107422 168.0
1455.42627 148.0
1455.532593 60.0
1455.737671 196.0
1456.153687 156.0
1456.216064 68.0
1456.793335 184.0
1457.303101 172.0
1457.42395 160.0
1457.902588 180.0
1458.069824 252.0
1458.328247 176.0
1458.402222 224.0
1458.525879 136.0
1458.723511 172.0
1459.035156 116.0
1459.901978 188.0
1460.540771 184.0
1461.172241 112.0
1461.49353 208.0
1461.689575 156.0
1461.758057 136.0
1461.841797 108.0
1462.541992 156.0
1463.036743 100.0
1463.790527 136.0
1464.064697 240.0
1464.140747 144.0
1464.437866 188.0
1465.050781 184.0
1465.565308 152.0
1465.809082 136.0
1466.045288 116.0
1466.625122 196.0
1468.153564 152.0
1468.263794 52.0
1468.599365 112.0
1468.904419 240.0
1469.674927 56.0
1470.087036 144.0
1470.743408 132.0
1470.880737 204.0
1471.117432 160.0
1471.170898 120.0
1471.270142 208.0
1472.171021 200.0
1472.232178 124.0
1473.53833 176.0
1473.668213 52.0
1474.48584 184.0
1474.554565 112.0
1475.273071 132.0
1475.731812 132.0
1477.070068 188.0
1477.949951 116.0
1479.212646 200.0
1479.488281 176.0
1479.771484 64.0
1480.016479 204.0
1480.108398 176.0
1480.797607 164.0
1481.142334 172.0
1481.341431 136.0
1482.636353 180.0
1482.728271 132.0
1483.165161 128.0
1483.464111 52.0
1483.5177 144.0
1484.017944 180.0
1485.220093 144.0
1486.171387 156.0
1486.485962 172.0
1486.547363 96.0
1487.230347 228.0
1488.950195 60.0
1489.072632 152.0
1489.39563 76.0
1489.626099 128.0
1489.6875 112.0
1489.771973 156.0
1490.110107 172.0
1490.986084 104.0
1491.477905 156.0
1491.846924 128.0
1492.239014 188.0
1492.831055 140.0
1494.230957 148.0
1495.115845 200.0
1495.262085 152.0
1495.531372 152.0
1496.005615 172.0
1496.177979 160.0
1496.493652 176.0
1496.60144 144.0
1496.740112 124.0
1497.454834 176.0
1498.180298 100.0
1498.240845 124.0
1498.465332 216.0
1499.382324 128.0
1499.644287 144.0
1499.860107 48.0
1500.900879 128.0
1500.954834 136.0
1501.536621 136.0
1501.926636 200.0
1502.451172 116.0
1502.775146 232.0
1503.045288 188.0
1503.384766 144.0
1504.218384 140.0
