>compound 50-22-6
>formula C21H30O4
>ionization [M+H]+
>parentmass 347.222137
#inchi InChI=1S/C21H30O4/c1-20-8-7-13(23)9-12(20)3-4-14-15-5-6-16(18(25)11-22)21(15,2)10-17(24)19(14)20/h9,14-17,19,22,24H,3-8,10-11H2,1-2H3/t14-,15-,16+,17-,19+,20-,21-/m0/s1
#inchikey OMFXVFTZEKFJBZ
#Ion_Source LC-ESI
#Instrument qTof
#Compound_Source Commercial
#PI Dorrestein
#Data_Collector Garg_Neha
#Scan -1
#Precursor_MZ 347.222
#ExactMass 346.214
#Charge 1
#CAS_Number N/A
#Pubmed_ID N/A
#Smiles C[C@@]12C[C@H](O)[C@H]3[C@@H](CCC4=CC(=O)CC[C@]34C)[C@@H]2CC[C@@H]1C(=O)CO
#INCHI_AUX N/A
#Library_Class 1
#SpectrumID CCMSLIB00000079072
#IonMode Positive
#UpdateWorkflowName UPDATE-SINGLE-ANNOTATED-GOLD
#LibraryQualityString Gold
#TaskID 278b19f5865741e282cec7349aa7e7a1
##Scan# 1236
#SpectrumFile NCP003432_C2_D11_BD1_01_15723.mzXML
#LibraryName NIHcollectionI_05062014.mgf
#MQScore -1
#Organism NIHcollectionI_05062014
#TIC_Query 0
#RT_Query -1
#MZErrorPPM -1
#SharedPeaks 0
#MassDiff 0
#LibMZ -1
#SpecMZ 347.222
#SpecCharge 0
#internalFilename spec-00000.mgf

>collision 10
48.986614 168.0
52.058987 148.0
57.093609 160.0
58.546459 152.0
90.984261 196.0
91.058319 272.0
93.068436 196.0
94.979767 148.0
95.084541 264.0
96.193993 220.0
97.066368 496.0
98.278236 184.0
99.074997 172.0
100.048096 172.0
101.062943 176.0
104.689438 148.0
105.069511 188.0
107.086304 516.0
109.063843 476.0
113.924248 200.0
117.068794 168.0
119.084053 348.0
121.064163 1052.0
121.100922 492.0
122.069366 144.0
123.079628 504.0
123.317162 224.0
124.083069 224.0
126.155708 176.0
128.06076 316.0
129.070099 508.0
130.073074 132.0
130.889313 160.0
131.085144 312.0
132.08783 156.0
132.153824 180.0
133.059128 180.0
133.1017 148.0
134.107147 480.0
134.617935 216.0
135.080292 680.0
136.080017 176.0
136.118484 140.0
137.096115 136.0
141.068527 340.0
142.073303 160.0
143.086884 716.0
144.093109 128.0
145.101318 960.0
147.080276 552.0
147.115341 912.0
148.095032 176.0
148.119568 336.0
149.070297 188.0
149.098373 536.0
149.131409 112.0
151.077652 200.0
151.109604 236.0
151.135635 176.0
151.529831 188.0
152.550735 188.0
153.072327 200.0
153.092468 160.0
154.076187 264.0
155.087112 300.0
156.091339 360.0
157.102066 608.0
158.108978 284.0
159.081177 200.0
159.118896 408.0
159.420944 132.0
160.127869 324.0
161.093262 432.0
161.13176 168.0
162.098358 384.0
163.115082 424.0
164.118134 236.0
165.092987 332.0
165.120438 168.0
166.06778 196.0
167.085693 212.0
169.102112 444.0
170.111191 172.0
171.080963 140.0
171.117142 824.0
172.122726 128.0
173.095139 340.0
173.130478 144.0
174.098679 240.0
175.114349 656.0
175.150436 172.0
176.122131 320.0
176.374512 156.0
177.091553 160.0
177.127731 456.0
179.083893 156.0
179.11441 144.0
180.099762 176.0
181.100754 164.0
182.106705 456.0
183.117538 364.0
185.103043 232.0
185.13533 208.0
187.113495 344.0
187.151886 160.0
188.123932 104.0
188.149307 132.0
189.093018 152.0
189.124374 580.0
193.121323 504.0
194.10379 144.0
195.1147 396.0
195.140244 352.0
196.125259 148.0
197.132477 252.0
197.630478 184.0
197.809586 168.0
199.111526 288.0
199.147186 316.0
200.148224 140.0
201.128128 328.0
201.158783 132.0
201.851425 112.0
203.108521 168.0
203.139908 224.0
205.876389 188.0
207.117645 184.0
207.143433 188.0
208.120773 172.0
209.12796 164.0
210.139008 312.0
211.150146 272.0
213.137161 236.0
213.164795 208.0
214.168488 160.0
215.104477 140.0
215.145187 268.0
215.691605 228.0
216.068848 192.0
217.968765 176.0
219.142776 168.0
222.140518 144.0
223.120499 180.0
223.146744 324.0
224.157822 116.0
225.125031 324.0
225.165283 120.0
226.136978 132.0
227.101013 144.0
227.145554 424.0
227.177032 208.0
228.150223 176.0
229.158966 524.0
229.603302 196.0
231.110657 156.0
231.147919 140.0
232.14505 148.0
232.277023 152.0
233.153336 164.0
234.15271 100.0
235.153168 312.0
237.036163 168.0
237.131088 156.0
237.149902 140.0
238.128281 164.0
239.139877 300.0
240.152222 176.0
241.160538 568.0
242.166092 180.0
242.199631 196.0
243.175034 460.0
244.198486 220.0
245.158859 112.0
246.130615 208.0
246.16391 200.0
247.173813 204.0
247.384308 164.0
250.140442 392.0
251.137512 184.0
251.179382 404.0
253.152969 148.0
253.177643 264.0
253.189499 344.0
254.162537 116.0
255.148407 136.0
257.163116 184.0
259.179291 144.0
260.154266 156.0
262.083923 172.0
262.190277 144.0
264.182465 144.0
265.197174 380.0
266.162537 148.0
267.177856 324.0
268.17511 128.0
268.730804 140.0
269.188049 284.0
270.189545 136.0
271.175354 172.0
271.205444 372.0
273.051483 140.0
273.176819 148.0
275.180511 116.0
275.348572 188.0
276.088867 144.0
278.169586 168.0
281.19754 260.0
282.883118 164.0
283.164398 212.0
283.203796 120.0
284.059326 144.0
284.202698 200.0
285.177429 164.0
287.626129 212.0
290.210754 156.0
293.014679 152.0
293.19104 748.0
293.30777 140.0
294.200775 392.0
295.164978 184.0
296.178772 156.0
297.185852 152.0
299.204712 272.0
300.174927 144.0
300.205963 164.0
301.178711 524.0
302.199005 152.0
305.884583 164.0
308.997437 324.0
311.201385 2244.0
311.314301 144.0
312.202393 240.0
314.190887 156.0
329.042389 148.0
329.211975 3776.0
329.315094 132.0
330.214874 1124.0
330.258606 152.0
330.291168 184.0
331.214172 160.0
345.147736 168.0
345.210144 232.0
346.351349 104.0
347.040222 136.0
347.222137 21556.0
348.226135 3324.0
349.171387 128.0
349.225983 672.0
350.179413 184.0
350.240112 272.0
365.243195 152.0
616.242798 160.0
980.208252 264.0
1426.898438 208.0
1502.345215 164.0
1532.768799 156.0
1622.52478 156.0
1645.300171 180.0
1681.97644 188.0
1732.683105 196.0
1968.892578 200.0
1980.646973 264.0
