>compound MLS001148225-01!(-)-BEBEERINE
>formula C36H38N2O6
>ionization [M+H]+
>parentmass 595.2802633880905
#inchi InChI=1S/C36H38N2O6/c1-37-13-11-23-18-31(41-3)32-20-26(23)27(37)15-21-5-8-25(9-6-21)43-36-34-24(19-33(42-4)35(36)40)12-14-38(2)28(34)16-22-7-10-29(39)30(17-22)44-32/h5-10,17-20,27-28,39-40H,11-16H2,1-4H3/t27-,28-/m1/s1
#inchikey NGZXDRGWBULKFA
#Ion_Source LC-ESI
#Instrument qTof
#Compound_Source NIH Pharmacologically Active Library
#PI Dorrestein
#Data_Collector VP/LMS
#Scan -1
#Precursor_MZ 595.283
#ExactMass 594.273
#Charge 1
#CAS_Number N/A
#Pubmed_ID N/A
#Smiles COc1cc2CCN(C)[C@@H]3Cc4ccc(O)c(Oc5cc6[C@@H](Cc7ccc(Oc(c1O)c32)cc7)N(C)CCc6cc5OC)c4
#INCHI_AUX N/A
#Library_Class 1
#SpectrumID CCMSLIB00000084931
#IonMode Positive
#UpdateWorkflowName UPDATE-SINGLE-ANNOTATED-GOLD
#LibraryQualityString Gold
#TaskID d252d724072548979f1f6f1ced849daf
##Scan# 1389
#SpectrumFile p3-C08_GC8_01_18253.mzXML
#LibraryName Pharm_Active_Library.mgf
#MQScore -1
#Organism Pharm_Active_Library
#TIC_Query 0
#RT_Query -1
#MZErrorPPM -1
#SharedPeaks 0
#MassDiff 0
#LibMZ -1
#SpecMZ 595.283
#SpecCharge 0
#internalFilename spec-00000.mgf

>collision 10
45.352612 152.0
46.432636 92.0
48.465775 120.0
48.83506 160.0
48.942219 164.0
50.576443 276.0
50.957928 188.0
52.535706 200.0
53.755981 100.0
54.789719 112.0
55.611919 152.0
55.702904 176.0
56.378952 148.0
56.967815 172.0
57.324409 100.0
58.162308 76.0
60.178608 236.0
60.807114 220.0
62.989933 128.0
66.480682 196.0
68.406143 84.0
69.294655 104.0
69.60981 52.0
70.103882 136.0
70.467651 108.0
70.929543 80.0
71.078812 180.0
71.246712 52.0
71.293762 68.0
71.505669 140.0
71.541016 180.0
71.722946 152.0
71.85955 152.0
72.15004 160.0
72.856758 208.0
73.205444 224.0
74.119354 92.0
74.177628 148.0
81.859673 144.0
83.759598 48.0
83.852524 152.0
85.572655 212.0
86.255249 188.0
88.815666 144.0
89.58638 92.0
90.246941 196.0
92.438278 84.0
92.769623 156.0
93.301407 156.0
94.481697 164.0
95.018349 236.0
96.084511 56.0
97.494354 120.0
97.942947 180.0
100.993858 128.0
101.274078 204.0
101.69915 176.0
102.320312 196.0
103.094879 120.0
103.323364 160.0
103.823685 36.0
104.997154 116.0
107.044411 180.0
107.081528 156.0
108.130356 192.0
109.978111 108.0
110.097115 200.0
110.709869 168.0
110.831367 180.0
113.578423 124.0
114.360344 164.0
115.083023 112.0
116.03299 180.0
116.05014 172.0
116.075874 156.0
117.793373 180.0
120.078995 168.0
120.094261 144.0
120.688271 140.0
123.49884 96.0
123.567413 76.0
124.873993 116.0
128.311371 116.0
129.070007 188.0
130.062302 204.0
130.710022 160.0
131.047012 168.0
131.074997 172.0
131.665207 128.0
132.566559 116.0
133.029861 160.0
133.059708 108.0
134.134048 132.0
135.979828 156.0
136.07637 180.0
137.399277 88.0
138.493301 212.0
138.875351 148.0
139.596359 184.0
139.80101 208.0
143.048401 168.0
143.072205 124.0
143.255569 192.0
143.684692 72.0
144.080017 204.0
144.535278 84.0
145.071762 200.0
145.098145 368.0
146.034668 112.0
146.066193 168.0
146.097168 436.0
147.076614 200.0
147.198685 48.0
147.575623 36.0
148.040222 132.0
148.072495 296.0
149.078506 172.0
149.89859 192.0
150.054581 160.0
150.091156 196.0
150.642731 128.0
150.698929 176.0
151.072983 260.0
151.09256 132.0
151.139038 160.0
152.731232 192.0
153.056091 168.0
153.07579 120.0
154.697922 52.0
155.595352 212.0
157.031158 196.0
157.064911 144.0
157.365555 104.0
157.457947 160.0
158.073898 192.0
158.095459 192.0
158.588837 152.0
158.606384 40.0
159.078537 212.0
160.082092 228.0
160.880432 120.0
161.049622 44.0
161.088974 436.0
161.112778 160.0
161.246689 164.0
161.37056 116.0
161.661453 76.0
161.694351 40.0
161.871552 60.0
161.950073 92.0
162.087463 320.0
162.26683 128.0
163.094299 212.0
163.175751 52.0
163.417374 184.0
163.771225 88.0
163.865479 112.0
164.06427 144.0
164.444351 44.0
164.566879 168.0
165.054916 200.0
166.081879 176.0
167.070862 100.0
167.699158 144.0
169.000702 32.0
169.140457 112.0
169.91011 132.0
170.14888 148.0
170.660721 132.0
172.072876 108.0
173.054565 144.0
174.091858 1508.0
175.056824 204.0
175.097961 664.0
175.193787 44.0
175.457321 84.0
175.945389 216.0
176.066177 232.0
176.107071 644.0
176.336334 64.0
176.730362 188.0
176.828278 128.0
177.071671 260.0
177.115982 200.0
177.478317 148.0
178.081482 208.0
179.063782 188.0
179.083664 180.0
179.10907 196.0
179.210297 120.0
180.090637 164.0
180.491501 112.0
180.903519 148.0
181.07222 144.0
182.739212 236.0
183.083771 172.0
184.703171 168.0
184.735626 148.0
186.009262 180.0
186.090698 192.0
186.517212 172.0
187.085754 144.0
187.971558 188.0
188.106873 316.0
189.111404 192.0
190.085007 472.0
190.605804 72.0
190.927444 116.0
191.094574 176.0
191.12825 68.0
191.323669 152.0
191.643143 52.0
192.067703 172.0
192.091965 272.0
192.611481 184.0
193.106232 172.0
194.616531 116.0
195.077728 172.0
195.10553 144.0
196.523148 168.0
197.056427 204.0
197.665985 128.0
197.979507 172.0
198.056671 148.0
199.936249 208.0
200.175537 180.0
200.606613 132.0
202.276093 200.0
202.403503 188.0
202.760437 52.0
204.09465 216.0
204.766235 52.0
205.670074 84.0
206.080856 900.0
206.189896 44.0
206.727539 160.0
207.081284 336.0
208.100479 144.0
208.419373 140.0
208.643555 84.0
210.109711 132.0
211.11174 104.0
212.258469 164.0
212.316467 48.0
212.336777 160.0
212.609482 112.0
213.053726 172.0
214.502945 104.0
215.071747 144.0
215.638382 164.0
216.100418 132.0
217.061157 156.0
217.65976 132.0
219.078598 184.0
220.091278 276.0
220.348923 160.0
221.058167 180.0
221.108871 188.0
221.310165 216.0
222.427826 112.0
223.072693 180.0
223.869812 116.0
224.075333 200.0
224.123383 188.0
224.779007 148.0
224.925247 168.0
225.095428 152.0
225.13176 216.0
226.093887 108.0
226.12381 120.0
227.097565 116.0
229.082199 256.0
230.085678 152.0
230.565964 192.0
230.968079 112.0
231.119354 56.0
233.070602 208.0
233.306091 152.0
234.081955 212.0
234.10405 188.0
234.624298 124.0
235.066574 172.0
235.100128 160.0
236.086884 104.0
236.122528 268.0
237.051178 160.0
237.092392 128.0
237.123672 416.0
237.320923 36.0
237.956024 92.0
238.069641 148.0
238.096802 132.0
238.121857 76.0
238.693451 196.0
238.887222 132.0
239.065292 364.0
239.096451 160.0
240.076416 448.0
240.11557 152.0
240.946548 56.0
241.07431 164.0
242.112686 136.0
243.005417 56.0
243.099808 160.0
245.92128 88.0
246.099213 48.0
247.115738 240.0
248.076477 168.0
248.923599 176.0
249.090057 164.0
249.602341 160.0
250.057129 204.0
250.102554 52.0
251.06665 152.0
251.12088 164.0
252.074249 548.0
252.138046 108.0
252.690247 92.0
253.044724 228.0
253.083298 564.0
253.12706 192.0
253.253738 228.0
254.09053 488.0
254.354004 184.0
255.0401 100.0
255.099487 212.0
255.253113 44.0
256.106812 192.0
256.890167 112.0
256.966736 36.0
257.077698 144.0
257.105957 208.0
258.030273 60.0
258.106995 140.0
258.506866 240.0
259.076782 156.0
259.108826 144.0
261.337006 120.0
263.057983 112.0
263.102814 112.0
263.671692 48.0
264.075897 160.0
264.11499 152.0
264.169617 44.0
264.422028 48.0
264.791107 220.0
264.849396 100.0
265.07785 436.0
265.604645 248.0
265.675995 72.0
266.045959 160.0
266.116577 856.0
267.097717 736.0
268.109955 292.0
268.8974 184.0
269.001831 92.0
269.096344 236.0
269.380646 48.0
270.124115 216.0
271.089142 152.0
271.35733 116.0
271.586884 32.0
271.865753 164.0
272.341797 180.0
273.074738 184.0
276.089142 120.0
276.142059 104.0
277.104034 200.0
278.083618 136.0
278.900696 144.0
279.010376 116.0
279.096344 496.0
279.12677 128.0
280.107422 128.0
281.09436 412.0
281.116089 372.0
281.392487 76.0
281.499329 84.0
282.086823 116.0
282.116577 276.0
283.083588 48.0
283.116943 476.0
283.439484 40.0
283.466309 184.0
284.076263 164.0
284.128387 544.0
284.64035 108.0
284.78476 56.0
285.080414 108.0
285.12915 316.0
285.49054 136.0
285.988464 164.0
287.110382 76.0
287.964264 92.0
288.112885 120.0
288.4711 72.0
289.090057 140.0
290.102783 124.0
291.107056 200.0
291.531708 172.0
292.0961 184.0
293.110107 372.0
293.246979 100.0
294.113312 140.0
294.140625 180.0
294.816895 120.0
295.021973 108.0
295.062988 136.0
295.113281 380.0
295.394714 60.0
295.856689 44.0
296.122101 516.0
296.226532 80.0
296.622131 72.0
297.062958 76.0
297.132812 2424.0
297.388947 160.0
297.41983 52.0
297.550293 44.0
297.622375 88.0
297.794098 204.0
297.866211 112.0
298.140228 3908.0
298.20639 184.0
298.302643 56.0
298.526123 116.0
298.684326 56.0
298.718719 60.0
299.066254 172.0
299.088623 140.0
299.147125 900.0
299.24527 56.0
299.277985 40.0
299.41745 44.0
299.63446 116.0
299.672363 72.0
299.934265 64.0
299.996307 84.0
300.119446 188.0
300.149841 172.0
300.21698 40.0
300.275604 52.0
300.317719 132.0
300.710327 84.0
300.834595 148.0
301.113983 148.0
301.148804 148.0
301.18335 96.0
301.286987 144.0
301.501221 128.0
301.60144 40.0
301.670593 208.0
301.909149 128.0
301.981781 100.0
303.086121 148.0
304.102203 184.0
305.101257 156.0
305.467773 36.0
306.899139 128.0
307.799377 156.0
308.133911 352.0
308.190582 224.0
308.494659 128.0
309.122253 108.0
310.140503 1236.0
311.13678 256.0
312.105804 80.0
312.15152 264.0
312.985474 124.0
315.125793 372.0
316.729004 40.0
317.110687 224.0
317.306641 48.0
317.799652 152.0
318.86496 128.0
319.131561 112.0
321.061584 148.0
321.136475 156.0
322.132355 108.0
322.157379 236.0
324.162689 144.0
324.368866 44.0
325.617493 184.0
326.109711 208.0
326.138489 176.0
327.11615 172.0
328.1008 144.0
329.123505 976.0
330.129578 380.0
330.154877 164.0
331.099457 148.0
331.13205 384.0
332.698517 96.0
333.105225 124.0
333.893951 124.0
334.137665 136.0
335.135284 64.0
338.090759 120.0
339.595215 164.0
340.186584 156.0
341.122711 200.0
342.090179 144.0
343.121704 160.0
343.147522 200.0
344.143707 208.0
345.111755 128.0
346.147797 140.0
348.113159 124.0
348.158722 148.0
348.570068 120.0
349.961212 132.0
350.844208 76.0
351.086548 148.0
351.15741 136.0
352.142731 32.0
353.120209 124.0
354.147491 104.0
355.131195 160.0
356.082825 192.0
357.136658 124.0
359.059814 140.0
359.125916 292.0
359.535187 148.0
360.143036 92.0
360.169464 60.0
360.520844 48.0
366.204132 188.0
366.402222 136.0
367.107361 104.0
367.83609 136.0
368.137726 144.0
369.11972 108.0
369.284241 108.0
369.712738 80.0
370.107025 132.0
370.137024 144.0
370.493835 28.0
371.135376 204.0
371.670898 208.0
371.724609 52.0
371.843567 60.0
372.130402 328.0
372.807526 68.0
373.103485 136.0
373.134247 184.0
374.157227 76.0
375.127838 128.0
376.133881 100.0
376.186707 228.0
377.205231 84.0
377.278656 112.0
379.055206 196.0
379.093964 200.0
379.136597 236.0
379.198608 172.0
380.210846 112.0
381.776459 180.0
382.10318 96.0
382.289948 32.0
383.100433 176.0
383.12851 92.0
384.123871 248.0
384.134216 80.0
385.146179 240.0
385.647888 48.0
386.093597 104.0
386.17392 1196.0
386.226562 44.0
386.312622 40.0
386.711731 168.0
387.175293 356.0
388.125977 96.0
388.164764 156.0
388.745758 108.0
388.781067 60.0
389.136505 124.0
389.181458 80.0
393.145416 124.0
394.097046 160.0
394.393433 148.0
395.140839 136.0
395.208099 184.0
395.473267 164.0
396.146393 128.0
397.097717 92.0
397.145782 200.0
398.109711 144.0
398.152283 328.0
399.144043 272.0
399.15152 220.0
399.986328 120.0
400.167023 196.0
401.151276 108.0
401.194702 176.0
401.534485 180.0
402.142242 164.0
402.151031 144.0
402.165405 176.0
403.137146 112.0
403.169128 136.0
404.184845 164.0
405.169769 136.0
405.538452 88.0
406.232147 152.0
408.131805 112.0
409.113495 92.0
410.130219 248.0
410.434967 100.0
411.16568 380.0
412.145996 288.0
413.166534 268.0
414.116547 104.0
414.157043 88.0
414.185394 84.0
415.166016 148.0
415.176849 84.0
416.186676 128.0
417.160217 156.0
417.216705 148.0
418.099365 164.0
420.140778 120.0
423.157074 264.0
424.162262 156.0
425.149048 128.0
425.185974 120.0
426.154846 132.0
426.170319 124.0
427.141754 52.0
427.174652 116.0
427.582001 44.0
428.151672 140.0
428.181396 320.0
429.192535 308.0
429.584503 60.0
430.135651 164.0
430.170685 144.0
430.212708 284.0
430.356262 60.0
431.198975 144.0
432.121124 68.0
433.118805 160.0
433.976624 92.0
435.163269 100.0
437.295807 132.0
437.5289 40.0
437.724609 96.0
438.156158 164.0
438.962219 168.0
440.20575 172.0
441.17926 180.0
441.229431 92.0
441.672699 112.0
442.087585 168.0
442.162231 136.0
442.208984 452.0
443.178131 272.0
444.145782 144.0
444.180573 168.0
444.22757 184.0
444.513214 164.0
445.147095 156.0
446.153564 180.0
447.165009 108.0
447.207703 136.0
451.874329 176.0
452.229797 156.0
452.716675 84.0
452.975037 192.0
453.386017 48.0
454.717712 128.0
455.188934 136.0
455.851593 40.0
457.174133 132.0
457.208466 124.0
457.259247 152.0
458.173431 284.0
459.16452 120.0
459.213928 212.0
460.166901 144.0
462.128235 196.0
462.171021 112.0
462.410675 128.0
462.457764 36.0
463.189941 112.0
464.124237 136.0
464.179962 92.0
464.823395 132.0
465.424347 84.0
465.802277 176.0
466.07724 132.0
466.77359 148.0
469.292511 52.0
471.135376 128.0
472.160217 124.0
472.243195 156.0
473.187164 200.0
473.229706 148.0
474.220642 84.0
474.394043 28.0
475.164032 320.0
475.30484 40.0
475.756226 36.0
476.147003 128.0
477.215973 132.0
478.158081 160.0
479.152771 160.0
479.191956 88.0
487.198212 144.0
488.154053 120.0
489.166443 224.0
489.240295 184.0
489.930176 100.0
490.128448 184.0
490.238617 124.0
491.138 60.0
491.189911 120.0
491.305634 40.0
492.214844 160.0
493.027679 132.0
493.182343 100.0
493.217712 56.0
493.885376 112.0
494.182495 148.0
497.328186 112.0
497.514618 148.0
498.060822 84.0
500.867554 84.0
501.180603 148.0
502.18399 252.0
502.231506 172.0
503.150757 120.0
503.186493 160.0
504.195984 136.0
505.143585 184.0
506.191193 248.0
507.167084 120.0
507.209839 120.0
508.181854 172.0
509.183411 188.0
509.919189 56.0
510.018066 72.0
510.19339 132.0
511.223389 108.0
513.137756 160.0
515.196655 112.0
516.190063 160.0
516.230774 172.0
516.918335 72.0
517.16272 124.0
517.208008 92.0
517.244202 116.0
518.077454 160.0
518.176086 328.0
518.272278 156.0
519.179382 148.0
520.171875 116.0
520.207397 192.0
521.194946 836.0
521.739746 32.0
522.194519 704.0
522.73584 204.0
523.203979 408.0
523.432312 100.0
523.655457 40.0
524.220398 140.0
525.232544 64.0
525.332886 124.0
526.213684 92.0
526.359802 100.0
527.022095 144.0
528.06897 192.0
529.73053 124.0
530.193298 120.0
530.390381 52.0
531.050659 108.0
532.200684 356.0
532.239197 112.0
532.670898 124.0
533.195312 564.0
533.26825 84.0
533.396973 136.0
533.461304 108.0
533.838318 80.0
534.19873 460.0
534.261475 88.0
534.454712 92.0
535.025452 72.0
535.19519 372.0
535.361572 80.0
535.628662 84.0
535.766907 68.0
536.210388 412.0
536.361328 108.0
537.200317 144.0
537.615845 192.0
538.197998 112.0
538.235474 196.0
539.893372 120.0
541.596558 76.0
544.709045 64.0
544.792664 84.0
545.327026 52.0
546.219788 164.0
547.197021 156.0
547.336731 220.0
547.672058 136.0
547.797791 144.0
548.203491 284.0
549.207886 492.0
549.44342 60.0
549.611389 92.0
550.214844 312.0
550.297546 32.0
551.016785 100.0
551.222351 84.0
551.264404 104.0
551.773926 68.0
551.881409 84.0
552.240601 1156.0
552.550232 56.0
552.63446 160.0
552.994812 176.0
553.093079 64.0
553.238953 856.0
554.236023 308.0
554.329529 116.0
554.427917 80.0
556.03656 44.0
556.806519 92.0
557.111816 116.0
560.122437 76.0
561.479858 108.0
562.212158 112.0
562.229614 136.0
562.277222 160.0
562.399902 128.0
562.541504 72.0
563.018433 128.0
563.108154 204.0
563.21344 96.0
563.245483 300.0
563.476624 108.0
563.816833 96.0
564.105103 52.0
564.23877 2016.0
564.336792 100.0
564.516479 88.0
564.599731 160.0
564.705627 44.0
564.739746 192.0
564.932678 128.0
565.032043 52.0
565.240845 1108.0
565.481567 92.0
565.604614 44.0
565.893433 64.0
565.954956 52.0
566.245361 476.0
566.376465 92.0
566.466431 52.0
567.244507 128.0
567.812561 72.0
567.945374 108.0
568.21106 144.0
568.462524 104.0
575.125488 144.0
578.217834 136.0
579.265808 124.0
582.1922 80.0
582.662903 68.0
582.91272 104.0
586.787476 80.0
587.139465 140.0
590.036682 88.0
590.592773 68.0
591.347534 96.0
591.812317 68.0
591.967224 88.0
593.252075 232.0
593.634216 132.0
594.17749 132.0
594.274536 256.0
594.318176 160.0
594.454041 100.0
594.895752 92.0
595.065674 80.0
595.104492 140.0
595.201599 136.0
595.277283 10884.0
595.4104 156.0
595.473572 88.0
595.522095 256.0
595.653259 136.0
595.833557 72.0
595.904602 104.0
595.94751 64.0
596.037048 32.0
596.090515 60.0
596.19574 140.0
596.282349 3972.0
596.688354 44.0
596.737 48.0
596.957153 100.0
597.040466 108.0
597.286133 1388.0
597.392761 52.0
597.568665 84.0
597.850891 124.0
597.96283 112.0
597.994019 92.0
598.272766 260.0
598.303955 348.0
598.357117 80.0
598.629822 60.0
598.775879 48.0
598.819702 124.0
599.063293 152.0
599.316589 44.0
599.521301 52.0
599.672363 48.0
599.808838 132.0
599.855835 88.0
599.899597 148.0
599.955078 116.0
600.154968 48.0
600.267151 52.0
600.774353 132.0
601.042725 104.0
601.135437 40.0
601.247681 60.0
601.628418 92.0
601.711365 52.0
601.774841 48.0
602.497681 64.0
603.186707 36.0
603.504517 88.0
604.810669 60.0
606.632935 92.0
607.736389 76.0
613.185059 84.0
621.919678 96.0
624.498413 88.0
678.986633 160.0
705.688721 80.0
710.121033 64.0
717.006104 68.0
758.218994 48.0
768.132507 40.0
770.312927 60.0
816.98114 80.0
845.63269 112.0
919.8172 32.0
922.009705 124.0
930.994019 56.0
1040.514526 48.0
1044.78186 72.0
1059.248657 68.0
1064.820312 116.0
1086.741333 56.0
1096.065063 164.0
1099.151001 84.0
1135.642334 64.0
1184.071167 60.0
1233.196533 100.0
1237.862915 156.0
1263.540161 232.0
1265.649414 112.0
1293.092896 136.0
1321.944946 152.0
1342.93396 140.0
1402.163818 128.0
1410.508423 164.0
1419.170288 220.0
1486.164551 144.0
