>compound Ritodrine hydrochloride (Yutopar)
>formula C17H21NO3
>ionization [M+H]+
>parentmass 288.15802
#inchi InChI=1S/C17H21NO3/c1-12(17(21)14-4-8-16(20)9-5-14)18-11-10-13-2-6-15(19)7-3-13/h2-9,12,17-21H,10-11H2,1H3/t12-,17-/m1/s1
#inchikey IOVGROKTTNBUGK
#origInchi InChI=1S/C17H21NO3.ClH/c1-12(17(21)14-4-8-16(20)9-5-14)18-11-10-13-2-6-15(19)7-3-13;/h2-9,12,17-21H,10-11H2,1H3;1H/t12-,17-;/m1./s1
#Ion_Source LC-ESI
#Instrument qTof
#Compound_Source Commercial
#PI Dorrestein
#Data_Collector Garg_Neha
#Scan -1
#Precursor_MZ 288.159
#ExactMass 287.152
#Charge 1
#CAS_Number 23239-51-2
#Pubmed_ID N/A
#Smiles C1(=C(C=CC(=C1)[C@]([C@@](NCCC2=CC=C(C=C2)O)([H])C)([H])O)O).Cl
#INCHI_AUX N/A
#Library_Class 1
#SpectrumID CCMSLIB00000078505
#IonMode Positive
#UpdateWorkflowName UPDATE-SINGLE-ANNOTATED-GOLD
#LibraryQualityString Gold
#TaskID 77f51c88eb8b467eb4a01dd2d0cb90d2
##Scan# 971
#SpectrumFile Plate8_21_40_GC10_01_15763.mzXML
#LibraryName FDALibrary_2_04302014.mgf
#MQScore -1
#Organism FDALibrary_2_04302014
#TIC_Query 0
#RT_Query -1
#MZErrorPPM -1
#SharedPeaks 0
#MassDiff 0
#LibMZ -1
#SpecMZ 288.159
#SpecCharge 0
#internalFilename spec-00000.mgf

>collision 10
48.05727 184.0
49.936619 208.0
50.325565 176.0
50.803944 140.0
53.726101 204.0
57.013649 156.0
57.165539 152.0
60.514881 160.0
66.677948 184.0
69.040497 188.0
70.618866 204.0
74.650566 208.0
78.614067 164.0
80.722755 144.0
85.623199 144.0
93.066551 176.0
96.716599 188.0
97.560112 184.0
97.733185 148.0
99.839233 152.0
102.446106 200.0
102.984688 152.0
103.051842 1076.0
105.068909 592.0
106.073601 152.0
107.047554 208.0
107.078362 176.0
109.062607 196.0
110.116898 196.0
114.640366 200.0
115.742622 160.0
117.995399 152.0
118.402206 176.0
121.017548 196.0
121.064087 6908.0
122.065811 476.0
122.969658 148.0
123.07341 172.0
128.969421 140.0
133.064606 1196.0
134.062469 188.0
135.077942 324.0
136.079773 116.0
138.090744 308.0
145.718658 176.0
147.821274 184.0
147.879349 152.0
149.54924 144.0
150.090317 4932.0
151.076157 348.0
151.095642 612.0
151.622833 140.0
152.096207 168.0
160.203537 272.0
161.088989 180.0
162.146652 168.0
164.185638 156.0
168.106216 212.0
169.105789 192.0
190.022797 152.0
194.121719 180.0
225.100693 216.0
238.67131 140.0
243.619553 168.0
246.904877 244.0
252.022598 196.0
255.128616 176.0
256.998169 184.0
258.925781 164.0
266.3508 140.0
267.46286 148.0
267.6745 144.0
267.905731 144.0
268.720795 152.0
269.785492 180.0
269.854126 200.0
270.086151 172.0
270.148621 25704.0
270.255066 132.0
270.421631 100.0
270.568237 96.0
270.715637 140.0
271.151398 4652.0
272.154205 1020.0
272.496826 128.0
273.22049 136.0
273.245453 160.0
274.118011 156.0
286.095947 160.0
286.60788 192.0
288.014679 212.0
288.15802 10564.0
289.16217 1880.0
289.22522 176.0
290.16806 528.0
291.100067 176.0
291.188385 264.0
291.232513 236.0
291.316132 104.0
1377.97522 144.0
1452.886841 192.0
1499.417358 216.0
1501.313965 144.0
1589.54834 176.0
1672.617432 252.0
1723.185059 160.0
1759.421265 168.0
1787.373779 164.0
1833.21228 152.0
1836.059692 184.0
1877.577881 164.0
1973.926636 192.0
1977.014038 160.0
1982.637695 152.0
1991.003662 168.0
