>compound Riboflavin
>formula C17H20N4O6 
>ionization [M+H]+
>parentmass 377.146301
#inchi InChI=1S/C17H20N4O6/c1-7-3-9-10(4-8(7)2)21(5-11(23)14(25)12(24)6-22)15-13(18-9)16(26)20-17(27)19-15/h3-4,11-12,14,22-25H,5-6H2,1-2H3,(H,20,26,27)/t11-,12+,14-/m0/s1
#inchikey AUNGANRZJHBGPY
#Ion_Source LC-ESI
#Instrument qTof
#Compound_Source Isolated
#PI Sirenas
#Data_Collector Ed Esquenazi 
#Scan -1
#Precursor_MZ 377.146
#ExactMass 0.0
#Charge 1
#CAS_Number N/A
#Pubmed_ID N/A
#Smiles N/A
#INCHI_AUX N/A
#Library_Class 3
#SpectrumID CCMSLIB00000005495
#IonMode Positive
#UpdateWorkflowName UPDATE-SINGLE-ANNOTATED-BRONZE
#LibraryQualityString Bronze
#TaskID d19310cd93df49b68e9fcbec27720eb5
##Scan# 2
#SpectrumFile Riboflavin.mgf
#LibraryName fda_library.mgf
#MQScore -1
#Organism fda_library
#TIC_Query 0
#RT_Query -1
#MZErrorPPM -1
#SharedPeaks 0
#MassDiff 0
#LibMZ -1
#SpecMZ 377.146
#SpecCharge 0
#internalFilename spec-00000.mgf

>collision 10
100.0495 6.025
103.054993 35.22414
115.035469 101.470901
116.513527 15.82031
116.974678 8.035714
117.055328 778.464478
117.261856 4.340278
117.298485 11.0
117.339943 6.180147
117.951141 18.117649
130.06488 115.642601
133.588959 8.45
135.065231 200.410706
145.07576 141.301895
145.12619 4.505682
146.081482 139.453598
159.09024 48.484539
169.61232 18.0016
171.552368 23.154341
172.086212 1634.385986
172.204666 7.0225
172.264008 8.033089
172.356888 6.020833
172.611481 30.46567
172.647781 9.6875
172.661499 11.00595
172.702408 7.006945
186.077026 39.6875
186.106201 4.005682
197.03717 7.704167
197.079514 16.625
197.264664 5.0625
197.484879 5.0
197.758804 4.142045
197.773422 2.506944
198.065689 985.176514
198.302292 39.764832
198.373199 3.75
198.434479 11.88281
198.559433 9.3125
199.110748 37.20673
199.125671 55.118679
199.371674 13.51607
200.080887 802.847229
200.143509 3.508929
200.296631 15.34028
200.696365 14.89286
200.788803 11.34073
201.267258 2.580357
202.095383 78.913597
203.43129 14.7
209.093658 31.5625
214.093292 6.9
218.092758 36.223209
224.122849 61.772732
226.060867 201.176407
226.077988 5.003676
226.44957 14.46314
227.119019 24.444441
228.117615 63.552078
228.202896 4.340278
228.790405 6.555555
238.092438 9.340278
239.158478 11.375
239.315628 13.1125
240.109009 15.96023
240.227676 34.007919
240.950455 29.58581
241.479523 30.655701
241.512955 10.97115
241.563614 52.637501
241.596802 248.365997
241.627167 131.919907
241.673233 117.179398
241.71759 57.72123
241.742767 57.544491
241.766922 62.878361
241.783051 13.50368
241.828934 28.96895
241.910172 12.00341
241.923981 10.2
241.9832 11.02083
242.012909 59.36264
242.108643 49.111279
242.194305 3.506944
242.270035 4.0625
242.291763 15.50216
242.317978 36.958328
242.383835 13.03472
242.416367 7.625
242.542007 5.625
242.893234 10.26078
243.037567 123.105003
243.087921 38420.210938
243.172485 174.545502
243.223633 30.58
243.251953 86.00351
243.28334 101.151802
243.307114 33.765121
243.320175 79.125229
243.351852 74.942734
243.377792 40.083328
243.39122 98.76078
243.432907 120.106903
243.475037 27.38489
243.495941 126.843803
243.546585 68.679169
243.66011 33.9846
243.698181 93.331207
243.720352 65.987473
243.818344 41.320309
243.856796 91.039108
243.956207 57.551819
244.152725 30.515471
244.536377 24.00568
245.215225 3.78125
245.301575 21.48
245.448151 11.02679
245.469986 6.5125
245.573608 4.142045
245.698959 16.142691
246.244568 8.181818
246.654175 6.511364
247.567825 42.603779
247.63588 11.8125
248.461487 43.377609
248.504349 30.00079
250.499069 3.03125
251.384735 8.225
252.121033 104.688698
252.758423 11.63636
252.833572 15.96023
253.061783 15.125
254.096222 74.526176
254.13324 42.38903
255.428833 9.125
256.095245 45.67474
257.100708 255.638901
279.896332 26.53064
280.106049 6.0125
281.098022 43.866951
285.098541 183.454498
297.09375 174.213898
297.840149 37.85796
297.929596 3.525
298.110657 71.765732
299.126373 33.445221
315.107208 25.28125
316.12677 412.853302
316.394989 4.225
316.457794 9.7
316.500244 8.25
316.556976 39.060211
316.637238 18.50329
318.801178 29.7279
323.11734 28.006941
329.129456 62.980309
333.127869 81.092628
334.139069 116.805603
334.741882 4.504167
339.034393 7.5625
339.295654 6.25
341.122253 563.123474
341.643036 5.5
356.561676 5.517857
357.05603 20.777929
357.205719 10.63333
357.619141 21.574409
358.166321 8.5
358.73938 14.94055
358.937195 26.286711
359.135651 2790.13501
359.218231 12.9625
359.249695 52.648109
359.319031 55.364811
359.378784 13.14881
359.412231 6.0
359.535461 50.22718
359.583252 6.043269
359.675018 25.648809
359.695618 20.518141
359.988861 80.289658
373.970917 10.64286
374.62851 4.223214
374.706543 86.290108
374.744324 150.949997
374.796783 129.263306
374.821899 125.208397
374.877441 37.26984
374.920776 92.431473
375.023224 130.288406
375.063385 58.033421
375.08493 74.367798
375.117157 54.5947
375.150421 41.304272
375.186707 21.16667
375.281586 17.789471
375.350616 29.9067
375.401337 5.071429
375.463257 31.48148
375.542908 4.083333
375.948029 9.8125
376.001678 15.88341
376.20932 65.035118
376.28476 22.09091
376.416443 6.625
376.615723 10.00417
376.639526 19.44676
376.736267 4.778409
376.769379 14.44531
376.900146 16.6875
376.946472 32.065109
377.068054 9.516071
377.146301 47347.609375
377.33905 36.97007
377.374725 70.681221
377.453796 127.178596
377.476379 50.520161
377.513489 61.421089
377.534119 135.253601
377.580292 92.235298
377.619507 32.225811
377.644592 94.64621
377.671661 28.30179
377.727814 69.379227
377.749329 75.84771
377.797607 62.804661
377.854584 192.580704
377.907288 60.47636
377.967072 111.689796
378.011505 137.087708
378.062286 44.050209
378.10318 79.869003
378.206787 9.5
378.231781 114.0476
378.278931 88.93605
378.311768 83.646439
378.398132 103.884201
378.491852 74.79435
378.9375 37.943829
379.031952 16.96154
379.082123 14.55682
379.93045 29.523491
380.236572 26.8209
380.365295 11.00417
380.582733 5.785714
380.655548 25.550301
381.043884 6.104167
381.077881 21.654341
381.125671 26.14015
381.281616 4.504807
381.342743 9.503289
381.377197 6.011364
382.21283 13.11765
383.077087 9.633333
384.815338 10.5025
385.14212 6.6875
387.919861 3.005682
389.868164 6.520833
408.234039 25.286989
415.4711 8.541667
901.050049 14.6225
