>compound MLS002154165-01!Clocortolone pivalate34097-16-0
>formula C27H36ClFO5
>ionization [M+H]+
>parentmass 495.2308066040905
#inchi InChI=1S/C27H36ClFO5/c1-14-9-16-17-11-19(29)18-10-15(30)7-8-26(18,6)27(17,28)21(32)12-25(16,5)22(14)20(31)13-34-23(33)24(2,3)4/h7-8,10,14,16-17,19,21-22,32H,9,11-13H2,1-6H3/t14-,16+,17+,19+,21+,22-,25+,26+,27+/m1/s1
#inchikey SXYZQZLHAIHKKY
#Ion_Source LC-ESI
#Instrument qTof
#Compound_Source NIH Pharmacologically Active Library
#PI Dorrestein
#Data_Collector VP/LMS
#Scan -1
#Precursor_MZ 495.236
#ExactMass 494.224
#Charge 1
#CAS_Number N/A
#Pubmed_ID N/A
#Smiles C[C@@H]1C[C@H]2[C@@H]3C[C@H](F)C4=CC(=O)C=C[C@]4(C)[C@@]3(Cl)[C@@H](O)C[C@]2(C)[C@H]1C(=O)COC(=O)C(C)(C)C
#INCHI_AUX N/A
#Library_Class 1
#SpectrumID CCMSLIB00000084904
#IonMode Positive
#UpdateWorkflowName UPDATE-SINGLE-ANNOTATED-GOLD
#LibraryQualityString Gold
#TaskID d252d724072548979f1f6f1ced849daf
##Scan# 2653
#SpectrumFile p3-C05_GC5_01_18250.mzXML
#LibraryName Pharm_Active_Library.mgf
#MQScore -1
#Organism Pharm_Active_Library
#TIC_Query 0
#RT_Query -1
#MZErrorPPM -1
#SharedPeaks 0
#MassDiff 0
#LibMZ -1
#SpecMZ 495.236
#SpecCharge 0
#internalFilename spec-00000.mgf

>collision 10
45.18742 156.0
45.413818 120.0
45.595078 180.0
47.017178 148.0
47.044479 132.0
47.157856 164.0
47.31517 188.0
47.616852 148.0
47.861641 124.0
48.43618 160.0
48.535969 184.0
48.816475 152.0
48.869331 120.0
49.090816 140.0
49.454067 168.0
49.791969 172.0
49.925484 188.0
50.675053 184.0
50.738831 172.0
50.848057 156.0
51.438766 112.0
51.59877 176.0
51.84211 48.0
52.262856 100.0
52.378033 164.0
52.866047 148.0
52.996372 124.0
53.067394 176.0
53.439224 212.0
54.270325 104.0
54.361271 192.0
55.277885 156.0
55.68261 172.0
55.926453 192.0
56.242455 204.0
56.593777 184.0
56.667171 128.0
56.8111 184.0
56.847107 36.0
57.149143 192.0
57.605064 152.0
58.223957 184.0
58.351601 36.0
58.605782 128.0
60.196514 204.0
60.479443 152.0
61.467892 160.0
61.49733 204.0
61.54594 44.0
61.77256 192.0
61.791481 188.0
62.305573 140.0
62.470646 184.0
62.565067 208.0
62.722599 80.0
62.809326 176.0
62.935581 56.0
63.137856 112.0
63.297688 180.0
63.646542 216.0
63.767277 140.0
63.807018 204.0
63.939049 168.0
64.268913 176.0
64.343933 168.0
64.409409 156.0
64.553253 96.0
65.982719 176.0
66.063583 112.0
66.844009 144.0
67.740364 128.0
67.802628 148.0
68.374161 188.0
69.151527 112.0
69.64563 112.0
69.835114 128.0
69.848419 168.0
70.181244 232.0
70.619041 128.0
70.737846 160.0
70.903671 128.0
71.062973 44.0
71.078072 144.0
71.619423 172.0
71.757607 116.0
72.017487 196.0
72.386177 136.0
73.371666 140.0
73.596886 184.0
73.935356 168.0
74.501709 228.0
75.003677 48.0
75.10714 196.0
75.188232 152.0
75.35228 92.0
75.497475 212.0
75.634163 164.0
75.90963 168.0
76.152603 184.0
76.29335 188.0
76.582214 256.0
77.173813 212.0
77.425797 144.0
77.443314 256.0
77.999542 40.0
78.15255 184.0
78.748405 112.0
78.944572 176.0
79.094963 120.0
79.114433 96.0
79.536339 52.0
79.954018 172.0
80.067955 216.0
80.470963 92.0
80.599564 184.0
80.889297 208.0
81.583542 156.0
82.008362 192.0
82.560829 172.0
82.729103 256.0
82.959167 172.0
83.102448 172.0
83.241447 200.0
83.99205 44.0
84.565788 152.0
84.97261 128.0
85.288467 180.0
85.992073 192.0
86.028984 56.0
86.147179 156.0
88.745354 168.0
88.812866 156.0
88.987396 148.0
89.177124 144.0
89.365181 148.0
90.023033 176.0
90.166611 136.0
90.319763 152.0
90.391655 144.0
90.486298 48.0
90.59993 136.0
90.753448 68.0
90.772408 208.0
91.055237 364.0
91.264206 168.0
91.711586 348.0
91.801193 232.0
92.479424 168.0
92.753326 208.0
93.056442 188.0
93.075638 180.0
93.567856 192.0
93.70845 140.0
93.874222 188.0
93.887718 164.0
93.968735 204.0
94.196541 212.0
94.773071 116.0
95.047394 128.0
95.091309 192.0
95.419395 128.0
95.594452 196.0
95.726822 40.0
96.036705 168.0
96.50148 136.0
96.583611 196.0
97.045792 180.0
97.063438 56.0
97.228218 216.0
97.605392 188.0
98.581161 128.0
98.691856 188.0
99.198685 192.0
99.214546 176.0
99.264114 172.0
99.520088 132.0
100.021072 140.0
100.383675 44.0
100.543274 172.0
100.950813 176.0
101.020813 224.0
101.068832 164.0
101.834633 188.0
102.522697 172.0
102.673897 184.0
102.930183 212.0
103.054794 392.0
103.909836 128.0
104.938972 228.0
105.06778 592.0
105.202148 108.0
105.30629 172.0
105.43705 84.0
105.54335 216.0
105.588333 100.0
106.071548 176.0
106.510674 108.0
106.527107 160.0
106.576416 156.0
106.615456 156.0
107.047462 36.0
107.08609 684.0
107.883087 208.0
108.08992 120.0
108.180984 108.0
108.655563 264.0
108.780083 144.0
109.064262 408.0
109.09906 88.0
110.150284 76.0
110.449196 144.0
110.683594 44.0
110.817642 196.0
111.014679 200.0
111.06292 192.0
111.081802 156.0
111.118477 232.0
111.459709 152.0
112.063583 164.0
112.318672 60.0
113.363106 96.0
113.566635 96.0
113.69606 172.0
114.140038 144.0
114.859886 176.0
115.013519 140.0
115.029579 268.0
115.056213 480.0
115.076233 320.0
115.697578 48.0
116.056778 220.0
116.078957 184.0
116.837158 108.0
117.02655 156.0
117.041496 132.0
117.068779 544.0
117.835358 192.0
118.042862 180.0
118.07962 148.0
119.046188 40.0
119.085831 1440.0
119.306923 160.0
119.70137 192.0
119.766075 88.0
119.814697 212.0
120.062485 44.0
120.086479 172.0
120.206467 60.0
120.385468 144.0
120.619247 224.0
120.798553 44.0
120.881699 36.0
120.993324 188.0
121.065041 3312.0
121.099037 612.0
121.159767 72.0
121.199203 52.0
121.218925 48.0
121.335098 36.0
121.365791 76.0
121.420616 52.0
121.734436 140.0
121.927757 132.0
122.068604 640.0
122.10144 380.0
122.187225 100.0
122.264244 36.0
122.363297 136.0
122.740067 76.0
122.856964 116.0
122.876816 224.0
123.055588 188.0
123.078445 352.0
123.117416 152.0
123.172638 76.0
123.258797 176.0
123.960266 196.0
124.37278 96.0
124.685944 164.0
124.768188 160.0
125.108566 168.0
125.819733 36.0
126.058723 180.0
126.177193 144.0
126.438904 76.0
126.828613 80.0
127.3312 124.0
127.816772 140.0
128.063538 232.0
128.093689 172.0
128.161285 208.0
128.411514 208.0
129.046066 188.0
129.069946 192.0
129.251892 40.0
129.29715 64.0
129.956573 156.0
130.074585 196.0
130.333481 136.0
131.01297 220.0
131.053787 196.0
131.083633 628.0
131.581635 232.0
132.055191 768.0
132.175903 56.0
132.235397 156.0
132.776093 40.0
132.957748 196.0
133.065079 384.0
133.098984 604.0
133.82164 100.0
133.982864 116.0
134.054291 156.0
134.104996 208.0
134.141876 56.0
134.247925 108.0
134.381714 144.0
134.626389 148.0
134.855118 164.0
134.896729 96.0
134.929092 176.0
135.044708 172.0
135.078949 1164.0
135.139557 76.0
135.162689 52.0
135.22287 108.0
135.26915 40.0
135.391876 60.0
135.957535 144.0
136.008591 168.0
136.043411 160.0
136.087524 192.0
136.10611 112.0
136.336075 88.0
137.056458 196.0
137.092407 128.0
137.155334 212.0
137.364838 132.0
137.397858 128.0
137.535538 136.0
137.589233 64.0
138.051865 168.0
138.140747 68.0
138.430969 172.0
138.655869 200.0
139.026413 120.0
139.055496 404.0
139.089783 200.0
139.78833 144.0
140.011444 108.0
140.228195 60.0
140.711777 208.0
140.775528 152.0
141.040131 204.0
141.074875 260.0
141.174896 152.0
141.830719 56.0
141.980087 56.0
142.075165 328.0
142.312302 128.0
142.442917 156.0
142.575974 112.0
142.671051 80.0
142.742371 124.0
143.086395 1172.0
143.175491 208.0
143.938583 160.0
144.005463 88.0
144.086975 380.0
144.277863 68.0
144.833038 132.0
145.064316 692.0
145.099197 452.0
145.992264 136.0
146.047577 184.0
146.064423 148.0
146.098099 164.0
146.114929 64.0
146.492905 116.0
147.020935 148.0
147.047485 56.0
147.079773 5164.0
147.114471 392.0
147.243042 180.0
147.291351 48.0
147.43631 64.0
147.953949 108.0
148.084457 844.0
148.118607 216.0
148.431259 92.0
148.586487 124.0
148.637436 84.0
148.875336 168.0
149.028366 96.0
149.060135 152.0
149.095642 424.0
149.135284 124.0
149.231445 216.0
149.368713 160.0
149.665634 156.0
150.097946 180.0
150.377457 188.0
150.724243 148.0
151.075882 200.0
151.110565 220.0
151.811111 104.0
152.06076 168.0
152.437088 152.0
152.670624 168.0
153.087296 180.0
153.224457 188.0
153.290985 160.0
153.934814 104.0
154.058304 180.0
154.078369 164.0
154.112656 156.0
154.567627 132.0
155.023819 352.0
155.063721 284.0
155.085281 364.0
155.214127 104.0
156.089539 148.0
156.476334 128.0
157.023468 176.0
157.061279 204.0
157.10112 992.0
157.471298 212.0
158.06929 180.0
158.105591 144.0
158.386749 204.0
158.496979 124.0
158.534561 160.0
158.697495 140.0
158.832916 192.0
159.056244 184.0
159.078781 1328.0
159.116501 192.0
159.18428 36.0
160.054321 196.0
160.086365 188.0
160.123611 176.0
160.636505 180.0
160.681915 168.0
160.989868 136.0
161.017639 136.0
161.057541 236.0
161.097137 860.0
161.437164 204.0
161.831894 236.0
161.900269 188.0
162.026917 60.0
162.100403 172.0
162.285431 136.0
162.805618 188.0
162.965652 136.0
163.06752 184.0
163.113403 296.0
163.578552 192.0
164.042511 152.0
164.070221 60.0
164.096008 172.0
164.345673 176.0
164.389053 200.0
164.616241 180.0
165.070923 244.0
165.094116 144.0
165.270615 56.0
166.085281 136.0
166.285416 124.0
167.03569 120.0
167.067841 144.0
167.091278 164.0
167.106796 324.0
167.136017 96.0
167.305893 188.0
167.331635 168.0
167.831482 148.0
168.053223 212.0
168.084259 108.0
168.221054 124.0
168.479294 68.0
168.505127 168.0
168.595566 72.0
168.626572 144.0
168.991196 156.0
169.06337 1308.0
169.09729 248.0
169.117996 248.0
169.40802 84.0
169.830536 216.0
170.070297 232.0
170.099487 196.0
170.108414 128.0
170.114365 208.0
170.172256 76.0
170.250977 40.0
170.98671 200.0
171.079941 7296.0
171.115067 188.0
171.359085 84.0
171.789246 100.0
172.083466 1580.0
172.12854 148.0
172.196426 36.0
172.376694 156.0
172.444641 140.0
172.62764 172.0
173.064026 192.0
173.094315 1076.0
173.128815 164.0
173.376343 144.0
173.402557 72.0
174.09549 64.0
174.347351 172.0
175.033951 164.0
175.078705 136.0
175.109772 196.0
175.856461 44.0
176.059753 184.0
176.078232 144.0
176.097717 288.0
176.792038 52.0
176.897903 84.0
176.940262 28.0
177.038239 148.0
177.070541 160.0
177.091675 152.0
178.077774 180.0
178.141602 40.0
178.189423 108.0
178.473816 112.0
179.060898 480.0
179.093582 188.0
179.099945 364.0
179.381668 176.0
179.530975 104.0
179.923218 256.0
180.12616 160.0
180.46022 88.0
180.679535 160.0
180.973938 76.0
181.035522 148.0
181.066284 156.0
181.101059 312.0
181.558105 76.0
181.802231 168.0
181.821014 204.0
182.041138 164.0
182.076889 312.0
182.106827 220.0
182.702347 280.0
182.995697 172.0
183.036087 208.0
183.079315 1124.0
183.118088 188.0
183.211151 52.0
183.448303 64.0
183.481155 240.0
183.780029 236.0
183.8367 40.0
184.055344 128.0
184.085434 428.0
184.12825 160.0
184.809464 148.0
185.061707 168.0
185.095444 1240.0
186.10025 224.0
187.072647 616.0
187.11264 500.0
187.481476 92.0
188.07782 324.0
188.709824 192.0
188.767242 168.0
189.070938 580.0
189.092804 204.0
189.118835 184.0
190.073868 536.0
190.134247 144.0
191.007965 136.0
191.086319 1104.0
191.239105 152.0
191.850616 120.0
191.969177 44.0
191.99675 176.0
192.088684 312.0
192.112595 200.0
192.145706 44.0
192.568054 68.0
193.037857 124.0
193.058502 144.0
193.110031 332.0
193.15126 148.0
193.760284 84.0
193.918228 96.0
194.00415 144.0
194.081787 180.0
194.111084 208.0
194.356384 72.0
195.030121 172.0
195.075623 352.0
195.115707 492.0
195.682175 268.0
196.088058 284.0
196.118774 160.0
197.03331 132.0
197.093582 656.0
197.127029 160.0
197.462509 72.0
197.55481 36.0
197.924255 68.0
198.095032 328.0
198.173538 40.0
198.305252 76.0
198.737106 92.0
199.077515 212.0
199.112488 284.0
199.46167 108.0
200.038315 180.0
200.107162 88.0
200.314285 164.0
200.805786 160.0
201.091934 156.0
201.855286 108.0
202.078079 260.0
202.596832 124.0
202.832031 72.0
202.914246 96.0
203.086395 452.0
203.107849 168.0
203.916275 156.0
203.95607 48.0
204.049881 40.0
204.084198 292.0
204.348511 112.0
204.374115 168.0
204.826782 144.0
204.895157 236.0
204.977783 180.0
205.044601 160.0
205.100296 312.0
205.13176 148.0
205.5224 184.0
205.605148 84.0
205.893494 44.0
206.074844 128.0
206.105759 132.0
206.490814 152.0
206.596649 112.0
207.054855 196.0
207.077469 176.0
207.117416 172.0
207.335373 152.0
208.058212 132.0
208.086578 800.0
208.127258 164.0
208.739151 76.0
209.046951 148.0
209.095749 408.0
209.14032 172.0
209.314667 64.0
210.106415 480.0
210.147675 48.0
210.404541 164.0
211.070557 164.0
211.108978 224.0
212.112717 240.0
212.259171 156.0
212.613083 80.0
213.02829 164.0
213.054428 112.0
213.092682 280.0
213.125305 336.0
213.935593 192.0
214.389969 184.0
215.095612 136.0
215.10318 128.0
215.130814 152.0
215.288483 124.0
215.621536 172.0
216.080627 156.0
216.112808 128.0
216.645645 76.0
217.099396 388.0
217.121536 204.0
217.572357 132.0
218.10112 120.0
218.910187 48.0
219.052567 232.0
219.078766 372.0
219.113998 264.0
219.529022 40.0
219.623398 40.0
220.085571 324.0
220.131012 176.0
221.096909 668.0
221.136337 140.0
221.257538 116.0
221.645538 100.0
221.770004 48.0
221.88858 64.0
222.103271 752.0
222.13176 156.0
222.609589 176.0
223.046341 172.0
223.111954 1068.0
223.254456 48.0
223.388306 92.0
223.673965 100.0
223.980667 216.0
224.073013 216.0
224.115112 620.0
225.04274 164.0
225.083939 180.0
225.127487 1016.0
226.031693 104.0
226.126312 192.0
226.420868 120.0
226.735428 52.0
227.111572 176.0
227.138382 192.0
227.29921 172.0
228.47699 156.0
229.030884 168.0
229.071411 140.0
229.097382 152.0
229.537186 144.0
230.113953 212.0
231.068542 184.0
231.116608 140.0
231.967972 196.0
232.101227 168.0
232.114212 120.0
232.126801 196.0
232.462341 180.0
232.507858 68.0
232.838776 228.0
233.095596 372.0
233.134827 172.0
233.972961 60.0
234.073441 224.0
234.100372 644.0
234.131302 300.0
235.058029 164.0
235.111603 1848.0
235.28389 68.0
235.491531 56.0
235.74205 96.0
236.044678 208.0
236.11525 660.0
236.157837 72.0
236.552551 148.0
236.604599 132.0
236.714828 128.0
236.825073 68.0
237.128464 1568.0
237.266342 56.0
238.095947 200.0
238.126938 148.0
239.074921 332.0
239.111557 140.0
239.1259 160.0
239.137665 200.0
239.51886 68.0
239.753021 52.0
239.879379 80.0
240.094757 164.0
240.153809 116.0
240.357422 100.0
240.885361 176.0
241.083649 160.0
241.120789 588.0
242.104599 120.0
242.129395 176.0
242.153534 116.0
243.11113 268.0
244.049606 160.0
244.110886 164.0
244.134659 180.0
245.094559 612.0
245.132004 300.0
245.432068 212.0
245.475723 144.0
245.934326 56.0
246.105667 772.0
246.143494 148.0
247.06575 164.0
247.10675 644.0
248.11676 776.0
248.233795 124.0
248.472183 160.0
249.062347 240.0
249.125809 596.0
249.168686 160.0
249.288559 104.0
249.766434 84.0
250.093414 300.0
250.132004 256.0
250.944229 152.0
250.975754 68.0
251.107529 320.0
251.145264 292.0
251.351974 148.0
251.657288 124.0
252.141159 132.0
253.128174 328.0
253.159119 420.0
253.533081 68.0
253.805695 212.0
254.157257 172.0
254.535507 52.0
255.109085 168.0
255.14035 152.0
255.177338 136.0
255.329971 100.0
255.492188 156.0
255.702194 224.0
255.874084 192.0
256.067474 208.0
256.147949 136.0
256.37735 120.0
257.062469 76.0
257.097076 420.0
257.128082 160.0
257.158722 136.0
257.567413 56.0
258.066528 224.0
258.142883 212.0
259.109558 596.0
259.15036 388.0
259.410583 64.0
259.436218 108.0
260.117126 768.0
260.160278 172.0
261.078094 184.0
261.124054 920.0
261.160583 88.0
261.273163 100.0
261.865448 212.0
262.132904 1308.0
262.173706 160.0
262.564819 68.0
262.984253 96.0
263.079895 152.0
263.106567 160.0
263.139618 1260.0
263.183014 168.0
263.727142 52.0
264.109375 112.0
264.145691 828.0
264.645874 60.0
265.101135 124.0
265.158142 116.0
265.741394 148.0
266.013977 112.0
266.108124 120.0
266.137939 156.0
266.484894 56.0
266.683136 68.0
266.725372 136.0
267.137177 204.0
267.183899 172.0
267.457245 36.0
268.066254 56.0
268.12207 348.0
268.154266 68.0
268.362885 48.0
268.519409 124.0
269.074127 224.0
269.133636 124.0
270.12323 168.0
270.257294 92.0
270.709015 64.0
271.098297 292.0
271.121307 512.0
271.144775 276.0
272.085266 124.0
272.092499 128.0
272.12027 524.0
272.181335 172.0
273.128845 672.0
273.697174 116.0
273.746582 100.0
273.884888 96.0
274.133484 444.0
274.273712 40.0
274.395691 128.0
274.583649 160.0
274.732056 124.0
275.141052 560.0
275.362518 112.0
275.441803 28.0
276.117767 324.0
276.150635 896.0
277.155823 1504.0
277.261536 36.0
277.765503 116.0
278.125671 148.0
278.135193 180.0
278.16571 1740.0
278.449249 76.0
278.764862 84.0
278.847931 28.0
278.980896 116.0
279.173767 920.0
279.672791 48.0
280.174591 156.0
280.392212 188.0
280.812286 48.0
281.069153 124.0
281.133698 152.0
281.155029 196.0
281.179291 132.0
281.213379 188.0
282.088593 108.0
282.144623 136.0
282.552643 148.0
283.081482 136.0
283.143646 200.0
284.097046 200.0
284.147369 108.0
285.07074 164.0
285.127869 132.0
285.571655 80.0
286.082855 212.0
286.134979 1296.0
286.342377 88.0
286.955688 64.0
287.141235 468.0
287.255829 52.0
288.155182 464.0
289.022766 92.0
289.117523 236.0
289.156067 748.0
289.254486 68.0
289.947235 164.0
290.109924 212.0
290.161438 292.0
290.771362 180.0
291.107452 60.0
291.172272 836.0
292.179688 292.0
293.083771 172.0
293.161469 212.0
293.530304 68.0
293.99765 104.0
294.146118 152.0
295.10437 156.0
295.131348 216.0
295.158295 168.0
295.894714 44.0
296.000854 60.0
296.130981 132.0
296.175507 160.0
297.100555 160.0
297.161957 324.0
298.062408 116.0
298.177216 324.0
298.247986 100.0
298.492065 204.0
298.963348 56.0
299.097595 136.0
299.19397 160.0
300.179382 148.0
301.158081 1000.0
301.390961 112.0
301.653625 72.0
302.167145 980.0
303.164551 156.0
303.720856 104.0
304.150177 492.0
306.134155 180.0
306.550873 156.0
307.171478 160.0
308.08609 160.0
308.173431 216.0
309.166168 212.0
310.173218 176.0
311.129364 116.0
311.186096 124.0
311.347076 80.0
312.61615 164.0
313.135498 184.0
313.144684 212.0
314.116241 104.0
314.139099 128.0
315.146545 264.0
315.172668 140.0
315.423584 40.0
316.109711 116.0
316.148621 148.0
317.143829 196.0
317.629608 52.0
319.06073 48.0
319.165833 1508.0
319.238495 192.0
319.302521 92.0
319.327393 36.0
320.17395 328.0
321.163605 344.0
322.179047 152.0
322.397003 208.0
324.003571 168.0
324.111053 120.0
324.136139 88.0
324.655914 92.0
327.153076 172.0
327.19989 184.0
327.689697 64.0
328.169067 156.0
329.146881 104.0
329.757416 68.0
331.164825 132.0
333.214386 128.0
336.397308 132.0
337.098572 136.0
337.129242 140.0
337.182831 1368.0
337.862732 48.0
338.180206 316.0
339.008759 68.0
339.174591 296.0
339.228668 112.0
340.187836 176.0
341.104462 140.0
342.167633 104.0
347.129913 128.0
349.842163 156.0
353.189392 172.0
355.1474 352.0
355.189423 168.0
356.161774 148.0
357.182648 508.0
357.225555 48.0
358.147766 144.0
358.185455 84.0
358.893951 56.0
361.212799 176.0
362.231049 156.0
363.244873 112.0
363.273499 92.0
364.184509 140.0
364.233887 72.0
367.050171 44.0
367.801727 164.0
373.156433 412.0
373.218811 176.0
374.165955 140.0
375.153961 292.0
375.463837 68.0
376.144836 108.0
376.204681 232.0
377.127258 148.0
377.14209 124.0
378.156677 168.0
386.222565 124.0
391.154907 136.0
392.179016 80.0
393.168213 236.0
396.229462 112.0
397.180847 160.0
400.51178 68.0
403.212921 48.0
403.244873 128.0
418.65683 100.0
421.230499 276.0
422.207306 120.0
422.239441 172.0
422.321808 44.0
423.226227 124.0
431.211029 36.0
432.78299 140.0
439.23291 72.0
441.242371 168.0
442.262299 136.0
442.383667 64.0
442.500885 100.0
444.894745 100.0
451.941559 112.0
456.352692 72.0
457.20343 240.0
459.20636 128.0
466.738647 144.0
473.314667 108.0
477.197998 56.0
480.503662 72.0
485.994598 60.0
493.256805 124.0
493.307709 132.0
494.632507 116.0
496.284943 160.0
497.323029 60.0
510.4039 48.0
525.546448 56.0
543.538086 104.0
544.317932 36.0
551.501709 56.0
578.709656 112.0
582.263 60.0
631.079529 76.0
680.136597 88.0
688.143127 156.0
712.135864 80.0
766.806763 88.0
782.054749 124.0
885.562805 100.0
887.441345 244.0
889.06073 64.0
938.670166 232.0
998.895813 208.0
1014.658386 148.0
1059.36084 180.0
1064.341797 244.0
1087.097534 88.0
1095.355347 180.0
1106.482788 200.0
1115.046509 140.0
1117.333862 44.0
1131.998169 68.0
1132.440186 64.0
1167.753906 304.0
1172.642334 204.0
1176.858154 184.0
1177.93042 184.0
1178.57251 208.0
1178.9552 100.0
1197.547852 88.0
1210.822388 136.0
1227.026855 168.0
1228.498413 156.0
1237.037964 184.0
1238.627441 136.0
1249.255371 56.0
1255.686279 216.0
1283.364258 204.0
1284.06311 144.0
1287.981567 104.0
1291.841675 80.0
1298.639404 148.0
1307.958618 248.0
1309.953247 156.0
1317.00061 172.0
1323.393433 172.0
1326.066528 52.0
1334.581787 100.0
1336.782959 244.0
1336.960449 116.0
1338.015869 148.0
1346.1604 204.0
1346.569336 208.0
1351.328247 184.0
1357.173096 204.0
1368.694458 176.0
1369.519287 164.0
1377.884521 212.0
1385.304688 212.0
1385.638062 64.0
1391.15564 176.0
1394.907104 236.0
1402.164185 140.0
1409.178589 156.0
1410.202271 200.0
1415.536377 172.0
1425.378052 148.0
1426.12207 204.0
1430.575195 120.0
1438.120605 176.0
1442.940063 100.0
1445.23938 108.0
1446.124756 48.0
1451.875244 152.0
1453.278564 132.0
1459.734985 156.0
1470.766846 208.0
1478.203125 164.0
1497.179932 96.0
1502.521606 116.0
1504.149902 208.0
