>compound TAXIFOLIN-(+)
>formula C15H12O7
>ionization [M+H]+
>parentmass 305.065155
#inchi InChI=1S/C15H12O7/c16-7-4-10(19)12-11(5-7)22-15(14(21)13(12)20)6-1-2-8(17)9(18)3-6/h1-5,14-19,21H/t14-,15+/m0/s1
#inchikey CXQWRCVTCMQVQX
#Ion_Source LC-ESI
#Instrument qTof
#Compound_Source Commercial
#PI Dorrestein
#Data_Collector Garg_Neha
#Scan -1
#Precursor_MZ 305.066
#ExactMass 304.058
#Charge 1
#CAS_Number N/A
#Pubmed_ID N/A
#Smiles O[C@@H]1[C@H](Oc2cc(O)cc(O)c2C1=O)c3ccc(O)c(O)c3
#INCHI_AUX N/A
#Library_Class 1
#SpectrumID CCMSLIB00000079029
#IonMode Positive
#UpdateWorkflowName UPDATE-SINGLE-ANNOTATED-GOLD
#LibraryQualityString Gold
#TaskID 278b19f5865741e282cec7349aa7e7a1
##Scan# 1089
#SpectrumFile NCP003352_G2_H11_BC7_01_15721.mzXML
#LibraryName NIHcollectionI_05062014.mgf
#MQScore -1
#Organism NIHcollectionI_05062014
#TIC_Query 0
#RT_Query -1
#MZErrorPPM -1
#SharedPeaks 0
#MassDiff 0
#LibMZ -1
#SpecMZ 305.066
#SpecCharge 0
#internalFilename spec-00000.mgf

>collision 10
47.169178 232.0
50.021473 160.0
53.066174 208.0
53.88559 164.0
60.13018 168.0
66.475021 188.0
67.68782 148.0
68.196388 180.0
69.244263 176.0
71.265923 224.0
72.034149 144.0
76.606262 156.0
77.197945 148.0
77.225922 160.0
78.185608 200.0
80.484825 176.0
81.813362 176.0
86.675766 192.0
87.19165 148.0
87.9049 200.0
88.056114 168.0
88.722252 180.0
92.555313 164.0
95.087067 260.0
95.29232 164.0
96.088081 132.0
98.0606 596.0
98.426277 144.0
100.466599 152.0
101.7173 156.0
102.967659 164.0
107.050034 536.0
107.803551 204.0
109.026222 148.0
109.065712 168.0
109.331932 176.0
109.698509 164.0
109.973846 156.0
111.038788 152.0
114.281425 220.0
114.969696 156.0
117.029678 160.0
117.044746 156.0
120.056885 152.0
121.028625 132.0
121.063477 196.0
123.045227 1908.0
124.050125 292.0
125.022652 228.0
125.062706 180.0
127.89415 152.0
128.087799 168.0
129.071777 156.0
134.731125 200.0
135.089447 168.0
135.216705 176.0
136.053482 348.0
136.069733 208.0
136.569336 172.0
137.019135 160.0
137.058212 152.0
139.039337 168.0
139.074097 156.0
139.812073 164.0
140.107452 7868.0
140.248398 152.0
140.402069 100.0
141.104691 144.0
141.877365 160.0
142.336746 140.0
143.340561 152.0
145.026505 156.0
145.06517 196.0
147.042328 160.0
147.079315 312.0
149.024033 2140.0
150.027863 348.0
150.06752 264.0
151.039032 292.0
151.079376 276.0
152.045837 596.0
153.018616 4620.0
153.089584 196.0
154.022491 604.0
157.067566 192.0
159.079376 280.0
161.023819 608.0
161.056686 272.0
162.070496 164.0
162.732483 148.0
165.054718 160.0
165.093002 228.0
166.026291 196.0
167.032608 688.0
167.070923 184.0
167.463409 164.0
168.13298 136.0
169.061493 164.0
169.082199 268.0
169.302246 192.0
169.893204 168.0
171.049591 204.0
173.059784 216.0
175.077545 316.0
177.093826 848.0
178.06398 404.0
178.099442 188.0
179.0336 280.0
179.068848 260.0
179.111603 144.0
180.041779 600.0
180.388351 140.0
181.08461 1996.0
185.028961 172.0
185.059753 792.0
185.242905 160.0
185.305206 144.0
188.081741 144.0
189.054703 480.0
190.060287 132.0
190.101532 156.0
190.799179 240.0
191.072937 996.0
191.112717 184.0
192.077774 156.0
193.126541 140.0
194.091553 560.0
194.12355 192.0
195.030792 1532.0
195.065521 9120.0
195.101425 776.0
196.037506 188.0
196.070389 184.0
199.088104 156.0
199.565796 156.0
203.064438 160.0
204.038574 164.0
204.080139 372.0
206.083527 116.0
207.1035 136.0
208.345413 156.0
209.119476 752.0
211.922913 148.0
212.630463 140.0
213.056625 1020.0
219.110382 164.0
220.074799 176.0
221.109421 148.0
222.085648 680.0
229.124054 160.0
230.90799 180.0
231.065582 3068.0
232.068039 244.0
232.413559 208.0
233.062653 180.0
233.680542 164.0
237.112732 14132.0
237.213928 236.0
238.115845 140.0
239.123337 172.0
239.355316 140.0
241.051666 648.0
241.933334 144.0
245.032532 120.0
251.035217 188.0
253.006821 168.0
258.052094 564.0
259.060028 4084.0
259.160065 140.0
260.060974 628.0
261.066284 268.0
263.901123 148.0
266.016632 144.0
266.955597 160.0
269.919739 252.0
271.127655 172.0
272.200348 144.0
273.54834 160.0
274.04892 180.0
276.151703 164.0
277.083466 168.0
282.568573 156.0
286.557129 160.0
287.05365 2440.0
288.05484 200.0
288.389496 148.0
288.558533 220.0
289.059601 4388.0
290.063965 732.0
290.176514 124.0
291.174469 140.0
292.115967 116.0
293.798828 160.0
295.19577 172.0
299.416779 172.0
300.892609 156.0
303.161621 196.0
305.065155 1672.0
305.154022 156.0
305.985535 148.0
306.070496 136.0
306.170563 2140.0
307.069427 3912.0
307.173096 276.0
307.599579 188.0
308.069916 548.0
308.132477 128.0
308.186584 22816.0
308.24292 140.0
309.072937 160.0
309.149048 96.0
309.186676 188.0
316.05545 204.0
321.246063 176.0
330.09375 160.0
348.09314 152.0
349.107605 160.0
1020.227417 192.0
1113.916382 144.0
1309.056763 140.0
1399.097778 168.0
1399.417969 156.0
1662.475952 160.0
1727.682861 152.0
1742.855103 192.0
1755.924561 152.0
1758.911621 176.0
1762.920532 148.0
1802.753418 256.0
1804.503174 196.0
1952.562256 156.0
1974.902588 160.0
