>compound Nefiracetam (Translon)
>formula C14H18N2O2
>ionization [M+H]+
>parentmass 247.143829
#inchi InChI=1S/C14H18N2O2/c1-10-5-3-6-11(2)14(10)15-12(17)9-16-8-4-7-13(16)18/h3,5-6H,4,7-9H2,1-2H3,(H,15,17)
#inchikey NGHTXZCKLWZPGK
#Ion_Source LC-ESI
#Instrument qTof
#Compound_Source Commercial
#PI Dorrestein
#Data_Collector Garg_Neha
#Scan -1
#Precursor_MZ 247.144
#ExactMass 246.137
#Charge 1
#CAS_Number 77191-36-7
#Pubmed_ID N/A
#Smiles C(N1C(CCC1)=O)C(NC2=C(C=CC=C2C)C)=O
#INCHI_AUX N/A
#Library_Class 1
#SpectrumID CCMSLIB00000078363
#IonMode Positive
#UpdateWorkflowName UPDATE-SINGLE-ANNOTATED-GOLD
#LibraryQualityString Gold
#TaskID 77f51c88eb8b467eb4a01dd2d0cb90d2
##Scan# 1104
#SpectrumFile Plate5_61_88_GH9_01_16511.mzXML
#LibraryName FDALibrary_2_04302014.mgf
#MQScore -1
#Organism FDALibrary_2_04302014
#TIC_Query 0
#RT_Query -1
#MZErrorPPM -1
#SharedPeaks 0
#MassDiff 0
#LibMZ -1
#SpecMZ 247.144
#SpecCharge 0
#internalFilename spec-00000.mgf

>collision 10
44.928452 156.0
47.845222 180.0
52.232578 188.0
53.055698 144.0
53.335865 176.0
55.264389 208.0
57.495483 156.0
61.870747 172.0
63.561951 168.0
64.40892 200.0
65.0093 176.0
68.276482 148.0
70.511353 196.0
73.975647 172.0
79.846313 180.0
80.302246 160.0
83.193954 160.0
85.270821 204.0
85.968796 224.0
91.546463 160.0
94.384598 192.0
97.213066 208.0
97.942459 168.0
98.005501 144.0
98.059792 4484.0
99.059441 384.0
100.687508 192.0
105.067886 164.0
107.643806 200.0
113.333755 216.0
117.07634 152.0
120.128143 160.0
123.197113 200.0
123.696877 152.0
124.381821 156.0
125.106499 180.0
125.598961 168.0
126.000778 184.0
126.054901 7952.0
127.057869 296.0
131.323853 168.0
134.096191 148.0
135.121078 188.0
159.578522 144.0
177.854355 188.0
184.079102 156.0
211.021973 240.0
215.089081 208.0
216.070953 216.0
223.690857 152.0
230.154724 172.0
245.078659 236.0
246.09758 196.0
247.143829 1016.0
248.082077 164.0
248.141632 184.0
249.152206 196.0
262.192688 144.0
1303.119263 164.0
1391.933838 192.0
1400.046753 152.0
1444.525635 140.0
1535.772949 200.0
1539.042725 176.0
1553.482178 188.0
1554.196045 208.0
1554.886597 196.0
1567.610718 236.0
1582.911621 152.0
1640.220215 176.0
1640.840942 204.0
1670.936157 172.0
1702.413452 200.0
1703.703003 168.0
1704.565674 176.0
1742.141846 172.0
1776.141357 172.0
1800.904053 168.0
1803.058472 208.0
1809.563232 140.0
1826.382568 164.0
1828.467041 240.0
1832.537354 180.0
1844.707031 156.0
1885.577637 168.0
1908.314819 192.0
1910.454224 148.0
1914.971802 212.0
1916.05188 256.0
1922.80957 172.0
1939.891724 176.0
1945.251465 172.0
1954.356201 176.0
1957.709961 176.0
1966.596558 140.0
1971.215332 256.0
