>compound MLS001076270-01!21-HYDROXYPROGESTERONE64-85-7
>formula C21H30O3
>ionization [M+H]+
>parentmass 331.227142
#inchi InChI=1S/C21H30O3/c1-20-9-7-14(23)11-13(20)3-4-15-16-5-6-18(19(24)12-22)21(16,2)10-8-17(15)20/h11,15-18,22H,3-10,12H2,1-2H3/t15-,16-,17-,18+,20-,21-/m0/s1
#inchikey ZESRJSPZRDMNHY
#Ion_Source LC-ESI
#Instrument qTof
#Compound_Source NIH Pharmacologically Active Library
#PI Dorrestein
#Data_Collector VP/LMS
#Scan -1
#Precursor_MZ 331.229
#ExactMass 330.219
#Charge 1
#CAS_Number N/A
#Pubmed_ID N/A
#Smiles C[C@@]12CC[C@H]3[C@@H](CCC4=CC(=O)CC[C@]34C)[C@@H]2CC[C@@H]1C(=O)CO
#INCHI_AUX N/A
#Library_Class 1
#SpectrumID CCMSLIB00000085114
#IonMode Positive
#UpdateWorkflowName UPDATE-SINGLE-ANNOTATED-GOLD
#LibraryQualityString Gold
#TaskID d252d724072548979f1f6f1ced849daf
##Scan# 2100
#SpectrumFile p3-F02_GF2_01_18283.mzXML
#LibraryName Pharm_Active_Library.mgf
#MQScore -1
#Organism Pharm_Active_Library
#TIC_Query 0
#RT_Query -1
#MZErrorPPM -1
#SharedPeaks 0
#MassDiff 0
#LibMZ -1
#SpecMZ 331.229
#SpecCharge 0
#internalFilename spec-00000.mgf

>collision 10
44.919819 120.0
44.933159 196.0
44.943836 252.0
45.726505 52.0
45.737274 44.0
45.815384 232.0
45.974499 188.0
46.980007 216.0
46.99638 136.0
47.530052 172.0
47.552013 112.0
47.627533 128.0
47.942623 180.0
47.977085 176.0
48.092964 144.0
48.243542 88.0
48.571754 160.0
48.79118 196.0
49.002743 160.0
49.144966 300.0
49.781914 144.0
49.901356 216.0
50.184376 192.0
50.266193 184.0
50.376328 188.0
50.570061 72.0
50.839355 124.0
50.906078 144.0
51.012646 256.0
51.066685 92.0
51.139252 216.0
51.477154 196.0
51.674419 224.0
51.707333 124.0
51.897869 168.0
52.334698 104.0
52.474464 88.0
52.836994 180.0
53.267578 120.0
53.479885 144.0
53.879467 148.0
54.038837 164.0
54.094452 148.0
54.2131 124.0
54.345078 168.0
54.569813 196.0
54.772911 152.0
54.867229 172.0
54.877552 56.0
55.248276 192.0
55.337082 236.0
55.39188 208.0
55.816368 156.0
55.99049 160.0
56.249943 136.0
56.275326 180.0
56.463619 152.0
56.716671 160.0
57.153721 164.0
57.9207 72.0
58.145111 192.0
58.386688 208.0
58.446018 56.0
59.114418 108.0
59.177177 112.0
59.359528 148.0
59.371796 156.0
59.543694 192.0
59.831257 164.0
59.939075 176.0
60.023861 224.0
60.318764 80.0
60.662434 268.0
60.831532 176.0
60.994644 220.0
61.355762 100.0
62.009258 204.0
62.579525 84.0
62.636223 84.0
62.943779 144.0
63.128677 208.0
63.1698 160.0
63.832798 204.0
64.229385 172.0
64.542427 164.0
64.745667 176.0
64.86264 240.0
65.495773 48.0
66.174072 200.0
66.446373 204.0
66.475578 152.0
66.810303 180.0
67.408722 152.0
67.434868 128.0
67.855591 120.0
68.211853 112.0
69.036278 220.0
69.362465 108.0
69.398941 180.0
69.55323 52.0
69.669479 48.0
69.952194 132.0
70.37735 196.0
70.633057 160.0
71.167694 172.0
71.194565 156.0
71.488777 204.0
71.512337 140.0
71.773468 80.0
71.798767 192.0
72.030014 212.0
72.151688 176.0
72.739555 128.0
73.174789 196.0
73.725777 252.0
73.818092 152.0
74.032013 172.0
74.297707 232.0
74.321724 168.0
74.368065 156.0
74.531219 108.0
74.847733 196.0
75.042442 140.0
75.12178 116.0
75.173546 204.0
75.427444 200.0
75.458557 152.0
75.974686 168.0
76.080551 164.0
76.222984 132.0
76.501274 160.0
77.160759 244.0
77.798485 168.0
78.255615 184.0
78.525246 56.0
78.784737 172.0
79.00396 148.0
79.074745 192.0
80.074371 184.0
80.518478 60.0
81.313431 208.0
81.336769 156.0
82.471603 120.0
82.493301 136.0
82.543922 140.0
82.569244 92.0
82.598183 192.0
82.6959 240.0
82.91687 160.0
83.129059 148.0
84.248886 124.0
84.279945 188.0
84.364021 152.0
84.492043 104.0
84.605515 176.0
84.741051 192.0
84.896866 148.0
85.440582 192.0
86.024796 184.0
86.731453 140.0
87.030151 200.0
87.908791 136.0
87.98719 196.0
89.182388 116.0
89.624657 100.0
89.796211 148.0
90.020798 180.0
90.372398 176.0
90.692459 152.0
91.052628 424.0
91.132751 228.0
92.044281 180.0
92.0681 156.0
92.314629 276.0
93.033173 152.0
93.067589 424.0
93.294449 200.0
93.332306 192.0
93.47718 204.0
93.793045 148.0
94.041878 72.0
94.097862 120.0
95.047218 332.0
95.083664 948.0
95.409531 168.0
95.695541 144.0
95.94883 184.0
96.09166 188.0
96.427094 192.0
96.72747 252.0
96.932022 212.0
96.961418 256.0
96.992783 160.0
97.039192 160.0
97.063797 7592.0
97.091248 164.0
97.120239 36.0
97.202644 72.0
97.334167 60.0
97.371475 148.0
97.729271 48.0
97.882805 144.0
97.93795 136.0
97.961594 52.0
97.981293 172.0
98.065598 744.0
98.180382 192.0
98.267181 128.0
98.294807 60.0
98.581154 208.0
98.604866 160.0
98.682198 148.0
98.83625 140.0
98.911461 44.0
98.929276 160.0
99.63134 76.0
99.770454 124.0
100.031067 112.0
100.345848 228.0
100.76899 236.0
101.054871 192.0
101.491577 140.0
101.54171 176.0
101.575806 204.0
102.661949 176.0
103.052795 208.0
103.122276 100.0
103.682922 116.0
103.867432 188.0
104.050079 176.0
104.104065 184.0
104.485023 196.0
105.069107 1724.0
105.102394 236.0
105.584518 192.0
105.670433 52.0
106.069519 168.0
106.430885 124.0
106.776138 140.0
106.874886 276.0
106.953087 180.0
107.048332 416.0
107.06427 228.0
107.083809 1272.0
107.165215 136.0
107.367233 92.0
107.823509 168.0
108.038567 136.0
108.084084 152.0
108.641441 32.0
108.768028 180.0
108.786713 148.0
108.863541 176.0
108.919617 144.0
108.9487 172.0
109.00399 204.0
109.033897 152.0
109.063881 12944.0
109.101479 548.0
109.12661 40.0
109.149384 80.0
109.199783 56.0
109.223106 84.0
109.260193 68.0
109.281364 60.0
109.35096 144.0
109.452049 56.0
109.581192 184.0
109.652046 108.0
109.781303 176.0
109.841789 84.0
110.004562 172.0
110.041061 52.0
110.06665 2396.0
110.098579 160.0
110.236412 84.0
110.460129 76.0
110.545914 92.0
110.757378 80.0
110.857948 52.0
110.95018 84.0
111.04245 144.0
111.072655 368.0
111.12426 160.0
111.531685 196.0
113.764595 208.0
113.900505 112.0
114.253403 156.0
114.689964 68.0
115.054749 360.0
115.629776 80.0
115.64904 100.0
115.998199 168.0
116.032501 168.0
116.061409 416.0
116.126862 148.0
116.831451 36.0
117.050995 172.0
117.068352 436.0
117.356979 64.0
117.398666 192.0
117.745422 204.0
118.06971 184.0
118.257851 44.0
118.318459 92.0
118.506897 196.0
119.084641 1680.0
119.110023 120.0
119.39476 148.0
120.084335 348.0
121.064095 756.0
121.0989 472.0
121.287811 68.0
121.619034 116.0
122.067871 260.0
123.041153 52.0
123.078705 2848.0
123.270874 48.0
123.317291 52.0
123.602585 220.0
123.711037 48.0
123.805862 304.0
123.961327 108.0
124.023384 68.0
124.085022 460.0
124.351662 224.0
124.85601 112.0
125.062927 148.0
125.096321 148.0
126.776016 80.0
127.429008 176.0
128.059265 124.0
128.602295 60.0
128.956924 132.0
129.068466 192.0
129.463715 112.0
130.032791 220.0
130.077728 484.0
131.019699 112.0
131.040314 164.0
131.08461 1304.0
131.138199 224.0
132.091476 168.0
132.191055 108.0
132.355881 144.0
132.417709 160.0
132.912903 112.0
133.032257 144.0
133.071472 188.0
133.099136 1052.0
133.137878 132.0
135.083328 340.0
135.11264 348.0
135.159637 164.0
136.119324 148.0
136.402771 276.0
137.094986 344.0
137.129013 148.0
138.102676 164.0
139.218307 148.0
140.444565 212.0
140.862381 100.0
141.067352 352.0
141.354172 220.0
141.76622 264.0
142.076813 524.0
142.982193 104.0
143.083069 852.0
143.15361 212.0
143.287003 84.0
144.002655 44.0
144.055206 140.0
144.092728 196.0
145.060303 304.0
145.098007 1652.0
145.357712 204.0
145.542557 120.0
145.715485 52.0
146.071304 144.0
146.103882 200.0
146.218079 68.0
146.617874 224.0
146.974792 216.0
147.082489 240.0
147.114777 896.0
147.153412 184.0
148.086868 136.0
148.121841 160.0
149.092453 652.0
149.130188 176.0
149.857864 148.0
150.097565 236.0
151.108337 188.0
152.355927 108.0
152.4198 136.0
153.071548 148.0
153.09465 336.0
154.082932 140.0
154.926651 64.0
155.080612 364.0
156.08931 368.0
156.239975 180.0
156.69809 172.0
156.927399 124.0
157.05957 148.0
157.098145 1008.0
157.144394 52.0
157.73378 44.0
158.096466 200.0
158.113983 60.0
158.692657 48.0
159.076416 208.0
159.114349 684.0
159.382919 76.0
160.112625 128.0
160.982544 132.0
161.097061 176.0
161.132156 428.0
161.412155 96.0
162.137787 160.0
162.382111 40.0
162.64093 44.0
162.927887 176.0
163.110718 544.0
163.135132 264.0
163.184586 36.0
164.11319 344.0
165.06897 168.0
165.094543 164.0
165.552643 196.0
166.078308 164.0
166.414246 196.0
166.758499 120.0
167.005325 188.0
167.075928 188.0
167.141678 176.0
167.832031 140.0
168.093307 424.0
169.046127 240.0
169.098328 444.0
169.12088 172.0
169.875259 44.0
170.10701 432.0
171.0811 160.0
171.115219 1356.0
172.114487 188.0
173.102051 196.0
173.13089 176.0
173.269684 108.0
174.106476 140.0
174.132736 188.0
175.108719 176.0
175.144272 332.0
175.290314 68.0
175.41156 40.0
176.04216 248.0
176.105545 232.0
176.150162 180.0
176.261414 72.0
176.425293 40.0
176.970322 176.0
177.078903 148.0
177.12674 1076.0
178.057587 148.0
178.076187 184.0
178.131958 192.0
178.21698 136.0
179.145523 180.0
180.08815 164.0
181.103195 276.0
182.107117 316.0
183.072281 60.0
183.116867 356.0
183.268936 124.0
184.118866 188.0
184.367249 120.0
185.093658 168.0
185.128906 684.0
186.092529 152.0
186.128113 124.0
187.110107 356.0
187.145828 288.0
188.156616 76.0
188.274048 52.0
188.440674 52.0
189.096985 184.0
189.128601 332.0
189.166855 276.0
190.119675 112.0
190.163193 148.0
190.976501 140.0
191.139771 284.0
192.108673 168.0
192.970367 160.0
193.103699 128.0
193.717606 68.0
193.969788 176.0
194.101608 176.0
194.50795 108.0
194.973465 120.0
195.113556 476.0
196.177048 36.0
197.130569 396.0
198.13652 340.0
199.011261 148.0
199.120773 132.0
199.146729 700.0
199.581665 72.0
199.967072 40.0
200.127533 172.0
200.750305 116.0
201.122604 176.0
201.170715 180.0
201.455948 148.0
201.498322 36.0
202.069443 124.0
202.168488 140.0
202.635712 52.0
203.139496 328.0
203.163055 132.0
203.722321 92.0
203.870087 188.0
205.108795 192.0
205.117111 220.0
206.109955 116.0
206.129959 124.0
207.114166 156.0
207.713257 104.0
208.120087 176.0
208.899689 72.0
209.126419 156.0
210.144302 152.0
210.199127 164.0
211.005005 124.0
211.149918 344.0
211.262405 108.0
211.43602 108.0
211.890656 52.0
212.150497 224.0
213.165497 148.0
214.16806 148.0
214.806595 192.0
215.135071 244.0
215.171402 48.0
215.837585 148.0
216.001373 144.0
216.173996 52.0
217.153992 188.0
217.302139 208.0
218.418518 208.0
220.674622 100.0
221.129242 276.0
222.143661 208.0
222.425522 120.0
223.096893 192.0
223.135544 192.0
223.158157 212.0
224.159485 168.0
224.585831 240.0
224.618637 84.0
224.920029 136.0
225.165726 192.0
225.36203 128.0
225.49353 152.0
226.013885 128.0
227.02475 36.0
227.181503 192.0
227.647629 84.0
229.055237 164.0
229.157898 276.0
231.132431 152.0
231.175018 160.0
232.168472 156.0
232.775421 168.0
233.136932 176.0
235.148102 224.0
235.174515 204.0
236.155334 112.0
237.159836 316.0
237.389587 92.0
239.060791 112.0
239.140579 156.0
239.180084 212.0
241.154953 152.0
243.084412 160.0
243.166504 124.0
243.21167 328.0
244.149994 200.0
245.139984 72.0
245.197266 84.0
245.782364 112.0
247.157059 176.0
248.153336 168.0
248.181549 132.0
249.154922 168.0
249.187805 188.0
251.179825 176.0
251.658493 128.0
251.851135 44.0
251.98381 140.0
252.186768 220.0
253.163696 108.0
253.1931 132.0
254.195053 180.0
255.172333 132.0
255.208099 112.0
256.175842 164.0
257.150024 156.0
260.69278 92.0
266.142426 160.0
266.174896 152.0
266.197632 144.0
267.17926 148.0
267.205139 184.0
267.442841 36.0
271.198364 332.0
273.179321 172.0
274.196777 68.0
275.167419 236.0
275.860413 112.0
277.185364 440.0
277.416321 64.0
278.199249 176.0
280.17807 60.0
283.196564 216.0
283.435791 44.0
285.204468 60.0
288.024872 164.0
295.206268 528.0
296.206085 96.0
298.086273 112.0
304.22406 196.0
306.394226 116.0
311.094604 132.0
313.210236 364.0
314.219818 140.0
317.013275 164.0
329.231018 88.0
330.232147 112.0
331.227142 484.0
332.221313 412.0
334.244659 156.0
334.41571 104.0
337.268097 164.0
679.443726 88.0
695.191833 64.0
747.899414 176.0
756.606567 136.0
798.50061 52.0
799.068787 68.0
889.125977 144.0
913.216797 176.0
915.588196 148.0
954.102234 144.0
959.69281 152.0
964.860718 56.0
967.613892 120.0
971.878296 176.0
972.672668 192.0
981.052246 84.0
983.834656 40.0
990.068848 128.0
992.262085 64.0
1012.83844 152.0
1014.739624 160.0
1015.4245 160.0
1015.68457 192.0
1016.065186 168.0
1019.716553 152.0
1032.557495 164.0
1034.419556 44.0
1034.637207 152.0
1035.264771 76.0
1039.207031 212.0
1039.264771 168.0
1043.889893 208.0
1052.266602 172.0
1059.704712 216.0
1063.03125 92.0
1065.836548 228.0
1067.67627 152.0
1069.485107 188.0
1070.871948 152.0
1072.800781 176.0
1074.38562 48.0
1075.508057 168.0
1080.291382 104.0
1081.246826 108.0
1081.416992 156.0
1082.346558 144.0
1086.928589 136.0
1090.53418 176.0
1090.862793 144.0
1091.645264 124.0
1096.299683 56.0
1096.437988 264.0
1098.871338 204.0
1104.764648 160.0
1111.695435 176.0
1111.78833 164.0
1117.430054 32.0
1121.359009 156.0
1122.045654 188.0
1122.245605 224.0
1133.535767 192.0
1134.139038 176.0
1135.332397 116.0
1140.233521 176.0
1143.805176 156.0
1148.103882 176.0
1151.998657 192.0
1153.390625 240.0
1154.425171 220.0
1159.428223 48.0
1159.570557 192.0
1164.190796 140.0
1173.758911 104.0
1174.161255 232.0
1174.61145 44.0
1174.836548 156.0
1175.641724 164.0
1178.414062 192.0
1180.204956 60.0
1182.072388 120.0
1183.126465 256.0
1196.466187 112.0
1196.617676 176.0
1196.755371 152.0
1199.104492 184.0
1199.662842 132.0
1202.587646 168.0
1202.642822 44.0
1205.557495 156.0
1208.655518 148.0
1208.835449 180.0
1211.231079 164.0
1213.340576 180.0
1215.758667 176.0
1219.377075 168.0
1220.941406 112.0
1222.033569 132.0
1222.833862 156.0
1226.692871 148.0
1228.60376 156.0
1230.041382 248.0
1230.201904 212.0
1234.310303 184.0
1235.254395 164.0
1236.891968 84.0
1238.474487 128.0
1240.422485 148.0
1241.481201 96.0
1241.754761 192.0
1242.645752 140.0
1244.393433 100.0
1244.681274 144.0
1252.516235 116.0
1253.580078 172.0
1253.869019 116.0
1255.843262 208.0
1259.012939 212.0
1259.97998 100.0
1260.665405 64.0
1262.241821 212.0
1264.434937 168.0
1264.56897 108.0
1265.900513 168.0
1267.402222 196.0
1271.359253 116.0
1271.451538 104.0
1276.132935 244.0
1277.021851 148.0
1279.092529 152.0
1279.690552 152.0
1280.096436 160.0
1283.901978 168.0
1286.006714 140.0
1286.092407 72.0
1291.508667 156.0
1293.404907 48.0
1293.476562 164.0
1301.83667 172.0
1302.511841 192.0
1303.460205 88.0
1304.020874 156.0
1304.466431 204.0
1304.790039 132.0
1308.524048 152.0
1309.222534 204.0
1311.49939 236.0
1312.234741 224.0
1315.784546 188.0
1318.927002 128.0
1319.11499 164.0
1320.488892 108.0
1324.585815 88.0
1328.761597 188.0
1328.972046 164.0
1331.716187 228.0
1339.062378 188.0
1339.528564 172.0
1340.432129 184.0
1343.056763 180.0
1343.107788 136.0
1348.883911 100.0
1350.295166 216.0
1350.397583 200.0
1352.651245 100.0
1357.751099 176.0
1359.372437 244.0
1359.643921 80.0
1360.473389 180.0
1360.737671 164.0
1361.927368 196.0
1363.779053 120.0
1365.779053 144.0
1366.220825 100.0
1370.402466 136.0
1370.52771 172.0
1375.328857 192.0
1375.963745 200.0
1376.591309 212.0
1377.285645 108.0
1380.863159 112.0
1381.329102 56.0
1383.919434 256.0
1384.778564 84.0
1386.682739 148.0
1387.690918 172.0
1389.144531 132.0
1392.774536 56.0
1400.882935 56.0
1403.133667 156.0
1403.633301 148.0
1405.595093 216.0
1408.925293 100.0
1412.453857 152.0
1412.955078 168.0
1413.830566 152.0
1415.522461 140.0
1415.582397 188.0
1417.987305 252.0
1418.077148 240.0
1421.054443 152.0
1421.594727 112.0
1424.11731 132.0
1424.628174 152.0
1425.319336 148.0
1426.755005 116.0
1426.860229 184.0
1427.108398 144.0
1429.643433 152.0
1431.058716 84.0
1435.647827 120.0
1438.326294 148.0
1440.977173 224.0
1441.030029 96.0
1441.234009 64.0
1443.955566 204.0
1444.046265 152.0
1446.248169 148.0
1446.588745 248.0
1447.701904 212.0
1449.118408 168.0
1450.118652 180.0
1450.763062 92.0
1453.243164 164.0
1453.296265 208.0
1456.583618 64.0
1457.138184 176.0
1459.281616 172.0
1462.69751 48.0
1466.87207 152.0
1468.381836 188.0
1472.182617 184.0
1473.251953 184.0
1475.942383 152.0
1476.684204 168.0
1481.522095 248.0
1482.702148 180.0
1485.884399 212.0
1486.651733 172.0
1487.273438 80.0
1489.876831 128.0
1492.84375 208.0
1493.166748 164.0
1493.928345 48.0
1496.814697 160.0
1499.21814 180.0
1503.375 180.0
