>compound MLS001148641-01!(+)-BUTACLAMOL HYDROCHLORIDE
>formula C25H31NO
>ionization [M+H]+
>parentmass 362.247986
#inchi InChI=1S/C25H31NO/c1-24(2,3)25(27)13-14-26-16-21-19-9-5-4-7-17(19)11-12-18-8-6-10-20(23(18)21)22(26)15-25/h4-10,21-22,27H,11-16H2,1-3H3/t21-,22-,25-/m0/s1
#inchikey ZZJYIKPMDIWRSN
#origInchi InChI=1S/C25H31NO.ClH/c1-24(2,3)25(27)13-14-26-16-21-19-9-5-4-7-17(19)11-12-18-8-6-10-20(23(18)21)22(26)15-25;/h4-10,21-22,27H,11-16H2,1-3H3;1H/t21-,22-,25-;/m0./s1
#Ion_Source LC-ESI
#Instrument qTof
#Compound_Source NIH Pharmacologically Active Library
#PI Dorrestein
#Data_Collector VP/LMS
#Scan -1
#Precursor_MZ 362.243
#ExactMass 361.241
#Charge 1
#CAS_Number N/A
#Pubmed_ID N/A
#Smiles CC(C)(C)[C@]1(O)CCN2C[C@@H]3c4c(cccc4CCc5ccccc35)[C@@H]2C1.Cl
#INCHI_AUX N/A
#Library_Class 1
#SpectrumID CCMSLIB00000085303
#IonMode Positive
#UpdateWorkflowName UPDATE-SINGLE-ANNOTATED-GOLD
#LibraryQualityString Gold
#TaskID d252d724072548979f1f6f1ced849daf
##Scan# 1784
#SpectrumFile p3-H02_GH2_01_18307.mzXML
#LibraryName Pharm_Active_Library.mgf
#MQScore -1
#Organism Pharm_Active_Library
#TIC_Query 0
#RT_Query -1
#MZErrorPPM -1
#SharedPeaks 0
#MassDiff 0
#LibMZ -1
#SpecMZ 362.243
#SpecCharge 0
#internalFilename spec-00000.mgf

>collision 10
44.907845 192.0
44.926521 128.0
44.946537 256.0
44.987915 144.0
45.037323 108.0
45.052021 288.0
45.086761 164.0
45.102802 200.0
45.12553 92.0
45.158962 184.0
45.188396 116.0
45.211143 136.0
45.235237 164.0
45.247288 92.0
45.266033 232.0
45.296841 72.0
45.318279 64.0
45.359825 160.0
45.373234 120.0
45.405418 164.0
45.455055 32.0
45.473846 120.0
45.511436 152.0
45.528515 184.0
45.55228 156.0
45.616234 124.0
45.721157 160.0
45.749424 124.0
45.764233 160.0
45.779049 104.0
45.804638 204.0
45.842365 204.0
45.866627 116.0
45.882805 136.0
45.897636 96.0
45.919216 196.0
45.931355 196.0
46.01368 128.0
46.093376 108.0
46.120407 160.0
46.146095 160.0
46.163673 88.0
46.198845 168.0
46.216434 156.0
46.257713 248.0
46.265408 152.0
46.285469 148.0
46.304058 160.0
46.313515 396.0
46.325478 176.0
46.336945 128.0
46.375324 200.0
46.39658 204.0
46.430481 84.0
46.442688 100.0
46.47118 108.0
46.50375 116.0
46.525471 400.0
46.560776 124.0
46.604248 160.0
46.659977 124.0
46.757923 152.0
46.77562 124.0
46.826 208.0
46.840645 144.0
46.854607 100.0
46.896854 112.0
46.921394 364.0
46.940483 172.0
46.962307 92.0
46.971855 128.0
46.981403 100.0
47.010929 132.0
47.079685 140.0
47.096077 176.0
47.112938 152.0
47.15073 120.0
47.173969 168.0
47.206787 176.0
47.239613 120.0
47.25877 160.0
47.272579 172.0
47.35323 208.0
47.410778 228.0
47.436821 116.0
47.457386 168.0
47.493046 152.0
47.521854 128.0
47.543812 216.0
47.556164 148.0
47.56852 196.0
47.608337 124.0
47.636784 164.0
47.681156 132.0
47.72184 168.0
47.767784 172.0
47.782917 132.0
47.864132 140.0
47.87928 152.0
47.90683 72.0
47.934158 144.0
47.953682 140.0
48.001938 148.0
48.027237 144.0
48.045521 208.0
48.088322 216.0
48.099899 240.0
48.109566 152.0
48.159279 144.0
48.173092 168.0
48.192436 168.0
48.205864 184.0
48.243576 48.0
48.253254 76.0
48.291977 112.0
48.362545 132.0
48.383312 168.0
48.394386 132.0
48.40947 256.0
48.435936 100.0
48.519562 200.0
48.577339 168.0
48.592598 192.0
48.602314 72.0
48.628681 88.0
48.638397 124.0
48.674496 220.0
48.689774 200.0
48.739788 60.0
48.753685 96.0
48.774532 200.0
48.785656 76.0
48.820419 140.0
48.844212 152.0
48.904644 172.0
48.919212 144.0
48.945667 48.0
48.967949 140.0
48.993023 144.0
49.0602 140.0
49.078838 120.0
49.083553 152.0
49.156689 128.0
49.172913 144.0
49.200832 168.0
49.223175 132.0
49.234348 100.0
49.402088 112.0
49.421677 120.0
49.437069 116.0
49.46854 124.0
49.537575 108.0
49.556099 60.0
49.593937 124.0
49.606556 160.0
49.655636 172.0
49.67387 128.0
49.703335 176.0
49.770714 156.0
49.787567 148.0
49.804993 176.0
49.81847 48.0
49.863438 124.0
49.942177 76.0
49.957653 168.0
49.978756 176.0
49.992828 136.0
50.029106 176.0
50.043507 160.0
50.061813 212.0
50.115345 208.0
50.142601 176.0
50.152615 108.0
50.223904 124.0
50.321281 208.0
50.341053 188.0
50.384842 100.0
50.42865 100.0
50.438545 256.0
50.478973 148.0
50.50642 144.0
50.559738 164.0
50.603264 128.0
50.645485 216.0
50.689064 152.0
50.731586 116.0
50.750706 132.0
50.767254 52.0
50.788311 104.0
50.884815 192.0
50.906116 180.0
50.922512 360.0
50.935944 128.0
50.957256 240.0
50.973965 264.0
50.987743 88.0
51.032589 216.0
51.043964 232.0
51.061031 72.0
51.09581 196.0
51.11367 148.0
51.193893 148.0
51.251801 172.0
51.276028 140.0
51.315269 144.0
51.34589 156.0
51.402958 112.0
51.414375 220.0
51.435783 56.0
51.447205 108.0
51.48576 140.0
51.543289 164.0
51.562912 116.0
51.578636 160.0
51.598076 320.0
51.611519 40.0
51.621529 216.0
51.690197 88.0
51.700214 240.0
51.738865 112.0
51.75761 176.0
51.80188 176.0
51.822212 104.0
51.841999 120.0
51.880703 168.0
51.913681 224.0
51.93663 136.0
51.965324 108.0
51.983929 116.0
51.986439 112.0
51.991768 196.0
52.018593 140.0
52.055759 112.0
52.075867 112.0
52.090233 220.0
52.107471 236.0
52.215286 340.0
52.288666 176.0
52.307381 200.0
52.388027 68.0
52.424049 180.0
52.441681 188.0
52.453789 120.0
52.471619 132.0
52.533634 112.0
52.555279 116.0
52.628895 188.0
52.669334 92.0
52.680893 136.0
52.737251 60.0
52.777729 144.0
52.803333 188.0
52.812607 176.0
52.824013 148.0
52.847164 176.0
52.889133 52.0
52.902161 96.0
52.922543 156.0
52.965881 156.0
52.990509 156.0
53.032845 132.0
53.048485 124.0
53.102139 240.0
53.125347 180.0
53.144207 180.0
53.157269 104.0
53.208073 220.0
53.350456 44.0
53.372875 188.0
53.390972 176.0
53.414112 176.0
53.416283 136.0
53.441059 136.0
53.453728 152.0
53.478512 144.0
53.494484 100.0
53.50613 136.0
53.536709 156.0
53.560013 100.0
53.58041 140.0
53.611012 168.0
53.620716 152.0
53.644611 156.0
53.660572 220.0
53.714535 60.0
53.739227 104.0
53.777283 76.0
53.822838 196.0
53.84737 44.0
53.859055 152.0
53.876583 152.0
53.919571 180.0
53.946735 152.0
53.992065 84.0
54.025711 212.0
54.06456 160.0
54.120846 160.0
54.18383 196.0
54.214603 188.0
54.346584 92.0
54.365662 168.0
54.46257 144.0
54.480198 60.0
54.490482 284.0
54.508114 148.0
54.543629 196.0
54.597794 40.0
54.64093 148.0
54.711098 112.0
54.733185 68.0
54.749386 156.0
54.840336 192.0
54.866032 176.0
54.908562 172.0
55.033302 76.0
55.113766 280.0
55.143322 140.0
55.189152 184.0
55.215775 136.0
55.233524 168.0
55.254906 380.0
55.316395 152.0
55.393402 144.0
55.418587 120.0
55.436661 164.0
55.451191 160.0
55.556477 148.0
55.585896 116.0
55.600994 80.0
55.611385 200.0
55.645527 120.0
55.687111 240.0
55.705776 240.0
55.718307 80.0
55.743568 132.0
55.756943 144.0
55.788158 80.0
55.838718 212.0
55.858055 144.0
55.959259 296.0
56.018833 120.0
56.051338 176.0
56.061184 176.0
56.084953 228.0
56.136585 244.0
56.162331 92.0
56.198421 168.0
56.246998 32.0
56.258942 164.0
56.316124 96.0
56.332119 128.0
56.34407 184.0
56.356026 120.0
56.400902 148.0
56.411324 320.0
56.459175 168.0
56.486099 364.0
56.516022 156.0
56.530987 84.0
56.548946 168.0
56.601345 140.0
56.641785 164.0
56.691231 64.0
56.716099 88.0
56.727203 208.0
56.794685 100.0
56.840134 192.0
56.863708 112.0
56.895233 280.0
56.946293 128.0
56.970325 240.0
56.995869 188.0
57.028168 212.0
57.119156 128.0
57.153763 168.0
57.169384 220.0
57.20343 160.0
57.21698 88.0
57.232037 76.0
57.244083 44.0
57.265167 100.0
57.280697 168.0
57.366131 152.0
57.438519 84.0
57.467911 180.0
57.48378 148.0
57.503403 220.0
57.532082 116.0
57.559261 124.0
57.597858 260.0
57.612125 56.0
57.627235 108.0
57.687691 180.0
57.704323 224.0
57.716419 188.0
57.73608 152.0
57.755466 168.0
57.870762 228.0
57.941952 184.0
57.960133 56.0
58.025311 148.0
58.084457 96.0
58.122391 128.0
58.210438 128.0
58.264469 196.0
58.286392 156.0
58.312229 116.0
58.365437 188.0
58.397377 128.0
58.41563 196.0
58.439442 160.0
58.468086 152.0
58.49324 168.0
58.526737 172.0
58.566334 92.0
58.608994 52.0
58.630329 136.0
58.644047 116.0
58.701984 196.0
58.749268 68.0
58.790466 112.0
58.805729 128.0
58.824581 160.0
58.897346 116.0
58.934013 260.0
58.947769 84.0
58.969166 232.0
58.995152 128.0
59.022675 104.0
59.041023 284.0
59.053261 172.0
59.084728 132.0
59.108788 164.0
59.134357 144.0
59.151787 196.0
59.165623 132.0
59.221531 240.0
59.262997 124.0
59.275257 124.0
59.356403 120.0
59.377823 160.0
59.401833 144.0
59.4286 100.0
59.440876 68.0
59.453152 128.0
59.476177 200.0
59.540665 168.0
59.553337 128.0
59.60519 132.0
59.654373 176.0
59.705402 172.0
59.747681 208.0
59.814365 136.0
59.844284 212.0
59.871334 112.0
59.883659 168.0
59.928333 208.0
59.959156 224.0
59.977489 152.0
60.033157 188.0
60.053207 184.0
60.087147 364.0
60.12727 100.0
60.156597 80.0
60.184391 216.0
60.213734 168.0
60.227634 84.0
60.309532 152.0
60.324989 120.0
60.379112 144.0
60.419216 108.0
60.434853 128.0
60.465755 40.0
60.49052 124.0
60.509098 184.0
60.572598 140.0
60.615978 132.0
60.642326 132.0
60.660252 128.0
60.689068 188.0
60.701241 44.0
60.752426 156.0
60.7757 136.0
60.797428 132.0
60.842709 188.0
60.867287 104.0
60.893688 152.0
60.927864 92.0
60.941364 160.0
60.995441 116.0
61.032413 112.0
61.11776 124.0
61.140442 68.0
61.169231 284.0
61.259243 128.0
61.285923 128.0
61.337734 240.0
61.355869 148.0
61.380817 176.0
61.41201 140.0
61.443211 212.0
61.504074 148.0
61.515709 220.0
61.530613 196.0
61.554035 112.0
61.632141 116.0
61.661835 168.0
61.698669 212.0
61.716549 140.0
61.780239 228.0
61.832317 112.0
61.859356 44.0
61.930962 100.0
61.941925 104.0
61.956024 192.0
61.987366 180.0
62.006172 160.0
62.059471 192.0
62.076721 100.0
62.098679 148.0
62.124451 196.0
62.139465 208.0
62.158489 144.0
62.189686 88.0
62.25877 168.0
62.27919 136.0
62.290184 88.0
62.307636 184.0
62.326321 120.0
62.348324 124.0
62.444229 164.0
62.466251 116.0
62.532425 152.0
62.555954 112.0
62.581425 204.0
62.605602 204.0
62.628391 176.0
62.640995 144.0
62.776546 188.0
62.793896 72.0
62.812702 156.0
62.830467 132.0
62.88541 96.0
62.958038 140.0
63.022808 184.0
63.046513 176.0
63.086029 180.0
63.143307 184.0
63.189816 392.0
63.229977 132.0
63.251141 108.0
63.334095 180.0
63.384502 168.0
63.390331 96.0
63.393894 192.0
63.42498 180.0
63.455112 148.0
63.561131 228.0
63.584511 128.0
63.606777 224.0
63.624691 112.0
63.671509 232.0
63.7327 124.0
63.780098 204.0
63.831257 144.0
63.851933 132.0
63.886929 144.0
63.910793 208.0
63.947395 216.0
63.95956 212.0
63.965843 136.0
63.968941 292.0
64.05249 140.0
64.084358 44.0
64.107681 176.0
64.157669 84.0
64.175209 180.0
64.223053 116.0
64.254959 128.0
64.27092 100.0
64.322983 404.0
64.37484 164.0
64.388863 184.0
64.419403 200.0
64.459351 104.0
64.470535 76.0
64.500908 148.0
64.542641 152.0
64.580856 68.0
64.704079 140.0
64.720093 156.0
64.735634 148.0
64.753723 176.0
64.769745 148.0
64.789856 72.0
64.822617 136.0
64.847275 176.0
64.861084 152.0
64.885132 168.0
64.905975 104.0
64.924202 348.0
64.957298 132.0
64.978157 92.0
65.026299 100.0
65.03981 184.0
65.050377 160.0
65.061615 188.0
65.127457 36.0
65.145126 84.0
65.211014 92.0
65.228691 176.0
65.239944 152.0
65.254417 208.0
65.281754 44.0
65.315529 76.0
65.412086 184.0
65.433014 120.0
65.521599 176.0
65.539322 64.0
65.56839 100.0
65.579613 172.0
65.644936 132.0
65.686035 168.0
65.697327 132.0
65.747353 112.0
65.78125 160.0
65.800415 156.0
65.803429 136.0
65.821617 224.0
65.853912 124.0
65.874916 96.0
65.903999 148.0
65.936493 256.0
65.968864 88.0
65.994514 112.0
66.020393 224.0
66.040611 192.0
66.073769 144.0
66.12394 188.0
66.138504 88.0
66.158134 128.0
66.261581 156.0
66.273727 184.0
66.293991 192.0
66.334518 136.0
66.349747 152.0
66.386398 148.0
66.404884 152.0
66.420464 240.0
66.480499 92.0
66.525856 216.0
66.551926 208.0
66.574661 100.0
66.590897 124.0
66.61689 104.0
66.646133 88.0
66.670509 132.0
66.702156 172.0
66.710777 104.0
66.7239 192.0
66.764809 132.0
66.777817 140.0
66.802223 152.0
66.832413 236.0
66.85202 224.0
66.868935 148.0
66.916801 188.0
66.974777 132.0
67.077438 176.0
67.119469 156.0
67.139397 48.0
67.152443 44.0
67.189964 52.0
67.217705 148.0
67.307487 124.0
67.320549 152.0
67.34832 124.0
67.370407 260.0
67.402237 160.0
67.420212 124.0
67.451378 180.0
67.508492 184.0
67.537933 344.0
67.578835 160.0
67.641029 136.0
67.703957 156.0
67.739281 192.0
67.777634 304.0
67.79335 48.0
67.854004 192.0
67.944214 116.0
67.957336 60.0
68.007118 176.0
68.021309 188.0
68.065674 140.0
68.101807 140.0
68.124802 128.0
68.145905 100.0
68.189331 152.0
68.257942 168.0
68.312218 248.0
68.353355 40.0
68.383125 180.0
68.440598 180.0
68.460358 136.0
68.588875 144.0
68.628448 152.0
68.653183 196.0
68.748871 104.0
68.847923 96.0
68.882614 120.0
68.918961 68.0
68.937813 176.0
68.970192 68.0
68.983421 76.0
68.994995 304.0
69.040024 104.0
69.095879 148.0
69.130371 180.0
69.215057 280.0
69.236588 120.0
69.31279 132.0
69.342621 104.0
69.375778 104.0
69.397331 128.0
69.434761 168.0
69.495354 180.0
69.515106 232.0
69.532822 184.0
69.537262 80.0
69.543976 132.0
69.566559 128.0
69.585762 172.0
69.627998 160.0
69.639626 160.0
69.689468 200.0
69.756638 184.0
69.770912 76.0
69.7892 168.0
69.870697 116.0
69.898987 136.0
69.925873 128.0
70.006004 140.0
70.028847 172.0
70.083824 212.0
70.173836 80.0
70.215523 108.0
70.255562 120.0
70.272247 116.0
70.312668 124.0
70.339569 200.0
70.360703 204.0
70.384079 116.0
70.434189 216.0
70.511589 196.0
70.57959 164.0
70.618614 176.0
70.639893 148.0
70.6735 216.0
70.773697 124.0
70.787094 48.0
70.83567 144.0
70.874199 124.0
70.890961 96.0
70.94239 152.0
70.966393 300.0
70.987724 172.0
71.02845 100.0
71.056969 92.0
71.070389 160.0
71.139206 160.0
71.194618 108.0
71.220963 204.0
71.315544 140.0
71.389565 52.0
71.472 152.0
71.537636 144.0
71.561211 132.0
71.576363 100.0
71.604996 104.0
71.631943 128.0
71.643738 88.0
71.688538 116.0
71.702713 228.0
71.744858 236.0
71.788696 148.0
71.815689 168.0
71.840988 128.0
71.885399 296.0
71.932121 96.0
71.949005 200.0
71.969261 48.0
71.981087 120.0
71.9944 188.0
72.009796 180.0
72.025101 192.0
72.038513 92.0
72.055405 240.0
72.158508 80.0
72.170341 100.0
72.226151 124.0
72.243073 148.0
72.28199 52.0
72.319221 124.0
72.342918 120.0
72.395409 244.0
72.458084 108.0
72.543106 120.0
72.564766 140.0
72.568466 132.0
72.575775 156.0
72.582199 200.0
72.607262 68.0
72.62587 144.0
72.651367 136.0
72.685699 204.0
72.757652 204.0
72.792343 144.0
72.833008 112.0
72.892471 132.0
72.929863 76.0
72.968964 156.0
73.01828 108.0
73.099945 148.0
73.135689 152.0
73.230339 136.0
73.323044 128.0
73.365662 100.0
73.418526 104.0
73.435577 116.0
73.453781 220.0
73.486755 160.0
73.511116 160.0
73.551613 144.0
73.563408 132.0
73.60112 156.0
73.652359 212.0
73.667732 168.0
73.736084 68.0
73.792496 140.0
73.809601 368.0
73.821571 152.0
73.838669 52.0
73.857483 76.0
73.931061 176.0
74.013229 108.0
74.05262 88.0
74.07489 120.0
74.12709 180.0
74.193138 124.0
74.280602 124.0
74.306335 172.0
74.352669 76.0
74.380486 136.0
74.448814 48.0
74.56736 204.0
74.598938 140.0
74.669197 308.0
74.694603 164.0
74.729012 92.0
74.763428 164.0
74.777046 200.0
74.830772 164.0
74.875336 52.0
74.908066 176.0
74.933907 164.0
74.953873 208.0
75.029747 232.0
75.061462 48.0
75.075264 132.0
75.106308 148.0
75.149437 112.0
75.16497 128.0
75.198494 216.0
75.217361 124.0
75.24955 168.0
75.263359 40.0
75.284088 132.0
75.342812 160.0
75.362747 148.0
75.386017 152.0
75.424873 184.0
75.439598 56.0
75.488014 68.0
75.511589 152.0
75.53125 96.0
75.590797 164.0
75.610847 112.0
75.624695 136.0
75.662773 148.0
75.690483 84.0
75.718193 208.0
75.759766 216.0
75.797386 348.0
75.845665 260.0
75.860283 108.0
75.872414 176.0
75.941376 172.0
76.002502 136.0
76.125755 60.0
76.137909 148.0
76.174385 176.0
76.192772 184.0
76.263489 232.0
76.315895 172.0
76.363861 192.0
76.393433 172.0
76.42997 180.0
76.47348 60.0
76.525703 184.0
76.544861 60.0
76.572723 152.0
76.600594 120.0
76.622353 164.0
76.649384 140.0
76.719101 196.0
76.785362 116.0
76.849907 116.0
76.930199 140.0
76.948738 196.0
76.966858 108.0
76.986069 136.0
77.012268 92.0
77.027992 164.0
77.043716 176.0
77.089142 104.0
77.139832 220.0
77.160812 188.0
77.201035 276.0
77.300423 172.0
77.365509 104.0
77.409286 164.0
77.439056 140.0
77.472694 160.0
77.503792 160.0
77.522179 132.0
77.535072 100.0
77.579247 160.0
77.59964 184.0
77.649391 156.0
77.665176 48.0
77.677452 192.0
77.703957 76.0
77.740623 140.0
77.812592 140.0
77.835419 136.0
77.853409 196.0
77.915947 156.0
77.943428 144.0
78.011116 216.0
78.039253 92.0
78.063637 152.0
78.12191 144.0
78.194061 216.0
78.211662 208.0
78.24247 96.0
78.271523 224.0
78.38475 188.0
78.462486 264.0
78.558464 192.0
78.572937 196.0
78.622345 144.0
78.641754 84.0
78.655876 208.0
78.668137 144.0
78.68589 80.0
78.703705 204.0
78.717674 56.0
78.763596 104.0
78.78138 176.0
78.897903 96.0
78.912048 72.0
78.942749 244.0
78.96022 228.0
78.977486 136.0
79.014633 172.0
79.028793 156.0
79.053566 120.0
79.150932 188.0
79.237724 124.0
79.287338 124.0
79.312088 112.0
79.338745 88.0
79.372437 136.0
79.435471 192.0
79.44297 104.0
79.447609 168.0
79.473541 72.0
79.496613 112.0
79.509422 204.0
79.549866 116.0
79.567619 104.0
79.594254 104.0
79.613281 184.0
79.635101 116.0
79.661743 184.0
79.691948 192.0
79.78437 168.0
79.832382 184.0
79.851761 196.0
79.978279 40.0
80.02877 128.0
80.05484 188.0
80.111832 88.0
80.139427 148.0
80.165291 224.0
80.183113 68.0
80.204445 124.0
80.224113 88.0
80.238373 240.0
80.266907 92.0
80.308815 256.0
80.399124 176.0
80.520325 172.0
80.566765 132.0
80.600716 152.0
80.681152 80.0
80.738373 144.0
80.894753 232.0
80.930519 256.0
80.956711 180.0
80.990334 176.0
81.001678 268.0
81.033737 164.0
81.047249 348.0
81.06958 40.0
81.082123 100.0
81.094673 212.0
81.125145 164.0
81.152039 180.0
81.193283 136.0
81.243553 152.0
81.295547 92.0
81.349396 212.0
81.376328 140.0
81.410446 220.0
81.426605 164.0
81.498466 144.0
81.516014 204.0
81.649475 88.0
81.689049 188.0
81.784416 144.0
81.806023 100.0
81.822227 172.0
81.855652 332.0
81.872643 144.0
81.896889 148.0
81.950104 196.0
82.000732 172.0
82.081696 116.0
82.1036 136.0
82.126785 112.0
82.141212 236.0
82.216995 116.0
82.292503 140.0
82.334351 148.0
82.357094 88.0
82.40139 144.0
82.45269 152.0
82.509628 160.0
82.534943 72.0
82.600052 56.0
82.657951 140.0
82.688614 140.0
82.746643 196.0
82.768372 152.0
82.78286 124.0
82.79554 96.0
82.8311 76.0
82.848068 164.0
82.869812 112.0
82.887077 252.0
82.916931 124.0
82.94593 180.0
83.010567 148.0
83.029739 108.0
83.098274 160.0
83.113258 104.0
83.165962 376.0
83.187202 68.0
83.208992 220.0
83.228966 216.0
83.256203 156.0
83.28437 204.0
83.316147 32.0
83.370529 164.0
83.408829 176.0
83.421165 156.0
83.435547 248.0
83.487015 208.0
83.527817 176.0
83.617012 124.0
83.630753 124.0
83.663513 188.0
83.721786 336.0
83.761154 108.0
83.80558 176.0
83.895592 156.0
83.913963 112.0
83.932297 256.0
83.966003 188.0
84.02256 132.0
84.048889 68.0
84.07 80.0
84.124756 96.0
84.137535 40.0
84.167137 224.0
84.201454 180.0
84.234329 160.0
84.250076 228.0
84.265388 128.0
84.278175 100.0
84.306679 208.0
84.347626 156.0
84.432961 132.0
84.451859 172.0
84.47747 128.0
84.506744 88.0
84.624893 204.0
84.662697 164.0
84.689812 144.0
84.713142 152.0
84.726456 128.0
84.779594 192.0
84.859291 168.0
84.900589 160.0
84.924911 248.0
84.95929 64.0
85.000481 152.0
85.027184 260.0
85.047379 180.0
85.115303 96.0
85.150681 152.0
85.165222 156.0
85.18634 196.0
85.248489 184.0
85.300873 148.0
85.325676 196.0
85.379936 180.0
85.411209 128.0
85.424088 128.0
85.462891 164.0
85.49366 128.0
85.536797 192.0
85.680832 204.0
85.711311 180.0
85.740799 184.0
85.755539 132.0
85.808517 168.0
85.848206 180.0
85.904953 148.0
86.091331 136.0
86.129089 176.0
86.157829 148.0
86.176308 120.0
86.206352 184.0
86.242706 164.0
86.296684 224.0
86.318642 132.0
86.394478 124.0
86.416679 100.0
86.45919 156.0
86.47094 224.0
86.499962 212.0
86.520325 120.0
86.535141 196.0
86.553658 172.0
86.56662 168.0
86.583282 208.0
86.598106 152.0
86.648117 136.0
86.670357 180.0
86.700211 180.0
86.74678 136.0
86.788025 164.0
86.801971 124.0
86.839058 84.0
86.975136 192.0
87.004219 128.0
87.028358 64.0
87.071068 164.0
87.099693 204.0
87.149094 252.0
87.163956 116.0
87.219711 136.0
87.232727 232.0
87.297806 80.0
87.321983 168.0
87.354088 216.0
87.381508 164.0
87.43734 108.0
87.452225 176.0
87.493538 188.0
87.538307 280.0
87.557777 128.0
87.571396 76.0
87.597473 148.0
87.632874 88.0
87.677269 136.0
87.683762 196.0
87.70742 152.0
87.728928 156.0
87.748436 60.0
87.783859 120.0
87.834221 100.0
87.862206 144.0
87.891533 100.0
87.908852 112.0
87.936852 76.0
87.990982 92.0
88.039536 144.0
88.116127 176.0
88.13768 112.0
88.153496 124.0
88.184608 204.0
88.232124 184.0
88.248833 164.0
88.282494 108.0
88.308678 88.0
88.361053 168.0
88.407333 252.0
88.512672 140.0
88.585716 76.0
88.63443 152.0
88.668167 208.0
88.734619 124.0
88.786278 176.0
88.821922 84.0
88.860535 180.0
88.885712 124.0
88.906357 216.0
88.930756 140.0
88.949524 168.0
89.003975 132.0
89.056557 108.0
89.139221 152.0
89.236969 88.0
89.299026 192.0
89.331009 160.0
89.346054 92.0
89.381805 196.0
89.432625 124.0
89.464622 144.0
89.479683 120.0
89.53241 184.0
89.566315 124.0
89.603996 208.0
89.63414 184.0
89.700676 384.0
89.74913 96.0
89.79628 120.0
89.81514 112.0
89.845322 164.0
89.884659 240.0
89.934013 116.0
89.94912 128.0
89.969887 100.0
90.015198 112.0
90.083199 196.0
90.107758 188.0
90.133324 204.0
90.16256 144.0
90.285446 144.0
90.326782 136.0
90.480354 80.0
90.50882 112.0
90.537163 84.0
90.552315 172.0
90.587448 212.0
90.642319 148.0
90.681152 192.0
90.711487 152.0
90.775047 92.0
90.829056 344.0
90.878731 152.0
90.899254 156.0
90.980873 108.0
91.053055 2308.0
91.125221 184.0
91.151825 76.0
91.172729 184.0
91.224052 272.0
91.317497 168.0
91.353371 112.0
91.395287 120.0
91.438995 120.0
91.467545 152.0
91.491074 144.0
91.503723 144.0
91.532341 132.0
91.555695 68.0
91.634933 184.0
91.680878 156.0
91.705284 104.0
91.726624 116.0
91.774284 120.0
91.789536 84.0
91.814331 100.0
91.890633 204.0
91.916458 172.0
91.955719 192.0
91.997513 212.0
92.057152 396.0
92.085472 132.0
92.100632 156.0
92.12738 128.0
92.146484 200.0
92.226746 96.0
92.249687 140.0
92.284103 156.0
92.314697 204.0
92.334541 224.0
92.421822 144.0
92.446701 168.0
92.486893 160.0
92.50647 160.0
92.525185 160.0
92.601784 208.0
92.649574 156.0
92.772324 180.0
92.854507 140.0
92.866737 140.0
92.994843 152.0
93.015472 172.0
93.091469 172.0
93.111862 144.0
93.128906 144.0
93.214081 160.0
93.302208 104.0
93.342697 136.0
93.417603 180.0
93.436401 176.0
93.456078 32.0
93.479172 32.0
93.536758 100.0
93.554749 288.0
93.581192 156.0
93.696754 120.0
93.753296 292.0
93.80468 152.0
93.82589 168.0
93.86869 176.0
93.885666 112.0
93.908806 120.0
93.930023 68.0
93.947388 120.0
93.978256 132.0
94.034607 160.0
94.063179 144.0
94.09021 124.0
94.119171 160.0
94.142342 88.0
94.182899 288.0
94.208015 188.0
94.225929 352.0
94.302704 180.0
94.367493 144.0
94.39357 32.0
94.441917 164.0
94.459442 136.0
94.52124 184.0
94.545784 176.0
94.627708 216.0
94.656364 120.0
94.689674 104.0
94.71756 252.0
94.743912 176.0
94.76329 80.0
94.823364 164.0
94.840805 180.0
94.898605 172.0
94.923058 284.0
95.007584 180.0
95.032806 156.0
95.059334 208.0
95.090767 152.0
95.116257 164.0
95.143433 316.0
95.199745 168.0
95.221107 304.0
95.256577 200.0
95.291092 164.0
95.313538 152.0
95.376556 212.0
95.394051 240.0
95.450439 176.0
95.503944 168.0
95.531143 156.0
95.594391 156.0
95.641106 148.0
95.763771 120.0
95.778404 164.0
95.786774 84.0
95.791885 148.0
95.806633 120.0
95.882652 188.0
95.921783 164.0
95.966454 164.0
96.021057 224.0
96.062019 188.0
96.08503 200.0
96.124451 128.0
96.164772 140.0
96.190811 288.0
96.232941 180.0
96.282585 112.0
96.315788 96.0
96.334137 92.0
96.370491 164.0
96.403717 128.0
96.524918 220.0
96.638374 168.0
96.651443 136.0
96.675354 156.0
96.70491 32.0
96.718613 44.0
96.736229 160.0
96.752899 140.0
96.793007 176.0
96.816513 52.0
96.836098 56.0
96.926216 176.0
96.955612 52.0
96.978355 152.0
97.020294 156.0
97.059509 244.0
97.095917 168.0
97.137962 28.0
97.159546 132.0
97.238037 128.0
97.271408 108.0
97.287109 140.0
97.320488 192.0
97.334236 200.0
97.361732 64.0
97.381371 40.0
97.483253 168.0
97.509087 104.0
97.566086 140.0
97.646713 128.0
97.666382 104.0
97.689987 116.0
97.739174 92.0
97.796249 148.0
97.867126 100.0
97.880905 72.0
97.90538 216.0
97.969543 40.0
98.016525 200.0
98.046394 128.0
98.070045 204.0
98.108269 348.0
98.135101 100.0
98.178047 144.0
98.206093 60.0
98.235687 140.0
98.27317 108.0
98.290932 200.0
98.336327 76.0
98.424156 124.0
98.450836 136.0
98.470146 272.0
98.528717 140.0
98.554802 116.0
98.581383 148.0
98.630638 184.0
98.694916 140.0
98.725815 144.0
98.741364 328.0
98.800705 160.0
98.877884 68.0
98.913513 140.0
99.002808 204.0
99.105621 200.0
99.121178 188.0
99.149216 112.0
99.167053 172.0
99.25032 156.0
99.2761 192.0
99.323708 212.0
99.355446 52.0
99.377274 132.0
99.399101 148.0
99.442757 160.0
99.462273 164.0
99.491081 128.0
99.514229 116.0
99.68705 80.0
99.780472 104.0
99.829941 164.0
99.848083 104.0
99.866852 108.0
99.886177 104.0
99.92765 156.0
100.077263 172.0
100.160019 128.0
100.175667 188.0
100.208397 160.0
100.272163 116.0
100.325989 136.0
100.370514 164.0
100.405746 84.0
100.42569 128.0
100.459518 184.0
100.495514 172.0
100.529442 120.0
100.57988 148.0
100.611282 260.0
100.637726 212.0
100.663193 180.0
100.698929 112.0
100.777054 92.0
100.831009 168.0
100.861237 228.0
100.892982 80.0
100.932968 120.0
100.95697 124.0
101.014969 40.0
101.03157 188.0
101.066994 68.0
101.093674 188.0
101.171074 160.0
101.185081 136.0
101.201103 124.0
101.285217 188.0
101.301247 108.0
101.35186 136.0
101.36937 172.0
101.417465 112.0
101.501671 164.0
101.52153 80.0
101.569199 156.0
101.61776 96.0
101.650414 216.0
101.69561 220.0
101.716354 380.0
101.74044 148.0
101.761948 368.0
101.790031 184.0
101.820244 160.0
101.877007 132.0
102.000763 124.0
102.041687 252.0
102.100128 188.0
102.128288 76.0
102.190651 124.0
102.216812 120.0
102.23291 156.0
102.2631 136.0
102.285248 184.0
102.32148 52.0
102.361122 216.0
102.410088 108.0
102.448364 40.0
102.502769 172.0
102.516869 56.0
102.551132 68.0
102.585403 324.0
102.616379 176.0
102.650635 148.0
102.684212 60.0
102.698326 188.0
102.716484 196.0
102.738678 104.0
102.789566 180.0
102.809296 104.0
102.82695 172.0
102.871872 96.0
102.892059 148.0
103.029396 156.0
103.053818 1444.0
103.07991 140.0
103.139679 112.0
103.178505 180.0
103.213326 140.0
103.281151 208.0
103.302322 80.0
103.326271 148.0
103.339043 172.0
103.394142 172.0
103.41468 152.0
103.492569 176.0
103.506744 136.0
103.537796 84.0
103.591812 64.0
103.61676 64.0
103.654625 84.0
103.792465 116.0
103.810593 64.0
103.83535 136.0
103.8685 172.0
103.90094 184.0
103.927856 220.0
103.962219 228.0
104.055183 312.0
104.155762 272.0
104.20858 100.0
104.262192 220.0
104.277672 200.0
104.340691 164.0
104.37323 132.0
104.398033 140.0
104.440102 172.0
104.445114 212.0
104.455429 96.0
104.481026 148.0
104.53788 136.0
104.554283 144.0
104.625526 68.0
104.66198 168.0
104.682541 124.0
104.706932 180.0
104.727348 176.0
104.766853 172.0
104.879761 152.0
104.911583 196.0
104.934593 196.0
104.967842 60.0
104.9907 212.0
105.014748 136.0
105.037186 140.0
105.068748 2736.0
105.116119 96.0
105.171867 156.0
105.2229 148.0
105.245361 44.0
105.288246 40.0
105.314384 268.0
105.329094 140.0
105.355301 92.0
105.373253 156.0
105.434891 72.0
105.44677 136.0
105.49054 84.0
105.524216 312.0
105.603004 56.0
105.621414 68.0
105.654144 184.0
105.701202 164.0
105.717575 72.0
105.733391 212.0
105.764694 188.0
105.805595 112.0
105.821976 120.0
105.842453 124.0
105.926643 228.0
105.9674 108.0
106.022728 116.0
106.066429 288.0
106.11702 360.0
106.200317 136.0
106.221619 116.0
106.252335 152.0
106.264236 160.0
106.316002 124.0
106.36937 188.0
106.39106 92.0
106.398773 136.0
106.444901 232.0
106.476143 184.0
106.496681 136.0
106.533745 276.0
106.565353 196.0
106.626923 176.0
106.646683 100.0
106.684563 84.0
106.817352 172.0
106.848213 132.0
106.86673 300.0
106.897598 124.0
106.920235 176.0
106.936699 136.0
106.990219 100.0
107.023163 100.0
107.064354 180.0
107.087006 424.0
107.188156 164.0
107.216812 148.0
107.264214 120.0
107.326126 140.0
107.354935 116.0
107.392059 184.0
107.460991 156.0
107.495224 160.0
107.561264 104.0
107.632553 228.0
107.65831 136.0
107.723854 120.0
107.753334 128.0
107.790527 148.0
107.820702 176.0
107.865608 256.0
107.913651 156.0
107.937294 148.0
107.951767 176.0
107.966248 44.0
108.013817 204.0
108.031075 200.0
108.046127 188.0
108.083023 304.0
108.119347 84.0
108.206284 52.0
108.249924 108.0
108.298141 180.0
108.328537 136.0
108.357483 220.0
108.384422 144.0
108.403069 96.0
108.440376 172.0
108.454887 116.0
108.48304 252.0
108.500488 144.0
108.56353 160.0
108.583206 212.0
108.626999 136.0
108.653198 140.0
108.682343 176.0
108.7276 116.0
108.795616 176.0
108.815857 132.0
108.854492 172.0
108.872963 208.0
108.890617 84.0
108.921776 120.0
108.975792 184.0
108.996567 124.0
109.025002 200.0
109.044373 140.0
109.064354 228.0
109.100494 708.0
109.16703 108.0
109.238998 208.0
109.256477 108.0
109.29393 172.0
109.378136 160.0
109.427139 164.0
109.44796 156.0
109.493782 120.0
109.559845 160.0
109.577103 156.0
109.672966 68.0
109.735359 156.0
109.766785 212.0
109.78347 136.0
109.798073 112.0
109.82814 48.0
109.858559 124.0
109.910248 192.0
109.956635 128.0
109.977509 144.0
110.021347 156.0
110.04879 112.0
110.095848 332.0
110.13131 128.0
110.180069 176.0
110.200966 104.0
110.219772 168.0
110.264099 132.0
110.320099 112.0
110.359825 120.0
110.408722 140.0
110.460213 152.0
110.487404 80.0
110.516701 92.0
110.53553 60.0
110.619255 148.0
110.633911 260.0
110.699692 128.0
110.721222 204.0
110.773735 184.0
110.828697 140.0
110.87899 208.0
110.921989 156.0
110.979614 140.0
111.008972 176.0
111.088676 188.0
111.123466 144.0
111.150314 148.0
111.220879 148.0
111.298561 56.0
111.317459 196.0
111.332161 156.0
111.351959 140.0
111.376068 128.0
111.414185 168.0
111.449799 168.0
111.47081 448.0
111.493698 180.0
111.52552 140.0
111.551872 176.0
111.580116 184.0
111.607292 160.0
111.620766 156.0
111.654877 188.0
111.677887 152.0
111.71051 156.0
111.779945 104.0
111.796776 124.0
111.840614 164.0
111.864136 204.0
111.887291 176.0
111.925194 144.0
111.971184 176.0
111.977669 148.0
111.986725 164.0
112.03965 188.0
112.075981 896.0
112.108261 300.0
112.13797 92.0
112.206406 164.0
112.239166 236.0
112.269073 152.0
112.313667 160.0
112.336601 204.0
112.367828 100.0
112.401527 128.0
112.431351 232.0
112.500793 112.0
112.521904 160.0
112.553581 56.0
112.587372 140.0
112.631821 168.0
112.648621 132.0
112.695107 132.0
112.766411 140.0
112.786751 140.0
112.825043 184.0
112.906502 196.0
112.925537 116.0
112.948799 68.0
112.997604 236.0
113.095627 1468.0
113.121216 160.0
113.202309 348.0
113.259972 152.0
113.283272 176.0
113.310814 96.0
113.376587 164.0
113.408302 276.0
113.425789 144.0
113.480377 148.0
113.54612 48.0
113.563087 56.0
113.592781 144.0
113.624603 176.0
113.6437 156.0
113.664726 352.0
113.688263 144.0
113.730713 108.0
113.795929 172.0
113.905846 80.0
113.933052 136.0
114.002579 168.0
114.072716 148.0
114.099915 292.0
114.162018 160.0
114.189667 180.0
114.227287 228.0
114.289658 68.0
114.321297 184.0
114.374786 128.0
114.439217 152.0
114.500412 140.0
114.51532 144.0
114.530228 112.0
114.562187 164.0
114.605568 132.0
114.649551 272.0
114.704964 172.0
114.726288 80.0
114.758263 208.0
114.80172 180.0
114.835037 104.0
114.881866 164.0
114.890388 156.0
114.980125 148.0
115.002853 172.0
115.052948 2640.0
115.110634 152.0
115.206467 168.0
115.262024 204.0
115.315453 160.0
115.331604 136.0
115.340424 76.0
115.36348 132.0
115.458702 108.0
115.474998 244.0
115.49292 124.0
115.512177 88.0
115.561378 176.0
115.589478 152.0
115.603882 144.0
115.64576 196.0
115.678337 148.0
115.730476 56.0
115.783241 272.0
115.830872 192.0
115.900543 172.0
115.909531 68.0
115.916542 144.0
115.923195 192.0
115.937965 168.0
115.976845 164.0
116.006599 132.0
116.056511 428.0
116.079758 264.0
116.109787 124.0
116.159119 136.0
116.176277 160.0
116.227776 176.0
116.277138 112.0
116.296326 136.0
116.311478 224.0
116.335144 172.0
116.362999 208.0
116.412392 28.0
116.444687 100.0
116.480721 172.0
116.509956 76.0
116.562767 48.0
116.577805 132.0
116.620796 180.0
116.642288 204.0
116.683136 184.0
116.715385 156.0
116.768257 132.0
116.794968 144.0
116.832001 184.0
116.857353 96.0
116.875778 156.0
116.930519 140.0
116.965569 252.0
117.017914 228.0
117.040314 220.0
117.069061 2772.0
117.128616 80.0
117.175308 108.0
117.223419 128.0
117.248947 208.0
117.316101 92.0
117.333344 108.0
117.369965 228.0
117.445389 88.0
117.450974 140.0
117.458786 168.0
117.485512 188.0
117.514519 120.0
117.529625 132.0
117.545685 172.0
117.628906 160.0
117.658936 180.0
117.685043 252.0
117.700157 68.0
117.748184 100.0
117.788704 244.0
117.844879 148.0
117.869965 216.0
117.888092 148.0
117.937805 68.0
117.95726 180.0
118.000504 56.0
118.035095 132.0
118.055534 320.0
118.072525 324.0
118.123489 152.0
118.147568 236.0
118.180023 92.0
118.22509 136.0
118.249275 188.0
118.274826 184.0
118.304039 120.0
118.361977 140.0
118.400833 148.0
118.417061 124.0
118.532982 160.0
118.553734 216.0
118.587166 88.0
118.613174 212.0
118.634857 48.0
118.652199 88.0
118.798798 168.0
118.850838 124.0
118.859154 164.0
118.865082 192.0
118.903831 164.0
118.949257 164.0
118.972893 160.0
119.011856 168.0
119.046204 164.0
119.083946 832.0
119.120972 136.0
119.190491 124.0
119.212227 184.0
119.244827 80.0
119.264389 180.0
119.305695 144.0
119.320908 144.0
119.35849 184.0
119.399193 320.0
119.479675 120.0
119.510139 164.0
119.536255 96.0
119.553665 200.0
119.575424 176.0
119.595016 96.0
119.643822 180.0
119.660324 180.0
119.675568 132.0
119.701698 272.0
119.775749 176.0
119.808426 160.0
119.82737 128.0
119.854179 200.0
119.875977 240.0
119.906487 76.0
119.939743 200.0
119.967522 120.0
120.000221 172.0
120.022026 176.0
120.078209 252.0
120.11145 160.0
120.162041 148.0
120.19062 248.0
120.213997 140.0
120.247421 200.0
120.263283 212.0
120.341911 128.0
120.401405 128.0
120.473236 192.0
120.47876 140.0
120.500046 216.0
120.542809 232.0
120.609314 96.0
120.624619 92.0
120.729568 140.0
120.756592 248.0
120.779877 112.0
120.810501 136.0
120.865204 160.0
121.062225 144.0
121.086975 172.0
121.156235 152.0
121.189384 168.0
121.197105 168.0
121.257027 192.0
121.276825 152.0
121.294472 212.0
121.316399 188.0
121.386559 112.0
121.428879 108.0
121.463326 208.0
121.498428 100.0
121.533531 176.0
121.584007 92.0
121.60376 176.0
121.663025 168.0
121.678398 44.0
121.717918 132.0
121.770355 160.0
121.794785 168.0
121.889259 108.0
121.952995 152.0
121.972778 148.0
122.021873 156.0
122.087975 164.0
122.105515 164.0
122.148697 112.0
122.208099 132.0
122.330238 152.0
122.381989 116.0
122.40181 56.0
122.439629 184.0
122.456863 108.0
122.505325 112.0
122.522949 244.0
122.538376 80.0
122.556 104.0
122.584648 100.0
122.644157 80.0
122.730141 180.0
122.802917 52.0
122.841286 128.0
122.900642 148.0
122.921875 148.0
122.979034 132.0
123.019592 104.0
123.047867 56.0
123.107491 156.0
123.175957 76.0
123.255501 112.0
123.288643 104.0
123.304115 156.0
123.33506 76.0
123.355583 156.0
123.388115 96.0
123.430496 360.0
123.472099 172.0
123.480675 168.0
123.5186 172.0
123.579437 128.0
123.613739 140.0
123.768692 144.0
123.808556 140.0
123.857285 176.0
123.908821 152.0
123.947594 136.0
123.954765 104.0
123.963341 136.0
123.97139 184.0
124.004913 172.0
124.078896 168.0
124.094414 136.0
124.114288 476.0
124.143196 176.0
124.188522 184.0
124.231918 68.0
124.265274 136.0
124.285172 92.0
124.318962 136.0
124.365067 152.0
124.410599 180.0
124.441032 128.0
124.496376 200.0
124.540688 176.0
124.552437 84.0
124.559578 208.0
124.582687 156.0
124.61824 172.0
124.644905 96.0
124.687126 212.0
124.709351 156.0
124.797256 208.0
124.838303 48.0
124.861382 160.0
124.88279 116.0
124.940628 88.0
124.982903 192.0
125.030708 132.0
125.051552 132.0
125.076378 152.0
125.096413 108.0
125.12915 136.0
125.258972 196.0
125.283478 192.0
125.363693 176.0
125.386345 180.0
125.462631 176.0
125.481247 120.0
125.550484 260.0
125.584938 120.0
125.608955 88.0
125.629036 200.0
125.643356 156.0
125.662498 84.0
125.704895 60.0
125.724983 152.0
125.760696 140.0
125.79763 212.0
125.849991 136.0
125.94603 184.0
125.975067 180.0
125.995171 176.0
126.028687 160.0
126.093788 184.0
126.124519 508.0
126.232109 44.0
126.341705 128.0
126.420021 124.0
126.462051 144.0
126.520752 140.0
126.55101 220.0
126.574486 120.0
126.626938 132.0
126.662971 208.0
126.715607 232.0
126.771622 156.0
126.798515 68.0
126.815407 124.0
126.842369 156.0
126.934166 300.0
126.950974 148.0
126.983528 124.0
127.027229 204.0
127.054901 680.0
127.096779 164.0
127.150642 296.0
127.235947 100.0
127.339241 164.0
127.367317 176.0
127.392433 112.0
127.445808 208.0
127.462112 208.0
127.496223 188.0
127.538109 152.0
127.61116 144.0
127.644943 168.0
127.671959 308.0
127.725372 168.0
127.741707 176.0
127.804596 148.0
127.902679 176.0
128.009445 188.0
128.061554 1628.0
128.10405 128.0
128.13559 52.0
128.173889 164.0
128.198685 92.0
128.214462 144.0
128.246017 76.0
128.278732 140.0
128.312531 188.0
128.322189 96.0
128.330383 168.0
128.349716 104.0
128.385559 112.0
128.391037 100.0
128.397766 144.0
128.421234 208.0
128.453461 144.0
128.530182 184.0
128.55275 120.0
128.599533 184.0
128.645279 176.0
128.759247 144.0
128.794327 128.0
128.844025 132.0
128.875656 152.0
128.918594 212.0
128.949615 176.0
128.978027 228.0
129.035004 232.0
129.069031 16256.0
129.127686 436.0
129.1707 96.0
129.203506 172.0
129.262329 172.0
129.2827 112.0
129.327972 188.0
129.386826 180.0
129.401901 176.0
129.447052 92.0
129.481934 168.0
129.526581 124.0
129.604645 168.0
129.654114 88.0
129.68132 68.0
129.710785 44.0
129.776535 180.0
129.803741 228.0
129.824158 152.0
129.840027 180.0
129.860489 172.0
129.91597 144.0
130.009003 152.0
130.069412 2832.0
130.116867 452.0
130.137726 128.0
130.14563 24.0
130.152817 144.0
130.191803 148.0
130.218536 188.0
130.226379 80.0
130.272842 224.0
130.299789 112.0
130.32309 136.0
130.380371 132.0
130.48494 332.0
130.504868 184.0
130.537186 160.0
130.573624 144.0
130.607742 68.0
130.661102 176.0
130.688599 104.0
130.703293 184.0
130.733704 144.0
130.841095 80.0
130.908798 172.0
130.951447 184.0
130.997009 48.0
131.0289 132.0
131.081955 1088.0
131.124619 160.0
131.15625 132.0
131.165253 156.0
131.188431 384.0
131.275085 148.0
131.29332 44.0
131.325256 76.0
131.363159 176.0
131.391418 164.0
131.468994 140.0
131.519104 160.0
131.574005 28.0
131.605957 112.0
131.626511 172.0
131.644791 156.0
131.697311 188.0
131.749847 152.0
131.774994 132.0
131.872086 336.0
131.898071 188.0
131.925293 68.0
131.943817 124.0
131.957367 136.0
131.98407 144.0
132.010437 84.0
132.033295 184.0
132.083374 900.0
132.122513 172.0
132.140808 128.0
132.216324 196.0
132.2621 224.0
132.339951 240.0
132.359314 128.0
132.374298 172.0
132.404068 128.0
132.456741 28.0
132.490234 156.0
132.496475 140.0
132.503571 248.0
132.5242 136.0
132.57811 128.0
132.61821 208.0
132.633194 236.0
132.676758 200.0
132.752426 140.0
132.80423 172.0
132.839584 216.0
132.88176 124.0
132.912994 120.0
133.016388 176.0
133.046127 204.0
133.077316 144.0
133.085159 216.0
133.110413 108.0
133.126495 68.0
133.165085 204.0
133.183914 100.0
133.202286 176.0
133.23085 260.0
133.261246 132.0
133.340149 104.0
133.379227 120.0
133.498047 260.0
133.507156 176.0
133.609192 160.0
133.63681 76.0
133.652908 164.0
133.685135 64.0
133.703156 144.0
133.733459 36.0
133.756546 172.0
133.791016 104.0
133.843964 92.0
133.862045 108.0
133.93541 108.0
133.967026 140.0
133.989075 168.0
134.064209 172.0
134.095078 256.0
134.125046 104.0
134.210358 52.0
134.232971 168.0
134.278229 160.0
134.310074 236.0
134.411041 168.0
134.512543 196.0
134.540283 136.0
134.558762 128.0
134.584244 100.0
134.627899 140.0
134.663574 300.0
134.711182 156.0
134.733139 176.0
134.766632 148.0
134.805923 184.0
134.921494 68.0
134.967743 36.0
134.998779 132.0
135.044113 160.0
135.064499 148.0
135.088013 92.0
135.106506 148.0
135.159378 208.0
135.195404 172.0
135.219894 72.0
135.292526 148.0
135.340286 136.0
135.384277 164.0
135.412079 184.0
135.453766 116.0
135.516327 100.0
135.534851 188.0
135.574249 180.0
135.624359 160.0
135.666977 288.0
135.688828 84.0
135.726166 172.0
135.771317 140.0
135.831207 88.0
135.900589 204.0
135.95459 132.0
135.97583 132.0
135.982285 168.0
136.00798 136.0
136.04184 320.0
136.065567 104.0
136.078888 184.0
136.110016 3372.0
136.157318 164.0
136.211411 172.0
136.214981 200.0
136.282974 176.0
136.31456 364.0
136.370331 176.0
136.41716 140.0
136.472626 120.0
136.5168 144.0
136.533081 220.0
136.559021 176.0
136.609848 320.0
136.700592 152.0
136.742477 96.0
136.795654 128.0
136.847244 128.0
136.87236 228.0
136.898468 124.0
136.917099 152.0
136.93573 92.0
136.966019 220.0
137.021439 208.0
137.073181 156.0
137.115982 780.0
137.189117 232.0
137.227036 112.0
137.255005 128.0
137.292328 212.0
137.322647 84.0
137.343643 28.0
137.362305 188.0
137.380966 104.0
137.408951 164.0
137.436951 144.0
137.465607 72.0
137.491409 108.0
137.524353 160.0
137.548981 108.0
137.588028 144.0
137.619019 96.0
137.651154 148.0
137.660049 112.0
137.66449 212.0
137.710495 120.0
137.764648 136.0
137.784851 224.0
137.825119 136.0
137.849106 128.0
137.936768 156.0
137.964813 120.0
138.07988 168.0
138.12616 592.0
138.155365 360.0
138.209641 160.0
138.23848 68.0
138.254868 112.0
138.27124 196.0
138.360199 164.0
138.378937 204.0
138.4599 228.0
138.519455 208.0
138.535843 136.0
138.573914 132.0
138.65535 148.0
138.675079 280.0
138.719681 124.0
138.746765 148.0
138.791321 144.0
138.811615 140.0
138.831192 156.0
138.852295 104.0
138.887482 172.0
138.943787 108.0
138.983887 132.0
139.02356 156.0
139.091003 136.0
139.136017 116.0
139.183197 132.0
139.213852 140.0
139.249222 176.0
139.267746 220.0
139.311157 216.0
139.418106 156.0
139.469818 124.0
139.496704 192.0
139.549744 56.0
139.582672 172.0
139.601486 104.0
139.61795 192.0
139.669754 152.0
139.695572 56.0
139.751251 132.0
139.820282 160.0
139.84787 116.0
139.879013 204.0
139.959167 228.0
140.002075 240.0
140.076004 264.0
140.163666 148.0
140.178925 124.0
140.201813 104.0
140.222153 152.0
140.260742 172.0
140.287567 220.0
140.32785 240.0
140.364471 104.0
140.392776 152.0
140.414948 220.0
140.501282 124.0
140.553192 76.0
140.664429 152.0
140.689468 188.0
140.737305 96.0
140.793976 132.0
140.86438 304.0
140.940445 144.0
140.961716 120.0
141.004257 148.0
141.068298 1944.0
141.116226 252.0
141.168137 152.0
141.304581 132.0
141.338364 172.0
141.373199 128.0
141.408707 192.0
141.425278 132.0
141.493927 104.0
141.582077 188.0
141.609955 112.0
141.643127 140.0
141.683395 52.0
141.744995 124.0
141.816101 144.0
141.851654 164.0
141.911499 100.0
141.955597 184.0
141.984436 184.0
142.010529 108.0
142.034149 96.0
142.06955 448.0
142.074722 484.0
142.120621 948.0
142.18895 164.0
142.208237 112.0
142.252563 120.0
142.309555 108.0
142.326172 136.0
142.347549 156.0
142.387909 108.0
142.435425 256.0
142.468674 180.0
142.510529 268.0
142.535278 136.0
142.571899 164.0
142.656418 204.0
142.675446 84.0
142.694458 180.0
142.750412 188.0
142.785614 168.0
142.856369 156.0
142.896378 152.0
142.958496 112.0
142.975159 80.0
143.018005 212.0
143.082626 1764.0
143.129166 132.0
143.137802 176.0
143.17276 116.0
143.19809 152.0
143.232315 68.0
143.253754 144.0
143.319443 272.0
143.351776 172.0
143.394333 296.0
143.420563 212.0
143.450302 176.0
143.496567 136.0
143.528549 232.0
143.55983 136.0
143.612717 68.0
143.667465 116.0
143.720444 500.0
143.747299 116.0
143.778336 120.0
143.890228 132.0
143.940674 156.0
143.976486 112.0
144.042343 388.0
144.080246 868.0
144.112213 172.0
144.148499 172.0
144.224976 172.0
144.316254 176.0
144.3517 68.0
144.404953 132.0
144.501587 72.0
144.569397 160.0
144.614319 160.0
144.631622 84.0
144.664749 156.0
144.672989 172.0
144.704544 88.0
144.734573 152.0
144.76091 72.0
144.814789 264.0
144.856354 160.0
144.921402 200.0
144.962143 148.0
145.019653 180.0
145.061615 408.0
145.086487 1848.0
145.137131 256.0
145.215042 144.0
145.319427 128.0
145.34343 168.0
145.44902 40.0
145.471848 192.0
145.521042 128.0
145.58606 164.0
145.619507 196.0
145.644394 192.0
145.669952 84.0
145.697983 168.0
145.749237 136.0
145.806915 96.0
145.838165 136.0
145.893387 172.0
145.919891 196.0
145.951797 148.0
145.988892 176.0
146.056168 108.0
146.093002 564.0
146.129181 324.0
146.163147 120.0
146.206146 180.0
146.23262 144.0
146.250397 244.0
146.273544 120.0
146.336136 128.0
146.352997 156.0
146.379486 96.0
146.406067 112.0
146.451736 164.0
146.531097 256.0
146.5746 72.0
146.596298 116.0
146.632004 264.0
146.658966 128.0
146.696747 160.0
146.769867 76.0
146.796387 36.0
146.818085 148.0
146.872818 180.0
146.89769 172.0
146.919403 172.0
146.958008 192.0
146.99968 176.0
147.042923 168.0
147.087982 184.0
147.107208 204.0
147.136612 156.0
147.155228 180.0
147.199387 176.0
147.242859 136.0
147.291 172.0
147.335251 192.0
147.341843 180.0
147.35141 188.0
147.373306 172.0
147.39624 176.0
147.462723 36.0
147.492065 148.0
147.525574 188.0
147.56369 204.0
147.615036 80.0
147.638367 180.0
147.696106 164.0
147.716629 52.0
147.745651 96.0
147.783493 256.0
147.8013 244.0
147.824112 216.0
147.870041 112.0
147.898117 124.0
147.967072 240.0
148.021591 184.0
148.111206 136.0
148.182556 132.0
148.227493 212.0
148.280807 176.0
148.309891 232.0
148.372925 100.0
148.392319 168.0
148.418991 136.0
148.449005 200.0
148.484634 120.0
148.547546 64.0
148.58815 76.0
148.632462 36.0
148.678574 136.0
148.753815 176.0
148.78537 60.0
148.872787 116.0
148.906342 176.0
149.035538 264.0
149.057343 144.0
149.078583 192.0
149.118164 376.0
149.145844 220.0
149.259171 180.0
149.289566 180.0
149.317535 152.0
149.358887 140.0
149.378357 96.0
149.424576 164.0
149.457916 120.0
149.497574 304.0
149.513489 164.0
149.535828 128.0
149.574585 156.0
149.607117 36.0
149.626587 212.0
149.667984 120.0
149.723984 120.0
149.831177 104.0
149.894791 108.0
149.987137 80.0
150.057831 116.0
150.123672 80.0
150.144775 196.0
150.213928 104.0
150.233444 104.0
150.262711 124.0
150.30748 184.0
150.328598 132.0
150.359406 224.0
150.405289 144.0
150.426407 152.0
150.484818 192.0
150.506805 120.0
150.527176 240.0
150.578171 212.0
150.646927 188.0
150.704651 148.0
150.729095 80.0
150.748642 128.0
150.799957 148.0
150.856186 188.0
150.87648 80.0
150.884186 88.0
150.914856 164.0
150.948334 180.0
151.009109 208.0
151.041962 144.0
151.051682 140.0
151.133774 804.0
151.226303 164.0
151.254929 52.0
151.296722 140.0
151.323471 140.0
151.352859 132.0
151.406738 132.0
151.437057 136.0
151.470413 176.0
151.563522 260.0
151.610077 176.0
151.637039 128.0
151.734375 148.0
151.798843 152.0
151.889603 204.0
151.911804 172.0
151.963196 56.0
152.0336 128.0
152.041168 88.0
152.06395 148.0
152.139496 648.0
152.197861 496.0
152.233215 104.0
152.258667 132.0
152.3069 232.0
152.34375 112.0
152.442032 112.0
152.49028 120.0
152.552643 180.0
152.675583 128.0
152.769058 172.0
152.78627 136.0
152.805954 232.0
152.830566 116.0
152.865005 92.0
152.897003 88.0
152.91423 176.0
152.954819 148.0
152.965103 72.0
152.971878 124.0
153.012695 144.0
153.042252 132.0
153.067917 848.0
153.108734 172.0
153.140045 184.0
153.219681 108.0
153.241638 204.0
153.315414 148.0
153.338272 156.0
153.368713 64.0
153.415833 232.0
153.437546 164.0
153.468521 116.0
153.508743 104.0
153.536392 200.0
153.591827 144.0
153.658447 116.0
153.748337 176.0
153.78183 60.0
153.819412 124.0
153.836136 200.0
153.86824 184.0
153.939651 156.0
153.972412 168.0
153.997162 288.0
154.024399 148.0
154.067093 968.0
154.124939 148.0
154.15477 44.0
154.177002 216.0
154.209137 128.0
154.267624 260.0
154.331711 176.0
154.419296 100.0
154.468781 152.0
154.50589 152.0
154.531525 120.0
154.572693 124.0
154.683945 160.0
154.769241 164.0
154.791916 272.0
154.811676 120.0
154.897034 156.0
154.924286 124.0
154.988708 128.0
155.084732 2280.0
155.147324 180.0
155.169647 104.0
155.235733 196.0
155.26387 180.0
155.292236 64.0
155.318436 156.0
155.343246 124.0
155.385223 176.0
155.430084 120.0
155.493607 228.0
155.553146 232.0
155.581497 136.0
155.663818 52.0
155.686966 92.0
155.705215 256.0
155.782654 84.0
155.864822 108.0
155.885742 220.0
155.9375 164.0
155.966537 132.0
156.038635 172.0
156.080063 2652.0
156.13591 744.0
156.177902 88.0
156.210236 104.0
156.259995 108.0
156.312637 128.0
156.35704 48.0
156.386917 156.0
156.412506 128.0
156.418716 124.0
156.48616 152.0
156.596344 140.0
156.648376 92.0
156.688232 164.0
156.872665 188.0
156.889099 124.0
156.910049 76.0
156.947449 68.0
156.967407 188.0
156.99234 140.0
157.034744 168.0
157.091736 704.0
157.148392 108.0
157.254318 176.0
157.274689 72.0
157.332047 168.0
157.371643 192.0
157.390686 140.0
157.509003 52.0
157.538986 140.0
157.648926 144.0
157.68222 260.0
157.706406 136.0
157.738907 92.0
157.771408 72.0
157.807938 188.0
157.829254 144.0
157.873917 156.0
157.906708 144.0
157.931442 72.0
157.963959 120.0
157.982452 124.0
158.034012 116.0
158.093689 980.0
158.214218 196.0
158.276825 40.0
158.323395 196.0
158.387024 164.0
158.471497 144.0
158.512283 232.0
158.577454 140.0
158.598434 108.0
158.653976 124.0
158.720352 124.0
158.794327 120.0
158.816345 200.0
158.852921 328.0
158.918518 244.0
158.953644 104.0
159.00383 120.0
159.069748 124.0
159.100723 228.0
159.145355 212.0
159.177063 200.0
159.241135 132.0
159.261566 192.0
159.283432 124.0
159.314819 132.0
159.400635 128.0
159.445862 80.0
159.468491 172.0
159.493622 108.0
159.542862 204.0
159.551773 120.0
159.557617 220.0
159.596695 148.0
159.649323 140.0
159.709869 180.0
159.762695 212.0
159.794601 484.0
159.811127 172.0
159.830627 156.0
159.850464 132.0
159.871094 100.0
159.961517 60.0
160.004303 192.0
160.042084 140.0
160.079727 164.0
160.112518 284.0
160.203262 172.0
160.251144 92.0
160.283371 152.0
160.319229 184.0
160.362015 128.0
160.455292 164.0
160.503357 136.0
160.526978 196.0
160.562469 128.0
160.692383 36.0
160.725174 172.0
160.777451 236.0
160.813507 200.0
160.842789 100.0
160.908539 224.0
160.992767 168.0
161.01297 424.0
161.06601 184.0
161.08609 152.0
161.116714 176.0
161.1595 108.0
161.225189 160.0
161.308884 220.0
161.351578 72.0
161.369278 164.0
161.432495 152.0
161.450195 124.0
161.502228 196.0
161.536194 164.0
161.601974 156.0
161.627289 56.0
161.66272 116.0
161.682144 136.0
161.729385 128.0
161.791489 192.0
161.900894 148.0
161.949783 384.0
161.991867 156.0
162.067886 280.0
162.117737 296.0
162.181931 212.0
162.202209 196.0
162.246307 140.0
162.288406 128.0
162.326447 180.0
162.344193 116.0
162.431885 224.0
162.483704 168.0
162.531906 168.0
162.564896 52.0
162.61351 156.0
162.724823 196.0
162.755295 148.0
162.807999 132.0
162.849258 152.0
162.869583 136.0
162.904327 112.0
162.938171 92.0
162.955948 172.0
163.049759 188.0
163.090637 96.0
163.192337 132.0
163.214081 144.0
163.256821 168.0
163.309219 104.0
163.347473 140.0
163.462326 168.0
163.487411 148.0
163.660522 152.0
163.741196 236.0
163.780289 144.0
163.866837 48.0
163.884674 196.0
163.93689 144.0
164.019745 204.0
164.069595 176.0
164.101318 128.0
164.144669 480.0
164.174561 184.0
164.249237 100.0
164.300262 40.0
164.356476 132.0
164.43927 160.0
164.466141 176.0
164.529953 136.0
164.552933 176.0
164.591232 168.0
164.616776 76.0
164.657639 228.0
164.716385 268.0
164.78537 32.0
164.851059 152.0
164.897797 132.0
164.93103 116.0
164.962662 188.0
164.979599 252.0
165.004166 144.0
165.038406 136.0
165.06926 2096.0
165.115128 220.0
165.13443 204.0
165.177261 216.0
165.199539 196.0
165.232803 184.0
165.265244 132.0
165.319794 28.0
165.373199 228.0
165.406815 152.0
165.432419 124.0
165.464828 140.0
165.488754 152.0
165.528122 128.0
165.557892 120.0
165.588623 140.0
165.632767 156.0
165.662903 168.0
165.721832 140.0
165.757706 100.0
165.798706 112.0
165.880737 44.0
165.93457 80.0
165.973862 124.0
166.036331 60.0
166.075745 968.0
166.096848 160.0
166.105453 196.0
166.114883 284.0
166.15361 80.0
166.173096 212.0
166.268158 172.0
166.311676 80.0
166.36882 156.0
166.414368 232.0
166.450317 100.0
166.553055 124.0
166.596725 88.0
166.666092 168.0
166.689224 172.0
166.715714 316.0
166.735489 184.0
166.828018 184.0
166.872116 212.0
167.081589 652.0
167.128937 140.0
167.146805 132.0
167.175262 112.0
167.208725 176.0
167.225021 120.0
167.244751 128.0
167.321976 152.0
167.414688 144.0
167.435089 160.0
167.485504 368.0
167.507401 72.0
167.533173 68.0
167.579544 108.0
167.604324 168.0
167.651703 132.0
167.716125 64.0
167.744934 232.0
167.767685 132.0
167.838776 288.0
167.860519 100.0
167.895111 192.0
167.922272 76.0
168.003967 248.0
168.028488 164.0
168.081635 384.0
168.13858 912.0
168.164948 76.0
168.185593 108.0
168.267593 136.0
168.309525 120.0
168.343094 152.0
168.376022 128.0
168.510986 96.0
168.537659 212.0
168.562668 160.0
168.580765 144.0
168.606598 148.0
168.640198 152.0
168.658295 176.0
168.697067 124.0
168.726822 172.0
168.785385 156.0
168.870331 140.0
168.90007 216.0
168.932404 140.0
168.974503 176.0
168.982208 160.0
169.000137 220.0
169.019043 280.0
169.088638 596.0
169.147202 308.0
169.189453 116.0
169.255646 180.0
169.299957 148.0
169.333633 108.0
169.362122 88.0
169.381165 80.0
169.442429 152.0
169.476105 244.0
169.574585 108.0
169.611649 40.0
169.683212 80.0
169.732727 200.0
169.758667 92.0
169.787186 144.0
169.844604 148.0
169.929871 48.0
169.948029 160.0
169.981766 152.0
170.007706 132.0
170.038849 188.0
170.057022 132.0
170.0952 768.0
170.140427 252.0
170.228378 204.0
170.254349 192.0
170.299698 132.0
170.324478 176.0
170.363434 144.0
170.381531 108.0
170.497528 140.0
170.529755 104.0
170.56781 156.0
170.592987 232.0
170.622101 212.0
170.649338 156.0
170.675339 96.0
170.716599 152.0
170.785248 256.0
170.899033 108.0
170.943268 184.0
170.984909 172.0
171.101639 868.0
171.172348 128.0
171.206284 144.0
171.250488 116.0
171.276215 168.0
171.336441 132.0
171.394547 120.0
171.412018 156.0
171.432861 84.0
171.466736 132.0
171.508438 48.0
171.534515 136.0
171.649536 168.0
171.704605 172.0
171.758148 164.0
171.791153 192.0
171.85759 132.0
171.944031 220.0
171.961594 164.0
172.011887 156.0
172.039764 172.0
172.079773 120.0
172.098053 172.0
172.117569 340.0
172.19989 148.0
172.236755 108.0
172.272217 152.0
172.301773 296.0
172.359253 176.0
172.401077 176.0
172.433182 128.0
172.52916 192.0
172.553513 76.0
172.597137 160.0
172.644211 140.0
172.688538 84.0
172.708344 168.0
172.748825 136.0
172.780228 204.0
172.801163 128.0
172.859558 176.0
172.892746 108.0
173.000061 132.0
173.039337 136.0
173.071487 128.0
173.128372 148.0
173.153488 312.0
173.160538 184.0
173.188599 40.0
173.208344 240.0
173.290771 56.0
173.314362 196.0
173.331726 108.0
173.356415 156.0
173.392975 136.0
173.418091 144.0
173.463135 152.0
173.492584 164.0
173.587997 124.0
173.626312 164.0
173.684021 100.0
173.718124 164.0
173.751892 156.0
173.802078 124.0
173.838821 288.0
173.904434 164.0
173.935928 100.0
174.000626 168.0
174.027817 112.0
174.124405 128.0
174.295746 144.0
174.434708 64.0
174.49823 244.0
174.592804 68.0
174.637512 176.0
174.67186 252.0
174.744919 136.0
174.77092 136.0
174.784195 184.0
174.821686 112.0
174.842743 216.0
174.899338 144.0
174.924332 100.0
174.97963 136.0
175.011215 176.0
175.04808 52.0
175.066513 124.0
175.13237 136.0
175.233276 172.0
175.264084 96.0
175.30098 152.0
175.337418 92.0
175.353882 180.0
175.38533 120.0
175.456497 152.0
175.480591 152.0
175.511597 152.0
175.516296 136.0
175.583069 136.0
175.614731 300.0
175.638702 176.0
175.66098 124.0
175.725922 160.0
175.759827 140.0
175.77829 36.0
175.861755 192.0
175.898712 140.0
175.918182 140.0
175.946381 112.0
176.050049 192.0
176.085419 204.0
176.105667 176.0
176.164627 176.0
176.229767 152.0
176.293259 112.0
176.338181 268.0
176.383118 192.0
176.414841 136.0
176.473007 108.0
176.491516 164.0
176.551575 124.0
176.605927 168.0
176.634338 100.0
176.668732 80.0
176.721634 204.0
176.748108 104.0
176.793091 168.0
176.837799 76.0
176.855057 196.0
176.893677 52.0
176.970825 188.0
177.039291 132.0
177.060486 272.0
177.086975 136.0
177.179688 48.0
177.309525 76.0
177.395523 152.0
177.436768 108.0
177.459 208.0
177.502243 332.0
177.533432 168.0
177.569366 140.0
177.595886 216.0
177.627716 196.0
177.672821 156.0
177.704651 32.0
177.739151 140.0
177.805496 144.0
177.879822 56.0
177.970795 164.0
178.017883 176.0
178.076828 5272.0
178.126785 144.0
178.154999 296.0
178.177261 140.0
178.211792 120.0
178.26384 68.0
178.307663 148.0
178.334137 244.0
178.360626 132.0
178.379227 148.0
178.413788 144.0
178.445694 260.0
178.468338 116.0
178.541428 44.0
178.560043 96.0
178.602097 168.0
178.607224 136.0
178.618317 132.0
178.641541 320.0
178.731339 72.0
178.751129 236.0
178.778198 168.0
178.818222 108.0
178.840897 108.0
178.894577 100.0
178.927521 204.0
178.955765 120.0
178.977859 144.0
178.999161 108.0
179.031113 160.0
179.084946 9008.0
179.136551 172.0
179.180283 176.0
179.241577 48.0
179.262894 116.0
179.314209 140.0
179.350845 76.0
179.379074 156.0
179.424225 84.0
179.497482 100.0
179.546951 196.0
179.570618 156.0
179.600433 160.0
179.628174 108.0
179.681122 156.0
179.728302 60.0
179.788651 216.0
179.849426 96.0
179.909576 116.0
179.95433 208.0
179.973602 140.0
179.994659 152.0
180.015182 116.0
180.039215 72.0
180.08699 1360.0
180.156754 116.0
180.180786 52.0
180.225967 160.0
180.235336 136.0
180.242905 180.0
180.265091 124.0
180.40683 208.0
180.436188 144.0
180.481979 152.0
180.512238 188.0
180.56572 116.0
180.691452 144.0
180.779755 192.0
180.822006 132.0
180.825882 172.0
180.921707 132.0
180.95459 192.0
180.995056 200.0
181.032898 308.0
181.096298 284.0
181.127823 136.0
181.189438 116.0
181.232498 112.0
181.310028 156.0
181.398895 128.0
181.483429 192.0
181.527176 160.0
181.554001 172.0
181.589478 260.0
181.624786 152.0
181.653244 112.0
181.709381 112.0
181.76593 116.0
181.799194 124.0
181.813721 84.0
182.007523 188.0
182.095062 5776.0
182.135284 200.0
182.166931 92.0
182.197281 160.0
182.289581 100.0
182.340637 56.0
182.407043 352.0
182.440094 120.0
182.499237 84.0
182.547287 176.0
182.574539 76.0
182.62973 108.0
182.63414 200.0
182.741318 160.0
182.808594 148.0
182.880447 132.0
182.915024 140.0
182.923767 76.0
182.930756 124.0
182.952972 156.0
183.007797 152.0
183.037689 156.0
183.100677 468.0
183.199493 112.0
183.236191 180.0
183.256699 184.0
183.278687 252.0
183.363358 284.0
183.401855 104.0
183.432343 156.0
183.457733 108.0
183.560196 376.0
183.585999 268.0
183.626755 220.0
183.668076 136.0
183.695053 64.0
183.73822 160.0
183.772537 228.0
183.835007 124.0
183.869751 156.0
183.906723 188.0
183.932526 156.0
183.962219 140.0
184.108795 768.0
184.163635 156.0
184.187241 268.0
184.234146 232.0
184.286316 160.0
184.328583 152.0
184.386292 92.0
184.405212 96.0
184.460983 184.0
184.510651 128.0
184.575531 120.0
184.625595 128.0
184.643997 112.0
184.672897 112.0
184.694534 112.0
184.718887 92.0
184.762161 164.0
184.816284 228.0
184.90033 212.0
184.949554 196.0
184.959717 48.0
184.972427 196.0
185.005737 232.0
185.039551 152.0
185.095886 176.0
185.12352 132.0
185.180328 160.0
185.20343 256.0
185.261795 92.0
185.330963 156.0
185.3508 152.0
185.441864 132.0
185.471725 140.0
185.550308 180.0
185.576401 140.0
185.601822 188.0
185.661484 140.0
185.711243 208.0
185.736176 148.0
185.778122 136.0
185.805252 152.0
185.825424 148.0
185.852844 184.0
185.894791 244.0
185.963928 212.0
185.983856 88.0
186.017609 224.0
186.051331 160.0
186.092941 168.0
186.123413 272.0
186.17218 156.0
186.223297 96.0
186.273453 160.0
186.312943 164.0
186.451736 176.0
186.500443 344.0
186.553116 120.0
186.587448 128.0
186.674454 156.0
186.715332 124.0
186.737 64.0
186.769653 120.0
186.827896 116.0
186.874863 148.0
186.908401 160.0
186.957382 116.0
186.98732 212.0
187.102203 136.0
187.129425 108.0
187.256866 108.0
187.292282 148.0
187.324966 160.0
187.34404 176.0
187.365829 168.0
187.401245 136.0
187.426651 112.0
187.49118 160.0
187.515701 184.0
187.645569 148.0
187.68808 140.0
187.709274 132.0
187.787704 176.0
187.845078 76.0
187.91713 160.0
188.015915 180.0
188.020645 208.0
188.051529 240.0
188.106018 152.0
188.143784 576.0
188.219559 228.0
188.240967 172.0
188.368759 160.0
188.402557 132.0
188.427155 60.0
188.446274 148.0
188.518204 136.0
188.642227 192.0
188.703201 156.0
188.727142 180.0
188.785233 144.0
188.807114 148.0
188.86055 224.0
188.976715 112.0
188.995865 96.0
189.042389 176.0
189.068756 356.0
189.132706 116.0
189.172272 176.0
189.225922 128.0
189.258652 112.0
189.286697 164.0
189.318893 76.0
189.349014 296.0
189.369553 124.0
189.410446 164.0
189.444885 128.0
189.511673 188.0
189.532562 244.0
189.557236 172.0
189.590118 200.0
189.635635 192.0
189.68605 144.0
189.705231 72.0
189.729691 148.0
189.747391 168.0
189.829224 244.0
189.879425 156.0
189.965759 148.0
190.004166 220.0
190.042587 224.0
190.077713 964.0
190.179794 172.0
190.208694 220.0
190.273132 236.0
190.308838 96.0
190.330795 148.0
190.390076 204.0
190.469635 196.0
190.475586 128.0
190.499847 152.0
190.533707 196.0
190.581818 176.0
190.604523 124.0
190.656906 220.0
190.702667 160.0
190.832916 136.0
190.866638 308.0
190.910629 104.0
190.976639 108.0
191.010818 208.0
191.084412 3520.0
191.15921 144.0
191.289291 220.0
191.326126 188.0
191.422501 112.0
191.463806 96.0
191.504669 192.0
191.524139 128.0
191.566269 160.0
191.599503 124.0
191.786179 128.0
191.901962 164.0
191.935043 160.0
191.969421 172.0
192.003998 144.0
192.030884 80.0
192.055603 140.0
192.091797 6216.0
192.134888 188.0
192.161118 184.0
192.220459 216.0
192.328979 148.0
192.38118 156.0
192.435013 168.0
192.470383 132.0
192.504578 200.0
192.60025 156.0
192.638855 192.0
192.688583 172.0
192.707932 76.0
192.730026 136.0
192.794617 228.0
192.812485 148.0
192.822311 132.0
192.906921 216.0
192.92627 148.0
192.998154 132.0
193.018509 132.0
193.04744 140.0
193.100464 4504.0
193.155792 136.0
193.188095 248.0
193.207687 212.0
193.250824 196.0
193.278503 172.0
193.297119 256.0
193.343948 184.0
193.375717 224.0
193.405243 144.0
193.457825 372.0
193.503204 132.0
193.521118 272.0
193.57373 160.0
193.598969 172.0
193.620804 120.0
193.673431 92.0
193.698364 112.0
193.739105 172.0
193.79248 140.0
193.858429 208.0
193.920197 136.0
193.95607 124.0
194.005844 204.0
194.03923 116.0
194.104111 968.0
194.176682 144.0
194.238907 168.0
194.26767 128.0
194.313202 144.0
194.406265 88.0
194.435913 92.0
194.499756 116.0
194.537231 140.0
194.552505 120.0
194.575745 184.0
194.62886 132.0
194.699677 156.0
194.747208 136.0
194.802689 180.0
194.841339 140.0
194.919144 168.0
194.966385 160.0
195.000549 136.0
195.011215 192.0
195.104156 824.0
195.151291 124.0
195.191559 128.0
195.218262 160.0
195.264252 144.0
195.299423 112.0
195.330627 76.0
195.404236 252.0
195.437515 132.0
195.483749 156.0
195.508698 44.0
195.592194 168.0
195.651382 184.0
195.68129 140.0
195.717484 184.0
195.769608 200.0
195.803818 184.0
195.828873 108.0
195.884644 180.0
195.918015 124.0
195.940308 64.0
195.977142 228.0
196.043182 152.0
196.109146 1284.0
196.154892 216.0
196.238541 100.0
196.263626 80.0
196.297089 212.0
196.37915 116.0
196.425385 136.0
196.478394 212.0
196.523666 212.0
196.567688 92.0
196.672607 108.0
196.779831 132.0
196.837479 252.0
196.883148 168.0
196.911469 140.0
196.933426 200.0
196.980316 264.0
197.017227 108.0
197.042374 172.0
197.121017 360.0
197.249176 100.0
197.366592 172.0
197.407684 268.0
197.433716 72.0
197.481796 236.0
197.511047 136.0
197.548401 56.0
197.602051 272.0
197.702286 164.0
197.72818 128.0
197.797455 256.0
197.962646 192.0
198.020966 112.0
198.038986 136.0
198.097092 64.0
198.118729 160.0
198.15593 220.0
198.206085 124.0
198.259079 148.0
198.267365 120.0
198.312851 164.0
198.338089 228.0
198.39415 172.0
198.453033 176.0
198.481064 96.0
198.509109 136.0
198.584381 148.0
198.647644 156.0
198.744522 316.0
198.847229 344.0
198.893494 144.0
198.923264 244.0
198.994736 248.0
199.042725 156.0
199.092072 132.0
199.139999 140.0
199.2453 144.0
199.281982 36.0
199.324234 140.0
199.373779 132.0
199.415451 92.0
199.508698 268.0
199.534012 220.0
199.57225 140.0
199.633957 168.0
199.642914 148.0
199.698044 168.0
199.733673 120.0
199.781494 204.0
199.834961 84.0
199.978897 136.0
200.003815 172.0
200.105713 552.0
200.167114 140.0
200.20372 188.0
200.243149 128.0
200.296661 192.0
200.329575 164.0
200.361465 156.0
200.48262 128.0
200.525177 160.0
200.550262 108.0
200.5811 188.0
200.660889 200.0
200.710968 120.0
200.750443 116.0
200.784286 56.0
200.815475 268.0
200.956314 140.0
200.981766 172.0
201.019699 124.0
201.056595 132.0
201.097473 192.0
201.117233 188.0
201.153732 160.0
201.213211 192.0
201.252731 244.0
201.286621 196.0
201.312042 152.0
201.335922 100.0
201.389832 100.0
201.484344 132.0
201.529465 124.0
201.55426 188.0
201.584808 108.0
201.607254 120.0
201.687805 148.0
201.721741 140.0
201.750198 176.0
201.88855 148.0
201.927032 152.0
202.002518 164.0
202.024323 88.0
202.076813 2764.0
202.120316 160.0
202.15712 400.0
202.191269 196.0
202.238449 108.0
202.307327 140.0
202.335648 112.0
202.372452 152.0
202.423416 188.0
202.460236 136.0
202.531036 88.0
202.556534 140.0
202.575378 136.0
202.601868 204.0
202.668945 172.0
202.710373 188.0
202.760544 124.0
202.795578 144.0
202.831406 216.0
202.865433 124.0
202.915527 196.0
202.978836 180.0
203.001526 68.0
203.043274 304.0
203.083755 3152.0
203.128235 160.0
203.145096 168.0
203.166641 104.0
203.191574 92.0
203.216156 72.0
203.248703 176.0
203.30217 156.0
203.417709 136.0
203.452682 96.0
203.483902 148.0
203.526505 200.0
203.599136 224.0
203.621933 252.0
203.685547 132.0
203.745209 164.0
203.791626 172.0
203.85318 308.0
203.87355 164.0
203.949814 124.0
203.992447 168.0
204.046082 224.0
204.091507 4760.0
204.141251 168.0
204.176941 148.0
204.222778 60.0
204.251221 168.0
204.31308 172.0
204.353638 180.0
204.39917 28.0
204.425888 184.0
204.495941 148.0
204.527237 104.0
204.552856 124.0
204.609161 176.0
204.638275 192.0
204.669601 156.0
204.721329 144.0
204.734558 128.0
204.757874 248.0
204.777817 168.0
204.826233 148.0
204.852844 152.0
204.880371 108.0
204.905457 168.0
204.928802 240.0
204.949463 144.0
204.974396 112.0
205.017349 104.0
205.099884 26780.0
205.161728 300.0
205.198547 100.0
205.229645 132.0
205.306702 84.0
205.367828 44.0
205.410614 84.0
205.475159 32.0
205.503952 140.0
205.610352 252.0
205.708115 144.0
205.748428 108.0
205.799957 200.0
205.873001 132.0
205.898712 48.0
205.969467 176.0
205.990112 208.0
206.012711 156.0
206.03421 164.0
206.104263 6280.0
206.156616 580.0
206.190948 124.0
206.223145 80.0
206.258728 72.0
206.278732 120.0
206.306747 200.0
206.356277 160.0
206.397827 116.0
206.472336 136.0
206.510391 260.0
206.534897 156.0
206.578873 84.0
206.692734 128.0
206.727585 172.0
206.798004 196.0
206.858505 96.0
206.897202 196.0
206.923096 140.0
206.973358 100.0
206.987411 172.0
207.022247 252.0
207.115982 37476.0
207.163284 308.0
207.229462 168.0
207.250839 68.0
207.270203 120.0
207.29274 188.0
207.322235 144.0
207.343475 148.0
207.351028 136.0
207.434433 84.0
207.478256 196.0
207.510666 224.0
207.554703 248.0
207.578918 112.0
207.618759 92.0
207.647446 56.0
207.667526 52.0
207.71907 196.0
207.763687 124.0
207.822433 132.0
207.870651 180.0
207.916794 332.0
207.967194 132.0
207.996933 180.0
208.047836 60.0
208.118225 6424.0
208.172638 64.0
208.21019 108.0
208.238098 152.0
208.287537 100.0
208.308868 140.0
208.337082 192.0
208.376587 60.0
208.402451 92.0
208.426605 108.0
208.462006 88.0
208.487183 220.0
208.511276 156.0
208.539017 252.0
208.568146 196.0
208.642044 176.0
208.675552 296.0
208.760818 144.0
208.882355 112.0
208.911346 84.0
208.936691 136.0
208.958527 144.0
209.003418 132.0
209.075256 84.0
209.120636 920.0
209.170334 44.0
209.222504 124.0
209.262955 232.0
209.308533 204.0
209.343094 196.0
209.365097 100.0
209.378571 100.0
209.389877 132.0
209.443604 116.0
209.468781 100.0
209.507278 228.0
209.550766 196.0
209.582184 44.0
209.611008 152.0
209.634064 104.0
209.665848 120.0
209.696442 236.0
209.726288 48.0
209.769531 112.0
209.798981 92.0
209.830063 144.0
209.853134 80.0
209.887451 80.0
209.922333 56.0
209.957718 196.0
210.003098 28.0
210.066559 96.0
210.092148 92.0
210.117859 160.0
210.162445 508.0
210.265656 152.0
210.364258 124.0
210.391052 200.0
210.445816 240.0
210.476395 84.0
210.503891 52.0
210.542816 40.0
210.568802 236.0
210.58902 180.0
210.666092 112.0
210.698013 176.0
210.753693 204.0
210.794678 132.0
210.973557 120.0
211.134583 248.0
211.165848 180.0
211.193237 116.0
211.279922 68.0
211.32222 156.0
211.342316 120.0
211.410126 320.0
211.433273 108.0
211.504013 220.0
211.569321 124.0
211.592484 144.0
211.621445 176.0
211.65329 168.0
211.728592 176.0
211.748856 148.0
211.786621 116.0
211.881134 208.0
211.913986 152.0
211.942963 216.0
211.966141 124.0
212.012512 128.0
212.064682 84.0
212.105255 104.0
212.141907 156.0
212.224121 68.0
212.264725 108.0
212.299515 188.0
212.325623 196.0
212.354309 184.0
212.421341 96.0
212.490967 96.0
212.579651 200.0
212.610931 152.0
212.637711 120.0
212.708633 104.0
212.743088 204.0
212.74733 168.0
212.782394 196.0
212.842178 152.0
212.864349 172.0
212.906647 120.0
212.932205 52.0
212.958344 112.0
213.028061 128.0
213.055405 136.0
213.113525 160.0
213.154495 180.0
213.197128 144.0
213.213715 36.0
213.224915 140.0
213.251816 164.0
213.336121 160.0
213.403152 72.0
213.438965 128.0
213.466949 72.0
213.490219 196.0
213.537628 308.0
213.584702 124.0
213.61821 68.0
213.666351 116.0
213.694733 128.0
213.743317 160.0
213.779663 184.0
213.813156 268.0
213.906296 36.0
213.957489 96.0
213.97908 60.0
214.060608 100.0
214.080994 188.0
214.124329 284.0
214.155792 340.0
214.181931 256.0
214.258682 124.0
214.29364 72.0
214.431641 168.0
214.500565 200.0
214.533539 168.0
214.57637 104.0
214.625931 132.0
214.693008 116.0
214.722321 148.0
214.792175 112.0
214.819504 140.0
214.856354 64.0
214.882614 152.0
214.96019 200.0
214.984741 128.0
215.01976 124.0
215.040192 136.0
215.082748 1924.0
215.172043 184.0
215.240265 128.0
215.264999 128.0
215.323929 180.0
215.349686 108.0
215.408112 112.0
215.457779 112.0
215.489151 256.0
215.544327 116.0
215.566132 244.0
215.672546 160.0
215.697418 124.0
215.720795 64.0
215.764648 128.0
215.811432 120.0
215.902084 52.0
215.996643 200.0
216.090485 2200.0
216.194473 156.0
216.257309 176.0
216.29039 180.0
216.314911 220.0
216.343933 92.0
216.378479 112.0
216.405411 244.0
216.458115 124.0
216.502487 104.0
216.619202 44.0
216.658295 200.0
216.684128 224.0
216.729034 140.0
216.753983 164.0
216.77449 84.0
216.831345 168.0
216.856552 144.0
216.880005 260.0
216.901703 188.0
216.947433 116.0
216.991684 212.0
217.037582 180.0
217.100189 13712.0
217.173904 188.0
217.226028 184.0
217.304428 144.0
217.33165 112.0
217.3694 120.0
217.402069 60.0
217.422623 88.0
217.495529 156.0
217.516846 228.0
217.598251 160.0
217.611755 84.0
217.620026 112.0
217.639847 192.0
217.698578 196.0
217.720398 140.0
217.786697 136.0
217.821945 200.0
217.856094 172.0
217.932495 152.0
217.9953 72.0
218.1064 7296.0
218.163071 104.0
218.203995 184.0
218.265747 108.0
218.330444 32.0
218.353973 116.0
218.374557 140.0
218.421616 204.0
218.444534 76.0
218.524582 124.0
218.554016 116.0
218.583435 112.0
218.639359 164.0
218.68161 328.0
218.747894 156.0
218.789474 188.0
218.827118 148.0
218.84436 156.0
218.878143 240.0
218.911942 384.0
218.979355 152.0
219.014832 124.0
219.054688 284.0
219.113861 10920.0
219.192993 124.0
219.240158 116.0
219.299103 120.0
219.349213 48.0
219.369843 128.0
219.398315 176.0
219.431763 160.0
219.468506 52.0
219.512054 132.0
219.598129 96.0
219.632095 120.0
219.664734 72.0
219.685394 32.0
219.72374 204.0
219.769943 108.0
219.827026 140.0
219.848755 208.0
219.904907 144.0
219.998215 168.0
220.042496 156.0
220.066116 176.0
220.116364 1836.0
220.170364 364.0
220.223969 160.0
220.272858 160.0
220.373306 240.0
220.420578 112.0
220.466156 152.0
220.509247 116.0
220.533676 104.0
220.584167 184.0
220.643356 120.0
220.723221 148.0
220.745117 56.0
220.750595 44.0
220.768463 168.0
220.808258 132.0
220.864059 72.0
220.940979 144.0
220.980255 144.0
221.029739 40.0
221.053406 176.0
221.128708 1124.0
221.214508 196.0
221.236923 36.0
221.302063 112.0
221.328552 148.0
221.367203 188.0
221.454193 148.0
221.488647 216.0
221.537811 216.0
221.598251 152.0
221.645859 124.0
221.696045 152.0
221.766769 116.0
221.777069 176.0
221.818253 104.0
221.85907 192.0
221.897614 136.0
221.986572 104.0
222.007324 140.0
222.043243 184.0
222.093338 132.0
222.126999 284.0
222.232285 144.0
222.271347 44.0
222.360382 152.0
222.434586 148.0
222.470215 132.0
222.562256 156.0
222.606796 176.0
222.651337 128.0
222.681976 152.0
222.71669 44.0
222.737473 132.0
222.774826 140.0
222.805801 116.0
222.847397 80.0
222.915741 52.0
223.009567 120.0
223.139084 116.0
223.147934 300.0
223.182617 180.0
223.230209 148.0
223.314133 128.0
223.388504 196.0
223.409317 144.0
223.439072 144.0
223.462875 72.0
223.521667 148.0
223.605713 116.0
223.643051 156.0
223.665253 144.0
223.766464 156.0
223.811127 44.0
223.868774 156.0
223.914047 136.0
224.00769 184.0
224.055359 240.0
224.079193 100.0
224.119019 112.0
224.141663 296.0
224.176849 188.0
224.213303 104.0
224.266449 72.0
224.299133 160.0
224.362762 84.0
224.475647 160.0
224.535294 84.0
224.639694 160.0
224.663559 108.0
224.741135 156.0
224.79155 116.0
224.836624 144.0
224.862137 204.0
224.916901 76.0
224.954269 144.0
225.000793 112.0
225.0298 220.0
225.106262 176.0
225.12822 308.0
225.147949 200.0
225.240326 184.0
225.348511 228.0
225.395065 180.0
225.463806 248.0
225.484726 188.0
225.564392 116.0
225.674805 176.0
225.741837 100.0
225.765808 160.0
225.799927 244.0
225.852966 204.0
225.884476 116.0
225.923264 116.0
225.934189 168.0
225.958374 304.0
226.016785 144.0
226.064926 92.0
226.097153 136.0
226.153259 108.0
226.189346 156.0
226.226974 172.0
226.250504 212.0
226.277008 192.0
226.301407 228.0
226.323486 180.0
226.543991 196.0
226.57695 64.0
226.609909 120.0
226.654846 144.0
226.801712 200.0
226.860184 144.0
226.944489 100.0
227.029373 120.0
227.083694 280.0
227.131546 136.0
227.167267 720.0
227.212555 180.0
227.262619 140.0
227.332581 160.0
227.353577 148.0
227.428238 192.0
227.458633 60.0
227.488281 388.0
227.513626 240.0
227.557709 124.0
227.641708 152.0
227.721695 112.0
227.752914 272.0
227.803986 96.0
227.829407 164.0
227.891113 136.0
227.911743 100.0
227.923737 84.0
227.963226 148.0
227.990265 72.0
228.093414 568.0
228.155151 376.0
228.165924 220.0
228.255783 176.0
228.274231 140.0
228.320984 200.0
228.357071 188.0
228.417236 52.0
228.609787 36.0
228.639893 216.0
228.743774 320.0
228.802444 180.0
228.847595 200.0
228.874695 48.0
229.098053 1548.0
229.23317 100.0
229.309204 160.0
229.341675 176.0
229.368805 204.0
229.414017 232.0
229.441147 164.0
229.495422 104.0
229.539749 160.0
229.576843 176.0
229.628159 152.0
229.668304 156.0
229.739731 152.0
229.815155 156.0
229.883545 96.0
229.917755 52.0
229.987167 132.0
230.014618 132.0
230.047745 252.0
230.103012 1396.0
230.147186 160.0
230.240799 116.0
230.288177 128.0
230.326874 136.0
230.416 160.0
230.443192 132.0
230.476425 176.0
230.518738 72.0
230.613281 248.0
230.660782 248.0
230.703186 204.0
230.737228 240.0
230.805908 124.0
230.842194 232.0
230.920029 120.0
230.999481 28.0
231.023682 152.0
231.112381 4152.0
231.152847 208.0
231.160187 236.0
231.186615 188.0
231.220367 84.0
231.297729 100.0
231.32933 76.0
231.392914 140.0
231.479446 72.0
231.523117 188.0
231.547348 72.0
231.692749 144.0
231.777588 144.0
231.807892 100.0
231.829102 136.0
231.899948 288.0
231.974594 116.0
232.010971 148.0
232.040359 156.0
232.11116 8872.0
232.168747 272.0
232.207642 224.0
232.218079 160.0
232.240326 152.0
232.309418 136.0
232.31662 56.0
232.329407 180.0
232.376602 188.0
232.429535 132.0
232.479263 124.0
232.544861 40.0
232.582169 124.0
232.651108 136.0
232.684509 120.0
232.75914 124.0
232.813934 132.0
232.85524 124.0
232.863525 88.0
232.874069 180.0
232.904083 168.0
232.930496 184.0
232.964798 96.0
233.024429 220.0
233.068771 172.0
233.130859 11328.0
233.208145 224.0
233.249664 240.0
233.298203 112.0
233.338486 160.0
233.392822 168.0
233.425903 144.0
233.456314 48.0
233.529312 148.0
233.562943 72.0
233.587906 92.0
233.596237 108.0
233.610336 176.0
233.619385 72.0
233.650986 124.0
233.678375 196.0
233.727234 292.0
233.746231 212.0
233.776566 160.0
233.843246 200.0
233.894318 192.0
233.931046 532.0
233.972565 236.0
233.995697 216.0
234.042557 196.0
234.053131 200.0
234.065887 160.0
234.127625 61484.0
234.196701 164.0
234.235657 296.0
234.278656 52.0
234.34491 188.0
234.375656 56.0
234.404968 148.0
234.44249 108.0
234.455017 204.0
234.489212 128.0
234.521851 96.0
234.555466 100.0
234.578186 88.0
234.630051 132.0
234.639618 180.0
234.679138 220.0
234.701309 148.0
234.723862 124.0
234.770706 296.0
234.807785 80.0
234.816208 164.0
234.85051 196.0
234.883911 108.0
234.946121 192.0
235.009293 160.0
235.033966 112.0
235.057281 232.0
235.129669 9792.0
235.192688 40.0
235.231827 124.0
235.260651 124.0
235.342194 124.0
235.377396 128.0
235.39743 272.0
235.443359 224.0
235.476959 68.0
235.508408 164.0
235.557465 124.0
235.580826 212.0
235.638947 136.0
235.661377 96.0
235.690613 88.0
235.769516 360.0
235.797775 36.0
235.819168 56.0
235.881531 60.0
235.902908 152.0
235.959167 216.0
236.029007 144.0
236.069351 72.0
236.134537 1400.0
236.198334 92.0
236.238098 348.0
236.268524 76.0
236.338196 208.0
236.378479 68.0
236.391724 192.0
236.403015 108.0
236.414322 176.0
236.436111 152.0
236.46759 52.0
236.500748 120.0
236.530991 212.0
236.556595 212.0
236.580582 240.0
236.664246 136.0
236.703873 68.0
236.741318 128.0
236.788239 180.0
236.811813 160.0
236.847687 148.0
236.860229 208.0
236.869522 196.0
236.929642 380.0
236.99559 136.0
237.033524 76.0
237.043762 60.0
237.058533 84.0
237.065872 140.0
237.128128 188.0
237.149963 212.0
237.192154 80.0
237.278885 100.0
237.307648 144.0
237.333694 112.0
237.353424 376.0
237.441895 176.0
237.481781 96.0
237.515518 76.0
237.60498 236.0
237.643173 100.0
237.694519 68.0
237.724152 76.0
237.757904 400.0
237.788605 156.0
237.837708 120.0
237.86647 220.0
237.894608 224.0
237.926743 140.0
237.991608 124.0
238.021927 76.0
238.086411 212.0
238.126343 100.0
238.16037 244.0
238.187775 164.0
238.270264 184.0
238.305283 144.0
238.385132 136.0
238.427429 128.0
238.459351 156.0
238.59343 148.0
238.627243 192.0
238.688736 172.0
238.719498 192.0
238.808685 112.0
238.839447 144.0
238.950195 264.0
238.984039 64.0
239.054062 148.0
239.165695 136.0
239.248734 72.0
239.356491 232.0
239.470444 212.0
239.501251 40.0
239.562851 124.0
239.593658 80.0
239.63063 80.0
239.740707 144.0
239.83992 184.0
239.850067 160.0
239.859497 216.0
239.957336 168.0
239.992889 180.0
240.095184 280.0
240.17128 1192.0
240.234909 124.0
240.271927 144.0
240.33342 168.0
240.423141 152.0
240.464386 204.0
240.52742 192.0
240.611435 184.0
240.663925 128.0
240.768921 124.0
240.805969 112.0
240.907913 140.0
240.984406 132.0
241.056229 128.0
241.090714 212.0
241.121124 180.0
241.170288 336.0
241.370041 160.0
241.391968 164.0
241.479782 48.0
241.535446 104.0
241.633896 136.0
241.739655 40.0
241.792267 152.0
241.831772 168.0
241.931564 144.0
241.987289 100.0
242.055405 140.0
242.102356 396.0
242.158447 164.0
242.194778 76.0
242.222656 132.0
242.297012 116.0
242.355881 164.0
242.420959 60.0
242.467209 216.0
242.496765 108.0
242.553802 232.0
242.606934 224.0
242.662735 104.0
242.684448 128.0
242.720123 124.0
242.842606 136.0
242.88913 64.0
242.918518 260.0
243.00383 136.0
243.025238 216.0
243.058502 108.0
243.115906 760.0
243.188004 336.0
243.230469 152.0
243.29567 204.0
243.364365 156.0
243.456253 200.0
243.484116 64.0
243.534775 116.0
243.576752 140.0
243.700455 184.0
243.767792 152.0
243.839264 120.0
243.879669 176.0
243.970566 84.0
244.040512 136.0
244.114609 2312.0
244.254257 104.0
244.283005 136.0
244.290878 152.0
244.33223 324.0
244.353149 112.0
244.473724 60.0
244.543701 224.0
244.582657 48.0
244.648026 108.0
244.66983 140.0
244.700958 148.0
244.748444 80.0
244.816177 64.0
244.897156 72.0
245.009689 156.0
245.037338 40.0
245.124191 1864.0
245.17099 248.0
245.234482 164.0
245.305359 124.0
245.375473 164.0
245.405121 180.0
245.43631 64.0
245.476837 164.0
245.531754 192.0
245.592239 160.0
245.632797 108.0
245.667114 156.0
245.698303 228.0
245.720139 156.0
245.754868 124.0
245.779434 172.0
245.804398 196.0
245.844955 168.0
245.864853 140.0
245.903488 160.0
245.959045 156.0
245.985413 96.0
246.080658 252.0
246.127274 14856.0
246.208054 340.0
246.233002 88.0
246.263321 40.0
246.435837 144.0
246.469513 116.0
246.494522 60.0
246.552826 152.0
246.607025 156.0
246.630402 44.0
246.71019 56.0
246.732071 96.0
246.819626 264.0
246.845596 168.0
246.891983 340.0
246.943359 68.0
246.968246 160.0
247.013535 48.0
247.067276 156.0
247.133194 7728.0
247.267899 96.0
247.307022 272.0
247.328247 128.0
247.357758 104.0
247.389359 164.0
247.40358 132.0
247.40979 116.0
247.426193 88.0
247.437714 192.0
247.492386 124.0
247.520554 236.0
247.563843 112.0
247.659927 72.0
247.707489 164.0
247.752335 56.0
247.780533 132.0
247.80722 140.0
247.848328 176.0
247.924683 120.0
247.976425 172.0
248.097488 156.0
248.141312 5556.0
248.213089 160.0
248.257538 164.0
248.303055 216.0
248.390549 152.0
248.444824 68.0
248.523636 196.0
248.557098 96.0
248.635376 168.0
248.668625 280.0
248.691406 192.0
248.754639 152.0
248.79451 152.0
248.85321 148.0
248.89415 108.0
248.970047 192.0
248.990082 116.0
249.054199 176.0
249.096527 168.0
249.146759 2884.0
249.261551 32.0
249.289841 176.0
249.333221 144.0
249.337494 172.0
249.365265 40.0
249.421844 160.0
249.446991 60.0
249.472137 92.0
249.503586 48.0
249.537323 144.0
249.5979 228.0
249.623062 104.0
249.661423 120.0
249.714264 132.0
249.736282 184.0
249.758301 100.0
249.80864 120.0
249.849533 192.0
249.910767 112.0
249.959961 124.0
249.984528 164.0
250.035187 236.0
250.063507 112.0
250.153717 1128.0
250.202026 188.0
250.25618 40.0
250.312225 160.0
250.368912 192.0
250.397263 44.0
250.419312 144.0
250.472855 232.0
250.503769 128.0
250.589417 48.0
250.612198 208.0
250.683945 48.0
250.729416 140.0
250.752411 216.0
250.784805 36.0
250.811203 160.0
250.8573 108.0
250.887482 116.0
250.904602 116.0
250.955048 64.0
250.98027 156.0
251.014954 56.0
251.055954 164.0
251.078033 232.0
251.109573 156.0
251.15361 220.0
251.161652 184.0
251.198868 168.0
251.257828 144.0
251.330399 96.0
251.361954 176.0
251.402985 116.0
251.545013 152.0
251.598679 136.0
251.718674 152.0
251.748337 272.0
251.816574 32.0
251.841843 116.0
251.942184 120.0
251.978027 148.0
252.018753 136.0
252.163086 324.0
252.19075 180.0
252.230499 212.0
252.328506 168.0
252.356964 108.0
252.521408 84.0
252.594925 132.0
252.622635 220.0
252.663101 156.0
252.701721 192.0
252.746017 160.0
252.772888 188.0
252.809311 140.0
252.866272 156.0
252.943344 148.0
252.969772 132.0
253.022079 200.0
253.070831 104.0
253.094208 356.0
253.116379 216.0
253.156876 208.0
253.187897 508.0
253.258896 144.0
253.336731 204.0
253.445816 140.0
253.483841 168.0
253.518707 164.0
253.555939 176.0
253.671051 180.0
253.797668 188.0
253.819855 188.0
253.911835 100.0
253.960617 192.0
253.98262 164.0
254.035538 156.0
254.060913 176.0
254.093781 144.0
254.14975 168.0
254.206879 120.0
254.257248 96.0
254.301865 116.0
254.346527 112.0
254.378265 48.0
254.432236 156.0
254.475967 160.0
254.485596 124.0
254.540192 204.0
254.695816 180.0
254.735962 176.0
254.826065 104.0
254.868286 208.0
254.936462 140.0
254.946091 104.0
255.04776 132.0
255.113449 236.0
255.15979 148.0
255.236099 124.0
255.265839 308.0
255.302887 88.0
255.369675 148.0
255.621017 80.0
255.659195 160.0
255.805618 232.0
255.853363 184.0
255.914062 128.0
256.018951 68.0
256.086456 60.0
256.12207 324.0
256.169739 128.0
256.175781 336.0
256.250305 160.0
256.299286 148.0
256.338928 216.0
256.415833 160.0
256.441895 48.0
256.464203 252.0
256.503265 112.0
256.661865 80.0
256.727112 364.0
256.769348 124.0
256.841278 204.0
256.869965 72.0
256.930603 184.0
256.964111 340.0
257.042603 40.0
257.126984 444.0
257.188324 172.0
257.227386 84.0
257.284851 220.0
257.358276 80.0
257.540314 148.0
257.594635 108.0
257.744781 140.0
257.783142 132.0
257.818298 144.0
257.85025 200.0
257.910095 160.0
257.934906 140.0
257.97171 88.0
258.000488 160.0
258.056671 156.0
258.130524 1172.0
258.191193 284.0
258.227539 164.0
258.325317 308.0
258.488434 144.0
258.526855 172.0
258.599854 264.0
258.672302 120.0
258.790771 132.0
258.988281 216.0
259.07309 128.0
259.136322 1224.0
259.258453 128.0
259.294708 176.0
259.322784 112.0
259.35141 312.0
259.388062 248.0
259.453339 140.0
259.50528 152.0
259.665619 160.0
259.723358 212.0
259.784302 160.0
259.852509 76.0
259.903015 160.0
259.95874 260.0
259.985138 108.0
260.018555 96.0
260.049255 284.0
260.092682 164.0
260.1427 18344.0
260.256042 212.0
260.306427 160.0
260.342865 152.0
260.392883 148.0
260.440582 272.0
260.516266 52.0
260.545166 80.0
260.575623 44.0
260.598602 96.0
260.646759 196.0
260.68335 148.0
260.730225 156.0
260.779938 148.0
260.820251 148.0
260.853699 84.0
260.981903 200.0
261.042023 124.0
261.067719 96.0
261.14389 3884.0
261.213867 128.0
261.23938 188.0
261.278992 196.0
261.326447 52.0
261.387604 72.0
261.429443 84.0
261.477051 120.0
261.542084 36.0
261.579498 172.0
261.635437 108.0
261.670837 192.0
261.710419 112.0
261.748138 120.0
261.796448 148.0
261.835449 176.0
261.876953 148.0
261.902405 168.0
261.921631 160.0
261.973602 144.0
262.006653 240.0
262.02182 132.0
262.076965 176.0
262.15799 24040.0
262.240387 56.0
262.286163 72.0
262.315186 56.0
262.376434 112.0
262.418365 44.0
262.441803 252.0
262.472626 144.0
262.500397 224.0
262.52475 136.0
262.577667 88.0
262.623352 148.0
262.713318 148.0
262.757019 116.0
262.782837 156.0
262.804321 136.0
262.859833 152.0
262.895752 96.0
262.964874 212.0
263.029327 152.0
263.076508 72.0
263.16098 5888.0
263.212128 172.0
263.260559 156.0
263.298676 100.0
263.347778 100.0
263.376831 188.0
263.42868 232.0
263.46521 148.0
263.496368 64.0
263.539734 208.0
263.564117 112.0
263.574402 108.0
263.612701 72.0
263.648254 64.0
263.698029 112.0
263.782013 72.0
263.816315 32.0
263.848663 140.0
263.935944 136.0
263.994171 140.0
264.02002 64.0
264.045898 104.0
264.083893 108.0
264.134552 396.0
264.16272 176.0
264.267761 124.0
264.291779 96.0
264.338501 136.0
264.377625 116.0
264.427765 88.0
264.475372 192.0
264.508606 72.0
264.541718 52.0
264.57196 140.0
264.628387 56.0
264.668884 204.0
264.709351 120.0
264.744537 144.0
264.793549 124.0
264.825928 40.0
264.878967 228.0
264.921509 120.0
264.955505 132.0
264.981445 52.0
265.024353 164.0
265.063965 144.0
265.100708 304.0
265.133392 192.0
265.162903 132.0
265.188293 140.0
265.19632 116.0
265.220093 124.0
265.251678 72.0
265.298737 80.0
265.317047 160.0
265.448212 136.0
265.477386 136.0
265.584869 112.0
265.607117 140.0
265.655792 116.0
265.701202 116.0
265.753113 152.0
265.792053 116.0
265.839264 140.0
265.892517 172.0
265.943634 176.0
265.993286 72.0
266.051971 148.0
266.097412 252.0
266.151031 124.0
266.18158 132.0
266.227051 64.0
266.256287 188.0
266.279022 148.0
266.32782 164.0
266.363464 52.0
266.447937 148.0
266.496674 164.0
266.581177 188.0
266.620148 240.0
266.705444 116.0
266.711884 184.0
266.740021 160.0
266.811951 168.0
266.883392 136.0
266.921295 172.0
266.98822 116.0
267.036316 112.0
267.120911 300.0
267.181122 164.0
267.236908 128.0
267.286835 80.0
267.309875 48.0
267.342163 124.0
267.413757 140.0
267.515106 192.0
267.608612 148.0
267.707062 84.0
267.74585 96.0
267.818146 184.0
267.843567 120.0
267.871796 156.0
267.947815 144.0
268.035797 96.0
268.123779 128.0
268.171295 104.0
268.19873 88.0
268.234589 144.0
268.288635 284.0
268.322632 168.0
268.345428 212.0
268.387817 100.0
268.438904 152.0
268.492188 80.0
268.526581 200.0
268.558441 152.0
268.612885 96.0
268.694427 176.0
268.766205 84.0
268.835571 188.0
268.958771 48.0
269.045013 208.0
269.114227 284.0
269.176117 304.0
269.25589 96.0
269.314697 160.0
269.34082 128.0
269.386536 136.0
269.486786 164.0
269.545013 104.0
269.582581 52.0
269.647949 132.0
269.70224 112.0
269.755829 36.0
269.781982 144.0
269.869171 264.0
269.892181 164.0
269.994019 128.0
270.130188 448.0
270.189148 144.0
270.216949 136.0
270.38385 96.0
270.416565 160.0
270.50589 268.0
270.54425 180.0
270.614319 160.0
270.734161 120.0
270.770172 168.0
270.838959 64.0
270.865173 124.0
270.913574 72.0
270.973297 148.0
271.050201 84.0
271.141815 812.0
271.207458 196.0
271.255127 176.0
271.281342 108.0
271.323975 128.0
271.365417 124.0
271.410553 228.0
271.480774 136.0
271.530548 136.0
271.700226 156.0
271.77066 108.0
271.834198 196.0
271.845428 160.0
271.852753 156.0
271.924286 124.0
271.966949 144.0
272.141174 2336.0
272.219757 68.0
272.246033 392.0
272.32486 352.0
272.354401 148.0
272.433258 160.0
272.486084 48.0
272.505707 124.0
272.564667 108.0
272.640259 84.0
272.681793 232.0
272.688141 148.0
272.725708 144.0
272.761871 116.0
272.847351 168.0
272.913727 172.0
272.939423 116.0
273.008484 72.0
273.047943 152.0
273.15213 692.0
273.238739 128.0
273.278198 132.0
273.383514 128.0
273.413116 124.0
273.477295 136.0
273.60733 80.0
273.667816 184.0
273.709412 160.0
273.78418 136.0
273.883972 40.0
273.907013 124.0
273.932648 152.0
274.068451 148.0
274.15509 500.0
274.249725 108.0
274.28598 116.0
274.335419 164.0
274.363251 136.0
274.411255 104.0
274.483795 184.0
274.562958 96.0
274.589325 52.0
274.636108 200.0
274.691589 104.0
274.743378 172.0
274.78067 144.0
274.836761 100.0
274.891632 196.0
274.933929 196.0
275.009766 216.0
275.058136 96.0
275.065704 108.0
275.150879 164.0
275.19223 172.0
275.325317 136.0
275.39798 112.0
275.431305 232.0
275.519531 168.0
275.556549 168.0
275.598541 180.0
275.635864 120.0
275.695343 184.0
275.741608 160.0
275.790039 160.0
275.883759 208.0
275.999481 52.0
276.078827 68.0
276.132843 160.0
276.164307 228.0
276.230988 144.0
276.273193 164.0
276.282196 124.0
276.379883 200.0
276.422882 28.0
276.449371 156.0
276.472534 144.0
276.505615 60.0
276.555267 56.0
276.724091 100.0
276.773773 196.0
276.846619 144.0
276.886383 172.0
276.91391 100.0
276.959229 176.0
277.052002 164.0
277.088043 168.0
277.108093 116.0
277.141449 152.0
277.170868 120.0
277.196686 128.0
277.333679 68.0
277.443054 264.0
277.529266 72.0
277.572357 148.0
277.595581 152.0
277.640533 116.0
277.748138 264.0
277.794586 140.0
277.944397 164.0
278.106506 120.0
278.154755 364.0
278.188843 260.0
278.213898 160.0
278.25589 136.0
278.319 148.0
278.435211 320.0
278.574738 496.0
278.646698 108.0
278.671783 188.0
278.704315 132.0
278.770752 116.0
278.807312 60.0
278.890411 144.0
278.933624 132.0
278.963531 112.0
279.046661 100.0
279.106964 152.0
279.173035 64.0
279.201294 188.0
279.270905 268.0
279.329346 132.0
279.395874 248.0
279.575562 72.0
279.665436 112.0
279.758636 168.0
279.781952 84.0
279.831604 140.0
279.99118 120.0
280.065002 104.0
280.134949 112.0
280.183899 220.0
280.241516 224.0
280.2771 120.0
280.321533 184.0
280.368195 128.0
280.420258 164.0
280.463715 224.0
280.510376 228.0
280.54068 368.0
280.590027 96.0
280.624878 164.0
280.683472 204.0
280.724915 144.0
280.76828 120.0
280.811615 164.0
280.931 208.0
281.00177 80.0
281.059753 180.0
281.14859 152.0
281.201996 104.0
281.270416 40.0
281.328583 144.0
281.398956 216.0
281.463165 120.0
281.49826 232.0
281.626801 140.0
281.746307 164.0
281.833923 244.0
281.899994 48.0
281.986908 140.0
282.023682 72.0
282.047852 312.0
282.127289 336.0
282.170776 44.0
282.220917 148.0
282.256622 196.0
282.317902 96.0
282.356537 116.0
282.386047 148.0
282.424927 112.0
282.463745 212.0
282.515228 108.0
282.568756 164.0
282.639038 76.0
282.682098 128.0
282.829803 228.0
282.903442 112.0
282.993835 220.0
283.064178 36.0
283.090942 152.0
283.141205 144.0
283.164642 128.0
283.289551 232.0
283.318726 168.0
283.389069 172.0
283.479309 172.0
283.523132 140.0
283.630371 192.0
283.734375 164.0
283.787964 244.0
283.871796 152.0
283.895264 136.0
283.945557 148.0
284.069672 88.0
284.141815 1708.0
284.223999 168.0
284.32132 196.0
284.391815 368.0
284.432098 80.0
284.489166 32.0
284.685303 184.0
284.717499 140.0
284.791382 136.0
284.827881 152.0
284.855194 44.0
285.009064 156.0
285.073608 108.0
285.107208 184.0
285.146851 1692.0
285.202576 172.0
285.29834 404.0
285.382843 100.0
285.436646 168.0
285.514008 136.0
285.554352 184.0
285.598083 136.0
285.675476 140.0
285.817688 88.0
285.84317 152.0
285.890808 188.0
285.93457 120.0
285.975952 160.0
286.025452 172.0
286.060577 156.0
286.102875 176.0
286.157959 16108.0
286.246368 200.0
286.266663 80.0
286.289642 180.0
286.321747 92.0
286.348694 112.0
286.375641 124.0
286.459839 160.0
286.486786 148.0
286.519806 352.0
286.585815 72.0
286.631683 104.0
286.675079 236.0
286.715912 68.0
286.81366 216.0
286.843994 244.0
286.876312 76.0
286.931671 132.0
287.016937 260.0
287.062469 176.0
287.096893 228.0
287.160675 7380.0
287.216736 428.0
287.25 164.0
287.326263 124.0
287.373505 76.0
287.414001 192.0
287.542236 180.0
287.571198 128.0
287.60318 232.0
287.629456 308.0
287.69751 164.0
287.741394 176.0
287.817322 156.0
287.876465 272.0
287.933868 116.0
287.95752 176.0
287.984528 132.0
288.056732 172.0
288.171753 6252.0
288.251434 84.0
288.308899 200.0
288.338928 148.0
288.376495 132.0
288.420441 132.0
288.467743 160.0
288.498993 148.0
288.537048 144.0
288.569183 180.0
288.609741 236.0
288.631958 120.0
288.685181 172.0
288.74939 152.0
288.792389 208.0
288.824127 72.0
288.864624 212.0
288.884949 120.0
288.936768 128.0
289.002136 116.0
289.030518 72.0
289.098724 184.0
289.176788 1212.0
289.262726 96.0
289.313507 92.0
289.377838 84.0
289.414551 152.0
289.462494 164.0
289.496338 244.0
289.530212 120.0
289.605743 176.0
289.696198 64.0
289.747009 68.0
289.774109 52.0
289.838501 180.0
289.865601 132.0
290.014709 48.0
290.09436 228.0
290.166626 468.0
290.29953 224.0
290.333435 168.0
290.36734 92.0
290.433441 260.0
290.477264 88.0
290.543732 48.0
290.579498 112.0
290.652313 100.0
290.693024 28.0
290.816254 172.0
290.855957 168.0
290.883118 112.0
291.020447 132.0
291.055115 156.0
291.078461 204.0
291.137756 64.0
291.164917 136.0
291.199738 96.0
291.338165 152.0
291.37442 216.0
291.421844 164.0
291.501251 92.0
291.528442 140.0
291.609039 96.0
291.644012 108.0
291.681396 76.0
291.723724 88.0
291.800385 92.0
291.841187 68.0
292.062256 56.0
292.095093 176.0
292.15625 152.0
292.252747 160.0
292.327637 152.0
292.385193 172.0
292.453796 360.0
292.493011 168.0
292.623779 272.0
292.661224 164.0
292.691864 48.0
292.763367 32.0
292.868958 160.0
292.927704 132.0
292.984772 80.0
293.039307 140.0
293.109924 88.0
293.14151 64.0
293.18924 164.0
293.230499 184.0
293.298309 108.0
293.325562 116.0
293.407379 96.0
293.441498 108.0
293.506287 164.0
293.656342 152.0
293.717712 116.0
293.745789 156.0
293.812286 140.0
293.850769 44.0
293.878082 192.0
293.962524 128.0
294.000916 124.0
294.113556 160.0
294.185638 164.0
294.233032 380.0
294.321808 84.0
294.420837 76.0
294.468658 120.0
294.506226 164.0
294.532715 128.0
294.605286 280.0
294.664856 140.0
294.73172 108.0
294.789795 160.0
294.827393 64.0
294.988037 172.0
295.035919 124.0
295.193451 164.0
295.25885 180.0
295.350769 104.0
295.425781 148.0
295.566071 160.0
295.672791 172.0
295.754303 160.0
295.8125 148.0
295.863831 200.0
295.887817 120.0
295.933441 208.0
296.002502 72.0
296.022522 164.0
296.118134 140.0
296.199432 228.0
296.264526 76.0
296.302216 144.0
296.350189 208.0
296.521393 96.0
296.572937 60.0
296.606598 112.0
296.693054 244.0
296.726318 156.0
296.881531 120.0
296.915802 112.0
296.96637 168.0
297.039307 68.0
297.118103 136.0
297.159454 148.0
297.337799 52.0
297.392731 180.0
297.464386 232.0
297.505005 176.0
297.54892 192.0
297.595276 108.0
297.654846 288.0
297.727509 112.0
297.761963 112.0
297.804779 52.0
297.880341 108.0
298.108429 156.0
298.1539 176.0
298.230835 136.0
298.333954 176.0
298.426788 40.0
298.612488 100.0
298.662354 128.0
298.699432 116.0
298.812012 132.0
298.880829 116.0
298.908356 60.0
298.963409 172.0
298.995026 176.0
299.059784 204.0
299.118317 148.0
299.16507 244.0
299.202148 260.0
299.32489 216.0
299.376526 148.0
299.43335 112.0
299.538422 184.0
299.614197 212.0
299.723816 148.0
299.786499 176.0
299.814056 236.0
299.869202 100.0
299.929199 180.0
299.976074 152.0
300.05191 128.0
300.110168 184.0
300.116852 164.0
300.131653 320.0
300.171051 748.0
300.337585 172.0
300.3685 136.0
300.400238 144.0
300.433746 140.0
300.540588 308.0
300.576202 72.0
300.618286 248.0
300.655579 136.0
300.679718 112.0
300.772919 64.0
300.815674 104.0
300.869598 140.0
301.028412 160.0
301.062958 192.0
301.094025 120.0
301.176025 552.0
301.26297 172.0
301.311646 104.0
301.380768 136.0
301.408417 152.0
301.496429 220.0
301.529358 68.0
301.570831 148.0
301.620239 164.0
301.648926 232.0
301.716034 28.0
301.781708 92.0
301.847412 200.0
301.895721 124.0
301.926971 160.0
301.987793 164.0
302.054932 148.0
302.082611 140.0
302.143799 232.0
302.152496 160.0
302.188782 596.0
302.27179 76.0
302.442505 40.0
302.516724 100.0
302.612122 128.0
302.660614 136.0
302.7276 128.0
302.826843 184.0
302.90097 120.0
302.930756 120.0
303.065887 104.0
303.198151 120.0
303.279419 176.0
303.301544 224.0
303.36087 248.0
303.408997 104.0
303.502625 116.0
303.540771 168.0
303.63092 136.0
303.714172 160.0
303.787018 108.0
303.842529 96.0
303.943817 128.0
303.970917 88.0
304.167725 4208.0
304.254883 148.0
304.30069 100.0
304.377075 96.0
304.474304 104.0
304.568085 152.0
304.64209 212.0
304.716339 160.0
304.727631 108.0
304.739319 152.0
304.762634 224.0
304.811584 220.0
304.877319 176.0
304.931274 172.0
304.967682 312.0
305.051117 164.0
305.085876 124.0
305.129944 112.0
305.169312 624.0
305.384918 180.0
305.440582 76.0
305.610657 172.0
305.740845 148.0
305.774597 156.0
305.806671 204.0
305.843201 220.0
305.938202 148.0
305.973022 148.0
306.021759 128.0
306.126251 180.0
306.186615 304.0
306.386536 120.0
306.464752 204.0
306.536255 152.0
306.600037 156.0
306.652313 124.0
306.691406 112.0
306.791748 256.0
306.885895 152.0
306.913788 144.0
307.09668 232.0
307.152527 284.0
307.192566 216.0
307.224182 120.0
307.283508 164.0
307.379822 104.0
307.416107 84.0
307.504242 144.0
307.61734 164.0
307.656006 104.0
307.688354 120.0
307.824554 88.0
307.859467 136.0
307.965851 128.0
308.067169 108.0
308.103973 72.0
308.184326 104.0
308.229767 132.0
308.2612 148.0
308.362579 116.0
308.50589 176.0
308.530365 180.0
308.600281 264.0
308.667969 208.0
308.719177 192.0
308.75415 180.0
308.789124 176.0
308.840851 288.0
308.897491 172.0
309.128479 184.0
309.219482 292.0
309.291077 176.0
309.343445 124.0
309.40329 160.0
309.441528 140.0
309.499023 132.0
309.559082 168.0
309.650116 140.0
309.690613 272.0
309.982941 164.0
310.046021 132.0
310.077576 136.0
310.119446 148.0
310.162048 124.0
310.20636 124.0
310.298431 128.0
310.428162 148.0
310.498291 100.0
310.636139 120.0
310.681366 172.0
310.78067 112.0
310.834717 156.0
310.895538 140.0
311.028107 152.0
311.063232 128.0
311.129913 76.0
311.173523 212.0
311.246826 96.0
311.284424 168.0
311.351135 132.0
311.382751 180.0
311.428406 96.0
311.498657 172.0
311.604065 96.0
311.652527 136.0
311.709473 80.0
311.832489 224.0
311.976593 148.0
312.00824 128.0
312.068024 100.0
312.176727 324.0
312.236816 208.0
312.307159 236.0
312.370483 100.0
312.465454 108.0
312.519318 144.0
312.655487 148.0
312.781097 156.0
312.901886 100.0
313.055847 220.0
313.109344 144.0
313.155426 116.0
313.183624 100.0
313.209656 144.0
313.342865 176.0
313.42041 248.0
313.486176 176.0
313.581757 52.0
313.69809 88.0
313.754486 180.0
313.955475 136.0
314.043671 208.0
314.071533 124.0
314.189392 3052.0
314.449127 136.0
314.556885 140.0
314.594147 72.0
314.684418 204.0
314.770691 148.0
314.80246 148.0
314.873108 92.0
314.936676 96.0
314.972015 48.0
315.007324 112.0
315.058228 208.0
315.142029 164.0
315.194336 856.0
315.244049 140.0
315.438446 96.0
315.549622 72.0
315.606232 148.0
315.638306 80.0
315.671814 136.0
315.763763 164.0
315.822754 176.0
315.891113 212.0
315.95993 156.0
316.021454 176.0
316.104736 188.0
316.204315 6316.0
316.259155 276.0
316.295288 204.0
316.366486 168.0
316.414886 80.0
316.546783 112.0
316.588379 120.0
316.673401 220.0
316.708252 76.0
316.769379 40.0
316.839874 120.0
316.875305 76.0
316.939087 140.0
316.982208 96.0
317.024139 120.0
317.084381 148.0
317.112732 112.0
317.144653 108.0
317.208496 1420.0
317.297089 72.0
317.342865 140.0
317.369781 120.0
317.406982 188.0
317.474609 172.0
317.537781 64.0
317.639771 120.0
317.676544 132.0
317.746277 160.0
317.844788 164.0
317.888275 160.0
317.967529 108.0
318.020752 192.0
318.207672 244.0
318.287018 144.0
318.333191 144.0
318.364227 244.0
318.418427 96.0
318.443298 128.0
318.482361 168.0
318.553406 128.0
318.649323 164.0
318.695526 208.0
318.75238 192.0
318.781586 160.0
318.811554 104.0
318.911743 104.0
318.962585 80.0
319.129242 192.0
319.194153 312.0
319.264282 144.0
319.289185 152.0
319.331879 76.0
319.371002 100.0
319.477722 84.0
319.502625 44.0
319.534637 40.0
319.577332 152.0
319.7034 176.0
319.733917 160.0
319.826447 28.0
319.876282 156.0
320.04361 176.0
320.202576 196.0
320.254303 124.0
320.303589 116.0
320.357025 184.0
320.39624 148.0
320.485138 180.0
320.56012 208.0
320.643433 160.0
320.688904 124.0
320.740387 180.0
320.806061 72.0
320.902344 120.0
321.026733 212.0
321.062805 136.0
321.141266 148.0
321.201904 244.0
321.316071 108.0
321.400299 164.0
321.470642 124.0
321.545319 212.0
321.604431 188.0
321.701508 132.0
321.774841 156.0
321.846832 172.0
321.897888 136.0
321.937164 156.0
322.014343 112.0
322.047882 120.0
322.119324 132.0
322.15863 60.0
322.197906 60.0
322.401367 132.0
322.462341 224.0
322.540985 144.0
322.587463 156.0
322.636047 232.0
322.664795 204.0
323.005859 116.0
323.181152 124.0
323.206207 112.0
323.259888 72.0
323.304596 268.0
323.522888 168.0
323.567719 120.0
323.625702 164.0
323.675049 168.0
323.77182 84.0
323.807648 120.0
323.904358 144.0
324.022583 188.0
324.072723 108.0
324.151581 192.0
324.177673 196.0
324.202942 84.0
324.312836 44.0
324.484924 144.0
324.59082 104.0
324.660645 192.0
324.730469 128.0
324.867096 176.0
324.918976 220.0
324.947601 92.0
325.074677 172.0
325.127014 132.0
325.175751 236.0
325.209564 144.0
325.321503 160.0
325.353149 32.0
325.428558 64.0
325.456909 344.0
325.495819 244.0
325.536285 152.0
325.751801 68.0
325.776947 164.0
325.839874 108.0
325.874939 136.0
325.970978 156.0
325.999725 116.0
326.064941 52.0
326.13269 184.0
326.179138 164.0
326.254913 216.0
326.395142 100.0
326.466431 204.0
326.49585 256.0
326.542603 276.0
326.575928 136.0
326.643311 104.0
326.733246 52.0
326.772827 204.0
326.848389 124.0
326.88797 112.0
326.983093 232.0
327.013916 136.0
327.048004 180.0
327.085907 172.0
327.143402 128.0
327.19928 464.0
327.239655 120.0
327.322083 188.0
327.334076 112.0
327.348907 180.0
327.477203 168.0
327.561249 40.0
327.593689 116.0
327.618896 164.0
327.683746 184.0
327.790649 96.0
327.914368 160.0
328.040527 84.0
328.094604 244.0
328.119843 124.0
328.202606 2436.0
328.377441 152.0
328.416199 168.0
328.453583 200.0
328.505737 144.0
328.538208 76.0
328.567078 132.0
328.613983 68.0
328.641113 232.0
328.651154 172.0
328.692017 164.0
328.729462 108.0
328.948608 156.0
328.996552 44.0
329.066437 188.0
329.097656 160.0
329.210724 4568.0
329.27417 204.0
329.310699 28.0
329.354065 56.0
329.429901 88.0
329.671906 148.0
329.753571 156.0
329.87442 140.0
329.98288 192.0
330.062408 164.0
330.134735 72.0
330.167297 88.0
330.21579 2076.0
330.303131 128.0
330.402405 92.0
330.480743 352.0
330.510956 96.0
330.572479 108.0
330.74469 104.0
330.775177 52.0
330.8367 132.0
330.869293 36.0
331.055908 156.0
331.090179 76.0
331.130005 72.0
331.222046 520.0
331.260406 136.0
331.39447 120.0
331.470337 124.0
331.499542 208.0
331.580444 200.0
331.626404 196.0
331.679138 184.0
331.720642 136.0
331.824677 252.0
331.872925 60.0
331.922394 160.0
332.017975 140.0
332.046997 216.0
332.197815 268.0
332.261017 176.0
332.297302 136.0
332.374359 132.0
332.446075 124.0
332.529541 116.0
332.558594 224.0
332.627533 28.0
332.833069 132.0
332.881714 72.0
333.081451 148.0
333.117096 128.0
333.198456 96.0
333.259552 188.0
333.306702 68.0
333.401215 144.0
333.441193 144.0
333.466614 228.0
333.54129 164.0
333.592743 132.0
333.617188 96.0
333.67746 84.0
333.846069 112.0
333.877472 108.0
333.910187 32.0
334.06662 92.0
334.135742 100.0
334.210541 100.0
334.263092 52.0
334.332214 92.0
334.394104 168.0
334.426849 184.0
334.499664 116.0
334.55426 52.0
334.59375 128.0
334.699921 156.0
334.730133 112.0
334.765198 292.0
334.85965 148.0
334.945221 128.0
335.035004 136.0
335.104218 216.0
335.228607 208.0
335.345276 136.0
335.373688 352.0
335.563477 212.0
335.599915 56.0
335.647339 60.0
335.694733 188.0
335.74588 180.0
335.778625 164.0
335.811432 128.0
335.955627 204.0
336.063171 124.0
336.187225 160.0
336.289948 176.0
336.380402 152.0
336.468292 192.0
336.57782 172.0
336.643555 152.0
336.705017 188.0
336.734375 120.0
336.800629 124.0
336.85907 176.0
336.954041 120.0
336.990601 180.0
337.034424 188.0
337.06366 496.0
337.220825 220.0
337.260895 136.0
337.287842 144.0
337.359711 184.0
337.428864 88.0
337.477142 104.0
337.516937 108.0
337.582764 36.0
337.731018 156.0
337.7565 168.0
337.80954 160.0
337.893677 56.0
337.954102 116.0
338.051025 116.0
338.127869 152.0
338.18277 56.0
338.208405 80.0
338.265808 200.0
338.354828 220.0
338.491699 164.0
338.584839 168.0
338.6185 116.0
338.647797 40.0
338.710052 124.0
338.887909 148.0
338.946014 100.0
339.028839 148.0
339.071259 276.0
339.105347 132.0
339.112122 116.0
339.125824 216.0
339.190094 112.0
339.226746 96.0
339.378662 224.0
339.43576 304.0
339.560425 152.0
339.644806 128.0
339.674133 100.0
339.747528 84.0
339.809875 144.0
339.906189 116.0
339.955902 184.0
340.050018 164.0
340.099792 208.0
340.201294 580.0
340.250092 96.0
340.281677 156.0
340.397186 140.0
340.455109 176.0
340.533081 132.0
340.59552 148.0
340.680847 140.0
340.793915 124.0
340.853821 184.0
340.889435 56.0
340.939941 160.0
341.018066 128.0
341.126434 96.0
341.200043 504.0
341.281433 188.0
341.363434 120.0
341.430359 120.0
341.486664 100.0
341.546539 232.0
341.619751 64.0
341.631439 40.0
341.651215 108.0
341.694733 100.0
341.724152 172.0
341.790527 300.0
341.848938 140.0
341.87326 92.0
341.943909 228.0
341.978516 104.0
342.006134 436.0
342.07016 476.0
342.116913 312.0
342.161011 184.0
342.220276 40984.0
342.320526 332.0
342.364899 128.0
342.40506 112.0
342.411774 48.0
342.424713 92.0
342.451904 116.0
342.501495 136.0
342.536194 204.0
342.583923 92.0
342.626862 360.0
342.649353 112.0
342.686737 284.0
342.710266 44.0
342.767822 152.0
342.795197 140.0
342.856506 88.0
342.881287 80.0
342.909943 308.0
342.961426 144.0
342.980164 76.0
343.037903 388.0
343.076996 136.0
343.148834 144.0
343.224457 10452.0
343.287109 80.0
343.355286 288.0
343.39212 352.0
343.439545 128.0
343.463654 188.0
343.498444 116.0
343.528809 252.0
343.564728 172.0
343.627075 144.0
343.676086 172.0
343.71167 168.0
343.762695 148.0
343.822327 284.0
343.850006 132.0
343.880432 252.0
343.908936 168.0
343.918396 176.0
343.966949 164.0
344.006897 404.0
344.060516 392.0
344.071808 284.0
344.13443 208.0
344.158539 532.0
344.236603 143516.0
344.339355 76.0
344.372437 272.0
344.419281 148.0
344.451538 168.0
344.486847 328.0
344.530426 236.0
344.567657 236.0
344.601471 160.0
344.667328 180.0
344.701752 408.0
344.765472 188.0
344.841858 300.0
344.868713 260.0
344.883118 196.0
344.895874 368.0
344.927246 48.0
344.968811 248.0
345.062958 272.0
345.129547 300.0
345.145416 272.0
345.159119 184.0
345.239258 33968.0
345.352753 304.0
345.397827 356.0
345.437378 168.0
345.473541 64.0
345.489655 164.0
345.553375 164.0
345.570435 184.0
345.586426 292.0
345.659271 208.0
345.700958 276.0
345.736572 80.0
345.747559 156.0
345.792145 256.0
345.830475 108.0
345.87442 180.0
345.887085 64.0
345.90506 28.0
345.943481 196.0
345.982727 140.0
346.008942 188.0
346.032318 52.0
346.086151 260.0
346.112671 84.0
346.123535 80.0
346.1745 140.0
346.239563 4508.0
346.388855 128.0
346.414185 84.0
346.481323 216.0
346.522064 156.0
346.543854 252.0
346.590851 172.0
346.63913 80.0
346.685669 132.0
346.746429 72.0
346.81012 180.0
346.83902 192.0
346.888214 92.0
346.930298 136.0
346.991455 128.0
347.075714 112.0
347.126495 164.0
347.164642 160.0
347.229767 600.0
347.319244 292.0
347.351715 216.0
347.393494 444.0
347.44574 184.0
347.463623 128.0
347.477692 164.0
347.489166 48.0
347.515839 120.0
347.569458 244.0
347.611328 192.0
347.664703 136.0
347.723724 132.0
347.773651 156.0
347.799622 144.0
347.843628 60.0
347.868805 96.0
347.916016 172.0
347.952026 60.0
347.985443 32.0
348.041138 116.0
348.078278 56.0
348.115723 180.0
348.178528 120.0
348.223114 104.0
348.315979 180.0
348.357361 84.0
348.412262 68.0
348.436096 184.0
348.470581 52.0
348.524017 72.0
348.578339 104.0
348.604065 136.0
348.641541 188.0
348.676392 108.0
348.714508 92.0
348.778992 132.0
348.822357 192.0
348.859344 164.0
348.925446 188.0
349.01413 164.0
349.092773 32.0
349.126251 288.0
349.162384 176.0
349.208069 72.0
349.254822 56.0
349.311829 120.0
349.345184 60.0
349.382904 128.0
349.438721 80.0
349.573822 140.0
349.654541 40.0
349.680603 48.0
349.739044 136.0
349.792267 152.0
349.836639 100.0
349.903931 96.0
349.929993 56.0
349.989594 296.0
350.037994 140.0
350.183228 108.0
350.240479 208.0
350.283813 196.0
350.413727 152.0
350.447723 288.0
350.550171 180.0
350.600525 40.0
350.628326 152.0
350.719788 120.0
350.802216 140.0
350.865173 148.0
350.927582 108.0
350.973297 200.0
351.02179 64.0
351.066528 160.0
351.147186 108.0
351.223175 32.0
351.272339 156.0
351.362823 84.0
351.454498 128.0
351.527374 144.0
351.570557 80.0
351.611237 252.0
351.641083 68.0
351.734406 208.0
351.790405 160.0
351.835205 164.0
351.947205 92.0
351.973358 200.0
352.092834 64.0
352.193695 104.0
352.221588 120.0
352.249725 160.0
352.340363 108.0
352.402893 180.0
352.451721 184.0
352.563599 44.0
352.600952 180.0
352.814026 176.0
352.843933 48.0
352.870117 104.0
352.922455 76.0
353.042175 232.0
353.079529 36.0
353.139374 88.0
353.207977 244.0
353.247467 132.0
353.30365 248.0
353.392426 36.0
353.453613 160.0
353.483551 84.0
353.554657 64.0
353.589417 140.0
353.625763 60.0
353.693146 80.0
353.891571 152.0
354.021088 172.0
354.054596 120.0
354.105011 48.0
354.138733 160.0
354.213776 112.0
354.254852 104.0
354.296875 128.0
354.430939 40.0
354.483429 188.0
354.583832 180.0
354.625824 124.0
354.723297 40.0
354.87326 180.0
354.908539 108.0
355.02832 68.0
355.10202 172.0
355.161804 72.0
355.252045 52.0
355.327087 196.0
355.392548 152.0
355.435913 72.0
355.477173 176.0
355.549286 168.0
355.646057 48.0
355.696106 108.0
355.747437 52.0
355.826263 160.0
355.927643 80.0
355.976471 236.0
356.05896 224.0
356.104156 136.0
356.186798 144.0
356.213074 132.0
356.276947 180.0
356.434753 272.0
356.489075 100.0
356.513672 164.0
356.585083 204.0
356.656677 188.0
356.685242 240.0
356.74295 128.0
356.836945 200.0
356.887756 204.0
356.94223 136.0
357.028717 220.0
357.058197 224.0
357.201752 76.0
357.246887 92.0
357.290314 200.0
357.389862 204.0
357.441132 160.0
357.495239 92.0
357.578033 68.0
357.60437 204.0
357.679657 48.0
357.739014 228.0
357.779755 184.0
357.807648 104.0
357.892334 176.0
357.924377 168.0
357.975616 156.0
358.046783 276.0
358.103363 160.0
358.135284 56.0
358.217133 1056.0
358.28595 96.0
358.381439 164.0
358.457062 216.0
358.490601 128.0
358.568573 160.0
358.628876 56.0
358.689209 100.0
358.742462 60.0
358.783447 84.0
358.871338 160.0
358.915405 144.0
358.978851 68.0
359.04364 204.0
359.110657 144.0
359.214966 508.0
359.296356 76.0
359.339874 168.0
359.384186 184.0
359.424652 128.0
359.506104 144.0
359.53653 188.0
359.563812 64.0
359.63385 148.0
359.664948 148.0
359.731354 196.0
359.790771 104.0
359.8302 108.0
359.88327 200.0
359.920441 92.0
359.946259 172.0
359.976501 320.0
360.050018 120.0
360.121948 144.0
360.150085 184.0
360.173981 92.0
360.182251 72.0
360.230713 1640.0
360.291779 140.0
360.331207 256.0
360.424744 92.0
360.474152 156.0
360.54776 128.0
360.595367 72.0
360.621826 108.0
360.662567 72.0
360.675446 136.0
360.71344 388.0
360.737549 152.0
360.77182 232.0
360.781342 140.0
360.797852 172.0
360.827148 152.0
360.857666 288.0
360.933228 120.0
360.979004 320.0
361.036438 272.0
361.074799 248.0
361.113464 504.0
361.199738 296.0
361.235474 516.0
361.270691 284.0
361.293945 444.0
361.318848 100.0
361.362732 48.0
361.373138 144.0
361.398285 396.0
361.456055 328.0
361.466064 220.0
361.539551 160.0
361.58609 144.0
361.620789 328.0
361.657257 268.0
361.692505 304.0
361.732605 428.0
361.742126 140.0
361.757721 196.0
361.814575 488.0
361.892365 352.0
361.904297 256.0
361.915222 308.0
361.931885 376.0
361.98465 400.0
362.020874 352.0
362.049622 440.0
362.10675 332.0
362.247986 348412.0
362.346008 276.0
362.370331 292.0
362.416321 336.0
362.473846 324.0
362.513245 352.0
362.604187 532.0
362.649994 364.0
362.672516 612.0
362.723724 284.0
362.766327 428.0
362.81366 176.0
362.872894 4804.0
362.916718 468.0
362.947449 360.0
362.971313 400.0
363.013031 160.0
363.051575 304.0
363.151428 488.0
363.249847 103284.0
363.343628 152.0
363.382263 124.0
363.41098 144.0
363.433167 356.0
363.480499 304.0
363.496094 92.0
363.510712 296.0
363.521332 180.0
363.533783 196.0
363.552185 216.0
363.619385 172.0
363.650208 276.0
363.68689 188.0
363.700775 200.0
363.714569 304.0
363.742676 104.0
363.757751 72.0
363.785553 440.0
363.809021 136.0
363.884064 304.0
363.987213 148.0
364.038177 328.0
364.08316 152.0
364.131531 364.0
364.163483 132.0
364.252533 14384.0
364.309662 256.0
364.377808 260.0
364.404205 160.0
364.435822 108.0
364.502655 60.0
364.531769 200.0
364.574005 140.0
364.639038 136.0
364.718567 204.0
364.768036 68.0
364.792969 204.0
364.86731 220.0
364.923035 212.0
364.970215 80.0
365.034485 196.0
365.073853 208.0
365.11734 216.0
365.211334 116.0
365.255554 1384.0
365.319855 360.0
365.371399 352.0
365.40686 212.0
365.431 376.0
365.481079 240.0
365.564148 364.0
365.579926 212.0
365.596832 304.0
365.644562 172.0
365.685364 208.0
365.745544 240.0
365.78656 172.0
365.822845 112.0
365.870087 108.0
365.897247 204.0
365.941101 76.0
366.022186 124.0
366.082581 120.0
366.111847 132.0
366.168518 32.0
366.19339 176.0
366.231445 80.0
366.286011 128.0
366.365784 132.0
366.392731 236.0
366.430542 268.0
366.460052 124.0
366.533813 208.0
366.551483 148.0
366.564484 128.0
366.598419 104.0
366.647919 192.0
366.698425 196.0
366.736694 60.0
366.796631 44.0
366.837799 160.0
366.851959 84.0
366.864532 180.0
366.891083 72.0
366.938141 96.0
366.985779 88.0
367.066589 76.0
367.113556 76.0
367.172821 84.0
367.200806 172.0
367.215454 64.0
367.227997 164.0
367.310516 200.0
367.362061 104.0
367.509735 108.0
367.542389 76.0
367.55249 44.0
367.581024 92.0
367.652069 44.0
367.683167 84.0
367.721466 64.0
367.783447 76.0
367.932373 52.0
367.961243 40.0
367.987976 148.0
368.026459 52.0
368.044098 80.0
368.053894 108.0
368.111084 76.0
368.150269 52.0
368.24765 76.0
368.297333 116.0
368.344452 140.0
368.369629 56.0
368.404266 84.0
368.434845 84.0
368.463013 68.0
368.584961 112.0
368.624695 88.0
368.671478 56.0
368.679108 52.0
368.698212 52.0
368.711792 52.0
368.858185 76.0
368.909821 84.0
369.031067 84.0
369.08844 52.0
369.275818 60.0
369.352905 52.0
369.436493 116.0
369.492493 56.0
369.587158 64.0
369.616302 96.0
369.711975 104.0
369.796173 76.0
369.849762 60.0
369.884705 64.0
369.914856 44.0
370.018219 84.0
370.163727 116.0
370.213501 128.0
370.382019 52.0
370.598236 64.0
370.654053 104.0
370.730682 96.0
370.788177 36.0
370.98233 52.0
371.140869 72.0
371.236725 56.0
371.298096 52.0
371.324951 52.0
371.363312 124.0
371.413147 84.0
371.516724 76.0
371.58197 84.0
371.769989 104.0
371.812195 48.0
371.936432 88.0
371.992615 124.0
372.046356 72.0
372.103943 76.0
372.165375 80.0
372.24707 160.0
372.300079 116.0
372.514862 32.0
372.62265 72.0
372.826111 100.0
372.92218 76.0
373.064423 108.0
373.241272 108.0
373.414337 60.0
373.543579 120.0
373.595123 92.0
373.62207 68.0
373.687469 32.0
373.756744 72.0
373.983795 76.0
374.021484 96.0
374.078735 36.0
374.295654 92.0
374.322601 52.0
374.43042 100.0
374.615326 56.0
374.821259 124.0
374.892731 48.0
374.962128 48.0
375.262787 92.0
375.660034 88.0
375.702484 112.0
376.026611 48.0
376.076782 84.0
376.155823 76.0
376.231201 116.0
376.520813 80.0
376.746948 132.0
376.891663 80.0
377.150604 84.0
377.18927 64.0
377.222565 104.0
377.282043 40.0
377.351624 108.0
377.391449 68.0
377.55957 104.0
377.664886 144.0
377.694061 96.0
377.817688 80.0
377.900879 92.0
377.935699 88.0
378.059509 28.0
378.214325 68.0
378.256927 60.0
378.290619 136.0
378.434998 88.0
378.539551 60.0
378.582153 96.0
378.682861 80.0
378.782227 92.0
378.81842 88.0
379.039825 112.0
379.295074 80.0
379.388123 84.0
379.423004 140.0
379.548401 128.0
379.593628 92.0
379.806915 32.0
379.841827 100.0
379.868988 56.0
379.993134 76.0
380.163879 96.0
380.218201 112.0
380.474396 80.0
380.62973 76.0
380.730682 72.0
380.908997 88.0
381.235748 92.0
381.41452 36.0
381.511719 100.0
381.546692 44.0
381.744995 76.0
382.196259 108.0
382.324677 60.0
382.542633 108.0
382.593262 68.0
382.990448 88.0
383.146271 48.0
383.228088 72.0
383.447784 72.0
383.555481 96.0
383.652924 52.0
384.323761 56.0
384.960052 28.0
385.005066 84.0
385.092834 88.0
386.083801 96.0
386.099426 52.0
386.115234 124.0
386.152069 32.0
386.263397 104.0
386.296814 52.0
386.335907 164.0
386.410248 72.0
386.719421 88.0
386.793793 96.0
386.878265 28.0
387.386841 100.0
387.479126 96.0
387.612335 148.0
387.671112 76.0
387.749512 88.0
388.004028 56.0
388.029938 112.0
388.51416 88.0
388.761353 48.0
389.193176 60.0
389.334534 76.0
389.6763 104.0
389.978882 64.0
390.69458 52.0
390.72998 52.0
390.765015 40.0
390.973938 44.0
391.852081 44.0
391.923187 80.0
392.120056 80.0
392.171295 100.0
392.222534 120.0
392.328979 60.0
392.825867 128.0
393.070496 96.0
394.006287 124.0
394.255219 84.0
394.377747 132.0
394.524017 120.0
396.257507 32.0
396.312988 100.0
397.018585 88.0
397.220886 64.0
397.5383 76.0
398.185425 80.0
398.511169 64.0
398.634369 116.0
398.968231 112.0
399.083527 92.0
400.373779 88.0
400.942596 88.0
401.2854 44.0
401.979462 72.0
402.047302 108.0
403.12558 84.0
404.305359 76.0
404.409424 72.0
405.550964 140.0
405.607086 100.0
405.723358 60.0
405.863678 176.0
406.561676 96.0
407.521423 96.0
407.951477 68.0
408.405884 76.0
410.290497 112.0
410.480011 96.0
412.3573 32.0
413.178192 68.0
414.303711 100.0
414.445496 52.0
414.676514 108.0
415.564606 104.0
416.128784 68.0
416.185638 48.0
416.461792 68.0
416.526794 112.0
417.925354 76.0
418.06778 104.0
419.11026 64.0
419.379242 72.0
419.880737 32.0
420.325409 116.0
420.411102 156.0
421.207306 92.0
421.436066 60.0
422.454102 124.0
422.495026 120.0
423.94455 92.0
424.037445 48.0
424.64151 72.0
425.195404 96.0
425.712708 108.0
426.583771 40.0
426.711212 128.0
427.480408 40.0
427.665619 128.0
428.254425 76.0
428.299744 64.0
428.39035 28.0
428.480988 100.0
429.070374 32.0
429.462128 88.0
429.676636 52.0
430.869812 124.0
432.681335 68.0
434.658447 76.0
436.369781 84.0
437.451477 68.0
438.19696 84.0
438.463654 80.0
438.65741 116.0
439.894379 76.0
440.909363 52.0
441.076569 80.0
443.219391 40.0
443.877533 52.0
444.636871 40.0
445.682526 60.0
445.716156 108.0
447.610596 76.0
447.929169 56.0
447.962891 68.0
448.342102 168.0
450.278625 60.0
450.417999 84.0
451.208282 144.0
452.007721 84.0
452.579163 180.0
453.981812 60.0
454.533295 124.0
454.711517 76.0
455.280426 128.0
455.768982 84.0
456.342804 88.0
457.219116 68.0
457.666077 44.0
458.049377 64.0
458.837799 64.0
459.44342 72.0
459.720764 132.0
460.792572 60.0
461.326782 60.0
461.698792 36.0
461.865601 112.0
463.818207 112.0
464.161194 76.0
464.650177 104.0
465.354065 60.0
466.643066 132.0
466.965607 156.0
467.202179 64.0
467.395813 104.0
467.451752 48.0
467.877869 56.0
468.480804 52.0
468.933258 144.0
469.644714 136.0
471.276581 148.0
471.432159 52.0
471.963867 80.0
472.011414 80.0
473.487152 52.0
474.490051 164.0
475.889587 88.0
476.067627 72.0
476.141449 88.0
476.368256 92.0
477.449646 48.0
478.84671 40.0
479.936188 96.0
480.651581 52.0
481.843597 112.0
482.967102 104.0
483.238342 96.0
483.544678 108.0
484.525574 56.0
485.625854 52.0
485.941711 100.0
485.98999 80.0
487.346771 120.0
488.063263 112.0
488.243561 48.0
488.344727 76.0
488.947479 56.0
489.475769 140.0
489.709198 68.0
490.092468 68.0
490.705139 76.0
490.859467 84.0
491.225525 104.0
491.944855 80.0
494.296234 116.0
494.35376 32.0
496.267395 104.0
496.786316 108.0
496.835114 52.0
497.052521 96.0
497.11911 116.0
497.389832 80.0
497.669525 88.0
498.371338 48.0
498.664642 40.0
498.851349 92.0
498.886902 116.0
499.193695 116.0
499.863586 68.0
500.17395 104.0
500.51535 40.0
501.450897 64.0
502.012634 44.0
504.101898 100.0
504.204681 132.0
504.705383 40.0
505.331573 80.0
505.57663 64.0
505.653778 104.0
505.743286 56.0
506.432861 80.0
507.118408 148.0
507.323486 80.0
507.696777 92.0
507.77301 176.0
508.033173 52.0
508.1633 52.0
509.447327 60.0
510.107941 104.0
510.733002 52.0
511.696045 48.0
512.200439 36.0
512.596924 68.0
512.907898 64.0
514.753235 48.0
514.956421 116.0
515.335938 44.0
515.453369 64.0
515.49408 80.0
516.343994 144.0
516.651611 80.0
516.977417 36.0
517.045288 72.0
517.683594 52.0
518.834534 84.0
519.505737 60.0
519.573792 96.0
524.157043 68.0
524.275513 76.0
524.749634 76.0
525.780579 132.0
525.890076 60.0
526.145752 48.0
526.94043 52.0
527.502563 120.0
527.653442 132.0
528.183899 76.0
528.989319 64.0
529.795288 56.0
530.423157 84.0
531.083435 84.0
532.217041 80.0
532.308838 92.0
532.749817 92.0
534.542969 124.0
534.77771 96.0
535.431519 116.0
535.657227 116.0
537.184143 104.0
537.492188 112.0
537.815247 88.0
538.346191 48.0
538.591003 88.0
538.79425 100.0
539.334961 60.0
539.584595 116.0
539.616943 92.0
540.819763 44.0
541.148438 56.0
541.403137 72.0
541.694946 68.0
542.023865 80.0
542.793396 36.0
543.206299 132.0
544.621948 52.0
544.951843 116.0
545.291077 56.0
545.732666 40.0
546.281494 84.0
547.282166 40.0
547.426514 112.0
549.300171 140.0
549.428101 144.0
549.51947 136.0
550.518372 52.0
550.957458 64.0
550.999512 84.0
551.064941 100.0
551.275208 76.0
551.368652 40.0
551.508911 56.0
553.572144 136.0
554.279541 68.0
554.383362 124.0
555.45636 52.0
556.535522 68.0
556.765869 144.0
556.888 112.0
557.498779 76.0
558.00177 48.0
559.064819 48.0
560.077087 64.0
560.543518 104.0
562.194092 64.0
562.732239 48.0
562.774719 84.0
562.921875 76.0
563.27533 120.0
563.402893 120.0
563.577698 60.0
564.003052 80.0
564.258301 72.0
564.46167 40.0
564.546753 92.0
565.015076 48.0
565.810181 84.0
566.084778 96.0
566.136902 64.0
566.236328 96.0
566.354736 92.0
567.184021 88.0
567.323914 116.0
567.338562 60.0
567.351562 92.0
567.496887 136.0
567.653381 80.0
568.179871 84.0
568.232056 132.0
569.266846 60.0
569.528076 84.0
571.277405 80.0
571.991272 116.0
572.172607 88.0
573.09137 124.0
575.533569 52.0
575.72937 68.0
575.972961 64.0
577.966614 92.0
578.234619 36.0
578.296814 84.0
578.526611 60.0
578.732483 56.0
578.794739 56.0
579.062927 100.0
579.101257 76.0
579.623413 64.0
579.671387 112.0
579.87262 72.0
580.217773 48.0
581.018738 40.0
581.680969 72.0
581.959473 80.0
582.780823 64.0
583.905701 80.0
584.602417 108.0
585.561401 104.0
586.182861 80.0
588.295471 48.0
591.26239 96.0
591.916931 44.0
591.975037 52.0
592.628967 68.0
593.215393 108.0
594.253296 88.0
595.296936 44.0
597.391846 68.0
597.970886 152.0
598.28241 80.0
598.51123 40.0
598.983704 60.0
599.022644 56.0
599.417297 80.0
599.690247 64.0
600.358154 72.0
600.894775 80.0
602.701355 120.0
602.755127 60.0
602.789307 44.0
602.843079 44.0
604.37854 56.0
605.81311 88.0
607.987183 72.0
608.530151 68.0
608.574341 100.0
609.370056 108.0
610.372803 76.0
611.38623 52.0
611.642151 72.0
611.858765 80.0
612.144348 84.0
613.292297 104.0
614.525208 36.0
615.137207 68.0
617.237 220.0
617.444702 84.0
619.563599 72.0
619.695557 104.0
620.381042 76.0
620.633911 96.0
621.070312 76.0
621.189392 44.0
621.725281 60.0
621.918823 92.0
622.519592 76.0
623.478394 48.0
623.562866 92.0
623.905884 48.0
625.647156 80.0
627.819702 68.0
628.138916 44.0
628.218689 76.0
629.661316 64.0
630.21582 68.0
630.940552 92.0
632.531372 84.0
633.117188 76.0
634.891357 44.0
636.221069 112.0
636.406799 116.0
637.120056 48.0
637.310974 80.0
638.437012 80.0
639.055725 92.0
639.896301 60.0
641.105225 56.0
641.594177 44.0
643.168091 60.0
643.405396 84.0
643.981079 68.0
645.795593 68.0
645.851257 96.0
646.180115 136.0
647.121521 124.0
649.143311 116.0
649.686035 56.0
649.914368 68.0
650.520813 124.0
650.817871 52.0
651.788086 136.0
652.138733 100.0
653.491516 80.0
654.076782 104.0
654.667358 72.0
658.068604 92.0
658.349487 80.0
658.742737 48.0
659.371277 76.0
659.463257 148.0
659.642151 44.0
660.445007 96.0
663.046021 100.0
663.553528 48.0
664.512634 96.0
666.119568 44.0
667.12677 56.0
667.831299 64.0
668.56189 124.0
668.839844 56.0
669.220764 108.0
670.776672 56.0
671.075684 128.0
674.043762 40.0
674.793274 112.0
675.258667 76.0
676.262451 52.0
677.764282 112.0
678.080444 68.0
682.58667 160.0
683.424194 204.0
686.388062 120.0
687.608826 56.0
689.232971 64.0
689.969971 52.0
690.084961 84.0
691.890015 84.0
692.523682 44.0
692.57605 52.0
692.691284 104.0
693.749878 64.0
693.844238 80.0
694.174561 72.0
694.211304 92.0
694.562683 72.0
695.15033 84.0
695.423218 76.0
695.622742 144.0
696.137268 136.0
698.039612 92.0
699.560181 64.0
700.065674 72.0
700.803162 48.0
702.558838 132.0
703.545776 80.0
703.8573 124.0
704.105469 64.0
705.532227 48.0
706.965637 48.0
708.19928 56.0
711.438721 176.0
711.816284 100.0
712.310242 48.0
713.09137 48.0
713.787781 68.0
715.730103 60.0
716.598267 68.0
717.412231 72.0
719.969604 36.0
720.845764 100.0
722.492615 168.0
724.189575 64.0
724.46814 92.0
724.521667 68.0
724.752075 104.0
724.832458 128.0
726.698486 80.0
726.848694 76.0
727.041931 188.0
727.718262 28.0
727.884766 52.0
729.39447 32.0
731.836975 40.0
732.003906 68.0
732.580261 100.0
732.628723 84.0
735.632568 60.0
737.615112 116.0
739.768188 156.0
740.374634 56.0
741.685791 44.0
742.011108 52.0
742.368958 124.0
743.529968 104.0
744.610413 60.0
745.126465 60.0
745.947083 40.0
746.501648 108.0
746.953125 132.0
747.644104 88.0
749.130615 100.0
750.711304 72.0
751.131287 100.0
754.4953 96.0
755.277344 200.0
755.753296 168.0
755.906494 88.0
756.404602 48.0
756.776855 88.0
759.078308 100.0
759.974915 132.0
760.641968 92.0
761.196533 100.0
762.646973 40.0
763.345154 40.0
763.867676 92.0
764.709595 80.0
768.605957 100.0
770.947388 56.0
772.882874 100.0
773.010132 48.0
773.923523 60.0
774.283447 76.0
775.98468 112.0
777.587891 92.0
779.77063 96.0
780.893799 76.0
781.30542 76.0
783.326294 112.0
786.734985 236.0
786.95697 128.0
788.890076 140.0
789.370972 60.0
789.879883 64.0
791.021484 72.0
792.539246 84.0
794.602661 136.0
795.730774 44.0
797.135071 48.0
798.484314 100.0
798.838684 120.0
799.874146 112.0
800.076782 80.0
801.259521 56.0
801.710327 72.0
803.023926 72.0
803.678345 28.0
805.518921 60.0
806.253418 68.0
810.390076 180.0
813.952271 68.0
815.167969 120.0
818.011841 108.0
821.191406 100.0
823.023315 68.0
824.560059 32.0
828.216248 104.0
829.551453 76.0
830.41156 196.0
830.927856 88.0
835.731323 216.0
836.531311 172.0
837.781006 72.0
839.440979 72.0
840.046631 92.0
840.819824 112.0
841.275818 72.0
843.679138 84.0
843.742737 80.0
844.534973 140.0
852.530273 72.0
853.437134 60.0
854.61792 76.0
855.298828 68.0
855.787842 60.0
856.469238 64.0
859.074951 52.0
860.615784 172.0
862.789307 124.0
863.935547 68.0
865.117737 52.0
865.451477 140.0
865.9375 56.0
867.191406 80.0
867.906616 172.0
868.088379 52.0
868.616272 168.0
869.695984 156.0
869.74884 68.0
870.594299 104.0
873.133179 176.0
876.51825 68.0
876.901306 36.0
880.210999 48.0
882.468201 164.0
885.073853 92.0
885.829834 40.0
887.643494 104.0
890.789185 56.0
890.967407 96.0
893.214539 180.0
893.339478 32.0
893.422791 152.0
895.440735 80.0
896.388 176.0
898.630005 116.0
898.785156 48.0
899.626709 116.0
900.582153 124.0
900.97644 48.0
901.412598 104.0
902.470642 80.0
902.769653 40.0
904.768188 80.0
905.995911 72.0
906.72699 48.0
907.260498 72.0
908.981934 32.0
909.456055 92.0
912.044922 60.0
912.15918 116.0
912.748352 36.0
915.137207 164.0
916.685303 84.0
916.781738 44.0
916.944458 156.0
919.489624 36.0
919.652588 40.0
919.942383 88.0
924.554321 52.0
927.376709 80.0
928.249756 124.0
928.328613 108.0
928.93512 100.0
929.626831 236.0
929.821045 92.0
934.190002 52.0
934.628052 176.0
937.063599 184.0
940.423767 116.0
941.400635 176.0
941.596069 88.0
944.627869 28.0
945.64978 112.0
949.841003 60.0
954.13031 44.0
955.246826 100.0
955.542114 100.0
955.812866 60.0
957.807617 152.0
959.317444 60.0
959.711975 140.0
961.815796 56.0
962.791321 176.0
963.452271 100.0
963.575867 72.0
964.602905 172.0
965.640564 76.0
966.030273 88.0
966.488098 108.0
968.159546 72.0
969.045349 244.0
972.313354 76.0
972.605103 84.0
972.927917 120.0
975.0896 52.0
978.753845 60.0
979.133728 144.0
981.277405 96.0
983.991455 164.0
985.290588 96.0
986.402954 52.0
990.194824 124.0
992.369385 180.0
993.686523 52.0
995.092468 160.0
996.794739 48.0
998.44812 32.0
999.473511 136.0
1000.134338 76.0
1002.634888 72.0
1003.403931 172.0
1004.305725 108.0
1004.810364 76.0
1005.005981 80.0
1005.138489 152.0
1007.278809 140.0
1008.479431 184.0
1008.820801 144.0
1009.465698 112.0
1009.522644 204.0
1009.933716 140.0
1010.237366 68.0
1010.800476 104.0
1011.737244 68.0
1011.825867 92.0
1011.984192 52.0
1012.877136 76.0
1014.974976 48.0
1015.951721 48.0
1018.554504 72.0
1020.333923 144.0
1020.518311 44.0
1020.63916 92.0
1022.955017 52.0
1025.133423 92.0
1027.288452 128.0
1027.626587 40.0
1027.72229 156.0
1028.411621 144.0
1029.069092 48.0
1030.876831 192.0
1031.963623 60.0
1035.707397 96.0
1036.207153 144.0
1036.31604 32.0
1037.886475 88.0
1038.123779 68.0
1038.348145 40.0
1039.259155 156.0
1039.547852 188.0
1039.945801 44.0
1040.17688 140.0
1040.703369 120.0
1042.585571 76.0
1042.816895 160.0
1047.256592 116.0
1047.720459 92.0
1048.757935 124.0
1051.402344 112.0
1054.198853 112.0
1055.045532 60.0
1055.834473 212.0
1056.144897 116.0
1058.319458 48.0
1059.154907 128.0
1062.564819 96.0
1063.213745 196.0
1065.376099 192.0
1069.420776 180.0
1071.172363 136.0
1071.732666 60.0
1072.110718 76.0
1073.303711 76.0
1073.434082 96.0
1074.471191 100.0
1075.580566 108.0
1076.39502 148.0
1076.74939 176.0
1078.650879 48.0
1079.978271 68.0
1081.496338 100.0
1083.788452 56.0
1084.574951 132.0
1086.535767 56.0
1086.706299 96.0
1091.238403 148.0
1091.297607 52.0
1092.639282 184.0
1093.040649 48.0
1093.738281 72.0
1095.806274 104.0
1098.040894 180.0
1098.159668 144.0
1099.386841 152.0
1099.479248 52.0
1099.855469 60.0
1101.777222 108.0
1103.158447 112.0
1103.297241 60.0
1104.289185 92.0
1104.388428 48.0
1105.14917 140.0
1106.254395 80.0
1107.075562 200.0
1109.010132 68.0
1109.567017 184.0
1112.526001 152.0
1113.568481 116.0
1114.212891 124.0
1116.393799 188.0
1118.981567 168.0
1120.819946 132.0
1123.447021 48.0
1126.958862 72.0
1127.453369 32.0
1128.175293 156.0
1128.449341 44.0
1128.650024 68.0
1128.797119 148.0
1129.205078 40.0
1130.402588 76.0
1130.770752 204.0
1134.226929 176.0
1134.696289 108.0
1135.105225 180.0
1138.286133 180.0
1140.684692 96.0
1141.78064 140.0
1145.698364 104.0
1147.329346 52.0
1147.491089 144.0
1147.794556 88.0
1151.337524 36.0
1151.445557 132.0
1152.269653 60.0
1153.425293 120.0
1154.946777 144.0
1154.994141 72.0
1155.224121 136.0
1155.501465 176.0
1156.448975 168.0
1157.247803 116.0
1157.518555 120.0
1158.358521 136.0
1159.62561 164.0
1159.957764 112.0
1161.720947 132.0
1162.83374 104.0
1163.824951 164.0
1165.32605 116.0
1166.685303 44.0
1167.718994 84.0
1168.644165 176.0
1169.130249 180.0
1170.652222 60.0
1171.582642 128.0
1171.646729 192.0
1171.823853 72.0
1174.312134 116.0
1175.649414 44.0
1178.619995 76.0
1179.009521 160.0
1180.246826 92.0
1180.718628 176.0
1184.24353 208.0
1187.032959 64.0
1187.540405 184.0
1189.11853 52.0
1191.041138 176.0
1191.748779 124.0
1192.229736 64.0
1193.611572 132.0
1193.783447 116.0
1195.510254 108.0
1196.473877 80.0
1196.880127 152.0
1199.67749 64.0
1200.80835 36.0
1202.208984 180.0
1202.9198 148.0
1203.064819 92.0
1203.119141 156.0
1204.16272 156.0
1205.821045 108.0
1206.498413 92.0
1207.023926 132.0
1208.151367 212.0
1208.483398 184.0
1209.078613 64.0
1210.386963 100.0
1210.96875 124.0
1211.07959 76.0
1211.204224 132.0
1211.869263 104.0
1212.72168 68.0
1213.463501 52.0
1213.706177 96.0
1214.184692 200.0
1218.842896 152.0
1219.607422 152.0
1219.795044 36.0
1220.399902 128.0
1222.514648 192.0
1222.786133 152.0
1222.911377 76.0
1223.328979 244.0
1223.65625 104.0
1224.016602 136.0
1224.749634 212.0
1226.491699 60.0
1226.638062 108.0
1227.460693 144.0
1229.023315 168.0
1235.031494 40.0
1235.432251 56.0
1236.822876 144.0
1241.916992 176.0
1242.141479 124.0
1243.208008 72.0
1243.320312 40.0
1244.731323 140.0
1244.822632 184.0
1245.166748 128.0
1245.236938 168.0
1245.321289 56.0
1245.546021 68.0
1246.0448 128.0
1246.375122 112.0
1247.52771 36.0
1252.989136 164.0
1255.279907 172.0
1255.688965 152.0
1256.323853 200.0
1256.817749 120.0
1257.707031 84.0
1259.027344 176.0
1259.175659 100.0
1259.507568 208.0
1260.079834 212.0
1261.012695 160.0
1261.839722 200.0
1262.433716 52.0
1262.780273 60.0
1267.934692 108.0
1267.991333 224.0
1270.615112 192.0
1271.523438 124.0
1271.57312 72.0
1271.764771 64.0
1272.673462 180.0
1272.943359 116.0
1273.27002 32.0
1273.397827 52.0
1273.909302 116.0
1274.001587 112.0
1274.982178 172.0
1275.216797 44.0
1276.788086 216.0
1277.036987 252.0
1277.335693 120.0
1278.55249 136.0
1278.794434 160.0
1278.844238 168.0
1279.164551 104.0
1279.826782 136.0
1280.966309 68.0
1282.533936 104.0
1284.152588 152.0
1284.726685 140.0
1284.96582 156.0
1285.679443 160.0
1286.557373 140.0
1287.107178 92.0
1288.142822 164.0
1288.835815 176.0
1289.228882 100.0
1289.586182 56.0
1290.165283 204.0
1291.32373 84.0
1292.225098 56.0
1294.212402 196.0
1295.754883 136.0
1296.973145 132.0
1299.404297 136.0
1299.511841 208.0
1300.315674 124.0
1301.011963 132.0
1301.241699 112.0
1302.254272 128.0
1302.455322 204.0
1303.461182 156.0
1304.956299 88.0
1305.157593 80.0
1305.553223 172.0
1305.754517 180.0
1306.963135 228.0
1307.970703 116.0
1308.337891 112.0
1309.057861 164.0
1309.7854 84.0
1309.987061 156.0
1310.426514 140.0
1310.534668 196.0
1311.557983 44.0
1313.230835 60.0
1315.496704 172.0
1316.023682 148.0
1316.839722 172.0
1320.214966 180.0
1324.159424 88.0
1324.210083 256.0
1325.767822 148.0
1327.369873 108.0
1327.478638 132.0
1327.993652 208.0
1328.044434 64.0
1328.428833 160.0
1329.923706 148.0
1330.228638 196.0
1330.685913 104.0
1331.717163 204.0
1332.559937 184.0
1332.748779 84.0
1334.057007 76.0
1334.755005 176.0
1335.39502 156.0
1335.633057 196.0
1335.860596 116.0
1336.326172 108.0
1336.573608 176.0
1337.439697 84.0
1337.490601 184.0
1338.196777 208.0
1338.400635 176.0
1338.633667 36.0
1339.726318 144.0
1341.220215 112.0
1341.293091 52.0
1342.109619 236.0
1342.992065 252.0
1343.809204 68.0
1343.998901 148.0
1344.071899 84.0
1344.53894 132.0
1344.721313 56.0
1344.859985 56.0
1345.509766 180.0
1346.196167 120.0
1347.282715 184.0
1347.416016 40.0
1347.693604 164.0
1348.387939 112.0
1348.789917 44.0
1349.067749 248.0
1349.52832 156.0
1350.340088 172.0
1350.910645 124.0
1351.452026 184.0
1351.664185 36.0
1353.018311 136.0
1353.743286 136.0
1354.871216 108.0
1355.706543 120.0
1356.366211 52.0
1356.769409 80.0
1356.93811 68.0
1357.231323 188.0
1357.803345 120.0
1357.854736 36.0
1357.994141 48.0
1358.764404 144.0
1358.845093 156.0
1360.283447 32.0
1360.378906 152.0
1362.244263 52.0
1362.560181 132.0
1362.787964 144.0
1363.412598 192.0
1363.566895 148.0
1363.7948 176.0
1364.015259 152.0
1364.353394 76.0
1365.493286 164.0
1366.000732 144.0
1366.199463 76.0
1366.788086 168.0
1367.214844 208.0
1367.575562 84.0
1368.149658 196.0
1368.569336 92.0
1368.790283 168.0
1368.841797 164.0
1370.197144 196.0
1370.300293 140.0
1370.926636 148.0
1371.162476 196.0
1371.759521 164.0
1372.290405 124.0
1374.828003 144.0
1375.484863 140.0
1377.234863 84.0
1377.434326 60.0
1377.729858 108.0
1377.958862 104.0
1378.291382 52.0
1379.947144 40.0
1380.427734 80.0
1380.553467 52.0
1381.08606 140.0
1382.432617 128.0
1382.632446 72.0
1382.8396 56.0
1383.535522 180.0
1383.653931 164.0
1386.046387 128.0
1387.143311 108.0
1388.025635 76.0
1388.203613 112.0
1391.639282 80.0
1391.817505 152.0
1393.042969 200.0
1393.351929 144.0
1393.994019 104.0
1394.194702 92.0
1394.967651 84.0
1395.131226 156.0
1396.529297 120.0
1396.896484 112.0
1396.997925 144.0
1397.898193 180.0
1398.039673 132.0
1398.962646 96.0
1399.3125 44.0
1399.684814 160.0
1400.064575 196.0
1402.150757 48.0
1402.612793 184.0
1402.970703 52.0
1403.246582 136.0
1403.738647 200.0
1403.790894 180.0
1404.559082 152.0
1405.275269 68.0
1405.439453 160.0
1405.529053 168.0
1406.193237 172.0
1406.894897 120.0
1407.189941 116.0
1407.790894 196.0
1408.029907 196.0
1408.283813 156.0
1408.529053 112.0
1408.709595 116.0
1410.278931 120.0
1411.011475 212.0
1413.000977 112.0
1415.24646 88.0
1415.433594 132.0
1415.71814 136.0
1416.287476 68.0
1416.504639 228.0
1416.564575 116.0
1418.767944 176.0
1418.827881 116.0
1419.390259 56.0
1420.567749 96.0
1421.87085 204.0
1422.308716 260.0
1422.361328 92.0
1422.563965 132.0
1422.751709 152.0
1423.900513 48.0
1425.004883 132.0
1425.222778 76.0
1425.433105 112.0
1426.996582 244.0
1427.222168 120.0
1427.319946 68.0
1427.929077 188.0
1428.019409 148.0
1428.831787 144.0
1429.034912 148.0
1429.208008 100.0
1429.441284 156.0
1430.570312 76.0
1430.675659 68.0
1431.112427 168.0
1431.549194 136.0
1431.647095 124.0
1431.805176 104.0
1433.696289 128.0
1434.186157 40.0
1434.327515 160.0
1434.668579 164.0
1434.826904 64.0
1435.384888 88.0
1435.942993 176.0
1436.13916 92.0
1436.39563 184.0
1437.753784 212.0
1438.206543 156.0
1438.83313 204.0
1439.546875 100.0
1440.509766 168.0
1441.67334 72.0
1442.088989 128.0
1443.805298 132.0
1444.894653 136.0
1444.962769 220.0
1446.014526 52.0
1446.067505 88.0
1446.355225 148.0
1446.642822 148.0
1446.764038 260.0
1446.953247 172.0
1447.187988 136.0
1448.028564 160.0
1448.111938 40.0
1449.710449 120.0
1450.855103 144.0
1451.636108 108.0
1452.318604 188.0
1453.965088 132.0
1454.420532 184.0
1454.564697 100.0
1454.830444 156.0
1456.273315 88.0
1457.146851 156.0
1457.48877 244.0
1457.549561 72.0
1458.841675 148.0
1460.065918 164.0
1461.77002 112.0
1463.041138 208.0
1463.130737 168.0
1463.20105 116.0
1463.802612 76.0
1464.206177 140.0
1466.392944 120.0
1466.834961 224.0
1467.109497 256.0
1467.345825 140.0
1467.757568 60.0
1468.238037 112.0
1468.741333 80.0
1469.015991 192.0
1469.771362 136.0
1472.817627 168.0
1473.375244 112.0
1473.803101 184.0
1473.978882 192.0
1474.238647 232.0
1474.81189 76.0
1476.692871 116.0
1477.794556 112.0
1478.881226 96.0
1478.942505 76.0
1479.172119 80.0
1479.447632 68.0
1480.305298 140.0
1480.603882 128.0
1480.879639 112.0
1482.128418 120.0
1482.220337 128.0
1483.101807 244.0
1483.661377 136.0
1483.960327 60.0
1484.11377 204.0
1486.606812 188.0
1486.791016 128.0
1487.090332 36.0
1488.311035 60.0
1488.456909 256.0
1488.886963 156.0
1488.971436 172.0
1490.623169 112.0
1491.3302 152.0
1491.553223 192.0
1491.653076 172.0
1491.906738 128.0
1492.475708 200.0
1492.801514 176.0
1493.506348 148.0
1493.629395 96.0
1493.752441 132.0
1494.060181 52.0
1494.683472 76.0
1494.924194 184.0
1496.594604 140.0
1496.731079 76.0
1497.693726 216.0
1497.832397 208.0
1498.387085 40.0
1499.142212 132.0
1499.327148 220.0
1499.832275 196.0
1499.959229 196.0
1502.380737 160.0
1504.356323 140.0
1504.472168 224.0
1504.927734 176.0
