>compound MLS002153445-01!
>formula C22H22FN3O2
>ionization [M+H]+
>parentmass 380.17688161609055
#inchi InChI=1S/C22H22FN3O2/c23-17-9-7-16(8-10-17)21(27)6-3-13-25-14-11-18(12-15-25)26-20-5-2-1-4-19(20)24-22(26)28/h1-2,4-5,7-11H,3,6,12-15H2,(H,24,28)
#inchikey RMEDXOLNCUSCGS
#Ion_Source LC-ESI
#Instrument qTof
#Compound_Source NIH Pharmacologically Active Library
#PI Dorrestein
#Data_Collector VP/LMS
#Scan -1
#Precursor_MZ 380.17
#ExactMass 379.17
#Charge 1
#CAS_Number N/A
#Pubmed_ID N/A
#Smiles Oc1nc2ccccc2n1C3=CCN(CCCC(=O)c4ccc(F)cc4)CC3
#INCHI_AUX N/A
#Library_Class 1
#SpectrumID CCMSLIB00000085364
#IonMode Positive
#UpdateWorkflowName UPDATE-SINGLE-ANNOTATED-GOLD
#LibraryQualityString Gold
#TaskID d252d724072548979f1f6f1ced849daf
##Scan# 1574
#SpectrumFile p3-H09_GH9_01_18314.mzXML
#LibraryName Pharm_Active_Library.mgf
#MQScore -1
#Organism Pharm_Active_Library
#TIC_Query 0
#RT_Query -1
#MZErrorPPM -1
#SharedPeaks 0
#MassDiff 0
#LibMZ -1
#SpecMZ 380.17
#SpecCharge 0
#internalFilename spec-00000.mgf

>collision 10
44.927097 176.0
44.943108 36.0
44.95512 208.0
45.000504 152.0
45.034489 260.0
45.091347 112.0
45.100704 168.0
45.162212 160.0
45.227783 176.0
45.237152 44.0
45.334312 240.0
45.379169 200.0
45.412697 132.0
45.428795 76.0
45.438187 44.0
45.460999 132.0
45.517384 320.0
45.536182 128.0
45.545586 160.0
45.575146 40.0
45.610088 164.0
45.62891 68.0
45.639668 176.0
45.657867 172.0
45.67598 64.0
45.698853 44.0
45.74231 124.0
45.744915 160.0
45.780968 288.0
45.813293 144.0
45.834801 204.0
45.859112 156.0
45.87394 96.0
45.910347 124.0
45.958912 192.0
46.005161 180.0
46.041565 196.0
46.085842 124.0
46.101608 168.0
46.148022 96.0
46.164375 192.0
46.177773 120.0
46.221066 164.0
46.245426 96.0
46.264378 112.0
46.276146 168.0
46.313129 128.0
46.330742 140.0
46.376816 152.0
46.469036 148.0
46.496178 116.0
46.521969 124.0
46.561348 36.0
46.606178 172.0
46.61705 224.0
46.642876 124.0
46.712231 32.0
46.743523 132.0
46.788681 204.0
46.832512 100.0
46.849731 176.0
46.879097 104.0
46.896061 76.0
46.938328 180.0
46.962875 132.0
46.984703 160.0
46.994255 188.0
47.052944 56.0
47.08572 120.0
47.104843 184.0
47.185478 156.0
47.214195 84.0
47.25782 184.0
47.290817 200.0
47.325043 156.0
47.363388 132.0
47.38805 112.0
47.437389 168.0
47.474411 92.0
47.496357 140.0
47.521053 176.0
47.555725 180.0
47.577526 244.0
47.593803 128.0
47.611656 152.0
47.66111 120.0
47.70097 164.0
47.722965 136.0
47.755974 124.0
47.787617 120.0
47.812016 148.0
47.851177 156.0
47.8647 164.0
47.893623 168.0
47.90546 196.0
47.962322 248.0
47.975742 144.0
48.019257 192.0
48.035488 180.0
48.048027 84.0
48.065964 104.0
48.118416 176.0
48.146034 88.0
48.177807 76.0
48.24276 220.0
48.295326 200.0
48.322979 208.0
48.37228 212.0
48.43235 156.0
48.483616 168.0
48.601158 216.0
48.65979 132.0
48.682278 296.0
48.707008 32.0
48.734795 80.0
48.755642 220.0
48.769539 200.0
48.812641 156.0
48.908958 192.0
48.962265 156.0
48.985229 228.0
48.996376 164.0
49.052124 368.0
49.086525 172.0
49.098137 172.0
49.131573 128.0
49.169292 156.0
49.233425 188.0
49.248878 64.0
49.292191 152.0
49.399853 220.0
49.433434 80.0
49.44883 280.0
49.45863 160.0
49.517849 136.0
49.551769 324.0
49.609924 180.0
49.651989 216.0
49.673031 116.0
49.68285 224.0
49.713722 180.0
49.740391 184.0
49.837299 204.0
49.856972 160.0
49.910393 156.0
49.980164 192.0
50.045479 52.0
50.075642 228.0
50.096184 256.0
50.155369 104.0
50.177231 148.0
50.194847 192.0
50.220234 140.0
50.248447 80.0
50.262558 80.0
50.290787 256.0
50.314785 172.0
50.335964 156.0
50.346737 148.0
50.380287 184.0
50.408012 180.0
50.417286 176.0
50.434864 132.0
50.478695 200.0
50.522545 168.0
50.5798 180.0
50.598972 168.0
50.620209 284.0
50.649246 176.0
50.693878 200.0
50.716724 324.0
50.750118 196.0
50.777527 176.0
50.803059 164.0
50.819981 108.0
50.889637 144.0
50.902416 168.0
50.93082 176.0
50.967762 52.0
50.983536 160.0
51.037415 236.0
51.057323 200.0
51.075813 196.0
51.090042 144.0
51.145542 228.0
51.176865 236.0
51.209618 208.0
51.233837 116.0
51.269459 196.0
51.289284 216.0
51.312225 200.0
51.339317 188.0
51.395519 352.0
51.410652 228.0
51.453671 176.0
51.474892 124.0
51.517742 132.0
51.53632 152.0
51.546322 196.0
51.556324 204.0
51.610649 232.0
51.630814 196.0
51.654987 224.0
51.666431 132.0
51.679306 168.0
51.787979 172.0
51.792778 156.0
51.795654 212.0
51.825359 160.0
51.846561 136.0
51.880562 164.0
51.907181 156.0
51.944935 160.0
51.957272 208.0
51.978153 212.0
52.054554 88.0
52.10659 156.0
52.128143 176.0
52.154015 172.0
52.189957 180.0
52.241737 132.0
52.283466 196.0
52.305058 100.0
52.329533 220.0
52.365536 148.0
52.400108 104.0
52.423164 220.0
52.454872 172.0
52.502457 104.0
52.521206 184.0
52.544289 208.0
52.575535 120.0
52.633781 168.0
52.703808 132.0
52.717571 152.0
52.743587 200.0
52.797085 156.0
52.815697 180.0
52.875214 80.0
52.985268 88.0
53.001205 152.0
53.020298 116.0
53.042938 136.0
53.051407 296.0
53.076584 204.0
53.089638 244.0
53.188301 136.0
53.20282 184.0
53.215885 224.0
53.231861 228.0
53.259457 168.0
53.323387 172.0
53.342285 152.0
53.372818 212.0
53.391724 188.0
53.414997 140.0
53.426636 204.0
53.458645 96.0
53.474655 352.0
53.511051 120.0
53.524155 116.0
53.537262 252.0
53.564938 204.0
53.603565 188.0
53.617393 116.0
53.643631 180.0
53.669876 52.0
53.715088 172.0
53.753021 156.0
53.771996 104.0
53.79681 136.0
53.866909 152.0
53.884441 136.0
53.894669 136.0
53.986084 180.0
54.016018 60.0
54.035038 160.0
54.065769 108.0
54.083332 124.0
54.111179 176.0
54.13604 160.0
54.147758 140.0
54.20929 196.0
54.237923 292.0
54.285351 204.0
54.304588 76.0
54.333607 256.0
54.339153 200.0
54.364746 76.0
54.3941 108.0
54.426399 192.0
54.447254 180.0
54.485783 112.0
54.505177 204.0
54.571571 220.0
54.645416 188.0
54.70723 196.0
54.720764 352.0
54.736679 120.0
54.763187 172.0
54.773499 128.0
54.783813 148.0
54.832439 148.0
54.870667 176.0
54.944305 220.0
55.024212 180.0
55.055222 212.0
55.112835 148.0
55.127613 152.0
55.15274 148.0
55.197094 96.0
55.241196 176.0
55.25922 48.0
55.272537 172.0
55.307419 116.0
55.32996 136.0
55.490501 188.0
55.503624 180.0
55.515488 212.0
55.565926 148.0
55.603024 160.0
55.635681 76.0
55.671318 124.0
55.719215 180.0
55.725784 192.0
55.778297 204.0
55.796684 228.0
55.809521 140.0
55.833313 104.0
55.870502 116.0
55.898586 160.0
55.939812 140.0
55.959805 136.0
55.997032 136.0
56.07695 176.0
56.131165 188.0
56.155025 96.0
56.253513 416.0
56.313244 172.0
56.343121 120.0
56.356567 236.0
56.395424 272.0
56.413361 196.0
56.456726 196.0
56.486641 92.0
56.544441 216.0
56.601887 148.0
56.613869 164.0
56.658806 56.0
56.676785 240.0
56.695259 232.0
56.751736 140.0
56.778858 184.0
56.824543 244.0
56.838737 168.0
56.850742 140.0
56.910789 112.0
56.936169 200.0
56.963356 196.0
56.972679 168.0
56.982887 184.0
56.999413 176.0
57.014442 140.0
57.049141 168.0
57.080589 148.0
57.107529 180.0
57.149788 288.0
57.208485 188.0
57.228943 252.0
57.288303 192.0
57.298916 176.0
57.351593 136.0
57.404366 132.0
57.423969 60.0
57.448105 156.0
57.460175 32.0
57.514503 152.0
57.531113 228.0
57.56052 136.0
57.590004 108.0
57.602089 164.0
57.618279 324.0
57.6241 232.0
57.64893 244.0
57.686646 172.0
57.762875 200.0
57.785023 188.0
57.83345 328.0
57.844048 120.0
57.866756 200.0
57.882069 108.0
57.895527 100.0
57.915218 148.0
57.927338 76.0
57.937943 104.0
57.956123 140.0
57.984177 196.0
58.015236 192.0
58.025848 252.0
58.041012 152.0
58.057693 104.0
58.092541 156.0
58.111259 244.0
58.154373 172.0
58.204956 104.0
58.210018 236.0
58.247177 148.0
58.298676 208.0
58.390305 176.0
58.41983 488.0
58.440506 108.0
58.519657 168.0
58.568394 180.0
58.585148 164.0
58.595814 124.0
58.636013 144.0
58.681168 104.0
58.699467 112.0
58.718857 28.0
58.74675 68.0
58.82 152.0
58.842899 148.0
58.911732 176.0
59.01709 176.0
59.053791 124.0
59.124172 172.0
59.147133 40.0
59.182346 156.0
59.23595 148.0
59.275787 180.0
59.306442 124.0
59.320236 196.0
59.340168 176.0
59.376972 92.0
59.399979 72.0
59.426003 208.0
59.441616 176.0
59.473637 124.0
59.495735 344.0
59.513554 124.0
59.539661 196.0
59.553482 112.0
59.564236 216.0
59.578064 172.0
59.610329 216.0
59.633385 140.0
59.647217 112.0
59.668739 232.0
59.684353 208.0
59.701664 156.0
59.746521 168.0
59.804478 172.0
59.844147 184.0
59.882221 188.0
59.90852 176.0
59.993595 40.0
60.016724 428.0
60.039856 176.0
60.07996 164.0
60.108379 168.0
60.11689 120.0
60.118923 160.0
60.132427 132.0
60.161758 216.0
60.204994 140.0
60.251335 116.0
60.26833 112.0
60.291512 244.0
60.304745 252.0
60.320881 124.0
60.354198 232.0
60.424778 176.0
60.464733 164.0
60.501884 144.0
60.514271 144.0
60.537498 144.0
60.552044 184.0
60.558064 72.0
60.563282 204.0
60.583965 112.0
60.613407 160.0
60.62421 140.0
60.64595 184.0
60.69091 248.0
60.709522 120.0
60.731236 260.0
60.77792 88.0
60.787384 168.0
60.81813 124.0
60.850731 136.0
60.866257 140.0
60.890022 132.0
60.907276 224.0
60.935493 204.0
60.961021 132.0
61.044022 204.0
61.073853 160.0
61.125862 132.0
61.141426 104.0
61.161659 148.0
61.207737 224.0
61.23484 160.0
61.253536 204.0
61.268913 156.0
61.305473 180.0
61.343918 120.0
61.355515 180.0
61.404324 296.0
61.454021 148.0
61.499912 176.0
61.518604 152.0
61.587685 208.0
61.704563 184.0
61.742092 164.0
61.754604 168.0
61.792488 148.0
61.837532 208.0
61.908508 216.0
61.946304 164.0
61.984974 120.0
62.058968 208.0
62.088219 44.0
62.102337 188.0
62.147831 124.0
62.188637 132.0
62.317413 148.0
62.454185 72.0
62.491943 168.0
62.523418 176.0
62.553936 144.0
62.578514 152.0
62.605049 188.0
62.62891 96.0
62.654114 136.0
62.679733 212.0
62.706841 188.0
62.755577 128.0
62.819653 192.0
62.879612 92.0
62.933289 168.0
62.975929 124.0
62.993305 120.0
63.073898 316.0
63.103119 116.0
63.118168 152.0
63.148216 168.0
63.211498 52.0
63.306484 148.0
63.352188 136.0
63.368263 184.0
63.385693 108.0
63.409187 160.0
63.428677 148.0
63.52998 452.0
63.544258 168.0
63.566475 60.0
63.584782 172.0
63.637905 136.0
63.660137 136.0
63.688728 256.0
63.730034 112.0
63.744335 148.0
63.761589 224.0
63.834827 260.0
63.877892 176.0
63.911304 136.0
63.941719 144.0
63.965416 112.0
63.978153 152.0
64.002037 128.0
64.057785 172.0
64.080086 112.0
64.102394 144.0
64.119926 64.0
64.258659 188.0
64.273026 176.0
64.287384 160.0
64.303345 148.0
64.367203 152.0
64.407135 116.0
64.472641 120.0
64.53019 208.0
64.555779 184.0
64.617851 184.0
64.634163 148.0
64.65657 100.0
64.712593 76.0
64.727211 192.0
64.768646 108.0
64.834343 184.0
64.859184 128.0
64.89045 76.0
64.908089 128.0
64.922859 176.0
64.933746 128.0
64.952995 232.0
64.974342 196.0
64.998062 180.0
65.037407 152.0
65.062119 216.0
65.123146 148.0
65.14563 208.0
65.203484 148.0
65.22052 140.0
65.245171 188.0
65.255333 236.0
65.340164 92.0
65.373108 204.0
65.406151 128.0
65.431908 140.0
65.444786 128.0
65.464111 144.0
65.480217 136.0
65.514046 76.0
65.531769 136.0
65.551102 132.0
65.578506 112.0
65.606445 156.0
65.610992 104.0
65.624046 112.0
65.638153 204.0
65.698975 204.0
65.755928 236.0
65.767647 212.0
65.778526 208.0
65.826965 196.0
65.859261 56.0
65.873802 136.0
65.888008 172.0
65.901268 136.0
65.946518 192.0
65.957832 132.0
65.973999 144.0
66.022507 140.0
66.043533 248.0
66.129295 52.0
66.158432 136.0
66.184128 304.0
66.210251 260.0
66.232925 148.0
66.274963 160.0
66.317184 124.0
66.344742 92.0
66.357712 168.0
66.381355 172.0
66.425827 212.0
66.446922 60.0
66.49398 280.0
66.555672 132.0
66.568665 344.0
66.620636 56.0
66.642029 120.0
66.668068 488.0
66.72229 168.0
66.788078 140.0
66.827301 148.0
66.876472 248.0
66.923157 152.0
66.941071 212.0
66.996452 148.0
67.03067 124.0
67.042076 168.0
67.077934 160.0
67.10891 64.0
67.128479 220.0
67.144791 164.0
67.160294 268.0
67.216568 92.0
67.239418 120.0
67.260826 168.0
67.272743 192.0
67.292397 124.0
67.314514 120.0
67.345551 144.0
67.363518 120.0
67.376587 140.0
67.389656 132.0
67.409264 68.0
67.421806 232.0
67.481186 200.0
67.534187 196.0
67.571144 92.0
67.644791 140.0
67.656258 116.0
67.680817 168.0
67.708656 44.0
67.752884 108.0
67.788933 192.0
67.811874 284.0
67.859413 160.0
67.890572 160.0
67.918457 164.0
67.951523 236.0
67.992294 184.0
68.033333 160.0
68.051392 192.0
68.076019 144.0
68.117645 128.0
68.14994 164.0
68.176231 96.0
68.2239 148.0
68.271591 140.0
68.306129 188.0
68.339035 204.0
68.477318 124.0
68.500381 132.0
68.548164 188.0
68.572884 148.0
68.595863 316.0
68.616081 216.0
68.628937 132.0
68.6884 148.0
68.744408 80.0
68.762558 200.0
68.863495 124.0
68.889709 148.0
68.927711 140.0
68.94593 148.0
69.069901 224.0
69.103874 104.0
69.138046 172.0
69.162567 140.0
69.175568 192.0
69.224876 136.0
69.243698 204.0
69.273407 180.0
69.312263 140.0
69.334824 164.0
69.348083 200.0
69.372948 136.0
69.384552 128.0
69.499001 152.0
69.590294 164.0
69.608559 112.0
69.681641 172.0
69.719864 48.0
69.748123 180.0
69.797997 252.0
69.857872 108.0
69.892815 132.0
69.911118 100.0
70.039322 160.0
70.060982 172.0
70.09597 216.0
70.132637 128.0
70.145973 176.0
70.169312 212.0
70.179962 192.0
70.244164 200.0
70.264381 196.0
70.339485 180.0
70.402931 168.0
70.419632 56.0
70.448029 148.0
70.474762 236.0
70.503174 228.0
70.646973 76.0
70.662033 184.0
70.673035 208.0
70.685455 156.0
70.756599 80.0
70.76857 308.0
70.807671 100.0
70.826096 32.0
70.837822 144.0
70.852654 360.0
70.873726 168.0
70.889244 156.0
70.904846 220.0
70.941727 92.0
70.966873 168.0
70.979851 184.0
70.996941 172.0
71.030602 148.0
71.047379 172.0
71.062958 168.0
71.077583 196.0
71.112862 168.0
71.175171 88.0
71.206848 176.0
71.242126 132.0
71.268639 180.0
71.317749 124.0
71.342964 80.0
71.402481 192.0
71.421997 160.0
71.507812 124.0
71.532539 192.0
71.575157 172.0
71.608841 468.0
71.640144 192.0
71.690613 172.0
71.708244 188.0
71.71936 176.0
71.787483 144.0
71.842514 148.0
71.86171 140.0
71.906281 204.0
71.91909 208.0
71.942719 236.0
71.991692 216.0
72.043716 100.0
72.116714 132.0
72.133621 176.0
72.21817 224.0
72.243546 168.0
72.275688 120.0
72.328758 172.0
72.399269 152.0
72.414513 172.0
72.449112 168.0
72.492447 168.0
72.522957 156.0
72.538208 208.0
72.550079 228.0
72.56617 220.0
72.613411 172.0
72.648438 140.0
72.663712 112.0
72.682373 168.0
72.728195 128.0
72.740082 132.0
72.814796 228.0
72.859306 176.0
72.890953 140.0
72.933456 196.0
72.981339 56.0
73.04937 112.0
73.093353 136.0
73.14296 176.0
73.154877 272.0
73.17112 168.0
73.187531 112.0
73.284317 68.0
73.296242 132.0
73.321808 56.0
73.345673 132.0
73.371246 188.0
73.436264 156.0
73.516235 172.0
73.574265 148.0
73.610153 168.0
73.675385 212.0
73.728004 180.0
73.762192 172.0
73.779282 100.0
73.822029 140.0
73.85453 100.0
73.875053 224.0
73.892166 188.0
73.917831 188.0
73.953003 148.0
73.972527 228.0
73.994858 164.0
74.040092 232.0
74.10276 200.0
74.118187 356.0
74.18071 172.0
74.201469 208.0
74.335968 192.0
74.380592 84.0
74.468163 200.0
74.493935 120.0
74.530014 100.0
74.629707 220.0
74.655502 156.0
74.670341 140.0
74.689903 216.0
74.755287 240.0
74.80616 224.0
74.870628 140.0
74.889572 176.0
75.013641 88.0
75.09124 184.0
75.106766 200.0
75.237915 140.0
75.262093 112.0
75.279152 184.0
75.315369 160.0
75.334633 200.0
75.374374 196.0
75.393379 92.0
75.408936 136.0
75.434868 152.0
75.574959 176.0
75.611298 184.0
75.668427 220.0
75.680542 108.0
75.697861 212.0
75.742889 156.0
75.774918 212.0
75.813934 92.0
75.852066 140.0
75.871132 164.0
75.895409 144.0
75.931824 88.0
75.971725 160.0
76.012985 184.0
76.019775 144.0
76.095711 200.0
76.197426 112.0
76.379967 112.0
76.409958 116.0
76.461746 204.0
76.47567 108.0
76.60453 180.0
76.651573 152.0
76.684357 256.0
76.703239 180.0
76.730011 92.0
76.766624 116.0
76.780579 180.0
76.8713 192.0
76.891541 120.0
76.921616 208.0
76.940399 212.0
76.97953 136.0
77.00573 128.0
77.023193 248.0
77.127312 100.0
77.148865 224.0
77.176994 144.0
77.227715 244.0
77.309944 140.0
77.34845 144.0
77.385216 176.0
77.406227 152.0
77.423737 160.0
77.48922 196.0
77.513084 132.0
77.527817 140.0
77.548134 92.0
77.574432 176.0
77.5867 132.0
77.61071 156.0
77.667374 160.0
77.732285 164.0
77.758194 184.0
77.87204 200.0
77.893814 128.0
77.920174 112.0
77.932472 208.0
77.95356 208.0
77.965858 160.0
78.023865 156.0
78.064308 228.0
78.094635 196.0
78.113556 80.0
78.157539 236.0
78.2033 128.0
78.215622 176.0
78.249069 204.0
78.266678 116.0
78.310707 160.0
78.350204 200.0
78.38382 96.0
78.472839 228.0
78.534561 148.0
78.555725 160.0
78.580429 100.0
78.606895 48.0
78.72422 244.0
78.778168 212.0
78.864471 176.0
78.889503 160.0
78.937119 296.0
78.999146 112.0
79.069923 188.0
79.183243 132.0
79.241531 124.0
79.243797 152.0
79.294861 132.0
79.307266 200.0
79.335632 144.0
79.348045 152.0
79.365776 220.0
79.422523 152.0
79.442039 156.0
79.477524 160.0
79.514793 172.0
79.534317 192.0
79.562721 96.0
79.587578 144.0
79.655067 212.0
79.713699 164.0
79.755516 224.0
79.781242 168.0
79.827477 48.0
79.901978 172.0
79.975693 152.0
80.007187 176.0
80.020889 144.0
80.025566 100.0
80.032883 176.0
80.094452 208.0
80.119545 188.0
80.178192 196.0
80.203445 144.0
80.242371 108.0
80.26857 132.0
80.294083 152.0
80.31192 132.0
80.333321 232.0
80.36187 228.0
80.399506 220.0
80.470749 116.0
80.510719 136.0
80.530273 252.0
80.601143 240.0
80.617226 404.0
80.662979 160.0
80.676872 152.0
80.751312 132.0
80.773094 204.0
80.824661 148.0
80.872986 204.0
80.939224 176.0
80.969673 164.0
81.012665 176.0
81.026993 148.0
81.078964 136.0
81.148872 176.0
81.238548 352.0
81.310326 76.0
81.358788 108.0
81.374947 188.0
81.437805 268.0
81.459358 124.0
81.536621 176.0
81.575722 180.0
81.590851 192.0
81.617523 172.0
81.6409 136.0
81.658096 144.0
81.725739 124.0
81.754242 152.0
81.82444 148.0
81.887474 104.0
81.937912 164.0
81.958832 320.0
81.972145 200.0
82.002785 76.0
82.044243 120.0
82.058121 136.0
82.091125 132.0
82.110962 88.0
82.132607 180.0
82.162598 128.0
82.202972 56.0
82.218605 200.0
82.233658 112.0
82.300888 212.0
82.351021 148.0
82.401604 184.0
82.446175 216.0
82.47541 176.0
82.530792 196.0
82.543846 184.0
82.595039 132.0
82.622177 188.0
82.661987 224.0
82.674652 164.0
82.719902 112.0
82.761543 156.0
82.814064 184.0
82.839424 60.0
82.855728 172.0
82.881096 160.0
82.911903 136.0
82.93515 160.0
82.983452 188.0
82.997711 224.0
83.020683 92.0
83.040634 188.0
83.078728 168.0
83.196693 176.0
83.236633 80.0
83.254608 196.0
83.272629 220.0
83.338356 220.0
83.354713 180.0
83.376518 172.0
83.423782 152.0
83.512848 188.0
83.531845 196.0
83.554726 96.0
83.569283 108.0
83.644234 196.0
83.685776 132.0
83.711266 192.0
83.729477 244.0
83.775017 228.0
83.866127 136.0
83.886063 184.0
83.893326 148.0
83.929138 188.0
83.997421 152.0
84.028435 152.0
84.053978 200.0
84.070404 180.0
84.128487 156.0
84.166359 256.0
84.253006 100.0
84.311478 164.0
84.324272 336.0
84.378204 196.0
84.458099 236.0
84.496162 92.0
84.517342 244.0
84.558151 160.0
84.598656 144.0
84.613304 92.0
84.745285 336.0
84.761269 92.0
84.814819 156.0
84.845985 188.0
84.884491 216.0
84.924835 136.0
84.959686 204.0
85.020241 96.0
85.067314 192.0
85.130394 240.0
85.212296 152.0
85.238777 128.0
85.251648 44.0
85.422081 196.0
85.453918 148.0
85.477837 176.0
85.509125 68.0
85.584602 156.0
85.759346 160.0
85.840744 152.0
85.881317 116.0
85.960838 200.0
86.002487 264.0
86.025047 176.0
86.049255 60.0
86.091728 128.0
86.104652 156.0
86.161484 136.0
86.177162 196.0
86.195175 192.0
86.261719 108.0
86.302391 200.0
86.336082 164.0
86.405602 200.0
86.456734 168.0
86.470734 108.0
86.53923 176.0
86.60405 184.0
86.667038 156.0
86.720779 56.0
86.765221 136.0
86.845016 36.0
86.882118 156.0
86.898811 156.0
86.962296 172.0
86.999039 128.0
87.036171 84.0
87.149475 196.0
87.173637 168.0
87.246124 196.0
87.281456 184.0
87.317009 136.0
87.347534 128.0
87.361427 104.0
87.393059 76.0
87.408096 152.0
87.445168 116.0
87.522583 192.0
87.529472 112.0
87.549431 188.0
87.590408 176.0
87.609032 492.0
87.648163 172.0
87.698479 132.0
87.717125 236.0
87.779594 240.0
87.844681 220.0
87.858856 144.0
87.87751 92.0
87.929764 172.0
87.974564 160.0
88.015923 132.0
88.030388 192.0
88.058594 132.0
88.075401 156.0
88.100365 148.0
88.123978 52.0
88.254822 64.0
88.3032 156.0
88.361275 236.0
88.425056 168.0
88.453133 148.0
88.516792 228.0
88.534645 196.0
88.608574 128.0
88.658234 160.0
88.68998 164.0
88.724777 204.0
88.756653 168.0
88.778984 176.0
88.874825 232.0
88.922539 132.0
88.972427 152.0
89.016335 188.0
89.045662 132.0
89.128319 200.0
89.160271 248.0
89.175308 176.0
89.193016 340.0
89.220657 96.0
89.271919 188.0
89.301285 176.0
89.338905 204.0
89.355835 252.0
89.376534 164.0
89.431725 196.0
89.454208 192.0
89.497002 60.0
89.547852 100.0
89.634514 128.0
89.655243 132.0
89.729546 172.0
89.770241 228.0
89.794975 140.0
89.821167 40.0
89.842049 176.0
89.908653 228.0
89.923058 124.0
90.005508 196.0
90.025009 148.0
90.038231 192.0
90.10804 184.0
90.134575 160.0
90.151588 160.0
90.172379 160.0
90.203506 248.0
90.291489 212.0
90.391754 172.0
90.414467 76.0
90.455933 256.0
90.476929 76.0
90.490189 188.0
90.504257 188.0
90.535629 52.0
90.61898 72.0
90.67289 196.0
90.711845 176.0
90.732422 216.0
90.749763 132.0
90.79528 152.0
90.871155 160.0
90.909111 148.0
90.940468 184.0
90.983131 124.0
90.998322 104.0
91.042 176.0
91.081886 136.0
91.12394 176.0
91.209198 120.0
91.237717 184.0
91.256729 144.0
91.285255 152.0
91.321388 196.0
91.401672 144.0
91.481232 140.0
91.524445 212.0
91.659622 168.0
91.693176 60.0
91.724152 128.0
91.740318 148.0
91.755577 76.0
91.768921 88.0
91.797523 168.0
91.821526 348.0
91.850929 268.0
91.873817 132.0
91.906258 124.0
91.980797 208.0
91.997871 116.0
92.02269 152.0
92.167854 180.0
92.183144 148.0
92.233826 184.0
92.299751 164.0
92.318878 216.0
92.351387 192.0
92.43174 192.0
92.466194 120.0
92.479591 104.0
92.529366 160.0
92.552338 192.0
92.586807 148.0
92.640442 160.0
92.689339 192.0
92.800957 208.0
92.868553 84.0
92.897331 188.0
92.909935 160.0
92.952972 132.0
92.99102 208.0
93.016312 120.0
93.034935 324.0
93.070068 112.0
93.181473 136.0
93.296783 180.0
93.327553 164.0
93.353714 224.0
93.389091 136.0
93.416183 144.0
93.44722 224.0
93.498764 176.0
93.523781 156.0
93.539185 160.0
93.558434 184.0
93.587311 396.0
93.608498 120.0
93.624878 172.0
93.658569 96.0
93.672058 56.0
93.695175 156.0
93.726006 100.0
93.76078 88.0
93.805023 208.0
93.841873 140.0
93.85379 136.0
93.895653 280.0
93.988251 92.0
94.040359 176.0
94.080894 92.0
94.127235 132.0
94.237335 152.0
94.283714 120.0
94.324066 140.0
94.368774 216.0
94.395844 192.0
94.451935 140.0
94.479012 192.0
94.517715 108.0
94.55835 156.0
94.583519 144.0
94.608681 184.0
94.622238 140.0
94.657921 208.0
94.674393 284.0
94.6847 156.0
94.711319 184.0
94.73069 132.0
94.775253 148.0
94.794632 236.0
94.829514 228.0
94.868637 176.0
94.945847 140.0
94.967178 212.0
94.980637 196.0
95.029167 3636.0
95.070007 176.0
95.128288 148.0
95.184547 176.0
95.235039 240.0
95.361336 132.0
95.37883 44.0
95.4198 168.0
95.489662 172.0
95.528564 144.0
95.549965 184.0
95.577209 284.0
95.592247 192.0
95.639488 116.0
95.713112 176.0
95.806 124.0
95.853333 180.0
95.873207 140.0
95.96183 156.0
96.030884 592.0
96.079903 148.0
96.109596 184.0
96.176498 208.0
96.180489 192.0
96.218475 152.0
96.255569 196.0
96.273148 172.0
96.329796 176.0
96.390358 144.0
96.448997 168.0
96.513512 192.0
96.583916 176.0
96.611748 160.0
96.677834 112.0
96.714233 160.0
96.742592 200.0
96.779182 160.0
96.821533 220.0
96.840309 156.0
96.932037 164.0
96.952011 168.0
96.9944 180.0
97.04538 108.0
97.093079 172.0
97.13044 192.0
97.150055 188.0
97.193222 140.0
97.216766 172.0
97.252098 144.0
97.265839 196.0
97.314919 176.0
97.38562 212.0
97.407227 180.0
97.435684 156.0
97.470093 104.0
97.487785 52.0
97.573494 252.0
97.591049 212.0
97.660797 180.0
97.704079 192.0
97.741463 168.0
97.772072 216.0
97.810966 208.0
97.863503 128.0
97.908798 140.0
97.924553 164.0
97.944611 196.0
97.975769 92.0
98.032913 164.0
98.056564 208.0
98.094009 176.0
98.109787 164.0
98.162254 164.0
98.239944 140.0
98.32428 168.0
98.350449 48.0
98.405731 172.0
98.451149 172.0
98.486702 404.0
98.524231 168.0
98.540039 132.0
98.575607 296.0
98.597343 212.0
98.636879 172.0
98.717941 136.0
98.739693 156.0
98.802994 200.0
98.820595 188.0
98.876213 36.0
98.931633 56.0
98.953415 168.0
98.971237 96.0
98.994995 244.0
99.026863 180.0
99.139275 184.0
99.239258 212.0
99.270462 132.0
99.365669 116.0
99.382423 156.0
99.399406 104.0
99.443062 204.0
99.474823 144.0
99.500633 168.0
99.530418 84.0
99.56012 372.0
99.619797 196.0
99.66748 304.0
99.685364 208.0
99.701263 204.0
99.73748 232.0
99.752937 204.0
99.774811 56.0
99.844406 84.0
99.870262 364.0
99.943871 164.0
99.972694 188.0
99.991631 100.0
100.015518 132.0
100.068184 176.0
100.086098 204.0
100.154907 148.0
100.208199 204.0
100.29541 164.0
100.311478 140.0
100.361946 208.0
100.417366 160.0
100.479904 152.0
100.501801 120.0
100.569656 228.0
100.592354 172.0
100.613571 188.0
100.627548 136.0
100.686455 160.0
100.753372 168.0
100.775703 184.0
100.839668 176.0
100.852943 184.0
100.875 56.0
100.88311 48.0
100.907051 144.0
100.951263 140.0
100.973259 236.0
100.995262 108.0
101.075287 160.0
101.107307 176.0
101.207405 172.0
101.225426 32.0
101.24308 196.0
101.301537 152.0
101.354218 144.0
101.377678 88.0
101.44783 136.0
101.463867 188.0
101.491936 128.0
101.546089 144.0
101.586205 156.0
101.622314 308.0
101.646393 164.0
101.708611 168.0
101.733727 220.0
101.754784 164.0
101.800972 96.0
101.851181 96.0
101.897392 120.0
101.975761 268.0
102.001892 172.0
102.074272 172.0
102.088348 152.0
102.142654 196.0
102.307671 108.0
102.3302 148.0
102.351967 152.0
102.39257 200.0
102.456703 64.0
102.476852 156.0
102.561501 332.0
102.598869 320.0
102.621979 156.0
102.692558 232.0
102.73587 204.0
102.767204 148.0
102.813614 200.0
102.831779 160.0
102.87619 160.0
102.956955 112.0
102.975136 188.0
103.021812 184.0
103.049881 204.0
103.064026 72.0
103.110504 52.0
103.173752 208.0
103.235847 176.0
103.268211 100.0
103.283508 212.0
103.406044 196.0
103.454376 220.0
103.500946 168.0
103.519173 192.0
103.817078 172.0
103.863495 172.0
103.890099 84.0
103.920532 188.0
103.955025 180.0
104.011856 332.0
104.032158 140.0
104.065048 60.0
104.117439 140.0
104.14994 208.0
104.193687 156.0
104.214493 180.0
104.263718 168.0
104.282013 192.0
104.334755 144.0
104.37146 36.0
104.389763 172.0
104.428406 92.0
104.448746 172.0
104.557159 200.0
104.589149 116.0
104.623756 180.0
104.65567 196.0
104.703171 120.0
104.736061 192.0
104.786095 176.0
104.83152 184.0
104.923248 76.0
105.006859 152.0
105.068054 144.0
105.104782 120.0
105.21357 252.0
105.32119 196.0
105.388611 144.0
105.423347 168.0
105.452805 232.0
105.501816 144.0
105.554184 136.0
105.607353 176.0
105.639572 208.0
105.683052 96.0
105.697372 156.0
105.750587 148.0
105.791527 160.0
105.826332 556.0
105.84066 164.0
105.859093 204.0
105.906197 176.0
105.987617 200.0
106.048935 224.0
106.076279 188.0
106.09063 192.0
106.11113 100.0
106.139839 124.0
106.158295 192.0
106.211617 108.0
106.256752 148.0
106.285477 84.0
106.312157 136.0
106.345131 116.0
106.383995 104.0
106.414795 152.0
106.459564 204.0
106.550346 264.0
106.567924 224.0
106.626686 108.0
106.657768 192.0
106.703812 84.0
106.727112 160.0
106.80526 148.0
106.858749 176.0
106.887558 128.0
106.963234 120.0
107.01918 144.0
107.06382 168.0
107.089317 204.0
107.151115 188.0
107.227364 164.0
107.31665 140.0
107.379936 216.0
107.398499 192.0
107.512703 204.0
107.544701 220.0
107.569771 124.0
107.586288 176.0
107.614288 164.0
107.635841 168.0
107.68541 196.0
107.72052 280.0
107.757706 196.0
107.794907 140.0
107.827972 140.0
107.974518 168.0
108.020271 168.0
108.062119 176.0
108.076134 216.0
108.098892 164.0
108.138626 200.0
108.157745 156.0
108.239662 168.0
108.266434 168.0
108.308418 140.0
108.448906 152.0
108.50695 188.0
108.544762 136.0
108.61158 164.0
108.641762 188.0
108.687408 208.0
108.735138 100.0
108.782875 40.0
108.918343 256.0
108.942787 184.0
108.980713 156.0
109.045517 448.0
109.138153 228.0
109.190147 156.0
109.217186 140.0
109.246307 180.0
109.272385 232.0
109.317055 244.0
109.358673 164.0
109.417526 196.0
109.437782 152.0
109.472145 216.0
109.546089 164.0
109.598175 180.0
109.618492 128.0
109.650269 156.0
109.669029 184.0
109.74408 128.0
109.785789 176.0
109.831673 116.0
109.854141 140.0
109.881004 184.0
109.935997 192.0
110.045555 136.0
110.134338 140.0
110.159286 208.0
110.220001 48.0
110.286957 208.0
110.303596 132.0
110.322418 64.0
110.372597 176.0
110.424332 248.0
110.537849 196.0
110.587669 184.0
110.64669 168.0
110.70446 340.0
110.743027 132.0
110.772346 152.0
110.789108 224.0
110.82682 160.0
110.841492 112.0
110.937904 264.0
110.954674 124.0
110.975639 216.0
111.024467 336.0
111.036873 196.0
111.053238 148.0
111.109879 196.0
111.129631 232.0
111.190804 208.0
111.219002 240.0
111.319778 136.0
111.40834 148.0
111.441612 220.0
111.534203 140.0
111.692612 216.0
111.71241 60.0
111.750702 160.0
111.788574 148.0
111.826462 180.0
111.847504 88.0
111.901001 220.0
111.92717 208.0
111.950676 140.0
112.005104 220.0
112.060211 180.0
112.210388 192.0
112.226723 216.0
112.359894 200.0
112.396446 200.0
112.431351 144.0
112.48201 164.0
112.575073 200.0
112.623482 156.0
112.726036 168.0
112.748146 156.0
112.792526 172.0
112.822128 140.0
112.846199 228.0
112.882233 144.0
112.965935 148.0
113.039047 880.0
113.123512 172.0
113.141586 60.0
113.164879 224.0
113.243233 152.0
113.272888 168.0
113.380951 144.0
113.402145 156.0
113.419098 60.0
113.500542 232.0
113.639656 40.0
113.686539 172.0
113.718178 204.0
113.752144 132.0
113.817963 156.0
113.898666 192.0
114.047516 160.0
114.070793 160.0
114.126732 192.0
114.143082 148.0
114.166473 216.0
114.204758 208.0
114.28347 136.0
114.31752 180.0
114.334541 168.0
114.443108 184.0
114.496346 132.0
114.516151 188.0
114.545334 164.0
114.565331 104.0
114.614792 20.0
114.655884 168.0
114.692703 204.0
114.781914 224.0
114.803238 96.0
114.851418 136.0
114.869362 164.0
114.907761 176.0
114.935356 176.0
114.980316 116.0
114.997391 156.0
115.027275 44.0
115.08065 152.0
115.104134 196.0
115.160286 220.0
115.189293 156.0
115.283577 152.0
115.31778 204.0
115.334877 248.0
115.360527 136.0
115.389931 292.0
115.469582 108.0
115.528244 216.0
115.546593 332.0
115.593666 188.0
115.621941 252.0
115.657875 52.0
115.747795 112.0
115.784195 168.0
115.81633 200.0
115.835602 164.0
115.933655 168.0
115.953453 60.0
115.989891 152.0
116.0392 176.0
116.054214 56.0
116.090668 124.0
116.118546 184.0
116.135704 168.0
116.159302 168.0
116.226753 164.0
116.273026 236.0
116.385513 140.0
116.502785 72.0
116.524269 92.0
116.556496 180.0
116.616676 220.0
116.638168 356.0
116.704033 264.0
116.710297 168.0
116.726555 180.0
116.745674 188.0
116.760727 196.0
116.803749 164.0
116.827408 232.0
116.866135 60.0
116.883354 188.0
116.926392 112.0
116.943611 184.0
117.025414 244.0
117.058853 296.0
117.087868 240.0
117.116074 192.0
117.163261 172.0
117.234367 168.0
117.249451 144.0
117.275711 196.0
117.344856 408.0
117.400368 32.0
117.434875 184.0
117.455429 152.0
117.489441 216.0
117.510376 128.0
117.542747 128.0
117.594543 136.0
117.644188 140.0
117.691689 72.0
117.711121 92.0
117.765114 136.0
117.799675 268.0
117.865135 164.0
117.972855 176.0
118.026619 204.0
118.119614 208.0
118.175865 188.0
118.258102 184.0
118.288406 196.0
118.349022 204.0
118.368515 148.0
118.398834 64.0
118.43782 192.0
118.46759 188.0
118.483315 188.0
118.502815 88.0
118.54113 180.0
118.641525 128.0
118.70874 152.0
118.765129 152.0
118.791161 172.0
118.812851 132.0
118.893143 136.0
118.912674 156.0
118.940895 88.0
118.975624 132.0
118.995163 140.0
119.032082 188.0
119.064651 160.0
119.095062 116.0
119.127647 136.0
119.160233 200.0
119.186058 176.0
119.229881 160.0
119.251503 100.0
119.361252 160.0
119.447205 244.0
119.461861 152.0
119.486862 156.0
119.5103 88.0
119.538582 192.0
119.562523 184.0
119.58429 144.0
119.602821 148.0
119.723579 184.0
119.743233 208.0
119.777863 200.0
119.82383 184.0
119.843445 204.0
119.900101 92.0
119.917534 136.0
119.939331 128.0
119.968391 144.0
120.093117 164.0
120.166138 208.0
120.207596 168.0
120.33857 52.0
120.406799 180.0
120.464081 188.0
120.470406 88.0
120.47966 220.0
120.503792 124.0
120.550453 200.0
120.588951 248.0
120.635696 132.0
120.692543 168.0
120.751617 152.0
120.786591 144.0
120.834717 200.0
120.898178 152.0
120.945129 176.0
121.02076 144.0
121.044075 192.0
121.11055 128.0
121.198189 80.0
121.215714 180.0
121.279022 172.0
121.340652 72.0
121.36937 176.0
121.40863 196.0
121.494179 120.0
121.527092 332.0
121.570541 264.0
121.652191 148.0
121.680733 188.0
121.698296 320.0
121.715866 156.0
121.734062 208.0
121.781746 144.0
121.805908 44.0
121.833076 120.0
121.880608 184.0
121.904785 148.0
121.935837 152.0
121.971474 268.0
122.023483 280.0
122.045471 96.0
122.104042 216.0
122.147331 332.0
122.199013 188.0
122.232445 188.0
122.247849 116.0
122.282181 116.0
122.338089 168.0
122.384041 124.0
122.434975 180.0
122.457001 152.0
122.503258 124.0
122.523087 116.0
122.56279 216.0
122.606606 208.0
122.624954 244.0
122.650475 144.0
122.68866 312.0
122.728004 276.0
122.765556 80.0
122.788986 164.0
122.800667 288.0
122.836151 256.0
122.860458 156.0
122.898697 168.0
122.921265 144.0
122.943794 220.0
122.967171 428.0
123.025269 169676.0
123.142181 212.0
123.164352 72.0
123.16832 144.0
123.185867 168.0
123.215622 152.0
123.254639 120.0
123.280952 52.0
123.30719 112.0
123.330452 112.0
123.344887 100.0
123.364609 200.0
123.387619 2688.0
123.42141 56.0
123.454582 100.0
123.469841 40.0
123.484383 84.0
123.541245 204.0
123.560753 60.0
123.586487 136.0
123.623337 156.0
123.647057 44.0
123.672974 188.0
123.708885 176.0
123.730019 184.0
123.776344 100.0
123.811684 156.0
123.845314 76.0
123.876106 76.0
123.906334 276.0
123.933403 184.0
123.951111 172.0
123.972618 336.0
123.987946 192.0
124.027542 16656.0
124.093567 128.0
124.114494 192.0
124.138 180.0
124.167717 104.0
124.196548 124.0
124.22982 76.0
124.260887 52.0
124.296387 88.0
124.319435 124.0
124.342987 120.0
124.360748 100.0
124.384583 152.0
124.469757 40.0
124.485077 164.0
124.509506 72.0
124.527275 160.0
124.550659 200.0
124.580254 80.0
124.594788 132.0
124.651688 140.0
124.689377 100.0
124.695999 132.0
124.705231 128.0
124.711105 144.0
124.729301 52.0
124.747635 144.0
124.772751 224.0
124.815071 160.0
124.84304 176.0
124.860565 236.0
124.894028 208.0
124.911652 108.0
124.917137 164.0
124.939629 208.0
124.985863 256.0
125.029144 1400.0
125.085442 320.0
125.114014 308.0
125.158867 84.0
125.177048 100.0
125.2379 164.0
125.26577 152.0
125.324181 184.0
125.344765 176.0
125.372719 144.0
125.388321 172.0
125.419525 104.0
125.48864 144.0
125.544388 140.0
125.646996 160.0
125.667076 196.0
125.689384 44.0
125.760056 120.0
125.789818 120.0
125.812141 208.0
125.830009 92.0
125.853645 228.0
125.888062 116.0
125.909622 208.0
125.977409 40.0
126.025772 200.0
126.053375 196.0
126.082428 132.0
126.156189 124.0
126.187492 124.0
126.212082 160.0
126.397751 64.0
126.415649 180.0
126.458176 184.0
126.485031 148.0
126.576828 76.0
126.598045 160.0
126.648499 96.0
126.672195 152.0
126.742592 144.0
126.782928 140.0
126.861382 168.0
126.89949 148.0
126.927795 148.0
126.982468 144.0
127.01387 48.0
127.069954 212.0
127.092392 192.0
127.128296 160.0
127.195633 80.0
127.222572 176.0
127.238281 252.0
127.354256 212.0
127.39325 68.0
127.558609 164.0
127.602257 128.0
127.673828 164.0
127.707954 92.0
127.741692 196.0
127.76194 60.0
127.818192 176.0
127.8722 160.0
127.894714 196.0
127.973503 112.0
127.989265 168.0
128.01178 144.0
128.054581 384.0
128.117645 288.0
128.277603 160.0
128.37912 148.0
128.424225 192.0
128.460312 160.0
128.557343 88.0
128.620544 148.0
128.740204 212.0
128.83194 192.0
128.862183 48.0
128.943542 224.0
128.959351 140.0
129.056229 200.0
129.08252 160.0
129.122147 88.0
129.256241 148.0
129.547699 204.0
129.615677 160.0
129.638336 124.0
129.719925 176.0
129.774338 148.0
129.849182 172.0
129.887741 96.0
129.973953 188.0
130.001175 140.0
130.036606 248.0
130.062057 276.0
130.096512 144.0
130.192123 188.0
130.212326 112.0
130.316055 108.0
130.469101 164.0
130.626007 108.0
130.678345 144.0
130.703369 180.0
130.74205 112.0
130.828552 192.0
130.881897 152.0
130.937851 116.0
130.962173 224.0
131.068558 324.0
131.099609 116.0
131.140457 156.0
131.179382 120.0
131.244278 112.0
131.319153 116.0
131.402878 108.0
131.441666 176.0
131.48201 196.0
131.507858 84.0
131.610596 140.0
131.68367 60.0
131.708801 96.0
131.813889 140.0
131.875595 152.0
131.909012 96.0
131.928177 184.0
131.996765 136.0
132.018692 156.0
132.038239 384.0
132.078156 164.0
132.117996 156.0
132.15918 108.0
132.193497 84.0
132.219177 124.0
132.239075 228.0
132.282761 156.0
132.305664 132.0
132.334488 176.0
132.369766 56.0
132.414963 180.0
132.470551 168.0
132.611313 120.0
132.628662 128.0
132.75705 108.0
132.773117 172.0
132.789169 180.0
132.80751 176.0
132.954941 152.0
133.094391 220.0
133.113525 144.0
133.138016 156.0
133.165817 160.0
133.18396 100.0
133.268951 44.0
133.289642 260.0
133.310318 84.0
133.356293 176.0
133.3853 32.0
133.448242 124.0
133.480438 56.0
133.533325 88.0
133.579102 168.0
133.634552 56.0
133.65065 328.0
133.717392 204.0
133.751923 164.0
133.788757 160.0
133.854721 148.0
133.885468 116.0
133.918411 156.0
133.954559 88.0
133.991425 56.0
134.045212 208.0
134.134308 96.0
134.201172 72.0
134.249588 108.0
134.307251 52.0
134.388 168.0
134.44249 144.0
134.48288 172.0
134.66156 48.0
134.697357 92.0
134.713531 176.0
134.747818 176.0
134.812881 148.0
134.868362 192.0
134.91922 204.0
134.944321 140.0
135.016327 176.0
135.058044 820.0
135.178268 136.0
135.195587 168.0
135.486221 160.0
135.548782 200.0
135.604416 40.0
135.661163 132.0
135.670044 192.0
135.699448 156.0
135.757584 244.0
135.826767 196.0
135.88269 112.0
135.940689 144.0
135.95694 176.0
136.003357 156.0
136.031219 176.0
136.06604 156.0
136.142197 196.0
136.216995 172.0
136.30394 124.0
136.321548 200.0
136.484268 128.0
136.658722 116.0
136.792877 168.0
136.826309 176.0
136.940414 168.0
136.966034 76.0
136.989319 176.0
137.007965 160.0
137.052231 156.0
137.075592 156.0
137.167603 184.0
137.222076 216.0
137.259689 188.0
137.290955 176.0
137.3479 156.0
137.385635 172.0
137.534988 188.0
137.584015 120.0
137.607361 152.0
137.673462 104.0
137.719452 116.0
137.880676 148.0
137.92041 204.0
137.976517 48.0
138.085327 232.0
138.130859 156.0
138.194031 176.0
138.219772 72.0
138.311035 104.0
138.343811 184.0
138.369568 204.0
138.421082 220.0
138.474945 140.0
138.491348 128.0
138.55928 164.0
138.627228 128.0
138.744431 176.0
138.800705 64.0
138.947723 188.0
139.030594 104.0
139.267731 100.0
139.295929 140.0
139.361572 204.0
139.434555 200.0
139.493317 176.0
139.556793 100.0
139.662628 116.0
139.679092 204.0
139.754379 200.0
139.774536 212.0
139.807388 172.0
139.846161 56.0
139.916779 92.0
139.949738 172.0
139.980362 232.0
140.043091 220.0
140.069855 152.0
140.199448 180.0
140.276154 184.0
140.386841 148.0
140.498657 148.0
140.586212 160.0
140.640503 124.0
140.680634 164.0
140.723129 180.0
141.018417 116.0
141.034958 176.0
141.112976 148.0
141.143723 156.0
141.271439 184.0
141.304565 108.0
141.377914 188.0
141.484436 96.0
141.523361 216.0
141.577957 220.0
141.68811 116.0
141.75209 172.0
141.80423 164.0
141.862946 212.0
141.884827 232.0
142.008133 60.0
142.02948 184.0
142.061279 332.0
142.099686 124.0
142.167099 144.0
142.366516 140.0
142.421143 172.0
142.547058 156.0
142.710373 188.0
142.775284 132.0
142.862869 180.0
142.910873 128.0
142.939423 168.0
143.015594 172.0
143.062271 196.0
143.071686 120.0
143.11319 56.0
143.129868 196.0
143.163208 152.0
143.189941 192.0
143.349014 208.0
143.391922 220.0
143.520645 144.0
143.539719 116.0
143.565964 152.0
143.783066 184.0
143.802338 212.0
143.888092 200.0
143.908752 172.0
143.946503 172.0
144.031387 180.0
144.079254 708.0
144.146057 116.0
144.181915 168.0
144.350677 216.0
144.543015 136.0
144.569336 136.0
144.591888 152.0
144.617203 140.0
144.641144 160.0
144.665085 68.0
144.784805 236.0
144.82074 168.0
144.909378 172.0
144.966873 180.0
145.012421 200.0
145.045425 168.0
145.087387 948.0
145.163452 40.0
145.31163 212.0
145.355362 184.0
145.38176 216.0
145.44455 228.0
145.53299 100.0
145.561813 136.0
145.624252 188.0
145.657883 52.0
145.799637 188.0
145.912628 124.0
145.965515 40.0
146.053925 424.0
146.080963 132.0
146.150742 96.0
146.193253 168.0
146.232559 164.0
146.370132 196.0
146.458893 60.0
146.475754 372.0
146.567307 64.0
146.644424 132.0
146.661301 64.0
146.79631 136.0
146.863846 92.0
146.913055 160.0
147.060043 1152.0
147.165512 140.0
147.288467 220.0
147.385315 160.0
147.402237 36.0
147.457825 196.0
147.556931 204.0
147.592804 148.0
147.702026 32.0
147.781876 120.0
147.874817 108.0
147.949295 92.0
148.057892 156.0
148.125656 188.0
148.169266 196.0
148.217728 108.0
148.380112 120.0
148.414062 184.0
148.450439 248.0
148.469833 196.0
148.511063 172.0
148.549881 116.0
148.637222 152.0
148.668777 84.0
148.695465 104.0
148.732239 164.0
148.828995 132.0
148.986862 168.0
149.03302 128.0
149.074707 172.0
149.121185 260.0
149.154541 124.0
149.31604 224.0
149.429214 140.0
149.45369 156.0
149.488251 96.0
149.60701 132.0
149.667892 136.0
149.721466 204.0
149.85173 164.0
149.876602 160.0
149.987045 172.0
150.069931 108.0
150.101624 240.0
150.152786 196.0
150.194305 140.0
150.21138 140.0
150.289459 144.0
150.499374 232.0
150.584854 60.0
150.609268 220.0
150.648361 160.0
150.692337 60.0
150.770523 44.0
150.847107 156.0
150.921158 188.0
151.019913 140.0
151.078629 136.0
151.298889 180.0
151.342957 152.0
151.431046 148.0
151.502151 244.0
151.63002 44.0
151.654083 176.0
151.807816 148.0
151.891937 88.0
151.955719 152.0
152.026886 132.0
152.10556 144.0
152.147156 184.0
152.193817 80.0
152.328888 160.0
152.473862 196.0
152.552246 180.0
152.697601 144.0
152.885574 148.0
152.906723 200.0
153.005188 208.0
153.157867 188.0
153.202209 180.0
153.387039 180.0
153.416626 128.0
153.544846 144.0
153.606506 204.0
153.696625 212.0
153.784164 96.0
153.807541 120.0
153.870575 100.0
153.92038 188.0
153.958191 108.0
153.998718 184.0
154.095322 64.0
154.112625 240.0
154.295532 196.0
154.325195 180.0
154.456268 192.0
154.490906 180.0
154.83313 140.0
154.902832 152.0
155.013336 168.0
155.035645 160.0
155.051376 136.0
155.078491 112.0
155.12735 204.0
155.227768 128.0
155.261734 208.0
155.295578 176.0
155.400162 128.0
155.433716 292.0
155.727859 204.0
155.792435 200.0
155.837158 220.0
155.87941 176.0
155.951584 272.0
156.060867 152.0
156.132858 156.0
156.162567 156.0
156.175522 156.0
156.407745 176.0
156.558548 180.0
156.575989 236.0
156.623306 200.0
156.673126 208.0
156.750366 152.0
156.770309 136.0
156.795227 140.0
156.838364 172.0
156.889954 216.0
156.909897 160.0
156.947296 172.0
157.042068 136.0
157.074493 100.0
157.113953 196.0
157.176788 184.0
157.19426 232.0
157.25914 60.0
157.286606 112.0
157.311569 136.0
157.415771 168.0
157.473877 152.0
157.523682 68.0
157.530853 64.0
157.539978 120.0
157.616043 216.0
157.658752 180.0
157.716232 172.0
157.757507 228.0
157.907043 180.0
157.933777 264.0
158.00383 48.0
158.046387 516.0
158.083893 196.0
158.121429 196.0
158.163986 148.0
158.184021 132.0
158.294174 156.0
158.386841 128.0
158.484558 32.0
158.601105 208.0
158.670029 228.0
158.756424 336.0
158.878189 172.0
158.918335 172.0
158.953461 176.0
158.973541 144.0
159.052902 352.0
159.092941 192.0
159.257248 204.0
159.30246 152.0
159.339325 148.0
159.445694 156.0
159.498886 144.0
159.561325 160.0
159.588974 144.0
159.619156 96.0
159.682022 264.0
159.811432 336.0
159.850586 80.0
159.898392 176.0
160.05217 144.0
160.093384 196.0
160.193008 188.0
160.225754 44.0
160.326553 208.0
160.354279 164.0
160.379471 188.0
160.417282 136.0
160.49649 140.0
160.530746 208.0
160.586243 188.0
160.644257 132.0
160.698029 204.0
160.760315 228.0
160.836029 144.0
160.868851 216.0
160.88652 192.0
160.985001 64.0
161.066132 172.0
161.144135 100.0
161.189621 132.0
161.21489 188.0
161.275543 120.0
161.353912 160.0
161.41713 176.0
161.459106 200.0
161.48288 160.0
161.604309 136.0
161.728317 180.0
161.756165 132.0
161.827042 64.0
161.89035 128.0
162.022064 364.0
162.048996 224.0
162.100616 216.0
162.143707 148.0
162.207062 160.0
162.257767 132.0
162.278061 212.0
162.303406 164.0
162.496185 180.0
162.52916 84.0
162.635757 148.0
162.729691 156.0
162.788086 36.0
163.014191 180.0
163.049759 164.0
163.143814 112.0
163.222626 148.0
163.263382 152.0
163.298477 252.0
163.360626 152.0
163.380325 148.0
163.466843 48.0
163.590668 92.0
163.63739 188.0
163.666687 180.0
163.702698 172.0
163.756775 152.0
163.805466 84.0
163.830948 180.0
163.883087 152.0
163.909592 212.0
163.943802 204.0
164.041397 172.0
164.089233 256.0
164.118958 132.0
164.172501 176.0
164.215866 196.0
164.269424 192.0
164.300034 132.0
164.322998 160.0
164.353561 168.0
164.389343 324.0
164.437836 172.0
164.454269 164.0
164.482819 192.0
164.516403 164.0
164.543625 188.0
164.573135 228.0
164.595078 88.0
164.653793 340.0
164.663452 120.0
164.673233 144.0
164.72023 324.0
164.758224 128.0
164.7659 168.0
164.797562 148.0
164.804016 204.0
164.814301 148.0
164.824387 192.0
164.839096 280.0
164.862747 344.0
164.891739 256.0
164.911453 184.0
164.937744 100.0
164.956177 296.0
164.98735 464.0
165.072235 327192.0
165.133896 120.0
165.143356 212.0
165.152893 220.0
165.161743 124.0
165.210297 272.0
165.237854 280.0
165.261337 292.0
165.307434 476.0
165.353333 316.0
165.376938 208.0
165.416046 388.0
165.45961 120.0
165.49231 3272.0
165.544357 188.0
165.583588 164.0
165.622391 152.0
165.653152 208.0
165.68541 124.0
165.691223 84.0
165.714767 160.0
165.73143 272.0
165.750473 172.0
165.796082 228.0
165.831863 188.0
165.864044 124.0
165.890015 56.0
165.921509 84.0
165.946457 68.0
165.956497 100.0
165.96492 176.0
165.999649 112.0
166.074722 44512.0
166.139679 148.0
166.164291 208.0
166.24292 132.0
166.258972 72.0
166.264328 56.0
166.30217 256.0
166.323303 124.0
166.353088 124.0
166.372925 96.0
166.402527 92.0
166.423248 124.0
166.465485 68.0
166.48584 92.0
166.544098 72.0
166.578491 80.0
166.597458 84.0
166.65419 104.0
166.717239 104.0
166.754257 108.0
166.786377 76.0
166.807205 60.0
166.834656 112.0
166.854462 164.0
166.878372 44.0
166.898529 92.0
166.925339 88.0
166.968964 168.0
167.026657 136.0
167.044846 292.0
167.076202 3040.0
167.135666 200.0
167.160583 212.0
167.186966 208.0
167.219025 168.0
167.256454 152.0
167.275543 136.0
167.307495 152.0
167.346542 176.0
167.378937 92.0
167.418289 112.0
167.440125 300.0
167.474487 112.0
167.509735 172.0
167.556107 68.0
167.575348 136.0
167.592575 108.0
167.648865 44.0
167.684082 108.0
167.713303 188.0
167.76889 192.0
167.813843 36.0
167.855103 152.0
167.92215 108.0
167.963425 72.0
167.989212 100.0
168.038498 96.0
168.083267 148.0
168.102737 64.0
168.2034 92.0
168.250107 80.0
168.273483 84.0
168.32991 124.0
168.397064 124.0
168.438171 48.0
168.463577 60.0
168.508362 92.0
168.539154 84.0
168.596008 112.0
168.616684 52.0
168.660614 64.0
168.694229 68.0
168.722656 64.0
168.844193 48.0
168.925293 68.0
168.973526 32.0
169.073212 260.0
169.118454 84.0
169.167633 44.0
169.262283 144.0
169.479904 60.0
169.540619 104.0
169.698746 152.0
169.818039 44.0
170.054932 120.0
170.446304 100.0
170.480087 52.0
170.573654 80.0
170.807693 52.0
170.867523 36.0
170.914368 108.0
171.015854 64.0
171.053162 396.0
171.102844 192.0
171.248138 96.0
171.740219 52.0
171.78717 176.0
171.844574 44.0
172.062607 892.0
172.343277 48.0
172.861038 92.0
173.072433 440.0
173.13591 72.0
173.285233 108.0
173.597153 64.0
173.736176 100.0
173.922501 124.0
174.072144 156.0
174.295425 160.0
174.363754 148.0
174.42662 140.0
174.510971 60.0
174.584595 96.0
174.758209 80.0
174.93718 168.0
174.984573 96.0
175.00563 196.0
175.121506 104.0
175.356003 104.0
175.470413 96.0
175.695953 96.0
175.88089 56.0
175.920486 56.0
175.98291 112.0
176.020828 124.0
176.092636 284.0
176.19516 100.0
176.575806 144.0
176.861557 52.0
176.92775 208.0
176.956146 132.0
177.089279 152.0
177.168747 56.0
177.192596 28.0
177.26944 72.0
177.298584 100.0
177.911316 244.0
178.033463 80.0
178.054703 52.0
178.099869 168.0
178.200821 92.0
178.471924 56.0
179.020111 180.0
179.044067 124.0
179.425125 64.0
179.841278 56.0
179.912567 68.0
180.102951 52.0
180.207138 128.0
181.081909 140.0
181.202454 136.0
181.379333 40.0
181.663574 60.0
181.717239 108.0
181.808472 144.0
182.200516 60.0
182.447769 132.0
182.504227 132.0
182.789368 100.0
183.149078 144.0
183.567871 164.0
184.384216 124.0
184.485901 180.0
184.564026 112.0
184.626511 68.0
184.65625 92.0
184.978256 72.0
185.074615 236.0
185.175919 60.0
185.349304 264.0
185.745132 184.0
186.08165 112.0
186.114243 152.0
186.538071 132.0
186.679459 52.0
187.035873 124.0
187.085876 6040.0
187.447128 52.0
187.624298 52.0
187.760635 36.0
187.924316 88.0
188.088104 1008.0
188.191803 56.0
188.291214 100.0
188.648071 88.0
188.681763 124.0
188.724625 80.0
189.094727 152.0
189.244492 36.0
189.400604 116.0
189.669144 180.0
190.228745 64.0
190.311111 48.0
190.346802 68.0
191.108215 120.0
191.700256 108.0
192.453323 56.0
192.536163 48.0
192.616257 212.0
193.163605 108.0
193.218933 220.0
193.274261 76.0
193.495697 144.0
193.517838 124.0
193.681244 72.0
193.805908 64.0
193.861328 92.0
193.919525 196.0
193.938934 52.0
193.958344 184.0
194.006699 164.0
194.051407 272.0
194.097961 37632.0
194.192688 100.0
194.221756 88.0
194.260605 40.0
194.280014 180.0
194.34465 108.0
194.454834 88.0
194.552658 152.0
194.615005 92.0
194.676941 80.0
194.707489 36.0
194.776932 44.0
194.924179 28.0
194.949188 84.0
194.998016 120.0
195.101212 3640.0
195.14502 64.0
195.207733 64.0
195.252228 32.0
195.293945 56.0
195.36554 92.0
195.458084 124.0
195.831146 60.0
196.026169 60.0
196.064117 164.0
196.106049 276.0
196.201767 28.0
196.239136 128.0
196.255707 80.0
196.370712 136.0
196.422073 156.0
196.514145 108.0
196.54158 96.0
196.567154 68.0
196.670425 144.0
196.692749 148.0
196.720657 164.0
197.111694 212.0
197.136841 216.0
197.332504 112.0
197.483521 96.0
198.516983 60.0
199.086212 396.0
199.162506 92.0
199.356369 108.0
200.020142 36.0
200.086716 228.0
200.453873 60.0
201.099716 300.0
201.18158 52.0
202.11174 192.0
202.575775 36.0
203.043472 84.0
203.210831 64.0
204.925339 100.0
205.669662 68.0
207.45755 72.0
208.025574 64.0
208.04567 40.0
209.03154 48.0
209.063187 60.0
209.820755 112.0
210.643234 88.0
212.08139 160.0
212.327835 164.0
212.548309 72.0
212.812454 144.0
213.094193 84.0
213.733887 124.0
214.097763 116.0
214.333725 76.0
215.471664 124.0
215.983261 140.0
216.354904 140.0
216.460312 124.0
217.107971 84.0
219.083221 36.0
219.687576 80.0
221.461197 80.0
223.313339 80.0
227.097717 200.0
228.118668 112.0
228.67215 72.0
228.928055 236.0
229.630264 52.0
232.410446 68.0
233.042007 88.0
233.200027 76.0
233.516235 64.0
234.752731 84.0
234.871689 80.0
234.984558 72.0
236.46666 56.0
236.883102 160.0
237.870529 160.0
238.669327 116.0
238.881546 76.0
239.528 84.0
240.212341 40.0
241.005798 56.0
243.797852 80.0
243.947052 48.0
245.079941 96.0
245.123566 120.0
246.126175 136.0
249.056274 84.0
249.216492 104.0
249.511932 128.0
251.547073 72.0
252.030289 92.0
252.69429 84.0
253.178604 56.0
257.092163 64.0
257.162384 52.0
258.031311 44.0
258.821594 88.0
258.908081 36.0
259.436768 112.0
261.206238 56.0
268.471344 136.0
274.743011 36.0
275.565125 60.0
276.239563 80.0
280.250153 104.0
281.420929 68.0
283.380951 48.0
283.464722 136.0
284.168884 92.0
285.149445 96.0
285.650452 100.0
286.192291 108.0
288.239807 144.0
289.372955 28.0
289.549652 88.0
290.681335 40.0
293.218353 160.0
293.562683 68.0
295.287384 124.0
295.776672 112.0
295.831451 44.0
299.326721 56.0
306.790039 76.0
307.253906 60.0
307.990479 140.0
308.944824 124.0
310.938629 72.0
311.802612 68.0
314.677094 96.0
316.090973 100.0
317.440643 92.0
317.625061 136.0
317.908905 140.0
318.285187 88.0
319.881561 108.0
321.021729 56.0
322.996826 48.0
323.558685 28.0
326.400421 132.0
328.406403 88.0
333.773651 140.0
337.16394 196.0
340.843262 88.0
345.089539 256.0
346.710907 44.0
349.648621 84.0
353.784515 60.0
354.166473 120.0
355.163513 124.0
355.270782 108.0
356.560272 108.0
357.173157 52.0
357.263428 72.0
360.90683 80.0
361.459106 108.0
362.341339 40.0
363.167725 220.0
366.364685 96.0
369.862671 40.0
370.421753 68.0
372.708374 64.0
375.113831 52.0
378.959259 36.0
379.455353 68.0
380.180603 196.0
382.168671 148.0
382.524506 48.0
382.906097 168.0
385.113678 100.0
394.351318 100.0
394.742706 132.0
397.095184 132.0
397.6427 68.0
400.437805 56.0
404.32254 64.0
408.467346 104.0
411.647369 64.0
413.409943 128.0
414.483063 56.0
418.076996 68.0
422.201569 76.0
422.676086 96.0
424.646637 44.0
426.913727 80.0
432.202179 116.0
434.493439 72.0
435.356812 56.0
443.371155 120.0
445.275909 80.0
447.100555 100.0
449.004852 68.0
449.815002 80.0
461.195038 116.0
465.268921 52.0
466.919006 80.0
467.095337 64.0
491.989532 84.0
501.651917 32.0
511.732422 72.0
512.547729 164.0
515.946411 76.0
522.299744 72.0
527.306213 148.0
533.614014 76.0
534.648987 108.0
541.292114 52.0
561.528809 60.0
562.840759 80.0
573.315186 88.0
586.963501 80.0
593.122986 144.0
607.244019 68.0
610.357605 132.0
612.183228 28.0
614.120178 128.0
626.737305 56.0
628.502441 212.0
634.534607 176.0
635.613037 108.0
635.848877 44.0
639.694153 64.0
643.248108 80.0
645.476196 104.0
647.384033 56.0
658.1698 144.0
664.6297 60.0
666.652954 68.0
679.74408 68.0
680.330566 144.0
691.244995 72.0
691.862671 48.0
697.081604 192.0
700.464661 88.0
700.670105 84.0
704.130554 48.0
711.565369 96.0
714.531067 76.0
716.399048 128.0
718.852417 76.0
723.764954 84.0
726.471619 124.0
743.10498 160.0
750.829529 192.0
756.583374 52.0
756.63269 80.0
757.202148 56.0
766.067749 28.0
766.751038 68.0
766.800659 108.0
782.399719 108.0
787.954651 104.0
793.596436 84.0
799.010864 116.0
801.972961 144.0
802.051819 104.0
812.241577 148.0
812.610352 176.0
817.748047 220.0
819.455933 180.0
826.192993 96.0
827.658203 48.0
833.187378 144.0
836.37323 192.0
837.795654 148.0
838.492859 204.0
840.638245 44.0
846.164185 100.0
852.655334 124.0
856.414001 144.0
860.846497 152.0
869.428894 88.0
880.639038 152.0
881.992188 108.0
882.151794 196.0
883.322632 116.0
885.441711 104.0
885.874084 64.0
888.476685 100.0
891.986389 124.0
893.068604 144.0
895.6698 108.0
896.891357 68.0
898.4776 200.0
900.02948 136.0
900.572937 88.0
901.056824 52.0
901.367493 104.0
904.962463 128.0
905.723022 72.0
907.233154 180.0
909.548706 156.0
910.827759 132.0
911.031982 68.0
911.164185 64.0
911.284363 128.0
912.462341 156.0
916.489014 228.0
920.023438 100.0
920.452087 20.0
921.24939 56.0
925.22876 172.0
931.311096 260.0
932.392639 160.0
934.119446 280.0
934.721802 160.0
939.065552 136.0
940.401794 172.0
943.945251 180.0
944.38562 96.0
947.238098 92.0
947.61792 236.0
948.38739 36.0
956.258301 168.0
959.091614 180.0
960.3927 188.0
960.54071 60.0
961.830383 148.0
962.855347 252.0
964.468018 148.0
966.855469 120.0
969.85321 104.0
971.012695 136.0
972.328003 228.0
972.570068 184.0
972.930115 176.0
974.072754 168.0
977.952881 132.0
978.469604 120.0
978.562988 200.0
978.768433 120.0
980.506531 76.0
983.856201 112.0
984.087219 168.0
984.536865 156.0
985.723816 160.0
986.898987 160.0
987.30542 204.0
987.56189 208.0
988.118652 156.0
989.119934 112.0
989.952637 172.0
991.543945 172.0
994.567139 112.0
998.513 176.0
998.789795 64.0
999.972717 148.0
1000.520325 128.0
1000.795166 200.0
1000.992554 196.0
1001.313782 108.0
1001.496399 140.0
1001.578308 152.0
1001.811401 220.0
1002.164185 148.0
1004.888062 56.0
1004.982727 116.0
1005.108887 44.0
1006.522888 72.0
1007.141785 188.0
1007.432373 168.0
1009.056641 88.0
1010.802368 188.0
1011.175781 192.0
1011.315002 212.0
1015.585693 228.0
1017.598267 152.0
1022.816833 176.0
1022.880493 184.0
1023.020508 120.0
1023.593567 188.0
1023.841919 204.0
1024.236816 152.0
1025.848999 32.0
1026.56958 188.0
1027.392334 144.0
1027.800659 152.0
1030.214111 180.0
1030.488892 120.0
1031.428345 132.0
1031.952515 96.0
1032.265869 128.0
1032.726318 128.0
1036.202393 152.0
1036.420288 276.0
1037.086792 164.0
1037.182983 176.0
1037.926636 156.0
1039.318604 188.0
1040.724365 76.0
1041.475708 116.0
1041.867554 152.0
1042.478027 160.0
1042.998535 172.0
1046.067017 244.0
1046.382446 148.0
1047.071533 160.0
1049.004517 232.0
1049.771851 188.0
1050.623169 156.0
1052.114014 64.0
1053.450806 44.0
1054.574951 164.0
1055.952393 156.0
1059.77832 156.0
1060.880127 192.0
1060.958008 176.0
1061.547974 148.0
1062.060303 232.0
1063.585205 80.0
1064.007202 192.0
1065.26709 144.0
1065.481445 164.0
1066.046753 152.0
1068.738892 192.0
1068.979736 180.0
1071.278076 148.0
1071.343262 176.0
1071.727661 180.0
1071.969604 164.0
1073.03125 176.0
1073.800781 64.0
1075.085938 208.0
1077.397461 116.0
1077.449707 160.0
1078.684937 156.0
1080.345947 40.0
1080.731934 172.0
1083.449097 164.0
1084.56311 56.0
1085.402344 176.0
1085.579346 76.0
1087.147339 160.0
1088.466797 176.0
1088.781982 168.0
1089.340332 204.0
1090.06958 156.0
1090.240479 216.0
1091.213379 48.0
1092.614258 244.0
1092.884033 100.0
1093.022217 168.0
1093.496094 124.0
1093.660645 168.0
1095.649292 176.0
1095.991943 160.0
1096.651001 184.0
1097.52124 120.0
1099.394653 192.0
1099.711426 224.0
1101.880981 184.0
1102.928223 184.0
1103.081299 128.0
1103.523193 160.0
1104.67395 188.0
1104.746826 112.0
1105.951172 208.0
1106.513794 252.0
1106.970703 144.0
1108.600342 44.0
1108.971558 52.0
1109.296265 156.0
1109.654297 152.0
1109.740479 176.0
1109.879761 216.0
1110.184814 152.0
1110.848145 92.0
1111.259399 128.0
1111.332397 64.0
1111.816895 208.0
1111.956177 132.0
1113.948242 228.0
1114.419922 148.0
1114.818604 184.0
1114.905029 48.0
1117.012817 96.0
1117.099243 124.0
1117.152466 172.0
1118.683105 184.0
1119.24231 176.0
1119.388916 112.0
1119.75647 180.0
1120.887695 100.0
1121.174316 156.0
1121.440796 144.0
1122.760986 168.0
1122.921021 96.0
1123.28125 232.0
1123.634766 188.0
1123.828369 124.0
1124.355469 176.0
1125.490356 140.0
1125.650635 168.0
1126.071411 48.0
1126.692627 156.0
1127.066772 68.0
1127.300659 120.0
1127.748413 180.0
1128.169556 152.0
1128.717896 180.0
1129.038818 156.0
1130.31665 228.0
1130.62439 192.0
1130.825195 52.0
1131.508057 64.0
1131.581665 132.0
1132.231201 136.0
1133.651489 260.0
1133.932983 176.0
1134.013428 212.0
1134.636841 188.0
1134.723999 184.0
1134.97876 176.0
1135.233643 100.0
1135.548828 180.0
1136.098877 208.0
1136.521606 200.0
1137.051758 216.0
1138.560791 176.0
1138.794434 276.0
1139.805176 196.0
1140.154541 216.0
1140.228516 212.0
1140.591431 52.0
1140.833496 172.0
1141.378052 160.0
1141.526001 136.0
1142.635864 216.0
1142.804077 164.0
1143.28186 72.0
1143.362671 148.0
1143.52417 260.0
1144.756226 172.0
1144.823608 232.0
1144.870728 64.0
1145.517334 164.0
1145.746338 188.0
1145.854126 144.0
1146.487549 212.0
1146.844727 144.0
1146.973633 184.0
1147.512207 176.0
1147.566162 212.0
1148.01123 172.0
1148.233765 160.0
1148.301147 160.0
1149.245605 196.0
1149.441284 160.0
1149.529053 240.0
1149.623535 88.0
1150.230957 212.0
1150.65625 44.0
1150.973633 160.0
1152.236694 156.0
1152.304321 188.0
1152.945801 216.0
1153.203003 252.0
1153.710083 44.0
1153.818237 128.0
1154.332153 204.0
1154.649902 248.0
1154.731079 48.0
1154.900146 68.0
1155.130249 132.0
1155.712769 152.0
1156.168823 176.0
1156.273682 192.0
1157.018311 136.0
1157.180786 176.0
1157.444946 192.0
1157.668335 176.0
1157.952759 132.0
1158.122192 140.0
1158.386353 112.0
1158.718262 216.0
1159.321411 116.0
1159.443359 216.0
1159.883911 124.0
1160.290649 176.0
1160.39917 152.0
1161.185791 160.0
1161.389282 140.0
1162.067627 176.0
1162.474731 44.0
1163.038086 112.0
1163.812012 84.0
1164.823975 208.0
1165.102539 112.0
1165.53064 144.0
1165.700439 172.0
1165.781982 132.0
1166.543335 200.0
1166.658813 152.0
1166.726807 184.0
1167.175537 140.0
1167.250366 80.0
1168.00708 160.0
1168.406738 208.0
1169.743408 156.0
1170.221802 200.0
1171.299927 140.0
1171.449829 108.0
1171.824585 68.0
1172.342407 192.0
1172.765015 120.0
1172.894531 156.0
1174.033081 124.0
1174.31958 264.0
1176.762695 100.0
1176.878784 112.0
1177.281616 152.0
1177.513794 128.0
1178.552246 64.0
1178.805054 176.0
1180.144775 136.0
1180.664551 124.0
1181.0271 180.0
1181.102295 188.0
1181.505859 180.0
1181.683838 112.0
1182.40918 128.0
1182.60083 144.0
1183.497681 64.0
1183.614014 196.0
1185.998169 48.0
1186.841431 152.0
1187.012939 60.0
1187.819092 168.0
1188.157227 140.0
1189.132812 132.0
1189.400513 180.0
1189.702515 52.0
1189.942871 156.0
1192.367676 156.0
1192.62207 156.0
1193.000122 156.0
1193.123901 128.0
1193.536377 152.0
1193.969604 72.0
1194.052124 112.0
1194.36084 172.0
1194.857056 172.0
1195.762085 160.0
1196.343628 116.0
1196.570801 188.0
1196.859985 140.0
1197.025269 52.0
1197.693237 160.0
1198.023926 136.0
1198.168579 192.0
1198.306396 64.0
1198.899048 188.0
1199.305664 128.0
1199.429688 184.0
1199.733032 208.0
1200.27771 152.0
1200.684692 60.0
1200.791138 68.0
1202.009155 192.0
1202.561279 140.0
1202.768433 196.0
1203.4104 172.0
1203.810913 220.0
1204.701904 176.0
1205.102661 148.0
1205.800659 64.0
1205.966553 128.0
1206.29834 144.0
1206.509888 220.0
1207.121094 172.0
1207.18335 120.0
1207.916504 120.0
1208.629028 216.0
1209.895752 44.0
1210.00647 196.0
1210.195679 196.0
1210.415039 192.0
1210.809692 104.0
1210.948242 152.0
1211.09375 184.0
1211.34314 228.0
1211.440063 136.0
1212.042847 256.0
1213.221191 84.0
1213.817383 132.0
1214.129517 220.0
1214.226562 168.0
1215.12146 136.0
1215.558594 156.0
1216.051392 228.0
1216.315063 116.0
1216.572021 240.0
1217.196899 168.0
1217.703857 152.0
1218.210938 124.0
1218.335938 176.0
1218.864014 208.0
1219.49646 136.0
1220.154175 220.0
1221.234741 180.0
1221.345947 140.0
1221.422485 156.0
1221.540771 136.0
1222.201782 188.0
1222.932495 224.0
1223.015991 188.0
1223.224854 168.0
1223.81665 168.0
1224.109009 64.0
1224.505981 124.0
1224.972778 132.0
1225.362915 172.0
1225.83667 176.0
1226.03479 204.0
1226.442993 132.0
1227.147095 256.0
1227.363281 204.0
1227.725952 196.0
1228.974609 192.0
1229.316528 144.0
1229.539917 96.0
1230.098511 180.0
1230.803467 128.0
1230.971069 116.0
1231.131592 140.0
1231.613525 144.0
1231.77417 176.0
1231.976807 116.0
1232.479858 124.0
1233.269531 120.0
1233.675049 160.0
1234.521118 208.0
1235.206543 264.0
1235.47937 172.0
1235.563354 140.0
1235.994629 160.0
1236.395996 164.0
1236.494019 184.0
1236.80896 136.0
1236.948975 120.0
1237.027832 204.0
1237.172974 192.0
1237.796143 200.0
1238.055176 172.0
1238.755615 224.0
1238.804688 256.0
1239.545776 184.0
1240.009888 164.0
1240.416504 136.0
1240.689941 172.0
1241.734741 180.0
1241.818848 164.0
1242.253784 152.0
1242.55542 144.0
1243.306274 120.0
1243.411499 124.0
1243.888916 156.0
1244.303101 56.0
1244.436523 152.0
1244.885864 164.0
1245.138672 176.0
1245.517944 140.0
1246.122192 172.0
1246.297852 224.0
1246.452393 260.0
1246.529663 156.0
1246.64917 128.0
1247.598022 60.0
1247.773804 212.0
1248.223145 156.0
1248.772461 176.0
1249.018555 128.0
1249.074829 196.0
1249.461792 172.0
1249.581421 172.0
1249.912109 168.0
1250.22876 136.0
1250.341431 236.0
1251.566284 76.0
1251.798706 176.0
1252.446655 140.0
1252.552246 168.0
1252.932739 188.0
1253.151123 220.0
1253.2146 176.0
1253.573975 132.0
1253.686646 232.0
1254.595947 204.0
1255.329224 192.0
1255.378662 160.0
1255.484375 136.0
1256.013428 124.0
1256.76123 184.0
1256.810669 116.0
1256.97998 176.0
1257.175171 156.0
1257.523438 180.0
1257.728149 204.0
1258.532959 220.0
1258.582397 64.0
1258.695312 164.0
1258.787109 148.0
1258.836548 100.0
1258.921265 228.0
1259.055786 192.0
1259.373291 112.0
1259.980835 212.0
1260.736938 200.0
1261.012573 184.0
1261.344727 164.0
1261.394287 144.0
1261.613403 196.0
1261.80481 208.0
1262.037598 164.0
1262.468994 292.0
1262.957031 184.0
1263.480469 136.0
1263.786011 156.0
1264.513672 192.0
1266.021606 144.0
1266.453735 176.0
1266.602417 136.0
1266.69458 160.0
1267.169189 40.0
1267.870728 144.0
1268.778076 152.0
1269.777832 200.0
1269.905518 144.0
1270.040283 160.0
1270.295654 184.0
1270.682373 188.0
1270.827759 180.0
1270.934204 88.0
1271.254395 160.0
1271.388428 92.0
1271.693604 236.0
1272.013062 280.0
1272.196899 256.0
1272.410522 96.0
1273.01416 76.0
1273.134888 232.0
1274.520142 212.0
1274.603638 236.0
1274.925171 184.0
1275.18103 152.0
1275.529297 228.0
1276.019897 172.0
1276.297119 32.0
1276.439331 168.0
1276.553101 184.0
1277.079468 176.0
1277.726807 176.0
1277.876221 176.0
1278.075439 144.0
1278.936523 120.0
1279.142944 140.0
1279.619995 140.0
1281.243896 192.0
1281.429077 116.0
1281.664185 136.0
1282.405396 180.0
1282.932861 156.0
1283.075439 144.0
1283.132568 204.0
1283.275146 184.0
1283.695801 172.0
1284.088135 212.0
1284.287842 208.0
1284.651611 40.0
1284.772827 148.0
1286.728394 196.0
1287.056885 248.0
1288.185303 124.0
1288.235352 184.0
1288.321045 164.0
1288.40979 188.0
1288.571045 176.0
1288.663574 184.0
1289.828857 140.0
1290.37146 192.0
1290.536621 172.0
1290.643921 40.0
1291.223145 172.0
1291.974243 184.0
1292.260498 168.0
1292.439331 144.0
1292.539551 48.0
1293.019043 184.0
1293.083374 168.0
1293.555786 188.0
1294.393555 152.0
1294.508057 184.0
1294.71582 156.0
1295.116821 152.0
1295.575317 164.0
1295.73291 168.0
1296.177246 164.0
1296.420898 192.0
1297.094604 60.0
1297.323975 68.0
1297.75415 188.0
1297.876099 188.0
1297.962158 180.0
1298.055298 156.0
1298.564575 156.0
1298.951904 172.0
1299.030762 176.0
1299.217285 172.0
1300.078369 196.0
1300.221924 272.0
1300.322388 212.0
1300.631958 128.0
1301.111938 208.0
1301.219727 180.0
1301.384888 168.0
1301.593018 112.0
1301.84436 108.0
1302.037354 204.0
1302.282471 184.0
1303.985352 60.0
1305.034912 200.0
1305.440552 160.0
1305.82605 148.0
1307.200073 108.0
1307.25769 180.0
1308.54895 252.0
1308.861938 164.0
1308.884155 140.0
1309.006958 200.0
1309.58313 200.0
1310.058594 168.0
1310.144043 148.0
1310.815186 176.0
1310.865601 100.0
1311.052979 188.0
1311.420532 76.0
1311.744873 52.0
1312.285645 168.0
1312.487549 188.0
1312.956299 56.0
1313.831421 168.0
1314.375366 160.0
1314.778809 260.0
1315.633301 160.0
1315.936523 184.0
1316.535889 212.0
1316.738037 180.0
1317.178711 220.0
1317.279785 168.0
1317.369995 176.0
1317.698853 180.0
1317.74939 196.0
1317.821655 132.0
1317.973389 148.0
1318.060181 352.0
1318.161255 156.0
1318.31311 96.0
1319.281616 144.0
1319.440674 204.0
1319.491333 156.0
1319.62146 160.0
1319.686523 112.0
1319.98291 152.0
1320.156494 136.0
1320.489258 140.0
1320.597656 64.0
1321.002808 168.0
1321.677734 184.0
1321.805908 168.0
1321.900024 212.0
1322.449951 92.0
1322.648193 168.0
1322.891602 124.0
1323.202881 164.0
1323.333252 196.0
1323.505005 164.0
1323.724243 192.0
1324.057373 156.0
1324.796143 180.0
1325.201904 152.0
1325.593262 124.0
1326.313599 196.0
1326.687744 188.0
1326.774658 176.0
1326.832642 124.0
1327.09375 176.0
1327.275024 84.0
1328.740112 196.0
1329.63269 172.0
1329.944824 96.0
1330.082764 108.0
1330.242432 176.0
1330.728882 164.0
1331.237183 136.0
1331.287964 156.0
1331.549438 60.0
1331.723755 144.0
1332.762573 200.0
1332.828003 124.0
1333.540283 272.0
1333.641968 212.0
1333.947266 92.0
1334.063599 160.0
1334.174438 168.0
1334.587036 128.0
1334.8125 100.0
1335.037964 228.0
1335.241577 144.0
1335.336182 124.0
1335.532471 208.0
1335.888916 152.0
1336.129028 424.0
1336.900391 188.0
1336.96582 104.0
1337.067749 208.0
1338.22522 140.0
1338.399902 164.0
1338.509155 184.0
1338.647461 160.0
1339.34668 116.0
1339.44873 152.0
1339.579834 96.0
1339.718262 60.0
1340.009644 260.0
1340.097046 220.0
1340.228271 212.0
1340.825806 140.0
1341.613037 128.0
1342.254639 204.0
1342.765137 144.0
1342.914673 172.0
1343.151733 388.0
1343.370605 232.0
1343.925049 196.0
1344.005371 180.0
1344.193237 140.0
1344.421265 192.0
1344.589111 248.0
1344.8302 176.0
1344.917603 172.0
1345.243042 124.0
1345.48999 232.0
1345.54541 200.0
1345.669556 168.0
1346.268311 240.0
1346.763062 284.0
1347.166748 208.0
1347.692749 188.0
1348.043579 148.0
1348.335815 136.0
1348.452759 116.0
1348.993774 152.0
1349.176514 116.0
1349.447021 176.0
1349.739502 168.0
1350.916992 168.0
1351.05603 216.0
1351.224365 116.0
1351.658081 184.0
1352.212158 200.0
1352.322021 128.0
1352.614746 192.0
1353.442139 92.0
1353.625122 80.0
1353.932739 216.0
1354.811768 220.0
1355.57373 132.0
1356.04248 168.0
1356.291992 128.0
1356.548584 184.0
1356.8125 120.0
1357.289062 72.0
1357.494385 132.0
1357.675293 200.0
1357.716064 168.0
1357.875854 132.0
1358.001953 164.0
1358.073853 128.0
1358.403931 172.0
1358.543335 220.0
1358.998169 208.0
1359.378418 128.0
1359.717407 164.0
1360.759766 168.0
1360.97998 96.0
1361.244385 176.0
1361.367676 92.0
1361.442627 152.0
1361.618896 76.0
1361.791382 176.0
1362.008179 172.0
1362.471069 164.0
1363.066162 220.0
1363.330688 152.0
1363.382202 160.0
1363.646729 160.0
1363.859985 148.0
1364.381836 132.0
1364.653931 152.0
1364.778931 300.0
1365.117188 132.0
1365.293701 180.0
1365.411377 192.0
1365.639282 168.0
1365.75708 204.0
1366.845825 256.0
1367.287476 224.0
1367.832153 220.0
1367.957275 160.0
1369.395264 176.0
1369.496216 180.0
1369.768799 176.0
1369.857178 44.0
1369.938232 160.0
1370.446655 144.0
1370.851929 112.0
1370.903442 136.0
1371.131958 184.0
1371.220337 160.0
1371.434082 120.0
1371.5896 224.0
1372.311401 64.0
1372.716919 124.0
1373.196411 192.0
1373.373413 212.0
1373.630859 208.0
1373.779053 224.0
1373.879761 224.0
1374.066772 260.0
1374.11853 116.0
1374.384155 28.0
1374.494751 184.0
1374.69397 192.0
1375.63623 140.0
1376.089111 60.0
1376.332764 220.0
1376.886719 204.0
1377.115601 156.0
1377.713989 128.0
1378.078979 240.0
1378.511963 208.0
1378.630249 152.0
1379.103271 60.0
1380.005127 136.0
1380.234375 104.0
1380.685425 164.0
1381.056763 156.0
1381.232788 216.0
1381.46167 228.0
1381.891235 148.0
1382.068848 168.0
1382.364868 120.0
1383.075317 208.0
1383.141968 212.0
1383.408447 180.0
1384.150146 116.0
1384.304321 76.0
1385.659912 176.0
1385.86731 100.0
1385.926636 212.0
1385.993286 44.0
1386.853027 56.0
1387.416382 124.0
1387.816772 136.0
1388.221069 152.0
1388.765991 152.0
1388.832764 244.0
1388.914429 176.0
1389.077637 172.0
1389.196289 176.0
1389.307617 140.0
1389.507812 192.0
1389.953125 68.0
1390.064331 216.0
1390.294434 200.0
1390.538574 200.0
1390.806519 320.0
1390.865967 124.0
1391.741943 76.0
1391.832397 160.0
1392.098389 196.0
1392.596069 168.0
1392.811401 132.0
1392.922852 212.0
1393.140503 244.0
1393.264648 172.0
1393.658325 164.0
1394.190308 212.0
1394.327148 148.0
1394.713745 152.0
1394.995972 128.0
1395.137451 212.0
1395.397705 128.0
1395.595825 172.0
1395.657837 208.0
1395.751465 300.0
1395.962769 224.0
1396.044556 136.0
1396.290039 176.0
1396.416382 220.0
1396.860107 172.0
1396.989258 104.0
1397.420776 252.0
1398.380737 236.0
1398.871948 144.0
1399.080444 132.0
1399.192139 208.0
1399.28894 180.0
1399.378296 112.0
1400.026123 192.0
1400.219727 120.0
1400.912476 220.0
1401.02417 180.0
1401.173218 204.0
1401.245361 168.0
1401.985474 92.0
1402.531982 144.0
1402.939575 188.0
1403.06189 168.0
1403.140869 112.0
1403.215332 112.0
1403.431641 64.0
1403.491211 184.0
1403.55835 224.0
1403.737305 120.0
1403.796997 164.0
1403.990845 140.0
1404.087891 56.0
1404.527954 164.0
1404.915771 168.0
1405.065063 44.0
1405.122925 148.0
1405.288818 136.0
1405.460449 160.0
1405.602295 112.0
1405.72168 216.0
1405.885864 196.0
1405.986084 120.0
1406.184326 48.0
1406.461548 188.0
1406.550171 148.0
1406.96814 124.0
1407.2146 212.0
1407.363892 184.0
1407.61438 164.0
1408.439331 156.0
1408.753052 156.0
1408.954834 132.0
1409.597412 200.0
1409.716919 192.0
1410.1698 152.0
1410.442871 160.0
1410.691406 116.0
1410.860596 176.0
1411.211914 156.0
1411.398926 192.0
1411.451294 152.0
1411.810181 88.0
1412.088135 200.0
1412.273926 192.0
1412.43103 76.0
1412.662842 160.0
1412.731689 188.0
1412.857422 172.0
1413.234985 204.0
1413.583252 280.0
1413.845093 184.0
1414.009766 176.0
1414.099609 88.0
1414.189453 148.0
1414.451416 156.0
1414.78833 152.0
1414.953003 196.0
1415.110229 172.0
1415.88147 144.0
1416.390869 156.0
1416.624634 96.0
1416.847778 200.0
1417.244873 140.0
1417.889404 116.0
1418.284912 192.0
1418.406616 152.0
1418.481567 168.0
1419.096313 152.0
1419.673706 164.0
1420.633789 148.0
1420.731934 160.0
1421.136475 144.0
1421.361572 108.0
1421.571655 172.0
1422.052002 216.0
1422.194702 188.0
1422.479858 56.0
1422.78772 188.0
1422.847778 184.0
1422.990356 184.0
1423.06543 164.0
1423.500977 32.0
1423.583618 136.0
1423.658691 148.0
1424.282104 192.0
1424.507446 180.0
1424.627686 172.0
1425.46167 176.0
1426.282471 152.0
1426.378662 164.0
1427.058105 160.0
1427.235718 200.0
1427.325928 128.0
1427.385132 168.0
1427.83728 52.0
1427.995239 144.0
1428.27356 164.0
1428.33374 184.0
1428.709839 68.0
1428.860352 160.0
1429.05603 216.0
1429.153809 104.0
1429.304321 160.0
1429.635376 152.0
1430.365479 108.0
1430.702148 176.0
1431.043091 132.0
1431.216187 164.0
1431.268921 144.0
1432.805542 184.0
1432.87915 160.0
1433.106812 160.0
1433.848877 96.0
1434.109131 104.0
1434.297607 228.0
1434.666992 100.0
1434.900757 152.0
1435.126953 160.0
1435.187256 168.0
1435.424927 216.0
1435.601929 148.0
1435.896118 172.0
1436.72583 180.0
1437.404907 204.0
1437.64978 204.0
1437.83252 184.0
1438.197388 236.0
1438.496948 200.0
1439.027832 168.0
1439.167847 268.0
1439.231689 180.0
1439.322266 120.0
1439.730103 72.0
1439.748169 164.0
1439.994385 128.0
1440.266357 204.0
1440.526733 180.0
1440.689453 220.0
1441.39209 152.0
1441.649048 200.0
1441.754761 76.0
1441.883301 88.0
1442.109985 184.0
1442.276367 172.0
1442.412354 188.0
1442.631592 160.0
1442.760132 124.0
1443.002075 164.0
1443.092773 236.0
1443.49353 172.0
1443.969971 132.0
1444.265015 196.0
1444.627319 184.0
1444.877808 100.0
1445.354492 184.0
1445.604126 156.0
1446.308105 112.0
1446.361084 148.0
1446.421631 160.0
1446.504883 120.0
1446.588135 164.0
1446.663818 136.0
1446.784912 232.0
1446.959106 68.0
1447.065063 240.0
1447.413452 152.0
1447.542114 164.0
1447.670898 164.0
1448.208618 44.0
1448.299561 132.0
1448.360107 196.0
1448.640381 180.0
1449.094971 164.0
1449.360962 112.0
1449.579956 176.0
1450.798096 128.0
1450.875244 152.0
1451.088379 160.0
1451.56604 148.0
1451.626709 160.0
1451.694946 172.0
1451.907349 132.0
1452.286499 104.0
1452.407959 124.0
1452.521729 96.0
1452.718872 116.0
1453.280396 112.0
1453.377075 204.0
1453.477661 68.0
1453.545898 48.0
1453.794922 168.0
1453.857056 196.0
1454.274536 172.0
1455.451294 80.0
1455.625366 116.0
1455.891724 212.0
1455.97522 48.0
1456.499268 88.0
1457.433838 144.0
1457.654175 108.0
1457.760498 168.0
1457.889771 144.0
1458.365723 240.0
1458.535767 92.0
1458.672607 232.0
1459.531738 220.0
1459.797852 156.0
1459.88916 100.0
1460.147705 264.0
1460.56604 200.0
1460.626953 108.0
1460.855103 264.0
1460.915039 140.0
1460.980103 180.0
1461.045288 128.0
1461.92041 164.0
1462.026978 156.0
1462.095459 264.0
1462.795654 104.0
1462.864258 184.0
1462.970825 160.0
1463.107788 132.0
1463.831177 48.0
1464.021606 180.0
1464.25 224.0
1464.486206 68.0
1464.729858 152.0
1465.552734 128.0
1465.737793 180.0
1465.811768 248.0
1465.910889 216.0
1466.863647 64.0
1467.343872 168.0
1467.744019 168.0
1467.978516 160.0
1468.434326 204.0
1468.541138 188.0
1468.983521 152.0
1469.090332 164.0
1469.220093 60.0
1469.311646 136.0
1469.387939 248.0
1469.44458 208.0
1469.517578 220.0
1469.647339 260.0
1469.853394 164.0
1470.135742 140.0
1470.265503 100.0
1470.410645 156.0
1470.869873 180.0
1471.73877 120.0
1471.792236 152.0
1471.975464 232.0
1472.273315 152.0
1472.397095 140.0
1473.663574 356.0
1474.664673 68.0
1474.848633 196.0
1474.950562 172.0
1475.100464 212.0
1475.490356 128.0
1475.582031 184.0
1475.910889 160.0
1476.178467 140.0
1476.35437 176.0
1476.744385 128.0
1477.287598 208.0
1477.755493 180.0
1477.968506 36.0
1478.045044 164.0
1478.136841 100.0
1478.244019 100.0
1478.366455 144.0
1478.511841 216.0
1478.756714 216.0
1479.422729 164.0
1479.506958 112.0
1479.833374 136.0
1480.440674 164.0
1480.701416 108.0
1480.770386 76.0
1481.207031 96.0
1481.559448 144.0
1481.904175 192.0
1482.058716 168.0
1482.144775 144.0
1482.284668 232.0
1482.517212 148.0
1482.660522 176.0
1482.724121 160.0
1483.398438 140.0
1483.453735 168.0
1483.559692 120.0
1483.659302 212.0
1483.728271 156.0
1483.904663 200.0
1483.965942 176.0
1484.203735 32.0
1484.295166 128.0
1484.487427 136.0
1484.755859 188.0
1484.901611 224.0
1485.170044 152.0
1485.584229 140.0
1486.182739 164.0
1486.549805 220.0
1486.681519 120.0
1486.75061 168.0
1486.957764 480.0
1487.088257 120.0
1487.157349 108.0
1487.25708 176.0
1487.395264 104.0
1487.779175 168.0
1488.147705 124.0
1488.270508 84.0
1488.35498 140.0
1488.454834 140.0
1488.598267 332.0
1488.794556 152.0
1489.169067 152.0
1489.279785 172.0
1489.645264 80.0
1489.950562 200.0
1490.167725 160.0
1490.928467 168.0
1491.066772 120.0
1491.351196 192.0
1491.466431 184.0
1491.773926 212.0
1492.450562 116.0
1493.158081 132.0
1493.411865 56.0
1493.650269 216.0
1493.750977 200.0
1493.910889 156.0
1494.481201 172.0
1494.619751 200.0
1494.742798 204.0
1494.865967 100.0
1494.9198 40.0
1496.105225 172.0
1496.251465 160.0
1496.438843 200.0
1496.536377 124.0
1496.59021 112.0
1496.717773 284.0
1497.021484 208.0
1497.391113 48.0
1497.537476 136.0
1497.591431 144.0
1497.776245 212.0
1497.868652 164.0
1498.993652 92.0
1499.070679 208.0
1499.326538 192.0
1499.471436 136.0
1499.94165 196.0
1500.172852 136.0
1501.044067 108.0
1501.53772 180.0
1501.64563 156.0
1501.869385 96.0
1501.93103 140.0
1502.031372 164.0
1502.123901 212.0
1502.332153 160.0
1502.880005 216.0
1502.941772 184.0
1503.186768 196.0
1503.217651 148.0
1503.304443 188.0
1503.906372 236.0
1504.38501 156.0
1504.454468 148.0
1504.628174 212.0
1505.172607 88.0
