>compound MLS001160253-01!N-[(2,4-dimethoxyphenyl)methyl]-2-[(5-hydroxy-2,2-dimethyl-4-oxo-3H-chromen-7-yl)oxy]acetamide
>formula C22H25NO7
>ionization [M+H]+
>parentmass 416.171
#inchi InChI=1S/C22H25NO7/c1-22(2)10-17(25)21-16(24)7-15(9-19(21)30-22)29-12-20(26)23-11-13-5-6-14(27-3)8-18(13)28-4/h5-9,24H,10-12H2,1-4H3,(H,23,26)
#inchikey OZKNFEFLIVJPPF
#Ion_Source LC-ESI
#Instrument qTof
#Compound_Source NIH Natural Product Library
#PI Dorrestein
#Data_Collector VVP/LMS
#Scan -1
#Precursor_MZ 416.171
#ExactMass 415.163
#Charge 1
#CAS_Number N/A
#Pubmed_ID N/A
#Smiles COc1ccc(CNC(=O)COc2cc(O)c3C(=O)CC(C)(C)Oc3c2)c(OC)c1
#INCHI_AUX N/A
#Library_Class 1
#SpectrumID CCMSLIB00000079646
#IonMode Positive
#UpdateWorkflowName UPDATE-SINGLE-ANNOTATED-GOLD
#LibraryQualityString Gold
#TaskID b1d8e8f6646f4e71acdff9ca3d919d08
##Scan# 2336
#SpectrumFile p1-C09_GC9_01_17905.mzXML
#LibraryName NIH_Natural_Products_Library.mgf
#MQScore -1
#Organism NIH_Natural_Products_Library
#TIC_Query 0
#RT_Query -1
#MZErrorPPM -1
#SharedPeaks 0
#MassDiff 0
#LibMZ -1
#SpecMZ 416.171
#SpecCharge 0
#internalFilename spec-00000.mgf

>collision 10
95.143166 160.0
95.323792 224.0
95.619385 176.0
95.664146 216.0
95.687698 204.0
95.773842 192.0
95.800339 124.0
95.91153 192.0
96.053871 212.0
96.188507 140.0
96.206078 308.0
96.418976 232.0
96.477615 220.0
96.52845 156.0
96.841568 132.0
96.868988 36.0
96.910126 140.0
96.996353 228.0
97.012039 228.0
97.127731 64.0
97.145653 264.0
97.392708 172.0
97.472176 212.0
97.646248 244.0
97.789864 128.0
97.850891 108.0
97.870575 204.0
97.888298 152.0
97.904778 248.0
97.978897 52.0
98.069542 60.0
98.132622 156.0
98.162201 200.0
98.247009 40.0
98.545113 120.0
98.564873 92.0
98.677536 44.0
98.841698 220.0
98.918884 184.0
99.029762 148.0
99.045609 224.0
99.176376 160.0
99.350876 124.0
99.426277 200.0
99.457726 156.0
99.674492 184.0
99.809654 148.0
99.83551 156.0
99.907112 120.0
99.978935 200.0
100.050148 160.0
100.203743 80.0
100.259529 112.0
100.281456 60.0
100.383125 116.0
100.423012 164.0
100.442955 184.0
100.770348 180.0
100.856277 88.0
100.887894 132.0
101.290474 180.0
101.324524 196.0
101.344559 108.0
101.384636 100.0
101.611214 240.0
101.838043 192.0
101.868172 136.0
101.906342 116.0
101.958588 196.0
101.972656 200.0
102.230072 192.0
102.332726 164.0
102.35276 164.0
102.439461 184.0
102.477737 120.0
102.560356 172.0
102.70755 144.0
102.75798 236.0
103.05616 316.0
103.210396 160.0
103.2286 196.0
103.38031 152.0
103.443054 164.0
103.530113 148.0
103.552391 164.0
103.715736 180.0
103.78746 128.0
103.825989 136.0
103.846268 184.0
103.915237 132.0
103.929436 156.0
104.071823 184.0
104.099663 172.0
104.272621 140.0
104.368156 108.0
104.61026 220.0
104.862823 184.0
104.981071 32.0
105.037277 236.0
105.066185 164.0
105.138145 92.0
105.667366 144.0
105.718513 124.0
105.884338 204.0
105.960129 44.0
105.974464 192.0
105.992905 192.0
106.042915 1008.0
106.097435 164.0
106.115883 100.0
106.229317 268.0
106.306641 48.0
106.450333 52.0
106.468811 108.0
106.606453 56.0
106.686607 156.0
106.799706 152.0
106.842903 92.0
106.954018 136.0
107.040482 156.0
107.084595 1200.0
107.17437 140.0
107.262985 232.0
107.28772 152.0
107.349579 188.0
107.380882 132.0
107.543503 52.0
107.59304 216.0
107.657051 64.0
108.05368 188.0
108.102142 216.0
108.165649 196.0
108.84565 148.0
108.868492 188.0
109.02845 156.0
109.065857 216.0
109.203087 136.0
109.240524 124.0
109.375778 164.0
109.463219 72.0
109.782036 52.0
109.909279 128.0
109.938492 72.0
109.990669 172.0
110.084618 136.0
110.149361 172.0
110.189056 176.0
110.293541 176.0
110.659622 176.0
110.73082 172.0
110.78109 208.0
110.894234 88.0
111.005341 52.0
111.040993 220.0
111.055672 80.0
111.139587 44.0
111.259216 100.0
111.278107 84.0
111.368408 220.0
111.405251 208.0
111.425125 212.0
111.513374 160.0
111.637413 60.0
111.753098 208.0
112.186935 160.0
112.342987 52.0
112.414719 152.0
112.680763 192.0
112.756828 188.0
112.955574 164.0
113.023277 160.0
113.571953 156.0
113.5868 240.0
113.979553 128.0
114.179375 128.0
114.208794 168.0
114.328293 236.0
114.526283 220.0
114.632805 188.0
114.677559 40.0
114.848129 168.0
114.916389 124.0
114.976135 188.0
115.057243 248.0
115.328529 184.0
115.439697 144.0
115.555199 236.0
115.606552 136.0
115.726425 112.0
115.756401 200.0
115.792801 76.0
115.81636 204.0
115.842064 76.0
115.985634 196.0
116.000641 224.0
116.028503 180.0
116.064957 228.0
116.187683 196.0
116.273033 180.0
116.391098 136.0
116.556488 164.0
116.631706 132.0
116.818779 160.0
116.960793 212.0
117.06971 492.0
117.120125 172.0
117.135208 148.0
117.242935 52.0
117.279572 136.0
117.361488 40.0
117.553459 160.0
117.754227 212.0
117.940041 148.0
118.149788 120.0
118.208206 176.0
118.374886 180.0
118.476089 176.0
118.511345 156.0
118.528679 188.0
118.593163 164.0
118.743286 144.0
118.953751 180.0
118.994995 52.0
119.012367 180.0
119.050346 880.0
119.086212 4988.0
119.24263 84.0
119.373062 160.0
119.456451 176.0
119.841042 232.0
119.8759 144.0
119.904236 212.0
119.980522 120.0
120.011047 188.0
120.087029 484.0
120.121002 76.0
120.148445 116.0
120.304054 144.0
120.347641 192.0
120.451874 132.0
120.473717 136.0
120.512482 220.0
120.552368 152.0
120.589523 84.0
120.663841 156.0
120.69445 152.0
120.716316 60.0
120.732071 176.0
120.762245 140.0
120.792862 132.0
120.854118 164.0
120.88694 152.0
120.90657 136.0
120.935089 124.0
121.012253 160.0
121.065849 49640.0
121.134338 36.0
121.179138 116.0
121.204445 72.0
121.231949 80.0
121.256454 60.0
121.279892 124.0
121.314026 52.0
121.340965 112.0
121.356537 56.0
121.382828 84.0
121.423203 68.0
121.443192 84.0
121.478493 80.0
121.513451 124.0
121.548698 168.0
121.599174 40.0
121.636482 228.0
121.73967 48.0
121.82972 84.0
121.872482 52.0
121.968163 164.0
122.040703 88.0
122.068871 3828.0
122.09568 64.0
122.251869 120.0
122.408157 96.0
122.690178 96.0
122.723244 48.0
122.780579 164.0
122.877632 216.0
122.910728 92.0
122.966698 88.0
122.990677 280.0
123.007828 108.0
123.077881 536.0
123.12043 104.0
123.478447 204.0
123.566925 136.0
123.786049 156.0
123.830345 48.0
123.967697 112.0
124.424599 160.0
124.577835 136.0
125.013611 184.0
125.061111 140.0
125.245148 108.0
125.329803 60.0
125.363228 100.0
125.386467 196.0
125.427856 132.0
125.562965 108.0
125.675392 96.0
125.795906 288.0
125.889679 32.0
126.079559 112.0
126.30761 180.0
126.372482 172.0
126.413116 200.0
126.48214 48.0
126.49781 48.0
126.576164 144.0
126.621849 200.0
126.647827 84.0
127.251053 60.0
127.289223 60.0
127.379051 172.0
127.51162 272.0
127.592537 32.0
127.752205 108.0
128.053818 240.0
128.141663 180.0
128.576859 240.0
128.653595 176.0
128.752945 144.0
128.9608 80.0
128.978882 108.0
129.152985 124.0
129.444931 64.0
129.515137 164.0
129.762131 180.0
130.075195 164.0
130.125137 88.0
130.168274 168.0
130.454544 84.0
130.64328 116.0
130.841263 156.0
131.194366 152.0
131.783173 128.0
131.849442 172.0
131.947739 116.0
132.030045 80.0
132.13298 72.0
132.270279 208.0
132.341248 128.0
132.451172 132.0
132.634476 96.0
132.739929 60.0
132.778915 192.0
132.882141 216.0
133.0681 340.0
133.242584 160.0
133.511993 152.0
133.654129 132.0
133.898132 156.0
134.105484 168.0
134.135452 64.0
134.287628 200.0
134.342987 140.0
134.446808 136.0
134.60379 52.0
134.654587 116.0
134.998932 196.0
135.031296 112.0
135.047485 208.0
135.082657 264.0
135.126144 160.0
135.281189 156.0
135.299713 200.0
135.406219 148.0
135.54985 136.0
135.913895 152.0
136.050827 1064.0
136.401581 52.0
136.636459 152.0
136.85704 316.0
136.976318 60.0
137.022919 168.0
137.056152 476.0
137.083496 184.0
137.230347 172.0
137.491592 156.0
137.851212 216.0
137.942368 96.0
137.99379 104.0
138.014832 296.0
138.138794 136.0
138.281509 168.0
138.66626 228.0
138.788498 224.0
138.84848 156.0
138.90242 188.0
138.937607 152.0
138.958725 196.0
138.989227 164.0
139.075974 1852.0
139.146469 112.0
139.240402 160.0
139.277969 44.0
139.323395 96.0
139.357849 64.0
139.449493 120.0
139.527069 48.0
139.639923 152.0
139.875214 116.0
140.078033 736.0
140.148392 128.0
140.209656 28.0
140.497314 208.0
140.55159 188.0
140.679031 44.0
140.733322 144.0
140.903381 136.0
140.931732 224.0
141.066437 80.0
141.085342 168.0
141.132629 228.0
141.433075 312.0
141.691177 132.0
141.918701 48.0
141.975616 104.0
142.229477 196.0
142.386169 160.0
142.578598 88.0
142.659409 132.0
143.006683 164.0
143.078766 188.0
143.194778 196.0
143.270996 148.0
143.292435 176.0
143.530777 180.0
143.576096 152.0
144.187241 164.0
144.244415 148.0
144.541153 44.0
144.751938 68.0
145.029694 116.0
145.207123 224.0
145.228699 100.0
145.583893 108.0
145.718399 280.0
145.994827 196.0
146.22612 224.0
146.596634 172.0
146.924545 64.0
147.029297 136.0
147.134506 132.0
147.175552 36.0
147.255234 64.0
147.550095 172.0
147.583878 68.0
147.605637 132.0
147.687866 152.0
147.964951 228.0
148.635086 188.0
148.712753 184.0
148.76857 144.0
148.953125 176.0
148.974991 96.0
148.994415 188.0
149.071365 2776.0
149.132919 52.0
149.218002 44.0
149.290955 216.0
149.312836 76.0
149.395538 212.0
149.760651 100.0
149.862961 224.0
149.88002 172.0
149.938507 116.0
149.984818 216.0
150.004318 152.0
150.036011 176.0
150.074982 324.0
150.192062 148.0
150.285187 184.0
150.333572 220.0
150.38237 48.0
150.458054 96.0
150.52153 128.0
150.560593 124.0
150.609451 40.0
150.653412 176.0
150.686417 236.0
150.7267 144.0
150.756027 140.0
150.780563 104.0
150.812805 188.0
150.845108 180.0
150.877548 220.0
150.915665 260.0
150.951584 176.0
150.999908 164.0
151.029984 216.0
151.076614 122232.0
151.126953 228.0
151.149719 288.0
151.168884 156.0
151.191132 172.0
151.23085 60.0
151.299652 264.0
151.310028 116.0
151.317261 232.0
151.333786 100.0
151.358414 96.0
151.392349 176.0
151.433685 60.0
151.477997 520.0
151.520782 88.0
151.545425 76.0
151.570053 84.0
151.606064 56.0
151.65155 52.0
151.68573 60.0
151.718445 76.0
151.751404 68.0
151.785019 208.0
151.803741 64.0
151.847885 52.0
151.867508 128.0
151.90184 88.0
151.948456 128.0
151.968079 84.0
152.019608 96.0
152.079224 11220.0
152.15271 52.0
152.174698 64.0
152.215988 52.0
152.254288 140.0
152.289658 80.0
152.318848 104.0
152.355362 96.0
152.365402 72.0
152.404083 72.0
152.427231 32.0
152.469009 56.0
152.569778 56.0
152.623871 48.0
152.67305 72.0
152.761292 160.0
152.820633 88.0
152.889053 208.0
152.948608 44.0
152.979187 168.0
153.01683 180.0
153.046219 92.0
153.050629 108.0
153.079956 1012.0
153.134811 140.0
153.172668 72.0
153.198685 200.0
153.272003 88.0
153.280396 116.0
153.28772 128.0
153.332581 84.0
153.353775 172.0
153.385757 108.0
153.488129 56.0
153.569504 104.0
153.626236 48.0
153.68544 52.0
153.705185 72.0
153.754532 68.0
154.013779 84.0
154.045883 204.0
154.094025 212.0
154.184113 72.0
154.221313 64.0
154.26384 156.0
154.421585 120.0
154.760605 64.0
154.824097 108.0
154.873566 104.0
154.917984 116.0
155.109909 120.0
155.437271 36.0
155.705368 96.0
156.115402 52.0
156.287048 148.0
159.086151 48.0
159.112686 144.0
160.772491 96.0
160.928986 76.0
161.103241 200.0
161.361023 216.0
161.378723 108.0
161.581039 92.0
162.138107 68.0
162.904358 60.0
163.089844 160.0
163.107635 40.0
163.214417 56.0
163.860886 96.0
164.067307 152.0
164.48822 52.0
165.020004 760.0
165.280457 40.0
165.426331 120.0
165.756714 108.0
166.080933 184.0
166.344025 96.0
168.143143 36.0
176.037918 112.0
176.08017 168.0
179.0345 148.0
179.063797 96.0
180.037201 56.0
181.849655 116.0
186.919479 124.0
187.153564 132.0
189.053391 120.0
190.984818 96.0
191.066635 216.0
193.011765 324.0
193.537491 100.0
199.156815 172.0
203.068695 176.0
206.094727 144.0
209.08194 540.0
210.084686 184.0
214.021103 112.0
216.462158 80.0
220.117203 56.0
220.847137 92.0
221.08078 812.0
221.731873 116.0
222.041229 160.0
222.079514 140.0
222.66394 40.0
223.082886 180.0
223.205841 56.0
223.624222 52.0
225.099899 68.0
227.182968 128.0
240.058685 196.0
243.285721 88.0
248.092987 188.0
249.069153 236.0
249.86734 160.0
250.081314 160.0
250.260742 64.0
251.935394 80.0
252.162903 64.0
252.31778 60.0
253.850235 40.0
254.840546 116.0
264.658691 68.0
268.147522 84.0
272.246704 44.0
273.01239 124.0
273.104462 108.0
274.240387 40.0
278.110504 240.0
279.114838 204.0
297.299103 48.0
301.293182 44.0
309.249237 84.0
311.21933 76.0
312.245422 48.0
321.106628 64.0
331.036255 200.0
342.239136 88.0
344.710449 76.0
347.550476 72.0
356.72287 112.0
360.907593 52.0
366.803345 32.0
367.184631 176.0
379.51712 60.0
383.735596 32.0
396.998718 100.0
399.600403 68.0
402.110779 116.0
410.995392 76.0
413.322754 140.0
414.298462 104.0
419.224731 128.0
419.422546 48.0
444.188904 52.0
451.707855 72.0
467.201721 56.0
468.092651 52.0
470.882782 40.0
476.457489 128.0
499.097748 56.0
512.904358 84.0
534.542603 36.0
543.256226 44.0
553.018066 48.0
559.848938 28.0
579.567322 44.0
581.192749 60.0
629.659363 80.0
659.781311 132.0
661.382446 104.0
697.049988 100.0
737.61554 116.0
761.064514 20.0
764.307373 128.0
799.708008 168.0
801.763672 128.0
823.652771 144.0
828.732727 68.0
828.818665 136.0
846.461853 168.0
856.415771 232.0
863.349121 56.0
865.437195 128.0
871.150269 188.0
880.05481 188.0
883.470764 188.0
889.538818 200.0
899.210876 216.0
910.820312 68.0
915.366943 108.0
922.703735 192.0
927.916321 112.0
929.202026 96.0
945.391541 172.0
956.844971 112.0
957.245178 108.0
961.529602 212.0
961.992493 48.0
962.449341 176.0
962.659302 60.0
973.558167 56.0
973.638916 240.0
982.196655 176.0
990.347107 160.0
993.76355 224.0
1004.704102 168.0
1009.687683 220.0
1012.712891 160.0
1017.475037 200.0
1018.376709 244.0
1026.701172 204.0
1030.179688 224.0
1033.280151 228.0
1042.828125 164.0
1044.467651 156.0
1045.143188 192.0
1045.831787 184.0
1046.198608 208.0
1049.710083 160.0
1050.974243 224.0
1066.334473 164.0
1080.026245 192.0
1084.354004 176.0
1089.202759 172.0
1091.930298 176.0
1095.234253 128.0
1096.28186 184.0
1098.879761 168.0
1101.328735 144.0
1110.422607 152.0
1111.391113 232.0
1113.800903 160.0
1114.923706 196.0
1118.894653 140.0
1121.459229 124.0
1125.90918 76.0
1127.559326 200.0
1127.786499 32.0
1128.020508 120.0
1128.468384 92.0
1128.695679 156.0
1133.756348 200.0
1134.567383 164.0
1135.432251 168.0
1136.0896 156.0
1137.518921 200.0
1138.331299 236.0
1138.505859 180.0
1142.747314 192.0
1142.942383 236.0
1143.62207 212.0
1145.803833 188.0
1146.383301 128.0
1147.313354 132.0
1157.644165 124.0
1158.612671 88.0
1160.212036 120.0
1163.285034 176.0
1164.147217 204.0
1164.615845 128.0
1166.633911 164.0
1167.885132 212.0
1173.060059 168.0
1174.164551 184.0
1175.187744 156.0
1176.136353 76.0
1176.272827 116.0
1178.294189 168.0
1179.230347 36.0
1179.29187 188.0
1180.248901 220.0
1181.794678 148.0
1182.561035 96.0
1182.821167 176.0
1183.403076 140.0
1183.964478 168.0
1185.087891 152.0
1185.231812 252.0
1185.608643 204.0
1185.759399 148.0
1186.17749 172.0
1186.540527 156.0
1188.029053 176.0
1189.785767 220.0
1192.780884 144.0
1196.048096 208.0
1196.103149 132.0
1198.058716 32.0
1198.671997 160.0
1206.049316 240.0
1206.712891 148.0
1206.885742 132.0
1212.874023 156.0
1215.217896 160.0
1215.696655 152.0
1219.314819 164.0
1221.13623 208.0
1222.318848 148.0
1223.091431 112.0
1224.853027 168.0
1225.598389 140.0
1226.239502 188.0
1227.3479 76.0
1227.682617 208.0
1228.066162 152.0
1228.673096 168.0
1229.873291 184.0
1231.583862 120.0
1231.919189 248.0
1234.519165 136.0
1235.15564 180.0
1235.316528 256.0
1238.151123 160.0
1240.63147 124.0
1244.096924 188.0
1244.188232 100.0
1245.536499 212.0
1246.196777 260.0
1247.939819 136.0
1248.143677 172.0
1248.523438 176.0
1251.922485 188.0
1252.309814 112.0
1253.620117 164.0
1253.824463 148.0
1255.008789 220.0
1255.086304 152.0
1256.23584 196.0
1256.560425 196.0
1256.955444 120.0
1260.146851 160.0
1261.263428 136.0
1261.567383 168.0
1265.850952 216.0
1267.08728 240.0
1268.317749 208.0
1268.695923 160.0
1270.412109 152.0
1273.85498 140.0
1274.984619 68.0
1275.674072 140.0
1275.929932 208.0
1276.704956 152.0
1277.900024 104.0
1278.504761 160.0
1279.914185 152.0
1280.377075 176.0
1280.768799 156.0
1281.502563 124.0
1281.901611 228.0
1284.161499 180.0
1286.994507 132.0
1288.358521 224.0
1288.437134 164.0
1288.865845 136.0
1293.278198 172.0
1298.128174 84.0
1300.646362 140.0
1301.378662 172.0
1301.543823 196.0
1302.21875 108.0
1302.700073 120.0
1303.066406 112.0
1306.200684 168.0
1307.179199 172.0
1308.280273 176.0
1308.431519 152.0
1311.139771 196.0
1311.709229 40.0
1312.595947 188.0
1312.682495 288.0
1313.281006 192.0
1313.612793 200.0
1314.846558 128.0
1316.066528 204.0
1316.550293 128.0
1318.696045 104.0
1319.216431 192.0
1319.62854 76.0
1322.48584 148.0
1323.60791 176.0
1325.13623 164.0
1326.121704 240.0
1326.955322 116.0
1327.238037 172.0
1327.99231 104.0
1328.40564 72.0
1328.66687 156.0
1328.717651 120.0
1329.552124 136.0
1329.660889 240.0
1331.011108 204.0
1332.58728 196.0
1332.885132 144.0
1332.957764 284.0
1333.21936 152.0
1333.415649 56.0
1334.891357 184.0
1337.939941 184.0
1338.12915 208.0
1338.726196 168.0
1339.163208 36.0
1340.984619 208.0
1341.035645 136.0
1342.559326 176.0
1342.909424 124.0
1343.026123 168.0
1343.602417 184.0
1344.901245 152.0
1345.865601 216.0
1346.573242 40.0
1351.448975 236.0
1351.712402 192.0
1354.098877 148.0
1354.838623 216.0
1358.570068 148.0
1360.265137 180.0
1362.078857 132.0
1362.335938 156.0
1362.828125 144.0
1363.217529 136.0
1364.967041 136.0
1365.864258 64.0
1366.07019 168.0
1367.048706 156.0
1367.247437 120.0
1369.301392 132.0
1370.457886 100.0
1371.239014 180.0
1371.769775 148.0
1372.108765 152.0
1372.86084 164.0
1373.804932 232.0
1374.59436 132.0
1374.741943 216.0
1374.963379 80.0
1375.081421 144.0
1375.98938 164.0
1378.15332 148.0
1378.26416 228.0
1380.65918 128.0
1381.258423 236.0
1381.502441 48.0
1382.538208 144.0
1383.145142 124.0
1383.27832 176.0
1383.337524 192.0
1383.389404 48.0
1384.144531 160.0
1384.603638 160.0
1384.98877 36.0
1385.062866 196.0
1385.648071 140.0
1387.204346 172.0
1387.708374 80.0
1387.7677 68.0
1388.405396 104.0
1390.497559 128.0
1391.67041 136.0
1393.11853 184.0
1394.039795 156.0
1394.478271 168.0
1394.626953 216.0
1396.879883 160.0
1397.564331 240.0
1397.720581 148.0
1400.125 48.0
1401.355347 232.0
1403.023438 212.0
1403.299316 196.0
1403.567749 148.0
1403.687012 168.0
1403.836182 140.0
1403.888306 72.0
1404.805786 184.0
1404.865356 100.0
1405.671143 124.0
1407.918091 212.0
1408.821899 208.0
1409.075928 196.0
1409.927734 148.0
1411.430176 152.0
1411.579712 68.0
1411.923706 196.0
1413.532104 104.0
1414.160645 188.0
1416.654053 120.0
1417.11853 164.0
1417.92041 148.0
1418.15271 228.0
1419.127197 152.0
1419.614624 184.0
1419.75708 208.0
1419.80957 48.0
1420.282104 244.0
1420.672119 124.0
1422.105225 232.0
1422.382935 200.0
1423.674316 124.0
1424.500488 148.0
1425.447144 104.0
1426.559448 52.0
1427.236084 156.0
1428.371704 160.0
1429.643188 232.0
1429.914062 160.0
1430.162476 148.0
1430.554321 124.0
1430.719482 132.0
1431.472412 120.0
1432.549438 116.0
1433.69458 32.0
1434.380493 128.0
1435.647095 160.0
1438.51416 196.0
1439.102905 144.0
1439.389893 264.0
1440.175293 32.0
1441.905396 192.0
1442.714233 132.0
1445.383911 120.0
1445.921265 192.0
1447.223267 204.0
1447.844116 132.0
1448.207642 160.0
1448.768188 160.0
1448.828735 208.0
1449.321289 76.0
1449.487915 176.0
1450.260986 80.0
1450.965942 160.0
1452.687378 64.0
1452.876953 164.0
1453.089355 240.0
1454.827271 168.0
1459.446411 184.0
1459.651733 164.0
1459.963501 152.0
1461.735962 164.0
1462.671997 172.0
1463.025757 196.0
1463.151611 164.0
1464.644043 188.0
1465.05542 156.0
1465.83252 208.0
1466.670898 184.0
1466.85376 124.0
1467.40271 200.0
1468.859253 196.0
1472.217407 232.0
1472.30896 220.0
1472.904663 144.0
1473.057495 224.0
1473.393555 100.0
1474.585571 216.0
1477.047607 212.0
1477.720703 188.0
1478.371094 48.0
1478.447632 124.0
1478.876221 176.0
1480.629517 148.0
1482.18457 148.0
1484.445801 224.0
1485.649902 184.0
1486.179199 164.0
1486.23291 140.0
1488.128784 124.0
1489.603271 172.0
1490.686523 96.0
1490.916992 184.0
1491.447388 164.0
1492.515869 220.0
1492.63623 224.0
1493.077271 56.0
1493.184937 224.0
1494.000244 180.0
1495.700806 208.0
1497.240601 244.0
1497.379272 160.0
1498.041382 180.0
1498.465332 152.0
1499.420898 64.0
1500.207031 172.0
1500.700439 52.0
1501.502441 220.0
1503.369263 216.0
