>compound MLS000069643-01!BENZOYL-BETA-ALANINE
>formula C10H11NO3
>ionization [M+H]+
>parentmass 194.083
#inchi InChI=1S/C10H11NO3/c12-9(13)6-7-11-10(14)8-4-2-1-3-5-8/h1-5H,6-7H2,(H,11,14)(H,12,13)
#inchikey CWXYHOHYCJXYFQ
#Ion_Source LC-ESI
#Instrument qTof
#Compound_Source NIH Pharmacologically Active Library
#PI Dorrestein
#Data_Collector VP/LMS
#Scan -1
#Precursor_MZ 194.083
#ExactMass 193.074
#Charge 1
#CAS_Number N/A
#Pubmed_ID N/A
#Smiles OC(=O)CCNC(=O)c1ccccc1
#INCHI_AUX N/A
#Library_Class 3
#SpectrumID CCMSLIB00000086164
#IonMode Positive
#UpdateWorkflowName UPDATE-SINGLE-ANNOTATED-BRONZE
#LibraryQualityString Bronze
#TaskID d252d724072548979f1f6f1ced849daf
##Scan# 1233
#SpectrumFile p5-G04_GG4_01_18473.mzXML
#LibraryName Pharm_Active_Library.mgf
#MQScore -1
#Organism Pharm_Active_Library
#TIC_Query 0
#RT_Query -1
#MZErrorPPM -1
#SharedPeaks 0
#MassDiff 0
#LibMZ -1
#SpecMZ 194.083
#SpecCharge 0
#internalFilename spec-00000.mgf

>collision 10
45.05088 216.0
47.204098 116.0
47.329987 136.0
54.78867 188.0
77.407272 128.0
80.707527 216.0
84.412811 228.0
85.370049 188.0
85.692169 124.0
91.378983 204.0
104.668579 116.0
105.033241 1692.0
106.036057 380.0
106.484566 96.0
107.142807 92.0
113.936577 208.0
118.017487 212.0
128.060486 96.0
135.066101 148.0
149.082413 140.0
153.005859 164.0
175.095169 160.0
935.901245 132.0
1097.89624 180.0
1100.707397 224.0
1159.243774 148.0
1197.92981 220.0
1227.343628 188.0
1278.423584 160.0
1309.984741 108.0
1322.375366 36.0
1329.202026 180.0
1365.68689 176.0
1390.823853 76.0
