>compound MLS002153823-01!Metrizamide31112-62-6
>formula C18H22I3N3O8
>ionization [M+H]+
>parentmass 789.8613851160906
#inchi InChI=1S/C18H22I3N3O8/c1-5(26)22-12-9(19)8(10(20)14(11(12)21)24(3)6(2)27)17(30)23-13-16(29)15(28)7(4-25)32-18(13)31/h7,13,15-16,18,25,28-29,31H,4H2,1-3H3,(H,22,26)(H,23,30)/t7-,13-,15-,16-,18?/m1/s1
#inchikey BAQCROVBDNBEEB
#Ion_Source LC-ESI
#Instrument qTof
#Compound_Source NIH Pharmacologically Active Library
#PI Dorrestein
#Data_Collector VP/LMS
#Scan -1
#Precursor_MZ 789.876
#ExactMass 788.854
#Charge 1
#CAS_Number N/A
#Pubmed_ID N/A
#Smiles CN(C(=O)C)c1c(I)c(NC(=O)C)c(I)c(C(=O)N[C@H]2C(O)O[C@H](CO)[C@@H](O)[C@@H]2O)c1I
#INCHI_AUX N/A
#Library_Class 1
#SpectrumID CCMSLIB00000085537
#IonMode Positive
#UpdateWorkflowName UPDATE-SINGLE-ANNOTATED-GOLD
#LibraryQualityString Gold
#TaskID d252d724072548979f1f6f1ced849daf
##Scan# 1102
#SpectrumFile p4-C04_GC4_01_18352.mzXML
#LibraryName Pharm_Active_Library.mgf
#MQScore -1
#Organism Pharm_Active_Library
#TIC_Query 0
#RT_Query -1
#MZErrorPPM -1
#SharedPeaks 0
#MassDiff 0
#LibMZ -1
#SpecMZ 789.876
#SpecCharge 0
#internalFilename spec-00000.mgf

>collision 10
45.04665 208.0
45.078716 208.0
45.109455 56.0
46.644859 220.0
49.986748 224.0
50.013485 160.0
50.279861 60.0
50.782116 124.0
52.006313 112.0
52.160004 92.0
53.221855 116.0
53.706463 84.0
54.193264 128.0
55.371738 60.0
55.958282 184.0
55.973171 212.0
56.240028 152.0
56.76664 292.0
57.59288 84.0
58.028702 160.0
60.76965 148.0
60.817753 124.0
61.165928 172.0
61.774498 144.0
62.511906 100.0
63.256851 152.0
63.302765 156.0
64.876961 196.0
65.627762 136.0
65.648727 124.0
66.412079 124.0
66.884903 128.0
67.504868 104.0
68.451698 120.0
70.589035 124.0
71.562233 192.0
71.890923 124.0
72.487854 156.0
73.107674 168.0
73.434769 224.0
73.788246 216.0
74.293449 192.0
74.568184 120.0
75.286591 168.0
75.694695 168.0
76.840118 48.0
77.117767 188.0
78.603493 132.0
79.617828 72.0
79.884438 84.0
80.033936 116.0
80.629738 212.0
80.717331 92.0
81.304901 240.0
84.059242 68.0
85.343269 184.0
85.868088 80.0
86.174515 120.0
86.364922 172.0
88.619331 96.0
89.219894 140.0
89.628311 164.0
92.563095 208.0
93.605774 88.0
95.479027 152.0
95.609367 164.0
96.25071 136.0
96.469521 116.0
96.692505 196.0
96.808006 88.0
96.888313 136.0
97.031372 164.0
97.152962 188.0
99.402214 60.0
99.817368 100.0
101.004005 228.0
102.189613 156.0
102.26004 268.0
102.360695 124.0
102.963661 176.0
105.00943 136.0
105.068581 64.0
107.289612 104.0
107.44841 124.0
107.86969 248.0
108.269012 172.0
109.463066 192.0
109.919571 108.0
110.071953 152.0
110.492058 120.0
111.866615 216.0
113.086647 148.0
113.805283 160.0
114.13887 160.0
115.187416 104.0
115.2686 104.0
115.371193 156.0
115.957687 160.0
116.242905 160.0
116.801491 188.0
117.270882 120.0
117.309677 60.0
118.639153 164.0
120.061157 212.0
120.427803 96.0
121.068604 124.0
122.082458 140.0
122.630646 156.0
123.328094 172.0
123.480652 120.0
123.522675 192.0
125.169434 144.0
126.359085 36.0
126.719536 172.0
127.03788 180.0
127.21067 144.0
127.459961 152.0
127.745491 332.0
127.806236 128.0
128.920166 184.0
129.001526 68.0
129.225418 92.0
129.401962 196.0
129.673203 248.0
129.861969 140.0
131.283371 124.0
132.041565 156.0
132.073578 76.0
133.045166 164.0
135.505936 132.0
136.060226 164.0
136.992767 192.0
137.221146 216.0
142.075409 136.0
142.876007 176.0
143.378418 216.0
144.130096 52.0
144.507874 140.0
145.476074 80.0
146.985107 132.0
147.17337 176.0
147.422165 96.0
147.622803 132.0
148.249786 140.0
149.167206 152.0
149.303925 140.0
149.422562 132.0
149.451752 160.0
150.021637 180.0
150.219162 100.0
150.37532 220.0
151.323776 104.0
151.419281 164.0
151.451111 128.0
152.248199 184.0
152.398041 108.0
154.044708 152.0
154.681702 144.0
155.035873 76.0
155.075516 108.0
155.21434 96.0
156.150558 132.0
156.618469 160.0
156.695694 104.0
157.109543 180.0
157.768829 188.0
158.527206 176.0
159.068939 252.0
159.757477 96.0
160.061844 336.0
160.944519 176.0
161.044418 208.0
161.978882 104.0
162.044739 176.0
162.62291 112.0
162.75238 112.0
162.945404 60.0
163.054718 188.0
163.1716 132.0
164.039413 192.0
164.057938 240.0
164.4478 140.0
165.066025 200.0
165.314148 236.0
166.075043 56.0
166.300827 168.0
166.611526 204.0
166.853104 136.0
168.425018 148.0
168.587784 128.0
169.866791 180.0
169.926468 76.0
170.489929 176.0
170.695282 220.0
171.351181 152.0
172.538651 128.0
173.080231 164.0
173.591202 112.0
173.759064 136.0
173.827286 112.0
173.869263 256.0
174.058334 332.0
174.080963 112.0
174.184326 32.0
174.210602 148.0
174.602234 72.0
175.094376 88.0
175.568741 188.0
176.043747 188.0
176.085999 140.0
176.117691 132.0
176.326416 128.0
176.489166 92.0
177.618484 40.0
178.072357 120.0
178.808792 152.0
178.936569 220.0
179.381454 68.0
179.947006 164.0
180.387802 136.0
180.505432 148.0
180.786316 68.0
181.767075 108.0
181.941528 176.0
182.963104 184.0
183.480362 212.0
183.56395 116.0
183.65564 32.0
184.357574 200.0
185.014832 244.0
185.108276 196.0
185.917419 140.0
186.053131 120.0
186.19162 160.0
187.020844 176.0
187.050354 160.0
187.219589 76.0
187.314911 128.0
188.914551 220.0
190.059738 144.0
190.298523 160.0
190.496262 116.0
190.740814 236.0
191.021301 208.0
191.042328 524.0
192.053589 156.0
192.537216 144.0
193.051224 148.0
193.352768 52.0
193.541 148.0
193.781967 124.0
193.884491 156.0
197.168411 220.0
197.654984 88.0
197.744537 192.0
198.952637 88.0
198.994751 168.0
199.978622 172.0
200.032104 220.0
200.054611 200.0
200.736435 140.0
201.020721 200.0
201.065628 2452.0
201.166733 140.0
201.199158 84.0
201.218918 56.0
201.303635 88.0
201.56633 48.0
202.074051 1064.0
202.219589 116.0
202.407394 176.0
202.69252 176.0
202.854065 156.0
202.881805 56.0
202.924942 100.0
202.953293 36.0
203.080276 536.0
203.580383 200.0
203.750809 140.0
203.801956 44.0
204.090149 284.0
204.205612 148.0
205.062363 372.0
205.091095 252.0
205.852814 148.0
206.061981 364.0
206.158478 172.0
206.801956 80.0
207.074341 200.0
207.300262 124.0
207.397705 132.0
207.845078 44.0
208.347519 112.0
208.456696 148.0
209.907486 108.0
210.043045 116.0
210.591446 88.0
210.822571 84.0
211.508011 116.0
211.545639 128.0
211.635391 200.0
212.006165 172.0
213.010025 104.0
213.355835 184.0
213.483765 148.0
213.873627 104.0
214.272568 184.0
214.307526 76.0
214.628143 168.0
215.039474 144.0
215.06282 148.0
215.497925 148.0
218.074753 200.0
218.697281 140.0
218.779694 144.0
219.734543 224.0
220.342728 104.0
221.022751 160.0
221.419418 184.0
221.546783 108.0
223.265335 108.0
223.854553 152.0
224.066025 220.0
224.772659 112.0
225.01442 116.0
226.093475 120.0
227.03714 104.0
227.112122 160.0
227.487198 136.0
227.844559 136.0
228.061951 184.0
229.029755 76.0
229.072311 160.0
229.180389 108.0
230.09726 112.0
230.846588 140.0
231.073441 156.0
231.884964 128.0
231.963776 124.0
232.115356 116.0
233.059006 220.0
233.135315 236.0
233.70697 144.0
234.062576 1712.0
234.127045 92.0
234.261063 120.0
234.751755 120.0
235.064056 160.0
235.218552 84.0
236.071625 164.0
236.618652 104.0
236.973923 148.0
237.019882 204.0
237.301865 116.0
237.458252 160.0
238.093536 148.0
238.569778 92.0
238.908051 164.0
239.092667 100.0
240.884033 128.0
240.927277 52.0
240.989059 160.0
241.026138 220.0
241.087952 116.0
242.022125 32.0
242.065475 132.0
242.548767 216.0
243.105728 248.0
244.211655 212.0
244.951721 112.0
245.056671 340.0
245.140762 120.0
246.087036 236.0
246.473175 144.0
246.782608 148.0
246.945221 148.0
247.092239 368.0
248.106918 204.0
248.51149 164.0
248.693512 256.0
249.1017 144.0
249.375061 116.0
249.397064 48.0
249.755508 140.0
251.905243 232.0
252.07901 136.0
253.062714 128.0
253.826324 116.0
254.067368 112.0
254.093216 188.0
254.286316 128.0
254.454544 64.0
254.584732 176.0
254.622833 268.0
254.962769 176.0
255.095337 152.0
255.827911 56.0
256.213257 224.0
256.296082 140.0
257.067749 320.0
257.090088 128.0
257.68399 176.0
257.993988 100.0
258.086334 172.0
258.118683 208.0
258.166626 112.0
258.640137 164.0
258.976349 88.0
260.940216 168.0
261.290771 32.0
261.973267 124.0
262.082794 112.0
262.227814 92.0
262.479248 164.0
262.78244 80.0
262.943512 840.0
262.976074 140.0
263.952637 164.0
264.022827 236.0
264.078308 180.0
264.886993 180.0
265.175354 276.0
266.103088 144.0
266.210236 120.0
266.353149 220.0
266.834106 112.0
267.089905 168.0
267.224365 104.0
267.533539 88.0
267.585632 148.0
268.114746 184.0
269.049438 148.0
269.087402 180.0
269.121277 80.0
269.27475 88.0
269.575287 156.0
270.00354 124.0
270.083893 160.0
271.091492 168.0
271.910248 140.0
272.096039 320.0
273.924683 164.0
274.782898 140.0
274.901672 28.0
275.178955 132.0
275.403503 160.0
275.965759 112.0
276.21991 132.0
276.845459 152.0
276.951416 120.0
277.518097 220.0
277.547943 76.0
277.879608 152.0
280.900269 176.0
281.075134 168.0
281.654663 156.0
281.754883 232.0
282.082367 132.0
282.684387 96.0
282.761353 116.0
283.10083 204.0
283.166443 148.0
284.064728 172.0
284.162018 108.0
284.561401 100.0
285.10257 176.0
285.340851 76.0
285.960693 192.0
286.080963 164.0
286.117981 240.0
286.330109 192.0
286.394104 116.0
286.842255 160.0
286.970886 472.0
287.004089 228.0
287.739594 144.0
287.948334 468.0
288.101501 124.0
288.810791 152.0
288.951385 200.0
289.088226 112.0
289.548615 120.0
289.955292 300.0
290.395905 120.0
290.963776 148.0
293.245056 140.0
293.313202 104.0
293.705353 132.0
294.095093 208.0
295.095215 168.0
295.837585 152.0
296.093536 160.0
296.385559 132.0
297.106873 344.0
297.170746 80.0
297.54483 120.0
298.079987 356.0
298.558472 204.0
299.082123 172.0
299.873596 148.0
300.102081 312.0
300.804871 36.0
300.880829 128.0
300.929138 88.0
300.970581 140.0
301.73761 176.0
301.932739 188.0
301.972534 144.0
302.754883 116.0
302.917664 148.0
302.952301 92.0
303.482544 44.0
304.33609 196.0
304.65213 84.0
304.843231 144.0
304.968231 140.0
305.128235 136.0
305.284698 192.0
306.447296 156.0
307.259613 96.0
307.500397 124.0
308.258209 56.0
309.079926 136.0
309.198914 140.0
309.626007 224.0
310.081696 440.0
311.091309 212.0
311.741394 64.0
312.101196 556.0
312.981598 76.0
313.090424 112.0
313.469177 36.0
313.954468 224.0
314.974091 288.0
315.790131 100.0
316.092834 116.0
316.843445 176.0
316.981628 316.0
317.626862 100.0
317.985229 76.0
318.272766 40.0
318.500031 92.0
318.96347 324.0
319.210815 128.0
319.285492 240.0
319.826294 200.0
319.943756 128.0
320.004303 120.0
320.242889 96.0
320.271362 120.0
320.784485 104.0
320.923523 116.0
321.87262 132.0
321.940094 112.0
322.029755 232.0
322.072937 552.0
322.111908 104.0
322.490662 172.0
323.087799 108.0
324.099396 532.0
324.144012 192.0
324.886169 152.0
325.108948 228.0
325.984833 164.0
326.121399 140.0
326.765076 140.0
326.937805 76.0
326.998993 116.0
327.481445 128.0
327.546265 148.0
327.784058 60.0
327.892151 116.0
327.917389 72.0
327.96994 1012.0
328.050751 44.0
328.108429 108.0
328.259857 168.0
328.548401 84.0
328.588074 48.0
328.671082 64.0
328.735535 176.0
328.832245 164.0
328.871307 156.0
328.907379 200.0
328.97876 26044.0
329.05188 288.0
329.100586 88.0
329.183624 44.0
329.212524 60.0
329.258118 100.0
329.317261 128.0
329.342529 156.0
329.378662 52.0
329.414795 92.0
329.48703 40.0
329.576874 228.0
329.76889 48.0
329.844788 56.0
329.895386 160.0
329.922455 140.0
329.980408 3772.0
330.032623 100.0
330.124634 128.0
330.20636 112.0
330.278687 84.0
330.339142 28.0
330.416901 76.0
330.479462 44.0
330.516235 120.0
330.550018 92.0
330.694275 56.0
330.982422 404.0
331.071289 72.0
331.111145 144.0
331.285004 124.0
331.448029 128.0
331.487885 104.0
331.535004 40.0
331.759705 108.0
331.832214 180.0
331.940979 104.0
331.987396 144.0
332.024414 64.0
332.060669 84.0
332.089325 84.0
332.129578 32.0
332.180359 68.0
332.223877 68.0
332.292816 124.0
332.666626 48.0
332.900269 68.0
332.973724 280.0
333.055786 68.0
333.100433 88.0
333.393036 64.0
333.574768 72.0
333.969635 120.0
334.695282 44.0
334.837311 28.0
335.197968 56.0
335.22345 172.0
336.111908 136.0
336.518341 64.0
337.20874 108.0
337.40979 72.0
337.980347 112.0
338.960968 132.0
338.971283 152.0
339.650879 108.0
339.9664 148.0
341.090271 36.0
341.93988 60.0
342.282257 120.0
342.949036 212.0
343.967407 132.0
344.193756 76.0
344.799561 224.0
344.93399 136.0
344.970825 176.0
345.005096 224.0
345.038361 108.0
345.952118 156.0
346.115021 100.0
346.985504 224.0
347.905731 116.0
347.976166 140.0
348.85675 144.0
349.555969 112.0
349.909546 132.0
349.991455 132.0
350.736542 36.0
350.867004 40.0
351.975128 132.0
353.466553 92.0
353.987183 188.0
354.11792 136.0
354.60498 228.0
354.953033 152.0
354.961609 320.0
355.111115 144.0
355.986603 252.0
356.301056 104.0
356.440063 136.0
356.973175 1124.0
357.98233 56.0
358.818787 180.0
358.949524 148.0
359.007324 140.0
359.759979 140.0
359.958557 968.0
360.20752 148.0
360.965637 408.0
361.978302 172.0
362.238831 116.0
362.975983 140.0
363.084045 136.0
364.956116 68.0
365.347839 148.0
365.991028 228.0
366.981659 156.0
367.084625 172.0
367.572876 140.0
369.609497 104.0
371.030457 64.0
371.73233 72.0
371.985657 108.0
372.115417 80.0
372.696136 96.0
372.968994 144.0
373.103516 56.0
373.53421 140.0
373.987671 172.0
374.013275 168.0
374.146088 176.0
374.970398 148.0
376.911438 96.0
378.954376 192.0
379.004761 128.0
379.950745 100.0
379.987274 212.0
380.997467 272.0
381.535248 116.0
381.834656 48.0
381.992218 120.0
382.978455 176.0
383.692017 104.0
385.401459 84.0
385.592957 144.0
385.628113 36.0
387.808167 112.0
388.180603 40.0
390.113373 304.0
391.142883 136.0
391.650177 124.0
392.976807 176.0
393.972595 172.0
394.009705 268.0
394.930786 56.0
395.005951 144.0
395.112762 128.0
395.666809 40.0
395.991638 120.0
396.950531 160.0
396.980072 96.0
397.984253 124.0
398.852203 188.0
399.96991 112.0
400.0177 104.0
400.87796 180.0
401.037384 112.0
402.461548 112.0
405.730255 88.0
408.984009 136.0
409.249695 132.0
410.003082 136.0
411.015106 148.0
411.82251 80.0
412.036591 248.0
412.875916 280.0
413.872589 276.0
413.994263 164.0
414.077209 180.0
414.849182 136.0
414.995117 108.0
416.010956 400.0
416.106781 32.0
416.991119 176.0
417.167084 132.0
417.984589 168.0
421.630219 88.0
421.994965 104.0
423.012665 328.0
423.04541 96.0
424.011322 292.0
424.057159 80.0
424.967499 112.0
424.996399 92.0
425.665283 88.0
425.751526 96.0
425.992584 144.0
426.926849 104.0
427.692078 216.0
427.840271 148.0
427.881439 148.0
429.575165 128.0
430.495544 128.0
431.160645 160.0
432.968536 108.0
433.092773 80.0
435.977753 124.0
436.300415 68.0
437.240448 76.0
437.995392 424.0
438.959473 136.0
438.988983 360.0
439.845398 124.0
439.874603 160.0
439.969421 152.0
440.010376 540.0
440.860229 160.0
441.009857 240.0
441.044189 216.0
441.558441 112.0
441.8638 92.0
442.897766 112.0
443.354431 124.0
443.970673 100.0
444.1091 116.0
444.818207 164.0
445.868225 256.0
446.43576 40.0
446.860596 72.0
447.668762 128.0
449.569946 132.0
449.99411 1644.0
450.101837 44.0
450.198944 48.0
450.583313 44.0
450.866425 100.0
450.92981 44.0
450.999573 708.0
451.81778 208.0
452.008545 532.0
452.17746 112.0
452.503387 76.0
452.989929 172.0
453.015289 64.0
453.058167 192.0
453.193756 72.0
453.234772 88.0
453.371735 108.0
453.655701 116.0
453.975159 160.0
454.856171 120.0
454.885864 132.0
455.282959 152.0
455.565308 104.0
455.607788 112.0
455.646027 132.0
455.718262 212.0
455.781982 80.0
455.884827 4752.0
456.003601 104.0
456.053955 76.0
456.194244 52.0
456.223999 104.0
456.646271 140.0
456.768311 148.0
456.889343 772.0
457.091644 40.0
457.329956 84.0
457.402313 112.0
457.781219 48.0
457.890808 164.0
459.281403 32.0
459.40509 68.0
459.464813 116.0
459.554413 128.0
459.592804 136.0
459.65683 88.0
460.5448 40.0
461.070312 64.0
463.068237 120.0
467.985107 124.0
468.855255 204.0
468.894012 52.0
469.023315 224.0
470.697235 40.0
471.017517 148.0
471.198242 116.0
471.886322 196.0
471.920013 172.0
471.984863 152.0
472.793793 104.0
472.867371 116.0
473.001526 112.0
473.555756 96.0
473.620728 68.0
475.732452 80.0
477.153046 104.0
478.397247 124.0
479.337982 164.0
480.026733 124.0
480.811951 88.0
481.257202 116.0
481.436218 80.0
481.676453 140.0
481.877136 204.0
482.866302 1892.0
483.02713 100.0
483.101471 120.0
483.469025 100.0
483.709747 68.0
483.818085 176.0
483.874542 596.0
484.200104 64.0
484.462921 92.0
484.78714 48.0
484.887665 288.0
485.054504 32.0
485.984222 88.0
486.498871 148.0
486.809418 104.0
486.862122 92.0
486.949951 76.0
486.993896 120.0
487.35849 140.0
487.872528 4556.0
487.956238 216.0
488.220062 48.0
488.285004 52.0
488.448761 132.0
488.637909 60.0
488.673126 92.0
488.756714 204.0
488.877563 552.0
488.98996 40.0
489.099976 60.0
489.17041 32.0
489.544647 84.0
489.872314 436.0
490.196594 64.0
490.584442 68.0
490.831329 40.0
490.871033 60.0
490.945984 36.0
491.329742 80.0
491.457672 144.0
491.690887 80.0
491.795654 68.0
491.881348 60.0
494.020081 104.0
495.410095 148.0
496.660126 84.0
498.025208 124.0
498.995941 100.0
499.20047 84.0
500.014465 172.0
500.197052 72.0
500.815979 112.0
502.014832 44.0
502.362701 64.0
505.70108 160.0
508.645325 116.0
510.379425 152.0
510.847168 116.0
513.978333 132.0
514.664429 88.0
515.052795 48.0
515.8526 140.0
516.017578 492.0
516.820435 120.0
516.942566 84.0
517.15979 52.0
518.027344 252.0
519.067078 132.0
521.504883 116.0
521.900391 68.0
523.888672 92.0
525.895569 144.0
532.566589 152.0
537.981689 92.0
541.71814 180.0
545.890625 124.0
551.885742 236.0
552.897461 56.0
554.208618 88.0
556.544434 160.0
557.220764 140.0
560.891357 108.0
561.678772 88.0
562.301575 132.0
565.718994 60.0
565.896484 120.0
565.906067 116.0
565.914612 148.0
566.912537 96.0
568.225952 144.0
568.771667 92.0
568.809631 60.0
569.887695 88.0
576.730896 172.0
577.739807 140.0
577.907349 468.0
578.180054 76.0
578.280518 76.0
578.920166 484.0
579.195068 72.0
579.415405 188.0
579.908691 156.0
581.731689 152.0
583.297607 52.0
584.047729 80.0
586.363586 48.0
587.187988 68.0
588.450684 60.0
588.920654 80.0
591.149414 160.0
599.911316 56.0
603.519165 84.0
604.00824 156.0
610.157654 56.0
610.364136 92.0
610.693604 168.0
610.781311 2400.0
610.868347 144.0
610.924805 76.0
611.530029 88.0
611.789978 460.0
611.992737 40.0
612.470459 52.0
612.785095 120.0
613.288391 156.0
614.33374 36.0
614.516235 104.0
620.401489 56.0
620.963318 116.0
621.274292 68.0
622.247009 44.0
625.915649 168.0
626.920654 120.0
628.772766 168.0
629.79126 108.0
636.597351 136.0
643.928406 216.0
644.94635 112.0
645.344788 72.0
647.908264 148.0
650.887939 140.0
653.805786 112.0
659.799072 104.0
661.96698 116.0
662.921326 52.0
663.967102 92.0
665.645142 88.0
669.796082 112.0
674.031067 52.0
693.823242 236.0
693.856506 296.0
694.814209 196.0
697.431335 124.0
703.679016 124.0
705.443481 96.0
705.821533 704.0
706.819519 196.0
706.88739 148.0
707.808411 136.0
710.118958 140.0
710.601624 60.0
730.937805 100.0
735.842651 92.0
741.684998 152.0
742.27594 148.0
742.395264 28.0
743.621338 128.0
753.846191 160.0
771.858459 324.0
781.803162 72.0
787.026245 68.0
789.692078 76.0
789.86908 688.0
790.323975 64.0
790.547791 84.0
790.782837 28.0
790.868835 380.0
790.939514 120.0
791.852173 112.0
814.123413 80.0
831.937744 92.0
867.324036 48.0
938.629944 56.0
1055.484863 76.0
1060.327026 80.0
1090.236816 76.0
1100.037354 80.0
1138.321289 176.0
1179.801636 64.0
1213.530151 100.0
1268.127319 52.0
1417.239014 44.0
1448.564697 112.0
1463.982788 60.0
1476.314819 164.0
