>compound MLS002154007-01!Methotrimeprazine maleate salt7104-38-3
>formula C19H24N2OS
>ionization [M+H]+
>parentmass 329.168671
#inchi InChI=1S/C19H24N2OS/c1-14(12-20(2)3)13-21-16-7-5-6-8-18(16)23-19-10-9-15(22-4)11-17(19)21/h5-11,14H,12-13H2,1-4H3/t14-/m1/s1
#inchikey VRQVVMDWGGWHTJ
#origInchi InChI=1S/C19H24N2OS.C4H4O4/c1-14(12-20(2)3)13-21-16-7-5-6-8-18(16)23-19-10-9-15(22-4)11-17(19)21;5-3(6)1-2-4(7)8/h5-11,14H,12-13H2,1-4H3;1-2H,(H,5,6)(H,7,8)/p-2/b;2-1-/t14-;/m1./s1
#Ion_Source LC-ESI
#Instrument qTof
#Compound_Source NIH Pharmacologically Active Library
#PI Dorrestein
#Data_Collector VP/LMS
#Scan -1
#Precursor_MZ 329.171
#ExactMass 328.161
#Charge 1
#CAS_Number N/A
#Pubmed_ID N/A
#Smiles COc1ccc2Sc3ccccc3N(C[C@H](C)CN(C)C)c2c1.[O-]C(=O)/C=C\C(=O)[O-]
#INCHI_AUX N/A
#Library_Class 1
#SpectrumID CCMSLIB00000084949
#IonMode Positive
#UpdateWorkflowName UPDATE-SINGLE-ANNOTATED-GOLD
#LibraryQualityString Gold
#TaskID d252d724072548979f1f6f1ced849daf
##Scan# 1795
#SpectrumFile p3-C11_GC11_01_18256.mzXML
#LibraryName Pharm_Active_Library.mgf
#MQScore -1
#Organism Pharm_Active_Library
#TIC_Query 0
#RT_Query -1
#MZErrorPPM -1
#SharedPeaks 0
#MassDiff 0
#LibMZ -1
#SpecMZ 329.171
#SpecCharge 0
#internalFilename spec-00000.mgf

>collision 10
44.918381 180.0
44.942398 44.0
45.120041 260.0
45.212616 212.0
45.260056 192.0
45.370399 160.0
45.407948 96.0
45.556946 192.0
45.652382 164.0
45.699463 148.0
45.852982 188.0
45.889381 188.0
45.99596 168.0
46.016209 128.0
46.068882 168.0
46.362507 164.0
46.403175 140.0
46.414082 184.0
46.556511 180.0
46.746838 160.0
46.765892 180.0
46.952557 164.0
47.028961 116.0
47.057632 136.0
47.239403 168.0
47.27224 84.0
47.470879 148.0
47.48048 148.0
47.60537 140.0
47.67131 116.0
47.880424 180.0
47.920372 180.0
47.956203 188.0
48.015491 168.0
48.03756 52.0
48.058258 164.0
48.123131 200.0
48.174232 128.0
48.267017 152.0
48.322163 160.0
48.349838 172.0
48.438457 204.0
48.545181 184.0
48.688126 108.0
48.905945 248.0
48.974644 128.0
49.030376 104.0
49.072197 116.0
49.129379 140.0
49.14333 148.0
49.186596 140.0
49.264797 36.0
49.301128 128.0
49.425587 128.0
49.482975 148.0
49.508183 172.0
49.540398 116.0
49.596451 64.0
49.74947 148.0
49.801315 152.0
49.85611 168.0
49.910934 128.0
50.029121 164.0
50.060097 108.0
50.088268 168.0
50.103764 180.0
50.272972 164.0
50.538635 128.0
50.578262 136.0
50.612244 228.0
50.687317 212.0
50.802166 144.0
50.871704 128.0
51.009274 200.0
51.167416 172.0
51.244587 220.0
51.309887 136.0
51.428291 164.0
51.536831 224.0
51.553978 136.0
51.649773 156.0
51.705574 128.0
51.765984 184.0
51.914745 208.0
51.962082 208.0
51.995087 152.0
52.058254 140.0
52.118587 116.0
52.194771 112.0
52.341549 136.0
52.425102 80.0
52.451046 204.0
52.612617 80.0
52.681938 56.0
52.703609 156.0
52.864124 156.0
52.990005 180.0
53.078518 228.0
53.113327 168.0
53.21056 136.0
53.228863 192.0
53.299164 92.0
53.361664 128.0
53.412563 120.0
53.6339 188.0
53.696598 204.0
53.74036 64.0
53.766628 100.0
53.787064 132.0
53.958439 156.0
54.054527 124.0
54.13065 220.0
54.265457 160.0
54.463577 112.0
54.670887 164.0
54.734188 156.0
54.756279 204.0
54.800472 152.0
54.92136 188.0
55.145794 116.0
55.219723 168.0
55.321823 172.0
55.341072 172.0
55.495167 104.0
55.557461 156.0
55.578232 156.0
55.619789 144.0
55.646511 104.0
55.7178 100.0
55.765354 164.0
55.780216 144.0
55.908134 72.0
55.918552 188.0
56.054077 108.0
56.064507 168.0
56.103264 152.0
56.128609 172.0
56.146503 180.0
56.316654 148.0
56.346531 160.0
56.487061 148.0
56.639748 116.0
56.681698 152.0
56.78664 116.0
56.857159 148.0
57.151699 152.0
57.207386 192.0
57.31131 156.0
57.362553 224.0
57.43795 128.0
57.483212 188.0
57.602489 140.0
57.637238 148.0
57.678043 196.0
57.74155 180.0
57.773315 148.0
57.873207 160.0
57.955002 124.0
58.014111 128.0
58.079319 36.0
58.474369 160.0
58.529175 148.0
58.548973 108.0
58.561157 128.0
58.744076 88.0
58.99147 180.0
59.028164 120.0
59.357399 52.0
59.388073 132.0
59.708286 124.0
59.742924 44.0
59.804474 192.0
59.832184 80.0
59.895325 204.0
59.919971 80.0
60.017567 164.0
60.244785 176.0
60.336685 48.0
60.361423 188.0
60.500778 184.0
60.706757 64.0
60.717613 92.0
60.824673 28.0
60.951939 68.0
60.993992 112.0
61.028194 176.0
61.11063 116.0
61.14798 112.0
61.219597 188.0
61.313072 160.0
61.330215 120.0
61.344246 160.0
61.381847 172.0
61.518967 220.0
61.701756 180.0
61.736156 196.0
61.809681 144.0
61.883247 156.0
62.137157 148.0
62.163834 168.0
62.250172 152.0
62.40102 152.0
62.415173 148.0
62.427753 176.0
62.596134 164.0
62.774208 92.0
62.856236 224.0
62.87833 136.0
63.099483 212.0
63.139015 112.0
63.17065 48.0
63.392319 148.0
63.438282 152.0
63.555649 160.0
63.716011 104.0
63.727135 264.0
63.757324 48.0
63.787525 208.0
63.90044 172.0
64.044456 232.0
64.161636 168.0
64.34671 124.0
64.388229 140.0
64.439346 184.0
64.495285 52.0
64.527252 160.0
64.624817 108.0
64.642426 164.0
64.666428 124.0
64.882683 220.0
64.998451 184.0
65.171585 124.0
65.354889 112.0
65.620659 168.0
65.836884 184.0
65.877266 172.0
65.964531 240.0
66.263931 152.0
66.606239 156.0
66.663101 136.0
66.69561 100.0
66.775276 136.0
66.92337 180.0
67.006432 172.0
67.167702 152.0
67.257576 192.0
67.48793 196.0
67.641716 84.0
67.720314 104.0
67.757988 212.0
67.828461 208.0
68.031876 144.0
68.227371 196.0
68.321114 48.0
68.340858 72.0
68.503853 168.0
68.805649 180.0
68.853539 60.0
68.932838 156.0
69.023758 104.0
69.078682 172.0
69.209084 168.0
69.245514 184.0
69.399635 204.0
69.558899 172.0
69.607048 144.0
69.629845 160.0
69.897957 64.0
69.972855 192.0
70.081116 188.0
70.097778 176.0
70.179459 132.0
70.484924 144.0
70.498291 196.0
70.772629 188.0
71.112946 176.0
71.210327 116.0
71.309456 84.0
71.331306 232.0
71.346443 148.0
71.432205 144.0
71.521202 176.0
71.75724 108.0
71.821327 184.0
71.866875 228.0
71.893875 196.0
72.064423 180.0
72.149239 176.0
72.214882 164.0
72.258865 176.0
72.390892 132.0
72.477287 312.0
72.567116 192.0
72.589165 96.0
72.758842 172.0
72.770721 128.0
72.877731 144.0
72.915039 184.0
72.935509 240.0
72.986519 156.0
73.103889 236.0
73.231583 72.0
73.316765 120.0
73.38736 116.0
73.412239 96.0
73.491074 148.0
73.536781 152.0
73.581161 184.0
73.714394 188.0
73.745155 132.0
73.876823 168.0
73.904198 60.0
74.157654 224.0
74.171364 152.0
74.228493 188.0
74.296555 100.0
74.311996 136.0
74.593651 108.0
74.75016 260.0
74.796631 80.0
74.865501 184.0
74.932678 40.0
75.175812 136.0
75.385941 188.0
75.414146 128.0
75.531723 48.0
75.573044 204.0
75.678001 152.0
75.725586 164.0
75.798347 196.0
75.815681 184.0
75.913605 136.0
75.989082 104.0
76.233917 148.0
76.357353 20.0
76.449562 192.0
76.557495 148.0
76.571426 240.0
76.613235 100.0
76.696877 56.0
76.709084 192.0
76.814713 260.0
76.895721 152.0
76.93412 164.0
76.96904 188.0
77.044144 216.0
77.124535 180.0
77.316925 132.0
77.371185 148.0
77.530586 176.0
77.546364 188.0
77.558632 128.0
77.628761 108.0
77.83934 176.0
78.176865 208.0
78.340126 204.0
78.435768 144.0
78.488663 152.0
78.60508 140.0
78.645676 124.0
78.725128 136.0
78.818069 212.0
78.845261 76.0
78.967247 192.0
79.004395 112.0
79.07695 184.0
79.145988 212.0
79.277077 160.0
79.36216 140.0
79.481003 164.0
79.532471 148.0
79.550224 220.0
79.591057 140.0
79.624802 188.0
79.70652 108.0
79.742065 176.0
79.774055 212.0
79.980408 188.0
80.008888 152.0
80.138908 92.0
80.204842 200.0
80.540306 156.0
80.568886 64.0
80.624275 96.0
80.672539 100.0
80.727966 144.0
80.812042 140.0
80.826355 168.0
80.905106 128.0
80.983894 172.0
81.039436 180.0
81.161316 180.0
81.335342 188.0
81.355087 132.0
81.448463 212.0
81.568863 88.0
81.590431 128.0
81.674957 168.0
81.709137 196.0
81.772118 140.0
81.790115 76.0
81.831902 208.0
81.862129 80.0
81.898155 140.0
81.959404 160.0
82.11805 224.0
82.190208 128.0
82.267822 140.0
82.343658 176.0
82.577133 180.0
82.632149 132.0
82.650986 148.0
82.938942 76.0
83.027786 128.0
83.09127 200.0
83.127563 80.0
83.22377 152.0
83.507263 68.0
83.603691 44.0
83.660118 76.0
83.674683 216.0
83.700172 124.0
83.862312 68.0
83.884186 220.0
83.92247 108.0
84.130463 152.0
84.185242 140.0
84.249168 176.0
84.400871 116.0
84.472198 104.0
84.516106 136.0
84.613113 36.0
84.911797 184.0
84.928307 188.0
84.952347 152.0
85.014542 52.0
85.056755 184.0
85.11824 216.0
85.420593 180.0
85.440834 100.0
85.674637 100.0
85.838684 160.0
85.873138 220.0
85.940132 188.0
86.035851 116.0
86.05088 184.0
86.143219 180.0
86.181801 68.0
86.300308 152.0
86.529739 204.0
86.542702 136.0
86.726105 304.0
86.744637 148.0
86.787285 120.0
86.825996 164.0
86.972801 104.0
87.000648 132.0
87.456078 148.0
87.513786 72.0
87.593872 184.0
87.804497 160.0
87.882843 152.0
87.895905 220.0
88.013504 100.0
88.048981 168.0
88.220886 136.0
88.276978 184.0
88.295952 84.0
88.387352 156.0
88.495911 176.0
88.707619 188.0
88.74511 172.0
88.784492 172.0
88.940216 144.0
89.278412 84.0
89.295151 160.0
89.430809 236.0
89.664352 160.0
89.788788 160.0
89.851036 124.0
89.885002 172.0
89.911415 180.0
90.017136 208.0
90.128586 204.0
90.147484 124.0
90.213638 152.0
90.247665 280.0
90.410347 260.0
90.429276 128.0
90.463348 132.0
90.496864 216.0
90.556129 152.0
90.582649 200.0
90.787354 156.0
90.868919 184.0
91.049248 188.0
91.212654 160.0
91.241165 252.0
91.292511 84.0
91.776184 84.0
91.797157 228.0
91.839119 156.0
92.527069 148.0
92.67263 128.0
92.691788 216.0
93.067749 92.0
93.094635 208.0
93.236801 156.0
93.377144 148.0
93.39061 116.0
93.404076 196.0
93.491638 196.0
93.60231 204.0
93.831596 196.0
93.974327 224.0
94.0438 152.0
94.080475 172.0
94.159645 212.0
94.234222 192.0
94.262032 132.0
94.457306 200.0
94.480522 160.0
94.497932 64.0
94.511475 96.0
94.530823 128.0
94.619865 144.0
94.75544 172.0
94.842644 128.0
94.898422 212.0
95.04995 148.0
95.077324 144.0
95.120026 208.0
95.156914 152.0
95.189926 220.0
95.417259 136.0
95.49073 188.0
96.007263 96.0
96.075531 168.0
96.100891 360.0
96.130165 144.0
96.218002 260.0
96.372299 132.0
96.473923 188.0
96.606911 156.0
96.620605 108.0
96.679939 148.0
96.976997 196.0
96.998558 172.0
97.038589 156.0
97.220192 68.0
97.281044 152.0
97.302635 168.0
97.355652 256.0
97.392967 120.0
97.50103 164.0
97.528549 244.0
97.542305 104.0
97.630783 48.0
97.65242 124.0
97.666191 140.0
97.71537 212.0
97.746849 132.0
97.77047 148.0
97.880707 152.0
98.095459 148.0
98.127007 216.0
98.288742 216.0
98.310448 148.0
98.413094 216.0
98.440742 212.0
98.476288 152.0
98.509872 148.0
98.658089 128.0
98.705536 112.0
98.731247 236.0
98.784653 144.0
98.911301 184.0
98.95089 112.0
99.064796 148.0
99.133125 100.0
99.41671 184.0
99.435074 220.0
99.484192 164.0
99.504044 204.0
99.559647 192.0
99.706657 100.0
99.75016 176.0
99.804527 172.0
99.831909 128.0
99.851791 136.0
99.895798 164.0
99.923409 188.0
99.983269 244.0
100.026894 156.0
100.044807 328.0
100.057053 188.0
100.078651 156.0
100.112198 28828.0
100.16938 108.0
100.185852 68.0
100.220703 76.0
100.25016 64.0
100.278503 88.0
100.299789 72.0
100.333679 60.0
100.361465 64.0
100.440331 112.0
100.453339 244.0
100.491241 36.0
100.507202 52.0
100.54512 276.0
100.577057 36.0
100.605461 184.0
100.670891 144.0
100.769516 172.0
100.816216 172.0
100.854698 108.0
100.876686 112.0
100.900681 148.0
100.935913 180.0
100.973907 84.0
100.986115 188.0
101.025703 124.0
101.088699 40.0
101.114937 1760.0
101.154747 124.0
101.170761 40.0
101.264877 192.0
101.298927 160.0
101.314957 172.0
101.381668 176.0
101.461258 204.0
101.496056 168.0
101.541466 32.0
101.567535 100.0
101.718033 60.0
101.763084 236.0
101.838516 84.0
101.870651 100.0
101.965561 136.0
101.987198 112.0
102.031425 44.0
102.049522 192.0
102.119904 132.0
102.148468 140.0
102.192322 52.0
102.266785 92.0
102.393631 84.0
102.56691 36.0
102.644867 216.0
102.665703 124.0
103.012863 204.0
103.060005 96.0
103.330269 84.0
103.471939 112.0
103.68058 80.0
103.723145 144.0
103.759628 136.0
103.798157 36.0
103.907684 36.0
104.192841 136.0
104.27523 144.0
104.334183 156.0
104.379059 172.0
104.419586 232.0
104.521301 136.0
104.584396 148.0
104.718773 44.0
104.751366 128.0
104.928665 188.0
105.069389 120.0
105.104507 152.0
105.189796 144.0
105.422638 216.0
105.588234 136.0
105.649597 148.0
105.747078 188.0
106.064415 348.0
106.091949 176.0
106.188324 164.0
106.543442 28.0
106.663902 220.0
106.687302 168.0
106.722252 200.0
106.975311 152.0
107.030899 136.0
107.259583 132.0
107.362671 160.0
107.463753 84.0
107.527725 124.0
107.670181 232.0
107.684639 152.0
108.203674 132.0
108.327934 136.0
108.427391 92.0
108.54763 148.0
108.566292 64.0
108.686607 156.0
108.823601 144.0
108.937828 160.0
108.996002 172.0
109.029251 192.0
109.169533 200.0
109.280861 108.0
109.351616 52.0
109.726578 140.0
109.757851 164.0
109.816246 100.0
109.874657 156.0
109.922646 176.0
110.166931 156.0
110.189911 144.0
110.229607 192.0
110.386391 124.0
110.608162 184.0
110.767311 28.0
110.790352 100.0
110.893028 88.0
111.415535 360.0
111.461754 204.0
111.501686 140.0
111.686707 128.0
111.869781 148.0
111.99823 216.0
112.14151 172.0
112.240593 232.0
112.497993 220.0
113.041191 128.0
113.240196 136.0
113.305862 60.0
113.350357 152.0
113.447853 200.0
113.810654 160.0
114.212318 168.0
114.384674 64.0
114.469841 176.0
114.530006 80.0
114.655182 260.0
114.798012 176.0
114.840668 140.0
114.964409 92.0
115.047653 108.0
115.088219 180.0
115.562729 116.0
115.801491 152.0
115.828194 124.0
116.014626 196.0
116.033005 196.0
116.066086 196.0
116.102539 148.0
116.211937 148.0
116.229103 128.0
116.254852 224.0
116.351448 192.0
116.542603 124.0
116.667252 164.0
116.699501 196.0
116.778107 196.0
116.817787 124.0
117.070992 220.0
117.116997 144.0
117.285065 208.0
117.358368 232.0
117.623726 116.0
117.824562 116.0
117.887222 188.0
118.00827 148.0
118.285187 160.0
118.508255 168.0
118.55809 112.0
118.694664 132.0
118.798767 148.0
118.952843 140.0
119.033173 68.0
119.276505 124.0
119.298248 212.0
119.454819 264.0
119.500504 84.0
119.650681 152.0
119.774765 196.0
120.080986 184.0
120.103951 212.0
120.144104 176.0
120.173759 92.0
120.326546 188.0
120.400787 196.0
120.43573 52.0
120.569008 148.0
120.614906 188.0
120.802963 128.0
121.026199 128.0
121.060783 404.0
121.083138 104.0
121.514977 136.0
121.6269 156.0
121.738869 228.0
121.897034 116.0
121.971764 152.0
122.035515 188.0
122.22908 208.0
122.290703 32.0
122.356743 88.0
122.6343 104.0
122.8526 240.0
122.903351 180.0
122.938652 92.0
123.11306 112.0
123.143974 184.0
123.26548 240.0
123.367157 72.0
123.58168 96.0
124.013519 144.0
124.119926 152.0
124.304047 160.0
124.387909 224.0
124.641571 208.0
124.979553 140.0
125.039635 184.0
125.057442 248.0
125.224434 196.0
125.31131 204.0
125.457062 100.0
125.554283 196.0
125.67028 80.0
125.703911 112.0
125.884567 292.0
126.298035 200.0
126.835434 80.0
127.022896 180.0
127.118019 108.0
127.196579 188.0
127.286377 160.0
127.454849 176.0
127.506538 144.0
128.060013 296.0
128.183914 72.0
128.215469 208.0
128.304077 128.0
128.44545 56.0
128.463501 152.0
129.071045 244.0
129.405914 156.0
129.584854 140.0
129.618835 196.0
129.772964 164.0
129.859146 92.0
129.899979 32.0
130.04747 124.0
130.064178 260.0
130.092865 116.0
130.201859 224.0
130.413147 148.0
130.429062 120.0
130.606415 236.0
130.838531 160.0
130.859024 240.0
130.88179 168.0
130.940994 188.0
131.04985 224.0
131.085938 272.0
131.118713 156.0
131.743912 172.0
131.951889 156.0
132.082245 140.0
132.114273 132.0
132.160019 92.0
132.799179 160.0
133.072266 44.0
133.253708 140.0
133.439865 140.0
133.593964 184.0
133.713608 84.0
133.789566 176.0
133.918518 168.0
134.019882 164.0
134.243484 112.0
134.344971 144.0
134.568832 176.0
134.584991 164.0
134.806747 144.0
134.827545 192.0
134.977814 164.0
135.026382 120.0
135.334152 180.0
135.493958 140.0
135.526398 204.0
135.735016 168.0
135.820831 204.0
135.973953 104.0
136.01944 500.0
136.076065 324.0
136.175949 216.0
136.313019 160.0
136.685074 124.0
136.901566 172.0
137.134552 128.0
137.156784 156.0
137.199814 168.0
137.503052 152.0
137.563751 192.0
137.657135 236.0
137.682831 116.0
137.806625 196.0
138.009979 232.0
138.293045 196.0
138.360931 96.0
138.485046 216.0
138.536575 152.0
138.595139 68.0
138.798996 128.0
138.820175 40.0
139.017151 504.0
139.05397 168.0
139.141632 188.0
139.324814 160.0
139.367111 188.0
139.439957 176.0
139.515182 220.0
139.590424 164.0
139.618637 132.0
139.642151 208.0
139.802139 156.0
139.981049 124.0
140.046997 164.0
140.068192 72.0
140.466568 104.0
140.487793 188.0
140.608139 64.0
140.844238 180.0
140.91275 228.0
140.931656 136.0
141.04509 132.0
141.366745 208.0
141.423553 100.0
141.561005 136.0
141.669815 104.0
141.731415 200.0
141.804886 144.0
142.060974 152.0
142.148758 124.0
142.39328 168.0
142.990036 120.0
143.083313 176.0
143.120972 124.0
143.26265 152.0
143.342499 60.0
143.404465 196.0
143.552277 164.0
143.922134 224.0
144.015274 124.0
144.079559 528.0
144.383606 220.0
144.749481 156.0
144.847672 40.0
144.902771 192.0
144.927597 144.0
145.063492 192.0
145.084915 332.0
145.237595 144.0
145.394348 100.0
145.491653 160.0
145.564789 236.0
145.728134 56.0
146.074066 148.0
146.295715 148.0
146.351089 116.0
146.389618 236.0
146.447418 148.0
147.096054 128.0
147.122604 168.0
147.371368 88.0
147.584061 64.0
147.651779 132.0
147.704987 168.0
147.845322 212.0
147.886459 32.0
147.985718 228.0
148.022034 192.0
148.164948 160.0
148.220673 52.0
148.674149 216.0
148.763947 216.0
148.851349 116.0
149.240128 156.0
149.286331 60.0
149.664734 112.0
149.812073 224.0
150.011902 160.0
150.126495 92.0
150.21431 112.0
150.536484 176.0
151.005707 148.0
151.032608 292.0
151.304245 52.0
151.343414 132.0
151.539368 192.0
151.931641 168.0
152.223709 124.0
152.319504 204.0
152.594742 132.0
152.641464 128.0
152.695572 272.0
152.789032 196.0
153.050278 176.0
153.143509 164.0
153.380051 84.0
153.515656 180.0
153.856155 120.0
153.910477 196.0
153.998062 188.0
154.031464 176.0
154.064697 660.0
154.197037 52.0
154.219284 148.0
154.32312 220.0
154.377441 140.0
154.393173 204.0
154.964157 180.0
155.071564 312.0
155.122772 192.0
155.236832 264.0
155.25914 188.0
155.353394 180.0
155.618958 116.0
155.861572 200.0
155.901627 156.0
156.027618 152.0
156.068863 160.0
156.140793 192.0
156.282593 100.0
156.377151 108.0
156.591278 172.0
156.992523 96.0
157.049881 208.0
157.069839 192.0
157.172134 108.0
157.464203 176.0
157.606598 140.0
157.736557 212.0
157.769058 168.0
157.819061 48.0
157.841202 84.0
158.021652 112.0
158.087585 148.0
158.214371 152.0
158.276962 224.0
158.354599 168.0
158.447281 112.0
158.482346 96.0
158.765686 128.0
158.998932 236.0
159.036575 180.0
159.070145 196.0
159.163345 180.0
159.194748 236.0
159.461044 48.0
159.501266 180.0
159.569138 128.0
159.632004 104.0
159.805557 164.0
160.00943 104.0
160.083267 184.0
160.110153 144.0
160.326813 120.0
160.427628 156.0
160.455368 160.0
160.594055 148.0
160.61676 172.0
160.722717 116.0
160.780762 144.0
160.879196 216.0
161.038284 180.0
161.097351 388.0
161.184814 160.0
161.298538 68.0
161.457825 120.0
161.574188 120.0
161.893112 44.0
161.986832 240.0
162.037491 180.0
162.100159 164.0
162.230103 60.0
162.311234 56.0
162.405075 104.0
162.564911 124.0
162.638504 188.0
162.803543 160.0
162.82132 192.0
162.996597 88.0
163.0271 176.0
163.049973 156.0
163.240631 116.0
163.483459 88.0
163.553558 216.0
163.64267 108.0
164.01001 184.0
164.051666 188.0
164.343582 228.0
164.374207 128.0
164.450775 160.0
164.471191 56.0
164.84407 220.0
164.913071 192.0
164.979538 176.0
165.020447 148.0
165.057571 200.0
165.135513 44.0
165.179001 60.0
165.306931 116.0
165.488663 100.0
165.529633 160.0
165.601334 132.0
165.693558 136.0
165.94986 76.0
165.990875 200.0
166.012787 192.0
166.029968 176.0
166.065399 2268.0
166.234573 96.0
166.380875 128.0
166.437363 156.0
166.472198 156.0
166.673676 136.0
166.728134 188.0
166.874161 176.0
166.995026 140.0
167.072998 5492.0
167.159302 188.0
167.33728 76.0
167.391357 100.0
167.418243 208.0
167.476349 156.0
167.633499 180.0
167.79332 140.0
167.875824 184.0
167.917084 76.0
167.966095 36.0
168.078201 756.0
168.402313 144.0
168.420395 108.0
168.477219 120.0
168.513397 144.0
168.557312 196.0
168.691559 132.0
168.725327 108.0
168.813232 80.0
168.929626 132.0
169.007233 60.0
169.047607 180.0
169.076035 144.0
169.149582 52.0
169.33342 40.0
169.382629 96.0
169.478485 92.0
169.512177 56.0
169.540024 204.0
169.737701 156.0
169.825867 72.0
170.043137 168.0
170.280075 148.0
170.368393 68.0
170.519104 128.0
170.784317 132.0
170.979446 156.0
171.062729 172.0
171.416946 112.0
171.492523 188.0
171.735016 144.0
172.037704 136.0
172.460876 148.0
172.596817 132.0
172.840088 264.0
172.942154 180.0
172.963089 100.0
173.027176 160.0
173.054718 140.0
173.151611 160.0
173.555176 184.0
173.633835 152.0
174.035339 172.0
174.089355 336.0
174.17453 156.0
174.374222 132.0
174.51091 116.0
174.731842 108.0
174.78183 136.0
174.85289 48.0
175.102997 156.0
175.229446 140.0
175.253159 228.0
175.342758 200.0
175.36647 104.0
175.4561 208.0
175.595856 136.0
176.05249 204.0
176.088486 244.0
176.327179 124.0
176.625458 188.0
177.042816 184.0
178.02536 276.0
178.0728 148.0
178.099731 132.0
178.708511 180.0
179.033264 120.0
179.073029 600.0
179.142471 244.0
179.241043 72.0
179.624969 152.0
179.726349 148.0
179.886475 88.0
179.998611 100.0
180.050797 192.0
180.079956 920.0
180.150848 160.0
180.235367 120.0
180.439484 112.0
180.789886 104.0
180.98262 96.0
181.062958 140.0
181.085068 360.0
181.119202 132.0
181.194214 180.0
181.660217 188.0
181.692871 160.0
182.056244 548.0
182.09317 188.0
182.211029 76.0
182.525497 156.0
182.616943 44.0
182.716461 80.0
182.764893 140.0
182.888687 164.0
182.980225 48.0
182.999069 176.0
183.027039 144.0
183.06485 324.0
183.128326 176.0
183.20105 188.0
183.295349 108.0
183.386978 144.0
183.597275 128.0
183.69487 132.0
183.802292 72.0
183.879776 152.0
183.961533 132.0
184.074326 196.0
184.282913 176.0
184.504532 124.0
184.672195 148.0
184.785812 372.0
185.027405 592.0
185.080139 172.0
185.820786 64.0
185.875046 80.0
185.932037 208.0
185.989029 120.0
186.036484 5684.0
186.083267 56.0
186.113373 40.0
186.162796 144.0
186.268723 168.0
186.298599 52.0
186.3638 52.0
186.441544 112.0
186.953873 88.0
187.038559 1032.0
187.234283 48.0
187.373215 180.0
187.392273 188.0
187.517639 208.0
187.580322 52.0
187.613037 136.0
187.727554 92.0
188.029099 400.0
188.158676 56.0
188.273346 116.0
188.297928 136.0
188.361481 180.0
188.500092 120.0
188.628555 136.0
188.778931 228.0
188.874649 72.0
189.033325 132.0
189.227676 192.0
189.271484 124.0
189.367325 164.0
189.482376 60.0
189.833389 140.0
189.937454 188.0
189.973114 160.0
190.474701 232.0
190.656799 144.0
190.736511 132.0
191.074753 128.0
191.39679 124.0
191.647446 220.0
191.76593 116.0
192.003036 140.0
192.05545 160.0
192.085785 176.0
192.367264 140.0
192.988876 168.0
193.049561 424.0
193.091827 344.0
193.157578 100.0
193.573608 100.0
193.629471 116.0
193.891312 188.0
194.059402 2336.0
194.121399 152.0
194.237885 144.0
194.401581 156.0
194.498718 236.0
194.532028 72.0
194.689041 204.0
194.719147 280.0
194.790283 160.0
194.893082 168.0
194.918091 44.0
195.06723 3652.0
195.415802 92.0
196.008881 204.0
196.072342 824.0
196.29599 100.0
196.485657 172.0
196.541473 156.0
196.611237 152.0
196.681 72.0
196.803848 84.0
196.944809 156.0
197.029343 168.0
197.084137 584.0
197.208908 148.0
197.29837 88.0
197.452164 132.0
197.538864 40.0
197.701141 92.0
197.891495 72.0
197.930695 48.0
198.037369 1668.0
198.089096 164.0
198.123947 36.0
198.250031 76.0
198.292068 124.0
198.364944 216.0
198.386398 192.0
198.603302 144.0
198.667892 204.0
198.72673 104.0
198.928802 144.0
198.956863 100.0
198.99617 180.0
199.044708 12736.0
199.080414 336.0
199.10672 164.0
199.16011 96.0
199.184326 152.0
199.324814 28.0
199.359467 96.0
199.42598 88.0
199.476578 56.0
199.589035 172.0
199.687454 64.0
199.816864 152.0
199.909027 228.0
200.04631 984.0
200.415192 172.0
200.464478 128.0
200.523666 64.0
200.55748 192.0
200.611038 112.0
200.638168 64.0
200.816879 68.0
200.887405 284.0
201.037613 692.0
201.110321 36.0
201.223236 112.0
201.262772 76.0
201.39267 196.0
201.536743 124.0
201.587616 72.0
201.80809 148.0
201.8703 144.0
202.045135 192.0
202.105087 120.0
202.356995 68.0
202.455627 120.0
202.733719 140.0
202.852768 176.0
203.04274 196.0
203.425781 168.0
203.522324 152.0
203.542191 28.0
203.848984 112.0
203.885925 264.0
204.077576 492.0
204.171799 208.0
204.607422 160.0
205.06134 112.0
205.089081 196.0
205.093414 144.0
205.386383 172.0
205.731674 148.0
205.988678 148.0
206.057251 160.0
206.085815 144.0
206.44313 180.0
206.497925 172.0
206.747726 144.0
206.935287 148.0
207.094864 144.0
207.938599 88.0
208.074173 2152.0
208.111603 860.0
208.323364 140.0
208.421051 96.0
208.771744 60.0
208.800507 28.0
208.981735 116.0
209.030365 408.0
209.082336 4700.0
209.174561 44.0
209.219177 136.0
209.269562 60.0
209.327148 112.0
209.392593 72.0
209.468277 68.0
209.523972 108.0
209.593323 208.0
209.63826 160.0
209.667084 64.0
209.716461 184.0
209.750671 36.0
209.793915 80.0
209.838806 160.0
209.906357 84.0
209.961151 124.0
209.998489 148.0
210.006714 140.0
210.034882 1388.0
210.091141 38464.0
210.197601 116.0
210.260773 84.0
210.295822 80.0
210.331512 44.0
210.340805 48.0
210.419952 76.0
210.447372 96.0
210.480591 48.0
210.51033 40.0
210.549896 56.0
210.572998 108.0
210.633652 124.0
210.665436 84.0
210.750839 104.0
210.8134 56.0
210.838791 76.0
210.887924 104.0
210.95285 104.0
211.045029 1424.0
211.092957 6364.0
211.194412 72.0
211.316025 64.0
211.344849 80.0
211.385361 64.0
211.417755 176.0
211.460815 56.0
211.489395 80.0
211.494873 76.0
211.532959 60.0
211.596924 96.0
211.689316 56.0
211.837021 84.0
211.90538 148.0
211.946228 168.0
211.999283 44.0
212.051132 1804.0
212.098816 660.0
212.167389 44.0
212.274673 40.0
212.362747 152.0
212.416794 68.0
212.477707 80.0
212.544449 120.0
212.564758 48.0
212.654724 104.0
212.683884 84.0
212.781693 124.0
212.910217 64.0
212.945068 64.0
213.020981 116.0
213.053436 424.0
213.119354 168.0
213.151321 44.0
213.221512 104.0
213.351868 68.0
213.573898 68.0
213.59906 196.0
213.621262 164.0
213.652588 120.0
213.712509 64.0
213.782349 96.0
214.031738 6984.0
214.068756 232.0
214.114227 72.0
214.208328 108.0
214.290955 72.0
214.382248 72.0
214.625839 100.0
214.764191 48.0
214.947784 60.0
215.033829 1456.0
215.172729 36.0
215.272003 52.0
215.359619 48.0
215.391754 156.0
215.473541 128.0
215.508606 144.0
215.552444 88.0
215.710266 88.0
215.78627 200.0
215.919815 192.0
216.030823 756.0
216.289444 208.0
216.40654 144.0
216.427048 64.0
216.570541 84.0
216.614471 144.0
216.634979 224.0
216.936829 116.0
217.018906 180.0
217.285812 136.0
217.40773 196.0
218.043411 52.0
218.096313 192.0
218.225662 84.0
218.390335 124.0
218.658081 124.0
218.961334 140.0
219.049683 64.0
219.099442 180.0
219.110962 160.0
219.252991 212.0
219.311935 68.0
219.500626 64.0
219.533051 156.0
219.571396 32.0
219.845764 136.0
220.070312 228.0
220.111618 496.0
220.179367 156.0
220.247299 188.0
220.347733 160.0
220.551636 60.0
221.081894 376.0
221.117462 304.0
221.335632 56.0
221.575546 136.0
221.79187 132.0
221.863007 108.0
222.097275 468.0
222.124283 164.0
222.352432 152.0
222.402893 72.0
222.780014 148.0
222.839432 228.0
222.927017 228.0
222.958298 172.0
223.044373 292.0
223.103348 204.0
223.136642 108.0
223.175293 76.0
223.216934 188.0
223.338867 128.0
223.648315 100.0
223.672119 88.0
223.701889 176.0
223.728683 188.0
223.955002 172.0
224.00563 164.0
224.04837 348.0
224.105072 380.0
224.14566 156.0
224.974823 44.0
225.03154 160.0
225.070358 92.0
225.118942 192.0
225.330215 112.0
225.946091 148.0
226.033096 620.0
226.084549 1572.0
226.218414 48.0
226.293259 48.0
226.389084 72.0
226.442993 208.0
226.499908 108.0
226.583786 124.0
226.667679 40.0
226.733612 36.0
226.757584 240.0
226.778564 108.0
226.828217 208.0
226.856491 180.0
226.936111 176.0
226.992172 208.0
227.039276 15000.0
227.314148 260.0
227.358902 112.0
227.543503 60.0
227.56752 144.0
227.696655 48.0
227.803177 120.0
227.927048 264.0
228.043228 3012.0
228.186462 116.0
228.288696 68.0
228.475174 52.0
228.661743 64.0
228.721939 40.0
228.749023 104.0
228.785156 116.0
228.836334 60.0
228.997406 320.0
229.054474 16636.0
229.128479 32.0
229.170654 28.0
229.215698 80.0
229.312286 64.0
229.342422 104.0
229.391266 60.0
229.428162 100.0
229.517288 76.0
229.574585 64.0
229.659027 132.0
229.713318 96.0
229.802856 100.0
229.852112 52.0
230.058319 2204.0
230.1147 108.0
230.141876 48.0
230.172073 116.0
230.329117 128.0
230.350266 36.0
230.386505 164.0
230.425781 80.0
230.685684 120.0
230.711166 80.0
230.75824 40.0
231.052628 768.0
231.133301 36.0
231.166595 36.0
231.375443 44.0
231.484436 96.0
231.505646 116.0
231.532898 132.0
231.763123 68.0
231.831223 252.0
231.905548 44.0
232.054016 168.0
232.257278 56.0
233.155991 148.0
233.21373 36.0
233.247162 200.0
233.405258 92.0
233.718567 64.0
234.092621 204.0
234.409775 108.0
234.769501 64.0
235.044037 192.0
235.099838 112.0
235.239365 84.0
235.41951 136.0
235.605835 144.0
236.048676 140.0
236.103561 1848.0
236.146881 124.0
236.220291 100.0
236.247833 28.0
236.832489 92.0
237.043045 112.0
237.062943 164.0
237.107758 816.0
237.365753 196.0
237.681702 100.0
237.789108 60.0
237.822876 136.0
238.064835 316.0
238.089981 232.0
238.110855 176.0
238.160614 52.0
238.480164 72.0
238.578537 48.0
238.698441 88.0
238.901443 152.0
239.043076 256.0
239.077179 228.0
239.1353 104.0
239.33847 228.0
240.046585 868.0
240.079987 592.0
240.324814 104.0
240.522324 124.0
241.004105 80.0
241.057175 512.0
241.092575 708.0
241.272995 136.0
241.39357 112.0
241.41832 160.0
241.449249 164.0
241.53894 80.0
241.600815 216.0
241.625565 108.0
241.674408 76.0
241.715286 52.0
241.764801 132.0
241.811081 168.0
241.860748 100.0
241.910278 140.0
241.952072 264.0
241.976746 264.0
242.063187 35796.0
242.179672 88.0
242.326889 84.0
242.363541 136.0
242.38414 96.0
242.416901 84.0
242.499664 92.0
242.525818 84.0
242.553726 52.0
242.591797 60.0
242.61969 108.0
242.647598 68.0
242.675507 80.0
242.718903 88.0
242.79483 116.0
242.827454 196.0
242.884491 72.0
242.99614 84.0
243.066162 4988.0
243.215286 68.0
243.251724 92.0
243.333252 96.0
243.479202 72.0
243.70816 48.0
243.783646 68.0
243.866043 164.0
244.062622 1364.0
244.330902 52.0
244.3909 56.0
244.429199 100.0
244.45224 64.0
244.561172 96.0
244.586075 104.0
244.627396 116.0
244.676346 56.0
244.743683 140.0
244.779099 124.0
244.813187 156.0
244.859192 100.0
244.920715 144.0
244.975311 68.0
245.009583 44.0
245.066055 292.0
245.57692 88.0
245.863953 72.0
245.904526 184.0
245.945099 184.0
246.201111 136.0
246.722931 184.0
246.754196 44.0
246.785461 44.0
246.822983 80.0
247.173309 96.0
247.436234 44.0
247.971893 216.0
248.319901 144.0
248.67131 60.0
248.803146 120.0
249.107254 176.0
249.26799 164.0
249.299423 88.0
249.349701 48.0
249.71756 196.0
250.119064 2132.0
250.271423 84.0
250.548584 168.0
250.936234 48.0
250.977219 72.0
251.018051 76.0
251.128769 2716.0
251.188522 136.0
251.374664 48.0
251.977753 96.0
252.021988 52.0
252.083588 652.0
252.134491 396.0
252.353867 84.0
252.565735 64.0
253.091034 2348.0
253.143341 128.0
253.505203 104.0
253.536896 60.0
253.78183 32.0
253.820801 144.0
253.888824 140.0
254.061874 1536.0
254.864182 60.0
254.906616 136.0
255.070953 576.0
255.166122 124.0
255.818298 116.0
256.078186 328.0
256.378876 112.0
256.563751 76.0
256.930511 116.0
257.010284 76.0
257.048553 156.0
257.080475 288.0
257.760651 48.0
257.853333 76.0
258.454529 56.0
260.252716 208.0
260.432556 72.0
261.706024 132.0
261.747894 108.0
262.659973 148.0
263.237671 104.0
264.751129 28.0
265.214417 76.0
266.067566 108.0
266.293518 124.0
267.064789 172.0
267.14325 168.0
267.478424 112.0
268.081146 1792.0
268.175476 56.0
268.866913 140.0
269.08432 1132.0
269.376282 48.0
269.722656 44.0
269.797821 60.0
269.974396 104.0
270.085052 352.0
271.079132 180.0
273.257874 64.0
274.783295 60.0
276.051697 52.0
279.611359 76.0
279.97757 84.0
280.437347 220.0
280.794098 64.0
282.094574 296.0
282.256805 64.0
282.561188 88.0
283.059906 164.0
283.100494 288.0
283.699829 116.0
283.746765 152.0
283.917786 116.0
284.109985 4168.0
284.18277 64.0
284.357269 72.0
284.384125 32.0
284.709808 36.0
285.002045 80.0
285.110596 1084.0
285.223846 44.0
285.402039 100.0
285.47937 44.0
285.590363 60.0
286.000854 48.0
286.031158 44.0
286.097687 336.0
286.216309 112.0
286.239899 44.0
286.388062 60.0
286.465546 96.0
286.532928 52.0
286.809265 48.0
286.954224 64.0
287.102814 176.0
287.571533 140.0
288.716858 76.0
289.695038 80.0
293.914337 152.0
296.965881 56.0
304.27475 100.0
307.470215 140.0
313.146454 84.0
313.234528 96.0
314.14975 240.0
315.998749 60.0
316.136749 144.0
317.309174 72.0
317.968964 68.0
323.71582 48.0
324.46109 136.0
324.76947 48.0
325.857208 188.0
327.177094 208.0
328.276062 48.0
329.168671 1728.0
330.170319 752.0
331.171082 192.0
332.087921 104.0
332.15683 176.0
335.546173 56.0
339.282562 84.0
343.109375 220.0
344.589661 64.0
352.930359 68.0
359.017456 92.0
359.156982 56.0
366.992096 136.0
375.571014 60.0
377.134796 92.0
382.055664 68.0
382.834137 76.0
392.083771 76.0
393.278809 44.0
396.058472 44.0
399.4245 52.0
403.208344 76.0
408.038574 104.0
416.500793 60.0
422.971985 92.0
426.343414 56.0
429.113678 100.0
432.728851 68.0
450.63916 76.0
463.617828 60.0
478.037567 84.0
486.517029 88.0
487.386658 44.0
496.555725 96.0
500.942841 68.0
513.493591 124.0
521.22583 84.0
521.343933 76.0
527.4422 92.0
532.376648 120.0
539.809814 56.0
559.585388 84.0
564.081299 64.0
573.112793 84.0
594.03186 52.0
599.891663 56.0
600.125671 60.0
610.821594 60.0
611.943665 68.0
615.997498 124.0
632.872375 72.0
638.864929 40.0
641.569275 124.0
650.955017 108.0
652.830139 68.0
667.943909 96.0
671.915771 56.0
672.751831 56.0
675.645874 116.0
678.945374 56.0
711.6604 60.0
737.169189 52.0
737.558289 76.0
743.74408 120.0
763.57251 276.0
766.556335 56.0
767.758118 72.0
772.657593 52.0
773.404663 156.0
773.797668 176.0
775.936279 100.0
781.67395 128.0
791.671997 76.0
804.932068 124.0
816.100464 132.0
854.529663 144.0
859.458923 72.0
863.396179 208.0
866.574707 168.0
867.864197 104.0
868.010803 136.0
870.686768 44.0
879.955322 160.0
887.510986 200.0
887.712585 52.0
891.79718 168.0
899.713867 204.0
902.450195 48.0
904.94519 204.0
909.201233 104.0
911.825745 172.0
923.643555 188.0
929.641663 172.0
931.165466 52.0
936.919861 96.0
938.919128 140.0
940.047729 168.0
945.707031 172.0
946.876465 48.0
949.567017 116.0
951.966614 68.0
952.937134 180.0
961.965637 164.0
967.176636 160.0
968.910522 152.0
973.059631 116.0
974.780212 220.0
980.355957 132.0
986.747742 76.0
989.112488 100.0
989.544434 104.0
990.302185 240.0
997.782166 140.0
1000.424438 108.0
1006.628601 188.0
1008.340637 148.0
1012.376953 176.0
1016.256348 128.0
1018.859375 48.0
1022.942139 152.0
1023.215881 132.0
1024.789062 72.0
1026.025513 216.0
1031.688232 172.0
1035.847778 48.0
1037.943481 128.0
1040.882446 208.0
1042.668335 148.0
1043.407593 136.0
1044.7323 132.0
1052.531006 196.0
1057.87793 76.0
1059.166504 80.0
1062.777588 148.0
1063.316162 200.0
1068.761841 184.0
1069.09375 156.0
1072.910645 112.0
1074.123657 180.0
1074.345459 156.0
1076.349121 36.0
1078.125977 196.0
1079.034546 184.0
1079.668823 84.0
1079.819336 208.0
1092.630371 136.0
1111.275146 144.0
1112.941162 136.0
1113.797852 192.0
1114.136719 208.0
1114.395752 196.0
1118.485718 48.0
1119.69751 72.0
1121.076538 152.0
1122.183105 144.0
1122.416504 156.0
1124.284302 172.0
1125.31897 172.0
1125.659546 160.0
1125.906616 164.0
1128.372314 144.0
1130.024292 156.0
1130.332031 188.0
1133.063843 236.0
1133.305054 88.0
1133.559692 156.0
1134.122681 232.0
1135.456909 180.0
1138.154663 184.0
1140.089233 144.0
1140.996704 200.0
1141.265625 68.0
1141.359741 52.0
1143.599976 168.0
1147.16333 176.0
1147.486938 144.0
1147.992798 136.0
1149.098877 180.0
1152.461304 240.0
1152.643677 152.0
1153.502075 156.0
1153.610229 104.0
1155.442871 164.0
1156.546021 224.0
1160.244629 204.0
1161.974121 36.0
1165.049561 168.0
1168.870605 148.0
1170.23877 188.0
1173.679688 236.0
1176.681763 140.0
1180.515015 168.0
1180.802246 160.0
1181.842163 92.0
1183.108276 116.0
1183.443726 140.0
1185.670044 120.0
1187.569214 164.0
1188.186646 160.0
1191.062988 164.0
1196.633301 172.0
1201.299072 144.0
1201.657837 208.0
1202.547974 92.0
1203.024292 140.0
1203.293579 84.0
1204.24646 116.0
1206.637451 140.0
1206.713501 120.0
1207.010864 32.0
1207.474854 192.0
1208.857788 56.0
1212.320312 188.0
1213.262939 192.0
1213.900879 184.0
1215.48938 232.0
1215.64209 192.0
1216.116455 156.0
1217.794312 164.0
1220.615845 96.0
1221.311279 156.0
1221.596436 132.0
1222.187866 152.0
1225.655518 80.0
1226.463867 152.0
1228.228027 128.0
1229.469971 208.0
1229.86084 152.0
1232.039551 240.0
1232.381836 188.0
1235.164307 232.0
1236.437744 176.0
1238.958496 144.0
1242.365601 60.0
1246.887573 116.0
1250.488647 228.0
1250.988403 124.0
1254.144165 152.0
1254.69397 212.0
1254.743286 72.0
1254.820923 160.0
1255.314453 168.0
1256.372437 152.0
1257.430908 164.0
1257.501465 144.0
1257.62146 104.0
1257.762573 144.0
1257.981445 268.0
1259.626831 204.0
1263.097534 216.0
1266.176514 276.0
1266.381836 196.0
1269.223755 188.0
1269.344238 76.0
1272.430786 164.0
1272.821289 172.0
1274.334229 156.0
1274.618408 248.0
1275.791138 204.0
1277.106689 192.0
1279.419312 112.0
1280.166992 124.0
1280.715454 88.0
1282.874512 132.0
1287.112549 128.0
1291.042847 156.0
1292.57373 124.0
1294.284546 148.0
1295.265625 144.0
1299.516846 144.0
1300.141235 168.0
1302.797852 188.0
1304.033813 152.0
1304.723877 52.0
1305.406982 92.0
1310.287109 184.0
1310.359131 168.0
1312.211426 184.0
1312.398926 176.0
1315.071045 148.0
1316.282959 132.0
1316.663696 108.0
1317.348267 140.0
1318.983032 140.0
1319.387817 248.0
1321.412842 208.0
1322.860352 180.0
1323.649536 136.0
1325.264771 180.0
1327.511841 140.0
1328.839233 156.0
1329.398071 192.0
1330.47229 152.0
1333.050781 36.0
1334.721558 128.0
1336.453857 116.0
1340.80127 140.0
1342.076904 188.0
1343.907715 120.0
1346.484619 136.0
1347.353882 240.0
1347.448853 196.0
1347.733765 196.0
1350.270386 208.0
1354.999146 196.0
1356.538208 140.0
1356.692139 112.0
1357.703979 68.0
1359.141846 148.0
1359.420654 144.0
1361.813965 276.0
1362.394287 172.0
1363.62146 156.0
1364.077148 148.0
1364.657959 176.0
1364.731445 88.0
1365.930298 192.0
1372.543945 92.0
1373.923096 156.0
1374.970947 216.0
1375.620483 156.0
1375.856689 120.0
1376.159424 168.0
1376.240601 224.0
1377.621704 92.0
1378.471436 148.0
1379.166138 128.0
1379.476562 148.0
1379.890625 96.0
1381.443604 104.0
1382.161255 172.0
1382.324097 124.0
1388.487793 148.0
1389.303711 52.0
1390.394409 160.0
1390.839722 156.0
1391.745483 168.0
1392.970947 192.0
1395.11853 160.0
1395.393677 188.0
1398.011963 104.0
1400.327271 144.0
1400.401733 188.0
1400.543335 204.0
1401.250977 188.0
1401.318115 84.0
1402.055786 152.0
1403.02478 44.0
1405.806885 168.0
1407.247559 164.0
1407.785156 180.0
1409.458496 164.0
1409.682739 176.0
1412.38916 160.0
1412.980103 148.0
1413.069946 216.0
1418.169678 200.0
1418.874268 224.0
1420.891724 192.0
1423.128418 200.0
1423.481323 48.0
1423.669067 76.0
1424.917847 264.0
1426.403931 140.0
1428.494385 260.0
1429.32959 28.0
1430.006836 232.0
1431.813721 200.0
1432.356079 188.0
1434.888184 196.0
1436.826416 128.0
1437.150879 232.0
1437.618774 156.0
1437.74707 72.0
1440.555786 200.0
1441.439819 124.0
1442.30896 188.0
1444.690918 144.0
1444.804443 168.0
1445.311401 192.0
1445.462769 180.0
1446.946289 188.0
1447.097656 124.0
1447.915527 168.0
1448.536621 196.0
1449.195679 204.0
1450.954102 212.0
1451.227051 80.0
1452.053589 388.0
1453.315918 196.0
1453.973022 196.0
1454.62085 280.0
1455.301514 236.0
1456.341919 180.0
1456.744507 108.0
1458.279419 140.0
1459.358887 92.0
1459.746704 148.0
1460.271362 180.0
1463.147827 200.0
1464.533691 108.0
1465.455566 108.0
1465.653687 180.0
1468.64209 180.0
1469.595703 100.0
1469.862793 208.0
1472.977783 120.0
1474.467651 84.0
1476.975586 160.0
1477.052002 104.0
1477.572266 180.0
1479.883667 168.0
1480.473267 136.0
1480.549805 100.0
1481.055298 160.0
1481.246826 120.0
1482.725586 232.0
1484.557861 132.0
1485.969238 148.0
1488.310303 152.0
1488.955322 216.0
1491.713745 220.0
1492.144287 180.0
1493.820801 208.0
1494.559326 156.0
1496.206421 160.0
1496.783936 104.0
1496.876343 216.0
1498.31665 76.0
1498.894531 212.0
1499.056396 148.0
1499.981201 148.0
1500.38208 128.0
1500.952637 236.0
1501.970703 192.0
1502.50293 92.0
1503.212891 220.0
1503.351685 168.0
