>compound MLS002153947-01!Dydrogesterone152-62-5
>formula C21H28O2
>ionization [M+H]+
>parentmass 313.214722
#inchi InChI=1S/C21H28O2/c1-13(22)17-6-7-18-16-5-4-14-12-15(23)8-10-20(14,2)19(16)9-11-21(17,18)3/h4-5,12,16-19H,6-11H2,1-3H3/t16-,17+,18-,19+,20+,21+/m0/s1
#inchikey JGMOKGBVKVMRFX
#Ion_Source LC-ESI
#Instrument qTof
#Compound_Source NIH Pharmacologically Active Library
#PI Dorrestein
#Data_Collector VP/LMS
#Scan -1
#Precursor_MZ 313.221
#ExactMass 312.209
#Charge 1
#CAS_Number N/A
#Pubmed_ID N/A
#Smiles CC(=O)[C@H]1CC[C@H]2[C@@H]3C=CC4=CC(=O)CC[C@@]4(C)[C@@H]3CC[C@]12C
#INCHI_AUX N/A
#Library_Class 1
#SpectrumID CCMSLIB00000086170
#IonMode Positive
#UpdateWorkflowName UPDATE-SINGLE-ANNOTATED-GOLD
#LibraryQualityString Gold
#TaskID d252d724072548979f1f6f1ced849daf
##Scan# 2242
#SpectrumFile p5-G05_GG5_01_18474.mzXML
#LibraryName Pharm_Active_Library.mgf
#MQScore -1
#Organism Pharm_Active_Library
#TIC_Query 0
#RT_Query -1
#MZErrorPPM -1
#SharedPeaks 0
#MassDiff 0
#LibMZ -1
#SpecMZ 313.221
#SpecCharge 0
#internalFilename spec-00000.mgf

>collision 10
44.993549 84.0
45.064335 148.0
45.260956 212.0
45.396297 204.0
45.448612 152.0
45.504982 64.0
45.576168 140.0
45.648102 144.0
45.662205 228.0
45.753704 196.0
45.922146 164.0
46.03146 152.0
46.067924 172.0
46.149014 188.0
46.396778 92.0
46.491726 40.0
46.612648 172.0
46.748569 132.0
46.844582 240.0
46.883389 176.0
46.937916 168.0
47.469852 48.0
47.506886 192.0
47.667522 140.0
47.745884 40.0
47.761013 140.0
47.854591 184.0
47.963425 140.0
48.028229 176.0
48.058578 164.0
48.128975 216.0
48.144165 172.0
48.263004 120.0
48.272682 124.0
48.517754 212.0
48.691204 212.0
48.739826 52.0
48.777348 128.0
48.862179 144.0
48.94569 332.0
48.998615 104.0
49.034847 240.0
49.138035 208.0
49.227367 124.0
49.242729 144.0
49.564487 108.0
49.584106 152.0
49.599525 140.0
49.646961 168.0
49.781914 152.0
49.85075 192.0
49.897133 176.0
49.923851 160.0
49.949165 148.0
49.99419 120.0
50.164616 144.0
50.175892 68.0
50.22525 204.0
50.242176 124.0
50.335331 224.0
50.359341 132.0
50.432426 132.0
50.701721 228.0
50.768353 80.0
50.816582 96.0
50.847801 180.0
50.87051 156.0
50.887547 128.0
50.918789 128.0
50.952877 132.0
51.167633 168.0
51.244541 120.0
51.258789 148.0
51.412804 172.0
51.505608 132.0
51.622803 156.0
51.68145 144.0
51.691463 192.0
51.721519 140.0
51.742798 148.0
52.034031 136.0
52.226593 220.0
52.338848 172.0
52.361889 168.0
52.399467 136.0
52.529087 144.0
52.544956 272.0
52.666214 172.0
52.775501 164.0
52.926529 76.0
52.942459 160.0
53.020687 168.0
53.226681 224.0
53.667568 140.0
53.991745 92.0
54.113197 176.0
54.174305 160.0
54.306633 184.0
54.399075 184.0
54.453678 216.0
54.531273 140.0
54.547443 156.0
54.604786 208.0
55.012943 224.0
55.292305 224.0
55.353001 168.0
55.369289 224.0
55.388542 180.0
55.443363 152.0
55.465324 176.0
55.613922 144.0
55.713413 132.0
55.755966 140.0
55.872486 276.0
55.982632 196.0
56.289825 68.0
56.35704 88.0
56.499077 160.0
56.666756 164.0
56.729698 128.0
56.84819 116.0
56.863197 144.0
56.88121 92.0
56.97131 160.0
57.056973 136.0
57.367092 44.0
57.462105 188.0
57.537563 196.0
57.555683 144.0
57.625164 252.0
57.635738 164.0
57.667473 64.0
57.899101 164.0
57.924702 160.0
58.07325 112.0
58.096001 288.0
58.373951 212.0
58.737953 200.0
58.855465 224.0
58.904339 164.0
58.956287 104.0
59.079052 124.0
59.083477 152.0
59.208714 144.0
59.233219 144.0
59.395702 160.0
59.606033 180.0
59.638306 172.0
59.675201 80.0
59.6875 44.0
59.769024 160.0
59.796726 208.0
59.839828 112.0
60.017017 76.0
60.09568 160.0
60.135803 212.0
60.166676 168.0
60.284061 156.0
60.351871 180.0
60.616493 204.0
60.644665 100.0
60.67334 200.0
60.740799 152.0
60.827694 128.0
61.157227 108.0
61.171234 132.0
61.294273 128.0
61.481403 144.0
61.667255 156.0
61.76107 96.0
62.086765 164.0
62.099388 224.0
62.116642 80.0
62.239056 212.0
62.363163 152.0
62.449642 192.0
62.464684 192.0
62.495262 148.0
62.559788 212.0
62.722038 168.0
62.804031 72.0
62.914494 148.0
62.942913 208.0
63.200558 80.0
63.374729 188.0
63.442879 140.0
63.504723 48.0
63.614208 84.0
63.777821 40.0
63.847775 160.0
63.893906 172.0
64.309814 156.0
64.32737 220.0
64.427979 192.0
64.453087 168.0
64.480705 172.0
64.571838 100.0
64.893707 160.0
64.967484 204.0
64.98513 176.0
65.257446 164.0
65.306419 132.0
65.472191 84.0
65.526955 164.0
65.675262 180.0
65.712372 80.0
65.765625 116.0
66.139 220.0
66.231293 56.0
66.26207 188.0
66.422562 164.0
66.542656 152.0
66.575127 152.0
66.648232 144.0
67.105598 156.0
67.223038 152.0
67.296494 128.0
67.415733 64.0
67.474579 184.0
67.574341 144.0
67.602158 172.0
67.695473 204.0
67.815063 136.0
67.837753 212.0
67.931488 156.0
68.010246 168.0
68.054573 48.0
68.419571 72.0
68.534859 96.0
68.69313 180.0
68.914352 108.0
68.93914 212.0
69.081329 168.0
69.228638 152.0
69.245201 128.0
69.563553 152.0
69.741295 240.0
69.8592 216.0
69.877655 136.0
70.037468 44.0
70.117439 188.0
70.165779 212.0
70.179115 200.0
70.247498 164.0
70.300888 40.0
70.466194 120.0
70.502953 196.0
70.579849 192.0
70.605354 192.0
70.706985 136.0
70.727074 192.0
70.804092 152.0
70.81749 244.0
70.840683 156.0
71.005203 144.0
71.03875 196.0
71.073982 144.0
71.184769 100.0
71.220039 152.0
71.269005 192.0
71.433517 52.0
71.495766 140.0
71.561417 60.0
71.608566 204.0
71.662476 128.0
71.718086 208.0
71.809135 148.0
71.836121 296.0
71.93457 188.0
72.011665 180.0
72.206131 180.0
72.336319 200.0
72.373558 212.0
72.422676 104.0
72.548065 228.0
72.646423 268.0
72.690536 36.0
72.812767 184.0
72.86203 196.0
73.171562 124.0
73.195396 164.0
73.307823 192.0
73.319756 164.0
73.367477 140.0
73.404991 96.0
73.500511 184.0
73.674667 180.0
73.833626 148.0
73.951683 220.0
73.982491 188.0
74.066399 212.0
74.133217 116.0
74.165039 184.0
74.192764 184.0
74.316696 156.0
74.505554 184.0
74.661972 112.0
74.803055 168.0
75.001152 248.0
75.170166 96.0
75.434418 176.0
75.503578 48.0
75.595261 132.0
75.763214 44.0
75.839462 148.0
75.87838 204.0
76.22126 100.0
76.240379 80.0
76.322075 156.0
76.365555 172.0
76.388168 184.0
76.443199 152.0
76.459503 92.0
76.50824 136.0
76.642349 144.0
76.656288 196.0
76.797508 160.0
77.013939 184.0
77.094307 148.0
77.316277 216.0
77.403931 144.0
77.559853 120.0
77.91433 156.0
77.991653 216.0
78.047905 152.0
78.088356 104.0
78.192162 156.0
78.206238 172.0
78.299553 140.0
78.668068 140.0
78.993225 172.0
79.094406 176.0
79.304863 132.0
79.839264 180.0
79.897964 148.0
79.928207 176.0
79.969139 148.0
80.038574 176.0
80.176506 260.0
80.22921 84.0
80.329079 176.0
80.411156 112.0
80.459351 176.0
80.580795 188.0
80.723793 128.0
80.904869 176.0
81.017326 116.0
81.124847 124.0
81.148155 240.0
81.277298 204.0
81.510727 116.0
81.695915 224.0
81.778687 160.0
81.854301 180.0
82.02726 152.0
82.290649 332.0
82.422508 180.0
82.547234 148.0
82.679291 104.0
82.699203 160.0
82.786102 116.0
82.921974 156.0
82.938286 212.0
82.9963 132.0
83.043449 128.0
83.118561 200.0
83.353889 132.0
83.442955 164.0
83.628937 204.0
83.688576 160.0
83.774178 96.0
83.792397 108.0
83.8507 140.0
84.089622 108.0
84.292336 184.0
84.396523 140.0
84.652702 268.0
84.699043 160.0
84.761185 180.0
84.788269 76.0
84.90377 144.0
85.032188 144.0
85.34816 116.0
85.432762 128.0
85.554222 196.0
85.614609 196.0
85.656921 148.0
85.689201 136.0
85.777122 200.0
86.033539 144.0
86.194221 152.0
86.401657 168.0
86.436462 212.0
86.491982 196.0
86.577148 192.0
86.595673 104.0
86.704979 128.0
86.986908 200.0
87.092751 232.0
87.120613 280.0
87.259995 228.0
87.278137 148.0
87.514893 68.0
87.639687 116.0
87.725418 168.0
87.897003 144.0
88.08931 176.0
88.12854 176.0
88.164047 84.0
88.177124 124.0
88.229469 144.0
88.247299 208.0
88.33606 144.0
88.403419 180.0
88.480156 84.0
88.718849 176.0
88.79496 172.0
88.853111 176.0
88.885162 196.0
88.984489 156.0
89.153725 204.0
89.228729 152.0
89.335922 192.0
89.354736 144.0
89.458244 224.0
89.50531 68.0
89.565582 252.0
89.678635 68.0
89.895515 104.0
90.13533 144.0
90.490929 196.0
90.651932 188.0
90.820663 136.0
90.837738 204.0
90.898445 208.0
90.923119 236.0
90.955383 144.0
91.023735 156.0
91.054512 1000.0
91.088936 276.0
91.118698 256.0
91.1605 76.0
91.221321 64.0
91.343025 184.0
91.38678 144.0
91.440063 192.0
91.634293 204.0
91.724182 144.0
91.805847 148.0
91.914581 180.0
91.945114 112.0
92.01001 156.0
92.05584 332.0
92.074936 144.0
92.186653 232.0
92.220139 72.0
92.250725 136.0
92.758003 128.0
92.844284 132.0
92.880722 156.0
92.944031 84.0
93.070213 1276.0
93.276283 116.0
93.297432 60.0
93.374908 192.0
93.432053 140.0
93.574471 124.0
93.626457 164.0
93.684242 120.0
93.755531 68.0
93.994659 96.0
94.072174 172.0
94.257271 112.0
94.367401 204.0
94.704163 164.0
94.853363 76.0
94.979401 72.0
95.042702 204.0
95.084991 1548.0
95.146286 44.0
95.183182 64.0
95.290283 196.0
95.307236 212.0
95.431892 180.0
95.464951 116.0
95.490227 232.0
95.608902 52.0
95.756866 72.0
95.842583 128.0
95.85817 192.0
95.936134 28.0
95.951729 216.0
95.97123 200.0
96.066795 232.0
96.090202 128.0
96.107765 120.0
96.163933 184.0
96.244392 164.0
96.302979 120.0
96.428024 180.0
96.699883 132.0
96.829803 208.0
96.860443 96.0
96.936852 148.0
97.042694 144.0
97.065605 1720.0
97.238861 148.0
97.34684 140.0
97.612122 120.0
97.665222 192.0
97.921089 144.0
98.067741 520.0
98.161522 136.0
98.195045 148.0
98.339073 116.0
98.518761 156.0
98.578041 128.0
98.755966 204.0
98.787621 152.0
98.892487 108.0
98.916245 168.0
98.965736 72.0
98.995438 200.0
99.040993 224.0
99.066742 164.0
99.098442 216.0
99.312538 120.0
99.397842 120.0
99.489143 32.0
99.873985 168.0
99.948257 180.0
100.08654 152.0
100.16925 188.0
100.234993 136.0
100.420395 156.0
100.661873 100.0
100.685844 188.0
100.863663 188.0
101.255829 124.0
101.311913 192.0
101.360001 172.0
101.446182 228.0
101.582542 132.0
101.656776 176.0
101.684875 272.0
102.020317 144.0
102.070587 180.0
102.108795 208.0
102.295921 208.0
102.437599 168.0
102.590034 96.0
102.686996 180.0
102.727158 196.0
102.926971 136.0
103.054359 688.0
103.1492 144.0
103.341324 180.0
103.531601 200.0
103.645042 212.0
103.673416 220.0
103.709892 120.0
103.853851 136.0
103.965439 68.0
104.008064 208.0
104.067108 216.0
104.089272 188.0
104.16848 120.0
104.253815 136.0
104.402214 224.0
104.451027 148.0
104.662689 148.0
104.854172 148.0
104.915321 132.0
105.011162 176.0
105.07019 5912.0
105.144554 84.0
105.239723 152.0
105.42765 148.0
105.521675 192.0
105.574837 68.0
105.670975 196.0
105.783539 60.0
105.818336 160.0
105.957611 200.0
106.073494 796.0
106.202431 228.0
106.291817 192.0
106.343124 140.0
106.357491 192.0
106.398544 120.0
106.441666 96.0
106.488899 120.0
106.527924 128.0
106.610107 32.0
106.751953 104.0
106.788971 156.0
106.836281 104.0
106.856857 96.0
106.924759 144.0
107.050224 1324.0
107.084618 1096.0
107.169815 84.0
107.225449 204.0
107.254311 88.0
107.307907 204.0
107.429588 152.0
107.485291 192.0
107.761971 168.0
107.802338 284.0
107.875641 188.0
107.898376 140.0
108.048897 160.0
108.086678 316.0
108.179733 132.0
108.231491 140.0
108.308342 148.0
108.370262 164.0
108.527786 44.0
108.602448 188.0
108.818268 60.0
108.907562 172.0
109.032219 192.0
109.06501 1068.0
109.101151 776.0
109.121605 132.0
109.16111 32.0
109.242226 52.0
109.46701 280.0
109.539902 172.0
109.585739 220.0
109.673264 56.0
109.752975 68.0
109.806702 92.0
109.883881 144.0
109.904373 92.0
109.977791 36.0
110.069649 140.0
110.096794 92.0
110.111977 152.0
110.378906 140.0
110.485374 168.0
110.552528 176.0
110.611137 160.0
110.667656 48.0
110.760689 132.0
110.845703 160.0
110.914864 172.0
111.079781 148.0
111.179131 52.0
111.254692 164.0
111.305084 160.0
111.321884 112.0
111.506027 172.0
111.748581 208.0
111.800453 172.0
111.895912 152.0
111.929604 184.0
112.03434 208.0
112.04184 152.0
112.087585 132.0
112.117088 168.0
112.144485 40.0
112.239349 136.0
112.258331 188.0
112.464409 212.0
112.963768 48.0
113.057976 220.0
113.090721 192.0
113.213516 136.0
113.497475 148.0
113.563217 28.0
113.609879 240.0
113.771164 140.0
113.904953 148.0
114.098335 176.0
114.240822 228.0
114.364235 144.0
114.49411 208.0
114.549492 220.0
114.574234 136.0
114.849312 128.0
114.890572 180.0
114.911903 136.0
114.958847 180.0
114.975235 136.0
115.031418 180.0
115.055618 1244.0
115.112549 36.0
115.409561 172.0
115.529327 84.0
115.574257 220.0
115.621338 236.0
115.668427 160.0
116.059021 768.0
116.275002 44.0
116.290024 200.0
116.311485 52.0
116.399513 288.0
116.496162 76.0
116.571358 168.0
116.730431 48.0
116.969246 156.0
117.070076 2008.0
117.201836 168.0
117.447601 200.0
117.499374 172.0
117.56411 144.0
117.605118 168.0
117.950714 60.0
118.002602 212.0
118.032867 212.0
118.077309 288.0
118.179955 212.0
118.277344 52.0
118.530731 136.0
118.827782 160.0
118.869003 84.0
118.918922 176.0
119.047905 360.0
119.08519 4440.0
119.229492 192.0
119.250298 84.0
119.268616 172.0
119.299049 252.0
119.316444 88.0
119.381676 80.0
119.396896 144.0
119.540474 136.0
119.741394 152.0
119.821358 80.0
120.030602 132.0
120.084915 672.0
120.336075 148.0
120.458366 116.0
120.567612 144.0
120.602585 104.0
120.644936 160.0
120.781883 176.0
120.82563 216.0
120.950371 144.0
121.026993 184.0
121.065063 2344.0
121.096504 1076.0
121.206604 100.0
121.248245 288.0
121.294266 164.0
121.461754 232.0
121.504791 116.0
121.926392 56.0
122.051689 140.0
122.067085 368.0
122.103264 132.0
122.223259 92.0
122.355316 196.0
122.628464 52.0
122.729874 220.0
122.756332 224.0
122.941635 48.0
123.079842 1880.0
123.111565 160.0
123.173462 44.0
123.228691 172.0
123.459312 144.0
123.582451 100.0
123.633347 88.0
123.79274 152.0
123.856964 144.0
123.896835 140.0
123.938934 64.0
124.003204 196.0
124.082283 168.0
124.12291 140.0
124.1717 72.0
124.187225 40.0
124.315903 124.0
124.675667 88.0
124.773468 96.0
124.851288 168.0
124.966957 116.0
125.21405 48.0
125.69558 140.0
126.005936 152.0
126.050621 132.0
126.115433 232.0
126.209328 124.0
126.48674 152.0
126.515839 116.0
126.639 184.0
126.686035 120.0
126.74205 128.0
126.916885 192.0
126.932579 140.0
126.972946 156.0
127.050858 224.0
127.074554 432.0
127.125496 104.0
127.242218 172.0
127.323051 148.0
127.367973 192.0
127.417397 136.0
127.484802 148.0
127.59269 160.0
127.824623 172.0
127.93589 192.0
128.062836 3824.0
128.126068 132.0
128.283829 60.0
128.301865 216.0
128.362732 176.0
128.604126 128.0
128.755402 244.0
128.791779 164.0
128.845749 164.0
129.024292 168.0
129.069122 4584.0
129.144135 32.0
129.203995 80.0
129.313828 104.0
129.431549 40.0
129.501755 64.0
129.601425 48.0
129.694351 124.0
129.785034 164.0
129.819046 52.0
129.848526 188.0
129.961716 196.0
129.966232 176.0
130.076065 1252.0
130.136719 120.0
130.282074 68.0
130.559372 96.0
130.659454 220.0
130.766403 180.0
130.818756 72.0
130.834702 284.0
130.873398 64.0
130.916656 96.0
130.95311 160.0
130.96904 132.0
131.010056 56.0
131.028275 148.0
131.049622 364.0
131.085815 7224.0
131.123978 32.0
131.224274 164.0
131.288132 148.0
131.326202 132.0
131.393051 100.0
131.434113 40.0
131.493454 136.0
131.543671 52.0
131.593887 196.0
131.612152 144.0
131.886307 236.0
131.984604 64.0
132.006699 176.0
132.030334 144.0
132.055252 868.0
132.089828 472.0
132.271286 144.0
132.304916 128.0
132.373611 160.0
132.440018 100.0
132.483551 120.0
132.655411 148.0
132.864105 192.0
132.935242 120.0
132.965073 136.0
133.064102 2588.0
133.100601 3132.0
133.144821 108.0
133.192978 168.0
133.254395 96.0
133.498047 220.0
133.583145 44.0
133.721207 196.0
133.995239 112.0
134.072174 464.0
134.104294 280.0
134.440262 200.0
134.557983 48.0
134.758911 196.0
134.89296 208.0
134.926712 200.0
135.02243 184.0
135.052505 148.0
135.07869 1052.0
135.117325 1376.0
135.146057 100.0
135.552567 96.0
135.65686 192.0
135.772797 160.0
135.88414 52.0
135.994843 256.0
136.081909 96.0
136.120895 180.0
136.227737 208.0
136.285812 212.0
136.329956 116.0
136.425262 196.0
136.653183 84.0
136.792816 116.0
137.096283 752.0
137.195816 104.0
137.420914 180.0
137.578415 40.0
137.599426 188.0
137.688156 40.0
137.711517 80.0
137.732544 180.0
137.829971 232.0
137.872726 120.0
137.919464 80.0
137.994278 116.0
138.052734 176.0
138.190552 52.0
138.239883 112.0
138.408417 116.0
138.811462 184.0
139.023636 184.0
139.104736 140.0
139.240921 164.0
139.450012 180.0
139.79808 204.0
139.955795 156.0
140.111237 52.0
140.21257 72.0
140.372864 96.0
140.684311 144.0
141.007919 176.0
141.069092 2400.0
141.270386 132.0
141.454956 144.0
141.537827 144.0
141.554398 36.0
141.672821 160.0
141.829224 100.0
142.05603 192.0
142.077591 3456.0
142.104263 200.0
142.232452 228.0
142.249069 88.0
142.279938 80.0
142.304596 104.0
142.491302 124.0
142.605362 148.0
142.657669 56.0
142.77655 156.0
142.859802 120.0
143.054596 172.0
143.084778 5356.0
143.212479 100.0
143.235916 92.0
143.299042 72.0
143.352646 156.0
143.395554 176.0
143.631607 76.0
143.667389 68.0
143.703171 124.0
143.982452 128.0
144.011108 60.0
144.030228 44.0
144.057404 344.0
144.092407 1412.0
144.273972 76.0
144.315002 172.0
144.728546 104.0
144.833923 216.0
144.867462 168.0
145.065369 1160.0
145.101044 5012.0
145.185547 96.0
145.397354 172.0
145.582214 64.0
145.620636 180.0
145.815247 52.0
145.863312 56.0
146.072281 984.0
146.10437 1020.0
146.136948 144.0
146.289093 232.0
146.469696 180.0
146.496201 40.0
146.631134 48.0
146.713089 80.0
146.80098 168.0
146.883255 184.0
146.944611 144.0
147.040176 212.0
147.080048 2508.0
147.115646 1588.0
147.178726 64.0
147.248764 160.0
147.425125 184.0
147.555649 148.0
147.81929 64.0
147.92337 64.0
147.986313 192.0
148.084702 872.0
148.120514 508.0
148.167953 48.0
148.197037 88.0
148.262451 56.0
148.449127 132.0
149.096405 1892.0
149.128601 344.0
149.223709 116.0
149.282059 68.0
149.334961 144.0
149.634872 156.0
149.985672 164.0
150.099258 296.0
150.210007 84.0
150.329559 72.0
150.60788 148.0
150.671387 116.0
150.808243 216.0
150.920685 60.0
150.945145 148.0
151.06691 228.0
151.111252 140.0
151.26564 36.0
151.633057 128.0
151.875778 148.0
151.895401 52.0
152.00827 164.0
152.061752 300.0
152.187454 220.0
152.634644 112.0
153.067886 1052.0
153.096603 204.0
153.402802 88.0
153.718506 176.0
154.007355 172.0
154.039459 136.0
154.075943 744.0
154.217377 84.0
154.328613 240.0
154.375595 40.0
154.513458 180.0
154.622986 160.0
155.085358 5648.0
155.14563 80.0
155.202652 164.0
155.334106 72.0
155.405502 164.0
155.411514 372.0
155.492905 188.0
155.547501 160.0
155.932495 120.0
155.996216 164.0
156.092422 2724.0
156.315475 236.0
156.355301 168.0
156.514618 68.0
156.679276 176.0
156.766205 140.0
156.828506 44.0
156.878372 100.0
157.020493 140.0
157.06398 208.0
157.100739 5960.0
157.165176 120.0
157.182648 128.0
157.579651 240.0
157.762085 160.0
157.833694 252.0
158.014679 52.0
158.07225 744.0
158.106949 632.0
158.153275 52.0
158.345108 212.0
158.495407 56.0
158.690125 152.0
158.821869 128.0
159.031876 148.0
159.081131 1776.0
159.116531 4528.0
159.195267 52.0
159.232941 128.0
159.310806 84.0
159.441467 84.0
159.509323 108.0
159.637558 44.0
159.670242 60.0
159.778412 48.0
159.841309 76.0
159.916809 212.0
160.027573 80.0
160.08696 704.0
160.120621 540.0
160.322296 44.0
160.395386 144.0
160.64502 216.0
160.86911 160.0
160.962952 124.0
161.066574 168.0
161.097107 3276.0
161.130127 548.0
161.329391 72.0
161.380798 180.0
161.435577 60.0
161.508926 168.0
161.898682 108.0
162.015198 144.0
162.09993 572.0
162.139053 196.0
162.401459 64.0
162.47406 132.0
162.915802 136.0
162.946289 144.0
163.11084 4056.0
163.230957 60.0
163.269104 52.0
163.29454 72.0
163.32251 100.0
163.421738 56.0
163.449722 168.0
163.531158 152.0
163.816345 164.0
163.857101 140.0
164.058441 112.0
164.11586 448.0
164.321121 80.0
164.509964 48.0
164.859894 172.0
165.069855 1300.0
165.128326 260.0
165.248566 136.0
165.356033 92.0
165.40979 96.0
165.509628 48.0
165.619751 152.0
165.727356 212.0
166.077957 952.0
166.455826 132.0
166.581665 72.0
167.083908 1620.0
167.19104 128.0
167.348053 224.0
167.445908 212.0
167.541214 92.0
167.636551 172.0
168.051697 168.0
168.091751 1208.0
168.415695 124.0
168.612061 140.0
168.774918 192.0
168.818878 36.0
169.036072 224.0
169.065277 176.0
169.10202 4412.0
169.144867 108.0
169.165573 28.0
169.268768 140.0
169.277435 244.0
169.326111 156.0
169.580017 124.0
169.683701 76.0
169.714828 168.0
170.106628 1488.0
170.171478 84.0
170.218216 44.0
170.384445 64.0
170.441605 120.0
170.545547 100.0
170.688538 148.0
170.938263 148.0
170.996704 176.0
171.034241 116.0
171.079575 1476.0
171.116379 4672.0
171.147629 52.0
171.177231 60.0
171.22908 260.0
171.344452 60.0
171.367889 60.0
171.412186 60.0
171.443466 124.0
171.51091 68.0
171.560745 136.0
171.633759 120.0
171.865906 92.0
172.051208 128.0
172.085327 336.0
172.121658 864.0
172.166092 116.0
172.226166 128.0
172.250717 80.0
172.325439 160.0
172.542358 148.0
172.942596 96.0
173.036835 84.0
173.09642 4656.0
173.132629 1744.0
173.23848 156.0
173.550369 64.0
173.689362 72.0
173.760193 180.0
173.791672 64.0
174.098724 956.0
174.141785 392.0
174.301071 160.0
174.353622 100.0
174.892792 176.0
175.110657 4332.0
175.150238 452.0
175.788864 152.0
175.870682 192.0
176.119034 944.0
176.151001 212.0
176.480927 116.0
176.729553 240.0
176.981003 112.0
177.123932 868.0
177.304184 80.0
177.468536 136.0
177.68071 28.0
178.078812 436.0
178.129364 132.0
178.52803 40.0
178.669006 96.0
178.919174 164.0
178.991058 216.0
179.052307 144.0
179.083603 844.0
180.093307 1008.0
180.284851 184.0
180.576248 192.0
180.889313 184.0
180.945526 160.0
180.985687 96.0
181.073105 140.0
181.101028 1972.0
181.347351 52.0
181.508194 108.0
181.585968 32.0
181.736191 84.0
181.819382 52.0
181.897217 176.0
181.921371 156.0
182.004608 96.0
182.071732 148.0
182.110306 2784.0
182.23291 40.0
182.267838 212.0
182.40332 52.0
182.542023 128.0
182.606567 152.0
182.77066 108.0
182.859467 80.0
182.934845 104.0
183.081635 100.0
183.115402 3248.0
183.161026 76.0
183.220291 216.0
183.252625 32.0
183.314789 56.0
183.408936 76.0
183.441284 208.0
183.462845 64.0
183.52359 96.0
183.565292 72.0
183.651596 108.0
184.024002 52.0
184.085983 240.0
184.122253 628.0
184.764404 164.0
184.949173 208.0
185.005402 56.0
185.09433 756.0
185.130264 1672.0
185.287048 120.0
185.333115 64.0
185.417114 68.0
185.487595 80.0
185.813019 152.0
185.897125 48.0
186.100983 384.0
186.136246 448.0
186.244644 84.0
186.467438 64.0
186.638702 32.0
186.744751 72.0
186.810043 140.0
186.929749 56.0
187.035889 104.0
187.112335 728.0
187.147171 2144.0
187.189468 88.0
187.733368 104.0
187.88884 172.0
188.114838 232.0
188.145157 340.0
188.224548 40.0
188.2901 132.0
188.669907 208.0
188.795685 176.0
188.823029 76.0
189.06105 156.0
189.127625 396.0
189.159409 160.0
189.323853 100.0
190.039307 136.0
190.083206 196.0
190.134628 152.0
190.182007 84.0
190.514267 100.0
190.668137 124.0
190.984314 200.0
191.085022 408.0
191.143677 192.0
191.245712 84.0
192.093491 760.0
192.182678 144.0
192.273743 104.0
192.560883 72.0
193.100266 1476.0
193.168976 112.0
193.445694 200.0
193.542587 188.0
194.107895 1112.0
194.768387 52.0
194.951752 140.0
195.077988 344.0
195.115799 4256.0
195.229752 116.0
195.263123 76.0
195.404984 52.0
195.563614 56.0
195.740234 72.0
196.091309 160.0
196.121521 1524.0
196.195938 112.0
196.770645 84.0
196.893509 52.0
197.03038 232.0
197.092484 464.0
197.133118 2520.0
197.187241 60.0
197.337814 52.0
197.68187 68.0
198.105438 272.0
198.138214 684.0
198.247543 72.0
198.278366 132.0
198.362457 184.0
198.396088 80.0
198.555923 76.0
199.00209 184.0
199.111389 1520.0
199.147797 1480.0
199.364441 104.0
199.462814 112.0
199.496552 40.0
199.54715 212.0
199.836853 60.0
200.116501 896.0
200.135406 328.0
201.12674 864.0
201.157745 404.0
201.260239 48.0
201.39296 36.0
201.695297 88.0
201.765976 132.0
201.867752 108.0
201.896042 68.0
201.921494 164.0
202.077072 48.0
202.131927 756.0
202.906906 60.0
203.081299 56.0
203.108246 328.0
203.139832 456.0
203.94873 100.0
204.095291 104.0
204.446442 256.0
204.63147 64.0
205.102631 592.0
205.161377 184.0
205.52359 152.0
206.106857 472.0
206.186096 44.0
206.266129 136.0
206.623596 252.0
207.081589 180.0
207.117111 1380.0
207.382431 168.0
208.085251 156.0
208.119827 604.0
208.556366 132.0
208.712219 208.0
208.780624 224.0
208.846771 76.0
209.130798 1360.0
209.24678 88.0
209.431076 52.0
210.099838 160.0
210.138794 448.0
210.17775 128.0
210.469269 68.0
210.553024 112.0
210.63678 228.0
210.735001 212.0
210.795685 40.0
210.844818 256.0
211.113647 1116.0
211.146866 3180.0
211.327728 84.0
211.446365 84.0
211.718506 156.0
211.756149 36.0
211.81987 96.0
212.113571 584.0
212.151779 784.0
212.373505 112.0
212.77977 52.0
213.126312 2000.0
213.160858 2308.0
213.29686 60.0
213.320114 96.0
213.526566 68.0
213.587646 76.0
213.770935 116.0
214.129684 176.0
214.169266 432.0
214.324188 100.0
214.356247 52.0
214.656494 88.0
215.076614 68.0
215.141327 996.0
215.17569 708.0
215.576035 44.0
215.67247 48.0
216.134552 108.0
216.181366 212.0
216.66156 208.0
216.919434 112.0
217.098297 184.0
217.158783 536.0
217.41806 80.0
218.108658 184.0
218.13179 76.0
218.164124 212.0
218.593536 120.0
219.114807 384.0
220.125626 292.0
220.238617 60.0
220.472031 76.0
220.596161 48.0
221.13327 1100.0
221.614243 124.0
221.824661 84.0
222.139359 736.0
222.355591 56.0
223.117355 300.0
223.146729 852.0
223.36879 68.0
223.478851 76.0
224.083267 124.0
224.119537 396.0
224.158783 456.0
224.373688 180.0
224.485657 104.0
224.625839 400.0
224.861557 104.0
225.127075 1304.0
225.162903 1312.0
225.20192 108.0
225.267639 152.0
225.356033 68.0
225.461853 212.0
225.49173 84.0
225.542542 60.0
225.721924 80.0
226.131821 448.0
226.16954 644.0
226.542007 104.0
226.583939 64.0
226.775726 40.0
226.973587 112.0
227.140091 1012.0
227.178238 804.0
227.423584 80.0
227.528656 240.0
228.031433 116.0
228.151459 820.0
228.184128 208.0
228.454269 96.0
229.014145 216.0
229.04126 112.0
229.159393 1132.0
230.051453 80.0
230.163696 132.0
230.191833 40.0
230.743271 140.0
230.779556 132.0
230.960999 180.0
231.17688 188.0
231.729919 80.0
232.120941 208.0
232.166428 136.0
232.199783 44.0
232.351456 80.0
232.472412 152.0
233.130478 580.0
234.099182 64.0
234.138443 432.0
234.166183 56.0
234.199692 44.0
235.035004 136.0
235.147446 536.0
236.116409 96.0
236.154999 300.0
236.599869 136.0
237.128082 272.0
237.162964 2172.0
237.427185 60.0
237.611237 44.0
237.770798 40.0
238.140732 220.0
238.170303 596.0
239.142746 664.0
239.177063 172.0
239.467911 180.0
240.145096 540.0
240.171753 136.0
240.361938 48.0
240.414398 188.0
241.156891 408.0
241.609222 116.0
241.834793 68.0
241.88559 60.0
242.176651 176.0
242.362534 128.0
242.396622 112.0
243.17009 508.0
243.218475 112.0
243.32402 72.0
243.373703 120.0
244.174896 136.0
244.486542 48.0
245.062622 100.0
247.150909 344.0
248.155457 164.0
249.076401 108.0
249.162415 604.0
249.928375 92.0
250.129791 148.0
250.180161 112.0
250.983566 76.0
251.142456 468.0
251.177032 716.0
251.500946 232.0
251.526199 84.0
251.636688 192.0
252.022018 100.0
252.053619 48.0
252.153366 128.0
252.182724 720.0
252.42662 48.0
252.70813 40.0
253.065781 112.0
253.157944 900.0
253.194183 2284.0
253.281128 60.0
253.315979 136.0
253.436371 88.0
253.848434 60.0
253.947876 80.0
254.165039 568.0
254.194077 292.0
254.197693 184.0
254.375107 40.0
254.464005 40.0
255.134354 228.0
255.173187 1940.0
255.528717 88.0
255.601898 96.0
255.907471 136.0
256.178986 312.0
256.823944 88.0
257.182617 64.0
257.319885 136.0
257.952423 76.0
258.147461 132.0
258.704193 76.0
258.838654 104.0
259.332001 136.0
259.983063 28.0
260.066498 104.0
261.612671 164.0
262.173737 396.0
265.153381 196.0
266.163788 288.0
266.189178 172.0
267.177551 184.0
267.205048 292.0
267.390503 36.0
267.859375 92.0
268.175262 152.0
268.208038 196.0
268.941925 172.0
269.189117 1240.0
269.591858 32.0
270.101898 56.0
270.193634 664.0
271.203247 1124.0
273.168976 144.0
274.935028 48.0
276.134277 88.0
277.194183 1164.0
278.202423 164.0
278.829712 188.0
279.181213 196.0
280.182709 860.0
281.189301 292.0
281.548248 48.0
282.036041 80.0
282.186493 104.0
282.878998 164.0
283.16861 140.0
283.934448 108.0
284.491425 112.0
285.196838 136.0
286.906891 92.0
293.191223 124.0
293.327545 156.0
294.057495 188.0
295.20517 1588.0
295.34903 32.0
295.947906 28.0
296.139679 96.0
296.20697 300.0
296.591949 108.0
297.216248 120.0
297.332794 48.0
297.63147 48.0
298.163361 148.0
298.192474 228.0
299.247467 152.0
301.990906 84.0
303.084869 104.0
307.668945 92.0
308.83606 128.0
309.119446 144.0
309.865265 92.0
312.069397 160.0
313.128601 68.0
313.214722 2592.0
313.607758 52.0
313.674744 44.0
313.91095 64.0
314.216705 604.0
314.279602 188.0
314.362488 76.0
314.440125 48.0
315.2258 168.0
315.383148 60.0
316.147095 92.0
317.01535 84.0
317.358551 128.0
321.513367 56.0
324.693848 108.0
327.158783 132.0
334.092682 168.0
352.044281 68.0
362.964874 124.0
368.594696 76.0
369.313446 80.0
371.577393 100.0
374.425751 104.0
375.065338 80.0
375.150146 144.0
382.451965 52.0
389.30957 60.0
397.687408 108.0
401.642487 92.0
405.224365 120.0
416.134491 64.0
420.212677 84.0
423.024353 48.0
442.064392 76.0
442.173187 108.0
449.185883 144.0
451.348236 96.0
452.160461 56.0
456.351532 68.0
471.894348 48.0
481.266388 60.0
493.834991 52.0
552.604431 132.0
553.60614 76.0
555.64978 60.0
571.92511 112.0
610.258789 84.0
640.538818 60.0
710.033508 80.0
718.357666 48.0
723.72345 112.0
734.995056 56.0
756.113037 116.0
763.370911 180.0
763.612915 116.0
768.95166 68.0
771.564392 100.0
774.104065 52.0
797.356689 136.0
797.755798 68.0
824.881592 172.0
829.054016 176.0
842.65686 56.0
848.125488 112.0
854.280701 112.0
856.970398 144.0
866.329773 160.0
871.463257 160.0
875.816528 152.0
876.181763 56.0
883.105957 152.0
883.484558 140.0
899.923645 208.0
907.786194 164.0
924.49115 180.0
929.211365 204.0
934.576294 92.0
945.383057 132.0
947.31781 156.0
948.51886 184.0
951.481873 196.0
951.979187 164.0
960.176514 168.0
964.789001 104.0
971.05542 196.0
973.624817 128.0
975.283691 136.0
980.418274 120.0
989.581909 172.0
993.254272 140.0
994.038513 116.0
994.48407 176.0
997.807129 172.0
1015.088806 88.0
1015.976807 140.0
1016.027527 64.0
1018.763672 212.0
1026.943237 192.0
1032.224731 140.0
1036.660889 52.0
1036.936401 196.0
1037.385132 196.0
1037.79541 184.0
1039.05896 164.0
1039.707031 192.0
1040.303955 164.0
1042.462036 208.0
1043.471191 180.0
1044.731689 116.0
1044.828125 180.0
1049.852295 160.0
1050.568237 156.0
1051.574829 244.0
1056.653931 160.0
1060.26709 148.0
1068.533203 208.0
1069.821777 216.0
1073.190063 116.0
1076.171753 128.0
1080.524658 44.0
1081.951294 76.0
1085.437012 212.0
1088.304443 112.0
1089.328979 156.0
1095.492798 136.0
1103.921265 180.0
1104.271729 180.0
1104.602417 156.0
1104.9729 156.0
1106.985107 232.0
1107.44873 132.0
1109.595703 204.0
1114.560303 148.0
1117.146606 176.0
1118.084839 232.0
1119.176514 176.0
1119.849121 232.0
1120.575195 208.0
1120.795044 160.0
1121.594849 176.0
1123.575317 44.0
1124.369385 236.0
1134.764404 104.0
1135.233765 172.0
1135.931274 200.0
1143.672119 132.0
1149.731201 148.0
1151.283936 188.0
1151.337891 172.0
1151.891724 236.0
1155.792725 244.0
1156.266357 116.0
1157.098999 132.0
1159.713745 236.0
1159.842529 120.0
1160.127197 200.0
1161.090088 180.0
1164.177856 116.0
1167.093018 40.0
1168.181152 100.0
1169.38562 132.0
1172.361694 248.0
1173.602295 64.0
1177.423706 256.0
1177.983765 164.0
1178.366333 176.0
1178.462036 148.0
1180.300659 164.0
1181.449707 172.0
1182.852539 108.0
1183.249634 208.0
1186.469604 228.0
1186.784912 168.0
1190.510986 132.0
1191.89856 168.0
1193.053223 156.0
1195.343628 184.0
1196.121338 140.0
1196.320923 72.0
1198.462769 172.0
1199.365601 152.0
1199.468994 252.0
1204.402588 208.0
1205.183228 60.0
1206.57251 160.0
1207.540527 200.0
1208.426025 172.0
1209.761719 52.0
1211.111938 208.0
1215.285278 188.0
1216.173584 200.0
1218.263672 120.0
1218.90979 148.0
1220.223511 76.0
1220.320801 148.0
1220.633667 208.0
1221.837036 180.0
1224.931274 152.0
1225.088135 44.0
1225.373779 64.0
1231.442627 92.0
1233.154419 184.0
1237.323486 192.0
1237.617554 180.0
1238.598022 108.0
1238.90625 128.0
1241.156006 80.0
1241.625854 136.0
1242.804321 88.0
1243.274536 176.0
1243.660522 208.0
1246.757812 100.0
1248.599731 124.0
1249.296021 152.0
1250.140381 132.0
1250.196655 64.0
1250.372559 100.0
1250.675293 124.0
1250.921631 40.0
1251.801636 68.0
1254.288696 124.0
1254.838501 168.0
1256.185547 64.0
1256.785278 164.0
1257.145142 152.0
1258.218018 124.0
1259.955322 204.0
1260.612427 124.0
1263.433594 152.0
1263.744873 140.0
1264.516235 152.0
1267.029907 248.0
1267.781006 140.0
1269.042725 112.0
1270.461182 116.0
1271.951416 140.0
1273.435425 76.0
1273.726562 200.0
1274.230957 92.0
1279.479614 124.0
1280.120483 164.0
1280.490723 204.0
1282.058105 196.0
1282.74231 232.0
1286.194702 160.0
1286.544556 160.0
1288.329834 136.0
1288.772827 192.0
1289.001465 168.0
1289.644653 148.0
1291.124634 100.0
1293.070679 180.0
1294.131348 256.0
1299.577393 188.0
1299.964844 244.0
1300.546143 232.0
1307.294678 148.0
1307.992798 184.0
1310.254028 136.0
1310.470093 104.0
1311.406982 180.0
1312.639771 148.0
1312.690186 156.0
1312.820068 180.0
1314.659546 180.0
1315.807251 44.0
1315.915527 136.0
1317.135986 164.0
1317.229858 184.0
1317.699463 188.0
1317.872925 132.0
1323.152588 100.0
1324.217041 180.0
1326.035645 168.0
1327.514526 160.0
1328.297852 232.0
1329.937744 184.0
1332.922607 216.0
1333.067871 148.0
1333.591187 192.0
1333.932739 172.0
1334.987061 120.0
1335.146973 48.0
1335.925293 192.0
1336.078003 184.0
1337.133179 120.0
1337.198608 164.0
1337.868286 220.0
1338.283325 204.0
1338.581787 148.0
1339.492188 152.0
1342.44397 152.0
1342.670044 164.0
1345.63269 152.0
1346.078003 172.0
1347.363525 192.0
1348.174561 128.0
1350.609253 224.0
1351.53833 172.0
1351.845703 84.0
1351.911499 212.0
1352.014038 132.0
1352.248169 220.0
1352.416504 84.0
1353.170532 156.0
1354.100464 168.0
1354.415405 148.0
1355.257935 156.0
1355.895508 148.0
1357.521851 132.0
1357.852905 104.0
1361.933716 164.0
1362.668335 112.0
1363.145996 132.0
1365.255737 232.0
1366.086914 124.0
1370.91687 204.0
1372.317383 140.0
1376.582275 112.0
1377.764038 164.0
1379.020264 132.0
1383.051392 156.0
1384.35437 140.0
1385.558105 192.0
1385.717285 48.0
1385.850586 136.0
1386.984497 144.0
1388.912354 172.0
1391.019775 168.0
1392.296753 148.0
1392.638428 180.0
1394.050049 144.0
1394.243164 120.0
1394.689209 196.0
1394.845215 204.0
1397.500244 196.0
1397.559692 152.0
1398.318726 48.0
1399.273193 92.0
1400.093262 148.0
1401.171143 224.0
1402.929565 68.0
1403.2948 164.0
1404.122559 140.0
1404.942993 184.0
1410.027954 184.0
1413.864624 92.0
1414.313599 200.0
1414.560669 188.0
1415.1521 168.0
1415.444092 96.0
1415.668823 116.0
1416.882202 164.0
1418.530884 268.0
1420.012207 180.0
1420.818115 140.0
1421.155762 168.0
1422.17627 172.0
1424.203613 108.0
1425.428223 204.0
1426.938965 136.0
1428.247437 140.0
1429.037354 200.0
1429.127686 104.0
1431.340576 44.0
1432.033447 136.0
1433.231201 132.0
1433.909424 248.0
1434.291504 152.0
1434.836548 268.0
1436.246704 220.0
1436.348145 176.0
1437.091675 136.0
1437.831177 188.0
1438.797363 168.0
1439.182373 48.0
1439.937622 40.0
1441.138672 160.0
1441.788574 92.0
1442.438477 148.0
1443.096191 172.0
1443.315552 188.0
1443.62561 168.0
1444.139771 172.0
1444.903809 144.0
1447.999756 208.0
1448.976929 100.0
1449.090576 144.0
1450.439575 108.0
1451.758789 136.0
1453.101318 68.0
1454.702637 164.0
1455.91748 236.0
1456.821289 200.0
1457.535522 192.0
1457.626709 176.0
1458.234619 136.0
1460.036499 120.0
1462.288452 168.0
1462.570068 168.0
1463.087646 96.0
1463.704346 72.0
1465.486694 108.0
1466.233521 180.0
1466.927124 144.0
1467.880127 188.0
1468.177612 200.0
1468.635132 76.0
1470.618896 132.0
1471.374634 152.0
1472.130615 124.0
1473.772827 164.0
1475.607178 148.0
1476.471313 156.0
1478.376221 128.0
1478.513916 164.0
1479.983643 36.0
1480.351196 164.0
1481.208984 192.0
1482.496216 52.0
1483.852905 116.0
1484.949463 144.0
1485.862305 140.0
1486.476074 176.0
1487.665771 176.0
1489.616211 92.0
1490.691895 156.0
1491.706421 220.0
1491.890869 108.0
1492.621338 156.0
1493.090454 56.0
1493.359619 144.0
1493.88269 132.0
1494.36731 168.0
1495.098267 184.0
1496.091309 160.0
1497.130737 156.0
1499.064331 44.0
1500.868042 84.0
1502.726929 156.0
1503.128052 132.0
1503.583374 96.0
1504.069702 116.0
1504.424805 148.0
1504.841675 180.0
1504.949707 192.0
