>compound MLS001141309-01!
>formula C24H23N3O3
>ionization [M+H]+
>parentmass 402.18121804809056
#inchi InChI=1S/C24H23N3O3/c1-29-16-10-8-15(9-11-16)22-23-19(18-6-2-3-7-20(18)26-23)13-21(27-22)24(28)25-14-17-5-4-12-30-17/h2-3,6-11,13,17,27H,4-5,12,14H2,1H3,(H,25,28)
#inchikey CLWNGCIQDFFMPZ
#Ion_Source LC-ESI
#Instrument qTof
#Compound_Source NIH Natural Product Library
#PI Dorrestein
#Data_Collector VVP/LMS
#Scan -1
#Precursor_MZ 402.182
#ExactMass 401.174
#Charge 1
#CAS_Number N/A
#Pubmed_ID N/A
#Smiles COc1ccc(cc1)c2[nH]c(cc3c4ccccc4nc23)C(=O)NCC5CCCO5
#INCHI_AUX N/A
#Library_Class 1
#SpectrumID CCMSLIB00000079968
#IonMode Positive
#UpdateWorkflowName UPDATE-SINGLE-ANNOTATED-GOLD
#LibraryQualityString Gold
#TaskID b1d8e8f6646f4e71acdff9ca3d919d08
##Scan# 2380
#SpectrumFile p2-D02_GD2_01_18014.mzXML
#LibraryName NIH_Natural_Products_Library.mgf
#MQScore -1
#Organism NIH_Natural_Products_Library
#TIC_Query 0
#RT_Query -1
#MZErrorPPM -1
#SharedPeaks 0
#MassDiff 0
#LibMZ -1
#SpecMZ 402.182
#SpecCharge 0
#internalFilename spec-00000.mgf

>collision 10
94.969086 172.0
94.987289 136.0
95.005333 164.0
95.024033 160.0
95.049057 128.0
95.067642 180.0
95.081619 224.0
95.105713 96.0
95.119408 252.0
95.137245 152.0
95.152222 160.0
95.198532 124.0
95.221687 244.0
95.244362 112.0
95.273186 300.0
95.303619 172.0
95.319267 236.0
95.349373 92.0
95.370529 164.0
95.395691 120.0
95.420364 92.0
95.437943 212.0
95.46801 228.0
95.500008 92.0
95.540787 104.0
95.570137 60.0
95.582428 172.0
95.618729 136.0
95.649918 112.0
95.666672 204.0
95.680298 108.0
95.709633 60.0
95.747192 160.0
95.767921 108.0
95.795082 140.0
95.811356 324.0
95.819252 228.0
95.827271 176.0
95.855591 76.0
95.871178 64.0
95.891457 148.0
95.89962 108.0
95.947235 200.0
95.967445 156.0
96.007645 84.0
96.026222 148.0
96.052498 212.0
96.068779 208.0
96.083488 280.0
96.107788 112.0
96.127808 140.0
96.148788 132.0
96.169357 148.0
96.190361 148.0
96.194199 104.0
96.20961 176.0
96.217522 92.0
96.223389 204.0
96.239349 188.0
96.258476 156.0
96.284508 128.0
96.303162 76.0
96.307175 76.0
96.331322 296.0
96.374878 152.0
96.409912 64.0
96.43129 76.0
96.452873 92.0
96.460175 108.0
96.466103 176.0
96.50267 224.0
96.525124 132.0
96.538811 128.0
96.560326 168.0
96.575974 132.0
96.601234 96.0
96.612305 216.0
96.649193 56.0
96.666748 200.0
96.68837 284.0
96.724648 248.0
96.748688 124.0
96.773666 96.0
96.82341 84.0
96.852715 164.0
96.878624 164.0
96.898964 240.0
96.931725 128.0
96.950249 140.0
96.979813 268.0
96.998863 208.0
97.029419 172.0
97.061951 128.0
97.085991 356.0
97.130287 192.0
97.173355 168.0
97.213013 232.0
97.227493 184.0
97.246941 220.0
97.274231 264.0
97.298843 192.0
97.330345 64.0
97.350609 216.0
97.375168 136.0
97.396042 184.0
97.416748 292.0
97.448578 140.0
97.470909 152.0
97.485649 140.0
97.499283 132.0
97.51252 136.0
97.533516 256.0
97.547661 152.0
97.562302 88.0
97.58477 188.0
97.609161 192.0
97.614403 128.0
97.642273 188.0
97.670494 192.0
97.703896 104.0
97.737518 176.0
97.768974 104.0
97.791962 164.0
97.812126 396.0
97.841141 228.0
97.863991 104.0
97.892761 148.0
97.928009 196.0
97.952805 252.0
97.976585 116.0
97.990089 108.0
98.017365 148.0
98.037636 96.0
98.049034 224.0
98.076065 100.0
98.113358 96.0
98.118271 88.0
98.137047 120.0
98.150917 132.0
98.175995 196.0
98.199585 148.0
98.213966 64.0
98.227783 296.0
98.242126 316.0
98.27327 216.0
98.312737 108.0
98.327629 124.0
98.347527 200.0
98.360954 236.0
98.38311 140.0
98.451477 128.0
98.478127 196.0
98.509064 100.0
98.53743 308.0
98.558662 200.0
98.573936 296.0
98.600334 408.0
98.642807 316.0
98.659981 172.0
98.683548 132.0
98.698997 236.0
98.725128 132.0
98.741432 180.0
98.755272 88.0
98.774773 128.0
98.80204 204.0
98.841682 112.0
98.868393 148.0
98.909813 184.0
98.922096 232.0
98.9468 132.0
98.974648 164.0
98.999901 140.0
99.038399 288.0
99.063866 188.0
99.085854 80.0
99.113899 216.0
99.156662 168.0
99.195618 164.0
99.221008 304.0
99.273163 160.0
99.293282 124.0
99.306473 128.0
99.331665 84.0
99.3647 184.0
99.382843 176.0
99.405716 308.0
99.409607 156.0
99.43914 160.0
99.461411 124.0
99.480156 140.0
99.519089 152.0
99.543839 124.0
99.549911 112.0
99.560707 312.0
99.584435 92.0
99.605598 148.0
99.620193 188.0
99.635391 124.0
99.659546 76.0
99.678406 80.0
99.70063 308.0
99.731888 136.0
99.754929 136.0
99.768539 96.0
99.790878 156.0
99.810753 220.0
99.83004 160.0
99.846092 116.0
99.883041 180.0
99.901779 288.0
99.921753 108.0
99.943146 104.0
99.970222 180.0
99.991936 180.0
100.008888 116.0
100.025024 184.0
100.07309 104.0
100.07988 148.0
100.109474 80.0
100.142632 116.0
100.168587 124.0
100.20076 180.0
100.234901 152.0
100.25705 204.0
100.272133 208.0
100.292229 112.0
100.306015 288.0
100.331932 188.0
100.353043 184.0
100.38472 152.0
100.408539 220.0
100.427887 164.0
100.450333 272.0
100.473526 112.0
100.495979 96.0
100.522446 200.0
100.545883 168.0
100.579117 216.0
100.628014 128.0
100.646469 112.0
100.660347 164.0
100.677284 244.0
100.69252 208.0
100.727333 84.0
100.754944 112.0
100.768761 148.0
100.806961 224.0
100.824661 172.0
100.861053 200.0
100.913689 316.0
100.962372 108.0
100.965248 292.0
100.974335 252.0
101.012894 212.0
101.050301 152.0
101.089462 180.0
101.114136 100.0
101.178993 32.0
101.21315 132.0
101.235054 104.0
101.258614 276.0
101.323181 184.0
101.338387 108.0
101.358368 112.0
101.374649 268.0
101.390976 192.0
101.398773 148.0
101.42971 76.0
101.444191 324.0
101.507462 204.0
101.52507 188.0
101.537933 176.0
101.555748 312.0
101.599838 128.0
101.627632 164.0
101.647614 320.0
101.661308 208.0
101.694649 200.0
101.715149 52.0
101.738312 56.0
101.759727 148.0
101.79361 188.0
101.81382 112.0
101.846313 112.0
101.862816 132.0
101.882782 132.0
101.887924 120.0
101.902992 212.0
101.936111 168.0
101.978951 200.0
102.001549 184.0
102.01799 164.0
102.037598 156.0
102.056786 156.0
102.075851 52.0
102.112053 392.0
102.136185 156.0
102.158691 284.0
102.174149 124.0
102.181145 80.0
102.226189 168.0
102.257828 96.0
102.28318 236.0
102.345009 396.0
102.351898 124.0
102.360199 272.0
102.378098 140.0
102.382919 216.0
102.407906 148.0
102.441231 184.0
102.461426 164.0
102.479477 220.0
102.510597 144.0
102.5429 300.0
102.561035 136.0
102.592247 128.0
102.618034 184.0
102.665871 56.0
102.687614 164.0
102.692596 228.0
102.727394 64.0
102.753265 412.0
102.792961 132.0
102.817818 176.0
102.834839 112.0
102.848404 180.0
102.863159 92.0
102.876976 380.0
102.896828 96.0
102.915367 112.0
102.944153 120.0
102.976166 112.0
102.993484 308.0
103.020157 76.0
103.050888 240.0
103.082596 352.0
103.088341 248.0
103.096336 264.0
103.133377 112.0
103.155968 196.0
103.199448 180.0
103.216583 212.0
103.222519 104.0
103.269135 68.0
103.291985 140.0
103.321175 148.0
103.351639 204.0
103.374016 132.0
103.415634 72.0
103.439499 176.0
103.467232 100.0
103.473572 164.0
103.489441 356.0
103.507019 224.0
103.524734 152.0
103.549034 52.0
103.571373 140.0
103.59549 188.0
103.63118 220.0
103.666534 88.0
103.694504 180.0
103.706421 88.0
103.71154 116.0
103.73175 292.0
103.752098 224.0
103.787018 128.0
103.800621 300.0
103.835739 172.0
103.88205 220.0
103.907822 188.0
103.941193 236.0
103.977402 232.0
103.999924 124.0
104.016388 96.0
104.034546 180.0
104.05191 164.0
104.074455 184.0
104.097382 132.0
104.135887 316.0
104.157539 284.0
104.173546 228.0
104.205696 172.0
104.211945 216.0
104.240807 252.0
104.277046 204.0
104.327362 164.0
104.365456 204.0
104.378052 168.0
104.396255 68.0
104.412323 184.0
104.418297 52.0
104.424828 156.0
104.447044 168.0
104.484566 176.0
104.49688 268.0
104.526405 152.0
104.545586 160.0
104.562119 140.0
104.582253 164.0
104.606155 128.0
104.644524 340.0
104.699295 136.0
104.734138 528.0
104.757584 96.0
104.775513 220.0
104.810402 104.0
104.839081 192.0
104.887146 124.0
104.918495 200.0
104.939384 116.0
104.959305 376.0
104.985352 144.0
105.043098 124.0
105.061493 100.0
105.077652 92.0
105.098305 164.0
105.120193 80.0
105.148384 120.0
105.160629 240.0
105.174057 196.0
105.209335 160.0
105.233727 160.0
105.258644 136.0
105.310356 256.0
105.326698 168.0
105.355476 340.0
105.378792 140.0
105.423622 160.0
105.441628 184.0
105.4571 340.0
105.496384 104.0
105.528641 176.0
105.553154 124.0
105.558037 164.0
105.567337 156.0
105.595619 224.0
105.617874 164.0
105.655251 188.0
105.67627 152.0
105.692642 52.0
105.706963 188.0
105.735611 160.0
105.777161 80.0
105.8134 140.0
105.83387 104.0
105.855698 168.0
105.873772 248.0
105.890388 180.0
105.928291 148.0
105.951576 144.0
105.967003 64.0
105.990952 124.0
106.00798 300.0
106.024376 96.0
106.076347 116.0
106.089203 156.0
106.12072 260.0
106.135918 216.0
106.152527 212.0
106.170799 264.0
106.196655 172.0
106.211243 480.0
106.232513 140.0
106.262947 196.0
106.3032 120.0
106.333595 108.0
106.360947 120.0
106.38485 176.0
106.411369 292.0
106.435509 104.0
106.459518 140.0
106.47789 136.0
106.501892 132.0
106.529114 116.0
106.554306 76.0
106.570717 164.0
106.591461 104.0
106.620995 224.0
106.64991 132.0
106.667305 96.0
106.694351 112.0
106.71804 112.0
106.731171 208.0
106.775223 212.0
106.82058 188.0
106.846016 132.0
106.863899 52.0
106.871887 44.0
106.886711 120.0
106.913605 52.0
106.930069 132.0
106.953453 224.0
106.977615 120.0
106.993721 264.0
107.036781 100.0
107.087585 116.0
107.118698 104.0
107.133018 148.0
107.163116 136.0
107.178337 284.0
107.193909 104.0
107.220451 160.0
107.237816 276.0
107.246834 80.0
107.251839 264.0
107.275459 292.0
107.28508 88.0
107.316345 172.0
107.339066 172.0
107.353439 204.0
107.396004 144.0
107.415901 176.0
107.455109 120.0
107.476799 352.0
107.500916 44.0
107.521111 188.0
107.548386 176.0
107.555344 268.0
107.575218 72.0
107.604607 204.0
107.619606 164.0
107.633888 144.0
107.642288 148.0
107.6493 120.0
107.68734 172.0
107.719597 348.0
107.740662 112.0
107.763908 164.0
107.781227 180.0
107.789078 124.0
107.816872 96.0
107.842575 140.0
107.857872 112.0
107.872681 152.0
107.896378 144.0
107.904167 168.0
107.909988 132.0
107.92984 220.0
107.960327 224.0
108.000221 240.0
108.023682 176.0
108.045761 172.0
108.067078 44.0
108.086273 72.0
108.10788 128.0
108.13456 164.0
108.159935 292.0
108.17955 296.0
108.20594 188.0
108.234032 296.0
108.255714 180.0
108.277458 76.0
108.309349 256.0
108.325859 120.0
108.348488 108.0
108.392433 148.0
108.41674 388.0
108.471252 224.0
108.488525 296.0
108.514442 88.0
108.547615 160.0
108.575104 296.0
108.621559 300.0
108.646919 164.0
108.693817 160.0
108.711494 120.0
108.738472 104.0
108.760948 236.0
108.78614 112.0
108.80703 136.0
108.833221 308.0
108.867188 128.0
108.889885 284.0
108.90519 204.0
108.925034 108.0
108.949226 104.0
108.99501 216.0
109.013321 140.0
109.052086 108.0
109.094673 300.0
109.111946 176.0
109.149887 152.0
109.172813 56.0
109.207405 148.0
109.240211 84.0
109.268349 64.0
109.290977 216.0
109.329842 144.0
109.33493 80.0
109.357277 212.0
109.410149 180.0
109.432762 148.0
109.447502 432.0
109.479218 220.0
109.513931 208.0
109.531624 288.0
109.555763 136.0
109.576057 180.0
109.597565 32.0
109.616943 212.0
109.63829 36.0
109.655655 268.0
109.669388 136.0
109.685471 144.0
109.696152 168.0
109.70002 216.0
109.728615 124.0
109.791168 104.0
109.81411 268.0
109.844185 268.0
109.870346 156.0
109.87381 148.0
109.889954 168.0
109.914246 108.0
109.943176 160.0
109.963036 180.0
109.981651 200.0
109.997726 120.0
110.01442 132.0
110.035301 40.0
110.059731 80.0
110.077225 148.0
110.102242 132.0
110.135429 196.0
110.171967 172.0
110.189758 384.0
110.216942 128.0
110.222672 124.0
110.228348 216.0
110.256279 308.0
110.270065 128.0
110.303246 200.0
110.325256 156.0
110.340614 96.0
110.3592 248.0
110.388626 220.0
110.416916 248.0
110.440697 200.0
110.459518 64.0
110.488335 232.0
110.512733 280.0
110.538483 172.0
110.572189 80.0
110.588821 136.0
110.631981 280.0
110.656105 292.0
110.677704 292.0
110.698059 156.0
110.70314 260.0
110.72403 160.0
110.75502 164.0
110.796555 124.0
110.838333 68.0
110.865364 176.0
110.871536 148.0
110.889404 156.0
110.911964 160.0
110.920486 144.0
110.926949 180.0
110.934639 184.0
110.953735 220.0
110.992859 132.0
111.018806 116.0
111.05619 228.0
111.096336 176.0
111.114037 128.0
111.137009 196.0
111.157707 176.0
111.180771 152.0
111.199913 144.0
111.212547 84.0
111.232735 164.0
111.248718 156.0
111.283195 156.0
111.318321 144.0
111.335876 340.0
111.361801 196.0
111.387421 156.0
111.397758 116.0
111.405937 224.0
111.43119 48.0
111.453278 152.0
111.495277 104.0
111.51857 192.0
111.545715 104.0
111.567856 188.0
111.586914 188.0
111.620499 176.0
111.660812 228.0
111.693069 184.0
111.711838 152.0
111.735542 60.0
111.759109 128.0
111.781776 124.0
111.811432 140.0
111.858009 216.0
111.881111 184.0
111.911774 80.0
111.942551 136.0
111.986771 104.0
112.011604 112.0
112.040245 84.0
112.064354 100.0
112.087891 176.0
112.122208 120.0
112.129738 228.0
112.151817 80.0
112.171295 208.0
112.201813 108.0
112.208839 128.0
112.216652 108.0
112.236252 188.0
112.250687 104.0
112.274605 256.0
112.323128 236.0
112.340874 132.0
112.361099 300.0
112.376732 172.0
112.397919 124.0
112.419487 144.0
112.452965 164.0
112.461342 120.0
112.466843 196.0
112.488365 120.0
112.533966 156.0
112.574692 260.0
112.608521 156.0
112.623276 112.0
112.641457 92.0
112.686974 92.0
112.709511 244.0
112.731155 96.0
112.753433 124.0
112.775604 136.0
112.794601 92.0
112.821861 176.0
112.843735 156.0
112.87545 336.0
112.914711 196.0
112.954773 396.0
112.979683 180.0
112.990173 144.0
113.030457 116.0
113.053642 184.0
113.078423 108.0
113.106644 144.0
113.131271 340.0
113.157578 156.0
113.167114 64.0
113.17292 160.0
113.21138 172.0
113.23439 200.0
113.240593 340.0
113.249374 304.0
113.273453 196.0
113.293404 184.0
113.324768 144.0
113.345428 160.0
113.353867 120.0
113.372246 128.0
113.391907 188.0
113.411659 80.0
113.427406 232.0
113.452446 192.0
113.482155 280.0
113.51062 212.0
113.537506 288.0
113.554932 284.0
113.583054 96.0
113.630173 248.0
113.647049 168.0
113.664024 108.0
113.695427 120.0
113.73893 108.0
113.775291 216.0
113.816322 272.0
113.841003 188.0
113.869614 168.0
113.886002 152.0
113.918793 84.0
113.940659 128.0
113.964394 152.0
113.990334 148.0
114.03743 292.0
114.055847 128.0
114.087273 128.0
114.118561 80.0
114.136765 100.0
114.159119 108.0
114.184479 244.0
114.203621 284.0
114.225555 128.0
114.267136 224.0
114.292519 300.0
114.314247 76.0
114.330925 96.0
114.362137 136.0
114.388741 120.0
114.41996 144.0
114.453201 72.0
114.478165 156.0
114.497696 184.0
114.528564 156.0
114.54673 160.0
114.574913 340.0
114.622871 244.0
114.645729 284.0
114.68055 76.0
114.706902 132.0
114.741264 156.0
114.77906 192.0
114.811913 156.0
114.82003 180.0
114.826401 128.0
114.846855 176.0
114.872208 204.0
114.886963 136.0
114.914787 148.0
114.937752 112.0
114.959785 232.0
114.972557 188.0
115.01516 204.0
115.049355 116.0
115.069908 252.0
115.082947 76.0
115.086845 140.0
115.128242 336.0
115.158287 272.0
115.18084 36.0
115.21286 244.0
115.241783 116.0
115.260361 104.0
115.276901 192.0
115.299484 48.0
115.31958 148.0
115.357529 100.0
115.382378 204.0
115.396721 212.0
115.424683 260.0
115.472557 196.0
115.494041 156.0
115.524864 204.0
115.551796 164.0
115.569405 104.0
115.585793 36.0
115.591438 76.0
115.655197 188.0
115.701012 144.0
115.728012 108.0
115.753471 72.0
115.779945 280.0
115.795822 220.0
115.84214 156.0
115.880051 540.0
115.899155 192.0
115.907219 80.0
115.912613 216.0
115.930794 132.0
115.945793 128.0
115.974571 164.0
116.007881 164.0
116.054237 408.0
116.094131 284.0
116.121284 144.0
116.148956 148.0
116.183311 124.0
116.207314 100.0
116.248161 104.0
116.277367 112.0
116.320007 160.0
116.32943 236.0
116.332878 128.0
116.347702 120.0
116.382515 244.0
116.413002 76.0
116.435219 180.0
116.460167 160.0
116.482376 316.0
116.506546 176.0
116.577667 368.0
116.591042 60.0
116.620399 148.0
116.663307 180.0
116.692741 176.0
116.706619 232.0
116.731491 108.0
116.7687 224.0
116.788628 184.0
116.805992 140.0
116.826675 160.0
116.841187 300.0
116.882065 132.0
116.924553 212.0
116.953316 132.0
116.973961 160.0
116.992905 124.0
117.006271 272.0
117.021965 88.0
117.043015 132.0
117.050247 88.0
117.057663 208.0
117.089378 52.0
117.107506 200.0
117.157646 104.0
117.183167 304.0
117.203857 116.0
117.212502 148.0
117.218391 184.0
117.246994 96.0
117.268654 240.0
117.30072 100.0
117.314957 144.0
117.33548 148.0
117.353767 112.0
117.390862 216.0
117.414658 152.0
117.451614 320.0
117.48101 72.0
117.505547 168.0
117.521355 132.0
117.549431 84.0
117.570946 208.0
117.586929 268.0
117.639 168.0
117.672928 336.0
117.702301 196.0
117.726822 144.0
117.740273 164.0
117.759453 96.0
117.779976 248.0
117.8144 224.0
117.848991 188.0
117.873955 136.0
117.893402 108.0
117.907837 100.0
117.938728 260.0
117.948761 104.0
117.953049 152.0
117.970131 88.0
117.994141 244.0
118.000015 148.0
118.019852 228.0
118.062302 124.0
118.083649 144.0
118.114342 84.0
118.147484 172.0
118.162834 112.0
118.181557 216.0
118.207939 132.0
118.227036 144.0
118.24115 120.0
118.277138 188.0
118.298592 152.0
118.315178 96.0
118.338989 68.0
118.354752 100.0
118.37011 132.0
118.416832 184.0
118.48616 120.0
118.516594 152.0
118.539375 132.0
118.557762 132.0
118.589142 84.0
118.605576 128.0
118.627571 156.0
118.670067 228.0
118.696503 128.0
118.726753 248.0
118.754387 104.0
118.780853 304.0
118.820129 132.0
118.83773 320.0
118.853584 172.0
118.871147 144.0
118.886726 228.0
118.903603 260.0
118.927345 108.0
118.952507 132.0
118.973854 120.0
118.991585 172.0
119.016258 196.0
119.040649 60.0
119.046669 108.0
119.064362 208.0
119.087128 176.0
119.118622 104.0
119.151527 136.0
119.1754 44.0
119.193321 136.0
119.210159 120.0
119.218163 76.0
119.240601 300.0
119.257187 192.0
119.287025 168.0
119.306702 156.0
119.336205 168.0
119.362274 276.0
119.377365 140.0
119.412872 104.0
119.431381 352.0
119.460068 104.0
119.495514 108.0
119.520386 400.0
119.570305 320.0
119.640274 172.0
119.6642 212.0
119.699165 200.0
119.718857 168.0
119.763557 68.0
119.795135 128.0
119.82019 152.0
119.840263 112.0
119.844383 272.0
119.875305 244.0
119.901123 284.0
119.921883 124.0
119.937691 152.0
119.94381 180.0
119.95507 196.0
120.001083 252.0
120.030769 104.0
120.05957 152.0
120.073723 64.0
120.100525 100.0
120.137459 128.0
120.176033 132.0
120.200005 160.0
120.233215 172.0
120.277824 196.0
120.311493 160.0
120.354057 252.0
120.373596 116.0
120.388695 176.0
120.423111 192.0
120.441353 64.0
120.455177 164.0
120.470062 64.0
120.484619 172.0
120.501305 132.0
120.524063 164.0
120.546768 248.0
120.602715 60.0
120.634628 160.0
120.650307 172.0
120.6707 240.0
120.698715 132.0
120.716179 112.0
120.743515 60.0
120.760109 108.0
120.79866 132.0
120.822556 176.0
120.83976 144.0
120.861641 128.0
120.886978 172.0
120.936829 112.0
120.962029 156.0
120.99633 288.0
121.020264 136.0
121.041611 200.0
121.072784 96.0
121.097565 172.0
121.115585 176.0
121.144066 172.0
121.159393 104.0
121.180412 108.0
121.198837 396.0
121.224304 104.0
121.262383 84.0
121.289742 224.0
121.326416 136.0
121.346642 256.0
121.360748 464.0
121.388718 172.0
121.410782 128.0
121.424408 164.0
121.441231 188.0
121.479782 120.0
121.512314 116.0
121.544029 112.0
121.548332 152.0
121.559158 268.0
121.581734 168.0
121.62854 272.0
121.632286 136.0
121.656448 168.0
121.681358 148.0
121.705978 280.0
121.718109 240.0
121.723488 196.0
121.760231 296.0
121.765121 188.0
121.774452 232.0
121.813927 176.0
121.862289 84.0
121.898094 112.0
121.95385 224.0
121.976509 452.0
122.005486 156.0
122.021614 160.0
122.042725 144.0
122.059265 96.0
122.081253 104.0
122.109612 152.0
122.152634 132.0
122.178566 148.0
122.220467 160.0
122.239639 84.0
122.265495 284.0
122.294662 132.0
122.314163 116.0
122.3629 104.0
122.381523 136.0
122.404732 76.0
122.466789 224.0
122.522331 264.0
122.551941 48.0
122.565872 152.0
122.599113 324.0
122.643723 168.0
122.655716 172.0
122.688126 96.0
122.703758 112.0
122.728058 76.0
122.746277 120.0
122.776741 108.0
122.799873 312.0
122.815964 336.0
122.862732 240.0
122.892395 160.0
122.908539 160.0
122.923912 184.0
122.968025 396.0
122.985924 108.0
122.995003 124.0
123.016205 140.0
123.045898 332.0
123.07505 164.0
123.091591 292.0
123.11628 212.0
123.141296 112.0
123.158966 180.0
123.211594 300.0
123.214607 236.0
123.240608 168.0
123.27433 256.0
123.290939 320.0
123.317329 196.0
123.352684 292.0
123.390991 104.0
123.416893 168.0
123.438263 156.0
123.466171 188.0
123.487328 136.0
123.520195 264.0
123.57653 184.0
123.584923 164.0
123.606316 160.0
123.623238 76.0
123.652847 200.0
123.681038 232.0
123.702003 264.0
123.729172 144.0
123.751953 108.0
123.798843 120.0
123.830803 132.0
123.863457 288.0
123.89267 128.0
123.926498 200.0
123.934685 112.0
123.943497 180.0
123.966133 128.0
123.989189 308.0
124.010429 168.0
124.030563 156.0
124.038437 60.0
124.043678 204.0
124.058746 140.0
124.096275 380.0
124.131714 224.0
124.150276 188.0
124.174927 328.0
124.203331 104.0
124.233376 200.0
124.255409 180.0
124.278503 52.0
124.287262 140.0
124.308449 196.0
124.334335 84.0
124.339851 132.0
124.351952 152.0
124.357971 68.0
124.387932 144.0
124.395554 148.0
124.40387 128.0
124.429909 192.0
124.450638 268.0
124.472572 180.0
124.506882 100.0
124.526466 124.0
124.548286 136.0
124.573898 248.0
124.610985 180.0
124.645317 152.0
124.679321 228.0
124.72995 124.0
124.759163 84.0
124.778854 204.0
124.809761 124.0
124.826775 212.0
124.845673 172.0
124.876694 176.0
124.88443 92.0
124.891335 220.0
124.916046 184.0
124.950104 84.0
124.978149 112.0
125.016953 172.0
125.042389 140.0
125.065224 196.0
125.101425 32.0
125.145508 356.0
125.180771 88.0
125.207794 212.0
125.234901 136.0
125.266136 140.0
125.299911 352.0
125.324982 256.0
125.372269 156.0
125.409714 140.0
125.419548 160.0
125.429344 96.0
125.459198 160.0
125.467522 96.0
125.475922 116.0
125.49353 68.0
125.529892 204.0
125.57827 124.0
125.596161 172.0
125.612282 128.0
125.63501 84.0
125.670006 96.0
125.693138 160.0
125.735535 244.0
125.769691 176.0
125.801651 180.0
125.825645 288.0
125.844376 48.0
125.876862 200.0
125.892052 160.0
125.931374 192.0
125.938446 128.0
125.946159 116.0
125.981125 116.0
126.013687 88.0
126.070923 292.0
126.100708 176.0
126.138145 212.0
126.176399 116.0
126.216293 120.0
126.231956 192.0
126.246521 216.0
126.261543 132.0
126.290779 208.0
126.334099 264.0
126.377411 132.0
126.402542 172.0
126.429863 324.0
126.468552 180.0
126.502228 196.0
126.518433 64.0
126.541382 76.0
126.561531 124.0
126.587601 372.0
126.618057 116.0
126.644028 344.0
126.682472 132.0
126.705635 184.0
126.729515 264.0
126.74968 296.0
126.760651 152.0
126.768593 256.0
126.807831 156.0
126.813774 120.0
126.849693 128.0
126.909012 236.0
126.93782 180.0
126.941147 136.0
126.997986 296.0
127.02713 452.0
127.046082 460.0
127.07872 96.0
127.122887 268.0
127.182281 168.0
127.209915 76.0
127.233414 172.0
127.251976 288.0
127.280411 172.0
127.301537 160.0
127.336807 188.0
127.368111 376.0
127.411102 168.0
127.438515 40.0
127.466278 172.0
127.482063 100.0
127.506454 176.0
127.528404 156.0
127.566269 172.0
127.597786 120.0
127.631546 136.0
127.637741 132.0
127.655106 284.0
127.684875 136.0
127.723625 252.0
127.750381 100.0
127.778008 148.0
127.786209 124.0
127.792686 160.0
127.825256 160.0
127.854034 132.0
127.884819 128.0
127.902847 128.0
127.931412 48.0
127.962555 200.0
127.989799 108.0
128.009964 216.0
128.037323 272.0
128.060593 144.0
128.097672 92.0
128.116989 180.0
128.1371 136.0
128.162704 60.0
128.192734 84.0
128.199509 140.0
128.208878 60.0
128.228958 212.0
128.250793 176.0
128.258362 168.0
128.274506 128.0
128.294296 80.0
128.321259 188.0
128.358353 240.0
128.390518 168.0
128.409088 480.0
128.429611 152.0
128.447876 180.0
128.467361 100.0
128.495773 68.0
128.51474 112.0
128.555893 136.0
128.581375 304.0
128.612534 212.0
128.64679 292.0
128.687119 108.0
128.718018 340.0
128.74144 128.0
128.768417 160.0
128.796997 132.0
128.814499 288.0
128.862549 348.0
128.92334 80.0
128.930954 76.0
128.935364 104.0
128.970917 112.0
129.004333 276.0
129.052582 344.0
129.077271 92.0
129.098907 156.0
129.129181 172.0
129.147415 64.0
129.155457 168.0
129.187881 172.0
129.221863 168.0
129.263367 204.0
129.297531 144.0
129.336121 112.0
129.365738 196.0
129.406815 124.0
129.466385 84.0
129.487579 212.0
129.535919 172.0
129.554352 176.0
129.586319 272.0
129.6353 120.0
129.661026 340.0
129.679626 96.0
129.701218 160.0
129.734573 152.0
129.759521 76.0
129.792694 104.0
129.813919 200.0
129.844849 128.0
129.876312 156.0
129.915161 92.0
129.931046 92.0
129.949203 76.0
129.979019 176.0
130.005615 60.0
130.024597 412.0
130.059753 100.0
130.10701 104.0
130.127167 168.0
130.150635 108.0
130.16362 60.0
130.186096 184.0
130.211838 184.0
130.262512 240.0
130.295776 348.0
130.318024 96.0
130.33461 48.0
130.373062 168.0
130.424988 116.0
130.470169 132.0
130.499954 148.0
130.506454 144.0
130.515213 192.0
130.555038 156.0
130.57576 72.0
130.597549 172.0
130.617844 108.0
130.647827 196.0
130.69574 136.0
130.727692 152.0
130.744614 80.0
130.761658 356.0
130.790695 224.0
130.823624 172.0
130.833054 132.0
130.837814 160.0
130.861328 148.0
130.897018 156.0
130.941238 292.0
130.955017 140.0
130.993591 336.0
131.013168 96.0
131.039703 136.0
131.083008 160.0
131.133163 176.0
131.163574 44.0
131.205368 324.0
131.231964 224.0
131.291351 88.0
131.313583 216.0
131.343704 172.0
131.360504 88.0
131.38356 152.0
131.407578 144.0
131.428116 164.0
131.447617 316.0
131.463623 92.0
131.479584 156.0
131.505997 404.0
131.53685 236.0
131.569107 72.0
131.590164 92.0
131.608307 112.0
131.614487 104.0
131.653702 116.0
131.685516 148.0
131.690643 108.0
131.698257 248.0
131.72261 136.0
131.760651 160.0
131.766388 172.0
131.797928 220.0
131.827499 88.0
131.864822 216.0
131.871338 96.0
131.923767 116.0
131.959824 120.0
131.975677 360.0
131.998199 124.0
132.017456 176.0
132.032227 164.0
132.059341 288.0
132.083771 176.0
132.107986 96.0
132.115143 56.0
132.139816 180.0
132.154129 288.0
132.194901 216.0
132.201981 108.0
132.234787 240.0
132.250809 172.0
132.274918 172.0
132.301544 96.0
132.327393 96.0
132.332428 116.0
132.385773 88.0
132.420227 204.0
132.464157 184.0
132.488647 184.0
132.525604 108.0
132.543121 136.0
132.571442 48.0
132.603516 120.0
132.65094 316.0
132.682266 168.0
132.731186 132.0
132.767242 144.0
132.815109 352.0
132.831421 132.0
132.863876 128.0
132.880432 168.0
132.888 128.0
132.898865 128.0
132.904022 100.0
132.929169 196.0
132.945221 148.0
132.969849 148.0
133.001709 244.0
133.028549 248.0
133.062576 180.0
133.084335 120.0
133.122116 148.0
133.159439 172.0
133.177109 52.0
133.217102 172.0
133.248123 312.0
133.255203 220.0
133.309113 332.0
133.331894 196.0
133.351715 164.0
133.384491 172.0
133.401138 208.0
133.432739 196.0
133.463394 104.0
133.488647 160.0
133.520798 96.0
133.543869 140.0
133.56723 220.0
133.60611 280.0
133.640961 128.0
133.661026 112.0
133.665268 128.0
133.676819 100.0
133.703598 84.0
133.719711 160.0
133.741913 272.0
133.760162 268.0
133.781555 164.0
133.825592 200.0
133.841721 76.0
133.867935 108.0
133.896164 112.0
133.933594 132.0
133.961472 148.0
133.981247 212.0
134.014465 40.0
134.061371 180.0
134.09201 216.0
134.107498 280.0
134.136276 140.0
134.163651 60.0
134.224213 96.0
134.251556 188.0
134.285416 144.0
134.312897 544.0
134.343781 172.0
134.412888 136.0
134.443069 256.0
134.475662 168.0
134.525101 96.0
134.540115 252.0
134.547958 112.0
134.55603 216.0
134.579544 72.0
134.603226 172.0
134.636368 164.0
134.662781 256.0
134.671097 260.0
134.726913 320.0
134.780487 132.0
134.805908 172.0
134.842224 340.0
134.868317 76.0
134.884491 180.0
134.910965 220.0
134.919357 100.0
134.930115 156.0
134.938034 196.0
134.945724 132.0
134.963089 192.0
134.993942 244.0
135.017563 200.0
135.042572 176.0
135.082138 216.0
135.093628 72.0
135.110275 144.0
135.153122 184.0
135.192093 148.0
135.214615 192.0
135.23291 284.0
135.308701 172.0
135.338882 328.0
135.374374 184.0
135.407654 108.0
135.465302 116.0
135.486847 120.0
135.516266 264.0
135.544724 124.0
135.586624 200.0
135.621399 120.0
135.67601 172.0
135.694733 256.0
135.72139 120.0
135.747757 104.0
135.778198 100.0
135.799576 104.0
135.832947 232.0
135.85199 96.0
135.90332 124.0
135.925644 172.0
135.952194 244.0
135.977127 92.0
136.01181 124.0
136.03421 120.0
136.068985 292.0
136.104019 128.0
136.129761 140.0
136.16597 188.0
136.202942 100.0
136.229507 128.0
136.312561 132.0
136.350555 232.0
136.366943 136.0
136.384842 188.0
136.440948 132.0
136.467087 120.0
136.499313 108.0
136.526001 80.0
136.583557 168.0
136.612885 172.0
136.635315 124.0
136.688644 96.0
136.715057 252.0
136.738815 168.0
136.781921 208.0
136.818771 164.0
136.825195 136.0
136.865738 48.0
136.895599 68.0
136.925385 156.0
136.965881 308.0
136.989761 212.0
137.014389 140.0
137.046204 124.0
137.083069 364.0
137.12558 152.0
137.144821 160.0
137.173187 128.0
137.237671 108.0
137.288132 196.0
137.293106 208.0
137.341141 168.0
137.369141 52.0
137.401337 184.0
137.418503 244.0
137.44371 124.0
137.46727 192.0
137.531036 156.0
137.548203 140.0
137.57515 128.0
137.591248 180.0
137.610779 140.0
137.635193 192.0
137.670319 272.0
137.69928 188.0
137.720657 120.0
137.74028 220.0
137.771515 140.0
137.791168 184.0
137.809738 60.0
137.857773 360.0
137.878723 176.0
137.903702 132.0
137.912186 128.0
137.973236 164.0
137.981247 280.0
138.031174 204.0
138.04985 132.0
138.089645 356.0
138.134537 108.0
138.163956 172.0
138.189133 100.0
138.214859 128.0
138.244202 116.0
138.271027 172.0
138.299118 324.0
138.315506 180.0
138.34201 304.0
138.360443 140.0
138.402634 128.0
138.416367 160.0
138.432709 124.0
138.462997 108.0
138.48642 112.0
138.504288 172.0
138.531403 156.0
138.608246 40.0
138.637955 348.0
138.667679 136.0
138.697433 160.0
138.716049 64.0
138.754913 160.0
138.78714 100.0
138.837051 132.0
138.871155 304.0
138.898956 148.0
138.941147 248.0
138.992798 52.0
139.027435 120.0
139.052048 444.0
139.104263 124.0
139.128769 168.0
139.156403 216.0
139.175873 124.0
139.208069 184.0
139.240707 164.0
139.247589 100.0
139.254395 92.0
139.298309 180.0
139.3358 84.0
139.361725 200.0
139.38179 204.0
139.44603 244.0
139.506561 164.0
139.530792 144.0
139.558151 172.0
139.567245 120.0
139.577789 76.0
139.60199 176.0
139.616882 184.0
139.644089 132.0
139.6521 136.0
139.695267 120.0
139.742065 116.0
139.761642 124.0
139.825867 204.0
139.856873 88.0
139.892502 108.0
139.921173 164.0
139.938309 180.0
139.965912 180.0
140.002182 96.0
140.011353 164.0
140.022034 236.0
140.059128 76.0
140.080139 256.0
140.112061 236.0
140.137619 172.0
140.158813 104.0
140.207413 124.0
140.238129 104.0
140.274628 120.0
140.290436 140.0
140.323502 156.0
140.342804 320.0
140.37941 420.0
140.412949 184.0
140.453445 140.0
140.486771 128.0
140.504471 128.0
140.53418 168.0
140.580414 148.0
140.611832 60.0
140.640152 200.0
140.669144 156.0
140.694717 144.0
140.72641 244.0
140.768845 192.0
140.795975 172.0
140.819595 112.0
140.849533 296.0
140.865204 296.0
140.893616 272.0
140.925888 108.0
140.949905 172.0
140.9776 124.0
140.982101 56.0
141.012451 168.0
141.038269 188.0
141.081406 296.0
141.113464 200.0
141.146637 164.0
141.176498 116.0
141.21994 164.0
141.256866 116.0
141.301819 180.0
141.329483 100.0
141.368057 200.0
141.404358 120.0
141.450562 224.0
141.479309 92.0
141.497131 128.0
141.512207 80.0
141.534531 164.0
141.549744 248.0
141.574661 148.0
141.604797 168.0
141.625381 208.0
141.634125 116.0
141.641617 96.0
141.654373 112.0
141.657959 200.0
141.698547 184.0
141.727615 104.0
141.767151 136.0
141.804153 84.0
141.830139 188.0
141.858124 92.0
141.950851 108.0
141.987823 144.0
141.997177 144.0
142.015686 520.0
142.047958 200.0
142.100159 132.0
142.122772 160.0
142.142593 140.0
142.148865 76.0
142.15535 156.0
142.171967 136.0
142.194489 116.0
142.220062 156.0
142.244247 332.0
142.260849 188.0
142.304337 64.0
142.331284 140.0
142.35199 336.0
142.388031 276.0
142.4207 88.0
142.451584 120.0
142.496048 208.0
142.524628 140.0
142.55455 128.0
142.621368 236.0
142.654221 232.0
142.675339 124.0
142.69487 192.0
142.73439 152.0
142.780701 140.0
142.837112 84.0
142.868469 196.0
142.901337 128.0
142.925323 224.0
142.950089 148.0
142.975388 164.0
142.991318 196.0
143.018661 236.0
143.028 116.0
143.036194 196.0
143.065582 356.0
143.111923 132.0
143.132126 184.0
143.169235 188.0
143.189682 176.0
143.21286 176.0
143.24118 216.0
143.26593 96.0
143.295746 236.0
143.343018 148.0
143.35878 292.0
143.381012 160.0
143.401596 148.0
143.438919 104.0
143.490402 92.0
143.522171 132.0
143.526932 104.0
143.552277 196.0
143.571396 112.0
143.595749 240.0
143.642853 92.0
143.699036 148.0
143.72673 132.0
143.733704 120.0
143.775055 220.0
143.779312 224.0
143.808609 136.0
143.885635 108.0
143.905716 280.0
143.948685 376.0
143.96637 136.0
143.988647 180.0
144.021988 176.0
144.037033 92.0
144.090439 144.0
144.097321 216.0
144.124023 204.0
144.17041 300.0
144.186844 124.0
144.2397 80.0
144.260254 80.0
144.282211 216.0
144.325409 124.0
144.348419 140.0
144.356796 136.0
144.38176 208.0
144.43959 208.0
144.467468 224.0
144.523331 68.0
144.547516 296.0
144.566391 212.0
144.598099 160.0
144.634232 116.0
144.640045 88.0
144.700256 172.0
144.726318 124.0
144.753006 148.0
144.768158 208.0
144.791977 320.0
144.809891 144.0
144.844711 232.0
144.875259 104.0
144.910263 160.0
144.938202 132.0
144.962463 252.0
144.979767 144.0
145.019531 132.0
145.040024 148.0
145.057648 196.0
145.086304 120.0
145.123001 160.0
145.155212 148.0
145.182053 116.0
145.203644 128.0
145.246811 156.0
145.27002 248.0
145.302155 168.0
145.323502 288.0
145.352005 80.0
145.373962 236.0
145.402084 144.0
145.411163 176.0
145.418961 368.0
145.44722 92.0
145.482422 152.0
145.498871 388.0
145.533508 160.0
145.564377 148.0
145.586929 188.0
145.611328 156.0
145.641373 344.0
145.673691 96.0
145.712997 120.0
145.731735 132.0
145.752686 84.0
145.762665 60.0
145.77153 136.0
145.789413 144.0
145.821793 152.0
145.838806 108.0
145.876801 176.0
145.908005 176.0
145.93306 84.0
145.96199 116.0
146.019684 224.0
146.067627 240.0
146.109207 124.0
146.135666 168.0
146.153931 108.0
146.172287 200.0
146.203415 388.0
146.225418 248.0
146.243958 80.0
146.267273 132.0
146.301788 148.0
146.32222 148.0
146.329544 76.0
146.339035 168.0
146.345001 120.0
146.352798 204.0
146.388107 260.0
146.393646 272.0
146.448044 136.0
146.486252 64.0
146.499878 148.0
146.52713 208.0
146.555603 124.0
146.579453 116.0
146.6017 44.0
146.62207 164.0
146.641235 84.0
146.681641 168.0
146.690399 120.0
146.700409 116.0
146.707352 116.0
146.744095 180.0
146.798996 216.0
146.835358 188.0
146.861908 184.0
146.877457 156.0
146.928635 148.0
146.966278 88.0
147.019608 176.0
147.057526 332.0
147.081924 100.0
147.109665 324.0
147.135117 148.0
147.171631 168.0
147.192078 192.0
147.216736 168.0
147.235199 112.0
147.268661 44.0
147.297653 124.0
147.328247 168.0
147.357437 204.0
147.366409 120.0
147.394287 188.0
147.42598 144.0
147.460342 204.0
147.476822 156.0
147.504135 184.0
147.527206 148.0
147.55603 140.0
147.564194 120.0
147.620773 172.0
147.663651 376.0
147.688416 276.0
147.738602 68.0
147.762405 204.0
147.791916 148.0
147.826126 232.0
147.835373 68.0
147.86615 184.0
147.873657 112.0
147.88446 248.0
147.922775 168.0
147.952118 172.0
147.9879 264.0
148.013 356.0
148.019836 104.0
148.053802 144.0
148.08223 180.0
148.132187 224.0
148.159821 312.0
148.195999 208.0
148.214188 128.0
148.228561 260.0
148.274246 120.0
148.31633 100.0
148.342758 124.0
148.369659 92.0
148.393158 156.0
148.449051 212.0
148.470184 272.0
148.492294 112.0
148.517578 200.0
148.540771 136.0
148.563309 164.0
148.57962 200.0
148.619476 180.0
148.64151 176.0
148.660721 128.0
148.692276 280.0
148.712036 232.0
148.733093 132.0
148.747772 180.0
148.775269 88.0
148.80835 156.0
148.868805 172.0
148.888809 216.0
148.904388 76.0
148.912155 176.0
148.932632 36.0
148.955643 152.0
149.003082 168.0
149.047729 148.0
149.072174 104.0
149.095413 72.0
149.121063 188.0
149.146942 152.0
149.172226 140.0
149.178101 144.0
149.205765 60.0
149.215836 188.0
149.246475 164.0
149.281509 224.0
149.330231 144.0
149.368118 200.0
149.405136 168.0
149.441315 128.0
149.476013 164.0
149.528488 160.0
149.56636 120.0
149.587753 208.0
149.611069 128.0
149.641602 276.0
149.66188 136.0
149.712418 160.0
149.728745 160.0
149.755478 104.0
149.781525 176.0
149.831146 148.0
149.865799 208.0
149.888046 88.0
149.915787 160.0
149.942627 132.0
149.970032 76.0
150.004532 100.0
150.035583 140.0
150.07251 148.0
150.097275 148.0
150.116333 184.0
150.136078 84.0
150.148514 56.0
150.179138 316.0
150.195099 164.0
150.211624 116.0
150.239807 324.0
150.266632 140.0
150.283142 84.0
150.32193 168.0
150.346313 172.0
150.393539 100.0
150.412766 164.0
150.438171 144.0
150.467636 452.0
150.499954 144.0
150.523788 552.0
150.562744 52.0
150.596542 108.0
150.631409 136.0
150.653275 136.0
150.696075 136.0
150.702286 92.0
150.722534 144.0
150.726471 196.0
150.766617 180.0
150.774765 288.0
150.807449 344.0
150.832764 152.0
150.871002 120.0
150.888504 204.0
150.909927 208.0
150.945465 176.0
150.969406 84.0
151.003616 160.0
151.030411 200.0
151.059036 100.0
151.102386 200.0
151.112915 136.0
151.130829 68.0
151.163132 132.0
151.18869 168.0
151.209229 108.0
151.215363 80.0
151.240326 204.0
151.283997 208.0
151.327347 148.0
151.37265 112.0
151.382248 96.0
151.390976 220.0
151.442444 108.0
151.477356 244.0
151.51767 152.0
151.55423 244.0
151.590897 148.0
151.649338 196.0
151.672806 280.0
151.69136 348.0
151.711304 128.0
151.75499 112.0
151.793411 96.0
151.833862 188.0
151.842468 88.0
151.85051 292.0
151.893356 520.0
151.913422 224.0
151.974533 280.0
152.001923 168.0
152.037613 120.0
152.072556 424.0
152.097961 184.0
152.14093 164.0
152.176468 232.0
152.207581 108.0
152.226334 188.0
152.250305 180.0
152.298447 84.0
152.322205 152.0
152.351227 104.0
152.387192 160.0
152.446716 80.0
152.472504 156.0
152.504028 220.0
152.510818 148.0
152.548294 184.0
152.571274 140.0
152.59613 160.0
152.632675 136.0
152.656464 160.0
152.691177 172.0
152.69548 52.0
152.742538 204.0
152.771423 268.0
152.803925 160.0
152.836823 200.0
152.870682 160.0
152.896378 244.0
152.920181 308.0
152.941452 116.0
152.972763 220.0
153.004745 176.0
153.03302 96.0
153.085938 200.0
153.091385 140.0
153.101425 180.0
153.123871 152.0
153.145966 104.0
153.18576 268.0
153.223099 228.0
153.246353 184.0
153.275116 236.0
153.331497 164.0
153.351959 116.0
153.360825 72.0
153.383789 164.0
153.420074 304.0
153.451691 152.0
153.492371 56.0
153.521622 72.0
153.548325 140.0
153.575867 120.0
153.605698 88.0
153.658646 208.0
153.681763 208.0
153.698318 152.0
153.731384 116.0
153.76091 152.0
153.784698 132.0
153.82225 284.0
153.838318 100.0
153.860672 144.0
153.887344 128.0
153.921371 132.0
153.944138 144.0
153.962372 188.0
153.988052 200.0
154.007095 184.0
154.058319 196.0
154.066437 120.0
154.076233 316.0
154.137695 152.0
154.193436 128.0
154.21347 216.0
154.252609 204.0
154.276871 192.0
154.303879 108.0
154.337402 180.0
154.365967 160.0
154.395416 192.0
154.403824 136.0
154.413147 136.0
154.459427 216.0
154.478729 140.0
154.502716 112.0
154.519287 44.0
154.530991 56.0
154.545486 160.0
154.574066 188.0
154.593048 304.0
154.640762 76.0
154.676208 248.0
154.718567 148.0
154.73555 132.0
154.756226 124.0
154.776062 128.0
154.820969 360.0
154.841522 248.0
154.88623 268.0
154.906845 164.0
154.937759 72.0
154.984909 168.0
155.020599 308.0
155.041199 168.0
155.06131 412.0
155.094788 64.0
155.12442 224.0
155.157608 160.0
155.205795 216.0
155.262405 196.0
155.306351 204.0
155.366196 68.0
155.385345 124.0
155.403992 140.0
155.435837 312.0
155.457596 128.0
155.502289 136.0
155.527252 264.0
155.551361 116.0
155.564148 184.0
155.574265 152.0
155.582108 276.0
155.58992 88.0
155.59964 124.0
155.64389 268.0
155.69278 284.0
155.748276 124.0
155.754028 68.0
155.771545 156.0
155.789459 168.0
155.831467 208.0
155.871796 256.0
155.928223 252.0
155.963226 144.0
156.014862 220.0
156.039215 116.0
156.053284 160.0
156.093613 128.0
156.128952 160.0
156.158447 104.0
156.16246 244.0
156.201828 160.0
156.228241 144.0
156.281799 160.0
156.315887 156.0
156.345581 116.0
156.349335 136.0
156.383194 192.0
156.415833 104.0
156.461823 184.0
156.48114 72.0
156.512527 120.0
156.565369 112.0
156.610703 180.0
156.638672 68.0
156.670639 160.0
156.743744 68.0
156.771347 84.0
156.791733 76.0
156.830795 284.0
156.839523 172.0
156.898254 172.0
156.926758 192.0
156.963531 76.0
156.995956 164.0
157.02597 108.0
157.067062 240.0
157.100357 172.0
157.104675 184.0
157.114014 132.0
157.1259 164.0
157.149811 164.0
157.154221 188.0
157.181198 108.0
157.201797 140.0
157.206604 72.0
157.216934 172.0
157.265396 324.0
157.309921 132.0
157.327805 124.0
157.370239 164.0
157.398117 156.0
157.459747 128.0
157.480118 228.0
157.502548 116.0
157.539734 120.0
157.560593 204.0
157.608093 244.0
157.653381 296.0
157.679657 240.0
157.694199 240.0
157.717484 56.0
157.752686 368.0
157.779968 76.0
157.817474 180.0
157.857483 64.0
157.901962 284.0
157.935013 128.0
157.959885 68.0
157.982544 128.0
158.024414 228.0
158.050934 300.0
158.099518 196.0
158.159592 172.0
158.190094 292.0
158.212769 108.0
158.236725 148.0
158.267853 124.0
158.297897 176.0
158.323547 180.0
158.351913 108.0
158.399017 224.0
158.417175 144.0
158.455688 208.0
158.489166 188.0
158.521484 252.0
158.547699 212.0
158.588684 356.0
158.611725 136.0
158.648666 68.0
158.675049 160.0
158.695297 212.0
158.726501 336.0
158.742126 172.0
158.775345 84.0
158.812988 232.0
158.895554 160.0
158.919479 204.0
158.950882 120.0
158.980026 108.0
158.991745 112.0
159.034958 36.0
159.061096 192.0
159.081421 128.0
159.118301 156.0
159.170975 132.0
159.208298 268.0
159.238403 132.0
159.299149 156.0
159.31781 180.0
159.348587 236.0
159.372253 124.0
159.39035 108.0
159.409836 248.0
159.432755 164.0
159.448471 68.0
159.492325 164.0
159.532303 156.0
159.569092 316.0
159.591873 400.0
159.618927 160.0
159.65802 188.0
159.686752 260.0
159.705811 128.0
159.760681 184.0
159.784729 132.0
159.808136 116.0
159.84288 232.0
159.866653 244.0
159.897232 144.0
159.953613 240.0
159.996796 120.0
160.036163 248.0
160.059341 100.0
160.069946 116.0
160.095627 172.0
160.120087 200.0
160.171387 156.0
160.199753 240.0
160.236832 164.0
160.257111 92.0
160.276672 192.0
160.283646 204.0
160.291122 324.0
160.315109 156.0
160.347824 116.0
160.39328 128.0
160.419342 108.0
160.438568 172.0
160.460007 296.0
160.493164 156.0
160.516403 212.0
160.559601 172.0
160.583389 148.0
160.611023 72.0
160.629623 128.0
160.648636 120.0
160.690979 276.0
160.727066 136.0
160.747925 104.0
160.767639 84.0
160.801788 196.0
160.82515 112.0
160.845444 108.0
160.873169 124.0
160.894089 92.0
160.940048 188.0
160.990509 128.0
161.021118 108.0
161.043015 192.0
161.082642 192.0
161.15065 156.0
161.206589 124.0
161.281967 144.0
161.30954 192.0
161.33873 176.0
161.367294 100.0
161.422348 324.0
161.442383 132.0
161.481567 132.0
161.519745 148.0
161.558228 308.0
161.57608 160.0
161.600159 172.0
161.640076 184.0
161.657227 264.0
161.691406 128.0
161.737122 192.0
161.746521 140.0
161.755417 152.0
161.763474 212.0
161.776764 148.0
161.7995 116.0
161.829758 152.0
161.841187 220.0
161.851059 172.0
161.857529 124.0
161.892288 184.0
161.927689 276.0
161.965378 164.0
162.010132 156.0
162.045914 196.0
162.063644 196.0
162.081314 148.0
162.123993 276.0
162.155945 264.0
162.180664 136.0
162.227188 136.0
162.246124 84.0
162.273849 160.0
162.29631 128.0
162.323456 88.0
162.356384 148.0
162.38295 292.0
162.405548 92.0
162.415543 148.0
162.421494 180.0
162.459152 164.0
162.48468 316.0
162.510498 364.0
162.542648 224.0
162.574036 156.0
162.592621 232.0
162.684601 208.0
162.709396 212.0
162.743179 140.0
162.766235 164.0
162.804001 172.0
162.823807 96.0
162.832825 128.0
162.855072 176.0
162.878998 100.0
162.905304 148.0
162.942688 384.0
162.993195 196.0
163.011719 156.0
163.037476 212.0
163.096313 188.0
163.122299 80.0
163.150696 196.0
163.169022 76.0
163.185471 308.0
163.204941 200.0
163.221832 216.0
163.245483 152.0
163.313553 180.0
163.340607 92.0
163.376831 268.0
163.411209 224.0
163.44075 84.0
163.476562 136.0
163.5065 200.0
163.546707 116.0
163.582443 96.0
163.620529 168.0
163.642136 140.0
163.662674 152.0
163.681 140.0
163.698029 204.0
163.741959 296.0
163.766342 76.0
163.783798 168.0
163.830383 128.0
163.841309 52.0
163.846008 112.0
163.869827 104.0
163.894623 148.0
163.91156 208.0
163.92952 140.0
163.968842 156.0
164.011597 100.0
164.022278 152.0
164.030334 208.0
164.059143 256.0
164.084274 292.0
164.109329 112.0
164.135193 140.0
164.178543 372.0
164.202469 192.0
164.218552 140.0
164.265182 152.0
164.297943 128.0
164.338272 380.0
164.374969 264.0
164.398346 100.0
164.422424 212.0
164.427399 80.0
164.463577 160.0
164.502213 84.0
164.547241 80.0
164.568802 208.0
164.602142 72.0
164.634521 236.0
164.713608 88.0
164.760254 268.0
164.814804 64.0
164.875946 152.0
164.90535 116.0
164.943481 132.0
164.965851 148.0
165.006546 120.0
165.032349 284.0
165.056976 268.0
165.086136 148.0
165.11203 180.0
165.139435 440.0
165.170609 116.0
165.212646 116.0
165.230087 292.0
165.289322 176.0
165.333252 28.0
165.36116 168.0
165.382538 108.0
165.404312 360.0
165.4561 408.0
165.479263 256.0
165.505997 364.0
165.556793 300.0
165.589737 148.0
165.637787 144.0
165.684418 160.0
165.720123 164.0
165.748123 148.0
165.774414 160.0
165.809708 160.0
165.841858 124.0
165.865936 296.0
165.904419 32.0
165.933075 184.0
165.961502 340.0
165.997681 172.0
166.024933 96.0
166.042984 324.0
166.076813 156.0
166.099304 204.0
166.123566 176.0
166.15004 148.0
166.164719 188.0
166.186539 184.0
166.20433 120.0
166.21077 108.0
166.231033 176.0
166.258423 164.0
166.295639 140.0
166.320602 168.0
166.384781 256.0
166.425018 172.0
166.434891 252.0
166.49231 156.0
166.549759 168.0
166.572525 68.0
166.611313 132.0
166.635834 116.0
166.670593 140.0
166.696365 72.0
166.721405 180.0
166.763245 76.0
166.800873 240.0
166.817169 288.0
166.856247 184.0
166.865005 312.0
166.889648 48.0
166.916931 244.0
166.951187 204.0
166.958679 76.0
166.966721 116.0
166.992584 220.0
167.016296 40.0
167.040558 148.0
167.062088 184.0
167.086823 240.0
167.115433 112.0
167.141846 240.0
167.162323 132.0
167.20018 128.0
167.22728 148.0
167.26619 104.0
167.301682 148.0
167.317429 176.0
167.335922 136.0
167.371826 288.0
167.401596 180.0
167.45047 104.0
167.474442 204.0
167.50592 256.0
167.542938 136.0
167.606659 144.0
167.636215 364.0
167.654541 152.0
167.672836 168.0
167.695282 208.0
167.718994 92.0
167.728302 328.0
167.767792 100.0
167.788239 436.0
167.830994 124.0
167.86673 264.0
167.905762 172.0
167.958374 272.0
167.990189 148.0
168.03598 172.0
168.083176 164.0
168.120224 176.0
168.151489 136.0
168.188797 240.0
168.20816 204.0
168.245346 124.0
168.281128 200.0
168.300934 220.0
168.326752 196.0
168.359055 148.0
168.399796 108.0
168.418457 128.0
168.449371 112.0
168.47908 120.0
168.494156 120.0
168.545288 88.0
168.583801 112.0
168.610764 148.0
168.659286 116.0
168.690887 260.0
168.706055 160.0
168.728546 100.0
168.758606 180.0
168.78038 160.0
168.812943 88.0
168.838821 296.0
168.860489 152.0
168.880493 288.0
168.908813 320.0
168.942871 104.0
168.969971 148.0
168.980545 228.0
169.005951 140.0
169.036621 344.0
169.065567 136.0
169.120941 156.0
169.14946 136.0
169.184662 272.0
169.208206 200.0
169.234268 128.0
169.278427 276.0
169.302597 192.0
169.336975 248.0
169.365891 256.0
169.451172 216.0
169.471344 100.0
169.50798 176.0
169.533524 196.0
169.548828 84.0
169.571854 188.0
169.59903 212.0
169.679672 116.0
169.718933 168.0
169.751282 128.0
169.774994 156.0
169.801544 172.0
169.83168 352.0
169.858917 112.0
169.896378 140.0
169.932846 88.0
169.962585 128.0
169.997025 136.0
170.023666 240.0
170.062592 120.0
170.098938 116.0
170.141449 116.0
170.166428 176.0
170.184235 196.0
170.205124 212.0
170.260498 212.0
170.291077 168.0
170.309204 128.0
170.344849 108.0
170.428696 164.0
170.451599 120.0
170.492615 388.0
170.5327 152.0
170.602676 148.0
170.669861 104.0
170.695221 120.0
170.73494 168.0
170.784897 308.0
170.806793 172.0
170.824814 136.0
170.873352 104.0
170.927643 112.0
170.971588 168.0
171.011261 168.0
171.04332 140.0
171.071136 108.0
171.10498 168.0
171.126678 224.0
171.150406 204.0
171.183533 92.0
171.212067 280.0
171.242981 304.0
171.26828 152.0
171.302887 120.0
171.336761 260.0
171.396484 104.0
171.429169 184.0
171.45929 144.0
171.50882 156.0
171.532196 104.0
171.561462 132.0
171.589554 64.0
171.611328 136.0
171.647568 108.0
171.708893 104.0
171.726578 80.0
171.736801 232.0
171.760971 136.0
171.791367 96.0
171.813843 224.0
171.83992 240.0
171.880005 252.0
171.944092 248.0
171.983444 112.0
172.000931 152.0
172.013992 148.0
172.060867 188.0
172.092026 156.0
172.116592 156.0
172.138031 152.0
172.18187 132.0
172.214706 128.0
172.266357 312.0
172.311081 112.0
172.348236 228.0
172.403809 120.0
172.434952 160.0
172.445068 144.0
172.480621 152.0
172.491196 92.0
172.500641 140.0
172.547653 328.0
172.569778 248.0
172.602676 424.0
172.618759 176.0
172.692139 248.0
172.779541 92.0
172.802017 336.0
172.852188 132.0
172.876907 240.0
172.931046 156.0
172.960617 128.0
172.993622 124.0
173.022308 144.0
173.052246 164.0
173.093262 108.0
173.098511 108.0
173.138626 76.0
173.187927 156.0
173.200012 172.0
173.2397 176.0
173.276611 92.0
173.319794 140.0
173.344482 200.0
173.381332 156.0
173.40921 144.0
173.440506 128.0
173.47081 96.0
173.51709 260.0
173.537338 220.0
173.582199 172.0
173.608139 80.0
173.631744 416.0
173.666611 164.0
173.70517 148.0
173.742279 164.0
173.76712 176.0
173.811218 184.0
173.831116 128.0
173.85524 144.0
173.90332 148.0
173.93338 128.0
173.941422 124.0
173.991135 264.0
174.018677 160.0
174.060623 128.0
174.094925 152.0
174.130219 140.0
174.153778 144.0
174.194611 132.0
174.222656 196.0
174.24501 156.0
174.276764 72.0
174.313705 280.0
174.403625 168.0
174.435608 244.0
174.448227 192.0
174.45192 248.0
174.477676 72.0
174.50705 136.0
174.537109 128.0
174.544968 84.0
174.564453 192.0
174.592926 108.0
174.62233 332.0
174.659073 344.0
174.692627 168.0
174.708099 280.0
174.720718 96.0
174.729584 112.0
174.763168 112.0
174.800735 124.0
174.844101 184.0
174.876358 300.0
174.941544 244.0
174.957962 152.0
174.984497 276.0
174.989685 188.0
175.020538 88.0
175.046417 316.0
175.066345 132.0
175.091156 164.0
175.120163 132.0
175.139587 248.0
175.164062 136.0
175.191147 128.0
175.225555 128.0
175.24408 172.0
175.254684 160.0
175.26001 76.0
175.274445 116.0
175.283371 180.0
175.319794 220.0
175.339508 116.0
175.355011 128.0
175.408066 260.0
175.427567 296.0
175.462601 56.0
175.500595 92.0
175.50766 148.0
175.529907 108.0
175.559402 152.0
175.587311 212.0
175.616211 280.0
175.626389 132.0
175.691284 136.0
175.724457 144.0
175.748657 268.0
175.757034 200.0
175.763184 204.0
175.792816 280.0
175.815887 228.0
175.836411 36.0
175.854874 420.0
175.87735 352.0
175.904526 104.0
175.926147 96.0
175.950027 92.0
175.99054 296.0
176.052887 168.0
176.078506 256.0
176.123917 160.0
176.15065 208.0
176.195679 172.0
176.220917 196.0
176.296341 76.0
176.355606 232.0
176.399796 164.0
176.453842 348.0
176.507385 164.0
176.5289 60.0
176.573502 108.0
176.596909 156.0
176.621109 180.0
176.65213 176.0
176.673019 32.0
176.683014 104.0
176.708344 188.0
176.732315 320.0
176.752518 196.0
176.804428 168.0
176.826553 80.0
176.851547 128.0
176.880417 172.0
176.906235 224.0
176.922516 160.0
176.9608 132.0
176.977371 212.0
176.996231 68.0
177.032089 188.0
177.081238 76.0
177.097839 140.0
177.129318 112.0
177.17598 388.0
177.22583 260.0
177.249481 228.0
177.280518 116.0
177.290466 132.0
177.323807 128.0
177.334671 124.0
177.371063 104.0
177.396255 212.0
177.420227 180.0
177.442657 152.0
177.477127 456.0
177.493668 176.0
177.505844 288.0
177.541733 212.0
177.565002 116.0
177.593765 268.0
177.629379 160.0
177.676239 128.0
177.701859 124.0
177.743774 392.0
177.770294 112.0
177.7939 232.0
177.813385 36.0
177.848862 388.0
177.870895 108.0
177.894821 88.0
177.916321 144.0
177.93399 64.0
177.95755 300.0
177.98793 176.0
178.00499 180.0
178.032928 124.0
178.059387 260.0
178.090668 128.0
178.136581 204.0
178.153549 192.0
178.177216 136.0
178.203735 84.0
178.224213 160.0
178.270966 160.0
178.301086 156.0
178.323135 180.0
178.373199 148.0
178.434753 104.0
178.448456 204.0
178.482544 116.0
178.504089 144.0
178.527588 140.0
178.587891 104.0
178.617554 228.0
178.636292 136.0
178.665726 384.0
178.702042 216.0
178.725754 120.0
178.733582 116.0
178.743393 112.0
178.783493 76.0
178.804688 104.0
178.835327 172.0
178.867233 112.0
178.886566 144.0
178.926056 304.0
178.944748 104.0
178.968964 124.0
178.972885 152.0
179.001633 196.0
179.044296 140.0
179.066849 136.0
179.094894 168.0
179.134491 60.0
179.158417 132.0
179.181458 148.0
179.209198 132.0
179.242386 88.0
179.250443 124.0
179.260544 136.0
179.284927 284.0
179.315903 468.0
179.355453 152.0
179.385147 116.0
179.41954 148.0
179.445282 140.0
179.488022 108.0
179.513306 164.0
179.572983 96.0
179.62532 112.0
179.643997 128.0
179.704071 116.0
179.72937 196.0
179.789536 136.0
179.822769 460.0
179.851013 188.0
179.859543 124.0
179.893723 76.0
179.927902 316.0
179.951492 128.0
179.988281 144.0
180.022995 212.0
180.054382 192.0
180.076202 212.0
180.11647 172.0
180.16713 164.0
180.185196 160.0
180.211929 148.0
180.247665 292.0
180.276779 156.0
180.315781 168.0
180.346268 212.0
180.372696 112.0
180.406738 128.0
180.447845 160.0
180.469528 176.0
180.509232 208.0
180.547989 88.0
180.586609 192.0
180.592941 104.0
180.604523 196.0
180.661057 228.0
180.684189 96.0
180.720306 196.0
180.740677 132.0
180.770142 96.0
180.798248 296.0
180.842972 180.0
180.878006 196.0
180.918655 148.0
180.924545 108.0
180.961899 116.0
180.981155 108.0
181.007462 240.0
181.03273 148.0
181.056213 176.0
181.067947 204.0
181.078568 124.0
181.088089 168.0
181.130295 112.0
181.203766 116.0
181.215836 164.0
181.224808 224.0
181.257217 144.0
181.299347 136.0
181.324417 288.0
181.351822 92.0
181.37645 152.0
181.39444 164.0
181.414505 116.0
181.44191 92.0
181.447281 168.0
181.475159 176.0
181.496674 60.0
181.51561 212.0
181.537613 68.0
181.572479 112.0
181.598755 440.0
181.650253 128.0
181.682877 312.0
181.714005 288.0
181.757828 212.0
181.815567 160.0
181.842392 120.0
181.875488 192.0
181.905701 104.0
181.954483 216.0
182.004044 184.0
182.032974 40.0
182.06633 220.0
182.083954 308.0
182.103882 156.0
182.142059 92.0
182.164474 172.0
182.182785 232.0
182.225861 88.0
182.274994 160.0
182.312164 216.0
182.33493 104.0
182.35643 188.0
182.387421 128.0
182.431473 96.0
182.486938 180.0
182.508408 164.0
182.534698 172.0
182.563416 288.0
182.581161 184.0
182.606354 184.0
182.620239 332.0
182.655609 352.0
182.675552 312.0
182.716522 232.0
182.749756 208.0
182.791809 76.0
182.818604 164.0
182.853043 148.0
182.908005 144.0
182.937271 140.0
182.979721 320.0
182.997269 164.0
183.045197 136.0
183.074738 152.0
183.091934 88.0
183.114929 212.0
183.124268 192.0
183.129578 88.0
183.153778 172.0
183.199173 188.0
183.238785 164.0
183.257904 236.0
183.279358 104.0
183.31221 172.0
183.346527 72.0
183.387741 164.0
183.410461 184.0
183.428726 172.0
183.460022 148.0
183.485519 368.0
183.50267 176.0
183.524261 148.0
183.570099 160.0
183.622192 144.0
183.663101 156.0
183.693451 220.0
183.727005 120.0
183.764069 136.0
183.79985 172.0
183.829361 120.0
183.847717 280.0
183.877853 84.0
183.93483 148.0
183.95639 156.0
183.979309 176.0
183.987061 220.0
184.032898 204.0
184.057999 200.0
184.108994 208.0
184.131653 364.0
184.141922 56.0
184.148331 444.0
184.177841 160.0
184.20787 188.0
184.244217 68.0
184.275024 204.0
184.311325 200.0
184.340134 136.0
184.37027 88.0
184.400238 160.0
184.434494 176.0
184.470093 264.0
184.50061 252.0
184.519196 136.0
184.53067 172.0
184.557632 160.0
184.605103 148.0
184.633209 76.0
184.661133 168.0
184.702179 80.0
184.750778 456.0
184.782623 152.0
184.790466 312.0
184.850372 160.0
184.875092 92.0
184.903931 328.0
184.940414 176.0
184.990326 96.0
185.040207 136.0
185.068375 180.0
185.137924 120.0
185.160934 120.0
185.198486 240.0
185.219177 112.0
185.248962 48.0
185.283401 248.0
185.337601 112.0
185.355698 132.0
185.389862 188.0
185.419662 36.0
185.486954 128.0
185.544235 192.0
185.569107 316.0
185.598892 268.0
185.661026 300.0
185.682922 192.0
185.709534 252.0
185.759781 264.0
185.790115 232.0
185.827759 216.0
185.861679 60.0
185.886169 84.0
185.928726 192.0
185.964798 292.0
186.003036 232.0
186.036118 132.0
186.10466 124.0
186.130402 188.0
186.174179 192.0
186.199966 140.0
186.257843 284.0
186.340515 176.0
186.379669 112.0
186.401428 332.0
186.438217 164.0
186.461166 184.0
186.497147 40.0
186.517303 236.0
186.538803 284.0
186.565109 148.0
186.619843 152.0
186.643448 108.0
186.677979 248.0
186.707443 184.0
186.725739 336.0
186.746094 148.0
186.771774 240.0
186.821152 384.0
186.851303 152.0
186.872421 292.0
186.890823 84.0
186.935974 168.0
186.97554 152.0
187.024261 160.0
187.072983 172.0
187.097733 172.0
187.103119 136.0
187.130981 184.0
187.163055 128.0
187.215775 144.0
187.242508 316.0
187.269684 60.0
187.316162 252.0
187.340683 84.0
187.384979 148.0
187.402557 56.0
187.409485 124.0
187.458023 152.0
187.561401 244.0
187.638641 232.0
187.660278 104.0
187.671066 124.0
187.712158 176.0
187.732025 172.0
187.842255 148.0
187.874985 108.0
187.896927 304.0
187.934982 196.0
187.969894 184.0
187.996902 152.0
188.023178 220.0
188.045914 136.0
188.068161 152.0
188.078094 120.0
188.085968 88.0
188.102783 92.0
188.107925 100.0
188.133408 144.0
188.144409 328.0
188.158356 172.0
188.188843 116.0
188.21225 188.0
188.234009 128.0
188.296661 208.0
188.323318 232.0
188.360077 284.0
188.379379 52.0
188.439667 320.0
188.487381 120.0
188.513885 124.0
188.553909 188.0
188.589722 112.0
188.625458 112.0
188.686493 248.0
188.709 84.0
188.729355 140.0
188.738342 176.0
188.796005 140.0
188.827774 308.0
188.856903 204.0
188.885712 148.0
188.9086 164.0
188.935425 92.0
188.976379 256.0
189.014297 288.0
189.054245 140.0
189.078979 448.0
189.113388 172.0
189.144165 44.0
189.17215 96.0
189.220673 172.0
189.270615 112.0
189.280411 72.0
189.289215 128.0
189.32225 112.0
189.343353 112.0
189.361771 156.0
189.366882 120.0
189.413559 200.0
189.457443 84.0
189.514435 164.0
189.555374 252.0
189.587616 456.0
189.628342 124.0
189.67334 148.0
189.702286 116.0
189.745712 136.0
189.759842 152.0
189.785614 108.0
189.795105 132.0
189.823929 140.0
189.855255 152.0
189.878357 200.0
189.898132 148.0
189.930923 148.0
189.96463 128.0
190.007965 212.0
190.037399 308.0
190.066971 232.0
190.100189 240.0
190.142014 172.0
190.182449 144.0
190.206268 180.0
190.230103 208.0
190.26059 160.0
190.31076 108.0
190.336716 328.0
190.363892 100.0
190.38916 168.0
190.409515 124.0
190.435272 164.0
190.472794 136.0
190.505753 168.0
190.543091 88.0
190.591614 192.0
190.634888 100.0
190.665359 180.0
190.722748 136.0
190.75795 180.0
190.778 116.0
190.808044 244.0
190.827301 184.0
190.865784 164.0
190.90918 128.0
190.933456 344.0
190.966858 160.0
191.008057 268.0
191.030807 136.0
191.071884 488.0
191.105179 176.0
191.142517 112.0
191.181961 200.0
191.201599 584.0
191.244736 288.0
191.263062 276.0
191.296036 152.0
191.358353 156.0
191.411331 92.0
191.469223 112.0
191.495972 104.0
191.520844 288.0
191.552322 132.0
191.5746 156.0
191.580185 112.0
191.62236 144.0
191.650238 332.0
191.669525 80.0
191.697189 116.0
191.73204 152.0
191.765976 64.0
191.809341 120.0
191.844025 672.0
191.875412 176.0
191.928818 224.0
191.950226 124.0
191.968765 112.0
191.994217 188.0
192.03653 188.0
192.059891 80.0
192.092499 124.0
192.100464 92.0
192.138641 328.0
192.172272 180.0
192.214783 184.0
192.240616 76.0
192.250702 116.0
192.262085 140.0
192.268784 116.0
192.299515 144.0
192.332474 216.0
192.37764 192.0
192.418427 184.0
192.480484 88.0
192.510574 320.0
192.584351 228.0
192.655273 264.0
192.693329 140.0
192.722107 160.0
192.761337 184.0
192.809372 136.0
192.841919 96.0
192.852234 108.0
192.89949 132.0
192.908569 76.0
192.921234 128.0
192.958466 140.0
192.990829 68.0
193.010132 152.0
193.047897 176.0
193.085861 256.0
193.111237 148.0
193.140427 100.0
193.148956 184.0
193.18248 60.0
193.218857 156.0
193.2379 144.0
193.282578 216.0
193.333389 140.0
193.369812 216.0
193.423096 276.0
193.453018 152.0
193.51651 304.0
193.534729 128.0
193.54425 256.0
193.569122 188.0
193.595291 132.0
193.629913 124.0
193.66806 128.0
193.689041 96.0
193.728333 176.0
193.74913 92.0
193.792084 176.0
193.820175 128.0
193.847717 72.0
193.856766 104.0
193.910324 152.0
193.930099 112.0
193.94928 144.0
193.98465 148.0
193.996338 120.0
194.005157 140.0
194.048889 132.0
194.125549 156.0
194.153625 140.0
194.17836 240.0
194.223999 156.0
194.249451 224.0
194.308899 212.0
194.357849 160.0
194.407104 204.0
194.436966 128.0
194.477356 208.0
194.499573 100.0
194.543472 60.0
194.577499 276.0
194.608322 208.0
194.667801 136.0
194.694275 148.0
194.727554 252.0
194.751358 360.0
194.780792 200.0
194.812027 76.0
194.83403 268.0
194.881302 268.0
194.917648 164.0
194.966064 252.0
194.988708 56.0
195.02327 116.0
195.030548 124.0
195.06813 160.0
195.094101 156.0
195.138733 232.0
195.173004 160.0
195.192535 120.0
195.234879 328.0
195.294632 148.0
195.323944 164.0
195.360382 268.0
195.426788 240.0
195.447861 176.0
195.494949 156.0
195.535629 196.0
195.582947 244.0
195.596237 56.0
195.602478 168.0
195.642395 180.0
195.669006 244.0
195.688507 236.0
195.709305 68.0
195.749908 144.0
195.803848 232.0
195.84166 152.0
195.863937 108.0
195.885452 248.0
195.912506 176.0
195.944092 104.0
195.96936 156.0
195.997665 172.0
196.038773 128.0
196.064087 320.0
196.092926 108.0
196.123077 96.0
196.142578 176.0
196.171432 136.0
196.242661 152.0
196.261002 84.0
196.289093 192.0
196.337082 184.0
196.356491 136.0
196.367477 164.0
196.390228 176.0
196.43663 160.0
196.474487 184.0
196.495865 224.0
196.505661 184.0
196.537308 396.0
196.596283 124.0
196.629501 76.0
196.678635 152.0
196.71846 196.0
196.772446 356.0
196.798172 344.0
196.852997 196.0
196.925339 208.0
196.930847 140.0
196.963974 216.0
196.986984 168.0
197.023453 144.0
197.043396 196.0
197.05484 120.0
197.067719 172.0
197.073456 200.0
197.119476 324.0
197.148026 160.0
197.190155 124.0
197.19577 108.0
197.206924 160.0
197.241882 260.0
197.265732 176.0
197.338654 160.0
197.396362 168.0
197.417557 148.0
197.462021 120.0
197.49202 96.0
197.520569 160.0
197.579041 156.0
197.58429 144.0
197.610535 268.0
197.652206 152.0
197.67865 168.0
197.709427 432.0
197.761078 132.0
197.793396 180.0
197.814789 180.0
197.840485 160.0
197.86087 92.0
197.896347 108.0
197.932266 132.0
197.958084 80.0
198.01329 96.0
198.020935 140.0
198.051743 144.0
198.086273 284.0
198.108963 148.0
198.133408 132.0
198.142227 164.0
198.165543 188.0
198.196671 112.0
198.241501 84.0
198.273453 232.0
198.301987 156.0
198.366684 144.0
198.403687 176.0
198.427444 164.0
198.453705 96.0
198.465561 124.0
198.512573 160.0
198.548325 80.0
198.565933 132.0
198.593491 108.0
198.627609 156.0
198.63237 112.0
198.645477 296.0
198.659149 148.0
198.679459 448.0
198.709747 212.0
198.732193 292.0
198.787369 256.0
198.806213 260.0
198.831528 160.0
198.852509 140.0
198.906479 236.0
198.938644 100.0
198.96846 196.0
199.00444 96.0
199.030563 344.0
199.07579 88.0
199.087662 120.0
199.0961 100.0
199.132874 196.0
199.151047 136.0
199.158432 144.0
199.16803 112.0
199.207886 332.0
199.267838 288.0
199.304977 120.0
199.334976 160.0
199.37352 184.0
199.459549 184.0
199.493866 116.0
199.532013 236.0
199.571304 180.0
199.616882 104.0
199.646896 132.0
199.653152 144.0
199.7108 144.0
199.751862 144.0
199.796432 80.0
199.842148 160.0
199.865829 284.0
199.901093 176.0
199.927399 116.0
199.951752 36.0
199.995667 180.0
200.015015 244.0
200.039001 168.0
200.065506 136.0
200.097824 136.0
200.121872 148.0
200.140106 344.0
200.172272 72.0
200.217346 168.0
200.238922 132.0
200.288788 288.0
200.337036 116.0
200.366852 180.0
200.377319 148.0
200.386215 188.0
200.398178 136.0
200.422287 344.0
200.478058 72.0
200.500916 84.0
200.52504 96.0
200.536285 88.0
200.559723 308.0
200.616486 152.0
200.654037 188.0
200.671173 100.0
200.699371 100.0
200.727341 140.0
200.765915 64.0
200.812286 300.0
200.885864 304.0
200.924728 144.0
200.977478 128.0
200.997223 104.0
201.050171 332.0
201.085876 116.0
201.127975 228.0
201.153015 148.0
201.184311 140.0
201.223022 100.0
201.273849 412.0
201.304626 80.0
201.341614 116.0
201.364212 184.0
201.399414 164.0
201.422562 152.0
201.445923 164.0
201.47876 368.0
201.521271 328.0
201.542297 280.0
201.571976 264.0
201.634155 200.0
201.65596 152.0
201.675629 144.0
201.722321 92.0
201.750168 208.0
201.784332 308.0
201.81192 120.0
201.833221 124.0
201.853104 256.0
201.863541 52.0
201.87085 188.0
201.923187 164.0
201.962601 156.0
202.006012 184.0
202.028458 148.0
202.062347 520.0
202.109299 168.0
202.142807 184.0
202.164688 412.0
202.232132 196.0
202.29248 120.0
202.338409 216.0
202.366486 156.0
202.399338 92.0
202.461487 172.0
202.483383 272.0
202.515045 244.0
202.524261 132.0
202.551254 192.0
202.587112 324.0
202.607819 104.0
202.627655 268.0
202.672974 184.0
202.708313 328.0
202.742233 176.0
202.796631 268.0
202.817535 176.0
202.854797 184.0
202.896942 184.0
202.917709 232.0
202.948898 132.0
202.970322 268.0
203.003098 176.0
203.015228 112.0
203.026794 220.0
203.072815 1668.0
203.139908 168.0
203.166779 152.0
203.19754 132.0
203.202606 88.0
203.236954 208.0
203.266586 152.0
203.317657 84.0
203.345749 152.0
203.375351 132.0
203.414169 104.0
203.438232 228.0
203.472565 168.0
203.514465 240.0
203.573242 120.0
203.606232 136.0
203.614105 216.0
203.634109 192.0
203.69165 240.0
203.720261 172.0
203.753418 208.0
203.80455 152.0
203.852203 152.0
203.90303 68.0
203.928268 248.0
203.988998 120.0
204.019226 184.0
204.07872 780.0
204.120682 200.0
204.128464 172.0
204.173553 232.0
204.231308 172.0
204.238754 100.0
204.263199 132.0
204.308701 184.0
204.315933 120.0
204.354553 172.0
204.387878 296.0
204.406754 256.0
204.481445 120.0
204.527954 148.0
204.543335 132.0
204.60527 160.0
204.624741 196.0
204.686798 120.0
204.71553 64.0
204.748749 380.0
204.790359 124.0
204.826263 220.0
204.859756 200.0
204.897903 228.0
204.930145 208.0
204.953842 328.0
204.99678 144.0
205.047119 196.0
205.077148 508.0
205.127426 136.0
205.177887 68.0
205.202759 172.0
205.249451 120.0
205.27536 332.0
205.323929 188.0
205.388275 408.0
205.435715 148.0
205.45845 148.0
205.488754 164.0
205.554153 200.0
205.583313 252.0
205.593353 152.0
205.603577 200.0
205.652954 148.0
205.688995 72.0
205.69577 192.0
205.716034 272.0
205.777008 192.0
205.799042 140.0
205.831787 284.0
205.862579 128.0
205.893951 168.0
205.937134 160.0
205.966614 176.0
206.002182 184.0
206.021454 164.0
206.089294 372.0
206.148865 116.0
206.178558 132.0
206.24646 164.0
206.308395 128.0
206.364929 160.0
206.413971 164.0
206.459244 184.0
206.488419 168.0
206.534561 288.0
206.553162 80.0
206.560776 108.0
206.608658 68.0
206.650314 124.0
206.700119 448.0
206.725754 276.0
206.735672 144.0
206.823273 348.0
206.855621 156.0
206.893692 172.0
206.913254 288.0
206.963165 208.0
206.996292 176.0
207.032898 176.0
207.070786 500.0
207.095383 208.0
207.117599 152.0
207.155182 88.0
207.173935 244.0
207.199326 296.0
207.230148 52.0
207.251022 208.0
207.292953 84.0
207.317963 264.0
207.337845 224.0
207.398148 244.0
207.467651 168.0
207.511612 132.0
207.534912 116.0
207.57782 116.0
207.61409 124.0
207.653778 180.0
207.702286 136.0
207.743439 164.0
207.788681 172.0
207.83432 396.0
207.859283 144.0
207.905411 128.0
207.929932 224.0
207.994812 152.0
208.035797 176.0
208.073196 280.0
208.101822 156.0
208.124802 120.0
208.166931 200.0
208.208069 88.0
208.229355 88.0
208.257645 272.0
208.282959 104.0
208.320206 96.0
208.361816 312.0
208.395813 112.0
208.433212 180.0
208.486359 156.0
208.508667 164.0
208.529572 496.0
208.55571 156.0
208.581161 196.0
208.621124 204.0
208.639725 160.0
208.675659 252.0
208.709122 76.0
208.735275 104.0
208.786087 120.0
208.811218 328.0
208.860489 56.0
208.88707 200.0
208.955185 280.0
208.993774 156.0
209.01358 168.0
209.050568 168.0
209.114838 140.0
209.15686 136.0
209.201706 220.0
209.232269 156.0
209.262589 136.0
209.29216 104.0
209.334183 176.0
209.40564 108.0
209.442596 168.0
209.474854 124.0
209.496017 536.0
209.530472 108.0
209.575424 220.0
209.619507 168.0
209.628326 108.0
209.643082 136.0
209.693039 176.0
209.718124 164.0
209.774277 244.0
209.81076 180.0
209.8367 96.0
209.886322 116.0
209.924622 160.0
209.961441 76.0
209.985611 488.0
210.005554 152.0
210.09256 260.0
210.103668 136.0
210.133255 188.0
210.170563 344.0
210.204575 140.0
210.230179 132.0
210.259659 212.0
210.286377 176.0
210.296082 156.0
210.315369 160.0
210.355972 208.0
210.382324 208.0
210.427292 272.0
210.474808 320.0
210.513306 212.0
210.540161 176.0
210.570496 68.0
210.633179 132.0
210.684174 168.0
210.712006 188.0
210.750626 264.0
210.789185 180.0
210.822952 164.0
210.864319 216.0
210.887451 296.0
210.908798 72.0
210.934799 232.0
210.966263 284.0
210.992584 268.0
211.013535 116.0
211.024567 120.0
211.032608 116.0
211.078674 108.0
211.12291 160.0
211.139069 272.0
211.173676 188.0
211.225327 56.0
211.278488 52.0
211.311691 124.0
211.363068 224.0
211.395172 308.0
211.430908 236.0
211.466568 124.0
211.508026 236.0
211.520233 160.0
211.527252 200.0
211.564102 112.0
211.621323 324.0
211.705765 172.0
211.729218 164.0
211.775925 216.0
211.817123 144.0
211.856598 120.0
211.889359 204.0
211.937912 124.0
211.978119 160.0
211.998184 136.0
212.031982 172.0
212.059631 220.0
212.106476 404.0
212.14032 364.0
212.187164 108.0
212.218124 112.0
212.258209 284.0
212.272736 244.0
212.336365 168.0
212.377899 140.0
212.421173 276.0
212.443344 168.0
212.465576 132.0
212.492462 212.0
212.524445 236.0
212.552505 188.0
212.559967 180.0
212.583496 100.0
212.657074 472.0
212.691788 84.0
212.729996 320.0
212.756866 172.0
212.798294 112.0
212.837082 48.0
212.873138 220.0
212.907196 132.0
212.931854 88.0
212.948563 92.0
212.99823 320.0
213.008774 132.0
213.018112 124.0
213.061661 244.0
213.07164 152.0
213.079498 208.0
213.099487 116.0
213.134796 152.0
213.173233 88.0
213.241852 124.0
213.250397 144.0
213.300339 172.0
213.35936 140.0
213.394547 444.0
213.430069 148.0
213.456894 232.0
213.501846 244.0
213.554871 72.0
213.589767 92.0
213.610138 104.0
213.644394 120.0
213.673584 84.0
213.709045 340.0
213.781143 72.0
213.802521 264.0
213.831268 244.0
213.866531 104.0
213.928909 292.0
213.975037 156.0
214.018906 308.0
214.066544 508.0
214.094376 176.0
214.125275 160.0
214.183365 128.0
214.217575 124.0
214.255539 164.0
214.313431 380.0
214.359406 248.0
214.40329 96.0
214.433273 420.0
214.4711 228.0
214.506348 216.0
214.56604 152.0
214.598999 136.0
214.642822 248.0
214.677811 184.0
214.7341 108.0
214.773026 280.0
214.824585 164.0
214.877594 120.0
214.929413 100.0
214.975479 128.0
215.0121 368.0
215.076859 492.0
215.1371 204.0
215.159698 200.0
215.218842 68.0
215.246796 196.0
215.279404 232.0
215.299347 196.0
215.335571 144.0
215.346725 172.0
215.388229 100.0
215.408676 260.0
215.43866 256.0
215.48732 52.0
215.523193 60.0
215.548904 96.0
215.579269 112.0
215.612518 216.0
215.645294 220.0
215.689255 112.0
215.717712 116.0
215.723328 88.0
215.736481 176.0
215.767929 132.0
215.778961 124.0
215.806046 304.0
215.858307 156.0
215.89621 300.0
215.916565 372.0
215.947342 136.0
216.013107 268.0
216.038116 124.0
216.080048 352.0
216.14975 212.0
216.171753 84.0
216.1931 332.0
216.24028 172.0
216.276321 116.0
216.324402 180.0
216.345093 212.0
216.385422 192.0
216.418381 332.0
216.459747 208.0
216.488297 204.0
216.513824 216.0
216.560211 196.0
216.602875 124.0
216.640198 240.0
216.696167 192.0
216.725159 156.0
216.756653 332.0
216.820511 132.0
216.856369 268.0
216.878815 156.0
216.914902 156.0
216.94133 220.0
216.975235 112.0
217.009857 120.0
217.02739 144.0
217.085754 376.0
217.119232 120.0
217.148621 324.0
217.206772 168.0
217.237 116.0
217.246033 48.0
217.256546 128.0
217.281982 308.0
217.302917 220.0
217.383209 300.0
217.411102 156.0
217.451736 280.0
217.458282 108.0
217.493301 172.0
217.520798 172.0
217.558075 280.0
217.631577 124.0
217.699539 180.0
217.724518 204.0
217.753815 320.0
217.777725 224.0
217.812347 88.0
217.841553 192.0
217.87648 124.0
217.888885 124.0
217.899719 80.0
217.910217 128.0
217.938553 168.0
217.972733 152.0
218.002731 112.0
218.036606 228.0
218.094833 660.0
218.174988 228.0
218.198792 252.0
218.24765 180.0
218.298477 172.0
218.324142 88.0
218.358948 220.0
218.403641 212.0
218.458969 156.0
218.513199 44.0
218.552338 172.0
218.598846 164.0
218.640762 192.0
218.684906 204.0
218.726471 196.0
218.770416 60.0
218.794083 184.0
218.850311 208.0
218.882721 248.0
218.909012 236.0
218.942139 288.0
219.006485 224.0
219.066711 360.0
219.097992 272.0
219.166336 112.0
219.17215 124.0
219.184097 88.0
219.195343 200.0
219.207291 224.0
219.261124 172.0
219.310532 120.0
219.366272 284.0
219.41066 164.0
219.450027 184.0
219.495529 108.0
219.524216 140.0
219.549316 148.0
219.568985 80.0
219.59314 260.0
219.614914 212.0
219.661041 156.0
219.703125 124.0
219.767883 164.0
219.813873 256.0
219.846375 280.0
219.872177 160.0
219.897659 276.0
219.953522 456.0
219.972015 100.0
220.00029 232.0
220.073242 232.0
220.102432 40.0
220.140991 160.0
220.169952 192.0
220.199997 100.0
220.238235 152.0
220.271866 192.0
220.311356 192.0
220.337204 64.0
220.391785 164.0
220.412476 148.0
220.445267 188.0
220.46199 112.0
220.492905 196.0
220.549789 108.0
220.558533 68.0
220.569504 92.0
220.589188 564.0
220.609146 180.0
220.645248 52.0
220.662231 156.0
220.691513 168.0
220.728714 108.0
220.761581 168.0
220.796051 204.0
220.821777 168.0
220.849518 152.0
220.876694 148.0
220.913925 368.0
220.958008 184.0
220.993973 224.0
221.040497 180.0
221.070084 260.0
221.103958 172.0
221.12468 132.0
221.163422 164.0
221.189957 68.0
221.230362 364.0
221.292984 144.0
221.340958 132.0
221.365402 152.0
221.39856 272.0
221.440063 136.0
221.464539 116.0
221.518478 80.0
221.545731 260.0
221.574463 172.0
221.607788 132.0
221.66127 204.0
221.667892 156.0
221.680817 116.0
221.706024 120.0
221.746628 140.0
221.7724 228.0
221.841476 136.0
221.864136 168.0
221.894547 144.0
221.916107 248.0
221.971558 136.0
221.990204 216.0
222.017273 232.0
222.069 108.0
222.101395 116.0
222.109436 164.0
222.119492 100.0
222.131393 140.0
222.162201 476.0
222.199844 180.0
222.232941 108.0
222.257523 112.0
222.292175 300.0
222.318848 168.0
222.348724 224.0
222.380981 72.0
222.409775 232.0
222.430267 204.0
222.442108 100.0
222.454346 252.0
222.482239 152.0
222.519684 144.0
222.547455 120.0
222.589127 140.0
222.622543 188.0
222.684402 116.0
222.717682 180.0
222.756561 104.0
222.785141 116.0
222.85051 28.0
222.873718 232.0
222.911499 320.0
222.980103 240.0
223.003204 156.0
223.030014 196.0
223.094208 172.0
223.116898 252.0
223.14772 180.0
223.208984 244.0
223.230499 96.0
223.259964 364.0
223.325302 144.0
223.355881 92.0
223.390335 288.0
223.425583 208.0
223.461639 116.0
223.511276 152.0
223.541061 248.0
223.562347 164.0
223.590866 184.0
223.606491 140.0
223.635559 208.0
223.727509 156.0
223.750366 148.0
223.769516 328.0
223.790359 96.0
223.821625 96.0
223.852692 308.0
223.908997 108.0
223.948196 64.0
223.96904 176.0
223.999893 100.0
224.022202 244.0
224.05423 100.0
224.095886 124.0
224.1548 68.0
224.202652 176.0
224.219818 176.0
224.277954 112.0
224.307068 276.0
224.329819 304.0
224.368134 112.0
224.378433 104.0
224.385635 152.0
224.399323 92.0
224.473709 172.0
224.504944 112.0
224.5383 244.0
224.564926 108.0
224.599319 132.0
224.619705 292.0
224.704391 200.0
224.739532 164.0
224.809967 248.0
224.837799 92.0
224.888641 208.0
224.930313 124.0
224.970749 212.0
224.974304 192.0
225.018204 140.0
225.046585 520.0
225.068741 228.0
225.131424 172.0
225.15419 76.0
225.20163 172.0
225.259918 200.0
225.271515 148.0
225.280579 292.0
225.311401 176.0
225.344254 132.0
225.402267 256.0
225.457077 212.0
225.496658 64.0
225.554626 152.0
225.577255 124.0
225.585785 196.0
225.614395 196.0
225.648636 128.0
225.686813 164.0
225.716431 132.0
225.761566 124.0
225.786652 128.0
225.82103 268.0
225.851013 316.0
225.885361 120.0
225.915268 128.0
225.972961 156.0
226.022751 160.0
226.043915 192.0
226.074066 168.0
226.096664 144.0
226.142059 196.0
226.201523 200.0
226.230728 164.0
226.260681 288.0
226.28714 272.0
226.308853 148.0
226.351318 200.0
226.372452 128.0
226.393005 192.0
226.415054 120.0
226.423691 116.0
226.43483 152.0
226.442841 204.0
226.502686 132.0
226.534531 92.0
226.557983 92.0
226.581711 84.0
226.595734 108.0
226.621368 160.0
226.641205 84.0
226.68924 292.0
226.784119 192.0
226.818512 368.0
226.865234 368.0
226.888535 76.0
226.916702 204.0
226.945816 264.0
226.989609 248.0
227.049606 224.0
227.096115 144.0
227.1371 152.0
227.181015 124.0
227.208771 272.0
227.256088 320.0
227.282196 332.0
227.317062 88.0
227.34079 220.0
227.360413 120.0
227.399918 116.0
227.439636 84.0
227.478455 124.0
227.521454 132.0
227.545258 80.0
227.575211 180.0
227.623627 316.0
227.686691 132.0
227.719925 152.0
227.756241 280.0
227.787659 384.0
227.844131 96.0
227.895782 204.0
227.927933 264.0
227.958771 240.0
227.981094 244.0
228.023743 332.0
228.072205 368.0
228.13739 128.0
228.18158 108.0
228.251633 172.0
228.29364 152.0
228.338135 168.0
228.366028 204.0
228.395981 72.0
228.436401 128.0
228.460846 128.0
228.481476 124.0
228.523102 164.0
228.584015 132.0
228.599014 116.0
228.630661 152.0
228.654739 128.0
228.686722 108.0
228.742615 180.0
228.801941 256.0
228.839828 236.0
228.87915 308.0
228.95079 196.0
228.971527 152.0
228.999054 252.0
229.077011 13476.0
229.182785 200.0
229.215714 236.0
229.255264 204.0
229.274612 252.0
229.317871 212.0
229.359924 172.0
229.392151 256.0
229.416779 80.0
229.452255 68.0
229.476746 140.0
229.50177 120.0
229.532593 212.0
229.566162 412.0
229.625076 244.0
229.647491 164.0
229.665833 264.0
229.686996 260.0
229.71524 240.0
229.765366 432.0
229.794785 172.0
229.816879 160.0
229.840195 148.0
229.849777 184.0
229.86409 236.0
229.890182 392.0
229.921432 316.0
229.95752 104.0
229.964828 152.0
229.989914 188.0
230.022995 568.0
230.027115 356.0
230.08548 75056.0
230.181686 152.0
230.223846 288.0
230.278183 276.0
230.285049 148.0
230.295914 192.0
230.319016 132.0
230.342178 144.0
230.377075 128.0
230.413666 312.0
230.4496 232.0
230.482162 144.0
230.495987 248.0
230.500793 236.0
230.583679 164.0
230.647537 560.0
230.695908 276.0
230.73793 176.0
230.777679 168.0
230.810699 52.0
230.851395 132.0
230.886444 160.0
230.928894 288.0
230.987625 108.0
231.087814 14100.0
231.154465 268.0
231.231155 136.0
231.258942 204.0
231.292374 144.0
231.303696 184.0
231.3759 396.0
231.38266 252.0
231.394012 364.0
231.417679 172.0
231.457397 448.0
231.47995 188.0
231.525269 120.0
231.559433 240.0
231.592285 232.0
231.606216 160.0
231.615097 244.0
231.648178 156.0
231.679474 188.0
231.71843 340.0
231.759018 108.0
231.792068 176.0
231.835617 144.0
231.887161 176.0
231.91011 168.0
231.917694 204.0
231.94162 208.0
231.997787 312.0
232.020096 148.0
232.091736 1376.0
232.162445 124.0
232.207504 80.0
232.213379 176.0
232.25795 76.0
232.265991 176.0
232.275635 88.0
232.32576 180.0
232.360947 112.0
232.382248 180.0
232.426559 332.0
232.507339 108.0
232.540451 308.0
232.567184 88.0
232.592453 240.0
232.634216 132.0
232.659637 108.0
232.696091 208.0
232.727753 324.0
232.784256 76.0
232.821686 160.0
232.828873 208.0
232.866684 136.0
232.90947 204.0
232.942184 128.0
232.97847 136.0
233.012054 108.0
233.05426 116.0
233.093292 160.0
233.138885 196.0
233.172546 196.0
233.213791 72.0
233.247772 176.0
233.300903 92.0
233.342606 212.0
233.362213 132.0
233.393005 388.0
233.41188 164.0
233.460419 224.0
233.495041 184.0
233.517593 268.0
233.551331 260.0
233.595734 132.0
233.638565 244.0
233.687225 216.0
233.760117 188.0
233.766998 132.0
233.802567 216.0
233.834778 156.0
233.861877 428.0
233.886246 156.0
233.921326 168.0
233.967667 164.0
234.001297 332.0
234.028046 300.0
234.072968 576.0
234.130646 284.0
234.158829 184.0
234.201462 216.0
234.223648 200.0
234.229721 144.0
234.24173 184.0
234.290878 132.0
234.395157 124.0
234.435486 128.0
234.457092 232.0
234.50322 188.0
234.570251 280.0
234.594543 76.0
234.616714 176.0
234.652466 152.0
234.695969 132.0
234.718903 208.0
234.741364 252.0
234.804062 140.0
234.843399 176.0
234.870178 172.0
234.912598 148.0
234.932724 436.0
234.974731 104.0
235.024567 220.0
235.075195 276.0
235.122208 420.0
235.151886 116.0
235.18454 104.0
235.210388 164.0
235.237198 184.0
235.271774 232.0
235.294724 132.0
235.340347 160.0
235.381882 124.0
235.436996 264.0
235.460098 212.0
235.502121 120.0
235.547623 140.0
235.583374 276.0
235.637955 144.0
235.658722 140.0
235.668228 84.0
235.743164 180.0
235.77652 224.0
235.799316 152.0
235.87355 96.0
235.89801 120.0
235.925522 176.0
235.94841 84.0
235.983017 184.0
235.995407 84.0
236.017334 144.0
236.068634 164.0
236.127289 164.0
236.164917 184.0
236.208008 80.0
236.248489 124.0
236.289444 152.0
236.350861 228.0
236.364487 160.0
236.375839 152.0
236.388733 196.0
236.435059 304.0
236.481766 344.0
236.530304 136.0
236.569168 352.0
236.618713 184.0
236.653473 176.0
236.674088 276.0
236.701599 128.0
236.733261 124.0
236.755096 132.0
236.799774 196.0
236.829895 124.0
236.851807 348.0
236.873016 204.0
236.910324 168.0
236.932358 80.0
236.984741 208.0
237.026016 204.0
237.031052 84.0
237.045273 164.0
237.056168 292.0
237.083954 176.0
237.124664 248.0
237.190811 176.0
237.209946 144.0
237.241882 172.0
237.287857 48.0
237.326141 132.0
237.375305 108.0
237.397034 152.0
237.427887 156.0
237.435913 128.0
237.460907 148.0
237.499207 280.0
237.520432 124.0
237.544464 196.0
237.602646 400.0
237.653824 136.0
237.746857 156.0
237.781723 260.0
237.812714 160.0
237.835739 272.0
237.872681 176.0
237.922913 152.0
237.960938 156.0
237.974487 216.0
238.007996 140.0
238.042099 236.0
238.096542 124.0
238.13382 156.0
238.203247 144.0
238.233078 64.0
238.265457 148.0
238.290314 76.0
238.312851 124.0
238.320587 240.0
238.37886 80.0
238.423584 316.0
238.457382 96.0
238.481964 124.0
238.519562 228.0
238.53894 112.0
238.56337 108.0
238.599411 204.0
238.621887 124.0
238.667786 108.0
238.717682 236.0
238.754349 128.0
238.787613 156.0
238.818588 224.0
238.840851 144.0
238.850464 104.0
238.85878 232.0
238.917419 176.0
238.952454 236.0
239.007172 276.0
239.057983 164.0
239.101044 120.0
239.143234 160.0
239.174652 176.0
239.200775 116.0
239.237152 180.0
239.278687 40.0
239.324768 120.0
239.351379 100.0
239.391541 192.0
239.454193 104.0
239.49411 236.0
239.554794 292.0
239.606888 316.0
239.615234 260.0
239.683014 144.0
239.70842 224.0
239.746353 144.0
239.779358 128.0
239.824112 248.0
239.882477 60.0
239.909561 188.0
239.962357 396.0
239.988052 116.0
240.05304 124.0
240.075058 260.0
240.107895 148.0
240.168518 84.0
240.217758 88.0
240.236038 104.0
240.277405 124.0
240.319412 272.0
240.356995 152.0
240.437073 112.0
240.448685 140.0
240.4617 248.0
240.517853 212.0
240.591278 104.0
240.612152 304.0
240.634979 160.0
240.647827 96.0
240.654419 136.0
240.702942 60.0
240.742722 108.0
240.79361 176.0
240.814651 296.0
240.871307 136.0
240.891098 56.0
240.914185 364.0
240.950882 96.0
241.001328 220.0
241.077362 3036.0
241.133926 320.0
241.186615 264.0
241.226868 216.0
241.25235 416.0
241.276459 220.0
241.317947 176.0
241.327728 196.0
241.364594 160.0
241.393372 212.0
241.429398 168.0
241.486588 156.0
241.520523 272.0
241.567535 76.0
241.5811 192.0
241.595459 84.0
241.603424 132.0
241.630096 184.0
241.638489 116.0
241.659485 168.0
241.690262 240.0
241.726349 176.0
241.764023 124.0
241.818314 132.0
241.85054 108.0
241.856995 192.0
241.901566 388.0
241.944107 204.0
241.979874 216.0
241.989548 232.0
242.021667 192.0
242.085571 81784.0
242.156937 248.0
242.209 196.0
242.238358 104.0
242.281372 188.0
242.288681 172.0
242.303314 228.0
242.312836 112.0
242.342728 240.0
242.383865 144.0
242.437103 80.0
242.486099 332.0
242.527344 264.0
242.547043 224.0
242.595978 84.0
242.604294 108.0
242.650467 188.0
242.691162 36.0
242.734787 148.0
242.782684 220.0
242.827301 260.0
242.854126 200.0
242.888947 196.0
242.93866 52.0
242.968735 88.0
243.005402 272.0
243.088776 13824.0
243.16777 320.0
243.192352 144.0
243.249802 160.0
243.28598 248.0
243.309738 204.0
243.330872 172.0
243.354782 92.0
243.38797 104.0
243.427155 76.0
243.439743 80.0
243.493637 208.0
243.533325 132.0
243.570526 64.0
243.610092 300.0
243.650009 124.0
243.672943 192.0
243.717865 248.0
243.762177 360.0
243.810638 224.0
243.835052 64.0
243.905502 208.0
243.924606 164.0
243.932663 124.0
243.958755 120.0
243.967865 44.0
243.997543 160.0
244.025192 160.0
244.05162 224.0
244.093231 1468.0
244.133911 212.0
244.161377 176.0
244.185654 52.0
244.19841 108.0
244.23613 124.0
244.280411 168.0
244.302933 176.0
244.348602 156.0
244.391602 140.0
244.444199 152.0
244.48674 256.0
244.52478 156.0
244.545822 164.0
244.552261 152.0
244.566422 104.0
244.594574 224.0
244.616043 164.0
244.650879 264.0
244.687668 272.0
244.715363 288.0
244.77478 384.0
244.81424 172.0
244.86528 172.0
244.876099 84.0
244.888107 152.0
244.922623 268.0
244.965546 128.0
244.998138 136.0
245.00592 100.0
245.017349 112.0
245.037643 88.0
245.107361 2120.0
245.153198 128.0
245.165192 68.0
245.193405 196.0
245.252731 120.0
245.281418 188.0
245.301453 372.0
245.353867 128.0
245.359314 116.0
245.373306 176.0
245.400803 192.0
245.430969 172.0
245.465012 152.0
245.50174 340.0
245.54184 188.0
245.625336 140.0
245.679749 76.0
245.71167 196.0
245.743881 116.0
245.773438 136.0
245.803406 316.0
245.88118 120.0
245.912582 196.0
245.944199 172.0
245.9758 144.0
246.033173 112.0
246.092148 2632.0
246.152176 164.0
246.186188 112.0
246.195618 200.0
246.232788 128.0
246.279739 180.0
246.313126 204.0
246.364197 236.0
246.410446 136.0
246.433502 100.0
246.460327 168.0
246.47963 56.0
246.491928 132.0
246.54364 160.0
246.586487 296.0
246.626389 172.0
246.645233 244.0
246.6707 144.0
246.707703 240.0
246.742523 228.0
246.777405 136.0
246.815628 352.0
246.85347 184.0
246.888123 212.0
246.937164 148.0
246.947647 136.0
246.958954 124.0
247.00531 144.0
247.057236 124.0
247.065063 136.0
247.098328 812.0
247.14241 168.0
247.17662 196.0
247.211166 240.0
247.252518 240.0
247.293839 172.0
247.362518 148.0
247.393082 260.0
247.449127 204.0
247.485886 172.0
247.506699 156.0
247.533325 160.0
247.583206 112.0
247.644501 100.0
247.669479 96.0
247.733124 120.0
247.74678 92.0
247.785065 128.0
247.833923 136.0
247.86618 384.0
247.89505 184.0
247.937286 240.0
247.955963 260.0
247.99382 188.0
248.029892 116.0
248.077087 276.0
248.100037 304.0
248.157822 160.0
248.166809 124.0
248.178772 224.0
248.223419 252.0
248.260895 176.0
248.292816 88.0
248.324615 136.0
248.366104 88.0
248.380402 112.0
248.389832 176.0
248.455795 152.0
248.523636 72.0
248.546204 128.0
248.591812 184.0
248.625793 124.0
248.665405 264.0
248.723007 168.0
248.770172 76.0
248.820404 40.0
248.858322 152.0
248.90831 36.0
248.972687 104.0
248.980347 128.0
249.040588 224.0
249.073807 92.0
249.097198 140.0
249.127335 104.0
249.132401 84.0
249.184784 224.0
249.234039 148.0
249.282974 176.0
249.302719 108.0
249.325027 164.0
249.343445 224.0
249.366043 124.0
249.387527 184.0
249.446915 172.0
249.517792 264.0
249.555573 108.0
249.577805 112.0
249.601105 116.0
249.617737 52.0
249.680679 56.0
249.706055 128.0
249.744247 184.0
249.778854 212.0
249.81781 156.0
249.852219 164.0
249.877747 96.0
249.911621 204.0
249.950333 140.0
249.976395 172.0
250.030563 192.0
250.063599 152.0
250.093002 188.0
250.133377 156.0
250.152725 152.0
250.200272 160.0
250.204651 232.0
250.238312 296.0
250.271103 192.0
250.295578 168.0
250.357834 188.0
250.38945 148.0
250.44603 112.0
250.526642 72.0
250.547211 160.0
250.5784 136.0
250.597717 160.0
250.635162 216.0
250.676987 236.0
250.705658 112.0
250.736954 184.0
250.789017 172.0
250.837814 92.0
250.866287 144.0
250.92337 72.0
250.95755 252.0
251.013412 172.0
251.056625 108.0
251.077499 112.0
251.120255 252.0
251.149399 168.0
251.208557 148.0
251.242722 364.0
251.270187 348.0
251.347137 140.0
251.390213 160.0
251.414581 176.0
251.43924 184.0
251.460068 164.0
251.49852 112.0
251.553101 152.0
251.605484 144.0
251.646164 148.0
251.694977 64.0
251.726547 160.0
251.746918 152.0
251.781845 152.0
251.838776 120.0
251.868668 144.0
251.894989 224.0
251.911453 292.0
251.919693 208.0
251.933151 184.0
251.979233 136.0
252.026123 304.0
252.051056 196.0
252.106155 120.0
252.148346 204.0
252.201111 160.0
252.245529 120.0
252.285309 132.0
252.32869 124.0
252.353012 360.0
252.38472 160.0
252.414978 116.0
252.459686 148.0
252.515579 208.0
252.538818 144.0
252.579132 104.0
252.611893 124.0
252.659531 288.0
252.712723 60.0
252.743439 176.0
252.75502 220.0
252.760635 256.0
252.821365 100.0
252.858109 208.0
252.881927 120.0
252.916229 196.0
252.975784 116.0
252.999039 100.0
253.049545 220.0
253.082214 284.0
253.106613 144.0
253.132126 160.0
253.162201 168.0
253.21933 204.0
253.259003 112.0
253.311066 128.0
253.354355 60.0
253.36293 204.0
253.433609 68.0
253.461914 280.0
253.483673 124.0
253.5746 228.0
253.601746 108.0
253.615173 156.0
253.642654 140.0
253.69133 144.0
253.731552 168.0
253.766724 164.0
253.79306 372.0
253.843216 160.0
253.884735 64.0
253.914627 200.0
253.942368 148.0
253.983566 124.0
254.030563 172.0
254.063385 148.0
254.086716 100.0
254.108444 312.0
254.139099 168.0
254.200623 104.0
254.239548 144.0
254.26001 172.0
254.310913 132.0
254.365479 120.0
254.409393 212.0
254.46376 192.0
254.52356 164.0
254.554306 36.0
254.625961 292.0
254.648407 212.0
254.680649 440.0
254.705307 132.0
254.747269 212.0
254.781891 336.0
254.833817 156.0
254.908524 108.0
254.938309 104.0
254.978714 132.0
255.021301 152.0
255.090027 384.0
255.158478 336.0
255.186295 204.0
255.212051 392.0
255.236481 192.0
255.266098 40.0
255.308533 280.0
255.352753 224.0
255.395889 224.0
255.400391 212.0
255.42276 108.0
255.446594 96.0
255.476761 68.0
255.529739 184.0
255.595062 136.0
255.622482 228.0
255.651001 72.0
255.682831 96.0
255.717758 168.0
255.775131 40.0
255.822525 136.0
255.860809 116.0
255.869858 116.0
255.894394 112.0
255.901505 140.0
255.927933 208.0
255.982742 188.0
256.008423 200.0
256.030945 140.0
256.059235 376.0
256.101471 360.0
256.129547 332.0
256.157227 76.0
256.200653 144.0
256.222687 204.0
256.283295 240.0
256.318604 152.0
256.366669 368.0
256.395203 76.0
256.422516 300.0
256.466553 236.0
256.50351 168.0
256.551941 116.0
256.591034 188.0
256.624817 212.0
256.660156 420.0
256.680664 136.0
256.722321 172.0
256.758514 200.0
256.813477 288.0
256.846924 336.0
256.866089 96.0
256.876312 172.0
256.88916 168.0
256.967041 248.0
256.979523 216.0
256.988159 120.0
257.022278 172.0
257.072845 6964.0
257.131775 252.0
257.189301 144.0
257.221924 552.0
257.261475 200.0
257.305145 392.0
257.316742 116.0
257.377319 276.0
257.413147 192.0
257.47644 260.0
257.489136 244.0
257.513397 424.0
257.561615 340.0
257.592468 380.0
257.654266 308.0
257.683472 224.0
257.707581 368.0
257.748962 144.0
257.782959 464.0
257.824432 600.0
257.902679 640.0
257.938995 932.0
257.987061 680.0
258.031982 1208.0
258.082153 288596.0
258.196381 252.0
258.297424 348.0
258.351837 268.0
258.375519 1048.0
258.428833 316.0
258.478058 392.0
258.510956 340.0
258.566833 892.0
258.610504 9580.0
258.651703 724.0
258.70639 244.0
258.714111 276.0
258.719269 204.0
258.774719 364.0
258.855927 236.0
258.928772 388.0
258.997162 512.0
259.084534 118560.0
259.151306 140.0
259.202911 116.0
259.2677 116.0
259.289154 276.0
259.320831 184.0
259.353455 88.0
259.386841 148.0
259.415619 380.0
259.454315 300.0
259.469391 116.0
259.507202 176.0
259.520935 136.0
259.567719 120.0
259.582611 68.0
259.609314 172.0
259.646942 208.0
259.67627 144.0
259.698059 460.0
259.726562 304.0
259.749084 200.0
259.772339 144.0
259.806366 268.0
259.833496 336.0
259.868805 152.0
259.905334 168.0
259.916077 128.0
259.95105 304.0
259.998108 164.0
260.085754 14124.0
260.177246 224.0
260.194031 356.0
260.203674 224.0
260.214355 168.0
260.249939 220.0
260.277924 140.0
260.308136 152.0
260.326508 196.0
260.371246 364.0
260.418579 240.0
260.444641 340.0
260.466705 268.0
260.498749 344.0
260.539673 280.0
260.563934 88.0
260.590393 476.0
260.623932 132.0
260.63089 132.0
260.663605 176.0
260.698395 204.0
260.754425 164.0
260.782593 248.0
260.855988 572.0
260.91153 276.0
260.957672 388.0
261.005951 352.0
261.04303 276.0
261.09137 692.0
261.150421 208.0
261.17981 280.0
261.204895 92.0
261.25943 308.0
261.307312 248.0
261.363525 132.0
261.389191 92.0
261.435974 140.0
261.457733 76.0
261.494507 320.0
261.523315 188.0
261.549011 124.0
261.557373 128.0
261.610931 160.0
261.64209 172.0
261.704529 172.0
261.763824 224.0
261.815857 252.0
261.845734 100.0
261.877411 256.0
261.888763 140.0
261.930389 60.0
261.98645 240.0
262.019012 324.0
262.078461 276.0
262.133698 144.0
262.187714 84.0
262.21524 304.0
262.250092 104.0
262.284119 148.0
262.351074 128.0
262.396362 132.0
262.410004 132.0
262.452179 212.0
262.491455 68.0
262.520111 352.0
262.559998 160.0
262.585693 76.0
262.669098 220.0
262.69696 252.0
262.742493 132.0
262.767944 136.0
262.812439 140.0
262.853699 148.0
262.872345 116.0
262.899078 76.0
262.990112 64.0
263.059326 176.0
263.091827 124.0
263.122986 128.0
263.146545 80.0
263.171539 168.0
263.196899 136.0
263.226257 324.0
263.253815 32.0
263.280579 176.0
263.345215 344.0
263.411621 220.0
263.433868 192.0
263.458527 152.0
263.517181 80.0
263.556183 388.0
263.581085 172.0
263.629761 220.0
263.662079 80.0
263.743225 120.0
263.801056 160.0
263.852478 224.0
263.885101 172.0
263.931854 76.0
263.978882 100.0
264.026581 116.0
264.098541 240.0
264.129089 104.0
264.175964 208.0
264.246124 152.0
264.318024 176.0
264.344482 172.0
264.423492 264.0
264.475708 192.0
264.558502 388.0
264.642914 144.0
264.686768 104.0
264.720917 380.0
264.766022 180.0
264.83606 120.0
264.844604 88.0
264.887115 132.0
264.917755 132.0
264.979858 140.0
265.0159 272.0
265.039764 96.0
265.096741 120.0
265.129944 76.0
265.15921 184.0
265.166748 180.0
265.178375 284.0
265.218842 156.0
265.244751 64.0
265.296631 136.0
265.335968 240.0
265.44577 88.0
265.473663 292.0
265.520355 136.0
265.646484 212.0
265.668518 164.0
265.679932 204.0
265.736023 216.0
265.770111 192.0
265.833405 120.0
265.861694 108.0
265.909393 100.0
265.94754 120.0
265.994049 376.0
266.019897 100.0
266.047028 160.0
266.089142 68.0
266.133636 84.0
266.162231 140.0
266.201904 224.0
266.231049 68.0
266.259338 220.0
266.318756 180.0
266.375 96.0
266.406464 64.0
266.438446 52.0
266.468689 180.0
266.494751 224.0
266.559143 108.0
266.589111 116.0
266.640533 204.0
266.676941 296.0
266.725708 196.0
266.762512 196.0
266.794647 156.0
266.822571 188.0
266.86795 260.0
266.903717 76.0
266.934692 196.0
266.9823 300.0
267.053284 284.0
267.075592 80.0
267.111847 152.0
267.147614 328.0
267.17691 228.0
267.222565 180.0
267.250183 220.0
267.290771 40.0
267.323639 40.0
267.355865 156.0
267.398682 176.0
267.438904 200.0
267.464661 160.0
267.513611 100.0
267.576233 204.0
267.597809 132.0
267.636047 112.0
267.716675 156.0
267.753021 140.0
267.798615 268.0
267.831207 300.0
267.861786 152.0
267.872559 100.0
267.886566 148.0
267.902039 80.0
267.907349 148.0
267.941833 204.0
267.977783 100.0
268.023407 92.0
268.090332 252.0
268.166779 40.0
268.189606 156.0
268.212433 60.0
268.262726 168.0
268.313354 232.0
268.340546 132.0
268.375824 164.0
268.444855 256.0
268.46875 180.0
268.507629 96.0
268.531952 144.0
268.564636 172.0
268.683716 188.0
268.716522 76.0
268.759064 144.0
268.797821 144.0
268.844604 144.0
268.868652 156.0
268.898224 60.0
268.908142 288.0
268.951355 184.0
268.977417 396.0
269.016022 124.0
269.054352 124.0
269.095703 156.0
269.110199 224.0
269.158508 60.0
269.197266 168.0
269.226959 108.0
269.261169 292.0
269.287811 252.0
269.296112 232.0
269.357269 268.0
269.400177 300.0
269.434631 52.0
269.458984 40.0
269.495117 232.0
269.573486 416.0
269.647827 184.0
269.720673 160.0
269.758148 288.0
269.782532 88.0
269.844604 284.0
269.857147 184.0
269.86911 256.0
269.926788 96.0
269.956543 160.0
270.020355 140.0
270.053253 172.0
270.078186 200.0
270.130096 252.0
270.155334 112.0
270.18338 140.0
270.207825 180.0
270.278839 48.0
270.314545 228.0
270.381592 208.0
270.427979 236.0
270.477905 132.0
270.503296 144.0
270.563934 140.0
270.569214 52.0
270.592163 92.0
270.619598 180.0
270.645721 224.0
270.693939 240.0
270.743591 132.0
270.775696 172.0
270.81485 212.0
270.856628 168.0
270.883057 204.0
270.920868 84.0
270.953918 136.0
270.98587 80.0
271.027313 592.0
271.077759 224.0
271.093201 312.0
271.134735 144.0
271.17923 260.0
271.2258 332.0
271.247681 144.0
271.286865 96.0
271.303589 104.0
271.325195 144.0
271.366333 180.0
271.437775 280.0
271.468719 52.0
271.529572 168.0
271.562286 120.0
271.596588 356.0
271.634644 128.0
271.681732 304.0
271.699615 248.0
271.736572 268.0
271.745758 216.0
271.758942 376.0
271.824524 324.0
271.909027 156.0
271.961609 240.0
272.02002 216.0
272.051208 360.0
272.094757 6428.0
272.163361 608.0
272.16806 240.0
272.237732 412.0
272.276001 200.0
272.29071 452.0
272.315735 348.0
272.367523 272.0
272.403046 528.0
272.485168 532.0
272.516235 444.0
272.560913 400.0
272.607941 500.0
272.646301 620.0
272.657379 352.0
272.666321 328.0
272.696655 748.0
272.761963 640.0
272.819824 500.0
272.85611 924.0
272.889801 896.0
272.927246 744.0
272.954468 1020.0
272.997559 1584.0
273.105957 491492.0
273.213898 296.0
273.327423 1008.0
273.408752 1560.0
273.436737 616.0
273.461365 964.0
273.513245 524.0
273.554169 464.0
273.603546 712.0
273.648315 21428.0
273.670929 4628.0
273.774841 288.0
273.807251 320.0
273.912323 456.0
273.959808 496.0
273.96582 936.0
274.018707 724.0
274.028351 360.0
274.041534 500.0
274.107819 253356.0
274.226166 328.0
274.288422 368.0
274.317474 244.0
274.337921 284.0
274.364044 180.0
274.409302 184.0
274.441223 268.0
274.503937 276.0
274.563751 212.0
274.576996 256.0
274.653015 256.0
274.684357 300.0
274.691345 160.0
274.736267 268.0
274.788391 232.0
274.795746 172.0
274.845032 304.0
274.867279 204.0
274.898987 220.0
274.924255 284.0
274.965118 284.0
274.997406 264.0
275.021698 332.0
275.109802 23712.0
275.173126 308.0
275.214233 328.0
275.250275 428.0
275.271484 184.0
275.305023 128.0
275.315094 92.0
275.345978 312.0
275.403748 256.0
275.46759 196.0
275.502808 96.0
275.511627 192.0
275.539856 388.0
275.567444 368.0
275.580841 220.0
275.662292 224.0
275.693024 352.0
275.721222 504.0
275.785461 468.0
275.810669 496.0
275.838806 128.0
275.882874 284.0
275.918488 408.0
275.950012 476.0
276.019562 604.0
276.058136 652.0
276.115173 988.0
276.165924 376.0
276.192261 80.0
276.225281 264.0
276.260651 260.0
276.308258 108.0
276.320496 168.0
276.357086 264.0
276.414337 272.0
276.472412 48.0
276.497559 108.0
276.52771 112.0
276.56424 184.0
276.607117 136.0
276.617767 108.0
276.639374 92.0
276.684235 168.0
276.704895 200.0
276.726105 228.0
276.784149 244.0
276.828278 308.0
276.85318 172.0
276.91098 292.0
276.951447 228.0
276.974487 284.0
277.042175 188.0
277.095215 364.0
277.155212 304.0
277.195648 192.0
277.232727 164.0
277.2771 188.0
277.366791 96.0
277.400757 300.0
277.434875 56.0
277.477325 68.0
277.530457 128.0
277.589325 200.0
277.629242 172.0
277.668304 156.0
277.719788 180.0
277.758881 136.0
277.794281 96.0
277.869202 192.0
277.897125 196.0
277.919922 192.0
277.973572 48.0
278.005096 104.0
278.030029 112.0
278.052246 116.0
278.086243 316.0
278.162262 52.0
278.214874 168.0
278.295807 180.0
278.318787 132.0
278.366638 52.0
278.445801 72.0
278.485077 32.0
278.508331 64.0
278.551514 80.0
278.589417 112.0
278.641205 68.0
278.667786 52.0
278.718994 120.0
278.750488 108.0
278.790741 48.0
278.823975 40.0
278.855988 132.0
278.95108 76.0
278.984833 260.0
279.03006 88.0
279.053314 56.0
279.087463 104.0
279.123718 72.0
279.14975 64.0
279.187225 44.0
279.253174 124.0
279.319794 52.0
279.349304 52.0
279.385895 132.0
279.431549 96.0
279.450104 84.0
279.555573 168.0
279.602173 84.0
279.689056 80.0
279.718658 36.0
279.7453 60.0
279.774261 92.0
279.812073 128.0
279.878479 76.0
279.930756 68.0
280.011444 60.0
280.098267 88.0
280.158356 76.0
280.224365 140.0
280.261505 148.0
280.314819 72.0
280.376343 120.0
280.411469 48.0
280.44812 44.0
280.56839 52.0
280.601471 124.0
280.624786 164.0
280.661469 124.0
280.698151 36.0
280.736786 48.0
280.790588 56.0
280.817261 156.0
280.861572 104.0
280.9216 188.0
280.988342 68.0
281.021698 140.0
281.06842 144.0
281.098969 120.0
281.158508 192.0
281.188538 220.0
281.221924 96.0
281.261963 172.0
281.290222 60.0
281.311066 96.0
281.382141 40.0
281.411896 184.0
281.443268 168.0
281.4823 52.0
281.552429 80.0
281.665985 112.0
281.698456 56.0
281.826355 28.0
281.853088 272.0
281.879822 48.0
281.916504 184.0
281.973846 140.0
282.005341 164.0
282.123779 44.0
282.190643 128.0
282.244141 56.0
282.296234 160.0
282.371216 84.0
282.40387 128.0
282.427338 108.0
282.478271 36.0
282.541809 132.0
282.565247 148.0
282.598694 48.0
282.637024 44.0
282.659912 108.0
282.709106 60.0
282.73587 80.0
282.768524 148.0
282.860077 112.0
282.93338 144.0
282.986938 76.0
283.064484 100.0
283.116455 88.0
283.174286 128.0
283.217987 88.0
283.263519 68.0
283.29425 168.0
283.345276 88.0
283.408936 68.0
283.449158 36.0
283.542999 364.0
283.589905 52.0
283.613373 168.0
283.703888 120.0
283.73819 68.0
283.784332 116.0
283.821228 168.0
283.851379 104.0
283.894989 36.0
283.925171 84.0
283.95517 72.0
283.960876 68.0
284.079468 216.0
284.120514 132.0
284.146545 72.0
284.180115 72.0
284.203583 96.0
284.266327 204.0
284.290833 108.0
284.370605 52.0
284.418365 88.0
284.475433 36.0
284.519958 76.0
284.587982 72.0
284.665741 88.0
284.713135 136.0
284.72348 68.0
284.736359 196.0
284.742523 152.0
284.811218 148.0
284.858246 128.0
284.888458 84.0
284.932373 112.0
284.966675 72.0
285.012787 68.0
285.047119 216.0
285.091522 2160.0
285.177734 144.0
285.249084 52.0
285.274628 192.0
285.286621 176.0
285.296692 100.0
285.347351 88.0
285.382507 100.0
285.490356 152.0
285.504364 116.0
285.547272 40.0
285.584259 56.0
285.643982 48.0
285.688293 144.0
285.789215 52.0
285.860138 204.0
285.943146 108.0
285.967834 96.0
286.008209 168.0
286.061005 76.0
286.095001 520.0
286.132782 144.0
286.279846 80.0
286.328064 32.0
286.366669 60.0
286.417053 104.0
286.466156 76.0
286.569214 108.0
286.632538 124.0
286.66156 48.0
286.693146 76.0
286.744537 84.0
286.806488 112.0
286.843567 180.0
287.008148 112.0
287.081512 104.0
287.121368 552.0
287.195251 92.0
287.259186 160.0
287.308655 236.0
287.351105 120.0
287.421692 76.0
287.45401 104.0
287.48233 132.0
287.51001 120.0
287.557861 160.0
287.643341 396.0
287.68689 40.0
287.715424 152.0
287.751038 92.0
287.839935 152.0
287.872467 124.0
287.921509 196.0
287.988495 112.0
288.02832 72.0
288.067444 92.0
288.092133 128.0
288.119537 124.0
288.155334 196.0
288.220856 156.0
288.273468 196.0
288.30719 140.0
288.341766 160.0
288.389465 212.0
288.436523 48.0
288.558746 204.0
288.61673 180.0
288.636719 204.0
288.676819 116.0
288.726044 116.0
288.778595 44.0
288.818268 168.0
288.838623 100.0
288.878815 100.0
288.923737 156.0
288.960938 152.0
288.986938 88.0
289.023804 152.0
289.052307 160.0
289.091064 256.0
289.147675 176.0
289.197815 64.0
289.275665 124.0
289.323059 152.0
289.384003 52.0
289.432495 324.0
289.460236 68.0
289.486267 100.0
289.529907 92.0
289.595764 112.0
289.643799 112.0
289.703827 96.0
289.763336 32.0
289.807373 84.0
289.922577 124.0
289.934021 96.0
290.002228 88.0
290.034424 128.0
290.082947 244.0
290.164337 112.0
290.216766 76.0
290.251404 92.0
290.284027 240.0
290.334747 76.0
290.364105 164.0
290.389465 112.0
290.419678 84.0
290.474976 132.0
290.48764 116.0
290.507843 144.0
290.559845 272.0
290.626404 128.0
290.678101 240.0
290.683014 376.0
290.70108 112.0
290.713989 208.0
290.754272 228.0
290.812805 148.0
290.847626 112.0
290.886078 248.0
290.951019 248.0
290.980072 468.0
290.993103 344.0
291.002777 376.0
291.05368 460.0
291.115814 236092.0
291.182983 168.0
291.220398 180.0
291.294342 204.0
291.338898 268.0
291.383698 164.0
291.408722 292.0
291.454895 72.0
291.487366 324.0
291.536926 116.0
291.571442 36.0
291.623199 124.0
291.643005 104.0
291.675079 1280.0
291.720062 236.0
291.762695 224.0
291.79834 160.0
291.8255 144.0
291.851379 224.0
291.890778 76.0
291.917633 76.0
291.960144 232.0
292.022919 284.0
292.060364 176.0
292.117828 52000.0
292.190216 104.0
292.222656 240.0
292.254211 196.0
292.266968 280.0
292.301971 76.0
292.318207 56.0
292.345001 216.0
292.394928 52.0
292.42926 92.0
292.472473 156.0
292.500549 160.0
292.550964 80.0
292.574402 124.0
292.601288 120.0
292.615875 136.0
292.664764 188.0
292.712555 92.0
292.742035 228.0
292.804596 108.0
292.839386 124.0
292.86792 56.0
292.912048 136.0
292.938446 152.0
292.966522 308.0
292.992279 160.0
293.019653 128.0
293.059174 80.0
293.121033 5208.0
293.182495 240.0
293.211243 40.0
293.220428 48.0
293.24881 116.0
293.287048 68.0
293.299744 48.0
293.31662 100.0
293.32373 80.0
293.38324 76.0
293.417145 112.0
293.480927 60.0
293.516632 28.0
293.573639 188.0
293.608978 172.0
293.647858 124.0
293.695343 136.0
293.700684 100.0
293.726044 140.0
293.768188 96.0
293.801819 460.0
293.844788 96.0
293.901062 332.0
293.956543 244.0
293.982208 220.0
294.004608 196.0
294.037506 304.0
294.081451 252.0
294.123871 524.0
294.171051 108.0
294.220062 140.0
294.25058 100.0
294.282684 144.0
294.304962 136.0
294.350616 128.0
294.377838 108.0
294.411804 88.0
294.475525 144.0
294.528015 180.0
294.576813 112.0
294.585541 140.0
294.623566 124.0
294.720551 80.0
294.828186 44.0
294.885773 96.0
294.910492 144.0
294.951782 120.0
294.958923 80.0
294.975342 100.0
294.988983 92.0
294.995667 104.0
295.063477 116.0
295.101105 112.0
295.149963 108.0
295.202515 112.0
295.286255 148.0
295.322205 120.0
295.383331 96.0
295.406952 36.0
295.419678 72.0
295.448761 88.0
295.472717 100.0
295.506927 108.0
295.53894 68.0
295.654053 60.0
295.687439 80.0
295.722504 88.0
295.761017 48.0
295.838684 64.0
295.89267 96.0
295.921051 48.0
296.019714 128.0
296.100769 52.0
296.126526 56.0
296.22583 92.0
296.256683 168.0
296.311493 56.0
296.359467 56.0
296.396545 208.0
296.448547 76.0
296.486237 56.0
296.613037 72.0
296.69281 88.0
296.81427 92.0
296.878815 52.0
296.978729 68.0
297.065674 108.0
297.096558 136.0
297.120575 52.0
297.254395 72.0
297.302155 52.0
297.381348 60.0
297.470612 76.0
297.501495 72.0
297.67981 60.0
297.794495 132.0
297.850616 60.0
297.9151 96.0
298.0047 76.0
298.040955 52.0
298.093262 120.0
298.319061 124.0
298.400391 92.0
298.511597 56.0
298.590698 84.0
298.666382 88.0
298.692078 84.0
298.72702 96.0
298.824615 92.0
298.848694 44.0
298.876221 148.0
298.914062 116.0
299.058441 92.0
299.107819 116.0
299.134338 156.0
299.235504 52.0
299.306458 100.0
299.354675 76.0
299.406342 104.0
299.453766 104.0
299.499329 60.0
299.592316 32.0
299.634338 124.0
299.74411 148.0
299.768311 136.0
299.815338 88.0
299.850739 112.0
299.878113 192.0
299.957611 176.0
299.988617 184.0
300.047974 356.0
300.114624 27760.0
300.20929 56.0
300.240845 52.0
300.300751 140.0
300.331635 116.0
300.352417 108.0
300.391632 64.0
300.479858 96.0
300.52832 188.0
300.562683 204.0
300.597198 172.0
300.626678 80.0
300.696411 120.0
300.736877 116.0
300.771637 72.0
300.807892 136.0
300.866241 156.0
300.891632 132.0
300.939911 188.0
300.982971 112.0
301.026733 224.0
301.099792 50928.0
301.172577 200.0
301.233307 96.0
301.28183 48.0
301.325897 36.0
301.351807 108.0
301.388672 172.0
301.410309 60.0
301.418732 76.0
301.478027 84.0
301.567291 64.0
301.603699 140.0
301.660828 84.0
301.719727 44.0
301.731171 68.0
301.769226 72.0
301.818573 80.0
301.894592 196.0
301.939453 128.0
301.980927 52.0
302.007965 64.0
302.039154 164.0
302.050842 272.0
302.102936 10720.0
302.213531 100.0
302.257263 152.0
302.288849 48.0
302.315216 156.0
302.349945 128.0
302.409973 44.0
302.447083 88.0
302.477386 100.0
302.519501 56.0
302.560242 116.0
302.596893 44.0
302.634979 80.0
302.751495 80.0
302.86673 56.0
302.899109 132.0
302.967163 76.0
302.991821 56.0
303.05603 64.0
303.106384 1292.0
303.218384 136.0
303.274536 148.0
303.30011 48.0
303.398987 152.0
303.483063 96.0
303.554535 52.0
303.606476 68.0
303.629486 108.0
303.668488 160.0
303.698853 100.0
303.745117 140.0
303.811005 84.0
303.847992 88.0
303.875763 64.0
303.917389 144.0
303.967896 108.0
304.002228 72.0
304.063782 64.0
304.108734 260.0
304.152679 40.0
304.205444 44.0
304.247101 84.0
304.288757 236.0
304.311249 92.0
304.372162 92.0
304.449188 100.0
304.507965 52.0
304.546509 88.0
304.60791 40.0
304.679474 56.0
304.734253 128.0
304.783997 116.0
304.809753 48.0
304.865356 68.0
304.941803 56.0
304.980042 136.0
305.014801 100.0
305.126709 168.0
305.19989 84.0
305.251221 128.0
305.284576 80.0
305.291779 48.0
305.39032 84.0
305.428589 96.0
305.480743 100.0
305.52771 96.0
305.585114 108.0
305.609467 48.0
305.682556 136.0
305.778748 124.0
305.807831 48.0
305.922699 76.0
305.99231 52.0
306.061951 36.0
306.148651 76.0
306.260437 48.0
306.448547 100.0
306.584442 84.0
306.631775 172.0
306.682037 76.0
306.845886 68.0
306.988831 64.0
307.093445 136.0
307.131836 92.0
307.160706 144.0
307.264374 84.0
307.431854 108.0
307.477234 56.0
307.512451 132.0
307.569366 20.0
307.746002 68.0
307.798401 76.0
307.878693 96.0
307.990479 88.0
308.039368 92.0
308.067322 48.0
308.097382 152.0
308.297913 72.0
308.479645 140.0
308.532104 140.0
308.581024 48.0
308.612518 156.0
308.825806 68.0
308.8573 44.0
309.008118 72.0
309.189667 88.0
309.22818 40.0
309.417206 48.0
309.455719 100.0
309.606262 52.0
309.760376 80.0
309.840942 160.0
310.009125 48.0
310.128296 84.0
310.261505 48.0
310.580597 116.0
310.727081 140.0
310.787567 52.0
311.120972 76.0
311.191193 40.0
311.271942 56.0
311.465118 60.0
311.617554 92.0
311.676788 128.0
311.742645 64.0
311.78833 144.0
311.812958 92.0
311.886749 32.0
311.923584 236.0
312.090637 176.0
312.115265 264.0
312.280548 156.0
312.611237 64.0
312.693939 120.0
312.759064 92.0
312.910431 88.0
313.127014 104.0
313.262573 40.0
313.340088 68.0
313.539825 116.0
314.034515 132.0
314.069763 88.0
314.128967 720.0
314.221466 52.0
314.319427 104.0
314.404938 100.0
314.634369 112.0
314.659088 36.0
314.704987 28.0
314.807373 64.0
314.856812 64.0
314.915375 132.0
314.945129 116.0
315.026367 52.0
315.135712 192.0
315.190796 140.0
315.249237 104.0
315.280762 52.0
315.349152 56.0
315.418579 128.0
315.460999 52.0
315.533844 92.0
315.637787 100.0
315.719116 140.0
315.811066 80.0
315.970245 104.0
316.002106 108.0
316.114807 140.0
316.232086 204.0
316.606934 160.0
316.671448 180.0
316.745514 148.0
316.936798 60.0
317.075012 72.0
317.130615 116.0
317.284149 56.0
317.443695 72.0
317.532349 164.0
317.652954 100.0
317.798401 112.0
317.855164 112.0
317.895844 156.0
317.954529 108.0
318.122833 1864.0
318.259216 240.0
318.467346 108.0
318.519043 144.0
318.593658 36.0
318.622986 108.0
318.67749 84.0
318.769989 164.0
318.806824 136.0
318.831696 152.0
318.86734 140.0
318.980225 132.0
319.011108 176.0
319.037872 432.0
319.109375 37612.0
319.176514 92.0
319.233246 52.0
319.294891 56.0
319.357269 140.0
319.473877 176.0
319.568878 180.0
319.681122 60.0
319.710083 88.0
319.770599 60.0
319.808716 84.0
319.909821 36.0
319.945709 100.0
320.030914 152.0
320.068512 108.0
320.11087 6704.0
320.19397 48.0
320.264893 72.0
320.315369 48.0
320.348663 104.0
320.406738 80.0
320.488342 72.0
320.589691 56.0
320.623779 64.0
320.667633 60.0
320.711426 148.0
320.764343 88.0
320.810669 32.0
320.846313 36.0
320.948059 112.0
321.02594 128.0
321.114532 1140.0
321.238586 52.0
321.26355 64.0
321.356323 44.0
321.431244 44.0
321.557587 60.0
321.60968 44.0
321.638245 60.0
321.67749 40.0
321.727478 80.0
321.813171 160.0
321.892456 176.0
321.963135 64.0
322.022247 108.0
322.118713 168.0
322.152435 88.0
322.198883 32.0
322.237549 152.0
322.329346 108.0
322.339996 56.0
322.509766 48.0
322.581238 36.0
322.659882 28.0
322.720673 52.0
322.767151 32.0
322.901031 88.0
323.071442 100.0
323.285828 36.0
323.343079 116.0
323.375305 104.0
323.572174 112.0
323.597229 56.0
323.740479 44.0
323.769104 40.0
323.795807 96.0
323.944611 44.0
324.01886 116.0
324.102264 36.0
324.199005 40.0
324.399719 104.0
324.521606 108.0
324.561035 52.0
324.682953 92.0
324.858704 92.0
325.084747 84.0
325.443695 56.0
325.497559 100.0
325.641205 64.0
325.698669 44.0
325.853119 156.0
326.072327 100.0
326.154694 148.0
326.518127 48.0
326.560181 144.0
326.651215 52.0
326.809479 80.0
327.104584 64.0
327.144043 112.0
327.234192 144.0
327.299011 84.0
327.32782 48.0
327.450256 64.0
327.479065 88.0
327.601532 40.0
327.684387 132.0
327.943848 76.0
328.055573 36.0
328.145691 52.0
328.17453 88.0
328.2034 80.0
328.232239 84.0
328.3909 76.0
328.434204 72.0
328.823853 36.0
328.87439 60.0
328.968231 76.0
329.065704 72.0
329.161377 116.0
329.202911 64.0
329.582184 72.0
329.900238 132.0
329.925537 36.0
330.04483 52.0
330.120239 528.0
330.417358 52.0
330.565704 92.0
330.797333 124.0
330.960266 76.0
331.04715 84.0
331.114471 148.0
331.142914 192.0
331.547089 44.0
331.615936 56.0
331.739166 52.0
331.77179 76.0
331.938568 56.0
332.036499 52.0
332.167053 80.0
332.352081 124.0
332.406525 80.0
332.431915 76.0
332.903809 96.0
332.951019 56.0
333.005493 56.0
333.615387 192.0
333.783203 132.0
333.925018 84.0
334.21817 68.0
334.266968 64.0
334.547211 100.0
334.628387 68.0
334.762024 140.0
334.798462 112.0
334.911346 76.0
334.951416 112.0
335.129913 112.0
335.213745 128.0
335.393127 160.0
335.487091 40.0
335.60376 44.0
335.654785 88.0
335.869965 76.0
336.099792 168.0
336.278595 92.0
336.304138 52.0
336.351593 40.0
336.501282 128.0
336.859161 100.0
336.924927 48.0
337.049133 64.0
337.412109 116.0
337.721802 160.0
337.857147 116.0
337.937622 64.0
338.003479 192.0
338.168152 40.0
338.439056 224.0
339.039795 100.0
339.105743 64.0
339.148376 172.0
339.333038 60.0
339.846497 68.0
340.029968 88.0
340.129059 148.0
340.301605 72.0
340.422791 76.0
340.533508 80.0
340.617432 72.0
341.212738 76.0
341.559967 60.0
341.606232 128.0
341.649261 52.0
341.712921 112.0
341.874817 72.0
341.974182 56.0
342.122253 164.0
342.180328 176.0
342.209778 196.0
342.298157 60.0
342.323914 120.0
342.567017 124.0
342.732788 72.0
343.215637 64.0
343.337341 80.0
343.62326 112.0
343.772644 88.0
343.968231 72.0
344.200836 88.0
344.270996 132.0
344.562775 132.0
344.7771 60.0
344.814056 56.0
344.961884 36.0
345.002563 100.0
345.342743 108.0
345.401917 52.0
345.746002 136.0
345.864441 40.0
345.912567 48.0
346.011047 92.0
346.879364 28.0
346.946075 36.0
347.120331 36.0
347.250153 92.0
347.28186 152.0
347.569153 112.0
347.732452 40.0
347.851227 88.0
347.884644 36.0
348.040558 180.0
348.114807 48.0
348.211365 108.0
348.348816 36.0
348.385956 148.0
348.460266 40.0
348.564301 92.0
348.716644 144.0
348.742676 44.0
348.94339 112.0
349.147919 84.0
349.326447 56.0
349.400848 76.0
349.61496 132.0
349.698517 48.0
350.044739 52.0
350.189636 44.0
350.376221 104.0
350.681793 64.0
351.091888 116.0
351.304474 76.0
352.226471 76.0
352.402069 76.0
352.431946 64.0
352.775787 48.0
352.914093 52.0
353.108551 48.0
353.422791 36.0
354.025421 124.0
354.107178 68.0
354.160461 136.0
354.298859 84.0
354.441223 80.0
354.474945 36.0
354.542389 124.0
354.756042 68.0
354.789795 40.0
354.819763 104.0
354.939758 88.0
354.973511 100.0
355.168915 156.0
355.206024 152.0
355.618744 40.0
355.683319 176.0
355.997925 132.0
356.144409 64.0
356.18573 100.0
356.283386 84.0
356.471252 60.0
356.512573 108.0
356.775696 88.0
357.15567 136.0
357.302185 116.0
357.727417 56.0
357.968384 76.0
358.085114 88.0
358.288513 204.0
358.378937 60.0
358.533447 56.0
358.69928 96.0
358.78598 160.0
358.838745 52.0
359.095184 68.0
359.16684 96.0
359.287537 84.0
359.389404 92.0
359.419586 44.0
359.578094 76.0
360.000916 76.0
360.208618 132.0
360.250183 44.0
360.754944 160.0
361.732513 48.0
362.827301 84.0
362.865204 92.0
363.206512 80.0
363.305115 52.0
363.411346 92.0
363.460693 152.0
364.094604 96.0
364.299713 56.0
364.336548 144.0
364.598816 72.0
364.694885 160.0
364.827942 72.0
364.869751 72.0
365.124512 92.0
365.166351 44.0
365.318481 48.0
365.639435 112.0
365.900757 84.0
365.931213 104.0
366.00354 84.0
366.117767 96.0
366.176422 180.0
366.460602 108.0
366.52066 92.0
366.68161 64.0
367.039948 128.0
367.089508 72.0
367.161957 128.0
367.306366 56.0
367.417542 56.0
367.535797 96.0
367.753326 76.0
367.841125 96.0
367.906006 116.0
368.165649 172.0
368.368073 36.0
368.547638 56.0
369.143921 48.0
370.277496 92.0
370.330292 140.0
370.376251 92.0
370.556274 96.0
370.859009 88.0
370.989349 144.0
371.146515 52.0
371.18103 88.0
371.445648 60.0
371.656647 72.0
371.737244 56.0
371.852356 104.0
371.879242 116.0
371.940643 52.0
372.067047 112.0
372.136414 76.0
372.176849 212.0
372.332275 124.0
372.482056 76.0
372.562714 140.0
373.046906 56.0
373.154572 28.0
373.200684 76.0
373.2276 40.0
373.554504 88.0
373.623749 92.0
374.086456 136.0
374.559174 84.0
374.613098 92.0
374.805725 144.0
374.96759 96.0
375.260529 108.0
375.449463 100.0
375.723328 64.0
375.854523 56.0
376.039734 52.0
376.259766 84.0
376.344696 152.0
376.437378 140.0
376.584137 68.0
376.823608 68.0
376.931793 48.0
377.387909 116.0
377.449768 132.0
377.5271 76.0
377.933258 96.0
377.964203 60.0
378.489319 60.0
378.645508 96.0
378.781067 76.0
378.961792 68.0
379.17627 88.0
379.226654 100.0
379.664764 108.0
379.944031 136.0
379.994446 68.0
380.545563 144.0
380.611572 76.0
380.766907 104.0
380.797974 88.0
380.825165 132.0
380.860107 92.0
381.256409 60.0
381.361328 216.0
381.528473 40.0
381.76178 84.0
381.88623 100.0
382.140137 144.0
382.190948 72.0
382.261383 120.0
382.676178 72.0
382.765717 56.0
382.816345 64.0
383.201935 184.0
383.427948 108.0
383.618927 100.0
383.804688 80.0
384.016663 104.0
384.063446 100.0
384.171326 3476.0
384.285309 60.0
384.324829 72.0
384.437988 80.0
384.516052 52.0
384.734619 108.0
384.812714 96.0
384.92984 52.0
385.08606 48.0
385.177338 1908.0
385.250092 44.0
385.586121 68.0
385.805023 72.0
386.117828 76.0
386.182007 436.0
386.239075 120.0
386.287354 104.0
386.332947 56.0
387.013916 68.0
387.092224 68.0
387.138092 112.0
387.173889 80.0
387.440826 124.0
387.622437 100.0
387.660217 56.0
387.722931 36.0
388.02475 100.0
388.424744 60.0
388.640503 52.0
388.777832 76.0
388.82724 96.0
388.919128 96.0
388.993713 68.0
389.080078 104.0
389.150726 148.0
389.417755 76.0
389.52774 52.0
389.826324 56.0
390.388458 52.0
390.530029 112.0
390.57724 92.0
391.020416 84.0
391.096619 68.0
391.821167 168.0
392.313782 56.0
392.408386 72.0
392.546387 32.0
392.652863 48.0
392.71991 148.0
392.763306 120.0
392.818542 76.0
393.043396 52.0
393.071014 152.0
393.110474 100.0
393.161774 156.0
393.359131 80.0
393.414398 132.0
393.560455 140.0
393.686829 116.0
393.954315 204.0
394.191406 104.0
394.461212 52.0
394.520508 52.0
394.914856 88.0
395.75882 80.0
396.075623 52.0
396.444061 88.0
396.507477 48.0
396.634308 28.0
397.709198 96.0
397.804474 192.0
397.879913 40.0
397.995026 84.0
398.134033 60.0
398.161804 60.0
398.22934 28.0
398.400146 76.0
398.431915 104.0
398.578918 76.0
398.666199 120.0
398.757294 108.0
398.988281 88.0
399.195038 152.0
399.258667 76.0
399.362061 184.0
399.39389 84.0
399.624634 128.0
399.746033 80.0
399.807648 52.0
399.908569 120.0
399.963959 160.0
400.086273 188.0
400.114136 84.0
400.184448 92.0
400.237579 92.0
400.342804 112.0
400.383514 136.0
400.596008 56.0
400.731445 72.0
400.850983 84.0
400.882874 92.0
400.916138 160.0
401.046265 132.0
401.122009 52.0
401.173828 168.0
401.211304 192.0
401.339905 108.0
401.393646 116.0
401.448914 56.0
401.486145 168.0
401.538269 88.0
401.57254 104.0
401.608459 40.0
401.638641 268.0
401.714203 116.0
401.754791 116.0
401.80542 188.0
401.896576 140.0
401.982605 132.0
402.007233 196.0
402.045563 420.0
402.086884 100.0
402.100616 156.0
402.183746 45864.0
402.274445 360.0
402.287628 92.0
402.303986 220.0
402.342682 148.0
402.372711 144.0
402.413666 128.0
402.441681 40.0
402.470428 184.0
402.537933 44.0
402.591827 116.0
402.650116 160.0
402.729034 100.0
402.81366 176.0
402.832489 108.0
402.843872 196.0
402.901764 72.0
402.964386 184.0
402.995483 128.0
403.056702 200.0
403.093384 96.0
403.119812 252.0
403.185089 11024.0
403.268646 148.0
403.298248 160.0
403.335724 92.0
403.398529 72.0
403.432312 68.0
403.507538 124.0
403.581177 84.0
403.617188 96.0
403.657166 88.0
403.780121 64.0
403.830963 224.0
403.973114 60.0
404.013123 136.0
404.061127 44.0
404.105133 64.0
404.133148 80.0
404.187744 2636.0
404.295197 60.0
404.349213 52.0
404.394562 100.0
404.433289 52.0
404.474182 72.0
404.568573 156.0
404.621429 32.0
404.733521 76.0
404.817596 40.0
404.908661 152.0
405.045898 84.0
405.097961 64.0
405.130005 56.0
405.192993 192.0
405.235687 96.0
405.302277 40.0
405.353668 60.0
405.387878 88.0
405.418488 112.0
405.474884 56.0
405.534729 52.0
405.565308 96.0
405.60849 48.0
405.654755 132.0
405.705139 108.0
405.763214 76.0
405.818085 128.0
405.8284 108.0
405.924744 124.0
405.959656 84.0
405.987732 240.0
406.03653 72.0
406.111023 76.0
406.218048 120.0
406.304596 84.0
406.363464 96.0
406.589508 92.0
406.637665 136.0
406.669769 76.0
407.010986 100.0
407.075226 56.0
407.336273 64.0
407.376465 36.0
407.42868 44.0
407.492737 68.0
407.557251 60.0
407.610657 96.0
407.657684 148.0
408.015411 72.0
408.180267 64.0
408.236572 64.0
408.272766 44.0
408.570404 32.0
408.606598 44.0
408.83194 40.0
408.99292 76.0
409.331085 88.0
409.617035 80.0
409.811737 84.0
410.213409 32.0
410.354492 76.0
410.709351 76.0
410.912689 80.0
410.983673 76.0
411.040161 32.0
411.193512 88.0
411.326721 48.0
411.480103 52.0
411.589142 48.0
411.750641 56.0
411.867767 36.0
411.908173 68.0
412.089966 68.0
412.461761 52.0
413.088501 124.0
413.144531 80.0
413.357727 96.0
413.768372 76.0
413.92627 48.0
414.262421 36.0
414.456879 116.0
414.866211 36.0
415.429901 48.0
416.022369 72.0
416.103546 88.0
416.355286 92.0
416.570099 68.0
416.871216 84.0
417.029724 52.0
417.428131 80.0
417.74942 68.0
417.822632 84.0
417.956909 52.0
418.154572 112.0
418.41275 80.0
418.71405 52.0
418.84845 72.0
419.101044 68.0
419.223297 36.0
419.374084 64.0
419.615845 104.0
420.050934 116.0
420.205933 116.0
420.405884 52.0
420.577301 104.0
420.707916 56.0
421.01413 76.0
421.059387 100.0
421.136658 96.0
421.402191 40.0
421.712738 52.0
421.741364 64.0
422.015259 108.0
422.060211 48.0
422.137909 40.0
422.215607 128.0
422.334229 92.0
422.38739 80.0
422.424194 32.0
422.624664 48.0
422.976166 76.0
423.533478 76.0
424.209564 76.0
424.656494 64.0
424.762543 108.0
424.777069 92.0
424.8862 36.0
424.943665 64.0
425.21228 112.0
425.497711 104.0
425.670837 72.0
425.703003 64.0
426.241119 56.0
426.339722 60.0
426.742554 44.0
426.845337 44.0
427.49527 52.0
427.622864 112.0
427.680481 56.0
427.775146 76.0
427.803955 80.0
428.302216 84.0
428.841949 44.0
429.19519 64.0
429.443909 64.0
429.679047 92.0
429.740906 92.0
429.881226 40.0
430.137085 96.0
430.203125 76.0
430.541718 96.0
430.631989 84.0
431.372162 52.0
431.6409 80.0
431.793915 36.0
432.162079 44.0
432.223236 56.0
432.311035 44.0
432.389648 104.0
432.886414 64.0
432.977539 76.0
433.362762 64.0
433.433624 116.0
433.640411 52.0
433.806183 96.0
433.889099 88.0
434.001038 112.0
434.2789 48.0
434.453094 76.0
434.602448 116.0
435.075592 100.0
435.213928 76.0
435.532349 28.0
435.6362 56.0
435.860535 48.0
435.98938 92.0
436.226288 80.0
436.338531 108.0
436.392578 40.0
436.933228 64.0
437.149597 64.0
437.374329 112.0
437.823975 40.0
437.934448 68.0
438.269684 108.0
438.382172 48.0
438.7323 96.0
438.811493 60.0
438.861542 32.0
439.245209 80.0
439.477264 96.0
439.537231 36.0
439.595337 104.0
439.649902 76.0
439.787628 80.0
439.883636 76.0
439.942078 76.0
440.230164 80.0
440.350647 80.0
440.536011 52.0
440.727234 64.0
440.798279 88.0
441.220398 56.0
441.416901 76.0
441.72641 36.0
441.843536 52.0
441.918823 64.0
442.207581 68.0
442.295471 52.0
442.704041 136.0
442.915161 80.0
443.241943 96.0
443.69458 48.0
443.749084 108.0
443.799408 88.0
443.895844 36.0
444.088745 64.0
444.201996 92.0
444.571198 68.0
444.755859 92.0
444.919586 92.0
445.20929 148.0
445.255493 56.0
445.3815 56.0
445.789001 76.0
445.999146 60.0
446.028564 92.0
446.066406 80.0
446.294067 52.0
446.562531 84.0
446.638245 88.0
446.74762 72.0
446.894867 120.0
446.941132 116.0
447.130493 68.0
447.186737 72.0
447.408325 64.0
447.547241 100.0
447.635681 48.0
447.837799 56.0
448.238037 56.0
448.318085 96.0
448.381317 92.0
448.520386 48.0
448.684784 52.0
448.965637 112.0
449.127563 36.0
449.414429 36.0
449.503021 88.0
449.557892 64.0
449.802673 68.0
450.03064 48.0
450.148865 76.0
450.347351 60.0
450.42337 36.0
450.710663 72.0
451.095245 72.0
451.391174 104.0
451.55188 48.0
451.902985 72.0
451.957977 84.0
452.097626 96.0
452.694489 124.0
452.728363 128.0
452.944366 56.0
453.185852 100.0
453.219757 48.0
453.914886 64.0
453.94458 52.0
454.249939 88.0
454.47052 128.0
454.500244 152.0
454.788818 96.0
454.860962 84.0
455.02652 68.0
455.145416 28.0
455.230316 48.0
455.268555 64.0
455.351959 100.0
455.994995 112.0
456.415863 32.0
456.500885 40.0
456.917725 52.0
457.279419 72.0
457.334747 100.0
457.628479 52.0
457.683807 88.0
457.8797 92.0
458.267334 64.0
458.378113 36.0
458.527252 64.0
458.795227 120.0
459.064423 76.0
459.264862 56.0
459.563477 92.0
460.199402 64.0
460.429993 56.0
460.690552 56.0
460.754608 32.0
461.17337 56.0
461.536743 68.0
461.570953 68.0
461.694977 76.0
461.904541 44.0
462.524963 52.0
463.008789 52.0
463.154388 44.0
463.419983 32.0
463.912842 72.0
463.972839 72.0
464.122925 136.0
464.200104 76.0
464.405945 100.0
464.448822 68.0
464.680481 56.0
464.81778 80.0
465.265015 40.0
465.654877 64.0
465.697845 68.0
466.174713 68.0
466.234863 92.0
466.376678 48.0
466.810913 56.0
466.918396 52.0
467.180786 80.0
467.852112 64.0
467.916687 92.0
467.981262 60.0
468.02002 80.0
468.213776 80.0
468.519592 72.0
468.592834 100.0
468.967743 88.0
468.997925 104.0
469.118591 76.0
469.450592 44.0
469.739563 76.0
470.041565 48.0
470.132172 28.0
470.270264 80.0
470.300476 60.0
470.508057 48.0
470.626312 76.0
470.8013 76.0
471.125244 44.0
471.215942 76.0
471.689056 92.0
472.144257 84.0
472.517273 60.0
473.274689 100.0
473.837738 52.0
474.024048 52.0
474.184387 92.0
475.294525 68.0
475.519562 120.0
476.136658 92.0
476.314728 80.0
476.75354 44.0
477.038147 124.0
477.153412 88.0
478.197388 52.0
478.589172 84.0
478.907074 96.0
478.998535 60.0
479.469086 64.0
479.826508 76.0
479.926788 64.0
480.546112 80.0
480.873383 108.0
481.013062 60.0
481.170227 116.0
481.585052 100.0
482.013184 60.0
482.795654 80.0
482.839386 60.0
482.900604 68.0
482.939972 56.0
483.036194 64.0
483.066803 52.0
483.097443 96.0
483.412445 64.0
483.504364 52.0
483.850128 80.0
483.994629 48.0
484.104095 52.0
484.169769 96.0
484.463226 80.0
484.875122 132.0
485.344147 88.0
485.624817 40.0
485.756409 108.0
485.866058 60.0
485.980133 56.0
486.032776 64.0
486.247803 68.0
486.585785 72.0
486.664825 44.0
486.822906 96.0
486.998566 60.0
487.156708 68.0
487.516968 40.0
487.626831 104.0
488.004883 76.0
488.211548 64.0
488.374268 236.0
488.46225 96.0
488.563416 56.0
488.724426 60.0
489.034241 56.0
489.309662 68.0
489.593353 64.0
489.907501 112.0
490.033844 88.0
490.421631 44.0
492.561584 96.0
492.947571 120.0
493.062592 56.0
493.286255 64.0
493.3172 124.0
493.591309 68.0
493.706299 96.0
493.940704 100.0
494.356567 36.0
494.391968 104.0
494.50705 52.0
495.543243 44.0
495.942047 44.0
496.278961 100.0
496.36319 120.0
496.935364 76.0
497.064056 32.0
497.281494 36.0
497.596649 40.0
497.685455 88.0
497.725403 44.0
497.832001 108.0
497.903046 80.0
497.991852 84.0
498.129547 52.0
498.449432 100.0
498.609406 92.0
498.739532 100.0
499.022797 56.0
499.32962 92.0
499.365204 60.0
499.411072 76.0
499.467499 56.0
499.507538 116.0
499.787811 132.0
500.24176 60.0
500.324493 88.0
500.744873 48.0
501.083435 104.0
501.925812 64.0
501.96405 120.0
502.023895 32.0
502.211212 100.0
502.684113 56.0
502.791199 56.0
503.134888 112.0
503.358124 92.0
503.55014 44.0
503.60376 60.0
503.885162 60.0
503.961121 108.0
504.403534 88.0
504.582367 52.0
504.881927 192.0
504.966919 88.0
505.168182 56.0
505.740936 132.0
505.839417 68.0
506.224426 48.0
506.390137 100.0
506.546906 116.0
506.68576 68.0
506.726074 104.0
507.156281 84.0
507.622528 96.0
507.691895 76.0
507.819855 48.0
508.057587 64.0
508.263947 56.0
508.551147 60.0
508.672363 44.0
508.793549 80.0
508.847443 76.0
509.125824 44.0
509.215637 36.0
509.431244 92.0
509.543549 72.0
509.664856 88.0
509.934479 52.0
509.979431 80.0
510.186188 88.0
510.361542 84.0
510.892212 56.0
511.0047 32.0
511.139679 64.0
511.465149 152.0
511.688782 104.0
511.846375 108.0
511.96344 108.0
512.094299 64.0
512.505615 108.0
513.004211 40.0
513.495728 56.0
513.68512 60.0
513.928772 104.0
514.240112 104.0
514.519958 76.0
514.655396 48.0
514.705078 68.0
514.930908 64.0
515.201904 92.0
515.319336 52.0
515.495544 56.0
515.626648 124.0
515.879761 108.0
517.073853 144.0
517.182434 52.0
517.340881 76.0
517.825378 92.0
518.042786 124.0
518.282898 96.0
518.749695 68.0
519.002441 80.0
520.322266 128.0
520.64624 84.0
521.13678 152.0
521.209473 64.0
523.260742 48.0
523.483826 80.0
523.688782 60.0
524.235474 76.0
524.335754 88.0
524.495239 64.0
524.645691 44.0
525.69928 96.0
526.383972 88.0
526.479858 48.0
526.53009 68.0
526.859009 60.0
527.229065 60.0
527.439331 76.0
527.667908 92.0
527.978821 48.0
528.097717 56.0
528.646729 40.0
528.783997 76.0
528.98999 60.0
529.195984 52.0
529.392883 60.0
529.443237 36.0
529.479858 72.0
529.740967 124.0
530.215393 84.0
530.510803 68.0
530.767517 64.0
531.111511 48.0
531.790527 48.0
532.029236 72.0
532.158508 128.0
533.536011 84.0
533.632568 92.0
533.949829 116.0
534.285645 40.0
534.566284 40.0
535.091003 48.0
535.215332 124.0
535.625183 80.0
535.860107 84.0
536.828064 64.0
537.162476 76.0
538.678772 104.0
538.780457 108.0
539.062256 72.0
539.094604 92.0
539.145447 112.0
540.204224 88.0
540.819641 108.0
541.398376 92.0
541.472473 84.0
541.884705 68.0
542.950806 100.0
543.011108 84.0
543.71167 52.0
543.878723 164.0
544.352295 68.0
544.440491 80.0
544.561218 48.0
544.672729 84.0
544.7099 80.0
544.849243 56.0
544.997925 60.0
545.049011 64.0
545.337158 36.0
545.416138 72.0
545.448669 116.0
545.713684 84.0
546.201965 52.0
547.370117 68.0
547.439941 40.0
547.621582 32.0
547.942993 52.0
547.984924 56.0
548.469543 68.0
548.609131 72.0
548.777222 88.0
549.015015 64.0
549.35553 80.0
549.495483 48.0
549.593445 68.0
549.663452 44.0
549.985413 44.0
550.363586 64.0
550.410278 64.0
550.470947 112.0
550.503662 72.0
550.699768 44.0
551.162292 88.0
551.405273 56.0
551.512756 52.0
552.167297 44.0
552.635071 36.0
553.182617 32.0
553.440125 112.0
553.589966 68.0
553.660217 60.0
553.744507 48.0
553.955261 72.0
554.292603 44.0
554.503479 84.0
554.705017 64.0
555.319275 64.0
555.35675 72.0
555.572571 60.0
556.173157 68.0
556.440735 48.0
557.248535 80.0
557.502258 104.0
557.62915 64.0
558.000488 80.0
558.136841 108.0
558.353149 64.0
558.611877 48.0
558.889404 72.0
558.960022 128.0
559.31842 52.0
560.118164 44.0
560.188782 80.0
560.579834 92.0
561.159607 100.0
561.286926 100.0
561.437805 56.0
562.473877 40.0
562.52771 76.0
562.966797 64.0
563.250122 44.0
564.111755 60.0
564.17157 92.0
565.131653 64.0
565.557556 52.0
565.595398 32.0
566.296143 72.0
566.329285 76.0
566.912048 80.0
567.499756 52.0
567.817505 48.0
567.983459 64.0
568.7854 100.0
569.583069 48.0
569.663208 92.0
569.8396 80.0
569.906128 72.0
570.276794 48.0
571.06604 36.0
571.779663 80.0
571.832031 60.0
572.093811 88.0
572.189026 40.0
572.308044 124.0
572.422302 28.0
572.698547 88.0
573.203491 64.0
575.087219 48.0
575.430908 72.0
575.91803 64.0
576.008728 52.0
576.625122 68.0
576.696777 68.0
578.145874 72.0
578.562317 80.0
579.277344 100.0
579.817261 64.0
579.96582 40.0
581.29425 56.0
581.366211 72.0
581.510193 96.0
582.398438 68.0
582.648193 52.0
583.056641 108.0
584.403015 76.0
584.725403 80.0
586.247192 60.0
586.319519 88.0
586.705078 112.0
586.84491 80.0
587.123657 64.0
587.551025 88.0
587.59729 52.0
587.6745 60.0
588.214966 56.0
588.258423 48.0
588.746033 60.0
588.842651 60.0
589.34021 88.0
589.73645 56.0
590.070007 36.0
590.442322 72.0
590.659973 48.0
591.105042 44.0
591.424438 40.0
591.58905 44.0
592.155518 44.0
592.862854 64.0
593.856689 56.0
594.34668 40.0
596.104431 84.0
596.46405 76.0
597.519287 116.0
598.030212 48.0
598.10321 56.0
598.502441 52.0
599.37915 44.0
599.515625 128.0
601.422485 96.0
601.749573 40.0
602.135315 32.0
602.379517 124.0
602.540771 64.0
603.259094 88.0
605.57843 96.0
605.637207 80.0
605.789001 60.0
605.931091 36.0
607.563599 52.0
607.617554 76.0
607.681335 84.0
607.818726 48.0
608.024841 84.0
608.984985 56.0
609.537292 56.0
609.65033 72.0
610.328674 60.0
612.237915 84.0
612.474304 48.0
612.62207 52.0
612.888123 68.0
613.676758 64.0
613.795044 84.0
614.811218 36.0
616.440857 80.0
616.564392 56.0
616.737366 48.0
616.974609 36.0
617.108093 40.0
617.43811 76.0
617.884583 76.0
618.00824 92.0
618.052795 80.0
618.438782 100.0
618.562561 48.0
618.745667 80.0
618.919006 88.0
619.156677 80.0
619.656921 76.0
620.568909 80.0
621.094543 64.0
621.704773 44.0
621.739502 64.0
622.662903 48.0
622.94104 76.0
623.015564 64.0
623.109924 56.0
623.38324 64.0
623.482605 88.0
623.895142 76.0
623.969727 48.0
625.312744 80.0
625.546692 44.0
625.795593 96.0
626.144165 44.0
626.278625 60.0
627.13562 44.0
628.516968 76.0
628.586853 64.0
629.455383 68.0
630.539368 36.0
632.259766 48.0
633.43634 48.0
633.566589 72.0
634.654114 76.0
634.744385 36.0
635.476685 164.0
635.712524 44.0
635.913269 36.0
636.003601 116.0
636.601013 64.0
637.022888 64.0
637.058044 80.0
637.934814 92.0
638.083252 76.0
638.163696 60.0
638.309509 40.0
638.570984 92.0
639.245117 60.0
639.391052 84.0
639.486694 112.0
639.526917 76.0
639.6427 64.0
640.337524 68.0
640.604492 44.0
641.002502 48.0
641.093201 40.0
641.521606 40.0
641.839233 104.0
644.317322 56.0
644.615417 44.0
644.948975 48.0
645.115784 92.0
645.15625 60.0
645.242188 92.0
645.894531 60.0
646.066467 60.0
646.137329 32.0
646.339722 48.0
646.537048 68.0
646.693909 120.0
646.7547 76.0
647.235596 76.0
647.340454 68.0
647.569824 100.0
647.868652 80.0
648.770691 120.0
648.861938 96.0
649.130676 48.0
649.257446 60.0
649.303101 40.0
650.251831 40.0
651.358643 68.0
651.902283 44.0
653.005432 52.0
653.046143 40.0
653.615906 36.0
653.778748 40.0
654.430237 84.0
656.580627 108.0
656.876404 96.0
656.937622 56.0
657.269287 72.0
657.37677 56.0
657.845947 84.0
658.479126 64.0
659.219849 52.0
660.017273 68.0
660.11438 68.0
660.825378 40.0
661.070984 32.0
661.17334 72.0
661.214233 92.0
662.545532 104.0
663.544861 40.0
663.632019 92.0
663.806396 48.0
663.944824 64.0
664.057678 56.0
664.924683 52.0
665.011963 72.0
665.283997 60.0
665.900146 52.0
666.01825 84.0
666.409119 48.0
666.629639 84.0
667.256714 48.0
667.806885 76.0
669.026428 56.0
669.151917 52.0
669.664917 76.0
670.355225 48.0
670.478882 68.0
671.154175 84.0
671.370728 100.0
671.927795 48.0
672.149658 40.0
672.536682 64.0
673.073608 44.0
673.192383 44.0
673.388611 84.0
674.168701 72.0
674.980225 52.0
676.283875 36.0
676.780884 84.0
676.884399 56.0
677.24176 84.0
677.38678 60.0
678.013733 52.0
678.853516 120.0
679.880615 52.0
680.560608 44.0
681.303284 84.0
681.464355 76.0
681.583862 68.0
681.92395 36.0
684.054138 84.0
684.70813 112.0
686.247375 32.0
687.285339 60.0
688.600769 52.0
689.583008 60.0
689.88092 60.0
691.282593 144.0
691.334961 88.0
691.596619 100.0
692.392395 68.0
692.559998 60.0
692.654297 60.0
693.00531 48.0
693.545044 68.0
694.530762 92.0
694.756348 120.0
694.939941 56.0
695.113098 52.0
696.362488 96.0
696.824768 52.0
697.497375 40.0
698.417542 48.0
698.675293 80.0
701.698242 56.0
701.924927 92.0
702.17804 68.0
702.236084 72.0
703.676636 120.0
704.130737 48.0
704.268066 44.0
705.097534 48.0
705.59967 32.0
705.77417 96.0
705.943359 72.0
706.715637 56.0
707.424805 92.0
709.268127 72.0
711.851807 68.0
712.345764 92.0
714.121033 52.0
714.174194 48.0
714.663635 72.0
716.335266 96.0
717.470337 76.0
718.414185 64.0
719.20929 80.0
720.020813 100.0
721.035828 56.0
721.671936 64.0
722.23877 88.0
722.495544 132.0
722.61322 76.0
722.96637 44.0
723.255371 60.0
723.614075 56.0
724.888794 56.0
725.296143 72.0
726.835266 52.0
728.401672 68.0
729.257202 52.0
729.870056 76.0
730.596069 88.0
731.279419 92.0
731.462463 56.0
731.98468 64.0
732.243164 88.0
732.302917 84.0
732.485535 84.0
733.28833 88.0
733.699768 72.0
734.242554 88.0
734.593811 68.0
736.710388 76.0
738.774231 116.0
739.364014 116.0
739.569641 100.0
740.452148 64.0
740.717529 44.0
741.595337 88.0
741.687439 60.0
742.381409 108.0
743.770264 52.0
744.394592 96.0
744.85083 68.0
745.035522 64.0
745.339722 56.0
745.439148 76.0
745.502747 92.0
745.644043 56.0
745.964722 48.0
747.928345 88.0
748.233215 60.0
748.358398 72.0
748.472778 60.0
749.589417 80.0
750.06897 136.0
750.82135 100.0
752.671265 108.0
753.812866 56.0
754.796753 52.0
755.212402 72.0
755.797729 48.0
755.841492 80.0
756.99646 92.0
757.703003 52.0
758.289307 104.0
761.108948 128.0
762.537231 28.0
763.031921 100.0
763.246338 36.0
763.378296 48.0
763.609253 88.0
764.384949 68.0
765.14447 44.0
766.058655 48.0
769.560547 136.0
769.764832 72.0
771.748474 64.0
771.940247 64.0
772.008362 52.0
773.463379 88.0
775.435181 48.0
776.150269 56.0
776.327698 120.0
776.666016 60.0
777.969971 84.0
780.987244 44.0
781.860718 56.0
782.651123 48.0
783.536682 88.0
784.010315 36.0
785.158691 40.0
785.281372 84.0
785.889404 44.0
786.090271 48.0
786.748901 52.0
786.972229 68.0
787.011292 84.0
787.435669 36.0
787.536194 96.0
788.54187 68.0
789.184692 88.0
789.620911 44.0
790.023621 144.0
791.249146 64.0
792.257202 40.0
792.671814 136.0
793.34436 128.0
795.240234 116.0
796.615906 72.0
796.846252 60.0
799.117554 88.0
799.179443 40.0
800.153137 40.0
800.310791 104.0
801.290771 84.0
801.493591 68.0
801.656982 68.0
802.541931 132.0
802.728027 52.0
803.032532 48.0
803.088928 76.0
803.472534 92.0
804.070618 116.0
805.126343 60.0
805.436951 56.0
806.154419 56.0
806.866638 80.0
807.019287 68.0
808.190063 88.0
808.506897 72.0
810.262207 84.0
810.415161 88.0
811.792542 36.0
812.008057 64.0
812.081787 120.0
813.886353 76.0
817.114563 60.0
817.165771 48.0
818.765259 72.0
819.727966 88.0
820.035706 84.0
820.919373 96.0
821.575256 80.0
822.197205 52.0
823.076294 44.0
823.487427 68.0
824.17865 40.0
825.784973 52.0
827.358521 96.0
827.730652 36.0
828.154419 48.0
829.953857 56.0
830.469971 140.0
831.244446 64.0
831.42804 40.0
832.277588 84.0
832.880615 104.0
833.121826 84.0
833.546997 148.0
834.650635 56.0
838.190552 56.0
839.320312 68.0
839.672058 92.0
840.012329 48.0
840.721985 44.0
841.501221 56.0
844.101257 76.0
844.176453 72.0
844.974609 52.0
845.032471 120.0
845.269714 60.0
845.894714 72.0
845.975769 56.0
846.32312 96.0
847.545288 84.0
848.032043 48.0
854.30304 44.0
857.301514 68.0
860.76062 84.0
861.940552 72.0
862.583374 56.0
863.033508 60.0
863.477966 104.0
865.104553 52.0
866.433899 60.0
866.792969 56.0
867.711487 104.0
868.948914 48.0
869.171875 72.0
871.103394 140.0
871.297241 60.0
871.937683 124.0
872.866516 60.0
873.989929 64.0
874.319458 116.0
876.297913 32.0
876.993286 44.0
877.806824 40.0
878.449707 88.0
879.016052 108.0
879.305237 76.0
879.381958 48.0
879.747864 44.0
880.468201 112.0
881.177063 80.0
881.277466 48.0
882.104858 72.0
882.518677 88.0
883.287415 108.0
883.677856 64.0
884.855591 76.0
884.926636 40.0
885.222717 52.0
885.311523 96.0
887.385376 56.0
889.396362 72.0
889.877197 68.0
890.768005 60.0
890.898682 60.0
893.086121 48.0
893.776184 40.0
894.88324 92.0
896.342468 80.0
896.878845 92.0
896.968262 68.0
897.290161 96.0
897.713501 104.0
897.761169 88.0
898.142883 64.0
899.031799 96.0
900.195862 80.0
901.964233 52.0
903.265808 136.0
903.518982 80.0
904.123291 104.0
904.757751 56.0
904.889465 84.0
905.4104 96.0
905.530212 120.0
905.620056 52.0
905.9375 92.0
908.869141 84.0
909.499268 108.0
910.027527 112.0
910.081604 28.0
910.255676 28.0
911.252747 44.0
911.318848 68.0
911.541138 100.0
914.126831 48.0
915.372803 88.0
915.619751 60.0
915.981079 44.0
916.704041 48.0
917.379089 44.0
919.924683 48.0
921.198853 48.0
921.446533 52.0
922.026001 80.0
922.715637 68.0
923.199402 52.0
923.411011 48.0
923.471497 112.0
924.675476 56.0
926.667664 104.0
928.728699 84.0
928.771179 60.0
929.323181 92.0
929.747925 48.0
930.342773 52.0
931.198914 32.0
931.65448 76.0
931.727356 52.0
931.982544 88.0
932.073669 52.0
932.225586 36.0
934.156128 68.0
935.643799 64.0
935.978638 108.0
938.251221 64.0
940.044373 76.0
940.453247 88.0
941.320129 56.0
941.466675 44.0
942.566223 52.0
943.024536 84.0
943.17218 76.0
943.849792 104.0
944.999695 96.0
945.972717 144.0
947.448547 28.0
949.201416 64.0
949.820801 64.0
950.047791 64.0
951.704834 108.0
951.790771 88.0
951.882874 92.0
954.912476 112.0
956.083557 68.0
957.337219 36.0
958.193359 52.0
964.673035 104.0
971.000916 44.0
971.236572 100.0
973.060974 76.0
973.893066 80.0
974.750366 96.0
977.088135 52.0
977.598328 92.0
977.928162 44.0
979.069641 104.0
979.192017 68.0
983.40033 88.0
983.98999 120.0
984.174377 64.0
985.073669 120.0
985.804688 76.0
986.6922 76.0
986.936035 44.0
987.123657 28.0
987.711487 32.0
989.457397 48.0
990.039673 56.0
990.352844 68.0
992.232727 48.0
994.641541 76.0
994.949097 196.0
995.463684 88.0
996.09198 100.0
996.318115 40.0
997.512085 52.0
998.486633 44.0
998.958374 76.0
999.027588 136.0
1001.337585 120.0
1002.14386 68.0
1002.187927 96.0
1002.988281 72.0
1004.381775 80.0
1005.265015 48.0
1005.580505 48.0
1005.946594 128.0
1006.154907 68.0
1007.689575 88.0
1008.081299 36.0
1009.187439 36.0
1010.180359 64.0
1010.699097 40.0
1011.192688 60.0
1012.389221 36.0
1012.895874 96.0
1015.754578 72.0
1017.537781 60.0
1018.56012 168.0
1020.65094 88.0
1023.036743 52.0
1024.488647 76.0
1024.565063 68.0
1025.469849 84.0
1027.338135 128.0
1029.693359 96.0
1030.581299 140.0
1031.143677 128.0
1035.231445 100.0
1036.307495 104.0
1036.551025 80.0
1036.788086 96.0
1037.153442 88.0
1037.255981 92.0
1040.168091 80.0
1040.816528 68.0
1041.2146 52.0
1041.510132 60.0
1042.473755 124.0
1042.600586 124.0
1042.788696 56.0
1043.264282 40.0
1047.71106 48.0
1048.961182 116.0
1049.670288 108.0
1050.263672 56.0
1053.962646 80.0
1054.124268 124.0
1054.738159 64.0
1055.817871 52.0
1056.898193 76.0
1058.904907 44.0
1059.371216 44.0
1062.353149 84.0
1062.67749 100.0
1062.73584 52.0
1063.203125 80.0
1064.215698 84.0
1065.287231 56.0
1068.394531 52.0
1069.038696 68.0
1070.067017 132.0
1072.894409 48.0
1074.629272 72.0
1076.509033 84.0
1076.619995 108.0
1080.378296 60.0
1080.764282 80.0
1082.400635 36.0
1084.169312 64.0
1085.231079 84.0
1087.710815 44.0
1090.318237 88.0
1091.317383 60.0
1092.645874 128.0
1092.928833 68.0
1094.324219 60.0
1094.92334 68.0
1098.36377 108.0
1101.373535 100.0
1103.428711 72.0
1104.533081 84.0
1106.687622 28.0
1109.260742 72.0
1110.195557 88.0
1111.323242 76.0
1111.84082 52.0
1113.852539 48.0
1114.96875 64.0
1115.872681 92.0
1116.078735 72.0
1116.730469 56.0
1118.773193 44.0
1120.085083 92.0
1120.837891 48.0
1122.484253 56.0
1126.922852 88.0
1127.276978 52.0
1130.553589 136.0
1130.915039 84.0
1131.386841 128.0
1132.126709 68.0
1132.441528 36.0
1133.031006 72.0
1134.116455 116.0
1135.376953 112.0
1135.537842 48.0
1136.148193 100.0
1137.228516 44.0
1139.982056 92.0
1140.835571 76.0
1141.057373 36.0
1142.025757 80.0
1142.622681 172.0
1143.81543 128.0
1144.670532 60.0
1145.357422 72.0
1146.38147 52.0
1146.853149 56.0
1148.0802 96.0
1148.761353 52.0
1153.29895 88.0
1154.096558 172.0
1160.182861 60.0
1161.525513 248.0
1163.065796 40.0
1163.398438 92.0
1164.002686 92.0
1164.219971 60.0
1164.736084 40.0
1165.850342 108.0
1167.434204 76.0
1167.542969 52.0
1168.134766 56.0
1168.257202 60.0
1170.789062 72.0
1174.633057 92.0
1174.680786 60.0
1174.776367 108.0
1176.025024 132.0
1177.028442 36.0
1181.443604 108.0
1181.614624 36.0
1182.291992 96.0
1186.744263 44.0
1186.833496 64.0
1188.170776 72.0
1191.857666 48.0
1193.135986 56.0
1193.21167 60.0
1195.818604 64.0
1196.348633 48.0
1196.871826 36.0
1198.27002 76.0
1198.869385 64.0
1199.145142 68.0
1200.255005 124.0
1203.587646 44.0
1204.064087 28.0
1205.141602 124.0
1205.459473 40.0
1207.296631 88.0
1209.934448 96.0
1210.917725 196.0
1211.381714 68.0
1213.557739 124.0
1214.230347 80.0
1214.382935 88.0
1218.019897 132.0
1219.423462 92.0
1220.04895 192.0
1222.818848 72.0
1223.415894 176.0
1223.562134 80.0
1223.956421 128.0
1224.328003 116.0
1225.129028 128.0
1225.407715 100.0
1225.790894 72.0
1227.470825 48.0
1228.230957 92.0
1228.635498 84.0
1230.045044 184.0
1231.259888 96.0
1231.720947 28.0
1232.964478 48.0
1235.397705 40.0
1236.188354 100.0
1236.349243 60.0
1238.071411 76.0
1238.974854 68.0
1239.549438 40.0
1240.768921 72.0
1241.070435 28.0
1242.171387 40.0
1242.985229 160.0
1243.827393 84.0
1248.31665 156.0
1250.032959 68.0
1250.595947 144.0
1250.645264 224.0
1251.72937 56.0
1252.088501 100.0
1252.616821 72.0
1259.296265 60.0
1259.407349 160.0
1263.438354 80.0
1265.349121 140.0
1267.013428 56.0
1268.076172 100.0
1268.189575 44.0
1273.695557 48.0
1275.215942 100.0
1275.336792 84.0
1275.559082 176.0
1281.264282 68.0
1281.314087 84.0
1283.30249 200.0
1283.604736 152.0
1283.922852 40.0
1286.641357 232.0
1287.976685 128.0
1288.19812 72.0
1288.32666 76.0
1289.076904 120.0
1289.274658 180.0
1289.655762 88.0
1289.720093 36.0
1291.292969 52.0
1291.528931 124.0
1291.85083 228.0
1293.489502 52.0
1294.212524 52.0
1294.527588 92.0
1295.644897 136.0
1296.175049 80.0
1296.970581 104.0
1297.55835 64.0
1298.791748 92.0
1300.08313 172.0
1300.827026 156.0
1304.320557 44.0
1305.334229 40.0
1305.866333 76.0
1306.125244 44.0
1306.686401 60.0
1307.593018 52.0
1310.077026 180.0
1310.213989 68.0
1310.343628 52.0
1310.494873 172.0
1311.085815 80.0
1312.642822 140.0
1313.508301 112.0
1313.948242 152.0
1314.438843 48.0
1314.511108 88.0
1316.192871 184.0
1318.013062 148.0
1319.068115 124.0
1319.219971 68.0
1319.704346 144.0
1320.123657 80.0
1320.854126 212.0
1320.904785 100.0
1321.939331 60.0
1322.272217 228.0
1323.502808 68.0
1324.3573 152.0
1325.828003 108.0
1326.806519 172.0
1329.069336 116.0
1330.847534 60.0
1332.249268 148.0
1332.844971 152.0
1335.127441 60.0
1336.356689 52.0
1336.422241 120.0
1337.775879 136.0
1338.168945 76.0
1338.329102 36.0
1338.968262 104.0
1340.689209 204.0
1340.820312 80.0
1341.366943 144.0
1342.730469 72.0
1343.941284 140.0
1346.554565 164.0
1347.131592 64.0
1348.052124 112.0
1348.417603 140.0
1351.598511 76.0
1351.839966 120.0
1353.150146 208.0
1353.545532 76.0
1353.955566 160.0
1355.76416 172.0
1357.319092 132.0
1358.397095 40.0
1359.086792 64.0
1359.372925 92.0
1359.827881 176.0
1360.275635 124.0
1361.354858 88.0
1361.766113 140.0
1361.993774 112.0
1362.904785 92.0
1363.411743 124.0
1364.080566 128.0
1365.043701 80.0
1366.198364 148.0
1366.279297 180.0
1366.764893 96.0
1366.956177 132.0
1367.773071 112.0
1368.840576 92.0
1368.943604 84.0
1369.414917 116.0
1369.805298 108.0
1370.4021 192.0
1371.566406 208.0
1372.790161 160.0
1373.254761 172.0
1373.999756 108.0
1374.626953 236.0
1374.804077 112.0
1374.966431 80.0
1375.328003 132.0
1375.852173 96.0
1375.999756 176.0
1376.154785 176.0
1378.08252 124.0
1378.252441 112.0
1379.501343 52.0
1379.981934 132.0
1380.469849 44.0
1380.640015 88.0
1380.817505 176.0
1381.446167 152.0
1382.459717 88.0
1383.792114 100.0
1384.525146 72.0
1385.791748 180.0
1385.858398 124.0
1386.117798 228.0
1387.414795 168.0
1388.586304 104.0
1389.068359 112.0
1389.595093 120.0
1389.943848 172.0
1390.700806 140.0
1391.287109 132.0
1393.047119 160.0
1393.310791 40.0
1394.17981 160.0
1394.852783 48.0
1394.912231 100.0
1395.380493 112.0
1395.551514 144.0
1395.715088 88.0
1396.443848 76.0
1396.949707 76.0
1397.44812 168.0
1399.25 184.0
1399.554443 124.0
1399.725586 92.0
1400.515625 228.0
1401.267334 32.0
1402.109375 84.0
1403.667358 64.0
1403.734497 128.0
1404.97998 140.0
1405.345581 152.0
1405.517212 192.0
1406.211182 112.0
1406.562012 176.0
1406.890381 164.0
1408.376343 68.0
1408.510742 72.0
1410.931885 104.0
1411.253418 156.0
1411.903931 84.0
1412.371338 48.0
1413.796631 92.0
1413.886353 140.0
1414.492554 156.0
1414.74707 256.0
1414.799561 152.0
1415.375977 64.0
1415.84021 144.0
1416.731567 136.0
1417.061157 28.0
1417.69812 96.0
1418.432617 68.0
1419.190918 104.0
1419.309692 116.0
1419.969604 164.0
1420.19458 216.0
1421.822632 164.0
1422.061279 40.0
1424.675781 56.0
1424.959717 244.0
1426.23877 36.0
1426.967896 76.0
1427.065674 80.0
1427.118286 40.0
1428.554688 64.0
1429.091431 112.0
1429.472534 168.0
1429.660645 156.0
1429.720825 180.0
1430.134766 144.0
1431.663086 156.0
1431.738403 160.0
1431.798584 48.0
1432.109741 180.0
1434.11145 104.0
1434.428101 140.0
1434.978394 200.0
1435.212158 172.0
1436.046875 112.0
1436.782715 80.0
1437.822021 220.0
1438.380615 192.0
1439.86792 124.0
1440.374023 96.0
1441.084106 216.0
1441.310791 80.0
1441.809448 180.0
1442.793945 140.0
1442.860107 120.0
1443.366699 72.0
1443.631348 132.0
1443.850586 32.0
1443.971558 52.0
1445.658569 120.0
1445.726685 164.0
1446.014282 60.0
1447.005859 172.0
1447.391968 100.0
1448.421997 148.0
1449.39917 120.0
1450.232788 140.0
1450.59668 144.0
1450.824097 56.0
1451.222656 152.0
1451.513916 104.0
1451.870361 112.0
1451.923462 144.0
1452.530151 72.0
1452.636353 180.0
1453.068848 152.0
1453.197754 140.0
1453.539185 160.0
1454.070435 52.0
1454.973633 80.0
1455.026855 104.0
1455.571289 208.0
1456.218994 64.0
1456.507568 88.0
1456.62146 156.0
1456.765869 172.0
1457.95105 80.0
1458.764282 112.0
1459.478882 196.0
1460.186157 128.0
1460.254517 176.0
1460.598999 68.0
1460.741333 136.0
1461.174927 104.0
1461.699951 164.0
1462.049927 100.0
1462.126099 144.0
1463.184082 44.0
1464.196777 236.0
1464.432861 168.0
1465.598389 168.0
1466.390869 60.0
1466.57373 176.0
1466.939697 196.0
1467.267456 72.0
1467.694458 92.0
1468.502686 60.0
1468.563721 80.0
1469.845337 92.0
1469.914062 40.0
1470.074219 92.0
1470.639038 236.0
1471.251709 164.0
1471.459229 156.0
1472.05896 180.0
1472.425537 56.0
1472.618042 208.0
1473.20459 120.0
1473.701172 136.0
1474.534058 120.0
1474.610474 192.0
1475.015503 152.0
1475.98645 80.0
1476.208252 100.0
1476.835327 116.0
1477.110596 132.0
1480.363281 128.0
1481.19812 152.0
1481.650024 144.0
1481.902832 116.0
1481.994751 104.0
1482.761108 164.0
1482.952637 76.0
1483.105957 168.0
1483.305298 68.0
1483.880127 104.0
1484.577881 88.0
1484.700562 48.0
1485.390869 88.0
1485.536621 128.0
1486.058228 128.0
1486.334473 124.0
1486.641479 120.0
1487.78125 204.0
1487.861816 156.0
1489.435913 188.0
1489.750854 180.0
1490.304077 96.0
1490.657471 96.0
1490.768677 164.0
1491.841064 56.0
1491.994873 104.0
1492.14856 172.0
1492.417603 72.0
1493.42981 148.0
1493.509644 48.0
1493.837769 152.0
1494.240356 108.0
1494.797363 164.0
1494.971313 148.0
1496.095093 60.0
1496.17981 84.0
1496.634033 112.0
1496.849609 200.0
1497.03772 160.0
1497.165283 164.0
1497.866211 116.0
1498.320679 108.0
1499.383911 116.0
1499.68457 112.0
1499.75 40.0
1500.077637 92.0
1500.270386 100.0
1500.378296 76.0
1500.540161 148.0
1501.57019 96.0
1502.437256 40.0
1502.707275 76.0
1502.884766 80.0
1503.37085 112.0
1503.509766 116.0
