>compound HOMOHARRINGTONINE
>formula C29H39NO9
>ionization [M+H]+
>parentmass 546.2697582800906
#inchi InChI=1S/C29H39NO9/c1-27(2,33)8-5-10-29(34,16-23(31)36-4)26(32)39-25-22(35-3)15-28-9-6-11-30(28)12-7-18-13-20-21(38-17-37-20)14-19(18)24(25)28/h13-15,24-25,33-34H,5-12,16-17H2,1-4H3/t24-,25-,28+,29-/m1/s1
#inchikey HYFHYPWGAURHIV
#Ion_Source LC-ESI
#Instrument qTof
#Compound_Source Commercial
#PI Dorrestein
#Data_Collector Garg_Neha
#Scan -1
#Precursor_MZ 546.27
#ExactMass 545.263
#Charge 1
#CAS_Number N/A
#Pubmed_ID N/A
#Smiles COC(=O)C[C@](O)(CCCC(C)(C)O)C(=O)O[C@H]1[C@H]2c3cc4OCOc4cc3CCN5CCC[C@]25C=C1OC
#INCHI_AUX N/A
#Library_Class 1
#SpectrumID CCMSLIB00000079065
#IonMode Positive
#UpdateWorkflowName UPDATE-SINGLE-ANNOTATED-GOLD
#LibraryQualityString Gold
#TaskID 278b19f5865741e282cec7349aa7e7a1
##Scan# 1037
#SpectrumFile NCP003432_C2_D11_BD1_01_15723.mzXML
#LibraryName NIHcollectionI_05062014.mgf
#MQScore -1
#Organism NIHcollectionI_05062014
#TIC_Query 0
#RT_Query -1
#MZErrorPPM -1
#SharedPeaks 0
#MassDiff 0
#LibMZ -1
#SpecMZ 546.27
#SpecCharge 0
#internalFilename spec-00000.mgf

>collision 10
45.384163 132.0
45.569923 152.0
46.046787 276.0
46.158955 156.0
46.497631 140.0
46.743603 160.0
46.856613 144.0
47.22308 188.0
47.995613 228.0
48.273163 168.0
48.331764 132.0
48.677799 152.0
49.082729 144.0
49.750107 180.0
50.776447 132.0
51.307739 196.0
51.319141 156.0
51.814926 176.0
52.237152 168.0
53.243145 192.0
53.611206 168.0
53.854851 164.0
54.380486 152.0
54.418652 180.0
54.614101 144.0
55.045914 156.0
55.292793 268.0
55.349045 180.0
55.449242 176.0
55.525394 172.0
55.809025 168.0
56.205231 148.0
56.235077 212.0
56.269409 148.0
56.339603 152.0
56.800667 160.0
57.266624 168.0
57.470135 152.0
57.544094 144.0
57.737511 148.0
57.816177 160.0
57.93428 212.0
58.060085 196.0
58.107109 148.0
58.246189 208.0
58.884968 160.0
59.383915 140.0
59.532784 140.0
59.904995 212.0
59.99596 140.0
60.045258 184.0
60.273731 148.0
60.414425 156.0
60.594009 200.0
61.191956 364.0
61.780224 128.0
61.844479 168.0
62.070072 152.0
62.208138 228.0
63.462379 240.0
63.916656 152.0
64.044014 144.0
64.671509 220.0
65.372849 160.0
66.07312 188.0
66.463593 208.0
66.699493 124.0
66.86335 160.0
66.912178 172.0
67.47831 148.0
67.582985 160.0
68.058319 256.0
68.071457 184.0
68.260429 204.0
68.494133 204.0
68.522133 204.0
68.761238 140.0
68.86525 232.0
69.224464 124.0
69.255592 140.0
70.389809 212.0
70.565254 188.0
70.7677 172.0
70.990555 184.0
71.331383 152.0
71.807892 148.0
71.981712 176.0
72.396011 192.0
72.511215 184.0
72.809578 148.0
72.990952 212.0
73.022247 148.0
73.064774 152.0
73.119225 152.0
73.815178 96.0
73.88195 168.0
73.967514 304.0
74.514572 172.0
75.048119 180.0
75.184395 180.0
75.664917 208.0
75.876282 196.0
75.894363 128.0
76.053223 156.0
76.573082 200.0
76.761292 208.0
77.103455 172.0
77.285316 288.0
77.442871 164.0
77.565521 160.0
77.874336 392.0
78.069908 172.0
78.444443 160.0
78.68499 232.0
79.269821 200.0
79.338943 144.0
79.419579 144.0
79.837883 152.0
80.261696 164.0
81.279472 160.0
81.507515 148.0
81.78627 172.0
82.451797 156.0
82.661568 140.0
82.678596 224.0
83.472412 156.0
84.192223 140.0
84.50663 172.0
84.592644 228.0
84.977493 148.0
85.631912 148.0
85.687172 184.0
85.788528 164.0
86.019119 168.0
86.255562 176.0
86.938988 172.0
87.658653 164.0
88.031738 180.0
88.59285 140.0
88.617203 188.0
89.046776 172.0
89.32872 156.0
89.582848 140.0
90.043083 160.0
90.196121 152.0
90.48745 156.0
90.786835 156.0
91.05632 280.0
91.73941 232.0
92.186028 168.0
92.207054 144.0
92.513092 144.0
92.973106 176.0
93.069321 196.0
93.318863 212.0
93.751961 148.0
94.057259 232.0
94.079857 152.0
94.32132 184.0
94.854713 148.0
94.985489 188.0
96.076805 168.0
96.400917 172.0
96.541664 144.0
97.042946 176.0
97.388321 160.0
97.687103 140.0
97.734314 140.0
97.946938 224.0
98.226837 180.0
98.240646 316.0
98.481468 184.0
98.505318 156.0
98.53598 200.0
98.66938 208.0
98.744331 140.0
99.053101 148.0
99.620232 180.0
99.902718 216.0
100.076714 168.0
100.364548 156.0
100.847878 144.0
100.969841 188.0
101.079865 144.0
101.117889 188.0
101.264038 180.0
101.322815 184.0
101.616844 248.0
102.162254 308.0
102.466209 124.0
103.243683 148.0
103.552032 216.0
103.635094 200.0
103.76683 144.0
105.207214 232.0
105.480949 156.0
105.851257 188.0
106.062271 144.0
106.333008 172.0
106.398697 164.0
106.476723 144.0
106.791176 156.0
107.085739 472.0
107.762108 192.0
108.055687 188.0
108.087708 124.0
109.06456 1276.0
109.101227 168.0
109.371353 192.0
109.923637 140.0
110.062683 104.0
110.397827 228.0
111.064056 164.0
111.081802 168.0
111.45858 124.0
111.485832 152.0
111.611893 128.0
111.698181 148.0
111.717117 152.0
111.965485 180.0
111.999184 176.0
112.08345 168.0
112.20359 140.0
112.256302 176.0
112.344887 216.0
112.397629 176.0
112.524269 144.0
113.431816 140.0
113.775475 156.0
113.947502 156.0
113.998497 168.0
114.147293 196.0
114.587891 144.0
114.645416 180.0
115.055237 324.0
115.850479 188.0
116.258934 108.0
116.767021 196.0
117.055389 212.0
117.070457 184.0
117.469193 204.0
117.745468 172.0
118.060989 168.0
119.050484 180.0
119.240356 148.0
119.736389 236.0
119.773041 192.0
119.87146 228.0
120.037125 168.0
120.08065 1032.0
120.375351 172.0
120.425583 144.0
120.526077 140.0
120.913132 160.0
120.974419 144.0
121.002876 232.0
121.065598 300.0
121.355621 200.0
121.463081 144.0
122.055511 172.0
122.097488 188.0
122.168777 156.0
122.32225 140.0
122.511635 224.0
122.64164 196.0
123.080284 1628.0
123.21785 136.0
123.298531 108.0
123.370079 140.0
124.008598 112.0
124.076538 276.0
124.464554 144.0
124.571159 160.0
124.811188 188.0
125.060104 140.0
125.092255 180.0
125.387741 152.0
126.091331 1664.0
126.748665 140.0
127.062271 152.0
127.096214 168.0
127.484688 204.0
128.075439 160.0
128.265198 156.0
128.313004 240.0
128.425751 140.0
128.965378 208.0
129.033203 140.0
129.05452 1248.0
129.153046 156.0
129.275223 140.0
129.4133 148.0
129.766739 172.0
130.060776 260.0
130.279648 164.0
130.756943 132.0
131.049576 724.0
131.394333 208.0
131.56633 172.0
131.822144 144.0
132.01416 148.0
132.05304 152.0
132.090759 220.0
132.384872 140.0
132.905899 224.0
133.031448 224.0
133.062103 212.0
133.13092 136.0
133.525452 240.0
133.589859 148.0
134.094116 140.0
134.509293 176.0
134.643204 152.0
134.887543 112.0
135.042923 628.0
135.080444 704.0
135.167953 144.0
135.457352 144.0
135.760971 188.0
136.075348 132.0
136.27861 160.0
136.313461 180.0
136.771622 152.0
137.093582 232.0
137.286514 164.0
137.399887 132.0
137.989334 192.0
138.038437 172.0
138.090973 180.0
138.834641 168.0
138.99649 180.0
139.055435 308.0
139.097229 316.0
140.26413 168.0
140.384369 204.0
140.695816 160.0
141.071426 152.0
141.090347 156.0
141.168365 148.0
141.551712 152.0
141.599823 128.0
141.66304 160.0
142.067169 300.0
142.144318 148.0
142.914185 148.0
143.047302 816.0
143.08107 168.0
144.043533 152.0
144.075775 184.0
144.151718 152.0
144.175613 148.0
145.069275 172.0
145.448685 116.0
145.567429 144.0
146.007202 188.0
146.024033 148.0
146.060638 180.0
146.157639 140.0
146.486176 156.0
146.543991 172.0
147.040741 168.0
147.785019 172.0
147.927795 168.0
148.051132 124.0
148.076782 584.0
148.63063 180.0
148.793259 176.0
148.909805 200.0
149.060028 2036.0
149.220062 136.0
149.456772 144.0
149.785431 196.0
149.817215 172.0
149.946548 160.0
150.048126 140.0
150.092133 18672.0
150.33432 292.0
150.789368 172.0
151.095901 1104.0
151.514969 148.0
151.997986 144.0
152.063782 392.0
152.098526 516.0
152.40712 160.0
152.529999 172.0
152.744843 164.0
153.01062 216.0
153.067413 132.0
153.092484 508.0
153.121429 188.0
153.325912 172.0
153.365341 160.0
154.06366 184.0
154.092987 212.0
154.342163 204.0
154.365204 152.0
154.545761 148.0
154.872543 184.0
155.082367 128.0
155.674606 152.0
156.71582 148.0
156.800552 156.0
156.977554 192.0
157.068604 244.0
157.177109 188.0
157.449203 184.0
157.745758 228.0
158.068558 132.0
158.911057 144.0
159.043457 1132.0
159.267517 168.0
159.750153 144.0
159.916214 176.0
160.047897 308.0
160.077271 140.0
160.14534 140.0
160.442673 168.0
160.71759 224.0
161.059433 1228.0
161.106384 188.0
161.480484 148.0
161.528549 184.0
161.629745 220.0
161.760818 172.0
162.131134 164.0
162.75769 144.0
162.816101 156.0
162.958344 164.0
163.06456 200.0
163.0961 500.0
163.151505 172.0
163.31424 188.0
163.456711 168.0
164.101349 152.0
164.32811 152.0
164.412308 140.0
164.481232 164.0
164.50676 200.0
164.987015 156.0
165.069702 492.0
165.393753 144.0
165.731781 164.0
166.079819 284.0
166.498779 152.0
167.048584 136.0
167.104767 988.0
167.952942 240.0
168.012283 160.0
168.082947 300.0
168.172943 212.0
169.064346 304.0
169.084991 164.0
169.108719 188.0
169.67778 144.0
169.822983 148.0
169.891998 176.0
170.05719 672.0
170.097275 264.0
170.531799 148.0
171.078201 576.0
171.854675 144.0
172.051758 160.0
172.363831 188.0
172.497116 160.0
172.947021 156.0
173.060089 3072.0
173.163879 116.0
173.681107 120.0
174.054688 1172.0
174.994629 188.0
175.059906 148.0
175.40509 168.0
175.870209 120.0
175.952255 160.0
176.00975 208.0
176.070877 8132.0
176.118881 160.0
176.789551 144.0
177.07402 2320.0
177.295578 144.0
178.07991 300.0
179.084625 788.0
179.149963 144.0
179.26889 132.0
179.733826 192.0
180.060989 172.0
180.084579 240.0
180.353409 196.0
181.064301 424.0
181.101807 288.0
182.073669 604.0
182.156723 204.0
182.344803 196.0
182.621735 140.0
183.079819 376.0
183.121719 412.0
183.176224 196.0
183.947189 180.0
184.042847 152.0
184.078308 276.0
184.120224 184.0
184.559586 108.0
184.94754 192.0
184.988144 152.0
185.059784 1772.0
185.099472 164.0
185.292755 192.0
186.058136 160.0
186.721954 164.0
186.944412 172.0
187.068115 564.0
187.749069 196.0
188.048782 164.0
188.071472 652.0
189.029861 168.0
189.076126 752.0
189.843811 156.0
190.085739 1212.0
190.433502 148.0
190.477448 176.0
190.870453 192.0
190.985962 172.0
191.086014 1224.0
191.409775 160.0
191.434555 172.0
191.875412 172.0
192.051895 164.0
192.090195 684.0
192.352661 148.0
192.507263 220.0
192.681915 120.0
192.943817 152.0
193.06778 912.0
193.100174 484.0
193.355972 160.0
194.006882 148.0
194.07048 440.0
194.098877 156.0
194.411835 148.0
194.481216 180.0
194.53421 196.0
194.639465 200.0
194.933777 176.0
195.081635 1604.0
195.426056 176.0
195.991272 148.0
196.077438 316.0
196.106262 300.0
197.05896 992.0
197.099365 1176.0
197.350571 140.0
198.063644 340.0
198.0923 448.0
198.114273 168.0
198.413681 256.0
199.075699 972.0
199.267654 172.0
199.482178 144.0
199.870438 176.0
200.07016 1688.0
200.350784 160.0
200.581863 144.0
201.054764 508.0
201.077805 532.0
201.120407 164.0
201.198318 144.0
201.705673 152.0
202.086349 376.0
202.313492 144.0
202.727676 136.0
202.751144 124.0
203.069885 408.0
203.09169 288.0
203.448227 116.0
204.102417 120.0
204.675674 152.0
205.07692 288.0
205.536484 188.0
206.070572 148.0
206.473465 156.0
207.077744 1428.0
207.11171 140.0
207.226288 156.0
207.252075 144.0
207.375305 144.0
208.080917 752.0
208.112717 2108.0
208.193329 148.0
209.060013 532.0
209.092514 648.0
209.11087 352.0
209.429626 140.0
209.480408 172.0
209.760666 104.0
209.876312 140.0
210.067413 836.0
210.094284 308.0
210.125565 516.0
210.360992 140.0
210.384094 164.0
210.580444 140.0
210.725723 136.0
210.993652 148.0
211.073502 1488.0
211.110733 720.0
211.164261 264.0
212.075806 880.0
212.106949 616.0
212.447433 204.0
212.98735 160.0
213.052567 232.0
213.08667 468.0
213.603577 168.0
214.085159 1852.0
214.193787 152.0
214.217789 168.0
214.483643 228.0
214.541245 208.0
214.582062 160.0
214.687881 124.0
214.827042 144.0
215.069641 4696.0
215.124695 156.0
215.146317 184.0
216.075607 1072.0
216.101395 904.0
216.465515 152.0
217.076508 296.0
217.106247 160.0
218.063477 132.0
218.1073 148.0
218.344818 176.0
218.374222 176.0
218.572388 188.0
218.880402 168.0
219.081818 1852.0
219.156494 180.0
219.457916 184.0
219.86203 240.0
220.085693 936.0
220.124756 172.0
220.813324 164.0
221.061829 140.0
221.089615 384.0
221.186646 160.0
221.657013 144.0
221.965302 144.0
222.021637 232.0
222.066483 484.0
222.09317 148.0
222.802277 208.0
222.896332 140.0
223.036438 160.0
223.075256 6728.0
223.111221 4532.0
223.203506 236.0
223.244293 208.0
223.569397 148.0
223.611069 140.0
223.80159 156.0
223.9207 180.0
224.078659 2464.0
224.113419 1284.0
224.361801 108.0
225.055527 348.0
225.089798 2852.0
225.40744 96.0
225.561737 156.0
225.740219 172.0
226.009781 152.0
226.087173 16016.0
226.336578 144.0
226.367676 168.0
226.485916 148.0
226.588181 176.0
226.634415 156.0
226.735001 272.0
227.015167 144.0
227.094849 28352.0
227.205765 160.0
227.243561 140.0
227.509796 192.0
227.5569 332.0
227.625702 96.0
227.696259 176.0
227.755096 212.0
227.881271 164.0
228.098831 6060.0
228.616409 164.0
228.653458 156.0
228.817825 100.0
228.89241 116.0
229.042694 164.0
229.087051 5316.0
229.109619 9164.0
229.179169 176.0
229.234268 236.0
229.32431 200.0
229.424622 128.0
229.474792 96.0
230.044586 108.0
230.114059 3264.0
230.167374 196.0
230.44075 204.0
231.093948 272.0
231.113785 340.0
231.506027 156.0
232.012955 176.0
232.370819 176.0
232.519745 104.0
233.094025 280.0
233.397415 148.0
233.616394 140.0
234.077591 180.0
234.089996 128.0
235.00528 140.0
235.073807 308.0
235.10376 492.0
235.323044 160.0
235.64679 164.0
235.781235 224.0
236.026596 160.0
236.106308 4300.0
236.233765 160.0
236.420395 168.0
236.447937 180.0
237.09079 4784.0
237.168732 200.0
237.207535 152.0
237.399643 164.0
237.974075 148.0
238.025665 120.0
238.087509 3728.0
238.12059 716.0
238.279648 168.0
238.384216 164.0
238.579727 188.0
238.860855 368.0
238.893387 184.0
239.003296 144.0
239.076569 1296.0
239.099609 2264.0
239.756287 148.0
239.85527 120.0
239.950729 112.0
240.030487 140.0
240.1026 16056.0
240.136154 648.0
240.642487 136.0
240.690948 184.0
240.920212 184.0
240.963928 160.0
241.10527 3896.0
241.929764 108.0
242.082993 4216.0
242.252045 304.0
242.333847 148.0
242.752716 148.0
242.793411 132.0
242.821777 236.0
242.963272 168.0
243.099152 1632.0
244.102371 364.0
244.770004 104.0
244.886063 152.0
245.094391 348.0
245.222549 152.0
245.896225 172.0
245.996094 156.0
246.719666 232.0
246.870926 228.0
247.070999 124.0
247.078506 120.0
248.095154 168.0
248.648773 176.0
249.091782 2460.0
249.234436 240.0
249.350616 152.0
249.473984 112.0
249.746857 212.0
249.768875 148.0
249.94632 136.0
250.097305 2848.0
250.242889 108.0
250.341675 176.0
250.538025 140.0
250.685043 180.0
250.991272 184.0
251.105713 19712.0
251.298279 120.0
251.357483 108.0
251.546051 276.0
251.62001 160.0
251.750183 104.0
251.874451 164.0
252.022934 232.0
252.107407 4452.0
252.264069 120.0
252.697113 172.0
252.837311 312.0
252.914673 136.0
253.038879 204.0
253.08754 8604.0
253.107941 7848.0
253.193802 168.0
253.28981 96.0
253.975204 128.0
254.023773 180.0
254.087341 1476.0
254.114502 3420.0
254.356277 132.0
254.915924 204.0
255.020798 148.0
255.098587 5204.0
256.100922 1920.0
256.392517 176.0
256.627747 140.0
256.776855 164.0
256.93045 124.0
257.103058 1228.0
257.205811 208.0
257.517517 124.0
257.761322 212.0
257.853333 164.0
258.108002 480.0
258.142456 168.0
258.794647 204.0
259.057251 152.0
259.092773 136.0
259.172607 140.0
259.759277 160.0
260.05127 144.0
260.989288 176.0
261.365631 176.0
261.406097 152.0
262.267334 208.0
262.657501 196.0
262.760712 144.0
263.112427 152.0
263.250153 120.0
264.104492 1100.0
264.743378 156.0
264.822021 120.0
265.062805 164.0
265.102722 880.0
265.581512 188.0
265.669098 176.0
265.698303 180.0
266.055878 192.0
266.118225 42684.0
266.371674 112.0
266.464874 132.0
266.576599 152.0
266.630371 220.0
266.975403 104.0
267.124298 27384.0
267.230774 156.0
267.310547 176.0
267.406952 128.0
267.446564 168.0
267.89624 120.0
268.098022 3264.0
268.130798 7760.0
268.192169 180.0
268.356201 172.0
268.776764 208.0
268.950256 116.0
269.045349 140.0
269.117065 3992.0
269.383423 200.0
269.474152 160.0
269.700195 140.0
269.82196 104.0
269.89328 172.0
269.924133 128.0
270.11319 9568.0
270.275146 132.0
270.403595 180.0
270.758331 168.0
270.846649 264.0
271.11618 2060.0
271.232239 144.0
271.376984 120.0
271.74646 144.0
272.118896 260.0
272.162659 152.0
272.788147 160.0
272.865234 224.0
273.651154 132.0
273.894623 152.0
274.358398 240.0
274.628784 188.0
274.698059 140.0
275.024109 108.0
275.067657 188.0
275.196381 144.0
275.241028 120.0
275.308655 164.0
275.916626 120.0
276.064514 172.0
276.131561 160.0
276.273804 152.0
277.155548 148.0
277.183105 148.0
277.238831 140.0
277.330109 168.0
277.837433 156.0
278.219086 180.0
278.644165 140.0
278.856842 152.0
279.129944 108.0
279.249176 232.0
280.004517 100.0
280.071136 100.0
280.107819 136.0
280.507782 164.0
280.824005 148.0
281.116913 7188.0
281.241608 148.0
281.539185 120.0
281.629944 168.0
281.993103 152.0
282.115112 3940.0
282.247162 172.0
282.389771 148.0
282.66272 120.0
282.912598 152.0
282.932281 288.0
283.052002 136.0
283.120453 9364.0
283.323608 140.0
283.743774 144.0
283.971802 160.0
284.058929 124.0
284.128662 37044.0
284.249176 152.0
284.352295 160.0
284.453674 144.0
284.596558 116.0
284.667847 128.0
285.016266 96.0
285.131042 6692.0
285.211426 120.0
285.73291 144.0
285.848969 160.0
285.981476 112.0
286.136108 820.0
286.897186 164.0
286.937653 156.0
286.983643 120.0
287.134949 152.0
287.232513 160.0
287.302704 116.0
288.160309 232.0
288.466919 148.0
288.862549 144.0
289.266479 120.0
290.286652 152.0
290.929688 156.0
291.921783 204.0
292.083344 144.0
292.108856 168.0
292.462738 216.0
293.367188 160.0
293.634766 164.0
293.94519 216.0
294.119019 216.0
294.159607 268.0
294.839905 148.0
295.111847 196.0
295.499847 140.0
295.580994 100.0
295.791321 160.0
295.911713 152.0
296.128204 4224.0
296.550201 164.0
296.795898 100.0
296.966797 100.0
297.039917 116.0
297.132477 764.0
297.226776 164.0
297.27475 164.0
297.403625 144.0
297.47171 164.0
297.595459 268.0
297.669495 144.0
297.742523 184.0
297.804474 296.0
297.871674 280.0
298.002991 400.0
298.058716 156.0
298.102753 496.0
298.145813 227152.0
298.271454 328.0
298.310608 108.0
298.339142 212.0
298.425934 104.0
298.464996 144.0
298.512939 208.0
298.538269 192.0
298.616547 308.0
298.650177 212.0
298.675476 236.0
298.710632 1744.0
298.768616 408.0
298.803162 316.0
298.857178 120.0
298.918427 100.0
298.983429 264.0
299.019012 172.0
299.056763 184.0
299.091034 256.0
299.147583 62776.0
299.245667 136.0
299.470184 228.0
299.575256 180.0
299.682129 132.0
299.727997 204.0
299.835632 124.0
299.886871 200.0
299.948578 168.0
300.149017 5912.0
300.221008 196.0
300.306976 100.0
300.588318 108.0
300.616394 112.0
300.720306 168.0
300.878113 208.0
300.917877 268.0
301.031708 200.0
301.154602 864.0
301.187866 388.0
301.227692 144.0
301.273773 240.0
301.368561 104.0
301.436859 160.0
301.46701 228.0
301.528137 96.0
301.573212 124.0
302.016174 216.0
302.126038 144.0
302.186768 200.0
302.265717 120.0
302.682861 96.0
303.275024 132.0
303.865173 216.0
304.394348 96.0
304.933563 124.0
305.230194 144.0
306.072235 152.0
306.114014 276.0
307.429382 108.0
308.367676 168.0
308.885162 164.0
310.037048 144.0
310.643616 164.0
311.35141 108.0
311.514191 160.0
311.9133 96.0
311.958984 124.0
312.011322 112.0
313.166504 156.0
314.137085 756.0
315.14209 328.0
315.369019 160.0
315.693024 192.0
316.012329 228.0
316.154694 18120.0
317.002319 168.0
317.157196 4632.0
317.649109 124.0
317.950928 180.0
318.157318 932.0
318.251251 116.0
318.778351 140.0
318.833252 160.0
319.16864 412.0
320.949677 148.0
321.038818 140.0
321.258636 160.0
321.759583 160.0
322.408234 140.0
322.627716 188.0
323.366394 124.0
324.654266 176.0
324.700897 176.0
325.038116 144.0
325.131409 164.0
326.162201 184.0
327.02182 168.0
327.781708 144.0
328.309448 128.0
328.63623 168.0
329.627838 120.0
330.739471 172.0
330.953064 188.0
331.854187 96.0
332.475525 144.0
332.918427 164.0
333.040344 116.0
333.132721 180.0
335.848175 148.0
336.15097 148.0
336.402252 164.0
336.96521 156.0
337.970673 168.0
338.156311 164.0
338.574646 168.0
338.940979 200.0
340.550751 168.0
340.595551 144.0
340.907806 164.0
341.374695 140.0
343.65097 124.0
344.027466 196.0
344.084747 148.0
344.252686 144.0
344.449493 140.0
344.581421 152.0
344.628601 208.0
345.94754 156.0
346.104187 164.0
346.682373 180.0
347.406677 132.0
347.606354 120.0
347.818146 116.0
350.011475 192.0
350.328033 140.0
350.447235 144.0
350.726746 108.0
350.771484 148.0
350.90567 244.0
351.763702 168.0
351.823425 172.0
352.077332 140.0
352.764832 168.0
353.871826 124.0
353.950806 164.0
354.575378 132.0
356.309967 176.0
356.655701 140.0
357.057983 144.0
357.648682 208.0
358.691101 160.0
358.737274 140.0
358.935516 192.0
359.25769 148.0
359.302948 252.0
360.726654 264.0
360.987518 220.0
361.222198 152.0
361.396027 180.0
361.607941 144.0
362.631805 132.0
363.131012 152.0
363.388947 164.0
363.628021 168.0
364.273499 140.0
364.596466 148.0
366.884033 140.0
367.12323 136.0
367.206726 108.0
367.887329 156.0
367.978943 176.0
369.821472 144.0
370.243744 152.0
371.41925 148.0
372.371124 148.0
372.467133 144.0
373.201141 168.0
374.875549 164.0
376.063385 152.0
376.25238 104.0
376.883545 220.0
378.363373 160.0
378.770203 132.0
378.835815 152.0
379.115051 184.0
379.64978 148.0
380.027283 160.0
380.289001 120.0
380.735077 156.0
381.237518 148.0
381.738983 168.0
382.139404 152.0
383.03891 172.0
383.132385 152.0
383.342773 188.0
383.937378 160.0
384.319031 120.0
385.064301 180.0
385.281952 172.0
385.446045 184.0
385.797791 152.0
386.054749 144.0
386.282684 156.0
387.269073 164.0
387.531525 192.0
387.805847 144.0
388.252777 152.0
388.442291 120.0
388.648987 156.0
388.776123 112.0
388.86087 224.0
390.083038 184.0
390.750977 144.0
390.959534 212.0
391.189056 100.0
392.870483 144.0
393.815796 148.0
394.704712 152.0
394.823456 152.0
395.205383 152.0
395.282318 156.0
395.430939 144.0
395.472351 104.0
395.55365 172.0
395.698639 212.0
395.77536 144.0
397.384521 152.0
397.448029 144.0
398.881683 140.0
399.088409 212.0
399.783508 152.0
401.258301 148.0
401.768768 208.0
401.8685 168.0
402.331451 180.0
402.867645 136.0
403.139526 116.0
403.396484 140.0
403.569977 172.0
405.307312 144.0
405.551544 164.0
405.691864 152.0
405.856232 140.0
406.927338 112.0
407.477722 140.0
407.586212 172.0
409.67984 148.0
410.795654 136.0
411.416626 144.0
412.252777 112.0
414.170166 260.0
415.223938 152.0
417.133545 116.0
417.182037 180.0
418.264862 292.0
419.101685 248.0
420.194672 200.0
420.424622 160.0
421.37381 152.0
423.637207 264.0
423.687805 108.0
424.063049 144.0
424.188385 104.0
424.259796 192.0
425.213989 96.0
425.736908 240.0
426.357208 180.0
426.507538 132.0
426.949219 140.0
427.763855 180.0
428.303284 144.0
429.010742 192.0
429.548126 148.0
430.551056 152.0
431.353577 140.0
431.513855 168.0
431.749542 164.0
431.844666 140.0
432.688812 140.0
433.499023 204.0
434.623749 136.0
435.404205 144.0
435.965607 208.0
436.002991 252.0
436.235748 140.0
436.538483 204.0
436.659882 176.0
437.292267 192.0
438.000092 144.0
439.170685 176.0
439.508545 164.0
439.626068 168.0
440.780304 108.0
441.196564 240.0
441.237671 96.0
441.920074 176.0
442.108368 152.0
442.476715 140.0
442.509949 132.0
443.095825 184.0
443.312103 144.0
444.115204 196.0
444.832703 144.0
444.983826 172.0
445.94693 148.0
446.172791 224.0
446.801056 172.0
447.48764 96.0
449.613831 128.0
449.736481 148.0
450.003265 184.0
451.193817 148.0
451.561707 148.0
451.591309 232.0
452.609344 128.0
453.384003 184.0
454.336182 144.0
454.972748 184.0
455.354889 168.0
455.817963 156.0
455.9086 192.0
456.325806 156.0
456.379028 148.0
456.848541 140.0
456.970215 172.0
459.462555 132.0
460.121338 164.0
460.395691 156.0
460.465637 140.0
460.642578 180.0
460.90564 160.0
461.05722 180.0
461.632324 144.0
461.687897 152.0
461.824768 148.0
462.890381 204.0
464.198364 116.0
464.484192 172.0
464.856018 108.0
465.328491 136.0
465.372589 160.0
465.48465 160.0
465.66156 136.0
466.116089 188.0
466.232117 160.0
466.47818 112.0
467.010284 148.0
467.182343 164.0
467.604034 140.0
468.491028 192.0
468.707764 104.0
468.764587 172.0
468.955933 116.0
469.21936 324.0
469.868073 100.0
470.222443 116.0
470.909454 120.0
471.273743 152.0
471.412018 196.0
471.550323 148.0
472.125305 144.0
472.232056 1060.0
472.295959 104.0
472.886749 196.0
473.073273 124.0
473.23407 516.0
473.670441 148.0
473.774414 152.0
473.911591 132.0
474.144043 176.0
474.229767 276.0
474.667236 212.0
475.204193 156.0
475.835876 176.0
476.177429 140.0
476.559692 156.0
476.963867 204.0
477.3508 144.0
477.408875 108.0
478.364197 108.0
479.643555 172.0
479.767212 200.0
479.905121 156.0
480.073059 136.0
480.232941 144.0
480.521698 160.0
480.613312 168.0
480.71936 120.0
481.115234 140.0
481.259308 144.0
481.805237 144.0
483.602417 156.0
483.659332 140.0
484.29422 300.0
484.457916 108.0
484.825531 124.0
485.284576 156.0
485.547699 152.0
486.117981 152.0
486.243866 152.0
486.692993 156.0
486.813538 196.0
487.075073 144.0
487.197754 212.0
487.94519 140.0
488.15625 176.0
488.534485 140.0
488.860077 148.0
488.987701 152.0
489.565765 108.0
490.975891 204.0
491.283356 152.0
491.56131 188.0
492.082153 152.0
492.235016 136.0
492.956726 248.0
492.992065 180.0
496.042847 168.0
496.238556 104.0
497.202698 240.0
497.638611 148.0
499.002594 176.0
499.116211 164.0
499.954468 176.0
501.749664 108.0
501.816376 156.0
502.177582 184.0
502.525543 168.0
502.637085 152.0
502.762543 104.0
503.313293 184.0
503.898926 164.0
504.35199 156.0
505.519257 164.0
505.619965 152.0
505.963684 176.0
505.998199 156.0
506.061157 124.0
506.351929 168.0
506.768524 176.0
506.86264 144.0
506.904602 132.0
507.557404 152.0
508.284058 164.0
508.551636 208.0
508.665527 208.0
508.970825 144.0
509.159424 168.0
509.483551 120.0
509.871582 100.0
509.966614 184.0
510.50827 228.0
510.609039 136.0
510.993378 140.0
511.142548 212.0
511.889099 180.0
512.72699 160.0
513.588135 152.0
513.845276 144.0
514.241516 212.0
514.711853 160.0
515.23822 168.0
515.705688 168.0
515.843506 172.0
516.243347 100.0
516.297974 144.0
516.397461 168.0
516.933472 264.0
517.196716 120.0
517.403687 180.0
517.930298 140.0
518.252136 96.0
518.496155 132.0
519.242004 124.0
519.350525 152.0
520.321655 140.0
520.800598 180.0
521.396912 144.0
521.555725 104.0
521.648132 284.0
522.584961 140.0
522.660645 152.0
522.757874 152.0
522.794312 172.0
523.235779 168.0
523.713928 212.0
523.856567 96.0
524.271973 116.0
525.637817 200.0
526.363586 216.0
526.76001 132.0
527.007629 164.0
527.341187 224.0
528.254822 516.0
528.548462 160.0
529.119263 152.0
529.275635 108.0
529.473206 176.0
529.633484 164.0
529.751221 136.0
530.264038 184.0
530.480652 104.0
530.522461 180.0
530.659973 164.0
530.963989 136.0
532.486328 212.0
532.924988 120.0
533.138672 160.0
533.343628 120.0
533.411682 168.0
533.777649 176.0
534.987671 180.0
535.190247 284.0
535.256226 264.0
535.397461 152.0
535.488403 144.0
535.646179 156.0
536.513672 132.0
536.909058 188.0
537.093506 192.0
537.765015 120.0
538.393311 108.0
538.570557 244.0
538.607483 144.0
538.672363 124.0
538.73468 124.0
538.937988 156.0
538.973206 128.0
539.206116 100.0
539.476624 152.0
539.947083 108.0
540.050842 132.0
540.130127 148.0
540.256775 168.0
540.446899 104.0
540.671692 120.0
540.946167 100.0
541.078186 100.0
541.151428 160.0
541.317749 192.0
541.379761 172.0
541.437439 96.0
541.532349 144.0
541.81073 256.0
541.938782 228.0
542.041321 176.0
542.084045 124.0
542.130005 132.0
542.184692 120.0
542.341492 236.0
542.4245 180.0
542.473938 164.0
542.512512 284.0
542.587402 128.0
542.667969 160.0
542.726196 324.0
542.801208 124.0
542.866394 148.0
543.036438 216.0
543.213379 304.0
543.299438 308.0
543.337646 304.0
543.376831 172.0
543.419983 116.0
543.538635 136.0
543.646118 168.0
543.744324 220.0
543.844971 232.0
543.889526 372.0
543.92157 256.0
544.015259 268.0
544.131226 280.0
544.183167 280.0
544.25354 5188.0
544.363586 208.0
544.460815 232.0
544.498291 344.0
544.588501 436.0
544.629578 152.0
544.679565 120.0
544.728455 172.0
544.800293 280.0
544.84729 272.0
544.952454 536.0
545.022827 120.0
545.063965 248.0
545.152039 352.0
545.255066 2264.0
545.43103 356.0
545.481384 296.0
545.528198 384.0
545.551941 264.0
545.602722 540.0
545.621826 548.0
545.639221 572.0
545.701538 524.0
545.757202 356.0
545.806396 420.0
545.836121 456.0
545.878845 404.0
545.946289 708.0
546.006592 448.0
546.054993 468.0
546.154724 1264.0
546.272644 250916.0
546.440002 180.0
546.597229 176.0
546.707092 2296.0
546.778748 756.0
546.85376 812.0
546.968018 324.0
547.051941 13524.0
547.105591 1672.0
547.275208 209724.0
547.402161 344.0
547.4375 212.0
547.466614 268.0
547.567383 192.0
547.709167 200.0
547.76593 664.0
547.83667 416.0
547.970825 268.0
548.051331 392.0
548.126892 492.0
548.181519 364.0
548.276489 70776.0
548.447144 236.0
548.5495 228.0
548.600098 192.0
548.709961 352.0
548.752197 208.0
548.833435 196.0
548.885986 304.0
548.924561 168.0
548.985474 196.0
549.026978 112.0
549.076843 180.0
549.197083 204.0
549.279053 7360.0
549.555481 460.0
549.659729 300.0
549.760254 176.0
549.836792 280.0
549.952576 160.0
550.026672 432.0
550.122803 268.0
550.158508 268.0
550.203613 220.0
550.277466 852.0
550.327393 296.0
550.365051 480.0
550.468323 220.0
550.559753 516.0
550.681885 412.0
550.759277 164.0
550.800232 364.0
550.879272 236.0
550.944336 144.0
551.003906 180.0
551.092834 188.0
551.128723 152.0
551.208008 180.0
551.241821 288.0
551.288147 168.0
551.325439 232.0
551.426025 224.0
551.482666 324.0
551.579651 256.0
551.628113 164.0
551.744751 232.0
551.786804 228.0
551.944153 268.0
552.067139 124.0
552.321289 132.0
552.387939 120.0
552.433289 136.0
552.476501 112.0
552.608765 220.0
552.693359 100.0
552.866943 108.0
553.012085 108.0
553.157959 156.0
553.341675 176.0
553.535706 100.0
554.286255 120.0
555.264587 136.0
555.747314 100.0
556.080017 124.0
556.99469 96.0
558.895569 120.0
559.207642 156.0
559.87146 204.0
560.096069 116.0
560.661926 96.0
562.5271 116.0
562.768616 168.0
563.185181 152.0
563.260803 120.0
564.796143 164.0
564.872437 128.0
565.189941 104.0
565.563171 140.0
566.098206 108.0
566.917664 124.0
568.403931 148.0
568.46405 148.0
574.601685 104.0
582.524231 112.0
595.248169 144.0
667.667786 156.0
708.039368 164.0
710.976318 144.0
715.344849 96.0
725.221741 160.0
729.908386 140.0
764.419312 96.0
787.364868 144.0
790.808167 132.0
795.505981 160.0
801.154175 104.0
827.498535 144.0
828.852051 120.0
894.036011 160.0
896.906738 148.0
931.151123 96.0
954.087769 140.0
958.16803 148.0
1065.194336 116.0
1072.400879 160.0
1091.986084 208.0
1143.381592 152.0
1174.091797 140.0
1238.974609 96.0
1257.424927 140.0
1298.505493 160.0
1317.701782 112.0
1363.230469 160.0
1375.020752 176.0
1464.438232 164.0
1479.947998 160.0
1498.018921 160.0
1506.975708 188.0
1518.517578 168.0
1555.290527 180.0
1567.110107 208.0
1567.906006 164.0
1568.709839 188.0
1597.312134 156.0
1649.579956 140.0
1660.518921 152.0
1676.852417 148.0
1694.986328 176.0
1703.026001 156.0
1710.96936 172.0
1723.390137 148.0
1733.112183 216.0
1735.043213 244.0
1741.573853 164.0
1750.089478 184.0
1752.021606 164.0
1764.030151 140.0
1770.146118 176.0
1779.167725 260.0
1789.146606 168.0
1789.272827 144.0
1811.000122 160.0
1812.889404 156.0
1813.711548 152.0
1817.884155 184.0
1820.35437 172.0
1851.977661 140.0
1853.442627 196.0
1855.41394 164.0
1855.516724 208.0
1855.988281 172.0
1869.333252 144.0
1869.732666 176.0
1874.960205 184.0
1919.649658 172.0
1921.359253 240.0
1928.278809 152.0
1951.733398 224.0
1953.386841 272.0
1955.392944 232.0
1971.982666 140.0
1975.372314 156.0
1994.460205 180.0
