>compound ROSIGLITAZONE MALEATE
>formula C18H19N3O3S
>ionization [M+H]+
>parentmass 358.12198892009053
#inchi InChI=1S/C18H19N3O3S/c1-21(16-4-2-3-9-19-16)10-11-24-14-7-5-13(6-8-14)12-15-17(22)20-18(23)25-15/h2-9,15H,10-12H2,1H3,(H,20,22,23)
#inchikey YASAKCUCGLMORW
#Ion_Source LC-ESI
#Instrument qTof
#Compound_Source Commercial
#PI Dorrestein
#Data_Collector Garg_Neha
#Scan -1
#Precursor_MZ 358.122
#ExactMass 357.115
#Charge 1
#CAS_Number N/A
#Pubmed_ID N/A
#Smiles CN(CCOc1ccc(CC2SC(=O)NC2=O)cc1)c3ccccn3
#INCHI_AUX N/A
#Library_Class 1
#SpectrumID CCMSLIB00000078904
#IonMode Positive
#UpdateWorkflowName UPDATE-SINGLE-ANNOTATED-GOLD
#LibraryQualityString Gold
#TaskID 278b19f5865741e282cec7349aa7e7a1
##Scan# 1076
#SpectrumFile NCP003272_A2_B11_BB8_01_15713.mzXML
#LibraryName NIHcollectionI_05062014.mgf
#MQScore -1
#Organism NIHcollectionI_05062014
#TIC_Query 0
#RT_Query -1
#MZErrorPPM -1
#SharedPeaks 0
#MassDiff 0
#LibMZ -1
#SpecMZ 358.122
#SpecCharge 0
#internalFilename spec-00000.mgf

>collision 10
44.979641 168.0
45.20953 156.0
45.22559 196.0
45.257717 184.0
45.468178 152.0
45.773609 140.0
45.962055 172.0
46.356907 160.0
46.473522 228.0
46.527809 184.0
46.537315 140.0
46.745281 192.0
46.768417 168.0
46.862385 216.0
46.880096 176.0
46.983723 172.0
47.028755 204.0
47.278866 144.0
47.484367 208.0
47.526894 200.0
48.026279 152.0
48.281792 192.0
48.747585 204.0
48.903351 148.0
49.073303 216.0
49.094219 164.0
49.190491 156.0
49.267296 180.0
49.538689 196.0
49.704128 188.0
49.827686 140.0
49.868439 156.0
50.184711 216.0
50.351696 140.0
50.635967 168.0
50.703972 144.0
50.769188 172.0
50.826401 156.0
50.848633 208.0
50.950871 156.0
51.201218 140.0
51.267529 144.0
51.339455 164.0
51.582176 180.0
51.592106 148.0
51.60791 212.0
51.63921 140.0
51.653034 196.0
51.861298 156.0
51.947334 160.0
51.983204 212.0
52.131111 184.0
52.164169 152.0
52.250454 160.0
52.420361 148.0
52.550133 168.0
52.566002 144.0
52.655113 160.0
52.936066 152.0
53.054546 176.0
53.281273 208.0
53.540188 148.0
53.875668 184.0
53.986755 152.0
54.077461 168.0
54.175568 176.0
54.294292 204.0
54.310429 160.0
54.352787 96.0
54.75135 140.0
54.767551 328.0
54.914944 184.0
55.001999 140.0
55.155807 188.0
55.248779 156.0
55.260616 144.0
55.356678 120.0
55.384968 152.0
55.402744 172.0
55.436821 192.0
55.509457 168.0
55.729141 168.0
55.845093 168.0
55.8927 160.0
55.987206 148.0
56.038616 168.0
56.150417 244.0
56.213074 148.0
56.399757 152.0
56.550236 184.0
56.730576 152.0
56.999229 152.0
57.045822 144.0
57.181194 184.0
57.257977 180.0
57.490143 148.0
57.509766 140.0
57.974072 216.0
58.104469 180.0
58.42503 140.0
58.500305 152.0
58.833454 208.0
58.861782 144.0
58.922771 140.0
59.28191 140.0
59.436481 160.0
59.523975 200.0
59.892212 156.0
60.178375 184.0
60.595722 148.0
61.016567 220.0
61.312313 184.0
61.444855 184.0
61.533813 160.0
61.762501 212.0
61.855061 140.0
61.902824 200.0
62.20071 160.0
62.242943 200.0
62.320068 156.0
62.337353 228.0
62.526066 148.0
62.622105 176.0
62.820713 144.0
62.833172 156.0
62.868046 172.0
63.127121 192.0
63.280605 288.0
63.4105 156.0
63.427937 228.0
63.480255 144.0
63.504753 104.0
63.570675 172.0
63.691338 156.0
63.933002 160.0
64.197449 224.0
64.529579 168.0
64.659607 152.0
64.741081 132.0
64.94915 144.0
64.970001 148.0
65.279991 320.0
66.097839 164.0
66.170502 152.0
66.214394 172.0
66.556564 144.0
66.589043 144.0
66.683273 168.0
66.917519 180.0
67.318642 188.0
67.48999 144.0
67.521881 176.0
67.630905 172.0
67.906166 232.0
68.242805 172.0
68.264183 148.0
68.417198 144.0
68.530838 148.0
68.577477 200.0
68.786461 184.0
68.870674 160.0
69.017044 168.0
69.066483 164.0
69.151756 212.0
69.203804 172.0
69.231216 196.0
69.302055 116.0
69.403557 192.0
69.431747 240.0
69.448334 140.0
69.499756 172.0
69.976692 136.0
70.030067 148.0
70.111275 188.0
70.222809 224.0
70.283463 208.0
70.420349 172.0
70.804131 164.0
71.011162 576.0
71.145401 180.0
71.306656 160.0
71.330193 200.0
71.422668 164.0
71.585922 160.0
71.934929 232.0
72.004158 160.0
72.43486 260.0
72.625305 156.0
72.727112 160.0
73.048637 184.0
73.121429 176.0
74.007393 160.0
74.343369 148.0
74.712784 204.0
74.728271 156.0
74.852196 168.0
75.416336 180.0
75.542564 176.0
75.56353 172.0
75.925354 140.0
75.963509 152.0
76.045113 128.0
76.293457 200.0
76.326492 148.0
76.371712 184.0
77.048065 184.0
77.074272 164.0
77.203629 176.0
77.413628 168.0
77.462669 152.0
77.673019 200.0
77.950409 240.0
78.034782 140.0
78.143829 156.0
78.42382 204.0
78.489052 168.0
78.522552 152.0
78.600357 156.0
78.716682 164.0
78.880989 160.0
79.16407 172.0
79.275673 144.0
79.477821 184.0
79.685562 232.0
79.712212 148.0
80.025269 172.0
80.202705 220.0
80.292168 148.0
80.723251 160.0
80.926926 184.0
81.054092 144.0
81.116821 176.0
81.134117 148.0
81.168816 192.0
81.199303 144.0
81.272789 120.0
81.535027 152.0
81.862442 168.0
82.221191 180.0
82.439705 196.0
82.510399 180.0
82.575294 180.0
82.662132 156.0
82.872177 156.0
83.048019 156.0
83.081024 204.0
83.103264 132.0
83.44207 144.0
83.587578 156.0
83.911797 160.0
84.024872 272.0
84.092384 164.0
84.397461 152.0
84.741562 144.0
84.879028 164.0
84.939552 160.0
85.225945 184.0
85.507301 148.0
86.267464 132.0
86.435539 216.0
86.663292 272.0
86.717651 228.0
86.755226 172.0
86.773666 168.0
86.97113 140.0
87.262787 180.0
87.554932 208.0
87.869125 172.0
87.905403 236.0
87.933624 164.0
88.082764 192.0
88.264053 152.0
88.505424 144.0
88.897194 160.0
89.081192 164.0
89.74044 204.0
89.78891 148.0
90.351799 184.0
90.491852 140.0
90.5373 216.0
90.690758 144.0
90.893684 148.0
90.994278 344.0
91.056229 352.0
91.16539 144.0
91.321121 168.0
91.3722 140.0
91.401024 172.0
91.564941 148.0
91.989937 140.0
92.047882 280.0
92.094955 180.0
92.110237 152.0
92.20768 140.0
92.297531 144.0
92.343422 196.0
92.366959 184.0
92.41803 168.0
92.446732 172.0
92.538612 184.0
93.019798 156.0
93.058426 1068.0
93.086998 228.0
93.238762 148.0
93.267593 180.0
93.307961 220.0
93.361801 176.0
93.4272 216.0
93.924194 140.0
94.030075 164.0
94.065887 5096.0
94.103661 144.0
94.201027 164.0
94.645042 208.0
94.841209 220.0
94.968681 156.0
95.063644 884.0
95.277847 148.0
95.419197 184.0
95.441582 152.0
95.633171 148.0
96.262878 168.0
96.280457 156.0
96.51104 144.0
96.685135 152.0
96.992638 216.0
97.029884 156.0
97.272514 224.0
97.461678 200.0
97.482368 180.0
97.609093 188.0
97.760567 208.0
97.844513 160.0
97.912018 180.0
97.93972 160.0
97.961388 152.0
98.094849 160.0
98.484108 144.0
98.516884 144.0
98.772697 188.0
98.996338 196.0
99.438438 196.0
99.801971 152.0
100.037651 172.0
100.107536 108.0
100.15023 152.0
100.319603 204.0
100.519051 148.0
100.820587 144.0
100.98053 152.0
101.198647 144.0
101.300789 148.0
101.441055 196.0
101.768524 124.0
101.84639 144.0
101.948853 148.0
102.250511 200.0
102.274666 180.0
102.484253 164.0
102.667542 148.0
102.971413 204.0
103.048637 140.0
103.265343 140.0
103.761223 176.0
103.820259 168.0
103.863228 172.0
103.881104 180.0
104.000824 200.0
104.03109 180.0
104.052101 160.0
104.183823 168.0
104.285454 196.0
104.511032 136.0
104.543465 176.0
104.98349 176.0
105.046715 168.0
105.07106 476.0
105.09568 224.0
105.234474 184.0
105.297775 168.0
105.314117 152.0
105.348839 156.0
105.36927 192.0
105.408089 160.0
105.43261 140.0
105.461227 176.0
105.493935 160.0
105.94619 192.0
106.065498 5072.0
106.284485 244.0
106.497536 128.0
106.754883 148.0
106.914032 132.0
107.062302 5676.0
107.10836 212.0
107.194603 164.0
107.231026 128.0
107.275787 188.0
107.311882 168.0
107.564926 168.0
107.599678 164.0
107.647171 336.0
107.665001 120.0
107.795898 156.0
107.996437 148.0
108.068283 5448.0
108.145409 164.0
108.251213 148.0
108.316849 176.0
108.379417 168.0
108.412575 196.0
108.529297 168.0
108.601234 260.0
108.794144 116.0
108.914658 172.0
109.01754 156.0
109.075409 2264.0
109.10836 144.0
109.3339 124.0
109.428307 160.0
109.567848 144.0
109.922295 208.0
109.970299 212.0
110.080795 296.0
110.21933 160.0
110.304497 220.0
110.411125 176.0
110.547104 208.0
110.906448 164.0
111.085197 160.0
111.236656 140.0
111.253448 160.0
111.450867 192.0
111.56337 136.0
111.635849 176.0
111.827293 232.0
111.938873 184.0
112.117928 164.0
112.18116 176.0
112.320335 184.0
112.36042 140.0
112.487038 144.0
112.508904 224.0
112.554596 144.0
112.595184 236.0
112.93499 176.0
113.020386 164.0
113.087334 164.0
113.131783 176.0
113.25248 144.0
113.868889 196.0
114.007774 140.0
114.271439 188.0
114.569496 176.0
114.639809 180.0
114.78476 160.0
114.978889 208.0
115.032249 164.0
115.053741 116.0
115.495934 156.0
115.649986 192.0
115.970886 156.0
116.050392 176.0
116.110626 168.0
116.151382 156.0
116.269386 156.0
116.39389 156.0
116.600121 180.0
116.701332 140.0
117.030655 140.0
117.056534 400.0
117.342758 144.0
117.36216 208.0
117.916946 180.0
118.065514 864.0
118.141823 244.0
118.483879 240.0
118.499039 208.0
118.520706 216.0
118.540207 152.0
118.554733 188.0
118.611732 244.0
118.919731 160.0
119.023933 148.0
119.060669 13000.0
119.11515 172.0
119.203033 192.0
119.220184 128.0
119.49823 180.0
119.563042 156.0
119.650108 164.0
119.796021 220.0
119.852661 204.0
119.898422 152.0
120.037941 304.0
120.068565 7916.0
120.201546 160.0
120.37706 168.0
120.414955 132.0
120.452614 164.0
120.651474 168.0
120.738937 184.0
120.831741 112.0
120.968674 180.0
121.0121 144.0
121.076286 11008.0
121.391533 148.0
121.437347 148.0
121.474297 168.0
121.577995 140.0
121.935326 192.0
122.007103 156.0
122.079681 612.0
122.433174 156.0
122.50341 144.0
122.720734 104.0
122.792854 272.0
122.940216 188.0
123.074867 140.0
123.344391 208.0
123.394646 264.0
123.470421 140.0
123.627487 152.0
123.769157 140.0
123.833382 156.0
123.921989 168.0
124.787582 200.0
125.021133 152.0
125.11132 248.0
125.205772 192.0
125.404198 156.0
125.749901 164.0
126.01564 220.0
126.323578 156.0
126.641998 200.0
127.242973 188.0
127.330544 376.0
127.449608 192.0
127.898445 240.0
127.932022 152.0
128.023209 144.0
128.050232 152.0
128.668091 148.0
129.034485 156.0
129.316833 164.0
129.611237 188.0
129.809921 120.0
130.353241 148.0
130.382782 164.0
130.626526 200.0
130.833054 100.0
130.953842 172.0
131.217651 160.0
131.339035 156.0
131.405182 164.0
131.756775 164.0
132.065369 156.0
132.673141 124.0
132.894867 168.0
133.065903 4940.0
133.123169 172.0
133.270721 156.0
133.687393 160.0
133.758102 156.0
134.007462 164.0
134.06897 552.0
134.101944 152.0
134.148041 144.0
134.164185 148.0
134.191849 152.0
134.221817 148.0
134.295624 156.0
134.547134 156.0
134.686798 164.0
134.706528 204.0
134.765457 152.0
134.787338 176.0
134.815262 144.0
134.832565 348.0
134.865265 184.0
134.884415 256.0
134.918259 200.0
134.93573 140.0
134.959396 148.0
134.978897 156.0
134.997971 524.0
135.027405 380.0
135.093155 210044.0
135.157623 232.0
135.218964 100.0
135.251801 144.0
135.274704 328.0
135.312241 208.0
135.353806 292.0
135.378952 108.0
135.440613 264.0
135.47258 3264.0
135.505234 216.0
135.576385 172.0
135.598419 184.0
135.634705 116.0
135.65332 268.0
135.676743 236.0
135.820709 116.0
135.854294 144.0
135.871933 152.0
136.019882 184.0
136.095825 27504.0
136.156937 136.0
136.20459 124.0
136.276001 120.0
136.705383 112.0
136.808197 156.0
136.845367 100.0
136.934204 112.0
136.962479 112.0
136.998337 188.0
137.02388 164.0
137.069122 228.0
137.099579 1328.0
137.170959 104.0
137.200745 196.0
137.228073 104.0
137.256638 96.0
137.331848 100.0
137.379822 140.0
137.812103 156.0
138.065109 376.0
138.123688 172.0
138.212479 156.0
138.386612 212.0
138.461243 148.0
139.182877 172.0
139.810822 152.0
139.890549 164.0
140.057724 160.0
140.206161 140.0
140.236801 148.0
140.600006 208.0
140.966034 160.0
141.673477 220.0
141.88913 156.0
142.23671 128.0
142.254471 180.0
142.87709 168.0
143.277054 168.0
143.830292 156.0
143.980698 156.0
144.568802 148.0
145.066574 624.0
145.155045 120.0
145.491592 192.0
146.071426 520.0
146.268051 152.0
146.76915 144.0
146.973953 184.0
147.078979 216.0
147.116562 144.0
147.145538 156.0
147.20108 204.0
147.519989 164.0
147.732803 196.0
147.851364 152.0
148.029373 260.0
148.074081 144.0
148.343552 132.0
148.483673 168.0
148.507919 148.0
148.685043 152.0
149.04039 160.0
149.937515 156.0
150.178879 140.0
150.33165 144.0
150.603577 188.0
150.816147 188.0
151.020767 276.0
151.060867 584.0
151.479263 156.0
152.063751 232.0
152.39679 144.0
152.441788 116.0
152.867584 128.0
153.874557 144.0
154.044952 144.0
154.072128 152.0
154.551773 196.0
154.610641 116.0
154.985077 204.0
155.108994 152.0
155.68956 184.0
155.806015 168.0
156.415558 156.0
156.814087 160.0
157.038467 164.0
157.40033 140.0
157.558044 140.0
157.957657 148.0
158.010406 144.0
158.500092 132.0
158.651306 208.0
159.080276 156.0
159.436935 236.0
159.941116 156.0
160.023041 216.0
160.406799 192.0
160.716156 152.0
160.796097 176.0
161.410782 168.0
161.621155 140.0
162.054291 148.0
162.097702 136.0
162.226013 140.0
162.40773 176.0
163.228882 152.0
163.867752 152.0
164.0271 112.0
164.081833 148.0
164.696838 180.0
166.340729 148.0
167.757492 132.0
168.041794 248.0
168.191483 196.0
168.235352 148.0
168.40062 180.0
169.054703 152.0
169.235886 160.0
169.494904 184.0
169.645233 152.0
170.003159 156.0
170.773026 168.0
171.509003 140.0
172.015045 180.0
172.048981 256.0
172.462936 160.0
173.057419 176.0
174.091858 108.0
174.890518 152.0
175.132751 156.0
175.306641 160.0
175.375153 168.0
175.696213 180.0
175.849915 140.0
176.719315 168.0
177.036942 144.0
177.177322 160.0
177.66864 136.0
178.023438 228.0
178.084518 148.0
178.340485 120.0
178.504425 144.0
179.053406 368.0
179.289734 208.0
179.601669 140.0
179.9646 144.0
180.042038 152.0
180.15033 228.0
180.207657 180.0
180.523071 172.0
180.865509 148.0
181.382477 148.0
181.78746 156.0
182.157974 140.0
182.362183 144.0
182.57547 156.0
182.620285 176.0
182.682159 232.0
183.040115 156.0
183.08522 144.0
183.786758 184.0
184.010773 144.0
184.249588 140.0
184.802673 304.0
185.314392 320.0
185.377075 184.0
185.495972 188.0
186.747711 168.0
186.783066 144.0
186.872849 160.0
188.011856 264.0
188.164703 168.0
188.676086 152.0
189.154312 144.0
189.251358 152.0
189.376099 236.0
189.417191 144.0
189.771698 212.0
189.902344 240.0
190.00383 116.0
190.511719 152.0
190.789276 144.0
191.065842 104.0
191.309204 152.0
191.331512 116.0
191.565308 236.0
191.736145 160.0
192.271164 152.0
192.493408 276.0
192.751663 172.0
193.19957 144.0
193.418167 196.0
193.650757 152.0
193.670151 144.0
194.232819 360.0
195.175613 100.0
195.686234 156.0
196.164322 172.0
196.229523 144.0
196.642365 220.0
196.980225 140.0
197.103149 200.0
197.37149 204.0
197.483353 152.0
197.763138 184.0
198.085144 180.0
198.171997 200.0
198.560226 144.0
198.878677 148.0
199.173492 160.0
199.2146 184.0
199.249344 152.0
199.437119 156.0
199.465729 176.0
199.667603 140.0
199.876328 176.0
200.673218 104.0
200.721375 144.0
200.997803 156.0
201.082458 164.0
201.102219 164.0
201.531174 116.0
201.715164 172.0
201.945648 140.0
202.340347 140.0
202.986664 184.0
203.322922 168.0
203.59079 220.0
203.639084 176.0
203.744171 168.0
204.025528 168.0
204.110825 180.0
204.264404 204.0
204.452179 228.0
204.477798 204.0
204.547287 144.0
205.312531 148.0
205.68663 164.0
206.153549 192.0
206.755234 180.0
207.104126 144.0
207.418457 128.0
208.657944 120.0
209.212219 180.0
209.278427 168.0
209.36055 128.0
209.435242 156.0
210.893921 172.0
210.963287 144.0
211.257111 172.0
211.643173 148.0
211.948502 156.0
212.730362 164.0
212.933624 140.0
212.975067 148.0
213.017853 144.0
213.110809 128.0
213.223038 240.0
213.471252 176.0
213.70134 116.0
214.02121 220.0
214.111771 160.0
214.198853 172.0
214.294983 168.0
214.347443 172.0
214.989044 180.0
215.310104 156.0
215.441544 156.0
215.511658 164.0
215.637314 168.0
215.722076 140.0
215.818558 168.0
215.98172 136.0
216.42984 192.0
216.556 176.0
216.829193 116.0
217.601761 148.0
218.0065 148.0
218.343369 168.0
218.525742 168.0
218.657944 108.0
219.482986 140.0
219.536072 172.0
219.60733 148.0
220.035889 172.0
220.537994 228.0
220.699493 144.0
221.113632 192.0
221.374161 152.0
221.581497 196.0
222.061707 144.0
222.106934 136.0
222.435562 148.0
222.462769 120.0
222.512741 152.0
223.019913 148.0
223.208008 184.0
223.377533 204.0
223.820969 176.0
224.008606 152.0
224.17247 164.0
224.623169 188.0
224.986725 176.0
225.548325 140.0
225.596146 164.0
225.670654 148.0
226.173477 188.0
226.466904 172.0
226.519073 128.0
226.763519 144.0
226.796494 140.0
226.994354 196.0
227.814407 164.0
229.490402 104.0
229.760162 164.0
229.808365 132.0
229.885193 144.0
230.020996 164.0
230.046906 172.0
230.458908 148.0
231.266327 160.0
231.99585 124.0
232.172211 176.0
232.39061 144.0
233.310837 176.0
234.032242 140.0
234.117157 160.0
234.489792 252.0
234.518875 168.0
234.62294 160.0
234.781982 128.0
235.349075 256.0
235.379608 188.0
236.027405 248.0
236.886932 136.0
237.150909 140.0
237.199951 152.0
237.881622 164.0
237.94754 156.0
238.746246 96.0
239.002701 144.0
239.138107 184.0
239.834198 168.0
240.204208 140.0
240.610947 180.0
240.880219 172.0
241.069962 156.0
241.55928 124.0
241.933243 100.0
242.142227 536.0
242.768188 164.0
244.722687 168.0
244.884613 140.0
245.500183 104.0
245.676346 128.0
246.027771 100.0
246.152756 200.0
246.381882 180.0
246.937729 136.0
247.32312 200.0
247.524963 144.0
248.259888 148.0
248.375931 224.0
248.519882 104.0
248.799561 148.0
249.118393 152.0
249.393265 208.0
249.820908 180.0
250.053513 212.0
250.659286 168.0
250.702499 188.0
251.048248 172.0
251.101273 212.0
251.162811 160.0
251.487793 172.0
251.711945 144.0
251.734055 152.0
252.571564 148.0
253.061981 132.0
253.549896 160.0
253.865219 124.0
254.037369 124.0
254.871307 184.0
255.148041 124.0
255.508408 176.0
255.645874 152.0
255.951462 192.0
256.132996 156.0
256.190338 160.0
256.223358 108.0
256.668396 188.0
257.363983 148.0
257.462677 128.0
257.737701 144.0
257.807983 192.0
257.836761 152.0
258.050934 172.0
258.287567 152.0
259.055817 152.0
259.48526 152.0
259.693695 140.0
260.101196 264.0
262.71344 188.0
262.947906 168.0
263.052948 168.0
263.099731 132.0
263.528595 324.0
263.604462 148.0
264.07077 180.0
264.529327 112.0
264.565857 164.0
264.676453 100.0
265.071106 156.0
265.15213 188.0
265.547668 164.0
265.613068 188.0
266.51178 168.0
266.794556 192.0
267.11322 144.0
267.432098 188.0
267.574341 208.0
267.767456 152.0
267.845612 192.0
267.992218 156.0
268.279022 180.0
268.396393 152.0
268.598572 152.0
269.466949 208.0
270.975189 172.0
271.670227 168.0
272.31192 116.0
272.793304 220.0
273.40506 140.0
274.127777 148.0
274.221832 140.0
274.254791 172.0
274.709839 160.0
275.171844 148.0
276.74765 196.0
277.100037 152.0
277.318726 144.0
277.573425 140.0
277.710205 108.0
277.774445 192.0
278.155884 184.0
278.26413 204.0
278.675598 176.0
278.742432 160.0
278.991699 200.0
279.081482 152.0
279.204498 156.0
280.249756 236.0
280.546356 200.0
280.83313 156.0
280.906494 148.0
281.235443 164.0
281.353668 244.0
281.390411 140.0
281.731049 148.0
281.834625 152.0
282.272491 144.0
282.563477 140.0
283.062195 180.0
283.149353 140.0
283.387115 148.0
283.521149 204.0
283.772156 156.0
283.856354 144.0
284.436768 148.0
285.115234 148.0
285.177063 140.0
285.746002 168.0
286.198395 140.0
286.228699 140.0
286.346558 152.0
286.41391 212.0
286.602386 144.0
287.119293 600.0
287.381439 156.0
288.127075 300.0
288.359314 104.0
288.428406 168.0
288.758575 160.0
288.807831 136.0
289.030304 168.0
289.116272 120.0
289.873444 176.0
290.139282 148.0
290.317535 148.0
290.449677 100.0
290.498322 132.0
290.61264 200.0
291.498871 152.0
292.008789 156.0
292.634918 176.0
293.026611 268.0
293.299225 144.0
294.017212 136.0
294.797485 160.0
294.869263 148.0
295.382629 136.0
295.546356 172.0
295.592224 108.0
295.981049 152.0
297.317963 196.0
297.712738 148.0
298.451538 144.0
298.79892 152.0
298.871155 140.0
298.953766 168.0
299.242889 168.0
299.308319 152.0
299.432281 140.0
299.811249 180.0
300.321503 168.0
300.638885 144.0
300.691498 180.0
301.29895 124.0
301.49881 212.0
302.744202 172.0
302.824432 116.0
302.85849 152.0
302.924286 220.0
302.952026 172.0
302.999298 208.0
303.038513 116.0
303.135651 156.0
305.044525 168.0
305.447876 152.0
306.248444 140.0
306.380829 144.0
306.886169 216.0
306.919769 144.0
307.357056 144.0
307.431976 136.0
307.500122 140.0
307.744476 192.0
307.795166 156.0
307.891144 176.0
307.981689 160.0
308.557434 128.0
309.091217 160.0
309.268646 188.0
309.386536 224.0
309.788208 236.0
309.958557 152.0
310.450317 292.0
310.7229 160.0
311.082306 224.0
311.125793 100.0
311.277466 196.0
311.358246 144.0
311.88559 132.0
311.949677 232.0
313.128754 156.0
313.754456 160.0
314.094452 132.0
314.340698 192.0
314.505157 128.0
315.095886 124.0
315.173279 176.0
315.371185 140.0
315.489227 200.0
315.675232 176.0
315.785858 168.0
316.110321 144.0
316.184631 144.0
316.690918 172.0
317.080658 180.0
317.179901 140.0
317.545105 140.0
317.653503 128.0
317.711792 156.0
318.425262 148.0
318.562988 124.0
319.111847 152.0
319.438263 156.0
319.537872 176.0
319.982208 104.0
320.620361 160.0
321.549164 228.0
321.622559 152.0
321.897705 172.0
322.043152 120.0
322.23587 140.0
322.397583 156.0
322.826538 184.0
323.36319 156.0
324.172546 368.0
324.89679 148.0
325.169495 168.0
326.085327 140.0
326.380127 176.0
326.667847 180.0
327.801941 144.0
327.938904 212.0
328.126343 176.0
328.263367 140.0
328.346283 140.0
328.538544 188.0
328.833344 172.0
328.996979 132.0
329.089661 152.0
329.830231 144.0
330.108032 132.0
331.570312 140.0
332.154877 160.0
332.252838 148.0
332.521332 152.0
333.131348 204.0
333.2258 180.0
333.4729 140.0
333.71283 200.0
333.808502 164.0
333.858276 140.0
334.848175 196.0
335.092224 148.0
335.354584 180.0
335.445709 164.0
336.051117 152.0
336.13501 148.0
336.325653 120.0
336.397797 144.0
337.174164 140.0
337.260376 112.0
337.534027 200.0
337.834656 104.0
337.947906 124.0
338.580627 224.0
338.640747 156.0
339.236481 140.0
339.405121 152.0
339.599487 244.0
340.199982 176.0
340.354492 164.0
340.785217 156.0
340.96283 132.0
342.068695 152.0
342.424896 108.0
342.80899 172.0
343.369354 196.0
344.421234 148.0
344.668762 144.0
344.920074 144.0
345.693054 176.0
345.722656 148.0
345.922516 200.0
346.164764 140.0
346.348328 144.0
346.400208 156.0
346.641022 188.0
347.089539 140.0
347.650543 168.0
347.913208 140.0
348.109985 148.0
348.135986 192.0
348.380432 200.0
349.66391 152.0
350.150238 216.0
350.434723 172.0
350.572174 180.0
350.684418 168.0
351.820923 152.0
351.927399 144.0
352.135742 152.0
352.217926 304.0
352.308197 96.0
352.499603 112.0
352.760956 132.0
352.875641 160.0
352.942932 192.0
353.515259 204.0
353.661224 188.0
353.950592 120.0
353.978912 224.0
354.384857 140.0
354.480347 144.0
355.207336 164.0
355.411316 140.0
355.60553 196.0
355.653687 236.0
355.710205 372.0
355.77594 160.0
355.828674 252.0
355.8974 292.0
355.935059 116.0
356.022247 144.0
356.077362 112.0
356.108307 120.0
356.161865 140.0
356.222321 148.0
356.296448 160.0
356.367188 324.0
356.424408 132.0
356.503296 220.0
356.535004 180.0
356.612854 100.0
356.643555 224.0
356.700592 324.0
356.742126 224.0
356.775543 344.0
356.81134 212.0
356.836884 220.0
356.897186 364.0
356.933716 364.0
356.96994 244.0
356.979706 260.0
356.995911 224.0
357.011017 200.0
357.029785 268.0
357.074188 212.0
357.135437 280.0
357.178558 356.0
357.220551 376.0
357.261139 272.0
357.334351 364.0
357.384094 556.0
357.44162 176.0
357.500702 380.0
357.534027 200.0
357.561523 788.0
357.59787 284.0
357.647156 524.0
357.703064 612.0
357.777924 384.0
357.805389 188.0
357.812531 252.0
357.846802 216.0
357.880676 420.0
357.931061 512.0
357.980957 392.0
357.990936 544.0
358.026733 852.0
358.125031 241760.0
358.268677 180.0
358.384064 224.0
358.425476 296.0
358.476807 1924.0
358.53949 540.0
358.59729 1512.0
358.633911 468.0
358.698212 2488.0
358.75592 8568.0
358.869293 376.0
358.939667 288.0
359.040131 608.0
359.047211 580.0
359.065247 1164.0
359.127258 175080.0
359.381348 464.0
359.459534 296.0
359.500244 168.0
359.543457 104.0
359.682343 436.0
359.746399 1912.0
359.833282 148.0
359.953461 232.0
360.018066 308.0
360.123077 66952.0
360.245361 208.0
360.416351 272.0
360.456757 116.0
360.58725 100.0
360.620972 96.0
360.707367 260.0
360.800354 216.0
360.82724 252.0
360.932648 312.0
360.966156 160.0
361.123901 5940.0
361.19342 228.0
361.201782 284.0
361.240021 320.0
361.280823 280.0
361.349426 352.0
361.416351 396.0
361.454895 440.0
361.500336 308.0
361.54425 384.0
361.592834 608.0
361.657654 208.0
361.730499 156.0
361.760284 232.0
361.893372 96.0
361.924622 132.0
362.041443 164.0
362.137482 212.0
362.293427 168.0
362.36261 436.0
362.439484 212.0
362.472839 184.0
362.607635 212.0
362.761475 180.0
362.849182 136.0
362.88678 132.0
363.178375 144.0
363.258026 128.0
363.426697 140.0
363.467041 108.0
363.553192 164.0
363.584686 132.0
363.631348 124.0
363.727631 104.0
364.068542 104.0
364.437744 112.0
364.624725 112.0
365.855316 104.0
369.411224 124.0
371.042145 140.0
371.324615 112.0
371.549103 152.0
372.408234 184.0
373.113922 96.0
373.230621 148.0
373.945007 164.0
374.336395 112.0
376.197998 108.0
376.954193 164.0
381.781372 104.0
401.201233 176.0
413.589264 100.0
422.10907 144.0
446.638397 144.0
459.023468 160.0
459.619263 144.0
466.626465 152.0
508.555542 136.0
516.505005 156.0
521.106323 140.0
535.000549 148.0
548.29187 100.0
575.867798 148.0
637.629456 148.0
748.359131 268.0
766.627258 144.0
821.937073 176.0
932.121338 228.0
939.494507 224.0
966.924316 180.0
991.506104 160.0
1024.241577 228.0
1077.478516 208.0
1085.883301 228.0
1089.99939 148.0
1106.985352 148.0
1122.534912 164.0
1129.627808 252.0
1136.830322 212.0
1143.766235 236.0
1147.970337 164.0
1151.2229 180.0
1154.189453 208.0
1160.282959 156.0
1165.753662 160.0
1168.412231 140.0
1168.56189 156.0
1176.75415 192.0
1177.758057 172.0
1183.160156 176.0
1189.302246 156.0
1190.002441 212.0
1196.017578 180.0
1203.711426 188.0
1222.253784 144.0
1225.700439 156.0
1226.94812 236.0
1233.950562 168.0
1235.335205 204.0
1239.935425 144.0
1242.494751 176.0
1245.063843 144.0
1254.964478 160.0
1258.77002 160.0
1260.752808 168.0
1261.855469 140.0
1271.701904 180.0
1272.411743 208.0
1273.640259 148.0
1281.942871 228.0
1282.541626 180.0
1283.981812 164.0
1284.744995 144.0
1291.624146 220.0
1292.182129 148.0
1295.525391 152.0
1297.402954 156.0
1299.303467 212.0
1313.11438 156.0
1319.851929 204.0
1323.143921 156.0
1325.954468 216.0
1330.349976 176.0
1333.633179 160.0
1343.098755 168.0
1352.026978 184.0
1360.713013 148.0
1363.886475 176.0
1368.381226 180.0
1370.170898 144.0
1371.136108 204.0
1375.450928 148.0
1377.14917 148.0
1378.264648 172.0
1386.752808 140.0
1391.12915 168.0
1392.866699 152.0
1401.094238 148.0
1401.302734 168.0
1402.174683 140.0
1412.53064 192.0
1416.542969 160.0
1416.625366 184.0
1427.478149 140.0
1430.510132 152.0
1433.85437 172.0
1437.428955 212.0
1439.115234 140.0
1444.735107 140.0
1455.877075 156.0
1457.098755 124.0
1462.925293 148.0
1467.160889 180.0
1471.715698 172.0
1472.143311 216.0
1476.950562 160.0
1478.044556 164.0
1479.138916 224.0
1480.976685 140.0
1487.01062 176.0
1489.590576 180.0
1494.356934 256.0
1495.249512 160.0
1497.744141 208.0
1501.027222 148.0
1502.276611 184.0
1504.059204 256.0
1505.456543 172.0
1506.731079 140.0
1509.675903 160.0
1509.962158 192.0
1513.75415 240.0
1514.72998 168.0
1520.529541 204.0
1527.343506 152.0
1527.613892 192.0
1538.088623 152.0
1538.557007 164.0
1539.578735 120.0
1541.579712 148.0
1544.65332 160.0
1546.185913 148.0
1547.242554 144.0
1551.222534 160.0
1554.327881 180.0
1557.028442 196.0
1557.97876 192.0
1559.675293 140.0
1560.855347 180.0
1568.153076 212.0
1572.798706 196.0
1575.033325 204.0
1575.159668 140.0
1576.036621 160.0
1582.158203 180.0
1586.277466 168.0
1587.17334 192.0
1589.965698 140.0
1591.473877 224.0
1593.173462 220.0
1593.658081 164.0
1594.325562 180.0
1597.466187 228.0
1597.76062 204.0
1598.317505 140.0
1598.707397 156.0
1599.678467 180.0
1600.681641 156.0
1601.557617 140.0
1602.178955 168.0
1602.290527 164.0
1602.84021 200.0
1604.195557 176.0
1608.710205 156.0
1610.890259 172.0
1612.416382 196.0
1614.878906 160.0
1615.078857 236.0
1618.640137 248.0
1623.046265 176.0
1626.593262 240.0
1627.685059 172.0
1628.705078 212.0
1634.823364 208.0
1636.811646 172.0
1643.348511 176.0
1647.797119 156.0
1648.443481 224.0
1651.353882 152.0
1651.523804 212.0
1653.724487 188.0
1654.890259 200.0
1656.777222 140.0
1658.778809 144.0
1659.954468 216.0
1663.678589 240.0
1663.848999 164.0
1666.464233 160.0
1667.40686 176.0
1667.561279 144.0
1669.650635 144.0
1671.936646 148.0
1672.514526 180.0
1673.939331 144.0
1674.900269 152.0
1677.695312 172.0
1677.785034 144.0
1682.157471 148.0
1683.904907 176.0
1684.21521 232.0
1684.288696 140.0
1684.411255 164.0
1687.688354 212.0
1689.119629 224.0
1689.471313 160.0
1689.675903 220.0
1690.976929 212.0
1691.738159 188.0
1691.942871 184.0
1693.187622 140.0
1696.833862 168.0
1700.418457 196.0
1704.138306 244.0
1704.34375 156.0
1706.332764 144.0
1707.401733 156.0
1707.631958 184.0
1709.968628 148.0
1712.866821 192.0
1712.949219 200.0
1715.248169 168.0
1716.262207 160.0
1717.070435 148.0
1718.241699 140.0
1720.50293 180.0
1721.006592 212.0
1721.146973 168.0
1723.459717 228.0
1725.641724 232.0
1725.790527 176.0
1728.139526 144.0
1728.776611 200.0
1730.125854 200.0
1732.27063 156.0
1733.074219 228.0
1733.588013 156.0
1738.505615 160.0
1739.123047 128.0
1739.572266 328.0
1739.684204 164.0
1740.605713 164.0
1741.610596 168.0
1742.632446 212.0
1744.286255 144.0
1747.780762 184.0
1748.827759 160.0
1749.310547 204.0
1750.775879 192.0
1751.675415 152.0
1754.141968 176.0
1756.272583 144.0
1756.61853 168.0
1758.011841 168.0
1758.929932 160.0
1760.023682 176.0
1765.538818 172.0
1766.450439 160.0
1767.119751 152.0
1767.287109 208.0
1767.613403 208.0
1768.174072 184.0
1768.74292 192.0
1771.624756 104.0
1771.824951 156.0
1773.358398 168.0
1781.53125 176.0
1783.539551 168.0
1785.221069 260.0
1785.683594 164.0
1786.120972 144.0
1786.852783 164.0
1787.265015 144.0
1788.342285 144.0
1789.150391 172.0
1790.084961 156.0
1790.598633 196.0
1792.426636 204.0
1792.856445 168.0
1794.095459 188.0
1797.021973 184.0
1797.190674 164.0
1798.920776 148.0
1799.098022 168.0
1801.65686 252.0
1802.518677 200.0
1803.270874 224.0
1803.515991 144.0
1804.445801 144.0
1805.874878 176.0
1807.177612 160.0
1810.182495 140.0
1811.004028 148.0
1811.690186 152.0
1813.2323 224.0
1813.9104 200.0
1814.766602 164.0
1815.538208 176.0
1815.78418 176.0
1817.323486 136.0
1819.169678 196.0
1819.271606 148.0
1821.912598 140.0
1825.652466 192.0
1826.392456 192.0
1828.255615 184.0
1830.068726 152.0
1830.579712 172.0
1831.141724 172.0
1831.388672 140.0
1833.015869 168.0
1834.268799 156.0
1834.405151 160.0
1835.018921 172.0
1836.69043 196.0
1836.971924 236.0
1839.15625 156.0
1841.333496 160.0
1843.435059 180.0
1843.947754 160.0
1844.588867 168.0
1845.69165 192.0
1846.127808 192.0
1846.640991 204.0
1847.213989 196.0
1847.530518 160.0
1851.06543 156.0
1851.339355 160.0
1852.769775 160.0
1852.855469 140.0
1853.129639 144.0
1858.797241 156.0
1858.891724 164.0
1861.747803 112.0
1861.973633 180.0
1862.27417 244.0
1862.90979 216.0
1866.029419 172.0
1866.665771 144.0
1870.339355 172.0
1871.966431 176.0
1872.112915 276.0
1873.189453 216.0
1874.007935 160.0
1875.834961 196.0
1876.561768 216.0
1877.033325 180.0
1880.130859 168.0
1892.44812 208.0
1896.042969 216.0
1896.519653 140.0
1896.597656 252.0
1897.715942 168.0
1898.739136 156.0
1902.305298 196.0
1902.669922 228.0
1907.612915 204.0
1909.012695 156.0
1909.325806 176.0
1909.751953 148.0
1910.195557 168.0
1910.456543 220.0
1910.734863 140.0
1914.82605 140.0
1915.200562 148.0
1916.184937 148.0
1918.947754 164.0
1921.372314 188.0
1923.959839 184.0
1926.357056 144.0
1928.934814 160.0
1930.884644 168.0
1931.094604 224.0
1933.054199 152.0
1933.115479 192.0
1933.395508 144.0
1937.493286 160.0
1939.806763 152.0
1943.788574 144.0
1944.139526 184.0
1945.622925 172.0
1945.772217 152.0
1947.458252 152.0
1948.33667 156.0
1950.401611 192.0
1953.004272 164.0
1954.869385 152.0
1956.14563 164.0
1956.251221 148.0
1957.932983 152.0
1958.442993 188.0
1960.144165 156.0
1960.356445 156.0
1962.2771 156.0
1962.894287 192.0
1963.176514 196.0
1963.308838 184.0
1965.670532 244.0
1965.981812 140.0
1968.321045 208.0
1969.601685 184.0
1969.707642 180.0
1970.838501 176.0
1973.635376 176.0
1977.019531 152.0
1981.983887 264.0
1984.921143 140.0
1985.497559 244.0
1985.896729 180.0
1988.120483 200.0
1991.275146 164.0
1991.905884 148.0
1992.234497 144.0
1992.891968 152.0
1993.354004 144.0
1993.958252 188.0
1994.358276 148.0
1996.220337 168.0
1996.34082 180.0
1997.159058 172.0
1997.230225 152.0
1997.577148 164.0
1999.223145 140.0
1999.774902 148.0
2003.17627 252.0
