>compound Salmeterol
>formula C25H37NO4
>ionization [M+H]+
>parentmass 416.280731
#inchi InChI=1S/C25H37NO4/c27-20-23-18-22(13-14-24(23)28)25(29)19-26-15-7-1-2-8-16-30-17-9-6-12-21-10-4-3-5-11-21/h3-5,10-11,13-14,18,25-29H,1-2,6-9,12,15-17,19-20H2
#inchikey GIIZNNXWQWCKIB
#Ion_Source LC-ESI
#Instrument qTof
#Compound_Source Commercial
#PI Dorrestein
#Data_Collector Garg_Neha
#Scan -1
#Precursor_MZ 416.28
#ExactMass 415.272
#Charge 1
#CAS_Number N/A
#Pubmed_ID N/A
#Smiles OCc1cc(ccc1O)C(O)CNCCCCCCOCCCCc2ccccc2
#INCHI_AUX N/A
#Library_Class 1
#SpectrumID CCMSLIB00000079220
#IonMode Positive
#UpdateWorkflowName UPDATE-SINGLE-ANNOTATED-GOLD
#LibraryQualityString Gold
#TaskID 278b19f5865741e282cec7349aa7e7a1
##Scan# 1207
#SpectrumFile NCP003672_A27B27C27D27_BE4_01_15740.mzXML
#LibraryName NIHcollectionI_05062014.mgf
#MQScore -1
#Organism NIHcollectionI_05062014
#TIC_Query 0
#RT_Query -1
#MZErrorPPM -1
#SharedPeaks 0
#MassDiff 0
#LibMZ -1
#SpecMZ 416.28
#SpecCharge 0
#internalFilename spec-00000.mgf

>collision 10
45.840809 200.0
46.240555 196.0
46.92247 176.0
47.664326 156.0
47.767437 220.0
50.877151 200.0
51.46944 176.0
52.358543 176.0
52.377266 140.0
53.055008 220.0
55.217854 160.0
55.897305 148.0
56.331165 176.0
56.538994 152.0
58.223015 176.0
60.215588 148.0
62.863468 156.0
63.233276 168.0
65.566711 152.0
69.587898 144.0
72.164871 144.0
75.51162 188.0
75.892593 192.0
77.799553 224.0
86.387657 208.0
87.171928 148.0
87.335533 140.0
91.055595 1020.0
91.99398 192.0
92.05571 320.0
94.444016 184.0
95.126083 192.0
95.370834 176.0
95.460266 140.0
96.440903 152.0
97.593605 240.0
98.098053 212.0
98.502136 180.0
100.114632 196.0
100.337791 164.0
104.059685 152.0
104.405396 200.0
105.070328 464.0
105.100021 224.0
105.443092 168.0
105.582115 168.0
106.342209 244.0
106.672905 148.0
107.051483 188.0
109.064529 148.0
109.220474 180.0
110.096191 260.0
115.054184 112.0
115.513336 164.0
116.068291 132.0
116.514458 148.0
117.076523 116.0
118.073189 180.0
118.164833 128.0
118.718262 188.0
119.04348 176.0
119.083954 168.0
120.075523 324.0
121.065697 796.0
122.065811 180.0
122.874329 208.0
124.010941 196.0
124.110558 132.0
124.607864 164.0
125.077087 184.0
125.989143 168.0
127.881699 148.0
128.064072 304.0
129.072906 332.0
130.066223 392.0
131.048737 324.0
131.084824 1732.0
132.085602 228.0
132.441071 204.0
132.706909 160.0
133.064911 3500.0
133.099716 476.0
133.168152 184.0
133.388733 140.0
133.439316 188.0
133.897232 220.0
134.062286 324.0
134.097214 164.0
134.946045 136.0
134.998032 188.0
135.080475 2220.0
136.082825 428.0
136.300781 144.0
139.773209 180.0
140.711288 140.0
142.061188 196.0
142.428162 180.0
143.088516 140.0
144.091003 156.0
144.231934 156.0
144.614624 196.0
144.75827 152.0
145.065353 524.0
145.101318 860.0
146.061264 456.0
146.103119 268.0
147.078125 728.0
148.076767 2972.0
149.027802 208.0
149.083984 840.0
150.091171 1560.0
151.075226 492.0
152.076248 248.0
152.340668 152.0
154.398788 172.0
154.732834 140.0
156.088669 148.0
157.09848 148.0
158.067047 168.0
158.095108 168.0
158.814697 156.0
158.970245 172.0
159.079544 508.0
159.118332 192.0
160.076508 1816.0
161.083923 344.0
161.117996 348.0
162.090271 1584.0
163.093094 132.0
163.116623 228.0
164.079697 144.0
164.106354 1048.0
165.072937 140.0
165.107361 168.0
165.78714 164.0
166.081955 256.0
167.730179 176.0
168.716278 152.0
170.073654 144.0
171.078674 504.0
171.477325 176.0
172.072021 200.0
172.117294 188.0
172.425537 164.0
173.088943 292.0
174.095123 228.0
174.504257 168.0
174.556839 140.0
175.107773 172.0
175.138458 236.0
175.723679 152.0
176.109634 176.0
177.999985 188.0
178.092941 244.0
178.123962 124.0
178.403839 152.0
179.087692 168.0
179.332825 176.0
181.037308 164.0
181.484802 188.0
183.075577 180.0
184.089539 220.0
184.830185 140.0
185.06839 140.0
185.098923 172.0
185.133377 136.0
185.583191 144.0
185.611893 156.0
186.091705 256.0
187.095306 168.0
188.11171 404.0
188.308594 208.0
190.124878 192.0
191.086761 152.0
191.213348 176.0
195.066345 160.0
197.098053 144.0
198.105255 140.0
199.106583 156.0
199.398773 164.0
199.69397 144.0
200.105682 312.0
201.11322 436.0
202.12291 120.0
203.137482 152.0
203.164291 144.0
203.570648 116.0
203.756042 176.0
204.139984 104.0
204.879791 168.0
205.047913 204.0
205.184723 180.0
207.076706 112.0
209.097244 192.0
211.846436 172.0
212.115921 192.0
212.147736 176.0
212.234787 152.0
213.125031 176.0
215.097504 188.0
215.12085 160.0
215.141281 324.0
215.217194 184.0
216.137512 164.0
217.004898 152.0
217.149109 380.0
218.154022 340.0
219.097443 164.0
219.159225 132.0
221.102356 164.0
221.327332 156.0
221.73909 224.0
222.101883 156.0
222.50737 212.0
222.946976 164.0
223.039108 172.0
223.110443 184.0
224.471115 168.0
227.051895 180.0
227.67012 156.0
228.148285 224.0
228.268127 156.0
229.149033 216.0
229.6987 180.0
230.154266 7116.0
230.59848 156.0
231.155746 1556.0
231.232071 104.0
232.169434 11940.0
232.353012 112.0
232.764526 204.0
233.171646 1384.0
233.217194 140.0
234.142105 304.0
234.180573 392.0
234.827835 144.0
235.170792 148.0
236.168671 164.0
239.194107 152.0
240.10611 192.0
240.127701 140.0
240.584366 140.0
243.103836 180.0
246.648117 172.0
247.152435 372.0
248.164948 4284.0
249.168015 368.0
249.21138 156.0
249.909958 184.0
250.222778 116.0
250.803986 160.0
251.081436 188.0
251.173569 168.0
251.747314 216.0
253.049011 160.0
254.146683 144.0
255.318054 208.0
256.879547 140.0
257.533875 164.0
259.034058 168.0
259.489105 148.0
260.018372 156.0
262.13443 176.0
263.146912 164.0
263.195679 188.0
264.035858 208.0
266.169342 252.0
267.08136 148.0
268.025482 196.0
268.087372 152.0
269.637543 176.0
270.100159 120.0
271.116791 144.0
274.796906 152.0
279.155762 120.0
280.12384 164.0
280.173065 160.0
281.057343 160.0
281.163086 224.0
282.095886 108.0
283.088379 252.0
283.116486 172.0
285.136108 152.0
285.50589 172.0
286.089783 348.0
290.114807 156.0
291.095367 160.0
294.586395 184.0
295.544098 156.0
297.173828 300.0
298.173767 208.0
298.390381 148.0
299.77063 192.0
300.101135 136.0
301.102112 156.0
302.103882 184.0
303.593994 200.0
305.963684 152.0
308.116302 408.0
308.197754 128.0
309.112244 136.0
310.124054 212.0
311.636536 164.0
311.938751 168.0
314.10788 192.0
314.206665 156.0
314.584259 184.0
317.148773 196.0
317.443024 184.0
318.269806 140.0
318.440277 176.0
319.510223 160.0
319.602722 184.0
322.116119 152.0
325.116486 180.0
325.985535 180.0
326.129486 136.0
326.416901 160.0
327.125671 152.0
328.141571 172.0
329.097687 160.0
329.682861 148.0
332.097687 152.0
333.313843 180.0
334.433929 228.0
335.009277 168.0
337.103546 204.0
337.681152 172.0
338.21344 160.0
338.240967 236.0
339.013763 172.0
341.182983 156.0
342.146851 192.0
343.067841 140.0
343.145264 148.0
345.368347 144.0
346.860535 148.0
348.67923 152.0
351.681122 216.0
352.226288 172.0
352.265778 144.0
352.693359 148.0
352.996185 164.0
353.19812 180.0
353.269196 144.0
353.67334 184.0
354.181061 192.0
355.239624 176.0
355.757477 200.0
356.638275 124.0
356.862 176.0
357.151581 172.0
359.611969 168.0
362.201965 204.0
362.245209 216.0
363.278534 260.0
364.839325 144.0
366.380585 172.0
367.013245 152.0
367.267151 132.0
369.270142 268.0
370.90506 152.0
371.085236 184.0
371.165771 140.0
371.576141 164.0
373.873962 144.0
374.821075 176.0
378.17334 156.0
378.233673 196.0
379.663452 136.0
379.820068 160.0
380.019379 180.0
380.149841 180.0
380.259064 23912.0
381.263367 5512.0
381.820312 200.0
381.987579 160.0
382.262421 684.0
383.19516 244.0
383.268738 104.0
383.521729 148.0
383.694977 124.0
383.75174 140.0
384.137817 164.0
384.171631 192.0
385.336304 204.0
387.272675 140.0
387.527313 168.0
390.183777 140.0
392.010651 156.0
392.191956 156.0
392.365387 164.0
393.102966 196.0
393.74646 140.0
394.145447 168.0
394.418121 180.0
395.789398 104.0
395.935028 148.0
396.016632 200.0
396.242432 148.0
396.470154 128.0
396.57132 144.0
396.858612 120.0
396.934784 176.0
397.193878 388.0
397.248901 136.0
397.725555 192.0
397.757294 160.0
397.841003 96.0
398.022247 120.0
398.191101 568.0
398.270782 104776.0
398.352814 236.0
398.556244 136.0
398.601746 96.0
398.67453 160.0
398.769867 112.0
398.871582 196.0
398.921143 304.0
399.127594 236.0
399.163696 308.0
399.200653 204.0
399.272766 22364.0
399.669373 96.0
399.750763 172.0
399.825378 208.0
399.869934 204.0
399.968903 112.0
400.020935 96.0
400.12735 228.0
400.276031 3340.0
400.436493 124.0
400.70163 112.0
400.838531 148.0
400.879395 244.0
401.01944 148.0
401.219696 104.0
401.275055 308.0
401.711212 120.0
401.721588 156.0
401.828369 128.0
401.894409 216.0
402.057465 124.0
402.429077 148.0
402.759827 96.0
402.865845 116.0
402.931946 136.0
403.001587 104.0
403.349854 144.0
403.645721 148.0
405.174652 144.0
405.683594 156.0
406.176819 144.0
406.71109 188.0
409.887604 196.0
413.20694 216.0
413.653473 136.0
413.708954 760.0
414.106171 128.0
414.140259 168.0
414.203857 548.0
414.277313 112.0
414.707764 320.0
414.815338 120.0
414.931824 212.0
415.122375 172.0
415.203522 2088.0
415.385132 240.0
415.545258 148.0
415.583435 132.0
415.687256 228.0
415.808289 108.0
415.858521 96.0
416.099426 180.0
416.160706 420.0
416.203674 1060.0
416.280731 68296.0
416.38797 128.0
416.49942 132.0
416.532928 132.0
416.595367 100.0
416.656464 128.0
416.69574 208.0
416.746124 144.0
416.870453 128.0
417.107025 140.0
417.213165 156.0
417.283936 19992.0
417.786438 100.0
417.960419 160.0
418.092072 96.0
418.129486 108.0
418.286957 3844.0
418.916534 108.0
418.978394 160.0
419.123749 120.0
419.283783 452.0
419.515839 96.0
419.548523 140.0
419.707428 104.0
419.736328 200.0
419.851868 240.0
419.94754 188.0
420.015381 136.0
420.08844 140.0
420.178741 244.0
420.352509 144.0
420.845276 104.0
421.276367 148.0
423.143951 120.0
451.244537 156.0
533.911377 252.0
534.173523 144.0
561.164368 144.0
694.248901 156.0
712.287598 132.0
1067.248535 184.0
1199.905762 144.0
1266.932861 220.0
1323.053101 208.0
1339.888428 144.0
1348.709839 216.0
1397.345459 180.0
1459.421753 280.0
1495.514893 160.0
1532.422974 208.0
1537.694458 168.0
1558.296997 224.0
1593.542969 156.0
1627.175293 188.0
1643.497803 168.0
1655.882324 140.0
1675.922852 168.0
1687.733521 180.0
1708.944214 184.0
1714.23877 240.0
1715.771851 148.0
1723.670532 192.0
1729.169922 264.0
1729.385132 212.0
1766.387939 172.0
1806.158569 160.0
1811.364258 204.0
1830.975952 216.0
1832.21106 156.0
1852.423218 160.0
1928.362793 196.0
1935.028442 140.0
1940.626953 172.0
1941.959839 204.0
1948.578735 140.0
1962.237915 180.0
1967.231201 180.0
1971.965698 164.0
1978.971802 212.0
