>compound MLS001401462-01!QUETIAPINE HEMIFUMARATE
>formula C21H25N3O2S
>ionization [M+H]+
>parentmass 384.173615
#inchi InChI=1S/C21H25N3O2S/c25-14-16-26-15-13-23-9-11-24(12-10-23)21-17-5-1-3-7-19(17)27-20-8-4-2-6-18(20)22-21/h1-8,25H,9-16H2
#inchikey URKOMYMAXPYINW
#origInchi InChI=1S/C21H25N3O2S.C4H4O4/c25-14-16-26-15-13-23-9-11-24(12-10-23)21-17-5-1-3-7-19(17)27-20-8-4-2-6-18(20)22-21;5-3(6)1-2-4(7)8/h1-8,25H,9-16H2;1-2H,(H,5,6)(H,7,8)/b;2-1+
#Ion_Source LC-ESI
#Instrument qTof
#Compound_Source NIH Pharmacologically Active Library
#PI Dorrestein
#Data_Collector VP/LMS
#Scan -1
#Precursor_MZ 384.178
#ExactMass 383.167
#Charge 1
#CAS_Number N/A
#Pubmed_ID N/A
#Smiles OCCOCCN1CCN(CC1)C2=Nc3ccccc3Sc4ccccc24.OC(=O)/C=C/C(=O)O
#INCHI_AUX N/A
#Library_Class 1
#SpectrumID CCMSLIB00000084788
#IonMode Positive
#UpdateWorkflowName UPDATE-SINGLE-ANNOTATED-GOLD
#LibraryQualityString Gold
#TaskID d252d724072548979f1f6f1ced849daf
##Scan# 1584
#SpectrumFile p3-A08_GA8_01_18229.mzXML
#LibraryName Pharm_Active_Library.mgf
#MQScore -1
#Organism Pharm_Active_Library
#TIC_Query 0
#RT_Query -1
#MZErrorPPM -1
#SharedPeaks 0
#MassDiff 0
#LibMZ -1
#SpecMZ 384.178
#SpecCharge 0
#internalFilename spec-00000.mgf

>collision 10
44.899975 116.0
45.018753 136.0
45.029434 188.0
45.113617 124.0
45.209923 168.0
45.255436 164.0
45.342506 124.0
45.435032 180.0
45.445309 176.0
45.459183 184.0
45.469921 60.0
45.516907 96.0
45.589447 280.0
45.606918 180.0
45.624393 172.0
45.674149 228.0
45.7024 124.0
45.717987 124.0
45.780476 160.0
45.837055 224.0
45.847836 100.0
45.870266 156.0
45.920639 164.0
45.9496 172.0
45.974606 72.0
46.035355 108.0
46.088383 172.0
46.135342 184.0
46.170971 228.0
46.220551 172.0
46.231377 120.0
46.250324 88.0
46.265217 152.0
46.309902 248.0
46.43367 176.0
46.444088 184.0
46.461723 144.0
46.497005 92.0
46.544518 56.0
46.560814 148.0
46.593414 172.0
46.627384 160.0
46.65593 124.0
46.704887 120.0
46.715767 208.0
46.898235 148.0
46.936409 196.0
47.000519 116.0
47.030544 164.0
47.044193 116.0
47.064339 164.0
47.117943 196.0
47.165379 196.0
47.197216 232.0
47.221832 144.0
47.345005 180.0
47.390209 164.0
47.47657 176.0
47.589092 156.0
47.660515 144.0
47.692123 184.0
47.711369 228.0
47.727871 148.0
47.797398 116.0
47.821419 140.0
47.882362 212.0
47.971561 140.0
47.999134 192.0
48.115036 144.0
48.12608 204.0
48.159225 112.0
48.173038 148.0
48.189617 180.0
48.229694 172.0
48.438229 136.0
48.512081 152.0
48.523174 388.0
48.581421 176.0
48.600845 196.0
48.628601 152.0
48.679966 220.0
48.696632 108.0
48.727196 160.0
48.756374 184.0
48.800858 216.0
48.864838 184.0
48.930325 148.0
48.960884 156.0
49.041695 112.0
49.098858 136.0
49.14489 108.0
49.157448 204.0
49.174194 188.0
49.195099 156.0
49.257973 232.0
49.428543 64.0
49.635857 48.0
49.666714 116.0
49.690559 52.0
49.715816 36.0
49.739155 204.0
49.764526 160.0
49.854851 104.0
49.912483 108.0
49.988445 140.0
50.006741 56.0
50.095451 192.0
50.244888 144.0
50.288715 124.0
50.321098 196.0
50.386066 132.0
50.415741 136.0
50.44825 72.0
50.514713 164.0
50.578392 120.0
50.661942 36.0
50.78952 152.0
50.812218 68.0
50.887341 116.0
50.91584 100.0
50.931465 200.0
50.951351 168.0
50.963829 92.0
51.029289 148.0
51.05085 208.0
51.073605 64.0
51.12767 136.0
51.247288 108.0
51.271511 132.0
51.304295 112.0
51.33709 160.0
51.431252 148.0
51.442673 172.0
51.468372 84.0
51.48167 192.0
51.524075 132.0
51.651306 68.0
51.661316 120.0
51.846027 172.0
51.97723 152.0
52.069832 100.0
52.089943 200.0
52.118675 148.0
52.183357 192.0
52.297215 136.0
52.320393 80.0
52.386898 192.0
52.420856 188.0
52.494377 188.0
52.518894 164.0
52.537647 48.0
52.566051 140.0
52.601143 152.0
52.647346 140.0
52.660343 124.0
52.70224 164.0
52.729694 92.0
52.755714 80.0
52.78463 148.0
52.810661 140.0
52.86998 164.0
52.914852 192.0
52.951054 108.0
52.96368 240.0
53.043789 136.0
53.104687 64.0
53.190296 120.0
53.21788 80.0
53.238209 196.0
53.379169 148.0
53.403893 52.0
53.463543 224.0
53.513008 228.0
53.534878 364.0
53.551243 168.0
53.588772 188.0
53.618999 172.0
53.676228 108.0
53.695187 132.0
53.797325 100.0
53.841129 172.0
53.868881 244.0
53.889336 216.0
53.908333 148.0
53.941948 220.0
53.979961 148.0
53.998852 144.0
54.01506 48.0
54.042858 168.0
54.08091 200.0
54.108723 196.0
54.202461 60.0
54.212719 96.0
54.330826 124.0
54.341755 164.0
54.460667 108.0
54.589996 200.0
54.601761 96.0
54.63118 160.0
54.694458 128.0
54.7239 204.0
54.744514 144.0
54.778389 128.0
54.790176 116.0
54.818172 184.0
54.846172 156.0
54.885979 88.0
54.89925 204.0
54.939075 100.0
54.964157 128.0
55.002697 140.0
55.113293 148.0
55.16354 140.0
55.21973 152.0
55.247833 144.0
55.264107 132.0
55.324787 180.0
55.39439 184.0
55.496651 172.0
55.555973 148.0
55.579712 140.0
55.640568 164.0
55.683628 176.0
55.695511 208.0
55.768318 116.0
55.799538 92.0
55.835224 148.0
55.850098 152.0
55.939377 140.0
55.961708 216.0
55.973621 164.0
55.997253 184.0
56.021282 132.0
56.036179 116.0
56.080887 144.0
56.095791 212.0
56.198696 224.0
56.297215 116.0
56.34053 124.0
56.384007 128.0
56.449642 136.0
56.493019 176.0
56.557362 124.0
56.579216 20.0
56.726627 180.0
56.764111 104.0
56.833111 68.0
56.843616 60.0
56.855892 200.0
56.88414 220.0
56.975746 144.0
57.03344 224.0
57.049171 172.0
57.064419 128.0
57.095123 288.0
57.145634 108.0
57.183064 124.0
57.196804 152.0
57.22089 168.0
57.422813 120.0
57.447289 124.0
57.49221 136.0
57.502777 168.0
57.634159 96.0
57.65078 120.0
57.709732 168.0
57.75359 36.0
57.805027 188.0
57.833782 228.0
57.84589 64.0
57.953419 124.0
58.092899 148.0
58.299393 180.0
58.32523 128.0
58.360199 32.0
58.415737 172.0
58.428638 180.0
58.498642 172.0
58.559551 280.0
58.602203 240.0
58.666214 204.0
58.681461 176.0
58.70557 212.0
58.769924 144.0
58.780605 96.0
58.801971 144.0
58.834026 32.0
58.859982 356.0
58.873726 148.0
58.9333 124.0
58.97303 184.0
59.00666 136.0
59.066303 136.0
59.123161 124.0
59.190269 148.0
59.222431 136.0
59.245407 116.0
59.259197 184.0
59.295975 128.0
59.392567 168.0
59.410294 216.0
59.446266 184.0
59.526089 176.0
59.565388 116.0
59.585995 152.0
59.655151 152.0
59.687344 112.0
59.766552 184.0
59.82283 196.0
59.909065 140.0
59.976868 196.0
60.007557 128.0
60.041668 148.0
60.158894 152.0
60.195946 228.0
60.352013 120.0
60.386036 120.0
60.402382 148.0
60.420067 44.0
60.485062 140.0
60.505184 132.0
60.522217 196.0
60.568676 132.0
60.647701 144.0
60.661652 148.0
60.722122 132.0
60.755226 164.0
60.773315 144.0
60.84626 216.0
60.905273 136.0
61.140041 144.0
61.152493 112.0
61.247475 120.0
61.330055 192.0
61.372147 52.0
61.38306 184.0
61.448574 180.0
61.470417 96.0
61.520363 224.0
61.545044 188.0
61.598442 144.0
61.618752 120.0
61.643753 164.0
61.656254 180.0
61.720345 192.0
61.739113 120.0
61.825153 60.0
61.906261 232.0
61.970783 60.0
61.992718 176.0
62.008194 128.0
62.028767 124.0
62.0425 184.0
62.061691 136.0
62.133835 136.0
62.144821 136.0
62.162079 76.0
62.207855 192.0
62.304962 104.0
62.331673 200.0
62.349682 140.0
62.435425 112.0
62.468407 144.0
62.492054 160.0
62.581768 144.0
62.624287 116.0
62.660519 120.0
62.7472 160.0
62.774006 116.0
62.916008 124.0
63.001289 116.0
63.034317 168.0
63.045528 180.0
63.104752 224.0
63.181511 96.0
63.247974 208.0
63.271721 112.0
63.288521 144.0
63.304443 192.0
63.501354 144.0
63.503418 184.0
63.549076 188.0
63.599861 60.0
63.614147 100.0
63.717373 224.0
63.77776 204.0
63.800014 188.0
63.91087 188.0
64.000481 160.0
64.083305 236.0
64.170967 80.0
64.212425 204.0
64.273048 200.0
64.311348 180.0
64.34008 148.0
64.370819 176.0
64.442177 212.0
64.472656 168.0
64.519012 116.0
64.566513 232.0
64.608566 108.0
64.622963 284.0
64.655487 136.0
64.730209 192.0
64.744621 180.0
64.815109 164.0
64.844978 156.0
64.864792 176.0
64.916092 160.0
64.955711 132.0
65.102211 180.0
65.108521 176.0
65.150429 236.0
65.189713 188.0
65.215103 180.0
65.327263 176.0
65.418991 84.0
65.43187 184.0
65.480179 88.0
65.595047 180.0
65.628754 216.0
65.696175 208.0
65.770401 136.0
65.868896 184.0
65.987778 236.0
66.009506 60.0
66.037003 148.0
66.049942 148.0
66.087151 164.0
66.103844 188.0
66.16394 196.0
66.478569 168.0
66.496078 172.0
66.510124 192.0
66.544212 212.0
66.589684 152.0
66.605927 136.0
66.676437 200.0
66.688507 228.0
66.768456 188.0
66.783096 128.0
66.81443 204.0
66.840904 180.0
66.934448 92.0
67.006111 188.0
67.053368 172.0
67.074554 192.0
67.12999 164.0
67.160973 140.0
67.216446 292.0
67.266121 164.0
67.304588 164.0
67.330719 168.0
67.347054 100.0
67.389526 160.0
67.42057 216.0
67.469604 108.0
67.485954 140.0
67.503944 80.0
67.569366 96.0
67.587364 124.0
67.618462 144.0
67.669205 52.0
67.725349 308.0
67.749451 96.0
67.816635 212.0
67.854057 160.0
67.908455 116.0
67.924858 148.0
67.946991 136.0
67.988846 168.0
68.039726 80.0
68.08242 120.0
68.103775 168.0
68.137764 196.0
68.156342 212.0
68.370117 96.0
68.422791 184.0
68.452431 168.0
68.54084 160.0
68.584229 152.0
68.600708 144.0
68.612251 172.0
68.661652 200.0
68.666565 192.0
68.687981 152.0
68.699829 156.0
68.727707 184.0
68.811882 284.0
68.828392 60.0
68.94072 204.0
69.000221 60.0
69.021652 96.0
69.04245 156.0
69.182114 160.0
69.197105 108.0
69.213661 172.0
69.264999 156.0
69.347847 136.0
69.414162 136.0
69.432663 204.0
69.450645 140.0
69.548004 332.0
69.60997 232.0
69.64817 176.0
69.669762 140.0
69.764488 140.0
69.80439 200.0
69.856453 224.0
69.922508 100.0
69.960793 116.0
70.060715 112.0
70.079041 56.0
70.167374 188.0
70.177956 128.0
70.274117 208.0
70.394295 88.0
70.578102 184.0
70.603409 212.0
70.700218 76.0
70.715279 200.0
70.752365 128.0
70.78392 48.0
70.812386 176.0
70.86097 184.0
70.909561 104.0
70.963203 152.0
71.00177 188.0
71.035316 140.0
71.100754 152.0
71.127609 136.0
71.189728 140.0
71.208199 184.0
71.263634 112.0
71.287163 124.0
71.376251 156.0
71.414932 204.0
71.431755 132.0
71.448875 208.0
71.476944 232.0
71.489906 196.0
71.527672 156.0
71.551826 148.0
71.589966 148.0
71.630386 148.0
71.669136 48.0
71.822853 176.0
71.858376 184.0
71.95195 164.0
72.069023 168.0
72.118027 148.0
72.266846 76.0
72.299995 144.0
72.348083 116.0
72.410736 168.0
72.468056 196.0
72.495789 136.0
72.519165 216.0
72.62429 192.0
72.638977 208.0
72.705727 144.0
72.744766 132.0
72.836975 172.0
72.850052 220.0
72.90612 152.0
72.926514 56.0
73.021729 52.0
73.050644 196.0
73.086372 228.0
73.118706 120.0
73.13913 188.0
73.166367 140.0
73.179985 92.0
73.236183 112.0
73.283882 104.0
73.335007 152.0
73.363983 152.0
73.375916 160.0
73.480675 180.0
73.495308 168.0
73.5448 124.0
73.609673 116.0
73.628456 180.0
73.669449 128.0
73.719002 108.0
73.753181 152.0
73.816437 156.0
73.850639 224.0
73.874588 132.0
73.943031 128.0
73.958916 128.0
73.975555 204.0
74.10228 64.0
74.117706 60.0
74.210258 84.0
74.242844 156.0
74.320854 196.0
74.335472 116.0
74.371513 184.0
74.413437 180.0
74.453926 148.0
74.469383 104.0
74.505455 184.0
74.692833 164.0
74.73584 204.0
74.823616 152.0
74.878723 208.0
74.942459 132.0
74.973473 220.0
75.002571 168.0
75.045876 160.0
75.15799 144.0
75.283638 116.0
75.304726 128.0
75.323723 184.0
75.465431 120.0
75.541527 68.0
75.562286 144.0
75.598625 148.0
75.66613 160.0
75.683441 140.0
75.709419 56.0
75.725006 220.0
75.737129 96.0
75.828041 224.0
75.919029 176.0
75.953796 248.0
76.051376 168.0
76.234833 152.0
76.283722 132.0
76.416763 112.0
76.488983 232.0
76.504654 236.0
76.574303 128.0
76.618874 136.0
76.67012 76.0
76.741592 388.0
76.800888 116.0
76.841011 196.0
76.916046 44.0
76.940483 152.0
76.954453 128.0
76.996361 180.0
77.176353 104.0
77.192085 148.0
77.213074 220.0
77.321541 192.0
77.424835 124.0
77.47213 268.0
77.540771 112.0
77.565002 160.0
77.593048 144.0
77.615845 184.0
77.629875 184.0
77.668457 60.0
77.708801 160.0
77.751671 160.0
77.796555 184.0
77.991539 124.0
78.074165 228.0
78.099617 132.0
78.156845 152.0
78.204361 168.0
78.229309 232.0
78.320572 200.0
78.354042 204.0
78.468597 148.0
78.531265 164.0
78.574417 132.0
78.623825 124.0
78.643234 52.0
78.684227 164.0
78.819839 240.0
78.846344 176.0
78.879929 152.0
78.932968 128.0
78.948883 52.0
79.016098 208.0
79.028481 204.0
79.045113 252.0
79.072723 192.0
79.106354 120.0
79.143532 196.0
79.499825 164.0
79.533928 244.0
79.560173 64.0
79.622025 168.0
79.679161 108.0
79.702263 148.0
79.742966 128.0
79.826691 208.0
79.904358 152.0
79.931 248.0
80.098991 232.0
80.139969 172.0
80.196991 180.0
80.22908 220.0
80.242691 236.0
80.266518 148.0
80.35392 160.0
80.366409 132.0
80.598526 96.0
80.641418 176.0
80.698624 80.0
80.739746 232.0
80.796989 96.0
80.843506 164.0
80.861404 128.0
80.906151 184.0
80.922264 92.0
80.959869 80.0
81.008232 200.0
81.020767 180.0
81.04406 144.0
81.139053 212.0
81.174057 140.0
81.226921 144.0
81.313049 204.0
81.370491 132.0
81.403786 152.0
81.420769 148.0
81.544731 216.0
81.577087 76.0
81.643959 208.0
81.746147 184.0
81.90004 176.0
81.9244 124.0
81.996475 128.0
82.106445 112.0
82.182213 152.0
82.328423 224.0
82.366348 172.0
82.460304 120.0
82.486877 188.0
82.530807 152.0
82.572395 128.0
82.67437 236.0
82.717148 140.0
82.778702 180.0
82.820358 148.0
82.834846 168.0
82.876518 36.0
82.930885 144.0
82.96714 204.0
83.025162 108.0
83.042274 212.0
83.061432 136.0
83.172119 104.0
83.261086 132.0
83.30468 56.0
83.319214 108.0
83.402344 176.0
83.424614 36.0
83.450066 136.0
83.508255 136.0
83.528267 92.0
83.590126 64.0
83.63562 188.0
83.652008 48.0
83.675674 76.0
83.749367 180.0
83.781296 120.0
83.877884 152.0
83.941689 100.0
84.001877 148.0
84.094933 40.0
84.129616 136.0
84.171608 192.0
84.200829 188.0
84.228226 152.0
84.301308 108.0
84.325989 284.0
84.370758 40.0
84.38356 204.0
84.451218 152.0
84.495125 168.0
84.584793 92.0
84.623238 176.0
84.704384 180.0
84.745949 164.0
84.793083 72.0
84.826584 144.0
84.844917 204.0
84.877922 168.0
84.934776 120.0
85.065056 208.0
85.131149 240.0
85.19928 172.0
85.422691 92.0
85.539314 60.0
85.616646 212.0
85.629539 152.0
85.642433 116.0
85.747452 152.0
85.808281 168.0
85.832253 172.0
85.885735 156.0
85.931854 108.0
86.09613 180.0
86.142311 120.0
86.168175 136.0
86.242088 156.0
86.303093 240.0
86.41407 140.0
86.436104 132.0
86.473282 80.0
86.489944 128.0
86.621414 188.0
86.673286 204.0
86.686256 152.0
86.702934 124.0
86.715912 124.0
86.734444 200.0
86.751129 48.0
86.790062 72.0
86.830856 180.0
86.860779 208.0
86.86795 28.0
86.873268 208.0
86.888359 48.0
86.951447 172.0
87.014557 144.0
87.081413 60.0
87.149414 172.0
87.170586 256.0
87.192886 152.0
87.235634 136.0
87.278397 200.0
87.317444 80.0
87.356506 72.0
87.375107 132.0
87.403015 116.0
87.516556 156.0
87.581001 220.0
87.659988 100.0
87.686073 168.0
87.721489 196.0
87.785439 160.0
87.862473 140.0
87.867218 84.0
87.873383 152.0
87.888771 92.0
87.945328 124.0
88.000221 188.0
88.031204 120.0
88.048012 76.0
88.096573 136.0
88.126465 280.0
88.154495 100.0
88.210564 96.0
88.225754 280.0
88.242348 172.0
88.279434 220.0
88.339592 208.0
88.380112 164.0
88.498672 176.0
88.543617 136.0
88.611046 208.0
88.648521 176.0
88.671822 204.0
88.697433 168.0
88.834137 164.0
88.855392 320.0
88.908455 160.0
88.933586 204.0
88.995537 180.0
89.111984 132.0
89.125137 108.0
89.179642 112.0
89.204071 176.0
89.256714 72.0
89.269882 112.0
89.333824 56.0
89.395241 168.0
89.409088 324.0
89.459908 192.0
89.53804 180.0
89.578545 236.0
89.62941 140.0
89.670868 124.0
89.68972 216.0
89.710068 140.0
89.759476 172.0
89.923599 104.0
89.999107 132.0
90.126961 116.0
90.208817 144.0
90.254189 344.0
90.312813 120.0
90.336388 216.0
90.363892 208.0
90.386597 120.0
90.439583 100.0
90.473656 160.0
90.50206 216.0
90.520996 148.0
90.6157 132.0
90.835602 156.0
90.922882 156.0
90.957047 148.0
91.02729 308.0
91.086166 160.0
91.120361 40.0
91.183067 132.0
91.291435 216.0
91.337074 124.0
91.403664 96.0
91.445534 112.0
91.481697 196.0
91.513428 228.0
91.567383 80.0
91.634155 144.0
91.918152 228.0
91.946777 44.0
91.965858 260.0
92.004608 188.0
92.020767 136.0
92.042732 196.0
92.051735 204.0
92.076599 172.0
92.099518 236.0
92.128166 172.0
92.2715 152.0
92.510635 72.0
92.545097 192.0
92.598602 208.0
92.709892 124.0
92.819092 100.0
92.955284 156.0
92.973015 152.0
93.091583 124.0
93.160721 64.0
93.187622 220.0
93.218361 152.0
93.262566 112.0
93.287552 132.0
93.381775 240.0
93.531853 104.0
93.572273 164.0
93.620415 176.0
93.712875 144.0
93.739853 136.0
93.805382 128.0
93.998245 152.0
94.068634 204.0
94.146889 152.0
94.314972 208.0
94.330437 148.0
94.343964 196.0
94.396172 188.0
94.423241 68.0
94.539322 104.0
94.580009 176.0
94.616745 148.0
94.661278 112.0
94.758125 184.0
94.791061 140.0
94.880219 224.0
94.901543 224.0
94.958908 268.0
95.050896 112.0
95.074188 156.0
95.088905 192.0
95.118828 92.0
95.184837 180.0
95.21785 100.0
95.239212 224.0
95.280006 224.0
95.328346 176.0
95.433548 152.0
95.464661 204.0
95.495773 148.0
95.511337 124.0
95.556076 60.0
95.63002 120.0
95.672844 224.0
95.787743 88.0
95.859825 136.0
95.889061 64.0
95.943634 268.0
95.980682 60.0
96.010498 184.0
96.041054 188.0
96.04612 180.0
96.063156 152.0
96.080002 908.0
96.135994 176.0
96.21286 152.0
96.248001 88.0
96.287056 116.0
96.331978 236.0
96.35817 208.0
96.388641 64.0
96.45118 124.0
96.476593 36.0
96.523514 224.0
96.590012 164.0
96.646744 308.0
96.725021 128.0
96.760262 196.0
96.807251 180.0
96.909111 152.0
96.934578 124.0
97.024742 176.0
97.056114 128.0
97.077232 140.0
97.237762 244.0
97.283691 152.0
97.32296 120.0
97.387764 180.0
97.470276 208.0
97.539062 160.0
97.639336 216.0
97.670807 228.0
97.753494 160.0
97.79673 116.0
97.838066 172.0
97.912895 216.0
97.999565 120.0
98.045944 224.0
98.115845 180.0
98.137535 212.0
98.271866 188.0
98.289413 172.0
98.396179 124.0
98.431534 136.0
98.449303 152.0
98.471031 180.0
98.494202 208.0
98.527901 172.0
98.615257 140.0
98.637001 124.0
98.669571 184.0
98.768555 128.0
98.776314 88.0
98.782295 168.0
98.898094 136.0
98.933723 156.0
98.97332 140.0
99.019859 112.0
99.052536 76.0
99.073784 160.0
99.215034 216.0
99.245338 140.0
99.339966 188.0
99.385513 188.0
99.403458 132.0
99.580139 188.0
99.646912 372.0
99.675499 168.0
99.691399 208.0
99.719215 168.0
99.784813 208.0
99.824585 160.0
99.846458 96.0
99.987709 168.0
100.07872 172.0
100.184837 172.0
100.220695 152.0
100.264061 152.0
100.294434 128.0
100.31636 280.0
100.350586 164.0
100.394119 152.0
100.431519 228.0
100.439377 172.0
100.446838 92.0
100.52179 172.0
100.567688 32.0
100.785362 224.0
100.837318 132.0
100.925072 272.0
100.963272 172.0
101.063286 168.0
101.085297 168.0
101.099304 152.0
101.121323 136.0
101.201393 56.0
101.24144 100.0
101.27549 184.0
101.312759 240.0
101.369644 120.0
101.383675 176.0
101.401711 148.0
101.425766 96.0
101.487907 48.0
101.51973 120.0
101.566124 84.0
101.600227 152.0
101.635544 172.0
101.669807 124.0
101.696541 60.0
101.712601 120.0
101.735489 304.0
101.75074 152.0
101.827042 192.0
101.873016 180.0
101.979736 164.0
102.038033 188.0
102.056129 144.0
102.086243 152.0
102.094231 148.0
102.277008 216.0
102.380104 176.0
102.42038 152.0
102.446571 184.0
102.48082 120.0
102.502983 40.0
102.593681 124.0
102.617874 192.0
102.640053 84.0
102.700554 172.0
102.724754 144.0
102.797386 180.0
103.086861 224.0
103.231705 188.0
103.300468 152.0
103.340927 200.0
103.385445 320.0
103.417824 128.0
103.431999 124.0
103.484634 144.0
103.505608 144.0
103.553482 220.0
103.600067 148.0
103.618301 192.0
103.754089 152.0
103.78653 80.0
103.814919 148.0
103.861565 216.0
103.908218 92.0
103.938652 172.0
103.977364 156.0
103.995476 140.0
104.034042 180.0
104.04921 140.0
104.103073 136.0
104.145721 184.0
104.180794 136.0
104.202606 160.0
104.255432 76.0
104.289986 180.0
104.363167 124.0
104.458755 76.0
104.50351 212.0
104.58329 156.0
104.641907 192.0
104.680969 152.0
104.703201 196.0
104.764099 124.0
104.900635 156.0
105.076485 208.0
105.100502 196.0
105.13723 148.0
105.165802 64.0
105.213234 68.0
105.305679 220.0
105.380226 148.0
105.406784 144.0
105.441528 196.0
105.511024 180.0
105.578499 232.0
105.625542 92.0
105.643951 92.0
105.707375 164.0
105.76059 120.0
105.803322 196.0
105.836334 208.0
105.850662 160.0
105.864998 208.0
105.881691 188.0
105.975609 132.0
106.008392 164.0
106.053162 204.0
106.172394 92.0
106.25444 88.0
106.277008 132.0
106.445328 196.0
106.463806 340.0
106.511047 176.0
106.638435 220.0
106.741226 64.0
106.774124 168.0
106.872864 48.0
106.891426 204.0
106.921005 224.0
106.951614 212.0
107.016129 212.0
107.057945 228.0
107.126091 40.0
107.144638 64.0
107.165237 228.0
107.235298 144.0
107.280647 156.0
107.295082 124.0
107.356934 100.0
107.402313 224.0
107.437378 264.0
107.471237 176.0
107.48996 160.0
107.521973 132.0
107.573578 136.0
107.60041 224.0
107.720192 132.0
107.734993 144.0
107.751175 224.0
107.773903 196.0
107.804901 184.0
107.827637 124.0
107.899979 172.0
107.970284 196.0
107.990967 120.0
108.01992 40.0
108.12571 156.0
108.16684 172.0
108.206177 168.0
108.226875 196.0
108.262077 140.0
108.289001 92.0
108.363579 60.0
108.533531 124.0
108.575005 148.0
108.653831 64.0
108.711929 124.0
108.840622 156.0
108.861389 228.0
108.898773 176.0
108.940315 140.0
109.015114 164.0
109.094093 172.0
109.189735 192.0
109.210541 52.0
109.256302 156.0
109.344185 204.0
109.38324 172.0
109.41655 148.0
109.445694 276.0
109.541496 56.0
109.570663 136.0
109.635254 56.0
109.683838 232.0
109.739479 188.0
109.774925 204.0
109.795998 112.0
109.814545 124.0
109.900742 164.0
109.906837 216.0
109.925117 76.0
109.996078 160.0
110.048264 80.0
110.083763 200.0
110.133888 172.0
110.194466 160.0
110.261169 200.0
110.284325 132.0
110.351219 148.0
110.416039 132.0
110.439049 112.0
110.503899 156.0
110.568764 152.0
110.686852 196.0
110.736252 68.0
110.792809 160.0
110.945793 176.0
111.023376 164.0
111.101357 164.0
111.316681 140.0
111.34446 124.0
111.367569 196.0
111.386467 192.0
111.547943 204.0
111.613441 160.0
111.651299 248.0
111.73333 168.0
111.813286 148.0
111.842751 192.0
111.859596 136.0
112.071487 176.0
112.124977 232.0
112.167137 128.0
112.192429 160.0
112.213516 160.0
112.323174 180.0
112.363251 132.0
112.393333 172.0
112.4561 176.0
112.508873 228.0
112.608116 220.0
112.658813 176.0
112.684158 120.0
112.750511 192.0
112.765427 204.0
112.796165 152.0
112.838448 260.0
112.887886 136.0
112.92881 408.0
112.965332 336.0
113.005524 160.0
113.234146 188.0
113.310402 176.0
113.337944 180.0
113.388802 132.0
113.426956 104.0
113.501152 168.0
113.590233 184.0
113.637344 172.0
113.757866 72.0
113.77697 108.0
113.821564 200.0
113.859787 52.0
113.874649 216.0
113.910759 192.0
113.937866 184.0
114.051003 144.0
114.092361 388.0
114.112648 172.0
114.221107 188.0
114.329613 112.0
114.374306 192.0
114.438171 176.0
114.459465 124.0
114.544655 64.0
114.61496 156.0
114.676758 152.0
114.700539 180.0
114.725784 96.0
114.870789 156.0
114.917053 164.0
115.003082 200.0
115.057373 576.0
115.101288 180.0
115.139725 240.0
115.22303 156.0
115.248665 116.0
115.358047 244.0
115.398285 156.0
115.41539 212.0
115.432495 136.0
115.466713 144.0
115.481682 308.0
115.515907 140.0
115.541573 96.0
115.610046 112.0
115.644287 172.0
115.672112 228.0
115.695343 136.0
115.714928 180.0
115.836998 184.0
115.905556 96.0
115.993423 132.0
116.1521 220.0
116.199295 124.0
116.227951 224.0
116.298965 196.0
116.3302 132.0
116.37468 156.0
116.461945 204.0
116.610863 180.0
116.734123 196.0
116.770683 132.0
116.798637 148.0
116.891151 156.0
116.908363 124.0
116.929886 124.0
116.959099 196.0
116.981544 100.0
117.009529 120.0
117.051514 144.0
117.148895 200.0
117.190445 172.0
117.278801 148.0
117.321915 208.0
117.339157 188.0
117.390846 136.0
117.412468 168.0
117.604073 188.0
117.682205 36.0
117.83651 180.0
117.883644 124.0
117.915375 136.0
117.93927 128.0
118.006287 228.0
118.065445 512.0
118.148575 160.0
118.220428 196.0
118.410942 128.0
118.436531 196.0
118.558258 164.0
118.607628 200.0
118.642792 188.0
118.709999 160.0
118.874863 76.0
118.911758 100.0
118.937805 112.0
118.962921 168.0
119.007271 60.0
119.073204 480.0
119.211456 168.0
119.263931 136.0
119.306404 216.0
119.352745 180.0
119.404938 108.0
119.422333 36.0
119.450607 132.0
119.502823 220.0
119.5681 144.0
119.583336 128.0
119.609459 204.0
119.722672 120.0
119.803261 176.0
119.89695 124.0
119.916565 244.0
119.989555 116.0
120.036469 124.0
120.058098 144.0
120.090988 144.0
120.108437 144.0
120.13707 284.0
120.20681 180.0
120.241531 124.0
120.276329 216.0
120.595345 180.0
120.634689 176.0
120.706841 152.0
120.798698 160.0
120.879646 120.0
121.105141 184.0
121.131424 124.0
121.197151 144.0
121.401764 184.0
121.575325 328.0
121.646736 140.0
121.675278 148.0
121.710403 156.0
121.76091 132.0
121.807037 144.0
121.8312 188.0
121.907372 144.0
121.932274 168.0
122.064171 148.0
122.119156 104.0
122.156548 200.0
122.248955 88.0
122.403046 72.0
122.444885 156.0
122.561638 72.0
122.594688 196.0
122.625038 244.0
122.645378 136.0
122.669624 156.0
122.76664 184.0
122.810745 128.0
122.854858 120.0
122.936501 132.0
123.02478 204.0
123.091019 176.0
123.135185 176.0
123.185989 148.0
123.226402 176.0
123.266899 148.0
123.303093 108.0
123.421059 224.0
123.428261 200.0
123.479958 132.0
123.526405 152.0
123.570656 172.0
123.608269 192.0
123.630394 52.0
123.681297 132.0
123.723358 172.0
123.766296 264.0
123.871727 124.0
123.940407 112.0
123.9785 168.0
124.102211 148.0
124.162079 36.0
124.182045 200.0
124.199783 180.0
124.226402 160.0
124.328468 92.0
124.436455 160.0
124.454994 248.0
124.486084 164.0
124.550491 224.0
124.579369 208.0
124.648239 200.0
124.677132 180.0
124.766037 168.0
124.814949 180.0
124.887733 264.0
124.977325 164.0
125.077469 152.0
125.121986 208.0
125.160248 216.0
125.18885 136.0
125.224815 180.0
125.281479 104.0
125.329117 136.0
125.40712 188.0
125.514122 60.0
125.549026 104.0
125.59745 132.0
125.652405 148.0
125.672485 84.0
125.701492 168.0
125.82872 164.0
125.945847 212.0
125.99398 160.0
126.030815 164.0
126.096771 124.0
126.150414 152.0
126.166061 116.0
126.226425 104.0
126.282333 296.0
126.394188 212.0
126.411484 148.0
126.48819 184.0
126.532959 172.0
126.627007 144.0
126.659561 164.0
126.68972 156.0
126.712128 76.0
126.768143 248.0
126.789207 180.0
126.846588 164.0
126.884697 144.0
126.909355 108.0
127.010551 288.0
127.055138 156.0
127.079819 128.0
127.167336 44.0
127.185287 184.0
127.414574 228.0
127.587387 80.0
127.623352 104.0
127.670578 120.0
127.688568 104.0
127.758301 164.0
127.816292 196.0
127.868553 232.0
127.963097 104.0
127.999123 148.0
128.138763 192.0
128.230011 228.0
128.37648 172.0
128.447601 120.0
128.479004 144.0
128.506256 120.0
128.621353 144.0
128.637161 112.0
128.659729 104.0
128.675537 152.0
128.716171 164.0
128.874283 132.0
128.905914 180.0
129.125198 144.0
129.159134 180.0
129.206635 148.0
129.22699 164.0
129.267731 164.0
129.303925 180.0
129.351471 136.0
129.403534 108.0
129.505432 164.0
129.582458 124.0
129.691986 180.0
129.836334 36.0
129.868774 236.0
129.927063 132.0
130.00647 92.0
130.02916 144.0
130.065475 128.0
130.106339 340.0
130.242584 244.0
130.308472 132.0
130.362991 200.0
130.396332 144.0
130.53804 152.0
130.583511 192.0
130.714294 116.0
130.760971 148.0
130.77919 168.0
130.838364 124.0
130.936646 152.0
131.052383 132.0
131.070679 148.0
131.219116 192.0
131.28952 124.0
131.332458 304.0
131.380753 168.0
131.399002 144.0
131.469742 124.0
131.634415 144.0
131.662613 124.0
131.693481 140.0
131.803131 68.0
131.83284 112.0
131.93779 96.0
132.038589 228.0
132.063751 164.0
132.101776 3496.0
132.168976 64.0
132.233047 232.0
132.258224 144.0
132.301727 156.0
132.333771 96.0
132.471176 144.0
132.508469 116.0
132.590332 88.0
132.640747 120.0
132.702652 104.0
132.780197 176.0
132.811249 116.0
132.847122 100.0
133.00087 144.0
133.026123 224.0
133.105148 248.0
133.262665 124.0
133.462631 216.0
133.54541 92.0
133.566116 148.0
133.602921 204.0
133.630814 164.0
133.683456 192.0
133.810043 188.0
133.925186 256.0
133.947556 124.0
133.966644 84.0
133.986023 68.0
134.158051 204.0
134.190826 204.0
134.197433 56.0
134.207458 212.0
134.254761 144.0
134.393158 128.0
134.542252 160.0
134.57196 168.0
134.592834 172.0
134.65863 60.0
134.710556 124.0
134.737167 196.0
134.76886 156.0
134.84346 216.0
134.882751 236.0
134.926666 56.0
134.94516 84.0
135.014542 116.0
135.033035 168.0
135.084763 204.0
135.109375 136.0
135.136856 200.0
135.204239 104.0
135.29776 136.0
135.319977 112.0
135.468414 120.0
135.484406 160.0
135.553909 116.0
135.602585 96.0
135.628067 96.0
135.741669 52.0
135.757904 196.0
135.859955 172.0
135.955093 148.0
136.025848 148.0
136.087402 236.0
136.115967 92.0
136.133835 140.0
136.196548 88.0
136.217453 268.0
136.356857 84.0
136.44519 72.0
136.463791 188.0
136.535873 44.0
136.619614 148.0
136.640549 212.0
136.682434 132.0
136.735947 228.0
136.865234 224.0
136.943161 144.0
137.02684 160.0
137.162186 268.0
137.218124 176.0
137.255432 296.0
137.340668 216.0
137.409378 212.0
137.463043 204.0
137.493378 172.0
137.516708 156.0
137.549393 56.0
137.589081 60.0
137.650818 184.0
137.663666 76.0
137.66748 180.0
137.74086 68.0
137.796936 108.0
137.86937 152.0
137.937149 168.0
137.969864 168.0
138.042358 88.0
138.065735 60.0
138.196732 168.0
138.303436 160.0
138.338379 228.0
138.3629 184.0
138.388367 192.0
138.414413 160.0
138.503403 148.0
138.573822 132.0
138.709595 168.0
138.829178 224.0
138.863785 208.0
138.884827 224.0
138.925095 152.0
138.934509 136.0
138.955841 156.0
138.976959 108.0
139.002762 284.0
139.054977 1628.0
139.090149 136.0
139.171768 236.0
139.214035 208.0
139.239868 176.0
139.592361 152.0
139.62529 272.0
139.785248 156.0
139.810318 160.0
139.826477 216.0
139.86998 48.0
139.902939 148.0
139.992401 128.0
140.02066 224.0
140.056839 336.0
140.11705 300.0
140.216202 176.0
140.286911 156.0
140.444901 144.0
140.466141 208.0
140.489716 100.0
140.513321 156.0
140.543991 196.0
140.577026 164.0
140.602539 192.0
140.725464 176.0
140.817825 180.0
140.902863 224.0
141.002106 108.0
141.03244 124.0
141.151749 172.0
141.208893 136.0
141.255096 88.0
141.31424 60.0
141.342621 140.0
141.371017 228.0
141.432556 208.0
141.458542 160.0
141.553864 184.0
141.586456 196.0
141.702515 140.0
141.757019 208.0
141.77597 156.0
141.792557 160.0
141.82811 184.0
141.901596 96.0
141.922943 68.0
142.084213 192.0
142.143539 132.0
142.205231 40.0
142.33342 172.0
142.418915 96.0
142.435547 132.0
142.455688 200.0
142.508682 168.0
142.535324 192.0
142.682693 116.0
142.699326 176.0
142.721329 96.0
142.920532 136.0
142.951462 156.0
142.97525 176.0
143.022858 128.0
143.063324 160.0
143.125229 120.0
143.227631 180.0
143.289093 204.0
143.363434 148.0
143.380112 72.0
143.439255 160.0
143.513596 116.0
143.54129 220.0
143.64267 164.0
143.699631 184.0
143.759293 128.0
143.792694 164.0
143.987686 292.0
144.105606 188.0
144.141357 72.0
144.165741 276.0
144.19632 140.0
144.213043 148.0
144.291931 64.0
144.330185 52.0
144.354568 124.0
144.455322 100.0
144.52153 48.0
144.578964 56.0
144.672318 128.0
144.708221 40.0
144.741745 176.0
144.818375 180.0
144.856705 148.0
144.885452 216.0
145.002213 268.0
145.024429 120.0
145.077652 100.0
145.182663 180.0
145.247421 260.0
145.271408 160.0
145.35376 208.0
145.372177 56.0
145.398575 200.0
145.429779 132.0
145.476135 216.0
145.525803 324.0
145.564209 68.0
145.624252 176.0
145.688766 144.0
145.74437 176.0
145.892761 124.0
146.008789 208.0
146.029495 196.0
146.117355 340.0
146.181992 116.0
146.23494 144.0
146.256607 108.0
146.275864 28.0
146.338455 96.0
146.384506 96.0
146.490173 128.0
146.545578 88.0
146.569672 176.0
146.60582 208.0
146.622696 156.0
146.651611 100.0
146.673309 124.0
146.714279 180.0
146.81073 104.0
146.83725 48.0
146.870148 88.0
146.914444 364.0
146.972946 144.0
147.054398 132.0
147.071289 112.0
147.117157 144.0
147.14534 160.0
147.298264 176.0
147.324829 124.0
147.423355 144.0
147.443222 100.0
147.489151 184.0
147.532654 168.0
147.552002 152.0
147.639648 160.0
147.717682 156.0
147.789017 188.0
147.859192 76.0
147.876144 200.0
147.917282 40.0
148.084351 156.0
148.106155 64.0
148.144913 148.0
148.321808 124.0
148.379974 196.0
148.418777 216.0
148.496368 184.0
148.527908 136.0
148.587952 144.0
148.651642 180.0
148.736572 60.0
148.819122 212.0
148.845825 152.0
148.926743 200.0
148.962402 156.0
149.030701 176.0
149.147079 232.0
149.171387 92.0
149.19812 60.0
149.326996 152.0
149.385437 168.0
149.41214 60.0
149.550827 128.0
149.582474 228.0
149.601944 160.0
149.645767 192.0
149.750488 184.0
149.779709 136.0
149.796768 184.0
149.84549 200.0
149.879593 244.0
149.935638 148.0
149.999008 100.0
150.01709 136.0
150.049911 184.0
150.09166 72.0
150.115173 220.0
150.162369 180.0
150.179443 140.0
150.31636 96.0
150.343842 208.0
150.501572 172.0
150.542313 192.0
150.606583 112.0
150.680511 168.0
150.740952 160.0
150.809372 108.0
150.826492 140.0
150.936493 36.0
151.041397 188.0
151.05661 184.0
151.097931 112.0
151.12973 252.0
151.168884 88.0
151.195801 124.0
151.225174 120.0
151.271667 164.0
151.303497 124.0
151.341446 172.0
151.450424 124.0
151.487167 128.0
151.541061 196.0
151.568008 180.0
151.761642 192.0
151.835815 132.0
152.019196 64.0
152.041626 148.0
152.064102 216.0
152.109131 188.0
152.149292 240.0
152.169891 184.0
152.216248 196.0
152.240143 160.0
152.284348 176.0
152.377686 120.0
152.493179 100.0
152.522675 176.0
152.566788 220.0
152.643143 224.0
152.719376 244.0
152.76857 152.0
152.812851 88.0
152.972153 172.0
153.075272 72.0
153.241257 152.0
153.406372 88.0
153.52417 200.0
153.554306 236.0
153.598709 148.0
153.622467 204.0
153.652985 108.0
153.680115 168.0
153.736877 184.0
153.778824 124.0
153.818314 152.0
153.852875 188.0
153.894852 152.0
153.963989 196.0
154.020447 144.0
154.04303 184.0
154.06279 220.0
154.089966 176.0
154.131973 168.0
154.209122 180.0
154.27037 100.0
154.39447 168.0
154.438507 264.0
154.520386 212.0
154.633972 80.0
154.661194 140.0
154.685944 148.0
154.757736 140.0
154.777557 176.0
154.851837 144.0
154.884048 152.0
154.908432 132.0
154.955887 140.0
155.102097 136.0
155.131836 124.0
155.171707 288.0
155.208694 208.0
155.235962 96.0
155.337662 176.0
155.419525 212.0
155.441849 172.0
155.605667 196.0
155.66774 156.0
155.786957 92.0
155.829193 156.0
155.868958 128.0
155.896286 156.0
156.023041 176.0
156.053497 144.0
156.069275 208.0
156.102936 312.0
156.137421 124.0
156.246872 164.0
156.276718 120.0
156.316544 184.0
156.386215 188.0
156.471634 140.0
156.515671 148.0
156.602829 148.0
156.672577 120.0
156.690018 236.0
156.804642 132.0
156.839539 132.0
156.899353 188.0
156.940125 192.0
157.046021 152.0
157.086395 100.0
157.146255 100.0
157.171219 192.0
157.253571 156.0
157.440811 156.0
157.485764 260.0
157.535721 208.0
157.568192 52.0
157.719864 296.0
157.808121 108.0
157.865631 92.0
157.88739 132.0
157.925659 164.0
157.970688 192.0
158.000702 104.0
158.033218 84.0
158.055099 140.0
158.118057 12536.0
158.165863 56.0
158.215927 40.0
158.245972 60.0
158.280426 152.0
158.287415 116.0
158.320145 64.0
158.417664 128.0
158.442093 116.0
158.514923 168.0
158.554062 156.0
158.601685 132.0
158.621735 28.0
158.659348 144.0
158.701965 228.0
158.757126 76.0
158.819824 128.0
158.897018 124.0
158.909576 72.0
158.92804 148.0
158.955307 184.0
159.029465 1668.0
159.058197 220.0
159.083298 196.0
159.116348 2044.0
159.171173 68.0
159.206329 288.0
159.246506 144.0
159.424881 200.0
159.462585 180.0
159.495255 124.0
159.565643 36.0
159.583237 116.0
159.63353 152.0
159.671249 44.0
159.734131 172.0
159.799667 152.0
159.882584 164.0
159.912781 124.0
159.932907 156.0
159.986801 152.0
160.031097 180.0
160.081909 132.0
160.120667 316.0
160.145508 220.0
160.18428 184.0
160.227539 144.0
160.295563 144.0
160.373062 96.0
160.377197 72.0
160.403931 216.0
160.451828 208.0
160.514862 144.0
160.537567 152.0
160.608185 108.0
160.643127 328.0
160.726746 104.0
160.797409 168.0
161.022095 192.0
161.047363 44.0
161.082718 60.0
161.100403 164.0
161.125198 172.0
161.198944 56.0
161.256882 284.0
161.312668 156.0
161.343002 88.0
161.496887 116.0
161.530136 104.0
161.550369 176.0
161.618683 128.0
161.684479 100.0
161.71991 144.0
161.765472 136.0
161.871796 36.0
162.044037 56.0
162.079269 168.0
162.087906 152.0
162.092926 216.0
162.147247 148.0
162.180878 48.0
162.264526 140.0
162.289886 140.0
162.371033 124.0
162.508011 60.0
162.632355 160.0
162.653671 120.0
162.702728 144.0
162.731354 64.0
162.789764 116.0
162.810074 160.0
162.837799 140.0
162.937073 140.0
162.977722 168.0
163.03363 216.0
163.066666 128.0
163.191223 164.0
163.333633 184.0
163.422668 112.0
163.527512 200.0
163.567734 188.0
163.616104 140.0
163.65683 204.0
163.674652 184.0
163.758698 72.0
163.893707 204.0
163.944672 212.0
164.005844 104.0
164.052917 128.0
164.191956 148.0
164.227661 156.0
164.302017 136.0
164.482819 196.0
164.528763 144.0
164.559402 108.0
164.651337 272.0
164.673752 128.0
164.738174 48.0
164.768829 216.0
164.853149 164.0
164.884781 180.0
164.927261 280.0
165.02951 240.0
165.052536 40.0
165.103668 108.0
165.131805 116.0
165.226456 100.0
165.362061 148.0
165.38649 176.0
165.417526 144.0
165.487671 116.0
165.528473 164.0
165.559189 148.0
165.663177 212.0
165.856384 196.0
165.891602 184.0
165.901627 136.0
165.973175 116.0
166.001923 236.0
166.064102 728.0
166.0961 124.0
166.133331 148.0
166.197464 64.0
166.233322 156.0
166.341248 164.0
166.380203 160.0
166.407928 112.0
166.501984 172.0
166.512833 108.0
166.519135 156.0
166.597977 76.0
166.615967 160.0
166.649353 152.0
166.687897 132.0
166.808701 92.0
166.842117 188.0
166.872955 148.0
166.900528 100.0
166.929535 100.0
166.978394 172.0
167.042694 184.0
167.06842 156.0
167.130157 160.0
167.168762 80.0
167.562714 124.0
167.709595 136.0
167.856537 120.0
167.936478 136.0
168.078064 168.0
168.17128 92.0
168.189346 156.0
168.31311 140.0
168.364899 168.0
168.424301 200.0
168.457886 184.0
168.478546 140.0
168.504395 120.0
168.612915 132.0
168.646515 168.0
168.72316 200.0
168.775772 136.0
168.809387 168.0
168.938705 112.0
168.982681 196.0
169.068619 128.0
169.13179 188.0
169.213028 172.0
169.29071 76.0
169.339905 204.0
169.365814 212.0
169.383942 228.0
169.506287 160.0
169.534897 168.0
169.562027 208.0
169.614563 120.0
169.83754 72.0
169.860886 120.0
170.042511 176.0
170.102219 172.0
170.146347 112.0
170.200867 188.0
170.307343 96.0
170.364014 152.0
170.458023 144.0
170.608765 168.0
170.632156 112.0
170.681564 180.0
170.746582 104.0
170.8116 72.0
170.871429 92.0
170.897446 124.0
170.928665 180.0
170.972916 124.0
171.024719 168.0
171.092636 188.0
171.121277 200.0
171.142105 52.0
171.212418 76.0
171.251602 172.0
171.285339 200.0
171.306183 132.0
171.327026 164.0
171.34787 188.0
171.381729 184.0
171.420822 124.0
171.478149 228.0
171.611099 184.0
171.665009 152.0
171.702362 128.0
171.905838 208.0
171.960648 204.0
172.012848 244.0
172.05722 100.0
172.0755 144.0
172.138168 140.0
172.176331 240.0
172.181992 148.0
172.191925 356.0
172.221741 208.0
172.258301 252.0
172.278534 232.0
172.336685 32.0
172.365417 156.0
172.42421 356.0
172.540543 168.0
172.694809 96.0
172.728561 204.0
172.775909 76.0
172.79834 232.0
172.830597 124.0
172.881729 188.0
172.904114 316.0
172.935532 176.0
172.966934 160.0
172.98735 180.0
173.040237 96.0
173.123245 176.0
173.192108 196.0
173.262451 156.0
173.551132 116.0
173.614075 88.0
173.658661 128.0
173.703247 212.0
173.745224 212.0
173.795059 220.0
173.835587 144.0
173.852798 208.0
173.934158 132.0
173.960403 120.0
173.984558 140.0
174.054916 188.0
174.09169 244.0
174.131073 164.0
174.154709 160.0
174.176987 156.0
174.244034 124.0
174.330734 52.0
174.349136 120.0
174.498962 188.0
174.554169 116.0
174.646225 96.0
174.683044 188.0
174.746185 188.0
174.804062 144.0
174.825119 140.0
174.922501 212.0
175.030899 140.0
175.090393 208.0
175.13208 196.0
175.170029 160.0
175.193726 176.0
175.254333 172.0
175.357101 52.0
175.420364 136.0
175.531097 136.0
175.612411 104.0
175.781677 48.0
175.855576 100.0
175.884354 164.0
175.939713 156.0
176.029816 96.0
176.056213 144.0
176.10376 176.0
176.142685 76.0
176.163452 120.0
176.190933 176.0
176.219803 56.0
176.272217 220.0
176.391769 160.0
176.511246 104.0
176.883774 176.0
176.98436 160.0
177.056274 2868.0
177.145538 220.0
177.175903 176.0
177.25473 172.0
177.424164 52.0
177.461411 172.0
177.486877 276.0
177.567352 116.0
177.607132 136.0
177.636322 184.0
177.721207 156.0
177.768967 200.0
177.798172 140.0
177.832672 136.0
177.883102 248.0
177.960083 176.0
178.065262 3352.0
178.156616 56.0
178.193802 272.0
178.246948 76.0
178.266769 140.0
178.300095 124.0
178.32402 152.0
178.342621 64.0
178.454269 168.0
178.491882 108.0
178.587234 128.0
178.659058 152.0
178.704285 160.0
178.765472 144.0
178.803772 92.0
178.927841 200.0
179.011002 68.0
179.068954 728.0
179.108917 148.0
179.130234 68.0
179.183502 184.0
179.261185 176.0
179.282089 108.0
179.300751 132.0
179.439362 160.0
179.562027 152.0
179.663376 52.0
179.792221 112.0
179.850174 76.0
179.970306 108.0
180.013016 128.0
180.043884 136.0
180.080536 1280.0
180.34697 184.0
180.368164 168.0
180.405777 152.0
180.502029 124.0
180.579575 196.0
180.600967 172.0
180.694595 164.0
180.716003 136.0
180.825714 208.0
180.983658 176.0
181.030823 124.0
181.081909 180.0
181.106842 272.0
181.173813 144.0
181.240784 136.0
181.321182 124.0
181.373535 188.0
181.406952 48.0
181.503464 140.0
181.541153 152.0
181.583908 116.0
181.626831 184.0
181.664383 132.0
181.744873 156.0
181.83342 152.0
181.879044 112.0
181.908035 100.0
181.948837 96.0
182.016281 156.0
182.057693 104.0
182.128754 152.0
182.225464 148.0
182.265778 132.0
182.350754 160.0
182.381332 100.0
182.400146 192.0
182.453903 176.0
182.577591 104.0
182.603027 152.0
182.655182 156.0
182.749741 220.0
182.794205 152.0
182.919296 48.0
183.026917 4288.0
183.066101 144.0
183.114105 148.0
183.151688 172.0
183.207428 216.0
183.239532 188.0
183.290955 300.0
183.38797 112.0
183.417618 156.0
183.436478 68.0
183.482315 76.0
183.501175 28.0
183.579376 116.0
183.603653 176.0
183.662979 164.0
183.733124 292.0
183.781677 80.0
183.800568 156.0
183.848206 256.0
183.904663 124.0
183.947632 196.0
183.988144 160.0
184.030411 1040.0
184.112183 164.0
184.148804 128.0
184.180817 132.0
184.240646 84.0
184.362244 108.0
184.418991 68.0
184.451431 64.0
184.511765 188.0
184.568359 144.0
184.656921 184.0
184.732651 124.0
184.846405 176.0
184.919357 88.0
185.025452 596.0
185.122391 132.0
185.154892 184.0
185.217178 144.0
185.263229 140.0
185.395996 152.0
185.417679 132.0
185.439362 248.0
185.520676 88.0
185.639969 196.0
185.683365 124.0
185.818985 28.0
186.000854 232.0
186.026352 192.0
186.071396 164.0
186.212585 76.0
186.258759 160.0
186.332108 264.0
186.41362 52.0
186.46254 208.0
186.554947 140.0
186.590302 176.0
186.669144 164.0
186.739853 104.0
186.837769 104.0
186.943893 48.0
187.022537 940.0
187.090866 68.0
187.126251 112.0
187.153488 180.0
187.191605 36.0
187.259689 376.0
187.336716 144.0
187.365921 44.0
187.395889 136.0
187.43573 132.0
187.483078 256.0
187.513062 148.0
187.532135 104.0
187.59906 188.0
187.738434 180.0
187.792831 136.0
187.845703 132.0
187.922089 104.0
187.941193 108.0
188.026962 176.0
188.118591 132.0
188.197098 164.0
188.339767 76.0
188.375275 108.0
188.42717 124.0
188.462692 60.0
188.511887 208.0
188.558334 184.0
188.596603 200.0
188.725082 132.0
188.803772 160.0
188.946625 216.0
188.984924 208.0
189.012283 128.0
189.083511 128.0
189.110947 224.0
189.302444 52.0
189.337265 212.0
189.369324 152.0
189.403778 104.0
189.447601 124.0
189.477737 84.0
189.543488 164.0
189.784698 192.0
189.899872 72.0
189.919067 204.0
189.968445 132.0
190.038589 268.0
190.122086 180.0
190.190704 208.0
190.220901 180.0
190.253845 112.0
190.292282 144.0
190.34993 168.0
190.393875 64.0
190.429825 180.0
190.472687 200.0
190.492752 240.0
190.571365 176.0
190.646973 244.0
190.701859 152.0
190.841766 224.0
190.872025 96.0
190.896774 100.0
190.927597 188.0
190.963669 148.0
191.030396 288.0
191.060715 164.0
191.069382 100.0
191.07634 140.0
191.147079 236.0
191.174606 152.0
191.243408 92.0
191.551804 100.0
191.573837 40.0
191.706085 128.0
191.744659 136.0
191.83287 292.0
191.857681 224.0
191.886536 136.0
191.976074 140.0
191.998291 212.0
192.068848 864.0
192.138977 88.0
192.158279 144.0
192.285217 44.0
192.337662 76.0
192.392868 260.0
192.412186 204.0
192.431519 152.0
192.503311 92.0
192.547165 136.0
192.570328 164.0
192.605484 156.0
192.649689 84.0
192.691132 180.0
192.749146 152.0
192.834824 180.0
192.884567 84.0
192.906677 172.0
192.9758 132.0
193.033859 208.0
193.083878 1300.0
193.169373 44.0
193.250992 144.0
193.256729 160.0
193.267105 236.0
193.307709 132.0
193.337845 284.0
193.412888 168.0
193.435028 84.0
193.462708 112.0
193.495926 176.0
193.532516 92.0
193.753479 108.0
193.77565 192.0
193.880951 160.0
193.903122 168.0
193.958542 204.0
193.98439 224.0
194.058136 324.0
194.093872 716.0
194.141525 204.0
194.196991 264.0
194.263794 144.0
194.321823 164.0
194.346802 168.0
194.461624 168.0
194.607697 76.0
194.666 164.0
194.874329 76.0
194.95491 56.0
195.001099 136.0
195.038284 136.0
195.091736 528.0
195.221786 180.0
195.294083 116.0
195.335815 144.0
195.455444 160.0
195.486053 72.0
195.522232 92.0
195.56398 188.0
195.619644 184.0
195.641907 80.0
195.668289 164.0
195.723389 168.0
195.734192 196.0
195.78392 80.0
195.942032 192.0
195.978043 208.0
196.076645 1424.0
196.327332 72.0
196.355225 116.0
196.433319 64.0
196.54213 188.0
196.56723 196.0
196.611893 164.0
196.637009 180.0
196.700653 164.0
196.787735 104.0
196.821854 128.0
196.849167 112.0
196.898575 220.0
197.031128 164.0
197.082657 836.0
197.11174 156.0
197.184402 180.0
197.223526 140.0
197.262665 204.0
197.363312 204.0
197.413635 152.0
197.452789 156.0
197.477966 136.0
197.556274 100.0
197.575867 76.0
197.615967 180.0
197.698975 144.0
197.88652 176.0
197.939713 168.0
197.995728 416.0
198.043335 268.0
198.14418 236.0
198.18187 164.0
198.208618 44.0
198.502945 148.0
198.530975 52.0
198.581467 48.0
198.601089 172.0
198.735748 172.0
198.839569 108.0
198.870453 76.0
198.932205 144.0
198.965881 132.0
199.023788 180.0
199.045502 124.0
199.137177 168.0
199.170883 136.0
199.188354 128.0
199.209763 176.0
199.297302 140.0
199.344574 116.0
199.415329 84.0
199.441849 312.0
199.47435 168.0
199.541824 220.0
199.575562 72.0
199.665375 136.0
199.733047 100.0
199.797745 220.0
199.858963 268.0
199.972198 156.0
200.034119 64.0
200.13414 152.0
200.160812 116.0
200.183334 148.0
200.259384 152.0
200.293182 184.0
200.335434 96.0
200.357971 188.0
200.507309 312.0
200.624619 228.0
200.659515 76.0
200.714432 84.0
200.758209 156.0
200.800369 132.0
200.823074 180.0
200.876663 216.0
200.927444 160.0
200.950012 120.0
201.037918 1128.0
201.085464 176.0
201.133438 208.0
201.153198 140.0
201.189896 132.0
201.246368 56.0
201.312378 148.0
201.348022 224.0
201.385635 188.0
201.41481 140.0
201.472305 136.0
201.542938 172.0
201.585312 48.0
201.622055 176.0
201.655975 144.0
201.785995 128.0
201.817093 168.0
201.839722 172.0
201.873657 224.0
201.913239 120.0
201.96698 140.0
202.040436 128.0
202.1017 212.0
202.167847 120.0
202.293518 220.0
202.323532 220.0
202.356857 124.0
202.534637 224.0
202.564224 152.0
202.618958 200.0
202.739899 72.0
202.785233 188.0
202.885208 164.0
202.908386 188.0
202.955322 128.0
203.014877 168.0
203.04184 124.0
203.067642 416.0
203.14534 176.0
203.468857 164.0
203.571075 164.0
203.596634 68.0
203.616501 112.0
203.646286 160.0
203.744324 136.0
203.784103 136.0
203.826721 252.0
203.886398 44.0
203.909134 84.0
203.934708 108.0
203.997238 204.0
204.07962 588.0
204.224716 144.0
204.26738 324.0
204.319763 224.0
204.364105 196.0
204.426712 160.0
204.460861 96.0
204.517776 200.0
204.597488 100.0
204.634491 140.0
204.6772 176.0
204.722763 88.0
204.742706 116.0
204.784103 164.0
204.885117 152.0
204.959198 168.0
205.024734 152.0
205.077301 688.0
205.130188 128.0
205.220764 156.0
205.296112 164.0
205.324066 48.0
205.389679 152.0
205.44101 156.0
205.478104 108.0
205.630539 256.0
205.687241 236.0
205.726379 40.0
205.792053 120.0
205.890442 200.0
205.980789 224.0
206.084229 576.0
206.137665 140.0
206.223404 196.0
206.334885 112.0
206.369186 164.0
206.430984 124.0
206.509308 144.0
206.609421 64.0
206.629456 80.0
206.662918 172.0
206.72673 156.0
206.819244 184.0
206.852661 208.0
206.970047 160.0
206.990082 228.0
207.066162 148.0
207.089127 312.0
207.138489 208.0
207.233551 172.0
207.290863 88.0
207.343353 204.0
207.434158 136.0
207.50296 112.0
207.536743 220.0
207.609055 120.0
207.690247 128.0
207.812714 212.0
207.901001 140.0
207.921249 92.0
207.985977 244.0
208.022903 492.0
208.062393 136.0
208.096909 212.0
208.127197 204.0
208.168625 180.0
208.191605 200.0
208.216736 176.0
208.25766 124.0
208.300278 200.0
208.405792 92.0
208.487503 44.0
208.509827 208.0
208.608215 196.0
208.734711 148.0
208.832489 132.0
208.901733 212.0
208.953308 208.0
208.990707 164.0
209.030151 10680.0
209.101959 412.0
209.148834 156.0
209.172729 172.0
209.213867 164.0
209.24411 176.0
209.291656 164.0
209.330368 132.0
209.359985 84.0
209.413879 204.0
209.447205 136.0
209.493439 116.0
209.498062 196.0
209.539688 176.0
209.592484 132.0
209.624176 112.0
209.65799 104.0
209.696228 100.0
209.748108 164.0
209.773361 136.0
209.797104 204.0
209.821686 184.0
209.846924 272.0
209.90033 180.0
209.947723 152.0
209.993118 188.0
210.001343 208.0
210.038452 86188.0
210.112762 44.0
210.151749 124.0
210.189346 160.0
210.208588 96.0
210.256912 132.0
210.302643 220.0
210.332535 228.0
210.356628 136.0
210.378311 72.0
210.407623 244.0
210.415161 120.0
210.424332 280.0
210.449127 48.0
210.46933 76.0
210.511688 120.0
210.547562 180.0
210.570328 232.0
210.577026 164.0
210.619507 200.0
210.676102 76.0
210.720612 64.0
210.746613 32.0
210.788254 204.0
210.814453 152.0
210.844864 152.0
210.924286 84.0
210.948914 188.0
210.971649 156.0
211.0392 10900.0
211.089844 152.0
211.109665 80.0
211.128632 152.0
211.166962 88.0
211.244171 76.0
211.316818 148.0
211.391418 84.0
211.415802 188.0
211.445663 124.0
211.515869 224.0
211.56868 148.0
211.629501 200.0
211.695999 196.0
211.728912 56.0
211.764877 96.0
211.800003 224.0
211.824188 160.0
211.866257 176.0
211.887863 104.0
211.906815 120.0
211.963257 168.0
212.035507 2616.0
212.185043 108.0
212.215576 64.0
212.257523 116.0
212.28923 176.0
212.330032 92.0
212.376434 124.0
212.416489 84.0
212.462204 56.0
212.471848 76.0
212.563812 92.0
212.592575 152.0
212.617233 84.0
212.637558 160.0
212.667862 144.0
212.709091 88.0
212.7435 128.0
212.808823 216.0
212.843658 32.0
212.890121 176.0
212.936584 84.0
213.035324 480.0
213.120178 140.0
213.139175 108.0
213.291061 72.0
213.398621 140.0
213.434372 188.0
213.465485 88.0
213.50621 156.0
213.535629 100.0
213.584732 100.0
213.619629 72.0
213.642914 124.0
213.663269 176.0
213.685974 208.0
213.72728 208.0
213.794205 96.0
213.822128 228.0
213.840775 324.0
213.925186 128.0
213.97467 164.0
214.018509 140.0
214.057907 144.0
214.084641 188.0
214.134827 164.0
214.178513 196.0
214.207642 216.0
214.257721 148.0
214.300873 116.0
214.364975 92.0
214.427444 220.0
214.457657 164.0
214.499039 244.0
214.563171 196.0
214.663666 120.0
214.743958 52.0
214.804382 92.0
214.986099 40.0
215.021118 172.0
215.108841 144.0
215.254654 160.0
215.31015 152.0
215.397766 140.0
215.456528 204.0
215.483047 216.0
215.665115 80.0
215.722977 192.0
215.827362 128.0
215.86377 196.0
215.947266 152.0
216.078903 140.0
216.145218 96.0
216.261337 172.0
216.419434 244.0
216.573608 192.0
216.614624 164.0
216.676132 116.0
216.872467 288.0
216.957474 168.0
216.993927 156.0
217.065826 196.0
217.072617 192.0
217.084671 312.0
217.21553 144.0
217.312332 36.0
217.40036 92.0
217.526566 52.0
217.56369 144.0
217.604462 248.0
217.643997 112.0
217.793777 136.0
217.952408 84.0
218.012619 204.0
218.049393 140.0
218.085114 628.0
218.141876 240.0
218.179306 140.0
218.221237 240.0
218.299271 132.0
218.462997 132.0
218.486649 304.0
218.549286 196.0
218.57283 112.0
218.784744 88.0
218.837723 44.0
218.943741 156.0
218.973434 96.0
219.013824 140.0
219.0513 208.0
219.091537 4852.0
219.16716 160.0
219.231888 64.0
219.287537 264.0
219.320847 68.0
219.363281 80.0
219.455032 216.0
219.518372 196.0
219.560181 136.0
219.589157 104.0
219.613876 204.0
219.668732 184.0
219.701828 160.0
219.763199 124.0
219.904846 80.0
219.984543 80.0
220.015488 68.0
220.052429 176.0
220.098557 2320.0
220.165939 128.0
220.213699 92.0
220.25 180.0
220.285736 196.0
220.333145 160.0
220.421646 140.0
220.457108 176.0
220.521042 132.0
220.619736 172.0
220.692291 208.0
220.717102 188.0
220.772552 204.0
220.820724 440.0
220.85199 148.0
220.879181 152.0
220.902069 64.0
220.939041 136.0
220.973297 212.0
220.999878 160.0
221.018631 240.0
221.07074 340.0
221.108704 155424.0
221.187363 140.0
221.228409 116.0
221.253067 124.0
221.276245 156.0
221.295776 360.0
221.341293 88.0
221.37532 176.0
221.382584 188.0
221.393677 164.0
221.414871 152.0
221.449997 124.0
221.482422 192.0
221.52037 144.0
221.558411 172.0
221.595657 612.0
221.629059 64.0
221.680176 140.0
221.714676 88.0
221.755569 160.0
221.812622 272.0
221.880981 100.0
221.910721 44.0
221.959412 156.0
221.999298 240.0
222.032852 244.0
222.111084 23764.0
222.190857 216.0
222.21405 44.0
222.255844 88.0
222.306427 48.0
222.33165 256.0
222.367264 44.0
222.405075 40.0
222.481689 168.0
222.54834 156.0
222.583969 72.0
222.607727 68.0
222.63913 84.0
222.664154 108.0
222.701187 68.0
222.735443 152.0
222.759201 44.0
222.807556 172.0
222.841354 128.0
222.865402 64.0
222.90181 48.0
222.925903 136.0
222.956192 40.0
222.989471 88.0
223.039917 216.0
223.08139 160.0
223.11554 2776.0
223.143585 128.0
223.183975 56.0
223.207977 48.0
223.22879 64.0
223.249603 52.0
223.322159 248.0
223.354614 224.0
223.426514 100.0
223.454498 132.0
223.525864 180.0
223.56308 116.0
223.605804 104.0
223.651321 96.0
223.706802 204.0
223.749481 104.0
223.781158 100.0
223.819382 144.0
223.840607 92.0
223.877747 232.0
223.940384 148.0
223.996643 60.0
224.049454 440.0
224.096817 308.0
224.145599 76.0
224.200668 100.0
224.2827 72.0
224.336349 32.0
224.379135 228.0
224.425491 80.0
224.510468 96.0
224.554016 40.0
224.610687 116.0
224.643494 116.0
224.71373 184.0
224.769089 124.0
224.792679 100.0
224.816345 352.0
224.856262 104.0
224.971664 140.0
225.051086 604.0
225.188934 168.0
225.252441 68.0
225.307816 224.0
225.425735 164.0
225.479218 116.0
225.527344 80.0
225.569183 72.0
225.605057 40.0
225.812912 148.0
225.880173 116.0
225.940002 132.0
225.960938 176.0
226.067657 1372.0
226.142731 144.0
226.15062 176.0
226.197357 128.0
226.233276 160.0
226.311111 116.0
226.433884 124.0
226.45784 36.0
226.550705 72.0
226.616608 52.0
226.643585 136.0
226.69751 116.0
226.796417 68.0
226.865356 48.0
226.892334 172.0
227.033234 188.0
227.066742 804.0
227.132233 92.0
227.162231 72.0
227.285233 44.0
227.36026 116.0
227.504333 136.0
227.67247 100.0
227.735535 56.0
227.891144 120.0
227.968674 176.0
227.996918 44.0
228.047562 2052.0
228.162231 172.0
228.216354 188.0
228.285507 128.0
228.345657 124.0
228.381744 100.0
228.422165 176.0
228.450928 116.0
228.490036 232.0
228.563461 256.0
228.694656 124.0
228.866257 200.0
228.947556 40.0
229.052261 956.0
229.089111 188.0
229.158401 156.0
229.333191 144.0
229.387436 180.0
229.434296 148.0
229.471848 132.0
229.57135 128.0
229.684113 180.0
229.740265 32.0
229.782501 76.0
229.815872 196.0
229.888107 84.0
229.930344 224.0
230.022842 124.0
230.03566 180.0
230.043182 104.0
230.095139 628.0
230.114777 292.0
230.202652 120.0
230.340973 132.0
230.371185 176.0
230.390305 96.0
230.449722 100.0
230.476913 72.0
230.930374 140.0
231.046982 160.0
231.091324 280.0
231.136078 68.0
231.261749 236.0
231.320694 76.0
231.426453 60.0
231.553833 80.0
231.590179 156.0
231.681061 68.0
231.759827 188.0
231.896194 84.0
232.098648 592.0
232.153885 128.0
232.190277 120.0
232.284302 140.0
232.370544 252.0
232.712189 204.0
232.847366 140.0
232.876175 104.0
233.079712 88.0
233.106812 248.0
233.137451 96.0
233.395828 152.0
233.426239 164.0
233.655273 156.0
233.757797 84.0
233.814148 136.0
233.928238 40.0
233.958679 136.0
234.013474 164.0
234.09874 312.0
234.144409 28.0
234.168777 128.0
234.199234 272.0
234.290619 68.0
234.333267 168.0
234.497818 104.0
234.555725 104.0
234.695969 40.0
234.766098 176.0
234.866837 124.0
234.94606 104.0
235.045105 236.0
235.089386 536.0
235.124664 308.0
235.339752 216.0
235.397766 76.0
235.507706 132.0
235.657394 116.0
235.810181 60.0
235.842499 112.0
235.959976 52.0
235.993118 76.0
236.054184 1312.0
236.107712 164.0
236.213791 136.0
236.252274 152.0
236.306381 60.0
236.412659 148.0
236.825958 124.0
236.868851 268.0
236.893356 68.0
237.058395 268.0
237.26416 140.0
237.300949 128.0
237.424667 148.0
237.51561 96.0
237.601501 112.0
237.622971 104.0
237.708893 184.0
237.739578 76.0
237.76413 136.0
237.843918 164.0
237.88382 80.0
237.93602 48.0
238.015839 148.0
238.057434 924.0
238.163254 140.0
238.301483 172.0
238.396744 72.0
238.505646 68.0
238.550415 116.0
238.661087 144.0
238.694916 96.0
238.90097 172.0
238.995956 156.0
239.05426 336.0
239.148865 72.0
239.181 48.0
239.426849 164.0
239.473495 84.0
239.547424 108.0
239.633682 148.0
239.716873 84.0
239.806244 220.0
239.898712 80.0
239.96962 120.0
240.03952 192.0
240.062195 156.0
240.325546 140.0
240.407623 48.0
240.614426 88.0
240.762634 144.0
240.796616 32.0
240.910904 172.0
240.938705 192.0
241.108643 80.0
241.167358 136.0
241.325027 188.0
241.359039 40.0
241.482727 96.0
241.609558 128.0
241.758072 96.0
242.018082 56.0
242.055237 160.0
242.098587 188.0
242.34639 148.0
242.600525 204.0
242.709045 48.0
242.814468 144.0
243.031616 108.0
243.071945 32.0
243.400986 300.0
243.47551 160.0
243.506561 148.0
243.565582 192.0
243.618378 56.0
243.668091 160.0
243.779953 360.0
243.985077 128.0
244.095978 132.0
244.152985 72.0
244.208969 168.0
244.249405 136.0
244.292953 92.0
244.470291 168.0
244.595596 92.0
244.681946 172.0
244.72554 56.0
244.79715 220.0
244.892609 160.0
245.052567 156.0
245.106201 1532.0
245.186554 180.0
245.311234 100.0
245.53009 164.0
245.679199 180.0
245.713516 164.0
245.735352 152.0
245.816483 116.0
245.91011 44.0
246.006866 60.0
246.108444 352.0
246.244171 68.0
246.26915 48.0
246.356613 128.0
246.450348 160.0
246.49408 152.0
246.559708 96.0
246.628464 84.0
246.653473 124.0
246.690979 48.0
246.809784 148.0
246.83168 180.0
246.941132 248.0
246.966156 124.0
246.998657 172.0
247.042648 104.0
247.068039 344.0
247.123749 58236.0
247.192184 144.0
247.214798 152.0
247.250626 168.0
247.291763 116.0
247.321503 112.0
247.353073 136.0
247.393936 56.0
247.453659 96.0
247.492752 76.0
247.518051 224.0
247.553955 204.0
247.579559 80.0
247.620514 72.0
247.701721 168.0
247.727844 92.0
247.771591 196.0
247.827026 64.0
247.863449 212.0
247.915985 144.0
248.003662 120.0
248.066635 176.0
248.127655 10544.0
248.166153 252.0
248.209427 128.0
248.250183 56.0
248.373047 76.0
248.40387 52.0
248.447372 128.0
248.506607 160.0
248.544098 128.0
248.615417 84.0
248.692963 156.0
248.714508 252.0
248.739624 148.0
248.760254 56.0
248.789841 92.0
248.868332 64.0
248.906006 56.0
248.936661 116.0
248.981384 52.0
249.012787 32.0
249.041153 132.0
249.094452 188.0
249.130463 1000.0
249.18277 172.0
249.253571 136.0
249.30809 128.0
249.348953 52.0
249.373291 176.0
249.412903 92.0
249.463715 140.0
249.536392 76.0
249.578842 160.0
249.615692 80.0
249.626572 116.0
249.650742 92.0
249.67276 76.0
249.782837 128.0
249.810776 200.0
249.890167 120.0
249.946442 92.0
249.972931 124.0
250.052429 176.0
250.073196 208.0
250.101578 160.0
250.11586 48.0
250.121674 152.0
250.147995 188.0
250.180573 204.0
250.223404 132.0
250.264343 92.0
250.46904 112.0
250.547791 140.0
250.585602 180.0
250.676483 180.0
250.85347 92.0
250.932281 112.0
250.966965 112.0
250.992798 332.0
251.021515 92.0
251.06311 2540.0
251.105576 100.0
251.109833 144.0
251.165634 60.0
251.2146 92.0
251.317062 128.0
251.370697 56.0
251.39595 156.0
251.474838 128.0
251.560074 128.0
251.594788 88.0
251.626358 140.0
251.695816 172.0
251.822144 136.0
251.892685 200.0
251.970612 48.0
252.002197 100.0
252.07843 1224.0
252.126511 152.0
252.168518 208.0
252.19928 164.0
252.226562 96.0
252.277145 140.0
252.302429 260.0
252.3358 144.0
252.369415 196.0
252.391144 284.0
252.428589 200.0
252.599518 144.0
252.60434 340.0
252.636993 304.0
252.699295 244.0
252.770447 136.0
252.859497 424.0
252.935318 176.0
252.942429 408.0
252.991974 320.0
252.999161 292.0
253.031982 580.0
253.080963 203876.0
253.175049 244.0
253.207397 168.0
253.257034 212.0
253.275635 84.0
253.286331 64.0
253.302277 244.0
253.34845 232.0
253.37886 244.0
253.389984 144.0
253.40242 236.0
253.446091 224.0
253.473404 136.0
253.506454 196.0
253.539825 116.0
253.551758 68.0
253.60202 888.0
253.626511 240.0
253.669373 104.0
253.707092 68.0
253.719513 180.0
253.756882 88.0
253.763443 108.0
253.776154 212.0
253.806961 176.0
253.851135 236.0
253.902756 96.0
253.949829 176.0
253.994324 140.0
254.082382 28540.0
254.139786 116.0
254.179718 64.0
254.189667 136.0
254.241226 124.0
254.265732 164.0
254.288361 200.0
254.321976 312.0
254.36467 56.0
254.3974 128.0
254.433456 216.0
254.455505 120.0
254.487579 248.0
254.513885 64.0
254.545792 80.0
254.617767 68.0
254.628571 120.0
254.661118 44.0
254.697433 100.0
254.75148 64.0
254.795029 100.0
254.820023 72.0
254.84082 60.0
254.869324 168.0
254.920609 140.0
254.960022 276.0
254.9897 56.0
255.017395 48.0
255.077164 7704.0
255.15361 68.0
255.185074 112.0
255.254227 64.0
255.275726 112.0
255.298401 36.0
255.330551 96.0
255.375076 100.0
255.407059 116.0
255.448242 112.0
255.494751 148.0
255.535034 284.0
255.561935 236.0
255.609238 112.0
255.655502 124.0
255.704514 100.0
255.725052 152.0
255.751816 88.0
255.781677 76.0
255.813721 164.0
255.834824 116.0
255.875549 144.0
255.913345 108.0
255.939667 140.0
255.986313 280.0
256.017456 100.0
256.077057 1144.0
256.116669 84.0
256.151733 208.0
256.217438 76.0
256.24411 96.0
256.305969 56.0
256.400238 80.0
256.422546 40.0
256.489471 48.0
256.566864 72.0
256.628082 48.0
256.675995 72.0
256.706268 84.0
256.731781 84.0
256.757294 56.0
256.794861 72.0
256.805817 56.0
256.819885 84.0
256.865753 56.0
256.897644 92.0
256.934418 128.0
256.990173 48.0
257.025085 124.0
257.07312 144.0
257.117798 92.0
257.198792 80.0
257.242279 80.0
257.3125 128.0
257.360413 108.0
257.432312 100.0
257.504089 72.0
257.606323 96.0
257.635071 80.0
257.691101 100.0
257.724762 108.0
257.815887 88.0
257.822357 52.0
257.917847 208.0
257.989777 120.0
258.085693 100.0
258.162445 56.0
258.258392 52.0
258.283966 84.0
258.319153 68.0
258.59433 148.0
258.693542 68.0
258.799194 88.0
258.856842 56.0
258.956116 68.0
259.010559 108.0
259.071411 48.0
259.276489 76.0
259.407898 116.0
259.532928 132.0
259.574615 56.0
259.609894 40.0
259.904999 60.0
260.06546 104.0
260.136078 132.0
260.592102 136.0
260.871674 76.0
260.948853 84.0
261.383057 92.0
261.534302 96.0
261.611572 76.0
261.733917 256.0
261.933594 80.0
261.994781 156.0
262.065674 164.0
262.131836 156.0
262.157806 100.0
262.475006 52.0
262.545959 108.0
262.855621 140.0
263.004089 100.0
263.063324 304.0
263.0961 96.0
263.151367 68.0
263.281738 160.0
263.307587 36.0
263.410919 100.0
263.572449 32.0
263.614471 104.0
264.066467 780.0
264.193207 184.0
264.215851 76.0
264.465027 72.0
264.571838 96.0
264.656006 112.0
264.856812 28.0
265.077332 292.0
265.139801 116.0
265.341888 144.0
265.479065 172.0
265.667175 132.0
265.939117 108.0
266.083557 200.0
266.660767 172.0
266.699768 72.0
266.732269 160.0
266.781036 68.0
266.818024 64.0
267.08313 244.0
267.154449 92.0
267.233093 92.0
267.757172 124.0
267.86792 132.0
267.972168 92.0
268.262207 80.0
268.373047 52.0
268.46759 52.0
268.504089 88.0
268.695923 136.0
268.81665 108.0
268.963501 92.0
269.074493 132.0
269.469666 104.0
269.564423 76.0
269.593842 240.0
269.652679 56.0
269.891296 40.0
269.995941 156.0
270.306702 68.0
270.453979 88.0
270.735535 40.0
270.801056 128.0
270.928802 128.0
271.082794 36.0
271.154877 84.0
271.3909 116.0
271.499115 148.0
271.896057 132.0
271.942017 68.0
272.181641 152.0
272.237488 60.0
272.401703 112.0
272.500244 60.0
272.661255 148.0
273.447266 36.0
273.588806 144.0
273.763306 104.0
274.099304 92.0
274.339905 156.0
274.409149 168.0
274.438812 64.0
274.877502 120.0
274.956696 196.0
275.435455 160.0
275.676636 188.0
275.746033 152.0
275.861694 148.0
276.149384 116.0
276.321381 52.0
276.483521 108.0
276.605988 132.0
276.874176 128.0
277.084656 320.0
277.460632 116.0
277.835388 140.0
277.978058 164.0
278.095551 348.0
278.25354 104.0
278.286743 172.0
278.366425 172.0
278.389679 100.0
278.472717 48.0
278.552429 96.0
278.61142 164.0
278.634308 228.0
278.698608 136.0
278.755096 204.0
278.799835 204.0
278.823547 196.0
278.851471 132.0
278.905945 252.0
278.962128 188.0
279.03656 372.0
279.095825 66492.0
279.15802 132.0
279.185486 304.0
279.251099 40.0
279.32843 164.0
279.360199 200.0
279.398804 80.0
279.423035 36.0
279.450226 184.0
279.515381 148.0
279.546509 104.0
279.570343 252.0
279.629944 140.0
279.64035 116.0
279.689606 48.0
279.714233 284.0
279.749542 136.0
279.786163 60.0
279.812775 160.0
279.871063 80.0
279.916718 100.0
279.982605 64.0
280.027618 124.0
280.098297 15988.0
280.161407 112.0
280.204041 164.0
280.235748 128.0
280.259094 108.0
280.295746 36.0
280.321716 80.0
280.334259 64.0
280.370331 108.0
280.395691 40.0
280.432373 188.0
280.475708 44.0
280.515961 52.0
280.542358 52.0
280.59903 60.0
280.715729 108.0
280.834229 128.0
280.879242 152.0
280.928497 76.0
281.040497 132.0
281.092773 4196.0
281.141235 176.0
281.17276 84.0
281.218109 48.0
281.270996 92.0
281.306274 112.0
281.363037 56.0
281.396393 64.0
281.443268 104.0
281.533936 64.0
281.574005 88.0
281.611389 136.0
281.671448 44.0
281.713654 48.0
281.769867 44.0
281.81488 136.0
281.888336 116.0
281.92749 132.0
281.950897 120.0
281.978973 120.0
282.051178 48.0
282.093658 608.0
282.184875 148.0
282.208282 160.0
282.259674 116.0
282.29187 60.0
282.321136 80.0
282.473511 64.0
282.540771 116.0
282.623016 140.0
282.726746 36.0
282.876282 160.0
283.185425 56.0
283.2323 40.0
283.259094 120.0
283.339508 72.0
283.410309 88.0
283.480225 80.0
283.684662 28.0
283.724915 76.0
283.812073 72.0
283.885834 32.0
284.194427 88.0
284.667725 76.0
284.926331 32.0
285.16156 56.0
285.186462 184.0
285.232147 40.0
285.541473 228.0
286.450226 68.0
286.544556 100.0
286.870178 104.0
287.58316 56.0
288.887451 48.0
289.987915 116.0
290.03537 80.0
290.167572 168.0
290.296417 72.0
290.601685 60.0
291.107422 128.0
291.406342 108.0
292.085663 96.0
292.167877 144.0
293.093933 68.0
293.124603 28.0
293.775787 68.0
293.891785 32.0
294.117035 200.0
294.612152 80.0
295.090607 160.0
295.121307 176.0
295.312897 52.0
296.072662 168.0
296.122131 500.0
296.209656 76.0
296.298737 76.0
297.306793 84.0
297.437225 68.0
298.069122 116.0
298.240967 68.0
299.383179 60.0
299.655304 132.0
300.399933 124.0
301.712189 180.0
302.089111 92.0
302.237885 88.0
304.046753 124.0
304.557129 68.0
305.533905 64.0
306.271881 68.0
307.202576 72.0
309.159607 172.0
310.157318 104.0
310.74646 52.0
310.942963 88.0
311.272949 140.0
313.355164 68.0
313.926178 68.0
313.989655 108.0
314.088409 112.0
314.593018 112.0
315.108612 176.0
316.261414 80.0
317.84906 124.0
318.456116 84.0
318.876434 128.0
319.3909 88.0
320.711884 124.0
320.982819 240.0
321.828461 72.0
322.132294 148.0
324.397156 156.0
324.863312 72.0
325.459076 76.0
327.231628 68.0
328.125092 156.0
328.593964 68.0
329.384521 52.0
329.55072 120.0
330.881653 108.0
332.447479 100.0
333.017456 148.0
335.222076 92.0
335.280396 28.0
339.110504 64.0
341.127411 212.0
341.320465 148.0
342.129852 228.0
343.136871 236.0
344.227753 88.0
344.427185 108.0
344.574951 32.0
345.055389 120.0
345.173706 92.0
345.573181 96.0
345.747101 92.0
346.217255 64.0
346.546936 116.0
346.8508 56.0
347.455261 116.0
349.082092 52.0
349.997437 68.0
350.608337 32.0
352.085663 132.0
352.208923 128.0
355.702454 68.0
355.969025 96.0
356.543549 132.0
357.277618 48.0
357.495209 128.0
357.920563 76.0
358.632568 84.0
358.666504 120.0
359.126495 48.0
359.152893 60.0
360.013367 220.0
361.207703 104.0
363.625031 64.0
366.640869 132.0
368.189728 68.0
370.672424 128.0
371.377808 56.0
373.167297 132.0
375.716827 72.0
376.376801 100.0
376.504242 68.0
378.267303 148.0
379.724152 80.0
380.942932 200.0
381.65802 100.0
382.155029 128.0
383.160339 148.0
383.733246 112.0
384.006195 120.0
384.095917 104.0
384.173615 7556.0
384.299377 76.0
384.329987 124.0
384.371124 88.0
384.40976 188.0
384.466553 60.0
384.532898 44.0
384.564117 72.0
384.712433 80.0
385.176483 1832.0
385.227905 48.0
385.896179 56.0
385.950928 72.0
385.993927 48.0
386.172638 604.0
386.38504 88.0
386.447662 96.0
386.674622 48.0
386.954987 108.0
387.172607 308.0
388.633911 44.0
392.271698 80.0
394.138428 68.0
394.632477 128.0
395.281158 116.0
395.823456 96.0
395.88681 128.0
396.754547 112.0
396.806061 76.0
398.985626 44.0
399.029358 80.0
400.74472 84.0
402.05661 56.0
402.775269 48.0
404.810944 140.0
404.955109 56.0
405.071259 68.0
405.748505 80.0
406.594849 84.0
408.04892 80.0
409.002319 164.0
409.131134 60.0
410.02533 100.0
410.44458 72.0
410.605865 40.0
413.316437 72.0
414.365082 52.0
414.531219 92.0
414.774384 76.0
415.703125 72.0
416.604462 72.0
418.235046 84.0
422.172058 88.0
422.994415 76.0
424.28891 160.0
427.003052 40.0
427.127869 116.0
427.422668 68.0
427.599609 72.0
427.764252 64.0
428.287201 36.0
428.872284 88.0
430.22525 44.0
430.757965 124.0
431.171112 76.0
433.028717 48.0
433.111542 44.0
433.857422 68.0
434.305267 112.0
434.475342 124.0
435.716644 80.0
437.717224 84.0
440.657745 56.0
441.489532 140.0
442.506317 116.0
454.450928 76.0
455.350861 96.0
456.158142 32.0
456.209167 112.0
457.425751 80.0
458.430878 80.0
461.209229 56.0
462.616516 88.0
464.918152 108.0
465.012573 48.0
466.726593 104.0
466.846985 68.0
468.82724 60.0
470.7771 96.0
471.044891 92.0
472.311371 84.0
472.86084 56.0
473.133545 124.0
473.748474 112.0
475.74762 116.0
475.834442 48.0
476.151428 112.0
476.803101 36.0
476.885681 128.0
478.059906 68.0
479.043854 76.0
480.460663 80.0
481.678558 72.0
481.717896 104.0
482.731842 80.0
483.900116 72.0
489.894714 36.0
491.662781 72.0
493.296997 88.0
494.615143 76.0
498.202545 136.0
499.771942 84.0
502.427277 64.0
502.998444 88.0
509.311951 72.0
509.873566 44.0
510.147736 108.0
510.336548 56.0
511.465698 88.0
514.246643 48.0
515.651245 28.0
518.429993 88.0
521.366089 88.0
521.752441 88.0
524.916809 52.0
525.537109 108.0
526.769775 68.0
529.028748 68.0
532.371155 100.0
532.839661 48.0
533.202698 72.0
533.294617 84.0
536.078918 60.0
537.070129 52.0
537.877563 68.0
541.270935 84.0
541.585876 124.0
543.49585 60.0
545.5672 88.0
546.827759 76.0
552.183716 60.0
552.478394 92.0
554.524597 124.0
555.359131 80.0
567.582886 112.0
570.231812 100.0
576.622925 96.0
582.266602 56.0
582.372253 44.0
582.410645 84.0
585.931885 116.0
587.146545 96.0
589.144836 96.0
597.546387 132.0
601.352112 40.0
604.044373 88.0
606.414185 40.0
610.469299 104.0
610.562744 100.0
614.700745 40.0
615.159729 92.0
615.757141 80.0
622.065186 120.0
623.768982 92.0
624.350708 60.0
626.490967 88.0
627.687134 88.0
630.712463 152.0
631.427429 52.0
633.489624 64.0
635.936523 76.0
638.161926 68.0
649.286194 84.0
651.412842 112.0
653.395447 68.0
654.118042 64.0
667.368225 32.0
672.648743 68.0
676.297974 84.0
676.582642 76.0
680.0401 148.0
680.522827 92.0
684.943176 100.0
689.346497 104.0
697.133484 48.0
698.148071 72.0
698.82135 76.0
710.120605 112.0
716.041199 76.0
717.74646 116.0
723.404236 60.0
724.485962 56.0
725.225464 40.0
726.549927 40.0
728.632935 84.0
728.740356 48.0
732.112976 120.0
732.252991 108.0
733.287415 52.0
734.20929 52.0
736.000854 44.0
737.891846 104.0
738.962708 92.0
742.494446 80.0
747.149475 80.0
756.119934 56.0
759.593628 84.0
759.807556 48.0
762.800476 108.0
763.586731 36.0
772.771179 96.0
780.625366 96.0
784.963196 72.0
788.631042 104.0
791.752869 80.0
801.876648 112.0
802.823792 192.0
804.364014 92.0
805.425598 88.0
810.86853 160.0
821.313049 48.0
826.420166 88.0
834.863708 104.0
842.159973 104.0
855.589722 92.0
857.611023 152.0
861.32782 72.0
866.897522 108.0
867.776794 104.0
868.820679 60.0
874.261536 92.0
879.453735 88.0
881.568054 88.0
893.723816 44.0
894.098694 84.0
901.965576 48.0
908.78064 128.0
909.512756 36.0
910.269165 128.0
919.9505 120.0
921.490479 68.0
922.789917 100.0
926.099976 76.0
930.168518 56.0
936.059753 56.0
937.570496 60.0
953.328613 56.0
958.325012 140.0
969.881226 148.0
977.893494 132.0
978.036621 92.0
983.128479 48.0
986.682495 160.0
1011.68335 60.0
1014.648193 200.0
1015.294922 80.0
1015.548645 180.0
1016.08783 40.0
1017.928467 64.0
1022.308289 140.0
1025.352417 132.0
1027.692627 124.0
1027.903198 92.0
1027.947876 224.0
1039.241455 148.0
1048.436646 112.0
1049.53894 76.0
1052.894531 152.0
1055.511719 168.0
1055.738037 40.0
1056.727661 68.0
1060.794678 108.0
1068.268921 52.0
1069.53125 60.0
1069.993408 56.0
1072.951172 176.0
1073.909668 64.0
1075.893433 64.0
1076.637695 164.0
1076.801025 96.0
1078.911499 60.0
1080.055908 140.0
1080.448364 144.0
1081.155029 196.0
1081.619751 120.0
1085.531006 152.0
1086.108154 28.0
1091.131714 164.0
1092.387695 108.0
1098.63269 52.0
1101.940186 56.0
1103.169434 52.0
1105.50415 64.0
1118.80542 132.0
1121.656494 104.0
1123.263428 156.0
1123.456909 152.0
1123.550293 168.0
1125.212036 156.0
1128.579468 176.0
1131.007812 220.0
1137.462769 60.0
1141.365967 180.0
1141.722412 136.0
1143.464844 76.0
1146.994141 136.0
1148.545044 220.0
1152.697021 96.0
1153.480957 88.0
1157.574097 68.0
1160.806396 64.0
1161.369263 60.0
1162.108765 68.0
1164.790283 56.0
1166.536621 176.0
1167.209717 132.0
1167.400024 80.0
1170.993408 228.0
1173.166992 116.0
1174.401123 136.0
1179.057373 228.0
1182.114258 168.0
1183.859863 240.0
1185.017456 76.0
1188.184814 172.0
1188.555298 100.0
1190.971802 108.0
1191.150391 92.0
1196.115112 284.0
1196.831055 68.0
1197.857178 148.0
1198.167114 124.0
1202.739136 84.0
1205.190674 176.0
1206.324097 136.0
1212.151611 60.0
1216.534912 140.0
1217.520874 184.0
1218.35437 92.0
1220.946899 164.0
1221.851196 172.0
1224.621704 148.0
1227.430176 156.0
1228.176392 100.0
1231.331055 100.0
1232.92395 140.0
1233.804565 84.0
1234.461792 168.0
1234.57373 80.0
1234.762573 120.0
1236.623535 144.0
1239.796143 152.0
1240.43396 184.0
1240.728394 68.0
1245.563354 176.0
1249.169312 184.0
1250.006592 132.0
1254.070068 164.0
1258.359009 160.0
1259.220459 184.0
1261.93396 132.0
1262.230957 184.0
1264.112549 136.0
1265.733521 124.0
1267.263428 80.0
1271.667114 68.0
1282.271362 120.0
1283.112549 136.0
1283.326416 112.0
1286.722412 168.0
1287.09375 52.0
1288.679321 56.0
1288.927246 208.0
1289.451172 96.0
1293.341919 232.0
1299.590942 172.0
1299.748779 196.0
1302.160889 196.0
1302.584595 168.0
1302.800171 180.0
1309.849731 128.0
1314.095825 128.0
1317.359009 40.0
1318.999268 168.0
1320.011475 60.0
1320.915527 56.0
1329.036743 96.0
1330.880371 56.0
1330.99646 88.0
1331.54834 216.0
1331.853394 132.0
1333.829834 196.0
1334.651367 36.0
1340.948242 112.0
1341.261597 116.0
1341.596924 236.0
1342.428101 112.0
1343.471069 120.0
1345.813843 120.0
1352.224731 128.0
1353.169067 176.0
1354.80957 172.0
1356.905518 92.0
1357.323486 140.0
1358.1521 212.0
1358.306152 120.0
1358.504272 52.0
1358.658325 176.0
1360.001099 168.0
1361.307983 208.0
1363.195801 148.0
1363.269287 60.0
1363.526489 188.0
1364.166016 84.0
1365.776367 208.0
1366.975586 72.0
1369.714355 60.0
1371.868408 244.0
1372.994141 152.0
1373.488281 132.0
1380.415771 108.0
1380.844727 164.0
1381.606567 136.0
1386.145142 56.0
1386.389648 308.0
1387.064209 152.0
1387.116089 192.0
1387.494141 140.0
1388.635986 32.0
1389.429688 68.0
1390.861938 104.0
1391.151367 96.0
1392.82959 124.0
1396.821167 200.0
1403.32251 140.0
1404.060791 116.0
1406.507935 200.0
1407.097778 84.0
1408.359741 164.0
1409.248657 212.0
1410.377075 148.0
1410.556519 120.0
1410.743408 164.0
1411.520996 172.0
1412.994385 168.0
1414.074829 72.0
1414.184204 80.0
1414.536011 108.0
1415.404419 60.0
1415.606567 260.0
1416.115845 164.0
1416.707642 64.0
1418.843384 92.0
1419.855713 96.0
1420.523193 128.0
1421.04834 148.0
1421.273438 140.0
1423.667969 176.0
1423.848267 152.0
1424.509277 192.0
1424.64502 216.0
1426.703491 168.0
1428.019409 188.0
1428.749023 52.0
1431.089722 168.0
1431.767334 176.0
1432.776733 164.0
1434.080322 152.0
1435.399658 100.0
1435.603271 140.0
1436.719482 136.0
1437.648804 192.0
1438.568359 220.0
1439.143311 124.0
1439.527222 148.0
1440.629883 68.0
1440.939697 60.0
1443.199463 100.0
1444.288452 224.0
1444.984497 192.0
1445.400635 136.0
1445.544434 176.0
1446.111938 188.0
1446.437378 120.0
1448.300171 96.0
1449.103149 48.0
1449.694092 128.0
1449.891113 180.0
1452.218628 164.0
1452.271729 32.0
1452.522095 88.0
1454.297607 44.0
1455.360352 196.0
1456.757812 232.0
1457.593506 156.0
1457.943115 168.0
1458.110229 156.0
1458.452271 168.0
1458.786743 304.0
1459.075562 120.0
1460.756226 92.0
1461.227905 164.0
1461.547485 196.0
1462.917358 40.0
1463.138184 36.0
1466.505005 92.0
1467.762939 140.0
1468.54834 228.0
1468.693237 184.0
1468.914551 140.0
1469.685059 128.0
1469.78418 156.0
1472.456055 140.0
1477.768677 112.0
1478.227783 200.0
1478.487915 140.0
1478.939575 136.0
1479.934692 104.0
1480.646851 208.0
1480.807739 212.0
1481.259644 144.0
1482.156006 272.0
1482.569702 184.0
1482.868652 108.0
1483.290161 76.0
1483.803833 144.0
1483.865112 144.0
1484.674438 124.0
1485.782471 164.0
1485.866821 68.0
1486.39624 56.0
1486.795288 224.0
1486.998901 184.0
1487.38623 80.0
1487.677979 96.0
1489.543945 208.0
1489.835938 228.0
1490.389038 220.0
1490.581177 196.0
1491.903076 96.0
1492.072266 204.0
1492.518188 180.0
1492.979492 168.0
1493.110229 116.0
1495.295166 68.0
1495.626221 152.0
1496.303589 112.0
1497.289185 120.0
1497.620361 188.0
1499.022461 72.0
1501.48938 128.0
1501.844116 72.0
1502.600098 188.0
1503.626343 192.0
1503.834839 184.0
1504.884644 184.0
1505.216675 180.0
