>compound Methacycline hydrochloride (Physiomycine)
>formula C22H22N2O8
>ionization [M+H]+
>parentmass 443.143463
#inchi InChI=1S/C22H22N2O8/c1-7-8-5-4-6-9(25)11(8)16(26)12-10(7)17(27)14-15(24(2)3)18(28)13(21(23)31)20(30)22(14,32)19(12)29/h4-6,10,14-15,17,25,27-29,32H,1H2,2-3H3,(H2,23,31)/t10-,14-,15-,17-,22+/m1/s1
#inchikey MHIGBKBJSQVXNH
#origInchi InChI=1S/C22H22N2O8.ClH/c1-7-8-5-4-6-9(25)11(8)16(26)12-10(7)17(27)14-15(24(2)3)18(28)13(21(23)31)20(30)22(14,32)19(12)29;/h4-6,10,14-15,17,25,27-29,32H,1H2,2-3H3,(H2,23,31);1H/t10-,14-,15-,17-,22+;/m1./s1
#Ion_Source LC-ESI
#Instrument qTof
#Compound_Source Commercial
#PI Dorrestein
#Data_Collector Garg_Neha
#Scan -1
#Precursor_MZ 443.145
#ExactMass 442.138
#Charge 1
#CAS_Number 3963-95-9
#Pubmed_ID N/A
#Smiles C1(=CC(=C2C(=C1)C([C@@]3(C(=C([C@]4([C@@]([C@@H]3O)([C@H](C(=C(C4=O)C(N)=O)O)N(C)C)[H])O)O)C2=O)[H])=C)O).Cl
#INCHI_AUX N/A
#Library_Class 1
#SpectrumID CCMSLIB00000078504
#IonMode Positive
#UpdateWorkflowName UPDATE-SINGLE-ANNOTATED-GOLD
#LibraryQualityString Gold
#TaskID 77f51c88eb8b467eb4a01dd2d0cb90d2
##Scan# 1027
#SpectrumFile Plate8_1_20_GC9_01_15762.mzXML
#LibraryName FDALibrary_2_04302014.mgf
#MQScore -1
#Organism FDALibrary_2_04302014
#TIC_Query 0
#RT_Query -1
#MZErrorPPM -1
#SharedPeaks 0
#MassDiff 0
#LibMZ -1
#SpecMZ 443.145
#SpecCharge 0
#internalFilename spec-00000.mgf

>collision 10
103.515862 180.0
135.057938 196.0
140.066528 244.0
147.080688 208.0
153.015869 136.0
160.951477 144.0
174.073746 152.0
188.075745 148.0
196.059662 172.0
199.07225 204.0
201.050659 848.0
201.086685 172.0
208.244736 208.0
211.100784 160.0
213.061203 124.0
215.069611 168.0
224.061127 216.0
226.073639 144.0
229.046021 196.0
237.048889 152.0
237.919968 160.0
241.096909 160.0
247.093948 216.0
254.942474 168.0
257.037842 316.0
261.054871 152.0
265.041504 168.0
267.067291 308.0
275.924866 220.0
278.898438 216.0
279.06131 160.0
291.07605 176.0
292.131287 156.0
300.708099 152.0
300.866882 156.0
313.043121 144.0
319.04895 192.0
322.909393 156.0
329.512909 156.0
330.121613 124.0
337.072266 100.0
341.944489 140.0
342.224243 140.0
352.133148 156.0
363.043793 168.0
374.898956 156.0
376.975128 196.0
392.027344 192.0
395.39209 144.0
411.122803 144.0
416.101593 164.0
426.119843 2552.0
426.177307 164.0
427.118317 600.0
428.130493 368.0
429.134247 148.0
429.914368 96.0
434.198669 204.0
434.617645 176.0
435.252716 160.0
440.208038 156.0
442.146179 340.0
443.143463 1316.0
443.387451 152.0
444.10022 148.0
444.147247 780.0
445.154816 376.0
619.137024 152.0
624.114258 148.0
1250.577393 152.0
