>compound MLS000863643-01!3,5-dimethyl-3-(4-methylpent-3-enyl)-11H-pyrano[3,2-a]carbazol-9-ol
>formula C23H25NO2
>ionization [M+H]+
>parentmass 348.196
#inchi InChI=1S/C23H25NO2/c1-14(2)6-5-10-23(4)11-9-18-21-19(12-15(3)22(18)26-23)17-8-7-16(25)13-20(17)24-21/h6-9,11-13,24-25H,5,10H2,1-4H3
#inchikey DWMBXHWBPZZCTN
#Ion_Source LC-ESI
#Instrument qTof
#Compound_Source NIH Natural Product Library
#PI Dorrestein
#Data_Collector VVP/LMS
#Scan -1
#Precursor_MZ 348.196
#ExactMass 347.189
#Charge 1
#CAS_Number N/A
#Pubmed_ID N/A
#Smiles CC(=CCCC1(C)Oc2c(C)cc3c4ccc(O)cc4[nH]c3c2C=C1)C
#INCHI_AUX N/A
#Library_Class 1
#SpectrumID CCMSLIB00000080105
#IonMode Positive
#UpdateWorkflowName UPDATE-SINGLE-ANNOTATED-GOLD
#LibraryQualityString Gold
#TaskID b1d8e8f6646f4e71acdff9ca3d919d08
##Scan# 2880
#SpectrumFile p2-B04_GB4_01_17992.mzXML
#LibraryName NIH_Natural_Products_Library.mgf
#MQScore -1
#Organism NIH_Natural_Products_Library
#TIC_Query 0
#RT_Query -1
#MZErrorPPM -1
#SharedPeaks 0
#MassDiff 0
#LibMZ -1
#SpecMZ 348.196
#SpecCharge 0
#internalFilename spec-00000.mgf

>collision 10
95.090355 160.0
95.131699 192.0
95.308434 140.0
95.372566 188.0
95.779236 176.0
95.798714 92.0
95.898094 140.0
95.972168 140.0
96.169205 108.0
96.256279 180.0
96.339088 132.0
96.559967 128.0
96.800674 48.0
96.912323 136.0
97.013466 224.0
97.1064 128.0
97.581612 112.0
98.223618 112.0
98.245316 136.0
98.278854 152.0
98.336082 148.0
98.496017 168.0
98.802422 128.0
98.828148 184.0
99.071663 96.0
99.238144 92.0
99.660912 48.0
99.827881 104.0
100.182167 36.0
100.407402 92.0
100.718765 152.0
100.784691 188.0
101.132668 172.0
101.545403 144.0
101.589287 164.0
101.675812 156.0
101.713951 184.0
101.84848 236.0
101.942909 152.0
102.021294 252.0
102.095695 160.0
102.133904 204.0
102.147987 164.0
102.162071 88.0
102.254631 156.0
102.64019 184.0
102.663597 140.0
102.716042 188.0
102.750336 200.0
103.05722 328.0
103.670341 176.0
103.976303 148.0
104.063858 136.0
104.145088 168.0
104.159309 76.0
104.25074 168.0
104.429642 176.0
104.447952 144.0
104.51712 152.0
104.616852 152.0
104.771622 108.0
104.8246 244.0
104.983604 132.0
105.070908 664.0
105.359169 96.0
105.455208 60.0
105.504272 180.0
105.645378 120.0
105.815239 148.0
106.030327 112.0
106.346176 188.0
106.485786 108.0
106.500168 168.0
106.584396 132.0
106.664551 188.0
106.691269 196.0
106.952522 84.0
106.973106 188.0
107.030754 104.0
107.067818 192.0
107.085907 1548.0
107.267677 56.0
107.666656 156.0
108.01519 180.0
108.090736 164.0
108.236641 172.0
108.34227 192.0
108.657394 80.0
108.960503 132.0
109.006218 132.0
109.068565 196.0
109.100853 240.0
109.452805 156.0
109.49926 156.0
109.60759 92.0
109.955849 204.0
110.00177 136.0
110.922173 112.0
111.014427 184.0
111.167564 132.0
111.259918 144.0
111.30191 144.0
111.770653 168.0
112.107574 164.0
112.369041 140.0
112.480888 196.0
112.632919 200.0
112.651932 224.0
113.301392 104.0
113.551521 188.0
113.753098 148.0
113.795555 204.0
114.020721 88.0
114.099373 124.0
114.465332 124.0
114.488762 180.0
114.540321 152.0
114.82975 224.0
115.600983 176.0
115.718582 204.0
115.806503 52.0
115.864342 136.0
116.168762 236.0
116.353317 124.0
116.372643 196.0
116.626137 140.0
117.506081 116.0
117.550056 216.0
117.822105 116.0
118.075523 168.0
118.105293 268.0
118.161537 196.0
118.185333 92.0
118.38665 76.0
118.557793 264.0
118.661835 244.0
118.731224 148.0
119.086975 212.0
119.524124 140.0
119.743996 196.0
119.88343 192.0
120.044746 148.0
120.11454 100.0
120.138535 164.0
120.319672 164.0
120.691093 192.0
121.049957 240.0
121.103203 256.0
121.128799 220.0
121.326027 156.0
121.51683 140.0
121.691353 128.0
122.193527 164.0
122.448875 100.0
122.649376 152.0
122.744171 132.0
122.81916 128.0
122.947121 140.0
123.118523 1068.0
123.278381 128.0
123.61451 144.0
123.645683 232.0
123.740677 208.0
123.995415 180.0
124.259293 164.0
124.359154 172.0
124.383568 164.0
124.487915 180.0
124.563431 176.0
124.614525 148.0
124.727867 168.0
124.758987 184.0
125.681046 216.0
125.794861 96.0
125.937775 172.0
126.01149 152.0
126.293159 192.0
126.510216 196.0
126.577385 160.0
126.617691 172.0
126.942642 76.0
127.270248 176.0
127.470161 152.0
127.832207 128.0
127.971764 44.0
128.059586 140.0
128.257874 196.0
128.492401 140.0
128.623291 184.0
128.738434 220.0
128.842331 96.0
129.070602 84.0
129.319458 64.0
129.419067 104.0
129.484741 152.0
129.736252 120.0
130.022049 144.0
130.062912 140.0
130.115112 60.0
130.153717 196.0
130.197647 172.0
130.219574 124.0
130.28772 196.0
130.40361 144.0
130.433151 72.0
130.492264 196.0
130.552811 184.0
131.079514 180.0
131.200302 232.0
131.348526 168.0
131.583588 56.0
131.69548 168.0
131.894272 112.0
132.127518 172.0
132.441132 116.0
132.480072 196.0
132.851456 64.0
132.947815 152.0
133.060013 164.0
133.73613 148.0
133.952576 200.0
134.060867 200.0
134.487534 176.0
135.116684 1052.0
135.312805 256.0
135.546738 144.0
135.718475 176.0
135.875977 152.0
136.061646 132.0
136.138275 148.0
136.259048 244.0
136.325073 224.0
136.498459 52.0
136.584503 212.0
136.757385 148.0
136.987213 148.0
137.052444 84.0
137.346191 60.0
137.605225 156.0
137.66127 164.0
138.149765 152.0
138.250366 200.0
138.29718 44.0
138.390823 156.0
138.538361 128.0
138.575043 208.0
138.629745 132.0
138.845413 196.0
139.195084 196.0
139.347748 160.0
139.366547 168.0
139.404144 188.0
139.563995 168.0
139.730988 132.0
140.060547 124.0
140.18306 196.0
140.593399 96.0
140.987793 156.0
141.061493 196.0
141.101242 124.0
141.120163 204.0
141.385086 164.0
141.44426 164.0
142.152908 204.0
142.240723 168.0
142.368927 204.0
142.651672 152.0
142.834778 84.0
142.956116 140.0
143.044174 160.0
143.080399 148.0
143.163223 64.0
143.270401 152.0
143.313293 168.0
143.437225 416.0
143.511124 112.0
143.818863 60.0
143.864212 152.0
144.079147 180.0
144.167557 140.0
144.409027 120.0
144.698578 112.0
144.797073 120.0
144.856628 176.0
145.069733 164.0
145.075455 152.0
145.084961 212.0
145.165817 160.0
145.232956 200.0
145.465714 80.0
145.987091 208.0
146.061035 424.0
146.232483 100.0
146.275803 232.0
146.574448 212.0
146.670853 132.0
146.902344 200.0
146.98027 80.0
147.083328 208.0
147.12677 88.0
147.345825 228.0
147.525375 100.0
147.689819 48.0
147.827713 164.0
147.864014 204.0
147.919693 184.0
148.011688 204.0
148.038315 236.0
148.379974 20.0
148.763275 88.0
148.809402 124.0
148.833679 172.0
148.86525 172.0
148.894394 152.0
149.241882 132.0
149.339157 192.0
149.431595 132.0
149.723709 200.0
149.779724 260.0
149.942963 160.0
150.072159 120.0
150.145325 160.0
150.277039 156.0
150.30632 208.0
150.418594 112.0
150.596832 116.0
150.877853 164.0
150.958542 180.0
151.208069 108.0
151.462708 172.0
151.614624 96.0
151.889221 124.0
152.002075 136.0
152.0392 156.0
152.060669 296.0
152.33844 164.0
152.830139 184.0
153.103378 80.0
153.662933 124.0
153.83815 200.0
154.066406 404.0
154.297653 204.0
154.483124 144.0
154.527664 148.0
154.616745 72.0
154.946075 220.0
155.049149 180.0
155.071991 312.0
155.093475 124.0
155.149292 28.0
155.216232 36.0
155.248474 152.0
155.278229 108.0
155.541245 132.0
155.580963 84.0
155.662888 160.0
155.757263 204.0
155.819382 48.0
155.98587 224.0
156.080536 260.0
156.710083 128.0
156.9319 84.0
157.321106 192.0
157.386017 44.0
157.415985 200.0
157.590836 140.0
157.823273 120.0
157.853287 88.0
158.065903 148.0
158.128479 64.0
158.166016 172.0
158.306229 196.0
158.386368 160.0
158.616898 172.0
159.068268 164.0
159.083618 212.0
159.168839 172.0
159.240326 152.0
159.616119 168.0
159.953247 204.0
160.071564 164.0
160.452026 156.0
160.514053 320.0
160.93898 132.0
161.358398 172.0
161.445328 84.0
161.462067 324.0
161.626495 116.0
161.654327 188.0
161.803665 128.0
161.986008 152.0
162.064545 176.0
162.201385 100.0
162.721451 188.0
162.932236 164.0
162.967804 164.0
163.145721 144.0
163.234711 120.0
163.592865 208.0
164.57756 116.0
164.788651 160.0
165.064697 324.0
165.311172 216.0
165.447876 244.0
165.498032 156.0
165.667068 96.0
165.710617 136.0
165.856689 152.0
165.915649 132.0
166.065826 484.0
166.159286 188.0
166.197769 104.0
166.2491 148.0
166.297852 344.0
166.364594 224.0
166.759216 192.0
167.025726 172.0
167.074448 404.0
167.53212 180.0
167.753738 108.0
168.08049 296.0
168.546082 104.0
168.760605 200.0
168.995987 20.0
169.086548 176.0
169.208206 52.0
169.550507 224.0
169.617523 136.0
169.648621 212.0
169.954666 192.0
170.062042 176.0
170.094391 176.0
170.292145 172.0
170.377869 108.0
170.535172 200.0
170.803421 48.0
170.960297 124.0
171.080017 96.0
171.645401 188.0
171.822754 168.0
171.873276 100.0
172.010651 52.0
172.095276 176.0
172.122925 116.0
172.240448 136.0
172.352921 144.0
172.373688 160.0
172.457321 116.0
172.852219 112.0
172.97261 60.0
173.085007 180.0
173.347122 136.0
173.431 156.0
173.546341 184.0
173.735168 124.0
173.913605 100.0
173.950363 64.0
174.086884 144.0
174.110519 104.0
174.34433 228.0
174.869339 80.0
174.975616 176.0
175.049347 184.0
175.091476 108.0
175.167862 180.0
175.58432 176.0
175.650253 76.0
175.876724 116.0
176.069916 168.0
176.143875 124.0
176.336761 176.0
176.746658 216.0
176.987534 56.0
177.273605 128.0
177.411438 72.0
177.833191 176.0
178.071487 184.0
178.130585 80.0
178.194351 120.0
178.313919 60.0
178.452148 124.0
178.617035 156.0
178.670242 176.0
178.760696 64.0
178.795303 212.0
178.984299 108.0
179.08017 300.0
179.274658 60.0
179.341293 120.0
179.405258 52.0
179.86409 148.0
179.885437 168.0
180.075012 112.0
180.176529 156.0
180.43042 212.0
180.561432 92.0
180.6604 128.0
180.735321 132.0
180.853073 140.0
181.045837 132.0
181.076569 164.0
181.092026 184.0
181.177078 156.0
181.195831 100.0
181.270859 112.0
181.442398 56.0
181.766937 176.0
181.90918 164.0
181.997787 208.0
182.046112 160.0
182.066467 244.0
182.103104 236.0
182.502914 244.0
182.634689 164.0
182.755753 144.0
182.798813 184.0
182.825714 148.0
182.847244 160.0
182.968384 152.0
183.068787 4556.0
183.191895 48.0
183.210754 208.0
183.235001 208.0
183.321228 144.0
183.364349 176.0
183.447906 104.0
183.472168 220.0
183.563843 48.0
183.774231 168.0
183.887573 120.0
184.076523 1916.0
184.144058 72.0
184.168365 60.0
184.522369 228.0
184.700851 84.0
185.080658 212.0
185.142014 144.0
185.304489 180.0
185.41835 152.0
185.638672 148.0
185.703033 184.0
185.838669 48.0
185.895645 204.0
186.044937 152.0
186.092285 156.0
186.449646 164.0
186.748718 40.0
186.977249 188.0
187.056183 184.0
187.075241 60.0
187.106689 304.0
187.150208 180.0
187.342117 156.0
187.440796 148.0
187.486526 276.0
187.644623 124.0
187.922821 100.0
188.059265 64.0
188.164795 140.0
188.518082 52.0
188.662399 200.0
188.728561 152.0
188.854355 148.0
189.245697 84.0
189.267593 172.0
189.612762 168.0
189.749817 52.0
189.790939 124.0
189.848526 140.0
190.24913 160.0
190.515503 192.0
190.584198 80.0
190.99382 180.0
191.09285 160.0
191.189163 124.0
191.511276 152.0
191.712402 132.0
192.032211 136.0
192.080429 132.0
192.206009 148.0
192.308105 168.0
192.410248 112.0
192.940689 48.0
193.03746 192.0
193.090683 376.0
193.297485 32.0
194.039795 48.0
194.070282 164.0
194.098511 496.0
194.136841 216.0
194.40593 160.0
194.491959 120.0
194.964111 96.0
195.030823 144.0
195.058624 164.0
195.100586 164.0
195.122559 204.0
195.186508 152.0
195.267151 144.0
195.331131 232.0
195.523102 148.0
195.731888 192.0
195.89621 184.0
195.946243 184.0
196.076111 2588.0
196.191605 200.0
196.258514 184.0
196.442596 52.0
196.481644 176.0
196.570938 116.0
196.62674 132.0
196.780273 72.0
196.850082 160.0
196.872421 144.0
197.028839 76.0
197.083725 2496.0
197.121048 176.0
197.143402 40.0
197.191498 76.0
197.26358 176.0
197.34465 52.0
197.369827 180.0
197.411758 200.0
197.492874 60.0
197.576782 140.0
197.71109 100.0
197.848251 144.0
197.890244 160.0
198.034836 132.0
198.091339 5884.0
198.240387 52.0
198.285217 84.0
198.383331 228.0
198.405746 60.0
198.436584 124.0
198.456223 44.0
198.613266 144.0
198.76857 168.0
198.976837 128.0
199.065338 680.0
199.096588 924.0
199.309006 160.0
199.390991 108.0
199.523102 72.0
199.628693 108.0
199.760574 216.0
199.891556 68.0
200.069077 376.0
200.098145 224.0
200.130814 60.0
200.21701 164.0
200.237701 184.0
200.33078 184.0
200.415298 56.0
200.559021 144.0
200.753555 192.0
200.807144 156.0
200.95665 164.0
201.007446 172.0
201.131622 64.0
201.498734 212.0
201.662628 76.0
201.781357 48.0
201.806808 188.0
201.917084 56.0
202.095306 228.0
202.279251 192.0
202.743759 180.0
202.772095 144.0
203.074448 100.0
203.308105 244.0
203.345001 116.0
203.472748 172.0
203.572113 180.0
203.714127 120.0
203.839142 152.0
204.079315 648.0
204.143311 104.0
204.205872 92.0
204.535934 200.0
204.640991 172.0
205.022964 176.0
205.093582 272.0
205.168335 140.0
205.248169 40.0
205.279526 152.0
205.370789 152.0
205.405014 228.0
205.561935 72.0
205.638992 208.0
205.810272 136.0
206.001633 68.0
206.102448 268.0
206.195923 216.0
206.404602 192.0
206.44017 216.0
206.839478 124.0
206.879547 80.0
207.069366 612.0
207.10704 168.0
207.303452 236.0
207.395157 68.0
207.452484 100.0
207.481155 128.0
207.509262 244.0
207.630264 40.0
207.679016 136.0
207.865494 172.0
207.951584 124.0
208.078934 392.0
208.132446 112.0
208.675491 188.0
208.787628 84.0
208.844009 240.0
208.942963 176.0
209.086563 1432.0
209.478424 40.0
209.498581 56.0
209.533157 224.0
209.945068 168.0
210.091568 2600.0
210.15303 88.0
210.179001 36.0
210.257309 144.0
210.308868 52.0
210.44455 64.0
210.664032 100.0
210.840286 96.0
211.031845 164.0
211.068314 168.0
211.095261 756.0
211.169876 52.0
211.213257 192.0
211.242188 132.0
211.282684 72.0
211.305832 48.0
211.524048 148.0
211.650269 32.0
211.902252 64.0
211.94281 200.0
211.968887 64.0
212.072144 3240.0
212.105835 180.0
212.154388 176.0
212.209473 112.0
212.32193 148.0
212.461792 152.0
212.664917 32.0
212.958694 88.0
212.993011 148.0
213.080032 3104.0
213.147003 36.0
213.170242 88.0
213.501648 56.0
213.641266 156.0
213.66745 56.0
213.728775 196.0
213.751816 148.0
213.780914 116.0
213.999237 148.0
214.085693 1064.0
214.115707 240.0
214.167328 100.0
214.211823 44.0
214.290482 132.0
214.337112 204.0
214.369156 60.0
214.494492 140.0
214.532379 152.0
214.727737 164.0
214.797745 108.0
214.824005 72.0
215.09053 332.0
215.180038 208.0
215.218002 108.0
215.317276 144.0
215.401993 76.0
215.626968 60.0
215.846222 132.0
215.901779 140.0
216.012924 164.0
216.11824 164.0
216.19725 120.0
216.478287 32.0
216.586655 156.0
216.621796 156.0
216.697968 116.0
216.788803 112.0
217.084885 48.0
217.504425 148.0
217.736389 120.0
218.027237 144.0
218.096161 180.0
218.180069 100.0
218.462387 168.0
218.868546 200.0
218.974564 420.0
219.070999 168.0
219.107391 164.0
219.311844 228.0
219.54335 64.0
219.876724 152.0
220.076752 1016.0
220.151917 184.0
220.260559 132.0
220.372818 124.0
220.567871 84.0
220.907928 156.0
221.035141 212.0
221.084457 3768.0
221.17424 136.0
221.20401 68.0
221.437759 136.0
221.529587 188.0
221.621414 144.0
221.811096 108.0
221.941544 72.0
221.983047 104.0
222.033463 124.0
222.091629 1996.0
222.176208 320.0
222.434021 124.0
222.505264 44.0
222.549805 168.0
222.585434 200.0
222.98053 156.0
223.013229 176.0
223.064255 480.0
223.097885 1248.0
223.138077 236.0
223.330185 180.0
223.358139 140.0
223.402756 148.0
223.453339 220.0
223.634857 112.0
223.664627 52.0
223.908768 208.0
224.070267 540.0
224.107803 2140.0
224.239471 68.0
224.430267 148.0
224.457092 40.0
224.483932 56.0
224.579376 72.0
224.737473 80.0
224.761353 212.0
224.913559 152.0
224.992523 212.0
225.080338 1084.0
225.113434 244.0
225.146439 40.0
225.212143 64.0
225.463104 196.0
225.732147 108.0
225.926559 100.0
225.983414 108.0
226.02829 200.0
226.087936 12552.0
226.124893 556.0
226.194366 180.0
226.239532 120.0
226.261749 100.0
226.300674 36.0
226.341187 124.0
226.489334 104.0
226.596115 56.0
226.645126 44.0
226.685745 172.0
226.732025 184.0
226.8759 124.0
226.956848 60.0
227.040817 148.0
227.090958 2164.0
227.12088 320.0
227.313797 80.0
227.496887 80.0
227.550919 72.0
227.674026 64.0
227.719086 84.0
227.836227 124.0
227.965439 148.0
228.091202 468.0
228.293106 144.0
228.523071 44.0
228.672165 128.0
228.834717 140.0
229.280533 192.0
229.714722 72.0
229.958466 92.0
229.979767 148.0
231.04631 112.0
231.057816 88.0
231.103683 176.0
231.485825 120.0
231.722092 48.0
231.834198 84.0
231.941254 212.0
232.081253 196.0
232.119156 112.0
232.416412 176.0
232.546906 44.0
232.741196 164.0
232.862671 72.0
233.085312 660.0
233.123932 64.0
233.169525 220.0
233.817322 32.0
234.093079 1164.0
234.121353 208.0
234.2771 36.0
234.6306 176.0
234.654999 68.0
234.690933 204.0
234.831863 48.0
235.020996 112.0
235.05658 132.0
235.097641 1264.0
235.136963 148.0
235.320114 116.0
235.469742 84.0
235.652039 152.0
235.74469 68.0
235.833328 96.0
235.880707 192.0
236.007568 168.0
236.072632 3212.0
236.109222 2532.0
236.181885 60.0
236.236954 152.0
236.34404 160.0
236.386871 64.0
236.410706 236.0
236.530716 96.0
236.786942 172.0
236.855301 152.0
236.910431 232.0
236.999283 156.0
237.03299 240.0
237.079239 5160.0
237.114883 748.0
237.397766 60.0
237.444901 120.0
237.471375 192.0
237.643158 100.0
237.744431 208.0
238.004562 188.0
238.042191 172.0
238.083206 1416.0
238.123169 1632.0
238.192688 64.0
238.423126 88.0
238.487671 128.0
238.521469 52.0
238.728165 160.0
238.838181 144.0
238.862305 84.0
238.885452 132.0
238.948929 132.0
239.092621 956.0
239.125977 284.0
239.413727 108.0
239.453766 192.0
239.555405 72.0
239.657074 100.0
239.715729 124.0
239.764923 68.0
239.805374 164.0
239.864029 184.0
240.099075 1128.0
240.952911 56.0
241.07341 128.0
241.106506 124.0
241.500061 80.0
241.759933 52.0
241.787796 48.0
241.858978 168.0
242.159317 28.0
242.676819 96.0
242.862885 72.0
242.937332 204.0
243.040558 172.0
243.067642 132.0
243.275589 256.0
243.837799 212.0
244.078659 208.0
244.100327 180.0
245.091904 216.0
245.419174 200.0
245.522079 244.0
245.908951 124.0
245.930801 128.0
246.089203 264.0
246.121231 100.0
246.336731 148.0
246.370209 172.0
246.57106 60.0
246.711716 56.0
247.058853 144.0
247.101135 2728.0
247.165222 40.0
247.221558 72.0
247.362991 64.0
247.575302 84.0
247.619156 48.0
247.666122 160.0
247.932434 216.0
247.957504 248.0
248.10849 1368.0
248.233383 196.0
248.308655 84.0
248.521957 92.0
248.826401 120.0
249.079605 3932.0
249.118393 1340.0
249.203293 68.0
249.225296 160.0
249.259857 40.0
249.415314 64.0
249.51564 136.0
249.665375 76.0
249.721985 80.0
249.810059 52.0
249.832077 140.0
249.857239 52.0
249.882416 52.0
249.956757 216.0
249.983109 76.0
250.04863 224.0
250.087784 7256.0
250.171951 128.0
250.216019 44.0
250.345123 132.0
250.376617 128.0
250.442749 120.0
250.543549 64.0
250.58136 60.0
250.606567 72.0
250.631775 116.0
250.663284 196.0
250.921738 232.0
250.9785 48.0
251.019485 164.0
251.094009 3836.0
251.132568 340.0
251.170868 88.0
251.302734 60.0
251.524277 76.0
251.593719 104.0
251.707382 48.0
251.751602 68.0
251.840485 136.0
252.098801 1060.0
252.140259 344.0
252.235001 64.0
252.465805 96.0
252.570175 92.0
252.684052 88.0
252.981537 44.0
253.0271 164.0
253.093887 164.0
253.203186 40.0
253.428101 56.0
253.751373 112.0
253.820251 244.0
253.900406 188.0
254.008255 104.0
254.119156 688.0
254.423965 176.0
254.446182 136.0
254.544617 180.0
254.859085 56.0
255.005264 116.0
255.121262 692.0
255.154663 64.0
255.32637 132.0
255.361343 52.0
255.498138 84.0
255.577667 188.0
255.641312 36.0
256.125244 288.0
256.262238 200.0
256.593689 64.0
256.84494 148.0
257.180664 128.0
257.257263 72.0
257.346649 92.0
257.368988 88.0
257.436066 152.0
257.717163 80.0
257.851379 164.0
257.937683 100.0
258.001617 56.0
258.091797 128.0
258.15509 64.0
258.219025 64.0
258.28302 228.0
259.02243 152.0
259.101807 496.0
259.182617 128.0
259.33963 176.0
259.432587 136.0
259.746857 216.0
259.97467 140.0
260.110138 528.0
260.364227 148.0
260.99295 256.0
261.076538 388.0
261.117523 180.0
261.16983 168.0
261.322449 152.0
261.342621 240.0
261.43042 192.0
261.552704 220.0
262.089081 808.0
262.123291 552.0
262.222656 144.0
262.309692 48.0
262.396729 68.0
262.490234 160.0
262.622467 72.0
262.728912 132.0
262.782013 156.0
262.832153 132.0
262.903137 124.0
262.954773 228.0
262.983826 236.0
263.095551 2896.0
263.203369 188.0
263.274414 180.0
263.313141 172.0
263.351898 204.0
263.377747 60.0
263.442352 240.0
263.541046 184.0
263.568359 148.0
263.603912 96.0
263.629761 104.0
263.730743 156.0
263.765503 64.0
263.804291 92.0
263.86087 164.0
263.919312 204.0
263.962708 144.0
264.035675 288.0
264.041168 216.0
264.104187 70552.0
264.219849 244.0
264.253815 72.0
264.276459 60.0
264.304352 176.0
264.32666 72.0
264.382385 116.0
264.395477 96.0
264.405457 116.0
264.439667 112.0
264.482452 184.0
264.524628 80.0
264.548828 88.0
264.593658 80.0
264.635803 128.0
264.687958 96.0
264.755554 84.0
264.77652 76.0
264.858948 88.0
264.916687 92.0
264.993744 204.0
265.021179 56.0
265.107361 13164.0
265.182861 148.0
265.190491 80.0
265.263153 96.0
265.269714 64.0
265.28299 76.0
265.322571 124.0
265.397156 64.0
265.443451 64.0
265.481476 64.0
265.509369 60.0
265.549561 52.0
265.585236 56.0
265.639954 108.0
265.705353 156.0
265.863007 104.0
265.925934 180.0
266.006348 88.0
266.117432 6448.0
266.23111 48.0
266.377258 76.0
266.406494 32.0
266.442902 60.0
266.454193 48.0
266.533203 68.0
266.59436 176.0
266.685944 68.0
266.772614 164.0
266.798553 56.0
266.846313 256.0
266.89328 124.0
266.924835 196.0
266.978546 120.0
267.030579 192.0
267.053345 72.0
267.076111 84.0
267.122437 1356.0
267.183472 56.0
267.209503 40.0
267.284332 52.0
267.307129 120.0
267.635101 84.0
267.704254 80.0
267.730316 68.0
267.883392 64.0
267.969574 100.0
268.039642 104.0
268.125702 212.0
268.186432 68.0
268.584656 60.0
268.64621 120.0
269.080261 88.0
269.132477 60.0
269.331696 68.0
269.361084 152.0
269.998444 76.0
270.086456 216.0
270.777374 52.0
271.636108 40.0
272.113129 156.0
273.035309 112.0
273.11319 208.0
273.525574 60.0
274.122803 136.0
274.774536 140.0
275.102936 256.0
275.115662 152.0
275.13089 160.0
275.253113 76.0
276.101715 1224.0
276.138977 316.0
276.281006 60.0
276.49942 80.0
276.658295 60.0
276.837067 152.0
276.916565 64.0
277.109467 2088.0
277.256012 44.0
277.403656 56.0
277.695435 92.0
277.950867 88.0
278.027191 92.0
278.117371 2040.0
278.154633 296.0
278.2164 148.0
278.302734 148.0
278.425598 160.0
278.482056 120.0
278.661438 72.0
278.761108 64.0
279.125031 936.0
279.176636 180.0
279.233185 40.0
279.299713 44.0
279.436096 60.0
279.462708 32.0
279.495972 36.0
279.705658 68.0
280.130981 1652.0
280.176636 240.0
280.558441 56.0
280.688477 184.0
280.881897 48.0
280.981995 72.0
281.134705 436.0
281.242279 64.0
281.626251 36.0
281.666321 84.0
281.81665 52.0
282.338135 108.0
284.691833 112.0
285.093811 76.0
285.11734 100.0
286.121002 128.0
287.12384 116.0
288.136383 120.0
289.115753 160.0
289.892578 164.0
290.118286 904.0
290.24173 60.0
290.35025 52.0
290.787903 80.0
291.117584 144.0
291.147766 60.0
291.871582 48.0
292.134979 2772.0
292.19809 100.0
292.228729 236.0
292.337616 48.0
292.95047 152.0
293.139374 524.0
293.171936 64.0
293.355988 76.0
293.574188 72.0
293.843658 60.0
294.146118 184.0
294.509338 76.0
294.581055 60.0
294.638275 96.0
295.8703 120.0
296.922241 72.0
296.970276 100.0
299.141876 108.0
300.130676 84.0
301.321411 92.0
303.113708 108.0
304.131927 384.0
305.146606 212.0
306.146057 160.0
306.313507 52.0
307.145386 220.0
308.227936 196.0
315.158081 132.0
316.158783 172.0
316.410095 116.0
317.189453 160.0
318.152985 440.0
318.264404 80.0
318.559174 80.0
319.174042 196.0
320.159729 160.0
320.198914 108.0
320.387695 64.0
321.182617 104.0
323.276245 64.0
328.157776 128.0
329.074188 92.0
329.265564 136.0
329.995514 64.0
332.173431 300.0
332.76355 68.0
333.591858 56.0
335.995392 88.0
339.759918 64.0
344.161774 72.0
347.355621 60.0
347.893707 68.0
348.201508 512.0
348.565948 128.0
349.149597 164.0
349.180511 128.0
349.216522 196.0
349.610901 88.0
351.168182 80.0
351.623352 80.0
354.641632 56.0
356.157501 112.0
360.860565 136.0
361.855591 36.0
367.297516 88.0
372.488068 68.0
373.595184 32.0
375.20108 108.0
375.386139 40.0
378.040009 64.0
379.15921 68.0
381.410339 108.0
395.112396 76.0
402.473236 116.0
403.951965 76.0
406.006683 60.0
409.390442 68.0
412.109161 128.0
412.55777 36.0
415.530365 52.0
415.771271 108.0
420.976532 116.0
424.446564 68.0
426.655457 68.0
429.996063 76.0
430.099243 44.0
452.698425 44.0
455.629333 108.0
460.976654 84.0
465.787964 40.0
469.390228 132.0
471.233276 96.0
475.741669 68.0
477.971252 104.0
479.233978 92.0
492.173401 88.0
493.910187 84.0
493.976562 96.0
506.565521 52.0
508.385864 100.0
509.432007 48.0
515.704346 52.0
519.267517 64.0
519.793762 112.0
528.053101 44.0
558.797058 84.0
561.449036 72.0
563.870911 84.0
570.250244 60.0
575.0177 72.0
580.720703 80.0
631.687561 124.0
636.378357 64.0
644.578491 112.0
688.036072 68.0
705.863586 76.0
711.309875 72.0
712.361328 60.0
721.447205 112.0
730.698242 108.0
748.990417 120.0
781.622314 52.0
786.314514 108.0
804.461426 64.0
821.536987 40.0
823.620544 44.0
836.902344 56.0
887.744141 64.0
893.898254 152.0
896.393311 48.0
902.595276 80.0
928.113953 68.0
951.850342 64.0
964.349976 96.0
988.642517 156.0
1005.642761 160.0
1009.553406 184.0
1015.373291 52.0
1027.586426 116.0
1030.27417 184.0
1035.103027 132.0
1039.352783 240.0
1039.956055 36.0
1047.994385 80.0
1065.326416 76.0
1067.568726 68.0
1068.511841 168.0
1077.959595 52.0
1134.667603 52.0
1135.391846 52.0
1151.746704 192.0
1160.198486 160.0
1167.048706 56.0
1174.212402 144.0
1194.824219 208.0
1198.810181 84.0
1200.333618 156.0
1203.445435 160.0
1208.345581 60.0
1213.720337 232.0
1231.416992 180.0
1258.318604 184.0
1262.119751 108.0
1269.597534 116.0
1276.54248 76.0
1296.007812 160.0
1302.162598 188.0
1310.752075 232.0
1314.335693 40.0
1318.711914 92.0
1323.667358 172.0
1327.217896 144.0
1341.474609 144.0
1347.546387 144.0
1354.012695 40.0
1355.785522 152.0
1360.604614 168.0
1367.293457 272.0
1370.275635 100.0
1377.106323 80.0
1396.926636 200.0
1406.897339 232.0
1409.571167 92.0
1410.527832 140.0
1411.118408 40.0
1411.671631 56.0
1415.40564 128.0
1419.841797 156.0
1419.931763 32.0
1420.418335 140.0
1421.477173 180.0
1430.217407 188.0
1430.608887 164.0
1432.838013 96.0
1437.874878 156.0
1440.517578 68.0
1444.493652 148.0
1446.922852 128.0
1451.68103 164.0
1457.510742 152.0
1458.111084 148.0
1461.913452 192.0
1462.027588 128.0
1466.711548 84.0
1469.456787 192.0
1471.341919 148.0
1479.223389 152.0
1483.129761 204.0
1483.290771 160.0
1488.906982 192.0
1490.258911 216.0
1492.672485 60.0
1498.460449 124.0
1499.24646 156.0
1499.377441 208.0
1502.577393 136.0
