>compound MLS002153253-01!VINBLASTINE SULFATE
>formula C46H58N4O9
>ionization [M+H]+
>parentmass 811.4276558880906
#inchi InChI=1S/C46H58N4O9/c1-8-42(54)23-28-24-45(40(52)57-6,36-30(15-19-49(25-28)26-42)29-13-10-11-14-33(29)47-36)32-21-31-34(22-35(32)56-5)48(4)38-44(31)17-20-50-18-12-16-43(9-2,37(44)50)39(59-27(3)51)46(38,55)41(53)58-7/h10-14,16,21-22,28,37-39,47,54-55H,8-9,15,17-20,23-26H2,1-7H3/t28-,37-,38+,39+,42-,43+,44+,45-,46-/m0/s1
#inchikey JXLYSJRDGCGARV
#origInchi InChI=1S/C46H58N4O9.H2O4S/c1-8-42(54)23-28-24-45(40(52)57-6,36-30(15-19-49(25-28)26-42)29-13-10-11-14-33(29)47-36)32-21-31-34(22-35(32)56-5)48(4)38-44(31)17-20-50-18-12-16-43(9-2,37(44)50)39(59-27(3)51)46(38,55)41(53)58-7;1-5(2,3)4/h10-14,16,21-22,28,37-39,47,54-55H,8-9,15,17-20,23-26H2,1-7H3;(H2,1,2,3,4)/t28-,37-,38+,39+,42-,43+,44+,45-,46-;/m0./s1
#Ion_Source LC-ESI
#Instrument qTof
#Compound_Source NIH Pharmacologically Active Library
#PI Dorrestein
#Data_Collector VP/LMS
#Scan -1
#Precursor_MZ 811.414
#ExactMass 810.42
#Charge 1
#CAS_Number N/A
#Pubmed_ID N/A
#Smiles CC[C@]1(O)C[C@@H]2CN(C1)CCc3c([nH]c4ccccc34)[C@@](C2)(C(=O)OC)c5cc6c(cc5OC)N(C)[C@@H]7[C@@]86CCN9CC=C[C@](CC)([C@H]98)[C@@H](OC(=O)C)[C@]7(O)C(=O)OC.OS(=O)(=O)O
#INCHI_AUX N/A
#Library_Class 1
#SpectrumID CCMSLIB00000085305
#IonMode Positive
#UpdateWorkflowName UPDATE-SINGLE-ANNOTATED-GOLD
#LibraryQualityString Gold
#TaskID d252d724072548979f1f6f1ced849daf
##Scan# 1609
#SpectrumFile p3-H02_GH2_01_18307.mzXML
#LibraryName Pharm_Active_Library.mgf
#MQScore -1
#Organism Pharm_Active_Library
#TIC_Query 0
#RT_Query -1
#MZErrorPPM -1
#SharedPeaks 0
#MassDiff 0
#LibMZ -1
#SpecMZ 811.414
#SpecCharge 0
#internalFilename spec-00000.mgf

>collision 10
44.98661 124.0
45.22456 108.0
45.262047 92.0
45.532955 188.0
45.795242 156.0
46.190758 112.0
46.285503 216.0
46.461712 172.0
47.104305 188.0
47.275223 184.0
47.380661 168.0
48.000591 100.0
48.11512 144.0
48.645374 164.0
48.835751 156.0
49.431503 208.0
49.598179 204.0
49.855038 240.0
50.560223 196.0
51.655891 152.0
51.721722 176.0
52.330452 128.0
52.5481 132.0
54.005264 136.0
54.246887 128.0
54.65226 160.0
54.712608 48.0
54.93515 156.0
55.079823 64.0
55.298668 272.0
55.340118 252.0
55.803066 212.0
55.84322 152.0
56.217186 232.0
56.39492 264.0
56.599888 168.0
57.233582 124.0
57.574402 152.0
57.728558 164.0
58.34267 204.0
58.362438 176.0
58.470448 124.0
58.639515 160.0
60.056335 160.0
60.127312 96.0
60.181343 156.0
60.413181 192.0
60.481274 140.0
60.823856 168.0
61.435452 92.0
62.120682 140.0
62.598511 132.0
63.844021 156.0
64.539322 228.0
64.785805 212.0
64.922279 172.0
65.013504 164.0
65.820045 144.0
66.500015 188.0
66.895027 136.0
67.033478 200.0
67.403915 92.0
67.968872 196.0
68.175789 144.0
68.483467 60.0
68.626846 164.0
68.715912 140.0
69.028107 188.0
69.379143 124.0
70.082207 172.0
70.123871 172.0
70.18222 252.0
70.524467 60.0
71.139252 156.0
72.168701 152.0
72.415787 148.0
72.634453 100.0
73.558487 60.0
73.671204 100.0
74.081795 48.0
74.278938 184.0
74.302956 196.0
74.381897 56.0
74.692932 128.0
75.121887 156.0
75.574554 132.0
75.837799 108.0
75.910614 148.0
76.264801 164.0
76.438721 188.0
76.593681 124.0
77.03154 108.0
77.374321 136.0
77.410835 136.0
77.918022 208.0
78.086784 160.0
78.229317 272.0
78.662994 172.0
79.509094 184.0
80.781357 184.0
82.265785 132.0
83.514351 168.0
84.629433 112.0
85.642204 140.0
85.775879 56.0
86.122787 140.0
86.40564 140.0
86.488914 116.0
86.67968 136.0
86.696358 140.0
87.38343 136.0
88.121788 172.0
88.808846 144.0
88.998398 124.0
89.385635 116.0
89.871796 144.0
89.920868 32.0
90.355499 176.0
90.626259 156.0
90.722923 168.0
91.053093 204.0
91.13858 184.0
91.294464 136.0
92.343452 40.0
92.508011 196.0
93.062103 72.0
93.11779 136.0
93.914658 144.0
94.06517 48.0
94.324028 200.0
94.627769 184.0
96.085495 68.0
96.188927 100.0
96.744125 216.0
97.024284 112.0
98.365997 160.0
98.561531 168.0
99.615585 172.0
99.808372 120.0
100.07103 68.0
102.900208 160.0
103.051689 176.0
103.361069 200.0
104.11927 168.0
104.196465 156.0
104.578781 192.0
104.601166 64.0
104.784462 116.0
104.835403 156.0
105.731972 96.0
105.792732 188.0
105.83638 188.0
106.511131 156.0
106.786568 224.0
107.068542 176.0
107.786461 184.0
107.987 72.0
108.082832 324.0
109.054832 224.0
109.086014 192.0
109.119278 136.0
109.366844 84.0
109.431381 80.0
109.935837 272.0
110.061897 160.0
110.09301 452.0
111.057289 164.0
111.111832 212.0
111.982132 244.0
112.073418 156.0
113.075836 156.0
113.756264 168.0
114.918312 96.0
115.040863 172.0
115.049339 72.0
115.053711 128.0
115.824791 108.0
115.91906 180.0
116.497299 148.0
117.066231 196.0
118.38575 176.0
119.028214 156.0
119.086296 200.0
119.416672 160.0
119.451477 160.0
120.011208 260.0
120.079643 240.0
120.233719 140.0
120.360336 160.0
120.61377 184.0
120.631256 188.0
121.064545 196.0
121.093521 220.0
121.189362 124.0
122.094849 520.0
122.491302 188.0
122.712585 184.0
123.09874 172.0
123.153954 176.0
123.299782 196.0
124.110802 536.0
124.480598 128.0
124.649429 112.0
124.742783 196.0
125.115189 256.0
126.603683 220.0
126.628319 144.0
126.962273 132.0
127.092384 100.0
127.339325 108.0
128.056824 116.0
128.210037 148.0
128.65892 180.0
128.830551 76.0
129.149292 144.0
130.067902 308.0
130.191895 48.0
130.705658 160.0
130.972046 116.0
132.072266 188.0
132.200394 276.0
132.417892 164.0
132.477463 228.0
133.060593 200.0
133.149551 56.0
133.662201 80.0
134.093948 368.0
134.129745 192.0
134.415741 164.0
134.531143 120.0
135.078888 188.0
135.101685 180.0
135.134369 136.0
135.558121 164.0
136.064468 48.0
136.080032 168.0
136.109772 424.0
136.526199 56.0
137.257431 116.0
137.469727 216.0
137.885437 128.0
137.908798 144.0
138.091553 204.0
138.127167 572.0
139.040085 116.0
139.129608 176.0
139.676849 28.0
140.107803 832.0
140.16185 68.0
140.336273 68.0
140.572159 64.0
140.788818 140.0
141.111526 200.0
141.292847 100.0
141.449036 168.0
142.048584 144.0
142.121628 172.0
142.345261 120.0
143.077682 152.0
143.465942 104.0
143.556549 188.0
143.864365 160.0
143.900177 32.0
143.971817 124.0
144.079453 1536.0
144.194 84.0
144.768188 56.0
145.08136 280.0
145.549957 156.0
146.054672 148.0
146.095566 324.0
146.647003 144.0
147.064285 116.0
147.31543 88.0
148.068161 168.0
148.108871 136.0
148.787903 128.0
149.06723 108.0
149.091537 160.0
149.108551 144.0
149.631561 144.0
149.77037 104.0
149.958252 184.0
150.001862 124.0
150.053055 152.0
150.094513 124.0
150.128799 208.0
150.65834 132.0
151.078827 208.0
151.105743 152.0
151.340714 108.0
151.730301 152.0
152.106995 400.0
153.010345 60.0
153.091599 188.0
153.116287 152.0
153.550003 208.0
154.06488 124.0
154.121674 616.0
154.152832 184.0
154.36499 76.0
154.751022 64.0
155.014694 180.0
155.115204 224.0
155.142471 188.0
155.668503 32.0
156.081177 196.0
156.143661 144.0
156.260101 228.0
156.641006 120.0
156.673401 172.0
156.847839 92.0
157.084595 144.0
157.102203 180.0
157.144608 184.0
157.946564 136.0
158.093826 328.0
158.504883 144.0
158.971313 240.0
159.106857 168.0
159.232422 52.0
160.092545 140.0
160.115219 216.0
160.278961 176.0
160.316757 96.0
160.339447 124.0
160.452881 176.0
160.490707 136.0
161.074646 160.0
162.004654 96.0
162.092224 452.0
162.638611 120.0
163.073471 184.0
163.58934 136.0
164.055542 156.0
164.075714 208.0
164.108337 440.0
164.152435 152.0
164.747147 40.0
165.106949 292.0
166.120834 536.0
166.424759 56.0
166.787003 96.0
166.918121 36.0
167.067093 356.0
167.131622 72.0
167.337494 188.0
167.371017 100.0
167.543594 148.0
167.633331 116.0
168.079178 244.0
168.586044 152.0
168.609299 60.0
169.073242 292.0
170.051163 224.0
170.097687 304.0
170.24147 92.0
171.098618 328.0
172.014618 28.0
172.072052 144.0
172.092941 164.0
173.083755 104.0
173.087891 96.0
173.098022 152.0
173.304199 244.0
173.40358 228.0
173.907181 180.0
174.091476 220.0
174.486557 124.0
174.527176 116.0
174.545593 88.0
175.099609 188.0
175.630676 40.0
176.104584 156.0
176.967926 116.0
177.084442 148.0
178.082916 160.0
178.118927 48.0
178.392639 132.0
178.820908 180.0
178.95668 124.0
179.063202 144.0
179.588272 188.0
179.676315 184.0
180.065674 252.0
180.104904 188.0
180.820023 120.0
180.959229 156.0
181.066345 140.0
181.087769 160.0
181.50853 188.0
182.053284 192.0
182.107544 220.0
182.13118 240.0
182.628464 128.0
182.776428 104.0
183.082947 188.0
183.090393 140.0
183.989334 180.0
184.051437 204.0
184.08223 200.0
184.115067 196.0
184.164871 148.0
184.532394 152.0
184.783936 124.0
185.08168 180.0
186.086838 188.0
186.136765 136.0
186.750732 192.0
187.104645 224.0
187.55127 100.0
187.935806 116.0
188.072266 288.0
188.105835 708.0
188.181458 68.0
188.233337 64.0
188.670517 56.0
188.788101 152.0
189.107178 400.0
189.38475 68.0
190.12616 252.0
190.325439 56.0
190.718307 160.0
190.927261 112.0
191.092316 300.0
191.351028 76.0
191.381317 208.0
192.103363 200.0
192.194473 140.0
192.674896 176.0
193.085861 176.0
193.115158 228.0
193.222321 64.0
193.95343 60.0
194.050003 120.0
194.091125 180.0
194.116745 528.0
194.161377 160.0
194.197433 188.0
194.32782 120.0
195.058243 196.0
195.104279 160.0
195.244522 72.0
195.369705 96.0
195.469864 128.0
196.046326 56.0
196.132736 128.0
196.207993 100.0
196.288864 108.0
196.386475 164.0
196.459 104.0
197.039703 76.0
197.101181 196.0
197.224152 96.0
197.526154 60.0
197.903976 60.0
198.092117 224.0
199.084549 192.0
200.105484 128.0
200.139084 120.0
200.212296 212.0
200.823914 148.0
201.047089 192.0
201.117752 200.0
201.156876 104.0
201.303696 208.0
201.450577 88.0
201.546646 192.0
201.724701 96.0
201.79538 180.0
202.083038 256.0
202.119507 676.0
202.650162 100.0
203.138474 204.0
203.921524 128.0
204.029541 224.0
204.07428 164.0
204.160355 196.0
204.285507 104.0
204.792191 144.0
205.353699 72.0
206.033096 108.0
206.118698 188.0
206.190262 48.0
206.298889 60.0
207.060028 68.0
207.100677 192.0
207.160278 152.0
207.673401 108.0
207.977554 172.0
208.102188 116.0
208.108078 60.0
208.172409 92.0
209.06398 52.0
209.105896 552.0
209.256851 204.0
209.908066 416.0
210.117432 216.0
210.401459 56.0
210.745178 60.0
210.898346 128.0
211.117477 200.0
211.297424 136.0
211.586838 144.0
211.641861 112.0
212.100769 204.0
212.120514 316.0
212.139771 140.0
213.105255 164.0
213.624161 124.0
214.022903 200.0
214.086487 472.0
214.121399 812.0
214.183075 180.0
214.777725 44.0
215.086838 168.0
215.124924 200.0
215.367371 224.0
215.671249 64.0
216.001678 112.0
216.107101 292.0
216.120377 252.0
216.125824 184.0
216.203568 168.0
216.56369 120.0
217.158707 116.0
217.598892 172.0
217.986633 180.0
218.474716 176.0
219.30809 28.0
219.499725 136.0
219.959991 164.0
220.09285 160.0
220.114883 184.0
220.441422 232.0
220.488708 148.0
221.099899 188.0
221.548035 48.0
221.669525 92.0
222.112961 924.0
222.42511 132.0
223.011002 112.0
223.088287 204.0
223.125687 360.0
223.201279 76.0
223.582062 192.0
223.763641 76.0
223.790436 96.0
224.037643 152.0
224.085312 132.0
224.127258 6948.0
224.18364 160.0
224.305847 44.0
224.389328 92.0
224.410187 100.0
224.47522 104.0
224.759186 112.0
224.809921 44.0
224.911392 64.0
225.098587 132.0
225.134888 3552.0
225.343903 92.0
225.727036 48.0
225.762924 68.0
225.855911 88.0
225.909485 120.0
225.939407 76.0
226.077042 128.0
226.138718 672.0
226.20575 104.0
226.2267 44.0
226.370422 64.0
226.427322 44.0
226.508194 84.0
226.55014 112.0
226.69696 76.0
226.792862 100.0
227.102402 52.0
227.134048 176.0
227.224701 124.0
227.37175 132.0
227.452789 220.0
227.668961 68.0
227.783112 52.0
227.835846 108.0
228.101608 424.0
228.27301 144.0
228.339188 100.0
228.628006 68.0
229.103058 120.0
229.133698 124.0
229.227295 76.0
229.450348 132.0
229.902817 56.0
230.086945 60.0
230.11586 184.0
230.159409 212.0
230.784897 140.0
231.144867 80.0
231.432419 184.0
232.096024 96.0
233.109329 168.0
233.623764 120.0
234.101654 180.0
235.09549 64.0
235.126907 212.0
236.140366 304.0
237.096985 144.0
237.13472 148.0
237.267273 176.0
237.371521 184.0
237.537155 84.0
238.080429 192.0
238.123291 184.0
238.128143 180.0
239.082672 136.0
239.128845 192.0
239.148575 136.0
239.754059 156.0
240.074677 180.0
240.100784 208.0
240.157959 148.0
240.654816 104.0
240.799957 88.0
241.093475 132.0
241.130554 160.0
241.158371 124.0
241.396439 76.0
241.659363 140.0
241.928635 164.0
242.106262 284.0
242.14006 172.0
242.911011 144.0
243.115799 188.0
244.109909 208.0
244.137894 244.0
244.676224 140.0
244.732254 164.0
245.102936 176.0
245.383469 144.0
245.661041 168.0
246.106018 360.0
246.141693 168.0
246.591568 192.0
247.120071 88.0
248.133713 248.0
249.137634 220.0
250.113342 160.0
250.148666 136.0
251.131592 280.0
251.157715 344.0
251.734634 180.0
251.958893 52.0
252.102051 208.0
252.126129 244.0
252.165985 292.0
252.395081 96.0
252.828476 128.0
253.12854 168.0
253.176468 152.0
253.331924 72.0
253.528381 68.0
253.845398 132.0
254.114151 464.0
254.136276 224.0
254.178482 184.0
255.1091 184.0
255.150436 180.0
255.188583 132.0
255.719849 52.0
256.095551 196.0
257.12915 208.0
257.163727 184.0
257.428711 132.0
257.936737 56.0
258.114319 576.0
258.419647 76.0
259.116333 188.0
259.925659 224.0
260.127991 1140.0
260.2659 172.0
260.387939 64.0
260.9021 168.0
261.088593 168.0
261.138885 440.0
261.410309 172.0
261.690338 184.0
261.777283 76.0
262.149811 144.0
262.228333 40.0
262.408844 96.0
262.802368 164.0
263.076691 192.0
263.150482 820.0
263.532074 144.0
264.120483 96.0
264.17099 260.0
264.253113 184.0
264.32431 44.0
265.138 140.0
265.170807 1548.0
265.231171 132.0
265.31543 268.0
265.883118 164.0
266.120087 64.0
266.17215 564.0
266.197998 184.0
266.522858 216.0
266.919434 88.0
267.101562 112.0
267.144012 192.0
267.189178 296.0
267.316284 164.0
267.404175 128.0
268.130737 160.0
268.185883 160.0
269.159576 196.0
269.880249 236.0
270.120575 136.0
270.16806 40.0
270.321838 148.0
271.183197 116.0
272.130188 280.0
272.315186 116.0
272.604309 104.0
273.124969 172.0
273.163239 164.0
274.134338 132.0
274.457611 44.0
274.497162 184.0
274.87323 64.0
275.141144 168.0
275.183502 52.0
275.365143 152.0
275.665771 136.0
276.122009 108.0
276.161865 168.0
276.300659 204.0
276.750793 44.0
277.169617 560.0
278.110016 128.0
278.165436 468.0
278.608154 88.0
279.116669 116.0
279.170807 116.0
279.229736 100.0
279.855377 120.0
279.981934 180.0
280.133423 156.0
280.18512 148.0
281.115417 156.0
281.166077 892.0
281.776581 92.0
282.129242 684.0
282.166351 524.0
282.622498 188.0
282.927063 160.0
282.983978 88.0
283.067719 36.0
283.104553 180.0
283.127991 280.0
283.181366 708.0
283.851868 44.0
283.975952 112.0
284.135284 104.0
284.190643 120.0
284.798279 72.0
285.08725 84.0
285.132324 108.0
285.174622 164.0
285.692474 156.0
286.099701 128.0
286.128021 128.0
286.726227 140.0
287.113953 68.0
287.141266 200.0
287.73822 204.0
287.950958 96.0
288.079315 92.0
288.139099 168.0
289.172302 160.0
289.384796 128.0
290.136841 128.0
290.720398 132.0
291.015717 200.0
291.124359 256.0
291.155029 148.0
292.124695 200.0
292.147491 236.0
292.18219 160.0
292.249542 32.0
293.053131 56.0
293.167603 228.0
293.976837 172.0
294.141052 180.0
294.167328 156.0
295.180939 1788.0
295.306244 48.0
296.134552 164.0
296.186279 528.0
296.257874 108.0
296.638275 52.0
296.697662 88.0
297.131683 376.0
297.196075 252.0
297.564575 52.0
297.592041 40.0
298.13385 328.0
298.18634 132.0
298.605804 192.0
298.78125 44.0
298.881042 80.0
299.183167 148.0
299.455963 224.0
300.125092 184.0
300.155548 64.0
301.149506 108.0
301.50882 40.0
302.134857 100.0
302.165833 144.0
302.892853 128.0
303.163361 160.0
303.170715 144.0
304.005829 100.0
304.099548 156.0
304.148132 88.0
305.098633 112.0
305.167114 392.0
305.740021 112.0
305.927979 40.0
306.128143 196.0
306.162445 164.0
307.151154 372.0
307.182556 212.0
308.117523 196.0
308.170746 80.0
308.401215 88.0
308.796326 56.0
308.988739 80.0
309.160828 420.0
309.195831 140.0
309.976135 148.0
310.14682 248.0
310.18631 200.0
310.677399 40.0
311.116089 200.0
311.217926 236.0
312.123505 360.0
312.156128 336.0
312.191315 176.0
312.937317 92.0
314.100311 96.0
314.146179 112.0
314.181213 184.0
315.14151 184.0
315.339691 108.0
315.742767 36.0
316.939301 92.0
317.038544 84.0
317.123596 172.0
317.158051 184.0
317.598724 136.0
318.134583 52.0
318.170074 160.0
318.26593 56.0
318.471924 44.0
318.759705 52.0
319.13208 152.0
319.170135 160.0
320.161041 328.0
320.44516 148.0
320.77063 60.0
321.116516 148.0
321.160797 156.0
321.1922 296.0
322.166229 172.0
322.214417 144.0
322.66275 56.0
323.120544 96.0
323.173737 1740.0
323.267273 44.0
323.628815 228.0
323.671783 112.0
323.997711 136.0
324.173676 432.0
324.216309 152.0
324.517426 144.0
324.71106 84.0
324.79715 184.0
325.120056 80.0
325.190186 160.0
325.227753 140.0
325.353394 116.0
325.50061 120.0
326.137939 300.0
327.147888 184.0
327.190552 116.0
327.489441 52.0
327.759644 40.0
328.15683 188.0
328.44104 84.0
328.643066 64.0
328.812683 48.0
328.881256 176.0
329.0401 116.0
329.163055 364.0
329.227722 188.0
330.062653 132.0
330.121429 308.0
330.170868 280.0
330.348999 92.0
330.938293 160.0
331.021606 116.0
331.126617 196.0
331.178406 476.0
332.029083 52.0
332.148773 136.0
332.940033 160.0
333.150696 120.0
333.198669 160.0
333.637695 132.0
334.194183 192.0
334.332458 144.0
334.838531 168.0
335.172699 140.0
335.215546 108.0
336.147308 116.0
336.178223 132.0
336.202057 168.0
336.406464 96.0
336.731445 124.0
336.97052 180.0
337.125153 104.0
337.191254 2324.0
337.831726 188.0
338.058563 40.0
338.183319 736.0
338.633362 76.0
339.10968 48.0
339.153687 168.0
339.194885 472.0
339.230652 136.0
339.465302 84.0
339.542328 100.0
340.096375 200.0
340.125732 180.0
340.161194 228.0
340.218903 112.0
340.290924 76.0
340.713318 36.0
341.108978 136.0
341.169373 400.0
341.21283 144.0
342.151184 148.0
343.177307 404.0
343.529663 56.0
343.603455 164.0
344.138641 132.0
344.170776 152.0
344.195068 152.0
344.607727 76.0
345.86142 108.0
346.050232 112.0
346.498383 128.0
346.76889 132.0
347.165649 160.0
347.198975 224.0
347.406708 152.0
348.162964 108.0
348.594849 132.0
348.951691 120.0
349.145081 220.0
349.190277 492.0
349.230621 300.0
349.290131 188.0
349.383148 48.0
349.468719 180.0
350.149963 152.0
350.176025 184.0
350.224457 132.0
350.351105 92.0
350.447968 104.0
350.690216 140.0
350.992188 136.0
351.111511 144.0
351.165894 228.0
351.268188 108.0
351.465912 44.0
351.64505 100.0
352.102234 188.0
352.156586 204.0
352.191864 288.0
352.799316 96.0
353.183563 2936.0
353.714661 100.0
353.757019 92.0
353.914276 64.0
354.025024 108.0
354.118927 136.0
354.13028 88.0
354.191681 640.0
354.300049 72.0
354.506134 128.0
354.652313 72.0
354.791016 168.0
354.832245 180.0
354.974731 188.0
355.113831 140.0
355.198822 4088.0
355.267303 112.0
355.368591 72.0
355.481171 116.0
355.815247 80.0
355.867798 124.0
356.002991 40.0
356.059326 88.0
356.203461 1164.0
356.382385 184.0
357.165344 144.0
357.202881 296.0
357.31485 80.0
357.375061 32.0
357.423981 108.0
357.7966 56.0
357.98111 100.0
358.21463 136.0
358.493988 84.0
359.338104 196.0
359.775909 48.0
360.161102 92.0
360.765717 184.0
360.833771 64.0
361.170349 48.0
361.196808 88.0
361.223297 148.0
361.806091 164.0
362.116608 48.0
362.164368 152.0
362.178223 92.0
362.186615 176.0
363.157806 172.0
363.196869 112.0
363.401733 80.0
363.458649 56.0
364.092621 136.0
364.119202 152.0
364.157196 168.0
364.201141 172.0
364.658722 148.0
365.137787 112.0
365.182892 348.0
365.445923 144.0
366.14151 160.0
366.181854 152.0
367.133453 192.0
367.197052 492.0
368.030243 232.0
368.06842 104.0
368.191589 176.0
369.171295 212.0
369.182159 160.0
369.555328 52.0
370.098877 76.0
370.156311 448.0
370.190765 128.0
370.21759 128.0
370.711792 100.0
371.173096 176.0
371.236969 124.0
372.155457 148.0
372.184814 164.0
372.557373 128.0
373.156952 128.0
373.322296 208.0
373.85318 116.0
374.157288 44.0
374.191925 144.0
375.185516 140.0
375.239929 136.0
376.127228 164.0
376.177399 172.0
376.779877 112.0
377.181793 284.0
378.137177 144.0
378.168152 164.0
378.199127 92.0
378.353973 44.0
379.089905 64.0
379.199677 300.0
379.241058 268.0
379.368988 60.0
379.547333 64.0
379.826569 132.0
380.183533 228.0
380.2146 140.0
380.358215 88.0
381.092224 136.0
381.211151 508.0
381.298187 32.0
381.982513 132.0
382.164429 180.0
382.216858 312.0
382.348267 176.0
383.140747 136.0
383.2034 180.0
383.263428 44.0
384.140564 140.0
384.209778 388.0
385.155609 112.0
385.182953 188.0
385.225922 168.0
385.311859 120.0
386.19928 140.0
386.24231 104.0
386.629639 100.0
387.164368 260.0
388.157501 160.0
388.19278 124.0
389.158081 144.0
389.195435 280.0
390.200745 196.0
391.1474 88.0
391.201538 228.0
391.234009 112.0
392.167603 92.0
392.254333 212.0
393.155731 196.0
393.188019 200.0
393.220001 132.0
393.279938 104.0
394.172485 124.0
394.225342 364.0
394.310822 64.0
395.125427 176.0
395.179749 148.0
395.207733 124.0
395.217377 100.0
395.229584 148.0
396.192322 108.0
396.527252 72.0
396.991089 156.0
397.197693 136.0
398.172028 116.0
398.218353 300.0
399.162354 192.0
399.224854 320.0
400.185974 100.0
400.217529 156.0
400.739624 188.0
401.177002 124.0
401.19162 212.0
401.229858 148.0
401.971771 108.0
401.999695 144.0
402.063538 60.0
402.143372 152.0
402.192108 132.0
403.196045 156.0
404.197571 92.0
404.934204 168.0
405.174561 100.0
405.206604 240.0
405.23465 92.0
405.330811 120.0
406.164734 108.0
406.232941 200.0
406.3172 132.0
406.71048 184.0
407.183319 152.0
407.26059 116.0
407.718597 136.0
408.180939 164.0
409.206512 284.0
410.231567 272.0
410.823151 144.0
411.193237 396.0
411.228027 608.0
411.795959 164.0
411.884827 72.0
412.06662 164.0
412.167633 104.0
412.232941 336.0
413.032837 148.0
413.239899 572.0
414.182251 156.0
414.247253 48.0
415.199799 160.0
415.255035 264.0
416.202759 300.0
416.259003 108.0
416.409271 188.0
416.97403 44.0
417.181335 140.0
417.217926 172.0
417.323639 116.0
417.746613 92.0
418.291931 88.0
418.976074 140.0
419.185852 148.0
419.216492 116.0
419.416199 44.0
420.170654 84.0
420.260406 132.0
421.194702 180.0
421.223969 240.0
422.127197 84.0
422.201508 136.0
422.227448 132.0
423.210175 204.0
424.178467 168.0
424.253113 132.0
425.190765 180.0
425.247681 208.0
426.11142 60.0
426.164856 132.0
426.212097 184.0
426.251129 104.0
426.300446 152.0
427.181976 284.0
427.834686 192.0
428.637878 124.0
429.111877 124.0
429.252075 160.0
430.242371 172.0
431.249573 224.0
432.212341 160.0
433.224152 260.0
434.16507 236.0
434.224274 208.0
435.233734 224.0
435.246185 132.0
435.28537 180.0
435.290466 220.0
435.825592 84.0
436.230957 148.0
436.266144 104.0
436.307709 40.0
436.790131 112.0
437.189545 136.0
438.668213 68.0
439.215332 176.0
439.2854 116.0
440.157715 60.0
440.203644 156.0
440.257935 132.0
440.529419 192.0
441.21875 308.0
442.222961 84.0
442.257385 144.0
442.545319 84.0
442.99765 212.0
443.052094 36.0
443.228088 408.0
443.257416 136.0
443.290955 180.0
443.378937 48.0
444.876434 124.0
445.00238 184.0
445.103149 32.0
445.235229 164.0
445.460144 224.0
445.594604 156.0
446.216644 92.0
446.282501 168.0
447.167358 112.0
447.226257 60.0
448.186493 204.0
448.234131 212.0
449.244751 104.0
449.291473 224.0
449.493683 52.0
450.211365 112.0
450.256165 448.0
451.047943 144.0
451.166321 144.0
451.228333 208.0
451.305847 32.0
451.610321 40.0
452.134979 128.0
452.228088 132.0
452.275116 156.0
452.647217 104.0
452.90979 148.0
453.2117 312.0
453.244873 136.0
453.282623 92.0
453.325012 88.0
454.232361 128.0
454.393585 104.0
455.198608 116.0
455.917999 120.0
456.266449 152.0
457.130035 72.0
457.205383 164.0
457.220093 144.0
457.500336 120.0
457.866547 116.0
458.23288 148.0
458.27124 120.0
459.209106 120.0
459.25177 140.0
460.242401 152.0
460.293121 108.0
460.891144 36.0
461.870178 36.0
462.249481 568.0
462.32132 128.0
462.546295 88.0
462.888794 40.0
463.107239 56.0
463.244446 388.0
463.428528 176.0
464.092896 56.0
464.170105 124.0
464.263153 464.0
464.388824 48.0
464.629059 132.0
464.980927 52.0
465.135437 136.0
465.174072 112.0
465.267609 96.0
465.947113 40.0
466.226807 128.0
466.275055 216.0
466.333862 136.0
466.61203 124.0
466.793884 100.0
467.209717 224.0
467.75766 256.0
468.192535 120.0
468.222687 160.0
468.282104 96.0
469.071503 68.0
469.228241 520.0
469.873657 100.0
470.235138 572.0
471.186188 140.0
471.220734 100.0
471.64859 124.0
472.0896 92.0
472.240967 116.0
474.258942 180.0
475.230133 108.0
476.089661 132.0
476.239838 124.0
476.315765 136.0
476.506653 88.0
476.637024 112.0
476.954285 112.0
477.180359 92.0
478.20871 204.0
478.247131 292.0
478.363708 132.0
479.212982 188.0
479.247833 160.0
479.457001 40.0
479.968048 124.0
480.255493 668.0
480.350861 44.0
481.243988 412.0
481.35907 120.0
481.525024 64.0
481.795868 96.0
482.01944 116.0
482.22403 224.0
482.270294 504.0
482.687531 104.0
483.054932 44.0
483.215393 108.0
483.27359 240.0
483.280914 324.0
484.281525 304.0
484.328766 172.0
485.038635 116.0
485.187683 124.0
485.253448 40.0
485.292053 264.0
485.906952 88.0
486.240448 184.0
486.275574 132.0
488.287872 268.0
488.389038 180.0
489.27356 160.0
489.555359 64.0
489.744751 100.0
490.244537 428.0
490.379242 40.0
490.824524 72.0
490.908295 52.0
491.203796 52.0
491.257385 240.0
491.742126 76.0
492.25589 448.0
492.647369 136.0
492.762238 104.0
492.8992 72.0
493.27063 216.0
493.363312 80.0
493.500366 48.0
494.24762 196.0
494.30542 116.0
494.398376 60.0
494.451477 48.0
495.199738 128.0
495.242554 108.0
495.276367 120.0
495.421204 48.0
496.258881 420.0
497.259583 136.0
497.367981 132.0
497.962982 228.0
498.256958 212.0
498.380554 184.0
498.553864 164.0
499.23642 152.0
499.305237 172.0
500.25235 136.0
500.263123 116.0
500.276642 168.0
501.12146 40.0
501.27298 180.0
501.491364 88.0
502.182465 104.0
502.302155 144.0
502.967804 68.0
503.25351 84.0
503.289246 168.0
504.924835 172.0
505.02771 52.0
505.072449 72.0
505.26651 200.0
505.931641 184.0
506.061493 112.0
506.242676 408.0
506.2854 132.0
507.16806 120.0
507.223236 236.0
507.266663 160.0
507.535675 92.0
507.602936 136.0
507.76886 136.0
508.254486 864.0
508.652802 120.0
509.124268 164.0
509.260071 220.0
509.977936 140.0
510.277344 972.0
510.575897 44.0
510.62088 76.0
510.809814 92.0
510.872772 68.0
511.052765 52.0
511.230652 328.0
511.275543 440.0
512.270081 116.0
513.075073 128.0
513.237366 128.0
513.272949 156.0
513.417725 124.0
513.516968 116.0
514.193726 48.0
514.27948 224.0
515.232361 108.0
516.285583 220.0
516.335327 128.0
517.860596 144.0
518.290955 128.0
519.338257 148.0
519.760193 116.0
520.244141 148.0
520.302124 160.0
520.345703 176.0
520.740784 128.0
520.922485 180.0
521.295044 184.0
522.195251 148.0
522.274536 1852.0
522.348999 240.0
522.463623 44.0
522.568237 72.0
522.732056 52.0
522.845825 80.0
523.096191 88.0
523.269592 708.0
523.392151 48.0
523.569763 60.0
523.619812 148.0
524.286133 1532.0
524.367065 132.0
524.398926 152.0
524.873108 72.0
525.105652 100.0
525.212769 116.0
525.291748 684.0
525.356567 132.0
525.493774 48.0
526.146912 112.0
526.267334 336.0
526.298584 216.0
526.431946 116.0
526.538818 100.0
527.13269 140.0
527.230042 416.0
527.61261 136.0
528.047058 108.0
528.197998 176.0
528.247375 392.0
528.277405 264.0
528.710449 44.0
529.277283 136.0
530.02478 144.0
530.293213 184.0
531.265564 160.0
531.320984 160.0
531.450806 120.0
531.65271 52.0
532.259888 136.0
532.316223 160.0
533.02124 132.0
533.126953 104.0
533.255615 108.0
534.285706 128.0
534.335938 312.0
535.206238 108.0
535.3172 116.0
535.353577 68.0
535.611511 84.0
535.749695 92.0
536.279663 92.0
536.440979 164.0
536.579285 72.0
537.289551 136.0
537.326477 144.0
537.738953 188.0
538.270142 140.0
538.316162 196.0
538.854675 112.0
538.933228 152.0
539.301025 120.0
539.5896 68.0
539.839294 120.0
540.107544 88.0
540.28302 2192.0
540.348083 104.0
540.671997 84.0
541.153442 40.0
541.244446 400.0
541.289185 340.0
541.384949 180.0
541.760193 120.0
542.010376 92.0
542.172546 120.0
542.300476 4416.0
542.434937 92.0
542.543396 52.0
542.589722 60.0
543.127686 164.0
543.176025 132.0
543.30304 2220.0
543.401428 56.0
543.587036 80.0
543.642578 216.0
543.78656 36.0
544.051147 112.0
544.102234 40.0
544.301453 396.0
544.376221 140.0
544.4505 64.0
544.594482 96.0
544.654846 108.0
544.701294 64.0
544.79425 56.0
544.933594 140.0
545.300781 220.0
545.747009 84.0
546.235352 104.0
546.289673 172.0
546.360962 120.0
546.491211 60.0
546.700623 52.0
546.817017 100.0
547.02179 80.0
547.096252 152.0
547.296509 88.0
547.414978 116.0
548.235718 140.0
548.270081 72.0
549.290222 180.0
549.580505 148.0
549.88385 92.0
550.238586 112.0
550.271301 216.0
550.710266 132.0
551.252197 156.0
551.30304 160.0
552.15448 144.0
552.267456 140.0
553.244812 132.0
553.305664 112.0
553.343079 148.0
554.300964 220.0
556.298279 272.0
556.893066 148.0
557.312927 140.0
558.254089 216.0
558.295532 132.0
558.491211 60.0
559.272278 236.0
559.305237 132.0
559.357056 128.0
559.568909 120.0
560.259583 128.0
560.317749 184.0
561.302856 40.0
561.689636 88.0
561.741516 40.0
562.246399 100.0
562.628723 64.0
562.99231 28.0
563.096252 132.0
563.268616 104.0
563.332397 88.0
564.250671 148.0
565.251343 124.0
566.283264 160.0
567.278076 168.0
567.305298 276.0
567.68219 80.0
568.260925 104.0
568.30835 128.0
569.322937 96.0
570.299683 148.0
571.083923 196.0
571.299561 112.0
571.315002 156.0
572.234436 172.0
572.282166 160.0
572.32489 124.0
573.182312 60.0
573.368164 192.0
574.321777 88.0
575.285034 144.0
575.315735 112.0
576.26123 144.0
576.3078 96.0
576.350769 120.0
577.230347 156.0
577.29187 92.0
577.340332 136.0
577.900024 80.0
578.291931 120.0
578.33075 176.0
579.264526 144.0
580.23175 92.0
580.276489 116.0
580.932739 68.0
581.278198 296.0
581.979065 84.0
582.238403 148.0
582.305603 100.0
583.353149 128.0
584.271423 136.0
584.277344 128.0
584.680725 116.0
585.290527 184.0
585.369141 100.0
586.277222 256.0
587.286133 96.0
588.749756 152.0
588.817383 132.0
589.213501 92.0
589.326111 76.0
590.001282 136.0
590.242065 60.0
590.27948 104.0
590.32019 108.0
591.162109 52.0
591.253113 100.0
591.31604 272.0
591.385437 120.0
592.120728 96.0
592.32251 152.0
592.37262 104.0
593.283691 84.0
593.395203 148.0
594.278259 140.0
594.510864 112.0
595.234192 72.0
595.287598 124.0
595.336182 100.0
595.855957 160.0
596.259277 108.0
596.337036 148.0
597.34845 172.0
597.416565 160.0
598.275635 196.0
599.149719 56.0
599.198425 188.0
599.289551 144.0
599.729614 112.0
600.322632 212.0
600.739014 144.0
601.168396 96.0
601.305054 100.0
601.358765 160.0
601.846924 128.0
602.318665 268.0
602.86792 80.0
603.299438 320.0
603.381165 124.0
604.326843 140.0
604.711731 120.0
605.304138 80.0
605.354187 144.0
606.234924 120.0
606.320251 124.0
607.323547 84.0
607.696167 36.0
608.240967 112.0
608.307495 276.0
608.344055 84.0
609.316101 120.0
609.354004 316.0
610.048706 100.0
610.274048 120.0
610.353577 116.0
611.243896 156.0
612.02655 52.0
612.29248 108.0
612.336853 152.0
612.671814 116.0
612.868896 52.0
613.253296 104.0
613.34198 72.0
615.147461 172.0
615.325195 104.0
615.478271 36.0
616.00177 44.0
616.268555 176.0
616.308105 124.0
617.329712 96.0
617.731995 80.0
618.078369 124.0
618.299377 168.0
618.716858 112.0
619.311096 184.0
619.420044 184.0
619.806519 80.0
620.267456 88.0
620.317017 132.0
620.364441 84.0
620.9021 32.0
621.363586 132.0
622.341248 164.0
623.267578 324.0
623.32312 184.0
624.289185 192.0
624.322754 148.0
624.517944 52.0
625.264282 116.0
625.309509 144.0
626.150513 60.0
626.254639 128.0
626.28363 424.0
626.319824 216.0
626.333435 88.0
626.350708 144.0
627.28656 144.0
627.338501 124.0
628.294861 136.0
628.333862 132.0
629.323547 140.0
629.421997 116.0
629.656738 104.0
630.321167 136.0
631.03595 152.0
631.365112 136.0
631.666077 248.0
632.333679 156.0
633.097595 176.0
633.277893 108.0
633.35553 124.0
634.400391 132.0
634.95697 172.0
635.172668 124.0
635.363281 180.0
636.346985 124.0
637.045105 124.0
637.140564 100.0
637.271179 168.0
637.36499 144.0
637.38916 76.0
637.40979 180.0
639.660095 116.0
640.279419 120.0
640.939392 128.0
641.166138 52.0
641.292114 132.0
641.351013 212.0
641.730713 84.0
642.245117 168.0
642.342651 160.0
643.062561 48.0
643.113037 72.0
643.335144 108.0
643.658264 120.0
643.850159 44.0
644.117859 96.0
644.298828 152.0
645.325134 160.0
645.487549 168.0
646.043945 124.0
646.175476 28.0
647.167542 184.0
647.328003 192.0
648.261658 228.0
648.319641 120.0
649.367371 1272.0
649.884338 80.0
650.380798 1212.0
650.441589 100.0
650.767578 80.0
650.838623 136.0
651.371094 196.0
651.532654 84.0
652.314453 76.0
652.359741 172.0
652.40094 124.0
652.871338 68.0
653.138245 144.0
653.31897 152.0
653.385071 180.0
653.446167 216.0
654.041565 52.0
654.769653 96.0
655.289001 144.0
655.722412 116.0
656.359985 108.0
656.538147 28.0
656.932861 96.0
657.109497 104.0
657.344238 112.0
657.425842 96.0
659.334229 196.0
659.381897 104.0
659.596619 28.0
659.632385 140.0
660.351685 136.0
661.044067 124.0
661.346008 120.0
662.252319 184.0
662.333557 316.0
662.351318 168.0
663.307861 116.0
663.362427 240.0
663.378113 144.0
664.2771 132.0
664.363831 164.0
665.365051 168.0
665.45752 132.0
666.284424 148.0
666.330627 100.0
666.690369 100.0
667.327759 88.0
667.800903 124.0
667.847168 48.0
668.269043 120.0
668.341064 140.0
669.231567 180.0
669.311401 148.0
669.355103 80.0
669.592041 72.0
670.354492 140.0
671.335754 116.0
672.370972 116.0
672.629028 148.0
673.150513 104.0
673.380859 168.0
673.496582 48.0
673.599854 176.0
673.687683 28.0
673.977051 40.0
674.369019 204.0
675.414307 100.0
675.590149 164.0
676.3302 120.0
676.387146 120.0
676.673828 208.0
678.373474 108.0
679.335754 104.0
679.652222 92.0
680.3526 224.0
680.721558 96.0
681.313721 144.0
681.355286 208.0
682.295959 104.0
682.35791 272.0
683.1073 172.0
683.346619 104.0
683.382996 248.0
684.070007 48.0
684.318298 168.0
684.361572 92.0
685.392944 152.0
686.633667 188.0
686.998779 124.0
687.259644 128.0
687.364014 84.0
687.593628 132.0
688.329773 116.0
688.778931 104.0
689.343201 100.0
690.833374 68.0
691.371704 428.0
691.385437 408.0
691.51886 132.0
691.649719 40.0
691.94812 68.0
692.058044 44.0
692.378174 448.0
692.833191 60.0
692.943237 136.0
693.409973 296.0
694.736267 68.0
695.418457 52.0
696.726013 56.0
696.946716 116.0
697.724609 36.0
697.78772 68.0
699.344849 148.0
699.497498 108.0
700.308411 68.0
700.961731 144.0
701.204163 40.0
701.361572 464.0
701.441345 84.0
702.089844 88.0
702.370728 108.0
703.352356 104.0
703.392517 232.0
703.488159 80.0
704.32782 152.0
704.364746 88.0
705.354492 124.0
705.403931 172.0
705.453369 184.0
706.082642 56.0
707.304871 152.0
709.323914 112.0
709.381042 124.0
709.614685 116.0
710.03894 108.0
710.363953 132.0
710.399048 312.0
710.670227 164.0
711.386719 60.0
711.896423 80.0
715.288635 64.0
715.381165 132.0
715.986206 108.0
716.273804 152.0
716.378723 244.0
716.790588 48.0
717.782104 196.0
718.330872 136.0
718.875671 104.0
719.158569 76.0
719.373535 792.0
720.37677 372.0
720.39209 256.0
720.466858 104.0
720.867615 132.0
720.937073 76.0
721.381287 200.0
721.4823 152.0
721.7229 56.0
722.0224 68.0
722.204224 36.0
722.354004 116.0
722.391479 88.0
723.349182 112.0
723.429688 92.0
723.724121 108.0
724.97229 76.0
725.111633 108.0
725.390381 40.0
726.006958 124.0
726.999451 60.0
728.621094 76.0
728.954224 132.0
729.669128 68.0
729.755188 80.0
731.376465 144.0
731.595215 96.0
732.790833 60.0
732.85553 168.0
733.09259 152.0
733.157288 80.0
733.392395 1728.0
733.626221 100.0
733.96051 100.0
734.278687 64.0
734.390869 864.0
734.519287 140.0
734.990784 64.0
735.336182 92.0
735.395325 100.0
735.854431 128.0
736.038025 136.0
736.42688 176.0
736.859009 116.0
737.388611 96.0
738.388855 116.0
738.675537 60.0
739.384338 92.0
740.385925 108.0
740.624268 52.0
741.073914 176.0
741.724243 96.0
743.465332 36.0
743.867004 168.0
745.17041 84.0
746.603638 164.0
747.198425 148.0
747.443298 80.0
748.510193 56.0
748.559204 60.0
748.918701 76.0
749.016724 160.0
749.388489 360.0
750.391968 404.0
750.493713 156.0
750.651794 32.0
751.153625 168.0
751.221558 52.0
751.40271 3836.0
751.546448 128.0
751.601013 128.0
751.690491 40.0
751.74115 128.0
751.893677 120.0
751.950256 60.0
752.02124 388.0
752.152222 44.0
752.257446 172.0
752.396973 1612.0
752.594421 60.0
752.65448 72.0
752.807434 132.0
752.933044 92.0
753.307495 128.0
753.408508 560.0
754.047607 92.0
754.293579 116.0
754.40741 140.0
754.429077 116.0
754.588745 80.0
754.780151 56.0
755.004333 40.0
755.403625 120.0
755.474792 32.0
755.731934 52.0
756.303284 128.0
756.388672 68.0
757.127869 48.0
757.325012 56.0
758.612793 128.0
758.766296 132.0
759.506592 136.0
759.747986 92.0
760.422913 96.0
761.391479 88.0
761.515564 160.0
762.400391 96.0
763.422668 124.0
764.462463 68.0
765.414795 104.0
767.685181 180.0
767.878235 28.0
769.409668 144.0
769.655273 164.0
769.931335 80.0
770.384277 108.0
770.424622 288.0
770.605286 120.0
771.417725 140.0
771.611206 72.0
772.213989 88.0
772.473938 72.0
775.042908 64.0
775.388184 184.0
775.436401 120.0
776.406677 92.0
776.622986 156.0
777.105591 72.0
777.244324 136.0
777.394165 172.0
777.438538 72.0
777.488525 56.0
777.571777 88.0
777.84375 164.0
779.376587 72.0
779.415527 100.0
779.543335 164.0
780.015747 112.0
780.389771 176.0
781.0 100.0
781.333801 236.0
782.38562 144.0
784.480347 64.0
785.378174 108.0
787.448975 80.0
790.719788 76.0
791.257141 52.0
791.341125 244.0
791.405579 204.0
791.604065 188.0
791.957153 124.0
792.348145 96.0
792.39679 312.0
792.791992 120.0
792.864807 120.0
793.201111 100.0
793.409241 1848.0
793.571167 128.0
793.840332 40.0
794.154419 76.0
794.300232 116.0
794.417969 904.0
794.878113 132.0
794.934265 52.0
795.007202 40.0
795.220459 36.0
795.410828 440.0
795.427429 596.0
795.989624 52.0
796.390869 132.0
796.764771 164.0
797.416565 116.0
797.697632 56.0
798.147461 108.0
798.248657 32.0
799.265503 84.0
799.795837 136.0
800.325073 92.0
800.533447 108.0
801.023438 84.0
801.338928 64.0
802.223755 128.0
802.454956 148.0
802.578979 44.0
802.646667 64.0
802.697388 72.0
803.165527 60.0
803.707092 88.0
803.966736 164.0
804.350525 168.0
804.519897 100.0
805.039368 96.0
805.45166 80.0
805.553345 84.0
805.847107 68.0
805.999695 292.0
806.406616 88.0
806.621399 36.0
806.915344 56.0
807.152832 56.0
807.379028 152.0
807.492188 56.0
807.548706 92.0
807.769348 116.0
808.001282 124.0
808.057861 56.0
808.131409 40.0
808.261536 120.0
808.686035 36.0
808.906799 140.0
808.969055 148.0
809.286133 140.0
809.411377 2712.0
809.535278 164.0
809.614563 76.0
809.662537 172.0
809.799805 100.0
809.897766 48.0
809.954407 76.0
809.999512 132.0
810.146362 104.0
810.229614 124.0
810.417603 1428.0
810.538086 132.0
810.600647 60.0
810.699524 80.0
810.736267 116.0
810.826965 132.0
810.872314 156.0
810.985657 152.0
811.063232 152.0
811.114441 112.0
811.192261 160.0
811.309753 200.0
811.424927 24044.0
811.603088 88.0
811.699219 116.0
811.750183 80.0
811.767578 100.0
811.813416 72.0
811.972961 124.0
812.044128 188.0
812.113586 108.0
812.152466 140.0
812.310242 104.0
812.428162 12844.0
812.644348 168.0
812.704041 348.0
812.777283 44.0
812.828857 76.0
812.92804 160.0
812.95105 188.0
813.044556 36.0
813.104431 40.0
813.140991 168.0
813.250122 128.0
813.331604 76.0
813.43457 4512.0
813.54187 148.0
813.621216 128.0
813.693054 224.0
813.83313 48.0
813.876953 200.0
813.959961 156.0
814.009277 64.0
814.074585 256.0
814.115051 124.0
814.254944 104.0
814.42926 1220.0
814.576965 36.0
814.651428 40.0
814.696899 68.0
815.128723 96.0
815.199951 52.0
815.287842 100.0
815.416138 196.0
815.475403 244.0
815.710266 76.0
815.802795 60.0
815.930176 100.0
816.117798 84.0
816.169006 100.0
816.264282 112.0
816.368591 116.0
816.390747 68.0
816.521545 40.0
816.679138 204.0
816.817322 112.0
817.1073 108.0
817.244019 64.0
817.300964 32.0
817.414734 60.0
817.494019 60.0
817.559509 120.0
817.659485 164.0
818.02594 104.0
818.135498 76.0
818.211609 60.0
818.279968 88.0
818.3255 68.0
818.379761 76.0
818.655762 76.0
818.724121 152.0
818.860779 40.0
819.065857 60.0
819.675476 32.0
819.721069 120.0
819.988953 88.0
820.131409 32.0
820.171326 68.0
820.305176 100.0
820.792786 40.0
822.846863 28.0
823.28656 40.0
823.66925 72.0
823.932068 48.0
826.230347 176.0
831.662964 48.0
834.184753 108.0
834.679199 84.0
837.009766 36.0
837.718201 64.0
838.369263 72.0
838.594055 68.0
838.801575 132.0
842.292786 152.0
852.495972 80.0
853.327209 88.0
854.269409 44.0
857.506958 48.0
859.997559 92.0
860.528809 52.0
864.573975 60.0
866.283691 56.0
872.328247 84.0
874.522339 56.0
880.6073 136.0
884.24353 96.0
891.692993 64.0
892.442017 120.0
898.171265 76.0
901.341492 48.0
901.927246 60.0
922.486938 112.0
923.871216 44.0
930.878052 108.0
931.151306 116.0
936.607361 52.0
940.406128 28.0
945.656555 116.0
947.971619 40.0
951.148682 84.0
964.973328 80.0
965.98761 80.0
974.400513 100.0
975.631104 188.0
980.012756 48.0
982.325806 100.0
984.029602 32.0
986.672485 92.0
989.450317 76.0
999.247681 64.0
1002.345642 80.0
1010.820129 52.0
1019.203247 76.0
1019.730713 100.0
1030.711426 52.0
1033.275513 80.0
1034.094604 68.0
1034.651489 56.0
1038.862061 124.0
1041.648193 48.0
1044.187134 56.0
1044.688843 96.0
1049.145508 60.0
1061.365601 88.0
1066.57251 56.0
1067.196655 32.0
1072.430786 72.0
1076.606445 108.0
1076.887329 216.0
1084.424927 36.0
1088.873413 80.0
1097.784546 56.0
1097.936157 80.0
1108.421021 36.0
1108.818726 72.0
1116.91272 56.0
1119.7948 100.0
1121.187256 72.0
1122.293945 32.0
1122.360596 84.0
1122.567261 72.0
1123.414429 44.0
1129.072021 76.0
1130.557251 80.0
1134.502563 92.0
1137.353638 260.0
1138.119019 72.0
1138.354004 172.0
1141.983276 152.0
1153.162476 40.0
1156.639282 80.0
1161.219727 56.0
1161.369019 40.0
1168.638184 152.0
1170.796021 96.0
1178.593384 48.0
1181.246216 40.0
1185.429565 88.0
1189.119385 84.0
1190.011841 52.0
1195.717529 188.0
1203.314209 192.0
1217.016846 104.0
1223.4552 124.0
1239.295898 56.0
1239.947632 144.0
1243.110596 44.0
1257.639282 48.0
1271.87915 184.0
1273.263794 172.0
1273.633057 52.0
1274.727295 92.0
1277.037842 208.0
1277.400635 60.0
1278.332764 156.0
1306.856079 56.0
1312.027466 76.0
1315.786377 180.0
1326.377563 92.0
1328.531372 224.0
1334.55957 56.0
1346.299316 56.0
1355.978638 68.0
1364.02356 148.0
1364.707275 60.0
1366.053223 116.0
1383.943604 220.0
1392.05603 112.0
1392.538818 44.0
1406.544922 132.0
1413.615479 76.0
1418.686401 128.0
1424.359741 140.0
1428.983276 176.0
1434.028809 200.0
1446.976929 52.0
1448.256836 216.0
1455.279419 100.0
1465.464111 204.0
1476.043823 188.0
1479.188354 76.0
1481.600708 200.0
1488.212158 44.0
1489.341187 60.0
1493.599609 48.0
1494.892212 240.0
1497.455933 132.0
1498.858154 56.0
