>compound MLS001032306-01!2-[(5-hydroxy-2,2-dimethyl-4-oxo-3H-chromen-7-yl)oxy]-N-[(3-methoxyphenyl)methyl]acetamide
>formula C21H23NO6
>ionization [M+H]+
>parentmass 386.16
#inchi InChI=1S/C21H23NO6/c1-21(2)10-17(24)20-16(23)8-15(9-18(20)28-21)27-12-19(25)22-11-13-5-4-6-14(7-13)26-3/h4-9,23H,10-12H2,1-3H3,(H,22,25)
#inchikey HVRIXSUEIHGMDA
#Ion_Source LC-ESI
#Instrument qTof
#Compound_Source NIH Natural Product Library
#PI Dorrestein
#Data_Collector VVP/LMS
#Scan -1
#Precursor_MZ 386.16
#ExactMass 385.153
#Charge 1
#CAS_Number N/A
#Pubmed_ID N/A
#Smiles COc1cccc(CNC(=O)COc2cc(O)c3C(=O)CC(C)(C)Oc3c2)c1
#INCHI_AUX N/A
#Library_Class 1
#SpectrumID CCMSLIB00000079872
#IonMode Positive
#UpdateWorkflowName UPDATE-SINGLE-ANNOTATED-GOLD
#LibraryQualityString Gold
#TaskID b1d8e8f6646f4e71acdff9ca3d919d08
##Scan# 2275
#SpectrumFile p1-C12_GC12_01_17908.mzXML
#LibraryName NIH_Natural_Products_Library.mgf
#MQScore -1
#Organism NIH_Natural_Products_Library
#TIC_Query 0
#RT_Query -1
#MZErrorPPM -1
#SharedPeaks 0
#MassDiff 0
#LibMZ -1
#SpecMZ 386.16
#SpecCharge 0
#internalFilename spec-00000.mgf

>collision 10
95.050117 144.0
95.0877 220.0
95.137344 128.0
95.368492 148.0
95.467644 208.0
95.518211 180.0
95.533775 112.0
95.57074 72.0
95.798515 148.0
95.874504 100.0
95.955811 152.0
96.131912 164.0
96.301758 160.0
96.739754 148.0
96.763245 132.0
96.876831 76.0
97.028244 380.0
97.12381 140.0
97.196396 224.0
97.223869 100.0
97.239571 156.0
97.284714 172.0
97.587257 176.0
97.756416 116.0
97.770195 108.0
98.039986 132.0
98.298309 92.0
98.471176 268.0
98.60984 192.0
98.641953 56.0
98.984222 192.0
99.002045 172.0
99.023827 120.0
99.097122 136.0
99.364769 156.0
99.428261 188.0
99.626816 168.0
99.644699 124.0
99.863358 136.0
100.024521 92.0
100.044426 156.0
100.271492 112.0
100.626556 196.0
100.692451 212.0
100.764359 204.0
100.96933 144.0
101.260437 216.0
101.368614 168.0
101.611221 188.0
101.898315 144.0
101.912376 148.0
102.049538 196.0
102.149597 236.0
102.165695 176.0
102.292465 112.0
102.360916 176.0
102.453568 132.0
102.610756 156.0
102.649071 80.0
102.753952 144.0
102.776146 140.0
103.057198 300.0
103.119438 244.0
103.169968 52.0
103.260956 156.0
103.299385 176.0
103.493317 136.0
103.629372 184.0
103.653687 104.0
103.7976 112.0
103.832077 216.0
104.101982 156.0
104.425102 140.0
104.528854 176.0
104.714104 176.0
104.852638 168.0
104.952522 168.0
104.976997 196.0
105.03376 632.0
105.068825 172.0
105.101425 160.0
105.121208 172.0
105.264717 212.0
105.281052 216.0
105.315773 188.0
105.350861 180.0
105.428139 168.0
105.540565 104.0
105.872055 180.0
105.904823 132.0
105.935509 196.0
105.992912 68.0
106.04287 2060.0
106.099815 152.0
106.282021 224.0
106.462662 180.0
106.518112 200.0
106.779144 144.0
106.859367 136.0
106.875824 152.0
106.999313 196.0
107.048058 536.0
107.339272 140.0
107.357834 32.0
107.392891 160.0
107.583336 68.0
107.607498 152.0
107.814056 212.0
107.873993 188.0
107.898796 44.0
107.977371 204.0
108.05368 144.0
108.089081 148.0
108.22776 128.0
108.267105 64.0
108.294029 160.0
108.51783 76.0
108.582108 100.0
108.704506 180.0
108.797897 172.0
108.988976 144.0
109.030312 152.0
109.065468 3912.0
109.113678 92.0
109.194771 196.0
109.288376 208.0
109.440315 40.0
109.579865 208.0
109.686142 80.0
109.750763 180.0
109.842529 116.0
109.861298 176.0
109.911369 88.0
110.001808 108.0
110.032425 220.0
110.069885 220.0
110.128479 132.0
110.163994 208.0
110.182793 72.0
110.398338 160.0
110.479645 32.0
110.515213 108.0
110.682663 176.0
110.87957 56.0
110.911011 148.0
110.929367 148.0
111.004745 352.0
111.072464 128.0
111.216515 232.0
111.334808 188.0
111.476814 168.0
111.557526 152.0
111.633209 204.0
111.793083 104.0
111.828857 168.0
111.904274 136.0
112.27951 208.0
112.326118 40.0
112.467484 100.0
112.568825 88.0
112.655418 196.0
112.687103 156.0
112.727249 152.0
112.742043 92.0
112.786423 136.0
112.900589 76.0
112.961929 116.0
112.983086 188.0
113.013733 320.0
113.110046 128.0
113.336647 216.0
113.413582 172.0
113.457451 184.0
113.724724 76.0
114.124092 104.0
114.230423 208.0
114.266594 148.0
114.622154 196.0
114.686089 168.0
114.79055 156.0
114.816139 208.0
114.914261 164.0
114.946266 148.0
115.059387 160.0
115.074333 140.0
115.240921 176.0
115.287933 244.0
115.319984 180.0
115.80352 264.0
116.146454 148.0
116.204369 144.0
116.309525 128.0
116.337425 228.0
116.719849 140.0
116.765015 128.0
116.822136 272.0
116.86396 172.0
116.932823 120.0
117.070602 188.0
117.432655 160.0
117.734795 104.0
118.057587 212.0
118.342407 184.0
118.437691 128.0
118.529945 220.0
118.715103 164.0
118.827888 164.0
118.927711 208.0
118.971123 204.0
118.995003 56.0
119.060143 148.0
119.08403 188.0
119.431786 220.0
119.520981 128.0
119.540565 136.0
119.67334 168.0
119.799492 164.0
120.052483 364.0
120.074287 172.0
120.159355 88.0
120.202995 156.0
120.467171 208.0
120.521782 120.0
120.54718 148.0
120.615753 164.0
120.711952 36.0
120.767921 128.0
120.825684 124.0
120.91243 236.0
120.962509 168.0
121.00573 228.0
121.024529 424.0
121.06601 71032.0
121.144753 48.0
121.170746 104.0
121.192207 68.0
121.209915 264.0
121.238182 92.0
121.262878 200.0
121.319168 220.0
121.353493 136.0
121.383728 140.0
121.425781 364.0
121.469727 44.0
121.492958 64.0
121.502113 68.0
121.542122 44.0
121.559677 44.0
121.605186 112.0
121.654053 80.0
121.68618 84.0
121.702347 52.0
121.73748 48.0
121.799614 192.0
121.815369 104.0
121.83535 60.0
121.891243 68.0
121.919815 68.0
121.976959 76.0
122.012131 72.0
122.036804 180.0
122.068199 6764.0
122.144073 56.0
122.161964 112.0
122.177063 96.0
122.199066 68.0
122.24527 68.0
122.287086 80.0
122.336639 156.0
122.404037 64.0
122.490562 204.0
122.546928 92.0
122.574821 140.0
122.676956 56.0
122.707817 168.0
122.729393 180.0
122.755676 180.0
122.803619 188.0
122.873222 148.0
122.888664 68.0
122.914993 236.0
122.943375 136.0
122.963692 164.0
122.985764 52.0
123.013031 408.0
123.044365 272.0
123.074173 552.0
123.199112 84.0
123.218582 144.0
123.290466 116.0
123.319275 48.0
123.41433 100.0
123.487305 128.0
123.511635 172.0
123.597908 44.0
123.815475 120.0
123.903442 28.0
124.049706 176.0
124.094604 152.0
124.224884 120.0
124.329163 48.0
124.397972 172.0
124.437927 188.0
124.615608 92.0
124.760063 180.0
124.866791 148.0
125.022514 308.0
125.067032 212.0
125.222878 176.0
125.666473 128.0
125.786987 112.0
125.827164 176.0
125.880753 256.0
126.052811 152.0
126.151093 36.0
126.327751 104.0
126.419479 104.0
127.0401 156.0
127.05658 128.0
127.525108 204.0
127.570061 140.0
127.790451 92.0
127.84446 128.0
128.017792 196.0
128.040314 40.0
128.315216 184.0
129.062531 200.0
129.087402 116.0
129.172806 64.0
129.315887 84.0
129.569504 176.0
129.651077 132.0
129.703201 192.0
129.73494 224.0
129.768936 48.0
129.848312 148.0
129.936768 164.0
129.982147 60.0
130.045685 136.0
130.146683 180.0
130.352264 84.0
130.686508 136.0
130.916412 80.0
131.046066 208.0
131.066757 64.0
131.278748 72.0
131.406479 52.0
131.488617 96.0
131.760345 92.0
131.808319 44.0
132.043777 132.0
132.110107 120.0
132.13298 164.0
132.518921 164.0
132.735352 100.0
132.82251 132.0
132.983109 132.0
133.067444 472.0
133.700165 88.0
133.739288 132.0
133.78302 144.0
133.895844 100.0
133.916565 48.0
134.029449 120.0
134.059402 240.0
134.405746 80.0
134.713593 24.0
134.985062 136.0
135.006714 152.0
135.080566 292.0
135.114578 56.0
135.239532 196.0
135.267303 44.0
135.45256 244.0
135.675018 116.0
135.695877 68.0
135.876602 168.0
135.999756 52.0
136.081512 256.0
136.152985 160.0
136.469009 152.0
136.552719 188.0
136.955368 84.0
136.976334 180.0
137.019745 276.0
137.059891 5184.0
137.238297 216.0
137.279312 196.0
137.363281 60.0
137.384262 52.0
137.407593 264.0
137.538269 36.0
137.629318 40.0
138.06131 452.0
138.255783 136.0
138.693741 184.0
138.74765 116.0
138.820343 96.0
138.855515 124.0
138.935272 172.0
139.041458 312.0
139.139435 44.0
139.186386 280.0
139.226318 92.0
139.270935 168.0
139.724609 124.0
140.877396 132.0
141.099533 88.0
141.170471 148.0
141.239059 216.0
141.310028 196.0
141.444916 192.0
142.219986 184.0
142.236603 72.0
142.837769 176.0
142.954346 220.0
143.311508 124.0
143.337723 124.0
143.511719 180.0
143.721603 152.0
144.376114 164.0
144.428726 104.0
144.459824 168.0
144.617752 156.0
144.634506 36.0
144.785339 64.0
145.003342 156.0
145.029709 216.0
145.07045 124.0
146.076599 208.0
146.389481 148.0
146.406342 80.0
146.442154 192.0
146.907669 60.0
147.006592 124.0
147.081558 188.0
147.29631 228.0
147.728989 208.0
148.053268 188.0
148.079956 188.0
148.099335 184.0
148.499252 168.0
148.853561 244.0
148.88269 52.0
149.018677 184.0
149.058624 176.0
149.210724 160.0
149.371216 156.0
149.558578 116.0
149.988373 236.0
150.029083 180.0
150.088211 448.0
150.462936 180.0
150.714493 116.0
150.753601 152.0
150.924698 192.0
151.008789 196.0
151.039047 864.0
151.071442 160.0
151.09346 228.0
151.113022 468.0
151.419006 40.0
151.764511 164.0
151.847885 252.0
151.907303 180.0
152.193893 76.0
152.243011 88.0
152.319138 196.0
152.380554 76.0
152.587006 144.0
152.641083 224.0
152.664597 128.0
152.680435 176.0
152.741928 160.0
152.762833 164.0
152.784531 148.0
152.803421 44.0
152.828018 116.0
152.882156 172.0
152.915863 248.0
152.934998 264.0
152.99202 236.0
153.018829 39780.0
153.082962 160.0
153.099854 80.0
153.11734 136.0
153.152115 80.0
153.229752 96.0
153.267776 20.0
153.289566 72.0
153.31311 120.0
153.342682 108.0
153.367325 76.0
153.423782 180.0
153.462341 184.0
153.520187 152.0
153.539917 52.0
153.581848 56.0
153.601578 36.0
153.638 188.0
153.702728 68.0
153.747147 136.0
153.808838 148.0
153.826126 104.0
153.853271 56.0
153.937225 64.0
154.02269 2936.0
154.06813 140.0
154.17189 60.0
154.374603 56.0
154.429016 108.0
154.478485 76.0
154.50322 120.0
154.545273 40.0
154.617035 76.0
154.805176 176.0
154.832413 68.0
154.870865 152.0
154.894333 84.0
154.951309 28.0
155.023865 368.0
155.06778 76.0
155.149567 92.0
155.166931 152.0
155.253708 196.0
155.282318 112.0
155.338043 140.0
155.385178 56.0
155.72525 52.0
155.822113 160.0
155.923996 168.0
156.065689 84.0
156.132828 176.0
156.244751 112.0
156.309448 132.0
156.433884 32.0
156.700348 80.0
157.268906 96.0
157.438675 44.0
157.516098 180.0
158.066101 104.0
158.10614 148.0
158.221283 64.0
158.940598 140.0
159.076111 176.0
159.525757 68.0
159.976044 108.0
160.069199 172.0
160.099411 296.0
160.144745 104.0
160.661484 104.0
161.024948 108.0
161.060471 448.0
161.084076 304.0
161.214432 240.0
161.366089 160.0
161.497574 192.0
161.71994 104.0
161.811356 232.0
161.829086 116.0
162.098541 228.0
162.272461 184.0
162.642822 100.0
162.927231 140.0
163.041061 396.0
163.074814 632.0
163.586517 92.0
163.669876 108.0
163.840515 160.0
164.031631 52.0
164.074295 352.0
164.547607 136.0
164.577576 52.0
164.605667 36.0
164.673508 176.0
164.787003 100.0
165.018051 3892.0
165.070724 140.0
165.098846 88.0
165.152557 64.0
165.18837 72.0
165.285583 72.0
165.326523 100.0
165.344437 72.0
165.408432 80.0
165.53775 172.0
165.605576 192.0
165.633759 72.0
165.848984 104.0
166.020996 264.0
166.059219 240.0
166.418488 48.0
166.67276 32.0
166.98381 52.0
167.027267 324.0
167.096985 40.0
167.174179 44.0
167.30423 136.0
167.503723 80.0
167.56813 72.0
167.686661 244.0
168.042786 192.0
168.070892 168.0
168.274796 128.0
168.465897 176.0
168.548569 80.0
169.7211 160.0
170.17514 96.0
170.941925 144.0
171.022598 160.0
171.087677 156.0
171.111099 84.0
171.199631 144.0
171.483597 112.0
171.872147 272.0
171.893021 104.0
172.049622 160.0
172.190628 140.0
172.444046 48.0
173.062561 168.0
173.866119 44.0
174.086639 160.0
174.972717 188.0
176.051239 944.0
176.148849 76.0
176.315308 180.0
176.339096 212.0
176.664322 124.0
176.80455 216.0
177.019043 368.0
177.517151 136.0
178.058167 124.0
178.085632 876.0
178.316208 72.0
178.417221 60.0
179.034515 292.0
179.076416 216.0
180.034546 148.0
180.077271 196.0
180.095963 128.0
180.299011 44.0
180.325745 112.0
180.432663 152.0
181.029327 172.0
181.081497 124.0
181.439255 76.0
181.618927 168.0
182.080551 156.0
182.655716 148.0
182.852127 196.0
183.028625 300.0
183.331497 56.0
184.324524 144.0
184.805801 200.0
184.84639 144.0
185.041275 128.0
187.545853 228.0
187.783066 152.0
187.957642 88.0
188.520157 228.0
188.550217 132.0
189.055298 284.0
189.086243 148.0
190.037094 148.0
190.057297 432.0
190.462601 36.0
190.951828 32.0
191.070328 7976.0
191.13063 40.0
191.188416 80.0
191.284744 164.0
191.331543 40.0
191.681335 56.0
192.074631 1052.0
192.514389 96.0
192.843155 144.0
193.01265 1184.0
193.044983 688.0
193.363098 164.0
193.545807 168.0
193.570724 108.0
193.620575 76.0
194.018219 152.0
194.077789 136.0
194.122147 80.0
194.710464 88.0
195.021637 160.0
195.216248 104.0
195.327484 164.0
195.461029 112.0
195.600174 88.0
196.062515 324.0
197.019547 88.0
197.139694 116.0
197.245895 44.0
197.273849 192.0
197.833328 80.0
198.267456 136.0
198.488922 44.0
198.598282 52.0
198.732941 148.0
199.078186 208.0
199.780853 216.0
200.560837 160.0
201.09108 56.0
202.196121 88.0
203.072006 148.0
203.397842 136.0
205.013062 304.0
206.074738 132.0
206.632233 92.0
206.772446 180.0
206.915573 124.0
207.070511 180.0
207.322296 124.0
207.617569 152.0
208.648361 140.0
208.679993 116.0
209.01651 164.0
209.081009 23824.0
209.148895 96.0
209.173172 36.0
209.203583 132.0
209.231934 144.0
209.284195 84.0
209.302902 40.0
209.324509 96.0
209.353302 52.0
209.394913 116.0
209.480026 48.0
209.652191 148.0
209.748001 108.0
209.791245 84.0
209.822952 44.0
209.851791 64.0
209.94313 112.0
210.04567 256.0
210.085785 2804.0
210.138367 88.0
210.431702 80.0
210.552979 144.0
210.815857 68.0
211.000839 68.0
211.021072 124.0
211.047104 148.0
211.083801 452.0
211.278473 52.0
211.34111 92.0
211.397095 164.0
211.475235 68.0
211.521545 112.0
211.547592 76.0
211.58812 108.0
211.672089 48.0
211.750275 48.0
211.806381 76.0
211.889313 92.0
212.037094 64.0
212.199417 92.0
212.614212 52.0
213.061356 188.0
215.073578 160.0
215.263275 56.0
217.089249 140.0
218.087418 168.0
218.49321 204.0
218.63739 120.0
219.096725 180.0
220.069962 124.0
220.687469 148.0
220.818024 132.0
220.968445 76.0
221.081345 4296.0
221.302872 132.0
221.34729 44.0
221.47464 36.0
221.628677 92.0
221.649414 60.0
221.696838 48.0
221.747208 56.0
221.836136 52.0
221.871704 52.0
221.966583 172.0
222.040405 3392.0
222.083527 844.0
222.3022 140.0
222.370026 140.0
222.542206 88.0
222.729294 104.0
222.800583 124.0
223.046326 520.0
223.094406 492.0
223.237503 44.0
223.258316 60.0
223.323746 84.0
223.445694 84.0
223.523056 96.0
223.892181 100.0
224.04834 244.0
224.258621 68.0
224.607483 60.0
224.729782 56.0
226.766205 52.0
227.063004 136.0
228.125916 64.0
229.085846 216.0
229.191284 204.0
229.682678 52.0
229.896881 76.0
230.376953 212.0
231.544464 116.0
232.062637 104.0
232.08992 248.0
233.073349 184.0
234.445709 68.0
236.088074 144.0
236.871582 44.0
239.596375 68.0
240.725235 204.0
240.932159 116.0
241.51329 44.0
242.383209 144.0
242.885437 136.0
243.071579 104.0
244.102615 116.0
244.457458 72.0
245.080215 132.0
245.264084 84.0
246.759354 136.0
247.065842 160.0
249.074112 644.0
249.106598 36.0
250.078186 144.0
250.103363 76.0
250.733261 64.0
253.153107 92.0
253.257614 60.0
255.061371 140.0
256.068634 184.0
257.468475 156.0
259.096558 148.0
259.362518 188.0
261.347137 144.0
267.058258 208.0
267.125153 204.0
268.783447 188.0
271.134613 160.0
271.364075 120.0
273.075989 960.0
274.082703 324.0
274.28653 60.0
274.923065 60.0
275.0914 212.0
276.092499 136.0
276.674866 156.0
277.65564 136.0
277.715332 56.0
278.000641 160.0
278.102478 3176.0
278.166595 48.0
278.246246 72.0
278.292725 64.0
279.114349 408.0
279.23645 64.0
280.110626 176.0
281.11203 104.0
282.869995 28.0
283.466125 44.0
285.073639 300.0
286.065643 164.0
287.595947 196.0
288.227448 104.0
289.076172 80.0
297.2677 124.0
297.426117 132.0
298.473907 208.0
298.604584 84.0
299.626923 124.0
301.137756 128.0
303.073578 200.0
303.099213 164.0
304.264557 160.0
309.326263 100.0
312.192688 48.0
313.597382 52.0
320.037598 188.0
321.474091 68.0
322.577667 184.0
329.132111 268.0
329.661652 108.0
330.096924 3436.0
330.862457 64.0
330.92038 68.0
331.100922 620.0
331.492676 48.0
331.880524 68.0
332.06546 156.0
332.103363 188.0
333.499573 68.0
334.001343 56.0
340.290527 52.0
340.874512 56.0
341.136536 312.0
341.234711 36.0
341.569366 80.0
342.147461 120.0
344.145355 140.0
348.047852 56.0
348.278107 92.0
359.777985 108.0
368.138702 144.0
384.328461 124.0
386.14679 108.0
386.170807 136.0
387.142853 132.0
387.24469 180.0
389.26825 112.0
391.702698 112.0
417.919891 64.0
445.015656 56.0
470.619385 116.0
491.117645 48.0
503.004822 136.0
517.394531 72.0
541.536621 80.0
548.147278 52.0
557.276062 44.0
567.058228 80.0
581.965515 124.0
591.114014 72.0
624.133057 20.0
638.293701 84.0
653.823853 172.0
706.260071 72.0
770.985168 140.0
776.183105 148.0
778.013977 68.0
790.498779 140.0
799.437927 168.0
852.233215 100.0
869.829102 140.0
875.80304 204.0
879.901367 152.0
882.778809 20.0
889.889099 56.0
894.901123 144.0
897.510803 52.0
901.181458 140.0
910.375916 156.0
921.25946 52.0
936.252991 172.0
939.477234 152.0
939.793701 160.0
951.717468 148.0
964.926941 172.0
971.06958 48.0
981.323669 196.0
982.022095 156.0
984.493408 184.0
987.180481 160.0
989.595764 132.0
994.824219 172.0
996.526123 92.0
1000.765198 160.0
1003.222229 244.0
1003.50592 108.0
1016.821289 64.0
1021.084229 220.0
1029.585693 200.0
1030.090332 176.0
1031.221191 152.0
1032.467896 144.0
1033.939331 228.0
1038.327637 40.0
1039.046143 108.0
1042.140625 148.0
1045.368408 40.0
1045.973389 144.0
1048.29834 208.0
1049.078247 212.0
1052.781738 208.0
1054.732788 176.0
1055.211182 232.0
1056.381714 176.0
1059.087402 168.0
1060.188721 136.0
1061.18042 144.0
1065.522339 168.0
1073.123901 68.0
1075.250366 112.0
1081.812744 140.0
1083.358154 132.0
1087.193726 324.0
1088.506592 132.0
1088.559204 308.0
1090.9375 152.0
1091.627808 136.0
1093.364502 232.0
1093.568604 136.0
1094.70752 88.0
1097.079346 248.0
1099.526367 148.0
1102.088501 212.0
1102.610596 140.0
1105.255615 144.0
1105.685791 76.0
1108.950806 84.0
1109.520874 220.0
1109.998291 108.0
1111.503906 96.0
1115.089966 52.0
1117.377319 180.0
1117.51709 144.0
1118.854736 196.0
1119.713745 200.0
1119.913452 184.0
1120.946045 156.0
1121.159302 172.0
1125.02124 232.0
1127.82666 208.0
1130.207397 176.0
1130.374634 184.0
1131.070679 164.0
1145.110107 168.0
1147.893311 252.0
1148.176514 208.0
1151.226807 200.0
1153.496826 80.0
1155.329468 152.0
1156.784302 260.0
1161.575073 132.0
1163.522949 224.0
1164.086182 184.0
1164.731323 200.0
1164.921509 164.0
1165.431152 184.0
1165.567017 176.0
1167.3479 124.0
1170.539307 144.0
1171.411011 136.0
1171.581299 84.0
1171.65625 164.0
1173.312256 228.0
1174.710205 128.0
1176.505005 132.0
1181.247437 56.0
1184.923584 200.0
1188.866089 248.0
1189.538696 144.0
1189.984985 116.0
1190.259644 164.0
1191.200439 212.0
1192.004272 168.0
1195.889771 96.0
1196.977539 152.0
1197.046387 196.0
1198.348145 216.0
1199.802368 144.0
1200.043579 120.0
1201.678223 208.0
1202.437256 176.0
1207.286865 52.0
1209.812378 96.0
1210.442383 236.0
1214.343872 132.0
1215.037598 204.0
1216.946167 140.0
1219.078491 100.0
1219.300903 132.0
1219.530273 172.0
1219.838745 260.0
1221.60376 212.0
1222.033691 152.0
1224.463013 252.0
1227.006348 192.0
1228.373169 40.0
1228.973145 112.0
1229.028931 148.0
1229.489502 248.0
1231.283691 224.0
1232.932373 140.0
1233.309692 172.0
1233.519409 40.0
1234.638062 148.0
1235.736328 184.0
1236.660034 212.0
1237.359985 96.0
1237.962158 224.0
1239.377075 172.0
1239.664307 204.0
1239.958618 192.0
1240.841919 180.0
1241.844604 172.0
1242.356689 180.0
1242.658325 136.0
1253.063599 136.0
1253.19043 184.0
1253.45105 192.0
1259.970337 208.0
1260.323608 236.0
1261.616943 192.0
1265.139893 224.0
1266.393188 220.0
1268.405396 168.0
1269.631958 188.0
1272.56958 160.0
1275.411133 264.0
1277.053589 92.0
1278.291382 176.0
1280.177734 240.0
1280.241821 60.0
1287.444336 152.0
1287.822876 204.0
1288.272949 156.0
1289.966431 232.0
1290.245239 208.0
1291.818481 156.0
1292.941895 196.0
1293.521606 48.0
1294.366333 92.0
1294.946411 156.0
1296.744751 148.0
1297.676636 160.0
1298.199951 160.0
1298.981812 188.0
1299.275879 132.0
1299.405029 156.0
1301.36438 120.0
1302.441528 244.0
1303.116821 152.0
1303.404175 204.0
1303.468872 180.0
1305.373657 160.0
1305.495972 208.0
1306.43811 104.0
1306.59729 164.0
1306.697144 188.0
1307.050293 220.0
1307.208008 152.0
1307.942017 164.0
1309.425293 124.0
1310.664307 104.0
1313.086426 164.0
1313.555176 160.0
1313.800415 216.0
1313.995239 148.0
1314.514771 68.0
1315.972778 172.0
1316.550415 184.0
1317.323242 252.0
1317.532715 140.0
1318.414185 104.0
1318.580444 140.0
1319.158691 204.0
1320.828979 260.0
1320.959229 196.0
1321.631958 140.0
1323.245972 52.0
1323.752808 192.0
1324.151123 92.0
1324.839233 196.0
1328.202637 132.0
1328.616089 120.0
1330.205322 108.0
1331.548584 172.0
1333.132324 220.0
1334.418823 216.0
1334.527832 164.0
1335.102295 184.0
1335.356812 156.0
1336.98645 184.0
1337.801636 136.0
1338.464233 172.0
1338.682617 204.0
1339.024902 124.0
1339.352661 180.0
1340.489136 176.0
1341.779175 108.0
1342.537476 188.0
1345.879517 196.0
1346.120483 220.0
1348.816284 144.0
1350.278564 216.0
1350.446777 156.0
1350.563843 152.0
1351.683105 40.0
1352.444214 236.0
1353.31543 148.0
1354.428467 164.0
1355.051147 56.0
1355.615356 200.0
1356.084351 204.0
1356.927368 192.0
1358.694824 136.0
1358.907593 44.0
1362.923706 200.0
1363.055908 56.0
1363.562988 192.0
1363.981934 88.0
1364.268677 192.0
1364.481812 160.0
1365.43042 156.0
1367.983521 176.0
1368.101318 136.0
1368.962769 176.0
1369.183716 100.0
1370.531738 120.0
1370.590576 72.0
1371.806641 184.0
1371.968872 264.0
1372.197388 224.0
1372.425903 144.0
1373.318237 132.0
1374.7052 204.0
1375.856567 188.0
1376.063232 160.0
1376.122314 192.0
1376.402954 228.0
1377.303833 160.0
1377.395386 280.0
1378.08606 176.0
1378.655884 204.0
1379.062378 164.0
1380.038208 172.0
1384.825928 220.0
1386.085327 116.0
1386.263184 72.0
1386.470581 124.0
1386.774536 136.0
1387.056152 156.0
1387.678833 180.0
1387.916138 140.0
1388.286865 136.0
1388.746704 128.0
1390.230469 152.0
1390.683105 48.0
1390.987427 76.0
1391.417969 100.0
1391.766968 156.0
1391.900635 136.0
1392.925537 184.0
1393.683228 140.0
1394.37439 240.0
1396.322144 52.0
1396.485718 140.0
1396.575073 184.0
1397.244507 140.0
1397.542114 68.0
1397.594238 64.0
1397.936523 172.0
1398.509521 184.0
1399.938843 224.0
1400.095337 184.0
1400.683716 144.0
1401.011475 160.0
1401.428589 144.0
1401.845947 148.0
1402.740234 192.0
1403.068237 60.0
1403.172607 132.0
1403.254639 160.0
1404.074829 220.0
1405.283203 200.0
1406.156372 140.0
1406.529541 180.0
1407.552246 168.0
1407.679199 224.0
1407.985352 140.0
1410.60791 132.0
1410.832153 164.0
1411.856445 176.0
1413.449829 164.0
1413.786621 200.0
1416.204712 112.0
1416.279663 140.0
1416.654175 176.0
1417.118652 192.0
1417.440796 140.0
1417.538208 164.0
1417.68811 132.0
1417.927856 176.0
1418.625 108.0
1418.827393 136.0
1420.162109 160.0
1420.507202 128.0
1421.189819 148.0
1421.387207 232.0
1422.150391 196.0
1422.270508 116.0
1422.443115 72.0
1422.916016 108.0
1423.193848 128.0
1423.426636 132.0
1423.719482 128.0
1427.476807 168.0
1427.897949 260.0
1428.657593 176.0
1428.973511 140.0
1430.839966 216.0
1431.103516 232.0
1431.525146 160.0
1432.843262 220.0
1432.918579 116.0
1435.194702 148.0
1437.774536 288.0
1438.151855 224.0
1440.824951 188.0
1441.293457 88.0
1442.532837 124.0
1442.978882 216.0
1443.621582 124.0
1444.007202 156.0
1446.171021 108.0
1446.980957 120.0
1447.170288 184.0
1447.617065 160.0
1447.904785 132.0
1448.389526 164.0
1448.972778 180.0
1449.578979 204.0
1450.852295 144.0
1451.655884 156.0
1453.028809 188.0
1453.506714 144.0
1454.212524 140.0
1455.298096 156.0
1456.489014 216.0
1457.812256 116.0
1458.397461 124.0
1458.800293 64.0
1463.555176 44.0
1463.929565 116.0
1464.263306 192.0
1466.579468 140.0
1469.019531 232.0
1469.233032 164.0
1470.782104 204.0
1470.85083 172.0
1471.682983 172.0
1471.774536 132.0
1472.353882 208.0
1473.706909 212.0
1473.966675 208.0
1474.027832 192.0
1475.869995 152.0
1476.45105 72.0
1477.192993 216.0
1477.751465 240.0
1478.310059 188.0
1478.508911 184.0
1478.860962 180.0
1479.477173 164.0
1480.713745 224.0
1481.050781 176.0
1482.422119 120.0
1483.456787 48.0
1483.878418 196.0
1484.231079 92.0
1484.729614 200.0
1486.747192 100.0
1487.269043 124.0
1488.941895 176.0
1489.426636 80.0
1489.641724 152.0
1490.655884 164.0
1491.70105 160.0
1491.985474 164.0
1493.238892 136.0
1493.338867 220.0
1493.631104 48.0
1495.300659 224.0
1495.60083 208.0
1498.819824 108.0
1499.174316 212.0
1500.037598 112.0
1500.099243 148.0
1502.906372 112.0
