>compound Sulfamethoxazole
>formula C10H11N3O3S
>ionization [M+H]+
>parentmass 254.059616
#inchi InChI=1S/C10H11N3O3S/c1-7-6-10(12-16-7)13-17(14,15)9-4-2-8(11)3-5-9/h2-6H,11H2,1H3,(H,12,13)
#inchikey JLKIGFTWXXRPMT
#Ion_Source LC-ESI
#Instrument qTof
#Compound_Source Commercial
#PI Dorrestein
#Data_Collector Garg_Neha
#Scan -1
#Precursor_MZ 254.059
#ExactMass 253.052
#Charge 1
#CAS_Number 723-46-6
#Pubmed_ID N/A
#Smiles C1=C(C=CC(=C1)S(NC2C=C(ON=2)C)(=O)=O)N
#INCHI_AUX N/A
#Library_Class 1
#SpectrumID CCMSLIB00000078344
#IonMode Positive
#UpdateWorkflowName UPDATE-SINGLE-ANNOTATED-GOLD
#LibraryQualityString Gold
#TaskID 77f51c88eb8b467eb4a01dd2d0cb90d2
##Scan# 1122
#SpectrumFile Plate5_61_88_GH9_01_16511.mzXML
#LibraryName FDALibrary_2_04302014.mgf
#MQScore -1
#Organism FDALibrary_2_04302014
#TIC_Query 0
#RT_Query -1
#MZErrorPPM -1
#SharedPeaks 0
#MassDiff 0
#LibMZ -1
#SpecMZ 254.059
#SpecCharge 0
#internalFilename spec-00000.mgf

>collision 10
45.080845 172.0
45.334824 148.0
45.526657 228.0
46.016792 152.0
46.306171 200.0
46.438995 160.0
46.551636 196.0
46.784138 144.0
47.063625 176.0
47.300137 156.0
47.453568 144.0
48.278378 164.0
48.430614 192.0
48.65387 184.0
49.004345 164.0
49.054516 252.0
49.35112 148.0
49.445606 208.0
50.035046 216.0
50.209877 172.0
50.475361 216.0
50.539013 192.0
50.697605 140.0
51.350155 144.0
51.99625 188.0
52.088722 148.0
52.232468 176.0
52.367855 196.0
52.787727 188.0
53.055798 136.0
53.144054 180.0
53.160015 400.0
53.9319 148.0
54.220226 144.0
54.236347 176.0
54.497566 156.0
54.777088 168.0
54.937767 176.0
54.996792 236.0
55.359005 176.0
55.523499 156.0
55.68932 204.0
56.067623 144.0
56.642853 224.0
56.822746 160.0
56.90379 172.0
57.386749 196.0
57.608601 148.0
57.774887 148.0
57.894463 140.0
58.453094 160.0
58.705967 164.0
59.2547 220.0
60.27018 216.0
60.444904 168.0
60.950401 152.0
61.108997 196.0
61.490776 148.0
61.793922 160.0
61.845566 156.0
62.253185 224.0
62.974483 144.0
63.07719 160.0
63.24802 164.0
63.259102 176.0
63.684055 144.0
63.846165 156.0
64.193321 228.0
64.603798 236.0
64.664604 196.0
64.773483 164.0
65.06855 160.0
65.69619 212.0
66.020844 188.0
66.185898 184.0
66.422508 212.0
66.545845 144.0
66.779846 180.0
67.728149 168.0
67.895325 172.0
68.003609 160.0
68.516647 180.0
69.125908 168.0
69.149078 156.0
69.160667 188.0
69.256699 224.0
69.291489 220.0
69.420776 160.0
69.741188 172.0
69.869232 156.0
69.887535 144.0
69.992393 160.0
70.135666 220.0
70.56469 168.0
71.005089 216.0
72.101082 240.0
72.361572 184.0
72.968956 160.0
73.602776 216.0
73.896767 140.0
74.459007 148.0
75.050972 164.0
76.160271 184.0
76.54287 192.0
76.772896 184.0
76.854874 156.0
76.973572 148.0
77.02771 172.0
77.123817 140.0
77.619255 216.0
77.684151 160.0
78.228905 196.0
78.863914 144.0
78.954086 200.0
79.350723 180.0
79.748352 144.0
79.798759 160.0
80.746788 152.0
80.841599 196.0
80.93354 244.0
81.429626 180.0
81.955696 164.0
82.095505 192.0
82.146004 156.0
82.400551 172.0
83.778152 188.0
83.795738 160.0
83.895973 164.0
84.189735 192.0
84.775131 208.0
85.16774 224.0
85.465561 160.0
86.325134 188.0
87.083115 208.0
87.807106 156.0
87.989975 212.0
88.162605 180.0
88.178635 228.0
88.374985 220.0
88.820236 172.0
88.975731 196.0
90.195419 152.0
91.580544 140.0
91.652939 164.0
91.670082 176.0
92.050507 1592.0
92.099342 216.0
92.527695 208.0
92.976227 176.0
92.999252 164.0
93.05732 1140.0
93.12352 216.0
93.541298 204.0
93.969124 204.0
94.064537 532.0
94.879112 188.0
95.070122 196.0
96.00975 212.0
96.042908 164.0
96.351334 160.0
96.668083 160.0
96.777695 140.0
97.148102 144.0
97.44651 156.0
99.054291 1804.0
99.51442 140.0
100.05719 604.0
100.375977 180.0
100.909088 144.0
100.975075 220.0
101.057091 152.0
101.279297 180.0
101.905197 192.0
102.25106 192.0
103.735649 172.0
104.391441 156.0
104.631531 152.0
105.664207 164.0
105.965172 164.0
106.531387 152.0
106.636185 208.0
106.792442 148.0
106.860321 164.0
107.023895 160.0
107.060799 1512.0
107.296944 176.0
107.350548 188.0
107.792305 188.0
107.839836 184.0
108.043854 8468.0
108.340591 200.0
108.365448 148.0
108.78437 200.0
109.046272 1132.0
109.71843 140.0
110.0084 168.0
110.045982 148.0
110.432907 176.0
111.115463 140.0
112.304695 192.0
112.584686 152.0
112.823448 156.0
113.327148 176.0
113.490356 236.0
113.581543 140.0
113.749176 204.0
113.89782 192.0
114.448624 164.0
114.540192 188.0
114.614761 192.0
115.931068 180.0
116.104713 156.0
116.297806 160.0
116.592041 156.0
116.690918 176.0
117.403648 172.0
117.712234 188.0
118.053665 356.0
118.29599 148.0
118.640427 168.0
119.054222 180.0
119.977409 200.0
120.066811 172.0
120.660736 196.0
120.763512 140.0
120.843445 156.0
121.074287 164.0
121.530235 180.0
122.026604 172.0
122.987068 260.0
123.024597 288.0
124.066551 152.0
124.108681 184.0
125.828537 152.0
125.926788 188.0
125.982628 172.0
126.072006 144.0
126.107765 172.0
126.62011 160.0
126.812782 260.0
127.196335 164.0
127.935905 160.0
128.501572 212.0
128.695679 176.0
129.498474 164.0
130.219711 160.0
130.467377 144.0
130.67662 204.0
131.063675 200.0
131.191315 184.0
131.519791 232.0
131.636215 148.0
131.999542 184.0
132.070694 328.0
132.293716 112.0
132.441238 148.0
132.580338 140.0
132.775864 164.0
132.791916 184.0
132.849258 164.0
132.957108 164.0
133.046616 188.0
133.075806 388.0
133.384308 144.0
133.971939 168.0
134.04483 208.0
134.471466 180.0
135.083572 144.0
135.113846 164.0
135.289719 156.0
135.418396 240.0
135.968857 204.0
136.010635 140.0
136.312561 200.0
136.908081 172.0
138.01181 176.0
138.147461 180.0
138.287857 144.0
138.437683 192.0
138.458755 144.0
138.655548 180.0
139.188065 148.0
140.015823 156.0
140.032303 144.0
140.067642 212.0
140.428253 228.0
140.775177 184.0
141.143799 200.0
141.422958 172.0
141.977356 208.0
142.026291 232.0
142.51619 196.0
142.727737 168.0
143.055405 176.0
143.399048 160.0
143.484863 180.0
143.508713 140.0
143.534943 240.0
144.093445 212.0
144.303772 180.0
144.485535 156.0
144.818268 200.0
145.208923 176.0
145.312073 180.0
145.331268 148.0
145.391266 256.0
145.756271 220.0
146.06958 1364.0
146.490067 144.0
146.506927 176.0
147.07843 5512.0
147.57608 176.0
147.735687 164.0
148.084213 2696.0
148.607864 168.0
149.013962 184.0
149.059494 252.0
149.089066 416.0
149.136063 176.0
149.499634 156.0
149.541 228.0
151.729691 224.0
151.759109 188.0
152.038757 176.0
152.078018 348.0
152.55455 188.0
153.066299 172.0
153.142639 168.0
153.448196 204.0
153.872559 200.0
154.238159 180.0
155.01033 152.0
155.178879 152.0
155.213577 200.0
155.337585 184.0
155.42775 140.0
155.481369 156.0
155.516235 144.0
155.600647 192.0
155.78479 176.0
155.973434 120.0
156.011383 45232.0
156.417007 112.0
157.013718 3180.0
157.073853 248.0
157.093811 156.0
157.846436 160.0
158.007111 1424.0
158.100739 140.0
158.273453 104.0
158.776978 116.0
159.015488 160.0
159.050629 164.0
159.083252 200.0
159.892609 144.0
160.042343 124.0
160.085052 2236.0
160.521088 132.0
161.000671 744.0
161.089066 448.0
161.985748 244.0
162.338043 144.0
163.028519 140.0
163.08847 252.0
166.241089 180.0
166.762421 192.0
167.082062 408.0
169.112076 188.0
169.202682 260.0
170.921738 100.0
171.96553 144.0
172.089844 108.0
172.789017 208.0
173.06218 220.0
173.10817 172.0
173.299561 200.0
173.61673 232.0
174.020386 348.0
174.067917 180.0
174.704132 148.0
175.214859 152.0
176.027039 176.0
176.201553 144.0
176.875885 176.0
177.013565 456.0
177.450745 228.0
178.898636 212.0
179.46344 212.0
179.775528 208.0
180.601059 188.0
181.160507 156.0
182.096634 208.0
187.674026 156.0
187.793884 164.0
188.081512 6056.0
188.149582 120.0
188.223846 168.0
188.314438 184.0
189.08316 1096.0
189.20607 128.0
190.004257 176.0
190.095749 4208.0
190.229294 144.0
190.993637 172.0
191.101395 408.0
192.103287 192.0
193.446274 184.0
193.97467 224.0
194.038193 1848.0
194.069626 180.0
195.085739 176.0
195.263687 184.0
195.466766 144.0
196.959427 128.0
197.60405 192.0
199.362152 268.0
200.501907 152.0
200.597733 176.0
200.795105 164.0
201.495148 160.0
204.179489 208.0
204.637619 188.0
204.797089 144.0
208.588394 160.0
209.275955 228.0
209.564438 128.0
209.621613 188.0
210.449448 192.0
211.021515 152.0
212.075226 192.0
213.457108 152.0
213.997604 200.0
215.114883 164.0
215.187866 160.0
216.7146 192.0
217.186569 144.0
221.65596 284.0
221.922729 180.0
222.361755 148.0
222.848755 216.0
223.443375 200.0
224.104324 188.0
224.309952 176.0
224.966217 140.0
226.320557 216.0
226.42836 160.0
226.949768 148.0
228.719223 172.0
232.196854 140.0
232.275711 168.0
232.485046 216.0
232.709671 144.0
235.227341 200.0
235.688492 216.0
236.047913 804.0
237.043182 188.0
238.036713 196.0
239.138474 152.0
239.289322 180.0
239.658905 164.0
239.933212 196.0
242.000107 144.0
242.464752 168.0
243.364334 140.0
243.662491 188.0
245.146667 144.0
245.59874 144.0
247.023102 204.0
249.151657 172.0
250.810013 144.0
251.122162 208.0
251.232559 164.0
251.775452 148.0
251.901794 144.0
252.094528 220.0
252.159286 160.0
252.888321 184.0
253.094101 300.0
253.296783 156.0
253.375977 168.0
253.499542 176.0
253.69606 220.0
253.79985 152.0
253.84021 100.0
253.876785 140.0
253.912369 276.0
253.968735 364.0
254.059616 67672.0
254.260345 124.0
254.341583 160.0
254.387604 152.0
254.582352 320.0
254.624832 188.0
254.691132 116.0
254.947998 192.0
254.970154 196.0
255.061417 5744.0
255.121384 308.0
255.794754 96.0
255.974106 140.0
256.015503 2388.0
256.055603 3124.0
256.172638 96.0
256.2659 144.0
256.650574 148.0
256.716522 140.0
256.876038 184.0
256.902161 148.0
256.953705 156.0
257.018768 152.0
257.060364 212.0
257.227051 148.0
257.278137 172.0
257.394348 108.0
257.616638 152.0
257.644989 96.0
257.960388 120.0
258.009705 260.0
258.067261 152.0
259.99823 132.0
261.01825 104.0
266.369171 144.0
269.127594 168.0
394.097137 160.0
489.329773 140.0
628.599426 140.0
1075.965698 240.0
1102.244751 188.0
1155.584595 164.0
1173.849243 236.0
1244.77002 200.0
1259.976562 176.0
1300.803955 140.0
1336.353394 220.0
1345.485352 168.0
1346.193481 152.0
1350.86377 188.0
1351.310059 164.0
1358.027466 176.0
1371.091919 156.0
1377.370728 228.0
1402.554443 164.0
1404.269409 148.0
1440.939209 168.0
1480.807007 164.0
1491.610352 160.0
1500.247192 148.0
1530.338013 164.0
1538.063599 160.0
1552.333618 144.0
1571.305176 164.0
1575.418213 216.0
1599.357666 144.0
1609.386353 236.0
1615.500244 168.0
1625.458984 144.0
1639.225342 148.0
1646.259521 196.0
1678.14856 140.0
1682.946045 180.0
1695.502319 176.0
1697.363159 196.0
1705.408447 228.0
1706.641479 212.0
1707.71875 180.0
1714.733398 192.0
1717.091309 156.0
1719.013428 160.0
1729.020996 300.0
1735.838623 144.0
1753.429199 204.0
1759.910645 192.0
1761.26355 196.0
1780.43457 148.0
1786.124634 216.0
1792.919067 236.0
1800.0979 140.0
1804.212524 152.0
1805.032715 172.0
1814.812378 144.0
1816.338745 216.0
1817.959229 272.0
1825.017944 172.0
1828.420532 172.0
1834.391235 140.0
1835.526855 180.0
1835.959961 192.0
1839.953247 188.0
1842.446899 184.0
1843.301392 172.0
1848.568726 180.0
1851.607788 208.0
1853.192505 160.0
1860.774292 180.0
1865.808716 140.0
1872.976807 184.0
1877.820679 196.0
1883.188965 160.0
1883.664062 180.0
1887.873169 196.0
1894.563721 192.0
1896.755981 144.0
1898.351318 172.0
1901.153198 212.0
1902.1427 144.0
1903.913818 176.0
1905.824829 172.0
1921.732056 160.0
1932.338623 168.0
1935.603394 228.0
1937.284912 160.0
1940.054077 160.0
1949.814575 224.0
1958.824219 156.0
1959.370361 232.0
1960.621582 196.0
1972.298096 172.0
1974.411133 152.0
1980.801392 152.0
1981.421509 164.0
1982.670898 220.0
1994.466064 252.0
1995.008301 164.0
