>compound NCGC00160280-01!N-methyl-metacryloyl-lupinine
>formula C15H26NO2+
>ionization [M+H]+
>parentmass 253.20363052409053
#inchi InChI=1S/C15H26NO2/c1-12(2)15(17)18-11-13-7-6-10-16(3)9-5-4-8-14(13)16/h13-14H,1,4-11H2,2-3H3/q+1/t13-,14+,16-/m0/s1
#inchikey NCRJWESTCYMYTR
#Ion_Source LC-ESI
#Instrument qTOF
#Compound_Source Prestwick Phytochem Lib
#PI Dorrestein
#Data_Collector VVP/LMS
#Scan -1
#Precursor_MZ 252.196
#ExactMass 252.196
#Charge 1
#CAS_Number N/A
#Pubmed_ID N/A
#Smiles CC(=C)C(=O)OC[C@@H]1CCC[N@+]2(C)CCCC[C@H]12
#INCHI_AUX N/A
#Library_Class 1
#SpectrumID CCMSLIB00000078693
#IonMode Positive
#UpdateWorkflowName UPDATE-SINGLE-ANNOTATED-GOLD
#LibraryQualityString Gold
#TaskID 67c915c6594c435cadc1fe2b5358144d
##Scan# 1443
#SpectrumFile p1-C02_GC2_01_17898.mzXML
#LibraryName phytochem_lib.mgf
#MQScore -1
#Organism phytochem_lib
#TIC_Query 0
#RT_Query -1
#MZErrorPPM -1
#SharedPeaks 0
#MassDiff 0
#LibMZ -1
#SpecMZ 252.196
#SpecCharge 0
#internalFilename spec-00000.mgf

>collision 10
95.08432 624.0
95.417908 52.0
95.775963 212.0
95.799332 184.0
96.082413 592.0
96.43544 80.0
96.852188 88.0
97.0896 296.0
97.205742 224.0
97.283577 144.0
97.346405 140.0
97.446579 180.0
97.507492 60.0
97.529114 120.0
97.690353 52.0
97.771027 156.0
98.097565 820.0
98.261658 152.0
98.346512 152.0
98.490646 196.0
98.549911 364.0
99.099945 168.0
99.147499 144.0
99.183174 172.0
99.371567 120.0
99.669388 172.0
100.085434 164.0
100.114967 236.0
100.366196 172.0
100.419884 48.0
100.532753 228.0
100.571518 112.0
100.647377 148.0
101.407555 180.0
101.46769 164.0
101.610077 80.0
101.658234 48.0
101.728477 160.0
101.891144 196.0
101.995636 124.0
102.011719 140.0
102.144432 108.0
102.498764 128.0
102.516899 176.0
102.845634 208.0
102.93058 152.0
103.367035 256.0
103.410202 132.0
103.721443 164.0
103.976997 68.0
104.466675 112.0
104.672234 212.0
104.873779 184.0
104.992165 184.0
105.053352 128.0
105.073753 160.0
105.157417 184.0
105.212524 160.0
105.288078 88.0
106.192665 52.0
106.523125 200.0
106.599144 188.0
106.761543 176.0
106.897308 116.0
106.981697 168.0
107.08567 344.0
107.181473 152.0
108.081429 388.0
108.386101 160.0
108.695053 188.0
108.873573 128.0
108.89019 116.0
109.088455 916.0
109.103348 356.0
109.632889 208.0
109.77047 172.0
109.922745 180.0
109.999962 160.0
110.09639 1196.0
110.15657 52.0
110.183731 188.0
110.271492 32.0
111.102982 616.0
111.23288 112.0
111.249672 152.0
111.756157 200.0
111.852966 112.0
112.021423 96.0
112.067772 200.0
112.113312 184.0
112.13942 152.0
112.438896 132.0
113.155464 40.0
113.281624 256.0
113.394829 128.0
113.562325 160.0
115.100937 144.0
115.451378 116.0
115.635368 132.0
116.5317 120.0
116.673546 180.0
116.772453 160.0
117.778992 112.0
117.841644 172.0
117.941048 188.0
118.139984 216.0
118.451698 128.0
118.473358 124.0
118.68792 160.0
118.815887 148.0
118.848427 128.0
119.045959 132.0
119.304512 116.0
119.519821 200.0
119.981552 124.0
120.083443 192.0
120.223656 200.0
120.415771 96.0
120.49659 172.0
120.977715 48.0
121.032448 140.0
121.098145 208.0
121.185768 52.0
121.361107 128.0
121.606796 112.0
121.655083 152.0
121.703384 172.0
122.063736 92.0
122.095047 588.0
122.279327 140.0
122.867653 108.0
122.898537 44.0
122.925018 144.0
123.115585 208.0
123.227509 196.0
123.40432 104.0
123.548073 76.0
123.680847 188.0
123.855766 68.0
124.044113 148.0
124.091774 136.0
124.112518 504.0
124.163841 48.0
124.210411 236.0
124.250343 192.0
124.325783 188.0
124.403465 216.0
124.761124 116.0
125.005775 112.0
125.121681 160.0
125.288544 136.0
125.937653 200.0
125.971161 168.0
126.125343 136.0
126.369095 80.0
126.80127 176.0
126.99408 132.0
127.789291 168.0
127.967094 156.0
128.508011 164.0
129.140518 192.0
129.197067 176.0
129.874359 172.0
129.994598 216.0
130.185287 116.0
130.312485 164.0
131.006348 172.0
131.161301 176.0
131.177261 52.0
131.320908 232.0
131.430405 156.0
131.692932 232.0
131.866577 160.0
131.923721 48.0
132.098694 100.0
132.71814 104.0
132.773178 232.0
132.876389 112.0
132.908524 108.0
133.154144 168.0
133.54715 160.0
134.025986 176.0
134.182709 152.0
134.302612 116.0
134.905075 212.0
135.07872 168.0
135.117371 292.0
135.252258 280.0
135.379593 112.0
135.428223 96.0
135.942902 84.0
135.993958 136.0
136.042694 60.0
136.083282 172.0
136.113358 1164.0
136.169373 120.0
136.270294 184.0
136.40741 60.0
136.595749 148.0
137.115265 236.0
137.140594 112.0
137.278152 144.0
137.380768 148.0
137.436768 44.0
137.663177 68.0
137.819687 80.0
138.072144 84.0
138.125778 1924.0
138.493423 160.0
138.645706 128.0
138.760559 216.0
139.08194 148.0
139.130051 152.0
139.164093 220.0
139.180542 256.0
139.239243 112.0
139.328491 204.0
139.540009 180.0
139.619965 44.0
139.636414 204.0
140.060074 216.0
140.668427 48.0
141.022736 140.0
141.155121 224.0
141.42955 124.0
142.083572 192.0
142.394516 104.0
142.413513 196.0
142.484772 208.0
142.501694 168.0
143.176956 120.0
143.288895 216.0
143.439026 224.0
143.715042 76.0
143.932877 112.0
144.033173 84.0
145.40509 180.0
145.568329 224.0
145.633179 224.0
146.068222 152.0
146.145218 100.0
146.446121 196.0
146.747345 168.0
146.959579 84.0
147.411118 108.0
147.502945 100.0
147.604492 160.0
147.75444 132.0
147.906891 124.0
148.272614 176.0
148.582993 128.0
149.112335 164.0
149.370056 256.0
149.484406 132.0
149.56958 132.0
150.088486 216.0
150.127808 852.0
150.762207 228.0
150.80864 40.0
151.13205 332.0
151.209747 80.0
151.417847 60.0
151.449677 144.0
151.493774 128.0
151.682465 48.0
152.143143 2812.0
152.20256 132.0
152.485062 56.0
152.599213 128.0
152.851471 140.0
152.986832 112.0
153.151459 740.0
153.304565 100.0
153.457382 140.0
153.778061 156.0
154.153442 132.0
154.239944 248.0
154.314102 52.0
154.4328 208.0
154.858505 32.0
155.031921 172.0
156.527328 192.0
156.614502 124.0
156.788895 60.0
156.863663 232.0
157.207855 232.0
157.984894 184.0
158.207611 120.0
158.701157 48.0
159.092529 124.0
159.260773 160.0
159.665405 104.0
159.690552 156.0
160.430847 180.0
160.667892 136.0
160.718353 156.0
160.771347 68.0
160.910172 96.0
161.362396 172.0
161.873505 168.0
162.113113 216.0
162.130737 280.0
162.180038 200.0
163.495621 144.0
164.141724 120.0
164.33905 236.0
164.617279 132.0
165.079803 208.0
165.147186 192.0
165.297226 192.0
165.386795 184.0
165.517365 92.0
165.594177 112.0
165.740204 180.0
165.780609 140.0
165.911911 152.0
166.090958 88.0
166.15947 38660.0
166.243881 216.0
166.273438 140.0
166.320572 92.0
166.353149 56.0
166.407593 140.0
166.440445 68.0
166.524887 68.0
166.663101 80.0
166.810394 144.0
166.846375 72.0
166.872086 156.0
166.923508 60.0
167.075424 60.0
167.09584 68.0
167.162781 4192.0
167.194031 252.0
167.217514 28.0
167.250443 52.0
167.319733 160.0
167.386688 72.0
167.476822 56.0
167.587585 64.0
167.626236 68.0
167.675201 72.0
167.711288 132.0
167.76799 88.0
167.891754 120.0
167.914963 44.0
168.005249 196.0
168.025879 100.0
168.141022 200.0
168.164658 320.0
168.206528 120.0
168.244293 164.0
168.294296 56.0
168.36525 100.0
168.387253 80.0
168.484787 132.0
168.564377 124.0
168.635284 68.0
168.834351 32.0
169.111176 44.0
169.315704 72.0
169.354553 136.0
170.020844 92.0
170.373978 128.0
170.464905 76.0
171.383423 120.0
171.775909 116.0
172.275665 68.0
172.636353 172.0
173.581665 124.0
173.880722 164.0
175.032135 96.0
175.079529 28.0
175.862549 32.0
178.038788 80.0
178.232697 112.0
178.416077 80.0
179.089294 180.0
180.100174 136.0
180.624054 184.0
181.111206 136.0
181.312149 40.0
182.155304 328.0
182.401825 160.0
182.487854 192.0
183.156921 148.0
184.093781 100.0
184.115387 196.0
184.167603 168.0
185.178238 156.0
185.392258 288.0
185.41394 40.0
185.701324 236.0
185.921066 112.0
185.961777 156.0
186.167801 180.0
189.244125 204.0
189.657532 140.0
189.767181 164.0
190.769226 76.0
191.848328 160.0
192.601654 148.0
192.985779 116.0
193.088089 112.0
195.537827 196.0
195.908157 128.0
197.384567 112.0
198.196289 216.0
198.936691 136.0
199.442307 168.0
199.937302 216.0
199.9767 108.0
201.131165 208.0
201.652008 80.0
202.407318 60.0
203.056259 116.0
203.110153 152.0
203.768738 168.0
205.097672 136.0
205.670975 104.0
209.795914 192.0
209.816101 104.0
210.06987 176.0
210.913025 180.0
211.914291 40.0
212.291107 108.0
212.720505 152.0
213.12999 176.0
213.411926 88.0
214.06662 124.0
215.075348 88.0
215.504623 132.0
216.762787 80.0
217.20842 60.0
218.90419 124.0
219.798859 148.0
220.257889 84.0
221.118271 160.0
221.538727 188.0
223.429749 156.0
224.162186 124.0
225.771194 144.0
226.016479 140.0
227.067947 156.0
227.184921 120.0
228.001617 140.0
228.113876 140.0
228.771606 148.0
229.494644 176.0
229.54892 68.0
230.765747 80.0
231.703949 120.0
231.873642 220.0
231.91304 148.0
232.346664 224.0
232.659241 132.0
233.622574 168.0
236.114548 164.0
236.159424 144.0
236.334793 212.0
236.637802 100.0
237.210663 156.0
237.538773 136.0
238.069733 140.0
238.094299 140.0
238.788864 112.0
238.970352 236.0
239.635376 144.0
240.582169 172.0
240.66243 84.0
240.77977 128.0
242.89061 156.0
243.896637 116.0
244.011658 136.0
244.372421 88.0
244.879822 168.0
245.060501 224.0
245.509354 240.0
245.71521 112.0
245.796341 184.0
247.252548 124.0
248.838638 148.0
249.240662 68.0
249.935547 136.0
250.612503 116.0
250.744843 72.0
250.823639 128.0
250.952896 60.0
251.009644 124.0
251.198883 168.0
251.265503 164.0
251.409454 140.0
251.568085 68.0
251.590179 68.0
251.618591 108.0
251.691986 164.0
251.79509 116.0
251.802704 188.0
251.850754 124.0
251.89151 120.0
251.988098 56.0
252.011917 204.0
252.054459 168.0
252.114761 140.0
252.149094 380.0
252.196106 42076.0
252.248764 340.0
252.288742 216.0
252.326263 80.0
252.359558 68.0
252.397049 72.0
252.431824 104.0
252.483154 104.0
252.512833 60.0
252.534973 96.0
252.585571 112.0
252.619781 64.0
252.63382 48.0
252.642181 76.0
252.705627 152.0
252.727097 76.0
252.73558 96.0
252.78273 76.0
252.810211 148.0
252.845963 120.0
252.911484 68.0
252.94313 44.0
252.991974 168.0
253.030579 32.0
253.053925 48.0
253.093506 240.0
253.127457 164.0
253.198761 6276.0
253.288269 84.0
253.399155 68.0
253.434006 40.0
253.586105 112.0
253.703384 72.0
253.760162 44.0
253.781677 132.0
253.884109 56.0
254.007812 56.0
254.090286 52.0
254.201324 588.0
254.356842 76.0
254.712479 200.0
254.734711 100.0
254.920303 136.0
254.963486 108.0
255.001617 100.0
255.023865 96.0
255.048309 232.0
255.077896 168.0
255.526291 76.0
255.558105 76.0
255.726761 96.0
256.022827 108.0
256.462494 52.0
257.116302 52.0
257.170563 132.0
257.272705 88.0
257.750336 96.0
257.985077 96.0
258.215302 72.0
259.714203 96.0
259.922729 36.0
261.313965 80.0
262.437408 84.0
263.645264 52.0
263.777771 88.0
266.077789 124.0
270.540802 56.0
272.363983 104.0
282.146484 112.0
286.297028 116.0
305.427795 44.0
312.184784 120.0
313.173706 112.0
321.587463 80.0
326.621582 72.0
331.843475 60.0
365.127441 140.0
376.382416 128.0
455.140259 72.0
460.100342 80.0
463.547668 120.0
473.715576 36.0
492.083832 116.0
500.552582 76.0
500.748535 48.0
503.35733 48.0
584.027222 100.0
591.825745 80.0
604.647766 36.0
611.390747 60.0
640.740234 52.0
646.207886 80.0
686.998352 68.0
699.980652 152.0
743.097717 60.0
777.260254 64.0
784.696594 92.0
787.447571 64.0
834.036621 148.0
844.183411 88.0
874.821289 244.0
900.514099 92.0
930.587708 124.0
940.901062 188.0
954.896423 56.0
958.257385 116.0
976.201294 136.0
994.575317 228.0
1014.863464 152.0
1035.222046 128.0
1037.951782 148.0
1038.009521 212.0
1039.401367 172.0
1042.168823 232.0
1042.798462 80.0
1047.096191 172.0
1047.559937 156.0
1055.944336 180.0
1058.44873 108.0
1059.789551 200.0
1074.430908 196.0
1075.944946 40.0
1076.989746 120.0
1104.623291 80.0
1105.847412 196.0
1106.900024 32.0
1107.40332 128.0
1108.184937 140.0
1110.16687 192.0
1113.624512 68.0
1118.158691 64.0
1125.291138 188.0
1126.419678 192.0
1134.503296 168.0
1144.473389 216.0
1149.272339 232.0
1152.546997 204.0
1161.272949 152.0
1164.47644 176.0
1171.884277 20.0
1178.017334 156.0
1178.447754 40.0
1191.313599 164.0
1199.544312 220.0
1205.347778 156.0
1217.400879 180.0
1218.936035 180.0
1223.129639 176.0
1226.751831 76.0
1227.902344 172.0
1228.285889 188.0
1228.676636 152.0
1232.097412 176.0
1234.305908 196.0
1235.390015 156.0
1244.226929 216.0
1244.872925 176.0
1250.180298 208.0
1254.963135 116.0
1258.667358 100.0
1270.671265 184.0
1272.111938 212.0
1282.561035 156.0
1285.29248 208.0
1288.648193 132.0
1289.04834 168.0
1289.634399 156.0
1295.086304 160.0
1296.547852 140.0
1299.394531 164.0
1302.079102 208.0
1303.544556 60.0
1310.516968 48.0
1311.915039 104.0
1313.256226 200.0
1324.205811 184.0
1331.421875 68.0
1331.850464 140.0
1337.427246 76.0
1340.799316 168.0
1341.786255 212.0
1355.443726 80.0
1356.44043 240.0
1356.770264 80.0
1357.144165 128.0
1358.200195 140.0
1358.662354 116.0
1361.71582 124.0
1362.222656 172.0
1363.824463 160.0
1364.868408 216.0
1368.076172 128.0
1368.613525 200.0
1368.856567 208.0
1369.887695 44.0
1373.602783 216.0
1382.461304 188.0
1386.719604 76.0
1393.241943 228.0
1397.122437 180.0
1402.431641 124.0
1403.676636 108.0
1404.042114 136.0
1408.191528 164.0
1416.980835 212.0
1417.542847 156.0
1420.766846 44.0
1423.333618 160.0
1425.729858 204.0
1426.08313 116.0
1427.248291 152.0
1430.709106 128.0
1436.36084 136.0
1437.047241 228.0
1439.40979 36.0
1440.43689 184.0
1442.02356 52.0
1444.322021 172.0
1447.159912 132.0
1447.932251 116.0
1449.462402 148.0
1456.571045 208.0
1460.530396 196.0
1467.621094 240.0
1469.512573 108.0
1471.061768 40.0
1478.582764 72.0
1479.072632 84.0
1480.182739 148.0
1484.918579 112.0
1487.228027 140.0
1488.947754 192.0
1489.147461 144.0
1491.083496 256.0
1491.975098 56.0
1496.183228 188.0
1500.913818 96.0
