>compound MLS001140241-01!
>formula C29H30N4O5
>ionization [M+H]+
>parentmass 515.229
#inchi InChI=1S/C29H30N4O5/c1-15(2)23(28(36)32-13-7-12-21(32)29(37)38)31-26(34)22-14-19-16-8-5-6-11-20(16)30-24(19)25-17-9-3-4-10-18(17)27(35)33(22)25/h3-6,8-11,15,21-23,25,30H,7,12-14H2,1-2H3,(H,31,34)(H,37,38)/t21-,22+,23+,25?/m1/s1
#inchikey VWUWNUTZUMIYFS
#Ion_Source LC-ESI
#Instrument qTof
#Compound_Source NIH Natural Product Library
#PI Dorrestein
#Data_Collector VVP/LMS
#Scan -1
#Precursor_MZ 515.229
#ExactMass 514.222
#Charge 1
#CAS_Number N/A
#Pubmed_ID N/A
#Smiles CC(C)[C@H](NC(=O)[C@@H]1Cc2c([nH]c3ccccc23)C4N1C(=O)c5ccccc45)C(=O)N6CCC[C@@H]6C(=O)O
#INCHI_AUX N/A
#Library_Class 1
#SpectrumID CCMSLIB00000080586
#IonMode Positive
#UpdateWorkflowName UPDATE-SINGLE-ANNOTATED-GOLD
#LibraryQualityString Gold
#TaskID b1d8e8f6646f4e71acdff9ca3d919d08
##Scan# 2026
#SpectrumFile p2-A11_GA11_01_17987.mzXML
#LibraryName NIH_Natural_Products_Library.mgf
#MQScore -1
#Organism NIH_Natural_Products_Library
#TIC_Query 0
#RT_Query -1
#MZErrorPPM -1
#SharedPeaks 0
#MassDiff 0
#LibMZ -1
#SpecMZ 515.229
#SpecCharge 0
#internalFilename spec-00000.mgf

>collision 10
95.12159 136.0
95.179832 76.0
95.35273 116.0
95.584152 204.0
96.432487 140.0
96.479401 112.0
96.575218 56.0
96.837494 148.0
97.512428 56.0
97.565498 220.0
97.648087 140.0
97.884247 140.0
98.010315 112.0
98.430084 104.0
98.491684 172.0
98.612213 104.0
98.740723 164.0
98.839638 156.0
99.253632 116.0
99.765877 160.0
99.966766 168.0
100.110092 140.0
100.191757 124.0
100.620552 40.0
100.67646 160.0
100.986237 128.0
101.036247 120.0
101.400688 204.0
101.697533 188.0
102.157684 176.0
102.332779 220.0
102.572517 64.0
102.822624 96.0
102.925575 96.0
102.94577 156.0
103.038689 64.0
103.113449 196.0
103.157921 120.0
103.588951 148.0
104.286972 148.0
104.388626 108.0
104.472015 136.0
104.640938 140.0
104.699989 88.0
104.854828 152.0
104.9384 124.0
105.138306 120.0
105.219955 140.0
105.389481 212.0
105.428307 140.0
105.57933 156.0
105.663452 96.0
105.710518 84.0
106.132492 152.0
106.55941 76.0
106.997482 168.0
107.073669 184.0
107.323021 28.0
107.418159 152.0
107.543755 140.0
107.589172 184.0
107.847382 192.0
107.923874 80.0
108.010735 224.0
108.043839 76.0
108.242531 108.0
108.472504 140.0
108.495308 264.0
108.781593 224.0
108.999672 120.0
109.12854 228.0
109.23877 192.0
109.513535 104.0
109.903374 176.0
110.013985 120.0
110.306442 120.0
110.446548 148.0
110.597198 120.0
110.835266 148.0
110.886238 124.0
110.947029 84.0
111.549522 84.0
111.6147 92.0
111.76825 200.0
112.379295 124.0
112.457382 172.0
112.73616 156.0
114.175644 116.0
114.230942 116.0
114.267105 108.0
114.838318 140.0
115.056084 184.0
115.344063 116.0
115.530106 56.0
116.018379 152.0
116.071617 8608.0
116.129883 84.0
116.224213 80.0
116.441101 144.0
116.48835 160.0
116.505539 84.0
116.772079 100.0
117.002327 60.0
117.072929 652.0
117.107841 96.0
117.156052 84.0
117.191856 132.0
117.467812 100.0
118.012047 68.0
118.553207 128.0
118.637184 196.0
118.670265 128.0
118.746162 156.0
119.252045 408.0
119.33683 196.0
119.412941 52.0
119.469498 196.0
119.630531 32.0
119.746651 188.0
119.791679 112.0
119.952934 84.0
120.201569 228.0
120.328163 128.0
120.898674 160.0
120.918373 140.0
121.52977 188.0
122.085526 176.0
122.105316 184.0
122.265923 168.0
122.351768 112.0
122.693245 160.0
122.766006 132.0
122.882919 76.0
122.975601 180.0
123.143158 180.0
123.225136 152.0
123.961967 192.0
124.145958 136.0
124.183662 120.0
124.383362 104.0
125.283989 116.0
125.607224 164.0
125.879509 136.0
125.992744 184.0
126.04258 340.0
126.263893 108.0
126.304153 140.0
126.429443 92.0
127.137627 148.0
127.211693 160.0
127.272308 80.0
127.323959 100.0
127.40258 164.0
127.631828 116.0
127.790047 152.0
128.30278 144.0
128.381699 172.0
128.399734 92.0
129.113403 100.0
129.140549 80.0
129.577438 172.0
129.840393 128.0
130.029968 136.0
130.062744 144.0
130.508011 200.0
130.523926 116.0
130.592163 184.0
130.762802 108.0
130.794662 160.0
130.98822 168.0
131.036057 148.0
131.111252 168.0
131.249115 192.0
131.266266 148.0
131.341537 176.0
131.631378 176.0
131.969559 108.0
132.042053 388.0
132.34938 192.0
132.493683 220.0
133.011948 152.0
133.133636 196.0
133.699173 164.0
134.076859 200.0
134.171371 136.0
134.247467 216.0
134.619003 176.0
134.891632 196.0
135.808594 180.0
136.045273 176.0
136.300766 192.0
136.616959 148.0
136.684433 280.0
137.262131 212.0
137.761597 228.0
137.787292 68.0
138.053757 164.0
138.470337 152.0
138.582779 152.0
138.739807 180.0
139.096375 192.0
139.319473 88.0
139.439301 104.0
139.573303 144.0
139.872086 132.0
140.041626 124.0
140.07225 96.0
140.141907 112.0
140.41481 188.0
140.447037 112.0
140.76564 108.0
141.075165 172.0
141.425247 160.0
141.939346 124.0
142.072266 184.0
142.107758 180.0
142.31662 196.0
142.470993 180.0
142.561295 136.0
142.870392 184.0
142.941772 124.0
143.051254 132.0
143.110779 144.0
143.237 180.0
143.792557 120.0
143.990707 152.0
144.045654 296.0
144.085312 236.0
144.212906 120.0
144.282242 252.0
144.368317 136.0
144.485519 112.0
144.519012 208.0
145.098633 216.0
145.535294 108.0
145.602539 168.0
146.063782 168.0
146.186722 128.0
146.326324 108.0
146.504547 104.0
146.76001 128.0
147.07605 164.0
147.312698 240.0
147.402084 128.0
147.433502 164.0
147.847046 200.0
147.895462 124.0
148.474518 192.0
148.921097 132.0
149.268616 116.0
149.370773 64.0
149.504593 164.0
149.667679 176.0
150.07756 220.0
150.157501 136.0
150.303879 88.0
150.379532 128.0
150.584625 52.0
151.083282 244.0
151.110657 104.0
151.141998 184.0
151.506805 80.0
151.575409 188.0
151.930923 184.0
152.431808 168.0
152.70961 204.0
152.795715 212.0
152.945831 160.0
153.354706 112.0
153.475494 76.0
154.045609 92.0
154.062897 92.0
154.114777 148.0
154.186447 140.0
154.263062 152.0
154.799973 168.0
155.06752 200.0
155.169159 160.0
155.794571 80.0
156.135101 176.0
156.319199 232.0
156.428711 180.0
156.538254 156.0
156.66777 108.0
156.762451 176.0
156.889572 184.0
157.261246 200.0
157.306183 164.0
157.401047 144.0
157.500946 160.0
157.753326 172.0
157.898361 144.0
157.915863 136.0
157.974533 220.0
158.313797 164.0
158.715271 168.0
158.857697 164.0
159.01326 160.0
159.143799 188.0
159.211594 148.0
159.36232 208.0
159.877808 244.0
160.106903 92.0
160.127045 128.0
160.42186 152.0
160.618546 144.0
160.931488 116.0
161.138596 252.0
161.196701 148.0
161.350891 108.0
161.517792 36.0
161.694916 88.0
161.877182 116.0
162.051956 140.0
162.274994 160.0
162.462677 156.0
162.71138 180.0
163.067017 132.0
163.547729 132.0
164.187241 132.0
164.322433 172.0
164.539368 68.0
165.11174 188.0
165.142441 104.0
165.362473 168.0
165.482544 164.0
166.259491 112.0
166.552185 168.0
166.74231 136.0
167.17952 116.0
167.619858 140.0
167.725525 116.0
167.854431 100.0
168.10466 124.0
168.275024 140.0
168.437714 148.0
168.747833 184.0
168.949554 140.0
169.076355 144.0
169.619858 152.0
169.661743 100.0
169.69545 148.0
170.058685 548.0
170.328659 124.0
170.484558 208.0
170.61113 184.0
171.056763 152.0
171.106232 160.0
171.317169 44.0
171.770767 116.0
172.117874 96.0
172.271973 92.0
172.407837 180.0
172.630051 196.0
172.729431 200.0
172.789597 132.0
173.627823 76.0
173.861313 180.0
174.118591 108.0
174.189514 172.0
174.39183 184.0
174.710022 64.0
174.920547 168.0
174.941605 120.0
175.157532 216.0
175.77182 60.0
175.819321 164.0
175.903793 68.0
175.94075 216.0
176.405701 72.0
176.725708 128.0
177.04071 176.0
178.276947 168.0
178.383255 180.0
178.502899 144.0
178.662491 152.0
178.702393 188.0
178.808838 140.0
178.987198 156.0
179.328201 168.0
180.021851 136.0
180.363831 72.0
180.457397 152.0
181.646469 92.0
181.979248 120.0
182.347275 72.0
182.387589 208.0
182.465546 216.0
182.502838 152.0
182.599991 368.0
182.694138 64.0
182.920197 144.0
182.968643 108.0
183.338165 236.0
183.569504 196.0
183.745071 220.0
183.841965 96.0
183.976929 76.0
184.392899 144.0
184.574036 192.0
184.700851 184.0
185.033997 120.0
185.073746 176.0
185.199188 108.0
185.825394 200.0
185.969223 208.0
186.085953 176.0
186.278778 200.0
186.316803 152.0
186.349411 176.0
186.439087 228.0
186.550522 144.0
187.059219 52.0
187.49501 180.0
187.75946 108.0
187.868576 220.0
188.105988 132.0
188.627731 180.0
188.808182 152.0
189.070831 64.0
189.166626 88.0
189.191269 200.0
189.303528 108.0
189.495255 136.0
189.528137 112.0
189.5802 68.0
190.106735 148.0
190.504852 176.0
190.829147 204.0
190.903397 132.0
191.148224 72.0
191.321625 188.0
191.8423 168.0
191.925003 184.0
192.322266 104.0
193.039871 108.0
193.127625 104.0
193.530365 88.0
193.591278 228.0
193.696518 64.0
193.932053 160.0
194.145523 84.0
194.561737 176.0
194.836685 228.0
194.903366 28.0
195.075668 192.0
195.312042 120.0
195.412186 124.0
195.478958 88.0
195.63205 144.0
195.679382 116.0
195.910522 140.0
196.083282 200.0
196.189209 228.0
196.225449 184.0
196.353729 152.0
196.93985 220.0
197.101883 120.0
197.994263 188.0
198.260406 144.0
198.821289 208.0
198.992523 124.0
199.017792 240.0
199.051483 168.0
199.191925 176.0
199.591003 88.0
199.638809 124.0
199.779434 116.0
199.875107 152.0
200.063675 212.0
200.199341 220.0
200.641205 256.0
200.86116 180.0
200.962723 64.0
201.075607 48.0
201.129227 72.0
201.702637 120.0
202.073105 44.0
202.177811 44.0
202.228745 96.0
202.577042 200.0
202.670532 40.0
203.291534 156.0
203.356812 196.0
203.589615 128.0
203.740158 172.0
203.887909 124.0
203.976028 212.0
204.024353 120.0
204.069839 156.0
204.169357 100.0
204.269012 112.0
204.337189 232.0
204.374176 160.0
204.402634 184.0
204.573395 204.0
204.607559 192.0
205.103241 200.0
205.194458 200.0
205.351303 128.0
205.83931 68.0
206.262146 140.0
206.376495 96.0
206.416534 184.0
206.714035 156.0
206.774124 60.0
206.871445 112.0
207.034653 196.0
207.203644 204.0
207.679504 140.0
207.969315 108.0
208.371338 184.0
208.555252 152.0
209.12764 152.0
209.196716 184.0
209.576889 244.0
209.764206 152.0
209.928558 164.0
210.046799 132.0
210.537308 144.0
210.979553 76.0
211.031601 152.0
211.077866 92.0
211.662369 176.0
211.755051 184.0
212.128387 180.0
212.790283 132.0
212.85997 220.0
212.894821 140.0
213.101059 64.0
213.688354 164.0
213.819305 52.0
214.098785 164.0
214.197815 160.0
214.317261 276.0
214.818726 160.0
214.856644 168.0
215.066757 108.0
215.627533 132.0
215.732758 212.0
215.925751 60.0
216.048599 204.0
216.08371 124.0
216.35881 60.0
216.484726 88.0
216.763016 100.0
216.965256 180.0
217.091339 128.0
217.419907 164.0
217.484467 176.0
217.736969 132.0
218.097107 244.0
218.307098 112.0
218.410034 180.0
218.592453 136.0
218.854431 112.0
219.054688 152.0
219.081207 120.0
219.101364 108.0
219.31105 120.0
219.638336 172.0
220.385254 48.0
220.657166 236.0
220.710388 132.0
221.018005 212.0
221.065353 132.0
221.290314 108.0
222.087479 112.0
222.909851 116.0
223.050583 216.0
223.433151 216.0
223.590866 48.0
224.219269 188.0
224.666534 132.0
225.102295 232.0
225.56575 164.0
225.625793 168.0
225.673019 96.0
226.094788 108.0
226.196564 176.0
226.29834 164.0
226.561111 196.0
226.600845 204.0
226.906555 48.0
226.933533 164.0
227.11647 160.0
227.383499 116.0
227.407516 136.0
227.900009 52.0
228.116394 184.0
228.375 144.0
228.856491 184.0
229.013092 156.0
229.073334 124.0
229.411774 208.0
229.495255 128.0
230.095901 300.0
230.817795 56.0
231.091644 216.0
231.247391 96.0
231.398743 44.0
231.577408 116.0
231.60466 160.0
231.73909 188.0
231.810684 120.0
232.070526 180.0
232.690308 152.0
232.777664 120.0
233.398254 216.0
233.43779 112.0
234.049408 168.0
234.683182 192.0
234.820419 140.0
235.046158 108.0
235.107193 200.0
235.140762 60.0
235.42775 228.0
235.595734 92.0
235.62323 152.0
235.837143 80.0
236.004852 144.0
236.13678 120.0
236.353973 164.0
236.540665 60.0
236.784271 100.0
236.984741 200.0
237.484421 128.0
237.558044 164.0
237.665421 88.0
237.706711 148.0
238.506897 96.0
238.740555 148.0
239.002029 180.0
239.048187 136.0
239.075882 164.0
239.118973 104.0
239.306747 140.0
239.876694 124.0
240.799271 120.0
240.851776 180.0
241.090927 148.0
241.132553 340.0
241.166946 36.0
241.507065 96.0
241.686493 196.0
242.086563 180.0
242.106567 148.0
242.491653 148.0
243.080246 180.0
243.117279 132.0
243.220551 92.0
243.366455 172.0
243.397507 100.0
243.428558 148.0
243.552795 148.0
244.075134 268.0
244.099777 192.0
244.124664 172.0
244.245956 124.0
244.488632 132.0
244.650497 180.0
244.843536 192.0
245.024216 192.0
245.106506 2360.0
245.304688 156.0
245.975357 56.0
246.090866 1128.0
246.209534 132.0
246.281357 60.0
246.390701 52.0
246.471939 112.0
246.890823 128.0
246.912704 72.0
247.03157 132.0
247.094116 472.0
247.137939 120.0
247.206787 176.0
247.283096 212.0
247.526077 140.0
247.601242 172.0
247.876907 176.0
247.930191 60.0
248.105713 208.0
248.460098 68.0
248.686035 136.0
248.984299 128.0
249.185333 220.0
249.773743 188.0
250.588562 212.0
250.638977 196.0
250.705154 148.0
251.183914 156.0
251.525574 168.0
251.69252 52.0
251.761993 156.0
251.919922 56.0
251.998901 320.0
252.824203 148.0
252.909668 112.0
253.501907 176.0
253.701584 132.0
253.888672 160.0
253.994919 248.0
254.078979 128.0
254.107544 232.0
254.399506 152.0
254.564621 100.0
254.602722 52.0
254.882263 208.0
254.944427 100.0
255.009384 220.0
255.092697 1152.0
255.282791 112.0
255.324142 44.0
255.479065 192.0
255.582413 148.0
255.634491 136.0
255.740936 200.0
256.038361 172.0
256.096924 1296.0
256.282318 44.0
256.331482 140.0
256.397034 112.0
256.610596 180.0
256.792358 236.0
256.843262 180.0
257.107361 948.0
257.293365 44.0
257.459381 124.0
257.71814 192.0
257.845947 96.0
257.949066 228.0
258.080627 196.0
258.114441 280.0
258.153595 52.0
258.220673 136.0
258.33197 108.0
258.488739 104.0
258.733154 156.0
258.805634 56.0
258.837646 176.0
258.916931 176.0
258.952942 104.0
259.067719 144.0
259.07724 120.0
259.116333 136.0
259.231659 228.0
259.398346 92.0
259.427185 64.0
260.277405 168.0
261.087219 140.0
261.756561 200.0
261.856384 56.0
262.011017 148.0
262.252686 164.0
262.491272 148.0
262.726715 144.0
262.939667 128.0
263.281891 212.0
263.682922 152.0
264.190155 204.0
264.293701 168.0
264.32605 128.0
264.555847 60.0
264.821381 100.0
265.077026 204.0
265.158325 220.0
265.310669 108.0
266.667511 92.0
267.301666 60.0
267.36676 172.0
267.744415 100.0
268.138611 164.0
268.1875 160.0
268.634247 140.0
268.683167 156.0
269.006256 140.0
269.08786 140.0
269.378601 152.0
269.417725 176.0
269.568024 136.0
269.666077 144.0
269.715088 160.0
269.84259 180.0
270.114014 108.0
270.192535 108.0
270.235077 128.0
270.300507 68.0
270.431427 112.0
270.722809 148.0
270.814484 68.0
270.901215 228.0
271.007782 160.0
271.043243 68.0
271.087921 10752.0
271.161804 120.0
271.201141 28.0
271.29187 164.0
271.397186 188.0
271.433899 48.0
271.491272 56.0
271.574921 88.0
271.65036 136.0
271.712677 124.0
271.786133 104.0
271.827515 80.0
271.894196 152.0
271.956818 152.0
271.994904 68.0
272.092224 3312.0
272.201752 112.0
272.2677 164.0
272.294708 168.0
272.314514 164.0
272.352814 44.0
272.37796 128.0
272.397888 300.0
272.451355 52.0
272.498138 216.0
272.526917 84.0
272.584229 148.0
272.59671 188.0
272.65509 84.0
272.691345 260.0
272.756287 228.0
272.814819 504.0
272.883026 188.0
272.922363 300.0
272.963959 452.0
273.007629 240.0
273.039917 220.0
273.104553 114640.0
273.200806 148.0
273.222534 84.0
273.246124 216.0
273.262024 56.0
273.272339 144.0
273.314514 44.0
273.354034 200.0
273.405151 60.0
273.459076 124.0
273.466675 132.0
273.528259 108.0
273.570953 116.0
273.61554 164.0
273.645905 788.0
273.675842 184.0
273.707672 152.0
273.753693 220.0
273.792297 56.0
273.824249 136.0
273.864349 132.0
273.915344 136.0
273.998871 144.0
274.028595 404.0
274.048096 224.0
274.107147 26660.0
274.149536 684.0
274.190704 248.0
274.240448 112.0
274.25293 76.0
274.278046 144.0
274.367157 32.0
274.443481 128.0
274.515717 64.0
274.663177 80.0
274.711548 64.0
274.750244 72.0
274.820435 128.0
274.851562 104.0
274.88736 76.0
274.92746 128.0
274.990173 92.0
275.019867 108.0
275.042969 148.0
275.066101 56.0
275.109161 2640.0
275.158905 60.0
275.201935 76.0
275.228424 48.0
275.258759 68.0
275.312958 68.0
275.345398 68.0
275.411163 188.0
275.477203 56.0
275.52243 108.0
275.61731 140.0
275.647369 140.0
275.698151 88.0
275.75 80.0
275.834167 176.0
275.860962 140.0
275.896362 80.0
275.938934 356.0
276.007599 144.0
276.055359 236.0
276.086273 144.0
276.113068 400.0
276.1716 120.0
276.212708 128.0
276.252411 88.0
276.288788 112.0
276.417847 60.0
276.469482 92.0
276.520447 36.0
276.567596 96.0
276.602173 80.0
276.651093 76.0
276.738922 108.0
276.768463 56.0
277.007172 60.0
277.116486 120.0
277.159576 56.0
277.245728 52.0
277.365051 96.0
277.408142 68.0
277.463043 136.0
277.517548 36.0
277.646881 72.0
277.771973 56.0
277.825989 64.0
277.928833 40.0
277.984344 88.0
278.031708 56.0
278.111359 80.0
278.237518 48.0
278.350403 68.0
278.85202 92.0
279.191132 76.0
279.29425 92.0
279.370758 48.0
279.430634 44.0
279.603668 80.0
279.996521 52.0
280.984619 104.0
281.06662 104.0
281.881378 88.0
281.924805 44.0
282.275818 72.0
282.335999 48.0
282.563477 76.0
283.092346 140.0
283.125824 148.0
283.253082 68.0
283.373688 104.0
283.544586 40.0
284.112305 144.0
284.279053 100.0
284.594574 112.0
284.880035 120.0
285.105164 144.0
285.162292 68.0
285.609497 124.0
285.707031 48.0
286.087311 128.0
286.511658 72.0
286.821686 64.0
287.0914 364.0
287.216187 60.0
287.567108 156.0
288.252655 52.0
288.820648 84.0
289.754974 92.0
289.792236 96.0
290.09726 136.0
290.195557 200.0
290.331207 92.0
291.108337 144.0
291.166077 152.0
291.437836 60.0
291.621338 104.0
292.376373 60.0
292.883667 72.0
293.452789 100.0
293.756317 60.0
294.261383 156.0
294.606323 60.0
295.118988 52.0
295.447296 44.0
296.721313 64.0
298.200806 108.0
299.080017 280.0
300.235535 128.0
300.552887 116.0
301.098053 2248.0
301.78598 64.0
302.105438 608.0
303.110016 328.0
304.690399 28.0
305.799652 56.0
307.200409 140.0
308.062653 116.0
308.65332 48.0
309.335571 76.0
313.064331 216.0
314.079346 188.0
315.64035 144.0
316.386902 108.0
316.411682 64.0
319.157867 100.0
322.040894 156.0
326.654114 176.0
327.150726 192.0
329.11203 164.0
330.695404 60.0
334.029999 164.0
334.70694 72.0
336.519104 104.0
339.673737 76.0
341.017609 152.0
341.396301 140.0
343.137939 164.0
344.04184 168.0
344.174744 176.0
346.18634 116.0
347.027496 128.0
347.238861 124.0
348.493561 76.0
354.163086 308.0
355.168579 96.0
357.48291 76.0
364.315216 100.0
368.124023 204.0
369.542145 40.0
369.829163 80.0
370.104797 44.0
371.147003 164.0
371.357941 44.0
371.634125 80.0
371.84903 192.0
372.029449 184.0
372.170868 2876.0
372.298218 36.0
372.670807 104.0
372.786102 64.0
372.83606 128.0
372.943665 80.0
373.178528 1392.0
373.601227 104.0
374.172791 116.0
374.205444 160.0
374.382568 80.0
374.567444 52.0
375.940002 92.0
380.239655 76.0
383.272888 200.0
386.028778 72.0
389.104614 140.0
393.07605 104.0
394.660004 60.0
396.857513 120.0
398.500702 128.0
403.138855 128.0
403.742523 96.0
405.151459 88.0
407.341797 108.0
409.240021 72.0
409.952972 88.0
411.453461 108.0
414.985504 44.0
417.905792 112.0
420.86084 76.0
430.366302 36.0
434.870331 80.0
437.505707 248.0
444.540192 76.0
446.89328 76.0
448.957336 48.0
449.69986 32.0
453.142059 168.0
454.358826 72.0
455.891663 80.0
457.086578 116.0
458.074341 132.0
461.890503 92.0
462.545197 60.0
464.958252 92.0
466.951752 108.0
471.444 88.0
472.157318 96.0
474.079468 172.0
474.192139 196.0
481.165131 128.0
487.09024 144.0
487.762543 52.0
490.011322 88.0
495.166351 32.0
497.179108 188.0
502.478699 40.0
504.631439 72.0
507.662872 44.0
515.25177 84.0
516.454224 96.0
516.580872 72.0
517.300354 144.0
537.589966 76.0
539.016907 60.0
543.522339 72.0
544.162842 56.0
552.636292 100.0
556.066528 96.0
556.446716 80.0
557.461304 104.0
561.590149 76.0
568.877197 84.0
571.181885 96.0
579.73291 56.0
581.171448 80.0
595.985352 116.0
606.23761 96.0
609.240417 104.0
610.941345 48.0
622.482361 60.0
624.410522 108.0
624.505005 72.0
631.572754 44.0
646.814209 88.0
649.322266 84.0
657.921631 76.0
660.773376 100.0
671.256775 68.0
675.765991 92.0
681.60437 48.0
696.199829 84.0
709.220886 140.0
721.998901 108.0
726.433838 48.0
732.206543 100.0
758.916077 160.0
762.918396 72.0
768.99408 72.0
787.8349 104.0
791.464661 72.0
806.638 72.0
809.500793 64.0
839.480042 76.0
869.80481 100.0
894.882996 72.0
901.432312 60.0
904.195129 40.0
981.73053 72.0
987.588684 144.0
1082.150146 84.0
1101.544189 44.0
1117.488159 132.0
1121.416992 200.0
1134.176514 84.0
1138.161499 104.0
1143.081909 60.0
1146.502808 92.0
1165.484009 172.0
1170.231445 92.0
1180.432251 136.0
1192.869263 108.0
1198.812256 208.0
1217.070435 40.0
1236.064819 96.0
1264.453491 116.0
1274.423706 168.0
1291.175415 96.0
1293.207275 124.0
1298.071655 92.0
1300.676758 188.0
1351.677368 180.0
1370.938843 208.0
1381.31958 192.0
1387.859009 180.0
1389.809692 72.0
1393.388306 68.0
1396.46582 120.0
1400.082764 56.0
1413.721802 96.0
1416.184814 196.0
1416.566895 96.0
1442.936523 132.0
1443.790894 108.0
1445.924316 64.0
1454.405518 192.0
1457.390015 172.0
1462.036133 88.0
1462.812378 212.0
1471.126953 176.0
1478.091675 204.0
1485.323853 160.0
1486.067993 96.0
