>compound 15-Deoxy-goyazensolide
>formula C15H18O3
>ionization [M+H]+
>parentmass 247.1328708880905
#inchi InChI=1S/C15H18O3/c1-7-4-5-10-12(7)13-9(8(2)14(16)17-13)6-11-15(10,3)18-11/h9-13H,1-2,4-6H2,3H3/t9-,10+,11+,12-,13-,15-/m0/s1
#inchikey JFFHVIUZNPTGGR
#Ion_Source DI-ESI
#Instrument qTof
#Compound_Source Isolated
#PI Norberto Lopes
#Data_Collector Denise Silva
#Scan -1
#Precursor_MZ 345.124
#ExactMass 246.126
#Charge 1
#CAS_Number 38963-61-0
#Pubmed_ID  
#Smiles [H][C@@]1(CCC2=C)[C@@]2([H])[C@@H](OC(C3=C)=O)[C@H]3C[C@@H]4[C@]1(O4)C
#INCHI_AUX  
#Library_Class 3
#SpectrumID CCMSLIB00000081354
#IonMode Positive
#UpdateWorkflowName UPDATE-SINGLE-ANNOTATED-BRONZE
#LibraryQualityString Bronze
#TaskID 9b4a41d0ceb3413d8d30236486e770b0
##Scan# 1
#SpectrumFile gnps_15_Deoxy_goyazensolide_pos_MplusH.mgf
#LibraryName gnps_library.mgf
#MQScore -1
#Organism gnps_library
#TIC_Query 0
#RT_Query -1
#MZErrorPPM -1
#SharedPeaks 0
#MassDiff 0
#LibMZ -1
#SpecMZ 345.124
#SpecCharge 0
#internalFilename spec-00000.mgf

>collision 10
121.061562 102.0
137.057541 104.0
142.072708 162.0
145.059845 720.0
149.057205 180.0
157.095795 209.0
159.109528 170.0
161.054764 563.0
163.072723 135.0
165.051132 174.0
167.077316 123.0
169.096344 244.0
171.075317 262.0
173.055328 162.0
175.103516 130.0
185.091568 2702.0
186.092194 227.0
187.105576 348.0
189.083572 112.0
195.076233 232.0
197.091064 419.0
198.057953 147.0
199.069061 149.0
203.098938 804.0
213.086014 5038.0
214.08992 461.0
215.099197 344.0
217.077911 220.0
219.823212 124.0
223.068161 217.0
231.095764 5231.0
232.096252 420.0
237.033615 109.0
241.080338 4031.0
242.081985 328.0
259.089905 11293.0
277.101044 114.0
283.125641 106.0
329.129913 142.0
345.123566 2968.0
