>compound Ivabradine HCl (Procoralan)
>formula C27H36N2O5
>ionization [M+H]+
>parentmass 469.270355
#inchi InChI=1S/C27H36N2O5/c1-28(17-21-11-20-14-25(33-4)26(34-5)16-22(20)21)8-6-9-29-10-7-18-12-23(31-2)24(32-3)13-19(18)15-27(29)30/h12-14,16,21H,6-11,15,17H2,1-5H3/t21-/m0/s1
#inchikey ACRHBAYQBXXRTO
#origInchi InChI=1S/C27H36N2O5.ClH/c1-28(17-21-11-20-14-25(33-4)26(34-5)16-22(20)21)8-6-9-29-10-7-18-12-23(31-2)24(32-3)13-19(18)15-27(29)30;/h12-14,16,21H,6-11,15,17H2,1-5H3;1H/t21-;/m0./s1
#Ion_Source LC-ESI
#Instrument qTof
#Compound_Source Commercial
#PI Dorrestein
#Data_Collector Garg_Neha
#Scan -1
#Precursor_MZ 469.27
#ExactMass 468.262
#Charge 1
#CAS_Number 148849-67-6
#Pubmed_ID N/A
#Smiles C1(=C2C(=CC(=C1OC)OC)[C@@H](C2)CN(CCCN3CCC4=C(CC3=O)C=C(C(=C4)OC)OC)C).Cl
#INCHI_AUX N/A
#Library_Class 1
#SpectrumID CCMSLIB00000078428
#IonMode Positive
#UpdateWorkflowName UPDATE-SINGLE-ANNOTATED-GOLD
#LibraryQualityString Gold
#TaskID 77f51c88eb8b467eb4a01dd2d0cb90d2
##Scan# 1076
#SpectrumFile Plate6_61_80_GD10_01_15777.mzXML
#LibraryName FDALibrary_2_04302014.mgf
#MQScore -1
#Organism FDALibrary_2_04302014
#TIC_Query 0
#RT_Query -1
#MZErrorPPM -1
#SharedPeaks 0
#MassDiff 0
#LibMZ -1
#SpecMZ 469.27
#SpecCharge 0
#internalFilename spec-00000.mgf

>collision 10
45.0714 156.0
45.708355 140.0
46.765366 148.0
46.826633 156.0
47.600716 172.0
47.784908 160.0
48.081184 176.0
48.702869 264.0
48.815445 172.0
49.092579 160.0
49.179081 188.0
49.626759 184.0
49.899147 228.0
49.930084 144.0
49.986359 168.0
50.066605 224.0
50.572063 148.0
50.767586 212.0
51.367821 404.0
53.1926 156.0
53.223091 184.0
53.991085 144.0
54.307869 168.0
54.405769 172.0
55.182217 216.0
55.562859 196.0
56.772614 176.0
57.023338 244.0
57.407253 164.0
57.793968 212.0
58.467754 172.0
59.682415 148.0
60.4692 176.0
61.918755 192.0
63.815643 184.0
64.076668 224.0
64.116508 144.0
64.16433 160.0
64.335037 156.0
65.293274 208.0
65.791183 156.0
66.419075 184.0
66.462883 180.0
66.693497 160.0
67.764069 164.0
67.805038 240.0
67.964111 148.0
68.045128 144.0
68.095444 148.0
69.850914 156.0
70.558014 160.0
70.850899 168.0
71.790527 140.0
71.854622 156.0
72.050476 148.0
72.21106 184.0
72.427719 160.0
72.643005 140.0
72.838715 168.0
73.39817 152.0
73.471512 208.0
75.315254 160.0
75.450043 124.0
76.011246 160.0
76.959923 180.0
78.7071 148.0
78.938591 176.0
80.820648 172.0
82.289162 204.0
84.057152 156.0
85.390884 188.0
86.368469 184.0
88.417053 156.0
88.609924 188.0
89.261261 184.0
90.393105 216.0
91.053993 188.0
92.902519 168.0
93.428917 184.0
93.629112 176.0
94.018555 160.0
97.02198 156.0
97.314316 184.0
98.251167 176.0
101.535416 232.0
101.603615 188.0
102.294945 160.0
102.593102 240.0
103.053406 304.0
103.089638 220.0
103.508392 152.0
103.907318 212.0
104.057892 348.0
104.433846 168.0
105.069565 284.0
105.340942 144.0
105.867744 152.0
105.923958 148.0
106.223251 176.0
106.930092 188.0
107.053871 132.0
107.437004 220.0
108.30938 152.0
108.553947 156.0
109.062614 188.0
110.037567 156.0
110.407784 144.0
110.516006 164.0
111.285461 140.0
111.987862 156.0
112.257629 176.0
112.403191 180.0
112.914436 144.0
113.094284 156.0
113.528618 180.0
113.772636 232.0
114.150848 156.0
115.054321 692.0
115.092712 168.0
115.314896 180.0
115.764175 204.0
116.057747 168.0
116.092873 204.0
116.345253 208.0
117.069778 1436.0
117.427643 164.0
117.576515 144.0
117.798912 172.0
117.904793 208.0
118.075882 208.0
119.047089 296.0
119.082695 180.0
119.372482 216.0
119.513878 152.0
119.840485 168.0
121.064453 2260.0
121.853455 140.0
121.890808 140.0
122.063515 168.0
122.394547 144.0
122.658928 160.0
123.044014 192.0
124.112282 164.0
125.115753 152.0
126.204559 140.0
126.576012 172.0
126.600639 200.0
126.887459 140.0
127.052666 344.0
127.909645 228.0
129.033127 144.0
129.33963 148.0
129.508347 148.0
129.979919 192.0
130.042572 288.0
130.563751 140.0
130.679764 184.0
131.047852 2064.0
131.244659 232.0
132.053314 388.0
133.024658 336.0
133.063568 396.0
133.263504 184.0
134.070724 1012.0
134.983093 340.0
135.048599 220.0
135.082626 304.0
135.26535 240.0
135.584991 180.0
135.95607 176.0
136.979126 180.0
137.058426 204.0
137.739594 148.0
137.938217 188.0
138.010696 176.0
138.036423 152.0
138.083191 180.0
139.017975 188.0
139.555908 168.0
139.737015 176.0
139.847626 228.0
140.328201 184.0
141.511948 144.0
141.825165 144.0
142.104492 172.0
142.534271 188.0
143.612747 232.0
144.054581 204.0
144.157089 164.0
144.647415 148.0
145.065613 1560.0
145.127838 180.0
145.526138 128.0
145.652161 144.0
146.017502 236.0
146.034195 204.0
146.071625 21304.0
146.123154 196.0
146.217194 180.0
146.272552 140.0
147.042755 920.0
147.076981 5624.0
148.046432 252.0
148.08075 396.0
148.636292 148.0
148.819717 176.0
149.059143 416.0
149.093903 2032.0
149.133133 176.0
150.063583 276.0
150.099655 132.0
150.808685 168.0
151.074677 2036.0
151.577164 256.0
152.077499 304.0
153.081146 120.0
155.052032 196.0
156.01265 192.0
156.129517 156.0
158.070923 176.0
158.947464 180.0
159.079514 328.0
159.603073 140.0
160.075012 376.0
161.058792 476.0
161.213898 144.0
161.277084 164.0
161.717194 244.0
162.06601 4768.0
163.072723 516.0
164.071609 160.0
164.431732 196.0
164.858231 192.0
165.088287 176.0
166.27449 220.0
167.101944 244.0
167.766418 236.0
167.885025 184.0
170.188126 144.0
170.840485 180.0
171.046066 156.0
173.328735 144.0
174.063004 316.0
174.092178 316.0
174.846634 156.0
174.912445 236.0
175.066544 324.0
175.098267 2416.0
176.038269 156.0
176.08165 112.0
176.101532 392.0
176.236374 192.0
176.625931 188.0
176.659393 156.0
176.71907 196.0
176.96376 188.0
176.999908 196.0
177.041321 96.0
177.090332 79432.0
177.383896 124.0
177.395187 128.0
177.56543 176.0
177.835938 204.0
178.034088 120.0
178.093246 10680.0
178.226334 168.0
178.97644 172.0
179.098679 808.0
179.288177 184.0
179.383209 260.0
179.41954 128.0
179.494766 112.0
179.601395 108.0
180.096313 184.0
180.168671 188.0
180.419891 144.0
186.21907 140.0
187.12735 224.0
188.081512 188.0
189.090134 560.0
190.085068 300.0
190.7276 216.0
191.092209 968.0
192.095306 436.0
193.225632 136.0
193.591507 168.0
193.674591 152.0
195.000885 156.0
200.706451 152.0
204.095917 164.0
204.138565 152.0
204.326294 220.0
205.081894 180.0
205.11377 256.0
205.625717 152.0
205.8741 192.0
205.916946 144.0
206.042633 200.0
206.064178 272.0
206.117065 33200.0
206.189743 108.0
206.276138 136.0
206.656204 140.0
206.826202 160.0
206.9729 116.0
207.119522 3328.0
208.117218 408.0
208.417892 164.0
208.95845 152.0
212.378891 148.0
214.082047 164.0
216.104172 160.0
216.169342 156.0
217.103867 188.0
217.36496 168.0
218.096252 188.0
219.129288 132.0
221.143219 168.0
222.109177 320.0
222.149643 344.0
227.564682 140.0
229.767838 140.0
230.069641 172.0
231.124176 120.0
232.102875 156.0
234.112381 120.0
234.147858 744.0
235.768143 164.0
237.45816 156.0
238.111893 152.0
239.123428 152.0
242.133728 160.0
243.088593 156.0
243.327591 164.0
245.973801 176.0
246.114655 672.0
247.117798 796.0
248.125397 184.0
248.163177 124.0
255.828705 152.0
257.573059 156.0
259.089417 188.0
259.858887 144.0
260.130066 248.0
260.173401 212.0
260.889832 224.0
261.114227 184.0
261.610443 160.0
261.877716 148.0
261.990479 196.0
262.020813 160.0
262.051697 196.0
262.142883 56004.0
262.230011 144.0
262.49939 108.0
262.723969 124.0
262.980835 100.0
263.146027 9768.0
264.147247 1348.0
264.32489 176.0
264.748291 124.0
264.822784 96.0
264.94455 148.0
265.057068 152.0
265.156616 168.0
265.239594 140.0
266.054901 144.0
266.186615 152.0
266.72168 160.0
266.776917 164.0
269.106415 144.0
271.072296 144.0
278.907715 156.0
281.044098 156.0
284.070312 220.0
285.817413 148.0
291.171478 184.0
292.178497 212.0
293.184174 1008.0
293.292053 192.0
294.187805 336.0
305.18454 484.0
306.187805 140.0
306.562195 164.0
314.358093 164.0
320.133057 152.0
328.625153 140.0
333.085419 192.0
339.139069 160.0
341.441162 156.0
347.714661 152.0
357.280914 220.0
357.510437 164.0
376.227356 144.0
378.338226 196.0
378.53183 188.0
383.457977 156.0
386.265442 156.0
388.521912 152.0
389.295197 144.0
389.951294 144.0
390.191071 152.0
395.853333 144.0
396.661621 204.0
399.210632 160.0
403.06546 232.0
404.557343 216.0
407.58551 192.0
408.345306 152.0
408.622894 148.0
415.008667 148.0
420.729187 196.0
429.63913 152.0
430.481171 152.0
432.101501 256.0
434.454712 212.0
435.637878 168.0
446.484924 184.0
448.910706 164.0
452.460052 220.0
459.686005 144.0
462.138763 160.0
463.693268 152.0
465.13446 156.0
466.192841 224.0
466.94339 144.0
467.108765 216.0
467.64212 144.0
467.693573 216.0
467.912018 132.0
467.993256 104.0
468.179443 140.0
468.243073 124.0
468.418732 108.0
468.529053 112.0
468.811371 164.0
468.947327 368.0
468.980103 240.0
469.025085 120.0
469.064331 280.0
469.270355 138172.0
469.396545 308.0
469.43161 168.0
469.498474 152.0
469.667419 120.0
469.700562 164.0
469.73938 188.0
469.767517 136.0
469.82782 196.0
469.876038 212.0
469.918365 200.0
469.984741 392.0
470.072968 188.0
470.110535 228.0
470.146973 152.0
470.194 220.0
470.272461 41588.0
470.401459 128.0
470.513672 144.0
470.641357 160.0
470.741058 184.0
470.778015 176.0
470.825684 112.0
470.900024 152.0
470.981781 168.0
471.096954 108.0
471.274261 6328.0
471.398071 244.0
471.555634 136.0
472.100342 104.0
472.205383 244.0
472.27948 1252.0
472.354218 104.0
472.515503 124.0
472.7229 224.0
472.764252 124.0
472.861725 108.0
472.890747 104.0
472.957825 136.0
473.083832 144.0
473.143738 152.0
473.160919 140.0
473.218079 116.0
473.283752 308.0
473.31485 204.0
473.387299 104.0
473.617767 124.0
473.679779 156.0
473.848328 212.0
473.940094 108.0
474.117096 140.0
474.199127 120.0
474.235962 168.0
475.255096 164.0
475.953949 156.0
491.28952 132.0
725.193726 176.0
843.235291 140.0
876.215942 136.0
1026.726685 144.0
1083.518677 232.0
1405.247681 212.0
1417.121094 160.0
1435.63562 144.0
1450.545898 204.0
1451.099365 188.0
1471.963501 224.0
1490.808716 140.0
1504.19519 168.0
1510.408081 144.0
1511.112061 236.0
1543.516968 172.0
1549.755615 184.0
1572.806519 152.0
1576.273682 156.0
1583.876831 172.0
1608.527954 152.0
1643.940308 196.0
1648.462646 140.0
1651.939331 220.0
1652.578491 176.0
1657.882446 208.0
1663.121948 228.0
1672.844116 160.0
1674.008423 176.0
1683.247681 204.0
1689.549561 184.0
1693.3396 144.0
1699.036743 176.0
1720.640991 184.0
1747.519897 176.0
1753.499023 152.0
1769.245117 164.0
1771.238159 216.0
1778.113647 164.0
1778.885986 160.0
1780.716431 140.0
1789.083374 180.0
1790.860107 160.0
1800.669434 152.0
1802.604126 192.0
1807.982666 204.0
1825.943481 140.0
1828.223633 164.0
1839.465942 144.0
1843.770874 164.0
1857.213257 176.0
1863.823975 216.0
1867.942139 184.0
1868.010986 160.0
1868.587402 180.0
1875.476807 184.0
1876.614746 152.0
1877.273926 160.0
1886.820068 168.0
1890.46167 180.0
1920.235352 156.0
1925.402222 180.0
1931.616821 152.0
1936.895264 152.0
1940.707642 180.0
1941.707275 160.0
1947.544067 184.0
1951.718628 140.0
1953.81189 236.0
1958.160522 180.0
1974.223145 192.0
1977.116089 156.0
1999.53479 192.0
2002.463989 164.0
