>compound MLS001195633-01!clopidogrel
>formula C16H16ClNO2S
>ionization [M+H]+
>parentmass 322.06630388409053
#inchi InChI=1S/C16H16ClNO2S/c1-20-16(19)15(12-4-2-3-5-13(12)17)18-8-6-14-11(10-18)7-9-21-14/h2-5,7,9,15H,6,8,10H2,1H3/t15-/m0/s1
#inchikey GKTWGGQPFAXNFI
#Ion_Source LC-ESI
#Instrument qTof
#Compound_Source NIH Pharmacologically Active Library
#PI Dorrestein
#Data_Collector VP/LMS
#Scan -1
#Precursor_MZ 322.072
#ExactMass 321.059
#Charge 1
#CAS_Number N/A
#Pubmed_ID N/A
#Smiles COC(=O)[C@@H](N1CCc2sccc2C1)c3ccccc3Cl
#INCHI_AUX N/A
#Library_Class 1
#SpectrumID CCMSLIB00000086145
#IonMode Positive
#UpdateWorkflowName UPDATE-SINGLE-ANNOTATED-GOLD
#LibraryQualityString Gold
#TaskID d252d724072548979f1f6f1ced849daf
##Scan# 1996
#SpectrumFile p5-G02_GG2_01_18471.mzXML
#LibraryName Pharm_Active_Library.mgf
#MQScore -1
#Organism Pharm_Active_Library
#TIC_Query 0
#RT_Query -1
#MZErrorPPM -1
#SharedPeaks 0
#MassDiff 0
#LibMZ -1
#SpecMZ 322.072
#SpecCharge 0
#internalFilename spec-00000.mgf

>collision 10
44.891922 188.0
44.973248 164.0
44.985264 160.0
45.021313 140.0
45.047001 224.0
45.062721 180.0
45.108421 184.0
45.145378 196.0
45.182697 168.0
45.196426 116.0
45.212486 132.0
45.240963 160.0
45.251305 176.0
45.261974 128.0
45.270161 180.0
45.31559 120.0
45.33205 212.0
45.354454 240.0
45.396015 128.0
45.410797 180.0
45.428207 160.0
45.453697 192.0
45.485909 132.0
45.507389 208.0
45.522156 100.0
45.554394 156.0
45.563797 152.0
45.60004 148.0
45.6329 96.0
45.644299 192.0
45.700287 156.0
45.718063 192.0
45.732693 160.0
45.752075 116.0
45.761501 140.0
45.77766 168.0
45.804596 148.0
45.828846 172.0
45.839626 160.0
45.857746 188.0
45.898937 160.0
45.932888 160.0
45.95076 340.0
45.987534 196.0
45.990307 132.0
45.996883 160.0
46.000523 228.0
46.033875 176.0
46.071693 188.0
46.097496 164.0
46.134701 180.0
46.151436 68.0
46.1609 48.0
46.186596 192.0
46.208241 80.0
46.237911 164.0
46.25322 152.0
46.273979 196.0
46.292751 208.0
46.302994 172.0
46.315674 148.0
46.354473 176.0
46.3745 212.0
46.388443 188.0
46.410023 204.0
46.452091 112.0
46.480717 204.0
46.54438 180.0
46.556602 172.0
46.571148 152.0
46.589199 68.0
46.606861 200.0
46.620964 180.0
46.648712 136.0
46.678905 188.0
46.699303 136.0
46.728107 184.0
46.744198 176.0
46.774139 140.0
46.791836 192.0
46.817047 156.0
46.842117 140.0
46.907635 192.0
46.945263 200.0
46.978542 156.0
46.990822 124.0
47.004467 108.0
47.019371 152.0
47.032726 204.0
47.069988 152.0
47.094944 160.0
47.110962 124.0
47.123257 216.0
47.139656 68.0
47.150036 268.0
47.17519 124.0
47.239487 192.0
47.251774 96.0
47.266476 172.0
47.28371 280.0
47.299671 112.0
47.309254 180.0
47.320206 136.0
47.339375 140.0
47.353306 188.0
47.380466 132.0
47.429966 200.0
47.442139 116.0
47.453106 48.0
47.476936 264.0
47.502148 168.0
47.518936 144.0
47.53347 88.0
47.553791 316.0
47.580696 168.0
47.595802 128.0
47.614483 172.0
47.649368 116.0
47.680973 44.0
47.706631 272.0
47.737209 172.0
47.775848 84.0
47.818802 184.0
47.8745 172.0
47.888721 208.0
47.908005 60.0
47.955181 136.0
47.972775 132.0
48.003689 200.0
48.034828 192.0
48.047199 124.0
48.059662 184.0
48.096127 152.0
48.119011 224.0
48.130058 184.0
48.150623 148.0
48.177017 152.0
48.204651 140.0
48.23782 136.0
48.264088 144.0
48.275776 168.0
48.305576 136.0
48.331863 92.0
48.359543 76.0
48.373383 160.0
48.38446 128.0
48.405228 116.0
48.421844 140.0
48.446777 136.0
48.458672 96.0
48.489414 208.0
48.498459 108.0
48.507523 192.0
48.526352 212.0
48.593735 156.0
48.632591 172.0
48.692291 184.0
48.708958 108.0
48.749947 88.0
48.800682 196.0
48.820148 196.0
48.83823 156.0
48.847965 204.0
48.861877 120.0
48.899231 180.0
48.917542 132.0
48.955627 192.0
48.96767 160.0
48.981598 216.0
48.997295 164.0
49.029598 204.0
49.05545 188.0
49.076363 228.0
49.105309 164.0
49.11731 212.0
49.12936 124.0
49.146103 136.0
49.210247 184.0
49.232903 156.0
49.24754 200.0
49.273857 272.0
49.292717 132.0
49.305294 152.0
49.331192 152.0
49.34024 204.0
49.350029 208.0
49.366806 92.0
49.391567 148.0
49.408768 104.0
49.438152 76.0
49.47229 276.0
49.513752 140.0
49.538963 148.0
49.551197 224.0
49.586605 116.0
49.603424 204.0
49.646889 168.0
49.662113 132.0
49.688969 144.0
49.736679 232.0
49.754929 184.0
49.773182 184.0
49.792843 212.0
49.802673 136.0
49.825203 136.0
49.838814 116.0
49.860279 72.0
49.954483 80.0
49.992474 160.0
50.002323 96.0
50.016399 160.0
50.044304 180.0
50.097134 120.0
50.124844 120.0
50.140778 220.0
50.151619 84.0
50.213657 148.0
50.233181 204.0
50.24313 228.0
50.255974 196.0
50.270084 120.0
50.277473 188.0
50.296902 192.0
50.311016 168.0
50.347729 100.0
50.370449 184.0
50.391598 140.0
50.430946 120.0
50.449463 104.0
50.459358 216.0
50.472084 176.0
50.496124 136.0
50.508854 176.0
50.544224 216.0
50.575359 256.0
50.590927 36.0
50.602253 116.0
50.670235 68.0
50.701408 176.0
50.738262 108.0
50.790733 180.0
50.810593 56.0
50.833939 188.0
50.874454 156.0
50.887234 100.0
50.8979 164.0
50.919891 152.0
50.951145 184.0
50.986401 172.0
51.047794 124.0
51.061508 216.0
51.074818 72.0
51.101849 156.0
51.143116 180.0
51.191521 156.0
51.202915 140.0
51.278423 180.0
51.33181 340.0
51.351139 84.0
51.369678 160.0
51.383945 132.0
51.408203 60.0
51.428623 260.0
51.44529 148.0
51.458614 140.0
51.482533 60.0
51.508766 220.0
51.532429 164.0
51.551006 120.0
51.575302 108.0
51.588169 164.0
51.616673 128.0
51.661098 92.0
51.73122 104.0
51.765583 156.0
51.781334 200.0
51.845806 116.0
51.870171 184.0
51.893108 144.0
51.923386 176.0
51.940434 112.0
51.961323 128.0
52.010742 132.0
52.056686 164.0
52.079662 224.0
52.099773 132.0
52.111267 40.0
52.150608 128.0
52.178818 172.0
52.196072 36.0
52.221958 116.0
52.255043 132.0
52.278259 180.0
52.292458 108.0
52.30397 172.0
52.325462 144.0
52.347164 192.0
52.364292 152.0
52.387493 128.0
52.440456 132.0
52.556 200.0
52.592342 128.0
52.617207 168.0
52.630295 176.0
52.664394 116.0
52.667912 220.0
52.686115 144.0
52.723682 100.0
52.739582 196.0
52.754723 160.0
52.768494 156.0
52.785843 108.0
52.804642 236.0
52.823448 188.0
52.852383 144.0
52.862511 128.0
52.875534 164.0
52.894352 196.0
52.968201 92.0
53.026863 164.0
53.055656 160.0
53.073997 76.0
53.116665 312.0
53.132011 128.0
53.144138 172.0
53.155228 140.0
53.181351 160.0
53.195866 160.0
53.213284 44.0
53.233612 64.0
53.244507 196.0
53.258038 168.0
53.271378 124.0
53.286839 112.0
53.303341 168.0
53.320778 104.0
53.352161 188.0
53.378929 192.0
53.40432 304.0
53.453114 80.0
53.472034 124.0
53.515705 152.0
53.539001 92.0
53.559395 136.0
53.579788 328.0
53.595757 144.0
53.624962 252.0
53.65015 164.0
53.709229 136.0
53.714714 108.0
53.738338 160.0
53.781025 48.0
53.868732 180.0
53.882805 160.0
53.908085 104.0
53.934391 204.0
53.951935 140.0
53.962166 140.0
53.9841 148.0
54.019039 180.0
54.039684 124.0
54.060169 104.0
54.083588 124.0
54.127506 168.0
54.138294 124.0
54.155331 204.0
54.175838 132.0
54.191956 76.0
54.208439 160.0
54.221264 152.0
54.23885 84.0
54.261837 188.0
54.275501 132.0
54.294006 200.0
54.325367 160.0
54.364983 236.0
54.406082 108.0
54.416359 128.0
54.43251 188.0
54.445724 192.0
54.479507 196.0
54.509354 192.0
54.520649 264.0
54.535347 96.0
54.545635 136.0
54.58239 208.0
54.602978 164.0
54.622101 108.0
54.6334 164.0
54.651154 208.0
54.663296 148.0
54.68605 208.0
54.750282 168.0
54.775188 88.0
54.788445 160.0
54.809071 68.0
54.831703 168.0
54.849297 164.0
54.878349 120.0
54.927795 180.0
54.951023 204.0
54.964855 252.0
54.988987 168.0
55.00227 140.0
55.045082 124.0
55.061329 156.0
55.082008 160.0
55.124851 176.0
55.138153 228.0
55.173721 252.0
55.184715 128.0
55.210594 120.0
55.240173 160.0
55.259224 168.0
55.310432 100.0
55.316135 48.0
55.320953 116.0
55.333408 156.0
55.37339 160.0
55.42524 36.0
55.451912 176.0
55.462288 136.0
55.475628 168.0
55.510513 112.0
55.531975 128.0
55.551064 152.0
55.596161 152.0
55.612095 164.0
55.657352 140.0
55.680393 164.0
55.705643 120.0
55.750828 136.0
55.775482 148.0
55.809677 68.0
55.829006 208.0
55.861729 152.0
55.901901 216.0
55.933155 124.0
55.952507 148.0
55.988243 196.0
56.007607 128.0
56.03434 208.0
56.043179 132.0
56.076786 232.0
56.117882 240.0
56.131256 132.0
56.163998 208.0
56.204571 168.0
56.223793 124.0
56.234241 76.0
56.247673 132.0
56.261108 164.0
56.287983 88.0
56.310833 160.0
56.361176 60.0
56.373131 156.0
56.395546 180.0
56.409 120.0
56.471802 220.0
56.519566 224.0
56.545113 136.0
56.572056 248.0
56.619968 144.0
56.630455 144.0
56.661911 148.0
56.689713 164.0
56.700871 132.0
56.71286 48.0
56.742844 160.0
56.771332 80.0
56.80283 180.0
56.819328 160.0
56.835835 188.0
56.891365 140.0
56.915836 188.0
56.946922 116.0
56.985298 148.0
57.016796 152.0
57.034069 196.0
57.073071 184.0
57.106243 160.0
57.119778 36.0
57.144932 164.0
57.19175 188.0
57.244736 160.0
57.266361 104.0
57.288376 152.0
57.303825 284.0
57.329639 156.0
57.341114 108.0
57.356781 208.0
57.380306 68.0
57.392368 88.0
57.407448 180.0
57.439121 176.0
57.470802 100.0
57.54174 144.0
57.559856 92.0
57.586403 256.0
57.599796 140.0
57.617252 92.0
57.630852 140.0
57.653076 192.0
57.679211 160.0
57.7034 200.0
57.753998 192.0
57.825928 256.0
57.851658 128.0
57.871342 160.0
57.937931 128.0
57.95919 180.0
57.971313 64.0
58.039146 96.0
58.059238 128.0
58.092609 160.0
58.106262 48.0
58.144745 300.0
58.159374 200.0
58.201881 168.0
58.222073 216.0
58.245926 344.0
58.259598 140.0
58.280869 124.0
58.344185 188.0
58.356865 132.0
58.37207 172.0
58.406052 244.0
58.443562 124.0
58.486172 140.0
58.498348 224.0
58.530319 84.0
58.56242 136.0
58.579487 156.0
58.600384 148.0
58.615623 140.0
58.648575 244.0
58.671303 196.0
58.688789 132.0
58.716236 244.0
58.766575 376.0
58.789024 168.0
58.82074 144.0
58.849758 144.0
58.855602 208.0
58.908558 320.0
58.957222 188.0
58.960659 160.0
58.966412 204.0
58.991077 148.0
59.029297 140.0
59.059887 100.0
59.07645 140.0
59.09354 176.0
59.110371 104.0
59.127205 132.0
59.173126 156.0
59.186909 176.0
59.213772 184.0
59.225193 156.0
59.243576 148.0
59.255611 168.0
59.269623 168.0
59.298599 264.0
59.328091 160.0
59.339771 172.0
59.352394 84.0
59.369263 64.0
59.38232 124.0
59.408749 128.0
59.422947 156.0
59.457581 288.0
59.48275 128.0
59.503021 232.0
59.516575 136.0
59.547203 148.0
59.570328 280.0
59.593666 288.0
59.608017 208.0
59.640728 140.0
59.701878 156.0
59.74062 144.0
59.759426 164.0
59.813286 96.0
59.850143 196.0
59.879642 168.0
59.901367 80.0
59.924168 240.0
59.944199 96.0
59.968857 168.0
59.979645 176.0
60.013561 200.0
60.038235 144.0
60.086052 160.0
60.101479 284.0
60.160763 156.0
60.176678 172.0
60.223438 172.0
60.238884 64.0
60.274418 144.0
60.285797 176.0
60.315781 152.0
60.343975 196.0
60.357887 60.0
60.381084 136.0
60.404522 164.0
60.425945 124.0
60.441418 152.0
60.466175 108.0
60.479671 156.0
60.491623 200.0
60.555973 52.0
60.589485 304.0
60.60556 204.0
60.62104 60.0
60.639812 108.0
60.659504 152.0
60.69978 136.0
60.717159 160.0
60.78231 116.0
60.80714 208.0
60.824322 176.0
60.850605 156.0
60.863804 192.0
60.875488 196.0
60.91428 160.0
60.947941 72.0
60.991673 168.0
61.016846 160.0
61.05883 140.0
61.078617 144.0
61.093048 216.0
61.125763 180.0
61.156849 88.0
61.180199 216.0
61.204281 248.0
61.250271 40.0
61.262733 108.0
61.303246 148.0
61.340176 156.0
61.377003 164.0
61.408592 172.0
61.452934 160.0
61.512741 212.0
61.563763 172.0
61.585629 132.0
61.624683 160.0
61.66148 212.0
61.671955 144.0
61.699139 192.0
61.713772 176.0
61.751427 188.0
61.791973 164.0
61.824833 144.0
61.848625 160.0
61.873844 196.0
61.925034 104.0
61.942924 180.0
61.998665 140.0
62.017475 180.0
62.035019 124.0
62.073456 380.0
62.092693 164.0
62.100956 212.0
62.133835 328.0
62.160187 160.0
62.177452 56.0
62.222553 256.0
62.282646 104.0
62.300179 148.0
62.323448 144.0
62.361206 64.0
62.376926 76.0
62.406986 224.0
62.425663 188.0
62.438244 228.0
62.468132 172.0
62.501167 156.0
62.552994 112.0
62.57357 200.0
62.591721 112.0
62.638138 164.0
62.650402 56.0
62.663345 160.0
62.685402 88.0
62.696434 80.0
62.73584 144.0
62.762711 180.0
62.785629 208.0
62.822842 176.0
62.85413 164.0
62.87822 196.0
62.890427 96.0
62.919762 356.0
62.937786 248.0
62.955154 144.0
62.972633 168.0
62.985165 156.0
63.010529 216.0
63.038879 192.0
63.091042 108.0
63.127762 124.0
63.147964 164.0
63.188728 104.0
63.214485 172.0
63.221451 116.0
63.249428 160.0
63.287224 120.0
63.306339 112.0
63.399593 128.0
63.418709 272.0
63.438999 240.0
63.458679 132.0
63.496399 252.0
63.513847 92.0
63.532883 120.0
63.56023 168.0
63.564182 132.0
63.570866 132.0
63.590004 124.0
63.621754 136.0
63.654533 328.0
63.706112 200.0
63.721806 160.0
63.738499 192.0
63.771069 136.0
63.834858 160.0
63.857601 140.0
63.883965 220.0
63.89669 160.0
63.918968 180.0
63.944431 212.0
64.003334 156.0
64.017662 40.0
64.030403 100.0
64.062256 100.0
64.078194 152.0
64.095161 80.0
64.110062 432.0
64.137733 176.0
64.170631 164.0
64.184944 176.0
64.207146 196.0
64.283882 188.0
64.301437 52.0
64.33017 172.0
64.341339 108.0
64.378143 164.0
64.397232 144.0
64.425125 112.0
64.438293 176.0
64.475517 304.0
64.505882 172.0
64.530617 204.0
64.565041 188.0
64.605766 156.0
64.631935 152.0
64.63739 124.0
64.640732 180.0
64.665833 196.0
64.681839 152.0
64.694649 168.0
64.734673 260.0
64.773117 44.0
64.824387 128.0
64.848419 132.0
64.859642 144.0
64.87561 364.0
64.895554 256.0
64.922173 128.0
64.953453 148.0
64.964767 144.0
65.023239 132.0
65.076218 56.0
65.123589 160.0
65.143669 76.0
65.174805 116.0
65.199905 160.0
65.215401 152.0
65.341408 52.0
65.36071 196.0
65.400948 148.0
65.436363 164.0
65.450851 172.0
65.481445 160.0
65.534378 168.0
65.563156 184.0
65.576508 188.0
65.613853 168.0
65.645828 100.0
65.663567 296.0
65.688896 160.0
65.702286 132.0
65.723259 52.0
65.743134 128.0
65.79892 144.0
65.841095 108.0
65.87307 124.0
65.901344 176.0
65.920258 140.0
65.931572 112.0
65.957428 116.0
65.997375 328.0
66.022102 124.0
66.095207 168.0
66.111076 124.0
66.125641 152.0
66.14286 228.0
66.170967 160.0
66.190399 144.0
66.308655 192.0
66.324867 144.0
66.339455 164.0
66.351585 172.0
66.384964 236.0
66.420532 72.0
66.432678 152.0
66.467987 144.0
66.485428 92.0
66.536041 308.0
66.57634 92.0
66.589333 176.0
66.607201 136.0
66.638069 168.0
66.64917 144.0
66.66407 132.0
66.698097 128.0
66.731735 216.0
66.742432 172.0
66.77713 216.0
66.803894 168.0
66.821793 400.0
66.841248 176.0
66.847672 168.0
66.866592 120.0
66.885254 172.0
66.916183 188.0
66.937355 124.0
66.950378 76.0
66.970444 136.0
66.981331 156.0
67.018799 172.0
67.118225 132.0
67.144318 176.0
67.167152 112.0
67.189987 164.0
67.276482 156.0
67.299339 168.0
67.328735 176.0
67.343437 300.0
67.360184 172.0
67.391685 224.0
67.431007 100.0
67.454422 160.0
67.460686 148.0
67.480698 168.0
67.498688 128.0
67.523216 164.0
67.53392 140.0
67.558449 320.0
67.652367 172.0
67.680313 280.0
67.693413 164.0
67.726173 132.0
67.745827 208.0
67.778595 216.0
67.83432 32.0
67.872025 108.0
67.889168 132.0
67.902496 144.0
67.924103 300.0
68.001625 136.0
68.031166 40.0
68.052513 140.0
68.084068 148.0
68.096848 248.0
68.132988 180.0
68.200783 352.0
68.257904 176.0
68.280922 212.0
68.300659 132.0
68.320404 152.0
68.354645 148.0
68.423019 204.0
68.447136 176.0
68.466644 208.0
68.502037 120.0
68.539375 124.0
68.554207 176.0
68.580574 104.0
68.593765 148.0
68.623436 112.0
68.664665 116.0
68.686844 268.0
68.706696 200.0
68.721115 164.0
68.745499 192.0
68.758705 200.0
68.842896 220.0
68.85611 108.0
68.879234 136.0
68.913887 168.0
68.937057 96.0
68.96563 168.0
68.980034 236.0
69.041206 152.0
69.085869 144.0
69.110229 204.0
69.125572 116.0
69.150375 296.0
69.165298 168.0
69.24987 200.0
69.289497 148.0
69.306953 164.0
69.34166 144.0
69.357437 48.0
69.378777 156.0
69.430389 136.0
69.446976 92.0
69.475174 204.0
69.511673 116.0
69.525757 156.0
69.609612 212.0
69.646149 332.0
69.705963 224.0
69.719254 228.0
69.739075 164.0
69.755821 216.0
69.770782 160.0
69.796303 232.0
69.825653 196.0
69.944115 116.0
69.958771 184.0
70.017044 168.0
70.058685 136.0
70.125053 152.0
70.143677 44.0
70.170349 192.0
70.195358 76.0
70.220375 132.0
70.235382 224.0
70.259949 320.0
70.294075 204.0
70.333626 96.0
70.348854 148.0
70.362251 164.0
70.406548 268.0
70.440933 144.0
70.472443 72.0
70.534424 184.0
70.572777 128.0
70.637306 188.0
70.695549 216.0
70.761787 160.0
70.782829 120.0
70.79863 88.0
70.815376 180.0
70.827103 128.0
70.860603 144.0
70.962845 192.0
70.983414 148.0
70.989166 40.0
70.997711 136.0
71.028244 180.0
71.067329 264.0
71.080254 92.0
71.093681 144.0
71.159668 204.0
71.208801 192.0
71.261597 52.0
71.280075 100.0
71.311531 112.0
71.355713 156.0
71.42466 120.0
71.50206 196.0
71.51889 180.0
71.540771 260.0
71.559296 104.0
71.577812 48.0
71.5896 148.0
71.61451 172.0
71.663147 404.0
71.680565 168.0
71.695732 168.0
71.72776 136.0
71.749672 192.0
71.769905 100.0
71.841751 412.0
71.860985 128.0
71.877853 144.0
71.895134 236.0
71.975761 160.0
72.012909 160.0
72.038246 128.0
72.055855 180.0
72.068657 148.0
72.084427 216.0
72.096275 140.0
72.133247 220.0
72.151474 156.0
72.170074 100.0
72.190361 200.0
72.208969 176.0
72.230957 168.0
72.300789 204.0
72.32402 116.0
72.352798 92.0
72.396019 152.0
72.444244 128.0
72.473045 168.0
72.523888 164.0
72.539146 112.0
72.556099 128.0
72.590004 80.0
72.603577 140.0
72.625618 144.0
72.664635 220.0
72.694885 320.0
72.736656 128.0
72.76622 268.0
72.793198 124.0
72.807777 108.0
72.835938 384.0
72.849998 216.0
72.870773 136.0
72.895561 32.0
72.922058 176.0
72.97715 172.0
72.990753 56.0
73.016258 196.0
73.03157 176.0
73.052582 216.0
73.076599 128.0
73.108673 176.0
73.155785 136.0
73.186432 360.0
73.205162 156.0
73.244331 204.0
73.259666 156.0
73.283516 144.0
73.295441 128.0
73.335434 180.0
73.34903 172.0
73.454765 196.0
73.51757 92.0
73.539314 104.0
73.568077 188.0
73.617844 40.0
73.665665 192.0
73.677628 116.0
73.689583 148.0
73.7118 144.0
73.741928 304.0
73.766487 140.0
73.802391 84.0
73.818443 140.0
73.859222 208.0
73.871941 144.0
73.889618 196.0
73.910149 176.0
73.958069 176.0
74.003876 144.0
74.023933 212.0
74.036827 152.0
74.069366 48.0
74.110481 128.0
74.135963 124.0
74.15847 128.0
74.206467 180.0
74.237053 244.0
74.256195 212.0
74.269112 136.0
74.305672 204.0
74.332993 392.0
74.358154 280.0
74.391747 364.0
74.417717 132.0
74.437416 204.0
74.45871 196.0
74.470245 140.0
74.489632 160.0
74.513901 156.0
74.546326 124.0
74.601418 160.0
74.654625 176.0
74.667984 136.0
74.709671 160.0
74.72438 188.0
74.769196 188.0
74.776344 112.0
74.782455 160.0
74.799149 144.0
74.825996 128.0
74.832268 168.0
74.855965 88.0
74.88443 148.0
74.948662 104.0
74.953575 204.0
74.980934 200.0
75.014999 172.0
75.057579 48.0
75.072327 224.0
75.092064 120.0
75.133469 160.0
75.157623 164.0
75.187538 164.0
75.204216 152.0
75.21862 128.0
75.27327 292.0
75.28595 176.0
75.325081 48.0
75.394768 144.0
75.452309 156.0
75.501045 164.0
75.513489 224.0
75.53698 200.0
75.56884 120.0
75.584412 140.0
75.621353 116.0
75.693466 224.0
75.72464 80.0
75.787582 132.0
75.80835 204.0
75.839333 164.0
75.859795 120.0
75.871925 168.0
75.964996 192.0
75.985695 140.0
75.992836 84.0
75.996071 200.0
76.040184 148.0
76.060814 104.0
76.11779 148.0
76.14183 124.0
76.172142 276.0
76.192993 228.0
76.246857 84.0
76.271385 312.0
76.285095 144.0
76.305962 212.0
76.325081 168.0
76.360405 152.0
76.373466 156.0
76.399872 44.0
76.413788 300.0
76.438148 188.0
76.457291 132.0
76.504288 128.0
76.518211 192.0
76.533882 108.0
76.55246 200.0
76.618095 216.0
76.63839 212.0
76.650215 168.0
76.661415 168.0
76.685303 152.0
76.728027 348.0
76.742973 124.0
76.783081 44.0
76.835411 192.0
76.859833 136.0
76.878044 184.0
76.930473 144.0
76.985519 116.0
77.016953 88.0
77.034424 52.0
77.051773 172.0
77.069366 192.0
77.100815 224.0
77.127037 264.0
77.15387 196.0
77.162842 116.0
77.209213 168.0
77.228447 140.0
77.301193 76.0
77.315926 144.0
77.346077 164.0
77.376259 324.0
77.400581 224.0
77.484024 136.0
77.510307 144.0
77.531334 112.0
77.55938 160.0
77.587425 124.0
77.669197 228.0
77.68914 180.0
77.704933 168.0
77.724228 88.0
77.769859 372.0
77.803261 132.0
77.820816 140.0
77.84137 364.0
77.854942 164.0
77.883942 184.0
77.929665 88.0
77.947327 96.0
77.97184 132.0
78.025436 228.0
78.108322 128.0
78.170555 132.0
78.234573 172.0
78.255051 104.0
78.278595 172.0
78.296181 200.0
78.338943 176.0
78.353676 128.0
78.387154 104.0
78.448837 116.0
78.482338 192.0
78.579048 236.0
78.641251 96.0
78.678886 196.0
78.688286 176.0
78.720551 148.0
78.784264 140.0
78.812408 148.0
78.824776 136.0
78.85128 156.0
78.868958 88.0
78.929543 148.0
78.943214 88.0
78.982124 164.0
79.010422 160.0
79.034233 168.0
79.093094 156.0
79.111298 236.0
79.150246 188.0
79.190979 56.0
79.217552 156.0
79.278458 172.0
79.296791 188.0
79.30809 84.0
79.356567 200.0
79.434761 316.0
79.481491 124.0
79.542519 124.0
79.56691 92.0
79.595924 152.0
79.650375 124.0
79.67347 212.0
79.703674 172.0
79.728554 204.0
79.779793 116.0
79.827179 168.0
79.854141 100.0
79.887909 168.0
79.929123 96.0
79.968651 40.0
80.003983 168.0
80.052322 200.0
80.105751 360.0
80.128914 188.0
80.141388 84.0
80.159973 176.0
80.205544 240.0
80.217407 180.0
80.265053 116.0
80.28756 136.0
80.307175 184.0
80.328583 156.0
80.350563 160.0
80.370827 112.0
80.408875 140.0
80.428627 60.0
80.473137 116.0
80.526802 116.0
80.558144 144.0
80.607246 144.0
80.657143 104.0
80.700043 208.0
80.734024 112.0
80.759056 152.0
80.776947 160.0
80.816223 196.0
80.864624 104.0
80.88073 116.0
80.89505 48.0
80.914742 196.0
80.943161 124.0
80.981003 216.0
81.009346 208.0
81.014076 172.0
81.038322 204.0
81.064774 168.0
81.099724 184.0
81.144455 184.0
81.17247 124.0
81.262444 136.0
81.282181 128.0
81.361046 208.0
81.39167 188.0
81.406036 212.0
81.432137 156.0
81.48558 156.0
81.509972 192.0
81.565788 140.0
81.594009 172.0
81.608368 180.0
81.623466 436.0
81.672958 128.0
81.704407 264.0
81.729599 112.0
81.747513 184.0
81.781204 124.0
81.815987 232.0
81.844795 164.0
81.873604 136.0
81.897018 144.0
81.929443 168.0
81.952866 136.0
81.968613 200.0
82.017738 124.0
82.039047 176.0
82.077232 72.0
82.136749 136.0
82.162003 184.0
82.228767 140.0
82.250427 176.0
82.26487 308.0
82.284645 168.0
82.310005 84.0
82.341438 168.0
82.358765 96.0
82.375023 192.0
82.427422 168.0
82.461884 116.0
82.474403 176.0
82.503326 124.0
82.5392 124.0
82.545677 104.0
82.551025 168.0
82.588318 124.0
82.602791 160.0
82.616081 240.0
82.722221 168.0
82.744934 176.0
82.767479 184.0
82.785591 188.0
82.814568 188.0
82.827248 88.0
82.856232 60.0
82.870125 200.0
82.883408 172.0
82.905151 56.0
82.999413 132.0
83.019279 88.0
83.04657 144.0
83.100945 176.0
83.160873 108.0
83.184547 96.0
83.200806 240.0
83.220779 148.0
83.266174 108.0
83.282524 296.0
83.318855 236.0
83.331573 112.0
83.346107 144.0
83.366096 152.0
83.380234 144.0
83.42244 108.0
83.442436 148.0
83.464012 148.0
83.482445 40.0
83.52475 372.0
83.559853 244.0
83.593407 140.0
83.622528 100.0
83.652138 164.0
83.665604 132.0
83.759087 144.0
83.813736 128.0
83.861122 188.0
83.877525 140.0
83.904869 120.0
83.930397 164.0
83.959572 36.0
84.027061 104.0
84.042297 80.0
84.079979 200.0
84.111008 132.0
84.127441 116.0
84.179977 180.0
84.186493 140.0
84.192047 228.0
84.205956 108.0
84.260757 116.0
84.275368 164.0
84.341164 152.0
84.379547 160.0
84.394493 160.0
84.41246 180.0
84.445618 92.0
84.515602 228.0
84.579613 176.0
84.615562 324.0
84.650352 60.0
84.68148 152.0
84.792496 128.0
84.906914 172.0
84.925255 144.0
84.965607 408.0
84.991295 140.0
85.036842 140.0
85.08123 180.0
85.106934 112.0
85.119781 72.0
85.134476 72.0
85.165695 84.0
85.189575 200.0
85.275124 136.0
85.31163 144.0
85.34613 152.0
85.377052 208.0
85.389931 156.0
85.40625 160.0
85.456749 148.0
85.487434 148.0
85.519585 204.0
85.535286 140.0
85.587105 188.0
85.603447 172.0
85.6605 184.0
85.700363 132.0
85.713928 36.0
85.751587 148.0
85.783966 140.0
85.804245 188.0
85.817902 148.0
85.846657 260.0
85.895515 148.0
85.925964 164.0
86.004837 216.0
86.081009 168.0
86.095787 204.0
86.108101 136.0
86.127182 140.0
86.151199 272.0
86.189995 140.0
86.263924 156.0
86.380424 196.0
86.411873 156.0
86.447678 172.0
86.461205 188.0
86.464874 124.0
86.514839 132.0
86.577538 136.0
86.602539 296.0
86.633789 204.0
86.7341 92.0
86.748924 156.0
86.778587 100.0
86.806992 224.0
86.830513 180.0
86.856476 124.0
86.939072 124.0
86.952957 140.0
86.999985 336.0
87.051353 144.0
87.069923 176.0
87.149223 64.0
87.185104 160.0
87.211128 204.0
87.237152 192.0
87.302223 168.0
87.335701 204.0
87.376625 132.0
87.425819 164.0
87.566498 120.0
87.596298 160.0
87.614929 160.0
87.639145 148.0
87.658958 336.0
87.685738 192.0
87.721153 176.0
87.760857 160.0
87.764763 204.0
87.805275 140.0
87.840492 80.0
87.857285 120.0
87.950584 56.0
87.998291 216.0
88.025261 188.0
88.075691 196.0
88.105576 68.0
88.120522 132.0
88.194206 212.0
88.219772 152.0
88.2556 108.0
88.271927 128.0
88.313072 128.0
88.344872 144.0
88.39164 136.0
88.4403 136.0
88.453407 96.0
88.507698 112.0
88.520805 124.0
88.614456 44.0
88.666924 132.0
88.689415 52.0
88.726021 124.0
88.743553 196.0
88.800896 184.0
88.839432 32.0
88.890091 100.0
88.935127 132.0
88.993324 68.0
89.01255 84.0
89.038574 176.0
89.075958 216.0
89.090988 76.0
89.111511 160.0
89.150253 172.0
89.170784 180.0
89.209381 112.0
89.222534 176.0
89.247284 172.0
89.295876 136.0
89.321106 208.0
89.412521 240.0
89.464714 208.0
89.4981 144.0
89.527359 200.0
89.544304 248.0
89.565765 316.0
89.583862 132.0
89.640388 136.0
89.681847 144.0
89.72332 196.0
89.753487 136.0
89.774529 176.0
89.802513 184.0
89.834579 168.0
89.849678 92.0
89.923271 124.0
89.940163 160.0
89.971382 204.0
90.045059 276.0
90.059212 164.0
90.102844 160.0
90.118889 176.0
90.151787 168.0
90.206596 272.0
90.261421 140.0
90.306808 164.0
90.348427 164.0
90.376808 152.0
90.390053 124.0
90.407082 204.0
90.429794 148.0
90.461967 132.0
90.484688 160.0
90.516876 136.0
90.577484 148.0
90.627487 212.0
90.643082 224.0
90.673164 172.0
90.72908 156.0
90.790825 164.0
90.831482 136.0
90.85804 212.0
90.895653 112.0
90.9795 164.0
91.020622 164.0
91.036461 172.0
91.055496 5852.0
91.101044 236.0
91.140762 176.0
91.180847 64.0
91.199852 168.0
91.266388 156.0
91.289207 160.0
91.314461 156.0
91.32724 120.0
91.343063 140.0
91.490746 152.0
91.511833 192.0
91.53141 156.0
91.553726 124.0
91.57164 176.0
91.61277 112.0
91.635635 112.0
91.696609 92.0
91.72139 92.0
91.738548 136.0
91.770958 44.0
91.808563 244.0
91.834488 152.0
91.848953 128.0
91.877396 228.0
91.922318 140.0
91.952507 140.0
91.986534 124.0
92.001808 172.0
92.057793 908.0
92.097282 132.0
92.120209 160.0
92.134773 260.0
92.154594 188.0
92.17765 124.0
92.209412 140.0
92.247765 80.0
92.267357 96.0
92.313248 112.0
92.32663 120.0
92.366951 244.0
92.429451 176.0
92.462463 212.0
92.487534 288.0
92.510315 164.0
92.531372 80.0
92.554352 112.0
92.569672 52.0
92.606956 164.0
92.632874 92.0
92.667358 160.0
92.686516 184.0
92.704269 212.0
92.730591 52.0
92.778458 132.0
92.809013 212.0
92.834358 196.0
92.857132 172.0
92.875099 120.0
92.887413 208.0
92.90509 140.0
92.953056 204.0
92.996765 236.0
93.065231 308.0
93.105751 140.0
93.12159 172.0
93.162331 56.0
93.189224 180.0
93.225433 128.0
93.286034 108.0
93.315735 112.0
93.337227 176.0
93.416039 172.0
93.435318 232.0
93.466103 184.0
93.479996 164.0
93.527306 80.0
93.570038 132.0
93.587372 92.0
93.608551 168.0
93.622032 196.0
93.6567 200.0
93.672104 148.0
93.687515 180.0
93.731834 72.0
93.754959 148.0
93.77037 232.0
93.864067 260.0
93.879105 100.0
93.909195 136.0
93.928482 128.0
93.95549 136.0
93.986359 96.0
94.028809 44.0
94.054535 344.0
94.069168 172.0
94.100235 116.0
94.124329 212.0
94.146149 200.0
94.165886 112.0
94.181343 176.0
94.206863 180.0
94.258621 104.0
94.272148 36.0
94.314667 76.0
94.332893 200.0
94.376526 200.0
94.389542 164.0
94.445129 152.0
94.475166 216.0
94.523537 244.0
94.566986 208.0
94.62999 160.0
94.67646 272.0
94.729683 184.0
94.762024 312.0
94.779129 108.0
94.804321 152.0
94.825638 168.0
94.839928 136.0
94.885735 164.0
94.934204 224.0
94.953255 224.0
94.974937 152.0
95.072968 76.0
95.078339 108.0
95.096428 208.0
95.141815 104.0
95.180649 304.0
95.246994 124.0
95.289421 188.0
95.37278 244.0
95.411339 208.0
95.449875 396.0
95.481857 144.0
95.497421 100.0
95.518814 136.0
95.535255 160.0
95.583717 200.0
95.604424 116.0
95.655029 164.0
95.684227 180.0
95.721016 188.0
95.734268 160.0
95.740501 120.0
95.77179 116.0
95.832253 228.0
95.858841 136.0
95.907021 216.0
95.998619 264.0
96.039169 140.0
96.087662 124.0
96.116928 148.0
96.137184 240.0
96.152054 132.0
96.183281 200.0
96.212563 72.0
96.22818 132.0
96.273094 188.0
96.314102 56.0
96.344292 168.0
96.399277 208.0
96.431549 148.0
96.460655 208.0
96.558418 116.0
96.628838 148.0
96.654442 144.0
96.669426 124.0
96.698318 284.0
96.729652 140.0
96.795212 192.0
96.845612 136.0
96.871376 72.0
96.949966 132.0
96.96682 160.0
97.015106 184.0
97.036217 44.0
97.063667 152.0
97.100502 144.0
97.117081 200.0
97.14592 132.0
97.195091 144.0
97.246109 160.0
97.27359 168.0
97.295189 200.0
97.324638 112.0
97.389442 204.0
97.418907 72.0
97.442657 176.0
97.489899 212.0
97.517014 164.0
97.574203 180.0
97.641014 48.0
97.660683 108.0
97.690193 140.0
97.717735 80.0
97.735443 144.0
97.763664 152.0
97.794479 308.0
97.812508 112.0
97.825974 196.0
97.870827 148.0
97.888977 164.0
97.99337 132.0
98.044243 168.0
98.054871 184.0
98.097862 208.0
98.127396 144.0
98.172119 164.0
98.241776 156.0
98.257561 124.0
98.296265 228.0
98.342415 184.0
98.366096 164.0
98.40416 488.0
98.447052 160.0
98.460876 88.0
98.528404 120.0
98.581383 176.0
98.640671 308.0
98.670326 188.0
98.685944 200.0
98.734375 204.0
98.755356 156.0
98.790962 112.0
98.81427 164.0
98.86219 96.0
98.920059 236.0
98.950279 56.0
98.984268 112.0
99.002365 352.0
99.06739 176.0
99.083961 152.0
99.105751 156.0
99.129532 104.0
99.155296 220.0
99.17115 244.0
99.214859 220.0
99.252434 208.0
99.266312 188.0
99.28019 120.0
99.296059 156.0
99.369873 132.0
99.432953 204.0
99.464111 420.0
99.484558 56.0
99.544121 176.0
99.585831 212.0
99.651382 220.0
99.673241 164.0
99.729851 140.0
99.742798 196.0
99.768639 124.0
99.782562 120.0
99.812386 48.0
99.8442 48.0
99.89724 156.0
99.925758 188.0
99.979485 132.0
99.999382 132.0
100.03521 144.0
100.067062 92.0
100.086975 92.0
100.176941 188.0
100.202774 204.0
100.236366 144.0
100.263824 196.0
100.311012 160.0
100.338081 136.0
100.373909 120.0
100.408531 188.0
100.425758 76.0
100.481613 148.0
100.529503 200.0
100.545303 96.0
100.561966 120.0
100.593376 120.0
100.638847 196.0
100.664719 180.0
100.699196 112.0
100.759125 136.0
100.775108 188.0
100.79509 136.0
100.817886 412.0
100.87603 160.0
100.884926 80.0
100.893387 156.0
100.9235 132.0
100.936394 104.0
100.961006 172.0
100.996254 256.0
101.017014 200.0
101.037018 100.0
101.07486 136.0
101.161095 124.0
101.181999 148.0
101.221153 172.0
101.243835 172.0
101.26722 124.0
101.281235 124.0
101.37941 92.0
101.401459 48.0
101.418823 192.0
101.468956 208.0
101.482307 372.0
101.524551 108.0
101.557846 120.0
101.585922 180.0
101.607582 196.0
101.632072 236.0
101.800682 192.0
101.83683 132.0
101.860939 144.0
101.901115 68.0
101.930428 176.0
101.969437 164.0
102.039154 232.0
102.06794 104.0
102.109413 180.0
102.193596 128.0
102.214783 160.0
102.269119 88.0
102.294968 76.0
102.329514 156.0
102.361885 152.0
102.395966 60.0
102.416107 112.0
102.436249 172.0
102.47654 124.0
102.527107 124.0
102.535507 168.0
102.627571 176.0
102.760918 172.0
102.793106 136.0
102.821358 48.0
102.86161 204.0
102.869499 108.0
102.874695 188.0
102.898064 136.0
102.912201 168.0
102.954666 124.0
102.980858 176.0
103.059647 144.0
103.16188 168.0
103.198792 232.0
103.258568 268.0
103.316414 136.0
103.346756 104.0
103.364967 148.0
103.405441 84.0
103.441032 196.0
103.460701 148.0
103.468742 44.0
103.473709 160.0
103.53299 176.0
103.605911 180.0
103.646294 60.0
103.670746 132.0
103.686958 152.0
103.755875 160.0
103.789307 164.0
103.828873 152.0
103.84713 232.0
103.903923 48.0
103.938416 188.0
103.95871 156.0
104.011475 200.0
104.035835 176.0
104.060204 164.0
104.121117 220.0
104.156799 148.0
104.190178 128.0
104.204399 220.0
104.252632 136.0
104.291786 128.0
104.330406 84.0
104.369995 192.0
104.450386 156.0
104.50341 180.0
104.609108 108.0
104.635452 148.0
104.666115 184.0
104.717026 216.0
104.816849 216.0
104.836517 184.0
104.884102 64.0
104.904488 208.0
104.92691 212.0
104.977592 140.0
105.033836 13688.0
105.088036 40.0
105.113388 140.0
105.154694 108.0
105.199303 92.0
105.224777 172.0
105.255402 176.0
105.283997 176.0
105.308502 144.0
105.341187 148.0
105.367744 152.0
105.392258 408.0
105.409996 144.0
105.429039 64.0
105.454803 172.0
105.469917 168.0
105.496414 108.0
105.525352 136.0
105.574188 104.0
105.591469 160.0
105.611 104.0
105.639854 336.0
105.66214 88.0
105.721481 68.0
105.747383 128.0
105.782516 224.0
105.797165 176.0
105.800018 172.0
105.861771 136.0
105.909836 168.0
105.98423 308.0
106.037773 1408.0
106.065521 192.0
106.098709 212.0
106.155777 140.0
106.183983 148.0
106.197678 176.0
106.22303 96.0
106.249992 132.0
106.292961 164.0
106.328094 124.0
106.367928 332.0
106.403267 148.0
106.417648 128.0
106.42466 196.0
106.434486 136.0
106.44191 172.0
106.482826 264.0
106.514938 76.0
106.55397 256.0
106.588501 244.0
106.609131 232.0
106.677559 148.0
106.74176 400.0
106.779091 240.0
106.847969 136.0
106.903809 204.0
106.948364 76.0
106.970467 152.0
107.010559 128.0
107.041039 184.0
107.127945 92.0
107.144424 240.0
107.166405 144.0
107.185638 112.0
107.215309 160.0
107.253151 200.0
107.260918 152.0
107.293037 184.0
107.321678 168.0
107.336113 144.0
107.385605 168.0
107.410355 180.0
107.461929 116.0
107.503197 152.0
107.521774 92.0
107.540344 140.0
107.563049 100.0
107.598145 164.0
107.613518 200.0
107.651711 136.0
107.723457 124.0
107.739601 196.0
107.7799 152.0
107.807228 144.0
107.823296 76.0
107.860504 144.0
107.945267 200.0
107.963882 84.0
107.984558 76.0
108.01104 180.0
108.058617 200.0
108.101761 160.0
108.14801 132.0
108.18734 152.0
108.225426 152.0
108.250298 148.0
108.305374 124.0
108.32402 120.0
108.349731 148.0
108.373627 216.0
108.427124 284.0
108.433716 140.0
108.539558 188.0
108.554077 148.0
108.610069 164.0
108.624596 184.0
108.67646 216.0
108.734558 216.0
108.76432 324.0
108.818817 244.0
108.842506 156.0
108.869507 128.0
108.899483 404.0
108.952591 120.0
109.009674 132.0
109.075195 128.0
109.147911 164.0
109.168892 164.0
109.224907 168.0
109.323509 228.0
109.362434 128.0
109.378891 116.0
109.401787 52.0
109.464249 48.0
109.481171 64.0
109.576004 92.0
109.586769 112.0
109.599739 200.0
109.64341 244.0
109.674667 188.0
109.702911 204.0
109.726784 176.0
109.75148 156.0
109.80394 204.0
109.831055 176.0
109.935371 160.0
109.949982 120.0
109.972939 72.0
109.993813 124.0
110.017372 484.0
110.052261 160.0
110.077324 184.0
110.139977 192.0
110.165039 220.0
110.196159 116.0
110.210381 80.0
110.408089 200.0
110.443054 172.0
110.499535 192.0
110.521286 204.0
110.55394 136.0
110.589523 116.0
110.604172 136.0
110.669067 136.0
110.701355 220.0
110.757828 168.0
110.780067 200.0
110.804688 144.0
110.836639 132.0
110.870163 180.0
110.88781 220.0
110.916275 164.0
110.930946 280.0
110.974976 132.0
111.001549 232.0
111.026649 1588.0
111.054665 184.0
111.090324 256.0
111.117592 108.0
111.222519 176.0
111.279198 156.0
111.2939 68.0
111.314896 260.0
111.363197 284.0
111.390068 192.0
111.41571 128.0
111.514473 164.0
111.534332 152.0
111.56913 44.0
111.598152 148.0
111.641655 184.0
111.688988 112.0
111.749496 228.0
111.829964 52.0
111.844696 176.0
111.875763 164.0
111.912064 112.0
111.93322 164.0
112.006744 940.0
112.034302 192.0
112.099297 144.0
112.135361 228.0
112.164871 80.0
112.2724 176.0
112.33989 180.0
112.360985 164.0
112.375755 104.0
112.396461 128.0
112.413734 168.0
112.426842 136.0
112.451729 204.0
112.60585 160.0
112.636284 304.0
112.699104 168.0
112.768509 184.0
112.819267 32.0
112.848862 136.0
112.908073 128.0
112.932793 204.0
112.949081 124.0
112.967529 180.0
112.994797 192.0
113.019005 172.0
113.113312 88.0
113.153534 356.0
113.185432 120.0
113.21917 188.0
113.25518 124.0
113.284836 36.0
113.315521 156.0
113.344154 176.0
113.396538 156.0
113.435287 172.0
113.457138 208.0
113.476738 148.0
113.522217 128.0
113.585846 128.0
113.643921 128.0
113.691933 196.0
113.721642 124.0
113.776833 92.0
113.825951 148.0
113.842651 100.0
113.883003 144.0
113.946732 92.0
113.988556 228.0
114.004509 200.0
114.063614 52.0
114.100136 168.0
114.117439 264.0
114.166626 80.0
114.184814 116.0
114.26564 160.0
114.312935 176.0
114.410362 140.0
114.438484 96.0
114.460861 156.0
114.55304 112.0
114.567955 172.0
114.586136 172.0
114.618126 248.0
114.638268 168.0
114.689415 196.0
114.706139 156.0
114.732048 164.0
114.776825 112.0
114.800278 176.0
114.832268 92.0
114.866394 92.0
114.883461 136.0
114.898399 128.0
114.917763 208.0
114.9496 208.0
115.020592 168.0
115.041382 204.0
115.086212 196.0
115.105431 184.0
115.13533 176.0
115.195129 120.0
115.222908 244.0
115.259224 132.0
115.306244 124.0
115.33403 256.0
115.353119 152.0
115.368668 156.0
115.38961 112.0
115.436859 204.0
115.466591 104.0
115.49411 152.0
115.516838 136.0
115.539314 236.0
115.563522 76.0
115.585205 304.0
115.640617 164.0
115.732498 76.0
115.800552 200.0
115.914963 304.0
115.954727 332.0
115.970963 236.0
116.037331 164.0
116.07692 104.0
116.109085 308.0
116.125648 92.0
116.167 48.0
116.227074 168.0
116.24424 152.0
116.272133 120.0
116.295441 196.0
116.330086 160.0
116.360146 232.0
116.376106 120.0
116.424561 152.0
116.454262 164.0
116.530243 140.0
116.590622 40.0
116.603592 180.0
116.657761 112.0
116.686707 156.0
116.751457 152.0
116.828651 128.0
116.854469 164.0
116.895348 48.0
116.920128 132.0
116.946999 140.0
116.974213 172.0
117.013733 144.0
117.057266 1184.0
117.095558 116.0
117.136429 164.0
117.170952 40.0
117.186035 116.0
117.232323 364.0
117.265762 176.0
117.287315 152.0
117.332588 128.0
117.442566 108.0
117.530205 224.0
117.581322 116.0
117.64238 140.0
117.687386 152.0
117.712227 236.0
117.787926 92.0
117.815399 156.0
117.853935 220.0
117.904945 224.0
117.997543 124.0
118.032036 160.0
118.058311 156.0
118.075394 120.0
118.094948 188.0
118.172928 88.0
118.190216 152.0
118.235489 140.0
118.262543 104.0
118.325279 208.0
118.359818 120.0
118.410851 180.0
118.448868 116.0
118.490997 144.0
118.512665 96.0
118.564423 140.0
118.610184 160.0
118.652534 164.0
118.676155 420.0
118.711105 168.0
118.734581 160.0
118.755791 208.0
118.790169 104.0
118.809883 136.0
118.831383 116.0
118.853081 200.0
118.911674 180.0
118.942062 76.0
118.976791 100.0
119.030113 208.0
119.046448 384.0
119.065819 160.0
119.111229 168.0
119.141846 168.0
119.17878 204.0
119.200508 144.0
119.246147 204.0
119.450531 180.0
119.47229 180.0
119.516647 164.0
119.566246 200.0
119.613251 144.0
119.642036 160.0
119.665985 168.0
119.698647 136.0
119.783585 92.0
119.831512 160.0
119.848938 144.0
119.903992 168.0
119.928284 216.0
119.964447 200.0
120.0364 156.0
120.123642 180.0
120.185631 212.0
120.237778 168.0
120.293846 116.0
120.344063 52.0
120.371307 140.0
120.394768 216.0
120.418304 196.0
120.490532 128.0
120.512634 204.0
120.536278 188.0
120.5625 108.0
120.604027 176.0
120.621513 200.0
120.63681 144.0
120.667625 168.0
120.684334 344.0
120.750519 208.0
120.772385 120.0
120.81176 272.0
120.829262 228.0
120.86734 208.0
120.925545 224.0
120.954002 72.0
120.989021 224.0
121.021866 136.0
121.050194 188.0
121.074417 136.0
121.130074 176.0
121.166557 128.0
121.200554 296.0
121.269409 72.0
121.300095 240.0
121.324211 184.0
121.400948 104.0
121.435036 140.0
121.463348 116.0
121.486305 188.0
121.602791 96.0
121.664246 160.0
121.712555 180.0
121.729988 136.0
121.752075 48.0
121.822365 128.0
121.839943 172.0
121.861908 176.0
121.886078 104.0
121.952141 196.0
122.022156 136.0
122.028168 124.0
122.114708 116.0
122.143707 152.0
122.171898 220.0
122.191704 192.0
122.24231 184.0
122.306129 152.0
122.330345 84.0
122.361168 148.0
122.425613 252.0
122.494026 220.0
122.526344 176.0
122.582504 156.0
122.629913 148.0
122.656624 184.0
122.673996 108.0
122.704407 176.0
122.735725 116.0
122.753365 100.0
122.846001 68.0
122.876884 244.0
122.902824 148.0
122.921242 208.0
122.976189 76.0
123.026031 320.0
123.059143 164.0
123.149864 164.0
123.190376 36.0
123.230141 228.0
123.265686 160.0
123.376007 112.0
123.398117 76.0
123.455605 152.0
123.528595 140.0
123.546288 140.0
123.5662 132.0
123.596214 220.0
123.61039 144.0
123.663567 148.0
123.753746 196.0
123.803047 200.0
123.851768 204.0
123.869301 140.0
123.896072 140.0
123.913795 120.0
124.013542 184.0
124.032013 244.0
124.051201 112.0
124.102188 124.0
124.118599 140.0
124.170937 104.0
124.285919 168.0
124.337326 88.0
124.364845 180.0
124.395157 148.0
124.417236 168.0
124.470741 164.0
124.502457 168.0
124.550476 160.0
124.565651 144.0
124.620377 156.0
124.637115 168.0
124.676521 200.0
124.70031 192.0
124.722717 192.0
124.754211 216.0
124.757912 228.0
124.782974 160.0
124.791992 100.0
124.795418 128.0
124.821609 164.0
124.857193 48.0
124.893677 248.0
124.92083 124.0
124.953659 248.0
124.971024 392.0
125.016136 64832.0
125.088593 108.0
125.106071 192.0
125.124413 244.0
125.166779 192.0
125.198181 172.0
125.238747 172.0
125.276756 80.0
125.350098 204.0
125.381355 780.0
125.429306 156.0
125.457787 88.0
125.480186 128.0
125.505165 252.0
125.520348 192.0
125.545341 152.0
125.573807 152.0
125.594292 160.0
125.603271 152.0
125.610481 88.0
125.670456 44.0
125.679787 192.0
125.700249 172.0
125.725792 108.0
125.76075 152.0
125.789955 252.0
125.808624 144.0
125.827553 124.0
125.87114 96.0
125.889008 52.0
125.91581 132.0
125.957428 220.0
125.978874 156.0
126.018547 7184.0
126.052986 244.0
126.069145 232.0
126.101242 116.0
126.14595 156.0
126.213371 256.0
126.247208 208.0
126.278862 196.0
126.311424 236.0
126.334557 248.0
126.37854 140.0
126.435944 220.0
126.492676 176.0
126.511917 188.0
126.53521 84.0
126.555359 64.0
126.595665 96.0
126.618057 36.0
126.651657 84.0
126.707657 132.0
126.725586 208.0
126.759308 80.0
126.795387 160.0
126.842552 124.0
126.880699 152.0
126.922829 140.0
126.957291 240.0
126.987495 420.0
127.012909 26396.0
127.061882 204.0
127.076996 156.0
127.106758 72.0
127.12326 68.0
127.174088 44.0
127.179886 144.0
127.213745 136.0
127.266129 136.0
127.284088 76.0
127.313286 56.0
127.331253 36.0
127.3582 56.0
127.385155 76.0
127.449951 100.0
127.469032 128.0
127.495255 228.0
127.568108 180.0
127.58741 128.0
127.614388 132.0
127.71022 104.0
127.778572 72.0
127.79882 232.0
127.84037 60.0
127.871704 176.0
127.88549 140.0
127.90712 164.0
127.942863 76.0
127.97213 160.0
128.014603 1112.0
128.035751 316.0
128.073715 224.0
128.098755 160.0
128.136185 176.0
128.163589 168.0
128.226685 140.0
128.269394 168.0
128.335037 180.0
128.370468 168.0
128.463699 272.0
128.510818 200.0
128.551422 28.0
128.582932 104.0
128.607742 84.0
128.651321 248.0
128.692886 168.0
128.729767 32.0
128.763641 76.0
128.791733 236.0
128.829147 132.0
128.85173 140.0
128.890137 152.0
128.939865 252.0
128.957947 116.0
129.024048 264.0
129.089066 60.0
129.129776 164.0
129.168228 112.0
129.249664 216.0
129.291718 168.0
129.340195 72.0
129.362823 40.0
129.442078 76.0
129.523605 144.0
129.54953 180.0
129.611282 80.0
129.675415 96.0
129.722946 132.0
129.747955 204.0
129.8069 100.0
129.839447 160.0
129.881744 152.0
129.903458 176.0
129.938461 112.0
129.962784 160.0
129.971939 116.0
129.980469 132.0
129.989014 184.0
130.031494 236.0
130.100586 64.0
130.11586 212.0
130.156357 196.0
130.176788 96.0
130.208572 116.0
130.231293 176.0
130.249466 96.0
130.324432 240.0
130.347153 200.0
130.405441 192.0
130.424423 176.0
130.4608 128.0
130.50235 232.0
130.519913 152.0
130.613159 148.0
130.649551 156.0
130.680038 180.0
130.739227 116.0
130.827057 116.0
130.868042 108.0
130.883972 140.0
130.908142 144.0
130.967545 144.0
131.040207 172.0
131.061646 128.0
131.079865 184.0
131.126785 156.0
131.1642 96.0
131.190659 204.0
131.230301 136.0
131.273636 44.0
131.300995 52.0
131.329651 164.0
131.355743 204.0
131.453842 88.0
131.520035 184.0
131.541595 152.0
131.596786 276.0
131.631897 80.0
131.702698 144.0
131.729111 120.0
131.762085 184.0
131.791794 108.0
131.842117 164.0
131.887772 152.0
131.924347 160.0
131.942642 116.0
131.990646 140.0
132.008942 260.0
132.109573 160.0
132.127014 148.0
132.142975 180.0
132.1828 92.0
132.205673 188.0
132.246872 172.0
132.262299 336.0
132.310974 144.0
132.340729 192.0
132.448364 120.0
132.468979 132.0
132.501511 100.0
132.52626 336.0
132.546875 48.0
132.636261 156.0
132.656204 132.0
132.721085 136.0
132.754486 184.0
132.785294 124.0
132.813431 164.0
132.830597 80.0
132.863281 80.0
132.879349 120.0
132.906876 108.0
132.932114 88.0
132.97113 196.0
132.99408 164.0
133.028 2620.0
133.086472 164.0
133.159134 144.0
133.186951 172.0
133.223709 124.0
133.269653 192.0
133.367279 56.0
133.400833 488.0
133.430542 116.0
133.520218 164.0
133.554718 168.0
133.577728 176.0
133.598434 100.0
133.641403 176.0
133.697372 212.0
133.735886 152.0
133.740356 112.0
133.750137 116.0
133.767776 256.0
133.784836 116.0
133.81015 108.0
133.842392 200.0
133.884552 144.0
133.941422 108.0
133.959854 172.0
133.98288 188.0
134.033524 204.0
134.084274 76.0
134.109619 180.0
134.162643 148.0
134.181091 160.0
134.198425 112.0
134.266403 132.0
134.289459 108.0
134.317139 152.0
134.356369 272.0
134.381744 48.0
134.409424 164.0
134.454849 176.0
134.490204 208.0
134.539749 180.0
134.69487 204.0
134.713287 216.0
134.753464 76.0
134.786392 172.0
134.829712 236.0
134.905991 44.0
134.933182 100.0
134.97998 216.0
135.044724 112.0
135.06778 128.0
135.121063 112.0
135.178909 124.0
135.199738 216.0
135.242218 180.0
135.337219 144.0
135.375473 180.0
135.401154 184.0
135.42894 112.0
135.496124 40.0
135.525635 136.0
135.605026 136.0
135.693115 184.0
135.77269 156.0
135.897217 148.0
135.942001 320.0
135.99469 276.0
136.071289 164.0
136.08638 116.0
136.152557 200.0
136.175674 324.0
136.219925 60.0
136.247803 152.0
136.302032 220.0
136.348969 140.0
136.452316 152.0
136.47789 156.0
136.5159 232.0
136.549973 76.0
136.661636 72.0
136.682587 72.0
136.717484 272.0
136.780319 148.0
136.822235 96.0
136.857147 156.0
136.878113 272.0
136.968933 148.0
136.994568 92.0
137.015533 152.0
137.034622 184.0
137.16011 192.0
137.17865 164.0
137.218292 204.0
137.241608 84.0
137.298264 160.0
137.334885 124.0
137.379791 160.0
137.435196 172.0
137.565887 136.0
137.610825 132.0
137.633606 56.0
137.656952 220.0
137.691238 184.0
137.719467 140.0
137.736359 156.0
137.776077 176.0
137.843826 32.0
137.904968 176.0
137.970047 124.0
137.996857 144.0
138.037308 732.0
138.076614 104.0
138.118851 192.0
138.187546 84.0
138.217957 152.0
138.257751 88.0
138.309235 148.0
138.34903 256.0
138.392288 292.0
138.430984 136.0
138.450943 84.0
138.480896 140.0
138.594025 296.0
138.637131 252.0
138.667587 176.0
138.75853 136.0
138.788818 96.0
138.813416 196.0
138.866959 124.0
138.943024 156.0
138.994308 3032.0
139.04306 664.0
139.075699 284.0
139.092133 76.0
139.121521 92.0
139.146133 132.0
139.214218 52.0
139.245361 200.0
139.336029 144.0
139.364029 180.0
139.397446 128.0
139.477356 164.0
139.522018 100.0
139.561996 144.0
139.58316 160.0
139.644302 68.0
139.706207 156.0
139.733688 112.0
139.81369 116.0
139.858414 120.0
139.922409 188.0
139.954926 164.0
140.00174 1504.0
140.04126 152.0
140.067978 48.0
140.103302 180.0
140.147491 232.0
140.239975 120.0
140.264572 148.0
140.381439 132.0
140.405014 60.0
140.456909 180.0
140.56543 144.0
140.589035 64.0
140.61499 156.0
140.652756 128.0
140.678726 160.0
140.723572 176.0
140.796402 76.0
140.839294 68.0
140.86528 100.0
140.943237 84.0
140.99057 1868.0
141.051956 140.0
141.07106 196.0
141.1707 180.0
141.238754 116.0
141.278976 168.0
141.326294 164.0
141.345215 60.0
141.373611 156.0
141.456451 132.0
141.50853 152.0
141.567734 164.0
141.661926 120.0
141.670471 192.0
141.709351 144.0
141.750137 148.0
141.795166 84.0
141.811752 28.0
141.830719 184.0
141.852051 176.0
141.922607 168.0
141.929993 128.0
141.999207 808.0
142.027512 40.0
142.109451 364.0
142.12648 172.0
142.150879 68.0
142.179367 156.0
142.202362 156.0
142.338409 80.0
142.411331 148.0
142.466675 76.0
142.483292 156.0
142.502304 132.0
142.518936 120.0
142.537949 200.0
142.685303 132.0
142.735886 168.0
142.756638 92.0
142.792313 184.0
142.946945 152.0
143.021698 244.0
143.054047 136.0
143.096909 304.0
143.123093 148.0
143.154053 96.0
143.211212 168.0
143.229156 284.0
143.324478 192.0
143.504318 60.0
143.554398 220.0
143.573471 232.0
143.604477 228.0
143.648483 268.0
143.721375 148.0
143.794083 156.0
143.857407 132.0
143.926636 120.0
143.948135 140.0
143.986343 136.0
144.005447 176.0
144.033798 92.0
144.040207 120.0
144.059814 236.0
144.132019 204.0
144.203751 140.0
144.2659 200.0
144.346115 176.0
144.402191 160.0
144.441605 288.0
144.486023 192.0
144.526596 264.0
144.552292 152.0
144.627106 164.0
144.653442 156.0
144.674988 64.0
144.696533 260.0
144.74202 240.0
144.876144 124.0
144.912079 136.0
144.949295 172.0
144.995956 164.0
145.0271 184.0
145.058273 124.0
145.103821 160.0
145.132584 144.0
145.179825 160.0
145.188705 80.0
145.196335 192.0
145.218918 140.0
145.246002 164.0
145.271698 208.0
145.329269 128.0
145.378937 148.0
145.41806 156.0
145.443024 160.0
145.46846 88.0
145.502075 144.0
145.536789 104.0
145.658173 176.0
145.742249 44.0
145.823959 132.0
145.884048 172.0
145.962936 188.0
146.01149 100.0
146.031052 120.0
146.064072 148.0
146.08606 116.0
146.104416 152.0
146.154922 364.0
146.184692 312.0
146.201538 232.0
146.289444 176.0
146.382095 176.0
146.439896 156.0
146.53624 136.0
146.572388 160.0
146.596481 148.0
146.613358 148.0
146.673615 104.0
146.712173 236.0
146.731461 140.0
146.753159 140.0
146.789337 72.0
146.818268 156.0
146.834122 168.0
146.859268 124.0
146.878571 240.0
146.91716 64.0
146.934052 160.0
146.999207 164.0
147.016098 200.0
147.049881 92.0
147.08255 184.0
147.120895 152.0
147.185074 108.0
147.211624 144.0
147.233368 108.0
147.271881 176.0
147.303406 176.0
147.337234 116.0
147.38092 192.0
147.477386 96.0
147.508804 164.0
147.530563 112.0
147.610352 128.0
147.702255 292.0
147.767563 152.0
147.811127 144.0
147.837738 156.0
147.873001 336.0
147.92424 204.0
147.932861 80.0
147.937531 132.0
147.975708 136.0
148.017746 168.0
148.051697 6784.0
148.091949 144.0
148.113754 212.0
148.239731 108.0
148.300812 176.0
148.322128 56.0
148.360916 232.0
148.397293 156.0
148.455475 204.0
148.501556 128.0
148.539017 208.0
148.599884 152.0
148.624329 112.0
148.649551 116.0
148.691772 120.0
148.717499 84.0
148.809753 180.0
148.84523 172.0
148.887451 140.0
148.938461 168.0
149.01619 196.0
149.055176 852.0
149.086655 200.0
149.144989 108.0
149.196045 120.0
149.285263 208.0
149.351669 168.0
149.368698 100.0
149.393021 160.0
149.422211 104.0
149.463577 188.0
149.5009 348.0
149.565796 140.0
149.599869 64.0
149.636383 72.0
149.665604 244.0
149.683777 148.0
149.70546 184.0
149.853149 128.0
149.911835 148.0
149.960373 96.0
149.996933 240.0
150.028625 216.0
150.055435 112.0
150.087143 96.0
150.148712 144.0
150.166458 196.0
150.215057 240.0
150.245667 152.0
150.296829 128.0
150.384171 232.0
150.440903 156.0
150.487289 116.0
150.580078 180.0
150.604507 280.0
150.729095 76.0
150.78775 320.0
150.868423 48.0
150.895142 180.0
150.944214 180.0
150.965591 156.0
150.985779 256.0
151.064056 80.0
151.093414 220.0
151.121552 96.0
151.186386 160.0
151.237793 124.0
151.316116 116.0
151.387131 216.0
151.423859 112.0
151.45816 140.0
151.496643 240.0
151.542572 128.0
151.639465 348.0
151.674118 148.0
151.721924 352.0
151.793915 168.0
151.834061 184.0
151.883026 204.0
151.921646 204.0
151.955795 128.0
151.987488 460.0
152.026749 90840.0
152.111557 136.0
152.127594 236.0
152.153885 128.0
152.183472 156.0
152.205338 196.0
152.247726 60.0
152.290695 208.0
152.343216 184.0
152.360184 104.0
152.37468 180.0
152.430237 192.0
152.480774 188.0
152.511093 96.0
152.517609 72.0
152.527161 212.0
152.549301 156.0
152.574692 152.0
152.603989 92.0
152.623871 148.0
152.640167 96.0
152.694016 120.0
152.76387 108.0
152.793579 60.0
152.818176 64.0
152.846863 176.0
152.872314 76.0
152.891998 92.0
152.920441 188.0
152.938766 192.0
152.973221 96.0
153.028702 5336.0
153.091522 176.0
153.109497 128.0
153.151337 108.0
153.189255 184.0
153.227188 104.0
153.246597 144.0
153.26384 76.0
153.306381 136.0
153.33725 208.0
153.353226 132.0
153.38562 200.0
153.406784 148.0
153.456085 152.0
153.486908 56.0
153.511444 88.0
153.535004 40.0
153.552261 40.0
153.578903 128.0
153.596664 152.0
153.639389 212.0
153.665741 108.0
153.704163 168.0
153.739761 100.0
153.7733 204.0
153.796524 196.0
153.825806 304.0
153.857468 140.0
153.889145 316.0
153.914322 164.0
153.93158 108.0
153.945801 284.0
153.970764 188.0
153.995422 288.0
154.023346 17884.0
154.129532 152.0
154.144531 188.0
154.174561 252.0
154.220245 220.0
154.259842 192.0
154.275284 176.0
154.376434 324.0
154.418381 184.0
154.436478 96.0
154.461212 72.0
154.492294 176.0
154.500916 160.0
154.51973 336.0
154.542847 72.0
154.570129 280.0
154.600647 380.0
154.62117 172.0
154.666306 176.0
154.694672 104.0
154.706543 168.0
154.72377 252.0
154.729553 228.0
154.74733 344.0
154.782944 88.0
154.814636 168.0
154.823639 176.0
154.87149 148.0
154.893967 268.0
154.897247 292.0
154.917542 220.0
154.941193 368.0
154.949493 352.0
154.972595 564.0
155.026993 233048.0
155.102798 236.0
155.174255 144.0
155.201019 176.0
155.247437 264.0
155.276382 180.0
155.302353 232.0
155.328323 292.0
155.366745 120.0
155.405823 300.0
155.43544 3560.0
155.464508 288.0
155.49855 48.0
155.511658 72.0
155.5569 164.0
155.574493 108.0
155.613571 280.0
155.637985 260.0
155.65863 152.0
155.679092 196.0
155.708435 132.0
155.725327 172.0
155.748337 212.0
155.77243 172.0
155.795944 96.0
155.818542 108.0
155.839584 60.0
155.866241 172.0
155.875427 172.0
155.88829 328.0
155.929977 96.0
155.982742 180.0
156.030029 25548.0
156.094498 164.0
156.122025 168.0
156.179688 104.0
156.243729 212.0
156.265686 104.0
156.312027 132.0
156.34761 180.0
156.389175 44.0
156.427185 128.0
156.49234 128.0
156.518631 60.0
156.550323 56.0
156.584442 276.0
156.621857 168.0
156.648514 92.0
156.669403 148.0
156.685089 96.0
156.728439 68.0
156.738586 100.0
156.777084 108.0
156.824738 32.0
156.842941 248.0
156.889023 144.0
156.897858 96.0
156.908157 164.0
156.913376 152.0
156.936371 144.0
156.953613 92.0
156.959488 112.0
156.977341 428.0
157.023712 76276.0
157.075638 64.0
157.097794 220.0
157.104706 112.0
157.115677 96.0
157.148315 80.0
157.20108 308.0
157.239502 156.0
157.257767 212.0
157.278717 112.0
157.321152 164.0
157.338898 236.0
157.376755 104.0
157.412155 80.0
157.434891 232.0
157.480423 84.0
157.503448 36.0
157.507401 68.0
157.533707 56.0
157.558685 56.0
157.665253 68.0
157.67067 44.0
157.689026 76.0
157.715317 60.0
157.734543 76.0
157.781281 60.0
157.792358 56.0
157.802017 88.0
157.842911 68.0
157.852829 88.0
157.903641 104.0
157.954132 172.0
157.976181 100.0
158.026581 4960.0
158.096283 72.0
158.122559 72.0
158.163849 72.0
158.180908 172.0
158.215027 180.0
158.274765 80.0
158.358658 60.0
158.400299 160.0
158.476898 60.0
158.513672 60.0
158.537033 72.0
158.562088 64.0
158.589661 48.0
158.639786 40.0
158.669876 72.0
158.722534 76.0
158.782181 80.0
158.821213 172.0
158.850189 72.0
158.87645 76.0
158.925705 64.0
158.954758 100.0
158.985046 120.0
159.014832 116.0
159.025238 60.0
159.037537 64.0
159.06778 144.0
159.090714 64.0
159.124557 112.0
159.209351 120.0
159.243515 120.0
159.26712 84.0
159.302444 128.0
159.345001 116.0
159.369278 156.0
159.402557 44.0
159.453049 104.0
159.483215 76.0
159.674286 68.0
159.742203 220.0
159.807068 56.0
159.842834 112.0
159.928406 80.0
160.011475 156.0
160.041687 92.0
160.061829 192.0
160.101288 108.0
160.122269 92.0
160.149979 52.0
160.225555 188.0
160.288544 124.0
160.316254 60.0
160.346497 68.0
160.477585 116.0
160.64151 264.0
160.717194 56.0
160.813095 128.0
160.924164 212.0
160.951935 184.0
160.977188 48.0
161.047913 28.0
161.0858 136.0
161.161591 108.0
161.19696 176.0
161.29805 104.0
161.31575 140.0
161.442169 112.0
161.588882 184.0
161.682495 196.0
161.760971 112.0
161.864761 184.0
161.935684 108.0
161.958466 80.0
161.981277 84.0
162.047134 60.0
162.165207 156.0
162.257492 48.0
162.300598 120.0
162.390656 188.0
162.435013 160.0
162.541565 56.0
162.612625 32.0
162.638 112.0
162.673538 36.0
162.729401 92.0
162.832245 104.0
162.863983 116.0
163.029129 124.0
163.059631 64.0
163.107925 104.0
163.293533 140.0
163.377472 96.0
163.558151 52.0
163.727325 164.0
163.778122 132.0
163.942719 76.0
163.96312 92.0
164.016632 176.0
164.037033 36.0
164.11351 56.0
164.368576 64.0
164.386444 92.0
164.468109 56.0
164.511505 64.0
164.595764 152.0
164.623856 52.0
164.718353 60.0
164.764328 208.0
164.81543 92.0
164.876755 188.0
164.920212 120.0
164.936996 148.0
164.961105 44.0
164.996902 92.0
165.062759 132.0
165.237305 92.0
165.257767 188.0
165.353867 80.0
165.590561 160.0
165.674042 128.0
165.705826 152.0
165.734573 184.0
165.792953 172.0
165.822052 68.0
165.88266 132.0
165.962128 76.0
166.074371 132.0
166.105743 76.0
166.14679 116.0
166.187851 112.0
166.298187 44.0
166.352097 164.0
166.372635 196.0
166.43425 76.0
166.480469 188.0
166.525574 64.0
166.560089 136.0
166.60376 116.0
166.775925 84.0
166.984192 44.0
167.053635 52.0
167.159119 100.0
167.310989 112.0
167.331573 148.0
167.393372 116.0
167.434204 84.0
167.483521 56.0
167.509277 84.0
167.779861 224.0
167.921677 120.0
167.99791 632.0
168.037766 172.0
168.145203 160.0
168.264999 88.0
168.30571 64.0
168.344925 96.0
168.393997 156.0
168.430145 80.0
168.494736 136.0
168.515396 124.0
168.554169 172.0
168.68338 44.0
168.740265 156.0
168.781631 76.0
168.861801 40.0
168.882492 208.0
169.221481 52.0
169.33284 104.0
169.35614 92.0
169.498627 116.0
169.529724 236.0
169.646362 96.0
169.664505 172.0
169.742294 128.0
169.765396 212.0
169.846039 108.0
169.948334 120.0
169.998062 356.0
170.025055 148.0
170.139267 76.0
170.178207 140.0
170.209366 96.0
170.431427 172.0
170.45874 36.0
170.549698 136.0
170.664078 56.0
170.708282 176.0
170.807114 220.0
171.025696 108.0
171.115295 124.0
171.254822 124.0
171.301712 144.0
171.572723 32.0
171.598801 76.0
171.663986 216.0
171.712112 132.0
171.880493 152.0
171.94313 184.0
171.97966 120.0
172.060593 220.0
172.146744 184.0
172.230331 88.0
172.551758 180.0
172.58313 156.0
172.836838 48.0
173.056702 172.0
173.405106 120.0
173.729248 124.0
173.764359 204.0
173.89032 168.0
174.092468 128.0
174.218536 64.0
174.389343 148.0
174.470825 100.0
174.554962 144.0
174.849609 148.0
174.886444 132.0
174.910141 52.0
174.95752 68.0
175.015442 52.0
175.063919 140.0
175.141861 64.0
175.244598 156.0
175.315735 164.0
175.365814 44.0
175.402725 160.0
175.576736 168.0
175.663773 228.0
175.721817 220.0
175.748199 296.0
175.766663 184.0
175.840561 100.0
176.001587 168.0
176.067612 140.0
176.368805 92.0
176.387314 164.0
176.53537 44.0
176.593552 156.0
176.62265 84.0
176.716553 128.0
176.821625 176.0
176.868729 80.0
177.300446 48.0
177.358749 96.0
177.785751 84.0
178.024673 100.0
178.075134 156.0
178.11763 176.0
178.271729 84.0
178.343491 124.0
178.412659 176.0
178.513641 180.0
178.59874 148.0
178.776993 144.0
179.133774 96.0
179.304306 92.0
179.39566 176.0
179.450912 160.0
179.661606 184.0
180.155472 52.0
180.18219 48.0
180.371933 204.0
180.518982 80.0
180.724945 104.0
180.834656 100.0
180.866776 52.0
180.987244 276.0
181.054199 188.0
181.228317 220.0
181.327728 124.0
181.373032 124.0
181.42128 140.0
181.495834 168.0
181.638489 232.0
181.733383 108.0
181.818253 176.0
181.928299 116.0
181.965897 76.0
182.035706 116.0
182.084045 80.0
182.163193 164.0
182.248428 216.0
182.282471 148.0
182.378067 148.0
182.403778 172.0
182.441406 296.0
182.492493 144.0
182.54921 88.0
182.608124 108.0
182.635025 92.0
182.688507 68.0
182.718567 144.0
182.751007 72.0
182.771027 180.0
182.80452 112.0
182.853546 164.0
182.878922 204.0
182.924118 380.0
182.971161 328.0
182.988983 332.0
183.021133 73316.0
183.097672 128.0
183.107452 140.0
183.122482 168.0
183.157547 64.0
183.179108 88.0
183.215073 200.0
183.237579 124.0
183.269867 132.0
183.304565 92.0
183.36409 128.0
183.387482 112.0
183.413193 108.0
183.462616 112.0
183.484543 68.0
183.494888 92.0
183.502777 52.0
183.547516 88.0
183.606567 116.0
183.649353 180.0
183.672043 64.0
183.69632 260.0
183.768875 124.0
183.817154 148.0
183.866837 124.0
183.902878 80.0
183.930496 128.0
183.946167 232.0
183.972412 272.0
183.99292 172.0
184.024307 7232.0
184.052994 78384.0
184.120605 184.0
184.157379 188.0
184.182205 112.0
184.22551 116.0
184.258804 164.0
184.266159 52.0
184.279221 92.0
184.285736 164.0
184.311874 48.0
184.349579 80.0
184.378235 172.0
184.421051 152.0
184.455109 56.0
184.497986 260.0
184.524948 220.0
184.543488 64.0
184.560547 96.0
184.584244 84.0
184.639053 80.0
184.670685 116.0
184.69577 76.0
184.716064 96.0
184.755676 48.0
184.818573 164.0
184.843353 124.0
184.922821 48.0
184.970352 136.0
185.018356 20384.0
185.055313 5872.0
185.086029 212.0
185.117432 60.0
185.151825 112.0
185.190018 80.0
185.224121 76.0
185.271973 84.0
185.334229 48.0
185.403061 136.0
185.441803 136.0
185.496704 128.0
185.526764 128.0
185.566742 148.0
185.602478 120.0
185.607239 108.0
185.700653 60.0
185.730484 68.0
185.77298 72.0
185.804016 76.0
185.848511 244.0
185.889893 200.0
185.927658 116.0
185.963821 48.0
186.023026 1108.0
186.050171 18136.0
186.101166 132.0
186.154861 152.0
186.207642 60.0
186.239182 48.0
186.252991 120.0
186.260086 60.0
186.308685 104.0
186.355286 132.0
186.379822 128.0
186.411926 84.0
186.465057 132.0
186.496185 116.0
186.524002 124.0
186.561981 96.0
186.628281 128.0
186.659302 44.0
186.681046 92.0
186.7005 184.0
186.754486 76.0
186.817047 60.0
186.841522 52.0
186.885056 28.0
186.9422 140.0
187.053543 628.0
187.097351 48.0
187.170868 40.0
187.208984 112.0
187.244385 100.0
187.274353 104.0
187.304504 56.0
187.340836 176.0
187.357254 128.0
187.380585 56.0
187.416 104.0
187.461014 108.0
187.519562 116.0
187.666763 124.0
187.704941 60.0
187.748566 84.0
187.833115 40.0
187.900528 88.0
187.964081 56.0
187.994095 56.0
188.035034 72.0
188.167419 56.0
188.207016 104.0
188.280746 144.0
188.308044 124.0
188.411194 84.0
188.625 44.0
188.666016 100.0
188.96138 64.0
189.522659 84.0
190.183578 116.0
190.42244 80.0
190.474625 64.0
190.515839 84.0
190.612 44.0
190.966644 64.0
191.145462 120.0
191.451019 60.0
191.544662 124.0
191.836761 40.0
191.856049 92.0
191.982895 76.0
192.032532 160.0
192.391251 100.0
192.521027 152.0
192.598358 76.0
192.902313 28.0
193.53862 48.0
193.630005 76.0
193.815613 112.0
194.070618 68.0
194.331329 76.0
194.703308 72.0
195.245239 104.0
195.473343 140.0
195.612503 84.0
195.698807 28.0
196.28952 36.0
196.426178 84.0
196.476395 112.0
196.495926 108.0
196.587997 36.0
196.91185 64.0
197.14093 60.0
197.263901 112.0
197.613495 116.0
198.005386 172.0
198.048645 352.0
198.111816 60.0
198.521042 148.0
199.025589 124.0
199.05307 456.0
199.365005 216.0
199.70517 76.0
199.911591 52.0
200.039688 136.0
200.06076 148.0
200.100174 152.0
200.232529 68.0
200.260681 172.0
200.538086 88.0
201.028214 472.0
201.126297 76.0
201.284393 180.0
202.452301 188.0
202.664749 56.0
202.960205 116.0
203.027588 228.0
203.146713 80.0
203.28006 52.0
203.407776 56.0
203.490097 56.0
203.68605 44.0
204.100983 172.0
204.735565 148.0
204.923569 96.0
205.388229 176.0
206.319168 48.0
206.367767 48.0
206.493591 172.0
207.538834 136.0
208.038025 164.0
209.061264 92.0
209.775558 28.0
210.866623 116.0
211.118149 136.0
211.434708 212.0
211.531891 72.0
211.818573 128.0
211.940247 80.0
211.993042 164.0
212.047165 21316.0
212.189514 56.0
212.276489 72.0
212.371368 56.0
212.409912 52.0
212.456314 44.0
212.595596 56.0
212.679764 120.0
212.702972 76.0
212.723297 92.0
212.752335 32.0
212.784271 44.0
212.880081 68.0
212.938171 32.0
213.048538 1628.0
213.237411 72.0
213.257767 64.0
213.292648 76.0
213.32753 140.0
213.449631 64.0
213.525238 124.0
213.586319 48.0
213.618317 48.0
213.659042 72.0
213.711426 96.0
213.84819 196.0
213.920959 80.0
213.99733 156.0
214.045288 6452.0
214.091568 148.0
214.155716 52.0
214.191772 60.0
214.239624 84.0
214.346176 68.0
214.454498 120.0
214.535629 52.0
214.620178 68.0
214.663925 60.0
214.725159 32.0
214.759262 148.0
215.048279 684.0
215.078201 56.0
215.405243 52.0
215.58638 60.0
215.723755 80.0
215.750076 120.0
215.890411 104.0
216.136139 120.0
216.481552 108.0
216.548904 32.0
216.604553 48.0
216.967941 64.0
217.237732 96.0
218.480377 48.0
219.195847 72.0
219.579086 88.0
219.941986 100.0
220.192963 88.0
220.293381 40.0
220.976303 104.0
221.044357 48.0
221.915192 56.0
222.09906 56.0
222.665955 68.0
222.960068 80.0
223.343613 64.0
223.673889 84.0
224.00145 68.0
224.078903 108.0
224.210007 72.0
224.260681 64.0
225.030319 152.0
225.305084 92.0
225.436554 140.0
226.070526 200.0
227.074142 200.0
227.398163 88.0
227.572281 96.0
227.731445 60.0
228.064957 96.0
230.043991 108.0
230.841629 116.0
231.407455 136.0
232.729401 112.0
233.018204 172.0
234.026367 252.0
235.021347 152.0
236.014038 136.0
236.405579 68.0
237.045593 136.0
239.047745 92.0
240.191559 200.0
240.672211 76.0
241.135574 160.0
245.008133 124.0
245.09227 140.0
246.202774 96.0
246.683945 132.0
249.008896 120.0
249.040314 152.0
251.136536 164.0
255.221802 28.0
255.963196 68.0
258.360168 148.0
259.042023 96.0
259.15094 100.0
259.279114 112.0
259.87558 76.0
261.022278 164.0
261.652893 48.0
262.042603 836.0
262.439026 40.0
262.958405 56.0
263.046814 136.0
263.523499 44.0
263.856415 48.0
264.047119 184.0
264.051208 372.0
264.623169 236.0
265.047485 224.0
267.62323 36.0
270.876007 88.0
271.853058 60.0
272.539337 96.0
273.101501 48.0
274.181396 116.0
274.263794 40.0
274.745239 112.0
274.821136 148.0
275.841614 44.0
275.906769 56.0
276.830872 76.0
279.43985 40.0
280.042358 80.0
281.322815 76.0
283.161835 76.0
285.124512 52.0
289.073517 160.0
289.151367 72.0
290.11673 108.0
290.150604 40.0
290.384583 116.0
293.04483 172.0
293.16214 116.0
293.335968 64.0
293.960114 84.0
294.072723 96.0
294.32196 84.0
294.625916 148.0
296.384521 124.0
297.461395 44.0
297.557526 76.0
297.694855 88.0
301.408264 128.0
301.677856 112.0
304.720673 60.0
305.840424 76.0
306.561371 52.0
308.449524 44.0
309.187531 96.0
309.737213 72.0
311.333069 96.0
311.691376 124.0
311.751099 44.0
311.947937 72.0
312.876648 48.0
313.320404 32.0
313.669281 56.0
314.053619 80.0
314.851257 80.0
316.902893 60.0
318.083862 68.0
319.035889 68.0
319.733032 44.0
320.794464 44.0
321.871948 56.0
322.069702 604.0
322.175507 116.0
323.072906 176.0
324.072479 260.0
324.22937 112.0
324.519714 52.0
325.775818 76.0
325.840485 168.0
326.836426 168.0
327.909576 44.0
328.035736 52.0
330.361328 164.0
330.933136 84.0
331.103333 48.0
332.956573 80.0
333.159973 48.0
333.290771 64.0
334.574646 64.0
335.059021 88.0
335.91571 52.0
337.215576 84.0
337.47879 68.0
339.448761 52.0
340.138489 64.0
340.817902 108.0
347.326569 84.0
348.473663 52.0
349.831116 60.0
353.133392 56.0
355.591187 56.0
356.541351 64.0
356.567657 100.0
362.989166 96.0
364.435364 44.0
366.211884 216.0
368.260071 52.0
369.322632 44.0
370.486328 84.0
371.816833 44.0
373.484314 36.0
375.587402 128.0
376.092865 80.0
379.020447 88.0
380.637939 44.0
384.499695 48.0
387.256042 44.0
387.58902 96.0
388.118195 132.0
388.851776 68.0
389.26004 100.0
390.073334 44.0
390.411469 76.0
393.082306 92.0
397.141388 52.0
398.220947 40.0
399.890839 100.0
401.085754 124.0
401.604095 88.0
407.59317 76.0
409.955261 72.0
410.55191 148.0
410.632568 80.0
411.649567 72.0
412.275696 136.0
413.060089 216.0
415.851837 96.0
420.393677 116.0
420.475311 92.0
422.170715 60.0
422.211609 92.0
424.738678 80.0
425.374725 52.0
427.433777 48.0
432.71286 52.0
434.129944 48.0
434.914093 76.0
445.281311 36.0
451.104462 52.0
459.63269 96.0
460.977783 76.0
461.77951 120.0
462.49176 56.0
464.806 36.0
471.05304 128.0
472.834442 56.0
474.11203 72.0
475.534546 60.0
478.891083 116.0
484.758362 152.0
493.044983 116.0
495.283722 64.0
499.749725 68.0
510.741547 56.0
516.922363 52.0
519.963196 44.0
520.630554 64.0
524.967468 48.0
525.044983 76.0
528.036377 56.0
539.51825 64.0
540.637573 48.0
543.478149 120.0
543.621948 48.0
546.772827 76.0
550.830322 68.0
555.986328 44.0
557.867676 80.0
565.182678 28.0
566.948975 72.0
593.148499 64.0
597.086182 72.0
601.93988 48.0
606.857422 116.0
612.883362 56.0
612.922791 52.0
617.414978 60.0
619.766296 72.0
620.187561 76.0
624.034851 52.0
628.203247 68.0
633.872925 72.0
636.506409 60.0
637.269897 28.0
640.157104 152.0
645.238159 80.0
645.278564 28.0
645.470703 104.0
648.315674 100.0
648.690735 60.0
654.528259 204.0
659.221252 72.0
663.536133 136.0
663.79248 84.0
664.951904 76.0
666.636353 56.0
676.373779 120.0
679.151062 100.0
682.516296 96.0
683.900085 124.0
684.337402 64.0
685.019592 68.0
690.834961 148.0
691.457581 104.0
694.868896 52.0
703.394226 212.0
703.710938 80.0
708.624451 84.0
709.461792 52.0
709.594299 116.0
713.937805 52.0
716.114563 88.0
718.641357 100.0
720.894714 184.0
723.75647 200.0
728.443848 216.0
733.981873 56.0
746.805969 44.0
756.611938 76.0
760.125244 188.0
760.196594 92.0
771.200317 188.0
772.516357 148.0
772.593811 56.0
775.140686 228.0
776.792847 48.0
781.531799 152.0
782.10498 124.0
782.44458 268.0
787.122498 52.0
792.968506 68.0
793.377686 56.0
794.510559 212.0
795.262451 60.0
797.67218 152.0
797.762085 56.0
802.547546 148.0
803.145325 36.0
803.636108 100.0
804.245605 152.0
808.195862 140.0
816.273193 148.0
816.989807 52.0
817.422241 108.0
817.871826 160.0
819.118835 36.0
819.637268 36.0
823.779297 136.0
825.642639 80.0
826.918457 132.0
827.548157 96.0
829.765381 160.0
830.723145 180.0
830.791931 144.0
834.904541 120.0
835.169067 72.0
838.128174 104.0
838.537292 108.0
838.733276 220.0
838.813965 144.0
838.955261 124.0
842.380127 104.0
843.426025 212.0
843.645691 68.0
844.588257 148.0
845.97699 104.0
847.633423 88.0
848.35791 212.0
849.142334 160.0
850.881531 224.0
851.468872 112.0
851.706116 144.0
853.263489 160.0
854.287048 36.0
858.451477 44.0
863.696106 136.0
864.275269 76.0
865.63916 128.0
870.576721 188.0
877.254761 240.0
877.6203 156.0
877.73822 48.0
879.177612 196.0
881.516113 200.0
882.219421 124.0
883.112305 60.0
884.289734 156.0
884.354858 172.0
884.751465 164.0
885.941772 64.0
886.658752 148.0
890.788391 144.0
892.482117 56.0
893.927612 92.0
894.290588 176.0
894.344177 88.0
895.302734 168.0
896.947144 164.0
897.108093 152.0
897.561218 232.0
898.085999 172.0
898.145691 160.0
898.390259 132.0
900.443542 172.0
901.034912 132.0
902.134521 104.0
903.30658 132.0
905.371521 192.0
906.923218 160.0
907.276917 32.0
910.625183 132.0
917.23175 152.0
917.647766 132.0
919.246155 204.0
919.300476 200.0
919.596191 148.0
920.489685 176.0
921.764221 144.0
922.018066 64.0
922.942932 68.0
924.939331 164.0
927.96228 72.0
929.284485 128.0
930.000549 172.0
930.304077 192.0
931.087341 92.0
932.053223 120.0
933.189819 128.0
934.071655 104.0
934.582703 88.0
935.349487 184.0
936.299316 232.0
939.767761 68.0
940.371948 144.0
940.500122 52.0
940.87854 128.0
945.860718 180.0
946.34436 236.0
946.411682 112.0
946.650513 148.0
946.693359 200.0
947.416138 172.0
947.857239 180.0
948.065613 124.0
948.733704 148.0
950.088989 124.0
950.150391 216.0
950.414185 152.0
950.886719 68.0
951.70929 180.0
951.776855 200.0
953.625916 120.0
953.841064 140.0
954.55426 200.0
955.396851 144.0
956.110657 76.0
958.629333 108.0
958.721802 92.0
958.986816 172.0
959.757385 196.0
961.120544 136.0
961.898193 148.0
963.411072 172.0
964.881958 48.0
966.248718 136.0
966.322998 92.0
966.434326 124.0
967.406006 168.0
968.601135 144.0
968.898499 172.0
969.103516 128.0
970.094543 172.0
970.16272 44.0
971.322327 208.0
971.384338 164.0
975.886841 120.0
976.228882 100.0
976.589539 104.0
978.537354 88.0
978.887695 208.0
979.826538 60.0
980.144287 136.0
980.268921 184.0
981.64032 128.0
985.304138 224.0
985.941528 192.0
986.854126 48.0
987.279358 44.0
988.793335 140.0
989.200195 192.0
989.481873 184.0
990.252075 116.0
990.320984 140.0
991.17926 164.0
991.235657 140.0
991.987732 184.0
993.50531 28.0
994.440308 104.0
994.785522 188.0
995.608032 124.0
996.035095 52.0
997.121704 132.0
998.002136 164.0
998.882629 116.0
999.5495 140.0
1000.462097 180.0
1000.720276 168.0
1004.697083 68.0
1005.504761 200.0
1005.555237 76.0
1005.750854 44.0
1006.211731 180.0
1006.622131 124.0
1007.386353 200.0
1007.626404 180.0
1008.201416 192.0
1008.77655 156.0
1008.903015 96.0
1009.370911 36.0
1009.838867 152.0
1010.091858 164.0
1012.953064 200.0
1013.78302 148.0
1013.884399 260.0
1013.998474 140.0
1014.530945 160.0
1017.480957 148.0
1017.811096 160.0
1019.704163 128.0
1020.823059 192.0
1021.709473 164.0
1022.063477 88.0
1022.661682 128.0
1022.833496 264.0
1022.935364 144.0
1024.030518 208.0
1024.438232 92.0
1024.603882 168.0
1025.648926 252.0
1026.139771 120.0
1026.675415 188.0
1026.943237 64.0
1027.421631 152.0
1028.021484 156.0
1028.219238 164.0
1028.480957 176.0
1028.800171 140.0
1029.572754 172.0
1029.834595 68.0
1030.971802 180.0
1031.125122 88.0
1031.502319 116.0
1031.681274 216.0
1032.429321 140.0
1033.222534 120.0
1034.662476 60.0
1035.629395 300.0
1036.054688 176.0
1036.885132 224.0
1036.949219 152.0
1037.301758 140.0
1037.628784 148.0
1039.129517 60.0
1039.174438 172.0
1039.388794 148.0
1039.713379 64.0
1040.759766 92.0
1042.892578 116.0
1043.374634 92.0
1043.471069 172.0
1043.901978 396.0
1044.15271 140.0
1044.210571 156.0
1044.622314 152.0
1044.699463 132.0
1045.079102 164.0
1045.323608 108.0
1045.838379 112.0
1046.095947 104.0
1046.945801 124.0
1050.006958 220.0
1050.161743 112.0
1050.63916 196.0
1050.832642 128.0
1052.033081 208.0
1052.672241 128.0
1054.849609 124.0
1055.399048 152.0
1055.884033 152.0
1056.026367 180.0
1056.589111 68.0
1057.004761 200.0
1057.067871 204.0
1057.773438 136.0
1058.077637 148.0
1058.297729 60.0
1058.563232 140.0
1059.813354 196.0
1059.897583 200.0
1060.007812 168.0
1062.114868 152.0
1062.66626 32.0
1063.769531 128.0
1064.509644 160.0
1065.412476 108.0
1065.55542 60.0
1065.841309 120.0
1066.868164 76.0
1067.407837 104.0
1067.589844 116.0
1067.928101 164.0
1068.50708 36.0
1068.578613 36.0
1068.656738 180.0
1068.968994 212.0
1069.678467 96.0
1070.095093 176.0
1070.192749 136.0
1070.94165 168.0
1071.202148 180.0
1071.293335 40.0
1071.599609 124.0
1071.662109 180.0
1072.655273 188.0
1073.301392 176.0
1075.179443 108.0
1076.968384 144.0
1078.119019 180.0
1078.373169 96.0
1078.497314 224.0
1078.68689 228.0
1079.020264 156.0
1079.478027 96.0
1080.701172 148.0
1081.859497 140.0
1082.114868 240.0
1082.900635 104.0
1083.359253 160.0
1083.568848 140.0
1085.043457 84.0
1085.150269 204.0
1085.233643 148.0
1085.561401 92.0
1085.830322 176.0
1085.882812 68.0
1086.174927 160.0
1086.387817 44.0
1086.624023 176.0
1086.792969 160.0
1086.958618 156.0
1087.168701 156.0
1087.660889 156.0
1087.956299 92.0
1088.100708 164.0
1090.195557 168.0
1090.675781 92.0
1090.767822 148.0
1091.477905 88.0
1091.602783 140.0
1093.339478 192.0
1093.62915 180.0
1094.03064 136.0
1094.27063 132.0
1095.196167 128.0
1095.492554 188.0
1095.657349 168.0
1096.596924 244.0
1097.239014 160.0
1097.423584 156.0
1097.707153 220.0
1098.366699 148.0
1099.065918 188.0
1099.956909 216.0
1100.2948 180.0
1100.445435 176.0
1100.890503 188.0
1100.980225 204.0
1101.092529 216.0
1101.878662 84.0
1102.175903 80.0
1102.394043 152.0
1102.70459 112.0
1103.907837 120.0
1104.07312 156.0
1104.582397 220.0
1104.681641 124.0
1104.906616 176.0
1105.316772 140.0
1105.389526 236.0
1106.30957 212.0
1106.693481 160.0
1106.859131 164.0
1107.852539 164.0
1108.203613 144.0
1110.324829 180.0
1110.709839 212.0
1111.518921 128.0
1111.757812 144.0
1112.069824 184.0
1112.195923 180.0
1112.434814 268.0
1112.81897 224.0
1113.424194 172.0
1114.11499 64.0
1114.892334 124.0
1116.567749 144.0
1116.900269 160.0
1117.479004 148.0
1117.93811 40.0
1118.324097 112.0
1118.670288 116.0
1118.756836 140.0
1119.047729 132.0
1119.895508 72.0
1120.062012 284.0
1120.108643 72.0
1120.621582 208.0
1121.62793 168.0
1121.701172 176.0
1121.994507 144.0
1122.26123 136.0
1122.354492 52.0
1123.183594 164.0
1123.875366 84.0
1124.410034 164.0
1124.489258 124.0
1124.849731 168.0
1125.09668 196.0
1126.679443 96.0
1127.447876 200.0
1128.938599 116.0
1129.045654 204.0
1129.386719 164.0
1130.289917 120.0
1130.504028 136.0
1130.60437 176.0
1131.320557 132.0
1131.414307 204.0
1132.619629 132.0
1133.12207 128.0
1133.731812 176.0
1133.865845 216.0
1133.993164 144.0
1134.536133 188.0
1135.119507 152.0
1135.17981 180.0
1136.092041 92.0
1136.165771 164.0
1136.595215 48.0
1136.937378 128.0
1137.017944 152.0
1137.111938 60.0
1138.004761 156.0
1138.083984 140.0
1138.756836 84.0
1138.924805 164.0
1139.267334 156.0
1139.737671 128.0
1140.900391 200.0
1141.229858 164.0
1142.130981 84.0
1142.7229 232.0
1142.77002 92.0
1143.099731 156.0
1143.294922 156.0
1143.947754 136.0
1144.156494 152.0
1144.856689 160.0
1145.139404 188.0
1145.476318 144.0
1145.697388 152.0
1145.853638 252.0
1146.143311 132.0
1146.230957 168.0
1146.77002 160.0
1147.295898 168.0
1147.471069 32.0
1147.612671 80.0
1147.745117 120.0
1147.922852 180.0
1148.246582 200.0
1148.455688 160.0
1148.752441 152.0
1149.089722 100.0
1149.143799 156.0
1149.19104 328.0
1149.622803 128.0
1150.149292 140.0
1150.223511 152.0
1150.399048 160.0
1150.649536 196.0
1150.743286 212.0
1150.797363 128.0
1151.533447 176.0
1152.242676 176.0
1152.843994 152.0
1153.11438 124.0
1153.222534 124.0
1153.49292 176.0
1153.648315 148.0
1154.087769 208.0
1154.351562 208.0
1155.778809 200.0
1155.907349 184.0
1156.746582 176.0
1156.915771 144.0
1157.599609 204.0
1157.687622 144.0
1157.938232 56.0
1158.107544 152.0
1158.175293 176.0
1158.480103 200.0
1158.547852 208.0
1158.794922 184.0
1158.845947 96.0
1159.191528 92.0
1159.903198 92.0
1160.384521 204.0
1160.88623 160.0
1160.947266 136.0
1161.439331 172.0
1161.822266 176.0
1162.025757 196.0
1163.213379 120.0
1164.19104 164.0
1164.262451 172.0
1164.455933 180.0
1164.612183 140.0
1165.440918 144.0
1165.542847 140.0
1165.651611 132.0
1165.787476 196.0
1166.072998 164.0
1166.188477 204.0
1166.38562 192.0
1167.38501 144.0
1168.167236 232.0
1168.475098 184.0
1168.765869 200.0
1168.942749 176.0
1169.004028 156.0
1169.119751 232.0
1169.269409 120.0
1169.364746 216.0
1169.657471 84.0
1169.813965 100.0
1170.154419 144.0
1170.54248 164.0
1170.610596 80.0
1170.944214 144.0
1171.196289 192.0
1171.803589 184.0
1172.504395 168.0
1172.640747 68.0
1172.879272 152.0
1173.145142 144.0
1173.281494 160.0
1173.376953 116.0
1173.840576 148.0
1174.120117 108.0
1174.274658 156.0
1174.324707 188.0
1174.433838 92.0
1174.754517 100.0
1174.849976 56.0
1175.232056 64.0
1175.395874 56.0
1175.982666 224.0
1176.945312 232.0
1177.061401 172.0
1177.245728 136.0
1177.63501 96.0
1177.976562 232.0
1178.181519 128.0
1178.598267 204.0
1179.076538 124.0
1179.500366 160.0
1179.643921 156.0
1179.773804 144.0
1179.896851 172.0
1179.992554 140.0
1180.348145 140.0
1180.765259 188.0
1180.956787 200.0
1181.100342 124.0
1181.209839 44.0
1181.264526 168.0
1181.702393 152.0
1181.825562 188.0
1182.667236 188.0
1183.39978 148.0
1183.584595 168.0
1184.091431 104.0
1184.324219 128.0
1184.810669 232.0
1184.975098 188.0
1185.077759 224.0
1185.485229 152.0
1185.578003 200.0
1186.044067 104.0
1186.380005 152.0
1186.633667 152.0
1186.954712 164.0
1187.031372 80.0
1187.120483 140.0
1187.326172 196.0
1187.497681 152.0
1187.715088 188.0
1187.820068 196.0
1188.197388 184.0
1189.055054 180.0
1189.130615 132.0
1189.185425 148.0
1189.322754 48.0
1189.411987 144.0
1189.542358 168.0
1189.666016 116.0
1189.768921 52.0
1189.851318 92.0
1189.961182 164.0
1190.077881 120.0
1190.867554 164.0
1190.929443 116.0
1191.204224 120.0
1192.248535 176.0
1192.494629 180.0
1195.377441 160.0
1196.602661 156.0
1196.705933 180.0
1197.842285 156.0
1198.675903 140.0
1199.144531 204.0
1199.330566 176.0
1199.751099 200.0
1200.054443 132.0
1200.299316 156.0
1200.475098 96.0
1201.076904 140.0
1201.275146 96.0
1201.930542 152.0
1202.158325 152.0
1202.268677 140.0
1202.420532 232.0
1202.599976 116.0
1202.958862 216.0
1203.055542 68.0
1203.138428 108.0
1204.312256 152.0
1204.678345 192.0
1205.293335 176.0
1205.438354 164.0
1205.590454 116.0
1206.005127 112.0
1206.537354 148.0
1207.761353 140.0
1208.453125 152.0
1208.543091 128.0
1208.605347 156.0
1208.968262 176.0
1209.145142 200.0
1209.456543 168.0
1209.546509 108.0
1210.536621 156.0
1210.778931 148.0
1211.769531 164.0
1212.533691 156.0
1212.684204 164.0
1212.739624 96.0
1213.419067 140.0
1213.821167 140.0
1213.897461 240.0
1214.327393 204.0
1214.541016 256.0
1214.868408 156.0
1214.916992 216.0
1215.645508 72.0
1215.694092 160.0
1216.075806 168.0
1216.18689 216.0
1216.325684 156.0
1216.471436 236.0
1216.533936 104.0
1216.658936 148.0
1216.728271 108.0
1217.157837 176.0
1217.242065 200.0
1217.346313 48.0
1217.644897 140.0
1217.797729 156.0
1217.915771 164.0
1217.985229 100.0
1218.360352 120.0
1218.575684 128.0
1218.805054 152.0
1219.23584 204.0
1219.284546 96.0
1219.36792 132.0
1219.652832 124.0
1219.951782 144.0
1220.097778 144.0
1220.487061 120.0
1220.911255 60.0
1221.328613 140.0
1221.384277 156.0
1221.446777 140.0
1221.565063 192.0
1222.483521 88.0
1222.796631 116.0
1222.852295 124.0
1222.907959 316.0
1222.996582 244.0
1224.195923 108.0
1224.314331 128.0
1224.486206 260.0
1224.565063 76.0
1224.87854 168.0
1225.498535 132.0
1225.668823 148.0
1226.049072 160.0
1226.153564 160.0
1226.697266 208.0
1227.157349 172.0
1227.422363 152.0
1227.812866 132.0
1228.907959 160.0
1229.012695 124.0
1229.32666 156.0
1229.542969 132.0
1230.192139 140.0
1230.527222 168.0
1230.58313 156.0
1230.645874 180.0
1230.743652 124.0
1230.932251 212.0
1231.469971 148.0
1231.602661 228.0
1231.651489 112.0
1231.840088 244.0
1231.979858 192.0
1232.154541 76.0
1232.266235 192.0
1232.825317 172.0
1233.363403 192.0
1233.503296 180.0
1234.034546 348.0
1234.272339 156.0
1234.572998 208.0
1235.587158 168.0
1235.972046 200.0
1236.419922 144.0
1236.468872 172.0
1236.552856 152.0
1236.678833 144.0
1236.755859 108.0
1237.168823 128.0
1237.259766 116.0
1237.329834 164.0
1237.504883 132.0
1238.317139 124.0
1238.506226 152.0
1238.59729 136.0
1239.059692 164.0
1239.206787 164.0
1239.395996 208.0
1239.543091 120.0
1239.718384 160.0
1239.902222 200.0
1240.433228 224.0
1240.916992 52.0
1240.980103 76.0
1241.064209 204.0
1241.653198 68.0
1242.081055 128.0
1242.179321 60.0
1242.3125 144.0
1242.452881 128.0
1242.803711 120.0
1243.070312 140.0
1243.126465 168.0
1243.386108 148.0
1244.003784 156.0
1244.516235 92.0
1244.94458 140.0
1245.373047 168.0
1246.251099 136.0
1246.4198 152.0
1246.560303 168.0
1246.658691 136.0
1246.981934 72.0
1247.087402 144.0
1247.213867 140.0
1247.544312 128.0
1248.268433 144.0
1248.627075 168.0
1248.711548 220.0
1248.901489 196.0
1249.091309 172.0
1249.28833 160.0
1249.393799 36.0
1249.675293 212.0
1250.055176 72.0
1250.280396 120.0
1250.35083 100.0
1250.723877 208.0
1251.415649 188.0
1251.477051 60.0
1251.702393 140.0
1251.998169 88.0
1252.139038 148.0
1252.582764 168.0
1252.772949 188.0
1253.005371 72.0
1253.082886 176.0
1253.555054 148.0
1253.759399 192.0
1254.076538 64.0
1254.295044 228.0
1254.626343 104.0
1254.976196 96.0
1255.140991 76.0
1255.211548 120.0
1255.634644 164.0
1255.88147 108.0
1256.325928 172.0
1256.375366 180.0
1256.516357 184.0
1256.692749 144.0
1256.876221 124.0
1256.939697 148.0
1257.116211 60.0
1257.186768 152.0
1257.377319 140.0
1258.115234 144.0
1258.34436 164.0
1258.605591 192.0
1258.907959 220.0
1260.053467 172.0
1260.293701 124.0
1260.470337 196.0
1260.724731 344.0
1260.78125 140.0
1260.894409 220.0
1261.283081 152.0
1261.424438 120.0
1261.497437 160.0
1261.82605 212.0
1262.294067 92.0
1262.775024 36.0
1262.895264 172.0
1263.008423 132.0
1263.248901 168.0
1263.928101 164.0
1264.126221 140.0
1264.197021 156.0
1264.359741 184.0
1264.911865 204.0
1265.180786 192.0
1265.279907 160.0
1265.386108 128.0
1265.471069 152.0
1265.817993 164.0
1265.945557 136.0
1266.129639 180.0
1266.490845 132.0
1266.830811 240.0
1267.064575 200.0
1267.173462 192.0
1267.291382 84.0
1267.340942 108.0
1267.518066 180.0
1268.057495 168.0
1268.276367 140.0
1268.552856 28.0
1268.850586 196.0
1269.481689 244.0
1269.53125 124.0
1269.680176 124.0
1270.396606 164.0
1270.446289 156.0
1270.886108 188.0
1270.957031 164.0
1271.056396 260.0
1271.468018 120.0
1271.781128 132.0
1271.979004 192.0
1272.298462 228.0
1272.490112 128.0
1273.411133 220.0
1273.59082 92.0
1273.88208 128.0
1274.279907 172.0
1274.386841 184.0
1274.848389 184.0
1274.912354 168.0
1275.331665 112.0
1275.566284 152.0
1275.658691 144.0
1275.754883 204.0
1275.864746 120.0
1275.958984 136.0
1276.255859 228.0
1276.341187 288.0
1276.554443 252.0
1276.826538 184.0
1276.874512 192.0
1277.009644 92.0
1277.251465 180.0
1277.372437 208.0
1277.557373 144.0
1277.969971 188.0
1278.041138 132.0
1278.261719 132.0
1278.396973 160.0
1278.895142 156.0
1279.293579 160.0
1279.356201 120.0
1279.642578 184.0
1280.03418 132.0
1280.105347 84.0
1280.340454 124.0
1281.17041 128.0
1281.387451 56.0
1281.473022 116.0
1281.772217 176.0
1282.050171 104.0
1282.663086 248.0
1282.976807 196.0
1283.033813 100.0
1283.254761 168.0
1283.561401 156.0
1283.958618 184.0
1284.203247 196.0
1284.552734 216.0
1284.945068 88.0
1285.052124 168.0
1285.373169 220.0
1285.71582 188.0
1285.951294 168.0
1286.046143 168.0
1286.284302 220.0
1287.007812 164.0
1287.293457 116.0
1288.25769 124.0
1288.40271 128.0
1289.165039 180.0
1289.543823 132.0
1289.786865 76.0
1290.079956 52.0
1291.424194 156.0
1291.831909 128.0
1291.88916 140.0
1292.124268 144.0
1292.390015 192.0
1292.504395 200.0
1292.676147 188.0
1292.762085 168.0
1292.862305 140.0
1292.983887 168.0
1293.318481 168.0
1293.493286 120.0
1293.556519 132.0
1293.807007 208.0
1294.050537 124.0
1294.151367 140.0
1294.243774 304.0
1294.379883 188.0
1294.514648 68.0
1294.852539 164.0
1294.988525 92.0
1295.232056 204.0
1295.461304 160.0
1295.948486 168.0
1296.041626 164.0
1296.47876 168.0
1296.550415 128.0
1297.073608 188.0
1297.238525 64.0
1297.769043 112.0
1297.912476 92.0
1298.227905 136.0
1298.392944 172.0
1298.548706 200.0
1298.563721 152.0
1299.138794 148.0
1299.641113 132.0
1299.782715 212.0
1299.928101 116.0
1300.260132 208.0
1300.545654 144.0
1300.617065 148.0
1300.717529 152.0
1300.975952 96.0
1301.248779 180.0
1301.399536 100.0
1301.478516 128.0
1302.045776 216.0
1302.096069 144.0
1302.146362 176.0
1302.25415 176.0
1302.498291 164.0
1302.749756 112.0
1302.826294 176.0
1303.310181 136.0
1303.568848 136.0
1303.703491 76.0
1303.834717 156.0
1304.970459 200.0
1305.071167 132.0
1305.365967 132.0
1305.445068 164.0
1305.596069 176.0
1305.725464 116.0
1305.797363 96.0
1305.962891 152.0
1306.069946 156.0
1306.401611 188.0
1306.610229 112.0
1306.75415 152.0
1307.113892 212.0
1307.329834 44.0
1307.826416 172.0
1307.951294 168.0
1308.481445 148.0
1308.992676 192.0
1309.064697 132.0
1309.287964 172.0
1309.446411 108.0
1309.57605 200.0
1309.72583 120.0
1310.188232 236.0
1310.44043 36.0
1310.584595 176.0
1310.995239 116.0
1311.189819 164.0
1311.348389 216.0
1311.434937 192.0
1311.622314 152.0
1311.752075 136.0
1311.902588 160.0
1312.263916 192.0
1312.393677 236.0
1312.451416 228.0
1312.509033 168.0
1312.573975 168.0
1312.638794 176.0
1313.453857 140.0
1313.562012 144.0
1313.922729 172.0
1314.225708 76.0
1314.586548 120.0
1315.199951 200.0
1316.037354 124.0
1316.395508 120.0
1316.592041 176.0
1316.737793 108.0
1316.911133 108.0
1317.221802 144.0
1317.30127 84.0
1317.749146 144.0
1317.814209 120.0
1318.023682 160.0
1318.883667 216.0
1319.310181 136.0
1319.440308 108.0
1319.55603 196.0
1319.654297 200.0
1319.852417 136.0
1320.32251 144.0
1320.633423 212.0
1320.886597 144.0
1320.980713 164.0
1321.241089 128.0
1321.49353 176.0
1321.581177 140.0
1321.72583 152.0
1321.791016 180.0
1322.377197 208.0
1322.885254 120.0
1323.035889 168.0
1323.187866 56.0
1323.376099 100.0
1323.477539 200.0
1323.658569 228.0
1324.281372 124.0
1324.556641 184.0
1324.695923 100.0
1325.244263 208.0
1325.457153 188.0
1325.556396 136.0
1325.610962 196.0
1325.71582 224.0
1326.070923 184.0
1326.302856 60.0
1326.774048 168.0
1326.839233 112.0
1326.911743 164.0
1326.962524 152.0
1327.085815 192.0
1327.252563 176.0
1327.332275 92.0
1327.491821 168.0
1327.723877 132.0
1327.970459 156.0
1328.046509 176.0
1328.097656 148.0
1328.311401 116.0
1328.529053 124.0
1329.07312 168.0
1329.131226 148.0
1329.356201 104.0
1329.414185 92.0
1329.769775 108.0
1330.03894 144.0
1330.17627 156.0
1330.532471 204.0
1330.648193 164.0
1330.793335 188.0
1331.446899 132.0
1331.584961 148.0
1331.643066 116.0
1331.853638 28.0
1331.998901 168.0
1332.078857 56.0
1332.311279 136.0
1332.674561 52.0
1332.841675 128.0
1332.964111 132.0
1332.990356 112.0
1333.066895 200.0
1333.255859 64.0
1333.50293 216.0
1333.808228 120.0
1333.910034 100.0
1334.128052 172.0
1334.658813 164.0
1335.313354 196.0
1335.579102 252.0
1335.684204 136.0
1336.229858 184.0
1336.38269 156.0
1336.491821 128.0
1336.557251 128.0
1336.855591 160.0
1337.057495 152.0
1337.27771 172.0
1337.382812 164.0
1338.016357 144.0
1338.078491 136.0
1338.32605 100.0
1338.580811 112.0
1338.72644 168.0
1339.004395 340.0
1339.134277 100.0
1339.309082 128.0
1339.46936 140.0
1339.686768 124.0
1339.789917 160.0
1339.869995 172.0
1340.103149 144.0
1340.329102 124.0
1340.453003 76.0
1340.686157 124.0
1341.210938 172.0
1341.312988 124.0
1341.524292 140.0
1341.575317 104.0
1341.881592 188.0
1341.990967 160.0
1342.071167 212.0
1342.275269 120.0
1342.442993 100.0
1342.742065 164.0
1342.865967 112.0
1342.931641 144.0
1343.223389 52.0
1343.376587 172.0
1343.522461 108.0
1343.785156 120.0
1344.332397 192.0
1344.441895 192.0
1345.821533 156.0
1346.055176 156.0
1346.296143 116.0
1346.430176 312.0
1346.512939 220.0
1346.675903 188.0
1346.792725 132.0
1347.201782 144.0
1347.567139 172.0
1348.224731 112.0
1348.429321 260.0
1348.824097 176.0
1349.08728 144.0
1349.182251 192.0
1349.474731 160.0
1349.577026 140.0
1349.767212 156.0
1349.818359 168.0
1350.169312 104.0
1350.29541 200.0
1351.054443 224.0
1351.376343 40.0
1351.42749 160.0
1351.530029 300.0
1352.261719 188.0
1352.324951 160.0
1352.444702 144.0
1352.77417 188.0
1353.118286 160.0
1353.19873 72.0
1353.264648 172.0
1353.455078 140.0
1353.594116 108.0
1353.747925 144.0
1353.850464 112.0
1354.099487 40.0
1354.238647 116.0
1354.355835 136.0
1354.577271 420.0
1354.641235 188.0
1354.809937 156.0
1355.007812 116.0
1355.52063 200.0
1355.64209 136.0
1355.909058 172.0
1356.180298 148.0
1356.664062 188.0
1356.942627 148.0
1357.089233 184.0
1357.147949 216.0
1357.312744 264.0
1357.573242 120.0
1358.055298 132.0
1358.406006 228.0
1358.570679 132.0
1358.629395 96.0
1358.818359 144.0
1359.157715 168.0
1359.226196 152.0
1359.641968 168.0
1359.766724 212.0
1359.832764 132.0
1359.964966 112.0
1360.119019 96.0
1360.677002 120.0
1360.743042 124.0
1360.882568 144.0
1361.017822 92.0
1361.345093 136.0
1361.75647 132.0
1362.028198 160.0
1362.211792 184.0
1362.549805 116.0
1363.125854 324.0
1363.750977 152.0
1363.857788 92.0
1363.945923 84.0
1364.004761 92.0
1364.203247 148.0
1364.497314 132.0
1364.671997 132.0
1364.901733 64.0
1365.269409 172.0
1365.585693 196.0
1365.746826 240.0
1365.928345 204.0
1366.108154 132.0
1366.218262 152.0
1366.404785 216.0
1366.895142 176.0
1366.987305 84.0
1367.218872 60.0
1367.388184 72.0
1367.800659 100.0
1367.904663 160.0
1368.011963 184.0
1368.124268 144.0
1368.26416 156.0
1368.315674 108.0
1368.389282 120.0
1368.490479 176.0
1368.757446 172.0
1368.845825 112.0
1369.004395 140.0
1369.54541 76.0
1369.597046 128.0
1369.883179 204.0
1370.532593 76.0
1370.628418 172.0
1370.775757 200.0
1371.24939 192.0
1371.343262 132.0
1371.520142 184.0
1371.719116 204.0
1371.866577 176.0
1372.220459 116.0
1372.345825 148.0
1372.419556 124.0
1372.648071 108.0
1372.721802 184.0
1372.773438 136.0
1372.832397 52.0
1372.928345 136.0
1373.120972 32.0
1373.33374 168.0
1373.415039 152.0
1373.498657 172.0
1373.695435 124.0
1373.783936 188.0
1374.012573 96.0
1374.115845 180.0
1374.301636 180.0
1374.475708 164.0
1374.903687 304.0
1375.244995 232.0
1375.419922 164.0
1375.584473 144.0
1375.641113 312.0
1375.754272 124.0
1375.887207 176.0
1376.064331 92.0
1376.138184 72.0
1376.5 152.0
1376.717529 372.0
1376.824951 32.0
1377.349243 28.0
1377.625122 184.0
1378.036377 136.0
1378.191528 140.0
1378.265381 180.0
1378.413208 180.0
1379.115234 32.0
1379.758301 144.0
1380.120605 100.0
1380.202026 172.0
1380.386841 48.0
1380.475586 100.0
1380.549561 168.0
1380.623413 200.0
1381.022827 112.0
1381.21521 180.0
1381.481445 136.0
1381.697388 168.0
1381.807007 212.0
1382.324951 192.0
1382.435913 136.0
1382.828125 196.0
1382.953979 168.0
1383.0354 80.0
1383.227783 176.0
1383.309326 232.0
1383.598022 152.0
1383.916382 100.0
1384.227295 116.0
1384.323608 132.0
1384.501465 164.0
1384.59021 156.0
1384.856812 164.0
1385.160522 152.0
1385.291382 60.0
1385.584717 164.0
1385.871704 56.0
1386.064331 120.0
1386.13623 208.0
1386.221802 164.0
1386.286621 104.0
1386.516357 144.0
1386.612793 128.0
1386.716553 192.0
1386.790649 60.0
1386.86377 220.0
1386.924072 124.0
1386.990723 304.0
1387.116699 232.0
1387.213135 80.0
1387.339111 168.0
1387.598633 172.0
1387.702637 156.0
1387.813599 176.0
1388.02124 192.0
1388.878052 120.0
1388.948242 156.0
1389.015015 164.0
1389.244995 132.0
1389.356323 112.0
1389.423096 108.0
1389.534302 192.0
1389.779175 148.0
1389.91272 120.0
1390.032959 156.0
1390.217041 196.0
1390.380249 196.0
1390.475098 188.0
1390.580688 204.0
1390.640015 184.0
1390.810669 164.0
1390.862305 84.0
1392.161987 108.0
1392.437378 140.0
1392.588501 232.0
1392.837769 224.0
1393.030884 116.0
1393.209229 136.0
1393.366089 132.0
1393.551025 168.0
1393.640137 348.0
1393.929932 184.0
1394.175171 168.0
1394.346558 216.0
1394.806885 136.0
1394.911011 136.0
1395.126587 140.0
1395.237671 144.0
1395.304932 136.0
1395.394165 180.0
1395.587524 136.0
1395.743652 240.0
1395.892334 200.0
1396.370972 152.0
1396.502197 92.0
1396.673218 164.0
1396.837891 156.0
1397.002441 124.0
1397.19397 164.0
1397.417236 212.0
1397.491577 288.0
1397.97522 192.0
1398.220825 168.0
1398.503662 120.0
1398.749268 68.0
1398.831177 140.0
1398.883301 136.0
1399.017212 32.0
1399.136353 268.0
1399.210815 96.0
1399.415527 276.0
1399.925659 104.0
1400.007568 160.0
1400.372437 148.0
1401.027954 220.0
1401.154663 116.0
1401.370728 104.0
1401.638916 168.0
1402.015991 160.0
1402.14563 132.0
1402.227661 188.0
1402.302124 148.0
1402.710449 148.0
1402.877197 172.0
1403.0625 64.0
1403.248901 156.0
1403.360718 108.0
1403.457642 192.0
1403.532227 188.0
1403.696289 72.0
1403.919922 60.0
1404.069092 196.0
1404.419678 172.0
1404.688232 196.0
1404.829956 128.0
1404.934326 136.0
1404.994019 168.0
1405.046265 172.0
1405.262573 160.0
1405.379517 264.0
1405.550537 252.0
1406.046143 120.0
1406.158081 124.0
1406.404419 108.0
1406.911987 212.0
1407.133545 176.0
1407.695923 92.0
1407.755249 140.0
1407.852783 152.0
1407.949829 128.0
1408.013428 132.0
1408.204346 164.0
1408.37561 156.0
1408.532471 184.0
1408.592163 152.0
1408.82373 132.0
1409.047852 132.0
1409.300049 160.0
1409.390503 160.0
1409.481201 144.0
1409.735352 116.0
1409.892212 160.0
1409.979492 188.0
1410.264893 204.0
1410.497681 120.0
1410.617188 92.0
1410.87146 104.0
1410.938721 36.0
1411.05835 128.0
1411.162964 180.0
1411.260132 136.0
1411.373413 172.0
1411.68689 68.0
1411.880859 120.0
1411.993042 176.0
1412.075317 144.0
1412.158325 124.0
1412.307495 148.0
1412.479126 192.0
1413.459229 140.0
1414.020508 132.0
1414.319946 132.0
1414.596802 224.0
1414.744507 280.0
1415.414185 172.0
1415.555176 180.0
1415.94458 236.0
1416.130615 180.0
1416.304077 192.0
1416.371094 208.0
1416.74231 212.0
1416.96106 188.0
1417.045776 164.0
1417.248047 132.0
1417.712646 104.0
1417.872314 320.0
1417.967407 280.0
1418.079834 48.0
1418.342163 136.0
1418.432129 104.0
1418.529541 236.0
1418.582031 156.0
1418.702026 224.0
1418.822876 156.0
1418.941895 88.0
1419.406738 172.0
1419.567871 80.0
1419.804199 180.0
1419.864258 96.0
1419.946655 180.0
1420.126709 112.0
1420.209229 96.0
1420.351685 220.0
1420.824341 120.0
1420.93689 164.0
1421.004395 128.0
1421.304565 140.0
1421.5896 136.0
1421.682739 136.0
1422.009888 188.0
1422.0625 252.0
1422.137329 176.0
1422.400269 76.0
1422.602905 168.0
1422.723022 248.0
1423.053345 28.0
1423.660767 156.0
1423.72168 156.0
1423.931885 88.0
1424.14978 104.0
1424.435181 228.0
1424.547852 184.0
1424.833374 84.0
1425.126343 140.0
1425.577148 160.0
1425.900391 144.0
1426.238525 176.0
1426.30835 184.0
1426.43396 88.0
1426.535767 176.0
1426.666992 168.0
1426.802368 120.0
1426.937622 160.0
1427.148193 156.0
1427.336182 100.0
1427.591797 212.0
1427.862549 148.0
1427.975342 188.0
1428.028076 116.0
1428.110718 172.0
1428.246216 264.0
1428.381592 156.0
1428.464355 100.0
1428.577148 188.0
1428.825439 180.0
1428.968384 212.0
1429.07373 200.0
1429.314453 140.0
1429.577881 72.0
1429.720825 148.0
1429.931519 304.0
1430.330444 172.0
1430.586426 204.0
1430.691772 176.0
1430.782104 128.0
1430.985352 204.0
1431.211304 120.0
1431.294067 136.0
1431.399536 108.0
1431.474854 208.0
1431.813721 180.0
1431.986938 140.0
1432.476562 164.0
1432.536743 112.0
1432.815552 136.0
1432.918213 132.0
1432.94812 152.0
1433.184692 160.0
1433.39563 92.0
1433.621704 176.0
1433.689575 104.0
1433.855347 56.0
1434.040161 152.0
1434.164429 120.0
1434.480957 112.0
1435.091675 240.0
1435.234863 144.0
1435.310303 172.0
1435.438477 36.0
1435.732544 180.0
1436.019165 180.0
1436.079468 268.0
1436.275635 144.0
1436.366089 104.0
1436.486816 112.0
1436.686523 208.0
1436.811157 172.0
1436.91687 124.0
1437.022461 60.0
1437.278931 208.0
1437.444946 152.0
1437.527954 116.0
1437.784546 180.0
1437.940308 216.0
1438.751709 160.0
1438.895386 120.0
1439.135742 96.0
1439.525024 192.0
1439.777588 56.0
1440.125 116.0
1440.457397 128.0
1440.900391 180.0
1441.144897 124.0
1441.228027 124.0
1441.296021 156.0
1441.371582 128.0
1441.699829 160.0
1441.756958 268.0
1441.862793 212.0
1441.915649 228.0
1442.301147 88.0
1442.520386 132.0
1442.588379 124.0
1442.852905 80.0
1443.076904 148.0
1443.09729 216.0
1443.208252 164.0
1443.321777 132.0
1443.404907 100.0
1443.820801 144.0
1444.078003 136.0
1444.17627 152.0
1444.433472 84.0
1444.494019 152.0
1444.773926 56.0
1444.978149 200.0
1445.071167 152.0
1445.28833 100.0
1445.901245 48.0
1446.006592 136.0
1446.226807 136.0
1446.294922 240.0
1446.363037 188.0
1446.636108 148.0
1447.233643 76.0
1447.506226 208.0
1447.569092 172.0
1447.657837 124.0
1447.983276 92.0
1448.089355 124.0
1448.452881 104.0
1448.85437 88.0
1448.907349 68.0
1449.293823 160.0
1449.536255 136.0
1449.665039 136.0
1449.910278 112.0
1450.248657 92.0
1450.733765 128.0
1450.915771 120.0
1451.059814 200.0
1451.272095 188.0
1451.393433 152.0
1451.552612 180.0
1451.628418 124.0
1452.037964 256.0
1452.265503 104.0
1452.401978 172.0
1452.61438 168.0
1452.762573 120.0
1452.978516 188.0
1453.054443 64.0
1453.165894 156.0
1453.418579 232.0
1453.52478 144.0
1453.813232 104.0
1453.980103 184.0
1454.048462 168.0
1454.291382 164.0
1454.754395 192.0
1455.199341 144.0
1455.27063 180.0
1455.574341 324.0
1455.627441 136.0
1455.749023 108.0
1455.817383 184.0
1456.348999 168.0
1456.554077 168.0
1456.607178 144.0
1456.887451 180.0
1457.359375 180.0
1457.594849 152.0
1457.731689 92.0
1457.982422 132.0
1458.105957 140.0
1458.290771 212.0
1458.511719 236.0
1458.993408 116.0
1459.244263 160.0
1459.338867 152.0
1459.616821 44.0
1459.708008 144.0
1460.103516 136.0
1460.202393 144.0
1460.255615 188.0
1460.354492 168.0
1460.711914 108.0
1460.9021 172.0
1461.099976 272.0
1461.282593 356.0
1461.335815 124.0
1461.754272 124.0
1461.838013 132.0
1461.921753 32.0
1462.454468 84.0
1462.522949 168.0
1462.653198 108.0
1463.19812 160.0
1463.369751 204.0
1463.45166 356.0
1463.565918 136.0
1463.716553 128.0
1464.132935 148.0
1464.441162 164.0
1464.571167 132.0
1464.626709 224.0
1464.769165 76.0
1464.977173 176.0
1465.172974 184.0
1465.262939 188.0
1465.538696 116.0
1465.592041 36.0
1466.003418 140.0
1466.100464 164.0
1466.315552 168.0
1466.437866 184.0
1466.948608 172.0
1467.314453 52.0
1467.558472 36.0
1467.698975 140.0
1467.727173 60.0
1467.753662 148.0
1467.840576 100.0
1467.901611 144.0
1468.648926 304.0
1469.015137 196.0
1469.160034 192.0
1469.282104 128.0
1469.381348 92.0
1469.495728 172.0
1469.616577 200.0
1469.877197 332.0
1470.029907 124.0
1470.257324 284.0
1470.434326 244.0
1470.640381 140.0
1470.735474 116.0
1470.766602 52.0
1470.797974 144.0
1470.887695 164.0
1471.067871 168.0
1471.151855 152.0
1471.243408 124.0
1471.335083 36.0
1471.46814 184.0
1471.594604 116.0
1471.693848 308.0
1471.777832 148.0
1471.846558 160.0
1472.029907 136.0
1472.098633 48.0
1472.1521 192.0
1472.28186 256.0
1472.594971 160.0
1473.473511 32.0
1473.593628 168.0
1473.771484 180.0
1473.939575 76.0
1474.035156 176.0
1474.184082 124.0
1474.245239 184.0
1474.302612 232.0
1474.359863 128.0
1474.499756 376.0
1474.680786 184.0
1474.749634 96.0
1474.841309 132.0
1475.7052 156.0
1475.758667 48.0
1475.858032 164.0
1475.95752 116.0
1476.18689 192.0
1476.404785 204.0
1476.508057 108.0
1476.615112 200.0
1476.668701 172.0
1476.867554 152.0
1476.989868 144.0
1477.418335 160.0
1477.529663 128.0
1477.655396 176.0
1477.761108 148.0
1477.839111 148.0
1477.915649 148.0
1478.007446 40.0
1478.076294 96.0
1478.282837 128.0
1478.581299 160.0
1478.833862 144.0
1478.902832 192.0
1478.956421 136.0
1479.137573 148.0
1479.331421 128.0
1479.41394 180.0
1479.463989 156.0
1479.591675 168.0
1479.645264 120.0
1479.760132 76.0
1479.829102 108.0
1479.920898 156.0
1480.188965 136.0
1480.288452 108.0
1480.548828 136.0
1480.962402 144.0
1481.18457 80.0
1481.24585 160.0
1481.386597 204.0
1481.513916 120.0
1481.659546 200.0
1481.751465 180.0
1481.951294 48.0
1482.180542 220.0
1482.305298 204.0
1483.238159 108.0
1483.383789 180.0
1483.451294 184.0
1483.575073 192.0
1483.667358 116.0
1484.1427 188.0
1484.360962 164.0
1484.418823 144.0
1484.480103 112.0
1484.62854 224.0
1485.160645 116.0
1485.354492 196.0
1485.830078 192.0
1486.114014 192.0
1486.497559 176.0
1486.55896 108.0
1486.620361 188.0
1486.704834 112.0
1486.950439 128.0
1487.011841 152.0
1487.111572 196.0
1487.295776 156.0
1487.473389 200.0
1487.618164 112.0
1488.040405 140.0
1488.147949 144.0
1488.267944 152.0
1488.355225 184.0
1488.53186 140.0
1488.622681 140.0
1488.946533 156.0
1489.199951 108.0
1489.306763 92.0
1489.407349 132.0
1489.705566 136.0
1489.845215 148.0
1489.898926 160.0
1490.023682 120.0
1490.075684 156.0
1490.175537 116.0
1490.644287 232.0
1490.722778 180.0
1490.836426 148.0
1490.928589 100.0
1491.020752 192.0
1491.189941 52.0
1491.274414 128.0
1491.451172 164.0
1491.758667 56.0
1491.827881 52.0
1491.920654 180.0
1492.296875 136.0
1492.458252 168.0
1492.581665 180.0
1492.742798 192.0
1492.865845 136.0
1493.004272 112.0
1493.296509 184.0
1493.434937 108.0
1493.519531 48.0
1493.727295 84.0
1494.031738 132.0
1494.442749 176.0
1494.521118 164.0
1494.646973 260.0
1494.826294 136.0
1494.87793 180.0
1495.071411 268.0
1495.250732 220.0
1495.35022 192.0
1495.603516 224.0
1495.835693 144.0
1496.05127 156.0
1496.359131 172.0
1496.4823 216.0
1496.559326 104.0
1496.659424 116.0
1497.344849 132.0
1497.414062 48.0
1497.699097 176.0
1497.776123 112.0
1497.837769 152.0
1497.899414 144.0
1498.014893 184.0
1498.261475 88.0
1498.477173 188.0
1498.715942 176.0
1498.939453 148.0
1499.324707 72.0
1499.571411 220.0
1499.663818 140.0
1499.779419 144.0
1499.856567 96.0
1499.933594 200.0
1500.035034 240.0
1500.118652 112.0
1500.257446 120.0
1500.373047 236.0
1500.603638 124.0
1500.797119 108.0
1500.951294 152.0
1501.205811 68.0
1501.468018 168.0
1501.560547 180.0
1501.614502 192.0
1501.717285 168.0
1501.910156 324.0
1502.131226 88.0
1502.331909 72.0
1502.532471 84.0
1502.655884 148.0
1502.786987 128.0
1502.910522 152.0
1503.118774 180.0
1503.311768 104.0
1503.558716 212.0
1503.751587 140.0
1504.179932 280.0
1504.345947 128.0
1504.517822 184.0
1504.77063 168.0
1505.076172 240.0
1505.138672 144.0
1505.210693 160.0
1505.264771 212.0
