>compound Tiliroside
>formula C30H26O13
>ionization [M+H]+
>parentmass 595.1446173440905
#inchi InChI=1S/C30H26O13/c31-16-6-1-14(2-7-16)3-10-22(35)40-13-21-24(36)26(38)27(39)30(42-21)43-29-25(37)23-19(34)11-18(33)12-20(23)41-28(29)15-4-8-17(32)9-5-15/h1-12,21,24,26-27,30-34,36,38-39H,13H2/b10-3+/t21-,24+,26+,27-,30+/m0/s1
#inchikey DVGGLGXQSFURLP
#Ion_Source DI-ESI
#Instrument qTof
#Compound_Source Isolated
#PI Norberto Lopes
#Data_Collector Denise Silva
#Scan -1
#Precursor_MZ 595.14
#ExactMass 594.137
#Charge 1
#CAS_Number 20316-62-5
#Pubmed_ID  
#Smiles OC1=CC=C(C2=C(O[C@H]3O[C@@H](COC(/C=C/C4=CC=C(O)C=C4)=O)[C@@H](O)[C@@H](O)[C@@H]3O)C(C5=C(O)C=C(O)C=C5O2)=O)C=C1
#INCHI_AUX  
#Library_Class 3
#SpectrumID CCMSLIB00000078882
#IonMode Positive
#UpdateWorkflowName UPDATE-SINGLE-ANNOTATED-BRONZE
#LibraryQualityString Bronze
#TaskID fbbc09f31a47482db3413b1668c79895
##Scan# 1
#SpectrumFile gnps_tiliroside_pos_MSMS_595.mgf
#LibraryName gnps_library.mgf
#MQScore -1
#Organism gnps_library
#TIC_Query 0
#RT_Query -1
#MZErrorPPM -1
#SharedPeaks 0
#MassDiff 0
#LibMZ -1
#SpecMZ 595.14
#SpecCharge 0
#internalFilename spec-00000.mgf

>collision 10
119.046242 232.0
147.040512 19400.0
148.044174 1051.0
165.049255 1288.0
287.04776 5819.0
291.079742 1794.0
292.207245 122.0
309.088684 4219.0
317.106506 102.0
