>compound Quercetin
>formula C15H10O7
>ionization [M+H]+
>parentmass 303.0499291120905
#inchi InChI=1S/C15H10O7/c16-7-4-10(19)12-11(5-7)22-15(14(21)13(12)20)6-1-2-8(17)9(18)3-6/h1-5,16-19,21H
#inchikey REFJWTPEDVJJIY
#Ion_Source DI-ESI
#Instrument Ion Trap
#Compound_Source Commercial
#PI Norberto Lopes
#Data_Collector Denise Silva
#Scan -1
#Precursor_MZ 303.0
#ExactMass 302.043
#Charge 1
#CAS_Number 117-39-5
#Pubmed_ID  
#Smiles O=C1C2=C(C=C(C=C2OC(C3=CC(O)=C(C=C3)O)=C1O)O)O
#INCHI_AUX  
#Library_Class 3
#SpectrumID CCMSLIB00000077993
#IonMode Positive
#UpdateWorkflowName UPDATE-SINGLE-ANNOTATED-BRONZE
#LibraryQualityString Bronze
#TaskID 900e881400954b2889fd7248945e46b9
##Scan# 1
#SpectrumFile gnps_Quercetin_pos_amp0.7V_MSMS_303.mgf
#LibraryName gnps_library.mgf
#MQScore -1
#Organism gnps_library
#TIC_Query 0
#RT_Query -1
#MZErrorPPM -1
#SharedPeaks 0
#MassDiff 0
#LibMZ -1
#SpecMZ 303
#SpecCharge 0
#internalFilename spec-00000.mgf

>collision 10
88.107002 5572.0
102.139 4886.0
106.052002 12845.0
106.052002 12845.0
121.049004 2255.0
136.981995 4322.0
148.947006 3979.0
152.865997 5658.0
152.865997 5658.0
152.865997 5658.0
152.865997 5658.0
164.968002 20240.0
164.968002 20240.0
164.968002 20240.0
164.968002 20240.0
194.957993 2714.0
200.895996 2811.0
200.895996 2811.0
212.031006 4998.0
212.031006 4998.0
212.031006 4998.0
212.031006 4998.0
228.968002 23860.0
228.968002 23860.0
228.968002 23860.0
228.968002 23860.0
240.298996 7575.0
240.298996 7575.0
240.334 6376.0
240.334 6376.0
240.334 6376.0
242.248001 2868.0
247.037994 10657.0
256.268005 6878.0
257.02301 33736.0
257.02301 33736.0
257.02301 33736.0
257.02301 33736.0
257.990997 9898.0
257.990997 9898.0
257.990997 9898.0
257.990997 9898.0
274.019012 6918.0
274.019012 6918.0
274.019012 6918.0
274.019012 6918.0
284.285004 97789.0
284.285004 97789.0
284.285004 97789.0
284.285004 97789.0
285.093994 48090.0
285.093994 48090.0
285.093994 48090.0
285.093994 48090.0
291.950012 3184.0
301.320007 3626.0
302.289001 109004.0
303.023987 118455.0
303.023987 118455.0
303.023987 118455.0
376.977997 2739.0
390.436005 2367.0
395.195007 2192.0
411.325989 2348.0
