>compound Diphenhydramine HCl (Benadryl)
>formula C17H21NO
>ionization [M+H]+
>parentmass 256.167938
#inchi InChI=1S/C17H21NO/c1-18(2)13-14-19-17(15-9-5-3-6-10-15)16-11-7-4-8-12-16/h3-12,17H,13-14H2,1-2H3
#inchikey ZZVUWRFHKOJYTH
#origInchi InChI=1S/C17H21NO.ClH/c1-18(2)13-14-19-17(15-9-5-3-6-10-15)16-11-7-4-8-12-16;/h3-12,17H,13-14H2,1-2H3;1H
#Ion_Source LC-ESI
#Instrument qTof
#Compound_Source Commercial
#PI Dorrestein
#Data_Collector Garg_Neha
#Scan -1
#Precursor_MZ 256.17
#ExactMass 255.162
#Charge 1
#CAS_Number 147-24-0
#Pubmed_ID N/A
#Smiles C1(=CC(=CC=C1)C(C2=CC=CC=C2)OCCN(C)C).Cl
#INCHI_AUX N/A
#Library_Class 1
#SpectrumID CCMSLIB00000078322
#IonMode Positive
#UpdateWorkflowName UPDATE-SINGLE-ANNOTATED-GOLD
#LibraryQualityString Gold
#TaskID 77f51c88eb8b467eb4a01dd2d0cb90d2
##Scan# 1133
#SpectrumFile Plate5_21_40_GH7_01_16509.mzXML
#LibraryName FDALibrary_2_04302014.mgf
#MQScore -1
#Organism FDALibrary_2_04302014
#TIC_Query 0
#RT_Query -1
#MZErrorPPM -1
#SharedPeaks 0
#MassDiff 0
#LibMZ -1
#SpecMZ 256.17
#SpecCharge 0
#internalFilename spec-00000.mgf

>collision 10
44.887207 248.0
44.896542 160.0
44.910191 256.0
44.936558 208.0
44.962425 180.0
44.975258 156.0
44.999477 140.0
45.025501 152.0
45.055378 140.0
45.070076 204.0
45.080765 264.0
45.090122 164.0
45.107498 156.0
45.127548 196.0
45.177032 180.0
45.198135 212.0
45.231361 140.0
45.243946 156.0
45.295971 240.0
45.306889 164.0
45.356014 176.0
45.410103 184.0
45.45303 220.0
45.518696 196.0
45.538948 156.0
45.561504 212.0
45.607471 188.0
45.623604 144.0
45.633015 184.0
45.651596 176.0
45.689499 164.0
45.729389 180.0
45.762829 132.0
45.774296 200.0
45.88343 204.0
45.9217 148.0
46.007545 144.0
46.096062 224.0
46.138588 184.0
46.168045 240.0
46.234627 140.0
46.265759 184.0
46.294189 172.0
46.378189 208.0
46.416199 220.0
46.436489 172.0
46.463619 140.0
46.516193 216.0
46.581726 156.0
46.644749 188.0
46.663265 200.0
46.675499 152.0
46.742153 144.0
46.765995 204.0
46.811577 188.0
46.876961 228.0
46.916626 160.0
47.018524 208.0
47.073578 204.0
47.093552 116.0
47.126667 140.0
47.186516 208.0
47.241188 120.0
47.270695 208.0
47.347149 132.0
47.459263 168.0
47.479836 152.0
47.500408 176.0
47.518242 160.0
47.545685 344.0
47.619225 120.0
47.670654 176.0
47.683022 160.0
47.698647 184.0
47.713261 196.0
47.75489 132.0
47.783401 192.0
47.81918 144.0
47.831566 144.0
47.861069 112.0
47.883888 144.0
47.900192 172.0
47.927971 188.0
48.030212 148.0
48.046543 160.0
48.09927 172.0
48.11385 384.0
48.162495 204.0
48.211891 200.0
48.248173 240.0
48.291039 208.0
48.302105 200.0
48.313171 196.0
48.327003 176.0
48.353298 140.0
48.404518 172.0
48.465935 200.0
48.477936 160.0
48.502884 152.0
48.518131 200.0
48.533382 164.0
48.547249 228.0
48.562305 140.0
48.59996 156.0
48.633266 176.0
48.658119 124.0
48.706856 284.0
48.730473 208.0
48.760582 144.0
48.774944 220.0
48.795864 236.0
48.826385 188.0
48.837513 160.0
48.909672 256.0
48.951633 160.0
48.968346 156.0
48.987846 192.0
49.015709 144.0
49.06974 188.0
49.113297 164.0
49.132046 152.0
49.17791 208.0
49.248108 208.0
49.268246 144.0
49.291996 140.0
49.304573 176.0
49.423996 180.0
49.448624 340.0
49.500423 180.0
49.521427 160.0
49.535435 168.0
49.545242 196.0
49.567837 252.0
49.591484 196.0
49.611168 188.0
49.681271 128.0
49.745731 360.0
49.772263 176.0
49.805542 320.0
49.827229 144.0
49.853146 144.0
49.972904 124.0
50.006775 164.0
50.086071 148.0
50.119881 172.0
50.197407 184.0
50.224205 184.0
50.389534 168.0
50.4632 184.0
50.476604 144.0
50.526505 144.0
50.5732 232.0
50.602806 140.0
50.645092 160.0
50.66666 148.0
50.695 164.0
50.763687 196.0
50.783997 160.0
50.800121 204.0
50.813667 188.0
50.837925 188.0
50.856678 180.0
50.964603 144.0
51.017189 176.0
51.045628 380.0
51.097912 200.0
51.171551 120.0
51.199318 204.0
51.210243 232.0
51.232075 148.0
51.256298 180.0
51.275311 176.0
51.327568 144.0
51.340401 172.0
51.35181 148.0
51.370354 200.0
51.391754 208.0
51.517391 176.0
51.53281 156.0
51.594559 164.0
51.627445 168.0
51.668926 224.0
51.684666 148.0
51.721874 196.0
51.741325 136.0
51.770161 244.0
51.853645 184.0
51.896648 156.0
51.910988 216.0
51.934055 188.0
51.981277 160.0
52.0229 164.0
52.063801 148.0
52.117687 156.0
52.132057 148.0
52.162636 232.0
52.21312 172.0
52.250774 248.0
52.280178 212.0
52.299606 144.0
52.321068 304.0
52.414097 168.0
52.461658 160.0
52.537788 172.0
52.569271 184.0
52.594368 176.0
52.628239 172.0
52.653564 172.0
52.683899 208.0
52.707016 140.0
52.72002 184.0
52.731583 236.0
52.741699 140.0
52.816887 188.0
52.842926 160.0
52.941357 152.0
52.992054 160.0
53.031017 164.0
53.042091 272.0
53.069916 172.0
53.149311 184.0
53.168961 180.0
53.186375 156.0
53.244453 144.0
53.263981 180.0
53.308052 164.0
53.318546 172.0
53.359138 164.0
53.369068 132.0
53.449421 144.0
53.478527 148.0
53.63921 152.0
53.662075 336.0
53.694828 164.0
53.737644 128.0
53.807774 204.0
53.842335 240.0
53.862579 224.0
53.876614 148.0
53.948219 168.0
54.018776 176.0
54.059063 148.0
54.089481 176.0
54.121849 224.0
54.233658 144.0
54.273357 200.0
54.287739 176.0
54.345699 168.0
54.376991 204.0
54.446396 164.0
54.506626 172.0
54.521263 200.0
54.570797 176.0
54.614742 280.0
54.627182 216.0
54.651154 348.0
54.669853 152.0
54.691319 184.0
54.721371 148.0
54.751186 160.0
54.790691 164.0
54.851009 168.0
54.873123 148.0
54.942051 168.0
54.964176 256.0
54.974823 160.0
55.066429 236.0
55.094494 224.0
55.106316 212.0
55.120892 148.0
55.155914 248.0
55.240845 264.0
55.268955 172.0
55.279312 252.0
55.326675 216.0
55.344604 224.0
55.412575 160.0
55.500023 148.0
55.526714 164.0
55.538578 296.0
55.603863 212.0
55.627609 164.0
55.664867 168.0
55.710526 196.0
55.733055 188.0
55.83012 148.0
55.854183 184.0
55.87149 144.0
55.890324 104.0
55.912987 216.0
55.957642 152.0
56.035088 152.0
56.07085 176.0
56.143059 176.0
56.231499 168.0
56.248272 172.0
56.268055 156.0
56.324795 184.0
56.384315 316.0
56.414547 180.0
56.430599 164.0
56.481445 208.0
56.522835 156.0
56.542759 200.0
56.592281 168.0
56.645996 348.0
56.688053 176.0
56.715027 152.0
56.780338 184.0
56.816998 140.0
56.842506 228.0
56.887531 236.0
56.923897 216.0
56.95126 172.0
56.971085 244.0
57.073826 184.0
57.093376 184.0
57.129475 164.0
57.157871 224.0
57.180782 120.0
57.211681 176.0
57.234825 140.0
57.303356 144.0
57.346634 200.0
57.359871 160.0
57.37883 220.0
57.405098 192.0
57.468452 140.0
57.480522 140.0
57.541359 144.0
57.615982 156.0
57.624691 216.0
57.652672 156.0
57.731281 232.0
57.747314 168.0
57.768978 164.0
57.822216 196.0
57.847065 124.0
57.889778 152.0
57.932587 164.0
57.952782 188.0
58.006348 136.0
58.064987 228.0
58.101482 156.0
58.129776 140.0
58.152454 200.0
58.18166 328.0
58.22887 156.0
58.266338 164.0
58.334724 236.0
58.348408 212.0
58.361794 204.0
58.428123 144.0
58.445915 180.0
58.491405 172.0
58.503139 192.0
58.520454 244.0
58.555351 160.0
58.612957 172.0
58.66811 172.0
58.687855 164.0
58.701653 208.0
58.730629 156.0
58.788605 272.0
58.807476 296.0
58.842026 176.0
58.85577 164.0
58.883179 160.0
58.92503 196.0
58.955353 188.0
58.967285 144.0
58.977985 144.0
59.054432 168.0
59.066086 220.0
59.143902 156.0
59.201355 156.0
59.221264 152.0
59.23658 140.0
59.2486 180.0
59.279869 128.0
59.305279 144.0
59.396 148.0
59.480392 140.0
59.508957 184.0
59.525192 156.0
59.540981 156.0
59.563313 228.0
59.574066 192.0
59.614014 156.0
59.653774 184.0
59.803177 144.0
59.833607 208.0
59.8894 160.0
59.955585 192.0
60.012684 160.0
60.057404 140.0
60.085171 144.0
60.127605 120.0
60.189716 196.0
60.261177 156.0
60.273735 156.0
60.293625 204.0
60.312172 184.0
60.367828 204.0
60.384754 144.0
60.456005 152.0
60.505226 180.0
60.510139 144.0
60.536179 172.0
60.58297 184.0
60.607994 152.0
60.6558 172.0
60.686806 164.0
60.728039 132.0
60.789009 108.0
60.827225 168.0
60.857983 160.0
60.948586 168.0
60.959423 184.0
60.986416 168.0
61.014397 168.0
61.069927 180.0
61.107712 168.0
61.137989 176.0
61.195057 200.0
61.226013 192.0
61.285206 236.0
61.326378 124.0
61.349289 208.0
61.397442 172.0
61.40836 272.0
61.43325 188.0
61.44767 160.0
61.461399 144.0
61.485245 128.0
61.52776 112.0
61.591171 160.0
61.608158 156.0
61.621284 196.0
61.639404 304.0
61.689419 208.0
61.714878 140.0
61.74799 348.0
61.77906 136.0
61.822536 184.0
61.847729 156.0
61.897385 212.0
61.930389 152.0
61.955452 156.0
62.004902 176.0
62.069866 164.0
62.123192 196.0
62.149864 176.0
62.184887 300.0
62.258728 264.0
62.2943 196.0
62.336956 160.0
62.363438 168.0
62.44677 188.0
62.504974 164.0
62.52071 204.0
62.566357 180.0
62.590614 240.0
62.624622 140.0
62.711277 140.0
62.723888 248.0
62.761723 340.0
62.780296 180.0
62.815346 140.0
62.82671 156.0
62.843742 296.0
62.862675 144.0
62.948269 144.0
63.025318 172.0
63.043667 124.0
63.059814 164.0
63.359447 316.0
63.432922 268.0
63.454758 184.0
63.48592 176.0
63.503399 152.0
63.525608 148.0
63.54147 124.0
63.563683 164.0
63.597012 488.0
63.608124 172.0
63.642548 216.0
63.724052 168.0
63.778084 228.0
63.815479 200.0
63.848038 164.0
63.865532 312.0
63.890984 184.0
63.908409 168.0
63.960224 360.0
64.016724 192.0
64.038239 204.0
64.118683 160.0
64.174477 252.0
64.203766 156.0
64.219368 160.0
64.23764 184.0
64.313263 148.0
64.345192 200.0
64.386703 164.0
64.424889 172.0
64.444397 208.0
64.519325 148.0
64.5476 200.0
64.567055 160.0
64.600883 184.0
64.666779 220.0
64.682495 140.0
64.703354 136.0
64.720917 152.0
64.772163 188.0
64.784981 204.0
64.805809 196.0
64.833046 308.0
64.857094 204.0
64.908661 140.0
64.91848 188.0
64.952408 188.0
64.972382 196.0
65.008293 172.0
65.060814 176.0
65.101334 152.0
65.177094 164.0
65.300194 168.0
65.338837 152.0
65.398376 188.0
65.463615 396.0
65.503616 180.0
65.52076 304.0
65.590057 164.0
65.737167 220.0
65.79763 184.0
65.814301 180.0
65.864365 180.0
65.980713 180.0
66.061768 132.0
66.090691 148.0
66.10202 200.0
66.174858 200.0
66.188072 248.0
66.221817 320.0
66.242874 172.0
66.272034 328.0
66.336372 120.0
66.354698 176.0
66.424431 144.0
66.439835 168.0
66.457283 136.0
66.469856 156.0
66.495819 208.0
66.563141 188.0
66.638718 184.0
66.680969 152.0
66.693253 208.0
66.747055 208.0
66.860893 184.0
66.885361 168.0
66.908699 236.0
66.92498 152.0
66.978722 208.0
67.01619 224.0
67.035461 188.0
67.141457 160.0
67.2239 116.0
67.244896 144.0
67.360413 176.0
67.391457 220.0
67.425774 292.0
67.440163 184.0
67.463364 180.0
67.477577 248.0
67.540222 196.0
67.553307 208.0
67.590935 204.0
67.610573 176.0
67.625305 172.0
67.697334 164.0
67.716095 308.0
67.759583 140.0
67.823486 156.0
67.856277 168.0
67.939674 216.0
67.980934 192.0
68.008026 128.0
68.043304 228.0
68.065384 232.0
68.123779 196.0
68.181282 156.0
68.229797 140.0
68.262657 180.0
68.286507 148.0
68.441193 200.0
68.54332 144.0
68.572983 360.0
68.593163 132.0
68.632858 224.0
68.655937 176.0
68.704895 396.0
68.740204 120.0
68.801697 116.0
68.82373 236.0
68.853958 196.0
68.934021 176.0
68.950928 208.0
68.985191 164.0
69.117943 204.0
69.144424 288.0
69.222229 168.0
69.27755 496.0
69.351669 152.0
69.474159 148.0
69.494064 172.0
69.555466 172.0
69.568748 176.0
69.603615 188.0
69.67437 292.0
69.709923 200.0
69.764771 232.0
69.781403 148.0
69.798027 164.0
69.834679 208.0
69.878639 232.0
69.901154 144.0
69.931458 172.0
69.957748 176.0
69.989159 152.0
70.056908 248.0
70.084587 400.0
70.108574 176.0
70.148033 188.0
70.169319 216.0
70.186272 244.0
70.211502 148.0
70.231491 340.0
70.275505 192.0
70.299423 148.0
70.337814 164.0
70.37542 156.0
70.536591 188.0
70.568352 196.0
70.600121 276.0
70.628929 248.0
70.657501 196.0
70.676331 192.0
70.74234 168.0
70.761108 152.0
70.776718 340.0
70.793167 164.0
70.817688 176.0
70.834442 168.0
70.928276 160.0
70.940796 204.0
71.023056 160.0
71.109558 196.0
71.161461 232.0
71.240448 252.0
71.25383 184.0
71.335915 128.0
71.368774 176.0
71.398392 188.0
71.411842 144.0
71.46904 180.0
71.53299 152.0
71.579437 184.0
71.671768 180.0
71.721649 152.0
71.755363 160.0
71.772224 144.0
71.853188 176.0
71.918999 324.0
72.00679 196.0
72.032127 208.0
72.049171 176.0
72.077744 156.0
72.092949 168.0
72.199692 120.0
72.270416 164.0
72.351166 188.0
72.382217 144.0
72.415543 200.0
72.478615 176.0
72.489258 124.0
72.634735 188.0
72.670532 120.0
72.694115 188.0
72.77729 164.0
72.831635 192.0
72.85202 172.0
72.896194 200.0
72.986282 152.0
73.001587 148.0
73.06189 256.0
73.098549 152.0
73.136749 120.0
73.151314 232.0
73.204094 180.0
73.224525 192.0
73.246666 140.0
73.298897 140.0
73.322998 140.0
73.335892 176.0
73.374481 224.0
73.415398 204.0
73.431534 188.0
73.51738 216.0
73.570671 220.0
73.60994 172.0
73.631714 160.0
73.650925 168.0
73.671425 196.0
73.704544 176.0
73.794472 156.0
73.866302 144.0
73.879784 272.0
73.905647 228.0
73.945007 180.0
73.97068 232.0
73.988411 212.0
74.102058 380.0
74.136818 176.0
74.155945 148.0
74.328873 228.0
74.380363 192.0
74.447319 144.0
74.474091 232.0
74.511703 264.0
74.663857 168.0
74.689651 188.0
74.736099 152.0
74.753311 152.0
74.773964 172.0
74.808472 164.0
74.831581 164.0
74.85659 152.0
74.884148 148.0
74.896202 164.0
74.917587 212.0
74.952095 200.0
75.007072 176.0
75.049934 196.0
75.075417 128.0
75.096901 188.0
75.146172 156.0
75.254227 316.0
75.266991 140.0
75.291168 140.0
75.310562 172.0
75.340942 176.0
75.366203 128.0
75.406197 220.0
75.423943 160.0
75.428169 136.0
75.456291 128.0
75.481255 140.0
75.520584 140.0
75.546974 308.0
75.593689 176.0
75.609268 152.0
75.646736 148.0
75.697556 172.0
75.721397 224.0
75.761635 164.0
75.775497 216.0
75.791092 156.0
75.827484 140.0
75.850311 140.0
75.907227 152.0
75.92804 180.0
75.959854 232.0
76.099693 156.0
76.141502 164.0
76.177979 356.0
76.237053 168.0
76.37822 304.0
76.459023 144.0
76.504906 164.0
76.580681 288.0
76.743591 148.0
76.819809 108.0
76.85585 188.0
76.908936 164.0
76.972168 200.0
77.017578 188.0
77.108429 172.0
77.134224 236.0
77.20134 136.0
77.235405 204.0
77.329079 124.0
77.398643 160.0
77.474937 192.0
77.499901 152.0
77.549477 196.0
77.563499 196.0
77.584763 220.0
77.648949 212.0
77.689758 276.0
77.721336 160.0
77.737129 156.0
77.770477 140.0
77.812607 180.0
77.840698 176.0
77.877937 176.0
77.90744 140.0
77.956329 184.0
78.030457 140.0
78.04277 144.0
78.058968 188.0
78.072578 176.0
78.077896 168.0
78.111359 252.0
78.139893 200.0
78.190529 180.0
78.219833 160.0
78.340981 260.0
78.37896 196.0
78.441162 244.0
78.484718 184.0
78.534096 192.0
78.624069 160.0
78.680557 220.0
78.705276 224.0
78.747658 212.0
78.881943 152.0
78.936752 200.0
79.00219 196.0
79.032265 172.0
79.074738 144.0
79.134926 192.0
79.202217 196.0
79.239418 144.0
79.262451 160.0
79.28286 140.0
79.304985 152.0
79.367035 160.0
79.388313 208.0
79.424255 180.0
79.464211 132.0
79.608147 168.0
79.715294 164.0
79.73912 272.0
79.793152 160.0
79.899857 252.0
79.929703 176.0
79.975845 188.0
80.062225 128.0
80.117836 264.0
80.141678 180.0
80.19902 156.0
80.427658 196.0
80.468651 160.0
80.521957 160.0
80.541763 180.0
80.566612 176.0
80.579117 204.0
80.636299 140.0
80.76358 232.0
80.833015 156.0
80.872383 184.0
80.962326 188.0
81.006683 224.0
81.031761 160.0
81.142883 160.0
81.190102 176.0
81.241516 148.0
81.253723 196.0
81.336182 196.0
81.3815 284.0
81.446548 220.0
81.486305 148.0
81.522629 212.0
81.557198 280.0
81.615082 184.0
81.651047 168.0
81.667236 176.0
81.719406 156.0
81.798584 172.0
81.867004 180.0
81.882812 144.0
81.957069 192.0
82.009331 172.0
82.039978 152.0
82.05764 160.0
82.10128 168.0
82.142265 204.0
82.265472 176.0
82.32505 172.0
82.373817 164.0
82.467728 140.0
82.520615 264.0
82.607964 136.0
82.838715 192.0
82.916061 192.0
82.940186 152.0
82.952873 152.0
82.96978 248.0
83.009079 156.0
83.134247 172.0
83.156029 164.0
83.202065 220.0
83.279144 148.0
83.362915 148.0
83.398041 232.0
83.421219 196.0
83.470703 184.0
83.508499 156.0
83.53743 208.0
83.550529 224.0
83.567383 228.0
83.601318 192.0
83.674835 176.0
83.70504 160.0
83.737823 200.0
83.765144 168.0
83.779716 144.0
83.807045 192.0
83.87265 184.0
83.906998 200.0
83.958344 196.0
83.990402 228.0
84.009827 160.0
84.06221 184.0
84.106949 176.0
84.144821 164.0
84.182808 140.0
84.230293 212.0
84.253899 160.0
84.317024 188.0
84.332611 144.0
84.421928 140.0
84.520737 228.0
84.567642 160.0
84.60334 144.0
84.729698 336.0
84.757179 164.0
84.781006 156.0
84.815826 344.0
84.84613 164.0
84.98909 136.0
85.037766 168.0
85.05162 248.0
85.06897 172.0
85.090996 148.0
85.115044 208.0
85.173729 152.0
85.223236 176.0
85.375801 160.0
85.46405 192.0
85.554283 188.0
85.618729 196.0
85.653725 156.0
85.711044 244.0
85.73391 172.0
85.779022 212.0
85.79863 176.0
85.812248 180.0
85.842171 184.0
85.876747 156.0
85.896568 268.0
85.940887 208.0
86.014351 188.0
86.044067 264.0
86.083443 172.0
86.150497 224.0
86.212753 168.0
86.377869 156.0
86.447868 116.0
86.473518 184.0
86.50499 188.0
86.638817 336.0
86.657524 120.0
86.729118 156.0
86.769905 264.0
86.801422 248.0
86.823433 152.0
86.857971 140.0
86.942886 200.0
86.964676 144.0
86.985527 212.0
87.022224 160.0
87.063164 172.0
87.077103 172.0
87.097069 132.0
87.154373 188.0
87.196838 240.0
87.211922 140.0
87.23587 276.0
87.353027 144.0
87.449783 352.0
87.524132 132.0
87.583878 176.0
87.628548 148.0
87.697495 156.0
87.71241 144.0
87.756683 176.0
87.781075 184.0
87.83046 256.0
87.869728 188.0
87.911972 208.0
87.982224 232.0
88.014633 144.0
88.035858 176.0
88.059052 204.0
88.077209 172.0
88.096817 176.0
88.115494 208.0
88.161224 152.0
88.175293 260.0
88.195847 160.0
88.22612 144.0
88.257545 172.0
88.28933 248.0
88.468346 148.0
88.50457 168.0
88.534485 160.0
88.552628 128.0
88.579437 140.0
88.605667 140.0
88.652512 160.0
88.747337 176.0
88.774361 204.0
88.794991 220.0
88.954117 208.0
88.990143 144.0
89.034195 192.0
89.050232 188.0
89.085022 156.0
89.123497 156.0
89.140663 120.0
89.194916 164.0
89.224991 204.0
89.269173 152.0
89.313011 248.0
89.367928 180.0
89.38298 176.0
89.495918 200.0
89.537956 196.0
89.550377 148.0
89.569366 156.0
89.586319 136.0
89.663567 228.0
89.680534 168.0
89.73143 164.0
89.750282 160.0
89.782341 196.0
89.816292 224.0
89.963478 204.0
89.978577 176.0
89.991798 188.0
90.075523 252.0
90.140381 168.0
90.199142 232.0
90.220398 140.0
90.279007 192.0
90.300827 152.0
90.342903 256.0
90.407646 148.0
90.475792 192.0
90.494766 164.0
90.528809 208.0
90.545853 156.0
90.5951 312.0
90.644356 148.0
90.721931 168.0
90.74102 180.0
90.775154 196.0
90.81498 144.0
90.851021 212.0
90.964882 156.0
91.022789 192.0
91.05304 168.0
91.208015 368.0
91.248482 196.0
91.275383 120.0
91.313095 228.0
91.355164 284.0
91.385017 216.0
91.398064 176.0
91.447334 180.0
91.464676 168.0
91.502113 216.0
91.599998 224.0
91.622856 232.0
91.767708 280.0
91.814407 220.0
91.859001 124.0
91.888672 172.0
91.916481 292.0
91.939102 272.0
91.964188 168.0
92.05426 200.0
92.071106 180.0
92.088295 344.0
92.113129 156.0
92.137962 184.0
92.17588 344.0
92.204613 240.0
92.291916 208.0
92.323364 140.0
92.338669 204.0
92.425819 136.0
92.465385 172.0
92.506897 204.0
92.606613 208.0
92.692024 192.0
92.725403 140.0
92.787163 220.0
92.805916 144.0
92.953606 212.0
93.026543 172.0
93.105263 168.0
93.13311 128.0
93.1726 208.0
93.293251 196.0
93.368553 208.0
93.412788 168.0
93.428329 208.0
93.464737 216.0
93.504257 136.0
93.591774 164.0
93.6091 176.0
93.624222 160.0
93.69178 164.0
93.732384 188.0
93.773636 168.0
93.849281 192.0
93.8731 172.0
93.929031 192.0
93.971588 204.0
94.116234 240.0
94.14209 204.0
94.180183 140.0
94.214729 160.0
94.293953 188.0
94.317146 168.0
94.355812 200.0
94.402214 168.0
94.496994 144.0
94.534164 172.0
94.618835 180.0
94.657951 204.0
94.69342 212.0
94.764679 216.0
94.795181 148.0
94.838997 112.0
94.863014 188.0
94.894035 144.0
94.915359 204.0
94.938873 128.0
95.015076 224.0
95.031693 160.0
95.074432 148.0
95.188477 240.0
95.216072 100.0
95.258827 152.0
95.313759 196.0
95.39003 204.0
95.408875 196.0
95.451286 156.0
95.64389 188.0
95.682251 176.0
95.758766 140.0
95.842438 200.0
95.867149 172.0
95.907494 128.0
95.946114 220.0
95.990547 124.0
96.061417 192.0
96.112206 144.0
96.214973 188.0
96.279083 180.0
96.302925 160.0
96.322456 144.0
96.400612 140.0
96.460251 264.0
96.492477 144.0
96.517891 172.0
96.535492 148.0
96.584389 184.0
96.627426 168.0
96.745377 176.0
96.774216 252.0
96.793793 204.0
96.867325 356.0
96.917694 156.0
97.024849 112.0
97.028992 176.0
97.072548 204.0
97.137955 212.0
97.225349 164.0
97.288895 176.0
97.325172 140.0
97.396683 204.0
97.470528 208.0
97.587418 180.0
97.665154 172.0
97.739906 152.0
97.804855 168.0
97.87925 132.0
97.935226 244.0
98.031837 208.0
98.129898 140.0
98.189056 164.0
98.204742 172.0
98.265984 212.0
98.287422 148.0
98.336731 160.0
98.386368 168.0
98.469902 172.0
98.537361 124.0
98.561203 200.0
98.615509 152.0
98.63887 176.0
98.669342 136.0
98.745438 312.0
98.86174 168.0
98.882729 144.0
98.915909 156.0
98.943878 212.0
99.120834 252.0
99.162315 216.0
99.21727 180.0
99.300995 208.0
99.360062 164.0
99.421608 232.0
99.475159 152.0
99.496307 220.0
99.570335 120.0
99.622108 264.0
99.641212 156.0
99.767807 176.0
99.812904 180.0
99.849007 208.0
99.868591 180.0
99.88649 148.0
99.950157 144.0
99.98671 152.0
100.001015 200.0
100.026672 200.0
100.151222 144.0
100.171143 156.0
100.320152 124.0
100.366455 244.0
100.39624 188.0
100.539719 156.0
100.55336 204.0
100.589897 344.0
100.614174 176.0
100.645798 164.0
100.699715 152.0
100.742226 184.0
100.784424 228.0
100.861557 192.0
100.88755 184.0
100.901543 216.0
100.95385 200.0
100.977219 208.0
101.005531 220.0
101.068588 160.0
101.085556 272.0
101.239693 408.0
101.267731 140.0
101.335846 152.0
101.448074 184.0
101.528275 180.0
101.544319 176.0
101.56237 164.0
101.657066 240.0
101.687134 264.0
101.704826 176.0
101.728775 172.0
101.734787 160.0
101.783127 188.0
101.893593 160.0
101.989471 180.0
102.02623 148.0
102.04216 152.0
102.096611 168.0
102.112694 216.0
102.128784 176.0
102.165833 240.0
102.181091 156.0
102.223343 172.0
102.281158 176.0
102.311745 208.0
102.340088 152.0
102.391449 192.0
102.48156 168.0
102.521378 232.0
102.561691 172.0
102.639626 192.0
102.714409 232.0
102.831963 160.0
102.861839 184.0
102.9328 244.0
103.029846 200.0
103.052307 232.0
103.079277 180.0
103.130241 176.0
103.195572 184.0
103.219353 184.0
103.254211 228.0
103.414047 216.0
103.446434 176.0
103.476799 176.0
103.50061 236.0
103.517296 200.0
103.62059 140.0
103.663712 124.0
103.699623 180.0
103.755775 200.0
103.801308 192.0
103.823296 216.0
103.845604 192.0
103.88414 168.0
103.906204 160.0
104.018013 136.0
104.074913 172.0
104.193741 140.0
104.265862 184.0
104.298386 192.0
104.333344 160.0
104.380493 196.0
104.402069 236.0
104.424889 192.0
104.441429 148.0
104.472847 156.0
104.504776 212.0
104.528343 112.0
104.56279 176.0
104.593323 192.0
104.638107 160.0
104.653862 184.0
104.727707 192.0
104.764488 144.0
104.876991 124.0
104.950531 156.0
104.974304 176.0
104.992653 184.0
105.030182 180.0
105.066086 168.0
105.088531 192.0
105.240875 136.0
105.338966 212.0
105.43158 176.0
105.511589 112.0
105.542984 132.0
105.613541 208.0
105.656502 160.0
105.686035 192.0
105.764954 280.0
105.857079 300.0
105.908279 148.0
105.936958 168.0
106.086555 280.0
106.10363 256.0
106.139862 352.0
106.2342 164.0
106.25882 208.0
106.31012 164.0
106.355499 180.0
106.379272 144.0
106.423012 156.0
106.540077 148.0
106.562683 148.0
106.583855 196.0
106.725052 180.0
106.755898 144.0
106.77832 164.0
106.838982 172.0
106.982224 160.0
107.013985 272.0
107.045227 292.0
107.080956 160.0
107.139839 156.0
107.233521 192.0
107.249565 168.0
107.291237 176.0
107.305664 196.0
107.338806 160.0
107.427345 148.0
107.456673 220.0
107.49543 140.0
107.51194 148.0
107.534637 192.0
107.556503 176.0
107.577988 244.0
107.600693 184.0
107.641991 172.0
107.749023 224.0
107.852448 156.0
107.889374 220.0
107.95195 180.0
107.967232 176.0
108.026741 176.0
108.053307 204.0
108.093185 160.0
108.187706 276.0
108.26236 204.0
108.276863 272.0
108.318283 148.0
108.351425 192.0
108.385803 208.0
108.401154 140.0
108.452568 124.0
108.481987 184.0
108.544861 196.0
108.674858 176.0
108.757866 148.0
108.948906 160.0
108.975922 152.0
109.015144 164.0
109.038261 168.0
109.160652 128.0
109.20298 176.0
109.220955 184.0
109.264908 144.0
109.350227 148.0
109.382812 152.0
109.462929 176.0
109.553825 200.0
109.586472 196.0
109.700157 216.0
109.721001 240.0
109.749062 184.0
109.775215 384.0
109.793983 164.0
109.811668 200.0
109.83152 168.0
109.866989 188.0
109.902451 196.0
109.992195 144.0
110.127846 132.0
110.160408 136.0
110.236549 180.0
110.255356 172.0
110.27417 168.0
110.292404 204.0
110.355896 164.0
110.418427 140.0
110.439056 148.0
110.504189 180.0
110.520927 180.0
110.572304 116.0
110.613014 224.0
110.644409 180.0
110.715607 140.0
110.730263 164.0
110.770058 164.0
110.8853 192.0
110.948181 160.0
110.967056 188.0
111.000603 220.0
111.029961 132.0
111.09288 168.0
111.120773 464.0
111.212112 156.0
111.298561 148.0
111.315262 172.0
111.382568 144.0
111.476646 164.0
111.553009 140.0
111.590614 204.0
111.624252 264.0
111.685242 168.0
111.752235 180.0
111.80938 356.0
111.889091 124.0
111.902527 192.0
111.950424 156.0
112.013611 204.0
112.05574 140.0
112.080681 184.0
112.116386 180.0
112.167435 140.0
112.218033 288.0
112.234901 196.0
112.278938 104.0
112.309891 148.0
112.342461 188.0
112.37133 228.0
112.4561 168.0
112.462738 144.0
112.481262 308.0
112.515511 264.0
112.623207 152.0
112.733063 176.0
112.834518 144.0
112.889496 232.0
112.935219 184.0
112.988907 212.0
113.022942 220.0
113.100571 172.0
113.137047 148.0
113.160332 140.0
113.202682 184.0
113.219086 204.0
113.264313 204.0
113.28952 144.0
113.357323 208.0
113.372154 156.0
113.427711 208.0
113.452698 304.0
113.589149 220.0
113.611748 152.0
113.626602 220.0
113.662674 168.0
113.700867 168.0
113.883453 172.0
113.934433 168.0
113.962059 172.0
113.979057 240.0
114.010925 196.0
114.029701 120.0
114.076866 168.0
114.119957 164.0
114.165665 132.0
114.191635 164.0
114.222061 172.0
114.270508 260.0
114.289284 200.0
114.311981 204.0
114.374619 308.0
114.453392 188.0
114.483315 148.0
114.514175 184.0
114.571121 332.0
114.620819 232.0
114.669106 152.0
114.694763 160.0
114.723969 260.0
114.755898 380.0
114.783661 152.0
114.798592 192.0
114.890305 184.0
114.907372 276.0
114.944443 192.0
115.020477 148.0
115.057846 500.0
115.105186 100.0
115.204308 180.0
115.222321 240.0
115.287506 140.0
115.391609 208.0
115.52478 156.0
115.554726 192.0
115.591103 224.0
115.69696 288.0
115.783768 140.0
115.806648 152.0
115.837746 160.0
115.860954 232.0
115.890877 220.0
115.924507 348.0
115.944443 160.0
115.980881 148.0
116.02375 160.0
116.050323 328.0
116.092369 208.0
116.10952 180.0
116.176338 184.0
116.207016 124.0
116.300468 208.0
116.444321 164.0
116.504471 204.0
116.636559 148.0
116.680466 192.0
116.694336 116.0
116.727806 184.0
116.81385 180.0
116.848442 196.0
116.876411 168.0
116.899651 200.0
116.952225 176.0
117.012009 176.0
117.111069 152.0
117.141869 160.0
117.240334 144.0
117.289902 196.0
117.352425 148.0
117.384766 176.0
117.423584 204.0
117.447304 140.0
117.494225 176.0
117.544388 156.0
117.590652 196.0
117.645828 176.0
117.673843 176.0
117.719238 184.0
117.75898 328.0
117.822914 184.0
117.861809 160.0
117.904892 132.0
117.936028 104.0
117.972656 176.0
118.017433 184.0
118.046364 140.0
118.140709 200.0
118.167496 188.0
118.356926 124.0
118.43943 180.0
118.484917 160.0
118.535515 192.0
118.561913 200.0
118.642296 188.0
118.666969 168.0
118.766724 208.0
118.830902 152.0
118.864349 312.0
118.884399 328.0
119.051018 868.0
119.148781 220.0
119.195946 164.0
119.22644 184.0
119.263954 200.0
119.289406 220.0
119.381355 244.0
119.4795 192.0
119.566269 300.0
119.588028 140.0
119.609795 200.0
119.753502 188.0
119.776924 228.0
119.816673 148.0
119.882042 148.0
119.947853 164.0
120.008469 256.0
120.038994 164.0
120.058472 208.0
120.092087 212.0
120.121872 148.0
120.145943 120.0
120.180565 212.0
120.192924 444.0
120.252785 132.0
120.283348 160.0
120.316093 172.0
120.367119 108.0
120.398956 164.0
120.423088 160.0
120.444534 200.0
120.525162 132.0
120.584763 176.0
120.656898 168.0
120.672203 172.0
120.69606 180.0
120.731239 192.0
120.774986 160.0
120.807793 176.0
120.849365 148.0
120.904068 200.0
120.926422 204.0
120.987625 160.0
121.017723 204.0
121.228172 168.0
121.31002 492.0
121.379425 208.0
121.410126 184.0
121.428635 180.0
121.457481 236.0
121.480316 276.0
121.549171 188.0
121.669044 196.0
121.732719 164.0
121.762825 180.0
121.816177 160.0
121.857918 188.0
121.878212 156.0
121.95134 148.0
121.992996 144.0
122.024681 164.0
122.050545 204.0
122.070175 304.0
122.211899 180.0
122.267929 200.0
122.297363 192.0
122.344559 228.0
122.36377 152.0
122.403687 152.0
122.418884 204.0
122.476074 152.0
122.522339 152.0
122.545303 188.0
122.614883 140.0
122.6381 204.0
122.688103 184.0
122.778023 144.0
122.905968 160.0
122.927368 212.0
122.956718 196.0
123.016121 136.0
123.062675 164.0
123.089172 208.0
123.10463 204.0
123.131508 140.0
123.155586 168.0
123.187668 268.0
123.21286 176.0
123.298889 296.0
123.433884 184.0
123.49128 344.0
123.554245 172.0
123.686096 184.0
123.723198 424.0
123.794579 216.0
123.942284 200.0
124.002823 188.0
124.027206 184.0
124.077286 128.0
124.184631 140.0
124.213463 196.0
124.234718 324.0
124.335495 188.0
124.355469 160.0
124.380074 204.0
124.434525 172.0
124.453148 168.0
124.51754 180.0
124.649353 204.0
124.784195 192.0
124.804207 152.0
124.859802 196.0
124.900223 184.0
124.941612 200.0
124.972069 144.0
125.057808 156.0
125.14463 140.0
125.164665 232.0
125.198067 208.0
125.296074 180.0
125.351776 172.0
125.380112 224.0
125.460991 196.0
125.509315 172.0
125.531425 352.0
125.571045 168.0
125.646095 164.0
125.715736 284.0
125.797997 156.0
125.875984 164.0
125.958618 204.0
125.982613 148.0
126.045685 140.0
126.092682 152.0
126.14856 180.0
126.274704 212.0
126.41024 168.0
126.430656 196.0
126.460365 160.0
126.537819 216.0
126.604996 160.0
126.671326 160.0
126.708031 180.0
126.784279 148.0
126.814293 152.0
126.839325 136.0
126.889565 164.0
126.911987 156.0
126.937943 132.0
127.000893 168.0
127.051971 408.0
127.08918 176.0
127.117729 188.0
127.219345 172.0
127.289886 172.0
127.306068 152.0
127.331619 344.0
127.355682 140.0
127.406021 160.0
127.693787 136.0
127.909622 112.0
127.940979 216.0
127.976997 176.0
128.060806 1512.0
128.094131 196.0
128.161148 164.0
128.195496 140.0
128.21312 224.0
128.314957 172.0
128.346008 212.0
128.382599 140.0
128.434479 144.0
128.461197 212.0
128.499893 176.0
128.529221 204.0
128.565323 164.0
128.593811 224.0
128.721085 176.0
128.814911 220.0
128.921158 148.0
128.943542 176.0
128.998978 176.0
129.068283 600.0
129.09288 228.0
129.12561 180.0
129.297546 204.0
129.39946 176.0
129.460541 220.0
129.479721 200.0
129.587341 172.0
129.614578 196.0
129.689484 152.0
129.76178 140.0
129.859421 148.0
129.964676 220.0
130.099945 168.0
130.127182 156.0
130.235992 196.0
130.257767 144.0
130.283142 336.0
130.301041 192.0
130.391602 188.0
130.424835 168.0
130.485275 156.0
130.515717 200.0
130.575958 332.0
130.651505 220.0
130.686295 204.0
130.702225 176.0
130.754791 160.0
130.772766 156.0
130.808777 156.0
130.852448 172.0
130.899536 120.0
130.922958 128.0
131.050949 396.0
131.091019 184.0
131.1577 160.0
131.196457 160.0
131.238953 156.0
131.254562 196.0
131.350464 160.0
131.382828 160.0
131.481323 224.0
131.520752 168.0
131.557007 204.0
131.594162 220.0
131.601883 136.0
131.625992 152.0
131.715332 220.0
131.744156 240.0
131.798737 144.0
131.81955 140.0
131.84491 160.0
131.890396 140.0
131.924683 196.0
131.950562 176.0
132.002426 180.0
132.055511 192.0
132.072495 188.0
132.090897 292.0
132.133881 288.0
132.198044 204.0
132.24176 104.0
132.306732 216.0
132.32962 156.0
132.400604 160.0
132.471603 188.0
132.512848 152.0
132.583511 176.0
132.626389 168.0
132.689316 240.0
132.73288 192.0
132.848709 192.0
132.858307 228.0
132.895737 168.0
132.944855 128.0
133.029663 360.0
133.103134 180.0
133.170258 204.0
133.22995 176.0
133.279877 240.0
133.368103 104.0
133.416931 184.0
133.463058 176.0
133.479156 144.0
133.513657 156.0
133.573547 196.0
133.626358 192.0
133.702301 156.0
133.725311 192.0
133.775955 188.0
133.828903 212.0
133.884964 196.0
133.985519 232.0
134.050034 160.0
134.066162 180.0
134.124237 152.0
134.172195 148.0
134.213684 196.0
134.229828 196.0
134.259811 184.0
134.333618 244.0
134.387833 344.0
134.412064 168.0
134.44957 156.0
134.513611 152.0
134.568268 112.0
134.625763 180.0
134.670624 200.0
134.720764 412.0
134.763016 168.0
134.788437 220.0
134.806931 156.0
134.843903 184.0
134.991852 184.0
135.012665 160.0
135.031174 164.0
135.079742 196.0
135.168396 212.0
135.259369 256.0
135.301895 164.0
135.406097 208.0
135.466324 280.0
135.514969 316.0
135.623886 176.0
135.647064 148.0
135.670258 148.0
135.722488 288.0
135.767487 196.0
135.844177 408.0
135.890579 144.0
135.981079 180.0
136.115723 220.0
136.230194 152.0
136.341049 236.0
136.50145 144.0
136.581909 192.0
136.629379 188.0
136.687546 156.0
136.787613 144.0
136.815552 196.0
137.022034 2716.0
137.05191 148.0
137.150177 200.0
137.207657 196.0
137.241425 248.0
137.258224 176.0
137.307266 140.0
137.332855 152.0
137.381424 184.0
137.426559 144.0
137.456497 160.0
137.493835 168.0
137.513611 188.0
137.541824 172.0
137.605942 176.0
137.720566 180.0
137.760025 144.0
137.804932 300.0
137.858154 228.0
137.890869 188.0
137.979691 176.0
138.024612 396.0
138.0952 212.0
138.157425 236.0
138.229965 304.0
138.251144 148.0
138.272079 176.0
138.295486 172.0
138.321228 168.0
138.377975 152.0
138.486191 208.0
138.50856 156.0
138.55542 256.0
138.59993 144.0
138.622131 152.0
138.6474 188.0
138.676285 200.0
138.712784 180.0
138.79213 184.0
138.84024 164.0
138.903854 220.0
138.957413 216.0
139.017319 204.0
139.05426 492.0
139.079865 160.0
139.186264 132.0
139.270874 168.0
139.348404 180.0
139.465897 200.0
139.491745 164.0
139.527008 152.0
139.637527 148.0
139.66716 120.0
139.74382 160.0
139.839874 144.0
139.872604 132.0
139.903427 168.0
139.992889 140.0
140.031174 172.0
140.056198 204.0
140.084747 204.0
140.109344 208.0
140.280197 208.0
140.36377 144.0
140.471344 168.0
140.51062 148.0
140.551392 148.0
140.58931 140.0
140.62471 184.0
140.648315 168.0
140.738022 180.0
140.780533 192.0
140.823044 148.0
140.858475 192.0
140.916351 100.0
140.983688 188.0
141.069717 3308.0
141.153885 204.0
141.188141 308.0
141.222473 140.0
141.290283 168.0
141.387405 152.0
141.423584 356.0
141.552902 236.0
141.681702 164.0
141.774109 164.0
141.820953 172.0
141.853546 116.0
141.873428 184.0
141.980103 180.0
142.024078 196.0
142.072922 424.0
142.104172 160.0
142.200989 192.0
142.224731 140.0
142.276947 428.0
142.333099 148.0
142.420349 176.0
142.469315 200.0
142.519516 156.0
142.559601 228.0
142.593643 196.0
142.647537 152.0
142.743683 236.0
142.77356 156.0
142.815857 384.0
142.917709 172.0
142.960129 252.0
142.994812 188.0
143.022797 152.0
143.049545 172.0
143.086975 292.0
143.151932 144.0
143.2285 132.0
143.275162 136.0
143.298828 244.0
143.43544 144.0
143.478348 284.0
143.527771 188.0
143.646088 192.0
143.809921 184.0
143.843338 164.0
143.921371 140.0
143.972351 240.0
144.088318 172.0
144.267303 176.0
144.388107 152.0
144.406128 180.0
144.46225 160.0
144.52446 152.0
144.597794 216.0
144.632141 308.0
144.66156 168.0
144.67955 148.0
144.756638 144.0
144.852448 180.0
144.948273 160.0
144.967438 196.0
145.001114 168.0
145.031845 660.0
145.06311 532.0
145.111267 172.0
145.145508 392.0
145.171204 172.0
145.201874 192.0
145.252747 144.0
145.315125 196.0
145.355072 136.0
145.542618 168.0
145.605576 196.0
145.641602 156.0
145.660812 192.0
145.714584 256.0
145.771332 172.0
145.824203 180.0
145.857849 144.0
145.938019 184.0
146.087326 188.0
146.107941 192.0
146.163452 120.0
146.280075 212.0
146.305283 168.0
146.442535 152.0
146.483047 128.0
146.509979 376.0
146.534073 176.0
146.562256 104.0
146.580673 196.0
146.77774 176.0
146.835388 168.0
146.892105 124.0
147.04277 188.0
147.072235 176.0
147.115814 148.0
147.143448 228.0
147.190125 296.0
147.218491 156.0
147.271271 200.0
147.294327 280.0
147.34845 248.0
147.443787 180.0
147.515701 244.0
147.535629 168.0
147.622345 176.0
147.640182 168.0
147.755707 204.0
147.789093 180.0
147.828293 140.0
147.866638 236.0
147.99231 152.0
148.113983 216.0
148.19635 196.0
148.327209 152.0
148.352341 172.0
148.387817 192.0
148.465408 152.0
148.523621 340.0
148.552719 176.0
148.601242 180.0
148.658035 216.0
148.705536 200.0
148.775986 152.0
148.84639 140.0
148.868698 216.0
148.927917 236.0
149.024918 472.0
149.084457 152.0
149.10817 184.0
149.133057 204.0
149.254608 336.0
149.303238 176.0
149.337296 184.0
149.359543 164.0
149.390808 144.0
149.439468 200.0
149.469513 184.0
149.508392 184.0
149.551285 160.0
149.597656 308.0
149.616257 156.0
149.644653 156.0
149.665085 172.0
149.688126 204.0
149.7267 144.0
149.782715 152.0
150.044754 516.0
150.087357 164.0
150.148621 160.0
150.179398 140.0
150.195816 176.0
150.26297 196.0
150.299561 144.0
150.342606 280.0
150.414261 156.0
150.479187 196.0
150.529007 332.0
150.550995 156.0
150.575409 152.0
150.711777 128.0
150.762466 216.0
150.827072 180.0
150.864166 208.0
150.963089 200.0
151.05278 4808.0
151.138733 200.0
151.177109 228.0
151.301636 144.0
151.32457 212.0
151.355255 156.0
151.497559 188.0
151.546555 148.0
151.563705 176.0
151.580856 172.0
151.605362 200.0
151.65683 316.0
151.693588 340.0
151.73941 416.0
151.760101 292.0
151.793976 292.0
151.858612 188.0
151.882401 260.0
151.918823 180.0
151.945236 176.0
151.990082 188.0
152.019333 456.0
152.061996 126176.0
152.117828 196.0
152.186096 472.0
152.241074 116.0
152.281128 152.0
152.311295 176.0
152.383194 152.0
152.464279 108.0
152.531418 184.0
152.577881 148.0
152.598175 128.0
152.728607 192.0
152.75441 164.0
152.835602 180.0
152.866989 148.0
152.917847 188.0
152.94635 176.0
152.963577 156.0
152.98819 232.0
153.033295 160.0
153.065308 10928.0
153.137161 168.0
153.168839 144.0
153.24678 152.0
153.269928 132.0
153.342194 160.0
153.366806 144.0
153.398834 132.0
153.421768 200.0
153.461731 228.0
153.587906 160.0
153.61412 160.0
153.646393 192.0
153.737381 164.0
153.829895 128.0
153.859436 176.0
153.960892 112.0
154.069046 1040.0
154.124374 112.0
154.144608 212.0
154.182114 184.0
154.23201 192.0
154.266678 232.0
154.367416 152.0
154.444778 156.0
154.536758 120.0
154.607361 160.0
154.759018 304.0
154.823074 200.0
154.950607 212.0
154.993378 104.0
155.012955 148.0
155.0495 544.0
155.080627 180.0
155.123322 228.0
155.215591 212.0
155.278748 160.0
155.36174 296.0
155.402786 180.0
155.444962 280.0
155.526855 200.0
155.576508 200.0
155.650009 224.0
155.707886 120.0
155.757782 140.0
155.782684 164.0
155.842255 152.0
155.884491 144.0
155.932281 136.0
156.005081 100.0
156.053635 164.0
156.103287 216.0
156.214355 124.0
156.334595 168.0
156.545364 156.0
156.591019 180.0
156.640823 160.0
156.828735 164.0
156.920731 152.0
156.99057 124.0
157.063171 560.0
157.139282 152.0
157.183746 188.0
157.319107 140.0
157.414917 192.0
157.472794 256.0
157.523499 132.0
157.567322 232.0
157.653061 192.0
157.662613 136.0
157.713776 164.0
157.875961 152.0
157.931305 144.0
158.064606 136.0
158.110306 340.0
158.179932 200.0
158.280289 184.0
158.339493 176.0
158.441971 184.0
158.464523 176.0
158.484619 168.0
158.565918 112.0
158.672531 160.0
158.850922 184.0
158.93338 144.0
158.968048 196.0
159.03685 172.0
159.10611 268.0
159.131668 144.0
159.157562 176.0
159.209503 148.0
159.281967 344.0
159.412979 176.0
159.434662 204.0
159.543686 140.0
159.6194 172.0
159.730453 148.0
159.757446 188.0
159.910934 184.0
159.948685 212.0
160.173645 200.0
160.283646 232.0
160.328995 260.0
160.494003 128.0
160.556534 252.0
160.708481 192.0
160.747833 188.0
160.793137 96.0
160.883911 148.0
160.982376 192.0
161.011902 144.0
161.078354 160.0
161.119171 176.0
161.161713 160.0
161.192047 156.0
161.220627 280.0
161.252686 144.0
161.363922 144.0
161.406906 148.0
161.471588 220.0
161.550064 232.0
161.620346 188.0
161.747375 100.0
161.788116 180.0
161.806656 148.0
161.844635 156.0
161.996597 172.0
162.02536 124.0
162.069458 232.0
162.102951 164.0
162.131042 128.0
162.20076 196.0
162.242065 148.0
162.277908 192.0
162.333694 200.0
162.427521 140.0
162.717239 192.0
162.754913 168.0
162.836166 144.0
162.87326 220.0
162.919998 168.0
163.006378 164.0
163.053497 864.0
163.093063 148.0
163.125824 204.0
163.169052 160.0
163.205673 168.0
163.278381 176.0
163.347061 364.0
163.39299 212.0
163.497177 152.0
163.516159 164.0
163.581161 184.0
163.649902 168.0
163.673843 100.0
163.733078 212.0
163.823486 176.0
164.007278 212.0
164.060516 908.0
164.104767 132.0
164.123825 188.0
164.149185 132.0
164.210526 212.0
164.239822 156.0
164.270615 244.0
164.293671 168.0
164.324142 140.0
164.38533 172.0
164.460419 204.0
164.493744 188.0
164.538834 188.0
164.574799 112.0
164.638214 160.0
164.662415 244.0
164.684448 204.0
164.699493 332.0
164.717972 228.0
164.741501 192.0
164.800003 152.0
164.864685 188.0
164.920425 100.0
164.964096 196.0
165.004227 592.0
165.024429 256.0
165.069962 122748.0
165.160583 184.0
165.256622 172.0
165.284088 252.0
165.308578 216.0
165.35379 180.0
165.377716 168.0
165.41571 160.0
165.447128 180.0
165.488052 148.0
165.506775 332.0
165.529663 296.0
165.564621 192.0
165.687988 160.0
165.723862 172.0
165.751297 288.0
165.798859 296.0
165.824234 188.0
165.867706 188.0
165.898712 180.0
165.921173 180.0
165.960464 168.0
165.98053 228.0
166.018433 204.0
166.076477 53732.0
166.176163 120.0
166.200439 180.0
166.230118 184.0
166.266373 228.0
166.307953 224.0
166.339523 232.0
166.367508 180.0
166.404007 124.0
166.430206 172.0
166.465485 252.0
166.521729 428.0
166.545624 216.0
166.573715 164.0
166.600494 208.0
166.61705 316.0
166.678085 384.0
166.695694 384.0
166.749969 204.0
166.780502 400.0
166.788696 284.0
166.798706 324.0
166.832428 212.0
166.858597 420.0
166.877701 828.0
166.927841 444.0
166.979721 568.0
167.053329 1252.0
167.086655 416120.0
167.179474 336.0
167.216949 128.0
167.268326 452.0
167.298096 500.0
167.316177 388.0
167.325317 284.0
167.341995 372.0
167.369125 636.0
167.397888 368.0
167.45726 244.0
167.481705 312.0
167.508835 15472.0
167.572739 220.0
167.606094 356.0
167.629944 172.0
167.721146 268.0
167.756027 172.0
167.805252 104.0
167.855698 192.0
167.920822 220.0
167.9478 256.0
167.9832 348.0
168.054489 352.0
168.088654 108844.0
168.162598 352.0
168.212997 112.0
168.253769 128.0
168.304855 236.0
168.344025 168.0
168.394638 188.0
168.44696 224.0
168.475388 136.0
168.514465 208.0
168.567474 160.0
168.62294 136.0
168.667053 104.0
168.677856 136.0
168.706314 124.0
168.847198 104.0
168.915802 136.0
168.953476 120.0
168.983185 272.0
169.021378 132.0
169.037415 400.0
169.064331 1348.0
169.091858 5380.0
169.126129 324.0
169.179413 400.0
169.189636 292.0
169.197495 592.0
169.216599 200.0
169.244781 268.0
169.257553 432.0
169.322296 204.0
169.378571 564.0
169.423813 260.0
169.46669 204.0
169.51413 220.0
169.556305 200.0
169.61322 216.0
169.661987 132.0
169.773483 140.0
169.973282 168.0
170.068085 360.0
170.090851 216.0
170.135864 112.0
170.164658 120.0
170.351288 116.0
170.417435 100.0
170.455185 124.0
170.513367 172.0
170.552124 132.0
170.643082 236.0
170.856613 156.0
170.987839 120.0
171.029449 172.0
171.077835 600.0
171.156723 108.0
171.531067 236.0
172.090393 220.0
173.604401 156.0
174.620743 168.0
174.992432 128.0
175.036957 320.0
175.158539 160.0
175.523865 140.0
175.79689 108.0
176.508942 128.0
177.432144 152.0
177.616089 152.0
177.911652 112.0
178.243668 96.0
179.060669 1440.0
179.264313 148.0
180.034119 116.0
180.066772 172.0
180.195541 224.0
180.279556 108.0
180.692825 192.0
180.949142 124.0
180.982697 136.0
181.063568 2212.0
181.516037 252.0
181.633102 160.0
182.067841 892.0
182.671677 144.0
183.075516 284.0
183.391586 152.0
184.051086 556.0
185.053085 608.0
185.391525 164.0
186.064194 192.0
186.148376 176.0
187.041351 144.0
188.578461 156.0
189.057053 152.0
189.098114 200.0
190.425095 172.0
191.18663 180.0
192.275208 156.0
192.786102 176.0
193.076385 216.0
194.042755 172.0
194.078812 140.0
194.617081 168.0
195.167236 148.0
196.050766 424.0
196.423248 204.0
197.05722 496.0
198.065536 516.0
198.722977 228.0
198.811966 144.0
198.910858 160.0
198.975418 164.0
199.03157 184.0
199.074265 7092.0
199.41925 144.0
200.044327 160.0
200.078339 1240.0
201.080063 152.0
201.244675 240.0
203.10112 144.0
207.489838 156.0
208.077972 160.0
209.023605 164.0
209.062103 532.0
210.069489 556.0
211.080414 184.0
211.942856 200.0
212.044281 136.0
212.850754 168.0
213.056702 196.0
213.097641 156.0
213.132507 148.0
214.10701 156.0
214.47702 168.0
215.817001 144.0
218.345551 204.0
218.462387 156.0
219.154251 240.0
220.056763 184.0
220.44075 184.0
221.968185 220.0
222.508194 192.0
223.605057 164.0
224.313934 152.0
226.429367 160.0
226.935791 160.0
227.069611 2960.0
227.998398 144.0
228.071915 560.0
228.196793 152.0
229.081589 156.0
230.547943 200.0
231.31012 140.0
231.606857 172.0
232.470917 156.0
232.504303 156.0
234.789017 168.0
235.564285 140.0
236.034729 116.0
236.925598 172.0
237.054184 1220.0
237.299484 144.0
240.798279 184.0
241.716415 180.0
244.753204 160.0
245.1353 152.0
245.724609 144.0
246.752121 152.0
249.297302 156.0
249.737442 160.0
250.44249 148.0
251.012909 196.0
251.315704 152.0
252.057724 220.0
253.044571 208.0
254.050751 108.0
254.365463 228.0
254.582413 188.0
254.669937 172.0
254.767731 104.0
254.862366 124.0
254.94072 208.0
254.98053 240.0
255.021011 228.0
255.065292 55932.0
255.171387 112.0
255.434204 172.0
255.534409 172.0
255.55983 128.0
255.628876 168.0
255.843582 216.0
256.013611 164.0
256.067535 10444.0
256.167938 3112.0
256.26001 160.0
256.516876 256.0
256.748566 184.0
256.903534 216.0
257.069305 1184.0
257.133514 168.0
257.172852 576.0
257.257446 152.0
257.541962 168.0
257.819489 112.0
257.911774 176.0
257.945831 152.0
258.06842 152.0
258.106781 144.0
258.17334 176.0
258.248322 296.0
258.56424 200.0
258.828705 128.0
259.09256 164.0
260.422394 112.0
269.288818 140.0
269.991486 180.0
275.25882 148.0
276.475769 144.0
276.657928 96.0
319.237213 172.0
328.990265 148.0
346.031616 140.0
348.903137 144.0
350.865082 156.0
399.657806 180.0
452.607758 148.0
463.623718 176.0
598.069092 144.0
687.135437 164.0
739.561218 144.0
910.886292 168.0
981.891907 140.0
1068.293701 148.0
1079.812744 272.0
1094.696777 192.0
1109.231812 192.0
1126.03894 140.0
1141.39856 156.0
1143.033081 168.0
1168.657349 184.0
1170.175049 144.0
1178.359375 156.0
1186.695435 204.0
1187.189209 236.0
1204.657593 196.0
1205.044434 148.0
1206.233154 164.0
1207.906494 160.0
1211.21521 184.0
1213.405029 156.0
1218.832642 164.0
1233.384033 192.0
1235.467896 204.0
1243.09082 176.0
1245.878296 188.0
1254.82312 172.0
1257.583252 160.0
1259.692505 144.0
1262.243896 300.0
1264.295288 148.0
1277.222168 148.0
1278.139893 256.0
1283.025757 152.0
1283.478394 208.0
1285.315186 176.0
1291.644897 220.0
1292.324585 180.0
1292.603638 192.0
1308.422607 164.0
1309.985352 156.0
1314.462524 200.0
1315.754517 140.0
1317.885132 208.0
1323.707886 216.0
1324.178589 188.0
1325.127441 184.0
1327.077148 152.0
1328.418823 172.0
1328.607422 168.0
1329.020996 172.0
1329.928101 216.0
1331.133179 184.0
1334.526489 144.0
1335.522705 184.0
1340.895874 168.0
1345.863647 228.0
1349.217163 152.0
1352.743164 172.0
1355.504272 168.0
1356.537598 148.0
1357.894165 200.0
1359.735596 152.0
1361.22583 140.0
1361.879395 204.0
1363.010742 148.0
1365.171875 216.0
1365.988281 128.0
1366.900635 256.0
1368.063477 144.0
1371.098145 148.0
1374.136108 164.0
1374.637817 172.0
1375.59729 164.0
1380.991211 184.0
1381.109497 148.0
1381.812256 164.0
1387.811523 184.0
1390.348389 164.0
1391.454346 144.0
1393.392822 192.0
1394.061523 144.0
1394.581665 144.0
1395.830688 208.0
1400.333008 152.0
1401.517456 192.0
1401.807983 140.0
1405.319946 220.0
1406.812622 140.0
1406.984253 168.0
1409.254761 160.0
1409.516235 144.0
1410.824097 156.0
1412.110229 148.0
1412.947998 168.0
1415.170898 152.0
1415.785645 164.0
1416.256714 192.0
1416.44397 160.0
1416.503906 144.0
1416.885986 156.0
1418.879395 160.0
1419.516724 140.0
1420.476685 160.0
1421.279419 152.0
1421.399536 236.0
1422.457764 208.0
1423.118408 272.0
1425.747437 172.0
1425.995483 188.0
1429.620361 160.0
1430.499512 184.0
1432.760132 176.0
1433.362915 156.0
1437.200806 172.0
1437.359253 148.0
1438.393188 188.0
1439.253784 224.0
1440.296021 168.0
1444.483643 176.0
1445.429321 156.0
1445.762207 176.0
1445.898438 144.0
1447.359497 156.0
1448.041016 200.0
1449.738037 260.0
1452.763184 140.0
1453.332275 160.0
1458.807861 164.0
1458.97522 260.0
1459.119629 164.0
1459.568237 196.0
1460.024414 176.0
1460.914307 144.0
1461.256714 204.0
1463.699951 168.0
1466.457642 188.0
1466.945435 168.0
1467.181763 152.0
1469.134033 148.0
1469.858887 168.0
1470.354858 164.0
1471.576172 164.0
1473.555786 152.0
1476.374878 204.0
1476.803101 148.0
1479.848755 172.0
1481.005127 160.0
1481.717529 156.0
1482.131226 168.0
1483.522827 212.0
1485.289795 144.0
1485.71936 168.0
1486.509644 164.0
1488.797241 308.0
1491.040527 164.0
1493.216187 232.0
1493.846924 156.0
1494.200806 168.0
1494.73938 280.0
1494.985596 148.0
1495.124146 208.0
1495.454712 156.0
1495.555176 144.0
1495.924561 156.0
1497.002441 156.0
1497.549316 168.0
1498.142456 196.0
1499.883911 176.0
1500.079712 148.0
1503.261963 208.0
1503.721069 112.0
1506.180176 144.0
1506.265137 360.0
1506.342407 152.0
1506.921875 220.0
1507.501343 192.0
1508.40564 216.0
1508.645264 200.0
1509.316895 164.0
1509.604004 152.0
1510.470215 184.0
1510.802856 160.0
1513.016113 208.0
1513.2948 140.0
1513.387695 252.0
1513.790405 172.0
1513.891113 188.0
1514.518433 156.0
1515.262085 164.0
1516.788696 184.0
1518.866699 172.0
1519.580444 148.0
1519.681274 156.0
1519.735596 164.0
1520.713379 148.0
1520.868652 188.0
1521.675903 152.0
1524.666504 152.0
1524.891846 168.0
1525.280518 176.0
1526.656616 148.0
1528.36792 160.0
1529.255005 172.0
1529.675293 216.0
1532.689331 148.0
1533.250366 272.0
1533.624512 180.0
1534.942017 172.0
1535.191528 212.0
1538.445068 228.0
1540.202026 164.0
1540.647339 212.0
1541.077026 192.0
1541.397339 160.0
1541.936523 232.0
1542.843262 152.0
1543.703369 184.0
1544.653442 184.0
1544.985962 140.0
1545.831055 176.0
1547.412109 176.0
1547.753296 244.0
1548.03064 180.0
1548.30481 160.0
1549.800903 148.0
1551.109741 180.0
1551.211548 176.0
1551.274292 164.0
1553.987793 172.0
1554.254517 220.0
1554.333008 148.0
1554.686157 164.0
1558.010742 156.0
1558.413452 188.0
1559.146729 192.0
1559.453247 220.0
1561.316528 212.0
1564.455933 156.0
1568.6073 164.0
1568.99353 252.0
1569.430664 172.0
1569.548462 168.0
1572.780029 156.0
1573.51416 196.0
1573.695679 176.0
1574.130005 156.0
1574.98291 168.0
1575.851929 188.0
1576.144165 212.0
1576.341797 188.0
1580.081665 152.0
1580.358521 236.0
1581.498047 212.0
1582.396362 176.0
1583.778442 140.0
1584.86377 144.0
1585.362915 244.0
1585.870117 188.0
1590.787964 172.0
1591.446899 156.0
1592.296631 196.0
1592.638062 172.0
1593.432495 168.0
1593.702637 192.0
1594.974121 232.0
1595.654053 152.0
1597.351685 172.0
1598.530151 156.0
1598.887207 220.0
1599.555786 180.0
1599.786621 256.0
1601.992432 220.0
1602.645752 196.0
1602.837036 156.0
1602.928345 264.0
1603.793335 176.0
1604.133301 192.0
1606.0896 180.0
1606.376831 192.0
1606.975098 148.0
1607.050903 96.0
1607.118774 220.0
1607.206055 140.0
1607.645386 140.0
1607.868896 160.0
1609.098145 172.0
1609.968384 212.0
1610.407715 140.0
1611.446167 196.0
1611.661865 308.0
1612.740723 160.0
1613.955811 160.0
1615.526611 168.0
1615.995361 200.0
1617.323853 200.0
1617.435913 160.0
1618.220337 176.0
1619.61377 152.0
1620.462891 192.0
1621.737061 408.0
1621.945435 168.0
1622.27417 160.0
1623.228149 184.0
1623.684082 108.0
1623.917847 212.0
1624.423218 204.0
1624.543579 152.0
1625.401978 192.0
1625.827271 240.0
1626.340942 172.0
1626.637939 140.0
1627.426636 168.0
1628.227661 256.0
1629.135254 164.0
1629.279907 220.0
1629.360229 164.0
1630.804077 172.0
1631.224609 188.0
1632.109009 148.0
1632.229614 156.0
1632.535156 212.0
1633.033813 244.0
1633.258911 208.0
1634.143799 212.0
1634.393921 160.0
1635.900269 144.0
1636.775879 196.0
1637.871094 188.0
1638.42688 180.0
1638.520264 164.0
1638.797485 180.0
1639.200439 228.0
1639.611328 164.0
1640.973633 152.0
1641.046143 172.0
1642.369507 160.0
1642.828491 164.0
1643.473877 164.0
1643.546509 148.0
1644.474609 168.0
1645.984253 168.0
1647.696533 164.0
1647.829346 124.0
1648.173218 188.0
1648.851929 144.0
1650.064453 208.0
1650.525269 184.0
1650.937744 188.0
1651.455322 144.0
1651.689819 184.0
1651.916382 160.0
1652.773926 176.0
1653.413208 144.0
1654.303589 176.0
1654.457397 152.0
1654.530151 164.0
1656.036377 192.0
1656.327881 192.0
1656.677002 220.0
1658.142822 180.0
1658.452393 148.0
1660.039795 224.0
1660.242554 196.0
1661.475464 148.0
1661.840454 140.0
1662.481567 152.0
1662.699585 152.0
1663.155151 152.0
1663.755859 176.0
1664.145508 144.0
1664.656738 192.0
1665.016724 208.0
1665.980957 188.0
1666.102783 152.0
1667.719849 156.0
1667.817383 192.0
1668.077515 164.0
1669.280762 172.0
1671.696777 184.0
1672.860596 192.0
1673.00708 212.0
1673.52002 152.0
1674.415771 216.0
1674.570557 140.0
1674.68457 192.0
1675.254761 180.0
1675.391235 200.0
1675.52356 184.0
1677.210327 176.0
1677.29187 180.0
1677.911377 188.0
1678.09082 180.0
1679.53418 180.0
1681.182251 196.0
1681.361694 184.0
1681.663696 144.0
1681.818848 156.0
1682.455444 408.0
1684.144531 176.0
1684.921875 212.0
1685.291382 192.0
1685.534546 152.0
1685.673462 196.0
1686.131104 144.0
1686.849487 180.0
1688.412109 220.0
1688.510254 156.0
1689.81897 172.0
1690.269043 140.0
1690.359009 176.0
1690.571777 172.0
1691.717651 156.0
1692.487183 176.0
1695.665649 140.0
1696.714844 144.0
1696.886963 164.0
1697.559326 160.0
1698.174438 168.0
1699.166992 164.0
1699.733032 172.0
1700.47168 180.0
1700.970825 148.0
1701.489502 156.0
1702.630859 176.0
1702.754028 212.0
1703.238647 148.0
1703.756104 208.0
1704.109375 144.0
1704.824219 184.0
1706.328491 204.0
1706.501099 140.0
1706.772461 144.0
1706.887573 176.0
1707.052002 168.0
1707.755493 144.0
1708.19519 184.0
1708.450195 204.0
1709.172485 116.0
1709.561035 204.0
1710.359253 188.0
1710.589722 148.0
1711.518188 160.0
1712.022339 160.0
1712.4729 96.0
1712.920166 172.0
1713.62854 252.0
1714.28772 168.0
1715.688965 164.0
1715.812622 192.0
1716.059937 148.0
1717.0 176.0
1717.074219 248.0
1717.536133 204.0
1717.603638 136.0
1718.072266 172.0
1718.251221 172.0
1719.334717 176.0
1720.209595 192.0
1720.407715 148.0
1722.199585 148.0
1722.852051 212.0
1723.901367 160.0
1724.686523 172.0
1725.050293 180.0
1725.306519 264.0
1725.901733 140.0
1727.661133 188.0
1728.043945 208.0
1728.490723 156.0
1728.796875 172.0
1728.970703 176.0
1729.531738 184.0
1729.649414 188.0
1729.872925 188.0
1730.237183 164.0
1730.725586 156.0
1731.992676 176.0
1732.274292 160.0
1732.655396 204.0
1733.171143 140.0
1733.253174 192.0
1733.682861 140.0
1734.370728 140.0
1734.967529 176.0
1735.174805 140.0
1735.882446 172.0
1736.186401 148.0
1736.310303 232.0
1736.484985 140.0
1736.783569 180.0
1737.347656 152.0
1739.380615 180.0
1739.513428 160.0
1739.571533 144.0
1739.712646 144.0
1740.833618 148.0
1740.900024 172.0
1741.406616 164.0
1741.730469 208.0
1741.855103 144.0
1742.423584 168.0
1742.835449 176.0
1743.81604 172.0
1744.190063 224.0
1745.204224 152.0
1745.378906 176.0
1745.744751 156.0
1746.243652 140.0
1747.275146 188.0
1747.341675 148.0
1748.123901 160.0
1748.34021 172.0
1748.523315 172.0
1750.367798 132.0
1750.537842 156.0
1751.004272 164.0
1752.145386 164.0
1753.562744 184.0
1754.059082 244.0
1754.952515 212.0
1755.512817 244.0
1755.746216 224.0
1756.05481 216.0
1756.488525 212.0
1756.772217 144.0
1757.064209 176.0
1758.566162 144.0
1759.100342 156.0
1759.868408 144.0
1760.277588 148.0
1761.284912 108.0
1761.764282 168.0
1762.624756 268.0
1763.485596 256.0
1763.585815 156.0
1763.970337 140.0
1764.246216 156.0
1765.048828 148.0
1765.121948 156.0
1765.854736 204.0
1765.952026 216.0
1768.428589 156.0
1769.068359 176.0
1770.306274 180.0
1770.555054 184.0
1771.007324 208.0
1771.406372 180.0
1771.71936 180.0
1771.945557 184.0
1772.017578 228.0
1772.406372 148.0
1772.90918 248.0
1773.554443 156.0
1775.247925 184.0
1775.700806 216.0
1776.71582 168.0
1776.833252 176.0
1777.873657 160.0
1778.829956 136.0
1779.325806 156.0
1779.955444 168.0
1780.21582 160.0
1781.080811 148.0
1781.492432 192.0
1781.937744 144.0
1782.109253 184.0
1782.256958 200.0
1782.584717 176.0
1783.214966 140.0
1783.702515 208.0
1783.912598 216.0
1784.080688 152.0
1784.232056 184.0
1785.29126 156.0
1785.442871 144.0
1786.452148 172.0
1787.281006 180.0
1787.386108 200.0
1787.76709 144.0
1789.414551 168.0
1789.74292 196.0
1789.961792 160.0
1791.35144 188.0
1791.536743 212.0
1792.165283 264.0
1792.530884 236.0
1793.643433 244.0
1793.963745 204.0
1794.191284 156.0
1794.688599 156.0
1794.832153 176.0
1794.941772 188.0
1795.346436 288.0
1796.181519 160.0
1796.345825 164.0
1796.839478 188.0
1797.612427 152.0
1797.896851 152.0
1798.09668 164.0
1798.425903 164.0
1799.269897 400.0
1800.299561 188.0
1801.389648 148.0
1801.913452 192.0
1801.980957 180.0
1802.154541 120.0
1802.335815 156.0
1802.454224 144.0
1802.63147 236.0
1803.200073 176.0
1803.699341 212.0
1804.846191 156.0
1805.157837 204.0
1806.004761 156.0
1806.503906 220.0
1808.568481 172.0
1809.025635 160.0
1809.9823 148.0
1810.050049 200.0
1810.439575 204.0
1811.743896 144.0
1811.841553 144.0
1812.880005 156.0
1813.837036 212.0
1814.031982 164.0
1814.472778 172.0
1814.540649 144.0
1814.735596 160.0
1815.400757 124.0
1815.795532 188.0
1815.956787 176.0
1816.199097 96.0
1816.618286 160.0
1816.776245 204.0
1817.19519 200.0
1817.534546 164.0
1817.958862 196.0
1818.442627 176.0
1819.011353 168.0
1819.325439 176.0
1819.800781 148.0
1820.24231 196.0
1820.80603 192.0
1822.654663 192.0
1823.13147 188.0
1823.61499 196.0
1823.716919 156.0
1824.06543 148.0
1824.235474 152.0
1824.575562 160.0
1825.119385 156.0
1825.485229 160.0
1825.748901 160.0
1826.038086 148.0
1826.769531 232.0
1826.888672 148.0
1827.262939 168.0
1827.807495 228.0
1829.594849 184.0
1830.497314 140.0
1830.599487 188.0
1830.79541 160.0
1831.451172 208.0
1831.613037 176.0
1832.229248 200.0
1832.550049 152.0
1833.197632 152.0
1833.436279 204.0
1833.68335 140.0
1834.527222 160.0
1834.820679 168.0
1835.030396 184.0
1835.226318 168.0
1835.898804 172.0
1836.147217 212.0
1836.266724 160.0
1836.411621 152.0
1836.616333 232.0
1837.042847 152.0
1837.204956 180.0
1837.768066 168.0
1838.065552 348.0
1838.280029 212.0
1840.166382 196.0
1840.507812 200.0
1841.20813 224.0
1841.660767 192.0
1841.763184 156.0
1841.865723 184.0
1842.010986 192.0
1842.129517 200.0
1842.145874 176.0
1842.283691 124.0
1842.890869 172.0
1843.155762 196.0
1844.018799 152.0
1844.177246 204.0
1844.458862 164.0
1844.565918 148.0
1844.714355 164.0
1844.822266 172.0
1845.369507 180.0
1845.93811 320.0
1846.56665 160.0
1846.660645 224.0
1846.938477 136.0
1847.354736 208.0
1848.594116 172.0
1848.713989 152.0
1849.379272 188.0
1849.56311 236.0
1849.770264 236.0
1850.003418 152.0
1850.32312 152.0
1850.562866 220.0
1851.231689 408.0
1851.359131 208.0
1851.958618 268.0
1852.883789 212.0
1852.978027 164.0
1853.209351 216.0
1853.346436 152.0
1853.646362 156.0
1853.712524 264.0
1853.920532 208.0
1855.026245 236.0
1855.180542 168.0
1856.080688 140.0
1856.252197 256.0
1857.049805 200.0
1857.504761 160.0
1857.650146 200.0
1857.830322 184.0
1857.984741 148.0
1858.096313 232.0
1858.619629 212.0
1859.005737 224.0
1859.872559 140.0
1860.172974 196.0
1860.635254 152.0
1860.961304 208.0
1861.364624 168.0
1862.019043 188.0
1862.534424 208.0
1862.886597 192.0
1863.466187 160.0
1863.548096 148.0
1864.570557 184.0
1864.733887 152.0
1865.64502 148.0
1866.805786 204.0
1867.201294 152.0
1867.562622 180.0
1868.233521 168.0
1868.517456 220.0
1868.861572 212.0
1869.283203 204.0
1870.432617 136.0
1871.839722 208.0
1872.055054 188.0
1872.390869 140.0
1872.606201 164.0
1873.584229 184.0
1873.682861 156.0
1874.087891 156.0
1874.51001 156.0
1874.607422 156.0
1875.215942 136.0
1875.690796 184.0
1876.834595 144.0
1877.156372 176.0
1877.5 176.0
1877.794556 228.0
1878.005249 120.0
1879.502197 168.0
1879.547363 196.0
1879.942627 396.0
1880.011719 156.0
1880.227417 152.0
1880.773193 208.0
1881.712158 148.0
1882.022949 204.0
1882.204224 144.0
1882.273315 160.0
1882.765625 180.0
1883.050537 156.0
1883.188721 140.0
1883.491089 196.0
1883.594727 204.0
1884.294434 168.0
1884.372192 148.0
1884.903198 220.0
1886.593262 148.0
1887.129272 168.0
1887.207031 276.0
1887.331177 204.0
1887.431885 180.0
1887.864258 140.0
1888.045898 188.0
1888.244751 168.0
1888.417725 160.0
1889.092407 148.0
1889.555176 160.0
1889.931641 152.0
1890.295044 180.0
1890.831543 140.0
1891.047974 180.0
1891.342163 192.0
1891.954834 224.0
1892.415649 180.0
1892.614746 180.0
1893.290161 204.0
1893.37561 208.0
1893.443359 324.0
1893.671265 204.0
1894.208252 184.0
1894.464111 168.0
1894.693359 220.0
1895.481812 212.0
1895.568481 156.0
1896.825195 208.0
1897.952148 184.0
1898.090942 152.0
1898.75 152.0
1898.819336 172.0
1899.224609 192.0
1899.947021 168.0
1901.395996 216.0
1901.69104 196.0
1902.619873 144.0
1902.81897 164.0
1902.915405 180.0
1903.213379 144.0
1903.965698 196.0
1904.391357 204.0
1905.074951 164.0
1905.338135 196.0
1905.442383 176.0
1906.085327 160.0
1906.354736 148.0
1906.519775 140.0
1906.67627 188.0
1906.945679 184.0
1907.10083 224.0
1907.499268 204.0
1907.588867 144.0
1907.714233 168.0
1908.510376 320.0
1908.640869 232.0
1908.814697 180.0
1909.035645 156.0
1909.397339 160.0
1909.823364 164.0
1910.823975 156.0
1911.411621 200.0
1912.452637 196.0
1913.106445 232.0
1914.20105 192.0
1914.357056 144.0
1915.185181 184.0
1915.498047 164.0
1915.577148 176.0
1915.716553 196.0
1916.483154 164.0
1917.110596 148.0
1917.502686 176.0
1917.615967 168.0
1917.860107 188.0
1918.011963 196.0
1918.679443 212.0
1918.784058 144.0
1918.881592 152.0
1919.029175 172.0
1919.206421 208.0
1919.560059 152.0
1919.703857 144.0
1920.624023 204.0
1920.946777 168.0
1921.61853 244.0
1921.688354 184.0
1921.970825 188.0
1922.26416 208.0
1922.502197 156.0
1923.044312 196.0
1923.321289 156.0
1923.510864 296.0
1924.070923 156.0
1924.362915 108.0
1925.127441 180.0
1925.214722 152.0
1925.616455 168.0
1925.976807 140.0
1926.090454 148.0
1926.598022 152.0
1927.328613 228.0
1927.525879 176.0
1928.604736 140.0
1928.779297 180.0
1929.382568 164.0
1929.461182 164.0
1929.767212 196.0
1929.950806 176.0
1930.204346 164.0
1930.799072 204.0
1931.035156 188.0
1931.546509 216.0
1931.717407 140.0
1931.892334 124.0
1932.244385 168.0
1932.51001 112.0
1932.827637 164.0
1933.213501 188.0
1933.581055 184.0
1933.904907 144.0
1934.193726 144.0
1934.377563 172.0
1934.701416 208.0
1934.929077 232.0
1935.48938 172.0
1935.550659 168.0
1935.717041 180.0
1935.909668 176.0
1936.198975 156.0
1936.295044 180.0
1936.959839 204.0
1937.410034 160.0
1938.266113 152.0
1938.388794 148.0
1938.642822 252.0
1939.23877 160.0
1939.606934 236.0
1939.699219 244.0
1940.066406 180.0
1940.218628 200.0
1940.430908 152.0
1940.790405 156.0
1940.939453 140.0
1941.272705 144.0
1941.351562 144.0
1942.148926 184.0
1942.246216 140.0
1943.00061 180.0
1943.114624 200.0
1943.568604 184.0
1943.93103 160.0
1944.088623 152.0
1944.255371 148.0
1944.518677 168.0
1944.606445 208.0
1944.931152 212.0
1945.923096 164.0
1946.19165 220.0
1947.878052 128.0
1948.390991 144.0
1949.485229 212.0
1949.867188 232.0
1950.21875 156.0
1950.438477 204.0
1951.000977 168.0
1951.190186 108.0
1951.431763 200.0
1951.671631 176.0
1951.770264 172.0
1952.537231 208.0
1952.645264 156.0
1953.014648 288.0
1953.185547 196.0
1953.832764 196.0
1954.510254 176.0
1955.117432 208.0
1955.877808 132.0
1956.023926 148.0
1956.191162 164.0
1956.516968 140.0
1956.99231 224.0
1957.144531 180.0
1957.481567 236.0
1957.793579 192.0
1959.158813 148.0
1959.317383 176.0
1960.048706 144.0
1960.625854 128.0
1960.782837 204.0
1961.097412 144.0
1961.617432 276.0
1961.784912 172.0
1962.005371 180.0
1962.119873 176.0
1962.205566 156.0
1962.323608 160.0
1962.428467 220.0
1962.613647 168.0
1962.781128 172.0
1963.222046 252.0
1963.310303 172.0
1963.97168 164.0
1964.368652 152.0
1964.43042 260.0
1964.761597 184.0
1965.312622 152.0
1966.203857 156.0
1966.292114 156.0
1967.189575 172.0
1967.289551 184.0
1967.633789 180.0
1967.722168 280.0
1968.32251 168.0
1968.467407 172.0
1968.674316 168.0
1969.399902 200.0
1969.659546 172.0
1969.762085 172.0
1969.859253 168.0
1970.186035 192.0
1970.247925 220.0
1970.406982 208.0
1970.495239 208.0
1970.601318 164.0
1970.671997 144.0
1971.269409 244.0
1972.380859 160.0
1972.545532 160.0
1973.164307 232.0
1973.756714 152.0
1974.110352 160.0
1974.800171 204.0
1975.242432 160.0
1975.621826 144.0
1975.702515 148.0
1975.938843 196.0
1977.749023 248.0
1977.916992 140.0
1978.012085 212.0
1978.490112 148.0
1978.614014 192.0
1978.765747 184.0
1978.950439 196.0
1979.074463 172.0
1979.4375 172.0
1979.543701 152.0
1980.509033 148.0
1980.810181 192.0
1981.12915 160.0
1981.590942 192.0
1981.740356 152.0
1981.837891 148.0
1982.13916 204.0
1982.422729 168.0
1982.511353 156.0
1982.704346 144.0
1983.574829 160.0
1984.314453 136.0
1985.039795 116.0
1985.2771 160.0
1985.631836 148.0
1985.750977 196.0
1985.818115 156.0
1986.007324 228.0
1986.252686 172.0
1986.350586 112.0
1987.175293 164.0
1987.255127 192.0
1987.698853 184.0
1988.051514 172.0
1988.246094 172.0
1988.355713 156.0
1988.923584 204.0
1988.992432 224.0
1989.704712 232.0
1989.891113 172.0
1990.123779 196.0
1990.210815 180.0
1990.397217 140.0
1990.468262 224.0
1990.779053 164.0
1991.018799 148.0
1991.720825 204.0
1992.333374 196.0
1992.647095 104.0
1993.026367 156.0
1994.445312 108.0
1994.723877 160.0
1994.866089 168.0
1995.150513 140.0
1996.09375 184.0
1996.884399 180.0
1997.196655 160.0
1998.272095 220.0
1998.543091 160.0
1998.841553 148.0
1999.090698 176.0
1999.570068 224.0
2000.007446 180.0
2000.265503 224.0
2000.77832 160.0
2001.859131 184.0
2002.219116 144.0
2002.616211 272.0
2002.723022 148.0
2003.230835 156.0
