>compound Beclomethasone dipropionate
>formula C28H37ClO7 
>ionization [M+H]+
>parentmass 521.2300576560906
#inchi InChI=1S/C28H37ClO7/c1-6-23(33)35-15-22(32)28(36-24(34)7-2)16(3)12-20-19-9-8-17-13-18(30)10-11-25(17,4)27(19,29)21(31)14-26(20,28)5/h10-11,13,16,19-21,31H,6-9,12,14-15H2,1-5H3/t16-,19-,20-,21-,25-,26-,27-,28-/m0/s1
#inchikey KUVIULQEHSCUHY
#Ion_Source LC-ESI
#Instrument qTof
#Compound_Source Commercial
#PI Dorrestein
#Data_Collector Garg_Neha
#Scan -1
#Precursor_MZ 521.233
#ExactMass 520.223
#Charge 1
#CAS_Number N/A
#Pubmed_ID N/A
#Smiles N/A
#INCHI_AUX N/A
#Library_Class 1
#SpectrumID CCMSLIB00000077098
#IonMode Positive
#UpdateWorkflowName UPDATE-SINGLE-ANNOTATED-GOLD
#LibraryQualityString Gold
#TaskID 48f7f52fc6d249b5abbcc6e7b3df5969
##Scan# 2567
#SpectrumFile NCP003106_C2_D11_BB3_01_15706.mzXML
#LibraryName NIH_Clinical_Collection_2.mgf
#MQScore -1
#Organism NIHcollection2_04212014_2_mgf
#TIC_Query 0
#RT_Query -1
#MZErrorPPM -1
#SharedPeaks 0
#MassDiff 0
#LibMZ -1
#SpecMZ 521.233
#SpecCharge 0
#internalFilename spec-00000.mgf

>collision 10
45.123051 192.0
45.33588 156.0
45.472675 196.0
45.74823 184.0
46.052979 156.0
46.082699 196.0
46.180031 144.0
48.001949 200.0
50.745605 180.0
51.391338 184.0
52.511723 152.0
52.839634 152.0
53.610668 160.0
54.179951 144.0
55.030613 164.0
55.499653 144.0
56.80164 152.0
58.860016 196.0
59.79208 168.0
59.873676 176.0
60.121883 220.0
60.206791 152.0
60.560966 204.0
60.748528 152.0
61.450169 204.0
61.786072 152.0
62.025669 156.0
62.745289 168.0
63.385799 148.0
63.520561 152.0
64.568619 156.0
66.528023 180.0
66.61734 176.0
66.633591 160.0
66.926353 184.0
67.586937 136.0
69.063118 188.0
69.704712 164.0
69.732964 164.0
69.744598 140.0
69.947533 160.0
69.989151 260.0
70.289192 148.0
71.361183 168.0
71.595085 168.0
72.923347 192.0
75.382553 164.0
75.778793 176.0
75.921364 144.0
75.952148 152.0
78.361191 172.0
78.941917 144.0
79.317253 172.0
80.582565 148.0
80.943871 176.0
82.509239 176.0
83.852501 188.0
83.99472 152.0
84.122459 168.0
84.146194 144.0
84.286835 200.0
86.140617 160.0
86.218224 144.0
86.63269 164.0
87.509285 160.0
87.709343 184.0
88.465149 168.0
88.886856 164.0
89.887932 160.0
90.086174 152.0
90.576111 212.0
91.054924 176.0
92.06543 188.0
93.074516 248.0
93.786331 172.0
94.220512 192.0
94.570518 200.0
94.921173 172.0
95.049194 192.0
95.089386 164.0
95.198669 156.0
95.443512 164.0
96.707664 208.0
97.56488 148.0
97.832428 180.0
99.044891 140.0
99.502983 168.0
99.588371 160.0
99.618164 180.0
100.659821 160.0
100.939575 160.0
103.238091 168.0
103.934929 240.0
105.072296 412.0
105.137573 144.0
105.846924 200.0
106.848541 180.0
106.879402 192.0
107.047623 228.0
107.085533 492.0
107.168129 180.0
108.498672 152.0
109.063942 332.0
109.100632 184.0
109.760727 140.0
110.217857 168.0
110.316086 184.0
110.516861 156.0
111.045517 188.0
111.08149 164.0
112.788147 172.0
114.106728 148.0
114.374763 148.0
114.988609 140.0
115.03965 8116.0
115.069328 172.0
115.315384 304.0
116.044434 432.0
116.18261 180.0
116.231956 152.0
117.069504 428.0
117.242653 164.0
119.005615 176.0
119.046875 176.0
119.08728 304.0
119.453308 152.0
119.503349 148.0
119.623047 148.0
120.090309 156.0
120.624298 232.0
121.065544 2276.0
121.103638 196.0
121.129776 188.0
121.829559 160.0
122.066788 244.0
122.115311 256.0
122.388191 164.0
122.522545 148.0
123.080795 412.0
123.113678 144.0
124.46225 140.0
125.061401 152.0
125.095879 144.0
125.118141 168.0
127.026604 136.0
128.064346 428.0
128.594925 160.0
129.067581 496.0
129.367966 196.0
129.605774 148.0
130.07402 188.0
130.332169 132.0
130.350037 176.0
130.853256 152.0
131.051834 168.0
131.086365 720.0
131.44989 160.0
132.065125 136.0
132.114777 184.0
132.334473 164.0
132.779037 192.0
133.066101 308.0
133.101425 972.0
134.10527 156.0
135.031464 176.0
135.080536 4560.0
135.451477 96.0
136.085403 520.0
136.432007 256.0
136.457581 184.0
136.594788 140.0
136.638992 224.0
137.094574 392.0
138.204544 212.0
138.916763 236.0
139.026779 180.0
139.078949 336.0
139.103409 148.0
140.037979 188.0
140.728912 172.0
141.069244 296.0
142.079803 116.0
142.285782 160.0
142.400772 200.0
142.612244 140.0
143.086166 556.0
143.157043 156.0
144.059525 340.0
144.09346 296.0
144.3526 172.0
144.598999 176.0
144.795319 148.0
145.063599 1384.0
145.100952 668.0
145.334686 184.0
145.894287 160.0
146.072937 544.0
146.099808 148.0
146.845428 216.0
147.014297 204.0
147.0336 140.0
147.080795 7908.0
147.117966 360.0
147.233978 160.0
148.083862 736.0
148.110016 160.0
149.095779 676.0
149.719803 172.0
150.096634 264.0
151.077057 2524.0
151.112686 316.0
151.201691 148.0
152.072189 160.0
152.688431 156.0
153.042603 172.0
153.064499 180.0
153.09137 2740.0
154.076324 176.0
154.097961 552.0
154.125595 160.0
155.06282 552.0
155.0858 212.0
155.353607 152.0
156.026611 172.0
156.069946 364.0
156.165863 160.0
157.061905 564.0
157.101517 860.0
157.446625 180.0
158.070282 284.0
158.449951 176.0
159.080139 2884.0
159.114914 432.0
160.085571 720.0
161.057617 268.0
161.097 1900.0
162.062958 152.0
162.098282 304.0
162.128845 152.0
162.633545 144.0
162.864609 144.0
163.075378 436.0
163.109283 524.0
163.255997 204.0
164.074371 284.0
164.111969 148.0
165.093735 564.0
166.060196 160.0
166.085709 152.0
166.419464 184.0
167.06781 176.0
167.106796 488.0
167.935196 204.0
168.108704 376.0
169.064651 636.0
169.1008 732.0
170.069016 440.0
170.10817 452.0
171.057022 160.0
171.080765 5248.0
171.115204 568.0
171.317947 192.0
171.533661 180.0
172.085007 620.0
172.945404 112.0
173.063705 228.0
173.095779 2832.0
174.10025 508.0
175.08017 360.0
175.110901 500.0
175.841171 168.0
175.949387 176.0
177.046524 168.0
177.092072 880.0
177.124435 164.0
177.358475 180.0
178.080414 484.0
178.961273 168.0
178.99588 164.0
179.041153 200.0
179.067642 148.0
179.090714 316.0
179.102325 476.0
180.088882 300.0
180.252258 164.0
181.044083 356.0
181.087616 364.0
181.117813 140.0
181.840332 160.0
182.070694 116.0
182.112106 160.0
182.173279 184.0
183.031235 172.0
183.080109 696.0
183.114548 316.0
183.138947 188.0
184.085831 320.0
184.131485 148.0
184.715302 176.0
184.780228 168.0
185.060806 484.0
185.095993 5208.0
185.186279 156.0
185.747345 140.0
185.91713 104.0
186.101273 1352.0
187.045746 136.0
187.075638 1716.0
187.112823 984.0
187.580124 208.0
188.07988 148.0
188.109283 140.0
189.091843 164.0
189.12738 168.0
190.072113 328.0
190.233566 172.0
191.06218 420.0
191.086304 376.0
192.507797 172.0
192.795105 244.0
193.0522 228.0
193.100418 404.0
194.079575 284.0
194.109222 152.0
195.060654 264.0
195.114853 320.0
195.179077 196.0
195.330032 112.0
195.482269 156.0
196.083328 288.0
196.120041 308.0
196.159058 176.0
196.795135 140.0
197.055313 348.0
197.09523 2320.0
197.133133 144.0
198.054932 156.0
198.104828 488.0
198.45993 164.0
199.079117 364.0
199.112671 1228.0
199.671585 124.0
200.079987 212.0
200.121048 172.0
201.045029 148.0
201.089508 300.0
201.128983 528.0
201.513763 168.0
202.076401 156.0
202.135818 152.0
203.066483 288.0
203.111237 200.0
204.06459 160.0
204.109161 308.0
205.044113 572.0
205.077805 208.0
205.099899 524.0
206.111572 232.0
207.056702 580.0
207.067917 408.0
207.09137 260.0
207.142838 256.0
207.357361 168.0
208.059235 176.0
208.089233 724.0
208.351624 204.0
209.030167 168.0
209.06662 372.0
209.097183 1528.0
209.415939 188.0
209.585907 140.0
209.709824 156.0
210.059921 336.0
210.103699 768.0
211.075241 456.0
211.111465 1184.0
211.706833 156.0
212.116516 372.0
213.071365 484.0
213.092117 696.0
213.124527 412.0
213.668335 216.0
214.095245 352.0
214.136978 144.0
214.352554 148.0
214.405014 156.0
214.533264 152.0
215.113251 392.0
215.248077 160.0
216.070755 184.0
216.094818 276.0
216.382538 188.0
216.780899 168.0
217.077652 408.0
217.126892 300.0
217.823486 168.0
218.076279 308.0
218.105911 180.0
219.057159 632.0
219.092072 128.0
220.060623 176.0
220.090073 488.0
220.412109 140.0
221.096832 1844.0
222.102661 1412.0
222.22197 188.0
222.901169 152.0
222.966553 144.0
223.051102 148.0
223.112671 2988.0
223.436829 176.0
223.933472 172.0
224.079437 172.0
224.117203 920.0
224.460953 140.0
224.654816 144.0
224.780121 148.0
225.042786 160.0
225.112823 1984.0
225.535828 96.0
225.687424 108.0
226.077042 152.0
226.114136 260.0
226.135605 268.0
226.318604 200.0
227.078583 244.0
227.105423 428.0
227.142715 196.0
228.09259 268.0
229.041275 280.0
229.077698 556.0
229.1091 500.0
229.120346 220.0
229.724625 160.0
230.059601 176.0
230.105774 460.0
230.911697 144.0
231.057953 200.0
231.079468 404.0
231.118774 408.0
231.448914 160.0
232.060974 160.0
232.086929 276.0
232.123352 204.0
232.441544 168.0
233.074234 756.0
233.097519 524.0
233.120087 688.0
234.107529 1312.0
234.201797 184.0
234.701584 152.0
235.072876 320.0
235.110428 2648.0
235.213135 160.0
235.883087 164.0
236.114777 636.0
236.161774 168.0
236.286758 148.0
236.314285 172.0
237.064484 180.0
237.127075 2168.0
238.127914 404.0
238.470078 144.0
239.102509 624.0
239.14444 976.0
239.177246 192.0
239.590149 184.0
239.713791 160.0
239.919891 140.0
240.080231 160.0
240.108154 128.0
240.146698 160.0
241.10051 324.0
241.122955 728.0
241.15889 252.0
241.99913 236.0
242.109451 292.0
243.018845 176.0
243.052841 172.0
243.114838 616.0
243.630463 172.0
244.07135 148.0
244.122559 296.0
244.233521 164.0
245.075928 428.0
245.095505 788.0
245.136368 432.0
245.919159 168.0
245.9991 176.0
246.07309 156.0
246.104462 664.0
246.134903 308.0
246.959595 156.0
247.109055 668.0
247.316284 200.0
247.657578 140.0
247.735886 168.0
248.118454 1924.0
248.151443 132.0
248.95285 200.0
249.085541 160.0
249.127258 3988.0
250.015411 164.0
250.097778 100.0
250.133011 1448.0
250.172791 204.0
250.408951 140.0
251.114029 140.0
251.145401 1060.0
251.175537 116.0
252.151764 284.0
252.184372 128.0
253.075455 140.0
253.116714 452.0
253.161011 328.0
254.127563 208.0
254.180405 144.0
255.064423 208.0
255.119843 136.0
255.257233 140.0
256.112549 128.0
257.071411 1072.0
257.128845 140.0
257.392181 232.0
258.096375 576.0
258.141571 464.0
259.072327 256.0
259.107117 868.0
259.144012 296.0
259.959442 148.0
260.083527 388.0
260.118805 840.0
261.127319 3608.0
261.162079 556.0
261.598602 164.0
262.071503 208.0
262.132751 2928.0
262.22348 164.0
262.352417 140.0
262.973145 224.0
263.050842 112.0
263.103577 584.0
263.14325 10004.0
263.494873 368.0
263.80835 160.0
264.059906 196.0
264.11496 364.0
264.146301 2368.0
264.270813 220.0
265.150482 144.0
265.485535 188.0
266.017639 144.0
266.13559 184.0
266.172943 268.0
266.933838 188.0
267.101288 108.0
267.141693 452.0
267.17276 428.0
268.004761 164.0
268.124512 460.0
268.177795 156.0
268.881958 148.0
269.079498 176.0
269.129456 272.0
269.199249 144.0
269.992737 164.0
270.104218 196.0
271.091858 628.0
271.113312 740.0
271.54837 148.0
272.120056 1088.0
272.763245 212.0
272.809265 140.0
272.904602 148.0
273.055878 140.0
273.093414 244.0
273.127136 1412.0
273.16391 1428.0
273.654755 156.0
274.079651 344.0
274.137024 792.0
274.524658 160.0
275.026154 148.0
275.087036 464.0
275.100952 340.0
275.143127 3768.0
276.113312 248.0
276.151001 3568.0
276.602814 176.0
277.073975 116.0
277.122101 672.0
277.158844 9260.0
277.303375 128.0
277.435303 108.0
278.074493 140.0
278.125793 140.0
278.163666 5012.0
278.522705 208.0
278.765259 188.0
278.799347 200.0
278.825073 148.0
278.987946 148.0
279.066406 136.0
279.137329 1108.0
279.174438 20704.0
279.407227 128.0
279.854828 204.0
280.029449 144.0
280.178345 3656.0
280.3526 180.0
280.710052 120.0
281.120605 172.0
281.151184 852.0
281.183624 940.0
281.450073 148.0
281.811493 136.0
281.937775 172.0
282.074799 232.0
282.103973 116.0
282.154053 312.0
282.180725 300.0
282.20108 380.0
283.084656 148.0
283.115417 316.0
283.148163 448.0
284.091461 160.0
284.15271 336.0
284.852722 144.0
285.118195 380.0
285.157318 208.0
285.652771 192.0
286.135132 1836.0
286.453918 160.0
286.79425 180.0
287.067688 144.0
287.141205 972.0
288.145874 532.0
288.681488 144.0
289.118591 744.0
289.158997 2420.0
289.500427 140.0
289.571533 196.0
290.134979 560.0
290.160431 536.0
290.198456 140.0
290.261871 96.0
290.90094 112.0
291.097015 172.0
291.139526 1072.0
291.174255 12020.0
292.178741 3236.0
292.944458 144.0
293.154083 744.0
294.078033 112.0
294.161316 284.0
294.718506 148.0
295.08847 312.0
295.131256 292.0
295.171356 1656.0
296.174316 380.0
296.201416 184.0
296.98822 160.0
297.105743 632.0
297.184814 2464.0
297.341614 172.0
297.911591 164.0
298.103271 260.0
298.188751 392.0
298.645233 112.0
299.122162 1036.0
299.190948 140.0
300.11969 124.0
300.147278 212.0
300.686859 148.0
301.025177 164.0
301.056549 144.0
301.112793 252.0
301.15918 18328.0
301.317688 204.0
301.643616 176.0
302.057159 148.0
302.164917 3188.0
303.074219 160.0
303.137207 876.0
303.164429 732.0
303.669189 164.0
304.144012 1044.0
304.284027 140.0
305.081726 100.0
305.151855 688.0
306.063293 156.0
306.162262 792.0
306.35611 180.0
307.08429 136.0
307.128448 324.0
307.168396 1604.0
308.097198 252.0
308.171967 388.0
308.393921 156.0
309.094482 120.0
309.184143 2848.0
310.096985 288.0
310.143982 296.0
310.189087 760.0
311.087463 120.0
311.124115 940.0
311.170746 208.0
312.119598 108.0
312.162689 188.0
313.101471 944.0
313.136475 2464.0
314.104767 128.0
314.140228 436.0
315.141846 880.0
316.090698 128.0
316.141418 400.0
316.51004 148.0
317.023682 168.0
317.14386 444.0
318.181763 120.0
318.322021 152.0
318.359955 128.0
318.886871 144.0
319.015594 164.0
319.061066 144.0
319.170258 28724.0
319.227509 128.0
320.172058 6552.0
321.08786 136.0
321.118225 144.0
321.17804 716.0
321.704865 136.0
321.9711 156.0
322.178345 340.0
322.376404 136.0
323.114807 176.0
323.163544 304.0
323.202179 148.0
323.302094 184.0
323.463806 196.0
324.10968 132.0
324.164673 124.0
324.796387 268.0
325.135986 892.0
325.176147 768.0
326.149902 156.0
326.181519 280.0
326.498566 160.0
327.150574 596.0
328.117218 128.0
328.153229 148.0
328.200439 156.0
328.948639 140.0
329.145508 480.0
329.193024 228.0
330.010773 148.0
330.157257 112.0
330.296448 140.0
330.723419 232.0
331.147858 284.0
331.202332 152.0
332.107513 148.0
332.141449 136.0
332.173279 160.0
333.180817 244.0
334.190582 372.0
335.113617 152.0
335.17395 236.0
335.199615 1360.0
335.245087 196.0
336.177429 156.0
336.204956 304.0
336.408569 152.0
336.484955 100.0
336.802948 140.0
336.899384 160.0
337.004272 140.0
337.069641 156.0
337.13562 8820.0
337.18045 20196.0
337.268127 104.0
337.702087 152.0
337.820343 140.0
338.08844 204.0
338.137482 2416.0
338.183136 6012.0
338.297241 160.0
339.078705 168.0
339.133911 2136.0
339.187134 536.0
340.13681 672.0
341.126007 180.0
341.28125 152.0
341.393097 100.0
342.13501 128.0
343.14798 464.0
343.667999 140.0
344.148468 612.0
345.152069 256.0
345.186829 280.0
346.163025 196.0
346.197845 164.0
347.052338 156.0
347.168335 308.0
347.197876 316.0
348.213745 144.0
351.117249 160.0
351.151855 140.0
351.198578 1296.0
351.844391 156.0
352.161804 152.0
352.197296 212.0
353.129364 248.0
353.212982 300.0
354.180939 140.0
355.066101 224.0
355.146118 5892.0
355.190887 6168.0
355.839111 248.0
356.148041 2420.0
356.19458 1756.0
357.144409 1920.0
357.193359 588.0
357.934875 132.0
358.102875 144.0
358.149994 592.0
359.141571 144.0
362.159363 176.0
363.157166 140.0
363.19632 484.0
364.19635 180.0
365.214569 444.0
366.215637 188.0
367.185822 224.0
368.199097 164.0
369.123901 144.0
369.162445 456.0
370.155792 216.0
371.150513 156.0
371.164246 224.0
371.214661 140.0
371.333557 184.0
372.167969 164.0
372.200836 188.0
372.733948 152.0
373.157227 7684.0
373.903809 196.0
374.157104 2052.0
374.693176 152.0
375.03894 132.0
375.154541 3216.0
375.194733 2332.0
375.294434 184.0
375.332977 156.0
375.691681 224.0
376.008087 188.0
376.11615 140.0
376.15564 680.0
376.200897 732.0
376.382538 208.0
376.509949 220.0
377.166901 128.0
381.202087 320.0
382.151825 124.0
382.203979 196.0
383.154327 152.0
383.219604 456.0
384.238342 220.0
384.921387 148.0
385.265106 160.0
387.142944 144.0
388.176758 100.0
389.173737 144.0
389.205139 140.0
391.166321 3180.0
391.257477 216.0
392.168732 568.0
392.724304 188.0
392.900879 156.0
392.935333 152.0
393.034424 164.0
393.162811 1476.0
393.207092 20812.0
393.332306 184.0
393.406189 176.0
393.4534 148.0
393.599487 196.0
394.160004 172.0
394.208618 6304.0
394.635712 128.0
395.1521 120.0
395.214752 972.0
395.784393 112.0
396.176941 192.0
396.226776 240.0
396.760223 100.0
396.996826 140.0
397.199432 96.0
397.339752 144.0
397.554016 156.0
398.137604 172.0
398.769287 164.0
399.168915 256.0
400.077942 172.0
402.198639 144.0
403.153168 156.0
404.645172 160.0
410.338196 152.0
410.821075 104.0
410.858459 184.0
411.217163 12304.0
411.297668 180.0
411.870636 136.0
411.984772 176.0
412.171692 504.0
412.219696 3056.0
412.326691 116.0
412.518219 144.0
412.704193 176.0
413.164001 400.0
413.216583 816.0
413.26236 168.0
414.227905 264.0
414.282593 172.0
415.56369 152.0
417.070312 168.0
417.169861 188.0
427.183746 164.0
428.24472 172.0
428.976105 168.0
429.015259 144.0
429.097717 168.0
429.18277 12756.0
429.587219 104.0
429.65155 96.0
429.686798 96.0
430.186768 3720.0
430.259216 120.0
430.306427 136.0
430.516602 152.0
431.182007 5432.0
432.185303 980.0
432.816284 140.0
433.193359 148.0
440.249451 112.0
440.585602 168.0
446.18042 148.0
447.193085 1576.0
447.689667 104.0
448.190399 356.0
449.191711 552.0
450.197784 528.0
466.2659 152.0
467.203278 212.0
467.2388 556.0
468.081268 148.0
468.2388 124.0
470.43103 144.0
485.252533 2100.0
486.254639 896.0
486.872925 108.0
487.253296 160.0
495.722046 164.0
496.307159 148.0
500.487793 104.0
500.887634 144.0
501.74234 120.0
501.817322 100.0
502.13266 168.0
502.192688 140.0
502.542908 112.0
502.773712 108.0
502.897919 116.0
503.086609 144.0
503.220795 55272.0
503.596985 160.0
503.785675 164.0
503.819946 228.0
503.930237 136.0
504.223145 17608.0
504.47403 148.0
504.694489 112.0
504.875397 120.0
504.936157 112.0
504.991089 184.0
505.077026 224.0
505.218597 23104.0
505.32312 184.0
505.503143 96.0
505.695892 128.0
505.903137 168.0
506.062714 112.0
506.219727 3536.0
506.49353 296.0
506.685669 116.0
506.81958 228.0
506.896027 108.0
507.141266 184.0
507.223236 492.0
507.294952 104.0
507.481293 132.0
508.833923 168.0
508.937317 132.0
509.094788 168.0
513.666748 100.0
518.4729 172.0
521.232117 3180.0
522.231201 940.0
523.223877 780.0
524.230164 512.0
525.228516 124.0
698.419189 160.0
740.368286 152.0
908.919067 156.0
991.29071 176.0
1313.676025 164.0
1332.891235 200.0
1336.23584 252.0
1476.851074 172.0
1524.917847 176.0
1534.781128 160.0
1552.853394 176.0
1575.7052 196.0
1583.077148 176.0
1604.658081 156.0
1610.986816 148.0
1643.042725 172.0
1651.055542 208.0
1691.632812 140.0
1709.648804 176.0
1722.11438 160.0
1757.721313 276.0
1760.333984 172.0
1765.615601 140.0
1771.784546 180.0
1772.622437 152.0
1778.660889 200.0
1794.012817 172.0
1794.114014 148.0
1794.291016 208.0
1795.319702 152.0
1828.810669 140.0
1861.322998 140.0
1885.184326 192.0
1903.965942 176.0
1928.972168 176.0
1951.344849 148.0
1952.057007 204.0
1977.234619 140.0
1999.083496 192.0
