>compound MLS000862181-01!GR 113808
>formula C19H27N3O4S
>ionization [M+H]+
>parentmass 394.178558
#inchi InChI=1S/C19H27N3O4S/c1-21-13-17(16-5-3-4-6-18(16)21)19(23)26-14-15-7-10-22(11-8-15)12-9-20-27(2,24)25/h3-6,13,15,20H,7-12,14H2,1-2H3
#inchikey MOZPSIXKYJUTKI
#Ion_Source LC-ESI
#Instrument qTof
#Compound_Source NIH Pharmacologically Active Library
#PI Dorrestein
#Data_Collector VP/LMS
#Scan -1
#Precursor_MZ 394.187
#ExactMass 393.172
#Charge 1
#CAS_Number N/A
#Pubmed_ID N/A
#Smiles Cn1cc(C(=O)OCC2CCN(CCNS(=O)(=O)C)CC2)c3ccccc13
#INCHI_AUX N/A
#Library_Class 1
#SpectrumID CCMSLIB00000085650
#IonMode Positive
#UpdateWorkflowName UPDATE-SINGLE-ANNOTATED-GOLD
#LibraryQualityString Gold
#TaskID d252d724072548979f1f6f1ced849daf
##Scan# 1530
#SpectrumFile p4-D10_GD10_01_18370.mzXML
#LibraryName Pharm_Active_Library.mgf
#MQScore -1
#Organism Pharm_Active_Library
#TIC_Query 0
#RT_Query -1
#MZErrorPPM -1
#SharedPeaks 0
#MassDiff 0
#LibMZ -1
#SpecMZ 394.187
#SpecCharge 0
#internalFilename spec-00000.mgf

>collision 10
44.917114 116.0
44.95261 228.0
44.963284 92.0
45.003654 200.0
45.023396 164.0
45.047405 224.0
45.068783 100.0
45.089508 128.0
45.10387 220.0
45.157013 152.0
45.184734 160.0
45.206512 168.0
45.227928 196.0
45.261395 156.0
45.27211 204.0
45.301971 324.0
45.332394 52.0
45.373943 100.0
45.402046 192.0
45.418926 184.0
45.433758 204.0
45.444374 164.0
45.466499 240.0
45.482605 132.0
45.500057 156.0
45.510799 104.0
45.519756 172.0
45.540344 124.0
45.549744 124.0
45.573929 76.0
45.599461 160.0
45.620174 224.0
45.6492 156.0
45.658894 136.0
45.707623 112.0
45.73127 92.0
45.773003 228.0
45.783009 144.0
45.809368 44.0
45.820145 152.0
45.833618 128.0
45.844398 88.0
45.871357 204.0
45.902367 184.0
45.937431 144.0
45.977913 116.0
45.990059 116.0
46.025158 104.0
46.046986 208.0
46.067028 120.0
46.083649 148.0
46.112888 136.0
46.136837 152.0
46.150112 320.0
46.18182 104.0
46.198158 120.0
46.223618 132.0
46.237839 172.0
46.253086 168.0
46.279575 252.0
46.30864 232.0
46.328117 80.0
46.338955 168.0
46.356571 180.0
46.385033 104.0
46.417572 236.0
46.433846 184.0
46.447205 160.0
46.471828 92.0
46.493542 260.0
46.519569 204.0
46.545124 128.0
46.559555 128.0
46.567364 128.0
46.610329 144.0
46.674213 80.0
46.694965 200.0
46.706856 124.0
46.720459 80.0
46.736786 152.0
46.764004 168.0
46.773529 176.0
46.817101 240.0
46.839603 144.0
46.863201 180.0
46.883854 156.0
46.902935 124.0
46.918587 164.0
46.960255 200.0
46.977833 272.0
47.028557 196.0
47.044804 120.0
47.062553 116.0
47.0844 156.0
47.100899 152.0
47.119644 148.0
47.142551 240.0
47.15818 128.0
47.169868 116.0
47.186886 124.0
47.202583 200.0
47.206219 200.0
47.212048 228.0
47.218613 240.0
47.235729 168.0
47.259377 164.0
47.279903 176.0
47.300434 180.0
47.309814 164.0
47.325077 104.0
47.383968 136.0
47.407265 160.0
47.471695 200.0
47.501869 168.0
47.53754 224.0
47.54715 184.0
47.568424 192.0
47.588329 128.0
47.608521 148.0
47.663429 172.0
47.668709 116.0
47.68449 188.0
47.696262 156.0
47.714729 204.0
47.734428 184.0
47.750484 120.0
47.760113 128.0
47.779369 200.0
47.808266 148.0
47.828911 160.0
47.864746 136.0
47.878475 156.0
47.903271 140.0
47.931831 164.0
47.948738 176.0
47.977688 124.0
47.991306 132.0
48.005081 344.0
48.035606 116.0
48.074238 112.0
48.106487 252.0
48.123932 180.0
48.141582 184.0
48.151974 208.0
48.169899 140.0
48.206238 152.0
48.220631 208.0
48.24535 172.0
48.268002 196.0
48.281357 156.0
48.304977 84.0
48.32497 220.0
48.336796 124.0
48.359177 188.0
48.399864 148.0
48.41589 180.0
48.435768 156.0
48.46003 148.0
48.473934 116.0
48.487579 168.0
48.544548 148.0
48.576485 220.0
48.600758 164.0
48.629452 140.0
48.641705 172.0
48.681969 36.0
48.708694 132.0
48.727772 152.0
48.743092 112.0
48.756989 116.0
48.777275 208.0
48.810661 180.0
48.828789 168.0
48.841118 220.0
48.852898 176.0
48.867016 96.0
48.874458 172.0
48.906033 124.0
48.932259 308.0
48.943398 152.0
48.982391 152.0
48.992142 72.0
49.00713 148.0
49.030121 204.0
49.047886 144.0
49.068287 88.0
49.088314 192.0
49.115669 164.0
49.12458 300.0
49.142052 160.0
49.144485 224.0
49.180393 212.0
49.243225 52.0
49.300507 100.0
49.31728 156.0
49.329857 68.0
49.362015 164.0
49.378796 72.0
49.388588 136.0
49.441483 164.0
49.459305 104.0
49.479008 424.0
49.493549 172.0
49.521557 168.0
49.535263 148.0
49.546703 164.0
49.575787 68.0
49.595818 276.0
49.617798 324.0
49.629467 112.0
49.645058 200.0
49.676624 192.0
49.709419 112.0
49.730473 196.0
49.75338 264.0
49.766335 132.0
49.794468 124.0
49.804367 248.0
49.8372 260.0
49.855469 164.0
49.868938 196.0
49.881733 184.0
49.899044 136.0
49.911697 160.0
49.932793 220.0
49.942638 120.0
49.95224 116.0
50.059452 128.0
50.080578 156.0
50.107952 240.0
50.116215 148.0
50.129887 140.0
50.155254 296.0
50.177212 160.0
50.239864 120.0
50.355579 168.0
50.386456 152.0
50.405056 64.0
50.423428 108.0
50.440392 140.0
50.451698 44.0
50.465187 136.0
50.508297 168.0
50.519581 108.0
50.534733 124.0
50.58144 168.0
50.589855 352.0
50.622906 56.0
50.636871 144.0
50.654064 132.0
50.686649 120.0
50.701508 140.0
50.72488 160.0
50.739094 160.0
50.754688 108.0
50.778797 204.0
50.808586 172.0
50.839802 148.0
50.866947 176.0
50.883804 124.0
50.901318 300.0
50.92728 156.0
50.932739 96.0
50.984657 208.0
51.010487 232.0
51.041519 172.0
51.050579 156.0
51.09557 204.0
51.11549 304.0
51.12545 312.0
51.140759 180.0
51.173847 156.0
51.202328 260.0
51.222893 164.0
51.254868 200.0
51.274986 104.0
51.290665 140.0
51.314148 144.0
51.338638 68.0
51.361961 140.0
51.379818 224.0
51.403336 152.0
51.417606 232.0
51.42794 332.0
51.461861 144.0
51.475613 172.0
51.491848 200.0
51.511845 48.0
51.534702 192.0
51.578346 144.0
51.595341 244.0
51.621899 124.0
51.662498 236.0
51.673389 188.0
51.722046 180.0
51.736362 44.0
51.761677 212.0
51.77932 124.0
51.789345 156.0
51.849117 228.0
51.868153 148.0
51.881054 148.0
51.89238 196.0
51.920628 288.0
51.947479 176.0
51.959934 140.0
51.991501 116.0
52.025951 172.0
52.040306 136.0
52.051796 220.0
52.061848 200.0
52.089138 76.0
52.126492 124.0
52.139427 116.0
52.149487 208.0
52.167332 212.0
52.193459 116.0
52.195698 220.0
52.244034 224.0
52.265972 180.0
52.286461 168.0
52.302513 132.0
52.324898 200.0
52.34882 268.0
52.360985 164.0
52.371067 120.0
52.384876 200.0
52.437344 108.0
52.49873 200.0
52.519527 128.0
52.551266 192.0
52.561367 108.0
52.583282 192.0
52.610439 112.0
52.629208 208.0
52.641262 184.0
52.683216 192.0
52.710098 184.0
52.727493 108.0
52.739681 136.0
52.757793 60.0
52.780926 128.0
52.820621 188.0
52.886536 152.0
52.90136 184.0
52.931416 128.0
52.960308 156.0
52.989143 164.0
53.010212 336.0
53.030048 344.0
53.04697 204.0
53.063271 164.0
53.082119 196.0
53.097271 152.0
53.121891 156.0
53.134007 176.0
53.15324 196.0
53.174355 152.0
53.189484 160.0
53.199642 148.0
53.267895 116.0
53.288887 268.0
53.302765 224.0
53.314392 124.0
53.331169 184.0
53.350002 72.0
53.36195 128.0
53.398712 140.0
53.409706 136.0
53.433231 156.0
53.451275 216.0
53.489441 260.0
53.505253 148.0
53.541344 156.0
53.570103 204.0
53.587055 188.0
53.666336 180.0
53.682049 140.0
53.702496 140.0
53.771103 168.0
53.79134 192.0
53.836773 132.0
53.844028 184.0
53.849377 232.0
53.891438 104.0
53.918625 324.0
53.929436 200.0
53.952824 100.0
53.963058 120.0
53.99892 244.0
54.031986 188.0
54.043503 184.0
54.076382 196.0
54.131329 216.0
54.176735 152.0
54.227001 144.0
54.240414 132.0
54.259857 144.0
54.27092 152.0
54.295464 92.0
54.32333 132.0
54.339394 160.0
54.390831 136.0
54.412853 116.0
54.426067 240.0
54.444153 152.0
54.464249 132.0
54.48925 160.0
54.507984 156.0
54.528584 204.0
54.589005 208.0
54.610371 176.0
54.630646 164.0
54.642128 84.0
54.681709 200.0
54.790825 176.0
54.811172 168.0
54.826187 100.0
54.882019 140.0
54.908749 84.0
54.939644 216.0
54.953636 224.0
54.972748 440.0
54.986252 128.0
55.004768 316.0
55.026402 124.0
55.07225 144.0
55.099167 136.0
55.148003 84.0
55.171585 184.0
55.192284 144.0
55.205593 144.0
55.227909 148.0
55.255882 112.0
55.282806 144.0
55.308563 248.0
55.325443 120.0
55.338768 112.0
55.364586 128.0
55.386299 164.0
55.400723 168.0
55.411686 172.0
55.427639 152.0
55.448425 152.0
55.470619 116.0
55.481647 132.0
55.503235 64.0
55.516235 172.0
55.558113 236.0
55.5774 136.0
55.596691 136.0
55.607681 208.0
55.629345 104.0
55.695724 148.0
55.711021 184.0
55.768974 208.0
55.780453 216.0
55.784718 156.0
55.809113 216.0
55.831421 120.0
55.881371 124.0
55.900444 500.0
55.916222 256.0
55.940037 176.0
55.974281 160.0
55.987267 100.0
56.011513 120.0
56.028385 168.0
56.058174 188.0
56.082764 176.0
56.101856 320.0
56.121796 148.0
56.146523 412.0
56.196373 184.0
56.213371 224.0
56.229202 132.0
56.253086 200.0
56.330017 120.0
56.34935 212.0
56.430305 160.0
56.442829 144.0
56.459278 160.0
56.471241 164.0
56.521339 144.0
56.531086 176.0
56.553535 128.0
56.589462 108.0
56.622406 40.0
56.646942 144.0
56.672592 136.0
56.685326 144.0
56.697315 168.0
56.731956 144.0
56.748283 196.0
56.767776 268.0
56.78577 200.0
56.803326 220.0
56.842781 104.0
56.854076 236.0
56.908825 160.0
56.952377 180.0
56.97739 184.0
57.004959 188.0
57.036522 156.0
57.084564 176.0
57.119225 152.0
57.14505 120.0
57.242638 128.0
57.26519 164.0
57.305901 56.0
57.325489 148.0
57.336933 164.0
57.348095 160.0
57.358646 160.0
57.369801 212.0
57.391815 120.0
57.414436 272.0
57.43602 180.0
57.449127 160.0
57.477795 92.0
57.500431 184.0
57.524582 132.0
57.542698 212.0
57.558468 324.0
57.596954 112.0
57.623436 140.0
57.629448 64.0
57.637794 104.0
57.642017 164.0
57.645832 228.0
57.683487 268.0
57.702847 152.0
57.740166 212.0
57.765499 140.0
57.78603 172.0
57.804188 200.0
57.814781 188.0
57.835972 196.0
57.846565 80.0
57.867256 204.0
57.889099 172.0
57.902592 168.0
57.920765 124.0
57.938 212.0
57.944416 124.0
57.946888 164.0
57.960045 164.0
57.992714 132.0
58.005432 192.0
58.028114 236.0
58.057175 56.0
58.074284 184.0
58.096611 120.0
58.12999 152.0
58.148201 136.0
58.16338 320.0
58.17704 144.0
58.20285 148.0
58.216518 136.0
58.242336 344.0
58.25927 228.0
58.274239 44.0
58.287445 220.0
58.345673 52.0
58.359356 108.0
58.379124 132.0
58.432362 136.0
58.450619 212.0
58.481056 204.0
58.491459 144.0
58.503891 156.0
58.523792 112.0
58.534344 144.0
58.556099 120.0
58.582317 144.0
58.597824 224.0
58.619648 72.0
58.637936 128.0
58.666897 156.0
58.686718 180.0
58.703491 192.0
58.733421 160.0
58.757111 156.0
58.770607 152.0
58.824024 156.0
58.837681 152.0
58.857613 152.0
58.87899 92.0
58.930882 128.0
58.95385 164.0
58.967766 268.0
58.993587 172.0
59.016068 148.0
59.056301 348.0
59.081207 68.0
59.094936 180.0
59.112888 124.0
59.124123 164.0
59.156544 92.0
59.189426 56.0
59.205444 148.0
59.244957 172.0
59.25695 168.0
59.269077 140.0
59.290531 172.0
59.301548 64.0
59.32732 232.0
59.338051 188.0
59.348782 140.0
59.366539 116.0
59.38559 160.0
59.396214 108.0
59.401543 100.0
59.4081 148.0
59.43161 220.0
59.450024 56.0
59.462303 48.0
59.498299 196.0
59.539444 160.0
59.557495 144.0
59.579002 220.0
59.609734 240.0
59.620491 272.0
59.631248 116.0
59.646618 96.0
59.664135 172.0
59.715809 128.0
59.749374 216.0
59.785042 180.0
59.810707 148.0
59.815025 100.0
59.825386 152.0
59.846859 216.0
59.889736 72.0
59.914383 248.0
59.928249 192.0
59.972939 148.0
60.006855 124.0
60.028442 128.0
60.048759 160.0
60.070084 176.0
60.091816 184.0
60.104027 180.0
60.120296 364.0
60.127689 84.0
60.131382 308.0
60.154957 232.0
60.182995 144.0
60.21981 200.0
60.236416 240.0
60.26152 116.0
60.285084 176.0
60.327263 164.0
60.36972 28.0
60.383457 204.0
60.431595 104.0
60.471096 152.0
60.495049 160.0
60.52644 204.0
60.538273 48.0
60.562222 228.0
60.580341 156.0
60.598389 176.0
60.61121 188.0
60.676308 220.0
60.687695 244.0
60.699562 116.0
60.736382 200.0
60.752686 144.0
60.769363 136.0
60.789536 332.0
60.804527 116.0
60.825233 172.0
60.854729 168.0
60.885784 172.0
60.90287 96.0
60.9268 208.0
60.941708 100.0
60.953629 148.0
60.966572 176.0
61.012268 140.0
61.074425 232.0
61.092514 112.0
61.106438 224.0
61.137638 176.0
61.152813 160.0
61.170048 180.0
61.18589 152.0
61.203018 156.0
61.243507 124.0
61.269989 128.0
61.31179 160.0
61.354149 144.0
61.372856 140.0
61.391571 124.0
61.426712 204.0
61.457565 272.0
61.471886 140.0
61.486736 88.0
61.503902 204.0
61.518791 164.0
61.58041 180.0
61.60228 156.0
61.641338 96.0
61.669472 188.0
61.713242 132.0
61.72575 64.0
61.74139 236.0
61.764305 172.0
61.800602 164.0
61.818047 136.0
61.828495 152.0
61.849346 180.0
61.885288 188.0
61.944866 144.0
61.963665 176.0
61.977764 148.0
61.995003 108.0
62.015377 144.0
62.02784 176.0
62.056137 196.0
62.082794 196.0
62.093769 132.0
62.106319 168.0
62.121574 160.0
62.161015 320.0
62.182808 160.0
62.197327 284.0
62.220718 160.0
62.231846 208.0
62.249138 68.0
62.265839 208.0
62.270027 132.0
62.277081 116.0
62.322964 164.0
62.371681 180.0
62.39212 268.0
62.420883 204.0
62.427132 164.0
62.450302 360.0
62.461311 204.0
62.472324 112.0
62.531868 152.0
62.580917 228.0
62.591938 96.0
62.619286 132.0
62.631313 308.0
62.647064 364.0
62.66597 164.0
62.686455 100.0
62.704105 160.0
62.763565 244.0
62.794601 200.0
62.814701 176.0
62.840981 192.0
62.916359 184.0
62.948315 200.0
62.975163 88.0
62.994118 60.0
63.029537 148.0
63.055065 180.0
63.104744 180.0
63.15377 136.0
63.186989 232.0
63.212307 156.0
63.217934 144.0
63.234463 200.0
63.248707 84.0
63.276745 208.0
63.304119 128.0
63.316341 168.0
63.335796 280.0
63.353222 148.0
63.388077 148.0
63.416718 168.0
63.461857 176.0
63.524429 144.0
63.549812 144.0
63.565681 88.0
63.629169 72.0
63.662899 232.0
63.68475 196.0
63.722874 176.0
63.737968 192.0
63.749889 140.0
63.78833 212.0
63.820309 172.0
63.859631 156.0
63.876289 112.0
63.903332 220.0
63.924812 88.0
63.956646 160.0
64.008904 184.0
64.033897 284.0
64.064171 320.0
64.070885 168.0
64.074432 112.0
64.106354 132.0
64.136635 128.0
64.165329 112.0
64.190712 144.0
64.205193 192.0
64.23674 72.0
64.244431 192.0
64.287056 380.0
64.30571 148.0
64.318474 184.0
64.34375 260.0
64.374352 132.0
64.449432 256.0
64.470558 172.0
64.516945 176.0
64.527748 152.0
64.558128 180.0
64.573792 136.0
64.593315 196.0
64.617317 140.0
64.632301 120.0
64.656113 372.0
64.681328 196.0
64.710144 184.0
64.722954 140.0
64.762993 212.0
64.781494 152.0
64.81105 124.0
64.827072 68.0
64.855865 120.0
64.886986 96.0
64.915245 140.0
64.926468 176.0
64.951904 144.0
64.984215 128.0
65.011497 72.0
65.063408 128.0
65.073753 208.0
65.138336 144.0
65.160202 176.0
65.179085 208.0
65.191353 152.0
65.21225 120.0
65.226715 132.0
65.239578 164.0
65.258018 152.0
65.275833 212.0
65.308723 84.0
65.350403 176.0
65.372375 212.0
65.384201 228.0
65.413315 68.0
65.430931 148.0
65.456322 112.0
65.471275 124.0
65.485771 144.0
65.508362 172.0
65.529266 112.0
65.577606 160.0
65.589722 148.0
65.60836 156.0
65.625969 208.0
65.648544 48.0
65.668938 344.0
65.688866 156.0
65.700157 116.0
65.714684 140.0
65.740501 152.0
65.772781 248.0
65.78569 100.0
65.816719 148.0
65.845993 116.0
65.86805 144.0
65.906822 136.0
65.924599 132.0
65.959373 132.0
65.974701 100.0
65.986023 84.0
66.018356 156.0
66.034492 324.0
66.075256 160.0
66.089531 40.0
66.100861 164.0
66.120277 212.0
66.137115 120.0
66.180267 200.0
66.191864 360.0
66.221725 172.0
66.266327 148.0
66.296562 160.0
66.303238 136.0
66.308525 156.0
66.326332 92.0
66.345428 120.0
66.368134 128.0
66.390831 156.0
66.441711 336.0
66.467079 164.0
66.488174 156.0
66.50045 184.0
66.522507 204.0
66.564468 168.0
66.608322 124.0
66.652191 140.0
66.685135 204.0
66.700005 136.0
66.710701 224.0
66.728584 184.0
66.745972 172.0
66.76133 144.0
66.793785 160.0
66.816551 220.0
66.848534 156.0
66.881226 216.0
67.018295 124.0
67.044365 140.0
67.068817 116.0
67.099403 136.0
67.165016 128.0
67.17807 176.0
67.209068 200.0
67.222412 156.0
67.267822 136.0
67.295578 72.0
67.30864 224.0
67.339668 168.0
67.360901 148.0
67.386612 184.0
67.413185 176.0
67.454994 184.0
67.494919 136.0
67.548889 208.0
67.56852 92.0
67.621933 56.0
67.650848 104.0
67.665077 128.0
67.697456 284.0
67.708107 188.0
67.723732 240.0
67.746422 208.0
67.778099 172.0
67.792847 156.0
67.807594 116.0
67.823982 152.0
67.850449 188.0
67.869888 192.0
67.892845 136.0
67.928932 128.0
67.942055 172.0
67.95668 196.0
67.971588 112.0
67.984718 172.0
67.997002 88.0
68.009331 164.0
68.049362 208.0
68.073761 180.0
68.111137 472.0
68.151382 208.0
68.17028 108.0
68.226952 188.0
68.247292 212.0
68.295235 212.0
68.321548 112.0
68.333069 148.0
68.36927 88.0
68.382439 172.0
68.405479 144.0
68.424026 180.0
68.448288 84.0
68.485687 192.0
68.490105 112.0
68.513794 188.0
68.550415 256.0
68.613052 120.0
68.637787 152.0
68.659225 144.0
68.680664 220.0
68.708183 188.0
68.726028 176.0
68.742119 144.0
68.756561 196.0
68.824158 236.0
68.87709 96.0
68.967972 124.0
68.996422 152.0
69.031761 108.0
69.065849 144.0
69.080414 168.0
69.115158 300.0
69.139183 176.0
69.152313 124.0
69.159363 56.0
69.164238 164.0
69.176392 160.0
69.206192 68.0
69.219437 180.0
69.275749 160.0
69.29232 156.0
69.325455 180.0
69.365234 136.0
69.40406 356.0
69.436531 172.0
69.47393 324.0
69.495384 168.0
69.512848 200.0
69.531158 124.0
69.545586 176.0
69.590614 188.0
69.594139 160.0
69.627396 228.0
69.657288 56.0
69.675568 120.0
69.714867 116.0
69.745361 108.0
69.764603 104.0
69.780273 28.0
69.79892 280.0
69.845169 236.0
69.889534 144.0
69.895172 100.0
69.900597 152.0
69.913345 136.0
69.933311 164.0
69.949959 184.0
69.965881 240.0
69.993248 184.0
70.031898 172.0
70.061531 132.0
70.079544 188.0
70.097359 136.0
70.162964 172.0
70.183304 128.0
70.197853 212.0
70.22747 176.0
70.25325 208.0
70.278275 152.0
70.301949 212.0
70.314987 240.0
70.335762 180.0
70.353378 116.0
70.376755 184.0
70.424484 144.0
70.430496 176.0
70.448128 176.0
70.520424 192.0
70.543823 128.0
70.575691 328.0
70.614143 188.0
70.629105 176.0
70.69278 248.0
70.709099 136.0
70.766869 236.0
70.784889 148.0
70.804451 136.0
70.857956 176.0
70.874298 136.0
70.915421 36.0
70.928833 140.0
70.943916 124.0
70.997086 116.0
71.007637 144.0
71.064674 228.0
71.085022 160.0
71.123413 112.0
71.141472 100.0
71.152252 44.0
71.156555 172.0
71.189728 128.0
71.201775 196.0
71.217438 104.0
71.229195 48.0
71.245995 188.0
71.274536 264.0
71.278694 200.0
71.285118 184.0
71.292053 312.0
71.351509 184.0
71.370369 136.0
71.400818 148.0
71.417458 84.0
71.442032 184.0
71.461197 160.0
71.513359 100.0
71.530197 132.0
71.543663 148.0
71.554893 212.0
71.565956 188.0
71.58493 208.0
71.599228 168.0
71.637848 164.0
71.668884 184.0
71.688515 64.0
71.717163 180.0
71.747505 88.0
71.766052 140.0
71.781227 96.0
71.799782 36.0
71.833511 240.0
71.846306 124.0
71.879066 148.0
71.908241 180.0
71.923599 148.0
71.946846 128.0
71.993858 128.0
72.005684 76.0
72.03318 156.0
72.045624 124.0
72.066498 120.0
72.088463 188.0
72.104599 160.0
72.132408 156.0
72.158752 192.0
72.184814 104.0
72.233543 212.0
72.255859 156.0
72.276161 216.0
72.326935 68.0
72.344727 156.0
72.400383 208.0
72.43869 336.0
72.454018 216.0
72.501381 120.0
72.513245 192.0
72.538673 108.0
72.552231 284.0
72.574272 192.0
72.608192 172.0
72.618683 140.0
72.665863 184.0
72.718262 196.0
72.779579 184.0
72.808449 92.0
72.847519 52.0
72.859406 156.0
72.892929 104.0
72.92704 240.0
72.942909 88.0
72.957825 180.0
72.995003 144.0
73.008118 204.0
73.026199 100.0
73.043007 132.0
73.063416 168.0
73.075325 164.0
73.087234 156.0
73.102554 112.0
73.119568 136.0
73.131485 116.0
73.148506 332.0
73.177444 160.0
73.197884 360.0
73.215477 208.0
73.266327 108.0
73.288162 152.0
73.342697 168.0
73.393738 140.0
73.424126 216.0
73.458862 224.0
73.464958 148.0
73.469864 348.0
73.491058 176.0
73.52462 144.0
73.542953 88.0
73.574692 196.0
73.619484 188.0
73.627274 176.0
73.642998 68.0
73.660774 204.0
73.674057 260.0
73.706207 116.0
73.723297 44.0
73.75235 172.0
73.76944 96.0
73.78727 168.0
73.820732 128.0
73.862854 256.0
73.883415 328.0
73.904556 164.0
73.962738 148.0
73.982986 196.0
74.028366 156.0
74.055199 184.0
74.072327 108.0
74.087219 208.0
74.111115 144.0
74.144295 240.0
74.179985 92.0
74.222633 228.0
74.23941 128.0
74.273796 252.0
74.290039 368.0
74.302048 108.0
74.326065 132.0
74.394722 104.0
74.408455 148.0
74.437645 92.0
74.468559 80.0
74.502914 180.0
74.518372 88.0
74.563049 120.0
74.606026 156.0
74.624939 224.0
74.64901 164.0
74.671051 240.0
74.687622 176.0
74.704048 196.0
74.73204 188.0
74.776314 156.0
74.833351 236.0
74.855507 136.0
74.913193 232.0
74.958862 128.0
75.007118 172.0
75.028641 224.0
75.041603 104.0
75.139908 160.0
75.19471 100.0
75.234779 140.0
75.271088 156.0
75.289467 248.0
75.30735 228.0
75.338448 96.0
75.356583 144.0
75.381638 136.0
75.398041 164.0
75.410515 436.0
75.42485 156.0
75.450775 136.0
75.467171 116.0
75.489899 256.0
75.50367 136.0
75.552818 116.0
75.573578 164.0
75.590881 232.0
75.606453 264.0
75.646576 220.0
75.680779 184.0
75.713303 228.0
75.744972 360.0
75.774422 124.0
75.809074 232.0
75.831223 348.0
75.853271 64.0
75.906273 168.0
75.993141 52.0
76.009796 112.0
76.043732 184.0
76.135925 128.0
76.152588 116.0
76.194275 272.0
76.232498 192.0
76.260307 156.0
76.29924 176.0
76.315018 136.0
76.359413 176.0
76.413879 132.0
76.433517 160.0
76.446396 152.0
76.464745 224.0
76.518326 272.0
76.603645 140.0
76.643166 192.0
76.657112 140.0
76.674118 328.0
76.688774 140.0
76.711655 124.0
76.751511 152.0
76.779137 132.0
76.793091 144.0
76.81012 84.0
76.842873 172.0
76.866364 116.0
76.880325 196.0
76.911743 112.0
76.944206 228.0
76.970825 152.0
76.995544 144.0
77.037468 176.0
77.07283 184.0
77.089935 140.0
77.116096 60.0
77.141136 160.0
77.193192 208.0
77.252075 220.0
77.27169 164.0
77.275848 160.0
77.301483 168.0
77.332512 164.0
77.377777 176.0
77.406509 268.0
77.437088 104.0
77.494087 176.0
77.532639 184.0
77.544594 132.0
77.576462 196.0
77.596558 224.0
77.607048 188.0
77.634323 180.0
77.655365 76.0
77.704483 136.0
77.729965 84.0
77.752136 156.0
77.783676 192.0
77.791412 128.0
77.844902 160.0
77.897598 196.0
77.92746 152.0
77.975075 128.0
77.99424 184.0
78.013023 140.0
78.035019 164.0
78.064568 96.0
78.103447 192.0
78.143463 136.0
78.159561 184.0
78.224091 132.0
78.237556 164.0
78.275909 180.0
78.299652 192.0
78.376137 180.0
78.388474 108.0
78.416954 224.0
78.450119 176.0
78.475548 336.0
78.492477 148.0
78.504822 128.0
78.527748 88.0
78.548912 152.0
78.570084 136.0
78.587723 144.0
78.648293 196.0
78.667145 168.0
78.704224 172.0
78.716248 148.0
78.774864 164.0
78.829636 136.0
78.86145 144.0
78.891113 220.0
78.910759 204.0
78.937721 224.0
78.962227 208.0
78.99456 316.0
79.01252 236.0
79.054222 112.0
79.075462 312.0
79.096634 56.0
79.109322 456.0
79.143562 136.0
79.178146 316.0
79.194084 168.0
79.209335 184.0
79.219505 172.0
79.270264 140.0
79.295074 136.0
79.334961 168.0
79.351799 324.0
79.38372 128.0
79.417412 168.0
79.43515 28.0
79.459991 152.0
79.497253 316.0
79.509674 48.0
79.556953 232.0
79.569534 128.0
79.602905 132.0
79.625076 268.0
79.666512 164.0
79.685471 160.0
79.713898 200.0
79.770775 128.0
79.808113 52.0
79.838921 160.0
79.866142 184.0
79.90593 180.0
79.948639 140.0
79.961098 156.0
79.973557 164.0
80.03376 284.0
80.068123 172.0
80.076736 164.0
80.089066 160.0
80.106285 192.0
80.139656 176.0
80.196289 324.0
80.230064 140.0
80.246399 200.0
80.325371 152.0
80.37664 104.0
80.399521 60.0
80.419151 120.0
80.459206 184.0
80.488777 104.0
80.510925 168.0
80.536797 144.0
80.597847 256.0
80.636284 212.0
80.672798 184.0
80.699615 172.0
80.719284 160.0
80.731804 160.0
80.746109 128.0
80.769363 160.0
80.8284 168.0
80.85199 156.0
80.926849 184.0
80.939384 132.0
80.957291 116.0
80.969826 132.0
80.98774 196.0
81.006546 104.0
81.037079 192.0
81.055817 140.0
81.119766 188.0
81.132881 84.0
81.161575 216.0
81.175919 148.0
81.197433 120.0
81.23777 132.0
81.272781 280.0
81.336044 176.0
81.389359 160.0
81.394508 152.0
81.419441 148.0
81.439735 188.0
81.485672 140.0
81.499023 136.0
81.51519 176.0
81.528557 144.0
81.556526 196.0
81.572395 140.0
81.607224 200.0
81.629906 216.0
81.655304 188.0
81.698418 216.0
81.758621 220.0
81.778023 56.0
81.788177 188.0
81.802521 212.0
81.832893 96.0
81.85331 116.0
81.871552 128.0
81.890671 192.0
81.91497 132.0
81.942955 136.0
81.978394 200.0
82.001099 348.0
82.069473 168.0
82.078987 196.0
82.161583 148.0
82.177818 72.0
82.191139 220.0
82.213493 192.0
82.240982 168.0
82.26368 244.0
82.277084 168.0
82.291122 216.0
82.309586 72.0
82.328461 212.0
82.382668 144.0
82.405319 184.0
82.42041 196.0
82.452484 156.0
82.485626 144.0
82.522797 124.0
82.53907 200.0
82.560547 192.0
82.58609 144.0
82.602371 176.0
82.625244 168.0
82.682152 276.0
82.710381 116.0
82.752579 164.0
82.778374 164.0
82.794228 200.0
82.81234 124.0
82.83226 108.0
82.861794 148.0
82.895676 84.0
82.921051 208.0
82.935547 140.0
82.959114 44.0
82.979057 108.0
83.004486 180.0
83.033455 136.0
83.057037 116.0
83.110741 404.0
83.140495 184.0
83.176796 68.0
83.209518 164.0
83.227631 116.0
83.254959 160.0
83.268631 304.0
83.30027 44.0
83.31662 192.0
83.362045 180.0
83.387558 108.0
83.469299 156.0
83.506645 320.0
83.537216 244.0
83.570335 184.0
83.591171 92.0
83.647598 324.0
83.678543 116.0
83.709541 168.0
83.740456 192.0
83.776886 320.0
83.791466 180.0
83.811508 120.0
83.833374 144.0
83.858887 304.0
83.875916 152.0
83.897163 156.0
83.953339 144.0
83.968628 84.0
84.012665 144.0
84.025322 208.0
84.055847 176.0
84.070442 56.0
84.097824 156.0
84.119728 56.0
84.165367 108.0
84.223808 144.0
84.24025 92.0
84.298714 196.0
84.32473 212.0
84.349968 188.0
84.373657 172.0
84.387619 132.0
84.415627 180.0
84.435829 364.0
84.460098 172.0
84.516319 124.0
84.531082 116.0
84.549255 164.0
84.641281 192.0
84.657265 92.0
84.758018 156.0
84.776344 44.0
84.790695 144.0
84.820328 156.0
84.856995 132.0
84.961128 288.0
84.992722 180.0
85.01474 160.0
85.027588 172.0
85.040436 132.0
85.06797 136.0
85.084152 196.0
85.107224 124.0
85.119377 176.0
85.134071 76.0
85.170372 176.0
85.287689 284.0
85.311211 176.0
85.351044 160.0
85.36422 168.0
85.380333 180.0
85.395996 108.0
85.415276 144.0
85.431831 116.0
85.474152 132.0
85.49807 188.0
85.547768 184.0
85.582748 104.0
85.603004 128.0
85.665627 140.0
85.690765 160.0
85.740311 160.0
85.768539 160.0
85.829659 104.0
85.886673 144.0
85.889397 132.0
85.896652 196.0
85.945862 112.0
85.958778 180.0
85.981018 160.0
86.00341 220.0
86.032608 116.0
86.047379 152.0
86.060303 56.0
86.127472 172.0
86.140465 108.0
86.165581 96.0
86.179199 108.0
86.227539 164.0
86.246887 136.0
86.263527 92.0
86.291664 308.0
86.331932 96.0
86.358231 148.0
86.394821 132.0
86.431824 184.0
86.458443 104.0
86.485786 180.0
86.51326 176.0
86.544891 188.0
86.559547 180.0
86.581772 96.0
86.616966 192.0
86.635437 148.0
86.641769 144.0
86.648132 204.0
86.68737 284.0
86.714684 168.0
86.730553 160.0
86.74807 160.0
86.754898 120.0
86.758606 212.0
86.778191 44.0
86.791176 248.0
86.835678 188.0
86.865356 116.0
86.904167 196.0
86.926147 188.0
86.948853 212.0
86.968277 352.0
86.989647 168.0
87.021248 200.0
87.033943 148.0
87.058388 336.0
87.073242 184.0
87.141411 256.0
87.158142 80.0
87.165222 164.0
87.210297 204.0
87.215263 156.0
87.244003 348.0
87.259369 164.0
87.280991 120.0
87.322289 116.0
87.337173 128.0
87.352745 120.0
87.387398 92.0
87.404144 108.0
87.45253 80.0
87.471146 40.0
87.491226 152.0
87.522057 116.0
87.534447 168.0
87.577278 160.0
87.601494 124.0
87.614532 288.0
87.638863 192.0
87.657387 188.0
87.689423 240.0
87.722626 52.0
87.735672 156.0
87.761612 140.0
87.785164 168.0
87.818359 204.0
87.864357 152.0
87.887291 332.0
87.909134 168.0
87.926758 344.0
87.969162 200.0
87.987534 180.0
88.069695 236.0
88.082771 128.0
88.108612 120.0
88.126549 184.0
88.159515 156.0
88.180305 220.0
88.200493 140.0
88.217316 92.0
88.245796 172.0
88.269669 52.0
88.308937 196.0
88.322037 72.0
88.370369 196.0
88.403656 172.0
88.425514 120.0
88.433365 136.0
88.46434 184.0
88.544762 176.0
88.559746 172.0
88.57473 96.0
88.60096 144.0
88.61969 108.0
88.632812 72.0
88.670288 116.0
88.68528 188.0
88.716736 144.0
88.752769 124.0
88.778381 152.0
88.784424 100.0
88.78894 140.0
88.823341 216.0
88.850304 136.0
88.884964 220.0
88.921608 116.0
88.94976 108.0
89.042351 180.0
89.066185 84.0
89.084038 164.0
89.10524 152.0
89.135696 180.0
89.150726 148.0
89.169525 160.0
89.192078 128.0
89.254715 268.0
89.282776 216.0
89.310539 216.0
89.370735 156.0
89.387672 168.0
89.415901 120.0
89.430962 52.0
89.47802 352.0
89.513794 140.0
89.546967 124.0
89.593765 200.0
89.642059 400.0
89.681465 72.0
89.725433 244.0
89.743675 136.0
89.785553 288.0
89.805313 216.0
89.837051 120.0
89.883255 104.0
89.907791 64.0
89.954903 208.0
89.990845 108.0
90.053162 156.0
90.098083 180.0
90.12117 52.0
90.135719 160.0
90.172783 152.0
90.215668 164.0
90.248955 212.0
90.273468 176.0
90.294884 112.0
90.366096 156.0
90.41806 184.0
90.469536 148.0
90.531677 260.0
90.57235 164.0
90.585861 116.0
90.637733 140.0
90.650993 128.0
90.718796 208.0
90.72406 160.0
90.744453 356.0
90.78299 108.0
90.821053 184.0
90.8368 372.0
90.86927 140.0
90.912155 212.0
90.943062 140.0
90.974747 284.0
91.017097 120.0
91.034195 208.0
91.054245 172.0
91.089272 140.0
91.106369 116.0
91.174202 188.0
91.224243 148.0
91.245102 224.0
91.266495 192.0
91.343994 216.0
91.378235 40.0
91.406334 156.0
91.439125 176.0
91.455231 168.0
91.485916 200.0
91.500633 168.0
91.53241 164.0
91.581924 152.0
91.595261 148.0
91.638687 216.0
91.667656 200.0
91.701653 172.0
91.715019 160.0
91.789658 56.0
91.811073 224.0
91.834023 168.0
91.847443 188.0
91.885292 144.0
91.898376 176.0
91.917458 64.0
91.969185 196.0
91.999306 168.0
92.012894 188.0
92.03772 188.0
92.07209 220.0
92.10144 164.0
92.133209 216.0
92.161873 80.0
92.180977 104.0
92.24205 172.0
92.293762 112.0
92.316704 156.0
92.341568 80.0
92.375999 48.0
92.400864 88.0
92.419998 148.0
92.43222 140.0
92.468903 72.0
92.506546 216.0
92.539688 196.0
92.557816 160.0
92.601593 240.0
92.624565 192.0
92.647194 96.0
92.679214 212.0
92.712288 188.0
92.757065 224.0
92.782188 188.0
92.798714 160.0
92.814583 208.0
92.837868 140.0
92.877869 144.0
92.920074 132.0
93.038254 388.0
93.075539 204.0
93.088982 152.0
93.144768 188.0
93.167732 40.0
93.214996 168.0
93.23114 136.0
93.250359 92.0
93.293373 96.0
93.340714 132.0
93.355904 120.0
93.383026 200.0
93.418304 200.0
93.467949 140.0
93.498459 288.0
93.521698 164.0
93.543785 168.0
93.600143 112.0
93.689087 132.0
93.706398 156.0
93.739182 120.0
93.760384 36.0
93.787361 168.0
93.806641 124.0
93.824631 140.0
93.843796 176.0
93.876053 144.0
93.906487 128.0
93.933914 164.0
93.947884 160.0
93.966225 176.0
93.980209 224.0
93.99865 140.0
94.014946 204.0
94.031898 148.0
94.051147 248.0
94.065804 168.0
94.117256 124.0
94.143135 140.0
94.162727 256.0
94.204384 176.0
94.227257 136.0
94.327843 104.0
94.358421 132.0
94.397209 132.0
94.425941 76.0
94.463203 188.0
94.501892 112.0
94.54834 180.0
94.561882 48.0
94.587044 168.0
94.715996 148.0
94.774902 224.0
94.83168 108.0
94.852425 148.0
94.972649 220.0
95.009499 172.0
95.030472 232.0
95.073708 564.0
95.100708 256.0
95.131439 144.0
95.145836 160.0
95.158943 212.0
95.177116 156.0
95.199722 184.0
95.223022 112.0
95.261871 172.0
95.281776 212.0
95.298782 168.0
95.347855 160.0
95.37159 148.0
95.392067 108.0
95.423058 128.0
95.460587 100.0
95.582672 168.0
95.606026 92.0
95.637161 168.0
95.652733 168.0
95.678375 356.0
95.705299 156.0
95.736458 64.0
95.763786 120.0
95.785103 164.0
95.813416 180.0
95.930473 104.0
95.976143 148.0
95.997589 108.0
96.019203 144.0
96.0522 184.0
96.081535 420.0
96.120483 148.0
96.145638 144.0
96.17318 116.0
96.200584 96.0
96.220726 112.0
96.24556 264.0
96.315712 160.0
96.331345 220.0
96.345016 140.0
96.380981 256.0
96.429039 108.0
96.456406 120.0
96.489639 84.0
96.535812 52.0
96.543083 120.0
96.560921 132.0
96.611191 184.0
96.64415 196.0
96.659805 148.0
96.699677 32.0
96.728302 188.0
96.767456 148.0
96.805542 152.0
96.850433 152.0
96.86734 184.0
96.893974 208.0
96.962006 140.0
96.99955 184.0
97.024117 160.0
97.062637 136.0
97.078911 364.0
97.099548 172.0
97.149628 120.0
97.193832 120.0
97.208488 96.0
97.223289 132.0
97.267029 140.0
97.279762 140.0
97.294296 496.0
97.314484 188.0
97.340332 244.0
97.359924 140.0
97.365623 176.0
97.395462 136.0
97.414085 184.0
97.4272 232.0
97.442986 168.0
97.470993 88.0
97.510925 172.0
97.530579 136.0
97.546082 248.0
97.571861 104.0
97.585625 220.0
97.609215 116.0
97.628685 176.0
97.665657 200.0
97.68055 148.0
97.697723 128.0
97.711494 132.0
97.748878 180.0
97.790672 152.0
97.809891 236.0
97.837448 220.0
97.855385 336.0
97.872284 500.0
97.898315 176.0
97.911484 160.0
97.954788 116.0
97.96933 184.0
97.989243 212.0
98.017952 116.0
98.040329 156.0
98.096916 53968.0
98.151726 180.0
98.16777 164.0
98.194839 108.0
98.20752 40.0
98.223312 180.0
98.252655 88.0
98.278297 156.0
98.30217 164.0
98.305145 112.0
98.348564 144.0
98.373665 192.0
98.420364 264.0
98.459732 136.0
98.468445 148.0
98.520203 176.0
98.575363 160.0
98.609001 112.0
98.654007 136.0
98.692566 68.0
98.711517 60.0
98.735809 156.0
98.742622 44.0
98.750465 144.0
98.76487 148.0
98.790634 56.0
98.830399 180.0
98.901779 160.0
98.93631 72.0
98.956795 188.0
99.022446 180.0
99.065804 160.0
99.099304 5160.0
99.158928 176.0
99.187881 152.0
99.218399 36.0
99.244171 184.0
99.280823 164.0
99.317924 316.0
99.341354 160.0
99.371109 148.0
99.398659 136.0
99.435799 280.0
99.470337 92.0
99.494614 192.0
99.519623 68.0
99.569672 152.0
99.609177 220.0
99.629204 96.0
99.659004 88.0
99.712723 264.0
99.741814 120.0
99.764854 216.0
99.791145 208.0
99.806091 68.0
99.829178 104.0
99.870499 224.0
99.896919 180.0
99.915489 140.0
99.935379 36.0
99.97319 132.0
100.007767 164.0
100.021492 228.0
100.037872 112.0
100.042038 176.0
100.052505 160.0
100.057961 156.0
100.065498 96.0
100.074173 348.0
100.082146 228.0
100.085571 168.0
100.102005 176.0
100.15728 180.0
100.242027 156.0
100.257973 100.0
100.327736 120.0
100.343681 196.0
100.363617 132.0
100.408043 260.0
100.433418 408.0
100.487465 176.0
100.525482 164.0
100.589058 40.0
100.62709 168.0
100.654945 128.0
100.67691 200.0
100.702011 324.0
100.732834 228.0
100.752815 132.0
100.779709 52.0
100.800697 328.0
100.828743 172.0
100.848732 152.0
100.913071 152.0
100.930695 160.0
100.957855 172.0
100.999947 128.0
101.039505 80.0
101.051315 224.0
101.076714 184.0
101.10273 84.0
101.116745 140.0
101.160774 184.0
101.195328 296.0
101.222847 196.0
101.236862 172.0
101.250877 224.0
101.282928 156.0
101.320831 152.0
101.439224 108.0
101.455261 152.0
101.48333 92.0
101.506447 140.0
101.525063 212.0
101.545403 168.0
101.57933 152.0
101.615883 92.0
101.689957 180.0
101.730247 164.0
101.760216 60.0
101.775208 140.0
101.822769 208.0
101.85862 104.0
101.901619 204.0
101.93898 124.0
101.96978 160.0
101.984283 156.0
102.045174 460.0
102.069641 420.0
102.093864 92.0
102.101234 144.0
102.106644 160.0
102.120537 144.0
102.162163 56.0
102.181503 216.0
102.232452 204.0
102.299004 208.0
102.319138 180.0
102.347321 120.0
102.382652 172.0
102.439568 180.0
102.464142 156.0
102.482277 144.0
102.496376 172.0
102.526512 172.0
102.546638 128.0
102.575768 100.0
102.603386 176.0
102.649521 144.0
102.679825 156.0
102.718147 104.0
102.752449 160.0
102.772621 104.0
102.812981 268.0
102.82711 216.0
102.847755 192.0
102.876816 160.0
102.89904 240.0
102.934105 148.0
102.956314 328.0
102.988396 376.0
103.010849 184.0
103.053673 7712.0
103.084686 236.0
103.117172 172.0
103.140442 204.0
103.158371 136.0
103.174065 220.0
103.201424 148.0
103.214981 360.0
103.229134 192.0
103.255424 72.0
103.27565 56.0
103.308395 212.0
103.333305 96.0
103.358597 104.0
103.397041 60.0
103.419418 148.0
103.444679 152.0
103.461815 112.0
103.528046 184.0
103.56015 100.0
103.572258 152.0
103.626221 144.0
103.644104 108.0
103.6745 188.0
103.696793 180.0
103.747467 108.0
103.769768 180.0
103.795387 164.0
103.817871 160.0
103.849113 124.0
103.869896 208.0
103.899567 272.0
103.917824 224.0
103.954353 296.0
103.97139 192.0
104.029449 148.0
104.05545 696.0
104.090355 164.0
104.110504 152.0
104.125961 120.0
104.145523 172.0
104.179031 164.0
104.223663 200.0
104.265991 88.0
104.300735 116.0
104.354507 120.0
104.374138 212.0
104.39045 304.0
104.448051 140.0
104.468399 132.0
104.482635 136.0
104.513153 172.0
104.529991 176.0
104.549889 148.0
104.572174 164.0
104.598633 240.0
104.651566 200.0
104.665817 96.0
104.684143 120.0
104.706543 308.0
104.74334 120.0
104.773766 76.0
104.800247 160.0
104.841705 256.0
104.861382 188.0
104.898071 128.0
104.915489 172.0
104.940247 192.0
104.998444 88.0
105.019058 60.0
105.053055 164.0
105.073456 200.0
105.092972 248.0
105.108192 156.0
105.126511 72.0
105.142838 144.0
105.183655 128.0
105.230606 100.0
105.25103 148.0
105.270363 128.0
105.300041 404.0
105.332718 100.0
105.380692 232.0
105.386299 212.0
105.412399 168.0
105.445099 148.0
105.496292 172.0
105.530952 168.0
105.563675 136.0
105.584122 92.0
105.607384 128.0
105.642624 200.0
105.650124 120.0
105.657127 232.0
105.679436 148.0
105.737564 160.0
105.762123 152.0
105.786041 192.0
105.802063 196.0
105.825104 176.0
105.839043 168.0
105.858345 160.0
105.911804 144.0
105.938225 48.0
106.004768 132.0
106.04644 148.0
106.060638 404.0
106.100128 60.0
106.130356 188.0
106.165741 132.0
106.182144 152.0
106.239578 148.0
106.264198 128.0
106.292923 120.0
106.459198 132.0
106.478096 140.0
106.510544 140.0
106.526924 148.0
106.59063 204.0
106.611221 92.0
106.637939 104.0
106.658493 116.0
106.739029 140.0
106.78186 148.0
106.810654 272.0
106.837395 252.0
106.862488 224.0
106.88472 156.0
106.903236 124.0
106.942345 112.0
106.986534 240.0
107.006157 148.0
107.032928 44.0
107.052185 388.0
107.069397 184.0
107.085548 172.0
107.105003 196.0
107.147911 188.0
107.163155 160.0
107.184685 116.0
107.220833 240.0
107.243057 156.0
107.26004 184.0
107.305092 128.0
107.332306 124.0
107.393829 160.0
107.409752 128.0
107.459587 212.0
107.478577 156.0
107.506355 224.0
107.528435 80.0
107.562775 92.0
107.63916 160.0
107.677574 80.0
107.711388 136.0
107.750763 372.0
107.834618 236.0
107.874695 104.0
107.908302 156.0
107.969803 112.0
107.990486 200.0
108.080147 300.0
108.112556 128.0
108.204521 120.0
108.238831 192.0
108.271965 252.0
108.31546 184.0
108.334663 148.0
108.375534 108.0
108.433563 204.0
108.45636 140.0
108.493675 160.0
108.558876 268.0
108.586342 104.0
108.607727 172.0
108.624161 160.0
108.63958 168.0
108.703163 108.0
108.724564 140.0
108.740517 176.0
108.786858 132.0
108.813171 140.0
108.831856 164.0
108.853401 160.0
108.887924 136.0
108.909813 160.0
108.937775 184.0
109.016731 176.0
109.045822 48.0
109.062454 388.0
109.092598 372.0
109.128563 140.0
109.158089 128.0
109.187202 268.0
109.208282 396.0
109.223808 212.0
109.262085 184.0
109.278259 160.0
109.307861 236.0
109.359886 188.0
109.385757 252.0
109.429939 172.0
109.463982 208.0
109.488968 144.0
109.516678 172.0
109.537071 188.0
109.552444 164.0
109.576462 184.0
109.620216 172.0
109.642952 176.0
109.665794 124.0
109.706711 136.0
109.724686 176.0
109.801582 188.0
109.83287 60.0
109.847473 112.0
109.880981 132.0
109.8965 144.0
109.915802 176.0
109.93174 164.0
109.949715 28.0
109.971504 208.0
110.003563 172.0
110.020683 172.0
110.046211 208.0
110.096481 31000.0
110.14389 140.0
110.199455 60.0
110.228638 120.0
110.243156 140.0
110.27684 176.0
110.294334 80.0
110.330811 160.0
110.354439 144.0
110.366394 128.0
110.392601 28.0
110.409332 116.0
110.439659 36.0
110.480446 144.0
110.507645 132.0
110.529488 172.0
110.537354 60.0
110.542442 148.0
110.580887 36.0
110.637405 120.0
110.665527 144.0
110.725136 196.0
110.781906 148.0
110.819611 144.0
110.848511 196.0
110.878288 88.0
110.934784 176.0
110.947205 132.0
110.985199 112.0
111.008728 108.0
111.02504 140.0
111.048454 172.0
111.074844 172.0
111.099739 2540.0
111.141815 180.0
111.234116 136.0
111.260048 116.0
111.281044 68.0
111.295738 164.0
111.312538 144.0
111.32724 116.0
111.346138 128.0
111.438942 164.0
111.474655 228.0
111.521576 208.0
111.545746 228.0
111.585052 356.0
111.663399 176.0
111.690842 100.0
111.721581 176.0
111.729027 208.0
111.747643 116.0
111.768677 164.0
111.791824 100.0
111.823166 220.0
111.850014 124.0
111.897072 128.0
111.92234 168.0
111.93972 172.0
111.96656 208.0
111.984489 140.0
112.008682 148.0
112.033035 100.0
112.055786 300.0
112.100182 280.0
112.114861 800.0
112.183586 152.0
112.207748 148.0
112.227097 188.0
112.246841 100.0
112.313873 160.0
112.329094 248.0
112.348076 160.0
112.363869 124.0
112.381836 132.0
112.400826 60.0
112.417572 128.0
112.458771 192.0
112.481026 132.0
112.544357 76.0
112.567589 144.0
112.586594 220.0
112.611938 156.0
112.631584 172.0
112.678886 228.0
112.726746 196.0
112.753494 276.0
112.767563 176.0
112.781807 300.0
112.80056 104.0
112.863419 192.0
112.895134 144.0
112.931091 136.0
112.956474 164.0
112.973396 60.0
113.01088 136.0
113.031425 156.0
113.060287 124.0
113.102478 132.0
113.115601 188.0
113.165985 124.0
113.180809 104.0
113.24646 132.0
113.268509 224.0
113.285606 204.0
113.326485 72.0
113.369339 168.0
113.420471 160.0
113.454124 176.0
113.492287 36.0
113.540146 208.0
113.563698 196.0
113.570236 132.0
113.57753 164.0
113.595825 156.0
113.636261 168.0
113.674706 148.0
113.691689 180.0
113.73838 120.0
113.763985 172.0
113.816933 156.0
113.833916 116.0
113.850906 112.0
113.880394 140.0
113.901878 148.0
113.931618 120.0
113.969566 172.0
114.005959 148.0
114.031494 96.0
114.073708 144.0
114.11718 180.0
114.173309 136.0
114.262344 356.0
114.338783 140.0
114.365417 124.0
114.393089 132.0
114.444183 156.0
114.517136 200.0
114.545105 248.0
114.582626 140.0
114.623108 152.0
114.646553 148.0
114.681877 188.0
114.712624 152.0
114.744606 40.0
114.772324 136.0
114.827766 156.0
114.859764 124.0
114.908829 152.0
114.932297 140.0
114.965515 204.0
114.977356 208.0
115.023476 176.0
115.031891 132.0
115.038918 292.0
115.052429 168.0
115.073166 160.0
115.207718 168.0
115.250443 192.0
115.290352 172.0
115.327377 196.0
115.367569 20.0
115.374474 268.0
115.421448 120.0
115.462074 116.0
115.513412 128.0
115.556198 96.0
115.583336 140.0
115.686745 80.0
115.724632 184.0
115.746696 156.0
115.790062 144.0
115.815674 228.0
115.853783 88.0
115.926636 136.0
115.955246 324.0
116.00808 116.0
116.052071 116.0
116.091698 96.0
116.107513 180.0
116.205383 184.0
116.249481 152.0
116.267708 180.0
116.321274 196.0
116.340912 204.0
116.357765 164.0
116.413597 100.0
116.44017 128.0
116.470757 148.0
116.489754 148.0
116.510254 128.0
116.531738 80.0
116.559669 228.0
116.600052 172.0
116.649933 132.0
116.666061 128.0
116.738091 180.0
116.766045 84.0
116.798309 164.0
116.862846 180.0
116.897278 160.0
116.927811 172.0
116.944618 68.0
117.000458 128.0
117.01181 152.0
117.032158 156.0
117.055679 652.0
117.086998 340.0
117.10952 116.0
117.140213 220.0
117.169487 132.0
117.209015 156.0
117.276321 96.0
117.338837 168.0
117.360397 160.0
117.375267 156.0
117.381462 140.0
117.416756 148.0
117.461754 44.0
117.511559 232.0
117.537575 196.0
117.598656 140.0
117.664612 112.0
117.691597 72.0
117.704353 180.0
117.720749 84.0
117.742348 344.0
117.785072 164.0
117.794342 108.0
117.828751 212.0
117.846031 80.0
117.895737 120.0
117.910866 40.0
117.948082 164.0
117.981339 220.0
118.017288 364.0
118.040886 164.0
118.107269 176.0
118.131409 216.0
118.187325 260.0
118.213631 120.0
118.261238 168.0
118.315361 76.0
118.330513 128.0
118.43013 180.0
118.547119 168.0
118.563713 176.0
118.591812 208.0
118.688019 172.0
118.711678 180.0
118.735725 156.0
118.763924 156.0
118.805138 48.0
118.8507 164.0
118.87674 176.0
118.903259 164.0
118.94783 180.0
118.973236 192.0
119.013489 48.0
119.037323 352.0
119.150322 60.0
119.187256 124.0
119.230995 256.0
119.253838 176.0
119.271416 72.0
119.317665 144.0
119.332527 180.0
119.363327 120.0
119.44162 72.0
119.474251 144.0
119.511238 144.0
119.628761 136.0
119.654892 196.0
119.685371 132.0
119.768127 192.0
119.785553 156.0
119.816231 248.0
119.89621 244.0
119.91629 28.0
119.961861 176.0
119.9795 160.0
119.994766 100.0
120.024551 224.0
120.04232 168.0
120.060638 152.0
120.110344 152.0
120.150757 252.0
120.177971 164.0
120.212891 216.0
120.232529 188.0
120.25872 148.0
120.29908 252.0
120.322021 80.0
120.345222 160.0
120.394463 160.0
120.413734 216.0
120.429024 96.0
120.47271 76.0
120.526825 208.0
120.55574 184.0
120.606216 124.0
120.656288 196.0
120.671593 172.0
120.720879 148.0
120.79187 160.0
120.807182 132.0
120.829063 160.0
120.866257 372.0
120.892517 184.0
120.921532 216.0
120.957268 164.0
120.964653 96.0
120.990387 116.0
121.009987 144.0
121.031212 200.0
121.088341 196.0
121.134506 228.0
121.155731 132.0
121.172012 180.0
121.194374 160.0
121.258492 148.0
121.295326 140.0
121.321815 184.0
121.369507 128.0
121.389786 124.0
121.466125 140.0
121.497261 128.0
121.512619 140.0
121.582542 156.0
121.611366 196.0
121.632835 172.0
121.672676 196.0
121.684456 140.0
121.711617 320.0
121.806526 132.0
121.822777 160.0
121.847931 204.0
121.899841 148.0
121.927635 52.0
121.944656 156.0
121.957382 248.0
121.982063 332.0
122.027107 61560.0
122.073357 84.0
122.096718 188.0
122.144386 172.0
122.207832 200.0
122.252647 168.0
122.25843 232.0
122.30291 160.0
122.322723 128.0
122.337761 148.0
122.356766 224.0
122.388206 300.0
122.424248 116.0
122.447876 172.0
122.465454 72.0
122.474434 92.0
122.47802 184.0
122.514824 84.0
122.532326 160.0
122.547813 72.0
122.557343 128.0
122.587456 228.0
122.645149 180.0
122.664024 128.0
122.68438 196.0
122.702461 160.0
122.717896 132.0
122.757591 148.0
122.801208 108.0
122.819344 164.0
122.849281 156.0
122.884972 128.0
122.902832 208.0
122.96096 192.0
122.986519 204.0
123.028481 2200.0
123.073135 96.0
123.122978 112.0
123.152634 68.0
123.202492 56.0
123.221115 196.0
123.238792 188.0
123.285194 132.0
123.329399 204.0
123.349289 32.0
123.366974 40.0
123.422249 244.0
123.484169 140.0
123.499649 136.0
123.599205 104.0
123.6185 128.0
123.645676 44.0
123.696587 120.0
123.72271 200.0
123.754143 176.0
123.777153 276.0
123.796219 128.0
123.825272 156.0
123.853798 72.0
123.891457 44.0
123.932816 228.0
123.950333 224.0
123.984261 136.0
124.023277 3708.0
124.066849 56.0
124.111343 4996.0
124.184166 84.0
124.204414 172.0
124.24173 152.0
124.261703 96.0
124.277229 248.0
124.308296 208.0
124.32605 128.0
124.348244 152.0
124.375671 108.0
124.422142 164.0
124.469185 92.0
124.475868 180.0
124.490913 244.0
124.534744 220.0
124.593117 136.0
124.621719 80.0
124.645828 228.0
124.689804 152.0
124.696053 120.0
124.719162 248.0
124.745209 244.0
124.772514 124.0
124.80587 100.0
124.853119 164.0
124.910393 32.0
124.961563 144.0
125.020508 188.0
125.052803 164.0
125.112801 296.0
125.150749 172.0
125.16745 160.0
125.186378 192.0
125.25988 108.0
125.286606 140.0
125.380196 204.0
125.413719 196.0
125.440376 176.0
125.458206 116.0
125.500565 272.0
125.537895 184.0
125.569748 192.0
125.592003 228.0
125.612076 156.0
125.645538 96.0
125.702332 168.0
125.743721 140.0
125.779434 204.0
125.81292 156.0
125.835243 128.0
125.856621 160.0
125.895294 188.0
125.97921 356.0
125.996918 164.0
126.015175 336.0
126.103188 144.0
126.18602 124.0
126.2285 168.0
126.270988 156.0
126.295593 160.0
126.335243 160.0
126.400742 360.0
126.427208 300.0
126.489082 144.0
126.517448 168.0
126.572395 176.0
126.603989 196.0
126.629089 100.0
126.673889 76.0
126.709732 140.0
126.781433 108.0
126.839706 144.0
126.878395 140.0
126.920418 56.0
126.943176 324.0
127.01194 188.0
127.015022 152.0
127.113327 108.0
127.129036 184.0
127.176163 192.0
127.232285 52.0
127.283928 112.0
127.315369 164.0
127.38829 188.0
127.444176 140.0
127.470497 140.0
127.495087 116.0
127.545105 224.0
127.574554 132.0
127.605232 148.0
127.744667 160.0
127.778412 200.0
127.809227 156.0
127.863457 176.0
127.88942 360.0
127.92469 116.0
127.949455 180.0
127.966957 140.0
128.021515 148.0
128.04924 2440.0
128.106705 348.0
128.143707 152.0
128.173706 284.0
128.203293 240.0
128.272995 176.0
128.359528 208.0
128.38884 180.0
128.413651 32.0
128.449738 120.0
128.474564 152.0
128.519684 164.0
128.562561 188.0
128.62645 168.0
128.652847 124.0
128.682022 144.0
128.740311 288.0
128.792847 40.0
128.81543 228.0
128.837906 148.0
128.896179 92.0
128.95314 140.0
128.980392 68.0
128.998474 108.0
129.024826 152.0
129.054138 212.0
129.085983 256.0
129.102768 64.0
129.186172 128.0
129.222656 156.0
129.276672 124.0
129.30835 168.0
129.326462 236.0
129.466827 92.0
129.495956 260.0
129.602753 80.0
129.646393 184.0
129.696533 176.0
129.768814 148.0
129.790436 188.0
129.827164 192.0
129.856644 164.0
129.901382 116.0
129.95192 216.0
129.968674 68.0
130.021957 204.0
130.064774 33196.0
130.126999 228.0
130.144852 60.0
130.16301 64.0
130.192535 64.0
130.208435 280.0
130.25386 36.0
130.2715 84.0
130.284332 92.0
130.33609 204.0
130.361206 144.0
130.383606 156.0
130.406097 108.0
130.42421 256.0
130.451263 184.0
130.474045 72.0
130.503845 76.0
130.522034 64.0
130.557251 124.0
130.585709 168.0
130.604599 112.0
130.630661 216.0
130.647125 84.0
130.671143 184.0
130.681686 148.0
130.706833 232.0
130.744385 156.0
130.786453 144.0
130.808701 140.0
130.865311 116.0
130.905151 156.0
130.952148 192.0
131.020493 132.0
131.036438 296.0
131.067474 3612.0
131.103439 148.0
131.127594 88.0
131.145828 88.0
131.174271 60.0
131.232544 180.0
131.274673 200.0
131.316818 116.0
131.344193 80.0
131.38298 68.0
131.418091 208.0
131.45874 140.0
131.489426 148.0
131.525986 64.0
131.654602 156.0
131.686569 144.0
131.720825 44.0
131.780228 168.0
131.800797 204.0
131.829117 204.0
131.87709 124.0
131.894501 84.0
131.920395 184.0
131.931702 172.0
131.950333 104.0
132.008804 92.0
132.040833 92.0
132.080231 1696.0
132.111954 124.0
132.140594 120.0
132.174713 356.0
132.205551 120.0
132.246048 144.0
132.275574 368.0
132.313126 160.0
132.340607 220.0
132.388687 156.0
132.420746 148.0
132.436783 76.0
132.461212 144.0
132.529861 76.0
132.560394 140.0
132.608414 128.0
132.631546 140.0
132.698608 156.0
132.755356 160.0
132.777283 208.0
132.848953 148.0
132.891922 172.0
132.920517 80.0
132.958069 176.0
133.014481 208.0
133.040573 516.0
133.083328 176.0
133.124817 84.0
133.168457 56.0
133.193649 124.0
133.215652 124.0
133.271835 132.0
133.294815 200.0
133.331573 36.0
133.354553 184.0
133.437317 124.0
133.491135 140.0
133.543091 108.0
133.644318 132.0
133.671936 140.0
133.691406 120.0
133.805435 104.0
133.821548 184.0
133.859543 156.0
133.889587 212.0
133.918259 104.0
133.971237 84.0
134.015244 160.0
134.06134 140.0
134.103775 116.0
134.205383 88.0
134.236298 192.0
134.254745 160.0
134.293961 156.0
134.358444 184.0
134.395462 172.0
134.448975 84.0
134.485458 128.0
134.501617 144.0
134.529327 140.0
134.554718 416.0
134.621674 68.0
134.667648 128.0
134.681351 320.0
134.725616 152.0
134.755646 152.0
134.819458 320.0
134.871201 188.0
134.895721 164.0
134.932159 292.0
134.961365 52.0
135.028427 168.0
135.061722 180.0
135.081558 156.0
135.086731 152.0
135.095596 188.0
135.127029 108.0
135.147675 152.0
135.197311 132.0
135.213516 232.0
135.248718 248.0
135.266357 164.0
135.308411 180.0
135.347031 160.0
135.412613 176.0
135.49472 180.0
135.516861 136.0
135.572083 144.0
135.582779 116.0
135.591965 196.0
135.611542 168.0
135.620316 144.0
135.6297 116.0
135.676773 132.0
135.693008 56.0
135.726517 188.0
135.755997 144.0
135.836792 80.0
135.866943 164.0
135.946365 160.0
135.96904 232.0
135.99588 128.0
136.004364 164.0
136.040878 1224.0
136.083786 176.0
136.103683 80.0
136.134415 188.0
136.15477 144.0
136.173355 112.0
136.217484 56.0
136.238388 172.0
136.317398 156.0
136.335464 160.0
136.420807 168.0
136.456863 340.0
136.486526 220.0
136.508011 148.0
136.5522 148.0
136.575455 120.0
136.635315 224.0
136.668518 232.0
136.696442 220.0
136.746658 200.0
136.784882 252.0
136.843079 156.0
136.916489 76.0
136.977631 232.0
137.027069 136.0
137.050705 112.0
137.107941 204.0
137.130814 160.0
137.159912 144.0
137.204193 252.0
137.2836 204.0
137.372101 64.0
137.390762 156.0
137.435104 184.0
137.470093 152.0
137.505112 108.0
137.526108 144.0
137.551086 140.0
137.570465 40.0
137.608932 124.0
137.740936 120.0
137.759613 112.0
137.782974 124.0
137.800217 148.0
137.820358 136.0
137.859985 132.0
137.883453 40.0
137.927872 80.0
137.954681 152.0
137.959167 72.0
137.969009 180.0
138.026962 124.0
138.057022 116.0
138.174545 136.0
138.206161 108.0
138.252472 152.0
138.316162 176.0
138.33255 120.0
138.458984 168.0
138.477722 36.0
138.569077 120.0
138.668915 132.0
138.726105 104.0
138.751892 108.0
138.826157 184.0
138.857407 168.0
138.878525 164.0
138.909012 52.0
138.941849 148.0
138.977051 260.0
139.000519 288.0
139.041962 296.0
139.078888 152.0
139.122314 6304.0
139.160126 64.0
139.200668 120.0
139.218826 84.0
139.319824 40.0
139.361359 176.0
139.424362 204.0
139.434586 100.0
139.438416 188.0
139.461945 100.0
139.519577 152.0
139.589294 112.0
139.634796 116.0
139.679489 176.0
139.717133 164.0
139.747711 172.0
139.804199 132.0
139.830078 120.0
139.920609 104.0
139.971329 252.0
140.025497 104.0
140.068848 156.0
140.129089 2068.0
140.181305 352.0
140.2668 116.0
140.361206 164.0
140.386063 116.0
140.412735 208.0
140.523773 236.0
140.551193 248.0
140.570068 180.0
140.647949 160.0
140.67392 160.0
140.699173 112.0
140.766006 168.0
140.846085 216.0
140.881729 48.0
140.91481 132.0
140.940796 156.0
140.971512 44.0
141.006973 164.0
141.086121 140.0
141.110657 300.0
141.136002 632.0
141.169983 140.0
141.178635 212.0
141.209839 288.0
141.214127 232.0
141.319107 204.0
141.373535 76.0
141.390106 132.0
141.41539 140.0
141.517929 212.0
141.600815 48.0
141.650558 160.0
141.697937 120.0
141.715836 252.0
141.745316 116.0
141.764282 124.0
141.792725 200.0
141.86145 160.0
141.897507 192.0
141.933121 204.0
141.957687 280.0
141.991867 136.0
142.032196 112.0
142.061707 252.0
142.090073 168.0
142.124252 508.0
142.174545 140.0
142.208359 192.0
142.322678 204.0
142.430969 124.0
142.485611 168.0
142.516495 156.0
142.568771 152.0
142.600723 180.0
142.632553 172.0
142.672791 204.0
142.730408 136.0
142.768463 188.0
142.804138 132.0
142.827927 188.0
142.844574 112.0
142.870743 112.0
142.9207 152.0
142.989716 144.0
143.036682 580.0
143.073029 124.0
143.103973 168.0
143.153183 324.0
143.212204 180.0
143.232574 136.0
143.251068 204.0
143.2556 156.0
143.290604 168.0
143.332642 184.0
143.356476 188.0
143.380295 156.0
143.401749 280.0
143.432739 360.0
143.451813 40.0
143.470871 120.0
143.570145 120.0
143.635422 124.0
143.695068 176.0
143.777786 108.0
143.818192 180.0
143.888382 112.0
143.910843 264.0
143.950455 204.0
143.9655 200.0
143.986282 220.0
144.035126 132.0
144.079437 184.0
144.105728 172.0
144.134399 60.0
144.153503 148.0
144.220428 184.0
144.251495 144.0
144.277802 104.0
144.311264 172.0
144.349533 200.0
144.384171 320.0
144.423553 84.0
144.476288 68.0
144.533722 192.0
144.550461 140.0
144.586365 156.0
144.641418 160.0
144.669464 200.0
144.756332 160.0
144.837769 48.0
144.909622 100.0
144.938385 196.0
145.040756 248.0
145.074997 112.0
145.110962 144.0
145.19426 152.0
145.24353 300.0
145.263 140.0
145.290833 176.0
145.358017 148.0
145.38681 80.0
145.432404 196.0
145.476929 228.0
145.523636 132.0
145.594421 216.0
145.642273 200.0
145.660522 60.0
145.706161 148.0
145.735352 220.0
145.790268 128.0
145.844345 200.0
145.916733 180.0
145.941635 128.0
145.980179 136.0
146.028275 192.0
146.058945 1032.0
146.083603 168.0
146.105255 156.0
146.13916 300.0
146.261673 160.0
146.279053 200.0
146.310776 180.0
146.41095 152.0
146.430206 196.0
146.528595 148.0
146.55307 104.0
146.589218 212.0
146.716965 160.0
146.760361 108.0
146.794113 116.0
146.836578 164.0
146.902649 320.0
146.987091 72.0
147.063904 352.0
147.088226 204.0
147.112595 184.0
147.139389 168.0
147.17778 136.0
147.212494 172.0
147.257782 128.0
147.281631 128.0
147.373428 108.0
147.423904 180.0
147.467682 204.0
147.493149 112.0
147.537781 164.0
147.593979 164.0
147.634491 100.0
147.651428 112.0
147.711899 192.0
147.840118 136.0
147.871063 112.0
147.903046 188.0
148.000702 168.0
148.027145 204.0
148.073471 76.0
148.090637 120.0
148.180939 248.0
148.197235 76.0
148.225159 108.0
148.281494 164.0
148.317261 96.0
148.372696 184.0
148.43042 136.0
148.467575 60.0
148.625244 136.0
148.676208 168.0
148.705658 148.0
148.821671 160.0
148.892273 128.0
148.911743 152.0
148.947174 180.0
148.973572 96.0
149.001587 140.0
149.036133 184.0
149.106079 220.0
149.154617 144.0
149.197144 148.0
149.242203 88.0
149.264084 144.0
149.33461 152.0
149.366241 140.0
149.381821 112.0
149.43869 200.0
149.480591 188.0
149.51416 180.0
149.558456 304.0
149.593048 156.0
149.628006 176.0
149.6875 180.0
149.738953 188.0
149.755798 156.0
149.801971 160.0
149.831207 104.0
149.954834 136.0
149.996918 164.0
150.013458 112.0
150.017746 88.0
150.027267 160.0
150.051559 144.0
150.135895 136.0
150.206619 144.0
150.255417 156.0
150.282242 108.0
150.319977 260.0
150.365219 204.0
150.401001 176.0
150.436005 132.0
150.453094 272.0
150.504364 136.0
150.577621 148.0
150.645798 184.0
150.692429 148.0
150.738861 140.0
150.783249 216.0
150.914383 168.0
150.956421 216.0
150.983398 120.0
151.052582 8064.0
151.126282 136.0
151.15799 80.0
151.199524 108.0
151.23288 388.0
151.271881 120.0
151.320801 188.0
151.383423 172.0
151.421402 248.0
151.441528 168.0
151.467941 208.0
151.524292 136.0
151.597794 140.0
151.632111 140.0
151.666412 280.0
151.69545 220.0
151.715439 180.0
151.75386 320.0
151.7939 172.0
151.811066 56.0
151.849701 196.0
151.882187 148.0
151.920944 176.0
151.929916 140.0
151.953339 128.0
152.05574 612.0
152.106659 192.0
152.147217 136.0
152.181595 156.0
152.209045 180.0
152.227722 148.0
152.284729 132.0
152.356659 156.0
152.444427 116.0
152.494766 164.0
152.609116 156.0
152.648453 144.0
152.707474 140.0
152.793579 200.0
152.825562 164.0
152.876343 88.0
152.894669 184.0
152.921539 180.0
152.959396 220.0
153.018341 184.0
153.050949 396.0
153.081558 140.0
153.164856 156.0
153.184174 224.0
153.212097 108.0
153.271225 128.0
153.307037 204.0
153.326492 188.0
153.391998 136.0
153.446228 116.0
153.465958 164.0
153.522675 116.0
153.596985 248.0
153.648468 140.0
153.67067 180.0
153.690414 52.0
153.742233 168.0
153.759506 136.0
153.786514 68.0
153.831085 176.0
153.880463 176.0
153.917496 120.0
153.961945 116.0
154.026169 120.0
154.059189 164.0
154.094391 128.0
154.166992 168.0
154.203827 164.0
154.221237 80.0
154.268326 200.0
154.307892 112.0
154.333679 260.0
154.364761 80.0
154.387878 148.0
154.406387 308.0
154.481415 232.0
154.549194 164.0
154.577866 184.0
154.608231 172.0
154.647873 156.0
154.716095 148.0
154.753052 104.0
154.758713 132.0
154.775528 160.0
154.802765 108.0
154.885086 184.0
154.914215 136.0
154.966248 160.0
155.020828 192.0
155.040588 176.0
155.056473 116.0
155.159561 136.0
155.209808 76.0
155.23642 132.0
155.298431 92.0
155.323593 156.0
155.342361 168.0
155.377228 224.0
155.400131 176.0
155.454727 160.0
155.477066 124.0
155.522018 172.0
155.561249 148.0
155.618546 104.0
155.667328 112.0
155.68074 176.0
155.702988 156.0
155.722656 100.0
155.77005 60.0
155.814758 168.0
155.859482 164.0
155.876877 180.0
155.904221 80.0
155.924103 140.0
155.982986 360.0
156.03595 236.0
156.068207 160.0
156.121765 376.0
156.150345 88.0
156.221512 76.0
156.258972 168.0
156.309555 140.0
156.364304 212.0
156.441467 184.0
156.575928 124.0
156.623245 152.0
156.640686 220.0
156.674286 196.0
156.728241 136.0
156.835037 168.0
156.867172 184.0
156.904846 116.0
156.942245 188.0
156.977219 136.0
157.024658 152.0
157.051971 120.0
157.078842 196.0
157.128815 144.0
157.132736 232.0
157.149261 264.0
157.184586 176.0
157.250717 164.0
157.269669 144.0
157.311996 96.0
157.348923 112.0
157.371994 200.0
157.401367 120.0
157.421341 168.0
157.443481 172.0
157.477829 372.0
157.508484 220.0
157.531723 116.0
157.555801 96.0
157.573074 136.0
157.595428 144.0
157.625885 276.0
157.642227 160.0
157.669205 540.0
157.708969 252.0
157.733917 196.0
157.754379 176.0
157.783768 232.0
157.801758 396.0
157.82724 200.0
157.858536 300.0
157.890182 180.0
157.918213 236.0
157.940872 264.0
157.969696 372.0
157.979675 208.0
158.060623 347216.0
158.143768 224.0
158.181183 228.0
158.205627 172.0
158.239502 176.0
158.274353 216.0
158.294006 416.0
158.320969 232.0
158.337601 412.0
158.361084 184.0
158.371277 172.0
158.379669 172.0
158.388687 148.0
158.426605 52.0
158.442535 456.0
158.472824 5760.0
158.49646 284.0
158.549591 84.0
158.596634 152.0
158.626404 112.0
158.630066 256.0
158.653732 204.0
158.694031 148.0
158.719696 120.0
158.723129 276.0
158.753662 196.0
158.78598 184.0
158.845459 160.0
158.872421 264.0
158.901199 228.0
158.908829 152.0
158.920013 304.0
158.939865 76.0
158.966537 80.0
158.991913 152.0
159.008759 96.0
159.063065 57744.0
159.126846 88.0
159.153625 172.0
159.197083 40.0
159.239426 276.0
159.292938 252.0
159.323837 252.0
159.378799 88.0
159.396301 272.0
159.412872 228.0
159.431763 140.0
159.486526 316.0
159.504425 236.0
159.538361 52.0
159.562622 104.0
159.59198 76.0
159.622681 52.0
159.656464 264.0
159.688248 188.0
159.717087 56.0
159.743347 116.0
159.768753 52.0
159.794174 100.0
159.83165 156.0
159.896301 188.0
159.918884 64.0
159.948456 236.0
159.968231 164.0
159.989639 208.0
160.06575 2400.0
160.119293 192.0
160.127228 272.0
160.182724 224.0
160.256912 396.0
160.282715 180.0
160.305908 164.0
160.333389 280.0
160.34993 216.0
160.359314 260.0
160.379089 176.0
160.400055 220.0
160.484436 116.0
160.549149 100.0
160.594955 176.0
160.620453 208.0
160.636093 72.0
160.661743 48.0
160.692017 68.0
160.730423 144.0
160.767715 184.0
160.787369 96.0
160.839294 88.0
160.858582 112.0
160.877441 108.0
160.896439 160.0
160.933517 76.0
160.960785 132.0
161.026382 208.0
161.041351 104.0
161.066391 432.0
161.179962 192.0
161.214706 308.0
161.244415 212.0
161.274994 112.0
161.302597 144.0
161.331314 240.0
161.392838 136.0
161.436569 68.0
161.462448 36.0
161.480164 88.0
161.553513 48.0
161.686539 132.0
161.727142 104.0
161.755951 64.0
161.778748 48.0
161.819 84.0
161.859756 108.0
161.88002 28.0
161.927048 196.0
161.945862 88.0
161.986389 48.0
162.025665 64.0
162.044144 276.0
162.090271 76.0
162.143494 156.0
162.253601 128.0
162.399185 204.0
162.445221 112.0
162.539246 132.0
162.594925 52.0
162.622833 116.0
162.685959 180.0
162.711685 180.0
162.749771 236.0
162.800552 76.0
163.05159 236.0
163.096466 144.0
163.199509 152.0
163.22493 60.0
163.430969 200.0
163.476486 172.0
163.518448 96.0
163.591309 72.0
163.930054 132.0
164.077881 124.0
164.141632 272.0
164.172226 124.0
164.190079 152.0
164.332932 40.0
164.373764 80.0
164.429901 48.0
164.50647 56.0
164.542221 64.0
164.580521 48.0
164.629028 60.0
164.685226 108.0
164.784851 112.0
164.841064 92.0
164.864059 164.0
164.887054 64.0
164.917725 160.0
164.94841 168.0
164.977097 196.0
164.996979 68.0
165.068237 10840.0
165.152512 68.0
165.198303 72.0
165.270645 188.0
165.419083 60.0
165.454926 72.0
165.524048 128.0
165.557343 36.0
165.58551 124.0
165.618805 164.0
165.649551 196.0
165.689423 72.0
165.816101 44.0
165.910934 44.0
165.931442 180.0
165.990417 188.0
166.072174 456.0
166.109924 128.0
166.139191 148.0
166.262344 164.0
166.33934 208.0
166.365768 232.0
166.400955 112.0
166.465149 48.0
166.513947 32.0
166.548645 80.0
166.574738 120.0
166.608994 200.0
166.662369 200.0
166.724609 56.0
166.773788 92.0
166.878845 176.0
166.913559 168.0
166.966415 72.0
167.008713 88.0
167.0383 188.0
167.062836 768.0
167.148926 96.0
167.16951 44.0
167.206619 172.0
167.249298 224.0
167.345642 140.0
167.40892 224.0
167.460419 52.0
167.514511 112.0
167.609375 288.0
167.78157 128.0
167.810898 84.0
167.828934 204.0
167.87793 104.0
167.906296 200.0
167.957336 152.0
168.064316 140.0
168.124313 216.0
168.192688 144.0
168.222427 108.0
168.321777 96.0
168.34761 168.0
168.39151 120.0
168.414749 32.0
168.450912 208.0
168.47934 224.0
168.569763 48.0
168.74118 152.0
168.7948 72.0
168.882584 148.0
168.911041 108.0
168.952438 104.0
169.002975 208.0
169.136169 40.0
169.24231 164.0
169.33812 72.0
169.362762 76.0
169.439148 244.0
169.584259 128.0
169.693146 68.0
169.73613 96.0
169.780258 120.0
169.827988 76.0
170.014786 80.0
170.084869 156.0
170.16275 192.0
170.188705 72.0
170.209488 36.0
170.319824 164.0
170.347137 44.0
170.380905 160.0
170.406891 108.0
170.440659 80.0
170.513428 136.0
170.54982 156.0
170.608505 152.0
170.630402 116.0
170.688446 232.0
170.822845 44.0
170.846924 160.0
170.887878 32.0
170.932114 48.0
170.986771 88.0
171.010193 112.0
171.028412 84.0
171.110626 144.0
171.148163 200.0
171.180923 168.0
171.214966 116.0
171.273163 108.0
171.359131 152.0
171.567627 164.0
171.630203 168.0
171.710251 208.0
171.857132 48.0
171.906708 164.0
171.927582 144.0
172.047653 112.0
172.073761 96.0
172.114502 212.0
172.191269 108.0
172.261795 172.0
172.308823 128.0
172.361069 80.0
172.379364 128.0
172.577667 116.0
172.729706 48.0
172.750641 156.0
172.780853 116.0
173.156342 72.0
173.193024 228.0
173.368561 64.0
173.44194 32.0
173.483887 124.0
173.659561 152.0
173.733658 124.0
173.880966 176.0
173.928619 156.0
174.049255 124.0
174.079483 84.0
174.153015 116.0
174.389542 168.0
174.421021 140.0
174.470627 120.0
174.497269 212.0
174.547226 92.0
174.615601 132.0
174.665573 40.0
174.693665 164.0
174.820801 136.0
174.844208 196.0
174.910278 84.0
174.931335 160.0
174.968201 168.0
175.020859 68.0
175.068253 96.0
175.097229 156.0
175.147263 112.0
175.176239 144.0
175.298355 128.0
175.329071 100.0
175.347519 112.0
175.539963 64.0
175.577957 128.0
175.61644 124.0
175.648102 72.0
175.911972 140.0
176.069 968.0
176.19455 176.0
176.257965 184.0
176.292313 180.0
176.384811 88.0
176.408615 44.0
176.479996 176.0
176.749786 104.0
176.786835 136.0
176.858292 104.0
176.90329 244.0
177.069534 804.0
177.115707 56.0
177.165466 160.0
177.220444 180.0
177.266144 48.0
177.411926 76.0
177.430481 128.0
177.470245 80.0
177.49147 152.0
177.629379 160.0
177.674469 168.0
177.756729 80.0
177.817764 212.0
177.998291 52.0
178.067047 264.0
178.131073 200.0
178.23204 192.0
178.298477 176.0
178.434036 112.0
178.553696 48.0
178.633499 168.0
178.723953 268.0
178.782486 196.0
178.809097 136.0
179.019424 136.0
179.064697 172.0
179.10997 196.0
179.189896 64.0
179.240524 144.0
179.333786 112.0
179.352448 76.0
179.420303 220.0
179.480423 120.0
179.579086 124.0
179.616425 204.0
179.656448 60.0
179.741821 92.0
179.896622 148.0
179.971375 52.0
180.01944 88.0
180.07637 228.0
180.131622 48.0
180.203751 144.0
180.430923 144.0
180.540558 108.0
180.602493 148.0
180.676971 156.0
180.77597 60.0
180.832169 156.0
180.872314 72.0
180.971375 52.0
181.083038 252.0
181.117859 188.0
181.150803 184.0
181.19635 196.0
181.231186 144.0
181.351776 144.0
181.496536 152.0
181.587723 120.0
181.657455 136.0
181.703064 120.0
181.732574 204.0
181.764771 136.0
181.810394 212.0
181.882858 168.0
181.904343 100.0
181.929321 144.0
181.963394 48.0
182.108078 152.0
182.218552 48.0
182.240036 156.0
182.285721 200.0
182.323334 76.0
182.342148 132.0
182.530334 124.0
182.672882 68.0
182.849564 180.0
182.874695 100.0
182.917755 88.0
183.022751 132.0
183.213974 124.0
183.341751 148.0
183.38118 160.0
183.55574 160.0
183.578629 180.0
183.683044 80.0
183.842224 72.0
183.996597 168.0
184.079788 140.0
184.117584 180.0
184.249939 148.0
184.449921 148.0
184.5905 172.0
184.741974 192.0
184.793365 164.0
184.885376 220.0
185.137146 104.0
185.161514 252.0
185.180481 132.0
185.352386 192.0
185.635773 156.0
185.974899 220.0
186.088913 140.0
186.249146 300.0
186.270874 84.0
186.303467 204.0
186.357803 156.0
186.39679 248.0
186.499115 164.0
186.529022 156.0
186.675842 104.0
186.811829 140.0
186.906616 212.0
187.024078 112.0
187.181976 116.0
187.26387 172.0
187.296371 152.0
187.514343 196.0
187.590668 160.0
187.639404 136.0
187.672455 140.0
187.710632 76.0
187.746078 188.0
187.848328 172.0
187.887909 108.0
187.928833 80.0
188.013428 188.0
188.144455 108.0
188.179947 148.0
188.204514 224.0
188.376572 196.0
188.529587 124.0
188.815781 268.0
189.186035 112.0
189.246262 152.0
189.465363 72.0
189.564011 36.0
189.607849 152.0
189.783295 124.0
189.816971 184.0
189.950592 136.0
190.035629 184.0
190.070633 132.0
190.135559 180.0
190.189316 184.0
190.400177 40.0
190.433685 152.0
190.54631 192.0
190.667206 132.0
190.691956 120.0
190.723373 124.0
190.829636 180.0
190.867889 184.0
191.083496 792.0
191.246475 196.0
191.363159 36.0
191.42099 104.0
191.440262 140.0
191.496719 148.0
191.575226 152.0
191.608276 120.0
191.662262 192.0
191.730087 156.0
191.811813 160.0
191.908707 176.0
191.975006 176.0
192.036179 164.0
192.086334 176.0
192.151413 124.0
192.270065 360.0
192.370728 128.0
192.488144 92.0
192.651108 156.0
192.722946 152.0
192.955109 108.0
193.013168 144.0
193.085709 168.0
193.220612 88.0
193.28978 156.0
193.602112 160.0
193.782639 144.0
193.849136 112.0
193.962769 128.0
194.026535 124.0
194.104172 172.0
194.229446 92.0
194.362137 112.0
194.473145 108.0
194.523102 168.0
194.625824 112.0
194.661926 264.0
194.68692 220.0
194.767471 132.0
194.953613 128.0
195.095978 164.0
195.117615 92.0
195.348434 48.0
195.420761 148.0
195.565475 200.0
195.640625 132.0
195.760361 124.0
195.885696 48.0
196.052856 100.0
196.083527 172.0
196.175507 104.0
196.200592 104.0
196.256348 116.0
196.283752 92.0
196.409744 156.0
196.94426 56.0
197.183151 136.0
197.258621 148.0
197.291748 188.0
197.4254 400.0
197.501892 160.0
197.543854 80.0
197.935684 176.0
197.969284 108.0
198.005692 172.0
198.126068 108.0
198.179367 164.0
198.241013 244.0
198.358734 64.0
198.404251 184.0
198.456848 172.0
198.501724 108.0
198.5522 48.0
198.599884 128.0
198.849594 164.0
199.0224 164.0
199.062943 168.0
199.346664 156.0
199.369156 132.0
199.532181 112.0
199.709351 152.0
200.162445 120.0
200.213135 180.0
200.303268 148.0
200.517395 104.0
200.554047 132.0
200.819077 220.0
200.903702 116.0
201.061722 212.0
201.089157 172.0
201.335556 152.0
201.39769 248.0
201.431595 224.0
201.598297 148.0
201.705688 164.0
201.824432 84.0
201.900787 132.0
202.00827 208.0
202.044296 200.0
202.079315 140.0
202.101624 100.0
202.172363 136.0
202.200668 132.0
202.234634 184.0
202.260101 152.0
202.356354 160.0
202.438477 200.0
202.61293 128.0
202.684921 196.0
202.829453 192.0
202.92868 264.0
202.948532 140.0
203.073303 136.0
203.118683 228.0
203.155258 112.0
203.209473 60.0
203.263382 116.0
203.456375 120.0
203.48761 76.0
203.533035 84.0
203.567123 168.0
203.635269 164.0
203.763107 160.0
203.851181 48.0
203.882446 48.0
203.922241 144.0
204.172424 172.0
204.307007 148.0
204.340256 44.0
204.50531 164.0
204.536743 172.0
204.630554 160.0
204.653336 44.0
204.739594 164.0
204.772934 272.0
204.798569 140.0
204.903976 128.0
204.92392 60.0
204.969009 184.0
205.100601 164.0
205.149063 160.0
205.250443 200.0
205.334412 240.0
205.360077 124.0
205.505554 112.0
205.685349 80.0
205.72818 116.0
205.772568 148.0
205.85173 176.0
206.053741 56.0
206.133743 168.0
206.210907 236.0
206.436768 188.0
206.591217 80.0
206.731415 312.0
207.029144 112.0
207.172348 84.0
207.241104 204.0
207.441727 40.0
207.47612 184.0
207.542938 172.0
207.848984 88.0
208.075729 132.0
208.115936 92.0
208.138901 96.0
208.481918 176.0
208.509476 208.0
208.529602 196.0
208.779724 148.0
208.900528 236.0
208.95192 148.0
209.194046 156.0
209.467621 128.0
209.513702 176.0
209.571335 92.0
209.614548 88.0
209.657776 80.0
209.767303 100.0
209.807663 176.0
209.925888 80.0
209.983566 60.0
210.075867 152.0
210.113373 132.0
210.197037 128.0
210.236954 120.0
210.357666 128.0
210.390427 160.0
210.809235 192.0
211.063614 152.0
211.092529 132.0
211.173828 252.0
211.396271 172.0
211.433884 104.0
211.512039 152.0
211.668381 140.0
211.703125 192.0
211.882706 128.0
212.062378 100.0
212.111649 104.0
212.225952 224.0
212.294296 72.0
212.323303 136.0
212.477036 180.0
212.517654 156.0
212.625031 148.0
212.683075 72.0
212.726624 148.0
212.796295 192.0
212.857269 144.0
212.918259 196.0
212.961823 132.0
212.987961 48.0
213.051865 56.0
213.348297 212.0
213.508209 180.0
213.586746 172.0
213.630386 156.0
213.816605 92.0
214.014557 196.0
214.110641 160.0
214.228104 148.0
214.410721 104.0
214.439865 164.0
214.545715 216.0
214.59436 184.0
214.70517 152.0
214.78392 100.0
214.973572 176.0
214.999832 148.0
215.037766 108.0
215.064041 156.0
215.092163 240.0
215.169128 56.0
215.320969 176.0
215.440735 68.0
215.46994 104.0
215.534225 140.0
215.624817 96.0
215.656967 44.0
215.803131 100.0
215.928879 108.0
216.054657 180.0
216.119019 176.0
216.174622 160.0
216.297546 140.0
216.563995 76.0
216.66066 64.0
216.681168 140.0
216.736343 200.0
216.830612 164.0
216.980118 44.0
217.01796 88.0
217.076874 144.0
217.100632 416.0
217.161926 140.0
217.239456 176.0
217.279251 188.0
217.3526 92.0
217.41423 228.0
217.43869 228.0
217.470001 108.0
217.516953 148.0
217.602097 204.0
217.681366 44.0
217.738831 148.0
217.763611 252.0
217.799484 112.0
217.824905 124.0
217.85466 104.0
217.897751 204.0
217.946121 124.0
218.04129 148.0
218.053696 128.0
218.085587 288.0
218.120438 208.0
218.167358 212.0
218.205566 120.0
218.260452 120.0
218.292603 224.0
218.316132 332.0
218.339005 92.0
218.371017 184.0
218.379013 260.0
218.392975 124.0
218.398865 208.0
218.419067 300.0
218.47496 144.0
218.501434 92.0
218.557205 152.0
218.595474 132.0
218.655609 160.0
218.685608 336.0
218.711365 236.0
218.768097 220.0
218.807388 192.0
218.846283 180.0
218.901062 384.0
218.955978 292.0
218.96402 320.0
218.974045 264.0
218.997604 388.0
219.034058 400.0
219.050369 628.0
219.11644 285192.0
219.202148 124.0
219.221497 352.0
219.259995 72.0
219.270523 84.0
219.278976 80.0
219.329422 224.0
219.355621 320.0
219.387146 140.0
219.417892 208.0
219.450531 228.0
219.471985 124.0
219.514603 352.0
219.556351 160.0
219.600739 2940.0
219.625107 252.0
219.655502 156.0
219.697144 168.0
219.723099 108.0
219.761749 160.0
219.795029 136.0
219.836411 304.0
219.868774 136.0
219.899261 300.0
219.962738 128.0
220.009674 172.0
220.018005 108.0
220.076462 284.0
220.118195 29476.0
220.181396 116.0
220.20639 236.0
220.233887 232.0
220.284454 220.0
220.316345 116.0
220.346786 208.0
220.392578 68.0
220.423218 92.0
220.45932 44.0
220.50238 56.0
220.535263 144.0
220.57341 120.0
220.614853 188.0
220.680573 80.0
220.752533 144.0
220.776413 76.0
220.802994 48.0
220.832764 204.0
220.860153 164.0
220.886429 120.0
220.952271 112.0
220.981567 68.0
221.015991 80.0
221.06955 124.0
221.112564 14388.0
221.163025 48.0
221.17009 112.0
221.183151 76.0
221.190964 128.0
221.224136 140.0
221.281372 180.0
221.344727 80.0
221.370712 520.0
221.416031 88.0
221.450058 32.0
221.488434 96.0
221.5065 116.0
221.528488 132.0
221.573166 92.0
221.624557 268.0
221.665039 88.0
221.698425 124.0
221.735199 120.0
221.766663 200.0
221.786575 168.0
221.825546 80.0
221.858826 132.0
221.884445 120.0
221.892624 128.0
221.939667 44.0
221.967285 116.0
222.06395 48.0
222.113312 1144.0
222.155243 88.0
222.193192 48.0
222.212265 96.0
222.252502 128.0
222.286453 68.0
222.339859 60.0
222.380676 48.0
222.440781 76.0
222.491241 60.0
222.565475 116.0
222.599197 112.0
222.619476 84.0
222.66748 136.0
222.702087 68.0
222.734756 40.0
222.758118 120.0
222.797134 116.0
222.823868 52.0
222.856552 96.0
222.894501 52.0
223.008118 52.0
223.043045 48.0
223.144852 76.0
223.174591 112.0
223.240936 128.0
223.281647 72.0
223.333084 68.0
223.427399 76.0
223.460815 120.0
223.579147 108.0
223.605927 52.0
223.669373 64.0
223.713089 48.0
223.739883 48.0
223.808365 104.0
223.990402 96.0
224.039474 84.0
224.097275 52.0
224.156876 68.0
224.213501 48.0
224.237213 96.0
224.535477 44.0
224.635178 80.0
224.908432 56.0
224.945145 104.0
225.003952 112.0
225.177155 76.0
225.416138 60.0
225.457977 96.0
225.743683 84.0
225.846649 64.0
226.112946 32.0
226.271591 72.0
226.47821 92.0
226.525177 124.0
226.789825 76.0
227.103088 76.0
227.187866 148.0
227.275665 116.0
228.131622 132.0
228.348114 52.0
228.459412 72.0
228.564713 80.0
228.685089 84.0
228.73024 52.0
229.02533 88.0
229.130753 108.0
229.377869 32.0
229.646225 68.0
229.911728 120.0
229.972092 92.0
230.002274 56.0
230.059631 120.0
230.228714 128.0
230.298187 148.0
230.319321 104.0
230.664764 84.0
230.755203 68.0
230.89798 88.0
231.014572 52.0
231.098099 156.0
231.171906 104.0
231.289948 180.0
231.323242 180.0
231.362595 68.0
231.474625 36.0
231.50029 84.0
231.55336 68.0
232.098831 68.0
232.223175 116.0
232.611557 88.0
232.942551 60.0
232.982056 48.0
233.054962 120.0
233.191711 164.0
233.361954 32.0
233.620453 60.0
233.650879 168.0
233.796936 92.0
233.854767 36.0
233.906509 100.0
234.375519 60.0
234.476074 160.0
234.622391 40.0
234.686417 88.0
234.7901 80.0
234.93956 216.0
235.10791 152.0
235.565369 60.0
235.629532 76.0
235.767532 72.0
236.112488 116.0
236.161423 40.0
236.253189 56.0
236.344986 60.0
236.641876 124.0
237.082977 48.0
237.121979 272.0
237.208633 84.0
237.276077 60.0
238.076935 100.0
238.390289 76.0
240.003265 88.0
240.145126 56.0
240.59874 152.0
241.658829 156.0
242.126251 96.0
242.479431 32.0
243.059341 52.0
243.506378 48.0
243.78598 160.0
243.941391 36.0
244.34256 68.0
246.012009 192.0
246.146133 72.0
246.415863 112.0
247.657791 96.0
247.9711 96.0
248.425766 76.0
251.058411 132.0
252.119141 64.0
252.833878 88.0
254.393326 92.0
255.031815 28.0
255.489716 84.0
256.269745 56.0
257.3414 56.0
258.83783 48.0
261.972534 112.0
262.049835 96.0
262.514008 224.0
263.227173 100.0
263.621277 100.0
264.297089 112.0
264.442719 48.0
264.591614 80.0
264.688751 92.0
265.401611 128.0
267.100128 112.0
267.324615 88.0
267.975861 116.0
268.03125 128.0
268.957458 84.0
270.667297 176.0
271.470123 40.0
271.922882 48.0
272.132965 124.0
272.395691 92.0
273.954956 92.0
274.874847 56.0
274.960632 44.0
275.839233 28.0
276.530518 64.0
277.182922 52.0
279.257843 68.0
279.424164 64.0
280.423157 36.0
281.333801 160.0
281.357147 100.0
282.493378 156.0
283.226471 140.0
283.89679 124.0
284.843262 52.0
285.004517 80.0
285.160248 412.0
285.505402 116.0
285.794678 48.0
286.097595 132.0
286.152985 152.0
286.306366 64.0
286.474762 72.0
287.162415 96.0
287.221832 52.0
287.314209 68.0
287.695557 68.0
288.006226 52.0
288.550293 100.0
289.115173 96.0
289.877106 176.0
289.999115 152.0
292.965607 68.0
293.531372 92.0
293.780365 68.0
294.456207 104.0
295.013184 88.0
295.433807 36.0
295.628845 40.0
296.365051 92.0
296.711212 168.0
296.999268 72.0
297.64447 92.0
297.816193 44.0
297.867706 124.0
298.183807 72.0
299.126251 196.0
299.17453 2568.0
299.260529 144.0
299.284637 48.0
299.649719 32.0
299.697968 64.0
299.73587 52.0
299.84613 140.0
300.17392 608.0
300.311584 120.0
301.18573 128.0
302.29068 80.0
302.60965 84.0
302.997528 44.0
303.174255 120.0
303.323303 60.0
303.985718 108.0
304.114136 88.0
304.228699 40.0
304.357147 36.0
304.47522 88.0
305.966949 84.0
307.577484 112.0
308.055878 76.0
308.870361 48.0
309.30426 128.0
309.447784 124.0
310.095856 88.0
310.404358 60.0
311.966736 88.0
313.744568 84.0
316.019043 60.0
316.075653 44.0
316.202423 180.0
316.266754 80.0
317.187714 152.0
317.776398 84.0
318.209412 80.0
318.312378 128.0
318.628479 84.0
318.958984 56.0
320.004883 52.0
320.874237 112.0
321.898254 108.0
322.019684 80.0
324.865387 64.0
325.260101 100.0
325.303192 52.0
325.690979 72.0
326.427734 76.0
326.967377 124.0
327.05014 60.0
328.632202 144.0
331.521393 80.0
332.192139 64.0
332.841797 80.0
333.317657 56.0
334.612518 112.0
335.045898 56.0
335.815033 116.0
338.622009 72.0
338.786835 72.0
340.437378 72.0
340.701843 80.0
343.027618 84.0
344.053162 56.0
347.087067 124.0
347.150116 80.0
347.224274 56.0
347.28363 60.0
347.73999 64.0
349.006775 152.0
352.447174 60.0
355.045074 192.0
356.272491 192.0
356.693359 120.0
356.81366 64.0
356.87384 112.0
357.061859 92.0
357.12204 32.0
357.422974 56.0
358.956085 144.0
359.208801 52.0
359.401184 92.0
361.801178 144.0
362.698975 52.0
362.903687 56.0
363.089508 92.0
363.294342 120.0
363.757294 128.0
364.703125 132.0
365.041473 56.0
365.227844 48.0
365.692047 116.0
366.533661 132.0
367.329926 136.0
369.290009 80.0
371.622955 96.0
373.817017 80.0
375.577698 84.0
377.493317 56.0
378.034882 60.0
378.476166 44.0
379.371155 76.0
379.933472 68.0
380.014954 136.0
380.042114 56.0
380.205078 36.0
380.554443 56.0
384.567993 100.0
384.607025 88.0
384.806122 100.0
390.858002 84.0
390.991791 116.0
392.662231 116.0
392.792389 56.0
393.423798 152.0
393.475128 112.0
393.696228 116.0
393.870026 120.0
393.949036 60.0
394.051727 180.0
394.107056 136.0
394.178558 6952.0
394.265533 152.0
394.330841 160.0
394.507141 52.0
394.557617 76.0
394.866058 64.0
394.897705 68.0
394.960968 168.0
395.180481 1988.0
395.851471 40.0
395.902954 48.0
396.171387 516.0
396.842072 48.0
396.94516 52.0
397.179169 112.0
397.214844 128.0
397.611633 116.0
397.638885 104.0
397.905365 84.0
398.028473 120.0
398.207153 104.0
398.298523 80.0
398.846863 144.0
398.914429 48.0
399.089386 36.0
399.28421 68.0
399.682037 80.0
400.450348 36.0
401.295166 60.0
401.682007 68.0
401.929382 56.0
402.743774 48.0
403.746979 56.0
407.605591 44.0
408.648834 32.0
411.312653 104.0
412.544708 76.0
412.718567 84.0
416.59314 80.0
419.39679 76.0
419.531311 84.0
420.253204 64.0
420.947113 88.0
422.201691 48.0
425.073395 64.0
425.290894 36.0
425.426361 92.0
425.820557 52.0
425.972534 48.0
429.141449 112.0
430.907928 44.0
431.01123 44.0
433.067322 56.0
434.945618 116.0
436.981934 132.0
438.376831 136.0
439.452637 72.0
441.926147 120.0
445.472931 64.0
445.611572 64.0
447.276917 28.0
451.919128 40.0
453.09613 88.0
453.507202 136.0
456.840546 116.0
457.363922 88.0
458.978577 80.0
460.822479 40.0
464.800232 80.0
466.995514 60.0
467.632294 136.0
468.291046 32.0
473.317871 48.0
475.329193 104.0
480.018463 60.0
480.908447 48.0
481.349396 72.0
482.730255 48.0
484.463501 112.0
484.78772 96.0
487.657959 80.0
487.829407 36.0
487.864563 40.0
489.105072 68.0
490.849701 68.0
497.078033 52.0
498.921265 72.0
499.023529 44.0
499.953217 56.0
507.273834 48.0
511.343323 80.0
516.111633 92.0
521.756409 148.0
522.716125 68.0
525.043945 80.0
527.125671 40.0
534.904236 100.0
536.253784 44.0
537.406677 44.0
545.302307 124.0
545.599792 52.0
545.711365 56.0
546.078735 40.0
546.446228 84.0
546.897644 48.0
550.805054 48.0
552.272766 40.0
552.576843 68.0
553.906372 104.0
555.711304 76.0
559.278137 72.0
560.639282 96.0
562.469299 80.0
562.880005 56.0
564.349548 100.0
573.254517 76.0
575.181335 100.0
577.613525 76.0
587.808655 48.0
588.861084 60.0
589.179871 52.0
590.809082 76.0
592.760315 44.0
598.117249 72.0
602.911682 76.0
603.850342 56.0
605.166748 92.0
607.607483 96.0
609.49292 52.0
617.03894 152.0
619.47876 40.0
621.184021 40.0
622.181519 100.0
630.445007 68.0
633.797729 100.0
634.253784 32.0
635.221558 48.0
635.266724 124.0
637.983521 32.0
639.024597 84.0
651.608887 40.0
652.849182 200.0
655.323059 220.0
657.281006 176.0
660.126282 104.0
671.666809 48.0
677.228516 48.0
678.560303 108.0
681.763 76.0
683.390564 64.0
684.181641 132.0
691.657043 84.0
693.453613 60.0
694.281982 40.0
694.780273 112.0
695.556946 168.0
698.552185 100.0
700.299744 48.0
700.847595 36.0
702.582214 88.0
702.682434 48.0
704.303101 52.0
704.429871 80.0
705.190796 108.0
712.955139 64.0
719.955322 36.0
720.227722 168.0
720.361267 36.0
728.740295 56.0
731.197754 72.0
732.215332 72.0
733.605469 48.0
734.646301 124.0
735.07251 68.0
740.760315 40.0
743.433289 132.0
746.051331 88.0
749.518311 144.0
752.179749 100.0
752.381714 116.0
752.889526 140.0
755.573364 76.0
758.618286 140.0
759.243347 52.0
763.895569 80.0
765.83313 96.0
766.191223 76.0
770.422607 100.0
775.330566 156.0
776.178772 56.0
776.30072 36.0
777.654419 192.0
783.125549 144.0
786.236572 176.0
789.650146 188.0
791.821716 144.0
792.012146 88.0
794.17572 52.0
794.287903 108.0
794.787231 144.0
796.415283 116.0
797.583984 104.0
798.275513 124.0
798.860474 200.0
801.320679 76.0
802.025085 52.0
803.423584 120.0
804.806335 72.0
804.953186 64.0
807.468018 108.0
811.326355 204.0
815.718018 148.0
818.614014 112.0
820.226379 156.0
821.458069 164.0
825.25592 108.0
827.172424 208.0
827.922485 92.0
830.186157 140.0
834.021362 120.0
834.32605 140.0
834.41803 88.0
837.851379 196.0
838.464661 160.0
839.144897 168.0
839.415894 152.0
841.181335 124.0
842.272705 136.0
845.186462 172.0
846.651062 196.0
846.703186 220.0
847.792297 148.0
848.099487 108.0
849.201111 40.0
849.334534 232.0
850.402161 120.0
851.458862 160.0
851.557556 284.0
851.906067 44.0
852.370911 132.0
852.475525 60.0
853.963806 64.0
855.272949 184.0
857.124939 164.0
857.358032 140.0
858.13916 184.0
859.177307 64.0
860.624695 212.0
860.805725 192.0
861.921448 140.0
862.78064 160.0
862.897522 224.0
863.798157 204.0
864.8573 100.0
866.702026 160.0
866.930542 76.0
867.915344 168.0
872.500854 188.0
874.595032 180.0
874.842285 188.0
875.401611 180.0
876.143799 160.0
877.015869 176.0
877.263489 52.0
877.917969 172.0
878.661133 224.0
880.307983 228.0
880.762756 196.0
881.507141 148.0
881.613525 168.0
882.943665 236.0
883.896118 180.0
884.156494 176.0
884.440613 168.0
886.116516 152.0
886.910583 124.0
888.096497 180.0
890.333984 108.0
891.284485 208.0
891.913269 204.0
892.419739 184.0
894.281738 200.0
894.454346 112.0
894.496033 144.0
895.347473 64.0
895.573792 112.0
895.710754 92.0
896.64624 68.0
897.02771 120.0
897.993652 168.0
898.852722 132.0
900.876709 152.0
902.2453 148.0
902.615967 36.0
902.885071 192.0
903.070496 88.0
903.115601 156.0
903.297791 168.0
903.375549 112.0
903.860168 112.0
904.111511 156.0
904.967529 192.0
905.075256 68.0
905.344727 160.0
905.452576 148.0
905.913757 96.0
906.710693 116.0
907.483948 120.0
907.52594 92.0
907.573914 48.0
908.60553 208.0
909.577698 120.0
909.61969 56.0
910.616455 68.0
911.559631 196.0
911.685852 232.0
912.166687 60.0
912.900208 188.0
913.796448 128.0
914.819519 164.0
915.819641 180.0
915.86731 120.0
916.060059 140.0
917.247192 64.0
917.72345 84.0
917.892273 96.0
917.98877 100.0
918.790955 144.0
920.535339 180.0
920.831238 168.0
920.88562 160.0
920.964111 116.0
921.906616 156.0
922.347839 168.0
923.865662 56.0
924.283142 188.0
924.618225 140.0
924.82782 172.0
925.83252 160.0
926.365845 140.0
926.674805 52.0
927.341431 144.0
927.716675 196.0
928.493347 172.0
929.039246 60.0
929.48822 172.0
929.645996 92.0
930.37439 36.0
932.251221 136.0
932.652344 84.0
932.707031 184.0
932.944153 128.0
934.878357 108.0
936.857178 184.0
937.289795 60.0
938.216187 144.0
938.783264 80.0
939.509094 200.0
939.899597 156.0
941.205811 164.0
941.586914 160.0
941.633301 160.0
943.515381 140.0
944.299866 124.0
944.444885 176.0
944.689575 128.0
944.744629 76.0
945.289124 108.0
945.36261 120.0
946.715515 144.0
947.701721 128.0
947.79364 152.0
949.007263 152.0
950.67572 180.0
951.547363 164.0
952.579102 140.0
952.744934 32.0
953.402405 160.0
953.986328 48.0
954.527344 104.0
955.142395 164.0
955.222351 136.0
955.65918 156.0
955.9422 156.0
958.608643 116.0
958.762695 152.0
959.040039 116.0
960.119019 180.0
961.476257 92.0
961.62439 112.0
961.735474 160.0
962.004211 320.0
962.260193 156.0
963.662231 120.0
964.472412 80.0
966.308472 124.0
966.607239 192.0
966.753967 88.0
967.16864 252.0
967.328857 148.0
968.927307 148.0
971.183777 96.0
971.227173 156.0
972.207458 184.0
972.288147 164.0
972.48053 72.0
972.573669 164.0
973.449036 164.0
974.020447 176.0
974.722473 192.0
975.337769 100.0
975.486938 176.0
975.629944 100.0
976.046509 160.0
977.172302 120.0
977.433594 104.0
978.062195 200.0
978.105774 168.0
978.6474 172.0
978.753235 216.0
980.478821 100.0
981.401367 140.0
982.436707 244.0
982.673767 212.0
983.124268 120.0
983.397644 200.0
983.984436 188.0
984.159241 240.0
984.321594 92.0
984.596375 160.0
984.827454 112.0
985.068604 172.0
985.320984 124.0
985.620911 164.0
985.764587 120.0
986.18335 88.0
986.314575 144.0
986.921021 320.0
987.36499 80.0
989.048035 144.0
990.275269 156.0
990.569702 88.0
991.603516 156.0
992.086182 156.0
992.493713 188.0
992.738281 200.0
993.083191 48.0
993.672913 64.0
994.777405 192.0
995.166687 60.0
995.450134 140.0
995.618774 168.0
995.719238 140.0
997.97522 108.0
998.906006 212.0
999.05072 176.0
999.195374 100.0
999.321228 172.0
1000.380981 112.0
1000.573669 152.0
1000.737366 116.0
1001.010498 204.0
1002.255371 156.0
1002.728027 108.0
1002.954895 192.0
1003.484436 104.0
1003.541199 116.0
1003.774475 160.0
1004.09613 52.0
1004.764771 156.0
1004.941406 172.0
1005.143311 176.0
1005.515686 80.0
1006.026917 176.0
1006.077454 148.0
1006.146912 116.0
1006.715149 148.0
1006.797241 136.0
1006.955139 160.0
1007.005676 200.0
1007.220459 96.0
1008.161804 156.0
1008.458862 56.0
1008.541016 140.0
1008.610596 168.0
1008.850769 172.0
1009.078369 120.0
1009.647461 160.0
1009.748657 92.0
1010.096558 188.0
1010.476135 116.0
1011.488647 100.0
1011.874817 180.0
1011.982483 132.0
1012.045776 176.0
1013.06543 136.0
1013.141479 132.0
1013.426575 272.0
1013.603516 104.0
1013.882812 96.0
1014.377197 80.0
1014.611755 72.0
1015.359985 148.0
1015.429749 200.0
1017.580933 136.0
1017.936523 80.0
1018.044495 160.0
1018.508118 176.0
1018.921021 152.0
1019.55011 188.0
1020.891479 164.0
1021.610229 212.0
1021.769287 180.0
1021.928345 180.0
1022.31012 144.0
1022.71106 156.0
1023.124878 60.0
1023.252197 164.0
1023.404968 156.0
1023.602356 164.0
1023.850769 68.0
1024.249023 172.0
1024.280151 76.0
1024.602417 56.0
1024.691528 172.0
1024.889038 140.0
1025.462646 88.0
1025.570923 120.0
1025.717529 248.0
1026.489014 216.0
1026.667603 128.0
1027.069458 324.0
1027.27356 32.0
1027.413818 176.0
1027.509521 224.0
1027.809448 216.0
1028.243408 172.0
1028.485962 128.0
1030.197266 44.0
1030.708374 188.0
1031.724609 196.0
1031.929199 144.0
1032.408813 92.0
1032.677368 176.0
1032.818115 128.0
1033.587891 176.0
1033.65625 188.0
1033.886597 204.0
1034.321899 192.0
1034.443481 68.0
1034.488281 92.0
1034.930054 152.0
1035.198975 72.0
1036.78772 144.0
1037.620972 96.0
1038.044189 140.0
1038.178833 144.0
1038.589355 56.0
1039.352783 124.0
1040.084351 124.0
1040.321899 148.0
1040.540161 36.0
1041.182251 188.0
1041.638306 168.0
1041.914551 96.0
1043.077759 128.0
1043.180542 180.0
1043.251343 124.0
1044.196533 160.0
1044.621094 80.0
1044.78833 160.0
1045.045654 144.0
1045.412231 160.0
1046.320068 144.0
1047.04126 96.0
1047.472778 180.0
1047.530762 124.0
1047.614502 52.0
1047.707397 140.0
1048.574585 96.0
1048.684082 128.0
1049.283569 172.0
1049.444824 180.0
1050.954102 144.0
1051.31543 136.0
1051.67688 140.0
1051.780151 176.0
1052.122314 104.0
1052.303101 172.0
1052.361206 56.0
1052.600098 100.0
1053.233032 136.0
1053.394531 128.0
1053.439697 152.0
1053.70459 240.0
1053.869385 144.0
1054.031494 196.0
1054.221558 132.0
1054.505859 140.0
1054.596313 228.0
1054.706299 160.0
1054.790283 192.0
1055.326904 172.0
1056.368164 120.0
1056.500244 148.0
1056.594482 92.0
1056.976318 180.0
1057.707642 136.0
1058.335571 100.0
1058.490967 188.0
1059.274658 180.0
1059.579102 52.0
1059.974365 124.0
1060.726196 88.0
1061.144897 124.0
1061.692261 52.0
1061.783081 148.0
1061.932251 136.0
1062.606812 36.0
1062.801514 124.0
1063.074097 232.0
1063.203857 116.0
1063.529907 132.0
1063.55603 176.0
1064.58667 152.0
1064.774902 60.0
1065.366089 120.0
1065.483032 84.0
1065.755859 80.0
1065.913086 156.0
1066.38623 216.0
1066.626709 160.0
1066.971313 120.0
1067.237793 136.0
1067.413452 148.0
1067.647461 232.0
1067.979248 116.0
1068.03125 148.0
1068.102783 132.0
1068.505005 136.0
1068.707764 192.0
1068.929077 148.0
1069.436646 148.0
1070.471802 128.0
1070.615112 88.0
1070.895142 56.0
1071.351074 164.0
1071.474854 120.0
1071.540039 100.0
1071.807251 156.0
1071.911499 164.0
1072.106934 140.0
1072.243774 144.0
1072.474854 152.0
1073.058594 112.0
1073.78894 112.0
1073.880249 136.0
1074.102051 188.0
1074.584839 160.0
1074.682739 92.0
1075.09375 196.0
1075.178589 36.0
1075.289551 184.0
1075.593872 268.0
1075.837891 288.0
1075.972412 180.0
1076.174683 344.0
1076.588745 80.0
1077.202759 168.0
1077.509766 104.0
1077.951538 164.0
1078.065186 32.0
1078.189331 132.0
1078.241577 132.0
1078.901855 200.0
1079.215576 188.0
1079.647217 88.0
1079.987305 244.0
1080.222778 180.0
1080.857422 136.0
1081.217285 156.0
1081.610107 160.0
1081.950439 88.0
1083.463257 132.0
1083.915405 212.0
1085.18042 136.0
1085.282104 188.0
1086.426514 120.0
1086.675781 144.0
1086.82019 136.0
1087.528931 208.0
1087.653687 216.0
1087.903076 124.0
1087.962158 104.0
1088.447998 176.0
1089.019409 200.0
1089.393799 96.0
1090.274292 96.0
1090.441528 88.0
1090.58313 152.0
1090.685913 228.0
1090.754028 96.0
1090.859253 132.0
1090.911865 192.0
1091.464111 152.0
1091.62854 168.0
1091.773193 156.0
1091.878418 116.0
1092.424316 72.0
1092.628296 164.0
1092.694092 168.0
1092.832275 140.0
1092.996704 180.0
1093.18103 120.0
1093.246826 108.0
1093.858887 88.0
1094.280273 128.0
1094.484375 84.0
1094.866333 124.0
1095.380005 116.0
1095.630371 124.0
1095.841187 244.0
1095.973022 132.0
1096.091553 168.0
1096.434204 156.0
1096.842896 80.0
1096.925049 164.0
1097.159302 76.0
1097.396729 120.0
1098.695923 140.0
1098.797119 188.0
1098.946655 48.0
1099.5802 32.0
1099.725342 144.0
1099.811157 40.0
1100.141235 68.0
1100.227051 112.0
1100.365723 168.0
1100.874146 180.0
1101.257202 136.0
1101.329834 112.0
1101.514771 156.0
1102.076294 184.0
1102.175415 168.0
1102.783447 176.0
1103.008179 156.0
1103.556885 100.0
1103.847778 96.0
1104.013184 100.0
1104.19165 144.0
1104.390137 164.0
1104.687744 152.0
1104.813477 72.0
1105.528076 44.0
1105.786133 128.0
1106.031128 224.0
1106.315674 76.0
1106.461426 172.0
1106.706299 192.0
1106.79248 148.0
1106.944702 172.0
1107.090454 140.0
1107.282471 160.0
1107.408325 132.0
1107.45813 164.0
1108.481567 64.0
1109.0979 156.0
1109.323242 168.0
1109.489014 164.0
1109.634888 160.0
1109.77417 132.0
1109.876099 204.0
1110.244873 64.0
1110.337769 124.0
1110.723145 148.0
1110.987793 168.0
1111.200073 148.0
1111.253174 228.0
1111.518555 180.0
1111.870361 156.0
1112.368164 160.0
1112.925781 40.0
1113.403931 144.0
1113.457031 60.0
1113.559692 128.0
1113.639893 144.0
1113.975098 200.0
1114.115112 188.0
1114.240845 164.0
1114.779053 164.0
1115.43042 204.0
1115.975586 120.0
1116.075317 140.0
1116.168457 232.0
1116.3479 88.0
1116.560791 148.0
1116.676147 204.0
1116.860107 176.0
1117.764893 84.0
1117.864624 144.0
1117.977783 136.0
1118.164185 36.0
1118.277344 168.0
1118.457031 212.0
1118.650024 248.0
1118.716553 168.0
1118.849731 176.0
1119.102783 220.0
1119.16272 112.0
1119.262573 152.0
1119.315796 172.0
1119.682129 204.0
1119.981812 116.0
1120.128296 132.0
1120.261597 168.0
1120.328247 124.0
1120.548096 124.0
1121.207764 144.0
1122.067627 188.0
1123.034546 172.0
1123.461426 164.0
1123.674927 204.0
1124.001953 28.0
1124.199341 148.0
1124.816162 236.0
1125.210205 164.0
1125.270142 116.0
1125.391235 80.0
1125.744141 196.0
1126.131592 160.0
1126.295532 216.0
1126.807251 124.0
1127.006714 380.0
1127.213867 148.0
1127.374146 152.0
1127.481079 136.0
1127.822021 132.0
1128.122803 200.0
1129.279541 176.0
1129.366577 156.0
1129.440063 180.0
1129.500366 176.0
1129.76123 220.0
1129.995361 132.0
1130.269653 128.0
1130.396851 136.0
1130.791626 176.0
1131.280273 176.0
1131.842773 116.0
1131.963257 168.0
1132.301636 160.0
1132.559326 152.0
1132.921021 168.0
1133.363281 120.0
1133.443604 160.0
1133.497192 204.0
1134.837769 144.0
1135.421265 144.0
1135.996582 228.0
1136.23291 156.0
1136.53479 132.0
1136.789795 200.0
1137.145508 132.0
1137.606323 172.0
1137.629028 112.0
1137.651367 176.0
1137.749634 160.0
1137.877197 36.0
1138.045044 172.0
1138.12561 76.0
1138.172607 60.0
1139.052368 44.0
1139.39502 248.0
1139.912354 188.0
1139.9729 204.0
1140.120728 164.0
1140.741089 144.0
1140.826416 184.0
1140.940674 168.0
1141.014648 136.0
1141.56604 140.0
1141.646729 108.0
1142.097412 192.0
1142.178101 112.0
1142.302612 240.0
1142.487549 192.0
1142.559448 116.0
1142.702759 140.0
1143.046021 152.0
1143.483398 128.0
1143.577637 136.0
1143.638184 176.0
1143.907471 204.0
1144.385498 264.0
1144.809692 124.0
1145.287842 80.0
1145.671875 108.0
1145.907593 68.0
1146.055786 156.0
1146.318604 176.0
1146.419678 108.0
1146.574707 92.0
1146.716309 156.0
1147.565674 180.0
1147.990479 120.0
1148.23999 168.0
1148.577271 128.0
1148.941528 88.0
1149.022461 160.0
1149.157349 100.0
1149.771484 168.0
1150.365479 172.0
1150.838013 280.0
1151.243164 164.0
1151.351196 128.0
1151.486328 224.0
1151.549683 184.0
1151.75647 172.0
1152.276611 192.0
1152.37793 164.0
1153.155151 36.0
1153.35791 168.0
1153.62146 112.0
1154.148926 76.0
1154.287231 180.0
1154.953613 148.0
1155.03064 196.0
1155.366333 136.0
1156.212158 160.0
1156.340698 136.0
1156.895752 108.0
1157.362915 160.0
1157.769165 140.0
1158.026611 156.0
1158.590332 176.0
1158.758179 196.0
1158.829224 168.0
1158.986816 128.0
1160.228882 160.0
1160.478271 184.0
1160.988281 112.0
1161.049316 104.0
1161.300293 140.0
1162.066772 100.0
1162.243286 92.0
1163.030518 196.0
1163.159058 136.0
1163.899414 208.0
1164.531006 152.0
1164.690918 252.0
1164.999756 136.0
1165.067627 148.0
1165.522827 92.0
1165.880615 124.0
1166.164429 116.0
1166.392822 84.0
1166.52832 136.0
1166.678345 116.0
1166.72583 120.0
1166.943481 184.0
1167.011475 176.0
1167.091675 204.0
1167.60791 200.0
1167.854736 116.0
1168.439697 68.0
1168.487305 164.0
1168.616577 132.0
1168.786743 200.0
1169.460449 72.0
1169.5625 108.0
1169.633911 156.0
1169.961304 208.0
1170.059448 36.0
1170.168457 180.0
1170.297729 240.0
1170.461182 128.0
1170.597412 248.0
1170.808472 104.0
1170.876587 132.0
1170.978271 108.0
1171.326172 44.0
1171.830322 108.0
1171.905273 52.0
1172.095947 104.0
1172.266357 136.0
1172.35498 208.0
1172.620728 164.0
1173.254639 152.0
1173.595581 188.0
1174.441162 180.0
1174.795898 56.0
1175.150635 108.0
1175.205322 172.0
1175.280273 244.0
1175.471436 200.0
1175.696533 172.0
1176.144043 188.0
1176.340942 184.0
1176.522461 148.0
1176.597534 80.0
1177.041382 236.0
1177.171143 192.0
1177.253052 120.0
1177.923096 176.0
1178.024902 128.0
1178.229858 76.0
1178.351196 112.0
1178.687622 112.0
1178.947266 100.0
1179.118164 92.0
1179.189697 104.0
1179.897461 136.0
1180.063477 180.0
1180.319458 160.0
1180.820557 76.0
1180.929932 112.0
1181.039429 304.0
1181.148804 180.0
1181.34729 184.0
1181.55249 180.0
1181.703003 148.0
1181.785034 148.0
1181.915039 60.0
1182.099854 200.0
1182.510498 124.0
1182.969116 204.0
1183.290894 92.0
1183.503052 144.0
1183.735962 164.0
1183.811279 40.0
1184.071533 128.0
1184.140015 208.0
1184.324951 152.0
1184.592041 124.0
1185.194946 136.0
1185.359375 112.0
1185.914551 180.0
1185.962524 124.0
1186.360107 116.0
1186.932983 136.0
1187.004517 160.0
1187.827637 196.0
1188.287231 160.0
1188.527344 192.0
1188.918457 152.0
1189.00769 64.0
1189.694092 256.0
1189.810791 64.0
1190.143799 128.0
1190.394409 200.0
1190.946045 152.0
1191.15686 248.0
1191.864502 156.0
1191.90918 140.0
1192.159912 196.0
1192.208008 188.0
1192.297363 140.0
1192.376953 344.0
1192.469238 76.0
1193.047852 160.0
1193.307861 92.0
1193.438477 72.0
1193.672241 120.0
1193.741089 176.0
1194.023071 176.0
1194.305054 128.0
1194.456299 164.0
1194.607666 112.0
1195.061768 200.0
1195.228149 188.0
1195.495239 36.0
1195.924561 148.0
1196.043213 196.0
1196.121582 128.0
1196.173584 156.0
1196.582764 148.0
1196.989014 136.0
1197.326538 180.0
1197.471191 144.0
1197.836182 28.0
1198.215088 132.0
1198.290894 180.0
1198.574585 212.0
1198.71814 120.0
1198.966187 124.0
1199.035034 136.0
1199.183594 196.0
1199.476196 44.0
1199.524414 200.0
1199.710571 196.0
1199.834717 164.0
1200.282837 160.0
1200.57251 176.0
1200.834595 64.0
1201.09668 112.0
1201.379517 36.0
1201.441528 132.0
1201.772705 208.0
1202.014282 60.0
1202.414551 156.0
1202.787231 148.0
1202.870117 84.0
1203.298096 140.0
1203.4198 148.0
1203.624268 168.0
1203.878052 140.0
1204.748413 184.0
1204.893433 148.0
1205.415649 212.0
1205.653564 120.0
1205.999146 164.0
1206.109741 144.0
1206.427734 176.0
1207.236694 132.0
1207.291992 56.0
1207.477783 152.0
1208.338135 184.0
1208.502563 40.0
1208.602539 156.0
1208.924683 176.0
1209.679077 176.0
1209.79187 224.0
1210.080566 120.0
1210.2052 176.0
1210.274414 84.0
1210.412964 204.0
1210.606812 88.0
1210.946167 164.0
1211.458496 176.0
1212.137817 100.0
1212.539673 112.0
1212.927856 128.0
1213.11499 164.0
1213.411255 116.0
1213.579468 164.0
1213.829102 160.0
1213.898438 112.0
1213.953979 100.0
1214.175903 224.0
1214.446411 188.0
1214.598999 136.0
1214.800171 152.0
1215.056885 116.0
1215.379639 156.0
1215.66748 152.0
1215.903442 176.0
1216.263062 172.0
1216.680786 176.0
1216.880737 160.0
1216.944702 128.0
1217.04187 160.0
1217.47937 168.0
1217.611328 156.0
1217.805786 144.0
1218.042969 76.0
1218.451782 148.0
1218.785278 168.0
1218.889526 52.0
1219.139648 132.0
1219.410767 176.0
1219.973755 140.0
1220.474365 216.0
1220.69397 136.0
1220.759399 172.0
1220.828979 180.0
1221.246338 120.0
1221.386719 196.0
1222.115845 200.0
1222.846558 140.0
1223.125 44.0
1223.312988 64.0
1223.403442 180.0
1223.577515 88.0
1224.28772 116.0
1224.392212 112.0
1224.566284 132.0
1224.942383 172.0
1224.991211 144.0
1225.130493 184.0
1225.234985 100.0
1225.353394 60.0
1225.736694 136.0
1225.987549 168.0
1226.126953 184.0
1226.437256 264.0
1227.291138 160.0
1227.339844 132.0
1227.826782 152.0
1227.904785 216.0
1228.079102 132.0
1228.602295 224.0
1228.699951 80.0
1228.762695 32.0
1228.867432 152.0
1229.111572 152.0
1229.341919 60.0
1229.523315 156.0
1229.614136 100.0
1230.116577 180.0
1230.234131 148.0
1230.40979 132.0
1230.540527 184.0
1230.835693 204.0
1231.07312 120.0
1231.153809 212.0
1231.436279 160.0
1231.610962 164.0
1231.722656 160.0
1231.959717 168.0
1232.281616 152.0
1232.700806 88.0
1232.903442 248.0
1233.344116 176.0
1233.665405 168.0
1234.070923 180.0
1234.126831 160.0
1234.259644 156.0
1234.371582 132.0
1234.469482 184.0
1235.252808 88.0
1235.658569 188.0
1235.847412 108.0
1236.09668 148.0
1236.33728 108.0
1236.582275 36.0
1236.66626 112.0
1236.813232 200.0
1237.141357 176.0
1237.178589 196.0
1237.324219 188.0
1237.716309 104.0
1237.982422 128.0
1238.178467 124.0
1238.231323 216.0
1238.360596 156.0
1238.45166 156.0
1238.542725 120.0
1238.612793 132.0
1238.724854 136.0
1238.991089 72.0
1239.432495 164.0
1239.495483 176.0
1239.569458 116.0
1239.776855 140.0
1239.852905 124.0
1239.908936 188.0
1240.137207 120.0
1240.231445 136.0
1240.315552 92.0
1240.634521 248.0
1240.772095 172.0
1240.862305 136.0
1240.988525 148.0
1241.332153 156.0
1241.661743 196.0
1241.717773 152.0
1241.822998 152.0
1241.944702 188.0
1242.040405 116.0
1242.208862 188.0
1242.49646 164.0
1242.843628 188.0
1243.057739 112.0
1243.12793 184.0
1243.625366 128.0
1243.696411 132.0
1243.752563 120.0
1244.026367 144.0
1244.981201 136.0
1245.100586 180.0
1245.14978 104.0
1245.655518 132.0
1245.824097 148.0
1245.880371 184.0
1245.950562 152.0
1246.37207 240.0
1246.424438 152.0
1246.758667 84.0
1246.885254 168.0
1247.078247 144.0
1247.187378 144.0
1247.236572 164.0
1247.405273 176.0
1247.79895 156.0
1248.037964 184.0
1248.227905 144.0
1249.231201 208.0
1249.317993 172.0
1249.416504 172.0
1249.486816 168.0
1249.901978 148.0
1249.98645 188.0
1250.289062 64.0
1250.595947 144.0
1250.655029 116.0
1250.714233 244.0
1250.943604 96.0
1251.056274 124.0
1251.520996 176.0
1251.922363 136.0
1252.415283 168.0
1252.605469 116.0
1252.823853 312.0
1253.28186 176.0
1253.366455 104.0
1253.42981 144.0
1253.782227 228.0
1253.838501 184.0
1254.395386 108.0
1254.458862 196.0
1254.529297 188.0
1254.578613 132.0
1254.797241 224.0
1255.072144 188.0
1255.1427 112.0
1255.453003 168.0
1256.179443 100.0
1256.348755 184.0
1256.44043 176.0
1256.66626 152.0
1256.934326 172.0
1257.005005 180.0
1257.144775 260.0
1257.5625 88.0
1258.254272 136.0
1258.734375 164.0
1258.960327 148.0
1259.22876 216.0
1259.299316 172.0
1259.423706 148.0
1259.588989 140.0
1259.652588 168.0
1260.104736 260.0
1260.224854 184.0
1260.32373 96.0
1260.494385 116.0
1260.698242 168.0
1260.980957 28.0
1261.129395 156.0
1261.242432 116.0
1261.334351 188.0
1261.730225 144.0
1261.779663 152.0
1262.09082 180.0
1262.196899 48.0
1262.67627 156.0
1262.812134 268.0
1262.993164 196.0
1263.505371 116.0
1263.562012 156.0
1263.740356 204.0
1263.80957 128.0
1263.866211 100.0
1264.425293 212.0
1264.644653 156.0
1264.956055 64.0
1265.012695 196.0
1265.302979 240.0
1265.699463 216.0
1265.802246 128.0
1266.067749 164.0
1266.230591 144.0
1266.34021 200.0
1266.457275 144.0
1266.535156 136.0
1266.620117 64.0
1266.717896 176.0
1266.908569 168.0
1267.307373 156.0
1267.56958 132.0
1267.93811 184.0
1268.130005 204.0
1268.504272 172.0
1268.668091 220.0
1268.774414 36.0
1269.159668 232.0
1269.781372 176.0
1270.065063 224.0
1270.306274 136.0
1270.490723 132.0
1270.774536 40.0
1270.966064 88.0
1271.257935 132.0
1271.342163 208.0
1271.569336 128.0
1271.682861 184.0
1271.966797 148.0
1272.151367 120.0
1272.293335 44.0
1272.619873 156.0
1272.882568 196.0
1272.998779 168.0
1273.393921 152.0
1273.869873 156.0
1273.983521 132.0
1274.083008 224.0
1274.182495 168.0
1274.513916 260.0
1274.653687 136.0
1274.706543 188.0
1275.282837 156.0
1275.340698 64.0
1275.408325 148.0
1275.639282 164.0
1275.760132 124.0
1275.880981 156.0
1276.016113 136.0
1276.065796 172.0
1276.245361 192.0
1276.69165 120.0
1276.947632 168.0
1277.289062 68.0
1277.410889 160.0
1277.516724 180.0
1277.693481 160.0
1277.898926 144.0
1277.993408 124.0
1278.050293 180.0
1278.149902 104.0
1278.281982 172.0
1278.398926 116.0
1278.519897 172.0
1278.982544 116.0
1279.43811 172.0
1279.817383 136.0
1280.192871 312.0
1280.26416 136.0
1280.584595 124.0
1280.848145 140.0
1281.197266 120.0
1281.375366 144.0
1281.532104 164.0
1281.688843 128.0
1281.802856 144.0
1282.344482 164.0
1282.451416 200.0
1282.722168 84.0
1283.149902 144.0
1283.249756 140.0
1283.359863 156.0
1283.463623 180.0
1283.770264 192.0
1283.984253 144.0
1284.105469 192.0
1284.33374 164.0
1284.562012 60.0
1284.968628 128.0
1285.296875 96.0
1285.403931 196.0
1285.482422 132.0
1285.561768 204.0
1285.739258 40.0
1285.846313 168.0
1285.974854 160.0
1286.081909 180.0
1286.167969 128.0
1286.367432 152.0
1286.467407 160.0
1286.517334 124.0
1286.674438 200.0
1286.974243 132.0
1287.538452 120.0
1287.638428 144.0
1287.731201 176.0
1287.888306 160.0
1287.938354 112.0
1287.988403 192.0
1288.074097 172.0
1288.595581 192.0
1288.731323 176.0
1288.817139 204.0
1288.947632 164.0
1289.25293 240.0
1289.453125 120.0
1289.560303 92.0
1289.617432 136.0
1289.756714 168.0
1290.46106 188.0
1290.525391 108.0
1290.779053 156.0
1291.040283 184.0
1291.254761 136.0
1291.347778 88.0
1291.741211 52.0
1292.094849 180.0
1292.191895 220.0
1292.37793 132.0
1292.563965 188.0
1292.728516 232.0
1292.778564 112.0
1293.036255 132.0
1293.286743 156.0
1293.343994 132.0
1293.608887 56.0
1293.766357 144.0
1293.845093 172.0
1293.895264 176.0
1293.973999 176.0
1294.074219 204.0
1294.274658 80.0
1294.401489 224.0
1294.553955 204.0
1294.833252 176.0
1295.370483 204.0
1295.506592 184.0
1295.664185 132.0
1295.979492 128.0
1296.029541 72.0
1296.090576 228.0
1296.306519 112.0
1296.581421 124.0
1297.291016 180.0
1297.355469 160.0
1297.441528 132.0
1297.936279 216.0
1298.058105 188.0
1298.108398 160.0
1298.344971 172.0
1298.832764 188.0
1298.997681 112.0
1299.678833 144.0
1299.705811 136.0
1299.718262 240.0
1299.822754 156.0
1299.959106 72.0
1300.109497 180.0
1300.274902 148.0
1300.574585 168.0
1300.992676 160.0
1301.064453 172.0
1301.271851 140.0
1301.322998 184.0
1301.437866 164.0
1301.969238 164.0
1302.535522 136.0
1302.716187 156.0
1302.946167 192.0
1303.470581 92.0
1303.628662 280.0
1303.704834 160.0
1303.779663 60.0
1303.894653 148.0
1304.304321 140.0
1304.498413 160.0
1304.678101 104.0
1304.829102 128.0
1304.9729 144.0
1305.282104 140.0
1305.540894 68.0
1305.835815 124.0
1306.044434 176.0
1306.421997 336.0
1306.691895 80.0
1306.74939 164.0
1306.803589 264.0
1306.922119 164.0
1307.001221 44.0
1307.209961 128.0
1307.303467 136.0
1307.432983 184.0
1307.519409 32.0
1307.538574 204.0
1307.792847 168.0
1307.886475 104.0
1307.936768 184.0
1308.5271 168.0
1309.54248 160.0
1309.600098 168.0
1309.765747 44.0
1309.816162 180.0
1309.974731 348.0
1310.176392 92.0
1310.241211 116.0
1310.313232 76.0
1310.39978 136.0
1310.738403 172.0
1311.221191 148.0
1311.34375 172.0
1311.503174 156.0
1311.720825 224.0
1311.869873 152.0
1311.942017 176.0
1312.158325 116.0
1312.20874 188.0
1312.461182 140.0
1312.599976 216.0
1312.944336 96.0
1313.542969 112.0
1313.600586 112.0
1313.70166 136.0
1313.860352 220.0
1314.134521 324.0
1314.201416 128.0
1314.368652 192.0
1314.580322 164.0
1314.697388 132.0
1314.747925 184.0
1314.79834 180.0
1314.977295 132.0
1315.051025 112.0
1315.108765 176.0
1315.361328 156.0
1315.445068 120.0
1315.592407 160.0
1315.873901 84.0
1316.112183 172.0
1316.315796 176.0
1316.416016 176.0
1317.155029 212.0
1317.359375 276.0
1317.491699 188.0
1317.557495 116.0
1318.163574 196.0
1318.587769 196.0
1319.197144 188.0
1319.262207 156.0
1319.429565 132.0
1319.8479 168.0
1319.920166 120.0
1319.992432 56.0
1320.411987 172.0
1320.491455 192.0
1320.766357 180.0
1320.903809 156.0
1321.033936 120.0
1321.160645 112.0
1321.323364 212.0
1321.612793 208.0
1321.931152 104.0
1322.004761 144.0
1322.097656 188.0
1322.171509 224.0
1322.249634 188.0
1322.515869 152.0
1322.662109 88.0
1322.937256 136.0
1323.222412 132.0
1323.762573 148.0
1324.110229 168.0
1324.176514 136.0
1324.232666 200.0
1324.427734 156.0
1324.559326 160.0
1325.080933 72.0
1325.207275 192.0
1325.334473 156.0
1325.414185 168.0
1325.486694 176.0
1325.668335 244.0
1325.880981 208.0
1326.37085 56.0
1326.436157 40.0
1326.508545 196.0
1326.682617 196.0
1326.762329 136.0
1326.820312 36.0
1326.943604 120.0
1327.001587 124.0
1327.137207 152.0
1327.20459 172.0
1327.697754 164.0
1327.823242 128.0
1327.907959 152.0
1328.074829 140.0
1328.139648 172.0
1328.256226 136.0
1328.422974 180.0
1328.67688 88.0
1328.93811 136.0
1329.017944 112.0
1329.250122 192.0
1329.416016 208.0
1329.960083 176.0
1330.106567 216.0
1330.222656 96.0
1330.542114 196.0
1330.621948 112.0
1330.882812 164.0
1331.028564 184.0
1331.311768 160.0
1331.542969 160.0
1331.747559 120.0
1332.481201 80.0
1332.604736 172.0
1332.786377 192.0
1332.851807 204.0
1333.064087 316.0
1333.163818 208.0
1333.745728 92.0
1334.349121 28.0
1334.618042 164.0
1334.683594 140.0
1334.795654 148.0
1334.879883 156.0
1335.330811 364.0
1335.403442 180.0
1336.079956 124.0
1336.396851 152.0
1337.018677 160.0
1337.287964 156.0
1337.65918 108.0
1337.800293 156.0
1337.979492 244.0
1338.095947 148.0
1338.212524 200.0
1338.467285 156.0
1338.838745 144.0
1338.918823 160.0
1338.991699 136.0
1339.078979 124.0
1339.516113 192.0
1339.705444 124.0
1340.011475 100.0
1340.509033 184.0
1340.689087 84.0
1340.842163 128.0
1341.104614 92.0
1341.585693 200.0
1341.869995 88.0
1341.95752 212.0
1342.103271 176.0
1342.168945 140.0
1342.219971 136.0
1342.591919 140.0
1342.650269 156.0
1342.890869 132.0
1343.051392 148.0
1343.525513 36.0
1343.576538 164.0
1343.737061 160.0
1344.294556 260.0
1344.379272 184.0
1344.51062 212.0
1344.671143 156.0
1344.765381 144.0
1344.791504 132.0
1344.943726 140.0
1345.036133 160.0
1345.202026 76.0
1345.364624 172.0
1345.649292 132.0
1345.732666 196.0
1345.897583 228.0
1345.955933 156.0
1346.046143 240.0
1346.145874 136.0
1346.722778 84.0
1346.773926 140.0
1346.832397 116.0
1346.927368 184.0
1346.985718 104.0
1347.058838 164.0
1347.628662 148.0
1347.687134 148.0
1347.877075 220.0
1347.942871 108.0
1348.125488 116.0
1348.182739 168.0
1348.378296 160.0
1348.564087 156.0
1348.659058 272.0
1348.75415 204.0
1348.878296 184.0
1348.995361 148.0
1349.265747 304.0
1349.660645 96.0
1349.762939 240.0
1350.048218 204.0
1350.245605 116.0
1350.501587 176.0
1350.589355 40.0
1350.640625 120.0
1350.772339 252.0
1351.343628 204.0
1351.469727 160.0
1351.525879 176.0
1351.935669 168.0
1352.016113 168.0
1352.367432 120.0
1352.550415 184.0
1352.696777 148.0
1352.791016 152.0
1353.047729 316.0
1353.165405 136.0
1353.223389 152.0
1353.553467 180.0
1353.912231 164.0
1354.359497 200.0
1354.593384 160.0
1354.67395 188.0
1354.783447 148.0
1355.025635 144.0
1355.156128 128.0
1355.967407 168.0
1356.073486 116.0
1356.139526 140.0
1356.249512 128.0
1356.308105 100.0
1356.454712 176.0
1356.667236 120.0
1356.760498 128.0
1356.953247 120.0
1357.085205 92.0
1357.151123 80.0
1357.221191 160.0
1357.547119 156.0
1357.605835 144.0
1357.701172 68.0
1357.78186 224.0
1357.994507 120.0
1358.163208 196.0
1358.2146 96.0
1358.295288 156.0
1358.350464 124.0
1358.478638 116.0
1358.547119 192.0
1358.661987 148.0
1358.889526 80.0
1359.021606 168.0
1359.190308 180.0
1359.365234 144.0
1359.642212 240.0
1359.940063 128.0
1360.335205 176.0
1360.452759 160.0
1360.761108 120.0
1361.399902 56.0
1361.465942 220.0
1361.693604 336.0
1361.811157 152.0
1362.068237 112.0
1362.141724 112.0
1362.251831 160.0
1362.310669 88.0
1362.869019 36.0
1362.979248 204.0
1363.280518 144.0
1363.625977 168.0
1363.699463 128.0
1363.795044 116.0
1363.861084 80.0
1364.05957 136.0
1364.177246 128.0
1364.2948 120.0
1364.599121 188.0
1364.915039 100.0
1365.338989 144.0
1365.714111 112.0
1365.809692 120.0
1365.890625 144.0
1366.028442 172.0
1366.457764 268.0
1366.52063 152.0
1366.7146 168.0
1366.801514 104.0
1367.317993 196.0
1367.376831 84.0
1367.454956 196.0
1367.703735 224.0
1367.8479 120.0
1368.112915 224.0
1368.171875 124.0
1368.289673 128.0
1368.517944 184.0
1368.569458 116.0
1368.643066 56.0
1368.709351 172.0
1368.849243 120.0
1369.113892 180.0
1369.134155 168.0
1369.305786 140.0
1369.453125 160.0
1369.556396 180.0
1370.071899 212.0
1370.165894 212.0
1370.292969 124.0
1370.359253 196.0
1370.447632 140.0
1370.717285 148.0
1371.211548 244.0
1371.332031 176.0
1371.545776 148.0
1372.194458 76.0
1372.408325 84.0
1372.496704 136.0
1372.732788 252.0
1372.865479 132.0
1373.049805 132.0
1373.241577 68.0
1373.479126 156.0
1373.602173 144.0
1373.712036 152.0
1374.0354 344.0
1374.178467 240.0
1374.429321 188.0
1374.598999 100.0
1374.72937 188.0
1374.908936 140.0
1375.617554 268.0
1375.676636 48.0
1375.772583 208.0
1375.986694 160.0
1376.14917 204.0
1376.473999 112.0
1376.639404 180.0
1376.699951 216.0
1377.109131 92.0
1377.232788 260.0
1377.537598 144.0
1377.781372 176.0
1377.925415 112.0
1378.05127 240.0
1378.232056 196.0
1378.283813 84.0
1378.379761 104.0
1378.47583 88.0
1378.581543 164.0
1378.682861 160.0
1378.98584 144.0
1379.444092 160.0
1379.606689 120.0
1379.769409 120.0
1379.917236 204.0
1380.338745 284.0
1380.420044 136.0
1380.671509 44.0
1381.174438 112.0
1381.374146 140.0
1381.455566 176.0
1381.507324 144.0
1381.707031 184.0
1381.773682 220.0
1381.990967 168.0
1382.173218 180.0
1382.29895 144.0
1382.631958 168.0
1382.683838 88.0
1382.868774 152.0
1382.972412 140.0
1383.046509 104.0
1383.135254 64.0
1383.705322 180.0
1383.758423 120.0
1383.822266 100.0
1383.878906 228.0
1384.031128 224.0
1384.127319 52.0
1384.682739 140.0
1384.742065 100.0
1384.81604 196.0
1384.88269 140.0
1385.008667 104.0
1385.149414 176.0
1385.290161 108.0
1386.082886 264.0
1386.179199 148.0
1386.260742 64.0
1386.572021 96.0
1386.861084 224.0
1387.009277 172.0
1387.246582 200.0
1387.335449 124.0
1387.387329 136.0
1387.565308 172.0
1387.716919 144.0
1387.813965 164.0
1388.151123 84.0
1388.262329 72.0
1388.441772 180.0
1388.655396 144.0
1388.922363 164.0
1389.078125 124.0
1389.192993 236.0
1389.256226 140.0
1389.322998 344.0
1389.42688 32.0
1389.686523 124.0
1389.738403 216.0
1390.094604 180.0
1390.154053 180.0
1390.228149 108.0
1390.606689 156.0
1391.096558 108.0
1391.200562 164.0
1391.319336 112.0
1391.393555 156.0
1391.876221 144.0
1392.002441 92.0
1392.343994 152.0
1392.395996 148.0
1392.849121 188.0
1393.035767 200.0
1393.227905 68.0
1393.2948 40.0
1393.376465 196.0
1393.487915 184.0
1393.644043 160.0
1393.703491 224.0
1393.755493 176.0
1393.97644 120.0
1394.179077 184.0
1394.290161 156.0
1394.357422 120.0
1394.892578 248.0
1395.070923 180.0
1395.424438 164.0
1395.619263 176.0
1395.74646 136.0
1395.851685 44.0
1395.948364 152.0
1396.41687 64.0
1396.66272 184.0
1397.088013 204.0
1397.147949 152.0
1397.247559 172.0
1397.532715 164.0
1397.584839 204.0
1397.833984 184.0
1398.072632 156.0
1398.090454 88.0
1398.121704 152.0
1398.334229 152.0
1398.567139 204.0
1398.9021 100.0
1399.013794 176.0
1399.430664 180.0
1399.539551 96.0
1399.624268 140.0
1399.765747 128.0
1399.827637 164.0
1400.138062 156.0
1400.265381 188.0
1400.80481 140.0
1400.871826 172.0
1401.084106 36.0
1401.359741 172.0
1401.411865 44.0
1401.605591 128.0
1401.784546 108.0
1401.911133 76.0
1402.037842 376.0
1402.149658 100.0
1402.328491 60.0
1402.432861 136.0
1402.626709 196.0
1402.686279 156.0
1402.924805 136.0
1403.096313 200.0
1403.223022 176.0
1403.3573 148.0
1403.506348 156.0
1403.636841 180.0
1403.834473 48.0
1403.92395 148.0
1404.005981 80.0
1404.065674 184.0
1404.214844 188.0
1404.284058 156.0
1404.436279 128.0
1404.537476 112.0
1404.632812 140.0
1404.707153 152.0
1404.893677 104.0
1404.975098 144.0
1405.124878 28.0
1405.226929 228.0
1405.497925 48.0
1405.550171 60.0
1405.662109 124.0
1405.915894 76.0
1406.020386 176.0
1406.154663 156.0
1406.236816 204.0
1406.384033 240.0
1406.462524 220.0
1406.826538 168.0
1406.990723 220.0
1407.311768 164.0
1407.364014 124.0
1407.615234 176.0
1407.841064 168.0
1408.103271 68.0
1408.252686 96.0
1408.454346 60.0
1408.566406 120.0
1408.803589 144.0
1408.91748 124.0
1409.253784 164.0
1409.30603 132.0
1409.388184 88.0
1409.515259 104.0
1409.567505 104.0
1409.754395 164.0
1409.836548 168.0
1409.896362 104.0
1409.961304 164.0
1410.277588 108.0
1410.494263 168.0
1410.618042 168.0
1410.845703 120.0
1411.002686 92.0
1411.175293 176.0
1411.279297 160.0
1411.331665 120.0
1411.408936 232.0
1411.747925 132.0
1411.810181 144.0
1412.244019 184.0
1412.33374 184.0
1412.640381 152.0
1412.857422 116.0
1413.313721 164.0
1413.37146 296.0
1413.470947 40.0
1413.530762 120.0
1414.002197 136.0
1414.401978 140.0
1414.561523 156.0
1414.713379 208.0
1414.83313 168.0
1414.967896 108.0
1415.140137 132.0
1415.20752 132.0
1415.364746 172.0
1415.70166 156.0
1416.079224 108.0
1416.270874 160.0
1416.323364 108.0
1416.488159 144.0
1416.548096 140.0
1417.108032 96.0
1417.207275 132.0
1417.289795 200.0
1417.915527 200.0
1418.031616 68.0
1418.331421 184.0
1418.473877 144.0
1418.661255 144.0
1418.86084 172.0
1419.141113 160.0
1419.403564 144.0
1419.478516 180.0
1419.778564 164.0
1419.97937 164.0
1420.528564 124.0
1420.641113 132.0
1420.745972 188.0
1420.851196 148.0
1421.001221 100.0
1421.173828 124.0
1421.406372 152.0
1421.60144 56.0
1422.089355 160.0
1422.179321 196.0
1422.569702 152.0
1422.744385 192.0
1422.809937 192.0
1423.297974 184.0
1423.63501 164.0
1423.710938 208.0
1423.838623 100.0
1423.90625 184.0
1424.033936 268.0
1424.462036 116.0
1424.785156 268.0
1424.89209 232.0
1425.18335 168.0
1425.296021 160.0
1425.423828 164.0
1426.261353 188.0
1426.543579 92.0
1426.746582 228.0
1426.952271 192.0
1427.152588 420.0
1427.265381 184.0
1427.40686 184.0
1427.490967 168.0
1427.75415 112.0
1427.844482 152.0
1428.091064 132.0
1428.104248 104.0
1428.133667 188.0
1428.476318 288.0
1428.762085 104.0
1429.311401 160.0
1429.431763 128.0
1429.552612 184.0
1429.740356 152.0
1429.815552 148.0
1430.018799 152.0
1430.116577 136.0
1430.200562 184.0
1430.338013 224.0
1430.425293 208.0
1430.568237 92.0
1430.726318 148.0
1430.832642 128.0
1430.907104 172.0
1431.004883 240.0
1431.102783 84.0
1431.220459 184.0
1431.613525 204.0
1431.79541 152.0
1432.029053 132.0
1432.111938 172.0
1432.262573 148.0
1432.322876 176.0
1432.518066 220.0
1432.601562 100.0
1432.690796 124.0
1432.77478 156.0
1433.272095 216.0
1433.535889 136.0
1433.673218 460.0
1433.829712 176.0
1434.040771 136.0
1434.123657 160.0
1434.18396 160.0
1434.437866 236.0
1434.658936 388.0
1434.719238 132.0
1434.928589 176.0
1435.035889 172.0
1435.198364 152.0
1435.322388 136.0
1435.38269 156.0
1435.526001 140.0
1435.782349 116.0
1436.219849 140.0
1436.295288 152.0
1436.581909 172.0
1436.702637 52.0
1436.793091 80.0
1436.883667 128.0
1436.966675 136.0
1437.165771 236.0
1437.744141 148.0
1437.838013 152.0
1438.317505 188.0
1438.468506 196.0
1438.60437 48.0
1438.990356 156.0
1439.219727 136.0
1439.359375 132.0
1439.412231 96.0
1439.619873 188.0
1439.650635 92.0
1439.664307 148.0
1439.759644 168.0
1439.827637 152.0
1439.887939 172.0
1440.023926 188.0
1440.490479 156.0
1440.575317 184.0
1440.793213 180.0
1440.8927 208.0
1441.01355 152.0
1441.17981 144.0
1441.451782 160.0
1442.108887 72.0
1442.305786 152.0
1442.404053 164.0
1442.807007 192.0
1442.918091 176.0
1443.011108 136.0
1443.10144 212.0
1443.250854 60.0
1443.371826 128.0
1443.560791 144.0
1443.689453 180.0
1443.87085 132.0
1444.029785 120.0
1444.415894 164.0
1444.463257 116.0
1444.650024 100.0
1444.786133 184.0
1444.922485 328.0
1445.255249 124.0
1445.361206 236.0
1445.474731 172.0
1445.708862 156.0
1445.789551 288.0
1446.087646 108.0
1446.40564 248.0
1446.755981 168.0
1446.865845 144.0
1447.041504 168.0
1447.367065 148.0
1447.661255 184.0
1447.776001 140.0
1447.828979 132.0
1447.935059 124.0
1448.041016 36.0
1448.179077 164.0
1448.457642 48.0
1448.707642 108.0
1448.76062 68.0
1448.821289 188.0
1448.92688 176.0
1448.953735 176.0
1449.4198 88.0
1449.730469 100.0
1450.026123 172.0
1450.151123 124.0
1450.276245 156.0
1450.374756 212.0
1450.450562 192.0
1450.791626 220.0
1450.896362 128.0
1451.46814 320.0
1451.602905 104.0
1451.713013 176.0
1451.876953 212.0
1451.966919 144.0
1452.126221 220.0
1452.194458 148.0
1452.490356 84.0
1452.57373 196.0
1452.672363 132.0
1453.028931 120.0
1453.135132 116.0
1453.448486 184.0
1453.582764 120.0
1453.734619 48.0
1453.848389 168.0
1453.977417 228.0
1454.174805 92.0
1454.37207 156.0
1454.455566 168.0
1454.539062 36.0
1454.728882 184.0
1454.799805 244.0
1454.880737 200.0
1455.070557 148.0
1455.237549 184.0
1455.488159 76.0
1455.68103 180.0
1455.860229 128.0
1455.91333 96.0
1456.156372 112.0
1456.262695 152.0
1456.380981 228.0
1456.460205 112.0
1456.748901 132.0
1456.824829 152.0
1456.961548 180.0
1457.136353 156.0
1457.602295 232.0
1457.675781 128.0
1457.97876 184.0
1458.253784 156.0
1458.428223 124.0
1458.610596 68.0
1458.9375 164.0
1459.059082 88.0
1459.386108 164.0
1459.50769 120.0
1459.560913 164.0
1459.682617 188.0
1459.758667 120.0
1459.961914 196.0
1460.210449 220.0
1460.312378 168.0
1460.382324 184.0
1460.54126 152.0
1460.717163 164.0
1460.800659 128.0
1460.86145 116.0
1460.998413 216.0
1461.317993 156.0
1461.394043 32.0
1461.804932 128.0
1461.865845 128.0
1461.949585 128.0
1462.207642 136.0
1462.32251 104.0
1462.596436 176.0
1462.710693 248.0
1462.779175 132.0
1463.175049 272.0
1463.255615 156.0
1463.319702 100.0
1463.492065 244.0
1463.958008 232.0
1464.043091 136.0
1464.307251 176.0
1464.477173 144.0
1464.599121 68.0
1464.652344 136.0
1464.795654 188.0
1464.911377 164.0
1465.2229 188.0
1465.338013 96.0
1465.393799 160.0
1465.734253 164.0
1465.848511 156.0
1465.909424 192.0
1466.115234 144.0
1466.397217 156.0
1466.486694 92.0
1466.844116 184.0
1466.927979 180.0
1467.052734 148.0
1467.11377 116.0
1467.61145 144.0
1467.815186 140.0
1467.948486 360.0
1468.059204 172.0
1468.357178 148.0
1468.428223 148.0
1468.516846 36.0
1468.577881 148.0
1468.631226 104.0
1468.699829 88.0
1468.837158 184.0
1469.096558 84.0
1469.439819 188.0
1469.638184 248.0
1469.699219 92.0
1469.786011 188.0
1470.019775 52.0
1470.119019 136.0
1470.210571 180.0
1470.390503 244.0
1470.515869 192.0
1470.64563 168.0
1470.698975 176.0
1470.905151 164.0
1471.111206 156.0
1471.431885 28.0
1471.531128 116.0
1471.592163 40.0
1471.882324 160.0
1471.96167 112.0
1472.121094 316.0
1472.271729 196.0
1472.439819 212.0
1472.705078 192.0
1472.804565 216.0
1472.966797 84.0
1473.066162 156.0
1473.204346 200.0
1473.371704 152.0
1473.532104 184.0
1473.687744 176.0
1473.760742 164.0
1473.889526 160.0
1474.441528 104.0
1474.494995 184.0
1474.59436 172.0
1474.831299 144.0
1474.99939 60.0
1475.167603 100.0
1475.280518 160.0
1475.358765 184.0
1475.580444 172.0
1475.737427 196.0
1475.855713 108.0
1475.932129 64.0
1476.211792 212.0
1476.452148 160.0
1476.516479 196.0
1476.66626 188.0
1476.815063 144.0
1476.901733 204.0
1477.159668 168.0
1477.446533 128.0
1477.56897 188.0
1477.645386 68.0
1477.744873 80.0
1477.943848 120.0
1478.295776 140.0
1478.374878 192.0
1478.441284 68.0
1478.54834 84.0
1478.686157 136.0
1478.831787 140.0
1478.969482 156.0
1479.041992 168.0
1479.191284 144.0
1479.351807 116.0
1479.432373 156.0
1479.520264 220.0
1479.887939 172.0
1480.194214 112.0
1480.425903 144.0
1481.002197 128.0
1481.566772 252.0
1481.696167 148.0
1481.795166 200.0
1481.994263 188.0
1482.055664 168.0
1482.109253 176.0
1482.446411 164.0
1482.7146 120.0
1482.82605 224.0
1483.0802 116.0
1483.28186 196.0
1483.373779 184.0
1483.559082 184.0
1483.68042 208.0
1483.879761 68.0
1484.11499 124.0
1484.362793 140.0
1484.730957 320.0
1484.984009 112.0
1485.106812 220.0
1485.214111 56.0
1485.293945 232.0
1485.551636 172.0
1485.630005 132.0
1485.694702 68.0
1485.996582 108.0
1486.062012 196.0
1486.173096 276.0
1486.242188 324.0
1486.510742 52.0
1486.644287 188.0
1486.786987 80.0
1486.994263 184.0
1487.140015 156.0
1487.216553 152.0
1487.569946 132.0
1487.669678 76.0
1487.800171 176.0
1487.992188 140.0
1488.138062 212.0
1488.291626 212.0
1488.345337 140.0
1488.481079 140.0
1488.644775 180.0
1488.998047 136.0
1489.190063 148.0
1489.397461 164.0
1489.543457 184.0
1489.597168 56.0
1489.793701 180.0
1489.973633 144.0
1490.035034 216.0
1490.111938 236.0
1490.196411 120.0
1490.634399 132.0
1490.849365 152.0
1491.356812 68.0
1491.418335 88.0
1491.572021 192.0
1491.825684 92.0
1491.894897 108.0
1492.525391 152.0
1492.894531 180.0
1492.948364 168.0
1493.285645 200.0
1493.4021 220.0
1493.509766 172.0
1494.209839 144.0
1494.271362 80.0
1494.525269 100.0
1494.579102 220.0
1494.68689 96.0
1495.025391 88.0
1495.154785 180.0
1495.44873 192.0
1495.612427 192.0
1495.741211 216.0
1495.910522 148.0
1496.126099 144.0
1496.187744 120.0
1496.256958 276.0
1496.388184 96.0
1496.557861 152.0
1496.665039 200.0
1496.896118 188.0
1497.104004 132.0
1497.31189 64.0
1497.550659 132.0
1497.67395 168.0
1497.780273 224.0
1497.855225 216.0
1498.059082 160.0
1498.344116 300.0
1498.567505 132.0
1498.626831 196.0
1498.797729 132.0
1499.154419 120.0
1499.246582 132.0
1499.39209 128.0
1499.538574 96.0
1499.846802 92.0
1499.985596 148.0
1500.05249 136.0
1500.108887 180.0
1500.363281 176.0
1500.44812 204.0
1500.66394 124.0
1500.718018 176.0
1500.861694 396.0
1501.018677 132.0
1501.088135 124.0
1501.157471 136.0
1501.273193 76.0
1501.558838 164.0
1501.689575 156.0
1501.766724 180.0
1501.959595 196.0
1502.059814 112.0
1502.121582 132.0
1502.353027 376.0
1502.412231 152.0
1502.646118 160.0
1502.75415 200.0
1502.947144 244.0
1503.085938 144.0
1503.189331 120.0
1503.248047 316.0
1503.362427 184.0
1503.552979 124.0
1503.633179 128.0
1503.726562 156.0
1504.004395 184.0
1504.073975 148.0
1504.181885 140.0
1504.31311 100.0
1504.428955 144.0
1504.560181 224.0
1504.7146 136.0
1505.046631 140.0
1505.193359 232.0
1505.309082 156.0
