>compound 389-08-2
>formula C12H12N2O3 
>ionization [M+H]+
>parentmass 233.093216
#inchi InChI=1S/C12H12N2O3/c1-3-14-6-9(12(16)17)10(15)8-5-4-7(2)13-11(8)14/h4-6H,3H2,1-2H3,(H,16,17)
#inchikey MHWLWQUZZRMNGJ
#Ion_Source LC-ESI
#Instrument qTof
#Compound_Source Commercial
#PI Dorrestein
#Data_Collector Garg_Neha
#Scan -1
#Precursor_MZ 233.093
#ExactMass 232.085
#Charge 1
#CAS_Number N/A
#Pubmed_ID N/A
#Smiles N/A
#INCHI_AUX N/A
#Library_Class 1
#SpectrumID CCMSLIB00000077017
#IonMode Positive
#UpdateWorkflowName UPDATE-SINGLE-ANNOTATED-GOLD
#LibraryQualityString Gold
#TaskID 48f7f52fc6d249b5abbcc6e7b3df5969
##Scan# 1258
#SpectrumFile NCP002928_G2_H11_BA5_01_15699.mzXML
#LibraryName NIH_Clinical_Collection_2.mgf
#MQScore -1
#Organism NIHcollection2_04212014_2_mgf
#TIC_Query 0
#RT_Query -1
#MZErrorPPM -1
#SharedPeaks 0
#MassDiff 0
#LibMZ -1
#SpecMZ 233.093
#SpecCharge 0
#internalFilename spec-00000.mgf

>collision 10
44.962112 208.0
45.023525 188.0
45.047565 140.0
45.472034 168.0
45.682995 168.0
45.942997 168.0
46.172626 160.0
46.538509 188.0
46.664871 168.0
47.240402 164.0
47.404705 188.0
47.510281 188.0
48.426971 140.0
49.141514 144.0
49.163841 140.0
49.541363 240.0
50.072327 216.0
50.324745 152.0
50.603283 180.0
51.043148 176.0
51.263794 156.0
51.617817 152.0
51.720825 152.0
51.841133 156.0
52.332397 212.0
52.524071 184.0
52.586117 148.0
52.742111 160.0
54.213593 192.0
54.225315 168.0
54.629116 148.0
55.803406 176.0
55.842068 208.0
56.559372 152.0
56.961632 140.0
57.239872 144.0
57.984653 148.0
59.03054 156.0
59.292324 288.0
59.976288 196.0
60.199997 140.0
60.527828 148.0
60.856548 232.0
61.627548 216.0
62.211731 148.0
62.838104 164.0
64.0923 156.0
64.48008 184.0
64.617607 184.0
66.683365 212.0
67.681763 144.0
67.712875 168.0
67.742355 160.0
67.963692 176.0
68.103233 184.0
68.824554 180.0
69.572914 200.0
69.908669 160.0
70.120171 160.0
70.39711 160.0
70.746559 144.0
70.820236 172.0
71.13884 180.0
71.485077 216.0
71.919899 216.0
71.941841 200.0
72.43055 172.0
73.491394 220.0
74.001015 124.0
74.828293 140.0
74.864456 224.0
74.91613 156.0
75.105743 148.0
75.361244 156.0
76.657455 148.0
76.86322 168.0
76.915581 172.0
78.173752 148.0
78.579262 160.0
78.761093 168.0
79.373436 152.0
79.483414 184.0
80.071838 184.0
80.40345 144.0
80.70713 188.0
80.98452 192.0
81.33596 188.0
81.718742 144.0
81.756531 212.0
82.172775 160.0
83.039383 124.0
83.28067 176.0
83.63887 160.0
84.341125 172.0
85.106903 160.0
85.645744 148.0
85.673378 224.0
87.192535 212.0
87.276192 204.0
87.460365 228.0
87.765892 144.0
88.208359 140.0
88.50396 208.0
89.012115 156.0
89.044037 176.0
89.211273 172.0
91.076378 148.0
91.247406 168.0
91.334885 188.0
91.700462 176.0
91.854904 156.0
92.734474 140.0
92.968452 232.0
93.083633 164.0
93.110519 148.0
93.17775 168.0
93.435371 144.0
93.512344 164.0
93.570091 148.0
93.928535 156.0
94.053963 168.0
94.206512 164.0
94.635857 148.0
94.674591 160.0
94.963364 160.0
95.338066 156.0
96.019455 216.0
96.03701 140.0
96.204826 144.0
97.146118 228.0
97.244232 168.0
97.434708 152.0
98.102699 188.0
98.787102 236.0
98.864685 96.0
100.443825 152.0
100.931511 124.0
101.083153 180.0
101.229286 224.0
101.390213 228.0
101.957504 180.0
102.041931 152.0
102.062035 176.0
102.206856 168.0
102.317558 180.0
102.492783 220.0
102.571388 140.0
103.391411 168.0
103.812492 164.0
104.049721 1816.0
104.768097 180.0
104.925018 332.0
105.045341 236.0
105.18206 168.0
105.543671 192.0
106.186691 164.0
106.281059 192.0
106.648659 152.0
107.363083 148.0
108.208221 208.0
108.983078 148.0
109.425301 176.0
109.591499 168.0
109.674858 176.0
109.86879 164.0
110.169411 224.0
110.282249 156.0
110.598694 192.0
110.744652 172.0
110.96888 188.0
111.658371 244.0
111.697609 152.0
112.057594 152.0
112.445602 248.0
112.821594 160.0
112.929581 180.0
113.742271 156.0
113.987328 164.0
114.010704 144.0
114.229698 156.0
114.50428 144.0
115.094986 200.0
115.503181 148.0
115.847824 160.0
116.081444 164.0
116.566582 188.0
116.811684 140.0
116.886986 156.0
117.048325 252.0
117.136726 216.0
118.959686 284.0
119.386604 196.0
119.498657 168.0
119.542175 168.0
119.568291 160.0
119.805634 172.0
120.045395 168.0
120.829536 168.0
121.054985 168.0
121.807274 212.0
121.868782 140.0
122.053116 172.0
122.119392 188.0
122.932098 180.0
123.058159 144.0
123.595261 196.0
124.18676 148.0
124.928673 172.0
125.051056 140.0
125.840195 164.0
125.992065 244.0
126.347351 252.0
127.44165 240.0
128.033264 188.0
128.847549 156.0
129.168564 168.0
129.582855 168.0
130.109009 212.0
130.349777 140.0
130.472519 140.0
130.520264 208.0
131.059784 4492.0
131.219269 144.0
131.666504 156.0
132.063263 368.0
132.936768 152.0
132.964615 160.0
133.205704 160.0
133.476898 144.0
133.552795 196.0
133.891129 156.0
134.326752 192.0
134.982666 168.0
135.052048 156.0
135.667999 192.0
135.890656 232.0
136.057755 168.0
136.911102 248.0
137.300308 224.0
137.447617 136.0
138.678848 216.0
138.787567 220.0
138.909515 156.0
139.470718 148.0
140.096664 168.0
140.690796 124.0
140.978531 180.0
141.461792 244.0
141.999496 140.0
142.821289 208.0
143.060898 1116.0
143.454697 148.0
143.47139 144.0
144.010681 144.0
144.065292 204.0
144.869415 192.0
144.950867 156.0
145.073547 176.0
145.596176 240.0
146.026382 160.0
146.120193 144.0
146.281433 164.0
146.397003 144.0
146.98761 164.0
147.144501 168.0
147.320786 208.0
147.981033 168.0
148.061066 160.0
148.887939 176.0
149.070129 148.0
149.139359 144.0
149.203812 148.0
149.726974 160.0
150.102264 152.0
151.533005 196.0
152.314728 184.0
152.45929 124.0
152.526047 164.0
154.090912 180.0
154.115616 196.0
154.548325 292.0
154.777847 208.0
155.535995 164.0
155.609146 168.0
155.671219 160.0
155.889816 152.0
156.252853 184.0
156.305099 144.0
156.835556 152.0
157.15976 172.0
157.589218 168.0
158.254532 144.0
158.662903 232.0
158.977112 196.0
159.020996 272.0
159.055786 28732.0
159.240936 136.0
159.347153 120.0
159.382385 140.0
159.464462 120.0
159.538071 180.0
159.785538 184.0
160.05864 2664.0
160.153061 140.0
160.180771 168.0
160.473114 168.0
161.062469 384.0
161.123703 144.0
161.456314 132.0
161.647644 180.0
162.150055 156.0
162.745209 168.0
162.877274 212.0
163.012329 124.0
163.591827 184.0
164.001938 168.0
164.364075 180.0
164.389221 112.0
164.936142 180.0
165.475922 180.0
165.663956 188.0
165.778183 256.0
165.873489 128.0
166.941315 136.0
167.484131 160.0
169.304977 212.0
169.35936 144.0
169.481491 144.0
169.984177 156.0
171.090439 280.0
171.586411 140.0
171.935944 160.0
172.052795 172.0
172.100403 168.0
172.649155 140.0
173.563065 216.0
173.712555 176.0
174.11676 156.0
175.213654 160.0
175.616974 160.0
175.727768 192.0
176.107895 172.0
176.136963 168.0
176.546616 204.0
178.354813 148.0
178.98288 144.0
179.169098 164.0
179.209061 168.0
179.315659 248.0
179.390289 148.0
179.408951 188.0
179.92244 160.0
180.172211 192.0
180.297791 140.0
180.357178 168.0
180.559799 236.0
181.612381 196.0
181.668716 152.0
182.095505 216.0
182.272812 188.0
182.393753 140.0
183.778336 152.0
184.342331 216.0
184.931915 192.0
186.003647 172.0
186.200699 140.0
186.309433 140.0
186.458878 140.0
186.626801 160.0
186.752518 144.0
186.79332 200.0
187.050751 124080.0
187.192337 104.0
187.230576 220.0
187.376801 132.0
187.585739 172.0
187.854614 140.0
187.957733 140.0
188.053482 7676.0
188.117676 160.0
188.453751 140.0
188.53717 180.0
189.055115 972.0
189.094711 108.0
189.261139 100.0
189.479996 120.0
189.674164 176.0
190.121216 152.0
190.153351 96.0
190.49855 120.0
190.552322 172.0
191.830978 136.0
192.436218 172.0
193.495117 148.0
194.784653 148.0
195.159836 220.0
195.769226 192.0
196.516266 148.0
196.957352 160.0
197.136154 180.0
197.270325 200.0
197.412918 228.0
199.507401 200.0
200.007019 112.0
200.712433 176.0
201.890869 116.0
203.027084 192.0
203.333633 160.0
204.300934 156.0
204.725037 196.0
204.961472 180.0
205.060974 13792.0
205.198486 260.0
205.297852 308.0
205.92572 204.0
206.064041 816.0
206.551682 172.0
206.697586 168.0
206.794891 180.0
207.064117 228.0
207.353378 212.0
207.493652 120.0
208.538742 184.0
209.894302 124.0
210.001373 188.0
210.957153 156.0
211.660202 204.0
212.416626 148.0
213.101761 156.0
213.129471 100.0
213.263916 160.0
213.308411 112.0
213.629684 124.0
213.840393 268.0
213.873947 144.0
214.075668 264.0
214.226212 112.0
214.299393 116.0
214.45282 192.0
214.545761 132.0
214.567078 120.0
214.711105 132.0
214.746323 120.0
214.808212 148.0
214.859604 172.0
214.879074 168.0
214.914932 284.0
214.952347 280.0
215.005768 436.0
215.032043 152.0
215.04361 308.0
215.052048 184.0
215.08287 167000.0
215.147476 300.0
215.182907 160.0
215.276077 168.0
215.312454 172.0
215.434875 156.0
215.513306 132.0
215.532745 100.0
215.562378 2768.0
215.629623 136.0
215.677429 120.0
215.834686 128.0
215.89595 184.0
215.955704 184.0
215.979568 128.0
216.016769 128.0
216.084961 28788.0
216.140015 208.0
216.180984 108.0
216.35997 156.0
216.442657 112.0
216.478989 120.0
216.622482 196.0
216.730667 144.0
216.837921 136.0
217.057419 104.0
217.087479 2224.0
217.174774 192.0
217.22673 104.0
217.256287 220.0
217.278549 136.0
217.383118 124.0
217.486603 112.0
217.509384 124.0
217.539398 136.0
217.6633 172.0
217.719589 124.0
217.74614 136.0
217.924728 184.0
218.075546 152.0
218.504883 148.0
219.063492 104.0
224.622467 164.0
231.117935 164.0
231.172409 204.0
231.719269 132.0
232.520996 148.0
232.628754 112.0
232.727036 96.0
232.774445 164.0
232.812439 164.0
232.971405 180.0
233.093216 104548.0
233.166946 200.0
233.193756 268.0
233.404327 108.0
233.514481 160.0
233.591675 680.0
233.768707 128.0
233.838287 132.0
233.90976 176.0
234.039856 100.0
234.095901 10468.0
234.414978 112.0
234.481644 120.0
235.096222 1264.0
235.130997 892.0
235.289124 104.0
235.509262 160.0
235.580093 148.0
235.685181 140.0
235.785858 140.0
235.944016 112.0
236.103806 324.0
236.127396 112.0
236.531326 108.0
236.628403 116.0
236.968246 120.0
240.815369 180.0
243.148712 156.0
248.473297 148.0
307.054474 144.0
321.209778 144.0
336.760651 148.0
441.185181 132.0
571.44928 172.0
668.214172 160.0
994.598633 168.0
1063.304199 200.0
1066.772705 140.0
1109.538208 160.0
1303.321655 168.0
1347.469604 196.0
1383.677246 256.0
1394.581787 176.0
1399.744873 144.0
1425.18457 156.0
1471.035889 192.0
1478.212646 180.0
1533.424927 164.0
1543.213989 148.0
1592.729858 196.0
1642.761475 160.0
1651.930176 204.0
1656.285156 160.0
1685.671875 184.0
1692.674072 152.0
1712.787354 260.0
1727.058838 280.0
1749.886841 96.0
1751.254028 164.0
1752.278564 212.0
1753.845337 172.0
1758.240723 140.0
1795.651001 140.0
1798.477417 188.0
1824.534546 140.0
1844.225952 220.0
1854.03418 164.0
1868.640381 180.0
1872.738037 140.0
1885.265137 144.0
1913.917358 140.0
1917.393188 160.0
1927.393799 144.0
1933.313965 188.0
1934.23291 184.0
1951.920044 160.0
1960.414795 192.0
1969.669922 184.0
1972.126343 164.0
1982.215332 164.0
1982.800293 180.0
1984.635254 240.0
1987.926147 168.0
1990.088623 216.0
1993.271973 144.0
1993.716309 148.0
1996.943604 144.0
1998.073242 208.0
