>compound (8R,9S,10R,13S,14S,17S)-17-hydroxy-10,13,17-trimethyl-2,6,7,8,9,11,12,14,15,16-decahydro-1H-cyclopenta[a]phenanthren-3-one
>formula C20H30O2
>ionization [M+H]+
>parentmass 303.2318566520905
#inchi InChI=1S/C20H30O2/c1-18-9-6-14(21)12-13(18)4-5-15-16(18)7-10-19(2)17(15)8-11-20(19,3)22/h12,15-17,22H,4-11H2,1-3H3/t15-,16+,17+,18+,19+,20+/m1/s1
#inchikey GCKMFJBGXUYNAG
#Ion_Source LC-ESI
#Instrument qTof
#Compound_Source Commercial
#PI Dorrestein
#Data_Collector Garg_Neha
#Scan -1
#Precursor_MZ 303.232
#ExactMass 302.225
#Charge 1
#CAS_Number N/A
#Pubmed_ID N/A
#Smiles C[C@]1(O)CC[C@H]2[C@@H]3CCC4=CC(=O)CC[C@]4(C)[C@H]3CC[C@@]21C
#INCHI_AUX N/A
#Library_Class 1
#SpectrumID CCMSLIB00000078973
#IonMode Positive
#UpdateWorkflowName UPDATE-SINGLE-ANNOTATED-GOLD
#LibraryQualityString Gold
#TaskID 278b19f5865741e282cec7349aa7e7a1
##Scan# 1520
#SpectrumFile NCP003352_A2_B11_BC4_01_15718.mzXML
#LibraryName NIHcollectionI_05062014.mgf
#MQScore -1
#Organism NIHcollectionI_05062014
#TIC_Query 0
#RT_Query -1
#MZErrorPPM -1
#SharedPeaks 0
#MassDiff 0
#LibMZ -1
#SpecMZ 303.232
#SpecCharge 0
#internalFilename spec-00000.mgf

>collision 10
45.260323 164.0
45.563442 152.0
45.68309 148.0
45.767883 172.0
45.929604 156.0
46.86367 180.0
47.030045 156.0
47.594078 140.0
47.866337 172.0
48.715553 148.0
48.804501 148.0
48.85318 192.0
49.386036 164.0
50.671299 144.0
51.360767 148.0
52.110912 156.0
52.185654 188.0
52.430363 156.0
53.091042 172.0
53.951576 168.0
53.963272 148.0
55.136314 180.0
55.616188 156.0
55.675575 144.0
56.251789 204.0
57.191639 196.0
57.686401 228.0
58.110447 204.0
58.283539 148.0
58.32457 140.0
58.773682 196.0
58.821148 140.0
58.94791 140.0
59.240143 232.0
59.795982 172.0
60.108822 188.0
60.229244 256.0
60.761765 184.0
60.932545 144.0
61.454117 148.0
61.478161 168.0
61.536839 144.0
61.610245 200.0
62.532261 144.0
63.568989 152.0
63.694412 140.0
64.131981 168.0
64.796204 200.0
65.268631 216.0
65.522934 172.0
65.714798 168.0
65.78096 168.0
66.130943 164.0
66.525612 144.0
66.740807 176.0
67.084496 132.0
67.150436 140.0
67.620979 156.0
67.81424 144.0
67.825714 244.0
68.324928 152.0
68.684044 156.0
68.735191 204.0
68.768196 176.0
69.120201 168.0
69.214554 192.0
69.338791 152.0
69.438271 252.0
69.868484 156.0
69.895111 180.0
70.181602 188.0
70.640877 140.0
70.756348 176.0
71.348564 176.0
71.838013 164.0
72.793205 216.0
73.231979 152.0
75.210678 148.0
76.215126 148.0
77.630798 160.0
77.771156 232.0
77.78344 140.0
78.164818 240.0
78.3955 144.0
78.411362 176.0
78.434273 184.0
79.293266 192.0
80.183678 156.0
80.231804 160.0
80.73175 176.0
81.517426 160.0
81.747368 108.0
83.378319 160.0
83.543785 192.0
83.815063 144.0
83.966362 144.0
84.320549 168.0
85.492439 148.0
86.032486 152.0
86.416901 208.0
86.433556 168.0
87.242203 172.0
87.450531 156.0
87.493347 168.0
87.851151 148.0
88.097572 212.0
88.213432 152.0
88.700127 156.0
88.852219 156.0
89.947052 184.0
90.028442 140.0
90.387604 168.0
91.053505 240.0
91.355217 164.0
92.910271 236.0
93.069923 176.0
93.132942 188.0
93.146385 156.0
93.723541 164.0
94.04174 160.0
94.076485 236.0
94.120888 168.0
94.414619 176.0
95.050003 148.0
95.085968 1472.0
95.685577 184.0
96.088921 180.0
96.530441 152.0
97.065346 10756.0
97.148544 116.0
97.219597 180.0
97.261208 164.0
97.306358 200.0
97.553886 140.0
97.764343 180.0
97.799767 148.0
98.048958 100.0
98.069313 816.0
98.237213 140.0
98.539268 152.0
99.077614 144.0
99.59462 124.0
100.003525 120.0
100.052498 200.0
100.306786 148.0
100.594734 216.0
102.006973 176.0
102.206078 152.0
102.600838 164.0
102.885292 248.0
103.055496 264.0
103.649818 192.0
104.053436 140.0
104.732643 200.0
105.069679 796.0
105.879135 104.0
106.075127 160.0
106.101776 192.0
106.395142 220.0
107.050034 336.0
107.085411 1964.0
107.801926 168.0
107.894936 156.0
108.088058 144.0
108.406181 404.0
109.018364 144.0
109.065445 18068.0
109.100891 1256.0
109.13623 148.0
109.796959 156.0
110.067833 1064.0
110.104027 176.0
110.697655 172.0
111.083374 200.0
111.169312 176.0
111.366661 256.0
112.569199 156.0
115.350349 148.0
117.070274 248.0
117.196007 184.0
117.292801 232.0
117.325325 196.0
117.847832 192.0
118.342911 156.0
118.464188 148.0
119.058487 172.0
119.085144 1928.0
119.364891 148.0
119.636856 168.0
119.706528 264.0
120.088898 256.0
120.242813 152.0
120.797173 196.0
121.065788 716.0
121.100761 2216.0
121.283913 176.0
121.338715 140.0
122.065109 276.0
122.112167 192.0
122.463814 156.0
122.882652 252.0
122.920158 196.0
123.081421 3280.0
123.122002 184.0
123.760048 160.0
124.087059 564.0
124.676239 140.0
125.760864 160.0
126.673927 116.0
126.877083 144.0
127.287674 180.0
127.674194 196.0
128.061295 280.0
128.606934 148.0
128.656586 164.0
129.066849 588.0
129.529465 144.0
130.293961 140.0
131.021957 192.0
131.084503 868.0
132.089355 340.0
132.287109 148.0
132.649048 216.0
133.100815 2516.0
133.887466 140.0
134.107849 232.0
134.604645 172.0
134.627747 176.0
134.988235 180.0
135.079315 456.0
135.117996 1360.0
136.119431 120.0
136.304871 140.0
136.34903 188.0
136.46991 192.0
137.09816 488.0
137.133362 792.0
137.357193 184.0
137.744675 164.0
138.097626 168.0
138.451019 156.0
139.109879 144.0
139.972717 144.0
141.069778 188.0
141.941071 192.0
142.07991 164.0
143.086487 1052.0
143.257767 216.0
143.620087 156.0
144.097931 140.0
144.506348 140.0
144.707397 156.0
145.101501 820.0
145.332962 176.0
145.743546 160.0
145.892548 212.0
146.057266 108.0
146.105209 380.0
146.52066 168.0
146.56163 160.0
147.081802 284.0
147.117828 1620.0
147.831757 172.0
148.121521 308.0
148.9543 176.0
149.096985 1084.0
149.132675 1764.0
149.967438 180.0
150.097839 272.0
150.134735 332.0
151.148743 152.0
152.12149 144.0
152.443237 176.0
152.507126 148.0
152.780075 204.0
153.124893 156.0
154.793396 180.0
155.087494 200.0
155.165756 144.0
155.376572 148.0
155.659515 164.0
156.090607 164.0
157.102631 1052.0
157.967407 164.0
158.109619 340.0
159.080032 188.0
159.117493 2792.0
159.321564 304.0
160.294815 156.0
160.665436 180.0
161.0961 684.0
161.133347 2312.0
161.2267 240.0
161.691315 164.0
161.893631 232.0
162.102066 144.0
162.137695 712.0
162.722992 144.0
162.789017 164.0
163.113068 708.0
163.14769 1984.0
163.966873 308.0
164.112167 248.0
164.448898 176.0
164.801315 184.0
164.903534 188.0
165.12645 144.0
165.687439 148.0
165.863358 160.0
166.694885 140.0
166.800262 144.0
168.09314 172.0
168.506256 152.0
168.638046 164.0
169.104248 424.0
169.323669 144.0
169.829056 184.0
169.899094 308.0
170.110138 336.0
170.81871 228.0
170.892975 116.0
171.117355 1424.0
171.236282 148.0
172.127441 384.0
172.618286 224.0
173.100128 200.0
173.133087 748.0
173.972855 144.0
174.137512 300.0
174.582428 184.0
174.616608 152.0
175.074539 164.0
175.112503 1040.0
175.149673 1832.0
176.149231 380.0
176.922806 220.0
177.126343 2360.0
177.164001 2660.0
177.341339 172.0
177.847244 124.0
178.130661 388.0
178.16748 460.0
178.611389 172.0
178.913879 184.0
179.143845 232.0
180.322281 196.0
180.693954 164.0
181.049957 168.0
181.473343 156.0
181.880386 180.0
182.028763 196.0
182.104691 148.0
182.195282 140.0
182.550812 176.0
183.037125 208.0
183.118988 312.0
183.166397 148.0
183.93219 144.0
184.127472 148.0
184.507584 188.0
185.134033 1556.0
185.699036 140.0
186.137177 384.0
187.147202 1960.0
187.831482 160.0
188.006088 240.0
188.152496 316.0
188.724503 168.0
189.126709 372.0
189.16423 6260.0
190.129745 172.0
190.169601 972.0
190.209351 140.0
190.349365 188.0
190.412521 156.0
190.714752 160.0
191.143555 608.0
191.865387 144.0
192.143936 184.0
193.087616 176.0
193.268417 172.0
193.290558 152.0
194.460037 216.0
195.161926 168.0
195.249054 184.0
196.190186 152.0
196.382584 188.0
197.094452 192.0
197.135544 372.0
197.740433 204.0
198.040009 240.0
198.132507 224.0
199.150864 916.0
201.129074 344.0
201.165588 1664.0
201.384842 188.0
202.170303 160.0
202.206985 140.0
203.142273 524.0
203.178802 2448.0
204.096283 176.0
204.181595 360.0
204.665344 176.0
204.688126 156.0
205.794449 200.0
206.334427 144.0
206.448792 168.0
206.758911 320.0
207.170074 304.0
208.185425 200.0
209.304016 148.0
210.142761 144.0
211.14859 1412.0
211.182709 164.0
211.671799 172.0
211.799225 152.0
212.150696 624.0
213.166367 480.0
214.5103 152.0
214.834 140.0
215.142441 964.0
215.180176 684.0
215.639893 184.0
215.783127 148.0
216.144226 120.0
216.182892 220.0
216.327271 140.0
217.163712 152.0
218.153427 100.0
218.393021 164.0
220.291306 180.0
220.365158 140.0
221.039307 184.0
221.282013 156.0
223.19873 152.0
223.701523 156.0
223.796799 152.0
223.98143 220.0
224.017181 140.0
224.147156 192.0
224.380753 140.0
225.162384 1140.0
226.164642 304.0
226.304825 168.0
226.403641 148.0
227.180664 4560.0
227.951096 204.0
228.149933 252.0
228.182587 1016.0
228.619156 140.0
229.027649 176.0
229.15686 1352.0
230.044785 204.0
230.163208 124.0
230.289368 144.0
230.794037 160.0
231.178192 372.0
231.617188 228.0
233.187897 392.0
233.537323 172.0
233.68454 184.0
234.19841 164.0
234.866531 140.0
236.488968 176.0
236.862518 168.0
237.104568 212.0
237.164368 180.0
238.160828 176.0
238.393478 140.0
239.143875 160.0
239.17691 876.0
239.316269 164.0
240.185318 156.0
241.164108 188.0
241.193695 784.0
241.813614 160.0
241.915756 188.0
242.200089 236.0
242.665482 192.0
242.910477 152.0
243.090424 148.0
243.173721 1076.0
243.210541 488.0
244.182358 152.0
244.239944 148.0
244.345703 148.0
245.190979 2924.0
246.19632 1120.0
246.337753 176.0
246.834686 144.0
247.202271 144.0
247.267746 148.0
247.36969 144.0
248.162292 144.0
248.428864 168.0
249.053528 164.0
250.440613 176.0
252.191696 540.0
252.631271 168.0
253.16301 156.0
253.489288 152.0
254.901367 164.0
255.1763 248.0
255.247849 148.0
255.565918 140.0
256.037048 140.0
256.145325 188.0
257.188385 96.0
257.224457 584.0
258.229767 188.0
258.691986 148.0
258.994537 168.0
259.507294 140.0
261.63736 152.0
262.307404 208.0
263.352844 232.0
263.448273 132.0
264.332397 188.0
265.122528 252.0
265.196808 184.0
267.212128 7388.0
267.376343 164.0
267.467468 192.0
267.549957 120.0
268.215149 2048.0
268.852631 152.0
269.207825 148.0
269.221527 184.0
270.199463 280.0
270.801453 136.0
271.387726 172.0
272.602234 140.0
272.960541 160.0
273.457306 156.0
273.644928 148.0
273.941315 152.0
275.369537 176.0
277.79245 144.0
278.476227 164.0
278.54599 156.0
278.702118 160.0
279.686493 160.0
279.926208 140.0
280.325928 152.0
281.503479 172.0
281.730591 152.0
283.28949 196.0
283.581024 144.0
283.74765 156.0
284.211456 204.0
284.429596 160.0
284.711639 160.0
284.916534 172.0
285.089752 180.0
285.171051 152.0
285.221954 20328.0
286.007812 128.0
286.164795 180.0
286.224579 4472.0
286.887939 224.0
286.926697 144.0
286.993103 184.0
287.230164 476.0
287.377594 152.0
287.870422 152.0
288.21347 196.0
288.251434 192.0
288.982483 248.0
289.229523 144.0
289.784821 164.0
290.955597 108.0
291.583344 144.0
291.969635 168.0
293.782959 144.0
294.691101 172.0
295.58197 124.0
295.658783 208.0
296.820068 156.0
297.193939 168.0
297.705414 176.0
299.036316 192.0
299.328491 188.0
299.672943 148.0
300.757935 152.0
301.156372 140.0
301.214111 156.0
301.340881 136.0
301.786591 244.0
301.888947 156.0
301.940826 152.0
301.966461 224.0
302.003571 172.0
302.028503 128.0
302.086884 136.0
302.117157 176.0
302.200806 224.0
302.271942 140.0
302.337006 232.0
302.373932 100.0
302.428802 200.0
302.461182 192.0
302.496826 236.0
302.530396 140.0
302.667542 152.0
302.701294 140.0
302.755981 144.0
302.777802 104.0
302.810638 176.0
302.860199 236.0
302.918793 204.0
302.999725 288.0
303.028412 280.0
303.067566 396.0
303.094147 276.0
303.131287 652.0
303.170441 704.0
303.234497 183948.0
303.337433 188.0
303.434204 184.0
303.476013 260.0
303.514191 324.0
303.556458 276.0
303.615692 416.0
303.652008 148.0
303.698914 256.0
303.751984 280.0
303.804474 5244.0
303.849762 340.0
303.87915 240.0
303.94223 216.0
304.031219 144.0
304.057556 212.0
304.107422 212.0
304.130249 212.0
304.182068 124.0
304.236755 61444.0
304.438843 140.0
304.55304 104.0
304.61142 148.0
304.673676 188.0
304.738922 104.0
304.799225 132.0
304.982086 188.0
305.025757 140.0
305.065186 100.0
305.151154 124.0
305.176056 220.0
305.23938 7268.0
305.366089 160.0
305.825012 236.0
305.864197 180.0
305.919617 200.0
305.969177 208.0
306.033783 320.0
306.08136 112.0
306.148773 220.0
306.240295 876.0
306.313812 208.0
306.37915 424.0
306.434235 172.0
306.559021 236.0
306.585907 140.0
306.664825 132.0
306.946472 160.0
307.02536 284.0
307.373138 104.0
307.709076 148.0
308.311005 180.0
308.46875 96.0
308.578918 124.0
316.719055 152.0
318.424774 140.0
321.111145 144.0
321.240417 276.0
344.259277 400.0
351.814087 140.0
408.408447 140.0
414.905792 140.0
427.634399 144.0
428.09549 148.0
460.628601 116.0
634.536377 180.0
1053.814575 248.0
1249.525269 232.0
1296.383057 148.0
1303.630981 144.0
1306.701294 156.0
1310.553101 204.0
1317.168579 152.0
1319.293091 180.0
1320.999756 196.0
1322.414917 196.0
1346.819214 188.0
1358.384521 236.0
1387.002563 160.0
1389.69458 228.0
1400.674805 140.0
1406.169922 244.0
1408.021484 272.0
1445.232056 188.0
1452.466919 252.0
1469.744141 192.0
1503.477905 164.0
1508.33606 184.0
1512.025391 224.0
1517.843018 160.0
1521.722534 156.0
1531.411865 160.0
1533.016724 188.0
1534.981201 168.0
1549.331177 152.0
1549.699341 228.0
1578.666382 148.0
1588.209717 176.0
1595.507446 208.0
1596.199097 264.0
1603.594849 140.0
1622.002441 184.0
1626.189331 168.0
1626.662964 140.0
1633.967896 184.0
1636.350098 160.0
1650.599243 180.0
1653.786621 184.0
1655.762085 180.0
1676.535278 180.0
1689.967651 196.0
1696.347412 148.0
1706.790527 172.0
1717.851196 172.0
1722.630859 144.0
1725.597656 184.0
1728.914551 172.0
1732.143677 140.0
1739.955322 164.0
1740.860352 208.0
1741.839478 176.0
1758.827026 168.0
1764.315186 152.0
1766.506226 164.0
1767.292603 180.0
1790.317871 172.0
1791.901489 184.0
1804.764282 148.0
1806.421875 220.0
1806.751709 260.0
1813.687012 160.0
1817.79187 156.0
1822.759399 188.0
1823.473267 140.0
1831.462524 148.0
1832.706299 184.0
1844.620117 144.0
1863.834717 148.0
1865.983521 172.0
1868.864746 168.0
1872.084106 276.0
1875.80603 188.0
1877.349365 176.0
1882.052246 156.0
1882.872559 168.0
1885.706299 160.0
1893.804688 188.0
1903.665405 164.0
1908.496582 192.0
1917.262451 168.0
1918.700562 164.0
1933.453613 196.0
1967.461548 176.0
1976.13147 156.0
1981.735962 180.0
1981.859985 184.0
1984.359375 152.0
1999.30896 148.0
2000.403687 184.0
