>compound MLS002154122-01!Sertaconazole nitrate99592-39-9
>formula C20H15Cl3N2OS
>ionization [M+H]+
>parentmass 437.0043435920905
#inchi InChI=1S/C20H15Cl3N2OS/c21-14-4-5-16(18(23)8-14)19(9-25-7-6-24-12-25)26-10-13-11-27-20-15(13)2-1-3-17(20)22/h1-8,11-12,19H,9-10H2
#inchikey JLGKQTAYUIMGRK
#origInchi InChI=1S/C20H15Cl3N2OS.HNO3/c21-14-4-5-16(18(23)8-14)19(9-25-7-6-24-12-25)26-10-13-11-27-20-15(13)2-1-3-17(20)22;2-1(3)4/h1-8,11-12,19H,9-10H2;(H,2,3,4)
#Ion_Source LC-ESI
#Instrument qTof
#Compound_Source NIH Pharmacologically Active Library
#PI Dorrestein
#Data_Collector VP/LMS
#Scan -1
#Precursor_MZ 437.009
#ExactMass 435.997
#Charge 1
#CAS_Number N/A
#Pubmed_ID N/A
#Smiles Clc1ccc(C(Cn2ccnc2)OCc3csc4c(Cl)cccc34)c(Cl)c1.O[N+](=O)[O-]
#INCHI_AUX N/A
#Library_Class 1
#SpectrumID CCMSLIB00000084939
#IonMode Positive
#UpdateWorkflowName UPDATE-SINGLE-ANNOTATED-GOLD
#LibraryQualityString Gold
#TaskID d252d724072548979f1f6f1ced849daf
##Scan# 2158
#SpectrumFile p3-C09_GC9_01_18254.mzXML
#LibraryName Pharm_Active_Library.mgf
#MQScore -1
#Organism Pharm_Active_Library
#TIC_Query 0
#RT_Query -1
#MZErrorPPM -1
#SharedPeaks 0
#MassDiff 0
#LibMZ -1
#SpecMZ 437.009
#SpecCharge 0
#internalFilename spec-00000.mgf

>collision 10
44.890591 232.0
44.923931 292.0
44.955517 112.0
44.971531 180.0
45.034336 108.0
45.09174 128.0
45.103771 52.0
45.139275 224.0
45.165283 152.0
45.185349 148.0
45.223061 88.0
45.238884 112.0
45.256287 164.0
45.26968 124.0
45.279053 152.0
45.309864 84.0
45.341522 192.0
45.358604 140.0
45.398331 144.0
45.456017 168.0
45.466755 156.0
45.492256 176.0
45.512398 132.0
45.531197 152.0
45.545971 128.0
45.586277 116.0
45.606438 220.0
45.617191 132.0
45.636017 180.0
45.649464 104.0
45.679054 180.0
45.689816 176.0
45.734222 184.0
45.754417 116.0
45.808285 164.0
45.821758 124.0
45.839275 120.0
45.856796 116.0
45.884705 188.0
45.892136 168.0
45.920166 132.0
45.958477 272.0
45.964024 204.0
45.979492 140.0
46.022732 176.0
46.059196 184.0
46.112698 228.0
46.144337 144.0
46.168289 240.0
46.188004 152.0
46.225494 136.0
46.282349 144.0
46.298054 160.0
46.341949 124.0
46.363628 200.0
46.428707 136.0
46.457191 228.0
46.474831 220.0
46.484329 204.0
46.495186 252.0
46.511471 88.0
46.538624 124.0
46.590237 68.0
46.605183 56.0
46.634628 160.0
46.685387 160.0
46.70715 168.0
46.721432 216.0
46.781994 156.0
46.818756 208.0
46.881428 96.0
46.90596 96.0
46.980965 220.0
47.025997 192.0
47.047836 192.0
47.084705 172.0
47.109722 64.0
47.125687 176.0
47.142086 164.0
47.15712 112.0
47.196766 168.0
47.241901 96.0
47.351406 532.0
47.377266 164.0
47.392506 328.0
47.413727 148.0
47.428246 156.0
47.444588 220.0
47.455559 120.0
47.522598 196.0
47.549587 120.0
47.562565 72.0
47.576294 152.0
47.611996 112.0
47.634472 176.0
47.65757 204.0
47.672443 176.0
47.71093 156.0
47.741467 116.0
47.770065 52.0
47.78933 108.0
47.800335 152.0
47.809971 152.0
47.867222 216.0
47.887371 152.0
47.942181 140.0
47.963802 184.0
47.977001 184.0
47.992878 144.0
48.016628 104.0
48.039322 156.0
48.095249 192.0
48.1436 244.0
48.172066 196.0
48.223736 152.0
48.244469 116.0
48.255531 140.0
48.277657 112.0
48.305321 108.0
48.341293 40.0
48.353748 180.0
48.384201 132.0
48.427132 204.0
48.465889 332.0
48.478394 160.0
48.492599 144.0
48.508888 224.0
48.522751 152.0
48.554646 164.0
48.606609 192.0
48.712883 196.0
48.732334 160.0
48.751785 144.0
48.811565 160.0
48.8363 168.0
48.858307 152.0
48.87888 168.0
48.889046 208.0
48.900875 164.0
48.929531 164.0
48.949329 116.0
48.973003 152.0
48.997375 176.0
49.016193 196.0
49.039886 116.0
49.078922 156.0
49.112392 176.0
49.148666 192.0
49.180763 184.0
49.190536 36.0
49.207291 144.0
49.242508 164.0
49.2897 144.0
49.315254 232.0
49.326038 196.0
49.350636 128.0
49.38652 252.0
49.418343 160.0
49.430061 160.0
49.449131 200.0
49.478527 204.0
49.506531 180.0
49.531742 116.0
49.543713 100.0
49.552757 144.0
49.582184 132.0
49.618118 120.0
49.670521 116.0
49.708401 180.0
49.72805 108.0
49.765953 148.0
49.826778 236.0
49.840401 112.0
49.864323 176.0
49.913914 188.0
49.941624 152.0
49.988052 204.0
50.000736 308.0
50.041542 128.0
50.064072 120.0
50.098122 200.0
50.138741 300.0
50.155655 180.0
50.185398 124.0
50.197208 152.0
50.216286 148.0
50.279778 92.0
50.315067 232.0
50.330597 144.0
50.375793 148.0
50.401226 164.0
50.447983 144.0
50.469074 156.0
50.483215 40.0
50.495945 188.0
50.511501 188.0
50.534138 152.0
50.558266 236.0
50.592167 124.0
50.617653 132.0
50.66156 100.0
50.695568 136.0
50.712498 148.0
50.729584 148.0
50.760777 132.0
50.77496 36.0
50.809002 172.0
50.84164 100.0
50.965187 76.0
50.980816 208.0
51.019196 192.0
51.057587 132.0
51.103111 208.0
51.125877 160.0
51.138687 148.0
51.171467 156.0
51.199909 72.0
51.215576 168.0
51.246918 36.0
51.283512 236.0
51.30735 220.0
51.329594 168.0
51.410908 184.0
51.428036 84.0
51.452301 148.0
51.490856 136.0
51.550861 308.0
51.566582 96.0
51.59803 152.0
51.610901 104.0
51.620911 96.0
51.652374 172.0
51.670822 188.0
51.691006 168.0
51.769741 188.0
51.83707 144.0
51.866093 144.0
51.911617 136.0
51.932716 180.0
51.971863 152.0
52.112579 96.0
52.125511 160.0
52.189991 168.0
52.209103 136.0
52.24773 164.0
52.335125 364.0
52.357872 232.0
52.387375 144.0
52.404984 144.0
52.433487 100.0
52.446457 192.0
52.488266 176.0
52.563278 128.0
52.592396 160.0
52.613796 132.0
52.62661 160.0
52.675896 132.0
52.69323 180.0
52.709126 144.0
52.795864 200.0
52.809467 168.0
52.926105 92.0
52.95224 164.0
53.018818 156.0
53.03331 152.0
53.067154 116.0
53.100006 132.0
53.115005 188.0
53.185616 156.0
53.208408 148.0
53.266933 64.0
53.293083 132.0
53.321949 204.0
53.374481 184.0
53.395969 124.0
53.410843 88.0
53.471954 212.0
53.566826 156.0
53.608852 180.0
53.632172 120.0
53.643177 168.0
53.666447 228.0
53.680286 92.0
53.706539 132.0
53.748848 268.0
53.7649 148.0
53.785336 136.0
53.817451 192.0
53.830074 124.0
53.858486 208.0
53.890484 72.0
53.906559 260.0
53.919575 212.0
53.948067 192.0
53.969414 76.0
54.0089 212.0
54.029381 116.0
54.041088 116.0
54.06889 112.0
54.086456 144.0
54.102688 224.0
54.161133 180.0
54.223423 164.0
54.262253 152.0
54.276917 252.0
54.306248 224.0
54.389885 112.0
54.428055 152.0
54.505909 180.0
54.532364 176.0
54.55735 72.0
54.599079 212.0
54.641182 96.0
54.664726 108.0
54.683327 200.0
54.736858 152.0
54.758949 128.0
54.786938 108.0
54.802765 172.0
54.836548 240.0
54.852654 256.0
54.86573 212.0
54.950508 148.0
54.971245 184.0
54.99604 160.0
55.010235 192.0
55.05463 116.0
55.065731 132.0
55.086681 176.0
55.113617 164.0
55.141083 128.0
55.165081 136.0
55.182476 204.0
55.195187 328.0
55.211723 180.0
55.235664 116.0
55.247551 192.0
55.275661 176.0
55.293423 120.0
55.345234 64.0
55.366585 196.0
55.389668 208.0
55.422882 204.0
55.455761 284.0
55.508236 92.0
55.543949 152.0
55.566082 192.0
55.579437 92.0
55.615055 152.0
55.634354 176.0
55.667019 140.0
55.699348 120.0
55.705505 92.0
55.784397 184.0
55.826031 136.0
55.836441 144.0
55.846767 140.0
55.864704 140.0
55.88773 184.0
55.922131 236.0
55.937622 160.0
55.953999 140.0
56.02774 132.0
56.067207 116.0
56.125347 204.0
56.156067 120.0
56.187992 176.0
56.33131 120.0
56.36964 116.0
56.388496 132.0
56.414997 68.0
56.498745 96.0
56.537506 124.0
56.557755 296.0
56.60202 212.0
56.635719 172.0
56.658939 160.0
56.772858 192.0
56.795357 104.0
56.814857 148.0
56.886894 72.0
56.927113 112.0
56.966461 160.0
56.998035 232.0
57.008556 160.0
57.076202 176.0
57.092743 48.0
57.104774 96.0
57.149906 112.0
57.187016 152.0
57.201077 68.0
57.22366 124.0
57.243603 212.0
57.31554 184.0
57.353989 188.0
57.375832 132.0
57.399956 152.0
57.442188 216.0
57.464817 148.0
57.479904 192.0
57.490467 156.0
57.532734 96.0
57.543301 140.0
57.585583 104.0
57.616249 200.0
57.669624 148.0
57.692871 196.0
57.72916 148.0
57.778099 192.0
57.794209 136.0
57.816906 120.0
57.838097 116.0
57.879589 236.0
57.914646 164.0
57.936733 208.0
57.95681 236.0
58.016853 140.0
58.032013 144.0
58.074474 176.0
58.09116 164.0
58.130611 152.0
58.149723 236.0
58.201958 196.0
58.220181 76.0
58.256634 132.0
58.314213 148.0
58.332615 108.0
58.34478 160.0
58.410172 120.0
58.425385 200.0
58.464687 212.0
58.499954 108.0
58.545631 164.0
58.608089 168.0
58.621803 180.0
58.647713 160.0
58.672104 164.0
58.691925 196.0
58.71175 176.0
58.727001 52.0
58.769718 152.0
58.805943 168.0
58.809666 204.0
58.823135 176.0
58.850616 140.0
58.873405 160.0
58.935753 168.0
58.974358 156.0
59.009518 72.0
59.020222 64.0
59.033985 100.0
59.072224 324.0
59.124249 212.0
59.13496 168.0
59.200794 172.0
59.255939 104.0
59.307182 184.0
59.36937 64.0
59.398514 100.0
59.412319 184.0
59.45068 112.0
59.481377 128.0
59.521458 112.0
59.543648 220.0
59.591408 192.0
59.628834 192.0
59.653427 172.0
59.6688 164.0
59.750313 136.0
59.778011 192.0
59.81908 164.0
59.851898 168.0
59.868839 88.0
59.88578 148.0
59.925835 128.0
59.941242 92.0
59.985939 112.0
59.997692 172.0
60.019859 136.0
60.047619 36.0
60.063042 180.0
60.127846 32.0
60.178787 152.0
60.189598 132.0
60.218063 176.0
60.239021 144.0
60.327213 156.0
60.413708 172.0
60.53289 152.0
60.566101 108.0
60.580482 176.0
60.586086 128.0
60.602596 80.0
60.628937 120.0
60.708004 184.0
60.737473 72.0
60.756088 84.0
60.766949 132.0
60.784016 104.0
60.805744 124.0
60.83593 152.0
60.863182 212.0
60.879581 164.0
60.897575 192.0
60.919788 224.0
60.968014 116.0
61.00742 192.0
61.021336 160.0
61.033588 168.0
61.074543 104.0
61.102547 164.0
61.113438 40.0
61.205273 40.0
61.228634 48.0
61.255112 256.0
61.28783 128.0
61.337704 124.0
61.364204 104.0
61.382915 172.0
61.395256 120.0
61.4076 140.0
61.462643 220.0
61.495243 108.0
61.509293 84.0
61.556129 120.0
61.577908 300.0
61.626423 136.0
61.643612 108.0
61.662365 112.0
61.690617 220.0
61.706135 180.0
61.74992 128.0
61.770256 120.0
61.782772 132.0
61.80624 100.0
61.856705 164.0
61.934616 204.0
61.971207 236.0
62.045879 196.0
62.061558 160.0
62.100296 140.0
62.157242 48.0
62.190033 148.0
62.215317 128.0
62.234566 200.0
62.281273 152.0
62.304836 148.0
62.317406 156.0
62.359837 244.0
62.376415 160.0
62.403851 132.0
62.429222 208.0
62.569054 144.0
62.584797 240.0
62.597397 124.0
62.614719 100.0
62.638348 132.0
62.668282 188.0
62.688766 172.0
62.699795 168.0
62.760883 208.0
62.780201 192.0
62.813324 168.0
62.895378 176.0
62.909584 140.0
62.96801 60.0
62.992748 180.0
63.010811 84.0
63.039875 180.0
63.062809 176.0
63.124466 388.0
63.165588 160.0
63.213055 148.0
63.236794 100.0
63.268452 164.0
63.281227 144.0
63.372982 60.0
63.406261 180.0
63.459633 168.0
63.518841 176.0
63.529942 204.0
63.560089 200.0
63.610878 136.0
63.63699 148.0
63.66526 160.0
63.707748 124.0
63.739525 100.0
63.765076 156.0
63.838085 52.0
63.852398 136.0
63.868301 132.0
63.931946 128.0
64.037025 108.0
64.086411 132.0
64.140358 208.0
64.168823 300.0
64.245804 176.0
64.272392 212.0
64.340004 116.0
64.383118 256.0
64.416656 72.0
64.429436 200.0
64.6549 112.0
64.696381 292.0
64.749359 128.0
64.781395 164.0
64.827858 228.0
64.911217 36.0
64.92923 140.0
64.964149 168.0
64.993027 48.0
65.028336 52.0
65.065254 136.0
65.076492 100.0
65.08934 144.0
65.110046 380.0
65.146194 220.0
65.216255 152.0
65.250351 212.0
65.303085 88.0
65.319168 132.0
65.34008 156.0
65.370659 156.0
65.396408 164.0
65.420891 152.0
65.462418 152.0
65.486572 108.0
65.505905 128.0
65.534904 172.0
65.551018 272.0
65.573578 64.0
65.62516 148.0
65.657417 176.0
65.671928 128.0
65.718712 192.0
65.733238 128.0
65.749374 188.0
65.792961 120.0
65.855934 124.0
65.867226 248.0
65.896652 252.0
65.912758 164.0
65.952881 100.0
66.06295 192.0
66.104912 240.0
66.134048 132.0
66.174126 164.0
66.197189 164.0
66.208519 212.0
66.236404 132.0
66.296005 144.0
66.324219 168.0
66.372192 160.0
66.39814 196.0
66.42572 80.0
66.461449 164.0
66.482506 164.0
66.531204 216.0
66.571793 144.0
66.588036 120.0
66.66761 220.0
66.696899 176.0
66.708275 68.0
66.720757 160.0
66.766815 192.0
66.779823 184.0
66.800972 120.0
66.853035 40.0
66.864426 52.0
66.929543 212.0
66.947456 132.0
66.960487 140.0
67.028908 200.0
67.077057 196.0
67.097366 368.0
67.178337 68.0
67.23439 160.0
67.281723 128.0
67.333076 160.0
67.409126 144.0
67.481049 144.0
67.500107 196.0
67.54483 212.0
67.592278 176.0
67.608643 100.0
67.661018 216.0
67.679031 148.0
67.742905 132.0
67.757652 92.0
67.815002 168.0
67.828117 64.0
67.841148 160.0
67.867783 124.0
67.920525 336.0
67.975731 232.0
67.990494 60.0
68.021683 160.0
68.10025 156.0
68.138283 184.0
68.149788 52.0
68.172791 164.0
68.184296 196.0
68.202377 120.0
68.231964 100.0
68.269783 216.0
68.294456 172.0
68.309258 120.0
68.333939 148.0
68.36026 136.0
68.432693 112.0
68.460686 204.0
68.515648 156.0
68.551292 240.0
68.572395 184.0
68.588936 176.0
68.610626 180.0
68.622787 160.0
68.678238 48.0
68.691437 68.0
68.732681 184.0
68.757179 208.0
68.78054 136.0
68.808609 156.0
68.823471 200.0
68.873016 332.0
68.929184 108.0
68.977112 136.0
69.027237 140.0
69.061447 324.0
69.092873 184.0
69.132591 140.0
69.147484 108.0
69.17231 124.0
69.197144 104.0
69.210388 100.0
69.235229 80.0
69.278297 192.0
69.328003 144.0
69.354935 300.0
69.444061 128.0
69.455673 208.0
69.477234 160.0
69.512077 72.0
69.530334 212.0
69.566612 168.0
69.60006 188.0
69.619987 112.0
69.637115 192.0
69.659554 244.0
69.666359 148.0
69.693077 140.0
69.739609 152.0
69.757896 104.0
69.772858 140.0
69.787819 208.0
69.824646 136.0
69.853439 236.0
69.872772 160.0
69.922562 92.0
69.954193 144.0
69.967506 48.0
70.002121 208.0
70.033104 180.0
70.048988 160.0
70.097427 40.0
70.114098 208.0
70.151901 172.0
70.167435 136.0
70.19912 124.0
70.275848 172.0
70.34584 128.0
70.424423 92.0
70.466187 104.0
70.484566 156.0
70.496269 204.0
70.573158 148.0
70.657036 164.0
70.686905 176.0
70.745483 144.0
70.763901 224.0
70.84597 88.0
70.89959 172.0
70.929756 144.0
70.943169 60.0
70.959229 180.0
71.040436 208.0
71.068954 156.0
71.084808 184.0
71.136086 188.0
71.167984 112.0
71.198212 164.0
71.248604 192.0
71.31414 208.0
71.359535 136.0
71.389801 168.0
71.406815 136.0
71.433533 208.0
71.462128 112.0
71.513878 156.0
71.539551 128.0
71.571541 100.0
71.628494 132.0
71.644844 132.0
71.672607 44.0
71.754402 200.0
71.766998 144.0
71.785545 136.0
71.817619 216.0
71.832771 84.0
71.858078 164.0
71.880173 172.0
71.901772 188.0
71.928955 124.0
71.957657 112.0
71.988052 108.0
72.042099 192.0
72.109688 160.0
72.124901 248.0
72.140114 180.0
72.169243 192.0
72.182388 148.0
72.212059 208.0
72.236145 188.0
72.312393 184.0
72.341431 176.0
72.407463 136.0
72.436218 172.0
72.439346 68.0
72.582863 160.0
72.595581 112.0
72.692276 108.0
72.709244 124.0
72.72303 200.0
72.756775 72.0
72.79583 92.0
72.809418 180.0
72.820557 188.0
72.867172 168.0
72.879066 168.0
72.893204 112.0
72.970848 136.0
73.011658 176.0
73.117142 144.0
73.146126 140.0
73.171608 132.0
73.241432 148.0
73.274612 140.0
73.324921 32.0
73.381561 88.0
73.410164 140.0
73.42495 220.0
73.469864 152.0
73.49234 172.0
73.592743 100.0
73.627335 156.0
73.640564 120.0
73.653473 132.0
73.676437 144.0
73.703773 188.0
73.775558 156.0
73.794365 136.0
73.821724 164.0
73.867073 140.0
73.88501 232.0
73.977425 124.0
73.991119 200.0
74.022369 192.0
74.129974 120.0
74.152138 92.0
74.172707 204.0
74.229546 184.0
74.278328 168.0
74.316765 180.0
74.330498 88.0
74.394585 192.0
74.438644 184.0
74.491745 148.0
74.529686 148.0
74.549904 240.0
74.581329 160.0
74.624832 292.0
74.641411 124.0
74.679245 120.0
74.729134 168.0
74.760109 172.0
74.820358 140.0
74.849625 144.0
74.880623 216.0
74.923866 156.0
74.937469 48.0
75.006905 180.0
75.049507 184.0
75.097794 136.0
75.113319 72.0
75.156448 200.0
75.177986 148.0
75.231194 144.0
75.247925 120.0
75.268646 296.0
75.298004 160.0
75.313553 140.0
75.341583 140.0
75.372894 148.0
75.386116 216.0
75.434509 128.0
75.472549 124.0
75.498482 36.0
75.524872 156.0
75.571136 64.0
75.601562 176.0
75.627205 140.0
75.650749 248.0
75.668213 92.0
75.675766 80.0
75.683105 128.0
75.685791 168.0
75.703583 172.0
75.718277 156.0
75.737335 156.0
75.768517 164.0
75.782379 164.0
75.830894 176.0
75.889839 268.0
75.930344 212.0
76.016602 152.0
76.08242 140.0
76.16404 140.0
76.240486 180.0
76.25367 140.0
76.313499 128.0
76.365669 124.0
76.388283 148.0
76.432899 152.0
76.449181 164.0
76.468323 148.0
76.498474 248.0
76.600655 72.0
76.68679 212.0
76.715668 140.0
76.757248 156.0
76.829025 120.0
76.851707 144.0
76.865669 184.0
76.888321 192.0
76.928497 100.0
76.96167 120.0
76.986122 184.0
77.015091 136.0
77.043762 124.0
77.066475 124.0
77.083946 176.0
77.102493 120.0
77.136383 212.0
77.164352 84.0
77.190582 64.0
77.216812 116.0
77.265793 128.0
77.362968 184.0
77.41983 152.0
77.44632 160.0
77.479385 80.0
77.528442 128.0
77.54467 172.0
77.62883 168.0
77.66169 152.0
77.693153 120.0
77.745911 204.0
77.782768 224.0
77.795052 172.0
77.881096 48.0
77.909203 48.0
77.942947 156.0
78.106094 76.0
78.141273 92.0
78.164154 216.0
78.199348 120.0
78.239838 192.0
78.255569 188.0
78.278664 152.0
78.341454 148.0
78.359596 168.0
78.3825 48.0
78.433617 188.0
78.454765 204.0
78.4823 208.0
78.537643 156.0
78.606453 208.0
78.654106 196.0
78.691177 120.0
78.737091 180.0
78.76535 140.0
78.786552 100.0
78.872528 104.0
78.892586 128.0
78.93679 80.0
78.958008 148.0
79.012444 140.0
79.078323 116.0
79.101334 68.0
79.122276 212.0
79.179237 128.0
79.198723 160.0
79.328079 132.0
79.356445 204.0
79.398415 108.0
79.432701 196.0
79.449669 228.0
79.484901 132.0
79.519646 152.0
79.539177 144.0
79.556229 212.0
79.585335 116.0
79.617928 116.0
79.661705 108.0
79.69368 120.0
79.732773 104.0
79.786102 152.0
79.811859 164.0
79.846558 160.0
79.875435 188.0
79.958298 164.0
79.991417 136.0
80.008484 156.0
80.045876 172.0
80.098358 112.0
80.117126 156.0
80.129593 324.0
80.1884 136.0
80.20578 160.0
80.241875 200.0
80.292542 252.0
80.321289 180.0
80.347107 72.0
80.361374 156.0
80.4524 180.0
80.511322 132.0
80.543068 176.0
80.561333 148.0
80.573845 188.0
80.618469 156.0
80.691528 184.0
80.763329 156.0
80.808456 216.0
80.830315 164.0
80.854584 140.0
80.883217 140.0
80.901123 160.0
80.929764 148.0
80.949211 140.0
80.966637 204.0
80.977234 244.0
81.056946 236.0
81.116089 88.0
81.247002 168.0
81.268532 136.0
81.300018 168.0
81.313393 144.0
81.342117 168.0
81.378021 112.0
81.390587 168.0
81.40316 140.0
81.428299 228.0
81.451653 144.0
81.494972 140.0
81.523521 124.0
81.536102 140.0
81.602608 184.0
81.624184 40.0
81.660156 180.0
81.706108 132.0
81.778908 92.0
81.816132 200.0
81.917557 92.0
81.989632 136.0
82.090584 192.0
82.142891 144.0
82.178398 300.0
82.240875 264.0
82.271019 60.0
82.292679 144.0
82.375702 124.0
82.410088 144.0
82.43177 184.0
82.480568 64.0
82.529381 332.0
82.583633 328.0
82.610764 216.0
82.623131 144.0
82.677711 132.0
82.729218 44.0
82.745338 200.0
82.777283 104.0
82.795525 108.0
82.822556 184.0
82.854263 64.0
82.911339 116.0
82.942154 164.0
83.029396 168.0
83.064507 160.0
83.078072 172.0
83.096298 160.0
83.114441 124.0
83.150101 172.0
83.187042 164.0
83.27758 172.0
83.368675 40.0
83.466736 148.0
83.490479 180.0
83.530495 132.0
83.59417 144.0
83.632393 156.0
83.652412 268.0
83.713409 164.0
83.728889 192.0
83.76532 44.0
83.792023 164.0
83.827911 180.0
83.889435 180.0
83.958519 156.0
83.996826 112.0
84.036964 92.0
84.069809 144.0
84.14447 84.0
84.208725 176.0
84.246918 140.0
84.314529 192.0
84.340111 160.0
84.358559 136.0
84.397766 112.0
84.415077 116.0
84.429703 136.0
84.459549 164.0
84.497383 56.0
84.533981 152.0
84.555939 196.0
84.594383 148.0
84.609024 192.0
84.621841 68.0
84.649696 188.0
84.695091 124.0
84.742722 148.0
84.77021 180.0
84.801369 156.0
84.816032 112.0
84.852692 168.0
84.868607 136.0
84.921753 164.0
84.974922 112.0
85.008606 104.0
85.032463 160.0
85.083862 264.0
85.221611 84.0
85.236313 52.0
85.262039 116.0
85.306152 144.0
85.319023 92.0
85.352119 176.0
85.390732 172.0
85.409126 180.0
85.466164 132.0
85.484558 136.0
85.499283 168.0
85.562889 164.0
85.578438 164.0
85.595009 184.0
85.677895 92.0
85.700005 212.0
85.736862 168.0
85.768188 208.0
85.819809 176.0
85.834564 208.0
85.882515 76.0
85.912025 200.0
85.94339 116.0
85.995064 160.0
86.010506 132.0
86.060783 200.0
86.104301 144.0
86.200661 456.0
86.246269 92.0
86.259209 188.0
86.301727 164.0
86.344383 232.0
86.371216 236.0
86.453415 160.0
86.484879 128.0
86.516342 168.0
86.531746 164.0
86.577446 176.0
86.629311 188.0
86.660805 136.0
86.696014 132.0
86.710838 140.0
86.757401 136.0
86.775719 116.0
86.788696 112.0
86.848045 156.0
86.862885 64.0
86.890709 140.0
86.916687 152.0
86.937103 136.0
86.972366 48.0
87.037346 100.0
87.0522 300.0
87.107918 148.0
87.14193 192.0
87.17054 176.0
87.19339 160.0
87.224983 140.0
87.243576 120.0
87.333206 180.0
87.366318 164.0
87.379341 196.0
87.401337 200.0
87.429581 152.0
87.602745 156.0
87.617645 184.0
87.636284 88.0
87.670654 152.0
87.703369 96.0
87.792862 184.0
87.807785 160.0
87.888 160.0
87.911346 196.0
87.938087 196.0
87.981049 136.0
88.009323 168.0
88.059746 220.0
88.083771 228.0
88.110184 32.0
88.147552 224.0
88.192406 208.0
88.210892 180.0
88.263451 148.0
88.276535 180.0
88.34761 160.0
88.383163 152.0
88.444115 204.0
88.482361 132.0
88.514191 132.0
88.587234 176.0
88.626579 132.0
88.709045 136.0
88.775444 280.0
88.809776 212.0
88.864708 172.0
88.890068 132.0
88.932953 152.0
89.005585 432.0
89.135094 132.0
89.237038 324.0
89.26445 192.0
89.37719 128.0
89.417076 144.0
89.432243 252.0
89.542015 212.0
89.56781 52.0
89.590416 128.0
89.614906 196.0
89.639404 184.0
89.664795 152.0
89.686523 132.0
89.716682 124.0
89.747902 168.0
89.826057 104.0
89.854355 92.0
89.893982 204.0
89.906364 192.0
89.926064 136.0
89.955307 116.0
89.99025 28.0
90.056343 96.0
90.114906 144.0
90.196175 88.0
90.214836 192.0
90.224487 180.0
90.231163 368.0
90.300163 104.0
90.353134 224.0
90.375832 20.0
90.534843 180.0
90.613251 204.0
90.635246 112.0
90.657982 240.0
90.717628 140.0
90.737595 204.0
90.794479 196.0
90.840881 164.0
90.863968 120.0
90.925392 132.0
91.035049 168.0
91.058502 248.0
91.065208 156.0
91.071938 192.0
91.130478 116.0
91.160881 156.0
91.182861 120.0
91.229301 272.0
91.284447 312.0
91.334167 236.0
91.348717 232.0
91.392868 172.0
91.428261 220.0
91.448204 156.0
91.468994 144.0
91.539436 172.0
91.568008 324.0
91.588959 264.0
91.615784 148.0
91.665169 108.0
91.68232 92.0
91.825302 308.0
91.842468 76.0
91.885033 116.0
91.947411 124.0
91.976036 124.0
92.031273 180.0
92.054321 124.0
92.115433 364.0
92.149246 172.0
92.186127 116.0
92.253296 172.0
92.321198 208.0
92.342201 208.0
92.363937 156.0
92.417503 168.0
92.450035 120.0
92.465347 156.0
92.51741 60.0
92.588661 156.0
92.60894 172.0
92.629707 176.0
92.67791 160.0
92.693237 180.0
92.72007 204.0
92.735405 132.0
92.778725 180.0
92.803413 84.0
92.828133 184.0
92.844688 180.0
92.94072 132.0
92.980408 392.0
93.007767 204.0
93.02121 400.0
93.048897 160.0
93.086487 156.0
93.103172 180.0
93.149864 168.0
93.229385 216.0
93.254494 160.0
93.332451 124.0
93.352806 204.0
93.399757 80.0
93.449776 160.0
93.486336 232.0
93.50943 168.0
93.538307 52.0
93.576805 176.0
93.60762 104.0
93.621094 180.0
93.655762 184.0
93.705849 164.0
93.730904 140.0
93.752098 108.0
93.815704 96.0
93.877403 200.0
93.890907 180.0
93.941536 176.0
94.005295 240.0
94.037537 36.0
94.052979 140.0
94.089653 172.0
94.134666 180.0
94.187004 164.0
94.277016 100.0
94.302139 152.0
94.348534 176.0
94.367867 200.0
94.394943 240.0
94.418144 136.0
94.440239 132.0
94.607277 188.0
94.6465 220.0
94.735588 140.0
94.76841 140.0
94.822083 188.0
94.853798 148.0
94.894508 160.0
94.919716 204.0
94.93911 140.0
95.01088 208.0
95.053825 176.0
95.104019 120.0
95.12796 200.0
95.148666 140.0
95.204979 84.0
95.269081 256.0
95.29628 188.0
95.331253 204.0
95.344856 148.0
95.37207 136.0
95.40123 140.0
95.426498 184.0
95.440109 188.0
95.455666 224.0
95.482422 188.0
95.552925 172.0
95.603516 120.0
95.622978 88.0
95.640495 84.0
95.659958 164.0
95.741737 92.0
95.77095 204.0
95.798225 196.0
95.823547 120.0
95.878113 140.0
95.896736 180.0
95.902512 100.0
95.9104 232.0
96.01458 140.0
96.053589 184.0
96.129684 120.0
96.190186 124.0
96.260475 188.0
96.336647 152.0
96.39917 188.0
96.459755 164.0
96.504379 136.0
96.532097 132.0
96.571213 128.0
96.731667 128.0
96.762985 124.0
96.788635 160.0
96.839363 168.0
96.929482 136.0
96.976509 128.0
97.007874 112.0
97.064735 168.0
97.123573 40.0
97.174576 76.0
97.211861 100.0
97.242943 124.0
97.329636 84.0
97.347313 100.0
97.366951 144.0
97.400337 56.0
97.520195 112.0
97.533958 148.0
97.592934 160.0
97.630295 64.0
97.697395 176.0
97.724716 164.0
97.740456 184.0
97.760139 152.0
97.805405 148.0
97.854622 132.0
97.897186 168.0
97.919807 156.0
97.935356 144.0
97.971451 212.0
97.98658 104.0
98.002342 84.0
98.025986 80.0
98.03978 136.0
98.077225 172.0
98.15242 172.0
98.181725 236.0
98.242874 152.0
98.272469 156.0
98.317848 100.0
98.331665 172.0
98.377068 136.0
98.404045 184.0
98.43232 148.0
98.480843 188.0
98.498962 232.0
98.580185 192.0
98.595352 140.0
98.617302 168.0
98.687248 184.0
98.726799 316.0
98.742615 124.0
98.778481 184.0
98.807152 172.0
98.833618 112.0
98.858597 384.0
98.942474 168.0
98.970932 172.0
98.999855 176.0
99.091011 104.0
99.114792 176.0
99.132622 112.0
99.169418 120.0
99.189507 112.0
99.228821 180.0
99.245613 216.0
99.277344 108.0
99.315025 52.0
99.334862 144.0
99.348747 216.0
99.425583 160.0
99.485359 124.0
99.521416 92.0
99.588837 80.0
99.595459 184.0
99.601219 132.0
99.607536 208.0
99.637634 160.0
99.749886 168.0
99.791435 80.0
99.809532 272.0
99.845329 84.0
99.889084 156.0
99.929871 184.0
99.938515 180.0
99.964691 204.0
99.978622 160.0
100.004494 128.0
100.032364 160.0
100.05426 156.0
100.100052 252.0
100.119972 124.0
100.143867 116.0
100.163788 160.0
100.207619 208.0
100.243484 132.0
100.311249 152.0
100.34642 156.0
100.381248 180.0
100.398979 268.0
100.434875 132.0
100.468788 228.0
100.502708 304.0
100.518669 168.0
100.538628 132.0
100.582535 128.0
100.598511 108.0
100.61248 64.0
100.658714 128.0
100.693054 200.0
100.91217 132.0
100.94416 148.0
100.964157 312.0
100.994553 244.0
101.016167 116.0
101.038887 268.0
101.090195 180.0
101.134224 164.0
101.184868 160.0
101.222313 152.0
101.250351 132.0
101.294411 96.0
101.313469 196.0
101.361549 188.0
101.392593 160.0
101.418381 208.0
101.43869 144.0
101.520355 148.0
101.536942 180.0
101.6147 168.0
101.683403 144.0
101.723549 180.0
101.750206 188.0
101.781212 172.0
101.821938 208.0
101.842018 132.0
101.906303 48.0
101.933517 304.0
101.952522 192.0
101.990707 152.0
102.046333 1688.0
102.089226 148.0
102.116867 156.0
102.166435 208.0
102.204079 164.0
102.230042 124.0
102.320679 140.0
102.393112 156.0
102.437424 336.0
102.483765 144.0
102.499886 100.0
102.523972 164.0
102.564377 128.0
102.596634 224.0
102.622841 116.0
102.705521 124.0
102.775208 236.0
102.788719 168.0
102.826027 188.0
102.832283 136.0
102.839043 164.0
102.864769 192.0
102.906731 104.0
102.949738 148.0
103.012352 180.0
103.048141 492.0
103.09317 128.0
103.11338 132.0
103.149757 192.0
103.180084 144.0
103.196259 160.0
103.289284 196.0
103.303444 108.0
103.388428 116.0
103.463326 188.0
103.531097 76.0
103.641426 124.0
103.655235 192.0
103.676003 184.0
103.711891 164.0
103.738838 188.0
103.757088 116.0
103.820259 152.0
103.844223 148.0
103.850533 172.0
103.870651 148.0
103.890938 172.0
103.921364 144.0
103.93557 108.0
103.961952 128.0
103.994423 144.0
104.020813 140.0
104.047203 116.0
104.06633 104.0
104.108116 164.0
104.142647 52.0
104.200119 192.0
104.225937 128.0
104.258453 156.0
104.282837 80.0
104.313332 160.0
104.379601 160.0
104.410927 164.0
104.424255 168.0
104.494331 144.0
104.61644 132.0
104.655121 108.0
104.677521 112.0
104.69381 192.0
104.791588 108.0
104.820114 108.0
104.847794 192.0
104.879211 152.0
104.936295 168.0
104.953499 144.0
104.989311 196.0
105.024963 292.0
105.048462 124.0
105.124916 204.0
105.191307 56.0
105.218613 128.0
105.246033 164.0
105.295609 148.0
105.360809 196.0
105.428238 128.0
105.465027 244.0
105.518181 112.0
105.540665 188.0
105.600266 168.0
105.696121 84.0
105.739098 148.0
105.757523 80.0
105.773895 224.0
105.909042 188.0
106.111603 180.0
106.139053 172.0
106.18708 172.0
106.210175 140.0
106.220451 192.0
106.356041 124.0
106.405312 88.0
106.421539 172.0
106.462799 44.0
106.55545 116.0
106.62368 156.0
106.674431 128.0
106.699104 196.0
106.72583 188.0
106.783409 124.0
106.797806 164.0
106.858177 104.0
106.904907 148.0
106.927429 176.0
106.943893 204.0
107.168365 132.0
107.232254 176.0
107.250801 184.0
107.265228 188.0
107.335052 152.0
107.389084 124.0
107.417824 152.0
107.506546 64.0
107.528847 248.0
107.584435 212.0
107.609756 148.0
107.628334 88.0
107.741936 96.0
107.809174 160.0
107.863861 188.0
107.945198 164.0
107.9627 184.0
107.983788 148.0
107.99826 304.0
108.012741 152.0
108.078949 212.0
108.101707 192.0
108.130684 112.0
108.163208 140.0
108.194847 52.0
108.22599 192.0
108.269394 184.0
108.290108 120.0
108.435135 148.0
108.482811 164.0
108.555382 156.0
108.6259 132.0
108.665314 200.0
108.681335 52.0
108.700592 136.0
108.746246 36.0
108.765251 228.0
108.826546 100.0
108.861923 184.0
108.893661 96.0
108.946739 116.0
108.972595 168.0
109.001686 176.0
109.041176 140.0
109.118088 292.0
109.176308 144.0
109.19503 224.0
109.23455 172.0
109.257431 128.0
109.274071 168.0
109.326096 208.0
109.401024 184.0
109.465569 176.0
109.501938 424.0
109.592636 152.0
109.625725 304.0
109.653069 132.0
109.692673 164.0
109.713516 176.0
109.728111 96.0
109.742706 184.0
109.757301 108.0
109.824036 104.0
109.842133 296.0
109.880035 128.0
109.939003 152.0
109.963829 164.0
109.978439 140.0
109.99305 176.0
110.061951 208.0
110.114159 204.0
110.151756 104.0
110.187271 184.0
110.222786 168.0
110.335495 156.0
110.456947 196.0
110.515839 212.0
110.548485 160.0
110.555634 192.0
110.632729 144.0
110.662041 136.0
110.728081 336.0
110.760468 136.0
110.804459 144.0
110.836693 220.0
110.873611 160.0
110.892471 136.0
110.941803 308.0
110.965996 272.0
110.995193 184.0
111.01886 320.0
111.03714 184.0
111.095871 116.0
111.13205 148.0
111.173416 92.0
111.215477 208.0
111.263763 148.0
111.28476 96.0
111.322556 128.0
111.353607 216.0
111.375061 200.0
111.421272 64.0
111.440125 272.0
111.478004 148.0
111.499023 88.0
111.513733 188.0
111.538956 100.0
111.595718 52.0
111.690353 228.0
111.707184 92.0
111.721909 132.0
111.74295 140.0
111.763985 248.0
111.778717 192.0
111.822044 204.0
111.875534 160.0
111.91391 228.0
111.947121 108.0
111.997673 160.0
112.023544 156.0
112.088264 116.0
112.181 184.0
112.204185 128.0
112.242142 180.0
112.282631 160.0
112.303299 60.0
112.328613 128.0
112.360252 164.0
112.390961 188.0
112.41407 208.0
112.552322 152.0
112.607231 200.0
112.656586 204.0
112.683281 116.0
112.714973 216.0
112.816422 168.0
112.841797 140.0
112.865891 340.0
112.975037 100.0
113.015228 200.0
113.046974 204.0
113.082947 108.0
113.125694 104.0
113.153923 304.0
113.186684 84.0
113.279488 128.0
113.297882 120.0
113.313766 156.0
113.413368 148.0
113.487572 168.0
113.54644 272.0
113.557999 188.0
113.633919 144.0
113.722481 196.0
113.784607 112.0
113.820702 140.0
113.887276 104.0
113.903534 116.0
113.929657 228.0
113.954514 164.0
113.988144 116.0
114.033142 176.0
114.069275 112.0
114.122429 180.0
114.14267 148.0
114.208679 172.0
114.250038 140.0
114.294716 148.0
114.328766 140.0
114.351189 200.0
114.403259 220.0
114.514175 136.0
114.541679 120.0
114.648987 176.0
114.667389 68.0
114.704964 140.0
114.782509 132.0
114.818817 156.0
114.9617 168.0
114.987312 160.0
115.002251 84.0
115.047081 252.0
115.089775 112.0
115.1987 88.0
115.23288 152.0
115.25425 40.0
115.287033 208.0
115.307678 140.0
115.414558 148.0
115.435944 188.0
115.506104 184.0
115.566429 212.0
115.581406 180.0
115.610336 192.0
115.643463 164.0
115.767639 144.0
115.782631 76.0
115.810471 184.0
115.855461 236.0
115.880264 208.0
115.927498 200.0
115.962601 60.0
115.981888 128.0
116.011902 260.0
116.037575 176.0
116.16201 124.0
116.312218 168.0
116.37233 156.0
116.445343 44.0
116.480972 164.0
116.574249 188.0
116.59359 76.0
116.661949 156.0
116.726875 144.0
116.756981 160.0
116.784935 244.0
116.877441 276.0
116.96138 184.0
116.984772 180.0
117.011986 220.0
117.027634 188.0
117.041313 156.0
117.066872 168.0
117.103302 140.0
117.181038 196.0
117.200432 140.0
117.241287 208.0
117.267235 148.0
117.308189 144.0
117.325439 160.0
117.438911 152.0
117.518333 300.0
117.55407 156.0
117.570923 232.0
117.62529 40.0
117.668472 176.0
117.685249 140.0
117.69294 108.0
117.708458 368.0
117.746208 192.0
117.808846 172.0
117.880775 360.0
117.942688 188.0
117.981735 156.0
118.005516 44.0
118.027138 180.0
118.055252 180.0
118.115807 88.0
118.223991 124.0
118.297585 140.0
118.317062 168.0
118.338715 208.0
118.3647 128.0
118.429672 100.0
118.475159 216.0
118.503326 176.0
118.531197 116.0
118.557495 124.0
118.609673 108.0
118.67672 136.0
118.717918 204.0
118.756958 188.0
118.843735 136.0
118.88279 88.0
118.904495 164.0
118.991249 112.0
119.015205 52.0
119.036919 320.0
119.062981 156.0
119.106422 168.0
119.148445 220.0
119.173767 112.0
119.249825 104.0
119.310692 148.0
119.356354 156.0
119.394127 108.0
119.460747 180.0
119.50943 184.0
119.533966 208.0
119.591873 200.0
119.630486 140.0
119.689819 208.0
119.754608 284.0
119.791634 136.0
119.81778 176.0
119.848282 192.0
119.881889 256.0
119.944168 52.0
119.97332 140.0
120.051003 76.0
120.066269 104.0
120.123764 168.0
120.153526 104.0
120.179703 196.0
120.293602 212.0
120.312836 176.0
120.360191 128.0
120.411102 152.0
120.426392 180.0
120.461342 176.0
120.553101 148.0
120.577141 104.0
120.677155 208.0
120.710495 196.0
120.7332 200.0
120.818909 212.0
120.848305 140.0
120.863617 156.0
120.900818 176.0
120.921806 156.0
121.013016 204.0
121.091293 56.0
121.135101 120.0
121.181107 156.0
121.205208 216.0
121.240273 140.0
121.29068 160.0
121.378372 140.0
121.404488 176.0
121.429726 168.0
121.518753 92.0
121.580193 132.0
121.602142 48.0
121.660599 144.0
121.705948 196.0
121.780586 324.0
121.823921 312.0
121.855965 184.0
121.865257 108.0
121.875793 164.0
121.930054 384.0
121.960159 136.0
121.995331 184.0
122.018768 456.0
122.056892 120.0
122.074486 172.0
122.114067 320.0
122.167435 184.0
122.19986 136.0
122.246071 180.0
122.309898 196.0
122.404564 168.0
122.492661 252.0
122.543335 168.0
122.567574 276.0
122.596214 104.0
122.664543 160.0
122.699814 160.0
122.796745 180.0
122.828247 200.0
122.865227 132.0
122.924797 116.0
122.997627 172.0
123.048332 128.0
123.068275 88.0
123.083733 48.0
123.132759 160.0
123.191483 412.0
123.275917 136.0
123.311272 200.0
123.333374 112.0
123.425346 128.0
123.443916 304.0
123.485374 204.0
123.510269 172.0
123.534599 112.0
123.567787 120.0
123.667366 164.0
123.768661 180.0
123.807411 188.0
123.838356 160.0
123.871078 112.0
123.935333 180.0
124.012894 172.0
124.077179 168.0
124.09935 96.0
124.148132 156.0
124.186768 304.0
124.207573 60.0
124.236893 232.0
124.261261 176.0
124.302032 192.0
124.387756 148.0
124.420738 196.0
124.447701 136.0
124.565407 44.0
124.635155 152.0
124.843552 56.0
124.858803 200.0
124.914406 148.0
124.961815 180.0
125.014488 416.0
125.045441 188.0
125.096878 148.0
125.130272 244.0
125.150314 176.0
125.240524 156.0
125.25721 60.0
125.283943 136.0
125.306221 76.0
125.361931 124.0
125.381989 132.0
125.43325 96.0
125.468918 140.0
125.491211 176.0
125.570297 172.0
125.60495 160.0
125.638412 152.0
125.667419 196.0
125.736595 152.0
125.82811 220.0
125.85215 360.0
125.890633 76.0
125.924133 124.0
125.971039 180.0
125.99807 200.0
126.018288 136.0
126.045471 204.0
126.111069 192.0
126.14785 132.0
126.185936 188.0
126.205704 136.0
126.255539 212.0
126.286217 196.0
126.349747 220.0
126.393188 176.0
126.458496 148.0
126.483116 180.0
126.635895 172.0
126.727226 136.0
126.74778 184.0
126.787727 140.0
126.863937 180.0
126.906532 208.0
126.931198 144.0
126.956688 208.0
126.978294 136.0
127.014183 344.0
127.040199 140.0
127.065781 136.0
127.090454 160.0
127.119629 112.0
127.166321 184.0
127.18322 108.0
127.233353 228.0
127.236969 276.0
127.27578 220.0
127.30146 136.0
127.330658 160.0
127.382195 216.0
127.438484 68.0
127.520752 160.0
127.590454 240.0
127.685753 136.0
127.716026 96.0
127.861244 116.0
127.8815 108.0
127.933266 148.0
127.983902 196.0
128.006989 188.0
128.039093 148.0
128.067078 188.0
128.100754 160.0
128.108017 60.0
128.116943 136.0
128.140457 120.0
128.158493 108.0
128.205811 76.0
128.226089 192.0
128.244125 236.0
128.286957 200.0
128.32077 112.0
128.338806 100.0
128.370377 56.0
128.396072 152.0
128.438904 208.0
128.458344 148.0
128.532791 192.0
128.605011 116.0
128.634354 176.0
128.826309 52.0
128.862061 184.0
128.918945 168.0
128.952774 140.0
128.984482 260.0
129.009354 176.0
129.045395 440.0
129.090744 132.0
129.122406 140.0
129.138245 204.0
129.156342 168.0
129.183487 132.0
129.201584 140.0
129.225891 172.0
129.276199 176.0
129.304993 160.0
129.400742 120.0
129.436966 168.0
129.455078 136.0
129.489059 100.0
129.532089 44.0
129.570602 100.0
129.596771 176.0
129.629517 280.0
129.654449 124.0
129.784973 76.0
129.831268 104.0
129.867569 196.0
129.926544 52.0
129.95636 172.0
130.042267 212.0
130.070221 168.0
130.123993 180.0
130.153503 88.0
130.212555 96.0
130.264801 168.0
130.285248 176.0
130.317047 136.0
130.446594 132.0
130.525314 164.0
130.633057 180.0
130.669464 124.0
130.708145 196.0
130.796906 220.0
130.817383 40.0
130.837875 112.0
130.897079 184.0
130.925491 160.0
130.985901 44.0
131.00412 112.0
131.026901 140.0
131.065109 224.0
131.116013 156.0
131.159073 72.0
131.234604 184.0
131.336929 248.0
131.375778 136.0
131.400803 96.0
131.421341 116.0
131.43959 52.0
131.536224 368.0
131.580643 176.0
131.696609 132.0
131.712204 200.0
131.738068 372.0
131.777084 144.0
131.818649 52.0
131.857513 84.0
131.888123 160.0
131.903214 168.0
131.926086 108.0
131.953506 152.0
132.008392 192.0
132.030945 172.0
132.079285 140.0
132.104446 112.0
132.186813 100.0
132.223434 192.0
132.245239 136.0
132.308136 172.0
132.351624 52.0
132.381393 132.0
132.425766 200.0
132.456985 204.0
132.522385 160.0
132.562378 196.0
132.587585 40.0
132.620651 144.0
132.695312 140.0
132.76181 152.0
132.86644 208.0
132.904037 148.0
132.94075 104.0
132.963699 148.0
133.033066 164.0
133.055527 92.0
133.097351 172.0
133.195236 184.0
133.243851 132.0
133.324265 180.0
133.424896 144.0
133.442581 152.0
133.448792 184.0
133.503586 136.0
133.521988 112.0
133.634705 88.0
133.680725 172.0
133.724442 124.0
133.755997 176.0
133.798111 192.0
133.83725 164.0
133.877792 164.0
133.968521 148.0
134.014175 232.0
134.056076 60.0
134.07933 180.0
134.129257 80.0
134.14827 148.0
134.178253 148.0
134.210526 132.0
134.261261 148.0
134.309067 192.0
134.351212 88.0
134.369675 144.0
134.392822 116.0
134.431976 132.0
134.468903 164.0
134.528915 112.0
134.570465 104.0
134.609726 144.0
134.635117 136.0
134.653595 128.0
134.720688 172.0
134.752274 224.0
134.863846 172.0
134.93782 48.0
134.98764 132.0
135.032639 280.0
135.056778 148.0
135.14151 188.0
135.224991 216.0
135.273285 140.0
135.298737 204.0
135.314957 124.0
135.338104 84.0
135.358948 72.0
135.377472 100.0
135.407211 276.0
135.460846 72.0
135.509506 136.0
135.52803 168.0
135.54657 112.0
135.574387 56.0
135.591629 144.0
135.60611 208.0
135.630005 36.0
135.666718 172.0
135.738968 160.0
135.776077 188.0
135.80159 92.0
135.820145 72.0
135.847977 132.0
135.873505 72.0
135.931503 152.0
136.009247 456.0
136.05452 80.0
136.082382 96.0
136.156693 188.0
136.200821 32.0
136.287689 184.0
136.333252 112.0
136.363464 132.0
136.393677 96.0
136.42775 176.0
136.446182 244.0
136.50528 136.0
136.537842 116.0
136.591324 220.0
136.705338 144.0
136.730942 180.0
136.763519 120.0
136.791458 224.0
136.812668 180.0
136.848648 132.0
136.917191 304.0
136.938141 176.0
136.980072 284.0
137.014816 1304.0
137.077927 172.0
137.101227 152.0
137.171158 88.0
137.222198 176.0
137.265869 204.0
137.336716 132.0
137.353043 156.0
137.395035 212.0
137.433838 228.0
137.453354 72.0
137.546753 200.0
137.586395 156.0
137.626541 188.0
137.670044 180.0
137.698486 112.0
137.740524 260.0
137.76622 128.0
137.796585 188.0
137.824631 152.0
137.891953 128.0
137.956955 168.0
137.983566 236.0
138.015686 472.0
138.079437 124.0
138.204437 348.0
138.257248 120.0
138.297028 148.0
138.360229 112.0
138.414093 196.0
138.43985 184.0
138.542908 204.0
138.589767 188.0
138.669968 180.0
138.690536 120.0
138.716324 172.0
138.75148 220.0
138.812973 144.0
138.859589 116.0
138.896881 44.0
138.917984 60.0
138.97702 172.0
139.01619 524.0
139.091644 116.0
139.129196 160.0
139.21843 176.0
139.263672 180.0
139.28653 48.0
139.310028 120.0
139.344879 324.0
139.380508 256.0
139.451019 56.0
139.512131 140.0
139.53093 180.0
139.601471 180.0
139.625122 148.0
139.69426 188.0
139.73085 40.0
139.761429 96.0
139.843369 132.0
139.863831 220.0
139.907349 108.0
139.948212 204.0
140.001541 100.0
140.021774 148.0
140.052567 240.0
140.083984 92.0
140.100464 160.0
140.194717 48.0
140.239502 164.0
140.284286 128.0
140.373871 148.0
140.402176 136.0
140.456421 80.0
140.50531 260.0
140.529556 180.0
140.562592 76.0
140.611969 152.0
140.784485 124.0
140.849518 180.0
140.854553 96.0
140.863266 148.0
140.935593 252.0
141.014694 128.0
141.058563 180.0
141.138947 44.0
141.172058 140.0
141.21463 44.0
141.240646 116.0
141.457977 192.0
141.508057 104.0
141.524628 372.0
141.544556 240.0
141.616989 152.0
141.652222 160.0
141.683319 140.0
141.704636 100.0
141.799423 320.0
141.834976 104.0
141.887131 76.0
141.913849 164.0
141.941666 188.0
142.012589 168.0
142.041275 92.0
142.148041 120.0
142.207977 204.0
142.314194 188.0
142.364059 132.0
142.623032 172.0
142.725418 120.0
142.791855 180.0
142.841797 144.0
142.956009 32.0
143.009247 140.0
143.065491 128.0
143.10376 168.0
143.220276 236.0
143.259033 148.0
143.286972 52.0
143.33725 160.0
143.382294 148.0
143.404938 112.0
143.44693 164.0
143.494324 172.0
143.625488 172.0
143.71991 180.0
143.754318 160.0
143.800476 152.0
143.895142 140.0
143.954834 124.0
144.062317 172.0
144.119659 208.0
144.167145 124.0
144.202682 168.0
144.234375 188.0
144.377838 148.0
144.417053 180.0
144.440018 168.0
144.475906 176.0
144.523743 392.0
144.567719 148.0
144.641769 140.0
144.681717 228.0
144.765518 136.0
144.830322 132.0
144.923218 200.0
144.947571 188.0
144.984268 300.0
145.010727 11280.0
145.121017 184.0
145.187225 128.0
145.211884 80.0
145.230896 180.0
145.283234 192.0
145.319229 28.0
145.456024 144.0
145.486679 264.0
145.528046 64.0
145.564056 48.0
145.590469 152.0
145.659943 156.0
145.68895 168.0
145.715195 248.0
145.806702 156.0
145.836182 216.0
145.870605 156.0
145.888412 124.0
145.972565 200.0
146.017746 7252.0
146.075378 116.0
146.100052 180.0
146.147125 216.0
146.193893 124.0
146.225174 108.0
146.259079 188.0
146.282944 152.0
146.301422 152.0
146.439453 136.0
146.456741 204.0
146.492447 172.0
146.521362 212.0
146.552673 84.0
146.617737 128.0
146.640656 176.0
146.668518 204.0
146.726212 136.0
146.752731 76.0
146.796127 108.0
146.84436 168.0
146.880554 128.0
146.904465 184.0
146.945679 188.0
146.964096 216.0
147.016418 940.0
147.061508 192.0
147.087982 108.0
147.134872 248.0
147.159027 152.0
147.199127 104.0
147.235352 100.0
147.253601 208.0
147.286072 100.0
147.317474 156.0
147.346466 164.0
147.377869 104.0
147.427673 164.0
147.453278 136.0
147.489044 136.0
147.527725 48.0
147.576065 208.0
147.602951 168.0
147.646194 116.0
147.812424 180.0
147.817505 128.0
147.826889 156.0
147.835495 80.0
147.874161 196.0
147.910721 184.0
147.949783 160.0
148.001373 196.0
148.0177 140.0
148.02182 240.0
148.07457 52.0
148.093948 160.0
148.138794 164.0
148.168442 64.0
148.24173 168.0
148.423538 136.0
148.573914 40.0
148.62085 140.0
148.644272 220.0
148.664032 144.0
148.714661 140.0
148.758347 32.0
148.793289 288.0
148.862747 204.0
148.893906 164.0
148.9021 136.0
148.912033 192.0
148.965149 124.0
148.986618 280.0
149.014648 2108.0
149.059509 328.0
149.08139 236.0
149.18103 136.0
149.326935 96.0
149.489929 132.0
149.54834 184.0
149.613449 192.0
149.665192 224.0
149.694412 200.0
149.718765 168.0
149.752869 168.0
149.788574 152.0
149.845215 176.0
149.874664 192.0
149.905151 136.0
149.952652 80.0
149.969711 152.0
150.015076 456.0
150.035522 164.0
150.053421 140.0
150.069656 176.0
150.123718 240.0
150.155014 200.0
150.20285 124.0
150.233063 36.0
150.28186 200.0
150.335297 156.0
150.375931 196.0
150.452698 136.0
150.505524 184.0
150.530838 92.0
150.584564 76.0
150.63736 104.0
150.667618 152.0
150.689606 180.0
150.755585 160.0
150.792236 176.0
150.848465 96.0
150.89711 160.0
150.929138 160.0
150.978409 212.0
151.012924 920.0
151.162155 92.0
151.185989 196.0
151.2276 104.0
151.259415 140.0
151.301041 120.0
151.318176 172.0
151.352448 204.0
151.433258 96.0
151.463165 156.0
151.587601 144.0
151.631714 112.0
151.706909 208.0
151.766541 216.0
151.798416 120.0
151.852371 128.0
151.874451 184.0
151.91861 64.0
151.948044 164.0
151.993622 164.0
152.046204 132.0
152.068283 136.0
152.103485 236.0
152.17485 156.0
152.273361 148.0
152.322662 80.0
152.370331 172.0
152.389984 100.0
152.409637 84.0
152.439117 132.0
152.488586 156.0
152.517776 104.0
152.53743 124.0
152.571854 152.0
152.652985 188.0
152.68988 212.0
152.714478 40.0
152.763672 120.0
152.982681 76.0
153.014328 520.0
153.063934 108.0
153.091019 148.0
153.145203 152.0
153.288773 176.0
153.335617 184.0
153.418732 152.0
153.438446 256.0
153.462402 224.0
153.52475 160.0
153.546387 148.0
153.574081 172.0
153.591339 108.0
153.616013 148.0
153.675217 104.0
153.725479 180.0
153.822205 144.0
153.865265 132.0
153.882553 144.0
153.909714 192.0
153.98349 132.0
154.027924 176.0
154.092789 160.0
154.134491 164.0
154.248169 64.0
154.339645 128.0
154.442078 200.0
154.465775 232.0
154.510315 136.0
154.56546 180.0
154.599838 152.0
154.676117 128.0
154.74791 148.0
154.770187 124.0
154.832092 148.0
154.864304 116.0
154.892899 248.0
154.940689 148.0
154.970932 460.0
155.007248 192.0
155.040207 44.0
155.072418 140.0
155.112076 124.0
155.15918 180.0
155.258362 232.0
155.288132 144.0
155.310455 160.0
155.342697 156.0
155.414185 172.0
155.460602 176.0
155.494049 344.0
155.588379 112.0
155.63945 112.0
155.665344 228.0
155.692673 136.0
155.774628 208.0
155.799469 160.0
155.854248 180.0
155.906326 88.0
155.936142 152.0
155.963486 188.0
156.054474 200.0
156.064667 120.0
156.072342 164.0
156.094513 368.0
156.132553 112.0
156.19722 164.0
156.246979 192.0
156.365387 192.0
156.407074 196.0
156.436111 236.0
156.580521 52.0
156.627853 108.0
156.647781 144.0
156.687637 160.0
156.728317 160.0
156.759903 68.0
156.804749 120.0
156.890961 172.0
156.91301 176.0
156.931885 160.0
156.968643 364.0
157.05159 96.0
157.075516 108.0
157.211258 256.0
157.258682 128.0
157.295914 192.0
157.315598 120.0
157.323654 152.0
157.440201 176.0
157.478714 240.0
157.505875 108.0
157.590515 100.0
157.599564 88.0
157.606781 144.0
157.688278 124.0
157.723267 88.0
157.755768 156.0
157.83577 60.0
157.897293 172.0
157.938828 184.0
157.97583 212.0
157.998093 196.0
158.050888 188.0
158.100937 164.0
158.127869 288.0
158.19104 300.0
158.243607 200.0
158.266144 168.0
158.296204 124.0
158.320618 208.0
158.351288 164.0
158.38887 136.0
158.431442 112.0
158.476547 200.0
158.581802 224.0
158.626175 148.0
158.646973 232.0
158.718292 36.0
158.769836 168.0
158.804947 60.0
158.837555 196.0
158.85762 72.0
158.885223 44.0
158.920746 220.0
158.975433 4592.0
159.024979 300.0
159.087189 184.0
159.128662 132.0
159.161301 216.0
159.241669 168.0
159.288559 204.0
159.309479 176.0
159.404892 144.0
159.437637 28.0
159.671021 144.0
159.751404 208.0
159.779602 136.0
159.807281 196.0
159.915482 128.0
159.935623 168.0
159.980591 428.0
160.006104 220.0
160.034286 452.0
160.099274 40.0
160.121948 136.0
160.14209 164.0
160.177689 92.0
160.226593 132.0
160.270569 156.0
160.300812 148.0
160.434387 152.0
160.51181 192.0
160.520752 192.0
160.552902 56.0
160.663681 48.0
160.686584 220.0
160.73201 140.0
160.797623 172.0
160.81781 108.0
160.843048 124.0
160.891022 96.0
160.911209 140.0
160.97377 3400.0
161.009689 140.0
161.031525 280.0
161.105682 88.0
161.123367 112.0
161.189056 164.0
161.226959 108.0
161.350906 108.0
161.371048 144.0
161.421356 180.0
161.459549 60.0
161.477249 136.0
161.56073 176.0
161.583496 156.0
161.653625 140.0
161.682175 64.0
161.744339 324.0
161.788498 80.0
161.83078 152.0
161.861923 152.0
161.932404 48.0
161.968292 132.0
162.012726 404.0
162.125366 64.0
162.160538 96.0
162.239426 172.0
162.272385 164.0
162.385742 172.0
162.462601 252.0
162.518417 84.0
162.562653 316.0
162.632614 124.0
162.650391 116.0
162.68811 116.0
162.739243 88.0
162.866211 296.0
162.896698 204.0
162.929718 104.0
162.972488 304.0
162.990646 404.0
163.059204 180.0
163.125397 284.0
163.239807 132.0
163.257614 112.0
163.456039 160.0
163.515488 164.0
163.619843 212.0
163.65712 120.0
163.697861 188.0
163.715683 144.0
163.781693 140.0
163.814621 176.0
163.942474 164.0
164.007233 112.0
164.061661 164.0
164.092621 160.0
164.100922 196.0
164.137238 164.0
164.202454 136.0
164.245819 112.0
164.284088 68.0
164.324905 156.0
164.401459 176.0
164.467819 100.0
164.531174 360.0
164.589157 120.0
164.618439 160.0
164.641434 152.0
164.714539 160.0
164.767822 120.0
164.838135 200.0
164.856018 124.0
164.881577 176.0
164.913925 176.0
164.961761 212.0
164.978699 184.0
165.009384 188.0
165.042618 168.0
165.06308 56.0
165.223801 224.0
165.267715 88.0
165.290741 136.0
165.36496 148.0
165.421265 164.0
165.441742 92.0
165.479004 156.0
165.524048 168.0
165.583206 148.0
165.607468 156.0
165.779846 136.0
165.916992 148.0
165.94902 136.0
166.020828 152.0
166.044083 148.0
166.079803 32.0
166.215775 184.0
166.254959 212.0
166.320999 252.0
166.345917 320.0
166.498169 104.0
166.541824 132.0
166.652283 128.0
166.677979 80.0
166.734528 56.0
166.786438 160.0
166.815582 216.0
166.855331 228.0
166.878479 144.0
166.962021 164.0
166.968979 204.0
166.994186 124.0
167.038986 240.0
167.143402 204.0
167.165756 152.0
167.175446 124.0
167.236053 376.0
167.32872 124.0
167.348206 148.0
167.390518 84.0
167.453522 104.0
167.491531 216.0
167.508102 140.0
167.52832 192.0
167.604324 404.0
167.626129 232.0
167.748642 148.0
167.792465 228.0
167.841461 96.0
167.870132 132.0
167.908508 164.0
167.944611 272.0
167.972992 184.0
168.016846 116.0
168.075394 200.0
168.130386 204.0
168.242401 180.0
168.290421 196.0
168.415482 196.0
168.50563 148.0
168.5811 120.0
168.608154 196.0
168.64238 164.0
168.683121 152.0
168.760666 100.0
168.778778 200.0
168.885529 172.0
168.907074 124.0
168.981033 204.0
169.073669 124.0
169.153915 120.0
169.18158 168.0
169.218628 176.0
169.304871 172.0
169.337585 128.0
169.36763 224.0
169.402512 104.0
169.472458 152.0
169.52002 124.0
169.547607 132.0
169.602036 240.0
169.801682 180.0
169.847702 140.0
169.876892 60.0
169.918411 164.0
169.964127 188.0
170.011826 252.0
170.110443 56.0
170.128616 120.0
170.149384 128.0
170.245468 76.0
170.287018 224.0
170.305191 140.0
170.357147 148.0
170.414307 56.0
170.490982 164.0
170.541855 148.0
170.579132 164.0
170.624832 108.0
170.749649 192.0
170.912689 188.0
170.940659 180.0
170.976822 776.0
171.015244 192.0
171.08313 192.0
171.124359 52.0
171.166016 216.0
171.202484 124.0
171.238937 104.0
171.281921 168.0
171.306656 220.0
171.366577 144.0
171.403061 136.0
171.439545 152.0
171.526581 112.0
171.55423 96.0
171.579926 196.0
171.61647 160.0
171.625961 140.0
171.632675 232.0
171.64502 160.0
171.650696 204.0
171.689819 92.0
171.720276 164.0
171.84111 164.0
171.898514 176.0
171.950699 236.0
171.980438 628.0
172.026398 144.0
172.099823 212.0
172.147873 152.0
172.183151 128.0
172.230072 116.0
172.303223 152.0
172.376389 172.0
172.402512 140.0
172.445251 252.0
172.470474 164.0
172.512299 152.0
172.656097 204.0
172.673492 80.0
172.708405 260.0
172.752884 124.0
172.873306 136.0
172.925583 212.0
172.969101 448.0
172.989563 820.0
173.059082 40.0
173.087891 224.0
173.145493 84.0
173.196228 184.0
173.218842 96.0
173.254745 136.0
173.349838 144.0
173.397018 148.0
173.562607 120.0
173.598877 144.0
173.639313 220.0
173.740219 144.0
173.762405 196.0
173.903214 196.0
173.942581 140.0
173.975632 264.0
174.029221 180.0
174.073318 136.0
174.097717 136.0
174.128998 144.0
174.189011 132.0
174.198135 112.0
174.208679 168.0
174.283997 84.0
174.307648 160.0
174.347061 176.0
174.378601 44.0
174.499527 228.0
174.594177 256.0
174.667831 108.0
174.689789 148.0
174.84288 180.0
174.930969 136.0
174.966629 308.0
174.977356 168.0
174.984833 288.0
175.063309 212.0
175.112656 120.0
175.144257 164.0
175.169525 176.0
175.190125 176.0
175.220657 80.0
175.290787 156.0
175.323425 108.0
175.376129 156.0
175.473679 176.0
175.492126 116.0
175.521133 84.0
175.565964 156.0
175.626465 140.0
175.676285 140.0
175.696335 160.0
175.737427 172.0
175.774231 232.0
175.824509 124.0
175.862579 128.0
175.890488 180.0
175.922256 216.0
175.98996 284.0
176.02626 560.0
176.075317 120.0
176.160339 216.0
176.186249 52.0
176.278732 228.0
176.464661 188.0
176.503418 100.0
176.545731 144.0
176.60083 172.0
176.653992 148.0
176.752472 180.0
176.868515 84.0
176.936676 144.0
177.034058 292.0
177.072388 104.0
177.093567 96.0
177.117416 112.0
177.223373 136.0
177.271072 164.0
177.34111 156.0
177.4142 104.0
177.431442 96.0
177.459274 160.0
177.478745 220.0
177.538818 176.0
177.671448 76.0
177.705933 156.0
177.772278 120.0
177.793503 148.0
177.936844 112.0
178.007584 432.0
178.0522 168.0
178.074677 168.0
178.122742 224.0
178.189697 156.0
178.239639 120.0
178.279495 116.0
178.303421 112.0
178.329987 148.0
178.43367 300.0
178.452271 156.0
178.480759 180.0
178.518753 148.0
178.544266 228.0
178.569275 136.0
178.609177 160.0
178.720917 180.0
178.768814 208.0
178.7901 132.0
178.840668 372.0
178.896576 112.0
178.939163 160.0
179.008392 36.0
179.032364 164.0
179.077637 200.0
179.116486 348.0
179.146576 200.0
179.17868 176.0
179.202835 144.0
179.322754 192.0
179.373398 76.0
179.392059 104.0
179.416061 224.0
179.442719 176.0
179.490707 120.0
179.544052 112.0
179.613388 132.0
179.661407 152.0
179.692245 164.0
179.722778 144.0
179.767761 112.0
179.774811 96.0
179.893982 108.0
179.939087 168.0
179.972107 152.0
180.01001 92.0
180.040634 184.0
180.092636 220.0
180.117554 196.0
180.155579 316.0
180.190811 436.0
180.260605 144.0
180.290176 124.0
180.297012 92.0
180.306427 160.0
180.33223 200.0
180.365112 192.0
180.38884 128.0
180.411835 180.0
180.437454 172.0
180.448761 172.0
180.463531 184.0
180.50058 264.0
180.52803 192.0
180.533249 108.0
180.569443 172.0
180.585358 252.0
180.605881 128.0
180.6353 424.0
180.683578 228.0
180.718369 172.0
180.744873 124.0
180.770676 380.0
180.781982 116.0
180.805908 284.0
180.840103 452.0
180.907715 416.0
180.988403 397456.0
181.046387 92.0
181.053635 252.0
181.071701 372.0
181.091949 96.0
181.128616 168.0
181.171478 392.0
181.212051 152.0
181.240341 788.0
181.293488 252.0
181.313766 108.0
181.364685 180.0
181.399094 324.0
181.429306 7404.0
181.455307 404.0
181.462234 244.0
181.492065 424.0
181.508499 132.0
181.545425 128.0
181.57254 244.0
181.601685 148.0
181.624893 216.0
181.642548 140.0
181.677017 248.0
181.712112 148.0
181.751068 136.0
181.773956 56.0
181.795029 68.0
181.826828 196.0
181.84903 212.0
181.899261 72.0
181.930557 160.0
181.934265 164.0
181.953369 400.0
181.990356 54280.0
182.061157 276.0
182.089325 204.0
182.113358 200.0
182.133255 144.0
182.158173 168.0
182.177475 72.0
182.210892 136.0
182.25238 92.0
182.279221 104.0
182.290619 104.0
182.3022 148.0
182.340637 156.0
182.375885 220.0
182.420883 52.0
182.456375 564.0
182.511627 132.0
182.544342 196.0
182.58136 176.0
182.606857 120.0
182.617493 188.0
182.651688 168.0
182.681168 180.0
182.704086 216.0
182.750748 180.0
182.783951 176.0
182.816376 208.0
182.865265 348.0
182.884705 188.0
182.916672 272.0
182.936279 476.0
182.98497 133680.0
183.06424 128.0
183.081619 252.0
183.098511 132.0
183.134903 236.0
183.161194 348.0
183.178192 220.0
183.203751 248.0
183.235245 156.0
183.266037 316.0
183.281708 436.0
183.301193 236.0
183.312103 272.0
183.322937 276.0
183.347946 188.0
183.382019 408.0
183.386383 308.0
183.427612 612.0
183.447098 404.0
183.469711 232.0
183.516449 252.0
183.555038 92.0
183.60434 160.0
183.63031 132.0
183.683304 204.0
183.710724 80.0
183.733627 72.0
183.742355 116.0
183.781769 60.0
183.804123 264.0
183.832581 120.0
183.885681 120.0
183.911606 152.0
183.987579 9712.0
184.062881 68.0
184.068008 36.0
184.090668 88.0
184.121384 88.0
184.153732 128.0
184.234909 96.0
184.270279 48.0
184.2901 76.0
184.317581 140.0
184.353699 104.0
184.379272 40.0
184.443573 76.0
184.465317 68.0
184.497055 132.0
184.527496 196.0
184.576614 68.0
184.61821 104.0
184.669342 48.0
184.710587 88.0
184.768799 76.0
184.806534 72.0
184.852692 88.0
184.882675 56.0
184.906281 88.0
184.915482 76.0
184.92099 108.0
184.941833 108.0
184.9814 1400.0
185.013077 156.0
185.05603 328.0
185.109741 204.0
185.137833 68.0
185.183716 208.0
185.206497 96.0
185.240494 148.0
185.291168 120.0
185.323151 104.0
185.356201 100.0
185.396255 92.0
185.430054 172.0
185.462234 152.0
185.499252 128.0
185.523132 148.0
185.557571 68.0
185.643539 40.0
185.677139 72.0
185.695908 104.0
185.756821 52.0
185.800858 60.0
185.83342 76.0
185.884964 96.0
185.949326 132.0
185.957703 40.0
185.967255 88.0
186.002762 72.0
186.058685 168.0
186.12384 152.0
186.155121 64.0
186.227036 44.0
186.28952 104.0
186.311249 200.0
186.343857 36.0
186.419861 140.0
186.455261 40.0
186.477005 48.0
186.524185 168.0
186.573303 160.0
186.640121 80.0
186.797852 48.0
186.876755 80.0
186.969238 708.0
187.131607 208.0
187.197952 104.0
187.293274 32.0
187.323227 132.0
187.3423 72.0
187.572266 92.0
187.617554 112.0
187.696609 96.0
187.978348 172.0
187.999405 120.0
188.033142 164.0
188.070374 180.0
188.119507 64.0
188.22757 88.0
188.384399 44.0
188.428101 40.0
188.507339 208.0
188.745163 44.0
188.805328 92.0
188.967545 956.0
189.20755 136.0
189.319824 112.0
189.418427 176.0
189.44429 136.0
189.593781 72.0
189.615692 128.0
189.78566 124.0
189.843246 100.0
189.947464 44.0
189.974899 212.0
190.024277 48.0
190.076416 40.0
190.101105 100.0
190.298752 48.0
190.348175 108.0
190.367386 40.0
190.416824 56.0
190.43605 60.0
190.525742 172.0
190.66684 212.0
190.721802 36.0
190.771286 112.0
190.906006 128.0
190.983093 148.0
191.073792 156.0
191.120575 88.0
191.197617 80.0
191.316727 172.0
191.348892 92.0
191.405899 128.0
191.434372 100.0
191.497726 88.0
191.656845 68.0
191.800812 60.0
191.84491 128.0
191.986267 120.0
192.008347 180.0
192.032425 100.0
192.07103 100.0
192.139999 52.0
192.175873 136.0
192.197937 128.0
192.222778 96.0
192.272446 64.0
192.352493 100.0
192.429794 184.0
192.462921 116.0
192.504898 240.0
192.540237 112.0
192.617584 40.0
192.653488 48.0
192.702011 156.0
192.855209 64.0
192.954727 124.0
193.206406 28.0
193.353058 80.0
193.571747 36.0
193.599442 128.0
193.632675 92.0
193.679764 52.0
193.715775 60.0
193.754562 60.0
193.796112 160.0
193.884796 172.0
193.917404 52.0
194.04689 108.0
194.162033 40.0
194.206406 204.0
194.339554 92.0
194.36731 56.0
194.425583 44.0
194.497742 144.0
194.661545 44.0
194.708755 116.0
194.77626 92.0
194.923203 184.0
195.001038 1300.0
195.044952 180.0
195.111664 44.0
195.186737 92.0
195.234009 56.0
195.406479 36.0
195.453781 68.0
195.746048 72.0
195.982819 172.0
196.007019 144.0
196.244827 156.0
196.328476 180.0
196.353577 48.0
196.375885 32.0
196.9142 96.0
196.967346 120.0
196.999374 404.0
197.185562 64.0
197.41481 40.0
197.772919 68.0
197.887695 116.0
197.98291 168.0
198.251846 84.0
198.48732 204.0
198.866043 76.0
199.180527 52.0
199.290085 216.0
199.391251 128.0
199.489624 72.0
199.543045 144.0
199.700516 104.0
199.995956 136.0
200.173325 84.0
200.306656 128.0
200.796127 52.0
200.934357 88.0
200.980804 180.0
201.0952 68.0
201.326706 96.0
201.442505 32.0
201.9711 104.0
202.03334 128.0
202.149338 56.0
202.177643 64.0
202.423935 68.0
202.763885 36.0
202.916946 56.0
202.950974 108.0
202.985001 168.0
203.034332 1308.0
203.061569 144.0
203.115463 144.0
203.748276 96.0
203.882065 64.0
204.047348 268.0
204.561844 48.0
204.781097 84.0
204.914978 60.0
204.994766 84.0
205.031479 328.0
205.630737 72.0
205.820435 124.0
206.056213 148.0
206.267685 48.0
206.402054 92.0
206.459244 76.0
206.482132 44.0
206.576523 68.0
206.645187 72.0
207.051346 184.0
207.137589 76.0
207.186279 80.0
207.343887 128.0
208.371155 80.0
208.448746 160.0
208.595322 84.0
208.911636 188.0
209.016266 176.0
209.127457 152.0
210.32074 48.0
210.647034 144.0
210.944672 128.0
211.578217 152.0
212.001266 72.0
212.346115 132.0
213.723083 108.0
213.848221 92.0
214.002502 100.0
214.045258 188.0
214.512344 132.0
214.693115 40.0
215.008179 196.0
215.046127 164.0
215.460785 164.0
215.679947 48.0
215.905075 152.0
215.978195 160.0
216.046005 208.0
216.367401 92.0
217.661392 204.0
217.742645 88.0
218.001175 208.0
218.045242 88.0
218.303955 60.0
218.807114 64.0
219.496567 128.0
219.629288 100.0
219.788589 144.0
220.039474 412.0
220.704254 160.0
221.023712 120.0
221.059219 172.0
222.001251 144.0
222.167358 148.0
222.490829 148.0
222.550217 160.0
222.775925 92.0
223.082016 148.0
224.338272 216.0
224.374039 124.0
225.045334 108.0
225.137909 76.0
225.693726 192.0
225.870163 84.0
226.658585 104.0
226.714493 124.0
227.359268 168.0
227.443298 156.0
227.584396 88.0
228.811096 116.0
230.225266 56.0
230.859894 104.0
230.989944 152.0
231.710449 132.0
232.966431 144.0
233.011993 172.0
233.042465 140.0
233.255112 136.0
233.696091 84.0
233.998566 116.0
234.050568 2568.0
234.158798 188.0
234.376007 80.0
234.515274 56.0
234.951324 152.0
235.047623 512.0
235.626038 52.0
235.693253 160.0
236.037399 164.0
236.499329 152.0
236.616943 108.0
236.653687 128.0
236.941589 132.0
236.982971 132.0
237.015121 148.0
237.195938 160.0
237.530182 180.0
238.042725 92.0
238.128708 100.0
238.457458 40.0
238.783356 124.0
238.949463 84.0
239.015869 1256.0
239.673019 96.0
239.876434 36.0
240.01265 464.0
240.104599 184.0
240.508774 140.0
240.89476 152.0
241.0103 464.0
241.36763 92.0
241.79454 164.0
242.014328 316.0
242.599869 212.0
243.01236 104.0
243.145782 84.0
243.9254 100.0
244.367004 128.0
244.410568 132.0
244.643982 112.0
244.687576 148.0
244.97876 120.0
245.108063 136.0
245.416641 80.0
245.993805 96.0
246.2155 132.0
246.709183 124.0
247.005875 196.0
247.591553 104.0
248.010391 268.0
248.419037 184.0
248.513153 148.0
248.590271 104.0
248.870972 96.0
248.962036 108.0
249.023132 1988.0
249.37674 116.0
249.458466 216.0
249.609375 116.0
249.936508 56.0
250.027496 280.0
250.380371 48.0
250.619781 88.0
251.022476 260.0
251.111557 124.0
251.303986 124.0
251.742752 40.0
251.925934 72.0
252.09024 52.0
252.599274 212.0
252.706833 40.0
253.022171 184.0
253.498444 64.0
253.644226 124.0
253.897873 84.0
254.088196 128.0
254.29129 120.0
254.599243 128.0
254.821594 40.0
255.00853 10764.0
255.07869 120.0
255.12352 44.0
255.295212 40.0
255.724716 112.0
255.753357 76.0
255.807465 64.0
256.011871 1204.0
256.074951 84.0
256.22464 52.0
256.27243 48.0
256.406281 92.0
256.517853 64.0
256.576935 112.0
256.878174 124.0
257.009674 4492.0
257.133453 60.0
257.212219 76.0
257.340942 52.0
257.436096 160.0
257.491028 64.0
257.561279 68.0
257.666718 60.0
257.71463 112.0
257.845642 64.0
258.011383 788.0
258.091797 28.0
258.165344 52.0
258.549225 96.0
258.600433 140.0
258.699677 44.0
258.738098 68.0
258.814941 40.0
258.907806 188.0
259.019073 1708.0
259.08075 124.0
259.122406 68.0
259.381989 188.0
259.417267 60.0
259.481384 120.0
259.76358 56.0
259.818115 164.0
260.018097 220.0
260.09729 124.0
260.411957 52.0
260.537231 48.0
260.562958 72.0
260.816803 136.0
260.999664 296.0
261.025452 296.0
261.347443 76.0
261.495483 60.0
261.585602 180.0
262.010132 164.0
262.352295 104.0
262.529633 124.0
263.01358 144.0
264.073395 60.0
264.43576 120.0
265.333038 156.0
265.85202 84.0
266.99231 208.0
267.016968 160.0
267.086609 28.0
267.359924 72.0
267.786407 92.0
267.910187 104.0
268.009644 3548.0
268.13504 52.0
268.177399 36.0
268.320831 144.0
269.017731 1936.0
269.420654 52.0
269.521942 40.0
269.894562 48.0
270.007355 892.0
270.05481 52.0
270.247803 36.0
270.604584 80.0
270.873108 100.0
271.009277 608.0
271.302399 112.0
271.915802 92.0
271.983032 132.0
272.009827 108.0
272.145569 148.0
272.993469 112.0
273.03006 100.0
273.105164 184.0
273.425995 140.0
274.092804 96.0
275.376129 128.0
275.613983 132.0
276.291748 40.0
276.983612 136.0
280.489288 72.0
281.013458 156.0
281.690552 116.0
281.917755 56.0
282.495422 52.0
282.659241 76.0
283.731934 88.0
284.006927 104.0
284.869598 140.0
285.074554 56.0
286.582031 140.0
287.10788 84.0
287.694977 148.0
288.06308 36.0
288.215118 100.0
288.262421 88.0
288.904816 152.0
288.965851 440.0
289.107849 108.0
289.749603 68.0
289.808777 112.0
289.920624 64.0
289.954132 144.0
290.398651 112.0
290.422394 84.0
290.771851 92.0
290.945862 376.0
291.114746 88.0
291.32193 76.0
291.546173 80.0
292.845825 152.0
293.728638 48.0
296.158936 152.0
296.875214 76.0
296.943817 144.0
296.984955 52.0
298.042328 108.0
298.310547 104.0
298.447937 192.0
298.963898 164.0
299.680145 96.0
299.749054 36.0
300.035126 40.0
300.124786 64.0
300.20752 96.0
300.235138 76.0
301.080658 172.0
301.139343 68.0
301.61618 72.0
302.017273 64.0
302.192322 108.0
302.557098 80.0
302.847992 52.0
302.893005 156.0
302.979675 760.0
303.145935 36.0
303.249908 120.0
303.839386 56.0
303.986298 2756.0
304.078827 200.0
304.273224 88.0
304.540588 40.0
304.628265 136.0
304.976776 1060.0
305.037476 92.0
305.093109 116.0
305.207855 48.0
305.43042 40.0
305.517395 48.0
305.980988 2020.0
306.018555 80.0
306.119537 56.0
306.171753 40.0
306.391205 48.0
306.530579 112.0
306.656036 68.0
306.795471 80.0
306.97821 504.0
307.133728 48.0
307.894592 136.0
307.970276 996.0
308.645905 84.0
308.792786 48.0
308.992889 136.0
309.065643 136.0
309.202118 60.0
309.706299 224.0
309.97641 132.0
310.046143 104.0
310.326569 196.0
310.536987 216.0
310.614166 68.0
310.701843 64.0
311.365265 196.0
312.912476 108.0
312.989929 112.0
313.144897 108.0
313.902588 48.0
314.968445 60.0
317.126801 64.0
317.3927 92.0
317.981567 152.0
319.313904 48.0
320.324768 88.0
320.360382 92.0
320.659698 72.0
321.244446 60.0
321.429993 68.0
321.776215 36.0
322.18335 104.0
322.905396 132.0
322.93399 100.0
322.991241 188.0
323.939819 148.0
324.563446 64.0
324.950836 204.0
325.266602 124.0
325.934601 104.0
326.053192 124.0
326.240112 116.0
326.272461 64.0
326.502594 52.0
326.563721 148.0
326.840729 128.0
326.937897 388.0
327.94632 84.0
328.891357 52.0
329.270447 128.0
330.296936 128.0
330.390991 68.0
330.438019 140.0
331.060608 68.0
331.904938 100.0
331.95932 116.0
332.712463 168.0
333.069916 72.0
334.298767 96.0
334.575409 140.0
334.9104 44.0
334.935913 76.0
335.161774 140.0
335.537201 176.0
335.712219 112.0
336.06604 60.0
337.048248 88.0
337.366211 44.0
337.687988 52.0
338.170959 168.0
338.738495 140.0
338.800781 136.0
338.954712 824.0
339.961151 484.0
340.091553 80.0
340.300812 204.0
340.719482 92.0
340.748871 84.0
340.955017 952.0
341.035522 44.0
341.211975 64.0
341.95871 260.0
342.006561 136.0
342.190613 72.0
342.407867 140.0
342.791016 88.0
342.875763 68.0
342.937775 180.0
343.417725 72.0
345.127563 52.0
346.682281 116.0
346.77124 268.0
347.086334 48.0
347.26062 120.0
349.052338 136.0
350.159637 68.0
350.398041 44.0
351.893616 104.0
352.035492 80.0
352.610809 52.0
353.605682 116.0
354.553192 76.0
354.789337 152.0
355.607086 196.0
355.678406 120.0
356.219116 144.0
356.906891 212.0
357.200226 96.0
357.369537 120.0
357.96048 84.0
358.363525 104.0
359.253265 108.0
359.366455 88.0
359.970398 116.0
360.476593 48.0
361.047424 128.0
361.107941 104.0
361.308411 100.0
361.429474 64.0
361.864746 88.0
362.455627 128.0
362.622375 40.0
362.667847 80.0
363.369415 172.0
363.714752 180.0
363.81723 56.0
363.919739 80.0
364.295715 144.0
364.542694 40.0
364.725128 76.0
365.649353 148.0
365.725494 100.0
366.068115 72.0
366.917816 104.0
367.955536 108.0
368.474945 200.0
368.753906 40.0
368.996002 132.0
369.040619 224.0
370.579254 68.0
370.629059 76.0
370.820679 172.0
371.637482 44.0
371.721893 140.0
372.470551 116.0
373.108459 144.0
374.744171 124.0
375.627014 100.0
377.333923 176.0
377.651031 120.0
377.755463 144.0
377.929565 84.0
378.955597 92.0
379.040833 64.0
379.870544 76.0
380.879791 132.0
381.668732 108.0
382.205505 48.0
382.489594 120.0
382.614166 108.0
383.323059 96.0
383.584167 68.0
384.052094 136.0
385.723297 160.0
386.348999 56.0
388.397736 48.0
389.29071 76.0
389.84256 48.0
393.328156 100.0
393.407104 100.0
394.627869 72.0
397.114777 136.0
401.744904 88.0
402.088043 160.0
402.199799 96.0
402.543152 80.0
405.146973 84.0
405.920532 176.0
406.173187 144.0
406.987885 76.0
407.14447 120.0
407.988281 152.0
408.103394 76.0
408.293884 100.0
409.187164 104.0
410.30719 64.0
411.154266 100.0
411.771973 80.0
411.981995 52.0
412.139587 64.0
412.580109 104.0
413.223175 76.0
413.433563 104.0
413.518555 72.0
414.879578 148.0
415.001221 132.0
415.057983 52.0
415.922119 88.0
416.470276 200.0
418.479187 68.0
418.995575 204.0
419.192017 56.0
419.326508 128.0
419.432465 132.0
419.917694 40.0
421.001221 284.0
421.03186 180.0
421.14212 96.0
422.061646 44.0
422.315186 216.0
422.343811 100.0
422.384735 92.0
422.789795 32.0
424.916443 104.0
425.815399 156.0
426.435791 52.0
426.953827 88.0
428.184357 100.0
428.460358 64.0
428.975494 64.0
429.639435 92.0
430.667267 144.0
431.113495 80.0
433.265076 48.0
433.310638 100.0
433.642151 164.0
433.820404 124.0
433.957214 92.0
434.699677 64.0
434.923798 120.0
435.294678 84.0
435.35144 52.0
435.451111 128.0
435.870697 136.0
436.011993 104.0
436.082489 176.0
436.174072 32.0
436.253052 72.0
436.290466 188.0
436.340363 132.0
436.594025 88.0
436.652222 148.0
436.731262 148.0
436.799011 84.0
436.831085 40.0
437.002228 15748.0
437.193085 240.0
437.283478 100.0
437.388458 72.0
437.44281 168.0
437.538544 96.0
437.583374 156.0
437.64679 84.0
437.688446 120.0
437.759216 220.0
437.838348 108.0
437.877716 44.0
438.006744 2608.0
438.131226 128.0
438.1716 80.0
438.204926 56.0
438.326111 72.0
438.404938 180.0
438.525787 176.0
438.65802 100.0
438.690796 116.0
438.763397 148.0
438.806152 220.0
438.846771 96.0
438.90097 232.0
439.001465 14904.0
439.154541 60.0
439.196045 48.0
439.234619 80.0
439.398773 136.0
439.449219 136.0
439.515686 76.0
439.597595 116.0
439.643494 76.0
439.672729 80.0
439.92157 148.0
439.9375 48.0
440.003845 2996.0
440.103516 112.0
440.152802 64.0
440.257172 64.0
440.294769 96.0
440.361603 40.0
440.473022 124.0
440.507782 108.0
440.574615 48.0
440.653992 132.0
440.699951 64.0
440.745941 180.0
440.778748 140.0
440.829498 32.0
440.997711 2496.0
441.123352 144.0
441.152954 72.0
441.209869 96.0
441.310211 60.0
441.448181 56.0
441.736786 104.0
441.994965 56.0
442.167755 60.0
442.427277 60.0
442.456573 68.0
442.552856 56.0
442.603119 116.0
442.731018 44.0
442.8125 96.0
442.85437 132.0
442.904633 68.0
442.996796 152.0
443.071564 52.0
443.218842 36.0
443.394867 76.0
443.885345 136.0
444.09082 48.0
444.195709 56.0
444.359314 36.0
444.56073 56.0
445.287018 48.0
447.09903 84.0
447.25473 44.0
447.393646 68.0
448.290802 68.0
448.746033 84.0
448.910492 64.0
450.869293 32.0
451.35968 32.0
453.506042 40.0
455.024689 40.0
457.120178 48.0
459.553223 52.0
463.551239 80.0
463.906982 100.0
467.273926 48.0
467.553619 100.0
468.100342 44.0
469.151642 84.0
469.216309 72.0
469.263733 60.0
470.519226 60.0
472.079071 140.0
473.173767 76.0
474.503845 40.0
475.822754 88.0
479.956177 76.0
482.610931 68.0
483.622223 116.0
483.835968 48.0
485.277405 120.0
486.892212 104.0
492.66684 80.0
494.457642 120.0
495.533661 44.0
507.223145 84.0
510.667084 72.0
511.265442 32.0
511.738068 68.0
511.927216 108.0
512.278503 104.0
515.820862 68.0
516.883728 92.0
522.100525 132.0
522.405273 80.0
522.728333 104.0
523.069702 64.0
530.589111 72.0
530.722046 68.0
531.616516 124.0
536.172058 76.0
536.42749 72.0
549.244507 68.0
552.965515 92.0
555.128113 176.0
555.658142 108.0
557.620972 64.0
559.050659 76.0
562.868958 88.0
563.459412 88.0
564.021729 72.0
570.558899 84.0
571.847961 36.0
574.874268 140.0
576.196899 72.0
578.329651 76.0
588.61792 64.0
589.211975 76.0
589.318298 60.0
590.236694 48.0
593.820312 84.0
596.753357 72.0
603.520996 100.0
607.272156 44.0
607.47821 124.0
607.900146 88.0
609.958008 64.0
617.328918 88.0
621.817322 40.0
622.373352 80.0
628.490662 44.0
634.547668 76.0
636.931396 56.0
637.534302 60.0
638.207886 100.0
640.427185 84.0
647.650146 64.0
648.98291 40.0
649.028564 36.0
649.150269 100.0
651.241211 84.0
652.120178 108.0
659.68457 88.0
662.745117 88.0
663.3396 56.0
668.100037 32.0
669.083008 104.0
678.921204 108.0
678.999023 40.0
686.180176 64.0
691.571228 56.0
693.980957 128.0
695.575806 68.0
706.346619 76.0
717.78125 72.0
719.499268 88.0
727.926941 80.0
730.108765 88.0
730.157166 136.0
741.137207 52.0
747.680786 96.0
756.315247 48.0
764.162781 116.0
767.566772 72.0
768.813477 48.0
769.652527 128.0
776.769775 64.0
783.997803 120.0
793.718994 40.0
795.44696 72.0
801.318176 68.0
803.116455 68.0
808.942261 40.0
808.993225 108.0
811.111816 164.0
811.508667 76.0
812.070068 124.0
812.370728 88.0
816.960815 64.0
823.059204 100.0
842.518433 136.0
846.468872 152.0
851.345825 72.0
857.646729 184.0
864.0177 108.0
871.093567 52.0
871.493042 40.0
874.886597 28.0
876.435608 128.0
877.862061 88.0
881.510254 32.0
888.188538 64.0
889.078552 100.0
893.16626 116.0
896.863892 40.0
899.589966 76.0
902.900146 100.0
907.882812 48.0
907.94281 124.0
909.190674 68.0
909.712891 168.0
917.328674 56.0
918.269287 60.0
919.560425 80.0
930.256104 172.0
931.24585 96.0
936.823792 220.0
942.210632 76.0
944.117737 152.0
953.811157 156.0
957.958679 68.0
959.90625 144.0
962.065735 100.0
964.375977 116.0
966.323914 136.0
967.728943 108.0
969.847595 52.0
970.653564 116.0
976.839478 56.0
977.803894 116.0
981.747498 120.0
985.424072 80.0
987.599548 112.0
991.500122 176.0
992.214722 156.0
993.142761 180.0
1000.249451 152.0
1000.681946 172.0
1002.390808 100.0
1004.454712 168.0
1008.942383 224.0
1009.214294 200.0
1017.926941 80.0
1018.295288 64.0
1019.426147 148.0
1020.983643 180.0
1021.212646 212.0
1021.543396 88.0
1023.210754 80.0
1025.854614 80.0
1027.640259 56.0
1029.140259 168.0
1032.731689 108.0
1034.286621 140.0
1035.272583 52.0
1041.525879 48.0
1042.643799 128.0
1048.152344 200.0
1049.615601 172.0
1051.299194 116.0
1051.615479 32.0
1053.061768 68.0
1053.649536 172.0
1054.980835 120.0
1055.46582 184.0
1059.595215 60.0
1062.979858 160.0
1063.18103 104.0
1063.317261 80.0
1064.141724 60.0
1067.96936 144.0
1069.309692 116.0
1070.820068 108.0
1075.468994 44.0
1076.056519 176.0
1076.271973 156.0
1077.617432 84.0
1079.44104 168.0
1080.625 56.0
1082.588745 48.0
1083.748169 116.0
1084.724609 128.0
1084.954102 84.0
1089.593994 88.0
1090.231445 120.0
1091.223999 56.0
1092.420898 92.0
1093.078857 72.0
1098.177979 196.0
1098.243896 164.0
1099.121338 124.0
1101.47168 156.0
1102.317383 64.0
1103.249268 264.0
1105.160645 144.0
1105.207031 196.0
1105.32605 144.0
1106.623413 180.0
1107.15979 192.0
1107.722778 152.0
1109.359619 228.0
1109.578369 104.0
1111.083862 152.0
1113.214478 196.0
1114.369507 196.0
1114.742432 136.0
1116.304565 188.0
1116.497437 164.0
1120.691162 168.0
1120.924316 104.0
1121.944092 136.0
1124.986206 128.0
1129.543579 124.0
1132.160645 140.0
1134.378418 164.0
1135.699341 132.0
1136.274048 184.0
1138.572021 156.0
1139.398193 136.0
1141.434692 144.0
1143.735596 164.0
1143.991455 208.0
1144.395386 168.0
1144.711792 128.0
1145.37854 32.0
1145.627808 224.0
1146.085938 152.0
1146.468018 192.0
1147.744141 116.0
1148.425293 196.0
1149.363037 108.0
1149.585693 128.0
1152.813599 152.0
1153.083984 80.0
1154.158813 100.0
1154.970337 96.0
1155.03125 136.0
1155.538574 100.0
1155.937866 208.0
1157.29834 72.0
1158.700439 184.0
1159.5271 116.0
1159.784668 124.0
1161.622192 168.0
1162.640015 200.0
1162.877563 152.0
1164.126709 136.0
1164.201416 204.0
1166.130859 176.0
1169.450073 176.0
1169.960571 108.0
1170.260132 168.0
1170.314575 168.0
1170.689087 100.0
1171.656372 140.0
1171.969727 132.0
1172.105957 164.0
1172.576172 168.0
1173.789673 172.0
1175.474609 168.0
1177.597778 188.0
1178.0896 164.0
1178.21936 196.0
1180.611694 120.0
1180.82373 68.0
1181.336792 196.0
1182.951782 176.0
1183.136597 156.0
1184.061035 104.0
1184.458252 76.0
1186.671753 164.0
1187.391846 64.0
1187.714111 140.0
1188.201172 120.0
1188.48938 172.0
1188.81189 176.0
1189.278564 240.0
1189.99939 152.0
1190.500732 160.0
1191.311157 56.0
1191.558472 184.0
1191.737183 140.0
1192.431152 160.0
1193.661743 104.0
1193.771729 68.0
1194.968628 140.0
1197.577637 188.0
1198.046021 108.0
1198.397461 152.0
1199.410522 152.0
1199.941284 140.0
1201.934692 132.0
1202.300415 244.0
1203.522217 156.0
1203.750122 212.0
1203.798462 100.0
1205.007202 108.0
1205.72583 128.0
1205.884888 168.0
1206.209717 200.0
1209.412354 48.0
1210.090698 28.0
1211.004883 144.0
1212.93103 128.0
1214.241577 280.0
1214.602173 264.0
1215.44165 192.0
1216.218994 204.0
1216.28833 196.0
1216.989502 156.0
1218.17749 168.0
1218.44812 180.0
1218.86499 184.0
1221.472046 224.0
1221.722534 56.0
1221.812988 128.0
1223.53894 156.0
1224.109863 88.0
1224.938721 64.0
1225.349731 108.0
1225.718994 176.0
1226.346191 172.0
1226.534424 112.0
1226.687744 148.0
1226.736572 84.0
1227.984741 132.0
1229.163696 120.0
1230.189697 172.0
1230.762207 56.0
1231.244019 116.0
1232.508423 164.0
1232.676147 88.0
1233.011597 40.0
1233.123413 132.0
1234.40271 200.0
1235.137085 132.0
1235.27002 152.0
1236.823486 128.0
1239.744019 116.0
1240.809448 108.0
1242.387451 128.0
1242.910278 164.0
1243.110107 108.0
1243.82605 168.0
1245.082764 172.0
1245.209229 180.0
1246.34729 136.0
1247.984985 148.0
1248.280273 208.0
1248.857056 188.0
1249.335327 176.0
1249.792725 172.0
1250.088257 204.0
1251.981934 156.0
1252.27063 188.0
1252.348145 148.0
1252.397461 96.0
1252.714478 132.0
1253.256958 152.0
1254.173096 120.0
1254.497314 76.0
1255.068359 220.0
1255.364502 124.0
1255.900513 44.0
1256.532471 168.0
1257.085815 144.0
1257.685669 228.0
1258.660034 132.0
1258.857666 44.0
1259.881836 144.0
1260.213867 108.0
1261.493164 120.0
1261.825439 128.0
1262.914429 104.0
1264.074707 40.0
1265.688599 160.0
1266.106445 68.0
1266.800537 152.0
1267.176025 116.0
1267.565674 160.0
1268.274414 120.0
1268.52063 148.0
1269.359131 80.0
1270.912598 144.0
1271.515747 180.0
1272.459839 140.0
1272.665771 248.0
1273.276489 96.0
1274.157349 116.0
1274.363281 180.0
1274.505493 192.0
1274.90332 168.0
1275.03125 156.0
1275.599976 164.0
1275.649658 168.0
1276.53125 156.0
1280.787354 36.0
1282.754028 204.0
1284.85437 200.0
1285.449951 196.0
1286.620605 124.0
1287.291748 212.0
1288.127319 160.0
1288.327393 184.0
1288.670288 320.0
1289.006104 136.0
1289.299194 164.0
1291.384033 204.0
1292.073486 220.0
1292.187988 176.0
1292.372559 176.0
1292.674561 136.0
1293.79834 156.0
1294.521484 148.0
1294.979858 220.0
1295.373779 156.0
1296.047241 76.0
1297.667114 60.0
1298.305298 128.0
1299.31665 120.0
1300.751953 172.0
1300.960083 156.0
1301.469849 156.0
1301.915039 100.0
1302.187988 140.0
1303.164917 184.0
1303.287109 52.0
1303.387695 72.0
1303.631958 164.0
1304.185425 132.0
1304.710205 132.0
1305.048096 124.0
1305.163086 164.0
1306.134033 188.0
1307.75293 156.0
1308.098511 216.0
1309.358521 208.0
1309.833862 156.0
1310.756104 36.0
1311.065918 156.0
1311.52002 156.0
1312.897095 68.0
1313.03418 184.0
1313.365967 172.0
1313.885254 88.0
1314.917114 112.0
1315.039917 160.0
1315.458496 172.0
1315.848389 56.0
1316.166016 140.0
1316.72937 112.0
1316.946045 144.0
1317.169922 56.0
1318.138062 280.0
1318.224731 156.0
1318.383789 228.0
1319.099243 148.0
1319.157104 100.0
1320.849243 180.0
1321.254395 108.0
1321.714355 208.0
1321.898315 196.0
1321.946411 180.0
1321.975952 116.0
1322.001221 148.0
1322.374268 88.0
1325.576904 156.0
1325.787109 136.0
1325.924805 164.0
1327.671997 76.0
1328.107178 148.0
1328.694824 120.0
1328.825317 156.0
1328.897949 152.0
1329.180908 148.0
1330.226074 184.0
1330.581787 152.0
1331.772461 172.0
1331.954224 160.0
1332.164917 132.0
1333.61145 220.0
1333.923462 176.0
1334.577759 152.0
1335.574097 248.0
1335.814209 168.0
1336.054199 144.0
1336.672729 36.0
1337.531494 124.0
1338.288574 132.0
1338.412354 164.0
1338.674561 160.0
1339.344604 184.0
1340.699707 76.0
1340.758057 124.0
1341.202637 108.0
1342.697388 180.0
1342.886963 84.0
1342.937988 80.0
1344.149048 140.0
1345.879028 196.0
1346.828369 220.0
1347.040283 188.0
1349.254517 92.0
1349.722534 156.0
1349.912598 104.0
1350.054688 176.0
1350.570801 176.0
1351.207275 176.0
1351.317017 176.0
1352.429321 204.0
1354.018188 104.0
1354.128052 160.0
1357.38916 136.0
1357.829224 188.0
1358.071167 132.0
1358.328003 140.0
1359.545898 148.0
1359.634033 108.0
1359.942261 120.0
1360.896606 228.0
1361.249023 120.0
1362.813599 176.0
1362.97522 136.0
1363.710205 136.0
1364.393799 232.0
1364.893799 108.0
1365.549194 92.0
1365.820435 208.0
1366.732666 168.0
1366.909302 44.0
1367.586304 120.0
1367.652588 184.0
1369.036743 200.0
1369.139771 156.0
1369.478638 124.0
1369.596436 204.0
1369.876343 168.0
1370.141602 296.0
1370.458374 36.0
1371.062622 188.0
1371.232178 108.0
1371.386963 52.0
1371.696533 144.0
1372.227295 124.0
1373.193359 148.0
1373.61377 160.0
1373.694946 240.0
1373.780518 132.0
1374.181885 168.0
1374.624512 56.0
1375.753784 172.0
1376.115601 168.0
1376.625122 128.0
1376.84668 220.0
1377.378418 144.0
1377.829102 104.0
1377.925049 248.0
1378.013794 120.0
1379.299683 188.0
1379.454834 56.0
1380.305176 192.0
1380.531372 228.0
1380.637939 204.0
1380.978149 76.0
1381.133423 120.0
1381.340576 188.0
1381.79187 160.0
1381.851074 160.0
1382.435547 136.0
1382.516968 188.0
1382.620605 60.0
1383.005493 152.0
1383.072021 208.0
1383.168335 144.0
1383.331177 136.0
1385.123169 140.0
1385.735596 40.0
1386.049316 168.0
1386.479126 120.0
1387.086792 152.0
1387.264771 204.0
1387.635376 172.0
1388.436279 164.0
1388.873901 152.0
1389.853149 116.0
1390.662109 212.0
1391.260254 180.0
1392.466309 132.0
1392.614746 236.0
1394.033813 144.0
1394.754761 212.0
1395.403809 164.0
1396.122803 160.0
1396.452393 220.0
1397.067383 132.0
1397.258545 184.0
1397.796509 188.0
1397.856079 92.0
1398.220215 220.0
1398.883179 164.0
1399.575562 184.0
1399.672363 80.0
1399.769165 132.0
1399.94043 72.0
1400.074463 224.0
1401.799072 120.0
1402.294678 36.0
1402.533203 148.0
1404.061646 144.0
1404.158569 176.0
1404.3927 104.0
1405.031372 112.0
1405.255127 216.0
1405.419312 160.0
1405.62085 152.0
1405.881958 96.0
1406.352173 56.0
1407.277832 132.0
1407.785645 220.0
1408.091797 160.0
1408.876099 136.0
1409.421509 84.0
1409.51123 156.0
1409.967041 192.0
1410.518311 180.0
1410.579956 220.0
1411.970703 152.0
1412.157715 208.0
1412.427002 168.0
1412.696289 136.0
1413.152588 148.0
1413.751221 148.0
1414.993774 164.0
1415.151001 156.0
1415.592773 156.0
1415.675171 168.0
1415.727539 80.0
1415.974731 140.0
1416.609741 156.0
1416.73877 164.0
1418.155029 92.0
1418.26001 116.0
1418.537354 192.0
1418.702271 108.0
1418.762207 48.0
1419.06958 116.0
1419.219604 56.0
1419.646973 220.0
1420.749512 184.0
1420.967163 136.0
1421.280518 172.0
1421.890137 144.0
1422.152832 212.0
1422.655762 204.0
1422.99353 144.0
1423.173828 108.0
1423.466675 76.0
1423.999878 56.0
1424.074951 80.0
1424.305786 164.0
1424.412964 192.0
1424.590088 200.0
1424.68335 176.0
1425.509888 104.0
1427.193604 92.0
1427.38916 112.0
1427.990845 176.0
1428.336792 140.0
1428.645264 136.0
1428.946167 172.0
1429.193359 132.0
1429.352417 184.0
1429.713623 52.0
1430.27063 120.0
1430.590454 212.0
1431.157715 220.0
1432.077759 128.0
1433.124878 192.0
1433.648926 196.0
1434.006592 148.0
1434.624634 144.0
1435.846191 188.0
1436.343994 172.0
1436.792847 328.0
1437.113525 140.0
1437.196533 156.0
1437.388794 140.0
1437.702026 216.0
1437.792603 96.0
1438.185059 140.0
1438.52478 156.0
1438.705933 128.0
1438.90979 168.0
1439.166504 152.0
1439.279785 184.0
1440.480591 152.0
1440.896118 144.0
1440.994385 148.0
1441.092529 156.0
1441.425049 188.0
1442.218628 224.0
1442.747681 140.0
1443.133301 156.0
1443.269409 184.0
1443.473511 76.0
1443.677734 216.0
1443.942505 64.0
1444.39624 200.0
1444.577759 116.0
1444.706421 172.0
1445.886841 116.0
1446.106323 88.0
1446.378784 60.0
1446.484741 188.0
1446.575562 152.0
1446.833008 104.0
1448.165771 176.0
1448.385376 128.0
1449.741577 224.0
1450.173584 188.0
1450.332764 152.0
1450.688965 144.0
1450.795166 228.0
1451.25769 104.0
1452.766846 180.0
1454.193481 112.0
1454.542603 72.0
1454.831055 140.0
1455.901611 72.0
1456.137085 100.0
1456.615601 144.0
1456.942261 136.0
1457.914917 228.0
1458.104858 188.0
1458.515259 184.0
1458.659668 108.0
1459.123413 132.0
1459.549194 152.0
1459.769775 144.0
1459.841431 192.0
1460.220459 172.0
1460.865601 164.0
1461.199707 168.0
1461.49646 176.0
1461.732422 100.0
1462.660889 164.0
1462.851196 208.0
1462.927368 144.0
1463.071899 124.0
1463.323242 104.0
1463.498291 60.0
1463.711548 184.0
1464.602539 140.0
1465.615845 180.0
1465.874878 80.0
1466.949585 108.0
1467.445068 108.0
1467.498413 164.0
1467.818726 36.0
1468.436401 132.0
1469.309937 160.0
1470.565186 148.0
1470.901123 212.0
1471.175781 156.0
1471.252197 160.0
1471.359009 60.0
1471.626221 180.0
1471.862915 44.0
1472.061523 68.0
1472.176025 156.0
1472.473877 112.0
1472.611328 164.0
1473.023804 168.0
1473.176636 128.0
1474.086792 180.0
1474.269165 176.0
1474.430908 188.0
1474.666626 148.0
1474.773682 140.0
1475.01062 196.0
1475.293457 104.0
1475.561035 160.0
1476.279785 144.0
1476.845703 144.0
1477.182251 68.0
1477.786743 232.0
1477.918091 120.0
1478.069824 144.0
1479.661865 200.0
1479.814941 168.0
1480.316772 188.0
1480.419922 172.0
1480.907349 184.0
1481.040283 124.0
1481.630127 180.0
1481.752686 116.0
1481.875244 168.0
1481.997803 164.0
1482.097412 168.0
1482.373291 184.0
1482.603271 184.0
1483.032471 208.0
1483.857666 116.0
1484.090332 140.0
1484.542725 128.0
1485.04126 112.0
1485.133301 172.0
1485.363403 128.0
1485.693237 92.0
1486.460571 164.0
1486.537354 104.0
1486.690796 136.0
1487.013062 212.0
1487.082153 176.0
1487.38916 144.0
1487.581177 156.0
1487.634888 104.0
1487.980347 104.0
1488.034058 148.0
1488.602295 196.0
1488.709839 152.0
1488.848022 176.0
1489.785156 160.0
1490.14624 144.0
1490.246094 116.0
1490.476562 172.0
1490.576538 100.0
1490.876221 144.0
1491.010498 220.0
1491.360352 124.0
1491.875366 136.0
1492.075317 116.0
1492.705811 184.0
1492.974976 204.0
1493.274902 156.0
1493.497925 148.0
1494.128662 88.0
1494.182617 120.0
1494.921265 40.0
1495.352173 184.0
1496.245483 188.0
1496.376099 160.0
1496.768677 164.0
1496.93811 136.0
1496.992065 100.0
1497.284668 168.0
1497.515747 164.0
1497.754517 148.0
1497.977905 224.0
1498.409302 212.0
1498.717529 64.0
1499.110474 140.0
1499.464966 124.0
1499.973755 144.0
1500.775513 156.0
1500.837158 116.0
1501.147461 188.0
1501.415527 112.0
1501.484985 200.0
1501.546631 136.0
1501.608398 188.0
1501.747192 204.0
1502.148315 148.0
1502.665161 108.0
1502.966064 236.0
1503.139771 188.0
1503.236206 68.0
1503.575684 184.0
1503.776367 148.0
1503.853516 152.0
1503.946167 124.0
1504.038818 144.0
1504.671875 248.0
1504.833984 144.0
1505.111938 140.0
