>compound EXEMESTANE
>formula C20H24O2
>ionization [M+H]+
>parentmass 297.186615
#inchi InChI=1S/C20H24O2/c1-12-10-14-15-4-5-18(22)20(15,3)9-7-16(14)19(2)8-6-13(21)11-17(12)19/h6,8,11,14-16H,1,4-5,7,9-10H2,2-3H3/t14-,15-,16-,19+,20-/m0/s1
#inchikey BFYIZQONLCFLEV
#Ion_Source LC-ESI
#Instrument qTof
#Compound_Source Commercial
#PI Dorrestein
#Data_Collector Garg_Neha
#Scan -1
#Precursor_MZ 297.185
#ExactMass 296.178
#Charge 1
#CAS_Number N/A
#Pubmed_ID N/A
#Smiles C[C@@]12CC[C@H]3[C@@H](CC(=C)C4=CC(=O)C=C[C@]34C)[C@@H]2CCC1=O
#INCHI_AUX N/A
#Library_Class 1
#SpectrumID CCMSLIB00000079118
#IonMode Positive
#UpdateWorkflowName UPDATE-SINGLE-ANNOTATED-GOLD
#LibraryQualityString Gold
#TaskID 278b19f5865741e282cec7349aa7e7a1
##Scan# 1561
#SpectrumFile NCP003512_E2_F11_BD6_01_15730.mzXML
#LibraryName NIHcollectionI_05062014.mgf
#MQScore -1
#Organism NIHcollectionI_05062014
#TIC_Query 0
#RT_Query -1
#MZErrorPPM -1
#SharedPeaks 0
#MassDiff 0
#LibMZ -1
#SpecMZ 297.185
#SpecCharge 0
#internalFilename spec-00000.mgf

>collision 10
44.952457 156.0
45.081989 184.0
45.353676 192.0
45.409992 208.0
45.526752 164.0
45.992592 176.0
46.84552 176.0
47.16893 152.0
47.315304 164.0
47.981625 152.0
48.009201 212.0
48.27573 200.0
48.336594 184.0
48.46814 180.0
48.772068 144.0
48.886112 152.0
49.152267 152.0
49.216476 164.0
49.803261 240.0
49.900223 144.0
50.611435 120.0
51.433056 144.0
52.051537 180.0
53.495922 208.0
53.908779 184.0
54.434578 196.0
54.856834 200.0
57.136932 200.0
58.035583 168.0
58.173641 148.0
58.520267 244.0
59.07732 160.0
59.328468 148.0
59.583466 152.0
59.712345 160.0
59.758492 204.0
60.35231 204.0
60.595306 196.0
61.592484 188.0
61.683113 144.0
61.776936 140.0
61.967934 152.0
62.018078 184.0
62.712799 160.0
63.015228 148.0
64.024635 164.0
64.477715 176.0
65.544876 144.0
66.33033 184.0
67.053619 140.0
67.558167 184.0
67.975967 172.0
67.994019 176.0
68.581177 148.0
68.739494 184.0
68.7593 192.0
68.978973 216.0
69.382896 172.0
69.761398 184.0
70.294373 192.0
70.51815 204.0
70.715508 148.0
71.488304 168.0
71.719917 200.0
72.283989 176.0
72.636383 184.0
73.035553 148.0
73.069359 124.0
73.108711 152.0
73.217667 204.0
73.381248 144.0
73.515999 172.0
73.77562 140.0
74.794563 196.0
75.415512 196.0
75.825699 208.0
76.396965 176.0
76.699959 160.0
76.802834 164.0
77.022766 144.0
78.243286 224.0
78.4804 152.0
78.998604 144.0
79.230507 140.0
79.482277 160.0
79.759323 152.0
80.200745 152.0
80.41478 176.0
80.489754 220.0
80.521904 144.0
81.82193 180.0
81.838135 176.0
82.059746 184.0
82.077782 148.0
82.240143 188.0
82.361115 144.0
82.880325 144.0
83.166855 184.0
83.301224 148.0
83.513893 148.0
83.688599 144.0
84.049492 140.0
84.306969 168.0
84.429451 144.0
84.517097 140.0
84.63623 212.0
85.291168 148.0
85.629715 196.0
85.743942 172.0
85.970772 180.0
86.638252 160.0
86.675308 140.0
87.492523 208.0
87.529762 168.0
87.572594 140.0
88.371567 188.0
88.49884 176.0
88.973175 148.0
89.41124 212.0
90.057816 148.0
91.054497 996.0
92.118774 148.0
92.455284 160.0
93.070122 2788.0
93.583984 152.0
93.97139 156.0
94.072769 160.0
94.977333 156.0
94.996735 156.0
95.086899 280.0
95.148102 208.0
95.647362 140.0
95.856087 180.0
95.934044 152.0
96.037392 196.0
96.293068 144.0
96.445465 204.0
97.022934 140.0
97.065437 972.0
98.066719 148.0
98.641106 164.0
98.724144 176.0
99.488953 180.0
99.580292 152.0
100.067482 224.0
100.302559 164.0
100.394264 156.0
100.428169 224.0
100.591789 320.0
101.313698 180.0
101.684647 148.0
102.654312 152.0
102.712807 144.0
103.053955 604.0
103.453896 188.0
104.674637 240.0
105.034134 252.0
105.070526 4016.0
105.415108 216.0
105.521393 180.0
105.566376 140.0
106.074501 512.0
106.115799 184.0
106.184853 232.0
106.373619 164.0
106.702309 176.0
106.809242 164.0
107.049217 272.0
107.085716 4048.0
108.089836 464.0
108.121452 240.0
108.585526 148.0
109.064056 860.0
109.100204 160.0
109.593727 164.0
110.834862 156.0
111.081467 572.0
112.403496 160.0
112.63784 176.0
115.054222 584.0
115.134567 164.0
115.315071 164.0
115.708656 192.0
116.008583 152.0
116.061272 132.0
117.069313 1036.0
117.440666 160.0
118.034554 180.0
118.071037 248.0
118.110245 160.0
118.233566 156.0
118.89238 148.0
119.085724 1788.0
119.381172 140.0
119.492104 160.0
119.557381 220.0
119.803421 160.0
119.886215 192.0
120.056252 156.0
120.086052 300.0
120.280975 152.0
120.307175 184.0
120.322456 220.0
120.720711 148.0
120.818062 164.0
120.884254 120.0
121.06543 11236.0
121.101601 21100.0
121.224518 124.0
121.358894 288.0
121.960175 180.0
122.067596 888.0
122.104347 2812.0
122.27552 140.0
122.531532 292.0
122.903557 148.0
123.023003 132.0
123.048615 144.0
123.081245 800.0
123.116043 656.0
123.145416 172.0
123.17952 160.0
123.369568 140.0
123.396095 232.0
123.581879 200.0
124.084633 156.0
124.102371 164.0
124.128143 212.0
124.401878 144.0
124.455162 164.0
124.626183 164.0
125.077904 164.0
125.099808 292.0
126.128227 168.0
126.266846 152.0
126.336189 176.0
126.698853 140.0
127.623528 144.0
128.063034 544.0
128.181747 256.0
128.881241 188.0
129.069092 1760.0
129.625671 184.0
130.07637 216.0
130.388168 172.0
130.868149 140.0
131.051117 336.0
131.085159 3988.0
131.956451 168.0
132.055756 332.0
132.086548 784.0
132.349976 168.0
133.064453 1716.0
133.101593 2144.0
133.127319 220.0
133.665222 144.0
134.070923 320.0
134.106064 340.0
134.158096 228.0
135.043991 532.0
135.081055 7476.0
135.116745 1384.0
135.234512 144.0
135.741867 152.0
136.081436 996.0
136.117828 192.0
136.724503 172.0
137.059357 312.0
137.094238 1276.0
138.063583 188.0
138.097031 336.0
138.241379 176.0
138.39119 144.0
138.634796 212.0
138.759018 144.0
139.644302 204.0
140.8629 164.0
141.070419 196.0
141.468262 180.0
142.077759 896.0
142.381119 156.0
143.086304 1848.0
143.585342 144.0
143.67598 184.0
144.054947 400.0
144.091919 360.0
144.15213 168.0
144.591141 156.0
145.065506 2584.0
145.101898 6692.0
145.305206 168.0
146.070709 712.0
146.104828 1188.0
147.081024 5772.0
147.116531 2324.0
148.084351 916.0
148.12381 160.0
148.516006 152.0
148.65094 148.0
148.968414 128.0
149.018982 160.0
149.097031 39836.0
149.169174 216.0
149.262085 120.0
149.374481 112.0
149.82135 148.0
149.964172 164.0
150.10022 4136.0
150.194305 164.0
150.719193 140.0
151.10759 808.0
152.066071 144.0
152.112701 268.0
152.284576 164.0
152.34314 128.0
153.071533 168.0
153.640884 160.0
154.081573 356.0
155.081131 160.0
155.139511 148.0
155.993454 144.0
156.093246 524.0
156.262039 160.0
156.784943 232.0
157.059967 292.0
157.100677 592.0
157.550964 168.0
158.077057 328.0
158.606949 180.0
159.080429 2704.0
159.112381 368.0
159.97345 152.0
160.086334 344.0
161.061356 332.0
161.096268 2116.0
161.133057 1020.0
162.062592 148.0
162.100937 460.0
162.138626 368.0
162.173538 288.0
163.073807 372.0
163.112549 4192.0
163.700394 192.0
163.888885 156.0
164.115479 892.0
164.377365 112.0
165.065018 220.0
165.448029 116.0
166.075928 288.0
166.115662 192.0
167.086227 572.0
167.346649 212.0
167.565567 192.0
168.088211 152.0
169.068848 152.0
169.103287 464.0
169.179672 160.0
169.817093 172.0
170.072556 444.0
170.105103 228.0
170.481705 160.0
171.035675 144.0
171.081039 1576.0
171.117325 5236.0
171.637482 112.0
172.086243 692.0
172.121155 392.0
172.969086 148.0
173.060165 172.0
173.096069 3468.0
174.09967 316.0
175.075241 1468.0
175.112259 1512.0
175.149277 152.0
176.082825 156.0
176.114777 156.0
176.278442 180.0
177.089996 276.0
177.127075 1212.0
178.076355 152.0
178.127731 124.0
178.186172 144.0
178.909546 160.0
179.08342 180.0
180.090881 184.0
180.601318 200.0
181.065048 500.0
181.101746 248.0
181.396576 144.0
182.07132 256.0
182.357498 160.0
183.082855 400.0
183.506927 164.0
183.811722 140.0
184.086945 252.0
184.934097 152.0
184.979263 168.0
185.019867 152.0
185.096359 6264.0
185.134033 360.0
185.348236 100.0
185.775955 192.0
185.813934 140.0
186.098709 1164.0
186.500961 176.0
186.821823 208.0
187.07402 316.0
187.11203 1924.0
188.117874 272.0
189.091827 380.0
189.127609 4380.0
189.763153 204.0
190.077637 364.0
190.126694 476.0
190.254227 184.0
190.888916 172.0
191.082291 368.0
191.172241 152.0
193.098801 308.0
193.236176 220.0
194.114731 168.0
195.082077 516.0
195.115677 488.0
196.087341 380.0
196.132599 172.0
196.902649 164.0
197.096039 1076.0
197.492371 164.0
198.10112 416.0
199.111649 1740.0
199.306168 180.0
200.118057 128.0
200.383759 180.0
201.091888 320.0
201.128693 2416.0
201.899551 176.0
202.133698 292.0
202.29567 140.0
202.986969 184.0
203.10582 408.0
203.730576 204.0
204.031815 172.0
204.090363 148.0
204.49263 148.0
204.939713 140.0
205.097122 168.0
205.241837 160.0
205.502823 128.0
206.107727 168.0
206.218155 184.0
206.850281 148.0
207.079117 156.0
207.115219 340.0
207.939453 192.0
208.024185 168.0
208.086975 232.0
208.13472 156.0
209.097687 668.0
209.133728 464.0
210.105881 248.0
210.273529 232.0
211.111099 1024.0
211.7509 176.0
212.092789 144.0
212.125397 276.0
213.088959 156.0
213.127335 448.0
213.166595 180.0
213.617233 144.0
214.13118 260.0
214.176117 172.0
214.72406 172.0
215.105087 1204.0
215.138031 128.0
215.223053 228.0
216.106918 296.0
217.004913 156.0
217.115036 144.0
218.104523 340.0
219.038528 160.0
219.119629 240.0
219.934906 164.0
220.029358 156.0
220.125 200.0
221.091949 228.0
221.135391 120.0
222.107849 420.0
222.136383 176.0
223.112442 2560.0
224.116516 748.0
224.509842 148.0
224.993225 176.0
225.124283 1340.0
226.13208 264.0
227.106079 192.0
227.142731 1116.0
227.480896 144.0
227.838257 140.0
228.051605 156.0
228.109909 152.0
228.148407 136.0
228.773514 140.0
229.127151 196.0
229.378998 148.0
230.903763 192.0
231.111465 156.0
232.124176 140.0
235.111862 432.0
235.147293 248.0
235.32962 144.0
236.119095 232.0
237.130447 2196.0
237.602142 148.0
238.132675 832.0
238.880096 224.0
238.981171 164.0
239.094772 156.0
239.143646 4564.0
239.689804 140.0
240.081299 140.0
240.14859 740.0
240.605835 172.0
241.121094 300.0
241.159668 440.0
242.207672 184.0
244.019974 148.0
244.128799 160.0
244.691986 140.0
245.139816 144.0
246.651047 164.0
246.722946 172.0
246.816742 144.0
247.048187 152.0
247.145172 200.0
247.91861 148.0
248.12413 216.0
248.178772 148.0
249.126038 348.0
249.566574 152.0
250.131546 428.0
250.854187 140.0
251.100128 140.0
251.144028 1700.0
251.179962 272.0
251.257843 208.0
252.146103 312.0
253.158447 3916.0
254.161224 980.0
255.136215 300.0
255.174271 2116.0
256.056915 152.0
256.136566 500.0
256.180084 472.0
257.891449 180.0
258.559906 164.0
259.078613 148.0
259.897552 128.0
261.167999 336.0
261.960144 312.0
262.140564 208.0
263.040405 144.0
264.153809 368.0
264.197266 144.0
265.151672 216.0
266.164581 168.0
267.624481 164.0
267.852448 172.0
269.153137 288.0
269.189453 932.0
270.190582 128.0
271.198334 144.0
271.493408 184.0
272.43869 144.0
273.007294 156.0
274.597961 160.0
276.388458 172.0
277.153229 164.0
278.065582 156.0
278.586548 180.0
278.658142 140.0
278.815033 120.0
278.975342 160.0
279.021881 148.0
279.085052 268.0
279.175751 47512.0
279.459961 128.0
279.647919 140.0
279.879028 108.0
280.051941 188.0
280.106476 148.0
280.138 152.0
280.177856 7252.0
280.716644 160.0
281.020905 160.0
281.180573 964.0
281.815247 96.0
282.016785 172.0
282.096619 224.0
282.169403 116.0
282.307434 128.0
282.498138 152.0
283.105988 200.0
283.203094 140.0
287.256836 176.0
288.060242 240.0
288.709167 176.0
290.918274 152.0
291.757385 204.0
292.083832 144.0
292.57724 140.0
294.25116 196.0
295.154297 160.0
295.248932 192.0
295.678528 112.0
296.056549 160.0
296.10611 720.0
296.17868 204.0
296.403656 148.0
296.443665 160.0
296.467651 156.0
296.506104 144.0
296.575623 104.0
296.648163 288.0
296.730377 148.0
296.85614 120.0
296.880249 160.0
296.930176 148.0
297.084045 360.0
297.111694 228.0
297.186615 108396.0
297.300842 168.0
297.48468 152.0
297.676117 136.0
297.751465 984.0
297.814636 132.0
297.856293 96.0
297.88028 248.0
297.959015 112.0
298.03717 116.0
298.121185 128.0
298.14502 260.0
298.188995 26016.0
298.264648 184.0
298.30011 152.0
298.41452 132.0
298.523926 140.0
298.599854 148.0
298.745148 100.0
298.810242 196.0
299.190674 2756.0
299.438477 136.0
299.809265 136.0
299.931 124.0
300.013641 100.0
300.127594 176.0
300.190674 172.0
300.237549 156.0
300.803558 96.0
300.925537 144.0
301.392883 164.0
302.666687 112.0
303.007568 144.0
318.150085 108.0
318.720184 156.0
329.082428 156.0
338.221771 156.0
352.128174 144.0
353.911896 140.0
382.8815 148.0
437.719238 172.0
496.230103 236.0
1029.236572 188.0
1140.256226 208.0
1149.934448 192.0
1185.057983 164.0
1214.508179 164.0
1243.596802 140.0
1314.290161 180.0
1324.324219 164.0
1352.502441 148.0
1360.338379 224.0
1384.411377 192.0
1404.321411 160.0
1417.763672 156.0
1427.063965 164.0
1439.594727 200.0
1453.955566 148.0
1463.305176 192.0
1472.669434 248.0
1488.191895 236.0
1518.208862 208.0
1532.924438 212.0
1536.222412 196.0
1545.112549 208.0
1564.024414 156.0
1568.403809 192.0
1570.035889 184.0
1571.526733 204.0
1572.32373 256.0
1581.523438 140.0
1604.201538 152.0
1609.027954 168.0
1609.171631 188.0
1619.591431 152.0
1620.336426 164.0
1629.538696 160.0
1650.58374 164.0
1653.884399 176.0
1659.782227 192.0
1670.120361 160.0
1678.060059 176.0
1681.706421 164.0
1689.00293 212.0
1693.422729 156.0
1693.742188 160.0
1699.283813 160.0
1701.253418 160.0
1703.396729 172.0
1704.119629 212.0
1704.390869 196.0
1710.888184 168.0
1711.884521 168.0
1713.671875 200.0
1719.155273 164.0
1743.269775 148.0
1745.056885 196.0
1745.830078 140.0
1751.339722 144.0
1758.026001 204.0
1759.161133 216.0
1765.435791 156.0
1771.126953 156.0
1772.232788 224.0
1781.24292 180.0
1783.847778 168.0
1790.713745 168.0
1793.224487 148.0
1794.151611 164.0
1802.439819 144.0
1802.769287 144.0
1804.535889 160.0
1805.711304 148.0
1806.650269 168.0
1807.157837 224.0
1809.095947 184.0
1815.323242 156.0
1822.954712 180.0
1824.26355 176.0
1827.486816 180.0
1828.133545 140.0
1831.939331 148.0
1832.62085 152.0
1845.072998 152.0
1856.778076 148.0
1866.352905 144.0
1867.524536 196.0
1867.926758 148.0
1869.604492 164.0
1871.274292 192.0
1871.661743 232.0
1882.97583 228.0
1883.14856 144.0
1890.375854 168.0
1892.132935 188.0
1893.535767 140.0
1897.018921 176.0
1904.654907 176.0
1922.904419 192.0
1923.419434 192.0
1924.83374 140.0
1926.493164 184.0
1926.929932 200.0
1932.586792 148.0
1934.214478 184.0
1938.12915 152.0
1940.311523 160.0
1940.618408 200.0
1941.749634 156.0
1955.956909 152.0
1956.476318 188.0
1956.925293 164.0
1957.726562 152.0
1968.423096 200.0
1974.626831 140.0
1978.838867 144.0
1979.033691 164.0
1979.591553 196.0
1982.399658 164.0
1987.702393 228.0
1989.379883 180.0
1991.262207 240.0
1992.026123 164.0
1998.596069 172.0
2002.352661 152.0
