>compound Tetracycline hydrochloride
>formula C22H24N2O8
>ionization [M+H]+
>parentmass 445.161255
#inchi InChI=1S/C22H24N2O8/c1-21(31)8-5-4-6-11(25)12(8)16(26)13-9(21)7-10-15(24(2)3)17(27)14(20(23)30)19(29)22(10,32)18(13)28/h4-6,9-10,15,25,27-28,31-32H,7H2,1-3H3,(H2,23,30)/t9-,10-,15-,21+,22-/m0/s1
#inchikey OFVLGDICTFRJMM
#origInchi InChI=1S/C22H24N2O8.ClH/c1-21(31)8-5-4-6-11(25)12(8)16(26)13-9(21)7-10-15(24(2)3)17(27)14(20(23)30)19(29)22(10,32)18(13)28;/h4-6,9-10,15,25,27-28,31-32H,7H2,1-3H3,(H2,23,30);1H/t9-,10-,15-,21+,22-;/m0./s1
#Ion_Source LC-ESI
#Instrument qTof
#Compound_Source Commercial
#PI Dorrestein
#Data_Collector Garg_Neha
#Scan -1
#Precursor_MZ 445.161
#ExactMass 444.153
#Charge 1
#CAS_Number 64-75-5
#Pubmed_ID N/A
#Smiles C1(=CC=C2C(=C1O)C(C3=C([C@]4([C@@](C[C@@]([C@]2(C)O)([H])3)([C@@](C(=C(C4=O)C(N)=O)O)(N(C)C)[H])[H])O)O)=O).Cl
#INCHI_AUX N/A
#Library_Class 1
#SpectrumID CCMSLIB00000078515
#IonMode Positive
#UpdateWorkflowName UPDATE-SINGLE-ANNOTATED-GOLD
#LibraryQualityString Gold
#TaskID 77f51c88eb8b467eb4a01dd2d0cb90d2
##Scan# 999
#SpectrumFile Plate8_41_60_GC11_01_15764.mzXML
#LibraryName FDALibrary_2_04302014.mgf
#MQScore -1
#Organism FDALibrary_2_04302014
#TIC_Query 0
#RT_Query -1
#MZErrorPPM -1
#SharedPeaks 0
#MassDiff 0
#LibMZ -1
#SpecMZ 445.161
#SpecCharge 0
#internalFilename spec-00000.mgf

>collision 10
46.083012 144.0
48.831875 248.0
53.23291 196.0
58.63483 304.0
63.319965 244.0
67.359329 148.0
68.101158 136.0
69.040802 180.0
83.315086 140.0
86.112328 140.0
98.060287 1052.0
98.255737 196.0
99.058372 180.0
102.158676 140.0
103.512993 168.0
107.528297 152.0
112.038849 160.0
114.055573 156.0
124.041222 156.0
124.655556 180.0
126.054314 1392.0
127.053566 176.0
127.260101 184.0
132.559158 200.0
133.075256 176.0
137.450104 152.0
138.018707 284.0
138.741196 200.0
140.030304 160.0
142.049866 156.0
143.047928 176.0
144.065094 376.0
145.042557 148.0
145.061722 168.0
147.043732 168.0
149.04892 164.0
152.036423 268.0
152.799713 168.0
154.012573 148.0
154.051041 1136.0
155.051468 216.0
159.077621 140.0
159.554947 168.0
161.092224 188.0
164.04866 152.0
165.036713 160.0
167.804581 188.0
168.029144 532.0
168.065079 148.0
168.152817 208.0
170.077377 156.0
171.08194 156.0
172.576889 140.0
173.055038 180.0
173.096619 432.0
174.068344 192.0
179.204788 144.0
180.071762 200.0
183.051849 156.0
183.082352 420.0
184.019302 148.0
184.082352 172.0
187.074234 132.0
187.698669 164.0
188.081619 1308.0
188.553131 160.0
189.086884 296.0
190.073013 176.0
190.101501 200.0
190.358505 176.0
193.078522 148.0
195.08046 260.0
196.058228 400.0
196.093674 160.0
198.069122 140.0
199.078827 140.0
200.036621 192.0
201.017761 104.0
201.051178 436.0
201.089249 2880.0
202.091904 440.0
203.78772 148.0
204.660934 148.0
205.667282 152.0
206.207123 164.0
208.059845 300.0
208.287323 192.0
209.089279 144.0
209.786575 144.0
209.896133 224.0
211.079025 152.0
212.08313 228.0
213.085846 168.0
214.966843 184.0
215.070129 164.0
216.044998 172.0
221.094299 160.0
223.073349 296.0
224.051773 152.0
224.865829 168.0
225.08931 112.0
226.065842 120.0
227.074921 228.0
228.109772 168.0
228.392441 164.0
229.087799 140.0
231.080353 164.0
234.960159 152.0
235.082214 160.0
236.048386 172.0
237.086151 304.0
237.741577 148.0
238.067001 148.0
239.067139 664.0
239.096878 196.0
240.074249 264.0
240.740051 188.0
241.052063 148.0
241.084671 504.0
241.803558 148.0
242.058746 420.0
242.101089 152.0
243.09993 220.0
248.058044 236.0
249.059052 252.0
250.07164 304.0
251.070465 752.0
252.040192 316.0
252.073151 172.0
253.052078 276.0
253.088715 244.0
254.049973 144.0
254.088745 164.0
255.065689 160.0
257.076721 532.0
258.077026 288.0
259.91748 180.0
260.138947 252.0
262.067261 192.0
262.874725 172.0
263.730591 140.0
264.105652 148.0
265.04776 168.0
265.081543 152.0
267.063812 1176.0
267.138641 152.0
267.54541 156.0
268.070129 372.0
268.431671 172.0
269.080261 1748.0
269.137817 288.0
270.08075 176.0
271.073853 136.0
271.095398 228.0
274.122498 148.0
275.455444 184.0
277.106262 144.0
278.05246 316.0
278.08783 168.0
278.111084 312.0
279.065094 596.0
280.074493 380.0
280.612732 160.0
281.046326 172.0
281.08197 288.0
281.135956 144.0
281.790894 140.0
282.113312 144.0
283.058807 384.0
285.044434 172.0
286.774261 140.0
289.050476 272.0
290.098602 156.0
291.063171 440.0
292.066559 148.0
292.399994 164.0
293.081635 324.0
293.126221 164.0
294.061218 212.0
295.058624 240.0
295.809906 176.0
296.129486 492.0
297.070679 148.0
297.136963 120.0
298.090698 140.0
299.611511 164.0
303.064545 148.0
303.891754 148.0
304.045471 164.0
305.077118 240.0
306.050232 396.0
307.053864 156.0
307.082581 320.0
308.09726 196.0
308.842133 192.0
309.07962 204.0
309.127991 96.0
310.092102 152.0
310.761902 184.0
311.088287 140.0
311.119873 216.0
311.173309 276.0
314.139069 212.0
315.062531 120.0
315.140198 104.0
319.064178 788.0
320.060883 168.0
320.130249 320.0
321.075378 1644.0
321.132385 164.0
321.730286 152.0
322.040375 148.0
322.086792 656.0
323.05072 180.0
323.090424 172.0
323.417542 168.0
324.06369 140.0
324.123291 128.0
325.112305 140.0
327.101013 168.0
328.621246 144.0
330.887421 168.0
332.03302 272.0
332.377106 140.0
333.081085 128.0
334.047546 348.0
334.088379 152.0
335.050842 272.0
336.056061 416.0
336.129578 460.0
337.072357 268.0
337.120758 176.0
338.075745 404.0
338.133514 288.0
342.847015 184.0
343.141022 120.0
346.109222 416.0
346.142212 148.0
346.783112 164.0
347.052856 568.0
348.056335 132.0
348.117249 160.0
349.073486 496.0
350.042542 152.0
350.077545 124.0
350.0896 180.0
351.084686 156.0
351.368195 148.0
351.692841 196.0
352.787323 144.0
353.539154 140.0
356.7724 192.0
356.855133 172.0
358.533997 140.0
359.084564 236.0
360.598419 172.0
361.086151 144.0
361.668823 196.0
364.115387 984.0
365.065674 708.0
365.118134 120.0
365.642731 172.0
365.893951 156.0
366.060791 144.0
367.077209 264.0
367.517609 160.0
371.508057 220.0
374.099426 328.0
375.057373 160.0
375.116089 156.0
376.427002 144.0
376.944641 180.0
377.08902 356.0
378.097656 208.0
379.095154 148.0
380.112213 140.0
380.799347 160.0
382.12561 208.0
382.581635 252.0
383.130219 136.0
383.312531 144.0
384.139069 124.0
384.306854 188.0
388.889435 148.0
392.112274 3816.0
392.169769 148.0
392.213104 200.0
393.117798 900.0
394.125641 152.0
395.095428 108.0
398.481659 200.0
399.224976 188.0
402.684296 140.0
402.888031 252.0
402.947968 204.0
403.903412 192.0
403.955414 168.0
405.609222 140.0
405.745514 200.0
406.055695 148.0
406.086365 184.0
408.90686 140.0
409.144348 288.0
409.452209 104.0
409.655579 140.0
409.882446 252.0
409.960205 160.0
410.057922 176.0
410.124115 51376.0
410.509064 128.0
410.552277 124.0
410.667542 180.0
410.794434 124.0
411.050354 140.0
411.078278 264.0
411.126495 11672.0
411.476532 152.0
412.130859 1892.0
412.733795 144.0
413.136017 172.0
413.260956 128.0
413.490509 132.0
413.704498 100.0
413.790436 260.0
414.648499 136.0
416.15683 100.0
417.520416 148.0
418.212067 140.0
419.53595 140.0
419.784668 172.0
425.035492 116.0
426.13208 140.0
426.729309 188.0
427.15152 21956.0
427.826111 132.0
427.866669 144.0
427.934052 188.0
428.037781 152.0
428.071533 120.0
428.136108 21060.0
428.507355 164.0
428.818451 160.0
429.138824 5752.0
429.592041 112.0
430.141724 1296.0
430.719757 216.0
430.812134 164.0
431.138153 236.0
431.402557 104.0
432.161926 100.0
434.105682 144.0
440.279877 144.0
443.263916 176.0
444.177856 280.0
444.419891 220.0
444.486389 112.0
444.594513 164.0
444.738861 152.0
444.965546 156.0
445.161255 26044.0
445.36322 108.0
445.481995 164.0
446.083954 268.0
446.16333 8192.0
446.812439 108.0
446.896759 124.0
447.165985 1784.0
447.537323 124.0
448.074921 128.0
448.169281 164.0
448.811523 104.0
449.832184 144.0
450.676849 160.0
473.029999 212.0
585.901123 176.0
601.853638 144.0
658.503479 164.0
688.042175 172.0
732.325989 152.0
973.211731 156.0
1293.966919 140.0
1382.654663 184.0
1462.681152 188.0
1590.777588 172.0
1612.371338 176.0
1797.670654 180.0
1824.172729 160.0
1851.827881 160.0
1864.345215 220.0
1928.202759 176.0
1990.115479 176.0
