>compound MLS001065600-01!
>formula C11H14O2
>ionization [M+H]+
>parentmass 179.107
#inchi InChI=1S/C11H14O2/c1-4-5-9-6-7-10(12-2)11(8-9)13-3/h4,6-8H,1,5H2,2-3H3
#inchikey ZYEMGPIYFIJGTP
#Ion_Source LC-ESI
#Instrument qTof
#Compound_Source NIH Natural Product Library
#PI Dorrestein
#Data_Collector VVP/LMS
#Scan -1
#Precursor_MZ 179.107
#ExactMass 178.099
#Charge 1
#CAS_Number N/A
#Pubmed_ID N/A
#Smiles COc1ccc(CC=C)cc1OC
#INCHI_AUX N/A
#Library_Class 3
#SpectrumID CCMSLIB00000079442
#IonMode Positive
#UpdateWorkflowName UPDATE-SINGLE-ANNOTATED-BRONZE
#LibraryQualityString Bronze
#TaskID b1d8e8f6646f4e71acdff9ca3d919d08
##Scan# 2231
#SpectrumFile p1-D06_GD6_01_17914.mzXML
#LibraryName NIH_Natural_Products_Library.mgf
#MQScore -1
#Organism NIH_Natural_Products_Library
#TIC_Query 0
#RT_Query -1
#MZErrorPPM -1
#SharedPeaks 0
#MassDiff 0
#LibMZ -1
#SpecMZ 179.107
#SpecCharge 0
#internalFilename spec-00000.mgf

>collision 10
95.048218 144.0
96.050125 204.0
103.056953 136.0
104.057297 188.0
105.070984 160.0
110.682831 172.0
112.012215 172.0
117.075089 156.0
119.049469 216.0
121.068832 144.0
122.07608 148.0
123.045593 596.0
124.045464 76.0
131.053543 172.0
137.531494 116.0
138.068741 192.0
149.060379 736.0
151.071671 188.0
193.012085 56.0
209.499084 20.0
225.0495 116.0
297.242981 20.0
705.838074 20.0
1091.103516 84.0
1191.951172 168.0
1247.759033 172.0
1273.018921 140.0
1374.987793 76.0
1484.846924 164.0
1487.309692 200.0
