>compound Chlorprothixene
>formula C18H18ClNS
>ionization [M+H]+
>parentmass 316.093903
#inchi InChI=1S/C18H18ClNS/c1-20(2)11-5-7-14-15-6-3-4-8-17(15)21-18-10-9-13(19)12-16(14)18/h3-4,6-10,12H,5,11H2,1-2H3/b14-7+
#inchikey WSPOMRSOLSGNFJ
#Ion_Source LC-ESI
#Instrument qTof
#Compound_Source Commercial
#PI Dorrestein
#Data_Collector Garg_Neha
#Scan -1
#Precursor_MZ 316.092
#ExactMass 315.085
#Charge 1
#CAS_Number 113-59-7
#Pubmed_ID N/A
#Smiles C1=CC=C2C(=C1)SC3=C(C/2=C/CCN(C)C)C=C(C=C3)Cl
#INCHI_AUX N/A
#Library_Class 1
#SpectrumID CCMSLIB00000078284
#IonMode Positive
#UpdateWorkflowName UPDATE-SINGLE-ANNOTATED-GOLD
#LibraryQualityString Gold
#TaskID 77f51c88eb8b467eb4a01dd2d0cb90d2
##Scan# 1253
#SpectrumFile Plate4_61_88_GH5_01_16506.mzXML
#LibraryName FDALibrary_2_04302014.mgf
#MQScore -1
#Organism FDALibrary_2_04302014
#TIC_Query 0
#RT_Query -1
#MZErrorPPM -1
#SharedPeaks 0
#MassDiff 0
#LibMZ -1
#SpecMZ 316.092
#SpecCharge 0
#internalFilename spec-00000.mgf

>collision 10
44.907467 148.0
44.92614 188.0
45.064987 160.0
45.202656 196.0
45.222786 232.0
45.289085 220.0
45.304424 128.0
45.35701 172.0
45.411701 284.0
45.435848 156.0
45.511005 168.0
45.623447 156.0
45.711288 172.0
45.743587 140.0
45.775143 128.0
45.833874 108.0
45.93359 160.0
45.951088 148.0
45.982162 204.0
46.032112 144.0
46.047268 180.0
46.153446 156.0
46.213238 200.0
46.29525 160.0
46.351105 244.0
46.396076 168.0
46.421837 180.0
46.502922 200.0
46.552109 152.0
46.645855 164.0
46.666023 144.0
46.820633 272.0
46.925449 180.0
46.990402 164.0
47.008141 152.0
47.017693 176.0
47.198608 180.0
47.240406 148.0
47.253422 156.0
47.284256 168.0
47.340427 156.0
47.406761 240.0
47.519882 256.0
47.534977 140.0
47.628334 152.0
47.651688 156.0
47.661304 184.0
47.751724 124.0
47.813946 200.0
47.925873 172.0
47.946156 232.0
47.959938 120.0
48.099255 164.0
48.155235 184.0
48.17244 176.0
48.220802 108.0
48.251213 148.0
48.266895 128.0
48.363262 148.0
48.396656 164.0
48.415871 228.0
48.4505 152.0
48.4893 208.0
48.51627 140.0
48.542107 128.0
48.604401 188.0
48.666859 252.0
48.682007 244.0
48.86515 384.0
48.991329 160.0
49.011806 268.0
49.063377 180.0
49.113579 152.0
49.149452 196.0
49.169388 180.0
49.182644 120.0
49.209866 140.0
49.240589 140.0
49.260952 180.0
49.599625 132.0
49.659714 104.0
49.694134 204.0
49.918877 196.0
49.929657 180.0
49.998005 144.0
50.10326 144.0
50.131439 152.0
50.148418 164.0
50.262501 140.0
50.318794 116.0
50.352291 176.0
50.386829 212.0
50.405197 148.0
50.447598 212.0
50.501331 148.0
50.539524 264.0
50.563583 176.0
50.625874 148.0
50.67057 176.0
50.73214 188.0
50.816067 200.0
50.866272 180.0
50.879677 164.0
50.912853 176.0
50.927147 168.0
50.956371 164.0
51.013214 204.0
51.031696 148.0
51.151241 168.0
51.164009 156.0
51.177143 160.0
51.211002 172.0
51.226021 184.0
51.295071 224.0
51.320732 156.0
51.390442 156.0
51.461983 176.0
51.507683 200.0
51.593422 160.0
51.675343 100.0
51.746506 200.0
51.799492 208.0
51.856808 216.0
51.947754 252.0
52.00597 140.0
52.040424 168.0
52.176914 412.0
52.234436 192.0
52.345257 144.0
52.361309 108.0
52.37344 144.0
52.386417 152.0
52.398548 176.0
52.425491 160.0
52.471241 164.0
52.483585 148.0
52.524464 196.0
52.539742 124.0
52.565804 188.0
52.587452 172.0
52.603329 168.0
52.631542 156.0
52.646645 164.0
52.689194 180.0
52.703651 232.0
52.821526 152.0
52.845654 136.0
52.919937 144.0
52.974968 144.0
52.998447 136.0
53.074936 164.0
53.098175 164.0
53.114128 232.0
53.123871 232.0
53.139515 136.0
53.170712 216.0
53.250286 168.0
53.287796 184.0
53.30722 156.0
53.327568 232.0
53.538525 164.0
53.553089 180.0
53.567654 144.0
53.586594 280.0
53.604969 124.0
53.733845 176.0
53.80682 180.0
53.848454 312.0
53.947884 100.0
54.044044 232.0
54.058224 192.0
54.142422 256.0
54.19733 200.0
54.226891 164.0
54.25449 156.0
54.324883 144.0
54.420277 196.0
54.474186 332.0
54.502529 156.0
54.552448 116.0
54.56982 184.0
54.733459 140.0
54.75555 172.0
54.770279 152.0
54.833103 284.0
54.86459 172.0
54.91325 160.0
54.929974 164.0
54.950127 164.0
54.961929 176.0
55.051716 160.0
55.115536 140.0
55.142094 144.0
55.18576 148.0
55.208622 148.0
55.224888 172.0
55.346237 184.0
55.384743 160.0
55.455864 144.0
55.614567 144.0
55.674606 100.0
55.754177 192.0
55.835476 140.0
55.879936 132.0
55.956474 164.0
56.108475 160.0
56.2024 160.0
56.284492 160.0
56.369637 144.0
56.460205 200.0
56.484947 188.0
56.64193 192.0
56.662903 252.0
56.676918 124.0
56.705036 136.0
56.745335 192.0
56.778362 144.0
56.795143 148.0
56.830486 124.0
56.853333 164.0
56.944912 184.0
56.988476 144.0
57.003502 272.0
57.03035 148.0
57.112629 216.0
57.222935 176.0
57.247196 140.0
57.32312 120.0
57.346252 176.0
57.387333 168.0
57.403061 172.0
57.513222 152.0
57.59882 200.0
57.61412 180.0
57.671139 176.0
57.695324 140.0
57.773964 168.0
57.811863 336.0
57.848797 124.0
58.050186 128.0
58.072369 152.0
58.156372 208.0
58.192745 160.0
58.266048 176.0
58.30162 160.0
58.322105 184.0
58.380672 300.0
58.495838 248.0
58.613575 220.0
58.647457 240.0
58.742516 184.0
58.898865 156.0
58.934002 160.0
58.984432 172.0
59.03154 148.0
59.059357 168.0
59.156349 176.0
59.183315 208.0
59.223133 160.0
59.235649 140.0
59.258259 116.0
59.284416 140.0
59.418251 160.0
59.46949 136.0
59.687408 152.0
59.76601 192.0
59.819321 360.0
59.849701 152.0
59.915928 184.0
59.9375 172.0
59.968945 188.0
60.053452 148.0
60.077801 208.0
60.098442 148.0
60.166115 176.0
60.221355 152.0
60.440876 180.0
60.508057 164.0
60.539948 180.0
60.631348 184.0
60.770332 140.0
60.78109 152.0
60.797585 272.0
60.851616 156.0
60.871601 124.0
60.887329 152.0
60.963451 156.0
60.981396 120.0
61.01881 208.0
61.047398 160.0
61.064686 208.0
61.124718 176.0
61.140739 160.0
61.240379 184.0
61.324516 224.0
61.437378 148.0
61.567551 180.0
61.600697 140.0
61.702278 160.0
61.716347 292.0
61.73811 96.0
61.759102 164.0
61.897854 180.0
61.946407 168.0
61.996399 172.0
62.171513 164.0
62.190159 124.0
62.226444 156.0
62.244396 176.0
62.263187 204.0
62.279484 216.0
62.308792 172.0
62.403091 184.0
62.47229 140.0
62.587181 208.0
62.636002 200.0
62.754887 128.0
62.779427 160.0
62.807423 224.0
62.837788 160.0
62.857857 212.0
62.899334 168.0
62.928516 148.0
63.071507 140.0
63.191692 180.0
63.357929 164.0
63.378525 140.0
63.422733 152.0
63.519623 248.0
63.538658 140.0
63.55294 140.0
63.619595 176.0
63.69236 180.0
63.79752 156.0
63.975395 128.0
64.079315 180.0
64.162086 144.0
64.205574 116.0
64.221085 196.0
64.25618 248.0
64.336151 112.0
64.412628 172.0
64.428604 172.0
64.452568 156.0
64.50531 160.0
64.546875 184.0
64.611046 168.0
64.639656 180.0
64.658859 148.0
64.732498 184.0
64.750114 148.0
64.823952 172.0
64.874229 136.0
64.887917 168.0
64.934418 172.0
64.98896 184.0
65.019447 160.0
65.045128 160.0
65.114494 120.0
65.128624 180.0
65.163971 312.0
65.192894 152.0
65.260406 152.0
65.306709 176.0
65.350426 136.0
65.390701 140.0
65.422348 200.0
65.440506 188.0
65.508247 212.0
65.542404 200.0
65.589333 112.0
65.669785 148.0
65.697342 196.0
65.716217 180.0
65.822746 176.0
65.859894 160.0
65.910507 160.0
66.070038 148.0
66.100555 204.0
66.138 192.0
66.156052 208.0
66.31617 144.0
66.37291 200.0
66.394035 132.0
66.486908 116.0
66.543274 144.0
66.585007 160.0
66.635849 216.0
66.671593 148.0
66.732399 152.0
66.753525 180.0
66.775414 256.0
66.80777 160.0
66.848854 168.0
66.87001 168.0
66.921494 160.0
66.988174 168.0
67.005165 192.0
67.018333 148.0
67.063492 96.0
67.097412 212.0
67.184494 148.0
67.231888 172.0
67.264923 168.0
67.354263 140.0
67.39006 176.0
67.502235 116.0
67.56514 140.0
67.583748 108.0
67.690964 216.0
67.787819 164.0
67.850105 152.0
68.011246 344.0
68.058006 212.0
68.106758 112.0
68.210777 136.0
68.286667 200.0
68.366707 132.0
68.418533 180.0
68.431702 160.0
68.509109 216.0
68.522285 176.0
68.573372 168.0
68.701988 140.0
68.764442 108.0
68.806839 136.0
68.862099 168.0
68.928185 156.0
68.941399 152.0
68.953705 160.0
69.019684 212.0
69.146057 144.0
69.204697 180.0
69.247536 176.0
69.318703 148.0
69.403282 144.0
69.516769 172.0
69.569145 140.0
69.612312 164.0
69.630089 148.0
69.665459 280.0
69.787483 152.0
69.817123 348.0
69.842018 132.0
69.892746 164.0
69.919861 148.0
70.015701 120.0
70.112686 184.0
70.123642 224.0
70.204735 268.0
70.257881 144.0
70.2798 160.0
70.374939 216.0
70.39035 156.0
70.408333 164.0
70.490189 252.0
70.530083 180.0
70.568657 172.0
70.628952 144.0
70.649033 160.0
70.687424 156.0
70.726006 148.0
70.779579 240.0
70.838196 176.0
70.946381 100.0
70.972267 280.0
71.115196 120.0
71.144585 160.0
71.168579 156.0
71.218964 200.0
71.242691 128.0
71.3265 388.0
71.35508 168.0
71.392067 192.0
71.467178 160.0
71.487701 132.0
71.541428 104.0
71.604118 160.0
71.658669 104.0
71.683296 148.0
71.739594 180.0
71.757195 152.0
71.785652 172.0
71.824661 160.0
71.858658 168.0
71.910965 148.0
71.922783 164.0
72.004311 124.0
72.042671 212.0
72.068947 148.0
72.26992 124.0
72.374458 160.0
72.436928 128.0
72.482567 264.0
72.502899 144.0
72.520699 168.0
72.638542 168.0
72.676125 104.0
72.732269 152.0
72.773399 152.0
72.818344 176.0
72.862625 176.0
72.928902 164.0
72.954399 144.0
72.985001 196.0
73.007103 248.0
73.143005 128.0
73.185776 212.0
73.209618 176.0
73.341774 232.0
73.395355 188.0
73.41713 104.0
73.487297 168.0
73.563728 192.0
73.596046 136.0
73.627434 168.0
73.65493 164.0
73.702728 204.0
73.717972 156.0
73.785301 216.0
73.818611 124.0
73.846481 120.0
73.950661 136.0
74.039543 204.0
74.101257 184.0
74.113251 324.0
74.133049 180.0
74.186943 176.0
74.20237 204.0
74.24176 128.0
74.294983 144.0
74.404816 184.0
74.510262 172.0
74.660843 176.0
74.689354 144.0
74.712769 236.0
74.78299 144.0
74.801926 148.0
74.852089 116.0
74.877129 124.0
74.925919 160.0
75.063805 140.0
75.272598 148.0
75.305412 168.0
75.398575 168.0
75.457474 172.0
75.488701 184.0
75.531837 160.0
75.549133 152.0
75.566437 160.0
75.604904 116.0
75.668549 156.0
75.684135 164.0
75.704323 240.0
75.737816 216.0
75.805382 148.0
75.940781 160.0
75.996887 136.0
76.055122 152.0
76.115891 172.0
76.178413 156.0
76.193695 184.0
76.220108 140.0
76.350487 160.0
76.456604 204.0
76.504677 156.0
76.552109 140.0
76.583702 164.0
76.604645 184.0
76.662102 108.0
76.773254 200.0
76.808556 140.0
76.842873 172.0
76.899216 104.0
76.946419 232.0
76.958633 168.0
76.970863 272.0
76.990562 128.0
77.018379 172.0
77.08091 260.0
77.150131 112.0
77.383499 140.0
77.478722 120.0
77.496918 160.0
77.53064 160.0
77.551392 148.0
77.583565 164.0
77.744591 236.0
77.772675 204.0
77.797249 148.0
77.895584 208.0
77.907883 224.0
77.936768 164.0
77.962349 148.0
77.998543 196.0
78.0186 208.0
78.126755 152.0
78.324585 136.0
78.503876 124.0
78.519913 136.0
78.597366 248.0
78.622757 176.0
78.677475 196.0
78.707489 172.0
78.733261 128.0
78.776367 140.0
78.791397 140.0
78.848869 120.0
78.911003 152.0
79.04422 160.0
79.177872 180.0
79.241165 164.0
79.340889 164.0
79.36039 188.0
79.479942 140.0
79.496063 156.0
79.658546 348.0
79.679169 176.0
79.72319 188.0
80.060509 116.0
80.085442 164.0
80.14344 164.0
80.170959 156.0
80.287819 256.0
80.318939 144.0
80.363991 212.0
80.450096 168.0
80.472412 140.0
80.568977 120.0
80.614204 116.0
80.654633 212.0
80.690132 196.0
80.749451 128.0
80.772316 152.0
80.906464 200.0
80.992813 196.0
81.066269 224.0
81.102112 148.0
81.116455 144.0
81.201782 176.0
81.340416 276.0
81.40181 124.0
81.433434 260.0
81.456604 172.0
81.500511 140.0
81.586784 148.0
81.622543 112.0
81.658409 220.0
81.685684 140.0
81.735168 304.0
81.868858 208.0
81.946175 184.0
82.008797 124.0
82.054863 172.0
82.08313 124.0
82.219009 148.0
82.273163 184.0
82.307465 168.0
82.334229 156.0
82.414032 356.0
82.46386 168.0
82.476791 340.0
82.506798 148.0
82.589157 156.0
82.620605 188.0
82.681664 176.0
82.703377 160.0
82.717857 188.0
82.73922 156.0
82.81131 144.0
83.013176 160.0
83.065773 176.0
83.171021 244.0
83.195297 192.0
83.240005 148.0
83.323952 148.0
83.447144 164.0
83.543533 144.0
83.618561 224.0
83.631149 136.0
83.689133 184.0
83.838501 148.0
83.87645 148.0
83.903748 136.0
83.966118 292.0
84.013542 192.0
84.051285 256.0
84.075577 276.0
84.17746 188.0
84.223839 264.0
84.293312 160.0
84.309334 180.0
84.333092 140.0
84.411903 112.0
84.444946 180.0
84.482948 168.0
84.548752 160.0
84.593613 160.0
84.742508 220.0
84.776878 288.0
84.793671 168.0
84.849304 280.0
84.964554 200.0
85.014389 224.0
85.033043 144.0
85.089645 156.0
85.104332 164.0
85.157455 164.0
85.209023 252.0
85.246666 172.0
85.289879 148.0
85.315063 120.0
85.429291 172.0
85.525482 136.0
85.617371 160.0
85.641312 176.0
85.70211 144.0
85.729744 140.0
85.807167 164.0
85.908592 148.0
86.056152 180.0
86.074699 196.0
86.120949 184.0
86.154121 148.0
86.191071 172.0
86.288055 112.0
86.349556 208.0
86.43515 156.0
86.507568 220.0
86.523994 356.0
86.657104 156.0
86.671989 252.0
86.720345 168.0
86.738441 324.0
86.809029 196.0
86.830132 140.0
86.93869 260.0
86.969551 156.0
87.02272 224.0
87.091431 172.0
87.195473 172.0
87.22422 216.0
87.279129 160.0
87.307068 172.0
87.450569 128.0
87.49868 148.0
87.521019 168.0
87.558266 164.0
87.673767 180.0
87.752052 176.0
87.798027 104.0
87.888214 180.0
87.944199 156.0
88.031944 432.0
88.119736 208.0
88.14402 152.0
88.165955 152.0
88.202812 128.0
88.463844 172.0
88.503159 220.0
88.756813 172.0
88.8255 208.0
88.914215 228.0
88.944519 168.0
88.972923 136.0
89.007607 124.0
89.029579 180.0
89.064796 124.0
89.106483 208.0
89.180618 168.0
89.234833 120.0
89.265297 120.0
89.328926 224.0
89.351501 264.0
89.371162 188.0
89.403786 148.0
89.488892 180.0
89.507721 176.0
89.541618 180.0
89.581177 144.0
89.613205 140.0
89.628616 132.0
89.679161 156.0
89.812088 212.0
89.85453 140.0
89.906013 140.0
89.964615 192.0
90.013184 212.0
90.039513 140.0
90.077789 144.0
90.126411 180.0
90.206291 224.0
90.282005 116.0
90.307892 168.0
90.402573 156.0
90.423965 172.0
90.483879 180.0
90.605087 240.0
90.665718 160.0
90.684669 156.0
90.716896 200.0
90.75901 112.0
90.796577 164.0
90.914154 140.0
90.95591 160.0
91.054634 144.0
91.157463 156.0
91.196251 180.0
91.297897 152.0
91.40596 104.0
91.440582 196.0
91.511017 152.0
91.535767 200.0
91.549095 208.0
91.563774 96.0
91.628227 236.0
91.664833 148.0
91.735817 188.0
91.752975 140.0
91.810181 184.0
91.830704 252.0
91.865494 248.0
91.994537 112.0
92.014069 164.0
92.065903 228.0
92.100281 156.0
92.14711 132.0
92.16523 172.0
92.264618 144.0
92.279869 180.0
92.354492 148.0
92.423851 204.0
92.461807 132.0
92.55735 160.0
92.589119 176.0
92.655174 160.0
92.743179 156.0
92.779602 192.0
92.835205 208.0
92.961815 152.0
92.976311 152.0
92.989388 176.0
93.017387 164.0
93.087662 176.0
93.107712 148.0
93.396355 356.0
93.473869 272.0
93.501884 136.0
93.530701 508.0
93.612419 152.0
93.685593 300.0
93.725212 312.0
93.745575 152.0
93.778076 268.0
93.793098 140.0
93.849442 160.0
93.962364 164.0
93.975868 172.0
94.017334 180.0
94.093666 108.0
94.110039 148.0
94.20208 116.0
94.244873 160.0
94.327942 144.0
94.360451 132.0
94.433693 140.0
94.483986 180.0
94.50769 144.0
94.605911 192.0
94.696915 208.0
94.973274 192.0
95.000252 196.0
95.046227 192.0
95.065269 144.0
95.092644 152.0
95.108124 268.0
95.154556 168.0
95.179794 140.0
95.19339 280.0
95.286034 172.0
95.308319 144.0
95.353149 204.0
95.37561 232.0
95.442108 180.0
95.468651 96.0
95.491394 116.0
95.516785 172.0
95.595779 164.0
95.732048 144.0
95.766685 112.0
95.773125 136.0
95.800217 216.0
95.834274 232.0
95.930275 184.0
96.004448 128.0
96.043633 188.0
96.090698 148.0
96.377106 104.0
96.416527 148.0
96.452789 240.0
96.509483 220.0
96.549278 172.0
96.575157 184.0
96.613724 312.0
96.702843 124.0
96.787399 180.0
96.825676 172.0
96.864098 96.0
96.881569 120.0
96.947411 144.0
97.027817 124.0
97.110664 136.0
97.137321 180.0
97.156937 156.0
97.215797 164.0
97.243004 144.0
97.296272 144.0
97.343292 112.0
97.402321 204.0
97.416069 264.0
97.510384 196.0
97.545761 148.0
97.567383 140.0
97.592949 328.0
97.687347 168.0
97.77195 120.0
97.842812 172.0
97.87133 132.0
97.951118 188.0
97.98658 328.0
98.05555 172.0
98.150169 180.0
98.200348 192.0
98.260101 136.0
98.302063 216.0
98.399818 152.0
98.436089 156.0
98.473015 188.0
98.609444 136.0
98.630913 112.0
98.722832 140.0
98.777153 120.0
98.857346 140.0
98.912766 148.0
99.013741 352.0
99.112785 152.0
99.203125 152.0
99.281517 212.0
99.320717 204.0
99.3591 208.0
99.441986 156.0
99.618706 172.0
99.662407 184.0
99.767746 148.0
99.796928 112.0
99.820274 200.0
99.885071 160.0
99.921455 176.0
99.99894 368.0
100.021553 204.0
100.064461 120.0
100.084778 184.0
100.263367 196.0
100.289276 232.0
100.346436 148.0
100.379997 148.0
100.408226 212.0
100.45079 188.0
100.483788 96.0
100.570107 176.0
100.600876 152.0
100.630402 160.0
100.657898 260.0
100.738243 188.0
100.870132 140.0
100.911903 192.0
100.932106 208.0
100.9561 268.0
101.034958 104.0
101.083199 232.0
101.12616 144.0
101.147964 232.0
101.180206 296.0
101.195435 224.0
101.228256 152.0
101.268311 200.0
101.346436 144.0
101.40535 212.0
101.461861 168.0
101.484253 132.0
101.5299 172.0
101.552917 172.0
101.659248 152.0
101.775673 180.0
101.791733 148.0
101.833908 156.0
101.919266 188.0
101.948936 152.0
101.9645 180.0
101.985497 188.0
102.014755 220.0
102.105232 156.0
102.139259 392.0
102.181992 152.0
102.288712 188.0
102.33213 148.0
102.413811 188.0
102.471046 164.0
102.643654 164.0
102.683243 144.0
102.785217 200.0
102.812164 160.0
102.840614 196.0
102.885025 148.0
102.921371 168.0
102.94783 184.0
103.035652 144.0
103.051041 312.0
103.103424 276.0
103.197662 156.0
103.219307 268.0
103.238617 268.0
103.315483 264.0
103.329643 140.0
103.357971 196.0
103.439629 184.0
103.479408 164.0
103.564461 228.0
103.59005 180.0
103.678581 240.0
103.785553 152.0
103.811714 172.0
103.830093 196.0
103.856331 188.0
103.882706 156.0
103.941956 216.0
103.969345 120.0
104.021553 160.0
104.058586 180.0
104.078278 164.0
104.100861 156.0
104.144554 184.0
104.18721 140.0
104.220673 248.0
104.272346 156.0
104.315918 204.0
104.356705 172.0
104.467751 152.0
104.491447 148.0
104.53405 116.0
104.617577 160.0
104.681244 148.0
104.722191 160.0
104.76561 268.0
104.801643 244.0
104.889328 144.0
104.914986 124.0
104.954506 192.0
104.993256 144.0
105.040169 104.0
105.100838 148.0
105.255669 296.0
105.311638 160.0
105.365829 204.0
105.413513 172.0
105.452614 160.0
105.469482 144.0
105.488251 120.0
105.51384 164.0
105.563644 220.0
105.580093 136.0
105.609245 152.0
105.630508 184.0
105.655052 224.0
105.68264 136.0
105.704155 176.0
105.810097 100.0
105.878166 232.0
105.934105 192.0
105.988785 196.0
106.090378 160.0
106.245064 184.0
106.277893 200.0
106.356903 152.0
106.411888 140.0
106.467171 168.0
106.553467 212.0
106.600342 224.0
106.627541 148.0
106.678177 128.0
106.733887 204.0
106.826233 244.0
106.931412 124.0
107.046143 128.0
107.078308 184.0
107.123428 116.0
107.184669 240.0
107.294762 256.0
107.347519 188.0
107.376686 192.0
107.462051 144.0
107.493073 128.0
107.626663 156.0
107.646729 148.0
107.71093 140.0
107.874001 148.0
107.943527 204.0
107.987419 188.0
108.00518 128.0
108.046883 180.0
108.073105 176.0
108.096527 108.0
108.146973 128.0
108.200859 148.0
108.226761 124.0
108.252853 184.0
108.280685 204.0
108.304398 272.0
108.333405 320.0
108.364777 188.0
108.403847 148.0
108.44133 184.0
108.459801 172.0
108.492645 152.0
108.573837 140.0
108.618706 164.0
108.84153 152.0
108.870598 156.0
108.979019 208.0
109.011185 160.0
109.110603 208.0
109.363335 272.0
109.384148 140.0
109.409706 116.0
109.498665 164.0
109.575737 156.0
109.631416 164.0
109.685593 196.0
109.811295 168.0
109.826584 216.0
109.886391 212.0
109.973511 144.0
110.119392 176.0
110.189117 192.0
110.227837 172.0
110.26989 120.0
110.291512 164.0
110.426781 248.0
110.44944 156.0
110.483665 324.0
110.504822 164.0
110.523651 256.0
110.587479 200.0
110.620888 164.0
110.63652 168.0
110.723305 224.0
110.762314 168.0
110.887192 100.0
110.963493 152.0
111.078209 176.0
111.141769 144.0
111.164574 168.0
111.245895 176.0
111.292892 152.0
111.31044 144.0
111.383202 156.0
111.440147 156.0
111.4786 136.0
111.537712 172.0
111.561523 144.0
111.622185 140.0
111.654335 140.0
111.671059 164.0
111.718048 164.0
111.738472 164.0
111.779472 172.0
111.821495 168.0
111.841583 144.0
111.873161 164.0
111.89431 264.0
111.931305 184.0
111.94664 236.0
111.990181 188.0
112.066757 156.0
112.111168 160.0
112.134346 276.0
112.171333 220.0
112.191307 180.0
112.245056 264.0
112.346779 172.0
112.381073 324.0
112.43187 180.0
112.514038 140.0
112.556984 100.0
112.600609 156.0
112.666862 132.0
112.685104 152.0
112.72168 104.0
112.752441 148.0
112.786545 144.0
112.821938 172.0
112.83728 148.0
112.893822 140.0
112.928467 160.0
113.01947 168.0
113.065727 236.0
113.093239 168.0
113.108055 140.0
113.160873 176.0
113.180664 132.0
113.3283 168.0
113.510445 176.0
113.548759 200.0
113.566246 148.0
113.667564 156.0
113.756699 228.0
113.817207 188.0
113.928711 212.0
113.971207 192.0
114.166771 180.0
114.198669 168.0
114.240601 140.0
114.290146 352.0
114.305038 224.0
114.327904 220.0
114.351624 148.0
114.362915 164.0
114.407494 292.0
114.441261 184.0
114.573311 152.0
114.646416 224.0
114.716881 140.0
114.747124 216.0
114.786827 132.0
114.804985 168.0
114.832413 144.0
114.938644 148.0
115.027534 144.0
115.05394 716.0
115.093361 160.0
115.117203 360.0
115.166374 184.0
115.190125 140.0
115.263176 120.0
115.301941 252.0
115.370125 192.0
115.402565 136.0
115.427055 192.0
115.513077 196.0
115.967987 148.0
116.06086 172.0
116.168976 160.0
116.275375 148.0
116.519676 192.0
116.550919 180.0
116.614716 188.0
116.740906 132.0
116.779312 152.0
116.827599 152.0
116.870148 204.0
116.945946 296.0
116.961014 140.0
117.006218 160.0
117.028076 156.0
117.116043 164.0
117.139732 176.0
117.163681 104.0
117.197021 200.0
117.347702 200.0
117.373032 216.0
117.551529 144.0
117.624916 200.0
117.662041 120.0
117.739342 236.0
117.792336 120.0
117.826027 176.0
117.983513 256.0
118.014694 160.0
118.033234 200.0
118.089462 148.0
118.117584 168.0
118.14138 192.0
118.180321 304.0
118.232254 228.0
118.276108 152.0
118.411949 108.0
118.494804 112.0
118.576607 288.0
118.617783 148.0
118.700172 140.0
118.723953 124.0
118.795601 180.0
118.814629 156.0
118.866096 212.0
118.91494 164.0
118.949127 112.0
118.975723 184.0
119.021851 228.0
119.072617 96.0
119.192917 176.0
119.221161 176.0
119.247246 180.0
119.295143 104.0
119.320427 172.0
119.347237 324.0
119.363976 120.0
119.453209 132.0
119.649666 148.0
119.739403 224.0
119.77906 152.0
119.796211 164.0
119.840607 196.0
119.904518 152.0
119.959007 164.0
120.045982 148.0
120.104408 200.0
120.257835 152.0
120.340614 100.0
120.379929 160.0
120.408485 148.0
120.439064 168.0
120.465637 156.0
120.557037 140.0
120.69381 176.0
120.748283 268.0
120.860992 156.0
120.948532 172.0
121.012306 264.0
121.052994 168.0
121.099953 128.0
121.122017 224.0
121.143494 116.0
121.160942 144.0
121.239479 180.0
121.445908 252.0
121.463455 156.0
121.51963 132.0
121.552811 292.0
121.621445 212.0
121.654366 280.0
121.76741 120.0
121.890297 180.0
121.924683 116.0
121.962044 116.0
122.001465 140.0
122.136307 200.0
122.153198 180.0
122.234604 172.0
122.26252 128.0
122.299362 160.0
122.320435 156.0
122.360916 188.0
122.463242 168.0
122.546715 208.0
122.562157 284.0
122.608971 168.0
122.624397 144.0
122.688751 184.0
122.742973 132.0
122.862541 140.0
122.953003 180.0
123.021736 172.0
123.076408 164.0
123.146469 140.0
123.17672 224.0
123.229027 200.0
123.269997 184.0
123.299736 160.0
123.336655 116.0
123.381523 160.0
123.427956 148.0
123.492973 144.0
123.528931 176.0
123.570282 172.0
123.598274 264.0
123.708931 156.0
123.744354 164.0
123.797493 176.0
123.930405 180.0
124.054581 132.0
124.145119 148.0
124.174248 156.0
124.240791 188.0
124.268097 300.0
124.431648 204.0
124.558983 448.0
124.601395 196.0
124.838272 156.0
124.895439 176.0
124.919388 144.0
125.013474 648.0
125.100815 208.0
125.167763 232.0
125.220062 144.0
125.257309 228.0
125.290108 156.0
125.400459 172.0
125.439415 160.0
125.463936 140.0
125.510956 132.0
125.693665 144.0
125.733833 164.0
125.790047 172.0
125.909782 188.0
125.967529 176.0
126.005562 168.0
126.024124 232.0
126.061714 204.0
126.177071 152.0
126.214111 152.0
126.301331 148.0
126.341988 112.0
126.494682 108.0
126.51358 188.0
126.528305 252.0
126.668098 108.0
126.79966 204.0
126.823036 176.0
127.014359 236.0
127.05127 188.0
127.097328 212.0
127.156105 152.0
127.175179 220.0
127.278351 192.0
127.446907 184.0
127.478363 176.0
127.537872 136.0
127.633934 232.0
127.716644 176.0
127.746521 164.0
127.781914 164.0
127.833664 172.0
127.903435 160.0
127.937065 132.0
128.061203 3088.0
128.114365 192.0
128.185303 184.0
128.223267 216.0
128.259415 108.0
128.278458 172.0
128.322159 124.0
128.396866 144.0
128.413406 224.0
128.543594 188.0
128.566055 196.0
128.589233 120.0
128.627167 112.0
128.739944 176.0
128.789581 212.0
128.810654 132.0
128.873154 184.0
128.926147 164.0
128.956772 156.0
129.011017 140.0
129.02684 152.0
129.066849 300.0
129.09671 160.0
129.130859 176.0
129.203613 372.0
129.294708 192.0
129.413727 204.0
129.528976 148.0
129.608353 156.0
129.652954 204.0
129.692154 128.0
129.755844 156.0
129.803452 160.0
129.845383 196.0
129.909851 264.0
129.972733 96.0
130.039673 156.0
130.074417 380.0
130.13916 160.0
130.217285 124.0
130.248276 192.0
130.304581 148.0
130.332336 176.0
130.352859 120.0
130.416428 172.0
130.501724 160.0
130.57785 140.0
130.61554 148.0
130.661285 188.0
130.751617 160.0
130.775787 148.0
130.791733 156.0
130.852707 172.0
130.985275 200.0
131.007202 148.0
131.030838 168.0
131.085999 132.0
131.108307 236.0
131.200287 180.0
131.334015 168.0
131.357529 152.0
131.397232 180.0
131.42984 160.0
131.459503 224.0
131.550797 216.0
131.603577 204.0
131.65094 144.0
131.69841 124.0
131.756699 144.0
131.81015 188.0
131.936874 292.0
131.992249 204.0
132.059189 116.0
132.163284 300.0
132.186172 160.0
132.409668 172.0
132.438004 152.0
132.597015 188.0
132.703888 184.0
132.743881 120.0
132.76651 144.0
132.809845 200.0
132.862625 168.0
132.897507 200.0
132.933212 160.0
132.989746 328.0
133.139816 152.0
133.182678 300.0
133.208115 136.0
133.250961 260.0
133.346832 108.0
133.581116 252.0
133.636322 156.0
133.661636 140.0
133.771759 156.0
133.83197 164.0
133.88562 148.0
134.053101 160.0
134.188675 112.0
134.212311 144.0
134.253647 200.0
134.352829 152.0
134.435898 140.0
134.592865 196.0
134.611343 156.0
134.652847 172.0
134.68132 212.0
134.708344 160.0
134.733597 176.0
134.763794 164.0
134.793533 156.0
134.870087 200.0
135.027756 168.0
135.068939 144.0
135.117523 168.0
135.211014 180.0
135.230911 188.0
135.332428 136.0
135.399918 144.0
135.426758 156.0
135.467087 148.0
135.494888 196.0
135.626984 148.0
135.661011 324.0
135.696518 256.0
135.756805 152.0
135.814789 152.0
135.854355 144.0
135.889023 160.0
135.904541 304.0
135.942093 152.0
135.966644 160.0
136.24588 136.0
136.329208 224.0
136.385986 176.0
136.500565 156.0
136.520828 148.0
136.539429 176.0
136.576645 168.0
136.611786 148.0
136.673584 204.0
137.015198 392.0
137.061417 264.0
137.24469 144.0
137.297195 140.0
137.429337 156.0
137.487869 152.0
137.552979 136.0
137.591629 228.0
137.715515 248.0
137.793549 272.0
137.894958 96.0
137.962311 156.0
138.133408 112.0
138.197281 120.0
138.235428 148.0
138.307983 160.0
138.327713 180.0
138.350113 152.0
138.387573 172.0
138.45813 168.0
138.488266 212.0
138.527084 356.0
138.64624 168.0
138.681046 116.0
138.747818 144.0
138.919571 176.0
138.952408 188.0
139.005798 128.0
139.1026 156.0
139.177139 160.0
139.210602 144.0
139.243637 120.0
139.341644 152.0
139.421021 288.0
139.44281 124.0
139.618301 156.0
139.652435 184.0
139.690079 152.0
139.718307 160.0
139.795944 124.0
139.833542 144.0
139.899506 156.0
139.951385 120.0
140.016586 104.0
140.03392 140.0
140.091492 168.0
140.217926 172.0
140.303802 208.0
140.420258 228.0
140.509232 176.0
140.542923 284.0
140.569778 204.0
140.596634 152.0
140.639618 184.0
140.684525 228.0
140.708099 236.0
140.779816 128.0
140.844284 152.0
140.972504 160.0
141.02594 120.0
141.088501 200.0
141.144424 164.0
141.187805 144.0
141.275208 200.0
141.32309 144.0
141.442108 124.0
141.511566 136.0
141.54245 144.0
141.784393 136.0
141.849869 192.0
141.881577 144.0
141.938202 104.0
141.966934 340.0
142.023849 280.0
142.046967 300.0
142.250015 232.0
142.320496 228.0
142.417862 156.0
142.483673 136.0
142.522278 164.0
142.640732 96.0
142.655609 128.0
142.762131 124.0
142.795776 192.0
142.820847 316.0
142.862366 140.0
142.903381 216.0
142.970016 272.0
143.169418 164.0
143.255157 140.0
143.305191 200.0
143.32663 232.0
143.34964 116.0
143.463974 224.0
143.544189 312.0
143.562622 180.0
143.596008 144.0
143.656998 324.0
143.700607 160.0
143.734375 148.0
143.91333 156.0
143.994583 172.0
144.104462 188.0
144.121201 380.0
144.152252 148.0
144.25264 156.0
144.286102 224.0
144.430008 340.0
144.546814 316.0
144.598892 100.0
144.637756 172.0
144.698685 136.0
144.732483 204.0
144.787842 320.0
144.814941 160.0
144.991852 176.0
145.06543 112.0
145.089188 160.0
145.136063 156.0
145.19841 140.0
145.359146 168.0
145.443695 172.0
145.490036 140.0
145.521667 160.0
145.538391 148.0
145.62352 128.0
145.649643 252.0
145.665527 140.0
145.731308 204.0
145.76976 188.0
145.798599 180.0
145.815414 164.0
145.949371 144.0
145.96843 184.0
146.043823 144.0
146.068619 132.0
146.091934 160.0
146.120804 176.0
146.152084 152.0
146.202621 180.0
146.243561 160.0
146.335007 208.0
146.358719 104.0
146.463867 204.0
146.543411 236.0
146.597565 200.0
146.649673 140.0
146.706024 204.0
146.74942 212.0
146.797638 352.0
146.829666 188.0
146.918243 212.0
146.985794 192.0
147.03447 140.0
147.07222 172.0
147.162003 144.0
147.198212 176.0
147.229614 188.0
147.315781 200.0
147.399918 192.0
147.449448 164.0
147.522125 116.0
147.585632 152.0
147.611618 460.0
147.671875 144.0
147.694183 164.0
147.799774 148.0
147.846069 188.0
147.887222 180.0
147.921097 180.0
147.991318 200.0
148.057999 200.0
148.133102 160.0
148.185074 188.0
148.233536 164.0
148.257767 176.0
148.274734 208.0
148.347443 224.0
148.400787 156.0
148.423981 240.0
148.479156 200.0
148.630127 116.0
148.750122 168.0
148.904358 332.0
148.973526 268.0
149.015167 728.0
149.070099 176.0
149.206543 164.0
149.253754 216.0
149.374634 204.0
149.403824 164.0
149.434433 160.0
149.552261 168.0
149.647202 188.0
149.716599 152.0
149.882324 224.0
149.99762 176.0
150.052139 196.0
150.082886 304.0
150.111542 224.0
150.156494 224.0
150.306625 168.0
150.330841 128.0
150.458328 132.0
150.561615 140.0
150.63446 136.0
150.691071 172.0
150.776596 172.0
150.914246 268.0
150.98024 192.0
151.016205 224.0
151.053925 188.0
151.19725 164.0
151.275574 140.0
151.622299 172.0
151.699478 160.0
151.772919 144.0
151.834213 144.0
151.970886 140.0
152.017288 192.0
152.062149 364.0
152.096741 160.0
152.116074 128.0
152.136673 212.0
152.229324 172.0
152.288269 284.0
152.630142 172.0
152.668182 96.0
152.738068 204.0
152.787918 152.0
152.858002 192.0
152.920135 176.0
153.092575 188.0
153.114639 140.0
153.271774 188.0
153.33963 144.0
153.368408 140.0
153.491669 152.0
153.56813 148.0
153.592789 156.0
153.681595 192.0
153.703339 208.0
153.806442 232.0
153.918564 208.0
153.960419 336.0
154.013916 104.0
154.161469 96.0
154.261978 176.0
154.389587 176.0
154.431061 188.0
154.495422 220.0
154.600983 120.0
154.688248 232.0
154.94281 140.0
154.972717 324.0
155.053131 132.0
155.120071 136.0
155.180771 288.0
155.227325 140.0
155.25058 160.0
155.331726 156.0
155.415146 268.0
155.553192 152.0
155.56871 120.0
155.620667 324.0
155.764267 172.0
155.783508 148.0
155.838425 140.0
155.856064 256.0
155.989975 140.0
156.238449 220.0
156.316635 160.0
156.34761 160.0
156.397705 296.0
156.455521 192.0
156.570282 176.0
156.686569 172.0
156.758652 124.0
156.810608 128.0
156.848541 200.0
156.875961 148.0
156.972672 172.0
157.000626 176.0
157.023529 152.0
157.065475 148.0
157.106674 180.0
157.197067 124.0
157.245575 156.0
157.279434 160.0
157.357452 152.0
157.412384 272.0
157.442352 208.0
157.4599 132.0
157.559753 180.0
157.618362 104.0
157.68428 100.0
157.798615 156.0
157.820831 216.0
157.86174 180.0
157.939713 176.0
157.966873 144.0
158.016327 360.0
158.057297 244.0
158.074814 232.0
158.179169 120.0
158.27507 284.0
158.320251 180.0
158.527878 292.0
158.573166 324.0
158.738632 232.0
158.758698 156.0
158.879089 156.0
158.944473 128.0
159.024323 960.0
159.056412 204.0
159.071823 184.0
159.167542 160.0
159.221588 124.0
159.259186 228.0
159.323349 228.0
159.417084 224.0
159.564056 216.0
159.597382 168.0
159.654785 184.0
159.826279 140.0
159.876602 144.0
159.990906 216.0
160.034119 480.0
160.110275 176.0
160.140625 152.0
160.156067 204.0
160.182892 160.0
160.257233 180.0
160.299744 140.0
160.32991 276.0
160.3526 204.0
160.387878 164.0
160.427429 128.0
160.483673 192.0
160.552856 312.0
160.576981 184.0
160.608002 148.0
160.652649 168.0
160.679855 128.0
160.748535 168.0
160.854721 164.0
161.04306 432.0
161.107056 148.0
161.172745 180.0
161.263718 140.0
161.360687 144.0
161.394943 176.0
161.402954 160.0
161.430573 212.0
161.514771 208.0
161.593475 220.0
161.654999 128.0
161.677994 268.0
161.774124 148.0
161.797455 160.0
161.865143 104.0
161.925064 204.0
161.961319 220.0
162.021805 1328.0
162.185913 312.0
162.474106 164.0
162.61998 148.0
162.641586 280.0
162.833801 160.0
162.867569 168.0
162.892975 168.0
162.94812 96.0
163.00444 160.0
163.023636 172.0
163.049515 144.0
163.09935 204.0
163.140579 192.0
163.227188 184.0
163.340363 140.0
163.505783 208.0
163.513977 120.0
163.52269 352.0
163.547272 404.0
163.77002 168.0
163.94632 320.0
163.973175 180.0
164.020081 588.0
164.069733 200.0
164.139374 164.0
164.396759 152.0
164.545929 160.0
164.566162 144.0
164.595016 148.0
164.68428 128.0
164.820374 160.0
164.874847 200.0
164.941696 172.0
165.024582 192.0
165.070129 928.0
165.105331 152.0
165.151764 184.0
165.176956 248.0
165.222992 156.0
165.25882 180.0
165.329727 140.0
165.358047 144.0
165.381653 184.0
165.414444 224.0
165.434433 292.0
165.596725 240.0
165.625809 124.0
165.652878 188.0
165.751083 124.0
165.854523 104.0
166.067795 224.0
166.121277 136.0
166.14653 344.0
166.258163 172.0
166.311508 188.0
166.376266 368.0
166.500015 120.0
166.520035 236.0
166.720261 188.0
166.786346 160.0
166.833847 124.0
166.956284 172.0
167.013519 148.0
167.123505 144.0
167.174698 148.0
167.219681 192.0
167.312027 196.0
167.440765 168.0
167.639999 156.0
167.683624 168.0
167.72934 172.0
167.845352 148.0
167.867981 180.0
167.965652 216.0
168.0186 188.0
168.047394 144.0
168.097244 160.0
168.167831 236.0
168.333054 324.0
168.36145 164.0
168.381912 164.0
168.46994 140.0
168.50705 164.0
168.564865 156.0
168.636307 176.0
168.676666 264.0
168.705109 184.0
168.751633 288.0
168.810181 112.0
168.992294 160.0
169.062439 152.0
169.181107 176.0
169.235596 156.0
169.366028 116.0
169.388672 176.0
169.482834 192.0
169.517807 260.0
169.551498 176.0
169.665619 156.0
169.778046 156.0
169.823532 316.0
169.947113 184.0
170.042786 168.0
170.111099 224.0
170.229324 152.0
170.251953 352.0
170.374695 124.0
170.412994 136.0
170.441437 148.0
170.506546 204.0
170.586319 180.0
170.69632 144.0
170.733994 140.0
170.787338 260.0
170.880997 156.0
170.917419 148.0
170.935638 140.0
170.980682 128.0
171.035812 220.0
171.089828 164.0
171.194168 344.0
171.230499 136.0
171.268875 232.0
171.466354 116.0
171.5271 116.0
171.616684 216.0
171.64415 148.0
171.680023 148.0
171.714569 152.0
171.805862 152.0
171.830719 152.0
171.899796 348.0
171.930344 220.0
172.159439 172.0
172.215012 196.0
172.315918 116.0
172.398392 192.0
172.519226 192.0
172.546524 124.0
172.572662 104.0
172.71109 276.0
172.780304 280.0
172.814316 184.0
173.109116 368.0
173.153076 256.0
173.180344 244.0
173.322403 164.0
173.344345 180.0
173.440216 396.0
173.549606 400.0
173.723679 120.0
173.839035 116.0
173.909714 348.0
173.964844 228.0
174.097519 204.0
174.119751 168.0
174.138138 172.0
174.240723 136.0
174.33374 176.0
174.466599 156.0
174.577026 156.0
174.645401 184.0
174.683441 192.0
174.716507 140.0
174.750381 164.0
174.781952 164.0
174.89563 204.0
174.942413 252.0
175.003311 168.0
175.081711 196.0
175.158875 112.0
175.24881 340.0
175.293045 180.0
175.393204 216.0
175.416779 156.0
175.461731 180.0
175.511826 188.0
175.588303 156.0
175.618317 220.0
175.709641 144.0
175.822937 184.0
175.846359 148.0
175.893387 224.0
176.116165 148.0
176.153152 144.0
176.261475 144.0
176.31514 132.0
176.484985 312.0
176.544479 136.0
176.57077 204.0
176.621017 332.0
176.668625 164.0
176.700378 184.0
176.71994 244.0
176.77182 172.0
176.825684 180.0
176.933014 164.0
177.0224 188.0
177.128754 108.0
177.203354 168.0
177.248459 152.0
177.287796 308.0
177.410126 148.0
177.49762 168.0
177.616425 196.0
177.669083 144.0
177.805832 132.0
177.845154 144.0
177.882721 236.0
177.928772 128.0
177.956436 192.0
178.001877 132.0
178.049591 224.0
178.073898 192.0
178.116898 180.0
178.150528 184.0
178.196228 172.0
178.307297 176.0
178.382294 128.0
178.409943 136.0
178.458969 180.0
178.559158 136.0
178.590424 188.0
178.66626 208.0
178.687714 188.0
178.726913 240.0
178.756729 148.0
179.006592 212.0
179.080704 132.0
179.126801 172.0
179.294647 208.0
179.430603 164.0
179.460693 168.0
179.520813 140.0
179.561905 140.0
179.816483 156.0
180.009491 108.0
180.136688 188.0
180.168793 152.0
180.282074 228.0
180.380966 140.0
180.462753 168.0
180.554123 120.0
180.616272 188.0
180.830322 172.0
180.877823 144.0
180.905258 140.0
180.993622 464.0
181.015091 232.0
181.097031 104.0
181.192764 192.0
181.226639 140.0
181.431732 152.0
181.52417 176.0
181.572449 156.0
181.601944 240.0
181.664948 100.0
181.765594 184.0
181.821243 216.0
181.965515 312.0
182.033203 184.0
182.166428 160.0
182.480057 140.0
182.509338 144.0
182.567368 176.0
182.680038 132.0
182.711349 216.0
182.759781 172.0
182.802826 148.0
182.822327 376.0
182.853271 108.0
182.906372 212.0
182.932022 292.0
183.002014 148.0
183.182449 172.0
183.246185 172.0
183.310745 136.0
183.370438 136.0
183.478882 196.0
183.521515 148.0
183.571503 268.0
183.619522 180.0
183.730637 160.0
183.840134 232.0
184.036377 192.0
184.093079 332.0
184.148087 164.0
184.226425 148.0
184.351898 236.0
184.38855 144.0
184.420975 160.0
184.495285 180.0
184.558853 244.0
184.584732 188.0
184.668503 112.0
184.810944 156.0
184.845566 164.0
184.865982 96.0
184.914825 140.0
185.078964 108.0
185.111954 176.0
185.186676 184.0
185.224899 216.0
185.392578 152.0
185.480331 200.0
185.566055 196.0
185.67453 184.0
185.696213 176.0
185.731476 140.0
185.773972 120.0
185.856277 204.0
185.955521 112.0
186.023407 128.0
186.067978 148.0
186.097839 144.0
186.132507 224.0
186.168854 160.0
186.198318 228.0
186.260788 168.0
186.298813 172.0
186.32814 136.0
186.396622 200.0
186.451859 196.0
186.508041 216.0
186.543381 184.0
186.567856 156.0
186.59108 164.0
186.613434 120.0
186.633316 180.0
186.70018 168.0
186.734222 152.0
186.796005 180.0
186.895065 160.0
186.944763 160.0
186.975235 140.0
187.051575 292.0
187.111954 156.0
187.13884 156.0
187.272919 144.0
187.406097 184.0
187.456406 184.0
187.496017 148.0
187.542358 148.0
187.634964 188.0
187.673218 160.0
187.768646 152.0
187.8423 152.0
187.888672 212.0
187.910492 152.0
187.971252 188.0
187.995087 160.0
188.037125 184.0
188.14418 160.0
188.273544 168.0
188.310577 200.0
188.369751 176.0
188.526749 192.0
188.594513 124.0
188.629028 108.0
188.788925 168.0
188.865585 148.0
188.956894 220.0
189.033508 160.0
189.070541 164.0
189.095535 144.0
189.136032 108.0
189.197723 148.0
189.28064 124.0
189.417557 144.0
189.463577 316.0
189.515427 196.0
189.602386 228.0
189.680145 156.0
189.753799 140.0
189.811844 200.0
189.925522 140.0
189.952652 264.0
189.976807 180.0
190.018082 144.0
190.079102 204.0
190.15712 152.0
190.191101 160.0
190.222321 256.0
190.252197 144.0
190.335556 144.0
190.404205 172.0
190.460999 136.0
190.529541 152.0
190.644394 128.0
190.690414 184.0
190.774902 188.0
190.816376 144.0
190.837341 244.0
190.880875 140.0
190.90712 164.0
190.96611 196.0
191.091263 148.0
191.416458 168.0
191.496063 292.0
191.589722 160.0
191.642929 152.0
191.691666 244.0
191.733719 276.0
191.7724 192.0
191.8405 152.0
191.895233 168.0
191.978348 124.0
192.090759 164.0
192.279053 268.0
192.4039 148.0
192.590256 152.0
192.615906 188.0
192.66011 164.0
192.843765 180.0
192.878418 140.0
192.910446 176.0
192.987091 1996.0
193.016647 304.0
193.066071 224.0
193.093353 132.0
193.12886 160.0
193.229614 188.0
193.267593 208.0
193.328308 96.0
193.359665 168.0
193.381805 140.0
193.404205 132.0
193.435944 180.0
193.567291 204.0
193.697464 156.0
193.71962 152.0
193.802368 212.0
193.807617 184.0
193.826553 220.0
193.943604 168.0
193.988419 108.0
194.039902 140.0
194.064484 184.0
194.11319 140.0
194.223343 184.0
194.329544 164.0
194.396133 168.0
194.415558 248.0
194.584869 164.0
194.634857 200.0
194.662628 152.0
194.722397 236.0
194.792374 156.0
194.918945 144.0
194.98175 476.0
195.025925 472.0
195.057068 156.0
195.143326 312.0
195.337845 148.0
195.413101 116.0
195.456757 220.0
195.568939 176.0
195.591675 120.0
195.685852 176.0
195.877579 104.0
195.980804 152.0
196.032623 1132.0
196.302536 340.0
196.381714 152.0
196.443893 216.0
196.474579 152.0
196.545395 240.0
196.572235 160.0
196.632599 160.0
196.678284 148.0
196.700607 200.0
196.759613 204.0
196.803772 96.0
196.903152 164.0
197.002197 280.0
197.042038 188.0
197.081711 96.0
197.169388 196.0
197.346939 148.0
197.423965 156.0
197.457733 152.0
197.538284 196.0
197.648026 152.0
197.775208 172.0
198.033463 176.0
198.097519 184.0
198.20285 164.0
198.236069 168.0
198.255692 228.0
198.286514 156.0
198.313339 140.0
198.342575 188.0
198.470459 116.0
198.527603 268.0
198.547241 144.0
198.583694 184.0
198.609879 224.0
198.633759 184.0
198.663742 164.0
198.723969 208.0
198.747086 216.0
198.771667 448.0
198.839005 176.0
198.92041 144.0
198.942871 144.0
199.029419 908.0
199.058578 132.0
199.118515 304.0
199.185364 268.0
199.220886 144.0
199.261475 224.0
199.327652 152.0
199.476059 200.0
199.574997 200.0
199.637802 184.0
199.703186 224.0
199.732483 160.0
199.852783 116.0
199.883484 296.0
199.960388 212.0
200.032883 360.0
200.05809 152.0
200.157135 176.0
200.24733 144.0
200.261566 128.0
200.281891 196.0
200.351425 188.0
200.60376 124.0
200.678711 144.0
200.715363 196.0
200.85965 356.0
200.909103 164.0
200.954193 208.0
201.02803 252.0
201.066788 132.0
201.222198 148.0
201.275818 148.0
201.30513 144.0
201.336182 268.0
201.377289 144.0
201.468643 188.0
201.579132 172.0
201.6297 116.0
201.666748 160.0
201.728928 156.0
201.776993 148.0
201.836578 204.0
201.885803 152.0
201.907059 204.0
201.968567 388.0
202.024017 332.0
202.077774 3100.0
202.354141 148.0
202.393784 172.0
202.45726 236.0
202.490067 144.0
202.611603 172.0
202.683197 136.0
202.716705 188.0
202.764633 136.0
202.801727 128.0
202.896103 148.0
202.940628 180.0
202.997116 340.0
203.030045 284.0
203.084885 11328.0
203.126831 188.0
203.153046 156.0
203.224258 156.0
203.245651 144.0
203.315216 144.0
203.42868 136.0
203.536484 216.0
203.618439 148.0
203.675644 172.0
203.730835 148.0
203.756195 112.0
203.789795 132.0
203.822937 104.0
203.852814 176.0
203.882553 304.0
203.925674 152.0
204.025162 208.0
204.089371 2044.0
204.184036 128.0
204.227127 204.0
204.26973 104.0
204.398834 168.0
204.606888 100.0
204.631149 192.0
204.657913 320.0
204.756531 148.0
204.869431 168.0
204.911758 228.0
204.984451 200.0
205.050278 116.0
205.091568 244.0
205.210663 220.0
205.279755 108.0
205.34639 160.0
205.366364 172.0
205.527969 160.0
205.672165 156.0
205.801758 116.0
205.825821 176.0
205.848663 264.0
205.88974 136.0
205.917145 176.0
205.96756 172.0
206.025833 172.0
206.072098 268.0
206.107452 148.0
206.140045 212.0
206.173889 180.0
206.226547 148.0
206.300095 168.0
206.333664 108.0
206.425903 244.0
206.480225 192.0
206.508621 168.0
206.523666 192.0
206.624283 124.0
206.674759 164.0
206.713379 136.0
206.735703 212.0
206.8741 232.0
207.082977 280.0
207.155731 144.0
207.255997 140.0
207.620056 188.0
207.696091 96.0
207.717087 156.0
207.797379 200.0
207.927032 140.0
207.997498 140.0
208.037781 424.0
208.067673 148.0
208.096756 308.0
208.120743 140.0
208.154892 180.0
208.241898 196.0
208.275604 296.0
208.31662 184.0
208.338791 148.0
208.495667 216.0
208.52153 184.0
208.547394 144.0
208.629196 124.0
208.707031 136.0
208.790161 128.0
208.879776 444.0
208.919617 148.0
209.003082 96.0
209.041809 1408.0
209.08522 148.0
209.178665 172.0
209.260803 212.0
209.360397 164.0
209.447617 128.0
209.523163 348.0
209.55011 124.0
209.582886 204.0
209.740509 116.0
209.849731 168.0
209.950607 176.0
209.979004 176.0
210.014648 188.0
210.049042 17820.0
210.145905 212.0
210.211868 132.0
210.246628 292.0
210.291199 208.0
210.337051 268.0
210.404144 164.0
210.448685 184.0
210.483978 184.0
210.546967 124.0
210.572754 104.0
210.607529 220.0
210.786087 196.0
210.844437 164.0
210.934998 168.0
210.987198 284.0
211.050781 3016.0
211.201126 152.0
211.280624 216.0
211.31221 224.0
211.330444 272.0
211.376007 152.0
211.41925 152.0
211.528168 264.0
211.638321 136.0
211.696274 172.0
211.72435 120.0
211.792114 248.0
211.854874 148.0
211.938278 176.0
211.984573 176.0
211.990158 172.0
212.039749 4600.0
212.149841 148.0
212.193329 188.0
212.220184 112.0
212.30249 124.0
212.333847 140.0
212.428452 260.0
212.567627 168.0
212.628433 200.0
212.73407 132.0
212.79277 176.0
212.876022 140.0
212.974731 148.0
213.040451 1224.0
213.121078 216.0
213.151276 184.0
213.187408 136.0
213.255768 168.0
213.307617 148.0
213.411667 172.0
213.434616 156.0
213.456375 140.0
213.499054 200.0
213.541809 168.0
213.631165 204.0
213.662247 168.0
213.730759 168.0
213.775085 136.0
213.830261 208.0
213.932098 248.0
213.953491 152.0
214.034134 668.0
214.082016 180.0
214.112183 172.0
214.175217 188.0
214.210175 200.0
214.256577 152.0
214.315048 156.0
214.341965 184.0
214.388641 188.0
214.445465 172.0
214.517441 188.0
214.802811 156.0
214.872849 176.0
215.00238 152.0
215.029022 148.0
215.038162 140.0
215.175446 172.0
215.213028 284.0
215.309769 140.0
215.330215 328.0
215.394836 256.0
215.419785 156.0
215.444122 224.0
215.499084 168.0
215.531784 148.0
215.660446 140.0
215.738068 248.0
215.791916 156.0
215.819977 144.0
215.863525 156.0
215.904938 176.0
215.967026 204.0
215.999542 176.0
216.127029 216.0
216.248657 232.0
216.330215 180.0
216.362411 208.0
216.414612 148.0
216.514755 160.0
216.632065 164.0
216.652725 184.0
216.727554 184.0
216.913452 116.0
216.974701 172.0
216.995224 160.0
217.231827 216.0
217.463974 136.0
217.508606 164.0
217.540894 144.0
217.595123 168.0
217.696503 184.0
217.803513 252.0
217.884735 196.0
217.931503 152.0
217.97023 156.0
218.004959 144.0
218.079971 204.0
218.206985 180.0
218.345932 148.0
218.443726 104.0
218.466568 212.0
218.506897 288.0
218.537186 184.0
218.626511 112.0
218.736755 108.0
218.767944 204.0
218.793228 192.0
218.871689 148.0
218.978745 180.0
219.106659 272.0
219.168549 112.0
219.222794 148.0
219.302841 220.0
219.357162 200.0
219.388458 180.0
219.492722 156.0
219.520996 144.0
219.608032 204.0
219.711136 168.0
219.837814 176.0
219.86615 144.0
219.89566 140.0
219.948013 316.0
219.995682 136.0
220.096146 156.0
220.155472 144.0
220.176132 140.0
220.226349 144.0
220.258835 148.0
220.312012 296.0
220.340805 220.0
220.41246 200.0
220.445236 132.0
220.504074 228.0
220.57074 124.0
220.624176 120.0
220.651459 308.0
220.733093 144.0
220.772507 180.0
220.794388 248.0
220.817459 176.0
220.839554 348.0
220.879929 168.0
220.902145 384.0
220.940521 244.0
220.99115 324.0
221.041916 101656.0
221.156143 288.0
221.22876 172.0
221.282547 140.0
221.315994 172.0
221.388519 124.0
221.43634 224.0
221.464325 216.0
221.529739 200.0
221.568604 220.0
221.64389 192.0
221.672852 192.0
221.704712 172.0
221.733414 96.0
221.815079 116.0
221.889404 164.0
221.998581 160.0
222.044647 10760.0
222.236801 108.0
222.294296 220.0
222.366974 136.0
222.405136 144.0
222.507156 144.0
222.545639 132.0
222.583527 152.0
222.726318 144.0
222.815353 144.0
222.870087 200.0
222.993713 180.0
223.037628 3536.0
223.092575 184.0
223.174561 112.0
223.186508 144.0
223.261078 212.0
223.335144 220.0
223.344437 188.0
223.368118 268.0
223.451584 148.0
223.516678 196.0
223.541168 104.0
223.673294 200.0
223.699066 172.0
223.815414 116.0
223.935852 100.0
224.041626 568.0
224.124481 200.0
224.160416 132.0
224.219162 124.0
224.446762 228.0
224.497086 140.0
224.566849 164.0
224.589203 108.0
224.598343 160.0
224.666046 160.0
224.716599 156.0
224.74205 128.0
224.785431 188.0
224.919601 156.0
224.979279 204.0
225.019257 152.0
225.046783 252.0
225.07428 140.0
225.097961 224.0
225.216354 168.0
225.237259 176.0
225.34671 272.0
225.539047 164.0
225.637695 156.0
225.664673 176.0
225.691513 168.0
225.712448 172.0
225.876938 160.0
225.909836 160.0
225.95665 136.0
225.980698 204.0
226.015213 144.0
226.048126 200.0
226.089813 104.0
226.167175 276.0
226.234726 276.0
226.478577 216.0
226.639771 200.0
226.666489 196.0
226.860214 164.0
226.898102 144.0
226.922089 148.0
227.003036 164.0
227.083557 212.0
227.122726 116.0
227.180679 176.0
227.242996 144.0
227.294006 124.0
227.326538 148.0
227.369034 172.0
227.554749 184.0
227.598557 436.0
227.642212 148.0
227.718094 188.0
227.804398 192.0
227.897537 144.0
227.918564 184.0
227.963852 132.0
228.012894 184.0
228.041779 196.0
228.241714 108.0
228.318237 168.0
228.422836 208.0
228.537964 144.0
228.606445 132.0
228.640274 216.0
228.669952 232.0
228.751648 148.0
228.896439 204.0
228.986588 132.0
229.049103 220.0
229.08371 176.0
229.110001 164.0
229.140121 148.0
229.209427 148.0
229.305099 112.0
229.353149 156.0
229.426941 164.0
229.465973 168.0
229.547028 164.0
229.740677 176.0
229.802277 148.0
229.836975 100.0
229.909027 144.0
229.957733 144.0
229.990829 260.0
230.122742 140.0
230.17865 140.0
230.241104 204.0
230.305954 164.0
230.337753 164.0
230.358902 168.0
230.451736 204.0
230.477631 288.0
230.627197 188.0
230.677048 148.0
230.711609 264.0
230.746719 212.0
230.789673 172.0
230.849289 212.0
230.914505 192.0
230.946976 220.0
231.003555 156764.0
231.126495 144.0
231.196304 164.0
231.232468 276.0
231.263855 100.0
231.451767 192.0
231.481705 220.0
231.612503 156.0
231.706635 128.0
231.736679 112.0
231.759659 200.0
231.847305 112.0
231.864777 336.0
231.903336 160.0
231.942047 280.0
231.949066 328.0
232.005325 14164.0
232.071121 252.0
232.121567 120.0
232.267105 248.0
232.325821 156.0
232.347458 268.0
232.407288 152.0
232.498856 156.0
232.523834 192.0
232.627029 112.0
232.674011 116.0
232.719772 204.0
232.784912 160.0
232.835281 300.0
232.85878 136.0
232.886536 176.0
232.99971 31592.0
233.152557 184.0
233.190186 128.0
233.259903 176.0
233.288315 144.0
233.361176 152.0
233.47821 272.0
233.504364 168.0
233.549713 188.0
233.598907 276.0
233.635437 128.0
233.666626 160.0
233.703461 124.0
233.741226 192.0
233.800629 212.0
233.893448 184.0
233.955322 148.0
234.002655 3584.0
234.049667 13004.0
234.127274 144.0
234.159439 220.0
234.22879 192.0
234.265594 128.0
234.299988 132.0
234.359558 224.0
234.421326 168.0
234.468384 208.0
234.517014 164.0
234.633408 100.0
234.658859 136.0
234.689728 504.0
234.747314 192.0
234.789642 376.0
234.907333 320.0
234.986313 236.0
235.057556 71200.0
235.137817 144.0
235.225784 344.0
235.314819 288.0
235.336121 176.0
235.514404 164.0
235.600616 388.0
235.692383 128.0
235.750763 128.0
235.780243 340.0
235.827179 240.0
235.883133 216.0
235.909653 136.0
235.968246 112.0
236.014145 168.0
236.064987 73288.0
236.123993 188.0
236.168228 128.0
236.19278 180.0
236.203278 196.0
236.238144 204.0
236.276413 212.0
236.367233 160.0
236.460007 208.0
236.535187 116.0
236.588715 180.0
236.723663 176.0
236.839478 224.0
237.067307 10208.0
237.202744 172.0
237.274063 180.0
237.404739 140.0
237.49791 136.0
237.574905 304.0
237.603912 132.0
237.657043 116.0
237.709396 300.0
237.77121 120.0
237.796844 260.0
237.831543 340.0
237.8909 132.0
237.915329 180.0
237.950623 132.0
238.004044 192.0
238.054474 35168.0
238.137772 120.0
238.18483 316.0
238.214645 168.0
238.372437 304.0
238.444977 168.0
238.45607 132.0
238.469955 160.0
238.525879 168.0
238.564056 200.0
238.645981 216.0
238.792847 424.0
238.995773 236.0
239.056305 4748.0
239.299606 180.0
239.352844 156.0
239.384109 160.0
239.470352 232.0
239.627457 248.0
239.677841 180.0
239.771042 220.0
239.84317 148.0
239.926392 204.0
239.97139 236.0
240.051437 7452.0
240.228378 156.0
240.265518 104.0
240.307281 152.0
240.361282 192.0
240.395813 228.0
240.449615 440.0
240.521759 312.0
240.591446 188.0
240.647369 220.0
240.685303 148.0
240.778931 240.0
240.896454 152.0
240.939987 240.0
240.984207 240.0
241.052689 892.0
241.128998 172.0
241.193604 252.0
241.310715 164.0
241.409058 124.0
241.529083 200.0
241.570801 172.0
241.621887 192.0
241.727081 160.0
241.835983 188.0
241.939499 184.0
241.999466 196.0
242.032318 144.0
242.119324 104.0
242.194244 116.0
242.265717 128.0
242.494354 148.0
242.755783 188.0
242.783432 228.0
242.881454 296.0
243.002563 596.0
243.052994 120.0
243.0952 160.0
243.190979 132.0
243.391647 144.0
243.44133 160.0
243.469162 224.0
243.511703 212.0
243.5737 184.0
243.798569 180.0
243.831879 152.0
243.873169 228.0
243.894913 168.0
244.009491 444.0
244.185883 124.0
244.298401 116.0
244.350494 160.0
244.389389 176.0
244.442276 204.0
244.535568 156.0
244.593674 192.0
244.728653 140.0
244.781586 244.0
244.935349 204.0
244.963806 140.0
245.01799 19628.0
245.072403 204.0
245.217178 176.0
245.265366 196.0
245.324738 204.0
245.351761 160.0
245.576279 156.0
245.656097 196.0
245.703033 144.0
245.864212 136.0
246.020233 2392.0
246.116058 144.0
246.197342 160.0
246.235916 204.0
246.279236 108.0
246.394119 144.0
246.473755 148.0
246.514236 148.0
246.570755 152.0
246.761856 236.0
246.84108 248.0
246.873688 140.0
246.89624 188.0
246.931763 192.0
247.01445 5068.0
247.100876 136.0
247.159088 156.0
247.193115 164.0
247.230927 128.0
247.289856 168.0
247.417435 140.0
247.555206 152.0
247.605209 200.0
247.761154 112.0
247.789459 152.0
247.897858 168.0
247.936584 188.0
248.020096 760.0
248.051712 176.0
248.113083 216.0
248.196915 172.0
248.350586 148.0
248.373993 112.0
248.51355 152.0
248.592163 216.0
248.617264 208.0
248.771942 172.0
248.852692 152.0
249.005249 164.0
249.132599 128.0
249.173813 196.0
249.267654 208.0
249.383575 156.0
249.437012 272.0
249.487305 196.0
249.531326 160.0
249.773468 232.0
249.80069 128.0
249.959091 184.0
250.091263 144.0
250.173111 96.0
250.256409 104.0
250.346283 168.0
250.370743 120.0
250.444122 128.0
250.605484 180.0
250.661285 216.0
250.848785 324.0
250.945038 160.0
251.036407 148.0
251.134171 228.0
251.336075 244.0
251.394333 164.0
251.601196 144.0
251.749146 172.0
251.878098 180.0
252.195053 224.0
252.229828 172.0
252.278519 128.0
252.394226 144.0
252.609711 148.0
252.647247 160.0
252.725281 180.0
252.808609 176.0
252.965271 136.0
253.034943 140.0
253.068161 152.0
253.22998 120.0
253.489441 156.0
253.521133 296.0
253.59343 140.0
253.632614 148.0
253.670105 168.0
253.753845 96.0
253.914246 188.0
253.990189 140.0
254.04747 204.0
254.239761 172.0
254.322021 156.0
254.485428 244.0
254.509109 152.0
254.684341 176.0
254.752197 300.0
254.879288 172.0
254.904709 180.0
255.002121 3936.0
255.154572 144.0
255.205978 164.0
255.333878 196.0
255.435654 168.0
255.468491 112.0
255.498489 196.0
255.627289 184.0
255.696548 188.0
255.895752 204.0
255.929733 176.0
256.01004 12156.0
256.235413 144.0
256.302948 160.0
256.343018 248.0
256.430664 380.0
256.610352 212.0
256.690094 144.0
256.77536 168.0
257.009918 2216.0
257.1091 140.0
257.195465 140.0
257.230225 112.0
257.415955 148.0
257.552185 272.0
257.58548 260.0
257.695923 140.0
257.759827 176.0
257.794983 160.0
257.821594 148.0
257.858978 136.0
257.907959 192.0
257.962646 192.0
258.009186 2872.0
258.082672 184.0
258.18692 140.0
258.220184 192.0
258.293732 188.0
258.440887 172.0
258.472687 128.0
258.605377 152.0
258.72467 180.0
258.777405 152.0
258.836975 124.0
259.007904 400.0
259.190155 180.0
259.231232 180.0
259.352448 144.0
259.51709 192.0
259.608917 132.0
259.782166 140.0
259.823456 104.0
259.88916 176.0
260.026001 188.0
260.082062 192.0
260.122711 180.0
260.184418 140.0
260.270233 196.0
260.292511 128.0
260.519684 192.0
260.906036 124.0
260.959381 168.0
261.028381 184.0
261.06842 136.0
261.098114 204.0
261.206329 144.0
261.232056 164.0
261.315826 248.0
261.359802 136.0
261.457275 208.0
261.569946 224.0
261.685822 204.0
261.767761 208.0
261.874084 160.0
262.133545 156.0
262.200958 144.0
262.268921 144.0
262.340515 152.0
262.547852 192.0
262.613922 228.0
262.759064 152.0
262.859467 160.0
262.908325 156.0
263.010773 144.0
263.046295 192.0
263.107269 144.0
263.241974 140.0
263.31662 144.0
263.414398 156.0
263.44223 236.0
263.472565 160.0
263.524231 212.0
263.560211 180.0
263.776306 172.0
263.872742 164.0
264.212891 352.0
264.28363 204.0
264.455566 164.0
264.557709 332.0
264.610962 148.0
264.820374 144.0
264.857269 124.0
264.957489 200.0
264.999603 168.0
265.028778 144.0
265.093567 148.0
265.158386 160.0
265.197296 172.0
265.261414 132.0
265.307159 112.0
265.377441 132.0
265.512207 464.0
265.544189 148.0
265.816711 220.0
265.901093 184.0
265.995209 192.0
266.037415 156.0
266.07962 280.0
266.276184 152.0
266.317749 132.0
266.435272 144.0
266.459595 160.0
266.59375 124.0
266.635071 144.0
266.665314 168.0
266.795166 200.0
266.96991 212.0
267.023315 188.0
267.09491 172.0
267.140228 176.0
267.200867 160.0
267.238281 112.0
267.278931 180.0
267.335632 180.0
267.376556 140.0
267.401764 156.0
267.513275 152.0
267.582642 128.0
267.613342 136.0
267.726807 144.0
267.869781 176.0
268.104248 104.0
268.171234 148.0
268.285339 140.0
268.370087 176.0
268.454865 232.0
268.482605 136.0
268.515533 284.0
268.644043 172.0
268.752136 124.0
268.806763 124.0
268.85614 204.0
269.018066 2680.0
269.08493 204.0
269.132294 140.0
269.163727 164.0
269.192383 188.0
269.245667 328.0
269.333038 236.0
269.377319 172.0
269.481903 144.0
269.543518 144.0
269.620331 144.0
269.666077 120.0
269.700775 232.0
269.77478 156.0
269.812439 144.0
269.918457 160.0
269.948547 108.0
270.021881 808.0
270.107483 192.0
270.154907 160.0
270.188995 252.0
270.251434 240.0
270.312256 232.0
270.405518 140.0
270.446259 180.0
270.485077 148.0
270.520721 196.0
270.602295 152.0
270.647034 204.0
270.717438 148.0
270.837769 300.0
270.872803 200.0
270.918549 152.0
270.977142 180.0
271.034485 86176.0
271.119904 236.0
271.193329 148.0
271.262939 112.0
271.283691 152.0
271.318939 200.0
271.366364 276.0
271.451111 128.0
271.489044 176.0
271.560486 188.0
271.583893 164.0
271.729614 144.0
271.807678 188.0
271.84906 212.0
271.903778 180.0
271.936737 100.0
271.971436 220.0
272.037079 13408.0
272.163147 192.0
272.247772 168.0
272.35968 176.0
272.458771 156.0
272.501251 276.0
272.651764 192.0
272.750854 148.0
272.811279 212.0
272.889465 168.0
272.99118 416.0
273.036835 16084.0
273.118225 124.0
273.147644 168.0
273.197296 172.0
273.394196 132.0
273.406494 156.0
273.52478 372.0
273.763092 212.0
273.828308 200.0
273.92511 180.0
273.993256 196.0
274.046448 2584.0
274.131927 160.0
274.180389 360.0
274.272583 144.0
274.443512 236.0
274.49472 204.0
274.637085 156.0
274.704407 200.0
274.81015 128.0
274.877899 192.0
275.045776 4728.0
275.212189 144.0
275.343628 216.0
275.393616 268.0
275.565887 132.0
275.715729 124.0
275.790619 164.0
275.838562 180.0
275.983887 228.0
276.050507 600.0
276.088837 164.0
276.123352 140.0
276.292572 124.0
276.361511 152.0
276.448456 144.0
276.505341 172.0
276.55014 220.0
276.583252 104.0
276.677307 116.0
276.778564 180.0
276.823669 136.0
276.877167 140.0
276.979523 112.0
277.143402 160.0
277.199249 160.0
277.290405 112.0
277.767975 136.0
277.915771 156.0
277.980713 164.0
278.036957 100.0
278.073792 108.0
278.12619 204.0
278.200897 144.0
278.569489 168.0
278.650513 140.0
278.959167 136.0
279.07132 152.0
279.299683 168.0
279.471161 172.0
279.523682 184.0
279.725983 184.0
279.778931 168.0
279.905121 196.0
279.975494 188.0
280.044342 172.0
280.140991 144.0
280.457245 112.0
280.572845 152.0
280.612976 108.0
280.722168 204.0
280.910217 124.0
281.069824 196.0
281.106506 160.0
281.193298 140.0
281.286163 156.0
281.313446 152.0
281.439789 172.0
281.640686 152.0
281.866791 176.0
281.981476 168.0
282.073303 160.0
282.125214 180.0
282.172028 172.0
282.208801 216.0
282.745758 208.0
283.034607 128.0
283.145477 148.0
283.156494 136.0
283.210938 144.0
283.311981 184.0
283.360443 196.0
283.390289 160.0
283.510284 108.0
283.567902 172.0
283.678497 248.0
283.782593 184.0
283.936676 156.0
283.970215 144.0
284.174591 156.0
284.251038 124.0
284.325836 164.0
284.397919 116.0
284.580963 296.0
284.613129 104.0
284.750183 176.0
284.808716 136.0
284.841339 128.0
284.930267 144.0
285.152405 104.0
285.434204 136.0
285.492981 196.0
285.572296 144.0
285.700104 164.0
285.829407 236.0
285.861542 172.0
285.935455 136.0
286.23584 120.0
286.311737 164.0
286.417633 160.0
286.577087 304.0
286.908722 104.0
286.996765 204.0
287.147247 180.0
287.32019 108.0
287.377228 156.0
287.475769 308.0
287.563507 164.0
287.65802 172.0
287.706604 224.0
287.757172 228.0
287.826813 200.0
287.887604 340.0
287.92984 128.0
287.993591 228.0
288.081146 204.0
288.140076 280.0
288.291534 232.0
288.356964 304.0
288.384766 172.0
288.445068 228.0
288.509308 156.0
288.637421 108.0
288.773041 140.0
288.86792 172.0
289.016632 196.0
289.080902 148.0
289.305969 144.0
289.352203 188.0
289.541321 164.0
289.622589 144.0
289.800171 136.0
289.893646 152.0
289.93985 120.0
290.015656 296.0
290.080048 192.0
290.206665 116.0
290.263123 148.0
290.422516 168.0
290.532532 112.0
290.561188 116.0
290.642914 124.0
290.802429 120.0
290.946136 156.0
291.040161 176.0
291.099945 148.0
291.218262 308.0
291.378387 160.0
291.416138 104.0
291.594543 140.0
291.711609 164.0
291.774017 144.0
291.972046 172.0
292.117493 208.0
292.352966 136.0
292.600403 156.0
292.791412 152.0
292.852722 156.0
292.88678 156.0
292.982178 148.0
293.026459 160.0
293.084381 208.0
293.237732 148.0
293.268402 156.0
293.295685 160.0
293.589233 120.0
293.66391 176.0
293.721069 188.0
293.776489 156.0
293.834473 148.0
294.056274 176.0
294.090393 148.0
294.223541 148.0
294.262543 132.0
294.474823 136.0
294.5354 220.0
294.604156 220.0
294.693481 184.0
294.783691 148.0
294.855438 240.0
294.949799 204.0
295.029785 152.0
295.113892 128.0
295.313599 140.0
295.472443 120.0
295.679657 152.0
295.811493 160.0
295.905579 160.0
296.042542 244.0
296.069946 164.0
296.124512 124.0
296.282318 144.0
296.317139 96.0
296.415924 164.0
296.450195 144.0
296.491333 164.0
296.614716 228.0
296.721893 120.0
296.882141 212.0
297.141937 124.0
297.181763 216.0
297.223816 132.0
297.276642 144.0
297.344666 152.0
297.502075 176.0
297.606171 156.0
297.805359 200.0
297.891235 164.0
297.947754 132.0
297.987427 152.0
298.128021 144.0
298.146088 160.0
298.18399 156.0
298.269196 140.0
298.600433 180.0
298.628387 104.0
298.675293 168.0
298.858215 176.0
299.033356 148.0
299.0672 164.0
299.269318 192.0
299.351654 172.0
299.396423 164.0
299.536896 136.0
299.818024 160.0
299.886383 152.0
300.074921 164.0
300.173157 196.0
300.243622 132.0
300.383453 140.0
300.462799 176.0
300.527802 176.0
300.780212 180.0
300.83551 164.0
300.88385 156.0
300.999359 132.0
301.076172 184.0
301.115204 148.0
301.204987 180.0
301.26825 172.0
301.360474 160.0
301.769653 136.0
301.877686 152.0
302.086456 144.0
302.279846 108.0
302.370453 156.0
302.402222 160.0
302.484406 156.0
302.550171 208.0
302.854919 192.0
302.87915 156.0
302.970978 140.0
303.211761 148.0
303.294952 140.0
303.541107 164.0
303.586182 156.0
303.877045 196.0
304.057678 136.0
304.106171 132.0
304.1716 188.0
304.214264 164.0
304.250092 124.0
304.425415 148.0
304.566315 164.0
304.815033 164.0
304.841705 208.0
304.947083 140.0
304.973602 128.0
305.009644 176.0
305.079193 140.0
305.109375 180.0
305.194244 160.0
305.221741 148.0
305.30365 136.0
305.395599 192.0
305.433624 112.0
305.610046 188.0
305.726135 156.0
305.842957 172.0
305.88623 208.0
305.95224 208.0
306.048706 328.0
306.366791 108.0
306.517151 180.0
306.598541 164.0
306.66571 132.0
306.76593 116.0
306.805878 172.0
306.98822 148.0
307.049957 152.0
307.248505 148.0
307.297638 160.0
307.50351 164.0
307.572815 168.0
307.816254 176.0
307.86026 128.0
307.942505 152.0
307.986877 100.0
308.076172 240.0
308.149536 156.0
308.530457 152.0
308.656342 148.0
308.834564 100.0
309.169281 216.0
309.316162 136.0
309.443604 156.0
309.476379 124.0
309.709747 140.0
309.808075 108.0
309.992676 168.0
310.074036 204.0
310.205505 136.0
310.266907 172.0
310.364288 156.0
310.540405 172.0
310.594299 188.0
310.680725 140.0
310.978271 176.0
311.028137 436.0
311.200134 160.0
311.269562 332.0
311.342102 132.0
311.398163 144.0
311.530273 140.0
311.563995 100.0
311.592224 120.0
311.717651 356.0
311.783234 156.0
311.832458 144.0
312.115082 120.0
312.616699 144.0
312.727753 136.0
312.818085 144.0
312.86908 272.0
313.053619 252.0
313.14679 224.0
313.237793 168.0
313.370239 144.0
313.466553 316.0
313.507202 124.0
313.549072 180.0
313.636292 128.0
313.726166 280.0
313.800201 140.0
313.840698 224.0
313.917999 364.0
314.01651 248.0
314.117126 236.0
314.166107 240.0
314.20697 308.0
314.306702 168.0
314.355011 124.0
314.399475 128.0
314.424622 160.0
314.459869 304.0
314.486664 248.0
314.535522 268.0
314.572235 348.0
314.625885 240.0
314.667419 276.0
314.716644 272.0
314.789551 184.0
314.821075 224.0
314.869202 196.0
314.920166 108.0
314.972656 324.0
315.017395 168.0
315.061096 164.0
315.158325 280.0
315.184753 236.0
315.210754 172.0
315.252655 224.0
315.312134 392.0
315.366943 200.0
315.399994 116.0
315.411316 192.0
315.446045 180.0
315.483734 396.0
315.524139 280.0
315.587769 208.0
315.641449 224.0
315.695465 412.0
315.71994 356.0
315.731445 324.0
315.743408 304.0
315.779816 424.0
315.804626 340.0
315.813904 324.0
315.856842 588.0
315.89743 444.0
315.965363 756.0
316.011047 936.0
316.093903 201840.0
316.225098 200.0
316.278839 120.0
316.334808 180.0
316.380371 248.0
316.4263 1352.0
316.476685 660.0
316.533722 688.0
316.587341 136.0
316.630157 1252.0
316.685028 7612.0
316.72171 628.0
316.768127 160.0
316.820709 208.0
316.894714 224.0
316.944031 348.0
316.970642 376.0
316.995483 460.0
317.006073 436.0
317.017212 760.0
317.049652 636.0
317.096069 100040.0
317.228271 196.0
317.315002 324.0
317.361694 232.0
317.426392 296.0
317.475708 108.0
317.514343 236.0
317.538727 344.0
317.573212 360.0
317.580811 248.0
317.625824 144.0
317.704651 264.0
317.769714 268.0
317.807312 116.0
317.875336 256.0
317.937775 428.0
317.979523 336.0
318.017181 284.0
318.09082 162044.0
318.186096 224.0
318.28833 180.0
318.328857 116.0
318.375488 144.0
318.413361 172.0
318.485443 244.0
318.56604 200.0
318.623077 200.0
318.675659 1104.0
318.780121 196.0
318.818481 216.0
318.855194 152.0
318.915314 212.0
318.968079 732.0
319.012695 288.0
319.09256 25016.0
319.189575 224.0
319.221985 308.0
319.28537 304.0
319.342499 532.0
319.395569 156.0
319.505585 288.0
319.55896 200.0
319.572235 176.0
319.747406 160.0
319.779785 176.0
319.807068 104.0
319.946686 108.0
319.990051 176.0
320.031067 172.0
320.087067 316.0
320.145325 204.0
320.287079 140.0
320.351593 152.0
320.496765 100.0
320.663666 116.0
320.695892 188.0
320.774292 116.0
320.820099 112.0
320.924622 140.0
320.98764 108.0
321.06488 196.0
321.118347 256.0
321.221252 252.0
321.249634 216.0
321.438904 152.0
321.59848 160.0
322.234985 112.0
322.832306 96.0
324.186829 152.0
324.230835 100.0
326.594055 104.0
327.146088 96.0
328.708405 124.0
329.62558 172.0
329.700348 100.0
329.963257 108.0
332.791321 168.0
333.946899 116.0
336.897003 124.0
336.97287 108.0
338.478088 140.0
340.743134 108.0
343.243561 108.0
343.705048 156.0
344.051971 148.0
344.399078 144.0
353.361877 184.0
355.028717 196.0
356.248566 140.0
357.658691 140.0
368.004425 196.0
381.637512 132.0
384.44519 140.0
390.158325 120.0
411.978973 96.0
431.791443 132.0
438.007477 140.0
444.298859 148.0
452.545563 108.0
454.377747 140.0
460.22995 140.0
487.233734 100.0
500.25647 172.0
515.560486 148.0
531.411621 176.0
560.667236 148.0
562.030029 144.0
564.963989 140.0
581.302002 180.0
586.362671 100.0
612.685974 108.0
648.010925 236.0
688.603271 112.0
723.559631 120.0
769.821899 180.0
872.644714 96.0
1113.471313 152.0
1160.276245 160.0
1247.684448 152.0
1267.326172 152.0
1274.641602 212.0
1293.42688 208.0
1328.685669 124.0
1329.275269 176.0
1361.174805 204.0
1365.540039 184.0
1379.416748 188.0
1399.223999 160.0
1424.568359 156.0
1437.178833 160.0
1454.213135 168.0
1455.754272 236.0
1469.943481 156.0
1488.283569 196.0
1519.263184 156.0
1532.838257 232.0
1547.385742 176.0
1554.93042 148.0
1558.904175 244.0
1562.930176 144.0
1590.439819 168.0
1590.955811 148.0
1599.477295 196.0
1601.523682 160.0
1602.559326 176.0
1615.972656 172.0
1620.496216 164.0
1635.698242 204.0
1643.60437 196.0
1646.009766 152.0
1650.122314 148.0
1653.341675 144.0
1657.341919 180.0
1664.569092 156.0
1669.274048 144.0
1676.250122 188.0
1680.767456 152.0
1681.452881 160.0
1684.269775 140.0
1685.078491 148.0
1687.902344 200.0
1689.002319 184.0
1694.618164 160.0
1700.440308 180.0
1724.307861 184.0
1731.762329 152.0
1733.684448 140.0
1734.040771 160.0
1734.811646 232.0
1735.980713 180.0
1744.707031 180.0
1748.383423 208.0
1748.966064 200.0
1753.213623 188.0
1754.163696 140.0
1759.093628 164.0
1764.336792 140.0
1766.271484 168.0
1766.363525 140.0
1777.682373 148.0
1778.404175 216.0
1779.487061 176.0
1786.857788 168.0
1787.11853 164.0
1788.970093 184.0
1789.710938 176.0
1794.749512 152.0
1799.190552 220.0
1800.867798 156.0
1801.670288 168.0
1804.256226 184.0
1812.48291 196.0
1827.885986 180.0
1829.758423 200.0
1843.550781 172.0
1847.056152 216.0
1854.479614 200.0
1856.271362 204.0
1858.218384 168.0
1861.952393 148.0
1874.184692 196.0
1874.529297 164.0
1876.779053 228.0
1880.78186 176.0
1882.517212 228.0
1884.572998 156.0
1886.02478 192.0
1886.448364 144.0
1886.889282 192.0
1893.188354 164.0
1894.756104 168.0
1894.946777 176.0
1899.229126 168.0
1899.992432 216.0
1903.012695 196.0
1906.548096 148.0
1908.738647 200.0
1909.477783 204.0
1913.097534 212.0
1917.191162 144.0
1917.783813 172.0
1918.097534 152.0
1921.899902 240.0
1924.011963 176.0
1925.12085 200.0
1925.994263 212.0
1933.294556 196.0
1934.066284 180.0
1938.653931 164.0
1939.188477 188.0
1942.344971 144.0
1945.872681 152.0
1947.097656 200.0
1948.858887 172.0
1952.137573 152.0
1953.949463 196.0
1955.031738 216.0
1966.974121 152.0
1968.925415 184.0
1972.972168 160.0
1978.257202 184.0
1979.392334 168.0
1984.800781 152.0
1986.156494 168.0
1988.215942 156.0
1990.151123 148.0
1991.598633 216.0
1992.460205 176.0
1992.806763 160.0
1997.465088 152.0
2001.808228 168.0
2003.117432 212.0
