>compound MLS001140999-01!4-[[[2-(6-chloro-2-oxo-4-phenylchromen-7-yl)oxyacetyl]amino]methyl]cyclohexane-1-carboxylic acid
>formula C25H24ClNO6
>ionization [M+H]+
>parentmass 470.137
#inchi InChI=1S/C25H24ClNO6/c26-20-10-19-18(16-4-2-1-3-5-16)11-24(29)33-21(19)12-22(20)32-14-23(28)27-13-15-6-8-17(9-7-15)25(30)31/h1-5,10-12,15,17H,6-9,13-14H2,(H,27,28)(H,30,31)/t15-,17-
#inchikey HAVINGMAQNEKHR
#Ion_Source LC-ESI
#Instrument qTof
#Compound_Source NIH Natural Product Library
#PI Dorrestein
#Data_Collector VVP/LMS
#Scan -1
#Precursor_MZ 470.137
#ExactMass 469.129
#Charge 1
#CAS_Number N/A
#Pubmed_ID N/A
#Smiles OC(=O)[C@H]1CC[C@H](CNC(=O)COc2cc3oc(=O)cc(c4ccccc4)c3cc2Cl)CC1
#INCHI_AUX N/A
#Library_Class 1
#SpectrumID CCMSLIB00000080239
#IonMode Positive
#UpdateWorkflowName UPDATE-SINGLE-ANNOTATED-GOLD
#LibraryQualityString Gold
#TaskID b1d8e8f6646f4e71acdff9ca3d919d08
##Scan# 2176
#SpectrumFile p2-H05_GH5_01_18065.mzXML
#LibraryName NIH_Natural_Products_Library.mgf
#MQScore -1
#Organism NIH_Natural_Products_Library
#TIC_Query 0
#RT_Query -1
#MZErrorPPM -1
#SharedPeaks 0
#MassDiff 0
#LibMZ -1
#SpecMZ 470.137
#SpecCharge 0
#internalFilename spec-00000.mgf

>collision 10
94.99662 224.0
95.121666 1036.0
95.651627 48.0
96.080444 164.0
96.126534 340.0
98.950531 172.0
98.96637 52.0
102.70443 144.0
103.689293 156.0
104.589256 172.0
105.074371 152.0
106.025406 164.0
106.064354 160.0
106.078705 204.0
107.184669 188.0
107.500237 108.0
108.767151 152.0
108.983177 180.0
109.134941 208.0
110.10186 388.0
110.13887 328.0
110.166817 144.0
110.210701 112.0
110.36541 196.0
110.647926 60.0
111.108871 168.0
111.140007 176.0
112.08744 252.0
112.152885 212.0
112.287315 188.0
112.407593 156.0
113.43782 196.0
116.367653 208.0
117.56041 100.0
123.131149 180.0
124.164925 164.0
124.782372 112.0
125.109482 64.0
128.776611 108.0
129.505066 140.0
132.011368 48.0
132.130341 120.0
134.038773 172.0
134.703369 224.0
135.817017 172.0
137.301224 76.0
138.143524 184.0
139.246506 172.0
139.420395 84.0
140.163925 308.0
140.192459 156.0
141.908936 136.0
141.965866 144.0
142.05127 84.0
142.478668 232.0
142.519073 164.0
144.900757 200.0
145.176468 148.0
145.325226 216.0
145.844055 148.0
146.964127 36.0
148.040024 152.0
149.246292 64.0
149.509064 156.0
149.630798 188.0
151.75444 144.0
151.935959 100.0
152.085678 92.0
152.167587 456.0
153.128067 212.0
153.175064 388.0
153.204788 144.0
153.641235 92.0
154.135147 184.0
154.179626 240.0
154.214233 144.0
157.842224 48.0
158.79155 236.0
159.255981 80.0
161.826248 132.0
163.675125 172.0
164.984268 156.0
165.138382 300.0
165.529373 36.0
165.706146 220.0
166.14502 188.0
166.337143 140.0
167.157196 132.0
168.123764 176.0
169.310638 144.0
169.779816 176.0
170.610901 136.0
171.052246 160.0
171.128738 128.0
171.910904 56.0
172.062317 192.0
172.119766 168.0
172.185074 180.0
172.564056 128.0
174.249664 88.0
175.405212 136.0
176.115997 200.0
177.104599 196.0
177.147247 84.0
178.148438 300.0
178.878754 36.0
179.149643 160.0
180.13768 180.0
180.175888 444.0
181.132385 144.0
181.165146 60.0
182.020905 204.0
182.085373 84.0
182.141785 68.0
182.571915 36.0
182.644547 48.0
183.05986 184.0
183.121063 140.0
183.145309 184.0
185.084778 52.0
186.183273 164.0
186.514816 152.0
186.838486 140.0
186.988174 188.0
187.121582 92.0
187.666626 140.0
187.696625 64.0
188.507523 144.0
190.013809 248.0
190.354233 156.0
190.436646 128.0
191.118561 200.0
191.165344 208.0
191.327774 36.0
192.72641 112.0
193.144867 248.0
193.224182 152.0
194.148438 1148.0
194.252197 96.0
195.149109 192.0
195.956741 156.0
196.006897 52.0
196.135132 176.0
196.15744 112.0
196.726624 160.0
198.186432 160.0
198.837585 168.0
199.110901 528.0
199.2005 228.0
200.115524 180.0
201.106491 148.0
201.113174 200.0
201.171509 168.0
201.394638 156.0
202.843689 136.0
203.087601 168.0
203.123581 200.0
203.172729 148.0
203.726425 96.0
203.817368 224.0
204.63385 152.0
205.122238 152.0
205.232315 132.0
206.503387 160.0
207.124634 176.0
207.646393 124.0
207.752548 160.0
208.229141 172.0
209.148193 168.0
209.293381 220.0
210.1474 204.0
210.175598 144.0
210.23909 112.0
212.139801 192.0
213.127533 116.0
214.139359 164.0
214.165573 140.0
215.119232 188.0
217.127594 312.0
218.049011 212.0
219.123291 144.0
219.365005 184.0
221.149658 464.0
222.153732 444.0
223.160294 176.0
223.673035 120.0
226.043243 200.0
226.213882 132.0
226.8461 168.0
227.116562 308.0
228.200363 256.0
229.043167 208.0
229.130005 1060.0
229.875458 144.0
230.136734 172.0
230.25592 196.0
230.343536 132.0
230.688095 220.0
230.790909 160.0
230.990555 52.0
231.120621 440.0
232.035568 172.0
232.114426 44.0
232.184189 208.0
236.138245 148.0
237.05687 140.0
237.381882 176.0
237.817612 152.0
237.869812 92.0
239.148773 284.0
239.170334 124.0
241.259155 180.0
242.104034 188.0
242.15979 156.0
242.246552 72.0
242.475891 84.0
243.24527 176.0
244.124359 476.0
244.168274 136.0
244.233612 140.0
245.107285 132.0
245.134552 260.0
245.566986 60.0
245.744827 32.0
246.129791 208.0
246.566269 164.0
247.119873 48.0
247.956131 128.0
248.658813 140.0
249.155762 288.0
250.064011 112.0
250.123825 68.0
250.162018 512.0
250.199387 200.0
251.175125 112.0
252.462234 60.0
254.408112 140.0
254.929123 136.0
255.124985 1244.0
256.119415 172.0
256.766418 192.0
257.137573 500.0
258.135345 188.0
258.651947 208.0
259.023468 216.0
259.137451 236.0
259.642181 164.0
260.139648 128.0
260.582916 220.0
260.914032 76.0
261.061951 164.0
261.535004 196.0
262.311462 152.0
262.49527 144.0
262.756592 180.0
263.224701 100.0
264.123352 116.0
264.3078 36.0
265.042999 112.0
265.188843 44.0
265.633179 160.0
267.170044 184.0
267.782135 128.0
267.928772 148.0
269.129242 80.0
269.23703 92.0
270.191681 208.0
270.296417 112.0
271.052979 236.0
271.11853 176.0
271.430023 140.0
271.856567 100.0
272.131012 528.0
272.352417 184.0
272.608734 56.0
272.644897 116.0
272.763245 100.0
272.858612 60.0
272.970428 192.0
273.009888 152.0
273.056335 128.0
273.092133 236.0
273.140808 12532.0
273.198914 156.0
273.211121 188.0
273.269806 236.0
273.299408 64.0
273.417908 156.0
273.790009 28.0
273.828674 156.0
273.872375 144.0
273.9086 36.0
274.070068 244.0
274.142548 1716.0
274.284332 104.0
274.531647 80.0
274.828583 168.0
274.971405 136.0
275.033234 188.0
275.065521 144.0
275.138397 3208.0
275.191742 40.0
275.416351 52.0
275.439484 80.0
275.498962 104.0
275.75882 80.0
275.798004 68.0
275.945892 140.0
276.060974 52.0
276.139404 468.0
276.358734 116.0
276.891785 48.0
277.140289 176.0
277.286133 160.0
277.541443 144.0
278.059052 96.0
278.178589 112.0
279.661407 72.0
282.910004 92.0
283.121002 112.0
285.094025 132.0
285.144226 3272.0
285.21167 68.0
285.292389 64.0
285.366364 104.0
285.978729 64.0
286.052795 52.0
286.148682 1116.0
286.264954 60.0
286.500793 56.0
286.94574 100.0
287.060394 112.0
287.142456 1200.0
287.269562 64.0
287.779266 48.0
288.106354 112.0
288.13974 388.0
288.27594 120.0
288.319855 120.0
288.448334 64.0
288.647858 100.0
288.972626 80.0
289.389008 196.0
289.609192 108.0
290.131134 148.0
290.636597 48.0
292.339386 72.0
292.489166 72.0
293.920868 52.0
294.269104 164.0
296.883911 192.0
297.172119 124.0
299.004059 36.0
307.78006 188.0
310.240143 172.0
311.412415 152.0
312.157593 132.0
312.579803 160.0
313.147491 1760.0
313.41803 52.0
314.148895 196.0
314.181183 160.0
314.582153 76.0
315.150726 796.0
315.472565 124.0
315.642303 36.0
316.158875 100.0
317.196869 52.0
321.665649 200.0
321.697784 100.0
327.655823 36.0
328.961578 108.0
329.485352 72.0
329.709412 92.0
329.798096 160.0
330.184052 2972.0
330.251862 48.0
330.364014 92.0
330.602875 52.0
331.182709 892.0
332.182617 920.0
332.778229 52.0
332.887177 84.0
333.189056 372.0
333.315918 72.0
333.730377 52.0
333.810364 36.0
334.112335 76.0
334.183624 180.0
335.543915 96.0
336.675323 240.0
342.184052 796.0
342.773529 160.0
343.17868 192.0
343.2034 328.0
344.185303 288.0
346.228302 96.0
346.991791 104.0
347.303345 100.0
347.551971 36.0
348.194305 132.0
348.454376 68.0
355.265503 112.0
355.359314 176.0
357.339752 128.0
371.648499 160.0
383.032776 140.0
391.325226 100.0
392.645599 128.0
394.015594 92.0
396.283081 168.0
397.278412 128.0
398.72403 56.0
400.399292 52.0
401.431671 108.0
411.856842 156.0
413.846954 56.0
423.709534 64.0
424.302307 892.0
425.251709 48.0
425.300415 340.0
426.298004 572.0
426.488281 92.0
427.294434 152.0
431.795746 108.0
456.602325 144.0
469.642792 172.0
510.283997 52.0
514.962463 44.0
519.185974 100.0
526.144653 128.0
526.299194 124.0
528.315857 88.0
544.289673 52.0
545.330505 120.0
550.423462 60.0
573.966187 88.0
577.874146 96.0
653.683472 136.0
686.489075 76.0
689.637817 88.0
690.26532 96.0
692.669434 184.0
697.112854 140.0
713.762451 68.0
751.471741 52.0
762.007996 76.0
805.394775 64.0
828.598389 36.0
848.335266 64.0
928.064636 52.0
932.424072 172.0
1008.887695 200.0
1016.134277 152.0
1060.488892 180.0
1101.346924 44.0
1102.972778 140.0
1149.211182 216.0
1176.138306 160.0
1185.249634 168.0
1187.093872 204.0
1201.127197 132.0
1206.161987 60.0
1226.14856 64.0
1262.727905 208.0
1263.484863 164.0
1311.281616 216.0
1313.993408 68.0
1321.024048 160.0
1361.985107 68.0
1366.286377 160.0
1366.992798 184.0
1383.048096 160.0
1388.086914 124.0
1390.661743 64.0
1392.614868 140.0
1394.405762 176.0
1418.909546 172.0
1420.97998 72.0
1432.055054 144.0
1439.288574 152.0
1465.393311 172.0
1467.939697 232.0
1472.664673 184.0
1475.637939 160.0
