>compound 1-cyclopropyl-6,7-difluoro-1,4-dihydro-8-hydroxy-4-oxo-3-Quinoline-3-carboxylic acid
>formula C13H9F2NO4
>ionization [M+H]+
>parentmass 282.05724066009054
#inchi InChI=1S/C13H9F2NO4/c14-8-3-6-10(12(18)9(8)15)16(5-1-2-5)4-7(11(6)17)13(19)20/h3-5,18H,1-2H2,(H,19,20)
#inchikey NTWOKQCCNHKEIU
#Ion_Source DI-ESI
#Instrument qTof
#Compound_Source Commercial
#PI Norberto Lopes
#Data_Collector Norberto Lopes
#Scan -1
#Precursor_MZ 282.051
#ExactMass 281.05
#Charge 1
#CAS_Number 294644-90-9
#Pubmed_ID N/A
#Smiles FC1=C(F)C=C(C(C(C(O)=O)=CN2C3CC3)=O)C2=C1O
#INCHI_AUX N/A
#Library_Class 3
#SpectrumID CCMSLIB00000081561
#IonMode Positive
#UpdateWorkflowName UPDATE-SINGLE-ANNOTATED-BRONZE
#LibraryQualityString Bronze
#TaskID 4a07f16a650f4095b43fe6b0b09ff8bb
##Scan# 1
#SpectrumFile gnps_1_cyclopropyl_6_7_difluoro_1_4_dihydro_8_hydroxy_4_oxo_3_Quinoline_3_carboxylic_acid_pos_MplusH.mgf
#LibraryName gnps_library.mgf
#MQScore -1
#Organism batch_27_05
#TIC_Query 0
#RT_Query -1
#MZErrorPPM -1
#SharedPeaks 0
#MassDiff 0
#LibMZ -1
#SpecMZ 282.051
#SpecCharge 0
#internalFilename spec-00000.mgf

>collision 10
121.022087 124.0
131.009338 109.0
139.016586 401.0
140.029724 112.0
149.016327 1495.0
150.019379 195.0
151.022858 115.0
156.025146 156.0
167.023163 319.0
168.033646 139.0
176.046097 141.0
188.043243 327.0
190.036133 111.0
195.007523 564.0
196.052643 1083.0
196.924133 280.0
208.05249 455.0
213.012283 124.0
214.93692 144.0
216.036972 144.0
219.039459 131.0
222.032196 211.0
223.005844 446.0
224.009216 196.0
224.920685 303.0
226.891174 114.0
235.032852 200.0
236.046295 1342.0
237.050674 212.0
241.013474 5499.0
242.020874 1186.0
243.023804 223.0
264.040802 413.0
282.051025 2688.0
