>compound MLS000563081-01!
>formula C48H76O18
>ionization [M+Na]+
>parentmass 963.4923862920905
#inchi InChI=1S/C48H76O18/c1-21-28(50)30(52)34(56)39(61-21)65-37-33(55)32(54)36(38(58)59)64-41(37)63-27-12-13-45(6)25(44(27,4)5)11-14-47(8)26(45)10-9-22-23-19-43(2,3)15-17-48(23,18-16-46(22,47)7)42(60)66-40-35(57)31(53)29(51)24(20-49)62-40/h9,21,23-37,39-41,49-57H,10-20H2,1-8H3,(H,58,59)/t21-,23+,24-,25?,26?,27-,28-,29-,30+,31+,32+,33+,34+,35-,36+,37-,39-,40+,41-,45+,46-,47-,48+/m1/s1
#inchikey ONNIQHQMYBDPDM
#Ion_Source LC-ESI
#Instrument qTof
#Compound_Source NIH Natural Product Library
#PI Dorrestein
#Data_Collector VVP/LMS
#Scan -1
#Precursor_MZ 963.492
#ExactMass 940.503
#Charge 1
#CAS_Number N/A
#Pubmed_ID N/A
#Smiles C[C@H]1O[C@H](O[C@@H]2[C@@H](O)[C@H](O)[C@H](O[C@H]2O[C@@H]3CC[C@@]4(C)C(CC[C@]5(C)C4CC=C6[C@@H]7CC(C)(C)CC[C@@]7(CC[C@]65C)C(=O)O[C@@H]8O[C@H](CO)[C@@H](O)[C@H](O)[C@H]8O)C3(C)C)C(=O)O)[C@@H](O)[C@@H](O)[C@@H]1O
#INCHI_AUX N/A
#Library_Class 1
#SpectrumID CCMSLIB00000079434
#IonMode Positive
#UpdateWorkflowName UPDATE-SINGLE-ANNOTATED-GOLD
#LibraryQualityString Gold
#TaskID b1d8e8f6646f4e71acdff9ca3d919d08
##Scan# 1969
#SpectrumFile p1-C06_GC6_01_17902.mzXML
#LibraryName NIH_Natural_Products_Library.mgf
#MQScore -1
#Organism NIH_Natural_Products_Library
#TIC_Query 0
#RT_Query -1
#MZErrorPPM -1
#SharedPeaks 0
#MassDiff 0
#LibMZ -1
#SpecMZ 963.492
#SpecCharge 0
#internalFilename spec-00000.mgf

>collision 10
95.999756 136.0
96.6287 64.0
97.220444 180.0
101.557579 196.0
106.489899 160.0
107.37075 168.0
109.101616 180.0
109.659607 192.0
109.801376 108.0
109.818054 44.0
110.193802 180.0
110.444649 144.0
113.040787 72.0
113.091576 220.0
113.937645 120.0
115.346222 112.0
115.410362 104.0
116.155624 32.0
116.33802 184.0
119.689194 136.0
120.472153 212.0
122.109138 100.0
122.448425 144.0
123.114441 372.0
124.123497 188.0
127.876617 160.0
128.151337 172.0
129.052444 244.0
130.539337 84.0
130.778198 116.0
130.905701 148.0
132.09935 52.0
135.059753 112.0
135.114166 364.0
135.64325 32.0
137.134415 284.0
137.709427 124.0
138.132477 168.0
139.963043 152.0
141.464569 156.0
141.642166 160.0
141.791428 68.0
143.736649 128.0
145.623077 104.0
146.45285 184.0
146.691391 72.0
147.065262 144.0
147.144913 156.0
147.959641 184.0
148.034698 52.0
148.068604 168.0
149.038925 220.0
149.13147 184.0
149.335495 224.0
149.693237 132.0
150.456375 172.0
151.949234 136.0
152.160294 128.0
152.681213 192.0
153.306503 132.0
153.377975 204.0
155.745911 236.0
157.007736 164.0
158.439972 148.0
158.600342 136.0
159.029236 144.0
161.141968 124.0
162.402603 152.0
163.14801 216.0
166.193466 160.0
169.048782 284.0
172.850266 136.0
173.599442 140.0
174.984146 156.0
175.14888 176.0
175.424088 112.0
175.846115 108.0
177.003983 160.0
177.041382 228.0
177.160248 140.0
178.588303 60.0
179.067383 48.0
179.175461 164.0
179.77919 168.0
181.012177 204.0
182.011658 364.0
182.678177 132.0
183.213882 52.0
183.351288 188.0
185.041199 840.0
185.085541 48.0
185.218231 84.0
186.058868 204.0
186.197342 244.0
186.645721 80.0
186.991196 124.0
187.058121 4520.0
187.152679 200.0
187.236221 80.0
187.312485 36.0
187.906769 80.0
187.996811 128.0
188.061844 652.0
188.496521 136.0
188.810898 120.0
189.065781 232.0
189.16066 416.0
190.070984 192.0
190.172531 356.0
190.405899 52.0
191.176147 716.0
192.126205 132.0
192.184647 132.0
192.81926 184.0
193.640945 108.0
198.030334 116.0
199.021561 1368.0
201.166199 568.0
202.166016 284.0
202.403793 72.0
203.101929 184.0
203.175751 388.0
203.213058 92.0
203.27684 48.0
204.720901 52.0
205.077011 208.0
205.195221 576.0
205.450562 52.0
206.194443 260.0
206.221527 40.0
206.710541 228.0
207.174301 168.0
207.30043 116.0
214.823669 124.0
215.173859 356.0
215.895569 80.0
216.510132 200.0
217.031509 1296.0
217.200607 216.0
217.301544 36.0
218.035629 164.0
218.203918 144.0
218.888718 216.0
219.038925 156.0
219.139084 156.0
219.218643 180.0
221.160141 140.0
221.884689 132.0
223.161331 148.0
223.949905 172.0
224.364105 116.0
225.089111 168.0
226.833298 148.0
229.192703 248.0
231.215729 132.0
233.183929 124.0
233.223434 116.0
233.278152 132.0
233.691757 48.0
235.160538 192.0
237.029037 128.0
238.556976 248.0
238.818802 72.0
240.982819 204.0
241.035355 192.0
243.203156 40.0
243.690704 48.0
243.914444 52.0
244.219162 164.0
245.218582 128.0
245.43367 200.0
246.160706 124.0
246.226288 96.0
246.59494 168.0
246.654327 40.0
247.169342 576.0
248.16951 212.0
248.326309 124.0
249.176971 108.0
250.967804 144.0
251.283203 104.0
253.068893 76.0
255.204193 40.0
256.216248 112.0
256.994171 148.0
257.233521 228.0
257.40274 84.0
257.562408 152.0
258.227203 140.0
259.010376 228.0
259.174774 164.0
259.251678 96.0
259.668427 52.0
260.018127 132.0
260.165771 172.0
261.034271 192.0
261.155396 164.0
261.177429 168.0
261.280914 72.0
262.192993 152.0
262.350067 64.0
263.001648 136.0
263.208282 152.0
269.245087 184.0
269.92807 96.0
270.058868 148.0
271.011475 232.0
271.158936 176.0
274.993774 160.0
275.0466 148.0
276.921295 184.0
277.026459 360.0
281.023346 164.0
282.185638 108.0
284.258942 116.0
284.796082 120.0
287.064362 172.0
287.401672 212.0
289.20932 240.0
290.77887 108.0
291.244019 168.0
291.794495 164.0
293.016907 224.0
293.045959 164.0
294.018768 200.0
295.039581 148.0
297.7229 160.0
299.249603 100.0
299.625 168.0
299.883423 176.0
300.055786 112.0
300.645599 132.0
300.766388 104.0
301.014954 124.0
301.071136 180.0
301.229095 116.0
301.695587 44.0
305.468475 132.0
306.16806 96.0
308.719055 168.0
309.047333 112.0
311.737274 68.0
315.865784 80.0
317.01825 132.0
317.190063 116.0
319.028961 140.0
320.021423 132.0
321.040497 124.0
321.258087 128.0
326.002106 188.0
329.244293 112.0
331.023468 168.0
331.090363 144.0
332.088409 140.0
333.09433 240.0
337.043488 176.0
339.118408 148.0
339.642731 56.0
340.127045 144.0
340.226166 148.0
340.685211 124.0
343.032959 120.0
343.265747 112.0
344.468384 112.0
344.852661 56.0
345.004211 120.0
345.079224 7392.0
345.214966 56.0
345.267914 212.0
345.533051 132.0
345.570038 40.0
345.621857 64.0
345.681061 144.0
345.869781 40.0
346.084961 628.0
346.725342 52.0
347.0896 528.0
347.496613 76.0
347.641327 76.0
347.815765 120.0
348.07193 108.0
350.12088 184.0
352.672791 32.0
355.262421 272.0
360.202728 104.0
360.478546 56.0
360.539001 76.0
361.041779 36.0
363.08609 924.0
364.086121 100.0
365.057739 132.0
365.091949 176.0
366.092804 208.0
368.071838 72.0
369.038513 216.0
372.979401 152.0
374.718781 136.0
375.030914 104.0
376.161072 104.0
379.054962 248.0
380.034943 108.0
380.065979 116.0
381.285278 80.0
381.751801 72.0
384.794861 140.0
388.108765 140.0
389.073914 132.0
389.207397 132.0
391.33844 164.0
392.011993 96.0
393.343689 700.0
394.342834 160.0
394.358093 172.0
395.352814 164.0
396.352936 112.0
397.059692 144.0
398.060272 132.0
399.077454 132.0
401.051941 164.0
403.003357 112.0
403.055298 116.0
406.081696 176.0
409.203949 144.0
409.365021 188.0
410.21109 268.0
412.366455 136.0
413.041687 144.0
413.709351 188.0
417.246887 120.0
419.086487 76.0
421.048553 144.0
421.203735 196.0
422.053772 164.0
422.663239 168.0
425.331146 40.0
431.861847 124.0
435.35968 128.0
437.338623 128.0
439.013428 112.0
439.077637 200.0
439.267822 184.0
439.353485 796.0
439.390259 220.0
440.344696 256.0
440.362244 156.0
440.407349 92.0
441.343201 144.0
448.513763 120.0
450.31958 120.0
452.234833 144.0
453.05069 148.0
453.066467 100.0
454.57843 104.0
455.283081 160.0
455.639893 124.0
460.9487 48.0
461.064087 148.0
461.31897 132.0
461.327454 84.0
461.351288 208.0
461.782318 76.0
462.034698 68.0
462.086029 76.0
463.1091 44.0
465.094269 116.0
471.745026 128.0
474.585022 88.0
475.76944 100.0
477.281982 140.0
478.286316 120.0
478.316772 148.0
479.345551 236.0
480.098724 72.0
480.349609 228.0
481.359833 256.0
481.726715 164.0
482.045654 80.0
482.369049 204.0
484.451965 52.0
484.758667 124.0
485.68811 148.0
488.239807 128.0
488.354156 76.0
489.212189 156.0
490.242828 160.0
491.287781 136.0
492.183685 104.0
494.146088 56.0
496.321289 104.0
504.33844 172.0
506.36969 204.0
508.849396 152.0
511.276642 140.0
518.457092 48.0
525.085449 44.0
531.333679 172.0
532.302124 124.0
532.33429 148.0
532.605286 140.0
534.895081 152.0
537.355957 80.0
538.080505 100.0
540.335815 200.0
541.10968 136.0
544.126831 88.0
547.744751 92.0
549.157043 60.0
549.348267 136.0
551.243835 48.0
552.377625 132.0
553.325195 212.0
555.241638 220.0
555.316711 120.0
556.09082 116.0
556.532104 116.0
557.833435 60.0
557.993225 96.0
561.336243 92.0
565.299255 112.0
565.805847 144.0
567.317078 60.0
569.162598 88.0
569.338318 84.0
569.395325 44.0
569.670776 180.0
570.307495 188.0
570.464355 88.0
571.306091 140.0
572.819824 140.0
573.119934 152.0
573.353455 52.0
574.330811 92.0
575.35199 140.0
579.503235 96.0
584.467834 208.0
585.127197 104.0
585.411255 116.0
586.312134 124.0
587.31012 140.0
591.346985 92.0
591.412231 152.0
593.218994 152.0
597.336731 76.0
597.633484 144.0
603.337708 188.0
611.335938 168.0
612.023682 104.0
612.333862 148.0
612.787048 116.0
614.132812 116.0
614.364685 84.0
617.575378 132.0
618.758057 108.0
620.417664 100.0
622.878906 180.0
622.968323 52.0
623.389587 476.0
623.539734 144.0
623.688843 48.0
624.389587 300.0
625.335144 144.0
625.389893 136.0
625.952454 92.0
626.032104 60.0
626.335938 124.0
626.535156 68.0
628.381348 112.0
629.331299 184.0
629.917358 164.0
630.267029 60.0
630.806824 132.0
631.621826 148.0
631.947021 124.0
632.00708 220.0
632.682678 152.0
632.802856 60.0
632.913025 100.0
634.115295 76.0
634.411011 128.0
635.032776 100.0
635.449097 40.0
636.593506 120.0
637.020447 44.0
637.578125 52.0
637.89978 52.0
638.367371 32.0
638.744568 44.0
639.247681 96.0
639.755981 120.0
640.581848 176.0
640.863953 72.0
640.949646 148.0
641.095764 48.0
641.181458 172.0
641.291748 136.0
641.400452 6692.0
641.932251 60.0
641.998108 36.0
642.053589 48.0
642.10907 112.0
642.240173 32.0
642.402161 3676.0
642.565308 88.0
642.674011 48.0
642.864136 100.0
642.901123 60.0
642.981873 52.0
643.254395 68.0
643.289734 56.0
643.408508 672.0
643.481567 36.0
643.794617 56.0
643.865295 72.0
644.062317 56.0
644.403564 116.0
644.447632 188.0
644.527039 120.0
644.951599 68.0
645.057739 60.0
645.280151 68.0
645.40448 164.0
645.481812 100.0
645.846497 104.0
645.886963 116.0
646.339355 136.0
646.397949 108.0
646.49408 128.0
646.757263 44.0
646.828125 84.0
647.709167 52.0
647.754761 112.0
648.489441 44.0
649.310791 112.0
649.650635 64.0
650.472656 44.0
651.036255 132.0
651.762634 56.0
652.336914 132.0
653.445557 84.0
655.380371 308.0
656.343567 48.0
657.380737 124.0
658.430664 128.0
658.880188 144.0
661.11969 148.0
662.1026 112.0
662.327942 132.0
662.399658 116.0
662.548218 32.0
662.896606 136.0
663.983398 36.0
665.327759 156.0
666.056946 60.0
669.314514 140.0
671.343811 164.0
672.327087 112.0
673.251892 52.0
673.339722 116.0
675.35022 104.0
675.391541 176.0
682.855042 92.0
683.410278 132.0
687.31427 88.0
688.807373 140.0
689.33844 160.0
689.389954 132.0
695.924316 188.0
698.083862 124.0
699.32019 76.0
699.809753 60.0
699.984192 60.0
701.154541 160.0
701.353271 128.0
703.383972 84.0
703.669067 56.0
704.149536 128.0
706.364136 124.0
707.346802 148.0
707.391968 204.0
707.888367 44.0
708.38623 44.0
709.403687 164.0
711.371704 104.0
713.305237 48.0
713.355591 192.0
714.363403 172.0
717.062927 104.0
717.590637 116.0
718.374573 92.0
727.326721 160.0
728.889526 160.0
729.367859 44.0
729.905457 124.0
730.405579 100.0
731.347168 100.0
731.390259 92.0
733.350769 40.0
733.437012 128.0
735.589233 80.0
737.377747 148.0
738.415039 180.0
743.362732 172.0
743.40448 80.0
743.480469 116.0
744.37616 160.0
744.707397 80.0
745.370178 120.0
749.388916 120.0
752.33606 88.0
752.379761 184.0
755.429077 120.0
761.282532 144.0
763.381714 76.0
768.951294 152.0
772.033936 108.0
772.299438 44.0
773.262085 60.0
773.366211 168.0
774.386353 116.0
776.153748 76.0
776.514221 92.0
776.797119 128.0
777.723755 60.0
778.317749 64.0
781.430237 144.0
782.381897 108.0
787.456055 88.0
788.411377 132.0
789.389648 124.0
792.339294 76.0
794.343384 20.0
795.440369 136.0
800.404602 96.0
800.534058 80.0
801.389709 160.0
801.433289 244.0
802.445557 172.0
802.923462 132.0
803.25061 56.0
803.438599 100.0
804.19751 108.0
804.582397 76.0
804.667053 88.0
806.073425 36.0
806.59906 180.0
808.0354 108.0
809.382446 56.0
815.35907 156.0
815.419983 160.0
817.419006 1132.0
817.567932 96.0
817.63623 72.0
817.919128 120.0
818.199768 40.0
818.302246 68.0
818.429932 272.0
818.911499 124.0
819.241882 52.0
819.424805 224.0
822.075562 76.0
822.395142 104.0
823.371399 144.0
826.401001 192.0
827.133484 84.0
830.23877 108.0
831.455017 104.0
833.396851 88.0
833.482056 192.0
833.734924 84.0
833.915344 132.0
834.556885 92.0
835.411865 400.0
835.851074 204.0
836.400513 152.0
836.455322 112.0
836.743164 176.0
837.391541 168.0
837.430908 176.0
837.641541 92.0
838.32135 104.0
839.382019 112.0
840.806885 80.0
841.216675 152.0
842.446655 48.0
843.290283 32.0
843.816284 48.0
844.377197 96.0
844.961365 48.0
849.363953 100.0
850.071716 80.0
851.376526 104.0
851.40979 160.0
852.388611 84.0
852.458374 72.0
852.80127 76.0
853.743042 164.0
853.807007 176.0
854.411926 116.0
858.407471 92.0
862.371399 88.0
868.601318 128.0
869.170349 104.0
870.209229 96.0
873.123779 136.0
877.386719 60.0
878.064819 124.0
890.439941 116.0
890.921082 108.0
890.974548 128.0
891.14679 68.0
891.437988 128.0
891.503296 36.0
891.949097 196.0
892.091736 76.0
895.072388 72.0
896.007507 64.0
896.513977 36.0
896.835754 40.0
898.451721 168.0
898.940979 84.0
899.454224 32.0
899.651245 92.0
900.899292 148.0
903.410034 104.0
906.924927 112.0
907.230591 36.0
907.406799 144.0
908.393982 92.0
910.758911 84.0
914.458801 140.0
915.395691 104.0
921.300354 144.0
925.055664 116.0
925.830627 60.0
930.432739 128.0
932.80188 100.0
936.629272 20.0
937.671143 96.0
940.86731 64.0
942.516357 76.0
945.451538 56.0
947.035339 80.0
948.550598 60.0
949.494812 144.0
950.770874 68.0
952.41626 92.0
952.649658 64.0
952.78479 56.0
953.41156 76.0
953.706543 116.0
955.655945 52.0
955.778992 144.0
956.283569 64.0
958.297241 104.0
958.660767 40.0
958.790161 88.0
959.764099 132.0
959.887451 40.0
960.066284 108.0
960.189636 100.0
960.467163 184.0
960.609009 100.0
960.923645 84.0
961.411804 104.0
961.47522 124.0
961.577759 120.0
962.275269 112.0
962.571655 64.0
962.754028 112.0
962.843323 52.0
962.966858 160.0
963.148315 128.0
963.249573 156.0
963.489319 9588.0
963.65509 288.0
963.693176 88.0
963.85022 64.0
963.895447 88.0
963.942932 124.0
964.056396 144.0
964.185303 64.0
964.317078 104.0
964.373962 144.0
964.491272 3268.0
964.687134 156.0
964.811462 92.0
964.858215 44.0
964.931885 60.0
964.993713 44.0
965.067871 72.0
965.141846 100.0
965.203918 152.0
965.290466 88.0
965.393066 164.0
965.492981 1396.0
965.638733 208.0
965.723389 36.0
965.7948 132.0
965.890381 28.0
965.93988 68.0
966.119263 32.0
966.21051 148.0
966.379089 52.0
966.510559 404.0
966.725586 108.0
966.814636 68.0
966.86792 68.0
966.948364 116.0
967.047424 64.0
967.090759 64.0
967.30658 92.0
967.394043 84.0
967.46936 92.0
967.521606 264.0
967.579773 36.0
967.684998 52.0
967.746887 48.0
967.808838 64.0
967.926453 36.0
968.097717 92.0
968.181885 80.0
968.347595 76.0
968.40332 68.0
968.48999 144.0
968.92981 64.0
969.171448 48.0
969.636902 72.0
969.977112 112.0
970.194092 68.0
970.7005 88.0
971.23584 28.0
971.769287 36.0
971.862366 44.0
972.09198 96.0
972.47052 184.0
972.774658 80.0
972.830505 56.0
972.985718 160.0
973.488647 48.0
974.246399 76.0
974.426575 104.0
974.817993 48.0
975.669495 116.0
976.434326 144.0
976.763916 44.0
977.404724 92.0
977.460754 124.0
978.120422 88.0
978.176453 44.0
978.643372 52.0
979.450623 248.0
979.639771 40.0
979.857849 32.0
980.46936 176.0
981.460327 104.0
982.35144 60.0
982.4599 300.0
984.735779 76.0
984.829468 140.0
984.904419 172.0
985.466614 148.0
987.204285 96.0
988.461609 128.0
990.897217 116.0
993.429932 80.0
993.511475 88.0
993.618103 120.0
994.452698 92.0
997.48645 220.0
997.81958 100.0
998.058533 76.0
998.184265 48.0
998.463074 120.0
998.983032 72.0
999.514099 168.0
1001.878784 56.0
1002.389099 132.0
1002.529846 108.0
1002.754578 76.0
1003.990234 116.0
1007.038513 20.0
1009.370422 80.0
1011.416504 208.0
1016.420349 80.0
1016.832825 80.0
1021.192505 96.0
1021.439209 52.0
1026.05603 40.0
1033.995728 40.0
1036.672607 56.0
1039.93689 104.0
1042.87854 20.0
1046.526001 76.0
1048.793579 116.0
1053.077637 112.0
1054.466797 164.0
1057.940186 120.0
1073.122803 80.0
1095.674683 48.0
1104.599731 56.0
1109.659058 88.0
1112.485229 116.0
1113.474609 88.0
1113.693726 76.0
1121.938232 132.0
1123.658813 76.0
1126.502686 136.0
1141.784546 112.0
1142.504272 124.0
1146.200439 48.0
1155.463867 88.0
1156.465332 152.0
1158.469604 72.0
1159.503662 100.0
1162.083008 60.0
1167.421875 68.0
1171.996094 44.0
1173.478271 76.0
1175.459961 64.0
1203.319946 104.0
1209.756226 52.0
1210.635498 92.0
1211.619019 140.0
1216.653809 112.0
1227.556396 148.0
1231.268921 56.0
1239.614624 48.0
1239.901978 208.0
1241.710693 72.0
1249.556885 68.0
1251.182495 108.0
1251.407837 172.0
1257.547729 120.0
1260.888306 32.0
1263.263916 76.0
1265.628784 120.0
1273.762085 80.0
1274.685669 64.0
1274.976929 56.0
1275.730347 84.0
1276.718628 108.0
1278.404663 72.0
1292.740845 100.0
1303.619141 116.0
1303.676636 112.0
1303.913818 164.0
1314.247192 132.0
1319.512329 76.0
1319.888306 40.0
1320.591064 144.0
1322.977661 68.0
1331.954834 68.0
1336.549438 80.0
1340.175415 168.0
1343.390381 96.0
1363.614014 164.0
1384.255371 140.0
1389.599365 156.0
1395.994629 100.0
1396.381348 20.0
1411.160767 96.0
1418.789673 84.0
1419.786865 152.0
1429.071167 288.0
1432.782715 128.0
1437.570557 80.0
1437.759155 112.0
1450.351807 92.0
1450.806519 128.0
1455.381348 80.0
1468.782837 48.0
1488.99646 68.0
1490.8479 32.0
1492.046875 84.0
