>compound MLS000543058-01!N,1-dimethyl-4,5,6,7-tetrahydro-1H-indazol-3-amine
>formula C9H15N3
>ionization [M+H]+
>parentmass 166.132812
#inchi InChI=1S/C9H15N3/c1-10-9-7-5-3-4-6-8(7)11-12(9)2/h10H,3-6H2,1-2H3
#inchikey NKDJNEGDJVXHKM
#Ion_Source LC-ESI
#Instrument qTof
#Compound_Source NIH Pharmacologically Active Library
#PI Dorrestein
#Data_Collector VP/LMS
#Scan -1
#Precursor_MZ 166.134
#ExactMass 165.127
#Charge 1
#CAS_Number N/A
#Pubmed_ID N/A
#Smiles CNc1c2CCCCc2nn1C
#INCHI_AUX N/A
#Library_Class 1
#SpectrumID CCMSLIB00000085172
#IonMode Positive
#UpdateWorkflowName UPDATE-SINGLE-ANNOTATED-GOLD
#LibraryQualityString Gold
#TaskID d252d724072548979f1f6f1ced849daf
##Scan# 1277
#SpectrumFile p3-F08_GF8_01_18289.mzXML
#LibraryName Pharm_Active_Library.mgf
#MQScore -1
#Organism Pharm_Active_Library
#TIC_Query 0
#RT_Query -1
#MZErrorPPM -1
#SharedPeaks 0
#MassDiff 0
#LibMZ -1
#SpecMZ 166.134
#SpecCharge 0
#internalFilename spec-00000.mgf

>collision 10
44.93919 140.0
45.392673 216.0
45.583302 168.0
45.7878 148.0
46.079189 236.0
46.126495 200.0
46.389126 64.0
46.537014 164.0
46.607651 204.0
46.69466 60.0
47.057163 196.0
47.34708 196.0
47.511578 36.0
47.714851 180.0
47.790501 204.0
48.046783 88.0
48.557243 120.0
48.584988 28.0
48.82531 160.0
48.925499 156.0
49.37204 204.0
49.570843 140.0
50.828785 240.0
50.956585 140.0
51.313847 136.0
51.536518 116.0
52.164288 156.0
52.713455 80.0
52.842152 196.0
52.898598 56.0
52.929001 208.0
53.042015 124.0
53.22628 120.0
53.403591 148.0
53.493813 224.0
54.313641 156.0
54.950676 176.0
55.275764 196.0
55.425331 232.0
55.576584 92.0
56.149342 136.0
56.176193 212.0
56.303074 172.0
56.557262 176.0
56.660595 128.0
57.300659 164.0
57.664352 164.0
57.684006 168.0
58.047901 180.0
58.10807 48.0
58.580906 56.0
59.253143 124.0
59.59531 220.0
59.676777 100.0
60.064892 132.0
60.488312 156.0
60.683525 60.0
62.864239 204.0
62.910015 152.0
63.053761 168.0
63.260983 112.0
63.92128 140.0
64.163399 256.0
64.396393 68.0
64.71624 80.0
65.22644 164.0
65.745094 204.0
65.88073 52.0
66.286865 228.0
66.58213 212.0
67.179535 56.0
68.868759 264.0
69.058846 184.0
69.11013 260.0
69.186272 140.0
69.221046 148.0
69.300552 44.0
69.968262 140.0
70.164078 144.0
70.530472 196.0
71.016075 160.0
71.106682 184.0
71.326721 216.0
71.569 132.0
71.806618 124.0
72.645645 156.0
72.820488 116.0
72.919037 184.0
73.027863 148.0
73.160744 232.0
73.766228 96.0
73.836334 164.0
73.894501 196.0
74.374359 228.0
74.547836 116.0
74.735275 204.0
75.114311 52.0
75.233391 236.0
75.36293 176.0
75.428604 252.0
75.656967 84.0
75.958511 164.0
77.305382 96.0
77.552338 108.0
78.230415 140.0
78.288521 84.0
78.582909 216.0
78.785957 60.0
78.946808 204.0
79.021103 156.0
79.598976 192.0
79.979454 88.0
80.410812 144.0
80.64122 44.0
80.857643 140.0
81.589531 100.0
81.726234 204.0
82.185509 200.0
82.44577 156.0
82.912712 168.0
83.775841 196.0
84.396408 184.0
84.47139 160.0
86.208992 228.0
86.223778 192.0
86.469765 204.0
87.224716 208.0
87.867226 124.0
87.977341 148.0
88.033363 168.0
88.093132 136.0
88.1604 164.0
88.755707 52.0
89.191284 260.0
89.362427 176.0
89.842873 224.0
89.874947 180.0
90.186569 140.0
90.269753 176.0
91.185471 236.0
91.215881 100.0
91.278625 36.0
91.449104 212.0
91.983597 196.0
92.050423 204.0
92.859985 64.0
93.047905 352.0
93.073006 160.0
93.195946 136.0
93.43821 152.0
93.950699 200.0
94.063545 840.0
94.124413 192.0
94.166901 220.0
94.483932 164.0
94.540054 168.0
94.822823 196.0
95.058609 784.0
95.265244 52.0
95.854805 144.0
96.064278 376.0
96.078583 704.0
96.326973 124.0
96.551758 192.0
96.733734 136.0
96.974678 144.0
97.071259 336.0
97.538033 260.0
97.581284 72.0
98.096191 292.0
99.128876 188.0
99.601089 120.0
100.642708 128.0
100.780533 224.0
101.11451 44.0
101.993057 100.0
102.095596 224.0
102.556671 148.0
104.696297 188.0
105.045738 196.0
105.066711 392.0
105.893158 272.0
105.911591 176.0
106.06459 568.0
106.325775 220.0
106.584534 156.0
107.059082 524.0
107.066254 404.0
107.829308 160.0
107.940948 112.0
108.009201 144.0
108.054199 732.0
108.078224 1352.0
108.425385 152.0
108.524895 216.0
108.72197 156.0
109.073189 516.0
109.699593 220.0
110.029228 184.0
110.069923 940.0
110.092773 484.0
110.211258 132.0
110.549713 152.0
110.985443 36.0
111.056747 252.0
111.079086 344.0
111.596474 184.0
112.088013 160.0
112.143837 200.0
112.190208 152.0
112.238708 168.0
112.413795 168.0
112.561569 196.0
112.85952 136.0
113.088005 200.0
113.482048 124.0
113.90226 48.0
114.065887 132.0
114.840996 184.0
115.045853 204.0
115.67437 168.0
116.117928 228.0
117.059265 108.0
118.006561 212.0
118.049522 184.0
118.216385 132.0
118.666954 240.0
119.057442 472.0
119.121094 176.0
119.161827 180.0
119.246582 164.0
119.646843 192.0
120.078369 324.0
120.416618 148.0
120.545525 104.0
120.674492 200.0
120.731346 128.0
120.93045 224.0
121.000504 220.0
121.074524 2072.0
121.164764 44.0
121.267952 208.0
121.500214 236.0
121.98996 132.0
122.022942 136.0
122.071541 956.0
122.095581 628.0
122.251709 116.0
122.379387 220.0
122.430031 116.0
122.548988 68.0
122.703278 176.0
123.007729 232.0
123.078041 3580.0
123.184395 44.0
123.208702 64.0
123.239082 112.0
123.303719 212.0
123.668671 44.0
123.710732 172.0
123.945511 160.0
124.085297 3112.0
124.131721 116.0
124.187164 112.0
124.247063 60.0
124.384651 160.0
124.402412 32.0
124.551201 40.0
124.611183 56.0
124.880173 128.0
124.90464 240.0
124.92244 96.0
125.092957 364.0
125.105972 412.0
125.14946 176.0
125.468079 148.0
125.577347 72.0
126.086411 120.0
126.652496 144.0
126.896774 272.0
127.042557 224.0
127.224342 200.0
127.311913 184.0
128.155502 48.0
128.626862 192.0
129.225769 108.0
129.719498 192.0
130.057495 200.0
131.541687 204.0
132.080994 52.0
132.965439 156.0
133.075729 1056.0
133.204971 188.0
133.679749 168.0
134.080963 1428.0
134.246918 124.0
134.49379 76.0
134.609222 56.0
134.770935 192.0
135.011353 80.0
135.090256 1564.0
135.254288 68.0
135.330688 80.0
135.82666 120.0
136.088882 668.0
137.063553 216.0
137.085785 200.0
137.104767 400.0
137.378311 80.0
137.714462 160.0
137.828934 168.0
138.10173 648.0
138.167984 188.0
138.313065 120.0
138.453552 160.0
139.119537 172.0
139.52829 152.0
139.845871 208.0
140.128464 120.0
140.609543 220.0
141.815811 176.0
142.254654 164.0
143.01535 168.0
143.572876 180.0
144.547592 176.0
146.063934 144.0
146.080765 192.0
146.434616 176.0
146.468338 188.0
146.955582 180.0
147.006012 148.0
147.530167 72.0
148.098846 148.0
149.018295 184.0
149.106522 468.0
149.555756 40.0
149.799271 124.0
149.928406 116.0
149.972275 52.0
150.00885 204.0
150.100876 9572.0
150.145859 188.0
150.242966 168.0
150.262482 48.0
150.279556 60.0
150.357651 268.0
150.479706 60.0
150.721527 68.0
150.763077 160.0
151.068726 200.0
151.108353 6640.0
151.169037 96.0
151.228302 56.0
151.303665 52.0
151.462845 152.0
151.61644 88.0
151.623581 60.0
152.056229 160.0
152.112915 1372.0
152.191254 108.0
152.26001 152.0
152.301773 96.0
152.459015 52.0
152.820511 120.0
153.069122 192.0
153.108521 136.0
153.145462 88.0
153.170105 124.0
154.050781 28.0
154.550217 144.0
154.795288 104.0
155.139694 268.0
155.978775 216.0
156.292145 88.0
158.416901 104.0
159.264786 160.0
163.522903 76.0
163.955887 144.0
164.117538 224.0
165.064804 172.0
165.112442 308.0
166.068619 188.0
166.132812 6404.0
166.185806 64.0
166.203766 40.0
166.25766 48.0
166.477356 56.0
167.077362 120.0
167.108246 140.0
167.131866 460.0
167.224045 100.0
167.440323 64.0
168.123535 160.0
168.371384 96.0
168.48732 68.0
168.890915 80.0
187.052673 160.0
194.874771 60.0
196.135483 108.0
205.707565 92.0
209.87352 80.0
237.025391 128.0
238.670731 20.0
253.836273 84.0
290.696259 64.0
354.117737 112.0
376.619049 72.0
399.877106 120.0
425.09906 96.0
433.437408 72.0
527.784668 80.0
647.612122 136.0
653.76062 68.0
761.575684 216.0
795.080078 176.0
795.23114 204.0
798.631042 292.0
813.634949 224.0
906.50061 132.0
913.934753 204.0
914.031067 144.0
922.166748 192.0
927.032776 188.0
939.625977 216.0
958.604187 172.0
961.45343 68.0
973.643921 112.0
976.714417 204.0
978.749573 188.0
989.526794 180.0
989.94635 120.0
996.067993 144.0
1024.235718 188.0
1036.074951 176.0
1039.223145 128.0
1044.111816 204.0
1062.904907 160.0
1063.515015 56.0
1066.437988 160.0
1068.766235 180.0
1072.341553 248.0
1098.426514 260.0
1102.090698 156.0
1107.939697 184.0
1111.95813 144.0
1117.866455 176.0
1127.59021 40.0
1136.698364 132.0
1143.082397 148.0
1146.085815 140.0
1146.645142 172.0
1158.55835 128.0
1159.222412 144.0
1160.801147 172.0
1166.083862 144.0
1178.596313 136.0
1181.960571 252.0
1196.023438 212.0
1200.191528 88.0
1204.781494 244.0
1208.203735 144.0
1219.21521 184.0
1221.266357 112.0
1222.330811 132.0
1225.812744 196.0
1229.04834 144.0
1238.577637 208.0
1243.247314 184.0
1245.803223 108.0
1248.207031 188.0
1250.50061 160.0
1260.946411 152.0
1269.456299 216.0
1277.496826 168.0
1278.094482 40.0
1278.457397 136.0
1284.164307 176.0
1284.849121 48.0
1292.186768 196.0
1296.827393 120.0
1300.363403 144.0
1304.17749 100.0
1306.975098 144.0
1325.301758 148.0
1325.809082 184.0
1325.903198 124.0
1331.097656 84.0
1331.49707 192.0
1338.573242 208.0
1340.627686 220.0
1345.770508 132.0
1346.274292 124.0
1348.904785 156.0
1348.999756 152.0
1355.601929 84.0
1355.799805 112.0
1363.373779 228.0
1363.726562 216.0
1363.983887 176.0
1367.161377 180.0
1370.364624 132.0
1377.070557 136.0
1379.760376 52.0
1382.66748 148.0
1398.134644 124.0
1400.97168 208.0
1401.508057 124.0
1402.55896 140.0
1404.863281 164.0
1405.303467 144.0
1411.443481 124.0
1414.668213 204.0
1425.198608 180.0
1428.025391 124.0
1428.281128 224.0
1439.820923 184.0
1440.266602 168.0
1449.118042 184.0
1451.331299 152.0
1451.581543 184.0
1456.41626 220.0
1462.75061 148.0
1463.359619 180.0
1463.588013 164.0
1468.441528 188.0
1470.693481 208.0
1473.534424 132.0
1477.089478 192.0
1480.120239 164.0
1481.245605 160.0
1481.713501 136.0
1484.641724 216.0
1488.954956 212.0
1492.889893 168.0
1494.251465 140.0
1497.838989 96.0
1497.993042 192.0
1498.093262 184.0
1499.765381 136.0
1499.878906 160.0
1500.05835 144.0
1501.585083 240.0
1502.92749 204.0
