>compound MLS001066406-01!Prednisone
>formula C21H26O5
>ionization [M+H]+
>parentmass 359.1853003840905
#inchi InChI=1S/C21H26O5/c1-19-7-5-13(23)9-12(19)3-4-14-15-6-8-21(26,17(25)11-22)20(15,2)10-16(24)18(14)19/h5,7,9,14-15,18,22,26H,3-4,6,8,10-11H2,1-2H3/t14?,15?,18?,19?,20-,21?/m0/s1
#inchikey XOFYZVNMUHMLCC
#Ion_Source LC-ESI
#Instrument qTof
#Compound_Source NIH Pharmacologically Active Library
#PI Dorrestein
#Data_Collector VP/LMS
#Scan -1
#Precursor_MZ 359.19
#ExactMass 358.178
#Charge 1
#CAS_Number N/A
#Pubmed_ID N/A
#Smiles C[C@@]12CC(=O)C3C(CCC4=CC(=O)C=CC34C)C2CCC1(O)C(=O)CO
#INCHI_AUX N/A
#Library_Class 1
#SpectrumID CCMSLIB00000085657
#IonMode Positive
#UpdateWorkflowName UPDATE-SINGLE-ANNOTATED-GOLD
#LibraryQualityString Gold
#TaskID d252d724072548979f1f6f1ced849daf
##Scan# 1629
#SpectrumFile p4-D10_GD10_01_18370.mzXML
#LibraryName Pharm_Active_Library.mgf
#MQScore -1
#Organism Pharm_Active_Library
#TIC_Query 0
#RT_Query -1
#MZErrorPPM -1
#SharedPeaks 0
#MassDiff 0
#LibMZ -1
#SpecMZ 359.19
#SpecCharge 0
#internalFilename spec-00000.mgf

>collision 10
45.110252 120.0
45.276169 136.0
45.316975 172.0
45.501438 224.0
46.044106 264.0
46.1022 204.0
46.417614 96.0
46.474583 192.0
46.618225 92.0
46.784462 144.0
46.960243 80.0
47.129524 96.0
47.408676 176.0
47.613091 92.0
47.622704 252.0
47.655674 200.0
48.314701 184.0
48.624462 176.0
48.675072 288.0
48.929516 152.0
49.028416 84.0
49.285179 136.0
49.310333 152.0
49.363457 144.0
49.501995 184.0
49.769825 264.0
49.783867 156.0
49.873783 140.0
49.913147 104.0
50.020073 124.0
50.073578 48.0
50.227215 184.0
50.427715 188.0
50.628613 36.0
50.915089 216.0
51.017395 148.0
51.196678 248.0
51.316372 232.0
51.420509 164.0
51.483326 232.0
51.866768 116.0
52.107861 164.0
52.125103 192.0
52.626366 128.0
53.079266 72.0
53.101021 208.0
53.143089 140.0
53.283924 140.0
53.346413 188.0
53.38131 156.0
53.49334 120.0
53.516636 132.0
53.550129 232.0
54.203156 184.0
54.294044 76.0
54.404091 128.0
54.58334 108.0
54.65836 144.0
54.761414 60.0
55.276649 124.0
55.449917 128.0
55.697704 284.0
55.905853 156.0
56.010075 128.0
56.174046 60.0
56.339748 44.0
56.383083 96.0
56.417461 196.0
56.794823 100.0
56.881851 152.0
56.979465 84.0
57.455212 196.0
57.58654 188.0
57.662083 132.0
57.751289 216.0
57.851856 192.0
57.873871 168.0
57.957176 160.0
58.891262 140.0
58.947788 64.0
59.067043 44.0
59.19101 148.0
59.238487 112.0
59.342705 44.0
59.632839 192.0
59.992943 136.0
60.071682 108.0
60.115829 176.0
60.147293 140.0
60.280117 240.0
60.419273 136.0
60.549297 140.0
60.623661 156.0
60.736839 276.0
60.876522 120.0
60.997711 184.0
61.022583 148.0
61.372913 44.0
61.493031 256.0
61.52113 168.0
61.538303 56.0
61.607021 176.0
61.711735 188.0
61.728935 204.0
61.768032 192.0
62.104805 220.0
62.238201 168.0
62.310452 112.0
62.41576 148.0
62.442493 132.0
62.921528 84.0
62.962585 40.0
62.976799 200.0
63.182301 156.0
63.226604 144.0
63.746765 192.0
63.891457 192.0
63.991726 156.0
64.055428 60.0
64.439903 160.0
64.467064 132.0
64.516617 132.0
64.979462 188.0
65.06292 208.0
65.244453 172.0
65.39566 144.0
65.456841 116.0
65.503548 140.0
65.666344 132.0
65.798668 168.0
65.830956 192.0
65.91819 168.0
66.039444 116.0
66.109009 128.0
66.170517 168.0
66.317932 208.0
66.566154 188.0
66.837616 188.0
67.015099 136.0
67.142242 184.0
67.249924 156.0
67.748665 128.0
67.825684 196.0
67.933914 200.0
68.0373 208.0
68.111198 172.0
68.183495 112.0
68.357811 192.0
68.402252 148.0
68.468109 40.0
68.487877 232.0
68.705467 216.0
68.78138 188.0
68.958115 212.0
69.212875 224.0
69.345406 128.0
69.569344 164.0
69.953354 96.0
69.976662 216.0
70.073257 56.0
70.518814 192.0
70.538872 208.0
70.553917 88.0
70.811607 112.0
70.843437 232.0
70.9356 64.0
71.049637 180.0
71.113403 88.0
71.349442 132.0
71.501648 244.0
71.654877 136.0
71.74926 144.0
72.081764 228.0
72.205177 144.0
72.226547 188.0
72.252541 200.0
72.283638 188.0
72.496361 204.0
72.557381 144.0
72.635391 128.0
72.764366 176.0
72.873062 128.0
72.891754 156.0
72.937645 76.0
73.060081 192.0
73.119637 132.0
73.240524 168.0
73.43824 184.0
73.571342 188.0
73.690895 308.0
73.733612 112.0
73.837906 128.0
73.96965 168.0
74.012451 296.0
74.118652 124.0
74.695511 44.0
74.712715 172.0
74.905518 232.0
75.007187 68.0
75.428375 52.0
75.502724 180.0
75.60479 176.0
75.672302 36.0
75.810875 76.0
75.894081 148.0
76.07972 256.0
76.145706 168.0
76.437767 184.0
76.944977 148.0
77.055008 132.0
77.151131 88.0
77.277054 112.0
77.382065 140.0
77.499413 96.0
77.518692 80.0
77.56601 172.0
77.643158 164.0
77.983765 196.0
78.055847 60.0
78.140274 184.0
78.284607 136.0
78.457283 216.0
78.589561 144.0
79.350098 188.0
79.497322 176.0
79.708641 200.0
79.728188 216.0
79.777954 112.0
80.463852 128.0
80.558502 168.0
80.672874 192.0
80.728302 200.0
80.824898 180.0
80.953781 124.0
81.106071 212.0
81.19751 204.0
81.210068 176.0
81.222618 220.0
81.655487 84.0
81.705856 72.0
81.790436 52.0
81.858849 44.0
82.026405 132.0
82.311462 224.0
82.357315 176.0
82.712822 144.0
82.819656 216.0
82.895752 120.0
83.162346 72.0
83.480286 164.0
83.502106 112.0
83.529388 136.0
83.76239 52.0
83.783035 192.0
83.912697 188.0
83.984772 196.0
84.068695 180.0
84.220772 188.0
84.882736 260.0
84.910164 140.0
85.073555 96.0
85.192924 192.0
85.242531 168.0
85.288475 48.0
85.706238 140.0
85.827888 200.0
85.905067 208.0
85.945938 152.0
86.032684 196.0
86.237724 196.0
86.296883 120.0
86.437454 236.0
86.963776 152.0
86.980484 104.0
87.07518 164.0
87.233116 28.0
87.422829 228.0
87.489838 204.0
87.636971 124.0
87.890556 228.0
88.00441 212.0
88.084717 200.0
88.331467 176.0
88.580429 68.0
88.690987 184.0
88.863518 56.0
88.940453 244.0
89.098419 204.0
89.171478 124.0
89.350121 192.0
89.464653 168.0
89.815422 176.0
89.979599 128.0
90.057022 224.0
90.156174 108.0
90.348129 152.0
90.406784 120.0
90.452209 176.0
90.634026 240.0
91.052826 540.0
91.072258 184.0
91.087456 76.0
91.228073 60.0
91.32695 128.0
91.418274 208.0
91.654404 184.0
91.682983 148.0
91.751602 176.0
92.433479 168.0
92.559814 216.0
92.580879 212.0
92.726479 136.0
92.830002 192.0
93.034218 120.0
93.07132 148.0
93.154366 200.0
93.175499 176.0
93.394646 148.0
93.440819 136.0
93.463905 192.0
93.627533 124.0
93.677612 164.0
93.978371 200.0
94.039215 204.0
94.376259 52.0
94.39946 160.0
94.442009 172.0
94.513588 184.0
94.591003 160.0
94.854446 160.0
94.963028 212.0
95.048393 344.0
95.089119 404.0
95.13961 144.0
95.388268 164.0
95.563301 124.0
95.709282 220.0
95.726807 248.0
95.894348 120.0
95.991821 148.0
96.200211 204.0
96.329475 152.0
96.603149 172.0
96.951675 164.0
97.035965 144.0
97.068588 176.0
97.102631 208.0
97.511009 208.0
97.717484 168.0
97.955696 200.0
98.561378 216.0
98.634499 180.0
98.78083 104.0
98.854034 148.0
98.966866 176.0
99.040138 156.0
99.557785 72.0
99.830048 136.0
100.03299 212.0
100.102676 148.0
100.136528 160.0
100.473404 192.0
100.904793 88.0
100.970779 120.0
100.986778 112.0
101.060799 264.0
101.228943 148.0
101.475403 160.0
101.736214 164.0
101.999367 92.0
102.057671 160.0
102.18438 140.0
102.293053 136.0
102.486397 128.0
102.50856 160.0
102.759491 188.0
102.828415 152.0
102.934196 200.0
103.017006 152.0
103.051071 184.0
103.190804 60.0
103.338455 176.0
103.838806 172.0
103.928062 224.0
104.047813 172.0
104.064056 132.0
104.153412 220.0
104.194038 168.0
104.222481 176.0
104.26516 136.0
104.311905 176.0
104.704597 168.0
105.006233 136.0
105.070107 1028.0
105.15313 204.0
105.200081 224.0
105.243233 116.0
105.371628 216.0
105.580124 40.0
105.934227 88.0
106.068619 220.0
106.229416 60.0
106.280708 64.0
106.354591 188.0
106.765503 100.0
106.877495 216.0
106.96302 196.0
107.049538 176.0
107.084915 1320.0
108.228226 100.0
108.348701 264.0
108.410858 124.0
108.504135 192.0
108.736458 148.0
108.777977 140.0
109.064598 608.0
109.081261 140.0
109.102867 304.0
109.287148 220.0
109.503647 156.0
109.522392 100.0
109.636986 120.0
109.74955 120.0
109.899727 152.0
109.953987 216.0
110.066666 188.0
110.098038 112.0
110.1231 164.0
110.23616 168.0
110.27771 232.0
110.359238 48.0
110.384331 76.0
110.470085 176.0
110.562149 116.0
110.614471 140.0
110.696129 152.0
110.825996 164.0
110.844856 156.0
111.020943 196.0
111.042007 144.0
111.080391 312.0
111.171989 196.0
111.230759 184.0
111.264343 156.0
111.312637 116.0
111.707764 72.0
111.882431 184.0
111.92244 84.0
112.078308 156.0
112.105705 208.0
112.126778 148.0
112.162605 68.0
112.449463 156.0
112.466347 184.0
112.749367 148.0
113.015808 124.0
113.053902 188.0
113.185143 152.0
113.281876 196.0
113.411827 184.0
113.496628 92.0
113.519951 152.0
113.577217 200.0
113.846764 156.0
114.191055 136.0
114.248482 180.0
114.574211 60.0
114.917465 52.0
115.053497 832.0
115.242004 152.0
115.644035 108.0
116.058212 364.0
116.160439 144.0
116.231239 204.0
116.557625 80.0
116.624245 172.0
116.776901 156.0
116.940819 196.0
117.004997 136.0
117.030838 188.0
117.070412 1280.0
117.360497 76.0
117.517952 212.0
117.822372 152.0
117.958519 180.0
117.988785 116.0
118.075981 392.0
118.198586 80.0
118.285156 80.0
118.32196 152.0
118.367424 84.0
118.475723 180.0
118.590569 84.0
119.083969 1368.0
119.159119 56.0
119.239517 52.0
119.269951 216.0
119.611458 192.0
119.73774 140.0
119.848839 176.0
119.969414 236.0
120.049385 176.0
120.06839 160.0
120.088913 192.0
120.154083 76.0
120.512146 268.0
120.590813 212.0
120.888245 192.0
120.912323 96.0
121.065056 2544.0
121.271507 124.0
121.495178 140.0
121.560997 44.0
121.644402 128.0
121.83326 156.0
122.067383 368.0
122.604561 180.0
122.762108 144.0
122.790779 156.0
123.079651 384.0
123.484276 92.0
123.838409 184.0
124.115425 188.0
124.49044 220.0
124.719276 72.0
124.932755 160.0
125.0952 196.0
125.153091 168.0
125.309196 180.0
125.886711 72.0
126.058723 148.0
126.094482 172.0
126.219933 172.0
126.327026 216.0
126.658318 132.0
126.851028 136.0
127.05275 164.0
127.457924 176.0
127.600853 140.0
127.632324 212.0
127.906799 200.0
127.972084 236.0
128.059937 816.0
128.141006 156.0
128.201843 168.0
128.456619 156.0
128.598633 288.0
128.738754 132.0
129.06897 1236.0
129.87944 124.0
129.949768 44.0
130.077606 444.0
130.870285 136.0
130.949997 112.0
131.051804 696.0
131.085251 1620.0
132.057053 1044.0
132.08989 196.0
132.137833 108.0
132.20108 188.0
132.230835 84.0
132.397964 212.0
132.523956 168.0
132.565201 168.0
132.636246 112.0
132.766937 176.0
132.844925 124.0
132.98259 144.0
132.998657 164.0
133.061768 476.0
133.096344 324.0
133.182358 28.0
133.453522 28.0
133.485718 140.0
133.786209 100.0
133.964447 124.0
134.071609 288.0
134.113388 120.0
134.144196 116.0
134.328674 168.0
134.43251 260.0
134.497131 156.0
135.081619 1508.0
135.1604 188.0
135.195114 188.0
135.213623 136.0
135.528564 168.0
135.595764 188.0
135.834595 188.0
136.006302 40.0
136.082031 168.0
136.185089 220.0
136.224579 64.0
136.415131 148.0
136.815262 104.0
136.973618 172.0
137.03186 236.0
137.061752 312.0
137.102921 220.0
137.136719 232.0
137.3629 36.0
137.414215 184.0
137.609009 228.0
137.892929 188.0
137.937332 208.0
138.098679 208.0
138.189911 156.0
138.318619 136.0
139.076782 388.0
139.13208 100.0
139.171982 216.0
139.674911 232.0
139.759613 208.0
139.783142 232.0
139.933777 132.0
140.055664 232.0
140.192886 216.0
140.284805 208.0
140.440445 56.0
140.46167 152.0
141.068985 1484.0
141.316864 156.0
141.605667 172.0
141.698059 136.0
141.961166 124.0
142.075394 528.0
142.193665 168.0
142.530869 52.0
142.566513 184.0
142.647324 164.0
142.671097 184.0
143.085434 1012.0
143.151733 60.0
143.208893 160.0
143.270813 84.0
143.656891 80.0
143.690414 48.0
144.000748 144.0
144.057693 976.0
144.084351 448.0
144.178253 216.0
144.230118 64.0
144.385529 112.0
144.900177 144.0
144.94809 120.0
145.063843 2884.0
145.100311 792.0
145.27417 200.0
145.737534 196.0
145.94664 96.0
146.071564 1476.0
146.117416 76.0
146.151093 80.0
146.531158 164.0
146.540665 140.0
146.584518 216.0
146.6978 60.0
146.813538 192.0
146.938446 128.0
147.013763 120.0
147.042725 148.0
147.080856 10240.0
147.204483 96.0
147.441223 48.0
147.523407 184.0
147.782181 144.0
147.813644 76.0
148.080338 1052.0
148.142914 52.0
148.385269 72.0
148.855988 88.0
149.05603 216.0
149.089279 304.0
149.18399 172.0
149.220459 192.0
149.278809 132.0
149.478287 208.0
150.167725 160.0
150.262863 196.0
150.299454 224.0
150.751205 136.0
150.792755 56.0
150.959 124.0
151.044601 252.0
151.072296 460.0
151.137573 184.0
151.251999 212.0
151.440384 192.0
151.75235 80.0
151.919128 168.0
152.060669 916.0
152.184189 260.0
152.213654 64.0
152.233292 136.0
152.34137 60.0
152.614166 196.0
152.837997 192.0
153.067627 716.0
153.207306 108.0
153.266434 128.0
153.298477 176.0
153.340378 208.0
153.801605 80.0
153.828751 160.0
154.075012 540.0
154.25116 172.0
154.394577 52.0
154.599899 84.0
155.055923 216.0
155.084732 844.0
155.157227 148.0
155.554138 52.0
155.596344 132.0
155.770187 52.0
156.058319 132.0
156.089432 184.0
156.272369 144.0
156.361954 156.0
156.424179 180.0
156.468994 132.0
156.561127 164.0
156.655777 188.0
156.758148 224.0
156.83519 56.0
157.063385 460.0
157.101135 344.0
157.131943 132.0
157.16188 64.0
157.291656 72.0
157.31662 120.0
157.339081 156.0
157.406494 56.0
157.598831 92.0
157.777664 188.0
158.070526 1788.0
158.111313 132.0
158.138992 100.0
158.26416 116.0
158.419449 204.0
158.574799 140.0
158.680084 180.0
158.830551 348.0
159.041321 148.0
159.079346 5100.0
159.176132 184.0
159.217072 84.0
159.23967 64.0
159.347687 132.0
159.65184 108.0
159.991516 68.0
160.031799 176.0
160.054474 204.0
160.083694 928.0
160.236649 120.0
160.505508 96.0
160.82843 212.0
161.058395 380.0
161.093597 1308.0
161.144089 44.0
161.245178 80.0
161.280563 72.0
161.425171 204.0
161.467651 84.0
161.561249 144.0
161.715607 204.0
161.778885 120.0
161.872559 136.0
161.897186 52.0
162.069656 188.0
162.097595 232.0
162.40477 136.0
162.491028 112.0
163.076141 836.0
163.100494 136.0
163.314087 52.0
163.334442 56.0
163.576172 144.0
164.079697 184.0
164.264191 160.0
164.292252 56.0
164.34584 120.0
164.72113 220.0
165.067169 1120.0
165.135208 136.0
165.611267 140.0
166.031601 160.0
166.078293 324.0
166.307129 184.0
166.490982 96.0
166.724762 132.0
166.81987 136.0
167.08075 656.0
167.177383 216.0
167.282898 164.0
167.638336 180.0
167.991577 140.0
168.055252 88.0
168.087036 176.0
168.288361 144.0
168.544083 156.0
168.880157 52.0
169.065063 492.0
169.099625 444.0
169.141495 208.0
169.289062 68.0
169.636261 196.0
170.067093 172.0
170.103271 140.0
170.388855 232.0
170.448608 144.0
170.718964 188.0
170.747559 192.0
170.812515 132.0
170.90625 108.0
171.044266 132.0
171.079559 7892.0
171.11734 584.0
171.213425 36.0
171.247269 68.0
171.268112 144.0
171.315002 56.0
171.333237 80.0
171.41922 116.0
171.447891 40.0
171.476547 52.0
171.659042 148.0
171.760757 120.0
171.896423 156.0
171.914688 92.0
172.083923 1828.0
172.29068 56.0
172.48407 188.0
172.664474 72.0
172.813583 108.0
173.031647 240.0
173.09671 3820.0
173.159119 92.0
173.224609 60.0
173.311066 56.0
173.47879 164.0
173.520737 48.0
173.667587 148.0
173.96936 124.0
174.069122 44.0
174.098618 476.0
174.210953 168.0
174.344955 176.0
175.074066 164.0
175.09877 68.0
175.118668 232.0
175.389847 92.0
175.511108 144.0
175.727402 84.0
175.901581 204.0
175.983414 148.0
176.073196 120.0
176.110168 136.0
176.22113 80.0
176.279251 168.0
176.797577 36.0
176.884918 152.0
176.951096 176.0
177.086319 336.0
177.105148 208.0
177.929413 128.0
178.078522 1064.0
178.256104 220.0
178.857178 48.0
179.083832 1616.0
179.128784 196.0
179.195374 120.0
179.267319 156.0
179.466751 236.0
179.520569 192.0
179.541916 164.0
179.568573 128.0
179.669937 56.0
179.864746 64.0
180.088715 340.0
180.211929 152.0
180.265366 152.0
180.433762 104.0
180.634323 212.0
180.695862 28.0
181.063919 980.0
181.099976 676.0
181.206955 196.0
181.392136 200.0
181.469894 212.0
181.63884 224.0
181.722 132.0
181.74884 136.0
181.998459 156.0
182.07225 752.0
182.10527 176.0
182.326187 64.0
182.447144 160.0
182.581589 48.0
182.605789 92.0
182.950226 192.0
183.077133 2488.0
183.117752 352.0
183.402771 76.0
183.45668 36.0
184.087021 992.0
184.441971 116.0
184.482529 196.0
185.062103 404.0
185.095581 1228.0
185.131134 156.0
185.275452 168.0
185.603409 136.0
185.663055 152.0
186.040222 232.0
186.096985 612.0
186.513855 112.0
186.841919 236.0
187.013351 184.0
187.074936 1136.0
187.110992 1092.0
187.143295 180.0
187.323776 72.0
187.375534 96.0
187.735336 164.0
187.768066 172.0
187.841705 76.0
188.049072 128.0
188.082687 152.0
188.112381 444.0
188.188293 36.0
188.234726 60.0
188.37674 40.0
188.513351 60.0
188.532486 84.0
188.551605 164.0
188.764847 124.0
188.969986 136.0
189.043869 132.0
189.089096 540.0
189.306671 204.0
189.380615 180.0
189.446365 76.0
189.761536 156.0
190.079636 292.0
190.104401 216.0
190.310272 76.0
190.447586 164.0
190.664627 248.0
190.868057 156.0
191.085571 664.0
191.112869 108.0
191.236694 128.0
191.300003 80.0
192.090149 640.0
192.289551 264.0
192.408249 156.0
192.864059 124.0
193.100464 996.0
194.073624 528.0
194.106522 448.0
194.892654 116.0
195.081177 1832.0
195.110931 340.0
195.315231 212.0
195.370865 196.0
195.432068 192.0
195.48494 228.0
195.607407 208.0
195.906754 56.0
195.994522 136.0
196.087799 1476.0
196.19519 48.0
196.404327 164.0
196.437805 92.0
196.527084 56.0
196.591263 100.0
196.682037 176.0
196.753159 152.0
196.982147 128.0
197.058685 156.0
197.094559 3896.0
197.135513 256.0
197.197296 44.0
197.298996 84.0
197.562546 180.0
197.625153 240.0
197.655945 76.0
197.89386 208.0
198.100815 524.0
198.165543 160.0
198.204758 36.0
198.258011 84.0
198.375732 36.0
198.681396 156.0
198.740326 168.0
199.054703 252.0
199.109985 1436.0
199.183899 112.0
199.318741 140.0
199.62796 100.0
199.889572 128.0
200.002151 192.0
200.112854 172.0
200.23584 188.0
200.320343 256.0
201.094604 80.0
201.124756 204.0
201.308624 212.0
201.471329 208.0
202.07547 324.0
202.240479 192.0
202.396179 168.0
202.693604 184.0
202.9487 40.0
203.084122 332.0
203.110382 308.0
203.144394 124.0
203.234772 136.0
203.609894 132.0
203.658173 56.0
204.090668 380.0
204.18399 92.0
204.30629 72.0
204.605118 84.0
205.065201 164.0
205.097992 376.0
205.211975 148.0
205.303223 184.0
205.856842 104.0
205.936813 112.0
205.982513 132.0
206.07045 340.0
206.107422 332.0
206.21109 144.0
206.568512 92.0
206.66864 140.0
206.757355 184.0
206.986374 236.0
207.014999 88.0
207.079712 1288.0
207.111542 408.0
207.324402 160.0
207.47345 120.0
207.613937 288.0
207.639755 144.0
207.708588 140.0
207.84343 136.0
208.029984 184.0
208.085663 2720.0
208.120041 248.0
208.282684 56.0
208.368866 128.0
208.685013 128.0
208.854691 52.0
209.001404 48.0
209.095825 3936.0
209.130356 316.0
209.320923 136.0
209.431717 112.0
209.513901 184.0
209.568634 68.0
209.856857 88.0
210.027557 64.0
210.072464 148.0
210.100906 1568.0
210.471451 36.0
210.653397 208.0
210.676514 48.0
210.7314 72.0
211.000183 228.0
211.020432 160.0
211.075363 196.0
211.110779 1992.0
211.277832 56.0
211.344559 180.0
211.463013 140.0
211.639603 52.0
211.767746 176.0
211.823914 100.0
211.880005 136.0
212.079956 176.0
212.118317 844.0
212.265488 64.0
213.092453 256.0
213.097427 104.0
213.127014 912.0
213.191528 236.0
213.531677 220.0
213.848801 64.0
214.023468 64.0
214.12326 200.0
214.393433 152.0
214.985428 88.0
215.017532 288.0
215.102142 420.0
215.137207 176.0
215.515793 64.0
216.063629 140.0
216.093948 480.0
216.127991 60.0
216.218704 108.0
216.4207 72.0
216.549545 116.0
217.098633 332.0
217.179718 188.0
218.072296 124.0
218.102951 344.0
218.584015 64.0
218.639923 40.0
219.00795 128.0
219.07962 560.0
219.113602 744.0
219.411667 96.0
219.989883 116.0
220.088715 560.0
220.22316 48.0
220.669388 44.0
220.728516 168.0
220.914856 104.0
221.094757 1452.0
221.131943 580.0
221.527634 52.0
222.102203 3512.0
223.026154 120.0
223.072235 412.0
223.109833 2420.0
223.14621 72.0
223.72818 80.0
223.921722 40.0
224.014053 108.0
224.081497 532.0
224.116211 944.0
224.151108 104.0
224.464111 60.0
224.657974 92.0
224.702728 64.0
224.847305 48.0
224.866852 68.0
224.947433 56.0
225.08812 364.0
225.127029 1068.0
225.296829 48.0
225.356583 32.0
226.098892 536.0
226.129211 688.0
226.379578 92.0
226.439484 28.0
226.49939 56.0
226.632065 152.0
226.873962 132.0
227.081161 416.0
227.104904 248.0
227.13736 692.0
227.657089 132.0
227.867355 60.0
228.096649 160.0
228.14743 188.0
228.276138 144.0
228.41449 132.0
229.099594 432.0
229.15683 280.0
229.555954 40.0
229.890808 60.0
230.112793 280.0
230.993607 116.0
231.049316 192.0
231.080963 408.0
231.1129 412.0
231.226593 72.0
231.468781 120.0
231.653519 36.0
232.088501 368.0
232.12236 192.0
232.572311 36.0
233.091797 1364.0
233.130844 512.0
233.921936 104.0
234.101105 980.0
234.1371 224.0
234.177704 108.0
235.052246 208.0
235.107269 1656.0
235.1539 160.0
235.385376 40.0
235.666397 188.0
235.794739 60.0
236.117432 856.0
236.464539 52.0
236.528809 92.0
236.663513 72.0
237.08902 252.0
237.125671 2892.0
237.218048 128.0
237.325348 188.0
237.518555 36.0
238.097 720.0
238.134598 920.0
238.347473 48.0
238.568771 72.0
238.590286 48.0
238.719421 40.0
238.913193 60.0
239.104858 548.0
239.139679 2008.0
239.2117 136.0
239.365646 56.0
239.593567 88.0
239.778442 172.0
239.812347 60.0
239.960327 120.0
240.112427 328.0
240.188522 48.0
240.475479 88.0
241.083893 72.0
241.11882 436.0
241.167343 240.0
241.566223 124.0
242.049042 148.0
242.104111 148.0
242.172928 100.0
243.079651 168.0
243.101746 284.0
243.111877 168.0
243.122787 328.0
244.065445 188.0
244.085602 228.0
244.119888 164.0
245.055756 188.0
245.095016 500.0
245.128098 540.0
245.981995 60.0
246.060043 168.0
246.098618 960.0
246.38797 44.0
246.422333 84.0
246.462952 44.0
246.634842 204.0
247.078781 224.0
247.109283 980.0
247.15062 280.0
247.322968 100.0
247.529602 64.0
247.845978 144.0
248.081024 176.0
248.118729 1896.0
248.153137 172.0
248.213638 68.0
248.525558 136.0
249.125061 2396.0
249.30513 56.0
249.767319 56.0
249.808212 64.0
249.871124 84.0
250.097046 460.0
250.132034 976.0
250.251953 96.0
250.359024 56.0
251.086716 128.0
251.141281 1672.0
251.219498 136.0
251.721329 68.0
252.109894 100.0
252.149399 300.0
252.211029 168.0
252.465424 104.0
252.875244 56.0
253.1203 1020.0
253.155975 480.0
253.600555 76.0
254.090775 184.0
254.124786 588.0
254.174561 320.0
255.079712 88.0
255.136459 568.0
255.168732 172.0
255.56311 124.0
256.094757 212.0
256.129181 144.0
257.095764 344.0
257.990204 112.0
258.096252 164.0
258.703583 148.0
259.023804 108.0
259.106781 344.0
259.141632 180.0
260.119965 500.0
261.029724 108.0
261.086761 120.0
261.125427 584.0
262.037201 124.0
262.095093 296.0
262.132202 1064.0
262.437958 184.0
263.072418 212.0
263.141266 1524.0
264.109131 300.0
264.148376 1180.0
264.362061 52.0
265.116302 316.0
265.125 256.0
265.157043 1592.0
265.375916 64.0
265.554291 144.0
265.651581 68.0
266.089691 64.0
266.132965 148.0
266.163025 164.0
266.171356 332.0
266.58017 80.0
266.70694 204.0
266.797943 116.0
267.097107 100.0
267.136505 788.0
267.173462 196.0
267.748077 92.0
267.878357 60.0
268.083618 180.0
268.148529 140.0
268.180054 140.0
269.130737 164.0
269.182983 156.0
269.833191 52.0
270.238739 92.0
271.124054 168.0
271.860748 108.0
271.959229 168.0
272.123383 620.0
273.127563 348.0
273.211212 28.0
274.090271 156.0
274.138947 460.0
274.980682 84.0
275.103424 652.0
275.14209 604.0
275.634552 180.0
276.10379 144.0
276.148468 416.0
277.155579 484.0
277.564392 152.0
278.13028 312.0
278.159668 132.0
279.13385 252.0
279.164948 164.0
279.600769 132.0
280.14682 60.0
280.36673 88.0
280.430054 92.0
281.157043 152.0
281.307343 32.0
282.162598 128.0
283.126251 116.0
283.176208 204.0
283.568481 72.0
284.947662 64.0
285.035034 52.0
285.179535 112.0
286.128143 184.0
287.142639 116.0
288.154266 176.0
289.111969 168.0
289.1203 128.0
290.121185 112.0
291.135925 144.0
292.144226 280.0
292.744476 56.0
293.112366 52.0
293.15213 408.0
295.129669 132.0
295.163483 488.0
296.175476 228.0
297.150818 252.0
297.754639 40.0
298.135956 188.0
299.147186 176.0
301.095306 56.0
301.312927 136.0
305.165436 256.0
308.132996 152.0
310.15921 116.0
311.156799 80.0
313.182404 308.0
313.533356 148.0
317.365265 140.0
318.159973 136.0
322.430847 60.0
323.159302 476.0
324.00528 84.0
324.159332 52.0
325.174255 88.0
327.406891 48.0
328.830963 44.0
336.223969 36.0
341.159851 256.0
343.164337 124.0
350.384186 92.0
354.644226 80.0
357.257751 164.0
358.029388 72.0
362.259735 152.0
363.90567 52.0
378.077789 96.0
402.229034 44.0
403.787323 48.0
406.864746 72.0
428.181671 92.0
433.610443 120.0
435.502411 72.0
440.62207 84.0
443.970703 108.0
445.473328 72.0
453.62204 96.0
453.969696 168.0
503.511292 92.0
546.721252 108.0
565.329224 108.0
582.383423 108.0
619.850891 104.0
656.603088 92.0
671.409485 44.0
728.896729 72.0
781.578552 252.0
785.110352 172.0
800.127441 52.0
826.400574 92.0
839.40509 184.0
880.669006 36.0
889.117737 128.0
909.926697 56.0
910.791443 176.0
944.305054 172.0
954.786499 76.0
959.460083 152.0
965.795837 124.0
966.717712 196.0
986.171692 176.0
994.200867 116.0
1005.516541 40.0
1014.378113 188.0
1026.776978 192.0
1029.265747 136.0
1031.815063 140.0
1041.536499 204.0
1045.580688 176.0
1056.789551 144.0
1066.556152 68.0
1082.448975 176.0
1096.217773 176.0
1097.437256 208.0
1101.932007 60.0
1106.296875 188.0
1123.922852 216.0
1132.198608 160.0
1134.342773 156.0
1150.076172 180.0
1153.244019 184.0
1167.359253 140.0
1167.40686 68.0
1172.430908 140.0
1180.582275 148.0
1182.052979 176.0
1187.657104 232.0
1193.363892 124.0
1196.170776 152.0
1202.981567 72.0
1205.329834 160.0
1205.88269 168.0
1208.856445 120.0
1213.85791 104.0
1214.773438 152.0
1215.668579 176.0
1218.154175 132.0
1218.654419 176.0
1220.78833 148.0
1221.087402 204.0
1226.532227 240.0
1227.35498 236.0
1231.535156 96.0
1233.63855 140.0
1245.895508 180.0
1261.97876 124.0
1266.600098 216.0
1266.720459 156.0
1275.064697 128.0
1277.81665 276.0
1278.087036 164.0
1280.336426 80.0
1288.546753 168.0
1292.937256 216.0
1295.26416 120.0
1298.69043 84.0
1301.94165 184.0
1307.055664 180.0
1307.189453 168.0
1307.84436 180.0
1308.924316 196.0
1310.400879 180.0
1310.53064 108.0
1317.15332 116.0
1318.518921 136.0
1318.735718 152.0
1331.973877 136.0
1334.96106 196.0
1343.869629 184.0
1347.198853 172.0
1348.419067 184.0
1352.551636 132.0
1355.42981 176.0
1357.387085 124.0
1357.562988 164.0
1358.406494 96.0
1359.624512 216.0
1364.303467 204.0
1365.134277 136.0
1366.200806 100.0
1367.105835 168.0
1367.657837 160.0
1370.957275 164.0
1375.980591 140.0
1381.819214 140.0
1382.825684 80.0
1385.298828 220.0
1386.884521 72.0
1387.907593 220.0
1388.715942 248.0
1390.870483 212.0
1393.340576 212.0
1393.920166 220.0
1396.373413 48.0
1396.775146 112.0
1399.357422 180.0
1410.749756 120.0
1410.846924 260.0
1411.699341 180.0
1411.774048 184.0
1412.342529 176.0
1415.283569 188.0
1416.3396 168.0
1417.560791 212.0
1423.629639 100.0
1424.275513 28.0
1429.26001 168.0
1429.866455 136.0
1431.05896 228.0
1431.480591 160.0
1440.327393 236.0
1443.221802 116.0
1443.524292 148.0
1447.588013 172.0
1448.102905 132.0
1448.193848 124.0
1453.417236 40.0
1454.289917 112.0
1454.472046 156.0
1454.980713 136.0
1455.595703 240.0
1456.271606 184.0
1456.438721 196.0
1458.368652 160.0
1459.432983 192.0
1460.208618 104.0
1462.026978 104.0
1463.107788 140.0
1464.143066 116.0
1464.569946 180.0
1464.775513 176.0
1466.898438 232.0
1467.915649 204.0
1469.143677 188.0
1469.364868 44.0
1472.639648 132.0
1474.221191 152.0
1474.817261 84.0
1474.939575 236.0
1475.765259 192.0
1477.432495 208.0
1481.742798 212.0
1488.423462 80.0
1492.726562 184.0
1493.949585 160.0
1497.397949 164.0
1501.097168 100.0
1501.336182 108.0
1501.976318 176.0
1504.136963 232.0
