>compound MLS002172436-01!4-oxo-1H-quinoline-2-carboxylic acid
>formula C10H7NO3
>ionization [M+H]+
>parentmass 190.05
#inchi InChI=1S/C10H7NO3/c12-9-5-8(10(13)14)11-7-4-2-1-3-6(7)9/h1-5H,(H,11,12)(H,13,14)
#inchikey HCZHHEIFKROPDY
#Ion_Source LC-ESI
#Instrument qTof
#Compound_Source NIH Natural Product Library
#PI Dorrestein
#Data_Collector VVP/LMS
#Scan -1
#Precursor_MZ 190.05
#ExactMass 189.043
#Charge 1
#CAS_Number N/A
#Pubmed_ID N/A
#Smiles OC(=O)c1cc(O)c2ccccc2n1
#INCHI_AUX N/A
#Library_Class 1
#SpectrumID CCMSLIB00000080012
#IonMode Positive
#UpdateWorkflowName UPDATE-SINGLE-ANNOTATED-GOLD
#LibraryQualityString Gold
#TaskID b1d8e8f6646f4e71acdff9ca3d919d08
##Scan# 1266
#SpectrumFile p2-H02_GH2_01_18062.mzXML
#LibraryName NIH_Natural_Products_Library.mgf
#MQScore -1
#Organism NIH_Natural_Products_Library
#TIC_Query 0
#RT_Query -1
#MZErrorPPM -1
#SharedPeaks 0
#MassDiff 0
#LibMZ -1
#SpecMZ 190.05
#SpecCharge 0
#internalFilename spec-00000.mgf

>collision 10
95.381897 188.0
96.47747 204.0
97.982765 144.0
98.01429 128.0
98.302193 180.0
98.584587 172.0
99.025352 264.0
99.442146 208.0
99.549355 76.0
99.853424 192.0
100.016167 308.0
100.624603 176.0
100.696495 60.0
100.90432 104.0
100.946304 156.0
101.035782 144.0
102.031067 152.0
102.871155 160.0
103.117584 236.0
104.885506 116.0
105.269073 164.0
105.318092 148.0
105.444771 176.0
106.048561 204.0
107.236572 136.0
107.622345 152.0
107.688431 160.0
108.31517 152.0
108.474731 188.0
109.145332 168.0
109.601189 128.0
109.719994 168.0
109.822174 72.0
110.225105 176.0
110.323341 168.0
110.829834 208.0
110.917854 188.0
111.14016 112.0
111.182137 148.0
112.061111 244.0
112.105362 188.0
112.924515 304.0
113.504791 156.0
113.95903 92.0
114.003647 188.0
114.388626 184.0
114.650612 144.0
114.793442 184.0
115.009521 72.0
115.117813 92.0
115.145576 64.0
115.297264 248.0
116.016472 124.0
116.0495 14928.0
116.093658 212.0
116.139999 80.0
116.243828 76.0
116.370972 68.0
116.417709 72.0
116.439186 60.0
116.454224 88.0
116.4757 68.0
116.553047 188.0
116.568085 64.0
116.587425 180.0
117.004723 220.0
117.034134 176.0
117.052254 1320.0
117.228737 40.0
117.40551 112.0
117.679565 136.0
117.895576 32.0
118.001495 124.0
118.05555 160.0
118.529633 48.0
118.922165 72.0
119.471939 112.0
119.802849 140.0
120.217125 164.0
122.81263 140.0
123.035515 100.0
124.559113 96.0
124.861397 148.0
125.620949 176.0
126.030533 188.0
126.956268 192.0
127.654678 168.0
128.763474 204.0
129.045944 156.0
129.102478 116.0
130.049515 104.0
130.902069 84.0
131.497101 140.0
132.043152 176.0
132.576584 180.0
132.780624 72.0
133.598358 160.0
134.060364 284.0
135.026199 212.0
135.999313 200.0
136.182739 88.0
136.322144 148.0
139.364609 168.0
140.145798 184.0
140.707138 144.0
142.904251 68.0
142.975632 72.0
143.12085 224.0
143.397186 112.0
143.781174 156.0
143.845627 212.0
143.974548 148.0
143.998444 140.0
144.015152 80.0
144.044128 9068.0
144.184799 60.0
144.349747 36.0
144.554153 192.0
144.80925 144.0
144.957779 44.0
144.979355 124.0
145.047058 1248.0
145.444641 36.0
145.533478 64.0
146.040543 292.0
146.057388 40.0
146.083847 172.0
146.485855 124.0
147.16597 132.0
149.646393 140.0
149.695099 128.0
150.56572 148.0
151.561356 236.0
153.131165 108.0
153.861069 156.0
154.037903 304.0
155.37323 136.0
160.553741 112.0
161.597 120.0
161.67038 112.0
161.710876 96.0
161.961548 152.0
162.055054 6632.0
162.09111 112.0
162.151581 60.0
162.396667 96.0
162.46347 84.0
162.498978 60.0
162.661407 68.0
162.681717 80.0
162.722336 80.0
163.057175 512.0
163.220352 76.0
163.324615 48.0
163.999374 164.0
164.058151 140.0
164.389587 120.0
164.43042 56.0
166.76886 44.0
170.051727 108.0
170.430878 64.0
172.672806 100.0
176.536224 160.0
179.75325 52.0
182.902405 140.0
190.053268 120.0
191.702896 108.0
193.102615 136.0
204.944992 84.0
210.631317 100.0
219.436401 180.0
226.854233 48.0
228.545135 148.0
275.20047 80.0
290.713715 60.0
301.633118 96.0
676.908264 180.0
737.990173 192.0
810.095093 212.0
833.544983 180.0
833.786377 172.0
839.526062 104.0
840.287476 176.0
843.168884 208.0
859.77887 168.0
860.578613 176.0
866.767029 224.0
892.955383 248.0
971.977905 164.0
988.347107 172.0
993.942627 36.0
1000.768738 96.0
1001.732361 216.0
1003.623047 248.0
1018.736572 164.0
1034.315063 204.0
1035.775024 204.0
1043.019531 124.0
1049.779663 36.0
1070.712158 152.0
1091.443604 100.0
1096.670654 244.0
1103.562622 172.0
1107.221924 192.0
1107.427246 120.0
1110.555664 176.0
1113.515869 176.0
1117.93689 180.0
1124.227783 188.0
1134.360718 232.0
1139.145264 144.0
1152.734741 148.0
1176.097656 156.0
1184.282104 188.0
1191.113892 184.0
1193.450562 136.0
1194.172607 232.0
1195.91333 76.0
1197.331665 120.0
1202.709473 100.0
1207.310791 88.0
1210.678467 200.0
1214.08374 108.0
1216.970459 80.0
1220.465332 168.0
1221.313843 184.0
1226.682495 188.0
1230.470581 184.0
1240.502563 132.0
1270.225586 164.0
1272.134521 160.0
1273.874268 80.0
1274.002197 140.0
1277.570923 92.0
1281.999634 100.0
1283.054565 188.0
1295.202759 132.0
1309.388184 204.0
1314.419922 116.0
1325.208008 160.0
1325.338501 72.0
1332.98645 120.0
1334.992798 248.0
1338.245361 148.0
1344.930298 96.0
1350.878418 124.0
1351.544067 100.0
1352.36377 108.0
1353.249512 188.0
1353.835327 136.0
1356.898193 124.0
1362.049805 188.0
1367.100708 196.0
1369.0 152.0
1372.455933 180.0
1373.215454 144.0
1377.666504 136.0
1379.144409 164.0
1388.005981 100.0
1402.734131 72.0
1405.500977 176.0
1405.635376 212.0
1407.13562 152.0
1409.30896 144.0
1415.592285 60.0
1416.708252 140.0
1421.979614 208.0
1424.352173 212.0
1425.697021 96.0
1428.52417 160.0
1429.201294 112.0
1435.008301 172.0
1435.588989 144.0
1436.011353 172.0
1443.752441 160.0
1444.493652 128.0
1445.99939 212.0
1448.551025 152.0
1456.849976 180.0
1460.87146 192.0
1461.426758 136.0
1462.537842 184.0
1464.616577 180.0
1466.147949 88.0
1468.908081 156.0
1471.762329 164.0
1476.676025 136.0
1477.127319 128.0
1482.371826 196.0
1484.50293 164.0
1486.719849 124.0
1486.896362 152.0
1493.073242 224.0
1499.702148 152.0
1500.025879 136.0
1500.442139 152.0
