>compound MLS002153285-01!Palmitoyl-DL-carnitine chloride
>formula C23H45NO4
>ionization [M+H]+
>parentmass 400.340454
#inchi InChI=1S/C23H45NO4/c1-5-6-7-8-9-10-11-12-13-14-15-16-17-18-23(27)28-21(19-22(25)26)20-24(2,3)4/h21H,5-20H2,1-4H3
#inchikey XOMRRQXKHMYMOC
#origInchi InChI=1S/C23H45NO4.ClH/c1-5-6-7-8-9-10-11-12-13-14-15-16-17-18-23(27)28-21(19-22(25)26)20-24(2,3)4;/h21H,5-20H2,1-4H3;1H
#Ion_Source LC-ESI
#Instrument qTof
#Compound_Source NIH Pharmacologically Active Library
#PI Dorrestein
#Data_Collector VP/LMS
#Scan -1
#Precursor_MZ 400.344
#ExactMass 400.343
#Charge 1
#CAS_Number N/A
#Pubmed_ID N/A
#Smiles CCCCCCCCCCCCCCCC(=O)OC(CC(=O)O)C[N+](C)(C)C.[Cl-]
#INCHI_AUX N/A
#Library_Class 1
#SpectrumID CCMSLIB00000085201
#IonMode Positive
#UpdateWorkflowName UPDATE-SINGLE-ANNOTATED-GOLD
#LibraryQualityString Gold
#TaskID d252d724072548979f1f6f1ced849daf
##Scan# 2508
#SpectrumFile p3-F11_GF11_01_18292.mzXML
#LibraryName Pharm_Active_Library.mgf
#MQScore -1
#Organism Pharm_Active_Library
#TIC_Query 0
#RT_Query -1
#MZErrorPPM -1
#SharedPeaks 0
#MassDiff 0
#LibMZ -1
#SpecMZ 400.344
#SpecCharge 0
#internalFilename spec-00000.mgf

>collision 10
44.974171 172.0
45.205399 152.0
45.443932 168.0
45.458691 196.0
45.60778 192.0
46.057861 40.0
46.175461 268.0
46.584843 200.0
47.180428 180.0
47.730274 176.0
48.529812 52.0
48.877087 180.0
49.263317 160.0
49.536121 164.0
49.875275 212.0
49.919312 140.0
50.496162 136.0
50.712803 144.0
50.778027 176.0
50.799305 204.0
50.988167 148.0
51.080593 180.0
51.930546 120.0
52.430912 44.0
52.62278 120.0
52.673328 164.0
53.167091 112.0
53.419926 172.0
53.552395 140.0
53.673363 124.0
53.822208 148.0
53.958099 184.0
54.120518 124.0
54.176174 44.0
54.206947 176.0
54.297844 228.0
54.760841 220.0
54.771152 208.0
54.974628 184.0
55.262791 164.0
55.412338 180.0
55.682335 200.0
56.169086 48.0
56.206387 120.0
57.92347 168.0
57.997723 84.0
58.834438 132.0
58.845127 44.0
59.065205 108.0
59.465141 116.0
60.230442 160.0
60.3479 72.0
61.416416 180.0
61.544392 96.0
61.616245 80.0
61.688137 236.0
61.911896 176.0
61.958889 120.0
62.084293 248.0
62.445538 200.0
62.590328 148.0
63.186993 180.0
63.285126 148.0
63.421375 160.0
63.449913 188.0
63.7388 212.0
63.753105 164.0
63.896221 168.0
64.143074 216.0
64.31855 128.0
64.381882 144.0
64.687828 140.0
64.710243 76.0
64.883286 120.0
64.96347 120.0
65.117577 88.0
65.345856 164.0
65.540695 276.0
65.64225 196.0
65.798775 128.0
65.918304 132.0
66.081627 184.0
66.610161 116.0
67.248489 152.0
67.49192 176.0
68.247856 212.0
68.348206 80.0
68.738754 136.0
68.931023 132.0
69.392151 192.0
70.307091 168.0
70.378876 112.0
70.614517 204.0
71.081947 136.0
71.466766 196.0
71.54924 68.0
72.540955 112.0
72.676643 176.0
72.914398 112.0
73.018112 148.0
73.816277 176.0
74.021629 132.0
74.228989 128.0
74.307892 104.0
74.519089 80.0
74.985458 216.0
75.740562 92.0
75.771744 112.0
76.401993 180.0
76.659698 212.0
77.398651 188.0
77.44944 232.0
77.501999 176.0
77.670311 188.0
77.842316 196.0
77.945961 176.0
78.021545 148.0
78.375336 96.0
78.435257 192.0
78.710495 152.0
78.724899 128.0
79.768265 192.0
80.970947 156.0
81.169876 80.0
81.593636 144.0
81.633202 236.0
81.679962 172.0
82.833504 192.0
83.247047 152.0
83.276108 136.0
83.574265 188.0
83.614296 72.0
83.831024 76.0
84.00425 116.0
84.079063 36.0
84.100967 136.0
84.150253 140.0
84.933556 216.0
85.029045 672.0
85.099266 176.0
85.185043 140.0
85.234657 32.0
85.468193 64.0
85.938072 76.0
86.03112 188.0
86.566582 140.0
87.03389 200.0
87.959221 40.0
88.28434 168.0
88.304916 200.0
88.318008 64.0
89.067818 188.0
89.146729 176.0
89.253883 144.0
89.522987 120.0
90.575043 120.0
90.735298 172.0
91.056839 188.0
91.823883 120.0
91.9021 92.0
92.435242 192.0
92.456291 212.0
93.456116 168.0
93.550423 168.0
93.696793 116.0
94.078659 132.0
95.084236 2064.0
95.172615 48.0
95.617798 232.0
95.724876 148.0
95.859299 40.0
95.880737 132.0
95.966515 200.0
96.01136 156.0
96.065979 168.0
96.086914 368.0
96.31781 152.0
96.390099 176.0
96.495651 164.0
96.599312 124.0
97.04586 100.0
97.101448 228.0
97.124306 148.0
97.291115 48.0
97.408943 176.0
97.532745 136.0
97.717613 160.0
98.101746 204.0
98.247604 132.0
98.52401 164.0
99.079956 180.0
99.093826 136.0
99.216713 96.0
99.436905 140.0
99.953621 204.0
100.021294 152.0
100.172638 168.0
100.411842 164.0
100.819138 92.0
100.883095 224.0
100.985085 68.0
101.055099 176.0
101.141159 176.0
101.475723 204.0
101.578011 180.0
101.832939 180.0
102.066071 52.0
102.087006 352.0
102.25518 184.0
102.311546 184.0
102.458565 192.0
102.775124 68.0
103.038246 676.0
103.074387 304.0
103.292343 192.0
103.502838 96.0
103.709488 164.0
103.72773 160.0
103.814919 200.0
104.416084 160.0
104.835487 48.0
105.380333 140.0
105.875389 248.0
106.353119 140.0
106.576981 44.0
106.69825 156.0
106.714699 192.0
106.98423 156.0
107.087234 184.0
107.205193 148.0
108.216835 128.0
108.57534 56.0
108.793221 116.0
108.940674 184.0
109.071594 220.0
109.099243 1692.0
109.151772 180.0
109.210915 88.0
109.32119 32.0
109.396118 56.0
109.52523 60.0
109.723213 48.0
109.752403 44.0
110.103172 292.0
110.416504 64.0
110.937912 116.0
111.078415 296.0
111.117821 220.0
111.405907 92.0
112.117134 160.0
112.779884 176.0
112.921555 52.0
113.094299 172.0
114.028343 184.0
114.053848 272.0
114.08786 180.0
114.136765 200.0
114.560608 148.0
114.596542 40.0
114.63916 132.0
115.172562 164.0
115.420486 56.0
115.765022 176.0
115.846413 148.0
116.35041 176.0
116.419121 212.0
116.470444 168.0
116.63398 228.0
116.685577 124.0
117.066452 184.0
117.089714 200.0
117.381088 116.0
117.650803 180.0
117.700462 260.0
118.26474 236.0
119.103912 40.0
119.725983 132.0
119.937332 192.0
120.068161 200.0
120.194687 236.0
120.907127 184.0
121.101776 320.0
121.448318 240.0
121.828094 228.0
122.105064 64.0
123.072525 208.0
123.114861 1632.0
123.293442 84.0
123.392914 108.0
123.587555 68.0
124.057106 108.0
124.119858 360.0
124.454254 100.0
124.507553 136.0
125.092072 188.0
125.111755 168.0
125.130768 316.0
125.647568 136.0
125.83477 220.0
126.483101 196.0
126.523399 132.0
126.586098 168.0
127.145699 236.0
127.373352 184.0
127.580109 116.0
128.069382 220.0
128.151794 128.0
128.512558 140.0
128.776688 36.0
128.815903 144.0
129.077728 5332.0
129.117538 208.0
129.165482 72.0
129.276352 48.0
129.32547 40.0
129.429367 148.0
129.53447 80.0
129.801926 76.0
129.957443 172.0
130.030411 168.0
130.080978 1040.0
130.124146 144.0
130.160477 72.0
130.260406 168.0
130.562714 40.0
130.651428 124.0
130.740173 264.0
130.851715 180.0
131.27327 188.0
131.736618 180.0
132.354172 124.0
132.395386 164.0
132.626801 132.0
133.554489 96.0
133.605087 196.0
133.701736 236.0
133.761581 128.0
134.346939 200.0
134.418472 112.0
134.982132 144.0
135.113129 336.0
135.132477 272.0
135.774155 176.0
136.017792 84.0
136.415039 152.0
137.083054 136.0
137.129654 900.0
137.1996 132.0
137.479507 80.0
138.058899 252.0
138.130264 160.0
138.182877 244.0
138.3116 84.0
138.916183 192.0
139.112045 324.0
139.14238 460.0
139.870285 212.0
140.04689 40.0
140.339127 184.0
140.565567 276.0
140.688309 120.0
141.159286 232.0
141.548981 176.0
142.231812 44.0
142.973389 188.0
143.109085 168.0
143.416412 100.0
143.600006 168.0
143.757477 124.0
143.860107 80.0
143.915024 204.0
143.969955 56.0
144.026779 212.0
144.100586 29668.0
144.158691 76.0
144.181168 104.0
144.21843 236.0
144.244736 128.0
144.354721 80.0
144.395538 56.0
144.428864 80.0
144.459961 60.0
144.510208 80.0
144.610718 40.0
144.66098 48.0
144.723236 52.0
144.792679 64.0
144.818573 84.0
144.895691 48.0
145.075439 52.0
145.103958 2516.0
145.137772 200.0
145.298477 48.0
145.332077 60.0
145.384857 60.0
145.507294 56.0
145.858032 40.0
146.001556 180.0
146.03598 140.0
146.104813 376.0
146.211624 64.0
146.399414 76.0
146.753647 56.0
147.120377 128.0
147.274933 48.0
147.896362 192.0
147.981094 60.0
148.727798 184.0
149.133453 140.0
149.520172 100.0
150.4245 176.0
150.932388 160.0
151.14238 592.0
151.723557 196.0
151.743179 60.0
152.1474 208.0
152.167648 124.0
153.395309 164.0
153.506256 112.0
153.725815 60.0
155.200165 176.0
156.327972 56.0
156.923309 48.0
157.494812 132.0
158.43042 112.0
159.138855 148.0
159.250717 88.0
159.273315 48.0
159.48439 176.0
160.347733 120.0
160.794159 196.0
160.988571 180.0
161.279129 112.0
162.111267 1624.0
162.251236 56.0
162.357742 64.0
162.482025 84.0
162.972076 80.0
163.115067 204.0
163.149979 368.0
163.172867 44.0
164.538513 164.0
165.158829 504.0
166.050888 132.0
166.166321 188.0
167.59079 144.0
168.43959 212.0
168.566193 52.0
168.592041 184.0
168.930771 180.0
169.15564 152.0
169.197342 148.0
170.743927 192.0
171.165527 68.0
173.150833 408.0
174.420288 64.0
175.998444 144.0
177.164856 324.0
177.384811 128.0
177.493515 108.0
178.853806 160.0
179.072159 48.0
179.186707 136.0
179.429245 128.0
179.834732 148.0
179.901474 136.0
180.085724 164.0
180.197922 172.0
180.243347 40.0
180.358276 144.0
181.161087 156.0
181.901245 172.0
184.874283 184.0
186.346725 228.0
186.373901 204.0
186.961304 180.0
187.097397 116.0
187.16713 296.0
188.234421 148.0
188.524002 104.0
188.999832 140.0
189.440643 300.0
191.173233 124.0
193.594391 128.0
198.12645 112.0
198.21611 124.0
199.153183 104.0
199.825073 44.0
199.906677 164.0
200.740555 172.0
200.791321 132.0
201.655289 152.0
202.079483 108.0
202.954727 160.0
205.106934 108.0
205.523331 192.0
205.823059 196.0
205.988708 76.0
206.077271 144.0
207.290558 112.0
209.125778 132.0
209.915207 148.0
210.284485 128.0
212.974426 96.0
212.994766 116.0
213.692505 132.0
213.966095 104.0
214.123337 216.0
214.607101 136.0
215.202347 164.0
215.419327 136.0
215.666855 52.0
217.770691 92.0
219.725403 124.0
221.223099 1060.0
221.430359 232.0
221.617706 148.0
222.118759 160.0
222.22876 152.0
222.771851 144.0
223.56575 128.0
224.34021 124.0
224.728363 136.0
225.139877 112.0
226.015793 160.0
226.078629 200.0
226.479843 148.0
228.11528 104.0
229.147568 88.0
229.174698 84.0
230.653519 136.0
231.352341 188.0
231.446198 60.0
232.558838 216.0
232.829056 36.0
233.151108 48.0
235.204025 116.0
235.375 208.0
235.442184 168.0
237.207703 148.0
237.698441 52.0
238.011551 100.0
238.217331 96.0
238.712189 132.0
238.909042 160.0
239.234604 4184.0
239.327637 72.0
239.531906 172.0
239.561707 88.0
239.721939 68.0
239.815491 56.0
240.131973 132.0
240.237244 1168.0
240.363358 80.0
241.075348 36.0
241.172531 32.0
241.255997 152.0
241.562164 60.0
241.868515 104.0
242.013351 136.0
242.122421 116.0
243.167282 124.0
244.00914 48.0
245.338547 132.0
245.463272 144.0
245.956238 104.0
247.817062 144.0
250.059311 160.0
250.878326 120.0
251.720779 196.0
251.982956 84.0
252.482407 52.0
252.890564 44.0
253.482819 208.0
253.780777 196.0
253.802979 40.0
254.136032 148.0
255.499084 120.0
257.245819 2228.0
257.906799 176.0
257.929169 172.0
258.04425 56.0
258.146576 140.0
258.250732 748.0
258.453674 72.0
259.212616 156.0
259.245422 164.0
259.805786 152.0
259.834656 76.0
260.088196 192.0
261.145355 36.0
261.171082 104.0
261.966187 52.0
266.954102 172.0
267.321716 176.0
267.409576 84.0
268.481506 116.0
268.935028 124.0
269.431396 112.0
269.823578 100.0
271.959503 120.0
272.360107 144.0
274.235687 64.0
275.254669 268.0
275.691193 156.0
276.259735 136.0
278.112335 176.0
278.746704 168.0
283.073456 88.0
283.260529 344.0
283.408417 52.0
283.465393 112.0
283.616211 120.0
284.579041 156.0
285.341766 96.0
286.691589 148.0
287.382904 176.0
290.044525 72.0
292.39502 172.0
292.50296 112.0
293.266937 116.0
293.972961 128.0
296.129486 188.0
297.447021 116.0
298.687531 96.0
301.442352 248.0
302.185822 44.0
302.289612 80.0
305.812347 88.0
305.989868 136.0
306.062988 56.0
307.886871 180.0
308.197784 72.0
310.252319 116.0
313.828064 68.0
314.989197 52.0
315.430908 200.0
317.105194 144.0
317.27182 48.0
317.587433 120.0
320.089478 52.0
321.161713 128.0
322.629974 136.0
323.570923 100.0
324.158356 140.0
325.108704 188.0
325.719086 212.0
325.873596 212.0
326.729309 72.0
327.910431 84.0
328.552307 136.0
329.227325 172.0
331.220276 136.0
331.626099 172.0
333.208313 196.0
334.328308 44.0
334.634094 88.0
335.528564 20.0
335.993591 68.0
336.289154 124.0
337.205963 92.0
338.01889 108.0
339.094574 124.0
339.164215 144.0
339.662933 40.0
339.798645 196.0
339.945435 160.0
340.099579 120.0
340.242767 140.0
340.756958 132.0
340.812073 72.0
340.900269 160.0
340.9664 112.0
341.080353 92.0
341.157562 192.0
341.26712 10380.0
341.672455 92.0
341.728485 68.0
341.911804 88.0
341.95578 76.0
342.147217 60.0
342.268524 2300.0
342.670227 56.0
342.707062 52.0
343.064575 72.0
343.092957 188.0
343.175171 48.0
343.276062 464.0
343.326385 48.0
343.754303 76.0
343.99054 56.0
344.101288 60.0
344.241608 76.0
344.699677 136.0
345.320801 128.0
345.820312 112.0
346.401672 128.0
346.642517 128.0
346.775909 172.0
347.718018 84.0
348.769165 36.0
349.505554 60.0
352.828888 100.0
352.855072 68.0
353.124329 52.0
353.524628 180.0
354.498322 44.0
356.228058 68.0
356.513611 96.0
357.137756 80.0
358.135254 244.0
359.273712 44.0
359.662384 100.0
360.03241 56.0
360.138184 120.0
360.240173 132.0
360.727661 236.0
361.942169 72.0
362.021698 156.0
362.612732 164.0
362.722656 116.0
364.069611 116.0
365.213654 156.0
366.511902 192.0
366.801544 140.0
368.316498 132.0
368.985291 108.0
370.347656 64.0
372.676361 68.0
373.079926 144.0
374.52301 76.0
374.942993 176.0
380.070953 76.0
380.241699 172.0
383.255615 116.0
383.629761 124.0
385.003265 140.0
388.302612 144.0
391.879974 200.0
393.04715 168.0
396.317322 84.0
396.856384 168.0
397.217285 140.0
397.820496 132.0
398.225525 176.0
398.265259 84.0
398.503632 80.0
398.845398 80.0
399.036224 156.0
399.246979 160.0
399.493591 176.0
399.545319 44.0
399.704468 156.0
399.736328 184.0
399.791382 100.0
400.062714 132.0
400.092896 200.0
400.134369 196.0
400.230255 124.0
400.340454 29784.0
400.425293 352.0
400.493622 56.0
400.544556 108.0
400.582397 112.0
400.680023 60.0
400.724243 80.0
400.771637 132.0
400.803528 48.0
400.851746 80.0
400.887207 60.0
400.949066 108.0
401.002808 180.0
401.037109 88.0
401.126373 84.0
401.233002 64.0
401.342407 6148.0
401.415314 68.0
401.445343 164.0
401.511871 216.0
401.549042 88.0
401.576965 52.0
401.616852 60.0
401.664703 56.0
401.828278 56.0
401.87616 56.0
401.951965 68.0
402.019806 80.0
402.07254 56.0
402.163483 136.0
402.259308 68.0
402.3461 1560.0
402.595459 84.0
402.851654 132.0
402.955383 144.0
403.160126 76.0
403.192993 76.0
403.344849 180.0
403.42981 80.0
403.521759 32.0
403.589752 60.0
403.627197 96.0
403.675323 60.0
403.733704 64.0
403.776917 100.0
403.905701 72.0
403.981689 96.0
404.053711 104.0
404.121735 148.0
404.18576 124.0
404.253784 64.0
404.289795 128.0
404.433899 64.0
404.986481 108.0
405.050568 88.0
405.166748 48.0
405.55545 68.0
405.591522 104.0
405.960388 56.0
406.321411 124.0
407.208588 44.0
408.213318 28.0
408.909332 132.0
414.579803 36.0
417.250763 128.0
418.267822 56.0
425.114014 72.0
434.207062 32.0
438.518707 44.0
449.946014 136.0
455.744507 40.0
462.029266 88.0
476.459839 88.0
488.530884 104.0
489.00174 88.0
492.379059 160.0
492.546906 64.0
529.133179 164.0
531.75531 72.0
537.614197 60.0
555.927795 60.0
564.024292 96.0
566.91626 108.0
573.441772 60.0
579.031921 76.0
595.474548 56.0
615.061218 68.0
622.726318 84.0
623.953735 108.0
636.751587 92.0
647.292053 60.0
670.259888 128.0
671.136169 56.0
688.740662 40.0
705.124084 68.0
720.85553 80.0
736.306763 88.0
741.029358 152.0
764.58252 52.0
767.044617 72.0
781.382996 32.0
783.231262 60.0
783.292542 192.0
789.868469 84.0
806.643372 96.0
807.406738 168.0
810.939758 188.0
812.595703 60.0
828.485657 76.0
828.852356 228.0
837.210999 40.0
842.760437 40.0
844.269226 156.0
844.720398 164.0
849.615784 148.0
859.268005 176.0
890.296997 88.0
898.368408 164.0
907.753174 96.0
914.373779 196.0
916.794861 184.0
933.260742 148.0
946.912537 168.0
947.954041 200.0
953.151733 140.0
956.848511 240.0
962.508911 236.0
964.813599 220.0
974.240112 204.0
982.788696 168.0
983.918396 124.0
987.092651 56.0
989.038452 124.0
989.889893 172.0
992.929504 192.0
996.463684 196.0
997.180115 112.0
998.041382 160.0
1005.020752 124.0
1012.416992 60.0
1014.863098 144.0
1017.064514 176.0
1018.086792 104.0
1033.206787 188.0
1042.768066 156.0
1050.108154 152.0
1058.529419 168.0
1058.788452 208.0
1064.515015 92.0
1080.24939 64.0
1099.357056 212.0
1102.064575 156.0
1106.813965 124.0
1108.178467 68.0
1108.980347 208.0
1116.868774 204.0
1117.846802 72.0
1121.176636 144.0
1124.091064 208.0
1125.532959 92.0
1127.423462 184.0
1133.5 160.0
1140.708618 160.0
1141.959351 224.0
1144.112671 160.0
1144.307983 168.0
1144.422363 68.0
1146.180542 84.0
1151.11853 48.0
1154.362183 228.0
1160.009155 236.0
1160.137939 204.0
1163.530151 176.0
1164.684692 192.0
1172.761597 160.0
1173.402466 164.0
1179.341797 176.0
1179.724609 64.0
1182.371704 168.0
1188.992432 176.0
1190.702026 52.0
1193.052124 184.0
1197.717896 164.0
1197.855713 44.0
1202.0271 60.0
1202.58606 60.0
1203.359253 148.0
1207.11145 104.0
1213.12146 196.0
1214.182373 168.0
1217.124878 176.0
1221.413086 220.0
1227.026245 160.0
1228.435059 116.0
1231.143311 180.0
1231.918579 124.0
1236.995728 148.0
1239.447144 148.0
1242.195557 236.0
1243.613037 212.0
1246.344971 180.0
1249.093994 160.0
1250.691406 96.0
1250.754761 112.0
1251.508057 72.0
1258.385742 236.0
1274.276978 172.0
1274.518555 64.0
1275.790894 180.0
1278.807007 220.0
1280.017334 88.0
1282.261475 176.0
1290.471069 156.0
1292.466797 144.0
1292.996338 168.0
1293.218262 148.0
1301.405396 156.0
1303.071777 200.0
1312.169434 164.0
1317.741455 196.0
1323.622192 244.0
1323.839478 36.0
1330.183838 148.0
1330.771973 168.0
1331.897583 136.0
1334.666626 152.0
1338.079224 156.0
1340.344482 188.0
1346.180542 136.0
1350.382935 172.0
1353.031982 176.0
1354.15979 212.0
1359.115601 64.0
1363.602783 248.0
1364.933472 176.0
1366.581177 164.0
1367.066895 240.0
1368.848389 136.0
1372.643555 188.0
1374.87146 172.0
1378.128174 212.0
1380.70813 124.0
1382.224731 112.0
1389.085571 236.0
1394.119873 108.0
1401.270996 224.0
1402.671997 184.0
1403.454834 68.0
1405.356934 156.0
1411.24292 156.0
1412.656494 232.0
1413.865112 152.0
1414.497437 212.0
1416.362061 156.0
1421.302856 236.0
1424.801758 104.0
1425.658447 64.0
1429.388428 120.0
1430.848755 208.0
1437.19519 112.0
1440.199951 188.0
1440.759033 84.0
1445.484863 164.0
1446.907837 180.0
1447.998291 148.0
1450.620117 188.0
1458.005737 216.0
1461.412598 72.0
1463.513428 64.0
1465.173828 264.0
1467.170654 144.0
1474.544678 172.0
1479.991699 168.0
1483.922485 76.0
1485.625122 196.0
1487.666504 80.0
1492.014893 180.0
1492.483887 172.0
1493.062866 88.0
1494.476196 148.0
