>compound NCGC00160180-01!KOPSINE
>formula C22H24N2O4
>ionization [M+H]+
>parentmass 381.180634
#inchi InChI=1S/C22H24N2O4/c1-28-18(26)24-15-6-3-2-5-13(15)22-14-11-23-10-4-7-19(17(22)23)8-9-21(22,24)20(27,12-19)16(14)25/h2-3,5-6,14,17,27H,4,7-12H2,1H3/t14-,17+,19-,20-,21-,22-/m1/s1
#inchikey YROYAGSZNDUMIF
#Ion_Source LC-ESI
#Instrument qTOF
#Compound_Source Prestwick Phytochem Lib
#PI Dorrestein
#Data_Collector VVP/LMS
#Scan -1
#Precursor_MZ 381.181
#ExactMass 380.174
#Charge 1
#CAS_Number N/A
#Pubmed_ID N/A
#Smiles [H][C@]12N3C[C@@H]4C(=O)[C@]5(O)C[C@@]1(CCC3)CC[C@@]56N(C(=O)OC)C7=CC=CC=C7[C@]246
#INCHI_AUX N/A
#Library_Class 1
#SpectrumID CCMSLIB00000078749
#IonMode Positive
#UpdateWorkflowName UPDATE-SINGLE-ANNOTATED-GOLD
#LibraryQualityString Gold
#TaskID 67c915c6594c435cadc1fe2b5358144d
##Scan# 1514
#SpectrumFile p1-B03_GB3_01_17887.mzXML
#LibraryName phytochem_lib.mgf
#MQScore -1
#Organism phytochem_lib
#TIC_Query 0
#RT_Query -1
#MZErrorPPM -1
#SharedPeaks 0
#MassDiff 0
#LibMZ -1
#SpecMZ 381.181
#SpecCharge 0
#internalFilename spec-00000.mgf

>collision 10
94.947594 180.0
94.999969 72.0
95.034325 192.0
95.070549 148.0
95.211533 224.0
95.347519 228.0
95.464165 200.0
95.485558 68.0
95.709343 144.0
95.993134 156.0
96.082222 1020.0
96.493683 108.0
96.587547 136.0
96.906647 152.0
97.026192 160.0
97.041 240.0
97.059525 212.0
97.083351 348.0
97.187019 176.0
97.214493 228.0
97.827713 148.0
97.861176 172.0
97.94783 152.0
97.961792 228.0
98.058167 120.0
98.089699 228.0
98.160675 240.0
98.709625 132.0
99.044357 208.0
99.067863 116.0
99.218475 176.0
99.234337 176.0
99.289856 164.0
99.321587 216.0
99.371185 220.0
99.398964 48.0
99.426743 172.0
99.510109 140.0
99.567696 144.0
99.810135 188.0
100.048882 176.0
100.204224 160.0
100.238091 164.0
100.401558 32.0
100.617058 216.0
100.674957 136.0
100.880753 112.0
100.980728 116.0
101.046738 240.0
101.164818 184.0
101.212532 72.0
101.272942 104.0
101.812439 208.0
101.840561 100.0
102.047539 224.0
102.17424 212.0
102.246681 212.0
102.576996 144.0
102.877563 180.0
103.049232 152.0
103.10379 192.0
103.251366 144.0
103.37072 180.0
103.417267 228.0
103.938087 44.0
104.02536 196.0
104.047691 184.0
104.135002 232.0
104.232513 196.0
104.263 80.0
104.433777 188.0
104.466324 120.0
104.620979 120.0
104.853188 76.0
105.002014 156.0
105.140739 108.0
105.236397 172.0
105.263222 52.0
105.287727 200.0
105.353088 224.0
105.400085 128.0
105.549294 180.0
105.633148 60.0
105.897194 164.0
105.968887 156.0
106.064728 648.0
106.364677 140.0
106.607025 108.0
107.187317 204.0
107.296837 148.0
107.395538 240.0
107.537903 256.0
107.57299 228.0
107.866318 204.0
108.081795 164.0
108.195229 160.0
108.236641 120.0
108.408569 196.0
108.671906 152.0
108.840027 120.0
108.862869 192.0
108.950104 204.0
109.065186 168.0
109.083778 192.0
109.363907 72.0
109.624229 132.0
109.849403 200.0
110.059181 580.0
110.095108 928.0
110.239883 152.0
110.779633 44.0
110.844582 52.0
110.955666 132.0
110.976631 96.0
111.069527 148.0
111.098274 160.0
111.203186 156.0
111.436279 68.0
111.465691 224.0
111.535042 100.0
111.612831 280.0
111.707474 116.0
111.793732 232.0
111.835823 92.0
111.877922 144.0
111.957932 116.0
112.080757 196.0
112.141228 124.0
112.158089 148.0
112.485031 156.0
112.634956 136.0
112.651855 228.0
113.072617 172.0
113.324608 184.0
113.369446 148.0
113.504768 172.0
113.665977 80.0
113.8358 192.0
113.901634 192.0
114.084175 164.0
114.092545 148.0
114.098175 288.0
114.294937 156.0
114.635635 252.0
114.686783 112.0
114.733681 88.0
114.844566 144.0
114.983246 204.0
115.056938 244.0
115.827789 132.0
116.031372 52.0
116.065201 168.0
116.097839 80.0
116.267319 164.0
116.363907 188.0
116.427803 164.0
116.461449 176.0
116.724876 64.0
116.884056 152.0
117.06723 548.0
117.228584 148.0
117.293243 204.0
117.312645 148.0
117.463593 64.0
117.648926 176.0
117.796013 176.0
117.927818 132.0
117.966728 256.0
118.018608 212.0
118.064728 316.0
118.079163 232.0
118.418953 176.0
118.915443 132.0
119.004448 180.0
119.050049 212.0
119.084358 220.0
119.304008 172.0
119.822212 72.0
119.931168 180.0
119.987846 200.0
120.03363 272.0
120.048897 148.0
120.081871 372.0
120.14341 60.0
120.26825 192.0
120.38932 124.0
120.513832 184.0
120.688683 220.0
120.874611 56.0
121.069031 400.0
121.093521 52.0
121.141716 156.0
121.437622 184.0
121.515472 112.0
121.731697 172.0
121.799782 104.0
121.940399 136.0
122.043716 128.0
122.098335 320.0
122.257088 56.0
122.303307 164.0
122.662338 124.0
122.728477 204.0
122.792427 200.0
122.911552 160.0
122.99762 136.0
123.044128 356.0
123.077095 88.0
123.143349 140.0
123.178688 256.0
123.477074 160.0
123.550064 168.0
123.815681 132.0
124.07222 180.0
124.114838 144.0
124.336662 196.0
124.369957 160.0
124.385498 100.0
124.449875 196.0
124.540924 152.0
124.747574 156.0
124.907257 128.0
125.061203 156.0
125.083908 188.0
125.112404 216.0
125.261604 172.0
125.502289 144.0
125.879387 276.0
126.002235 144.0
126.147491 264.0
126.391266 180.0
127.025284 160.0
127.045471 140.0
127.182358 176.0
127.352997 100.0
127.440605 168.0
127.490044 160.0
127.53949 164.0
127.690125 160.0
127.80381 176.0
127.901619 120.0
127.94664 136.0
128.06163 200.0
128.162857 88.0
128.277786 92.0
128.307098 92.0
128.325134 156.0
128.396072 192.0
128.503311 108.0
128.557465 144.0
128.869064 104.0
128.979797 84.0
129.072906 372.0
129.187836 152.0
129.312286 28.0
129.56601 152.0
129.692795 232.0
129.781204 196.0
129.86058 176.0
129.935425 152.0
129.96492 48.0
130.062164 536.0
130.101105 136.0
130.116989 192.0
130.248703 156.0
130.375931 200.0
130.396393 96.0
130.435028 132.0
130.50322 116.0
130.769379 148.0
130.887756 204.0
130.944687 188.0
131.071167 436.0
131.190781 68.0
131.311615 108.0
131.400589 76.0
131.439377 120.0
131.455338 44.0
131.510117 48.0
131.62883 228.0
132.044525 1380.0
132.080505 420.0
132.36055 116.0
132.656082 164.0
132.922134 284.0
132.937775 152.0
132.958847 100.0
133.050339 304.0
133.061218 144.0
133.065918 204.0
133.101913 188.0
133.238983 192.0
133.39563 168.0
133.650528 188.0
133.78862 116.0
133.945206 116.0
134.014374 140.0
134.05809 140.0
134.096832 732.0
134.1987 184.0
134.593246 120.0
134.787277 60.0
135.110962 160.0
135.210464 180.0
135.502228 188.0
135.882446 208.0
136.005432 68.0
136.075043 340.0
136.111679 328.0
136.207443 164.0
136.286423 100.0
136.421219 176.0
136.507248 88.0
136.556091 168.0
136.584 184.0
136.639832 72.0
136.66391 208.0
136.907501 128.0
136.943588 228.0
136.968063 136.0
137.016983 112.0
137.079056 180.0
137.12883 184.0
137.352661 156.0
137.445984 152.0
137.503799 144.0
137.60936 56.0
137.69342 148.0
137.842941 136.0
138.039291 172.0
138.091278 904.0
138.259186 128.0
138.294296 164.0
138.345795 208.0
138.472229 120.0
138.490967 140.0
138.551865 136.0
138.591705 156.0
138.856598 52.0
139.065399 152.0
139.168289 188.0
139.194519 48.0
139.250885 144.0
139.603394 128.0
140.078827 88.0
140.703751 140.0
140.819458 340.0
141.059341 136.0
141.117203 152.0
141.271881 168.0
141.379761 156.0
141.438934 252.0
141.464966 104.0
141.552567 152.0
141.578613 100.0
141.800522 216.0
141.848709 48.0
142.064148 820.0
142.116699 196.0
142.157043 168.0
142.318451 88.0
142.515579 160.0
143.007843 120.0
143.072952 1728.0
143.103806 152.0
143.186401 60.0
143.49617 68.0
143.610641 120.0
143.939972 132.0
144.045059 136.0
144.080505 1096.0
144.107162 200.0
144.343796 112.0
144.59259 180.0
144.719452 152.0
144.84877 188.0
144.942215 140.0
144.958984 132.0
145.082855 260.0
145.184326 136.0
145.342636 120.0
145.501053 136.0
145.546661 104.0
145.60553 140.0
145.796494 60.0
145.921478 60.0
146.020065 148.0
146.062637 228.0
146.097824 756.0
146.21254 56.0
146.277527 208.0
146.655685 60.0
146.773819 152.0
146.807571 204.0
147.080383 160.0
147.113998 152.0
147.200912 124.0
147.316849 216.0
147.372406 164.0
147.693924 176.0
148.052124 100.0
148.078552 156.0
148.112671 72.0
148.551422 204.0
148.682434 168.0
148.786819 152.0
148.866943 104.0
148.93251 100.0
149.065216 160.0
149.082596 172.0
149.122467 220.0
149.567123 184.0
149.927582 132.0
149.975891 132.0
150.090424 288.0
150.2836 132.0
150.515472 100.0
150.754868 156.0
151.006668 176.0
151.097183 144.0
151.396957 132.0
151.684906 164.0
151.741287 168.0
151.758453 144.0
151.79277 60.0
152.030716 176.0
152.061432 136.0
152.10498 160.0
152.244293 172.0
152.303238 120.0
152.504715 152.0
152.600586 164.0
152.718491 140.0
152.809647 204.0
152.871155 180.0
152.952377 136.0
153.021301 80.0
153.050858 176.0
153.070541 124.0
153.102554 76.0
153.151825 176.0
153.208481 252.0
153.265137 48.0
153.58316 64.0
153.743317 144.0
153.839783 136.0
153.928665 112.0
153.965714 48.0
154.037338 228.0
154.067017 468.0
154.249847 84.0
154.348724 176.0
154.563934 52.0
154.618362 136.0
154.999725 204.0
155.071472 452.0
155.264969 160.0
155.319534 188.0
155.376587 132.0
155.671951 136.0
156.045288 172.0
156.078308 248.0
156.509933 204.0
156.76152 160.0
156.891129 144.0
156.917725 232.0
156.963425 132.0
157.003326 132.0
157.023285 196.0
157.06517 172.0
157.087799 800.0
157.11557 188.0
157.6474 80.0
157.687378 28.0
158.024963 108.0
158.057571 572.0
158.096832 1568.0
158.153152 176.0
158.275253 168.0
158.310318 152.0
158.36792 140.0
158.490662 64.0
158.663605 148.0
158.741333 128.0
158.879272 136.0
158.924438 228.0
158.952042 156.0
159.069077 396.0
159.099274 248.0
159.288452 268.0
159.547287 84.0
160.020264 124.0
160.074265 292.0
160.109222 340.0
160.153732 92.0
160.695709 188.0
160.733566 116.0
160.958206 124.0
160.975891 132.0
161.066696 192.0
161.089203 152.0
161.129959 92.0
161.210815 124.0
161.50914 228.0
161.648285 104.0
161.75206 120.0
161.835602 132.0
161.858383 32.0
161.896362 36.0
161.916626 120.0
162.033142 160.0
162.090576 1992.0
162.271378 180.0
162.334778 192.0
162.38295 120.0
162.418793 152.0
162.56308 108.0
162.601135 108.0
162.618912 144.0
162.674744 108.0
163.040497 96.0
163.058289 288.0
163.097504 788.0
163.139618 176.0
163.371033 128.0
163.584793 220.0
164.077698 180.0
164.104874 752.0
164.13765 28.0
164.158051 56.0
164.249863 144.0
164.344254 136.0
164.466751 68.0
165.080078 180.0
165.118454 152.0
165.289658 84.0
165.43042 96.0
165.57637 104.0
165.596848 144.0
165.99408 128.0
166.06398 272.0
166.084229 316.0
166.122314 240.0
166.18132 184.0
166.222366 128.0
166.260864 140.0
166.346909 88.0
166.638321 172.0
167.00592 56.0
167.072205 140.0
167.103683 48.0
167.258087 96.0
167.283829 72.0
167.502701 80.0
167.623795 124.0
167.796478 124.0
168.07489 296.0
168.237625 180.0
168.33316 372.0
168.459717 232.0
168.824142 100.0
168.940536 80.0
168.992279 168.0
169.089661 376.0
169.207092 148.0
169.463486 120.0
169.634537 124.0
169.714905 208.0
169.930176 164.0
169.971695 152.0
169.992447 88.0
170.059143 2168.0
170.098083 1084.0
170.122223 76.0
170.145584 44.0
170.322174 144.0
170.423477 40.0
170.647003 156.0
170.805634 172.0
171.065857 184.0
171.104645 160.0
171.334076 172.0
171.404419 180.0
171.876389 112.0
171.965103 120.0
172.068924 180.0
172.11087 216.0
172.239258 144.0
172.284805 136.0
172.377731 124.0
172.728058 124.0
172.827469 112.0
172.874573 140.0
173.055191 144.0
173.193985 44.0
173.35379 152.0
173.511063 128.0
173.906326 152.0
173.998611 128.0
174.04892 128.0
174.090591 3212.0
174.127701 144.0
174.185471 64.0
174.21962 128.0
174.274796 128.0
174.596878 136.0
174.63089 140.0
174.674393 108.0
174.821732 188.0
174.9823 220.0
175.063049 212.0
175.096359 404.0
175.17981 128.0
175.503967 72.0
175.617371 68.0
175.791489 88.0
175.857468 128.0
176.060745 180.0
176.317001 172.0
176.375153 228.0
176.613113 164.0
177.065704 144.0
177.117447 236.0
177.320038 148.0
177.48175 220.0
177.691269 148.0
177.757599 196.0
177.90358 116.0
178.078659 316.0
178.209 116.0
178.339203 192.0
178.41629 196.0
178.634354 152.0
178.714172 136.0
178.76207 140.0
178.831253 56.0
178.95105 176.0
179.077194 392.0
179.876114 60.0
180.083328 1396.0
180.199249 192.0
180.514648 108.0
180.889206 96.0
180.961487 196.0
181.083588 688.0
181.261475 140.0
181.400833 168.0
181.451767 40.0
181.69046 196.0
181.779007 68.0
181.880981 36.0
181.907822 180.0
181.945404 132.0
182.05983 352.0
182.095795 660.0
182.138748 152.0
182.171921 116.0
182.402084 64.0
182.778595 64.0
183.039688 144.0
183.061234 160.0
183.085327 188.0
183.102936 124.0
183.2444 140.0
183.274033 100.0
183.376434 204.0
183.459991 76.0
183.726974 140.0
183.810608 136.0
184.074097 412.0
184.109924 304.0
184.226395 88.0
184.377701 132.0
184.518265 144.0
184.566925 96.0
184.848236 152.0
184.975449 140.0
185.040421 128.0
185.071335 180.0
185.117752 156.0
185.335632 124.0
185.389832 112.0
185.536194 136.0
185.587708 160.0
185.641937 80.0
185.886078 112.0
185.929489 212.0
186.019058 68.0
186.085648 84.0
186.130371 48.0
186.236282 160.0
186.513428 184.0
186.603149 168.0
186.812546 144.0
187.064041 144.0
187.09285 228.0
187.199036 52.0
187.404709 172.0
187.446915 124.0
187.49324 148.0
187.632248 144.0
187.793137 176.0
188.035965 112.0
188.070328 5320.0
188.102753 600.0
188.153336 36.0
188.207932 144.0
188.237213 100.0
188.341965 160.0
188.407318 152.0
188.448288 96.0
188.478348 116.0
188.521591 96.0
188.636856 132.0
188.658737 176.0
188.791306 180.0
188.932205 36.0
188.975708 164.0
189.047119 192.0
189.073715 752.0
189.123749 56.0
189.152435 208.0
189.25296 208.0
189.277054 268.0
189.393341 104.0
189.572891 160.0
189.605774 100.0
189.657852 172.0
190.079117 132.0
190.313507 40.0
190.404114 172.0
190.571686 92.0
190.607407 88.0
190.728317 164.0
190.923523 208.0
190.975784 120.0
191.003296 88.0
191.074326 164.0
191.231659 140.0
191.283951 60.0
191.506989 168.0
191.575851 132.0
192.076736 440.0
192.101608 1332.0
192.129959 248.0
192.185135 216.0
192.52742 240.0
192.552277 176.0
192.836853 152.0
193.089966 292.0
193.320816 128.0
193.844193 56.0
193.863586 144.0
193.960587 52.0
193.988312 132.0
194.058609 464.0
194.095062 1544.0
194.246185 240.0
194.315552 112.0
194.390457 124.0
194.40947 84.0
194.43074 124.0
194.448746 280.0
194.559769 92.0
194.606964 92.0
194.723602 164.0
194.745819 36.0
194.881531 84.0
194.948624 96.0
195.040329 232.0
195.061188 304.0
195.09375 900.0
195.165436 32.0
195.204361 52.0
195.321167 188.0
195.468628 60.0
195.628937 164.0
195.843063 176.0
195.972595 212.0
196.040833 140.0
196.077957 304.0
196.109879 232.0
196.153748 120.0
196.198349 128.0
196.250259 52.0
196.281982 108.0
196.332184 168.0
196.586044 100.0
196.787018 212.0
196.806564 96.0
196.877594 100.0
197.078445 484.0
197.118561 156.0
197.206039 168.0
197.348602 88.0
197.373764 148.0
197.393341 116.0
197.656281 220.0
197.703842 112.0
197.922195 140.0
197.969788 56.0
198.078323 160.0
198.127762 220.0
198.185471 172.0
198.479782 64.0
198.822021 164.0
198.86972 236.0
199.080109 312.0
199.084763 168.0
199.122406 132.0
199.274094 124.0
199.400543 180.0
199.653564 164.0
199.977112 84.0
200.002441 116.0
200.064362 96.0
200.110199 316.0
200.419235 76.0
200.60524 188.0
200.648758 200.0
200.952118 192.0
201.074219 176.0
201.107315 92.0
201.22023 224.0
201.36026 136.0
201.455231 172.0
201.539383 216.0
201.672211 200.0
201.802246 152.0
202.034149 164.0
202.08606 2688.0
202.201096 52.0
202.263367 216.0
202.416245 124.0
202.473648 132.0
202.499603 64.0
202.684586 76.0
202.934769 212.0
203.08902 556.0
203.190018 96.0
203.249603 56.0
203.419876 184.0
203.624313 348.0
203.66124 192.0
203.695328 88.0
203.735092 52.0
203.84874 204.0
203.897049 160.0
203.916946 120.0
203.970947 192.0
204.082199 1012.0
204.350021 92.0
204.440231 36.0
204.471527 88.0
204.50853 140.0
204.667953 168.0
205.038269 220.0
205.086365 156.0
205.18364 104.0
205.297699 36.0
205.369003 64.0
205.403229 56.0
205.514481 108.0
205.537308 236.0
205.611511 56.0
205.764893 136.0
205.805618 48.0
205.843536 200.0
205.928406 84.0
205.991241 108.0
206.062256 164.0
206.0961 7908.0
206.135193 136.0
206.199829 76.0
206.254135 48.0
206.276993 32.0
206.37706 60.0
206.431381 68.0
206.478516 100.0
206.528625 64.0
206.602997 152.0
206.826202 188.0
207.060516 296.0
207.099762 2060.0
207.244308 76.0
207.350327 52.0
207.599747 44.0
207.634598 128.0
207.677582 84.0
207.728806 144.0
207.763229 216.0
207.800522 132.0
207.935394 152.0
207.995667 140.0
208.077667 384.0
208.107117 820.0
208.20813 92.0
208.242599 56.0
208.311523 64.0
208.368988 124.0
208.419037 88.0
208.535645 176.0
208.626602 112.0
208.748383 124.0
209.072479 176.0
209.11055 504.0
209.153564 120.0
209.257675 100.0
209.289352 172.0
209.346115 160.0
209.444855 76.0
209.502472 88.0
209.551453 136.0
209.655182 84.0
209.718582 112.0
209.744522 84.0
209.89444 64.0
209.992493 140.0
210.089935 596.0
210.128464 300.0
210.30986 132.0
210.387802 168.0
210.818161 168.0
211.055191 164.0
211.093887 312.0
211.117355 140.0
211.185318 48.0
211.793152 156.0
211.847733 76.0
212.036514 120.0
212.071548 188.0
212.084732 164.0
212.095963 180.0
212.126373 164.0
212.268433 128.0
212.396042 108.0
212.439087 196.0
212.628159 88.0
212.732651 120.0
212.758774 168.0
213.02594 160.0
213.068024 320.0
213.08844 148.0
213.111282 288.0
213.179932 28.0
213.223511 124.0
213.441544 144.0
213.490967 72.0
213.639313 52.0
213.875015 220.0
214.035126 192.0
214.086105 2460.0
214.148697 32.0
214.253571 128.0
214.484741 96.0
214.5858 184.0
214.696609 228.0
214.80452 120.0
214.859955 52.0
215.086899 440.0
215.125519 224.0
215.265656 56.0
215.336899 116.0
215.700974 44.0
215.741898 164.0
215.876389 44.0
216.094498 312.0
216.400146 64.0
216.508713 112.0
216.725266 108.0
216.789734 88.0
216.942139 132.0
217.085602 364.0
217.329269 80.0
217.514145 180.0
217.593414 104.0
217.746109 56.0
217.916473 68.0
217.989929 40.0
218.054581 112.0
218.096313 404.0
218.193436 236.0
218.246811 112.0
218.349014 136.0
218.40152 136.0
218.472122 164.0
218.639832 56.0
218.683975 116.0
218.725189 100.0
219.095978 320.0
219.28186 128.0
219.429245 116.0
219.694672 112.0
219.789078 120.0
219.821533 100.0
220.075363 656.0
220.11145 696.0
220.223038 148.0
220.367783 156.0
220.533264 84.0
220.568741 168.0
220.595337 52.0
220.681076 48.0
220.719513 192.0
220.796402 188.0
220.94725 136.0
221.107101 2260.0
221.17511 156.0
221.228394 68.0
221.249115 76.0
221.293518 36.0
221.45343 64.0
221.684509 212.0
221.74971 100.0
221.811951 208.0
221.927567 68.0
222.094696 532.0
222.123169 512.0
222.167801 140.0
222.20636 180.0
222.253845 152.0
222.511887 68.0
222.725861 148.0
222.755569 188.0
222.817947 92.0
223.087601 656.0
223.122849 1420.0
223.228119 52.0
223.647232 160.0
223.686295 208.0
223.730957 128.0
223.98407 176.0
224.066025 172.0
224.099594 548.0
224.126846 908.0
224.234344 164.0
224.469849 116.0
224.535461 132.0
224.577209 124.0
224.842743 144.0
224.95253 164.0
225.077087 496.0
225.137314 460.0
225.22789 124.0
225.490829 56.0
225.610382 172.0
225.718018 164.0
225.744934 68.0
226.044067 68.0
226.085449 372.0
226.121872 188.0
226.196701 32.0
226.301483 140.0
226.741821 120.0
227.088028 352.0
227.24559 76.0
227.374207 208.0
227.425644 168.0
227.662811 128.0
227.908218 132.0
228.079453 220.0
228.10321 432.0
228.510452 88.0
228.647369 200.0
228.971008 64.0
229.096695 400.0
229.465179 72.0
229.640076 112.0
229.7547 192.0
229.99913 116.0
230.1008 408.0
230.246704 140.0
230.331268 108.0
230.397736 64.0
230.470245 44.0
230.563919 156.0
230.754349 52.0
231.102493 600.0
231.280716 52.0
231.314011 68.0
231.398773 188.0
231.510803 180.0
231.542908 160.0
231.780396 212.0
231.886459 148.0
231.971329 132.0
232.109772 576.0
232.20784 160.0
232.232101 264.0
232.693344 80.0
232.972748 140.0
233.048706 108.0
233.114151 348.0
233.176331 124.0
233.437775 116.0
233.48642 36.0
233.570999 152.0
233.59288 168.0
233.96109 84.0
234.091049 3968.0
234.149872 148.0
234.210785 156.0
234.241257 208.0
234.262573 48.0
234.323883 64.0
234.372253 80.0
234.463669 104.0
234.573395 200.0
234.597778 80.0
234.683151 120.0
235.096039 968.0
235.123825 300.0
235.132248 264.0
235.192596 192.0
235.244492 224.0
235.568176 212.0
236.07254 176.0
236.102921 164.0
236.131607 120.0
236.168396 188.0
236.225403 112.0
236.246826 156.0
236.320251 132.0
236.433456 188.0
236.577316 92.0
236.886612 172.0
236.988754 140.0
237.045929 52.0
237.102158 468.0
237.141953 180.0
237.220627 36.0
237.702133 128.0
237.953827 40.0
238.085754 8028.0
238.139526 224.0
238.206558 40.0
238.230209 48.0
238.270157 40.0
238.393051 52.0
238.59285 172.0
238.789642 188.0
238.915756 104.0
239.087418 704.0
239.155762 180.0
239.177307 168.0
239.449753 164.0
239.482132 232.0
239.56839 112.0
239.676208 112.0
239.784073 48.0
239.956177 168.0
240.05043 140.0
240.101608 3148.0
240.157135 172.0
240.211441 132.0
240.354568 56.0
240.391602 52.0
240.478012 60.0
240.539734 152.0
240.579865 108.0
240.666321 56.0
240.715714 140.0
240.802185 72.0
240.931915 124.0
241.102615 660.0
241.349152 68.0
241.500687 148.0
241.621323 84.0
241.775528 412.0
242.057739 132.0
242.102859 308.0
242.352005 88.0
242.38298 168.0
242.562729 156.0
242.782867 152.0
243.104126 188.0
243.360016 160.0
243.670609 208.0
243.91922 120.0
243.962738 44.0
244.074783 192.0
244.118622 540.0
244.30481 144.0
244.367035 156.0
244.454147 56.0
244.500824 152.0
244.591095 136.0
244.615997 160.0
244.656464 72.0
244.686035 40.0
245.080017 128.0
245.12619 220.0
245.267014 224.0
245.295059 180.0
245.457184 84.0
245.768723 168.0
245.903275 184.0
245.937317 128.0
246.094772 440.0
246.12114 296.0
246.174881 64.0
246.52475 100.0
246.599762 60.0
246.75293 124.0
246.783127 140.0
246.962448 92.0
247.092194 280.0
247.123169 388.0
247.165787 184.0
247.193954 184.0
247.59314 108.0
247.72934 60.0
247.763794 156.0
247.82019 76.0
247.99881 164.0
248.076035 476.0
248.110229 184.0
248.134293 164.0
248.819321 140.0
248.858337 108.0
248.930557 60.0
249.104874 376.0
249.140015 296.0
249.379807 80.0
249.590439 160.0
249.694214 108.0
249.750824 124.0
249.845184 220.0
249.876648 132.0
250.086197 244.0
250.111786 300.0
250.119171 352.0
250.15358 184.0
250.194504 112.0
250.304703 160.0
250.405487 176.0
250.45903 124.0
250.572433 204.0
250.701614 104.0
250.726822 52.0
250.874969 196.0
250.919098 44.0
251.117538 2668.0
251.294418 72.0
251.366989 100.0
251.414322 176.0
251.460739 164.0
251.543732 92.0
251.641586 168.0
251.827896 72.0
252.060822 208.0
252.069 152.0
252.102142 1732.0
252.175446 184.0
252.507416 128.0
252.535873 140.0
252.712875 176.0
252.947205 44.0
253.010529 120.0
253.051682 272.0
253.100693 1120.0
253.140335 100.0
253.46344 36.0
253.583862 56.0
253.67894 104.0
253.815277 232.0
253.886368 76.0
253.980179 256.0
254.108963 2288.0
254.166351 76.0
254.192734 52.0
254.357773 48.0
254.37999 56.0
254.538742 120.0
254.64035 132.0
254.675293 104.0
254.796005 48.0
254.821426 124.0
255.015259 112.0
255.070679 156.0
255.112946 2952.0
255.256866 44.0
255.28363 96.0
255.601074 172.0
256.115906 604.0
256.12027 256.0
256.192596 104.0
256.673859 76.0
256.696167 76.0
256.871582 80.0
257.113586 184.0
257.270477 48.0
257.292816 192.0
257.350281 104.0
257.385406 36.0
257.41095 56.0
257.474823 60.0
257.615356 48.0
257.704803 120.0
258.062775 128.0
258.091827 200.0
258.125122 332.0
258.53299 144.0
259.097473 320.0
259.130554 124.0
259.827454 84.0
259.975067 88.0
260.061707 72.0
260.106232 472.0
260.140137 344.0
260.421326 20.0
260.475922 52.0
260.710449 92.0
260.761871 100.0
261.006195 152.0
261.105835 260.0
261.146454 296.0
261.253845 180.0
261.343933 96.0
261.366455 56.0
261.644897 164.0
261.694763 60.0
261.900848 136.0
262.049042 176.0
262.080688 160.0
262.131134 336.0
262.609924 180.0
262.88739 272.0
262.977753 108.0
263.016479 176.0
263.075623 212.0
263.099609 244.0
263.121399 556.0
263.15036 148.0
263.28421 100.0
263.288483 132.0
263.420105 84.0
263.504089 76.0
263.73999 180.0
263.807098 116.0
264.024506 140.0
264.066925 176.0
264.103027 660.0
264.139343 144.0
264.247711 108.0
264.445099 188.0
265.01181 84.0
265.109894 652.0
265.136078 320.0
265.169922 160.0
265.329407 32.0
265.371552 200.0
265.436401 208.0
265.502594 252.0
265.738068 200.0
265.825653 180.0
265.987946 48.0
266.116699 4348.0
266.173004 80.0
266.283417 200.0
266.397095 68.0
266.496124 140.0
266.640778 184.0
266.852081 68.0
266.972382 176.0
267.03418 132.0
267.078094 192.0
267.113098 1900.0
267.232605 64.0
267.526001 152.0
267.613403 52.0
267.678528 92.0
267.795746 156.0
267.838104 92.0
268.060272 168.0
268.117645 1380.0
268.176971 120.0
268.287781 72.0
268.525818 104.0
268.581268 148.0
268.978119 96.0
269.031586 84.0
269.077271 44.0
269.125153 776.0
269.201355 132.0
269.230743 124.0
269.531281 56.0
269.570496 108.0
269.697937 76.0
269.956207 44.0
270.021637 64.0
270.096069 140.0
270.134308 332.0
270.257141 184.0
270.846405 92.0
271.013489 60.0
271.597015 96.0
271.908722 204.0
271.987488 160.0
272.107513 272.0
272.158203 32.0
272.706787 80.0
272.802124 208.0
273.080444 156.0
273.111694 268.0
273.144623 156.0
273.436951 192.0
273.558716 160.0
273.581757 92.0
273.755493 100.0
273.920959 196.0
274.104523 548.0
274.253754 40.0
274.283417 212.0
274.4021 164.0
274.471313 100.0
274.517487 156.0
275.120056 708.0
275.153137 448.0
275.184021 140.0
275.207123 176.0
275.560516 100.0
276.036469 132.0
276.104706 652.0
276.133484 256.0
276.281219 56.0
276.436737 136.0
276.814117 144.0
276.840607 180.0
276.90683 132.0
277.10614 176.0
277.133942 836.0
277.163513 156.0
277.59613 136.0
277.692322 56.0
278.034027 124.0
278.071503 168.0
278.121521 1068.0
278.186707 100.0
278.226562 204.0
278.385925 48.0
278.545349 156.0
278.821106 112.0
278.897552 140.0
278.993958 104.0
279.089447 156.0
279.122131 308.0
279.236694 56.0
279.309509 188.0
279.432953 144.0
279.466217 44.0
279.549408 116.0
279.61264 120.0
279.652557 80.0
279.695831 36.0
279.780182 144.0
279.912476 164.0
280.057037 176.0
280.097656 140.0
280.12558 816.0
280.291962 60.0
280.478607 104.0
280.618622 112.0
280.655273 184.0
280.678619 100.0
280.731964 148.0
280.768951 136.0
280.812012 108.0
280.842041 156.0
280.885406 248.0
280.995483 136.0
281.050598 108.0
281.128723 8740.0
281.288513 92.0
281.349243 164.0
281.385956 164.0
281.562927 56.0
281.6492 68.0
281.671967 156.0
281.763367 120.0
281.97052 88.0
282.013977 180.0
282.084778 216.0
282.135773 13496.0
282.204529 164.0
282.261353 132.0
282.30484 52.0
282.338257 80.0
282.375061 80.0
282.410583 64.0
282.465363 48.0
282.522247 64.0
282.549011 44.0
282.634216 80.0
282.726349 72.0
282.778748 84.0
282.803253 148.0
282.912292 188.0
282.957306 120.0
283.020905 108.0
283.142609 6936.0
283.260559 172.0
283.342438 56.0
283.426208 44.0
283.473114 88.0
283.540131 128.0
283.573639 228.0
283.617218 48.0
283.686096 88.0
283.82843 84.0
283.868866 68.0
283.945801 156.0
284.022919 84.0
284.146454 1364.0
284.247711 108.0
284.334961 48.0
284.383636 104.0
284.558197 40.0
284.670654 96.0
284.805511 132.0
284.845306 92.0
284.994263 152.0
285.040161 68.0
285.0625 104.0
285.093567 148.0
285.141571 320.0
285.29895 160.0
285.655426 96.0
285.880829 68.0
285.934692 88.0
285.97171 116.0
286.025574 72.0
286.096619 320.0
286.121307 328.0
286.449829 44.0
286.489349 120.0
286.564362 236.0
286.699158 60.0
286.865601 52.0
286.941864 168.0
287.019409 36.0
287.096222 172.0
287.118073 284.0
287.153564 284.0
287.181274 100.0
287.275726 156.0
287.44104 184.0
287.987946 228.0
288.094879 188.0
288.126801 260.0
288.430573 200.0
288.717957 100.0
288.998718 84.0
289.025787 144.0
289.090973 196.0
289.132751 244.0
289.205139 176.0
289.5979 96.0
289.926514 152.0
290.119415 440.0
290.17395 180.0
290.374023 60.0
290.458832 108.0
291.015381 60.0
291.076477 116.0
291.117065 292.0
291.129639 200.0
291.287048 100.0
291.436523 120.0
292.078156 120.0
292.128143 488.0
292.3172 152.0
292.695038 100.0
293.052673 136.0
293.126282 700.0
293.160797 228.0
293.420776 36.0
293.524017 128.0
293.546204 168.0
293.700378 136.0
293.968201 88.0
294.007446 132.0
294.1185 216.0
294.127716 468.0
295.10553 284.0
295.142578 488.0
295.237274 44.0
295.27832 112.0
295.76416 132.0
295.863434 96.0
295.990112 228.0
296.103302 156.0
296.144012 244.0
296.545105 100.0
297.149414 236.0
297.471191 112.0
297.74588 100.0
298.110687 348.0
298.163879 312.0
298.172485 380.0
298.295624 168.0
298.474396 124.0
298.522522 136.0
298.615387 148.0
299.155609 112.0
299.251984 116.0
299.510284 136.0
300.668732 160.0
300.965607 60.0
301.013947 116.0
301.131348 180.0
301.162445 112.0
301.266052 148.0
301.338623 80.0
301.421539 136.0
301.473358 188.0
301.928467 184.0
301.995422 76.0
302.118103 376.0
302.241028 144.0
302.286011 136.0
302.604462 52.0
302.746429 140.0
302.787964 172.0
302.929993 92.0
303.085876 148.0
303.119507 196.0
303.149811 1088.0
303.196777 100.0
303.231445 136.0
303.782745 112.0
304.123169 396.0
304.139771 444.0
304.34845 128.0
304.372742 144.0
304.397064 76.0
304.789551 112.0
304.886871 144.0
305.126221 484.0
305.158539 700.0
305.373596 52.0
305.509247 56.0
305.638092 104.0
305.78064 152.0
305.808502 152.0
305.88855 52.0
306.108429 232.0
306.135284 528.0
306.229767 40.0
307.083679 304.0
307.144073 956.0
307.449982 252.0
307.652435 136.0
307.886383 172.0
307.978912 40.0
308.148987 432.0
308.586029 132.0
308.920959 132.0
309.001404 84.0
309.095886 160.0
309.146942 156.0
309.152435 136.0
309.305878 136.0
309.606964 196.0
309.778595 80.0
309.894196 124.0
309.939758 88.0
310.044739 112.0
310.141541 604.0
310.227142 100.0
310.43399 60.0
310.462067 172.0
310.886536 64.0
311.058502 48.0
311.107635 144.0
311.142761 88.0
311.183563 128.0
311.346405 52.0
312.130035 60.0
312.210907 152.0
313.130005 256.0
313.450043 132.0
313.630219 124.0
313.887115 36.0
314.128204 136.0
314.762207 52.0
315.02005 140.0
315.080078 220.0
315.196686 56.0
315.405212 160.0
315.57489 80.0
315.649139 156.0
316.124939 212.0
316.274475 148.0
316.480652 104.0
317.008423 120.0
317.082855 180.0
317.12793 336.0
317.522461 52.0
317.753021 144.0
317.9198 108.0
317.980133 56.0
318.051117 128.0
318.117035 380.0
318.137878 200.0
318.193115 164.0
318.335144 104.0
318.42392 152.0
318.84314 160.0
319.105316 164.0
319.141388 1000.0
319.287537 164.0
319.3302 48.0
319.476044 168.0
319.54007 108.0
319.920868 136.0
319.956482 152.0
319.992065 132.0
320.081085 180.0
320.138428 512.0
320.333954 52.0
320.686707 76.0
321.15979 3780.0
321.599762 176.0
321.881805 260.0
321.942505 92.0
321.996063 128.0
322.131805 220.0
322.159698 672.0
322.369293 144.0
322.489105 44.0
322.635681 168.0
322.664276 156.0
322.810883 28.0
322.924194 52.0
323.126007 188.0
323.336731 28.0
323.878296 188.0
323.926117 144.0
324.008759 136.0
324.116364 196.0
324.153595 156.0
324.235657 80.0
324.436371 196.0
324.855957 136.0
325.160919 132.0
325.64563 60.0
326.133057 132.0
326.158203 176.0
326.353546 100.0
326.472198 192.0
327.015442 52.0
327.166199 196.0
327.21344 236.0
327.253021 56.0
328.078064 188.0
328.103302 28.0
328.175385 80.0
328.828308 200.0
328.972687 100.0
329.151093 176.0
329.30127 108.0
329.369904 144.0
329.521637 48.0
330.049316 128.0
330.110809 100.0
330.136108 224.0
330.327789 88.0
330.403778 176.0
330.468903 112.0
330.924927 152.0
331.044403 116.0
331.069763 144.0
331.144104 1016.0
331.301575 148.0
331.341431 168.0
331.43924 228.0
331.497223 184.0
331.533447 176.0
332.088654 480.0
332.119995 192.0
332.12738 172.0
332.141083 404.0
332.204224 152.0
332.730438 136.0
332.788513 68.0
332.861145 164.0
332.911987 152.0
332.977356 96.0
333.089935 228.0
333.15625 264.0
333.384216 148.0
333.453278 104.0
334.122253 160.0
334.148651 136.0
334.271515 116.0
334.296997 132.0
334.894043 148.0
335.098053 172.0
335.175385 1052.0
335.484344 132.0
335.666656 184.0
335.918304 124.0
336.138519 252.0
336.166016 620.0
336.713989 20.0
336.761475 204.0
337.050079 132.0
337.123138 92.0
337.158081 272.0
337.203552 128.0
337.298584 236.0
337.342438 120.0
338.044678 76.0
338.344788 156.0
338.429016 192.0
339.012634 96.0
339.344971 208.0
339.47699 104.0
339.619995 68.0
339.667694 44.0
339.755737 60.0
340.203461 200.0
340.317261 48.0
340.41272 140.0
340.761658 180.0
340.818329 132.0
340.974792 112.0
341.000519 92.0
341.0336 104.0
341.096069 164.0
341.224731 40.0
341.287262 80.0
342.310181 128.0
342.604828 108.0
342.822205 164.0
344.109497 132.0
344.789185 208.0
344.870483 112.0
345.0849 128.0
345.158203 492.0
345.932068 112.0
346.050537 44.0
346.141388 504.0
346.661713 140.0
346.817352 132.0
347.142273 176.0
347.199249 112.0
347.299377 208.0
347.588745 76.0
347.989594 120.0
348.305267 156.0
348.502167 112.0
348.528168 144.0
349.037384 92.0
349.09317 164.0
349.152802 1428.0
349.725616 52.0
349.971313 80.0
350.157562 880.0
350.464691 104.0
350.492767 72.0
350.608307 64.0
350.645569 148.0
351.170166 1304.0
351.381073 160.0
351.43985 120.0
351.641357 128.0
351.835449 88.0
351.895203 148.0
352.063202 100.0
352.119232 180.0
352.174408 460.0
352.64978 40.0
353.01239 188.0
353.175812 744.0
353.263 148.0
353.540955 108.0
353.914185 132.0
354.019043 80.0
354.169861 160.0
354.550995 136.0
354.930573 172.0
355.006287 128.0
355.195862 132.0
355.5448 88.0
355.781281 76.0
356.344604 136.0
356.697845 84.0
357.42746 208.0
357.785004 76.0
358.202423 128.0
358.666473 124.0
358.704163 100.0
358.930389 88.0
358.964325 160.0
359.088776 132.0
359.137787 72.0
359.873657 160.0
360.84845 132.0
360.992126 148.0
361.075317 144.0
361.147186 124.0
361.661743 120.0
361.794922 132.0
361.843445 160.0
361.896454 64.0
362.002472 68.0
362.180481 64.0
362.786774 116.0
363.063568 128.0
363.097687 144.0
363.169006 3532.0
363.219055 284.0
363.253204 64.0
363.34198 60.0
363.378387 48.0
363.439087 56.0
363.549133 116.0
363.662994 48.0
363.856598 92.0
364.172638 772.0
364.489349 100.0
364.517456 76.0
364.794922 48.0
365.000214 80.0
365.17337 228.0
365.449036 56.0
365.947632 144.0
366.164581 140.0
366.332275 60.0
366.530396 88.0
366.58374 80.0
366.656128 72.0
366.9039 140.0
367.162537 168.0
367.247101 152.0
367.399658 124.0
367.487427 124.0
367.811798 140.0
368.915741 100.0
369.347839 176.0
369.443481 140.0
369.707489 124.0
369.933289 108.0
370.029022 132.0
370.235779 64.0
370.454102 156.0
370.81427 120.0
371.101776 220.0
371.143951 188.0
371.220642 120.0
371.773041 88.0
371.849792 164.0
372.153046 176.0
372.237518 120.0
372.636993 212.0
373.017426 120.0
374.067261 200.0
374.687592 152.0
374.822418 72.0
375.238708 96.0
376.311249 104.0
376.631775 180.0
376.732208 112.0
376.917664 92.0
377.760498 88.0
377.989777 120.0
378.070007 96.0
378.1745 64.0
378.987732 104.0
379.08847 160.0
379.158844 760.0
379.208618 88.0
379.383057 84.0
379.410187 108.0
379.491608 144.0
379.553192 144.0
379.677734 140.0
379.774689 244.0
379.809601 36.0
379.870941 108.0
379.898804 80.0
380.039978 124.0
380.121063 128.0
380.168243 56.0
380.255219 136.0
380.296783 192.0
380.344482 212.0
380.374542 80.0
380.426575 132.0
380.500153 120.0
380.513733 160.0
380.588531 168.0
380.632355 92.0
380.686707 172.0
380.73175 112.0
380.762054 112.0
380.803223 176.0
380.861908 144.0
380.921753 440.0
380.935608 228.0
380.952606 160.0
380.979889 364.0
381.019165 208.0
381.08667 392.0
381.180634 98124.0
381.270721 168.0
381.309631 220.0
381.338379 316.0
381.420197 96.0
381.486725 140.0
381.531586 80.0
381.59967 156.0
381.636932 140.0
381.66925 92.0
381.701813 176.0
381.766479 88.0
381.773102 124.0
381.827118 292.0
381.93689 160.0
382.042908 184.0
382.094971 88.0
382.123993 176.0
382.183502 23952.0
382.239197 292.0
382.28537 64.0
382.338654 256.0
382.387634 100.0
382.3992 144.0
382.487762 152.0
382.523651 68.0
382.562958 120.0
382.575409 68.0
382.589783 104.0
382.604095 60.0
382.613678 60.0
382.718872 116.0
382.74762 100.0
382.818146 36.0
382.844971 80.0
382.903381 32.0
382.946228 68.0
383.035339 68.0
383.100586 96.0
383.186096 3140.0
383.340546 92.0
383.39325 140.0
383.478241 88.0
383.591461 40.0
383.639801 40.0
383.667114 96.0
383.709991 92.0
383.74881 92.0
383.775055 52.0
383.787964 36.0
383.833344 128.0
383.869843 128.0
383.901031 64.0
383.936127 52.0
384.004211 140.0
384.040985 136.0
384.106781 144.0
384.138947 56.0
384.189087 1112.0
384.283905 132.0
384.31842 56.0
384.345734 100.0
384.405518 172.0
384.503326 104.0
384.541565 192.0
384.57019 112.0
384.605255 152.0
384.648926 116.0
384.713074 128.0
384.763336 332.0
384.819305 132.0
384.879761 132.0
384.926666 72.0
385.008362 80.0
385.024445 60.0
385.06012 104.0
385.138214 68.0
385.188873 124.0
385.308258 160.0
385.388245 56.0
385.481262 84.0
385.519257 68.0
385.638336 32.0
385.66571 52.0
385.708679 72.0
385.810333 44.0
385.841858 64.0
385.962799 48.0
386.091858 88.0
386.158325 48.0
386.220612 160.0
386.233704 148.0
386.261993 104.0
386.561279 64.0
386.619995 40.0
386.823517 40.0
386.850922 52.0
387.077972 116.0
387.121063 68.0
387.289459 84.0
387.468994 48.0
387.614624 84.0
387.709198 92.0
387.841919 44.0
388.116364 84.0
388.190857 92.0
388.802826 52.0
389.450623 72.0
389.733459 120.0
390.995758 40.0
391.424835 64.0
392.232483 56.0
392.610962 92.0
392.972656 52.0
393.269836 44.0
393.601288 104.0
393.715942 36.0
394.855103 116.0
394.968842 60.0
395.1073 84.0
395.22995 88.0
395.404053 72.0
395.605927 44.0
395.740509 108.0
396.096954 56.0
396.687378 48.0
396.925232 60.0
397.623413 108.0
398.151428 80.0
398.192902 128.0
398.55661 136.0
398.874542 116.0
400.044037 56.0
400.474091 76.0
400.952179 84.0
401.260864 112.0
401.422577 92.0
401.474426 84.0
402.899353 68.0
403.490814 76.0
405.01947 64.0
405.672607 72.0
405.744781 100.0
406.105682 108.0
406.542969 56.0
408.419189 56.0
408.918091 88.0
409.034821 68.0
409.48175 100.0
410.815918 56.0
416.828278 48.0
425.52829 44.0
427.954041 84.0
431.055847 64.0
433.28183 40.0
435.69632 56.0
436.527588 20.0
440.720917 136.0
443.047089 44.0
444.183105 104.0
449.496735 144.0
455.211304 108.0
460.304138 120.0
460.714172 108.0
465.927826 128.0
467.153015 100.0
467.828644 84.0
473.727539 56.0
475.07724 124.0
477.351562 48.0
483.625092 156.0
483.695129 60.0
485.088074 128.0
486.540131 72.0
493.36853 92.0
494.700104 104.0
495.328888 100.0
501.019409 124.0
501.616547 76.0
503.075226 96.0
505.005554 100.0
507.24881 72.0
509.9599 80.0
511.948395 68.0
515.552795 72.0
516.619873 48.0
520.399597 56.0
523.327637 72.0
523.81488 56.0
524.986206 36.0
531.858032 64.0
534.472961 92.0
539.587952 76.0
543.302124 116.0
546.186829 96.0
546.773071 148.0
547.04303 104.0
547.429443 80.0
548.617554 104.0
551.778076 108.0
554.957092 44.0
559.029541 68.0
562.186829 108.0
571.065125 68.0
573.855652 84.0
577.432251 68.0
579.945862 100.0
583.950073 76.0
584.883484 164.0
586.709167 64.0
587.485596 72.0
589.382996 80.0
590.557678 44.0
602.408325 48.0
607.288452 96.0
608.367981 40.0
608.475952 92.0
611.454712 76.0
620.271118 104.0
624.43689 44.0
625.203003 80.0
629.625 56.0
636.83197 100.0
644.954041 76.0
645.540527 96.0
648.304504 120.0
649.110474 72.0
653.733093 76.0
655.882263 84.0
664.911743 48.0
670.479248 40.0
672.64032 64.0
680.706543 84.0
683.466675 48.0
686.383545 72.0
686.644287 108.0
688.611877 36.0
692.06842 84.0
692.419312 116.0
694.395142 92.0
701.14032 84.0
701.319519 108.0
702.822449 68.0
703.661682 40.0
710.387939 184.0
711.937744 60.0
714.38269 52.0
719.690857 84.0
742.984924 40.0
785.752136 36.0
800.352661 168.0
801.535522 88.0
830.100159 232.0
832.395447 236.0
840.148193 56.0
842.116516 80.0
856.134094 56.0
857.695496 120.0
870.977905 216.0
877.073792 56.0
885.967102 56.0
888.967224 84.0
905.840088 76.0
911.726013 80.0
913.835999 204.0
916.202637 84.0
940.305847 80.0
944.772461 56.0
960.862244 40.0
961.078735 84.0
964.382019 184.0
970.398987 80.0
972.79364 112.0
978.089722 136.0
993.348938 176.0
994.46582 92.0
998.625122 164.0
1021.96814 56.0
1041.331177 112.0
1048.736694 144.0
1052.743042 96.0
1057.106445 156.0
1084.282471 208.0
1087.660278 104.0
1091.825684 164.0
1098.59021 116.0
1103.325073 72.0
1112.327759 196.0
1126.578125 104.0
1136.439697 104.0
1136.573364 252.0
1139.245972 160.0
1141.679077 120.0
1157.686279 132.0
1160.091431 172.0
1174.861938 212.0
1178.207153 180.0
1197.86792 120.0
1201.438721 184.0
1215.088257 76.0
1215.705811 148.0
1224.151978 132.0
1226.548584 180.0
1228.480103 132.0
1229.129028 128.0
1232.927734 164.0
1234.067139 160.0
1236.158569 84.0
1239.505737 148.0
1240.269531 212.0
1251.861816 168.0
1256.026978 184.0
1265.015259 84.0
1269.833496 176.0
1270.060425 204.0
1299.917725 208.0
1311.921753 156.0
1313.327881 148.0
1315.247192 136.0
1315.413208 148.0
1316.871704 144.0
1322.916626 164.0
1325.407959 128.0
1325.45874 252.0
1326.089233 172.0
1334.38623 172.0
1340.762695 184.0
1342.344482 148.0
1345.401611 136.0
1348.060181 160.0
1350.085205 172.0
1350.538574 152.0
1354.762207 196.0
1355.084595 96.0
1362.891113 108.0
1373.300415 116.0
1383.068237 128.0
1387.802002 216.0
1396.966431 196.0
1402.990967 144.0
1403.527832 148.0
1405.534302 112.0
1408.147095 132.0
1411.55481 220.0
1414.397705 160.0
1414.929199 140.0
1421.17981 136.0
1422.373047 132.0
1422.853516 176.0
1424.069946 128.0
1424.941284 224.0
1433.714966 64.0
1435.463867 184.0
1439.342285 128.0
1443.498291 148.0
1446.577515 160.0
1451.464233 184.0
1455.576904 140.0
1455.751465 144.0
1457.460571 140.0
1459.163086 60.0
1461.31543 36.0
1462.411255 176.0
1463.431274 160.0
1477.275269 228.0
1480.122314 136.0
1482.926147 116.0
1484.30603 156.0
1490.754028 204.0
1493.160278 196.0
1496.076416 168.0
1496.623047 124.0
1500.321167 36.0
1503.236694 204.0
