>compound MLS001056751-01!22978-25-2
>formula C13H9ClN2O3
>ionization [M+H]+
>parentmass 277.03744628009053
#inchi InChI=1S/C13H9ClN2O3/c14-12-7-6-10(16(18)19)8-11(12)13(17)15-9-4-2-1-3-5-9/h1-8H,(H,15,17)
#inchikey DNTSIBUQMRRYIU
#Ion_Source LC-ESI
#Instrument qTof
#Compound_Source NIH Pharmacologically Active Library
#PI Dorrestein
#Data_Collector VP/LMS
#Scan -1
#Precursor_MZ 277.04
#ExactMass 276.03
#Charge 1
#CAS_Number N/A
#Pubmed_ID N/A
#Smiles [O-][N+](=O)c1ccc(Cl)c(c1)C(=O)Nc2ccccc2
#INCHI_AUX N/A
#Library_Class 1
#SpectrumID CCMSLIB00000085777
#IonMode Positive
#UpdateWorkflowName UPDATE-SINGLE-ANNOTATED-GOLD
#LibraryQualityString Gold
#TaskID d252d724072548979f1f6f1ced849daf
##Scan# 2212
#SpectrumFile p4-F04_GF4_01_18388.mzXML
#LibraryName Pharm_Active_Library.mgf
#MQScore -1
#Organism Pharm_Active_Library
#TIC_Query 0
#RT_Query -1
#MZErrorPPM -1
#SharedPeaks 0
#MassDiff 0
#LibMZ -1
#SpecMZ 277.04
#SpecCharge 0
#internalFilename spec-00000.mgf

>collision 10
48.191116 180.0
48.502502 224.0
50.466797 128.0
50.547428 268.0
51.671532 180.0
51.830463 212.0
52.504692 168.0
53.577366 140.0
53.654774 244.0
54.038731 192.0
54.560863 172.0
54.840561 120.0
55.630478 260.0
55.8162 164.0
57.409595 144.0
58.046257 132.0
58.264828 168.0
58.462502 140.0
58.694054 188.0
58.832897 196.0
60.06057 200.0
61.612991 196.0
62.203392 64.0
62.446949 208.0
62.783993 144.0
63.291264 160.0
64.23214 140.0
64.251282 164.0
64.98246 164.0
65.178352 100.0
65.748436 208.0
67.303642 176.0
68.647614 184.0
69.700447 136.0
70.021523 148.0
70.458565 268.0
71.877388 172.0
71.9888 72.0
72.145943 132.0
73.745567 144.0
74.557968 188.0
76.19091 204.0
76.443031 180.0
77.443428 212.0
77.571342 196.0
79.82431 196.0
79.985977 148.0
81.9599 176.0
82.167252 172.0
82.553802 220.0
83.469589 192.0
83.888351 196.0
85.082993 208.0
85.345726 164.0
85.71756 160.0
86.141922 188.0
86.284225 212.0
87.105202 228.0
87.585129 168.0
89.017784 164.0
90.01963 116.0
92.769096 152.0
92.911018 124.0
95.38295 116.0
95.528801 60.0
96.425758 68.0
97.040443 240.0
97.132614 228.0
97.399582 156.0
98.037056 108.0
98.125763 148.0
98.297371 224.0
98.429626 196.0
98.904121 136.0
99.074173 188.0
99.989838 124.0
101.26165 32.0
103.365479 168.0
103.44239 96.0
104.839821 180.0
104.945824 152.0
104.998848 68.0
105.032967 10028.0
105.069527 184.0
105.101868 116.0
105.15799 60.0
105.288658 76.0
105.307037 96.0
105.499123 60.0
105.535919 72.0
106.036522 660.0
106.109215 44.0
106.183044 72.0
106.517616 72.0
106.926796 84.0
106.96273 104.0
107.037964 152.0
107.871498 164.0
108.984451 172.0
109.98777 344.0
110.34343 84.0
110.835304 48.0
110.997627 144.0
113.002769 184.0
113.128967 124.0
113.267159 156.0
115.001831 164.0
115.373421 176.0
115.694328 52.0
115.981384 200.0
116.932907 204.0
119.038635 164.0
121.301224 68.0
122.988411 176.0
125.004356 896.0
125.979637 112.0
125.999252 208.0
126.998154 136.0
127.991501 188.0
136.091522 124.0
137.094101 416.0
138.039566 152.0
138.981247 204.0
139.99205 164.0
140.032074 140.0
140.529495 40.0
140.992325 228.0
141.697495 72.0
145.062637 176.0
145.151352 48.0
146.068817 148.0
146.991592 148.0
149.096085 196.0
150.978195 120.0
152.958267 44.0
152.996933 176.0
153.985123 160.0
155.000961 360.0
157.009476 120.0
165.557449 148.0
166.063232 152.0
166.87384 136.0
167.070648 284.0
167.769806 168.0
168.084473 196.0
169.006958 108.0
170.518845 120.0
170.724243 152.0
170.960983 152.0
170.992874 1792.0
171.028656 112.0
171.625244 104.0
171.666962 176.0
171.784332 108.0
171.994049 196.0
172.58876 76.0
172.989899 644.0
173.020477 28.0
173.342651 72.0
173.478943 36.0
173.575943 164.0
174.001022 108.0
175.305695 236.0
175.384766 188.0
177.059494 156.0
177.091843 132.0
183.071762 124.0
184.377518 132.0
187.550415 48.0
190.058289 136.0
194.063889 156.0
195.067993 532.0
196.066925 272.0
196.873932 88.0
198.850525 168.0
198.988724 1036.0
199.330765 44.0
199.997314 484.0
200.794678 52.0
200.983383 632.0
203.00061 52.0
204.014267 156.0
204.6772 172.0
206.012009 64.0
206.569458 68.0
207.018829 152.0
208.660141 68.0
210.0569 128.0
211.270218 132.0
213.027023 144.0
217.512512 168.0
217.612335 224.0
223.060226 140.0
224.063126 164.0
224.698181 64.0
225.06015 168.0
227.058685 724.0
227.526474 160.0
228.062134 340.0
228.229538 64.0
228.662735 84.0
229.832016 88.0
231.047089 260.0
231.098053 184.0
233.03624 204.0
234.865204 136.0
240.736664 196.0
241.061035 196.0
249.873215 100.0
254.065735 180.0
256.042877 96.0
260.187073 148.0
263.032166 280.0
263.06842 116.0
264.05072 136.0
265.021912 260.0
265.054291 228.0
266.024078 220.0
277.035309 220.0
277.252319 132.0
278.041626 216.0
278.184357 164.0
279.024902 84.0
295.088593 64.0
317.865875 48.0
484.276031 52.0
513.75116 80.0
799.066833 176.0
799.708374 104.0
821.285645 60.0
825.700745 32.0
961.60791 152.0
980.306824 172.0
981.354065 256.0
983.462646 200.0
991.261658 208.0
1024.899048 152.0
1031.364014 152.0
1088.078979 160.0
1107.65918 112.0
1108.374634 120.0
1108.686157 196.0
1110.489502 80.0
1132.123657 192.0
1133.51709 156.0
1135.414307 168.0
1142.783447 160.0
1144.600952 228.0
1158.155518 160.0
1171.572021 176.0
1175.014893 120.0
1180.349487 184.0
1181.368652 108.0
1199.353394 272.0
1209.306763 204.0
1223.203369 132.0
1228.939209 144.0
1236.192505 196.0
1244.92749 160.0
1245.896729 148.0
1252.509521 124.0
1256.450195 212.0
1282.148193 180.0
1285.614258 208.0
1285.792603 36.0
1286.442261 100.0
1286.884888 216.0
1290.107056 204.0
1297.093994 200.0
1298.484985 88.0
1304.509399 156.0
1322.0802 124.0
1325.643311 176.0
1326.650757 144.0
1330.59021 128.0
1331.686768 156.0
1343.654419 32.0
1343.734619 108.0
1351.647949 108.0
1354.913574 212.0
1360.208374 120.0
1361.94873 200.0
1365.425293 172.0
1375.047485 184.0
1375.977661 128.0
1376.221313 116.0
1384.636841 240.0
1395.612427 240.0
1397.665405 88.0
1399.74231 160.0
1406.288086 232.0
1410.740112 184.0
1411.427979 224.0
1418.338257 124.0
1423.672852 156.0
1433.316895 184.0
1449.586548 76.0
1451.967041 148.0
1460.755249 140.0
1462.596802 152.0
1466.321411 168.0
1466.397583 56.0
1466.572876 176.0
1476.949951 88.0
1485.4375 164.0
