>compound Vismodegib (GDC-0449)
>formula C19H14Cl2N2O3S
>ionization [M+H]+
>parentmass 421.019165
#inchi InChI=1S/C19H14Cl2N2O3S/c1-27(25,26)13-6-7-14(17(21)11-13)19(24)23-12-5-8-16(20)15(10-12)18-4-2-3-9-22-18/h2-11H,1H3,(H,23,24)
#inchikey BPQMGSKTAYIVFO
#Ion_Source LC-ESI
#Instrument qTof
#Compound_Source Commercial
#PI Dorrestein
#Data_Collector Garg_Neha
#Scan -1
#Precursor_MZ 421.018
#ExactMass 420.01
#Charge 1
#CAS_Number 879085-55-9
#Pubmed_ID N/A
#Smiles C1(=C(C=C(C=C1)NC(C2=CC=C(C=C2Cl)S(C)(=O)=O)=O)C3=NC=CC=C3)Cl
#INCHI_AUX N/A
#Library_Class 1
#SpectrumID CCMSLIB00000078016
#IonMode Positive
#UpdateWorkflowName UPDATE-SINGLE-ANNOTATED-GOLD
#LibraryQualityString Gold
#TaskID 77f51c88eb8b467eb4a01dd2d0cb90d2
##Scan# 1373
#SpectrumFile Plate1_1_20_GG1_01_16488.mzXML
#LibraryName FDALibrary_2_04302014.mgf
#MQScore -1
#Organism FDALibrary_2_04302014
#TIC_Query 0
#RT_Query -1
#MZErrorPPM -1
#SharedPeaks 0
#MassDiff 0
#LibMZ -1
#SpecMZ 421.018
#SpecCharge 0
#internalFilename spec-00000.mgf

>collision 10
44.911686 176.0
44.966393 160.0
45.202942 200.0
45.245773 168.0
45.33284 180.0
45.36367 156.0
45.652992 192.0
45.704815 172.0
46.381447 152.0
46.620327 180.0
46.693741 140.0
47.129982 180.0
47.300941 200.0
47.488667 148.0
47.698296 120.0
47.912064 156.0
48.014069 160.0
48.345642 152.0
48.400673 212.0
48.754765 200.0
48.840969 172.0
49.178169 148.0
49.197716 152.0
49.249382 140.0
49.471725 204.0
50.347744 212.0
50.504631 140.0
50.780834 176.0
51.008026 140.0
51.09193 164.0
51.289875 192.0
51.620461 100.0
51.94194 144.0
52.18034 144.0
52.495686 172.0
52.911835 168.0
53.113274 196.0
53.219215 284.0
53.255524 168.0
53.323814 156.0
54.288864 172.0
54.453239 188.0
54.53405 220.0
55.0438 212.0
55.071861 180.0
55.639034 212.0
57.48769 216.0
57.605465 160.0
57.770012 188.0
57.864079 156.0
58.100796 212.0
58.311584 168.0
58.631664 144.0
59.495453 200.0
59.552269 164.0
59.972332 176.0
60.54245 152.0
60.557941 180.0
60.816883 148.0
61.208664 144.0
61.228912 140.0
61.37384 144.0
62.272923 136.0
62.459187 228.0
62.63549 152.0
62.843594 168.0
63.647701 176.0
63.690582 168.0
64.163223 224.0
64.198303 208.0
64.24456 228.0
64.671227 200.0
64.993355 160.0
65.187141 200.0
65.269638 212.0
65.325935 140.0
65.377419 264.0
65.78038 160.0
65.969383 204.0
66.309311 164.0
66.414703 176.0
66.598129 216.0
66.815964 152.0
67.249435 220.0
67.278816 144.0
67.646652 192.0
67.767845 144.0
67.830124 208.0
67.844879 192.0
68.317856 188.0
68.599464 168.0
69.305191 180.0
69.358337 184.0
69.499199 156.0
69.779251 164.0
70.051178 144.0
70.366379 224.0
70.531769 204.0
70.575241 144.0
70.615379 172.0
70.903351 200.0
70.936874 140.0
71.190239 248.0
71.264145 156.0
72.713089 216.0
73.017212 164.0
73.126099 164.0
73.286179 232.0
73.50103 144.0
73.59491 148.0
73.654686 180.0
73.684906 180.0
73.714485 148.0
73.728157 164.0
74.029259 172.0
74.248627 144.0
74.432251 156.0
74.540474 232.0
74.559372 180.0
75.210442 140.0
75.568176 296.0
75.620087 172.0
75.847 156.0
75.916351 188.0
76.077721 176.0
76.54718 164.0
76.728394 236.0
76.961815 200.0
77.129913 164.0
77.199852 192.0
77.280121 176.0
77.764 152.0
77.779793 188.0
77.99234 160.0
78.44474 156.0
78.721756 144.0
78.744713 156.0
78.765915 156.0
78.901985 248.0
79.192207 164.0
79.445694 172.0
79.511353 184.0
79.731575 176.0
80.155128 168.0
80.258514 184.0
80.276352 172.0
80.640556 168.0
80.663101 188.0
80.778244 156.0
80.837288 196.0
81.165108 192.0
81.518745 176.0
81.597839 212.0
82.064171 160.0
82.206673 264.0
82.558952 212.0
82.577042 140.0
82.625877 156.0
83.45295 164.0
83.549347 192.0
83.745949 188.0
84.138016 256.0
84.280487 148.0
84.454163 180.0
84.558456 184.0
84.59507 216.0
85.202103 184.0
85.314209 164.0
85.580986 244.0
85.803932 160.0
86.069633 188.0
86.269173 140.0
86.713249 164.0
86.754211 212.0
86.95269 244.0
87.549484 196.0
87.747009 240.0
87.875061 152.0
87.978081 220.0
88.19416 168.0
88.239914 224.0
88.501862 228.0
88.812088 164.0
89.011909 184.0
89.120605 152.0
89.382225 144.0
89.640213 192.0
90.306664 256.0
90.529991 148.0
90.988869 164.0
91.226349 204.0
91.302406 188.0
91.418457 240.0
92.531311 188.0
92.605995 180.0
92.906952 148.0
92.935738 204.0
93.26606 156.0
93.650894 164.0
93.677864 192.0
94.148506 188.0
94.285675 156.0
94.511932 148.0
94.932297 188.0
95.604477 252.0
95.723228 204.0
95.882973 160.0
95.974602 144.0
96.243874 192.0
96.736572 172.0
97.022598 168.0
97.157921 140.0
97.275673 152.0
97.444496 108.0
97.476006 168.0
97.546761 256.0
98.35244 256.0
98.368233 184.0
98.534126 220.0
98.581551 272.0
98.803009 456.0
98.996986 164.0
99.296249 140.0
99.40934 140.0
99.454987 192.0
99.912048 348.0
100.001595 164.0
100.156906 172.0
100.230621 208.0
100.292404 192.0
100.344238 156.0
100.6036 140.0
100.625557 140.0
100.816658 144.0
101.465881 180.0
101.610283 168.0
101.985817 172.0
102.227165 156.0
102.277481 140.0
102.549408 212.0
102.630043 204.0
103.189346 164.0
103.207542 148.0
103.407822 140.0
104.625793 164.0
104.757889 148.0
104.937523 164.0
105.123146 156.0
105.253792 200.0
105.71579 204.0
105.732162 192.0
106.012733 168.0
106.201363 144.0
106.501045 152.0
106.56884 180.0
106.622269 156.0
106.76001 216.0
107.052238 168.0
107.590408 148.0
107.604866 188.0
107.706055 192.0
108.152702 164.0
108.310074 180.0
108.814011 148.0
109.025894 160.0
109.127754 164.0
109.298317 144.0
109.352425 152.0
109.458603 148.0
109.481506 204.0
109.824692 192.0
109.879646 164.0
109.996521 184.0
110.04245 164.0
110.347496 176.0
110.489716 216.0
110.858246 168.0
110.998978 120.0
111.109871 208.0
111.365974 140.0
111.418495 176.0
111.540382 144.0
111.997002 208.0
112.619255 140.0
112.63694 160.0
112.678406 304.0
112.757477 152.0
112.805206 220.0
113.031517 176.0
114.077156 164.0
114.117554 152.0
114.353691 204.0
114.431892 152.0
114.453751 144.0
114.801102 176.0
114.995247 148.0
115.527328 144.0
115.548721 176.0
115.580818 200.0
115.619339 160.0
115.739288 120.0
116.160263 176.0
116.275162 196.0
116.298775 184.0
116.324532 196.0
116.474846 208.0
116.590874 148.0
116.648911 140.0
116.808044 140.0
116.844612 192.0
116.95652 144.0
117.50174 180.0
117.642021 192.0
117.832077 208.0
118.171532 148.0
118.208313 184.0
118.281906 164.0
118.336029 140.0
118.482704 172.0
118.885178 192.0
119.223244 144.0
119.423271 184.0
119.721451 152.0
120.495819 160.0
120.572243 148.0
120.786583 156.0
120.88723 164.0
121.823479 268.0
122.091644 224.0
122.111443 148.0
122.252335 204.0
122.646492 156.0
122.721451 144.0
124.831749 184.0
124.998589 192.0
125.172157 132.0
125.296959 200.0
125.381638 164.0
125.69162 148.0
125.740715 180.0
126.049561 192.0
126.138306 176.0
126.473846 164.0
126.760521 196.0
126.872589 180.0
127.276459 144.0
127.337097 140.0
127.734772 148.0
127.948746 152.0
127.984772 184.0
128.077103 168.0
128.146942 180.0
128.196518 140.0
128.401672 140.0
128.705856 132.0
128.794418 236.0
128.977448 184.0
129.15834 176.0
129.280518 172.0
129.348709 96.0
129.729004 144.0
130.080627 156.0
130.212326 160.0
130.257751 144.0
130.339554 200.0
130.578262 208.0
131.003922 148.0
131.254639 140.0
131.270599 168.0
131.84819 144.0
131.899933 164.0
132.291931 180.0
132.307968 148.0
132.436203 156.0
132.587418 196.0
133.076035 220.0
133.593155 264.0
133.705902 156.0
133.751938 184.0
133.871658 196.0
133.929245 180.0
134.023697 204.0
134.140808 168.0
134.773621 160.0
135.158127 184.0
135.238464 200.0
135.273193 172.0
135.571991 180.0
136.149658 216.0
136.230957 168.0
136.354797 164.0
136.388977 152.0
136.56337 144.0
136.681183 208.0
136.702957 164.0
136.742523 176.0
136.910156 196.0
137.28537 176.0
137.565369 148.0
137.70314 152.0
137.757645 228.0
137.987091 368.0
138.126205 164.0
138.189377 164.0
138.428146 164.0
138.622574 204.0
138.672211 160.0
138.838531 144.0
138.883575 188.0
138.918106 144.0
138.963272 176.0
138.995148 49736.0
139.103119 184.0
139.274811 192.0
139.329224 176.0
139.514511 184.0
139.766403 248.0
139.998047 3756.0
140.201843 216.0
140.730255 160.0
140.93486 128.0
140.991714 11264.0
141.055161 116.0
141.134308 212.0
141.269775 156.0
141.4608 156.0
141.598145 164.0
141.801895 168.0
141.994934 1024.0
142.064056 328.0
142.187531 128.0
142.226471 144.0
142.568497 148.0
142.613647 144.0
142.925201 140.0
142.998978 164.0
143.116684 152.0
143.574936 156.0
143.827667 156.0
143.983658 152.0
144.248093 108.0
144.396271 188.0
144.636414 208.0
144.705841 180.0
145.002884 164.0
145.058075 160.0
145.153915 224.0
145.197083 180.0
145.259445 204.0
145.471588 252.0
145.814117 156.0
146.609802 148.0
146.984543 180.0
147.015915 204.0
147.881165 172.0
148.077271 152.0
148.116028 176.0
148.183868 236.0
148.414139 180.0
148.768356 160.0
148.838776 200.0
149.026688 188.0
149.086563 156.0
150.338333 148.0
150.531189 152.0
150.552521 224.0
150.892838 172.0
151.519394 148.0
151.865036 216.0
152.139877 184.0
152.19635 168.0
152.6362 212.0
152.788696 164.0
153.010208 200.0
153.032364 160.0
153.054977 472.0
153.556442 144.0
153.652023 136.0
153.980789 324.0
154.265961 216.0
154.389587 180.0
154.542953 156.0
154.716202 148.0
154.91185 268.0
154.990204 8508.0
155.053085 184.0
155.10762 140.0
155.827332 240.0
155.946609 236.0
155.993179 524.0
156.031128 184.0
156.344559 148.0
156.53624 148.0
156.610962 152.0
156.98645 2440.0
157.63887 208.0
157.743851 196.0
157.923889 196.0
157.988342 160.0
158.144073 144.0
159.04895 200.0
159.114227 156.0
159.334625 180.0
159.445816 140.0
159.594131 152.0
159.654877 200.0
159.833084 260.0
160.074753 148.0
160.170456 140.0
160.566177 184.0
160.684738 172.0
160.96492 212.0
161.002808 148.0
161.865158 188.0
162.273117 204.0
162.318756 156.0
162.35173 168.0
162.679718 168.0
162.938095 212.0
163.019409 252.0
163.42627 144.0
164.094635 224.0
164.463501 144.0
164.777618 184.0
164.941177 164.0
165.145737 140.0
165.342758 144.0
165.670517 180.0
165.711502 148.0
165.901154 188.0
165.972946 156.0
166.189926 196.0
166.370636 164.0
166.819183 188.0
166.86145 204.0
166.923065 156.0
167.136566 180.0
167.216354 156.0
167.278122 160.0
167.906845 164.0
168.064209 296.0
168.193253 148.0
168.71405 232.0
168.932312 140.0
169.043564 176.0
169.077789 1256.0
169.289505 152.0
169.934174 120.0
169.978226 540.0
170.059464 364.0
170.098465 220.0
170.345154 156.0
170.397034 132.0
170.977463 156.0
171.066452 432.0
171.271301 132.0
171.711716 168.0
171.74823 156.0
172.296448 140.0
172.314743 140.0
172.387894 160.0
172.589188 216.0
172.8246 160.0
173.048065 224.0
173.400726 200.0
173.550156 172.0
173.581619 148.0
173.956818 140.0
174.332428 208.0
174.513504 176.0
174.858414 180.0
174.913696 344.0
175.221817 160.0
175.256073 160.0
175.314041 172.0
175.345673 216.0
175.446548 180.0
176.269348 144.0
176.47818 248.0
177.032288 468.0
177.105392 156.0
177.139832 200.0
177.296158 276.0
178.035507 328.0
178.100098 148.0
178.200958 124.0
178.378189 104.0
178.698257 180.0
179.030334 232.0
179.196152 188.0
179.446686 180.0
180.320908 248.0
180.373077 160.0
181.355453 180.0
181.446609 176.0
181.818359 184.0
182.181961 160.0
182.430984 176.0
182.614746 148.0
182.975342 140.0
183.010803 420.0
183.436035 172.0
184.415894 168.0
184.705215 144.0
185.509491 164.0
186.103668 148.0
186.345398 148.0
186.591324 112.0
186.965408 164.0
187.477905 172.0
187.75708 164.0
187.842773 220.0
187.880966 168.0
188.026596 3964.0
188.088364 160.0
188.216675 140.0
188.334122 140.0
188.496262 264.0
188.692108 140.0
188.864395 176.0
189.029663 612.0
189.908005 140.0
190.023499 968.0
190.553131 176.0
190.833481 176.0
190.996185 148.0
191.02388 140.0
191.0522 152.0
191.819092 144.0
192.268692 140.0
192.532578 228.0
192.619354 176.0
192.983932 184.0
193.424057 148.0
193.62471 136.0
194.01413 164.0
194.485718 152.0
194.763382 144.0
194.82251 200.0
194.971771 188.0
195.205292 196.0
195.297073 140.0
195.455658 176.0
196.396439 152.0
197.089691 144.0
197.151184 164.0
197.27417 184.0
197.36763 140.0
197.418533 124.0
197.467102 168.0
197.517456 188.0
197.549561 128.0
197.611938 124.0
197.685333 152.0
197.777695 156.0
197.951279 188.0
198.377228 172.0
198.421661 128.0
198.713715 208.0
198.859634 164.0
199.047577 148.0
199.202209 152.0
199.51416 184.0
199.621002 152.0
199.672287 188.0
199.719437 204.0
199.817902 148.0
200.691055 164.0
200.960449 180.0
201.098679 128.0
201.340103 140.0
201.636749 144.0
201.916656 196.0
201.997635 204.0
202.213745 168.0
202.64418 188.0
203.035461 412.0
203.591629 156.0
203.928268 140.0
204.044708 4876.0
204.103149 176.0
204.185623 164.0
205.030624 644.0
205.046341 1072.0
205.13382 172.0
205.336273 176.0
205.727188 152.0
205.847122 144.0
206.037903 3112.0
206.077042 288.0
206.232819 200.0
206.341446 180.0
206.601135 120.0
206.690399 176.0
206.719025 272.0
206.890762 156.0
207.043915 472.0
207.179459 136.0
207.268829 228.0
207.584152 184.0
207.625931 176.0
208.03389 260.0
208.149475 180.0
208.520081 240.0
209.033112 164.0
209.380341 164.0
209.705917 184.0
209.948105 164.0
209.993149 180.0
210.793961 196.0
211.013641 164.0
211.265259 228.0
211.476501 180.0
211.572021 148.0
211.598083 148.0
212.354431 172.0
212.455963 156.0
212.737457 152.0
213.068542 168.0
213.248703 144.0
213.548187 156.0
213.670364 216.0
214.52951 140.0
214.724884 144.0
214.762802 176.0
214.85907 168.0
214.926178 188.0
215.536301 144.0
215.72937 156.0
215.76445 180.0
215.997986 168.0
216.293961 172.0
216.595566 140.0
216.657089 172.0
216.724899 168.0
216.912048 184.0
216.971573 15956.0
217.020065 128.0
217.152481 224.0
217.191193 180.0
217.240067 176.0
217.395752 96.0
217.887421 100.0
217.976181 1896.0
218.456711 164.0
218.827545 172.0
218.892319 152.0
218.968307 3844.0
219.051941 244.0
219.66748 216.0
219.722061 128.0
219.972076 604.0
220.016129 628.0
220.503128 208.0
220.642059 176.0
220.775986 204.0
220.806274 120.0
220.960922 128.0
221.02475 212.0
221.159744 204.0
221.189346 160.0
221.491394 276.0
221.772995 112.0
222.010544 168.0
222.030838 412.0
222.375015 196.0
222.801056 220.0
223.013611 212.0
223.891312 152.0
223.918121 236.0
224.192215 140.0
224.697754 180.0
224.922958 164.0
225.099121 140.0
225.675827 220.0
225.924072 220.0
226.178436 196.0
226.343109 160.0
226.588715 148.0
226.789505 144.0
227.200333 196.0
227.263336 144.0
227.314346 148.0
227.549805 156.0
227.581512 164.0
228.477173 144.0
228.666763 200.0
228.79921 176.0
230.095627 140.0
230.159042 216.0
231.031174 2240.0
231.122482 268.0
231.453247 148.0
231.482101 188.0
231.541061 144.0
231.648178 132.0
232.033524 740.0
232.240692 164.0
232.614456 176.0
232.701477 300.0
232.769897 100.0
232.864227 200.0
233.027054 608.0
233.118652 168.0
233.926132 100.0
234.089081 124.0
234.611832 220.0
234.671097 164.0
234.69548 148.0
234.7845 188.0
234.945755 144.0
235.032806 136.0
235.229401 156.0
235.470627 148.0
235.550049 224.0
235.656967 148.0
235.942612 192.0
236.225632 152.0
236.372498 204.0
236.586746 172.0
236.87767 156.0
237.037003 176.0
237.383911 168.0
237.837479 140.0
238.166031 208.0
238.307358 164.0
238.993042 224.0
239.596512 140.0
239.95575 172.0
240.132889 148.0
240.228516 168.0
240.287125 196.0
240.478455 152.0
240.611191 196.0
241.074524 140.0
241.559967 164.0
241.659073 124.0
242.014923 160.0
242.104721 144.0
242.19455 148.0
242.21933 152.0
242.603592 168.0
242.730713 140.0
242.829956 244.0
242.891998 228.0
243.09259 464.0
243.188705 148.0
243.329575 248.0
243.366837 140.0
244.092575 244.0
244.286804 168.0
244.644684 140.0
245.105652 212.0
245.432953 160.0
245.729874 208.0
245.809525 128.0
246.047623 236.0
246.072601 144.0
246.206558 204.0
246.47081 180.0
246.700562 248.0
247.482742 168.0
247.541824 148.0
247.564407 208.0
247.592346 148.0
247.676926 160.0
247.78656 148.0
248.376556 164.0
249.30217 152.0
250.252151 144.0
250.356079 160.0
250.790863 164.0
251.08725 188.0
251.825806 172.0
252.103836 140.0
252.144501 120.0
252.286743 184.0
252.372528 188.0
252.496933 212.0
252.608093 108.0
253.581848 164.0
253.703613 164.0
253.917923 168.0
254.000397 216.0
254.254227 172.0
254.822006 140.0
254.887177 168.0
255.108688 164.0
255.652588 180.0
255.72261 216.0
255.91214 176.0
255.974121 184.0
256.154022 244.0
256.448822 144.0
257.071716 208.0
258.073792 164.0
258.200836 196.0
258.236877 188.0
258.395294 184.0
258.886566 148.0
259.140625 144.0
259.186462 172.0
259.226166 184.0
259.482208 140.0
260.226959 172.0
261.124481 164.0
261.18689 168.0
261.599762 144.0
262.047455 156.0
262.420776 232.0
263.441193 148.0
263.487244 152.0
263.57724 188.0
263.761108 196.0
263.838715 224.0
263.907104 128.0
264.052124 148.0
264.210632 204.0
264.482452 164.0
264.683197 236.0
264.916382 168.0
265.117279 168.0
265.224243 164.0
265.368378 232.0
265.544861 172.0
265.597473 116.0
266.236542 148.0
266.396637 180.0
266.483429 164.0
266.66217 172.0
267.231262 188.0
267.298828 120.0
267.36142 152.0
267.459076 152.0
267.976868 156.0
268.320129 128.0
268.377808 228.0
268.456055 172.0
268.527802 172.0
268.730072 160.0
268.883453 148.0
269.454895 144.0
269.57254 164.0
269.785431 116.0
270.200348 180.0
270.399963 152.0
270.922211 136.0
271.002625 112.0
271.086243 284.0
272.046753 136.0
272.088196 196.0
272.285187 176.0
272.672882 160.0
273.319275 172.0
273.596985 184.0
273.755249 140.0
274.331879 192.0
274.422211 180.0
274.757324 148.0
275.077057 108.0
275.140167 168.0
275.764496 160.0
275.931 140.0
276.022369 180.0
276.081879 152.0
276.240662 144.0
276.935944 172.0
276.994568 140.0
277.054535 512.0
277.10144 172.0
277.250549 160.0
277.456055 224.0
277.559875 116.0
277.771118 140.0
277.880585 152.0
278.016663 212.0
278.05603 152.0
278.31543 200.0
278.429138 164.0
278.743927 144.0
278.820435 156.0
278.856934 140.0
278.976593 196.0
279.067474 1680.0
279.121857 176.0
279.382324 160.0
279.438873 164.0
279.508759 176.0
279.585938 168.0
279.859863 108.0
279.95816 140.0
280.067505 596.0
280.204651 372.0
280.993317 128.0
281.062408 748.0
281.428741 144.0
281.808624 104.0
281.991486 180.0
282.076782 120.0
282.44809 144.0
282.685638 176.0
282.789368 144.0
283.274902 140.0
283.467194 164.0
283.522675 140.0
284.542633 220.0
285.043091 180.0
285.092773 128.0
285.581024 164.0
285.715576 164.0
286.06366 308.0
286.373383 152.0
287.774475 152.0
287.916718 156.0
287.991028 160.0
288.045074 144.0
288.467499 188.0
288.582458 208.0
288.765961 148.0
288.920654 204.0
289.118347 144.0
289.323395 176.0
289.465607 204.0
289.519806 240.0
289.623688 340.0
289.746765 160.0
290.006805 108.0
290.057281 140.0
290.15686 148.0
290.317596 128.0
290.584198 168.0
290.994873 148.0
292.113007 200.0
292.306946 156.0
292.477112 176.0
292.616699 176.0
292.970428 156.0
293.039032 228.0
293.13446 176.0
293.325317 168.0
293.381134 192.0
293.642426 152.0
293.799347 192.0
294.021912 212.0
294.053467 112.0
295.760864 292.0
295.810638 176.0
295.986847 176.0
296.387634 148.0
296.569244 156.0
296.812469 132.0
297.013245 184.0
297.049316 172.0
297.121368 188.0
297.148804 160.0
297.365021 236.0
297.574432 240.0
297.859467 152.0
298.048431 136.0
298.484985 148.0
298.711548 140.0
298.828949 144.0
298.968384 256.0
299.027588 100.0
299.162811 144.0
299.383179 168.0
299.57605 140.0
299.70697 160.0
299.831055 152.0
300.023315 148.0
300.68222 200.0
300.865875 156.0
301.187042 160.0
301.318298 188.0
301.518738 144.0
301.756561 160.0
302.303802 156.0
302.369537 168.0
302.643036 168.0
302.715759 172.0
303.069946 204.0
303.103729 184.0
303.609863 208.0
303.897797 232.0
303.984528 176.0
304.088654 156.0
304.123352 140.0
304.262238 216.0
304.38028 152.0
304.443115 124.0
304.741516 160.0
304.984802 184.0
305.047058 516.0
305.478577 176.0
305.70639 172.0
306.05423 2876.0
306.146881 168.0
306.181702 220.0
306.307098 152.0
306.857727 144.0
306.90213 164.0
306.951874 148.0
307.060699 1852.0
307.265808 140.0
307.813812 188.0
308.04715 560.0
308.214417 140.0
308.715424 164.0
308.914795 208.0
309.062561 308.0
309.264709 180.0
309.670105 160.0
309.856537 144.0
310.054382 640.0
310.135529 152.0
310.535797 120.0
310.757629 156.0
310.888367 140.0
311.017334 188.0
311.054443 428.0
311.228241 272.0
311.389526 184.0
311.537048 168.0
311.681091 152.0
311.818176 204.0
312.04834 156.0
312.278748 332.0
312.451141 176.0
312.940369 152.0
313.028625 4052.0
313.243225 148.0
313.580231 300.0
313.759766 168.0
313.835327 148.0
313.976379 160.0
314.034637 1176.0
314.141327 152.0
314.580933 172.0
314.745697 184.0
314.833984 184.0
314.866852 120.0
314.98526 208.0
315.024475 2856.0
315.484161 192.0
315.62204 176.0
315.710052 108.0
316.029602 404.0
316.11908 192.0
316.594086 188.0
316.671326 244.0
316.782928 188.0
316.991974 156.0
317.024139 112.0
317.392548 176.0
317.444183 108.0
317.479797 160.0
317.541504 176.0
317.765228 188.0
318.029419 152.0
318.28772 120.0
318.684601 160.0
319.027649 184.0
319.182251 152.0
319.236938 168.0
319.681915 164.0
319.829254 168.0
320.032684 156.0
320.067963 136.0
320.556305 180.0
320.698883 148.0
320.761261 128.0
321.041748 248.0
321.119598 200.0
321.351471 140.0
321.708374 168.0
322.05011 424.0
322.137207 152.0
322.23764 104.0
322.379883 260.0
322.511322 124.0
322.866119 156.0
323.080719 160.0
323.294678 236.0
323.333618 160.0
323.370575 156.0
323.520905 208.0
323.717865 140.0
323.74292 160.0
324.022125 520.0
324.108307 152.0
324.319763 176.0
324.44165 184.0
324.502594 244.0
325.023682 292.0
325.112396 172.0
325.284698 148.0
325.679688 148.0
325.795288 160.0
325.887726 132.0
325.976898 268.0
326.021851 244.0
326.161194 148.0
326.542328 140.0
326.574097 168.0
326.984894 132.0
327.022339 116.0
327.885284 164.0
327.976013 200.0
328.104309 184.0
328.15564 312.0
328.224152 320.0
328.278259 152.0
328.476624 164.0
328.801361 160.0
328.839874 180.0
328.94574 204.0
328.979858 160.0
329.017944 180.0
329.213318 188.0
329.39151 172.0
329.454956 200.0
329.555664 164.0
329.996033 252.0
330.025757 168.0
330.783905 168.0
331.208038 156.0
331.309113 196.0
331.791199 128.0
332.391388 188.0
332.888702 160.0
333.12204 116.0
333.324615 156.0
333.913208 164.0
334.157318 236.0
334.725128 196.0
334.929108 188.0
335.026703 240.0
335.122192 140.0
335.259003 204.0
335.588745 140.0
336.024445 140.0
336.095734 196.0
336.577576 176.0
336.650604 248.0
336.818634 220.0
337.670288 156.0
337.783661 192.0
338.043945 1992.0
338.812378 180.0
338.90033 188.0
339.045532 260.0
339.10553 172.0
339.468506 180.0
339.563477 116.0
339.853668 212.0
339.934387 216.0
340.011322 192.0
340.038818 792.0
340.358246 232.0
340.628326 148.0
341.026337 488.0
341.345123 140.0
341.745972 220.0
341.830322 152.0
341.946106 156.0
342.031647 16132.0
342.228149 140.0
342.446503 168.0
342.622253 140.0
342.716217 160.0
342.852875 120.0
343.034454 3604.0
343.145599 184.0
343.442139 280.0
343.52774 124.0
343.563568 200.0
343.901855 184.0
343.979401 148.0
344.030304 12016.0
344.176971 132.0
344.369843 156.0
344.465637 160.0
344.544403 208.0
344.62677 164.0
344.673737 212.0
344.752594 200.0
344.918121 128.0
345.02887 1832.0
345.107697 100.0
345.151276 148.0
345.300507 104.0
345.459961 132.0
345.505676 164.0
345.694366 212.0
345.723969 176.0
345.753601 156.0
345.896667 140.0
345.976593 144.0
346.02832 1056.0
346.495178 164.0
346.692993 128.0
347.005402 160.0
347.220734 200.0
347.840393 144.0
348.204285 140.0
348.28598 164.0
348.468353 192.0
348.510895 156.0
348.572083 184.0
349.036743 140.0
349.520325 156.0
350.011658 172.0
350.510834 372.0
350.644989 148.0
350.868652 272.0
351.002869 236.0
351.08374 100.0
351.260223 200.0
351.38974 196.0
351.764679 228.0
351.89093 148.0
351.943207 164.0
352.01416 204.0
352.226288 368.0
352.376495 140.0
352.731537 164.0
352.824982 152.0
352.925934 152.0
353.232635 180.0
353.981171 212.0
354.22464 148.0
354.615356 152.0
354.726776 168.0
354.760529 148.0
355.053009 140.0
355.465668 140.0
355.929443 188.0
356.007935 312.0
356.092072 136.0
356.160248 164.0
356.21051 136.0
356.73056 140.0
356.802856 152.0
357.017731 3308.0
357.418335 120.0
358.010437 420.0
358.521545 144.0
358.687988 108.0
358.889648 200.0
359.015961 2048.0
359.258392 144.0
359.382874 172.0
359.764099 200.0
359.956635 236.0
360.016052 444.0
360.419708 192.0
360.470398 156.0
360.655609 152.0
361.04126 232.0
361.878754 212.0
362.070679 200.0
362.218384 240.0
362.248688 140.0
363.050018 184.0
363.247528 152.0
363.405487 104.0
363.560608 192.0
363.626862 168.0
363.843109 172.0
364.04657 216.0
364.494812 188.0
364.75708 156.0
364.787476 184.0
365.027893 172.0
365.730865 144.0
365.761322 148.0
365.982117 164.0
366.355377 160.0
366.509155 156.0
366.770752 164.0
366.826935 136.0
366.930878 156.0
367.01474 300.0
367.12915 144.0
367.31604 152.0
367.407593 216.0
367.896118 148.0
367.976288 168.0
368.205414 188.0
368.415497 164.0
368.541199 120.0
368.97348 180.0
369.122589 164.0
369.155884 164.0
369.355896 196.0
369.612244 164.0
369.696442 140.0
370.01413 144.0
370.286011 172.0
370.692108 148.0
370.929749 192.0
371.417297 112.0
372.122894 152.0
372.606842 160.0
372.67215 152.0
372.916718 112.0
373.125916 272.0
373.268646 132.0
373.565887 156.0
373.594879 140.0
373.674408 132.0
373.73114 212.0
373.77829 256.0
373.91394 192.0
374.021393 34308.0
374.110199 296.0
374.144318 184.0
374.190369 136.0
374.298248 136.0
374.497864 112.0
374.640411 152.0
374.75119 156.0
374.805573 156.0
374.95639 220.0
375.024628 6536.0
375.102325 208.0
375.366394 176.0
375.456238 144.0
375.533875 116.0
375.657379 192.0
375.803894 136.0
375.846771 96.0
375.958282 412.0
376.019135 20288.0
376.079559 156.0
376.181976 140.0
376.24295 224.0
376.6828 184.0
376.783508 112.0
376.923157 112.0
377.022461 3356.0
377.220062 140.0
377.300018 112.0
377.396393 100.0
377.448059 160.0
377.676239 160.0
377.863434 176.0
377.959381 232.0
378.020081 1044.0
378.570282 148.0
378.726959 160.0
378.772736 208.0
379.067169 152.0
379.139801 160.0
379.228943 200.0
379.748505 148.0
379.874817 184.0
379.957977 180.0
380.493378 164.0
380.998474 140.0
381.15387 180.0
381.235504 140.0
381.332642 148.0
381.789856 128.0
381.826447 176.0
382.1586 220.0
382.834412 168.0
382.873352 132.0
383.387634 176.0
383.473358 172.0
383.617584 184.0
384.253296 152.0
384.346954 160.0
384.421326 172.0
384.59671 148.0
385.040802 700.0
385.340668 128.0
385.635712 144.0
385.694336 160.0
385.735962 192.0
386.036987 304.0
386.155731 156.0
386.593933 140.0
387.032684 236.0
387.263428 212.0
387.322174 184.0
387.753174 196.0
388.031494 256.0
388.255035 184.0
388.494293 192.0
388.549225 168.0
388.619843 184.0
389.035858 220.0
389.295013 144.0
389.401062 168.0
389.552704 124.0
389.61319 152.0
389.812927 192.0
389.845001 168.0
389.995544 456.0
390.218445 172.0
390.584717 232.0
390.981323 248.0
391.139526 124.0
391.257111 152.0
391.631226 184.0
391.999664 156.0
392.048126 156.0
392.350403 144.0
392.48645 140.0
393.004608 120.0
393.295563 132.0
393.405731 184.0
393.500488 180.0
393.746429 184.0
393.816437 216.0
393.857025 156.0
394.011475 116.0
394.270782 184.0
394.476318 140.0
394.515869 148.0
394.555389 172.0
394.59494 140.0
394.91922 144.0
395.090698 264.0
395.208008 156.0
395.938293 216.0
396.223297 216.0
396.80423 144.0
396.847839 176.0
397.905304 100.0
398.181213 212.0
398.255066 172.0
398.462708 176.0
398.499023 176.0
399.24408 176.0
399.298035 168.0
399.560577 156.0
399.777557 168.0
399.84613 180.0
399.994354 144.0
400.042145 188.0
400.101868 152.0
400.480164 192.0
400.633759 188.0
400.757019 124.0
400.930389 216.0
401.011749 156.0
401.097778 164.0
401.153595 156.0
401.462433 124.0
401.638763 168.0
401.875488 172.0
401.92337 188.0
402.007172 160.0
402.418304 180.0
402.616699 176.0
402.649933 168.0
402.681885 160.0
402.709839 160.0
403.003876 2424.0
403.141327 220.0
403.55307 172.0
403.830109 204.0
404.008118 552.0
404.786682 192.0
404.838165 132.0
405.00119 1820.0
405.449554 172.0
406.002228 200.0
406.132141 148.0
406.180267 168.0
406.221313 156.0
406.41925 148.0
406.823914 124.0
407.013092 128.0
407.067291 192.0
407.147614 148.0
407.798492 140.0
407.87854 196.0
408.981049 180.0
409.231201 144.0
409.278961 156.0
409.485718 100.0
409.568939 168.0
409.950867 204.0
410.806488 156.0
410.994293 176.0
411.546295 184.0
411.928741 144.0
412.017639 148.0
412.09845 148.0
412.312622 156.0
412.342682 108.0
412.474304 140.0
412.708771 164.0
412.822021 244.0
413.012115 160.0
413.27774 196.0
413.351959 236.0
413.824921 224.0
413.971313 180.0
414.522247 180.0
414.586517 140.0
414.633484 180.0
414.693024 176.0
415.243896 196.0
415.381165 176.0
415.425812 104.0
415.70639 140.0
416.136688 156.0
416.197571 228.0
416.331604 172.0
416.751434 172.0
416.803131 168.0
416.891876 180.0
416.916138 100.0
417.180817 164.0
417.215851 200.0
417.304291 164.0
417.884705 172.0
417.92746 132.0
418.287323 212.0
418.442047 220.0
418.475952 200.0
418.802856 100.0
418.894104 196.0
419.02243 176.0
419.278961 176.0
419.351898 136.0
419.483826 216.0
419.543304 260.0
419.617798 152.0
419.658386 328.0
419.703979 164.0
419.759949 216.0
419.80835 216.0
419.836304 220.0
419.886475 120.0
419.999237 360.0
420.07312 256.0
420.140503 184.0
420.174194 220.0
420.222412 276.0
420.251801 344.0
420.331726 356.0
420.369446 396.0
420.421722 264.0
420.523376 268.0
420.57959 200.0
420.68631 100.0
420.768097 500.0
420.811584 412.0
420.873169 408.0
421.019165 249212.0
421.112366 128.0
421.156891 216.0
421.269836 240.0
421.304382 280.0
421.384308 224.0
421.453522 592.0
421.498932 352.0
421.581024 148.0
421.63681 372.0
421.691895 3684.0
421.798706 344.0
421.825867 368.0
421.8992 244.0
421.945312 296.0
422.021179 80036.0
422.119598 416.0
422.147766 356.0
422.185638 204.0
422.243378 164.0
422.25473 188.0
422.352936 224.0
422.389252 176.0
422.429504 100.0
422.476959 324.0
422.522217 232.0
422.580597 692.0
422.622101 120.0
422.69104 284.0
422.724884 272.0
422.772675 284.0
422.814026 404.0
422.851746 476.0
422.893097 416.0
422.921906 440.0
423.016296 207076.0
423.121826 232.0
423.177856 140.0
423.229248 100.0
423.283722 156.0
423.315704 144.0
423.372803 228.0
423.417725 336.0
423.510956 228.0
423.613434 364.0
423.64093 160.0
423.691437 1308.0
423.829681 232.0
423.901825 144.0
423.956421 212.0
424.017517 35804.0
424.102905 268.0
424.136536 180.0
424.187744 252.0
424.238495 192.0
424.337677 368.0
424.365326 580.0
424.402832 560.0
424.446838 320.0
424.547607 188.0
424.619537 136.0
424.658478 220.0
424.702637 192.0
424.776581 200.0
424.9039 164.0
424.943298 256.0
425.01123 10880.0
425.109283 240.0
425.149963 212.0
425.27594 148.0
425.325439 164.0
425.370575 160.0
425.445557 148.0
425.484528 164.0
425.548553 112.0
425.604065 160.0
425.69104 248.0
425.731079 160.0
425.760803 224.0
425.796234 128.0
425.879211 120.0
425.988281 104.0
426.019989 132.0
426.0672 100.0
426.099213 232.0
426.24173 232.0
426.313721 164.0
426.374878 172.0
426.418457 108.0
426.450317 276.0
426.499268 160.0
426.536346 240.0
426.635101 272.0
426.674652 224.0
426.719452 272.0
426.757507 340.0
426.799377 124.0
426.876373 140.0
426.939514 112.0
427.044861 240.0
427.460205 120.0
427.60791 116.0
427.672638 152.0
427.779205 120.0
427.868988 192.0
428.146942 96.0
428.408142 108.0
428.474854 120.0
428.698914 152.0
429.16687 112.0
430.979889 100.0
432.339081 100.0
434.130341 96.0
435.85968 120.0
436.047241 112.0
436.477661 172.0
437.255615 144.0
437.499298 104.0
438.657013 100.0
439.032471 180.0
440.033722 168.0
441.030121 144.0
442.085907 128.0
443.016968 156.0
465.871429 120.0
474.618011 140.0
474.791473 144.0
480.830292 164.0
500.91153 156.0
501.744904 244.0
580.423157 100.0
585.790466 112.0
598.959106 180.0
601.030396 136.0
601.299561 140.0
686.112854 176.0
819.087524 140.0
826.538208 148.0
934.487244 144.0
1115.287842 196.0
1127.819336 152.0
1137.800903 176.0
1149.330688 172.0
1149.836914 192.0
1176.548462 152.0
1206.523926 180.0
1238.129883 184.0
1239.699219 168.0
1248.376221 212.0
1254.819214 176.0
1262.106934 120.0
1264.228149 148.0
1276.18811 164.0
1291.478394 176.0
1301.081055 196.0
1303.580688 148.0
1304.953613 144.0
1322.360962 172.0
1328.208374 140.0
1341.742065 236.0
1344.740234 176.0
1388.571045 184.0
1411.187378 228.0
1417.640015 236.0
1420.706665 160.0
1421.021851 192.0
1422.62793 144.0
1437.817871 172.0
1441.465576 144.0
1443.219238 172.0
1461.667236 140.0
1464.286011 144.0
1464.788818 164.0
1465.64209 140.0
1466.000244 180.0
1476.390625 152.0
1483.128296 152.0
1484.431641 164.0
1486.065552 152.0
1488.322266 156.0
1491.364502 152.0
1491.656616 168.0
1501.504761 216.0
1503.05542 148.0
1523.379639 184.0
1524.164429 172.0
1540.284058 164.0
1542.268799 148.0
1550.299072 160.0
1559.277466 160.0
1567.40686 204.0
1571.025879 160.0
1597.104248 200.0
1601.838501 124.0
1606.400391 144.0
1609.664795 232.0
1611.454102 184.0
1612.596802 172.0
1617.332031 144.0
1618.180664 152.0
1625.868164 168.0
1630.799561 140.0
1633.992188 192.0
1638.589478 212.0
1638.87146 164.0
1653.625854 168.0
1654.783447 160.0
1655.22876 176.0
1656.257446 184.0
1656.686768 204.0
1657.278198 144.0
1660.383057 176.0
1661.234741 208.0
1661.989258 188.0
1675.535156 172.0
1677.53186 140.0
1677.62146 176.0
1679.227905 152.0
1687.148804 180.0
1692.991089 140.0
1702.635864 160.0
1709.780273 212.0
1710.027222 156.0
1711.377319 204.0
1712.036133 164.0
1712.283203 144.0
1716.997559 140.0
1717.937866 244.0
1721.982544 160.0
1723.039917 152.0
1727.860107 140.0
1730.309937 148.0
1744.371948 144.0
1745.910156 168.0
1750.25415 160.0
1751.869873 208.0
1752.6698 264.0
1755.845947 176.0
1764.396729 156.0
1769.466919 168.0
1770.044678 148.0
1773.479614 168.0
1781.098633 184.0
1785.982422 200.0
1786.377808 144.0
1791.327759 172.0
1792.921997 200.0
1795.424194 168.0
1796.984741 196.0
1797.102905 208.0
1800.006592 216.0
1807.335449 196.0
1814.56897 148.0
1819.60022 180.0
1819.905884 228.0
1825.684326 152.0
1830.049805 148.0
1831.557251 188.0
1832.272827 176.0
1842.348511 212.0
1845.519409 144.0
1846.554199 148.0
1846.887817 212.0
1847.768921 204.0
1848.6427 184.0
1850.199585 228.0
1851.595337 168.0
1856.137451 164.0
1859.84375 176.0
1863.347534 220.0
1867.75769 200.0
1868.996582 172.0
1877.32666 168.0
1879.612671 140.0
1882.530518 168.0
1882.96228 168.0
1884.741943 200.0
1888.009644 144.0
1889.696533 152.0
1891.825562 164.0
1892.942505 160.0
1895.593262 188.0
1902.410767 204.0
1902.888306 144.0
1905.120239 176.0
1905.902222 148.0
1908.840332 180.0
1909.142822 192.0
1918.348267 140.0
1924.927002 196.0
1926.62146 160.0
1927.049561 192.0
1927.949707 156.0
1928.727539 152.0
1932.15564 188.0
1935.691895 152.0
1939.51709 176.0
1941.282837 184.0
1942.159912 188.0
1943.546021 204.0
1946.170532 140.0
1947.619629 168.0
1952.075684 208.0
1952.85437 168.0
1961.434814 156.0
1966.524414 204.0
1975.334229 160.0
1975.909302 180.0
1977.316284 200.0
1980.069702 200.0
1981.894653 224.0
1989.815308 168.0
1990.694458 152.0
1990.880859 144.0
1991.84021 168.0
1992.213257 176.0
1992.293213 220.0
1996.408691 168.0
2002.469604 176.0
2003.048584 168.0
