>compound MDV3100 (Enzalutamide)
>formula C21H16F4N4O2S
>ionization [M+H]+
>parentmass 465.101807
#inchi InChI=1S/C21H16F4N4O2S/c1-20(2)18(31)28(12-5-4-11(10-26)15(8-12)21(23,24)25)19(32)29(20)13-6-7-14(16(22)9-13)17(30)27-3/h4-9H,1-3H3,(H,27,30)
#inchikey WXCXUHSOUPDCQV
#Ion_Source LC-ESI
#Instrument qTof
#Compound_Source Commercial
#PI Dorrestein
#Data_Collector Garg_Neha
#Scan -1
#Precursor_MZ 465.1
#ExactMass 464.093
#Charge 1
#CAS_Number 915087-33-1
#Pubmed_ID N/A
#Smiles C1(=C(C=CC(=C1)N2C(N(C(C2(C)C)=O)C3=CC=C(C(=C3)C(F)(F)F)C#N)=S)C(NC)=O)F
#INCHI_AUX N/A
#Library_Class 1
#SpectrumID CCMSLIB00000078067
#IonMode Positive
#UpdateWorkflowName UPDATE-SINGLE-ANNOTATED-GOLD
#LibraryQualityString Gold
#TaskID 77f51c88eb8b467eb4a01dd2d0cb90d2
##Scan# 1723
#SpectrumFile Plate1_61_88_GG4_01_16491.mzXML
#LibraryName FDALibrary_2_04302014.mgf
#MQScore -1
#Organism FDALibrary_2_04302014
#TIC_Query 0
#RT_Query -1
#MZErrorPPM -1
#SharedPeaks 0
#MassDiff 0
#LibMZ -1
#SpecMZ 465.1
#SpecCharge 0
#internalFilename spec-00000.mgf

>collision 10
45.632359 152.0
45.946167 160.0
46.353157 172.0
46.939041 144.0
47.62059 164.0
47.982502 184.0
48.237904 164.0
48.745178 140.0
49.054165 188.0
49.725574 148.0
52.981445 184.0
53.221142 152.0
54.25082 216.0
54.62088 180.0
54.648834 180.0
55.615345 232.0
56.037689 140.0
56.239014 172.0
56.358486 184.0
56.924713 156.0
57.084003 144.0
57.226952 152.0
59.055672 228.0
60.02784 176.0
61.161953 196.0
61.25071 188.0
61.797119 216.0
62.308247 144.0
62.388397 160.0
62.484333 168.0
63.585747 144.0
63.873341 152.0
64.991692 240.0
65.681877 148.0
65.977402 220.0
66.15374 160.0
66.194214 204.0
66.447075 144.0
67.009628 140.0
69.774796 244.0
70.18605 152.0
70.406326 148.0
72.877647 168.0
73.733109 152.0
74.207283 168.0
76.299889 144.0
77.166405 212.0
78.657951 160.0
78.695023 196.0
78.770966 148.0
79.632378 192.0
79.656693 168.0
80.138824 168.0
80.588463 140.0
80.663521 196.0
81.565186 188.0
81.649696 176.0
82.145027 208.0
84.166908 212.0
84.281189 156.0
85.058517 216.0
86.06189 172.0
86.174561 164.0
87.713074 160.0
88.477135 144.0
88.587624 164.0
88.966446 188.0
90.844208 156.0
90.90303 164.0
90.942886 208.0
91.349525 196.0
92.343323 144.0
92.66301 156.0
95.005508 208.0
95.031654 192.0
95.184074 156.0
96.095024 200.0
96.681252 268.0
96.863342 168.0
96.97699 176.0
97.389038 228.0
98.628441 160.0
99.363144 212.0
103.05735 172.0
104.114777 164.0
105.469704 164.0
106.590767 192.0
107.346252 144.0
107.589729 164.0
108.3881 144.0
110.085571 160.0
111.632141 164.0
112.056137 396.0
112.635384 156.0
113.189499 192.0
113.655846 160.0
113.936104 192.0
115.058479 148.0
115.946198 196.0
116.038376 168.0
117.05687 168.0
118.231262 192.0
119.150665 160.0
120.76162 188.0
121.013283 164.0
121.127167 208.0
121.405525 216.0
121.576645 240.0
122.007164 172.0
122.696266 140.0
123.027191 212.0
123.606277 160.0
124.058105 172.0
126.296082 188.0
128.125641 240.0
128.387115 224.0
130.306686 164.0
131.030182 140.0
131.588974 232.0
132.075745 164.0
132.091751 204.0
133.042786 140.0
133.994934 152.0
134.041016 144.0
134.488434 156.0
135.049469 148.0
136.018005 176.0
136.055252 360.0
137.036301 576.0
137.288864 208.0
139.052902 160.0
139.153839 140.0
140.04747 184.0
140.393921 144.0
142.021759 124.0
143.002457 180.0
146.094131 152.0
146.204819 156.0
146.402222 156.0
147.321213 196.0
147.785416 184.0
148.056534 172.0
149.064178 188.0
149.754242 172.0
150.067993 176.0
150.153961 240.0
151.013687 144.0
151.038101 340.0
151.993637 172.0
152.052536 328.0
152.087097 5176.0
152.381592 160.0
152.826614 156.0
153.055252 172.0
153.089447 620.0
153.186066 276.0
154.353485 196.0
154.457367 200.0
154.709778 248.0
154.995636 500.0
155.329315 196.0
155.571762 288.0
155.758759 188.0
156.028137 4248.0
156.52478 180.0
156.619415 232.0
157.02861 588.0
158.023056 324.0
159.032333 144.0
159.492004 168.0
159.534729 172.0
160.010056 232.0
160.511642 236.0
160.83963 184.0
162.258835 168.0
163.299988 168.0
163.877853 152.0
164.020569 176.0
164.058807 220.0
164.107254 152.0
166.009735 160.0
166.690018 200.0
167.0354 316.0
167.688553 212.0
167.781357 140.0
168.02121 144.0
169.248917 176.0
170.028427 204.0
170.242111 180.0
171.03334 244.0
171.423157 176.0
174.015381 172.0
175.969009 208.0
176.02446 276.0
176.322983 224.0
176.410217 168.0
176.926086 144.0
176.955215 160.0
177.699997 208.0
177.815674 188.0
177.957443 140.0
178.020004 244.0
178.066971 13464.0
178.217743 212.0
178.267105 104.0
178.624512 168.0
179.069 1548.0
179.575439 196.0
179.620789 180.0
179.98642 188.0
180.084763 160.0
180.450562 144.0
181.990479 128.0
183.035294 188.0
183.068771 340.0
183.272324 180.0
183.854813 144.0
184.023041 2184.0
184.403061 216.0
185.028091 232.0
186.038818 1244.0
186.783768 156.0
187.044754 188.0
187.867981 160.0
187.906174 208.0
188.035355 248.0
189.104675 208.0
189.250916 160.0
190.353241 212.0
190.704895 192.0
191.100098 240.0
192.183746 140.0
193.662781 144.0
194.086792 140.0
194.108978 188.0
194.564026 180.0
194.756577 164.0
195.392227 164.0
195.798645 144.0
196.861191 172.0
198.111465 204.0
198.411331 248.0
200.198425 172.0
201.190948 152.0
201.995132 148.0
202.656006 176.0
202.998993 208.0
205.102921 148.0
205.139969 172.0
205.22551 224.0
207.074463 204.0
207.100739 136.0
208.098816 152.0
208.132675 176.0
208.500381 204.0
208.696716 152.0
208.894302 200.0
208.970245 152.0
209.006836 388.0
209.046585 108.0
209.06958 184.0
209.108551 28460.0
209.199921 140.0
209.497452 108.0
209.999054 152.0
210.078293 284.0
210.111313 3536.0
210.156189 160.0
210.4422 128.0
211.037704 492.0
211.078156 244.0
211.116913 280.0
211.418991 152.0
212.117188 156.0
213.027222 312.0
215.43454 160.0
219.753326 272.0
220.677811 200.0
221.109695 204.0
221.367264 204.0
221.619049 156.0
221.755371 164.0
226.068954 292.0
227.002289 116.0
227.077576 232.0
228.0233 224.0
228.089417 140.0
229.003693 4984.0
229.15477 172.0
229.561707 196.0
230.009155 464.0
230.449158 152.0
230.998367 364.0
231.126465 172.0
231.174088 144.0
231.374664 184.0
231.426132 172.0
231.589661 172.0
235.091568 168.0
236.403168 156.0
237.104492 160.0
241.079941 136.0
243.102295 148.0
244.181015 172.0
247.025742 160.0
248.099899 160.0
248.448013 180.0
252.018387 200.0
252.074387 2252.0
253.075851 408.0
254.031967 160.0
256.773865 164.0
261.509399 180.0
261.812042 140.0
266.593597 140.0
269.676758 192.0
271.0513 152.0
271.077515 164.0
271.503693 164.0
271.592255 172.0
277.124176 160.0
279.114746 236.0
280.76416 184.0
280.910919 172.0
281.02771 160.0
281.471649 200.0
283.130341 144.0
284.636078 168.0
284.861115 148.0
286.421936 160.0
288.97757 188.0
289.51239 156.0
290.994232 148.0
293.437134 172.0
295.715668 168.0
297.791718 188.0
303.018219 144.0
303.324738 192.0
304.570465 192.0
304.744171 200.0
311.954315 236.0
313.266937 152.0
318.928772 204.0
321.386078 184.0
321.496704 156.0
322.47171 208.0
323.025757 284.0
324.132263 160.0
324.211121 152.0
324.748901 164.0
326.332611 152.0
327.952606 168.0
328.500702 148.0
328.984283 172.0
334.341614 184.0
334.41806 168.0
334.687439 180.0
335.824493 152.0
338.66452 232.0
338.979584 140.0
339.067535 176.0
339.951385 172.0
340.047089 164.0
345.141754 172.0
345.51532 144.0
346.381592 152.0
348.336517 180.0
349.009247 492.0
349.072449 144.0
349.797943 184.0
350.009033 476.0
353.111389 156.0
356.808777 200.0
360.038788 336.0
360.102295 152.0
361.052582 304.0
361.531403 148.0
362.034912 160.0
364.303131 168.0
364.823761 148.0
365.032898 148.0
365.299133 268.0
367.734009 148.0
369.786469 180.0
371.031433 180.0
373.135376 204.0
373.531494 164.0
373.858521 140.0
374.925293 140.0
377.02478 224.0
377.086609 156.0
377.637787 212.0
377.875488 144.0
378.054932 160.0
379.684479 200.0
379.733185 180.0
379.909454 212.0
380.048065 11248.0
380.759552 156.0
380.790619 148.0
381.051575 2280.0
381.132477 144.0
381.976135 188.0
382.043671 716.0
384.025024 152.0
385.601898 156.0
386.995056 140.0
391.069977 200.0
393.15097 144.0
393.304901 164.0
394.430664 156.0
395.222717 148.0
395.569916 172.0
395.791626 248.0
397.089325 128.0
397.805725 192.0
397.916901 160.0
399.331573 176.0
399.940369 188.0
402.675568 140.0
402.923248 192.0
403.254913 224.0
405.825012 152.0
408.076782 132.0
408.793488 148.0
408.954468 220.0
411.498199 248.0
412.762939 168.0
412.912567 172.0
414.540039 180.0
416.499664 188.0
417.361237 152.0
417.898163 152.0
418.003937 156.0
419.519104 140.0
420.122681 164.0
420.192017 140.0
420.828735 196.0
422.191803 136.0
422.860443 184.0
424.138397 168.0
425.007843 152.0
428.226776 144.0
431.722473 192.0
434.058258 776.0
434.410614 244.0
435.055176 220.0
436.052704 160.0
436.138733 128.0
437.132507 152.0
438.627289 140.0
440.029022 192.0
440.308807 160.0
440.680573 176.0
442.098145 196.0
443.065399 180.0
443.300049 208.0
445.086914 140.0
445.899933 136.0
446.309814 192.0
446.61261 176.0
447.1091 200.0
447.23114 216.0
447.302704 148.0
447.504791 176.0
447.782715 156.0
451.226105 196.0
451.547485 168.0
451.809753 152.0
451.852081 196.0
451.894379 152.0
452.052124 124.0
455.128448 140.0
455.574402 148.0
456.194855 156.0
456.777435 164.0
456.851776 152.0
458.527466 176.0
460.067322 176.0
460.407501 96.0
461.242096 200.0
461.485779 188.0
461.969574 100.0
462.268585 176.0
463.068695 148.0
463.149475 224.0
463.243591 244.0
463.367462 104.0
463.411621 144.0
463.768555 104.0
464.050507 196.0
464.089386 112.0
464.115356 176.0
464.195923 136.0
464.368622 328.0
464.579254 348.0
464.677856 140.0
464.736298 104.0
464.792542 228.0
464.878296 160.0
464.966797 288.0
465.035522 372.0
465.101807 117452.0
465.269775 340.0
465.309357 268.0
465.437408 256.0
465.521301 120.0
465.612488 116.0
465.725342 232.0
466.003235 184.0
466.103455 27380.0
466.27179 176.0
466.346069 192.0
466.493042 144.0
466.791809 124.0
467.02002 116.0
467.101013 5084.0
467.415009 124.0
468.102203 1736.0
468.312653 160.0
468.644135 104.0
468.681824 116.0
468.767609 132.0
468.822968 132.0
468.931305 168.0
469.006561 104.0
469.057648 204.0
469.096069 548.0
469.260559 108.0
469.37851 100.0
469.604248 192.0
469.730804 176.0
469.954498 132.0
470.172546 136.0
479.481537 116.0
483.096008 128.0
506.120544 120.0
711.118225 140.0
745.596069 140.0
1051.567871 156.0
1229.77124 212.0
1316.016113 192.0
1335.328857 168.0
1367.132568 204.0
1472.119141 236.0
1479.344604 184.0
1511.880737 200.0
1564.043335 188.0
1581.519287 224.0
1617.098633 144.0
1617.250732 228.0
1630.894531 212.0
1693.332764 164.0
1696.635132 148.0
1696.938477 164.0
1706.709351 180.0
1738.106567 156.0
1742.681763 144.0
1768.634766 168.0
1771.481812 244.0
1771.800171 172.0
1772.763794 140.0
1790.347046 152.0
1806.434814 180.0
1823.775757 172.0
1825.399536 156.0
1826.045898 188.0
1839.841919 160.0
1846.455688 140.0
1852.755737 196.0
1861.573364 188.0
1886.007446 204.0
1886.802734 148.0
1918.89209 168.0
1923.611816 144.0
1927.882935 168.0
1946.726685 176.0
1972.401001 200.0
1977.64624 164.0
