>compound Albendazole (Albenza)
>formula C12H15N3O2S
>ionization [M+H]+
>parentmass 266.0957741720905
#inchi InChI=1S/C12H15N3O2S/c1-3-6-18-8-4-5-9-10(7-8)14-11(13-9)15-12(16)17-2/h4-5,7H,3,6H2,1-2H3,(H2,13,14,15,16)
#inchikey HXHWSAZORRCQMX
#Ion_Source LC-ESI
#Instrument qTof
#Compound_Source Commercial
#PI Dorrestein
#Data_Collector Garg_Neha
#Scan -1
#Precursor_MZ 266.096
#ExactMass 265.089
#Charge 1
#CAS_Number 54965-21-8
#Pubmed_ID N/A
#Smiles C1(=CC=C2C(=C1)NC(=N2)NC(OC)=O)SCCC
#INCHI_AUX N/A
#Library_Class 1
#SpectrumID CCMSLIB00000078221
#IonMode Positive
#UpdateWorkflowName UPDATE-SINGLE-ANNOTATED-GOLD
#LibraryQualityString Gold
#TaskID 77f51c88eb8b467eb4a01dd2d0cb90d2
##Scan# 1156
#SpectrumFile Plate3_61_88_GH1_01_16501.mzXML
#LibraryName FDALibrary_2_04302014.mgf
#MQScore -1
#Organism FDALibrary_2_04302014
#TIC_Query 0
#RT_Query -1
#MZErrorPPM -1
#SharedPeaks 0
#MassDiff 0
#LibMZ -1
#SpecMZ 266.096
#SpecCharge 0
#internalFilename spec-00000.mgf

>collision 10
45.194759 172.0
45.271057 160.0
45.299183 236.0
45.343399 200.0
45.508396 160.0
45.521824 156.0
45.544655 228.0
45.586304 232.0
45.633347 152.0
45.644104 148.0
45.684452 148.0
45.753086 168.0
45.771118 224.0
45.819077 168.0
45.840633 168.0
45.916126 168.0
45.999748 160.0
46.327034 216.0
46.525024 240.0
46.585377 208.0
46.632336 168.0
46.685356 212.0
46.751743 208.0
46.79285 200.0
46.8773 212.0
46.922096 180.0
46.974098 232.0
47.148869 188.0
47.202179 180.0
47.226795 160.0
47.319851 188.0
47.375999 152.0
47.448635 152.0
47.747978 148.0
47.84705 208.0
47.955872 180.0
47.977192 244.0
48.034466 148.0
48.052399 196.0
48.078617 184.0
48.212574 188.0
48.38686 164.0
48.486591 232.0
48.544514 220.0
48.612789 148.0
48.71553 204.0
48.766945 148.0
48.836464 140.0
48.899071 148.0
48.975651 188.0
49.009083 176.0
49.166656 152.0
49.369225 152.0
49.671749 192.0
49.741909 212.0
49.772797 268.0
49.802288 196.0
49.81493 224.0
49.888454 212.0
50.195057 224.0
50.241474 172.0
50.267269 128.0
50.340275 148.0
50.372761 228.0
50.409492 232.0
50.492901 184.0
50.571777 192.0
50.68259 164.0
50.851345 208.0
51.171185 204.0
51.270893 160.0
51.400661 172.0
51.42635 124.0
51.531578 180.0
51.789516 180.0
52.020378 176.0
52.046787 192.0
52.315071 196.0
52.364025 308.0
52.41877 172.0
52.528778 212.0
52.629364 208.0
52.642361 144.0
52.739159 156.0
53.191082 144.0
53.304363 168.0
53.429401 164.0
53.441044 160.0
53.468689 228.0
53.483536 120.0
53.569798 164.0
53.628899 224.0
53.690132 144.0
53.713467 204.0
53.755779 432.0
53.884495 180.0
53.970501 152.0
54.106567 164.0
54.324924 184.0
54.531017 268.0
54.776211 180.0
54.787998 228.0
55.046108 180.0
55.087982 148.0
55.122921 140.0
55.220493 172.0
55.284107 148.0
55.378197 188.0
55.482582 144.0
55.723007 156.0
55.766102 224.0
55.845631 164.0
55.923759 152.0
55.984802 144.0
56.046238 148.0
56.077168 168.0
56.124874 148.0
56.148731 172.0
56.215862 172.0
56.269596 140.0
56.329334 212.0
56.360706 200.0
56.399563 208.0
56.546139 196.0
56.670425 148.0
56.896893 148.0
56.97237 232.0
57.025654 156.0
57.384514 108.0
57.462711 188.0
57.607704 240.0
57.689304 160.0
57.74374 188.0
57.763401 172.0
57.946579 196.0
58.16713 120.0
58.188313 228.0
58.205944 156.0
58.313805 140.0
58.335087 188.0
58.60141 232.0
58.651703 184.0
58.821014 164.0
59.111397 148.0
59.13866 108.0
59.200184 176.0
59.246132 164.0
59.261154 204.0
59.285973 152.0
59.30265 204.0
59.336552 152.0
59.462337 160.0
59.574425 212.0
59.82201 184.0
59.843563 184.0
60.188133 164.0
60.364712 144.0
60.443989 144.0
60.656166 192.0
60.684071 148.0
60.840763 156.0
60.941715 140.0
61.307388 244.0
61.399364 192.0
61.511703 188.0
61.770233 188.0
61.879082 156.0
61.979321 160.0
62.015366 144.0
62.063961 176.0
62.128265 144.0
62.17292 160.0
62.309776 136.0
62.324516 192.0
62.348087 180.0
62.415684 152.0
62.659641 160.0
62.773129 140.0
62.793629 188.0
62.825176 192.0
62.900921 208.0
63.22493 180.0
63.31992 176.0
63.350014 196.0
63.386326 196.0
63.426075 160.0
63.477627 200.0
63.679943 180.0
63.803886 168.0
63.848408 264.0
64.335983 156.0
64.543678 140.0
64.641258 180.0
64.917862 196.0
64.984146 180.0
65.01548 132.0
65.069214 164.0
65.084427 192.0
65.199318 168.0
65.217644 220.0
65.276482 160.0
65.335426 136.0
65.447044 228.0
65.55658 160.0
65.661369 192.0
65.708145 160.0
65.746872 224.0
65.761398 168.0
65.834045 168.0
65.927742 168.0
66.074883 200.0
66.274033 220.0
66.449135 148.0
66.47023 140.0
66.550911 316.0
66.731735 180.0
66.858612 164.0
66.87326 168.0
66.922096 168.0
66.948563 220.0
67.12973 168.0
67.210594 172.0
67.308525 168.0
67.368958 148.0
67.416344 188.0
67.509521 204.0
67.573311 148.0
67.832062 172.0
67.877968 172.0
67.897644 164.0
67.911926 204.0
68.035477 164.0
68.104439 148.0
68.351036 180.0
68.624458 160.0
68.796928 200.0
68.841125 208.0
69.000893 184.0
69.220947 220.0
69.27726 156.0
69.366745 212.0
69.958282 172.0
70.124695 176.0
70.244743 160.0
70.289062 128.0
70.343201 148.0
70.500198 212.0
70.55201 176.0
70.702553 228.0
70.720711 136.0
70.859947 180.0
70.937042 236.0
70.991333 208.0
71.035973 212.0
71.061142 160.0
71.108124 200.0
71.203819 156.0
71.252533 188.0
71.309669 152.0
71.506447 160.0
71.637901 164.0
71.711922 144.0
71.775978 168.0
72.073059 172.0
72.107216 148.0
72.166016 144.0
72.291191 148.0
72.518127 144.0
72.717392 184.0
72.869392 192.0
72.942467 172.0
73.001503 188.0
73.057602 136.0
73.076813 176.0
73.117653 144.0
73.168716 264.0
73.245354 192.0
73.269196 220.0
73.303276 140.0
73.369751 220.0
73.448189 196.0
73.478897 148.0
73.527435 212.0
73.581299 172.0
73.762329 156.0
73.875237 184.0
73.972778 160.0
74.234848 208.0
74.272644 152.0
74.440834 164.0
74.456291 188.0
74.554993 160.0
74.61483 168.0
74.643288 152.0
74.695198 140.0
74.719284 164.0
74.83976 212.0
74.866463 180.0
74.943108 224.0
74.958611 188.0
75.00515 232.0
75.018936 144.0
75.065491 152.0
75.200775 176.0
75.314003 180.0
75.412491 220.0
75.459167 148.0
75.495476 140.0
75.600037 136.0
75.853874 160.0
76.027313 176.0
76.049873 192.0
76.159264 140.0
76.194855 172.0
76.458305 156.0
76.489929 212.0
76.684708 172.0
76.7248 144.0
76.738754 168.0
76.985916 172.0
77.045914 248.0
77.260948 200.0
77.301186 164.0
77.632271 212.0
77.694519 144.0
77.851624 164.0
77.946487 172.0
78.041405 356.0
78.101196 144.0
78.197968 224.0
78.234932 140.0
78.342354 164.0
78.384636 152.0
78.467476 172.0
78.513855 160.0
78.53096 212.0
78.571533 204.0
78.832848 148.0
78.848755 196.0
79.181358 176.0
79.255623 152.0
79.488136 156.0
79.51786 180.0
79.647827 164.0
79.694016 180.0
79.740143 180.0
79.974991 348.0
80.17981 144.0
80.342072 188.0
80.454956 104.0
80.470566 180.0
80.516998 160.0
80.572365 176.0
80.92112 160.0
80.949768 156.0
80.986435 136.0
81.288567 172.0
81.477089 184.0
81.502243 184.0
81.715324 384.0
81.806183 176.0
81.843262 128.0
82.139557 148.0
82.422997 164.0
82.450333 156.0
82.589317 208.0
82.705116 148.0
82.864479 156.0
82.897095 180.0
83.033058 164.0
83.091103 208.0
83.135788 172.0
83.301689 176.0
83.425255 152.0
83.450706 164.0
83.599258 240.0
83.707268 164.0
83.794693 176.0
83.906456 160.0
84.186859 140.0
84.241653 156.0
84.325706 236.0
84.455521 196.0
84.514061 152.0
84.68248 160.0
84.966599 244.0
85.05101 140.0
85.139137 172.0
85.260483 156.0
85.396439 144.0
85.433228 404.0
85.446106 184.0
85.462662 164.0
85.492104 168.0
85.528915 180.0
85.58783 160.0
85.639389 208.0
85.743309 172.0
85.945412 224.0
85.962013 172.0
86.152725 276.0
86.224251 236.0
86.251976 140.0
86.296341 172.0
86.415848 124.0
86.520203 176.0
86.575752 140.0
86.625763 184.0
86.655403 192.0
86.679489 180.0
86.829643 164.0
86.935387 244.0
87.042107 156.0
87.245575 156.0
87.280899 172.0
87.294235 188.0
87.329247 172.0
87.376495 156.0
87.526512 156.0
87.634544 176.0
87.742645 156.0
87.850807 152.0
87.949707 160.0
88.207474 160.0
88.763519 156.0
88.884109 208.0
88.911713 184.0
89.056282 188.0
89.131424 168.0
89.169006 168.0
89.210358 164.0
89.24044 144.0
89.272087 164.0
89.31002 168.0
89.372101 176.0
89.490677 152.0
89.51564 156.0
89.543404 156.0
89.701675 164.0
90.154076 196.0
90.577965 152.0
90.614456 164.0
90.984276 184.0
91.033646 176.0
91.206528 172.0
91.267365 188.0
91.286377 148.0
91.390999 192.0
91.715195 184.0
91.815788 160.0
91.871101 148.0
91.903542 140.0
91.997055 148.0
92.08107 148.0
92.180412 176.0
92.321869 188.0
92.385818 184.0
92.446213 164.0
92.478752 180.0
92.7239 184.0
92.74115 144.0
93.278343 208.0
93.324738 220.0
93.701973 208.0
93.770821 192.0
93.817604 172.0
93.983467 140.0
94.164925 156.0
94.182312 160.0
94.271179 224.0
94.284706 176.0
94.414238 196.0
94.435509 188.0
94.509018 152.0
94.569008 176.0
94.69873 180.0
94.813042 212.0
94.909966 160.0
95.119492 208.0
95.189384 168.0
95.38755 200.0
95.502274 184.0
95.554794 180.0
95.696877 192.0
95.816612 200.0
96.018394 172.0
96.268196 164.0
96.285767 172.0
96.374893 416.0
96.469437 156.0
96.578941 208.0
96.866676 144.0
96.982285 204.0
97.01757 156.0
97.072578 140.0
97.180351 160.0
97.229919 136.0
97.272591 144.0
97.347404 148.0
97.718689 184.0
97.842682 148.0
97.987808 152.0
98.043587 148.0
98.189476 204.0
98.243416 128.0
98.365135 148.0
98.380875 176.0
98.534912 196.0
98.649536 156.0
98.682472 224.0
98.766205 148.0
98.956177 192.0
99.029449 312.0
99.499405 160.0
99.59671 188.0
99.65432 172.0
99.747726 156.0
99.819298 152.0
99.835205 176.0
100.28714 152.0
100.662201 172.0
100.805008 188.0
100.828911 124.0
100.891975 196.0
101.029961 176.0
101.19207 164.0
101.228111 224.0
101.42244 140.0
101.586868 168.0
101.798668 220.0
101.831749 212.0
101.988472 140.0
102.006561 164.0
102.201637 184.0
102.318375 152.0
102.372734 152.0
102.433159 220.0
102.525841 200.0
102.685776 192.0
102.746597 192.0
102.783432 344.0
102.852577 140.0
103.006035 220.0
103.066757 144.0
103.183868 172.0
103.301903 208.0
103.382095 156.0
103.60482 156.0
103.631157 188.0
103.685593 204.0
103.752762 192.0
103.896744 168.0
103.967766 188.0
104.278488 164.0
104.47776 144.0
104.626328 156.0
104.642609 180.0
104.687408 180.0
104.792648 220.0
104.898346 160.0
104.919121 172.0
105.066521 172.0
105.219582 152.0
105.272675 184.0
105.328705 156.0
105.603752 180.0
105.899857 184.0
105.951736 156.0
106.119789 180.0
106.409081 228.0
106.457428 168.0
106.488747 156.0
106.615845 176.0
106.772789 164.0
106.807747 164.0
106.863297 284.0
106.968254 148.0
107.129433 192.0
107.164925 128.0
107.387619 136.0
107.456665 176.0
107.634171 176.0
107.698189 160.0
107.880028 196.0
107.927582 148.0
107.977211 208.0
108.043404 184.0
108.140656 164.0
108.204826 160.0
108.360153 172.0
108.499016 220.0
108.558159 152.0
108.577477 176.0
108.73468 140.0
108.762459 164.0
108.783218 144.0
108.801903 200.0
108.826813 188.0
108.922386 216.0
108.984673 172.0
109.001289 204.0
109.18631 188.0
109.472771 172.0
109.74855 172.0
109.775658 260.0
109.846565 152.0
109.894951 180.0
110.161774 140.0
110.237732 136.0
110.251183 228.0
110.266251 184.0
110.289238 144.0
110.303871 204.0
110.4356 140.0
110.525558 140.0
110.78434 232.0
110.804024 208.0
110.899826 156.0
111.022018 188.0
111.036697 148.0
111.073723 208.0
111.129272 208.0
111.263313 156.0
111.435532 220.0
111.462845 196.0
111.555321 192.0
111.622597 140.0
111.719345 140.0
111.990891 148.0
112.017838 248.0
112.034561 144.0
112.235344 208.0
112.482178 140.0
112.560295 200.0
112.979172 128.0
113.239136 204.0
113.332344 148.0
113.364128 156.0
113.527359 184.0
113.875412 208.0
113.896187 220.0
113.915764 172.0
113.977272 164.0
114.064514 180.0
114.105621 220.0
114.183578 144.0
114.294533 128.0
114.32399 196.0
114.468742 240.0
114.608978 172.0
114.914223 376.0
114.946228 156.0
114.976105 184.0
115.035866 172.0
115.108459 228.0
115.225937 164.0
115.406219 148.0
115.442039 116.0
115.503838 184.0
115.674423 172.0
115.707497 196.0
116.017776 152.0
116.133568 152.0
116.217232 236.0
116.36985 200.0
116.601616 200.0
116.638153 144.0
116.724144 184.0
116.764458 280.0
116.784363 152.0
116.872566 140.0
117.078613 244.0
117.238632 164.0
117.290359 192.0
117.540527 184.0
117.636986 208.0
117.780167 144.0
117.920609 144.0
118.03994 160.0
118.624924 152.0
118.702118 188.0
118.736816 212.0
118.838768 160.0
119.04953 340.0
119.088417 152.0
119.236153 192.0
119.427483 184.0
119.503624 428.0
119.568901 172.0
119.616783 276.0
119.669037 172.0
119.710403 160.0
119.727829 168.0
119.788811 212.0
119.891212 200.0
119.916489 228.0
119.989304 180.0
120.025795 228.0
120.144142 204.0
120.364769 184.0
120.427917 120.0
120.493645 136.0
120.61364 156.0
120.890388 148.0
120.950493 184.0
121.095001 224.0
121.215485 152.0
121.37989 208.0
121.419365 212.0
121.561958 144.0
121.616821 192.0
121.706825 148.0
121.733177 180.0
121.790283 148.0
121.840805 152.0
121.871346 164.0
121.92691 192.0
122.010582 220.0
122.047768 240.0
122.080383 156.0
122.278664 124.0
122.318001 164.0
122.364227 168.0
122.606529 156.0
122.679268 228.0
122.898659 176.0
123.09436 144.0
123.21553 164.0
123.251328 160.0
123.401184 156.0
123.469727 148.0
123.715332 196.0
123.751923 152.0
123.772896 176.0
123.861488 228.0
123.936638 208.0
124.083092 188.0
124.164299 160.0
124.41143 176.0
124.611305 172.0
124.660187 168.0
124.705818 196.0
124.827477 156.0
125.329033 144.0
125.352249 144.0
125.403503 160.0
125.443626 228.0
125.49044 196.0
125.666641 268.0
125.684486 160.0
125.781349 144.0
125.824844 172.0
125.970261 196.0
126.122299 184.0
126.157967 156.0
126.200447 256.0
126.459938 164.0
126.614426 164.0
126.670341 120.0
126.704018 164.0
126.811577 160.0
126.968513 248.0
127.262474 164.0
127.466873 144.0
127.624222 152.0
127.797409 148.0
127.957207 148.0
128.112595 144.0
128.145432 168.0
128.283859 140.0
128.459763 176.0
128.667374 144.0
128.744736 136.0
128.814163 184.0
128.886459 180.0
128.967819 224.0
129.033371 180.0
129.135574 240.0
129.24823 148.0
129.273132 148.0
129.33876 184.0
129.395355 196.0
129.430481 172.0
129.481918 156.0
129.558411 148.0
129.658112 168.0
129.816803 140.0
130.039948 372.0
130.16626 184.0
130.270737 184.0
130.470718 176.0
130.550293 172.0
130.584412 220.0
130.704971 172.0
130.782349 176.0
130.823318 156.0
130.893463 124.0
130.966782 148.0
130.99411 192.0
131.019806 320.0
131.048065 616.0
131.115952 172.0
131.183258 164.0
131.337143 196.0
131.431839 232.0
131.671539 140.0
131.708084 168.0
131.94574 144.0
131.976898 168.0
131.996033 140.0
132.052979 272.0
132.20192 192.0
132.277451 148.0
132.334686 160.0
133.008667 240.0
133.065292 228.0
133.132156 184.0
133.295746 180.0
133.355911 132.0
133.415268 212.0
133.550934 140.0
133.580841 204.0
133.649857 172.0
133.730392 140.0
133.792542 184.0
134.068832 156.0
134.226074 124.0
134.244141 176.0
134.294891 348.0
134.342316 160.0
134.394089 152.0
134.594894 152.0
134.845718 228.0
134.92067 148.0
135.024719 196.0
135.045532 180.0
135.107986 140.0
135.448273 192.0
135.557159 152.0
135.596558 232.0
135.692047 184.0
135.844666 204.0
135.972275 196.0
136.010864 788.0
136.104599 172.0
136.387238 168.0
136.467056 188.0
136.491089 108.0
137.049515 160.0
137.186447 152.0
137.2435 156.0
137.477997 172.0
137.681091 156.0
137.875 188.0
137.970825 140.0
138.031616 268.0
138.095688 152.0
138.150894 168.0
138.167282 144.0
138.239807 212.0
138.663635 168.0
138.771011 128.0
138.88385 236.0
139.027435 160.0
139.149261 172.0
139.208405 124.0
139.460739 200.0
139.630966 180.0
139.777161 168.0
139.817139 152.0
139.989609 164.0
140.11351 168.0
140.153564 172.0
140.206497 168.0
140.351562 164.0
140.412872 200.0
140.442627 156.0
140.599243 140.0
140.622849 192.0
140.908569 156.0
141.130737 160.0
141.168579 184.0
141.317596 148.0
141.473785 192.0
141.742828 216.0
141.92157 172.0
142.099457 180.0
142.156403 268.0
142.596802 216.0
142.650406 164.0
142.674179 212.0
142.835892 184.0
142.99292 148.0
143.028625 160.0
143.145279 368.0
143.175262 176.0
143.245316 160.0
143.500305 304.0
143.576614 140.0
143.625809 236.0
143.705429 152.0
143.793716 180.0
144.292953 196.0
144.495605 120.0
144.627853 172.0
144.75235 184.0
145.068604 172.0
145.189987 148.0
145.223892 116.0
145.450012 152.0
145.498016 160.0
145.550842 172.0
145.609436 180.0
145.680542 168.0
146.012238 176.0
146.071198 180.0
146.098831 164.0
146.139725 188.0
146.231171 188.0
146.305786 140.0
146.410339 220.0
146.459625 140.0
146.744888 104.0
146.785248 188.0
146.850372 152.0
147.043869 188.0
147.078781 192.0
147.107498 124.0
147.153915 152.0
147.244171 120.0
147.38623 212.0
147.473282 160.0
147.620758 208.0
147.676392 176.0
147.911285 148.0
147.935287 156.0
148.007538 176.0
148.048706 448.0
148.136154 152.0
148.253616 140.0
148.308319 140.0
148.389374 184.0
148.49501 240.0
148.519272 164.0
148.681824 156.0
148.760849 200.0
149.029068 140.0
149.070374 192.0
149.13356 200.0
149.244659 128.0
149.577942 224.0
149.615204 224.0
149.924545 232.0
149.990341 212.0
150.02269 196.0
150.178619 200.0
150.204926 160.0
150.234192 240.0
150.365677 172.0
150.383728 212.0
150.522202 148.0
150.605225 208.0
151.003616 180.0
151.030045 288.0
151.177322 224.0
151.378052 140.0
151.429474 188.0
151.449081 164.0
151.674332 176.0
151.836319 176.0
151.981049 200.0
152.137833 136.0
152.20195 212.0
152.355743 280.0
152.408279 144.0
152.477081 144.0
152.565582 204.0
152.643951 224.0
152.939255 176.0
153.175858 228.0
153.205414 164.0
153.429672 144.0
153.592438 172.0
153.747864 144.0
153.979935 184.0
154.16275 244.0
154.261612 252.0
154.553452 168.0
154.888275 192.0
154.914902 144.0
154.990387 156.0
155.016495 140.0
155.123062 144.0
155.14537 144.0
155.183807 176.0
155.417618 176.0
155.507523 220.0
155.701172 200.0
155.812958 236.0
155.960922 184.0
155.979446 168.0
156.158478 196.0
156.203247 144.0
156.454361 172.0
156.523117 244.0
156.594025 204.0
156.676224 156.0
156.721069 144.0
156.76593 240.0
156.793335 248.0
156.853149 168.0
156.900528 140.0
157.150574 232.0
157.176071 208.0
157.202316 244.0
157.521896 236.0
157.571869 140.0
157.649323 160.0
157.774292 160.0
157.799301 284.0
157.826797 172.0
157.847198 176.0
158.035599 352.0
158.159531 144.0
158.207092 184.0
158.294724 144.0
158.392395 152.0
158.502625 160.0
158.645477 172.0
158.68811 152.0
158.966522 164.0
159.009186 144.0
159.04332 19848.0
159.101318 96.0
159.252625 96.0
159.431107 148.0
159.451202 260.0
159.525543 152.0
159.584442 152.0
159.798843 196.0
160.047943 2524.0
160.107834 176.0
160.312149 188.0
160.349686 184.0
160.400101 168.0
160.891251 172.0
160.99791 212.0
161.044739 248.0
161.263336 160.0
161.292099 156.0
161.329056 184.0
161.506058 176.0
162.017395 144.0
162.057938 192.0
162.154968 216.0
162.206451 212.0
162.443283 308.0
162.73259 164.0
163.018814 2528.0
163.62645 320.0
163.742889 212.0
163.86438 232.0
163.905151 176.0
164.028015 2348.0
164.231461 188.0
164.279938 208.0
164.318192 140.0
164.347595 100.0
164.36412 252.0
164.429413 164.0
164.586197 168.0
164.718994 204.0
164.800751 276.0
165.011108 144.0
165.033676 1220.0
165.069138 160.0
165.371002 204.0
165.587524 156.0
165.716721 152.0
165.878174 212.0
166.022186 232.0
166.047394 200.0
166.101257 176.0
166.129471 204.0
166.157425 152.0
166.203873 164.0
166.255203 284.0
166.375839 200.0
166.544052 116.0
166.659042 132.0
167.026199 136.0
167.059418 156.0
167.293594 188.0
167.510834 244.0
167.530502 148.0
167.553696 196.0
167.677383 204.0
167.777908 144.0
167.821732 200.0
168.100311 188.0
168.250015 152.0
168.37175 164.0
168.461777 168.0
168.694351 152.0
168.895126 160.0
168.925888 108.0
168.947769 208.0
169.103027 212.0
169.519974 196.0
169.561447 200.0
169.755875 156.0
169.908905 220.0
169.955612 168.0
170.09285 140.0
170.669891 172.0
170.888016 124.0
171.055283 204.0
171.175385 164.0
171.394089 208.0
171.495132 184.0
171.656769 144.0
171.881088 148.0
171.938324 176.0
172.058578 208.0
172.156586 156.0
172.479156 212.0
172.551361 164.0
172.60202 176.0
172.826981 228.0
172.942123 164.0
172.99649 140.0
173.447647 168.0
174.357178 172.0
174.395187 180.0
174.692322 148.0
174.87439 144.0
174.987061 304.0
175.0401 172.0
175.10556 264.0
175.134537 140.0
175.282074 188.0
175.429657 184.0
175.534775 152.0
175.64061 212.0
175.672272 172.0
175.785721 168.0
175.864899 188.0
176.015366 228.0
176.10434 156.0
176.176483 156.0
176.263672 252.0
176.337662 188.0
176.46077 168.0
176.649673 140.0
176.678772 168.0
177.033615 204.0
177.184418 196.0
177.245361 180.0
177.613861 164.0
177.794281 164.0
177.831436 160.0
177.918671 204.0
177.969803 128.0
178.113907 104.0
178.399872 200.0
178.766907 196.0
178.907974 176.0
179.051208 724.0
179.398148 148.0
179.699509 164.0
179.73378 208.0
179.800903 152.0
179.899673 152.0
180.052582 364.0
180.152847 232.0
180.289627 216.0
180.543594 164.0
180.588943 184.0
180.615814 180.0
180.784363 156.0
180.8293 172.0
180.950317 140.0
181.076508 156.0
181.154144 180.0
181.244934 284.0
181.462036 224.0
181.504944 196.0
181.67659 184.0
181.708786 144.0
181.912735 188.0
181.972427 264.0
182.006699 188.0
182.103378 236.0
182.165161 172.0
182.503159 172.0
182.592529 156.0
182.68129 192.0
182.759308 144.0
182.815811 220.0
182.875031 240.0
182.896561 160.0
183.111954 172.0
183.141586 184.0
183.160431 200.0
183.373291 164.0
183.553909 148.0
183.580872 156.0
183.607849 204.0
183.686066 220.0
183.771561 116.0
183.847946 188.0
183.899307 120.0
183.98291 152.0
184.003006 204.0
184.058502 228.0
184.208572 120.0
184.344833 200.0
184.471863 140.0
184.552963 184.0
184.615158 164.0
184.674652 192.0
184.884827 176.0
184.977707 176.0
185.037262 144.0
185.11557 148.0
185.169952 148.0
185.29184 156.0
185.402939 152.0
185.440887 164.0
185.592697 208.0
185.611679 220.0
185.679474 164.0
185.760834 140.0
185.804245 140.0
186.024063 164.0
186.064865 160.0
186.276596 152.0
186.408234 212.0
186.485535 152.0
186.531021 184.0
186.578247 144.0
186.624466 140.0
186.673401 236.0
186.698303 180.0
186.746841 176.0
186.855652 148.0
186.933044 216.0
187.024368 180.0
187.135971 232.0
187.16394 176.0
187.604568 172.0
187.907288 140.0
187.948212 204.0
188.015396 244.0
188.114685 180.0
188.133804 140.0
188.243011 196.0
188.346786 176.0
188.45369 156.0
188.551712 144.0
188.691116 180.0
189.202713 180.0
189.233368 160.0
189.460144 160.0
189.509109 160.0
189.515015 140.0
189.545074 140.0
189.651947 148.0
189.673996 192.0
189.73967 244.0
189.797256 176.0
189.819183 232.0
190.008301 1004.0
190.126434 180.0
190.183899 192.0
190.209244 116.0
190.247192 212.0
190.292984 200.0
190.347977 244.0
190.483353 192.0
190.580551 112.0
190.716919 168.0
190.78801 180.0
190.840622 244.0
190.867859 256.0
190.940994 176.0
190.97113 456.0
191.0159 91040.0
191.069321 448.0
191.147522 132.0
191.171829 124.0
191.213211 100.0
191.281387 112.0
191.436676 168.0
191.4673 204.0
191.549561 220.0
191.713211 188.0
191.747574 128.0
191.793289 136.0
191.833923 140.0
191.919022 216.0
191.97171 244.0
192.023026 63984.0
192.068909 296.0
192.104095 176.0
192.126068 116.0
192.172577 216.0
192.21962 116.0
192.247589 228.0
192.341843 112.0
192.455841 180.0
192.513214 152.0
192.814331 112.0
192.860107 136.0
192.919373 160.0
193.021332 4800.0
193.113678 132.0
193.180664 140.0
193.301056 204.0
193.362061 100.0
193.400681 148.0
193.445145 192.0
193.513351 172.0
193.611099 152.0
193.659302 168.0
193.778397 148.0
193.815674 244.0
193.888138 292.0
193.921936 252.0
194.0177 2344.0
194.218735 164.0
194.256897 176.0
194.292114 132.0
194.344055 212.0
194.429199 236.0
194.479919 96.0
194.554749 96.0
194.61232 112.0
194.666718 152.0
194.756531 224.0
194.795898 188.0
195.02388 440.0
195.199051 228.0
195.354172 144.0
195.61853 156.0
195.927643 196.0
195.961075 164.0
195.991714 152.0
196.351318 184.0
196.411423 124.0
196.834106 176.0
197.176682 200.0
197.274216 144.0
197.328659 168.0
197.401352 236.0
197.423721 144.0
197.516388 184.0
197.968216 148.0
198.008621 180.0
198.227142 196.0
198.852524 140.0
199.00972 220.0
199.178223 180.0
199.373901 160.0
199.422668 184.0
199.754456 140.0
199.788223 200.0
199.892319 164.0
200.076721 188.0
200.393509 212.0
200.500595 148.0
200.558762 144.0
200.61615 148.0
200.788147 180.0
200.919662 148.0
201.17482 136.0
201.524918 152.0
201.56778 116.0
201.688446 120.0
201.711838 232.0
201.767975 180.0
201.931976 208.0
202.054932 124.0
202.110199 140.0
202.132828 152.0
202.291321 184.0
202.549011 148.0
202.645325 208.0
202.682159 192.0
202.781342 140.0
202.804016 156.0
202.842316 156.0
203.025162 304.0
203.741837 268.0
204.018494 688.0
204.107071 152.0
204.303314 152.0
204.354523 176.0
204.462662 196.0
204.49556 244.0
204.969543 168.0
205.029144 840.0
205.097794 176.0
205.140167 148.0
205.347687 192.0
205.659698 144.0
205.811005 200.0
205.994659 168.0
206.075424 440.0
206.159485 152.0
206.35672 192.0
206.468231 176.0
206.598557 184.0
206.736191 144.0
206.983337 156.0
207.083969 380.0
207.438858 144.0
207.57222 168.0
207.633835 152.0
207.751434 140.0
207.972382 148.0
208.082428 216.0
208.587082 144.0
208.87175 180.0
209.032532 144.0
209.07402 192.0
209.366791 164.0
209.398468 180.0
209.447433 220.0
209.611649 180.0
209.724045 384.0
209.946045 180.0
210.055634 212.0
210.096024 200.0
210.358627 168.0
210.722504 212.0
211.127182 172.0
211.294418 220.0
211.451202 184.0
211.595932 236.0
211.66832 140.0
211.796997 324.0
211.98407 176.0
212.465378 148.0
212.520493 348.0
212.546616 156.0
212.885895 104.0
213.371475 164.0
213.43544 156.0
213.496506 160.0
214.125504 180.0
214.801636 152.0
215.385818 184.0
215.984329 156.0
216.060394 156.0
216.206696 188.0
216.367676 160.0
216.522873 216.0
216.645889 204.0
216.739639 160.0
216.991714 156.0
217.065018 232.0
217.459152 136.0
218.010239 172.0
218.054321 144.0
218.358078 228.0
218.483475 152.0
218.774979 200.0
218.798523 180.0
218.828522 128.0
218.933975 224.0
218.95459 176.0
218.998764 212.0
219.097443 104.0
219.137222 140.0
219.378448 108.0
219.567581 140.0
219.600037 180.0
219.709167 160.0
220.060379 204.0
220.172592 232.0
220.267105 144.0
220.325119 156.0
220.503464 152.0
220.799118 144.0
220.870102 272.0
221.059448 196.0
221.097916 200.0
221.124557 208.0
221.343613 152.0
221.37915 184.0
221.90361 140.0
221.980713 200.0
222.109192 136.0
222.52182 184.0
222.645447 156.0
222.859314 224.0
223.042389 2044.0
223.569992 152.0
223.721802 180.0
223.923248 128.0
224.04805 276.0
224.330109 192.0
225.03656 160.0
225.090302 436.0
225.233658 164.0
225.412903 192.0
225.82547 228.0
225.984406 180.0
226.16655 180.0
226.280304 196.0
226.54985 144.0
226.602005 228.0
227.183624 144.0
227.371414 148.0
227.551514 148.0
227.768463 132.0
227.866867 148.0
228.531326 144.0
228.561401 224.0
229.085266 144.0
229.501175 152.0
230.171021 176.0
230.630219 140.0
230.878143 240.0
230.92955 220.0
231.047516 200.0
231.132233 172.0
231.277496 144.0
231.30629 168.0
231.4319 144.0
231.525772 188.0
231.71962 376.0
232.043732 128.0
232.072571 212.0
232.483353 156.0
232.869293 156.0
232.920471 356.0
232.957382 140.0
233.063828 188.0
233.185272 164.0
233.208481 208.0
233.23999 144.0
233.270569 264.0
233.40416 144.0
233.452805 172.0
233.513626 144.0
233.571426 212.0
233.69838 164.0
233.738754 368.0
233.788757 176.0
233.820053 200.0
233.886841 176.0
233.899414 188.0
233.933167 296.0
233.977371 288.0
234.024826 268.0
234.070862 229308.0
234.137451 228.0
234.191589 224.0
234.247864 176.0
234.277649 160.0
234.298965 156.0
234.340256 216.0
234.397995 160.0
234.473572 116.0
234.57103 380.0
234.602798 216.0
234.643097 148.0
234.818329 168.0
234.862061 112.0
234.910156 180.0
234.966202 144.0
235.019791 228.0
235.072693 22832.0
235.13858 152.0
235.183289 120.0
235.29686 176.0
235.344788 124.0
235.409988 156.0
235.431885 120.0
235.51413 104.0
235.783524 144.0
236.00592 184.0
236.067276 9260.0
236.38829 236.0
236.492661 112.0
236.540649 176.0
236.577057 308.0
236.615997 132.0
236.653976 228.0
236.690369 148.0
236.765427 132.0
236.799911 116.0
236.910309 112.0
237.017288 160.0
237.067444 656.0
237.143555 124.0
237.169296 100.0
237.530182 156.0
237.663742 128.0
237.732681 284.0
238.099258 156.0
238.46257 236.0
238.626526 200.0
238.757263 132.0
238.784653 104.0
239.014069 176.0
239.164871 184.0
239.296356 196.0
239.37114 296.0
239.805511 268.0
240.018219 168.0
240.197098 152.0
240.261887 176.0
240.360611 212.0
240.910004 144.0
241.639771 256.0
242.026657 208.0
242.184601 196.0
242.441742 148.0
242.912247 160.0
243.254791 144.0
243.304031 144.0
243.583511 204.0
243.773041 164.0
244.587875 200.0
245.074844 196.0
245.622375 156.0
245.912552 212.0
245.999954 144.0
246.168549 312.0
246.269363 128.0
246.518417 180.0
246.759094 220.0
246.793488 160.0
247.159439 144.0
247.231415 152.0
247.39418 196.0
247.556992 156.0
247.795044 172.0
247.898438 144.0
247.932907 180.0
247.97052 160.0
248.001862 172.0
248.597748 192.0
248.758331 168.0
248.817459 196.0
248.971313 148.0
249.219467 204.0
249.536774 176.0
250.046509 140.0
250.373947 400.0
250.462112 152.0
250.499481 172.0
250.748825 192.0
250.792953 148.0
251.060928 160.0
251.600494 184.0
251.909973 176.0
252.059036 220.0
252.918671 148.0
252.981247 208.0
253.444382 160.0
253.681137 352.0
254.087997 180.0
254.478363 148.0
254.773727 160.0
255.33316 156.0
255.671951 156.0
255.890015 300.0
256.096344 156.0
256.399689 168.0
256.450684 176.0
256.973633 180.0
257.155548 184.0
257.439667 192.0
257.474792 160.0
257.733551 160.0
257.986023 160.0
258.062775 216.0
258.430573 160.0
258.481781 180.0
258.536163 148.0
258.651398 144.0
258.833893 240.0
259.275085 208.0
259.792175 140.0
260.203217 156.0
260.58194 160.0
260.729736 152.0
261.401855 180.0
261.598175 160.0
261.870026 160.0
262.055481 144.0
262.161835 144.0
262.545441 228.0
262.612091 200.0
263.581665 160.0
263.769104 176.0
264.122192 144.0
264.221863 144.0
264.28656 152.0
264.488861 124.0
264.522797 148.0
264.555176 204.0
264.766907 148.0
264.846619 144.0
264.917603 200.0
264.958282 128.0
265.023407 196.0
265.079132 124.0
265.122528 172.0
265.172485 464.0
265.207428 172.0
265.260101 416.0
265.298187 344.0
265.362701 128.0
265.387573 168.0
265.448242 324.0
265.519806 220.0
265.581238 220.0
265.605621 164.0
265.658447 212.0
265.713226 168.0
265.748962 264.0
265.791992 268.0
265.928162 292.0
265.984039 232.0
266.006439 512.0
266.053223 512.0
266.098053 198024.0
266.219177 276.0
266.290131 196.0
266.348572 212.0
266.387024 136.0
266.421082 160.0
266.452423 284.0
266.476593 288.0
266.522491 252.0
266.532227 272.0
266.567505 164.0
266.631744 3444.0
266.68512 128.0
266.707733 172.0
266.745239 148.0
266.871399 188.0
266.916687 112.0
266.986847 160.0
267.03479 440.0
267.100006 28152.0
267.328766 208.0
267.557861 124.0
267.643402 100.0
267.687714 180.0
267.804169 144.0
267.8703 144.0
267.938446 168.0
268.094086 10144.0
268.175934 192.0
268.217499 152.0
268.29718 204.0
268.348969 120.0
268.504761 128.0
268.596527 176.0
268.62442 100.0
268.652466 104.0
268.698975 192.0
268.765808 192.0
268.819855 184.0
268.936371 104.0
268.998383 248.0
269.031281 240.0
269.101471 628.0
269.310516 108.0
269.344208 144.0
269.644012 108.0
269.882629 176.0
269.934845 180.0
270.714111 164.0
274.918365 120.0
275.088379 148.0
277.224976 140.0
289.097015 144.0
302.230927 152.0
426.998352 104.0
537.53009 140.0
1126.619385 180.0
1288.921509 200.0
1356.128052 144.0
1368.601929 220.0
1442.889648 140.0
1451.998779 156.0
1468.106201 148.0
1471.768921 220.0
1494.018188 228.0
1505.008545 180.0
1525.034058 288.0
1533.135864 172.0
1547.265869 204.0
1551.590454 184.0
1557.028198 152.0
1563.663574 152.0
1568.483887 168.0
1589.203613 240.0
1594.380981 152.0
1602.393799 164.0
1607.744263 208.0
1617.406982 192.0
1651.960327 180.0
1659.937988 232.0
1660.538086 188.0
1670.219727 180.0
1678.942505 168.0
1702.183105 192.0
1708.626953 184.0
1709.523926 156.0
1711.021851 248.0
1723.34375 200.0
1723.93042 160.0
1725.211548 184.0
1725.641357 200.0
1733.885986 168.0
1737.634033 160.0
1739.086182 200.0
1745.275146 212.0
1750.051025 140.0
1751.924927 152.0
1755.192017 168.0
1759.989868 160.0
1762.779785 192.0
1763.657227 232.0
1764.685547 184.0
1768.834961 192.0
1771.992065 156.0
1773.684814 172.0
1773.953125 224.0
1778.440674 152.0
1779.565552 148.0
1784.648804 192.0
1789.941406 172.0
1796.355103 144.0
1797.257812 164.0
1798.371704 156.0
1800.794922 152.0
1801.183472 240.0
1801.411499 180.0
1802.078857 156.0
1808.209595 148.0
1809.987305 224.0
1811.2323 160.0
1813.460693 200.0
1814.172729 168.0
1820.306885 140.0
1820.578735 188.0
1836.314697 156.0
1839.155884 224.0
1846.435181 176.0
1847.185547 192.0
1849.943359 156.0
1850.739502 156.0
1860.238647 200.0
1863.710327 156.0
1866.089111 224.0
1867.327393 228.0
1869.650269 176.0
1870.691772 208.0
1872.164062 184.0
1894.352783 140.0
1897.689331 244.0
1898.964111 156.0
1899.311035 176.0
1903.572388 140.0
1906.004517 224.0
1908.03833 160.0
1911.064941 192.0
1913.876343 208.0
1917.886719 196.0
1920.324951 164.0
1921.624756 152.0
1923.928711 172.0
1924.522461 160.0
1925.893555 152.0
1926.085693 180.0
1928.025269 168.0
1928.978027 176.0
1932.0625 132.0
1936.616699 152.0
1939.350464 184.0
1944.727051 172.0
1948.397461 144.0
1951.28894 184.0
1952.379272 172.0
1952.555176 164.0
1957.192627 200.0
1958.346313 176.0
1961.862183 208.0
1965.284058 148.0
1965.504639 160.0
1968.055542 144.0
1970.351929 216.0
1972.384399 208.0
1975.682739 228.0
1975.806641 152.0
1979.479736 148.0
1982.518188 144.0
1984.565796 152.0
1985.035767 172.0
1986.96936 160.0
1993.371094 224.0
1993.70874 172.0
1994.069824 232.0
1994.846436 160.0
2001.305298 176.0
2002.124634 228.0
