>compound MLS002153900-01!Scoulerine6451-73-6
>formula C19H21NO4
>ionization [M+H]+
>parentmass 328.153442
#inchi InChI=1S/C19H21NO4/c1-23-17-4-3-11-7-15-13-9-16(21)18(24-2)8-12(13)5-6-20(15)10-14(11)19(17)22/h3-4,8-9,15,21-22H,5-7,10H2,1-2H3/t15-/m0/s1
#inchikey KNWVMRVOBAFFMH
#Ion_Source LC-ESI
#Instrument qTof
#Compound_Source NIH Pharmacologically Active Library
#PI Dorrestein
#Data_Collector VP/LMS
#Scan -1
#Precursor_MZ 328.154
#ExactMass 327.147
#Charge 1
#CAS_Number N/A
#Pubmed_ID N/A
#Smiles COc1ccc2C[C@@H]3N(CCc4cc(OC)c(O)cc34)Cc2c1O
#INCHI_AUX N/A
#Library_Class 1
#SpectrumID CCMSLIB00000085035
#IonMode Positive
#UpdateWorkflowName UPDATE-SINGLE-ANNOTATED-GOLD
#LibraryQualityString Gold
#TaskID d252d724072548979f1f6f1ced849daf
##Scan# 1344
#SpectrumFile p3-D11_GD11_01_18268.mzXML
#LibraryName Pharm_Active_Library.mgf
#MQScore -1
#Organism Pharm_Active_Library
#TIC_Query 0
#RT_Query -1
#MZErrorPPM -1
#SharedPeaks 0
#MassDiff 0
#LibMZ -1
#SpecMZ 328.154
#SpecCharge 0
#internalFilename spec-00000.mgf

>collision 10
44.971615 100.0
44.981728 196.0
45.046394 164.0
45.111946 160.0
45.122574 172.0
45.260395 200.0
45.311295 216.0
45.401104 140.0
45.473557 108.0
45.484295 164.0
45.49369 128.0
45.547409 156.0
45.568905 68.0
45.759899 164.0
45.797607 188.0
45.812428 168.0
45.842068 144.0
45.883858 240.0
45.902733 136.0
45.931057 148.0
45.989082 116.0
46.017429 56.0
46.047142 240.0
46.076859 44.0
46.156609 140.0
46.166077 148.0
46.282455 112.0
46.329861 156.0
46.361027 144.0
46.388138 152.0
46.430172 48.0
46.487152 160.0
46.498009 124.0
46.53059 172.0
46.540092 148.0
46.594658 164.0
46.613865 208.0
46.618542 64.0
46.623867 192.0
46.6651 108.0
46.693661 188.0
46.741276 208.0
46.750801 212.0
46.78347 220.0
46.82296 136.0
46.849163 152.0
46.927891 212.0
46.978355 148.0
47.004963 200.0
47.04113 104.0
47.052052 188.0
47.095753 116.0
47.148922 184.0
47.165443 136.0
47.185947 60.0
47.216003 176.0
47.336311 176.0
47.369339 136.0
47.381668 156.0
47.409077 156.0
47.487225 220.0
47.535244 156.0
47.557205 152.0
47.631355 112.0
47.766842 200.0
47.892715 180.0
47.911999 220.0
47.990562 140.0
48.002975 204.0
48.023663 112.0
48.107407 140.0
48.123028 164.0
48.210052 92.0
48.239079 168.0
48.299927 216.0
48.376038 172.0
48.409267 192.0
48.430374 152.0
48.461906 124.0
48.503487 124.0
48.528442 216.0
48.547855 168.0
48.575596 52.0
48.588081 164.0
48.681084 100.0
48.700527 132.0
48.731091 176.0
48.829792 144.0
49.105076 224.0
49.153347 148.0
49.282871 208.0
49.312218 188.0
49.38213 56.0
49.426899 148.0
49.477287 152.0
49.510895 44.0
49.525635 168.0
49.634571 192.0
49.687519 172.0
49.71418 136.0
49.754124 132.0
49.820896 124.0
49.920696 144.0
50.021324 164.0
50.047344 160.0
50.21928 176.0
50.246403 176.0
50.265686 148.0
50.303947 300.0
50.344894 140.0
50.373886 160.0
50.473495 160.0
50.517242 176.0
50.680161 120.0
50.707088 180.0
50.719845 128.0
50.823376 120.0
50.873055 124.0
50.948986 156.0
50.963951 136.0
51.012276 256.0
51.042015 144.0
51.18586 200.0
51.211494 208.0
51.292717 204.0
51.341194 180.0
51.409676 180.0
51.497379 192.0
51.571068 180.0
51.589653 148.0
51.62397 176.0
51.724125 152.0
51.738441 172.0
51.748463 176.0
51.843006 180.0
51.949112 76.0
51.982113 224.0
52.00795 144.0
52.032352 172.0
52.046711 208.0
52.079742 220.0
52.176025 140.0
52.239307 124.0
52.294563 100.0
52.36166 172.0
52.378944 140.0
52.443787 144.0
52.475502 48.0
52.487038 152.0
52.505787 168.0
52.582756 104.0
52.602463 224.0
52.645779 36.0
52.670647 204.0
52.726685 176.0
52.830799 208.0
52.852501 196.0
52.87421 88.0
52.897369 204.0
52.936462 116.0
52.946602 144.0
52.972672 56.0
53.039989 176.0
53.06543 180.0
53.113285 148.0
53.137951 168.0
53.156815 156.0
53.204712 120.0
53.23085 156.0
53.242466 188.0
53.252632 88.0
53.290405 204.0
53.303482 240.0
53.331665 164.0
53.348541 120.0
53.45763 96.0
53.492565 164.0
53.507122 160.0
53.528343 216.0
53.577286 160.0
53.597431 208.0
53.622204 112.0
53.633865 136.0
53.660107 200.0
53.70969 132.0
53.727196 160.0
53.743248 208.0
53.760757 224.0
53.78849 144.0
53.879036 160.0
53.930183 128.0
54.058887 196.0
54.159248 220.0
54.174561 136.0
54.234642 100.0
54.274227 184.0
54.288891 104.0
54.334366 200.0
54.437115 152.0
54.557602 136.0
54.597305 96.0
54.617897 220.0
54.660564 148.0
54.673809 160.0
54.71944 160.0
54.735638 144.0
54.773933 144.0
54.831398 140.0
54.958225 44.0
54.971504 148.0
54.986263 204.0
55.049747 160.0
55.064514 160.0
55.120655 168.0
55.218231 124.0
55.240417 148.0
55.262611 184.0
55.338097 180.0
55.506916 168.0
55.569321 60.0
55.598999 196.0
55.671745 88.0
55.710365 184.0
55.728195 176.0
55.762375 124.0
55.775597 228.0
55.81292 160.0
55.858501 204.0
55.864803 68.0
55.871754 212.0
55.891758 164.0
55.925987 148.0
55.963207 236.0
56.046623 192.0
56.065994 180.0
56.158497 192.0
56.180813 56.0
56.201698 172.0
56.215233 176.0
56.23304 52.0
56.262188 152.0
56.276333 196.0
56.31068 180.0
56.334579 36.0
56.363503 168.0
56.416775 140.0
56.499241 144.0
56.516987 164.0
56.567875 136.0
56.699688 156.0
56.785004 208.0
56.81665 196.0
56.833996 136.0
56.899197 120.0
56.932232 152.0
56.94725 204.0
56.963776 48.0
57.010353 112.0
57.09605 116.0
57.115604 160.0
57.162243 152.0
57.248055 184.0
57.277046 144.0
57.28846 208.0
57.311321 144.0
57.349155 208.0
57.370102 196.0
57.395737 56.0
57.41534 144.0
57.430801 160.0
57.455307 192.0
57.477192 208.0
57.490772 200.0
57.507824 180.0
57.533039 164.0
57.553875 160.0
57.5723 168.0
57.602394 160.0
57.708302 220.0
57.718884 180.0
57.738441 176.0
57.780899 176.0
57.829327 132.0
57.843536 184.0
57.864143 196.0
57.895943 144.0
58.097546 212.0
58.117271 52.0
58.131313 172.0
58.155209 156.0
58.209866 136.0
58.220497 144.0
58.284302 216.0
58.385105 168.0
58.421143 92.0
58.465267 148.0
58.504845 180.0
58.527683 220.0
58.547447 192.0
58.594704 148.0
58.61491 168.0
58.643467 164.0
58.661224 216.0
58.67548 72.0
58.695301 36.0
58.715126 148.0
58.728855 248.0
58.803619 116.0
58.837204 112.0
58.879959 132.0
58.908981 144.0
58.919678 136.0
58.936485 104.0
58.975483 116.0
59.017498 120.0
59.051144 200.0
59.069496 168.0
59.087856 184.0
59.107746 200.0
59.165913 220.0
59.231762 132.0
59.267002 140.0
59.30838 92.0
59.403454 116.0
59.435677 120.0
59.446415 164.0
59.51659 140.0
59.57386 120.0
59.615345 156.0
59.637764 164.0
59.647621 192.0
59.706051 196.0
59.75066 152.0
59.761433 152.0
59.787594 116.0
59.809139 104.0
59.84005 156.0
59.899994 140.0
60.06031 172.0
60.080364 140.0
60.148266 148.0
60.166576 228.0
60.264095 72.0
60.307369 108.0
60.344471 92.0
60.366119 160.0
60.386223 176.0
60.440372 136.0
60.571972 200.0
60.630852 152.0
60.69286 220.0
60.70837 128.0
60.792141 216.0
60.818527 100.0
60.855556 136.0
60.869762 112.0
60.885292 200.0
60.939663 180.0
61.003384 100.0
61.043808 196.0
61.092026 76.0
61.115364 168.0
61.230175 96.0
61.249256 40.0
61.266392 64.0
61.283531 212.0
61.325607 136.0
61.352108 68.0
61.465969 180.0
61.498745 152.0
61.529968 152.0
61.673691 112.0
61.711208 196.0
61.808189 172.0
61.855145 32.0
61.893661 188.0
61.985455 160.0
62.028549 128.0
62.052544 100.0
62.140377 172.0
62.204723 148.0
62.248684 156.0
62.347237 164.0
62.491993 112.0
62.528526 44.0
62.575752 188.0
62.648201 124.0
62.66238 164.0
62.886311 180.0
62.941566 220.0
62.95578 184.0
62.992111 164.0
63.04425 180.0
63.102737 100.0
63.123295 108.0
63.177074 228.0
63.205555 160.0
63.238731 112.0
63.324287 144.0
63.430454 192.0
63.443134 64.0
63.536709 172.0
63.584312 152.0
63.856003 148.0
63.890999 136.0
63.911682 156.0
63.987759 176.0
64.150589 252.0
64.195236 140.0
64.240967 208.0
64.258224 220.0
64.321281 240.0
64.3564 124.0
64.401123 84.0
64.484207 228.0
64.502167 136.0
64.560951 176.0
64.615334 192.0
64.695358 108.0
64.721359 100.0
64.746597 176.0
64.801064 88.0
64.845932 56.0
64.860359 232.0
64.908455 156.0
64.959564 148.0
65.004707 128.0
65.048042 124.0
65.165802 136.0
65.192604 132.0
65.223137 192.0
65.240891 152.0
65.268829 172.0
65.374329 152.0
65.467697 164.0
65.478973 204.0
65.501526 224.0
65.51593 140.0
65.561142 64.0
65.633682 164.0
65.651421 156.0
65.675613 148.0
65.71595 192.0
65.733696 160.0
65.773018 200.0
65.948654 168.0
66.03743 128.0
66.096443 176.0
66.186317 124.0
66.227493 208.0
66.309441 36.0
66.351593 56.0
66.382401 152.0
66.421326 148.0
66.604752 208.0
66.672997 212.0
66.736397 204.0
66.809586 148.0
66.884445 84.0
67.003326 180.0
67.039169 176.0
67.055473 184.0
67.119049 64.0
67.141884 200.0
67.203873 168.0
67.327194 176.0
67.388374 176.0
67.543045 112.0
67.56823 132.0
67.605156 176.0
67.674614 88.0
67.690994 224.0
67.786003 180.0
67.816765 156.0
67.830399 92.0
67.834885 112.0
67.840691 176.0
67.884361 216.0
67.923729 140.0
68.045174 240.0
68.063232 128.0
68.140991 236.0
68.173294 208.0
68.308121 72.0
68.327866 132.0
68.355507 180.0
68.457901 92.0
68.597954 188.0
68.624336 116.0
68.647423 124.0
68.701851 236.0
68.744751 120.0
68.772812 172.0
68.784523 168.0
68.838799 252.0
68.901619 204.0
68.96772 128.0
68.983368 172.0
69.038818 132.0
69.08017 180.0
69.134773 204.0
69.209259 176.0
69.244041 188.0
69.327354 140.0
69.373291 60.0
69.391525 232.0
69.419716 208.0
69.439613 148.0
69.479431 136.0
69.498558 136.0
69.570709 76.0
69.662048 220.0
69.674423 192.0
69.711891 120.0
69.725189 188.0
69.753448 188.0
69.828667 200.0
69.862701 172.0
70.064651 184.0
70.112976 184.0
70.186325 140.0
70.246368 212.0
70.286926 156.0
70.31311 200.0
70.415131 192.0
70.498489 152.0
70.580406 200.0
70.59211 68.0
70.640617 164.0
70.687202 156.0
70.72596 208.0
70.764465 128.0
70.93615 168.0
70.994034 200.0
71.009125 192.0
71.076233 148.0
71.112129 216.0
71.129936 188.0
71.142349 264.0
71.187027 132.0
71.217255 204.0
71.245811 140.0
71.259254 160.0
71.371872 160.0
71.407188 172.0
71.464386 128.0
71.518242 220.0
71.530022 200.0
71.555275 132.0
71.575478 236.0
71.587265 160.0
71.605797 128.0
71.65802 100.0
71.760254 188.0
71.8536 180.0
71.894096 148.0
71.907593 88.0
71.927849 212.0
71.948112 192.0
71.98188 116.0
72.093376 224.0
72.189735 44.0
72.298012 104.0
72.359756 172.0
72.380959 220.0
72.630096 132.0
72.691177 196.0
72.843987 172.0
72.866074 160.0
72.917053 176.0
72.928947 64.0
72.940849 92.0
73.051384 72.0
73.121147 132.0
73.145569 220.0
73.180733 204.0
73.230118 72.0
73.250557 152.0
73.279518 192.0
73.313599 164.0
73.351097 60.0
73.484123 88.0
73.750534 152.0
73.81752 132.0
73.889053 176.0
73.924988 44.0
73.948944 164.0
73.976334 168.0
74.036263 88.0
74.253922 68.0
74.281372 124.0
74.29509 44.0
74.312248 160.0
74.334557 112.0
74.375748 88.0
74.417801 176.0
74.430687 168.0
74.458168 180.0
74.485649 176.0
74.548889 136.0
74.561249 112.0
74.588753 180.0
74.619698 156.0
74.719452 176.0
74.793449 56.0
74.819275 156.0
74.846825 116.0
74.988091 92.0
75.031181 176.0
75.120865 348.0
75.280373 160.0
75.302109 168.0
75.314201 116.0
75.366028 140.0
75.426521 216.0
75.49395 132.0
75.549301 76.0
75.658333 124.0
75.744919 124.0
75.789963 156.0
75.825844 148.0
75.91304 228.0
75.940788 200.0
76.256798 152.0
76.274178 148.0
76.311211 172.0
76.3246 56.0
76.542114 204.0
76.655342 180.0
76.676254 208.0
76.698914 216.0
76.719635 184.0
76.770401 108.0
76.845406 52.0
76.873329 144.0
76.937912 188.0
76.957542 148.0
76.98156 140.0
77.035706 76.0
77.109695 140.0
77.140564 176.0
77.187767 168.0
77.205254 88.0
77.224495 244.0
77.320724 168.0
77.362495 88.0
77.422768 156.0
77.462555 244.0
77.47657 96.0
77.53759 204.0
77.601013 152.0
77.673004 156.0
77.749374 212.0
77.794609 212.0
77.829117 188.0
77.899368 176.0
78.089607 192.0
78.250648 184.0
78.27224 48.0
78.30481 176.0
78.335358 196.0
78.39209 212.0
78.490746 144.0
78.543655 188.0
78.585991 164.0
78.670158 140.0
78.721916 160.0
78.736046 164.0
78.77137 56.0
78.923607 260.0
78.955742 208.0
78.9888 208.0
79.033157 168.0
79.058304 156.0
79.102058 100.0
79.157593 152.0
79.204765 128.0
79.226974 164.0
79.35186 104.0
79.397964 200.0
79.45295 104.0
79.486664 176.0
79.566536 108.0
79.580742 168.0
79.596024 152.0
79.614479 92.0
79.687309 196.0
79.721077 156.0
79.802162 156.0
79.850861 296.0
79.863358 148.0
79.879318 120.0
79.934471 100.0
79.954048 116.0
79.978966 168.0
80.030594 156.0
80.103615 120.0
80.119652 164.0
80.201622 196.0
80.251541 136.0
80.33725 212.0
80.396034 144.0
80.442444 192.0
80.472794 52.0
80.565666 176.0
80.604973 124.0
80.672325 240.0
80.709084 216.0
80.724747 252.0
80.749786 196.0
80.783768 116.0
80.815971 168.0
80.925156 148.0
80.941277 80.0
80.964554 136.0
80.984253 144.0
81.005753 116.0
81.022728 184.0
81.102516 128.0
81.131195 180.0
81.15271 172.0
81.174232 120.0
81.31237 172.0
81.36084 152.0
81.379829 228.0
81.436256 88.0
81.461403 152.0
81.61058 144.0
81.66069 148.0
81.66745 128.0
81.795883 196.0
81.825859 160.0
81.848099 128.0
81.90033 196.0
81.916542 148.0
81.943565 100.0
81.999428 236.0
82.096779 140.0
82.174347 160.0
82.207527 176.0
82.408737 172.0
82.435928 320.0
82.466904 152.0
82.550064 52.0
82.580124 136.0
82.595284 220.0
82.609756 128.0
82.662399 212.0
82.714714 156.0
82.741867 80.0
82.756355 108.0
82.779892 176.0
82.91758 248.0
83.02636 176.0
83.077148 152.0
83.171509 48.0
83.247765 36.0
83.31134 208.0
83.329506 176.0
83.376755 204.0
83.414375 184.0
83.446091 228.0
83.471291 188.0
83.582153 152.0
83.618652 252.0
83.651413 48.0
83.684181 172.0
83.709679 40.0
83.740639 124.0
83.778893 204.0
83.82444 192.0
83.90844 196.0
83.925484 180.0
83.950226 156.0
84.019539 128.0
84.10714 192.0
84.138168 112.0
84.328156 168.0
84.483383 148.0
84.553116 104.0
84.606201 120.0
84.694099 184.0
84.739899 156.0
84.769218 236.0
84.792877 176.0
84.831535 152.0
84.862709 136.0
84.95472 188.0
84.992935 220.0
85.016792 204.0
85.02964 132.0
85.106743 68.0
85.196739 180.0
85.259346 172.0
85.319878 200.0
85.400787 152.0
85.461494 204.0
85.506668 88.0
85.560883 92.0
85.625336 176.0
85.654808 156.0
85.687965 160.0
85.711922 196.0
85.734932 344.0
85.767212 184.0
85.796707 164.0
85.853867 152.0
86.099327 140.0
86.183289 244.0
86.206474 52.0
86.2379 68.0
86.278564 72.0
86.315544 184.0
86.328491 204.0
86.382126 224.0
86.406387 180.0
86.452736 176.0
86.519073 132.0
86.54129 148.0
86.572914 208.0
86.670952 180.0
86.745087 160.0
86.789581 168.0
86.886032 156.0
86.908295 184.0
87.001099 120.0
87.02523 220.0
87.067947 188.0
87.103233 176.0
87.248192 136.0
87.343033 200.0
87.359772 52.0
87.437462 144.0
87.527283 152.0
87.611099 140.0
87.635323 136.0
87.717323 124.0
87.770592 196.0
87.803093 120.0
87.948624 164.0
88.077469 184.0
88.32795 108.0
88.412148 188.0
88.427124 124.0
88.531967 60.0
88.545074 180.0
88.588158 124.0
88.651863 104.0
88.704346 176.0
88.738091 96.0
88.777473 132.0
88.859497 176.0
89.036461 284.0
89.097816 356.0
89.158577 132.0
89.173615 52.0
89.263855 152.0
89.324883 152.0
89.482605 176.0
89.536736 236.0
89.568756 44.0
89.608315 144.0
89.621506 68.0
89.722168 152.0
89.779854 160.0
89.905045 168.0
89.949669 220.0
89.974213 52.0
90.002533 184.0
90.019524 144.0
90.127197 172.0
90.147987 184.0
90.191452 100.0
90.225487 136.0
90.255737 216.0
90.291664 64.0
90.307541 244.0
90.312935 212.0
90.318901 200.0
90.410858 112.0
90.469536 64.0
90.489365 76.0
90.585487 184.0
90.655159 124.0
90.704437 136.0
90.721497 220.0
90.746147 164.0
90.948135 136.0
90.987335 132.0
91.0541 1328.0
91.115631 196.0
91.154251 136.0
91.197968 48.0
91.217896 264.0
91.374825 128.0
91.422394 188.0
91.483299 164.0
91.502342 200.0
91.553757 116.0
91.601372 176.0
91.626137 172.0
91.689018 68.0
91.707191 156.0
91.730957 220.0
91.791969 148.0
91.84346 88.0
91.954124 116.0
91.982758 156.0
92.001846 136.0
92.058807 140.0
92.080139 132.0
92.168015 168.0
92.231087 52.0
92.274933 180.0
92.307564 140.0
92.328598 76.0
92.355377 180.0
92.38369 220.0
92.408943 136.0
92.473755 216.0
92.481415 188.0
92.510376 148.0
92.552849 196.0
92.669426 176.0
92.715332 132.0
92.905159 200.0
92.925362 36.0
92.94545 164.0
92.978073 432.0
93.010704 232.0
93.026062 72.0
93.04718 60.0
93.083664 124.0
93.198914 224.0
93.36039 140.0
93.379013 188.0
93.414246 152.0
93.441452 172.0
93.581688 140.0
93.60672 128.0
93.69725 196.0
93.800064 148.0
93.839874 104.0
93.928894 176.0
94.05246 224.0
94.0849 144.0
94.181458 124.0
94.220772 192.0
94.279152 212.0
94.345711 172.0
94.523659 216.0
94.672722 140.0
94.792831 64.0
94.862183 164.0
95.047676 324.0
95.079758 172.0
95.258484 200.0
95.280014 240.0
95.425621 160.0
95.497757 176.0
95.583176 96.0
95.672714 132.0
95.758392 168.0
95.792839 328.0
95.87529 120.0
95.933762 236.0
95.998108 200.0
96.110077 100.0
96.134666 68.0
96.150276 160.0
96.288895 128.0
96.31234 168.0
96.378761 92.0
96.499748 80.0
96.510422 112.0
96.545883 208.0
96.597733 212.0
96.629036 144.0
96.736671 140.0
96.766106 116.0
96.80912 172.0
96.854164 48.0
96.871796 204.0
96.912941 116.0
96.958015 196.0
97.034462 152.0
97.093292 164.0
97.210587 228.0
97.213921 180.0
97.252213 168.0
97.305222 216.0
97.381805 168.0
97.395554 192.0
97.446632 204.0
97.566521 64.0
97.669655 180.0
97.714027 132.0
97.732422 240.0
97.76519 100.0
97.79274 140.0
97.818329 84.0
97.86895 152.0
97.975533 160.0
98.019348 132.0
98.066528 164.0
98.139465 104.0
98.154396 224.0
98.222298 180.0
98.242027 96.0
98.421631 120.0
98.459152 160.0
98.522362 100.0
98.62117 76.0
98.672569 192.0
98.70816 164.0
98.734009 168.0
98.765511 240.0
98.801117 144.0
98.820908 136.0
98.842674 168.0
98.858505 132.0
98.951538 200.0
99.012924 156.0
99.04425 188.0
99.070366 108.0
99.209091 212.0
99.234863 172.0
99.281433 348.0
99.343948 232.0
99.384872 276.0
99.427902 224.0
99.526543 172.0
99.580162 208.0
99.598038 212.0
99.653664 208.0
99.753815 160.0
99.796776 172.0
99.822624 180.0
99.902534 160.0
100.007652 164.0
100.049454 44.0
100.080551 220.0
100.164955 208.0
100.216759 156.0
100.282516 148.0
100.386192 152.0
100.523842 148.0
100.56575 176.0
100.651596 144.0
100.713509 212.0
100.769447 164.0
100.786674 180.0
100.805412 160.0
100.861374 168.0
100.890472 196.0
100.991348 164.0
101.01786 216.0
101.044319 216.0
101.050056 104.0
101.057961 148.0
101.091385 64.0
101.123405 152.0
101.211487 156.0
101.229507 256.0
101.247536 180.0
101.273575 220.0
101.309631 152.0
101.363724 132.0
101.397797 200.0
101.447906 160.0
101.473969 180.0
101.490013 124.0
101.570236 132.0
101.668549 352.0
101.73278 224.0
101.866913 156.0
101.879974 176.0
101.913536 92.0
101.931625 216.0
101.989906 136.0
102.070328 40.0
102.089012 192.0
102.134682 128.0
102.251381 220.0
102.293655 136.0
102.435829 152.0
102.489014 148.0
102.579704 168.0
102.632126 64.0
102.763237 140.0
102.785431 68.0
102.83992 236.0
102.888542 184.0
102.914619 176.0
102.942886 64.0
102.999435 92.0
103.055466 356.0
103.072174 124.0
103.108055 196.0
103.113686 148.0
103.179298 224.0
103.211647 184.0
103.270294 124.0
103.56176 164.0
103.77462 240.0
103.839073 144.0
103.863785 168.0
103.930092 148.0
104.058197 336.0
104.137802 144.0
104.343048 168.0
104.382797 212.0
104.416252 152.0
104.503731 132.0
104.64621 208.0
104.693039 36.0
104.727669 256.0
104.743958 128.0
104.774521 156.0
104.827492 80.0
104.849915 148.0
104.874374 168.0
104.935532 136.0
104.951843 260.0
105.029343 160.0
105.069405 316.0
105.091354 160.0
105.117065 208.0
105.164009 152.0
105.186462 204.0
105.298767 176.0
105.35392 52.0
105.42543 164.0
105.456093 120.0
105.478577 160.0
105.588989 188.0
105.607399 144.0
105.691277 160.0
105.771095 220.0
105.905533 140.0
105.97551 108.0
106.063835 324.0
106.098862 144.0
106.121422 60.0
106.234222 112.0
106.264992 160.0
106.390556 156.0
106.462105 160.0
106.593529 176.0
106.636856 148.0
106.654854 196.0
106.799126 68.0
106.853241 144.0
106.911003 148.0
106.978149 56.0
106.992561 128.0
107.049713 408.0
107.074402 500.0
107.09552 136.0
107.165565 52.0
107.186172 144.0
107.252121 224.0
107.32428 44.0
107.346962 144.0
107.379959 144.0
107.401573 192.0
107.584244 212.0
107.619347 140.0
107.700996 156.0
107.768059 192.0
107.885864 112.0
107.960304 172.0
108.055244 288.0
108.078217 280.0
108.171349 164.0
108.187912 188.0
108.266594 128.0
108.324593 156.0
108.388817 192.0
108.436485 60.0
108.61895 172.0
108.652145 152.0
108.72892 164.0
108.76313 172.0
108.801575 156.0
108.816109 176.0
108.836868 124.0
108.861786 156.0
108.898155 196.0
108.910065 132.0
108.925301 204.0
108.949028 148.0
108.978111 160.0
108.996819 92.0
109.013443 88.0
109.061882 388.0
109.175591 108.0
109.206795 164.0
109.223434 168.0
109.285843 48.0
109.312897 208.0
109.43499 232.0
109.46434 176.0
109.504433 232.0
109.545525 132.0
109.575768 164.0
109.712807 136.0
109.768234 200.0
109.833763 144.0
109.892174 188.0
110.069595 168.0
110.113457 36.0
110.148964 180.0
110.21373 164.0
110.242981 248.0
110.372589 152.0
110.408142 184.0
110.483444 140.0
110.500183 100.0
110.529472 176.0
110.553665 172.0
110.68647 232.0
110.711601 128.0
110.76606 188.0
110.899841 184.0
110.94838 156.0
111.038544 136.0
111.065811 144.0
111.114059 188.0
111.191704 216.0
111.233681 124.0
111.331093 184.0
111.40168 140.0
111.422691 88.0
111.519356 164.0
111.548782 136.0
111.597137 96.0
111.649712 160.0
111.683365 96.0
111.708603 192.0
111.746597 188.0
111.836967 192.0
111.904327 156.0
111.963295 252.0
112.001205 136.0
112.026482 52.0
112.041229 200.0
112.064407 136.0
112.146591 108.0
112.273094 176.0
112.304733 124.0
112.347878 204.0
112.3638 244.0
112.389938 176.0
112.448212 152.0
112.500984 160.0
112.545319 120.0
112.621475 192.0
112.735268 152.0
112.766792 148.0
112.822098 192.0
112.879189 176.0
112.984947 116.0
113.037842 76.0
113.114037 208.0
113.238968 104.0
113.315224 192.0
113.402115 152.0
113.529274 196.0
113.580223 160.0
113.614166 72.0
113.662926 204.0
113.78183 144.0
113.957047 184.0
113.961342 92.0
113.971527 140.0
114.072876 144.0
114.149422 100.0
114.170685 144.0
114.197815 172.0
114.257896 152.0
114.466492 80.0
114.564102 348.0
114.70298 88.0
114.724304 84.0
114.775475 248.0
114.830917 88.0
114.882111 40.0
114.984535 64.0
115.034966 148.0
115.053177 832.0
115.10836 72.0
115.138252 188.0
115.182861 136.0
115.219429 164.0
115.354065 144.0
115.441437 176.0
115.449432 152.0
115.484497 208.0
115.518387 176.0
115.595749 132.0
115.632133 152.0
115.699051 200.0
115.781998 76.0
115.916969 152.0
116.020508 208.0
116.053253 304.0
116.112053 184.0
116.172112 196.0
116.249359 92.0
116.350243 56.0
116.371712 112.0
116.409477 228.0
116.448105 188.0
116.532799 228.0
116.554283 168.0
116.610161 124.0
116.719803 184.0
116.748604 204.0
116.799377 180.0
116.878983 160.0
116.898346 244.0
116.999512 116.0
117.056282 196.0
117.156731 176.0
117.212746 124.0
117.255852 108.0
117.342072 92.0
117.35717 60.0
117.460686 180.0
117.49305 172.0
117.531883 280.0
117.665703 132.0
117.69593 124.0
117.717529 220.0
117.765038 228.0
117.79744 136.0
117.816544 152.0
118.026535 144.0
118.063782 1052.0
118.093582 152.0
118.130974 180.0
118.21257 152.0
118.234215 164.0
118.271004 152.0
118.288063 164.0
118.305641 112.0
118.32946 244.0
118.39875 152.0
118.474564 120.0
118.515732 164.0
118.543449 152.0
118.643608 148.0
118.728172 120.0
118.799751 136.0
118.82737 236.0
118.903908 188.0
118.97554 172.0
119.014618 104.0
119.048431 7888.0
119.071152 380.0
119.117607 44.0
119.174271 112.0
119.238373 48.0
119.318802 48.0
119.381859 48.0
119.407959 184.0
119.453636 76.0
119.517921 264.0
119.603783 112.0
119.623375 148.0
119.660385 116.0
119.701759 132.0
119.748596 148.0
119.900002 188.0
119.923981 84.0
119.961037 256.0
120.050835 824.0
120.094528 128.0
120.159492 176.0
120.261406 212.0
120.323189 48.0
120.347198 208.0
120.41053 52.0
120.52092 188.0
120.528847 100.0
120.535698 204.0
120.570618 132.0
120.594063 128.0
120.635597 180.0
120.657455 156.0
120.694626 44.0
120.761154 124.0
120.797417 168.0
120.882256 176.0
120.911201 160.0
121.011528 168.0
121.063728 316.0
121.10363 180.0
121.123589 76.0
121.154259 28.0
121.169594 120.0
121.198074 68.0
121.233139 156.0
121.382202 84.0
121.434837 100.0
121.494064 96.0
121.520393 180.0
121.557693 96.0
121.581841 128.0
121.597198 228.0
121.663055 108.0
121.70916 132.0
121.759666 124.0
121.854126 116.0
121.974998 68.0
122.035538 272.0
122.070541 220.0
122.096542 164.0
122.183914 180.0
122.225723 136.0
122.293945 172.0
122.376152 232.0
122.450272 220.0
122.467888 40.0
122.492783 160.0
122.521629 228.0
122.608902 188.0
122.633148 116.0
122.657394 164.0
122.69046 200.0
122.827187 136.0
122.860275 236.0
122.997093 156.0
123.041039 168.0
123.081116 420.0
123.11528 996.0
123.19809 148.0
123.213516 224.0
123.275383 148.0
123.350533 180.0
123.366005 144.0
123.52523 244.0
123.622581 280.0
123.652168 124.0
123.67791 140.0
123.810387 168.0
123.852837 156.0
123.937027 100.0
124.048096 176.0
124.075508 164.0
124.154266 168.0
124.214157 92.0
124.285149 212.0
124.322876 100.0
124.413879 120.0
124.45385 96.0
124.678207 52.0
124.695992 88.0
124.853844 160.0
124.876083 184.0
124.913895 44.0
125.005119 144.0
125.063316 204.0
125.245575 184.0
125.316864 104.0
125.354744 144.0
125.475105 132.0
125.492943 128.0
125.570992 168.0
125.624527 176.0
125.64238 124.0
125.680305 208.0
125.718239 172.0
125.751251 152.0
125.780739 152.0
125.88121 152.0
125.896843 180.0
125.912476 148.0
126.028633 164.0
126.056404 200.0
126.131439 212.0
126.191803 220.0
126.238762 176.0
126.263359 172.0
126.330467 180.0
126.657295 88.0
126.764832 160.0
126.791725 92.0
126.818626 176.0
126.838799 220.0
126.905754 120.0
126.925873 100.0
127.045105 104.0
127.202194 204.0
127.242607 92.0
127.270668 72.0
127.440254 140.0
127.455986 36.0
127.545883 60.0
127.57061 116.0
127.597588 56.0
127.624565 88.0
127.670372 196.0
127.811264 56.0
127.840523 160.0
127.885529 140.0
127.958336 212.0
127.992378 164.0
128.013855 156.0
128.063889 168.0
128.081436 180.0
128.13324 216.0
128.272964 168.0
128.437576 184.0
128.530075 176.0
128.566177 348.0
128.602295 80.0
128.751312 152.0
128.78067 164.0
128.86142 140.0
128.941086 128.0
128.9664 204.0
128.988556 112.0
129.015686 64.0
129.060898 148.0
129.08577 84.0
129.106125 160.0
129.253174 156.0
129.374374 224.0
129.413879 100.0
129.504471 204.0
129.532806 144.0
129.574692 220.0
129.592819 176.0
129.617737 164.0
129.78775 168.0
129.803619 216.0
129.833099 136.0
129.988617 104.0
130.028214 148.0
130.06456 400.0
130.103119 128.0
130.125824 220.0
130.182877 164.0
130.248459 128.0
130.268906 240.0
130.324585 316.0
130.350693 160.0
130.421158 132.0
130.521194 56.0
130.555298 136.0
130.750946 176.0
130.869324 56.0
130.910309 160.0
130.93309 100.0
130.971802 244.0
131.026489 236.0
131.049271 136.0
131.229324 192.0
131.293182 196.0
131.329666 140.0
131.347916 48.0
131.432327 48.0
131.455154 112.0
131.557861 100.0
131.594391 148.0
131.715439 80.0
131.804535 124.0
131.822815 148.0
131.893661 180.0
131.955383 236.0
132.052063 548.0
132.08403 144.0
132.122345 108.0
132.163254 200.0
132.195923 184.0
132.250488 116.0
132.307724 172.0
132.390152 112.0
132.429092 212.0
132.447418 172.0
132.493225 144.0
132.548218 140.0
132.614685 132.0
132.668884 204.0
132.704086 160.0
132.805161 168.0
132.846283 180.0
132.878403 152.0
132.89447 372.0
132.982941 144.0
132.991531 80.0
132.998932 168.0
133.050644 556.0
133.091858 160.0
133.114822 60.0
133.168533 248.0
133.199799 76.0
133.225067 84.0
133.263672 180.0
133.287109 204.0
133.336212 232.0
133.438812 204.0
133.514694 172.0
133.539993 128.0
133.576797 212.0
133.634308 152.0
133.675735 128.0
133.781616 84.0
133.834457 184.0
133.866806 156.0
133.933594 140.0
133.96814 220.0
133.995789 208.0
134.027664 188.0
134.059097 6792.0
134.1064 64.0
134.129456 124.0
134.175842 200.0
134.256271 60.0
134.272415 128.0
134.33847 188.0
134.349243 144.0
134.404587 164.0
134.44545 140.0
134.473145 104.0
134.498535 188.0
134.558548 108.0
134.609344 120.0
134.745636 176.0
134.798767 212.0
134.847305 160.0
134.9814 128.0
135.066162 7900.0
135.102936 176.0
135.131744 76.0
135.154877 156.0
135.179016 84.0
135.21376 108.0
135.25209 148.0
135.305328 124.0
135.335434 56.0
135.421112 160.0
135.453537 268.0
135.580475 240.0
135.685287 164.0
135.715424 172.0
135.738617 120.0
135.794632 52.0
135.815155 84.0
135.895096 152.0
135.916458 228.0
136.051224 4120.0
136.068222 1068.0
136.099915 148.0
136.133118 204.0
136.167953 72.0
136.213226 220.0
136.274292 252.0
136.300369 188.0
136.329117 172.0
136.374741 152.0
136.423553 176.0
136.463074 180.0
136.50029 308.0
136.525864 188.0
136.584015 188.0
136.688705 216.0
136.888901 164.0
136.945007 88.0
137.058151 3644.0
137.094238 188.0
137.140518 36.0
137.177811 156.0
137.203461 136.0
137.289734 36.0
137.320053 96.0
137.420364 192.0
137.448364 64.0
137.485703 216.0
137.52771 68.0
137.580032 164.0
137.632767 128.0
137.655334 156.0
137.782242 44.0
137.858414 208.0
137.994934 108.0
138.060867 292.0
138.09082 216.0
138.153976 136.0
138.238205 168.0
138.259262 208.0
138.636322 180.0
138.671478 44.0
138.694916 48.0
138.740189 148.0
138.777649 192.0
138.80275 236.0
138.870773 204.0
138.910126 292.0
138.962265 132.0
138.999802 136.0
139.030121 244.0
139.073456 232.0
139.243958 168.0
139.373154 200.0
139.547089 92.0
139.598251 364.0
139.615295 56.0
139.713608 160.0
139.747025 104.0
139.827026 184.0
139.845093 196.0
139.902359 40.0
140.135513 148.0
140.177933 56.0
140.225067 184.0
140.315796 120.0
140.408966 120.0
140.486801 240.0
140.577896 204.0
140.647263 112.0
140.720459 56.0
140.793655 200.0
140.899948 32.0
140.930618 196.0
141.08429 208.0
141.100662 156.0
141.133942 176.0
141.164688 48.0
141.47464 164.0
141.568207 204.0
141.794418 280.0
141.969147 212.0
142.033905 96.0
142.050507 144.0
142.140656 260.0
142.212326 248.0
142.298325 208.0
142.353943 184.0
142.482574 88.0
142.772568 224.0
142.910538 148.0
142.943848 232.0
143.046997 916.0
143.071823 240.0
143.09314 880.0
143.122391 168.0
143.141434 136.0
143.196213 192.0
143.220032 164.0
143.258148 240.0
143.427338 176.0
143.467926 128.0
143.501236 120.0
143.592865 188.0
143.618088 128.0
143.711136 56.0
143.730225 172.0
143.749313 76.0
143.792267 156.0
143.880585 192.0
143.945053 144.0
143.997177 300.0
144.055771 320.0
144.131378 204.0
144.20546 148.0
144.287781 184.0
144.324997 192.0
144.377609 184.0
144.522537 236.0
144.55336 316.0
144.683884 224.0
144.715012 144.0
144.78685 120.0
144.853912 180.0
144.877869 200.0
144.906616 168.0
145.00209 172.0
145.019775 184.0
145.04744 1488.0
145.079178 168.0
145.182281 128.0
145.199066 64.0
145.256775 140.0
145.405411 76.0
145.424606 40.0
145.448608 28.0
145.521042 164.0
145.579834 208.0
145.657516 180.0
145.695953 204.0
145.768036 44.0
145.98439 136.0
146.039017 368.0
146.05751 1712.0
146.079315 164.0
146.118347 244.0
146.151718 172.0
146.205719 88.0
146.244232 128.0
146.261078 168.0
146.335709 244.0
146.533203 160.0
146.552475 184.0
146.588623 372.0
146.793533 152.0
146.841766 192.0
146.870712 140.0
146.959976 136.0
147.013062 152.0
147.043091 532.0
147.064835 1288.0
147.155472 148.0
147.220673 156.0
147.346283 160.0
147.401855 240.0
147.527542 32.0
147.561386 144.0
147.609741 212.0
147.670212 124.0
147.844131 180.0
147.874695 228.0
147.961777 172.0
148.008743 252.0
148.039719 216.0
148.074371 300.0
148.168213 212.0
148.30365 208.0
148.34549 160.0
148.37973 344.0
148.488846 196.0
148.510681 180.0
148.547058 196.0
148.586929 176.0
148.639252 172.0
148.657288 172.0
148.685364 196.0
148.724197 236.0
148.809174 120.0
148.838303 156.0
148.855301 164.0
148.906311 260.0
149.05838 248.0
149.163864 200.0
149.212494 204.0
149.368134 208.0
149.431381 156.0
149.453278 220.0
149.528717 192.0
149.557922 64.0
149.584702 204.0
149.630783 108.0
149.691833 248.0
149.788208 112.0
149.816055 336.0
149.864777 84.0
149.923264 148.0
150.039688 188.0
150.063385 432.0
150.090225 672.0
150.117203 80.0
150.234451 208.0
150.246613 112.0
150.250778 164.0
150.340607 124.0
150.358932 220.0
150.382553 136.0
150.467224 192.0
150.525879 144.0
150.672379 76.0
150.703293 208.0
150.72612 176.0
150.750565 104.0
150.78862 160.0
150.839493 344.0
150.87767 180.0
150.951019 164.0
150.981628 272.0
151.075073 21100.0
151.141815 240.0
151.160248 136.0
151.237259 208.0
151.264191 52.0
151.30748 216.0
151.352325 36.0
151.371918 56.0
151.442947 112.0
151.464981 44.0
151.547958 220.0
151.715408 120.0
151.793411 208.0
151.930756 32.0
152.052704 132.0
152.077454 2212.0
152.132004 32.0
152.190918 120.0
152.215469 200.0
152.257217 148.0
152.286697 144.0
152.407074 168.0
152.511749 88.0
152.645508 164.0
152.66272 72.0
152.788177 144.0
152.849686 52.0
152.906281 148.0
152.930893 104.0
152.989975 52.0
153.009674 120.0
153.036758 180.0
153.081238 264.0
153.140182 120.0
153.157425 148.0
153.201767 160.0
153.233795 44.0
153.374268 40.0
153.401382 140.0
153.482742 224.0
153.54686 128.0
153.578918 148.0
153.608521 100.0
153.665268 176.0
153.912094 168.0
153.932678 180.0
153.988647 148.0
154.045471 164.0
154.083755 136.0
154.178894 184.0
154.208542 180.0
154.304962 92.0
154.364304 236.0
154.478073 172.0
154.599319 128.0
154.624069 60.0
154.651291 56.0
154.742889 60.0
154.772598 96.0
154.812225 164.0
154.863129 160.0
155.016098 200.0
155.069885 208.0
155.092499 168.0
155.124405 180.0
155.280624 136.0
155.496475 152.0
155.577194 136.0
155.658783 160.0
155.762161 188.0
155.791962 164.0
155.896332 108.0
155.913727 176.0
155.958466 84.0
155.998016 136.0
156.044495 204.0
156.062881 136.0
156.144943 140.0
156.180313 236.0
156.254395 212.0
156.296692 212.0
156.320282 148.0
156.386276 72.0
156.458862 128.0
156.510757 168.0
156.548965 140.0
156.597366 200.0
156.739929 112.0
156.7798 196.0
156.969254 128.0
157.031601 128.0
157.116409 152.0
157.156342 140.0
157.231201 160.0
157.261154 244.0
157.306076 120.0
157.380981 288.0
157.568298 152.0
157.588287 144.0
157.615784 124.0
157.63327 156.0
157.658264 136.0
157.780746 160.0
157.848251 132.0
157.918274 116.0
157.972122 144.0
158.020844 120.0
158.060074 160.0
158.178513 220.0
158.198532 164.0
158.521637 176.0
158.601837 112.0
158.687073 116.0
158.830017 224.0
158.850098 148.0
159.018204 152.0
159.043304 112.0
159.062668 304.0
159.168839 156.0
159.206512 136.0
159.234131 160.0
159.337128 192.0
159.357224 168.0
159.43512 148.0
159.502991 108.0
159.523102 256.0
159.548233 132.0
159.613602 180.0
159.666412 80.0
159.686539 36.0
159.726776 240.0
160.02626 152.0
160.055817 320.0
160.066406 500.0
160.348709 100.0
160.411728 156.0
160.479797 48.0
160.610931 184.0
160.753433 164.0
160.79007 132.0
160.928909 176.0
160.99205 156.0
161.051285 704.0
161.164963 176.0
161.219406 76.0
161.323044 212.0
161.406479 156.0
161.446945 232.0
161.545578 92.0
161.590714 172.0
161.620819 168.0
161.699936 92.0
161.738007 188.0
161.791061 228.0
161.817551 156.0
161.862427 132.0
161.922745 188.0
162.011978 208.0
162.055344 1368.0
162.092468 124.0
162.12059 188.0
162.143158 100.0
162.209061 68.0
162.246857 160.0
162.310471 120.0
162.333298 184.0
162.36586 148.0
162.375183 124.0
162.401779 136.0
162.432205 144.0
162.538818 208.0
162.561615 128.0
162.579376 164.0
162.633987 108.0
162.66243 172.0
162.691055 152.0
162.720428 176.0
162.743423 220.0
162.793488 180.0
162.838333 188.0
162.904938 72.0
162.927841 396.0
162.956146 212.0
162.984406 148.0
163.03154 716.0
163.062836 86580.0
163.12944 212.0
163.166885 48.0
163.194824 212.0
163.21843 128.0
163.257858 56.0
163.296829 212.0
163.322357 168.0
163.376114 100.0
163.41539 120.0
163.437149 80.0
163.459671 180.0
163.481339 252.0
163.552948 80.0
163.598633 68.0
163.638672 124.0
163.680115 68.0
163.713928 128.0
163.741226 72.0
163.766693 124.0
163.794724 52.0
163.905151 132.0
163.996017 196.0
164.066162 11924.0
164.107025 88.0
164.124298 76.0
164.167114 184.0
164.189072 228.0
164.221848 140.0
164.284164 228.0
164.365814 104.0
164.427063 84.0
164.457687 108.0
164.534149 84.0
164.574448 76.0
164.600647 80.0
164.68132 116.0
164.792221 208.0
164.838226 104.0
164.892624 84.0
164.92247 112.0
164.928711 108.0
164.957718 148.0
165.036148 84.0
165.067825 556.0
165.087601 376.0
165.134781 52.0
165.158936 132.0
165.193619 80.0
165.211517 148.0
165.244186 104.0
165.253357 52.0
165.274277 68.0
165.3125 232.0
165.336502 108.0
165.396484 116.0
165.422104 140.0
165.498169 52.0
165.621094 192.0
165.797882 192.0
165.846588 68.0
165.915802 192.0
165.944 32.0
166.067093 56.0
166.090637 180.0
166.137756 184.0
166.182541 136.0
166.214447 164.0
166.264648 40.0
166.368149 160.0
166.426376 116.0
166.472595 128.0
166.562485 56.0
166.583038 44.0
166.603592 124.0
166.750061 196.0
166.834885 96.0
166.899734 164.0
166.940308 164.0
166.970276 208.0
166.991745 144.0
167.022614 136.0
167.066345 192.0
167.086304 268.0
167.156403 144.0
167.194992 196.0
167.215591 124.0
167.241333 172.0
167.290237 152.0
167.344299 172.0
167.502365 160.0
167.614761 68.0
167.661148 184.0
167.723007 160.0
167.761673 176.0
167.931854 76.0
167.990143 160.0
168.058273 104.0
168.081497 164.0
168.122787 84.0
168.254425 52.0
168.300156 152.0
168.45845 176.0
168.533371 120.0
168.65892 96.0
168.668396 128.0
168.727219 156.0
168.965149 108.0
169.011719 56.0
169.117828 148.0
169.216202 116.0
169.235947 192.0
169.337906 164.0
169.506302 152.0
169.547775 104.0
169.573685 140.0
169.778503 168.0
169.934143 92.0
169.978043 140.0
170.014587 120.0
170.133987 184.0
170.222275 108.0
170.27681 260.0
170.438095 144.0
170.531433 184.0
170.58342 236.0
170.632904 216.0
170.921524 128.0
171.070862 180.0
171.155792 140.0
171.207886 204.0
171.345932 156.0
171.442352 108.0
171.523148 128.0
171.56485 48.0
171.588318 156.0
171.736954 180.0
171.922195 256.0
172.008331 92.0
172.125824 72.0
172.196335 184.0
172.311264 104.0
172.340012 212.0
172.564789 100.0
172.614471 136.0
172.72171 164.0
172.745255 100.0
172.902237 60.0
173.084686 428.0
173.134399 196.0
173.292419 212.0
173.494232 128.0
173.565018 128.0
173.611313 236.0
173.761734 120.0
173.816833 192.0
173.897293 128.0
174.061844 144.0
174.088486 220.0
174.110855 204.0
174.179153 156.0
174.217377 224.0
174.250076 160.0
174.278976 160.0
174.410385 40.0
174.452438 108.0
174.50766 52.0
174.675964 140.0
174.760162 156.0
174.891739 108.0
174.923325 44.0
175.03215 180.0
175.074905 1468.0
175.112305 156.0
175.205109 224.0
175.286789 96.0
175.355316 76.0
175.439667 124.0
175.5466 208.0
175.576782 108.0
175.59787 88.0
175.653259 148.0
175.690201 148.0
175.778549 156.0
175.869644 140.0
176.036392 148.0
176.069687 8516.0
176.146896 92.0
176.197098 204.0
176.227081 156.0
176.249939 64.0
176.270752 128.0
176.350357 108.0
176.391327 104.0
176.464035 100.0
176.49382 236.0
176.540726 80.0
176.564514 164.0
176.601547 156.0
176.657104 132.0
176.694946 196.0
176.775864 176.0
176.889969 120.0
176.932983 96.0
177.004379 132.0
177.032944 116.0
177.0746 1184.0
177.143265 160.0
177.16539 216.0
177.260818 216.0
177.320862 172.0
177.402328 204.0
177.427185 112.0
177.437881 88.0
177.450073 184.0
177.497879 268.0
177.529999 200.0
177.568298 184.0
177.613388 96.0
177.634613 148.0
177.686127 404.0
177.707291 192.0
177.725861 132.0
177.761261 532.0
177.789337 216.0
177.8284 128.0
177.860168 44.0
177.881088 380.0
177.937622 264.0
177.964813 76.0
177.98526 548.0
178.021317 388.0
178.086487 211256.0
178.128845 556.0
178.156311 160.0
178.166824 284.0
178.203827 136.0
178.237473 132.0
178.263489 128.0
178.300766 172.0
178.328308 188.0
178.346024 124.0
178.390259 196.0
178.435791 232.0
178.483536 124.0
178.522812 1684.0
178.547394 168.0
178.570206 244.0
178.597961 108.0
178.621597 224.0
178.652893 76.0
178.674942 160.0
178.715912 128.0
178.745407 120.0
178.769928 176.0
178.789642 88.0
178.800186 48.0
178.823212 220.0
178.860184 160.0
178.88092 72.0
178.900345 120.0
178.941544 100.0
178.974548 192.0
179.005692 88.0
179.042099 276.0
179.08905 24140.0
179.156097 108.0
179.183258 76.0
179.237808 52.0
179.276611 156.0
179.326965 44.0
179.358734 140.0
179.417755 68.0
179.436844 116.0
179.456375 56.0
179.480225 76.0
179.518433 44.0
179.563782 172.0
179.603058 40.0
179.625931 76.0
179.662445 120.0
179.712753 68.0
179.765808 92.0
179.793488 96.0
179.816513 92.0
179.872955 76.0
179.930588 76.0
179.955322 72.0
179.98584 56.0
180.018646 84.0
180.091278 1712.0
180.136429 112.0
180.156662 64.0
180.178726 148.0
180.218582 220.0
180.252991 188.0
180.31105 144.0
180.330154 104.0
180.356964 116.0
180.381714 120.0
180.405289 76.0
180.433151 108.0
180.451675 364.0
180.47496 88.0
180.49379 160.0
180.507172 148.0
180.517242 264.0
180.555786 260.0
180.576035 188.0
180.599365 124.0
180.652863 128.0
180.674271 108.0
180.803635 104.0
180.853561 56.0
180.888367 76.0
180.966003 72.0
181.000809 108.0
181.027588 92.0
181.060028 312.0
181.094543 140.0
181.125122 56.0
181.161835 200.0
181.196335 72.0
181.327835 108.0
181.350189 116.0
181.397339 176.0
181.472397 96.0
181.511673 68.0
181.566254 140.0
181.603195 124.0
181.724014 64.0
181.794296 104.0
181.880173 56.0
181.904327 48.0
182.038574 36.0
182.063461 152.0
182.106888 184.0
182.132584 60.0
182.159439 176.0
182.231979 92.0
182.320663 72.0
182.46312 36.0
182.559921 156.0
182.656754 72.0
182.748367 132.0
182.77243 56.0
182.838364 176.0
182.960846 116.0
183.03624 72.0
183.064636 132.0
183.19783 128.0
183.408508 240.0
183.896225 76.0
184.071716 156.0
184.133835 228.0
184.171646 152.0
185.095764 188.0
185.250961 84.0
185.297012 48.0
185.581604 68.0
186.303543 212.0
186.482895 56.0
186.610657 112.0
187.010559 40.0
187.069 160.0
187.113998 52.0
187.271942 136.0
187.383636 72.0
187.408157 36.0
187.549866 120.0
187.723862 180.0
187.754349 80.0
187.868912 104.0
188.066986 184.0
188.095413 184.0
188.185501 160.0
188.40126 224.0
188.434052 88.0
188.823776 112.0
188.934372 92.0
188.983612 60.0
189.051071 216.0
189.073975 544.0
189.153305 80.0
189.180679 76.0
189.498367 68.0
189.569611 44.0
189.731323 108.0
189.87941 120.0
190.083633 1196.0
190.129059 76.0
190.203873 140.0
190.227875 52.0
190.249832 32.0
190.318481 72.0
190.769058 76.0
190.83165 52.0
190.847473 84.0
191.002792 116.0
191.090363 2984.0
191.335785 64.0
191.412872 48.0
191.545074 136.0
191.624969 36.0
191.707642 132.0
191.754486 56.0
191.999146 168.0
192.098404 276.0
192.53804 180.0
192.598801 124.0
192.872345 60.0
193.09346 132.0
193.129501 120.0
193.323181 84.0
193.484573 52.0
193.652634 48.0
194.035049 168.0
194.073868 132.0
194.112686 68.0
194.418579 144.0
194.50943 112.0
194.759338 92.0
194.803787 44.0
194.942719 156.0
195.078522 260.0
195.097168 148.0
195.368118 144.0
196.04628 108.0
196.081436 332.0
196.145065 52.0
196.997406 64.0
197.071625 180.0
197.103821 160.0
197.180603 48.0
197.485367 200.0
197.510544 108.0
197.658813 148.0
197.851944 112.0
198.117996 192.0
198.440308 164.0
198.555267 120.0
198.597351 248.0
198.981796 36.0
199.344147 92.0
199.653381 64.0
199.909393 176.0
200.151474 212.0
201.073776 124.0
201.101547 148.0
201.578827 72.0
201.785172 92.0
201.875656 176.0
202.076492 156.0
202.107224 600.0
202.30574 40.0
202.368027 44.0
202.532272 108.0
202.617264 232.0
202.645599 104.0
202.685257 64.0
203.062302 108.0
203.096344 244.0
203.226837 28.0
203.246704 144.0
203.266571 140.0
203.303467 60.0
203.933975 156.0
204.048996 172.0
204.09317 132.0
204.204071 200.0
204.801804 56.0
205.067322 168.0
205.089584 136.0
205.537338 88.0
206.014481 208.0
206.094147 344.0
206.394272 144.0
206.660278 44.0
207.077164 1456.0
207.192825 116.0
207.238663 88.0
207.545364 132.0
207.786285 124.0
207.858017 164.0
208.004395 56.0
208.085419 844.0
208.320282 204.0
208.535782 88.0
209.048859 240.0
209.094986 208.0
209.122543 108.0
209.554504 152.0
209.718765 64.0
209.932114 64.0
210.073441 172.0
210.116714 72.0
210.29274 84.0
210.324493 32.0
210.676804 60.0
210.988922 84.0
211.074265 244.0
211.10965 212.0
211.388077 164.0
211.480682 88.0
211.689133 84.0
212.036789 156.0
212.068329 172.0
212.094757 192.0
212.532669 52.0
212.721313 124.0
213.029144 56.0
213.074814 172.0
213.369156 216.0
213.578537 140.0
213.962677 92.0
214.087875 200.0
214.124283 360.0
214.338409 148.0
214.59491 68.0
215.099152 204.0
215.479263 168.0
216.11795 344.0
216.494278 168.0
216.634872 96.0
217.068909 200.0
217.112839 124.0
217.141968 44.0
217.48233 156.0
217.878754 88.0
217.978653 112.0
218.068497 700.0
218.284378 60.0
218.349075 176.0
218.443207 204.0
218.964188 132.0
219.079239 1424.0
220.078552 816.0
220.282684 80.0
220.486557 76.0
220.557495 76.0
220.702347 156.0
220.909378 164.0
221.06572 128.0
221.094116 268.0
221.566605 200.0
221.694016 128.0
221.762177 68.0
221.943024 48.0
222.031982 152.0
222.072357 228.0
222.103165 168.0
222.153595 72.0
222.59584 132.0
222.794846 64.0
223.035553 160.0
223.075363 308.0
223.105545 296.0
223.547104 132.0
224.082764 468.0
224.113785 200.0
224.160553 52.0
224.252945 68.0
224.452682 124.0
224.876312 52.0
225.092957 424.0
225.461685 164.0
225.494568 116.0
225.581253 48.0
225.868317 60.0
226.066345 172.0
226.090439 384.0
226.20047 120.0
226.511902 88.0
226.640732 100.0
226.784576 124.0
227.073364 176.0
227.132401 228.0
227.417465 96.0
227.909973 116.0
228.07666 112.0
228.092834 52.0
228.101318 156.0
228.124512 236.0
228.393997 56.0
228.427094 76.0
228.493271 84.0
228.586548 184.0
228.667801 164.0
228.727997 124.0
229.062134 208.0
229.105713 160.0
229.797852 224.0
230.117783 168.0
230.703903 100.0
231.072876 136.0
231.115234 176.0
231.287735 112.0
231.751083 140.0
232.008713 120.0
232.160324 120.0
232.217941 196.0
232.290741 160.0
232.603302 188.0
232.624542 60.0
232.855316 112.0
233.054047 172.0
233.094696 284.0
233.153061 100.0
233.499649 200.0
233.627396 96.0
233.925629 160.0
234.061508 228.0
234.093094 180.0
234.836731 156.0
235.038071 160.0
235.075211 1084.0
235.111313 136.0
235.798477 92.0
236.081131 932.0
236.967438 104.0
237.049179 324.0
237.085144 312.0
237.641983 128.0
238.087311 260.0
238.240662 52.0
238.451248 60.0
238.612534 128.0
238.670959 104.0
238.784744 108.0
238.94162 44.0
239.06163 316.0
239.103683 876.0
239.138565 144.0
239.169342 208.0
239.434128 148.0
239.492661 152.0
239.77919 172.0
240.064209 176.0
240.100266 484.0
240.128189 144.0
240.337372 104.0
240.624405 52.0
241.085571 384.0
241.93837 152.0
242.025055 136.0
242.088165 200.0
242.113434 272.0
242.678833 188.0
242.880417 100.0
243.123001 324.0
243.442184 112.0
243.833633 60.0
244.573883 188.0
244.67662 136.0
244.801163 92.0
245.044128 64.0
245.143204 360.0
245.212402 56.0
245.521057 172.0
245.627106 56.0
245.711334 148.0
245.917282 52.0
246.04715 100.0
246.070251 180.0
246.154556 148.0
246.235748 216.0
246.448181 96.0
246.52005 120.0
247.073303 464.0
247.292542 40.0
247.442795 76.0
247.611893 72.0
247.846848 112.0
248.063416 136.0
248.084229 200.0
248.95105 96.0
249.059433 148.0
249.073196 136.0
249.080276 144.0
249.350037 56.0
249.434189 196.0
249.629837 132.0
249.680145 160.0
249.787094 92.0
250.051041 108.0
250.096939 392.0
250.259171 144.0
250.670181 140.0
250.936584 88.0
251.005951 152.0
251.069443 576.0
251.102386 1904.0
251.343475 36.0
251.62439 52.0
251.65596 128.0
252.100555 1136.0
252.75499 160.0
253.047134 88.0
253.089142 772.0
253.164307 76.0
253.294159 72.0
253.728317 180.0
254.065933 144.0
254.08699 280.0
254.120102 140.0
255.055267 124.0
255.096298 332.0
255.116669 140.0
255.128922 168.0
255.261932 216.0
255.436859 204.0
255.977921 68.0
256.069031 236.0
256.096619 268.0
256.223175 60.0
256.286896 52.0
256.465363 128.0
257.096375 236.0
257.140747 112.0
257.259644 68.0
258.256653 32.0
258.880737 200.0
259.521606 52.0
260.291718 136.0
260.314209 192.0
260.388062 60.0
260.45874 112.0
260.882904 144.0
261.091919 60.0
261.919098 188.0
262.054413 136.0
262.085144 356.0
262.821808 124.0
262.870209 56.0
263.064728 480.0
263.097778 364.0
263.183319 100.0
264.076996 680.0
264.253174 72.0
264.457031 124.0
264.803497 68.0
264.900665 136.0
264.92334 144.0
265.084015 916.0
265.172852 32.0
265.208496 108.0
265.532715 116.0
265.607697 148.0
265.805237 108.0
265.873383 180.0
265.909088 88.0
266.079956 504.0
266.116241 464.0
266.175293 164.0
266.44812 112.0
266.792633 136.0
267.101837 1020.0
267.394409 100.0
267.472504 100.0
267.602722 144.0
267.791595 200.0
268.099121 816.0
268.133026 316.0
268.430389 88.0
268.880585 160.0
269.076782 600.0
269.14328 260.0
269.167847 80.0
269.252777 144.0
269.762482 104.0
270.072388 172.0
270.11087 1360.0
270.911133 132.0
271.100708 252.0
271.137665 152.0
271.281464 116.0
272.118042 124.0
272.15744 196.0
273.117065 132.0
273.350677 164.0
273.620575 64.0
273.911285 104.0
273.956482 92.0
274.345367 72.0
275.721802 124.0
276.02594 208.0
276.633453 124.0
277.035431 92.0
277.403259 60.0
277.814484 48.0
278.10675 168.0
278.368774 104.0
278.963501 32.0
279.100403 2392.0
279.572205 128.0
279.891754 136.0
279.999359 224.0
280.096344 1524.0
280.144897 172.0
280.204865 204.0
280.374817 36.0
280.406342 148.0
280.55481 136.0
280.684845 92.0
280.744843 160.0
280.854919 56.0
281.041748 152.0
281.104736 1808.0
281.198578 44.0
281.509064 100.0
281.806366 36.0
282.083405 432.0
282.108765 908.0
282.331177 44.0
282.749359 48.0
282.903351 52.0
282.963593 36.0
283.085846 1136.0
283.224823 60.0
283.421875 156.0
283.559875 40.0
283.787842 228.0
283.841492 52.0
283.871643 116.0
284.12735 1220.0
284.185852 120.0
284.213806 108.0
284.240662 36.0
284.280914 180.0
284.374908 32.0
284.613251 72.0
284.992798 192.0
285.120605 724.0
285.183136 228.0
285.244873 156.0
285.507141 84.0
286.141541 156.0
286.183502 72.0
286.287903 148.0
286.412506 124.0
287.019135 120.0
288.274902 156.0
288.761719 40.0
288.822601 88.0
289.018829 96.0
289.938477 64.0
289.983978 72.0
290.214508 220.0
290.5401 84.0
290.635101 112.0
290.899841 56.0
290.960938 60.0
291.925934 152.0
292.102753 148.0
292.18103 132.0
292.269501 52.0
292.327332 76.0
292.76651 156.0
293.090118 60.0
293.129791 180.0
293.973297 120.0
294.109253 620.0
294.635712 72.0
294.830505 132.0
294.933014 32.0
295.111938 452.0
295.675232 108.0
295.740265 48.0
295.765442 144.0
295.825836 64.0
295.945679 48.0
296.026154 108.0
296.125366 5276.0
296.199097 132.0
296.356689 56.0
296.405609 72.0
296.469757 52.0
296.668579 80.0
296.874298 176.0
296.976929 56.0
297.09613 592.0
297.129242 640.0
297.172729 84.0
297.227631 60.0
297.567444 52.0
297.807831 156.0
298.000183 100.0
298.106171 2016.0
298.364502 52.0
298.433289 64.0
299.120941 1044.0
299.259064 60.0
299.307251 48.0
299.34726 96.0
299.465668 48.0
299.934296 112.0
300.152649 324.0
300.793213 180.0
300.934753 60.0
301.11087 120.0
301.275146 72.0
301.682159 120.0
301.719025 36.0
302.158264 132.0
302.375214 196.0
302.992645 88.0
303.373871 84.0
305.537476 136.0
306.66571 156.0
308.134583 256.0
308.903961 144.0
309.082397 100.0
309.110382 128.0
309.448578 156.0
309.702057 200.0
309.779114 100.0
309.873718 68.0
310.105988 204.0
310.13385 188.0
310.189117 88.0
311.123718 704.0
311.164398 44.0
311.2276 88.0
311.347015 108.0
311.508575 176.0
311.659637 164.0
311.937286 160.0
311.990021 184.0
312.121552 3556.0
312.281891 76.0
312.334656 108.0
312.380371 68.0
312.419067 164.0
312.531769 144.0
312.580933 128.0
312.786499 68.0
312.830811 104.0
313.044922 172.0
313.052368 52.0
313.127472 5028.0
313.295685 76.0
313.330902 40.0
313.51767 112.0
313.556427 56.0
313.695648 56.0
313.789062 60.0
313.904022 60.0
314.060608 96.0
314.129486 796.0
314.282867 64.0
314.501678 36.0
314.667603 60.0
314.854736 44.0
315.10907 76.0
315.136078 144.0
315.331696 56.0
315.398865 100.0
315.455414 60.0
315.635742 48.0
315.812561 72.0
316.180511 96.0
316.73996 32.0
317.062378 92.0
317.175812 40.0
318.190399 72.0
318.304016 104.0
318.534882 60.0
320.676941 68.0
320.749786 156.0
321.436554 32.0
321.664978 64.0
322.129211 264.0
322.214935 68.0
322.490112 164.0
322.997864 180.0
323.409332 92.0
323.487976 120.0
323.559692 72.0
323.602661 192.0
323.760223 80.0
324.22403 164.0
324.512726 148.0
325.065125 140.0
325.115356 112.0
325.984436 144.0
326.088654 132.0
326.139862 212.0
326.268372 92.0
326.304321 84.0
326.674744 44.0
326.750305 84.0
326.825867 56.0
327.14978 124.0
327.216827 160.0
327.286591 124.0
327.430634 148.0
327.471497 104.0
327.52887 88.0
327.635956 220.0
327.731567 88.0
327.782379 176.0
327.928345 264.0
328.017944 104.0
328.043182 204.0
328.082184 220.0
328.153442 28316.0
328.298431 56.0
328.347534 88.0
328.416809 92.0
328.493958 88.0
328.522827 88.0
328.551666 36.0
328.626343 184.0
328.699615 48.0
328.792603 68.0
328.865631 104.0
328.894501 48.0
328.921722 52.0
329.009369 132.0
329.052399 148.0
329.085846 188.0
329.158295 5844.0
329.277222 64.0
329.304749 156.0
329.338257 40.0
329.345062 36.0
329.376648 68.0
329.468475 76.0
329.570526 64.0
329.710785 60.0
329.927643 76.0
329.967407 64.0
330.08313 40.0
330.159332 908.0
330.336304 40.0
330.3797 60.0
330.418152 96.0
330.557007 56.0
330.730713 100.0
330.821228 60.0
330.914703 68.0
330.997772 136.0
331.141876 108.0
331.165222 292.0
331.212311 128.0
331.261017 72.0
331.299255 56.0
331.349976 92.0
331.400696 96.0
331.523895 36.0
331.549255 140.0
331.607269 140.0
331.690613 76.0
331.963654 52.0
331.99881 96.0
332.31076 64.0
332.336182 76.0
332.368835 68.0
332.419617 64.0
332.463165 60.0
332.575684 60.0
332.768097 108.0
332.956909 28.0
333.32019 112.0
333.381989 56.0
334.072815 60.0
334.61145 48.0
335.02298 76.0
335.063049 76.0
335.303558 36.0
335.442047 100.0
336.317505 52.0
336.507355 144.0
337.322021 52.0
340.733917 124.0
343.620392 104.0
343.804901 108.0
344.624664 112.0
345.293793 80.0
345.530518 48.0
347.737122 120.0
349.266205 48.0
353.29129 72.0
354.283356 92.0
354.796783 136.0
356.45578 88.0
356.801605 72.0
357.723297 108.0
367.825897 28.0
368.154266 120.0
383.109161 52.0
385.332947 172.0
386.944336 56.0
390.153564 80.0
391.203949 84.0
393.826233 96.0
403.850739 72.0
406.234131 64.0
406.358521 104.0
406.719696 52.0
407.747925 36.0
413.495178 96.0
417.149841 128.0
425.742584 72.0
425.771332 44.0
428.074341 52.0
431.565247 84.0
438.547974 64.0
447.092072 80.0
452.54599 52.0
453.859497 108.0
454.648529 92.0
461.853302 100.0
465.212891 152.0
466.763916 32.0
468.576019 60.0
468.614777 56.0
471.454132 80.0
471.955566 48.0
472.859711 176.0
473.686737 104.0
479.756805 80.0
485.538269 76.0
492.514496 88.0
493.67691 112.0
497.474091 80.0
502.815521 64.0
506.965759 84.0
514.978638 88.0
515.118652 76.0
517.334534 64.0
519.691284 84.0
521.90332 36.0
525.323669 144.0
525.871216 72.0
526.062927 80.0
526.546936 116.0
532.037231 48.0
534.625061 64.0
541.170715 56.0
542.138855 128.0
546.857483 88.0
549.877747 72.0
552.012756 148.0
560.184204 92.0
569.797424 92.0
583.855896 100.0
592.937256 76.0
595.265869 108.0
599.288635 48.0
599.381165 48.0
601.532043 60.0
612.452393 120.0
624.534912 56.0
628.869812 116.0
632.979309 88.0
633.665527 96.0
634.296997 128.0
646.804688 120.0
653.305237 104.0
656.249023 68.0
656.488647 48.0
656.641663 56.0
664.160461 48.0
673.09491 48.0
674.608765 56.0
682.026733 52.0
682.395813 88.0
690.656433 68.0
702.602234 80.0
704.217529 108.0
707.829651 136.0
724.731445 52.0
740.082703 84.0
741.388245 48.0
751.535339 60.0
753.397095 196.0
765.072998 68.0
770.234619 48.0
770.560547 32.0
772.418091 40.0
773.131836 128.0
779.264771 76.0
788.872986 88.0
797.342468 212.0
800.729431 180.0
807.507935 216.0
814.50238 84.0
817.106079 120.0
822.405823 48.0
827.321899 52.0
830.163879 68.0
838.580688 164.0
859.907776 112.0
885.8573 228.0
894.12262 184.0
896.832581 152.0
899.116943 88.0
899.278076 84.0
904.544189 128.0
907.096069 72.0
913.798279 52.0
917.930359 188.0
919.166992 152.0
919.782593 60.0
923.450317 92.0
927.74353 84.0
940.158142 160.0
942.509216 308.0
943.010315 28.0
944.098572 48.0
950.260864 60.0
955.187927 84.0
955.993958 72.0
958.142883 52.0
959.745422 56.0
963.714294 48.0
971.533875 204.0
975.937378 44.0
977.909424 220.0
979.652954 136.0
983.250793 228.0
987.399292 280.0
987.680725 148.0
988.825745 124.0
988.969727 196.0
989.426697 80.0
990.503845 104.0
994.755432 140.0
999.028748 164.0
1001.817566 88.0
1002.233398 112.0
1003.979553 144.0
1004.96991 180.0
1005.197083 120.0
1005.613647 176.0
1007.937683 180.0
1013.322266 100.0
1015.109802 196.0
1017.832092 208.0
1022.275513 148.0
1022.56189 32.0
1023.53595 144.0
1026.033569 56.0
1026.129272 92.0
1026.601074 120.0
1031.153076 136.0
1034.6073 120.0
1035.145142 160.0
1035.260376 144.0
1040.53125 108.0
1041.096313 180.0
1042.387451 148.0
1043.145874 220.0
1044.579956 148.0
1045.249023 164.0
1049.539062 212.0
1050.106567 56.0
1052.307129 128.0
1052.578369 156.0
1054.703857 72.0
1056.624512 100.0
1057.077515 180.0
1058.249023 52.0
1058.993774 192.0
1060.127563 104.0
1063.798706 140.0
1063.922119 184.0
1064.714233 220.0
1069.733887 168.0
1071.577026 160.0
1080.201172 148.0
1083.454712 156.0
1085.368652 208.0
1088.2229 56.0
1088.84668 140.0
1089.694092 36.0
1090.646973 116.0
1094.100586 40.0
1099.941406 120.0
1100.793091 160.0
1105.784546 164.0
1111.026001 248.0
1111.822266 116.0
1113.176514 132.0
1113.402344 140.0
1116.366333 52.0
1116.758789 196.0
1116.891846 36.0
1118.415527 164.0
1120.046997 92.0
1120.306763 144.0
1121.466187 152.0
1122.046143 148.0
1122.132812 60.0
1122.512939 132.0
1124.254028 192.0
1126.557617 144.0
1129.157837 116.0
1131.098267 164.0
1132.035645 180.0
1138.218384 76.0
1140.879028 168.0
1143.717896 164.0
1145.273315 128.0
1146.742188 128.0
1148.441284 192.0
1149.486938 152.0
1149.966187 116.0
1150.155151 152.0
1155.575073 208.0
1156.691772 184.0
1156.962524 76.0
1157.0979 84.0
1159.06897 208.0
1159.129883 224.0
1160.207642 168.0
1161.699585 108.0
1164.081909 32.0
1164.190552 108.0
1164.625244 132.0
1166.235596 228.0
1166.514282 164.0
1166.922241 228.0
1167.323486 236.0
1167.513794 108.0
1170.029419 196.0
1172.183838 128.0
1172.701782 172.0
1173.363037 52.0
1173.553955 132.0
1174.167725 204.0
1175.491211 188.0
1177.880859 180.0
1178.245972 148.0
1179.52771 184.0
1179.698608 120.0
1180.013062 148.0
1181.743408 196.0
1181.873413 180.0
1184.502441 144.0
1186.846313 76.0
1188.101562 216.0
1188.204468 148.0
1188.561157 164.0
1190.661865 160.0
1192.503174 156.0
1193.754395 192.0
1194.614136 144.0
1194.744873 276.0
1194.806763 168.0
1195.233398 148.0
1195.880371 240.0
1196.238281 176.0
1197.581055 148.0
1199.779175 176.0
1200.516968 132.0
1202.821533 212.0
1203.042358 144.0
1203.525635 56.0
1204.236938 180.0
1204.91394 212.0
1206.35144 72.0
1206.6073 116.0
1209.097534 132.0
1209.914307 172.0
1210.814453 192.0
1213.080322 120.0
1213.128784 180.0
1214.494873 208.0
1216.201782 52.0
1217.805786 136.0
1219.021484 212.0
1220.175415 152.0
1222.707397 72.0
1224.810181 160.0
1226.092163 132.0
1226.998413 140.0
1227.102905 120.0
1228.253662 184.0
1229.879517 268.0
1232.13501 160.0
1232.393555 248.0
1232.645142 188.0
1233.672607 112.0
1235.469849 32.0
1237.863647 184.0
1239.860229 160.0
1240.280762 188.0
1241.437622 76.0
1241.655029 156.0
1242.510864 136.0
1242.559937 80.0
1242.651123 148.0
1243.310791 156.0
1243.76001 232.0
1245.705078 196.0
1246.140625 132.0
1246.442749 76.0
1246.737915 128.0
1247.159668 188.0
1248.418213 184.0
1249.923584 252.0
1251.21167 76.0
1251.310181 100.0
1251.380615 148.0
1251.880615 104.0
1252.394653 180.0
1252.782104 208.0
1253.451538 184.0
1253.69104 160.0
1255.573486 204.0
1257.188965 56.0
1258.078369 208.0
1258.516113 84.0
1261.532959 184.0
1261.617798 108.0
1262.006592 160.0
1265.074707 276.0
1265.459473 148.0
1265.749756 56.0
1266.351685 188.0
1267.570312 152.0
1267.733276 156.0
1267.945923 220.0
1268.598022 152.0
1269.307007 112.0
1269.356689 156.0
1269.739624 160.0
1270.016235 200.0
1271.520386 160.0
1272.64917 220.0
1272.84082 64.0
1273.281128 200.0
1273.45874 68.0
1274.950684 88.0
1275.121338 208.0
1276.521851 200.0
1277.190308 144.0
1278.229126 152.0
1278.648926 176.0
1278.812622 124.0
1280.386108 52.0
1280.436035 48.0
1280.75647 140.0
1281.10437 144.0
1281.205322 132.0
1281.632812 60.0
1283.23645 188.0
1284.242065 180.0
1285.55481 84.0
1285.83313 144.0
1287.810913 136.0
1288.060913 72.0
1288.4823 172.0
1289.875854 112.0
1289.925903 168.0
1290.483521 124.0
1292.321777 128.0
1292.479248 204.0
1293.130493 160.0
1294.053955 216.0
1294.247192 128.0
1294.361816 164.0
1295.400269 132.0
1295.471924 188.0
1296.109619 112.0
1296.39624 200.0
1298.088013 188.0
1300.240234 152.0
1300.606323 176.0
1301.094482 180.0
1302.286499 52.0
1306.678833 120.0
1308.478149 180.0
1308.845337 176.0
1310.365112 156.0
1310.81189 56.0
1311.04248 136.0
1311.669556 44.0
1315.774414 124.0
1316.019897 64.0
1316.106445 68.0
1316.373657 140.0
1316.662598 160.0
1316.915283 200.0
1317.5271 196.0
1317.935669 184.0
1319.234863 132.0
1319.415649 180.0
1320.073608 148.0
1322.569702 164.0
1322.960571 96.0
1323.793213 148.0
1323.995972 140.0
1324.756592 124.0
1324.836304 104.0
1325.93042 132.0
1328.047485 180.0
1328.831055 136.0
1328.983398 60.0
1329.825195 124.0
1331.211914 216.0
1332.16333 116.0
1332.533936 76.0
1335.499878 248.0
1335.71814 152.0
1337.289795 188.0
1337.348022 56.0
1337.995972 184.0
1340.573975 232.0
1341.281372 240.0
1344.023682 68.0
1344.133057 52.0
1344.388794 176.0
1344.512573 140.0
1346.271973 124.0
1347.250732 160.0
1350.862183 208.0
1351.513306 124.0
1351.586426 172.0
1351.637695 172.0
1353.526245 188.0
1353.650757 176.0
1357.087402 140.0
1357.2854 124.0
1357.40271 84.0
1358.158081 60.0
1358.590942 200.0
1359.133789 160.0
1361.086426 156.0
1362.268799 144.0
1362.496582 228.0
1362.813477 156.0
1363.797241 56.0
1364.43689 184.0
1366.50354 100.0
1367.327759 104.0
1368.049072 72.0
1368.196289 184.0
1368.40979 168.0
1368.535034 152.0
1368.888428 132.0
1369.13147 76.0
1369.882812 172.0
1370.28064 128.0
1371.010132 144.0
1371.474487 232.0
1372.307495 160.0
1372.491821 136.0
1372.646729 188.0
1373.015381 192.0
1373.421021 132.0
1373.944824 164.0
1374.321167 156.0
1375.549683 200.0
1375.819336 144.0
1377.407104 228.0
1378.781372 228.0
1380.08252 172.0
1380.341309 176.0
1381.613525 108.0
1381.828003 128.0
1382.545776 104.0
1382.982422 188.0
1383.730103 180.0
1384.433594 144.0
1385.248413 168.0
1385.447021 180.0
1386.411621 216.0
1386.638672 128.0
1387.130615 80.0
1387.701416 164.0
1388.168579 100.0
1389.296021 176.0
1391.05481 176.0
1391.685913 108.0
1393.305054 192.0
1393.884521 132.0
1394.58313 104.0
1394.865601 148.0
1395.304199 156.0
1395.91394 76.0
1396.389893 236.0
1399.18042 180.0
1399.247437 200.0
1401.802368 160.0
1402.122803 164.0
1402.234619 208.0
1403.606323 208.0
1404.463989 172.0
1405.612915 148.0
1406.613037 120.0
1406.680176 44.0
1406.866821 188.0
1407.598511 164.0
1407.807617 108.0
1407.971924 136.0
1409.047607 156.0
1409.122314 208.0
1410.415161 148.0
1412.456543 132.0
1413.017578 208.0
1413.376831 148.0
1413.773438 144.0
1414.17749 112.0
1414.716553 144.0
1414.836304 64.0
1415.802246 164.0
1416.04187 192.0
1416.341797 172.0
1416.955811 196.0
1417.765015 212.0
1417.944946 132.0
1419.564331 208.0
1419.849243 140.0
1419.901733 192.0
1420.434326 120.0
1420.959473 208.0
1421.161987 204.0
1423.466431 168.0
1424.345215 136.0
1425.449707 196.0
1426.524414 92.0
1427.705933 152.0
1427.998291 44.0
1429.390015 196.0
1429.924316 164.0
1430.007202 244.0
1430.157715 96.0
1431.204102 136.0
1432.333862 160.0
1432.386597 152.0
1432.567383 96.0
1433.870972 136.0
1434.029175 244.0
1435.718018 184.0
1435.838745 152.0
1437.045654 180.0
1439.332764 124.0
1440.397705 192.0
1441.410034 140.0
1442.233887 76.0
1442.437988 212.0
1442.959595 220.0
1443.375488 168.0
1445.221069 88.0
1445.9552 176.0
1446.46228 120.0
1447.067871 56.0
1447.969116 132.0
1448.158447 128.0
1448.287231 200.0
1448.688599 44.0
1449.954102 276.0
1451.356445 200.0
1451.955566 172.0
1452.676147 192.0
1458.052124 144.0
1458.462524 160.0
1459.694092 160.0
1460.249268 132.0
1461.671997 124.0
1462.592896 200.0
1462.783203 252.0
1463.620605 80.0
1464.039429 160.0
1464.717285 36.0
1465.25061 136.0
1465.418213 128.0
1465.631592 196.0
1466.073608 148.0
1466.45459 100.0
1466.911987 168.0
1467.5448 176.0
1468.677856 212.0
1469.016724 52.0
1469.489746 216.0
1470.22229 44.0
1470.771851 176.0
1471.229858 140.0
1471.558105 104.0
1471.733765 156.0
1472.153687 160.0
1472.94812 184.0
1473.253662 132.0
1473.589844 144.0
1473.750244 204.0
1474.086426 112.0
1474.483887 172.0
1475.921021 172.0
1476.280518 184.0
1476.938232 176.0
1477.129517 132.0
1477.30542 144.0
1478.047607 96.0
1479.831055 200.0
1481.086914 148.0
1481.339722 204.0
1481.899048 184.0
1482.374146 140.0
1482.565674 32.0
1482.826294 108.0
1482.925903 128.0
1484.374878 148.0
1485.44104 156.0
1485.640381 228.0
1487.11377 104.0
1487.198242 112.0
1488.833496 216.0
1488.893311 144.0
1490.062622 144.0
1491.930176 172.0
1493.29895 176.0
1493.852783 236.0
1493.983521 204.0
1494.552856 184.0
1494.62207 36.0
1495.19165 128.0
1495.286499 208.0
1495.499512 176.0
1497.046997 76.0
1497.370483 180.0
1498.148438 160.0
1498.510498 128.0
1498.633789 196.0
1498.911255 172.0
1500.599243 104.0
1501.046509 168.0
1502.905518 152.0
1503.059814 120.0
1503.476562 200.0
1503.800659 176.0
1503.962769 156.0
1504.302368 272.0
