>compound MLS001401411-01!Ifenprodil
>formula C21H27NO2
>ionization [M+H]+
>parentmass 326.211334
#inchi InChI=1S/C21H27NO2/c1-16(21(24)19-7-9-20(23)10-8-19)22-13-11-18(12-14-22)15-17-5-3-2-4-6-17/h2-10,16,18,21,23-24H,11-15H2,1H3
#inchikey UYNVMODNBIQBMV
#origInchi InChI=1S/C21H27NO2.C4H6O6.H2O/c1-16(21(24)19-7-9-20(23)10-8-19)22-13-11-18(12-14-22)15-17-5-3-2-4-6-17;5-1(3(7)8)2(6)4(9)10;/h2-10,16,18,21,23-24H,11-15H2,1H3;1-2,5-6H,(H,7,8)(H,9,10);1H2
#Ion_Source LC-ESI
#Instrument qTof
#Compound_Source NIH Pharmacologically Active Library
#PI Dorrestein
#Data_Collector VP/LMS
#Scan -1
#Precursor_MZ 326.212
#ExactMass 325.204
#Charge 1
#CAS_Number N/A
#Pubmed_ID N/A
#Smiles CC(C(O)c1ccc(O)cc1)N2CCC(Cc3ccccc3)CC2.O.OC(C(O)C(=O)O)C(=O)O
#INCHI_AUX N/A
#Library_Class 1
#SpectrumID CCMSLIB00000084995
#IonMode Positive
#UpdateWorkflowName UPDATE-SINGLE-ANNOTATED-GOLD
#LibraryQualityString Gold
#TaskID d252d724072548979f1f6f1ced849daf
##Scan# 1629
#SpectrumFile p3-D06_GD6_01_18263.mzXML
#LibraryName Pharm_Active_Library.mgf
#MQScore -1
#Organism Pharm_Active_Library
#TIC_Query 0
#RT_Query -1
#MZErrorPPM -1
#SharedPeaks 0
#MassDiff 0
#LibMZ -1
#SpecMZ 326.212
#SpecCharge 0
#internalFilename spec-00000.mgf

>collision 10
44.920399 220.0
44.999142 184.0
45.027184 148.0
45.040543 104.0
45.103348 132.0
45.253185 124.0
45.336239 164.0
45.372433 216.0
45.416687 92.0
45.491837 160.0
45.575108 180.0
45.749958 176.0
45.76746 180.0
45.793049 128.0
45.813057 136.0
46.030415 160.0
46.106068 128.0
46.175022 200.0
46.229137 68.0
46.349663 124.0
46.372868 164.0
46.482555 164.0
46.505627 196.0
46.588463 204.0
46.611561 164.0
46.631947 220.0
46.686329 164.0
46.720337 184.0
46.735302 104.0
46.797916 80.0
46.998127 168.0
47.055618 104.0
47.108879 152.0
47.181938 152.0
47.252434 160.0
47.377651 160.0
47.419502 164.0
47.46722 184.0
47.477329 180.0
47.514126 124.0
47.566273 108.0
47.575886 104.0
47.64043 44.0
47.68578 436.0
47.709148 80.0
47.721523 148.0
47.894928 208.0
47.913979 164.0
47.950043 176.0
48.061749 156.0
48.096252 184.0
48.107296 136.0
48.191544 140.0
48.542717 168.0
48.570885 120.0
48.590305 136.0
48.627773 192.0
48.652763 96.0
48.663868 124.0
48.768063 160.0
48.790306 56.0
48.893604 168.0
48.92804 164.0
49.025547 116.0
49.035305 112.0
49.098045 136.0
49.245991 136.0
49.272533 256.0
49.290699 132.0
49.33263 212.0
49.391361 144.0
49.442406 100.0
49.456402 196.0
49.471127 108.0
49.556564 188.0
49.583187 192.0
49.626144 224.0
49.710812 100.0
49.8386 192.0
49.877953 80.0
49.909843 228.0
49.919781 48.0
49.925289 144.0
49.943104 216.0
49.966549 136.0
49.991879 108.0
50.004543 140.0
50.025658 100.0
50.121433 156.0
50.13271 128.0
50.184864 204.0
50.197556 232.0
50.227177 176.0
50.293495 168.0
50.352242 192.0
50.403656 156.0
50.427685 48.0
50.465855 160.0
50.487064 160.0
50.508537 220.0
50.581863 208.0
50.715019 112.0
50.755558 188.0
50.854023 188.0
50.916496 152.0
50.973324 208.0
51.013119 148.0
51.023071 132.0
51.078537 200.0
51.12122 164.0
51.173889 156.0
51.262207 172.0
51.279308 132.0
51.296413 156.0
51.319225 244.0
51.336338 144.0
51.391972 160.0
51.4562 192.0
51.514755 156.0
51.55619 152.0
51.697777 196.0
51.762196 160.0
51.806599 184.0
51.894024 228.0
51.914101 184.0
52.05761 172.0
52.152435 168.0
52.254539 176.0
52.290516 208.0
52.302032 168.0
52.365387 252.0
52.389877 136.0
52.477795 180.0
52.495098 228.0
52.632187 36.0
52.713081 192.0
52.736206 232.0
53.088028 108.0
53.099632 108.0
53.135265 156.0
53.177982 176.0
53.199757 132.0
53.260746 164.0
53.339214 96.0
53.378471 164.0
53.410469 176.0
53.43811 160.0
53.522533 148.0
53.534184 136.0
53.553116 184.0
53.647835 192.0
53.709202 196.0
53.765987 180.0
53.81562 140.0
53.980743 204.0
54.031937 112.0
54.124149 136.0
54.140259 204.0
54.264816 128.0
54.29121 176.0
54.430626 232.0
54.459999 140.0
54.483501 160.0
54.602684 208.0
54.696739 172.0
54.745327 152.0
54.755638 156.0
54.846992 160.0
54.857311 172.0
54.901546 188.0
55.066845 188.0
55.093437 148.0
55.144859 160.0
55.193943 136.0
55.418938 136.0
55.500462 224.0
55.577595 140.0
55.668556 188.0
55.712708 60.0
55.74168 136.0
55.781067 100.0
55.80188 100.0
55.831047 176.0
55.882198 180.0
55.916428 76.0
55.926846 100.0
56.02066 312.0
56.096661 40.0
56.175701 140.0
56.221954 148.0
56.239868 156.0
56.298759 168.0
56.365318 136.0
56.375782 104.0
56.390724 52.0
56.44305 156.0
56.477451 128.0
56.496899 148.0
56.508865 200.0
56.522331 172.0
56.56897 176.0
56.606163 96.0
56.627129 184.0
56.649597 208.0
56.664581 128.0
56.688557 224.0
56.726028 144.0
56.765011 212.0
56.802505 172.0
56.85202 220.0
56.877537 128.0
56.900055 240.0
56.975685 116.0
57.08939 236.0
57.17815 112.0
57.227829 196.0
57.364933 184.0
57.424656 224.0
57.428131 136.0
57.433331 212.0
57.503708 120.0
57.524837 200.0
57.626026 124.0
57.684971 128.0
57.723564 152.0
57.748478 120.0
57.89529 168.0
57.913464 120.0
57.937832 236.0
57.957397 120.0
57.989223 180.0
58.168213 132.0
58.19706 148.0
58.237179 268.0
58.336838 160.0
58.397663 144.0
58.705315 184.0
58.74192 172.0
58.792271 48.0
58.811741 196.0
58.876747 96.0
58.889751 208.0
58.925121 60.0
59.01683 188.0
59.278591 196.0
59.365971 168.0
59.38591 232.0
59.413521 196.0
59.481045 124.0
59.559361 96.0
59.600842 156.0
59.617744 168.0
59.645412 164.0
59.723831 164.0
59.766911 184.0
59.810001 88.0
59.825954 188.0
59.857731 36.0
59.873131 236.0
59.91164 116.0
59.965572 108.0
60.110542 96.0
60.13678 176.0
60.15839 156.0
60.215527 144.0
60.266506 260.0
60.332966 172.0
60.533611 184.0
60.572834 172.0
60.651867 216.0
60.704578 68.0
60.720089 120.0
60.738701 200.0
60.755768 172.0
60.836468 184.0
60.869431 172.0
60.926544 156.0
60.982487 168.0
61.049339 136.0
61.209255 168.0
61.23143 132.0
61.335827 176.0
61.396633 100.0
61.416912 152.0
61.499611 188.0
61.538639 108.0
61.580803 132.0
61.823139 196.0
61.914597 192.0
62.021255 212.0
62.19146 92.0
62.211868 108.0
62.235416 184.0
62.308361 224.0
62.415833 260.0
62.496346 192.0
62.564022 140.0
62.638039 164.0
62.677425 148.0
62.748356 136.0
62.770432 180.0
62.890335 172.0
62.910858 112.0
62.950333 216.0
62.961388 100.0
63.015095 128.0
63.030895 144.0
63.151047 136.0
63.17598 200.0
63.194157 144.0
63.253902 172.0
63.298233 152.0
63.352085 88.0
63.472542 168.0
63.507435 216.0
63.616928 112.0
63.637566 140.0
63.697918 236.0
63.831425 104.0
63.890274 204.0
63.903004 160.0
63.931648 144.0
64.008057 64.0
64.054245 464.0
64.200882 164.0
64.258308 140.0
64.522255 200.0
64.649811 160.0
64.681587 196.0
64.741058 76.0
64.907722 204.0
64.933861 268.0
64.960648 148.0
64.978302 172.0
64.994347 224.0
65.024834 200.0
65.170975 204.0
65.209541 108.0
65.252945 152.0
65.347839 168.0
65.447639 140.0
65.474205 152.0
65.613594 204.0
65.723122 168.0
65.75071 404.0
65.836273 144.0
65.886345 96.0
66.19529 172.0
66.250359 204.0
66.273041 148.0
66.487099 140.0
66.514687 160.0
66.53904 168.0
66.580093 176.0
66.84137 236.0
66.885315 128.0
66.929268 104.0
66.947182 136.0
66.98465 196.0
67.046562 164.0
67.105247 200.0
67.119919 36.0
67.221062 148.0
67.255333 128.0
67.26844 148.0
67.292885 256.0
67.57074 56.0
67.600189 160.0
67.626373 120.0
67.673851 160.0
67.934441 72.0
67.983665 200.0
68.054253 100.0
68.399506 124.0
68.414322 148.0
68.552681 188.0
68.584862 212.0
68.676331 104.0
68.742325 96.0
68.757179 132.0
68.849632 216.0
69.049614 140.0
69.119095 192.0
69.172058 176.0
69.186958 92.0
69.236633 120.0
69.492065 136.0
69.515144 120.0
69.712769 64.0
69.859085 372.0
69.883926 232.0
69.911316 144.0
69.940628 192.0
69.958939 188.0
70.033875 192.0
70.173859 192.0
70.275604 136.0
70.288948 160.0
70.430862 172.0
70.470955 152.0
70.494354 124.0
70.751938 92.0
70.783478 196.0
70.805527 224.0
70.904373 192.0
70.951309 192.0
71.087906 144.0
71.234932 260.0
71.265167 124.0
71.527527 128.0
71.562881 148.0
71.598244 56.0
71.640358 228.0
71.773506 156.0
71.894966 180.0
71.920288 172.0
71.932098 52.0
72.015976 156.0
72.04998 140.0
72.062737 160.0
72.107773 176.0
72.150032 200.0
72.222748 200.0
72.241356 196.0
72.36998 188.0
72.611366 272.0
72.734482 172.0
72.748062 148.0
72.778625 172.0
72.848259 112.0
72.863548 112.0
72.912827 164.0
73.023338 48.0
73.050552 348.0
73.079475 156.0
73.115211 212.0
73.139046 136.0
73.177132 208.0
73.182434 188.0
73.212257 88.0
73.248024 136.0
73.259949 156.0
73.278687 184.0
73.316559 180.0
73.370544 192.0
73.396301 36.0
73.421883 224.0
73.50206 140.0
73.55838 120.0
73.686897 224.0
73.718933 172.0
73.864265 140.0
73.888214 156.0
74.008026 204.0
74.06797 232.0
74.122795 224.0
74.254799 192.0
74.314842 76.0
74.333717 48.0
74.361176 148.0
74.415161 116.0
74.43927 180.0
74.486519 156.0
74.591347 52.0
74.667 168.0
74.689362 168.0
74.83564 148.0
74.923485 104.0
74.956223 108.0
75.114838 360.0
75.166595 72.0
75.182129 316.0
75.2201 220.0
75.372871 212.0
75.487907 152.0
75.567474 120.0
75.66613 44.0
75.688644 160.0
75.759651 116.0
75.893105 76.0
75.955002 192.0
76.052711 192.0
76.255936 124.0
76.36721 196.0
76.402 184.0
76.489014 144.0
76.523834 228.0
76.574333 152.0
76.614403 132.0
76.64576 128.0
76.725937 172.0
76.792206 236.0
76.851517 48.0
76.87944 196.0
76.982437 124.0
77.008636 212.0
77.045319 152.0
77.057549 164.0
77.226364 268.0
77.258606 132.0
77.312851 164.0
77.335602 116.0
77.428398 164.0
77.444702 324.0
77.575584 172.0
77.598381 100.0
77.615913 140.0
77.668526 132.0
77.738708 180.0
77.81945 128.0
77.84166 248.0
77.873894 152.0
77.896729 204.0
78.016228 228.0
78.056671 136.0
78.211494 76.0
78.340042 128.0
78.380562 68.0
78.405235 128.0
78.509254 140.0
78.525124 160.0
78.544525 64.0
78.569229 264.0
78.59922 112.0
78.616867 232.0
78.694534 148.0
78.752815 188.0
78.819946 136.0
78.915398 216.0
78.943077 184.0
79.276512 176.0
79.299553 160.0
79.391785 172.0
79.42012 236.0
79.4627 172.0
79.539009 36.0
79.624237 236.0
79.697273 176.0
79.830391 112.0
79.862404 160.0
79.878418 232.0
79.990013 236.0
80.011887 184.0
80.102715 200.0
80.116966 120.0
80.158333 236.0
80.182892 188.0
80.222107 120.0
80.27803 324.0
80.355865 188.0
80.407616 128.0
80.50045 200.0
80.563225 168.0
80.584404 168.0
80.927826 208.0
81.037079 220.0
81.051414 384.0
81.153587 144.0
81.185867 120.0
81.21994 216.0
81.352852 184.0
81.460487 176.0
81.486877 208.0
81.525169 128.0
81.555725 136.0
81.695663 200.0
81.72657 156.0
81.742767 92.0
81.86158 136.0
81.883553 220.0
81.900002 120.0
81.946236 96.0
81.98455 216.0
82.048973 108.0
82.151772 124.0
82.222137 176.0
82.287727 144.0
82.319626 108.0
82.466743 252.0
82.502121 136.0
82.541901 164.0
82.654053 140.0
82.684288 192.0
82.773521 144.0
82.907578 168.0
83.056252 164.0
83.088905 104.0
83.166939 144.0
83.257721 208.0
83.286781 220.0
83.35582 200.0
83.370361 52.0
83.439713 104.0
83.554787 228.0
83.603142 120.0
83.632263 132.0
83.674042 160.0
83.825317 136.0
83.894318 172.0
83.927399 120.0
84.051437 152.0
84.066032 200.0
84.178169 140.0
84.193825 44.0
84.224876 148.0
84.286995 36.0
84.301613 68.0
84.477142 188.0
84.500923 280.0
84.546669 176.0
84.59243 56.0
84.629044 220.0
84.647911 160.0
84.680321 60.0
84.720619 100.0
84.755547 200.0
84.795753 176.0
84.914925 200.0
84.973625 148.0
85.039688 180.0
85.11496 152.0
85.127815 208.0
85.324425 208.0
85.34465 148.0
85.455009 164.0
85.550713 164.0
85.58754 208.0
85.600426 248.0
85.635422 176.0
85.666733 120.0
85.679626 144.0
85.720169 196.0
85.736748 192.0
85.790207 68.0
85.871338 196.0
85.921951 220.0
85.937752 144.0
85.950668 192.0
85.985733 140.0
86.090965 124.0
86.166702 140.0
86.344719 184.0
86.473671 196.0
86.612541 148.0
86.644081 156.0
86.729279 176.0
86.836823 168.0
86.851654 160.0
86.886902 160.0
86.924606 108.0
86.957947 396.0
86.981552 180.0
87.223038 216.0
87.291824 196.0
87.401573 172.0
87.444382 180.0
87.477882 156.0
87.550499 152.0
87.623146 184.0
87.693962 88.0
87.723785 152.0
87.764801 240.0
87.964432 152.0
87.983101 168.0
88.048454 112.0
88.102623 160.0
88.128784 168.0
88.158684 164.0
88.184845 136.0
88.257751 136.0
88.297028 152.0
88.398872 228.0
88.416763 156.0
88.508492 180.0
88.735985 204.0
88.783463 192.0
88.823357 176.0
89.172607 148.0
89.210197 168.0
89.251564 28.0
89.272247 164.0
89.328674 132.0
89.396408 164.0
89.411461 108.0
89.451935 132.0
89.496178 136.0
89.535721 180.0
89.606514 220.0
89.620491 144.0
89.750549 132.0
89.776955 192.0
89.799583 192.0
89.888252 160.0
89.933548 172.0
89.988297 120.0
90.01284 192.0
90.075172 140.0
90.13752 144.0
90.320908 112.0
90.449585 124.0
90.466621 172.0
90.549934 132.0
90.578346 196.0
90.616234 196.0
90.692039 108.0
90.788734 216.0
90.817184 128.0
90.864609 44.0
90.898766 80.0
90.974686 172.0
91.053581 4800.0
91.070618 184.0
91.096222 56.0
91.189331 152.0
91.231148 196.0
91.27298 64.0
91.364273 84.0
91.383301 188.0
91.474655 208.0
91.529045 148.0
91.592712 160.0
91.625099 96.0
92.017326 60.0
92.058678 700.0
92.10659 152.0
92.199463 184.0
92.231956 152.0
92.283569 224.0
92.321815 196.0
92.363892 172.0
92.467216 196.0
92.480614 68.0
92.526558 168.0
92.580437 144.0
92.628059 136.0
92.643379 116.0
92.713455 168.0
92.729904 184.0
92.758362 108.0
92.783287 196.0
92.856155 168.0
92.932884 136.0
93.015411 128.0
93.05381 120.0
93.06855 456.0
93.157516 156.0
93.284348 296.0
93.359337 188.0
93.690407 336.0
93.72316 180.0
93.763634 212.0
93.883163 80.0
94.040443 392.0
94.062958 388.0
94.172661 64.0
94.37558 152.0
94.443443 176.0
94.495499 232.0
94.520653 72.0
94.538071 132.0
94.646477 140.0
94.698647 136.0
94.74221 140.0
94.782066 140.0
94.816948 188.0
94.904182 124.0
94.948784 116.0
95.045876 172.0
95.07254 572.0
95.107887 164.0
95.130974 184.0
95.226326 152.0
95.304039 168.0
95.405098 156.0
95.505859 192.0
95.638535 164.0
95.687202 236.0
96.028229 128.0
96.051636 196.0
96.078979 280.0
96.108208 212.0
96.168709 112.0
96.211655 160.0
96.261688 172.0
96.297577 164.0
96.353981 160.0
96.424568 176.0
96.672951 92.0
96.759071 168.0
96.774734 60.0
96.813904 60.0
96.845238 196.0
96.900085 180.0
96.970634 88.0
97.045128 192.0
97.094154 124.0
97.145149 320.0
97.205978 76.0
97.249153 124.0
97.325714 212.0
97.417 132.0
97.477531 224.0
97.490425 420.0
97.537689 116.0
97.581146 168.0
97.610641 148.0
97.637306 100.0
97.667679 204.0
97.683411 128.0
97.78376 84.0
97.850693 56.0
97.903862 152.0
97.945221 180.0
98.010239 196.0
98.059502 160.0
98.075272 200.0
98.096809 180.0
98.124557 148.0
98.201462 184.0
98.302078 148.0
98.469887 168.0
98.498116 220.0
98.513344 160.0
98.612144 108.0
98.683311 204.0
98.766373 156.0
98.88707 220.0
99.009819 172.0
99.067261 168.0
99.083115 168.0
99.098961 172.0
99.124725 192.0
99.192108 116.0
99.233742 140.0
99.301163 112.0
99.432114 220.0
99.569977 108.0
99.5989 124.0
99.650551 68.0
99.673203 60.0
99.700226 160.0
99.734016 116.0
99.841385 156.0
99.922935 152.0
100.082169 116.0
100.159317 184.0
100.18972 168.0
100.28537 148.0
100.31926 212.0
100.333214 132.0
100.424942 244.0
100.446884 172.0
100.472816 192.0
100.680412 164.0
100.780296 188.0
100.858231 88.0
101.036209 136.0
101.066223 184.0
101.242386 168.0
101.370598 128.0
101.500893 108.0
101.518944 172.0
101.591148 124.0
101.844078 180.0
101.860153 136.0
101.874214 276.0
101.946548 156.0
101.96463 168.0
102.004837 256.0
102.022926 212.0
102.037003 240.0
102.19809 132.0
102.242172 184.0
102.271675 152.0
102.389145 52.0
102.427414 260.0
102.508003 192.0
102.544281 272.0
102.558388 88.0
102.588631 152.0
102.637016 236.0
102.701553 212.0
102.836739 196.0
102.854904 140.0
102.921532 160.0
102.95182 96.0
103.05365 2888.0
103.146507 112.0
103.168022 80.0
103.18824 52.0
103.244858 168.0
103.26429 164.0
103.285309 80.0
103.327789 84.0
103.352074 200.0
103.447197 56.0
103.507935 208.0
103.550461 152.0
103.566666 52.0
103.674049 188.0
103.744995 88.0
103.765266 176.0
103.801765 184.0
103.846382 396.0
103.86261 168.0
103.919411 120.0
104.016823 132.0
104.057831 424.0
104.123337 172.0
104.163033 152.0
104.236176 48.0
104.276466 208.0
104.281075 172.0
104.287453 224.0
104.320168 208.0
104.40287 212.0
104.516792 112.0
104.541206 172.0
104.662048 320.0
104.704758 168.0
104.742775 128.0
104.761108 132.0
104.814079 160.0
104.839615 144.0
104.878593 152.0
104.901726 168.0
104.94046 140.0
104.977165 128.0
104.995514 148.0
105.028122 196.0
105.069717 28648.0
105.106155 136.0
105.126083 100.0
105.144958 32.0
105.195351 64.0
105.251564 68.0
105.273064 172.0
105.320045 112.0
105.368561 176.0
105.403809 48.0
105.420151 160.0
105.513741 56.0
105.589836 172.0
105.608246 116.0
105.651329 136.0
105.743286 148.0
105.796509 72.0
105.980843 64.0
106.019775 100.0
106.051369 220.0
106.071953 2368.0
106.129333 72.0
106.292519 168.0
106.360245 144.0
106.430046 132.0
106.485497 124.0
106.573204 196.0
106.621918 140.0
106.665527 84.0
106.701263 48.0
106.744438 72.0
106.758835 144.0
106.797913 80.0
106.830826 136.0
106.857574 132.0
106.894608 96.0
106.910088 92.0
107.019012 312.0
107.04892 15552.0
107.131393 72.0
107.179718 176.0
107.219994 76.0
107.327187 68.0
107.441414 200.0
107.512848 136.0
107.53968 68.0
107.564941 184.0
107.638779 280.0
107.671814 40.0
107.696602 104.0
107.798767 124.0
107.818504 136.0
107.863976 32.0
107.913589 108.0
107.932198 80.0
108.053795 1984.0
108.08271 360.0
108.105965 196.0
108.141151 48.0
108.20118 240.0
108.215675 32.0
108.25502 100.0
108.332962 152.0
108.364799 184.0
108.511955 44.0
108.54306 180.0
108.590759 36.0
108.648842 168.0
108.696564 100.0
108.798882 248.0
108.873016 176.0
108.900017 132.0
108.920021 216.0
108.951195 188.0
108.97065 236.0
109.01844 108.0
109.064201 4416.0
109.091507 156.0
109.111977 120.0
109.168121 52.0
109.317902 184.0
109.349121 112.0
109.375542 336.0
109.413651 148.0
109.427277 144.0
109.46154 188.0
109.534431 84.0
109.634445 172.0
109.729675 140.0
109.799149 68.0
109.826263 160.0
109.876328 248.0
109.924316 96.0
109.947273 216.0
110.068947 532.0
110.09697 492.0
110.153984 128.0
110.22084 176.0
110.374603 172.0
110.40271 168.0
110.434082 156.0
110.490562 192.0
110.588913 328.0
110.618217 104.0
110.779465 96.0
110.825562 48.0
110.93454 168.0
110.97438 188.0
111.21563 184.0
111.263916 196.0
111.46093 152.0
111.57695 68.0
111.652657 208.0
111.698929 80.0
111.738899 80.0
111.827278 148.0
111.950127 164.0
111.985191 200.0
112.042068 208.0
112.111603 64.0
112.136894 204.0
112.16008 108.0
112.242302 152.0
112.26339 40.0
112.301353 44.0
112.343544 88.0
112.769302 204.0
112.79792 168.0
113.142395 140.0
113.244034 188.0
113.277931 140.0
113.358444 204.0
113.402946 208.0
113.45594 92.0
113.530159 88.0
113.644707 164.0
113.672852 136.0
113.699799 216.0
113.776291 152.0
113.861229 36.0
113.931328 124.0
114.00145 192.0
114.094971 204.0
114.20768 32.0
114.380035 232.0
114.409836 124.0
114.458809 52.0
114.531219 100.0
114.654793 152.0
114.840286 132.0
114.921349 136.0
114.959763 116.0
114.981796 196.0
114.991371 64.0
114.997429 184.0
115.05452 3292.0
115.109192 144.0
115.25872 80.0
115.310005 176.0
115.330902 196.0
115.357033 108.0
115.386963 180.0
115.406204 200.0
115.564484 72.0
115.605141 104.0
115.679466 204.0
115.834236 140.0
115.89637 216.0
115.958626 156.0
115.982094 64.0
116.000572 168.0
116.060104 720.0
116.147949 184.0
116.282928 204.0
116.368248 168.0
116.426224 60.0
116.475624 244.0
116.542221 76.0
116.57016 204.0
116.701279 216.0
116.741776 144.0
116.76149 220.0
116.788422 208.0
116.875504 148.0
116.957291 60.0
116.989578 132.0
117.032486 168.0
117.038933 156.0
117.068886 11856.0
117.11232 88.0
117.164017 72.0
117.192024 52.0
117.237282 108.0
117.257439 264.0
117.282539 100.0
117.299095 112.0
117.368774 200.0
117.476616 60.0
117.532715 112.0
117.610405 176.0
117.637718 92.0
117.752907 180.0
118.014389 32.0
118.041168 300.0
118.072449 1232.0
118.133339 224.0
118.202576 164.0
118.235039 116.0
118.421837 172.0
118.471054 72.0
118.577232 140.0
118.605408 32.0
118.646095 240.0
118.789734 84.0
118.804916 100.0
118.905067 128.0
118.924263 116.0
119.011101 220.0
119.04808 860.0
119.081497 260.0
119.139046 164.0
119.210945 120.0
119.247894 196.0
119.347893 104.0
119.478294 184.0
119.595329 76.0
119.73307 92.0
119.879036 92.0
119.935699 144.0
119.996742 188.0
120.056419 6124.0
120.083626 200.0
120.116684 164.0
120.238876 152.0
120.324005 156.0
120.343658 200.0
120.365662 156.0
120.396065 68.0
120.586143 84.0
120.605812 164.0
120.640785 60.0
120.719505 184.0
120.766777 104.0
120.78878 224.0
120.841995 128.0
121.025856 172.0
121.063675 3240.0
121.115646 104.0
121.157265 248.0
121.185753 52.0
121.226631 140.0
121.229942 168.0
121.275597 84.0
121.374252 140.0
121.389603 68.0
121.521217 72.0
121.560707 100.0
121.795631 128.0
121.938446 92.0
121.978012 180.0
122.021805 100.0
122.036003 148.0
122.066177 496.0
122.094551 344.0
122.189133 176.0
122.263947 172.0
122.380623 184.0
122.490738 284.0
122.589882 100.0
122.669228 120.0
122.794914 144.0
122.862526 228.0
122.894188 176.0
123.044533 136.0
123.066353 148.0
123.09285 144.0
123.121559 40.0
123.152473 56.0
123.342506 132.0
123.357979 172.0
123.422455 148.0
123.470741 184.0
123.574715 180.0
123.645523 116.0
123.933411 152.0
124.002106 128.0
124.1063 124.0
124.135124 180.0
124.155083 128.0
124.20166 152.0
124.239372 184.0
124.376953 232.0
124.436897 72.0
124.587921 220.0
124.825745 160.0
124.863548 128.0
124.883568 176.0
124.928055 148.0
125.023735 120.0
125.066025 120.0
125.081604 152.0
125.177338 72.0
125.266434 60.0
125.315445 216.0
125.444702 40.0
125.614182 244.0
125.652107 220.0
125.873085 132.0
126.051788 124.0
126.176956 144.0
126.644661 104.0
126.687218 124.0
126.705147 152.0
126.751793 200.0
126.803741 112.0
126.940498 124.0
127.010223 176.0
127.051231 200.0
127.140152 148.0
127.158112 216.0
127.250145 132.0
127.34671 44.0
127.420837 172.0
127.564667 160.0
127.659103 116.0
127.713081 100.0
127.799011 212.0
127.850327 104.0
127.906593 148.0
128.060577 492.0
128.375229 236.0
128.490265 40.0
128.711456 64.0
128.790512 172.0
128.813126 296.0
129.069336 2636.0
129.154419 96.0
129.186096 48.0
129.22229 80.0
129.42601 88.0
129.527924 72.0
129.577759 140.0
129.799881 196.0
129.818024 204.0
129.840714 204.0
129.888336 80.0
129.924072 172.0
129.962601 120.0
129.980301 180.0
130.077576 692.0
130.128891 76.0
130.278381 180.0
130.417297 164.0
130.458328 124.0
130.514053 188.0
130.606125 176.0
130.651627 172.0
130.747192 124.0
130.799545 128.0
130.924042 212.0
131.047729 1144.0
131.085388 5256.0
131.193649 40.0
131.227844 64.0
131.46051 56.0
131.531265 136.0
131.55545 148.0
131.579208 40.0
131.663696 104.0
131.713943 120.0
131.764206 128.0
131.832748 76.0
132.057205 692.0
132.087357 904.0
132.113983 204.0
132.171188 184.0
132.436752 192.0
132.514648 176.0
132.535263 180.0
132.608597 108.0
132.642975 32.0
132.746155 244.0
132.771378 132.0
132.805786 132.0
132.925079 164.0
132.977722 132.0
132.99411 176.0
133.028366 184.0
133.064377 21224.0
133.159256 60.0
133.175323 128.0
133.212082 36.0
133.246536 76.0
133.267212 76.0
133.293457 96.0
133.339844 80.0
133.474091 88.0
133.525223 236.0
133.648361 152.0
133.665009 40.0
133.747864 100.0
133.798508 96.0
133.892929 216.0
133.91188 192.0
133.973541 204.0
134.067459 1232.0
134.103287 52.0
134.17865 40.0
134.194794 120.0
134.224777 76.0
134.413925 392.0
134.45546 124.0
134.614761 108.0
134.670181 68.0
134.751038 272.0
134.804184 152.0
134.838852 100.0
134.905884 96.0
134.933624 316.0
134.984497 116.0
135.011154 76.0
135.039993 112.0
135.079468 8988.0
135.165344 88.0
135.20195 160.0
135.225098 88.0
135.245926 136.0
135.347794 28.0
135.364502 220.0
135.574814 184.0
135.623474 84.0
135.662888 72.0
135.718536 72.0
135.743423 120.0
135.795105 200.0
135.864655 48.0
135.892487 64.0
135.996918 184.0
136.034058 48.0
136.083908 960.0
136.117645 204.0
136.189636 28.0
136.298828 160.0
136.33136 48.0
136.382492 100.0
136.43364 140.0
136.805862 124.0
136.88269 104.0
136.915741 84.0
137.083038 412.0
137.25087 116.0
137.411804 136.0
137.516815 152.0
137.607864 112.0
137.684921 184.0
137.75499 48.0
137.778351 120.0
137.815735 228.0
138.056503 52.0
138.096268 224.0
138.162491 180.0
138.257706 160.0
138.332596 144.0
138.401886 216.0
138.564453 116.0
138.789459 104.0
138.876236 196.0
138.967728 200.0
139.099152 60.0
139.221237 132.0
139.344376 172.0
139.792496 164.0
140.148071 156.0
140.25647 188.0
140.449829 164.0
140.501724 220.0
140.530045 112.0
140.60556 120.0
140.68129 140.0
141.066788 224.0
141.34996 180.0
141.378357 132.0
141.44104 184.0
142.034668 56.0
142.078568 508.0
142.165161 124.0
142.274338 160.0
142.307587 40.0
142.635437 160.0
142.894653 196.0
143.057877 144.0
143.082489 156.0
143.135056 136.0
143.236572 176.0
143.382812 96.0
143.630783 164.0
143.661789 124.0
143.680878 116.0
143.707123 160.0
143.924316 128.0
143.998352 168.0
144.055908 216.0
144.088211 416.0
144.117798 144.0
144.191879 52.0
144.220566 64.0
144.239685 148.0
144.263596 120.0
144.316193 52.0
144.646332 196.0
144.83551 128.0
144.859467 220.0
144.938522 88.0
145.003235 216.0
145.065353 904.0
145.101181 796.0
145.13028 72.0
145.147064 32.0
145.540588 196.0
145.564606 112.0
145.675095 200.0
145.742355 132.0
145.91301 84.0
146.023621 156.0
146.060272 1268.0
146.097229 532.0
146.189621 136.0
146.65686 132.0
146.796692 148.0
146.818405 104.0
146.869049 156.0
147.067734 676.0
147.159653 96.0
147.216599 180.0
147.281799 76.0
147.465439 188.0
147.523453 200.0
147.763062 156.0
147.808853 112.0
147.91188 176.0
148.074402 1116.0
148.157501 100.0
148.346527 220.0
148.373199 176.0
148.41684 132.0
148.523544 160.0
148.540527 140.0
148.66185 172.0
148.802628 148.0
149.07811 624.0
149.118423 72.0
149.145157 128.0
149.619522 160.0
149.833069 188.0
149.897202 136.0
149.936188 116.0
150.091385 1404.0
150.128784 192.0
150.148911 108.0
150.216599 72.0
150.277588 184.0
150.387405 216.0
150.441101 124.0
150.590057 144.0
150.841736 160.0
150.93219 140.0
151.015335 184.0
151.073898 6460.0
151.141602 124.0
151.211075 80.0
151.279617 96.0
151.349319 132.0
151.44368 104.0
151.490219 32.0
151.514709 208.0
151.53186 172.0
151.575974 40.0
151.71077 132.0
151.91861 128.0
151.971786 132.0
152.076416 548.0
152.100815 192.0
152.142548 112.0
152.19165 44.0
152.256989 172.0
152.378326 156.0
152.64624 88.0
152.793869 192.0
152.97348 192.0
153.081863 196.0
153.118744 120.0
153.1483 136.0
153.308456 100.0
153.360214 44.0
153.87825 180.0
153.895538 112.0
153.954803 256.0
154.065948 44.0
154.231522 236.0
154.451584 144.0
154.550552 184.0
154.674286 168.0
154.96405 104.0
155.033432 124.0
155.076172 140.0
155.132568 200.0
155.19455 84.0
155.283829 132.0
155.410339 232.0
155.504654 152.0
155.70575 172.0
155.921906 136.0
156.05603 184.0
156.083115 160.0
156.170532 220.0
156.197891 60.0
156.568573 112.0
156.62355 72.0
156.745621 164.0
156.780518 156.0
156.822876 140.0
156.922592 84.0
157.096954 396.0
157.131668 116.0
157.581512 96.0
157.641479 116.0
157.888977 76.0
157.96402 208.0
158.036575 256.0
158.073883 284.0
158.102554 340.0
158.129166 148.0
158.554932 136.0
159.018921 212.0
159.078522 700.0
159.113419 608.0
159.239868 112.0
159.297638 196.0
159.357925 108.0
159.443375 140.0
159.486099 160.0
159.62941 144.0
159.654556 116.0
159.684738 152.0
159.800446 276.0
159.888519 172.0
160.013412 156.0
160.034531 160.0
160.077057 2128.0
160.119476 284.0
160.185638 164.0
160.203262 68.0
160.471619 84.0
160.588242 180.0
160.604065 212.0
160.740311 256.0
160.927094 208.0
160.947296 112.0
161.080078 320.0
161.102432 180.0
161.144302 128.0
161.270096 124.0
161.629776 124.0
161.872787 140.0
161.918381 92.0
162.014633 76.0
162.089081 1508.0
162.35936 64.0
162.430374 76.0
162.463348 72.0
162.506485 164.0
162.557236 56.0
162.585144 112.0
162.823792 208.0
162.922852 236.0
163.097214 592.0
163.192261 160.0
163.24057 164.0
163.413544 144.0
163.489883 68.0
163.558594 60.0
163.719009 144.0
163.785217 160.0
163.823441 188.0
163.887131 208.0
163.978867 88.0
163.999252 172.0
164.034943 160.0
164.062988 212.0
164.10733 284.0
164.233841 152.0
164.381821 176.0
164.884918 240.0
164.98204 156.0
165.075211 216.0
165.138031 152.0
165.37854 124.0
165.527023 120.0
165.690948 108.0
165.726822 68.0
165.816513 96.0
165.934433 208.0
166.013916 160.0
166.106262 140.0
166.152435 136.0
166.380844 200.0
166.480988 136.0
166.552902 160.0
166.786728 184.0
166.807297 192.0
166.843277 152.0
166.862946 204.0
167.13649 140.0
167.180237 64.0
167.2034 152.0
167.422699 156.0
167.491776 124.0
167.607712 168.0
167.695328 180.0
168.283508 156.0
168.42038 148.0
168.52887 172.0
168.546967 192.0
168.596069 200.0
168.864944 184.0
168.986526 124.0
169.095215 108.0
169.242767 48.0
169.346359 168.0
169.449982 108.0
169.483658 172.0
169.509567 180.0
169.72731 216.0
169.745468 216.0
169.97374 160.0
170.046402 152.0
170.108704 84.0
170.129471 140.0
170.186584 144.0
170.306046 148.0
170.467133 44.0
170.498306 148.0
171.073151 168.0
171.099182 160.0
171.117401 80.0
171.216354 180.0
171.237198 112.0
171.435196 148.0
171.690674 168.0
171.930695 168.0
172.10881 296.0
172.212662 200.0
172.297134 184.0
172.317154 72.0
172.377258 116.0
172.419067 116.0
172.449783 208.0
172.615143 196.0
172.70929 236.0
172.932434 164.0
173.002365 104.0
173.031174 140.0
173.093948 516.0
173.185669 100.0
173.379547 152.0
173.397903 112.0
173.416245 64.0
173.463425 104.0
173.539459 212.0
173.594528 228.0
173.688934 96.0
173.84111 168.0
173.953491 152.0
174.043243 176.0
174.09082 1380.0
174.127533 13780.0
174.203445 40.0
174.232346 236.0
174.250732 64.0
174.279633 52.0
174.362442 80.0
174.38739 76.0
174.552322 76.0
174.600342 124.0
174.668732 84.0
174.734497 196.0
174.773972 168.0
174.812836 188.0
174.860809 156.0
174.908188 56.0
175.01004 192.0
175.095032 360.0
175.130356 1148.0
175.182053 176.0
175.305893 56.0
175.375504 184.0
175.403412 32.0
175.428741 164.0
175.448227 168.0
175.477219 40.0
175.503586 236.0
175.527328 68.0
175.56752 132.0
175.672379 48.0
175.705917 152.0
175.736404 104.0
175.767365 108.0
175.823364 36.0
175.862366 132.0
175.904602 164.0
175.986969 200.0
176.018127 160.0
176.055466 172.0
176.107254 1712.0
176.143372 73048.0
176.196182 204.0
176.227844 216.0
176.273376 128.0
176.280884 112.0
176.331024 100.0
176.361588 100.0
176.399918 112.0
176.438309 172.0
176.466583 224.0
176.518936 124.0
176.542801 132.0
176.57663 204.0
176.614624 84.0
176.660385 68.0
176.730438 176.0
176.816498 52.0
176.842972 156.0
176.86293 80.0
176.919144 72.0
176.976578 68.0
177.004959 108.0
177.038895 48.0
177.077774 100.0
177.085526 132.0
177.113922 540.0
177.146469 6756.0
177.202515 52.0
177.234726 116.0
177.243591 160.0
177.271744 156.0
177.290115 108.0
177.340927 40.0
177.364578 104.0
177.396591 36.0
177.420441 56.0
177.456238 64.0
177.531815 40.0
177.579544 48.0
177.717499 72.0
177.855499 60.0
177.880936 48.0
178.014786 40.0
178.091583 92.0
178.111069 112.0
178.147507 388.0
178.225433 108.0
178.287827 144.0
178.340942 268.0
178.382492 92.0
178.408035 128.0
178.445343 116.0
178.471634 152.0
178.495773 112.0
178.546097 104.0
178.571625 100.0
178.60849 128.0
178.700592 104.0
178.727997 92.0
178.77243 188.0
178.881561 56.0
178.982727 68.0
179.062622 72.0
179.10257 72.0
179.1745 156.0
179.238449 112.0
179.489853 140.0
179.514053 168.0
179.570847 76.0
179.591156 80.0
179.641037 120.0
179.73175 64.0
179.873764 188.0
180.255127 140.0
180.311234 152.0
180.888992 208.0
181.532013 64.0
181.891541 136.0
182.095596 144.0
182.194916 140.0
182.891479 48.0
183.144577 96.0
183.435593 124.0
183.699875 164.0
183.98053 80.0
184.077728 36.0
184.104736 164.0
184.599274 56.0
184.620911 132.0
184.683121 164.0
184.856262 52.0
184.945587 92.0
185.088699 204.0
185.129196 156.0
185.362656 176.0
185.724625 156.0
185.823608 160.0
185.943008 84.0
186.090485 184.0
186.126007 3116.0
186.22908 220.0
186.312302 116.0
186.510681 128.0
186.586792 84.0
186.65477 64.0
186.673798 44.0
186.869644 56.0
187.098602 1340.0
187.128845 288.0
187.288895 72.0
187.498688 104.0
187.542297 208.0
187.62352 220.0
187.684052 128.0
187.894073 64.0
187.943176 104.0
187.986847 136.0
188.033234 60.0
188.106476 524.0
188.143219 272.0
188.232529 32.0
188.251648 132.0
188.28714 48.0
188.314453 68.0
188.374542 72.0
188.437378 144.0
188.587677 60.0
188.855637 96.0
189.111191 696.0
189.15303 176.0
189.553772 152.0
189.611313 92.0
189.734665 64.0
189.836121 132.0
190.116089 140.0
190.239456 124.0
190.566269 76.0
190.841125 112.0
191.507111 232.0
191.537399 68.0
191.697205 112.0
192.157684 156.0
192.207352 128.0
192.298416 136.0
192.417114 80.0
192.845291 64.0
192.947571 188.0
193.323761 88.0
193.777878 176.0
193.924744 116.0
194.260269 112.0
194.529434 132.0
194.619095 204.0
195.110062 132.0
195.148987 108.0
195.833557 160.0
196.248795 316.0
196.477493 104.0
196.636551 128.0
196.711914 112.0
196.979996 188.0
197.019104 116.0
197.659378 228.0
197.964508 132.0
198.098206 228.0
198.109512 168.0
198.121964 140.0
198.407211 60.0
198.561447 116.0
199.072205 92.0
199.091873 176.0
199.207031 144.0
199.32222 132.0
199.358749 116.0
199.836777 84.0
200.030975 120.0
200.105194 324.0
200.137939 724.0
200.430893 136.0
200.523895 112.0
200.715591 200.0
200.752258 188.0
200.783279 44.0
201.112549 460.0
201.145935 292.0
201.449417 88.0
201.469177 100.0
201.536987 168.0
201.618942 128.0
201.757446 52.0
201.836609 92.0
201.95256 188.0
202.026108 80.0
202.082687 156.0
202.121094 3960.0
202.156631 296.0
202.379883 68.0
202.439346 164.0
202.643295 92.0
202.691467 192.0
202.784988 80.0
202.97493 44.0
203.090836 124.0
203.12384 328.0
203.386307 124.0
203.454437 212.0
203.54245 108.0
203.857773 48.0
204.116455 164.0
204.142044 92.0
204.403748 156.0
204.537521 180.0
204.850754 240.0
204.904877 80.0
205.13002 76.0
205.238358 152.0
205.583527 156.0
205.626328 108.0
205.67485 184.0
205.81189 136.0
205.886139 52.0
206.208984 196.0
206.303299 104.0
206.323318 148.0
206.354767 48.0
206.506332 236.0
206.544815 88.0
206.861145 88.0
206.961349 112.0
207.127457 108.0
207.264969 208.0
207.302231 196.0
207.875763 192.0
208.045105 160.0
208.217392 180.0
208.294937 96.0
208.447205 100.0
208.60817 124.0
209.085632 112.0
209.48587 120.0
209.583817 44.0
210.004715 148.0
210.094147 184.0
210.255737 180.0
210.296143 152.0
210.76976 96.0
210.821777 112.0
210.918701 144.0
211.362534 144.0
211.394363 152.0
211.753357 140.0
211.788101 32.0
212.512863 204.0
212.669571 140.0
212.878601 172.0
213.119705 124.0
213.469101 140.0
213.541229 168.0
213.89621 204.0
214.114258 144.0
214.159149 464.0
214.199051 56.0
214.27771 52.0
214.563324 120.0
214.709122 128.0
214.927902 120.0
215.084137 120.0
215.125107 356.0
215.162842 140.0
215.48851 68.0
215.529419 52.0
215.567413 88.0
215.59079 132.0
216.038147 64.0
216.137634 1484.0
216.673431 168.0
216.73497 192.0
217.140762 468.0
217.474945 196.0
217.609024 196.0
218.523102 40.0
218.631271 216.0
219.153198 116.0
220.035065 128.0
220.120697 44.0
220.143585 160.0
220.277237 136.0
220.297913 128.0
220.791534 160.0
221.037064 80.0
221.103058 252.0
221.128799 128.0
221.205765 124.0
221.54039 244.0
221.633087 224.0
221.893066 104.0
221.970169 120.0
222.230698 120.0
222.317245 92.0
222.605194 136.0
222.875519 176.0
223.4077 156.0
223.699341 108.0
224.026917 48.0
224.135971 180.0
224.405411 164.0
224.494873 156.0
225.500977 156.0
225.716232 176.0
226.087173 216.0
226.593216 184.0
227.210831 184.0
227.516953 68.0
227.637054 152.0
227.658066 136.0
227.919418 76.0
228.087723 112.0
228.147842 160.0
228.226013 132.0
228.526794 200.0
228.74649 128.0
229.255508 160.0
229.485474 136.0
229.722855 100.0
229.753021 112.0
230.148392 164.0
230.828278 152.0
231.342636 168.0
231.915146 92.0
232.166779 448.0
232.609772 152.0
232.682632 184.0
232.876984 92.0
233.195999 72.0
233.694733 128.0
234.090439 160.0
234.382874 216.0
234.614517 136.0
234.821869 76.0
235.099503 156.0
235.145279 168.0
235.893631 76.0
236.003693 196.0
236.129715 152.0
236.710526 176.0
236.747284 140.0
237.124115 116.0
237.452164 148.0
237.630081 156.0
237.70372 172.0
237.894028 112.0
238.689774 124.0
238.868164 256.0
239.582352 232.0
239.634735 120.0
239.951126 152.0
240.050858 64.0
240.084778 48.0
240.143372 200.0
240.235916 212.0
240.760635 128.0
240.986145 56.0
241.115921 136.0
241.273575 176.0
241.323044 144.0
241.449829 124.0
241.561172 96.0
241.765381 132.0
242.307266 148.0
242.792191 164.0
242.983139 180.0
243.017273 92.0
243.265549 124.0
243.479797 196.0
243.753174 212.0
244.751678 92.0
244.957245 72.0
245.028885 160.0
245.513397 160.0
245.830246 40.0
246.008148 176.0
246.398529 140.0
246.617279 184.0
246.832993 144.0
246.908035 124.0
247.311646 112.0
247.436874 244.0
247.765717 156.0
248.126129 80.0
248.260956 152.0
248.336227 120.0
249.130402 120.0
249.290649 56.0
249.413223 188.0
249.925842 132.0
250.124115 164.0
250.158737 148.0
250.678421 152.0
250.700485 172.0
251.422668 208.0
252.138962 204.0
252.32608 216.0
253.136108 208.0
253.326843 144.0
253.720352 156.0
254.125076 108.0
254.801331 144.0
254.823578 60.0
254.934784 172.0
255.13504 44.0
255.863586 168.0
255.949554 88.0
256.070557 164.0
256.226654 124.0
256.421021 96.0
256.452911 204.0
256.523041 224.0
256.615479 164.0
257.301453 252.0
257.550537 124.0
258.157776 64.0
258.436066 64.0
258.855408 168.0
258.96109 144.0
259.009125 172.0
259.031555 136.0
259.326324 152.0
259.541138 120.0
259.723938 60.0
260.558594 220.0
260.616425 136.0
260.789948 172.0
260.839417 104.0
261.04071 108.0
261.249115 96.0
262.148102 128.0
262.193207 96.0
263.574402 172.0
263.603485 168.0
263.626099 72.0
264.123901 116.0
264.376373 92.0
264.46051 208.0
264.541443 112.0
264.599731 48.0
265.072632 144.0
265.137543 112.0
266.146301 96.0
266.669342 160.0
266.74408 176.0
267.06601 112.0
267.381592 212.0
267.472748 172.0
267.531342 108.0
268.195862 184.0
268.293671 172.0
268.463196 144.0
268.518646 124.0
268.822052 216.0
269.537201 144.0
269.792145 168.0
270.243469 152.0
271.21283 152.0
271.537415 88.0
272.223328 96.0
272.298859 48.0
273.140289 164.0
273.219269 92.0
273.373901 124.0
273.525299 160.0
273.637238 132.0
273.788696 128.0
274.022583 44.0
274.162109 116.0
274.190643 152.0
274.302704 216.0
275.117523 208.0
275.229767 124.0
276.141876 120.0
276.168335 204.0
276.300659 136.0
276.360199 252.0
276.846802 136.0
277.155518 188.0
277.466431 172.0
277.489655 124.0
277.81134 184.0
277.837891 76.0
278.15387 456.0
278.196289 188.0
278.495148 160.0
278.654602 44.0
278.764252 64.0
278.983643 36.0
279.046783 176.0
279.103333 144.0
279.152405 144.0
279.626556 132.0
279.732117 180.0
279.832001 92.0
279.9552 44.0
280.085083 132.0
280.151703 160.0
280.175598 220.0
280.238342 220.0
280.301636 188.0
280.541626 172.0
280.616455 144.0
280.658325 48.0
280.684998 40.0
280.838409 152.0
281.168701 128.0
281.365662 52.0
282.388184 180.0
283.034058 160.0
283.174713 68.0
283.436035 200.0
284.237427 108.0
284.516022 128.0
284.552948 124.0
284.630188 156.0
284.663757 160.0
284.939178 92.0
285.503906 168.0
286.280365 160.0
286.372223 32.0
286.510345 92.0
287.332153 136.0
287.440918 160.0
287.934662 156.0
288.180389 132.0
288.315552 140.0
288.748322 92.0
288.826111 148.0
289.077789 160.0
289.194916 208.0
289.448822 104.0
289.841766 52.0
289.994263 156.0
290.112915 76.0
290.154877 800.0
290.192352 128.0
290.435059 224.0
290.516449 192.0
290.61145 276.0
290.808289 124.0
290.98819 156.0
291.164459 208.0
291.212341 224.0
291.334625 156.0
291.545288 80.0
291.807007 152.0
292.02124 112.0
292.055267 132.0
292.0961 56.0
292.167358 6708.0
292.242371 156.0
292.266205 44.0
292.300232 68.0
292.336212 44.0
292.420532 224.0
292.456757 96.0
292.504425 56.0
292.586121 36.0
292.61676 68.0
292.644012 136.0
292.674652 108.0
292.712097 52.0
292.780212 36.0
292.878998 76.0
292.916443 88.0
292.950531 156.0
292.995728 44.0
293.034698 136.0
293.176117 19680.0
293.308319 144.0
293.356049 152.0
293.417419 56.0
293.514984 104.0
293.577667 40.0
293.632233 52.0
293.666351 36.0
293.714111 40.0
293.775513 60.0
293.847137 156.0
293.93927 148.0
293.97583 96.0
294.038239 140.0
294.081665 160.0
294.137238 76.0
294.177582 3776.0
294.42453 112.0
294.512817 64.0
294.581146 44.0
294.639221 44.0
294.775909 132.0
294.822754 124.0
294.875 88.0
294.902344 116.0
294.943359 72.0
295.151917 116.0
295.183716 712.0
295.262665 120.0
295.411835 68.0
295.483673 52.0
295.535004 104.0
295.702698 80.0
295.781403 52.0
295.822937 156.0
295.87384 84.0
295.96286 120.0
296.072449 84.0
296.136597 208.0
296.188904 104.0
296.243713 80.0
296.271118 52.0
296.339172 204.0
296.477112 64.0
296.572662 152.0
296.829803 80.0
296.874359 40.0
296.970398 204.0
297.138489 80.0
297.213959 44.0
297.36496 76.0
297.40271 104.0
297.428314 140.0
297.639618 108.0
297.724579 172.0
298.426453 184.0
298.539307 156.0
299.018127 176.0
299.245331 148.0
299.427856 168.0
299.913666 56.0
300.154999 220.0
300.217072 44.0
301.034943 120.0
301.173096 96.0
301.214539 152.0
301.2948 168.0
301.736359 140.0
302.068359 140.0
302.359009 128.0
302.971893 164.0
303.297638 184.0
303.689453 216.0
303.884033 176.0
303.921875 136.0
304.043335 132.0
304.171753 164.0
304.602356 116.0
304.904633 88.0
305.18811 160.0
305.420258 100.0
305.607056 144.0
306.049103 108.0
306.108307 56.0
306.180908 564.0
306.272003 52.0
306.345154 76.0
306.383484 84.0
306.487854 188.0
306.829559 172.0
306.878052 128.0
306.962067 56.0
306.996948 64.0
307.063202 208.0
307.091095 196.0
307.198029 304.0
307.26651 172.0
307.293427 172.0
307.32074 92.0
307.333282 76.0
307.340149 124.0
307.375244 140.0
307.401611 200.0
307.457428 72.0
307.496643 136.0
307.583099 136.0
307.614502 256.0
307.64682 140.0
307.673859 72.0
307.705261 280.0
307.727478 184.0
307.771606 164.0
307.809479 264.0
307.842834 152.0
307.89447 212.0
307.955475 216.0
307.995911 140.0
308.032104 88.0
308.095032 100.0
308.123016 224.0
308.200867 99932.0
308.288605 104.0
308.327637 116.0
308.379486 284.0
308.42688 56.0
308.459869 100.0
308.499207 100.0
308.525909 168.0
308.601776 136.0
308.657928 92.0
308.690186 124.0
308.710907 84.0
308.747498 328.0
308.778717 388.0
308.827179 80.0
308.853668 160.0
308.898895 220.0
308.92981 72.0
308.96344 124.0
309.001923 76.0
309.084259 172.0
309.119202 156.0
309.203247 19696.0
309.336823 92.0
309.379913 56.0
309.410126 68.0
309.461609 116.0
309.486694 104.0
309.494629 184.0
309.535553 96.0
309.573456 72.0
309.657349 104.0
309.686401 144.0
309.758911 52.0
309.785706 64.0
309.836731 108.0
309.866333 72.0
309.894745 36.0
309.92276 40.0
309.98233 80.0
310.012207 84.0
310.080475 64.0
310.105011 56.0
310.204651 2192.0
310.269745 72.0
310.299744 36.0
310.341248 96.0
310.406494 32.0
310.443665 100.0
310.476624 60.0
310.516479 48.0
310.574829 76.0
310.626404 104.0
310.677521 220.0
310.70813 136.0
310.760773 60.0
310.799377 76.0
310.830933 124.0
310.871796 120.0
310.884247 72.0
310.894745 156.0
310.936218 44.0
310.98587 88.0
311.023987 108.0
311.077118 56.0
311.139832 140.0
311.213715 240.0
311.265106 60.0
311.290649 96.0
311.304382 92.0
311.347595 92.0
311.361542 84.0
311.403809 156.0
311.436157 228.0
311.491608 68.0
311.599915 84.0
311.634735 48.0
311.680725 64.0
311.740448 40.0
311.786133 72.0
311.961884 48.0
312.113068 76.0
312.155273 28.0
312.23587 104.0
312.360962 148.0
312.404999 56.0
312.470306 92.0
312.587952 76.0
312.802643 64.0
312.84137 68.0
312.975159 44.0
313.144196 28.0
313.316772 40.0
313.65509 76.0
314.032379 108.0
314.088806 64.0
314.145264 76.0
314.205231 52.0
314.286377 68.0
314.43634 96.0
314.473419 92.0
314.498108 36.0
314.556946 108.0
314.70639 64.0
314.879425 48.0
315.501343 44.0
315.98233 76.0
316.304382 224.0
316.530945 56.0
316.78952 68.0
316.980835 112.0
317.672211 132.0
317.87088 36.0
317.952515 168.0
318.520599 40.0
318.964783 84.0
319.718811 64.0
319.843384 60.0
320.391785 48.0
321.047638 104.0
321.354431 112.0
322.079132 60.0
322.111267 80.0
322.343506 84.0
322.397095 168.0
322.697357 84.0
323.158752 136.0
323.355591 48.0
323.513062 136.0
325.001404 132.0
325.441925 48.0
325.610718 88.0
325.711273 128.0
325.959167 64.0
326.066986 148.0
326.153259 32.0
326.211334 3908.0
326.627899 36.0
326.71521 80.0
326.893066 120.0
326.987701 96.0
327.210022 832.0
327.650269 104.0
328.223358 212.0
328.851074 92.0
329.10379 96.0
329.371033 72.0
329.519135 152.0
330.41214 56.0
330.661835 80.0
333.040314 40.0
333.091187 96.0
334.869843 100.0
335.358063 136.0
340.182861 68.0
345.833771 116.0
347.148987 164.0
348.254944 64.0
351.333435 60.0
358.363251 64.0
365.032867 40.0
367.215057 76.0
367.42868 72.0
369.709839 100.0
372.320618 120.0
373.781433 68.0
375.179565 32.0
376.271362 72.0
377.113495 68.0
379.273315 88.0
380.460327 76.0
381.198303 132.0
384.141785 68.0
392.539124 80.0
393.071686 112.0
393.924469 76.0
394.52121 68.0
394.714935 84.0
399.526062 72.0
402.060272 92.0
409.340424 48.0
409.654572 92.0
412.285309 72.0
412.976685 72.0
416.003601 88.0
416.824036 88.0
417.787628 48.0
418.267822 32.0
419.473572 100.0
421.665466 64.0
425.183563 132.0
425.442139 76.0
425.988342 40.0
427.028259 152.0
433.286285 52.0
433.563904 72.0
444.657837 44.0
444.897095 108.0
448.531677 120.0
451.148956 76.0
461.142578 48.0
465.791626 68.0
474.470093 96.0
476.618561 76.0
478.471405 96.0
481.702911 108.0
486.537628 64.0
487.345764 116.0
488.49762 68.0
489.668457 148.0
495.087463 92.0
498.801117 60.0
500.647583 112.0
500.834656 96.0
504.024475 88.0
504.337341 96.0
504.842529 36.0
505.755249 40.0
507.726624 120.0
508.834961 96.0
510.029938 120.0
512.374451 92.0
512.608765 108.0
515.664062 56.0
515.745422 76.0
521.397339 72.0
523.658508 72.0
523.74054 56.0
524.109558 48.0
533.404785 80.0
548.528198 56.0
549.3349 72.0
560.941284 76.0
563.31488 44.0
567.830505 100.0
568.366577 104.0
569.3255 52.0
569.382446 48.0
571.036438 92.0
582.455444 120.0
584.407288 36.0
595.958618 100.0
609.911377 76.0
616.387329 156.0
620.371582 124.0
624.970642 60.0
629.596619 200.0
632.601685 48.0
641.937012 40.0
662.686768 160.0
679.962219 68.0
680.242493 164.0
680.818848 48.0
702.246155 60.0
723.839417 124.0
724.257141 72.0
727.32428 80.0
741.228088 120.0
742.442383 184.0
743.994263 80.0
753.197388 92.0
756.111633 180.0
759.377014 80.0
765.791199 160.0
766.964783 124.0
770.424744 140.0
777.06842 128.0
778.556091 72.0
779.706055 80.0
781.47998 184.0
783.891052 96.0
784.782898 160.0
785.613892 36.0
793.482727 144.0
796.580566 116.0
803.900024 88.0
813.703796 108.0
820.08075 104.0
823.207214 128.0
823.521301 172.0
829.667114 108.0
850.184509 180.0
851.032043 124.0
851.386292 164.0
852.815491 112.0
855.770752 140.0
857.588318 228.0
859.075256 144.0
860.213196 168.0
863.526306 68.0
866.289124 208.0
869.150269 156.0
869.778198 160.0
871.69873 128.0
873.374329 112.0
875.881836 128.0
876.518127 68.0
879.319336 64.0
880.452881 192.0
885.05365 128.0
892.702576 184.0
893.077271 176.0
894.386292 92.0
895.368713 216.0
899.094849 112.0
899.458923 140.0
899.936523 156.0
905.599731 104.0
905.815369 52.0
907.091797 268.0
910.854248 192.0
910.986389 96.0
917.51001 196.0
918.625671 160.0
925.333923 104.0
926.557312 160.0
930.815247 60.0
931.149292 144.0
933.555908 148.0
934.078979 60.0
943.115784 120.0
945.629639 136.0
946.076477 224.0
952.939392 184.0
960.15387 120.0
960.71521 44.0
962.474182 92.0
962.542114 120.0
967.946655 196.0
968.888123 228.0
974.16748 160.0
978.359009 176.0
979.62323 96.0
982.877747 176.0
983.327026 40.0
983.726562 160.0
983.857666 144.0
984.419617 184.0
985.256592 116.0
985.668945 120.0
991.564026 152.0
993.407532 152.0
994.524475 164.0
998.879028 100.0
999.508179 160.0
1000.043091 132.0
1001.132263 168.0
1002.373291 200.0
1006.283997 108.0
1007.559814 36.0
1008.912231 36.0
1008.975464 68.0
1010.025208 128.0
1011.638855 160.0
1012.069397 232.0
1012.791382 72.0
1013.767029 172.0
1014.235046 176.0
1016.356995 120.0
1017.31897 196.0
1017.712646 168.0
1017.852295 164.0
1018.493774 200.0
1022.308472 160.0
1023.842773 124.0
1024.46875 204.0
1025.320801 136.0
1025.569336 80.0
1028.471558 200.0
1028.548218 196.0
1029.537842 124.0
1030.757935 172.0
1031.198975 200.0
1033.609863 188.0
1034.589111 176.0
1035.203857 132.0
1036.895142 148.0
1038.093994 72.0
1038.587891 192.0
1041.206543 168.0
1041.797485 184.0
1041.996582 148.0
1045.591187 152.0
1045.912964 144.0
1046.395874 140.0
1047.902954 116.0
1048.895386 176.0
1052.346924 208.0
1052.508301 176.0
1057.719238 164.0
1058.586792 140.0
1058.703369 180.0
1058.807007 192.0
1060.050781 88.0
1060.523926 140.0
1060.647095 212.0
1060.848022 220.0
1062.073608 116.0
1066.287476 168.0
1071.258667 164.0
1073.435547 192.0
1073.774658 148.0
1074.714111 152.0
1074.759766 76.0
1077.025146 256.0
1077.580444 244.0
1078.390747 132.0
1078.48877 152.0
1080.103882 224.0
1080.359009 44.0
1080.404785 160.0
1080.823486 80.0
1080.934814 200.0
1083.075684 156.0
1085.795654 116.0
1087.015869 204.0
1088.289307 88.0
1091.18689 120.0
1092.857544 76.0
1093.272095 176.0
1095.207764 140.0
1095.411987 136.0
1096.209106 136.0
1097.019897 188.0
1098.147461 220.0
1099.235962 212.0
1099.486816 160.0
1100.160034 144.0
1101.619507 48.0
1101.989502 176.0
1102.418945 252.0
1102.59082 72.0
1102.795654 48.0
1104.508179 168.0
1104.587646 204.0
1105.242554 144.0
1105.394775 164.0
1105.884521 144.0
1106.175781 132.0
1107.414062 168.0
1107.467041 220.0
1108.566772 152.0
1108.812012 148.0
1109.494751 124.0
1110.239624 180.0
1110.423096 152.0
1111.272217 116.0
1115.283325 128.0
1116.559937 136.0
1119.168457 44.0
1119.847778 116.0
1121.913452 144.0
1122.993774 196.0
1123.720825 164.0
1123.834351 204.0
1124.181274 100.0
1125.556396 184.0
1125.656616 88.0
1126.224243 132.0
1127.177002 164.0
1127.50708 148.0
1129.31897 140.0
1129.86084 192.0
1131.058716 28.0
1132.150024 136.0
1132.62561 168.0
1133.697632 208.0
1133.938843 60.0
1134.093018 196.0
1134.233765 184.0
1134.287354 176.0
1134.367798 176.0
1134.434814 136.0
1134.82373 152.0
1134.884033 148.0
1135.467529 44.0
1136.057739 140.0
1137.279053 168.0
1138.776367 96.0
1138.856934 156.0
1139.824341 152.0
1140.005859 188.0
1140.39563 180.0
1141.067871 200.0
1141.262817 240.0
1143.105957 176.0
1143.227051 188.0
1148.408081 144.0
1149.379517 140.0
1149.737183 180.0
1152.992432 180.0
1153.675049 148.0
1154.790771 104.0
1155.081665 260.0
1157.044189 120.0
1157.646851 160.0
1157.883911 128.0
1158.351196 140.0
1158.50708 108.0
1159.557373 144.0
1159.719971 200.0
1163.532349 412.0
1163.77002 172.0
1163.899048 204.0
1165.536011 232.0
1165.685547 164.0
1166.140869 208.0
1166.963501 164.0
1167.514282 156.0
1169.745972 192.0
1170.154419 124.0
1170.263428 96.0
1171.223633 152.0
1172.265991 184.0
1175.170898 192.0
1175.894165 144.0
1176.771362 20.0
1178.188599 160.0
1178.414062 148.0
1179.678345 140.0
1181.490601 136.0
1184.571289 168.0
1185.249512 172.0
1186.003418 96.0
1186.215942 124.0
1186.407837 176.0
1186.784912 180.0
1188.993774 164.0
1189.419312 232.0
1189.69397 40.0
1191.039917 168.0
1191.644409 124.0
1191.719971 128.0
1192.647827 132.0
1193.850952 200.0
1194.167358 52.0
1197.760376 144.0
1198.242554 220.0
1200.020752 132.0
1201.538086 172.0
1202.172852 116.0
1202.331665 152.0
1203.88501 240.0
1205.840088 216.0
1205.93689 152.0
1207.589355 140.0
1208.322632 228.0
1210.724609 160.0
1211.313354 232.0
1211.382568 180.0
1212.380371 180.0
1212.830811 216.0
1213.357666 64.0
1213.558716 204.0
1213.690552 128.0
1213.78064 228.0
1216.097778 204.0
1217.486328 244.0
1218.104492 172.0
1218.27124 116.0
1218.507446 204.0
1220.80127 180.0
1221.976807 168.0
1222.74231 248.0
1223.31311 208.0
1224.434082 124.0
1224.608276 144.0
1225.130615 188.0
1226.489502 116.0
1226.587158 168.0
1227.884033 200.0
1228.714111 164.0
1229.279297 68.0
1230.151733 196.0
1230.43103 172.0
1230.731201 124.0
1231.366699 132.0
1232.260864 128.0
1232.812866 164.0
1232.882812 164.0
1233.791504 124.0
1233.984375 192.0
1234.406738 84.0
1234.931274 124.0
1235.337036 152.0
1236.101074 196.0
1236.680542 112.0
1239.692749 156.0
1240.371948 80.0
1240.575195 48.0
1240.680298 128.0
1240.953735 128.0
1241.437622 124.0
1241.886475 168.0
1243.45813 152.0
1244.160034 100.0
1244.756836 84.0
1245.178223 140.0
1245.754272 144.0
1247.272095 204.0
1247.862549 176.0
1251.204468 160.0
1251.394653 188.0
1251.697388 184.0
1251.784546 84.0
1251.972046 148.0
1252.281494 132.0
1252.528442 176.0
1253.063843 248.0
1253.155396 152.0
1253.352783 108.0
1253.780029 168.0
1254.283081 128.0
1254.889282 144.0
1255.29126 124.0
1255.474609 208.0
1255.545166 116.0
1255.82019 136.0
1256.411377 192.0
1256.595825 160.0
1257.562988 144.0
1258.297119 180.0
1259.603638 164.0
1260.23938 188.0
1261.080444 156.0
1261.165161 168.0
1261.702393 152.0
1263.3573 176.0
1263.75354 64.0
1264.404541 248.0
1265.19165 80.0
1266.21936 224.0
1266.394043 52.0
1266.549927 144.0
1266.727051 128.0
1267.095337 184.0
1267.251221 180.0
1267.413696 240.0
1268.080322 160.0
1268.583618 48.0
1268.838867 212.0
1269.143799 204.0
1269.406128 104.0
1270.533936 124.0
1270.675781 188.0
1271.016357 116.0
1271.889282 148.0
1272.20166 104.0
1274.204346 224.0
1275.447998 200.0
1276.528687 156.0
1277.332397 208.0
1278.712769 60.0
1278.855103 188.0
1279.232422 64.0
1279.744995 164.0
1281.646729 40.0
1281.832031 204.0
1283.614136 108.0
1284.206055 204.0
1284.641235 128.0
1285.254761 104.0
1286.183105 180.0
1286.532349 192.0
1287.332031 132.0
1287.560547 44.0
1288.953613 176.0
1289.861328 136.0
1291.956543 120.0
1292.722168 228.0
1292.922607 156.0
1293.359131 212.0
1293.795898 48.0
1294.848389 132.0
1295.485962 156.0
1297.693359 152.0
1298.317261 164.0
1299.651489 128.0
1300.133301 176.0
1300.498291 84.0
1301.146973 196.0
1301.302368 232.0
1301.682861 116.0
1302.695557 160.0
1303.536255 224.0
1303.773438 144.0
1304.887573 64.0
1305.620972 92.0
1305.858398 168.0
1306.1604 208.0
1306.390625 148.0
1306.469727 116.0
1308.902588 60.0
1309.204956 68.0
1309.658691 168.0
1310.34314 164.0
1310.710571 180.0
1310.768188 196.0
1311.092529 184.0
1311.481689 124.0
1311.561035 164.0
1311.849365 168.0
1313.442993 136.0
1313.760376 104.0
1314.597412 232.0
1314.878784 252.0
1315.564575 200.0
1315.795532 208.0
1317.591797 228.0
1317.745605 128.0
1317.832275 204.0
1320.311768 236.0
1320.463623 180.0
1323.155518 180.0
1323.293091 172.0
1323.386841 164.0
1323.589966 132.0
1324.256226 176.0
1325.400879 260.0
1328.663574 148.0
1329.548828 148.0
1329.868164 140.0
1329.92627 56.0
1330.071411 116.0
1330.594116 216.0
1331.331055 172.0
1331.52356 72.0
1332.671387 76.0
1334.125 136.0
1334.255859 208.0
1335.310181 144.0
1335.535645 148.0
1336.612427 128.0
1337.536743 88.0
1338.330322 152.0
1339.604736 364.0
1341.171509 220.0
1341.266235 56.0
1342.141113 80.0
1342.360107 140.0
1343.82605 172.0
1345.088501 116.0
1345.387817 172.0
1345.541138 164.0
1346.008423 152.0
1346.183716 48.0
1346.782593 56.0
1348.580078 168.0
1349.091797 172.0
1349.632812 204.0
1349.991089 200.0
1350.751709 240.0
1351.089722 156.0
1351.490723 40.0
1352.178589 88.0
1352.537231 148.0
1352.852051 108.0
1352.969116 200.0
1353.225342 152.0
1353.335205 164.0
1353.840454 184.0
1354.792725 208.0
1355.312866 76.0
1356.346191 140.0
1358.450806 68.0
1359.089111 100.0
1360.549683 60.0
1361.070923 168.0
1361.430786 180.0
1361.87146 248.0
1362.106567 116.0
1362.260742 60.0
1362.49585 240.0
1362.7677 184.0
1363.024902 148.0
1363.436401 172.0
1363.737915 164.0
1364.362549 240.0
1364.414062 168.0
1365.237549 200.0
1366.870728 192.0
1368.254517 160.0
1368.747803 152.0
1369.126465 180.0
1369.543213 80.0
1369.80835 136.0
1370.397705 164.0
1370.545044 168.0
1372.284546 160.0
1372.505737 192.0
1372.948242 204.0
1373.412964 192.0
1374.881104 236.0
1376.763672 84.0
1377.598389 196.0
1377.723999 36.0
1378.196777 228.0
1378.618042 264.0
1378.854492 148.0
1378.987549 136.0
1379.046631 148.0
1379.364502 52.0
1380.074219 84.0
1381.050415 156.0
1381.560791 156.0
1382.308105 144.0
1383.34436 48.0
1384.825317 152.0
1386.410767 100.0
1386.736938 164.0
1387.27124 168.0
1387.500366 140.0
1388.456909 112.0
1388.516235 124.0
1388.627563 212.0
1389.028076 136.0
1389.762573 172.0
1391.068726 144.0
1393.304077 160.0
1393.742432 184.0
1394.656616 212.0
1395.675049 128.0
1398.25647 208.0
1398.874268 176.0
1399.075317 116.0
1399.842163 164.0
1401.115845 132.0
1401.227661 80.0
1402.166504 184.0
1402.21875 164.0
1402.569092 168.0
1402.657959 124.0
1403.821533 164.0
1403.886108 160.0
1404.50415 176.0
1405.731323 180.0
1405.828369 64.0
1406.141724 196.0
1407.127197 120.0
1407.463135 160.0
1407.560181 180.0
1408.329468 132.0
1408.874756 108.0
1409.113892 184.0
1409.73291 168.0
1410.556152 168.0
1410.877686 176.0
1411.19165 144.0
1412.388184 124.0
1412.904419 160.0
1413.383179 120.0
1413.488037 208.0
1413.60022 232.0
1413.759155 136.0
1414.221436 68.0
1414.835205 152.0
1415.741211 32.0
1416.37915 192.0
1416.505249 180.0
1417.097046 200.0
1417.441772 176.0
1417.966309 220.0
1419.338257 96.0
1419.450684 64.0
1419.660645 168.0
1421.063354 180.0
1421.46106 160.0
1421.693726 204.0
1424.366699 164.0
1425.119507 152.0
1426.158325 248.0
1426.380493 200.0
1427.147339 152.0
1428.049805 148.0
1428.297974 72.0
1429.140625 124.0
1429.298584 180.0
1429.938232 180.0
1430.07373 180.0
1430.299561 176.0
1430.698608 40.0
1432.189575 196.0
1432.415527 148.0
1432.558716 144.0
1432.844971 88.0
1433.3573 144.0
1433.786865 120.0
1434.065674 96.0
1434.144409 164.0
1434.661255 128.0
1434.804443 80.0
1435.21167 176.0
1436.080811 128.0
1436.569214 128.0
1437.474609 256.0
1437.716064 44.0
1437.859497 28.0
1438.440674 132.0
1439.65625 180.0
1440.026367 184.0
1441.34082 212.0
1441.393799 164.0
1441.862305 168.0
1443.748779 152.0
1444.05481 128.0
1444.312012 144.0
1444.576782 192.0
1445.045898 124.0
1445.363647 48.0
1445.636108 180.0
1445.71936 196.0
1446.399292 176.0
1447.98291 128.0
1448.285889 220.0
1450.230713 220.0
1450.619873 144.0
1450.838501 152.0
1450.968506 144.0
1451.514526 208.0
1451.833008 196.0
1452.250122 36.0
1452.318359 72.0
1452.447388 160.0
1454.898438 172.0
1455.019897 224.0
1455.293213 200.0
1455.361572 172.0
1455.597046 188.0
1457.65564 152.0
1457.830322 148.0
1458.141968 240.0
1458.438354 136.0
1458.734863 200.0
1459.047241 192.0
1459.799316 208.0
1460.430542 204.0
1460.689209 144.0
1460.742432 88.0
1460.925049 136.0
1461.312988 168.0
1461.70874 228.0
1462.880737 192.0
1463.033081 176.0
1463.870605 180.0
1465.058838 244.0
1466.064575 116.0
1467.268921 104.0
1467.451904 176.0
1467.642578 204.0
1467.993286 120.0
1468.283081 144.0
1470.57959 80.0
1471.686523 132.0
1471.961426 176.0
1473.588379 160.0
1475.116943 148.0
1475.277466 112.0
1475.369141 148.0
1477.602417 124.0
1479.944458 48.0
1480.768188 188.0
1481.767334 144.0
1482.25769 208.0
1483.399658 200.0
1484.710815 52.0
1484.887207 104.0
1485.032959 152.0
1486.260498 180.0
1486.544312 248.0
1486.92041 192.0
1487.450073 160.0
1487.695679 40.0
1487.849243 44.0
1488.16394 148.0
1488.294556 168.0
1488.355957 68.0
1488.425049 144.0
1488.924194 196.0
1490.022705 108.0
1490.130249 128.0
1490.483643 224.0
1492.631714 176.0
1492.782104 176.0
1492.88208 184.0
1493.028198 176.0
1493.158936 212.0
1493.92041 152.0
1493.997437 172.0
1494.312866 168.0
1494.497437 156.0
1494.943848 184.0
1495.08313 160.0
1495.436401 92.0
1495.55957 112.0
1495.828979 120.0
1496.414062 204.0
1496.79126 220.0
1496.945312 56.0
1497.076294 164.0
1498.801758 216.0
1498.901978 116.0
1501.044922 156.0
1501.291748 48.0
1501.370483 152.0
1501.808472 124.0
1502.047607 180.0
1502.240356 176.0
1502.644165 188.0
1502.734131 140.0
1502.873047 28.0
1503.050537 144.0
1503.119995 172.0
1504.177368 224.0
1504.308594 140.0
1504.787231 184.0
