>compound MLS001048950-01!2-(1,3-benzodioxol-5-yl)-1-methylquinolin-4-one
>formula C17H13NO3
>ionization [M+H]+
>parentmass 280.097565
#inchi InChI=1S/C17H13NO3/c1-18-13-5-3-2-4-12(13)15(19)9-14(18)11-6-7-16-17(8-11)21-10-20-16/h2-9H,10H2,1H3
#inchikey COBBNRKBTCBWQP
#Ion_Source LC-ESI
#Instrument qTof
#Compound_Source NIH Natural Product Library
#PI Dorrestein
#Data_Collector VVP/LMS
#Scan -1
#Precursor_MZ 280.097
#ExactMass 279.09
#Charge 1
#CAS_Number N/A
#Pubmed_ID N/A
#Smiles Cn1c(cc(=O)c2ccccc12)c3ccc4OCOc4c3
#INCHI_AUX N/A
#Library_Class 1
#SpectrumID CCMSLIB00000079652
#IonMode Positive
#UpdateWorkflowName UPDATE-SINGLE-ANNOTATED-GOLD
#LibraryQualityString Gold
#TaskID b1d8e8f6646f4e71acdff9ca3d919d08
##Scan# 1860
#SpectrumFile p1-D09_GD9_01_17917.mzXML
#LibraryName NIH_Natural_Products_Library.mgf
#MQScore -1
#Organism NIH_Natural_Products_Library
#TIC_Query 0
#RT_Query -1
#MZErrorPPM -1
#SharedPeaks 0
#MassDiff 0
#LibMZ -1
#SpecMZ 280.097
#SpecCharge 0
#internalFilename spec-00000.mgf

>collision 10
94.96904 204.0
95.028641 116.0
95.073807 44.0
95.090187 148.0
95.118797 156.0
95.141739 88.0
95.174278 184.0
95.228058 176.0
95.262138 144.0
95.351517 196.0
95.370377 108.0
95.423439 164.0
95.557632 160.0
95.594604 164.0
95.627686 176.0
95.738655 180.0
95.767868 208.0
95.802933 116.0
95.823326 204.0
95.861382 152.0
96.001732 132.0
96.04464 136.0
96.064148 204.0
96.081703 152.0
96.118889 200.0
96.1539 116.0
96.183174 120.0
96.210503 156.0
96.255409 172.0
96.300323 204.0
96.325722 124.0
96.349159 220.0
96.362839 172.0
96.453415 140.0
96.505508 92.0
96.548531 140.0
96.577866 128.0
96.601341 96.0
96.630684 228.0
96.660034 152.0
96.696442 192.0
96.785301 164.0
96.841759 188.0
96.894524 172.0
96.964363 140.0
97.028252 180.0
97.041969 208.0
97.055695 136.0
97.105545 152.0
97.137573 112.0
97.216827 328.0
97.27346 140.0
97.289162 36.0
97.31469 208.0
97.367119 148.0
97.389313 116.0
97.444313 188.0
97.458061 36.0
97.471817 132.0
97.497368 152.0
97.609413 220.0
97.638908 148.0
97.660545 140.0
97.736267 220.0
97.845512 132.0
97.859299 164.0
97.923042 148.0
97.960648 164.0
97.989426 112.0
97.997704 160.0
98.044456 132.0
98.070076 180.0
98.11541 176.0
98.150902 68.0
98.169975 196.0
98.184425 160.0
98.21006 28.0
98.238258 136.0
98.253464 220.0
98.269241 148.0
98.314278 228.0
98.346207 128.0
98.444916 192.0
98.518692 124.0
98.549606 64.0
98.646439 176.0
98.674942 144.0
98.69191 112.0
98.79277 160.0
98.810577 136.0
98.865982 144.0
98.897644 92.0
98.921402 84.0
98.953072 144.0
99.022377 144.0
99.03624 72.0
99.061996 116.0
99.079819 176.0
99.121429 68.0
99.142143 240.0
99.179504 144.0
99.202545 172.0
99.323647 144.0
99.34745 36.0
99.43277 136.0
99.446663 156.0
99.476433 184.0
99.549896 92.0
99.565781 40.0
99.587631 128.0
99.632843 152.0
99.704842 160.0
99.724716 152.0
99.78833 176.0
99.855942 224.0
99.885773 100.0
99.91362 172.0
99.930473 204.0
99.979286 32.0
100.066864 192.0
100.114655 176.0
100.13855 204.0
100.20649 192.0
100.285988 140.0
100.307915 92.0
100.377693 124.0
100.403618 216.0
100.431534 168.0
100.509338 144.0
100.541267 192.0
100.621109 160.0
100.639076 188.0
100.688995 144.0
100.714958 128.0
100.734131 196.0
100.762901 132.0
100.792877 232.0
100.846832 88.0
100.901627 252.0
100.98085 128.0
101.002785 68.0
101.036797 136.0
101.091843 224.0
101.126839 208.0
101.190315 220.0
101.218925 192.0
101.276917 288.0
101.41124 168.0
101.471382 136.0
101.561615 216.0
101.617783 196.0
101.657913 200.0
101.684059 140.0
101.735909 172.0
101.772331 128.0
101.79351 132.0
101.824539 108.0
101.866722 64.0
101.959145 132.0
101.99733 108.0
102.011398 92.0
102.04847 128.0
102.082603 164.0
102.103889 116.0
102.158195 52.0
102.186363 140.0
102.221939 164.0
102.293884 168.0
102.359459 124.0
102.377579 144.0
102.391678 52.0
102.417862 112.0
102.470238 200.0
102.500458 228.0
102.514565 160.0
102.599213 136.0
102.613327 60.0
102.64962 188.0
102.712143 48.0
102.764084 128.0
102.84935 156.0
102.883659 192.0
102.918648 268.0
102.948273 192.0
103.007645 312.0
103.052856 1672.0
103.083618 112.0
103.097763 172.0
103.135765 184.0
103.167831 156.0
103.205063 236.0
103.2332 140.0
103.295898 196.0
103.316132 212.0
103.370758 160.0
103.403137 180.0
103.44841 120.0
103.619797 92.0
103.708961 224.0
103.733284 84.0
103.757614 60.0
103.801971 200.0
103.818085 92.0
103.834663 172.0
103.882233 164.0
103.904076 108.0
103.948265 96.0
103.962471 136.0
104.007668 192.0
104.050087 404.0
104.076141 124.0
104.118782 152.0
104.133003 92.0
104.255775 176.0
104.279282 156.0
104.299606 136.0
104.317902 116.0
104.360596 176.0
104.500931 132.0
104.533485 128.0
104.549767 172.0
104.59861 196.0
104.619911 196.0
104.668205 176.0
104.722816 164.0
104.737076 228.0
104.771706 220.0
104.806335 132.0
104.894875 252.0
104.936783 160.0
104.961487 68.0
104.994957 424.0
105.033112 2676.0
105.070839 120.0
105.098747 68.0
105.156143 220.0
105.187134 144.0
105.204033 132.0
105.227554 156.0
105.260239 184.0
105.270988 116.0
105.276054 160.0
105.295433 152.0
105.331833 300.0
105.353104 164.0
105.406227 180.0
105.432793 92.0
105.479797 100.0
105.496155 92.0
105.565666 56.0
105.600433 144.0
105.615685 148.0
105.639297 280.0
105.793076 136.0
105.936119 140.0
106.001678 136.0
106.039261 208.0
106.065392 3184.0
106.113365 228.0
106.132866 136.0
106.149269 160.0
106.237457 168.0
106.303703 176.0
106.331848 212.0
106.395477 220.0
106.42627 172.0
106.451721 216.0
106.471443 108.0
106.493423 200.0
106.520737 48.0
106.64608 152.0
106.709801 192.0
106.827026 164.0
106.881966 204.0
106.887772 144.0
106.89386 280.0
106.911385 248.0
106.954597 148.0
106.993713 144.0
107.050186 320.0
107.069115 284.0
107.132225 240.0
107.181137 132.0
107.199677 96.0
107.228531 128.0
107.242958 172.0
107.294487 52.0
107.335724 128.0
107.409973 200.0
107.511063 140.0
107.525513 136.0
107.590065 116.0
107.735062 152.0
107.756783 116.0
107.77951 144.0
107.860107 32.0
107.882843 160.0
107.975891 172.0
108.020241 144.0
108.047775 180.0
108.19635 44.0
108.226273 108.0
108.246979 132.0
108.285194 168.0
108.358826 248.0
108.427208 208.0
108.481094 180.0
108.497681 220.0
108.599281 100.0
108.626251 100.0
108.682266 220.0
108.71463 240.0
108.745743 156.0
108.77182 208.0
108.844162 140.0
108.871155 160.0
108.891922 108.0
108.979172 204.0
109.014496 240.0
109.044563 136.0
109.066452 140.0
109.081001 152.0
109.132973 176.0
109.170403 128.0
109.207909 120.0
109.228638 232.0
109.24736 128.0
109.295212 52.0
109.324341 148.0
109.396255 196.0
109.455482 176.0
109.47422 168.0
109.499214 160.0
109.540871 64.0
109.565201 224.0
109.5867 168.0
109.601509 148.0
109.676308 112.0
109.824348 128.0
109.876495 212.0
109.911964 232.0
109.978745 88.0
110.070602 180.0
110.12281 152.0
110.183388 140.0
110.252335 104.0
110.306679 120.0
110.335945 144.0
110.352669 176.0
110.430046 204.0
110.482338 92.0
110.607887 96.0
110.632149 88.0
110.67907 60.0
110.71257 164.0
110.733513 156.0
110.821495 128.0
110.895378 216.0
110.924179 128.0
110.947243 168.0
110.987495 80.0
111.010139 40.0
111.081451 52.0
111.165375 200.0
111.21154 184.0
111.230431 120.0
111.268959 220.0
111.331207 180.0
111.357697 256.0
111.377411 176.0
111.410408 136.0
111.551819 80.0
111.612785 152.0
111.640244 136.0
111.656494 336.0
111.682182 208.0
111.704018 220.0
111.752174 192.0
111.84742 140.0
111.894722 180.0
111.922089 212.0
112.025284 128.0
112.09481 180.0
112.140602 164.0
112.156708 184.0
112.172791 164.0
112.20652 140.0
112.229713 136.0
112.246582 196.0
112.324615 168.0
112.341484 168.0
112.386406 164.0
112.424812 340.0
112.461807 180.0
112.566605 236.0
112.67292 124.0
112.687714 76.0
112.751106 104.0
112.85257 60.0
112.892738 172.0
112.911774 188.0
112.951492 144.0
112.987923 144.0
113.008621 148.0
113.03447 128.0
113.114891 104.0
113.138176 148.0
113.180519 68.0
113.208046 136.0
113.250618 160.0
113.301239 136.0
113.330902 156.0
113.370056 184.0
113.388115 88.0
113.406441 204.0
113.47892 124.0
113.653183 132.0
113.744438 188.0
113.761421 100.0
113.803391 192.0
113.831482 152.0
113.850594 184.0
113.910065 132.0
113.938744 184.0
113.986191 136.0
114.002655 200.0
114.026924 200.0
114.047058 76.0
114.068726 132.0
114.096054 180.0
114.154472 204.0
114.170776 192.0
114.211449 188.0
114.27549 212.0
114.4758 76.0
114.522652 136.0
114.543945 168.0
114.6036 120.0
114.644081 132.0
114.718681 104.0
114.759186 356.0
114.792198 120.0
114.861549 212.0
114.879395 244.0
114.92128 100.0
114.972496 188.0
114.987434 168.0
115.029663 368.0
115.058167 176.0
115.14328 64.0
115.196678 124.0
115.215904 56.0
115.243683 212.0
115.288551 48.0
115.328087 168.0
115.348396 116.0
115.393288 244.0
115.463852 112.0
115.49807 208.0
115.568855 184.0
115.626442 192.0
115.683762 128.0
115.79129 52.0
115.806282 160.0
115.868401 116.0
115.92569 156.0
115.954117 112.0
115.986389 136.0
116.022102 132.0
116.05014 6268.0
116.078957 152.0
116.105858 152.0
116.15995 212.0
116.183548 140.0
116.286537 244.0
116.323029 224.0
116.342575 152.0
116.490524 208.0
116.56572 132.0
116.595802 124.0
116.619446 208.0
116.649536 40.0
116.724785 128.0
116.744133 164.0
116.905472 216.0
116.92054 96.0
116.98941 144.0
117.033569 1044.0
117.054375 1056.0
117.069794 184.0
117.092766 156.0
117.126335 164.0
117.15448 288.0
117.226334 124.0
117.24585 140.0
117.267059 160.0
117.299606 236.0
117.388 128.0
117.419678 64.0
117.504471 168.0
117.569206 148.0
117.614342 228.0
117.655487 160.0
117.776466 128.0
117.800224 128.0
117.827888 164.0
117.925552 68.0
118.033638 144.0
118.064384 704.0
118.088135 140.0
118.109329 188.0
118.165352 156.0
118.182816 132.0
118.230492 52.0
118.319229 200.0
118.353874 56.0
118.414505 200.0
118.443359 272.0
118.572205 208.0
118.616013 108.0
118.633354 168.0
118.668938 212.0
118.725014 144.0
118.780807 144.0
118.822762 256.0
118.874092 152.0
118.893623 200.0
118.939201 140.0
118.956566 104.0
118.983498 148.0
119.014946 388.0
119.048889 792.0
119.115196 168.0
119.175911 188.0
119.460709 52.0
119.521622 144.0
119.564911 168.0
119.613029 40.0
119.669632 136.0
119.85041 36.0
119.90728 160.0
119.937576 232.0
120.047218 636.0
120.090202 104.0
120.120064 116.0
120.151276 128.0
120.181541 176.0
120.240738 80.0
120.298286 164.0
120.314957 184.0
120.372368 108.0
120.430687 76.0
120.448158 116.0
120.473434 168.0
120.557396 184.0
120.596733 128.0
120.625153 172.0
120.716972 164.0
120.759483 220.0
120.766045 192.0
120.800087 188.0
120.815399 124.0
120.898544 60.0
120.942314 212.0
120.962013 100.0
120.99485 140.0
121.028625 1636.0
121.060127 188.0
121.079987 168.0
121.110909 76.0
121.194153 192.0
121.248932 60.0
121.268661 68.0
121.290573 164.0
121.316879 120.0
121.351959 168.0
121.369499 160.0
121.387039 120.0
121.406776 104.0
121.424316 60.0
121.558136 76.0
121.591057 168.0
121.632759 200.0
121.655006 176.0
121.727158 216.0
121.757904 268.0
121.802689 276.0
121.820427 184.0
121.887512 120.0
121.991432 112.0
122.036308 784.0
122.081734 156.0
122.171127 180.0
122.208527 212.0
122.25769 152.0
122.329567 224.0
122.351578 184.0
122.377998 256.0
122.483704 92.0
122.516747 172.0
122.576233 184.0
122.759193 240.0
122.849617 156.0
122.990845 148.0
123.03981 196.0
123.110062 164.0
123.143188 140.0
123.322998 104.0
123.355301 248.0
123.423836 144.0
123.450371 160.0
123.474701 168.0
123.490181 184.0
123.557411 220.0
123.596367 84.0
123.647263 132.0
123.678246 212.0
123.709236 168.0
123.811081 156.0
123.833115 156.0
123.884178 136.0
123.901398 180.0
123.986099 52.0
124.004997 144.0
124.048157 176.0
124.068184 116.0
124.088058 124.0
124.134842 164.0
124.156799 36.0
124.172325 188.0
124.212242 128.0
124.232208 124.0
124.31208 168.0
124.329834 176.0
124.345367 64.0
124.374222 88.0
124.474495 168.0
124.549187 180.0
124.589828 208.0
124.611832 72.0
124.656273 36.0
124.719879 204.0
124.758507 184.0
124.805199 164.0
124.836327 132.0
124.887482 132.0
125.049896 116.0
125.087738 180.0
125.116676 160.0
125.138939 252.0
125.296272 192.0
125.321571 164.0
125.361679 92.0
125.428535 80.0
125.468666 192.0
125.495415 160.0
125.5467 172.0
125.630875 184.0
125.68277 80.0
125.774269 184.0
125.841751 176.0
125.932793 104.0
125.966301 164.0
126.042595 132.0
126.093117 232.0
126.180984 292.0
126.304146 196.0
126.467155 164.0
126.48954 160.0
126.639931 168.0
126.658905 120.0
126.751694 144.0
126.771736 132.0
126.841217 104.0
126.872597 148.0
126.917435 164.0
126.937614 96.0
126.958618 176.0
127.000412 156.0
127.052383 476.0
127.069954 172.0
127.132774 220.0
127.182747 156.0
127.28933 232.0
127.386543 148.0
127.422432 104.0
127.460625 168.0
127.510933 144.0
127.537033 168.0
127.564003 64.0
127.581993 148.0
127.650864 196.0
127.734901 32.0
127.75515 80.0
127.822647 156.0
127.911133 176.0
127.92617 204.0
127.995964 52.0
128.047241 216.0
128.06012 536.0
128.122086 112.0
128.202866 184.0
128.22377 196.0
128.266312 40.0
128.372269 160.0
128.400757 108.0
128.43132 108.0
128.45517 136.0
128.521149 172.0
128.573044 68.0
128.606903 132.0
128.717514 172.0
128.80838 172.0
128.893707 48.0
128.917435 132.0
128.947937 132.0
129.029221 200.0
129.069519 216.0
129.092041 172.0
129.144638 144.0
129.196671 120.0
129.219284 112.0
129.309677 140.0
129.346008 216.0
129.409225 108.0
129.45015 124.0
129.502243 136.0
129.52037 96.0
129.638168 180.0
129.681229 136.0
129.751495 208.0
129.818085 236.0
129.860352 152.0
129.953354 200.0
129.989655 168.0
130.030426 172.0
130.065857 4028.0
130.141739 116.0
130.16861 172.0
130.193954 92.0
130.282547 128.0
130.366608 156.0
130.420181 140.0
130.434784 176.0
130.558624 180.0
130.625793 48.0
130.685913 140.0
130.69751 216.0
130.723618 172.0
130.840302 252.0
130.914841 212.0
131.005249 420.0
131.049988 484.0
131.072235 892.0
131.113037 64.0
131.140381 128.0
131.162842 56.0
131.187622 176.0
131.204208 164.0
131.327347 104.0
131.343307 120.0
131.402618 96.0
131.477921 128.0
131.509872 112.0
131.533829 88.0
131.550949 132.0
131.609848 292.0
131.639999 256.0
131.669678 96.0
131.696274 124.0
131.705215 180.0
131.731232 160.0
131.764572 228.0
131.818176 152.0
131.888168 200.0
132.045517 324.0
132.084595 52.0
132.093903 132.0
132.112045 104.0
132.127396 104.0
132.151138 288.0
132.183151 76.0
132.213776 144.0
132.305344 216.0
132.385468 208.0
132.403793 176.0
132.504578 224.0
132.536652 40.0
132.582489 148.0
132.600815 144.0
132.677505 244.0
132.726898 220.0
132.791183 132.0
132.827805 140.0
132.887451 128.0
132.912689 108.0
132.959763 176.0
133.022995 124.0
133.062546 316.0
133.084839 144.0
133.100906 172.0
133.16571 164.0
133.210999 308.0
133.250198 156.0
133.30304 116.0
133.371994 148.0
133.399582 52.0
133.431641 156.0
133.457565 208.0
133.480042 184.0
133.49614 204.0
133.537537 36.0
133.554016 120.0
133.637299 184.0
133.763016 148.0
133.79985 188.0
133.951843 236.0
133.990997 136.0
134.029831 160.0
134.059967 3316.0
134.107635 52.0
134.170685 112.0
134.253769 176.0
134.333389 192.0
134.389862 184.0
134.417542 56.0
134.436005 172.0
134.468307 48.0
134.50293 232.0
134.53064 80.0
134.55603 180.0
134.620682 124.0
134.653015 76.0
134.671494 196.0
134.696442 144.0
134.709167 168.0
134.872086 160.0
134.907181 128.0
134.969604 164.0
135.043671 1072.0
135.06073 892.0
135.08754 136.0
135.115265 200.0
135.145386 60.0
135.170837 136.0
135.203232 180.0
135.265717 120.0
135.291183 200.0
135.39769 140.0
135.446335 108.0
135.475037 164.0
135.496262 144.0
135.524689 160.0
135.5784 152.0
135.632843 240.0
135.796326 116.0
135.842712 120.0
135.870544 180.0
135.998642 196.0
136.045105 264.0
136.088196 144.0
136.106262 160.0
136.149078 48.0
136.184174 292.0
136.221085 180.0
136.265915 188.0
136.47905 136.0
136.495514 236.0
136.553452 164.0
136.573303 176.0
136.613937 124.0
136.637192 188.0
136.658142 104.0
136.700012 160.0
136.776825 132.0
136.797775 56.0
136.816391 68.0
136.888565 208.0
137.016678 204.0
137.036606 172.0
137.051682 172.0
137.125412 216.0
137.144836 200.0
137.163483 204.0
137.235748 112.0
137.289383 92.0
137.343018 160.0
137.41301 104.0
137.478333 188.0
137.503143 152.0
137.571701 136.0
137.595047 212.0
137.651077 228.0
137.676758 120.0
137.707123 136.0
137.806488 184.0
137.822754 48.0
137.879578 176.0
137.922638 200.0
137.954956 200.0
137.987793 176.0
138.036636 120.0
138.209732 208.0
138.292572 160.0
138.345474 92.0
138.389954 128.0
138.427414 152.0
138.579666 88.0
138.598404 128.0
138.617157 168.0
138.661682 88.0
138.720276 128.0
138.743713 164.0
138.785461 188.0
138.842194 88.0
138.876022 132.0
138.910217 160.0
138.940704 208.0
138.959473 164.0
138.974731 140.0
138.992325 156.0
139.053497 304.0
139.095581 172.0
139.12645 220.0
139.163666 108.0
139.210632 208.0
139.23822 260.0
139.266983 156.0
139.308746 212.0
139.322479 156.0
139.444565 132.0
139.492554 220.0
139.513718 152.0
139.539871 188.0
139.593658 180.0
139.635986 132.0
139.706543 172.0
139.748901 176.0
139.834595 172.0
139.898773 140.0
139.946594 80.0
139.970139 168.0
140.048325 492.0
140.15947 132.0
140.178162 132.0
140.274063 204.0
140.321213 76.0
140.349503 152.0
140.371628 200.0
140.436111 148.0
140.467422 120.0
140.521683 168.0
140.559296 216.0
140.698685 176.0
140.719254 196.0
140.750626 148.0
140.786041 192.0
140.837997 52.0
140.855316 144.0
140.915955 160.0
140.96611 372.0
140.983597 224.0
141.031738 124.0
141.051758 132.0
141.072571 192.0
141.133163 160.0
141.227997 120.0
141.246918 100.0
141.29422 36.0
141.329971 180.0
141.37207 164.0
141.521423 132.0
141.637466 192.0
141.741714 164.0
141.767776 280.0
141.783997 208.0
141.895767 184.0
141.921844 160.0
141.943192 128.0
141.995361 84.0
142.019073 96.0
142.040421 128.0
142.059799 120.0
142.08786 204.0
142.138748 144.0
142.244492 116.0
142.275345 160.0
142.301468 112.0
142.32283 64.0
142.339447 148.0
142.394073 120.0
142.422577 188.0
142.45108 156.0
142.553238 124.0
142.581757 132.0
142.612656 144.0
142.663864 220.0
142.688721 164.0
142.795715 152.0
142.850433 132.0
142.876602 84.0
142.905151 176.0
142.926559 112.0
142.952728 144.0
142.986893 144.0
143.023819 252.0
143.132446 248.0
143.157455 248.0
143.200317 176.0
143.228897 172.0
143.252716 152.0
143.30275 192.0
143.374237 164.0
143.44574 176.0
143.536331 52.0
143.572098 108.0
143.626953 116.0
143.695145 260.0
143.729538 236.0
143.772491 204.0
143.815445 72.0
143.927643 56.0
144.044449 5736.0
144.083633 176.0
144.099609 156.0
144.130676 120.0
144.159348 236.0
144.214661 140.0
144.266907 108.0
144.38884 124.0
144.41037 172.0
144.523468 204.0
144.561081 180.0
144.673584 176.0
144.699921 180.0
144.73822 148.0
144.826828 120.0
144.896637 56.0
144.925049 72.0
144.944214 156.0
144.972977 120.0
144.992142 224.0
145.026718 560.0
145.048569 756.0
145.210312 172.0
145.303864 132.0
145.35025 204.0
145.375839 152.0
145.432434 212.0
145.503052 212.0
145.647903 188.0
145.677383 128.0
145.739487 172.0
145.765594 236.0
145.812912 112.0
145.851364 188.0
145.880219 220.0
146.035629 404.0
146.060837 728.0
146.099045 156.0
146.142349 56.0
146.207321 132.0
146.276138 196.0
146.402313 232.0
146.436035 268.0
146.551651 180.0
146.568527 172.0
146.664917 184.0
146.690521 200.0
146.949722 192.0
147.043915 2112.0
147.075928 368.0
147.122391 316.0
147.171524 248.0
147.222351 168.0
147.253632 180.0
147.299515 112.0
147.343002 216.0
147.367157 56.0
147.399124 140.0
147.519409 176.0
147.541168 156.0
147.599197 180.0
147.676575 148.0
147.70076 160.0
147.758041 200.0
147.780594 136.0
147.797531 124.0
147.844818 168.0
147.879807 68.0
147.923386 112.0
147.982452 84.0
148.045731 148.0
148.085602 112.0
148.111252 144.0
148.136475 92.0
148.361832 164.0
148.432144 232.0
148.497482 180.0
148.540375 172.0
148.565536 52.0
148.616486 128.0
148.652603 176.0
148.718414 76.0
148.881165 112.0
148.919922 140.0
148.95636 116.0
148.973373 240.0
149.023178 2952.0
149.102142 132.0
149.141022 116.0
149.16925 196.0
149.296631 132.0
149.357422 156.0
149.432846 192.0
149.454468 180.0
149.483444 196.0
149.57399 244.0
149.613602 176.0
149.654327 168.0
149.698151 176.0
149.741989 188.0
149.766342 176.0
149.790695 116.0
149.815063 172.0
149.839417 184.0
149.871094 164.0
149.891678 176.0
149.941757 144.0
149.980392 136.0
150.00441 200.0
150.027344 292.0
150.077011 132.0
150.161179 68.0
150.20752 180.0
150.241669 196.0
150.297836 168.0
150.319748 128.0
150.361237 124.0
150.383194 404.0
150.429047 92.0
150.463745 128.0
150.517456 336.0
150.61026 100.0
150.659119 152.0
150.690369 212.0
150.713455 164.0
150.744629 144.0
150.776718 424.0
150.810623 104.0
150.854614 92.0
150.891281 152.0
150.930405 56.0
150.954849 124.0
150.98909 244.0
151.056473 296.0
151.110565 164.0
151.162781 192.0
151.179901 64.0
151.21907 192.0
151.27536 176.0
151.296005 156.0
151.339005 152.0
151.397781 100.0
151.422272 40.0
151.447952 184.0
151.474747 140.0
151.503098 172.0
151.579056 124.0
151.601105 196.0
151.679535 116.0
151.784958 176.0
151.816833 116.0
151.858521 160.0
151.892853 172.0
151.923798 280.0
151.965866 152.0
152.062607 2700.0
152.094055 52.0
152.176086 232.0
152.224182 124.0
152.26593 120.0
152.339615 116.0
152.412201 184.0
152.447723 124.0
152.467377 116.0
152.499329 136.0
152.526367 56.0
152.550949 168.0
152.577988 88.0
152.636993 136.0
152.691895 220.0
152.713226 160.0
152.774719 208.0
152.850998 140.0
152.919891 152.0
152.944504 140.0
153.024902 224.0
153.068756 1280.0
153.181671 268.0
153.1987 156.0
153.32872 148.0
153.345978 196.0
153.367645 164.0
153.429779 128.0
153.515045 220.0
153.585129 108.0
153.624603 148.0
153.676407 168.0
153.698624 52.0
153.733856 256.0
153.834579 156.0
153.918289 172.0
154.005188 152.0
154.023788 224.0
154.065567 5112.0
154.110947 76.0
154.130722 148.0
154.207321 96.0
154.251053 180.0
154.335876 20.0
154.439743 168.0
154.538681 68.0
154.576416 120.0
154.615402 132.0
154.635193 304.0
154.768875 152.0
154.808487 40.0
154.833252 84.0
154.872879 240.0
154.895966 100.0
154.932327 144.0
154.964539 248.0
154.99675 152.0
155.041351 152.0
155.072876 1880.0
155.175201 160.0
155.229752 104.0
155.310242 96.0
155.358505 172.0
155.398407 204.0
155.435638 80.0
155.482025 144.0
155.496735 264.0
155.524979 112.0
155.557236 220.0
155.594482 76.0
155.611862 156.0
155.711182 180.0
155.738495 128.0
155.763336 116.0
155.812302 220.0
155.89502 208.0
155.919861 128.0
156.000259 152.0
156.043671 144.0
156.082581 1084.0
156.13118 148.0
156.156052 188.0
156.185898 136.0
156.225449 204.0
156.30925 172.0
156.332687 212.0
156.387436 192.0
156.449661 188.0
156.514389 116.0
156.549255 132.0
156.601547 48.0
156.653854 184.0
156.674118 132.0
156.693726 120.0
156.741058 280.0
156.865677 236.0
156.982849 148.0
157.051392 156.0
157.081558 412.0
157.127518 176.0
157.174927 128.0
157.192383 100.0
157.289719 76.0
157.315445 196.0
157.454773 152.0
157.494003 236.0
157.591888 52.0
157.779327 160.0
157.904358 60.0
157.924362 124.0
157.964386 124.0
158.021927 176.0
158.059601 1972.0
158.125397 284.0
158.143143 180.0
158.214081 184.0
158.269714 160.0
158.377396 88.0
158.422485 40.0
158.450043 160.0
158.505157 160.0
158.535233 128.0
158.655533 112.0
158.698151 148.0
158.749268 280.0
158.77121 236.0
158.800964 152.0
158.853638 156.0
158.938934 80.0
158.972809 172.0
158.999161 192.0
159.06752 1984.0
159.161469 128.0
159.183716 132.0
159.218109 228.0
159.251968 244.0
159.315536 128.0
159.33815 116.0
159.413528 148.0
159.513779 72.0
159.539185 156.0
159.576614 108.0
159.609589 64.0
159.637253 164.0
159.669937 140.0
159.702637 164.0
159.731567 48.0
159.79068 308.0
159.833771 124.0
159.871201 124.0
159.944183 128.0
159.971863 152.0
159.989487 108.0
160.031433 160.0
160.073059 244.0
160.119781 156.0
160.140579 32.0
160.182022 140.0
160.332047 64.0
160.357239 152.0
160.387131 168.0
160.451996 160.0
160.505981 140.0
160.651627 144.0
160.71785 60.0
160.753174 136.0
160.808701 128.0
160.837021 180.0
160.898499 132.0
160.955109 172.0
160.996017 180.0
161.015717 124.0
161.053131 212.0
161.083923 192.0
161.178268 176.0
161.191116 84.0
161.212769 172.0
161.272995 212.0
161.293213 116.0
161.344208 112.0
161.384659 132.0
161.409943 52.0
161.506042 172.0
161.541443 136.0
161.642654 168.0
161.66951 136.0
161.723633 168.0
161.741348 48.0
161.91539 168.0
161.933777 160.0
162.054077 4760.0
162.128845 36.0
162.149124 44.0
162.215973 248.0
162.24437 216.0
162.316315 172.0
162.325089 164.0
162.377289 216.0
162.416 232.0
162.514969 204.0
162.572632 212.0
162.712234 120.0
162.806427 124.0
162.840042 108.0
162.869675 188.0
162.895081 136.0
162.917938 100.0
162.952209 164.0
162.986542 132.0
163.009399 144.0
163.029739 176.0
163.056931 528.0
163.235641 80.0
163.266159 80.0
163.29921 192.0
163.329742 164.0
163.45694 204.0
163.489471 184.0
163.523529 168.0
163.558731 136.0
163.612198 160.0
163.659637 196.0
163.747147 200.0
163.782806 128.0
163.823074 188.0
163.864319 68.0
163.90509 124.0
164.007935 156.0
164.062836 452.0
164.087112 144.0
164.110062 204.0
164.193146 60.0
164.218643 360.0
164.285843 184.0
164.31813 128.0
164.494217 116.0
164.529953 108.0
164.558029 160.0
164.606552 100.0
164.670395 204.0
164.709381 164.0
164.764664 176.0
164.813446 188.0
164.846664 76.0
165.018494 124.0
165.068161 1988.0
165.104858 144.0
165.232742 56.0
165.252533 196.0
165.286469 160.0
165.327423 76.0
165.368362 176.0
165.486115 152.0
165.519409 192.0
165.562943 92.0
165.580856 92.0
165.647385 152.0
165.657288 148.0
165.734558 136.0
165.801178 132.0
165.852448 216.0
165.924225 144.0
165.947296 172.0
165.969055 188.0
166.073273 1004.0
166.152466 168.0
166.196075 120.0
166.251755 288.0
166.259003 200.0
166.30899 156.0
166.370605 180.0
166.421951 152.0
166.493851 156.0
166.542206 144.0
166.576035 192.0
166.632553 168.0
166.676224 132.0
166.696777 112.0
166.753326 64.0
166.81456 68.0
166.881851 120.0
166.922989 116.0
167.000137 60.0
167.025864 128.0
167.075546 2408.0
167.14093 192.0
167.148468 140.0
167.178864 188.0
167.202438 68.0
167.253525 92.0
167.342392 236.0
167.381012 168.0
167.40419 156.0
167.424789 160.0
167.449341 184.0
167.478867 204.0
167.577698 144.0
167.643753 192.0
167.718491 168.0
167.786407 184.0
167.817413 216.0
167.844818 136.0
167.865448 280.0
167.924759 116.0
168.053741 204.0
168.079178 436.0
168.131149 240.0
168.208572 168.0
168.296356 156.0
168.429794 196.0
168.454651 136.0
168.639923 180.0
168.686447 196.0
168.725052 176.0
168.756256 88.0
168.818314 48.0
168.844955 160.0
168.875198 272.0
168.901062 92.0
168.930374 208.0
169.014893 112.0
169.040771 168.0
169.059677 328.0
169.082901 260.0
169.126175 168.0
169.170181 236.0
169.204056 96.0
169.248444 156.0
169.281509 168.0
169.31517 148.0
169.338486 220.0
169.641647 192.0
169.701263 116.0
169.742569 212.0
169.786362 132.0
169.797119 108.0
169.80574 176.0
169.830933 68.0
169.880219 112.0
169.953537 152.0
169.970245 136.0
169.991776 36.0
170.056961 504.0
170.090683 180.0
170.132385 180.0
170.194244 176.0
170.243576 144.0
170.334473 180.0
170.360458 196.0
170.404617 168.0
170.564438 224.0
170.65152 272.0
170.703522 168.0
170.734726 108.0
170.833572 124.0
170.872162 168.0
170.906952 136.0
170.932663 176.0
170.95845 100.0
171.007904 124.0
171.03653 260.0
171.063797 164.0
171.084335 176.0
171.122437 184.0
171.19014 168.0
171.229202 164.0
171.257843 212.0
171.310608 204.0
171.375076 164.0
171.393311 112.0
171.468887 196.0
171.541855 204.0
171.579773 220.0
171.682648 176.0
171.703522 144.0
171.755768 120.0
171.844376 116.0
171.876083 104.0
171.951447 124.0
171.969635 184.0
172.006744 276.0
172.037598 296.0
172.077835 356.0
172.10672 132.0
172.173264 208.0
172.207214 152.0
172.252808 132.0
172.280365 112.0
172.311707 136.0
172.3927 188.0
172.444977 160.0
172.463272 56.0
172.523392 192.0
172.604431 168.0
172.768051 244.0
172.844925 192.0
172.861786 208.0
172.897415 244.0
172.920975 188.0
172.981384 200.0
173.023758 452.0
173.056885 352.0
173.083282 136.0
173.122559 208.0
173.203735 136.0
173.241837 148.0
173.263992 180.0
173.290192 116.0
173.313766 112.0
173.371414 172.0
173.395004 196.0
173.519867 264.0
173.562775 180.0
173.599487 88.0
173.683014 184.0
173.735413 204.0
173.843445 144.0
173.885437 136.0
173.916931 204.0
173.97731 104.0
174.025528 284.0
174.053436 144.0
174.237289 140.0
174.323471 220.0
174.356903 208.0
174.381805 128.0
174.419037 196.0
174.458603 168.0
174.51062 128.0
174.578979 104.0
174.605286 212.0
174.725601 172.0
174.976288 156.0
175.007889 132.0
175.037109 528.0
175.068451 224.0
175.131653 128.0
175.387238 72.0
175.437881 116.0
175.555969 164.0
175.577057 140.0
175.706314 96.0
175.735336 200.0
175.772263 112.0
175.822189 196.0
175.831375 180.0
175.918091 144.0
175.926788 168.0
175.96759 120.0
176.009827 144.0
176.066864 1168.0
176.194962 124.0
176.266953 164.0
176.304214 184.0
176.324188 152.0
176.395538 272.0
176.437836 104.0
176.472214 176.0
176.490723 136.0
176.634033 148.0
176.673203 160.0
176.697021 92.0
176.718185 204.0
176.744644 220.0
176.779037 148.0
176.821381 36.0
176.856079 108.0
176.927261 56.0
176.990219 184.0
177.043457 312.0
177.070282 612.0
177.157654 168.0
177.253021 44.0
177.290131 144.0
177.316635 196.0
177.356384 128.0
177.394089 180.0
177.457123 212.0
177.548813 144.0
177.574936 232.0
177.608276 92.0
177.629486 184.0
177.681641 152.0
177.764801 64.0
177.807266 172.0
177.841766 76.0
177.905319 172.0
177.98175 284.0
178.007812 160.0
178.065964 5448.0
178.12587 200.0
178.14978 120.0
178.171036 188.0
178.210876 172.0
178.27832 136.0
178.311859 156.0
178.348633 228.0
178.380966 76.0
178.432785 136.0
178.464371 204.0
178.54422 220.0
178.591019 176.0
178.625275 128.0
178.68959 224.0
178.772781 140.0
178.870407 180.0
178.966248 76.0
179.073059 5456.0
179.18248 164.0
179.211273 128.0
179.249191 228.0
179.30188 168.0
179.335159 164.0
179.375824 172.0
179.395172 152.0
179.424484 168.0
179.445816 88.0
179.48848 108.0
179.539139 100.0
179.600281 160.0
179.637833 204.0
179.659164 156.0
179.781906 112.0
179.82193 144.0
179.840622 132.0
179.901779 268.0
179.966156 160.0
179.996643 160.0
180.079071 5168.0
180.120209 168.0
180.158691 236.0
180.179749 132.0
180.217148 152.0
180.243866 172.0
180.310989 172.0
180.412247 160.0
180.442657 184.0
180.564972 164.0
180.668976 188.0
180.722473 288.0
180.751907 20.0
180.777252 128.0
180.797394 164.0
180.81517 144.0
180.835999 160.0
180.866989 152.0
180.891678 144.0
180.914078 88.0
180.933762 144.0
180.946152 172.0
181.024948 148.0
181.065216 944.0
181.087997 1772.0
181.129395 144.0
181.197769 328.0
181.264526 164.0
181.300858 152.0
181.327667 56.0
181.354462 164.0
181.391983 180.0
181.493866 136.0
181.65477 132.0
181.673553 360.0
181.695007 64.0
181.740616 192.0
181.812637 184.0
181.842087 252.0
181.861374 184.0
181.904327 180.0
181.96875 88.0
182.006348 84.0
182.060791 2144.0
182.087173 432.0
182.173813 260.0
182.317413 180.0
182.363632 88.0
182.421906 124.0
182.449646 60.0
182.519547 124.0
182.55545 136.0
182.601883 128.0
182.673294 72.0
182.716217 100.0
182.743744 188.0
182.801987 156.0
182.82605 132.0
182.882111 152.0
182.937836 164.0
182.985016 140.0
183.004791 232.0
183.067581 38060.0
183.158401 240.0
183.193405 132.0
183.230453 148.0
183.262421 44.0
183.283981 180.0
183.308228 112.0
183.39447 168.0
183.445679 112.0
183.480728 272.0
183.519989 148.0
183.545441 72.0
183.605377 88.0
183.615265 76.0
183.623077 136.0
183.649246 156.0
183.682983 28.0
183.709946 40.0
183.752441 128.0
183.774704 220.0
183.793137 168.0
183.858932 264.0
183.895111 124.0
183.928879 152.0
183.967499 172.0
183.987915 196.0
184.04451 160.0
184.075562 29100.0
184.154221 176.0
184.195541 36.0
184.244461 280.0
184.266068 68.0
184.30217 56.0
184.322083 88.0
184.35611 124.0
184.419006 80.0
184.45253 64.0
184.479568 72.0
184.506607 40.0
184.548798 168.0
184.600128 204.0
184.621033 148.0
184.65802 112.0
184.6866 64.0
184.715591 156.0
184.847397 80.0
184.916687 224.0
184.988632 128.0
185.009781 68.0
185.078232 3036.0
185.125427 196.0
185.166824 112.0
185.208862 320.0
185.224442 104.0
185.28331 48.0
185.312119 88.0
185.348328 152.0
185.392975 92.0
185.457748 148.0
185.513641 144.0
185.535187 120.0
185.597687 96.0
185.635651 104.0
185.670914 180.0
185.710739 204.0
185.739578 164.0
185.771271 68.0
185.817383 128.0
185.841797 80.0
185.938843 184.0
185.963913 56.0
185.988342 140.0
186.052322 148.0
186.083359 164.0
186.175674 64.0
186.280914 96.0
186.291428 116.0
186.296021 168.0
186.328293 172.0
186.371185 160.0
186.455521 288.0
186.51474 228.0
186.543015 120.0
186.648499 108.0
186.683838 60.0
186.738235 116.0
186.847046 144.0
186.91626 164.0
186.947708 52.0
186.991257 152.0
187.032532 96.0
187.071198 312.0
187.293472 84.0
187.328888 148.0
187.396988 72.0
187.429688 196.0
187.477341 148.0
187.505981 148.0
187.530518 88.0
187.549591 48.0
187.620468 200.0
187.653824 336.0
187.964111 100.0
187.983215 140.0
188.057449 220.0
188.106033 44.0
188.152435 72.0
188.255997 160.0
188.283508 176.0
188.305939 132.0
188.332672 84.0
188.354523 192.0
188.387299 28.0
188.469254 160.0
188.610825 164.0
188.668762 132.0
188.743454 148.0
188.849243 40.0
188.887527 308.0
189.004059 168.0
189.038513 152.0
189.064987 192.0
189.143661 204.0
189.223114 152.0
189.273788 200.0
189.386307 144.0
189.503479 120.0
189.528137 168.0
189.558289 204.0
189.579727 184.0
189.640503 300.0
189.668686 168.0
189.730576 172.0
189.768585 232.0
189.859833 128.0
189.895477 168.0
189.950027 144.0
189.972275 192.0
190.064575 544.0
190.096146 232.0
190.125931 148.0
190.23912 84.0
190.260422 200.0
190.342789 184.0
190.367508 184.0
190.397705 108.0
190.422424 188.0
190.485596 168.0
190.554276 140.0
190.575806 172.0
190.702667 64.0
190.732895 144.0
190.76622 132.0
190.802078 172.0
190.902649 160.0
191.072708 1880.0
191.131668 232.0
191.287186 268.0
191.368378 96.0
191.403641 168.0
191.459244 128.0
191.50882 104.0
191.569412 156.0
191.646545 104.0
191.674103 216.0
191.745758 152.0
191.773315 164.0
191.887054 124.0
191.907028 132.0
191.955261 108.0
192.080139 2468.0
192.128448 136.0
192.167648 108.0
192.23938 192.0
192.311142 188.0
192.359879 128.0
192.443985 184.0
192.468491 104.0
192.576187 68.0
192.621704 428.0
192.689453 108.0
192.813797 144.0
192.83313 144.0
192.880127 148.0
192.916061 180.0
192.962906 148.0
193.02388 172.0
193.088211 4844.0
193.170456 96.0
193.198425 180.0
193.311569 112.0
193.49147 144.0
193.544083 160.0
193.577301 128.0
193.640991 188.0
193.693619 148.0
193.756165 164.0
193.782272 148.0
193.803192 192.0
193.845993 160.0
193.959915 196.0
194.023178 172.0
194.058105 1900.0
194.095642 10068.0
194.15506 196.0
194.215485 144.0
194.236252 168.0
194.275742 176.0
194.321014 188.0
194.360458 224.0
194.386719 60.0
194.467194 76.0
194.492188 156.0
194.558807 76.0
194.595825 180.0
194.644867 32.0
194.716354 156.0
194.817062 124.0
194.851379 204.0
194.894852 56.0
194.919861 84.0
194.955994 40.0
195.014343 116.0
195.070145 488.0
195.099747 1940.0
195.150558 164.0
195.211731 220.0
195.239548 148.0
195.31041 224.0
195.336884 52.0
195.377884 184.0
195.422485 228.0
195.462082 92.0
195.520523 140.0
195.562271 104.0
195.581741 44.0
195.657455 112.0
195.715378 140.0
195.796356 144.0
195.896194 160.0
195.999481 212.0
196.049271 456.0
196.076096 8548.0
196.110016 260.0
196.152756 136.0
196.176834 176.0
196.205719 216.0
196.233597 48.0
196.258698 160.0
196.283783 40.0
196.333984 188.0
196.3535 72.0
196.388 120.0
196.431595 308.0
196.484604 36.0
196.506927 72.0
196.542816 60.0
196.573273 128.0
196.657608 128.0
196.722107 184.0
196.740692 84.0
196.830688 44.0
196.900497 168.0
196.920059 144.0
196.939713 100.0
196.976715 252.0
196.989105 72.0
197.000183 232.0
197.020615 172.0
197.078873 2232.0
197.135269 424.0
197.192184 148.0
197.219009 144.0
197.274918 196.0
197.361343 196.0
197.43988 216.0
197.467056 144.0
197.514465 72.0
197.566498 164.0
197.638489 52.0
197.663666 136.0
197.688843 36.0
197.714035 64.0
197.756012 176.0
197.825989 128.0
197.856781 120.0
197.887589 100.0
197.940781 68.0
198.00238 172.0
198.056396 364.0
198.08844 356.0
198.128433 112.0
198.156448 136.0
198.209686 96.0
198.330566 152.0
198.395874 92.0
198.433914 412.0
198.459137 176.0
198.48613 160.0
198.540237 148.0
198.554489 148.0
198.630203 60.0
198.655457 40.0
198.820999 32.0
198.89946 176.0
198.946152 116.0
198.985855 100.0
199.063095 164.0
199.112961 200.0
199.149475 32.0
199.279953 192.0
199.343323 140.0
199.396713 224.0
199.548065 156.0
199.579437 112.0
199.608307 108.0
199.642059 148.0
199.665695 124.0
199.703171 136.0
199.815689 132.0
199.843811 88.0
199.88884 180.0
199.94339 172.0
200.006287 136.0
200.069702 168.0
200.102753 200.0
200.192856 84.0
200.274521 172.0
200.350571 124.0
200.384384 160.0
200.496628 116.0
200.514297 168.0
200.556274 136.0
200.577118 132.0
200.654938 196.0
200.731064 152.0
200.752762 128.0
200.838226 124.0
200.863617 140.0
200.888931 136.0
200.959183 192.0
201.021606 64.0
201.055481 180.0
201.23613 240.0
201.326477 152.0
201.359192 96.0
201.422318 116.0
201.490311 104.0
201.552933 144.0
201.575073 88.0
201.775131 164.0
201.863388 100.0
201.894501 124.0
201.928436 196.0
201.973694 244.0
202.051361 140.0
202.089081 96.0
202.093597 156.0
202.18306 148.0
202.245316 192.0
202.267181 204.0
202.307587 44.0
202.466156 188.0
202.593613 132.0
202.672943 48.0
202.806122 184.0
202.862671 160.0
202.956375 136.0
203.07103 724.0
203.475586 196.0
203.495453 240.0
203.535202 132.0
203.555084 148.0
203.595917 232.0
203.708664 52.0
203.887451 192.0
203.917374 180.0
203.947128 148.0
203.969864 188.0
204.01535 160.0
204.080765 12940.0
204.148148 192.0
204.200165 172.0
204.260788 128.0
204.333679 64.0
204.387924 168.0
204.413528 52.0
204.441986 44.0
204.470764 180.0
204.518829 36.0
204.552979 156.0
204.582809 84.0
204.607071 72.0
204.63269 48.0
204.689636 100.0
204.71109 180.0
204.806396 240.0
204.839722 184.0
204.919754 172.0
204.963089 104.0
204.994431 88.0
205.031479 208.0
205.084763 4796.0
205.129364 116.0
205.201263 120.0
205.257385 60.0
205.279495 168.0
205.305557 56.0
205.38501 152.0
205.403961 232.0
205.513382 136.0
205.544174 180.0
205.573303 176.0
205.593277 72.0
205.665939 140.0
205.707443 76.0
205.7854 184.0
205.881607 152.0
205.984421 60.0
206.059906 2304.0
206.09462 1208.0
206.158966 188.0
206.207199 116.0
206.247238 164.0
206.275467 216.0
206.304474 88.0
206.33757 160.0
206.463684 164.0
206.538956 212.0
206.557007 180.0
206.580551 148.0
206.624771 48.0
206.683899 232.0
206.71347 116.0
206.733505 112.0
206.779922 216.0
206.828232 156.0
206.862289 132.0
206.893784 96.0
206.930176 264.0
206.963501 160.0
207.007477 280.0
207.068314 25656.0
207.155502 192.0
207.207367 72.0
207.283234 164.0
207.326279 64.0
207.346344 104.0
207.383606 60.0
207.427139 148.0
207.452148 48.0
207.471024 88.0
207.526932 212.0
207.572815 72.0
207.623093 112.0
207.662247 108.0
207.730927 120.0
207.782181 92.0
207.791504 160.0
207.888351 160.0
207.908432 144.0
207.947754 80.0
207.980179 208.0
208.00415 180.0
208.073639 7616.0
208.12854 124.0
208.169662 64.0
208.19838 56.0
208.247208 164.0
208.329071 72.0
208.364975 136.0
208.392746 72.0
208.436813 156.0
208.456924 204.0
208.521713 168.0
208.590424 88.0
208.64183 144.0
208.721375 116.0
208.761627 144.0
208.799011 120.0
208.836395 116.0
208.8853 76.0
208.911194 176.0
208.944199 192.0
208.985107 108.0
209.006134 120.0
209.043213 36.0
209.083313 14836.0
209.183075 132.0
209.236374 184.0
209.271286 172.0
209.294312 164.0
209.357315 164.0
209.416931 108.0
209.446121 188.0
209.505386 88.0
209.538773 112.0
209.595062 172.0
209.618484 132.0
209.671326 200.0
209.693161 116.0
209.760666 188.0
209.844269 40.0
209.875977 132.0
209.90538 184.0
209.930771 164.0
209.996017 180.0
210.086411 3112.0
210.148102 184.0
210.203766 84.0
210.225876 200.0
210.307938 196.0
210.350632 176.0
210.415512 48.0
210.455551 124.0
210.486053 204.0
210.539673 144.0
210.577667 204.0
210.603775 204.0
210.64212 212.0
210.704315 156.0
210.753418 76.0
210.796768 152.0
210.831528 148.0
210.876999 312.0
210.984634 48.0
211.063034 572.0
211.081345 308.0
211.091782 540.0
211.150681 84.0
211.247787 136.0
211.389557 224.0
211.435852 88.0
211.465302 116.0
211.525574 124.0
211.609528 116.0
211.633408 160.0
211.664551 136.0
211.719559 124.0
211.739838 148.0
211.79776 104.0
211.823837 140.0
211.858597 252.0
211.932358 172.0
211.986069 160.0
212.006363 112.0
212.069809 492.0
212.151276 168.0
212.336349 172.0
212.419556 120.0
212.542816 100.0
212.574722 192.0
212.626968 140.0
212.702423 60.0
212.73436 196.0
212.783707 92.0
212.844681 84.0
212.899857 132.0
212.981171 216.0
213.036285 136.0
213.067902 404.0
213.209534 120.0
213.231033 140.0
213.325958 84.0
213.371017 204.0
213.440582 96.0
213.515945 64.0
213.561417 132.0
213.638107 124.0
213.792313 200.0
213.867981 144.0
213.913376 168.0
213.981995 168.0
214.109634 128.0
214.167877 208.0
214.188263 180.0
214.336853 168.0
214.395126 156.0
214.466797 176.0
214.475281 104.0
214.561264 136.0
214.584229 128.0
214.695389 196.0
214.747894 64.0
214.953186 176.0
215.001709 160.0
215.068405 164.0
215.103867 44.0
215.162247 140.0
215.305313 96.0
215.334518 128.0
215.369568 164.0
215.460129 52.0
215.559464 92.0
215.597946 192.0
215.656784 172.0
215.685135 88.0
215.714355 240.0
215.86409 132.0
215.930725 72.0
216.078415 364.0
216.11795 52.0
216.167679 140.0
216.240479 156.0
216.273041 128.0
216.296463 120.0
216.33075 140.0
216.422348 180.0
216.469193 96.0
216.513123 68.0
216.62149 108.0
216.762115 128.0
216.809006 192.0
216.847092 160.0
216.937958 160.0
217.088699 1124.0
217.166672 128.0
217.248215 60.0
217.289871 120.0
217.333878 128.0
217.36322 180.0
217.393997 148.0
217.436584 84.0
217.4599 140.0
217.608032 208.0
217.642075 84.0
217.693466 184.0
217.753662 240.0
217.78009 140.0
217.866791 148.0
217.894241 196.0
217.929916 196.0
217.994553 52.0
218.062317 544.0
218.091629 356.0
218.122406 72.0
218.174759 168.0
218.311142 120.0
218.350128 172.0
218.434036 160.0
218.496048 200.0
218.526764 104.0
218.559128 64.0
218.620911 160.0
218.670944 84.0
218.908463 252.0
218.950623 52.0
218.991943 132.0
219.067368 1196.0
219.136734 156.0
219.18335 88.0
219.518677 304.0
219.544266 164.0
219.67569 156.0
219.767151 152.0
219.802704 152.0
219.913147 160.0
219.925568 196.0
219.935272 136.0
219.992828 136.0
220.075256 18564.0
220.152542 192.0
220.187973 100.0
220.212891 80.0
220.254242 136.0
220.293396 296.0
220.331055 88.0
220.362961 60.0
220.413773 56.0
220.499481 76.0
220.558578 192.0
220.614746 236.0
220.697525 36.0
220.733017 40.0
220.845383 184.0
220.883835 120.0
220.922302 124.0
220.97731 168.0
221.014008 64.0
221.0811 11524.0
221.197205 124.0
221.274673 168.0
221.301102 160.0
221.34256 260.0
221.373703 124.0
221.427979 156.0
221.452133 188.0
221.485428 188.0
221.508408 40.0
221.541428 164.0
221.573578 144.0
221.649597 144.0
221.673599 148.0
221.738068 160.0
221.840286 108.0
221.881378 144.0
221.969482 196.0
222.012253 120.0
222.091354 39044.0
222.157593 120.0
222.196335 68.0
222.222443 136.0
222.232208 120.0
222.24617 56.0
222.30275 108.0
222.335617 32.0
222.376648 68.0
222.429581 188.0
222.457306 52.0
222.478653 148.0
222.520645 120.0
222.555283 52.0
222.5961 64.0
222.638412 68.0
222.66217 48.0
222.708389 228.0
222.742508 88.0
222.77594 172.0
222.813828 260.0
222.847031 152.0
222.860046 72.0
222.866562 124.0
222.889954 148.0
222.974121 196.0
223.027618 68.0
223.095413 8692.0
223.144897 176.0
223.21788 80.0
223.300156 64.0
223.361282 128.0
223.393356 48.0
223.446899 88.0
223.470459 144.0
223.532471 88.0
223.610825 224.0
223.693573 140.0
223.833832 60.0
223.86911 80.0
223.902328 124.0
223.949341 56.0
224.037796 248.0
224.069641 116.0
224.105652 9144.0
224.191284 32.0
224.262817 248.0
224.310501 52.0
224.388016 64.0
224.421402 60.0
224.470505 156.0
224.50824 124.0
224.587814 56.0
224.680283 216.0
224.720093 104.0
224.757858 124.0
224.832458 140.0
224.872238 120.0
224.924225 48.0
225.005569 92.0
225.046112 176.0
225.078354 556.0
225.1091 744.0
225.193344 104.0
225.223557 44.0
225.250443 100.0
225.275833 128.0
225.443802 128.0
225.566513 220.0
225.688721 256.0
225.722641 92.0
225.755539 152.0
225.779465 44.0
225.836288 108.0
225.881149 56.0
225.908081 96.0
226.003815 72.0
226.048691 40.0
226.085388 168.0
226.114532 132.0
226.171402 132.0
226.253845 132.0
226.438919 104.0
226.485779 112.0
226.557678 56.0
226.635574 164.0
226.848358 176.0
226.917297 108.0
227.021194 160.0
227.057587 292.0
227.088226 176.0
227.139221 176.0
227.162964 196.0
227.188309 176.0
227.262207 164.0
227.358231 188.0
227.415253 156.0
227.478287 100.0
227.508316 56.0
227.6194 132.0
227.640411 96.0
227.704987 164.0
227.745529 136.0
227.778564 100.0
227.808609 48.0
227.925781 52.0
228.06636 144.0
228.106094 100.0
228.142166 132.0
228.220337 148.0
228.302277 192.0
228.331314 168.0
228.680588 104.0
228.770889 128.0
228.804001 128.0
228.828094 220.0
228.894333 72.0
228.966599 124.0
229.001099 208.0
229.072021 80.0
229.096115 212.0
229.183487 144.0
229.21965 172.0
229.243744 220.0
229.316071 104.0
229.42157 236.0
229.505997 220.0
229.5271 220.0
229.564682 216.0
229.700043 120.0
229.777435 212.0
229.846115 84.0
229.86795 92.0
229.889069 156.0
229.937363 96.0
229.984512 164.0
230.103378 216.0
230.190933 72.0
230.329865 144.0
230.369125 44.0
230.393295 152.0
230.489975 152.0
230.595749 120.0
230.819443 172.0
230.848129 124.0
230.916214 84.0
230.953156 168.0
231.071732 144.0
231.115875 204.0
231.164291 140.0
231.20665 96.0
231.339828 120.0
231.373123 96.0
231.491211 124.0
231.627502 184.0
231.675964 196.0
231.710022 232.0
231.815338 136.0
231.860794 128.0
231.897156 168.0
231.988098 168.0
232.076065 956.0
232.145752 152.0
232.238815 128.0
232.276169 112.0
232.342896 104.0
232.54924 140.0
232.603867 108.0
232.694946 180.0
232.746552 100.0
232.94397 32.0
232.980423 104.0
233.016876 140.0
233.082169 3016.0
233.155258 184.0
233.247818 84.0
233.269104 116.0
233.335983 28.0
233.366379 132.0
233.410385 68.0
233.500183 32.0
233.534973 100.0
233.630966 96.0
233.658356 112.0
233.679657 164.0
233.737457 104.0
233.801361 120.0
233.834839 136.0
233.858047 96.0
233.88353 68.0
233.926147 200.0
233.977905 56.0
234.054672 472.0
234.091141 6416.0
234.201614 148.0
234.261108 108.0
234.374268 144.0
234.443924 148.0
234.483536 164.0
234.52713 132.0
234.547699 104.0
234.589386 116.0
234.629852 40.0
234.74057 112.0
234.805893 136.0
234.904312 276.0
235.010269 208.0
235.06192 10920.0
235.172821 32.0
235.203339 204.0
235.255234 120.0
235.287903 104.0
235.322388 60.0
235.368195 84.0
235.523941 88.0
235.621582 100.0
235.667526 88.0
235.713348 44.0
235.746964 124.0
235.78215 132.0
235.844757 136.0
235.884506 176.0
235.912018 80.0
236.003326 60.0
236.069244 12096.0
236.102859 584.0
236.170105 128.0
236.230042 64.0
236.297424 88.0
236.368988 144.0
236.401367 264.0
236.422791 96.0
236.46843 180.0
236.479004 88.0
236.506409 136.0
236.536652 60.0
236.56723 224.0
236.603378 56.0
236.643188 88.0
236.691528 164.0
236.763168 200.0
236.817734 276.0
236.87381 124.0
236.93576 180.0
236.9617 144.0
236.994415 284.0
237.076813 11668.0
237.143829 176.0
237.183228 96.0
237.252563 44.0
237.27597 204.0
237.318863 172.0
237.360153 68.0
237.421478 52.0
237.469162 88.0
237.524765 184.0
237.594345 136.0
237.639267 36.0
237.660736 36.0
237.758942 52.0
237.81636 124.0
237.884781 60.0
237.923508 192.0
237.952316 36.0
237.993622 176.0
238.082947 3344.0
238.12735 60.0
238.184326 116.0
238.222565 204.0
238.250214 48.0
238.27478 184.0
238.314987 232.0
238.33931 184.0
238.379379 52.0
238.56366 136.0
238.591324 116.0
238.698944 64.0
238.73584 52.0
238.8134 108.0
238.868088 200.0
238.968491 176.0
238.99115 44.0
239.059052 148.0
239.079468 488.0
239.104996 204.0
239.126541 164.0
239.209641 48.0
239.358612 156.0
239.40361 104.0
239.446732 120.0
239.474442 152.0
239.516876 196.0
239.524536 152.0
239.540451 84.0
239.569931 192.0
239.606903 172.0
239.683929 132.0
239.733231 28.0
239.767136 48.0
239.822601 132.0
239.846436 208.0
239.930496 156.0
239.960861 80.0
239.989075 64.0
240.015533 124.0
240.061737 312.0
240.174103 116.0
240.340317 144.0
240.454865 136.0
240.507324 140.0
240.590668 104.0
240.683304 176.0
240.780334 188.0
240.837708 76.0
240.902573 72.0
240.945816 144.0
241.077774 284.0
241.369247 120.0
241.403839 152.0
241.573364 164.0
241.697128 188.0
241.724976 192.0
241.827087 140.0
241.946426 144.0
241.979858 148.0
242.132355 80.0
242.176956 156.0
242.200378 64.0
242.229614 64.0
242.421707 76.0
242.572388 220.0
242.641769 44.0
242.691376 124.0
242.725479 164.0
242.886749 104.0
243.051163 48.0
243.077942 172.0
243.361557 192.0
243.479553 56.0
243.516815 136.0
243.55098 200.0
243.583099 204.0
243.619324 100.0
243.718735 136.0
243.863739 148.0
244.035767 172.0
244.365433 76.0
244.438492 192.0
244.471237 124.0
244.536591 132.0
244.599548 156.0
244.715485 144.0
244.819885 160.0
244.932007 172.0
245.016113 124.0
245.090881 188.0
245.773727 108.0
245.817413 72.0
245.854858 116.0
245.892303 128.0
245.926636 28.0
245.973465 188.0
246.010925 156.0
246.059235 392.0
246.135803 120.0
246.238846 60.0
246.273544 260.0
246.313812 192.0
246.341919 204.0
246.416901 240.0
246.48877 100.0
246.61377 80.0
246.720047 48.0
246.766937 76.0
246.85762 148.0
246.988968 108.0
247.01712 100.0
247.069443 276.0
247.182938 112.0
247.271942 160.0
247.37384 108.0
247.417679 136.0
247.549179 144.0
247.636856 124.0
247.658783 208.0
247.846756 64.0
247.903152 208.0
247.962692 188.0
248.010117 188.0
248.069916 8252.0
248.120468 96.0
248.164886 88.0
248.216614 228.0
248.276199 188.0
248.420471 84.0
248.442429 180.0
248.468307 176.0
248.517731 84.0
248.558121 160.0
248.60231 192.0
248.66835 156.0
248.695831 212.0
248.762512 96.0
248.828445 144.0
248.877899 196.0
248.919495 132.0
249.001144 216.0
249.075943 3124.0
249.109207 128.0
249.14563 164.0
249.22731 168.0
249.274445 212.0
249.327866 248.0
249.376694 120.0
249.409592 68.0
249.457993 160.0
249.500748 52.0
249.535324 160.0
249.608307 152.0
249.661102 144.0
249.684341 92.0
249.791306 180.0
249.816833 140.0
249.915741 84.0
249.955704 172.0
249.981964 100.0
250.022003 132.0
250.085907 46752.0
250.175354 208.0
250.235947 276.0
250.28801 444.0
250.318039 96.0
250.359192 72.0
250.392334 60.0
250.423233 80.0
250.461182 92.0
250.496353 136.0
250.547974 52.0
250.596664 160.0
250.623184 176.0
250.68103 132.0
250.726089 276.0
250.789658 60.0
250.816238 160.0
250.874756 112.0
250.942657 44.0
250.977325 172.0
251.048157 252.0
251.090134 7096.0
251.172852 36.0
251.207626 192.0
251.280121 68.0
251.308502 192.0
251.342621 72.0
251.386368 100.0
251.416656 88.0
251.487656 172.0
251.534439 108.0
251.57045 276.0
251.632736 64.0
251.679474 80.0
251.722 32.0
251.830856 176.0
251.867279 96.0
251.892548 136.0
251.954666 72.0
251.982483 68.0
252.007492 208.0
252.101639 27752.0
252.192719 76.0
252.248886 248.0
252.285843 52.0
252.326859 156.0
252.392242 140.0
252.429825 136.0
252.485596 116.0
252.528061 120.0
252.600601 80.0
252.621368 68.0
252.676529 120.0
252.72081 140.0
252.777771 76.0
252.806244 68.0
252.831573 88.0
252.888535 52.0
252.921646 104.0
252.983765 92.0
253.021271 352.0
253.033096 48.0
253.067017 440.0
253.10379 3720.0
253.179794 76.0
253.205139 100.0
253.246307 216.0
253.338165 244.0
253.398361 60.0
253.449051 48.0
253.517715 164.0
253.594818 148.0
253.617004 96.0
253.639191 112.0
253.699417 96.0
253.777191 136.0
253.826248 36.0
253.870636 52.0
253.929443 132.0
253.956268 124.0
254.070099 140.0
254.111649 240.0
254.222763 140.0
254.243134 124.0
254.284744 60.0
254.330658 80.0
254.381454 196.0
254.483032 136.0
254.556061 148.0
254.579788 188.0
254.621307 132.0
254.646851 136.0
254.686279 172.0
254.752975 152.0
254.81488 140.0
254.864212 204.0
254.959503 36.0
254.986023 136.0
255.061203 76.0
255.106979 160.0
255.267853 136.0
255.404602 224.0
255.522308 84.0
255.605026 176.0
255.684586 48.0
255.725967 120.0
255.885117 184.0
255.967911 36.0
256.01886 92.0
256.110016 336.0
256.204651 84.0
256.29599 72.0
256.378845 128.0
256.426025 232.0
256.592377 140.0
256.63385 160.0
256.662537 264.0
256.700806 116.0
256.777344 156.0
256.86026 132.0
256.936829 168.0
257.380463 88.0
257.434753 148.0
257.509186 96.0
257.556091 72.0
257.674286 124.0
257.706238 196.0
257.792511 128.0
257.81488 172.0
257.853241 56.0
257.933136 32.0
257.993866 72.0
258.124969 164.0
258.211304 180.0
258.262482 48.0
258.358429 204.0
258.467224 144.0
258.624023 120.0
258.681641 132.0
258.803284 192.0
258.86734 188.0
258.894104 224.0
258.973022 164.0
259.011444 252.0
259.123566 152.0
259.354309 136.0
259.482513 116.0
259.60437 112.0
259.716614 64.0
259.755096 120.0
259.828888 248.0
259.886627 68.0
259.918732 72.0
260.077362 140.0
260.170502 160.0
260.201172 160.0
260.377777 84.0
260.422729 52.0
260.483765 220.0
260.605835 276.0
260.839325 184.0
261.069519 176.0
261.606781 120.0
261.853943 116.0
261.961639 64.0
261.995667 192.0
262.05365 136.0
262.082886 304.0
262.169373 140.0
262.301788 64.0
262.33725 96.0
262.366272 124.0
262.3909 132.0
262.453308 116.0
262.572632 76.0
262.753265 196.0
263.056152 620.0
263.094269 404.0
263.12439 160.0
263.159912 40.0
263.205109 96.0
263.272919 84.0
263.295532 52.0
263.324615 152.0
263.36792 116.0
263.415039 56.0
263.505493 144.0
263.570129 132.0
263.670288 56.0
263.703949 144.0
263.747864 104.0
263.883636 212.0
263.90625 160.0
263.930969 156.0
263.960297 188.0
263.976379 64.0
264.001892 396.0
264.065033 28496.0
264.120667 160.0
264.158508 36.0
264.187622 60.0
264.221375 252.0
264.326416 116.0
264.352386 52.0
264.386139 104.0
264.412811 88.0
264.446991 224.0
264.491516 188.0
264.558716 320.0
264.594971 156.0
264.661896 104.0
264.687805 148.0
264.72052 96.0
264.822784 140.0
264.835815 80.0
264.857025 196.0
264.903046 88.0
264.965515 136.0
265.008789 248.0
265.072937 46180.0
265.164673 176.0
265.184631 88.0
265.229736 116.0
265.268585 68.0
265.284943 84.0
265.291382 76.0
265.339447 48.0
265.347382 68.0
265.359497 56.0
265.406342 112.0
265.449493 124.0
265.469757 204.0
265.501465 112.0
265.52597 84.0
265.540558 64.0
265.549683 128.0
265.593842 168.0
265.658325 68.0
265.685974 108.0
265.766052 80.0
265.801086 28.0
265.837433 40.0
265.864014 204.0
265.901886 132.0
265.927643 96.0
266.007996 148.0
266.019012 176.0
266.07663 6684.0
266.206848 80.0
266.25946 172.0
266.308502 332.0
266.380707 52.0
266.403168 116.0
266.448334 68.0
266.490509 108.0
266.51825 176.0
266.570648 68.0
266.640228 88.0
266.704742 136.0
266.74292 124.0
266.780212 92.0
266.794037 44.0
266.806763 124.0
266.837189 36.0
266.932129 164.0
267.021118 184.0
267.079163 1360.0
267.144135 208.0
267.230713 164.0
267.256744 24.0
267.351105 88.0
267.420746 40.0
267.450256 136.0
267.485168 148.0
267.520081 152.0
267.533234 96.0
267.545105 244.0
267.569183 52.0
267.596588 56.0
267.637543 112.0
267.663605 60.0
267.759033 100.0
267.787354 136.0
267.832947 116.0
267.875305 64.0
267.939301 112.0
267.989319 148.0
268.012115 84.0
268.093445 100.0
268.165283 72.0
268.201141 32.0
268.255005 104.0
268.30545 80.0
268.364136 84.0
268.461945 48.0
268.605469 72.0
268.709839 136.0
268.81427 52.0
268.895844 108.0
269.026398 84.0
269.091705 112.0
269.133789 192.0
269.17984 260.0
269.212494 72.0
269.352936 212.0
269.421539 104.0
269.46402 216.0
269.5849 64.0
269.666595 176.0
269.940033 100.0
270.072021 136.0
270.100159 148.0
270.209412 108.0
270.314117 52.0
270.55304 48.0
270.959137 88.0
271.11969 160.0
271.159027 156.0
271.282196 96.0
271.442291 216.0
271.503235 160.0
271.532776 220.0
271.580139 108.0
271.650848 148.0
271.954773 116.0
272.018372 300.0
272.202209 140.0
272.264099 180.0
272.317139 112.0
272.41568 168.0
272.648956 116.0
272.790314 220.0
272.898804 176.0
273.0336 32.0
273.129272 144.0
273.234253 132.0
273.389496 152.0
273.576508 104.0
273.718079 92.0
273.754303 160.0
273.872864 152.0
274.030975 56.0
274.291321 164.0
274.317688 56.0
274.535278 160.0
274.594666 164.0
274.726593 112.0
274.954254 224.0
275.217316 92.0
275.250824 200.0
275.441528 112.0
275.515564 128.0
275.67746 116.0
275.736969 48.0
275.773315 72.0
275.812988 76.0
275.859253 148.0
275.948761 168.0
276.001404 244.0
276.047699 128.0
276.110535 88.0
276.158203 224.0
276.186615 200.0
276.256073 116.0
276.299072 268.0
276.368256 128.0
276.490997 56.0
276.563812 72.0
276.708679 188.0
276.765747 132.0
276.792236 104.0
276.937927 208.0
276.979889 196.0
277.009186 140.0
277.04834 132.0
277.163208 64.0
277.202972 136.0
277.240692 104.0
277.360809 108.0
277.398499 156.0
277.490356 164.0
277.59079 176.0
277.677032 112.0
277.72345 120.0
277.770386 108.0
277.87738 228.0
277.93576 180.0
277.988861 92.0
278.032013 396.0
278.080078 4972.0
278.141541 100.0
278.17804 48.0
278.20459 164.0
278.292267 108.0
278.337097 100.0
278.417084 188.0
278.446991 96.0
278.496796 68.0
278.64093 196.0
278.709412 52.0
278.752594 48.0
278.80246 56.0
278.829041 128.0
278.883759 120.0
278.952026 148.0
279.029205 172.0
279.083588 1192.0
279.135803 216.0
279.167389 84.0
279.211365 112.0
279.24176 144.0
279.268372 112.0
279.294495 380.0
279.323303 152.0
279.393158 260.0
279.416046 304.0
279.477386 168.0
279.485138 224.0
279.519409 360.0
279.562836 152.0
279.607422 148.0
279.647186 216.0
279.739014 396.0
279.785492 260.0
279.798248 252.0
279.809326 228.0
279.858337 232.0
279.87851 188.0
279.891388 316.0
279.944122 296.0
279.966797 480.0
279.986542 280.0
279.994598 136.0
280.097565 268324.0
280.166626 168.0
280.208099 288.0
280.24588 236.0
280.289062 144.0
280.322235 160.0
280.398865 140.0
280.450623 284.0
280.463257 180.0
280.507843 260.0
280.549713 120.0
280.56134 112.0
280.590607 256.0
280.645599 2340.0
280.688934 88.0
280.725342 64.0
280.767242 80.0
280.79422 120.0
280.836914 176.0
280.876465 240.0
280.935608 360.0
280.994141 328.0
281.018127 156.0
281.030304 400.0
281.046143 212.0
281.052765 112.0
281.099609 41676.0
281.199432 148.0
281.226349 124.0
281.249847 56.0
281.261719 76.0
281.281769 132.0
281.316345 88.0
281.367188 112.0
281.420166 228.0
281.4729 116.0
281.519897 76.0
281.554565 72.0
281.615417 48.0
281.641479 192.0
281.70282 148.0
281.729187 180.0
281.771515 72.0
281.838379 100.0
281.862823 172.0
281.919708 116.0
282.002106 56.0
282.035278 80.0
282.100555 5180.0
282.190002 96.0
282.246643 164.0
282.276703 172.0
282.329834 116.0
282.367126 76.0
282.399719 68.0
282.426971 144.0
282.468292 116.0
282.509033 88.0
282.560333 132.0
282.595947 216.0
282.649811 148.0
282.686249 136.0
282.71344 120.0
282.743195 140.0
282.764709 204.0
282.809021 144.0
282.832489 204.0
282.912537 372.0
282.99765 172.0
283.048004 112.0
283.10199 524.0
283.161102 164.0
283.202148 128.0
283.209686 172.0
283.247437 240.0
283.297668 92.0
283.333466 76.0
283.420532 132.0
283.427246 64.0
283.476105 84.0
283.566101 136.0
283.625183 32.0
283.678802 48.0
283.736816 52.0
283.761292 80.0
283.794098 124.0
283.826324 164.0
283.876617 136.0
283.906799 144.0
283.930267 80.0
283.961304 112.0
284.01825 200.0
284.083008 104.0
284.185211 124.0
284.231293 92.0
284.245392 68.0
284.268738 80.0
284.302643 76.0
284.363037 56.0
284.389893 84.0
284.435059 88.0
284.496063 48.0
284.618164 40.0
284.665192 120.0
284.692047 40.0
284.759216 40.0
284.829742 108.0
284.853271 68.0
284.881866 64.0
284.919098 60.0
285.009491 72.0
285.130829 88.0
285.216156 104.0
285.262512 112.0
285.310272 84.0
285.394745 128.0
285.501923 140.0
285.535126 92.0
285.660004 52.0
285.697021 44.0
285.730652 60.0
285.966217 44.0
286.14798 40.0
286.235504 128.0
286.424103 84.0
286.629608 92.0
286.659943 116.0
286.739197 108.0
286.828461 80.0
286.892517 64.0
286.929596 64.0
286.976776 100.0
287.02063 64.0
287.469238 28.0
287.695374 28.0
288.04657 96.0
288.17157 96.0
288.195221 96.0
288.661682 44.0
288.773254 88.0
288.813843 104.0
289.033752 84.0
289.11496 116.0
289.250336 184.0
289.32251 124.0
289.511047 128.0
289.861542 68.0
289.887054 108.0
289.981934 72.0
290.057007 80.0
290.446442 92.0
291.138794 96.0
291.19162 116.0
291.339203 76.0
291.449799 72.0
291.675598 136.0
291.736786 52.0
291.915802 92.0
291.954407 128.0
292.090454 148.0
292.240143 60.0
293.445801 36.0
293.514008 88.0
293.653809 52.0
293.752716 72.0
293.776611 100.0
293.916473 84.0
294.346558 88.0
294.540863 112.0
295.282898 120.0
295.713989 92.0
295.779022 40.0
296.09079 252.0
296.135101 176.0
296.210449 80.0
296.255005 108.0
296.374908 72.0
296.508545 104.0
296.609772 60.0
296.772491 52.0
297.063995 120.0
297.118896 52.0
297.341919 112.0
297.386536 88.0
297.417419 92.0
297.592499 56.0
297.781372 88.0
298.234894 72.0
298.809143 120.0
299.156738 72.0
299.642303 36.0
300.311035 64.0
301.0047 44.0
301.481384 72.0
301.661133 36.0
301.737183 92.0
301.999969 88.0
302.048401 112.0
303.000366 64.0
303.086975 32.0
303.423187 40.0
303.901794 80.0
304.03363 152.0
304.425903 32.0
304.665558 88.0
305.593811 60.0
305.886139 72.0
306.25174 64.0
306.955719 96.0
307.527832 84.0
307.772186 148.0
307.946808 56.0
308.034119 68.0
309.604523 40.0
310.198914 104.0
310.242188 36.0
310.347382 40.0
310.62442 40.0
311.20697 92.0
311.723328 68.0
311.800629 48.0
313.056519 124.0
313.081177 72.0
314.682007 32.0
316.906677 116.0
318.311249 68.0
318.460419 40.0
318.76947 68.0
320.213806 96.0
320.459595 72.0
321.490082 60.0
322.036316 52.0
322.082733 68.0
322.200623 116.0
322.379272 136.0
322.59729 64.0
323.867554 56.0
324.437317 52.0
325.894409 44.0
327.39798 48.0
327.747375 44.0
329.049408 52.0
332.049133 88.0
333.643158 68.0
337.482178 116.0
340.799194 52.0
341.85083 112.0
347.022003 108.0
347.340912 84.0
348.889404 108.0
349.015808 96.0
350.4935 40.0
353.825012 52.0
354.341827 84.0
355.796936 56.0
355.894562 60.0
355.958405 124.0
356.529388 68.0
356.709778 100.0
357.003052 96.0
357.138428 40.0
360.357727 48.0
361.128876 84.0
361.242371 52.0
361.302887 132.0
361.844055 92.0
364.571259 116.0
365.008392 76.0
365.700775 96.0
366.268097 64.0
369.31015 40.0
369.853455 80.0
370.044861 80.0
374.903839 72.0
376.450745 136.0
377.32782 76.0
377.358765 56.0
377.517303 96.0
377.679718 76.0
377.91571 68.0
379.290466 116.0
379.685944 108.0
381.009521 64.0
381.658569 52.0
383.262177 56.0
384.748138 80.0
385.220642 60.0
387.50531 116.0
387.971649 68.0
389.572754 176.0
389.61203 56.0
390.516113 52.0
391.090546 76.0
391.887909 116.0
393.77948 88.0
394.747681 80.0
398.016724 72.0
398.38208 152.0
400.494263 72.0
401.741913 60.0
402.280609 148.0
402.871643 112.0
402.943542 108.0
403.978943 100.0
404.743347 32.0
405.115814 96.0
405.644775 140.0
406.17807 132.0
407.157379 64.0
410.19104 84.0
410.344238 52.0
410.900787 72.0
411.316437 60.0
411.663666 84.0
413.583984 76.0
413.62851 72.0
413.89978 76.0
414.924835 108.0
415.078888 60.0
415.529114 44.0
418.650757 68.0
419.029572 100.0
420.187408 60.0
420.787323 40.0
421.616516 72.0
422.53244 56.0
424.141754 84.0
424.346741 104.0
424.797821 88.0
425.220459 80.0
425.31485 56.0
425.865021 88.0
426.304626 52.0
426.870911 136.0
428.765533 108.0
431.093018 120.0
431.547699 100.0
431.708954 64.0
432.751678 112.0
432.97113 104.0
434.861633 40.0
435.073334 80.0
436.124237 60.0
436.860229 60.0
437.139008 64.0
438.467438 108.0
438.792542 68.0
439.038574 100.0
439.372253 120.0
439.660156 40.0
439.718567 60.0
439.772827 48.0
442.129974 100.0
442.192749 88.0
442.837494 80.0
443.956451 92.0
444.342346 56.0
446.614929 124.0
447.027222 96.0
447.738647 108.0
448.138824 96.0
449.146362 28.0
451.866821 56.0
452.319641 88.0
452.421234 80.0
453.586151 52.0
453.882904 104.0
454.090698 60.0
455.257751 92.0
455.767487 100.0
456.192474 104.0
456.36676 220.0
456.711243 60.0
458.12442 60.0
458.260773 84.0
459.471558 56.0
459.71048 76.0
460.423401 60.0
461.644806 64.0
461.863708 60.0
464.407898 52.0
467.630249 88.0
468.288971 68.0
469.970184 80.0
470.401733 64.0
470.747131 56.0
471.382141 44.0
472.082397 44.0
473.18576 100.0
476.103912 44.0
477.311951 68.0
478.92215 104.0
480.21225 40.0
480.316925 60.0
484.947266 48.0
485.056824 92.0
487.431122 88.0
487.892609 92.0
488.763428 56.0
489.467682 80.0
491.508514 56.0
492.351654 72.0
492.952423 44.0
495.784576 92.0
496.547089 56.0
496.662415 92.0
496.935211 20.0
497.834045 48.0
498.411499 80.0
498.71814 68.0
501.116699 80.0
501.170166 76.0
502.222229 56.0
503.494171 80.0
506.992554 68.0
507.700867 100.0
508.723846 112.0
510.059998 140.0
512.303345 92.0
512.46106 36.0
516.858765 64.0
517.039795 100.0
518.851562 100.0
519.11908 68.0
520.916321 96.0
521.170776 60.0
521.643372 52.0
522.844116 100.0
524.780029 72.0
526.61908 108.0
529.019592 116.0
530.746826 68.0
531.136597 48.0
532.692688 88.0
534.720337 68.0
536.927124 84.0
537.060852 52.0
537.263855 68.0
537.739075 80.0
538.713379 52.0
539.018311 100.0
543.825256 32.0
544.363831 136.0
548.294678 72.0
552.239746 44.0
552.890076 96.0
556.072205 64.0
557.476379 80.0
558.035706 136.0
563.56427 104.0
565.877075 40.0
566.317444 124.0
566.81488 108.0
573.039124 48.0
573.429871 108.0
573.649109 80.0
583.943665 80.0
585.276611 68.0
586.047241 92.0
587.165588 32.0
589.540771 112.0
591.213989 128.0
594.227844 72.0
597.361267 132.0
597.838074 84.0
602.357666 76.0
602.670288 120.0
606.590332 116.0
613.945618 96.0
615.272888 80.0
615.406189 64.0
616.463196 180.0
618.287964 64.0
620.229431 40.0
621.717346 60.0
624.949097 104.0
626.804382 36.0
628.070679 92.0
631.186951 92.0
634.59668 188.0
638.759827 44.0
640.909485 108.0
644.274658 124.0
646.145142 80.0
646.53479 88.0
647.035889 96.0
649.18927 64.0
649.300842 108.0
653.471191 104.0
654.188721 64.0
654.244751 104.0
655.288757 56.0
658.594299 76.0
659.304443 40.0
663.127441 28.0
664.332397 40.0
665.199646 48.0
665.795227 84.0
669.456665 64.0
671.662476 64.0
672.415771 56.0
674.290527 64.0
674.662659 48.0
677.053101 72.0
678.379517 80.0
679.157288 96.0
681.898621 44.0
681.981812 60.0
689.199341 80.0
689.559937 80.0
689.612183 52.0
689.706299 52.0
695.86676 84.0
696.239563 72.0
697.67926 56.0
703.711487 92.0
704.725525 172.0
708.53479 72.0
709.435669 92.0
710.018921 112.0
712.253357 124.0
713.752014 36.0
717.473572 72.0
721.921204 96.0
723.237305 48.0
724.961792 80.0
727.412842 36.0
730.653259 68.0
731.191345 108.0
734.467102 28.0
738.344971 84.0
743.176819 44.0
743.263611 76.0
743.822571 36.0
744.349182 156.0
748.68866 80.0
753.14447 128.0
757.049316 100.0
757.323181 56.0
759.603333 56.0
763.7724 112.0
764.366577 36.0
766.266113 44.0
770.541809 52.0
772.614929 48.0
776.431274 84.0
778.179138 288.0
779.351074 84.0
782.487915 148.0
783.774475 92.0
786.657837 160.0
790.900391 60.0
791.398621 52.0
794.290283 44.0
796.867004 128.0
799.430969 132.0
809.694153 112.0
827.219604 40.0
827.614624 80.0
832.316284 60.0
833.50531 168.0
837.87793 100.0
839.595642 44.0
849.549805 116.0
850.00238 112.0
852.853821 192.0
855.785706 76.0
862.190491 256.0
863.72229 76.0
865.712158 92.0
867.786438 88.0
871.45459 116.0
874.000488 144.0
875.719421 56.0
877.216064 112.0
880.260376 116.0
882.972778 108.0
885.203796 88.0
890.250183 100.0
892.193054 96.0
894.007141 128.0
894.608276 48.0
897.879395 68.0
902.41156 80.0
904.164185 168.0
906.086243 148.0
907.524658 200.0
907.56665 180.0
907.914429 88.0
910.104614 68.0
915.835632 48.0
919.26593 84.0
920.062683 160.0
921.790039 36.0
927.836487 180.0
928.139648 92.0
933.209473 140.0
938.762634 84.0
939.110229 204.0
940.202271 112.0
943.586182 212.0
948.177002 160.0
948.397644 64.0
950.298645 68.0
954.690491 76.0
955.557739 120.0
955.631592 104.0
959.141785 180.0
960.078918 100.0
965.927795 100.0
969.438171 60.0
973.190918 72.0
974.178345 112.0
977.460999 172.0
982.002441 100.0
982.663635 132.0
982.757202 228.0
987.571167 52.0
988.46814 116.0
993.574463 100.0
999.499207 168.0
999.807556 84.0
999.939697 28.0
1004.091431 92.0
1011.464722 120.0
1016.693481 44.0
1017.194885 96.0
1019.373291 60.0
1023.310486 56.0
1027.701782 40.0
1031.987427 164.0
1032.096191 72.0
1036.563965 88.0
1044.550537 132.0
1044.608521 168.0
1053.982422 220.0
1055.417358 68.0
1057.435547 108.0
1064.294067 144.0
1064.859009 132.0
1065.027832 196.0
1065.170776 176.0
1069.058594 112.0
1071.461182 96.0
1074.355713 152.0
1081.661377 76.0
1082.735229 196.0
1084.300903 164.0
1085.061279 68.0
1086.208862 120.0
1088.223633 84.0
1092.626953 184.0
1092.718994 88.0
1093.205933 196.0
1094.002319 196.0
1094.153687 156.0
1095.477417 200.0
1096.09668 100.0
1099.15625 152.0
1099.631348 144.0
1107.360107 92.0
1108.035767 80.0
1108.141724 180.0
1108.890503 44.0
1109.937866 52.0
1111.981079 204.0
1112.259888 64.0
1112.963501 172.0
1115.281982 148.0
1119.306885 184.0
1119.879639 196.0
1121.012085 36.0
1129.176636 132.0
1134.660645 184.0
1136.303711 156.0
1136.404419 204.0
1137.263306 148.0
1137.719849 36.0
1137.860718 224.0
1138.505371 120.0
1140.003418 128.0
1140.050415 140.0
1140.803833 84.0
1142.511353 220.0
1143.453369 204.0
1147.663452 132.0
1148.998901 224.0
1151.509888 120.0
1152.077271 164.0
1153.198975 56.0
1160.645386 140.0
1161.852661 160.0
1162.809448 48.0
1163.759766 36.0
1165.396606 40.0
1166.422729 132.0
1168.068359 76.0
1168.37439 72.0
1169.817139 148.0
1172.10791 176.0
1173.591309 56.0
1176.047119 132.0
1176.75708 72.0
1178.259521 204.0
1178.437256 124.0
1179.851929 160.0
1181.582153 188.0
1183.046631 180.0
1183.62854 160.0
1185.018921 184.0
1185.717896 96.0
1187.260376 184.0
1187.5896 112.0
1191.00769 168.0
1194.038696 108.0
1194.74707 152.0
1197.776001 124.0
1197.899902 148.0
1198.726685 172.0
1199.636475 192.0
1200.86377 116.0
1207.625366 224.0
1210.982178 160.0
1211.11377 208.0
1212.783569 168.0
1213.629272 168.0
1213.83728 188.0
1214.51001 212.0
1216.591675 156.0
1217.924927 48.0
1221.281982 172.0
1222.958862 92.0
1223.014526 156.0
1223.327759 144.0
1223.383423 68.0
1224.636719 160.0
1225.284546 180.0
1225.605103 104.0
1225.660767 168.0
1226.239258 180.0
1227.17334 176.0
1227.647461 176.0
1227.814819 92.0
1229.223999 180.0
1229.419312 168.0
1232.945923 72.0
1236.785645 128.0
1236.876587 128.0
1237.142578 52.0
1237.373657 132.0
1238.150879 112.0
1238.732178 216.0
1240.603149 52.0
1243.310547 160.0
1245.585327 36.0
1247.391235 156.0
1248.023926 68.0
1249.022583 108.0
1252.56311 68.0
1252.865967 140.0
1253.387329 80.0
1255.283447 196.0
1255.339966 112.0
1255.459839 160.0
1256.496704 164.0
1257.795044 132.0
1259.115356 140.0
1259.284912 196.0
1260.393921 140.0
1260.655396 60.0
1260.980469 124.0
1261.418701 208.0
1262.769165 140.0
1262.854126 316.0
1263.844482 156.0
1266.527466 192.0
1266.68335 176.0
1269.745239 216.0
1270.333862 184.0
1270.759521 92.0
1271.582642 68.0
1273.052246 104.0
1273.577759 152.0
1275.005737 164.0
1276.463013 132.0
1277.088867 192.0
1277.188477 140.0
1278.782227 156.0
1279.543823 140.0
1280.134766 132.0
1280.412598 136.0
1280.562134 244.0
1280.88269 204.0
1284.717651 132.0
1284.7854 40.0
1285.031616 184.0
1285.859375 176.0
1286.681396 120.0
1288.594238 148.0
1293.557129 176.0
1296.264404 200.0
1296.923706 252.0
1298.82373 192.0
1301.414429 140.0
1302.189941 140.0
1302.4198 140.0
1303.734619 160.0
1304.610474 144.0
1305.179443 184.0
1308.913818 68.0
1309.165894 132.0
1309.453857 124.0
1309.936523 120.0
1310.368774 268.0
1311.125244 192.0
1312.242554 56.0
1313.078979 172.0
1313.814697 168.0
1313.872437 160.0
1314.593994 144.0
1314.774414 224.0
1315.525024 56.0
1315.669434 160.0
1316.095337 92.0
1316.766968 168.0
1318.312866 164.0
1318.399658 204.0
1319.122437 128.0
1319.216309 148.0
1320.300903 156.0
1320.734863 36.0
1320.937378 164.0
1322.341064 228.0
1322.507568 148.0
1324.194458 96.0
1326.057373 180.0
1326.266602 152.0
1326.331909 56.0
1326.447876 152.0
1326.882812 180.0
1327.60791 84.0
1329.980225 136.0
1330.205322 204.0
1332.173096 148.0
1332.652588 204.0
1333.59729 100.0
1333.938965 224.0
1334.164307 204.0
1334.389648 132.0
1336.653931 128.0
1337.415771 144.0
1338.114624 128.0
1338.697144 148.0
1339.811523 64.0
1340.000854 144.0
1341.837524 184.0
1344.018311 56.0
1348.143921 72.0
1348.377808 188.0
1350.68811 124.0
1352.997803 176.0
1355.234253 88.0
1356.194336 156.0
1359.722046 184.0
1360.734985 252.0
1362.064209 216.0
1362.842896 132.0
1362.982544 68.0
1363.408569 172.0
1365.217163 96.0
1365.422974 48.0
1367.137085 128.0
1369.323608 104.0
1371.460205 152.0
1371.924561 148.0
1372.256348 196.0
1373.04541 220.0
1373.207642 160.0
1373.539551 140.0
1373.672241 172.0
1375.229126 180.0
1375.413696 40.0
1375.804932 188.0
1377.289185 104.0
1378.153442 96.0
1378.803711 176.0
1381.480347 72.0
1381.745117 76.0
1382.878784 204.0
1384.196533 76.0
1384.337158 68.0
1385.522217 116.0
1385.596313 112.0
1385.89563 160.0
1386.307617 64.0
1386.937622 160.0
1387.32312 200.0
1388.279541 108.0
1388.961792 76.0
1389.40686 132.0
1389.771729 120.0
1390.178589 220.0
1391.677979 188.0
1392.131592 248.0
1393.155884 140.0
1393.31189 104.0
1393.928589 196.0
1394.366943 144.0
1394.857544 136.0
1395.615845 120.0
1396.193237 208.0
1396.374268 88.0
1397.192505 176.0
1397.252075 120.0
1397.646362 40.0
1397.906738 132.0
1399.008301 100.0
1399.492188 76.0
1399.938965 180.0
1400.527344 172.0
1401.346802 36.0
1401.927979 128.0
1403.284546 156.0
1403.776733 156.0
1404.649292 100.0
1405.477417 112.0
1406.253418 196.0
1407.208984 116.0
1407.477783 164.0
1407.993042 200.0
1408.560669 220.0
1409.166748 208.0
1410.174561 148.0
1410.40625 52.0
1410.622925 208.0
1411.587402 156.0
1412.619507 144.0
1413.434937 164.0
1413.659424 168.0
1413.749268 116.0
1414.864502 188.0
1415.523193 144.0
1416.916504 60.0
1417.118774 36.0
1417.485962 68.0
1417.733276 140.0
1418.287842 136.0
1418.984985 200.0
1419.172363 172.0
1419.907227 116.0
1420.567261 192.0
1421.430054 204.0
1421.550171 156.0
1422.676025 160.0
1423.637085 88.0
1423.734619 88.0
1424.192749 116.0
1424.470703 184.0
1425.349731 148.0
1425.620239 200.0
1425.770508 60.0
1425.890747 204.0
1427.732666 192.0
1428.416992 92.0
1430.057373 184.0
1430.237915 200.0
1430.757324 184.0
1431.103638 132.0
1431.186523 72.0
1432.180542 180.0
1432.539795 80.0
1433.046875 88.0
1433.740112 148.0
1433.800415 52.0
1434.874268 160.0
1435.292969 144.0
1435.549316 96.0
1435.964111 164.0
1437.171021 160.0
1437.774658 140.0
1438.770996 216.0
1439.405273 116.0
1439.526123 244.0
1439.865845 116.0
1442.548218 160.0
1443.213501 124.0
1444.090698 92.0
1444.680664 124.0
1444.816772 172.0
1445.331299 168.0
1445.414551 36.0
1445.7323 144.0
1446.466431 88.0
1447.382568 188.0
1448.033813 52.0
1448.83667 40.0
1450.185425 188.0
1450.299194 128.0
1450.814575 176.0
1451.102661 164.0
1451.694092 172.0
1451.769897 200.0
1452.543579 120.0
1453.658813 152.0
1453.977539 152.0
1454.126709 192.0
1454.275391 144.0
1454.546753 176.0
1455.062988 52.0
1455.579224 204.0
1455.640015 136.0
1456.915894 116.0
1457.273071 176.0
1457.622559 212.0
1459.013428 44.0
1459.743286 100.0
1461.728638 180.0
1461.865601 84.0
1462.809326 120.0
1462.877808 192.0
1463.219482 152.0
1463.715332 248.0
1464.575928 140.0
1465.086304 120.0
1465.787231 44.0
1466.61792 164.0
1466.678833 68.0
1466.937988 164.0
1467.235352 156.0
1467.868164 140.0
1467.929077 116.0
1469.134155 180.0
1469.34021 188.0
1470.958008 176.0
1471.889404 220.0
1472.553711 228.0
1472.668335 124.0
1473.004395 196.0
1473.108521 152.0
1474.012817 156.0
1475.014038 168.0
1475.136353 200.0
1475.258667 220.0
1475.345947 160.0
1475.709717 204.0
1475.885498 192.0
1475.984985 260.0
1476.114868 32.0
1477.545166 132.0
1478.057861 184.0
1478.41748 132.0
1479.458374 100.0
1479.620361 256.0
1481.334473 180.0
1481.395752 132.0
1481.740479 168.0
1482.330444 156.0
1482.843994 44.0
1483.832764 276.0
1484.814209 72.0
1484.890991 180.0
1485.880493 184.0
1486.471191 164.0
1486.724487 172.0
1487.269409 112.0
1488.682007 136.0
1489.035278 188.0
1489.93396 176.0
1491.709106 188.0
1491.888062 156.0
1493.585327 144.0
1494.046875 132.0
1494.154541 128.0
1494.423828 96.0
1495.108643 180.0
1495.20105 124.0
1496.33252 176.0
1496.941528 220.0
1497.11792 152.0
1497.218018 148.0
1497.541504 140.0
1497.710938 68.0
1498.234741 88.0
1498.558228 184.0
1498.951294 228.0
1500.20752 112.0
1500.415649 140.0
1501.094116 200.0
1501.209839 176.0
1503.933105 156.0
1504.002563 176.0
