>compound MLS001401388-01!FENOLDOPAM MESYLATE
>formula C16H16ClNO3
>ionization [M+H]+
>parentmass 306.08914750409053
#inchi InChI=1S/C16H16ClNO3/c17-15-11-5-6-18-8-13(9-1-3-10(19)4-2-9)12(11)7-14(20)16(15)21/h1-4,7,13,18-21H,5-6,8H2
#inchikey TVURRHSHRRELCG
#origInchi InChI=1S/C16H16ClNO3.CH4O3S/c17-15-11-5-6-18-8-13(9-1-3-10(19)4-2-9)12(11)7-14(20)16(15)21;1-5(2,3)4/h1-4,7,13,18-21H,5-6,8H2;1H3,(H,2,3,4)
#Ion_Source LC-ESI
#Instrument qTof
#Compound_Source NIH Pharmacologically Active Library
#PI Dorrestein
#Data_Collector VP/LMS
#Scan -1
#Precursor_MZ 306.089
#ExactMass 305.082
#Charge 1
#CAS_Number N/A
#Pubmed_ID N/A
#Smiles Oc1ccc(cc1)C2CNCCc3c(Cl)c(O)c(O)cc23.CS(=O)(=O)O
#INCHI_AUX N/A
#Library_Class 1
#SpectrumID CCMSLIB00000085223
#IonMode Positive
#UpdateWorkflowName UPDATE-SINGLE-ANNOTATED-GOLD
#LibraryQualityString Gold
#TaskID d252d724072548979f1f6f1ced849daf
##Scan# 1201
#SpectrumFile p3-G03_GG3_01_18296.mzXML
#LibraryName Pharm_Active_Library.mgf
#MQScore -1
#Organism Pharm_Active_Library
#TIC_Query 0
#RT_Query -1
#MZErrorPPM -1
#SharedPeaks 0
#MassDiff 0
#LibMZ -1
#SpecMZ 306.089
#SpecCharge 0
#internalFilename spec-00000.mgf

>collision 10
45.034306 180.0
45.046329 104.0
45.15728 136.0
45.249622 192.0
45.410439 192.0
45.500351 236.0
45.652199 160.0
45.798908 168.0
45.945858 148.0
46.051155 288.0
46.08493 216.0
46.163338 164.0
46.316284 136.0
46.448467 204.0
46.599056 160.0
46.650124 152.0
46.836563 196.0
46.95742 284.0
46.968498 148.0
47.067062 172.0
47.091648 180.0
47.131268 184.0
47.472141 168.0
47.711071 232.0
47.746498 184.0
47.794975 176.0
47.912018 228.0
47.951981 124.0
47.985065 192.0
48.123047 68.0
48.229427 144.0
48.248783 40.0
48.268143 180.0
48.435616 208.0
48.446697 204.0
48.715542 256.0
48.79229 76.0
48.824272 156.0
48.853065 160.0
48.934208 112.0
48.985741 132.0
49.1091 252.0
49.263367 172.0
49.394779 108.0
49.42556 204.0
49.540375 252.0
49.69672 136.0
49.955936 196.0
50.006596 168.0
50.074181 156.0
50.116978 192.0
50.201027 40.0
50.478497 152.0
50.514603 164.0
50.534412 156.0
50.612267 180.0
50.793682 160.0
50.920017 60.0
50.955532 92.0
50.974007 64.0
51.074955 156.0
51.228703 32.0
51.322773 116.0
51.624096 136.0
51.649841 52.0
51.889011 64.0
52.144543 140.0
52.210682 220.0
52.301331 48.0
52.315727 160.0
52.394028 164.0
52.514595 156.0
52.533348 128.0
52.978634 120.0
53.009064 108.0
53.087349 184.0
53.272057 112.0
53.398163 292.0
53.6049 92.0
53.670502 160.0
53.688 188.0
53.759491 180.0
53.825184 72.0
53.943535 236.0
54.01812 152.0
54.03714 220.0
54.43586 172.0
54.45789 72.0
54.762371 236.0
54.782993 180.0
54.793308 72.0
54.836044 172.0
54.98354 148.0
55.109066 152.0
55.151924 144.0
55.177059 84.0
55.231777 156.0
55.290451 196.0
55.52951 180.0
55.669025 168.0
55.78344 56.0
56.12738 196.0
56.158699 184.0
56.266148 176.0
56.391636 160.0
56.406586 160.0
56.493324 180.0
56.779434 172.0
57.106873 232.0
57.42017 136.0
57.485043 160.0
57.542404 132.0
57.60886 164.0
57.710125 112.0
57.744911 76.0
57.763062 144.0
58.043266 192.0
58.16161 124.0
58.223866 204.0
58.778023 184.0
58.860458 168.0
58.901695 156.0
58.997974 184.0
59.115757 136.0
59.131062 204.0
59.201492 132.0
59.743347 148.0
59.755245 132.0
59.79105 200.0
59.883434 152.0
59.920406 224.0
60.279945 116.0
60.449986 172.0
60.552238 204.0
60.728943 64.0
60.775482 144.0
60.80497 192.0
60.925945 208.0
60.983593 172.0
61.050449 184.0
61.089336 168.0
61.122013 152.0
61.508545 56.0
61.74762 224.0
62.203609 48.0
62.60614 152.0
62.651821 76.0
62.844181 192.0
62.872589 96.0
63.082672 156.0
63.381817 276.0
63.403324 164.0
64.103294 204.0
64.192566 148.0
64.372902 104.0
64.540695 212.0
64.571083 176.0
64.705505 200.0
64.850121 132.0
65.07589 216.0
65.181908 176.0
65.52787 224.0
65.6259 200.0
65.752022 64.0
65.800453 168.0
66.005669 172.0
66.0364 136.0
66.156143 172.0
66.175575 132.0
66.206345 168.0
66.241982 144.0
66.374886 172.0
66.610229 164.0
66.722366 208.0
66.79718 92.0
66.863892 180.0
67.204498 128.0
67.253456 160.0
67.480545 188.0
67.495255 172.0
67.545723 168.0
67.588501 176.0
67.708008 196.0
68.17067 164.0
68.224907 248.0
68.241356 180.0
68.446625 152.0
68.47998 100.0
68.514572 148.0
68.549179 188.0
68.625008 208.0
68.943611 128.0
69.203331 196.0
69.355751 116.0
69.38559 124.0
69.749168 152.0
69.942131 44.0
69.968773 168.0
70.070366 140.0
70.153702 144.0
70.170372 212.0
70.192505 88.0
70.382286 236.0
70.425713 108.0
70.464134 164.0
70.527641 216.0
70.691551 164.0
70.820473 224.0
70.848953 180.0
71.024979 124.0
71.07531 164.0
71.201218 180.0
71.349098 156.0
71.490395 168.0
71.650208 208.0
71.795334 132.0
71.867874 284.0
72.127495 200.0
72.166855 56.0
72.182076 156.0
72.208023 168.0
72.780258 116.0
72.912773 172.0
72.987572 144.0
73.052208 176.0
73.091339 244.0
73.191772 128.0
73.435486 180.0
73.464485 52.0
73.64373 148.0
73.686035 152.0
74.112495 148.0
74.177628 188.0
74.385201 204.0
74.529472 136.0
74.587906 172.0
74.670441 160.0
75.182152 164.0
75.389397 112.0
75.569244 152.0
75.711197 148.0
75.88102 104.0
75.959061 120.0
76.150002 216.0
76.231659 192.0
76.295975 132.0
76.32032 64.0
76.334229 52.0
76.375977 216.0
76.473419 164.0
76.586601 156.0
76.750427 236.0
76.797516 200.0
76.82019 108.0
76.878082 180.0
76.994751 180.0
77.097832 68.0
77.114342 152.0
77.313156 204.0
77.395226 196.0
77.407486 176.0
77.47229 204.0
77.816055 164.0
77.939011 160.0
78.06031 100.0
78.352509 188.0
78.371887 204.0
78.502335 116.0
78.514679 172.0
78.788292 176.0
78.811264 156.0
79.292625 140.0
79.39901 92.0
79.471741 132.0
79.716797 124.0
79.91774 140.0
80.115379 176.0
80.131409 212.0
80.165833 192.0
80.243706 180.0
80.380081 176.0
80.488159 80.0
80.575684 200.0
80.614998 224.0
80.706169 124.0
80.729416 184.0
80.822433 168.0
80.987144 164.0
81.098244 208.0
81.220177 136.0
81.388885 124.0
81.414024 76.0
81.804214 188.0
81.816818 212.0
81.890656 212.0
81.948303 76.0
82.619957 212.0
82.721306 36.0
83.060181 36.0
83.096466 36.0
83.245316 188.0
83.345535 216.0
83.485207 168.0
83.527046 40.0
83.869392 112.0
84.311096 152.0
84.48481 132.0
84.508598 224.0
84.583633 152.0
84.764961 192.0
85.135536 84.0
85.253426 148.0
85.516129 216.0
85.68187 148.0
85.707664 108.0
85.794296 112.0
85.973221 200.0
86.102455 156.0
86.137558 188.0
86.279854 172.0
86.557411 120.0
86.802025 176.0
86.846535 152.0
86.896622 148.0
87.061836 164.0
87.178879 152.0
87.319702 208.0
87.376465 188.0
87.558418 136.0
87.688705 164.0
87.778328 224.0
87.886528 164.0
88.015327 60.0
88.114326 148.0
88.26796 168.0
88.338676 64.0
88.508995 176.0
88.962738 180.0
89.011971 220.0
89.034363 256.0
89.064148 164.0
89.171249 128.0
89.263374 164.0
89.372482 104.0
89.417648 136.0
89.634224 224.0
89.649307 168.0
89.67598 184.0
89.769958 116.0
90.043617 196.0
90.10218 128.0
90.467194 100.0
90.495598 172.0
90.535362 100.0
90.719162 144.0
90.743813 176.0
90.891762 168.0
91.037941 140.0
91.053017 520.0
91.102524 180.0
91.12722 212.0
91.248871 136.0
91.347763 164.0
91.378204 160.0
91.479073 156.0
91.608574 196.0
91.728638 72.0
91.892654 92.0
91.921272 164.0
91.940361 180.0
92.046982 212.0
92.091194 36.0
92.11985 256.0
92.186729 136.0
92.316727 128.0
92.38176 76.0
92.504242 284.0
92.565514 140.0
92.904778 228.0
93.031441 168.0
93.067924 144.0
93.171646 156.0
93.263885 96.0
93.402336 228.0
93.523567 160.0
93.65258 156.0
93.808868 116.0
93.870369 124.0
93.893509 188.0
93.984184 52.0
94.063393 232.0
94.101929 104.0
94.27578 188.0
94.312508 184.0
94.354378 164.0
94.658829 156.0
94.864212 56.0
94.935959 164.0
95.001907 144.0
95.100876 216.0
95.267883 172.0
95.281479 164.0
95.361153 172.0
95.448647 180.0
95.600105 168.0
95.633469 188.0
95.658775 152.0
95.810684 100.0
95.83017 92.0
95.886681 192.0
96.042671 176.0
96.081688 192.0
96.107048 160.0
96.128517 132.0
96.261269 116.0
96.290558 144.0
96.48011 116.0
96.548553 164.0
96.638535 48.0
96.748146 192.0
96.804924 176.0
96.904831 132.0
96.932266 160.0
96.996941 104.0
97.053925 408.0
97.117607 60.0
97.342262 204.0
97.792496 188.0
97.85746 136.0
98.024696 200.0
98.062889 212.0
98.079605 164.0
98.622917 128.0
98.658501 184.0
98.702003 208.0
98.921623 76.0
98.943398 152.0
99.064209 136.0
99.143471 56.0
99.214828 156.0
99.236641 104.0
99.329857 116.0
99.488617 60.0
99.518402 140.0
99.581947 204.0
99.623665 72.0
99.717064 120.0
99.802544 228.0
99.816467 120.0
99.903984 136.0
100.174736 80.0
100.214584 144.0
100.423912 164.0
100.473785 124.0
100.567574 144.0
100.589531 156.0
100.74131 168.0
100.793259 168.0
100.895195 176.0
101.343536 148.0
101.399651 176.0
101.483849 204.0
101.644325 216.0
101.688477 192.0
101.706543 32.0
102.005859 160.0
102.046654 316.0
102.277428 140.0
102.382126 180.0
102.50502 136.0
102.625961 176.0
102.958939 128.0
102.979134 248.0
102.999336 52.0
103.05246 3156.0
103.102386 160.0
103.128662 52.0
103.179199 128.0
103.324821 140.0
103.405769 120.0
103.428032 80.0
103.508888 192.0
103.624481 104.0
103.685272 72.0
103.735947 72.0
103.9412 164.0
103.971245 112.0
103.997627 152.0
104.034172 152.0
104.054482 396.0
104.218994 196.0
104.428398 208.0
104.446701 180.0
104.473152 176.0
104.534195 148.0
104.678734 144.0
104.758171 64.0
105.035416 140.0
105.070099 152.0
105.129272 208.0
105.27626 152.0
105.368187 188.0
105.407005 152.0
105.45401 120.0
105.625778 164.0
105.867302 88.0
105.88369 120.0
105.939407 160.0
106.0476 188.0
106.076302 164.0
106.10067 180.0
106.129608 196.0
106.193184 184.0
106.279938 180.0
106.285812 212.0
106.316284 64.0
106.334755 132.0
106.644913 96.0
106.799126 196.0
106.858788 144.0
106.945221 172.0
107.001617 172.0
107.005508 240.0
107.027428 172.0
107.048347 30480.0
107.085152 208.0
107.114075 52.0
107.136742 44.0
107.157341 80.0
107.182068 96.0
107.215042 92.0
107.250084 92.0
107.276878 112.0
107.351112 128.0
107.443283 96.0
107.555374 124.0
107.621437 64.0
107.646217 88.0
107.708183 236.0
107.737495 84.0
107.757767 92.0
107.846626 84.0
108.051201 1240.0
108.149406 160.0
108.17347 32.0
108.328789 68.0
108.457268 136.0
108.480072 144.0
108.74559 156.0
108.764267 80.0
108.808853 168.0
108.839012 252.0
108.882622 124.0
109.02491 148.0
109.055824 168.0
109.125763 56.0
109.256798 100.0
109.32338 172.0
109.598267 176.0
109.719154 120.0
109.856804 112.0
110.036423 192.0
110.058456 332.0
110.097298 252.0
110.213837 152.0
110.619591 208.0
110.822746 252.0
110.990189 168.0
111.049164 152.0
111.385017 132.0
111.681404 128.0
111.72348 176.0
111.902382 144.0
112.140434 172.0
112.63842 104.0
112.779999 196.0
112.80748 168.0
112.892059 164.0
113.036758 320.0
113.294235 168.0
113.658928 164.0
113.745949 44.0
114.045334 332.0
114.292168 100.0
114.545525 212.0
114.586006 124.0
114.760788 164.0
115.051521 384.0
115.06958 172.0
115.403496 172.0
115.583176 36.0
115.611 96.0
116.232475 80.0
116.466492 52.0
116.573921 148.0
116.677101 132.0
116.778168 140.0
117.032944 208.0
117.067604 676.0
117.396301 240.0
117.420029 220.0
117.884201 176.0
118.040657 580.0
118.064362 288.0
118.085266 144.0
118.173965 144.0
118.247543 176.0
118.403435 64.0
118.477081 160.0
118.500916 56.0
118.598442 92.0
118.713348 168.0
118.79361 128.0
118.828316 128.0
119.049324 724.0
119.219193 224.0
119.262657 128.0
119.369194 188.0
119.438797 152.0
119.473602 136.0
119.567169 152.0
119.599823 100.0
119.649887 48.0
119.750061 188.0
119.848099 88.0
120.052437 212.0
120.07637 152.0
120.127174 68.0
120.520172 208.0
120.646942 96.0
121.026596 324.0
121.06292 1068.0
121.128403 104.0
121.292755 160.0
121.310295 92.0
121.714005 168.0
121.75573 100.0
121.782089 288.0
122.001839 220.0
122.062622 292.0
122.091995 168.0
122.13166 240.0
122.312027 192.0
122.345047 168.0
122.362663 128.0
122.543266 112.0
122.633629 160.0
122.653465 124.0
122.942406 232.0
123.019661 140.0
123.042625 288.0
123.070442 56.0
123.099152 108.0
123.265053 204.0
123.585472 132.0
123.645226 160.0
124.330063 164.0
124.56543 132.0
124.636528 144.0
124.847717 220.0
124.954498 120.0
125.014679 5756.0
125.045738 372.0
125.065765 172.0
125.377594 72.0
125.551491 44.0
125.85276 36.0
125.899651 180.0
126.017555 596.0
126.087326 152.0
126.116615 192.0
126.326584 108.0
126.35791 180.0
126.469803 164.0
126.514572 168.0
126.548157 160.0
126.711662 68.0
126.861824 164.0
126.973946 60.0
127.012283 2076.0
127.053154 560.0
127.126503 124.0
127.148949 88.0
127.223022 52.0
127.274666 148.0
127.681427 112.0
127.919945 164.0
128.016754 192.0
128.059784 232.0
128.077576 164.0
128.129395 76.0
128.192474 176.0
128.621017 204.0
128.873962 56.0
128.946289 76.0
128.991501 160.0
129.011108 148.0
129.145264 132.0
129.554993 152.0
129.745377 116.0
129.997162 168.0
130.019852 204.0
130.039474 456.0
130.063141 540.0
130.144714 32.0
130.485535 120.0
130.569672 140.0
130.705688 252.0
130.747772 200.0
130.815414 80.0
130.890564 112.0
130.906494 244.0
131.04805 3992.0
131.06958 388.0
131.15712 48.0
131.235855 120.0
131.252701 100.0
131.353241 196.0
131.50383 196.0
131.572327 168.0
131.691071 88.0
132.054382 516.0
132.079361 212.0
132.113968 112.0
132.303925 172.0
132.340561 48.0
132.546722 64.0
132.610901 236.0
133.037231 84.0
133.052948 248.0
133.090378 184.0
133.237381 64.0
133.658157 144.0
133.812378 60.0
133.849213 188.0
134.00354 156.0
134.032303 144.0
134.058075 216.0
134.153351 152.0
134.667953 216.0
134.855103 120.0
134.96376 188.0
135.041992 988.0
135.162704 72.0
135.561005 64.0
136.006317 164.0
136.051331 1524.0
136.074341 2664.0
136.103836 120.0
136.194412 48.0
136.229263 176.0
136.2827 64.0
136.384949 240.0
136.424469 108.0
136.545395 124.0
137.012909 1152.0
137.054672 564.0
137.0802 288.0
137.132126 200.0
137.624863 184.0
137.752838 80.0
138.022736 144.0
138.090561 2500.0
138.199402 80.0
138.239182 104.0
138.297684 188.0
138.370255 188.0
138.400696 60.0
138.663086 56.0
138.700592 164.0
139.00061 200.0
139.031311 152.0
139.095764 464.0
139.158066 48.0
139.259048 156.0
139.780991 128.0
139.971664 188.0
140.094147 176.0
140.16011 40.0
140.830139 184.0
140.891556 128.0
140.917557 160.0
141.00116 272.0
141.068466 300.0
141.328979 176.0
141.653336 204.0
141.733902 44.0
141.871368 132.0
142.013657 136.0
142.037369 144.0
142.061096 192.0
142.077698 168.0
142.588242 76.0
142.607254 64.0
142.783203 56.0
143.023499 316.0
143.042435 144.0
143.769562 256.0
143.919952 176.0
144.05423 308.0
144.240097 176.0
144.450531 80.0
144.491211 100.0
144.744934 128.0
145.012131 128.0
145.01796 112.0
145.062912 1364.0
145.130722 156.0
145.265045 120.0
145.293823 40.0
145.509842 200.0
145.574677 76.0
146.04335 284.0
146.063614 304.0
146.257507 180.0
146.346573 160.0
146.488678 96.0
146.654953 216.0
146.787552 160.0
147.044022 572.0
147.091553 64.0
147.137436 112.0
147.596512 100.0
147.73439 108.0
147.98851 196.0
148.04924 1436.0
148.075333 900.0
148.208939 112.0
148.490158 132.0
148.541092 104.0
148.558075 156.0
148.640579 96.0
148.703674 116.0
149.014984 4340.0
149.054352 208.0
149.219864 132.0
149.457062 160.0
149.478958 32.0
149.785736 124.0
150.017181 428.0
150.048676 256.0
150.192825 112.0
150.252609 260.0
150.34166 228.0
150.431976 196.0
150.475922 216.0
150.588257 224.0
150.766617 56.0
151.010254 1972.0
151.554596 148.0
151.574203 216.0
151.873306 184.0
152.059021 228.0
152.15062 136.0
152.24884 200.0
152.322525 64.0
152.383942 208.0
152.875748 124.0
153.008621 1496.0
153.067032 300.0
153.279617 48.0
153.364746 116.0
153.916061 116.0
154.012589 252.0
154.069656 176.0
154.118607 128.0
154.212524 140.0
154.261963 80.0
154.494431 36.0
154.51918 152.0
154.568665 144.0
154.717178 176.0
154.940079 160.0
155.006165 668.0
155.05928 584.0
155.08876 112.0
155.145782 188.0
155.391312 108.0
155.423569 60.0
155.599808 64.0
155.617188 84.0
155.950089 112.0
156.060837 160.0
156.099487 1640.0
156.62442 144.0
156.656799 76.0
156.893555 144.0
157.003342 1892.0
157.062515 284.0
157.102036 356.0
157.162933 220.0
157.270248 128.0
157.504974 68.0
157.68988 232.0
157.862381 144.0
158.009796 536.0
158.059464 332.0
158.272781 92.0
158.307663 108.0
158.453125 144.0
158.499268 144.0
158.937057 108.0
159.00383 1112.0
159.042343 2020.0
159.218231 100.0
159.394073 60.0
159.471985 112.0
159.547409 160.0
159.874405 140.0
160.007828 152.0
160.049881 7176.0
160.153885 68.0
160.201752 44.0
160.239548 164.0
160.486557 168.0
160.524384 168.0
160.608276 76.0
160.728714 80.0
160.753952 148.0
161.031662 148.0
161.054306 744.0
161.083755 160.0
161.112503 64.0
161.242279 100.0
161.552399 252.0
161.863724 64.0
161.919434 136.0
162.055206 672.0
162.077774 152.0
162.261536 224.0
162.758865 200.0
162.941742 136.0
163.05864 164.0
163.239151 84.0
163.506271 212.0
163.727783 64.0
163.781265 240.0
164.01825 124.0
164.062836 172.0
164.857971 44.0
165.008362 1808.0
165.069214 1028.0
165.098297 72.0
165.34903 92.0
166.008484 200.0
166.040787 120.0
166.079041 188.0
166.734009 248.0
166.811111 128.0
166.903671 48.0
167.003479 484.0
167.050278 116.0
167.085434 580.0
167.567764 140.0
167.645065 92.0
167.89772 88.0
168.013809 208.0
168.055908 428.0
168.367447 160.0
168.752487 108.0
169.002426 164.0
169.039612 200.0
169.061417 284.0
169.088852 164.0
169.228577 120.0
169.339935 180.0
169.394333 112.0
169.850571 136.0
170.003662 176.0
170.039993 140.0
170.069458 160.0
170.196945 192.0
170.323013 120.0
170.421738 164.0
170.696991 36.0
170.733688 144.0
170.978256 116.0
171.019089 7144.0
171.095901 184.0
171.25946 88.0
171.282898 40.0
171.321976 204.0
171.441833 140.0
171.710373 176.0
171.754715 296.0
171.989563 148.0
172.020142 672.0
172.169724 100.0
172.321243 156.0
172.627075 160.0
172.891312 84.0
172.91748 104.0
172.985535 256.0
173.016586 2504.0
173.050552 192.0
173.11908 148.0
173.18306 96.0
173.390228 80.0
174.019363 172.0
174.057907 160.0
174.076279 104.0
174.291687 40.0
175.173096 196.0
175.961655 68.0
176.067139 2080.0
176.123734 180.0
176.331482 144.0
176.368484 112.0
176.773148 176.0
177.008987 3836.0
177.077118 4120.0
177.14119 40.0
177.202133 56.0
177.252472 60.0
177.294876 44.0
177.38765 56.0
177.559998 44.0
177.885254 152.0
177.966019 56.0
178.011154 552.0
178.077209 1664.0
178.181168 116.0
178.212509 156.0
178.231659 96.0
178.250259 108.0
178.420364 68.0
178.606522 52.0
178.646423 196.0
178.67836 60.0
178.752853 96.0
178.86731 76.0
178.907242 120.0
178.939194 76.0
178.968475 156.0
179.006683 1996.0
179.03479 168.0
179.043625 216.0
179.08374 1292.0
179.413437 64.0
179.533417 140.0
179.706818 108.0
179.834915 52.0
179.998184 128.0
180.085632 180.0
180.203445 56.0
180.318359 232.0
180.695419 120.0
180.794434 100.0
181.00325 160.0
181.021988 128.0
181.064728 720.0
181.105011 132.0
181.678696 156.0
181.992722 88.0
182.031021 180.0
182.070328 640.0
182.304321 140.0
182.624268 100.0
182.903046 140.0
183.01738 1012.0
183.076523 464.0
183.356628 148.0
183.647827 52.0
183.736862 72.0
184.021103 332.0
184.061874 160.0
184.085068 320.0
184.239029 40.0
184.295761 144.0
184.574188 100.0
184.660721 52.0
185.026535 180.0
185.058548 160.0
185.459488 68.0
185.71167 204.0
185.888016 152.0
186.022583 208.0
186.276291 172.0
186.303452 92.0
186.3741 116.0
186.493668 100.0
186.621445 156.0
187.004684 156.0
187.032257 168.0
187.057678 164.0
187.75975 144.0
188.02713 348.0
189.06929 732.0
189.684738 52.0
190.074463 288.0
190.167511 72.0
191.081711 484.0
191.826218 152.0
192.066132 192.0
192.088196 84.0
192.137863 148.0
192.908386 144.0
193.065414 132.0
193.41185 120.0
193.80513 180.0
194.004684 188.0
194.031982 148.0
194.067169 480.0
194.110046 152.0
194.229309 40.0
194.251495 136.0
194.309769 180.0
194.515137 108.0
195.018875 3524.0
195.079254 620.0
195.170822 116.0
195.201401 128.0
195.264557 96.0
195.387772 72.0
195.504639 60.0
195.685577 120.0
195.735703 36.0
196.026138 512.0
196.050507 128.0
196.0858 224.0
196.15921 108.0
196.329285 200.0
196.390656 32.0
196.421341 116.0
196.538513 192.0
196.870712 52.0
196.960098 120.0
197.016708 1296.0
197.055893 624.0
197.093338 584.0
197.124939 108.0
197.150085 100.0
197.301025 108.0
197.464539 144.0
197.533157 52.0
197.916595 192.0
198.0289 1872.0
198.059708 160.0
198.097275 188.0
198.606033 40.0
198.900665 140.0
199.026703 468.0
199.060699 212.0
199.102829 148.0
199.350052 68.0
199.409073 80.0
199.873108 80.0
199.988495 28.0
200.028931 508.0
200.082245 200.0
200.613708 140.0
200.650528 72.0
200.8564 160.0
201.042618 188.0
201.062363 96.0
201.147049 216.0
201.669632 44.0
202.02594 168.0
202.518494 60.0
204.02536 196.0
205.058685 204.0
205.714767 172.0
205.743317 136.0
206.077393 308.0
206.154648 124.0
206.935577 208.0
207.024338 212.0
207.078339 4296.0
207.302231 36.0
207.534424 72.0
207.600372 92.0
208.010681 172.0
208.087387 3508.0
208.15712 104.0
208.191574 108.0
208.562225 56.0
208.674332 136.0
209.051163 128.0
209.091263 176.0
209.609848 164.0
209.883698 140.0
209.950027 124.0
210.026596 176.0
210.066208 292.0
210.105789 172.0
210.564774 72.0
210.605209 104.0
210.654312 108.0
210.67453 72.0
211.041595 196.0
211.072937 332.0
211.319275 68.0
211.6203 44.0
211.776688 84.0
211.878082 56.0
211.993973 108.0
212.045853 1872.0
212.118607 44.0
212.457916 72.0
212.571075 72.0
212.617508 48.0
212.663956 32.0
212.963028 64.0
213.021118 156.0
213.058899 132.0
213.084854 188.0
214.046432 624.0
214.242996 112.0
214.327484 36.0
214.901917 160.0
215.044922 128.0
215.088699 124.0
215.599854 68.0
215.895126 80.0
217.031357 128.0
217.062454 188.0
217.970688 136.0
218.043777 184.0
218.074295 176.0
218.108826 116.0
219.024261 208.0
219.079849 444.0
219.592865 76.0
220.050278 136.0
220.076385 148.0
220.954697 112.0
220.975418 136.0
221.055634 1252.0
222.068634 164.0
222.186386 208.0
222.581985 88.0
223.069504 440.0
223.093033 132.0
224.021561 44.0
224.083511 292.0
225.087814 1140.0
225.740814 160.0
225.794647 48.0
226.066193 240.0
226.138718 260.0
226.45311 80.0
226.668823 72.0
227.016571 116.0
227.040558 108.0
227.062912 256.0
228.036118 392.0
229.035294 192.0
229.708572 76.0
230.030945 184.0
231.019806 184.0
231.044601 116.0
231.104385 44.0
231.270844 56.0
232.022125 212.0
232.076706 140.0
232.364853 188.0
232.428574 80.0
233.058899 188.0
234.069321 404.0
234.984543 152.0
235.073624 1224.0
235.167252 64.0
236.079239 2956.0
236.240219 112.0
236.873917 188.0
236.987274 220.0
237.091278 1384.0
237.223267 112.0
237.545273 44.0
237.603561 80.0
237.812241 56.0
238.069214 160.0
238.094376 352.0
238.242157 32.0
238.37735 84.0
238.444962 84.0
238.727814 120.0
238.958511 184.0
239.068497 5560.0
239.17395 36.0
239.383301 196.0
239.438736 132.0
239.626648 168.0
240.030457 208.0
240.073029 612.0
240.101379 156.0
240.147644 144.0
241.076889 480.0
241.630478 112.0
241.744965 88.0
241.862579 56.0
242.092194 172.0
242.258957 56.0
242.327118 60.0
242.438675 72.0
242.565765 52.0
242.705276 76.0
243.021667 148.0
243.055389 456.0
243.133377 140.0
245.045273 180.0
245.076996 160.0
245.522781 28.0
246.018921 144.0
246.053253 180.0
249.012558 124.0
249.040817 76.0
250.487808 60.0
250.572861 88.0
251.228638 196.0
251.967422 92.0
252.071686 216.0
252.640823 216.0
252.840179 128.0
253.038223 180.0
253.084183 3140.0
253.140945 44.0
253.774704 156.0
253.803238 132.0
253.876175 76.0
254.091354 5792.0
254.171204 48.0
254.208527 152.0
254.507675 108.0
254.587067 80.0
254.901566 100.0
255.094513 1284.0
255.321213 68.0
255.531174 48.0
255.577042 96.0
256.022095 260.0
256.105194 424.0
257.037537 176.0
257.13089 80.0
258.041321 404.0
258.309967 48.0
259.014221 140.0
259.036652 164.0
259.780396 60.0
259.809265 80.0
260.019684 272.0
261.019409 416.0
262.018097 300.0
263.023834 144.0
268.090546 104.0
268.240479 56.0
270.115417 532.0
271.051758 436.0
272.063202 128.0
273.045929 724.0
274.035583 1380.0
274.146973 184.0
274.338165 152.0
274.588776 64.0
275.039856 300.0
276.036011 400.0
276.783173 68.0
277.043243 180.0
277.068024 196.0
279.059448 136.0
279.974548 52.0
280.061157 80.0
287.035736 152.0
288.048279 132.0
288.200317 112.0
289.001709 60.0
289.060028 520.0
289.495941 220.0
290.06424 260.0
291.057861 336.0
293.335419 72.0
303.734711 36.0
304.15564 784.0
305.154419 156.0
306.08609 868.0
306.69043 124.0
307.09317 148.0
307.974518 188.0
308.081696 360.0
312.47583 72.0
313.257416 40.0
315.116699 52.0
315.583282 48.0
321.779968 52.0
327.925171 152.0
330.586975 148.0
332.856323 84.0
337.049133 76.0
338.757812 104.0
350.351105 120.0
373.176422 56.0
374.184509 76.0
402.25174 68.0
408.921814 80.0
415.874054 92.0
419.478119 108.0
438.94577 60.0
441.759521 80.0
448.368805 80.0
460.956512 72.0
464.227142 104.0
475.813202 108.0
482.579742 80.0
507.156433 52.0
521.260681 64.0
551.520996 80.0
577.099182 40.0
586.494568 128.0
607.20874 96.0
656.271667 228.0
670.652222 96.0
694.882263 72.0
709.285217 80.0
734.024658 72.0
748.112366 68.0
762.427368 48.0
795.209351 128.0
817.022461 68.0
819.066223 132.0
830.504395 204.0
831.439636 160.0
874.570374 168.0
876.519836 160.0
907.250427 40.0
919.045166 212.0
922.911011 196.0
923.406921 232.0
924.144958 132.0
927.481995 148.0
929.264954 52.0
947.311646 156.0
951.7276 228.0
958.105896 192.0
961.003723 188.0
962.207336 108.0
967.14679 132.0
977.281433 100.0
979.105408 128.0
984.350281 264.0
988.757751 152.0
992.798767 172.0
993.275452 152.0
994.310791 132.0
996.05011 204.0
1003.570984 104.0
1004.214233 176.0
1004.365601 44.0
1006.075806 180.0
1007.237793 128.0
1016.183411 120.0
1016.932251 224.0
1017.414734 148.0
1023.448669 136.0
1031.692139 152.0
1042.47998 76.0
1049.251587 56.0
1052.051636 200.0
1057.216309 148.0
1059.476074 52.0
1061.984863 164.0
1062.309204 164.0
1062.834717 176.0
1065.237061 108.0
1069.561401 44.0
1074.410034 76.0
1075.029907 212.0
1075.852295 124.0
1076.368164 184.0
1082.600342 164.0
1091.624023 232.0
1093.68335 36.0
1096.271729 40.0
1097.029785 120.0
1097.748535 112.0
1100.335083 124.0
1102.006226 168.0
1102.2771 188.0
1103.400757 76.0
1105.424927 228.0
1120.105103 80.0
1126.041626 192.0
1128.835327 104.0
1130.460938 108.0
1131.230591 140.0
1132.898193 132.0
1134.097656 192.0
1134.741333 168.0
1141.980713 192.0
1142.148804 160.0
1143.312866 176.0
1146.033447 160.0
1147.172485 144.0
1147.27356 76.0
1148.548096 180.0
1148.804443 272.0
1150.437744 184.0
1152.051758 160.0
1155.926147 160.0
1157.537231 172.0
1157.828491 188.0
1158.383911 88.0
1159.807007 188.0
1160.654419 176.0
1161.814331 172.0
1164.848877 156.0
1165.127441 120.0
1166.935303 220.0
1168.83313 184.0
1169.32312 168.0
1169.493286 192.0
1169.799683 140.0
1171.304565 160.0
1171.815552 136.0
1172.926392 124.0
1174.38562 164.0
1175.586426 152.0
1177.279541 136.0
1180.309814 168.0
1180.984009 176.0
1181.579224 128.0
1183.030151 196.0
1186.01001 40.0
1188.094727 80.0
1189.240723 144.0
1189.316284 228.0
1190.126343 228.0
1190.298096 180.0
1191.541382 156.0
1191.616943 72.0
1191.871094 88.0
1192.81958 112.0
1193.933472 188.0
1194.862183 84.0
1196.610352 124.0
1197.305908 140.0
1201.041626 156.0
1201.579834 76.0
1202.255981 204.0
1204.700439 148.0
1206.476562 212.0
1206.891357 52.0
1209.160522 232.0
1209.963501 232.0
1212.124634 88.0
1220.079102 276.0
1221.810913 72.0
1221.866577 72.0
1222.631958 124.0
1223.154053 144.0
1223.571655 184.0
1224.080078 68.0
1224.651123 184.0
1226.316406 136.0
1227.048462 220.0
1227.369141 176.0
1228.617676 176.0
1229.992432 188.0
1230.285645 172.0
1230.718506 96.0
1231.102661 148.0
1236.619019 136.0
1238.656738 108.0
1240.569824 84.0
1240.836304 192.0
1240.885376 84.0
1242.701904 180.0
1243.628296 180.0
1244.871094 72.0
1246.810059 180.0
1248.187988 180.0
1249.707397 196.0
1250.748901 36.0
1250.932007 220.0
1253.164551 168.0
1253.615601 48.0
1253.876343 152.0
1257.127563 152.0
1257.43811 224.0
1259.196289 152.0
1262.376587 44.0
1262.440186 168.0
1265.752197 108.0
1266.54541 192.0
1269.493896 144.0
1270.855835 168.0
1278.00415 160.0
1279.605591 200.0
1280.866211 168.0
1282.276978 228.0
1283.681519 136.0
1285.593384 156.0
1287.213989 180.0
1289.528809 220.0
1289.686035 48.0
1291.251953 240.0
1293.0979 200.0
1294.315674 188.0
1296.571533 216.0
1299.461548 180.0
1299.540405 60.0
1300.961548 248.0
1301.011719 244.0
1303.719849 236.0
1306.459351 100.0
1312.53125 184.0
1313.180298 156.0
1313.728638 172.0
1314.616089 140.0
1316.103149 180.0
1316.709839 152.0
1316.77478 172.0
1316.868652 88.0
1317.518799 144.0
1317.670532 396.0
1320.30188 84.0
1320.902222 44.0
1321.408569 140.0
1322.276978 148.0
1323.639771 64.0
1324.420288 220.0
1325.775146 76.0
1327.486084 96.0
1328.030029 172.0
1328.12439 152.0
1329.720703 184.0
1330.787842 88.0
1332.45105 188.0
1332.879761 188.0
1334.122681 248.0
1336.835815 168.0
1337.978638 136.0
1340.047119 220.0
1340.404175 104.0
1340.717529 200.0
1341.410034 168.0
1343.058105 172.0
1343.838623 196.0
1344.342163 228.0
1345.853271 76.0
1346.057739 156.0
1346.461914 176.0
1351.459717 128.0
1352.740601 176.0
1357.12915 136.0
1357.202515 140.0
1358.603394 152.0
1358.816162 232.0
1359.60144 216.0
1360.68042 280.0
1361.091675 180.0
1367.757935 188.0
1368.584717 176.0
1369.718872 160.0
1372.136108 168.0
1372.89563 160.0
1373.861938 192.0
1374.297241 184.0
1377.375977 164.0
1377.60498 204.0
1377.870972 204.0
1379.097656 260.0
1379.319458 140.0
1380.080933 128.0
1380.502441 36.0
1380.576416 208.0
1380.968384 192.0
1381.020142 64.0
1381.811768 128.0
1383.077271 184.0
1384.609985 96.0
1385.209961 52.0
1386.217651 168.0
1387.203369 148.0
1387.841064 208.0
1387.943115 176.0
1389.480225 224.0
1390.333618 172.0
1391.380249 160.0
1391.833252 144.0
1391.996582 160.0
1394.671265 200.0
1394.723267 88.0
1395.744751 224.0
1396.217773 176.0
1397.303833 52.0
1397.437866 204.0
1399.194336 196.0
1400.788086 148.0
1401.093506 228.0
1401.786499 140.0
1402.508423 148.0
1403.195312 172.0
1403.993286 164.0
1405.903198 208.0
1406.119629 152.0
1406.64209 156.0
1407.090088 164.0
1407.276733 168.0
1407.724731 64.0
1410.369629 200.0
1410.60144 208.0
1411.543457 216.0
1414.341675 176.0
1414.409058 152.0
1418.491699 184.0
1419.578857 112.0
1423.248413 156.0
1423.444946 188.0
1424.728149 140.0
1426.47168 168.0
1426.569336 244.0
1429.690918 116.0
1429.78125 148.0
1431.964722 112.0
1432.544678 184.0
1433.260498 216.0
1434.737793 148.0
1435.160034 156.0
1436.713745 144.0
1445.449097 256.0
1446.553467 152.0
1447.257568 208.0
1448.431519 196.0
1454.862427 104.0
1460.858643 36.0
1461.193359 180.0
1462.75354 220.0
1463.286499 196.0
1465.739258 48.0
1466.501343 156.0
1467.896484 156.0
1468.255005 196.0
1468.949097 148.0
1469.93335 176.0
1470.551514 132.0
1471.345459 32.0
1471.452393 140.0
1471.872314 180.0
1471.933472 140.0
1473.132568 164.0
1474.676147 156.0
1475.049194 100.0
1475.669922 136.0
1476.24353 172.0
1477.268433 124.0
1477.436768 212.0
1479.020874 116.0
1480.138672 164.0
1481.793213 28.0
1482.574829 140.0
1484.867188 156.0
1485.864502 196.0
1487.706421 132.0
1488.70459 56.0
1489.472656 220.0
1490.194824 180.0
1490.817261 128.0
1494.45459 180.0
1495.562866 104.0
1495.88623 172.0
1495.955444 160.0
1497.695801 116.0
1497.988525 232.0
1498.342896 144.0
1498.705078 172.0
1499.452637 184.0
1499.622192 148.0
1500.084717 160.0
1500.439331 52.0
1503.694702 152.0
