>compound MLS002153161-01!Iofetamine hydrochloride116316-03-1
>formula C12H18IN
>ionization [M+H]+
>parentmass 304.055359
#inchi InChI=1S/C12H18IN/c1-9(2)14-10(3)8-11-4-6-12(13)7-5-11/h4-7,9-10,14H,8H2,1-3H3
#inchikey ISEHJSHTIVKELA
#origInchi InChI=1S/C12H18IN.ClH/c1-9(2)14-10(3)8-11-4-6-12(13)7-5-11;/h4-7,9-10,14H,8H2,1-3H3;1H
#Ion_Source LC-ESI
#Instrument qTof
#Compound_Source NIH Pharmacologically Active Library
#PI Dorrestein
#Data_Collector VP/LMS
#Scan -1
#Precursor_MZ 304.059
#ExactMass 303.048
#Charge 1
#CAS_Number N/A
#Pubmed_ID N/A
#Smiles CC(C)NC(C)Cc1ccc(I)cc1.Cl
#INCHI_AUX N/A
#Library_Class 1
#SpectrumID CCMSLIB00000084809
#IonMode Positive
#UpdateWorkflowName UPDATE-SINGLE-ANNOTATED-GOLD
#LibraryQualityString Gold
#TaskID d252d724072548979f1f6f1ced849daf
##Scan# 1617
#SpectrumFile p3-A11_GA11_01_18232.mzXML
#LibraryName Pharm_Active_Library.mgf
#MQScore -1
#Organism Pharm_Active_Library
#TIC_Query 0
#RT_Query -1
#MZErrorPPM -1
#SharedPeaks 0
#MassDiff 0
#LibMZ -1
#SpecMZ 304.059
#SpecCharge 0
#internalFilename spec-00000.mgf

>collision 10
44.889172 132.0
45.042656 144.0
45.084076 140.0
45.153595 52.0
45.303513 132.0
45.345051 124.0
45.421478 160.0
45.446968 112.0
45.460388 176.0
45.501999 160.0
45.538254 180.0
45.556324 212.0
45.581245 168.0
45.618877 204.0
45.654449 140.0
45.694191 160.0
45.704952 232.0
45.735909 172.0
45.755955 184.0
45.911724 152.0
46.013939 180.0
46.048721 164.0
46.059525 116.0
46.104111 156.0
46.120583 216.0
46.14872 188.0
46.162243 92.0
46.173061 92.0
46.217705 132.0
46.281322 108.0
46.311115 164.0
46.353111 120.0
46.377506 160.0
46.420891 180.0
46.480579 208.0
46.533516 100.0
46.665306 152.0
46.80954 72.0
46.831329 164.0
46.902893 156.0
46.930813 156.0
46.951267 180.0
47.034496 200.0
47.059067 300.0
47.125996 252.0
47.146492 156.0
47.199806 132.0
47.210747 112.0
47.265465 152.0
47.309261 248.0
47.35368 192.0
47.372852 172.0
47.420216 136.0
47.440777 232.0
47.543648 160.0
47.557373 204.0
47.579338 168.0
47.608173 120.0
47.637016 108.0
47.646633 172.0
47.691978 208.0
47.73735 124.0
47.748352 132.0
47.83366 164.0
47.84605 36.0
47.912155 160.0
47.925934 164.0
47.996231 100.0
48.052784 168.0
48.078999 188.0
48.105049 188.0
48.215099 168.0
48.22678 188.0
48.295918 132.0
48.394173 56.0
48.477283 48.0
48.588211 76.0
48.624287 184.0
48.633327 152.0
48.65799 172.0
48.68121 124.0
48.726688 156.0
48.775684 116.0
48.881248 204.0
49.001133 204.0
49.0513 108.0
49.144741 136.0
49.175442 256.0
49.215927 144.0
49.305901 216.0
49.33049 120.0
49.387821 116.0
49.449383 156.0
49.482483 260.0
49.547405 60.0
49.56702 52.0
49.617481 192.0
49.638512 212.0
49.658146 176.0
49.677784 128.0
49.690411 204.0
49.810326 172.0
49.827999 136.0
49.84301 164.0
49.898273 120.0
49.919365 200.0
49.936241 156.0
50.024887 72.0
50.055862 96.0
50.129112 164.0
50.150253 208.0
50.237679 180.0
50.267311 148.0
50.287067 236.0
50.318123 168.0
50.366138 248.0
50.465694 152.0
50.480618 128.0
50.508904 208.0
50.557827 304.0
50.606552 148.0
50.623543 192.0
50.736897 120.0
50.860069 188.0
50.894386 156.0
50.925629 144.0
51.010883 92.0
51.030788 108.0
51.049271 136.0
51.107594 92.0
51.244282 140.0
51.362606 104.0
51.391136 164.0
51.623974 136.0
51.676991 184.0
51.72253 176.0
51.82724 176.0
51.842388 196.0
51.863068 96.0
51.906075 148.0
51.918983 196.0
51.933193 88.0
51.954842 184.0
52.107021 148.0
52.180321 188.0
52.245041 232.0
52.321316 144.0
52.40485 76.0
52.557686 204.0
52.586548 192.0
52.612534 148.0
52.673183 224.0
52.684742 124.0
52.704967 100.0
52.720863 96.0
52.748325 136.0
52.791698 216.0
52.917587 128.0
52.930618 136.0
53.000149 84.0
53.024784 128.0
53.076973 164.0
53.101624 72.0
53.166912 144.0
53.276066 136.0
53.301964 128.0
53.339752 112.0
53.470657 236.0
53.544907 152.0
53.568214 112.0
53.58424 156.0
53.616295 160.0
53.626499 128.0
53.641075 120.0
53.738785 72.0
53.773155 152.0
53.881866 108.0
53.896477 156.0
54.013435 160.0
54.047085 120.0
54.063179 44.0
54.085133 220.0
54.203762 176.0
54.225742 128.0
54.239456 192.0
54.266788 120.0
54.279987 188.0
54.406189 252.0
54.429661 104.0
54.519505 124.0
54.710098 168.0
54.76202 124.0
54.778225 156.0
54.896133 68.0
54.969891 132.0
55.037792 112.0
55.064373 172.0
55.147114 208.0
55.160416 116.0
55.187027 148.0
55.216602 132.0
55.250626 236.0
55.315739 136.0
55.372711 144.0
55.454971 156.0
55.477051 188.0
55.506859 140.0
55.536522 180.0
55.563339 188.0
55.578682 200.0
55.621098 168.0
55.649303 164.0
55.674549 136.0
55.70277 124.0
55.719109 124.0
55.904976 96.0
55.942184 136.0
55.964516 136.0
56.008118 116.0
56.037498 168.0
56.06134 184.0
56.094131 88.0
56.11351 148.0
56.155266 180.0
56.16869 112.0
56.185566 128.0
56.202503 192.0
56.258224 132.0
56.273155 116.0
56.314968 132.0
56.424702 188.0
56.440498 168.0
56.501823 124.0
56.5527 164.0
56.581142 180.0
56.591621 168.0
56.624565 172.0
56.675499 128.0
56.705471 144.0
56.735451 300.0
56.883965 204.0
56.898979 36.0
56.971066 164.0
56.999611 160.0
57.01614 88.0
57.029667 144.0
57.052216 160.0
57.171043 132.0
57.210808 400.0
57.241795 164.0
57.258362 176.0
57.519203 128.0
57.600746 152.0
57.641537 108.0
57.693855 208.0
57.700298 128.0
57.702503 192.0
57.738289 136.0
57.824524 128.0
57.850258 168.0
57.869755 100.0
57.883564 228.0
57.898067 104.0
57.963848 148.0
57.992645 144.0
58.004768 152.0
58.021446 184.0
58.038124 68.0
58.065418 140.0
58.088173 216.0
58.148865 48.0
58.217182 80.0
58.315933 172.0
58.360901 176.0
58.379787 116.0
58.417812 108.0
58.484764 188.0
58.501511 148.0
58.640984 156.0
58.691956 124.0
58.704155 124.0
58.716354 136.0
58.76059 84.0
58.781952 124.0
58.823158 120.0
58.86216 168.0
58.891872 88.0
58.988136 196.0
59.018715 144.0
59.15947 108.0
59.188557 188.0
59.246761 124.0
59.278934 120.0
59.305275 192.0
59.350979 156.0
59.375515 184.0
59.51823 104.0
59.567375 160.0
59.591637 172.0
59.63345 68.0
59.710323 196.0
59.731857 144.0
59.881157 160.0
59.965897 124.0
59.976688 192.0
59.990173 160.0
60.078461 152.0
60.143272 204.0
60.197308 96.0
60.314728 188.0
60.347191 228.0
60.364201 108.0
60.429165 148.0
60.439995 152.0
60.464756 160.0
60.53442 176.0
60.588631 200.0
60.627369 40.0
60.711082 192.0
60.774681 112.0
60.838314 124.0
60.861603 160.0
60.878685 136.0
60.995209 372.0
61.024746 116.0
61.0994 188.0
61.140705 176.0
61.216137 84.0
61.315842 148.0
61.364166 156.0
61.378197 192.0
61.394165 216.0
61.457748 148.0
61.46867 156.0
61.565456 192.0
61.604504 168.0
61.61544 120.0
61.649815 160.0
61.74205 60.0
61.784283 92.0
61.803059 128.0
61.884449 168.0
61.906372 152.0
61.932995 156.0
62.058365 208.0
62.11953 184.0
62.130508 112.0
62.141491 152.0
62.16346 32.0
62.176014 228.0
62.216824 140.0
62.243256 168.0
62.36134 104.0
62.441525 164.0
62.461971 140.0
62.490288 84.0
62.523647 80.0
62.591026 224.0
62.608349 144.0
62.720211 164.0
62.775391 148.0
62.829018 156.0
62.860577 124.0
62.907925 176.0
62.936344 152.0
63.073788 136.0
63.118053 236.0
63.26836 80.0
63.323784 148.0
63.36792 204.0
63.39666 180.0
63.45055 132.0
63.494949 152.0
63.53204 180.0
63.59808 72.0
63.663174 96.0
63.683819 132.0
63.717178 168.0
63.749523 168.0
63.76326 176.0
63.811554 208.0
63.90239 148.0
63.925472 280.0
63.94022 240.0
63.958893 188.0
63.988503 144.0
64.027359 120.0
64.188309 228.0
64.221802 104.0
64.269661 160.0
64.306366 128.0
64.336693 92.0
64.37661 192.0
64.429314 132.0
64.450089 128.0
64.550789 164.0
64.60997 80.0
64.747627 180.0
64.846962 308.0
64.861389 48.0
64.957596 180.0
64.981659 88.0
65.033119 180.0
65.063515 192.0
65.126137 144.0
65.138992 84.0
65.248268 204.0
65.266083 144.0
65.278816 68.0
65.294899 144.0
65.34024 172.0
65.369606 128.0
65.384995 260.0
65.405914 200.0
65.539581 144.0
65.584709 172.0
65.642746 188.0
65.695969 192.0
65.793869 260.0
65.805618 412.0
65.931709 96.0
65.95063 216.0
65.975357 144.0
65.991524 112.0
66.048119 164.0
66.078857 132.0
66.201874 80.0
66.221313 168.0
66.268288 172.0
66.373642 132.0
66.394722 76.0
66.44014 164.0
66.498558 192.0
66.560249 184.0
66.576836 224.0
66.693466 64.0
66.711342 216.0
66.795906 152.0
66.82193 144.0
66.882149 80.0
66.928314 200.0
67.001022 212.0
67.017311 72.0
67.031448 184.0
67.131416 148.0
67.152618 176.0
67.188499 168.0
67.208694 128.0
67.304382 216.0
67.32235 188.0
67.472672 212.0
67.502106 188.0
67.556076 152.0
67.663666 172.0
67.682098 156.0
67.714851 140.0
67.752525 156.0
67.855774 144.0
67.916451 128.0
68.262978 136.0
68.281067 176.0
68.31736 132.0
68.341934 160.0
68.369911 164.0
68.388016 120.0
68.418922 144.0
68.443985 156.0
68.511513 180.0
68.536224 176.0
68.626884 180.0
68.686249 208.0
68.712646 156.0
68.866165 120.0
68.912422 112.0
69.004974 236.0
69.021507 176.0
69.033081 92.0
69.067818 204.0
69.099655 196.0
69.140617 128.0
69.230011 68.0
69.442429 188.0
69.533394 156.0
69.634415 156.0
69.674538 188.0
69.714417 124.0
69.854225 176.0
69.921898 184.0
69.990547 100.0
70.012192 144.0
70.078827 168.0
70.107155 132.0
70.123817 200.0
70.312279 192.0
70.355675 144.0
70.450867 124.0
70.569527 132.0
70.623039 136.0
70.733475 208.0
70.884209 128.0
70.900963 148.0
70.913116 160.0
70.96299 140.0
71.060265 136.0
71.07872 112.0
71.130745 232.0
71.218063 196.0
71.238182 176.0
71.337364 108.0
71.356972 180.0
71.450043 160.0
71.472664 152.0
71.485374 72.0
71.517349 224.0
71.529137 220.0
71.547653 172.0
71.572906 176.0
71.584694 192.0
71.606583 124.0
71.630165 136.0
71.778481 148.0
71.802704 160.0
71.937248 156.0
71.957329 92.0
72.073875 160.0
72.10936 212.0
72.129639 128.0
72.18882 152.0
72.212494 124.0
72.259857 76.0
72.302162 160.0
72.368179 80.0
72.459633 128.0
72.481667 160.0
72.520638 76.0
72.540985 164.0
72.588455 124.0
72.635941 180.0
72.67157 168.0
72.856621 152.0
72.946693 164.0
72.961517 144.0
73.052124 200.0
73.067436 76.0
73.123589 172.0
73.20871 152.0
73.304108 132.0
73.345009 168.0
73.367165 60.0
73.394447 140.0
73.410767 180.0
73.46096 120.0
73.507027 32.0
73.604324 92.0
73.628235 196.0
73.653854 140.0
73.672493 184.0
73.77005 156.0
73.908577 132.0
74.102058 92.0
74.186035 136.0
74.222038 136.0
74.261482 172.0
74.371292 188.0
74.395325 220.0
74.429657 164.0
74.451981 192.0
74.479462 128.0
74.565369 120.0
74.613503 176.0
74.635849 100.0
74.665085 136.0
74.718407 144.0
74.737335 132.0
74.763145 144.0
75.116356 120.0
75.13015 156.0
75.216438 132.0
75.288948 160.0
75.377052 152.0
75.41507 72.0
75.53611 152.0
75.560326 96.0
75.610512 72.0
75.634743 64.0
75.657242 180.0
75.679749 212.0
75.698799 184.0
75.896332 180.0
75.922348 132.0
75.963974 136.0
75.988258 200.0
76.12365 192.0
76.154907 100.0
76.419144 204.0
76.497459 160.0
76.539581 224.0
76.699516 148.0
76.733429 204.0
76.788445 120.0
76.823326 184.0
76.844261 84.0
76.89138 144.0
76.919304 140.0
77.111435 44.0
77.181358 112.0
77.295059 76.0
77.357269 132.0
77.371239 152.0
77.417595 200.0
77.46138 104.0
77.475395 140.0
77.538475 240.0
77.570023 164.0
77.584045 280.0
77.705055 88.0
77.74015 172.0
77.76297 164.0
77.817383 108.0
77.871819 144.0
77.901833 216.0
77.91925 196.0
77.940331 108.0
77.957909 176.0
77.977234 144.0
78.070412 124.0
78.112625 188.0
78.14077 132.0
78.184799 200.0
78.311523 352.0
78.375267 208.0
78.461304 204.0
78.528313 216.0
78.602409 200.0
78.616524 92.0
78.665947 128.0
78.743637 96.0
78.782494 204.0
78.893829 100.0
78.961021 132.0
78.991089 188.0
79.03244 160.0
79.052719 120.0
79.09726 180.0
79.212357 108.0
79.339951 60.0
79.363129 160.0
79.389595 80.0
79.439262 136.0
79.467644 132.0
79.480064 216.0
79.506683 144.0
79.61142 164.0
79.670036 96.0
79.696686 192.0
79.714455 184.0
79.886917 204.0
79.991905 88.0
80.036415 84.0
80.052444 128.0
80.103233 208.0
80.127251 120.0
80.145065 152.0
80.212791 108.0
80.239532 104.0
80.28054 108.0
80.337708 164.0
80.359024 116.0
80.425056 168.0
80.485748 152.0
80.519684 40.0
80.537544 180.0
80.580414 132.0
80.628662 160.0
80.662621 140.0
80.680496 60.0
80.707314 180.0
80.762756 156.0
80.918442 180.0
81.047394 212.0
81.095779 132.0
81.172874 180.0
81.192596 104.0
81.305618 212.0
81.32357 184.0
81.364105 172.0
81.367287 192.0
81.545616 196.0
81.690125 180.0
81.732407 192.0
81.737503 96.0
81.744553 128.0
81.825096 144.0
81.92775 236.0
82.041283 84.0
82.109802 148.0
82.124229 160.0
82.163918 180.0
82.183762 116.0
82.366096 156.0
82.465477 168.0
82.696983 124.0
82.756721 140.0
82.782806 148.0
82.797005 164.0
82.874451 176.0
82.907074 204.0
82.925194 48.0
82.963257 136.0
83.057556 204.0
83.191833 192.0
83.271729 124.0
83.413452 172.0
83.471634 100.0
83.489815 168.0
83.558937 96.0
83.586227 172.0
83.649933 140.0
83.677238 148.0
83.708191 172.0
83.860443 140.0
83.914085 56.0
83.98156 108.0
84.003448 164.0
84.018044 84.0
84.032639 172.0
84.104965 204.0
84.158569 232.0
84.178658 124.0
84.235275 88.0
84.348648 180.0
84.374161 232.0
84.419868 244.0
84.463768 80.0
84.624809 256.0
84.646034 196.0
84.72554 144.0
84.747528 136.0
84.761421 192.0
84.77684 196.0
84.797005 44.0
84.822662 160.0
84.879494 180.0
84.982216 160.0
85.021317 180.0
85.048279 172.0
85.167625 116.0
85.230087 144.0
85.290733 164.0
85.327499 108.0
85.373466 96.0
85.421288 144.0
85.467278 160.0
85.489365 200.0
85.507767 152.0
85.52433 100.0
85.568512 160.0
85.587021 156.0
85.614548 132.0
85.717705 40.0
85.737122 156.0
85.77668 204.0
85.824615 152.0
85.855759 216.0
85.876251 184.0
86.018326 140.0
86.145744 100.0
86.195625 68.0
86.210411 188.0
86.228889 156.0
86.249084 160.0
86.302834 172.0
86.34906 64.0
86.447113 196.0
86.480423 132.0
86.502632 112.0
86.524849 136.0
86.55262 132.0
86.57032 172.0
86.717499 128.0
86.782379 112.0
86.85656 132.0
87.092293 176.0
87.190758 108.0
87.257278 224.0
87.378563 148.0
87.423218 292.0
87.45163 152.0
87.490059 176.0
87.529327 72.0
87.607552 172.0
87.657852 120.0
87.801399 152.0
87.956261 168.0
87.982391 144.0
88.02832 140.0
88.103783 168.0
88.122459 200.0
88.197212 156.0
88.290695 92.0
88.37487 152.0
88.455345 152.0
88.58268 192.0
88.616211 156.0
88.655746 108.0
88.668869 156.0
88.69136 168.0
88.75135 132.0
88.811356 164.0
88.893906 128.0
88.941574 308.0
89.039261 1920.0
89.075119 284.0
89.173729 164.0
89.190643 32.0
89.207565 44.0
89.222008 164.0
89.395645 80.0
89.461517 128.0
89.501053 136.0
89.580872 136.0
89.785599 156.0
89.802574 268.0
89.827095 188.0
89.891243 28.0
89.951637 116.0
90.047005 2596.0
90.076263 184.0
90.134834 104.0
90.169968 164.0
90.194618 76.0
90.265259 56.0
90.467705 204.0
90.505569 164.0
90.556702 196.0
90.569954 172.0
90.600922 196.0
90.623001 144.0
90.651421 180.0
90.68364 144.0
90.810669 40.0
90.863785 104.0
90.87896 160.0
90.918053 120.0
91.006126 176.0
91.054779 2048.0
91.087791 140.0
91.133385 80.0
91.199188 128.0
91.202629 64.0
91.210526 200.0
91.277657 120.0
91.300659 132.0
91.350113 200.0
91.419746 184.0
91.462379 236.0
91.496651 160.0
91.529015 52.0
91.692841 84.0
91.713806 144.0
91.742401 156.0
91.763863 156.0
91.82058 196.0
91.843468 108.0
91.936951 188.0
91.992851 180.0
92.036217 168.0
92.060097 116.0
92.133621 44.0
92.213875 176.0
92.238724 92.0
92.276955 196.0
92.297989 160.0
92.368752 156.0
92.454849 172.0
92.498863 156.0
92.53141 240.0
92.55439 212.0
92.625244 100.0
92.657814 184.0
92.780464 64.0
92.807304 156.0
92.87059 112.0
92.899368 120.0
92.924301 120.0
93.087456 196.0
93.135468 84.0
93.244987 120.0
93.377708 116.0
93.493073 208.0
93.541191 164.0
93.625908 180.0
93.641312 112.0
93.740654 240.0
93.745972 136.0
93.870644 224.0
93.892242 240.0
94.015327 52.0
94.196815 96.0
94.268303 124.0
94.310822 60.0
94.341743 152.0
94.477119 236.0
94.552582 140.0
94.653244 168.0
94.70166 220.0
94.738464 152.0
94.794647 112.0
94.973007 192.0
95.035088 172.0
95.134064 120.0
95.188431 104.0
95.271942 124.0
95.310806 160.0
95.355499 216.0
95.437141 144.0
95.474091 124.0
95.51104 124.0
95.561623 196.0
95.656982 152.0
95.695648 144.0
95.698181 172.0
95.7407 116.0
95.806931 132.0
95.838097 136.0
95.851738 116.0
95.875122 132.0
95.894615 196.0
95.931648 72.0
96.054497 188.0
96.072052 132.0
96.105225 216.0
96.13839 176.0
96.224281 128.0
96.269188 220.0
96.299706 200.0
96.362946 124.0
96.441109 148.0
96.462608 76.0
96.478249 164.0
96.525177 52.0
96.564285 156.0
96.584007 144.0
96.607323 128.0
96.681671 120.0
96.806961 176.0
96.842209 100.0
96.89196 152.0
96.975441 268.0
97.000404 136.0
97.018562 184.0
97.046013 108.0
97.083267 40.0
97.146523 128.0
97.175461 184.0
97.189194 200.0
97.202011 192.0
97.25592 172.0
97.416931 132.0
97.556458 164.0
97.605606 212.0
97.61937 156.0
97.679207 256.0
97.731491 204.0
97.751167 124.0
97.794464 196.0
97.892899 116.0
97.924408 132.0
98.001236 184.0
98.016556 124.0
98.056412 80.0
98.08992 140.0
98.107658 204.0
98.178642 140.0
98.222031 88.0
98.243736 148.0
98.358185 128.0
98.387794 168.0
98.450279 136.0
98.612984 132.0
98.626816 196.0
98.736649 208.0
98.887894 136.0
99.089874 112.0
99.131485 120.0
99.145355 104.0
99.183014 164.0
99.290077 108.0
99.478577 144.0
99.510338 124.0
99.53019 144.0
99.557991 196.0
99.611618 88.0
99.637444 136.0
99.786499 164.0
99.933678 88.0
99.953575 136.0
100.186684 144.0
100.369881 124.0
100.483566 192.0
100.57193 72.0
100.677185 160.0
100.735451 188.0
100.771065 132.0
100.801041 128.0
100.835014 172.0
100.895142 100.0
100.917938 132.0
101.100998 152.0
101.137024 68.0
101.163048 156.0
101.234108 160.0
101.389381 284.0
101.403404 284.0
101.439484 108.0
101.621986 232.0
101.678169 160.0
101.792595 56.0
101.906097 164.0
101.931198 116.0
101.955536 180.0
101.991486 104.0
102.01944 128.0
102.053253 188.0
102.083969 168.0
102.134247 48.0
102.168449 196.0
102.202652 124.0
102.221565 192.0
102.32341 140.0
102.36972 212.0
102.41201 172.0
102.458344 156.0
102.486549 112.0
102.536926 164.0
102.591347 156.0
102.663933 168.0
102.71032 224.0
102.730492 96.0
102.764565 144.0
102.781639 160.0
102.811203 152.0
102.928284 152.0
102.99897 128.0
103.056213 1404.0
103.097969 28.0
103.151741 132.0
103.1726 188.0
103.213188 88.0
103.312027 152.0
103.334541 156.0
103.379059 304.0
103.39727 88.0
103.411438 44.0
103.476219 44.0
103.563293 204.0
103.632172 172.0
103.745659 244.0
103.840965 164.0
103.857185 164.0
103.930222 128.0
103.966743 240.0
103.999023 84.0
104.02475 148.0
104.05809 184.0
104.083168 176.0
104.132545 192.0
104.188065 280.0
104.214478 80.0
104.293732 108.0
104.427925 180.0
104.446228 192.0
104.480812 196.0
104.558136 128.0
104.737305 180.0
104.76786 168.0
104.846786 168.0
104.959442 120.0
104.973717 300.0
105.028778 204.0
105.085899 196.0
105.100182 128.0
105.116501 196.0
105.165482 152.0
105.221169 300.0
105.310448 84.0
105.345169 96.0
105.365601 156.0
105.412834 172.0
105.473907 152.0
105.746964 104.0
105.819633 124.0
105.932266 132.0
105.956848 84.0
106.010124 108.0
106.042915 80.0
106.108505 168.0
106.145416 144.0
106.25412 64.0
106.270531 40.0
106.378334 212.0
106.432678 124.0
106.451164 156.0
106.486076 136.0
106.516884 68.0
106.724449 120.0
106.823166 84.0
106.942513 144.0
106.956917 192.0
107.012497 224.0
107.14637 228.0
107.245277 76.0
107.309181 244.0
107.362793 132.0
107.451492 180.0
107.47625 312.0
107.5588 132.0
107.64138 156.0
107.655838 152.0
107.682686 216.0
107.730194 172.0
107.796303 192.0
107.986504 164.0
108.056831 132.0
108.071312 216.0
108.164444 200.0
108.196205 176.0
108.238968 112.0
108.253464 176.0
108.277069 232.0
108.379822 180.0
108.466866 184.0
108.500031 220.0
108.514542 116.0
108.560158 160.0
108.768913 84.0
108.858978 120.0
109.031403 156.0
109.104156 144.0
109.127022 124.0
109.297577 240.0
109.314224 144.0
109.472435 140.0
109.497421 144.0
109.534912 184.0
109.601578 52.0
109.676689 100.0
109.696236 200.0
109.718292 168.0
109.734207 144.0
109.810043 188.0
109.847588 172.0
109.908089 176.0
109.964432 232.0
110.056282 104.0
110.0709 212.0
110.091782 60.0
110.160301 144.0
110.327888 160.0
110.3927 136.0
110.532852 164.0
110.72747 128.0
110.735443 124.0
110.754524 204.0
110.807045 184.0
110.87838 148.0
110.928688 152.0
110.951744 160.0
111.027229 160.0
111.138405 128.0
111.195061 148.0
111.364014 128.0
111.402939 148.0
111.438652 204.0
111.513824 160.0
111.596283 144.0
111.623619 136.0
111.802422 144.0
111.86557 132.0
111.939255 144.0
111.996117 48.0
112.038246 124.0
112.111992 128.0
112.131485 160.0
112.164688 116.0
112.230042 124.0
112.339706 144.0
112.361343 380.0
112.413551 320.0
112.455757 208.0
112.525421 140.0
112.588768 148.0
112.607773 148.0
112.626785 156.0
112.641571 120.0
112.994606 152.0
113.049622 132.0
113.108879 196.0
113.130043 176.0
113.224251 204.0
113.352432 236.0
113.384888 152.0
113.407532 168.0
113.449928 248.0
113.606857 228.0
113.659897 88.0
113.725685 128.0
113.772385 52.0
113.882797 132.0
113.918739 148.0
113.95546 176.0
114.078285 152.0
114.122932 120.0
114.157806 156.0
114.190979 48.0
114.239899 140.0
114.350548 168.0
114.414406 148.0
114.4506 124.0
114.550697 80.0
114.570381 200.0
114.640182 48.0
114.785133 180.0
114.812859 112.0
114.904823 136.0
114.967163 192.0
115.019814 152.0
115.055511 10164.0
115.104111 132.0
115.151436 136.0
115.159698 124.0
115.167252 76.0
115.174416 128.0
115.331665 52.0
115.397934 60.0
115.534805 160.0
115.558342 184.0
115.598991 264.0
115.626816 212.0
115.716721 84.0
115.806656 100.0
115.903053 120.0
115.971634 164.0
115.995209 148.0
116.059853 1880.0
116.153442 192.0
116.161453 152.0
116.276184 192.0
116.400696 176.0
116.437202 160.0
116.497345 180.0
116.618294 356.0
116.702461 316.0
116.748405 200.0
116.789978 144.0
116.812347 232.0
116.849915 152.0
116.878601 96.0
116.892944 236.0
116.909065 236.0
117.000626 140.0
117.019493 240.0
117.07119 87528.0
117.123863 140.0
117.152985 96.0
117.211288 124.0
117.223541 168.0
117.249496 112.0
117.272438 160.0
117.30098 44.0
117.309998 100.0
117.344093 88.0
117.372734 152.0
117.402832 184.0
117.425728 272.0
117.457405 68.0
117.49192 108.0
117.522125 40.0
117.54718 44.0
117.583412 20.0
117.624008 76.0
117.651833 172.0
117.689186 140.0
117.706787 212.0
117.715652 140.0
117.763664 116.0
117.775696 184.0
117.804947 216.0
117.83725 176.0
117.863274 88.0
117.881897 216.0
117.900551 80.0
117.928108 28.0
117.951881 192.0
118.001846 180.0
118.041061 80.0
118.078117 39120.0
118.111893 172.0
118.133957 80.0
118.15699 52.0
118.201134 48.0
118.231972 48.0
118.255836 76.0
118.277992 68.0
118.321388 188.0
118.336235 96.0
118.378098 32.0
118.396286 80.0
118.442719 224.0
118.458229 88.0
118.479897 88.0
118.523224 44.0
118.565865 112.0
118.611168 144.0
118.640259 144.0
118.659775 112.0
118.685791 140.0
118.723778 100.0
118.779045 184.0
118.819534 120.0
118.862083 168.0
118.888451 112.0
118.920074 112.0
118.943954 140.0
118.967834 144.0
118.98793 252.0
119.00753 168.0
119.023972 84.0
119.052513 124.0
119.080933 1932.0
119.101379 72.0
119.127975 216.0
119.165222 72.0
119.182846 96.0
119.215439 60.0
119.295853 84.0
119.387177 100.0
119.443718 124.0
119.510254 96.0
119.523438 156.0
119.57209 156.0
119.609093 212.0
119.652634 180.0
119.688217 116.0
119.709244 156.0
119.835815 180.0
119.935822 272.0
120.030815 132.0
120.086334 192.0
120.156067 136.0
120.184425 148.0
120.258621 60.0
120.324112 128.0
120.414368 96.0
120.562195 204.0
120.577492 128.0
120.597168 76.0
120.627762 124.0
120.684608 104.0
120.857399 72.0
120.92524 128.0
121.043449 44.0
121.124481 96.0
121.185822 120.0
121.225266 108.0
121.378708 164.0
121.431335 128.0
121.655151 80.0
121.705643 188.0
121.731995 144.0
121.852798 332.0
121.947289 132.0
121.969269 108.0
121.986855 280.0
122.022026 60.0
122.25518 44.0
122.418083 48.0
122.53923 52.0
122.59211 188.0
122.739799 172.0
122.779495 60.0
122.832428 232.0
122.91626 148.0
122.960396 152.0
123.084023 208.0
123.150269 116.0
123.190033 156.0
123.386711 48.0
123.545944 268.0
123.62117 172.0
123.966621 132.0
124.070793 144.0
124.086311 136.0
124.124008 164.0
124.140167 208.0
124.450172 188.0
124.479042 148.0
124.55677 128.0
124.590096 92.0
124.625641 116.0
125.119385 180.0
125.16391 204.0
125.435707 56.0
125.460228 96.0
125.489212 140.0
125.504822 124.0
125.52935 88.0
125.616333 156.0
125.899788 116.0
125.989128 100.0
126.004768 148.0
126.08577 192.0
126.16568 156.0
126.212624 88.0
126.293137 128.0
126.485565 180.0
126.666939 136.0
126.769997 248.0
126.803612 88.0
126.94709 76.0
127.052505 136.0
127.142258 80.0
127.175926 100.0
127.211838 104.0
127.25898 156.0
127.348808 156.0
127.36322 152.0
127.3825 156.0
127.464935 156.0
127.548782 68.0
127.582497 124.0
127.75341 224.0
127.818657 152.0
127.865913 168.0
127.933441 104.0
127.951447 108.0
128.124863 72.0
128.147385 124.0
128.26683 108.0
128.408875 76.0
128.456238 128.0
128.49234 76.0
128.53746 156.0
128.581604 192.0
128.598389 156.0
128.636765 128.0
128.738358 104.0
128.824188 160.0
128.860336 116.0
128.889709 148.0
128.914566 84.0
128.948471 76.0
129.025314 148.0
129.073669 196.0
129.097672 112.0
129.129333 80.0
129.238663 168.0
129.5 180.0
129.54808 132.0
129.591125 232.0
129.670425 156.0
129.766647 152.0
129.788315 160.0
129.826859 152.0
130.064133 156.0
130.198242 136.0
130.310349 140.0
130.467148 136.0
130.589951 180.0
130.685486 156.0
130.724167 140.0
130.778793 192.0
130.865295 156.0
130.929047 76.0
130.974594 156.0
131.038391 100.0
131.05661 132.0
131.088516 200.0
131.239151 136.0
131.31192 164.0
131.366425 148.0
131.663391 192.0
131.711349 116.0
131.809586 188.0
131.919296 164.0
132.074783 144.0
132.093079 72.0
132.326508 92.0
132.411224 96.0
132.431839 120.0
132.500565 164.0
132.51889 116.0
132.663269 148.0
132.871964 124.0
132.963745 176.0
133.104568 140.0
133.234695 180.0
133.331192 168.0
133.397842 224.0
133.485214 168.0
133.505905 156.0
133.549606 52.0
133.60022 196.0
133.638031 128.0
133.65773 92.0
133.710663 148.0
133.936295 88.0
133.977753 140.0
134.028442 136.0
134.051483 100.0
134.166733 148.0
134.263565 176.0
134.298172 68.0
134.367371 132.0
134.528915 148.0
134.563538 172.0
134.854599 228.0
134.877716 140.0
134.934509 176.0
135.037247 144.0
135.134399 84.0
135.201508 176.0
135.247803 148.0
135.372818 164.0
135.477036 188.0
135.500214 132.0
135.565094 104.0
135.76445 140.0
135.892029 164.0
135.915222 116.0
135.989487 216.0
136.0923 208.0
136.110199 112.0
136.247238 124.0
136.342499 112.0
136.379684 164.0
136.435471 168.0
136.475006 184.0
136.626175 176.0
136.693985 136.0
136.768112 204.0
136.931091 148.0
136.956711 116.0
137.122147 84.0
137.380951 172.0
137.506958 136.0
137.544296 44.0
137.714752 196.0
137.815201 76.0
137.836227 108.0
137.985809 76.0
138.004517 156.0
138.086365 132.0
138.105072 84.0
138.246613 144.0
138.280548 144.0
138.556854 108.0
138.62883 212.0
138.699799 156.0
138.88269 228.0
139.004684 148.0
139.298157 164.0
139.318497 348.0
139.389786 156.0
139.420334 164.0
139.488495 148.0
139.538406 172.0
139.810715 340.0
140.215775 112.0
140.246414 188.0
140.394943 124.0
140.579132 108.0
140.61908 112.0
140.798492 128.0
140.918961 176.0
140.996948 208.0
141.108047 156.0
141.174255 144.0
141.26413 200.0
141.583649 104.0
141.621552 328.0
141.687866 204.0
141.706818 132.0
141.839539 188.0
142.090897 132.0
142.563416 208.0
142.589554 192.0
142.713165 208.0
142.95578 104.0
142.984344 180.0
143.189148 152.0
143.260544 164.0
143.451172 164.0
143.615707 196.0
143.773163 188.0
143.847153 164.0
143.985641 260.0
144.045349 84.0
144.568954 188.0
144.717361 176.0
144.99762 112.0
145.431732 132.0
145.477341 136.0
145.635818 136.0
145.765549 108.0
145.796783 228.0
145.858017 124.0
145.907349 104.0
146.027588 180.0
146.18396 260.0
146.362076 124.0
146.439148 132.0
146.875397 164.0
146.986374 168.0
147.037048 136.0
147.090149 124.0
147.297806 120.0
147.498047 180.0
147.667618 144.0
147.694229 176.0
147.711151 80.0
147.800674 68.0
147.842804 164.0
147.880524 108.0
147.936203 68.0
147.991882 92.0
148.069366 104.0
148.132339 64.0
148.197754 144.0
148.357712 76.0
148.617218 224.0
148.740982 72.0
148.840515 128.0
149.027542 80.0
149.187943 108.0
149.291397 160.0
149.341141 160.0
149.365463 124.0
149.555252 160.0
149.584457 144.0
149.798737 152.0
149.85965 32.0
150.06926 208.0
150.098511 124.0
150.14241 212.0
150.161911 124.0
150.308289 76.0
150.354645 92.0
150.383942 116.0
150.479141 248.0
150.681854 176.0
150.823578 136.0
150.953156 48.0
150.972717 140.0
151.139053 88.0
151.266312 196.0
151.371597 204.0
151.430374 108.0
151.479355 56.0
151.562653 116.0
151.601852 200.0
151.631271 116.0
151.660889 140.0
151.717056 152.0
152.588577 60.0
152.738586 128.0
152.891129 120.0
153.127472 52.0
153.304855 136.0
153.479858 168.0
153.627838 156.0
153.689514 112.0
153.995621 136.0
154.101852 204.0
154.315186 76.0
154.345016 168.0
154.462784 224.0
154.660721 96.0
154.697861 148.0
154.752319 232.0
154.779556 220.0
154.89595 160.0
154.925674 228.0
154.961472 152.0
155.062851 244.0
155.136322 164.0
155.23053 88.0
155.357025 92.0
155.384323 188.0
155.588715 188.0
155.823746 160.0
155.890839 120.0
155.925629 216.0
155.945511 104.0
156.069809 112.0
156.136948 188.0
156.333481 140.0
156.689545 176.0
156.721924 224.0
156.755768 200.0
156.786713 116.0
156.829086 100.0
156.923813 200.0
156.951233 100.0
157.085907 84.0
157.209137 164.0
157.315491 228.0
157.412857 172.0
157.52774 112.0
157.630173 144.0
157.670166 168.0
157.702652 60.0
157.727646 168.0
157.877655 84.0
157.94519 128.0
157.992706 160.0
158.107819 168.0
158.127838 168.0
158.180389 200.0
158.34256 156.0
158.448349 120.0
158.503464 140.0
158.526016 148.0
158.568619 52.0
158.613739 140.0
158.721542 132.0
159.125488 176.0
159.143066 120.0
159.225937 168.0
159.263611 204.0
159.293747 128.0
159.318878 176.0
159.42691 144.0
159.628021 356.0
159.783951 128.0
159.807343 104.0
159.83931 172.0
159.897186 188.0
159.955078 184.0
160.123779 44.0
160.179184 160.0
160.325317 132.0
160.411011 84.0
160.433701 72.0
160.466476 196.0
160.655609 188.0
161.003937 164.0
161.08223 188.0
161.211075 112.0
161.358948 60.0
161.418365 132.0
161.476532 40.0
161.787766 168.0
161.820663 204.0
161.838394 136.0
161.90564 208.0
162.058746 176.0
162.162643 196.0
162.423798 140.0
162.479614 152.0
162.512527 148.0
162.602478 140.0
162.644547 176.0
162.697861 120.0
162.791809 96.0
162.885773 128.0
162.936584 168.0
162.96199 148.0
163.025513 132.0
163.150055 228.0
163.223785 164.0
163.325516 140.0
163.462891 116.0
163.572327 96.0
163.648697 176.0
163.916138 44.0
163.979858 140.0
164.415955 124.0
164.444031 196.0
164.500183 144.0
164.622742 100.0
164.64827 136.0
164.793869 192.0
164.909409 132.0
164.983002 140.0
165.082718 156.0
165.410187 176.0
165.504913 124.0
165.663712 156.0
166.471619 160.0
166.818466 64.0
167.075623 128.0
167.147659 164.0
167.278915 152.0
167.612106 76.0
167.791565 156.0
167.814774 180.0
167.876663 136.0
167.959183 56.0
168.062042 156.0
168.323074 60.0
168.351486 188.0
168.475464 96.0
168.545212 140.0
168.60939 164.0
168.811462 144.0
168.914902 152.0
168.971817 188.0
169.036499 84.0
169.160736 228.0
169.290192 68.0
169.396378 208.0
169.414505 148.0
169.567383 128.0
169.90448 152.0
170.325745 196.0
170.348389 184.0
170.800674 176.0
171.040054 104.0
171.124435 212.0
171.278259 120.0
171.407272 192.0
171.456772 168.0
171.630096 140.0
171.673157 116.0
171.727921 144.0
171.850525 52.0
172.00972 100.0
172.11676 160.0
172.15593 188.0
172.20816 164.0
172.280945 208.0
172.508636 136.0
172.553085 128.0
172.725677 104.0
172.825089 216.0
172.996155 88.0
173.016144 68.0
173.173248 120.0
173.346161 160.0
173.554718 164.0
173.660751 64.0
173.920502 144.0
174.030136 84.0
174.057022 60.0
174.269775 152.0
174.380142 104.0
174.737762 88.0
174.790375 152.0
174.897446 152.0
175.340759 120.0
175.831284 220.0
175.87088 112.0
176.016068 124.0
176.037201 220.0
176.055679 116.0
176.116211 100.0
176.161331 144.0
176.24588 88.0
176.333084 144.0
176.446747 100.0
176.639786 144.0
176.663589 188.0
176.816696 228.0
177.102997 196.0
177.252762 128.0
177.516434 128.0
177.697449 128.0
177.755157 208.0
177.850708 116.0
177.882553 92.0
177.959549 168.0
178.089661 96.0
178.275635 184.0
178.413849 160.0
178.567184 72.0
178.626587 220.0
178.709061 172.0
178.748962 184.0
178.842117 176.0
178.969894 176.0
179.047119 180.0
179.100388 96.0
179.377502 300.0
179.554306 176.0
179.726868 224.0
180.319687 144.0
180.34375 192.0
180.378494 68.0
180.397202 184.0
180.61647 160.0
180.664627 164.0
180.89743 208.0
180.977753 216.0
181.100586 132.0
181.168732 180.0
181.299194 140.0
181.757736 108.0
181.843597 132.0
181.955139 152.0
182.192673 148.0
182.241028 140.0
182.327026 140.0
182.394211 156.0
182.511368 164.0
182.603928 140.0
182.695389 132.0
182.738434 100.0
182.800308 184.0
182.864899 176.0
183.101822 68.0
183.179932 200.0
183.220337 144.0
183.27153 116.0
183.363144 76.0
183.541061 204.0
183.613876 152.0
183.852448 176.0
183.91066 96.0
183.934952 172.0
184.126022 176.0
184.567108 168.0
184.734787 252.0
184.780777 180.0
184.905258 132.0
184.978333 152.0
185.07309 112.0
185.167862 228.0
185.203079 116.0
185.278915 152.0
185.319565 184.0
185.352081 124.0
185.414398 124.0
185.436081 128.0
185.525528 152.0
185.6828 168.0
185.739761 152.0
185.810287 236.0
185.963547 96.0
186.323395 156.0
186.372299 148.0
186.673248 184.0
186.99231 140.0
187.248215 148.0
187.400772 192.0
187.692413 60.0
187.714218 84.0
188.047043 144.0
188.074341 156.0
188.10437 116.0
188.178757 160.0
188.189545 40.0
188.196533 168.0
188.273636 100.0
188.330994 108.0
188.438873 212.0
188.527695 120.0
188.574158 188.0
188.604233 112.0
188.746384 212.0
189.288177 192.0
189.368988 180.0
189.546295 196.0
189.605942 164.0
189.793259 144.0
190.354843 64.0
190.486679 168.0
190.648773 120.0
190.725998 124.0
190.755966 148.0
190.923691 112.0
190.953934 80.0
191.099731 72.0
191.176773 132.0
191.198792 164.0
191.432785 240.0
191.531937 184.0
191.967377 180.0
192.011505 180.0
192.212875 136.0
192.284622 96.0
192.309464 140.0
192.560715 68.0
192.660156 164.0
192.698822 80.0
192.737503 160.0
193.09964 128.0
193.307709 208.0
193.611633 184.0
193.675339 104.0
193.883118 112.0
193.905289 176.0
194.077164 176.0
194.157578 188.0
194.282394 144.0
194.415573 208.0
194.454437 152.0
194.615433 96.0
194.687637 188.0
194.729294 100.0
194.796204 180.0
194.831451 140.0
194.857071 152.0
195.021011 116.0
195.151672 212.0
195.265686 100.0
195.299789 76.0
195.618851 168.0
195.875229 116.0
196.084198 40.0
196.287704 128.0
196.332321 152.0
196.376938 100.0
196.402039 168.0
196.588959 240.0
196.625244 156.0
196.896042 100.0
196.97113 104.0
197.203369 36.0
197.323563 148.0
197.488541 112.0
197.533295 80.0
197.69278 164.0
197.74321 200.0
197.771133 144.0
197.818726 200.0
198.72673 140.0
198.869843 116.0
198.91304 112.0
198.976517 60.0
199.007401 120.0
199.142181 204.0
199.175888 96.0
199.237686 196.0
199.260162 84.0
199.451248 104.0
199.513092 168.0
199.577759 44.0
199.614319 240.0
199.690399 152.0
199.723999 172.0
199.842148 184.0
199.870285 124.0
199.90123 180.0
200.067291 152.0
200.163025 140.0
200.405258 92.0
200.427795 208.0
200.599716 164.0
201.019943 140.0
201.039688 116.0
201.200577 156.0
201.350235 164.0
201.401062 112.0
201.42366 88.0
201.62709 136.0
201.649704 60.0
202.088013 144.0
202.269119 124.0
202.304871 128.0
202.345566 100.0
202.379532 108.0
202.422012 216.0
202.549454 76.0
202.603271 208.0
202.807297 140.0
202.903671 168.0
202.974548 160.0
203.09082 96.0
203.147552 192.0
203.258209 148.0
203.360367 124.0
203.536377 152.0
203.823257 120.0
203.845993 124.0
203.894302 128.0
203.931244 184.0
203.968201 204.0
203.999695 204.0
204.079071 132.0
204.189972 128.0
204.367691 128.0
204.454544 100.0
204.485855 184.0
204.534241 148.0
204.582565 164.0
204.810425 216.0
204.950027 128.0
205.015564 164.0
205.22934 112.0
205.337708 148.0
205.671524 172.0
205.723969 192.0
205.897079 184.0
205.929626 172.0
205.974197 152.0
206.274216 136.0
206.35141 168.0
206.37999 160.0
206.431473 176.0
206.535217 388.0
206.557312 92.0
206.674606 92.0
206.854904 132.0
206.943649 104.0
206.986588 52.0
207.046722 212.0
207.198532 188.0
207.310287 116.0
207.330338 180.0
207.465057 124.0
207.496597 168.0
207.5224 200.0
207.662903 164.0
207.763306 188.0
207.852249 188.0
208.010086 156.0
208.25415 248.0
208.305847 60.0
208.343201 160.0
208.507874 180.0
208.630569 80.0
208.768585 176.0
208.85199 144.0
208.921021 68.0
209.09079 188.0
209.263504 128.0
209.332474 172.0
209.367157 84.0
209.568802 108.0
209.681183 172.0
209.819534 80.0
209.842606 132.0
209.862778 132.0
210.058884 200.0
210.093506 164.0
210.171402 164.0
210.307037 140.0
210.387863 148.0
210.413834 128.0
210.549545 136.0
210.670868 116.0
210.691086 148.0
210.80954 108.0
210.899139 104.0
210.922256 172.0
211.089935 192.0
211.214294 164.0
211.309769 152.0
211.332916 212.0
211.425507 100.0
211.517014 136.0
211.545822 168.0
211.590973 168.0
211.619446 188.0
211.702576 152.0
211.735275 132.0
211.854126 120.0
212.051056 140.0
212.216293 228.0
212.465714 172.0
212.564362 204.0
212.941742 136.0
212.970795 152.0
213.200302 152.0
213.223557 148.0
213.307846 192.0
213.627716 208.0
213.744095 180.0
213.944916 160.0
214.011871 100.0
214.0439 192.0
214.081757 160.0
214.105057 84.0
214.134171 136.0
214.204071 208.0
214.262344 168.0
214.291473 164.0
214.504211 164.0
214.539185 176.0
214.652893 100.0
214.757889 224.0
214.789963 172.0
214.921249 148.0
214.970856 316.0
215.000031 128.0
215.055481 100.0
215.090515 120.0
215.178085 88.0
215.218964 192.0
215.245239 168.0
215.347458 156.0
215.373749 168.0
215.585983 204.0
215.662994 56.0
215.771164 184.0
215.826706 156.0
215.892227 304.0
215.946609 88.0
215.996323 144.0
216.025574 160.0
216.084091 164.0
216.121674 128.0
216.150223 192.0
216.19072 200.0
216.229599 260.0
216.257355 284.0
216.286011 260.0
216.336563 140.0
216.360748 180.0
216.36882 96.0
216.381195 208.0
216.416245 164.0
216.452881 136.0
216.485611 272.0
216.511765 144.0
216.541458 112.0
216.564163 184.0
216.593124 140.0
216.616028 136.0
216.654968 96.0
216.695145 180.0
216.702667 272.0
216.755478 360.0
216.780228 440.0
216.799774 496.0
216.817856 268.0
216.857742 420.0
216.86998 396.0
216.91745 472.0
216.952942 226516.0
217.062622 220.0
217.084259 80.0
217.121338 108.0
217.143784 120.0
217.171844 188.0
217.206802 496.0
217.227951 364.0
217.258133 48.0
217.29039 372.0
217.334717 320.0
217.402237 300.0
217.435379 1868.0
217.46344 156.0
217.503845 108.0
217.55249 156.0
217.583832 124.0
217.591965 120.0
217.642288 56.0
217.680817 168.0
217.709061 144.0
217.755707 172.0
217.817169 52.0
217.844803 80.0
217.883713 128.0
217.95549 18716.0
218.040909 116.0
218.138809 80.0
218.205917 192.0
218.249298 156.0
218.320602 60.0
218.345657 160.0
218.36853 36.0
218.400391 144.0
218.436829 48.0
218.469193 32.0
218.532623 100.0
218.557449 116.0
218.602081 48.0
218.628372 88.0
218.713425 92.0
218.739914 44.0
218.825668 64.0
218.855469 64.0
218.888474 156.0
218.91951 48.0
218.958725 1052.0
219.031433 76.0
219.114761 180.0
219.144287 64.0
219.177155 164.0
219.225388 72.0
219.27063 164.0
219.289688 236.0
219.324417 156.0
219.360947 144.0
219.428345 136.0
219.449158 144.0
219.467896 224.0
219.515411 124.0
219.56218 148.0
219.591019 56.0
219.595978 148.0
219.628601 132.0
219.685715 116.0
219.712372 40.0
219.754333 236.0
219.794983 64.0
219.845154 112.0
219.88942 60.0
219.93074 84.0
219.975006 64.0
220.037003 92.0
220.323471 32.0
220.346939 72.0
220.38298 112.0
220.44017 128.0
220.480072 52.0
220.528961 76.0
220.577606 88.0
220.657425 64.0
220.716553 100.0
220.75499 56.0
221.139587 52.0
221.486008 64.0
221.612015 112.0
221.942383 96.0
222.224152 60.0
222.779312 100.0
223.23703 44.0
223.748795 140.0
223.819016 164.0
223.867889 36.0
224.48175 108.0
224.75618 64.0
225.353333 40.0
225.616333 64.0
226.070953 136.0
227.161545 56.0
227.362564 80.0
227.452606 80.0
227.536652 88.0
227.888046 60.0
228.429184 52.0
228.745132 80.0
228.772232 100.0
228.910721 76.0
228.959396 292.0
229.007095 56.0
229.049255 104.0
229.124573 72.0
229.287277 52.0
229.404831 104.0
229.585739 112.0
230.53363 72.0
230.566879 60.0
230.693817 100.0
230.74823 84.0
230.953857 148.0
231.419891 68.0
232.222931 84.0
232.738815 56.0
233.148895 72.0
233.608002 104.0
233.677979 52.0
233.763168 136.0
234.722687 100.0
234.771484 200.0
234.887375 32.0
234.972336 132.0
236.03569 108.0
237.686676 104.0
238.3069 52.0
238.737244 100.0
238.780289 164.0
239.398865 104.0
240.984314 128.0
242.832336 76.0
243.356766 116.0
243.720169 92.0
244.450882 180.0
244.830658 168.0
244.858688 96.0
244.94165 196.0
244.983261 21144.0
245.035812 184.0
245.07724 76.0
245.176468 52.0
245.397781 56.0
245.428955 92.0
245.495468 72.0
245.556808 44.0
245.694046 48.0
245.837585 108.0
245.985245 1500.0
246.130997 52.0
246.165344 80.0
246.221558 56.0
246.297302 64.0
246.986694 148.0
247.437912 96.0
247.548965 132.0
247.588211 100.0
247.621094 64.0
247.640793 152.0
247.788681 108.0
247.882675 48.0
247.929672 64.0
248.40625 92.0
248.720032 88.0
249.250778 92.0
249.583954 80.0
250.118759 116.0
254.795776 80.0
254.824371 48.0
254.992783 96.0
255.857971 176.0
256.010803 68.0
256.536499 56.0
258.998657 596.0
259.173157 116.0
259.995728 176.0
260.093536 40.0
260.21875 72.0
260.270111 216.0
260.559174 60.0
262.005096 136.0
264.334778 60.0
265.96814 52.0
271.258942 96.0
277.844513 60.0
285.560791 100.0
287.030334 136.0
287.950317 112.0
288.886566 48.0
289.851471 168.0
290.061584 124.0
291.721497 100.0
298.429138 196.0
299.382263 212.0
303.605255 48.0
303.997253 188.0
304.055359 2944.0
304.639557 120.0
305.061859 128.0
305.922729 48.0
306.058502 200.0
306.601929 52.0
321.609711 80.0
325.070435 80.0
327.612366 52.0
336.234833 68.0
338.21579 44.0
352.570251 44.0
352.944061 232.0
354.89856 76.0
365.988373 80.0
375.619232 80.0
380.681549 64.0
394.528503 64.0
394.568024 116.0
396.178711 88.0
396.253967 48.0
404.349335 68.0
406.332794 112.0
418.107605 104.0
428.697876 40.0
437.449432 128.0
446.983429 60.0
449.064514 124.0
454.118683 100.0
456.713776 68.0
460.468689 132.0
465.87851 48.0
475.438019 68.0
476.68866 44.0
476.897247 72.0
492.120361 72.0
498.516479 72.0
499.881653 140.0
503.675629 72.0
506.955048 72.0
525.10675 56.0
533.614746 36.0
535.289551 48.0
543.846863 52.0
548.111328 44.0
549.720093 60.0
555.995544 76.0
574.13385 60.0
575.236023 56.0
579.87561 108.0
589.360413 84.0
589.432922 36.0
604.492615 112.0
605.540283 100.0
607.863953 84.0
614.343628 84.0
660.207947 116.0
661.190186 148.0
662.321655 180.0
670.073425 88.0
672.982239 88.0
688.049072 232.0
690.123169 152.0
691.907227 68.0
692.378479 108.0
700.445923 204.0
707.818542 124.0
710.638306 56.0
720.626465 52.0
726.569153 176.0
731.717712 196.0
741.158691 184.0
747.17981 112.0
777.70636 96.0
785.390259 84.0
799.63269 172.0
806.417542 208.0
809.285583 124.0
811.075745 104.0
815.713257 112.0
816.702637 204.0
817.106506 128.0
829.538818 96.0
835.056702 192.0
836.414551 172.0
839.906372 128.0
841.112305 120.0
841.712708 124.0
855.843323 196.0
858.430481 236.0
868.712463 240.0
868.759399 172.0
869.698242 52.0
878.123596 156.0
881.399902 180.0
896.394653 52.0
898.863281 180.0
900.994751 176.0
904.846191 152.0
909.047852 172.0
916.553345 208.0
917.371887 108.0
918.209961 196.0
919.320007 148.0
928.230347 104.0
930.256775 140.0
936.507568 192.0
938.802795 136.0
940.122803 156.0
942.547058 132.0
942.938171 48.0
943.659424 48.0
943.91626 176.0
951.206848 160.0
954.143188 100.0
957.281128 124.0
960.023376 256.0
966.91156 164.0
968.707153 124.0
969.723328 68.0
970.646973 200.0
970.938416 128.0
971.186523 208.0
974.930176 200.0
979.9953 52.0
984.311523 124.0
986.448242 148.0
986.723267 112.0
989.457214 216.0
991.066833 204.0
991.455383 176.0
991.643372 188.0
999.814087 132.0
1000.95343 136.0
1002.553467 112.0
1006.230774 64.0
1007.891907 208.0
1010.908142 128.0
1012.883423 152.0
1014.727539 188.0
1015.386963 112.0
1015.558228 216.0
1015.6026 92.0
1020.282593 204.0
1022.69342 176.0
1023.954041 156.0
1025.680664 188.0
1026.503052 212.0
1029.329834 188.0
1029.872681 200.0
1033.586914 228.0
1034.53418 128.0
1035.942993 44.0
1037.410522 168.0
1037.846436 152.0
1037.897705 192.0
1038.955933 180.0
1044.300293 156.0
1045.928101 104.0
1047.22876 204.0
1048.137085 156.0
1049.039307 128.0
1053.136719 100.0
1054.997681 60.0
1058.394287 196.0
1058.977173 72.0
1059.961792 264.0
1060.10437 152.0
1060.16272 184.0
1060.298828 172.0
1063.470215 144.0
1063.619507 56.0
1064.099976 172.0
1065.485229 120.0
1066.971436 200.0
1068.278564 88.0
1069.007324 252.0
1071.227417 180.0
1071.559692 92.0
1073.026123 164.0
1073.156494 160.0
1074.154297 188.0
1074.728394 160.0
1075.250366 120.0
1076.542969 140.0
1077.254883 184.0
1077.54895 168.0
1080.157227 232.0
1080.628296 172.0
1082.709839 160.0
1085.396484 124.0
1088.080078 184.0
1088.309814 200.0
1089.88623 160.0
1090.3396 204.0
1090.635376 164.0
1091.345337 168.0
1092.108154 160.0
1092.522583 188.0
1092.673828 208.0
1092.910767 120.0
1093.075195 52.0
1095.914917 216.0
1096.183228 92.0
1097.178467 84.0
1099.467285 224.0
1100.272583 116.0
1102.293701 156.0
1104.071899 160.0
1104.223999 140.0
1105.917725 156.0
1109.335693 192.0
1111.37915 176.0
1111.849487 108.0
1112.214478 192.0
1114.605225 96.0
1115.40271 120.0
1117.537476 168.0
1117.816895 180.0
1118.462524 64.0
1119.501099 156.0
1120.926636 136.0
1122.333008 132.0
1122.933228 180.0
1123.073242 108.0
1124.674683 92.0
1125.382202 184.0
1125.869751 172.0
1125.943115 252.0
1126.504272 144.0
1127.172363 120.0
1128.161499 184.0
1128.34082 176.0
1128.796631 136.0
1128.916992 124.0
1131.827759 176.0
1132.14917 100.0
1133.361694 148.0
1133.475586 152.0
1137.029663 200.0
1138.063477 240.0
1142.640503 136.0
1142.761597 108.0
1144.053711 44.0
1144.147949 184.0
1144.275879 168.0
1144.383545 216.0
1145.245605 240.0
1148.548218 120.0
1149.749146 160.0
1149.836914 128.0
1152.815063 36.0
1153.024658 128.0
1155.404663 108.0
1156.995117 68.0
1158.647461 224.0
1159.087891 212.0
1161.019897 140.0
1165.914551 156.0
1166.220337 200.0
1166.437866 76.0
1166.920532 204.0
1168.083496 196.0
1168.648071 136.0
1168.709351 144.0
1169.035889 148.0
1169.519165 180.0
1169.894897 204.0
1171.562012 180.0
1171.848145 108.0
1172.086548 148.0
1172.365967 204.0
1172.706665 160.0
1173.19751 164.0
1173.497437 136.0
1173.565674 44.0
1174.233887 160.0
1175.325317 152.0
1177.434692 168.0
1178.199707 160.0
1179.703125 112.0
1179.839844 120.0
1180.202271 204.0
1180.291138 176.0
1181.795898 192.0
1182.084229 176.0
1187.186646 204.0
1188.805664 168.0
1189.210571 168.0
1189.924438 212.0
1191.064331 128.0
1193.229004 208.0
1193.332153 196.0
1193.827271 116.0
1194.212402 180.0
1195.216797 156.0
1197.743286 124.0
1197.963745 140.0
1198.797363 84.0
1200.693237 200.0
1204.924438 184.0
1204.9729 160.0
1205.083374 88.0
1206.749023 152.0
1207.309082 144.0
1207.654907 172.0
1208.060913 224.0
1208.291382 176.0
1208.540405 172.0
1209.358643 148.0
1209.640747 144.0
1209.890015 212.0
1210.423096 148.0
1210.942505 152.0
1211.30957 132.0
1212.272583 164.0
1212.972656 40.0
1213.513306 164.0
1213.880859 52.0
1214.310791 124.0
1216.135498 240.0
1217.524048 40.0
1218.058838 224.0
1219.990723 96.0
1222.021362 172.0
1222.543335 160.0
1223.120972 208.0
1224.095581 44.0
1224.450806 104.0
1224.708496 200.0
1227.015015 76.0
1229.372559 192.0
1229.672729 184.0
1229.833252 152.0
1230.412598 40.0
1230.859375 188.0
1232.452026 144.0
1233.010986 128.0
1233.311523 172.0
1235.374268 140.0
1235.549194 80.0
1235.745117 128.0
1236.164917 132.0
1236.605835 160.0
1237.599854 148.0
1238.02002 208.0
1238.363159 104.0
1238.951538 208.0
1239.673218 112.0
1240.423096 188.0
1240.710571 220.0
1242.049927 152.0
1242.477783 224.0
1245.1521 172.0
1245.756226 148.0
1246.557129 184.0
1246.662598 232.0
1246.999878 236.0
1247.084229 196.0
1247.674683 200.0
1248.912354 88.0
1249.179565 56.0
1249.862061 140.0
1249.967529 92.0
1250.342163 220.0
1250.509399 204.0
1250.685425 128.0
1251.07251 152.0
1252.192139 204.0
1252.269653 224.0
1252.81897 56.0
1253.361572 184.0
1253.544678 48.0
1254.376343 140.0
1254.538452 164.0
1255.885254 212.0
1256.096924 188.0
1258.009277 172.0
1258.799927 52.0
1259.831177 120.0
1261.647339 148.0
1262.778687 144.0
1263.096924 140.0
1263.832764 156.0
1263.945923 64.0
1264.618164 152.0
1266.0625 116.0
1266.161621 148.0
1267.805176 144.0
1268.358032 176.0
1268.648682 168.0
1268.719482 128.0
1269.520752 204.0
1270.293823 164.0
1270.746338 176.0
1271.088379 136.0
1272.351807 144.0
1273.431152 192.0
1274.461182 240.0
1274.880371 40.0
1277.119873 108.0
1278.080322 208.0
1278.571289 176.0
1279.154907 48.0
1280.529053 208.0
1281.234253 64.0
1282.908936 180.0
1283.536377 44.0
1284.991455 144.0
1286.026123 152.0
1286.518677 160.0
1286.575806 184.0
1287.818237 124.0
1289.23999 172.0
1289.397217 204.0
1289.525757 264.0
1291.384766 92.0
1292.135864 112.0
1292.393311 236.0
1293.388062 172.0
1295.034912 152.0
1295.486206 124.0
1295.572144 164.0
1295.751221 96.0
1298.130859 152.0
1299.859619 184.0
1299.952881 116.0
1300.512695 128.0
1300.785522 156.0
1301.733154 180.0
1302.300537 152.0
1302.939819 260.0
1303.442749 148.0
1304.175781 228.0
1304.384277 160.0
1305.764771 60.0
1306.282593 136.0
1306.807739 180.0
1308.261475 248.0
1308.52063 72.0
1309.528809 120.0
1311.719238 52.0
1312.447388 152.0
1312.714111 156.0
1313.651733 184.0
1314.168945 208.0
1316.740967 188.0
1316.912109 184.0
1317.044312 112.0
1317.513916 152.0
1319.245605 288.0
1319.530151 220.0
1319.609741 96.0
1320.412354 164.0
1320.585938 152.0
1320.679932 188.0
1321.468506 44.0
1321.707275 52.0
1322.553955 92.0
1324.508911 172.0
1324.639282 180.0
1324.755249 96.0
1326.001465 240.0
1327.009155 168.0
1327.342651 152.0
1327.480347 192.0
1327.603638 156.0
1327.668945 128.0
1327.930054 136.0
1328.125854 80.0
1329.126953 104.0
1329.569702 152.0
1329.737183 176.0
1329.910767 216.0
1330.193848 108.0
1330.309937 112.0
1330.665771 124.0
1331.689575 48.0
1331.921997 164.0
1331.9729 188.0
1333.266113 112.0
1335.250854 64.0
1335.832764 108.0
1336.4646 140.0
1336.742188 164.0
1337.171509 204.0
1337.666504 88.0
1339.275635 212.0
1339.479614 60.0
1339.55249 144.0
1340.448608 228.0
1340.718262 124.0
1341.293945 60.0
1341.614746 228.0
1342.022949 88.0
1342.803223 200.0
1342.941772 168.0
1343.496216 260.0
1343.612915 220.0
1344.262329 160.0
1344.342529 196.0
1346.781006 204.0
1347.328857 152.0
1347.605225 160.0
1347.854858 144.0
1348.059448 132.0
1349.543335 152.0
1350.252686 132.0
1350.845093 124.0
1350.984131 184.0
1351.459595 144.0
1351.898682 188.0
1352.271851 132.0
1352.996582 148.0
1354.720947 176.0
1354.929932 164.0
1355.215698 132.0
1355.281616 132.0
1358.529419 132.0
1359.307129 136.0
1359.534668 160.0
1359.58606 128.0
1360.004395 96.0
1361.516724 148.0
1362.36145 116.0
1362.875732 152.0
1363.691406 96.0
1364.044189 100.0
1364.573486 212.0
1365.757446 100.0
1367.273071 140.0
1368.097412 52.0
1368.789551 112.0
1368.929443 152.0
1370.863525 176.0
1370.940552 200.0
1371.01416 176.0
1371.264771 52.0
1371.360596 176.0
1371.721802 148.0
1372.414795 176.0
1373.661133 148.0
1374.465332 188.0
1374.568604 224.0
1375.188477 180.0
1375.269653 132.0
1375.328735 108.0
1375.830688 168.0
1376.118652 252.0
1376.273682 76.0
1377.115479 140.0
1378.186646 180.0
1378.282715 180.0
1378.570923 76.0
1378.792603 76.0
1380.270996 164.0
1380.537231 60.0
1383.319214 168.0
1384.289062 96.0
1384.903687 196.0
1385.207397 176.0
1385.511108 128.0
1385.851929 136.0
1386.200195 212.0
1388.483521 188.0
1388.869141 160.0
1389.633179 144.0
1389.907715 124.0
1390.278809 116.0
1391.644653 100.0
1391.818237 116.0
1392.023315 132.0
1392.387207 136.0
1392.682129 268.0
1393.060181 204.0
1393.47168 116.0
1393.523682 140.0
1393.939819 184.0
1394.222168 92.0
1396.556641 124.0
1398.260376 184.0
1399.309937 140.0
1399.622681 124.0
1401.417725 144.0
1401.656128 164.0
1402.356689 148.0
1403.266113 156.0
1404.727783 148.0
1406.511108 188.0
1406.996338 212.0
1407.145752 180.0
1408.377808 172.0
1408.609375 208.0
1408.773682 128.0
1409.539429 164.0
1409.677734 92.0
1410.066406 180.0
1410.230835 200.0
1410.671875 188.0
1412.15979 100.0
1413.049927 156.0
1413.786133 164.0
1414.060181 96.0
1414.730957 156.0
1415.310303 180.0
1415.909302 224.0
1416.635864 220.0
1417.452515 140.0
1417.807739 160.0
1417.924683 256.0
1418.074585 172.0
1420.458862 60.0
1420.586426 176.0
1421.99707 80.0
1422.424927 168.0
1423.874023 168.0
1425.008179 128.0
1425.113403 184.0
1426.375977 88.0
1426.586426 100.0
1427.571411 156.0
1428.015137 124.0
1428.270752 152.0
1428.330933 180.0
1428.910278 172.0
1429.993774 240.0
1430.543335 128.0
1431.386475 96.0
1431.650024 136.0
1432.260132 164.0
1432.682007 124.0
1432.832642 164.0
1432.960693 152.0
1433.495605 132.0
1433.623779 184.0
1434.415161 212.0
1434.565918 136.0
1435.319824 204.0
1435.515869 120.0
1436.466187 104.0
1436.745361 76.0
1437.099854 132.0
1437.160278 136.0
1437.522461 84.0
1437.643188 172.0
1438.299805 168.0
1438.39917 176.0
1438.696655 128.0
1438.865967 48.0
1439.11731 220.0
1439.537964 184.0
1439.71167 188.0
1439.839966 292.0
1439.892944 80.0
1440.368774 56.0
1440.557617 140.0
1441.161987 208.0
1441.22998 140.0
1442.454224 100.0
1444.995239 188.0
1445.2146 232.0
1445.320557 172.0
1446.009155 176.0
1446.766113 228.0
1447.02356 196.0
1447.121948 136.0
1447.757935 144.0
1448.219971 68.0
1448.613892 176.0
1449.182007 136.0
1450.564087 216.0
1450.947876 124.0
1451.744019 208.0
1452.01709 120.0
1453.245972 156.0
1453.494507 164.0
1453.564575 136.0
1454.019897 100.0
1455.386353 92.0
1455.46228 204.0
1456.419189 136.0
1456.510254 124.0
1457.292725 124.0
1457.497925 160.0
1458.333862 72.0
1459.139648 56.0
1459.475098 148.0
1459.603394 56.0
1460.584473 104.0
1460.888672 68.0
1461.071289 208.0
1461.588623 128.0
1461.953857 160.0
1462.125854 204.0
1463.537231 116.0
1463.857056 124.0
1465.075684 168.0
1465.47937 208.0
1465.829956 168.0
1466.439575 160.0
1467.323853 40.0
1468.162598 172.0
1469.611938 168.0
1469.886597 152.0
1470.825317 188.0
1471.031372 152.0
1471.222168 232.0
1472.237671 144.0
1472.986206 160.0
1473.10083 128.0
1473.329956 92.0
1473.459839 144.0
1473.857178 140.0
1474.514282 232.0
1474.904053 136.0
1475.148682 148.0
1475.446899 40.0
1475.538574 172.0
1476.020264 172.0
1476.257324 164.0
1476.762085 112.0
1477.312866 156.0
1478.039673 96.0
1478.284546 180.0
1479.363647 172.0
1479.539795 204.0
1480.106323 40.0
1481.714722 132.0
1481.838623 168.0
1482.251099 92.0
1482.626587 200.0
1482.894775 120.0
1483.082886 332.0
1484.687866 140.0
1485.708862 112.0
1486.529907 196.0
1486.606567 120.0
1487.082397 88.0
1487.358765 148.0
1487.527588 176.0
1487.681152 148.0
1487.842285 212.0
1488.65625 108.0
1489.30127 144.0
1489.552124 160.0
1489.800659 132.0
1489.967529 192.0
1490.192383 192.0
1491.398926 164.0
1491.560303 196.0
1492.006226 208.0
1492.259888 136.0
1492.444458 192.0
1493.274902 104.0
1493.73645 156.0
1494.113403 140.0
1494.297974 164.0
1495.059814 112.0
1495.259888 148.0
1495.321411 148.0
1495.87561 44.0
1497.862305 128.0
1498.085693 116.0
1498.143921 204.0
1498.463135 200.0
1498.725098 192.0
1499.380127 148.0
1499.95813 200.0
1500.042969 160.0
1500.320435 160.0
1500.405273 204.0
1500.482422 132.0
1500.544067 172.0
1500.937134 184.0
1501.222656 164.0
1503.783936 136.0
1504.054077 144.0
1504.83374 344.0
