>compound CGS 15943
>formula C13H8ClN5O
>ionization [M+H]+
>parentmass 286.049
#inchi InChI=1S/C13H8ClN5O/c14-7-3-4-9-8(6-7)12-17-11(10-2-1-5-20-10)18-19(12)13(15)16-9/h1-6H,(H2,15,16)
#inchikey MSJODEOZODDVGW
#Ion_Source LC-ESI
#Instrument qTof
#Compound_Source Commercial
#PI Dorrestein
#Data_Collector Garg_Neha
#Scan -1
#Precursor_MZ 286.049
#ExactMass 285.042
#Charge 1
#CAS_Number N/A
#Pubmed_ID N/A
#Smiles Nc1nc2ccc(Cl)cc2c3nc(nn13)c4ccco4
#INCHI_AUX N/A
#Library_Class 1
#SpectrumID CCMSLIB00000079209
#IonMode Positive
#UpdateWorkflowName UPDATE-SINGLE-ANNOTATED-GOLD
#LibraryQualityString Gold
#TaskID 278b19f5865741e282cec7349aa7e7a1
##Scan# 1452
#SpectrumFile NCP003592_G2_H11_BE3_01_15737.mzXML
#LibraryName NIHcollectionI_05062014.mgf
#MQScore -1
#Organism NIHcollectionI_05062014
#TIC_Query 0
#RT_Query -1
#MZErrorPPM -1
#SharedPeaks 0
#MassDiff 0
#LibMZ -1
#SpecMZ 286.049
#SpecCharge 0
#internalFilename spec-00000.mgf

>collision 10
45.130577 224.0
45.443996 148.0
45.543339 140.0
45.576923 196.0
45.735615 152.0
45.832581 176.0
46.226875 168.0
46.43034 148.0
46.563084 164.0
46.69733 124.0
47.367832 168.0
47.3829 192.0
47.555683 196.0
47.893925 152.0
48.309422 172.0
48.327408 208.0
48.605919 184.0
48.636448 140.0
48.844879 148.0
49.101162 148.0
49.143009 152.0
49.15942 140.0
49.528854 164.0
49.697083 188.0
49.935165 224.0
50.264606 204.0
50.52977 164.0
50.592041 172.0
50.644432 180.0
51.031849 220.0
51.624084 156.0
51.739506 176.0
51.904228 124.0
51.993214 204.0
52.307987 204.0
52.323822 172.0
52.55587 144.0
52.60638 148.0
53.284145 172.0
53.595509 148.0
53.624653 152.0
53.869793 152.0
53.937157 120.0
54.214832 112.0
54.285461 152.0
54.836765 200.0
55.044777 168.0
55.360683 236.0
55.907932 200.0
56.093723 172.0
56.543308 152.0
56.660103 180.0
56.679581 208.0
56.895561 196.0
57.198872 156.0
57.360397 200.0
57.392765 264.0
58.009689 128.0
58.252842 116.0
58.300308 148.0
58.485859 140.0
58.549805 188.0
58.732838 176.0
59.12077 144.0
59.608421 172.0
59.651455 212.0
59.896122 176.0
60.340565 172.0
60.657921 172.0
60.668774 140.0
61.13163 156.0
61.16431 192.0
61.630611 148.0
61.713451 148.0
62.148884 188.0
62.408047 180.0
62.570099 152.0
62.921673 196.0
63.048038 148.0
63.087959 172.0
63.378765 140.0
63.573811 172.0
63.692886 148.0
64.032516 160.0
64.064041 148.0
64.6287 196.0
64.649506 176.0
64.783501 168.0
64.921844 212.0
65.000298 176.0
65.291206 212.0
65.492393 152.0
65.526222 152.0
65.705849 184.0
66.399933 128.0
66.449394 152.0
66.491585 164.0
66.595497 220.0
66.788918 200.0
67.3284 156.0
67.351265 152.0
67.753677 160.0
67.870049 168.0
67.96682 180.0
68.180298 152.0
68.496201 140.0
68.662674 156.0
68.786415 156.0
68.920189 152.0
68.976379 164.0
69.229523 152.0
69.333885 168.0
69.453262 176.0
69.730911 144.0
69.913483 168.0
69.925133 164.0
70.008369 152.0
70.044746 124.0
70.065002 192.0
70.093979 212.0
70.124992 184.0
70.153328 212.0
70.333481 208.0
70.450371 148.0
70.569031 140.0
70.712059 136.0
70.73465 196.0
70.959137 160.0
71.069832 216.0
71.466362 232.0
71.51297 184.0
71.651566 152.0
71.751846 120.0
72.171402 144.0
72.191322 164.0
72.398155 176.0
72.47438 192.0
72.52861 152.0
72.589401 192.0
72.75592 224.0
73.021004 140.0
73.566261 204.0
73.682388 160.0
73.702888 176.0
73.860168 160.0
74.140961 196.0
74.22496 212.0
74.690376 256.0
74.77124 200.0
74.881332 144.0
75.238365 192.0
75.385178 228.0
75.411102 164.0
75.428391 164.0
75.55117 160.0
75.642052 160.0
76.110985 164.0
76.449951 212.0
77.15229 156.0
77.343544 148.0
77.565086 176.0
77.674721 180.0
78.026352 220.0
78.140259 204.0
78.281067 152.0
78.356812 200.0
78.94812 144.0
79.589592 140.0
79.63932 328.0
80.082199 156.0
80.128517 196.0
80.367424 176.0
81.436165 172.0
81.702202 160.0
82.064201 156.0
82.383247 240.0
82.455917 164.0
82.562675 232.0
82.602371 200.0
82.870308 160.0
83.349319 144.0
84.52179 144.0
84.598656 292.0
84.761658 176.0
85.007378 152.0
85.042252 144.0
85.167099 144.0
85.194962 120.0
85.402191 164.0
85.516449 152.0
85.589699 116.0
85.742981 224.0
85.960587 204.0
87.06205 212.0
87.160507 212.0
87.702065 156.0
87.808334 164.0
87.875488 168.0
88.064034 148.0
88.182709 300.0
88.52784 176.0
88.554062 216.0
88.960953 144.0
88.975975 152.0
89.002258 172.0
89.366898 192.0
89.712372 100.0
90.08519 180.0
90.15699 248.0
90.944862 156.0
91.060188 184.0
91.442833 172.0
91.528496 140.0
91.663742 168.0
91.834427 180.0
92.251587 188.0
92.831718 160.0
92.943756 196.0
93.305977 192.0
93.348282 180.0
93.457924 200.0
93.769882 172.0
93.974289 148.0
94.068855 164.0
94.084297 148.0
94.526909 172.0
94.571144 168.0
94.8536 164.0
94.995773 144.0
95.026817 168.0
95.106377 168.0
95.345268 164.0
95.736298 140.0
95.944786 180.0
96.06179 152.0
96.15345 168.0
96.434738 152.0
96.679207 144.0
96.871078 144.0
97.328049 204.0
97.727051 180.0
98.030289 212.0
98.144615 204.0
98.367546 172.0
98.661896 192.0
98.714218 112.0
98.778397 140.0
98.86364 208.0
99.287209 248.0
99.521751 160.0
100.016968 180.0
100.051086 196.0
100.086441 140.0
100.275978 136.0
100.644402 144.0
100.916473 172.0
101.005722 128.0
101.118515 156.0
101.330772 156.0
101.894539 156.0
102.649323 196.0
102.949165 108.0
103.075417 144.0
103.180344 244.0
103.228874 192.0
103.726929 144.0
103.808197 144.0
104.159134 172.0
104.716446 216.0
105.199699 140.0
105.220116 204.0
105.737267 168.0
105.821198 232.0
105.985054 152.0
106.469162 156.0
106.716774 96.0
106.767151 180.0
106.781548 160.0
106.83297 216.0
107.024277 728.0
107.492279 144.0
107.830963 184.0
108.041046 160.0
108.205811 112.0
108.420334 108.0
108.761887 96.0
109.040413 5436.0
109.117775 144.0
109.13279 156.0
109.211197 148.0
109.421227 208.0
109.601112 188.0
109.717827 140.0
109.972313 160.0
110.041954 308.0
110.239632 204.0
110.948868 160.0
111.052521 400.0
111.314262 144.0
111.337364 244.0
111.600029 216.0
111.993553 200.0
112.096786 160.0
112.33503 164.0
112.998383 176.0
113.097839 156.0
113.584259 164.0
113.79953 156.0
114.04808 140.0
114.152252 220.0
114.419395 144.0
114.623833 164.0
114.706825 140.0
114.958733 176.0
115.029007 128.0
115.504417 144.0
115.840485 180.0
115.926186 156.0
116.091255 168.0
116.801003 172.0
116.91188 140.0
117.362083 188.0
117.532486 164.0
117.644714 180.0
117.726524 148.0
118.076859 160.0
118.306221 140.0
118.485733 148.0
119.110725 156.0
119.201973 140.0
119.28891 160.0
119.580376 144.0
119.654388 196.0
119.690224 188.0
119.989143 184.0
120.590195 140.0
120.636093 140.0
120.835106 200.0
120.977356 168.0
121.202942 144.0
121.481377 200.0
121.605156 156.0
121.648155 168.0
121.672302 144.0
121.837013 152.0
121.91172 152.0
122.190964 156.0
122.21077 208.0
122.539696 192.0
122.677666 256.0
122.760391 192.0
122.820999 192.0
122.920273 200.0
123.12558 188.0
123.291267 144.0
123.56324 180.0
123.603065 168.0
123.90197 144.0
123.995796 644.0
124.245537 152.0
124.276657 196.0
124.336571 184.0
124.376526 160.0
124.423141 172.0
124.997131 176.0
125.234489 128.0
125.428635 144.0
125.560181 184.0
125.87484 148.0
125.989441 476.0
126.456085 144.0
126.61618 244.0
126.662079 156.0
126.895142 152.0
127.029694 168.0
127.401093 140.0
127.969086 180.0
128.002319 132.0
128.052414 160.0
128.223633 168.0
128.25293 152.0
128.570938 204.0
128.74025 240.0
128.865982 236.0
128.961655 148.0
129.006866 164.0
129.642883 176.0
129.729004 200.0
129.840103 160.0
129.940414 164.0
130.023376 200.0
130.039078 308.0
130.234039 172.0
130.26001 232.0
130.341797 152.0
130.409973 160.0
130.444061 164.0
131.053207 164.0
131.382294 176.0
131.43248 176.0
131.619659 176.0
131.642487 184.0
131.699585 224.0
132.07251 100.0
132.234604 148.0
132.598755 160.0
133.114914 232.0
133.243546 244.0
133.406708 188.0
133.887604 156.0
133.975128 176.0
134.039154 208.0
134.088028 180.0
134.207901 180.0
134.434204 144.0
134.490829 240.0
134.685608 144.0
134.73793 172.0
134.901627 140.0
135.205811 188.0
135.231277 212.0
135.666824 116.0
135.866196 140.0
135.946411 224.0
136.000778 176.0
136.630508 160.0
136.734558 168.0
137.336258 124.0
137.479568 208.0
137.768173 192.0
138.008896 148.0
138.076706 148.0
138.177612 144.0
138.270554 164.0
138.320038 188.0
138.6931 120.0
139.008682 352.0
139.3237 148.0
139.502304 184.0
139.761017 204.0
139.812775 148.0
140.00621 160.0
140.128311 224.0
140.244629 156.0
140.333359 144.0
140.401749 156.0
140.677795 216.0
140.772247 204.0
140.826553 152.0
141.039215 160.0
141.244919 148.0
141.330093 196.0
141.410995 232.0
141.571533 144.0
141.981781 148.0
142.040878 152.0
142.51683 156.0
142.774719 196.0
142.91745 164.0
143.008728 108.0
143.04744 1412.0
143.112625 168.0
143.250748 176.0
143.443451 180.0
143.691788 168.0
144.051285 172.0
144.286453 244.0
144.614182 148.0
144.889557 160.0
145.149429 140.0
145.184372 160.0
145.484299 160.0
145.577942 140.0
145.678818 160.0
145.976837 144.0
146.123566 152.0
146.26796 148.0
146.49913 180.0
146.535019 236.0
146.721375 140.0
146.860703 176.0
147.279861 228.0
147.312073 156.0
147.367645 172.0
147.582764 184.0
148.001923 116.0
148.166046 176.0
148.24115 204.0
148.410828 164.0
148.461746 304.0
148.536942 184.0
149.041901 192.0
149.321472 236.0
149.861877 152.0
149.924591 136.0
149.944733 172.0
150.006516 308.0
150.122696 248.0
150.19342 200.0
150.283676 140.0
150.342239 160.0
151.006287 10444.0
151.061432 148.0
151.829651 156.0
151.914566 188.0
152.01152 1964.0
152.10936 160.0
152.131454 260.0
152.156006 140.0
152.408981 160.0
152.433548 164.0
152.583481 188.0
153.003586 3812.0
153.047501 140.0
153.224487 108.0
153.699219 244.0
153.723892 160.0
153.882751 144.0
153.9263 188.0
154.008545 496.0
154.059677 148.0
154.168396 152.0
154.275864 116.0
154.521988 276.0
154.60611 180.0
155.020859 448.0
155.205582 148.0
155.260132 240.0
155.29982 196.0
155.602554 204.0
155.854172 144.0
156.819702 188.0
156.87381 156.0
157.053909 304.0
157.084167 144.0
157.123184 336.0
157.49263 216.0
157.610046 228.0
158.059875 2084.0
158.087662 176.0
158.63324 164.0
159.063889 160.0
159.095245 188.0
159.288605 184.0
159.374023 148.0
159.619843 200.0
159.864349 188.0
160.07077 144.0
160.289917 180.0
160.368042 184.0
160.670639 184.0
160.84111 108.0
161.029083 176.0
161.198685 148.0
161.274155 160.0
161.296906 140.0
161.691467 176.0
161.774994 152.0
162.000443 276.0
162.111862 160.0
162.352692 196.0
162.839966 244.0
163.0047 900.0
163.068192 140.0
163.121704 136.0
163.216064 148.0
163.625702 144.0
163.944092 144.0
164.000519 400.0
164.392914 208.0
164.888351 152.0
165.01886 476.0
165.113327 148.0
165.151688 200.0
165.540695 220.0
166.016159 1108.0
166.343185 212.0
166.469421 120.0
166.939255 192.0
167.01561 440.0
167.230026 180.0
167.461685 160.0
167.508057 160.0
167.663757 100.0
167.80603 216.0
167.855988 164.0
167.928192 156.0
168.011932 556.0
168.062332 176.0
168.33078 176.0
168.50383 176.0
168.992493 140.0
169.018509 148.0
169.051361 444.0
169.198608 180.0
169.323822 180.0
169.875916 180.0
170.056946 924.0
170.340576 172.0
170.720032 144.0
170.844879 172.0
170.950592 152.0
171.05481 184.0
171.110336 208.0
171.90271 204.0
172.0802 168.0
172.391022 148.0
172.451141 176.0
172.76683 152.0
172.900986 152.0
172.94809 308.0
173.000443 172.0
173.133972 144.0
173.154922 144.0
173.196838 144.0
173.563736 180.0
174.348618 212.0
174.674637 200.0
174.777878 200.0
174.800934 160.0
175.045731 236.0
175.119476 172.0
175.572784 160.0
175.643997 160.0
175.783813 180.0
175.931625 200.0
176.002914 160.0
176.041916 156.0
176.211563 152.0
176.311981 232.0
176.48909 208.0
176.76799 164.0
176.831619 116.0
177.163971 144.0
177.240799 148.0
177.479355 196.0
177.532394 188.0
177.707458 164.0
177.858688 148.0
177.956497 136.0
177.981201 268.0
178.017349 99944.0
178.137482 136.0
178.176849 192.0
178.197708 116.0
178.2547 124.0
178.293762 200.0
178.346939 180.0
178.375809 172.0
178.425735 152.0
178.589508 116.0
178.654999 128.0
178.953979 152.0
179.020752 9140.0
179.08815 168.0
179.557693 108.0
179.622208 172.0
179.769638 164.0
179.84436 164.0
179.953812 204.0
180.014328 24188.0
180.130753 172.0
180.171692 124.0
180.289139 112.0
180.407974 104.0
180.457443 220.0
180.526749 124.0
180.56958 156.0
180.662872 164.0
180.755676 192.0
181.018997 1692.0
181.064529 892.0
181.629883 168.0
181.744415 148.0
182.027618 240.0
182.070709 244.0
182.095245 124.0
182.526047 176.0
182.682037 240.0
182.703568 160.0
182.937683 144.0
183.018448 140.0
183.250092 180.0
183.344391 188.0
184.032257 152.0
184.328186 128.0
184.582993 184.0
184.658859 196.0
184.910797 156.0
185.2005 160.0
185.401917 140.0
185.967819 140.0
186.640381 132.0
186.997894 152.0
187.038727 176.0
187.107727 204.0
187.618958 148.0
188.000031 1636.0
188.411728 128.0
188.448624 156.0
188.536682 160.0
188.670288 152.0
188.918854 184.0
188.9599 152.0
189.019089 652.0
189.145981 176.0
189.381454 196.0
189.710281 176.0
189.745911 156.0
189.781555 180.0
189.957077 164.0
189.998795 1116.0
190.330322 160.0
190.690201 196.0
190.726334 136.0
191.017029 176.0
191.026367 152.0
191.168716 140.0
191.589981 164.0
192.025116 204.0
192.237854 176.0
193.028732 1196.0
193.088196 184.0
193.359924 160.0
193.547684 160.0
193.683868 140.0
193.722656 156.0
193.831604 184.0
194.033951 308.0
194.787857 176.0
194.923996 152.0
195.025024 420.0
195.063431 348.0
195.229767 148.0
195.739014 140.0
195.776505 104.0
196.027145 5236.0
196.074631 612.0
196.541779 164.0
196.894699 132.0
197.037231 208.0
197.081406 216.0
197.344971 188.0
197.494415 184.0
197.527359 164.0
197.639877 144.0
198.023575 1164.0
198.138245 188.0
198.320389 176.0
198.384857 152.0
198.488602 144.0
198.525055 164.0
199.026382 176.0
199.058228 172.0
199.356781 156.0
199.639908 264.0
200.000031 220.0
201.051285 152.0
201.203262 152.0
201.359009 176.0
201.446579 164.0
201.655533 156.0
201.681107 180.0
201.975174 180.0
202.040237 176.0
202.088333 156.0
202.875656 164.0
203.012787 704.0
203.403824 188.0
203.647461 152.0
203.866226 160.0
204.033813 264.0
204.087936 212.0
204.187469 140.0
204.413101 204.0
204.591049 168.0
204.623398 120.0
204.776611 156.0
204.8974 164.0
204.943405 148.0
204.991089 464.0
205.028717 110260.0
205.294098 132.0
205.352722 264.0
205.443527 320.0
205.496216 200.0
205.672104 104.0
205.918045 168.0
206.03067 8140.0
206.175522 132.0
206.495712 112.0
206.540512 168.0
206.573608 140.0
206.62204 244.0
206.832367 152.0
206.965195 152.0
207.02565 23052.0
207.081482 288.0
207.145157 120.0
207.186798 120.0
207.267044 108.0
207.450333 124.0
207.48999 164.0
207.613586 168.0
208.028076 1396.0
208.296555 108.0
208.380005 132.0
208.501633 212.0
208.895538 140.0
209.05954 164.0
209.159882 324.0
209.634735 188.0
209.93956 148.0
209.99617 104.0
210.14061 152.0
210.310333 176.0
210.529755 140.0
210.876434 192.0
211.01503 744.0
211.064346 140.0
211.918198 164.0
212.039902 140.0
213.017853 188.0
213.151352 224.0
214.0159 264.0
214.114258 188.0
214.172501 192.0
214.291931 192.0
214.37352 160.0
215.01413 248.0
215.786179 140.0
215.920776 200.0
216.032318 1956.0
216.172577 156.0
216.48558 152.0
216.511932 152.0
216.97168 124.0
217.001389 116.0
217.041122 1544.0
217.256439 176.0
217.2883 260.0
218.022751 456.0
218.04216 708.0
218.567978 180.0
218.593277 188.0
218.776337 148.0
219.034088 256.0
219.114426 188.0
219.61261 156.0
219.63916 144.0
219.68045 152.0
219.98735 164.0
220.03331 376.0
220.126602 164.0
220.154663 132.0
220.253113 148.0
221.034195 176.0
221.104614 152.0
221.285187 288.0
221.321793 120.0
221.833252 212.0
222.034576 428.0
222.077576 1436.0
222.19043 136.0
222.72345 172.0
222.806351 176.0
223.085266 3288.0
223.42482 148.0
223.482666 280.0
223.748871 192.0
224.029312 144.0
224.086609 672.0
224.923904 180.0
225.062485 180.0
225.088104 164.0
225.34198 152.0
225.389786 180.0
226.014709 176.0
226.065582 160.0
226.160629 184.0
226.352951 144.0
227.306168 140.0
227.576309 140.0
227.933746 156.0
228.034286 144.0
228.068985 144.0
228.207275 164.0
228.492996 180.0
229.026871 192.0
229.872971 208.0
230.005768 164.0
230.04599 296.0
231.043518 4452.0
231.099747 180.0
231.350937 148.0
231.68103 144.0
231.981033 192.0
232.045303 588.0
232.345505 132.0
232.881195 236.0
233.040146 1588.0
233.38974 156.0
233.493134 152.0
233.818588 164.0
234.049576 428.0
234.336319 172.0
234.735611 148.0
235.144394 240.0
235.243469 148.0
235.355026 164.0
235.403885 140.0
235.511887 188.0
235.645187 168.0
236.210754 208.0
236.386185 128.0
236.424927 160.0
236.446335 220.0
236.549149 120.0
236.878052 212.0
237.074142 160.0
237.365356 208.0
237.451233 160.0
237.552444 164.0
237.814407 204.0
237.994385 148.0
238.054886 148.0
238.722626 172.0
239.528992 196.0
239.692276 164.0
240.55275 256.0
241.028305 800.0
241.55394 156.0
241.690063 140.0
241.897415 192.0
242.033157 448.0
243.027161 376.0
243.801788 172.0
244.030807 600.0
244.258835 144.0
244.330383 148.0
245.029312 196.0
245.897736 184.0
246.027359 112.0
246.05069 140.0
247.166489 140.0
247.611008 180.0
248.018326 144.0
249.044342 148.0
249.487396 192.0
250.069351 368.0
250.103943 156.0
250.713928 112.0
250.913528 144.0
251.080185 1520.0
251.714935 340.0
251.801529 192.0
251.907593 184.0
252.03476 108.0
252.082016 528.0
252.417236 164.0
253.175919 156.0
253.937881 140.0
254.039047 168.0
254.387085 176.0
254.621628 120.0
255.047791 196.0
255.203568 144.0
256.039001 312.0
256.078674 208.0
256.400452 164.0
256.725647 184.0
257.046265 2560.0
257.190338 180.0
257.485168 152.0
257.937317 164.0
258.000305 144.0
258.05423 6540.0
258.529144 108.0
258.828278 172.0
259.042755 2048.0
259.379303 192.0
259.768494 128.0
259.911926 152.0
260.049042 2428.0
260.489563 168.0
260.57309 152.0
260.972748 124.0
261.036926 460.0
261.142059 172.0
261.386536 180.0
261.457336 140.0
261.84726 104.0
262.027344 172.0
262.35498 192.0
262.513977 140.0
263.007599 148.0
264.333649 228.0
264.487976 140.0
264.996399 280.0
265.177887 164.0
265.560883 156.0
266.475891 164.0
267.059204 116.0
267.100037 160.0
267.1651 224.0
267.92688 160.0
268.030884 136.0
268.399475 204.0
268.931213 160.0
269.023071 3508.0
269.195679 152.0
269.509247 164.0
269.787048 172.0
270.02359 1032.0
270.169678 144.0
271.017395 696.0
271.10611 176.0
271.420776 164.0
271.686462 172.0
271.847229 156.0
272.010254 344.0
272.184235 96.0
272.388947 168.0
273.589233 152.0
274.083252 156.0
274.541443 160.0
274.772339 184.0
275.013214 192.0
275.130371 140.0
275.528351 148.0
275.891876 140.0
275.938171 160.0
276.196106 196.0
276.924286 164.0
277.278778 144.0
277.845795 208.0
277.9599 144.0
278.269348 176.0
278.307129 156.0
278.824127 156.0
279.397247 176.0
279.487091 180.0
280.552856 168.0
281.043121 148.0
281.169922 212.0
281.249756 148.0
281.457001 160.0
281.727509 144.0
281.948059 208.0
282.151947 208.0
282.250092 112.0
282.886902 112.0
282.998413 168.0
283.09549 272.0
283.259613 180.0
283.299683 192.0
283.688202 120.0
283.909058 104.0
284.034576 188.0
284.06366 116.0
284.137085 144.0
284.16571 140.0
284.226746 136.0
284.260712 168.0
284.288208 96.0
284.360718 148.0
284.47998 100.0
284.523865 292.0
284.592163 168.0
284.712921 164.0
284.807922 184.0
284.854309 164.0
284.913086 228.0
284.96048 152.0
285.009033 132.0
285.051239 188.0
285.081818 264.0
285.163544 120.0
285.273529 236.0
285.330902 124.0
285.365173 208.0
285.3927 108.0
285.475281 148.0
285.545807 220.0
285.593506 152.0
285.658356 248.0
285.724701 280.0
285.792664 284.0
285.844299 388.0
285.898285 296.0
285.950714 980.0
286.051941 253524.0
286.146423 148.0
286.277069 332.0
286.364319 1136.0
286.426971 240.0
286.465881 584.0
286.566589 1396.0
286.608734 9668.0
286.650208 1104.0
286.734741 132.0
286.800751 128.0
286.83139 128.0
286.858765 288.0
286.889984 252.0
286.9328 348.0
286.975891 296.0
287.053467 96588.0
287.161316 144.0
287.177124 132.0
287.220947 208.0
287.27951 236.0
287.368103 296.0
287.421448 220.0
287.450928 220.0
287.476196 404.0
287.531097 308.0
287.613647 140.0
287.658936 252.0
287.72583 236.0
287.757751 224.0
287.792175 176.0
287.844177 124.0
287.899689 152.0
287.925049 132.0
288.048492 138276.0
288.16925 424.0
288.217133 100.0
288.289429 204.0
288.334015 204.0
288.377289 200.0
288.442871 212.0
288.477966 528.0
288.565582 452.0
288.603424 676.0
288.655579 244.0
288.688232 260.0
288.72171 136.0
288.775726 484.0
288.860718 144.0
288.903778 248.0
288.944244 232.0
288.98288 316.0
289.050018 19812.0
289.124512 304.0
289.146454 356.0
289.204193 156.0
289.254913 228.0
289.278046 176.0
289.431976 260.0
289.485596 120.0
289.62207 140.0
289.632996 208.0
289.697418 116.0
289.726196 208.0
289.739197 148.0
289.847351 172.0
289.934265 108.0
290.049011 180.0
290.093231 184.0
290.124908 208.0
290.179321 156.0
290.266144 124.0
290.593933 132.0
290.75235 128.0
290.785126 124.0
290.835968 112.0
290.914124 252.0
290.955658 108.0
291.021606 168.0
291.117218 212.0
291.203033 108.0
291.368774 112.0
291.884369 120.0
292.066528 124.0
292.144806 100.0
292.25354 180.0
292.518219 124.0
293.899261 152.0
295.959076 164.0
297.453644 116.0
297.807129 104.0
297.917145 104.0
299.269592 104.0
301.232544 156.0
325.636047 140.0
327.068512 108.0
347.722321 120.0
404.524628 140.0
430.34726 172.0
447.302948 140.0
481.760162 140.0
487.662476 148.0
507.403595 148.0
543.847656 140.0
665.893677 148.0
680.481689 176.0
823.980591 152.0
1023.852356 196.0
1090.649292 168.0
1149.878784 148.0
1194.475464 180.0
1273.369507 160.0
1385.4552 176.0
1387.470947 160.0
1426.898193 172.0
1435.579834 140.0
1518.270996 160.0
1523.743286 180.0
1536.168091 228.0
1558.048462 188.0
1568.372803 180.0
1577.972046 144.0
1596.638062 160.0
1626.487915 148.0
1636.440186 188.0
1654.848633 256.0
1684.263184 180.0
1694.038208 144.0
1703.718262 144.0
1724.309814 196.0
1724.896606 156.0
1732.93103 208.0
1752.515747 228.0
1756.350464 184.0
1763.664917 164.0
1767.352905 156.0
1771.4552 220.0
1782.588745 148.0
1790.395386 152.0
1799.080078 180.0
1802.957031 200.0
1806.761963 140.0
1809.03833 176.0
1836.928101 140.0
1844.47998 176.0
1875.687134 168.0
1879.827026 156.0
1883.107544 184.0
1889.184082 220.0
1890.672363 168.0
1891.156982 144.0
1903.693237 144.0
1905.239258 160.0
1907.037964 156.0
1911.438477 184.0
1918.039917 188.0
1931.609375 144.0
1935.223755 172.0
1939.639038 152.0
1944.55957 192.0
1959.191284 144.0
1967.666504 212.0
1980.258423 144.0
1983.92688 172.0
1995.948242 176.0
1998.830322 144.0
