>compound MLS001165756-01!fexofenadine
>formula C32H39NO4
>ionization [M+H]+
>parentmass 502.295258
#inchi InChI=1S/C32H39NO4/c1-31(2,30(35)36)25-17-15-24(16-18-25)29(34)14-9-21-33-22-19-28(20-23-33)32(37,26-10-5-3-6-11-26)27-12-7-4-8-13-27/h3-8,10-13,15-18,28-29,34,37H,9,14,19-23H2,1-2H3,(H,35,36)/t29-/m1/s1
#inchikey RWTNPBWLLIMQHL
#Ion_Source LC-ESI
#Instrument qTof
#Compound_Source NIH Pharmacologically Active Library
#PI Dorrestein
#Data_Collector VP/LMS
#Scan -1
#Precursor_MZ 502.299
#ExactMass 501.288
#Charge 1
#CAS_Number N/A
#Pubmed_ID N/A
#Smiles CC(C)(C(=O)O)c1ccc(cc1)[C@H](O)CCCN2CCC(CC2)C(O)(c3ccccc3)c4ccccc4
#INCHI_AUX N/A
#Library_Class 1
#SpectrumID CCMSLIB00000085405
#IonMode Positive
#UpdateWorkflowName UPDATE-SINGLE-ANNOTATED-GOLD
#LibraryQualityString Gold
#TaskID d252d724072548979f1f6f1ced849daf
##Scan# 1795
#SpectrumFile p4-A06_GA6_01_18331.mzXML
#LibraryName Pharm_Active_Library.mgf
#MQScore -1
#Organism Pharm_Active_Library
#TIC_Query 0
#RT_Query -1
#MZErrorPPM -1
#SharedPeaks 0
#MassDiff 0
#LibMZ -1
#SpecMZ 502.299
#SpecCharge 0
#internalFilename spec-00000.mgf

>collision 10
44.889339 124.0
44.904644 92.0
44.916569 136.0
44.933006 152.0
44.949642 356.0
44.962608 152.0
44.971355 208.0
44.98521 168.0
44.988968 184.0
45.020653 160.0
45.029816 152.0
45.054035 196.0
45.071018 128.0
45.100605 104.0
45.124977 72.0
45.142502 600.0
45.169292 204.0
45.196968 204.0
45.228691 136.0
45.238384 156.0
45.269089 216.0
45.27375 152.0
45.303509 360.0
45.316723 152.0
45.329769 44.0
45.347878 164.0
45.353027 124.0
45.375862 216.0
45.385166 220.0
45.395916 144.0
45.406925 72.0
45.427643 60.0
45.438374 72.0
45.453133 108.0
45.469852 152.0
45.486504 148.0
45.511845 216.0
45.546345 164.0
45.579399 148.0
45.614296 160.0
45.631275 140.0
45.65329 128.0
45.665394 152.0
45.686577 128.0
45.714333 196.0
45.730335 108.0
45.764973 140.0
45.784737 160.0
45.808071 48.0
45.833511 116.0
45.84346 120.0
45.873375 104.0
45.902412 88.0
45.918598 128.0
45.933899 116.0
45.946537 196.0
45.971577 148.0
45.996853 140.0
46.012218 168.0
46.017277 204.0
46.043709 228.0
46.062412 204.0
46.085312 144.0
46.129234 144.0
46.149929 180.0
46.165741 88.0
46.183125 252.0
46.196815 164.0
46.219475 160.0
46.237442 300.0
46.262978 192.0
46.2943 136.0
46.306396 120.0
46.330872 92.0
46.352161 112.0
46.364746 116.0
46.378414 140.0
46.390499 124.0
46.401997 116.0
46.41946 332.0
46.442024 124.0
46.451519 156.0
46.470512 124.0
46.481129 68.0
46.488983 144.0
46.516083 100.0
46.520088 196.0
46.534302 140.0
46.543808 120.0
46.553314 120.0
46.568253 84.0
46.582775 104.0
46.603844 140.0
46.633385 196.0
46.637341 184.0
46.643921 168.0
46.648155 164.0
46.675285 200.0
46.687851 96.0
46.700378 136.0
46.709614 208.0
46.722431 208.0
46.734398 164.0
46.756355 124.0
46.76812 148.0
46.779682 136.0
46.817135 164.0
46.832115 148.0
46.843033 264.0
46.854252 96.0
46.87571 176.0
46.887978 144.0
46.917053 120.0
46.934345 132.0
46.960236 116.0
46.971146 176.0
46.986153 92.0
47.006439 60.0
47.024815 168.0
47.037163 148.0
47.076241 144.0
47.088531 196.0
47.105312 164.0
47.118343 144.0
47.130196 176.0
47.141811 204.0
47.15411 188.0
47.170513 172.0
47.18494 144.0
47.199486 148.0
47.221813 108.0
47.250938 116.0
47.259968 172.0
47.28159 152.0
47.296669 140.0
47.311413 248.0
47.329212 76.0
47.347015 168.0
47.364445 132.0
47.385334 156.0
47.402115 180.0
47.419624 44.0
47.435574 220.0
47.440891 140.0
47.466236 40.0
47.478577 156.0
47.49184 364.0
47.537174 196.0
47.555408 160.0
47.597305 104.0
47.618595 196.0
47.632679 264.0
47.643967 236.0
47.662415 196.0
47.681763 136.0
47.707012 124.0
47.744701 164.0
47.753632 176.0
47.775326 360.0
47.795902 156.0
47.829426 260.0
47.844074 148.0
47.863537 164.0
47.87928 168.0
47.895691 124.0
47.9212 196.0
47.932793 136.0
47.959129 160.0
47.969276 140.0
47.988735 120.0
48.001144 176.0
48.023899 184.0
48.03307 108.0
48.046936 120.0
48.067356 164.0
48.077652 148.0
48.089737 276.0
48.10973 152.0
48.119007 124.0
48.125286 132.0
48.145287 160.0
48.161186 224.0
48.164249 220.0
48.198536 100.0
48.210144 180.0
48.221695 216.0
48.240551 136.0
48.251923 156.0
48.299458 192.0
48.322975 124.0
48.335773 160.0
48.341736 136.0
48.388062 152.0
48.408417 176.0
48.413319 60.0
48.419582 192.0
48.423149 120.0
48.440647 128.0
48.459492 140.0
48.513836 160.0
48.541859 156.0
48.557503 184.0
48.579803 136.0
48.601006 96.0
48.618061 188.0
48.620461 228.0
48.631847 152.0
48.652081 172.0
48.670872 68.0
48.691879 124.0
48.712036 100.0
48.746296 132.0
48.758911 180.0
48.773678 108.0
48.794529 108.0
48.814896 176.0
48.837635 164.0
48.864067 304.0
48.877979 196.0
48.900246 128.0
48.91695 140.0
48.928375 116.0
48.944382 188.0
48.947453 132.0
48.953056 176.0
48.97961 140.0
48.994396 176.0
49.025932 172.0
49.037605 112.0
49.04789 236.0
49.075771 144.0
49.089588 176.0
49.123569 220.0
49.139927 104.0
49.157299 256.0
49.196766 160.0
49.229374 152.0
49.265575 312.0
49.283741 128.0
49.293922 376.0
49.31588 212.0
49.347557 188.0
49.349792 124.0
49.362957 140.0
49.378796 148.0
49.403164 124.0
49.431328 176.0
49.446686 244.0
49.459381 216.0
49.483746 100.0
49.494949 56.0
49.526669 220.0
49.548058 196.0
49.583847 140.0
49.601421 104.0
49.613117 192.0
49.644955 160.0
49.661163 244.0
49.685162 196.0
49.698189 196.0
49.719238 76.0
49.737251 72.0
49.757137 264.0
49.773987 152.0
49.799263 316.0
49.813499 296.0
49.860207 180.0
49.873917 180.0
49.889194 132.0
49.914501 184.0
49.929626 164.0
49.948257 172.0
49.967216 140.0
49.984646 140.0
50.008759 192.0
50.025223 236.0
50.062874 348.0
50.082355 212.0
50.095749 140.0
50.111557 136.0
50.128311 224.0
50.162487 116.0
50.173569 336.0
50.195393 256.0
50.225746 256.0
50.23703 76.0
50.262424 172.0
50.276539 200.0
50.296295 124.0
50.30759 52.0
50.317471 100.0
50.33651 172.0
50.348465 160.0
50.370285 156.0
50.396564 192.0
50.407421 292.0
50.426861 200.0
50.453976 148.0
50.466877 188.0
50.494102 152.0
50.508247 284.0
50.518456 148.0
50.562012 100.0
50.573334 180.0
50.586746 160.0
50.601646 84.0
50.618244 144.0
50.639881 92.0
50.654713 332.0
50.666367 92.0
50.682404 152.0
50.696548 92.0
50.713558 180.0
50.725861 188.0
50.738529 272.0
50.751835 288.0
50.770267 316.0
50.780621 120.0
50.797215 184.0
50.807148 124.0
50.830044 160.0
50.872059 124.0
50.882782 176.0
50.896488 76.0
50.927803 164.0
50.960281 200.0
50.974686 104.0
50.990318 172.0
51.017536 164.0
51.040283 164.0
51.060127 80.0
51.074207 188.0
51.087547 116.0
51.106346 316.0
51.118309 208.0
51.135387 220.0
51.161011 84.0
51.185356 120.0
51.197098 116.0
51.208553 252.0
51.24646 220.0
51.265026 132.0
51.285934 164.0
51.307064 144.0
51.334694 280.0
51.344131 116.0
51.349606 180.0
51.399555 108.0
51.424713 156.0
51.452854 140.0
51.46624 180.0
51.482372 124.0
51.487534 116.0
51.503242 88.0
51.513245 88.0
51.541134 176.0
51.555264 156.0
51.56411 160.0
51.587009 148.0
51.602417 188.0
51.621017 292.0
51.629654 356.0
51.642467 168.0
51.649475 196.0
51.6521 228.0
51.667637 208.0
51.691231 196.0
51.706268 184.0
51.733116 196.0
51.750645 104.0
51.760231 192.0
51.776421 92.0
51.78931 112.0
51.80077 136.0
51.82592 288.0
51.855045 132.0
51.887192 100.0
51.916538 560.0
51.942307 240.0
51.962185 168.0
52.002945 88.0
52.037926 124.0
52.049545 200.0
52.081543 108.0
52.096188 184.0
52.102177 116.0
52.154556 144.0
52.175873 180.0
52.20837 248.0
52.229008 144.0
52.250938 200.0
52.273777 160.0
52.286079 44.0
52.307106 72.0
52.320553 164.0
52.352299 116.0
52.403374 184.0
52.414242 148.0
52.453468 184.0
52.472458 156.0
52.494965 108.0
52.51931 168.0
52.531021 168.0
52.543259 116.0
52.587517 184.0
52.609177 152.0
52.632572 176.0
52.645046 124.0
52.656464 304.0
52.678104 144.0
52.694157 112.0
52.721611 144.0
52.731728 128.0
52.753231 292.0
52.773647 108.0
52.811249 168.0
52.834393 200.0
52.856323 176.0
52.872562 148.0
52.881393 108.0
52.908543 152.0
52.937336 196.0
52.953762 112.0
52.974815 40.0
52.998447 128.0
53.030724 308.0
53.061584 144.0
53.080616 188.0
53.103821 156.0
53.122864 280.0
53.142624 64.0
53.16185 124.0
53.215786 204.0
53.242493 156.0
53.257347 196.0
53.266701 148.0
53.296894 136.0
53.31506 152.0
53.317757 180.0
53.325218 212.0
53.331406 284.0
53.352043 168.0
53.363567 124.0
53.366192 136.0
53.381203 112.0
53.408546 164.0
53.4557 132.0
53.480106 232.0
53.496342 176.0
53.50779 328.0
53.518665 196.0
53.532543 220.0
53.571869 60.0
53.60611 24.0
53.618496 148.0
53.640823 176.0
53.666744 120.0
53.681183 132.0
53.697548 72.0
53.715172 196.0
53.72591 168.0
53.73761 140.0
53.758495 128.0
53.770172 196.0
53.788986 256.0
53.806175 128.0
53.826286 200.0
53.84317 160.0
53.892834 284.0
53.943813 136.0
53.959591 160.0
53.972214 272.0
53.994213 148.0
53.998398 188.0
54.025745 108.0
54.040508 168.0
54.052216 44.0
54.068527 244.0
54.102627 144.0
54.115154 112.0
54.133194 200.0
54.145905 120.0
54.159973 132.0
54.168423 128.0
54.187096 212.0
54.220623 124.0
54.25605 140.0
54.276031 160.0
54.301884 112.0
54.319233 156.0
54.339397 176.0
54.373722 112.0
54.381554 148.0
54.404865 144.0
54.424019 116.0
54.433334 148.0
54.446552 152.0
54.467228 176.0
54.481804 96.0
54.494263 164.0
54.512657 140.0
54.536171 56.0
54.551605 184.0
54.574394 152.0
54.590569 288.0
54.602333 128.0
54.617836 148.0
54.629341 100.0
54.657497 232.0
54.684723 132.0
54.712139 160.0
54.73325 208.0
54.773067 96.0
54.809223 136.0
54.832005 128.0
54.850044 248.0
54.867508 112.0
54.888649 212.0
54.911503 156.0
54.930794 96.0
54.949387 268.0
54.96629 268.0
54.969608 104.0
54.988338 228.0
55.002888 132.0
55.0341 168.0
55.066059 268.0
55.088886 112.0
55.099743 180.0
55.122284 160.0
55.126766 136.0
55.138256 104.0
55.158195 104.0
55.177528 312.0
55.190018 160.0
55.208958 96.0
55.218513 156.0
55.273476 152.0
55.284779 184.0
55.31028 260.0
55.327366 156.0
55.354965 44.0
55.373165 152.0
55.38755 232.0
55.414062 232.0
55.433479 128.0
55.452457 124.0
55.480228 136.0
55.495182 108.0
55.511745 340.0
55.524277 128.0
55.540646 56.0
55.562565 132.0
55.58205 184.0
55.608128 176.0
55.612419 176.0
55.64212 156.0
55.658947 208.0
55.675282 160.0
55.6912 128.0
55.706825 152.0
55.727272 136.0
55.747887 236.0
55.783489 116.0
55.806046 120.0
55.827457 120.0
55.846199 136.0
55.863365 288.0
55.928032 68.0
55.950794 124.0
55.969398 356.0
55.989933 104.0
56.00317 112.0
56.015099 144.0
56.042877 136.0
56.063927 164.0
56.073994 172.0
56.118805 132.0
56.132103 180.0
56.174576 140.0
56.194839 104.0
56.213444 136.0
56.226887 132.0
56.239922 120.0
56.265541 260.0
56.275826 152.0
56.291466 188.0
56.306313 248.0
56.331291 140.0
56.350056 52.0
56.390404 160.0
56.418804 64.0
56.432209 124.0
56.44651 264.0
56.466652 104.0
56.486927 144.0
56.503883 148.0
56.51265 136.0
56.527988 100.0
56.557217 332.0
56.572037 100.0
56.588593 172.0
56.625164 340.0
56.636517 220.0
56.655254 104.0
56.672245 136.0
56.694641 112.0
56.711628 116.0
56.717655 168.0
56.722687 56.0
56.728157 100.0
56.74688 132.0
56.766682 140.0
56.780914 144.0
56.791767 116.0
56.815662 188.0
56.828327 200.0
56.839546 48.0
56.842125 132.0
56.859177 140.0
56.884312 188.0
56.92223 148.0
56.937157 204.0
56.98608 188.0
57.008152 104.0
57.034904 148.0
57.050602 172.0
57.065525 152.0
57.106518 172.0
57.125126 168.0
57.1492 180.0
57.181484 132.0
57.207333 172.0
57.222786 148.0
57.250053 144.0
57.265987 372.0
57.281765 144.0
57.296745 120.0
57.308247 164.0
57.342289 184.0
57.356361 200.0
57.376621 240.0
57.432415 152.0
57.443577 192.0
57.455391 200.0
57.468792 148.0
57.491257 84.0
57.52623 140.0
57.542576 136.0
57.558086 132.0
57.602982 132.0
57.620926 164.0
57.624615 100.0
57.630444 160.0
57.64463 212.0
57.666443 60.0
57.689117 224.0
57.714821 176.0
57.741047 140.0
57.767754 112.0
57.784298 188.0
57.805576 184.0
57.829311 88.0
57.833626 60.0
57.844219 128.0
57.86869 184.0
57.896408 148.0
57.927361 220.0
57.951351 132.0
57.96912 448.0
57.994884 188.0
58.018566 152.0
58.073883 160.0
58.107101 152.0
58.134609 244.0
58.146553 176.0
58.159546 400.0
58.187862 112.0
58.211834 84.0
58.231575 120.0
58.246765 136.0
58.260437 160.0
58.287785 252.0
58.302818 220.0
58.330025 156.0
58.347591 240.0
58.372814 152.0
58.39724 104.0
58.442104 132.0
58.446331 104.0
58.470268 148.0
58.50066 120.0
58.510315 144.0
58.530857 200.0
58.556591 232.0
58.584007 328.0
58.591927 156.0
58.59565 112.0
58.632084 80.0
58.642635 160.0
58.668606 76.0
58.695423 236.0
58.710976 108.0
58.72451 64.0
58.734737 152.0
58.748913 156.0
58.754627 136.0
58.776569 152.0
58.78878 208.0
58.813999 168.0
58.820465 184.0
58.837276 176.0
58.842697 136.0
58.848892 220.0
58.868843 340.0
58.911762 124.0
58.955795 180.0
58.967117 160.0
58.987331 128.0
59.001091 180.0
59.015514 156.0
59.046963 100.0
59.063786 96.0
59.083046 176.0
59.094383 148.0
59.105095 248.0
59.120838 124.0
59.147358 156.0
59.152794 176.0
59.167408 144.0
59.172302 136.0
59.191475 148.0
59.222973 128.0
59.233696 136.0
59.248589 72.0
59.275059 152.0
59.297192 272.0
59.318554 372.0
59.352291 188.0
59.401833 140.0
59.42379 192.0
59.483643 136.0
59.50584 200.0
59.52663 148.0
59.547287 212.0
59.569195 140.0
59.597736 192.0
59.621067 152.0
59.626343 172.0
59.632408 136.0
59.637608 152.0
59.651848 284.0
59.668648 140.0
59.691792 108.0
59.726425 156.0
59.743668 172.0
59.763344 72.0
59.781811 44.0
59.794693 248.0
59.80719 376.0
59.837936 224.0
59.859093 156.0
59.901901 124.0
59.917309 144.0
59.972111 156.0
60.00053 188.0
60.017071 132.0
60.046257 232.0
60.074791 156.0
60.089333 152.0
60.101494 140.0
60.106079 120.0
60.150524 120.0
60.176804 424.0
60.198029 100.0
60.241276 68.0
60.266857 172.0
60.284534 140.0
60.296577 172.0
60.317135 172.0
60.32959 292.0
60.367222 164.0
60.380383 180.0
60.391098 168.0
60.40427 120.0
60.439167 220.0
60.462948 152.0
60.479404 132.0
60.496433 84.0
60.512493 384.0
60.539783 136.0
60.568203 184.0
60.58189 108.0
60.595547 156.0
60.626587 124.0
60.655987 168.0
60.670246 140.0
60.700947 176.0
60.714169 144.0
60.733513 116.0
60.752876 272.0
60.759674 148.0
60.763996 160.0
60.789364 160.0
60.821957 160.0
60.839886 160.0
60.846249 204.0
60.860096 148.0
60.87785 72.0
60.895435 164.0
60.919735 124.0
60.952572 156.0
60.972294 116.0
60.990875 176.0
61.016136 80.0
61.051899 136.0
61.07288 204.0
61.086636 120.0
61.104786 84.0
61.121105 312.0
61.13076 208.0
61.145245 144.0
61.179382 292.0
61.203026 136.0
61.22665 152.0
61.257351 132.0
61.261101 108.0
61.2673 176.0
61.302532 148.0
61.325912 156.0
61.356071 264.0
61.372677 124.0
61.386116 188.0
61.390205 116.0
61.395229 216.0
61.408546 184.0
61.435062 144.0
61.450531 272.0
61.481873 120.0
61.498459 168.0
61.516094 108.0
61.521332 100.0
61.52755 136.0
61.539627 72.0
61.561913 132.0
61.578117 140.0
61.6203 92.0
61.640163 176.0
61.646458 132.0
61.658558 256.0
61.670517 208.0
61.723469 152.0
61.750355 144.0
61.772488 112.0
61.801907 328.0
61.832829 184.0
61.857689 180.0
61.869869 140.0
61.891678 176.0
61.922085 132.0
61.943111 212.0
61.960342 92.0
61.976322 120.0
61.99638 188.0
62.014851 148.0
62.034481 104.0
62.059551 160.0
62.073193 164.0
62.097279 168.0
62.113972 244.0
62.142208 60.0
62.16328 144.0
62.20005 136.0
62.23391 160.0
62.245804 84.0
62.258366 28.0
62.270931 112.0
62.292919 192.0
62.309689 160.0
62.324944 160.0
62.352131 304.0
62.373444 196.0
62.404415 72.0
62.417164 220.0
62.437347 144.0
62.456585 160.0
62.491505 120.0
62.509968 136.0
62.541363 108.0
62.553955 196.0
62.568748 164.0
62.581429 180.0
62.602203 180.0
62.612213 404.0
62.637413 76.0
62.682053 164.0
62.709892 124.0
62.727463 164.0
62.739841 108.0
62.762657 204.0
62.774799 128.0
62.802917 176.0
62.822014 152.0
62.848667 156.0
62.868855 136.0
62.881805 152.0
62.898621 172.0
62.935417 208.0
62.968567 184.0
63.007145 160.0
63.019192 132.0
63.034576 96.0
63.062656 420.0
63.1077 144.0
63.126675 116.0
63.138447 244.0
63.148262 148.0
63.15379 56.0
63.160862 156.0
63.175709 364.0
63.231144 336.0
63.27285 136.0
63.29784 48.0
63.303219 124.0
63.329617 156.0
63.343166 168.0
63.365685 88.0
63.378361 128.0
63.402981 156.0
63.415443 140.0
63.427486 88.0
63.44651 80.0
63.4748 208.0
63.495525 128.0
63.514698 292.0
63.528976 180.0
63.586693 220.0
63.618099 248.0
63.628513 144.0
63.658146 180.0
63.705666 184.0
63.727425 180.0
63.743317 108.0
63.760796 144.0
63.775276 72.0
63.800533 116.0
63.819611 136.0
63.837105 160.0
63.857777 144.0
63.877472 188.0
63.899681 444.0
63.92009 160.0
63.942101 36.0
63.958794 164.0
63.977806 132.0
64.003891 196.0
64.028069 176.0
64.04805 192.0
64.061371 204.0
64.091537 152.0
64.11338 160.0
64.136414 116.0
64.188454 156.0
64.194321 100.0
64.224365 252.0
64.246445 120.0
64.268776 172.0
64.286331 28.0
64.319214 200.0
64.330971 152.0
64.346985 108.0
64.361511 160.0
64.377815 196.0
64.396561 172.0
64.415878 296.0
64.43734 152.0
64.489159 156.0
64.509674 152.0
64.522728 164.0
64.539955 72.0
64.579201 304.0
64.589958 92.0
64.609085 104.0
64.631485 92.0
64.658577 116.0
64.685081 196.0
64.701904 244.0
64.721123 112.0
64.736328 96.0
64.75238 224.0
64.773384 176.0
64.820351 156.0
64.830887 76.0
64.842957 124.0
64.893463 292.0
64.937462 112.0
64.961159 160.0
65.040146 124.0
65.060875 140.0
65.080284 72.0
65.097015 248.0
65.13488 188.0
65.160583 72.0
65.181473 144.0
65.19754 96.0
65.221344 132.0
65.256729 176.0
65.285713 180.0
65.314911 84.0
65.331718 232.0
65.348694 60.0
65.379272 132.0
65.393753 272.0
65.410721 172.0
65.468941 228.0
65.473366 160.0
65.479134 140.0
65.490875 356.0
65.504738 168.0
65.528008 184.0
65.546776 104.0
65.575752 180.0
65.588646 108.0
65.619278 124.0
65.633789 132.0
65.66568 108.0
65.681297 52.0
65.717659 92.0
65.733475 208.0
65.750015 160.0
65.762848 160.0
65.774139 92.0
65.79351 92.0
65.805931 220.0
65.809959 152.0
65.815712 96.0
65.823387 128.0
65.826126 160.0
65.848495 164.0
65.872643 124.0
65.898788 152.0
65.916504 168.0
65.934883 192.0
65.971252 184.0
65.995468 172.0
66.0084 128.0
66.027946 96.0
66.048836 160.0
66.078888 264.0
66.095749 120.0
66.136345 188.0
66.165672 160.0
66.197731 48.0
66.214043 172.0
66.228355 156.0
66.25766 216.0
66.280708 160.0
66.300247 256.0
66.353508 224.0
66.37117 116.0
66.386604 208.0
66.424515 224.0
66.442116 72.0
66.477005 172.0
66.4944 228.0
66.526596 120.0
66.547478 144.0
66.609688 104.0
66.624306 64.0
66.637024 164.0
66.649376 240.0
66.661674 128.0
66.677925 88.0
66.692551 148.0
66.732506 160.0
66.753014 64.0
66.770279 184.0
66.785233 120.0
66.825691 92.0
66.846046 84.0
66.864952 132.0
66.881233 132.0
66.896385 116.0
66.925186 196.0
66.944321 140.0
66.970886 320.0
67.025238 168.0
67.040085 216.0
67.053024 140.0
67.074715 92.0
67.098679 124.0
67.123367 140.0
67.135391 84.0
67.166039 96.0
67.170296 160.0
67.182693 112.0
67.19574 96.0
67.215599 140.0
67.236893 128.0
67.258675 276.0
67.280609 184.0
67.301521 252.0
67.334496 244.0
67.345573 112.0
67.367569 160.0
67.391212 144.0
67.41861 328.0
67.457916 164.0
67.487663 104.0
67.518433 152.0
67.547783 284.0
67.564972 188.0
67.602974 248.0
67.620605 116.0
67.638222 136.0
67.656616 176.0
67.670258 180.0
67.695908 168.0
67.745049 204.0
67.764709 56.0
67.781601 128.0
67.795837 188.0
67.809547 148.0
67.830063 136.0
67.849312 128.0
67.86544 196.0
67.882721 152.0
67.913879 152.0
67.926849 124.0
67.955452 212.0
67.995285 212.0
68.013084 148.0
68.034317 192.0
68.050087 152.0
68.074715 172.0
68.088463 108.0
68.111671 176.0
68.13549 204.0
68.156944 144.0
68.170639 92.0
68.205231 100.0
68.257179 208.0
68.279358 228.0
68.305939 176.0
68.324554 188.0
68.337639 172.0
68.366257 144.0
68.387085 312.0
68.405998 236.0
68.420357 220.0
68.458435 172.0
68.477638 76.0
68.492462 88.0
68.50399 176.0
68.516663 156.0
68.545937 136.0
68.581833 168.0
68.59938 212.0
68.614403 132.0
68.632011 324.0
68.654549 116.0
68.696526 176.0
68.733948 168.0
68.755058 148.0
68.779366 204.0
68.794228 172.0
68.825592 288.0
68.838806 128.0
68.870491 124.0
68.895294 140.0
68.90786 224.0
68.931313 88.0
68.972305 180.0
68.9842 200.0
69.009239 216.0
69.030495 92.0
69.056953 120.0
69.080109 148.0
69.097183 248.0
69.133812 244.0
69.155678 144.0
69.192642 140.0
69.211533 176.0
69.240662 188.0
69.286217 132.0
69.305687 380.0
69.325188 204.0
69.344208 64.0
69.371559 116.0
69.384819 76.0
69.409248 224.0
69.426277 140.0
69.47998 148.0
69.499924 252.0
69.514114 168.0
69.547348 152.0
69.57177 232.0
69.606598 156.0
69.628746 68.0
69.642029 236.0
69.675255 76.0
69.689659 172.0
69.710144 48.0
69.740059 204.0
69.75631 124.0
69.773071 112.0
69.809334 372.0
69.858116 196.0
69.876419 116.0
69.89312 216.0
69.919136 208.0
69.934662 164.0
69.953682 316.0
69.98777 164.0
69.995728 88.0
69.998222 128.0
70.031876 204.0
70.061836 148.0
70.080734 224.0
70.109535 288.0
70.132507 128.0
70.157875 268.0
70.217903 204.0
70.229576 28.0
70.24292 136.0
70.257095 200.0
70.277954 108.0
70.291306 264.0
70.314095 140.0
70.333595 132.0
70.346382 144.0
70.360199 184.0
70.383575 288.0
70.409828 48.0
70.432793 144.0
70.467438 92.0
70.486671 36.0
70.505966 120.0
70.52523 140.0
70.537117 152.0
70.569168 112.0
70.596954 160.0
70.641647 184.0
70.648796 128.0
70.656059 180.0
70.675034 184.0
70.689659 112.0
70.714104 184.0
70.72467 152.0
70.739502 164.0
70.751556 172.0
70.772156 136.0
70.787666 128.0
70.800331 212.0
70.821266 96.0
70.847244 188.0
70.873116 160.0
70.904976 120.0
70.935287 84.0
70.955322 320.0
70.967056 116.0
70.978798 180.0
70.996719 220.0
71.014244 176.0
71.043465 100.0
71.091187 116.0
71.104614 160.0
71.122154 44.0
71.130882 148.0
71.161682 168.0
71.208702 64.0
71.230133 100.0
71.251869 248.0
71.27504 156.0
71.293114 116.0
71.312401 172.0
71.318672 212.0
71.331604 304.0
71.365898 88.0
71.38623 132.0
71.417877 132.0
71.456734 144.0
71.471825 176.0
71.507973 164.0
71.547066 160.0
71.579735 172.0
71.601158 148.0
71.619095 68.0
71.639259 128.0
71.66687 144.0
71.700691 100.0
71.711761 124.0
71.735359 164.0
71.750534 164.0
71.761421 128.0
71.819122 184.0
71.838226 64.0
71.861847 300.0
71.882507 180.0
71.910782 88.0
71.929817 116.0
71.944466 180.0
71.969734 148.0
71.996887 180.0
72.02433 208.0
72.056007 120.0
72.069427 140.0
72.096329 296.0
72.111656 180.0
72.140892 156.0
72.156563 200.0
72.18544 60.0
72.22654 164.0
72.274117 60.0
72.294418 148.0
72.327354 228.0
72.365417 188.0
72.379059 156.0
72.39209 132.0
72.404404 148.0
72.42614 260.0
72.465759 184.0
72.491646 232.0
72.511246 128.0
72.543427 132.0
72.573914 116.0
72.602646 208.0
72.631577 88.0
72.645142 156.0
72.68586 152.0
72.706223 108.0
72.718109 120.0
72.742455 184.0
72.761024 168.0
72.800621 312.0
72.820946 352.0
72.846519 108.0
72.85125 156.0
72.857857 224.0
72.870934 188.0
72.887924 104.0
72.91172 44.0
72.925087 348.0
72.931389 68.0
72.93412 196.0
72.949234 116.0
72.97406 148.0
72.978477 204.0
73.020523 96.0
73.03952 144.0
73.065414 264.0
73.095375 196.0
73.106506 156.0
73.116531 148.0
73.136841 176.0
73.154945 212.0
73.176247 148.0
73.18824 144.0
73.221962 252.0
73.239441 116.0
73.288803 148.0
73.304825 88.0
73.339897 180.0
73.362778 108.0
73.384941 100.0
73.435623 72.0
73.449242 176.0
73.471268 240.0
73.474182 148.0
73.505852 140.0
73.520729 132.0
73.530716 148.0
73.574799 184.0
73.587975 128.0
73.618568 100.0
73.665375 300.0
73.720306 168.0
73.740005 144.0
73.798561 128.0
73.818642 112.0
73.84259 192.0
73.863113 144.0
73.87915 64.0
73.903526 148.0
73.92083 76.0
73.938393 64.0
73.952332 192.0
73.983894 96.0
74.011978 196.0
74.025459 84.0
74.056252 148.0
74.070229 284.0
74.082375 220.0
74.113281 188.0
74.132721 168.0
74.169617 104.0
74.214943 236.0
74.229103 120.0
74.246765 204.0
74.279083 200.0
74.29303 144.0
74.322243 148.0
74.337601 152.0
74.361603 236.0
74.422127 252.0
74.437881 152.0
74.454422 28.0
74.466446 124.0
74.49633 120.0
74.514542 112.0
74.535164 204.0
74.548111 116.0
74.587471 144.0
74.605629 136.0
74.631416 184.0
74.65377 224.0
74.677849 120.0
74.704277 88.0
74.733475 120.0
74.766075 104.0
74.781082 108.0
74.802818 140.0
74.82196 192.0
74.841095 116.0
74.873474 188.0
74.895668 192.0
74.922867 136.0
74.945656 132.0
74.965355 176.0
74.97747 136.0
75.01017 144.0
75.025108 60.0
75.057442 104.0
75.080299 136.0
75.142029 164.0
75.163658 100.0
75.181488 112.0
75.198174 52.0
75.213707 96.0
75.260262 120.0
75.266151 148.0
75.286118 180.0
75.34668 80.0
75.384148 64.0
75.38755 140.0
75.411201 176.0
75.417068 60.0
75.423248 220.0
75.430061 128.0
75.455467 132.0
75.498734 128.0
75.531555 228.0
75.544907 168.0
75.568466 184.0
75.595505 132.0
75.622238 168.0
75.650009 136.0
75.65963 96.0
75.669136 336.0
75.724983 204.0
75.749664 244.0
75.768806 60.0
75.795723 172.0
75.819923 288.0
75.846603 148.0
75.866997 176.0
75.906601 208.0
75.918983 144.0
75.936951 316.0
75.963776 112.0
75.992462 96.0
76.012024 116.0
76.030632 292.0
76.046082 180.0
76.07634 120.0
76.107933 168.0
76.129585 132.0
76.141747 136.0
76.16964 132.0
76.184929 116.0
76.204948 156.0
76.225044 160.0
76.245979 192.0
76.259544 224.0
76.264946 180.0
76.269814 208.0
76.300087 188.0
76.327385 320.0
76.349976 132.0
76.363625 208.0
76.370224 104.0
76.374512 156.0
76.406693 132.0
76.425293 136.0
76.452293 240.0
76.485039 116.0
76.50869 232.0
76.534744 144.0
76.570564 356.0
76.599075 164.0
76.611137 144.0
76.630882 184.0
76.655602 84.0
76.671478 292.0
76.687317 196.0
76.708969 148.0
76.730789 160.0
76.776749 164.0
76.799637 132.0
76.846741 144.0
76.875946 308.0
76.898216 160.0
76.904686 156.0
76.921783 84.0
76.933998 204.0
76.949715 124.0
76.976631 256.0
77.000351 136.0
77.044167 148.0
77.066734 168.0
77.082657 176.0
77.096001 80.0
77.117409 160.0
77.134888 120.0
77.152748 132.0
77.166054 92.0
77.191925 180.0
77.215317 152.0
77.231697 104.0
77.253136 116.0
77.297539 68.0
77.322037 104.0
77.335953 160.0
77.38134 200.0
77.442848 160.0
77.465614 136.0
77.491898 188.0
77.519073 328.0
77.544395 192.0
77.550865 184.0
77.577766 160.0
77.591629 128.0
77.595482 116.0
77.603065 140.0
77.60836 176.0
77.661934 92.0
77.678307 160.0
77.691757 76.0
77.704041 164.0
77.744286 192.0
77.751633 164.0
77.777412 128.0
77.785675 100.0
77.806526 232.0
77.831253 200.0
77.847969 128.0
77.863777 40.0
77.898689 132.0
77.9235 136.0
77.937553 64.0
77.959709 228.0
77.985001 116.0
78.01313 148.0
78.036476 128.0
78.057518 176.0
78.084763 264.0
78.118416 128.0
78.140686 164.0
78.153824 152.0
78.176697 160.0
78.203873 136.0
78.236542 148.0
78.261192 160.0
78.288582 188.0
78.370125 112.0
78.387047 124.0
78.429314 248.0
78.44632 200.0
78.459145 112.0
78.476929 172.0
78.502426 124.0
78.518471 176.0
78.557274 140.0
78.570488 116.0
78.587021 300.0
78.607857 280.0
78.665443 160.0
78.684921 132.0
78.743256 152.0
78.791626 152.0
78.825638 152.0
78.85733 124.0
78.879448 116.0
78.886559 128.0
78.89151 176.0
78.919022 164.0
78.934448 208.0
78.941078 104.0
78.947609 176.0
78.951439 168.0
79.006523 176.0
79.018364 284.0
79.066139 156.0
79.080116 236.0
79.112274 124.0
79.134224 112.0
79.14843 124.0
79.168091 68.0
79.195381 116.0
79.231949 204.0
79.269875 168.0
79.294601 120.0
79.32296 184.0
79.351326 120.0
79.369057 116.0
79.386787 148.0
79.405304 136.0
79.44532 60.0
79.457741 144.0
79.493088 156.0
79.506828 132.0
79.531487 168.0
79.546898 132.0
79.566193 244.0
79.594604 172.0
79.615715 136.0
79.640579 116.0
79.668694 116.0
79.674698 96.0
79.680183 136.0
79.709091 128.0
79.741852 168.0
79.763184 32.0
79.787422 132.0
79.825409 156.0
79.838264 140.0
79.861938 160.0
79.875206 52.0
79.89122 80.0
79.938766 232.0
79.950294 216.0
79.976631 112.0
80.01223 68.0
80.02623 116.0
80.059494 100.0
80.075165 124.0
80.098701 144.0
80.109634 108.0
80.142326 172.0
80.151085 96.0
80.155487 168.0
80.216782 204.0
80.223419 204.0
80.233055 144.0
80.267021 200.0
80.295555 112.0
80.335785 288.0
80.355011 48.0
80.38475 108.0
80.399025 52.0
80.4133 152.0
80.441376 132.0
80.469757 256.0
80.481293 276.0
80.497208 212.0
80.54364 140.0
80.556938 180.0
80.612198 108.0
80.653183 132.0
80.665596 164.0
80.693932 120.0
80.728477 248.0
80.76683 212.0
80.781418 120.0
80.80777 256.0
80.83429 252.0
80.85231 232.0
80.874435 196.0
80.914734 132.0
80.928139 144.0
80.951141 184.0
80.967133 108.0
81.008728 116.0
81.048874 88.0
81.074013 104.0
81.108154 204.0
81.120583 248.0
81.138535 184.0
81.167519 80.0
81.19709 160.0
81.221451 300.0
81.25386 168.0
81.289879 148.0
81.310577 368.0
81.324219 144.0
81.331436 120.0
81.337852 140.0
81.344131 196.0
81.370346 296.0
81.393158 264.0
81.417671 132.0
81.446411 192.0
81.465836 172.0
81.480545 80.0
81.503899 132.0
81.517929 192.0
81.555672 228.0
81.577583 188.0
81.618935 144.0
81.631523 160.0
81.664406 112.0
81.707214 48.0
81.72644 96.0
81.741837 124.0
81.762726 176.0
81.772255 212.0
81.802444 68.0
81.820358 196.0
81.827293 184.0
81.832268 148.0
81.860794 156.0
81.889366 128.0
81.917145 128.0
81.94529 188.0
81.966995 164.0
81.987961 112.0
82.007065 60.0
82.034431 292.0
82.051849 172.0
82.067276 128.0
82.081352 144.0
82.106209 332.0
82.119362 136.0
82.148323 200.0
82.179939 172.0
82.197487 84.0
82.240456 120.0
82.261841 180.0
82.281975 184.0
82.314926 72.0
82.355156 284.0
82.375885 72.0
82.409126 100.0
82.421654 144.0
82.460716 160.0
82.465851 152.0
82.485229 180.0
82.507805 140.0
82.518837 152.0
82.533119 64.0
82.55262 324.0
82.576462 256.0
82.61956 156.0
82.62793 76.0
82.63839 236.0
82.650688 380.0
82.668121 124.0
82.682289 164.0
82.694122 224.0
82.74118 68.0
82.754326 108.0
82.77124 40.0
82.800941 264.0
82.813614 48.0
82.841637 164.0
82.90239 136.0
82.94313 148.0
82.970894 156.0
82.991211 180.0
83.050507 212.0
83.069099 152.0
83.075577 212.0
83.098221 144.0
83.122444 152.0
83.139915 192.0
83.155655 284.0
83.175888 300.0
83.205254 172.0
83.228905 48.0
83.258492 176.0
83.287018 64.0
83.299728 364.0
83.341644 232.0
83.363541 204.0
83.383308 136.0
83.414207 220.0
83.429604 60.0
83.454208 124.0
83.466934 176.0
83.501587 136.0
83.544426 184.0
83.562119 192.0
83.585167 120.0
83.601501 164.0
83.621567 208.0
83.654938 128.0
83.692558 148.0
83.709915 188.0
83.729317 196.0
83.765266 252.0
83.788826 176.0
83.803741 92.0
83.818848 96.0
83.841934 120.0
83.861977 156.0
83.885674 192.0
83.940193 148.0
83.976547 388.0
84.020622 180.0
84.035072 144.0
84.058937 192.0
84.071716 176.0
84.096657 84.0
84.120995 256.0
84.133774 236.0
84.168465 152.0
84.206436 136.0
84.235481 76.0
84.238251 132.0
84.260109 112.0
84.276878 112.0
84.280396 156.0
84.302589 196.0
84.335373 240.0
84.394531 132.0
84.399261 192.0
84.433922 120.0
84.480362 140.0
84.505692 52.0
84.545029 148.0
84.575699 172.0
84.662788 148.0
84.682915 244.0
84.732872 164.0
84.746452 212.0
84.766701 168.0
84.812431 112.0
84.837769 136.0
84.867706 240.0
84.88147 136.0
84.911438 196.0
84.93161 116.0
84.94445 220.0
84.96315 144.0
85.007133 280.0
85.041901 108.0
85.063675 272.0
85.087593 156.0
85.103195 104.0
85.144829 140.0
85.152176 88.0
85.181252 124.0
85.239349 224.0
85.270576 260.0
85.30735 120.0
85.332092 196.0
85.354004 160.0
85.372574 124.0
85.401962 156.0
85.428307 164.0
85.442291 140.0
85.475075 220.0
85.489761 80.0
85.492981 124.0
85.50737 152.0
85.525124 148.0
85.562729 140.0
85.59021 76.0
85.606102 64.0
85.620834 144.0
85.646362 200.0
85.667862 220.0
85.701843 168.0
85.733002 148.0
85.799568 128.0
85.83091 156.0
85.858574 124.0
85.894257 288.0
85.910332 296.0
85.934204 108.0
85.947121 68.0
85.993736 112.0
86.016724 140.0
86.028732 160.0
86.057945 168.0
86.065918 232.0
86.082603 140.0
86.100044 204.0
86.118279 84.0
86.136383 116.0
86.169952 244.0
86.197189 196.0
86.230522 180.0
86.248146 68.0
86.268639 136.0
86.28463 200.0
86.310143 208.0
86.354073 124.0
86.376251 212.0
86.399773 112.0
86.440918 148.0
86.488602 88.0
86.551544 72.0
86.574738 116.0
86.588577 148.0
86.603394 84.0
86.615623 80.0
86.629021 180.0
86.643875 136.0
86.662674 60.0
86.6922 176.0
86.696579 136.0
86.738663 180.0
86.756477 124.0
86.77774 148.0
86.78936 172.0
86.814674 232.0
86.839714 192.0
86.872169 200.0
86.894165 228.0
86.909279 152.0
86.92598 88.0
86.949715 228.0
86.984093 216.0
87.009499 180.0
87.022499 160.0
87.045029 556.0
87.063347 112.0
87.087433 124.0
87.119133 116.0
87.177147 172.0
87.206406 452.0
87.234283 160.0
87.249161 168.0
87.288887 164.0
87.309746 164.0
87.32354 168.0
87.336555 124.0
87.356316 180.0
87.383064 164.0
87.398598 320.0
87.427719 160.0
87.446274 132.0
87.457756 204.0
87.488197 124.0
87.50631 272.0
87.543106 224.0
87.571075 132.0
87.634415 216.0
87.682861 64.0
87.732582 472.0
87.77607 32.0
87.808708 396.0
87.823067 160.0
87.848808 236.0
87.87291 148.0
87.906906 144.0
87.933212 204.0
87.960915 104.0
87.968445 72.0
87.974503 112.0
88.001839 104.0
88.030556 148.0
88.051163 208.0
88.065132 188.0
88.072495 168.0
88.078781 160.0
88.100822 104.0
88.119507 56.0
88.16996 168.0
88.188652 68.0
88.207344 120.0
88.222298 192.0
88.241859 180.0
88.245186 164.0
88.252647 136.0
88.270935 144.0
88.347588 92.0
88.364426 112.0
88.389053 272.0
88.43528 144.0
88.452385 56.0
88.472115 200.0
88.486275 228.0
88.492546 132.0
88.540382 144.0
88.563629 132.0
88.594086 260.0
88.619057 176.0
88.644135 188.0
88.665359 272.0
88.686989 160.0
88.73526 100.0
88.770882 60.0
88.787071 184.0
88.81292 164.0
88.831764 144.0
88.854874 72.0
88.898232 140.0
88.93119 148.0
88.963989 212.0
89.003563 380.0
89.054573 156.0
89.075951 208.0
89.128197 216.0
89.172638 180.0
89.198952 88.0
89.22715 120.0
89.24971 116.0
89.277534 160.0
89.296722 132.0
89.327072 244.0
89.35598 136.0
89.375732 180.0
89.39267 164.0
89.405838 104.0
89.441368 356.0
89.475487 72.0
89.491142 152.0
89.526321 140.0
89.542694 52.0
89.560928 100.0
89.58461 152.0
89.594322 160.0
89.617142 168.0
89.64904 176.0
89.682747 144.0
89.717216 140.0
89.743523 136.0
89.762123 152.0
89.788277 84.0
89.804878 256.0
89.826004 136.0
89.852409 120.0
89.869392 116.0
89.882599 84.0
89.897179 204.0
89.91468 144.0
89.940125 292.0
89.947487 136.0
89.951607 128.0
89.980743 108.0
90.001518 180.0
90.022285 168.0
90.057068 144.0
90.087463 112.0
90.107285 176.0
90.133736 100.0
90.15641 76.0
90.180984 300.0
90.193108 164.0
90.214767 128.0
90.24157 80.0
90.283073 60.0
90.315704 200.0
90.331757 168.0
90.349655 140.0
90.368057 284.0
90.410767 232.0
90.433327 172.0
90.446739 180.0
90.469353 124.0
90.474487 148.0
90.509026 128.0
90.533745 200.0
90.559387 168.0
90.578964 192.0
90.604851 172.0
90.625328 124.0
90.645668 420.0
90.671089 92.0
90.717461 228.0
90.741989 188.0
90.778824 148.0
90.792274 132.0
90.806755 148.0
90.820297 140.0
90.833527 184.0
90.860786 136.0
90.877167 164.0
90.893044 124.0
90.923401 28.0
90.94442 192.0
90.972755 168.0
90.988976 352.0
91.011971 116.0
91.026222 172.0
91.055077 14172.0
91.092903 176.0
91.109093 148.0
91.133186 76.0
91.194992 148.0
91.212296 160.0
91.242516 136.0
91.276176 256.0
91.30127 116.0
91.326187 112.0
91.341408 148.0
91.364235 140.0
91.38382 244.0
91.429878 352.0
91.459824 220.0
91.478409 132.0
91.506966 160.0
91.520294 148.0
91.553642 156.0
91.596901 124.0
91.63279 128.0
91.648537 168.0
91.677322 176.0
91.708244 188.0
91.748581 132.0
91.773293 256.0
91.788963 72.0
91.809898 232.0
91.82901 84.0
91.844269 68.0
91.877304 172.0
91.897682 124.0
91.92115 120.0
91.968292 152.0
91.986176 224.0
92.015091 272.0
92.039337 148.0
92.059235 1740.0
92.088577 156.0
92.117233 144.0
92.161171 204.0
92.193146 208.0
92.203682 328.0
92.231468 276.0
92.255775 80.0
92.277145 124.0
92.2948 156.0
92.324608 264.0
92.389793 200.0
92.422554 176.0
92.437645 136.0
92.462578 136.0
92.466599 100.0
92.469757 108.0
92.49202 84.0
92.506134 128.0
92.530304 68.0
92.547539 208.0
92.593094 344.0
92.607994 56.0
92.632507 196.0
92.710533 176.0
92.727432 288.0
92.732475 140.0
92.737434 136.0
92.763649 156.0
92.777489 224.0
92.798355 180.0
92.836021 152.0
92.855423 272.0
92.885292 268.0
92.90432 320.0
92.935921 184.0
92.950058 40.0
92.978966 184.0
93.00827 184.0
93.058998 368.0
93.105553 124.0
93.120918 92.0
93.152084 88.0
93.169945 84.0
93.204163 192.0
93.218132 172.0
93.244926 176.0
93.287933 152.0
93.315567 204.0
93.327141 152.0
93.347557 236.0
93.36499 180.0
93.384224 444.0
93.39769 104.0
93.442047 344.0
93.462479 136.0
93.486786 180.0
93.503304 188.0
93.523849 260.0
93.551804 272.0
93.570885 144.0
93.601608 96.0
93.65786 192.0
93.674377 156.0
93.730743 68.0
93.751816 124.0
93.784409 308.0
93.834084 176.0
93.857407 304.0
93.887367 168.0
93.906174 148.0
93.931252 60.0
93.973694 220.0
93.989128 148.0
94.022812 132.0
94.034683 152.0
94.067398 1400.0
94.118454 124.0
94.137764 128.0
94.156433 120.0
94.180252 212.0
94.193771 108.0
94.218887 136.0
94.251457 300.0
94.265884 160.0
94.28476 348.0
94.296913 188.0
94.313385 204.0
94.338432 160.0
94.363831 180.0
94.40934 100.0
94.433449 136.0
94.458595 96.0
94.489548 76.0
94.51828 148.0
94.539856 160.0
94.559204 168.0
94.572754 56.0
94.594994 188.0
94.630661 188.0
94.65451 104.0
94.676163 136.0
94.704834 148.0
94.71991 100.0
94.733475 340.0
94.750908 144.0
94.763596 124.0
94.776161 168.0
94.791252 156.0
94.79644 128.0
94.811234 168.0
94.85067 108.0
94.87825 96.0
94.892212 44.0
94.925346 140.0
94.940865 208.0
94.983124 132.0
95.03009 244.0
95.073326 952.0
95.15139 104.0
95.156975 32.0
95.175659 136.0
95.1912 148.0
95.217239 408.0
95.239876 124.0
95.26889 140.0
95.282372 132.0
95.309685 368.0
95.32267 128.0
95.350807 128.0
95.36853 104.0
95.384583 168.0
95.418526 212.0
95.447693 232.0
95.463737 120.0
95.480133 180.0
95.499016 164.0
95.512825 200.0
95.529381 224.0
95.55526 164.0
95.587746 100.0
95.609154 168.0
95.632553 160.0
95.650589 148.0
95.712723 156.0
95.735405 164.0
95.758324 148.0
95.785698 148.0
95.811882 208.0
95.843407 108.0
95.875702 300.0
95.899124 236.0
95.920784 168.0
95.936378 132.0
95.952011 200.0
95.987068 116.0
96.00267 232.0
96.01593 144.0
96.028198 120.0
96.056267 124.0
96.080833 5168.0
96.122734 124.0
96.156693 164.0
96.186607 144.0
96.218437 128.0
96.246468 128.0
96.251595 64.0
96.259171 108.0
96.2752 184.0
96.363777 180.0
96.386086 144.0
96.405853 216.0
96.45137 292.0
96.469315 216.0
96.513092 204.0
96.519531 140.0
96.548409 168.0
96.567078 148.0
96.588593 100.0
96.611595 132.0
96.632454 172.0
96.68013 176.0
96.702164 180.0
96.732071 216.0
96.766678 48.0
96.786644 100.0
96.80584 196.0
96.829048 212.0
96.849861 308.0
96.905731 68.0
96.93885 380.0
96.951874 132.0
96.98214 204.0
97.005493 168.0
97.01889 372.0
97.038658 112.0
97.057594 144.0
97.085518 288.0
97.120102 116.0
97.187683 120.0
97.215797 208.0
97.237129 76.0
97.252831 108.0
97.280312 112.0
97.29586 200.0
97.31794 144.0
97.344521 392.0
97.38398 208.0
97.404022 64.0
97.426971 280.0
97.453476 116.0
97.494774 168.0
97.521919 432.0
97.535675 116.0
97.555084 132.0
97.562141 156.0
97.570534 132.0
97.59304 156.0
97.61235 204.0
97.628082 240.0
97.645721 144.0
97.66394 120.0
97.698128 176.0
97.73037 108.0
97.751518 224.0
97.765701 92.0
97.785469 80.0
97.799248 124.0
97.815796 164.0
97.847588 136.0
97.86618 188.0
97.895424 108.0
97.900269 344.0
97.918282 176.0
97.942863 328.0
97.948082 184.0
97.971382 140.0
97.990479 184.0
98.024391 112.0
98.040421 132.0
98.055115 92.0
98.05912 144.0
98.067009 228.0
98.097321 3328.0
98.151886 92.0
98.203827 248.0
98.22332 184.0
98.242607 36.0
98.260361 64.0
98.289818 144.0
98.308937 156.0
98.34127 60.0
98.35717 148.0
98.374825 172.0
98.412338 152.0
98.46196 280.0
98.528862 140.0
98.54847 108.0
98.57972 412.0
98.621735 168.0
98.647041 132.0
98.692909 128.0
98.718018 204.0
98.731606 112.0
98.757874 136.0
98.775696 144.0
98.815529 156.0
98.870354 324.0
98.908592 152.0
98.937286 164.0
98.959961 144.0
98.965508 124.0
98.973877 244.0
99.001625 276.0
99.04715 64.0
99.099373 528.0
99.130363 208.0
99.150177 180.0
99.183685 128.0
99.207535 64.0
99.238472 192.0
99.260529 108.0
99.283005 180.0
99.312752 208.0
99.344116 208.0
99.362343 84.0
99.382187 220.0
99.40004 160.0
99.417007 160.0
99.442238 152.0
99.474113 124.0
99.515892 132.0
99.522781 136.0
99.553047 104.0
99.568779 164.0
99.591927 116.0
99.624397 172.0
99.637199 156.0
99.67009 164.0
99.690018 144.0
99.714333 184.0
99.735672 124.0
99.759529 176.0
99.773445 176.0
99.787773 152.0
99.811028 124.0
99.824867 176.0
99.85405 320.0
99.889885 108.0
99.905403 128.0
99.935608 156.0
99.97963 152.0
100.009789 164.0
100.040215 124.0
100.057243 92.0
100.064629 144.0
100.11338 112.0
100.130508 192.0
100.162445 164.0
100.197411 128.0
100.25853 204.0
100.274414 76.0
100.302818 108.0
100.317528 156.0
100.335999 112.0
100.374046 116.0
100.38028 172.0
100.410629 128.0
100.444534 156.0
100.496407 144.0
100.541092 284.0
100.564934 200.0
100.614677 216.0
100.634125 292.0
100.67511 176.0
100.690033 92.0
100.720116 132.0
100.724594 132.0
100.732445 172.0
100.75325 124.0
100.769234 148.0
100.78302 100.0
100.815895 104.0
100.835297 136.0
100.878365 204.0
100.94487 244.0
100.97657 324.0
101.020325 212.0
101.035637 156.0
101.055046 160.0
101.072624 128.0
101.096436 168.0
101.130486 188.0
101.144775 156.0
101.207962 60.0
101.250847 144.0
101.262863 160.0
101.283806 124.0
101.301003 100.0
101.311356 72.0
101.317215 160.0
101.344162 156.0
101.368988 132.0
101.397911 112.0
101.445206 224.0
101.481689 240.0
101.50251 172.0
101.535759 160.0
101.564682 264.0
101.580727 224.0
101.594772 112.0
101.629448 56.0
101.647362 132.0
101.667229 144.0
101.707146 64.0
101.771385 96.0
101.804497 172.0
101.820755 164.0
101.865776 120.0
101.926048 188.0
101.943085 100.0
101.959976 140.0
101.978188 148.0
102.047249 424.0
102.097923 96.0
102.134308 108.0
102.169327 164.0
102.185303 140.0
102.22393 348.0
102.278915 348.0
102.299942 188.0
102.328377 132.0
102.35157 240.0
102.369843 160.0
102.403099 220.0
102.422966 104.0
102.452652 312.0
102.474495 192.0
102.553932 268.0
102.572594 172.0
102.600296 140.0
102.634575 132.0
102.650009 336.0
102.670479 136.0
102.687004 188.0
102.707214 180.0
102.722313 144.0
102.737434 116.0
102.753571 152.0
102.791908 268.0
102.810066 188.0
102.827072 236.0
102.852455 52.0
102.88475 220.0
102.89888 152.0
102.925781 112.0
102.947342 116.0
102.970001 312.0
102.994301 148.0
103.019958 344.0
103.055305 2720.0
103.092628 196.0
103.110977 312.0
103.129173 76.0
103.148621 96.0
103.164291 244.0
103.182625 108.0
103.203911 136.0
103.209785 132.0
103.239227 192.0
103.269958 152.0
103.303665 148.0
103.352142 156.0
103.386024 160.0
103.398964 92.0
103.423462 304.0
103.454842 300.0
103.495087 96.0
103.513687 184.0
103.534874 192.0
103.555008 128.0
103.594902 192.0
103.618881 200.0
103.66687 152.0
103.694923 280.0
103.7127 148.0
103.745018 464.0
103.789131 160.0
103.816544 108.0
103.864296 128.0
103.902657 160.0
103.915863 132.0
103.939232 132.0
103.958618 144.0
103.966324 80.0
103.970757 172.0
103.993874 108.0
104.027122 196.0
104.059235 268.0
104.086533 104.0
104.094391 64.0
104.100853 168.0
104.139046 160.0
104.158493 36.0
104.201149 128.0
104.238739 296.0
104.279305 180.0
104.32309 68.0
104.381004 132.0
104.439857 272.0
104.489662 172.0
104.553879 424.0
104.593636 80.0
104.645363 172.0
104.659599 216.0
104.705368 328.0
104.731033 208.0
104.754128 132.0
104.802376 136.0
104.826035 144.0
104.85434 88.0
104.875534 184.0
104.895355 160.0
104.902542 160.0
104.932129 124.0
104.961678 336.0
104.99057 160.0
104.99826 188.0
105.003227 384.0
105.034302 660.0
105.070198 8832.0
105.102066 316.0
105.124756 180.0
105.169746 180.0
105.220673 344.0
105.260811 112.0
105.287369 140.0
105.325653 156.0
105.34613 192.0
105.383209 92.0
105.413498 104.0
105.433937 232.0
105.459213 152.0
105.507393 124.0
105.527969 176.0
105.563675 116.0
105.583092 196.0
105.590744 188.0
105.625137 132.0
105.663017 128.0
105.685585 196.0
105.737724 316.0
105.76062 140.0
105.791878 132.0
105.831825 172.0
105.857399 84.0
105.904503 136.0
105.921936 352.0
105.939217 152.0
105.955711 144.0
105.991379 156.0
106.030548 204.0
106.07093 500.0
106.101219 140.0
106.136078 160.0
106.160683 76.0
106.177086 160.0
106.235008 84.0
106.255821 312.0
106.301384 156.0
106.328209 284.0
106.352142 136.0
106.385185 204.0
106.412415 164.0
106.441254 196.0
106.468506 120.0
106.493248 208.0
106.509583 124.0
106.536285 332.0
106.552727 100.0
106.57592 220.0
106.591553 276.0
106.618477 192.0
106.64978 156.0
106.677025 124.0
106.739441 128.0
106.7994 280.0
106.827614 56.0
106.854942 136.0
106.877579 144.0
106.899162 112.0
106.940041 168.0
106.973511 208.0
107.01239 112.0
107.049767 6076.0
107.091347 140.0
107.096657 124.0
107.111145 292.0
107.147728 128.0
107.179596 100.0
107.216637 104.0
107.254448 160.0
107.280457 220.0
107.287918 136.0
107.334854 144.0
107.357536 300.0
107.388733 124.0
107.407036 156.0
107.453743 240.0
107.489319 140.0
107.505966 292.0
107.526703 36.0
107.549408 88.0
107.578819 152.0
107.592865 152.0
107.644371 64.0
107.667091 100.0
107.687263 172.0
107.71019 184.0
107.734375 132.0
107.748619 144.0
107.77037 236.0
107.799416 152.0
107.8489 144.0
107.864799 164.0
107.885818 144.0
107.914856 128.0
107.934914 192.0
107.968819 116.0
108.001198 152.0
108.054863 336.0
108.0812 1740.0
108.118011 232.0
108.155022 168.0
108.187927 116.0
108.256638 148.0
108.272415 160.0
108.296074 144.0
108.320679 180.0
108.342178 116.0
108.3713 92.0
108.389046 156.0
108.420303 180.0
108.457436 112.0
108.471947 156.0
108.513359 192.0
108.572998 108.0
108.589745 136.0
108.623108 300.0
108.668953 172.0
108.6968 200.0
108.753403 144.0
108.765594 232.0
108.781021 140.0
108.809021 156.0
108.834061 164.0
108.856689 100.0
108.901459 160.0
108.933502 196.0
108.943741 112.0
108.948586 116.0
108.97715 192.0
109.003311 180.0
109.042534 272.0
109.091248 1144.0
109.163521 160.0
109.179947 324.0
109.207481 192.0
109.234024 76.0
109.248589 96.0
109.278313 180.0
109.308708 116.0
109.316528 104.0
109.322311 184.0
109.352257 156.0
109.359642 108.0
109.36673 132.0
109.430244 292.0
109.448387 144.0
109.473778 144.0
109.522354 332.0
109.567108 136.0
109.600845 164.0
109.626999 172.0
109.634888 128.0
109.660873 120.0
109.677307 172.0
109.683586 152.0
109.691818 156.0
109.717155 188.0
109.742477 128.0
109.771828 224.0
109.811096 160.0
109.815819 164.0
109.841278 292.0
109.860992 140.0
109.892342 136.0
109.915001 84.0
109.94606 156.0
109.953438 192.0
109.998299 140.0
110.022903 380.0
110.047195 208.0
110.095261 1032.0
110.115707 376.0
110.132416 88.0
110.149124 84.0
110.168282 148.0
110.198723 172.0
110.220856 168.0
110.256927 276.0
110.2836 180.0
110.331909 204.0
110.347198 312.0
110.368301 160.0
110.387383 72.0
110.432976 196.0
110.487778 140.0
110.510269 192.0
110.559082 128.0
110.579613 188.0
110.619614 120.0
110.656548 156.0
110.688133 132.0
110.699982 156.0
110.730919 176.0
110.757629 88.0
110.787148 104.0
110.823257 84.0
110.843369 172.0
110.886215 184.0
110.925713 416.0
110.954796 76.0
110.984154 180.0
111.002731 136.0
111.018547 168.0
111.041313 212.0
111.071381 272.0
111.104294 2900.0
111.14566 68.0
111.168335 248.0
111.190201 124.0
111.212814 72.0
111.248047 168.0
111.2733 96.0
111.318512 208.0
111.338783 200.0
111.35569 80.0
111.365585 100.0
111.385689 112.0
111.449631 208.0
111.478569 192.0
111.502655 88.0
111.542587 120.0
111.558426 352.0
111.57254 144.0
111.609932 120.0
111.614967 196.0
111.648384 88.0
111.691879 176.0
111.712914 316.0
111.726959 324.0
111.763519 156.0
111.797958 124.0
111.812973 64.0
111.834961 184.0
111.876411 156.0
111.905609 164.0
111.926979 204.0
111.944435 48.0
111.962196 136.0
111.98909 196.0
112.041321 184.0
112.056358 116.0
112.074394 384.0
112.111412 276.0
112.136147 144.0
112.167099 140.0
112.190948 200.0
112.268967 120.0
112.28949 180.0
112.303947 68.0
112.322906 156.0
112.377403 332.0
112.398712 264.0
112.43412 320.0
112.45726 160.0
112.482063 168.0
112.512939 216.0
112.539062 388.0
112.564339 144.0
112.57943 304.0
112.600792 188.0
112.639221 172.0
112.667892 52.0
112.720421 204.0
112.725609 176.0
112.745537 140.0
112.784592 124.0
112.805252 48.0
112.829468 192.0
112.844955 180.0
112.905144 148.0
112.928459 268.0
112.950134 116.0
112.963852 144.0
112.982323 272.0
112.996613 148.0
113.012733 280.0
113.038506 252.0
113.07618 136.0
113.090576 296.0
113.11747 188.0
113.135262 96.0
113.161018 120.0
113.190308 92.0
113.233994 252.0
113.316986 104.0
113.349274 180.0
113.378845 144.0
113.405136 108.0
113.427589 136.0
113.447395 128.0
113.472107 144.0
113.493134 148.0
113.498329 120.0
113.565414 148.0
113.570984 192.0
113.626755 240.0
113.667435 136.0
113.714813 204.0
113.735298 180.0
113.752434 176.0
113.790955 160.0
113.813545 108.0
113.841194 148.0
113.84671 140.0
113.873169 160.0
113.891678 248.0
113.943871 140.0
113.976974 144.0
114.004669 164.0
114.030876 140.0
114.035278 108.0
114.044479 108.0
114.053711 160.0
114.060226 104.0
114.097862 264.0
114.139709 244.0
114.162193 160.0
114.179207 64.0
114.208275 144.0
114.268219 156.0
114.276863 132.0
114.283501 144.0
114.306847 188.0
114.337379 196.0
114.352577 244.0
114.373993 284.0
114.377907 124.0
114.386314 212.0
114.410728 312.0
114.425484 140.0
114.450157 232.0
114.475868 60.0
114.499695 156.0
114.534645 132.0
114.553818 68.0
114.583641 168.0
114.613708 108.0
114.637665 136.0
114.664612 144.0
114.69619 216.0
114.749725 196.0
114.763756 212.0
114.783012 136.0
114.79892 132.0
114.836357 364.0
114.916725 160.0
114.936417 172.0
114.962326 152.0
114.980255 164.0
115.024529 140.0
115.054581 11072.0
115.096222 272.0
115.1157 104.0
115.136101 156.0
115.152061 196.0
115.186104 156.0
115.204453 112.0
115.225815 104.0
115.241394 164.0
115.295601 176.0
115.318649 180.0
115.334023 88.0
115.37114 148.0
115.425484 84.0
115.441696 148.0
115.467491 128.0
115.487305 140.0
115.512627 144.0
115.528175 140.0
115.550629 164.0
115.617874 124.0
115.636673 144.0
115.654465 300.0
115.693314 220.0
115.71344 72.0
115.737816 184.0
115.784813 132.0
115.817436 248.0
115.835022 176.0
115.905403 128.0
115.925491 184.0
115.944138 120.0
115.976013 148.0
115.99836 96.0
116.024086 80.0
116.062042 6324.0
116.118439 128.0
116.150604 40.0
116.17308 176.0
116.188316 76.0
116.203415 156.0
116.206909 148.0
116.217697 44.0
116.222961 160.0
116.249298 36.0
116.272903 88.0
116.298058 128.0
116.304565 32.0
116.312202 220.0
116.338562 188.0
116.353989 336.0
116.374565 200.0
116.389328 104.0
116.409988 224.0
116.435249 84.0
116.484222 76.0
116.506287 208.0
116.542648 228.0
116.577858 92.0
116.608932 180.0
116.628822 120.0
116.645126 332.0
116.678627 244.0
116.697937 228.0
116.741806 180.0
116.781403 324.0
116.838051 144.0
116.86599 28.0
116.91803 196.0
116.942612 220.0
116.990128 420.0
117.005623 196.0
117.039436 148.0
117.070213 15488.0
117.121323 112.0
117.156487 160.0
117.173874 160.0
117.196465 148.0
117.216461 172.0
117.229721 152.0
117.262695 192.0
117.298065 216.0
117.321495 192.0
117.373817 232.0
117.427422 192.0
117.453743 280.0
117.477844 112.0
117.508049 156.0
117.530685 144.0
117.56115 164.0
117.587891 40.0
117.609474 144.0
117.641205 80.0
117.661278 180.0
117.704071 156.0
117.736855 168.0
117.750587 128.0
117.773804 112.0
117.802551 144.0
117.823555 172.0
117.863914 156.0
117.879272 168.0
117.911125 152.0
117.956406 52.0
117.974525 76.0
118.000473 112.0
118.017769 40.0
118.045158 108.0
118.072693 2576.0
118.104065 140.0
118.125397 244.0
118.170341 184.0
118.203186 188.0
118.231918 200.0
118.281036 156.0
118.322891 140.0
118.348816 80.0
118.369904 128.0
118.387947 108.0
118.411728 152.0
118.437599 152.0
118.458923 196.0
118.476593 120.0
118.511337 216.0
118.541595 120.0
118.571785 180.0
118.635971 132.0
118.681091 124.0
118.730194 92.0
118.751884 76.0
118.781815 120.0
118.801773 132.0
118.8339 356.0
118.853844 132.0
118.90686 124.0
118.949783 328.0
118.967781 168.0
118.994225 348.0
119.011421 144.0
119.047577 80.0
119.084549 1112.0
119.137207 224.0
119.170845 132.0
119.194748 112.0
119.213501 108.0
119.253258 156.0
119.270813 200.0
119.299072 388.0
119.31472 260.0
119.345718 164.0
119.377342 108.0
119.396919 116.0
119.416489 216.0
119.445259 144.0
119.45192 152.0
119.533264 144.0
119.571548 372.0
119.601837 128.0
119.679092 184.0
119.714088 280.0
119.78434 180.0
119.818069 128.0
119.835014 92.0
119.86422 192.0
119.893784 156.0
119.939163 212.0
119.982643 120.0
120.002266 204.0
120.019707 108.0
120.062134 320.0
120.080521 2216.0
120.113487 96.0
120.140846 148.0
120.148224 52.0
120.222572 112.0
120.2444 172.0
120.275955 192.0
120.29351 168.0
120.308502 220.0
120.330124 104.0
120.375381 72.0
120.390671 136.0
120.408142 64.0
120.425613 120.0
120.446281 156.0
120.46138 120.0
120.492027 160.0
120.508621 136.0
120.530052 104.0
120.547958 92.0
120.575172 164.0
120.591293 160.0
120.614311 332.0
120.648499 168.0
120.692955 132.0
120.700516 116.0
120.707451 108.0
120.716667 220.0
120.740334 96.0
120.757828 124.0
120.777512 120.0
120.801575 196.0
120.823509 160.0
120.856552 92.0
120.873772 144.0
120.890694 180.0
120.95694 228.0
120.982704 140.0
120.989204 108.0
121.02916 224.0
121.065506 800.0
121.088333 1388.0
121.126884 140.0
121.171181 204.0
121.20433 100.0
121.212059 196.0
121.228516 128.0
121.245667 184.0
121.250778 152.0
121.258034 120.0
121.28331 124.0
121.305191 136.0
121.340302 136.0
121.35463 100.0
121.377403 200.0
121.385399 184.0
121.394905 120.0
121.402367 172.0
121.418427 132.0
121.45723 236.0
121.491631 56.0
121.532593 208.0
121.540024 140.0
121.564514 220.0
121.596344 232.0
121.619949 192.0
121.639038 176.0
121.658409 88.0
121.691345 112.0
121.726883 104.0
121.758789 180.0
121.780426 176.0
121.802406 132.0
121.819756 144.0
121.846245 128.0
121.851761 192.0
121.875839 548.0
121.893417 64.0
121.931328 144.0
121.984413 188.0
122.014305 56.0
122.049316 104.0
122.070656 320.0
122.097374 4244.0
122.130852 40.0
122.153 100.0
122.180855 208.0
122.231468 136.0
122.260994 132.0
122.303574 64.0
122.33461 132.0
122.39151 100.0
122.415085 140.0
122.464157 176.0
122.481926 152.0
122.501091 40.0
122.535278 156.0
122.56675 456.0
122.584373 156.0
122.601585 152.0
122.619637 224.0
122.645981 204.0
122.699974 192.0
122.741798 332.0
122.767342 292.0
122.798981 152.0
122.822479 92.0
122.871216 184.0
122.893074 232.0
122.912933 224.0
122.94162 104.0
122.971527 148.0
123.006836 204.0
123.039703 228.0
123.057831 68.0
123.099739 1196.0
123.129272 72.0
123.147972 128.0
123.182198 108.0
123.189583 156.0
123.215614 164.0
123.241074 280.0
123.266167 132.0
123.27169 128.0
123.306015 144.0
123.333237 148.0
123.33744 204.0
123.346954 200.0
123.385429 152.0
123.416542 176.0
123.431534 164.0
123.439278 128.0
123.515526 116.0
123.539047 356.0
123.566666 64.0
123.600052 116.0
123.629761 112.0
123.682205 272.0
123.715218 92.0
123.740547 160.0
123.762009 92.0
123.783173 208.0
123.804718 164.0
123.844383 132.0
123.854332 160.0
123.873955 204.0
123.902138 124.0
123.918701 236.0
123.956635 164.0
123.977333 176.0
124.003105 132.0
124.043007 136.0
124.070747 444.0
124.113068 11076.0
124.146019 192.0
124.213196 172.0
124.26133 76.0
124.306313 260.0
124.312683 180.0
124.319122 112.0
124.341217 180.0
124.369194 148.0
124.393143 196.0
124.43573 392.0
124.455711 60.0
124.483826 112.0
124.54232 144.0
124.570473 124.0
124.583199 188.0
124.60627 132.0
124.624519 112.0
124.687538 144.0
124.705284 268.0
124.774109 128.0
124.793243 180.0
124.81488 192.0
124.890396 140.0
124.895096 84.0
124.908722 184.0
124.926933 160.0
124.98835 76.0
125.01223 104.0
125.028015 88.0
125.057755 332.0
125.113937 1160.0
125.159843 124.0
125.185059 152.0
125.215546 160.0
125.243523 176.0
125.267464 188.0
125.300659 200.0
125.315399 132.0
125.33596 304.0
125.411858 192.0
125.44593 184.0
125.468033 132.0
125.494781 64.0
125.512619 112.0
125.529228 116.0
125.566605 116.0
125.592903 48.0
125.624138 136.0
125.653137 108.0
125.688835 144.0
125.72702 168.0
125.743622 160.0
125.776077 304.0
125.811592 200.0
125.8563 224.0
125.874046 228.0
125.898666 156.0
125.921417 108.0
125.945572 132.0
125.976906 136.0
125.99337 312.0
126.038361 112.0
126.047836 220.0
126.075447 212.0
126.132538 232.0
126.168037 152.0
126.212997 128.0
126.231636 28.0
126.25032 176.0
126.300148 164.0
126.30397 140.0
126.314056 108.0
126.350182 164.0
126.365837 148.0
126.401642 88.0
126.423805 128.0
126.466537 200.0
126.500031 176.0
126.529221 180.0
126.557236 132.0
126.589775 324.0
126.624023 256.0
126.652382 180.0
126.67926 140.0
126.744682 120.0
126.76664 68.0
126.789047 160.0
126.818184 296.0
126.836906 204.0
126.842728 156.0
126.846931 136.0
126.850014 280.0
126.878738 164.0
126.957413 240.0
126.981529 192.0
127.0028 152.0
127.027328 176.0
127.054886 1924.0
127.100975 120.0
127.188049 80.0
127.219589 156.0
127.257019 212.0
127.275421 176.0
127.293793 196.0
127.309517 224.0
127.32505 176.0
127.352814 388.0
127.373459 204.0
127.389854 140.0
127.415085 36.0
127.449326 156.0
127.473503 144.0
127.518448 168.0
127.552162 148.0
127.570145 108.0
127.590378 108.0
127.626297 176.0
127.66098 144.0
127.691116 164.0
127.713928 140.0
127.745544 360.0
127.806229 136.0
127.825836 108.0
127.858047 164.0
127.879608 404.0
127.914192 148.0
127.963493 128.0
127.98922 104.0
128.039383 288.0
128.063187 21296.0
128.099106 448.0
128.147629 180.0
128.204865 164.0
128.256699 48.0
128.280899 92.0
128.30629 232.0
128.323608 176.0
128.359848 344.0
128.399536 136.0
128.4431 356.0
128.458221 152.0
128.493958 152.0
128.542267 180.0
128.573303 264.0
128.59581 92.0
128.6259 176.0
128.635483 212.0
128.681305 164.0
128.714462 160.0
128.731827 184.0
128.763443 180.0
128.812714 196.0
128.836166 336.0
128.868042 168.0
128.903152 160.0
128.934006 172.0
128.954315 96.0
128.983948 236.0
129.032059 152.0
129.070953 73144.0
129.122025 224.0
129.159317 144.0
129.177017 196.0
129.196609 180.0
129.213699 200.0
129.243179 176.0
129.265366 48.0
129.308868 120.0
129.326996 176.0
129.345291 196.0
129.393463 124.0
129.419449 196.0
129.44191 168.0
129.469345 160.0
129.496429 264.0
129.54541 144.0
129.569824 136.0
129.600006 204.0
129.626007 84.0
129.646011 124.0
129.665039 128.0
129.687454 352.0
129.729797 284.0
129.751083 120.0
129.769073 132.0
129.806732 256.0
129.835907 100.0
129.862045 72.0
129.910568 232.0
129.948792 180.0
129.98671 260.0
130.023087 144.0
130.026657 132.0
130.075455 10372.0
130.133514 120.0
130.152176 216.0
130.172165 128.0
130.187424 236.0
130.205429 88.0
130.242722 276.0
130.300385 112.0
130.319656 116.0
130.352402 120.0
130.375183 160.0
130.44104 112.0
130.461807 236.0
130.486115 116.0
130.538803 80.0
130.568375 56.0
130.608063 88.0
130.617157 160.0
130.622025 68.0
130.626907 240.0
130.672607 136.0
130.711578 164.0
130.718262 36.0
130.742645 184.0
130.772446 160.0
130.829941 284.0
130.852539 456.0
130.878723 156.0
130.904327 136.0
130.928116 128.0
130.964233 272.0
130.988892 280.0
131.024796 332.0
131.050568 640.0
131.086716 130444.0
131.129654 172.0
131.155106 204.0
131.208847 164.0
131.215546 100.0
131.249435 256.0
131.275314 56.0
131.296753 260.0
131.302933 180.0
131.313278 504.0
131.356079 200.0
131.388687 188.0
131.407974 68.0
131.417374 136.0
131.422867 128.0
131.460892 780.0
131.509323 100.0
131.537079 304.0
131.585983 48.0
131.641571 356.0
131.681107 160.0
131.713928 232.0
131.729355 120.0
131.754181 120.0
131.778778 132.0
131.812302 236.0
131.828476 80.0
131.857346 52.0
131.87883 72.0
131.88504 56.0
131.921814 136.0
131.926529 112.0
131.941177 136.0
131.975342 160.0
131.994217 204.0
132.022507 160.0
132.055267 152.0
132.058624 144.0
132.089417 16536.0
132.150284 212.0
132.191956 184.0
132.255524 84.0
132.284195 124.0
132.316376 72.0
132.352875 100.0
132.376938 108.0
132.407242 124.0
132.434586 152.0
132.464279 156.0
132.480606 160.0
132.504883 152.0
132.52507 200.0
132.554459 96.0
132.572327 100.0
132.600922 196.0
132.627884 180.0
132.669159 160.0
132.713318 104.0
132.751587 92.0
132.776886 392.0
132.795517 292.0
132.843338 36.0
132.851471 80.0
132.859161 80.0
132.875854 220.0
132.8936 180.0
132.927124 72.0
132.958054 120.0
132.979263 100.0
132.98735 288.0
133.00531 176.0
133.014252 224.0
133.040329 132.0
133.074341 276.0
133.100281 5248.0
133.154861 264.0
133.176407 224.0
133.198395 84.0
133.231796 236.0
133.25415 88.0
133.281326 260.0
133.334412 228.0
133.343307 172.0
133.413437 108.0
133.435837 116.0
133.468567 200.0
133.491013 164.0
133.534393 152.0
133.537811 104.0
133.576111 160.0
133.599121 108.0
133.625458 152.0
133.652847 136.0
133.681717 184.0
133.741608 312.0
133.784805 140.0
133.805176 112.0
133.849075 124.0
133.901749 84.0
133.931931 184.0
133.956146 84.0
133.992798 104.0
134.030304 232.0
134.051483 152.0
134.101334 500.0
134.125244 84.0
134.130295 120.0
134.171478 112.0
134.199753 188.0
134.214676 120.0
134.257874 72.0
134.285538 140.0
134.330139 96.0
134.364883 152.0
134.398926 348.0
134.425308 188.0
134.454498 64.0
134.481155 184.0
134.528961 168.0
134.547714 208.0
134.604752 128.0
134.649338 192.0
134.710251 168.0
134.784866 112.0
134.924744 172.0
134.955231 88.0
134.985641 52.0
135.059082 124.0
135.080215 360.0
135.102539 560.0
135.146194 120.0
135.194199 116.0
135.221252 124.0
135.251343 188.0
135.283936 148.0
135.309219 176.0
135.342392 180.0
135.370316 124.0
135.416077 136.0
135.43634 120.0
135.469009 132.0
135.506363 148.0
135.528488 160.0
135.625824 112.0
135.688049 124.0
135.705399 104.0
135.727036 316.0
135.760147 140.0
135.798157 108.0
135.814392 128.0
135.851868 228.0
135.878387 84.0
135.929672 92.0
135.95459 56.0
135.969177 84.0
135.988403 100.0
136.032608 188.0
136.070358 100.0
136.112762 300.0
136.147873 208.0
136.184769 196.0
136.201935 116.0
136.22879 112.0
136.255447 96.0
136.278427 180.0
136.350067 188.0
136.372711 104.0
136.399857 280.0
136.426041 220.0
136.447418 120.0
136.476028 180.0
136.484802 164.0
136.505127 200.0
136.536697 108.0
136.567886 208.0
136.618118 128.0
136.634399 72.0
136.66272 116.0
136.719589 148.0
136.735764 128.0
136.750793 208.0
136.769699 272.0
136.825226 88.0
136.855499 120.0
136.875687 220.0
136.898758 160.0
136.908951 92.0
136.917313 128.0
136.946198 76.0
136.974701 116.0
137.004959 92.0
137.05072 88.0
137.057755 72.0
137.066452 148.0
137.082962 448.0
137.120224 156.0
137.149536 324.0
137.179337 96.0
137.218964 108.0
137.246948 120.0
137.271332 208.0
137.319229 148.0
137.34845 156.0
137.386871 204.0
137.424835 180.0
137.451828 148.0
137.459427 124.0
137.468597 160.0
137.558548 180.0
137.587708 68.0
137.629944 164.0
137.648285 116.0
137.668839 160.0
137.70166 140.0
137.709229 120.0
137.728348 288.0
137.807114 152.0
137.834183 124.0
137.867294 156.0
137.906555 152.0
137.964813 144.0
137.997772 224.0
138.02449 120.0
138.077499 132.0
138.087112 128.0
138.095718 104.0
138.126633 172.0
138.142532 76.0
138.150787 76.0
138.184586 140.0
138.246719 104.0
138.281815 64.0
138.344193 220.0
138.370773 132.0
138.402054 188.0
138.421371 144.0
138.440613 140.0
138.481125 160.0
138.539383 160.0
138.572189 52.0
138.626083 372.0
138.667557 120.0
138.704803 128.0
138.727707 228.0
138.774399 188.0
138.813614 168.0
138.83931 104.0
138.898041 156.0
138.92424 96.0
138.97435 172.0
139.001923 172.0
139.052231 156.0
139.077835 172.0
139.133591 148.0
139.153839 144.0
139.188904 224.0
139.262939 244.0
139.289993 200.0
139.315887 268.0
139.35347 164.0
139.381348 180.0
139.423691 204.0
139.449814 220.0
139.49855 104.0
139.504532 144.0
139.525497 204.0
139.582733 208.0
139.626144 188.0
139.650757 152.0
139.712341 156.0
139.72049 184.0
139.767288 184.0
139.787247 108.0
139.807922 148.0
139.845734 120.0
139.871628 120.0
139.930862 160.0
139.952469 284.0
139.984985 108.0
140.024841 128.0
140.030762 160.0
140.042572 124.0
140.051361 276.0
140.055008 148.0
140.092194 128.0
140.107239 112.0
140.132233 40.0
140.148727 196.0
140.165222 100.0
140.186432 76.0
140.209763 80.0
140.242126 152.0
140.306641 56.0
140.323151 56.0
140.36795 76.0
140.397675 172.0
140.437744 148.0
140.469971 196.0
140.494553 100.0
140.538406 60.0
140.560318 148.0
140.607864 160.0
140.622696 252.0
140.667572 148.0
140.686462 160.0
140.714478 92.0
140.738403 132.0
140.808167 136.0
140.848648 208.0
140.888504 216.0
140.913101 184.0
140.943192 184.0
141.012741 156.0
141.07103 8760.0
141.127533 144.0
141.137054 100.0
141.145157 164.0
141.208542 160.0
141.247238 336.0
141.270157 168.0
141.308014 132.0
141.351334 104.0
141.361847 32.0
141.366577 128.0
141.383728 176.0
141.41449 192.0
141.446533 224.0
141.474945 108.0
141.514526 228.0
141.54245 164.0
141.57254 188.0
141.599167 152.0
141.632324 236.0
141.650635 268.0
141.689178 48.0
141.716492 232.0
141.739532 96.0
141.746643 128.0
141.777512 284.0
141.81337 156.0
141.868332 188.0
141.902573 104.0
141.957275 112.0
141.985474 88.0
142.003983 204.0
142.043442 328.0
142.077545 4120.0
142.144409 84.0
142.184753 44.0
142.202362 96.0
142.220505 128.0
142.246948 100.0
142.269516 124.0
142.299286 144.0
142.353104 184.0
142.379425 136.0
142.397552 152.0
142.413788 164.0
142.449554 212.0
142.476822 128.0
142.514618 164.0
142.520187 104.0
142.527405 152.0
142.550476 136.0
142.591934 144.0
142.613602 228.0
142.658264 80.0
142.687469 184.0
142.720535 132.0
142.729385 180.0
142.754913 56.0
142.780167 168.0
142.803268 108.0
142.820541 156.0
142.857285 188.0
142.909729 224.0
142.940445 52.0
142.990433 144.0
143.015106 348.0
143.022858 300.0
143.086426 56968.0
143.157959 128.0
143.17865 68.0
143.249954 44.0
143.288605 196.0
143.318771 168.0
143.327927 88.0
143.334274 144.0
143.354935 96.0
143.373016 112.0
143.404922 108.0
143.442215 112.0
143.490036 156.0
143.494797 168.0
143.529892 148.0
143.555038 40.0
143.571732 112.0
143.588425 36.0
143.620087 104.0
143.653641 116.0
143.671661 40.0
143.71431 352.0
143.739807 148.0
143.777405 184.0
143.816498 212.0
143.842926 152.0
143.866501 200.0
143.895782 228.0
143.904205 324.0
143.926483 108.0
143.961349 252.0
143.982773 152.0
144.011688 152.0
144.054947 196.0
144.088684 7172.0
144.124634 96.0
144.141922 112.0
144.157669 156.0
144.208054 120.0
144.258362 120.0
144.302399 80.0
144.323914 176.0
144.34726 152.0
144.364563 172.0
144.383698 164.0
144.406448 172.0
144.454315 240.0
144.515259 48.0
144.553543 172.0
144.580978 160.0
144.637192 76.0
144.698761 72.0
144.737976 180.0
144.754623 324.0
144.809113 176.0
144.851593 172.0
144.87677 108.0
144.927277 92.0
144.983017 248.0
145.013351 124.0
145.036133 48.0
145.066193 916.0
145.101929 15796.0
145.149887 256.0
145.170776 236.0
145.190674 104.0
145.224258 180.0
145.227478 104.0
145.237686 64.0
145.244522 184.0
145.272324 80.0
145.294678 88.0
145.316467 60.0
145.340195 124.0
145.385269 52.0
145.408875 116.0
145.442688 152.0
145.47438 180.0
145.511627 56.0
145.541122 76.0
145.583542 84.0
145.653671 60.0
145.764511 108.0
145.800552 44.0
145.817383 204.0
145.841415 132.0
145.859955 168.0
145.878403 148.0
145.899216 176.0
145.947189 168.0
145.966431 132.0
145.983261 140.0
146.021729 68.0
146.074921 1348.0
146.102844 1608.0
146.130432 180.0
146.147125 164.0
146.204575 48.0
146.275681 264.0
146.308167 176.0
146.366959 120.0
146.403519 168.0
146.435699 40.0
146.464401 100.0
146.492188 204.0
146.524826 156.0
146.558472 116.0
146.575653 124.0
146.649628 172.0
146.653107 136.0
146.664169 68.0
146.67778 304.0
146.720032 104.0
146.755615 148.0
146.772354 164.0
146.806839 188.0
146.823715 120.0
146.873474 76.0
146.898483 160.0
146.921875 144.0
146.968445 144.0
147.022293 208.0
147.031601 188.0
147.042236 152.0
147.081558 1588.0
147.111465 488.0
147.148178 268.0
147.188385 152.0
147.208176 116.0
147.252304 252.0
147.286652 84.0
147.303253 248.0
147.32164 104.0
147.366837 272.0
147.389343 128.0
147.43013 124.0
147.436081 92.0
147.452957 256.0
147.492508 72.0
147.526352 104.0
147.55455 264.0
147.582016 168.0
147.607407 76.0
147.632736 96.0
147.669235 132.0
147.708923 152.0
147.738388 164.0
147.763351 196.0
147.780502 44.0
147.795944 188.0
147.833511 96.0
147.880127 108.0
147.927917 124.0
147.944855 84.0
147.983597 156.0
148.02475 140.0
148.065552 148.0
148.08432 380.0
148.122299 180.0
148.165237 252.0
148.192215 88.0
148.223389 92.0
148.281372 80.0
148.320328 140.0
148.344559 92.0
148.37851 256.0
148.40033 64.0
148.424957 176.0
148.47377 168.0
148.492477 116.0
148.534027 156.0
148.553116 180.0
148.57756 156.0
148.596771 96.0
148.629456 128.0
148.681702 68.0
148.738251 188.0
148.771515 188.0
148.810364 136.0
148.849213 160.0
148.883209 64.0
148.927444 168.0
148.956741 100.0
149.041428 116.0
149.061478 152.0
149.097412 496.0
149.135239 152.0
149.181519 164.0
149.208801 152.0
149.227859 184.0
149.255875 156.0
149.299332 120.0
149.343109 180.0
149.389679 148.0
149.427689 96.0
149.47879 176.0
149.495819 208.0
149.535324 108.0
149.570114 136.0
149.629684 108.0
149.646729 116.0
149.673523 184.0
149.726181 332.0
149.771988 148.0
149.801376 136.0
149.818863 152.0
149.911301 104.0
149.950958 164.0
149.983566 120.0
150.007294 88.0
150.065643 464.0
150.107697 176.0
150.132019 152.0
150.181366 164.0
150.206284 124.0
150.272476 124.0
150.341431 112.0
150.409271 332.0
150.441498 96.0
150.463699 172.0
150.518188 300.0
150.576248 176.0
150.635513 104.0
150.678391 176.0
150.696335 104.0
150.763962 180.0
150.816971 152.0
150.856796 104.0
150.892746 176.0
150.910202 212.0
150.937469 124.0
150.975372 136.0
151.024445 192.0
151.056229 100.0
151.094589 136.0
151.114532 164.0
151.172302 156.0
151.196777 116.0
151.229568 180.0
151.265305 164.0
151.316711 124.0
151.370712 300.0
151.419556 100.0
151.501907 52.0
151.595657 136.0
151.644058 144.0
151.672379 300.0
151.703903 416.0
151.725494 92.0
151.765091 88.0
151.857376 224.0
151.912811 120.0
151.924026 124.0
151.949493 148.0
151.968658 124.0
151.98584 100.0
152.016586 136.0
152.032898 180.0
152.06308 1212.0
152.107315 144.0
152.187103 136.0
152.243576 164.0
152.262299 180.0
152.309891 140.0
152.328995 152.0
152.347366 188.0
152.366394 76.0
152.410614 120.0
152.435196 64.0
152.517242 156.0
152.55777 96.0
152.594269 100.0
152.62587 96.0
152.655899 128.0
152.685944 84.0
152.7164 124.0
152.746857 52.0
152.799088 104.0
152.850754 140.0
152.897507 124.0
152.963837 152.0
152.999786 124.0
153.019485 152.0
153.069946 1116.0
153.097 208.0
153.126846 156.0
153.165878 188.0
153.19545 32.0
153.228592 132.0
153.255341 140.0
153.279205 156.0
153.302795 124.0
153.356644 180.0
153.399078 216.0
153.447586 284.0
153.575043 56.0
153.594772 132.0
153.625031 60.0
153.660049 104.0
153.686386 348.0
153.731598 140.0
153.771957 208.0
153.805191 204.0
153.835953 188.0
153.852646 140.0
153.881332 168.0
153.903259 36.0
153.933258 160.0
153.960052 136.0
153.994522 300.0
154.012421 160.0
154.073318 492.0
154.162888 112.0
154.189285 224.0
154.240524 100.0
154.261963 124.0
154.345886 236.0
154.366486 128.0
154.387589 80.0
154.427032 164.0
154.456833 84.0
154.476028 132.0
154.553909 84.0
154.585495 140.0
154.603897 136.0
154.642212 100.0
154.678711 156.0
154.736786 160.0
154.785355 140.0
154.807266 144.0
154.837997 68.0
154.86525 164.0
154.895981 156.0
154.935196 152.0
154.961853 152.0
154.983719 92.0
155.009521 152.0
155.059677 1448.0
155.085999 6524.0
155.130173 156.0
155.170746 112.0
155.211639 216.0
155.236404 84.0
155.254059 172.0
155.262299 216.0
155.301819 56.0
155.328751 32.0
155.358521 164.0
155.383652 212.0
155.430313 184.0
155.46257 192.0
155.492508 172.0
155.526932 124.0
155.532684 224.0
155.557053 204.0
155.580933 184.0
155.600998 104.0
155.659225 76.0
155.699722 52.0
155.717712 164.0
155.745758 76.0
155.763153 136.0
155.792953 120.0
155.83519 200.0
155.886414 292.0
155.909744 132.0
155.937073 100.0
155.98024 256.0
156.021591 272.0
156.038696 164.0
156.092865 8092.0
156.147781 176.0
156.185944 212.0
156.211578 168.0
156.230484 148.0
156.259033 268.0
156.297668 80.0
156.334991 120.0
156.38974 220.0
156.444504 40.0
156.464417 100.0
156.491806 280.0
156.508102 176.0
156.546432 124.0
156.569 196.0
156.59761 204.0
156.621613 228.0
156.648224 124.0
156.65567 100.0
156.663742 204.0
156.710983 80.0
156.781433 268.0
156.813156 136.0
156.842773 280.0
156.892075 200.0
156.919968 108.0
156.970215 112.0
157.000137 124.0
157.03949 272.0
157.06604 312.0
157.100708 4444.0
157.163559 120.0
157.184143 152.0
157.229828 164.0
157.246628 388.0
157.29454 52.0
157.320496 76.0
157.36319 128.0
157.404846 156.0
157.422302 416.0
157.447586 216.0
157.453186 52.0
157.463135 152.0
157.495743 136.0
157.5336 164.0
157.561264 124.0
157.59285 188.0
157.626907 148.0
157.648758 180.0
157.669937 148.0
157.692017 152.0
157.742645 236.0
157.841522 184.0
157.864182 108.0
157.886688 148.0
157.916702 140.0
157.934204 68.0
157.951492 120.0
157.994873 244.0
158.044281 152.0
158.073517 312.0
158.099426 1468.0
158.16069 164.0
158.171204 84.0
158.17543 140.0
158.211014 136.0
158.259537 312.0
158.298523 112.0
158.326706 68.0
158.336807 140.0
158.34343 80.0
158.379745 240.0
158.411377 108.0
158.428482 132.0
158.548187 156.0
158.59021 92.0
158.670425 220.0
158.690491 144.0
158.723083 280.0
158.763199 112.0
158.800827 168.0
158.878586 136.0
158.921524 240.0
158.958878 108.0
158.991623 152.0
159.013443 172.0
159.039185 164.0
159.061523 124.0
159.079498 456.0
159.115921 3160.0
159.157166 136.0
159.184799 164.0
159.233429 152.0
159.272049 172.0
159.312469 244.0
159.349472 164.0
159.414062 144.0
159.461197 184.0
159.499084 120.0
159.524429 244.0
159.558243 120.0
159.574997 108.0
159.607361 216.0
159.66478 208.0
159.732056 128.0
159.741592 96.0
159.751465 180.0
159.801437 196.0
159.829971 280.0
159.871262 360.0
159.899658 100.0
159.923431 124.0
159.946579 64.0
159.987671 160.0
160.017548 188.0
160.043747 120.0
160.060562 100.0
160.089996 120.0
160.1194 164.0
160.145142 260.0
160.223572 156.0
160.246246 136.0
160.282913 196.0
160.331131 76.0
160.343689 48.0
160.34845 108.0
160.386536 120.0
160.428848 144.0
160.452301 132.0
160.459671 100.0
160.469299 200.0
160.488205 48.0
160.526031 148.0
160.564896 224.0
160.619232 172.0
160.627426 196.0
160.654663 104.0
160.719727 188.0
160.740448 184.0
160.768204 132.0
160.818512 124.0
160.848969 128.0
160.897385 248.0
160.915817 100.0
160.953583 328.0
161.010559 104.0
161.061081 188.0
161.088547 524.0
161.112839 392.0
161.177155 144.0
161.183014 136.0
161.193756 160.0
161.23288 112.0
161.253098 152.0
161.308701 88.0
161.333984 120.0
161.358307 336.0
161.39566 152.0
161.437897 144.0
161.475586 108.0
161.507523 184.0
161.536285 124.0
161.569168 148.0
161.599426 100.0
161.637482 116.0
161.703278 44.0
161.758453 200.0
161.821976 184.0
161.838913 104.0
161.880493 164.0
161.917221 240.0
161.967422 156.0
162.000488 244.0
162.055267 144.0
162.111023 92.0
162.137863 108.0
162.192123 164.0
162.242813 196.0
162.260559 32.0
162.291809 236.0
162.318878 80.0
162.336624 108.0
162.361984 88.0
162.379745 112.0
162.397491 76.0
162.422867 116.0
162.486725 116.0
162.511169 304.0
162.546188 124.0
162.570007 192.0
162.588791 60.0
162.615692 172.0
162.65123 100.0
162.678131 192.0
162.701996 108.0
162.766403 240.0
162.844284 124.0
162.882294 48.0
162.902618 136.0
162.920395 152.0
162.943268 132.0
162.965118 120.0
162.975723 72.0
162.980331 176.0
163.00679 112.0
163.055923 180.0
163.06134 60.0
163.076675 92.0
163.111771 256.0
163.148407 128.0
163.174545 100.0
163.196503 112.0
163.214691 176.0
163.235565 300.0
163.255905 88.0
163.281342 76.0
163.319489 160.0
163.36528 112.0
163.398346 60.0
163.458267 312.0
163.479767 112.0
163.513519 152.0
163.556122 132.0
163.589218 124.0
163.617218 72.0
163.675781 92.0
163.748825 88.0
163.836227 180.0
163.885895 112.0
163.910126 124.0
163.941315 152.0
163.961899 180.0
163.986725 156.0
164.022263 96.0
164.045609 124.0
164.073242 108.0
164.106384 148.0
164.144073 204.0
164.303726 328.0
164.343582 68.0
164.37468 152.0
164.393723 164.0
164.414246 128.0
164.484726 52.0
164.552872 120.0
164.58606 184.0
164.626923 108.0
164.674652 168.0
164.695618 160.0
164.72142 132.0
164.747879 156.0
164.790405 148.0
164.82373 168.0
164.864502 176.0
164.885284 100.0
164.91716 112.0
164.951401 180.0
164.977951 196.0
165.070145 1460.0
165.11351 148.0
165.133957 100.0
165.161072 76.0
165.199448 64.0
165.222473 120.0
165.265961 108.0
165.294968 180.0
165.324814 104.0
165.388794 196.0
165.451355 156.0
165.489517 164.0
165.522903 52.0
165.554657 220.0
165.607498 216.0
165.665009 148.0
165.783203 120.0
165.808838 84.0
165.841644 80.0
165.898544 144.0
165.962646 120.0
165.997253 104.0
166.024185 108.0
166.077652 1488.0
166.126785 152.0
166.145218 344.0
166.164062 136.0
166.202148 180.0
166.241165 172.0
166.291 132.0
166.326935 144.0
166.347473 40.0
166.381424 160.0
166.412994 180.0
166.469223 76.0
166.4879 132.0
166.532547 308.0
166.591141 112.0
166.632523 116.0
166.672379 156.0
166.725037 60.0
166.801636 104.0
166.820648 136.0
166.863083 124.0
166.944519 168.0
166.951019 112.0
166.980011 132.0
167.015564 112.0
167.047531 176.0
167.085709 15584.0
167.126175 120.0
167.178436 52.0
167.218811 120.0
167.241241 112.0
167.303757 68.0
167.322479 152.0
167.350388 144.0
167.401596 152.0
167.453278 60.0
167.479156 104.0
167.568542 172.0
167.587067 152.0
167.629028 276.0
167.658432 160.0
167.700104 148.0
167.749268 128.0
167.78035 48.0
167.804428 148.0
167.824188 120.0
167.85704 188.0
167.892944 216.0
167.912827 300.0
167.950806 160.0
167.976349 148.0
168.021988 220.0
168.088531 2832.0
168.152267 392.0
168.186447 232.0
168.236725 168.0
168.244308 152.0
168.322464 108.0
168.385559 132.0
168.395264 120.0
168.424408 148.0
168.461639 100.0
168.487183 180.0
168.510406 96.0
168.540421 128.0
168.588242 76.0
168.628555 248.0
168.652542 184.0
168.708664 176.0
168.759262 176.0
168.797287 156.0
168.834244 128.0
168.864868 160.0
168.888428 148.0
168.981812 156.0
169.008194 120.0
169.038528 96.0
169.065292 128.0
169.101105 4664.0
169.170731 156.0
169.207077 132.0
169.235138 196.0
169.254013 100.0
169.283707 148.0
169.320374 56.0
169.350128 148.0
169.390198 192.0
169.408401 264.0
169.429169 116.0
169.454041 100.0
169.484573 104.0
169.548065 112.0
169.58284 164.0
169.666626 108.0
169.687393 132.0
169.718277 268.0
169.737213 192.0
169.773895 144.0
169.798859 304.0
169.821075 140.0
169.844833 184.0
169.897125 316.0
169.919891 112.0
169.964127 120.0
170.021011 268.0
170.050476 344.0
170.096954 4152.0
170.13504 276.0
170.161606 124.0
170.202209 212.0
170.237198 144.0
170.286591 100.0
170.340881 164.0
170.367477 168.0
170.407547 72.0
170.440765 156.0
170.460037 268.0
170.503281 308.0
170.525391 244.0
170.550232 432.0
170.569305 152.0
170.591339 48.0
170.60405 116.0
170.646927 184.0
170.684906 156.0
170.704987 424.0
170.74704 148.0
170.781219 172.0
170.80957 172.0
170.83757 328.0
170.862305 304.0
170.903534 412.0
170.947189 260.0
170.964981 536.0
170.981964 188.0
171.012009 280.0
171.0457 396.0
171.073807 1496.0
171.083405 996.0
171.118408 344960.0
171.17804 72.0
171.195908 220.0
171.240433 252.0
171.280914 228.0
171.319473 316.0
171.357849 456.0
171.392883 248.0
171.433548 160.0
171.450851 168.0
171.47406 160.0
171.515839 408.0
171.546814 4680.0
171.583633 220.0
171.622528 144.0
171.62561 316.0
171.654984 296.0
171.682541 60.0
171.701965 148.0
171.713486 100.0
171.752502 396.0
171.762787 276.0
171.79364 348.0
171.837387 172.0
171.894333 132.0
171.927933 124.0
171.948029 236.0
172.001633 192.0
172.023544 268.0
172.046417 128.0
172.086105 656.0
172.120651 74072.0
172.195221 140.0
172.230606 72.0
172.262146 100.0
172.32019 104.0
172.355591 196.0
172.383041 324.0
172.405396 268.0
172.434296 220.0
172.491486 236.0
172.539871 96.0
172.576614 132.0
172.592896 100.0
172.617935 152.0
172.642242 160.0
172.66777 84.0
172.687332 136.0
172.72699 72.0
172.761856 92.0
172.799942 196.0
172.809418 108.0
172.818451 76.0
172.83963 72.0
172.865616 152.0
172.886429 52.0
172.913727 188.0
172.975586 84.0
173.016541 148.0
173.058578 52.0
173.130402 8828.0
173.205917 104.0
173.233673 220.0
173.266479 424.0
173.299332 324.0
173.355286 144.0
173.363358 108.0
173.388626 212.0
173.415543 284.0
173.428741 308.0
173.460312 152.0
173.478333 168.0
173.495499 192.0
173.537689 352.0
173.555603 224.0
173.586975 144.0
173.607437 320.0
173.626389 196.0
173.653183 136.0
173.676971 108.0
173.716019 152.0
173.767441 112.0
173.816589 164.0
173.842422 124.0
173.902924 108.0
173.951904 180.0
173.983093 64.0
174.061417 48.0
174.102936 128.0
174.132889 1220.0
174.203247 232.0
174.248169 160.0
174.299179 136.0
174.343658 108.0
174.374023 32.0
174.413269 56.0
174.44101 160.0
174.491699 68.0
174.496628 44.0
174.523865 56.0
174.542282 92.0
174.573135 60.0
174.620834 128.0
174.663254 52.0
174.68692 60.0
174.714905 132.0
174.742172 132.0
174.769287 132.0
174.814438 216.0
174.879013 76.0
174.899612 164.0
174.909973 136.0
175.002731 52.0
175.034973 124.0
175.0802 220.0
175.105652 232.0
175.122101 136.0
175.128677 136.0
175.140945 208.0
175.20015 92.0
175.221329 92.0
175.26973 120.0
175.300385 136.0
175.324097 152.0
175.358353 80.0
175.388489 164.0
175.411774 120.0
175.442703 96.0
175.482407 136.0
175.527786 180.0
175.569275 160.0
175.638763 104.0
175.673264 56.0
175.694565 120.0
175.721954 104.0
175.782944 104.0
175.802734 96.0
175.826431 92.0
175.877563 128.0
175.917252 172.0
176.044189 232.0
176.081253 40.0
176.099747 136.0
176.128311 64.0
176.1922 120.0
176.228378 196.0
176.258255 76.0
176.300537 68.0
176.361313 100.0
176.418564 136.0
176.453842 40.0
176.506714 72.0
176.541092 440.0
176.611526 140.0
176.62941 92.0
176.675995 80.0
176.726257 112.0
176.762711 124.0
176.802994 108.0
176.853287 132.0
176.896744 96.0
176.981277 92.0
177.02272 200.0
177.091339 15372.0
177.173691 104.0
177.207031 48.0
177.233383 76.0
177.255829 68.0
177.296753 72.0
177.340637 52.0
177.359192 96.0
177.385696 36.0
177.439758 172.0
177.46257 132.0
177.491745 56.0
177.531311 152.0
177.559326 132.0
177.581909 156.0
177.615463 240.0
177.712402 144.0
177.730759 72.0
177.737015 136.0
177.770264 52.0
177.842056 232.0
177.88588 164.0
177.961288 200.0
178.092224 2200.0
178.157913 104.0
178.203217 152.0
178.236465 312.0
178.261536 72.0
178.288727 120.0
178.333282 156.0
178.38829 144.0
178.421005 52.0
178.442276 148.0
178.482162 56.0
178.544998 88.0
178.56459 168.0
178.585876 60.0
178.612473 108.0
178.656647 92.0
178.676315 88.0
178.733673 208.0
178.753082 220.0
178.814011 160.0
178.858093 128.0
178.976379 108.0
179.029922 104.0
179.048965 188.0
179.084274 1548.0
179.131531 56.0
179.170303 116.0
179.22641 124.0
179.25676 136.0
179.29007 88.0
179.352707 112.0
179.393738 152.0
179.411667 100.0
179.435898 288.0
179.534546 156.0
179.554092 120.0
179.590012 128.0
179.620056 132.0
179.670029 68.0
179.728729 36.0
179.779419 80.0
179.846146 152.0
179.883026 44.0
179.984192 116.0
180.017014 40.0
180.09227 340.0
180.179947 100.0
180.206665 140.0
180.238724 152.0
180.281479 128.0
180.325989 152.0
180.356201 92.0
180.408112 116.0
180.431152 144.0
180.454376 180.0
180.476608 112.0
180.510941 172.0
180.580902 156.0
180.599625 168.0
180.6474 144.0
180.744095 140.0
180.810638 60.0
180.828384 104.0
180.851135 96.0
180.885925 104.0
180.926086 108.0
180.961243 212.0
181.024231 140.0
181.074905 120.0
181.101288 3940.0
181.201935 204.0
181.252838 184.0
181.360031 36.0
181.394882 108.0
181.435089 140.0
181.46257 212.0
181.488724 72.0
181.534973 180.0
181.575806 168.0
181.602982 332.0
181.659912 156.0
181.686584 204.0
181.697601 236.0
181.723251 180.0
181.761475 180.0
181.797195 116.0
181.815704 80.0
181.851486 88.0
181.894287 204.0
181.93364 144.0
181.99353 168.0
182.013351 208.0
182.077896 172.0
182.104355 768.0
182.17247 208.0
182.254288 88.0
182.284851 180.0
182.310196 144.0
182.350922 108.0
182.380569 184.0
182.454712 176.0
182.490417 156.0
182.514404 180.0
182.539825 80.0
182.557434 232.0
182.581635 36.0
182.651566 88.0
182.678467 72.0
182.719589 56.0
182.747421 108.0
182.810303 104.0
182.85582 168.0
182.908844 92.0
183.029037 108.0
183.080978 420.0
183.11676 3428.0
183.155884 100.0
183.208786 140.0
183.229996 156.0
183.316559 48.0
183.373154 28.0
183.400116 244.0
183.455154 100.0
183.479736 156.0
183.539474 192.0
183.596924 92.0
183.642776 64.0
183.69133 28.0
183.721878 220.0
183.747696 116.0
183.793732 92.0
183.844376 132.0
183.8629 252.0
183.915283 124.0
183.976303 192.0
184.001663 124.0
184.032288 196.0
184.090057 856.0
184.114288 1504.0
184.178818 100.0
184.220413 72.0
184.263641 80.0
184.298767 180.0
184.324203 164.0
184.347397 136.0
184.37529 100.0
184.405762 248.0
184.453812 100.0
184.517685 44.0
184.560867 132.0
184.61293 404.0
184.647476 44.0
184.670502 68.0
184.693451 88.0
184.717804 80.0
184.767746 208.0
184.790848 148.0
184.826019 68.0
184.851212 212.0
184.899078 172.0
184.936508 164.0
185.037125 76.0
185.064209 288.0
185.088211 528.0
185.120697 952.0
185.161697 128.0
185.188782 88.0
185.232117 76.0
185.282349 184.0
185.324219 76.0
185.345901 128.0
185.394669 108.0
185.434601 148.0
185.460358 172.0
185.549179 132.0
185.626068 92.0
185.657639 92.0
185.67662 144.0
185.714584 104.0
185.7332 88.0
185.80275 108.0
185.844177 240.0
185.881073 120.0
185.904495 112.0
185.927917 176.0
185.966919 240.0
186.009445 184.0
186.091553 136.0
186.101471 92.0
186.128647 580.0
186.184967 180.0
186.242828 156.0
186.282562 180.0
186.314499 160.0
186.388474 140.0
186.453064 60.0
186.477524 184.0
186.586258 76.0
186.643356 52.0
186.693756 128.0
186.735825 152.0
186.763657 256.0
186.886917 152.0
186.907196 36.0
186.975235 76.0
187.007889 80.0
187.039474 180.0
187.061935 108.0
187.085083 188.0
187.111847 1156.0
187.184845 128.0
187.209351 80.0
187.247772 116.0
187.278595 152.0
187.322586 140.0
187.33342 80.0
187.372787 148.0
187.400024 164.0
187.437668 76.0
187.492081 164.0
187.547287 344.0
187.598984 172.0
187.639877 44.0
187.664413 88.0
187.748932 148.0
187.798035 188.0
187.860764 120.0
187.885315 84.0
187.926239 52.0
187.948074 112.0
187.999924 140.0
188.019028 96.0
188.064423 112.0
188.119888 1948.0
188.150558 160.0
188.207382 112.0
188.256607 76.0
188.330261 276.0
188.377197 44.0
188.422073 216.0
188.432755 132.0
188.464127 68.0
188.483246 120.0
188.526093 112.0
188.548843 152.0
188.573441 112.0
188.63356 88.0
188.660904 100.0
188.74292 52.0
188.807098 128.0
188.85231 148.0
188.887878 148.0
188.923431 64.0
189.004379 184.0
189.021927 292.0
189.092194 952.0
189.127625 14964.0
189.195221 112.0
189.232681 204.0
189.257751 176.0
189.301468 188.0
189.339478 140.0
189.402954 160.0
189.429871 96.0
189.4478 88.0
189.487717 172.0
189.514496 108.0
189.558716 132.0
189.651489 100.0
189.691818 128.0
189.73378 164.0
189.795883 240.0
189.830017 76.0
189.849213 84.0
189.89035 144.0
189.92601 60.0
189.950272 172.0
190.015976 268.0
190.085007 240.0
190.0961 140.0
190.131622 1788.0
190.172836 312.0
190.20224 160.0
190.239914 224.0
190.301971 52.0
190.343155 160.0
190.376114 48.0
190.437042 168.0
190.458176 136.0
190.543228 148.0
190.556625 72.0
190.567276 256.0
190.577423 276.0
190.601425 172.0
190.629974 148.0
190.651703 136.0
190.709503 156.0
190.735184 132.0
190.831131 160.0
190.851486 116.0
190.876236 28.0
190.91304 176.0
190.934067 136.0
191.07135 27592.0
191.135361 232.0
191.17572 32.0
191.236618 40.0
191.29068 100.0
191.333359 76.0
191.359268 108.0
191.382523 68.0
191.424713 176.0
191.454117 156.0
191.478897 80.0
191.527863 124.0
191.581497 128.0
191.613876 108.0
191.658127 204.0
191.715515 108.0
191.750153 44.0
191.77095 112.0
191.80127 116.0
191.819916 52.0
191.875687 192.0
191.894989 56.0
191.933594 116.0
191.977707 116.0
192.010803 144.0
192.041061 128.0
192.073563 3792.0
192.15976 36.0
192.215195 224.0
192.273514 132.0
192.279526 120.0
192.301834 116.0
192.345581 112.0
192.366745 52.0
192.394455 108.0
192.407562 56.0
192.417084 92.0
192.455093 64.0
192.493744 96.0
192.57373 116.0
192.606979 208.0
192.63736 144.0
192.659454 80.0
192.692612 60.0
192.78035 96.0
192.82225 96.0
192.844604 92.0
192.877762 60.0
192.912613 112.0
193.056641 40.0
193.093048 976.0
193.135269 84.0
193.162582 144.0
193.202927 68.0
193.243301 224.0
193.278778 128.0
193.328583 64.0
193.353485 104.0
193.387772 52.0
193.396667 60.0
193.421295 96.0
193.432297 136.0
193.445755 160.0
193.479431 88.0
193.509964 80.0
193.541565 204.0
193.56665 64.0
193.588806 168.0
193.657715 104.0
193.67894 140.0
193.735596 40.0
193.766068 52.0
193.875351 164.0
193.904617 120.0
193.913696 144.0
193.928101 160.0
193.935867 220.0
193.960052 68.0
193.996094 164.0
194.018265 116.0
194.050293 188.0
194.090668 240.0
194.159683 108.0
194.229019 140.0
194.281982 212.0
194.325775 176.0
194.353851 176.0
194.382202 148.0
194.43483 224.0
194.467636 96.0
194.512039 108.0
194.587494 112.0
194.631424 216.0
194.718918 212.0
194.742508 48.0
194.770279 104.0
194.82225 136.0
194.900848 80.0
194.92308 52.0
194.967285 132.0
194.974121 120.0
195.091461 284.0
195.159348 96.0
195.178818 220.0
195.231644 184.0
195.300995 248.0
195.345673 100.0
195.390198 152.0
195.416672 108.0
195.459747 44.0
195.540451 84.0
195.599457 180.0
195.628616 116.0
195.71199 116.0
195.74646 92.0
195.765945 128.0
195.803146 224.0
195.857452 112.0
195.95166 164.0
196.036163 108.0
196.083542 136.0
196.113068 636.0
196.197372 324.0
196.256378 112.0
196.30098 92.0
196.323288 52.0
196.395813 252.0
196.43486 116.0
196.465546 124.0
196.51297 168.0
196.541214 132.0
196.578827 192.0
196.674835 128.0
196.708328 100.0
196.761368 172.0
196.850708 88.0
196.900986 48.0
196.923325 80.0
196.970215 168.0
196.981552 132.0
197.017242 96.0
197.039093 244.0
197.060196 108.0
197.096725 568.0
197.125244 384.0
197.183151 380.0
197.261414 84.0
197.283783 128.0
197.329849 168.0
197.370453 188.0
197.429169 212.0
197.46553 148.0
197.4991 48.0
197.578186 132.0
197.633377 124.0
197.888077 48.0
197.916428 96.0
198.001373 164.0
198.022491 60.0
198.099274 100.0
198.127975 844.0
198.168152 120.0
198.234222 104.0
198.304489 80.0
198.379822 204.0
198.434418 180.0
198.493286 80.0
198.641937 152.0
198.667999 180.0
198.709259 136.0
198.734512 184.0
198.787827 96.0
198.834351 152.0
198.844635 200.0
198.886932 64.0
198.922546 108.0
198.945786 100.0
199.009583 80.0
199.042633 176.0
199.054184 176.0
199.111893 3728.0
199.164032 36.0
199.292679 100.0
199.29805 68.0
199.312271 136.0
199.319138 172.0
199.358658 88.0
199.420074 248.0
199.475937 96.0
199.501236 52.0
199.533005 160.0
199.557465 128.0
199.653 160.0
199.75296 116.0
199.822693 132.0
199.840591 120.0
199.881485 180.0
199.945847 164.0
200.001938 112.0
200.116043 1444.0
200.142242 2840.0
200.186584 172.0
200.213089 64.0
200.246887 136.0
200.295166 84.0
200.405701 200.0
200.444092 88.0
200.463806 148.0
200.491989 76.0
200.534271 28.0
200.554001 36.0
200.576553 160.0
200.693634 104.0
200.711868 252.0
200.735428 136.0
200.900833 180.0
200.940323 160.0
200.997467 128.0
201.056015 56.0
201.098724 272.0
201.145859 808.0
201.201355 148.0
201.239899 140.0
201.270554 96.0
201.29657 136.0
201.346802 196.0
201.382675 188.0
201.453033 144.0
201.519501 116.0
201.570374 56.0
201.625977 212.0
201.666367 148.0
201.725418 80.0
201.745209 160.0
201.764999 64.0
201.790436 48.0
201.852646 60.0
201.930511 60.0
202.002548 172.0
202.080063 836.0
202.126831 296.0
202.159012 996.0
202.196503 188.0
202.222504 200.0
202.248718 120.0
202.302505 112.0
202.336472 136.0
202.412918 60.0
202.432739 60.0
202.50354 60.0
202.52977 168.0
202.55452 116.0
202.63385 80.0
202.659348 232.0
202.690048 148.0
202.735855 88.0
202.786865 64.0
202.847885 152.0
202.958374 192.0
203.005753 116.0
203.036362 108.0
203.084122 1568.0
203.159653 420.0
203.198044 44.0
203.343872 112.0
203.368301 92.0
203.436432 56.0
203.535797 232.0
203.634583 144.0
203.68631 96.0
203.730484 44.0
203.782898 168.0
203.817001 40.0
203.870071 152.0
203.959091 172.0
204.018784 96.0
204.094086 3588.0
204.162766 156.0
204.195084 80.0
204.226364 116.0
204.24913 116.0
204.297485 48.0
204.317398 128.0
204.358536 156.0
204.394211 92.0
204.473892 204.0
204.550751 92.0
204.596207 136.0
204.624756 164.0
204.65564 128.0
204.721207 128.0
204.750046 84.0
204.798462 144.0
204.821259 184.0
204.88678 40.0
204.915268 124.0
204.955154 96.0
204.980804 168.0
205.041779 288.0
205.101288 8904.0
205.15181 88.0
205.179535 152.0
205.208374 176.0
205.260147 136.0
205.285812 116.0
205.314331 92.0
205.339996 64.0
205.437958 208.0
205.501328 160.0
205.547256 116.0
205.568222 60.0
205.61673 100.0
205.636719 44.0
205.668106 56.0
205.702362 84.0
205.75946 80.0
205.790863 52.0
205.813705 44.0
205.836548 120.0
205.881943 152.0
205.910797 80.0
205.939835 120.0
206.013626 172.0
206.041443 100.0
206.062073 148.0
206.105621 2500.0
206.14505 52.0
206.193008 180.0
206.202454 72.0
206.265091 48.0
206.325119 184.0
206.345139 44.0
206.41188 132.0
206.462082 156.0
206.525894 136.0
206.555557 168.0
206.631134 108.0
206.716965 196.0
206.758636 208.0
206.799973 136.0
206.865799 52.0
206.891571 52.0
206.911606 116.0
206.989075 136.0
207.020676 200.0
207.060501 136.0
207.114487 772.0
207.144455 128.0
207.170258 112.0
207.200867 128.0
207.235245 156.0
207.312607 148.0
207.381714 180.0
207.423386 156.0
207.496048 48.0
207.526871 64.0
207.570496 112.0
207.612473 100.0
207.635452 104.0
207.668106 128.0
207.728348 100.0
207.805801 104.0
207.837357 124.0
207.88237 148.0
207.928085 52.0
207.963623 160.0
207.998077 60.0
208.080246 228.0
208.116241 224.0
208.155273 132.0
208.20192 88.0
208.243484 152.0
208.273575 200.0
208.311066 116.0
208.365646 112.0
208.42598 68.0
208.4543 308.0
208.477707 112.0
208.530365 100.0
208.555313 184.0
208.60704 176.0
208.647293 80.0
208.678925 120.0
208.716293 76.0
208.779938 152.0
208.811203 96.0
208.845703 84.0
208.917618 148.0
208.97229 160.0
209.038467 116.0
209.075363 136.0
209.117599 72.0
209.18013 324.0
209.27121 112.0
209.337845 92.0
209.360199 220.0
209.398315 88.0
209.418472 72.0
209.467438 64.0
209.536667 132.0
209.550644 136.0
209.58844 100.0
209.637436 164.0
209.657608 88.0
209.71524 108.0
209.770004 52.0
209.816132 96.0
209.897827 108.0
209.925705 128.0
209.960312 132.0
210.075684 84.0
210.12468 864.0
210.167999 188.0
210.205521 124.0
210.236008 148.0
210.27449 120.0
210.306519 152.0
210.32962 132.0
210.36615 176.0
210.450867 92.0
210.510483 148.0
210.566376 112.0
210.586594 116.0
210.641357 108.0
210.670349 92.0
210.719467 200.0
210.790146 104.0
210.892853 68.0
210.933319 160.0
210.981018 208.0
211.102997 180.0
211.133499 660.0
211.176193 160.0
211.265869 36.0
211.32663 68.0
211.369141 92.0
211.423401 144.0
211.549469 152.0
211.595779 168.0
211.662384 220.0
211.70871 264.0
211.789169 164.0
211.836151 120.0
211.865112 160.0
211.923065 144.0
211.986816 84.0
212.141968 780.0
212.281448 144.0
212.306046 196.0
212.340485 88.0
212.386902 172.0
212.468124 116.0
212.494232 136.0
212.566772 60.0
212.587082 48.0
212.633514 164.0
212.680069 176.0
212.719162 108.0
212.787369 120.0
212.806931 92.0
212.859955 248.0
212.923843 136.0
212.984833 100.0
213.025497 148.0
213.045837 40.0
213.148544 392.0
213.208542 76.0
213.255051 148.0
213.321899 84.0
213.371323 128.0
213.452209 156.0
213.478897 80.0
213.498535 64.0
213.525436 96.0
213.574875 92.0
213.626434 136.0
213.75235 112.0
213.819275 72.0
213.845474 228.0
213.868759 224.0
213.890732 88.0
213.920685 332.0
213.953171 144.0
214.020447 220.0
214.061966 164.0
214.158127 700.0
214.311401 188.0
214.398819 144.0
214.46138 156.0
214.502228 184.0
214.55217 124.0
214.595978 132.0
214.62117 116.0
214.652435 152.0
214.733368 176.0
214.769089 144.0
214.798264 64.0
214.824097 224.0
214.908203 128.0
214.961685 136.0
214.989548 124.0
215.042068 164.0
215.088791 1532.0
215.162689 260.0
215.204453 128.0
215.291626 108.0
215.323639 88.0
215.373291 132.0
215.440201 136.0
215.458878 160.0
215.591995 112.0
215.650864 72.0
215.675827 128.0
215.777832 160.0
215.815918 112.0
215.840881 132.0
215.861343 124.0
215.91983 120.0
215.961533 140.0
215.994431 176.0
216.033112 220.0
216.093567 4324.0
216.142883 284.0
216.167755 272.0
216.294342 116.0
216.332169 104.0
216.362686 92.0
216.389893 168.0
216.438385 200.0
216.463867 408.0
216.502213 56.0
216.549072 56.0
216.575439 72.0
216.598862 56.0
216.622299 152.0
216.715424 132.0
216.75708 124.0
216.792999 124.0
216.827408 108.0
216.962234 120.0
217.005661 168.0
217.044327 128.0
217.121109 6760.0
217.206558 64.0
217.253738 80.0
217.338959 72.0
217.361115 132.0
217.390472 92.0
217.41394 124.0
217.48732 116.0
217.510803 160.0
217.540146 80.0
217.593002 112.0
217.692825 32.0
217.760376 80.0
217.785751 120.0
217.845551 164.0
217.956085 200.0
218.012909 188.0
218.051819 180.0
218.10849 3552.0
218.160782 300.0
218.206696 120.0
218.233749 196.0
218.304062 144.0
218.405899 172.0
218.445236 156.0
218.499786 96.0
218.554657 144.0
218.651199 104.0
218.707123 152.0
218.745377 60.0
218.795425 48.0
218.891281 180.0
218.917038 120.0
218.944412 112.0
218.985291 100.0
219.010391 120.0
219.045731 84.0
219.115692 8208.0
219.172424 64.0
219.194687 108.0
219.225143 148.0
219.307983 232.0
219.331558 112.0
219.408203 116.0
219.452423 104.0
219.487808 380.0
219.521423 80.0
219.5522 96.0
219.660828 48.0
219.731796 116.0
219.760941 144.0
219.790146 88.0
219.821136 120.0
219.850647 92.0
219.875809 152.0
219.948044 36.0
219.968704 92.0
219.990601 124.0
220.057266 100.0
220.119949 1400.0
220.14975 124.0
220.159882 160.0
220.184235 136.0
220.210815 112.0
220.275803 160.0
220.328979 48.0
220.382156 124.0
220.447433 44.0
220.479675 132.0
220.551254 164.0
220.576447 140.0
220.654068 132.0
220.679855 272.0
220.699966 92.0
220.706345 88.0
220.812607 188.0
220.866989 180.0
220.914307 60.0
221.023773 140.0
221.044495 244.0
221.08046 132.0
221.124741 448.0
221.16684 304.0
221.233917 48.0
221.266479 64.0
221.390839 112.0
221.426376 168.0
221.460083 148.0
221.504807 92.0
221.580414 136.0
221.636703 136.0
221.76413 136.0
221.799072 76.0
221.846756 128.0
221.897522 32.0
221.971649 140.0
222.022064 164.0
222.051727 128.0
222.132202 412.0
222.250473 112.0
222.286087 304.0
222.342026 160.0
222.365906 156.0
222.452286 104.0
222.481979 112.0
222.591827 84.0
222.637207 128.0
222.706604 304.0
222.758942 176.0
222.820541 68.0
222.859558 116.0
222.900757 120.0
222.933441 28.0
222.988541 132.0
223.022598 48.0
223.055298 132.0
223.093948 124.0
223.133163 168.0
223.182297 200.0
223.263428 116.0
223.308029 56.0
223.34967 92.0
223.374786 120.0
223.528183 92.0
223.60257 60.0
223.647217 132.0
223.66806 72.0
223.785355 188.0
223.834595 136.0
223.912201 80.0
224.010498 108.0
224.129669 80.0
224.162445 104.0
224.207138 136.0
224.302521 324.0
224.359161 136.0
224.388977 108.0
224.43071 76.0
224.621582 144.0
224.669312 96.0
224.73793 140.0
224.763718 124.0
224.884857 168.0
224.911011 120.0
224.955795 132.0
225.00415 140.0
225.088959 152.0
225.11702 80.0
225.146881 76.0
225.167786 92.0
225.194656 48.0
225.239471 108.0
225.260376 68.0
225.293243 140.0
225.326096 72.0
225.39946 100.0
225.459518 216.0
225.496597 136.0
225.538269 136.0
225.607025 136.0
225.646133 188.0
225.777451 124.0
225.807434 152.0
225.843246 212.0
225.888123 152.0
226.010773 252.0
226.061646 108.0
226.116806 164.0
226.155075 600.0
226.196335 100.0
226.230911 212.0
226.265182 128.0
226.339264 156.0
226.360931 176.0
226.384949 56.0
226.426773 152.0
226.504745 72.0
226.559937 180.0
226.627579 68.0
226.669525 72.0
226.767303 172.0
226.879333 200.0
226.912308 44.0
226.948288 140.0
226.978271 160.0
227.017258 240.0
227.050247 164.0
227.117905 100.0
227.16655 264.0
227.212219 132.0
227.334351 148.0
227.395264 96.0
227.430008 176.0
227.452286 116.0
227.530334 196.0
227.572372 80.0
227.627762 80.0
227.671463 68.0
227.75856 40.0
227.782593 132.0
227.815628 148.0
227.836655 140.0
227.884735 236.0
228.098236 180.0
228.167236 236.0
228.203323 232.0
228.237457 124.0
228.306595 104.0
228.361816 68.0
228.464966 108.0
228.519119 52.0
228.576294 244.0
228.614151 116.0
228.64209 88.0
228.666565 180.0
228.692169 152.0
228.714737 128.0
228.805038 116.0
228.832138 76.0
228.878418 168.0
228.937515 180.0
229.0392 84.0
229.104156 1136.0
229.123428 1192.0
229.159195 128.0
229.181519 140.0
229.261307 108.0
229.320129 48.0
229.39061 84.0
229.431671 204.0
229.488953 56.0
229.541168 176.0
229.579407 64.0
229.630341 168.0
229.644119 96.0
229.69101 56.0
229.743851 308.0
229.774109 128.0
229.831345 208.0
229.878052 128.0
229.938416 120.0
229.979584 100.0
230.009033 140.0
230.03331 100.0
230.05957 60.0
230.109253 776.0
230.150833 1136.0
230.293213 132.0
230.337296 180.0
230.43985 136.0
230.466873 148.0
230.560547 64.0
230.63913 216.0
230.672379 148.0
230.850754 184.0
230.937958 168.0
230.965317 132.0
230.96965 116.0
230.98175 168.0
231.115631 3700.0
231.198654 100.0
231.244049 156.0
231.274307 100.0
231.353012 48.0
231.377228 96.0
231.42662 116.0
231.485107 108.0
231.561951 256.0
231.604355 60.0
231.635818 124.0
231.685043 176.0
231.722244 172.0
231.764908 100.0
231.798935 296.0
231.90509 172.0
231.940201 144.0
231.981873 116.0
232.053986 160.0
232.119431 900.0
232.181351 200.0
232.303986 148.0
232.364609 192.0
232.431992 76.0
232.463547 140.0
232.519989 148.0
232.545792 96.0
232.620148 172.0
232.662659 92.0
232.689972 128.0
232.735519 132.0
232.799286 252.0
232.835724 120.0
232.867798 236.0
232.917648 132.0
232.938995 180.0
232.976929 260.0
233.01712 56.0
233.045822 356.0
233.077164 184.0
233.117844 47132.0
233.174118 52.0
233.186722 168.0
233.211594 332.0
233.248077 128.0
233.279877 124.0
233.319077 196.0
233.363556 300.0
233.374405 208.0
233.399994 124.0
233.431519 156.0
233.47644 232.0
233.497498 48.0
233.518372 172.0
233.541534 192.0
233.595673 144.0
233.669662 160.0
233.784225 168.0
233.808578 316.0
233.82988 52.0
233.860214 212.0
233.90834 108.0
233.988892 264.0
234.013916 176.0
234.056244 180.0
234.121002 6652.0
234.198273 124.0
234.221436 60.0
234.254456 100.0
234.299911 232.0
234.326218 176.0
234.378021 112.0
234.399353 108.0
234.426971 188.0
234.454865 220.0
234.491455 100.0
234.549515 44.0
234.647186 92.0
234.676147 200.0
234.732834 104.0
234.834625 92.0
234.84343 72.0
234.856293 68.0
234.867279 132.0
234.905457 56.0
234.937164 132.0
235.001419 136.0
235.023819 140.0
235.045792 76.0
235.067154 108.0
235.123352 908.0
235.194794 188.0
235.261475 120.0
235.28157 176.0
235.320816 112.0
235.352615 92.0
235.384613 100.0
235.422455 132.0
235.473175 108.0
235.49881 192.0
235.584442 280.0
235.614609 184.0
235.67836 220.0
235.718903 128.0
235.785355 100.0
235.859756 296.0
235.94986 128.0
235.979141 152.0
235.989746 88.0
235.997055 156.0
236.029358 104.0
236.059189 180.0
236.120453 152.0
236.144547 112.0
236.190964 52.0
236.212173 152.0
236.246506 40.0
236.340027 112.0
236.393356 44.0
236.420898 36.0
236.474869 192.0
236.514801 124.0
236.548218 76.0
236.58075 144.0
236.618576 152.0
236.62709 144.0
236.671341 64.0
236.711899 68.0
236.745407 184.0
236.766388 140.0
236.817123 96.0
236.8526 184.0
236.967056 144.0
237.00296 148.0
237.029617 144.0
237.119949 156.0
237.173187 192.0
237.185516 80.0
237.190918 180.0
237.220306 84.0
237.268219 140.0
237.305389 112.0
237.339874 156.0
237.387466 208.0
237.439774 164.0
237.491379 180.0
237.689972 264.0
237.772415 108.0
237.805298 168.0
237.886368 160.0
237.947372 92.0
237.992355 148.0
238.051544 160.0
238.079407 100.0
238.108429 152.0
238.155792 320.0
238.217621 100.0
238.252441 132.0
238.307877 180.0
238.365097 100.0
238.4133 244.0
238.439835 124.0
238.469589 164.0
238.494675 164.0
238.586395 192.0
238.610977 160.0
238.647873 92.0
238.669403 156.0
238.709381 88.0
238.745224 164.0
238.780106 36.0
238.915451 96.0
238.952362 104.0
239.004669 68.0
239.055847 120.0
239.103149 120.0
239.130844 124.0
239.161575 120.0
239.19548 156.0
239.22319 96.0
239.260132 100.0
239.314468 268.0
239.391617 108.0
239.438721 144.0
239.494156 84.0
239.515717 44.0
239.558838 120.0
239.645111 96.0
239.679001 160.0
239.765274 84.0
239.821152 140.0
240.018051 96.0
240.045807 84.0
240.124847 76.0
240.174133 480.0
240.218521 120.0
240.254837 140.0
240.403641 100.0
240.465363 72.0
240.500854 128.0
240.539444 168.0
240.582199 208.0
240.679077 156.0
240.703079 80.0
240.724686 80.0
240.752487 164.0
240.814255 96.0
240.854767 352.0
240.891464 80.0
241.008865 100.0
241.054123 68.0
241.119858 188.0
241.265396 60.0
241.30867 48.0
241.336502 132.0
241.378647 140.0
241.475662 108.0
241.590103 188.0
241.700043 132.0
241.741714 128.0
241.791229 40.0
241.815979 148.0
241.998627 172.0
242.018402 124.0
242.030884 48.0
242.04129 144.0
242.053894 160.0
242.11734 236.0
242.166077 108.0
242.189529 204.0
242.267441 208.0
242.381622 144.0
242.422989 80.0
242.488068 40.0
242.519058 120.0
242.560974 168.0
242.649246 48.0
242.670959 68.0
242.77179 120.0
242.806259 152.0
242.813217 96.0
242.823883 140.0
242.857025 124.0
242.878738 120.0
242.937668 140.0
243.00592 148.0
243.104767 216.0
243.124496 280.0
243.164185 100.0
243.197357 320.0
243.231216 100.0
243.288712 228.0
243.328705 96.0
243.431168 348.0
243.496384 228.0
243.518112 164.0
243.546066 72.0
243.578293 172.0
243.639267 132.0
243.664108 112.0
243.715286 108.0
243.753708 176.0
243.791504 128.0
243.831909 60.0
243.971786 84.0
244.005127 200.0
244.065063 96.0
244.129547 564.0
244.180115 168.0
244.267212 156.0
244.313873 144.0
244.390472 128.0
244.408478 136.0
244.445923 108.0
244.563522 232.0
244.600159 184.0
244.727798 196.0
244.830551 64.0
244.855469 92.0
244.914642 204.0
244.954697 84.0
245.042374 148.0
245.067291 168.0
245.103714 128.0
245.135696 1012.0
245.184021 148.0
245.226227 168.0
245.282318 164.0
245.307266 172.0
245.329086 100.0
245.38208 100.0
245.472504 140.0
245.503693 292.0
245.578537 80.0
245.609726 148.0
245.647156 44.0
245.707916 168.0
245.743866 128.0
245.803162 148.0
245.836533 144.0
245.881165 96.0
245.984177 268.0
246.014236 152.0
246.06221 96.0
246.148605 11148.0
246.26207 44.0
246.358902 80.0
246.438309 176.0
246.49324 256.0
246.517517 364.0
246.550873 100.0
246.604218 108.0
246.674515 120.0
246.700287 196.0
246.737518 104.0
246.765182 148.0
246.842407 188.0
246.876785 108.0
246.909012 48.0
246.980957 152.0
247.02948 124.0
247.054779 120.0
247.063675 72.0
247.077301 80.0
247.142654 1752.0
247.193695 108.0
247.226608 124.0
247.265671 100.0
247.315018 136.0
247.368958 256.0
247.388596 132.0
247.39679 36.0
247.408783 128.0
247.454803 188.0
247.541153 56.0
247.621719 116.0
247.642944 140.0
247.654465 112.0
247.661514 112.0
247.710281 156.0
247.826202 204.0
247.851257 80.0
247.890961 100.0
247.902405 88.0
247.910416 128.0
247.942139 128.0
247.995422 184.0
248.020493 132.0
248.072601 176.0
248.144852 2656.0
248.209518 96.0
248.218384 164.0
248.243088 180.0
248.271317 172.0
248.304459 148.0
248.340317 112.0
248.415588 104.0
248.445694 88.0
248.529343 124.0
248.68457 116.0
248.745697 144.0
248.814148 144.0
248.859406 124.0
248.907639 148.0
248.971146 116.0
249.011963 132.0
249.049347 124.0
249.150742 628.0
249.224854 52.0
249.269577 44.0
249.313568 116.0
249.35228 312.0
249.370972 136.0
249.415787 92.0
249.446152 212.0
249.485153 104.0
249.533539 204.0
249.570206 120.0
249.60112 168.0
249.765015 68.0
249.801834 176.0
249.846893 168.0
249.871109 152.0
249.973953 84.0
250.005417 144.0
250.031342 168.0
250.110962 216.0
250.159241 19880.0
250.19902 376.0
250.261841 104.0
250.309952 76.0
250.367157 172.0
250.433594 72.0
250.467361 100.0
250.517578 176.0
250.55014 68.0
250.606995 88.0
250.63205 120.0
250.685867 80.0
250.726593 48.0
250.811691 104.0
250.871582 156.0
250.91571 100.0
251.020691 192.0
251.047089 144.0
251.069 144.0
251.093719 184.0
251.163345 4100.0
251.214798 196.0
251.273285 128.0
251.347565 152.0
251.440353 160.0
251.52916 140.0
251.55928 80.0
251.6483 140.0
251.685562 172.0
251.720291 276.0
251.816422 136.0
251.867538 96.0
251.950867 176.0
251.982452 132.0
252.015182 144.0
252.078003 216.0
252.108841 180.0
252.172607 2744.0
252.215424 244.0
252.24791 180.0
252.292175 80.0
252.31839 136.0
252.341629 112.0
252.370621 172.0
252.450989 132.0
252.485046 72.0
252.522583 120.0
252.554626 248.0
252.583099 136.0
252.610016 172.0
252.646057 204.0
252.669556 120.0
252.710419 96.0
252.73494 172.0
252.823547 52.0
252.845703 132.0
252.883682 84.0
252.95253 96.0
253.068481 116.0
253.126053 120.0
253.177124 968.0
253.257294 64.0
253.437866 60.0
253.463211 92.0
253.514145 112.0
253.570236 88.0
253.608994 168.0
253.63118 152.0
253.672379 132.0
253.726273 108.0
253.767487 140.0
253.789688 168.0
253.850311 168.0
253.928909 84.0
253.96814 176.0
253.998993 68.0
254.024368 140.0
254.094162 44.0
254.119553 200.0
254.185776 240.0
254.246552 148.0
254.279602 100.0
254.339569 120.0
254.379776 60.0
254.43692 64.0
254.49263 136.0
254.552719 136.0
254.586441 132.0
254.633789 76.0
254.672409 124.0
254.783081 40.0
254.821213 108.0
254.856094 188.0
254.864395 88.0
254.935593 84.0
254.961014 96.0
254.995972 108.0
255.018219 108.0
255.087524 140.0
255.159973 132.0
255.190994 128.0
255.22168 160.0
255.269379 164.0
255.320267 84.0
255.352066 108.0
255.380173 164.0
255.515625 76.0
255.546112 144.0
255.639435 96.0
255.663528 80.0
255.710052 108.0
255.756134 60.0
255.833023 104.0
255.882263 244.0
255.963074 188.0
256.014832 160.0
256.069214 156.0
256.096832 288.0
256.125061 448.0
256.203735 976.0
256.26535 80.0
256.317505 176.0
256.377197 168.0
256.476776 176.0
256.541931 116.0
256.559692 108.0
256.590759 176.0
256.613068 32.0
256.667267 56.0
256.742126 144.0
256.780121 92.0
256.790924 36.0
256.80069 100.0
256.855438 92.0
256.91922 144.0
256.993439 92.0
257.043671 176.0
257.138947 576.0
257.177704 128.0
257.212189 168.0
257.327148 136.0
257.372437 76.0
257.39798 148.0
257.421661 56.0
257.452271 84.0
257.477661 84.0
257.549194 136.0
257.605591 100.0
257.634338 244.0
257.701874 116.0
257.760468 132.0
257.783936 160.0
257.806854 212.0
257.836456 124.0
257.891327 140.0
257.957092 148.0
257.990021 212.0
258.031067 128.0
258.078583 256.0
258.14798 3236.0
258.220856 204.0
258.252686 72.0
258.332703 148.0
258.366425 96.0
258.390778 272.0
258.494385 164.0
258.619202 248.0
258.760071 108.0
258.815582 368.0
258.865723 176.0
258.910553 188.0
258.955811 140.0
258.977814 192.0
259.003082 144.0
259.068878 260.0
259.149841 1188.0
259.243225 212.0
259.270844 140.0
259.317444 108.0
259.365509 88.0
259.445648 208.0
259.488434 172.0
259.511566 128.0
259.563202 112.0
259.628418 44.0
259.660187 88.0
259.737457 440.0
259.881683 84.0
259.952423 152.0
260.05191 96.0
260.093872 196.0
260.16333 14528.0
260.296417 232.0
260.373962 104.0
260.398651 132.0
260.449127 108.0
260.505829 72.0
260.565277 92.0
260.569885 132.0
260.603638 208.0
260.640839 140.0
260.66333 104.0
260.739197 84.0
260.768127 68.0
260.790619 100.0
260.825989 72.0
260.868225 116.0
260.91272 252.0
260.944916 32.0
260.976501 152.0
261.043365 188.0
261.077087 164.0
261.112152 260.0
261.16684 2880.0
261.266541 140.0
261.316925 176.0
261.350861 208.0
261.427429 188.0
261.491455 232.0
261.527191 188.0
261.585114 116.0
261.614838 120.0
261.667053 176.0
261.750305 292.0
261.786713 140.0
261.81134 124.0
261.859772 312.0
261.878754 164.0
261.892883 76.0
261.898834 132.0
261.932617 144.0
261.966827 156.0
262.016235 152.0
262.097198 160.0
262.159393 79236.0
262.225891 140.0
262.274445 100.0
262.301849 156.0
262.345947 128.0
262.416382 120.0
262.461761 264.0
262.531158 128.0
262.581604 204.0
262.609222 84.0
262.621185 104.0
262.650848 184.0
262.689026 256.0
262.721069 48.0
262.752625 152.0
262.800964 112.0
262.830292 92.0
262.906342 116.0
262.930695 68.0
262.964478 64.0
262.989166 88.0
263.008026 92.0
263.049835 192.0
263.089813 392.0
263.162354 16140.0
263.233398 200.0
263.256805 196.0
263.316589 144.0
263.351593 176.0
263.38443 212.0
263.436096 144.0
263.497406 212.0
263.53009 44.0
263.566406 128.0
263.596436 56.0
263.633179 48.0
263.663818 160.0
263.726929 92.0
263.752319 56.0
263.798035 172.0
263.839264 148.0
263.870667 144.0
263.904724 44.0
263.933807 136.0
263.966156 164.0
264.019318 76.0
264.061768 84.0
264.094818 112.0
264.121399 256.0
264.1698 2024.0
264.233002 68.0
264.252167 172.0
264.279907 56.0
264.319031 180.0
264.407288 132.0
264.462433 148.0
264.47644 60.0
264.483795 108.0
264.502899 44.0
264.547821 260.0
264.57547 88.0
264.616974 180.0
264.636627 88.0
264.661835 112.0
264.702332 160.0
264.742798 80.0
264.767517 88.0
264.809814 112.0
264.831848 128.0
264.874664 28.0
264.879822 276.0
264.90567 84.0
264.970551 132.0
265.038849 112.0
265.130829 124.0
265.181366 576.0
265.245178 60.0
265.288452 116.0
265.386871 88.0
265.439514 156.0
265.491058 124.0
265.530304 144.0
265.643829 144.0
265.702209 132.0
265.761536 296.0
265.785004 108.0
265.811646 116.0
265.874725 84.0
265.916382 152.0
265.953491 112.0
266.055969 100.0
266.139496 116.0
266.186951 148.0
266.21402 244.0
266.241028 164.0
266.268219 120.0
266.296234 160.0
266.370178 132.0
266.520386 188.0
266.543152 64.0
266.617889 64.0
266.682892 164.0
266.760895 80.0
266.802277 60.0
266.871429 48.0
266.903961 308.0
267.031799 180.0
267.14212 220.0
267.203186 100.0
267.243591 160.0
267.27301 124.0
267.365875 48.0
267.391907 40.0
267.446899 76.0
267.45929 68.0
267.481659 132.0
267.588989 140.0
267.616516 80.0
267.652252 116.0
267.676392 176.0
267.727875 128.0
267.769562 100.0
267.802124 128.0
267.859924 156.0
267.996704 148.0
268.07254 212.0
268.105133 128.0
268.170715 248.0
268.227234 128.0
268.277863 160.0
268.30722 48.0
268.352844 156.0
268.388733 160.0
268.431122 136.0
268.525696 112.0
268.561554 156.0
268.587646 156.0
268.639862 108.0
268.685516 48.0
268.737732 120.0
268.825745 156.0
268.895416 172.0
268.946564 176.0
268.979218 116.0
269.015137 100.0
269.051025 128.0
269.113068 220.0
269.142456 112.0
269.171265 136.0
269.204498 76.0
269.243683 128.0
269.283569 96.0
269.397919 128.0
269.433136 140.0
269.482147 44.0
269.529846 100.0
269.567108 168.0
269.593231 44.0
269.671661 80.0
269.723969 96.0
269.789337 136.0
269.812225 116.0
269.874359 120.0
269.927673 236.0
269.973999 176.0
270.004791 144.0
270.044403 160.0
270.145905 312.0
270.453369 56.0
270.538483 64.0
270.590881 112.0
270.620331 96.0
270.846313 92.0
270.931458 160.0
270.964233 248.0
270.99527 244.0
271.049896 160.0
271.098572 60.0
271.15097 176.0
271.226379 52.0
271.287262 84.0
271.379944 176.0
271.455872 160.0
271.485413 116.0
271.593628 176.0
271.657318 176.0
271.695953 148.0
271.731415 72.0
271.78717 316.0
271.902039 48.0
271.98172 156.0
272.016907 124.0
272.058197 144.0
272.094421 124.0
272.163757 6520.0
272.223755 28.0
272.259888 112.0
272.361694 84.0
272.427399 96.0
272.453674 104.0
272.487549 128.0
272.52594 100.0
272.628448 148.0
272.660675 84.0
272.778992 96.0
272.828308 48.0
272.867126 104.0
272.926941 80.0
272.961487 36.0
273.022308 88.0
273.073883 160.0
273.115509 156.0
273.166656 1312.0
273.237183 212.0
273.292053 108.0
273.321655 92.0
273.367737 184.0
273.434723 128.0
273.47818 136.0
273.535583 40.0
273.631042 48.0
273.701202 124.0
273.765015 116.0
273.862244 136.0
273.90274 136.0
273.934021 152.0
274.007935 156.0
274.047272 128.0
274.092163 172.0
274.16156 1732.0
274.289917 28.0
274.336884 156.0
274.372314 84.0
274.418457 76.0
274.477814 36.0
274.503296 88.0
274.53009 88.0
274.553131 48.0
274.623627 188.0
274.665802 120.0
274.711975 108.0
274.744965 64.0
274.768951 136.0
274.810974 116.0
274.857147 80.0
274.880249 92.0
274.974152 76.0
275.05188 108.0
275.120789 152.0
275.164429 412.0
275.215393 248.0
275.253265 136.0
275.416168 216.0
275.48764 124.0
275.553833 220.0
275.585693 136.0
275.691284 196.0
275.752075 132.0
275.782867 76.0
275.857849 180.0
275.937103 132.0
275.996704 36.0
276.025726 52.0
276.088898 160.0
276.098389 200.0
276.167999 2564.0
276.244751 60.0
276.317535 100.0
276.356567 40.0
276.415039 212.0
276.456512 84.0
276.499542 88.0
276.539246 228.0
276.618683 144.0
276.701782 164.0
276.747803 140.0
276.852509 176.0
276.876953 108.0
277.022675 68.0
277.176453 796.0
277.231415 116.0
277.373932 128.0
277.411926 156.0
277.434204 152.0
277.534973 132.0
277.619263 80.0
277.775146 112.0
277.802399 152.0
277.86142 112.0
277.950989 44.0
277.974213 128.0
278.035919 68.0
278.122223 128.0
278.17276 1104.0
278.23941 120.0
278.316223 132.0
278.343384 148.0
278.419067 112.0
278.451263 196.0
278.457642 136.0
278.531982 132.0
278.578491 80.0
278.615021 176.0
278.714691 76.0
278.760956 192.0
278.796112 128.0
278.827698 116.0
278.876007 148.0
278.889008 80.0
278.897919 92.0
278.957306 144.0
278.997192 144.0
279.055847 144.0
279.083649 128.0
279.112244 232.0
279.172821 300.0
279.249908 112.0
279.279846 48.0
279.318787 120.0
279.332611 84.0
279.375488 116.0
279.408936 348.0
279.489655 64.0
279.542694 108.0
279.592041 196.0
279.669952 196.0
279.8078 92.0
279.848907 72.0
279.872223 76.0
279.925171 184.0
279.97876 72.0
280.02179 284.0
280.067078 116.0
280.095886 148.0
280.168701 7536.0
280.219513 296.0
280.266449 144.0
280.30954 172.0
280.330505 48.0
280.391876 108.0
280.438538 64.0
280.497345 144.0
280.543396 76.0
280.588531 140.0
280.649597 128.0
280.757751 140.0
280.791962 52.0
280.815308 60.0
280.885345 156.0
280.908691 96.0
280.982086 124.0
281.027924 156.0
281.079315 168.0
281.10553 212.0
281.170441 1692.0
281.289093 44.0
281.319855 172.0
281.358032 104.0
281.397308 172.0
281.478271 48.0
281.587402 152.0
281.633026 124.0
281.716522 144.0
281.746582 120.0
281.808014 144.0
281.905762 100.0
282.007233 148.0
282.040649 124.0
282.096008 124.0
282.141724 204.0
282.176849 480.0
282.217834 144.0
282.253601 52.0
282.351593 76.0
282.411804 48.0
282.457794 192.0
282.585205 132.0
282.67276 120.0
282.700348 112.0
282.726288 76.0
282.756409 44.0
282.843445 120.0
282.873474 152.0
282.930481 48.0
283.034271 164.0
283.08783 108.0
283.154236 152.0
283.209839 224.0
283.222198 132.0
283.249664 148.0
283.275391 96.0
283.344482 168.0
283.391846 136.0
283.44873 120.0
283.545349 192.0
283.610474 100.0
283.633942 124.0
283.65741 92.0
283.686432 164.0
283.732819 88.0
283.816498 88.0
283.858551 120.0
283.89209 48.0
283.949097 96.0
283.979279 180.0
284.011444 232.0
284.053711 84.0
284.089996 108.0
284.125824 164.0
284.162231 488.0
284.198883 208.0
284.279144 148.0
284.303802 216.0
284.388611 204.0
284.462463 124.0
284.49939 108.0
284.626984 168.0
284.668365 124.0
284.754578 112.0
284.909088 224.0
284.946045 156.0
285.003174 152.0
285.110718 204.0
285.171844 320.0
285.20993 84.0
285.269623 216.0
285.335327 140.0
285.471832 124.0
285.577148 212.0
285.662109 220.0
285.692383 52.0
285.726044 248.0
285.759674 72.0
285.816864 192.0
285.855225 136.0
285.884186 64.0
285.914459 180.0
285.964935 208.0
286.008698 136.0
286.082764 220.0
286.116425 116.0
286.180969 792.0
286.274689 140.0
286.30011 184.0
286.370331 204.0
286.443085 156.0
286.505402 144.0
286.564362 44.0
286.662079 96.0
286.706299 192.0
286.763184 52.0
286.918243 144.0
286.941833 108.0
286.98111 68.0
287.003082 144.0
287.065552 104.0
287.110413 160.0
287.18573 448.0
287.25882 100.0
287.285828 120.0
287.34317 60.0
287.397156 176.0
287.44873 56.0
287.494995 192.0
287.569244 160.0
287.622192 64.0
287.681396 128.0
287.731293 128.0
287.780243 136.0
287.815704 108.0
287.99469 36.0
288.024231 64.0
288.077972 200.0
288.116272 172.0
288.17453 12680.0
288.260529 136.0
288.332001 148.0
288.359863 48.0
288.425171 192.0
288.481262 140.0
288.528595 68.0
288.597046 124.0
288.670593 48.0
288.700073 140.0
288.778809 228.0
288.81601 28.0
288.863373 112.0
288.8992 108.0
288.964661 64.0
288.970154 100.0
289.022369 108.0
289.046082 100.0
289.121765 152.0
289.179047 4436.0
289.293152 72.0
289.340546 60.0
289.364227 60.0
289.434296 156.0
289.4776 112.0
289.543701 32.0
289.570801 52.0
289.601288 108.0
289.667175 148.0
289.733368 96.0
289.76178 148.0
289.779572 44.0
289.796631 132.0
289.842651 144.0
289.92514 88.0
289.984131 156.0
290.014648 160.0
290.058685 240.0
290.098022 84.0
290.139679 136.0
290.183533 980.0
290.231598 64.0
290.285858 32.0
290.316376 144.0
290.353668 180.0
290.435089 96.0
290.506317 36.0
290.53006 84.0
290.593475 92.0
290.679352 64.0
290.716675 164.0
290.75061 68.0
290.777771 144.0
290.832062 60.0
290.905762 180.0
290.918427 172.0
290.925507 84.0
290.955231 100.0
291.049347 64.0
291.109192 192.0
291.167816 144.0
291.192535 144.0
291.246307 148.0
291.290466 100.0
291.348389 148.0
291.416168 160.0
291.443329 48.0
291.52829 84.0
291.565674 124.0
291.637054 128.0
291.72583 168.0
291.786621 132.0
291.821716 124.0
291.861847 96.0
291.953217 160.0
291.992645 176.0
292.034851 204.0
292.062073 52.0
292.10968 136.0
292.211304 124.0
292.222778 164.0
292.266174 132.0
292.290009 144.0
292.378479 136.0
292.545258 88.0
292.650665 100.0
292.739319 88.0
292.780182 152.0
292.824463 68.0
292.861938 88.0
292.889191 136.0
292.9505 120.0
293.004272 172.0
293.079956 72.0
293.2742 148.0
293.301483 164.0
293.345795 68.0
293.499207 120.0
293.693604 136.0
293.77887 108.0
293.806152 124.0
293.847107 68.0
293.976746 120.0
294.047302 120.0
294.092804 88.0
294.116699 152.0
294.181366 576.0
294.225555 112.0
294.238739 148.0
294.27713 144.0
294.304718 108.0
294.333191 144.0
294.396637 144.0
294.461548 76.0
294.49707 52.0
294.647308 144.0
294.68396 36.0
294.738251 44.0
294.977356 120.0
294.989105 200.0
295.043945 152.0
295.086853 52.0
295.148407 116.0
295.190247 348.0
295.230469 112.0
295.370697 84.0
295.490448 104.0
295.610199 68.0
295.777893 116.0
295.829742 208.0
295.928314 128.0
296.003754 124.0
296.079193 140.0
296.162231 624.0
296.278839 216.0
296.356537 120.0
296.39093 120.0
296.427856 92.0
296.494781 128.0
296.545135 76.0
296.600952 152.0
296.675385 164.0
296.716522 136.0
296.777863 176.0
296.805664 156.0
296.880615 140.0
296.946259 156.0
297.049164 104.0
297.086914 172.0
297.171539 156.0
297.248169 48.0
297.277405 184.0
297.402588 136.0
297.4534 164.0
297.563934 36.0
297.615448 116.0
297.682495 148.0
297.736633 96.0
297.75943 180.0
297.78772 428.0
297.822754 176.0
297.8508 200.0
297.907349 56.0
298.015411 168.0
298.028503 76.0
298.039948 188.0
298.077179 160.0
298.123169 412.0
298.133087 104.0
298.180206 27068.0
298.303101 76.0
298.366241 136.0
298.412567 76.0
298.457611 120.0
298.52594 168.0
298.575378 40.0
298.608551 44.0
298.637146 168.0
298.667023 80.0
298.702026 68.0
298.782898 100.0
298.852814 44.0
298.890656 120.0
298.960815 284.0
299.057098 88.0
299.111267 192.0
299.183838 7164.0
299.247253 160.0
299.305176 140.0
299.341583 40.0
299.386353 60.0
299.456818 148.0
299.489655 180.0
299.513763 176.0
299.551666 68.0
299.598511 140.0
299.634338 40.0
299.680176 172.0
299.716339 180.0
299.817169 140.0
299.861786 108.0
299.947601 208.0
299.992767 172.0
300.019623 196.0
300.076569 88.0
300.194611 3848.0
300.287354 156.0
300.297363 116.0
300.337585 120.0
300.389313 104.0
300.420349 152.0
300.468658 136.0
300.496277 76.0
300.530762 36.0
300.580322 124.0
300.672241 76.0
300.69812 176.0
300.764282 100.0
300.803406 144.0
300.867706 128.0
300.930573 148.0
300.979462 68.0
301.018494 120.0
301.052002 220.0
301.114166 64.0
301.19809 844.0
301.334564 104.0
301.388641 112.0
301.452698 140.0
301.511444 116.0
301.539093 56.0
301.580566 88.0
301.62207 36.0
301.666992 40.0
301.817535 96.0
301.85611 196.0
301.89801 212.0
301.936676 96.0
302.08197 68.0
302.141815 80.0
302.20166 1128.0
302.311462 244.0
302.393372 84.0
302.483368 112.0
302.540894 304.0
302.566437 116.0
302.614532 184.0
302.657227 180.0
302.70462 136.0
302.765869 128.0
302.860779 96.0
302.88974 156.0
302.916199 92.0
302.950043 140.0
302.999359 76.0
303.027496 164.0
303.052948 120.0
303.113678 52.0
303.194305 280.0
303.273102 104.0
303.382751 140.0
303.453369 88.0
303.486206 68.0
303.550446 72.0
303.640625 68.0
303.721741 208.0
303.746094 108.0
303.786285 120.0
303.873016 120.0
303.942413 236.0
304.01181 108.0
304.063873 100.0
304.091644 88.0
304.126343 188.0
304.171478 148.0
304.201721 144.0
304.225067 200.0
304.291748 124.0
304.303619 124.0
304.315704 132.0
304.32901 64.0
304.365875 188.0
304.435333 96.0
304.473816 148.0
304.50827 140.0
304.542999 96.0
304.612457 68.0
304.662231 148.0
304.714081 160.0
304.772278 108.0
304.7966 48.0
304.859161 124.0
304.984283 64.0
305.022491 136.0
305.046844 40.0
305.078125 200.0
305.157135 140.0
305.199799 108.0
305.234589 104.0
305.36673 124.0
305.439758 168.0
305.523529 104.0
305.565399 204.0
305.653931 144.0
305.796234 152.0
305.810547 128.0
305.872742 140.0
305.884949 60.0
305.894531 196.0
306.010498 124.0
306.073883 116.0
306.125092 132.0
306.186218 856.0
306.341339 140.0
306.424957 92.0
306.466766 164.0
306.512054 144.0
306.57724 152.0
306.654938 168.0
306.69342 100.0
306.948517 168.0
307.078186 100.0
307.184937 40.0
307.358582 160.0
307.46405 96.0
307.5112 124.0
307.607178 144.0
307.674896 140.0
307.806152 148.0
307.855042 92.0
307.928406 136.0
307.985535 168.0
308.018707 148.0
308.089081 92.0
308.148468 112.0
308.17627 188.0
308.256775 84.0
308.291718 132.0
308.532898 88.0
308.585785 160.0
308.702301 44.0
308.77066 180.0
308.832001 104.0
308.841522 188.0
308.93158 88.0
308.97403 96.0
309.054016 96.0
309.148499 128.0
309.279053 160.0
309.368988 168.0
309.400818 180.0
309.496399 120.0
309.670135 88.0
309.698151 172.0
309.75769 104.0
309.785736 76.0
309.832916 128.0
309.957397 80.0
310.013458 108.0
310.048523 104.0
310.109528 68.0
310.143127 100.0
310.197144 100.0
310.356995 176.0
310.434113 64.0
310.465698 64.0
310.546356 196.0
310.61087 264.0
310.637543 208.0
310.672638 160.0
310.718231 200.0
310.851562 140.0
310.893677 88.0
310.958557 136.0
311.069183 96.0
311.102264 176.0
311.142883 92.0
311.254181 196.0
311.332489 144.0
311.371124 128.0
311.472992 88.0
311.564331 124.0
311.708984 280.0
311.757568 120.0
311.845703 100.0
311.887207 292.0
311.955933 104.0
311.993073 152.0
312.115387 176.0
312.177032 100.0
312.225128 100.0
312.263672 96.0
312.330658 128.0
312.378723 96.0
312.464325 108.0
312.51886 152.0
312.551208 172.0
312.594513 132.0
312.636261 152.0
312.795105 84.0
312.893677 44.0
312.957947 212.0
312.988739 92.0
313.014618 128.0
313.133118 140.0
313.205139 108.0
313.256409 120.0
313.281067 116.0
313.370819 92.0
313.398315 176.0
313.478363 80.0
313.536163 92.0
313.569122 192.0
313.680695 52.0
313.760345 108.0
313.799133 232.0
313.869659 148.0
313.975433 72.0
314.077728 80.0
314.18866 256.0
314.271759 40.0
314.342316 88.0
314.367004 84.0
314.409363 144.0
314.437592 68.0
314.517273 180.0
314.657471 128.0
314.683533 148.0
314.75531 140.0
314.960144 44.0
314.998993 80.0
315.147369 92.0
315.225128 116.0
315.249847 124.0
315.405365 64.0
315.484406 112.0
315.511414 124.0
315.550293 56.0
315.613953 148.0
315.641296 76.0
315.753265 160.0
315.797943 132.0
315.872101 120.0
316.024231 80.0
316.103973 156.0
316.137451 68.0
316.19101 1248.0
316.268402 60.0
316.445404 100.0
316.486755 124.0
316.562256 36.0
316.615387 128.0
316.657867 88.0
316.700378 108.0
316.760468 108.0
316.78894 84.0
316.827911 60.0
316.947968 108.0
317.001038 148.0
317.090118 76.0
317.125549 108.0
317.200317 584.0
317.263794 84.0
317.441071 152.0
317.465912 192.0
317.522644 184.0
317.585022 164.0
317.636139 52.0
317.714172 192.0
317.824158 88.0
317.967804 144.0
318.005157 268.0
318.111237 68.0
318.198303 368.0
318.271393 136.0
318.38858 108.0
318.431213 44.0
318.470276 84.0
318.500977 124.0
318.562622 32.0
318.649658 80.0
318.674896 160.0
318.728973 132.0
318.775818 76.0
318.80423 140.0
318.839783 72.0
318.893066 188.0
318.930878 132.0
319.067261 116.0
319.120575 144.0
319.156342 140.0
319.221497 160.0
319.312622 144.0
319.393066 136.0
319.471405 124.0
319.597198 32.0
319.668365 156.0
319.700378 80.0
319.750214 128.0
319.800049 76.0
319.885468 252.0
319.91394 156.0
319.955017 104.0
319.986603 156.0
320.013641 44.0
320.042114 108.0
320.081146 112.0
320.160736 140.0
320.199524 212.0
320.224823 116.0
320.277161 152.0
320.419647 116.0
320.510254 120.0
320.588013 156.0
320.708282 184.0
320.745789 84.0
320.803253 100.0
320.861572 260.0
320.925751 164.0
320.985748 188.0
321.11319 156.0
321.212585 148.0
321.328766 160.0
321.364868 168.0
321.424347 132.0
321.457214 148.0
321.49292 148.0
321.529877 112.0
321.560699 140.0
321.624969 176.0
321.690369 200.0
321.742767 108.0
321.810211 72.0
321.82309 64.0
321.829834 104.0
321.907013 188.0
321.937408 120.0
321.964142 124.0
322.056091 96.0
322.153839 108.0
322.19632 124.0
322.267761 180.0
322.367828 136.0
322.404083 108.0
322.43573 140.0
322.528656 64.0
322.646606 88.0
322.822327 108.0
322.934265 180.0
323.007782 164.0
323.04715 160.0
323.107941 148.0
323.179504 32.0
323.228119 144.0
323.322632 180.0
323.370209 332.0
323.569641 52.0
323.612579 128.0
323.659149 116.0
323.727692 108.0
323.780884 112.0
323.877594 144.0
323.957733 192.0
324.028778 180.0
324.149963 132.0
324.196991 132.0
324.228699 60.0
324.274811 60.0
324.329071 92.0
324.4151 148.0
324.558838 88.0
324.655304 100.0
324.752167 80.0
324.784424 32.0
324.903687 116.0
324.974579 128.0
325.028381 92.0
325.128876 144.0
325.161163 96.0
325.218597 88.0
325.250885 104.0
325.326263 316.0
325.380127 156.0
325.408844 192.0
325.439178 180.0
325.47348 164.0
325.530914 48.0
325.657654 184.0
325.908081 176.0
325.94696 156.0
326.062622 120.0
326.134491 184.0
326.177612 116.0
326.202789 104.0
326.238739 156.0
326.294617 148.0
326.371765 88.0
326.576752 100.0
326.6091 32.0
326.722626 268.0
326.794006 120.0
326.832153 184.0
326.875336 164.0
326.979706 48.0
327.032166 152.0
327.125488 176.0
327.181854 156.0
327.226807 124.0
327.260468 140.0
327.332489 68.0
327.379303 120.0
327.426117 108.0
327.523376 76.0
327.577393 100.0
327.617035 144.0
327.768341 44.0
327.930511 140.0
328.038635 124.0
328.110748 128.0
328.164825 80.0
328.363403 184.0
328.428528 164.0
328.45694 52.0
328.559845 80.0
328.596771 232.0
328.723907 168.0
328.754669 228.0
328.782013 196.0
328.857452 144.0
328.958527 124.0
329.034332 100.0
329.099304 140.0
329.209137 176.0
329.294312 40.0
329.388214 116.0
329.608612 124.0
329.670044 104.0
329.698944 60.0
329.723541 216.0
329.787476 232.0
329.876038 128.0
329.99173 208.0
330.02066 128.0
330.092987 152.0
330.168915 124.0
330.197845 88.0
330.244873 92.0
330.276428 144.0
330.430267 192.0
330.465546 116.0
330.5065 120.0
330.542175 196.0
330.582794 144.0
330.691315 92.0
330.751434 108.0
330.802094 112.0
330.856415 64.0
330.885376 108.0
331.055542 124.0
331.088135 44.0
331.142456 164.0
331.167816 96.0
331.196777 84.0
331.222137 120.0
331.363434 156.0
331.388794 104.0
331.425018 104.0
331.455139 220.0
331.530121 188.0
331.605316 104.0
331.682343 56.0
331.713684 160.0
331.780212 104.0
331.856354 200.0
332.001373 148.0
332.050476 124.0
332.125671 88.0
332.193604 92.0
332.385895 100.0
332.436707 116.0
332.462097 292.0
332.492279 224.0
332.520172 160.0
332.574615 92.0
332.636322 148.0
332.748871 140.0
332.857666 128.0
332.936401 124.0
333.034271 168.0
333.054016 124.0
333.097473 76.0
333.144714 176.0
333.191742 144.0
333.290039 76.0
333.333649 128.0
333.366333 112.0
333.395416 140.0
333.525909 128.0
333.606232 68.0
333.671661 80.0
333.708679 132.0
333.752991 208.0
333.900757 40.0
333.962585 100.0
333.9953 100.0
334.053497 72.0
334.078979 188.0
334.180847 92.0
334.213593 88.0
334.257263 88.0
334.308197 188.0
334.351868 152.0
334.375671 148.0
334.443909 124.0
334.493347 188.0
334.555695 108.0
334.624878 148.0
334.688629 220.0
334.785095 176.0
334.854279 100.0
334.879761 140.0
334.934418 124.0
334.978638 116.0
335.054626 120.0
335.080139 112.0
335.172607 176.0
335.273254 56.0
335.331543 184.0
335.360718 60.0
335.470276 136.0
335.610382 104.0
335.750824 132.0
335.801147 140.0
335.856598 72.0
335.891174 136.0
335.947784 96.0
336.039001 176.0
336.086426 188.0
336.190674 100.0
336.257935 92.0
336.3508 108.0
336.509796 108.0
336.616821 116.0
336.652222 112.0
336.687134 124.0
336.717957 136.0
336.750824 96.0
336.809265 240.0
336.873322 104.0
336.956909 144.0
336.988251 148.0
337.209625 200.0
337.313507 48.0
337.459747 60.0
337.507263 48.0
337.558472 112.0
337.633118 144.0
337.693268 88.0
337.734009 196.0
337.759613 148.0
337.810822 56.0
337.964478 52.0
338.028839 68.0
338.066956 100.0
338.107208 112.0
338.187714 116.0
338.220673 88.0
338.358643 92.0
338.403687 128.0
338.436646 116.0
338.517334 120.0
338.568481 36.0
338.616425 204.0
338.768402 192.0
338.82547 148.0
338.915985 344.0
339.037384 68.0
339.08136 168.0
339.13269 144.0
339.194336 132.0
339.261902 192.0
339.352631 120.0
339.49054 152.0
339.517639 144.0
339.570831 168.0
339.643066 144.0
339.762817 160.0
339.805389 108.0
339.847778 128.0
339.895905 152.0
339.963196 144.0
340.023926 72.0
340.064301 180.0
340.115692 124.0
340.207092 124.0
340.288208 100.0
340.332275 176.0
340.398376 156.0
340.541595 116.0
340.63916 156.0
340.806091 120.0
340.864868 172.0
340.953064 184.0
340.9935 152.0
341.111115 160.0
341.208252 104.0
341.346436 108.0
341.425049 184.0
341.508636 268.0
341.57077 72.0
341.640198 124.0
341.748352 104.0
341.809906 132.0
341.905579 176.0
341.93869 40.0
341.98288 100.0
342.078583 56.0
342.141144 96.0
342.179504 152.0
342.231049 132.0
342.284729 164.0
342.340515 108.0
342.381622 92.0
342.549927 68.0
342.623596 100.0
342.671478 132.0
342.790405 148.0
342.840973 96.0
342.874146 160.0
342.945892 188.0
343.034363 128.0
343.087952 128.0
343.147278 176.0
343.191162 188.0
343.229889 104.0
343.334991 140.0
343.368164 104.0
343.401978 148.0
343.453003 232.0
343.631042 156.0
343.659576 116.0
343.740753 44.0
343.925293 96.0
344.030945 120.0
344.143097 72.0
344.183716 112.0
344.235413 80.0
344.383148 88.0
344.434509 136.0
344.446899 184.0
344.504059 148.0
344.575226 124.0
344.66391 116.0
344.711945 128.0
344.752594 100.0
344.778442 128.0
344.819092 72.0
344.852356 104.0
344.918915 40.0
344.959564 72.0
345.040894 140.0
345.122223 172.0
345.192474 116.0
345.229462 132.0
345.329315 196.0
345.470367 92.0
345.677063 172.0
345.758484 104.0
345.828796 120.0
345.862122 128.0
346.024994 128.0
346.088257 96.0
346.176819 88.0
346.39325 156.0
346.447174 96.0
346.679199 176.0
346.784393 68.0
346.927002 48.0
347.054993 136.0
347.108948 136.0
347.134735 120.0
347.173645 84.0
347.242889 144.0
347.254333 96.0
347.411041 104.0
347.459808 112.0
347.50296 160.0
347.566864 104.0
347.659637 52.0
347.752411 172.0
347.811798 136.0
347.878632 152.0
348.047729 260.0
348.192657 188.0
348.272217 56.0
348.385895 160.0
348.559875 140.0
348.614014 116.0
348.647461 120.0
348.714355 100.0
348.751526 120.0
348.848907 180.0
348.933685 72.0
349.034058 156.0
349.074982 136.0
349.141907 184.0
349.208862 104.0
349.299194 180.0
349.326233 200.0
349.420868 188.0
349.480408 104.0
349.536224 124.0
349.721863 104.0
349.755798 172.0
349.788361 80.0
349.945648 112.0
349.97171 48.0
350.098328 120.0
350.150452 124.0
350.195312 200.0
350.26709 116.0
350.388855 160.0
350.541626 92.0
350.649811 140.0
350.690704 68.0
350.780151 96.0
350.831268 196.0
350.915833 132.0
350.954407 140.0
351.107117 168.0
351.206665 172.0
351.298279 140.0
351.406677 28.0
351.470093 68.0
351.593262 100.0
351.7612 60.0
351.868073 128.0
351.992676 28.0
352.018829 216.0
352.058441 196.0
352.097229 80.0
352.137817 104.0
352.20929 220.0
352.237244 160.0
352.342987 252.0
352.399811 92.0
352.45816 168.0
352.503021 160.0
352.584381 164.0
352.641052 136.0
352.653137 56.0
352.713715 160.0
352.848419 140.0
352.953003 44.0
353.003693 128.0
353.068909 96.0
353.162415 164.0
353.218536 104.0
353.24472 116.0
353.345703 116.0
353.394348 128.0
353.491638 84.0
353.540283 108.0
353.672791 136.0
353.734924 168.0
353.800476 132.0
353.851654 64.0
353.907135 276.0
353.963104 344.0
354.068146 200.0
354.094971 176.0
354.150543 100.0
354.187988 128.0
354.225464 144.0
354.289124 148.0
354.326447 136.0
354.38559 124.0
354.461487 216.0
354.487701 152.0
354.567749 180.0
354.611389 108.0
354.671356 120.0
354.798798 76.0
354.855042 96.0
355.02002 96.0
355.125031 148.0
355.310913 116.0
355.395935 112.0
355.412842 112.0
355.41922 192.0
355.49646 116.0
355.57901 124.0
355.604828 96.0
355.700195 144.0
356.04538 160.0
356.157227 96.0
356.221069 80.0
356.291199 96.0
356.367584 144.0
356.437134 300.0
356.51413 60.0
356.540436 164.0
356.603821 88.0
356.848663 104.0
356.912598 116.0
356.980286 116.0
357.036682 132.0
357.082581 140.0
357.337616 56.0
357.37146 72.0
357.431183 152.0
357.461792 112.0
357.52005 132.0
357.637238 116.0
357.672546 228.0
357.761566 180.0
357.784393 112.0
357.932312 176.0
357.962433 168.0
358.15451 136.0
358.203461 124.0
358.282593 84.0
358.312714 88.0
358.346619 136.0
358.406921 144.0
358.446594 112.0
358.473999 144.0
358.561401 112.0
358.712189 96.0
358.901917 172.0
358.980713 124.0
359.09848 132.0
359.167267 144.0
359.213715 88.0
359.266083 152.0
359.334412 96.0
359.414551 188.0
359.594788 144.0
359.625 120.0
359.661072 136.0
359.77597 104.0
359.87793 36.0
359.911896 72.0
359.942108 228.0
359.973755 136.0
360.045807 152.0
360.129059 236.0
360.191376 84.0
360.243713 112.0
360.273254 296.0
360.333435 144.0
360.368927 120.0
360.406708 112.0
360.459442 176.0
360.548553 104.0
360.591858 152.0
360.629669 184.0
360.678802 60.0
360.744415 100.0
360.833801 124.0
360.864044 216.0
360.973694 100.0
361.007721 108.0
361.09848 200.0
361.124969 216.0
361.169037 148.0
361.202179 148.0
361.25293 168.0
361.398926 124.0
361.628174 144.0
361.744263 220.0
361.806091 140.0
361.840149 28.0
361.896942 156.0
361.984039 72.0
362.103729 128.0
362.158234 64.0
362.201843 196.0
362.260529 132.0
362.305969 228.0
362.336273 196.0
362.393127 120.0
362.499603 152.0
362.556061 124.0
362.58194 116.0
362.753143 72.0
362.948486 144.0
363.007172 152.0
363.067841 68.0
363.143707 108.0
363.195404 252.0
363.223358 136.0
363.259521 180.0
363.485138 72.0
363.644501 152.0
363.682465 156.0
363.743195 72.0
363.838104 132.0
363.870483 144.0
363.898834 76.0
363.935364 176.0
363.963379 116.0
364.012756 96.0
364.100098 92.0
364.153259 172.0
364.186737 128.0
364.225433 112.0
364.335602 112.0
364.388855 252.0
364.487579 108.0
364.719391 48.0
364.840179 88.0
364.846619 68.0
364.861694 120.0
365.031158 144.0
365.130005 120.0
365.174072 164.0
365.339233 148.0
365.444519 212.0
365.548492 252.0
365.590332 176.0
365.64743 112.0
365.696899 80.0
365.729187 144.0
365.765411 32.0
365.830139 144.0
366.066193 152.0
366.101135 320.0
366.222321 72.0
366.256622 80.0
366.298523 132.0
366.325165 40.0
366.355652 136.0
366.408997 96.0
366.435669 104.0
366.485199 132.0
366.546143 136.0
366.622375 152.0
366.837921 128.0
366.908234 96.0
366.938721 48.0
366.968628 140.0
367.045502 244.0
367.083618 72.0
367.148468 180.0
367.190399 72.0
367.234436 88.0
367.293396 132.0
367.320099 144.0
367.350616 144.0
367.384949 124.0
367.411652 244.0
367.510834 192.0
367.541351 136.0
367.62149 136.0
367.68045 124.0
367.732178 120.0
367.858124 108.0
368.178864 124.0
368.330536 156.0
368.635254 148.0
368.678345 96.0
368.723419 184.0
368.755737 168.0
368.824554 112.0
368.874237 52.0
368.921448 240.0
368.967926 108.0
368.992737 144.0
369.053925 144.0
369.118927 268.0
369.208527 92.0
369.246368 156.0
369.344269 156.0
369.349457 144.0
369.443604 152.0
369.519073 188.0
369.552094 144.0
369.830505 68.0
369.918549 228.0
370.039307 124.0
370.129089 220.0
370.240143 140.0
370.270782 108.0
370.424011 100.0
370.579071 84.0
370.680695 140.0
370.74469 132.0
370.7995 148.0
370.856995 104.0
370.958832 204.0
370.99881 164.0
371.102325 184.0
371.12915 28.0
371.301727 160.0
371.347382 168.0
371.397614 152.0
371.592072 364.0
371.728668 152.0
371.842682 104.0
371.930939 84.0
372.017548 128.0
372.047241 164.0
372.122314 108.0
372.149536 184.0
372.179016 104.0
372.191193 152.0
372.216797 160.0
372.281006 112.0
372.31488 132.0
372.403229 120.0
372.508606 156.0
372.560028 112.0
372.653351 144.0
372.745422 160.0
372.782288 156.0
372.91806 56.0
373.021851 140.0
373.067993 36.0
373.125641 92.0
373.160248 140.0
373.264069 116.0
373.317902 124.0
373.38327 132.0
373.46405 176.0
373.525574 116.0
373.62561 140.0
373.70639 104.0
373.930267 112.0
373.960388 88.0
374.045044 148.0
374.087402 76.0
374.137451 176.0
374.211151 1192.0
374.286682 176.0
374.333801 172.0
374.380005 168.0
374.454773 184.0
374.645782 76.0
374.689484 140.0
374.718994 140.0
374.757507 136.0
374.874939 144.0
374.895081 212.0
374.927856 156.0
374.969452 112.0
375.034973 164.0
375.217224 624.0
375.285553 164.0
375.373871 124.0
375.478363 92.0
375.532349 144.0
375.582489 200.0
375.607574 192.0
375.699829 112.0
375.732941 104.0
375.805664 184.0
375.812195 148.0
375.828339 168.0
375.933563 104.0
375.973389 276.0
376.107239 116.0
376.219727 252.0
376.269379 124.0
376.354309 228.0
376.531952 84.0
376.70578 192.0
376.78302 100.0
376.928406 140.0
376.976227 124.0
377.089752 148.0
377.142395 56.0
377.245728 104.0
377.285431 136.0
377.38208 156.0
377.411835 52.0
377.455536 100.0
377.511902 176.0
377.575745 252.0
377.618286 104.0
377.780426 172.0
377.826843 144.0
377.888763 56.0
377.989349 164.0
378.020325 64.0
378.055145 80.0
378.216461 228.0
378.360291 100.0
378.411255 84.0
378.461578 120.0
378.502747 140.0
378.532715 140.0
378.597107 164.0
378.643585 148.0
378.804169 96.0
378.999969 160.0
379.03186 208.0
379.081329 48.0
379.131714 132.0
379.16272 120.0
379.230316 1456.0
379.29837 236.0
379.430176 148.0
379.585266 156.0
379.658966 180.0
379.744263 240.0
379.769623 120.0
379.814087 136.0
379.916962 208.0
379.945068 172.0
379.952698 132.0
380.024414 132.0
380.058502 108.0
380.101166 128.0
380.151611 108.0
380.226532 240.0
380.268036 184.0
380.330139 160.0
380.425842 148.0
380.46991 152.0
380.500946 144.0
380.525635 112.0
380.581726 184.0
380.659882 120.0
380.716949 216.0
380.784424 88.0
380.838806 128.0
380.885406 108.0
380.948456 68.0
381.114624 60.0
381.161255 132.0
381.215637 56.0
381.27005 108.0
381.320557 144.0
381.413635 72.0
381.453827 156.0
381.481781 84.0
381.522705 28.0
381.592682 144.0
381.690948 308.0
381.731964 112.0
381.803436 100.0
381.860992 188.0
381.899872 160.0
382.001007 140.0
382.08136 172.0
382.188141 124.0
382.246338 144.0
382.278809 116.0
382.30838 120.0
382.362885 112.0
382.446472 184.0
382.555389 112.0
382.619904 112.0
382.654816 116.0
382.707458 92.0
382.763824 48.0
382.821838 76.0
382.865082 172.0
382.91571 164.0
382.953644 124.0
383.001404 168.0
383.293488 140.0
383.361115 108.0
383.390594 156.0
383.441681 36.0
383.63266 156.0
383.670807 332.0
383.812012 148.0
383.875336 84.0
383.913391 92.0
384.022583 164.0
384.061584 76.0
384.102509 188.0
384.178619 188.0
384.252167 136.0
384.283844 132.0
384.312378 156.0
384.354187 204.0
384.404022 124.0
384.436127 144.0
384.46344 136.0
384.701538 40.0
384.927979 152.0
384.959229 144.0
384.986572 236.0
385.013885 96.0
385.074463 204.0
385.111542 92.0
385.173065 128.0
385.299042 204.0
385.326385 48.0
385.420166 124.0
385.470947 32.0
385.505676 108.0
385.596008 104.0
385.635101 108.0
385.689819 84.0
385.740631 120.0
385.803162 132.0
385.852295 128.0
385.920471 168.0
385.970093 208.0
386.026031 160.0
386.072968 144.0
386.141602 124.0
386.214661 140.0
386.27243 72.0
386.323273 100.0
386.383667 152.0
386.413269 100.0
386.448486 160.0
386.507172 176.0
386.558228 88.0
386.635651 144.0
386.70285 108.0
386.892151 124.0
386.933777 68.0
386.985352 120.0
387.055176 68.0
387.111786 140.0
387.192749 152.0
387.223541 92.0
387.266632 56.0
387.333221 80.0
387.368469 48.0
387.405426 136.0
387.639923 128.0
387.795563 156.0
387.846527 116.0
387.90274 140.0
387.971954 76.0
388.038605 140.0
388.171936 36.0
388.225708 828.0
388.293488 140.0
388.379791 132.0
388.454315 224.0
388.497467 140.0
388.524933 100.0
388.556305 160.0
388.6073 104.0
388.689697 108.0
388.779724 120.0
388.878082 60.0
388.909027 204.0
389.054718 176.0
389.101288 200.0
389.234009 312.0
389.309937 96.0
389.35022 108.0
389.443451 84.0
389.523712 84.0
389.6073 96.0
389.621796 160.0
389.655579 116.0
389.694885 48.0
389.753815 292.0
389.790619 216.0
389.821625 160.0
389.985687 144.0
390.060364 112.0
390.233246 252.0
390.323761 216.0
390.398468 128.0
390.465332 92.0
390.56366 136.0
390.602997 44.0
390.710083 144.0
390.842987 100.0
390.877197 224.0
390.937408 196.0
391.036163 172.0
391.075165 88.0
391.151703 136.0
391.185394 104.0
391.235046 308.0
391.331055 100.0
391.377777 152.0
391.429352 128.0
391.598816 76.0
391.72049 148.0
391.735718 132.0
391.799805 256.0
391.862732 36.0
391.921844 52.0
392.027466 164.0
392.0802 160.0
392.123383 84.0
392.220459 624.0
392.389282 168.0
392.422424 140.0
392.473663 164.0
392.544647 148.0
392.584076 100.0
392.61615 148.0
392.65506 52.0
392.733948 96.0
392.76944 96.0
392.797058 168.0
392.868073 88.0
392.915405 108.0
393.132416 132.0
393.174438 160.0
393.202698 144.0
393.282379 220.0
393.404755 136.0
393.435822 124.0
393.44278 108.0
393.49649 120.0
393.524506 168.0
393.693848 184.0
393.728516 104.0
393.769653 120.0
393.854919 144.0
393.969482 192.0
394.014587 176.0
394.092621 160.0
394.190735 136.0
394.227325 200.0
394.285583 92.0
394.352753 100.0
394.431824 88.0
394.479248 140.0
394.510376 164.0
394.58078 140.0
394.629486 208.0
394.669006 152.0
394.795563 56.0
394.823242 152.0
394.871521 188.0
394.993195 148.0
395.143707 172.0
395.250458 104.0
395.393616 164.0
395.428528 116.0
395.486572 136.0
395.519562 48.0
395.586853 84.0
395.697723 104.0
395.72937 136.0
395.772949 104.0
395.828369 80.0
395.892426 136.0
395.931335 96.0
395.99469 88.0
396.076813 164.0
396.129364 80.0
396.161072 116.0
396.196716 128.0
396.264069 184.0
396.30368 132.0
396.343323 32.0
396.430481 64.0
396.525482 148.0
396.620728 44.0
396.664337 160.0
396.785919 160.0
396.890289 68.0
396.981506 152.0
397.052979 176.0
397.113739 112.0
397.14502 112.0
397.207581 156.0
397.28598 120.0
397.334503 84.0
397.485291 132.0
397.520996 144.0
397.640045 288.0
397.69165 176.0
397.727386 76.0
397.787415 220.0
397.898071 104.0
397.941742 152.0
398.001312 88.0
398.056885 108.0
398.091095 196.0
398.130432 96.0
398.162781 228.0
398.197815 140.0
398.249939 144.0
398.354767 136.0
398.386536 28.0
398.441528 76.0
398.497772 40.0
398.533539 176.0
398.611633 108.0
398.728271 120.0
398.776947 128.0
398.855438 72.0
398.975616 88.0
399.105438 104.0
399.165558 164.0
399.280884 68.0
399.372345 112.0
399.408142 176.0
399.463837 204.0
399.587158 72.0
399.673889 140.0
399.847504 160.0
399.893555 184.0
399.925415 232.0
399.96521 160.0
400.032867 124.0
400.060303 108.0
400.136383 176.0
400.172211 48.0
400.205963 84.0
400.267761 100.0
400.361237 100.0
400.504059 108.0
400.518219 124.0
400.625977 192.0
400.719849 120.0
400.843079 112.0
400.901154 100.0
400.955688 176.0
401.132324 124.0
401.176178 112.0
401.212036 196.0
401.291779 80.0
401.350128 132.0
401.390381 148.0
401.416077 156.0
401.444885 196.0
401.545197 152.0
401.573212 60.0
401.742432 48.0
401.802277 120.0
401.828217 96.0
401.885742 208.0
401.924194 196.0
401.989807 76.0
402.101562 116.0
402.169617 220.0
402.229279 120.0
402.265198 152.0
402.372986 100.0
402.454132 184.0
402.567719 120.0
402.624542 140.0
402.660492 108.0
402.704407 116.0
402.740356 84.0
402.780304 104.0
402.888 104.0
402.902863 100.0
403.028168 88.0
403.079956 136.0
403.199829 100.0
403.241669 112.0
403.321381 244.0
403.38385 104.0
403.443665 108.0
403.503632 92.0
403.584686 144.0
403.637909 136.0
403.751526 96.0
403.783539 112.0
403.887512 28.0
403.959503 184.0
403.995789 164.0
404.088867 108.0
404.249695 68.0
404.27771 76.0
404.375641 116.0
404.411682 64.0
404.44516 152.0
404.522736 176.0
404.599823 76.0
404.663879 92.0
404.743958 136.0
404.79599 80.0
404.840057 108.0
404.912964 136.0
404.972198 136.0
405.045898 152.0
405.140442 136.0
405.200531 60.0
405.228577 112.0
405.346802 148.0
405.412903 100.0
405.457001 208.0
405.561188 76.0
405.609283 116.0
405.717773 140.0
405.781677 132.0
405.986176 144.0
406.026276 244.0
406.0784 96.0
406.112854 108.0
406.15863 100.0
406.253693 476.0
406.319092 164.0
406.355194 88.0
406.395325 92.0
406.423401 68.0
406.48111 180.0
406.594208 164.0
406.694672 128.0
406.766327 160.0
406.856873 164.0
406.893005 128.0
406.947906 112.0
406.993378 68.0
407.085724 116.0
407.113831 128.0
407.178101 168.0
407.256042 352.0
407.30661 256.0
407.344299 348.0
407.389557 124.0
407.583832 84.0
407.645691 112.0
407.657043 144.0
407.688293 84.0
407.756622 120.0
407.78476 108.0
407.851135 156.0
407.925446 80.0
408.129242 132.0
408.194794 100.0
408.245117 304.0
408.375793 76.0
408.421967 112.0
408.451996 112.0
408.592987 152.0
408.766022 184.0
408.800171 140.0
408.858582 140.0
408.898804 356.0
408.951141 68.0
409.031647 80.0
409.063843 80.0
409.176544 100.0
409.262451 108.0
409.342804 140.0
409.412628 108.0
409.458435 212.0
409.538971 116.0
409.788727 404.0
409.861267 192.0
409.933807 84.0
410.014404 104.0
410.107086 164.0
410.182922 128.0
410.199646 104.0
410.352997 32.0
410.476013 124.0
410.524963 204.0
410.67157 88.0
410.707855 156.0
410.877289 156.0
410.92569 188.0
410.968628 132.0
411.074432 144.0
411.119385 132.0
411.276794 40.0
411.333282 132.0
411.393005 192.0
411.495697 104.0
411.660309 136.0
411.692627 196.0
411.733002 208.0
411.77298 116.0
411.862244 172.0
411.918793 180.0
412.011475 128.0
412.034271 288.0
412.235016 180.0
412.290527 104.0
412.330933 148.0
412.423889 100.0
412.516876 132.0
412.634094 40.0
412.674133 40.0
412.727081 104.0
412.75943 248.0
412.881866 136.0
412.991608 88.0
413.026367 96.0
413.155792 40.0
413.210022 120.0
413.238403 124.0
413.269073 124.0
413.335846 120.0
413.378326 152.0
413.45929 116.0
413.657593 128.0
413.722382 84.0
413.754761 76.0
413.97934 180.0
414.046295 64.0
414.131348 152.0
414.181946 180.0
414.216156 148.0
414.301483 152.0
414.34198 168.0
414.423035 124.0
414.495941 176.0
414.567627 76.0
414.691864 304.0
414.847015 184.0
414.937744 104.0
414.966125 104.0
415.05127 52.0
415.111572 124.0
415.148132 68.0
415.340973 176.0
415.391937 124.0
415.590729 128.0
415.704346 256.0
415.773346 76.0
415.801758 80.0
415.931641 176.0
415.971283 156.0
416.024506 200.0
416.065582 188.0
416.153381 212.0
416.203644 196.0
416.277863 144.0
416.382294 52.0
416.503113 124.0
416.585388 136.0
416.630096 104.0
416.686951 172.0
416.731659 100.0
416.760101 80.0
416.864563 152.0
416.942963 160.0
417.052673 80.0
417.101471 108.0
417.142334 76.0
417.294556 76.0
417.37384 44.0
417.45517 112.0
417.503967 176.0
417.536499 152.0
417.61377 188.0
417.719543 100.0
417.846497 68.0
418.050262 140.0
418.121765 112.0
418.211884 112.0
418.248322 80.0
418.374725 172.0
418.460358 116.0
418.488708 172.0
418.539429 128.0
418.590515 44.0
418.636841 116.0
418.698395 128.0
418.747894 116.0
418.802277 96.0
418.841797 188.0
418.906158 112.0
418.948914 176.0
418.977448 40.0
419.051849 176.0
419.102081 168.0
419.173004 84.0
419.2883 192.0
419.460785 112.0
419.51944 96.0
419.547974 88.0
419.653992 148.0
419.931274 56.0
419.984283 88.0
420.046539 252.0
420.079742 292.0
420.137756 116.0
420.192078 188.0
420.266571 2392.0
420.349823 128.0
420.424927 156.0
420.466583 96.0
420.518799 260.0
420.559601 52.0
420.630829 116.0
420.657196 136.0
420.828003 128.0
420.920532 128.0
420.950836 292.0
421.016876 76.0
421.070618 104.0
421.124481 196.0
421.179443 164.0
421.270905 1100.0
421.384491 168.0
421.44577 136.0
421.485352 176.0
421.515228 124.0
421.568359 132.0
421.658264 104.0
421.688171 76.0
421.793152 116.0
421.891266 88.0
421.932007 116.0
421.997559 108.0
422.030273 168.0
422.151245 184.0
422.227325 208.0
422.282532 460.0
422.37149 136.0
422.453613 132.0
422.488312 76.0
422.623322 140.0
422.684723 92.0
422.746094 56.0
422.815674 96.0
422.897522 160.0
422.933685 116.0
422.960602 156.0
423.164124 128.0
423.226868 216.0
423.290649 480.0
423.367828 128.0
423.437408 196.0
423.4953 128.0
423.525055 120.0
423.626251 164.0
423.675751 148.0
423.827118 72.0
423.875305 148.0
423.917267 176.0
423.993225 308.0
424.035797 100.0
424.086761 100.0
424.163177 56.0
424.244629 184.0
424.264832 244.0
424.302551 68.0
424.486542 244.0
424.542572 172.0
424.5896 80.0
424.618286 100.0
424.685913 172.0
424.717407 128.0
424.749542 48.0
424.80957 176.0
424.938263 88.0
424.99765 84.0
425.032623 132.0
425.06546 96.0
425.156372 144.0
425.249451 120.0
425.344513 84.0
425.420898 244.0
425.512848 176.0
425.644226 136.0
425.72226 132.0
425.786346 204.0
425.82901 96.0
425.870087 176.0
425.948151 200.0
426.001526 108.0
426.059052 312.0
426.100128 80.0
426.260376 80.0
426.304504 152.0
426.34256 168.0
426.408325 228.0
426.441193 160.0
426.531616 164.0
426.560394 136.0
426.679626 128.0
426.807068 164.0
426.872864 120.0
426.909882 104.0
427.016815 80.0
427.057922 160.0
427.115509 100.0
427.255371 48.0
427.345886 208.0
427.407593 112.0
427.436401 116.0
427.476471 60.0
427.503448 144.0
427.555756 104.0
427.62384 236.0
427.690155 196.0
427.843872 168.0
427.880493 76.0
427.903839 156.0
428.016785 132.0
428.156799 212.0
428.193054 124.0
428.320404 184.0
428.369568 184.0
428.467651 100.0
428.513794 108.0
428.576416 120.0
428.602844 144.0
428.692963 140.0
428.820099 156.0
428.881195 112.0
428.993225 56.0
429.03653 120.0
429.141663 172.0
429.224121 88.0
429.309113 52.0
429.455048 124.0
429.533417 56.0
429.595306 84.0
429.636566 96.0
429.706696 112.0
429.747955 132.0
429.801666 124.0
429.855225 100.0
429.98111 168.0
430.053101 148.0
430.127625 144.0
430.241302 96.0
430.350555 160.0
430.466156 108.0
430.513794 112.0
430.542755 132.0
430.590057 116.0
430.623108 132.0
430.693298 124.0
430.738739 136.0
430.775909 112.0
430.864655 168.0
430.924652 180.0
431.002747 164.0
431.044464 204.0
431.197388 120.0
431.224609 120.0
431.290283 108.0
431.499146 216.0
431.569427 128.0
431.608582 144.0
431.66037 188.0
431.73996 100.0
431.815369 84.0
431.923553 76.0
432.104645 176.0
432.257996 188.0
432.338806 120.0
432.396759 56.0
432.43399 32.0
432.535156 100.0
432.587158 108.0
432.741211 92.0
432.789795 164.0
432.867188 192.0
432.979797 144.0
433.026978 72.0
433.037262 124.0
433.051819 160.0
433.113037 80.0
433.260162 144.0
433.431915 148.0
433.527344 132.0
433.572937 88.0
433.702393 204.0
433.767731 116.0
433.846497 116.0
433.89209 176.0
434.0289 68.0
434.240417 124.0
434.364838 156.0
434.39801 164.0
434.439514 96.0
434.50589 28.0
434.605469 48.0
434.651093 164.0
434.75705 272.0
434.796356 108.0
434.837097 132.0
434.904266 120.0
434.949921 100.0
434.996002 112.0
435.05368 152.0
435.182373 192.0
435.226318 152.0
435.312042 88.0
435.393982 184.0
435.431549 92.0
435.493835 180.0
435.531219 212.0
435.610138 112.0
435.655853 164.0
435.738922 104.0
435.772156 96.0
435.89267 128.0
436.029938 108.0
436.069397 136.0
436.137848 52.0
436.275024 116.0
436.34613 80.0
436.449219 112.0
436.695007 88.0
436.769867 152.0
436.823944 144.0
436.86972 88.0
436.99704 104.0
437.188538 172.0
437.230499 136.0
437.352417 156.0
437.427338 144.0
437.456482 112.0
437.534515 128.0
437.56604 136.0
437.637848 140.0
437.710449 132.0
437.787598 180.0
437.818695 120.0
437.864502 196.0
437.897827 96.0
437.964478 116.0
438.001953 84.0
438.101929 148.0
438.186554 208.0
438.238434 868.0
438.278564 644.0
438.36026 72.0
438.406097 212.0
438.463379 156.0
438.522797 124.0
438.60614 132.0
438.66629 132.0
438.718689 132.0
438.803772 176.0
438.889648 108.0
439.006409 84.0
439.082825 196.0
439.141113 156.0
439.177399 96.0
439.265381 380.0
439.341949 148.0
439.379974 120.0
439.427673 116.0
439.469391 116.0
439.58902 88.0
439.637634 104.0
439.703094 220.0
439.731018 184.0
439.907623 96.0
439.971985 132.0
440.137238 92.0
440.170624 100.0
440.244263 120.0
440.273529 212.0
440.302429 100.0
440.386536 144.0
440.402313 84.0
440.421387 100.0
440.435822 88.0
440.452087 144.0
440.524994 76.0
440.550171 124.0
440.588318 48.0
440.65332 92.0
440.745056 284.0
440.813934 104.0
440.859894 80.0
441.064697 188.0
441.116089 216.0
441.216492 180.0
441.247345 164.0
441.263885 148.0
441.281921 112.0
441.311768 160.0
441.372314 96.0
441.436768 116.0
441.538971 120.0
441.679352 144.0
441.865692 164.0
441.942902 140.0
442.05722 224.0
442.163025 164.0
442.221069 128.0
442.265137 128.0
442.507935 164.0
442.549805 48.0
442.65448 88.0
442.721497 76.0
442.796875 108.0
442.834564 88.0
442.868073 168.0
442.951843 152.0
442.993744 224.0
443.032898 160.0
443.063812 128.0
443.112 76.0
443.148743 132.0
443.328918 124.0
443.446259 148.0
443.538483 204.0
443.670441 164.0
443.722931 44.0
443.75647 104.0
443.841522 240.0
443.903229 104.0
443.954254 120.0
444.09613 216.0
444.146271 84.0
444.194092 124.0
444.394409 156.0
444.477905 68.0
444.533905 116.0
444.60379 128.0
444.660095 172.0
444.717102 104.0
444.782104 132.0
444.811157 108.0
444.859833 144.0
444.985657 136.0
445.016418 188.0
445.070343 56.0
445.142151 132.0
445.178925 128.0
445.279694 56.0
445.384705 164.0
445.414124 44.0
445.460327 128.0
445.489716 212.0
445.540131 120.0
445.57373 176.0
445.682983 44.0
445.727814 96.0
445.775421 184.0
445.83316 212.0
445.903839 144.0
445.970886 280.0
446.019196 128.0
446.064056 172.0
446.153717 52.0
446.187347 204.0
446.236023 296.0
446.288239 92.0
446.357117 84.0
446.391052 232.0
446.422791 120.0
446.523743 32.0
446.599426 88.0
446.67514 128.0
446.746674 52.0
446.776093 92.0
446.815735 124.0
446.872559 156.0
446.944397 100.0
446.986481 92.0
447.087463 100.0
447.247406 92.0
447.28949 140.0
447.373688 84.0
447.461914 152.0
447.504181 152.0
447.533661 144.0
447.563141 132.0
447.638947 128.0
447.71051 128.0
447.925568 148.0
447.988525 128.0
448.042572 140.0
448.110687 144.0
448.173889 164.0
448.258148 80.0
448.337708 164.0
448.393005 92.0
448.485748 132.0
448.51947 96.0
448.654358 144.0
448.69516 176.0
448.751312 100.0
448.797455 136.0
448.852509 184.0
448.941071 112.0
449.074036 128.0
449.109772 124.0
449.181458 56.0
449.228668 148.0
449.341766 156.0
449.383972 52.0
449.457489 104.0
449.523224 120.0
449.552765 116.0
449.619049 124.0
449.719116 160.0
449.928406 44.0
450.004395 116.0
450.09729 88.0
450.171417 260.0
450.240845 800.0
450.366821 144.0
450.426697 144.0
450.464081 160.0
450.519257 132.0
450.551331 176.0
450.633698 76.0
450.709747 132.0
450.750946 112.0
450.983398 168.0
451.04364 148.0
451.161987 116.0
451.191589 228.0
451.243927 1464.0
451.326233 80.0
451.398743 112.0
451.44104 160.0
451.473633 192.0
451.579193 84.0
451.674927 120.0
451.733673 128.0
451.78363 136.0
451.817474 48.0
451.919037 60.0
451.97403 52.0
452.033264 100.0
452.079834 48.0
452.145172 184.0
452.252289 516.0
452.288025 316.0
452.329529 120.0
452.359161 32.0
452.435364 108.0
452.464996 128.0
452.492645 120.0
452.536743 124.0
452.593323 168.0
452.647278 144.0
452.695801 220.0
452.872833 116.0
452.900208 160.0
452.98407 132.0
453.057892 136.0
453.104492 120.0
453.149841 148.0
453.156647 104.0
453.174072 180.0
453.210785 176.0
453.258392 224.0
453.334473 72.0
453.403168 172.0
453.442596 132.0
453.538361 156.0
453.625214 156.0
453.689331 88.0
453.765656 52.0
453.799561 120.0
453.926758 328.0
453.962585 80.0
454.002808 120.0
454.066711 132.0
454.15152 100.0
454.185455 168.0
454.268829 668.0
454.379028 172.0
454.418793 88.0
454.540497 88.0
454.570129 180.0
454.609741 92.0
454.664886 52.0
454.760895 260.0
454.82193 160.0
454.887329 148.0
454.939789 168.0
454.956573 128.0
455.205933 188.0
455.244995 140.0
455.275177 352.0
455.33429 160.0
455.420624 148.0
455.521576 148.0
455.609924 192.0
455.678864 116.0
455.768982 144.0
455.862457 132.0
455.920044 116.0
455.972961 160.0
456.062195 172.0
456.283752 236.0
456.345062 164.0
456.461823 92.0
456.529877 52.0
456.568146 96.0
456.5979 80.0
456.686157 96.0
456.789307 104.0
456.834351 156.0
456.870148 108.0
456.985016 104.0
457.024292 328.0
457.125427 152.0
457.202026 160.0
457.270111 96.0
457.314911 176.0
457.414825 80.0
457.467407 160.0
457.563812 124.0
457.668243 120.0
457.763947 72.0
457.857635 140.0
457.947083 92.0
458.054718 132.0
458.163177 104.0
458.249939 120.0
458.304901 180.0
458.349243 108.0
458.419952 168.0
458.451385 244.0
458.50946 112.0
458.566986 120.0
458.584839 128.0
458.667145 120.0
458.722565 152.0
458.882874 132.0
458.925964 148.0
458.961212 152.0
458.97644 116.0
458.992706 100.0
459.063019 136.0
459.183411 128.0
459.248596 100.0
459.320679 76.0
459.366241 80.0
459.450897 136.0
459.524323 52.0
459.554169 140.0
459.613922 160.0
459.649414 84.0
459.705383 156.0
459.765076 216.0
459.840088 116.0
459.942535 192.0
460.001892 168.0
460.052948 148.0
460.102692 144.0
460.186188 144.0
460.252777 264.0
460.309692 116.0
460.363251 168.0
460.415314 196.0
460.471954 164.0
460.526154 116.0
460.565918 168.0
460.642517 364.0
460.68457 176.0
460.77951 112.0
460.817963 60.0
460.914612 188.0
460.993164 136.0
461.04541 124.0
461.098633 200.0
461.130219 156.0
461.182617 156.0
461.215393 136.0
461.243195 88.0
461.326538 84.0
461.3992 152.0
461.451508 140.0
461.50531 112.0
461.542542 176.0
461.608276 124.0
461.682892 116.0
461.741302 80.0
461.779785 112.0
461.81485 80.0
461.895264 156.0
461.946594 108.0
461.999176 112.0
462.054443 76.0
462.086426 128.0
462.165527 116.0
462.248322 168.0
462.307251 124.0
462.364014 236.0
462.390503 268.0
462.447998 112.0
462.475586 192.0
462.532349 172.0
462.578979 128.0
462.706879 176.0
462.740021 268.0
462.789703 152.0
462.838745 228.0
462.857574 80.0
462.866638 140.0
462.924103 216.0
462.93811 152.0
462.952271 92.0
463.005005 128.0
463.036011 112.0
463.103851 176.0
463.17627 208.0
463.226074 156.0
463.291779 188.0
463.339386 76.0
463.41156 148.0
463.451172 76.0
463.525299 92.0
463.563507 152.0
463.611267 72.0
463.708771 212.0
463.748779 236.0
463.814911 120.0
463.90274 260.0
463.958252 80.0
463.994812 172.0
464.063873 156.0
464.117859 276.0
464.153259 284.0
464.185699 120.0
464.196991 264.0
464.250946 592.0
464.304993 424.0
464.346954 148.0
464.401215 236.0
464.49939 200.0
464.552399 144.0
464.599762 100.0
464.651764 96.0
464.700806 348.0
464.744843 600.0
464.785187 392.0
464.834991 376.0
464.880646 424.0
464.928436 156.0
465.033386 292.0
465.068329 196.0
465.132385 244.0
465.179901 264.0
465.213379 432.0
465.261993 1196.0
465.311829 188.0
465.387665 524.0
465.433594 204.0
465.46756 444.0
465.4823 364.0
465.494049 264.0
465.518555 224.0
465.568909 440.0
465.649811 456.0
465.654907 288.0
465.695465 448.0
465.724579 332.0
465.764771 764.0
465.812439 648.0
465.8638 112.0
465.907013 292.0
465.929016 276.0
465.946869 276.0
465.997681 564.0
466.074524 804.0
466.113129 496.0
466.166534 1076.0
466.216797 1572.0
466.275177 339916.0
466.382202 236.0
466.435883 216.0
466.476685 56.0
466.579346 540.0
466.643372 496.0
466.684418 512.0
466.717712 688.0
466.770966 568.0
466.828705 576.0
466.867065 368.0
466.880737 440.0
466.900269 468.0
466.911377 468.0
466.985016 6060.0
467.045685 544.0
467.087128 724.0
467.120605 436.0
467.138214 488.0
467.215942 688.0
467.278107 216312.0
467.400879 228.0
467.470642 204.0
467.537598 152.0
467.574493 280.0
467.607788 428.0
467.671753 948.0
467.747833 372.0
467.785553 340.0
467.836975 240.0
467.929413 400.0
467.988159 548.0
468.016785 220.0
468.032135 308.0
468.074646 256.0
468.111603 244.0
468.179138 460.0
468.280731 30012.0
468.453278 248.0
468.49942 80.0
468.546173 212.0
468.594971 240.0
468.637909 208.0
468.649445 152.0
468.704437 96.0
468.751099 260.0
468.795624 184.0
468.871979 120.0
468.943481 260.0
469.025818 140.0
469.06366 256.0
469.119446 80.0
469.200195 172.0
469.281891 2332.0
469.365997 312.0
469.432831 360.0
469.481537 208.0
469.592804 292.0
469.602875 120.0
469.633667 340.0
469.700958 148.0
469.739227 256.0
469.808868 376.0
469.850311 208.0
469.880798 232.0
469.92334 260.0
469.989655 180.0
470.085907 528.0
470.168945 256.0
470.225159 528.0
470.286285 576.0
470.332947 392.0
470.364075 144.0
470.379822 228.0
470.44101 172.0
470.506927 192.0
470.558777 256.0
470.620667 336.0
470.67981 244.0
470.733704 68.0
470.772369 220.0
470.808807 192.0
470.890472 108.0
470.908478 128.0
470.944611 168.0
470.993774 40.0
471.010437 192.0
471.056702 192.0
471.123413 212.0
471.134247 220.0
471.217346 180.0
471.228973 196.0
471.266907 256.0
471.306702 204.0
471.352448 128.0
471.429749 212.0
471.459534 56.0
471.485138 296.0
471.54538 124.0
471.576294 148.0
471.619354 176.0
471.668152 120.0
471.716248 192.0
471.758392 112.0
471.816986 72.0
471.870483 176.0
471.950531 240.0
471.999451 72.0
472.089905 120.0
472.242828 88.0
472.320312 108.0
472.375671 220.0
472.419678 100.0
472.437683 72.0
472.454773 112.0
472.501587 120.0
472.596954 156.0
472.71463 76.0
472.769287 132.0
472.804688 144.0
472.878235 112.0
472.91391 108.0
472.950409 208.0
472.995667 108.0
473.056915 72.0
473.10965 44.0
473.152924 56.0
473.207825 148.0
473.256134 124.0
473.363861 336.0
473.395416 80.0
473.477692 72.0
473.556854 72.0
473.633606 144.0
473.69162 80.0
473.740173 100.0
473.811218 124.0
473.871887 32.0
473.92569 76.0
473.975861 100.0
474.021179 112.0
474.092865 132.0
474.146118 108.0
474.214203 104.0
474.259705 112.0
474.326904 72.0
474.448273 100.0
474.483948 152.0
474.600037 64.0
474.767242 128.0
474.880005 144.0
474.921143 84.0
475.038055 64.0
475.072754 48.0
475.159515 76.0
475.198578 52.0
475.233276 100.0
475.276672 84.0
475.312439 228.0
475.441559 76.0
475.583862 140.0
475.628204 116.0
475.690918 44.0
475.786835 88.0
475.839355 100.0
475.881439 176.0
475.940765 80.0
476.015747 60.0
476.062042 56.0
476.18634 80.0
476.275177 124.0
476.315948 124.0
476.370728 136.0
476.54245 136.0
476.550781 72.0
476.570221 96.0
476.583344 64.0
476.597961 92.0
476.670502 140.0
476.796539 108.0
476.853027 152.0
476.900848 116.0
476.939972 104.0
476.99646 52.0
477.071655 108.0
477.118195 116.0
477.21817 40.0
477.283417 92.0
477.417542 184.0
477.486176 128.0
477.570435 156.0
477.674805 64.0
477.722656 76.0
477.848816 80.0
477.909729 136.0
477.965881 40.0
478.088165 64.0
478.122955 48.0
478.16214 196.0
478.201294 44.0
478.397186 88.0
478.523438 84.0
478.558258 96.0
478.589294 64.0
478.67337 64.0
478.700256 72.0
478.736786 92.0
478.789062 200.0
478.879639 316.0
478.911011 80.0
478.98941 72.0
479.019897 112.0
479.076538 100.0
479.120087 80.0
479.1698 68.0
479.209625 160.0
479.229004 40.0
479.276947 88.0
479.361053 176.0
479.446869 52.0
479.538391 56.0
479.590698 72.0
479.687408 108.0
479.728851 116.0
479.783661 100.0
479.865326 48.0
479.900208 48.0
480.016998 308.0
480.070282 72.0
480.129944 88.0
480.177277 172.0
480.240356 76.0
480.296844 80.0
480.395691 184.0
480.427612 112.0
480.547546 164.0
480.650269 96.0
480.665344 224.0
480.708771 200.0
480.738647 132.0
480.812286 44.0
480.873016 136.0
480.921021 56.0
480.958618 76.0
480.993134 104.0
481.051971 116.0
481.095978 96.0
481.127197 124.0
481.174194 196.0
481.223724 140.0
481.257141 92.0
481.292084 72.0
481.386078 244.0
481.418732 240.0
481.49295 44.0
481.536621 116.0
481.575073 196.0
481.610718 152.0
481.666016 128.0
481.679901 80.0
481.695129 112.0
481.745178 168.0
481.859314 224.0
481.886566 216.0
481.937836 124.0
482.039032 88.0
482.117676 92.0
482.147125 220.0
482.183228 76.0
482.222321 160.0
482.273468 328.0
482.334686 68.0
482.347198 212.0
482.458618 128.0
482.533386 344.0
482.58728 260.0
482.613037 144.0
482.648254 128.0
482.719482 60.0
482.85672 92.0
482.972778 176.0
483.058441 296.0
483.086426 264.0
483.135864 176.0
483.203003 224.0
483.269653 372.0
483.329803 144.0
483.392151 248.0
483.434814 172.0
483.444519 188.0
483.515167 220.0
483.570709 208.0
483.607819 136.0
483.655914 124.0
483.671631 156.0
483.693024 184.0
483.730499 124.0
483.761475 336.0
483.814728 228.0
483.853912 264.0
483.940186 164.0
483.986755 328.0
484.047516 252.0
484.117584 340.0
484.175629 420.0
484.220581 1116.0
484.285431 209920.0
484.421417 264.0
484.477783 112.0
484.543579 284.0
484.575348 164.0
484.613129 116.0
484.684509 340.0
484.738708 264.0
484.7742 192.0
484.789307 172.0
484.838745 200.0
484.938232 228.0
485.009125 552.0
485.071106 176.0
485.120239 292.0
485.194214 388.0
485.2034 260.0
485.287537 86500.0
485.432587 196.0
485.47525 88.0
485.531616 156.0
485.578552 112.0
485.596008 100.0
485.60965 120.0
485.62561 76.0
485.658875 128.0
485.697388 136.0
485.74646 164.0
485.756897 184.0
485.848724 136.0
485.906891 132.0
485.96994 340.0
486.011078 136.0
486.058655 164.0
486.108734 240.0
486.290802 10372.0
486.401855 184.0
486.472565 88.0
486.569366 192.0
486.601593 160.0
486.644897 108.0
486.714325 112.0
486.765381 120.0
486.806061 128.0
486.841339 128.0
486.882568 80.0
486.914276 120.0
486.977692 104.0
487.020416 60.0
487.067749 100.0
487.170685 172.0
487.287811 944.0
487.405548 148.0
487.461304 168.0
487.526733 204.0
487.593903 84.0
487.629425 80.0
487.699432 108.0
487.744354 324.0
487.801086 176.0
487.832031 104.0
487.881165 52.0
487.935089 168.0
488.053406 120.0
488.133545 248.0
488.214264 308.0
488.297058 300.0
488.360291 136.0
488.394684 236.0
488.469818 208.0
488.536896 96.0
488.579559 104.0
488.644226 144.0
488.719208 248.0
488.826599 64.0
488.867798 112.0
488.904114 124.0
488.956665 56.0
488.996826 108.0
489.056 68.0
489.090118 160.0
489.125793 56.0
489.135773 56.0
489.204773 136.0
489.273102 192.0
489.338745 148.0
489.38736 88.0
489.44339 84.0
489.481079 64.0
489.546051 144.0
489.600586 52.0
489.65918 64.0
489.694427 120.0
489.729858 80.0
489.846619 172.0
489.895264 40.0
489.934387 92.0
490.017365 76.0
490.075256 44.0
490.116943 48.0
490.158813 144.0
490.234009 68.0
490.262451 100.0
490.394958 48.0
490.474304 60.0
490.59967 100.0
490.664032 100.0
490.711609 96.0
490.813751 44.0
490.90033 76.0
490.954865 124.0
491.003387 92.0
491.060699 88.0
491.128174 148.0
491.18103 92.0
491.294495 60.0
491.462128 44.0
491.493042 36.0
491.559204 84.0
491.67395 28.0
491.801941 88.0
491.851807 108.0
491.958862 44.0
492.000183 44.0
492.119781 48.0
492.162659 72.0
492.252258 196.0
492.340576 128.0
492.402405 48.0
492.486328 28.0
492.5289 56.0
492.610016 40.0
492.645355 92.0
492.724854 160.0
492.764618 36.0
492.84436 80.0
492.930908 120.0
493.02533 40.0
493.100464 48.0
493.202545 96.0
493.249329 112.0
493.303772 92.0
493.365448 76.0
493.381378 72.0
493.577881 64.0
493.626648 116.0
493.668457 56.0
493.801575 88.0
493.971497 84.0
494.242371 76.0
494.286926 96.0
494.410034 72.0
494.475922 144.0
494.533447 64.0
494.599854 140.0
494.72348 60.0
494.763641 60.0
494.865448 48.0
495.101318 176.0
495.140015 80.0
495.241882 140.0
495.312744 116.0
495.450073 88.0
495.538361 60.0
495.605133 40.0
495.698181 72.0
495.764648 60.0
495.795685 56.0
495.941925 68.0
496.035431 44.0
496.150269 88.0
496.469513 136.0
496.580383 88.0
496.640259 132.0
496.672272 84.0
496.935272 52.0
496.975189 116.0
497.093201 128.0
497.223694 72.0
497.339111 60.0
497.529968 176.0
497.587677 88.0
497.618774 40.0
497.672058 72.0
497.756165 96.0
498.142792 64.0
498.26416 188.0
498.324951 140.0
498.387146 64.0
498.449371 80.0
498.579987 92.0
498.632233 112.0
498.905609 84.0
498.947144 60.0
499.031616 88.0
499.156128 208.0
499.267303 60.0
499.329559 204.0
499.401764 168.0
499.556274 120.0
499.645386 100.0
499.676514 96.0
499.729919 60.0
499.808289 52.0
499.845032 96.0
499.909821 92.0
499.983551 180.0
500.028046 72.0
500.072571 60.0
500.240021 140.0
500.323334 84.0
500.386139 72.0
500.454773 116.0
500.53418 104.0
500.571167 96.0
500.629059 124.0
500.743469 128.0
500.798309 48.0
500.905212 120.0
500.986969 144.0
501.074493 36.0
501.159149 84.0
501.219635 180.0
501.259766 48.0
501.342438 88.0
501.412781 204.0
501.465393 88.0
501.493134 160.0
501.530884 124.0
501.595886 64.0
501.665466 164.0
501.738525 204.0
501.811188 136.0
501.890106 76.0
501.956055 148.0
502.064026 104.0
502.116394 124.0
502.295258 58428.0
502.447357 132.0
502.539093 92.0
502.627441 104.0
502.669464 248.0
502.722321 148.0
502.773346 76.0
502.843781 240.0
502.892731 96.0
502.939697 264.0
502.994385 100.0
503.016998 196.0
503.074432 192.0
503.111328 112.0
503.147736 128.0
503.222534 248.0
503.297974 23328.0
503.466461 200.0
503.536926 84.0
503.614655 112.0
503.681946 64.0
503.745056 152.0
503.776489 60.0
503.845886 52.0
503.87558 232.0
503.906586 80.0
503.979218 112.0
504.047729 116.0
504.165894 88.0
504.181305 120.0
504.242126 220.0
504.298553 4040.0
504.410431 184.0
504.483551 36.0
504.528748 104.0
504.6138 76.0
504.652588 232.0
504.712067 84.0
504.743347 48.0
504.7836 36.0
504.831299 76.0
504.9133 48.0
504.953522 52.0
504.99826 68.0
505.058441 96.0
505.141388 80.0
505.207764 144.0
505.30777 656.0
505.405365 116.0
505.453827 72.0
505.493988 100.0
505.537415 64.0
505.579437 128.0
505.655945 36.0
505.696503 64.0
505.753998 56.0
505.76001 80.0
505.793457 116.0
505.857361 44.0
505.930756 68.0
505.992462 156.0
506.025238 120.0
506.09494 116.0
506.139435 120.0
506.222046 80.0
506.268066 116.0
506.369202 128.0
506.420776 176.0
506.506714 272.0
506.544037 92.0
506.60968 68.0
506.697052 104.0
506.734253 80.0
506.779938 120.0
506.842651 68.0
506.954681 92.0
507.012939 64.0
507.059998 80.0
507.228394 112.0
507.363068 112.0
507.412201 64.0
507.456726 56.0
507.631592 60.0
507.674438 96.0
507.782196 48.0
507.891693 80.0
507.972443 116.0
508.008331 36.0
508.062164 144.0
508.120483 52.0
508.174316 44.0
508.217987 108.0
508.304443 64.0
508.431885 80.0
508.623077 64.0
508.865509 68.0
508.944641 96.0
509.157379 76.0
509.23822 52.0
509.310089 72.0
509.39093 36.0
509.440338 72.0
509.597595 44.0
509.629028 144.0
509.664978 28.0
509.846222 120.0
510.159363 92.0
510.208801 80.0
510.52356 56.0
510.815918 96.0
510.860901 64.0
511.009338 56.0
511.056366 80.0
511.211823 52.0
511.47287 112.0
511.725586 88.0
511.819519 40.0
511.972626 44.0
512.031189 100.0
512.206848 36.0
512.274414 28.0
512.477112 48.0
512.535706 56.0
512.891724 84.0
513.054016 60.0
513.135132 40.0
513.225342 72.0
513.374146 36.0
513.570801 80.0
513.852234 88.0
514.086914 92.0
514.181641 68.0
514.220947 56.0
514.587952 48.0
514.867859 32.0
515.224731 60.0
515.40094 68.0
515.540344 84.0
515.852844 28.0
516.155762 28.0
516.359253 60.0
517.068665 80.0
517.39093 64.0
517.726013 76.0
518.151794 64.0
518.414612 48.0
518.763611 64.0
518.953979 68.0
519.194336 44.0
519.402954 144.0
519.634338 36.0
519.811279 60.0
519.938354 84.0
520.197083 44.0
520.528503 56.0
520.800964 68.0
520.964539 84.0
521.287842 72.0
521.323425 144.0
521.455261 52.0
521.687073 108.0
521.959839 44.0
522.150879 52.0
522.200867 104.0
522.478333 104.0
522.633057 68.0
522.778625 56.0
523.479675 68.0
524.40448 96.0
524.463745 32.0
524.956116 72.0
525.298218 72.0
525.453308 88.0
525.549133 68.0
526.18811 48.0
526.699585 120.0
526.795471 80.0
526.850281 64.0
527.042175 64.0
527.133606 56.0
527.430664 96.0
527.723206 76.0
527.851257 96.0
527.887817 84.0
528.313171 64.0
528.596863 36.0
528.811951 100.0
529.35675 92.0
529.397949 72.0
529.57196 64.0
530.507263 68.0
530.818542 120.0
530.90564 68.0
531.373535 108.0
531.501953 48.0
532.34198 100.0
532.727783 76.0
533.266907 124.0
533.47229 72.0
533.619385 92.0
533.798706 52.0
534.072144 88.0
534.286255 104.0
534.392029 32.0
534.511658 108.0
534.732605 120.0
534.98114 172.0
536.528992 68.0
536.561279 48.0
536.616638 76.0
537.409912 80.0
537.709839 92.0
539.104553 88.0
539.340271 40.0
539.511292 52.0
540.315979 48.0
541.829895 112.0
542.8125 48.0
543.229919 52.0
544.408813 92.0
544.529541 124.0
544.719971 48.0
545.361206 64.0
545.421631 48.0
547.394226 96.0
547.855347 84.0
548.987976 36.0
549.673645 116.0
550.331787 88.0
550.532593 76.0
550.612 40.0
550.72876 140.0
550.976318 76.0
551.209961 80.0
551.284729 64.0
551.418701 108.0
551.915771 48.0
552.088806 56.0
552.299255 40.0
553.104065 112.0
553.356812 116.0
553.951599 44.0
554.096802 64.0
554.532593 104.0
554.724792 44.0
555.606445 52.0
555.836304 132.0
556.155457 44.0
556.197693 40.0
556.254028 80.0
556.507507 56.0
557.579773 60.0
558.881104 168.0
560.086304 28.0
560.943909 76.0
561.042908 96.0
561.311646 80.0
561.806885 56.0
562.085205 88.0
562.207886 36.0
563.246582 112.0
563.629272 48.0
563.766296 40.0
563.941162 132.0
564.220093 56.0
565.147095 116.0
565.369446 56.0
566.200684 64.0
566.52478 68.0
567.249817 56.0
567.377808 84.0
567.671753 48.0
567.908875 56.0
568.297913 64.0
568.345337 160.0
568.397522 72.0
568.445007 96.0
569.627197 84.0
570.363708 96.0
571.33374 160.0
571.961914 40.0
572.133301 68.0
573.014343 72.0
573.424133 60.0
573.834106 40.0
575.408508 68.0
575.991089 116.0
576.268188 80.0
576.392395 36.0
576.545349 96.0
577.822021 128.0
578.506409 80.0
579.263 76.0
579.598328 80.0
580.09198 104.0
580.154297 44.0
580.269348 32.0
580.844849 100.0
581.643677 48.0
582.073425 80.0
582.41925 48.0
582.54895 48.0
583.567749 112.0
583.659119 68.0
584.217041 76.0
584.423889 120.0
584.966492 76.0
585.049561 56.0
585.806458 92.0
586.894836 100.0
587.063599 76.0
587.227539 52.0
587.415649 128.0
588.361511 156.0
589.457886 84.0
589.573914 52.0
589.685059 96.0
589.772034 112.0
589.88324 148.0
591.106812 136.0
591.595642 28.0
592.118591 48.0
592.510986 92.0
593.048828 104.0
593.089661 148.0
593.18457 92.0
593.310608 92.0
593.887634 40.0
594.047729 88.0
594.183533 88.0
594.314575 104.0
594.377625 84.0
594.768982 156.0
595.013428 68.0
595.693359 220.0
596.174316 64.0
596.290955 80.0
597.19043 72.0
597.988342 76.0
598.460571 188.0
599.351929 88.0
601.28302 64.0
601.380615 108.0
601.819946 72.0
601.873657 80.0
601.961548 40.0
602.953247 36.0
603.872375 100.0
604.381165 84.0
605.580505 96.0
606.53595 44.0
606.725952 116.0
606.996826 88.0
607.197876 128.0
607.78656 76.0
607.889587 68.0
608.169312 44.0
608.679932 100.0
608.881226 76.0
608.920532 100.0
609.048218 64.0
609.593567 64.0
610.193237 84.0
610.960449 72.0
611.226135 84.0
611.27533 56.0
611.378662 48.0
612.082581 144.0
612.900269 48.0
613.018555 100.0
613.437439 44.0
613.486755 128.0
614.103149 68.0
614.413879 40.0
614.448425 88.0
615.59845 104.0
616.038025 128.0
617.585205 40.0
618.000793 128.0
618.070007 108.0
618.411499 108.0
618.921387 52.0
619.263123 76.0
619.411682 64.0
619.555359 36.0
619.718872 84.0
622.203613 40.0
622.347595 80.0
623.196899 120.0
623.872864 100.0
624.569031 112.0
625.066528 52.0
625.161072 116.0
625.210815 68.0
625.673706 48.0
625.778259 80.0
625.925293 124.0
625.972473 68.0
626.156738 84.0
626.261292 100.0
626.405762 88.0
626.565186 28.0
626.629944 60.0
626.779419 84.0
626.859131 36.0
627.601868 44.0
627.751465 88.0
628.010803 80.0
628.245239 76.0
628.893921 88.0
629.123535 84.0
629.288269 76.0
630.092346 68.0
630.337219 76.0
630.542114 44.0
630.731995 84.0
630.996948 84.0
631.171936 68.0
631.241943 40.0
632.572815 36.0
632.677917 64.0
633.414062 56.0
633.692322 160.0
633.739685 80.0
633.854919 72.0
634.295959 64.0
634.49646 60.0
634.757202 92.0
635.559753 68.0
635.599915 72.0
635.921082 72.0
636.292542 56.0
636.483337 64.0
637.302063 100.0
637.518127 52.0
637.839783 52.0
637.88501 72.0
638.93103 52.0
639.102112 88.0
639.72113 108.0
640.189392 52.0
640.748474 92.0
641.091125 76.0
641.393494 72.0
641.443909 104.0
641.877502 56.0
642.507935 100.0
642.921692 124.0
643.123596 88.0
643.658691 28.0
643.749573 44.0
643.936462 116.0
644.163757 80.0
645.25531 132.0
645.882385 164.0
646.767883 64.0
646.864075 116.0
647.213379 36.0
647.390625 64.0
647.431091 40.0
648.307556 104.0
648.743408 88.0
649.00708 116.0
650.173767 48.0
650.214355 164.0
650.88446 100.0
650.996155 112.0
651.046936 108.0
651.250122 68.0
651.724609 68.0
651.798767 84.0
652.4646 140.0
653.57843 84.0
654.59137 312.0
654.642273 32.0
655.447144 52.0
656.58905 84.0
657.170532 72.0
657.471619 40.0
657.624695 80.0
657.90033 52.0
658.186279 148.0
658.237305 92.0
658.605042 64.0
658.89624 44.0
658.947327 124.0
661.26886 32.0
661.386597 76.0
661.437744 56.0
662.062378 108.0
662.81543 64.0
663.020386 92.0
663.466309 96.0
663.579102 80.0
664.461243 144.0
664.885681 96.0
665.087341 40.0
665.292664 68.0
665.508301 76.0
666.470154 44.0
666.746277 64.0
666.828491 92.0
666.864441 92.0
667.260254 72.0
667.393982 100.0
668.319763 40.0
668.767517 88.0
669.524353 120.0
669.833374 36.0
669.941528 88.0
670.070312 116.0
670.693848 48.0
670.910339 132.0
671.080505 156.0
672.571411 92.0
672.648804 112.0
672.78302 156.0
672.968872 44.0
673.025696 140.0
674.100098 84.0
674.444336 92.0
674.694458 80.0
674.813416 32.0
675.712036 80.0
675.956482 112.0
676.398987 160.0
676.691467 104.0
677.110901 64.0
677.898376 60.0
679.158203 60.0
679.407166 112.0
679.588745 88.0
680.040222 60.0
680.147705 68.0
680.377625 64.0
680.787842 36.0
680.844971 144.0
681.608582 36.0
681.650146 60.0
681.774841 84.0
682.445435 96.0
684.073792 44.0
684.183105 72.0
684.740234 60.0
685.110107 96.0
685.818787 100.0
686.950256 164.0
687.0755 76.0
687.910461 40.0
688.077515 140.0
688.422119 60.0
688.488342 140.0
688.620605 60.0
689.064575 160.0
689.153381 60.0
689.449768 84.0
689.958252 172.0
690.282471 80.0
690.517761 120.0
690.72699 104.0
691.208313 56.0
691.459473 36.0
691.689819 52.0
691.967224 76.0
692.129578 44.0
692.229065 60.0
692.993774 184.0
694.299011 32.0
694.440613 28.0
694.527893 88.0
694.8526 188.0
695.337769 76.0
695.421753 52.0
695.715698 80.0
696.739807 76.0
697.232117 80.0
697.491211 36.0
697.528015 104.0
697.648926 64.0
697.74884 60.0
697.854004 72.0
698.113647 64.0
698.243103 72.0
698.453491 68.0
698.663879 88.0
698.963806 72.0
699.132202 44.0
699.242737 48.0
699.663818 92.0
700.106079 64.0
700.912048 116.0
701.096497 48.0
702.409363 132.0
702.673096 80.0
702.736389 100.0
703.227173 76.0
703.48053 152.0
703.702271 64.0
704.193359 60.0
704.774475 56.0
705.503784 92.0
705.540833 136.0
705.630676 88.0
705.672974 60.0
705.783997 104.0
706.593262 84.0
707.053589 68.0
707.111816 44.0
707.699402 60.0
708.107178 92.0
708.663391 68.0
709.490173 60.0
709.824158 76.0
710.179504 44.0
710.911621 44.0
711.426453 104.0
711.532654 72.0
712.007019 156.0
712.323914 80.0
712.392944 52.0
712.802063 72.0
713.259155 172.0
713.790771 104.0
714.418396 48.0
714.652466 28.0
714.950439 108.0
715.15802 60.0
715.195251 68.0
715.810608 48.0
716.036499 128.0
716.178406 148.0
716.281494 80.0
717.816406 104.0
719.475769 96.0
720.164612 108.0
720.266113 28.0
720.447693 44.0
720.901855 92.0
721.204041 96.0
721.618103 44.0
722.307983 108.0
722.366821 60.0
722.506714 108.0
722.757385 92.0
722.907227 60.0
722.955383 76.0
723.672668 128.0
724.652771 72.0
725.435242 100.0
726.883301 28.0
727.33136 124.0
727.377075 48.0
727.752869 152.0
728.042847 44.0
728.112671 140.0
728.220032 76.0
728.391907 44.0
728.536987 64.0
729.805359 120.0
730.988708 84.0
731.203979 80.0
731.58075 112.0
731.946838 136.0
732.199951 40.0
732.74939 64.0
732.851746 64.0
733.525391 40.0
734.064575 32.0
734.23175 196.0
734.463623 56.0
734.684814 108.0
735.024719 100.0
735.154236 88.0
735.912048 132.0
736.206909 76.0
736.271729 76.0
736.666016 108.0
736.768616 176.0
736.887512 120.0
737.249512 48.0
737.746765 92.0
737.809265 108.0
738.076599 96.0
738.731018 172.0
738.931152 56.0
739.125977 92.0
739.505859 60.0
739.699646 80.0
739.899902 52.0
739.975708 88.0
740.203125 48.0
740.300598 56.0
740.836792 72.0
741.774292 60.0
742.202576 112.0
742.576782 168.0
742.858826 80.0
743.347107 112.0
744.22644 40.0
744.758667 68.0
744.812988 72.0
745.736633 236.0
745.823608 88.0
746.155212 76.0
746.24762 160.0
746.737061 132.0
747.199402 52.0
747.547668 72.0
748.560181 252.0
748.756226 88.0
749.447998 48.0
749.74231 76.0
749.954834 136.0
751.388977 196.0
751.536316 116.0
751.634521 96.0
752.087463 68.0
752.62793 48.0
752.824524 44.0
752.895508 64.0
753.042969 116.0
754.537415 156.0
755.152649 56.0
755.699707 64.0
755.896667 104.0
756.323547 88.0
756.577454 136.0
756.871033 100.0
757.007935 40.0
757.309143 132.0
758.24054 72.0
758.333679 56.0
758.42688 92.0
758.854431 144.0
759.101196 84.0
759.172485 100.0
759.38092 144.0
759.660645 72.0
761.351135 48.0
761.730103 48.0
762.015808 104.0
762.114868 124.0
762.405945 164.0
762.917114 72.0
763.417419 128.0
763.483459 104.0
763.602722 144.0
763.653931 48.0
764.512146 76.0
764.710327 32.0
764.928589 136.0
765.27179 60.0
766.428467 108.0
766.478027 64.0
767.040222 40.0
767.387512 36.0
767.442627 56.0
767.674255 44.0
767.718323 48.0
767.955505 72.0
769.36261 36.0
769.611023 80.0
769.710449 56.0
769.820862 96.0
770.544434 80.0
770.588623 148.0
771.003052 40.0
771.152283 236.0
771.716125 44.0
771.85437 68.0
772.195801 212.0
772.346558 72.0
772.761475 80.0
772.894287 68.0
772.947205 204.0
773.170959 112.0
773.325928 72.0
773.519653 156.0
773.569458 184.0
773.724487 40.0
774.006836 68.0
774.521912 48.0
774.704712 72.0
774.757996 96.0
775.064819 140.0
776.428467 88.0
776.678101 180.0
776.994263 160.0
777.181274 124.0
777.907349 104.0
777.976562 72.0
778.504028 72.0
778.765076 112.0
779.248352 192.0
779.603943 156.0
779.770691 112.0
781.188538 96.0
781.833984 68.0
782.599854 92.0
782.680115 44.0
782.863892 52.0
783.237 172.0
783.615845 76.0
784.524231 96.0
784.65802 152.0
785.706543 136.0
785.806946 56.0
785.957581 144.0
786.23291 72.0
786.526855 72.0
787.1521 80.0
787.280579 128.0
787.693848 100.0
788.118469 152.0
788.308411 40.0
788.593445 72.0
789.040649 44.0
789.655762 60.0
790.774719 180.0
792.393005 84.0
793.536377 68.0
794.102722 96.0
794.23175 164.0
794.41687 68.0
794.484192 152.0
794.591187 156.0
794.759094 40.0
795.095764 116.0
795.303406 128.0
795.387634 80.0
796.510681 200.0
796.915161 32.0
796.973328 56.0
797.128662 44.0
797.308472 112.0
797.589478 40.0
798.77594 72.0
799.50177 44.0
799.597412 36.0
799.726868 52.0
800.098389 64.0
800.391174 72.0
802.786072 116.0
803.276733 48.0
803.626526 80.0
803.790161 116.0
804.196472 100.0
804.281128 148.0
804.382751 192.0
804.512573 68.0
804.930359 116.0
805.941467 108.0
806.642212 64.0
806.987122 72.0
807.14801 164.0
807.241516 96.0
807.309387 56.0
807.405518 84.0
807.563904 44.0
808.440796 56.0
808.995483 84.0
809.567322 52.0
810.036682 88.0
810.490662 48.0
810.689026 44.0
811.153748 116.0
811.363525 32.0
811.879456 96.0
811.958862 60.0
812.094971 76.0
812.775757 84.0
812.923279 68.0
813.394348 116.0
814.649292 104.0
815.092468 68.0
815.979126 132.0
816.280518 40.0
816.72406 60.0
817.321411 84.0
817.523621 76.0
817.97522 132.0
818.112549 44.0
818.192261 96.0
818.283325 60.0
818.693298 88.0
819.0578 188.0
820.089111 64.0
820.208801 48.0
820.431152 92.0
821.61731 64.0
821.817017 184.0
822.832947 132.0
822.992798 28.0
823.306885 44.0
823.963745 44.0
824.106567 116.0
824.855225 168.0
825.038147 76.0
825.895874 96.0
826.073242 152.0
826.189148 56.0
826.319214 128.0
826.376465 36.0
826.611023 52.0
826.708313 64.0
827.194824 92.0
827.412354 112.0
828.151062 88.0
828.741089 200.0
828.804138 48.0
828.993225 60.0
829.079163 104.0
829.354248 156.0
829.772766 64.0
829.84729 92.0
829.904602 88.0
830.036499 200.0
830.374817 64.0
830.994385 100.0
831.28125 180.0
831.786316 48.0
832.211121 44.0
832.837097 184.0
832.96344 44.0
833.681641 104.0
834.273682 72.0
834.779602 124.0
835.044189 92.0
835.964661 96.0
836.073975 148.0
836.712891 100.0
836.925903 52.0
837.737976 128.0
838.469727 48.0
838.515869 88.0
838.890503 192.0
839.674683 132.0
840.070984 100.0
840.147644 80.0
840.753479 68.0
841.128662 148.0
841.613586 32.0
842.479919 196.0
842.809265 48.0
842.919006 48.0
843.496948 44.0
843.537415 112.0
843.606812 44.0
844.242798 40.0
844.31543 236.0
844.907959 128.0
845.098877 152.0
845.608154 116.0
846.250671 116.0
846.615479 152.0
846.74292 56.0
846.783447 36.0
847.455383 72.0
848.058105 92.0
848.574036 136.0
848.614624 68.0
849.467102 76.0
849.58313 148.0
850.070496 124.0
850.372253 168.0
851.005005 92.0
851.324402 56.0
851.75415 80.0
852.044617 28.0
852.125977 152.0
852.195679 108.0
852.300293 88.0
852.552368 116.0
852.800049 80.0
853.474365 176.0
853.526733 96.0
853.730225 52.0
853.834961 124.0
855.231262 176.0
855.446655 52.0
855.644592 100.0
856.116211 96.0
856.244324 44.0
856.314209 168.0
856.40741 100.0
856.55304 84.0
856.652039 96.0
857.010803 132.0
857.263855 68.0
857.706787 112.0
858.925476 76.0
859.228821 180.0
859.281311 108.0
859.415466 120.0
860.016602 128.0
860.93396 152.0
861.049988 44.0
862.200928 128.0
862.335327 140.0
864.23584 40.0
864.62793 48.0
864.715698 192.0
865.184021 76.0
865.775391 152.0
866.932251 100.0
867.333862 136.0
867.55658 112.0
867.597656 164.0
867.874939 176.0
868.065186 92.0
868.430298 168.0
868.829163 144.0
869.357239 80.0
869.685913 32.0
870.008728 96.0
870.454956 104.0
870.654663 76.0
870.777954 64.0
870.883667 176.0
871.653259 168.0
872.7995 44.0
873.381714 44.0
874.122986 40.0
874.487854 52.0
874.770386 60.0
875.694824 92.0
875.736084 52.0
876.077698 48.0
876.160217 48.0
876.319275 212.0
876.76123 68.0
876.991028 60.0
877.627747 36.0
877.828186 124.0
878.040527 60.0
878.471069 116.0
878.583191 116.0
879.609985 92.0
880.005493 84.0
880.61377 120.0
880.661011 80.0
881.033142 176.0
881.074463 104.0
881.121765 40.0
881.748108 84.0
882.220947 100.0
882.404236 76.0
882.90686 60.0
883.10791 100.0
883.894775 140.0
884.646423 148.0
886.192139 60.0
887.988281 192.0
889.044312 68.0
889.11554 192.0
889.507263 100.0
889.940613 64.0
890.011902 76.0
890.100952 80.0
890.58197 196.0
891.116638 176.0
892.53717 160.0
892.578796 96.0
892.626343 84.0
892.67395 120.0
892.870178 72.0
892.929626 72.0
893.340088 164.0
893.899353 160.0
894.018372 60.0
894.20282 136.0
894.411194 104.0
894.506409 172.0
895.060059 84.0
895.214905 112.0
895.494812 52.0
895.560303 180.0
896.221558 68.0
896.507629 128.0
897.079773 52.0
897.604431 76.0
898.678101 92.0
899.167419 52.0
899.430054 128.0
899.495667 84.0
899.716553 100.0
899.770325 100.0
899.830017 116.0
900.194214 72.0
900.618286 120.0
900.976685 264.0
901.424805 80.0
901.633972 160.0
902.028442 116.0
902.112122 128.0
902.297424 132.0
902.411011 160.0
902.781738 84.0
903.074829 72.0
903.466309 80.0
903.65509 28.0
903.69696 84.0
903.906372 212.0
904.540771 68.0
904.708374 32.0
904.822144 48.0
905.702393 92.0
905.822205 152.0
906.073792 132.0
906.565125 112.0
907.332336 128.0
907.644104 68.0
908.945801 220.0
909.005798 64.0
909.744019 28.0
909.840088 60.0
910.194275 84.0
910.650696 40.0
910.848938 176.0
910.987061 40.0
911.545837 84.0
911.846313 124.0
912.465454 132.0
913.072754 92.0
913.920959 104.0
914.149597 108.0
914.5047 48.0
914.727417 44.0
915.054138 116.0
915.636597 40.0
915.949768 76.0
916.118469 44.0
916.431702 40.0
916.702881 68.0
917.004211 68.0
917.088562 40.0
918.137634 112.0
918.250793 248.0
918.439209 124.0
918.511597 88.0
918.577942 100.0
918.86145 160.0
919.706299 124.0
920.092651 48.0
921.076965 44.0
921.312561 176.0
921.475647 48.0
921.608582 84.0
922.518433 88.0
922.944397 56.0
923.023376 64.0
923.295105 124.0
923.718506 84.0
924.831848 68.0
925.055847 96.0
925.189026 40.0
925.770264 56.0
925.857727 192.0
926.267578 184.0
926.460754 96.0
926.581909 44.0
926.624329 96.0
927.315125 100.0
927.357544 28.0
927.751587 96.0
928.011536 64.0
928.18811 144.0
928.382141 112.0
928.752136 64.0
930.07959 128.0
930.244812 156.0
930.317688 152.0
930.621216 48.0
931.563721 64.0
931.688965 104.0
931.756958 68.0
932.698853 100.0
933.12439 176.0
934.084656 168.0
934.541565 140.0
934.74231 160.0
935.077026 164.0
935.188782 176.0
935.304382 196.0
935.42395 140.0
935.472656 96.0
936.044983 196.0
936.130249 92.0
936.576233 88.0
936.814209 172.0
936.94812 128.0
937.214478 72.0
937.494812 156.0
937.564087 124.0
937.768372 192.0
937.945801 148.0
938.598145 124.0
938.860352 108.0
939.208008 116.0
939.763123 136.0
940.442017 180.0
940.593079 48.0
940.947144 68.0
941.356262 148.0
941.484497 116.0
941.612366 124.0
941.783752 68.0
942.117126 184.0
942.828491 148.0
943.109619 184.0
943.500854 88.0
943.714844 56.0
943.788208 336.0
944.204773 68.0
944.864685 252.0
946.119263 92.0
946.592896 212.0
946.658081 52.0
946.719299 72.0
946.798889 88.0
947.631226 156.0
947.772888 104.0
947.926086 100.0
948.208008 152.0
948.291687 164.0
948.367371 236.0
948.471558 76.0
948.845459 152.0
949.158447 180.0
949.67334 196.0
949.869629 160.0
950.151794 124.0
950.845154 96.0
950.943359 132.0
951.765991 188.0
951.937927 52.0
952.294128 152.0
952.42926 36.0
952.724121 76.0
952.834656 148.0
953.283203 68.0
953.406128 160.0
953.8302 56.0
953.879395 228.0
954.180603 120.0
954.24823 148.0
954.297424 64.0
954.475708 180.0
954.783203 80.0
954.907654 172.0
955.226074 204.0
955.299866 116.0
955.372803 136.0
955.391296 116.0
955.408936 120.0
955.810547 196.0
956.06897 184.0
956.493652 48.0
956.82605 164.0
957.269409 52.0
957.453857 88.0
957.620422 76.0
957.675842 132.0
957.718994 72.0
958.408936 204.0
958.723206 124.0
958.926575 88.0
959.444397 120.0
959.580017 68.0
959.672485 160.0
959.814331 56.0
960.067139 184.0
960.622253 152.0
960.844299 172.0
960.918335 60.0
960.973877 192.0
961.433411 132.0
961.881042 164.0
961.992188 76.0
962.4552 80.0
962.949219 136.0
963.282776 76.0
963.480469 132.0
963.820312 180.0
964.018005 148.0
964.228149 76.0
964.308472 60.0
964.598999 244.0
964.920471 96.0
965.167786 128.0
965.266724 52.0
965.613037 76.0
965.922302 144.0
966.924622 64.0
967.273621 144.0
967.481689 108.0
967.569397 124.0
967.723145 72.0
967.785095 208.0
967.90271 156.0
968.13562 144.0
968.224731 72.0
968.410522 68.0
968.515808 72.0
968.794556 120.0
969.191101 108.0
969.389343 52.0
969.699219 196.0
969.947144 128.0
969.99054 80.0
970.47644 128.0
970.554749 188.0
971.017639 124.0
972.993042 104.0
973.07135 112.0
974.104675 136.0
974.241333 144.0
974.68866 156.0
975.067749 76.0
975.291504 148.0
975.67688 180.0
976.09967 92.0
976.304871 48.0
976.566101 120.0
976.715393 76.0
977.007751 136.0
977.138367 48.0
977.555298 120.0
977.617493 188.0
978.694397 128.0
979.410583 184.0
979.460388 140.0
979.653503 168.0
979.994568 204.0
980.307678 180.0
980.756409 132.0
980.796021 120.0
980.89978 172.0
981.024475 108.0
981.244324 144.0
981.591858 144.0
982.433838 100.0
982.539856 28.0
982.946838 216.0
983.201294 128.0
983.994019 144.0
984.237549 76.0
984.416626 112.0
984.562256 56.0
984.824585 132.0
984.95575 60.0
985.074402 128.0
985.404053 172.0
985.606812 168.0
986.017883 136.0
986.49292 240.0
986.574402 124.0
986.736755 148.0
986.899292 236.0
987.186951 172.0
987.348694 120.0
987.462097 72.0
987.82489 68.0
988.068848 228.0
988.16272 208.0
988.262817 120.0
989.138977 84.0
989.5271 120.0
989.643127 180.0
989.78241 140.0
989.902771 244.0
990.779663 312.0
990.961365 36.0
991.318481 116.0
991.668335 148.0
991.926453 140.0
992.139587 168.0
992.277527 96.0
992.573486 140.0
992.661926 156.0
993.362427 224.0
993.782776 124.0
994.592285 92.0
994.893616 196.0
994.937561 68.0
995.307983 72.0
995.527771 120.0
995.578003 100.0
995.860657 64.0
995.973694 132.0
996.130737 108.0
996.585388 108.0
996.638367 200.0
996.70874 112.0
996.89093 152.0
997.112976 160.0
997.368591 68.0
997.418884 104.0
997.51947 120.0
997.947144 140.0
998.028687 184.0
998.214539 152.0
998.267639 192.0
998.317932 88.0
998.758179 64.0
999.00354 116.0
999.406189 196.0
999.777466 220.0
1000.118713 124.0
1000.77832 252.0
1001.174988 64.0
1001.244263 140.0
1001.288391 60.0
1001.426941 88.0
1001.471008 168.0
1001.704102 180.0
1001.760742 72.0
1001.830078 52.0
1001.949768 160.0
1002.245911 164.0
1002.630249 124.0
1002.781555 144.0
1002.888672 156.0
1003.109314 168.0
1003.159729 140.0
1003.311035 64.0
1003.355164 112.0
1003.613647 52.0
1003.708252 36.0
1003.776184 180.0
1004.849854 140.0
1005.001282 76.0
1005.21582 144.0
1005.796448 48.0
1006.030029 60.0
1006.206787 124.0
1006.282532 112.0
1006.408813 100.0
1006.527893 140.0
1006.775085 104.0
1007.457214 120.0
1007.551941 76.0
1007.630737 144.0
1007.747803 48.0
1007.811035 144.0
1007.912109 180.0
1008.278625 56.0
1008.430481 156.0
1008.58197 132.0
1008.929688 96.0
1009.245789 100.0
1009.340637 160.0
1009.619507 188.0
1009.688477 60.0
1010.206421 152.0
1010.270386 160.0
1010.637329 196.0
1010.814453 132.0
1010.909424 160.0
1011.194214 108.0
1011.516968 88.0
1011.884155 128.0
1011.998108 120.0
1012.295715 248.0
1012.517395 72.0
1013.464844 212.0
1013.562622 100.0
1013.613281 128.0
1013.676697 208.0
1013.822449 28.0
1013.904785 112.0
1013.987183 72.0
1014.855652 96.0
1015.369324 100.0
1015.420044 152.0
1015.527832 68.0
1015.572266 136.0
1015.705444 176.0
1016.009949 36.0
1016.206604 64.0
1016.625427 152.0
1017.152222 172.0
1017.425171 52.0
1017.59021 108.0
1017.882324 112.0
1018.187134 68.0
1018.555481 56.0
1018.612671 204.0
1018.78418 88.0
1019.133606 72.0
1019.254333 256.0
1019.387756 88.0
1019.432251 136.0
1019.489441 112.0
1019.978821 132.0
1020.30304 204.0
1020.372986 120.0
1020.423828 52.0
1020.599121 184.0
1021.250549 168.0
1021.593994 44.0
1021.943909 160.0
1022.03302 64.0
1022.077576 120.0
1022.147522 128.0
1022.588928 56.0
1022.650269 216.0
1023.172241 104.0
1023.308533 100.0
1023.828125 220.0
1024.171997 60.0
1024.273926 92.0
1024.439575 84.0
1024.81543 92.0
1024.87915 108.0
1025.538696 124.0
1026.02002 132.0
1026.204956 56.0
1026.415283 192.0
1026.568359 172.0
1026.759644 152.0
1027.174316 116.0
1027.279663 164.0
1027.351318 144.0
1027.518799 72.0
1027.627197 116.0
1028.08667 164.0
1028.15686 44.0
1028.584473 28.0
1028.70105 120.0
1028.954712 68.0
1029.018555 188.0
1029.165405 96.0
1029.344238 108.0
1029.465576 92.0
1029.708252 88.0
1029.880615 64.0
1030.129761 100.0
1030.204712 88.0
1030.366089 100.0
1030.583374 124.0
1030.755859 92.0
1030.966797 120.0
1031.363037 128.0
1031.414185 144.0
1031.816895 68.0
1032.002319 84.0
1032.054443 160.0
1032.315674 240.0
1032.443481 52.0
1032.692993 148.0
1032.846436 40.0
1033.370972 216.0
1033.486206 172.0
1033.652588 132.0
1033.780518 72.0
1033.9021 88.0
1034.062134 80.0
1034.266968 96.0
1034.414185 96.0
1034.538574 148.0
1034.644653 192.0
1034.759888 80.0
1035.227295 216.0
1035.342529 132.0
1035.412964 136.0
1035.464233 60.0
1035.662842 48.0
1035.925415 56.0
1036.103027 240.0
1036.425171 120.0
1036.502075 88.0
1036.745483 48.0
1036.833252 144.0
1036.969849 136.0
1037.078857 164.0
1037.207031 116.0
1037.694214 160.0
1037.781006 188.0
1037.848022 164.0
1038.07373 120.0
1038.752319 128.0
1038.947998 152.0
1039.169312 84.0
1039.246338 168.0
1039.479736 164.0
1040.234619 76.0
1041.351929 32.0
1041.41272 76.0
1041.525391 120.0
1041.827271 116.0
1041.955688 40.0
1042.791138 92.0
1042.983887 44.0
1043.183228 36.0
1043.260376 80.0
1043.560791 208.0
1043.761841 184.0
1044.447388 140.0
1044.5979 156.0
1044.874512 120.0
1045.009644 108.0
1045.131836 80.0
1045.238281 92.0
1045.363525 200.0
1045.421387 88.0
1045.55896 140.0
1045.672485 204.0
1045.978516 144.0
1046.04834 172.0
1046.316162 80.0
1046.605835 160.0
1047.005615 164.0
1047.166138 76.0
1047.269165 88.0
1047.945557 40.0
1048.00354 256.0
1048.119507 56.0
1048.171143 172.0
1048.293457 100.0
1048.345093 76.0
1048.525513 176.0
1048.589966 56.0
1049.150757 168.0
1049.235107 132.0
1049.360352 148.0
1049.664673 168.0
1049.854736 108.0
1050.369507 104.0
1050.47583 92.0
1050.569458 128.0
1050.65686 120.0
1050.763062 72.0
1051.059814 48.0
1051.253418 116.0
1051.440552 180.0
1051.614258 48.0
1052.8479 172.0
1053.241943 92.0
1053.345337 112.0
1053.403442 104.0
1053.642456 172.0
1053.707031 88.0
1053.828125 92.0
1054.017212 96.0
1054.127075 240.0
1054.883179 100.0
1055.141846 40.0
1055.2323 96.0
1055.581421 120.0
1055.788452 32.0
1055.969482 104.0
1056.140381 68.0
1056.364014 144.0
1056.428955 108.0
1056.732788 160.0
1056.93335 88.0
1057.250488 208.0
1057.567627 108.0
1058.033691 104.0
1058.266724 124.0
1058.350952 88.0
1058.519287 184.0
1058.694092 92.0
1059.08667 232.0
1059.445435 112.0
1059.633301 104.0
1059.905518 188.0
1060.035034 108.0
1060.255371 168.0
1060.462769 196.0
1060.670166 104.0
1060.858154 164.0
1060.981323 132.0
1061.104492 56.0
1061.286133 36.0
1061.60376 160.0
1061.668701 180.0
1061.80481 120.0
1062.19165 180.0
1062.310791 196.0
1062.401611 56.0
1062.875244 168.0
1062.927124 100.0
1063.320068 200.0
1063.413818 128.0
1063.491699 124.0
1063.56311 116.0
1063.822754 124.0
1064.296753 132.0
1064.433105 112.0
1064.498047 64.0
1064.608398 60.0
1065.08252 124.0
1065.595703 32.0
1065.803589 128.0
1065.985596 140.0
1066.239014 96.0
1066.447021 56.0
1067.623779 80.0
1067.682251 160.0
1068.358765 156.0
1068.430298 148.0
1068.768677 128.0
1068.853271 136.0
1069.063599 168.0
1069.302246 96.0
1069.536499 104.0
1069.959717 108.0
1070.011719 72.0
1070.063843 168.0
1070.272217 88.0
1070.369873 96.0
1070.415405 44.0
1070.497559 200.0
1070.520508 232.0
1070.623901 140.0
1070.688965 252.0
1070.884399 236.0
1071.021118 60.0
1071.17749 152.0
1071.30127 52.0
1071.504395 188.0
1072.076538 144.0
1072.174316 132.0
1072.669678 72.0
1072.754395 100.0
1073.03479 196.0
1073.171631 176.0
1073.359375 136.0
1073.686768 60.0
1073.771606 148.0
1074.104248 28.0
1074.386353 128.0
1074.411987 156.0
1074.63916 108.0
1075.102539 176.0
1075.448364 88.0
1076.199097 108.0
1076.270996 96.0
1076.500977 88.0
1076.904419 128.0
1077.564209 188.0
1077.734009 184.0
1077.81897 76.0
1077.877808 72.0
1078.07312 152.0
1078.322144 220.0
1078.446411 40.0
1078.500122 92.0
1078.786255 28.0
1078.860474 216.0
1079.005737 232.0
1079.08313 116.0
1079.387817 120.0
1079.477783 136.0
1080.645142 68.0
1080.878418 156.0
1080.990356 72.0
1081.121216 116.0
1081.206299 68.0
1081.297974 72.0
1081.512695 160.0
1081.644897 152.0
1081.946045 136.0
1082.068604 164.0
1082.286255 176.0
1082.384644 112.0
1082.672852 96.0
1082.836548 128.0
1082.912109 156.0
1083.124756 184.0
1083.262329 212.0
1083.589844 148.0
1083.792969 68.0
1083.858521 40.0
1084.09436 132.0
1084.199219 76.0
1084.395874 188.0
1084.448242 196.0
1084.507202 156.0
1084.566284 236.0
1085.031616 140.0
1085.195557 184.0
1085.372559 76.0
1085.457886 160.0
1085.615234 52.0
1085.667725 136.0
1085.734253 84.0
1085.85791 96.0
1086.028442 100.0
1086.139893 96.0
1086.185791 88.0
1086.303955 132.0
1086.547119 160.0
1086.628784 100.0
1086.730347 116.0
1087.202759 156.0
1087.439087 156.0
1087.964233 120.0
1088.042969 104.0
1088.088867 160.0
1088.141479 132.0
1088.19397 116.0
1088.350098 168.0
1088.667236 168.0
1088.791504 52.0
1088.876831 136.0
1088.988525 88.0
1090.07251 144.0
1090.218506 180.0
1090.539185 60.0
1090.872925 180.0
1091.071533 204.0
1091.170166 160.0
1091.232544 140.0
1091.400269 36.0
1091.702759 64.0
1091.96582 100.0
1092.130249 144.0
1092.196045 224.0
1092.380249 132.0
1092.42627 80.0
1092.577637 124.0
1092.672119 160.0
1093.22522 200.0
1093.281616 72.0
1093.446167 168.0
1093.505371 248.0
1093.551514 84.0
1094.078003 84.0
1094.341431 92.0
1094.463745 96.0
1094.512573 156.0
1094.604736 112.0
1094.865723 136.0
1095.105347 176.0
1095.467529 100.0
1095.546631 172.0
1096.060547 156.0
1096.291138 152.0
1096.574585 164.0
1096.726196 180.0
1096.963379 144.0
1097.233765 212.0
1097.464478 152.0
1097.695312 136.0
1097.866699 160.0
1098.005249 184.0
1098.542114 148.0
1098.671387 116.0
1098.757202 104.0
1099.757324 128.0
1100.010986 152.0
1100.070435 116.0
1100.321289 48.0
1100.433594 84.0
1100.512817 116.0
1100.671265 168.0
1100.942017 176.0
1101.364624 48.0
1101.518433 168.0
1101.589233 164.0
1101.648682 64.0
1101.893188 80.0
1102.047119 128.0
1102.098022 136.0
1102.388672 120.0
1102.461426 92.0
1102.567383 176.0
1102.785278 144.0
1103.525635 152.0
1104.103516 160.0
1104.129028 64.0
1104.144775 176.0
1104.297729 172.0
1104.314697 132.0
1104.570557 120.0
1104.616821 64.0
1104.696167 96.0
1104.796631 136.0
1105.344604 200.0
1105.970947 148.0
1106.207397 140.0
1106.297607 100.0
1106.372681 144.0
1106.496216 100.0
1107.211426 136.0
1107.439941 204.0
1107.608765 264.0
1107.701538 160.0
1107.761108 52.0
1108.204956 72.0
1108.277832 124.0
1108.491943 116.0
1108.65564 244.0
1108.708618 96.0
1108.761597 152.0
1109.119507 120.0
1109.557007 60.0
1109.822266 204.0
1110.041016 208.0
1110.266357 116.0
1110.346069 208.0
1110.598145 84.0
1110.790527 124.0
1110.851074 92.0
1110.956299 80.0
1111.088989 156.0
1111.314575 28.0
1111.646362 88.0
1112.157349 164.0
1112.283569 104.0
1112.509155 92.0
1112.980591 280.0
1113.140015 156.0
1113.239624 152.0
1113.286011 116.0
1113.345825 84.0
1113.68457 112.0
1113.996704 76.0
1114.23584 180.0
1114.328857 124.0
1114.75415 192.0
1115.178589 140.0
1115.425415 144.0
1115.791016 104.0
1116.070312 144.0
1116.415405 120.0
1116.56897 112.0
1116.648804 80.0
1117.097168 160.0
1117.200928 88.0
1117.453735 132.0
1117.546875 144.0
1117.600098 64.0
1117.833008 176.0
1117.896118 116.0
1118.045898 168.0
1118.192383 192.0
1118.299561 120.0
1118.432007 48.0
1118.518555 64.0
1118.618408 104.0
1118.851318 60.0
1119.237549 172.0
1119.375732 112.0
1119.650391 124.0
1119.970093 120.0
1120.016724 152.0
1120.071411 172.0
1120.649536 104.0
1121.349243 152.0
1121.622559 144.0
1121.682495 196.0
1122.249146 200.0
1122.542603 64.0
1122.615967 344.0
1122.88269 32.0
1123.076172 104.0
1123.209473 128.0
1123.682861 76.0
1124.063477 148.0
1124.183594 76.0
1124.550659 148.0
1124.644043 156.0
1124.971191 80.0
1125.078003 212.0
1125.44519 168.0
1125.540283 168.0
1125.638794 160.0
1125.805298 124.0
1125.986084 116.0
1126.253296 76.0
1126.300049 112.0
1126.447021 204.0
1126.573853 124.0
1126.814331 148.0
1126.961426 40.0
1127.081665 76.0
1127.161865 88.0
1127.208618 108.0
1127.389038 160.0
1127.449219 168.0
1127.649658 156.0
1127.963867 128.0
1128.231201 200.0
1128.518677 224.0
1129.198975 136.0
1129.454956 132.0
1129.675659 156.0
1129.755981 96.0
1129.802734 124.0
1129.976685 120.0
1130.137329 148.0
1130.244385 164.0
1130.29126 72.0
1130.422119 176.0
1130.518677 140.0
1130.594604 204.0
1130.73291 172.0
1130.873413 60.0
1130.947021 176.0
1131.269897 120.0
1131.904419 68.0
1132.051758 208.0
1132.252563 132.0
1132.406616 168.0
1132.606689 120.0
1132.629272 104.0
1132.649658 144.0
1132.721436 116.0
1132.821899 160.0
1133.398071 172.0
1133.445068 204.0
1133.565674 156.0
1133.666138 136.0
1133.974487 96.0
1134.088379 72.0
1134.175537 156.0
1134.778809 156.0
1135.241577 96.0
1135.624146 180.0
1135.771362 72.0
1136.012817 96.0
1136.220825 160.0
1136.314697 128.0
1136.49585 152.0
1136.556274 116.0
1137.099854 128.0
1137.44397 200.0
1137.75769 116.0
1138.032959 172.0
1138.082397 120.0
1138.152466 216.0
1138.375366 116.0
1138.573975 208.0
1138.724609 124.0
1138.858887 108.0
1138.993286 152.0
1139.14563 176.0
1139.295532 140.0
1139.40979 156.0
1139.540283 168.0
1139.607666 256.0
1139.720459 116.0
1140.074951 88.0
1140.189209 132.0
1140.581665 64.0
1140.905762 192.0
1140.962158 64.0
1141.338745 152.0
1141.459717 136.0
1141.587524 108.0
1141.641357 52.0
1141.86084 200.0
1141.999878 192.0
1142.293701 84.0
1142.754272 184.0
1142.879028 152.0
1143.161621 104.0
1143.686523 156.0
1143.820068 100.0
1143.949097 148.0
1144.380005 132.0
1144.440552 120.0
1144.501099 92.0
1144.675903 140.0
1144.932129 136.0
1145.046631 80.0
1145.573853 164.0
1145.775391 168.0
1146.171631 72.0
1146.259277 148.0
1146.697266 196.0
1146.946655 144.0
1146.998901 176.0
1147.256714 84.0
1147.337646 120.0
1147.587036 192.0
1147.647705 112.0
1147.721924 132.0
1147.944458 144.0
1147.998413 128.0
1148.065796 152.0
1148.645874 144.0
1149.138306 52.0
1149.229492 204.0
1149.355713 148.0
1149.412109 264.0
1149.549927 120.0
1149.657959 176.0
1149.790894 120.0
1149.873901 160.0
1149.981812 204.0
1150.029053 172.0
1150.157349 140.0
1150.49707 172.0
1150.629883 104.0
1150.737915 128.0
1150.859497 212.0
1151.332153 136.0
1151.53125 164.0
1151.690063 56.0
1151.838623 168.0
1151.8927 136.0
1152.122437 132.0
1152.230469 96.0
1152.548096 128.0
1152.664795 188.0
1152.825073 116.0
1153.10437 236.0
1153.332031 116.0
1153.440186 152.0
1153.744385 88.0
1153.818726 120.0
1153.947144 180.0
1154.008057 84.0
1154.291992 40.0
1154.662476 108.0
1154.829712 152.0
1154.880371 128.0
1155.284668 124.0
1155.455322 168.0
1155.550049 144.0
1155.908691 60.0
1156.348511 116.0
1156.490723 128.0
1156.629395 128.0
1156.978027 180.0
1157.075195 148.0
1157.262451 124.0
1157.384277 92.0
1157.494629 192.0
1157.643433 160.0
1157.885376 44.0
1158.034424 176.0
1158.176636 160.0
1158.325684 108.0
1158.421997 176.0
1158.55603 92.0
1158.83374 92.0
1158.935425 84.0
1159.355469 180.0
1159.816406 148.0
1160.19165 152.0
1160.279419 156.0
1160.433228 148.0
1160.562134 112.0
1160.781494 224.0
1160.835327 136.0
1160.968994 152.0
1161.389404 188.0
1161.484375 104.0
1161.905029 64.0
1161.979614 136.0
1162.407104 88.0
1162.474976 120.0
1162.64209 224.0
1163.293457 148.0
1163.63562 172.0
1163.785034 128.0
1163.873291 240.0
1164.022705 120.0
1164.165283 148.0
1164.362183 192.0
1164.533569 156.0
1164.681396 88.0
1164.74939 180.0
1165.088989 104.0
1165.258789 92.0
1165.428711 128.0
1165.483032 140.0
1165.707275 184.0
1165.77417 172.0
1166.196655 156.0
1166.278198 216.0
1166.400513 132.0
1167.087158 148.0
1167.182373 164.0
1167.291138 128.0
1167.352295 100.0
1167.910034 212.0
1167.988281 88.0
1168.080078 184.0
1168.307129 192.0
1168.774048 212.0
1169.029663 136.0
1169.29126 164.0
1169.434082 160.0
1169.495361 172.0
1169.556641 160.0
1169.692749 52.0
1169.774414 172.0
1169.828979 132.0
1170.15564 144.0
1170.312256 64.0
1170.421265 212.0
1170.580322 88.0
1170.754883 84.0
1170.979614 100.0
1171.081787 124.0
1171.190796 96.0
1171.395142 52.0
1171.456421 120.0
1171.742554 176.0
1172.260376 172.0
1172.814209 188.0
1173.173706 172.0
1173.221436 36.0
1173.398682 140.0
1173.580688 76.0
1173.821411 76.0
1173.889648 104.0
1173.944214 124.0
1174.064209 112.0
1174.087402 68.0
1174.10376 112.0
1174.27832 212.0
1174.360962 172.0
1174.70813 80.0
1174.844482 120.0
1174.929199 192.0
1175.034058 132.0
1175.10376 76.0
1175.226562 96.0
1175.322144 100.0
1175.608643 100.0
1175.745117 104.0
1176.134155 144.0
1176.427734 64.0
1176.530151 60.0
1176.687134 152.0
1176.87146 184.0
1176.987549 136.0
1177.115479 200.0
1177.356323 140.0
1177.574829 192.0
1177.682129 188.0
1177.793457 52.0
1177.885742 164.0
1178.165771 196.0
1178.764648 180.0
1179.118896 60.0
1179.228271 228.0
1179.665771 120.0
1179.754761 400.0
1179.822998 144.0
1179.951782 260.0
1180.095337 184.0
1180.452026 60.0
1180.705078 184.0
1180.75293 160.0
1180.810181 204.0
1180.879639 144.0
1180.934448 164.0
1181.040161 308.0
1181.231689 148.0
1181.313721 92.0
1181.46875 160.0
1181.669556 220.0
1181.739258 232.0
1181.806396 160.0
1181.991089 140.0
1182.073242 196.0
1182.333252 60.0
1182.394897 112.0
1182.675415 56.0
1182.812378 132.0
1182.976685 84.0
1183.058838 180.0
1183.168335 112.0
1183.236816 124.0
1183.312134 192.0
1184.090088 248.0
1184.216064 72.0
1185.344849 196.0
1185.471924 140.0
1185.647949 116.0
1185.839844 60.0
1186.127686 40.0
1186.223633 180.0
1186.374512 184.0
1186.573242 172.0
1186.621216 76.0
1186.703491 96.0
1186.833862 92.0
1186.970947 72.0
1187.162964 140.0
1187.341309 64.0
1187.444092 144.0
1187.649902 164.0
1187.773315 160.0
1187.835083 100.0
1187.937988 112.0
1188.113281 132.0
1188.231567 132.0
1188.57605 176.0
1188.980957 184.0
1189.16626 188.0
1189.346924 252.0
1189.489014 124.0
1189.632935 128.0
1189.714844 160.0
1189.978516 108.0
1190.072388 136.0
1190.127319 184.0
1190.326416 52.0
1190.759033 148.0
1190.820923 96.0
1190.933716 316.0
1191.33606 104.0
1191.487183 128.0
1191.617676 116.0
1191.713867 248.0
1191.761963 108.0
1191.851318 108.0
1191.933716 168.0
1192.263672 172.0
1192.476685 84.0
1192.572876 124.0
1192.795654 116.0
1192.930298 156.0
1193.155762 172.0
1193.257935 124.0
1193.459717 172.0
1193.638428 196.0
1193.727905 184.0
1193.776001 156.0
1194.016724 148.0
1194.298706 176.0
1194.546387 144.0
1194.807739 132.0
1194.925049 172.0
1195.020996 120.0
1195.069214 128.0
1195.186157 164.0
1195.351318 160.0
1195.461426 128.0
1195.526367 196.0
1195.591431 164.0
1195.791748 96.0
1195.867432 92.0
1195.967529 204.0
1196.170288 148.0
1196.245972 132.0
1196.365234 124.0
1196.617188 156.0
1196.920776 176.0
1196.982666 204.0
1197.099731 116.0
1197.347656 220.0
1197.464722 92.0
1197.554321 136.0
1197.709473 180.0
1198.015869 136.0
1198.103516 336.0
1198.367188 76.0
1198.442993 148.0
1198.656616 140.0
1198.739258 108.0
1199.334473 252.0
1199.421509 160.0
1199.676636 200.0
1199.83606 92.0
1199.925171 76.0
1200.110962 64.0
1200.186768 68.0
1200.421265 152.0
1200.600586 124.0
1201.073853 136.0
1201.35144 148.0
1201.461914 176.0
1201.849121 120.0
1202.042358 108.0
1202.131958 108.0
1202.228638 36.0
1202.6427 128.0
1202.713379 184.0
1202.801514 108.0
1202.912964 180.0
1203.015503 84.0
1203.198608 156.0
1203.298462 184.0
1203.415894 148.0
1204.009766 112.0
1204.213379 84.0
1204.403442 168.0
1204.486328 188.0
1204.942261 136.0
1205.066406 152.0
1205.2146 236.0
1205.439697 264.0
1205.488159 132.0
1205.577881 144.0
1205.88208 120.0
1205.990112 112.0
1206.096313 136.0
1206.203125 92.0
1206.428101 120.0
1206.550903 132.0
1206.683838 68.0
1206.835938 152.0
1206.967407 72.0
1207.063965 108.0
1207.210327 152.0
1207.31311 128.0
1207.441528 132.0
1207.584595 156.0
1207.776489 204.0
1207.984009 156.0
1208.572021 116.0
1208.717407 76.0
1208.835449 204.0
1209.001099 120.0
1209.056519 120.0
1209.672485 188.0
1209.817871 156.0
1209.907837 224.0
1210.155762 112.0
1210.212524 88.0
1210.416992 136.0
1210.593384 164.0
1210.641846 132.0
1210.752563 160.0
1211.048218 100.0
1211.125977 124.0
1211.267456 136.0
1211.479858 64.0
1211.791626 144.0
1211.957886 120.0
1212.153687 108.0
1212.491455 148.0
1212.546387 148.0
1212.804688 156.0
1213.004395 64.0
1213.260864 132.0
1213.3302 136.0
1213.508423 180.0
1213.891846 80.0
1214.037476 92.0
1214.378174 92.0
1214.677612 152.0
1214.831909 92.0
1214.966919 196.0
1215.188965 156.0
1215.334595 96.0
1215.397095 128.0
1215.508057 60.0
1215.573608 208.0
1215.681519 140.0
1215.889771 188.0
1215.988403 76.0
1216.125732 76.0
1216.278442 108.0
1216.395508 140.0
1216.439087 240.0
1216.514404 192.0
1216.857178 188.0
1216.972656 152.0
1217.02124 76.0
1217.125366 108.0
1217.312866 120.0
1217.414673 116.0
1217.456543 244.0
1217.639282 132.0
1217.717773 188.0
1217.83374 48.0
1217.903198 40.0
1218.198975 144.0
1218.285278 48.0
1218.388916 92.0
1218.406982 84.0
1218.430542 136.0
1218.577026 108.0
1218.745972 152.0
1218.868896 172.0
1218.973145 92.0
1219.129761 244.0
1219.341431 100.0
1219.438721 112.0
1219.598633 56.0
1219.730713 192.0
1219.786255 144.0
1219.953125 176.0
1220.029541 56.0
1220.154663 144.0
1220.242432 156.0
1220.384155 140.0
1220.439819 112.0
1220.502319 188.0
1220.585815 116.0
1220.662231 68.0
1220.884766 64.0
1220.955322 112.0
1221.005493 196.0
1221.047485 112.0
1221.107422 120.0
1221.404663 144.0
1221.556641 100.0
1221.608154 176.0
1221.677734 108.0
1221.878296 200.0
1221.894775 164.0
1221.91626 232.0
1222.157837 164.0
1222.235474 100.0
1222.303955 92.0
1222.388062 140.0
1222.88147 92.0
1223.041626 136.0
1223.508057 48.0
1223.627319 120.0
1223.76123 128.0
1224.211182 132.0
1224.461914 100.0
1224.761475 216.0
1224.949585 200.0
1224.998291 72.0
1225.130615 132.0
1225.208374 128.0
1225.283936 80.0
1225.332642 168.0
1225.4375 116.0
1225.52771 140.0
1225.582397 128.0
1225.653198 144.0
1225.743774 112.0
1226.08313 164.0
1226.266479 104.0
1226.364014 76.0
1226.453125 176.0
1226.635864 144.0
1226.733398 180.0
1226.921631 80.0
1226.998413 164.0
1227.054077 100.0
1227.144775 44.0
1227.262085 144.0
1227.339966 100.0
1227.409668 196.0
1227.477173 156.0
1227.664673 204.0
1227.768066 132.0
1227.848999 212.0
1227.946655 180.0
1228.009521 204.0
1228.372192 60.0
1228.532593 104.0
1228.630249 140.0
1228.867432 72.0
1228.916382 64.0
1228.975342 176.0
1229.425659 168.0
1229.615112 116.0
1229.68396 48.0
1229.782227 140.0
1229.907227 72.0
1229.984009 72.0
1230.032959 156.0
1230.109741 120.0
1230.263306 124.0
1230.347046 156.0
1230.50769 88.0
1230.619751 180.0
1230.714233 224.0
1230.807861 196.0
1230.912598 136.0
1231.003418 192.0
1231.205933 120.0
1231.527954 180.0
1231.652954 160.0
1232.141846 228.0
1232.269897 196.0
1232.64502 332.0
1232.854614 120.0
1233.343872 132.0
1233.578003 176.0
1233.952026 204.0
1234.063843 112.0
1234.119873 48.0
1234.210693 120.0
1234.28064 92.0
1234.360962 132.0
1234.43103 88.0
1234.552246 160.0
1234.637329 112.0
1234.686279 176.0
1234.763184 188.0
1234.854126 112.0
1235.098877 136.0
1235.154785 92.0
1235.25415 180.0
1235.459229 220.0
1235.624878 184.0
1235.749512 124.0
1235.868408 120.0
1236.008301 112.0
1236.085327 104.0
1236.260254 112.0
1236.344238 144.0
1236.393188 108.0
1236.491211 108.0
1236.572266 40.0
1236.645142 120.0
1236.750122 60.0
1237.191162 176.0
1237.34082 148.0
1237.387207 232.0
1237.499268 216.0
1237.59729 176.0
1237.723267 176.0
1237.779297 200.0
1238.157471 164.0
1238.33252 40.0
1238.542725 128.0
1238.640747 224.0
1238.7948 92.0
1238.843872 108.0
1238.955933 84.0
1239.068115 136.0
1239.138062 96.0
1239.257202 40.0
1239.327271 80.0
1239.444214 176.0
1239.656616 116.0
1239.880859 100.0
1239.93689 172.0
1240.038574 132.0
1240.252319 116.0
1240.37854 80.0
1240.455566 132.0
1240.581787 164.0
1240.635742 156.0
1240.75708 108.0
1240.925293 136.0
1241.009399 60.0
1241.058594 188.0
1241.184692 200.0
1241.237427 108.0
1241.430176 184.0
1241.530518 92.0
1241.756714 184.0
1241.818237 96.0
1241.914062 48.0
1241.977173 252.0
1242.033325 148.0
1242.797974 144.0
1242.980469 156.0
1243.035889 204.0
1243.092773 132.0
1243.324341 100.0
1243.429565 100.0
1243.619019 176.0
1244.124512 132.0
1244.44043 108.0
1244.573853 112.0
1244.651001 200.0
1244.74939 60.0
1244.826538 152.0
1245.05127 88.0
1245.537354 156.0
1245.680054 84.0
1245.809937 168.0
1245.890015 124.0
1245.950439 80.0
1246.02771 108.0
1246.175171 132.0
1246.379028 156.0
1246.744385 128.0
1246.793579 104.0
1247.123901 124.0
1247.215332 144.0
1247.714966 140.0
1247.876099 48.0
1248.0448 156.0
1248.227661 168.0
1248.361206 168.0
1248.438599 140.0
1248.635742 132.0
1248.734009 176.0
1248.888672 116.0
1249.036499 248.0
1249.099731 100.0
1249.198242 80.0
1249.296753 152.0
1249.381104 128.0
1249.500732 136.0
1249.626465 188.0
1249.937012 200.0
1250.049561 120.0
1250.239502 76.0
1250.384399 132.0
1250.48584 120.0
1250.760376 140.0
1250.880005 172.0
1250.950439 68.0
1251.196777 124.0
1251.376709 160.0
1251.5 128.0
1251.731934 152.0
1251.846802 240.0
1251.914185 132.0
1251.926392 116.0
1252.052124 172.0
1252.598267 300.0
1252.79541 76.0
1252.844727 176.0
1252.929321 148.0
1253.170776 160.0
1253.468994 116.0
1253.591675 92.0
1253.802979 140.0
1254.000366 68.0
1254.101685 380.0
1254.338745 112.0
1254.40918 84.0
1254.472656 104.0
1254.634766 132.0
1254.688477 104.0
1254.740479 112.0
1254.916748 172.0
1255.078979 96.0
1255.135376 80.0
1255.318726 36.0
1255.383301 356.0
1255.523193 92.0
1255.621948 120.0
1255.748901 160.0
1255.918213 188.0
1256.122681 92.0
1256.235596 208.0
1256.397827 176.0
1256.505737 120.0
1256.640137 128.0
1256.877563 288.0
1257.138672 124.0
1257.512451 124.0
1257.667969 88.0
1257.766846 64.0
1257.915039 132.0
1258.003052 148.0
1258.055298 128.0
1258.204468 116.0
1258.324585 172.0
1258.41626 120.0
1258.500977 112.0
1258.69873 84.0
1258.804688 92.0
1258.875244 232.0
1258.939209 168.0
1259.0448 220.0
1259.143677 120.0
1259.348511 124.0
1259.67334 212.0
1259.758179 240.0
1259.963013 120.0
1260.09021 184.0
1260.365112 128.0
1260.48584 148.0
1260.550659 300.0
1260.671509 168.0
1260.988159 152.0
1261.086548 164.0
1261.249146 176.0
1261.310425 148.0
1261.376343 100.0
1261.6521 136.0
1261.793457 160.0
1262.132812 168.0
1262.292725 172.0
1262.649048 88.0
1262.776367 76.0
1263.031006 200.0
1263.243164 140.0
1263.328125 136.0
1263.412964 156.0
1263.490845 380.0
1263.643433 168.0
1263.782471 124.0
1263.886963 80.0
1264.233765 68.0
1264.346924 128.0
1264.476196 200.0
1264.573486 188.0
1264.630127 240.0
1264.679565 172.0
1264.785767 92.0
1264.863647 144.0
1265.026489 120.0
1265.238892 156.0
1265.28833 96.0
1265.500732 236.0
1265.580688 184.0
1265.768433 140.0
1266.119751 392.0
1266.180542 132.0
1266.262939 144.0
1266.364746 120.0
1266.435547 132.0
1266.548828 144.0
1266.697632 128.0
1266.761353 136.0
1267.053345 184.0
1267.115601 68.0
1267.450195 104.0
1267.47876 140.0
1267.611572 80.0
1267.70166 180.0
1268.101929 156.0
1268.217529 148.0
1268.426636 244.0
1268.871216 104.0
1268.937012 192.0
1269.199341 84.0
1269.303345 152.0
1269.561035 132.0
1269.695801 100.0
1269.773804 132.0
1270.000732 132.0
1270.099365 176.0
1270.232788 228.0
1270.334106 112.0
1270.568237 112.0
1270.880371 104.0
1270.951416 88.0
1271.015259 260.0
1271.128784 68.0
1271.299072 108.0
1271.436279 520.0
1271.522949 148.0
1271.568726 208.0
1271.661011 40.0
1271.781616 180.0
1272.035645 184.0
1272.221802 208.0
1272.352539 160.0
1272.735107 140.0
1272.832397 96.0
1273.009888 84.0
1273.37915 128.0
1273.489014 108.0
1273.68457 104.0
1273.940308 140.0
1274.153442 40.0
1274.24585 208.0
1274.454834 108.0
1274.587891 160.0
1275.045288 204.0
1275.189209 168.0
1275.316406 268.0
1275.411255 124.0
1275.549316 92.0
1275.930176 88.0
1276.274902 172.0
1276.477661 144.0
1276.71228 96.0
1276.826172 32.0
1276.947266 148.0
1277.025269 48.0
1277.096436 124.0
1277.146118 144.0
1277.217285 220.0
1277.354736 204.0
1277.416504 188.0
1277.537354 284.0
1277.651245 128.0
1277.978516 76.0
1278.092285 372.0
1278.272095 124.0
1278.500488 132.0
1278.661621 84.0
1278.832397 80.0
1278.981934 180.0
1279.053101 108.0
1279.159912 64.0
1279.252441 136.0
1279.323608 116.0
1279.822021 84.0
1279.890015 192.0
1280.064087 160.0
1280.113892 144.0
1280.227905 104.0
1280.370239 64.0
1280.455688 128.0
1280.605347 152.0
1280.665527 188.0
1280.867065 240.0
1280.884399 180.0
1281.096802 152.0
1281.210815 248.0
1281.292847 132.0
1281.388916 120.0
1281.701538 180.0
1281.866333 124.0
1282.148315 192.0
1282.244019 108.0
1282.362671 348.0
1282.472046 148.0
1282.66748 188.0
1282.771484 200.0
1283.096191 124.0
1283.188721 192.0
1283.298218 148.0
1283.32666 132.0
1283.568604 252.0
1283.585327 204.0
1283.962158 132.0
1284.168945 144.0
1284.283081 92.0
1284.382935 60.0
1284.520386 120.0
1284.794922 220.0
1284.852905 132.0
1285.004639 56.0
1285.237793 232.0
1285.338989 152.0
1285.388916 60.0
1285.704956 108.0
1285.824219 84.0
1285.969849 344.0
1286.134521 356.0
1286.225952 240.0
1286.380981 112.0
1286.435791 100.0
1286.576416 240.0
1286.89502 224.0
1286.976929 152.0
1287.207153 236.0
1287.266235 56.0
1287.509033 280.0
1287.68042 156.0
1287.780518 96.0
1287.837646 108.0
1287.951904 216.0
1288.094727 248.0
1288.18042 148.0
1288.41626 72.0
1288.516235 128.0
1288.580566 200.0
1288.716309 172.0
1288.824219 152.0
1288.973511 40.0
1289.119019 184.0
1289.276001 132.0
1289.395142 68.0
1289.483154 140.0
1289.573853 104.0
1289.732056 132.0
1289.966919 92.0
1290.131348 48.0
1290.231445 216.0
1290.381592 156.0
1290.574585 108.0
1290.681885 124.0
1290.7677 60.0
1290.839233 88.0
1291.024902 156.0
1291.182495 120.0
1291.332642 108.0
1291.411255 56.0
1291.625854 140.0
1291.733154 204.0
1291.962158 148.0
1292.169556 164.0
1292.262573 44.0
1292.369873 104.0
1292.491577 128.0
1292.646729 132.0
1292.77063 100.0
1292.874146 204.0
1293.121338 152.0
1293.304932 120.0
1293.609009 88.0
1293.825928 164.0
1293.980591 152.0
1294.094849 152.0
1294.202271 100.0
1294.560303 112.0
1294.64624 116.0
1294.717773 128.0
1294.918335 68.0
1294.968506 84.0
1295.169067 48.0
1295.247803 348.0
1295.534424 144.0
1295.820923 80.0
1295.898926 184.0
1295.978516 120.0
1296.035889 188.0
1296.114746 228.0
1296.311523 124.0
1296.415649 144.0
1296.501709 104.0
1296.632446 164.0
1296.776489 128.0
1296.838501 164.0
1297.164185 148.0
1297.533813 116.0
1297.605469 112.0
1297.731812 124.0
1297.882446 180.0
1297.938599 124.0
1298.042847 180.0
1298.093018 164.0
1298.196655 84.0
1298.359985 228.0
1298.408691 140.0
1298.501831 64.0
1298.688354 124.0
1299.061401 212.0
1299.140259 172.0
1299.283691 132.0
1299.346436 212.0
1299.452881 356.0
1299.78772 100.0
1299.986938 192.0
1300.037109 216.0
1300.118652 160.0
1300.243042 188.0
1300.318848 160.0
1300.439087 60.0
1300.58252 128.0
1300.647217 320.0
1300.762085 132.0
1300.812256 100.0
1301.092651 148.0
1301.350708 112.0
1301.451172 128.0
1301.731323 192.0
1301.77771 148.0
1301.88208 188.0
1302.097534 68.0
1302.212402 96.0
1302.273315 112.0
1302.442261 104.0
1302.557251 136.0
1302.648315 176.0
1302.866089 88.0
1303.165039 184.0
1303.33313 112.0
1303.395142 200.0
1303.598999 32.0
1303.685181 128.0
1303.94397 168.0
1304.331665 88.0
1304.447021 84.0
1304.820923 120.0
1304.893188 76.0
1305.015015 92.0
1305.179565 136.0
1305.439209 184.0
1305.58313 168.0
1305.683716 140.0
1305.786743 152.0
1306.11377 116.0
1306.374268 128.0
1306.446167 132.0
1306.518555 128.0
1306.708374 144.0
1306.791504 172.0
1306.935425 180.0
1307.079346 176.0
1307.129761 44.0
1307.211792 164.0
1307.316772 148.0
1307.424805 36.0
1307.554321 352.0
1307.741455 148.0
1307.935791 148.0
1308.036499 100.0
1308.343384 160.0
1308.434204 180.0
1308.684448 144.0
1308.820435 144.0
1308.936523 152.0
1309.008423 156.0
1309.421387 140.0
1309.473999 132.0
1309.53418 148.0
1309.671021 52.0
1309.739746 96.0
1309.886597 156.0
1309.966431 68.0
1310.069092 176.0
1310.124878 80.0
1310.240112 120.0
1310.405884 152.0
1310.557129 128.0
1310.621948 92.0
1310.946289 140.0
1311.003906 40.0
1311.097534 92.0
1311.284912 120.0
1311.753418 120.0
1311.825562 156.0
1311.914795 160.0
1312.085083 168.0
1312.229248 108.0
1312.359009 76.0
1312.496094 72.0
1312.560913 172.0
1312.832642 240.0
1313.007568 132.0
1313.144043 204.0
1313.290771 160.0
1313.498535 52.0
1313.606689 220.0
1313.765381 44.0
1313.924072 152.0
1314.010742 168.0
1314.219971 68.0
1314.335327 132.0
1314.67041 168.0
1314.91272 140.0
1314.977661 116.0
1315.386719 176.0
1315.580078 88.0
1315.695679 160.0
1315.786133 88.0
1315.952148 128.0
1316.060425 140.0
1316.313232 104.0
1316.407104 108.0
1316.460571 148.0
1316.739258 196.0
1316.901489 184.0
1316.933716 156.0
1317.009766 168.0
1317.08728 188.0
1317.187134 116.0
1317.353271 64.0
1317.617065 108.0
1317.699951 128.0
1317.909546 360.0
1318.017334 168.0
1318.104614 196.0
1318.288086 212.0
1318.371948 312.0
1318.42981 140.0
1318.480347 120.0
1318.533813 172.0
1318.723999 164.0
1318.841797 152.0
1318.986328 92.0
1319.080322 36.0
1319.216553 156.0
1319.35498 168.0
1319.694824 216.0
1319.76709 136.0
1319.832153 92.0
1320.075806 128.0
1320.131104 48.0
1320.2771 144.0
1320.591553 40.0
1320.772339 52.0
1321.228027 116.0
1321.413208 136.0
1321.475098 132.0
1321.539185 100.0
1321.686035 108.0
1321.799683 160.0
1321.879272 80.0
1322.016724 64.0
1322.161499 100.0
1322.364136 104.0
1322.420288 276.0
1322.504272 108.0
1322.692505 196.0
1322.755005 72.0
1322.847046 156.0
1322.97937 164.0
1323.102417 216.0
1323.203857 56.0
1323.304077 176.0
1323.399292 160.0
1323.529663 100.0
1323.609253 132.0
1323.739624 40.0
1323.831177 216.0
1324.023438 140.0
1324.23938 188.0
1324.297241 168.0
1324.494141 112.0
1324.630493 168.0
1324.806519 212.0
1324.92749 184.0
1324.978149 188.0
1325.318726 92.0
1325.543335 192.0
1325.619141 144.0
1325.706787 168.0
1325.818726 128.0
1326.198364 196.0
1326.318848 304.0
1326.369507 160.0
1326.619873 112.0
1326.880981 168.0
1327.246704 64.0
1327.463623 140.0
1327.520386 124.0
1327.656738 132.0
1327.710815 320.0
1327.80249 168.0
1327.843384 148.0
1327.938721 180.0
1327.969604 76.0
1327.990112 156.0
1328.10083 136.0
1328.182251 168.0
1328.251221 112.0
1328.523193 132.0
1328.63208 84.0
1328.719116 96.0
1328.922241 72.0
1329.035889 212.0
1329.147217 184.0
1329.255005 144.0
1329.423462 116.0
1329.640625 148.0
1329.734985 112.0
1329.916382 236.0
1330.139038 192.0
1330.211914 140.0
1330.351929 176.0
1330.401978 152.0
1330.489868 84.0
1330.55835 292.0
1330.692749 188.0
1330.81665 208.0
1330.969116 148.0
1331.127075 152.0
1331.230469 40.0
1331.295898 112.0
1331.476929 116.0
1331.657227 136.0
1331.804199 176.0
1331.895874 124.0
1331.963989 96.0
1332.036743 220.0
1332.089111 144.0
1332.198486 172.0
1332.385376 80.0
1332.443481 108.0
1332.559692 104.0
1332.802734 64.0
1333.046631 156.0
1333.546753 132.0
1333.620728 132.0
1333.727539 200.0
1333.954102 156.0
1334.151367 108.0
1334.213013 120.0
1334.391235 144.0
1334.55127 152.0
1334.641357 220.0
1334.78479 160.0
1334.888916 172.0
1334.9729 124.0
1335.082031 160.0
1335.180542 200.0
1335.322021 140.0
1335.423828 68.0
1335.714844 100.0
1335.845703 44.0
1335.94519 184.0
1335.973389 124.0
1335.993774 152.0
1336.405884 84.0
1336.522339 156.0
1336.602417 148.0
1336.740601 76.0
1336.813354 168.0
1337.031738 80.0
1337.133667 88.0
1337.256958 156.0
1337.320068 144.0
1337.456787 172.0
1337.51416 180.0
1337.567017 116.0
1337.672241 68.0
1337.781372 76.0
1337.848389 84.0
1337.928955 192.0
1338.156006 64.0
1338.596924 140.0
1338.686279 260.0
1338.731079 128.0
1338.800781 80.0
1338.940918 180.0
1339.003174 180.0
1339.055664 84.0
1339.237793 60.0
1339.376099 100.0
1339.445068 104.0
1339.594727 112.0
1339.864258 140.0
1340.017212 152.0
1340.082764 140.0
1340.257446 128.0
1340.352417 132.0
1340.476318 116.0
1340.680298 152.0
1340.731323 160.0
1340.789673 60.0
1340.874756 140.0
1341.022827 68.0
1341.146729 204.0
1341.343506 180.0
1341.540405 128.0
1341.801392 120.0
1341.985107 132.0
1342.057983 84.0
1342.294922 112.0
1342.502808 128.0
1342.561157 84.0
1342.8479 164.0
1342.903931 92.0
1343.035889 172.0
1343.115479 212.0
1343.227539 144.0
1343.341553 96.0
1343.396973 180.0
1343.439209 172.0
1343.509399 144.0
1343.602295 92.0
1343.658203 80.0
1343.72937 124.0
1343.837646 160.0
1344.063843 144.0
1344.209839 180.0
1344.457886 152.0
1344.509033 72.0
1344.577881 128.0
1344.702148 180.0
1344.873901 80.0
1344.92981 172.0
1345.116577 168.0
1345.209717 132.0
1345.574707 96.0
1345.625854 228.0
1345.696655 136.0
1345.786377 228.0
1346.009277 168.0
1346.085083 124.0
1346.326782 204.0
1346.407104 44.0
1346.538574 180.0
1346.648193 136.0
1347.069824 204.0
1347.283691 120.0
1347.365845 180.0
1347.590454 176.0
1347.736572 156.0
1347.795044 132.0
1347.8479 108.0
1347.991699 192.0
1348.51123 160.0
1348.591675 156.0
1349.066772 152.0
1349.424927 64.0
1349.490845 196.0
1349.699341 124.0
1349.783203 72.0
1349.951416 128.0
1350.053833 176.0
1350.10498 136.0
1350.200073 180.0
1350.265869 132.0
1350.580444 124.0
1350.668213 168.0
1350.956665 140.0
1351.299927 124.0
1351.575317 280.0
1351.758301 112.0
1351.941284 156.0
1352.051025 40.0
1352.175415 52.0
1352.373047 52.0
1352.724365 68.0
1353.075806 104.0
1353.185547 196.0
1353.236816 192.0
1353.324707 140.0
1353.421631 136.0
1353.654175 32.0
1353.779053 176.0
1353.910522 40.0
1354.081787 100.0
1354.144897 92.0
1354.262085 216.0
1354.351318 148.0
1354.606323 120.0
1354.731812 160.0
1354.82605 52.0
1354.936035 124.0
1355.080688 136.0
1355.22168 132.0
1355.412231 156.0
1355.776978 168.0
1355.859253 156.0
1355.950684 168.0
1356.071045 116.0
1356.592163 104.0
1356.650879 136.0
1356.75354 212.0
1356.812134 164.0
1356.871704 100.0
1356.942383 84.0
1357.068726 240.0
1357.178711 104.0
1357.239014 200.0
1357.347412 80.0
1357.398682 344.0
1357.77832 204.0
1357.88269 120.0
1357.996826 148.0
1358.080688 112.0
1358.139404 136.0
1358.234741 124.0
1358.472168 164.0
1358.540283 164.0
1358.629395 204.0
1358.815063 204.0
1358.873047 160.0
1358.953735 140.0
1359.210571 152.0
1359.295898 176.0
1359.541748 164.0
1359.604492 116.0
1359.839966 164.0
1360.017822 140.0
1360.132935 176.0
1360.213135 176.0
1360.274658 92.0
1360.384766 204.0
1360.471191 124.0
1360.59082 132.0
1360.797363 172.0
1360.942749 256.0
1361.103516 236.0
1361.26416 84.0
1361.363281 196.0
1361.471436 140.0
1361.530273 136.0
1361.6698 168.0
1361.726929 164.0
1361.860718 312.0
1361.932251 132.0
1362.002563 104.0
1362.095825 196.0
1362.186646 120.0
1362.448364 60.0
1362.573364 212.0
1362.726318 160.0
1362.837769 72.0
1363.006714 188.0
1363.072876 212.0
1363.139038 32.0
1363.251831 92.0
1363.31543 216.0
1363.410889 172.0
1363.491821 40.0
1363.624023 188.0
1363.780151 116.0
1363.895996 172.0
1364.145996 128.0
1364.285645 148.0
1364.367188 164.0
1364.426636 64.0
1364.51355 152.0
1364.572388 128.0
1364.822266 220.0
1364.881104 144.0
1365.066162 156.0
1365.188599 148.0
1365.373779 140.0
1365.609131 128.0
1365.82251 112.0
1365.915894 144.0
1365.980957 248.0
1366.057861 212.0
1366.124146 92.0
1366.227051 76.0
1366.300659 144.0
1366.359497 40.0
1366.433105 124.0
1366.514038 204.0
1366.602295 116.0
1366.74939 52.0
1366.800903 308.0
1367.006958 276.0
1367.271973 124.0
1367.338135 128.0
1367.513184 224.0
1367.618774 180.0
1367.868042 212.0
1368.059448 124.0
1368.111084 200.0
1368.354004 132.0
1368.419312 216.0
1368.538086 240.0
1368.610962 240.0
1368.751587 156.0
1368.84729 224.0
1369.10498 164.0
1369.244995 132.0
1369.532227 144.0
1369.58374 76.0
1369.893188 100.0
1369.951538 120.0
1370.077271 176.0
1370.202515 172.0
1370.305664 144.0
1370.3573 196.0
1370.582764 164.0
1370.733032 156.0
1370.791992 176.0
1370.858276 112.0
1371.232666 132.0
1371.418457 208.0
1371.521606 124.0
1371.619507 160.0
1371.713257 124.0
1371.764893 132.0
1372.072998 100.0
1372.092896 112.0
1372.113403 156.0
1372.270386 124.0
1372.33252 116.0
1372.487427 128.0
1372.604248 196.0
1372.679077 88.0
1372.78125 104.0
1372.800049 176.0
1373.025635 72.0
1373.104126 212.0
1373.239624 240.0
1373.328735 144.0
1373.394409 72.0
1373.658203 388.0
1373.851807 132.0
1374.07312 184.0
1374.375488 156.0
1374.5896 60.0
1374.718384 144.0
1374.884766 312.0
1374.980713 124.0
1375.032349 216.0
1375.120972 168.0
1375.320312 144.0
1375.39856 184.0
1375.615479 68.0
1375.689331 140.0
1375.870605 168.0
1375.98291 120.0
1376.675293 188.0
1376.787354 200.0
1376.855957 152.0
1376.907593 164.0
1377.007568 184.0
1377.231201 72.0
1377.454224 120.0
1377.628174 140.0
1377.734985 164.0
1377.860474 156.0
1377.946655 172.0
1378.04187 112.0
1378.303833 184.0
1378.366089 128.0
1378.515625 176.0
1378.755737 248.0
1378.803833 116.0
1378.917236 84.0
1379.057861 124.0
1379.116699 120.0
1379.271973 112.0
1379.319458 100.0
1379.427246 44.0
1379.479004 132.0
1379.604614 168.0
1379.667603 92.0
1379.782104 176.0
1379.978271 112.0
1380.366211 152.0
1380.432739 164.0
1380.484497 128.0
1380.641113 380.0
1380.716675 128.0
1380.78418 92.0
1380.861694 176.0
1381.094727 136.0
1381.283203 52.0
1381.653076 212.0
1381.823242 180.0
1382.386963 120.0
1382.633911 100.0
1382.74292 112.0
1382.874023 116.0
1382.940674 156.0
1383.050781 160.0
1383.063232 64.0
1383.22168 104.0
1383.365234 184.0
1383.458862 172.0
1383.666138 204.0
1383.740112 48.0
1383.925293 124.0
1384.018311 212.0
1384.132568 72.0
1384.228882 72.0
1384.354736 160.0
1384.710083 200.0
1384.809448 180.0
1384.887939 100.0
1384.969482 144.0
1385.154663 212.0
1385.258301 136.0
1385.636108 172.0
1385.858398 120.0
1385.910278 212.0
1385.969604 284.0
1386.199219 148.0
1386.310425 56.0
1386.369751 148.0
1386.503052 160.0
1386.584595 176.0
1386.774536 192.0
1386.999634 152.0
1387.385132 76.0
1387.56311 124.0
1387.684204 200.0
1387.829956 152.0
1387.966187 216.0
1388.022827 76.0
1388.082275 148.0
1388.218628 108.0
1388.287964 136.0
1388.356445 148.0
1388.415771 204.0
1388.467773 84.0
1388.639282 160.0
1388.816284 52.0
1388.944458 148.0
1389.068481 160.0
1389.268799 100.0
1389.458008 188.0
1389.602661 228.0
1389.724365 108.0
1390.062622 112.0
1390.239746 176.0
1390.258545 164.0
1390.455078 92.0
1390.582153 164.0
1390.708374 156.0
1390.978027 164.0
1391.176025 84.0
1391.235352 64.0
1391.332886 168.0
1391.504272 144.0
1391.565918 276.0
1391.881348 132.0
1392.012207 132.0
1392.118896 148.0
1392.200562 92.0
1392.59082 176.0
1392.965576 28.0
1393.121582 124.0
1393.221924 168.0
1393.314819 148.0
1393.671387 152.0
1393.758301 156.0
1393.833984 188.0
1393.961182 120.0
1394.332764 140.0
1394.429321 112.0
1394.635498 148.0
1394.741577 88.0
1394.815918 84.0
1394.911011 184.0
1394.986816 156.0
1395.150391 216.0
1395.239502 132.0
1395.64856 120.0
1395.7229 160.0
1395.79541 128.0
1395.879028 32.0
1396.012939 140.0
1396.093018 164.0
1396.340088 132.0
1396.399658 108.0
1396.526001 68.0
1396.708984 136.0
1396.838501 76.0
1396.905396 172.0
1396.984375 192.0
1397.060425 96.0
1397.218506 192.0
1397.314575 96.0
1397.53772 144.0
1397.592529 128.0
1397.649414 196.0
1397.859375 88.0
1397.947021 156.0
1398.024536 104.0
1398.053467 148.0
1398.116943 220.0
1398.301514 168.0
1398.512573 32.0
1398.57959 104.0
1398.713623 100.0
1398.78418 164.0
1398.843506 144.0
1398.981567 80.0
1399.085815 176.0
1399.249634 144.0
1399.414429 220.0
1399.599487 108.0
1399.696289 112.0
1399.840942 180.0
1400.217651 204.0
1400.448486 160.0
1400.604858 288.0
1400.917725 44.0
1401.148682 144.0
1401.266113 100.0
1401.403198 80.0
1401.574341 164.0
1401.856567 120.0
1401.908691 128.0
1401.983276 224.0
1402.102539 52.0
1402.287476 140.0
1402.446655 160.0
1402.683838 144.0
1402.758423 132.0
1402.832886 112.0
1402.900024 164.0
1402.969849 228.0
1403.078979 120.0
1403.209351 144.0
1403.3396 216.0
1403.474121 144.0
1403.54126 76.0
1403.593384 156.0
1403.705078 176.0
1403.832031 192.0
1403.891724 100.0
1404.038818 104.0
1404.27002 152.0
1404.540527 140.0
1404.60022 92.0
1404.652466 124.0
1404.763062 136.0
1404.973267 40.0
1405.077637 36.0
1405.18396 144.0
1405.241821 116.0
1405.341797 156.0
1405.495483 116.0
1405.603271 200.0
1405.801392 136.0
1406.099976 128.0
1406.304321 308.0
1406.380127 180.0
1406.479248 160.0
1406.577637 280.0
1406.822998 136.0
1406.935913 88.0
1407.249512 68.0
1407.369019 136.0
1407.424438 192.0
1407.608887 204.0
1407.734863 212.0
1407.914062 192.0
1408.063477 140.0
1408.47937 324.0
1408.571289 104.0
1408.75061 144.0
1408.927856 184.0
1409.055542 128.0
1409.294922 168.0
1409.311157 144.0
1409.339966 172.0
1409.422974 140.0
1409.594849 144.0
1409.647217 72.0
1409.802124 204.0
1409.906128 224.0
1409.994873 224.0
1410.2146 52.0
1410.334717 128.0
1410.436279 212.0
1410.506714 152.0
1410.55896 172.0
1410.605713 128.0
1410.660645 208.0
1410.81311 116.0
1410.900146 136.0
1410.966309 140.0
1411.154907 176.0
1411.321533 172.0
1411.381348 144.0
1411.438843 168.0
1411.523438 152.0
1411.665527 108.0
1411.764893 164.0
1411.972168 80.0
1412.069336 84.0
1412.144165 88.0
1412.413452 184.0
1412.51062 48.0
1412.690186 112.0
1412.767822 84.0
1412.862671 144.0
1412.996948 128.0
1413.171753 100.0
1413.236328 124.0
1413.575684 148.0
1413.685303 44.0
1414.029541 124.0
1414.246582 132.0
1414.779541 20.0
1414.890381 72.0
1415.010132 132.0
1415.099976 120.0
1415.21228 160.0
1415.269897 140.0
1415.354614 140.0
1415.631592 80.0
1415.826294 188.0
1415.923706 184.0
1415.973267 72.0
1416.043579 180.0
1416.200806 88.0
1416.425537 96.0
1416.575317 184.0
1416.66748 208.0
1416.837524 268.0
1416.949951 132.0
1417.097534 160.0
1417.174683 56.0
1417.250977 136.0
1417.429443 108.0
1417.532227 252.0
1417.594238 124.0
1417.751709 96.0
1417.842163 172.0
1418.00647 132.0
1418.073975 212.0
1418.171387 64.0
1418.369751 140.0
1418.42627 160.0
1418.531128 104.0
1418.666138 28.0
1418.876465 160.0
1419.081177 84.0
1419.190918 104.0
1419.326782 124.0
1419.550659 152.0
1419.863159 168.0
1419.948242 192.0
1420.008301 120.0
1420.116577 100.0
1420.248291 176.0
1420.418823 108.0
1420.555542 92.0
1420.698242 172.0
1420.962524 168.0
1421.043457 192.0
1421.125977 148.0
1421.186035 128.0
1421.621216 72.0
1421.682617 204.0
1421.746948 148.0
1421.868896 68.0
1421.955322 156.0
1422.139038 196.0
1422.206665 160.0
1422.296753 216.0
1422.364258 48.0
1422.515259 164.0
1422.725098 264.0
1422.829712 268.0
1422.9198 160.0
1422.979858 52.0
1423.427124 192.0
1423.502197 212.0
1423.858521 196.0
1423.978638 108.0
1424.232422 180.0
1424.474365 40.0
1424.587036 164.0
1424.713135 76.0
1424.787476 112.0
1424.917603 96.0
1425.044189 200.0
1425.187988 116.0
1425.293213 48.0
1425.44165 116.0
1425.548706 132.0
1425.759155 172.0
1425.844849 176.0
1425.89856 176.0
1426.007202 220.0
1426.099487 164.0
1426.374756 88.0
1426.578369 176.0
1426.688477 168.0
1426.773804 132.0
1426.901611 60.0
1427.044556 68.0
1427.157349 160.0
1427.238281 140.0
1427.255615 108.0
1427.282104 148.0
1427.427979 40.0
1427.488159 128.0
1427.691162 96.0
1427.823853 132.0
1427.921509 136.0
1428.01001 196.0
1428.270264 152.0
1428.322998 108.0
1428.510986 188.0
1428.616333 240.0
1428.684082 68.0
1428.820068 148.0
1428.907837 108.0
1429.007568 148.0
1429.103394 120.0
1429.268921 208.0
1429.368774 80.0
1429.554077 140.0
1429.716431 140.0
1429.790161 80.0
1429.886841 208.0
1430.166504 124.0
1430.241699 164.0
1430.324463 232.0
1430.475098 72.0
1430.710815 176.0
1430.74231 56.0
1430.758301 148.0
1430.808716 196.0
1431.107422 100.0
1431.197754 120.0
1431.258057 148.0
1431.393555 276.0
1431.574341 140.0
1431.723145 160.0
1431.815308 56.0
1431.868042 204.0
1431.945923 148.0
1432.192505 204.0
1432.280396 176.0
1432.365601 112.0
1432.545898 116.0
1432.681519 136.0
1432.756836 140.0
1432.911255 172.0
1433.012939 100.0
1433.071777 140.0
1433.215698 84.0
1433.462769 156.0
1433.741699 120.0
1433.864502 148.0
1433.967773 184.0
1434.133789 104.0
1434.2771 212.0
1434.343384 96.0
1434.414673 128.0
1434.486938 172.0
1434.572144 164.0
1434.651489 232.0
1434.70874 108.0
1434.776611 172.0
1434.85498 160.0
1434.955811 128.0
1434.984131 52.0
1435.007812 156.0
1435.123413 108.0
1435.221436 148.0
1435.350342 108.0
1435.463989 300.0
1435.696411 60.0
1435.877197 124.0
1436.240601 160.0
1436.288696 192.0
1436.390381 168.0
1436.50354 84.0
1436.629395 124.0
1436.790161 232.0
1436.955322 144.0
1437.069336 120.0
1437.177734 160.0
1437.28064 188.0
1437.446655 116.0
1437.529663 124.0
1437.682251 176.0
1437.944702 52.0
1438.042847 164.0
1438.167725 244.0
1438.226318 200.0
1438.465454 84.0
1438.571167 180.0
1438.647339 88.0
1438.7146 72.0
1438.94104 168.0
1439.046753 120.0
1439.194214 144.0
1439.300537 116.0
1439.418579 156.0
1439.519043 132.0
1439.658447 100.0
1439.72644 140.0
1439.809448 144.0
1439.960449 72.0
1440.07373 84.0
1440.184937 196.0
1440.300415 116.0
1440.383423 112.0
1440.489258 140.0
1440.567383 212.0
1440.776001 176.0
1440.796387 168.0
1441.154053 100.0
1441.274902 144.0
1441.335449 200.0
1441.387085 172.0
1441.486572 52.0
1441.569702 108.0
1441.630127 112.0
1441.713257 64.0
1441.880615 132.0
1442.053345 84.0
1442.255005 180.0
1442.417969 164.0
1442.525757 144.0
1442.648926 116.0
1442.869751 120.0
1442.968018 172.0
1443.030151 208.0
1443.088989 92.0
1443.156982 168.0
1443.338501 144.0
1443.407104 148.0
1443.48584 116.0
1443.686279 200.0
1443.784668 216.0
1443.928345 104.0
1444.000977 204.0
1444.064453 160.0
1444.140137 140.0
1444.215698 108.0
1444.418457 156.0
1444.589722 144.0
1444.672119 152.0
1444.957031 48.0
1445.025146 60.0
1445.085693 136.0
1445.27478 52.0
1445.426147 64.0
1445.526733 168.0
1445.622925 164.0
1445.683472 96.0
1445.766724 68.0
1445.910522 140.0
1445.971069 172.0
1446.060303 132.0
1446.090942 104.0
1446.259155 196.0
1446.447876 136.0
1446.529907 152.0
1446.730347 168.0
1446.84082 172.0
1446.937012 124.0
1446.9646 76.0
1446.988892 144.0
1447.081665 168.0
1447.175537 136.0
1447.288208 60.0
1447.496948 180.0
1447.719849 124.0
1447.871338 116.0
1448.197021 52.0
1448.424194 176.0
1448.507568 124.0
1448.628784 96.0
1448.709839 192.0
1448.730591 136.0
1448.85791 112.0
1448.939331 128.0
1449.015137 212.0
1449.181763 136.0
1449.469727 84.0
1449.542114 124.0
1449.734985 160.0
1449.866455 252.0
1449.947144 84.0
1450.098755 132.0
1450.257812 184.0
1450.32605 116.0
1450.396118 152.0
1450.454956 272.0
1450.571411 176.0
1450.818848 168.0
1450.924927 180.0
1450.973267 120.0
1451.129639 72.0
1451.265503 108.0
1451.357056 56.0
1451.417725 64.0
1451.724121 168.0
1451.789307 132.0
1451.887939 132.0
1451.948608 48.0
1452.127075 156.0
1452.236816 128.0
1452.426392 172.0
1452.532593 132.0
1452.715088 148.0
1452.851196 156.0
1452.959473 168.0
1453.021484 208.0
1453.101562 168.0
1453.195679 108.0
1453.29126 112.0
1453.427856 368.0
1453.518921 128.0
1453.653687 132.0
1453.708618 92.0
1453.792114 332.0
1454.085693 184.0
1454.16394 140.0
1454.372681 192.0
1454.718018 80.0
1454.843262 156.0
1455.000488 132.0
1455.090088 124.0
1455.150757 116.0
1455.216431 220.0
1455.352051 124.0
1455.37854 64.0
1455.414062 124.0
1455.596802 160.0
1455.608765 188.0
1455.826538 124.0
1455.906616 104.0
1456.10144 224.0
1456.396118 144.0
1456.563232 96.0
1456.679443 224.0
1456.753174 264.0
1456.841919 140.0
1456.897461 104.0
1456.964111 140.0
1457.024292 104.0
1457.193848 176.0
1457.283691 164.0
1457.397461 168.0
1457.57373 248.0
1457.71814 104.0
1457.778931 160.0
1457.84314 108.0
1457.923218 132.0
1458.037231 124.0
1458.096802 164.0
1458.549805 136.0
1458.614868 64.0
1458.690918 216.0
1458.797363 92.0
1458.850586 200.0
1458.979736 124.0
1459.040649 140.0
1459.180176 204.0
1459.372803 128.0
1459.473999 60.0
1459.53479 120.0
1459.693359 132.0
1459.824951 104.0
1460.095825 160.0
1460.553833 76.0
1460.728882 112.0
1460.842896 192.0
1460.942383 160.0
1461.017944 172.0
1461.101562 148.0
1461.177734 176.0
1461.230957 164.0
1461.314453 184.0
1461.466797 176.0
1461.725464 176.0
1462.079346 312.0
1462.243042 52.0
1462.520142 68.0
1462.737671 100.0
1462.890015 116.0
1463.025757 76.0
1463.148804 212.0
1463.220337 160.0
1463.306396 236.0
1463.474854 132.0
1463.502686 108.0
1463.613281 72.0
1463.757935 156.0
1463.834106 180.0
1463.90979 136.0
1463.971191 128.0
1464.123413 64.0
1464.184326 136.0
1464.345947 168.0
1464.443359 172.0
1464.530029 208.0
1464.656616 164.0
1464.755615 76.0
1464.953735 120.0
1465.204712 144.0
1465.234253 136.0
1465.327026 68.0
1465.380249 188.0
1465.448853 220.0
1465.517456 132.0
1465.578369 48.0
1465.829834 152.0
1465.898438 264.0
1466.043213 92.0
1466.127075 160.0
1466.276978 136.0
1466.38623 216.0
1466.675781 156.0
1466.760132 124.0
1466.933594 184.0
1467.073853 108.0
1467.163696 176.0
1467.560181 128.0
1467.636353 144.0
1467.712646 204.0
1467.78125 148.0
1467.966919 164.0
1468.07605 92.0
1468.269287 196.0
1468.368408 184.0
1468.467651 340.0
1468.551514 168.0
1468.644897 164.0
1468.724365 120.0
1468.83374 156.0
1469.016113 208.0
1469.13501 112.0
1469.234375 84.0
1469.32959 92.0
1469.588989 200.0
1469.680542 104.0
1469.753906 208.0
1470.091919 176.0
1470.252808 352.0
1470.405518 108.0
1470.49707 136.0
1470.588623 60.0
1470.689941 384.0
1470.78833 220.0
1470.89563 128.0
1470.970337 136.0
1471.217529 260.0
1471.346069 124.0
1471.41687 164.0
1471.519897 168.0
1471.588623 356.0
1471.710815 164.0
1471.779541 52.0
1472.113525 108.0
1472.156738 132.0
1472.352295 120.0
1472.405762 92.0
1472.466797 164.0
1472.676025 132.0
1472.793823 64.0
1472.878906 96.0
1472.947998 152.0
1473.018677 148.0
1473.322388 100.0
1473.43689 200.0
1473.62793 84.0
1473.814453 56.0
1473.90332 100.0
1474.109253 160.0
1474.255127 96.0
1474.391846 132.0
1474.651855 192.0
1474.856323 140.0
1475.079956 60.0
1475.179321 88.0
1475.324585 144.0
1475.404175 168.0
1475.661011 80.0
1475.737427 92.0
1476.180664 144.0
1476.37085 160.0
1476.471558 80.0
1476.693359 124.0
1476.92041 116.0
1477.152222 88.0
1477.205811 148.0
1477.320557 116.0
1477.505737 168.0
1477.597778 116.0
1477.810181 136.0
1477.951782 196.0
1478.083374 132.0
1478.289917 108.0
1478.361084 184.0
1478.412109 132.0
1478.590698 124.0
1478.644287 132.0
1478.705444 112.0
1478.809082 384.0
1478.9198 128.0
1479.325439 232.0
1479.401978 144.0
1479.499634 188.0
1479.75415 208.0
1479.876709 108.0
1480.098389 148.0
1480.369263 124.0
1480.443359 224.0
1480.496948 68.0
1480.643188 136.0
1480.790771 336.0
1480.902832 108.0
1480.979492 160.0
1481.171753 160.0
1481.232178 220.0
1481.400757 72.0
1481.477173 148.0
1481.707153 128.0
1481.806763 100.0
1481.906372 72.0
1482.020752 156.0
1482.224854 124.0
1482.396729 88.0
1482.511719 136.0
1482.641968 108.0
1482.741577 124.0
1482.869995 188.0
1482.963867 52.0
1483.127319 184.0
1483.215698 84.0
1483.293457 200.0
1483.359985 156.0
1483.538818 148.0
1483.69519 212.0
1483.846436 148.0
1483.933105 164.0
1484.200439 180.0
1484.295532 96.0
1484.397461 184.0
1484.447998 216.0
1484.543213 44.0
1484.63147 180.0
1484.692871 172.0
1484.814819 204.0
1484.995483 160.0
1485.25647 120.0
1485.363892 172.0
1485.685547 184.0
1485.707275 172.0
1485.808716 100.0
1485.877808 216.0
1486.019653 108.0
1486.125122 204.0
1486.238403 124.0
1486.338135 68.0
1486.714478 120.0
1486.844604 152.0
1486.913696 172.0
1487.005859 84.0
1487.15979 120.0
1487.310425 104.0
1487.588989 148.0
1487.710083 132.0
1487.817505 112.0
1487.988403 84.0
1488.111206 200.0
1488.310547 88.0
1488.365112 152.0
1488.600464 292.0
1488.694824 152.0
1488.747803 80.0
1488.898804 172.0
1489.032715 120.0
1489.107178 156.0
1489.224121 168.0
1489.337036 168.0
1489.455078 172.0
1489.601685 188.0
1489.799561 356.0
1489.993164 124.0
1490.15271 184.0
1490.307861 96.0
1490.461548 200.0
1490.754395 176.0
1490.815063 156.0
1490.956787 188.0
1491.049194 100.0
1491.17627 148.0
1491.245361 96.0
1491.353027 208.0
1491.422241 60.0
1491.706543 124.0
1491.821899 108.0
1491.994507 168.0
1492.090942 108.0
1492.177734 308.0
1492.267822 100.0
1492.337036 148.0
1492.409668 256.0
1492.505859 116.0
1492.570435 196.0
1492.689819 212.0
1492.80603 48.0
1492.936279 124.0
1493.018311 140.0
1493.244385 132.0
1493.305908 124.0
1493.398193 84.0
1493.760986 300.0
1493.909424 132.0
1494.057007 160.0
1494.15918 232.0
1494.218994 216.0
1494.513672 108.0
1494.615845 256.0
1494.670898 128.0
1494.739014 220.0
1494.821533 176.0
1494.89978 88.0
1494.954834 112.0
1495.128052 356.0
1495.251099 120.0
1495.328613 84.0
1495.452515 60.0
1495.508667 200.0
1495.64502 100.0
1495.829712 144.0
1495.898926 48.0
1496.091431 124.0
1496.148193 120.0
1496.359863 176.0
1496.453247 140.0
1496.869019 164.0
1497.197266 164.0
1497.30542 60.0
1497.523682 100.0
1497.650024 156.0
1497.847168 168.0
1497.901123 136.0
1497.978149 152.0
1498.101318 156.0
1498.203857 120.0
1498.394165 136.0
1498.455811 136.0
1498.544556 132.0
1498.717773 112.0
1498.876831 184.0
1499.087646 192.0
1499.158691 160.0
1499.291626 280.0
1499.464478 120.0
1499.548828 108.0
1499.569702 92.0
1499.610718 68.0
1499.634766 152.0
1499.659302 68.0
1499.685547 164.0
1499.973877 100.0
1500.053223 136.0
1500.174316 180.0
1500.274414 232.0
1500.559814 120.0
1500.61377 160.0
1500.744263 168.0
1500.841309 132.0
1500.981567 164.0
1501.041504 236.0
1501.125488 140.0
1501.203247 188.0
1501.30896 124.0
1501.456909 156.0
1501.544067 324.0
1501.60083 116.0
1501.677979 200.0
1501.856079 160.0
1501.940186 108.0
1502.032715 144.0
1502.103394 212.0
1502.191162 128.0
1502.280518 164.0
1502.372925 132.0
1502.449341 84.0
1502.71936 136.0
1502.793823 168.0
1502.855591 84.0
1502.912231 32.0
1502.98938 208.0
1503.051147 196.0
1503.120605 160.0
1503.228638 140.0
1503.455933 192.0
1503.660767 64.0
1503.879883 188.0
1503.938599 64.0
1504.170166 92.0
1504.378662 192.0
1504.581787 196.0
1504.803223 80.0
1504.8573 140.0
1505.173828 52.0
