>compound Cilnidipine
>formula C27H28N2O7
>ionization [M+H]+
>parentmass 493.196259
#inchi InChI=1S/C27H28N2O7/c1-18-23(26(30)35-14-8-11-20-9-5-4-6-10-20)25(21-12-7-13-22(17-21)29(32)33)24(19(2)28-18)27(31)36-16-15-34-3/h4-13,17,25,28H,14-16H2,1-3H3/b11-8+
#inchikey KJEBULYHNRNJTE
#Ion_Source LC-ESI
#Instrument qTof
#Compound_Source Commercial
#PI Dorrestein
#Data_Collector Garg_Neha
#Scan -1
#Precursor_MZ 493.197
#ExactMass 492.19
#Charge 1
#CAS_Number 132203-70-4
#Pubmed_ID N/A
#Smiles C1=CC=C(C=C1C2C(=C(NC(=C2C(OCCOC)=O)C)C)C(OC/C=C/C3=CC=CC=C3)=O)[N+](=O)[O-]
#INCHI_AUX N/A
#Library_Class 1
#SpectrumID CCMSLIB00000078091
#IonMode Positive
#UpdateWorkflowName UPDATE-SINGLE-ANNOTATED-GOLD
#LibraryQualityString Gold
#TaskID 77f51c88eb8b467eb4a01dd2d0cb90d2
##Scan# 2720
#SpectrumFile Plate2_1_20_GG5_01_16493.mzXML
#LibraryName FDALibrary_2_04302014.mgf
#MQScore -1
#Organism FDALibrary_2_04302014
#TIC_Query 0
#RT_Query -1
#MZErrorPPM -1
#SharedPeaks 0
#MassDiff 0
#LibMZ -1
#SpecMZ 493.197
#SpecCharge 0
#internalFilename spec-00000.mgf

>collision 10
45.035126 184.0
45.652981 212.0
45.823933 148.0
46.172199 208.0
46.818203 168.0
46.88905 176.0
47.424824 176.0
48.998856 196.0
49.206665 156.0
49.671284 232.0
49.807446 236.0
50.04089 152.0
50.447205 204.0
50.94178 196.0
51.175018 208.0
51.769043 236.0
52.212494 236.0
52.337692 220.0
52.402508 148.0
52.546688 156.0
52.841427 160.0
52.860237 140.0
53.328674 172.0
54.895229 184.0
54.961609 180.0
57.295116 176.0
57.368961 144.0
57.432293 140.0
57.479061 156.0
57.63308 156.0
57.722263 140.0
58.017513 140.0
58.319592 180.0
59.259651 216.0
59.568016 184.0
59.855621 192.0
59.926476 216.0
60.632675 216.0
62.139038 184.0
62.272469 152.0
62.687809 204.0
63.337158 164.0
63.832333 220.0
63.860958 176.0
64.114105 144.0
64.331032 180.0
64.567513 200.0
64.826859 156.0
65.265091 140.0
66.014915 220.0
66.738129 208.0
67.063721 220.0
67.812309 152.0
68.267075 188.0
70.201355 232.0
71.064491 144.0
71.299583 164.0
72.132225 200.0
72.589355 160.0
72.669083 284.0
73.344223 184.0
74.325897 180.0
74.781311 156.0
75.777725 164.0
76.135063 168.0
76.653473 172.0
76.873192 156.0
76.937775 176.0
77.471169 172.0
78.554062 212.0
78.608757 160.0
78.909035 168.0
79.719093 176.0
79.749313 164.0
80.009026 192.0
80.066002 152.0
81.06823 140.0
81.680473 232.0
81.802841 160.0
82.022606 192.0
83.009766 140.0
83.080505 152.0
83.83873 164.0
84.126923 164.0
85.348969 156.0
86.370682 224.0
87.190201 196.0
87.754234 164.0
87.832565 164.0
87.882935 184.0
88.314476 200.0
89.280373 212.0
89.609787 152.0
89.981346 196.0
90.043655 216.0
91.05452 324.0
91.239342 152.0
91.602829 180.0
93.179222 156.0
93.479179 148.0
93.70446 248.0
94.447701 168.0
94.782623 228.0
94.974731 220.0
95.792923 160.0
96.372353 180.0
96.616745 196.0
97.210442 224.0
98.32827 180.0
98.990547 208.0
99.349297 168.0
99.390961 204.0
99.682861 168.0
100.050468 176.0
100.232079 148.0
100.579102 204.0
101.124771 172.0
101.162804 164.0
101.760239 184.0
102.500443 172.0
103.210976 396.0
103.745483 204.0
104.185913 188.0
104.645508 148.0
105.185753 172.0
107.589691 284.0
108.344543 148.0
108.36319 176.0
108.499977 156.0
108.614037 172.0
110.683571 212.0
111.209778 156.0
111.310555 176.0
111.84877 184.0
114.040131 160.0
114.783127 216.0
115.054573 6616.0
115.11602 264.0
115.316841 224.0
115.599144 216.0
116.029671 184.0
116.058746 1424.0
116.153435 208.0
116.821533 144.0
116.884529 192.0
116.910873 164.0
117.014091 144.0
117.070847 46308.0
117.112991 168.0
117.195778 184.0
117.214111 140.0
117.290878 124.0
117.70575 144.0
117.861786 100.0
118.073242 3800.0
118.939865 140.0
118.956902 160.0
118.991112 112.0
119.078972 348.0
120.086548 164.0
122.341377 172.0
122.980637 200.0
132.084595 180.0
133.446838 156.0
139.303772 192.0
144.05838 164.0
146.251587 188.0
147.896271 192.0
152.068756 136.0
156.086258 172.0
156.927856 148.0
159.828064 184.0
160.052429 176.0
161.592102 184.0
164.025009 200.0
168.080139 144.0
171.099442 156.0
173.057602 228.0
174.214203 208.0
180.084381 200.0
182.098541 164.0
184.079163 144.0
184.102341 176.0
186.021973 188.0
186.092926 144.0
188.563324 192.0
190.4319 144.0
195.107513 164.0
196.056686 296.0
196.111298 168.0
196.16539 208.0
198.093582 152.0
202.535889 200.0
203.894958 172.0
204.460907 220.0
206.340714 204.0
207.096191 160.0
208.418716 160.0
210.091629 536.0
210.114029 248.0
211.093079 188.0
211.11702 164.0
212.10701 152.0
215.092072 120.0
215.868744 156.0
219.418365 156.0
219.893631 192.0
219.970367 152.0
221.046188 156.0
224.113571 148.0
225.068069 212.0
226.083237 476.0
227.595261 196.0
228.069931 164.0
228.099762 304.0
229.686905 168.0
237.596603 144.0
238.038589 184.0
238.072372 172.0
242.079453 320.0
243.52977 236.0
243.890198 220.0
244.095383 204.0
247.693939 140.0
250.524323 220.0
252.098785 228.0
254.083069 152.0
255.08493 164.0
256.083588 316.0
257.055969 196.0
257.084686 180.0
259.099243 180.0
260.083588 176.0
268.861511 148.0
269.103088 148.0
269.90033 172.0
271.078583 1036.0
272.08847 148.0
273.074829 140.0
275.600037 156.0
276.370453 180.0
279.223358 184.0
281.055573 164.0
281.606415 156.0
283.06665 152.0
283.805084 140.0
284.078125 192.0
284.142212 164.0
285.100128 156.0
285.810364 144.0
286.062744 312.0
286.106537 172.0
286.141785 232.0
287.080322 148.0
290.73056 200.0
291.973999 156.0
294.448303 216.0
295.51825 144.0
295.600372 180.0
299.068756 160.0
300.162262 204.0
301.080536 984.0
301.123291 232.0
301.77475 196.0
302.085602 232.0
303.073364 1216.0
304.075104 176.0
305.075409 184.0
306.34552 180.0
306.488373 144.0
308.173676 188.0
308.3414 140.0
313.003693 148.0
314.219727 232.0
315.137695 172.0
316.923218 204.0
317.077118 7076.0
317.158447 168.0
317.211884 136.0
317.577454 264.0
318.078735 1772.0
319.079742 152.0
325.168213 112.0
325.467468 184.0
328.923706 172.0
329.11142 156.0
331.151031 180.0
331.437225 164.0
332.09848 164.0
336.179108 184.0
342.150146 240.0
347.134613 212.0
357.102631 168.0
358.110565 192.0
359.1138 236.0
359.14093 276.0
360.382355 148.0
362.62265 196.0
363.240692 220.0
364.197235 152.0
365.132233 180.0
366.430298 156.0
367.516937 180.0
368.108612 148.0
369.151825 176.0
370.164795 556.0
371.142883 128.0
371.186707 176.0
373.15509 256.0
374.159607 104.0
374.236145 176.0
374.771545 144.0
374.914124 240.0
375.049011 208.0
375.119171 17928.0
375.310181 124.0
375.725067 140.0
375.749939 184.0
375.812592 160.0
376.055725 180.0
376.119354 5672.0
377.124725 764.0
378.10614 156.0
378.135559 172.0
378.190369 100.0
378.512299 116.0
378.781036 136.0
399.121704 152.0
399.268097 140.0
417.142731 1096.0
417.218933 144.0
418.141388 368.0
419.137024 152.0
443.178223 144.0
448.991974 216.0
451.056671 184.0
460.14801 168.0
470.197144 144.0
475.183044 1144.0
476.19281 252.0
476.515045 236.0
491.180267 1016.0
492.188354 368.0
493.196259 1636.0
493.328308 168.0
493.388916 156.0
494.198975 328.0
494.48172 156.0
495.184631 132.0
495.236572 180.0
495.5578 252.0
801.594727 152.0
979.088562 160.0
1335.81189 172.0
1336.437622 216.0
1340.989014 176.0
1402.404541 240.0
1434.441895 160.0
1452.507202 228.0
1479.185547 156.0
1494.365601 168.0
1523.676025 232.0
1524.336548 196.0
1528.255493 160.0
1534.174683 148.0
1552.447632 144.0
1560.881592 176.0
1568.754883 180.0
1600.271118 204.0
1601.935547 172.0
1602.533081 268.0
1605.8573 172.0
1619.404907 212.0
1623.949463 160.0
1626.260254 148.0
1636.002808 180.0
1641.368774 208.0
1642.20752 168.0
1649.789917 232.0
1650.493286 196.0
1654.198853 192.0
1655.008423 256.0
1687.726807 172.0
1689.14978 192.0
1691.621094 240.0
1705.072998 196.0
1708.444214 172.0
1710.979004 248.0
1720.1875 156.0
1723.185303 232.0
1745.265991 184.0
1747.494995 252.0
1753.415771 192.0
1754.449341 184.0
1756.158813 148.0
1760.974731 176.0
1763.640137 140.0
1765.830688 144.0
1771.128906 188.0
1775.210571 212.0
1781.942383 228.0
1783.127319 212.0
1794.061646 200.0
1800.009888 204.0
1810.919556 208.0
1823.272705 204.0
1824.564697 148.0
1825.397949 196.0
1832.991089 200.0
1833.638794 140.0
1837.143311 160.0
1837.356567 168.0
1845.325073 184.0
1853.079468 148.0
1858.137939 172.0
1860.661133 216.0
1866.400635 152.0
1867.475586 204.0
1868.611084 164.0
1874.078491 140.0
1882.04834 152.0
1882.376587 192.0
1882.687378 188.0
1900.190063 196.0
1901.995117 212.0
1904.817139 152.0
1912.93042 148.0
1917.146118 176.0
1930.69519 160.0
1935.079224 164.0
1937.084717 188.0
1947.233154 176.0
1949.00769 160.0
1953.66748 148.0
1964.273926 156.0
1968.210083 204.0
1968.616333 152.0
1972.910522 220.0
1974.537476 160.0
1980.08667 140.0
1980.697876 184.0
1998.168823 228.0
2000.660645 172.0
2001.061279 192.0
