>compound ORLISTAT
>formula C29H53NO5
>ionization [M+H]+
>parentmass 496.4
#inchi InChI=1S/C29H53NO5/c1-5-7-9-11-12-13-14-15-16-18-24(34-29(33)26(30-22-31)20-23(3)4)21-27-25(28(32)35-27)19-17-10-8-6-2/h22-27H,5-21H2,1-4H3,(H,30,31)/t24-,25-,26-,27-/m0/s1
#inchikey AHLBNYSZXLDEJQ
#Ion_Source LC-ESI
#Instrument qTof
#Compound_Source Commercial
#PI Dorrestein
#Data_Collector Garg_Neha
#Scan -1
#Precursor_MZ 496.4
#ExactMass 495.392
#Charge 1
#CAS_Number N/A
#Pubmed_ID N/A
#Smiles CCCCCCCCCCC[C@@H](C[C@@H]1OC(=O)[C@H]1CCCCCC)OC(=O)[C@H](CC(C)C)NC=O
#INCHI_AUX N/A
#Library_Class 1
#SpectrumID CCMSLIB00000079005
#IonMode Positive
#UpdateWorkflowName UPDATE-SINGLE-ANNOTATED-GOLD
#LibraryQualityString Gold
#TaskID 278b19f5865741e282cec7349aa7e7a1
##Scan# 4422
#SpectrumFile NCP003352_E2_F11_BC6_01_15720.mzXML
#LibraryName NIHcollectionI_05062014.mgf
#MQScore -1
#Organism NIHcollectionI_05062014
#TIC_Query 0
#RT_Query -1
#MZErrorPPM -1
#SharedPeaks 0
#MassDiff 0
#LibMZ -1
#SpecMZ 496.4
#SpecCharge 0
#internalFilename spec-00000.mgf

>collision 10
46.160603 148.0
46.84874 152.0
49.568092 172.0
52.375675 180.0
53.105606 216.0
54.710327 128.0
55.43087 144.0
56.999207 180.0
59.856091 168.0
59.873032 188.0
60.402435 204.0
61.799492 220.0
63.079662 180.0
63.1698 152.0
63.500847 168.0
63.637318 156.0
63.896378 208.0
65.898933 144.0
66.031487 188.0
66.434814 152.0
69.569435 140.0
70.145004 164.0
72.902008 172.0
74.676628 188.0
74.704155 152.0
74.778145 148.0
77.490662 148.0
79.507957 172.0
80.101807 212.0
80.124969 140.0
80.959122 172.0
83.718613 144.0
85.064293 160.0
86.731819 220.0
89.022934 164.0
89.820938 176.0
91.02652 172.0
91.494247 140.0
91.783844 148.0
93.076561 164.0
93.261787 216.0
94.074661 164.0
94.173141 148.0
95.086212 1340.0
95.386108 184.0
96.089119 180.0
97.102676 860.0
97.188705 204.0
97.612984 172.0
97.860909 176.0
98.067749 212.0
98.104507 204.0
100.381363 200.0
106.076225 140.0
107.086037 260.0
107.812386 140.0
108.559708 188.0
108.775482 148.0
109.064323 344.0
109.100922 1852.0
110.107147 340.0
111.117744 616.0
111.292427 208.0
111.894608 224.0
112.255844 108.0
113.097343 352.0
113.570366 196.0
113.909988 216.0
114.092178 6300.0
114.753967 124.0
115.095306 840.0
115.928352 244.0
117.379356 196.0
119.08577 424.0
120.122948 216.0
121.102516 324.0
121.461662 140.0
121.918335 240.0
122.105202 144.0
122.889412 188.0
123.080719 284.0
123.117249 1348.0
123.286873 152.0
124.125854 208.0
124.631943 156.0
125.096756 268.0
125.133186 472.0
127.111153 324.0
127.14415 232.0
127.191284 204.0
129.128098 140.0
129.214951 172.0
131.086395 168.0
132.026428 156.0
132.102417 1224.0
133.101868 692.0
134.012009 148.0
134.104187 248.0
135.11644 336.0
135.16188 184.0
137.095963 176.0
137.132584 952.0
138.142227 276.0
139.147873 272.0
141.865372 224.0
142.08725 4828.0
143.04599 164.0
143.088806 476.0
143.145981 184.0
145.104202 304.0
147.121429 444.0
149.132797 660.0
149.170746 176.0
150.117844 148.0
151.115524 176.0
151.148636 1680.0
151.437561 168.0
152.153534 276.0
152.183044 184.0
153.12355 100.0
153.165039 132.0
154.104172 148.0
154.128891 176.0
155.104843 148.0
156.607224 196.0
158.63118 168.0
159.708405 192.0
160.098267 10308.0
160.138794 152.0
160.56221 208.0
160.925583 144.0
161.102493 1928.0
161.131348 404.0
161.752258 156.0
162.097992 256.0
162.417786 128.0
163.136566 184.0
165.128708 148.0
165.163345 876.0
166.174866 420.0
167.14502 340.0
167.178375 128.0
168.145859 148.0
169.12709 196.0
169.157272 316.0
171.170853 152.0
175.148849 312.0
176.15387 164.0
177.164001 364.0
178.166794 204.0
179.036575 144.0
179.143951 1004.0
179.180008 792.0
179.294983 180.0
180.147476 168.0
180.177979 152.0
180.621948 156.0
181.16188 348.0
182.569107 188.0
183.142624 164.0
185.153137 232.0
189.161942 380.0
191.178711 1140.0
191.551453 164.0
192.14415 152.0
192.183502 252.0
192.920166 140.0
193.07225 168.0
193.130325 152.0
193.158157 284.0
193.19603 5156.0
193.241638 100.0
193.290787 172.0
193.645126 148.0
194.107941 160.0
194.19754 948.0
195.200699 132.0
197.19249 208.0
199.072311 188.0
203.179214 144.0
204.186859 148.0
205.192474 272.0
206.006027 144.0
207.175644 492.0
207.213608 480.0
207.740784 224.0
208.179916 140.0
208.217255 196.0
209.186218 148.0
210.194946 300.0
211.176468 148.0
211.207596 1492.0
211.242538 272.0
211.387268 96.0
212.212051 248.0
212.530029 168.0
212.913193 140.0
213.218246 164.0
215.17569 176.0
216.92218 168.0
217.195175 724.0
218.20076 188.0
219.211609 428.0
221.190598 680.0
221.226654 408.0
221.768082 160.0
222.226364 248.0
223.202545 164.0
223.240616 140.0
224.184296 160.0
225.182709 144.0
226.95256 784.0
227.207306 120.0
231.210648 480.0
232.217407 128.0
233.220688 192.0
235.209625 516.0
235.240082 132.0
236.241394 204.0
237.220169 332.0
238.221359 144.0
239.205719 152.0
241.217712 128.0
245.227081 644.0
249.225784 108.0
250.233261 188.0
255.235168 256.0
260.69278 152.0
261.258698 160.0
263.233826 268.0
266.320007 148.0
273.267426 116.0
282.255646 140.0
289.033569 204.0
291.196381 152.0
291.307312 3456.0
292.310364 1156.0
293.00943 168.0
293.313202 360.0
294.947754 140.0
298.310455 168.0
301.290405 4272.0
302.292572 1244.0
303.292267 156.0
303.726379 140.0
309.315887 288.0
309.664154 220.0
310.321716 228.0
315.834229 148.0
317.324158 252.0
318.016846 160.0
318.833679 144.0
319.155365 136.0
319.251923 236.0
319.301727 25496.0
319.408386 120.0
319.671753 108.0
319.997345 120.0
320.304504 6896.0
320.546326 104.0
321.305939 876.0
322.243774 144.0
322.311676 180.0
331.676117 176.0
337.311737 11652.0
337.544861 160.0
337.857269 144.0
338.315277 2952.0
339.320068 376.0
340.392059 148.0
355.330872 212.0
362.940582 280.0
362.970245 152.0
370.297729 424.0
371.30722 188.0
372.285156 156.0
378.822754 156.0
430.917328 248.0
451.393188 144.0
460.376953 104.0
468.403412 120.0
478.394409 196.0
494.568909 252.0
495.570953 124.0
496.3125 324.0
496.404785 956.0
497.400391 188.0
497.440155 276.0
499.358978 168.0
1493.33313 152.0
1514.558838 148.0
1550.978516 232.0
1561.515259 212.0
1585.872559 192.0
1591.473267 188.0
1603.19812 164.0
1669.389648 156.0
1747.295776 192.0
1757.393677 184.0
1815.605347 160.0
1830.153076 152.0
1859.560303 176.0
1873.981201 244.0
1906.135742 136.0
1937.185913 144.0
1985.328247 152.0
1991.505249 152.0
2001.661377 204.0
2003.371338 256.0
