>compound MLS002154025-01!Iocetamic acid16034-77-8
>formula C12H13I3N2O3
>ionization [M+H]+
>parentmass 614.8133127280905
#inchi InChI=1S/C12H13I3N2O3/c1-5(12(19)20)4-17(6(2)18)11-8(14)3-7(13)10(16)9(11)15/h3,5H,4,16H2,1-2H3,(H,19,20)
#inchikey GSVQIUGOUKJHRC
#Ion_Source LC-ESI
#Instrument qTof
#Compound_Source NIH Pharmacologically Active Library
#PI Dorrestein
#Data_Collector VP/LMS
#Scan -1
#Precursor_MZ 614.825
#ExactMass 613.806
#Charge 1
#CAS_Number N/A
#Pubmed_ID N/A
#Smiles CC(CN(C(=O)C)c1c(I)cc(I)c(N)c1I)C(=O)O
#INCHI_AUX N/A
#Library_Class 1
#SpectrumID CCMSLIB00000086115
#IonMode Positive
#UpdateWorkflowName UPDATE-SINGLE-ANNOTATED-GOLD
#LibraryQualityString Gold
#TaskID d252d724072548979f1f6f1ced849daf
##Scan# 1956
#SpectrumFile p5-E05_GE5_01_18462.mzXML
#LibraryName Pharm_Active_Library.mgf
#MQScore -1
#Organism Pharm_Active_Library
#TIC_Query 0
#RT_Query -1
#MZErrorPPM -1
#SharedPeaks 0
#MassDiff 0
#LibMZ -1
#SpecMZ 614.825
#SpecCharge 0
#internalFilename spec-00000.mgf

>collision 10
45.104511 136.0
45.117878 180.0
45.374924 144.0
45.459427 116.0
45.470161 196.0
45.573559 164.0
45.722824 168.0
45.968086 44.0
46.128807 132.0
46.432098 128.0
46.495865 156.0
46.777214 196.0
47.156403 184.0
47.564571 192.0
47.619492 44.0
47.802334 116.0
49.258125 128.0
49.381126 148.0
49.683685 156.0
50.001244 120.0
50.173092 84.0
50.338169 164.0
50.721577 256.0
50.795311 140.0
50.896072 192.0
50.945782 128.0
50.95929 124.0
51.206081 164.0
51.358585 208.0
51.507034 140.0
51.71579 96.0
52.43679 88.0
52.526188 240.0
53.054005 124.0
53.226658 48.0
53.520374 108.0
53.55241 144.0
53.801758 168.0
54.154163 148.0
54.774006 192.0
55.020271 164.0
55.240463 136.0
56.079403 140.0
56.230042 80.0
56.291248 116.0
56.321117 112.0
56.410774 164.0
56.534912 132.0
56.668179 160.0
56.972733 72.0
57.144119 60.0
59.064728 216.0
59.199413 224.0
59.495331 104.0
59.605915 128.0
59.830467 204.0
60.12796 136.0
60.234493 168.0
60.294754 96.0
61.485939 136.0
61.545258 84.0
61.892376 132.0
62.198082 40.0
62.427464 108.0
62.496674 132.0
62.528145 80.0
62.597412 168.0
62.625759 164.0
62.783363 176.0
63.001183 84.0
63.236786 172.0
64.011505 92.0
64.50769 168.0
65.805771 188.0
66.020676 164.0
66.176018 108.0
66.609016 204.0
66.745529 140.0
67.208122 156.0
67.283195 200.0
67.332184 128.0
67.377914 224.0
67.490692 144.0
68.76712 124.0
69.269775 128.0
70.098831 144.0
70.190506 108.0
70.317291 88.0
70.469254 120.0
70.609665 272.0
70.837296 168.0
71.001556 264.0
71.276863 92.0
71.330566 176.0
71.739693 192.0
71.84256 96.0
71.920181 40.0
72.078934 104.0
72.312302 108.0
72.38002 100.0
72.642715 52.0
72.776787 180.0
72.936478 156.0
73.166122 128.0
73.249565 140.0
73.674332 136.0
73.706787 192.0
73.857231 48.0
74.122589 184.0
74.198006 156.0
74.683975 104.0
74.739021 76.0
74.844017 184.0
75.47554 196.0
75.774971 156.0
76.11145 164.0
76.139236 164.0
76.205246 104.0
76.96814 164.0
77.401787 84.0
77.522652 192.0
77.668167 88.0
79.00695 184.0
79.143227 172.0
80.535683 132.0
80.717972 244.0
81.380936 152.0
81.891647 200.0
81.947495 40.0
82.183685 164.0
82.458168 160.0
82.583977 208.0
83.824684 92.0
84.129272 136.0
84.615562 228.0
84.776749 168.0
84.842735 184.0
84.954597 96.0
84.991295 128.0
85.29615 144.0
85.563744 260.0
85.57946 76.0
85.905663 152.0
85.933334 72.0
85.968399 208.0
85.985008 124.0
86.204765 176.0
86.400757 144.0
86.419258 116.0
86.456268 136.0
87.0242 232.0
87.116333 160.0
87.594406 156.0
87.765862 64.0
88.361671 160.0
88.490807 216.0
89.075912 128.0
89.46312 132.0
89.685562 156.0
89.921326 180.0
90.044044 140.0
90.187637 120.0
90.492203 176.0
90.765045 164.0
90.844696 132.0
91.180779 168.0
91.462265 212.0
92.02655 120.0
92.343765 104.0
92.491089 84.0
92.696014 108.0
92.952965 148.0
93.079659 128.0
93.571869 128.0
93.58535 164.0
93.772202 168.0
94.082756 72.0
94.370621 80.0
94.64344 68.0
94.877869 156.0
95.079597 96.0
95.13588 148.0
95.495361 64.0
96.027061 152.0
96.153877 132.0
96.239037 192.0
96.753967 136.0
97.257751 160.0
97.841576 232.0
98.340294 180.0
98.358055 116.0
98.682037 240.0
98.873909 144.0
99.937523 104.0
100.094772 176.0
100.162483 64.0
100.301964 132.0
100.319908 120.0
100.713005 104.0
101.062843 200.0
101.305092 104.0
101.566429 240.0
101.951157 144.0
102.035583 188.0
102.357506 160.0
102.591217 228.0
102.708176 60.0
103.338455 152.0
103.739449 208.0
103.777969 104.0
104.175743 196.0
104.773834 112.0
105.153107 216.0
106.420227 116.0
106.440758 128.0
106.527023 144.0
106.658531 52.0
106.716095 216.0
107.032959 132.0
107.403915 148.0
107.447235 88.0
107.75898 236.0
107.926399 128.0
108.009117 144.0
108.589058 180.0
109.183037 148.0
109.926735 88.0
110.712746 88.0
111.102608 96.0
111.3713 80.0
111.909645 80.0
111.949654 120.0
111.995987 100.0
112.373329 172.0
112.430305 124.0
112.770332 152.0
113.041023 132.0
113.123566 212.0
113.988892 132.0
114.129181 128.0
114.305733 124.0
114.748764 160.0
114.962059 276.0
115.265289 156.0
115.442711 80.0
115.65023 128.0
116.046539 88.0
116.160202 168.0
116.69709 156.0
116.770203 68.0
116.854095 84.0
116.912193 164.0
117.360237 124.0
117.776741 72.0
118.049057 68.0
118.070679 160.0
118.438614 92.0
119.035019 156.0
119.05674 132.0
119.091484 68.0
119.619858 176.0
120.077423 196.0
120.210495 172.0
120.46376 56.0
120.769783 212.0
120.933876 212.0
121.052101 200.0
122.101074 72.0
122.325508 172.0
122.589798 200.0
122.909538 120.0
123.386604 144.0
123.990891 140.0
124.006409 56.0
124.263634 104.0
124.461174 188.0
124.525574 60.0
124.652199 160.0
124.920441 160.0
125.083664 188.0
126.250542 172.0
126.855072 132.0
127.1287 80.0
127.332993 136.0
127.4543 124.0
127.564423 112.0
127.595894 88.0
128.111252 92.0
128.666016 124.0
129.056259 160.0
129.217468 180.0
129.529877 320.0
129.899353 76.0
130.035492 164.0
130.108139 208.0
130.294357 128.0
130.585312 148.0
130.628525 80.0
130.689957 192.0
130.910751 80.0
131.061096 388.0
131.348343 136.0
131.425903 72.0
131.688431 160.0
131.852936 180.0
132.136475 48.0
132.434052 132.0
132.885651 164.0
133.66687 244.0
134.003036 100.0
134.102127 40.0
134.265808 132.0
134.916946 108.0
135.602112 136.0
135.787582 148.0
135.83165 124.0
136.651703 136.0
137.042862 124.0
138.163513 208.0
138.42691 112.0
138.50528 88.0
138.681854 88.0
138.706787 48.0
139.10556 128.0
139.197128 160.0
139.904831 124.0
140.137985 128.0
140.208679 84.0
140.607239 140.0
140.744156 164.0
140.971588 184.0
141.003998 108.0
141.059891 148.0
141.115097 136.0
141.186539 152.0
141.342163 152.0
141.595459 132.0
141.702057 140.0
142.503983 128.0
142.988937 140.0
143.143814 152.0
143.205734 100.0
143.379654 104.0
143.587067 148.0
144.06424 188.0
144.1409 124.0
144.463669 148.0
145.05513 192.0
145.074646 344.0
145.878494 132.0
145.967453 168.0
146.047211 300.0
146.08609 580.0
147.041885 140.0
147.067169 216.0
147.326797 60.0
147.353378 72.0
147.457275 128.0
147.844223 64.0
148.064453 464.0
148.146881 156.0
148.190491 160.0
148.272888 132.0
148.60994 44.0
148.680023 172.0
149.078583 216.0
149.618546 144.0
149.715942 136.0
150.041321 284.0
150.081467 116.0
150.848053 136.0
151.27124 216.0
151.376511 200.0
151.528381 60.0
151.817612 120.0
152.092392 160.0
152.222519 212.0
152.667297 84.0
152.910858 108.0
153.129974 112.0
153.516891 56.0
153.68956 60.0
154.220505 132.0
154.309494 184.0
154.767227 148.0
154.992615 108.0
155.441437 76.0
155.622635 84.0
155.776596 152.0
156.01268 164.0
156.062408 120.0
156.102188 184.0
156.231522 208.0
156.261383 112.0
156.923874 176.0
156.993683 104.0
157.05011 152.0
157.069473 196.0
157.145844 104.0
157.192383 160.0
157.330521 124.0
157.776489 140.0
158.032806 172.0
158.678986 116.0
158.85202 168.0
158.927292 116.0
159.049957 216.0
159.092926 112.0
159.113022 112.0
159.316437 144.0
159.438034 92.0
159.469711 88.0
159.799133 124.0
159.821777 156.0
159.869583 148.0
159.89978 168.0
160.008026 68.0
160.276047 204.0
160.337997 120.0
161.042374 172.0
161.073288 160.0
161.458923 180.0
162.149445 180.0
162.494934 168.0
162.611649 64.0
162.807144 124.0
163.061188 188.0
163.524078 140.0
163.620804 88.0
163.867844 132.0
164.025848 160.0
164.046234 88.0
164.153824 200.0
164.262985 164.0
164.638168 116.0
164.702026 148.0
165.266998 172.0
165.330963 64.0
165.525528 240.0
166.492294 192.0
166.962585 188.0
167.17868 76.0
167.322815 144.0
167.425812 188.0
169.080643 44.0
169.155701 80.0
169.251495 160.0
169.329178 136.0
169.940948 136.0
170.082138 208.0
170.244644 140.0
170.2836 188.0
170.876266 180.0
171.068024 200.0
171.269348 196.0
171.438705 176.0
171.696793 108.0
172.060822 420.0
172.226608 112.0
172.482666 112.0
173.005844 180.0
173.073883 200.0
173.519333 156.0
173.55603 176.0
173.666183 152.0
173.994186 216.0
174.045395 300.0
174.078705 4120.0
174.145508 140.0
174.179764 72.0
174.201645 44.0
174.477585 120.0
174.627472 152.0
174.745834 140.0
174.853729 204.0
174.987976 80.0
175.037994 116.0
175.084961 144.0
175.256622 128.0
175.288239 96.0
175.586136 92.0
176.012131 196.0
176.063812 192.0
176.491898 32.0
176.528915 100.0
176.679672 172.0
176.708771 76.0
176.917847 116.0
177.062897 164.0
177.344315 176.0
177.368179 124.0
177.683746 160.0
178.036758 36.0
178.069412 396.0
178.366211 92.0
178.430023 156.0
178.725235 160.0
178.932846 148.0
179.031357 48.0
180.018051 152.0
180.055435 164.0
180.242432 56.0
180.42952 176.0
180.622055 124.0
180.742447 64.0
181.221725 80.0
181.72847 100.0
182.053253 144.0
182.310181 188.0
182.528885 72.0
182.569229 120.0
182.625946 132.0
182.875931 164.0
183.056305 116.0
183.112854 196.0
183.220596 164.0
183.368805 220.0
183.784088 128.0
183.892029 108.0
184.189026 196.0
184.516022 116.0
184.808105 136.0
185.132935 116.0
185.197937 132.0
185.623413 240.0
185.821426 104.0
185.84584 76.0
185.894684 48.0
186.019531 296.0
186.394318 204.0
186.538361 80.0
186.587296 144.0
186.951782 172.0
187.086685 372.0
187.46373 160.0
187.499161 76.0
187.80452 80.0
188.093338 556.0
189.065903 1328.0
189.100403 456.0
189.861221 128.0
189.935272 136.0
190.006592 92.0
190.072647 108.0
191.13858 112.0
191.223892 188.0
192.053207 132.0
192.113892 84.0
192.591431 212.0
193.064041 136.0
193.111053 108.0
194.127426 92.0
194.169022 152.0
194.610245 148.0
194.901886 104.0
194.921341 112.0
195.321671 92.0
195.60675 124.0
196.065063 52.0
196.115234 160.0
196.315964 184.0
196.798691 280.0
196.890839 140.0
196.941116 148.0
197.07431 212.0
197.987106 96.0
198.083618 244.0
198.166382 112.0
198.572845 192.0
198.634552 96.0
199.065079 104.0
199.084396 200.0
199.165054 152.0
199.527557 144.0
199.769409 52.0
199.99733 132.0
200.050598 208.0
200.281708 156.0
200.369415 184.0
200.416931 120.0
201.064377 1224.0
201.472107 144.0
201.503189 188.0
201.768845 152.0
202.070618 80.0
202.71138 100.0
202.734039 236.0
203.00618 136.0
203.077087 176.0
203.207581 172.0
203.346619 108.0
203.619171 132.0
203.826553 32.0
203.9319 288.0
204.201797 168.0
204.668488 184.0
204.910583 76.0
205.058762 116.0
205.101517 172.0
205.224106 132.0
205.680557 84.0
205.891678 152.0
205.945908 180.0
206.126068 132.0
206.180374 140.0
206.243256 204.0
206.53775 140.0
206.946991 200.0
207.042877 172.0
207.236267 120.0
207.382416 148.0
208.04216 148.0
208.145508 148.0
208.200073 164.0
208.556335 136.0
208.849609 136.0
209.359024 160.0
209.647095 148.0
210.019012 160.0
210.423004 172.0
210.772491 152.0
211.695251 116.0
211.741592 72.0
211.863235 112.0
211.903809 136.0
211.947266 180.0
212.10376 220.0
212.327011 164.0
212.437225 120.0
212.460434 124.0
212.559082 180.0
212.721603 156.0
212.811615 172.0
213.064285 152.0
213.346176 180.0
213.651535 104.0
213.698074 172.0
214.074493 176.0
214.163849 152.0
214.370697 84.0
214.571808 152.0
214.749695 56.0
214.994751 152.0
215.082458 828.0
215.631409 260.0
215.669022 152.0
215.701569 112.0
216.046631 148.0
216.088211 1400.0
216.198776 120.0
216.368546 120.0
216.448196 136.0
217.10289 344.0
217.241852 72.0
217.379745 108.0
217.611633 148.0
217.800018 132.0
217.878891 172.0
217.955276 144.0
218.437027 176.0
218.943665 64.0
219.076202 168.0
219.35173 148.0
219.394485 128.0
219.438705 192.0
219.925446 144.0
219.996277 128.0
220.135056 92.0
221.255646 120.0
222.008255 104.0
222.120956 124.0
222.59581 140.0
222.735397 96.0
223.09198 100.0
223.419098 156.0
223.541092 140.0
224.237961 156.0
224.270737 112.0
224.309494 88.0
225.371918 108.0
225.643906 92.0
225.721649 140.0
225.802383 96.0
226.736465 124.0
226.817383 68.0
226.853363 128.0
226.946289 64.0
227.000275 140.0
227.360245 52.0
227.390259 160.0
227.41127 68.0
227.840668 160.0
228.297546 108.0
228.592346 48.0
228.736801 152.0
229.040924 164.0
229.197586 92.0
229.233749 60.0
229.64978 112.0
229.767426 132.0
229.963562 176.0
230.005814 52.0
230.94249 188.0
231.072479 228.0
231.702286 140.0
231.927124 304.0
231.964539 184.0
231.987152 80.0
232.081131 188.0
232.284332 196.0
232.4785 160.0
232.618118 116.0
232.703125 128.0
232.800293 72.0
233.167877 200.0
233.288574 220.0
233.939713 140.0
234.397293 160.0
234.449112 152.0
234.940002 168.0
234.961365 160.0
235.135284 132.0
235.300125 64.0
235.339813 92.0
235.425308 176.0
235.510818 204.0
235.565811 44.0
235.596359 172.0
236.369873 204.0
236.495361 144.0
236.807648 100.0
237.481934 132.0
238.421402 144.0
238.513611 160.0
238.682693 52.0
239.485901 156.0
239.655334 188.0
239.867981 104.0
240.302811 108.0
240.327499 108.0
241.238556 192.0
241.362228 44.0
242.114182 112.0
242.269058 140.0
242.594437 76.0
242.724655 204.0
243.214828 192.0
243.475632 180.0
243.966553 160.0
244.28569 148.0
244.719437 108.0
244.957306 2212.0
245.432953 100.0
245.532745 132.0
245.813507 140.0
245.915833 152.0
245.963531 1180.0
246.025742 180.0
246.069443 104.0
246.113159 204.0
246.156876 208.0
246.516098 152.0
246.675507 44.0
246.872467 148.0
246.96637 224.0
247.407501 164.0
247.535873 120.0
247.836578 152.0
248.153137 56.0
248.29425 68.0
248.677002 136.0
249.195145 120.0
249.27684 164.0
249.540863 196.0
249.616333 160.0
249.701233 136.0
249.83963 212.0
249.937164 124.0
251.049118 128.0
251.434006 204.0
251.500275 100.0
251.566559 216.0
251.591827 108.0
251.677429 172.0
251.951843 156.0
252.56192 172.0
252.641006 120.0
253.575104 160.0
253.603622 132.0
254.301392 124.0
254.615707 164.0
254.742752 164.0
254.885727 76.0
255.028732 224.0
255.680725 100.0
255.95639 188.0
256.081879 132.0
256.158203 124.0
256.942535 84.0
257.616119 52.0
257.894135 100.0
257.944397 176.0
257.961243 160.0
258.370575 156.0
258.634583 136.0
258.892303 152.0
258.937134 156.0
258.958801 120.0
259.324799 52.0
259.940552 168.0
260.104218 188.0
260.495972 132.0
260.791595 220.0
260.941528 120.0
262.091705 52.0
262.331818 20.0
262.639771 148.0
262.966156 148.0
263.350616 244.0
263.790955 176.0
263.866882 124.0
264.170868 116.0
264.280853 136.0
264.471802 96.0
265.365875 236.0
265.39505 48.0
265.644775 140.0
266.024445 76.0
266.225739 116.0
266.28421 108.0
266.352417 164.0
267.090271 188.0
267.630493 124.0
267.972473 40.0
268.184296 156.0
268.340759 168.0
268.624481 140.0
269.169525 100.0
269.49942 68.0
269.973389 96.0
270.381012 100.0
270.45105 176.0
270.929138 160.0
270.98288 148.0
271.551941 144.0
271.683136 96.0
271.942352 124.0
271.977631 232.0
272.244415 104.0
272.952881 288.0
272.987976 720.0
273.325897 116.0
273.549683 64.0
273.961273 296.0
273.995819 172.0
274.07663 176.0
274.310608 100.0
274.881195 124.0
274.969238 1540.0
275.212006 176.0
275.90509 124.0
275.971588 444.0
276.897736 92.0
276.930878 184.0
276.978729 152.0
277.023621 124.0
277.103119 208.0
277.176025 132.0
277.21579 144.0
277.25885 68.0
277.421265 112.0
278.074707 208.0
278.141083 148.0
278.187561 120.0
278.230713 28.0
278.280518 56.0
278.522949 64.0
279.091217 260.0
279.350647 136.0
279.976379 44.0
280.076294 112.0
280.70285 140.0
281.089783 128.0
281.283356 180.0
281.537079 200.0
281.811005 152.0
281.891205 164.0
282.536499 80.0
282.974915 96.0
283.082062 156.0
283.450531 124.0
283.638214 112.0
283.68515 116.0
283.819244 224.0
283.943329 284.0
283.972809 364.0
284.174774 60.0
284.282135 152.0
284.416382 76.0
284.910034 88.0
284.98056 108.0
285.256165 120.0
285.396942 168.0
285.58905 120.0
285.952393 244.0
285.975952 144.0
286.023071 64.0
286.144287 164.0
286.248657 132.0
286.716919 160.0
286.965271 344.0
287.226013 104.0
287.512787 48.0
287.87738 104.0
287.975311 380.0
288.458496 52.0
288.976166 312.0
289.449799 204.0
289.970276 180.0
290.001984 132.0
290.324066 48.0
290.405457 192.0
290.53775 64.0
290.636139 184.0
290.965179 76.0
291.101166 228.0
291.386475 80.0
291.736511 140.0
291.899719 60.0
291.984741 148.0
292.144592 184.0
292.270477 120.0
292.597229 200.0
292.801514 116.0
293.476227 68.0
293.598999 184.0
293.687683 172.0
293.892365 168.0
294.619568 176.0
294.687897 76.0
294.968109 140.0
295.333984 100.0
295.754822 208.0
295.871216 200.0
295.980774 144.0
296.086945 148.0
296.313019 120.0
296.707123 48.0
296.744843 204.0
296.93689 156.0
296.984894 148.0
297.310822 80.0
297.386322 184.0
298.145325 104.0
298.365326 140.0
298.423767 64.0
298.695435 124.0
298.965851 348.0
299.070496 68.0
299.149658 68.0
299.370026 100.0
299.428558 64.0
299.541138 140.0
299.673126 112.0
299.804077 168.0
299.879883 80.0
299.92807 212.0
299.976593 456.0
300.128662 220.0
300.22464 124.0
300.257416 200.0
300.341919 172.0
300.462646 44.0
300.581787 212.0
300.631714 144.0
300.700745 76.0
300.771545 116.0
300.811615 256.0
300.866425 164.0
300.888733 160.0
300.949554 11280.0
300.98465 46264.0
301.065857 184.0
301.092834 260.0
301.134979 104.0
301.168671 124.0
301.217682 108.0
301.269928 124.0
301.28363 84.0
301.297089 108.0
301.324036 64.0
301.375854 56.0
301.41214 92.0
301.449158 56.0
301.469238 124.0
301.522186 52.0
301.562714 84.0
301.589386 68.0
301.645752 40.0
301.688629 116.0
301.71814 104.0
301.732086 56.0
301.758972 80.0
301.808716 76.0
301.847656 44.0
301.885315 180.0
301.951385 2284.0
301.987 5068.0
302.072479 164.0
302.124359 56.0
302.155487 64.0
302.231598 52.0
302.263367 136.0
302.314667 108.0
302.342346 84.0
302.394867 44.0
302.477325 68.0
302.53833 80.0
302.593933 76.0
302.656036 84.0
302.730072 100.0
302.795868 76.0
302.84436 244.0
302.875519 52.0
302.910156 140.0
302.986603 444.0
303.066071 56.0
303.157257 124.0
303.20813 108.0
303.415436 100.0
303.482788 140.0
303.544403 68.0
303.568665 92.0
303.596405 84.0
303.651886 168.0
303.702454 76.0
303.742065 136.0
303.776764 132.0
303.872009 140.0
303.910522 108.0
303.972473 128.0
304.013611 256.0
304.078644 104.0
304.134155 120.0
304.168884 52.0
304.196655 64.0
304.39801 36.0
304.502197 52.0
304.543884 68.0
304.745361 64.0
304.811371 44.0
305.103333 92.0
305.127655 132.0
305.24588 72.0
305.912384 92.0
306.296936 84.0
306.377045 208.0
306.55127 52.0
307.196259 60.0
307.370697 168.0
307.800049 100.0
308.890442 84.0
309.474884 76.0
310.315765 88.0
310.41394 188.0
310.936646 60.0
311.667053 140.0
312.532013 92.0
312.922699 164.0
312.952728 144.0
313.095245 172.0
313.796448 88.0
313.983337 176.0
314.424347 52.0
314.699677 72.0
314.92569 124.0
314.955566 156.0
314.999329 1408.0
315.127045 48.0
315.441559 140.0
315.480438 124.0
315.749176 116.0
315.865875 148.0
315.961395 176.0
316.007385 192.0
316.053375 104.0
316.219727 68.0
316.313538 108.0
316.55603 144.0
316.587891 136.0
316.757904 100.0
316.881897 52.0
317.003937 144.0
317.239838 40.0
317.431274 208.0
317.796631 60.0
318.208344 72.0
318.300415 112.0
318.520844 76.0
318.794403 192.0
318.849487 88.0
318.897491 192.0
318.959198 5988.0
319.132111 68.0
319.281433 60.0
319.42926 64.0
319.611298 88.0
319.850708 124.0
319.958679 760.0
320.174713 44.0
320.274445 108.0
320.505981 48.0
320.534485 68.0
320.862396 52.0
321.972107 108.0
322.089966 68.0
323.03009 160.0
323.871246 72.0
324.107697 56.0
324.35498 132.0
324.458954 120.0
324.666901 168.0
324.983429 384.0
325.284027 72.0
325.668213 192.0
325.984192 156.0
326.207214 44.0
326.498444 40.0
326.624329 160.0
326.649506 100.0
326.961395 568.0
327.968658 124.0
328.699463 76.0
328.973755 148.0
329.396271 68.0
330.061249 220.0
331.646881 112.0
331.897034 160.0
331.926025 56.0
332.15451 88.0
334.07251 124.0
334.22168 144.0
334.753113 76.0
334.989838 188.0
335.408905 64.0
335.926697 56.0
335.988708 132.0
336.05072 132.0
336.276978 64.0
336.364563 180.0
336.711426 140.0
336.806396 80.0
337.164459 160.0
337.259491 164.0
337.921356 68.0
338.386169 124.0
339.764191 148.0
339.852234 168.0
339.973328 76.0
340.977448 360.0
341.027374 204.0
341.354553 164.0
341.45752 172.0
341.803314 164.0
341.98587 120.0
342.222931 32.0
342.409668 180.0
342.563507 216.0
342.675934 96.0
342.738586 180.0
342.764374 72.0
342.847198 264.0
342.922302 372.0
342.994629 27048.0
343.074036 176.0
343.139099 180.0
343.173523 68.0
343.244476 160.0
343.298889 52.0
343.327972 36.0
343.380005 48.0
343.426819 80.0
343.467804 80.0
343.522369 148.0
343.571808 56.0
343.626312 68.0
343.653259 52.0
343.693573 76.0
343.730469 60.0
343.782135 68.0
343.844452 108.0
343.933441 80.0
343.999634 3892.0
344.065857 60.0
344.21402 56.0
344.317413 84.0
344.402374 76.0
344.557526 60.0
344.675751 56.0
344.845734 72.0
344.941864 72.0
344.999542 504.0
345.074921 84.0
345.252411 40.0
345.341187 52.0
345.466949 68.0
345.653778 144.0
345.702118 164.0
345.811066 156.0
345.907318 56.0
346.184967 100.0
346.33139 180.0
346.492401 56.0
346.551697 80.0
347.053864 132.0
347.178131 136.0
347.307953 48.0
347.560211 64.0
347.875671 196.0
347.96106 36.0
348.150421 44.0
348.395569 48.0
350.33374 60.0
350.792084 96.0
350.903931 52.0
352.875214 60.0
353.499878 168.0
356.443481 84.0
357.39856 76.0
358.354889 120.0
358.807159 124.0
358.863708 128.0
359.644592 160.0
359.80719 52.0
359.858063 196.0
360.426331 56.0
360.562347 136.0
360.828064 68.0
361.006409 812.0
361.050049 164.0
361.259216 104.0
361.715942 196.0
361.874939 92.0
362.00473 268.0
363.023041 112.0
364.271729 68.0
365.846069 32.0
365.956451 148.0
368.192963 128.0
368.515686 156.0
369.115784 108.0
369.517395 48.0
370.102997 172.0
370.279144 108.0
370.855103 144.0
371.210388 44.0
371.752716 244.0
371.862488 4936.0
371.927124 156.0
372.012238 108.0
372.115906 40.0
372.561401 152.0
372.709534 72.0
372.870209 4232.0
373.053284 32.0
373.122467 144.0
373.60321 76.0
373.876617 1252.0
374.422852 76.0
374.461578 52.0
374.642609 36.0
374.893036 124.0
375.066467 64.0
375.305511 108.0
375.85321 168.0
375.918823 108.0
375.953552 136.0
376.077026 60.0
377.83139 124.0
380.44339 104.0
382.974792 104.0
383.812653 60.0
384.534332 44.0
384.872772 104.0
385.498932 80.0
385.845367 444.0
386.840454 136.0
386.867859 144.0
388.866943 140.0
389.459808 152.0
389.5737 64.0
392.186493 152.0
392.474274 56.0
396.87323 148.0
397.097107 100.0
397.839111 84.0
397.887482 132.0
397.922485 116.0
398.375214 152.0
398.850067 452.0
398.987213 88.0
399.699158 112.0
399.860565 740.0
399.884583 484.0
400.766235 44.0
400.845612 244.0
400.897522 148.0
401.675201 44.0
401.874969 208.0
401.998352 88.0
402.517303 140.0
403.112488 68.0
403.756104 44.0
403.881165 128.0
410.89801 204.0
411.701233 92.0
411.753754 108.0
412.864655 248.0
412.910828 132.0
412.98645 296.0
413.863922 164.0
414.739655 116.0
414.879028 180.0
420.429504 176.0
420.55603 188.0
421.809998 76.0
423.879974 196.0
424.87912 76.0
424.905914 156.0
425.476379 108.0
426.043091 88.0
426.108826 116.0
426.704773 224.0
426.883026 1864.0
427.350464 208.0
427.720856 196.0
427.770264 212.0
427.887665 4708.0
427.980225 172.0
428.070801 76.0
428.247894 104.0
428.305542 108.0
428.37558 104.0
428.50235 88.0
428.7258 76.0
428.762878 144.0
428.890442 872.0
429.100891 136.0
429.885651 152.0
429.917603 132.0
430.809418 52.0
431.139984 68.0
432.268921 48.0
433.287476 36.0
433.490479 120.0
433.93399 208.0
434.377716 148.0
440.346466 100.0
440.910461 120.0
443.853302 72.0
445.553131 144.0
445.894928 940.0
445.956543 148.0
446.212952 60.0
446.895569 240.0
446.92807 148.0
447.092072 40.0
447.774078 116.0
449.954102 56.0
451.124298 40.0
454.87619 264.0
457.381104 132.0
459.879303 132.0
460.062378 84.0
468.894409 384.0
469.742493 372.0
469.782379 168.0
469.896515 444.0
470.023987 116.0
470.749176 148.0
470.907043 152.0
471.905273 144.0
472.87616 156.0
474.734711 164.0
480.969269 84.0
483.889404 248.0
485.759552 128.0
486.629608 112.0
486.76886 112.0
486.857941 84.0
486.923828 120.0
494.852325 60.0
495.268585 148.0
497.929749 76.0
498.165161 96.0
498.453339 184.0
498.70282 184.0
498.766174 3736.0
498.880615 156.0
498.960632 52.0
498.99176 116.0
499.227417 76.0
499.480927 56.0
499.770294 400.0
500.161713 48.0
500.517853 52.0
501.261749 92.0
502.086456 52.0
502.65744 124.0
502.742218 112.0
505.942535 40.0
510.703522 40.0
510.760071 484.0
511.48645 52.0
511.780731 152.0
513.441833 104.0
514.953735 72.0
515.690186 68.0
519.516418 148.0
526.796692 472.0
526.946228 88.0
527.805481 160.0
528.779907 176.0
530.529602 32.0
536.773376 316.0
537.216064 112.0
537.788269 124.0
537.931335 32.0
540.750854 100.0
540.797119 136.0
554.788757 820.0
554.883972 44.0
554.991821 68.0
555.052795 44.0
555.610901 84.0
555.800659 204.0
568.534851 108.0
568.767456 108.0
568.817505 508.0
568.909851 60.0
569.797668 180.0
572.785034 136.0
572.814514 100.0
573.71936 80.0
596.037842 92.0
596.805115 1080.0
596.946838 68.0
597.811218 100.0
598.784485 124.0
598.839905 120.0
599.161438 76.0
600.267822 92.0
601.204407 68.0
602.4104 108.0
606.716858 56.0
607.741882 200.0
608.453552 60.0
619.29718 48.0
656.562683 88.0
671.419861 64.0
673.174438 64.0
690.772949 52.0
706.999451 44.0
716.445312 64.0
729.932922 100.0
735.077209 136.0
765.22052 88.0
778.774292 48.0
800.254028 108.0
822.802124 76.0
837.222961 108.0
840.404846 100.0
867.120178 104.0
874.555725 120.0
881.018494 40.0
899.606079 124.0
917.314453 28.0
935.377991 68.0
960.106689 44.0
964.335693 60.0
1008.849609 184.0
1048.327515 68.0
1110.917725 52.0
1131.383179 36.0
1145.492065 92.0
1156.437378 88.0
1195.447998 176.0
1258.345459 116.0
1265.571167 72.0
1274.145874 112.0
1274.231079 48.0
1280.205933 88.0
1280.9823 212.0
1285.431152 168.0
1299.469482 124.0
1328.761475 168.0
1336.281006 132.0
1347.866821 156.0
1357.18457 76.0
1371.512695 44.0
1380.608521 192.0
1381.126221 68.0
1392.919189 52.0
1403.173828 108.0
1405.590454 116.0
1416.580688 40.0
1422.474609 180.0
1425.110596 56.0
1431.828003 224.0
1440.411255 148.0
1449.179199 128.0
1453.174805 140.0
1466.40625 176.0
1480.401978 56.0
1485.061646 180.0
