>compound MLS001140907-01!1-[3-(4-methyl-2-oxo-6,7,8,9-tetrahydro-[1]benzofuro[3,2-g]chromen-3-yl)propanoyl]-4-phenylpiperidine-4-carboxylic acid
>formula C31H31NO6
>ionization [M+H]+
>parentmass 514.223
#inchi InChI=1S/C31H31NO6/c1-19-21(29(34)38-26-18-27-24(17-23(19)26)22-9-5-6-10-25(22)37-27)11-12-28(33)32-15-13-31(14-16-32,30(35)36)20-7-3-2-4-8-20/h2-4,7-8,17-18H,5-6,9-16H2,1H3,(H,35,36)
#inchikey UFSOZYKZIKZDGN
#Ion_Source LC-ESI
#Instrument qTof
#Compound_Source NIH Natural Product Library
#PI Dorrestein
#Data_Collector VVP/LMS
#Scan -1
#Precursor_MZ 514.223
#ExactMass 513.215
#Charge 1
#CAS_Number N/A
#Pubmed_ID N/A
#Smiles Cc1c(CCC(=O)N2CCC(CC2)(C(=O)O)c3ccccc3)c(=O)oc4cc5oc6CCCCc6c5cc14
#INCHI_AUX N/A
#Library_Class 1
#SpectrumID CCMSLIB00000080104
#IonMode Positive
#UpdateWorkflowName UPDATE-SINGLE-ANNOTATED-GOLD
#LibraryQualityString Gold
#TaskID b1d8e8f6646f4e71acdff9ca3d919d08
##Scan# 2506
#SpectrumFile p2-B04_GB4_01_17992.mzXML
#LibraryName NIH_Natural_Products_Library.mgf
#MQScore -1
#Organism NIH_Natural_Products_Library
#TIC_Query 0
#RT_Query -1
#MZErrorPPM -1
#SharedPeaks 0
#MassDiff 0
#LibMZ -1
#SpecMZ 514.223
#SpecCharge 0
#internalFilename spec-00000.mgf

>collision 10
94.965271 220.0
95.017151 48.0
95.078003 144.0
95.106415 228.0
95.217087 296.0
95.312279 156.0
95.353088 116.0
95.37986 160.0
95.493073 108.0
95.566994 124.0
95.637047 200.0
95.738289 184.0
95.882454 80.0
95.917542 184.0
95.952629 116.0
95.989677 112.0
96.117683 160.0
96.155495 128.0
96.21991 172.0
96.313644 180.0
96.532539 148.0
96.655777 156.0
96.694916 152.0
96.820457 160.0
96.833435 80.0
96.902481 96.0
96.925995 132.0
97.043602 192.0
97.088699 168.0
97.125969 100.0
97.147545 116.0
97.17305 140.0
97.204445 80.0
97.226196 188.0
97.24762 164.0
97.493111 144.0
97.525581 184.0
97.608681 152.0
97.644493 160.0
97.693665 156.0
97.748756 108.0
97.790085 188.0
97.827484 112.0
97.862923 72.0
97.906242 120.0
98.074638 176.0
98.113136 148.0
98.182152 180.0
98.236992 204.0
98.268944 68.0
98.32814 100.0
98.434746 136.0
98.522415 248.0
98.555237 156.0
98.673828 76.0
98.689644 136.0
98.733147 180.0
98.752815 140.0
98.798424 168.0
98.851845 128.0
98.865692 156.0
98.921333 180.0
98.94487 208.0
99.162766 172.0
99.178619 44.0
99.339241 180.0
99.386856 84.0
99.482117 92.0
99.547882 196.0
99.567497 132.0
99.694641 140.0
99.711304 188.0
99.758247 104.0
99.895531 116.0
99.967087 84.0
100.024803 68.0
100.080551 120.0
100.267883 184.0
100.33757 140.0
100.431107 128.0
100.455231 184.0
100.588928 132.0
100.636841 132.0
100.652817 188.0
100.692757 68.0
100.748306 148.0
100.830605 184.0
100.846596 124.0
100.868584 188.0
100.918564 204.0
100.938858 108.0
100.976555 212.0
100.990555 108.0
101.034561 60.0
101.052994 76.0
101.086586 176.0
101.13662 64.0
101.330864 160.0
101.350906 172.0
101.364929 280.0
101.388977 232.0
101.421043 112.0
101.50415 248.0
101.528999 128.0
101.591492 176.0
101.641647 184.0
101.701859 148.0
101.735977 144.0
101.752045 184.0
101.772118 148.0
101.854462 120.0
102.053413 140.0
102.102692 208.0
102.172081 212.0
102.258606 196.0
102.278732 144.0
102.350517 128.0
102.365303 168.0
102.427734 148.0
102.453926 184.0
102.468918 168.0
102.56073 188.0
102.592979 152.0
102.66758 68.0
102.691025 128.0
102.814804 168.0
102.948097 92.0
103.000603 172.0
103.014748 156.0
103.127899 104.0
103.174393 128.0
103.240295 128.0
103.293709 160.0
103.37059 128.0
103.387665 164.0
103.409042 100.0
103.490013 160.0
103.508911 192.0
103.658134 216.0
103.688538 140.0
103.755424 96.0
103.808441 192.0
103.85276 164.0
103.871017 156.0
104.025475 208.0
104.088173 76.0
104.151932 204.0
104.195824 148.0
104.256783 124.0
104.284409 304.0
104.543526 168.0
104.677879 88.0
104.750404 188.0
104.767494 152.0
104.82251 124.0
104.836777 132.0
105.036041 212.0
105.067184 176.0
105.167168 148.0
105.183502 124.0
105.210037 60.0
105.226372 168.0
105.254959 104.0
105.301926 104.0
105.328476 136.0
105.37751 108.0
105.418373 120.0
105.432678 96.0
105.448143 120.0
105.459953 104.0
105.487862 44.0
105.588051 132.0
105.684196 168.0
105.723076 168.0
105.772202 188.0
105.811096 380.0
105.852043 128.0
105.981094 160.0
106.093819 64.0
106.116676 160.0
106.216248 204.0
106.243523 52.0
106.333679 132.0
106.436447 128.0
106.477798 148.0
106.524765 184.0
106.553528 212.0
106.617226 128.0
106.691223 124.0
106.770409 180.0
106.810493 160.0
106.82489 140.0
106.845467 148.0
106.946297 36.0
107.008377 168.0
107.026581 140.0
107.092484 112.0
107.156693 164.0
107.242584 160.0
107.339394 208.0
107.354225 32.0
107.449104 60.0
107.504814 160.0
107.541962 60.0
107.564667 172.0
107.591507 168.0
107.674103 156.0
107.799309 224.0
107.843521 60.0
107.866257 176.0
107.953026 124.0
107.955849 120.0
108.102036 252.0
108.137886 248.0
108.166199 104.0
108.19104 148.0
108.207603 112.0
108.339272 152.0
108.358788 140.0
108.395393 120.0
108.441681 48.0
108.469688 140.0
108.514236 68.0
108.561928 164.0
108.588882 68.0
108.615852 168.0
108.691917 144.0
108.728821 104.0
108.763176 188.0
108.844139 132.0
108.881523 212.0
108.954491 248.0
108.987465 176.0
109.076828 240.0
109.110031 136.0
109.318092 124.0
109.413834 112.0
109.436737 208.0
109.515869 164.0
109.588783 180.0
109.743019 108.0
109.80558 196.0
109.849976 168.0
109.943275 164.0
109.989189 140.0
110.065742 156.0
110.124908 148.0
110.195938 136.0
110.392418 144.0
110.438431 336.0
110.528389 152.0
110.568146 120.0
110.610008 140.0
110.651878 92.0
110.690575 168.0
110.777527 140.0
110.833946 168.0
110.909546 56.0
110.937172 112.0
110.954269 212.0
110.989212 200.0
111.014374 104.0
111.110855 132.0
111.140228 192.0
111.168571 156.0
111.257767 76.0
111.272461 236.0
111.297653 120.0
111.362755 176.0
111.4422 196.0
111.502846 168.0
111.663307 156.0
111.734825 216.0
111.791756 144.0
111.878998 168.0
111.909515 192.0
112.073807 52.0
112.147339 152.0
112.231888 84.0
112.271957 128.0
112.298569 168.0
112.337341 172.0
112.422333 156.0
112.522911 116.0
112.556839 144.0
112.615257 248.0
112.639206 156.0
112.692017 124.0
112.75119 116.0
112.956276 232.0
113.011284 44.0
113.036674 40.0
113.155205 164.0
113.294983 96.0
113.311935 48.0
113.364906 180.0
113.460289 188.0
113.487846 52.0
113.573936 152.0
113.596008 80.0
113.670265 104.0
113.711494 188.0
113.895309 116.0
113.954796 204.0
113.984543 52.0
114.048088 160.0
114.067429 124.0
114.132011 112.0
114.171608 116.0
114.214149 128.0
114.241798 160.0
114.265205 216.0
114.38974 108.0
114.520653 76.0
114.541801 168.0
114.618645 116.0
114.659981 152.0
114.699135 188.0
114.707626 144.0
114.731613 188.0
114.795578 92.0
114.824951 160.0
114.829765 124.0
114.836617 164.0
114.934227 128.0
114.983307 120.0
115.005081 20.0
115.117699 156.0
115.145569 176.0
115.184013 40.0
115.22229 144.0
115.39772 96.0
115.472565 176.0
115.50679 316.0
115.566689 96.0
115.654427 60.0
115.713257 184.0
115.770042 144.0
115.793602 124.0
115.910294 160.0
115.93071 68.0
115.99501 116.0
116.047623 192.0
116.055618 104.0
116.147255 136.0
116.17514 128.0
116.209465 152.0
116.23307 204.0
116.25238 172.0
116.273842 164.0
116.306038 180.0
116.323212 148.0
116.443451 136.0
116.520782 164.0
116.608582 196.0
116.649727 216.0
116.761536 92.0
116.802399 164.0
116.85833 136.0
117.011139 160.0
117.077599 176.0
117.103737 224.0
117.245934 120.0
117.261017 336.0
117.402359 164.0
117.429184 108.0
117.46154 136.0
117.493896 228.0
117.524109 148.0
117.554314 280.0
117.617706 140.0
117.666557 128.0
117.763725 160.0
117.798286 224.0
117.830696 144.0
117.866112 264.0
117.889526 140.0
117.91713 136.0
118.00576 204.0
118.024246 156.0
118.064499 120.0
118.148499 136.0
118.27401 164.0
118.302147 136.0
118.332458 228.0
118.357292 188.0
118.382538 124.0
118.473473 216.0
118.50499 212.0
118.554352 356.0
118.631424 136.0
118.689964 120.0
118.763702 244.0
118.932945 104.0
118.964607 164.0
118.98381 232.0
119.154312 132.0
119.18486 140.0
119.230499 120.0
119.332664 116.0
119.373978 176.0
119.528419 200.0
119.565414 144.0
119.66468 168.0
119.823601 168.0
119.907341 188.0
119.948753 176.0
119.964012 196.0
120.147202 56.0
120.19957 136.0
120.214844 244.0
120.332993 248.0
120.40477 312.0
120.570808 164.0
120.594849 168.0
120.693222 168.0
120.710716 128.0
120.767578 80.0
120.842506 144.0
120.901039 152.0
120.931679 156.0
120.946999 208.0
121.03933 184.0
121.262398 112.0
121.294167 236.0
121.375961 160.0
121.497086 192.0
121.547493 88.0
121.637474 144.0
121.67205 144.0
121.698944 168.0
121.755539 176.0
121.79557 112.0
121.828522 152.0
122.010925 128.0
122.085686 112.0
122.153 196.0
122.235275 100.0
122.283691 152.0
122.358536 224.0
122.380547 164.0
122.424591 96.0
122.47084 120.0
122.528114 140.0
122.543533 88.0
122.633888 68.0
122.746323 36.0
122.950623 176.0
122.959656 108.0
122.963066 144.0
122.986221 200.0
123.137321 136.0
123.200989 148.0
123.231918 120.0
123.262856 80.0
123.317947 232.0
123.342415 264.0
123.377655 200.0
123.42643 100.0
123.490562 84.0
123.585686 148.0
123.663139 156.0
123.728775 196.0
123.833618 220.0
124.023384 136.0
124.117279 148.0
124.14389 180.0
124.170502 56.0
124.212646 156.0
124.234825 136.0
124.319145 168.0
124.374626 132.0
124.401268 96.0
124.419022 88.0
124.495033 120.0
124.55555 140.0
124.816734 140.0
124.876778 104.0
124.941284 176.0
125.022537 124.0
125.04142 112.0
125.063675 156.0
125.08371 100.0
125.143814 56.0
125.224174 188.0
125.301949 140.0
125.357651 152.0
125.386627 200.0
125.54425 216.0
125.590195 184.0
125.640823 76.0
125.709991 108.0
125.738998 188.0
125.811745 172.0
125.826057 204.0
125.864014 148.0
125.903137 168.0
125.935478 184.0
126.147751 112.0
126.183525 176.0
126.257317 136.0
126.36174 152.0
126.376991 208.0
126.484055 200.0
126.500908 124.0
126.525826 172.0
126.579559 136.0
126.75428 164.0
126.776688 172.0
126.819275 56.0
126.859619 140.0
126.89325 156.0
126.92688 116.0
126.951546 128.0
127.007835 168.0
127.045547 132.0
127.085876 152.0
127.243248 88.0
127.288155 172.0
127.319588 116.0
127.35553 180.0
127.393631 216.0
127.429657 164.0
127.45887 180.0
127.483589 180.0
127.511261 140.0
127.530785 124.0
127.601303 184.0
127.637451 232.0
127.757896 128.0
127.834396 144.0
127.850151 120.0
127.982964 104.0
128.055328 180.0
128.100067 160.0
128.136124 220.0
128.190201 168.0
128.408875 36.0
128.467514 184.0
128.523926 152.0
128.60968 240.0
128.636765 76.0
128.681915 172.0
128.71579 164.0
128.934906 104.0
129.018539 148.0
129.065414 296.0
129.099945 120.0
129.158752 148.0
129.210785 116.0
129.265076 144.0
129.312607 168.0
129.337509 192.0
129.37825 144.0
129.412216 164.0
129.554886 128.0
129.576584 180.0
129.593002 228.0
129.747528 144.0
129.774734 124.0
129.795135 112.0
129.815552 184.0
129.867706 320.0
129.90155 148.0
130.04689 148.0
130.081009 140.0
130.105972 136.0
130.174088 40.0
130.260391 108.0
130.293671 172.0
130.428543 112.0
130.469467 228.0
130.485382 180.0
130.519485 48.0
130.651398 136.0
130.721939 96.0
130.78566 216.0
130.840286 60.0
130.901764 60.0
130.96553 124.0
131.050735 160.0
131.089783 120.0
131.177444 156.0
131.20253 160.0
131.252686 60.0
131.30513 52.0
131.371277 112.0
131.665726 96.0
131.747955 160.0
131.786789 104.0
131.915207 108.0
131.980606 176.0
132.019958 160.0
132.035965 156.0
132.0634 160.0
132.088562 180.0
132.113129 112.0
132.198212 212.0
132.232712 144.0
132.283066 220.0
132.308746 184.0
132.378372 128.0
132.431961 180.0
132.571655 192.0
132.606033 116.0
132.656464 164.0
132.683548 108.0
132.752762 200.0
132.775696 124.0
132.835327 116.0
132.940872 96.0
133.009293 188.0
133.066101 308.0
133.107834 224.0
133.188095 100.0
133.223282 124.0
133.301407 44.0
133.381851 40.0
133.489899 160.0
133.591095 112.0
133.63942 92.0
133.752182 200.0
133.770599 260.0
133.798218 96.0
133.828156 148.0
133.913361 92.0
133.939178 192.0
133.975555 164.0
134.067719 44.0
134.143341 112.0
134.185272 64.0
134.226776 64.0
134.263672 176.0
134.316727 56.0
134.344971 196.0
134.367706 192.0
134.39978 156.0
134.422852 184.0
134.471313 316.0
134.492081 108.0
134.556717 164.0
134.609833 116.0
134.656021 116.0
134.725311 116.0
134.799255 132.0
134.836227 232.0
134.861649 140.0
134.879669 160.0
135.000366 156.0
135.01886 132.0
135.099823 88.0
135.119354 200.0
135.176178 180.0
135.224426 136.0
135.363678 136.0
135.423889 236.0
135.525818 196.0
135.611557 36.0
135.630112 192.0
135.660248 120.0
135.687927 264.0
135.725159 132.0
135.850403 88.0
135.91304 136.0
135.954803 148.0
135.984985 88.0
136.068542 72.0
136.089447 160.0
136.124268 132.0
136.261307 180.0
136.314758 140.0
136.34729 56.0
136.403076 168.0
136.423996 48.0
136.440262 80.0
136.475143 92.0
136.50769 192.0
136.563507 208.0
136.612366 216.0
136.628647 140.0
136.65889 144.0
136.705429 332.0
136.734634 116.0
136.761276 180.0
136.849747 152.0
136.866043 164.0
136.919601 144.0
137.029083 76.0
137.059372 44.0
137.140945 156.0
137.21553 192.0
137.263199 208.0
137.282547 512.0
137.31813 112.0
137.346313 152.0
137.381119 176.0
137.437103 52.0
137.490784 128.0
137.535126 160.0
137.658859 144.0
137.679886 188.0
137.717255 120.0
137.976639 92.0
138.007034 152.0
138.081863 164.0
138.156708 184.0
138.180099 164.0
138.198822 184.0
138.249435 172.0
138.318176 180.0
138.343933 140.0
138.36499 120.0
138.393097 192.0
138.444611 152.0
138.507843 40.0
138.524246 112.0
138.665024 140.0
138.7117 236.0
138.737488 148.0
138.753906 60.0
138.795456 216.0
138.828934 176.0
138.873505 168.0
138.908676 184.0
138.941528 220.0
139.094055 68.0
139.126923 108.0
139.263123 36.0
139.307373 176.0
139.382935 216.0
139.488693 108.0
139.505142 112.0
139.54747 140.0
139.566193 120.0
139.761505 108.0
139.836807 164.0
139.885605 180.0
140.10289 116.0
140.121735 264.0
140.190063 152.0
140.345642 128.0
140.379547 196.0
140.454895 196.0
140.471817 136.0
140.498947 132.0
140.598053 152.0
140.633453 104.0
140.654694 144.0
140.888474 256.0
140.921555 152.0
140.964081 140.0
141.013718 184.0
141.034988 148.0
141.068085 1112.0
141.155563 84.0
141.306946 172.0
141.332962 172.0
141.368454 128.0
141.38739 124.0
141.42926 256.0
141.569687 156.0
141.633621 124.0
141.790009 156.0
141.816071 176.0
141.835739 188.0
141.861115 148.0
141.884811 184.0
141.951202 196.0
142.03421 108.0
142.076462 320.0
142.157593 128.0
142.271515 64.0
142.307129 140.0
142.409241 140.0
142.530396 196.0
142.625458 128.0
142.651611 148.0
142.670624 108.0
142.753845 256.0
142.88942 76.0
142.937012 64.0
143.003647 152.0
143.036972 44.0
143.087173 136.0
143.108383 204.0
143.158386 208.0
143.198883 128.0
143.256042 164.0
143.380463 164.0
143.432205 112.0
143.435196 176.0
143.603287 200.0
143.697083 164.0
143.765213 124.0
143.825958 176.0
143.873703 160.0
144.091034 168.0
144.136429 116.0
144.181824 116.0
144.241577 56.0
144.367508 180.0
144.437653 156.0
144.557281 196.0
144.578827 176.0
144.640472 216.0
144.696106 128.0
144.775131 228.0
144.830215 152.0
144.883453 228.0
144.966766 188.0
145.077789 264.0
145.096207 144.0
145.134567 100.0
145.201706 160.0
145.257874 164.0
145.331131 164.0
145.360046 180.0
145.400848 144.0
145.416443 112.0
145.446442 64.0
145.532867 144.0
145.5905 144.0
145.616913 152.0
145.706619 188.0
145.744232 92.0
145.86441 140.0
145.977402 204.0
146.073608 116.0
146.193909 124.0
146.282394 168.0
146.321472 228.0
146.338333 172.0
146.38649 144.0
146.412979 148.0
146.539154 376.0
146.649094 108.0
146.678604 148.0
146.733459 180.0
146.812424 192.0
146.844376 132.0
146.868637 152.0
146.907104 224.0
146.928802 180.0
146.984299 144.0
147.034973 196.0
147.057419 160.0
147.124283 52.0
147.232941 104.0
147.518051 136.0
147.634109 176.0
147.738129 160.0
147.815552 176.0
147.85553 176.0
147.972412 228.0
148.036499 188.0
148.090836 196.0
148.173889 144.0
148.212662 68.0
148.316864 200.0
148.3508 152.0
148.379898 152.0
148.541336 148.0
148.573914 128.0
148.590897 52.0
148.683105 96.0
148.725601 196.0
148.811752 184.0
148.855621 188.0
149.015778 116.0
149.066803 108.0
149.297745 80.0
149.336655 148.0
149.371948 120.0
149.466141 72.0
149.553207 180.0
149.646606 208.0
149.722397 116.0
149.752853 184.0
149.842987 52.0
149.864914 152.0
149.938019 116.0
149.984329 136.0
150.118652 216.0
150.34285 76.0
150.367264 152.0
150.430725 176.0
150.453766 136.0
150.49353 264.0
150.541031 224.0
150.631973 144.0
150.66272 188.0
150.728683 212.0
150.763443 180.0
150.850891 164.0
150.923233 140.0
150.964172 180.0
151.122345 176.0
151.22023 164.0
151.572891 140.0
151.602295 100.0
151.624344 204.0
151.692978 148.0
151.79985 156.0
151.852356 160.0
151.911224 148.0
152.001999 136.0
152.066559 144.0
152.188553 164.0
152.245865 164.0
152.301514 128.0
152.31871 160.0
152.389954 136.0
152.469711 152.0
152.492981 164.0
152.616074 152.0
152.677551 244.0
152.694778 168.0
152.724289 144.0
152.758728 64.0
152.871902 116.0
152.9039 224.0
152.939667 180.0
153.072296 696.0
153.194504 144.0
153.276169 140.0
153.317642 232.0
153.370117 312.0
153.416229 168.0
153.463074 180.0
153.500061 116.0
153.677658 176.0
153.818329 176.0
153.855362 72.0
153.894852 116.0
153.988693 228.0
154.022659 96.0
154.083069 116.0
154.127045 164.0
154.204407 156.0
154.271729 236.0
154.297577 132.0
154.322296 160.0
154.506424 188.0
154.5336 176.0
154.676071 152.0
154.728058 120.0
154.752823 68.0
154.827103 124.0
154.843643 136.0
154.86673 180.0
154.913788 220.0
154.931137 72.0
155.017853 136.0
155.083282 268.0
155.173065 220.0
155.213684 148.0
155.258316 140.0
155.293045 112.0
155.340164 160.0
155.406052 36.0
155.429489 124.0
155.484085 196.0
155.551102 180.0
155.618484 164.0
155.645432 136.0
155.752228 152.0
155.86998 160.0
155.941925 160.0
155.985809 176.0
156.010666 184.0
156.066299 212.0
156.217072 128.0
156.254379 140.0
156.276779 188.0
156.369629 192.0
156.413895 204.0
156.486252 148.0
156.513229 64.0
156.535645 120.0
156.625305 160.0
156.714661 156.0
156.833099 184.0
156.918915 112.0
157.064987 1460.0
157.113892 200.0
157.141342 128.0
157.17128 156.0
157.209427 152.0
157.23616 128.0
157.263611 152.0
157.296066 140.0
157.31604 100.0
157.344116 196.0
157.360977 228.0
157.540787 132.0
157.565765 52.0
157.645721 164.0
157.705704 108.0
157.743195 200.0
157.863205 228.0
157.903229 104.0
157.930603 144.0
157.950745 188.0
157.978271 176.0
158.071808 528.0
158.098358 112.0
158.119537 104.0
158.15593 184.0
158.24855 124.0
158.293625 128.0
158.376266 116.0
158.443909 88.0
158.478989 144.0
158.496521 104.0
158.519073 104.0
158.569199 124.0
158.644394 176.0
158.664444 176.0
158.694534 148.0
158.957184 140.0
159.005081 160.0
159.034454 216.0
159.059601 208.0
159.123566 92.0
159.178802 60.0
159.211456 136.0
159.279266 120.0
159.334015 136.0
159.352127 196.0
159.387299 224.0
159.427505 216.0
159.538101 184.0
159.618866 164.0
159.638229 116.0
159.663818 140.0
159.718201 208.0
159.789581 112.0
159.847458 140.0
159.890244 136.0
160.050858 144.0
160.111221 1288.0
160.142014 120.0
160.167191 172.0
160.262924 432.0
160.303238 112.0
160.32341 156.0
160.374695 172.0
160.47464 128.0
160.627121 152.0
160.727631 148.0
160.757156 164.0
160.835388 168.0
160.878311 56.0
160.913651 128.0
160.970093 160.0
161.012131 192.0
161.111328 268.0
161.20784 120.0
161.247086 148.0
161.279953 164.0
161.31163 120.0
161.354218 180.0
161.39624 148.0
161.50499 84.0
161.656784 124.0
161.838196 216.0
162.046722 136.0
162.115143 128.0
162.145691 144.0
162.429947 144.0
162.447403 168.0
162.467575 160.0
162.619827 76.0
162.713745 88.0
162.736603 288.0
162.759445 132.0
162.812775 164.0
162.906754 144.0
163.010925 208.0
163.03125 224.0
163.054123 216.0
163.087173 156.0
163.176147 232.0
163.193222 112.0
163.217636 164.0
163.252426 220.0
163.27652 220.0
163.491562 168.0
163.541275 224.0
163.598465 220.0
163.658142 180.0
163.692657 188.0
163.781799 124.0
163.840332 164.0
163.87352 196.0
163.919373 64.0
164.044266 144.0
164.092697 164.0
164.133499 180.0
164.22493 228.0
164.274765 204.0
164.299286 144.0
164.332108 208.0
164.403305 172.0
164.447281 140.0
164.516205 64.0
164.687881 156.0
164.758804 48.0
164.817581 116.0
164.909576 216.0
164.983063 176.0
165.016937 204.0
165.071793 344.0
165.122253 244.0
165.144806 124.0
165.178055 116.0
165.295746 164.0
165.354599 164.0
165.469788 136.0
165.586823 136.0
165.700439 200.0
165.777161 300.0
165.9207 152.0
166.002106 108.0
166.075516 440.0
166.095078 132.0
166.172043 224.0
166.237106 180.0
166.385056 148.0
166.462692 188.0
166.523712 192.0
166.5905 68.0
166.802444 200.0
166.964554 152.0
166.994064 148.0
167.083557 436.0
167.100555 304.0
167.152817 152.0
167.310928 172.0
167.32991 172.0
167.398117 108.0
167.477951 112.0
167.501129 148.0
167.529465 172.0
167.580994 52.0
167.611908 160.0
167.691391 228.0
167.812408 188.0
167.846481 128.0
167.864532 84.0
167.913528 152.0
167.959961 176.0
167.982224 164.0
168.042511 148.0
168.092163 180.0
168.191223 428.0
168.242096 156.0
168.313522 412.0
168.335114 144.0
168.367752 40.0
168.393585 36.0
168.426804 144.0
168.496902 128.0
168.587341 92.0
168.703659 116.0
168.770874 108.0
168.807068 120.0
168.853622 136.0
168.875717 184.0
168.90535 60.0
168.936401 268.0
169.071228 180.0
169.106079 196.0
169.205536 132.0
169.266602 308.0
169.293579 212.0
169.428268 208.0
169.559448 160.0
169.581146 48.0
169.694916 140.0
169.721146 164.0
169.744476 168.0
169.824875 116.0
169.983749 184.0
170.060974 60.0
170.177795 196.0
170.346603 212.0
170.385574 192.0
170.416748 200.0
170.497757 116.0
170.679276 104.0
170.733887 156.0
170.75209 76.0
170.831573 164.0
170.926376 116.0
170.973221 188.0
171.01207 196.0
171.046097 112.0
171.077957 356.0
171.155441 204.0
171.194504 136.0
171.366425 116.0
171.460236 180.0
171.496719 240.0
171.594818 248.0
171.690628 160.0
171.749634 144.0
171.816315 128.0
171.868332 168.0
171.927048 200.0
171.987457 392.0
172.041901 112.0
172.085815 180.0
172.115005 116.0
172.248199 176.0
172.289993 140.0
172.449387 128.0
172.483368 132.0
172.500397 124.0
172.590561 208.0
172.705627 40.0
172.818115 156.0
172.907089 100.0
172.935883 136.0
173.047089 140.0
173.064148 188.0
173.085098 156.0
173.202667 184.0
173.244858 104.0
173.312973 148.0
173.396835 268.0
173.640656 204.0
173.769104 180.0
173.834793 132.0
173.888184 152.0
173.931671 232.0
174.000153 56.0
174.031662 52.0
174.202362 144.0
174.3022 136.0
174.356171 160.0
174.399445 160.0
174.430984 124.0
174.473053 136.0
174.559814 156.0
174.706528 148.0
174.746567 56.0
174.788666 220.0
174.845016 212.0
174.951843 184.0
175.004501 132.0
175.030838 212.0
175.214554 148.0
175.244186 136.0
175.356857 116.0
175.47612 180.0
175.505127 232.0
175.745148 80.0
176.220398 148.0
176.282501 120.0
176.365753 148.0
176.452988 148.0
176.553467 248.0
176.571976 152.0
176.595779 48.0
176.765091 236.0
176.884186 80.0
176.905365 188.0
176.958313 96.0
177.008621 156.0
177.038864 220.0
177.072189 160.0
177.095642 168.0
177.10405 124.0
177.110153 144.0
177.170197 192.0
177.191391 164.0
177.261703 164.0
177.292068 140.0
177.471313 148.0
177.48999 236.0
177.639404 280.0
177.711807 180.0
177.763306 120.0
177.923355 364.0
177.987091 108.0
178.040192 140.0
178.080032 184.0
178.165039 48.0
178.21286 140.0
178.236771 140.0
178.297897 232.0
178.422821 204.0
178.446747 160.0
178.643555 104.0
178.672806 216.0
178.715378 136.0
178.795212 176.0
178.883041 168.0
178.936295 108.0
179.056564 144.0
179.090744 100.0
179.112045 224.0
179.133362 144.0
179.162659 136.0
179.191971 96.0
179.271912 100.0
179.306549 212.0
179.46933 188.0
179.493164 156.0
179.519821 64.0
179.541153 196.0
179.55983 140.0
179.655853 116.0
179.781265 140.0
179.799942 120.0
179.82663 136.0
179.861328 160.0
179.93074 156.0
179.986801 164.0
180.024185 136.0
180.089981 648.0
180.173767 176.0
180.204498 324.0
180.245911 156.0
180.364929 284.0
180.388992 164.0
180.427658 88.0
180.454391 176.0
180.483795 156.0
180.604141 136.0
180.641586 136.0
180.77269 192.0
180.834244 196.0
180.891388 196.0
180.989517 144.0
181.013611 232.0
181.067322 160.0
181.100754 360.0
181.126099 256.0
181.18631 244.0
181.219864 36.0
181.305603 144.0
181.349701 80.0
181.442307 156.0
181.466446 136.0
181.51738 144.0
181.554932 100.0
181.750748 188.0
181.828568 156.0
181.884933 132.0
181.925201 144.0
182.031845 164.0
182.072937 184.0
182.126602 156.0
182.183014 152.0
182.250183 104.0
182.277054 80.0
182.346924 204.0
182.407135 148.0
182.478638 144.0
182.548553 124.0
182.583511 148.0
182.605728 136.0
182.72876 144.0
182.763733 132.0
182.852539 116.0
182.930603 112.0
182.987137 36.0
183.0383 108.0
183.08316 504.0
183.105194 176.0
183.119843 444.0
183.148712 124.0
183.18103 128.0
183.205276 216.0
183.23761 132.0
183.283417 220.0
183.313049 152.0
183.33461 136.0
183.372345 200.0
183.399292 164.0
183.418533 204.0
183.461288 60.0
183.488251 244.0
183.574539 36.0
183.612289 108.0
183.633865 128.0
183.709396 172.0
183.822708 176.0
183.892883 280.0
183.94957 140.0
184.086624 188.0
184.095505 144.0
184.119446 396.0
184.322266 44.0
184.416855 60.0
184.496643 156.0
184.554733 100.0
184.637146 168.0
184.727814 160.0
184.750809 128.0
184.798157 148.0
184.882034 208.0
184.925339 116.0
184.952408 84.0
185.033356 120.0
185.059036 464.0
185.10672 96.0
185.125687 132.0
185.174423 80.0
185.20755 176.0
185.234024 36.0
185.278656 100.0
185.345093 116.0
185.412842 136.0
185.456207 76.0
185.578201 172.0
185.629715 148.0
185.648697 156.0
185.704086 180.0
185.743622 84.0
185.827728 80.0
185.903702 136.0
186.061127 196.0
186.093704 164.0
186.224258 160.0
186.292679 184.0
186.343582 296.0
186.37619 132.0
186.395203 148.0
186.474014 108.0
186.517502 136.0
186.555557 32.0
186.588181 268.0
186.618088 156.0
186.665482 240.0
186.686081 164.0
186.762222 184.0
186.827515 144.0
186.922745 176.0
186.947235 228.0
186.990768 192.0
187.072433 124.0
187.096939 168.0
187.129608 152.0
187.153702 136.0
187.315948 140.0
187.355652 136.0
187.413742 136.0
187.53923 196.0
187.579102 248.0
187.673355 232.0
187.726425 132.0
187.753601 112.0
187.889984 204.0
187.939102 120.0
187.958206 104.0
188.100037 160.0
188.171097 208.0
188.225708 120.0
188.253006 136.0
188.288513 184.0
188.321289 140.0
188.455154 180.0
188.48793 224.0
188.569077 168.0
188.61647 164.0
188.72847 180.0
188.761292 120.0
188.80481 216.0
188.881622 136.0
188.95549 176.0
189.018417 140.0
189.155258 176.0
189.177155 156.0
189.237381 116.0
189.267502 52.0
189.308578 92.0
189.522247 256.0
189.612671 176.0
189.708603 112.0
189.81279 176.0
189.856674 176.0
189.895065 124.0
189.963638 56.0
190.040451 88.0
190.08255 116.0
190.128448 176.0
190.210602 120.0
190.273743 160.0
190.350616 160.0
190.441254 220.0
190.61673 160.0
190.765488 152.0
190.806732 112.0
190.982727 216.0
191.018478 196.0
191.172562 160.0
191.290909 184.0
191.335617 132.0
191.392776 172.0
191.433395 196.0
191.505676 180.0
191.52771 244.0
191.546799 216.0
191.577301 124.0
191.637909 144.0
191.757706 136.0
191.797745 76.0
191.891479 156.0
191.931351 304.0
191.987991 172.0
192.023834 48.0
192.092789 164.0
192.170441 140.0
192.222473 84.0
192.327347 156.0
192.36322 128.0
192.41568 152.0
192.504028 128.0
192.557999 156.0
192.597931 156.0
192.672516 156.0
192.701492 148.0
192.760941 96.0
192.912949 180.0
193.054565 200.0
193.094208 176.0
193.12587 176.0
193.186722 340.0
193.300156 40.0
193.336136 96.0
193.40625 108.0
193.521591 80.0
193.565903 140.0
193.602264 148.0
193.781952 116.0
193.804108 92.0
193.826279 160.0
193.968735 212.0
194.031387 188.0
194.071045 272.0
194.114563 268.0
194.166214 64.0
194.203308 140.0
194.247681 148.0
194.405838 180.0
194.450241 224.0
194.533508 124.0
194.569595 176.0
194.629486 148.0
194.702881 120.0
194.747314 164.0
194.766769 176.0
194.808426 68.0
194.881973 236.0
194.955688 212.0
194.977661 172.0
195.037262 148.0
195.078522 208.0
195.109818 336.0
195.200714 196.0
195.264282 128.0
195.347717 220.0
195.406143 180.0
195.425613 180.0
195.456223 100.0
195.525803 204.0
195.6427 152.0
195.758942 144.0
195.809509 208.0
195.84877 300.0
195.905548 84.0
195.923981 128.0
195.982483 140.0
196.009094 160.0
196.074448 152.0
196.163284 188.0
196.211029 144.0
196.264008 60.0
196.302551 136.0
196.364395 80.0
196.607117 192.0
196.674103 188.0
196.710388 148.0
196.791351 72.0
196.82724 136.0
196.86116 176.0
196.896484 148.0
196.907654 148.0
196.928879 128.0
196.998016 156.0
197.039917 160.0
197.062271 604.0
197.09433 132.0
197.132126 180.0
197.204788 196.0
197.241119 116.0
197.386505 224.0
197.436844 160.0
197.47879 52.0
197.500259 224.0
197.529144 152.0
197.573898 84.0
197.660629 64.0
197.713806 436.0
197.773468 176.0
197.817017 64.0
197.825363 56.0
197.835556 112.0
197.920944 136.0
197.942963 200.0
197.988159 144.0
198.066879 304.0
198.105804 124.0
198.279526 200.0
198.325058 156.0
198.359711 124.0
198.414062 240.0
198.551468 136.0
198.910599 104.0
199.007492 132.0
199.087479 200.0
199.159912 168.0
199.222305 108.0
199.247589 176.0
199.287811 140.0
199.315018 172.0
199.343124 96.0
199.377487 156.0
199.410568 168.0
199.472412 192.0
199.567993 120.0
199.604538 84.0
199.655167 204.0
199.717041 176.0
199.759232 84.0
199.82605 224.0
199.885834 120.0
199.991821 152.0
200.141983 128.0
200.209564 72.0
200.263077 128.0
200.282791 100.0
200.342682 200.0
200.429291 172.0
200.457138 136.0
200.558929 216.0
200.682968 172.0
200.702713 172.0
200.74028 136.0
200.779877 228.0
200.835251 168.0
200.863464 156.0
200.902954 200.0
200.939621 64.0
200.967834 84.0
201.06459 220.0
201.106125 136.0
201.139984 128.0
201.221863 168.0
201.3461 128.0
201.411057 196.0
201.470383 156.0
201.492981 180.0
201.58905 104.0
201.621689 164.0
201.67868 168.0
201.758789 160.0
201.846298 116.0
201.990524 152.0
202.030426 276.0
202.075394 164.0
202.095932 108.0
202.129166 164.0
202.431137 68.0
202.451263 224.0
202.531174 328.0
202.567993 140.0
202.593491 128.0
202.652985 404.0
202.718155 172.0
202.769165 180.0
202.834351 220.0
202.973282 216.0
203.004471 180.0
203.065125 188.0
203.174652 204.0
203.43399 196.0
203.461716 212.0
203.53978 248.0
203.583374 176.0
203.611786 52.0
203.877716 224.0
203.978302 160.0
204.035156 176.0
204.0867 188.0
204.153809 160.0
204.231369 164.0
204.24968 156.0
204.319565 176.0
204.370773 152.0
204.427689 196.0
204.458084 76.0
204.475449 244.0
204.501678 144.0
204.550064 160.0
204.590591 204.0
204.826279 304.0
204.89888 144.0
205.000061 112.0
205.145432 152.0
205.180832 200.0
205.456268 124.0
205.52475 88.0
205.581818 160.0
205.764496 164.0
205.795898 100.0
205.818741 152.0
205.855865 216.0
206.072952 96.0
206.118423 940.0
206.152695 200.0
206.218689 128.0
206.269135 80.0
206.292999 80.0
206.321594 72.0
206.3517 144.0
206.398788 148.0
206.44545 152.0
206.473145 128.0
206.587753 112.0
206.644775 28.0
206.678528 140.0
206.772614 100.0
206.802155 240.0
206.879257 60.0
206.913803 124.0
207.117126 444.0
207.151489 184.0
207.200195 48.0
207.234573 132.0
207.27182 168.0
207.320541 148.0
207.344055 116.0
207.375 152.0
207.406525 144.0
207.479996 216.0
207.535522 176.0
207.641235 176.0
207.669525 188.0
207.701859 184.0
207.739151 436.0
207.759232 232.0
207.845306 164.0
207.894089 116.0
207.95723 172.0
208.02037 112.0
208.066315 196.0
208.093887 284.0
208.113541 124.0
208.138092 168.0
208.172546 140.0
208.201263 124.0
208.221375 96.0
208.261581 284.0
208.327652 164.0
208.36499 124.0
208.466843 108.0
208.500046 184.0
208.566147 128.0
208.739868 184.0
208.860077 232.0
208.899704 156.0
208.97348 168.0
209.020538 176.0
209.066589 156.0
209.097153 284.0
209.124069 152.0
209.201874 196.0
209.268082 160.0
209.455276 188.0
209.489838 176.0
209.636887 144.0
209.659836 104.0
209.691544 212.0
209.743423 156.0
209.812607 136.0
209.96254 176.0
210.000031 72.0
210.066376 168.0
210.105331 248.0
210.141388 172.0
210.213806 208.0
210.277008 176.0
210.334747 140.0
210.375153 168.0
210.543579 192.0
210.64949 116.0
210.783798 140.0
210.822845 116.0
211.075623 2956.0
211.112686 972.0
211.216049 60.0
211.259445 256.0
211.305725 116.0
211.378204 164.0
211.404114 136.0
211.502808 120.0
211.523254 240.0
211.545929 72.0
211.606735 188.0
211.646225 100.0
211.684906 248.0
211.763107 164.0
211.806549 124.0
211.858688 264.0
211.912918 128.0
212.078308 968.0
212.298386 172.0
212.40657 192.0
212.527298 124.0
212.595154 288.0
212.647232 140.0
212.785233 132.0
212.899979 200.0
212.960968 212.0
213.085342 144.0
213.118378 260.0
213.233948 172.0
213.402679 164.0
213.466644 124.0
213.487 108.0
213.558456 148.0
213.60582 160.0
213.681885 164.0
213.756149 92.0
213.818649 100.0
213.841934 176.0
213.920059 152.0
214.004959 184.0
214.094147 176.0
214.319519 224.0
214.398193 112.0
214.44191 180.0
214.471558 164.0
214.497299 48.0
214.544998 220.0
214.59642 148.0
214.628494 184.0
214.745132 124.0
214.768478 136.0
214.805542 180.0
214.847229 152.0
214.908508 184.0
214.996048 208.0
215.071182 340.0
215.133224 160.0
215.153656 144.0
215.182861 180.0
215.261688 132.0
215.340546 148.0
215.451538 148.0
215.510849 160.0
215.5392 200.0
215.646805 136.0
215.699936 176.0
215.729172 168.0
215.808105 160.0
215.850464 140.0
215.878281 168.0
215.945541 120.0
216.027451 132.0
216.071335 180.0
216.200073 148.0
216.254166 220.0
216.287888 152.0
216.381561 224.0
216.402054 124.0
216.440109 172.0
216.469391 176.0
216.56311 140.0
216.595337 80.0
216.712509 116.0
216.771118 112.0
216.870758 124.0
216.967499 120.0
217.029068 156.0
217.104111 176.0
217.210892 64.0
217.243164 88.0
217.302277 136.0
217.334106 152.0
217.363449 148.0
217.416275 152.0
217.439758 144.0
217.560104 168.0
217.580658 64.0
217.63504 296.0
217.703979 116.0
217.76178 152.0
217.85083 184.0
217.93309 68.0
218.038193 224.0
218.271118 136.0
218.309341 212.0
218.432877 104.0
218.46701 132.0
218.518188 156.0
218.577026 164.0
218.635895 164.0
218.662369 104.0
218.688858 96.0
218.947952 168.0
219.096893 120.0
219.167007 132.0
219.221924 120.0
219.242554 148.0
219.295059 196.0
219.381088 144.0
219.457733 144.0
219.501968 76.0
219.625824 144.0
219.717285 144.0
219.810974 164.0
219.927032 148.0
219.974014 184.0
220.016129 152.0
220.056686 216.0
220.112778 116.0
220.160034 168.0
220.254547 152.0
220.278168 160.0
220.373474 92.0
220.419983 124.0
220.443634 56.0
220.59436 180.0
220.721497 188.0
220.776123 76.0
220.853653 192.0
220.890076 96.0
220.9729 124.0
221.040955 168.0
221.069138 160.0
221.096176 280.0
221.159332 108.0
221.268951 140.0
221.30896 148.0
221.342957 168.0
221.387299 212.0
221.556137 132.0
221.615387 192.0
221.671692 152.0
221.692429 164.0
221.725037 200.0
221.828766 64.0
222.048187 128.0
222.095642 160.0
222.26178 380.0
222.300354 464.0
222.502182 176.0
222.548309 60.0
222.576416 168.0
222.629868 172.0
222.69223 212.0
222.727875 160.0
222.751846 176.0
223.077881 148.0
223.113831 808.0
223.155807 260.0
223.209335 100.0
223.337219 124.0
223.390762 88.0
223.453232 144.0
223.485962 220.0
223.586792 140.0
223.727036 224.0
223.989075 96.0
224.084656 184.0
224.114944 304.0
224.133026 164.0
224.171371 172.0
224.248306 140.0
224.376297 128.0
224.489792 92.0
224.533173 204.0
224.564346 160.0
224.621017 128.0
224.706818 184.0
224.75528 132.0
224.844803 124.0
224.865692 228.0
224.901505 44.0
224.925385 144.0
225.006424 192.0
225.050262 164.0
225.062103 136.0
225.096817 368.0
225.132492 448.0
225.198593 160.0
225.286713 164.0
225.436096 108.0
225.513809 132.0
225.576569 136.0
225.615433 80.0
225.693176 112.0
225.947403 112.0
226.095901 284.0
226.11734 156.0
226.150879 200.0
226.174835 180.0
226.204758 144.0
226.329712 244.0
226.471252 152.0
226.525177 176.0
226.64801 164.0
226.692947 44.0
226.725922 228.0
226.920761 180.0
226.956741 168.0
227.232681 204.0
227.307693 184.0
227.355698 92.0
227.451752 204.0
227.491394 184.0
227.532791 132.0
227.628876 208.0
227.872177 140.0
227.89621 136.0
227.938278 224.0
228.160995 120.0
228.214813 208.0
228.2724 164.0
228.356155 180.0
228.422318 136.0
228.443375 124.0
228.482483 132.0
228.554703 320.0
228.635941 76.0
228.666046 172.0
228.70517 188.0
228.734879 124.0
228.852676 72.0
228.927963 132.0
228.976135 148.0
229.036377 172.0
229.060471 204.0
229.113083 168.0
229.147842 228.0
229.177979 132.0
229.226181 228.0
229.337692 152.0
229.413055 160.0
229.464294 180.0
229.508087 156.0
229.624115 128.0
229.654282 92.0
229.716507 152.0
229.791107 180.0
229.922806 128.0
229.955994 112.0
230.062866 208.0
230.142273 172.0
230.233749 216.0
230.348114 116.0
230.375717 180.0
230.442184 200.0
230.490524 108.0
230.514694 188.0
230.555771 128.0
230.596298 160.0
230.63559 192.0
230.732101 112.0
230.798828 156.0
230.950043 224.0
231.058945 108.0
231.193069 188.0
231.236511 188.0
231.349472 332.0
231.382294 128.0
231.443329 128.0
231.521011 92.0
231.54628 224.0
231.594742 88.0
231.637146 212.0
231.725006 96.0
231.763428 248.0
231.888641 204.0
231.951508 92.0
232.006866 148.0
232.055374 60.0
232.121506 128.0
232.170593 276.0
232.195358 168.0
232.252487 124.0
232.407196 252.0
232.49823 216.0
232.525543 84.0
232.601425 228.0
232.683395 108.0
232.72287 104.0
232.77449 180.0
232.886856 120.0
233.05394 260.0
233.1147 100.0
233.16333 188.0
233.280975 216.0
233.43782 192.0
233.479507 40.0
233.519043 200.0
233.564667 200.0
233.686356 120.0
233.762421 204.0
233.853043 72.0
234.031876 268.0
234.043594 140.0
234.057495 180.0
234.149048 152.0
234.173416 124.0
234.219101 44.0
234.316589 200.0
234.371429 136.0
234.420181 108.0
234.561523 168.0
234.603058 128.0
234.822601 136.0
234.952362 148.0
235.020065 148.0
235.085983 72.0
235.125687 176.0
235.200943 176.0
235.231461 112.0
235.271149 216.0
235.439087 196.0
235.487961 148.0
235.610138 120.0
235.782379 184.0
235.839325 104.0
235.882111 44.0
235.94812 156.0
236.328613 180.0
236.358856 236.0
236.423477 236.0
236.509171 196.0
236.536728 220.0
236.558151 204.0
236.641129 156.0
236.735733 124.0
236.824554 160.0
236.925629 136.0
236.958618 224.0
237.054321 116.0
237.081909 140.0
237.118683 144.0
237.13829 140.0
237.16713 208.0
237.230896 216.0
237.305664 124.0
237.334335 160.0
237.385391 112.0
237.630783 112.0
237.685196 196.0
237.766998 180.0
237.817963 200.0
237.874985 164.0
237.953033 252.0
237.996017 120.0
238.017517 148.0
238.045288 188.0
238.098663 292.0
238.125 156.0
238.190994 156.0
238.324677 152.0
238.404221 144.0
238.412643 128.0
238.576691 116.0
238.605392 228.0
238.689331 164.0
238.74353 184.0
238.752457 220.0
238.776566 156.0
238.814865 140.0
238.838074 108.0
238.909149 188.0
238.99231 120.0
239.034973 144.0
239.070618 1672.0
239.107681 15756.0
239.213486 228.0
239.372208 104.0
239.459808 56.0
239.50293 196.0
239.542969 72.0
239.576859 180.0
239.638474 372.0
239.688217 112.0
239.724747 112.0
239.755569 116.0
239.78331 268.0
239.832626 56.0
239.866531 200.0
239.904205 160.0
239.968933 148.0
240.045349 52.0
240.076187 192.0
240.110489 2560.0
240.239655 180.0
240.280838 92.0
240.387756 72.0
240.409348 132.0
240.449478 164.0
240.563339 144.0
240.595703 128.0
240.649704 148.0
240.659485 128.0
240.73349 120.0
240.80249 216.0
240.847763 48.0
240.903366 156.0
240.963837 184.0
241.017685 96.0
241.112289 540.0
241.193832 104.0
241.286575 180.0
241.334091 252.0
241.378204 196.0
241.420563 204.0
241.549438 68.0
241.598923 104.0
241.62677 56.0
241.660812 128.0
241.685562 180.0
241.749924 180.0
241.780426 128.0
241.818619 152.0
241.846481 32.0
241.914581 140.0
241.974716 196.0
242.038422 60.0
242.079407 144.0
242.112747 168.0
242.16539 272.0
242.196365 152.0
242.256775 136.0
242.313095 124.0
242.416336 164.0
242.440765 104.0
242.465912 144.0
242.493179 136.0
242.574402 176.0
242.645706 128.0
242.797638 92.0
242.822449 108.0
242.84726 132.0
242.943207 176.0
242.986099 132.0
243.017883 172.0
243.065262 120.0
243.162979 164.0
243.225815 320.0
243.474197 128.0
243.51767 220.0
243.592224 128.0
243.722702 168.0
243.778641 92.0
243.820633 132.0
243.865662 144.0
243.902954 156.0
243.943359 52.0
244.035172 360.0
244.044022 148.0
244.053726 80.0
244.201447 108.0
244.287689 204.0
244.457932 172.0
244.50946 168.0
244.556137 136.0
244.577927 160.0
244.652634 180.0
244.786514 148.0
245.041931 92.0
245.091782 148.0
245.113602 176.0
245.169693 132.0
245.193649 204.0
245.232025 96.0
245.288132 108.0
245.33017 148.0
245.338669 188.0
245.515732 108.0
245.599335 144.0
245.734085 112.0
245.78363 132.0
245.880417 196.0
245.918198 104.0
245.95253 176.0
246.027817 168.0
246.171066 164.0
246.352219 44.0
246.414703 132.0
246.459274 168.0
246.499069 120.0
246.574066 84.0
246.656509 224.0
246.786636 120.0
246.824158 148.0
246.898987 228.0
247.082779 140.0
247.107742 292.0
247.130692 80.0
247.162735 180.0
247.202652 156.0
247.256561 196.0
247.268372 148.0
247.278854 196.0
247.371674 100.0
247.45932 200.0
247.512558 116.0
247.553268 144.0
247.634689 164.0
247.6754 192.0
247.756851 132.0
247.875916 116.0
247.963654 136.0
248.056229 168.0
248.086914 292.0
248.110901 160.0
248.186234 124.0
248.22699 144.0
248.268295 116.0
248.302261 92.0
248.386948 100.0
248.426651 164.0
248.521851 104.0
248.581467 260.0
248.663055 152.0
248.734802 112.0
248.794891 172.0
248.835709 80.0
248.903214 104.0
248.922485 144.0
248.95816 68.0
248.986435 120.0
249.017838 140.0
249.086945 64.0
249.152908 136.0
249.184326 88.0
249.22583 96.0
249.28801 116.0
249.36972 140.0
249.448303 116.0
249.602661 256.0
249.668396 176.0
249.866562 176.0
249.88858 144.0
249.932632 180.0
250.045929 152.0
250.124619 200.0
250.176117 196.0
250.234787 132.0
250.338104 168.0
250.39653 188.0
250.493027 180.0
250.733597 172.0
250.845963 224.0
250.980057 160.0
251.006744 160.0
251.064621 272.0
251.243301 172.0
251.265381 132.0
251.371048 148.0
251.419998 240.0
251.493134 184.0
251.599915 76.0
251.62355 152.0
251.689972 168.0
251.738449 164.0
251.776733 176.0
251.982056 52.0
252.067368 148.0
252.190628 152.0
252.272812 200.0
252.304428 200.0
252.355011 160.0
252.386978 180.0
252.421402 56.0
252.456192 112.0
252.522598 164.0
252.69342 168.0
252.718735 112.0
252.759872 96.0
252.84848 172.0
252.908615 108.0
253.088348 336.0
253.124527 976.0
253.253738 100.0
253.30864 228.0
253.436447 140.0
253.481842 48.0
253.515991 108.0
253.544022 240.0
253.59404 148.0
253.627625 84.0
253.661102 128.0
253.700531 204.0
253.751617 208.0
253.773071 200.0
253.938354 80.0
254.081085 152.0
254.127365 716.0
254.163742 300.0
254.238129 188.0
254.344482 112.0
254.379395 116.0
254.417496 152.0
254.493683 148.0
254.728699 152.0
254.773178 176.0
255.000427 216.0
255.089691 320.0
255.141815 32.0
255.249039 260.0
255.281723 216.0
255.386673 56.0
255.491638 188.0
255.536087 128.0
255.546753 124.0
255.552933 168.0
255.682556 80.0
255.739853 84.0
255.841705 112.0
255.875259 208.0
255.950867 168.0
256.112366 116.0
256.144867 272.0
256.166534 260.0
256.209137 160.0
256.31308 116.0
256.36087 140.0
256.517059 184.0
256.596771 192.0
256.622253 160.0
256.711548 128.0
256.743439 72.0
256.773804 100.0
256.804016 88.0
256.848694 124.0
256.989044 156.0
257.046478 144.0
257.075195 232.0
257.122772 128.0
257.159271 232.0
257.250763 148.0
257.292267 48.0
257.368866 116.0
257.416779 164.0
257.595642 52.0
257.675507 104.0
257.742584 132.0
257.764954 200.0
257.959381 168.0
258.011078 144.0
258.129364 164.0
258.218903 112.0
258.356445 196.0
258.443817 168.0
258.484436 176.0
258.625244 176.0
258.71167 108.0
258.794922 148.0
258.839752 128.0
259.054321 148.0
259.103973 116.0
259.15686 132.0
259.179291 148.0
259.256195 120.0
259.297852 204.0
259.409668 168.0
259.443481 148.0
259.470947 68.0
259.525452 220.0
259.566437 192.0
259.592773 160.0
259.621643 88.0
259.669769 144.0
259.753143 112.0
259.892517 100.0
259.964905 136.0
260.009827 132.0
260.253815 172.0
260.277466 128.0
260.343719 168.0
260.36618 60.0
260.451385 132.0
260.478607 160.0
260.510254 184.0
260.521179 156.0
260.530975 224.0
260.706665 216.0
260.777435 72.0
260.803131 136.0
260.841705 36.0
260.894165 120.0
260.931732 84.0
260.976746 96.0
261.05896 112.0
261.205078 136.0
261.232849 144.0
261.275848 176.0
261.299164 176.0
261.391663 124.0
261.48822 172.0
261.64917 132.0
261.73288 44.0
261.861694 136.0
261.914062 184.0
262.003418 140.0
262.050293 116.0
262.135529 136.0
262.206421 216.0
262.257996 128.0
262.294891 116.0
262.404633 132.0
262.5159 168.0
262.754608 116.0
262.819122 120.0
262.851379 124.0
262.883667 136.0
262.924286 164.0
263.02243 136.0
263.054718 108.0
263.103577 164.0
263.15802 92.0
263.29364 200.0
263.325958 172.0
263.352539 172.0
263.438995 52.0
263.474548 136.0
263.503601 160.0
263.529449 36.0
263.594086 228.0
263.616699 132.0
263.70108 188.0
263.725464 228.0
263.762146 152.0
263.859131 120.0
263.888214 104.0
263.920563 128.0
264.002045 180.0
264.023315 160.0
264.104889 104.0
264.142395 136.0
264.172821 192.0
264.224579 160.0
264.292511 72.0
264.47052 116.0
264.53891 212.0
264.578705 224.0
264.619415 176.0
264.673553 180.0
264.768372 128.0
264.86554 164.0
264.897919 132.0
264.943024 140.0
265.001617 352.0
265.027527 196.0
265.088989 232.0
265.145172 184.0
265.189545 316.0
265.231689 136.0
265.264099 216.0
265.363708 128.0
265.439178 96.0
265.474854 160.0
265.504028 76.0
265.533234 112.0
265.637024 116.0
265.722778 128.0
265.747223 136.0
265.760559 96.0
265.771118 144.0
265.806702 132.0
265.876129 168.0
265.90799 88.0
265.942017 104.0
265.971558 232.0
266.011993 196.0
266.04306 168.0
266.098663 416.0
266.149414 256.0
266.174835 224.0
266.21051 176.0
266.244812 220.0
266.306854 672.0
266.343109 160.0
266.394928 84.0
266.420929 216.0
266.46933 392.0
266.483978 144.0
266.489227 192.0
266.535034 196.0
266.577911 128.0
266.602448 104.0
266.632324 392.0
266.660309 276.0
266.726074 268.0
266.776581 156.0
266.798615 180.0
266.805298 352.0
266.844055 196.0
266.868317 492.0
266.900421 572.0
266.937622 460.0
266.994293 524.0
267.061859 668.0
267.104156 354492.0
267.189758 84.0
267.21524 508.0
267.283112 136.0
267.297119 80.0
267.337555 188.0
267.3992 124.0
267.436035 324.0
267.463013 424.0
267.524719 264.0
267.52948 224.0
267.546539 212.0
267.597382 276.0
267.639679 4248.0
267.72345 184.0
267.752228 136.0
267.807495 324.0
267.830811 320.0
267.852509 208.0
267.888245 224.0
267.938507 96.0
267.973816 180.0
268.019348 280.0
268.044434 176.0
268.106964 90404.0
268.208527 248.0
268.228943 292.0
268.25238 88.0
268.293335 164.0
268.323364 144.0
268.353607 132.0
268.389191 108.0
268.4263 144.0
268.455444 144.0
268.462219 128.0
268.478943 216.0
268.48587 192.0
268.497162 300.0
268.556732 52.0
268.598297 192.0
268.645325 156.0
268.671661 180.0
268.677887 124.0
268.691162 248.0
268.733826 248.0
268.751923 156.0
268.778564 72.0
268.820435 168.0
268.867371 188.0
268.891052 352.0
268.916473 184.0
268.927887 176.0
268.9711 92.0
268.988342 128.0
269.015961 188.0
269.054657 180.0
269.108093 9256.0
269.202087 120.0
269.230469 92.0
269.24527 152.0
269.289795 152.0
269.315063 80.0
269.350555 232.0
269.403503 116.0
269.434296 236.0
269.463501 156.0
269.50354 268.0
269.517212 276.0
269.559387 280.0
269.58844 140.0
269.643951 208.0
269.671021 332.0
269.700073 36.0
269.74234 220.0
269.780426 256.0
269.812714 324.0
269.869934 236.0
269.912048 372.0
269.947968 204.0
269.971375 84.0
269.981659 236.0
270.016998 248.0
270.026123 204.0
270.038147 240.0
270.069244 156.0
270.110718 560.0
270.151367 124.0
270.177979 104.0
270.218079 236.0
270.281036 88.0
270.305603 60.0
270.35733 72.0
270.412933 60.0
270.440186 72.0
270.466187 56.0
270.498077 212.0
270.536407 88.0
270.54715 60.0
270.559296 108.0
270.613495 144.0
270.642303 108.0
270.654755 108.0
270.723755 328.0
270.762573 76.0
270.806702 56.0
270.852631 220.0
270.893127 52.0
270.923523 60.0
270.96109 128.0
270.986115 140.0
270.998749 140.0
271.006622 260.0
271.079041 216.0
271.11554 92.0
271.158142 92.0
271.228027 168.0
271.265137 268.0
271.317902 140.0
271.360687 128.0
271.401489 120.0
271.414398 120.0
271.481842 64.0
271.524475 148.0
271.562469 68.0
271.593353 40.0
271.618286 40.0
271.65567 44.0
271.688477 88.0
271.722748 116.0
271.780334 40.0
271.803314 68.0
271.836121 64.0
271.970886 68.0
272.007141 108.0
272.042908 172.0
272.080597 72.0
272.147949 104.0
272.236603 88.0
272.276031 116.0
272.312134 84.0
272.371277 72.0
272.404114 212.0
272.456665 212.0
272.489532 36.0
272.528961 64.0
272.56839 28.0
272.609863 96.0
272.676849 72.0
272.716278 40.0
272.831329 64.0
272.90036 40.0
272.946411 92.0
273.123993 208.0
273.185791 92.0
273.195251 72.0
273.256042 228.0
273.383911 80.0
273.594574 72.0
273.643951 48.0
273.673584 44.0
273.792114 224.0
273.844818 80.0
273.876312 64.0
273.970001 80.0
274.088593 80.0
274.131439 52.0
274.180878 212.0
274.348969 44.0
274.401703 108.0
274.510529 48.0
274.652924 116.0
274.753601 156.0
274.919586 84.0
274.998779 132.0
275.039642 168.0
275.361969 108.0
275.385101 112.0
275.619629 192.0
275.66922 148.0
275.795776 176.0
275.936951 36.0
276.032837 152.0
276.065887 188.0
276.141968 88.0
276.347046 244.0
276.429779 164.0
276.500671 124.0
276.641602 44.0
276.764099 88.0
276.787262 128.0
276.840271 116.0
276.982666 132.0
277.180786 40.0
277.277557 80.0
277.359772 164.0
277.500214 120.0
277.575928 152.0
277.619019 108.0
277.66214 116.0
277.774902 44.0
277.832458 136.0
277.919464 140.0
277.957367 188.0
278.027069 76.0
278.052155 108.0
278.173096 36.0
278.216278 64.0
278.252777 96.0
278.333832 108.0
278.471954 104.0
278.528412 56.0
278.617371 220.0
278.657959 68.0
278.734406 64.0
278.767609 120.0
278.943787 60.0
279.000275 40.0
279.159882 68.0
279.196472 80.0
279.245392 112.0
279.279602 48.0
279.316193 108.0
279.342804 48.0
279.396027 176.0
279.452423 80.0
279.505829 56.0
279.728638 108.0
279.778748 124.0
279.809814 240.0
279.845337 112.0
279.891968 88.0
279.949951 76.0
280.016083 172.0
280.094971 216.0
280.108826 136.0
280.117126 156.0
280.150787 84.0
280.208374 164.0
280.295013 72.0
280.344971 104.0
280.397339 136.0
280.423279 104.0
280.447021 176.0
280.482025 140.0
280.503754 156.0
280.544983 100.0
280.584961 108.0
280.656921 172.0
280.708893 196.0
280.751678 160.0
280.839966 120.0
280.895111 196.0
280.937164 256.0
281.02298 308.0
281.06308 340.0
281.118927 60424.0
281.211853 212.0
281.307434 104.0
281.345612 56.0
281.369904 72.0
281.394226 172.0
281.437988 256.0
281.476562 72.0
281.502411 140.0
281.545044 84.0
281.575592 132.0
281.621582 156.0
281.685516 112.0
281.712677 184.0
281.748657 128.0
281.779785 92.0
281.843964 192.0
281.882507 188.0
281.918213 92.0
281.926788 40.0
281.954926 180.0
281.990387 188.0
282.058411 96.0
282.122437 12500.0
282.204224 96.0
282.230988 48.0
282.285889 164.0
282.313507 88.0
282.384827 64.0
282.44342 256.0
282.466888 232.0
282.507996 116.0
282.546814 92.0
282.588867 108.0
282.654602 56.0
282.705994 60.0
282.759521 200.0
282.791046 96.0
282.819763 44.0
282.846558 80.0
282.953949 52.0
283.02063 52.0
283.12326 2720.0
283.219116 76.0
283.266357 188.0
283.309875 92.0
283.35788 76.0
283.371002 92.0
283.563324 44.0
283.663879 80.0
283.764465 72.0
283.793671 120.0
283.853821 104.0
283.894684 100.0
283.947845 284.0
283.997284 48.0
284.020752 220.0
284.069641 128.0
284.096466 96.0
284.127777 96.0
284.158325 204.0
284.182922 108.0
284.234131 128.0
284.281006 36.0
284.32019 108.0
284.38504 136.0
284.457062 80.0
284.502533 136.0
284.635712 104.0
284.751007 56.0
284.845917 84.0
284.885376 48.0
284.912262 104.0
285.00296 44.0
285.029846 104.0
285.100983 116.0
285.244934 184.0
285.275177 40.0
285.335693 80.0
285.453369 92.0
285.597992 48.0
285.894073 56.0
285.968109 48.0
286.075806 88.0
286.146515 52.0
286.223969 52.0
286.301422 208.0
286.419281 112.0
286.483307 100.0
286.597839 172.0
286.634918 72.0
286.658264 56.0
286.803406 52.0
286.968597 96.0
286.992188 72.0
287.106842 80.0
287.137207 72.0
287.353088 88.0
287.380066 136.0
287.660187 76.0
287.785095 156.0
287.898773 188.0
288.119476 44.0
288.160004 84.0
288.247864 76.0
288.430359 204.0
288.521637 124.0
288.609528 124.0
288.643341 116.0
288.683929 128.0
288.731262 164.0
288.917297 44.0
289.164948 196.0
289.326813 84.0
289.560425 48.0
289.946655 140.0
290.492554 96.0
290.801331 88.0
291.072906 48.0
291.263092 168.0
291.5383 52.0
291.721832 120.0
291.946259 44.0
292.027863 96.0
292.095886 168.0
292.442963 64.0
292.517853 160.0
292.623383 204.0
292.711914 80.0
292.810669 288.0
292.919647 108.0
292.957123 84.0
293.134308 68.0
293.253571 76.0
293.311523 140.0
293.338806 136.0
293.4104 60.0
293.493988 108.0
293.638855 132.0
293.785522 196.0
293.945892 52.0
294.007294 104.0
294.174561 140.0
294.27356 132.0
294.488678 144.0
294.591156 96.0
295.042267 120.0
295.510803 120.0
295.58609 148.0
295.640839 96.0
295.716125 132.0
295.757202 200.0
295.801697 144.0
295.993439 132.0
296.123566 216.0
296.212616 184.0
296.582672 228.0
296.634094 104.0
296.66153 132.0
298.027466 104.0
298.329895 76.0
298.412415 140.0
298.711609 104.0
299.906433 224.0
299.934021 104.0
300.041199 124.0
300.540985 124.0
300.71698 192.0
300.913727 128.0
301.024231 80.0
301.31781 180.0
301.393829 152.0
301.615021 128.0
301.839722 176.0
302.047241 136.0
302.088745 144.0
302.358643 108.0
302.801788 84.0
302.923004 36.0
303.044281 88.0
303.546875 124.0
303.685577 112.0
304.147064 80.0
304.260681 180.0
304.421326 80.0
304.879883 128.0
305.213593 88.0
305.248383 144.0
305.345734 164.0
305.592712 52.0
305.634491 208.0
305.846771 112.0
305.919861 152.0
305.999939 168.0
306.249359 96.0
306.63739 44.0
306.707123 120.0
306.731506 84.0
306.783813 180.0
306.870972 100.0
306.95282 40.0
307.034851 132.0
307.104614 80.0
307.170868 224.0
307.305664 128.0
307.341827 88.0
307.446503 164.0
307.72226 84.0
307.785126 192.0
307.80957 184.0
307.875916 96.0
307.990112 172.0
308.028595 112.0
308.137695 148.0
308.186798 124.0
308.235718 176.0
308.322418 104.0
308.330841 216.0
308.374115 160.0
308.406952 168.0
308.453552 144.0
308.502655 164.0
308.559845 124.0
308.589478 96.0
308.700623 68.0
308.727478 340.0
308.760071 168.0
308.802063 84.0
308.835083 108.0
308.881622 144.0
308.965637 252.0
309.004272 268.0
309.049683 440.0
309.11441 160976.0
309.205841 332.0
309.28299 44.0
309.319885 180.0
309.369751 100.0
309.458984 224.0
309.529083 48.0
309.592621 184.0
309.600189 236.0
309.614075 152.0
309.688904 424.0
309.733093 52.0
309.757599 52.0
309.805054 132.0
309.845093 104.0
309.870819 100.0
309.912262 372.0
309.96936 64.0
310.019226 176.0
310.051331 212.0
310.116699 34384.0
310.186798 228.0
310.222382 152.0
310.268555 60.0
310.287933 68.0
310.336975 140.0
310.361267 64.0
310.390045 44.0
310.474731 100.0
310.499237 88.0
310.536804 76.0
310.561707 140.0
310.585907 80.0
310.628998 48.0
310.66156 60.0
310.742523 140.0
310.75177 76.0
310.79184 32.0
310.853363 120.0
310.904114 108.0
310.935699 136.0
311.012909 72.0
311.118591 4380.0
311.167389 112.0
311.191711 204.0
311.2341 180.0
311.284485 80.0
311.348846 76.0
311.379974 96.0
311.409668 96.0
311.434265 96.0
311.497498 40.0
311.550171 76.0
311.602875 36.0
311.661987 68.0
311.675659 56.0
311.705566 124.0
311.759827 60.0
311.827209 140.0
311.888916 100.0
311.920288 100.0
311.947296 140.0
311.988464 156.0
312.031647 132.0
312.070038 92.0
312.08017 40.0
312.120758 284.0
312.204773 68.0
312.287994 136.0
312.325226 100.0
312.376007 188.0
312.441162 64.0
312.517029 108.0
312.545166 48.0
312.599426 48.0
312.674255 68.0
312.752808 68.0
312.930054 148.0
312.967529 140.0
313.066132 116.0
313.104889 120.0
313.164764 196.0
313.210541 116.0
313.242249 60.0
313.316223 128.0
313.402374 88.0
313.531158 68.0
313.622803 112.0
313.671875 164.0
313.710907 112.0
313.753235 48.0
313.827271 80.0
313.894257 48.0
314.063538 88.0
314.116455 36.0
314.183472 92.0
314.239929 132.0
314.310486 76.0
314.335175 52.0
314.391663 64.0
314.472809 88.0
314.621094 44.0
314.748169 40.0
314.963623 76.0
315.062531 88.0
315.147308 72.0
315.242706 52.0
315.398224 48.0
315.571442 48.0
315.606812 144.0
315.84021 52.0
316.05249 120.0
316.261261 56.0
316.395782 60.0
317.196381 88.0
317.302734 92.0
317.363007 180.0
317.497772 80.0
317.898621 60.0
318.033508 48.0
318.303314 60.0
318.580353 56.0
318.635437 80.0
319.41571 52.0
319.739502 120.0
320.476593 92.0
320.565704 92.0
320.822327 36.0
321.064789 32.0
321.107574 68.0
321.22171 108.0
321.624908 52.0
321.821259 56.0
321.9534 112.0
322.449982 92.0
322.811035 100.0
323.977875 104.0
324.139099 96.0
324.257355 80.0
324.443756 68.0
325.477051 120.0
325.541687 88.0
325.606323 68.0
325.692535 52.0
325.764374 44.0
325.796692 116.0
325.868561 80.0
326.105713 136.0
326.760193 72.0
326.936493 76.0
327.105652 84.0
327.302246 112.0
327.984558 60.0
328.11795 48.0
328.435272 68.0
329.525482 72.0
329.756775 108.0
329.843506 100.0
331.410522 52.0
331.439514 60.0
332.019531 44.0
332.331482 104.0
335.007294 52.0
335.204041 68.0
335.62323 80.0
335.769073 44.0
339.631378 100.0
339.983582 80.0
340.156097 108.0
340.416779 100.0
340.655518 92.0
341.162628 56.0
341.328094 80.0
341.478851 76.0
343.430939 120.0
345.10379 136.0
345.414459 80.0
346.213898 80.0
347.904663 36.0
347.997498 100.0
348.75531 80.0
348.948639 104.0
349.2052 44.0
349.904083 104.0
352.698853 28.0
353.656403 88.0
353.787415 76.0
354.772675 84.0
355.856903 96.0
356.97287 116.0
357.145874 124.0
357.273773 48.0
357.303864 84.0
359.451508 32.0
359.530762 92.0
360.731842 104.0
361.272614 72.0
363.466278 108.0
363.766113 68.0
367.598755 64.0
367.629272 148.0
367.751404 36.0
368.261261 104.0
369.727325 52.0
370.393524 36.0
372.718384 60.0
373.929749 64.0
375.790985 36.0
376.617096 60.0
377.784485 104.0
380.004364 84.0
381.861176 108.0
382.11792 60.0
384.061798 76.0
386.429108 76.0
390.320038 68.0
393.440521 52.0
396.807281 32.0
397.695862 48.0
398.724518 56.0
398.915314 64.0
400.630463 60.0
402.720642 84.0
402.748596 72.0
403.783783 72.0
404.42392 68.0
407.041809 84.0
407.696594 88.0
407.752869 52.0
408.170959 144.0
408.842743 48.0
409.24527 48.0
409.366058 64.0
410.155731 52.0
410.655701 148.0
410.704102 44.0
411.874634 144.0
412.553528 52.0
413.912933 72.0
415.558563 68.0
415.627533 104.0
416.337921 116.0
416.63443 40.0
421.164185 48.0
421.77301 40.0
423.38501 116.0
424.142975 48.0
424.442261 92.0
426.392181 100.0
427.432617 76.0
427.506683 72.0
428.781097 80.0
428.923462 44.0
430.334351 64.0
431.540802 44.0
432.256378 84.0
433.82193 52.0
434.871368 68.0
436.637115 84.0
436.836761 60.0
441.278229 48.0
441.993439 80.0
442.064575 112.0
442.642273 88.0
443.756805 88.0
443.882599 44.0
444.113251 44.0
444.914734 72.0
445.410248 52.0
446.107788 88.0
447.294037 52.0
448.081543 88.0
449.515106 60.0
450.194763 100.0
450.469299 52.0
450.503082 132.0
450.917175 76.0
453.749023 116.0
454.088257 100.0
455.098236 44.0
456.173065 92.0
456.56424 92.0
457.823914 64.0
464.82608 112.0
464.997711 164.0
465.152252 108.0
465.688965 60.0
465.865082 136.0
466.031433 72.0
467.098785 72.0
468.235077 184.0
468.622772 88.0
470.084503 60.0
470.166504 52.0
471.246002 144.0
472.093231 92.0
472.434906 64.0
473.205261 80.0
474.713135 104.0
475.602539 92.0
475.880371 120.0
476.988159 80.0
477.140289 56.0
477.818756 72.0
479.377533 76.0
480.201477 48.0
480.790466 96.0
484.16983 92.0
484.226776 64.0
484.397583 112.0
485.738922 116.0
487.297394 88.0
489.699219 148.0
489.774078 60.0
490.686279 128.0
490.809723 80.0
491.462524 128.0
492.190826 96.0
492.76059 68.0
493.865723 116.0
494.834839 92.0
496.128479 120.0
496.980011 96.0
497.632477 76.0
501.261993 60.0
501.440277 136.0
501.605194 108.0
501.948486 44.0
502.403412 88.0
504.073242 36.0
504.685608 84.0
505.119415 88.0
507.179169 76.0
509.809174 92.0
510.483459 88.0
510.919769 88.0
511.65332 100.0
513.807556 176.0
514.2276 336.0
514.394165 56.0
514.741821 48.0
515.220825 148.0
515.893921 52.0
516.147095 112.0
516.635559 84.0
516.87085 128.0
518.279053 80.0
518.936279 60.0
519.380676 80.0
521.060303 52.0
521.351074 92.0
522.415039 76.0
522.901917 48.0
524.231689 100.0
524.728516 44.0
525.367004 124.0
526.476135 92.0
527.083679 48.0
527.293884 68.0
527.3396 92.0
528.052856 88.0
528.427979 92.0
529.004578 96.0
530.355835 64.0
534.54425 104.0
535.667664 76.0
537.631775 108.0
537.797913 64.0
538.370422 52.0
539.659607 64.0
548.428833 56.0
550.486267 64.0
551.014099 80.0
551.425293 80.0
553.975403 52.0
554.781433 112.0
555.888306 104.0
556.104187 96.0
556.338867 80.0
556.451538 32.0
557.123108 116.0
557.851501 60.0
559.354431 40.0
561.000793 108.0
561.73175 60.0
562.425354 76.0
564.773682 72.0
565.137939 68.0
567.051086 52.0
568.165405 52.0
575.843384 116.0
578.923279 148.0
579.426208 56.0
579.627441 84.0
581.065857 52.0
581.977722 48.0
583.789307 84.0
584.178833 80.0
584.650391 88.0
587.555908 152.0
587.886169 96.0
595.169128 120.0
596.782227 120.0
597.565308 76.0
598.528992 112.0
599.16217 116.0
599.454529 52.0
599.629944 160.0
600.016174 52.0
601.634705 80.0
601.864197 136.0
602.328125 108.0
604.210205 52.0
607.031433 48.0
608.802917 64.0
609.431702 84.0
612.122253 76.0
613.856812 88.0
619.085022 108.0
621.18158 76.0
621.236145 64.0
625.046814 68.0
626.117065 104.0
631.032166 72.0
632.382812 108.0
632.643066 64.0
633.339111 92.0
636.332886 60.0
638.629395 36.0
642.175171 96.0
646.064636 104.0
647.456604 116.0
652.851135 56.0
654.382751 88.0
657.890259 96.0
661.888367 76.0
663.041016 80.0
666.607605 56.0
667.126709 76.0
670.858887 148.0
671.988281 88.0
676.091064 64.0
678.266357 116.0
685.782288 36.0
686.825073 72.0
688.866028 72.0
691.067017 96.0
698.31665 64.0
699.779541 116.0
702.625549 92.0
705.958435 80.0
711.920105 60.0
712.615967 92.0
713.790649 48.0
715.046082 124.0
720.645203 100.0
731.623596 60.0
733.83783 92.0
735.666687 48.0
740.971924 48.0
742.505981 92.0
745.366821 92.0
757.714111 96.0
764.786926 112.0
771.04126 36.0
771.593994 96.0
774.416138 48.0
776.982666 108.0
777.470947 100.0
778.725647 64.0
781.660889 52.0
783.047058 128.0
783.331116 68.0
786.068604 60.0
786.375549 80.0
787.067749 80.0
789.241333 84.0
790.343201 100.0
794.135742 40.0
796.358337 52.0
796.470703 88.0
806.601929 60.0
809.634521 40.0
820.378967 52.0
831.452515 112.0
844.074097 108.0
845.387146 88.0
846.348083 132.0
851.166504 92.0
855.98114 96.0
859.478516 48.0
860.383179 108.0
861.048828 68.0
864.07666 68.0
865.01886 60.0
867.918823 68.0
869.802063 40.0
875.028137 32.0
876.158875 72.0
879.579102 128.0
880.252136 60.0
881.014038 128.0
882.852234 92.0
884.976562 64.0
887.820801 36.0
889.927307 88.0
892.268127 48.0
894.754944 88.0
900.825745 112.0
901.602478 44.0
904.934265 52.0
918.714966 104.0
920.930237 88.0
935.775146 48.0
939.828308 28.0
945.205322 32.0
954.750366 80.0
957.618286 60.0
963.558594 92.0
965.530396 36.0
966.390198 80.0
980.660522 96.0
980.997131 60.0
983.592041 92.0
985.340576 96.0
997.196289 48.0
998.843628 92.0
1000.731567 48.0
1001.915588 68.0
1002.501587 36.0
1006.159851 96.0
1011.995361 68.0
1023.525879 80.0
1024.500366 40.0
1033.387207 36.0
1039.692383 56.0
1041.156128 52.0
1041.631348 72.0
1043.540039 44.0
1046.602661 144.0
1056.08252 116.0
1057.182373 56.0
1064.241333 96.0
1070.809204 196.0
1071.453979 84.0
1074.557251 80.0
1080.659546 148.0
1083.147217 116.0
1086.280518 160.0
1086.641235 84.0
1096.946289 92.0
1122.224854 44.0
1124.933472 52.0
1131.598633 116.0
1134.231323 64.0
1141.448486 144.0
1143.266357 84.0
1145.37207 64.0
1158.544312 188.0
1163.936279 36.0
1170.981445 140.0
1173.475464 180.0
1173.864136 36.0
1180.398926 64.0
1199.354004 68.0
1200.319214 128.0
1209.819092 144.0
1211.231689 212.0
1221.108521 128.0
1230.181519 184.0
1232.142822 28.0
1235.344604 84.0
1237.535034 68.0
1240.028931 76.0
1248.980835 168.0
1249.923584 216.0
1252.239624 60.0
1278.876099 172.0
1281.2323 124.0
1286.145508 156.0
1295.147583 124.0
1303.850342 88.0
1309.188232 208.0
1310.54248 88.0
1311.745972 32.0
1312.885132 32.0
1314.825806 140.0
1315.071167 68.0
1315.22998 168.0
1315.655762 92.0
1317.121704 60.0
1324.644409 96.0
1325.861694 48.0
1326.586426 80.0
1327.42749 112.0
1330.046509 84.0
1332.95874 124.0
1334.317871 116.0
1334.419678 212.0
1342.181152 180.0
1342.458252 228.0
1343.355347 52.0
1356.972412 128.0
1361.852295 128.0
1365.071167 136.0
1366.829224 84.0
1376.418823 180.0
1390.053589 108.0
1395.260132 80.0
1400.766968 232.0
1421.033813 172.0
1421.611572 156.0
1422.977661 68.0
1423.37561 88.0
1426.696411 80.0
1430.221924 188.0
1431.353516 140.0
1431.617065 28.0
1433.025635 188.0
1440.773682 172.0
1443.971069 84.0
1444.530762 48.0
1450.262695 196.0
1451.612183 156.0
1452.598022 92.0
1455.664185 232.0
1459.554688 160.0
1463.024048 164.0
1463.206665 48.0
1465.613403 160.0
1465.788696 168.0
1467.460205 68.0
1471.577881 68.0
1473.3573 228.0
1482.485352 164.0
1482.630981 64.0
1487.554932 84.0
1489.336426 104.0
1491.925903 272.0
1499.785156 200.0
1500.486694 136.0
1501.828369 216.0
1503.37915 148.0
