>compound NCGC00160310-01!1-(4-Methoxy-6-methyl-5,6,7,8-tetrahydro-[1,3]dioxolo[4,5-g]isoquinolin-9-yl)-4-methyl-5-phenyl-penta-2,4-dien-1-one
>formula C24H25NO4
>ionization [M+H]+
>parentmass 392.185028
#inchi InChI=1S/C24H25NO4/c1-16(13-17-7-5-4-6-8-17)9-10-20(26)21-18-11-12-25(2)14-19(18)22(27-3)24-23(21)28-15-29-24/h4-10,13H,11-12,14-15H2,1-3H3/b10-9+,16-13+
#inchikey HGKBUFQLERZSEX
#Ion_Source LC-ESI
#Instrument qTOF
#Compound_Source Prestwick Phytochem Lib
#PI Dorrestein
#Data_Collector VVP/LMS
#Scan -1
#Precursor_MZ 392.186
#ExactMass 391.178
#Charge 1
#CAS_Number N/A
#Pubmed_ID N/A
#Smiles COC1=C2OCOC2=C(C(=O)\C=C\C(C)=C\C3=CC=CC=C3)C4=C1CN(C)CC4
#INCHI_AUX N/A
#Library_Class 1
#SpectrumID CCMSLIB00000078817
#IonMode Positive
#UpdateWorkflowName UPDATE-SINGLE-ANNOTATED-GOLD
#LibraryQualityString Gold
#TaskID 67c915c6594c435cadc1fe2b5358144d
##Scan# 1961
#SpectrumFile p1-G04_GG4_01_17948.mzXML
#LibraryName phytochem_lib.mgf
#MQScore -1
#Organism phytochem_lib
#TIC_Query 0
#RT_Query -1
#MZErrorPPM -1
#SharedPeaks 0
#MassDiff 0
#LibMZ -1
#SpecMZ 392.186
#SpecCharge 0
#internalFilename spec-00000.mgf

>collision 10
94.955452 188.0
94.985123 136.0
95.010338 240.0
95.060783 128.0
95.10154 192.0
95.115128 208.0
95.214149 152.0
95.227745 232.0
95.303505 128.0
95.34626 144.0
95.4104 128.0
95.425957 176.0
95.440796 228.0
95.484291 108.0
95.542648 172.0
95.579613 184.0
95.707146 116.0
95.775047 280.0
95.842484 148.0
95.860016 124.0
95.885353 224.0
95.906792 240.0
95.92823 176.0
96.017868 136.0
96.150589 224.0
96.209145 144.0
96.316551 136.0
96.338783 136.0
96.369293 168.0
96.390785 152.0
96.416191 204.0
96.451378 144.0
96.502205 172.0
96.537399 72.0
96.59803 220.0
96.713203 144.0
96.827034 144.0
96.932823 128.0
96.963043 248.0
97.073959 116.0
97.14653 152.0
97.191658 132.0
97.223289 132.0
97.407616 144.0
97.430138 180.0
97.437737 84.0
97.444145 208.0
97.459396 164.0
97.521576 84.0
97.549095 200.0
97.594315 56.0
97.703407 256.0
97.755608 188.0
97.828438 156.0
97.842216 192.0
98.011597 52.0
98.033592 200.0
98.281731 148.0
98.438782 200.0
98.50087 180.0
98.528526 188.0
98.541962 140.0
98.605591 180.0
98.629311 132.0
98.743988 224.0
98.773659 212.0
98.827072 48.0
98.892372 244.0
98.913109 132.0
98.99102 232.0
99.070587 140.0
99.104271 136.0
99.130798 164.0
99.184357 204.0
99.304489 176.0
99.330566 164.0
99.441391 80.0
99.493416 188.0
99.511948 228.0
99.612144 132.0
99.629829 204.0
99.659828 196.0
99.778984 172.0
99.866577 200.0
99.898399 88.0
100.0158 208.0
100.041679 160.0
100.077515 108.0
100.142899 216.0
100.224915 168.0
100.288681 128.0
100.344498 184.0
100.384377 140.0
100.484108 152.0
100.567924 128.0
100.589882 96.0
100.624023 152.0
100.679726 104.0
100.715897 180.0
100.775604 188.0
100.803581 96.0
100.987511 136.0
101.021515 180.0
101.037514 116.0
101.117554 88.0
101.161667 224.0
101.198097 88.0
101.222748 72.0
101.275726 132.0
101.349854 232.0
101.371895 120.0
101.480133 184.0
101.508209 160.0
101.548317 224.0
101.618523 76.0
101.736931 92.0
101.773071 168.0
101.833321 196.0
101.919701 160.0
101.967926 108.0
102.049477 424.0
102.084534 116.0
102.106651 108.0
102.223335 188.0
102.408546 160.0
102.434731 60.0
102.454376 48.0
102.483086 204.0
102.52137 188.0
102.589905 188.0
102.61972 152.0
102.674583 312.0
102.731064 44.0
102.757294 164.0
102.813789 212.0
102.846085 244.0
102.914719 152.0
102.973282 168.0
103.054665 2176.0
103.095589 224.0
103.173325 116.0
103.217812 76.0
103.246117 96.0
103.262299 180.0
103.286568 176.0
103.322983 84.0
103.340416 208.0
103.371544 164.0
103.517296 160.0
103.531471 212.0
103.555771 156.0
103.618568 164.0
103.640068 176.0
103.667198 120.0
103.744217 180.0
103.803017 160.0
103.821266 164.0
103.957184 172.0
104.024841 180.0
104.057953 352.0
104.081009 148.0
104.15818 176.0
104.219131 208.0
104.261803 132.0
104.363441 172.0
104.39801 72.0
104.432587 108.0
104.45266 152.0
104.47937 160.0
104.512703 136.0
104.536339 144.0
104.567581 160.0
104.586388 156.0
104.632004 176.0
104.667999 124.0
104.716599 96.0
104.746048 168.0
104.783226 160.0
104.860146 132.0
104.878494 160.0
104.909065 124.0
104.933533 96.0
104.97023 236.0
105.012329 280.0
105.03376 964.0
105.070244 3052.0
105.096703 136.0
105.159348 120.0
105.174248 172.0
105.21994 168.0
105.249786 200.0
105.309006 148.0
105.351097 132.0
105.472466 168.0
105.578789 48.0
105.67083 128.0
105.71994 200.0
105.754738 208.0
105.807602 116.0
105.843979 108.0
105.922638 212.0
105.977951 176.0
106.002541 144.0
106.037514 364.0
106.07457 304.0
106.13414 60.0
106.168587 208.0
106.182945 120.0
106.334129 208.0
106.459999 120.0
106.545532 196.0
106.60585 52.0
106.626404 136.0
106.737411 192.0
106.792938 124.0
106.843651 104.0
106.885513 148.0
106.941078 128.0
106.957542 144.0
107.015114 116.0
107.049767 152.0
107.086617 192.0
107.222588 204.0
107.311317 148.0
107.346649 148.0
107.361366 172.0
107.411209 168.0
107.478951 180.0
107.564598 152.0
107.58194 204.0
107.637886 40.0
107.689514 184.0
107.751488 196.0
107.765953 64.0
107.798309 176.0
107.844475 120.0
107.887886 128.0
107.924675 212.0
107.99128 36.0
108.015816 156.0
108.051956 356.0
108.084824 184.0
108.111275 116.0
108.146805 168.0
108.173363 156.0
108.201675 148.0
108.236534 156.0
108.322456 112.0
108.365967 136.0
108.409477 104.0
108.450928 152.0
108.511047 124.0
108.571182 200.0
108.616806 164.0
108.667244 204.0
108.772438 152.0
108.807724 64.0
108.919868 200.0
108.934402 120.0
108.980515 84.0
108.996735 156.0
109.027908 196.0
109.064743 160.0
109.12352 124.0
109.171349 240.0
109.212944 200.0
109.271385 236.0
109.300323 132.0
109.360672 80.0
109.446022 124.0
109.568909 100.0
109.612144 128.0
109.637558 152.0
109.736443 212.0
109.796967 156.0
109.823227 128.0
109.878944 244.0
109.917107 224.0
109.942146 172.0
109.977623 176.0
110.025635 196.0
110.046516 144.0
110.08828 136.0
110.161377 160.0
110.251221 156.0
110.433113 120.0
110.535622 152.0
110.591103 136.0
110.627716 112.0
110.65284 124.0
110.726776 196.0
110.8162 136.0
110.956619 176.0
111.039429 220.0
111.076157 160.0
111.10762 192.0
111.219391 184.0
111.290215 184.0
111.349014 236.0
111.402336 228.0
111.424637 112.0
111.445435 196.0
111.496078 136.0
111.550728 116.0
111.643242 52.0
111.666374 48.0
111.709267 132.0
111.78418 124.0
111.832527 144.0
111.876793 92.0
111.906265 156.0
111.958252 64.0
111.994713 44.0
112.036842 204.0
112.078537 152.0
112.141502 156.0
112.146912 204.0
112.182251 164.0
112.232162 184.0
112.258156 136.0
112.298225 76.0
112.382607 52.0
112.429031 168.0
112.479683 256.0
112.587875 148.0
112.635941 108.0
112.65284 136.0
112.703545 140.0
112.785965 44.0
112.840927 156.0
112.926552 244.0
112.950897 216.0
113.099014 68.0
113.113831 160.0
113.135002 84.0
113.1604 204.0
113.18158 164.0
113.232399 144.0
113.359512 360.0
113.529099 172.0
113.561623 240.0
113.622429 108.0
113.650009 76.0
113.836807 72.0
113.87928 140.0
113.905891 136.0
113.942451 152.0
114.033409 128.0
114.062012 248.0
114.149178 168.0
114.19265 164.0
114.213989 120.0
114.247017 152.0
114.266167 212.0
114.370438 184.0
114.413017 108.0
114.461983 156.0
114.525871 116.0
114.549301 176.0
114.565781 188.0
114.606606 164.0
114.628136 136.0
114.785873 204.0
114.877586 168.0
114.898918 208.0
115.012016 180.0
115.052696 3196.0
115.119522 148.0
115.157211 52.0
115.19352 132.0
115.233047 184.0
115.289673 120.0
115.32814 80.0
115.375168 96.0
115.424339 152.0
115.497055 228.0
115.518448 28.0
115.559097 152.0
115.59761 112.0
115.624313 176.0
115.696068 212.0
115.738884 128.0
115.766724 104.0
115.790283 188.0
115.84375 104.0
115.882393 188.0
115.923103 204.0
115.94239 208.0
115.958641 192.0
116.004547 76.0
116.059593 1196.0
116.115463 128.0
116.161087 160.0
116.186829 124.0
116.225792 152.0
116.319885 248.0
116.339203 220.0
116.395905 176.0
116.472336 216.0
116.612 152.0
116.682938 184.0
116.697983 116.0
116.788307 132.0
116.86203 148.0
116.902328 172.0
116.951836 184.0
117.003494 180.0
117.017067 132.0
117.032051 184.0
117.069054 1728.0
117.106857 104.0
117.143471 132.0
117.165016 232.0
117.18441 160.0
117.261986 152.0
117.283539 40.0
117.328735 244.0
117.356834 136.0
117.391335 176.0
117.427994 44.0
117.531548 224.0
117.649361 184.0
117.743095 200.0
117.766853 212.0
117.818199 244.0
117.851105 140.0
117.889999 124.0
118.022263 200.0
118.038902 268.0
118.066643 124.0
118.072037 184.0
118.187897 304.0
118.229523 104.0
118.261986 120.0
118.300949 200.0
118.359406 184.0
118.407974 140.0
118.428711 128.0
118.628059 188.0
118.660576 232.0
118.70079 132.0
118.786362 212.0
118.834084 164.0
118.860123 192.0
118.918533 196.0
118.946938 76.0
118.979454 204.0
119.015808 116.0
119.050362 460.0
119.080528 172.0
119.121498 216.0
119.140205 168.0
119.242332 100.0
119.314064 144.0
119.351028 148.0
119.390167 72.0
119.418442 68.0
119.470642 204.0
119.602585 392.0
119.65345 88.0
119.780937 236.0
119.853455 116.0
119.890877 36.0
119.943184 100.0
119.991142 376.0
120.057198 508.0
120.090302 196.0
120.115448 40.0
120.198349 116.0
120.224281 168.0
120.261642 164.0
120.316216 112.0
120.388268 136.0
120.425392 188.0
120.462524 196.0
120.479568 192.0
120.525887 176.0
120.650467 112.0
120.707314 132.0
120.751053 120.0
120.805733 216.0
120.842926 300.0
120.884499 232.0
120.937027 268.0
121.005981 120.0
121.02459 204.0
121.065201 580.0
121.105614 124.0
121.151619 148.0
121.261177 112.0
121.351051 120.0
121.456314 240.0
121.579185 172.0
121.601128 168.0
121.649422 196.0
121.70211 144.0
121.757004 148.0
121.789955 168.0
121.816315 112.0
121.833885 132.0
122.033882 156.0
122.063042 168.0
122.183441 188.0
122.247246 180.0
122.267052 144.0
122.29126 72.0
122.330566 220.0
122.359505 140.0
122.410141 92.0
122.429962 128.0
122.564339 32.0
122.617226 196.0
122.681656 252.0
122.914932 64.0
123.00013 176.0
123.043144 136.0
123.080521 132.0
123.117271 116.0
123.261612 144.0
123.314651 108.0
123.330124 152.0
123.363281 96.0
123.398651 88.0
123.420525 112.0
123.509224 120.0
123.544617 64.0
123.602142 128.0
123.658386 164.0
123.690468 176.0
123.704277 188.0
123.7593 184.0
123.814659 116.0
123.925415 112.0
123.9786 32.0
124.056175 188.0
124.171471 140.0
124.202522 192.0
124.255768 140.0
124.306801 148.0
124.340088 176.0
124.376617 200.0
124.396187 180.0
124.51548 244.0
124.538994 224.0
124.584335 80.0
124.630989 120.0
124.656868 124.0
124.684326 184.0
124.719887 92.0
124.794334 180.0
124.838638 212.0
124.873299 136.0
124.968956 240.0
125.015686 92.0
125.051292 156.0
125.066872 168.0
125.167053 144.0
125.229408 164.0
125.248375 144.0
125.313347 188.0
125.343025 156.0
125.405426 176.0
125.483452 252.0
125.50531 184.0
125.613304 228.0
125.670799 164.0
125.762291 220.0
125.780151 180.0
125.873291 184.0
125.898483 236.0
125.982216 76.0
126.047508 632.0
126.175552 172.0
126.197914 236.0
126.218216 200.0
126.235924 192.0
126.309731 164.0
126.347755 352.0
126.40593 120.0
126.482422 136.0
126.535751 200.0
126.58725 184.0
126.602928 140.0
126.676361 188.0
126.680656 148.0
126.713242 228.0
126.818008 132.0
126.965981 48.0
127.052063 1516.0
127.250809 60.0
127.299652 96.0
127.316078 116.0
127.345268 212.0
127.374474 96.0
127.405922 168.0
127.441864 72.0
127.471909 156.0
127.612122 128.0
127.650909 160.0
127.704887 120.0
127.74987 100.0
127.77462 136.0
127.821869 120.0
127.866875 116.0
127.913223 176.0
127.952415 108.0
127.980164 136.0
128.013214 88.0
128.029419 684.0
128.061829 23448.0
128.108444 160.0
128.182159 60.0
128.211884 184.0
128.231735 172.0
128.344452 108.0
128.421127 172.0
128.463989 212.0
128.513611 148.0
128.601624 148.0
128.626968 340.0
128.640442 200.0
128.661087 212.0
128.714508 60.0
128.754547 180.0
128.77774 36.0
128.795807 136.0
128.83873 52.0
128.854538 184.0
128.895218 128.0
128.933624 56.0
128.961624 156.0
129.021729 164.0
129.069046 16332.0
129.1371 36.0
129.155197 156.0
129.175156 156.0
129.193649 80.0
129.223068 208.0
129.247955 224.0
129.281906 192.0
129.356583 44.0
129.398163 104.0
129.431305 180.0
129.469803 48.0
129.512833 200.0
129.54454 156.0
129.5672 232.0
129.610245 164.0
129.635178 72.0
129.657578 140.0
129.734894 156.0
129.773438 40.0
129.792358 176.0
129.808411 104.0
129.846008 168.0
129.868164 176.0
129.904984 124.0
129.933136 224.0
129.996826 232.0
130.032944 244.0
130.073624 1040.0
130.161911 156.0
130.20578 76.0
130.229568 144.0
130.295441 132.0
130.327255 64.0
130.345428 192.0
130.388611 136.0
130.487534 180.0
130.586411 60.0
130.618256 160.0
130.650101 96.0
130.666031 104.0
130.82045 168.0
130.870865 64.0
130.971069 204.0
131.00296 40.0
131.047699 2052.0
131.08522 2348.0
131.123718 196.0
131.167023 172.0
131.187775 156.0
131.230865 28.0
131.317001 232.0
131.33577 68.0
131.375626 76.0
131.452118 152.0
131.470367 120.0
131.513733 200.0
131.545685 152.0
131.609619 220.0
131.66214 164.0
131.780914 136.0
131.796921 64.0
131.815369 52.0
131.840332 116.0
131.883759 168.0
131.902039 40.0
131.919876 260.0
131.96376 36.0
131.997238 176.0
132.055496 492.0
132.085907 700.0
132.114716 228.0
132.340714 176.0
132.402863 72.0
132.439545 176.0
132.458969 52.0
132.492447 88.0
132.579086 128.0
132.721634 168.0
132.783188 224.0
132.815674 144.0
132.861542 112.0
132.970032 200.0
133.028214 172.0
133.064453 960.0
133.169083 164.0
133.301102 132.0
133.485184 140.0
133.527679 156.0
133.564484 120.0
133.647293 176.0
133.693329 184.0
133.734741 160.0
133.854462 100.0
133.88414 208.0
133.907425 208.0
133.955795 156.0
134.012238 224.0
134.034012 300.0
134.060928 184.0
134.211624 140.0
134.230057 108.0
134.276184 128.0
134.301559 100.0
134.435364 144.0
134.6017 372.0
134.636215 172.0
134.678406 120.0
134.730911 200.0
134.883438 208.0
135.04631 508.0
135.082825 420.0
135.112366 168.0
135.151703 184.0
135.239639 168.0
135.278992 140.0
135.373917 168.0
135.456879 176.0
135.52449 64.0
135.55925 148.0
135.966812 160.0
136.002213 116.0
136.050964 216.0
136.069534 120.0
136.095078 180.0
136.156021 176.0
136.182724 188.0
136.248352 204.0
136.371521 136.0
136.404053 172.0
136.550537 108.0
136.566818 64.0
136.676025 132.0
136.778564 168.0
136.999786 180.0
137.025406 160.0
137.06015 384.0
137.095306 88.0
137.111633 140.0
137.160568 184.0
137.29631 256.0
137.323792 140.0
137.473099 180.0
137.573456 172.0
137.613144 48.0
137.66452 128.0
137.692551 144.0
137.720566 156.0
137.75795 188.0
137.781311 240.0
137.870102 180.0
137.951904 100.0
138.064026 408.0
138.12027 44.0
138.190445 108.0
138.267349 200.0
138.363647 52.0
138.398758 236.0
138.445587 168.0
138.618942 104.0
138.649414 176.0
138.710938 128.0
138.743164 176.0
138.832275 128.0
138.867447 108.0
138.963623 124.0
139.045853 232.0
139.085327 200.0
139.158035 188.0
139.271149 204.0
139.321518 136.0
139.35051 276.0
139.423874 180.0
139.562561 156.0
139.618057 260.0
139.677795 172.0
139.69426 172.0
139.717789 208.0
139.771896 140.0
139.801468 120.0
139.834076 156.0
139.851913 124.0
140.05481 184.0
140.087387 192.0
140.113297 108.0
140.132141 64.0
140.200485 68.0
140.271194 88.0
140.325409 148.0
140.405579 128.0
140.426819 64.0
140.493942 84.0
140.599045 96.0
140.634445 184.0
140.658051 96.0
140.702393 204.0
140.716934 152.0
140.755234 100.0
140.820969 172.0
140.922546 152.0
140.941452 36.0
141.002884 140.0
141.038345 176.0
141.069397 3380.0
141.10498 228.0
141.122604 124.0
141.170731 196.0
141.194382 184.0
141.232224 152.0
141.390747 104.0
141.546982 140.0
141.580139 144.0
141.688278 344.0
141.722275 152.0
141.857361 176.0
141.876328 188.0
141.897659 156.0
141.935593 124.0
141.968796 136.0
142.034195 252.0
142.075882 2444.0
142.187057 184.0
142.244476 144.0
142.292877 96.0
142.412598 72.0
142.448242 76.0
142.498123 112.0
142.529587 148.0
142.586044 184.0
142.633575 80.0
142.703629 120.0
142.807159 76.0
142.848724 136.0
142.888031 60.0
142.94014 156.0
142.976074 220.0
143.01178 40.0
143.054703 488.0
143.084961 10520.0
143.171295 156.0
143.217392 124.0
143.241714 92.0
143.288712 204.0
143.40239 168.0
143.450058 104.0
143.478775 188.0
143.516998 160.0
143.607437 184.0
143.62413 268.0
143.69809 96.0
143.74054 96.0
143.772049 196.0
143.793533 124.0
143.936768 76.0
143.960648 116.0
144.020782 176.0
144.055771 868.0
144.090302 1072.0
144.17804 136.0
144.240189 196.0
144.458511 200.0
144.508026 208.0
144.566177 160.0
144.682739 168.0
144.705322 204.0
144.764145 156.0
144.807388 136.0
144.86293 164.0
144.898285 56.0
144.972565 120.0
145.024338 320.0
145.064301 3556.0
145.099686 324.0
145.154739 224.0
145.176331 184.0
145.274658 156.0
145.402756 264.0
145.445038 156.0
145.481049 136.0
145.497849 52.0
145.526657 72.0
145.769257 144.0
145.807709 184.0
145.844818 192.0
145.925491 252.0
145.961563 72.0
146.036575 348.0
146.0672 632.0
146.108276 176.0
146.211746 128.0
146.286362 136.0
146.303207 152.0
146.329025 144.0
146.421249 212.0
146.572968 128.0
146.599472 196.0
146.679016 156.0
146.763382 132.0
146.833313 168.0
146.859848 44.0
146.958755 136.0
147.043076 1168.0
147.077209 1264.0
147.130112 72.0
147.183228 108.0
147.255676 136.0
147.291916 116.0
147.497299 184.0
147.53598 60.0
147.589172 56.0
147.623016 196.0
147.656174 232.0
147.7285 164.0
147.763306 112.0
147.81897 60.0
147.932709 240.0
147.959351 192.0
148.051193 368.0
148.075943 328.0
148.109482 196.0
148.170044 160.0
148.203964 128.0
148.32756 188.0
148.388168 132.0
148.414841 104.0
148.482742 100.0
148.577332 176.0
148.647705 184.0
148.671967 116.0
148.715652 112.0
148.747208 164.0
148.769058 40.0
148.798187 68.0
148.829758 60.0
148.948746 216.0
148.966965 144.0
148.999222 72.0
149.056992 1144.0
149.082794 188.0
149.235168 236.0
149.259842 128.0
149.433746 40.0
149.500656 112.0
149.60289 232.0
149.66597 88.0
149.868347 104.0
150.027664 296.0
150.058456 124.0
150.07634 272.0
150.246262 200.0
150.265305 168.0
150.309692 176.0
150.336533 192.0
150.378021 120.0
150.468338 180.0
150.522064 104.0
150.622192 184.0
150.688904 196.0
150.766342 324.0
150.824997 108.0
150.881226 100.0
151.013275 100.0
151.041077 160.0
151.049225 212.0
151.058136 160.0
151.076324 232.0
151.209 160.0
151.260406 176.0
151.360779 160.0
151.473526 104.0
151.546204 184.0
151.558975 144.0
151.56694 172.0
151.728302 120.0
151.838638 128.0
151.885239 104.0
151.958832 188.0
152.059296 900.0
152.081543 140.0
152.103622 112.0
152.199371 80.0
152.258316 156.0
152.466202 200.0
152.505371 108.0
152.537537 380.0
152.604797 200.0
152.685318 192.0
152.703064 112.0
152.769562 124.0
152.858139 164.0
152.971359 232.0
153.008286 248.0
153.028091 176.0
153.067917 1960.0
153.355606 228.0
153.378082 136.0
153.404907 104.0
153.471481 48.0
153.535583 160.0
153.625305 108.0
153.819336 108.0
153.994644 200.0
154.036636 172.0
154.073837 364.0
154.199707 124.0
154.399963 200.0
154.437057 160.0
154.463577 212.0
154.484375 156.0
154.588943 184.0
154.597733 72.0
154.606781 180.0
154.660202 196.0
154.696884 212.0
154.842972 144.0
154.892502 120.0
154.984177 44.0
155.054245 1140.0
155.084106 1676.0
155.194855 56.0
155.246933 176.0
155.28981 204.0
155.323807 72.0
155.373428 152.0
155.415604 172.0
155.482605 100.0
155.534729 152.0
155.80455 176.0
155.92218 64.0
156.019135 168.0
156.060272 160.0
156.090164 616.0
156.183243 100.0
156.215591 96.0
156.235489 76.0
156.282761 28.0
156.382294 196.0
156.422119 180.0
156.496811 48.0
156.520279 168.0
156.578995 200.0
156.643524 220.0
156.688583 100.0
156.825378 184.0
156.922867 48.0
156.94281 128.0
157.025528 204.0
157.064148 4280.0
157.098785 268.0
157.128418 184.0
157.23468 140.0
157.282104 132.0
157.304565 140.0
157.333694 192.0
157.379456 196.0
157.396942 56.0
157.459366 160.0
157.601761 128.0
157.724869 184.0
157.761703 164.0
157.786713 80.0
157.834213 48.0
157.911743 168.0
158.032104 208.0
158.067764 652.0
158.104599 92.0
158.227036 160.0
158.252075 92.0
158.279617 92.0
158.454941 68.0
158.490021 100.0
158.525101 72.0
158.600281 176.0
158.630371 256.0
158.703064 240.0
158.738174 132.0
158.77829 152.0
158.849533 80.0
158.868591 40.0
158.956406 172.0
159.044052 1392.0
159.079742 1944.0
159.192383 92.0
159.235062 100.0
159.49205 200.0
159.534088 40.0
159.559219 64.0
159.591904 144.0
159.677399 132.0
159.705078 180.0
159.828339 184.0
159.98439 200.0
160.019333 412.0
160.028702 212.0
160.050873 732.0
160.074173 764.0
160.119629 236.0
160.205994 48.0
160.233704 328.0
160.362228 60.0
160.632019 140.0
160.702652 92.0
160.753128 156.0
160.886902 164.0
161.059265 1848.0
161.098129 208.0
161.134399 120.0
161.152084 76.0
161.174225 136.0
161.210205 152.0
161.22789 148.0
161.250641 172.0
161.296127 120.0
161.432663 148.0
161.516113 144.0
161.561646 168.0
161.627426 164.0
161.731186 152.0
161.767838 144.0
161.86145 240.0
161.918213 60.0
161.98111 160.0
162.02887 788.0
162.061203 560.0
162.088821 240.0
162.10759 456.0
162.214996 156.0
162.240356 228.0
162.308807 164.0
162.382355 148.0
162.48381 144.0
162.514267 200.0
162.539642 164.0
162.583862 196.0
162.605621 32.0
162.628464 152.0
162.646225 180.0
162.806183 148.0
162.844269 144.0
162.900162 156.0
162.920471 72.0
162.972717 100.0
163.038483 828.0
163.074249 468.0
163.108521 152.0
163.131409 212.0
163.154282 168.0
163.204117 220.0
163.25853 152.0
163.276337 132.0
163.309967 196.0
163.393341 200.0
163.439133 168.0
163.500717 204.0
163.566391 172.0
163.594391 108.0
163.612213 48.0
163.780655 164.0
163.82103 136.0
163.86171 120.0
163.920395 132.0
163.940781 140.0
164.045776 456.0
164.108383 176.0
164.147263 204.0
164.205917 60.0
164.256927 196.0
164.288956 180.0
164.334717 204.0
164.437607 168.0
164.491699 76.0
164.578491 180.0
164.642334 140.0
164.69342 176.0
164.826263 44.0
164.88504 108.0
164.955872 180.0
165.020523 140.0
165.056305 2020.0
165.115128 160.0
165.121613 112.0
165.131729 220.0
165.150269 216.0
165.222214 88.0
165.330032 124.0
165.360733 220.0
165.394012 96.0
165.411926 176.0
165.432404 84.0
165.491302 96.0
165.547623 36.0
165.729492 100.0
165.819183 64.0
165.929413 144.0
166.076035 564.0
166.152542 152.0
166.257736 112.0
166.362976 88.0
166.386078 152.0
166.491364 220.0
166.547867 120.0
166.576111 144.0
166.594101 148.0
166.815094 140.0
166.950485 304.0
166.955063 200.0
167.045273 196.0
167.084885 192.0
167.162308 260.0
167.25238 160.0
167.347641 216.0
167.659317 132.0
167.70314 108.0
167.790787 180.0
167.862976 168.0
167.914551 148.0
167.966141 108.0
168.006439 264.0
168.053604 492.0
168.089539 308.0
168.115784 260.0
168.242264 56.0
168.40097 96.0
168.668488 104.0
168.743454 128.0
168.823624 192.0
168.862411 144.0
168.976227 88.0
169.010025 128.0
169.031509 168.0
169.062881 2412.0
169.103165 336.0
169.285126 148.0
169.320496 100.0
169.35936 104.0
169.393021 52.0
169.421524 76.0
169.582184 156.0
169.654694 172.0
169.71698 136.0
169.737732 104.0
169.958206 116.0
170.025879 148.0
170.068405 868.0
170.108734 144.0
170.163254 188.0
170.243744 128.0
170.272308 100.0
170.301361 108.0
170.338913 156.0
170.406021 160.0
170.448959 132.0
170.576736 192.0
170.652237 196.0
170.675018 132.0
170.753113 228.0
170.79213 144.0
170.889313 136.0
170.94043 188.0
170.976852 160.0
171.041733 672.0
171.079987 18008.0
171.137772 88.0
171.166473 152.0
171.198135 44.0
171.21637 284.0
171.292679 80.0
171.336899 88.0
171.390106 52.0
171.467606 168.0
171.497757 152.0
171.547089 80.0
171.588989 48.0
171.826324 156.0
171.891556 196.0
171.956787 100.0
171.982895 96.0
172.049332 848.0
172.082657 3072.0
172.204819 184.0
172.244003 132.0
172.283813 116.0
172.520996 124.0
172.538361 100.0
172.557602 268.0
172.76944 108.0
172.803452 124.0
172.853226 188.0
172.889801 48.0
172.934296 204.0
172.968323 108.0
172.989258 108.0
173.058655 2800.0
173.094223 612.0
173.130646 176.0
173.151596 172.0
173.209229 88.0
173.244583 56.0
173.271439 160.0
173.301636 72.0
173.327118 136.0
173.382141 176.0
173.43306 176.0
173.552536 60.0
173.607605 136.0
173.639069 48.0
173.712509 144.0
173.738754 60.0
173.804337 140.0
173.872574 224.0
173.976059 140.0
174.030457 424.0
174.066116 1152.0
174.105804 200.0
174.182388 156.0
174.248062 60.0
174.308502 104.0
174.416245 48.0
174.455688 52.0
174.54245 180.0
174.57663 120.0
174.613449 176.0
174.650269 128.0
174.739716 64.0
174.811142 160.0
174.897598 56.0
174.934464 240.0
174.966888 188.0
174.997635 212.0
175.036926 352.0
175.070862 2320.0
175.131943 40.0
175.179352 68.0
175.208344 140.0
175.27684 148.0
175.311096 260.0
175.337448 44.0
175.45343 48.0
175.482437 132.0
175.545715 108.0
175.630676 224.0
175.933563 136.0
176.045334 1052.0
176.067612 704.0
176.126343 200.0
176.152756 188.0
176.221436 284.0
176.430237 204.0
176.556442 180.0
176.653 236.0
176.677155 164.0
176.794739 168.0
176.85347 152.0
176.962006 152.0
177.020752 208.0
177.052689 1700.0
177.073868 1004.0
177.144745 136.0
177.197723 44.0
177.308044 208.0
177.464096 96.0
177.590057 60.0
177.644058 100.0
177.677597 156.0
177.704117 140.0
177.770462 144.0
177.948303 168.0
178.024628 140.0
178.062698 1736.0
178.168732 72.0
178.240479 116.0
178.293625 96.0
178.32019 216.0
178.346771 84.0
178.644592 148.0
178.731659 248.0
178.777634 64.0
178.836182 132.0
178.869827 112.0
178.905396 36.0
178.943909 240.0
178.983673 148.0
179.034836 500.0
179.069305 3148.0
179.182358 32.0
179.223007 188.0
179.264954 108.0
179.304932 176.0
179.34758 128.0
179.379562 152.0
179.454208 96.0
179.491531 152.0
179.526199 224.0
179.694244 156.0
179.74762 192.0
179.776962 152.0
179.833008 156.0
179.875717 144.0
179.923218 96.0
179.95047 52.0
179.993195 104.0
180.071701 352.0
180.112747 260.0
180.383255 132.0
180.450089 228.0
180.485275 76.0
180.714874 36.0
180.803177 144.0
180.877045 240.0
180.910248 164.0
180.937012 156.0
181.007553 128.0
181.06279 956.0
181.143219 60.0
181.194122 104.0
181.253067 60.0
181.277176 228.0
181.403152 172.0
181.461884 128.0
181.491623 224.0
181.589722 192.0
181.633759 92.0
181.676682 60.0
181.738388 48.0
182.044388 312.0
182.074646 668.0
182.162567 164.0
182.224365 84.0
182.259293 156.0
182.393661 144.0
182.412476 60.0
182.490448 156.0
182.525391 164.0
182.624908 76.0
182.866241 160.0
182.885895 92.0
182.934341 56.0
182.982803 84.0
183.042755 404.0
183.077713 964.0
183.129684 220.0
183.149765 52.0
183.241348 168.0
183.300629 140.0
183.411133 108.0
183.440781 144.0
183.492004 92.0
183.521667 148.0
183.591766 32.0
183.664597 196.0
183.811401 200.0
183.932953 176.0
184.051712 580.0
184.088272 144.0
184.174744 180.0
184.374741 164.0
184.450348 60.0
184.480087 48.0
184.531448 128.0
184.703262 136.0
184.842499 208.0
184.907791 160.0
184.933899 52.0
184.949753 108.0
184.984375 172.0
185.024811 316.0
185.058838 5056.0
185.092438 640.0
185.12883 176.0
185.204086 172.0
185.226944 48.0
185.256744 88.0
185.397644 196.0
185.429718 264.0
185.459976 68.0
185.478958 140.0
185.652466 92.0
185.746338 216.0
185.856781 152.0
185.902054 248.0
185.99704 156.0
186.026184 184.0
186.063568 844.0
186.168091 116.0
186.28035 120.0
186.369095 140.0
186.396271 148.0
186.442459 156.0
186.480515 76.0
186.532166 144.0
186.562637 132.0
186.619156 220.0
186.651779 56.0
186.717041 96.0
186.802063 220.0
186.823135 128.0
186.842178 144.0
186.896591 60.0
186.945572 188.0
186.975815 380.0
187.03717 392.0
187.072998 2912.0
187.136108 132.0
187.168777 176.0
187.24231 84.0
187.283157 76.0
187.348541 84.0
187.404434 116.0
187.426804 220.0
187.45752 120.0
187.494812 152.0
187.53656 204.0
187.599258 152.0
187.689224 140.0
187.708313 192.0
187.798309 80.0
187.889404 172.0
188.044952 1440.0
188.074158 1104.0
188.234955 120.0
188.303238 80.0
188.338745 188.0
188.4207 148.0
188.535461 84.0
188.601044 136.0
188.644791 148.0
188.699463 180.0
188.942871 192.0
188.976974 232.0
189.00853 100.0
189.052551 3144.0
189.084564 744.0
189.150848 92.0
189.222031 60.0
189.3069 228.0
189.408249 96.0
189.43837 200.0
189.564407 236.0
189.630188 168.0
189.728867 168.0
189.764496 212.0
189.89064 176.0
189.972931 68.0
190.025986 2000.0
190.064041 1108.0
190.129333 84.0
190.18306 188.0
190.20517 164.0
190.340698 124.0
190.409363 100.0
190.430237 140.0
190.450562 148.0
190.527466 116.0
190.56868 172.0
190.610794 136.0
190.706085 104.0
190.736328 148.0
190.772064 156.0
190.794052 172.0
190.86554 144.0
190.971649 124.0
191.005295 152.0
191.030945 576.0
191.070435 3552.0
191.163437 120.0
191.228668 164.0
191.249786 124.0
191.313293 172.0
191.415863 52.0
191.526031 108.0
191.586639 80.0
191.721649 168.0
191.771255 104.0
191.873245 136.0
191.991821 184.0
192.04187 1048.0
192.073715 664.0
192.095428 408.0
192.220505 164.0
192.251129 124.0
192.295288 52.0
192.331177 208.0
192.370926 140.0
192.391907 160.0
192.445816 148.0
192.474731 224.0
192.516144 172.0
192.560333 88.0
192.610062 80.0
192.629395 272.0
192.681885 180.0
192.701218 144.0
192.817276 156.0
192.864258 156.0
192.902969 276.0
192.927841 160.0
193.010788 160.0
193.046967 1320.0
193.082428 616.0
193.253479 140.0
193.315063 236.0
193.424805 80.0
193.470062 180.0
193.597427 108.0
193.641739 188.0
193.715546 116.0
193.758087 48.0
193.788559 140.0
193.852295 152.0
193.880005 144.0
193.899399 204.0
194.036148 132.0
194.070618 776.0
194.121185 184.0
194.237671 56.0
194.258102 76.0
194.368057 124.0
194.390259 220.0
194.467972 148.0
194.517929 64.0
194.580215 220.0
194.751175 204.0
194.870621 172.0
194.93454 88.0
194.96788 216.0
195.048401 284.0
195.079269 704.0
195.137436 64.0
195.159683 56.0
195.339569 212.0
195.382187 160.0
195.454529 48.0
195.500824 244.0
195.542221 280.0
195.599243 120.0
195.666061 36.0
195.764633 128.0
195.838699 224.0
195.872131 160.0
196.053909 244.0
196.082809 356.0
196.196594 128.0
196.243546 52.0
196.309692 76.0
196.440781 212.0
196.474258 260.0
196.597031 72.0
196.661224 88.0
196.853851 196.0
196.881149 192.0
196.920883 132.0
197.059113 1780.0
197.086212 372.0
197.152771 144.0
197.18631 76.0
197.208664 120.0
197.365219 44.0
197.390381 176.0
197.429535 128.0
197.552597 148.0
197.619751 156.0
197.815643 116.0
197.871643 88.0
197.978043 88.0
198.020859 264.0
198.067566 1544.0
198.11528 36.0
198.230164 128.0
198.266586 92.0
198.345062 212.0
198.521698 172.0
198.544128 80.0
198.61705 76.0
198.934143 180.0
199.040726 300.0
199.07428 2548.0
199.19249 148.0
199.217773 200.0
199.24025 64.0
199.265533 132.0
199.285202 32.0
199.321732 164.0
199.363876 56.0
199.439758 172.0
199.479111 264.0
199.583145 80.0
199.667496 140.0
199.79689 188.0
199.836273 88.0
199.861603 128.0
199.886932 220.0
200.044968 2152.0
200.078033 2012.0
200.187866 88.0
200.269806 136.0
200.295151 152.0
200.393753 172.0
200.427567 72.0
200.447296 76.0
200.588211 40.0
200.715073 36.0
200.827881 244.0
200.90686 172.0
201.011261 108.0
201.05275 1880.0
201.088486 612.0
201.151093 88.0
201.189072 152.0
201.256836 136.0
201.293533 60.0
201.3246 76.0
201.378265 136.0
201.461426 288.0
201.527191 100.0
201.570374 96.0
201.646667 72.0
201.686234 176.0
201.785187 168.0
201.813461 32.0
201.901108 192.0
201.929459 172.0
201.957672 152.0
201.983139 152.0
202.023804 336.0
202.061737 2468.0
202.140152 120.0
202.240631 132.0
202.331207 176.0
202.377701 104.0
202.501114 124.0
202.637085 108.0
202.730591 48.0
202.775925 104.0
202.812775 124.0
202.914825 128.0
202.970779 164.0
203.005569 88.0
203.070724 4204.0
203.165756 52.0
203.255188 52.0
203.283157 168.0
203.314789 80.0
203.335678 192.0
203.363037 172.0
203.467834 344.0
203.490768 104.0
203.558746 116.0
203.615723 124.0
203.72081 72.0
203.869797 176.0
203.965195 204.0
203.99646 220.0
204.038361 636.0
204.072174 1576.0
204.149994 36.0
204.178436 88.0
204.258072 156.0
204.319382 80.0
204.44017 64.0
204.531235 168.0
204.642258 84.0
204.696198 136.0
204.818832 112.0
204.875793 132.0
204.955658 136.0
204.978561 404.0
205.048859 15076.0
205.098434 1672.0
205.162918 128.0
205.203552 88.0
205.234909 164.0
205.329224 56.0
205.380356 116.0
205.408875 80.0
205.48259 124.0
205.556717 220.0
205.582916 44.0
205.64856 36.0
205.677094 68.0
205.756348 200.0
205.842682 144.0
205.899307 92.0
205.922653 108.0
206.051346 1656.0
206.10379 320.0
206.153687 184.0
206.222244 88.0
206.250107 152.0
206.377014 48.0
206.417053 44.0
206.514282 140.0
206.545746 56.0
206.617264 72.0
206.688797 148.0
206.736176 40.0
206.768921 100.0
206.818115 156.0
206.883423 276.0
206.923492 92.0
207.064331 2480.0
207.121582 164.0
207.155472 44.0
207.227081 48.0
207.344574 96.0
207.364639 80.0
207.512573 164.0
207.574905 104.0
207.616928 80.0
207.677155 228.0
207.935379 168.0
208.066925 288.0
208.084641 144.0
208.123123 308.0
208.193756 44.0
208.215103 132.0
208.544266 76.0
208.564377 148.0
208.584503 136.0
208.782898 48.0
208.899063 124.0
208.926712 76.0
209.027405 132.0
209.059219 364.0
209.093063 380.0
209.142532 180.0
209.231766 140.0
209.349823 52.0
209.479431 108.0
209.693924 136.0
209.727234 152.0
209.810837 172.0
209.874268 124.0
210.020462 276.0
210.064072 544.0
210.171356 64.0
210.197327 188.0
210.252151 188.0
210.32431 148.0
210.529297 72.0
210.5784 44.0
210.656387 100.0
210.771942 140.0
210.930908 96.0
210.977158 180.0
211.034973 128.0
211.073502 1132.0
211.237411 104.0
211.280807 136.0
211.31842 176.0
211.428375 88.0
211.468903 236.0
211.529099 100.0
211.917755 28.0
211.96991 124.0
211.990189 120.0
212.039337 188.0
212.078949 504.0
212.213379 112.0
212.49472 172.0
212.550674 100.0
212.576096 184.0
212.692047 180.0
212.822693 100.0
212.953369 88.0
213.053238 3372.0
213.088974 1200.0
213.165451 76.0
213.206573 80.0
213.270081 184.0
213.304962 132.0
213.368698 56.0
213.432877 48.0
213.464859 212.0
213.511383 120.0
213.568069 204.0
213.621918 144.0
213.670242 76.0
213.770294 92.0
213.800415 184.0
213.818451 140.0
213.863434 96.0
213.883804 140.0
213.930374 104.0
213.994431 184.0
214.052719 720.0
214.090469 548.0
214.172073 72.0
214.25946 64.0
214.320648 160.0
214.373093 160.0
214.507172 116.0
214.588791 60.0
214.737518 56.0
214.768921 172.0
214.802658 144.0
214.871704 124.0
214.89212 100.0
214.918381 164.0
214.944641 124.0
214.972 256.0
215.009552 304.0
215.033966 300.0
215.069809 18928.0
215.126419 188.0
215.175079 76.0
215.202408 116.0
215.242371 80.0
215.266663 140.0
215.300781 64.0
215.327072 44.0
215.379745 148.0
215.420532 36.0
215.484802 76.0
215.528641 88.0
215.55809 144.0
215.637436 192.0
215.750183 264.0
215.798111 176.0
215.829697 200.0
215.919815 152.0
215.959381 92.0
216.075302 3512.0
216.152802 104.0
216.170273 84.0
216.215836 124.0
216.252075 72.0
216.272781 140.0
216.320099 84.0
216.347549 68.0
216.426605 144.0
216.452957 84.0
216.472336 84.0
216.51152 160.0
216.532028 36.0
216.581818 132.0
216.69606 124.0
216.731232 92.0
216.756729 188.0
216.799118 72.0
216.84845 76.0
216.924652 76.0
216.956909 152.0
216.977417 76.0
217.048721 1680.0
217.098251 2452.0
217.179764 60.0
217.204971 208.0
217.309952 176.0
217.335251 92.0
217.358276 192.0
217.417404 132.0
217.455566 68.0
217.505463 120.0
217.572983 136.0
217.646378 100.0
217.67868 72.0
217.727127 232.0
217.76384 40.0
217.810501 140.0
217.869583 48.0
217.900192 116.0
217.939255 180.0
217.992416 304.0
218.053558 1824.0
218.096802 660.0
218.166412 88.0
218.350082 128.0
218.384003 172.0
218.428131 92.0
218.472473 208.0
218.594788 136.0
218.639969 104.0
218.756592 160.0
218.79892 108.0
218.838882 236.0
218.915283 176.0
218.940247 112.0
218.996216 224.0
219.022491 156.0
219.065826 2972.0
219.116348 340.0
219.190643 104.0
219.226379 192.0
219.296738 64.0
219.361588 148.0
219.382217 68.0
219.435287 176.0
219.494263 64.0
219.535538 100.0
219.59671 124.0
219.611725 172.0
219.736115 80.0
219.762665 180.0
219.783325 148.0
219.818741 52.0
219.901367 76.0
219.961761 104.0
220.002625 172.0
220.094788 2128.0
220.187744 220.0
220.261597 124.0
220.282944 176.0
220.326584 48.0
220.583679 212.0
220.633926 248.0
220.663498 96.0
220.716721 112.0
220.77121 140.0
220.802475 148.0
220.855713 100.0
221.015472 48.0
221.07373 488.0
221.094055 1116.0
221.125626 160.0
221.323303 184.0
221.403259 180.0
221.429901 72.0
221.466141 136.0
221.528214 64.0
221.560242 180.0
221.592834 28.0
221.65802 40.0
221.681717 44.0
221.729141 96.0
221.898102 172.0
221.976379 180.0
222.061646 236.0
222.114883 300.0
222.156723 196.0
222.216934 232.0
222.248093 148.0
222.289627 96.0
222.402405 160.0
222.531998 128.0
222.610229 152.0
222.684464 60.0
222.705261 168.0
222.726059 148.0
222.760162 68.0
223.005356 184.0
223.044846 132.0
223.074814 560.0
223.108887 188.0
223.133179 188.0
223.243057 176.0
223.249634 168.0
223.481155 164.0
223.537689 144.0
223.608673 108.0
223.675781 144.0
223.841324 156.0
224.041016 192.0
224.080246 468.0
224.124542 148.0
224.276291 100.0
224.452179 96.0
224.492752 156.0
224.613876 188.0
224.717636 68.0
224.816101 112.0
224.899673 156.0
225.00415 56.0
225.056839 1728.0
225.085449 356.0
225.156433 56.0
225.201233 64.0
225.293839 40.0
225.386459 40.0
225.426453 104.0
225.526917 88.0
225.781357 236.0
225.903687 108.0
225.930603 124.0
226.060822 424.0
226.116119 220.0
226.278122 148.0
226.311172 100.0
226.442459 52.0
226.52034 88.0
226.607224 144.0
226.642471 220.0
226.664673 204.0
226.745056 72.0
226.821609 96.0
226.914963 296.0
226.951904 160.0
227.028305 508.0
227.069687 2636.0
227.133499 108.0
227.170837 176.0
227.221832 220.0
227.257843 212.0
227.322174 164.0
227.36586 64.0
227.386871 128.0
227.500931 140.0
227.546646 240.0
227.600006 36.0
227.648056 160.0
227.702118 164.0
227.83728 72.0
227.997772 116.0
228.04068 1424.0
228.08429 2100.0
228.294159 164.0
228.333252 32.0
228.38298 172.0
228.492676 224.0
228.661179 104.0
228.703918 80.0
228.724396 276.0
228.769547 152.0
228.905029 140.0
228.979065 212.0
229.052048 720.0
229.091507 2728.0
229.157837 56.0
229.227356 108.0
229.269531 56.0
229.32077 256.0
229.399139 48.0
229.431046 48.0
229.46315 172.0
229.504669 176.0
229.525772 48.0
229.564972 148.0
229.748962 140.0
229.785156 28.0
229.818344 152.0
229.872665 132.0
229.930008 132.0
229.957169 172.0
230.05069 1556.0
230.100372 2264.0
230.150375 192.0
230.237549 152.0
230.301361 136.0
230.361771 44.0
230.43428 68.0
230.491684 120.0
230.561188 140.0
230.6035 136.0
230.709305 40.0
230.892365 148.0
230.920975 72.0
230.958252 224.0
231.020782 272.0
231.065201 3752.0
231.112946 1912.0
231.173141 56.0
231.19841 68.0
231.233627 224.0
231.265884 208.0
231.368805 56.0
231.401199 132.0
231.514145 116.0
231.574722 60.0
231.650436 160.0
231.690964 96.0
231.704498 76.0
231.714447 160.0
231.759506 88.0
231.817078 164.0
231.838303 80.0
231.92012 148.0
231.977722 44.0
232.074371 2992.0
232.118591 280.0
232.171768 128.0
232.20816 196.0
232.283997 268.0
232.339432 52.0
232.39624 88.0
232.458084 84.0
232.487274 152.0
232.540604 168.0
232.613403 60.0
232.645111 84.0
232.711899 104.0
232.757446 92.0
232.842468 96.0
232.891068 60.0
232.918396 60.0
232.94574 168.0
232.993835 168.0
232.998001 140.0
233.010406 196.0
233.077927 5008.0
233.134933 632.0
233.182739 152.0
233.225296 44.0
233.30545 76.0
233.340805 208.0
233.374252 32.0
233.395538 76.0
233.45636 40.0
233.485641 76.0
233.524643 92.0
233.57193 68.0
233.594208 124.0
233.705795 64.0
233.730133 64.0
233.778824 116.0
233.820282 128.0
233.837418 156.0
233.864029 96.0
233.887436 128.0
233.976669 60.0
234.027725 120.0
234.087097 1020.0
234.129639 188.0
234.171555 100.0
234.308624 176.0
234.329956 144.0
234.357376 64.0
234.486938 172.0
234.656067 120.0
234.704849 64.0
234.765839 136.0
234.936646 80.0
234.973251 100.0
235.019012 92.0
235.073364 552.0
235.103745 636.0
235.343781 100.0
235.421951 52.0
235.489136 80.0
235.71521 124.0
235.757996 68.0
235.819107 108.0
235.840515 188.0
235.87413 112.0
235.955444 180.0
236.088531 836.0
236.244141 88.0
236.37204 160.0
236.4216 76.0
236.495056 96.0
236.6362 192.0
236.877808 216.0
236.914566 76.0
237.051987 340.0
237.088058 248.0
237.132126 148.0
237.160217 48.0
237.199554 36.0
237.303787 208.0
237.349792 108.0
237.398849 116.0
237.469391 132.0
237.496994 48.0
237.644241 160.0
237.665726 124.0
237.749847 144.0
237.864319 152.0
238.055466 500.0
238.07515 240.0
238.141556 160.0
238.215271 176.0
238.255203 108.0
238.356598 208.0
238.551514 152.0
238.648605 136.0
238.682419 48.0
238.793137 200.0
238.916168 68.0
238.943863 124.0
238.999237 180.0
239.079742 804.0
239.19313 168.0
239.433289 148.0
239.573822 128.0
239.78363 212.0
239.821487 96.0
239.857285 52.0
239.880051 148.0
239.901627 208.0
239.991043 116.0
240.036316 196.0
240.083633 1664.0
240.311813 164.0
240.376602 116.0
240.407471 36.0
240.484619 128.0
240.54216 184.0
240.651321 172.0
240.687424 136.0
241.047302 472.0
241.095596 2528.0
241.185684 160.0
241.275406 128.0
241.334152 48.0
241.457855 204.0
241.546616 160.0
241.568222 140.0
241.595139 156.0
241.65892 180.0
241.894119 276.0
241.962219 264.0
242.011887 96.0
242.060593 460.0
242.108063 1476.0
242.14563 156.0
242.31839 68.0
242.383453 156.0
242.423737 204.0
242.502548 176.0
242.569412 160.0
242.614029 112.0
242.656219 248.0
242.715118 104.0
242.745087 196.0
242.808151 164.0
242.829865 72.0
242.898865 244.0
242.929123 524.0
242.993362 316.0
243.006332 224.0
243.064453 24092.0
243.111145 1968.0
243.183563 64.0
243.247269 328.0
243.334427 120.0
243.410233 300.0
243.444351 120.0
243.489288 112.0
243.59964 76.0
243.636917 44.0
243.689743 68.0
243.7146 44.0
243.745224 84.0
243.787933 188.0
243.814026 68.0
243.874557 144.0
243.913498 112.0
243.981888 108.0
244.068375 2468.0
244.124847 624.0
244.174011 324.0
244.236877 64.0
244.264862 160.0
244.317749 80.0
244.345749 56.0
244.367523 56.0
244.420425 144.0
244.467102 56.0
244.569809 48.0
244.675644 36.0
244.703842 68.0
244.799973 172.0
244.872192 132.0
244.909195 56.0
244.968384 156.0
245.085052 5760.0
245.167786 108.0
245.223892 72.0
245.246124 60.0
245.314285 64.0
245.342331 104.0
245.364166 104.0
245.419937 72.0
245.426712 64.0
245.493713 80.0
245.548141 68.0
245.594925 100.0
245.619873 148.0
245.672897 92.0
245.7491 104.0
245.780441 68.0
245.854492 224.0
245.938141 128.0
245.981842 112.0
246.0952 1288.0
246.13298 356.0
246.262863 40.0
246.427475 144.0
246.587799 92.0
246.675308 164.0
246.737839 96.0
246.783829 124.0
246.828506 204.0
246.856659 136.0
247.003647 64.0
247.082352 816.0
247.106094 1412.0
247.166336 156.0
247.332199 48.0
247.426117 48.0
247.457413 120.0
247.5952 36.0
247.623383 48.0
247.739288 112.0
247.78627 36.0
247.90097 116.0
247.921005 192.0
248.014709 152.0
248.091949 6620.0
248.156097 144.0
248.186584 188.0
248.225082 108.0
248.312271 100.0
248.400726 100.0
248.476013 32.0
248.614075 56.0
248.636047 124.0
248.679977 228.0
248.723923 92.0
249.000229 144.0
249.039841 156.0
249.092773 1976.0
249.121002 396.0
249.223251 40.0
249.317535 76.0
249.411819 44.0
249.668579 168.0
249.75029 140.0
249.905548 152.0
250.067886 152.0
250.095764 216.0
250.126923 140.0
250.292709 88.0
250.363556 168.0
250.39032 104.0
250.437561 252.0
250.45961 100.0
250.51947 184.0
250.581421 144.0
250.607681 132.0
250.645493 84.0
250.796768 60.0
250.932312 144.0
250.973145 160.0
251.063446 304.0
251.105179 316.0
251.152283 180.0
251.493835 232.0
251.897995 96.0
252.077393 684.0
252.425812 44.0
252.447952 116.0
252.539658 108.0
252.593063 172.0
252.691498 108.0
252.818069 112.0
252.928848 60.0
253.089203 1132.0
253.267654 144.0
253.454559 80.0
253.594009 148.0
253.660568 144.0
254.049759 176.0
254.099518 676.0
254.202911 148.0
254.431442 152.0
254.469528 160.0
254.666428 28.0
254.749008 40.0
254.803009 84.0
255.068649 1984.0
255.112427 556.0
255.209839 160.0
255.248001 92.0
255.32431 144.0
255.352936 68.0
255.419739 104.0
255.457901 84.0
255.483353 84.0
255.747467 92.0
255.782486 188.0
256.088196 1184.0
256.117798 336.0
256.225128 108.0
256.371033 136.0
256.451385 116.0
256.582062 72.0
256.620331 160.0
256.741516 76.0
256.920135 60.0
257.085144 3380.0
257.172211 40.0
257.293518 76.0
257.395874 204.0
257.545898 196.0
257.622437 276.0
257.68634 48.0
257.772125 188.0
257.796539 180.0
257.844574 140.0
257.921753 120.0
257.926788 172.0
257.961182 60.0
257.98996 124.0
258.088226 25224.0
258.208527 92.0
258.234497 132.0
258.264954 76.0
258.296936 60.0
258.355011 232.0
258.437714 64.0
258.466492 72.0
258.497589 124.0
258.563812 108.0
258.598663 48.0
258.640533 128.0
258.700134 156.0
258.722534 36.0
258.786591 112.0
258.818604 56.0
258.84787 140.0
258.896423 80.0
258.969116 92.0
259.000824 112.0
259.098999 4316.0
259.237305 56.0
259.353607 76.0
259.411835 192.0
259.475433 84.0
259.528107 84.0
259.581238 72.0
259.630341 64.0
259.740723 104.0
259.763519 100.0
259.799316 48.0
259.88916 44.0
259.962952 152.0
260.08725 1012.0
260.115021 1240.0
260.187653 60.0
260.219757 76.0
260.248657 40.0
260.354614 140.0
260.43811 180.0
260.521637 80.0
260.562225 76.0
260.643738 40.0
260.673126 108.0
260.702057 220.0
260.738708 92.0
260.860016 108.0
260.92334 144.0
260.99408 156.0
261.034271 60.0
261.088074 2732.0
261.125641 748.0
261.193481 132.0
261.257812 56.0
261.311981 168.0
261.3479 100.0
261.640778 204.0
261.682648 144.0
261.734161 68.0
261.758636 84.0
261.808228 48.0
261.853302 48.0
261.901611 76.0
262.096283 1272.0
262.272156 132.0
262.297943 40.0
262.568787 88.0
262.601044 104.0
262.80426 140.0
263.007568 100.0
263.064392 584.0
263.106995 696.0
263.141235 944.0
263.265869 52.0
263.311066 192.0
263.676147 68.0
263.865814 232.0
264.025299 104.0
264.064423 172.0
264.101685 256.0
264.144592 420.0
264.167938 172.0
264.465332 160.0
264.491211 92.0
264.623932 56.0
264.870056 112.0
265.082611 1088.0
265.137848 108.0
265.307526 172.0
265.534515 48.0
265.641541 40.0
266.088135 480.0
266.472656 92.0
266.787872 108.0
267.099762 1496.0
267.207428 56.0
267.230194 52.0
267.331055 64.0
267.467743 156.0
267.545868 132.0
267.731476 40.0
267.962402 112.0
267.995331 144.0
268.090729 396.0
268.526672 144.0
268.706085 40.0
268.931274 108.0
269.004303 116.0
269.095245 1640.0
269.424347 204.0
269.522369 48.0
269.850403 88.0
269.885162 88.0
269.922302 112.0
269.989807 116.0
270.09256 2064.0
270.424957 44.0
270.457672 252.0
270.719604 152.0
270.866974 160.0
270.909546 148.0
271.080383 1420.0
271.105469 1984.0
271.443787 76.0
271.558594 84.0
271.675171 44.0
271.74884 104.0
272.0849 644.0
272.117462 1740.0
272.210571 96.0
272.254333 132.0
272.290985 128.0
272.338867 168.0
272.472595 144.0
272.711029 108.0
272.860565 172.0
272.923035 144.0
272.97403 156.0
273.018555 192.0
273.088287 2944.0
273.124115 2228.0
273.170898 84.0
273.319427 132.0
273.424713 56.0
273.526031 80.0
273.655151 132.0
273.751495 124.0
273.842834 60.0
273.882355 60.0
273.925201 64.0
273.971313 96.0
274.037201 172.0
274.092224 864.0
274.128723 948.0
274.218445 140.0
274.287659 52.0
274.320618 68.0
274.403046 104.0
274.537689 48.0
274.591003 40.0
274.732849 68.0
274.759216 168.0
274.818604 120.0
274.891205 152.0
274.937408 92.0
275.066498 720.0
275.103699 1920.0
275.135651 548.0
275.244415 112.0
275.287354 104.0
275.376495 120.0
275.508636 44.0
275.578003 132.0
275.710205 68.0
275.769684 132.0
275.895294 68.0
275.952484 132.0
276.078918 416.0
276.114197 1556.0
276.26236 148.0
276.335144 132.0
276.358307 164.0
276.407959 32.0
276.450958 60.0
276.589966 192.0
276.685974 100.0
276.755493 164.0
276.802124 100.0
276.927704 52.0
276.955811 124.0
277.007202 160.0
277.083557 852.0
277.116791 880.0
277.176178 124.0
277.345184 72.0
277.368378 92.0
277.400421 72.0
277.461212 64.0
277.507629 108.0
277.583893 68.0
277.963196 160.0
278.092316 264.0
278.210968 48.0
278.250793 68.0
278.303925 68.0
278.475037 76.0
278.606171 44.0
278.664886 76.0
278.905243 44.0
278.960602 176.0
279.058411 256.0
279.093048 356.0
279.850006 148.0
280.075226 172.0
280.098663 376.0
280.416321 96.0
280.679688 128.0
280.82309 128.0
280.923157 176.0
280.983185 148.0
281.09549 268.0
281.735962 84.0
282.041779 196.0
282.094208 136.0
282.148773 140.0
282.928253 148.0
283.102692 300.0
283.404022 76.0
283.47757 180.0
283.564697 176.0
283.836243 176.0
283.987152 164.0
284.020691 96.0
284.100708 276.0
284.104889 532.0
284.218628 52.0
284.453552 156.0
284.497192 88.0
284.571045 68.0
284.671783 92.0
285.088287 2288.0
285.199249 36.0
285.259766 152.0
285.54892 76.0
285.60611 188.0
286.098907 4420.0
286.272461 124.0
286.420654 124.0
286.74411 40.0
286.798309 52.0
286.983459 132.0
287.104462 2372.0
287.236389 228.0
287.347717 68.0
287.404846 60.0
287.570435 220.0
287.790649 104.0
287.820251 128.0
287.908051 92.0
288.005981 64.0
288.073639 640.0
288.112671 1840.0
288.234406 216.0
288.357391 80.0
288.475677 96.0
288.705597 36.0
288.908539 160.0
288.966064 104.0
289.030518 160.0
289.084198 2240.0
289.116699 968.0
289.195557 112.0
289.340088 132.0
289.38913 64.0
289.437164 236.0
289.555054 32.0
289.602478 104.0
289.62619 128.0
289.724426 204.0
289.782013 176.0
289.927704 36.0
289.995514 180.0
290.091125 768.0
290.127197 1228.0
290.185333 152.0
290.263336 100.0
290.307404 60.0
290.456635 56.0
290.514313 136.0
290.639832 80.0
290.687683 80.0
290.72406 112.0
290.750122 80.0
290.849274 232.0
290.878448 144.0
290.921539 92.0
291.102051 1808.0
291.135895 1860.0
291.216949 100.0
291.239502 44.0
291.342621 56.0
291.390198 72.0
291.580475 156.0
291.668854 48.0
291.998962 132.0
292.029266 156.0
292.06488 128.0
292.106476 1784.0
292.208923 64.0
292.246979 52.0
292.406921 96.0
292.502228 36.0
292.70697 144.0
292.927887 176.0
292.975006 124.0
293.084045 336.0
293.106018 696.0
293.227722 136.0
293.282257 76.0
293.531128 88.0
293.788544 212.0
293.974579 40.0
294.100159 236.0
294.62674 160.0
294.855682 48.0
295.080475 176.0
295.245422 48.0
295.419861 120.0
295.54303 80.0
296.005127 148.0
296.101013 288.0
296.796661 140.0
297.08844 284.0
297.122498 156.0
297.26535 200.0
297.462219 136.0
297.489685 124.0
297.517151 112.0
297.554901 148.0
297.991089 176.0
298.094055 1164.0
298.324463 128.0
298.369141 88.0
298.723358 48.0
298.840332 188.0
299.008942 56.0
299.07135 360.0
299.103485 1220.0
299.156097 128.0
299.291229 36.0
299.828613 160.0
300.000946 192.0
300.08493 252.0
300.115479 2376.0
300.180237 96.0
300.477997 108.0
300.632141 132.0
300.75293 80.0
300.856476 48.0
300.904816 160.0
301.083679 2504.0
301.119568 2208.0
301.30545 144.0
301.395264 228.0
301.547333 72.0
301.571533 100.0
301.626831 48.0
301.661407 56.0
301.841187 48.0
302.045227 180.0
302.094574 1116.0
302.121216 788.0
302.193115 176.0
302.320221 108.0
302.650848 80.0
302.78244 52.0
302.81015 144.0
302.851715 120.0
302.875977 176.0
303.011078 52.0
303.100403 3204.0
303.133667 740.0
303.212036 64.0
303.260559 36.0
303.333374 184.0
303.496307 44.0
303.610748 100.0
303.680115 120.0
303.888245 40.0
304.011108 88.0
304.105438 2960.0
304.266541 152.0
304.329041 132.0
304.426697 128.0
304.74234 88.0
304.770142 60.0
304.797943 60.0
304.90567 88.0
304.982147 92.0
305.023865 232.0
305.078552 948.0
305.113678 808.0
305.179047 200.0
305.375031 84.0
305.62204 76.0
305.705536 64.0
305.899994 156.0
305.97702 88.0
306.118286 1492.0
306.206848 56.0
306.231232 68.0
306.286957 28.0
306.328766 44.0
306.380737 104.0
306.530853 40.0
306.666748 204.0
306.837555 64.0
306.907288 52.0
306.971222 156.0
307.08902 1096.0
307.128357 488.0
307.319946 52.0
307.392151 100.0
307.465424 48.0
307.737701 28.0
307.849457 60.0
308.101624 344.0
308.132385 412.0
308.335052 56.0
308.434387 112.0
308.911957 148.0
308.974945 44.0
309.083588 152.0
309.10788 244.0
309.146393 144.0
309.309662 184.0
309.482422 52.0
309.506927 164.0
309.787109 176.0
310.011353 120.0
310.083221 188.0
310.239166 116.0
310.323334 112.0
310.909119 76.0
310.968781 172.0
311.10379 120.0
311.110199 180.0
311.60788 132.0
311.720337 140.0
311.906586 76.0
312.108215 448.0
312.138641 84.0
312.208954 60.0
312.314484 56.0
312.518524 172.0
312.754303 132.0
312.90567 80.0
313.089081 420.0
313.125458 368.0
313.204987 116.0
313.426941 244.0
313.814667 188.0
313.945129 32.0
314.091492 828.0
314.128723 172.0
314.453156 92.0
314.672028 124.0
314.792053 244.0
315.100311 1596.0
315.541138 64.0
315.583557 72.0
315.654297 104.0
315.689636 124.0
315.721466 136.0
316.011536 92.0
316.10733 2308.0
316.19342 160.0
316.351715 68.0
316.400848 52.0
316.499969 52.0
316.531433 80.0
316.574341 164.0
316.669952 172.0
316.790405 36.0
316.832916 212.0
317.11676 1344.0
317.245422 40.0
317.460266 40.0
317.598602 64.0
317.649231 44.0
317.733398 56.0
317.76532 108.0
317.804352 52.0
317.896606 104.0
318.013733 120.0
318.042114 128.0
318.12085 2516.0
318.162506 96.0
318.315491 156.0
318.631592 108.0
318.925812 140.0
318.951447 60.0
319.095917 2828.0
319.12738 1500.0
319.314514 132.0
319.365753 144.0
319.520416 96.0
319.730347 212.0
320.000885 124.0
320.101349 676.0
320.175354 136.0
320.360565 152.0
320.421143 68.0
320.688385 80.0
320.895142 84.0
321.052063 104.0
321.11203 652.0
321.146362 2608.0
321.355255 84.0
321.426605 108.0
321.701416 152.0
321.776398 44.0
322.103546 284.0
322.149963 820.0
322.397919 72.0
322.464478 160.0
322.544464 108.0
322.658844 80.0
322.755402 112.0
323.083801 156.0
323.152405 160.0
323.38858 88.0
323.599792 40.0
323.717957 52.0
323.846893 64.0
324.026001 48.0
324.104828 108.0
324.30191 64.0
324.886414 76.0
325.399628 104.0
326.243866 76.0
326.366119 112.0
326.466797 64.0
326.909271 112.0
327.013641 68.0
327.10788 492.0
327.186432 40.0
327.658234 56.0
328.043823 204.0
328.108154 640.0
328.31424 44.0
328.357513 40.0
328.599213 156.0
329.117767 672.0
329.332001 64.0
329.378967 140.0
329.711365 152.0
329.743896 92.0
329.913788 128.0
330.054779 144.0
330.124878 752.0
330.430939 160.0
330.503296 84.0
330.771118 116.0
330.85437 172.0
330.970245 176.0
331.102753 1636.0
331.129761 5012.0
331.330444 140.0
331.452606 76.0
331.480988 60.0
331.687561 104.0
331.767303 100.0
331.792694 44.0
331.850708 40.0
331.934082 168.0
332.092743 828.0
332.135162 1004.0
332.187225 108.0
332.558075 120.0
332.935669 184.0
333.112122 1088.0
333.145081 1092.0
333.186279 80.0
333.415222 44.0
333.509705 164.0
333.535156 68.0
333.646942 108.0
333.822357 80.0
333.953278 36.0
334.011475 76.0
334.120819 2804.0
334.349854 60.0
334.389893 60.0
334.422638 48.0
334.546417 156.0
334.726349 104.0
334.881409 44.0
334.957916 84.0
335.038055 64.0
335.115112 456.0
335.157806 180.0
335.253021 88.0
335.402435 40.0
335.47171 136.0
335.61026 68.0
335.705048 56.0
335.985901 112.0
336.130371 332.0
336.190247 72.0
336.223083 96.0
336.660461 144.0
336.770721 108.0
336.876678 36.0
337.008179 160.0
337.098969 152.0
337.512604 104.0
339.647705 84.0
339.794434 208.0
340.13205 92.0
340.52124 84.0
341.112823 120.0
341.175323 36.0
341.40329 212.0
342.113403 144.0
342.19809 112.0
342.238586 56.0
342.491608 192.0
342.698975 124.0
343.122589 768.0
343.487915 60.0
343.801544 40.0
344.075653 184.0
344.134277 332.0
344.45874 132.0
344.521545 204.0
344.684113 124.0
344.835632 36.0
344.883667 104.0
344.913239 148.0
345.031525 100.0
345.112213 748.0
345.312561 76.0
345.482727 32.0
345.601105 104.0
345.638123 124.0
345.689911 212.0
345.800934 44.0
345.845367 164.0
346.119019 1504.0
346.330414 108.0
346.367432 36.0
346.448944 176.0
346.634186 28.0
346.749084 108.0
346.889923 88.0
347.030792 60.0
347.125916 476.0
347.182831 72.0
347.383118 76.0
347.527802 264.0
347.594604 108.0
347.620575 124.0
347.661407 64.0
347.72821 48.0
347.939789 44.0
348.016052 132.0
348.127869 252.0
348.414215 152.0
348.456024 32.0
348.534027 44.0
348.604645 40.0
348.666382 72.0
348.726532 120.0
348.89212 164.0
348.920593 132.0
348.994385 136.0
349.028412 104.0
349.069122 232.0
349.142303 30524.0
349.232941 116.0
349.277588 60.0
349.311066 84.0
349.366852 64.0
349.484467 72.0
349.530548 252.0
349.565796 60.0
349.579681 80.0
349.620209 44.0
349.662048 60.0
349.731537 60.0
349.772461 112.0
349.810242 160.0
349.851562 72.0
349.867554 52.0
349.884277 120.0
349.917664 52.0
349.980164 76.0
350.012878 56.0
350.081482 132.0
350.145538 6424.0
350.241638 40.0
350.365967 128.0
350.437134 156.0
350.472626 44.0
350.534821 132.0
350.562042 40.0
350.798615 68.0
350.828827 76.0
351.079468 60.0
351.147003 1232.0
351.203308 100.0
351.296539 56.0
351.367432 40.0
351.397278 76.0
351.475647 80.0
351.587585 84.0
351.639832 40.0
351.680878 40.0
351.8974 32.0
351.923553 68.0
351.994476 48.0
352.08783 88.0
352.125183 68.0
352.155182 148.0
352.19989 64.0
352.267395 56.0
352.409241 112.0
352.506256 64.0
352.57724 116.0
352.666565 120.0
352.745453 80.0
352.898712 36.0
353.059509 48.0
353.089417 100.0
353.328827 108.0
353.463531 148.0
353.740479 52.0
354.058746 160.0
354.324677 68.0
354.616974 120.0
354.984375 76.0
355.126862 124.0
355.873657 68.0
356.068909 76.0
357.130402 264.0
357.290558 60.0
358.099274 220.0
358.156372 136.0
358.73291 32.0
359.127472 248.0
359.479675 60.0
359.762756 108.0
359.932648 144.0
360.125244 80.0
360.171509 132.0
360.639099 52.0
360.714722 160.0
360.899963 140.0
361.088226 168.0
361.141388 9540.0
361.24884 32.0
361.448425 60.0
361.550598 80.0
361.58548 144.0
361.902618 40.0
362.003387 136.0
362.061676 160.0
362.141815 1248.0
362.28949 56.0
362.39502 52.0
362.512482 76.0
362.57312 28.0
362.781586 76.0
362.997711 128.0
363.158051 964.0
363.293549 48.0
363.358032 52.0
363.46048 80.0
363.748901 40.0
363.957733 104.0
364.147034 224.0
364.181183 104.0
364.187225 184.0
364.238739 84.0
364.348907 72.0
364.672913 92.0
364.70993 68.0
364.744141 64.0
365.166168 140.0
365.200409 76.0
365.42865 76.0
365.51236 40.0
366.742462 36.0
368.123535 144.0
368.841797 64.0
369.495728 84.0
370.039185 60.0
370.092804 128.0
371.088989 92.0
371.115814 120.0
371.407288 84.0
372.1633 112.0
372.539673 76.0
373.02771 52.0
373.114288 176.0
373.289154 116.0
374.07016 104.0
374.136383 288.0
374.17868 156.0
375.13092 284.0
375.162689 252.0
376.039825 176.0
376.136322 132.0
377.175385 100.0
377.894684 116.0
378.09201 64.0
378.393951 60.0
378.50235 76.0
379.034973 72.0
380.49527 76.0
383.096985 100.0
383.552917 104.0
384.055908 72.0
384.208038 60.0
385.316803 88.0
388.162323 64.0
389.14917 372.0
389.610626 88.0
389.976044 116.0
390.167969 508.0
390.278748 68.0
390.542236 48.0
390.734985 80.0
391.136383 264.0
391.172333 344.0
391.222992 52.0
391.864929 68.0
392.185028 1824.0
392.365479 160.0
393.184601 184.0
393.485931 32.0
394.18866 100.0
395.197296 132.0
395.810822 100.0
395.893951 60.0
396.135559 60.0
396.468384 88.0
397.999573 68.0
398.154449 120.0
399.330872 64.0
399.362671 108.0
399.533722 60.0
400.078949 52.0
400.158569 132.0
400.859589 80.0
400.999084 80.0
401.274139 60.0
401.648987 204.0
401.956177 88.0
402.004059 56.0
402.115814 128.0
402.395233 108.0
403.034302 68.0
403.581879 28.0
404.371643 76.0
406.277283 104.0
406.803009 84.0
408.760315 108.0
410.016754 152.0
410.218292 76.0
412.660767 80.0
412.826538 116.0
415.082092 124.0
415.268616 64.0
415.76358 108.0
418.149231 32.0
422.777222 44.0
425.1008 84.0
426.180725 120.0
428.085236 72.0
429.123596 160.0
435.151794 140.0
435.537994 40.0
436.922272 80.0
436.976349 44.0
439.588898 84.0
439.70993 84.0
440.169128 92.0
444.182739 76.0
444.233063 60.0
446.009308 124.0
447.119659 152.0
447.431152 60.0
447.616425 96.0
448.555939 60.0
448.838409 72.0
448.880554 84.0
448.969116 80.0
450.754791 56.0
451.532623 84.0
451.684906 92.0
452.353485 40.0
453.043732 84.0
453.514099 56.0
454.133118 128.0
454.565857 128.0
455.134644 32.0
455.62735 68.0
455.695312 52.0
456.919006 112.0
459.578369 108.0
459.881348 48.0
462.561401 56.0
465.184845 88.0
467.415436 36.0
468.147217 208.0
470.178284 120.0
471.477631 48.0
473.887878 84.0
475.570435 96.0
481.146698 104.0
482.527283 132.0
483.625275 64.0
485.04007 40.0
487.349121 132.0
491.818359 80.0
492.997559 40.0
493.258331 96.0
493.846436 80.0
497.888428 112.0
498.168243 80.0
501.394104 108.0
502.000397 52.0
504.000183 152.0
504.272766 48.0
504.742188 64.0
505.757721 48.0
507.657318 52.0
510.41449 228.0
510.468445 100.0
510.688812 76.0
513.625549 32.0
515.191956 48.0
516.733643 52.0
517.222351 148.0
517.706177 140.0
529.882446 56.0
530.64325 104.0
532.285889 76.0
532.442017 100.0
534.138 64.0
535.099792 108.0
538.184326 116.0
541.402771 72.0
545.834412 44.0
546.843933 84.0
547.356018 60.0
547.57489 92.0
548.343628 104.0
550.288879 116.0
553.753967 156.0
553.804016 64.0
554.972351 92.0
555.356873 52.0
556.788391 48.0
557.948975 76.0
558.823792 196.0
559.266113 68.0
561.30603 56.0
563.212708 68.0
567.282166 72.0
567.983948 32.0
568.017151 132.0
570.25354 44.0
571.832581 76.0
574.515259 60.0
576.859985 40.0
578.903015 60.0
579.209534 120.0
582.365662 52.0
582.985413 108.0
583.076721 36.0
583.82666 40.0
584.774475 172.0
584.885132 40.0
587.188232 76.0
587.771973 48.0
591.159363 124.0
592.553833 48.0
593.222656 68.0
597.85144 136.0
599.794739 108.0
605.638672 52.0
607.75647 80.0
608.296326 68.0
610.251587 100.0
614.17157 156.0
617.391785 232.0
618.401001 32.0
623.354736 140.0
629.137146 92.0
629.164429 108.0
633.538818 96.0
636.990112 192.0
643.239258 156.0
644.047119 92.0
646.266418 120.0
649.179016 112.0
650.154297 84.0
650.264709 96.0
653.460999 44.0
666.144775 60.0
667.491333 120.0
681.972107 88.0
684.750427 52.0
685.234924 64.0
688.897217 100.0
689.550354 52.0
690.10968 156.0
693.764038 64.0
694.865356 40.0
698.900513 68.0
699.079407 148.0
699.637329 84.0
699.921631 36.0
702.435608 140.0
702.472473 56.0
708.030273 40.0
711.452942 84.0
715.067444 64.0
719.171448 192.0
725.199341 164.0
727.226807 84.0
728.596069 104.0
734.77655 112.0
749.82959 160.0
751.460022 72.0
752.049377 84.0
755.546631 76.0
771.766113 28.0
776.218018 88.0
779.665344 72.0
780.788391 44.0
781.761902 80.0
784.864624 84.0
787.94635 140.0
792.94812 128.0
795.758484 92.0
796.011169 172.0
796.909851 60.0
797.966492 220.0
798.168945 156.0
798.517578 52.0
800.560486 72.0
801.394165 184.0
804.846069 84.0
812.549255 40.0
822.485229 108.0
823.444397 112.0
825.010071 60.0
834.912415 132.0
838.983276 56.0
841.596863 92.0
850.610901 248.0
851.394714 68.0
853.062256 116.0
855.10968 216.0
861.442017 108.0
861.628967 108.0
865.981079 48.0
867.340393 40.0
867.803528 72.0
869.088013 44.0
869.809875 96.0
877.033081 204.0
877.95282 96.0
878.861206 236.0
884.505127 164.0
884.570251 116.0
886.086304 160.0
886.465515 80.0
887.502808 72.0
892.216919 120.0
894.721558 224.0
894.91803 144.0
895.954346 176.0
898.034668 160.0
903.775635 168.0
911.312439 144.0
918.699524 124.0
920.661194 68.0
921.138306 216.0
921.700195 36.0
921.827087 76.0
922.975586 112.0
926.631409 80.0
927.267639 184.0
938.623596 132.0
939.331055 204.0
942.432373 48.0
954.53833 144.0
956.35321 176.0
963.750366 20.0
963.920288 76.0
964.451782 172.0
966.604004 232.0
966.659668 92.0
969.626038 252.0
973.888489 176.0
975.821106 80.0
975.864624 116.0
980.178101 196.0
981.549438 92.0
985.969177 184.0
987.632263 228.0
990.712036 200.0
990.950134 60.0
995.215149 88.0
995.598145 100.0
997.608765 168.0
997.89801 48.0
1003.728516 140.0
1003.811401 136.0
1006.031372 60.0
1009.044861 124.0
1009.557007 56.0
1014.787292 204.0
1016.461853 40.0
1017.947205 64.0
1019.573486 36.0
1019.700623 48.0
1022.893616 200.0
1023.765869 144.0
1028.005127 128.0
1029.026367 72.0
1030.016235 124.0
1030.278198 100.0
1030.514526 208.0
1031.032104 184.0
1037.657227 52.0
1040.082153 96.0
1040.679199 220.0
1044.393555 348.0
1051.900391 68.0
1052.093994 132.0
1052.4104 92.0
1059.375732 60.0
1061.514648 184.0
1062.351318 128.0
1066.032715 104.0
1066.715088 36.0
1069.06311 32.0
1070.983643 168.0
1072.234619 180.0
1074.73877 204.0
1076.664429 144.0
1079.735962 176.0
1080.00415 140.0
1082.137573 156.0
1084.797363 152.0
1086.476196 120.0
1094.020508 52.0
1094.96875 248.0
1095.298096 164.0
1095.423218 148.0
1096.022705 108.0
1104.843506 184.0
1107.762939 176.0
1110.447388 148.0
1111.143921 88.0
1112.809814 80.0
1114.902222 232.0
1116.284912 188.0
1116.400635 160.0
1117.349121 52.0
1117.415649 208.0
1119.132812 52.0
1119.718872 256.0
1120.911255 152.0
1121.144531 36.0
1121.204468 244.0
1123.998657 144.0
1124.052002 124.0
1125.513794 124.0
1128.540649 172.0
1129.135742 48.0
1129.322998 184.0
1129.42334 100.0
1129.811401 140.0
1130.80835 216.0
1132.087036 216.0
1132.549194 112.0
1133.72168 156.0
1134.110352 68.0
1134.391968 184.0
1134.472412 68.0
1136.088501 128.0
1137.403809 152.0
1137.732666 128.0
1138.007935 184.0
1139.291382 192.0
1140.688477 176.0
1142.342773 124.0
1142.672363 104.0
1145.641357 156.0
1147.224976 220.0
1148.148682 160.0
1150.206543 184.0
1152.401367 104.0
1152.84729 196.0
1154.51709 48.0
1156.587402 108.0
1160.699707 172.0
1161.466064 168.0
1162.10376 96.0
1163.209961 176.0
1165.532593 88.0
1166.232666 156.0
1166.755981 184.0
1171.465332 144.0
1172.684937 80.0
1173.448486 180.0
1175.098999 36.0
1179.524292 76.0
1179.647339 148.0
1179.797729 176.0
1183.245728 172.0
1183.38269 168.0
1183.649658 184.0
1184.190674 196.0
1185.040161 88.0
1186.55481 184.0
1187.89209 128.0
1189.662598 188.0
1189.86853 44.0
1190.163696 212.0
1192.361938 76.0
1192.636841 96.0
1193.79187 172.0
1194.018799 40.0
1195.284668 176.0
1198.693115 64.0
1198.782715 200.0
1198.913696 152.0
1199.789062 128.0
1199.844238 72.0
1200.278564 148.0
1200.354492 84.0
1200.499268 148.0
1200.582031 120.0
1202.003052 152.0
1202.707031 284.0
1202.900269 204.0
1203.514771 148.0
1208.110718 128.0
1209.120972 176.0
1209.335449 152.0
1209.923828 80.0
1211.773071 80.0
1211.911621 60.0
1214.109009 240.0
1216.134888 88.0
1218.37085 108.0
1218.746094 164.0
1219.593872 192.0
1220.066528 176.0
1220.754883 124.0
1221.645142 120.0
1221.972168 92.0
1222.800293 168.0
1224.526855 192.0
1225.000488 76.0
1227.774536 132.0
1229.190674 200.0
1230.691406 192.0
1232.605347 168.0
1232.905762 164.0
1233.094482 180.0
1234.709473 224.0
1235.003174 344.0
1235.059204 176.0
1235.499878 128.0
1235.856689 148.0
1237.234741 164.0
1237.36145 76.0
1238.264771 132.0
1239.427734 236.0
1242.435547 240.0
1246.022949 176.0
1248.4198 160.0
1251.917358 120.0
1252.480835 192.0
1254.08728 212.0
1254.510254 200.0
1256.386108 136.0
1256.470703 140.0
1259.145996 104.0
1260.650757 124.0
1261.343384 196.0
1261.498901 176.0
1262.573608 144.0
1263.698364 132.0
1263.776123 176.0
1263.981323 172.0
1264.052124 164.0
1264.908447 148.0
1265.304932 200.0
1266.813354 112.0
1266.877075 152.0
1267.411987 208.0
1268.407715 192.0
1270.116699 140.0
1270.435913 128.0
1271.592407 64.0
1273.175659 40.0
1273.905518 84.0
1274.340576 116.0
1275.712158 192.0
1277.191284 148.0
1278.393677 152.0
1279.390137 148.0
1279.870483 156.0
1281.761841 108.0
1282.446045 140.0
1283.108887 116.0
1285.077393 180.0
1286.262085 172.0
1287.568604 136.0
1289.990845 168.0
1290.319702 148.0
1290.913208 176.0
1291.244629 232.0
1291.428101 76.0
1291.685547 184.0
1292.601318 164.0
1292.723022 200.0
1292.909058 120.0
1293.295532 128.0
1294.734619 144.0
1294.820557 188.0
1295.615601 100.0
1296.052734 172.0
1296.188843 48.0
1296.783691 168.0
1297.400146 160.0
1298.776978 120.0
1299.637817 100.0
1299.845825 104.0
1300.190308 156.0
1303.134399 64.0
1305.053467 236.0
1305.204468 124.0
1305.528076 48.0
1306.038696 164.0
1308.291016 160.0
1309.817627 188.0
1311.04248 88.0
1311.244263 136.0
1312.621216 176.0
1314.02771 180.0
1315.488892 192.0
1316.207397 192.0
1316.279663 180.0
1316.445801 76.0
1317.095703 180.0
1317.391968 136.0
1317.586914 176.0
1317.810913 140.0
1318.331177 196.0
1318.873291 128.0
1318.945557 104.0
1319.820312 232.0
1320.434937 148.0
1321.339111 224.0
1322.06543 192.0
1324.097046 148.0
1325.002441 100.0
1325.553223 188.0
1326.125732 120.0
1326.778076 180.0
1328.772461 72.0
1329.998901 112.0
1330.97168 164.0
1332.271729 188.0
1333.092773 140.0
1333.405273 204.0
1334.699219 168.0
1335.397339 164.0
1336.13208 228.0
1336.677734 160.0
1336.750488 144.0
1336.888794 196.0
1337.507446 208.0
1337.5802 88.0
1338.198975 108.0
1338.561768 260.0
1338.861694 176.0
1339.808594 256.0
1340.486206 208.0
1341.258667 32.0
1341.38269 100.0
1341.531738 132.0
1341.907471 152.0
1342.425293 152.0
1342.585693 120.0
1344.891113 120.0
1346.606934 136.0
1349.040161 160.0
1349.369141 152.0
1349.990723 152.0
1351.146362 148.0
1351.468262 200.0
1351.636597 216.0
1352.009766 132.0
1352.426392 192.0
1352.551392 212.0
1352.675781 100.0
1353.875488 140.0
1353.956421 216.0
1354.462524 172.0
1354.674927 112.0
1354.968018 188.0
1356.30896 212.0
1356.381958 144.0
1356.587524 152.0
1356.64624 60.0
1356.866089 252.0
1357.225464 140.0
1358.347534 244.0
1358.45752 164.0
1359.572754 152.0
1360.223633 132.0
1361.173096 44.0
1361.775269 184.0
1363.259277 156.0
1364.281006 176.0
1364.964722 160.0
1365.994385 180.0
1366.928711 136.0
1368.143188 108.0
1370.046509 244.0
1372.593384 260.0
1372.681885 228.0
1372.939941 164.0
1372.998901 128.0
1373.345581 100.0
1373.426758 180.0
1374.260376 160.0
1374.452148 144.0
1375.463257 204.0
1377.604736 116.0
1378.387817 188.0
1379.807007 128.0
1380.043579 160.0
1380.191406 140.0
1380.420654 172.0
1381.633667 84.0
1381.929688 200.0
1382.699219 152.0
1383.283936 148.0
1383.417236 144.0
1383.513428 196.0
1383.846558 240.0
1384.446411 156.0
1386.639282 48.0
1390.28064 144.0
1391.141602 160.0
1391.743042 68.0
1392.047485 136.0
1393.696533 156.0
1394.454468 192.0
1395.138306 44.0
1395.346436 160.0
1396.603271 40.0
1397.860474 208.0
1398.087891 140.0
1399.103516 160.0
1399.319458 172.0
1399.379028 156.0
1399.602295 156.0
1401.166382 160.0
1402.083008 236.0
1402.470459 208.0
1403.715576 148.0
1404.230103 176.0
1404.700073 144.0
1405.56543 148.0
1406.446045 40.0
1406.625244 124.0
1407.834717 128.0
1408.051392 192.0
1411.010376 144.0
1411.324463 152.0
1411.601074 208.0
1412.199341 172.0
1412.693115 156.0
1412.857666 156.0
1413.239258 140.0
1413.575928 176.0
1414.504028 208.0
1414.84082 136.0
1416.031372 144.0
1416.218628 172.0
1416.503296 172.0
1417.574707 212.0
1418.713989 168.0
1420.281128 72.0
1420.60376 356.0
1421.038818 136.0
1421.233887 128.0
1421.376465 188.0
1421.556641 140.0
1421.699219 184.0
1421.954346 216.0
1422.24707 160.0
1422.862671 128.0
1427.272949 144.0
1428.965332 108.0
1430.714111 152.0
1432.096924 236.0
1432.639282 120.0
1432.94812 96.0
1434.385864 184.0
1434.869995 236.0
1435.246948 184.0
1435.314819 164.0
1436.50647 60.0
1437.472168 160.0
1438.536377 104.0
1438.808105 184.0
1439.812378 168.0
1440.869873 184.0
1441.436523 204.0
1442.071411 128.0
1442.706299 72.0
1443.061646 152.0
1443.288452 68.0
1443.454834 156.0
1443.757324 164.0
1447.488037 224.0
1447.601685 144.0
1447.798584 140.0
1448.381714 116.0
1448.518066 48.0
1448.646851 116.0
1449.866699 56.0
1451.390381 152.0
1451.898438 116.0
1452.270142 180.0
1452.399048 176.0
1452.565918 80.0
1453.089355 136.0
1453.18042 152.0
1453.286621 140.0
1453.612915 124.0
1454.667847 128.0
1455.130981 232.0
1455.913086 140.0
1457.204346 204.0
1459.218506 168.0
1459.324951 168.0
1459.705078 172.0
1459.803955 112.0
1461.043701 156.0
1461.720947 132.0
1461.987183 204.0
1462.93103 196.0
1463.456299 152.0
1463.669556 184.0
1463.913208 176.0
1465.269043 196.0
1465.68042 184.0
1465.99292 164.0
1466.358643 164.0
1466.747437 176.0
1469.72937 88.0
1470.255859 204.0
1470.811279 180.0
1472.676025 152.0
1473.134399 192.0
1473.792725 160.0
1473.867798 156.0
1474.509766 120.0
1474.563232 148.0
1475.121216 152.0
1476.053955 40.0
1476.283325 196.0
1476.474487 176.0
1477.652588 152.0
1478.104004 148.0
1478.700928 232.0
1478.907471 100.0
1478.96875 84.0
1479.389771 152.0
1479.647583 196.0
1480.164429 204.0
1480.667725 156.0
1481.089722 144.0
1481.901733 212.0
1482.65271 192.0
1482.890259 208.0
1483.67981 192.0
1486.003662 120.0
1486.172485 180.0
1486.318237 60.0
1487.177734 164.0
1487.262207 112.0
1487.891602 120.0
1488.214111 168.0
1488.713257 268.0
1488.859131 192.0
1489.535034 160.0
1489.588745 76.0
1489.665649 196.0
1490.549194 208.0
1490.67981 268.0
1490.764282 176.0
1491.848877 172.0
1492.178589 160.0
1492.870605 156.0
1493.908936 144.0
1494.462891 48.0
1495.440186 136.0
1497.157104 224.0
1497.680786 152.0
1498.497437 168.0
1498.998169 136.0
1499.918457 200.0
1500.578369 196.0
1500.794189 100.0
1501.318604 48.0
1502.421509 168.0
1504.034302 128.0
