>compound MLS001401400-01!
>formula C16H23N3O4
>ionization [M+H]+
>parentmass 322.17613266809053
#inchi InChI=1S/C16H23N3O4/c1-2-22-15(21)12-7-9-13(10-8-12)23-14(20)6-4-3-5-11-19-16(17)18/h7-10H,2-6,11H2,1H3,(H4,17,18,19)
#inchikey YKGYIDJEEQRWQH
#origInchi InChI=1S/C16H23N3O4.CH4O3S/c1-2-22-15(21)12-7-9-13(10-8-12)23-14(20)6-4-3-5-11-19-16(17)18;1-5(2,3)4/h7-10H,2-6,11H2,1H3,(H4,17,18,19);1H3,(H,2,3,4)
#Ion_Source LC-ESI
#Instrument qTof
#Compound_Source NIH Pharmacologically Active Library
#PI Dorrestein
#Data_Collector VP/LMS
#Scan -1
#Precursor_MZ 322.176
#ExactMass 321.169
#Charge 1
#CAS_Number N/A
#Pubmed_ID N/A
#Smiles CCOC(=O)c1ccc(OC(=O)CCCCCN=C(N)N)cc1.CS(=O)(=O)O
#INCHI_AUX N/A
#Library_Class 1
#SpectrumID CCMSLIB00000085061
#IonMode Positive
#UpdateWorkflowName UPDATE-SINGLE-ANNOTATED-GOLD
#LibraryQualityString Gold
#TaskID d252d724072548979f1f6f1ced849daf
##Scan# 1707
#SpectrumFile p3-E04_GE4_01_18273.mzXML
#LibraryName Pharm_Active_Library.mgf
#MQScore -1
#Organism Pharm_Active_Library
#TIC_Query 0
#RT_Query -1
#MZErrorPPM -1
#SharedPeaks 0
#MassDiff 0
#LibMZ -1
#SpecMZ 322.176
#SpecCharge 0
#internalFilename spec-00000.mgf

>collision 10
45.794132 232.0
45.870941 144.0
45.939716 144.0
46.747295 148.0
46.811279 136.0
47.082676 80.0
47.125023 152.0
47.197468 188.0
47.286396 80.0
47.601723 168.0
47.636063 192.0
47.671787 228.0
48.816486 180.0
49.459698 92.0
49.650257 120.0
49.667088 208.0
50.592972 144.0
51.07832 84.0
51.179371 132.0
51.347534 120.0
51.370358 144.0
51.974144 144.0
52.232929 200.0
53.276531 168.0
53.509239 144.0
53.595177 224.0
53.888466 204.0
53.977631 212.0
54.675953 212.0
54.715698 136.0
55.512154 256.0
57.331619 200.0
57.402473 168.0
58.531448 100.0
58.844036 184.0
59.009052 180.0
59.096233 188.0
59.352039 148.0
59.464031 228.0
59.966991 196.0
60.594406 196.0
60.886044 188.0
61.179932 144.0
62.050171 104.0
63.203167 60.0
64.125877 156.0
64.680145 48.0
65.058479 120.0
65.217514 92.0
65.597412 160.0
66.104576 172.0
66.261642 164.0
66.530876 144.0
66.882011 116.0
67.054665 60.0
67.42189 68.0
68.748901 52.0
69.329391 184.0
69.395699 124.0
69.993889 184.0
70.43615 120.0
70.822273 200.0
70.850754 164.0
71.362663 132.0
71.502289 152.0
71.522484 172.0
71.82074 52.0
72.202461 180.0
72.237984 100.0
72.50383 208.0
72.520775 180.0
72.846581 188.0
73.055687 72.0
73.570366 200.0
74.299438 148.0
78.1623 196.0
78.241508 192.0
78.326035 56.0
78.926109 192.0
78.942024 168.0
79.342194 192.0
79.665199 204.0
80.348846 136.0
80.393456 192.0
80.572014 148.0
80.702492 184.0
80.929733 144.0
81.047958 212.0
82.404663 200.0
82.808083 180.0
83.196136 228.0
83.450493 88.0
83.933029 92.0
83.967674 124.0
84.270714 128.0
84.583443 188.0
84.621895 216.0
85.047211 148.0
85.256592 108.0
85.851234 212.0
86.129936 168.0
86.753571 136.0
87.34597 228.0
87.358986 236.0
87.502296 116.0
88.020653 140.0
88.211227 92.0
89.351479 200.0
89.81868 80.0
90.612694 76.0
91.033798 100.0
91.132202 164.0
91.497757 196.0
91.730179 60.0
92.561295 180.0
92.988815 180.0
93.02697 192.0
93.054085 152.0
93.448105 232.0
93.484665 96.0
93.573212 220.0
93.792831 60.0
93.989555 248.0
94.064438 392.0
94.188408 72.0
94.246368 112.0
94.314011 164.0
94.627411 184.0
94.646774 164.0
94.832756 176.0
95.001465 84.0
95.047592 1860.0
95.380142 180.0
95.518204 48.0
95.915451 172.0
96.054398 256.0
96.080185 4404.0
96.14756 48.0
96.329147 60.0
97.03566 52.0
97.062881 352.0
97.080887 420.0
97.100372 140.0
97.233788 44.0
97.27697 92.0
97.650314 200.0
97.746712 152.0
97.821503 172.0
98.070297 160.0
98.136734 244.0
98.302429 236.0
98.517647 88.0
98.626335 52.0
99.18058 168.0
99.935249 176.0
99.990967 224.0
100.085052 204.0
100.134323 264.0
100.564995 196.0
100.702766 136.0
100.794662 52.0
102.135941 56.0
103.017075 428.0
103.057274 156.0
103.285728 136.0
103.824493 96.0
103.846809 252.0
103.879265 208.0
104.019287 160.0
104.047707 204.0
104.10862 180.0
104.757477 116.0
105.030632 44.0
106.709953 172.0
107.045189 348.0
107.089386 180.0
107.189552 32.0
107.635124 148.0
107.777657 116.0
107.794182 80.0
107.97818 180.0
108.106453 128.0
108.74894 144.0
108.821602 172.0
109.03141 188.0
109.070412 188.0
110.05838 192.0
110.080109 244.0
110.901527 48.0
111.062988 188.0
111.089699 736.0
111.1129 184.0
111.128021 44.0
111.27494 256.0
111.89518 200.0
111.981522 144.0
112.075615 560.0
112.401054 28.0
113.073097 188.0
113.109077 232.0
113.908531 140.0
113.923401 152.0
113.95314 140.0
114.07003 176.0
114.090675 7232.0
114.223137 148.0
114.252922 76.0
114.308243 136.0
114.325272 72.0
114.41893 148.0
114.438087 88.0
114.561615 72.0
114.753433 96.0
115.094246 716.0
115.304184 104.0
115.824127 44.0
115.862686 80.0
116.988037 140.0
117.4039 120.0
117.757851 160.0
118.066917 184.0
118.549698 180.0
119.496445 88.0
119.624847 208.0
120.573692 112.0
121.027954 11532.0
121.058823 160.0
121.073006 324.0
121.517502 72.0
121.607475 32.0
121.677727 124.0
121.739204 68.0
121.772148 104.0
121.787529 76.0
121.873207 40.0
121.976501 184.0
122.031357 896.0
122.061401 332.0
122.121628 56.0
122.350487 72.0
122.484818 88.0
122.612617 76.0
122.833107 36.0
123.011856 100.0
123.032539 216.0
123.080635 264.0
123.170853 80.0
123.19957 112.0
124.122536 120.0
125.011108 120.0
126.32531 220.0
127.682358 152.0
129.121292 100.0
129.660126 184.0
131.703354 52.0
133.024628 148.0
136.816071 88.0
137.104919 164.0
137.704529 28.0
138.710678 200.0
138.907669 180.0
138.966309 148.0
139.005066 148.0
139.038254 4716.0
139.085114 1764.0
139.34433 76.0
139.558212 68.0
139.765213 76.0
139.84993 144.0
140.038788 356.0
140.086426 400.0
140.472015 48.0
140.717468 36.0
141.015121 56.0
143.426712 196.0
144.14032 84.0
145.412003 68.0
145.431198 148.0
146.036697 144.0
147.063141 184.0
147.082443 56.0
148.541611 84.0
149.022034 208.0
149.066055 152.0
149.097641 148.0
149.119522 196.0
150.286011 120.0
151.038177 164.0
151.128998 60.0
152.043045 144.0
152.114227 108.0
152.657227 188.0
152.765457 112.0
153.036514 116.0
155.508316 68.0
156.032471 148.0
156.111496 1504.0
156.328476 100.0
156.647171 128.0
157.036026 108.0
157.11087 132.0
157.577744 36.0
160.020676 84.0
160.073563 176.0
161.115265 52.0
161.889282 116.0
167.068558 832.0
167.349136 52.0
167.547256 32.0
168.071594 312.0
168.488937 152.0
169.006042 180.0
169.081085 72.0
170.67131 164.0
170.902817 172.0
171.551331 84.0
174.123505 152.0
175.038696 120.0
175.109802 100.0
176.310242 44.0
176.519089 184.0
177.067856 112.0
178.018997 116.0
178.19165 148.0
178.276688 172.0
179.066772 440.0
180.072372 136.0
181.268234 176.0
181.600677 104.0
183.960587 204.0
184.076675 188.0
184.141495 152.0
184.500885 72.0
184.690186 140.0
185.014923 140.0
185.426666 180.0
185.548645 88.0
189.994202 40.0
190.046341 132.0
191.105148 220.0
193.082092 180.0
193.347702 132.0
194.90065 52.0
194.984024 148.0
197.526962 136.0
198.268951 44.0
199.017944 108.0
203.005249 156.0
211.564346 64.0
215.058472 104.0
216.420807 224.0
217.367615 200.0
218.969833 124.0
219.627121 132.0
219.90152 164.0
220.140671 72.0
221.117813 368.0
221.468613 124.0
221.904251 200.0
222.515442 56.0
224.130539 208.0
226.958252 116.0
227.126205 168.0
229.233795 216.0
229.821945 176.0
232.572769 104.0
234.111206 124.0
235.097153 244.0
235.969513 144.0
239.113815 180.0
239.991776 196.0
240.673691 120.0
241.143265 164.0
242.309891 124.0
242.700439 184.0
249.994675 180.0
250.895538 128.0
251.012192 140.0
251.223511 44.0
251.466492 192.0
252.10878 164.0
253.756805 132.0
258.813477 188.0
259.102539 240.0
262.744385 116.0
263.134918 336.0
264.133484 128.0
265.137207 104.0
269.171173 120.0
269.344269 232.0
269.403076 80.0
271.720978 192.0
276.131866 64.0
277.116821 600.0
277.274109 184.0
277.356964 132.0
280.15152 192.0
280.188324 136.0
280.965118 60.0
281.05188 188.0
286.891205 148.0
290.075684 188.0
292.385406 88.0
292.501129 96.0
293.103943 84.0
293.970093 32.0
294.031525 96.0
294.143585 3392.0
294.277313 80.0
294.799957 48.0
295.028961 80.0
295.140747 360.0
295.480408 36.0
295.572784 68.0
296.137665 120.0
296.857391 76.0
297.111877 100.0
298.120697 84.0
298.729279 36.0
299.68985 208.0
301.798828 100.0
304.147705 40.0
304.34906 200.0
305.141266 144.0
306.146881 108.0
310.498016 164.0
313.186798 56.0
316.577393 120.0
318.716431 44.0
319.573364 56.0
320.235504 88.0
320.627411 96.0
322.126038 124.0
322.17392 6512.0
322.454773 36.0
322.558411 52.0
322.66925 116.0
322.903625 96.0
323.062653 44.0
323.17688 1200.0
323.227234 120.0
323.305969 72.0
323.406158 64.0
323.595917 84.0
323.638855 64.0
323.75705 116.0
324.04718 60.0
324.182098 380.0
324.584839 68.0
324.882538 40.0
325.180389 104.0
325.298828 96.0
325.327545 88.0
325.902191 104.0
325.988434 76.0
326.074707 120.0
332.38382 20.0
334.688385 112.0
337.834503 56.0
339.449768 120.0
340.341431 48.0
343.093536 128.0
400.538696 92.0
405.393127 72.0
557.730042 60.0
603.845764 100.0
649.092529 112.0
729.24292 92.0
739.258179 112.0
772.931091 132.0
799.489441 80.0
809.560974 160.0
840.072998 144.0
865.395935 260.0
874.042114 160.0
878.779541 104.0
918.587036 188.0
935.342468 144.0
940.719055 172.0
944.795288 208.0
956.362671 180.0
966.471497 248.0
975.688293 44.0
985.061218 144.0
1001.993713 176.0
1003.550537 160.0
1015.756531 200.0
1016.07373 152.0
1018.359009 208.0
1023.599487 180.0
1024.338257 64.0
1028.815063 220.0
1038.317383 196.0
1054.559082 184.0
1063.461304 132.0
1064.324707 160.0
1065.526367 244.0
1067.144775 268.0
1079.645386 116.0
1088.400391 132.0
1098.720947 108.0
1100.661377 192.0
1106.499878 176.0
1109.056885 160.0
1128.215576 208.0
1129.860718 72.0
1136.883057 152.0
1139.784058 140.0
1144.842896 152.0
1154.750488 160.0
1155.771973 32.0
1155.981812 280.0
1162.236328 128.0
1167.331055 196.0
1172.307373 140.0
1185.633911 160.0
1186.182251 168.0
1186.374146 128.0
1187.505615 148.0
1190.436157 208.0
1190.491089 68.0
1201.594116 176.0
1202.125366 180.0
1203.505981 188.0
1203.837402 136.0
1227.104126 176.0
1232.443726 120.0
1242.715576 204.0
1246.872803 68.0
1250.262695 88.0
1250.994751 244.0
1260.184448 192.0
1265.333496 128.0
1268.471802 176.0
1273.644897 188.0
1274.902466 156.0
1278.657593 176.0
1280.024414 176.0
1283.380615 144.0
1286.091675 152.0
1288.348145 112.0
1293.010376 208.0
1293.33252 180.0
1294.055542 204.0
1298.771118 116.0
1301.110474 184.0
1303.279663 220.0
1304.925537 48.0
1307.371338 192.0
1309.22876 152.0
1315.299683 140.0
1316.0 160.0
1316.628174 88.0
1317.718994 188.0
1320.292358 140.0
1326.555664 152.0
1327.200928 192.0
1328.506348 172.0
1331.533325 212.0
1334.723633 240.0
1337.21167 168.0
1338.500244 192.0
1340.649292 104.0
1341.866577 188.0
1342.493652 156.0
1352.620483 152.0
1353.367188 156.0
1355.103149 172.0
1362.366455 204.0
1365.409546 180.0
1368.286743 160.0
1370.791138 216.0
1373.784668 156.0
1377.195068 148.0
1377.697388 112.0
1380.557983 160.0
1381.24585 80.0
1381.822876 168.0
1382.222412 188.0
1387.088379 124.0
1387.466431 176.0
1389.157349 116.0
1390.351929 236.0
1393.797729 208.0
1394.473999 176.0
1397.374268 148.0
1401.57373 64.0
1411.322144 48.0
1412.818115 160.0
1418.831909 184.0
1422.177612 136.0
1423.243774 168.0
1424.610718 64.0
1427.737549 108.0
1428.655273 132.0
1430.077515 184.0
1431.530518 264.0
1436.723877 252.0
1438.852173 240.0
1439.471313 172.0
1440.173706 204.0
1441.16333 192.0
1442.629517 208.0
1448.714111 160.0
1453.361694 184.0
1454.302734 192.0
1456.383301 164.0
1457.067017 156.0
1457.211304 196.0
1457.431641 160.0
1458.396851 172.0
1460.693237 96.0
1462.374878 36.0
1463.958496 152.0
1465.695312 116.0
1468.127197 188.0
1470.217529 168.0
1475.618164 160.0
1483.342773 124.0
1484.048096 164.0
1484.930054 60.0
1487.139771 132.0
1491.371948 44.0
1492.079224 232.0
1493.425049 180.0
1494.348145 184.0
1499.839111 200.0
1500.802734 220.0
