>compound MLS002172447-01!p-Fluorohexahydro-sila-difenidol hydrochloride
>formula C20H32FNOSi
>ionization [M+H]+
>parentmass 350.229034
#inchi InChI=1S/C20H32FNOSi/c21-18-10-12-20(13-11-18)24(23,19-8-3-1-4-9-19)17-7-16-22-14-5-2-6-15-22/h10-13,19,23H,1-9,14-17H2
#inchikey ZNSZQJHTFRQUPD
#origInchi InChI=1S/C20H32FNOSi.ClH/c21-18-10-12-20(13-11-18)24(23,19-8-3-1-4-9-19)17-7-16-22-14-5-2-6-15-22;/h10-13,19,23H,1-9,14-17H2;1H
#Ion_Source LC-ESI
#Instrument qTof
#Compound_Source NIH Pharmacologically Active Library
#PI Dorrestein
#Data_Collector VP/LMS
#Scan -1
#Precursor_MZ 350.235
#ExactMass 349.224
#Charge 1
#CAS_Number N/A
#Pubmed_ID N/A
#Smiles O[Si](CCCN1CCCCC1)(C2CCCCC2)c3ccc(F)cc3.Cl
#INCHI_AUX N/A
#Library_Class 1
#SpectrumID CCMSLIB00000085701
#IonMode Positive
#UpdateWorkflowName UPDATE-SINGLE-ANNOTATED-GOLD
#LibraryQualityString Gold
#TaskID d252d724072548979f1f6f1ced849daf
##Scan# 1847
#SpectrumFile p4-E05_GE5_01_18377.mzXML
#LibraryName Pharm_Active_Library.mgf
#MQScore -1
#Organism Pharm_Active_Library
#TIC_Query 0
#RT_Query -1
#MZErrorPPM -1
#SharedPeaks 0
#MassDiff 0
#LibMZ -1
#SpecMZ 350.235
#SpecCharge 0
#internalFilename spec-00000.mgf

>collision 10
44.952862 172.0
45.013618 128.0
45.088428 68.0
45.198086 124.0
45.208794 228.0
45.250778 208.0
45.318199 236.0
45.336018 100.0
45.443291 52.0
45.513714 188.0
45.616539 132.0
45.684704 204.0
45.788773 180.0
45.841637 232.0
45.875008 108.0
45.885792 128.0
45.931644 180.0
46.001263 176.0
46.026119 148.0
46.038666 192.0
46.053589 152.0
46.095009 140.0
46.1315 176.0
46.296574 76.0
46.461945 188.0
46.517586 124.0
46.614017 144.0
46.641197 148.0
46.667027 184.0
46.691505 184.0
46.807178 192.0
46.85894 228.0
46.914818 248.0
46.954361 152.0
47.053974 124.0
47.075821 136.0
47.111336 216.0
47.136551 132.0
47.189236 144.0
47.40551 176.0
47.435497 164.0
47.501488 168.0
47.584072 136.0
47.681358 132.0
47.692356 104.0
47.756981 104.0
47.893307 192.0
47.945602 184.0
47.979542 92.0
48.022812 96.0
48.126316 112.0
48.148411 156.0
48.167747 148.0
48.195377 148.0
48.239605 164.0
48.271404 224.0
48.292149 172.0
48.349728 188.0
48.419483 144.0
48.490143 48.0
48.533028 124.0
48.619125 164.0
48.644108 188.0
48.664932 116.0
48.680206 212.0
48.694096 184.0
48.776073 128.0
48.848385 80.0
48.885952 44.0
48.911003 68.0
48.920746 112.0
49.002918 64.0
49.03915 152.0
49.157692 168.0
49.174629 148.0
49.253574 184.0
49.270794 104.0
49.311317 212.0
49.337875 216.0
49.363045 236.0
49.413399 176.0
49.535198 136.0
49.545002 160.0
49.556213 48.0
49.568821 80.0
49.657494 124.0
49.755371 168.0
49.882431 36.0
49.918362 132.0
50.014034 164.0
50.12952 136.0
50.177444 84.0
50.276188 184.0
50.336891 200.0
50.358074 120.0
50.391979 148.0
50.464062 188.0
50.499416 152.0
50.57016 232.0
50.594223 236.0
50.633873 144.0
50.691956 172.0
50.723137 192.0
50.760002 168.0
50.820995 180.0
50.984299 192.0
51.026215 172.0
51.093788 148.0
51.197697 128.0
51.303139 180.0
51.34021 204.0
51.478638 164.0
51.495777 104.0
51.54435 120.0
51.577728 180.0
51.611534 120.0
51.691639 100.0
51.720261 124.0
51.758919 128.0
51.789215 180.0
51.820641 176.0
51.889305 148.0
51.912247 144.0
51.930893 204.0
51.948105 196.0
52.035648 64.0
52.113239 180.0
52.125526 196.0
52.28289 132.0
52.367836 128.0
52.40097 88.0
52.416592 176.0
52.48457 220.0
52.498989 224.0
52.517738 240.0
52.539375 72.0
52.549477 200.0
52.568233 140.0
52.621578 180.0
52.626377 172.0
52.647633 124.0
52.664963 200.0
52.709751 156.0
52.753109 116.0
52.763229 164.0
52.777687 116.0
52.803719 112.0
52.837898 204.0
52.858429 220.0
52.952793 100.0
53.033932 200.0
53.134785 220.0
53.163013 144.0
53.180431 80.0
53.22253 168.0
53.306782 96.0
53.327129 76.0
53.362019 112.0
53.562847 136.0
53.615303 140.0
53.632793 68.0
53.653202 228.0
53.79179 144.0
53.85458 144.0
53.934944 196.0
53.981728 108.0
54.104637 180.0
54.270199 192.0
54.298061 112.0
54.425732 176.0
54.487083 140.0
54.525627 120.0
54.547672 176.0
54.62561 152.0
54.680054 92.0
54.725689 116.0
54.974808 208.0
54.994705 172.0
55.010231 132.0
55.134304 176.0
55.230408 140.0
55.240761 124.0
55.259995 148.0
55.280708 152.0
55.30291 156.0
55.375462 204.0
55.483635 164.0
55.507359 212.0
55.557789 184.0
55.65723 132.0
55.701786 188.0
55.71312 216.0
55.785004 184.0
55.886135 72.0
55.960556 148.0
56.009289 188.0
56.060986 180.0
56.145332 140.0
56.193741 176.0
56.270679 120.0
56.287743 160.0
56.313984 48.0
56.42905 104.0
56.445499 156.0
56.515804 136.0
56.52927 120.0
56.539745 60.0
56.665531 244.0
56.719482 168.0
56.815456 172.0
56.83646 120.0
56.908508 216.0
56.94305 164.0
57.019672 176.0
57.067776 172.0
57.091835 224.0
57.160854 164.0
57.198662 148.0
57.284496 212.0
57.311615 136.0
57.326683 116.0
57.359535 216.0
57.43222 136.0
57.462395 192.0
57.518303 164.0
57.699512 124.0
57.799339 260.0
57.810825 88.0
57.844746 72.0
57.949242 116.0
57.973488 176.0
58.040184 128.0
58.072792 96.0
58.106922 348.0
58.146378 40.0
58.285267 96.0
58.318005 360.0
58.403152 164.0
58.439667 156.0
58.460968 136.0
58.521439 160.0
58.544697 116.0
58.661694 168.0
58.697201 268.0
58.779461 204.0
58.877163 180.0
59.075871 200.0
59.097286 180.0
59.11412 188.0
59.186066 132.0
59.199848 176.0
59.346954 76.0
59.480427 112.0
59.492706 132.0
59.629417 188.0
59.644787 252.0
59.666309 72.0
59.683224 64.0
59.69706 204.0
59.707829 160.0
59.813618 180.0
59.857101 196.0
59.895603 204.0
59.958347 216.0
60.109909 132.0
60.159298 136.0
60.248871 68.0
60.285954 108.0
60.310684 116.0
60.324596 104.0
60.420349 144.0
60.422306 176.0
60.496311 228.0
60.521179 188.0
60.565994 100.0
60.576836 168.0
60.604725 172.0
60.694626 68.0
60.738052 280.0
60.78149 164.0
60.82029 132.0
60.832272 184.0
60.838165 132.0
60.842392 192.0
60.891712 136.0
60.936764 92.0
61.08601 228.0
61.132687 164.0
61.152481 184.0
61.215195 224.0
61.280617 140.0
61.371441 192.0
61.400646 140.0
61.417805 184.0
61.505981 180.0
61.548172 180.0
61.619186 148.0
61.662941 216.0
61.719219 204.0
61.741589 196.0
61.861591 180.0
61.888237 224.0
61.906998 168.0
61.924225 220.0
61.996296 208.0
62.054295 240.0
62.066837 152.0
62.080952 88.0
62.110748 112.0
62.125809 180.0
62.175079 156.0
62.256714 100.0
62.299126 52.0
62.396801 236.0
62.465759 140.0
62.522221 208.0
62.550735 176.0
62.563328 52.0
62.574348 160.0
62.591667 172.0
62.614704 204.0
62.684608 144.0
62.750809 212.0
62.82967 136.0
62.85807 44.0
62.899105 192.0
62.946468 44.0
62.970158 208.0
63.02071 136.0
63.04771 148.0
63.071281 204.0
63.164574 144.0
63.191471 120.0
63.226284 140.0
63.280102 124.0
63.341866 184.0
63.433777 192.0
63.488529 204.0
63.53051 152.0
63.628906 208.0
63.720768 148.0
63.726562 124.0
63.731201 208.0
63.782764 132.0
63.845013 200.0
63.865688 200.0
63.957977 48.0
64.012108 148.0
64.216103 108.0
64.319817 156.0
64.348549 228.0
64.453972 148.0
64.468353 148.0
64.511505 220.0
64.585068 148.0
64.611458 152.0
64.655464 176.0
64.685875 132.0
64.717896 216.0
64.847656 112.0
64.874908 176.0
64.927818 168.0
64.961502 220.0
65.04174 56.0
65.134872 184.0
65.154152 68.0
65.19593 188.0
65.393753 160.0
65.612831 180.0
65.64669 136.0
65.669266 196.0
65.730576 168.0
65.767693 148.0
65.917892 48.0
66.089294 176.0
66.118423 160.0
66.140816 148.0
66.145203 124.0
66.192886 140.0
66.272263 116.0
66.335793 256.0
66.366272 188.0
66.395462 136.0
66.473328 180.0
66.484688 168.0
66.535011 212.0
66.595093 112.0
66.671455 140.0
66.694206 188.0
66.746231 140.0
66.801529 164.0
66.814545 168.0
66.887772 148.0
67.053917 172.0
67.154999 196.0
67.202309 136.0
67.280647 128.0
67.336166 164.0
67.368835 48.0
67.49305 200.0
67.520851 120.0
67.604286 132.0
67.631813 132.0
67.668129 168.0
67.700874 132.0
67.728722 112.0
67.768036 180.0
67.889343 152.0
67.900818 200.0
67.943321 176.0
67.964798 180.0
67.991051 172.0
68.183205 108.0
68.23745 188.0
68.298302 168.0
68.321327 144.0
68.431602 100.0
68.564758 224.0
68.629776 144.0
68.657356 200.0
68.680443 132.0
68.711792 196.0
68.791 188.0
68.853752 200.0
68.898346 132.0
68.924782 160.0
68.999161 132.0
69.103813 212.0
69.149696 128.0
69.239098 108.0
69.256378 132.0
69.277672 168.0
69.351761 160.0
69.421394 148.0
69.493515 192.0
69.632164 128.0
69.69529 68.0
69.844917 188.0
70.01136 80.0
70.05262 88.0
70.124649 156.0
70.17466 200.0
70.229691 148.0
70.285889 164.0
70.385811 216.0
70.490135 196.0
70.737671 120.0
70.895111 160.0
70.908524 124.0
70.926994 172.0
70.943718 184.0
70.977257 124.0
71.01918 144.0
71.056084 152.0
71.091324 196.0
71.152946 208.0
71.157608 148.0
71.204681 176.0
71.23568 188.0
71.292847 116.0
71.415581 124.0
71.499702 136.0
71.521584 188.0
71.612511 196.0
71.659676 236.0
71.722031 136.0
71.755745 204.0
71.868752 212.0
71.893517 136.0
71.970032 172.0
72.002113 120.0
72.019005 88.0
72.032516 152.0
72.142357 168.0
72.162651 184.0
72.193352 204.0
72.402939 160.0
72.465614 136.0
72.502892 240.0
72.602921 140.0
72.626663 112.0
72.674164 140.0
72.771004 148.0
72.852432 116.0
72.909256 172.0
72.966301 96.0
73.025818 180.0
73.071747 260.0
73.531845 40.0
73.569397 172.0
73.642822 212.0
73.695778 148.0
73.769272 156.0
73.871872 116.0
73.964279 56.0
73.984825 168.0
73.997795 104.0
74.02034 220.0
74.026543 164.0
74.031113 112.0
74.080696 216.0
74.096146 188.0
74.120132 168.0
74.162979 84.0
74.336197 192.0
74.382538 72.0
74.441154 140.0
74.482132 136.0
74.50618 248.0
74.537109 192.0
74.564606 212.0
74.602417 180.0
74.660881 132.0
74.67292 152.0
74.696999 148.0
74.727966 108.0
74.769958 172.0
74.78476 264.0
74.851898 156.0
74.867401 128.0
74.88118 148.0
74.902985 188.0
74.948364 180.0
74.965591 104.0
74.98455 164.0
75.063858 212.0
75.120773 200.0
75.136299 152.0
75.220856 204.0
75.317558 168.0
75.346924 152.0
75.383209 200.0
75.419571 224.0
75.493851 156.0
75.518066 60.0
75.703247 152.0
75.727493 144.0
75.770798 148.0
75.79187 176.0
75.886925 140.0
75.900795 176.0
76.062141 164.0
76.090736 188.0
76.136803 236.0
76.307098 184.0
76.326225 220.0
76.407242 192.0
76.411636 112.0
76.417458 204.0
76.453209 160.0
76.498466 144.0
76.543732 220.0
76.580811 180.0
76.604065 156.0
76.684845 204.0
76.753235 88.0
76.766487 116.0
76.780739 64.0
76.809265 180.0
76.838074 152.0
76.892395 128.0
76.991913 148.0
77.091492 180.0
77.129944 168.0
77.152664 156.0
77.219116 180.0
77.238358 116.0
77.301338 184.0
77.33284 140.0
77.394112 196.0
77.409874 196.0
77.518486 132.0
77.543022 156.0
77.635941 236.0
77.7061 200.0
77.737686 120.0
77.78508 168.0
77.895706 112.0
78.060921 164.0
78.073227 156.0
78.127754 56.0
78.192863 92.0
78.321396 148.0
78.346054 184.0
78.437691 144.0
78.474716 128.0
78.524094 208.0
78.562859 188.0
78.585831 216.0
78.647598 144.0
78.677612 152.0
78.690544 220.0
78.898445 120.0
78.97979 180.0
79.022247 184.0
79.07534 164.0
79.108971 76.0
79.154343 128.0
79.222305 160.0
79.271919 180.0
79.284325 144.0
79.388916 72.0
79.443901 168.0
79.458099 172.0
79.545059 60.0
79.601242 236.0
79.648048 168.0
79.756439 148.0
79.78624 256.0
79.895142 180.0
79.934288 236.0
79.994804 176.0
80.023285 200.0
80.101646 72.0
80.14975 132.0
80.3209 180.0
80.342766 188.0
80.379776 192.0
80.494026 140.0
80.665543 208.0
80.67984 188.0
80.779991 184.0
80.792511 172.0
80.828293 152.0
80.88736 204.0
80.907051 156.0
80.96077 184.0
80.977737 616.0
81.053917 192.0
81.165054 168.0
81.270882 92.0
81.363846 196.0
81.394615 176.0
81.401787 164.0
81.441437 148.0
81.459396 112.0
81.47197 140.0
81.489937 60.0
81.711082 100.0
81.750671 148.0
81.827652 52.0
81.880295 48.0
82.067703 196.0
82.129021 176.0
82.150665 96.0
82.237282 188.0
82.253525 192.0
82.365479 108.0
82.405228 208.0
82.42691 132.0
82.582291 152.0
82.640274 148.0
82.692757 216.0
82.714478 120.0
82.747276 200.0
82.761543 80.0
82.826744 160.0
82.87928 188.0
82.968094 164.0
82.99157 152.0
83.024307 56.0
83.145859 144.0
83.223862 140.0
83.233185 152.0
83.276581 64.0
83.318359 32.0
83.334709 176.0
83.39286 80.0
83.413094 152.0
83.475243 140.0
83.516502 36.0
83.53746 164.0
83.618393 208.0
83.687569 156.0
83.729454 184.0
83.77317 136.0
83.851524 160.0
83.939026 148.0
83.977325 140.0
83.993744 196.0
84.057594 108.0
84.082382 200.0
84.114174 160.0
84.190865 144.0
84.225563 196.0
84.278542 44.0
84.371796 184.0
84.415642 88.0
84.532715 392.0
84.60363 188.0
84.622055 228.0
84.695549 128.0
84.719475 144.0
84.735962 160.0
84.778107 32.0
84.800102 164.0
84.83493 164.0
84.88443 172.0
84.913773 152.0
84.941292 164.0
85.031197 128.0
85.045883 268.0
85.089104 116.0
85.115646 204.0
85.218506 44.0
85.26812 172.0
85.303047 144.0
85.328781 152.0
85.365555 60.0
85.39682 208.0
85.417053 124.0
85.440971 156.0
85.46489 192.0
85.540344 184.0
85.569801 180.0
85.693207 124.0
85.752174 164.0
85.781662 144.0
85.805634 96.0
85.846199 40.0
86.030708 180.0
86.095886 160.0
86.176613 220.0
86.243141 180.0
86.27285 216.0
86.317093 112.0
86.348572 184.0
86.378128 164.0
86.429565 144.0
86.459534 224.0
86.479172 184.0
86.50766 128.0
86.568764 172.0
86.639145 176.0
86.663231 124.0
86.69207 156.0
86.750336 144.0
86.763313 120.0
86.779999 188.0
86.828217 212.0
86.846764 148.0
86.90242 136.0
86.959946 128.0
87.013779 176.0
87.034203 220.0
87.056488 144.0
87.169807 160.0
87.199539 104.0
87.229279 144.0
87.352898 180.0
87.398521 128.0
87.491585 176.0
87.504616 160.0
87.564201 104.0
87.599968 160.0
87.776657 176.0
87.832603 120.0
87.86805 116.0
87.963226 128.0
88.03418 120.0
88.050987 136.0
88.156395 152.0
88.281639 220.0
88.312653 104.0
88.336967 220.0
88.544739 144.0
88.603951 176.0
88.861534 100.0
88.897186 200.0
88.915955 140.0
88.983528 136.0
89.007942 168.0
89.026718 144.0
89.062401 104.0
89.130035 188.0
89.197693 48.0
89.222137 144.0
89.235298 192.0
89.269142 144.0
89.36171 152.0
89.425293 184.0
89.479881 152.0
89.494949 100.0
89.516563 92.0
89.606071 188.0
89.80024 104.0
89.937973 136.0
90.013496 164.0
90.036156 172.0
90.051262 96.0
90.066917 112.0
90.083374 124.0
90.098488 244.0
90.115494 188.0
90.170296 132.0
90.298859 228.0
90.336693 104.0
90.366959 136.0
90.38588 144.0
90.436981 232.0
90.514603 60.0
90.533539 128.0
90.565735 180.0
90.597939 128.0
90.616882 156.0
90.633934 208.0
90.654778 124.0
90.668045 76.0
90.700264 148.0
90.723015 172.0
90.783691 44.0
90.842491 160.0
91.036087 172.0
91.051277 180.0
91.089478 180.0
91.121567 88.0
91.138664 172.0
91.155769 172.0
91.253426 212.0
91.394295 136.0
91.412483 240.0
91.44294 128.0
91.465775 184.0
91.531898 148.0
91.570503 156.0
91.591454 156.0
91.660042 152.0
91.674965 192.0
91.751526 104.0
91.776314 84.0
91.883125 196.0
91.906731 228.0
91.944183 96.0
92.041542 108.0
92.085464 164.0
92.148506 124.0
92.278473 152.0
92.343491 156.0
92.379837 40.0
92.404709 196.0
92.486992 148.0
92.598045 108.0
92.674675 128.0
92.7015 132.0
92.764847 156.0
92.901863 148.0
92.960388 152.0
92.985336 128.0
93.021805 192.0
93.063194 204.0
93.148544 80.0
93.179283 200.0
93.197006 176.0
93.213867 200.0
93.283058 140.0
93.383049 132.0
93.429214 144.0
93.540833 224.0
93.606293 176.0
93.716087 100.0
93.76619 188.0
93.883789 116.0
94.021103 176.0
94.06485 200.0
94.119217 104.0
94.177155 204.0
94.206131 212.0
94.225449 132.0
94.238976 184.0
94.279556 124.0
94.353004 140.0
94.378143 148.0
94.461823 192.0
94.494652 168.0
94.564995 156.0
94.709076 128.0
94.881844 176.0
94.920319 220.0
94.971535 228.0
95.050285 168.0
95.122101 128.0
95.135689 152.0
95.169403 228.0
95.238602 204.0
95.323395 280.0
95.366844 100.0
95.434883 136.0
95.462112 152.0
95.48156 164.0
95.507759 272.0
95.532127 116.0
95.578827 80.0
95.608017 140.0
95.752083 152.0
95.843643 160.0
95.857285 208.0
95.906006 140.0
96.036644 120.0
96.079208 176.0
96.124435 168.0
96.15818 208.0
96.175179 196.0
96.206413 172.0
96.34507 76.0
96.378288 100.0
96.417366 200.0
96.63681 184.0
96.653648 92.0
96.691177 132.0
96.724449 128.0
96.873276 120.0
96.890907 56.0
96.91246 140.0
96.947731 168.0
96.961449 308.0
96.98645 164.0
97.00457 160.0
97.044029 784.0
97.110458 176.0
97.1605 180.0
97.224251 164.0
97.250206 176.0
97.266914 152.0
97.318474 168.0
97.338486 248.0
97.45343 180.0
97.563896 48.0
97.617073 200.0
97.685989 64.0
97.861145 136.0
97.8769 52.0
97.928101 196.0
98.010841 80.0
98.041908 152.0
98.09539 2180.0
98.115532 140.0
98.126396 140.0
98.130127 200.0
98.156708 100.0
98.192207 164.0
98.206017 44.0
98.265747 340.0
98.297424 180.0
98.312553 168.0
98.332993 208.0
98.348076 192.0
98.541611 232.0
98.569275 140.0
98.699738 136.0
98.800606 64.0
98.83226 72.0
98.909447 52.0
98.98468 180.0
99.025635 1316.0
99.06192 220.0
99.083717 176.0
99.101006 328.0
99.125328 40.0
99.236328 216.0
99.264084 68.0
99.375168 152.0
99.418823 172.0
99.468445 244.0
99.51619 156.0
99.555801 160.0
99.604683 216.0
99.786301 204.0
99.802208 148.0
99.845955 40.0
99.901085 160.0
100.029015 104.0
100.057449 544.0
100.096893 212.0
100.152466 160.0
100.178368 196.0
100.235023 164.0
100.260056 176.0
100.276001 136.0
100.30191 160.0
100.352814 128.0
100.373688 140.0
100.519302 168.0
100.533272 204.0
100.611122 152.0
100.684952 160.0
100.690842 156.0
100.716957 144.0
100.818855 248.0
100.840836 152.0
100.898811 176.0
101.041359 5824.0
101.192917 168.0
101.271019 180.0
101.325104 156.0
101.365173 176.0
101.388077 112.0
101.483566 184.0
101.509506 188.0
101.676018 180.0
101.706123 140.0
101.854713 236.0
101.87355 148.0
101.890869 248.0
101.906578 176.0
101.945122 204.0
101.9813 160.0
102.017487 184.0
102.038345 1304.0
102.071693 212.0
102.206543 140.0
102.220627 160.0
102.526726 216.0
102.665833 188.0
102.706169 268.0
102.734413 196.0
103.006981 184.0
103.038475 472.0
103.070847 196.0
103.138283 136.0
103.231285 184.0
103.253532 176.0
103.281845 164.0
103.3041 196.0
103.409317 76.0
103.423485 256.0
103.441704 196.0
103.468025 204.0
103.597633 128.0
103.67868 116.0
103.745415 152.0
103.836823 180.0
103.865219 148.0
103.930138 60.0
103.972755 132.0
104.013344 152.0
104.084404 200.0
104.122826 196.0
104.195175 104.0
104.299759 104.0
104.531609 160.0
104.570282 224.0
104.729095 128.0
104.757614 104.0
104.793526 236.0
104.822807 204.0
104.84523 224.0
104.896179 84.0
104.95607 192.0
104.971619 148.0
105.012405 160.0
105.036888 548.0
105.089928 96.0
105.118492 192.0
105.175644 36.0
105.200134 68.0
105.230759 112.0
105.269554 80.0
105.373734 124.0
105.490219 184.0
105.511871 220.0
105.657913 160.0
105.702927 172.0
105.83477 156.0
105.911758 176.0
105.928146 208.0
105.985512 144.0
106.032639 156.0
106.075684 112.0
106.208969 64.0
106.278656 248.0
106.345093 152.0
106.426514 140.0
106.49839 152.0
106.518929 432.0
106.547691 80.0
106.759407 108.0
107.134018 164.0
107.346313 164.0
107.488647 104.0
107.571205 180.0
107.620758 164.0
107.810799 128.0
107.870743 260.0
107.893478 92.0
107.938965 40.0
107.965851 156.0
108.052727 120.0
108.100822 180.0
108.116188 132.0
108.145851 244.0
108.212097 228.0
108.251434 180.0
108.276291 136.0
108.303215 200.0
108.396446 160.0
108.440117 164.0
108.481422 184.0
108.506882 156.0
108.568504 112.0
108.684677 144.0
108.763535 208.0
108.877731 156.0
108.908882 144.0
108.95459 136.0
109.047554 508.0
109.075119 176.0
109.091751 208.0
109.134171 248.0
109.158279 108.0
109.185318 176.0
109.210274 108.0
109.287247 112.0
109.443359 148.0
109.522491 68.0
109.664185 160.0
109.701096 152.0
109.856018 180.0
110.014626 212.0
110.068909 144.0
110.112762 140.0
110.2005 132.0
110.229752 172.0
110.25901 160.0
110.304993 136.0
110.357262 184.0
110.382355 144.0
110.421562 208.0
110.43029 156.0
110.432968 196.0
110.463921 140.0
110.526688 80.0
110.543427 164.0
110.698334 168.0
110.748985 152.0
110.775505 156.0
110.782562 132.0
110.786896 184.0
110.803062 100.0
110.924919 164.0
110.985466 164.0
111.00219 152.0
111.030846 192.0
111.061104 1204.0
111.100769 80.0
111.144829 136.0
111.373665 144.0
111.478714 156.0
111.506035 168.0
111.682648 176.0
111.735237 180.0
111.796638 112.0
111.884666 192.0
112.024902 132.0
112.065674 500.0
112.082649 128.0
112.110046 144.0
112.160629 112.0
112.251289 88.0
112.28714 120.0
112.42849 92.0
112.458038 228.0
112.509315 124.0
112.555153 112.0
112.614281 84.0
112.736984 104.0
112.846741 48.0
112.880569 52.0
112.963058 212.0
113.005371 188.0
113.039223 236.0
113.059013 344.0
113.092133 76.0
113.242462 168.0
113.308136 164.0
113.392891 132.0
113.426811 152.0
113.518761 216.0
113.55191 60.0
113.587967 312.0
113.605247 136.0
113.641006 140.0
113.674957 144.0
113.702545 128.0
113.999863 224.0
114.037712 680.0
114.071114 84.0
114.323105 156.0
114.338005 132.0
114.380577 172.0
114.418892 96.0
114.508331 164.0
114.640419 164.0
114.742729 188.0
114.798172 208.0
114.844749 152.0
114.898422 48.0
114.936829 148.0
114.964569 252.0
114.999268 352.0
115.023109 272.0
115.047447 372.0
115.116135 120.0
115.175079 120.0
115.297722 84.0
115.319092 184.0
115.468758 164.0
115.69986 144.0
115.718918 160.0
115.763863 184.0
115.800507 176.0
115.84977 264.0
115.864769 208.0
115.911903 132.0
115.980484 40.0
116.051323 1052.0
116.127487 208.0
116.169189 48.0
116.190643 172.0
116.242142 192.0
116.312965 184.0
116.38176 172.0
116.439644 272.0
116.501938 136.0
116.60508 84.0
116.68676 132.0
116.777084 120.0
116.843765 108.0
116.867432 148.0
116.949173 244.0
116.979347 116.0
116.995964 100.0
117.013657 176.0
117.033897 320.0
117.06881 588.0
117.106392 216.0
117.188248 164.0
117.272293 208.0
117.289543 164.0
117.367149 120.0
117.384399 68.0
117.480026 120.0
117.524612 128.0
117.626045 140.0
117.705925 156.0
117.837685 152.0
117.94574 140.0
118.001373 196.0
118.067055 372.0
118.099258 224.0
118.120628 132.0
118.164162 140.0
118.216087 136.0
118.294006 196.0
118.378448 128.0
118.543091 128.0
118.599434 168.0
118.632149 176.0
118.688324 104.0
118.712173 100.0
118.780151 176.0
118.846664 168.0
118.933472 124.0
119.051498 832.0
119.070259 204.0
119.136536 196.0
119.200607 128.0
119.228859 204.0
119.257111 304.0
119.472389 148.0
119.526863 216.0
119.670448 264.0
119.709969 132.0
119.766655 200.0
119.81855 164.0
119.953667 232.0
119.982002 192.0
120.02343 172.0
120.058319 188.0
120.154297 140.0
120.184845 124.0
120.211029 120.0
120.259041 128.0
120.300514 124.0
120.328896 256.0
120.386978 160.0
120.431534 116.0
120.446823 180.0
120.599777 148.0
120.63475 68.0
120.665359 112.0
120.715652 172.0
120.770325 144.0
120.814079 136.0
120.936615 140.0
120.951942 120.0
121.011925 236.0
121.048271 192.0
121.087692 80.0
121.192841 208.0
121.232285 144.0
121.269127 168.0
121.335304 116.0
121.671638 148.0
121.689651 208.0
121.712753 152.0
121.747833 164.0
121.780777 188.0
121.877434 32.0
121.930923 196.0
121.967041 176.0
121.975883 136.0
122.044487 156.0
122.067528 184.0
122.077385 208.0
122.081024 176.0
122.17205 192.0
122.216057 156.0
122.277496 148.0
122.319496 204.0
122.370125 116.0
122.530907 164.0
122.612083 148.0
122.619263 124.0
122.623955 160.0
122.671951 140.0
122.788818 116.0
122.81308 148.0
122.86161 160.0
122.886711 180.0
122.974144 60.0
123.003998 292.0
123.046997 64.0
123.071281 112.0
123.099991 76.0
123.137535 72.0
123.186127 132.0
123.312073 132.0
123.4403 160.0
123.506645 116.0
123.599564 180.0
123.628334 128.0
123.71244 260.0
123.834229 100.0
123.854164 108.0
123.987106 48.0
124.011597 240.0
124.110588 1432.0
124.177773 144.0
124.410767 172.0
124.475159 124.0
124.568436 200.0
124.617317 264.0
124.670372 132.0
124.708427 144.0
124.75264 144.0
124.784012 248.0
124.828484 112.0
124.861839 132.0
124.941917 160.0
125.019669 868.0
125.057579 168.0
125.079887 168.0
125.115646 288.0
125.160034 272.0
125.18911 148.0
125.2313 276.0
125.281387 188.0
125.322639 116.0
125.416237 108.0
125.500954 200.0
125.563393 152.0
125.657082 148.0
125.768661 140.0
125.784286 200.0
125.80661 172.0
125.851265 156.0
126.005768 136.0
126.025482 132.0
126.070786 524.0
126.127113 3976.0
126.260201 48.0
126.316124 132.0
126.340729 160.0
126.363098 108.0
126.524246 64.0
126.544395 132.0
126.598785 124.0
126.622772 200.0
126.667564 128.0
126.712372 132.0
126.768387 172.0
126.799767 220.0
126.914093 36.0
126.97464 148.0
127.012772 148.0
127.057976 652.0
127.093536 140.0
127.131393 484.0
127.169838 180.0
127.265305 152.0
127.302299 192.0
127.33149 180.0
127.353951 92.0
127.416855 192.0
127.513481 164.0
127.547195 176.0
127.630379 180.0
127.706841 136.0
128.008408 204.0
128.035431 172.0
128.056259 148.0
128.103012 68.0
128.142288 3592.0
128.231277 52.0
128.276535 48.0
128.305832 32.0
128.348679 52.0
128.411819 44.0
128.444839 200.0
128.474976 220.0
128.520096 144.0
128.560715 172.0
128.605865 168.0
128.870163 116.0
128.93335 124.0
128.987595 188.0
129.014145 148.0
129.032349 212.0
129.053528 196.0
129.071976 2032.0
129.095291 152.0
129.145584 304.0
129.202438 124.0
129.26947 64.0
129.342743 88.0
129.473801 140.0
129.498978 112.0
129.662094 184.0
129.761841 168.0
129.804916 44.0
129.857086 40.0
129.91153 124.0
130.015091 248.0
130.067886 7612.0
130.111237 200.0
130.141617 200.0
130.27475 176.0
130.29747 72.0
130.354263 132.0
130.374725 124.0
130.415115 192.0
130.488373 144.0
130.529312 32.0
130.691528 140.0
130.747696 112.0
130.929825 172.0
130.975388 64.0
131.010574 288.0
131.03006 156.0
131.069778 772.0
131.123489 164.0
131.157669 124.0
131.17363 128.0
131.207825 184.0
131.25798 164.0
131.294479 192.0
131.355942 164.0
131.495239 204.0
131.568207 232.0
131.588837 204.0
131.611664 168.0
131.634506 128.0
131.723572 192.0
131.769272 156.0
131.849243 216.0
131.87439 196.0
132.011566 108.0
132.058945 208.0
132.067108 168.0
132.10762 200.0
132.204636 140.0
132.247208 124.0
132.331909 108.0
132.40976 172.0
132.554092 152.0
132.597641 184.0
132.72142 160.0
132.758118 72.0
132.785645 116.0
132.808578 156.0
132.842987 100.0
132.904922 36.0
132.932465 136.0
133.01123 480.0
133.044067 160.0
133.065598 228.0
133.232086 176.0
133.295288 148.0
133.350189 144.0
133.419403 160.0
133.440094 180.0
133.509079 172.0
133.557373 160.0
133.681625 168.0
133.97403 156.0
134.06131 700.0
134.096161 116.0
134.160706 192.0
134.218353 176.0
134.379807 60.0
134.431839 136.0
134.633728 108.0
134.698395 196.0
134.727219 180.0
134.82547 180.0
134.857834 104.0
134.971115 140.0
134.987289 52.0
135.06131 164.0
135.13533 212.0
135.170044 192.0
135.276505 220.0
135.297348 112.0
135.332077 208.0
135.380707 172.0
135.545166 96.0
135.723663 240.0
135.923141 164.0
135.952148 208.0
136.064514 128.0
136.136719 224.0
136.255173 220.0
136.363693 200.0
136.487595 192.0
136.531784 140.0
136.559036 168.0
136.657974 164.0
136.738373 196.0
136.766785 204.0
136.906479 212.0
136.939072 72.0
136.962372 80.0
137.001968 128.0
137.022934 148.0
137.057892 176.0
137.083527 76.0
137.125473 160.0
137.207062 116.0
137.237366 160.0
137.318985 116.0
137.538315 148.0
137.725113 376.0
137.769501 132.0
137.823227 84.0
137.972824 184.0
138.061676 168.0
138.157578 196.0
138.325089 192.0
138.488113 156.0
138.515747 84.0
138.611801 172.0
138.636612 148.0
138.768845 32.0
138.841537 164.0
139.019379 1016.0
139.073822 140.0
139.134842 156.0
139.160675 140.0
139.245209 196.0
139.280441 128.0
139.312286 144.0
139.416718 184.0
139.487228 76.0
139.752975 116.0
139.85524 116.0
139.915375 136.0
139.995438 136.0
140.036072 304.0
140.066101 60.0
140.110855 176.0
140.18428 200.0
140.200836 320.0
140.219254 116.0
140.313538 224.0
140.334595 220.0
140.340439 204.0
140.379562 184.0
140.455032 200.0
140.490417 136.0
140.581223 136.0
140.598816 192.0
140.604355 180.0
140.639084 184.0
140.672134 92.0
140.69574 224.0
140.731155 88.0
140.783096 208.0
140.803787 264.0
140.848709 108.0
140.889389 552.0
140.912079 332.0
140.946091 96.0
140.967438 188.0
140.988724 168.0
141.01651 109000.0
141.069855 188.0
141.110977 92.0
141.155655 80.0
141.177765 40.0
141.206207 112.0
141.235001 20.0
141.269577 112.0
141.276108 196.0
141.284775 164.0
141.293472 172.0
141.302155 148.0
141.338348 172.0
141.365601 44.0
141.383255 172.0
141.405029 1320.0
141.446701 48.0
141.481613 252.0
141.511414 112.0
141.539032 124.0
141.560654 40.0
141.587494 156.0
141.644531 172.0
141.660095 164.0
141.684067 184.0
141.745911 64.0
141.861267 160.0
141.92131 92.0
141.941788 120.0
142.017853 16288.0
142.067322 632.0
142.111649 148.0
142.14328 104.0
142.177322 104.0
142.193359 212.0
142.233871 204.0
142.279572 144.0
142.302658 72.0
142.327057 64.0
142.354095 176.0
142.431564 92.0
142.459366 136.0
142.507584 92.0
142.542389 160.0
142.645065 136.0
142.716446 128.0
142.74765 56.0
142.78537 112.0
142.830002 152.0
142.846848 204.0
142.873657 160.0
142.897507 124.0
142.91655 108.0
142.945099 132.0
143.013062 3924.0
143.068985 156.0
143.090286 68.0
143.115021 84.0
143.147049 48.0
143.168503 260.0
143.199417 116.0
143.220627 132.0
143.253403 164.0
143.389145 96.0
143.434662 84.0
143.509628 124.0
143.562088 172.0
143.593094 48.0
143.745773 92.0
143.769241 120.0
143.803055 132.0
143.910477 64.0
143.931961 28.0
143.948685 500.0
143.97496 168.0
144.018082 316.0
144.071136 164.0
144.103943 172.0
144.144562 92.0
144.204315 28.0
144.295151 48.0
144.383621 184.0
144.413971 220.0
144.527161 80.0
144.622879 212.0
144.682022 108.0
144.752167 48.0
144.819214 92.0
144.883087 224.0
145.008942 148.0
145.066544 376.0
145.144348 108.0
145.202713 124.0
145.241089 104.0
145.257874 80.0
145.346649 148.0
145.413834 44.0
145.473846 160.0
145.632324 100.0
145.670761 64.0
145.73082 64.0
145.860596 112.0
146.060791 192.0
146.182892 204.0
146.392319 88.0
146.416397 136.0
146.462173 196.0
146.493484 132.0
146.546478 172.0
146.67662 164.0
146.705551 224.0
146.780289 64.0
146.893646 168.0
146.914352 144.0
146.98291 72.0
147.019119 144.0
147.08223 108.0
147.190506 120.0
147.222595 112.0
147.381332 136.0
147.422409 116.0
147.468338 164.0
147.494919 180.0
147.669006 64.0
147.688354 172.0
147.731644 148.0
147.760941 96.0
147.778534 180.0
147.874664 188.0
147.935181 48.0
148.024765 176.0
148.046555 156.0
148.077469 2164.0
148.119217 44.0
148.177612 176.0
148.234543 208.0
148.264603 120.0
148.285065 188.0
148.342163 236.0
148.383377 64.0
148.414886 128.0
148.524033 164.0
148.565262 180.0
148.708435 192.0
148.761841 52.0
148.803101 180.0
148.846817 80.0
148.947235 104.0
149.019989 340.0
149.042374 228.0
149.08107 692.0
149.235596 116.0
149.259903 176.0
149.299423 80.0
149.354752 72.0
149.602966 48.0
149.67601 88.0
149.719833 44.0
149.763672 204.0
149.795349 160.0
149.878174 104.0
149.946411 180.0
150.072281 508.0
150.114624 168.0
150.146332 76.0
150.17778 152.0
150.461105 92.0
150.574478 188.0
150.656479 140.0
150.737228 180.0
150.765503 156.0
150.817764 188.0
151.013687 156.0
151.152817 132.0
151.304565 48.0
151.326599 136.0
151.378021 156.0
151.607544 156.0
151.83876 120.0
152.047302 88.0
152.088593 320.0
152.172485 156.0
152.236328 160.0
152.346863 112.0
152.383713 88.0
152.550827 52.0
152.636887 132.0
152.761734 160.0
152.860733 168.0
152.924713 116.0
153.015808 220.0
153.037994 220.0
153.089676 160.0
153.138931 104.0
153.220947 136.0
153.328644 120.0
153.422302 128.0
153.442352 152.0
153.474091 132.0
153.518463 80.0
153.750366 120.0
153.789856 60.0
153.957748 92.0
154.014557 132.0
154.049133 120.0
154.102997 804.0
154.256714 208.0
154.358078 152.0
154.459488 156.0
154.543594 100.0
154.642593 56.0
154.746567 56.0
154.790207 224.0
154.912491 112.0
154.934784 72.0
155.030426 692.0
155.057861 204.0
155.107056 680.0
155.166153 56.0
155.271896 48.0
155.415787 236.0
155.59697 168.0
155.616837 112.0
155.683868 136.0
155.911148 224.0
156.036911 152.0
156.203339 164.0
156.253098 28.0
156.462158 44.0
156.579193 96.0
156.611832 220.0
156.643951 196.0
156.780991 144.0
156.835815 92.0
156.855759 184.0
156.975357 144.0
157.010788 23200.0
157.066772 132.0
157.105072 160.0
157.169998 80.0
157.215027 48.0
157.244873 132.0
157.272324 48.0
157.32225 52.0
157.347214 84.0
157.377182 136.0
157.571991 76.0
157.659454 196.0
157.681946 44.0
157.773727 72.0
157.979492 152.0
158.010818 2472.0
158.06456 108.0
158.214737 224.0
158.234772 72.0
158.269821 136.0
158.287354 72.0
158.358734 112.0
158.400055 156.0
158.45433 156.0
158.582047 96.0
158.640625 224.0
158.713333 120.0
158.796097 44.0
158.853775 152.0
158.888901 80.0
158.952469 120.0
158.97963 256.0
159.026108 19860.0
159.095642 284.0
159.137375 56.0
159.154953 112.0
159.187592 160.0
159.212708 84.0
159.255402 88.0
159.307465 116.0
159.386047 60.0
159.43631 64.0
159.473999 152.0
159.496628 60.0
159.53685 68.0
159.592163 48.0
159.700302 76.0
159.760666 188.0
159.791214 56.0
159.846207 92.0
159.92926 112.0
160.027802 1868.0
160.120621 76.0
160.236496 160.0
160.599503 80.0
160.738251 136.0
160.798828 72.0
160.824066 144.0
160.892227 168.0
160.930099 56.0
160.988174 148.0
161.026108 1108.0
161.071518 60.0
161.134674 60.0
161.225647 68.0
161.309052 140.0
161.544235 236.0
161.782333 140.0
161.865662 116.0
161.921371 232.0
161.952042 116.0
161.974564 64.0
162.227982 32.0
162.309113 152.0
162.38266 152.0
162.539948 56.0
162.600845 124.0
162.689682 212.0
163.001358 164.0
163.037903 392.0
163.077942 592.0
163.266479 168.0
163.403839 116.0
163.48526 208.0
163.556534 208.0
163.614029 208.0
163.775513 140.0
163.854477 116.0
163.872314 176.0
164.04306 264.0
164.162903 160.0
164.287888 156.0
164.336349 36.0
164.486923 52.0
164.877716 68.0
164.985077 84.0
165.050934 992.0
165.102692 136.0
165.141052 100.0
165.210129 120.0
165.245941 84.0
165.348297 112.0
165.460922 116.0
165.532623 168.0
165.57103 124.0
165.658127 144.0
165.722168 188.0
165.800125 184.0
165.850311 192.0
165.870819 204.0
166.045166 128.0
166.144028 296.0
166.450638 172.0
166.514847 160.0
166.537964 60.0
166.630447 168.0
166.671555 208.0
166.877182 160.0
166.977463 144.0
167.032257 372.0
167.082932 56.0
167.111237 144.0
167.136963 124.0
167.229614 100.0
167.376358 60.0
167.644257 56.0
167.716431 176.0
167.938721 152.0
168.03035 212.0
168.118347 148.0
168.232346 96.0
168.252991 144.0
168.462173 136.0
168.600616 208.0
168.733536 140.0
168.901627 172.0
169.04184 124.0
169.089874 176.0
169.107239 268.0
169.318344 92.0
169.346832 84.0
169.502274 152.0
169.577423 140.0
169.707047 80.0
169.844498 132.0
169.99678 460.0
170.054657 100.0
170.096649 592.0
170.119553 112.0
170.340286 60.0
170.426025 136.0
170.483185 236.0
170.599808 180.0
170.701553 152.0
171.003342 152.0
171.033585 232.0
171.05098 172.0
171.101074 152.0
171.232452 344.0
171.305389 192.0
171.349686 116.0
171.469543 40.0
171.735489 60.0
171.800705 84.0
171.99057 164.0
172.017303 248.0
172.112885 1716.0
172.963577 204.0
173.045151 468.0
173.115952 324.0
173.186142 124.0
173.429825 128.0
173.497986 84.0
173.5242 100.0
173.692032 148.0
173.928192 44.0
174.04068 152.0
174.080475 44.0
174.106735 188.0
174.390488 256.0
174.423645 208.0
174.483688 220.0
174.866547 176.0
174.955719 180.0
175.021561 15380.0
175.051468 256.0
175.100449 192.0
175.20723 96.0
175.277374 80.0
175.298462 48.0
175.366974 64.0
175.408417 172.0
175.480331 64.0
175.540985 44.0
175.562073 164.0
175.759918 44.0
175.949966 156.0
176.022949 2112.0
176.140106 84.0
176.264267 84.0
176.367966 172.0
176.494247 148.0
176.83551 120.0
176.861664 136.0
176.893738 156.0
176.928162 208.0
177.018646 640.0
177.053238 680.0
177.175171 132.0
177.208511 56.0
177.256592 88.0
177.275146 76.0
177.296341 40.0
177.402359 148.0
177.444778 180.0
177.473953 112.0
177.688782 104.0
177.779007 60.0
177.800232 172.0
178.024109 464.0
178.042297 136.0
178.05481 176.0
178.063293 200.0
178.294266 208.0
178.332779 108.0
178.365982 100.0
178.448395 276.0
178.522842 96.0
178.599518 196.0
178.639877 172.0
178.746292 148.0
178.964569 124.0
179.031662 144.0
179.065094 380.0
179.196289 208.0
179.294891 192.0
179.388168 192.0
179.625504 36.0
179.689529 176.0
179.724228 124.0
179.803909 176.0
179.98848 216.0
180.550171 128.0
180.579086 316.0
180.610336 204.0
180.667358 48.0
180.889465 180.0
180.913559 96.0
181.049744 472.0
181.101013 64.0
181.320709 128.0
181.52713 200.0
181.642471 176.0
181.698807 236.0
181.739044 192.0
181.757828 108.0
181.84639 180.0
181.964508 204.0
182.00209 212.0
182.044724 452.0
182.077286 212.0
182.139053 152.0
183.026566 132.0
183.061279 860.0
183.113617 196.0
183.136978 168.0
183.207016 80.0
183.603256 124.0
183.641006 160.0
183.837952 148.0
183.927017 72.0
184.05661 168.0
184.115021 444.0
184.68631 124.0
184.818863 96.0
184.921707 88.0
184.940659 96.0
184.997498 104.0
185.081421 136.0
185.108505 140.0
185.360428 84.0
185.39566 208.0
185.498657 168.0
185.623367 76.0
185.664047 160.0
185.815948 124.0
186.128891 176.0
186.182404 184.0
186.247589 200.0
186.277466 228.0
186.315506 144.0
186.356262 76.0
186.413315 120.0
186.462234 96.0
186.67157 72.0
186.750443 56.0
186.842926 32.0
186.954483 152.0
187.11615 164.0
187.19133 232.0
187.95459 208.0
187.998245 188.0
188.093765 140.0
188.21936 116.0
188.619431 244.0
188.768616 180.0
189.043213 220.0
189.220276 120.0
189.458359 160.0
189.562469 108.0
190.102707 216.0
190.124664 172.0
190.228958 140.0
190.377228 136.0
190.459625 60.0
190.709671 116.0
191.130432 152.0
191.438736 132.0
191.59024 124.0
191.700455 120.0
191.76326 152.0
191.857559 176.0
191.95784 152.0
192.064377 140.0
192.171967 216.0
192.221634 132.0
192.580536 152.0
192.920425 48.0
193.238464 124.0
193.482025 56.0
193.939102 120.0
194.044434 312.0
194.069397 72.0
194.099899 92.0
194.139435 188.0
194.263535 64.0
194.33844 168.0
194.713196 124.0
194.827087 240.0
194.863205 212.0
194.943787 192.0
195.062866 768.0
195.102219 148.0
195.132797 76.0
195.19397 72.0
195.34137 80.0
195.449875 180.0
195.680893 68.0
195.912064 104.0
195.956635 108.0
195.995636 120.0
196.015152 76.0
196.064178 152.0
196.22699 164.0
196.558914 136.0
196.664963 144.0
196.706833 192.0
196.807343 212.0
196.902283 136.0
196.944183 204.0
197.036362 100.0
197.084641 164.0
197.257141 84.0
197.352188 92.0
197.525589 252.0
197.665482 168.0
197.987411 172.0
198.054626 196.0
198.082642 188.0
198.125793 704.0
198.343246 180.0
198.519089 128.0
198.741486 136.0
198.909866 168.0
198.94075 120.0
199.067169 148.0
199.102539 192.0
199.135117 144.0
199.241241 180.0
199.407028 144.0
199.449188 164.0
199.9319 180.0
200.053986 180.0
200.121567 96.0
200.422943 92.0
200.718918 160.0
200.775314 124.0
200.950211 188.0
200.972778 180.0
201.003815 68.0
201.067337 388.0
201.139297 168.0
201.226807 300.0
201.64534 196.0
201.712723 104.0
201.856918 144.0
201.932068 152.0
201.987015 108.0
202.069046 176.0
202.190735 124.0
202.247345 112.0
202.281311 132.0
202.618301 76.0
202.808167 140.0
202.859192 128.0
203.009476 224.0
203.15979 44.0
203.429398 116.0
203.62532 156.0
203.755981 80.0
203.792923 148.0
204.08284 120.0
204.168152 96.0
204.694611 64.0
204.720245 140.0
204.874054 124.0
204.98233 200.0
205.085312 320.0
205.196106 156.0
205.455627 108.0
205.741028 160.0
206.372437 72.0
206.407715 200.0
206.483963 164.0
206.54689 116.0
207.013397 132.0
207.079269 192.0
207.156616 144.0
207.176666 188.0
207.282684 64.0
207.360062 144.0
207.394455 176.0
207.798798 128.0
208.093872 900.0
208.146042 184.0
208.285767 168.0
208.361526 172.0
208.513824 224.0
208.571304 60.0
208.772568 112.0
209.095978 184.0
209.16098 104.0
209.244476 156.0
209.532196 200.0
209.68808 232.0
209.71402 144.0
209.737091 144.0
209.869705 196.0
209.918716 36.0
209.953323 88.0
210.005234 192.0
210.062927 88.0
210.106201 192.0
210.130005 452.0
210.187973 276.0
210.533401 220.0
210.624207 200.0
210.677826 92.0
210.926346 228.0
211.001511 104.0
211.036194 160.0
211.143188 116.0
211.235748 100.0
211.273361 208.0
211.412247 144.0
211.481705 128.0
211.777039 136.0
211.974045 144.0
212.098679 184.0
212.144394 8336.0
212.207291 196.0
212.336426 32.0
212.412628 132.0
212.457199 112.0
212.548203 48.0
212.642517 104.0
212.777496 172.0
212.86171 172.0
212.890747 188.0
212.969162 80.0
213.026947 152.0
213.070831 176.0
213.149216 672.0
213.282974 160.0
213.326569 80.0
213.463226 44.0
213.582474 312.0
213.614471 192.0
213.637741 56.0
213.695923 28.0
213.742477 104.0
214.091812 164.0
214.143173 568.0
214.187927 92.0
214.2491 68.0
214.307373 48.0
214.472031 176.0
214.496796 52.0
214.543442 128.0
214.566772 108.0
214.730057 112.0
214.778152 180.0
214.829239 52.0
214.85257 92.0
214.913849 176.0
215.234924 92.0
215.527023 60.0
216.003571 48.0
216.024048 60.0
216.215576 176.0
216.255219 68.0
216.3284 36.0
216.375229 180.0
216.471863 64.0
216.603653 76.0
216.843048 320.0
216.896683 160.0
217.185516 88.0
217.643021 112.0
217.697662 104.0
218.047256 128.0
218.250092 180.0
218.329498 132.0
218.403946 180.0
218.435379 232.0
218.532471 64.0
218.56189 56.0
218.603088 120.0
218.747299 32.0
218.994644 180.0
219.077133 176.0
219.218552 100.0
219.291733 188.0
219.380661 200.0
219.457321 104.0
219.660812 168.0
219.973618 156.0
220.130096 176.0
220.289581 96.0
220.517105 140.0
220.945877 88.0
220.972504 136.0
221.019852 56.0
221.111588 132.0
221.469849 248.0
221.798752 140.0
222.0923 168.0
222.142731 152.0
222.166458 136.0
222.291077 116.0
222.44838 212.0
222.489944 172.0
222.537445 160.0
222.837433 72.0
222.911713 204.0
222.952164 236.0
223.092239 1856.0
223.203033 116.0
223.241684 172.0
223.423126 144.0
223.525574 232.0
223.774323 76.0
223.947037 76.0
224.09761 184.0
224.143784 600.0
224.259888 100.0
224.567001 180.0
224.668411 64.0
224.713165 164.0
224.939987 128.0
224.993713 116.0
225.09523 152.0
225.145416 224.0
225.235611 144.0
225.271454 160.0
225.325226 56.0
225.776596 48.0
225.809494 136.0
225.836411 112.0
226.11203 200.0
226.169693 176.0
226.467285 124.0
226.701645 124.0
226.728622 132.0
227.010422 168.0
227.040405 152.0
227.0914 100.0
227.16188 112.0
227.253387 148.0
227.775757 204.0
227.823822 60.0
227.950027 220.0
228.109314 168.0
228.139374 144.0
228.160416 172.0
228.867477 132.0
228.951782 152.0
229.611801 44.0
229.850128 140.0
229.922562 184.0
229.982925 116.0
230.155106 1592.0
230.221436 140.0
230.28183 136.0
230.405685 144.0
230.478195 104.0
230.580948 92.0
230.971817 160.0
231.150665 384.0
231.358337 100.0
231.873276 96.0
231.933899 180.0
232.009689 48.0
232.155746 308.0
232.237106 56.0
232.671051 196.0
232.986908 192.0
233.035507 172.0
233.081085 156.0
233.102356 216.0
233.129715 104.0
233.424591 108.0
233.765289 272.0
233.932693 88.0
234.164215 236.0
234.642532 208.0
234.740097 164.0
235.109222 160.0
235.136688 112.0
235.173325 140.0
235.194687 100.0
235.432831 124.0
235.536682 136.0
235.579437 172.0
235.619156 236.0
235.661926 52.0
235.781113 200.0
235.836121 128.0
235.875854 128.0
235.964523 136.0
236.179108 1380.0
236.29483 80.0
236.346848 84.0
236.398865 40.0
236.463135 84.0
236.505692 176.0
236.597824 84.0
236.78154 36.0
236.81218 220.0
236.940826 108.0
236.99292 96.0
237.024826 180.0
237.130814 80.0
237.180679 332.0
237.228912 112.0
237.30249 40.0
237.360748 172.0
237.517151 160.0
237.685898 176.0
237.765686 180.0
237.805588 164.0
237.891525 152.0
237.940643 224.0
238.173645 176.0
238.309219 208.0
238.57045 116.0
238.622711 144.0
238.647308 156.0
238.671906 160.0
238.831833 52.0
239.318069 120.0
239.345779 84.0
239.453568 132.0
239.826385 100.0
240.205658 88.0
240.285858 184.0
240.421631 184.0
240.504974 136.0
240.563614 172.0
240.693298 192.0
240.731674 232.0
241.005264 144.0
241.045441 140.0
241.10495 2516.0
241.184509 172.0
241.335999 104.0
241.37619 136.0
241.765976 152.0
242.013611 168.0
242.113251 116.0
242.171555 64.0
242.242798 140.0
242.310959 252.0
242.332642 100.0
242.459686 156.0
242.534073 148.0
242.614685 148.0
242.763504 160.0
243.108765 340.0
243.171555 168.0
243.346863 108.0
243.551834 52.0
243.5905 116.0
243.641922 128.0
243.735123 136.0
243.772415 136.0
243.80661 64.0
243.856323 84.0
243.91539 56.0
243.962021 168.0
244.431671 100.0
245.163483 124.0
245.39415 128.0
245.575012 224.0
245.621796 200.0
245.830841 48.0
245.989807 120.0
246.099289 176.0
246.196091 128.0
246.317902 60.0
246.511612 92.0
246.649139 84.0
246.808578 184.0
246.927414 212.0
247.371735 124.0
247.750656 140.0
247.888519 200.0
247.96373 164.0
247.998215 40.0
248.070312 180.0
248.123047 112.0
248.36792 176.0
248.40271 104.0
248.534485 136.0
248.744751 124.0
249.028503 208.0
249.275696 168.0
249.41069 128.0
249.473557 152.0
249.539581 32.0
249.825775 228.0
249.872955 184.0
250.00177 128.0
250.080658 160.0
250.143295 176.0
250.323074 176.0
250.379761 144.0
250.54985 216.0
251.138947 192.0
251.163147 80.0
251.168961 132.0
251.291611 164.0
251.413452 104.0
251.494415 172.0
251.596893 100.0
251.865311 64.0
252.054871 164.0
252.176788 1828.0
252.263474 64.0
252.298248 152.0
252.401291 136.0
252.532242 164.0
252.699905 88.0
252.734711 112.0
252.763199 44.0
252.842316 92.0
252.892944 128.0
252.9151 52.0
252.946762 72.0
253.041733 148.0
253.070999 148.0
253.095566 140.0
253.139893 48.0
253.172714 304.0
253.21907 96.0
253.252472 116.0
253.298248 100.0
253.321808 72.0
253.377457 76.0
253.399628 148.0
253.421799 132.0
253.616974 192.0
253.629593 212.0
253.661606 112.0
253.738449 208.0
253.770462 236.0
253.821365 176.0
253.849182 216.0
253.892395 124.0
253.922668 272.0
253.981873 176.0
253.99379 132.0
254.00061 132.0
254.012497 232.0
254.029587 184.0
254.034103 176.0
254.066223 188.0
254.094376 436.0
254.137924 192.0
254.193069 136884.0
254.291763 196.0
254.356949 64.0
254.38121 104.0
254.393341 68.0
254.418777 256.0
254.463181 108.0
254.507019 132.0
254.548203 256.0
254.57576 220.0
254.625916 176.0
254.64827 76.0
254.669647 116.0
254.681244 188.0
254.68924 184.0
254.715546 756.0
254.754044 224.0
254.804276 100.0
254.82489 200.0
254.897705 60.0
254.922699 136.0
254.984116 136.0
255.016006 56.0
255.069138 192.0
255.088379 320.0
255.194107 23996.0
255.276184 144.0
255.324142 44.0
255.335144 84.0
255.367798 144.0
255.39006 160.0
255.423721 48.0
255.445969 136.0
255.503906 208.0
255.534119 88.0
255.546875 132.0
255.59816 68.0
255.650085 96.0
255.681381 112.0
255.707947 260.0
255.758606 68.0
255.803253 120.0
255.899582 148.0
255.960739 76.0
256.010315 184.0
256.045715 72.0
256.066376 60.0
256.090302 104.0
256.117828 88.0
256.190918 5704.0
256.278351 96.0
256.329254 52.0
256.363373 140.0
256.399445 144.0
256.484192 64.0
256.522552 96.0
256.532806 152.0
256.57666 352.0
256.642426 128.0
256.69104 136.0
256.725952 136.0
256.765991 120.0
256.795959 92.0
256.835602 92.0
256.861694 56.0
256.889893 184.0
256.895844 56.0
256.924683 96.0
256.957397 104.0
256.996216 92.0
257.02121 120.0
257.059601 116.0
257.08432 140.0
257.141693 116.0
257.195526 736.0
257.23822 72.0
257.273346 52.0
257.318024 192.0
257.349976 60.0
257.397858 76.0
257.421875 64.0
257.495148 112.0
257.570312 68.0
257.614899 88.0
257.636536 88.0
257.688538 88.0
257.725891 168.0
257.829132 84.0
257.876495 148.0
257.895905 36.0
257.963379 56.0
258.121887 152.0
258.155212 96.0
258.204163 52.0
258.340729 104.0
258.366333 44.0
258.404724 68.0
258.859222 48.0
258.952118 44.0
259.016174 92.0
259.0578 40.0
259.105865 32.0
259.128296 108.0
259.195587 40.0
259.2789 120.0
259.843262 80.0
259.949158 80.0
260.006927 48.0
260.157776 48.0
260.199524 72.0
260.437164 44.0
260.735962 232.0
260.957764 92.0
261.211823 68.0
261.514282 76.0
262.103638 36.0
262.229309 120.0
262.538818 84.0
262.642029 52.0
264.127899 172.0
264.186127 48.0
264.241119 64.0
264.328491 80.0
264.470886 40.0
265.139862 124.0
265.832092 88.0
266.132263 160.0
266.374298 96.0
266.569122 112.0
267.317169 68.0
267.590607 136.0
268.066162 56.0
268.134613 116.0
268.379089 176.0
268.59433 64.0
268.950012 132.0
269.227539 112.0
269.364716 96.0
269.479065 120.0
269.714355 76.0
269.854919 88.0
269.923584 56.0
270.142731 92.0
270.195068 56.0
270.964447 120.0
271.043091 96.0
271.567627 100.0
271.692261 152.0
272.250275 80.0
272.634644 64.0
272.697083 176.0
272.75296 164.0
273.078491 104.0
273.154144 136.0
273.233093 100.0
273.878326 68.0
274.342957 56.0
274.765076 88.0
274.986176 92.0
275.095093 40.0
275.537628 128.0
275.607025 108.0
276.059875 128.0
276.602509 60.0
277.079376 168.0
277.390869 64.0
277.908264 28.0
278.63205 100.0
280.829102 64.0
281.650208 68.0
282.20163 56.0
283.262512 108.0
283.43338 52.0
287.873749 140.0
288.225067 164.0
289.036591 96.0
289.774719 56.0
289.967896 200.0
290.171509 304.0
290.31369 60.0
290.673279 80.0
290.849762 168.0
290.927826 192.0
292.171661 112.0
293.121613 68.0
297.376038 104.0
298.509766 80.0
298.853729 112.0
299.804138 56.0
302.183289 140.0
305.809692 116.0
308.176361 436.0
308.908264 72.0
309.160187 152.0
309.429718 136.0
310.184418 188.0
310.754578 108.0
312.870331 180.0
315.230011 160.0
316.521179 84.0
317.446045 92.0
320.463898 120.0
322.215729 156.0
324.190887 120.0
324.918793 72.0
325.737305 136.0
326.053467 72.0
327.561096 172.0
329.758514 128.0
329.791046 112.0
330.727875 164.0
331.448578 108.0
332.053986 72.0
332.219025 3928.0
333.008514 144.0
333.213135 348.0
333.517212 40.0
333.728058 92.0
334.055389 100.0
334.218628 168.0
334.812469 160.0
334.856171 120.0
334.990936 88.0
335.213196 148.0
335.457397 76.0
336.165771 256.0
336.803894 84.0
336.939056 148.0
338.963257 108.0
339.116364 132.0
339.160339 124.0
340.029633 52.0
340.10672 68.0
341.775177 116.0
342.419403 60.0
343.226471 228.0
344.68454 132.0
344.865631 144.0
346.31604 52.0
346.482758 148.0
347.009033 44.0
347.183319 112.0
349.166504 180.0
349.196259 128.0
349.233459 244.0
349.326447 200.0
349.434326 164.0
349.480103 152.0
349.59433 232.0
349.627838 100.0
349.819489 188.0
349.851166 92.0
349.977753 52.0
350.014984 120.0
350.052216 100.0
350.104645 160.0
350.229034 21644.0
350.303497 52.0
350.37442 176.0
350.424713 40.0
350.454529 64.0
350.557159 96.0
350.638794 64.0
350.680603 120.0
350.71167 40.0
350.801392 112.0
350.920441 52.0
351.048401 112.0
351.08078 136.0
351.171509 108.0
351.231323 5436.0
351.313385 44.0
351.341858 56.0
351.393311 96.0
351.447174 88.0
351.543365 56.0
351.715027 56.0
351.79718 148.0
351.856903 124.0
351.977661 164.0
352.009979 60.0
352.231537 1692.0
352.385468 76.0
352.469452 52.0
352.652557 44.0
352.817047 64.0
352.843231 40.0
352.903046 108.0
353.179779 112.0
353.241028 260.0
353.269562 236.0
353.306976 68.0
353.41922 100.0
353.445404 92.0
353.583862 96.0
353.662476 136.0
353.709381 128.0
353.782257 64.0
353.928253 136.0
354.029388 40.0
354.775024 28.0
354.939972 40.0
356.832397 176.0
358.394379 96.0
358.541351 84.0
359.333221 44.0
362.494293 52.0
363.874969 64.0
363.985077 56.0
364.437103 92.0
364.858978 124.0
365.570251 96.0
366.838593 48.0
367.971649 64.0
370.0401 100.0
370.748749 68.0
375.871033 112.0
376.457764 44.0
382.299927 104.0
386.862762 84.0
387.011536 116.0
388.445953 36.0
390.468811 36.0
391.177063 76.0
391.838684 116.0
394.909882 136.0
395.11557 52.0
395.887421 96.0
396.679871 144.0
396.786896 100.0
398.93866 84.0
403.491486 112.0
403.583435 64.0
405.717438 80.0
405.881805 88.0
408.60907 60.0
408.798187 128.0
409.104065 52.0
413.362244 80.0
414.135498 96.0
416.630249 84.0
418.875824 120.0
419.641998 88.0
420.319092 116.0
425.632294 64.0
428.606293 48.0
440.054474 124.0
440.614136 96.0
441.399933 48.0
441.579773 48.0
441.935333 108.0
442.441772 96.0
442.818634 76.0
445.389801 136.0
448.562592 40.0
449.35965 116.0
450.892517 80.0
458.174042 56.0
458.216644 44.0
460.313232 136.0
461.037201 100.0
462.375793 124.0
469.404083 108.0
470.258301 100.0
470.897308 48.0
472.977051 56.0
473.708862 68.0
474.367554 48.0
478.790802 40.0
480.281433 40.0
480.700256 84.0
482.526062 76.0
487.461578 116.0
489.313354 68.0
489.564331 104.0
492.373627 56.0
493.646362 52.0
494.495789 68.0
497.683197 84.0
497.780884 80.0
500.912018 68.0
504.070831 80.0
507.620667 72.0
509.860809 152.0
510.332794 28.0
515.494019 48.0
515.561829 92.0
526.063293 108.0
538.447327 52.0
548.585999 48.0
548.702515 64.0
552.742798 96.0
553.964783 68.0
560.863037 124.0
564.758545 164.0
573.309326 40.0
583.235901 92.0
583.529175 52.0
585.82959 88.0
586.436768 92.0
587.541016 92.0
597.88147 44.0
598.928284 84.0
599.566528 40.0
601.219849 28.0
604.523438 88.0
626.297058 64.0
626.785339 76.0
627.488098 36.0
634.743286 52.0
639.183838 100.0
641.500671 72.0
641.687195 200.0
642.726196 64.0
646.445374 72.0
647.032532 72.0
647.422424 52.0
651.917175 56.0
662.976135 128.0
663.355408 56.0
663.586121 92.0
668.326904 124.0
685.743042 60.0
686.8797 48.0
690.400024 128.0
696.190979 112.0
696.348511 72.0
711.84906 56.0
713.879028 168.0
715.741516 68.0
722.429077 232.0
724.356262 144.0
731.670532 44.0
737.610046 64.0
739.542358 88.0
742.249939 172.0
744.268494 164.0
754.172791 56.0
763.119568 156.0
779.692322 80.0
794.248352 48.0
802.120728 140.0
809.369324 100.0
825.564758 224.0
827.441589 188.0
829.263184 48.0
829.601379 228.0
847.450684 108.0
850.268982 52.0
850.820435 96.0
854.947388 172.0
863.97998 188.0
864.272522 124.0
866.01709 184.0
867.646118 136.0
868.854309 64.0
871.243713 204.0
871.46698 116.0
872.219238 96.0
872.948242 132.0
878.956787 240.0
890.02002 72.0
894.038513 192.0
897.207336 32.0
897.821533 208.0
900.686401 76.0
909.272522 80.0
915.049316 180.0
916.320129 116.0
917.22406 136.0
918.948853 144.0
919.141968 60.0
922.850708 40.0
923.872803 156.0
927.057678 156.0
928.943359 28.0
929.11322 124.0
929.829224 88.0
933.285828 156.0
933.541199 100.0
934.204163 32.0
935.354309 80.0
936.334595 256.0
961.650574 168.0
962.45929 160.0
962.737183 216.0
963.44751 140.0
965.239929 176.0
966.303833 144.0
968.179443 164.0
971.677307 192.0
972.010559 156.0
973.183716 108.0
975.992188 72.0
976.42749 104.0
976.726074 172.0
980.667542 84.0
987.316772 28.0
991.342163 44.0
993.957092 76.0
994.107361 144.0
996.770325 140.0
996.839417 152.0
1000.235718 124.0
1002.251038 152.0
1004.779358 148.0
1008.441956 148.0
1008.795959 124.0
1019.209106 48.0
1020.779236 108.0
1022.465088 272.0
1022.592346 220.0
1025.828247 152.0
1028.469116 200.0
1028.59668 200.0
1028.839355 116.0
1031.599121 152.0
1032.25769 160.0
1039.291016 240.0
1041.916992 180.0
1043.47876 144.0
1043.787354 172.0
1044.771484 196.0
1048.783325 136.0
1050.143799 164.0
1050.33728 120.0
1051.014771 88.0
1052.111938 152.0
1052.318604 144.0
1054.521362 164.0
1057.483643 204.0
1063.187012 152.0
1063.881592 168.0
1064.77771 148.0
1064.940063 144.0
1066.590454 260.0
1069.960205 116.0
1071.008667 164.0
1072.396484 116.0
1074.22229 172.0
1076.591553 152.0
1077.545288 56.0
1078.87854 144.0
1079.584717 172.0
1080.938843 64.0
1084.396729 108.0
1085.871948 96.0
1088.799072 116.0
1089.311401 100.0
1091.519775 128.0
1092.907593 52.0
1094.210815 84.0
1094.849609 128.0
1096.81958 188.0
1100.157593 64.0
1100.65271 200.0
1105.88208 212.0
1106.6698 144.0
1107.047241 128.0
1107.650024 120.0
1108.226318 96.0
1108.89563 160.0
1109.392822 132.0
1110.095581 164.0
1110.155273 224.0
1111.568359 148.0
1112.995483 108.0
1114.177734 128.0
1115.573364 164.0
1116.570679 132.0
1118.074341 196.0
1118.932983 80.0
1120.111694 204.0
1122.671143 188.0
1122.737793 212.0
1123.778442 144.0
1126.13501 76.0
1126.809692 40.0
1127.096924 224.0
1128.400391 192.0
1128.480591 140.0
1132.448975 196.0
1133.326538 152.0
1133.413696 116.0
1134.459229 164.0
1135.143066 164.0
1137.061768 160.0
1139.768066 152.0
1140.245239 132.0
1140.964478 200.0
1142.01355 120.0
1144.847046 232.0
1144.968262 196.0
1148.897949 124.0
1149.201538 108.0
1156.168457 84.0
1156.358032 152.0
1156.418945 156.0
1159.67688 208.0
1165.411255 44.0
1165.518188 252.0
1166.559814 196.0
1166.89978 104.0
1167.71582 124.0
1168.450439 68.0
1169.396362 44.0
1169.512085 60.0
1171.507202 120.0
1172.025024 192.0
1172.95874 160.0
1173.210938 144.0
1173.920044 168.0
1173.988281 28.0
1174.793091 148.0
1175.120605 108.0
1176.294434 168.0
1176.369507 148.0
1177.441528 140.0
1177.523438 108.0
1178.302246 140.0
1178.548218 84.0
1178.773682 136.0
1180.640015 172.0
1181.255493 172.0
1181.317139 200.0
1183.733154 88.0
1184.692017 136.0
1185.315552 92.0
1185.747314 200.0
1186.549316 76.0
1186.734497 72.0
1187.226685 188.0
1190.432983 112.0
1193.539062 100.0
1193.985962 128.0
1194.907715 196.0
1197.544312 172.0
1198.322754 168.0
1198.922241 148.0
1200.280273 148.0
1200.459595 212.0
1200.907837 152.0
1200.983765 120.0
1201.521851 176.0
1202.004761 244.0
1202.75708 128.0
1203.081543 152.0
1203.316284 228.0
1203.744385 172.0
1205.595703 156.0
1206.611816 132.0
1207.822021 148.0
1208.078003 124.0
1208.389282 60.0
1208.617676 80.0
1209.371948 132.0
1209.66272 40.0
1210.105835 156.0
1211.733398 180.0
1212.509521 132.0
1214.638184 140.0
1215.130737 208.0
1217.167603 180.0
1218.331299 180.0
1220.026978 68.0
1220.736206 136.0
1221.438721 124.0
1223.749146 164.0
1224.445557 136.0
1225.316284 36.0
1227.92334 92.0
1228.258179 180.0
1230.163208 164.0
1230.365601 172.0
1231.259399 180.0
1233.16687 156.0
1234.656006 136.0
1235.978149 64.0
1236.111084 220.0
1238.28833 124.0
1239.002808 216.0
1240.467529 156.0
1240.937256 200.0
1241.280884 148.0
1241.947144 92.0
1243.083618 124.0
1243.399414 196.0
1245.098511 156.0
1247.255493 144.0
1248.471802 140.0
1251.413208 176.0
1251.913208 172.0
1252.103394 140.0
1252.244141 184.0
1253.568726 148.0
1255.613159 60.0
1256.255005 116.0
1257.129883 204.0
1257.242798 156.0
1258.033325 196.0
1258.336914 168.0
1258.457031 244.0
1258.838257 136.0
1259.466919 168.0
1259.728271 196.0
1260.222778 196.0
1261.494873 48.0
1261.890869 48.0
1264.578979 60.0
1264.720581 48.0
1266.108276 124.0
1266.171997 36.0
1266.391602 176.0
1267.32666 136.0
1267.610107 52.0
1267.69519 128.0
1270.595215 172.0
1271.084839 92.0
1271.233887 192.0
1271.318848 176.0
1272.987305 168.0
1274.386597 168.0
1276.184814 232.0
1277.109375 36.0
1277.465088 184.0
1277.763794 128.0
1278.133789 60.0
1278.261963 136.0
1279.308228 204.0
1279.386475 204.0
1279.678345 164.0
1280.305054 168.0
1282.150269 204.0
1283.889771 184.0
1284.167969 208.0
1286.494141 148.0
1286.794067 180.0
1286.901123 132.0
1287.299683 152.0
1289.644287 248.0
1289.858765 176.0
1290.423584 116.0
1290.90979 156.0
1290.976807 128.0
1291.660767 176.0
1291.975586 144.0
1293.027344 148.0
1293.242065 168.0
1293.571411 116.0
1294.183716 156.0
1295.669678 144.0
1297.217651 156.0
1297.382568 176.0
1298.121094 164.0
1298.859741 112.0
1299.261475 112.0
1301.608521 132.0
1302.499146 148.0
1303.555298 192.0
1304.194946 40.0
1304.978516 64.0
1305.438721 100.0
1306.02124 188.0
1306.172363 172.0
1307.784058 124.0
1307.942505 172.0
1308.359985 224.0
1308.468018 280.0
1308.943237 208.0
1309.281738 172.0
1309.505005 152.0
1309.994751 68.0
1310.455811 168.0
1310.780151 156.0
1311.731445 148.0
1312.026978 152.0
1312.517334 236.0
1312.798584 196.0
1313.130249 84.0
1314.731934 172.0
1316.515137 188.0
1318.610229 164.0
1319.25354 64.0
1319.665649 152.0
1319.860962 212.0
1320.475586 156.0
1321.930298 216.0
1322.972046 140.0
1323.688843 116.0
1323.978516 132.0
1324.644897 120.0
1325.572266 104.0
1326.550781 192.0
1327.137939 164.0
1329.69873 188.0
1331.36853 176.0
1331.550171 176.0
1332.029541 144.0
1332.153076 144.0
1332.944946 184.0
1333.039429 140.0
1333.097534 176.0
1333.228394 200.0
1335.933228 144.0
1336.369751 204.0
1337.38855 196.0
1337.687012 192.0
1338.80835 76.0
1339.17981 240.0
1339.303589 204.0
1339.645996 52.0
1340.411011 212.0
1340.964844 104.0
1341.322021 64.0
1341.825073 36.0
1342.364624 76.0
1342.736572 248.0
1343.22522 164.0
1344.078857 180.0
1344.188354 152.0
1344.385376 176.0
1344.845093 112.0
1345.487549 204.0
1345.823364 164.0
1345.976685 128.0
1346.473267 196.0
1346.977295 132.0
1347.328003 240.0
1347.751709 144.0
1347.956299 176.0
1349.103882 44.0
1349.718018 132.0
1350.012451 104.0
1351.703613 108.0
1351.780884 116.0
1352.102783 92.0
1352.359009 120.0
1352.483398 120.0
1353.654907 72.0
1353.88916 196.0
1354.108887 200.0
1354.335938 164.0
1354.526367 148.0
1355.478882 104.0
1355.823242 156.0
1356.021118 92.0
1356.812866 200.0
1359.87915 204.0
1360.5177 196.0
1361.545776 184.0
1361.979126 196.0
1362.559448 164.0
1362.647583 208.0
1363.720459 176.0
1364.551147 72.0
1365.882324 100.0
1366.595947 96.0
1369.297607 220.0
1370.299438 164.0
1370.505737 184.0
1370.933105 156.0
1373.174316 128.0
1373.911987 200.0
1374.007935 124.0
1374.153076 184.0
1374.908081 156.0
1375.181152 120.0
1375.542847 116.0
1375.653564 144.0
1376.288574 180.0
1376.613403 184.0
1376.731567 168.0
1377.21167 124.0
1377.780518 160.0
1378.667236 140.0
1379.317627 248.0
1379.391479 208.0
1379.702026 132.0
1380.574585 180.0
1381.550903 104.0
1382.335205 120.0
1382.675659 144.0
1383.178955 244.0
1383.904419 124.0
1384.296875 160.0
1386.215576 180.0
1386.296997 108.0
1386.734253 40.0
1387.579346 220.0
1387.646118 160.0
1390.643066 228.0
1391.533936 112.0
1391.778931 116.0
1393.650757 172.0
1393.880371 208.0
1394.334473 128.0
1394.899292 164.0
1395.456909 184.0
1396.564941 188.0
1397.094238 176.0
1397.822266 240.0
1398.194824 168.0
1399.214111 120.0
1401.329346 164.0
1401.619995 168.0
1402.231079 168.0
1402.312988 156.0
1403.490845 128.0
1403.699707 180.0
1404.922852 116.0
1404.982544 248.0
1405.474976 172.0
1405.952637 240.0
1406.594482 160.0
1407.109619 100.0
1407.520264 228.0
1407.878784 44.0
1408.715332 68.0
1408.9021 136.0
1410.463867 136.0
1411.36853 144.0
1411.562988 168.0
1413.171143 164.0
1413.305786 144.0
1413.807129 204.0
1414.17395 160.0
1415.963379 144.0
1416.218018 164.0
1416.757324 100.0
1417.364258 104.0
1417.536621 132.0
1419.035767 204.0
1419.845581 236.0
1420.378174 180.0
1420.693237 56.0
1422.580566 196.0
1422.749512 184.0
1423.237549 32.0
1423.320068 88.0
1423.560425 108.0
1424.687134 88.0
1425.355835 200.0
1425.618774 144.0
1425.949463 148.0
1426.092285 68.0
1426.618408 148.0
1426.678589 152.0
1427.316772 160.0
1427.550781 124.0
1427.701172 192.0
1428.287842 60.0
1428.460938 180.0
1428.60376 164.0
1429.371216 168.0
1429.755005 168.0
1429.86792 152.0
1429.920654 164.0
1430.199097 152.0
1430.424927 72.0
1431.094971 36.0
1431.155273 176.0
1431.607056 168.0
1431.848022 200.0
1432.782104 232.0
1433.075928 44.0
1433.603394 124.0
1434.161133 188.0
1434.862183 192.0
1435.36731 92.0
1436.521362 224.0
1437.539917 64.0
1438.113525 116.0
1439.17041 32.0
1439.42627 112.0
1439.630981 228.0
1439.985962 88.0
1440.735718 176.0
1440.860107 172.0
1441.746338 220.0
1442.116699 120.0
1442.52478 180.0
1443.016235 176.0
1444.642212 156.0
1445.444214 216.0
1446.231323 132.0
1446.587158 112.0
1446.776367 160.0
1447.578979 188.0
1448.487793 208.0
1448.70752 196.0
1448.927246 136.0
1449.033325 212.0
1449.154541 172.0
1449.879395 128.0
1450.124512 184.0
1451.269165 116.0
1451.367798 224.0
1452.027588 124.0
1452.247559 84.0
1452.376221 148.0
1452.679932 124.0
1453.051636 176.0
1453.537231 144.0
1454.235474 172.0
1454.417603 188.0
1455.434937 200.0
1456.255127 168.0
1456.726074 168.0
1457.029907 152.0
1457.288208 140.0
1457.804932 144.0
1457.949341 84.0
1458.052124 136.0
1458.625854 144.0
1459.081909 40.0
1459.492554 72.0
1460.339478 180.0
1460.739746 116.0
1461.150635 172.0
1461.652832 60.0
1462.002808 108.0
1462.57605 164.0
1463.654785 236.0
1464.005005 68.0
1464.111694 156.0
1464.835205 152.0
1465.307617 156.0
1465.67334 148.0
1465.749512 196.0
1465.962891 180.0
1466.296753 172.0
1466.618286 184.0
1466.68689 180.0
1467.578857 148.0
1468.005981 168.0
1468.158447 212.0
1468.402466 152.0
1469.882446 160.0
1470.53125 128.0
1470.821289 148.0
1471.538818 112.0
1472.035156 184.0
1472.165039 140.0
1472.95166 156.0
1473.035767 172.0
1473.394775 160.0
1474.105347 188.0
1474.265869 112.0
1475.07605 124.0
1475.588257 156.0
1475.932251 100.0
1476.551758 104.0
1476.758301 172.0
1477.500244 176.0
1478.204224 164.0
1478.862427 148.0
1479.199219 124.0
1479.268066 144.0
1479.344604 260.0
1480.447144 204.0
1481.496582 116.0
1482.124756 144.0
1484.754272 216.0
1485.046997 112.0
1485.183716 108.0
1485.713013 168.0
1485.958496 140.0
1486.257812 152.0
1486.434326 184.0
1486.587769 232.0
1486.64917 128.0
1487.125 152.0
1487.362915 72.0
1487.577881 152.0
1488.192017 184.0
1488.353271 72.0
1488.93689 192.0
1490.995972 100.0
1491.341797 200.0
1491.40332 112.0
1491.741455 260.0
1491.83374 68.0
1492.456543 96.0
1492.717163 168.0
1492.97937 48.0
1493.133179 172.0
1493.233154 152.0
1493.356323 120.0
1493.487061 216.0
1494.494873 168.0
1495.721436 160.0
1495.903198 180.0
1496.988892 180.0
1497.127441 152.0
1498.437012 172.0
1498.768311 132.0
1499.789673 204.0
1500.926636 108.0
1501.258179 164.0
1501.605225 160.0
1501.65918 52.0
1502.117432 140.0
1502.939819 184.0
1503.279297 112.0
1503.371948 144.0
1503.99707 132.0
1504.390747 108.0
1504.846313 96.0
1505.325073 76.0
