>compound Glipizide
>formula C21H27N5O4S 
>ionization [M+H]+
>parentmass 446.185
#inchi InChI=1S/C21H27N5O4S/c1-15-13-24-19(14-23-15)20(27)22-12-11-16-7-9-18(10-8-16)31(29,30)26-21(28)25-17-5-3-2-4-6-17/h7-10,13-14,17H,2-6,11-12H2,1H3,(H,22,27)(H2,25,26,28)
#inchikey ZJJXGWJIGJFDTL
#Ion_Source LC-ESI
#Instrument qTof
#Compound_Source Isolated
#PI Sirenas
#Data_Collector Ed Esquenazi 
#Scan -1
#Precursor_MZ 446.185
#ExactMass 0.0
#Charge 1
#CAS_Number N/A
#Pubmed_ID N/A
#Smiles N/A
#INCHI_AUX N/A
#Library_Class 3
#SpectrumID CCMSLIB00000006567
#IonMode Positive
#UpdateWorkflowName UPDATE-SINGLE-ANNOTATED-BRONZE
#LibraryQualityString Bronze
#TaskID d19310cd93df49b68e9fcbec27720eb5
##Scan# 15
#SpectrumFile Glipizide.mgf
#LibraryName fda_library.mgf
#MQScore -1
#Organism fda_library
#TIC_Query 0
#RT_Query -1
#MZErrorPPM -1
#SharedPeaks 0
#MassDiff 0
#LibMZ -1
#SpecMZ 446.185
#SpecCharge 0
#internalFilename spec-00000.mgf

>collision 10
100.112473 55.325562
103.054092 607.938721
107.052963 53.471371
111.056923 66.386673
118.065117 166.120499
120.574852 16.989031
121.006737 39.686871
121.038956 144.968399
121.257172 21.025
121.397278 12.96429
131.061722 61.70155
132.960312 85.156326
148.024033 68.815262
149.001419 24.82424
150.066238 43.19577
160.103058 26.52907
166.03154 146.388306
167.012558 221.871201
167.021286 83.968803
167.194946 15.69207
183.087799 66.445511
184.045151 69.548317
210.022461 72.053093
211.080673 49.434521
216.980637 14.93426
222.107178 40.138
223.088913 107.534401
224.803101 13.56019
238.093048 39.000641
256.106842 11.9616
286.064453 93.903038
341.162506 12.97663
389.832977 30.410259
