>compound 15687-27-1
>formula C13H18O2 
>ionization [M+H]+
>parentmass 207.138
#inchi InChI=1S/C13H18O2/c1-9(2)8-11-4-6-12(7-5-11)10(3)13(14)15/h4-7,9-10H,8H2,1-3H3,(H,14,15)
#inchikey HEFNNWSXXWATRW
#Ion_Source LC-ESI
#Instrument qTof
#Compound_Source Commercial
#PI Dorrestein
#Data_Collector Garg_Neha
#Scan -1
#Precursor_MZ 207.138
#ExactMass 206.131
#Charge 1
#CAS_Number N/A
#Pubmed_ID N/A
#Smiles N/A
#INCHI_AUX N/A
#Library_Class 1
#SpectrumID CCMSLIB00000076982
#IonMode Positive
#UpdateWorkflowName UPDATE-SINGLE-ANNOTATED-GOLD
#LibraryQualityString Gold
#TaskID 48f7f52fc6d249b5abbcc6e7b3df5969
##Scan# 2033
#SpectrumFile NCP002928_C2_D11_BA3_01_15697.mzXML
#LibraryName NIH_Clinical_Collection_2.mgf
#MQScore -1
#Organism NIHcollection2_04212014_2_mgf
#TIC_Query 0
#RT_Query -1
#MZErrorPPM -1
#SharedPeaks 0
#MassDiff 0
#LibMZ -1
#SpecMZ 207.138
#SpecCharge 0
#internalFilename spec-00000.mgf

>collision 10
47.406307 168.0
52.358578 216.0
74.035347 224.0
75.640053 204.0
76.860107 140.0
88.515625 172.0
91.052132 164.0
105.069801 588.0
106.953606 172.0
117.071556 168.0
118.075218 192.0
119.084602 1304.0
120.087204 300.0
121.673912 144.0
129.714935 200.0
146.342346 200.0
151.07753 140.0
153.891617 156.0
160.796783 236.0
161.013916 180.0
161.132309 7504.0
162.135071 776.0
163.143326 208.0
163.284744 144.0
171.06102 228.0
185.922058 152.0
1384.143066 144.0
1771.887573 236.0
1883.771118 240.0
1965.574341 172.0
1971.455566 176.0
2001.803711 160.0
