>compound Ifosfamide
>formula C7H15Cl2N2O2P
>ionization [M+H]+
>parentmass 261.033051
#inchi InChI=1S/C7H15Cl2N2O2P/c8-2-4-10-14(12)11(6-3-9)5-1-7-13-14/h1-7H2,(H,10,12)
#inchikey HOMGKSMUEGBAAB
#Ion_Source LC-ESI
#Instrument qTof
#Compound_Source Commercial
#PI Dorrestein
#Data_Collector Garg_Neha
#Scan -1
#Precursor_MZ 261.032
#ExactMass 260.025
#Charge 1
#CAS_Number 3778-73-2, 36341-88-5, 84711-20-6
#Pubmed_ID N/A
#Smiles C1COP(N(C1)CCCl)(NCCCl)=O
#INCHI_AUX N/A
#Library_Class 1
#SpectrumID CCMSLIB00000078094
#IonMode Positive
#UpdateWorkflowName UPDATE-SINGLE-ANNOTATED-GOLD
#LibraryQualityString Gold
#TaskID 77f51c88eb8b467eb4a01dd2d0cb90d2
##Scan# 1125
#SpectrumFile Plate2_1_20_GG5_01_16493.mzXML
#LibraryName FDALibrary_2_04302014.mgf
#MQScore -1
#Organism FDALibrary_2_04302014
#TIC_Query 0
#RT_Query -1
#MZErrorPPM -1
#SharedPeaks 0
#MassDiff 0
#LibMZ -1
#SpecMZ 261.032
#SpecCharge 0
#internalFilename spec-00000.mgf

>collision 10
45.159458 140.0
45.544144 152.0
46.307571 248.0
47.390594 212.0
47.512619 144.0
47.685638 160.0
47.731003 152.0
48.964062 172.0
49.353401 220.0
50.04937 144.0
50.853771 140.0
51.313255 180.0
51.403118 188.0
51.540199 224.0
52.117653 176.0
52.163643 160.0
52.678093 172.0
53.439228 196.0
53.449413 164.0
53.897068 204.0
55.325905 196.0
55.486717 144.0
55.600933 140.0
55.652889 140.0
55.718243 144.0
55.901131 160.0
56.411224 152.0
57.802471 156.0
57.909962 228.0
58.064556 176.0
58.74905 188.0
58.975048 192.0
59.022438 160.0
59.908028 188.0
60.201084 172.0
60.784691 224.0
61.076771 144.0
61.188816 216.0
61.522449 184.0
61.669285 180.0
61.878902 212.0
62.379356 188.0
62.624828 160.0
62.997097 208.0
63.281773 176.0
63.703632 140.0
63.716343 220.0
64.60434 152.0
64.88781 156.0
65.231369 156.0
65.287643 140.0
65.33429 228.0
66.205917 168.0
66.442574 172.0
66.840652 140.0
67.306847 204.0
68.265472 196.0
69.506058 184.0
70.111374 180.0
70.895393 184.0
72.978249 192.0
73.274399 152.0
74.289917 220.0
74.815788 228.0
76.058716 192.0
76.395836 200.0
77.401154 148.0
77.992386 144.0
80.103462 152.0
81.301414 196.0
82.042488 224.0
82.284241 152.0
82.91011 220.0
84.926636 228.0
85.185455 252.0
85.584549 176.0
86.954391 204.0
87.358459 252.0
87.700226 140.0
88.129456 180.0
88.770134 224.0
89.237183 140.0
92.027351 1588.0
92.286125 164.0
92.71875 172.0
93.427284 160.0
93.71801 204.0
94.024338 448.0
94.509666 144.0
95.11821 148.0
95.415436 200.0
95.60022 208.0
96.581596 168.0
96.99868 160.0
97.467743 224.0
98.140923 192.0
98.330299 184.0
99.951378 172.0
100.734917 148.0
100.990776 184.0
101.273003 220.0
102.948341 148.0
103.077629 164.0
103.204971 172.0
103.644211 196.0
104.594681 164.0
105.008301 156.0
106.003922 164.0
106.475769 192.0
107.105148 200.0
107.193741 196.0
107.478302 160.0
107.897583 156.0
108.282471 180.0
108.960785 184.0
109.605797 152.0
110.025024 156.0
110.719238 204.0
111.453461 144.0
111.749931 156.0
112.299751 180.0
112.382027 148.0
112.413681 184.0
112.681839 156.0
113.244545 148.0
113.781044 164.0
114.985863 208.0
115.210075 172.0
115.415253 144.0
115.526466 144.0
115.618477 168.0
116.027603 176.0
116.10051 216.0
116.117661 208.0
116.949516 524.0
117.962982 344.0
118.003105 208.0
118.042221 324.0
118.413673 200.0
118.709961 184.0
118.952957 308.0
119.005066 160.0
119.026779 160.0
119.276627 144.0
119.441887 168.0
120.02684 272.0
120.057877 1388.0
120.507942 208.0
120.779022 192.0
121.059166 200.0
121.313332 176.0
121.631409 152.0
122.05658 160.0
122.220398 176.0
122.367874 144.0
122.790962 152.0
123.186073 212.0
123.482262 160.0
123.927216 140.0
124.019249 136.0
124.284203 148.0
125.873535 188.0
125.949219 748.0
126.255669 224.0
126.969116 244.0
127.871025 160.0
127.96624 476.0
128.025986 828.0
128.25618 184.0
129.959106 192.0
130.998093 140.0
133.159683 140.0
133.187241 144.0
133.621719 168.0
134.495117 216.0
134.719116 184.0
135.547424 196.0
135.609985 196.0
135.772278 176.0
135.961472 132.0
136.016586 308.0
136.62941 172.0
136.913391 172.0
136.973938 140.0
137.034515 144.0
137.428558 232.0
137.545242 160.0
137.806808 200.0
138.038208 220.0
138.150482 140.0
138.663284 196.0
138.902451 148.0
139.978882 148.0
140.989685 208.0
141.163498 212.0
141.392975 192.0
141.979614 680.0
142.60968 196.0
142.993759 112.0
143.588242 160.0
143.726608 244.0
143.973663 316.0
144.290283 180.0
145.577011 200.0
145.759567 208.0
146.034058 856.0
146.34407 192.0
146.985443 140.0
147.040741 140.0
147.465836 160.0
147.964142 168.0
149.359528 168.0
149.400803 224.0
150.399994 160.0
150.722366 192.0
150.803009 192.0
151.010834 184.0
152.11348 176.0
153.084656 152.0
153.311295 156.0
153.705856 180.0
153.982101 8584.0
154.066986 136.0
154.93222 204.0
154.949554 164.0
154.980072 420.0
155.738419 160.0
155.978241 2380.0
156.039062 144.0
156.795837 172.0
157.809326 144.0
157.859344 156.0
158.01442 140.0
158.10701 228.0
158.169586 144.0
158.382416 156.0
159.473907 200.0
162.167038 216.0
163.200256 168.0
164.042969 312.0
164.983582 176.0
166.157928 148.0
166.427429 192.0
167.91861 172.0
168.033508 244.0
168.880829 160.0
171.459015 172.0
172.011978 176.0
172.989639 144.0
173.117935 204.0
173.594879 140.0
173.79686 164.0
176.110931 156.0
176.219238 184.0
176.367233 140.0
177.074875 208.0
177.489746 180.0
177.985947 208.0
178.118729 212.0
178.339279 140.0
178.719574 180.0
179.678741 260.0
179.740112 188.0
180.578964 240.0
180.720749 164.0
181.779175 224.0
182.013672 4368.0
183.018372 504.0
183.134171 216.0
183.937698 220.0
184.009796 652.0
185.019028 172.0
185.528351 156.0
185.65036 160.0
185.994934 208.0
186.125259 180.0
186.206726 224.0
186.380585 192.0
186.976135 160.0
187.40094 200.0
187.618973 208.0
188.899765 316.0
190.547409 144.0
191.95668 144.0
192.389877 140.0
192.657745 200.0
193.014297 164.0
193.362869 204.0
196.402542 236.0
198.808685 168.0
200.02449 1012.0
201.022308 180.0
202.020081 388.0
202.890244 188.0
203.307205 184.0
203.934875 212.0
204.389893 212.0
204.751434 192.0
205.846527 164.0
207.124969 176.0
207.199448 248.0
207.729797 152.0
208.407349 180.0
209.624542 140.0
209.826309 172.0
210.984009 156.0
211.365799 156.0
211.49025 192.0
212.333389 164.0
212.481323 176.0
213.108459 200.0
214.20816 160.0
214.744492 192.0
215.117996 196.0
215.141342 148.0
215.728546 188.0
216.509781 172.0
216.735352 164.0
218.276413 196.0
218.352875 216.0
220.833328 156.0
220.978271 192.0
221.955719 152.0
222.003174 160.0
223.055878 208.0
223.675919 220.0
226.153412 160.0
226.746445 176.0
227.616425 180.0
227.718536 192.0
228.427902 184.0
228.650574 160.0
230.354172 164.0
231.173538 192.0
231.243149 212.0
231.906464 156.0
232.87738 156.0
232.958206 160.0
233.000412 5588.0
233.707306 192.0
234.007431 412.0
234.450333 248.0
234.910736 168.0
234.951416 156.0
234.998093 3616.0
236.002945 328.0
236.616028 180.0
237.280853 176.0
237.651978 180.0
237.952759 184.0
239.53656 200.0
240.134537 236.0
240.946396 144.0
241.929855 180.0
242.022736 200.0
242.100159 208.0
242.227142 188.0
243.738068 160.0
244.260376 228.0
244.589111 180.0
245.01062 228.0
245.266159 144.0
245.546768 220.0
247.221313 204.0
248.23317 144.0
251.391556 160.0
252.570023 236.0
252.946579 172.0
256.504364 184.0
257.183777 160.0
257.273163 144.0
258.289368 164.0
259.070435 204.0
259.142761 148.0
259.426178 160.0
259.677643 112.0
260.164032 156.0
260.391296 316.0
260.703644 200.0
260.817261 180.0
260.841827 156.0
260.873993 184.0
260.911133 144.0
260.94165 200.0
261.033051 61484.0
261.128876 168.0
261.158081 180.0
261.179565 260.0
261.339325 132.0
261.373871 104.0
261.405884 108.0
261.54306 132.0
261.755035 200.0
261.957581 144.0
262.035156 3624.0
262.112823 120.0
262.163269 128.0
262.196899 268.0
262.503174 196.0
262.833191 128.0
262.865875 172.0
262.945129 180.0
262.966309 180.0
263.029541 25428.0
263.133026 136.0
263.398407 116.0
263.51886 120.0
263.561005 124.0
263.641541 108.0
263.706726 100.0
263.805878 100.0
263.856354 136.0
264.030548 1316.0
264.256622 108.0
264.758087 100.0
265.023804 136.0
265.360107 176.0
265.905914 152.0
275.035492 140.0
1025.704834 168.0
1080.000732 224.0
1214.843018 152.0
1226.100342 144.0
1238.067749 148.0
1294.806274 144.0
1444.569336 156.0
1458.104004 152.0
1464.906494 176.0
1487.02771 172.0
1488.225342 204.0
1494.381958 204.0
1644.193359 176.0
1684.57312 200.0
1692.309814 180.0
1734.515869 172.0
1741.219971 232.0
1774.750488 140.0
1777.040283 204.0
1780.910278 208.0
1782.044434 228.0
1830.547363 160.0
1877.001709 160.0
1888.141846 148.0
1900.798584 148.0
1909.077271 172.0
1915.395996 172.0
1924.361206 168.0
1940.056641 212.0
1950.775513 252.0
1959.946289 228.0
1975.998291 160.0
1982.382446 172.0
2000.768799 164.0
