>compound 6ALPHA-METHYL-11BETA-HYDROXYPROGESTERONE
>formula C22H32O3 
>ionization [M+H]+
>parentmass 345.243225
#inchi InChI=1S/C22H32O3/c1-12-9-15-17-6-5-16(13(2)23)22(17,4)11-19(25)20(15)21(3)8-7-14(24)10-18(12)21/h10,12,15-17,19-20,25H,5-9,11H2,1-4H3/t12-,15-,16+,17-,19-,20+,21-,22+/m0/s1
#inchikey GZENKSODFLBBHQ
#Ion_Source LC-ESI
#Instrument qTof
#Compound_Source Commercial
#PI Dorrestein
#Data_Collector Garg_Neha
#Scan -1
#Precursor_MZ 345.244
#ExactMass 344.235
#Charge 1
#CAS_Number N/A
#Pubmed_ID N/A
#Smiles N/A
#INCHI_AUX N/A
#Library_Class 1
#SpectrumID CCMSLIB00000077031
#IonMode Positive
#UpdateWorkflowName UPDATE-SINGLE-ANNOTATED-GOLD
#LibraryQualityString Gold
#TaskID 48f7f52fc6d249b5abbcc6e7b3df5969
##Scan# 1729
#SpectrumFile NCP003017_A2_B11_BA6_01_15701.mzXML
#LibraryName NIH_Clinical_Collection_2.mgf
#MQScore -1
#Organism NIHcollection2_04212014_2_mgf
#TIC_Query 0
#RT_Query -1
#MZErrorPPM -1
#SharedPeaks 0
#MassDiff 0
#LibMZ -1
#SpecMZ 345.244
#SpecCharge 0
#internalFilename spec-00000.mgf

>collision 10
45.175694 188.0
45.583286 200.0
47.233341 192.0
48.493252 168.0
48.921085 172.0
51.740627 144.0
51.833729 212.0
53.294022 176.0
53.695805 164.0
54.920525 148.0
58.83622 168.0
63.142685 176.0
66.065254 148.0
66.783859 144.0
67.280876 152.0
72.024254 152.0
72.715065 184.0
73.502998 148.0
79.717445 208.0
82.239166 140.0
83.507477 144.0
88.645912 192.0
89.41024 140.0
89.500595 140.0
90.505119 160.0
91.056961 176.0
92.523331 160.0
92.650398 172.0
93.05632 164.0
94.455444 144.0
95.137558 156.0
97.06498 1548.0
97.088791 140.0
98.069122 128.0
98.713463 216.0
99.043648 144.0
99.202507 192.0
99.800095 168.0
103.006958 216.0
104.242668 172.0
104.610802 152.0
105.070923 472.0
106.613228 152.0
107.083458 776.0
108.089737 312.0
109.070656 152.0
109.102577 500.0
111.079666 112.0
113.100296 212.0
113.57917 240.0
113.823235 156.0
115.05175 152.0
116.826202 204.0
117.069023 148.0
117.861084 156.0
118.297966 168.0
119.085899 684.0
121.063423 184.0
121.101997 468.0
121.958321 172.0
122.105629 152.0
122.715607 372.0
123.081169 1096.0
124.080856 140.0
124.297112 144.0
124.576859 196.0
128.060013 124.0
128.643707 188.0
129.07196 136.0
131.086182 620.0
132.085938 160.0
132.475601 164.0
133.101471 832.0
134.107437 176.0
134.776321 204.0
135.080872 4488.0
135.115875 540.0
136.084427 524.0
136.528809 200.0
137.058563 324.0
137.095566 2520.0
137.493301 236.0
137.958115 184.0
138.096191 580.0
138.915909 184.0
139.016037 112.0
139.110687 132.0
141.56514 164.0
142.07962 140.0
143.085022 604.0
144.093887 140.0
145.061386 196.0
145.100555 760.0
145.137161 228.0
146.101578 156.0
147.077835 628.0
147.117432 752.0
149.098114 512.0
149.130798 324.0
150.097946 312.0
151.111832 436.0
153.078903 252.0
153.613739 148.0
154.080048 148.0
155.086487 444.0
156.095123 132.0
157.102127 728.0
157.146561 168.0
157.286316 160.0
158.07608 156.0
158.10611 144.0
159.066055 172.0
159.116013 1260.0
159.98613 208.0
160.089081 168.0
160.123016 264.0
160.787674 148.0
160.908844 152.0
161.096313 832.0
161.132675 884.0
162.097641 144.0
163.112244 376.0
163.1492 292.0
164.110031 256.0
167.085281 176.0
169.100891 420.0
169.845886 140.0
170.110565 188.0
170.52356 184.0
171.119598 608.0
172.124069 196.0
173.09288 124.0
173.132263 1248.0
173.890167 176.0
174.104187 176.0
174.137314 288.0
175.112091 840.0
175.149796 248.0
176.151184 184.0
176.916229 168.0
177.097198 152.0
177.127808 1160.0
177.165161 152.0
177.194305 160.0
178.130859 124.0
178.189301 144.0
179.086517 180.0
181.105301 188.0
182.108093 296.0
183.119446 476.0
184.121078 136.0
185.098587 140.0
185.132614 496.0
186.136551 292.0
186.520523 148.0
187.111771 524.0
187.148163 704.0
188.119217 104.0
189.126068 1540.0
189.162628 324.0
189.399261 148.0
190.133743 268.0
190.169739 176.0
191.1427 812.0
191.172867 180.0
191.966232 144.0
192.087585 156.0
192.145523 360.0
192.410477 144.0
193.157867 316.0
195.119522 204.0
196.010681 144.0
197.093338 172.0
197.130997 348.0
198.143753 112.0
198.341507 140.0
199.109238 244.0
199.147293 660.0
201.129089 332.0
201.165634 428.0
201.256073 152.0
202.160629 140.0
203.141602 660.0
203.316879 192.0
204.14949 136.0
204.189056 144.0
205.157944 280.0
208.730377 152.0
209.130569 428.0
210.139618 140.0
211.115585 176.0
211.147446 848.0
212.153458 136.0
212.769684 156.0
212.885834 208.0
213.125107 232.0
213.165558 688.0
214.005325 140.0
214.172089 204.0
215.144028 440.0
215.174118 160.0
215.618484 156.0
216.146362 328.0
217.162384 320.0
217.586914 156.0
218.165665 492.0
218.682922 132.0
219.174622 416.0
219.732422 140.0
219.90062 148.0
220.175201 156.0
221.136063 160.0
222.140182 152.0
223.149536 192.0
224.063965 220.0
224.154846 100.0
224.961624 212.0
225.124359 260.0
225.163193 580.0
225.526184 196.0
227.145813 308.0
227.182922 788.0
228.188171 148.0
229.155685 780.0
229.214554 200.0
230.161987 132.0
230.327805 168.0
231.053329 204.0
231.147614 164.0
231.174026 676.0
232.175217 304.0
235.146164 300.0
236.151367 132.0
237.160385 132.0
237.576019 192.0
238.189957 184.0
239.09082 336.0
239.141251 196.0
239.191147 168.0
240.150665 140.0
240.193848 148.0
241.157928 608.0
241.426193 220.0
242.16127 148.0
243.173386 988.0
243.213867 196.0
243.390823 208.0
244.179321 328.0
245.189331 304.0
247.17186 144.0
247.22818 144.0
247.79808 204.0
247.901474 220.0
249.171402 136.0
251.177841 540.0
252.182724 280.0
253.155777 452.0
254.083618 120.0
255.18367 160.0
257.154114 308.0
257.191589 652.0
257.228943 168.0
257.270447 184.0
258.158691 244.0
259.157654 148.0
259.205444 180.0
261.376129 184.0
263.178894 112.0
263.336182 156.0
264.399872 164.0
265.152649 116.0
265.189728 264.0
266.199005 156.0
266.956238 172.0
267.173309 572.0
267.209351 1344.0
268.173828 140.0
268.223358 224.0
269.189423 944.0
270.195068 300.0
271.161133 144.0
271.879364 204.0
275.16687 248.0
275.220581 168.0
276.162415 192.0
276.215332 220.0
277.03299 156.0
281.193573 252.0
281.226532 256.0
282.233337 124.0
282.502533 164.0
282.592865 196.0
283.206268 384.0
283.979736 224.0
284.211182 272.0
285.222137 2356.0
286.229065 880.0
287.218811 140.0
287.370636 148.0
288.505402 160.0
289.344391 180.0
291.212006 716.0
291.263794 156.0
292.211609 100.0
293.192932 320.0
297.104614 164.0
297.221283 180.0
297.430634 156.0
299.198547 152.0
299.24231 156.0
299.455811 140.0
300.248505 196.0
300.682159 140.0
300.900665 176.0
301.211456 148.0
305.433441 188.0
306.924011 160.0
309.089691 176.0
309.138672 196.0
309.221436 6004.0
309.296173 168.0
310.220886 1236.0
311.112 160.0
311.234283 336.0
312.155518 168.0
312.208252 264.0
312.486145 140.0
313.204285 152.0
313.856262 160.0
314.568939 156.0
323.026489 172.0
324.007385 156.0
326.400085 176.0
327.232208 19304.0
327.296539 212.0
327.380157 164.0
327.596985 204.0
327.788483 208.0
327.877319 184.0
328.236237 3224.0
329.236694 556.0
329.345764 188.0
329.934784 164.0
329.972443 124.0
330.247833 168.0
331.031097 168.0
332.38681 140.0
332.444885 140.0
338.115479 192.0
341.846436 160.0
342.399658 112.0
343.738098 232.0
344.745819 104.0
345.007324 180.0
345.145538 328.0
345.243225 83124.0
345.41925 136.0
345.478973 112.0
345.508209 104.0
345.749756 112.0
346.122314 184.0
346.153351 112.0
346.246033 14468.0
346.347351 168.0
346.383545 96.0
346.521149 132.0
346.595825 140.0
346.790558 96.0
347.046509 132.0
347.251495 1520.0
347.334198 148.0
347.777771 104.0
348.250275 132.0
348.288147 204.0
348.490967 128.0
348.602142 196.0
348.649963 116.0
349.998871 180.0
363.084259 156.0
561.083923 168.0
577.787231 140.0
1227.475952 164.0
1231.369995 148.0
1305.572754 172.0
1323.179077 184.0
1478.580811 140.0
1491.758179 184.0
1494.57312 176.0
1529.601196 200.0
1585.264771 176.0
1617.769531 164.0
1688.010132 184.0
1761.806274 152.0
1846.046997 204.0
1922.651855 216.0
1926.345215 184.0
1943.566284 232.0
1984.297974 152.0
1996.587402 176.0
