>compound Cucurbitacin E
>formula C32H44O8
>ionization [M+Na]+
>parentmass 579.2928390680905
#inchi InChI=1S/C32H44O8/c1-17(33)40-27(2,3)13-12-23(36)32(9,39)25-21(35)15-29(6)22-11-10-18-19(14-20(34)26(38)28(18,4)5)31(22,8)24(37)16-30(25,29)7/h10,12-14,19,21-22,25,34-35,39H,11,15-16H2,1-9H3/b13-12+/t19?,21-,22+,25+,29+,30-,31+,32+/m1/s1
#inchikey NDYMQXYDSVBNLL
#Ion_Source DI-ESI
#Instrument qTof
#Compound_Source Isolated
#PI Norberto Lopes
#Data_Collector Norberto Lopes
#Scan -1
#Precursor_MZ 579.287
#ExactMass 556.304
#Charge 1
#CAS_Number 18444-66-1
#Pubmed_ID  
#Smiles O=C(C1(C)C)C(O)=CC2C1=CC[C@]([C@@](C[C@@H](O)[C@@]3([C@@](O)(C(/C=C/C(C)(OC(C)=O)C)=O)C)[H])(C)[C@]3(C)C4)([H])[C@@]2(C)C4=O
#INCHI_AUX  
#Library_Class 3
#SpectrumID CCMSLIB00000081267
#IonMode Positive
#UpdateWorkflowName UPDATE-SINGLE-ANNOTATED-BRONZE
#LibraryQualityString Bronze
#TaskID af0be4ff03964a0ab2d47bca8cf85c56
##Scan# 1
#SpectrumFile gnps_CucurbitacinE_pos_MplusNa.mgf
#LibraryName gnps_library.mgf
#MQScore -1
#Organism gnps_library
#TIC_Query 0
#RT_Query -1
#MZErrorPPM -1
#SharedPeaks 0
#MassDiff 0
#LibMZ -1
#SpecMZ 579.287
#SpecCharge 0
#internalFilename spec-00000.mgf

>collision 10
210.108246 557.0
215.119873 650.0
230.242706 420.0
301.133331 745.0
385.196045 533.0
393.290863 7973.0
413.254974 602.0
479.275208 1404.0
497.282959 2209.0
519.266968 18989.0
537.267761 705.0
555.311707 899.0
579.287354 40863.0
