>compound DIPHENOXYLATE
>formula C30H32N2O2
>ionization [M+H]+
>parentmass 453.2536547160905
#inchi InChI=1S/C30H32N2O2/c1-2-34-28(33)29(25-12-6-3-7-13-25)18-21-32(22-19-29)23-20-30(24-31,26-14-8-4-9-15-26)27-16-10-5-11-17-27/h3-17H,2,18-23H2,1H3
#inchikey HYPPXZBJBPSRLK
#Ion_Source LC-ESI
#Instrument qTof
#Compound_Source Commercial
#PI Dorrestein
#Data_Collector Garg_Neha
#Scan -1
#Precursor_MZ 453.254
#ExactMass 452.246
#Charge 1
#CAS_Number N/A
#Pubmed_ID N/A
#Smiles CCOC(=O)C1(CCN(CCC(C#N)(c2ccccc2)c3ccccc3)CC1)c4ccccc4
#INCHI_AUX N/A
#Library_Class 1
#SpectrumID CCMSLIB00000079112
#IonMode Positive
#UpdateWorkflowName UPDATE-SINGLE-ANNOTATED-GOLD
#LibraryQualityString Gold
#TaskID 278b19f5865741e282cec7349aa7e7a1
##Scan# 1476
#SpectrumFile NCP003512_C2_D11_BD5_01_15729.mzXML
#LibraryName NIHcollectionI_05062014.mgf
#MQScore -1
#Organism NIHcollectionI_05062014
#TIC_Query 0
#RT_Query -1
#MZErrorPPM -1
#SharedPeaks 0
#MassDiff 0
#LibMZ -1
#SpecMZ 453.254
#SpecCharge 0
#internalFilename spec-00000.mgf

>collision 10
46.077778 160.0
47.727188 140.0
47.773792 184.0
47.923855 176.0
51.373249 148.0
53.248863 204.0
54.398006 184.0
55.255707 196.0
55.409679 144.0
55.703411 144.0
55.850567 196.0
56.35146 156.0
57.99934 240.0
60.182495 152.0
60.473122 176.0
61.106251 176.0
61.766136 164.0
62.237862 184.0
62.465744 160.0
63.711445 156.0
64.150665 204.0
64.370842 188.0
64.6698 152.0
67.109207 144.0
67.817055 204.0
68.306366 156.0
68.698418 176.0
68.800735 184.0
70.573494 152.0
71.8685 156.0
71.979904 144.0
72.197891 152.0
73.565681 144.0
73.63398 164.0
74.670868 180.0
75.495224 176.0
76.576439 176.0
78.484856 140.0
78.705414 144.0
80.372147 168.0
80.699005 156.0
81.372673 156.0
82.455269 240.0
82.728394 144.0
82.931267 244.0
83.021919 192.0
84.554062 140.0
85.432968 148.0
86.059586 192.0
86.318268 164.0
88.774506 188.0
89.808891 160.0
90.807541 168.0
91.050468 168.0
93.059326 160.0
93.326393 144.0
94.189766 164.0
94.222603 184.0
96.07859 176.0
96.340187 176.0
96.586487 168.0
97.142799 208.0
97.958588 216.0
98.057106 184.0
98.279938 168.0
99.868736 168.0
101.043678 148.0
102.414742 204.0
103.054993 292.0
103.503258 176.0
104.060394 164.0
104.406281 144.0
104.868431 204.0
105.370415 228.0
106.066193 288.0
107.050301 176.0
109.825394 180.0
109.908844 152.0
110.096893 400.0
110.36837 176.0
111.239906 140.0
111.578125 160.0
113.268463 156.0
113.63945 160.0
114.056389 292.0
114.181129 184.0
114.268341 236.0
115.054703 192.0
115.713226 168.0
115.996002 176.0
116.075325 256.0
117.070747 896.0
118.073837 168.0
119.073288 164.0
119.273819 192.0
120.083809 376.0
120.856697 212.0
121.026756 172.0
122.022858 188.0
122.097618 192.0
122.992134 248.0
124.087158 176.0
124.269028 156.0
124.508759 156.0
125.151405 188.0
125.659576 200.0
126.055702 1540.0
126.605087 140.0
127.063019 340.0
127.078644 152.0
127.65757 152.0
128.03772 112.0
128.065857 572.0
129.07341 392.0
129.703049 204.0
130.063614 612.0
130.086746 156.0
130.106827 148.0
131.053696 172.0
131.085388 760.0
131.317383 156.0
131.458832 168.0
131.689407 160.0
132.081161 480.0
132.110001 184.0
132.311386 192.0
132.549576 160.0
133.061066 176.0
133.090912 248.0
133.166687 192.0
133.792145 196.0
134.092209 148.0
134.211456 172.0
135.18161 188.0
136.266754 156.0
136.513138 144.0
138.693726 156.0
139.057266 160.0
139.656403 172.0
141.0802 492.0
141.402344 160.0
141.835464 160.0
142.065735 164.0
142.086578 1092.0
142.191544 272.0
142.267502 176.0
142.543015 140.0
143.086349 2096.0
143.447403 196.0
143.545151 176.0
144.05722 892.0
144.085693 704.0
144.938721 168.0
145.06575 288.0
145.097305 392.0
145.197617 216.0
145.466354 192.0
146.076172 216.0
146.097031 816.0
146.319763 224.0
149.955734 204.0
150.734222 156.0
152.061462 324.0
154.088104 164.0
155.09584 1116.0
155.735428 148.0
156.675705 160.0
157.073349 208.0
157.106979 200.0
157.876282 196.0
157.983826 160.0
158.058884 148.0
158.097595 2664.0
159.008652 156.0
159.06842 492.0
159.103455 2256.0
159.160004 204.0
160.07399 164.0
160.111877 3536.0
160.762726 144.0
161.080597 316.0
161.119186 1672.0
161.609222 196.0
161.897797 144.0
161.950974 140.0
162.067734 816.0
162.123001 272.0
163.397903 144.0
163.474243 152.0
164.830826 148.0
165.070908 7448.0
166.074295 556.0
167.025391 148.0
167.082672 188.0
167.313599 180.0
168.079071 176.0
169.068787 176.0
169.088287 168.0
169.203384 140.0
170.098495 164.0
170.209366 236.0
170.36261 140.0
170.80452 196.0
171.105743 180.0
172.052734 148.0
172.076233 160.0
172.112732 5508.0
172.677246 152.0
173.004318 144.0
173.115891 392.0
174.128586 644.0
175.129974 344.0
175.3853 140.0
175.632065 160.0
176.073181 256.0
176.107162 180.0
177.066727 172.0
177.093704 220.0
178.056458 184.0
178.080978 172.0
178.423141 176.0
178.894012 160.0
179.085632 108.0
180.377151 212.0
180.917511 144.0
181.032639 204.0
181.094238 164.0
182.097321 212.0
182.804367 144.0
184.111816 160.0
185.081299 192.0
185.556732 140.0
186.094452 1024.0
186.128479 1556.0
186.349243 148.0
186.569382 144.0
186.956482 176.0
186.999146 164.0
187.100662 15904.0
187.136795 5540.0
187.731995 144.0
187.958405 168.0
188.102615 2092.0
188.140427 1020.0
188.533051 100.0
189.109818 156.0
189.142609 128.0
190.055191 156.0
190.100815 1452.0
190.124756 560.0
190.396149 108.0
190.658463 224.0
191.073013 280.0
191.101166 304.0
191.941254 172.0
192.026749 172.0
192.081863 12480.0
192.402023 152.0
193.085449 2044.0
193.52449 196.0
194.031509 156.0
194.093704 112.0
195.111969 236.0
195.445206 140.0
196.119141 156.0
196.39238 148.0
197.092636 148.0
197.121735 144.0
197.277542 176.0
198.573959 140.0
200.116699 160.0
200.637894 168.0
201.021484 140.0
203.081055 156.0
203.543625 204.0
204.103012 6576.0
204.147812 188.0
204.507355 148.0
204.851898 168.0
205.108856 2784.0
205.464203 116.0
205.828552 188.0
206.113235 252.0
207.102753 156.0
207.12854 140.0
209.298721 204.0
211.540039 200.0
211.641373 188.0
214.123962 184.0
215.127319 152.0
216.138474 184.0
217.127213 216.0
218.085724 292.0
218.117752 3604.0
218.432678 200.0
218.479752 264.0
218.52977 184.0
219.062622 152.0
219.123428 716.0
219.451645 148.0
219.747986 100.0
220.115082 1532.0
221.116684 1164.0
221.582565 140.0
222.126129 572.0
223.131775 140.0
223.417282 172.0
224.465668 152.0
224.859451 192.0
224.928101 144.0
225.041534 168.0
225.639069 216.0
226.264343 140.0
227.820786 160.0
229.117386 180.0
231.122131 152.0
232.13353 4360.0
233.062668 172.0
233.108246 212.0
233.142807 7896.0
233.317734 152.0
233.414429 116.0
234.145233 832.0
235.11116 196.0
235.138214 276.0
235.161301 308.0
235.457001 148.0
236.137177 144.0
237.146301 412.0
237.789902 168.0
238.132645 164.0
240.591949 128.0
243.622772 152.0
244.00502 172.0
246.149033 4516.0
247.030014 224.0
247.150864 668.0
247.237579 140.0
248.160629 224.0
248.668747 144.0
249.139816 10252.0
249.193161 160.0
249.950912 160.0
250.142288 2420.0
250.675156 212.0
253.177078 140.0
254.439056 152.0
254.480331 144.0
256.038452 192.0
256.570557 164.0
256.71405 144.0
258.151062 156.0
260.164185 1300.0
261.040314 204.0
261.167664 160.0
262.154114 140.0
263.152618 236.0
263.409149 144.0
264.155853 188.0
264.311157 168.0
264.489136 228.0
265.128387 292.0
265.201721 248.0
265.535675 188.0
265.892548 172.0
266.139252 300.0
267.449341 188.0
270.125 208.0
272.229462 132.0
274.598633 176.0
275.158203 1400.0
276.154633 424.0
276.680389 248.0
276.859192 140.0
276.90274 104.0
277.048645 180.0
277.621368 228.0
278.176666 196.0
278.793243 156.0
278.94278 168.0
280.877441 184.0
281.434753 208.0
281.544952 164.0
282.912476 144.0
284.503479 108.0
288.158905 164.0
288.632111 200.0
289.137695 224.0
291.360474 176.0
291.91449 176.0
292.071503 164.0
292.251251 296.0
294.354309 188.0
294.550964 108.0
295.797089 168.0
296.194275 248.0
297.418396 172.0
299.36084 156.0
301.171478 140.0
302.187805 140.0
302.315826 152.0
302.416199 152.0
302.768219 252.0
303.299408 172.0
303.951416 180.0
306.141357 152.0
306.535004 160.0
307.546356 144.0
310.604492 180.0
310.755341 160.0
311.429352 148.0
312.325623 256.0
313.713013 192.0
316.978729 140.0
317.173645 192.0
318.269867 160.0
318.397705 196.0
318.536224 160.0
319.140381 140.0
319.584961 148.0
320.170746 188.0
322.205444 156.0
322.341217 156.0
322.437714 140.0
324.12677 176.0
325.77356 144.0
326.77298 160.0
327.698273 160.0
328.210083 236.0
328.38678 144.0
328.412018 140.0
329.494965 176.0
330.170898 144.0
331.11908 140.0
334.059113 168.0
334.164612 140.0
334.208282 148.0
335.93515 140.0
336.146759 220.0
336.760071 148.0
336.785645 176.0
337.242371 168.0
344.540222 144.0
347.646698 140.0
348.199188 308.0
349.902893 172.0
350.95166 212.0
351.185944 1200.0
351.666077 232.0
351.748169 272.0
352.192413 432.0
353.20517 148.0
353.355103 144.0
353.422455 192.0
353.935242 152.0
354.137451 172.0
355.303223 180.0
356.350708 180.0
356.989685 140.0
357.061157 212.0
357.414734 152.0
359.166534 172.0
360.098816 160.0
362.736053 172.0
363.181396 300.0
363.616028 144.0
364.029816 148.0
366.098511 144.0
367.032104 184.0
367.764557 160.0
369.021362 144.0
369.591248 168.0
370.019897 164.0
370.295624 152.0
371.288208 180.0
372.973694 140.0
373.127472 164.0
373.392792 152.0
373.569733 164.0
373.804413 144.0
374.008392 208.0
374.669891 128.0
375.275787 184.0
375.376038 164.0
376.222748 144.0
376.286652 144.0
376.927795 140.0
377.200653 520.0
377.561768 168.0
377.690826 120.0
377.840271 148.0
378.107269 152.0
378.210693 252.0
378.680237 140.0
379.052155 160.0
379.21817 6736.0
379.350739 100.0
379.649109 140.0
380.220734 2328.0
380.551819 144.0
381.231384 204.0
381.551697 204.0
381.652802 140.0
382.057281 180.0
382.236237 152.0
383.09668 152.0
383.124237 156.0
383.235504 260.0
384.024384 152.0
386.070831 204.0
387.0961 164.0
388.271729 140.0
388.683624 188.0
389.009369 140.0
389.198822 256.0
390.215424 160.0
391.025757 156.0
394.54425 140.0
395.430267 172.0
396.095459 160.0
396.471863 160.0
396.963409 148.0
398.666412 208.0
399.040039 172.0
401.722382 228.0
401.827942 160.0
403.264648 96.0
403.90921 192.0
404.213287 168.0
404.317322 252.0
406.388977 140.0
407.109161 136.0
407.212891 2244.0
408.116089 180.0
408.221405 808.0
408.437805 160.0
408.797607 156.0
408.996399 164.0
409.219513 112.0
410.719818 168.0
411.500488 172.0
412.211365 176.0
412.297424 180.0
412.866241 164.0
413.445465 156.0
413.950775 260.0
416.107849 152.0
417.015503 108.0
417.912384 204.0
418.548431 104.0
418.995361 144.0
419.786102 168.0
422.688263 204.0
422.75589 224.0
423.206848 164.0
423.574738 140.0
424.722443 160.0
424.775757 168.0
425.126099 164.0
425.224976 12580.0
425.307983 100.0
425.68219 112.0
425.736176 164.0
425.854004 168.0
426.225311 4296.0
426.537354 152.0
426.648315 156.0
427.226959 676.0
427.288605 116.0
427.547211 156.0
428.100739 144.0
428.2323 272.0
428.786987 188.0
428.836365 132.0
428.881287 96.0
429.260742 128.0
429.526764 152.0
429.657318 160.0
433.37973 164.0
433.902832 172.0
435.253693 140.0
435.487091 176.0
435.561859 164.0
436.064606 152.0
436.217896 132.0
436.692413 168.0
437.150024 144.0
438.482666 152.0
438.782776 152.0
438.816132 180.0
438.941223 152.0
439.927856 184.0
440.502106 160.0
441.19162 144.0
442.166229 260.0
442.588409 112.0
442.919861 184.0
443.464569 156.0
444.37561 168.0
445.050262 160.0
445.778229 184.0
446.470551 160.0
447.040222 144.0
447.149902 180.0
447.294922 168.0
447.61142 108.0
447.846802 176.0
447.923492 96.0
448.283356 148.0
448.435516 104.0
448.788635 136.0
448.879303 144.0
449.185974 232.0
449.440308 316.0
449.486725 148.0
449.597961 140.0
449.885193 116.0
450.065125 136.0
450.17984 144.0
450.276154 148.0
450.368713 96.0
450.477295 128.0
450.777191 104.0
450.846588 188.0
450.899536 108.0
451.103851 376.0
451.196808 176.0
451.236908 528.0
451.398499 136.0
451.510986 188.0
451.568909 344.0
451.652069 204.0
451.734894 168.0
451.797424 160.0
451.841248 224.0
451.88504 96.0
451.935699 164.0
451.995117 184.0
452.14447 176.0
452.188782 272.0
452.239868 484.0
452.269653 256.0
452.33609 136.0
452.382874 308.0
452.451263 232.0
452.585266 180.0
452.621399 200.0
452.678162 96.0
452.755585 212.0
452.810608 264.0
452.820526 316.0
452.850555 228.0
452.88443 328.0
452.94693 264.0
452.995148 160.0
453.054504 288.0
453.06601 308.0
453.093445 592.0
453.167694 716.0
453.181305 720.0
453.257599 247036.0
453.386566 496.0
453.421051 240.0
453.537079 204.0
453.657196 588.0
453.696777 368.0
453.737823 320.0
453.800079 180.0
453.894958 248.0
453.956787 5828.0
454.014709 372.0
454.09787 368.0
454.260132 158668.0
454.356628 340.0
454.479645 276.0
454.567108 360.0
454.640045 164.0
454.650055 176.0
454.703339 392.0
454.773376 160.0
454.86261 184.0
454.89563 412.0
454.955444 408.0
455.001404 244.0
455.047882 324.0
455.193329 388.0
455.262512 26436.0
455.375732 196.0
455.446075 248.0
455.654694 120.0
455.737885 332.0
455.899414 196.0
455.969147 108.0
456.009766 224.0
456.084381 184.0
456.185883 132.0
456.263977 2884.0
456.354706 120.0
456.41156 300.0
456.463623 104.0
456.548096 160.0
456.673004 352.0
456.754517 260.0
456.896301 188.0
456.939484 324.0
456.974091 400.0
457.033783 548.0
457.093964 344.0
457.149963 344.0
457.200378 212.0
457.247375 96.0
457.374268 132.0
457.427277 116.0
457.470154 168.0
457.545013 152.0
457.672607 176.0
457.72467 236.0
457.802094 152.0
457.887268 204.0
458.001984 128.0
458.037354 140.0
458.09552 168.0
458.236511 152.0
458.309479 104.0
458.386536 180.0
458.425323 144.0
458.568024 152.0
458.615479 160.0
458.733856 132.0
458.968262 96.0
459.015106 140.0
459.403198 108.0
459.480499 132.0
459.760437 160.0
460.256958 164.0
462.339813 96.0
462.950745 144.0
467.307526 144.0
467.683716 144.0
468.167206 176.0
469.197266 132.0
470.25174 132.0
470.518463 116.0
470.866882 140.0
470.959595 112.0
471.04126 184.0
471.639679 116.0
471.925598 152.0
472.906647 132.0
474.440979 160.0
474.488678 168.0
478.607513 152.0
497.167236 140.0
498.930603 140.0
511.699097 140.0
534.025085 184.0
563.063232 148.0
622.204102 164.0
626.54071 172.0
645.412354 140.0
671.29718 196.0
694.773254 160.0
752.529175 148.0
759.190979 120.0
969.529541 152.0
1119.526611 148.0
1228.081177 144.0
1228.785767 176.0
1318.886475 168.0
1320.708496 160.0
1363.323608 148.0
1449.560791 148.0
1475.637939 168.0
1521.075439 156.0
1540.238403 144.0
1591.388916 172.0
1607.204102 168.0
1673.086426 168.0
1724.362305 236.0
1730.127686 232.0
1747.938965 216.0
1756.536865 168.0
1799.074341 168.0
1805.22522 200.0
1819.476807 208.0
1835.531982 172.0
1837.792358 152.0
1867.98291 144.0
1869.781128 180.0
1872.338013 160.0
1874.46582 184.0
1912.537354 140.0
1918.722168 144.0
1921.792236 188.0
1937.730835 192.0
1939.790283 152.0
1946.054199 152.0
1953.603394 148.0
1965.082642 160.0
1971.502075 212.0
1978.188599 160.0
1995.86145 152.0
