>compound Mianserin hydrochloride
>formula C18H20N2
>ionization [M+H]+
>parentmass 265.1699250920905
#inchi InChI=1S/C18H20N2/c1-19-10-11-20-17-9-5-3-7-15(17)12-14-6-2-4-8-16(14)18(20)13-19/h2-9,18H,10-13H2,1H3
#inchikey UEQUQVLFIPOEMF
#origInchi InChI=1S/C18H20N2.ClH/c1-19-10-11-20-17-9-5-3-7-15(17)12-14-6-2-4-8-16(14)18(20)13-19;/h2-9,18H,10-13H2,1H3;1H
#Ion_Source LC-ESI
#Instrument qTof
#Compound_Source Commercial
#PI Dorrestein
#Data_Collector Garg_Neha
#Scan -1
#Precursor_MZ 265.17
#ExactMass 264.163
#Charge 1
#CAS_Number 21535-47-7, 24219-97-4 (free base)
#Pubmed_ID N/A
#Smiles C12(N3C(C4=C(CC=1C=CC=C2)C=CC=C4)CN(CC3)C).Cl
#INCHI_AUX N/A
#Library_Class 1
#SpectrumID CCMSLIB00000078126
#IonMode Positive
#UpdateWorkflowName UPDATE-SINGLE-ANNOTATED-GOLD
#LibraryQualityString Gold
#TaskID 77f51c88eb8b467eb4a01dd2d0cb90d2
##Scan# 1135
#SpectrumFile Plate2_41_60_GG7_01_16495.mzXML
#LibraryName FDALibrary_2_04302014.mgf
#MQScore -1
#Organism FDALibrary_2_04302014
#TIC_Query 0
#RT_Query -1
#MZErrorPPM -1
#SharedPeaks 0
#MassDiff 0
#LibMZ -1
#SpecMZ 265.17
#SpecCharge 0
#internalFilename spec-00000.mgf

>collision 10
44.917034 212.0
44.954899 284.0
44.994434 172.0
45.044434 148.0
45.082592 144.0
45.091946 152.0
45.189175 164.0
45.229103 132.0
45.270107 164.0
45.290504 168.0
45.329746 232.0
45.356964 160.0
45.375732 216.0
45.397289 156.0
45.470303 136.0
45.574989 176.0
45.704803 164.0
45.720951 180.0
45.751907 180.0
45.793652 172.0
45.818817 176.0
45.86171 164.0
45.895569 208.0
45.922569 228.0
46.010521 116.0
46.035278 148.0
46.106613 116.0
46.180096 164.0
46.201309 140.0
46.235138 144.0
46.25544 180.0
46.267235 128.0
46.380997 232.0
46.408035 208.0
46.424278 176.0
46.484623 164.0
46.557796 216.0
46.597912 252.0
46.615246 276.0
46.634388 168.0
46.663784 152.0
46.705986 232.0
46.720272 300.0
46.73455 148.0
46.783508 176.0
46.821632 148.0
46.905376 164.0
46.972725 188.0
46.989296 148.0
47.011551 168.0
47.03331 192.0
47.053444 148.0
47.098507 140.0
47.115623 144.0
47.128563 160.0
47.157261 152.0
47.214199 192.0
47.346565 132.0
47.385788 188.0
47.398121 148.0
47.423824 148.0
47.505062 192.0
47.51741 140.0
47.557205 204.0
47.581913 220.0
47.655994 128.0
47.715179 164.0
47.744526 176.0
47.927784 120.0
47.972622 176.0
48.01123 228.0
48.100914 180.0
48.117897 172.0
48.189915 224.0
48.288826 172.0
48.326061 144.0
48.356621 180.0
48.374619 152.0
48.389847 160.0
48.403282 216.0
48.517307 172.0
48.618561 192.0
48.687977 144.0
48.772243 172.0
48.794971 184.0
48.815826 148.0
48.827545 300.0
48.861729 196.0
48.893734 180.0
48.906258 176.0
48.922516 236.0
48.951599 176.0
48.959835 332.0
49.026035 168.0
49.076706 164.0
49.130611 188.0
49.164936 380.0
49.180847 180.0
49.242279 144.0
49.300957 192.0
49.323322 332.0
49.345688 164.0
49.361069 160.0
49.380646 164.0
49.415825 168.0
49.432411 144.0
49.454369 220.0
49.471199 196.0
49.500416 268.0
49.54903 160.0
49.574795 124.0
49.604435 204.0
49.623428 128.0
49.639515 128.0
49.698914 148.0
49.778656 156.0
49.788769 140.0
49.805801 196.0
49.920586 188.0
49.975445 212.0
50.006302 164.0
50.028927 168.0
50.055679 180.0
50.073986 172.0
50.147251 188.0
50.174988 148.0
50.254425 144.0
50.349003 172.0
50.388554 172.0
50.427631 208.0
50.456394 140.0
50.480213 156.0
50.521809 204.0
50.542671 176.0
50.553776 132.0
50.603725 204.0
50.632889 192.0
50.665142 224.0
50.810459 140.0
50.820389 208.0
50.838837 172.0
50.858707 200.0
50.951008 208.0
51.049728 168.0
51.098869 164.0
51.170441 180.0
51.211327 144.0
51.230202 112.0
51.321518 112.0
51.389523 172.0
51.448669 252.0
51.513195 108.0
51.561275 188.0
51.567085 152.0
51.616825 176.0
51.658108 180.0
51.685291 204.0
51.73748 268.0
51.765503 140.0
51.787533 220.0
51.857143 148.0
51.887245 252.0
51.898716 144.0
51.986217 156.0
51.99651 176.0
52.03812 200.0
52.098618 212.0
52.131348 188.0
52.157127 152.0
52.231041 260.0
52.26643 168.0
52.283207 200.0
52.315239 224.0
52.33696 140.0
52.384708 180.0
52.403214 368.0
52.471622 144.0
52.484753 196.0
52.541622 200.0
52.557491 208.0
52.586357 168.0
52.666367 164.0
52.680988 276.0
52.728443 148.0
52.751022 184.0
52.816093 152.0
52.834255 160.0
52.911602 200.0
52.931873 164.0
52.953823 256.0
52.979946 168.0
53.00631 164.0
53.037632 148.0
53.057037 124.0
53.073875 152.0
53.176296 220.0
53.214619 196.0
53.251415 200.0
53.291595 172.0
53.314213 128.0
53.32938 164.0
53.367176 144.0
53.416779 152.0
53.450439 180.0
53.492493 176.0
53.545784 136.0
53.595497 176.0
53.675869 188.0
53.686077 168.0
53.705482 332.0
53.75172 200.0
53.766315 268.0
53.777988 148.0
53.856834 164.0
53.891895 208.0
53.909397 164.0
53.976223 220.0
53.988686 188.0
54.028843 228.0
54.057465 192.0
54.175808 160.0
54.194954 136.0
54.242352 120.0
54.275391 220.0
54.30032 192.0
54.36599 168.0
54.435017 148.0
54.486744 152.0
54.515152 168.0
54.540749 176.0
54.571987 144.0
54.582279 172.0
54.618515 144.0
54.658279 180.0
54.705982 144.0
54.722916 200.0
54.738258 224.0
54.755093 176.0
54.892361 132.0
54.907734 256.0
54.985573 332.0
55.005116 156.0
55.033295 408.0
55.152828 156.0
55.206402 152.0
55.250427 164.0
55.297585 168.0
55.330341 176.0
55.494801 264.0
55.515282 176.0
55.606056 144.0
55.6996 168.0
55.760517 208.0
55.827068 220.0
55.86903 164.0
55.986752 208.0
56.020912 280.0
56.045605 300.0
56.069771 152.0
56.095421 188.0
56.11031 184.0
56.123901 156.0
56.155064 188.0
56.183968 196.0
56.194843 132.0
56.219635 220.0
56.346138 164.0
56.358879 212.0
56.527058 200.0
56.572346 140.0
56.591965 144.0
56.654324 252.0
56.681293 180.0
56.747898 284.0
56.778736 236.0
56.825378 184.0
56.867687 180.0
56.942326 168.0
56.963352 224.0
56.980286 192.0
57.036983 144.0
57.054039 312.0
57.196968 212.0
57.217094 152.0
57.310886 208.0
57.324448 144.0
57.334469 172.0
57.347054 172.0
57.366486 148.0
57.403564 132.0
57.442047 140.0
57.55373 168.0
57.627007 148.0
57.657677 232.0
57.694744 180.0
57.782578 172.0
57.858383 128.0
57.928288 316.0
58.028828 144.0
58.042068 164.0
58.068424 216.0
58.101166 172.0
58.150185 172.0
58.230164 124.0
58.264565 160.0
58.308983 140.0
58.326374 156.0
58.341259 192.0
58.44574 312.0
58.456924 320.0
58.534809 212.0
58.592285 228.0
58.610462 160.0
58.644444 220.0
58.657177 188.0
58.687183 208.0
58.709103 128.0
58.739227 160.0
58.787857 144.0
58.810329 116.0
58.904915 108.0
58.994057 160.0
59.005028 180.0
59.050663 204.0
59.131721 140.0
59.184956 124.0
59.212864 148.0
59.274143 184.0
59.300579 112.0
59.34874 108.0
59.391693 160.0
59.44368 372.0
59.463078 100.0
59.505753 176.0
59.536465 188.0
59.556889 228.0
59.651699 200.0
59.699642 132.0
59.717815 152.0
59.730122 148.0
59.740891 176.0
59.770123 140.0
59.800903 188.0
59.905647 160.0
59.924095 188.0
59.935852 184.0
59.986374 156.0
60.014252 184.0
60.08197 180.0
60.141533 172.0
60.183216 160.0
60.219852 168.0
60.2687 304.0
60.285168 148.0
60.302166 156.0
60.364552 140.0
60.39827 104.0
60.422783 220.0
60.435162 148.0
60.464561 148.0
60.576843 124.0
60.60548 188.0
60.719044 124.0
60.751152 196.0
60.780918 140.0
60.79311 232.0
60.869175 184.0
60.965488 152.0
61.007454 156.0
61.024193 172.0
61.074322 176.0
61.133442 196.0
61.200375 172.0
61.231522 164.0
61.290627 140.0
61.352348 276.0
61.404419 124.0
61.426353 232.0
61.505936 232.0
61.542397 316.0
61.635422 136.0
61.652752 216.0
61.698082 180.0
61.709023 164.0
61.812721 284.0
61.854515 148.0
61.981373 164.0
62.06525 188.0
62.083984 152.0
62.116203 184.0
62.130322 204.0
62.197849 132.0
62.241093 192.0
62.282593 172.0
62.312439 148.0
62.384731 196.0
62.426243 156.0
62.502689 168.0
62.542557 364.0
62.59306 156.0
62.633362 180.0
62.677475 280.0
62.709385 160.0
62.733276 168.0
62.771099 172.0
62.801888 144.0
62.885643 180.0
62.918793 196.0
62.961426 252.0
62.989857 224.0
63.002495 148.0
63.013554 156.0
63.039551 144.0
63.125118 192.0
63.179142 184.0
63.195377 148.0
63.214363 144.0
63.27293 156.0
63.284012 148.0
63.295094 180.0
63.3255 300.0
63.359829 124.0
63.449432 264.0
63.469395 164.0
63.50399 172.0
63.542358 256.0
63.605431 140.0
63.642349 148.0
63.65871 224.0
63.725571 152.0
63.785332 156.0
63.802818 148.0
63.833027 240.0
63.960243 100.0
63.979408 204.0
64.057053 164.0
64.083351 212.0
64.114799 204.0
64.135521 168.0
64.171127 232.0
64.184944 180.0
64.252518 292.0
64.340851 140.0
64.371796 236.0
64.441795 100.0
64.464012 160.0
64.481361 224.0
64.572342 136.0
64.640198 216.0
64.687172 384.0
64.712227 160.0
64.725037 152.0
64.835106 140.0
64.845619 204.0
64.883652 232.0
64.907707 196.0
64.946198 172.0
64.9599 156.0
64.991554 176.0
65.026642 144.0
65.053703 160.0
65.084213 164.0
65.113632 124.0
65.129089 140.0
65.154884 244.0
65.24736 148.0
65.267616 196.0
65.302467 200.0
65.330116 208.0
65.388039 148.0
65.407425 188.0
65.433693 200.0
65.478203 180.0
65.492699 512.0
65.50779 108.0
65.54908 152.0
65.576477 156.0
65.62323 180.0
65.687737 208.0
65.738976 180.0
65.781334 144.0
65.823311 212.0
65.848091 164.0
65.90892 224.0
65.978416 144.0
66.026932 244.0
66.069298 180.0
66.106087 168.0
66.129555 264.0
66.155251 156.0
66.18074 160.0
66.208191 144.0
66.294052 156.0
66.311142 220.0
66.339973 188.0
66.358887 144.0
66.459358 152.0
66.484367 112.0
66.579575 148.0
66.604958 324.0
66.664864 176.0
66.776222 140.0
66.926712 168.0
66.942223 168.0
66.977211 124.0
67.002487 156.0
67.140762 164.0
67.185081 172.0
67.225876 152.0
67.26178 188.0
67.290939 172.0
67.310951 168.0
67.372505 124.0
67.439774 136.0
67.465973 192.0
67.48069 156.0
67.50325 140.0
67.515594 172.0
67.578827 220.0
67.594803 120.0
67.623009 152.0
67.635101 212.0
67.658379 184.0
67.697769 132.0
67.774971 156.0
67.792419 244.0
67.807297 192.0
67.913017 148.0
67.92778 168.0
67.967155 160.0
67.983559 220.0
67.996552 164.0
68.058983 144.0
68.084457 128.0
68.132462 164.0
68.18721 308.0
68.237831 156.0
68.318748 356.0
68.365982 108.0
68.426392 248.0
68.448776 152.0
68.496536 136.0
68.521248 148.0
68.532784 168.0
68.545044 192.0
68.563667 172.0
68.642624 176.0
68.663544 148.0
68.686462 164.0
68.815575 196.0
68.86602 184.0
68.938843 200.0
68.986641 168.0
69.03476 156.0
69.090828 140.0
69.125572 152.0
69.142899 180.0
69.181847 188.0
69.201714 164.0
69.241463 184.0
69.307724 156.0
69.364128 312.0
69.402649 216.0
69.419807 136.0
69.443665 220.0
69.473518 276.0
69.488174 184.0
69.521637 196.0
69.5355 204.0
69.552849 184.0
69.611107 152.0
69.661636 136.0
69.730896 168.0
69.751854 256.0
69.785477 120.0
69.811699 376.0
69.899094 208.0
69.91507 108.0
69.933807 148.0
69.958778 228.0
69.981674 200.0
70.076057 244.0
70.123772 152.0
70.215508 160.0
70.272095 184.0
70.320488 188.0
70.42067 164.0
70.504204 204.0
70.516121 124.0
70.534286 168.0
70.569397 196.0
70.613899 208.0
70.656364 200.0
70.705406 156.0
70.738365 156.0
70.763863 208.0
70.795296 196.0
70.827248 248.0
70.871704 300.0
70.93679 148.0
71.010048 172.0
71.061813 196.0
71.15284 188.0
71.242905 172.0
71.317886 156.0
71.332199 244.0
71.354355 112.0
71.379272 240.0
71.490303 164.0
71.510498 192.0
71.552307 172.0
71.614624 156.0
71.658684 144.0
71.738403 276.0
71.794868 152.0
71.851021 152.0
71.869537 148.0
71.940331 196.0
71.953835 212.0
71.965652 152.0
72.004494 144.0
72.018105 136.0
72.035278 124.0
72.111076 144.0
72.166504 156.0
72.232353 188.0
72.284424 148.0
72.317963 164.0
72.372169 152.0
72.394867 188.0
72.428169 128.0
72.466301 144.0
72.493408 144.0
72.512054 268.0
72.523918 152.0
72.551041 384.0
72.567993 228.0
72.5924 172.0
72.624756 212.0
72.651039 116.0
72.671188 144.0
72.718971 216.0
72.744865 156.0
72.754814 208.0
72.789757 172.0
72.83783 404.0
72.859909 180.0
72.932625 148.0
72.984863 160.0
72.99929 180.0
73.040108 216.0
73.069023 160.0
73.090195 236.0
73.198479 144.0
73.254166 176.0
73.283554 148.0
73.360245 140.0
73.37809 196.0
73.398987 216.0
73.425041 164.0
73.462563 144.0
73.496086 220.0
73.553619 244.0
73.574203 200.0
73.658875 160.0
73.678032 116.0
73.763496 176.0
73.788757 156.0
73.842758 200.0
73.863998 228.0
73.901634 200.0
73.950493 168.0
74.072838 156.0
74.126717 160.0
74.144798 168.0
74.201187 152.0
74.213402 192.0
74.234627 128.0
74.257614 100.0
74.366043 172.0
74.405273 376.0
74.458694 112.0
74.476662 188.0
74.516602 172.0
74.602318 124.0
74.628845 176.0
74.704552 176.0
74.746162 132.0
74.835411 124.0
74.872437 184.0
74.912117 208.0
75.09729 160.0
75.183449 132.0
75.197365 220.0
75.28714 132.0
75.312057 300.0
75.340683 200.0
75.369942 124.0
75.391945 168.0
75.41153 184.0
75.46685 160.0
75.481346 200.0
75.524887 184.0
75.620811 192.0
75.651833 148.0
75.669281 140.0
75.700447 236.0
75.716805 136.0
75.758369 236.0
75.860695 196.0
75.929207 184.0
75.943085 164.0
76.064545 172.0
76.095795 212.0
76.169968 152.0
76.216072 160.0
76.256577 136.0
76.299065 168.0
76.317123 216.0
76.339417 136.0
76.384277 188.0
76.478241 188.0
76.492165 148.0
76.527641 284.0
76.558327 164.0
76.582008 208.0
76.605354 152.0
76.693916 160.0
76.710739 136.0
76.808838 300.0
76.858154 140.0
76.881271 292.0
76.900681 120.0
76.960136 160.0
77.18261 160.0
77.251968 212.0
77.274895 188.0
77.290619 112.0
77.405273 164.0
77.480591 188.0
77.492859 200.0
77.512131 156.0
77.534912 124.0
77.61911 136.0
77.644485 168.0
77.699738 196.0
77.757935 172.0
77.806793 276.0
77.818726 216.0
77.851547 160.0
77.882309 292.0
77.950821 188.0
78.018738 164.0
78.058052 180.0
78.082047 180.0
78.129242 160.0
78.146194 148.0
78.171799 184.0
78.197037 176.0
78.340187 156.0
78.376175 176.0
78.394188 396.0
78.431419 168.0
78.526505 164.0
78.558258 176.0
78.642845 140.0
78.759491 148.0
78.815704 156.0
78.951691 204.0
79.005844 188.0
79.14325 140.0
79.261246 188.0
79.295601 164.0
79.338142 232.0
79.371964 196.0
79.407295 168.0
79.431183 172.0
79.467613 152.0
79.511971 164.0
79.638031 152.0
79.651382 172.0
79.664673 168.0
79.729004 156.0
79.767746 148.0
79.781967 168.0
79.83709 184.0
79.863625 156.0
79.8881 200.0
79.926033 180.0
79.961838 132.0
79.978394 312.0
80.015442 172.0
80.046921 140.0
80.111191 148.0
80.148605 176.0
80.164642 144.0
80.232376 196.0
80.257339 160.0
80.284271 284.0
80.318741 148.0
80.403152 124.0
80.49823 160.0
80.533951 192.0
80.569679 184.0
80.636421 148.0
80.813057 176.0
80.841454 140.0
80.864243 160.0
80.898735 148.0
80.936241 156.0
80.993736 152.0
81.022705 176.0
81.067093 156.0
81.097885 180.0
81.119072 212.0
81.185249 132.0
81.283279 108.0
81.318176 172.0
81.39283 180.0
81.418098 176.0
81.43129 212.0
81.447449 192.0
81.474396 140.0
81.560654 180.0
81.57637 172.0
81.600204 160.0
81.639015 180.0
81.699783 312.0
81.727905 184.0
81.799896 200.0
81.828041 176.0
81.850021 176.0
81.913338 256.0
82.016739 220.0
82.07328 128.0
82.131447 176.0
82.210838 176.0
82.240791 248.0
82.279007 156.0
82.343643 228.0
82.395012 140.0
82.435692 148.0
82.456223 276.0
82.518524 260.0
82.577583 164.0
82.60833 168.0
82.620995 152.0
82.666229 188.0
82.68071 180.0
82.754929 192.0
82.814255 152.0
82.846527 304.0
82.901604 168.0
82.995453 144.0
83.019722 240.0
83.044731 152.0
83.113808 340.0
83.157364 172.0
83.175339 332.0
83.229134 152.0
83.268242 176.0
83.303764 332.0
83.328064 228.0
83.375305 140.0
83.40004 204.0
83.415359 196.0
83.428139 188.0
83.466202 172.0
83.527527 260.0
83.597176 216.0
83.620834 152.0
83.652992 108.0
83.719139 160.0
83.735359 296.0
83.749641 188.0
83.802933 144.0
83.875481 208.0
83.943665 156.0
83.975494 400.0
84.013527 244.0
84.039963 168.0
84.053856 144.0
84.067886 372.0
84.129074 304.0
84.151299 216.0
84.195129 400.0
84.21759 120.0
84.251747 172.0
84.264542 164.0
84.280983 160.0
84.293777 148.0
84.348602 180.0
84.420677 180.0
84.507713 288.0
84.549797 204.0
84.589745 208.0
84.613365 352.0
84.63681 156.0
84.701767 160.0
84.73291 188.0
84.852036 148.0
84.88871 184.0
84.930893 204.0
85.006111 272.0
85.036995 208.0
85.073616 164.0
85.124512 296.0
85.16951 176.0
85.2136 248.0
85.266357 152.0
85.282318 208.0
85.314682 144.0
85.333122 132.0
85.362488 188.0
85.381439 156.0
85.43428 136.0
85.484711 252.0
85.526222 176.0
85.560463 140.0
85.648338 240.0
85.710808 140.0
85.730659 152.0
85.916893 176.0
85.939026 176.0
85.956062 156.0
85.998085 180.0
86.0504 200.0
86.121788 148.0
86.14817 280.0
86.187233 224.0
86.209862 176.0
86.249283 272.0
86.301048 148.0
86.318825 124.0
86.373787 208.0
86.458565 160.0
86.501518 312.0
86.523071 140.0
86.536026 148.0
86.643448 148.0
86.682358 144.0
86.75705 176.0
86.788017 204.0
86.809692 116.0
86.938995 212.0
86.954597 160.0
87.035553 128.0
87.087418 384.0
87.115494 116.0
87.183739 112.0
87.386093 244.0
87.466011 148.0
87.520103 140.0
87.544312 196.0
87.561638 132.0
87.587494 172.0
87.606644 164.0
87.639313 148.0
87.710976 140.0
87.728767 184.0
87.754868 144.0
87.795464 208.0
87.861275 152.0
87.879837 140.0
87.908928 156.0
87.959709 212.0
87.981552 384.0
88.054939 100.0
88.098274 160.0
88.137108 188.0
88.159927 144.0
88.184227 224.0
88.208122 168.0
88.231682 144.0
88.249084 236.0
88.277702 180.0
88.309494 160.0
88.410454 216.0
88.463974 160.0
88.496208 160.0
88.535957 164.0
88.612846 160.0
88.670593 120.0
88.710915 212.0
88.860535 152.0
88.890259 288.0
88.91703 200.0
88.991623 220.0
89.020538 180.0
89.09304 172.0
89.140015 156.0
89.258438 140.0
89.299423 192.0
89.394524 164.0
89.408936 204.0
89.450447 140.0
89.563438 132.0
89.581802 148.0
89.751221 148.0
89.766228 204.0
89.816261 188.0
89.855316 152.0
89.893723 172.0
89.908356 208.0
89.933723 156.0
89.972527 152.0
90.011185 152.0
90.027115 176.0
90.066078 148.0
90.116066 144.0
90.168976 144.0
90.262894 128.0
90.2808 164.0
90.295647 140.0
90.339157 160.0
90.382835 184.0
90.465942 168.0
90.647774 160.0
90.69326 152.0
90.730247 160.0
90.778358 132.0
90.866295 356.0
90.889404 144.0
90.908379 272.0
90.962128 204.0
91.022057 192.0
91.055305 2316.0
91.192284 96.0
91.222855 164.0
91.26384 172.0
91.295105 196.0
91.329071 168.0
91.349655 100.0
91.43145 184.0
91.450821 148.0
91.468246 184.0
91.50251 180.0
91.597351 128.0
91.626305 224.0
91.646614 200.0
91.673943 160.0
91.700623 156.0
91.80883 132.0
91.829376 144.0
91.855865 356.0
91.899994 192.0
91.919754 164.0
91.982918 192.0
91.996284 148.0
92.017159 180.0
92.054359 196.0
92.087936 196.0
92.103218 160.0
92.120407 184.0
92.168175 164.0
92.182449 204.0
92.259918 164.0
92.279037 152.0
92.294327 144.0
92.347397 364.0
92.388329 188.0
92.413872 128.0
92.43779 140.0
92.462288 160.0
92.535416 144.0
92.61438 204.0
92.669479 176.0
92.696419 136.0
92.715469 244.0
92.81324 148.0
92.880753 156.0
92.934074 248.0
92.953575 148.0
93.053345 144.0
93.083229 148.0
93.309563 176.0
93.345207 104.0
93.421135 140.0
93.464401 208.0
93.568336 192.0
93.590851 132.0
93.610695 144.0
93.647736 204.0
93.678352 140.0
93.73526 192.0
93.760956 312.0
93.774445 156.0
93.802177 188.0
93.828423 180.0
93.874695 160.0
93.958664 100.0
94.034821 140.0
94.056335 168.0
94.083359 196.0
94.121696 148.0
94.2202 188.0
94.234901 144.0
94.254982 144.0
94.340233 180.0
94.363014 152.0
94.43438 180.0
94.462898 140.0
94.483131 160.0
94.505005 104.0
94.521828 140.0
94.542465 192.0
94.554031 356.0
94.586174 176.0
94.606117 148.0
94.641365 148.0
94.727051 140.0
94.744484 180.0
94.780174 172.0
94.812302 272.0
94.854881 188.0
94.990685 196.0
95.057495 120.0
95.198357 156.0
95.25663 164.0
95.279938 168.0
95.293541 156.0
95.357666 160.0
95.377762 180.0
95.449249 184.0
95.497627 176.0
95.552818 156.0
95.635414 200.0
95.657928 380.0
95.69693 160.0
95.725357 172.0
95.805733 164.0
95.820801 148.0
95.943581 216.0
95.996841 216.0
96.04303 168.0
96.136681 140.0
96.177666 192.0
96.193542 152.0
96.210114 264.0
96.311287 204.0
96.371025 200.0
96.393005 340.0
96.453087 172.0
96.488274 156.0
96.529335 216.0
96.556709 164.0
96.621262 180.0
96.641029 196.0
96.679962 152.0
96.736725 152.0
96.760216 184.0
96.784874 196.0
96.807213 144.0
96.875763 212.0
96.912117 200.0
96.932076 124.0
96.99334 196.0
97.01403 208.0
97.148254 152.0
97.182816 364.0
97.199265 260.0
97.248329 196.0
97.320961 228.0
97.352356 180.0
97.379875 172.0
97.419159 252.0
97.450951 288.0
97.487633 132.0
97.557167 176.0
97.579376 184.0
97.62751 176.0
97.719955 200.0
97.733383 180.0
97.755379 196.0
97.806549 208.0
97.855766 148.0
97.893173 152.0
97.942825 96.0
98.085045 220.0
98.108299 236.0
98.179924 148.0
98.308617 116.0
98.366211 104.0
98.460678 172.0
98.56575 264.0
98.660713 152.0
98.684135 160.0
98.733871 176.0
98.824867 188.0
98.894127 252.0
98.926079 200.0
99.004997 176.0
99.073662 240.0
99.106186 148.0
99.151604 156.0
99.215034 156.0
99.248741 164.0
99.306252 204.0
99.346542 128.0
99.363083 268.0
99.405441 180.0
99.437614 144.0
99.508263 120.0
99.539207 156.0
99.568993 156.0
99.621857 192.0
99.692017 180.0
99.767456 152.0
99.80471 204.0
99.818626 164.0
99.836784 212.0
99.983475 180.0
100.053406 152.0
100.081284 140.0
100.125755 164.0
100.15696 212.0
100.231529 140.0
100.289162 196.0
100.36187 156.0
100.394958 164.0
100.416077 156.0
100.484398 160.0
100.511833 228.0
100.566986 132.0
100.593735 108.0
100.609169 244.0
100.646194 152.0
100.689499 168.0
100.739944 156.0
100.802673 388.0
100.870613 352.0
100.891319 156.0
100.963295 192.0
100.985855 144.0
101.03331 176.0
101.091545 148.0
101.129356 192.0
101.188545 120.0
101.21344 204.0
101.239471 260.0
101.284058 228.0
101.303566 252.0
101.331688 220.0
101.384895 180.0
101.452591 252.0
101.4814 240.0
101.500343 156.0
101.534019 160.0
101.560753 132.0
101.620323 204.0
101.646408 228.0
101.69072 184.0
101.741928 148.0
101.769798 172.0
101.798019 120.0
101.827087 268.0
101.885345 208.0
101.947632 140.0
102.011948 144.0
102.082542 196.0
102.160912 160.0
102.249519 144.0
102.312645 212.0
102.360802 196.0
102.390228 224.0
102.409279 140.0
102.435738 160.0
102.470512 224.0
102.527435 152.0
102.565826 156.0
102.619949 160.0
102.641273 228.0
102.665352 120.0
102.702629 172.0
102.755783 156.0
102.787361 208.0
102.815384 212.0
102.928658 208.0
103.004707 232.0
103.056183 904.0
103.10791 164.0
103.21505 148.0
103.302559 152.0
103.385521 140.0
103.437706 184.0
103.45636 200.0
103.521156 176.0
103.542282 268.0
103.640541 128.0
103.664986 164.0
103.749313 132.0
103.784576 172.0
103.821281 120.0
103.900185 164.0
104.023979 276.0
104.051239 340.0
104.086914 180.0
104.105194 172.0
104.126633 120.0
104.143715 120.0
104.23114 160.0
104.369453 176.0
104.402901 144.0
104.564651 200.0
104.625526 172.0
104.670509 160.0
104.696877 152.0
104.766235 176.0
104.799896 192.0
104.841599 352.0
104.857216 136.0
104.899452 172.0
104.959023 328.0
104.988411 160.0
105.016907 168.0
105.051514 288.0
105.071289 3176.0
105.13121 164.0
105.150841 260.0
105.204697 304.0
105.254395 168.0
105.278198 160.0
105.297295 216.0
105.319046 148.0
105.362778 264.0
105.435509 200.0
105.472404 152.0
105.501701 176.0
105.568275 212.0
105.618492 220.0
105.693169 176.0
105.719772 360.0
105.759499 224.0
105.785362 168.0
105.836449 176.0
105.88765 156.0
105.922943 160.0
106.02124 172.0
106.065315 4624.0
106.113396 216.0
106.13308 188.0
106.263947 176.0
106.29425 188.0
106.340759 204.0
106.398232 148.0
106.442566 108.0
106.462822 128.0
106.493614 196.0
106.509026 168.0
106.531723 184.0
106.572807 180.0
106.64402 160.0
106.779297 144.0
106.823631 112.0
106.861977 292.0
106.907486 196.0
107.00679 156.0
107.027382 156.0
107.075974 216.0
107.161308 176.0
107.241173 144.0
107.264305 168.0
107.316986 152.0
107.394211 152.0
107.524193 448.0
107.541328 172.0
107.557007 196.0
107.590302 140.0
107.620308 128.0
107.665092 292.0
107.73481 152.0
107.787636 176.0
107.831985 136.0
107.87027 356.0
107.922882 324.0
107.983559 176.0
107.997704 332.0
108.013771 304.0
108.05719 192.0
108.07312 132.0
108.092598 160.0
108.140099 148.0
108.18708 172.0
108.208412 160.0
108.289169 144.0
108.355667 196.0
108.381386 124.0
108.396362 216.0
108.425385 236.0
108.503456 172.0
108.522575 184.0
108.542 200.0
108.577255 168.0
108.605064 224.0
108.749687 100.0
108.768135 256.0
108.836647 140.0
108.860291 164.0
108.93988 220.0
109.066895 164.0
109.132652 348.0
109.180565 132.0
109.238571 124.0
109.260643 168.0
109.283531 160.0
109.316826 168.0
109.358452 224.0
109.392975 136.0
109.431313 192.0
109.461037 144.0
109.577103 148.0
109.68885 276.0
109.752182 156.0
109.825172 164.0
109.858551 292.0
109.87941 228.0
109.928703 164.0
110.042046 208.0
110.118309 200.0
110.167511 284.0
110.195267 112.0
110.23745 212.0
110.292091 168.0
110.317978 152.0
110.361877 156.0
110.419662 204.0
110.445808 184.0
110.474815 176.0
110.540703 220.0
110.585777 156.0
110.777687 136.0
110.841217 152.0
110.862091 108.0
110.912476 148.0
110.933434 204.0
110.988007 136.0
111.036179 232.0
111.055054 160.0
111.09346 116.0
111.180168 160.0
111.197723 164.0
111.247292 196.0
111.333893 140.0
111.384254 264.0
111.405334 156.0
111.428391 308.0
111.49411 276.0
111.530174 128.0
111.590408 120.0
111.645218 156.0
111.677635 128.0
111.770432 276.0
111.833168 156.0
111.865349 148.0
111.890816 312.0
111.907692 180.0
111.946373 116.0
111.99028 164.0
112.125221 200.0
112.199226 148.0
112.304436 140.0
112.35659 188.0
112.423157 148.0
112.449966 172.0
112.578804 228.0
112.630424 136.0
112.775284 200.0
112.887238 168.0
112.996613 140.0
113.021469 176.0
113.069275 168.0
113.090439 168.0
113.166649 144.0
113.196243 164.0
113.261948 144.0
113.283676 144.0
113.312286 152.0
113.338211 160.0
113.35778 188.0
113.412384 240.0
113.554306 304.0
113.632645 176.0
113.699883 160.0
113.76239 180.0
113.858963 200.0
113.897621 176.0
113.976906 152.0
113.995552 196.0
114.02578 152.0
114.042786 172.0
114.096779 160.0
114.125816 136.0
114.1763 120.0
114.259682 140.0
114.280373 260.0
114.395889 180.0
114.415047 160.0
114.51403 124.0
114.564117 264.0
114.583786 276.0
114.636566 160.0
114.683578 136.0
114.726082 188.0
114.745071 128.0
114.749062 180.0
114.794792 160.0
114.903091 244.0
114.950035 156.0
114.966698 104.0
115.01754 140.0
115.053894 4832.0
115.107666 332.0
115.154663 188.0
115.183838 136.0
115.20388 112.0
115.242073 208.0
115.283142 180.0
115.315224 196.0
115.368393 192.0
115.419975 180.0
115.464882 176.0
115.548309 212.0
115.573982 196.0
115.591103 196.0
115.610359 256.0
115.656174 300.0
115.77449 408.0
115.808823 224.0
115.84446 132.0
115.860886 148.0
115.905876 140.0
115.943672 144.0
116.024994 132.0
116.061211 468.0
116.161003 216.0
116.208687 124.0
116.28154 200.0
116.329865 116.0
116.385605 184.0
116.414635 188.0
116.527687 180.0
116.572594 200.0
116.650612 156.0
116.679634 216.0
116.697906 180.0
116.717262 296.0
116.794685 176.0
116.844162 148.0
116.944977 156.0
117.008354 372.0
117.069893 4520.0
117.147705 188.0
117.240417 156.0
117.260422 156.0
117.340614 188.0
117.378387 136.0
117.471062 312.0
117.493118 196.0
117.512054 212.0
117.542152 152.0
117.578949 212.0
117.654495 156.0
117.669609 180.0
117.725365 156.0
117.741577 208.0
117.85968 292.0
117.879128 164.0
117.907219 184.0
117.924515 176.0
117.948288 192.0
117.972397 208.0
118.003822 180.0
118.065994 12460.0
118.115929 364.0
118.133041 100.0
118.156548 172.0
118.190506 164.0
118.235207 104.0
118.250221 176.0
118.291687 100.0
118.321487 140.0
118.34024 204.0
118.380997 140.0
118.431175 168.0
118.465324 176.0
118.556473 216.0
118.635254 208.0
118.654602 176.0
118.677017 164.0
118.727737 164.0
118.855728 168.0
118.926285 164.0
118.951218 176.0
119.033722 192.0
119.071175 1012.0
119.209877 216.0
119.231407 152.0
119.259544 160.0
119.32711 148.0
119.40979 324.0
119.451012 160.0
119.510323 184.0
119.593407 164.0
119.617577 188.0
119.659935 148.0
119.701668 380.0
119.723083 144.0
119.763031 176.0
119.829811 276.0
119.846375 300.0
119.877373 160.0
119.909584 312.0
119.958397 188.0
120.002945 204.0
120.081001 8276.0
120.106728 164.0
120.130669 284.0
120.196419 208.0
120.262207 128.0
120.280655 132.0
120.366386 196.0
120.416016 176.0
120.438454 180.0
120.45797 244.0
120.465973 228.0
120.501808 160.0
120.625 108.0
120.694046 168.0
120.724052 224.0
120.914825 128.0
120.950661 208.0
120.982368 196.0
121.028702 232.0
121.08371 1060.0
121.112152 224.0
121.132751 148.0
121.293098 204.0
121.32312 204.0
121.344437 156.0
121.414307 176.0
121.495766 164.0
121.577469 136.0
121.601097 172.0
121.684929 272.0
121.814163 108.0
121.893173 268.0
122.008934 192.0
122.081444 216.0
122.126717 140.0
122.15815 124.0
122.197708 184.0
122.230804 220.0
122.27697 152.0
122.321732 248.0
122.397804 108.0
122.458565 180.0
122.502235 224.0
122.6194 160.0
122.651825 180.0
122.708359 124.0
122.737251 160.0
122.771523 220.0
122.854271 128.0
122.956841 260.0
123.049553 148.0
123.11113 180.0
123.176338 252.0
123.198387 152.0
123.243919 112.0
123.320946 248.0
123.358887 188.0
123.480453 148.0
123.588852 152.0
123.613747 336.0
123.672348 148.0
123.761497 172.0
123.839005 116.0
123.947044 188.0
123.975945 168.0
124.000748 148.0
124.064445 124.0
124.097084 96.0
124.22599 96.0
124.374451 148.0
124.455513 144.0
124.554512 424.0
124.609642 192.0
124.699875 192.0
124.716759 188.0
124.790009 220.0
124.828674 188.0
124.865051 432.0
124.931442 124.0
124.962585 176.0
125.080223 160.0
125.09581 140.0
125.160744 120.0
125.203423 132.0
125.270882 168.0
125.287323 140.0
125.35807 144.0
125.380913 216.0
125.432961 140.0
125.54142 156.0
125.583351 140.0
125.660339 364.0
125.686058 172.0
125.791451 132.0
125.885498 152.0
125.947624 160.0
125.994225 116.0
126.021347 156.0
126.129158 180.0
126.146896 148.0
126.173325 228.0
126.21357 168.0
126.253426 180.0
126.290169 128.0
126.340691 172.0
126.410416 152.0
126.529045 188.0
126.627571 156.0
126.646988 192.0
126.676918 128.0
126.758186 172.0
126.786644 192.0
126.887512 220.0
126.9086 108.0
126.946892 132.0
126.965996 184.0
127.027802 300.0
127.053505 316.0
127.162125 104.0
127.194168 252.0
127.336304 156.0
127.372238 148.0
127.43531 272.0
127.5467 276.0
127.602913 160.0
127.641998 292.0
127.72007 148.0
127.824142 156.0
127.855644 140.0
127.914169 192.0
127.938927 168.0
128.062561 992.0
128.089569 132.0
128.145157 120.0
128.265564 212.0
128.294876 292.0
128.3535 152.0
128.376053 436.0
128.424973 168.0
128.477493 176.0
128.51091 132.0
128.539413 256.0
128.557739 140.0
128.5961 156.0
128.643616 328.0
128.694214 176.0
128.79454 196.0
128.90654 148.0
128.944962 200.0
128.970627 176.0
129.014969 144.0
129.070053 3452.0
129.113022 156.0
129.134094 232.0
129.202744 236.0
129.232529 144.0
129.36795 152.0
129.416656 140.0
129.45137 128.0
129.457169 128.0
129.578568 144.0
129.59964 160.0
129.691223 196.0
129.737198 284.0
129.824219 160.0
129.965164 196.0
129.99144 172.0
130.011215 164.0
130.018677 132.0
130.065964 6128.0
130.168304 296.0
130.188736 224.0
130.245514 164.0
130.28299 168.0
130.329575 148.0
130.345474 252.0
130.379105 196.0
130.457382 204.0
130.50914 336.0
130.534714 160.0
130.554611 264.0
130.576843 228.0
130.678375 196.0
130.788956 160.0
130.813568 104.0
130.879181 196.0
130.929184 236.0
131.034897 156.0
131.07341 2656.0
131.13681 132.0
131.157959 244.0
131.17659 152.0
131.208115 172.0
131.31073 160.0
131.328979 324.0
131.416428 120.0
131.47728 176.0
131.533844 356.0
131.584442 168.0
131.743851 208.0
131.771439 204.0
131.81514 160.0
131.854095 168.0
131.872391 148.0
132.055008 124.0
132.081573 4824.0
132.181122 176.0
132.215454 340.0
132.280258 176.0
132.30603 216.0
132.393112 172.0
132.438492 172.0
132.516983 152.0
132.532364 264.0
132.567261 96.0
132.618332 148.0
132.672791 168.0
132.719421 144.0
132.735458 156.0
132.792465 168.0
132.862122 128.0
132.91774 200.0
133.00618 192.0
133.083954 780.0
133.225754 136.0
133.249603 152.0
133.3806 168.0
133.456467 204.0
133.54776 172.0
133.608261 148.0
133.702682 176.0
133.784241 188.0
133.807907 112.0
133.877213 184.0
133.923584 180.0
133.976608 148.0
134.035828 148.0
134.096695 592.0
134.195557 140.0
134.432632 164.0
134.460831 348.0
134.547485 112.0
134.668625 180.0
134.689423 292.0
134.74675 152.0
134.783112 152.0
134.897858 144.0
134.99649 144.0
135.016159 164.0
135.040695 168.0
135.105316 160.0
135.167984 160.0
135.204056 252.0
135.281174 120.0
135.364746 184.0
135.402283 172.0
135.459717 152.0
135.517624 148.0
135.56427 184.0
135.641006 172.0
135.741867 108.0
135.793488 144.0
135.817307 120.0
135.865402 232.0
135.909485 176.0
136.020874 144.0
136.231384 196.0
136.26973 156.0
136.311188 160.0
136.357666 144.0
136.427933 192.0
136.541336 212.0
136.582138 376.0
136.606461 220.0
136.656769 308.0
136.688873 324.0
136.740631 176.0
136.778671 188.0
136.894867 176.0
136.94133 144.0
137.031113 168.0
137.050415 148.0
137.068848 160.0
137.099396 232.0
137.18399 176.0
137.258606 240.0
137.372589 156.0
137.390671 132.0
137.429398 412.0
137.526886 172.0
137.544388 200.0
137.671646 156.0
137.692657 152.0
137.711349 216.0
137.751053 140.0
137.83049 140.0
137.851837 340.0
137.881897 292.0
137.906616 160.0
137.963715 168.0
138.020081 176.0
138.043213 236.0
138.15271 176.0
138.193924 120.0
138.323959 152.0
138.363449 180.0
138.39888 184.0
138.449371 100.0
138.473816 152.0
138.605255 188.0
138.660355 156.0
138.692398 372.0
138.722763 380.0
138.780304 152.0
138.804886 120.0
138.870682 148.0
139.080658 188.0
139.15387 152.0
139.196121 164.0
139.221909 180.0
139.305206 140.0
139.363647 152.0
139.438095 156.0
139.468658 200.0
139.514603 160.0
139.550995 300.0
139.635468 164.0
139.665848 272.0
139.701447 144.0
139.724976 156.0
139.774384 144.0
139.85675 152.0
139.87323 148.0
139.906189 156.0
139.948563 148.0
139.983887 172.0
140.08046 204.0
140.139359 148.0
140.162918 176.0
140.205185 132.0
140.259537 200.0
140.497711 316.0
140.513733 208.0
140.547272 188.0
140.606262 184.0
140.726944 128.0
140.74707 156.0
140.767807 208.0
140.819489 308.0
140.925049 204.0
140.946869 204.0
141.007965 136.0
141.043915 160.0
141.068954 292.0
141.091568 152.0
141.120132 104.0
141.163788 172.0
141.19075 140.0
141.21582 144.0
141.331741 148.0
141.364868 172.0
141.417374 148.0
141.440598 160.0
141.540741 184.0
141.56134 184.0
141.632401 196.0
141.655685 116.0
141.757202 160.0
141.781662 124.0
141.843292 192.0
141.871735 164.0
141.89502 156.0
141.940353 132.0
141.992661 248.0
142.070221 152.0
142.186081 168.0
142.202713 180.0
142.2323 144.0
142.264236 168.0
142.298782 148.0
142.320145 212.0
142.398804 196.0
142.537491 112.0
142.61792 116.0
142.670349 196.0
142.803665 216.0
142.817642 308.0
142.844666 120.0
142.883438 140.0
142.952515 132.0
143.075256 604.0
143.104782 144.0
143.121521 132.0
143.154907 156.0
143.188126 152.0
143.241226 192.0
143.314377 180.0
143.347748 144.0
143.387329 216.0
143.432571 148.0
143.465149 140.0
143.516235 140.0
143.538437 212.0
143.572617 196.0
143.599213 116.0
143.686325 156.0
143.821487 100.0
143.843826 144.0
143.896179 112.0
143.939331 228.0
143.99321 292.0
144.050461 136.0
144.081329 10140.0
144.239273 164.0
144.334091 96.0
144.425446 208.0
144.452682 172.0
144.488373 164.0
144.513657 228.0
144.604111 196.0
144.647003 156.0
144.678131 156.0
144.694885 156.0
144.723618 160.0
144.77594 156.0
144.819412 164.0
144.934402 148.0
145.006699 172.0
145.051834 168.0
145.088028 3364.0
145.123367 148.0
145.173813 128.0
145.212646 180.0
145.23407 164.0
145.270874 280.0
145.301239 216.0
145.318039 276.0
145.352188 172.0
145.370697 200.0
145.411362 188.0
145.483826 148.0
145.516693 208.0
145.559799 172.0
145.589981 232.0
145.770935 176.0
145.80069 148.0
145.888809 196.0
145.932907 176.0
145.997375 232.0
146.03656 136.0
146.096725 14676.0
146.132858 148.0
146.168625 156.0
146.209534 264.0
146.226379 264.0
146.296646 192.0
146.361664 308.0
146.486435 148.0
146.567413 176.0
146.69873 160.0
146.767242 152.0
146.827423 144.0
146.971985 132.0
147.050156 180.0
147.072464 124.0
147.101898 2156.0
147.138855 148.0
147.259598 136.0
147.324875 176.0
147.353546 188.0
147.376678 188.0
147.417755 144.0
147.434662 188.0
147.46994 128.0
147.560364 140.0
147.585938 104.0
147.780792 176.0
147.826096 272.0
147.883713 128.0
147.910812 204.0
147.969238 172.0
148.007523 128.0
148.078217 140.0
148.111755 3180.0
148.232559 152.0
148.313232 172.0
148.416214 200.0
148.443329 212.0
148.544495 172.0
148.588303 244.0
148.60553 340.0
148.689529 164.0
148.76442 144.0
149.004852 140.0
149.114899 220.0
149.202713 108.0
149.228012 156.0
149.374481 168.0
149.415726 152.0
149.454651 144.0
149.476547 168.0
149.508698 172.0
149.536209 156.0
149.558868 160.0
149.585541 108.0
149.698074 196.0
149.718765 112.0
149.754089 192.0
149.80159 192.0
149.956024 192.0
150.015869 244.0
150.043015 148.0
150.156235 156.0
150.270889 164.0
150.32457 284.0
150.497192 100.0
150.51947 180.0
150.612656 176.0
150.699921 168.0
150.732376 168.0
150.78688 144.0
150.837463 208.0
150.901184 188.0
150.919968 208.0
150.964279 272.0
151.015961 152.0
151.04776 324.0
151.105515 156.0
151.158447 144.0
151.183456 108.0
151.238342 140.0
151.336533 184.0
151.369888 212.0
151.570511 252.0
151.608444 156.0
151.629776 148.0
151.728546 160.0
151.756683 168.0
151.839706 132.0
151.905487 136.0
152.042892 160.0
152.068909 180.0
152.135788 160.0
152.269333 136.0
152.353134 152.0
152.419281 160.0
152.484589 160.0
152.523193 308.0
152.585373 168.0
152.645584 116.0
152.691116 204.0
152.814407 132.0
152.836258 288.0
152.858398 204.0
152.950119 176.0
152.986328 180.0
153.068848 320.0
153.119354 152.0
153.207504 164.0
153.272095 160.0
153.307922 192.0
153.362457 108.0
153.389236 180.0
153.44281 192.0
153.51828 100.0
153.567535 404.0
153.605301 184.0
153.643341 184.0
153.682266 144.0
153.704773 152.0
153.725876 144.0
153.75296 152.0
153.794189 148.0
153.856628 176.0
153.977631 204.0
154.038208 152.0
154.066055 140.0
154.112427 148.0
154.139664 156.0
154.193222 152.0
154.244476 152.0
154.360489 164.0
154.407654 156.0
154.514725 200.0
154.532822 224.0
154.558563 156.0
154.677628 148.0
154.746399 108.0
154.844894 264.0
154.895264 140.0
155.001801 324.0
155.030746 100.0
155.072769 296.0
155.108093 180.0
155.148697 180.0
155.210281 264.0
155.239777 176.0
155.297531 124.0
155.324677 188.0
155.415894 188.0
155.454605 188.0
155.514465 100.0
155.55397 132.0
155.627655 140.0
155.691437 124.0
155.738678 176.0
155.849503 308.0
155.870285 144.0
155.919998 192.0
155.944595 156.0
155.976791 108.0
156.021957 172.0
156.048691 160.0
156.081924 1048.0
156.112976 268.0
156.144501 132.0
156.220856 352.0
156.24823 380.0
156.285614 140.0
156.32785 200.0
156.365051 160.0
156.442337 224.0
156.46225 156.0
156.484665 176.0
156.590179 204.0
156.656509 172.0
156.681412 376.0
156.731247 152.0
156.820969 296.0
156.88826 144.0
157.08783 2344.0
157.13588 308.0
157.197067 148.0
157.258881 160.0
157.328018 116.0
157.398315 216.0
157.464676 164.0
157.519714 108.0
157.56459 212.0
157.605896 196.0
157.643356 136.0
157.703491 164.0
157.741302 140.0
157.870895 148.0
157.967255 176.0
158.022537 196.0
158.057144 160.0
158.09671 9056.0
158.197693 152.0
158.250565 176.0
158.307922 172.0
158.44989 112.0
158.622818 152.0
158.640717 160.0
158.723114 148.0
158.796173 168.0
158.868912 288.0
158.901169 136.0
159.032471 384.0
159.065338 160.0
159.102142 3096.0
159.172043 192.0
159.309494 144.0
159.426331 148.0
159.508804 220.0
159.556625 144.0
159.790558 156.0
159.851318 208.0
159.998184 172.0
160.019806 156.0
160.110992 1828.0
160.148102 208.0
160.202103 136.0
160.267715 120.0
160.3022 164.0
160.362564 160.0
160.412689 144.0
160.438263 228.0
160.560287 140.0
160.641708 204.0
160.703003 144.0
160.792633 160.0
160.851898 168.0
160.928452 160.0
161.017853 252.0
161.042603 144.0
161.107895 15812.0
161.175522 248.0
161.211716 156.0
161.246933 120.0
161.314636 132.0
161.344513 140.0
161.363464 104.0
161.403397 124.0
161.430939 284.0
161.468414 168.0
161.518646 196.0
161.556686 176.0
161.588806 148.0
161.644821 244.0
161.687256 232.0
161.870789 324.0
162.000046 112.0
162.065826 144.0
162.111664 1540.0
162.21283 220.0
162.244385 168.0
162.321838 244.0
162.413147 164.0
162.436584 148.0
162.516281 128.0
162.6008 104.0
162.674515 236.0
162.809082 168.0
162.842102 176.0
162.86496 156.0
163.120361 140.0
163.182617 148.0
163.271484 164.0
163.289062 176.0
163.450928 112.0
163.473236 504.0
163.552399 168.0
163.584579 188.0
163.653473 144.0
163.678696 132.0
163.724274 152.0
163.760269 276.0
163.788284 140.0
163.846878 184.0
163.90918 140.0
163.961792 200.0
163.989578 116.0
164.107132 184.0
164.244553 164.0
164.312057 192.0
164.360016 264.0
164.444107 328.0
164.481857 200.0
164.545685 144.0
164.632507 196.0
164.670029 144.0
164.701462 156.0
164.727753 108.0
164.865662 224.0
164.91098 128.0
164.973007 224.0
165.045761 204.0
165.070038 764.0
165.176895 260.0
165.205048 140.0
165.22551 164.0
165.292038 148.0
165.340652 156.0
165.389282 280.0
165.410522 160.0
165.537781 288.0
165.56459 136.0
165.612991 156.0
165.695389 240.0
165.723099 172.0
165.74527 172.0
165.907913 268.0
165.968262 176.0
166.076248 944.0
166.128021 180.0
166.201538 220.0
166.26181 120.0
166.299194 188.0
166.340271 208.0
166.519577 156.0
166.637726 256.0
166.682175 156.0
166.712402 356.0
166.748672 184.0
166.771805 156.0
166.902908 160.0
166.951767 168.0
166.969772 208.0
167.082748 716.0
167.183304 164.0
167.209045 164.0
167.240219 140.0
167.319916 216.0
167.360916 176.0
167.407272 128.0
167.457809 160.0
167.561813 248.0
167.610336 116.0
167.653015 184.0
167.689606 184.0
167.82518 156.0
167.862579 332.0
167.896912 168.0
167.943344 152.0
168.059372 168.0
168.079086 352.0
168.126526 144.0
168.178146 180.0
168.310364 164.0
168.349503 172.0
168.379532 180.0
168.434708 144.0
168.46994 152.0
168.512924 112.0
168.546051 164.0
168.686279 156.0
168.829575 140.0
168.86171 208.0
168.904221 188.0
169.045364 280.0
169.088699 180.0
169.17334 164.0
169.201813 300.0
169.24324 124.0
169.270126 116.0
169.289459 284.0
169.366653 116.0
169.47937 148.0
169.51947 320.0
169.664719 172.0
169.764084 156.0
169.785461 132.0
169.857452 152.0
169.875626 204.0
169.93692 184.0
169.954636 184.0
170.019348 104.0
170.065353 164.0
170.097321 1084.0
170.24678 184.0
170.266754 220.0
170.31691 144.0
170.373718 156.0
170.404068 164.0
170.489395 164.0
170.573792 188.0
170.611725 124.0
170.710419 144.0
170.765869 284.0
170.805191 272.0
170.908813 176.0
170.935669 212.0
170.976883 124.0
171.000732 200.0
171.057983 176.0
171.099091 324.0
171.151321 156.0
171.206406 176.0
171.224625 140.0
171.322998 120.0
171.401779 192.0
171.442505 184.0
171.475861 288.0
171.49646 252.0
171.609924 168.0
171.659836 156.0
171.779633 132.0
171.831772 160.0
171.988571 180.0
172.073761 140.0
172.112 4456.0
172.166977 144.0
172.24707 152.0
172.284714 176.0
172.313232 160.0
172.34465 164.0
172.369873 148.0
172.618195 352.0
172.781036 220.0
172.858017 172.0
172.885025 272.0
172.942612 208.0
173.031616 372.0
173.070892 224.0
173.10968 2020.0
173.229431 112.0
173.251602 208.0
173.280426 192.0
173.314484 188.0
173.423431 196.0
173.518921 164.0
173.667465 180.0
173.712997 200.0
173.733643 160.0
173.853287 220.0
173.950989 108.0
173.996613 264.0
174.04631 148.0
174.115417 3912.0
174.20784 196.0
174.253342 124.0
174.282272 148.0
174.435135 188.0
174.559692 212.0
174.695465 196.0
174.742828 304.0
174.863388 320.0
174.899277 168.0
175.025696 212.0
175.11618 768.0
175.173828 140.0
175.320938 204.0
175.34848 220.0
175.369904 160.0
175.456558 148.0
175.598953 168.0
175.63588 140.0
175.813858 140.0
175.959991 176.0
176.014572 268.0
176.100433 148.0
176.219574 152.0
176.286118 140.0
176.364212 148.0
176.39267 140.0
176.417191 160.0
176.487305 200.0
176.537277 176.0
176.554382 220.0
176.593079 200.0
176.628067 204.0
176.72908 208.0
176.785172 172.0
176.803696 180.0
176.946625 160.0
177.018784 144.0
177.071152 476.0
177.277008 208.0
177.29628 168.0
177.37767 96.0
177.432678 244.0
177.459 208.0
177.587921 148.0
177.684982 116.0
177.716461 192.0
177.818741 168.0
177.923325 132.0
177.996613 184.0
178.07753 3332.0
178.149109 144.0
178.187851 208.0
178.295532 160.0
178.333038 204.0
178.397797 168.0
178.441422 176.0
178.521896 208.0
178.554413 232.0
178.616974 172.0
178.653107 252.0
178.725021 128.0
178.761337 120.0
178.83139 144.0
178.98851 168.0
179.086426 6196.0
179.131592 164.0
179.16301 168.0
179.212204 160.0
179.231934 108.0
179.261108 124.0
179.424377 168.0
179.452942 160.0
179.541519 280.0
179.668396 296.0
179.797302 164.0
179.900284 160.0
180.00708 176.0
180.086227 1404.0
180.164673 156.0
180.190369 164.0
180.303619 200.0
180.34552 152.0
180.407852 228.0
180.453308 140.0
180.512131 152.0
180.65657 172.0
180.739502 244.0
180.77272 164.0
180.809082 172.0
180.920425 188.0
180.957306 140.0
181.005585 148.0
181.039322 148.0
181.101334 2400.0
181.143555 172.0
181.256256 128.0
181.283096 140.0
181.343338 148.0
181.459381 188.0
181.638275 140.0
181.74884 140.0
181.77919 216.0
181.894608 184.0
181.923111 148.0
181.946579 180.0
182.026154 172.0
182.089462 132.0
182.145737 328.0
182.277298 104.0
182.416245 164.0
182.455719 192.0
182.576752 140.0
182.611389 104.0
182.688599 128.0
182.708374 332.0
182.733078 192.0
182.778809 188.0
182.822601 176.0
182.886459 172.0
182.99826 160.0
183.016708 116.0
183.061462 164.0
183.112625 144.0
183.155731 144.0
183.241776 212.0
183.276566 112.0
183.387451 152.0
183.508759 156.0
183.665176 148.0
183.694839 140.0
183.729919 288.0
183.813553 168.0
183.878326 148.0
183.92691 148.0
183.956604 144.0
183.981583 172.0
184.181763 188.0
184.260834 172.0
184.432022 156.0
184.459045 164.0
184.491486 172.0
184.561844 176.0
184.651566 120.0
184.718292 156.0
184.832993 168.0
184.983841 208.0
185.016937 176.0
185.063736 520.0
185.112717 172.0
185.269409 256.0
185.319809 160.0
185.354736 148.0
185.400955 172.0
185.445404 356.0
185.479034 168.0
185.515594 204.0
185.620529 284.0
185.661209 148.0
185.735382 172.0
185.810654 208.0
185.853806 152.0
185.911652 188.0
185.973221 144.0
186.011215 168.0
186.056503 164.0
186.092667 148.0
186.160538 152.0
186.181992 160.0
186.190491 144.0
186.584427 144.0
186.650345 164.0
186.989731 148.0
187.124222 600.0
187.169403 144.0
187.190002 168.0
187.278336 188.0
187.346436 112.0
187.39003 208.0
187.488129 164.0
187.509918 204.0
187.534454 168.0
187.566788 176.0
187.618958 236.0
187.706207 176.0
187.728027 176.0
187.852982 152.0
187.940796 152.0
187.965347 160.0
188.09996 112.0
188.129593 180.0
188.323563 164.0
188.409302 192.0
188.42952 180.0
188.704712 168.0
188.784378 168.0
188.931274 152.0
188.992752 184.0
189.044403 148.0
189.107361 136.0
189.240341 236.0
189.311096 124.0
189.439407 172.0
189.584229 164.0
189.61438 184.0
189.702087 196.0
189.77063 168.0
189.805695 112.0
189.908646 172.0
189.996689 184.0
190.078598 592.0
190.184875 196.0
190.234283 180.0
190.252472 140.0
190.337036 196.0
190.453964 140.0
190.525375 188.0
190.564941 204.0
190.668259 252.0
190.709488 156.0
190.767487 164.0
190.802948 164.0
190.880692 200.0
190.939758 128.0
191.006454 160.0
191.035385 128.0
191.084442 1628.0
191.139465 264.0
191.209427 140.0
191.266388 180.0
191.298141 332.0
191.33252 136.0
191.448334 364.0
191.48262 160.0
191.523315 140.0
191.553436 124.0
191.744492 124.0
191.849106 184.0
191.868408 320.0
191.906815 172.0
192.047882 140.0
192.082031 1816.0
192.210419 160.0
192.251144 132.0
192.290451 148.0
192.325821 252.0
192.363693 164.0
192.391953 232.0
192.482437 136.0
192.558258 172.0
192.664597 128.0
192.710312 148.0
192.765457 192.0
192.856659 144.0
192.922943 144.0
193.011993 232.0
193.089478 19968.0
193.254181 160.0
193.339294 476.0
193.371109 168.0
193.417831 172.0
193.535263 120.0
193.565125 184.0
193.600891 192.0
193.640808 116.0
193.69072 172.0
193.761551 188.0
193.792847 188.0
193.858521 192.0
193.910034 260.0
193.983246 140.0
194.051163 164.0
194.095383 9956.0
194.136093 284.0
194.232254 160.0
194.280624 208.0
194.37677 180.0
194.404831 200.0
194.495453 96.0
194.603851 184.0
194.646347 156.0
194.729156 180.0
194.758835 188.0
194.832428 172.0
195.097214 1392.0
195.206299 164.0
195.225128 128.0
195.280701 136.0
195.362793 196.0
195.388458 172.0
195.428726 208.0
195.458008 264.0
195.559006 152.0
195.641602 208.0
195.679077 268.0
195.785446 180.0
195.814346 156.0
195.860016 132.0
195.883987 236.0
195.9095 148.0
195.968994 148.0
196.000992 144.0
196.034637 112.0
196.073639 120.0
196.115112 136.0
196.31218 108.0
196.406754 284.0
196.445633 148.0
196.525085 140.0
196.589111 208.0
196.654846 184.0
196.697159 136.0
196.745682 196.0
196.83931 196.0
197.109772 192.0
197.217361 164.0
197.349167 180.0
197.405807 264.0
197.442093 192.0
197.50676 200.0
197.538406 96.0
197.569473 156.0
197.631439 144.0
197.974533 132.0
198.088013 140.0
198.113785 160.0
198.181686 184.0
198.201599 144.0
198.401794 148.0
198.45578 160.0
198.502808 184.0
198.527664 204.0
198.655624 132.0
198.696701 160.0
198.73703 256.0
198.78894 196.0
198.829895 128.0
199.035965 180.0
199.107315 176.0
199.347763 160.0
199.370621 120.0
199.46106 116.0
199.524841 168.0
199.544525 192.0
199.564209 200.0
199.645752 156.0
199.71936 176.0
199.74321 160.0
199.842667 144.0
199.882629 176.0
200.000519 128.0
200.15509 156.0
200.191711 156.0
200.353271 328.0
200.38501 172.0
200.4086 236.0
200.439896 248.0
200.496506 164.0
200.52301 200.0
200.543869 172.0
200.61293 132.0
200.633224 160.0
200.687637 160.0
200.712631 144.0
200.796219 152.0
200.882248 176.0
200.939682 156.0
201.060364 244.0
201.16243 156.0
201.208984 128.0
201.266266 276.0
201.360779 216.0
201.440842 200.0
201.497681 184.0
201.569275 232.0
201.756805 128.0
201.923996 156.0
201.975433 140.0
201.998062 192.0
202.023438 128.0
202.078308 536.0
202.139389 164.0
202.214401 288.0
202.285172 156.0
202.325485 256.0
202.385788 188.0
202.428268 180.0
202.503525 180.0
202.57106 144.0
202.601379 132.0
202.665695 180.0
202.72287 204.0
202.881592 140.0
202.911987 176.0
202.973373 120.0
203.01651 228.0
203.075134 336.0
203.174088 176.0
203.230453 208.0
203.27301 192.0
203.292877 296.0
203.316696 172.0
203.343018 172.0
203.394836 156.0
203.522797 164.0
203.56485 104.0
203.613678 224.0
203.646027 164.0
203.713745 120.0
203.797058 180.0
203.863678 152.0
203.929047 140.0
203.968842 196.0
203.99231 156.0
204.030655 156.0
204.079742 2808.0
204.137619 132.0
204.221634 172.0
204.292343 176.0
204.404114 172.0
204.43959 240.0
204.540161 116.0
204.561234 168.0
204.599564 200.0
204.709549 116.0
204.772903 176.0
204.879456 264.0
204.948837 228.0
204.996277 140.0
205.087646 2348.0
205.15657 188.0
205.190109 212.0
205.239746 420.0
205.327469 132.0
205.379303 140.0
205.427933 132.0
205.449142 196.0
205.56662 204.0
205.604782 236.0
205.759537 268.0
205.881744 140.0
205.938766 192.0
205.968689 228.0
206.096497 8232.0
206.255371 224.0
206.337814 172.0
206.386429 140.0
206.415024 188.0
206.437485 164.0
206.495956 112.0
206.536057 144.0
206.736481 264.0
206.813644 120.0
206.852661 112.0
206.945267 128.0
206.967285 144.0
206.98732 152.0
207.020432 320.0
207.104309 7796.0
207.176575 300.0
207.244705 144.0
207.301987 184.0
207.390671 168.0
207.410843 120.0
207.437134 412.0
207.461395 204.0
207.513107 152.0
207.563583 176.0
207.614822 148.0
207.680862 184.0
207.735367 168.0
207.765564 156.0
207.821167 132.0
207.962906 168.0
208.014145 136.0
208.051208 200.0
208.073044 652.0
208.113052 138728.0
208.189484 112.0
208.227539 232.0
208.256485 120.0
208.323364 208.0
208.349045 120.0
208.400391 220.0
208.468277 168.0
208.524994 196.0
208.772247 172.0
208.909164 228.0
208.977219 168.0
209.002228 228.0
209.045166 188.0
209.115753 16788.0
209.167709 136.0
209.264221 168.0
209.329803 128.0
209.404404 204.0
209.481888 216.0
209.527206 196.0
209.606995 292.0
209.655212 204.0
209.676941 380.0
209.736893 140.0
209.776901 228.0
209.844101 184.0
209.898193 184.0
209.957169 172.0
210.06366 228.0
210.119781 1808.0
210.174057 208.0
210.20578 152.0
210.290314 100.0
210.348877 148.0
210.463318 132.0
210.512299 200.0
210.556 120.0
210.59314 120.0
210.619003 176.0
210.752396 228.0
210.786041 168.0
210.868378 184.0
210.922363 216.0
211.001862 132.0
211.129898 168.0
211.203186 252.0
211.245773 144.0
211.397202 160.0
211.428574 164.0
211.473389 128.0
211.523788 128.0
211.601685 120.0
211.643478 164.0
211.770172 112.0
212.259705 132.0
212.309967 192.0
212.425995 208.0
212.524628 176.0
212.544067 128.0
212.592255 136.0
212.669373 128.0
212.743637 156.0
212.933762 128.0
212.96051 176.0
213.034271 156.0
213.170288 124.0
213.294235 204.0
213.372009 196.0
213.40654 152.0
213.444244 228.0
213.532654 144.0
213.62706 280.0
213.692642 160.0
213.724655 192.0
213.750839 180.0
213.782852 160.0
213.858521 184.0
214.046768 156.0
214.104538 224.0
214.179733 152.0
214.245819 184.0
214.287079 176.0
214.380051 172.0
214.600296 236.0
214.663925 120.0
214.711075 116.0
214.769714 320.0
214.808441 164.0
214.899277 120.0
214.993118 204.0
215.063965 168.0
215.146957 176.0
215.414627 188.0
215.479889 172.0
215.503265 152.0
215.539764 220.0
215.608459 152.0
215.793243 112.0
215.824783 152.0
215.982635 160.0
216.067444 372.0
216.091995 156.0
216.136688 196.0
216.295013 208.0
216.348602 236.0
216.476257 112.0
216.575241 152.0
216.644684 144.0
216.746826 148.0
216.992859 132.0
217.042038 140.0
217.091217 1124.0
217.149811 172.0
217.198181 176.0
217.371414 196.0
217.411636 164.0
217.500549 144.0
217.673767 188.0
217.730255 384.0
217.811417 156.0
217.855865 168.0
217.879364 188.0
217.911682 140.0
217.999832 176.0
218.051422 148.0
218.094589 3048.0
218.151871 132.0
218.256119 160.0
218.286987 160.0
218.351761 224.0
218.37558 104.0
218.516342 224.0
218.548187 108.0
218.583298 108.0
218.694672 116.0
218.761612 156.0
218.789307 148.0
218.867325 172.0
218.935333 140.0
218.982407 148.0
219.052338 204.0
219.103912 4100.0
219.229935 148.0
219.251617 164.0
219.332397 204.0
219.453445 140.0
219.514206 120.0
219.545364 140.0
219.581451 136.0
219.865051 188.0
219.91156 264.0
219.957779 128.0
220.067657 188.0
220.11261 12424.0
220.192764 164.0
220.237122 124.0
220.283249 188.0
220.311523 176.0
220.364868 180.0
220.487122 164.0
220.545685 168.0
220.668518 176.0
220.711792 152.0
220.891068 172.0
220.915863 200.0
220.94249 176.0
221.071808 196.0
221.11702 2068.0
221.15239 204.0
221.328369 340.0
221.398331 256.0
221.433868 164.0
221.490753 116.0
221.57399 132.0
221.597519 220.0
221.768799 176.0
221.799545 152.0
221.837189 144.0
221.865036 180.0
221.94371 172.0
222.035141 224.0
222.089661 140.0
222.127991 25740.0
222.192413 152.0
222.321793 248.0
222.488174 180.0
222.620148 160.0
222.65509 172.0
222.701126 120.0
222.730042 196.0
222.904572 196.0
222.98259 232.0
223.065704 208.0
223.131073 2996.0
223.217102 244.0
223.289322 144.0
223.311462 224.0
223.446472 224.0
223.49408 164.0
223.535736 216.0
223.594833 112.0
223.645859 204.0
223.767914 272.0
223.872131 160.0
223.911926 164.0
224.13443 564.0
224.184708 156.0
224.215515 152.0
224.236557 184.0
224.292221 176.0
224.337952 200.0
224.515335 136.0
224.570221 120.0
224.698425 160.0
224.805206 288.0
224.831894 136.0
224.976837 112.0
224.996231 300.0
225.151505 184.0
225.196304 156.0
225.244888 180.0
225.429337 192.0
225.450256 140.0
225.554871 160.0
225.641312 120.0
225.695374 156.0
225.85524 124.0
225.887009 164.0
225.925674 148.0
225.952591 148.0
226.012436 148.0
226.14711 180.0
226.242096 196.0
226.272827 148.0
226.314743 140.0
226.350677 248.0
226.467484 196.0
226.551132 168.0
226.597946 184.0
226.619141 148.0
226.805115 188.0
226.842041 164.0
227.00528 152.0
227.030701 160.0
227.105911 160.0
227.303909 140.0
227.410187 156.0
227.444016 152.0
227.501999 156.0
227.556046 156.0
227.607086 160.0
227.676163 152.0
227.70018 164.0
227.84021 168.0
227.872879 220.0
228.09584 176.0
228.16803 144.0
228.218796 248.0
228.262161 180.0
228.313278 164.0
228.367157 184.0
228.41478 148.0
228.519363 148.0
228.56897 220.0
228.670975 184.0
228.703339 260.0
228.767624 144.0
228.806747 140.0
228.935608 156.0
229.000732 144.0
229.070145 208.0
229.141571 308.0
229.261581 204.0
229.356705 188.0
229.544952 164.0
229.575104 216.0
229.595673 176.0
229.719879 160.0
229.861694 172.0
229.903931 152.0
229.928085 160.0
229.976364 172.0
230.09729 500.0
230.154556 172.0
230.234329 136.0
230.272263 148.0
230.345367 192.0
230.399124 152.0
230.432358 180.0
230.54718 156.0
230.609406 196.0
230.680908 148.0
230.802231 260.0
230.882751 172.0
230.905899 160.0
231.043076 200.0
231.099319 284.0
231.172287 164.0
231.267548 132.0
231.359894 216.0
231.405426 176.0
231.766693 212.0
231.793961 172.0
231.827087 116.0
231.872757 172.0
231.918793 168.0
231.942459 180.0
231.98381 172.0
232.012833 168.0
232.060699 144.0
232.112808 2460.0
232.172379 120.0
232.298294 116.0
232.36702 320.0
232.51535 176.0
232.56427 144.0
232.597656 172.0
232.630417 172.0
232.813309 156.0
232.867905 140.0
232.895233 152.0
233.013351 136.0
233.071442 180.0
233.116959 500.0
233.211975 276.0
233.247711 148.0
233.289795 128.0
233.329865 156.0
233.481415 108.0
233.597412 176.0
233.676193 120.0
233.846588 112.0
233.85434 100.0
233.889526 176.0
234.002167 236.0
234.035233 144.0
234.070358 132.0
234.127838 9584.0
234.271362 112.0
234.371902 192.0
234.504791 156.0
234.594376 176.0
234.651123 156.0
234.674881 156.0
234.784271 168.0
234.829926 176.0
234.921402 276.0
234.968307 148.0
234.995758 160.0
235.028244 160.0
235.125916 2876.0
235.226395 164.0
235.266754 192.0
235.36203 456.0
235.468918 312.0
235.522247 140.0
235.554443 140.0
235.614243 124.0
235.728119 156.0
235.914215 180.0
235.95784 212.0
236.05162 116.0
236.093201 140.0
236.14032 1556.0
236.231323 132.0
236.254333 244.0
236.282028 144.0
236.612564 176.0
236.68338 152.0
236.753418 152.0
236.781845 180.0
236.833328 356.0
236.893478 148.0
236.966843 148.0
237.081131 148.0
237.138138 740.0
237.20752 200.0
237.383392 188.0
237.464432 148.0
237.524612 184.0
237.623016 248.0
237.81221 180.0
237.83876 176.0
237.900848 124.0
238.036194 184.0
238.149094 128.0
238.22644 96.0
238.314133 224.0
238.471161 216.0
238.593063 124.0
238.678909 128.0
238.79126 188.0
238.89447 340.0
238.960449 184.0
239.037949 144.0
239.113037 184.0
239.146759 204.0
239.554626 140.0
239.647049 160.0
239.678406 116.0
239.749207 184.0
239.77533 152.0
240.205688 196.0
240.229736 156.0
240.36412 180.0
240.402512 160.0
240.456772 132.0
240.587708 160.0
240.666031 120.0
240.705765 120.0
240.74173 168.0
240.799026 148.0
240.933594 168.0
241.010742 136.0
241.072144 172.0
241.111679 164.0
241.239548 180.0
241.657059 216.0
241.709045 360.0
241.997513 200.0
242.049805 192.0
242.347519 148.0
242.465271 148.0
242.496262 148.0
242.727295 168.0
242.783096 132.0
242.917969 148.0
242.942551 108.0
243.006271 276.0
243.035858 156.0
243.203445 172.0
243.243225 200.0
243.324509 164.0
243.413712 156.0
243.479309 188.0
243.607117 152.0
243.656616 184.0
243.678772 248.0
243.974106 284.0
244.000946 176.0
244.204498 172.0
244.234085 120.0
244.259918 144.0
244.322128 224.0
244.350906 412.0
244.413849 112.0
244.547211 176.0
244.603943 168.0
244.636444 172.0
244.882431 148.0
245.039154 156.0
245.103622 152.0
245.174911 192.0
245.369873 160.0
245.452744 184.0
245.482422 192.0
245.567215 164.0
245.598129 188.0
245.66713 132.0
245.848907 192.0
245.947495 192.0
246.015854 240.0
246.067413 188.0
246.121979 212.0
246.239059 132.0
246.339111 184.0
246.434982 140.0
246.46817 168.0
246.495895 112.0
246.540176 148.0
246.570328 152.0
246.620346 208.0
246.684341 152.0
246.839188 176.0
247.05072 196.0
247.122925 568.0
247.239609 184.0
247.282501 176.0
247.592041 104.0
247.678589 172.0
247.713058 168.0
247.748199 196.0
247.912918 212.0
248.044556 220.0
248.131241 7024.0
248.201508 124.0
248.37764 396.0
248.53067 236.0
248.649338 176.0
248.703262 140.0
248.766052 152.0
248.847672 208.0
248.957169 140.0
249.000381 184.0
249.036087 164.0
249.067368 180.0
249.137131 1404.0
249.176468 144.0
249.280319 184.0
249.350281 160.0
249.375427 148.0
249.592346 156.0
249.691849 168.0
249.7341 212.0
249.803726 132.0
249.85025 188.0
250.146103 8088.0
250.27829 148.0
250.330811 212.0
250.373688 232.0
250.416611 156.0
250.558044 156.0
250.588287 124.0
250.6875 168.0
250.784821 132.0
250.911087 248.0
250.990417 152.0
251.099167 140.0
251.148071 1864.0
251.211182 148.0
251.252197 140.0
251.388855 180.0
251.514114 196.0
251.664536 124.0
251.709488 156.0
251.91507 148.0
252.149612 452.0
252.421432 320.0
252.49675 176.0
252.543488 256.0
252.594223 324.0
252.648026 228.0
252.699188 144.0
252.91861 156.0
253.13092 132.0
253.212006 160.0
253.345047 164.0
253.38237 128.0
253.428833 108.0
253.459106 168.0
253.696808 192.0
253.837433 216.0
254.010757 172.0
254.153732 120.0
254.305847 144.0
254.401428 108.0
254.486069 156.0
254.556656 220.0
254.598557 144.0
254.747223 160.0
254.845703 188.0
254.927505 108.0
254.975464 168.0
255.076874 292.0
255.321548 180.0
255.372513 168.0
255.424316 160.0
255.519745 208.0
255.723404 144.0
255.802979 180.0
255.844604 156.0
255.98584 184.0
256.145386 168.0
256.247955 116.0
256.303009 144.0
256.36673 156.0
256.414551 168.0
256.491028 140.0
256.695953 276.0
256.736542 144.0
256.787567 160.0
256.809906 228.0
256.921539 144.0
257.15448 144.0
257.215607 156.0
257.252899 132.0
257.286469 184.0
257.323669 140.0
257.352936 144.0
257.406036 200.0
257.537628 176.0
257.678192 160.0
257.751678 160.0
257.776733 156.0
257.82196 152.0
257.910095 176.0
257.950348 168.0
257.997772 252.0
258.087311 164.0
258.175659 152.0
258.378357 140.0
258.509521 320.0
258.563934 192.0
258.720795 144.0
258.831238 200.0
258.861755 144.0
258.970551 148.0
259.018585 176.0
259.125671 132.0
259.208862 124.0
259.398926 156.0
259.603058 168.0
259.666473 124.0
259.951569 156.0
260.035126 132.0
260.240662 144.0
260.298279 160.0
260.380707 160.0
260.471802 132.0
260.500427 156.0
260.557281 276.0
260.593781 148.0
260.619476 172.0
260.663116 172.0
260.712677 364.0
260.738373 208.0
260.890228 164.0
260.950531 184.0
261.009369 300.0
261.077515 132.0
261.138336 676.0
261.166504 128.0
261.234558 140.0
261.275391 288.0
261.313751 116.0
261.404083 160.0
261.510284 148.0
261.644104 152.0
261.684113 208.0
261.711914 164.0
261.751312 140.0
261.816132 148.0
261.842957 144.0
261.886993 140.0
261.932068 292.0
261.964111 152.0
262.010223 156.0
262.080566 180.0
262.109283 148.0
262.147827 844.0
262.192596 164.0
262.208099 108.0
262.379608 292.0
262.417328 372.0
262.514557 188.0
262.554138 240.0
262.604767 144.0
262.726471 168.0
262.777069 108.0
262.823029 192.0
262.859406 216.0
262.886414 256.0
262.955994 176.0
262.985321 100.0
263.015686 176.0
263.051544 140.0
263.076202 312.0
263.155273 41056.0
263.240143 124.0
263.271362 304.0
263.33728 304.0
263.428253 152.0
263.468201 132.0
263.49353 156.0
263.524719 284.0
263.573273 420.0
263.645966 484.0
263.680634 404.0
263.711365 156.0
263.741364 108.0
263.827759 200.0
263.894226 240.0
263.924255 176.0
263.948761 428.0
264.016327 356.0
264.064514 268.0
264.088928 296.0
264.15799 8108.0
264.235718 328.0
264.266876 208.0
264.315216 512.0
264.381195 240.0
264.41214 544.0
264.427399 292.0
264.447418 376.0
264.508606 348.0
264.524933 280.0
264.617065 396.0
264.651031 308.0
264.674164 620.0
264.72583 336.0
264.777618 508.0
264.808044 496.0
264.831512 444.0
264.872528 448.0
264.916107 356.0
264.929657 496.0
264.934967 716.0
264.99115 472.0
265.023956 728.0
265.055115 992.0
265.095062 1324.0
265.172516 248676.0
265.288239 136.0
265.401062 248.0
265.474121 2248.0
265.53476 716.0
265.574921 940.0
265.614929 516.0
265.665924 1940.0
265.713226 9380.0
265.815918 364.0
265.951385 380.0
265.998718 720.0
266.060913 308.0
266.097229 244.0
266.174805 164044.0
266.285126 288.0
266.370667 160.0
266.488281 364.0
266.511993 440.0
266.559326 216.0
266.6409 304.0
266.674561 132.0
266.711578 332.0
266.752197 256.0
266.793945 160.0
266.937531 116.0
266.990692 176.0
267.019073 252.0
267.045074 240.0
267.177246 16496.0
267.278412 172.0
267.301941 248.0
267.469208 128.0
267.529846 264.0
267.556 268.0
267.621307 324.0
267.662994 244.0
267.706421 328.0
267.73642 228.0
267.777802 348.0
267.789337 404.0
267.833008 676.0
267.860138 392.0
267.898254 260.0
267.940369 184.0
267.964691 260.0
268.016357 240.0
268.080322 468.0
268.10318 308.0
268.180237 536.0
268.231445 100.0
268.291107 336.0
268.33371 200.0
268.424683 116.0
268.504669 108.0
268.540436 228.0
268.738342 156.0
268.858215 172.0
268.888275 116.0
269.067291 244.0
269.095612 320.0
269.125153 172.0
269.166046 132.0
269.316071 136.0
269.500763 108.0
269.54953 108.0
270.135986 96.0
270.677338 96.0
271.244263 128.0
271.581451 108.0
272.263458 112.0
272.552917 104.0
274.7724 128.0
275.089172 124.0
275.361633 180.0
275.680389 108.0
275.903534 164.0
276.785492 108.0
277.088379 180.0
277.254028 188.0
277.340424 124.0
277.37561 100.0
277.724854 176.0
278.255188 132.0
278.328857 172.0
278.705597 104.0
299.18985 180.0
299.527344 144.0
315.63739 124.0
329.421021 156.0
339.20401 124.0
407.774384 144.0
410.435364 172.0
411.47049 108.0
415.038788 144.0
425.605164 152.0
433.588501 100.0
473.082245 216.0
475.269257 104.0
506.125031 144.0
510.408173 108.0
586.355225 164.0
602.465149 160.0
696.615784 140.0
698.281982 148.0
712.889404 172.0
1020.281067 156.0
1086.246948 148.0
1094.989014 156.0
1135.640015 148.0
1164.711792 212.0
1172.318237 212.0
1183.212891 180.0
1191.683105 156.0
1205.263916 192.0
1217.941895 140.0
1224.584473 172.0
1239.83606 180.0
1251.72937 212.0
1266.581909 140.0
1270.076416 180.0
1276.631836 168.0
1291.176147 160.0
1310.130127 160.0
1321.117798 220.0
1328.144287 140.0
1329.15271 152.0
1342.946167 148.0
1346.442139 192.0
1358.79834 224.0
1362.593994 152.0
1365.429688 168.0
1368.396851 168.0
1371.262451 192.0
1372.146973 144.0
1372.825439 156.0
1382.78418 180.0
1392.622925 152.0
1393.789307 176.0
1398.854126 180.0
1405.06189 164.0
1408.615356 152.0
1409.048706 160.0
1415.810669 196.0
1418.792847 160.0
1419.9552 156.0
1422.236084 156.0
1429.624023 204.0
1435.726196 188.0
1445.236694 168.0
1452.113892 168.0
1452.418579 184.0
1453.427612 180.0
1458.318237 176.0
1462.242798 192.0
1463.704468 172.0
1465.204956 224.0
1465.822144 172.0
1467.331299 192.0
1469.314209 180.0
1471.49707 140.0
1477.557739 180.0
1485.502075 180.0
1485.617065 168.0
1487.527954 216.0
1493.975342 188.0
1495.814575 192.0
1496.199463 176.0
1497.531616 164.0
1504.680054 196.0
1509.346802 176.0
1511.783569 192.0
1511.915039 168.0
1515.147827 172.0
1517.205444 152.0
1519.16748 176.0
1525.776367 180.0
1526.872803 224.0
1528.241821 192.0
1530.148804 272.0
1530.880737 156.0
1530.942993 160.0
1537.780273 144.0
1542.482544 180.0
1543.530151 176.0
1543.936768 172.0
1545.939453 176.0
1552.057373 192.0
1554.677368 176.0
1556.946167 148.0
1557.668823 184.0
1559.672485 160.0
1561.34729 284.0
1564.935547 176.0
1566.746948 208.0
1567.763428 228.0
1569.005615 156.0
1569.095581 192.0
1569.710571 204.0
1570.112793 204.0
1570.396606 160.0
1572.605835 148.0
1573.687378 152.0
1574.721924 180.0
1575.977905 140.0
1577.582275 140.0
1578.286011 192.0
1580.374146 160.0
1582.503296 192.0
1586.80542 188.0
1587.400146 180.0
1593.686768 188.0
1593.94104 292.0
1595.212769 188.0
1597.033691 208.0
1597.17688 196.0
1598.05188 140.0
1598.497559 180.0
1599.882446 148.0
1601.650269 232.0
1602.526611 156.0
1603.458862 176.0
1605.858765 152.0
1610.13208 208.0
1611.414673 168.0
1613.884521 152.0
1616.652222 148.0
1617.316528 232.0
1617.446655 244.0
1618.133057 208.0
1619.326172 256.0
1622.282959 164.0
1625.025757 140.0
1627.032227 172.0
1627.104492 148.0
1629.899536 144.0
1630.944336 256.0
1632.777466 176.0
1637.952881 200.0
1638.557007 164.0
1640.507324 148.0
1640.845947 184.0
1641.740967 188.0
1641.95874 208.0
1649.087769 168.0
1651.869385 196.0
1659.33606 160.0
1661.193237 172.0
1663.855103 184.0
1664.033691 148.0
1666.860352 144.0
1669.640625 148.0
1670.982788 196.0
1671.596436 188.0
1671.755737 160.0
1674.401611 148.0
1676.462769 196.0
1677.894653 124.0
1679.030762 144.0
1680.906982 140.0
1682.980347 172.0
1686.664795 184.0
1691.482788 168.0
1693.72644 232.0
1694.26709 212.0
1694.455566 140.0
1694.717651 140.0
1698.940063 144.0
1699.075439 148.0
1699.900024 148.0
1701.040771 140.0
1701.656494 216.0
1702.469482 168.0
1703.110107 196.0
1703.208618 196.0
1703.849365 144.0
1707.351074 172.0
1709.12793 228.0
1712.074829 180.0
1712.676147 196.0
1713.392822 156.0
1713.640015 180.0
1720.889893 204.0
1723.202515 176.0
1725.996216 240.0
1726.194702 168.0
1727.791016 180.0
1728.229492 160.0
1730.124756 204.0
1732.088135 176.0
1736.123779 148.0
1737.426025 204.0
1738.546143 208.0
1738.811768 240.0
1741.227783 188.0
1742.315918 164.0
1742.398926 188.0
1743.113525 148.0
1744.169067 144.0
1744.883911 144.0
1745.457642 172.0
1747.171021 160.0
1748.152832 148.0
1749.526245 156.0
1750.39209 140.0
1751.591431 200.0
1756.55957 148.0
1757.260376 152.0
1761.18396 172.0
1761.827148 148.0
1762.846436 192.0
1767.186279 216.0
1767.931885 192.0
1769.513062 164.0
1770.467529 180.0
1770.685303 220.0
1773.852539 156.0
1775.89856 196.0
1776.779297 228.0
1779.381104 172.0
1780.674194 152.0
1780.976562 144.0
1781.192139 120.0
1781.74939 148.0
1782.749268 196.0
1784.127808 188.0
1784.506104 156.0
1785.859985 192.0
1787.062988 184.0
1788.0896 160.0
1788.973511 144.0
1791.12915 160.0
1793.286255 148.0
1793.391724 176.0
1796.24585 156.0
1796.591675 160.0
1797.047241 148.0
1797.781372 172.0
1798.338379 152.0
1798.785767 160.0
1802.410522 152.0
1803.465332 140.0
1803.58374 140.0
1804.071655 236.0
1804.606567 176.0
1806.661743 212.0
1806.720947 164.0
1807.804077 164.0
1809.234497 224.0
1810.521484 160.0
1811.597168 188.0
1812.359741 176.0
1813.724121 200.0
1814.733032 164.0
1815.029785 156.0
1816.089844 140.0
1816.496948 156.0
1817.837524 176.0
1818.694702 184.0
1819.008789 196.0
1821.989502 176.0
1822.983643 168.0
1823.128052 168.0
1824.683594 140.0
1826.673584 168.0
1827.61792 208.0
1828.324219 224.0
1830.101807 192.0
1830.495117 148.0
1831.91748 160.0
1832.760864 272.0
1833.067627 172.0
1833.779175 148.0
1836.493652 148.0
1840.096069 176.0
1840.966919 144.0
1841.684326 164.0
1846.000366 184.0
1847.890747 164.0
1848.143311 140.0
1848.283691 172.0
1849.567993 160.0
1849.833374 152.0
1850.295654 172.0
1851.271729 172.0
1851.562988 152.0
1852.676514 172.0
1854.373169 176.0
1854.553101 192.0
1854.995483 152.0
1855.436035 144.0
1855.66748 140.0
1856.945312 184.0
1857.013916 144.0
1860.308838 220.0
1861.055786 180.0
1861.730225 184.0
1862.197998 144.0
1862.343994 156.0
1863.873169 160.0
1865.050537 196.0
1866.228271 204.0
1867.845093 208.0
1868.533325 180.0
1868.653809 160.0
1869.213013 276.0
1872.734131 160.0
1873.383179 196.0
1874.164185 188.0
1874.80188 140.0
1875.663818 152.0
1875.922363 192.0
1876.301758 172.0
1876.620728 240.0
1878.388672 140.0
1881.04895 180.0
1882.289673 160.0
1883.551514 204.0
1885.866333 196.0
1886.851807 148.0
1887.508911 176.0
1889.705933 204.0
1890.19043 148.0
1891.125122 160.0
1891.185669 172.0
1892.657349 220.0
1893.861206 152.0
1895.9646 204.0
1896.989258 156.0
1897.223389 180.0
1898.003662 144.0
1898.272461 176.0
1898.471924 180.0
1899.077515 156.0
1899.869507 156.0
1900.28479 192.0
1901.074463 176.0
1902.26355 220.0
1902.888672 156.0
1903.87854 160.0
1906.067627 176.0
1907.571167 144.0
1908.214478 192.0
1908.553589 208.0
1909.718994 364.0
1915.550903 140.0
1916.944946 160.0
1917.9646 172.0
1918.557373 164.0
1918.749146 248.0
1920.318848 180.0
1921.856201 252.0
1923.337769 184.0
1924.167114 192.0
1924.306763 180.0
1924.795776 268.0
1925.337158 152.0
1925.642822 204.0
1927.110474 228.0
1927.791992 168.0
1927.984253 156.0
1929.023926 152.0
1929.566406 224.0
1932.198853 180.0
1933.415405 132.0
1934.754395 224.0
1935.034546 176.0
1939.733276 228.0
1940.314697 244.0
1941.701294 188.0
1942.097656 164.0
1944.736572 212.0
1946.678955 216.0
1947.012695 200.0
1948.154541 216.0
1948.277466 232.0
1950.070068 152.0
1950.184326 204.0
1950.711792 196.0
1951.02417 172.0
1951.434692 136.0
1951.643677 156.0
1951.889893 156.0
1956.236206 228.0
1956.649902 172.0
1956.82605 152.0
1958.199829 140.0
1958.811279 156.0
1959.410645 172.0
1960.666626 140.0
1961.159912 124.0
1962.914551 148.0
1963.117432 188.0
1963.179199 240.0
1963.302612 196.0
1963.646606 168.0
1964.105225 144.0
1964.449219 176.0
1964.784546 184.0
1964.869507 168.0
1965.208008 168.0
1965.393311 188.0
1966.400757 164.0
1967.829346 176.0
1969.286377 160.0
1970.115356 172.0
1970.415771 132.0
1973.068481 188.0
1973.678589 252.0
1973.961548 204.0
1974.978638 180.0
1975.279297 192.0
1976.544434 160.0
1977.057739 184.0
1977.270142 184.0
1979.501099 156.0
1980.732056 180.0
1980.891602 236.0
1981.990112 248.0
1982.610474 148.0
1985.005005 148.0
1985.562622 140.0
1985.979492 204.0
1986.576904 204.0
1987.502563 172.0
1988.312988 196.0
1990.908691 156.0
1991.589111 164.0
1992.37085 160.0
1994.756958 160.0
1996.635376 156.0
1999.217407 172.0
1999.813721 180.0
2000.775146 192.0
2001.609131 148.0
2002.008179 164.0
2003.179565 148.0
