>compound MLS001195611-01!TORASEMIDE
>formula C16H20N4O3S
>ionization [M+H]+
>parentmass 349.1328879520905
#inchi InChI=1S/C16H20N4O3S/c1-11(2)18-16(21)20-24(22,23)15-10-17-8-7-14(15)19-13-6-4-5-12(3)9-13/h4-11H,1-3H3,(H,17,19)(H2,18,20,21)
#inchikey NGBFQHCMQULJNZ
#Ion_Source LC-ESI
#Instrument qTof
#Compound_Source NIH Pharmacologically Active Library
#PI Dorrestein
#Data_Collector VP/LMS
#Scan -1
#Precursor_MZ 349.139
#ExactMass 348.126
#Charge 1
#CAS_Number N/A
#Pubmed_ID N/A
#Smiles CC(C)NC(=O)NS(=O)(=O)c1cnccc1Nc2cccc(C)c2
#INCHI_AUX N/A
#Library_Class 1
#SpectrumID CCMSLIB00000085625
#IonMode Positive
#UpdateWorkflowName UPDATE-SINGLE-ANNOTATED-GOLD
#LibraryQualityString Gold
#TaskID d252d724072548979f1f6f1ced849daf
##Scan# 1584
#SpectrumFile p4-D07_GD7_01_18367.mzXML
#LibraryName Pharm_Active_Library.mgf
#MQScore -1
#Organism Pharm_Active_Library
#TIC_Query 0
#RT_Query -1
#MZErrorPPM -1
#SharedPeaks 0
#MassDiff 0
#LibMZ -1
#SpecMZ 349.139
#SpecCharge 0
#internalFilename spec-00000.mgf

>collision 10
44.891327 212.0
44.914883 128.0
44.994949 184.0
45.017651 140.0
45.097809 140.0
45.147278 164.0
45.180717 72.0
45.191422 92.0
45.235584 112.0
45.258343 132.0
45.304604 160.0
45.346897 156.0
45.378933 172.0
45.400387 168.0
45.431236 216.0
45.474174 136.0
45.487598 228.0
45.525192 180.0
45.59523 208.0
45.615211 124.0
45.662273 164.0
45.694557 132.0
45.703976 100.0
45.79417 136.0
45.8036 184.0
45.846714 76.0
45.862888 128.0
45.899178 192.0
45.911427 124.0
45.936436 156.0
45.965385 44.0
45.976181 164.0
46.016678 56.0
46.051155 128.0
46.159405 76.0
46.176132 176.0
46.193089 116.0
46.231602 136.0
46.257854 192.0
46.268147 136.0
46.345348 48.0
46.364319 168.0
46.386005 96.0
46.406342 348.0
46.419899 136.0
46.440243 132.0
46.456917 96.0
46.472801 212.0
46.588203 208.0
46.620811 160.0
46.691505 168.0
46.724152 120.0
46.743202 100.0
46.764793 208.0
46.802399 204.0
46.816711 232.0
46.839867 160.0
46.88401 180.0
46.907997 108.0
46.983002 224.0
47.01302 128.0
47.048508 84.0
47.059433 60.0
47.089474 208.0
47.108597 132.0
47.137291 224.0
47.17009 144.0
47.217945 204.0
47.326054 88.0
47.33564 400.0
47.360291 128.0
47.384949 152.0
47.404755 132.0
47.41151 184.0
47.460468 160.0
47.483646 188.0
47.513115 184.0
47.538521 128.0
47.556362 232.0
47.571461 108.0
47.666229 204.0
47.723961 212.0
47.750088 176.0
47.787231 136.0
47.820255 100.0
47.843658 168.0
47.878082 128.0
47.899414 188.0
47.930428 116.0
47.962414 172.0
48.017075 192.0
48.02969 152.0
48.049004 224.0
48.123535 176.0
48.136711 148.0
48.18845 200.0
48.213322 52.0
48.224377 136.0
48.24585 188.0
48.267113 184.0
48.286594 168.0
48.315643 92.0
48.340935 196.0
48.393147 132.0
48.433308 200.0
48.45686 244.0
48.501205 184.0
48.512783 136.0
48.583366 160.0
48.619095 136.0
48.642693 196.0
48.666294 32.0
48.684345 76.0
48.7024 136.0
48.727406 168.0
48.768993 376.0
48.788555 168.0
48.834442 220.0
48.906277 168.0
48.999371 292.0
49.079544 180.0
49.099068 212.0
49.11956 196.0
49.135334 232.0
49.184177 164.0
49.223267 152.0
49.237232 164.0
49.27914 96.0
49.314075 164.0
49.337837 180.0
49.469341 280.0
49.61924 160.0
49.637466 80.0
49.657101 288.0
49.690037 192.0
49.72385 168.0
49.807285 124.0
49.828358 36.0
49.856461 152.0
49.876137 156.0
49.957863 172.0
49.985077 96.0
50.032284 236.0
50.060444 192.0
50.080162 112.0
50.118198 148.0
50.137928 196.0
50.164707 192.0
50.178806 168.0
50.286015 132.0
50.31707 196.0
50.339661 148.0
50.353783 176.0
50.578594 220.0
50.595322 196.0
50.608326 204.0
50.619652 148.0
50.724495 180.0
50.771286 200.0
50.787464 204.0
50.798233 120.0
50.818096 76.0
50.901844 152.0
50.94445 68.0
50.954395 96.0
50.988499 184.0
51.011242 188.0
51.066696 100.0
51.118324 180.0
51.142105 196.0
51.186375 168.0
51.200481 244.0
51.230339 212.0
51.30735 180.0
51.328735 124.0
51.364391 144.0
51.41861 148.0
51.549995 156.0
51.595734 108.0
51.614323 180.0
51.670101 124.0
51.695858 148.0
51.708736 168.0
51.722942 212.0
51.738796 136.0
51.758842 208.0
51.790348 72.0
51.892097 220.0
51.930813 216.0
51.945538 196.0
51.969547 140.0
51.989635 140.0
52.094452 124.0
52.104507 120.0
52.124622 132.0
52.137558 132.0
52.156242 180.0
52.182117 216.0
52.208 184.0
52.302959 156.0
52.380714 180.0
52.409531 168.0
52.426823 152.0
52.454208 148.0
52.506115 128.0
52.546501 176.0
52.59557 148.0
52.62011 144.0
52.633106 124.0
52.653 224.0
52.670654 108.0
52.706772 184.0
52.768925 168.0
52.790955 152.0
52.829151 180.0
52.845581 208.0
52.857155 84.0
52.886101 176.0
52.904919 144.0
52.932426 96.0
52.970081 160.0
52.98167 120.0
53.0121 156.0
53.059933 160.0
53.08168 220.0
53.093281 136.0
53.133247 212.0
53.2355 216.0
53.271812 148.0
53.343018 148.0
53.402634 76.0
53.473927 160.0
53.495762 152.0
53.513233 108.0
53.52829 164.0
53.572945 144.0
53.631996 228.0
53.67934 204.0
53.702312 144.0
53.718357 32.0
53.737686 168.0
53.778545 184.0
53.800442 104.0
53.826725 124.0
53.872986 208.0
53.886612 228.0
54.006481 152.0
54.024036 68.0
54.041592 136.0
54.069397 140.0
54.103062 92.0
54.117702 196.0
54.261974 164.0
54.290611 112.0
54.314079 164.0
54.381577 112.0
54.441769 116.0
54.452049 160.0
54.499058 128.0
54.533348 84.0
54.668957 132.0
54.684349 220.0
54.706429 164.0
54.716736 140.0
54.741764 144.0
54.75502 116.0
54.771564 188.0
54.841946 120.0
54.90387 184.0
54.946648 220.0
54.956581 180.0
54.960419 132.0
55.014534 116.0
55.039635 60.0
55.064739 168.0
55.081638 172.0
55.10421 172.0
55.166695 112.0
55.177643 192.0
55.189705 184.0
55.220516 240.0
55.25605 180.0
55.271702 160.0
55.329426 156.0
55.393105 60.0
55.443481 172.0
55.459785 132.0
55.552681 148.0
55.571007 84.0
55.673428 208.0
55.72221 176.0
55.762569 164.0
55.808651 120.0
55.868141 140.0
55.883022 228.0
55.905342 220.0
55.927666 28.0
55.964882 232.0
55.990196 136.0
56.033638 196.0
56.085552 36.0
56.107101 88.0
56.161598 212.0
56.175022 224.0
56.212322 148.0
56.234707 152.0
56.396019 108.0
56.407974 48.0
56.451172 148.0
56.485733 236.0
56.529121 180.0
56.560551 164.0
56.623436 136.0
56.638416 44.0
56.665413 180.0
56.723827 120.0
56.771805 212.0
56.806301 84.0
56.826725 196.0
56.871208 156.0
56.948902 112.0
56.960396 232.0
57.058598 160.0
57.073635 156.0
57.109676 120.0
57.123264 184.0
57.156364 152.0
57.183453 192.0
57.234634 56.0
57.249695 128.0
57.280106 84.0
57.512028 140.0
57.570911 212.0
57.620754 184.0
57.65551 136.0
57.720512 216.0
57.817329 136.0
57.871826 268.0
57.885452 128.0
57.971798 128.0
58.005142 232.0
58.019009 164.0
58.070343 128.0
58.149239 72.0
58.274155 184.0
58.317829 148.0
58.330711 252.0
58.413624 84.0
58.45166 160.0
58.518631 112.0
58.547161 136.0
58.567364 36.0
58.588688 156.0
58.628307 124.0
58.642021 124.0
58.675224 200.0
58.77317 368.0
58.80064 212.0
58.847961 128.0
58.86018 92.0
58.883083 112.0
58.989326 164.0
59.005329 108.0
59.175156 180.0
59.191998 184.0
59.207314 252.0
59.260925 140.0
59.32692 136.0
59.366695 116.0
59.455673 152.0
59.514004 132.0
59.526093 156.0
59.531845 136.0
59.53751 104.0
59.604134 136.0
59.624992 192.0
59.635365 204.0
59.690712 120.0
59.772236 164.0
59.816872 184.0
59.91851 128.0
59.984776 168.0
60.034115 176.0
60.048157 76.0
60.06496 204.0
60.077011 364.0
60.163723 184.0
60.185337 136.0
60.202324 112.0
60.21777 168.0
60.233215 176.0
60.259476 216.0
60.277531 216.0
60.328976 132.0
60.362789 276.0
60.414078 56.0
60.426453 176.0
60.44038 176.0
60.516224 244.0
60.582817 76.0
60.595932 180.0
60.630852 240.0
60.693283 264.0
60.726978 136.0
60.784378 80.0
60.840252 160.0
60.852673 156.0
60.896549 188.0
60.919453 260.0
60.966442 132.0
60.98938 160.0
61.064926 204.0
61.088898 108.0
61.137131 204.0
61.19817 228.0
61.222755 140.0
61.387524 208.0
61.436295 148.0
61.49247 156.0
61.508076 124.0
61.533054 64.0
61.565845 72.0
61.59396 136.0
61.662708 84.0
61.711166 128.0
61.729931 128.0
61.80032 128.0
61.830051 212.0
61.877014 136.0
61.889538 264.0
61.902065 208.0
61.913029 224.0
61.923992 140.0
61.934956 76.0
61.967854 100.0
61.980389 108.0
62.022701 192.0
62.096394 188.0
62.217522 208.0
62.42326 120.0
62.451359 176.0
62.515862 204.0
62.572529 88.0
62.594086 220.0
62.621342 204.0
62.665451 124.0
62.700119 100.0
62.733219 144.0
62.747406 172.0
62.769482 160.0
62.782097 172.0
62.801022 148.0
62.8736 108.0
62.890961 180.0
62.917919 152.0
62.932003 184.0
62.969906 208.0
62.980961 156.0
63.018875 140.0
63.042576 44.0
63.082092 124.0
63.180138 176.0
63.211784 256.0
63.222858 56.0
63.382801 76.0
63.397377 120.0
63.424004 40.0
63.455711 116.0
63.485836 116.0
63.509628 220.0
63.550873 164.0
63.611179 136.0
63.631821 136.0
63.668339 92.0
63.736649 164.0
63.832024 176.0
63.854286 44.0
63.867012 116.0
63.881329 128.0
63.933834 104.0
63.988174 144.0
64.030945 204.0
64.052589 136.0
64.107414 188.0
64.265282 172.0
64.310989 172.0
64.325928 76.0
64.353065 144.0
64.452522 180.0
64.549599 236.0
64.57679 112.0
64.797012 160.0
64.823586 176.0
64.84417 160.0
64.874619 96.0
64.895462 140.0
64.969238 144.0
64.993309 96.0
65.01738 172.0
65.177963 204.0
65.240646 92.0
65.319443 184.0
65.340355 56.0
65.377365 148.0
65.4804 120.0
65.522278 80.0
65.551285 132.0
65.565788 168.0
65.599632 180.0
65.646393 136.0
65.679092 364.0
65.70858 208.0
65.80452 180.0
65.838432 152.0
65.857811 256.0
65.970535 184.0
66.003937 152.0
66.010162 208.0
66.033989 84.0
66.135918 104.0
66.195824 116.0
66.220909 152.0
66.234688 180.0
66.246765 164.0
66.288155 140.0
66.309219 40.0
66.344246 92.0
66.378311 188.0
66.453545 212.0
66.486 176.0
66.498985 180.0
66.59153 136.0
66.615891 124.0
66.708519 140.0
66.730423 236.0
66.77681 116.0
66.858162 144.0
66.888 96.0
66.916756 180.0
66.957466 140.0
67.053947 216.0
67.162834 172.0
67.216667 172.0
67.265633 172.0
67.28849 188.0
67.309715 148.0
67.347275 232.0
67.394653 244.0
67.40609 360.0
67.469833 236.0
67.499268 140.0
67.51889 132.0
67.569595 180.0
67.606377 176.0
67.667793 200.0
67.680893 112.0
67.767708 172.0
67.913605 140.0
68.021904 84.0
68.049973 164.0
68.279861 220.0
68.306183 120.0
68.317696 128.0
68.352249 172.0
68.432899 124.0
68.536667 196.0
68.617432 100.0
68.671844 96.0
68.683395 108.0
68.708138 188.0
68.729584 176.0
68.765892 120.0
68.855049 124.0
68.881477 140.0
68.96244 188.0
68.978966 144.0
69.036835 136.0
69.053375 184.0
69.066605 108.0
69.084084 184.0
69.109619 160.0
69.233025 160.0
69.361351 92.0
69.374611 156.0
69.435959 120.0
69.47245 220.0
69.518906 184.0
69.626816 112.0
69.65007 128.0
69.676651 176.0
69.696587 160.0
69.733147 188.0
69.911415 212.0
69.98101 44.0
70.032639 144.0
70.046982 132.0
70.129272 204.0
70.167618 176.0
70.190079 144.0
70.259338 196.0
70.297714 132.0
70.331276 188.0
70.371162 128.0
70.41124 176.0
70.468033 148.0
70.485626 332.0
70.529869 252.0
70.564972 184.0
70.66198 116.0
70.705482 160.0
70.748077 288.0
70.799232 260.0
70.842781 44.0
70.859535 136.0
70.904778 124.0
70.943504 196.0
70.979752 144.0
71.035568 72.0
71.093498 204.0
71.12114 144.0
71.149681 168.0
71.181709 220.0
71.22525 48.0
71.240364 84.0
71.257164 172.0
71.277679 148.0
71.307579 132.0
71.322708 120.0
71.357597 196.0
71.423592 124.0
71.440414 92.0
71.477432 208.0
71.499306 168.0
71.522873 144.0
71.564957 168.0
71.652534 220.0
71.670067 208.0
71.68512 236.0
71.690811 296.0
71.767151 184.0
71.778954 164.0
71.839668 184.0
71.894508 104.0
71.945984 256.0
71.962868 176.0
71.998329 184.0
72.016907 228.0
72.076035 144.0
72.098007 180.0
72.114906 124.0
72.187599 176.0
72.238342 96.0
72.282333 144.0
72.334801 128.0
72.352753 160.0
72.466896 152.0
72.500786 152.0
72.59771 184.0
72.627937 112.0
72.639816 200.0
72.678833 180.0
72.705383 180.0
72.722961 272.0
72.751198 164.0
72.768791 128.0
72.797058 204.0
72.833328 144.0
72.852127 180.0
72.946083 112.0
73.013489 156.0
73.172447 96.0
73.203163 148.0
73.208893 68.0
73.215157 136.0
73.244675 192.0
73.268814 284.0
73.289253 184.0
73.318222 148.0
73.400055 148.0
73.46833 120.0
73.521172 104.0
73.550186 96.0
73.613358 180.0
73.649216 80.0
73.673134 176.0
73.691925 88.0
73.720154 164.0
73.79277 216.0
73.806442 324.0
73.850517 176.0
73.904724 236.0
73.994652 124.0
74.109406 192.0
74.135109 132.0
74.193535 236.0
74.241394 76.0
74.294571 116.0
74.35907 92.0
74.410439 136.0
74.479965 84.0
74.491989 180.0
74.526344 220.0
74.540092 152.0
74.580429 128.0
74.607124 156.0
74.720634 200.0
74.74472 84.0
74.779137 192.0
74.947906 104.0
74.968582 160.0
75.016846 120.0
75.073738 136.0
75.08754 104.0
75.118584 108.0
75.142738 104.0
75.166183 184.0
75.279099 124.0
75.291183 128.0
75.327461 164.0
75.372375 112.0
75.3983 148.0
75.412125 196.0
75.454735 252.0
75.502029 156.0
75.52813 132.0
75.572952 184.0
75.588524 204.0
75.623878 172.0
75.652565 124.0
75.721947 172.0
75.745781 236.0
75.813263 180.0
75.928062 148.0
75.943672 116.0
75.955818 140.0
75.974899 128.0
76.018272 164.0
76.042572 336.0
76.054726 188.0
76.087708 128.0
76.125908 156.0
76.174538 120.0
76.19017 176.0
76.245773 168.0
76.270103 40.0
76.294441 164.0
76.350082 32.0
76.367477 92.0
76.398331 152.0
76.424881 124.0
76.442284 120.0
76.494331 164.0
76.54847 160.0
76.574593 164.0
76.717476 112.0
76.743629 128.0
76.783737 112.0
76.820366 212.0
76.86747 100.0
76.88607 128.0
76.892418 176.0
76.911102 164.0
77.015869 204.0
77.178398 156.0
77.206375 144.0
77.271095 180.0
77.313087 184.0
77.362747 248.0
77.385094 176.0
77.474174 112.0
77.567162 208.0
77.582832 112.0
77.638939 216.0
77.75473 32.0
77.77755 124.0
77.874115 120.0
77.921547 168.0
77.940872 116.0
78.046341 124.0
78.063919 100.0
78.093819 68.0
78.176506 188.0
78.193382 272.0
78.209946 156.0
78.246918 152.0
78.319115 192.0
78.357872 144.0
78.387825 264.0
78.461853 212.0
78.51828 180.0
78.574722 152.0
78.602959 180.0
78.662964 120.0
78.730942 120.0
78.751503 84.0
78.81308 160.0
78.824753 204.0
78.897919 208.0
78.922668 184.0
78.959908 140.0
79.014641 196.0
79.042953 44.0
79.138535 152.0
79.191658 140.0
79.228859 176.0
79.255432 280.0
79.328102 152.0
79.381287 132.0
79.430946 212.0
79.464653 124.0
79.493042 132.0
79.60363 108.0
79.627205 196.0
79.639297 180.0
79.668823 120.0
79.720352 56.0
79.738121 180.0
79.811005 32.0
79.886696 192.0
79.946198 200.0
80.012054 232.0
80.026299 140.0
80.050697 160.0
80.213356 148.0
80.273979 140.0
80.423843 172.0
80.466682 216.0
80.657829 108.0
80.695374 188.0
80.788368 136.0
80.821472 200.0
80.872475 156.0
80.897537 108.0
80.9226 184.0
81.010353 256.0
81.03434 164.0
81.248787 128.0
81.306206 248.0
81.320564 40.0
81.440857 124.0
81.467804 112.0
81.503738 120.0
81.566635 124.0
81.589302 184.0
81.634956 188.0
81.665535 176.0
81.784286 152.0
81.811081 208.0
81.847565 184.0
81.868904 152.0
81.960876 140.0
82.014839 172.0
82.113075 124.0
82.14106 144.0
82.166313 76.0
82.261803 176.0
82.333992 148.0
82.364891 260.0
82.393791 224.0
82.456505 216.0
82.50042 100.0
82.523926 196.0
82.599876 204.0
82.672249 164.0
82.703018 188.0
82.727371 148.0
82.784485 40.0
82.842445 176.0
82.864189 220.0
82.891365 164.0
82.960236 92.0
82.972931 40.0
83.00013 68.0
83.030952 196.0
83.07267 152.0
83.13073 224.0
83.223305 164.0
83.323494 148.0
83.503738 164.0
83.557732 152.0
83.579567 232.0
83.617783 128.0
83.758652 152.0
83.80899 140.0
83.846481 156.0
83.874596 100.0
84.089828 136.0
84.193886 240.0
84.303497 136.0
84.316292 40.0
84.332741 116.0
84.405869 192.0
84.446098 48.0
84.502808 196.0
84.608963 148.0
84.663895 48.0
84.709679 120.0
84.731308 164.0
84.766479 216.0
84.942482 148.0
85.06176 52.0
85.083786 200.0
85.12619 176.0
85.168259 160.0
85.182953 172.0
85.223373 132.0
85.296883 148.0
85.374107 188.0
85.447685 72.0
85.484482 112.0
85.501045 120.0
85.56649 200.0
85.602295 172.0
85.653862 132.0
85.672287 164.0
85.710823 140.0
85.736778 208.0
85.841858 252.0
85.897186 100.0
85.937775 140.0
85.987595 116.0
86.009743 172.0
86.046669 48.0
86.07621 120.0
86.120529 224.0
86.145638 268.0
86.172256 188.0
86.198128 188.0
86.292389 116.0
86.316429 168.0
86.468124 188.0
86.497742 144.0
86.539146 208.0
86.581055 164.0
86.671829 132.0
86.699379 152.0
86.731133 204.0
86.755226 172.0
86.783035 220.0
86.838669 148.0
86.860931 204.0
86.942566 200.0
87.046524 132.0
87.092957 48.0
87.118958 200.0
87.13382 248.0
87.202576 100.0
87.243469 128.0
87.269501 248.0
87.301109 108.0
87.351326 128.0
87.401855 212.0
87.53186 144.0
87.55793 240.0
87.611946 160.0
87.67157 116.0
87.684616 148.0
87.746132 144.0
87.790886 180.0
87.908409 164.0
87.925201 160.0
87.986801 156.0
88.014809 212.0
88.080177 160.0
88.106331 76.0
88.184807 116.0
88.197891 184.0
88.270737 104.0
88.355293 196.0
88.399879 52.0
88.426079 160.0
88.457901 156.0
88.514069 184.0
88.633949 152.0
88.667679 116.0
88.680801 224.0
88.695793 136.0
88.737038 248.0
88.759537 132.0
88.797043 128.0
88.82518 216.0
88.847694 168.0
88.865036 180.0
88.899879 172.0
88.926506 116.0
88.977188 152.0
89.029762 216.0
89.054176 204.0
89.086113 108.0
89.101135 184.0
89.232697 52.0
89.247742 160.0
89.294754 44.0
89.336136 148.0
89.37188 184.0
89.385056 32.0
89.411247 148.0
89.432098 60.0
89.490456 88.0
89.530006 164.0
89.554489 52.0
89.588394 108.0
89.620422 132.0
89.658112 168.0
89.718422 200.0
89.746414 180.0
89.76368 124.0
89.797623 216.0
89.837234 120.0
89.952347 152.0
89.980659 264.0
90.050529 188.0
90.080818 112.0
90.105309 60.0
90.144989 188.0
90.188461 132.0
90.229683 104.0
90.343521 112.0
90.436241 156.0
90.468422 96.0
90.521492 128.0
90.538475 276.0
90.553627 220.0
90.606667 160.0
90.644562 152.0
90.657829 96.0
90.729851 184.0
90.760193 172.0
90.797989 120.0
90.853127 344.0
90.923332 40.0
90.951797 200.0
91.008751 140.0
91.056229 296.0
91.103714 96.0
91.156914 124.0
91.195396 160.0
91.250641 180.0
91.282379 188.0
91.352867 188.0
91.377304 132.0
91.406021 92.0
91.512611 144.0
91.598312 200.0
91.650322 200.0
91.681458 144.0
91.718353 124.0
91.746948 172.0
91.773582 180.0
91.796524 176.0
91.811783 120.0
91.830849 248.0
91.855652 176.0
91.869003 64.0
91.951981 140.0
92.038864 116.0
92.058907 364.0
92.098068 128.0
92.128632 204.0
92.16111 172.0
92.193596 128.0
92.247108 168.0
92.300644 120.0
92.319763 56.0
92.483864 188.0
92.532158 196.0
92.614647 212.0
92.658562 148.0
92.675804 124.0
92.708595 180.0
92.731384 84.0
92.779305 144.0
92.81765 176.0
92.877098 148.0
92.894363 128.0
92.907791 160.0
92.944244 192.0
92.995285 128.0
93.024857 104.0
93.05365 216.0
93.082451 96.0
93.099739 168.0
93.239983 32.0
93.259201 384.0
93.299568 160.0
93.324562 172.0
93.343788 108.0
93.36702 152.0
93.503464 80.0
93.566986 132.0
93.590088 156.0
93.645935 84.0
93.696014 156.0
93.721062 188.0
93.828995 184.0
93.84935 140.0
93.869713 136.0
93.915771 156.0
94.03154 200.0
94.065872 152.0
94.070625 144.0
94.118408 104.0
94.151237 56.0
94.178276 140.0
94.205322 148.0
94.238159 148.0
94.263283 44.0
94.3116 148.0
94.334793 132.0
94.555298 184.0
94.572716 100.0
94.607559 120.0
94.630791 80.0
94.669518 44.0
94.77993 232.0
94.805122 84.0
94.841637 200.0
94.869087 176.0
94.915619 156.0
95.049461 192.0
95.195045 32.0
95.216255 200.0
95.267075 192.0
95.290222 200.0
95.325203 84.0
95.360184 208.0
95.432106 156.0
95.509895 136.0
95.58577 132.0
95.633034 168.0
95.653893 68.0
95.78241 124.0
95.81942 156.0
95.833061 64.0
95.891518 160.0
95.957794 48.0
95.994843 52.0
96.047501 184.0
96.111885 104.0
96.182144 192.0
96.268044 140.0
96.284889 160.0
96.307106 112.0
96.392166 200.0
96.414566 112.0
96.473198 116.0
96.535767 152.0
96.586617 180.0
96.619873 164.0
96.660965 216.0
96.822609 196.0
96.880249 76.0
96.912575 128.0
96.940987 160.0
97.068695 188.0
97.091942 120.0
97.123322 144.0
97.203758 156.0
97.22142 124.0
97.252823 148.0
97.278336 160.0
97.307785 112.0
97.352951 96.0
97.375084 148.0
97.390892 112.0
97.433479 132.0
97.50309 132.0
97.561218 144.0
97.623703 180.0
97.712654 208.0
97.778862 136.0
97.793335 172.0
97.814987 52.0
97.946915 76.0
98.005768 1020.0
98.043457 132.0
98.111076 224.0
98.12822 56.0
98.147934 100.0
98.264305 168.0
98.311668 96.0
98.410362 192.0
98.520958 136.0
98.629646 128.0
98.692909 180.0
98.716637 160.0
98.743256 104.0
98.789818 152.0
98.829384 72.0
98.853134 168.0
98.876266 116.0
98.918976 148.0
99.009865 204.0
99.066963 144.0
99.086777 120.0
99.104607 76.0
99.119995 136.0
99.197754 204.0
99.265167 180.0
99.279045 100.0
99.298874 140.0
99.34053 104.0
99.385094 208.0
99.436821 160.0
99.479439 144.0
99.511208 44.0
99.556877 112.0
99.595139 76.0
99.652222 156.0
99.676064 140.0
99.699913 136.0
99.735687 152.0
99.851669 144.0
99.910683 156.0
99.952461 216.0
100.005592 224.0
100.150352 180.0
100.236969 144.0
100.265778 144.0
100.294403 184.0
100.340858 144.0
100.372757 120.0
100.401711 164.0
100.417175 176.0
100.440712 224.0
100.494431 144.0
100.52636 108.0
100.55629 72.0
100.588226 160.0
100.678078 180.0
100.779953 160.0
100.848534 256.0
100.879539 212.0
100.967857 224.0
101.019592 180.0
101.071457 152.0
101.121521 208.0
101.159943 180.0
101.185966 156.0
101.262062 80.0
101.276077 188.0
101.294106 124.0
101.3983 200.0
101.488503 116.0
101.510559 88.0
101.526604 188.0
101.598045 220.0
101.626007 188.0
101.687103 128.0
101.725044 124.0
101.759369 132.0
101.795517 140.0
101.813583 88.0
101.994415 148.0
102.030594 32.0
102.092926 100.0
102.115051 80.0
102.233459 112.0
102.261696 140.0
102.274475 212.0
102.314201 140.0
102.392792 156.0
102.442032 144.0
102.473366 160.0
102.51165 196.0
102.553978 64.0
102.61647 124.0
102.636627 172.0
102.664467 164.0
102.75563 164.0
102.800926 172.0
102.856537 132.0
102.904984 80.0
102.983742 216.0
103.018127 160.0
103.041992 172.0
103.054535 268.0
103.092834 192.0
103.149429 120.0
103.176369 160.0
103.252548 96.0
103.303116 152.0
103.325371 232.0
103.361786 136.0
103.40226 164.0
103.450836 132.0
103.489304 80.0
103.517654 136.0
103.535347 168.0
103.614052 176.0
103.653374 120.0
103.710121 200.0
103.768906 176.0
103.799324 204.0
103.813515 88.0
103.847992 240.0
103.874367 208.0
104.008286 164.0
104.032646 188.0
104.104256 224.0
104.128082 180.0
104.146362 156.0
104.178864 172.0
104.224625 168.0
104.24794 212.0
104.323143 188.0
104.347542 120.0
104.378044 156.0
104.526062 224.0
104.585464 180.0
104.628304 140.0
104.673096 176.0
104.696274 136.0
104.768867 180.0
104.887016 40.0
104.925743 160.0
105.015472 180.0
105.046066 192.0
105.203201 160.0
105.251976 184.0
105.258224 164.0
105.415619 68.0
105.493286 228.0
105.511681 164.0
105.532127 68.0
105.560753 188.0
105.583252 172.0
105.629936 96.0
105.702805 136.0
105.733665 168.0
105.779671 196.0
105.818565 72.0
105.841087 152.0
105.857475 340.0
106.004967 72.0
106.03775 188.0
106.087898 172.0
106.111404 116.0
106.181267 124.0
106.230721 180.0
106.329536 148.0
106.37619 176.0
106.462425 112.0
106.49118 136.0
106.539322 180.0
106.698723 196.0
106.746017 172.0
106.770233 252.0
106.797203 180.0
106.81813 128.0
106.832397 196.0
106.864479 128.0
106.870735 76.0
106.876778 176.0
106.930443 136.0
106.962044 176.0
107.003212 208.0
107.047913 316.0
107.073227 128.0
107.128838 176.0
107.157684 148.0
107.341125 204.0
107.374123 156.0
107.483459 156.0
107.61969 52.0
107.764267 144.0
107.785873 224.0
107.804588 156.0
107.848999 148.0
107.890343 168.0
107.906883 156.0
107.926315 140.0
107.964775 96.0
107.987526 176.0
108.04319 236.0
108.105453 40.0
108.169609 184.0
108.190315 152.0
108.264854 108.0
108.293846 160.0
108.330711 216.0
108.401581 140.0
108.422302 172.0
108.622269 180.0
108.64209 228.0
108.71666 132.0
108.803963 164.0
108.82473 280.0
108.905716 136.0
108.977791 184.0
108.985764 128.0
109.00959 188.0
109.103012 148.0
109.175903 204.0
109.288231 160.0
109.325478 164.0
109.37355 112.0
109.481819 192.0
109.498482 192.0
109.54847 148.0
109.569305 108.0
109.608887 164.0
109.658905 72.0
109.773567 156.0
109.798592 212.0
109.831963 132.0
109.863251 96.0
109.904984 108.0
109.956337 212.0
110.00148 160.0
110.059441 156.0
110.226547 100.0
110.249535 68.0
110.347778 144.0
110.372864 76.0
110.460709 120.0
110.497742 192.0
110.523468 140.0
110.619484 196.0
110.708672 76.0
110.737 120.0
110.780983 160.0
110.814507 160.0
110.835457 136.0
110.869362 156.0
110.961876 204.0
110.997559 152.0
111.025284 180.0
111.04409 156.0
111.081116 116.0
111.120613 132.0
111.343117 184.0
111.375412 244.0
111.444893 268.0
111.47757 168.0
111.508789 168.0
111.551132 212.0
111.631027 208.0
111.742508 180.0
111.761444 116.0
111.828781 172.0
111.845619 144.0
111.894043 136.0
111.944572 180.0
111.984589 216.0
112.026718 172.0
112.098351 40.0
112.125633 216.0
112.186874 140.0
112.212173 88.0
112.262352 196.0
112.300743 172.0
112.340073 180.0
112.361916 60.0
112.437881 228.0
112.526535 144.0
112.543427 112.0
112.579323 108.0
112.608894 152.0
112.68705 48.0
112.737762 180.0
112.780037 124.0
112.826538 192.0
112.862282 124.0
112.940735 168.0
112.98304 104.0
112.997849 144.0
113.026886 116.0
113.13118 40.0
113.165054 184.0
113.228577 116.0
113.317131 164.0
113.345093 40.0
113.482864 120.0
113.518913 228.0
113.567688 156.0
113.604652 244.0
113.635574 160.0
113.657974 172.0
113.688622 180.0
113.744362 184.0
113.794754 124.0
113.86058 172.0
113.917931 180.0
113.988045 108.0
114.015671 140.0
114.128334 260.0
114.187881 212.0
114.21978 160.0
114.236801 192.0
114.311264 204.0
114.338936 128.0
114.358086 188.0
114.42408 256.0
114.455338 188.0
114.472847 168.0
114.477844 224.0
114.504997 136.0
114.522034 228.0
114.582062 156.0
114.658394 252.0
114.732994 152.0
114.766861 380.0
114.820419 336.0
114.854546 136.0
114.884407 64.0
114.918541 76.0
115.053246 408.0
115.114922 112.0
115.168312 44.0
115.243195 76.0
115.275024 160.0
115.309326 128.0
115.349937 228.0
115.396973 252.0
115.424767 176.0
115.448402 152.0
115.510315 120.0
115.552216 184.0
115.560471 108.0
115.730751 196.0
115.797134 172.0
115.846397 132.0
115.878242 148.0
115.934128 212.0
115.950188 216.0
115.992111 108.0
116.028557 172.0
116.058525 168.0
116.126839 120.0
116.176537 160.0
116.219444 144.0
116.245193 28.0
116.261765 188.0
116.330994 176.0
116.343178 104.0
116.348724 136.0
116.378227 188.0
116.431961 168.0
116.459885 280.0
116.495888 184.0
116.515732 184.0
116.55011 196.0
116.586639 116.0
116.689819 188.0
116.776337 188.0
116.83329 152.0
116.896309 136.0
116.94796 76.0
116.981911 232.0
117.057457 612.0
117.081444 152.0
117.096519 120.0
117.111595 96.0
117.176224 96.0
117.281815 124.0
117.306221 124.0
117.36158 152.0
117.378624 128.0
117.455521 164.0
117.4953 136.0
117.51548 124.0
117.54924 52.0
117.577293 132.0
117.626938 116.0
117.659317 156.0
117.693863 116.0
117.737053 152.0
117.76297 208.0
117.793213 164.0
117.8321 140.0
117.870987 200.0
117.888275 136.0
117.937988 128.0
117.981216 68.0
118.007164 144.0
118.035271 172.0
118.065544 104.0
118.14341 84.0
118.167213 180.0
118.199669 152.0
118.231743 232.0
118.253769 80.0
118.271774 176.0
118.323036 136.0
118.344688 88.0
118.420486 176.0
118.448639 96.0
118.486877 160.0
118.522301 168.0
118.539635 88.0
118.555862 148.0
118.617706 180.0
118.635002 144.0
118.695709 340.0
118.726067 96.0
118.782463 212.0
118.801987 116.0
118.817169 208.0
118.83564 156.0
118.971252 104.0
118.991554 172.0
119.01902 48.0
119.042908 204.0
119.065536 200.0
119.098106 96.0
119.153679 136.0
119.237564 192.0
119.288879 132.0
119.314507 52.0
119.340599 68.0
119.368866 176.0
119.41671 160.0
119.437645 224.0
119.499374 176.0
119.542892 136.0
119.631775 172.0
119.773674 56.0
119.802261 160.0
119.84774 84.0
119.871712 104.0
119.903183 172.0
119.945808 152.0
120.013397 140.0
120.041656 516.0
120.146439 228.0
120.235901 184.0
120.280968 160.0
120.289879 104.0
120.293114 132.0
120.394135 164.0
120.421478 184.0
120.462975 172.0
120.491074 172.0
120.536995 164.0
120.62468 188.0
120.669518 228.0
120.706284 148.0
120.797432 180.0
120.865257 92.0
120.968117 180.0
121.001389 212.0
121.038177 144.0
121.086357 180.0
121.241905 168.0
121.285744 144.0
121.377823 180.0
121.454582 216.0
121.483093 220.0
121.507225 128.0
121.540138 188.0
121.625725 168.0
121.694511 156.0
121.770638 376.0
121.825554 144.0
121.942017 380.0
121.990372 228.0
122.00956 176.0
122.023346 212.0
122.059837 3036.0
122.179497 180.0
122.241104 216.0
122.263107 220.0
122.305794 304.0
122.344551 192.0
122.375374 196.0
122.412804 80.0
122.437027 60.0
122.46566 192.0
122.529541 104.0
122.56144 176.0
122.664581 160.0
122.749954 172.0
122.79406 116.0
122.822739 156.0
123.011253 152.0
123.038994 148.0
123.062759 184.0
123.097267 144.0
123.129532 244.0
123.164871 148.0
123.202423 140.0
123.239983 172.0
123.27755 124.0
123.335007 144.0
123.410172 136.0
123.435394 148.0
123.443848 192.0
123.483055 192.0
123.522964 40.0
123.55172 168.0
123.571632 184.0
123.593758 68.0
123.626953 108.0
123.644653 380.0
123.660149 140.0
123.684494 136.0
123.802895 260.0
123.894867 140.0
123.925774 168.0
123.950256 92.0
123.990143 36.0
124.0205 380.0
124.058861 188.0
124.178596 204.0
124.231834 60.0
124.254013 116.0
124.289513 164.0
124.429344 136.0
124.515945 196.0
124.544823 268.0
124.7248 256.0
124.791496 156.0
124.884895 160.0
124.906921 168.0
124.955048 116.0
125.016991 14960.0
125.06012 100.0
125.089676 176.0
125.103951 108.0
125.138931 232.0
125.155838 156.0
125.180885 140.0
125.20182 60.0
125.225433 80.0
125.256615 160.0
125.287804 124.0
125.334587 196.0
125.3591 36.0
125.43042 188.0
125.521828 144.0
125.553047 144.0
125.586502 136.0
125.619095 236.0
125.63781 52.0
125.699554 256.0
125.724831 88.0
125.744911 88.0
125.818573 64.0
125.876625 176.0
125.910126 104.0
126.019524 1468.0
126.070976 148.0
126.110085 152.0
126.135796 176.0
126.164856 136.0
126.210815 208.0
126.215508 116.0
126.223679 168.0
126.35495 116.0
126.426552 64.0
126.479683 164.0
126.542946 160.0
126.63929 176.0
126.681801 124.0
126.712196 212.0
126.73333 144.0
126.769493 200.0
126.81501 152.0
126.821358 156.0
126.827911 196.0
126.847626 128.0
126.873344 152.0
126.967628 188.0
127.012169 984.0
127.031425 448.0
127.051933 520.0
127.107788 156.0
127.132469 112.0
127.152672 188.0
127.188507 120.0
127.212936 160.0
127.242462 48.0
127.289612 148.0
127.532242 132.0
127.561462 132.0
127.599678 36.0
127.715233 136.0
127.748108 144.0
127.797607 148.0
127.841942 336.0
127.865112 184.0
127.880867 144.0
127.975418 176.0
128.016083 696.0
128.06012 992.0
128.164612 84.0
128.21489 168.0
128.320145 152.0
128.412598 148.0
128.47934 108.0
128.496063 200.0
128.510757 108.0
128.536667 152.0
128.595352 132.0
128.712738 88.0
128.888931 188.0
128.920563 48.0
128.947678 176.0
128.983841 204.0
129.004181 144.0
129.026794 64.0
129.06929 2816.0
129.121765 48.0
129.144379 28.0
129.16124 44.0
129.185104 104.0
129.250793 108.0
129.317062 224.0
129.365738 224.0
129.409149 168.0
129.473465 208.0
129.51355 280.0
129.54277 152.0
129.560898 192.0
129.62886 40.0
129.683685 172.0
129.858322 172.0
129.954041 244.0
130.012115 144.0
130.028 204.0
130.043884 108.0
130.068771 408.0
130.20282 120.0
130.234619 192.0
130.345932 148.0
130.459579 148.0
130.504089 164.0
130.573257 208.0
130.614197 40.0
130.632095 112.0
130.652878 116.0
130.668808 180.0
130.739334 136.0
130.7621 172.0
130.79483 168.0
130.825836 160.0
130.882751 48.0
130.937408 148.0
130.960175 92.0
130.984375 96.0
131.037628 128.0
131.062546 120.0
131.124222 32.0
131.215408 132.0
131.24733 132.0
131.281525 196.0
131.349945 168.0
131.365921 156.0
131.434357 120.0
131.450333 144.0
131.482285 112.0
131.52565 164.0
131.619247 136.0
131.64209 108.0
131.660355 152.0
131.686264 220.0
131.767715 192.0
131.891113 52.0
131.939117 168.0
131.984848 156.0
132.064896 168.0
132.165558 104.0
132.19072 212.0
132.219559 200.0
132.243362 148.0
132.401337 160.0
132.456299 196.0
132.485077 132.0
132.547943 76.0
132.588882 176.0
132.640259 212.0
132.676041 144.0
132.741592 148.0
132.797821 140.0
132.857468 116.0
132.912537 200.0
133.029587 148.0
133.070908 144.0
133.091568 100.0
133.204544 188.0
133.22937 116.0
133.25235 184.0
133.286819 52.0
133.325882 172.0
133.360352 192.0
133.410919 132.0
133.43161 212.0
133.463806 360.0
133.48616 160.0
133.524521 148.0
133.668518 52.0
133.69458 212.0
133.769791 144.0
133.808929 216.0
133.827347 128.0
133.864182 84.0
133.949402 136.0
133.990875 64.0
134.021408 212.0
134.059601 184.0
134.07196 188.0
134.219055 148.0
134.249023 124.0
134.301971 180.0
134.40358 192.0
134.447433 72.0
134.463577 168.0
134.5215 212.0
134.553604 88.0
134.595169 120.0
134.622421 144.0
134.650589 120.0
134.692169 160.0
134.753891 172.0
134.77533 72.0
134.895508 196.0
134.95253 168.0
135.003296 156.0
135.064316 176.0
135.087402 236.0
135.147598 132.0
135.189743 208.0
135.28183 132.0
135.307907 240.0
135.325821 40.0
135.351288 144.0
135.441605 96.0
135.460144 40.0
135.569031 48.0
135.592209 136.0
135.622345 188.0
135.722031 52.0
135.801575 132.0
135.832062 176.0
135.907593 60.0
135.947037 52.0
135.998093 128.0
136.018982 168.0
136.037552 196.0
136.151321 128.0
136.225647 108.0
136.29071 100.0
136.316269 180.0
136.341827 176.0
136.382278 228.0
136.409225 120.0
136.45108 176.0
136.536087 144.0
136.677795 144.0
136.79306 116.0
136.83287 172.0
136.8629 132.0
136.879196 92.0
136.933975 192.0
136.958389 148.0
137.016907 2472.0
137.065552 108.0
137.08783 200.0
137.121475 156.0
137.219376 136.0
137.238037 180.0
137.442719 180.0
137.580429 116.0
137.613678 56.0
137.842316 140.0
137.879974 84.0
137.905685 128.0
137.947357 164.0
137.987503 160.0
138.023254 652.0
138.083374 196.0
138.284592 124.0
138.387451 140.0
138.408371 196.0
138.448471 220.0
138.535141 196.0
138.566589 104.0
138.614792 232.0
138.661667 52.0
138.682755 324.0
138.736679 148.0
138.765564 224.0
138.812317 200.0
138.842285 196.0
138.914902 120.0
138.98439 368.0
139.011337 324.0
139.027527 272.0
139.053253 236.0
139.090897 192.0
139.116714 160.0
139.243515 188.0
139.281082 152.0
139.31633 136.0
139.377411 160.0
139.417358 160.0
139.435913 152.0
139.495102 160.0
139.614838 40.0
139.679443 228.0
139.732452 176.0
139.828918 100.0
139.87912 196.0
139.958405 108.0
139.994385 140.0
140.049789 1680.0
140.127975 132.0
140.205734 136.0
140.453308 180.0
140.517349 216.0
140.627914 156.0
140.727051 80.0
140.809708 160.0
140.842941 160.0
140.890015 104.0
140.932541 188.0
141.015259 136.0
141.058273 2456.0
141.129883 148.0
141.235138 144.0
141.287186 96.0
141.369995 192.0
141.490677 268.0
141.573593 196.0
141.602463 84.0
141.763107 192.0
141.848434 116.0
141.879242 204.0
141.9505 156.0
142.002548 88.0
142.059158 736.0
142.133026 148.0
142.156754 128.0
142.253281 168.0
142.444046 100.0
142.508179 136.0
142.553329 72.0
142.569962 32.0
142.63414 120.0
142.656448 136.0
142.676926 136.0
142.693573 116.0
142.722183 212.0
142.741119 180.0
142.772034 52.0
142.802963 208.0
142.831497 72.0
142.870911 120.0
143.072357 336.0
143.274277 80.0
143.333832 148.0
143.450623 96.0
143.495911 184.0
143.54599 160.0
143.622299 240.0
143.650925 124.0
143.722504 152.0
143.869278 344.0
143.896744 84.0
143.977921 168.0
144.013748 144.0
144.077942 320.0
144.130814 156.0
144.16861 176.0
144.197723 180.0
144.214447 204.0
144.276184 112.0
144.405731 108.0
144.479889 148.0
144.527969 164.0
144.554062 196.0
144.585159 48.0
144.611496 216.0
144.683304 116.0
144.829376 180.0
144.995575 76.0
145.025848 292.0
145.067108 156.0
145.091705 152.0
145.163284 184.0
145.218948 120.0
145.320816 140.0
145.481613 172.0
145.512833 172.0
145.539856 172.0
145.563248 136.0
145.589661 180.0
145.630493 52.0
145.659317 196.0
145.699936 224.0
145.741959 204.0
145.759064 192.0
145.808289 112.0
145.865967 212.0
145.953156 152.0
145.99147 160.0
146.034286 104.0
146.056015 124.0
146.098526 164.0
146.237183 156.0
146.402191 148.0
146.563904 188.0
146.614502 180.0
146.641022 116.0
146.70369 156.0
146.766251 220.0
146.790482 188.0
146.85466 144.0
146.864807 88.0
146.871506 216.0
146.900177 192.0
146.921417 168.0
146.961746 108.0
147.013702 152.0
147.051041 264.0
147.1138 108.0
147.176041 148.0
147.208969 48.0
147.314224 156.0
147.38913 76.0
147.497879 104.0
147.580887 296.0
147.611511 168.0
147.659882 172.0
147.698578 132.0
147.715408 100.0
147.72438 96.0
147.733444 164.0
147.790512 164.0
147.814697 144.0
147.911514 216.0
148.022919 224.0
148.081161 120.0
148.097961 172.0
148.11734 112.0
148.148819 148.0
148.219086 176.0
148.284515 204.0
148.301483 44.0
148.391174 164.0
148.417847 148.0
148.539108 148.0
148.71138 136.0
148.815765 188.0
148.854614 140.0
148.931793 144.0
149.010803 240.0
149.025909 264.0
149.048096 136.0
149.107269 180.0
149.12915 160.0
149.180191 176.0
149.204559 172.0
149.256943 164.0
149.306625 372.0
149.357697 44.0
149.418518 32.0
149.544403 240.0
149.61322 120.0
149.649734 212.0
149.698288 128.0
149.739838 236.0
149.786118 212.0
149.833893 208.0
149.87381 240.0
149.959106 292.0
150.03064 288.0
150.102951 68.0
150.137085 212.0
150.220016 228.0
150.249283 36.0
150.29808 108.0
150.366409 164.0
150.383499 132.0
150.466171 148.0
150.573929 112.0
150.620346 132.0
150.659424 196.0
150.730286 120.0
150.801147 176.0
150.835373 172.0
150.939514 172.0
150.977188 156.0
151.010483 220.0
151.019547 136.0
151.041519 340.0
151.136185 216.0
151.155762 176.0
151.253662 216.0
151.305069 60.0
151.334915 164.0
151.366272 112.0
151.513962 144.0
151.655365 176.0
151.733795 96.0
151.883392 152.0
151.975464 196.0
152.013931 136.0
152.057602 100.0
152.116501 184.0
152.158234 56.0
152.182785 116.0
152.231903 172.0
152.325226 256.0
152.425964 132.0
152.539017 172.0
152.620148 176.0
152.66687 148.0
152.703751 164.0
152.814453 196.0
152.910431 160.0
152.967041 176.0
153.011215 1284.0
153.054367 340.0
153.092606 192.0
153.200974 148.0
153.220688 72.0
153.394318 148.0
153.464691 204.0
153.490875 148.0
153.500153 176.0
153.504593 216.0
153.58728 152.0
153.594666 108.0
153.604095 228.0
153.625 104.0
153.683716 140.0
153.716278 128.0
153.740952 180.0
153.824875 164.0
153.866852 324.0
153.990311 88.0
154.017044 204.0
154.065308 1160.0
154.095627 120.0
154.160782 36.0
154.227509 160.0
154.244812 144.0
154.296982 168.0
154.323914 136.0
154.361008 152.0
154.546524 144.0
154.566315 80.0
154.744537 144.0
154.784149 64.0
154.818817 188.0
154.870819 44.0
154.899017 168.0
154.922852 236.0
154.977356 136.0
155.00708 124.0
155.026917 144.0
155.063416 844.0
155.169586 128.0
155.185547 196.0
155.256119 172.0
155.4552 220.0
155.485703 140.0
155.567612 136.0
155.627197 124.0
155.664444 224.0
155.701828 220.0
155.810989 196.0
155.853226 112.0
155.875595 148.0
155.907898 112.0
156.079803 3768.0
156.141586 136.0
156.188843 116.0
156.223663 176.0
156.278397 184.0
156.305771 156.0
156.350388 164.0
156.480835 144.0
156.487823 196.0
156.55719 140.0
156.609497 140.0
156.65184 108.0
156.705734 204.0
156.848694 64.0
156.916016 144.0
156.938446 160.0
157.000793 160.0
157.046677 124.0
157.083359 952.0
157.120514 116.0
157.169815 148.0
157.192871 36.0
157.252777 136.0
157.292709 68.0
157.360107 88.0
157.40506 40.0
157.44809 180.0
157.514938 224.0
157.536346 176.0
157.658173 244.0
157.722336 40.0
157.779831 188.0
157.923599 304.0
157.989914 116.0
158.057678 140.0
158.080368 316.0
158.122406 168.0
158.157562 88.0
158.180099 212.0
158.237671 244.0
158.267715 56.0
158.549149 128.0
158.558899 168.0
158.595901 288.0
158.638519 52.0
158.661072 72.0
158.724854 164.0
158.751343 144.0
158.806519 236.0
158.842819 220.0
158.889297 168.0
159.022293 200.0
159.06012 172.0
159.09021 208.0
159.123428 180.0
159.16153 248.0
159.248962 188.0
159.41156 168.0
159.451767 80.0
159.529694 128.0
159.605118 192.0
159.665466 136.0
159.806396 168.0
159.926361 132.0
159.952301 72.0
159.983459 340.0
160.058395 84.0
160.21167 140.0
160.35321 208.0
160.44101 124.0
160.562042 128.0
160.587265 156.0
160.630142 92.0
160.655365 224.0
160.713394 264.0
160.733582 160.0
160.801712 196.0
160.837051 152.0
160.92012 168.0
161.017029 184.0
161.050797 112.0
161.071884 92.0
161.114822 48.0
161.196655 176.0
161.253799 92.0
161.28035 48.0
161.327103 160.0
161.448471 196.0
161.504715 168.0
161.537003 340.0
161.559769 136.0
161.583679 176.0
161.607834 204.0
161.635666 172.0
161.678696 116.0
161.711594 172.0
161.734375 184.0
161.778534 192.0
161.805252 136.0
161.828033 44.0
161.866013 180.0
161.883743 168.0
161.93692 220.0
161.96225 148.0
161.995178 228.0
162.01683 144.0
162.051895 312.0
162.101593 160.0
162.273956 220.0
162.291702 148.0
162.319595 160.0
162.350037 300.0
162.375397 120.0
162.471786 284.0
162.573273 96.0
162.649734 136.0
162.692566 120.0
162.712875 108.0
162.743347 236.0
162.796677 136.0
162.874878 156.0
162.927017 164.0
162.982101 128.0
163.035278 196.0
163.136551 172.0
163.195618 192.0
163.256638 48.0
163.279526 136.0
163.573639 184.0
163.62883 160.0
163.791122 68.0
163.808945 68.0
163.82933 224.0
163.890472 80.0
163.97966 156.0
164.008453 332.0
164.041611 148.0
164.260147 124.0
164.296295 160.0
164.336136 344.0
164.413223 152.0
164.508423 176.0
164.533203 124.0
164.696625 244.0
164.750275 112.0
164.786041 132.0
164.887772 148.0
164.904434 180.0
164.975159 160.0
164.995605 44.0
165.022736 208.0
165.043945 208.0
165.069763 168.0
165.156708 244.0
165.203583 160.0
165.358841 36.0
165.380096 144.0
165.412598 124.0
165.571335 148.0
165.599518 200.0
165.684036 152.0
165.714783 144.0
165.789093 156.0
165.806061 212.0
165.930069 160.0
166.02832 320.0
166.063522 444.0
166.096771 188.0
166.124985 172.0
166.197479 172.0
166.237869 96.0
166.266098 248.0
166.299469 100.0
166.343109 124.0
166.54541 204.0
166.579346 148.0
166.597336 76.0
166.718094 176.0
166.813187 156.0
166.851761 72.0
166.916031 48.0
166.946899 156.0
167.013763 156.0
167.060944 2100.0
167.312271 188.0
167.329071 144.0
167.357162 272.0
167.381775 72.0
167.42041 164.0
167.4599 84.0
167.499817 296.0
167.523438 72.0
167.581268 184.0
167.624771 432.0
167.649689 120.0
167.683197 208.0
167.731033 72.0
167.831482 228.0
167.894592 148.0
167.920319 152.0
167.964371 232.0
168.002274 352.0
168.022049 168.0
168.068542 97912.0
168.137909 292.0
168.1642 96.0
168.1922 92.0
168.218033 56.0
168.269836 208.0
168.326096 264.0
168.357254 188.0
168.378067 156.0
168.415939 56.0
168.435181 80.0
168.465027 52.0
168.491714 352.0
168.51503 124.0
168.553604 164.0
168.578705 56.0
168.607132 40.0
168.642059 384.0
168.684982 168.0
168.718277 180.0
168.744278 72.0
168.764252 92.0
168.779297 180.0
168.818115 92.0
168.875885 80.0
168.922577 156.0
168.960953 48.0
169.003784 144.0
169.029907 244.0
169.071777 14628.0
169.108017 180.0
169.149307 84.0
169.18454 80.0
169.196381 40.0
169.200638 72.0
169.241943 100.0
169.309448 68.0
169.337952 84.0
169.378159 64.0
169.413849 36.0
169.4879 168.0
169.54657 48.0
169.567307 88.0
169.602203 284.0
169.625092 136.0
169.686554 96.0
169.751373 152.0
169.831772 36.0
169.861511 164.0
169.881058 128.0
169.925156 112.0
169.950516 196.0
170.036743 44.0
170.074188 1156.0
170.123672 124.0
170.171173 112.0
170.180817 88.0
170.18634 108.0
170.231445 144.0
170.249619 108.0
170.278122 172.0
170.337936 128.0
170.36412 100.0
170.381012 144.0
170.411865 148.0
170.439255 176.0
170.464844 160.0
170.514618 124.0
170.53801 188.0
170.566177 176.0
170.574951 224.0
170.620438 152.0
170.657593 180.0
170.686188 88.0
170.720123 136.0
170.740799 36.0
170.848846 104.0
170.894272 108.0
170.928101 48.0
170.972809 220.0
171.029602 144.0
171.054398 160.0
171.090149 900.0
171.129898 140.0
171.154556 208.0
171.177994 288.0
171.221237 104.0
171.322998 188.0
171.344696 124.0
171.381165 168.0
171.399414 44.0
171.421066 180.0
171.458832 300.0
171.513519 184.0
171.547974 164.0
171.568817 220.0
171.597504 132.0
171.683548 68.0
171.709625 192.0
171.74614 128.0
171.819183 136.0
171.962845 72.0
172.093445 200.0
172.167618 164.0
172.184616 208.0
172.205521 268.0
172.332123 172.0
172.370102 164.0
172.453735 124.0
172.596146 160.0
172.623657 96.0
172.641968 100.0
172.762283 144.0
172.796295 168.0
172.898346 140.0
172.940216 136.0
173.005661 168.0
173.04538 140.0
173.075409 132.0
173.102539 160.0
173.133957 140.0
173.18634 208.0
173.387421 188.0
173.466721 116.0
173.532257 40.0
173.600433 268.0
173.641251 172.0
173.694855 160.0
173.721085 180.0
173.781433 172.0
173.946213 192.0
173.966949 52.0
173.97464 136.0
174.02243 156.0
174.037766 444.0
174.082245 128.0
174.204102 216.0
174.267166 52.0
174.359131 172.0
174.485306 100.0
174.548401 172.0
174.732529 136.0
174.758835 48.0
174.782516 188.0
174.86673 180.0
174.921997 192.0
174.948318 172.0
175.030823 772.0
175.082611 148.0
175.140549 180.0
175.182693 220.0
175.21431 156.0
175.290726 200.0
175.335526 88.0
175.356613 100.0
175.438324 144.0
175.480499 164.0
175.541153 144.0
175.580704 40.0
175.607071 136.0
175.673019 148.0
175.745392 84.0
175.775925 140.0
175.885971 196.0
176.040985 644.0
176.066299 140.0
176.122406 116.0
176.179886 204.0
176.338425 216.0
176.359573 76.0
176.399216 112.0
176.483826 112.0
176.510254 132.0
176.679535 116.0
176.721863 276.0
176.766846 128.0
176.866119 136.0
176.90448 140.0
176.925659 128.0
177.020966 156.0
177.046402 720.0
177.077408 216.0
177.126907 88.0
177.169083 144.0
177.274139 140.0
177.322983 204.0
177.410461 196.0
177.602173 188.0
177.662384 100.0
177.712799 76.0
177.86142 120.0
177.893265 148.0
177.91716 136.0
177.961105 236.0
178.029327 156.0
178.104477 200.0
178.185394 456.0
178.209305 188.0
178.227905 112.0
178.286362 220.0
178.458237 188.0
178.501694 48.0
178.565521 72.0
178.624039 148.0
178.667191 160.0
178.750626 172.0
178.773026 240.0
178.814209 212.0
178.868835 112.0
178.903442 56.0
178.930069 184.0
178.996643 124.0
179.025116 444.0
179.035217 180.0
179.088593 196.0
179.161774 76.0
179.204391 56.0
179.236374 48.0
179.265686 136.0
179.32431 28.0
179.370422 80.0
179.462418 164.0
179.488647 112.0
179.553604 68.0
179.598938 92.0
179.713654 180.0
179.735001 148.0
179.940521 60.0
180.004211 188.0
180.063278 168.0
180.138138 48.0
180.178207 180.0
180.281372 236.0
180.355896 188.0
180.437454 144.0
180.483902 64.0
180.504288 48.0
180.624649 144.0
180.734329 116.0
180.798553 60.0
180.828003 180.0
180.865463 116.0
180.901764 136.0
180.952393 220.0
180.988617 76.0
181.028046 156.0
181.047485 160.0
181.075882 10112.0
181.138596 32.0
181.240219 60.0
181.28595 204.0
181.308014 132.0
181.409958 60.0
181.43605 60.0
181.516495 76.0
181.610352 60.0
181.634262 140.0
181.653854 164.0
181.686264 200.0
181.73912 204.0
181.798157 60.0
181.818069 200.0
181.902832 128.0
181.980164 248.0
182.026596 204.0
182.083435 30028.0
182.166122 352.0
182.201202 224.0
182.230026 160.0
182.27298 224.0
182.305328 340.0
182.356766 132.0
182.377655 52.0
182.429352 40.0
182.449707 84.0
182.458466 48.0
182.465286 76.0
182.519592 156.0
182.530029 80.0
182.538559 212.0
182.565445 220.0
182.576462 56.0
182.581879 280.0
182.612137 180.0
182.648819 188.0
182.683701 116.0
182.731293 132.0
182.772598 140.0
182.817947 268.0
182.825409 128.0
182.83812 120.0
182.87825 212.0
182.889114 156.0
182.897995 200.0
182.927002 188.0
182.960266 180.0
182.986771 420.0
183.020905 248.0
183.051239 708.0
183.0923 144188.0
183.146683 172.0
183.191452 160.0
183.228851 80.0
183.276596 280.0
183.317139 216.0
183.338028 272.0
183.360291 132.0
183.38739 328.0
183.414368 184.0
183.431641 296.0
183.454239 108.0
183.475739 164.0
183.511368 212.0
183.534561 1004.0
183.562592 156.0
183.594086 140.0
183.643753 28.0
183.675308 64.0
183.710205 96.0
183.721329 100.0
183.752609 80.0
183.778717 80.0
183.816422 56.0
183.858017 48.0
183.923553 240.0
183.942001 192.0
183.967026 172.0
183.973938 224.0
184.004959 136.0
184.014206 116.0
184.061417 1064.0
184.09523 16560.0
184.144577 328.0
184.180893 180.0
184.225296 136.0
184.271561 148.0
184.320023 112.0
184.354385 92.0
184.375412 100.0
184.397034 144.0
184.417923 44.0
184.441849 80.0
184.494354 148.0
184.536575 136.0
184.572754 108.0
184.604752 96.0
184.642548 104.0
184.664139 96.0
184.730316 172.0
184.791412 76.0
184.821609 76.0
184.846802 116.0
184.900085 128.0
184.921738 52.0
184.948807 224.0
184.97316 48.0
185.070572 2384.0
185.097595 948.0
185.125412 208.0
185.175507 156.0
185.251831 144.0
185.291183 160.0
185.300034 40.0
185.307419 120.0
185.340027 112.0
185.360214 184.0
185.388397 116.0
185.416351 64.0
185.462036 116.0
185.472641 132.0
185.499588 96.0
185.545074 320.0
185.593994 188.0
185.631531 88.0
185.674927 104.0
185.703064 64.0
185.719864 56.0
185.747559 240.0
185.832245 60.0
185.870239 56.0
185.95816 208.0
185.990417 128.0
186.031631 180.0
186.07843 704.0
186.16069 68.0
186.185135 124.0
186.268784 60.0
186.334534 92.0
186.373276 92.0
186.399734 68.0
186.429626 188.0
186.479233 48.0
186.516602 160.0
186.548294 116.0
186.579132 48.0
186.687897 76.0
186.709641 136.0
186.844849 116.0
186.91095 84.0
187.006195 76.0
187.033005 524.0
187.060638 156.0
187.082367 160.0
187.11554 240.0
187.173264 76.0
187.240341 88.0
187.279755 100.0
187.362915 48.0
187.450104 168.0
187.491989 108.0
187.548218 60.0
187.613647 164.0
187.679077 172.0
187.703613 48.0
187.747253 156.0
187.861801 160.0
188.038605 388.0
188.142899 152.0
188.257568 172.0
188.32312 84.0
188.437851 184.0
188.544418 52.0
188.612747 72.0
188.634613 196.0
188.664688 140.0
188.686554 36.0
188.763123 104.0
188.905334 100.0
188.962784 196.0
189.020248 132.0
189.04454 160.0
189.18721 224.0
189.376144 112.0
189.450104 152.0
189.49942 180.0
189.535034 120.0
189.576141 256.0
189.670319 176.0
189.98468 64.0
190.032806 124.0
190.052795 136.0
190.289307 40.0
190.410522 112.0
190.475449 92.0
190.638153 140.0
190.728851 200.0
190.800323 172.0
191.027344 824.0
191.063278 5012.0
191.215683 60.0
191.287247 80.0
191.306519 48.0
191.460709 108.0
191.515427 96.0
191.551605 160.0
191.573639 96.0
191.62323 212.0
191.678329 56.0
191.730698 80.0
191.796844 152.0
191.935257 136.0
191.981567 52.0
192.022934 180.0
192.044907 408.0
192.068085 488.0
192.152588 212.0
192.182938 120.0
192.276749 112.0
192.298828 96.0
192.320908 204.0
192.392685 56.0
192.431335 52.0
192.627411 184.0
192.746216 36.0
192.815292 104.0
192.928635 60.0
193.016113 280.0
193.06163 352.0
193.11113 88.0
193.147079 84.0
193.263275 168.0
193.354599 64.0
193.418259 40.0
193.449341 104.0
193.481934 140.0
193.52623 116.0
193.552063 144.0
193.598938 156.0
193.650848 56.0
193.75737 220.0
193.794891 56.0
193.864166 112.0
193.900192 160.0
193.951614 116.0
194.027695 156.0
194.060974 100.0
194.099792 52.0
194.15802 140.0
194.180206 52.0
194.210724 64.0
194.244003 88.0
194.418808 160.0
194.438232 88.0
194.524277 64.0
194.602005 56.0
194.77269 164.0
194.840866 80.0
195.024261 204.0
195.051422 148.0
195.072083 172.0
195.135452 156.0
195.174377 184.0
195.284897 200.0
195.305084 120.0
195.33847 92.0
195.460892 132.0
195.604782 148.0
195.739243 244.0
196.012451 148.0
196.076233 268.0
196.130264 88.0
196.182236 136.0
196.307709 152.0
196.383011 116.0
196.50296 80.0
196.653656 144.0
196.71785 140.0
196.739319 220.0
196.798813 104.0
196.921692 112.0
197.02684 192.0
197.065933 832.0
197.195496 96.0
197.220642 188.0
197.480682 208.0
197.567398 148.0
197.679749 156.0
197.707291 116.0
197.78006 108.0
197.830444 176.0
197.855652 148.0
197.894836 136.0
197.925964 204.0
197.94487 180.0
198.008301 208.0
198.078537 10864.0
198.12822 184.0
198.169327 44.0
198.204559 188.0
198.270203 56.0
198.343079 76.0
198.365494 80.0
198.436081 68.0
198.487076 276.0
198.525314 72.0
198.615067 96.0
198.72728 104.0
198.776764 132.0
198.819885 148.0
198.861969 216.0
198.94722 196.0
199.021423 240.0
199.041245 176.0
199.085754 15336.0
199.162415 56.0
199.187683 52.0
199.27478 152.0
199.31131 68.0
199.370316 56.0
199.389984 64.0
199.42894 84.0
199.470642 132.0
199.582443 180.0
199.645813 148.0
199.669144 164.0
199.763947 108.0
199.824265 56.0
199.85907 84.0
199.899002 108.0
199.919952 152.0
200.005951 176.0
200.05098 560.0
200.088196 1424.0
200.160782 140.0
200.295975 104.0
200.336761 116.0
200.397385 84.0
200.473465 72.0
200.512924 208.0
200.56366 68.0
200.599472 96.0
200.607758 68.0
200.615845 140.0
200.651047 168.0
200.727173 80.0
200.76384 96.0
200.792038 168.0
200.811783 232.0
200.873825 60.0
200.927429 144.0
200.964401 116.0
200.997971 104.0
201.047363 8444.0
201.098557 1056.0
201.201187 96.0
201.239822 76.0
201.308487 328.0
201.479538 128.0
201.528809 68.0
201.551407 120.0
201.571198 100.0
201.590973 136.0
201.650314 136.0
201.678589 92.0
201.873657 156.0
201.978302 116.0
202.054047 1652.0
202.106903 344.0
202.150894 164.0
202.317886 184.0
202.345779 136.0
202.374512 104.0
202.485016 116.0
202.518936 76.0
202.584076 68.0
202.612411 164.0
202.669083 156.0
202.810776 52.0
202.841949 88.0
202.878799 64.0
202.927002 84.0
202.980881 48.0
203.042862 384.0
203.060135 872.0
203.10849 168.0
203.159561 44.0
203.219131 132.0
203.238998 72.0
203.295746 76.0
203.352509 172.0
203.386566 48.0
203.443344 132.0
203.497284 180.0
203.590988 136.0
203.784149 148.0
203.886444 92.0
203.934753 80.0
204.031586 592.0
204.176422 136.0
204.213394 96.0
204.238998 108.0
204.281662 124.0
204.335724 132.0
204.46376 52.0
204.506454 128.0
204.608932 184.0
204.714294 52.0
204.82251 144.0
205.042114 852.0
205.127411 80.0
205.198685 80.0
205.272812 72.0
205.364075 144.0
205.46962 160.0
205.514587 232.0
205.543808 148.0
205.615158 124.0
205.720764 176.0
205.974915 32.0
206.023468 148.0
206.045959 312.0
206.137756 136.0
206.469376 128.0
206.973022 180.0
207.041748 136.0
207.121933 36.0
207.164902 204.0
207.293839 72.0
207.364609 156.0
207.474411 132.0
207.520279 64.0
207.746857 184.0
207.775543 212.0
207.933365 128.0
208.573868 132.0
208.6026 164.0
208.864273 96.0
209.011002 112.0
209.188919 144.0
209.353561 108.0
209.411163 236.0
209.442841 204.0
209.497574 128.0
209.529266 76.0
209.638748 120.0
209.705032 160.0
209.898193 176.0
210.126053 160.0
210.172211 100.0
210.264557 132.0
210.365585 136.0
210.507065 84.0
210.700577 100.0
210.761261 180.0
210.969345 76.0
211.122589 136.0
211.190659 232.0
211.284576 148.0
211.356903 160.0
211.55661 68.0
211.669525 84.0
211.973679 116.0
212.040329 200.0
212.260651 92.0
212.365051 232.0
212.483994 192.0
212.69873 196.0
212.75737 140.0
212.849701 128.0
213.015244 136.0
213.061722 56.0
213.093689 44.0
213.140167 112.0
213.192474 168.0
213.268036 152.0
213.302917 60.0
213.375595 64.0
213.404678 152.0
213.576248 196.0
213.881775 136.0
213.928345 92.0
213.980759 136.0
214.026825 112.0
214.072571 1640.0
214.108871 136.0
214.135086 136.0
214.172943 48.0
214.23703 48.0
214.376892 228.0
214.417694 164.0
214.645081 200.0
214.75589 176.0
214.998047 96.0
215.027847 132.0
215.07547 268.0
215.176102 136.0
215.237427 44.0
215.37468 96.0
215.444794 160.0
215.572159 76.0
215.725342 216.0
215.831589 140.0
215.880295 36.0
215.941711 76.0
216.029068 120.0
216.085999 148.0
216.172836 160.0
216.612 132.0
216.632507 56.0
216.673523 196.0
216.726257 136.0
217.044846 324.0
217.119064 132.0
217.233459 256.0
217.2892 88.0
217.523972 104.0
217.671371 96.0
217.741241 176.0
217.785294 60.0
218.009369 104.0
218.01593 104.0
218.03537 176.0
218.056732 408.0
218.22023 160.0
218.240799 120.0
218.290787 188.0
218.3349 76.0
218.379013 136.0
218.43541 140.0
218.567291 192.0
218.61438 72.0
218.696793 192.0
218.78215 132.0
218.814529 92.0
218.861649 156.0
218.888153 228.0
218.92569 64.0
219.010452 204.0
219.058197 13132.0
219.112 72.0
219.137222 100.0
219.215118 116.0
219.286972 84.0
219.314453 108.0
219.362488 56.0
219.389023 88.0
219.445038 52.0
219.465668 164.0
219.512848 72.0
219.574783 180.0
219.698669 112.0
219.822586 116.0
219.905075 160.0
219.95369 124.0
219.993774 40.0
220.018341 200.0
220.059402 1496.0
220.167984 184.0
220.297943 116.0
220.368851 96.0
220.439758 216.0
220.463409 68.0
220.5905 48.0
220.617111 192.0
220.661453 204.0
220.692917 56.0
220.761978 48.0
220.80043 36.0
220.960159 164.0
221.055344 768.0
221.166458 180.0
221.196915 84.0
221.235397 192.0
221.315323 160.0
221.34494 60.0
221.498947 68.0
221.658936 112.0
221.741913 156.0
221.830826 60.0
221.887161 112.0
222.062943 212.0
222.145157 120.0
222.296478 140.0
222.388474 120.0
222.409256 76.0
222.655685 64.0
222.768555 216.0
222.827972 136.0
222.84877 120.0
222.964661 124.0
223.23877 156.0
223.313431 104.0
223.580276 208.0
223.743988 140.0
223.913712 192.0
223.940521 100.0
224.582367 152.0
224.688736 180.0
224.754364 216.0
224.933441 176.0
225.208145 164.0
225.309708 128.0
225.486008 48.0
225.593613 132.0
225.629486 124.0
225.716187 68.0
225.791626 188.0
225.871704 244.0
225.979401 152.0
226.138 116.0
226.275711 152.0
226.395477 176.0
226.436432 124.0
226.889877 152.0
227.000809 152.0
227.19577 148.0
227.342789 68.0
227.417831 136.0
227.558914 112.0
227.69104 140.0
227.892303 184.0
227.964417 40.0
228.055923 716.0
228.103455 108.0
228.12973 48.0
228.243973 36.0
228.295105 196.0
228.487595 72.0
228.616989 136.0
228.677185 184.0
228.785538 48.0
228.915009 128.0
228.984283 112.0
229.04306 3476.0
229.104767 64.0
229.137909 160.0
229.258423 104.0
229.400085 48.0
229.574966 108.0
229.614166 48.0
229.777054 100.0
229.825333 76.0
229.88887 148.0
229.971252 148.0
229.99736 68.0
230.050201 15128.0
230.12529 272.0
230.162277 152.0
230.24086 80.0
230.264359 92.0
230.299911 136.0
230.368774 52.0
230.402008 28.0
230.48056 36.0
230.550064 128.0
230.710251 152.0
230.791885 88.0
230.979385 44.0
231.05336 2236.0
231.176056 224.0
231.215393 188.0
231.24263 180.0
231.325912 132.0
231.381882 164.0
231.808945 44.0
231.88472 32.0
231.941513 184.0
232.04538 1040.0
232.133301 100.0
232.254395 56.0
232.551971 124.0
232.573212 136.0
232.600357 144.0
232.679459 100.0
232.725006 120.0
232.746262 56.0
232.803955 152.0
232.904175 148.0
233.019623 180.0
233.051422 144.0
233.103439 216.0
233.469482 96.0
233.539444 112.0
233.658081 60.0
233.886307 180.0
233.941101 208.0
234.206024 48.0
234.230392 52.0
234.276077 56.0
234.382721 68.0
234.428421 84.0
234.538147 60.0
234.614349 132.0
234.847549 192.0
234.928467 196.0
235.0383 148.0
235.416824 184.0
235.726288 228.0
235.752853 188.0
235.872055 100.0
236.162537 104.0
236.205353 92.0
236.646042 88.0
236.750153 80.0
236.906357 84.0
237.350769 184.0
238.191681 48.0
238.302277 124.0
238.431183 164.0
238.708008 160.0
239.077164 168.0
239.130386 136.0
239.209518 184.0
239.317261 176.0
239.539001 72.0
240.133896 184.0
240.288132 164.0
240.318985 164.0
240.519577 160.0
240.602921 152.0
240.675262 196.0
240.887039 96.0
240.992065 156.0
241.097137 164.0
241.362991 32.0
241.480499 240.0
241.666107 140.0
241.727997 52.0
241.811554 100.0
241.901306 72.0
241.935364 164.0
241.991089 112.0
242.491852 208.0
243.044922 168.0
243.529221 104.0
243.675217 204.0
243.706284 228.0
243.774643 144.0
243.799515 152.0
243.843018 68.0
244.219223 168.0
244.331207 88.0
244.359207 136.0
244.545929 88.0
244.738937 60.0
244.91333 168.0
244.975632 108.0
245.041046 232.0
245.542923 108.0
245.89859 116.0
246.048492 160.0
246.073395 136.0
246.170197 80.0
246.373215 88.0
246.413834 152.0
246.498184 136.0
246.790131 160.0
246.870193 96.0
246.932739 160.0
247.052933 16804.0
247.223679 68.0
247.273758 44.0
247.32814 60.0
247.420883 116.0
247.517944 84.0
247.621277 92.0
247.893845 80.0
247.997253 144.0
248.053482 2796.0
248.157135 40.0
248.423706 124.0
248.524109 48.0
248.602554 52.0
248.765762 104.0
248.794022 176.0
249.04808 344.0
249.113022 172.0
249.152039 152.0
249.252579 56.0
249.340561 60.0
249.532318 72.0
249.570129 152.0
249.597427 164.0
249.642365 60.0
249.673813 72.0
249.71785 68.0
249.746155 32.0
249.947723 164.0
250.047562 80.0
250.053055 184.0
250.142624 68.0
250.215027 248.0
250.252808 96.0
250.274857 168.0
250.363022 40.0
250.419708 48.0
250.523666 244.0
250.659134 140.0
250.725311 48.0
250.857697 72.0
251.564316 196.0
251.670868 192.0
251.968552 136.0
252.183426 172.0
252.51857 88.0
252.749512 48.0
252.834946 176.0
252.914078 140.0
253.259201 32.0
253.287704 68.0
253.420761 192.0
253.453262 172.0
253.820145 92.0
253.985062 156.0
254.121475 172.0
254.172241 200.0
254.791367 160.0
254.978851 108.0
255.360367 56.0
255.490784 160.0
255.70285 136.0
255.863129 56.0
256.172028 152.0
256.216644 100.0
256.666046 52.0
257.214783 88.0
257.425507 112.0
257.457428 128.0
257.80246 216.0
258.304413 132.0
258.983002 40.0
259.091919 100.0
259.172028 84.0
259.204071 132.0
259.588715 200.0
259.669861 212.0
259.831329 220.0
260.031433 124.0
260.060333 120.0
260.093994 180.0
260.220825 120.0
260.330017 160.0
260.397675 56.0
260.635162 128.0
260.853729 140.0
260.98233 160.0
261.24118 132.0
261.324768 136.0
261.474487 124.0
261.880157 188.0
261.947815 164.0
262.03479 172.0
262.060577 172.0
262.118561 160.0
262.144348 128.0
262.22168 100.0
262.721497 184.0
262.755188 196.0
262.815033 56.0
262.911865 204.0
262.957367 200.0
263.08786 120.0
263.172546 168.0
263.216095 192.0
263.255432 160.0
263.301666 156.0
263.334778 136.0
263.368927 84.0
263.410461 176.0
263.436584 156.0
263.462524 352.0
263.502777 64.0
263.534851 176.0
263.589996 168.0
263.626282 212.0
263.674591 184.0
263.687744 148.0
263.783936 276.0
263.807861 224.0
263.8526 236.0
263.903381 164.0
263.942932 536.0
263.986603 140.0
264.02359 480.0
264.080933 139260.0
264.175964 232.0
264.206757 108.0
264.214508 192.0
264.238739 44.0
264.264282 64.0
264.329407 164.0
264.364807 208.0
264.39267 176.0
264.430573 204.0
264.454285 228.0
264.508759 200.0
264.556885 44.0
264.614441 764.0
264.661957 80.0
264.737152 44.0
264.762817 128.0
264.861053 96.0
264.885223 72.0
265.00351 104.0
265.082855 16152.0
265.169373 188.0
265.208618 84.0
265.235992 64.0
265.263275 44.0
265.289673 68.0
265.329468 96.0
265.374573 108.0
265.422119 100.0
265.462708 116.0
265.505798 136.0
265.533661 164.0
265.57486 40.0
265.598724 104.0
265.640381 164.0
265.684845 64.0
265.713074 124.0
265.737579 136.0
265.761719 52.0
265.806519 80.0
265.833954 200.0
265.842468 48.0
265.855713 112.0
265.924622 116.0
265.963135 188.0
266.075775 6064.0
266.158691 100.0
266.196625 252.0
266.256134 68.0
266.287567 108.0
266.352386 56.0
266.415283 40.0
266.440216 112.0
266.506256 84.0
266.537201 92.0
266.580994 88.0
266.604126 292.0
266.64743 72.0
266.670929 92.0
266.691498 180.0
266.740601 72.0
266.779114 88.0
266.835541 180.0
266.864044 168.0
266.890472 220.0
266.980225 116.0
267.005554 200.0
267.029022 88.0
267.085022 548.0
267.156952 84.0
267.187378 120.0
267.281342 92.0
267.315918 96.0
267.392456 100.0
267.419861 68.0
267.507935 100.0
267.563293 72.0
267.748871 64.0
267.784698 84.0
267.831848 144.0
267.90033 168.0
267.960602 64.0
268.022522 112.0
268.136566 44.0
268.160858 148.0
268.681122 44.0
268.792053 148.0
268.896484 76.0
268.919342 168.0
268.968292 108.0
269.027039 76.0
269.155365 80.0
269.516937 100.0
270.206818 84.0
270.324615 92.0
271.090912 48.0
271.146606 100.0
272.038788 116.0
272.37619 80.0
272.771332 100.0
272.994904 100.0
273.383087 44.0
273.494995 68.0
273.521301 216.0
274.374512 44.0
274.443756 72.0
275.275299 100.0
275.328125 116.0
275.959259 72.0
276.08493 92.0
276.250305 56.0
276.518311 60.0
276.584503 96.0
276.640778 48.0
276.77652 60.0
277.101135 80.0
277.127625 96.0
277.415955 52.0
278.062775 112.0
278.494385 72.0
278.657166 104.0
278.982849 112.0
279.070923 156.0
279.102539 144.0
279.517303 104.0
280.00769 104.0
280.240875 140.0
280.42749 72.0
280.460815 56.0
281.241333 36.0
281.655365 48.0
282.139923 100.0
283.180573 96.0
283.515625 80.0
284.354065 64.0
284.585663 136.0
284.844269 84.0
286.499359 156.0
286.816101 168.0
286.950958 100.0
287.548035 40.0
288.101807 100.0
288.774445 40.0
288.943604 108.0
289.090454 140.0
289.173706 176.0
289.400513 40.0
289.447906 100.0
289.68161 156.0
289.705322 64.0
289.847626 80.0
289.898438 144.0
289.952667 152.0
289.978149 208.0
290.058746 12796.0
290.200134 76.0
290.325592 120.0
290.367981 72.0
290.409332 132.0
290.423218 92.0
290.469482 56.0
290.498566 116.0
290.546051 136.0
290.724854 260.0
290.803955 84.0
290.861664 40.0
291.060455 1672.0
291.245361 40.0
291.309875 44.0
291.517151 88.0
291.636108 52.0
292.059937 684.0
292.132538 48.0
292.272034 56.0
292.302673 40.0
292.437653 60.0
292.639648 48.0
293.05838 140.0
293.119446 88.0
293.150574 44.0
293.32312 128.0
293.413025 32.0
293.696075 60.0
294.108948 64.0
294.259125 32.0
294.703156 148.0
294.86377 44.0
295.205627 96.0
297.899597 72.0
298.624878 104.0
300.2229 100.0
300.388428 108.0
300.488495 28.0
301.679962 56.0
303.098969 120.0
303.317322 68.0
303.403992 64.0
304.642883 64.0
308.235016 56.0
308.371307 124.0
308.885284 48.0
309.707855 96.0
309.879517 88.0
309.914551 132.0
312.512817 100.0
315.680389 88.0
316.830719 28.0
317.333984 56.0
323.776642 48.0
324.443115 44.0
327.663239 84.0
329.510437 56.0
329.785065 80.0
332.356293 84.0
332.809998 68.0
334.609741 188.0
336.118713 96.0
337.097321 76.0
337.174072 136.0
338.538635 60.0
339.539124 88.0
340.034424 36.0
341.761566 60.0
342.044952 88.0
342.129608 92.0
342.62677 48.0
344.611694 72.0
345.166138 116.0
345.365845 144.0
345.395416 60.0
345.4953 64.0
348.446381 36.0
349.182373 164.0
350.213348 92.0
351.115295 140.0
352.391937 60.0
355.293457 28.0
357.800171 100.0
358.391479 48.0
360.950684 60.0
361.930695 100.0
366.14209 116.0
369.803467 92.0
372.52594 56.0
373.837036 64.0
375.497467 72.0
375.786774 144.0
375.929535 84.0
377.030151 60.0
377.691284 60.0
378.097565 60.0
378.473053 56.0
379.449432 72.0
380.376587 124.0
380.469757 96.0
380.861969 108.0
382.927277 100.0
383.414276 88.0
384.217529 52.0
384.397003 48.0
384.818573 84.0
385.814819 100.0
386.63623 100.0
387.658356 80.0
388.085602 124.0
391.42157 80.0
394.008972 120.0
395.464172 48.0
396.006592 68.0
397.108429 108.0
397.290924 96.0
398.617035 80.0
405.30484 36.0
408.693726 80.0
409.015686 80.0
410.27655 76.0
410.764496 76.0
412.715149 64.0
418.615173 72.0
418.725128 40.0
421.629944 60.0
426.573059 92.0
426.86087 116.0
432.231598 108.0
437.348694 52.0
446.099579 52.0
446.255157 40.0
450.009186 64.0
451.796936 56.0
454.376984 64.0
454.97113 72.0
455.438263 96.0
459.516449 56.0
460.297577 28.0
461.913086 48.0
462.35379 52.0
465.161194 68.0
466.669128 124.0
468.476715 68.0
468.916199 104.0
471.635376 76.0
473.188416 40.0
475.646423 64.0
485.248352 44.0
488.251862 96.0
491.582306 40.0
493.181061 64.0
499.419647 64.0
499.717682 108.0
500.006927 72.0
500.732635 68.0
501.81546 44.0
503.36377 44.0
503.926575 116.0
505.28125 96.0
507.260651 92.0
507.960205 52.0
509.225983 88.0
510.848633 88.0
511.442627 108.0
513.411499 112.0
521.252136 72.0
522.479736 72.0
522.847839 80.0
523.116821 76.0
530.301941 92.0
540.775696 80.0
542.985657 96.0
544.814514 76.0
545.674316 44.0
548.225098 80.0
558.224365 76.0
559.282959 40.0
559.471252 96.0
561.879456 100.0
566.109863 44.0
567.3797 68.0
570.470215 48.0
573.688293 100.0
573.731201 44.0
573.84082 64.0
575.042908 68.0
579.308167 48.0
588.228516 72.0
594.573975 88.0
602.623291 76.0
604.060608 76.0
604.383484 68.0
604.877808 44.0
607.244385 32.0
608.726501 76.0
609.330627 52.0
611.331848 80.0
612.139221 80.0
612.29187 88.0
614.046387 96.0
618.09729 68.0
622.851746 88.0
623.552307 44.0
625.143738 100.0
625.41748 88.0
633.967896 56.0
635.015686 56.0
639.366516 60.0
643.944336 72.0
653.876526 120.0
666.281738 180.0
666.790466 64.0
672.29071 80.0
674.992371 72.0
676.565247 76.0
683.49939 128.0
690.427002 56.0
693.10199 40.0
693.290649 36.0
695.86615 104.0
696.328247 100.0
707.861877 56.0
709.196899 40.0
712.476318 100.0
713.108643 72.0
715.214966 80.0
715.518372 268.0
717.154541 244.0
717.9375 64.0
718.855042 80.0
724.603027 220.0
725.063843 164.0
726.74762 108.0
727.295044 220.0
744.171814 152.0
744.583496 116.0
750.122498 72.0
751.398621 32.0
754.429626 192.0
757.433838 96.0
758.239258 56.0
762.811462 204.0
764.312866 96.0
765.463318 52.0
775.61792 176.0
776.349792 48.0
776.499512 52.0
778.564087 64.0
784.645874 112.0
792.728333 40.0
793.378479 112.0
794.96582 56.0
806.96936 100.0
808.700378 56.0
810.132996 68.0
811.181335 172.0
811.311768 48.0
817.280945 132.0
825.203369 76.0
826.009705 180.0
836.15979 80.0
836.493652 124.0
849.449341 72.0
855.428894 184.0
864.955505 64.0
867.140198 36.0
872.950378 136.0
881.31665 164.0
883.587036 196.0
903.709106 40.0
909.912354 128.0
912.730286 192.0
913.548218 128.0
914.992554 188.0
924.91095 228.0
926.442993 84.0
927.460999 156.0
930.548828 84.0
932.000427 104.0
932.413696 144.0
934.767151 204.0
936.11853 52.0
938.958435 164.0
944.265808 136.0
947.485596 128.0
950.361023 196.0
955.27594 168.0
956.648254 184.0
958.298767 48.0
958.884216 64.0
959.512939 100.0
963.858154 72.0
968.429932 168.0
975.074829 112.0
980.651428 60.0
981.80481 192.0
990.968689 148.0
991.187988 88.0
992.736328 88.0
994.329834 196.0
994.5495 184.0
995.623108 96.0
996.565369 164.0
996.804138 132.0
998.960632 68.0
1000.647278 60.0
1001.623352 156.0
1002.385681 132.0
1004.163513 176.0
1005.841858 180.0
1011.125854 156.0
1014.349792 140.0
1017.940796 180.0
1019.605225 92.0
1021.442749 148.0
1022.308044 132.0
1028.388062 136.0
1030.271851 220.0
1034.306885 120.0
1035.702759 188.0
1038.760376 208.0
1039.780518 160.0
1040.473755 108.0
1042.028076 64.0
1043.40979 116.0
1045.127075 156.0
1045.834961 184.0
1048.08252 140.0
1049.088013 36.0
1051.513306 76.0
1053.850952 236.0
1057.323486 176.0
1058.870728 104.0
1059.350098 76.0
1060.516479 152.0
1062.980835 188.0
1069.401733 64.0
1070.000732 88.0
1073.532227 120.0
1075.0979 76.0
1080.625977 112.0
1082.63562 112.0
1084.627319 92.0
1085.696045 196.0
1086.299438 52.0
1087.355835 136.0
1095.035034 168.0
1095.977051 120.0
1096.372437 160.0
1097.394165 148.0
1097.77002 128.0
1099.227905 164.0
1100.832031 180.0
1101.380127 236.0
1103.210571 196.0
1104.923462 124.0
1105.413086 80.0
1108.717529 196.0
1109.466553 144.0
1113.853027 140.0
1116.192383 152.0
1118.813843 116.0
1120.172363 172.0
1120.338867 60.0
1123.078613 120.0
1124.399658 180.0
1127.445068 44.0
1127.859497 132.0
1128.454468 48.0
1128.534668 260.0
1130.046265 128.0
1130.695312 204.0
1131.773071 160.0
1134.312256 152.0
1134.459717 176.0
1134.553589 100.0
1135.344727 148.0
1136.0625 88.0
1139.687866 108.0
1140.140259 176.0
1140.31958 148.0
1144.032593 196.0
1145.076294 72.0
1145.251465 160.0
1146.834839 168.0
1148.136108 124.0
1149.235596 168.0
1149.822632 164.0
1151.442993 100.0
1152.260376 144.0
1152.591431 208.0
1158.660522 132.0
1159.128052 156.0
1159.683716 52.0
1162.057251 36.0
1163.889771 180.0
1164.575684 48.0
1164.888184 108.0
1167.307739 32.0
1170.28125 148.0
1172.26001 176.0
1173.988159 52.0
1174.063232 156.0
1174.718018 56.0
1175.181885 164.0
1176.895142 176.0
1179.925781 220.0
1183.370117 200.0
1186.384521 192.0
1188.442017 148.0
1190.240479 168.0
1190.769165 132.0
1192.789307 208.0
1193.538696 164.0
1194.281372 144.0
1196.001587 128.0
1198.129395 40.0
1199.10791 124.0
1201.638672 76.0
1202.867065 216.0
1205.996094 52.0
1208.437134 64.0
1210.811523 216.0
1211.358643 164.0
1214.623657 224.0
1214.815308 152.0
1214.970459 128.0
1215.830933 92.0
1217.68457 88.0
1219.539673 176.0
1219.755127 128.0
1220.631104 136.0
1222.474609 64.0
1224.012939 160.0
1224.444702 244.0
1227.817871 148.0
1229.631836 32.0
1230.462524 36.0
1231.188721 228.0
1232.599854 48.0
1232.80249 192.0
1234.235474 128.0
1236.397095 32.0
1239.275024 120.0
1239.499268 176.0
1240.361328 128.0
1245.820801 184.0
1246.980225 216.0
1248.02063 192.0
1249.19519 56.0
1250.630615 204.0
1251.25708 196.0
1251.355713 168.0
1251.440186 168.0
1252.144409 64.0
1253.708374 152.0
1258.716919 112.0
1260.666626 128.0
1261.606689 200.0
1263.721313 160.0
1264.591675 128.0
1266.680542 224.0
1268.827759 48.0
1269.097168 192.0
1269.9198 112.0
1270.700195 176.0
1271.551636 96.0
1272.197632 56.0
1274.491577 176.0
1275.671387 140.0
1277.588257 200.0
1279.733765 132.0
1280.096802 136.0
1282.397949 128.0
1283.709717 176.0
1283.916626 176.0
1284.066406 184.0
1285.643066 148.0
1287.13501 152.0
1287.684814 128.0
1288.070557 212.0
1289.456665 48.0
1289.524658 128.0
1289.878418 68.0
1291.260986 248.0
1291.809204 196.0
1291.887817 144.0
1292.631958 124.0
1292.882446 180.0
1294.364258 160.0
1296.721191 104.0
1297.208618 128.0
1297.62439 140.0
1298.463379 224.0
1298.592407 128.0
1298.986938 88.0
1299.417358 128.0
1301.419922 88.0
1303.007202 184.0
1303.632324 116.0
1303.697021 120.0
1304.178467 160.0
1305.594849 236.0
1305.940063 88.0
1306.2854 236.0
1306.652222 188.0
1308.912354 152.0
1309.200317 148.0
1310.071899 176.0
1310.777954 120.0
1311.642822 68.0
1313.900024 168.0
1313.957642 168.0
1314.881348 164.0
1315.27832 156.0
1315.415405 156.0
1315.747559 208.0
1316.570679 112.0
1316.917358 96.0
1317.134033 152.0
1317.220703 68.0
1317.314575 164.0
1318.232178 112.0
1319.779053 68.0
1320.328735 56.0
1320.502319 108.0
1322.383423 208.0
1322.919067 156.0
1323.831299 76.0
1324.410767 128.0
1324.555664 256.0
1325.214844 148.0
1325.439453 224.0
1325.946777 136.0
1326.707886 128.0
1327.287842 128.0
1328.027588 176.0
1328.694946 164.0
1330.255249 244.0
1332.702759 200.0
1333.422119 136.0
1334.628906 164.0
1335.327026 132.0
1335.574341 164.0
1335.763428 156.0
1336.039795 192.0
1336.127197 140.0
1336.294434 132.0
1336.374512 80.0
1337.451538 44.0
1338.900513 188.0
1339.55603 120.0
1339.745361 224.0
1340.146118 176.0
1340.503174 124.0
1340.787354 160.0
1344.236694 132.0
1344.463013 52.0
1345.952148 132.0
1347.394287 220.0
1350.900146 184.0
1351.521973 168.0
1351.858521 208.0
1353.190796 100.0
1353.586182 204.0
1353.952271 180.0
1354.794678 100.0
1356.142944 268.0
1356.502075 188.0
1357.308594 204.0
1358.130005 188.0
1359.091064 220.0
1361.006836 120.0
1361.83667 148.0
1362.33606 204.0
1362.622681 224.0
1362.747559 144.0
1363.034058 148.0
1363.129639 116.0
1363.820435 172.0
1365.298218 176.0
1365.37915 172.0
1366.754761 132.0
1367.397949 200.0
1367.542236 192.0
1367.704102 104.0
1368.447632 152.0
1368.779053 184.0
1369.036743 116.0
1369.787964 204.0
1370.45105 132.0
1370.650024 112.0
1371.386963 124.0
1373.126953 108.0
1373.262085 200.0
1373.326172 136.0
1373.997437 60.0
1375.93103 196.0
1378.907837 132.0
1380.186768 168.0
1380.800537 204.0
1382.879639 188.0
1382.946167 68.0
1383.005371 196.0
1383.116455 160.0
1383.24231 88.0
1384.671265 144.0
1384.760254 176.0
1389.05188 128.0
1389.10376 76.0
1389.697266 172.0
1390.053467 136.0
1390.498779 176.0
1392.33252 128.0
1392.71875 128.0
1393.208984 132.0
1396.643311 132.0
1397.201172 156.0
1397.543457 224.0
1397.722046 224.0
1400.70752 200.0
1400.759644 136.0
1401.459961 192.0
1401.713257 156.0
1402.562866 244.0
1402.987793 108.0
1403.077271 156.0
1403.610962 176.0
1403.972046 208.0
1404.289551 156.0
1404.673096 52.0
1404.740234 188.0
1406.650635 184.0
1408.375488 116.0
1408.883423 112.0
1409.705322 176.0
1410.52002 152.0
1410.647095 236.0
1411.626587 132.0
1411.835938 56.0
1412.591309 132.0
1412.965454 188.0
1413.541504 176.0
1413.713623 196.0
1414.484497 152.0
1415.384766 196.0
1415.704956 44.0
1415.787354 144.0
1416.394043 72.0
1416.75354 96.0
1416.93335 184.0
1417.840088 64.0
1418.679565 152.0
1418.784546 196.0
1419.076904 100.0
1419.384277 132.0
1419.534302 184.0
1419.856812 220.0
1419.954224 180.0
1420.276733 148.0
1420.764404 184.0
1421.154541 172.0
1422.032471 96.0
1422.187744 180.0
1423.075928 132.0
1423.32373 104.0
1424.277588 176.0
1424.690674 80.0
1425.071167 80.0
1425.75769 152.0
1427.291138 152.0
1427.434082 228.0
1427.667236 200.0
1427.825073 104.0
1428.825562 228.0
1429.006104 112.0
1429.864014 84.0
1430.744629 120.0
1430.90271 196.0
1431.723511 172.0
1432.499268 244.0
1433.969727 188.0
1435.167236 144.0
1435.815796 160.0
1440.926025 180.0
1441.371826 52.0
1444.138794 108.0
1444.902832 240.0
1445.674561 68.0
1446.098389 148.0
1447.006836 132.0
1447.355103 160.0
1447.733765 128.0
1447.998779 144.0
1448.210815 120.0
1448.597168 136.0
1450.461304 120.0
1451.052612 124.0
1451.21936 208.0
1451.446899 172.0
1451.621216 152.0
1451.674316 228.0
1452.167358 240.0
1452.418091 176.0
1453.191406 40.0
1453.510132 176.0
1453.646729 188.0
1453.813599 44.0
1454.04126 60.0
1455.954468 104.0
1457.131836 108.0
1457.428223 100.0
1457.5802 204.0
1457.694092 184.0
1457.754883 156.0
1458.438965 192.0
1458.522583 160.0
1458.781006 184.0
1459.17627 108.0
1459.290405 156.0
1459.366333 184.0
1459.518433 180.0
1460.050781 180.0
1460.598389 112.0
1460.81897 136.0
1461.587402 76.0
1461.709106 164.0
1462.417847 172.0
1462.690918 176.0
1463.193359 64.0
1464.983032 160.0
1465.836426 128.0
1466.042114 148.0
1467.063477 124.0
1467.703979 132.0
1468.352173 196.0
1469.267456 364.0
1469.641357 92.0
1470.26709 220.0
1471.129517 128.0
1472.114502 148.0
1472.516846 180.0
1473.023438 144.0
1473.550537 132.0
1474.834351 160.0
1475.698242 128.0
1476.202881 116.0
1476.271729 128.0
1476.921753 108.0
1477.441895 52.0
1478.712158 200.0
1478.788696 172.0
1478.895874 124.0
1479.431641 184.0
1480.388794 152.0
1481.078125 128.0
1481.530029 172.0
1482.134155 152.0
1482.411133 148.0
1482.771362 136.0
1483.284546 80.0
1483.453491 156.0
1483.813843 176.0
1484.396606 196.0
1484.780029 184.0
1485.439697 132.0
1485.493408 204.0
1485.777222 248.0
1486.452393 132.0
1487.127686 124.0
1487.979858 72.0
1488.981934 184.0
1489.584839 128.0
1489.654053 80.0
1489.799927 180.0
1490.337769 168.0
1490.675903 92.0
1490.744995 184.0
1491.029419 152.0
1491.91333 176.0
1492.290039 164.0
1492.735962 184.0
1493.616577 172.0
1494.612915 84.0
1494.964844 176.0
1495.143921 176.0
1495.413208 160.0
1495.728882 116.0
1495.890503 120.0
1496.452515 164.0
1496.598755 208.0
1496.706543 64.0
1496.806641 148.0
1496.899048 144.0
1497.561401 220.0
1497.992798 64.0
1498.824829 48.0
1498.884399 148.0
1499.017456 84.0
1499.739258 196.0
1499.973145 40.0
1500.165894 160.0
1500.219849 108.0
1500.93689 208.0
1501.839233 120.0
1502.664551 120.0
1502.764893 124.0
1503.320435 52.0
1503.505737 172.0
1503.97644 160.0
1505.312134 184.0
