>compound MLS001140987-01!4-[[[2-(3-benzyl-4-methyl-2-oxochromen-7-yl)oxyacetyl]amino]methyl]cyclohexane-1-carboxylic acid
>formula C27H29NO6
>ionization [M+H]+
>parentmass 464.207
#inchi InChI=1S/C27H29NO6/c1-17-22-12-11-21(14-24(22)34-27(32)23(17)13-18-5-3-2-4-6-18)33-16-25(29)28-15-19-7-9-20(10-8-19)26(30)31/h2-6,11-12,14,19-20H,7-10,13,15-16H2,1H3,(H,28,29)(H,30,31)/t19-,20-
#inchikey SKUGZRGAYUSNFO
#Ion_Source LC-ESI
#Instrument qTof
#Compound_Source NIH Natural Product Library
#PI Dorrestein
#Data_Collector VVP/LMS
#Scan -1
#Precursor_MZ 464.207
#ExactMass 463.199
#Charge 1
#CAS_Number N/A
#Pubmed_ID N/A
#Smiles Cc1c(Cc2ccccc2)c(=O)oc3cc(OCC(=O)NC[C@H]4CC[C@@H](CC4)C(=O)O)ccc13
#INCHI_AUX N/A
#Library_Class 1
#SpectrumID CCMSLIB00000079580
#IonMode Positive
#UpdateWorkflowName UPDATE-SINGLE-ANNOTATED-GOLD
#LibraryQualityString Gold
#TaskID b1d8e8f6646f4e71acdff9ca3d919d08
##Scan# 1928
#SpectrumFile p1-D08_GD8_01_17916.mzXML
#LibraryName NIH_Natural_Products_Library.mgf
#MQScore -1
#Organism NIH_Natural_Products_Library
#TIC_Query 0
#RT_Query -1
#MZErrorPPM -1
#SharedPeaks 0
#MassDiff 0
#LibMZ -1
#SpecMZ 464.207
#SpecCharge 0
#internalFilename spec-00000.mgf

>collision 10
95.005836 124.0
95.04464 188.0
95.062103 180.0
95.086891 4080.0
95.122269 148.0
95.333969 96.0
95.34951 132.0
95.373444 64.0
95.595505 176.0
95.70549 184.0
95.742493 148.0
95.904198 172.0
95.956825 140.0
95.978271 204.0
96.025078 216.0
96.04541 428.0
96.089745 872.0
96.169456 180.0
96.390129 136.0
96.452667 176.0
96.552376 76.0
96.677582 168.0
96.718681 84.0
96.902756 144.0
97.059555 56.0
97.092896 192.0
97.179199 200.0
97.383354 128.0
97.459969 120.0
97.70179 212.0
97.750977 160.0
97.833641 140.0
97.857262 156.0
98.012863 120.0
98.064102 208.0
98.133095 260.0
98.403389 120.0
98.557442 100.0
98.784798 204.0
98.867897 144.0
98.991066 128.0
99.194695 152.0
99.488281 164.0
99.537918 176.0
99.665039 128.0
99.694847 220.0
100.106621 132.0
100.176331 216.0
100.190277 104.0
100.383606 152.0
100.453415 176.0
100.754852 228.0
100.912735 132.0
101.186829 152.0
101.347054 36.0
101.6418 164.0
101.675911 172.0
101.712036 208.0
101.780296 112.0
102.021385 196.0
102.071648 140.0
102.470169 104.0
102.51651 80.0
102.681824 48.0
102.794792 188.0
102.821022 80.0
102.837173 72.0
102.866516 116.0
102.966385 196.0
103.05526 136.0
103.121948 176.0
103.162376 136.0
103.176521 188.0
103.457718 132.0
103.779846 128.0
103.828514 124.0
103.87719 136.0
104.035469 156.0
104.419502 192.0
104.679985 172.0
104.698311 72.0
104.722748 68.0
104.946907 72.0
105.03437 304.0
105.068047 444.0
105.240715 72.0
105.397987 84.0
105.64946 80.0
105.776329 196.0
106.060524 156.0
106.311256 60.0
106.650124 108.0
106.685066 200.0
106.780914 176.0
106.841354 172.0
107.049812 200.0
107.085037 612.0
107.104843 152.0
107.119263 188.0
107.37484 156.0
107.529572 40.0
107.626595 116.0
107.655502 140.0
107.832825 120.0
107.942734 68.0
108.081627 744.0
108.164101 384.0
108.209641 120.0
108.24691 236.0
108.385689 164.0
108.483101 132.0
109.001961 128.0
109.03228 344.0
109.06234 220.0
109.082176 236.0
109.101845 68.0
109.290977 156.0
109.41169 124.0
109.74295 120.0
110.004387 176.0
110.022514 184.0
110.063522 164.0
110.096481 2168.0
110.164513 60.0
110.216743 68.0
110.243912 144.0
110.346329 96.0
110.365143 120.0
110.400696 200.0
110.44252 152.0
110.461349 44.0
110.511124 232.0
110.579521 144.0
110.706802 216.0
110.750198 76.0
110.784248 216.0
111.073807 288.0
111.100899 664.0
111.287041 180.0
111.35424 108.0
111.45507 152.0
111.476082 52.0
111.534927 224.0
111.608513 128.0
111.93676 76.0
112.042984 176.0
112.088417 164.0
112.112305 684.0
112.204338 52.0
112.565132 176.0
112.823952 232.0
112.915604 204.0
112.941315 132.0
113.241859 188.0
113.305405 164.0
113.332947 40.0
113.489792 180.0
113.689186 180.0
113.705437 176.0
113.931236 52.0
114.06086 168.0
114.203316 152.0
114.271385 92.0
114.316071 104.0
114.499146 212.0
114.739929 156.0
114.788963 124.0
114.959618 160.0
115.054962 388.0
115.100075 160.0
115.198074 204.0
115.314125 188.0
115.335495 92.0
115.363289 68.0
115.416733 132.0
116.061577 168.0
116.38092 132.0
116.542007 256.0
116.995796 28.0
117.068451 156.0
117.133614 160.0
117.153 100.0
117.262894 180.0
117.441841 116.0
117.463409 184.0
117.590714 152.0
117.687851 152.0
117.739677 36.0
117.916832 120.0
117.962219 136.0
118.067116 232.0
118.113579 28.0
118.441071 200.0
118.735184 120.0
118.77639 96.0
119.021622 92.0
119.056984 184.0
119.097633 192.0
119.16497 164.0
119.377983 192.0
119.652138 164.0
119.745766 136.0
119.86969 208.0
120.489586 208.0
120.603218 176.0
120.710335 104.0
121.012283 156.0
121.03418 268.0
121.540504 216.0
121.696342 56.0
121.711708 108.0
121.786057 136.0
121.819328 232.0
121.874245 160.0
121.902817 148.0
121.959953 276.0
122.074272 216.0
122.092262 156.0
122.113953 188.0
122.182045 192.0
122.309677 240.0
122.536499 140.0
122.68856 152.0
122.88752 148.0
122.970901 328.0
123.043564 148.0
123.082924 264.0
123.158569 60.0
123.31765 148.0
123.538765 88.0
123.89296 72.0
124.034775 224.0
124.056946 136.0
124.113075 1608.0
124.139076 180.0
124.272064 64.0
124.300911 152.0
124.40744 224.0
124.509575 92.0
124.629532 128.0
124.665085 208.0
124.994186 196.0
125.045364 96.0
125.114258 164.0
125.187843 228.0
125.350456 124.0
125.508713 192.0
125.729553 80.0
125.745178 144.0
125.799187 220.0
126.288086 180.0
126.310455 212.0
126.500656 172.0
126.529755 172.0
126.778793 108.0
126.888206 132.0
127.055061 140.0
127.078842 188.0
127.319023 132.0
127.644859 96.0
128.064423 140.0
128.266647 192.0
128.424057 108.0
128.977234 252.0
129.068329 988.0
129.307449 172.0
129.445541 152.0
129.465927 164.0
129.508957 76.0
129.903366 160.0
130.116669 244.0
130.664383 136.0
130.782715 48.0
131.043839 192.0
131.188171 88.0
131.363754 136.0
131.564575 176.0
131.712997 164.0
132.039825 164.0
132.077271 156.0
132.126755 64.0
132.150833 152.0
132.174789 124.0
132.451813 104.0
132.520294 176.0
132.626373 108.0
132.786438 44.0
133.06459 500.0
133.08934 180.0
133.30423 188.0
133.33284 176.0
133.404083 104.0
133.453812 108.0
133.523651 152.0
133.647873 208.0
133.680084 152.0
133.733017 180.0
133.756027 212.0
134.032394 156.0
134.07399 152.0
134.098175 480.0
134.147629 148.0
134.327484 120.0
134.835434 124.0
134.951019 188.0
135.04126 144.0
135.081848 368.0
135.100647 228.0
135.383713 152.0
135.406876 216.0
135.485626 192.0
135.664062 204.0
135.708115 164.0
136.051468 160.0
136.095581 92.0
136.116486 124.0
136.295334 148.0
136.46814 240.0
136.548721 152.0
136.888489 176.0
137.077164 116.0
137.485245 80.0
138.064606 144.0
138.090942 520.0
138.151154 64.0
138.53038 92.0
138.717834 156.0
138.764725 216.0
138.822449 208.0
138.928894 224.0
139.003967 116.0
139.081787 204.0
139.367615 156.0
139.647659 152.0
139.746323 148.0
139.807632 152.0
140.107422 1536.0
140.210327 132.0
140.276337 328.0
140.455536 152.0
140.707687 164.0
140.814285 208.0
140.965485 228.0
140.986755 92.0
141.071915 268.0
141.091095 368.0
141.192566 68.0
141.239731 132.0
141.322525 104.0
141.376953 76.0
141.433746 144.0
141.514236 144.0
142.078873 352.0
142.239655 192.0
142.348862 156.0
142.443863 68.0
142.481873 176.0
142.517502 64.0
142.612564 228.0
142.636322 116.0
142.662476 180.0
142.73143 32.0
142.888397 132.0
142.955017 48.0
143.043076 152.0
143.088318 240.0
143.119263 136.0
143.336014 64.0
143.541016 80.0
144.056519 100.0
144.15448 120.0
144.441376 172.0
144.470078 148.0
144.510742 52.0
144.635193 180.0
144.709396 144.0
144.771652 180.0
145.004028 148.0
145.065842 604.0
145.227005 148.0
145.397095 196.0
145.60141 172.0
145.639832 32.0
145.834442 128.0
145.896942 204.0
146.060471 164.0
146.248138 140.0
146.782959 164.0
147.002457 248.0
147.048309 188.0
147.959595 108.0
148.060547 144.0
148.170288 188.0
148.240555 104.0
148.371445 168.0
148.698898 164.0
148.978134 100.0
149.019424 128.0
149.206573 196.0
149.342743 196.0
149.573425 168.0
149.763031 236.0
149.837387 284.0
150.073288 192.0
150.312332 176.0
150.348938 200.0
150.431915 76.0
150.678497 144.0
150.988998 172.0
151.042801 168.0
151.319336 148.0
151.613266 240.0
151.637772 112.0
151.826538 156.0
152.065964 204.0
152.105804 4196.0
152.201981 72.0
152.403397 44.0
152.484482 228.0
152.560684 148.0
152.742645 64.0
152.796768 80.0
152.828751 100.0
152.85582 124.0
152.998566 176.0
153.032043 140.0
153.066925 120.0
153.112793 1464.0
153.151764 152.0
153.190643 184.0
153.372986 164.0
153.47406 168.0
153.62204 148.0
153.646713 104.0
153.814514 148.0
153.86882 48.0
153.970062 132.0
154.021927 204.0
154.061447 220.0
154.087265 176.0
154.125 596.0
154.16275 144.0
154.217117 216.0
154.281738 84.0
154.406219 180.0
154.513855 196.0
154.530869 164.0
154.657364 108.0
154.696976 128.0
154.793533 156.0
155.051468 140.0
155.080902 168.0
156.046539 196.0
156.102112 272.0
156.240524 200.0
156.27037 80.0
156.302719 108.0
156.61142 120.0
156.915436 172.0
156.978149 204.0
157.056976 184.0
157.109955 124.0
157.287125 176.0
157.904251 160.0
158.069366 160.0
158.139435 216.0
158.364761 196.0
158.392319 164.0
158.527603 172.0
158.680511 148.0
158.943863 152.0
159.089752 124.0
159.373215 128.0
159.541611 132.0
159.715103 228.0
159.795609 176.0
160.060623 244.0
160.132919 116.0
160.551163 184.0
160.707657 44.0
160.841415 112.0
160.942383 152.0
161.010101 216.0
161.058395 1124.0
161.154556 204.0
161.505936 224.0
161.533752 204.0
161.804535 244.0
162.063492 184.0
162.197647 128.0
162.221817 156.0
162.425385 80.0
162.491333 188.0
162.828934 136.0
163.037033 188.0
163.061401 120.0
163.105881 164.0
163.156723 176.0
163.395767 240.0
163.428848 104.0
163.596817 216.0
163.68338 136.0
163.790344 100.0
163.968689 168.0
164.040054 196.0
164.223648 76.0
164.304581 208.0
164.511978 84.0
164.763519 124.0
164.826111 152.0
164.869553 152.0
164.941116 152.0
165.015259 200.0
165.06546 500.0
165.128876 156.0
165.155899 60.0
165.240311 180.0
165.406647 144.0
166.044632 176.0
166.072449 156.0
166.439819 64.0
166.588776 212.0
166.928024 176.0
167.091034 176.0
167.342285 200.0
167.429825 160.0
167.496796 208.0
167.602417 124.0
167.653961 128.0
167.739014 136.0
167.787994 396.0
167.839554 296.0
168.102661 160.0
168.391785 152.0
168.575211 148.0
168.601059 196.0
168.771652 148.0
168.802689 136.0
168.863708 208.0
168.983749 116.0
169.057022 112.0
169.07431 196.0
169.098618 180.0
169.3591 176.0
169.428207 164.0
169.544449 132.0
169.607834 164.0
169.636353 204.0
169.688202 128.0
170.004639 104.0
170.118393 2388.0
170.184174 48.0
170.667007 68.0
170.709122 104.0
170.905289 212.0
171.017151 128.0
171.046829 224.0
171.081177 216.0
171.121033 88.0
171.197845 204.0
171.760788 192.0
171.854706 108.0
171.951248 164.0
172.04866 164.0
172.066101 108.0
172.178375 120.0
172.389984 192.0
172.575562 152.0
172.756012 88.0
173.062363 720.0
173.827591 44.0
174.061203 100.0
174.111099 48.0
174.239807 200.0
174.386963 200.0
174.523651 192.0
174.570984 172.0
174.836685 184.0
174.902481 188.0
174.920898 160.0
175.0383 168.0
175.097305 124.0
175.323868 72.0
175.616516 96.0
175.67981 152.0
175.803818 96.0
176.01889 152.0
176.044052 136.0
176.06517 164.0
176.170822 240.0
176.242157 140.0
176.773636 128.0
176.908615 224.0
176.945679 188.0
177.061111 212.0
177.138992 76.0
177.287369 200.0
177.766083 144.0
177.777679 76.0
177.781784 136.0
177.801834 120.0
178.078705 3368.0
178.131073 284.0
178.168259 196.0
178.297318 112.0
178.500488 136.0
178.519104 168.0
178.540375 156.0
178.633469 28.0
178.652084 36.0
178.939499 104.0
179.054001 52.0
179.081696 224.0
179.304428 116.0
179.389725 116.0
179.413712 56.0
179.57637 84.0
179.699081 84.0
179.757767 232.0
179.952621 196.0
180.003357 112.0
180.03006 36.0
180.10144 1212.0
180.136154 44.0
180.198334 120.0
180.481644 228.0
180.810669 112.0
180.832077 100.0
180.866867 148.0
181.070358 220.0
181.103348 980.0
181.281982 144.0
181.547379 120.0
181.995483 148.0
182.102905 128.0
182.204971 84.0
182.538254 76.0
182.788422 132.0
182.952591 228.0
183.052216 148.0
183.081833 316.0
183.491394 144.0
183.655884 144.0
183.699051 116.0
183.949997 196.0
184.090393 136.0
184.544342 132.0
184.912216 148.0
185.077347 116.0
185.142334 200.0
185.266937 168.0
185.369705 116.0
185.505402 112.0
185.681641 80.0
185.950226 116.0
186.023514 188.0
186.142975 144.0
186.449936 232.0
186.517883 156.0
186.732681 104.0
186.893173 152.0
187.103165 128.0
187.121796 224.0
187.157196 136.0
187.304245 108.0
187.336929 84.0
187.405045 212.0
187.497696 84.0
187.628525 52.0
187.721222 180.0
187.804077 216.0
188.013123 136.0
188.048752 508.0
188.138672 100.0
188.206924 128.0
188.234238 132.0
188.323334 96.0
188.447021 184.0
188.470459 108.0
188.649506 200.0
188.687943 144.0
188.720596 96.0
188.816299 176.0
188.838181 172.0
188.879211 160.0
188.920242 188.0
188.943359 124.0
188.969955 164.0
188.99115 152.0
188.998169 296.0
189.055298 46060.0
189.135498 72.0
189.177475 56.0
189.20726 168.0
189.225983 108.0
189.295898 156.0
189.360733 56.0
189.421997 160.0
189.449432 76.0
189.506973 60.0
189.525284 64.0
189.544464 44.0
189.701202 104.0
189.750031 48.0
189.802124 28.0
189.884384 132.0
189.90358 44.0
189.936493 72.0
189.974899 76.0
190.058624 6416.0
190.13678 176.0
190.182663 56.0
190.208145 96.0
190.254807 56.0
190.317963 48.0
190.348923 144.0
190.370132 128.0
190.412491 112.0
190.444275 72.0
190.48642 128.0
190.526688 60.0
190.578888 84.0
190.649414 72.0
190.673416 80.0
190.713547 176.0
190.842743 76.0
190.933487 148.0
190.960983 56.0
190.985733 60.0
191.058884 428.0
191.087692 396.0
191.211349 140.0
191.263641 180.0
191.35173 100.0
191.377075 216.0
191.45993 68.0
191.538071 132.0
191.651932 88.0
191.719009 100.0
191.877945 48.0
192.093781 756.0
192.231476 112.0
192.293365 160.0
192.689331 40.0
192.979523 80.0
193.101807 1756.0
193.197998 60.0
193.247803 176.0
193.352951 84.0
193.49411 148.0
193.513504 92.0
193.638107 60.0
193.75444 308.0
193.829254 100.0
193.940094 52.0
194.065765 312.0
194.103287 472.0
194.156357 168.0
194.25 64.0
194.344971 104.0
194.422668 168.0
194.650299 68.0
194.7836 200.0
194.964203 176.0
195.090057 368.0
195.121201 464.0
195.339539 204.0
195.378494 220.0
195.757019 176.0
195.832214 84.0
195.951996 60.0
196.085831 128.0
196.158203 176.0
196.255783 48.0
196.353378 44.0
196.746811 176.0
197.089005 120.0
197.188141 128.0
197.319519 68.0
197.572708 152.0
197.669144 204.0
198.069489 56.0
198.112335 2096.0
198.33287 44.0
198.444992 48.0
198.840515 132.0
199.051056 104.0
199.112961 340.0
199.159348 328.0
199.278564 88.0
199.523071 80.0
199.632736 60.0
200.114136 136.0
200.43988 124.0
200.536423 52.0
200.702744 104.0
200.970688 104.0
201.018661 256.0
201.055557 2160.0
201.090256 108.0
201.137192 28.0
201.247299 56.0
201.408264 84.0
201.464752 128.0
201.546692 184.0
201.753006 164.0
202.01033 128.0
202.058472 300.0
202.115021 120.0
202.18576 172.0
202.256516 44.0
202.533997 140.0
202.780487 72.0
202.950577 192.0
203.001617 184.0
203.0784 276.0
203.166122 96.0
203.220016 76.0
203.619354 204.0
203.688431 128.0
204.090775 244.0
204.330276 92.0
204.757858 32.0
204.91301 68.0
205.042755 140.0
205.062515 128.0
205.104401 348.0
205.344955 224.0
205.650223 148.0
205.761551 104.0
205.884338 132.0
205.990005 128.0
206.069962 168.0
206.099777 132.0
206.247177 100.0
206.29863 92.0
206.438721 72.0
206.956635 36.0
207.081085 356.0
207.116302 316.0
207.32901 140.0
207.443665 144.0
208.076797 352.0
208.120712 140.0
208.655106 100.0
208.888046 72.0
209.103104 396.0
209.164276 220.0
209.259277 116.0
209.31398 132.0
209.406128 112.0
209.821075 92.0
210.005615 184.0
210.325882 192.0
210.348984 60.0
210.65506 168.0
211.07991 140.0
211.112137 168.0
211.311295 184.0
211.343124 388.0
212.122162 100.0
213.012985 56.0
213.051727 288.0
213.220215 160.0
213.53035 104.0
213.62883 120.0
213.896957 172.0
214.202698 196.0
214.2901 100.0
214.736084 76.0
215.15918 176.0
215.188385 152.0
215.240936 184.0
215.40741 140.0
216.032791 140.0
216.060913 256.0
216.182175 136.0
216.712158 140.0
216.759048 132.0
217.10202 128.0
217.627258 212.0
217.938583 156.0
217.985596 168.0
218.075287 168.0
218.114914 116.0
218.629608 100.0
219.056519 184.0
219.628357 160.0
220.017868 52.0
220.07692 164.0
220.09758 148.0
220.192078 216.0
220.52388 196.0
220.919189 176.0
220.948776 152.0
221.095322 6288.0
221.262482 52.0
221.404602 112.0
221.603073 52.0
221.63269 56.0
221.715668 216.0
221.749649 248.0
221.95578 132.0
222.048935 116.0
222.067322 124.0
222.098404 1560.0
222.157455 48.0
222.222717 48.0
222.282059 152.0
222.864029 72.0
222.905624 152.0
223.018555 144.0
223.075256 712.0
223.112457 1284.0
223.143875 204.0
223.170166 164.0
223.449738 184.0
223.476517 68.0
223.547928 52.0
223.598511 108.0
223.675903 148.0
223.723526 112.0
223.783066 104.0
223.902176 72.0
224.076233 152.0
224.118317 388.0
224.990509 96.0
225.020355 128.0
225.090958 288.0
225.145767 68.0
225.235367 48.0
225.29213 144.0
225.429489 204.0
225.587967 96.0
225.632812 68.0
225.821182 76.0
225.845123 232.0
225.925888 152.0
225.977264 180.0
226.090439 124.0
226.830231 76.0
227.09108 148.0
227.709335 104.0
227.772415 176.0
227.955673 172.0
227.991745 152.0
228.065063 292.0
228.096939 136.0
228.247253 144.0
228.719574 168.0
228.812897 200.0
228.927307 220.0
229.049332 8812.0
229.117065 28.0
229.16777 48.0
229.249634 60.0
229.277237 76.0
229.394302 64.0
229.451584 120.0
229.535995 144.0
229.629486 52.0
229.755157 136.0
229.87384 160.0
230.052078 1300.0
230.090744 88.0
230.12738 60.0
230.151077 136.0
230.26593 172.0
230.308578 76.0
230.387115 96.0
230.474731 72.0
230.562363 56.0
230.662094 100.0
230.773941 32.0
230.864655 60.0
231.06459 524.0
231.094543 152.0
231.264008 64.0
231.391144 44.0
231.412338 120.0
231.43959 104.0
231.466843 176.0
231.503174 104.0
231.806091 156.0
231.851547 168.0
232.006134 56.0
232.03038 96.0
232.069794 124.0
232.370056 56.0
232.415573 52.0
232.527847 180.0
232.811981 188.0
232.861801 156.0
232.928635 164.0
233.10054 264.0
233.372314 88.0
233.591278 152.0
233.785995 180.0
234.067764 208.0
234.102234 272.0
234.184814 68.0
234.474243 92.0
234.571777 124.0
234.599213 176.0
234.712021 200.0
234.834 156.0
234.959061 184.0
235.017029 196.0
235.074066 52.0
235.111282 200.0
235.206238 88.0
235.755981 64.0
235.832382 148.0
235.911865 232.0
236.077271 428.0
236.275772 180.0
236.333908 156.0
236.627716 248.0
236.716522 160.0
237.091904 384.0
237.71582 108.0
238.100998 464.0
238.259277 220.0
238.625 132.0
238.787964 160.0
239.068573 152.0
239.102646 564.0
239.458893 204.0
239.677612 124.0
240.13385 156.0
240.30043 92.0
241.38147 232.0
241.551559 156.0
241.62381 180.0
241.98172 120.0
242.238327 148.0
242.47113 128.0
243.097565 232.0
243.401764 156.0
243.442123 172.0
244.520874 176.0
244.73877 120.0
244.84465 76.0
245.090729 128.0
245.243439 144.0
245.271484 216.0
245.340057 160.0
245.439835 120.0
245.534897 140.0
245.642548 120.0
245.740143 140.0
245.895203 176.0
246.015717 116.0
246.075912 21052.0
246.192963 56.0
246.35524 116.0
246.419876 52.0
246.46048 144.0
246.645462 152.0
246.727982 68.0
246.757401 84.0
246.819931 196.0
246.866837 48.0
246.988815 220.0
247.079025 2660.0
247.123337 92.0
247.217194 56.0
247.34552 44.0
247.458221 52.0
247.884186 140.0
248.087234 524.0
248.194504 160.0
248.291718 192.0
248.341904 100.0
248.36676 108.0
248.398361 36.0
248.432861 120.0
248.454819 48.0
248.555222 152.0
248.602295 136.0
248.709 92.0
248.82515 132.0
248.953873 180.0
249.091171 3128.0
249.136047 208.0
249.173752 144.0
249.20517 28.0
249.271149 192.0
249.346573 172.0
249.431427 124.0
249.720703 108.0
249.843369 108.0
249.950348 132.0
250.054184 160.0
250.094757 1188.0
250.271393 48.0
250.6147 152.0
250.698807 128.0
251.011856 268.0
251.070053 628.0
251.104965 5420.0
251.287323 180.0
251.336121 80.0
251.358841 84.0
251.835526 148.0
251.908173 48.0
252.070404 332.0
252.1091 692.0
252.230484 60.0
252.372742 100.0
252.454956 168.0
252.881485 208.0
253.083817 168.0
253.11235 412.0
253.24614 236.0
253.315826 44.0
253.531281 144.0
253.86731 44.0
253.905365 132.0
253.933899 168.0
254.092499 164.0
254.175003 96.0
254.222595 92.0
254.255844 140.0
254.48288 188.0
254.727402 56.0
254.759171 104.0
255.121445 120.0
255.462143 124.0
256.069641 92.0
257.06427 132.0
258.082336 188.0
258.249512 80.0
258.607849 100.0
258.649475 240.0
259.008087 64.0
259.065735 120.0
259.809479 60.0
259.957062 148.0
260.07901 112.0
260.332642 224.0
260.355133 96.0
260.451477 48.0
260.849915 140.0
261.087372 244.0
261.480316 104.0
261.625153 56.0
261.927856 188.0
262.083679 372.0
262.572479 60.0
262.669739 196.0
262.891846 140.0
263.06546 172.0
263.095184 96.0
263.321198 172.0
263.566711 124.0
263.712128 164.0
263.880219 88.0
264.073334 200.0
264.154785 124.0
264.229523 152.0
265.083801 1384.0
265.131897 216.0
265.200958 44.0
265.615997 100.0
265.739258 184.0
265.791168 132.0
266.042847 124.0
266.093597 1764.0
266.341797 112.0
266.378784 84.0
266.615967 68.0
266.81424 140.0
266.915039 44.0
267.100952 9880.0
267.221497 180.0
267.243195 140.0
267.292358 52.0
267.422516 48.0
267.63739 180.0
267.679718 176.0
267.748108 76.0
268.015198 64.0
268.102722 2132.0
268.174896 108.0
268.257538 108.0
268.474823 52.0
268.631378 72.0
268.80011 84.0
268.885864 96.0
269.110474 388.0
269.303772 60.0
269.744873 120.0
269.774292 112.0
269.816803 92.0
270.006439 64.0
270.176544 76.0
270.795197 108.0
271.145721 60.0
271.516205 128.0
272.089172 180.0
272.12323 172.0
273.14856 180.0
273.191315 188.0
273.806824 156.0
274.090118 204.0
274.159302 112.0
274.20874 236.0
274.917786 128.0
276.497437 72.0
276.692719 84.0
277.087189 340.0
277.265747 76.0
277.600586 112.0
277.884796 144.0
278.008606 104.0
278.091125 148.0
278.095947 128.0
278.109833 176.0
278.14798 136.0
278.236481 196.0
278.3638 136.0
278.493317 132.0
278.729614 120.0
278.763245 160.0
278.812256 172.0
278.88205 156.0
278.968475 140.0
279.031677 180.0
279.10141 20668.0
279.169006 96.0
279.222687 64.0
279.25293 80.0
279.285187 284.0
279.352295 84.0
279.381927 108.0
279.417419 88.0
279.502655 64.0
279.64856 60.0
279.713593 76.0
279.775787 64.0
279.896698 68.0
279.927338 256.0
279.986603 52.0
280.056519 160.0
280.10434 4832.0
280.175171 152.0
280.186951 180.0
280.22641 68.0
280.30307 48.0
280.373047 88.0
280.429535 88.0
280.509674 32.0
280.536346 164.0
280.582458 48.0
280.710693 60.0
280.806427 88.0
280.836456 56.0
280.893158 96.0
280.9758 108.0
281.08139 2092.0
281.156006 92.0
281.286896 44.0
281.418854 68.0
281.497223 108.0
281.610779 44.0
281.644165 128.0
281.672302 76.0
281.815277 140.0
281.928162 48.0
282.038452 96.0
282.084656 668.0
282.123444 164.0
282.412933 104.0
282.526642 80.0
282.982056 52.0
283.094421 272.0
283.125793 132.0
283.207855 120.0
283.504333 76.0
283.678619 44.0
283.728912 52.0
283.75238 104.0
284.369568 88.0
284.490417 48.0
285.521942 76.0
286.218506 168.0
286.740631 132.0
287.071014 96.0
287.327362 144.0
287.9552 160.0
288.320068 48.0
288.817047 72.0
289.055298 132.0
290.09021 120.0
291.094482 164.0
291.355988 136.0
291.447723 92.0
292.995758 136.0
293.026428 148.0
293.08432 152.0
293.121826 300.0
293.230865 108.0
293.295624 148.0
293.541077 120.0
294.117645 108.0
295.142517 156.0
295.238251 120.0
295.399017 72.0
296.004791 56.0
296.039032 164.0
296.141754 120.0
296.570038 208.0
297.113678 296.0
297.523651 152.0
297.774292 160.0
297.942627 36.0
298.086029 124.0
298.11441 320.0
298.231262 148.0
298.695435 28.0
300.107391 216.0
300.378571 104.0
300.403992 152.0
300.445374 236.0
300.56958 92.0
300.600647 52.0
300.862946 180.0
301.840698 64.0
302.214264 108.0
302.59845 44.0
302.982849 120.0
303.655304 56.0
304.092438 172.0
304.985077 88.0
305.04068 196.0
305.534485 136.0
306.104675 256.0
306.303802 116.0
306.477997 156.0
306.997742 108.0
307.028748 148.0
307.094818 6352.0
307.203125 84.0
307.226196 56.0
307.283386 184.0
307.342682 68.0
307.412476 216.0
307.524139 68.0
307.751068 68.0
307.78598 60.0
307.943115 136.0
308.023438 68.0
308.047913 132.0
308.101898 828.0
308.184143 64.0
308.254028 92.0
308.288971 84.0
308.446259 80.0
308.470703 32.0
308.565094 84.0
308.914825 36.0
309.100433 132.0
309.26123 108.0
309.77243 56.0
309.982635 40.0
310.108795 72.0
310.192932 68.0
311.125671 192.0
312.132324 172.0
312.155487 260.0
312.964783 136.0
313.426178 112.0
313.972565 132.0
314.28299 168.0
316.902924 168.0
317.377869 160.0
317.711243 168.0
317.760895 160.0
318.240051 60.0
318.598755 128.0
319.099823 160.0
320.131714 180.0
320.76944 156.0
320.844299 104.0
321.736145 64.0
322.061096 152.0
322.111115 100.0
322.203979 192.0
322.304718 84.0
322.564911 100.0
322.968964 80.0
323.040497 88.0
323.631012 176.0
323.734833 80.0
323.987549 208.0
324.050049 112.0
324.122437 18216.0
324.309082 84.0
324.394073 136.0
324.447845 60.0
324.51239 84.0
324.720367 48.0
324.897308 108.0
324.98941 156.0
325.029816 180.0
325.127319 5088.0
325.215485 144.0
325.384186 72.0
325.430878 80.0
325.499084 68.0
325.634491 120.0
325.682251 116.0
325.715057 88.0
325.775635 88.0
325.815338 72.0
325.919342 36.0
325.991211 52.0
326.052307 32.0
326.129242 424.0
326.246399 72.0
326.329071 36.0
326.3974 100.0
326.609589 112.0
326.688721 80.0
326.872192 128.0
326.922577 92.0
327.005341 148.0
327.132477 156.0
327.214142 44.0
327.27533 108.0
327.379761 36.0
328.363586 76.0
328.439331 116.0
328.865082 108.0
329.081696 44.0
329.468109 168.0
329.916229 76.0
329.952362 76.0
330.172943 104.0
330.397186 40.0
330.59259 40.0
331.269623 156.0
331.461639 156.0
331.624725 124.0
332.117828 168.0
332.647583 144.0
333.174133 168.0
333.592041 100.0
333.632019 56.0
335.01123 96.0
335.0513 180.0
335.171539 140.0
335.302734 140.0
335.481323 156.0
335.944458 48.0
336.013763 80.0
336.057556 112.0
336.122498 780.0
336.919159 52.0
337.049896 92.0
337.127441 528.0
337.563019 196.0
337.741608 56.0
338.129181 236.0
338.979034 44.0
339.66095 132.0
339.723297 68.0
340.086578 196.0
340.153839 12972.0
340.266449 40.0
340.325165 148.0
340.399353 80.0
340.497772 44.0
340.571228 116.0
340.809998 72.0
340.979034 56.0
341.158295 2556.0
341.211853 236.0
341.508453 72.0
341.615143 64.0
341.640869 52.0
341.942596 120.0
342.089844 40.0
342.155426 296.0
342.686432 92.0
342.988617 72.0
343.163452 272.0
343.318726 92.0
343.40155 80.0
343.652405 132.0
343.914398 64.0
344.076843 168.0
344.370667 56.0
344.797119 152.0
344.859924 88.0
345.769745 48.0
346.443634 52.0
347.15155 124.0
347.236847 120.0
348.313202 108.0
348.982117 92.0
349.171753 40.0
350.131927 144.0
350.832428 112.0
351.048676 152.0
352.736206 44.0
353.169922 76.0
353.910889 188.0
359.074097 108.0
360.176178 140.0
361.13623 104.0
361.196747 100.0
364.753448 88.0
366.126953 156.0
368.151917 160.0
369.795807 68.0
370.515686 100.0
371.163422 132.0
371.197906 160.0
376.856079 84.0
377.52478 140.0
377.559601 60.0
378.832977 100.0
379.964966 40.0
380.353027 152.0
381.339569 148.0
382.841248 180.0
383.807617 148.0
385.337616 112.0
386.155273 288.0
386.905853 172.0
386.999817 172.0
387.155518 148.0
390.194885 336.0
390.224884 104.0
391.17691 48.0
391.424927 140.0
397.571289 136.0
397.980713 160.0
399.128998 168.0
399.912689 144.0
401.761597 88.0
401.90921 128.0
403.238983 140.0
403.318909 184.0
403.686707 72.0
404.202728 136.0
405.01944 152.0
407.671326 176.0
407.83609 108.0
410.364136 176.0
410.815826 176.0
411.744171 220.0
413.077942 188.0
414.280212 92.0
414.60434 76.0
414.79483 68.0
414.924561 132.0
415.837219 108.0
416.356873 76.0
416.706207 244.0
416.795593 40.0
416.937836 160.0
417.027222 48.0
417.092255 128.0
417.132904 140.0
417.161377 160.0
417.376831 60.0
417.718475 104.0
417.795746 112.0
417.90271 152.0
418.105804 176.0
418.200134 15928.0
418.272247 124.0
418.373627 96.0
418.471313 60.0
418.571075 120.0
418.650482 188.0
418.678986 44.0
418.715637 40.0
418.75351 40.0
418.815552 68.0
418.844574 116.0
418.878571 68.0
418.911163 48.0
419.017059 72.0
419.082245 76.0
419.135223 88.0
419.203308 6248.0
419.277405 72.0
419.283783 132.0
419.367523 60.0
419.436798 76.0
419.518341 104.0
419.636566 92.0
419.738495 76.0
419.893433 100.0
419.962769 76.0
420.003571 44.0
420.040283 76.0
420.203339 708.0
420.301361 76.0
420.382996 128.0
420.427887 132.0
420.529907 124.0
420.664612 36.0
420.742157 52.0
421.019806 52.0
421.206421 308.0
421.450745 96.0
421.62442 68.0
421.710236 68.0
421.933411 88.0
422.041382 112.0
422.094513 152.0
422.597626 128.0
422.744934 108.0
423.129669 72.0
424.157898 44.0
424.22757 32.0
425.273529 108.0
426.871857 68.0
429.301178 48.0
429.602264 52.0
430.118073 52.0
430.328583 72.0
431.080353 96.0
431.812073 64.0
432.167816 68.0
433.567413 52.0
436.485657 84.0
438.946533 172.0
441.74057 48.0
442.929352 32.0
446.198334 168.0
446.252991 68.0
453.204437 68.0
460.162628 92.0
461.145111 40.0
462.29126 96.0
464.613495 68.0
466.623383 92.0
473.94339 56.0
479.793335 72.0
487.373688 96.0
496.502411 140.0
498.766724 100.0
503.989685 40.0
505.688995 64.0
507.3284 72.0
522.789185 96.0
534.066711 116.0
536.004822 92.0
537.549561 52.0
539.105713 76.0
539.549438 80.0
544.298462 100.0
549.921997 48.0
551.893372 56.0
552.59491 32.0
560.308533 72.0
574.855408 56.0
577.521179 112.0
589.989868 56.0
599.337463 72.0
600.463501 120.0
609.495239 100.0
613.333862 68.0
616.467773 56.0
619.317383 80.0
622.267883 84.0
630.446716 72.0
630.591675 96.0
631.776733 56.0
637.889526 28.0
641.327393 60.0
650.599365 76.0
659.411377 92.0
662.358459 52.0
685.942444 56.0
689.308655 116.0
697.331909 220.0
713.092407 76.0
715.927979 68.0
718.886536 76.0
719.302856 36.0
720.007568 108.0
724.029236 88.0
737.733521 72.0
743.724426 68.0
752.750732 76.0
752.958252 76.0
763.227478 160.0
797.456543 72.0
797.84436 60.0
805.169312 40.0
813.350586 52.0
815.884094 44.0
822.354919 156.0
836.201782 52.0
859.57251 100.0
865.360291 112.0
865.635498 36.0
879.9823 52.0
880.908875 180.0
883.096436 36.0
883.17926 188.0
887.887695 112.0
894.131531 200.0
899.346497 188.0
912.284851 148.0
915.335205 92.0
921.892151 168.0
922.629578 180.0
928.539246 180.0
938.207153 108.0
941.727966 164.0
947.84552 168.0
968.229553 136.0
968.786987 176.0
976.701416 188.0
978.474915 180.0
984.679199 192.0
987.260254 200.0
990.625671 164.0
990.915649 204.0
1001.928833 80.0
1005.30835 80.0
1008.649353 96.0
1013.04718 160.0
1014.523682 128.0
1030.555176 32.0
1031.564941 44.0
1033.547485 76.0
1033.771362 220.0
1034.629028 216.0
1042.473267 160.0
1044.607788 196.0
1044.916626 152.0
1059.532837 136.0
1062.307495 176.0
1062.456665 152.0
1065.917236 196.0
1067.672363 124.0
1073.089844 68.0
1076.939941 40.0
1079.606323 228.0
1080.136108 100.0
1081.078247 128.0
1081.353149 172.0
1093.244751 180.0
1095.206665 228.0
1098.047241 88.0
1098.893799 172.0
1101.941772 176.0
1110.215698 160.0
1120.271851 140.0
1124.559326 160.0
1126.509033 220.0
1127.674927 20.0
1129.389893 184.0
1136.423828 140.0
1137.618408 192.0
1140.620972 244.0
1144.879761 104.0
1149.200562 224.0
1155.720581 156.0
1158.252441 124.0
1159.932861 188.0
1160.90918 32.0
1172.125122 156.0
1172.186401 148.0
1173.420166 108.0
1175.425415 116.0
1178.361328 76.0
1178.696045 236.0
1179.65979 132.0
1180.288696 184.0
1191.776367 192.0
1193.088989 180.0
1197.885376 132.0
1198.532959 68.0
1199.497803 176.0
1201.242432 176.0
1204.189697 204.0
1205.695679 176.0
1209.40271 136.0
1212.852051 220.0
1217.875488 180.0
1222.422119 136.0
1222.533569 208.0
1231.631714 164.0
1233.825928 164.0
1235.826172 208.0
1236.560913 180.0
1238.82251 68.0
1238.997559 148.0
1242.544922 144.0
1244.425903 172.0
1244.503052 208.0
1247.341309 80.0
1250.26001 184.0
1256.368896 228.0
1260.421387 108.0
1272.369751 180.0
1275.630371 88.0
1277.756714 88.0
1278.005737 216.0
1278.368652 120.0
1285.865601 132.0
1294.257935 148.0
1294.759155 152.0
1296.26355 160.0
1297.675537 116.0
1301.147949 204.0
1307.96167 148.0
1309.013794 164.0
1313.02771 224.0
1313.179199 236.0
1318.463867 220.0
1321.500854 72.0
1326.164307 164.0
1326.345459 96.0
1326.577515 256.0
1327.128418 64.0
1330.436768 184.0
1330.69812 72.0
1331.591187 148.0
1333.065918 160.0
1333.770874 148.0
1336.802368 116.0
1343.419189 168.0
1344.790894 160.0
1347.229736 208.0
1347.470825 172.0
1347.894653 192.0
1349.656128 248.0
1350.270386 156.0
1363.885498 144.0
1364.260376 128.0
1365.966431 168.0
1366.967041 216.0
1368.29187 132.0
1368.53479 236.0
1371.561646 172.0
1373.715698 156.0
1374.335327 84.0
1374.992188 224.0
1376.630981 160.0
1377.022339 156.0
1378.514648 128.0
1379.224121 196.0
1379.933838 184.0
1380.022583 120.0
1380.369263 184.0
1380.724976 132.0
1384.217896 132.0
1385.921509 208.0
1387.626099 180.0
1388.113403 52.0
1388.879395 136.0
1389.717651 92.0
1390.593262 160.0
1393.363037 152.0
1395.25061 168.0
1397.81665 176.0
1398.58313 40.0
1399.208374 232.0
1400.564331 232.0
1401.405518 116.0
1401.8302 140.0
1403.947266 152.0
1404.648438 72.0
1408.275879 156.0
1411.122925 164.0
1413.112427 116.0
1413.336792 148.0
1414.466919 184.0
1416.840698 168.0
1417.147827 148.0
1417.867188 188.0
1418.346924 88.0
1419.044067 144.0
1421.571777 156.0
1432.00647 188.0
1436.061279 152.0
1440.673218 208.0
1442.396118 160.0
1445.602783 220.0
1446.442871 132.0
1449.116089 124.0
1449.729858 136.0
1450.927368 132.0
1452.421265 160.0
1453.726196 192.0
1454.014526 192.0
1454.227051 152.0
1456.527588 112.0
1456.801025 140.0
1459.848877 156.0
1460.381226 200.0
1463.546875 156.0
1477.58252 192.0
1477.804321 136.0
1478.791504 228.0
1481.624634 220.0
1481.992432 156.0
1484.000488 204.0
1484.828613 360.0
1486.685181 60.0
1495.531006 52.0
1495.731079 124.0
1497.679199 56.0
1498.888672 44.0
1500.322144 172.0
