>compound Amprenavir (Agenerase)
>formula C25H35N3O6S
>ionization [M+H]+
>parentmass 506.231323
#inchi InChI=1S/C25H35N3O6S/c1-18(2)15-28(35(31,32)22-10-8-20(26)9-11-22)16-24(29)23(14-19-6-4-3-5-7-19)27-25(30)34-21-12-13-33-17-21/h3-11,18,21,23-24,29H,12-17,26H2,1-2H3,(H,27,30)/t21-,23-,24+/m0/s1
#inchikey YMARZQAQMVYCKC
#Ion_Source LC-ESI
#Instrument qTof
#Compound_Source Commercial
#PI Dorrestein
#Data_Collector Garg_Neha
#Scan -1
#Precursor_MZ 506.232
#ExactMass 505.225
#Charge 1
#CAS_Number 161814-49-9
#Pubmed_ID N/A
#Smiles C1=C(C=CC(=C1)S(N(C[C@H]([C@@H](NC(O[C@@H]2COCC2)=O)CC3=CC=CC=C3)O)CC(C)C)(=O)=O)N
#INCHI_AUX N/A
#Library_Class 1
#SpectrumID CCMSLIB00000078220
#IonMode Positive
#UpdateWorkflowName UPDATE-SINGLE-ANNOTATED-GOLD
#LibraryQualityString Gold
#TaskID 77f51c88eb8b467eb4a01dd2d0cb90d2
##Scan# 1398
#SpectrumFile Plate3_61_88_GH1_01_16501.mzXML
#LibraryName FDALibrary_2_04302014.mgf
#MQScore -1
#Organism FDALibrary_2_04302014
#TIC_Query 0
#RT_Query -1
#MZErrorPPM -1
#SharedPeaks 0
#MassDiff 0
#LibMZ -1
#SpecMZ 506.232
#SpecCharge 0
#internalFilename spec-00000.mgf

>collision 10
45.095779 152.0
45.161293 144.0
45.228195 184.0
45.532547 204.0
45.541946 152.0
45.689812 160.0
45.843307 156.0
45.960621 152.0
46.009209 168.0
46.201111 208.0
46.336494 148.0
46.388103 144.0
46.466648 176.0
46.569813 148.0
46.88409 156.0
47.024563 176.0
47.266449 212.0
47.548744 160.0
47.565216 168.0
48.129669 192.0
48.375759 176.0
48.542881 192.0
48.575733 196.0
48.618317 148.0
48.787769 144.0
48.807236 180.0
49.147099 180.0
49.475536 144.0
49.618435 172.0
49.769962 180.0
49.864082 152.0
49.968212 152.0
50.06353 208.0
50.273903 164.0
50.563614 140.0
50.610489 176.0
50.859837 148.0
51.159771 180.0
51.233822 220.0
51.317909 144.0
51.579155 176.0
51.803818 144.0
52.000256 212.0
52.119888 144.0
52.833122 184.0
53.011211 164.0
53.025703 160.0
53.067741 168.0
53.108349 164.0
53.329041 172.0
53.599724 144.0
53.847725 156.0
53.920773 212.0
54.193668 204.0
54.50695 204.0
54.661346 212.0
55.584896 152.0
55.678421 152.0
55.755672 184.0
55.813648 160.0
55.830006 152.0
56.133793 180.0
56.36068 180.0
56.386082 204.0
56.561077 188.0
56.854839 176.0
57.34362 172.0
57.434086 180.0
57.648468 148.0
57.737663 148.0
57.806553 148.0
57.892021 200.0
57.972309 160.0
58.128502 168.0
58.545025 164.0
58.759945 140.0
58.992073 144.0
59.152691 224.0
59.3074 220.0
59.591297 192.0
59.740421 168.0
59.792736 152.0
60.102478 204.0
60.158035 228.0
60.368164 144.0
60.505871 224.0
60.583305 172.0
60.715054 192.0
60.940132 240.0
61.025616 208.0
61.118938 184.0
61.134499 140.0
61.181194 148.0
61.357235 232.0
61.567883 236.0
61.922894 140.0
62.381065 176.0
62.717918 148.0
62.851551 136.0
63.009853 188.0
63.179012 164.0
63.288219 200.0
63.318306 172.0
63.584652 144.0
63.605286 216.0
64.036171 164.0
64.276894 176.0
64.361496 164.0
64.596428 176.0
64.844604 164.0
64.876663 204.0
65.448624 156.0
65.582336 148.0
65.76976 180.0
66.09597 212.0
66.293442 180.0
66.361519 164.0
66.450722 148.0
66.886246 220.0
67.014595 108.0
67.058899 192.0
67.075195 180.0
67.24646 140.0
67.897614 176.0
68.022308 140.0
68.188614 176.0
68.283562 192.0
68.865585 172.0
69.048813 164.0
69.766319 200.0
69.949768 172.0
69.984726 232.0
70.147995 240.0
70.234978 144.0
70.301979 184.0
70.333145 236.0
70.453377 204.0
70.689125 184.0
70.737663 196.0
70.777847 212.0
70.824738 184.0
71.646172 172.0
71.775948 180.0
71.981812 140.0
72.080605 176.0
72.206566 220.0
72.323311 180.0
72.369019 152.0
72.604553 204.0
72.92543 140.0
73.075081 180.0
73.553947 140.0
73.658104 148.0
73.675186 272.0
73.699112 144.0
73.774307 140.0
73.832443 152.0
73.863228 188.0
73.890602 176.0
73.907707 160.0
74.120033 160.0
74.17659 392.0
74.210876 188.0
74.855225 152.0
74.91378 144.0
75.156868 152.0
75.203468 140.0
75.228996 96.0
75.258705 160.0
75.346191 208.0
75.381348 152.0
75.658081 152.0
75.685783 220.0
75.886772 148.0
76.374756 156.0
76.529633 212.0
76.864296 184.0
76.880005 188.0
76.988235 152.0
77.150734 156.0
77.266151 148.0
78.719757 152.0
79.151215 188.0
79.229149 140.0
79.673904 160.0
79.92868 172.0
80.058632 148.0
80.087128 160.0
80.274254 152.0
80.420547 160.0
80.516953 168.0
80.588409 144.0
80.794006 152.0
80.926445 160.0
81.437531 140.0
81.574089 152.0
81.633423 264.0
81.825951 180.0
82.033119 204.0
82.047546 184.0
82.401276 160.0
82.477173 216.0
82.764816 212.0
83.149124 144.0
83.430672 204.0
83.530685 148.0
83.690834 172.0
84.049911 216.0
84.079109 180.0
84.448166 192.0
84.596375 160.0
84.808861 164.0
84.865685 184.0
85.278725 224.0
85.44606 208.0
86.063499 168.0
86.086517 132.0
86.34993 180.0
86.497948 188.0
86.682335 168.0
86.859276 188.0
87.353386 260.0
87.517159 180.0
87.684814 164.0
87.815323 172.0
87.958992 180.0
88.368263 144.0
88.62664 176.0
88.727852 168.0
89.524529 168.0
89.646179 208.0
89.663055 180.0
89.794022 172.0
90.279381 192.0
90.366386 184.0
90.426941 144.0
90.548111 196.0
90.643234 132.0
90.697792 168.0
91.026001 196.0
91.059906 164.0
91.092476 208.0
91.636566 220.0
91.853889 180.0
92.050667 868.0
92.107765 144.0
92.166992 172.0
92.480621 172.0
92.570595 176.0
92.662537 168.0
92.714272 140.0
93.053787 160.0
93.268944 160.0
93.351616 180.0
93.472801 176.0
93.713486 164.0
93.879257 188.0
94.031662 168.0
94.091507 220.0
94.276932 216.0
94.410324 168.0
94.431595 144.0
94.630913 184.0
94.824623 196.0
94.840126 164.0
94.898285 160.0
95.200989 144.0
95.305878 148.0
95.9618 180.0
95.983246 188.0
96.207619 160.0
96.347473 140.0
96.400986 196.0
96.467438 252.0
96.541733 196.0
96.643448 168.0
97.04248 208.0
97.068497 196.0
97.237213 156.0
98.092918 160.0
98.199287 160.0
98.374901 232.0
98.467705 180.0
98.512863 144.0
98.748352 156.0
98.772568 148.0
99.063072 204.0
99.219627 192.0
99.289032 152.0
99.400116 156.0
99.612556 220.0
99.648315 140.0
100.113358 1020.0
100.249222 140.0
100.682121 160.0
100.783997 168.0
100.819969 172.0
100.849945 260.0
100.977905 152.0
101.121956 144.0
101.270119 140.0
101.35025 160.0
101.477493 148.0
101.49456 160.0
101.841743 176.0
101.861832 164.0
101.875893 200.0
101.960281 184.0
102.173424 160.0
103.052452 156.0
103.073311 136.0
103.382042 152.0
103.43264 140.0
103.458961 164.0
103.503502 160.0
103.856125 204.0
104.136223 144.0
104.152466 200.0
104.347557 164.0
104.577423 180.0
104.717903 192.0
105.070229 412.0
105.307335 176.0
105.566887 152.0
105.642563 248.0
105.757393 136.0
106.203819 152.0
106.632935 160.0
106.945557 228.0
107.497879 156.0
107.520576 208.0
107.563919 176.0
107.675415 156.0
107.717758 168.0
107.851089 156.0
107.873772 184.0
107.925461 204.0
108.021988 172.0
108.045036 6540.0
108.078522 208.0
108.403618 192.0
108.428482 156.0
108.561165 120.0
108.733353 148.0
108.926445 148.0
109.048286 500.0
109.352692 212.0
109.527588 144.0
109.92997 196.0
109.988403 256.0
110.051033 336.0
110.241119 208.0
110.339355 180.0
110.533875 144.0
110.711807 188.0
110.902458 168.0
111.241966 140.0
111.355652 172.0
111.702461 144.0
111.963455 164.0
112.026642 156.0
112.228966 148.0
112.463127 204.0
112.661621 152.0
112.748245 156.0
112.879311 144.0
113.107353 488.0
113.516701 144.0
114.049576 172.0
114.115906 160.0
114.543228 188.0
114.630577 164.0
114.813911 180.0
115.089188 180.0
115.121925 216.0
115.50592 164.0
115.548706 168.0
115.651421 188.0
116.090614 212.0
116.17318 144.0
116.663887 176.0
116.833778 176.0
116.881111 188.0
116.912346 132.0
117.040398 144.0
117.072929 148.0
117.32695 180.0
117.596581 140.0
118.403008 176.0
118.543823 176.0
118.567657 216.0
119.086182 224.0
119.147011 140.0
119.555786 148.0
119.873726 176.0
119.97834 184.0
120.081184 3324.0
120.384178 220.0
120.528343 160.0
120.550201 232.0
120.620132 148.0
120.729454 164.0
121.053329 156.0
121.079376 264.0
121.439041 164.0
122.251915 192.0
122.276123 176.0
122.584435 196.0
122.821785 164.0
123.113869 160.0
123.15583 180.0
123.555939 164.0
123.575844 168.0
123.653297 224.0
123.755127 148.0
123.850349 180.0
124.315926 180.0
124.371414 164.0
124.441597 272.0
124.691238 152.0
125.247208 100.0
125.637573 192.0
125.850685 140.0
125.871925 152.0
126.095322 272.0
126.157906 164.0
126.422424 136.0
126.708435 152.0
126.854103 264.0
126.881004 176.0
127.04023 156.0
127.125488 312.0
127.177109 188.0
127.24894 244.0
127.588181 216.0
127.817596 180.0
127.874756 140.0
127.912422 180.0
128.058502 912.0
128.102829 116.0
128.126053 152.0
128.198151 200.0
128.328888 200.0
128.41684 152.0
128.834427 188.0
128.972275 180.0
129.070251 6696.0
129.171249 152.0
129.694305 160.0
130.03804 220.0
130.075699 828.0
130.277481 176.0
130.348511 112.0
130.727661 208.0
131.086441 920.0
131.678329 192.0
132.091766 332.0
132.133209 152.0
132.221268 248.0
132.467438 224.0
132.981064 144.0
133.139465 224.0
134.045837 168.0
134.06427 184.0
134.097504 1168.0
134.663223 188.0
134.899796 168.0
135.559418 248.0
135.988144 176.0
136.371689 164.0
137.400925 376.0
137.541519 160.0
137.970764 164.0
137.989471 208.0
138.008163 188.0
138.03389 212.0
138.202301 148.0
138.394226 252.0
138.602692 144.0
138.785522 140.0
138.945007 140.0
139.0905 240.0
139.75087 156.0
139.806595 140.0
140.018188 380.0
140.625137 156.0
140.851807 220.0
140.933578 124.0
141.017197 184.0
141.099396 332.0
141.473724 184.0
141.542389 172.0
141.788757 196.0
142.08226 168.0
142.310623 176.0
142.391357 184.0
142.569534 156.0
142.890533 168.0
142.990479 168.0
143.557465 164.0
143.61232 164.0
143.946426 244.0
143.994186 148.0
144.080307 404.0
144.912766 152.0
145.085312 196.0
145.104782 168.0
145.188416 176.0
145.524368 216.0
145.590668 104.0
145.616882 136.0
145.786179 156.0
145.995331 172.0
146.058685 924.0
146.096848 3068.0
146.296082 140.0
146.768295 192.0
146.903366 192.0
147.06015 372.0
147.097916 320.0
147.132492 152.0
147.548157 284.0
147.583069 116.0
148.538605 232.0
148.56044 148.0
149.056778 156.0
149.211288 140.0
149.235596 180.0
149.328003 176.0
149.739319 208.0
149.951279 140.0
150.798172 164.0
151.01088 140.0
151.569046 152.0
151.618057 180.0
151.767578 240.0
151.877945 340.0
152.093018 152.0
152.671234 188.0
152.936935 176.0
153.101151 240.0
153.377838 176.0
153.528229 176.0
153.553406 448.0
153.831711 152.0
153.915649 144.0
154.644928 140.0
155.068451 256.0
155.500992 132.0
155.581909 164.0
155.718491 176.0
155.815369 180.0
155.865463 196.0
155.954514 340.0
156.012009 49076.0
156.083298 152.0
156.193985 144.0
156.231903 152.0
156.295425 144.0
156.53801 232.0
156.575272 120.0
156.597794 176.0
156.972641 192.0
157.014511 2748.0
157.222214 260.0
157.932449 160.0
158.008881 2488.0
158.095261 684.0
158.151123 160.0
158.213943 224.0
158.324326 136.0
158.923798 144.0
158.957947 208.0
159.009384 148.0
159.11203 160.0
159.199905 148.0
159.297867 140.0
159.591904 244.0
160.076157 120.0
160.109604 212.0
160.211029 140.0
160.274017 148.0
160.432785 204.0
160.979187 148.0
162.111069 160.0
162.483795 168.0
163.022079 144.0
163.57399 184.0
163.614212 160.0
163.986618 152.0
164.035049 176.0
164.069656 1796.0
164.105667 856.0
165.075439 352.0
165.109497 152.0
165.227631 276.0
165.724319 184.0
165.980637 180.0
166.547806 340.0
166.568344 196.0
167.028458 148.0
167.883545 188.0
167.971222 172.0
168.046036 140.0
168.093323 172.0
168.164749 164.0
168.932175 144.0
169.100357 152.0
169.392944 176.0
171.118195 180.0
171.353561 232.0
171.554993 140.0
172.075104 852.0
172.542542 172.0
172.868317 188.0
174.129745 316.0
174.40036 224.0
174.708023 156.0
175.000153 148.0
175.123917 196.0
176.089233 152.0
176.125916 148.0
176.142365 620.0
176.604614 172.0
176.683975 176.0
177.054474 168.0
177.147247 212.0
177.457321 152.0
177.75174 176.0
177.964081 164.0
178.264236 172.0
178.397125 140.0
178.571487 160.0
178.700302 172.0
178.734894 160.0
178.812073 172.0
180.433884 204.0
180.829773 144.0
181.153763 220.0
181.545074 140.0
183.629333 168.0
183.831665 144.0
183.853256 220.0
183.885635 200.0
183.928818 172.0
185.056122 164.0
185.907257 156.0
186.404205 220.0
187.250259 168.0
187.435822 136.0
187.762619 184.0
187.78717 188.0
187.841721 156.0
188.133713 160.0
188.221069 156.0
188.591858 144.0
188.969254 164.0
189.10199 4512.0
189.292969 156.0
189.383347 152.0
189.676529 184.0
190.106201 540.0
190.23613 140.0
191.07431 140.0
191.110077 168.0
191.297226 224.0
191.714615 184.0
191.89267 112.0
191.95845 188.0
192.079803 160.0
192.217758 180.0
192.281219 144.0
192.557312 164.0
193.096237 172.0
193.574997 188.0
193.699631 240.0
194.032166 164.0
194.220734 160.0
194.378876 168.0
194.797455 416.0
194.867554 188.0
195.39859 200.0
195.666992 160.0
195.727005 148.0
196.716751 152.0
196.82283 172.0
197.672592 148.0
197.708969 188.0
197.938522 152.0
199.012436 224.0
199.228683 156.0
199.740295 208.0
200.1427 1528.0
200.693726 124.0
200.759857 204.0
200.948441 196.0
201.081467 168.0
201.147675 528.0
201.168381 192.0
201.603928 168.0
202.005417 284.0
202.055725 148.0
202.158279 6192.0
202.225052 144.0
203.164307 1500.0
205.51976 148.0
205.598038 212.0
205.899414 156.0
206.133667 160.0
206.735596 204.0
206.948868 160.0
207.113251 712.0
207.415833 196.0
207.648071 148.0
208.097504 7448.0
208.205109 156.0
208.595596 172.0
208.618591 164.0
209.041382 140.0
209.098007 1216.0
210.000732 152.0
210.101028 140.0
210.214218 144.0
210.479782 200.0
211.040329 196.0
211.326675 180.0
211.639267 152.0
212.239044 284.0
212.993591 196.0
213.295792 224.0
214.941269 140.0
215.168915 160.0
215.26236 152.0
215.761978 184.0
215.872574 224.0
216.142014 244.0
216.569626 188.0
217.001892 108.0
217.168045 552.0
217.425735 168.0
218.153091 352.0
218.174362 96.0
219.056473 216.0
219.187576 932.0
219.272659 144.0
220.167847 300.0
220.188782 540.0
220.388123 140.0
220.529968 160.0
220.793198 172.0
221.170059 168.0
221.429398 156.0
221.53009 140.0
222.114059 148.0
222.925858 192.0
223.099945 140.0
224.469528 144.0
226.061691 144.0
226.271225 168.0
226.840408 176.0
226.876389 236.0
227.089279 204.0
228.25148 152.0
228.811111 152.0
228.955643 184.0
229.098724 784.0
229.881119 208.0
230.113541 160.0
230.24791 352.0
230.482025 168.0
230.711731 196.0
231.216858 156.0
231.292526 164.0
231.374252 200.0
231.52565 160.0
232.345367 176.0
232.407761 216.0
232.526108 192.0
233.103104 160.0
233.156647 160.0
233.191238 196.0
233.252029 208.0
233.88472 168.0
234.111664 1032.0
234.646027 140.0
234.737762 376.0
235.021439 184.0
235.111145 328.0
235.204544 160.0
235.949905 192.0
237.140671 152.0
237.19632 780.0
237.382858 188.0
237.9505 212.0
238.207932 164.0
238.789383 216.0
240.067444 204.0
240.311127 276.0
240.493195 176.0
240.746353 176.0
241.02829 356.0
241.10083 12508.0
241.157257 160.0
241.299454 192.0
241.409119 120.0
241.47435 136.0
241.601181 120.0
241.775803 180.0
241.836838 104.0
241.934586 148.0
241.967712 200.0
242.103439 2724.0
242.232407 204.0
243.097855 524.0
243.142639 176.0
243.170441 172.0
243.208542 144.0
243.40947 276.0
243.446747 256.0
243.470749 104.0
243.589615 172.0
243.692047 144.0
243.75061 136.0
243.889771 100.0
244.066833 292.0
244.108719 156.0
244.168686 156.0
244.246124 156.0
244.29837 176.0
244.450821 148.0
244.515015 156.0
244.549179 132.0
244.621994 140.0
244.654907 140.0
244.703171 164.0
244.755875 240.0
244.848083 124.0
244.880081 172.0
244.93692 180.0
244.967697 184.0
245.004898 180.0
245.044052 164.0
245.069672 212.0
245.119171 120.0
245.165863 96620.0
245.285004 220.0
245.423233 172.0
245.474014 120.0
245.498917 176.0
245.530716 148.0
245.581711 188.0
245.679245 372.0
245.70961 212.0
245.743927 152.0
245.771912 144.0
245.811981 108.0
245.893051 132.0
246.036179 236.0
246.168213 16048.0
246.32196 168.0
246.602417 248.0
246.68924 156.0
247.069061 172.0
247.124908 188.0
247.170105 1516.0
247.539642 112.0
247.833725 104.0
247.85524 212.0
247.877945 144.0
247.946899 100.0
248.020554 200.0
248.044922 124.0
248.162872 100.0
248.192978 180.0
248.502136 136.0
248.640549 112.0
248.815948 116.0
250.96936 168.0
251.098663 180.0
251.155426 148.0
251.46463 256.0
252.244797 164.0
252.598969 164.0
252.817276 152.0
254.227478 140.0
254.259216 160.0
254.74501 152.0
255.114853 552.0
255.568436 140.0
256.114166 272.0
256.460114 144.0
256.963959 148.0
257.107544 280.0
258.110596 176.0
259.270538 104.0
259.366882 140.0
260.123779 140.0
260.816406 140.0
260.915771 132.0
260.927521 120.0
260.967499 184.0
261.159851 10100.0
261.414856 104.0
262.161987 2280.0
262.893738 200.0
263.05188 188.0
263.175995 6800.0
263.454163 104.0
263.811005 164.0
264.181427 1916.0
265.167389 268.0
266.900757 156.0
269.080475 172.0
269.124878 120.0
269.522675 144.0
269.742523 188.0
270.946442 188.0
271.110382 136.0
271.252655 164.0
272.760864 164.0
272.910553 224.0
275.065125 152.0
275.091522 152.0
278.13974 4348.0
279.142242 1364.0
279.611481 152.0
280.145905 228.0
280.26532 168.0
281.142303 168.0
281.183716 312.0
281.7099 196.0
282.195221 176.0
283.319 192.0
283.644043 140.0
284.549805 152.0
284.583374 216.0
285.830383 160.0
286.412811 148.0
287.036285 160.0
287.697571 152.0
287.792114 152.0
289.100159 116.0
289.225494 144.0
290.072327 144.0
291.389038 152.0
291.796875 236.0
293.205383 116.0
293.806213 148.0
296.192261 152.0
298.780609 228.0
300.737885 216.0
301.093018 116.0
301.17984 160.0
301.290375 184.0
301.566803 212.0
305.081665 140.0
307.172699 152.0
307.190094 204.0
309.379547 144.0
309.925903 180.0
310.26239 156.0
310.637604 144.0
313.622925 140.0
314.610626 140.0
315.734222 208.0
316.073822 180.0
316.112762 168.0
316.987396 160.0
317.324127 172.0
318.129486 192.0
318.615967 200.0
319.118378 184.0
319.145538 140.0
319.924683 140.0
322.282104 160.0
324.050964 96.0
324.300446 148.0
325.125214 140.0
325.416077 160.0
326.170502 140.0
326.749451 208.0
328.752838 144.0
329.347809 100.0
329.507477 172.0
331.280151 292.0
333.152924 160.0
333.215454 1856.0
333.330048 176.0
333.635376 196.0
333.878967 196.0
333.980804 148.0
334.220551 804.0
334.362854 148.0
334.930817 148.0
335.222839 156.0
336.141968 208.0
336.221893 184.0
336.98465 144.0
337.829163 148.0
338.605164 152.0
338.641785 176.0
340.057007 184.0
341.489899 148.0
343.12854 144.0
343.744507 180.0
344.69278 160.0
345.105957 164.0
345.747437 164.0
347.604034 144.0
348.190552 184.0
349.008087 196.0
349.215027 188.0
350.204712 116.0
350.269714 144.0
350.910675 184.0
351.22821 3796.0
351.3172 184.0
351.690155 104.0
352.228058 808.0
352.51944 228.0
353.237122 228.0
354.219055 244.0
354.304169 172.0
355.140106 160.0
355.213776 152.0
355.650391 160.0
355.901886 160.0
356.311279 144.0
356.781067 152.0
357.161469 1608.0
357.239838 196.0
357.39035 140.0
357.484406 176.0
358.162292 352.0
359.149414 136.0
361.177979 204.0
362.116852 2320.0
362.188385 176.0
362.572479 236.0
362.635681 164.0
362.662231 236.0
363.116364 332.0
363.397888 176.0
364.115295 164.0
366.99173 172.0
368.133087 148.0
370.072479 120.0
370.155945 176.0
370.546631 156.0
370.8302 240.0
372.115265 204.0
372.483917 164.0
372.737488 192.0
373.614105 180.0
374.072052 164.0
374.190613 2636.0
374.256836 140.0
375.18808 1476.0
375.358856 212.0
376.191315 440.0
376.38913 148.0
377.959961 112.0
379.093018 204.0
379.193787 144.0
380.128387 200.0
380.396179 228.0
380.617493 148.0
380.932068 152.0
381.126312 156.0
381.973816 152.0
383.289734 160.0
384.373749 184.0
386.425049 184.0
388.626984 160.0
388.905579 176.0
389.286407 180.0
389.431732 160.0
389.467072 144.0
389.569214 156.0
390.213715 192.0
391.197235 160.0
391.244476 172.0
391.417694 140.0
391.461029 140.0
391.59491 156.0
391.870667 160.0
392.19989 16592.0
392.450043 220.0
392.576233 176.0
392.934753 148.0
393.203613 4380.0
394.19989 1540.0
394.807434 188.0
395.204193 332.0
395.399017 108.0
395.753174 140.0
395.826263 112.0
396.200714 152.0
396.581116 168.0
396.612823 176.0
398.017212 164.0
399.392273 180.0
399.714508 144.0
400.175262 148.0
400.562531 156.0
400.933075 168.0
403.595612 200.0
405.651642 172.0
407.045593 180.0
407.547699 144.0
407.792816 180.0
408.910919 140.0
411.624023 164.0
411.898651 196.0
412.884827 196.0
413.162109 160.0
413.694061 160.0
413.936981 156.0
414.017975 164.0
414.109039 116.0
414.18808 160.0
414.269104 148.0
415.128357 204.0
415.191315 216.0
415.572968 124.0
416.146698 156.0
416.384064 140.0
416.513458 140.0
416.786926 148.0
416.984772 112.0
417.048645 148.0
417.122253 156.0
417.173859 184.0
417.22345 236.0
417.563141 140.0
417.754425 112.0
417.795105 140.0
417.852631 152.0
417.906616 184.0
417.950348 160.0
418.009003 120.0
418.069885 240.0
418.181 75852.0
418.277435 260.0
418.334656 256.0
418.464294 184.0
418.535126 172.0
418.622894 100.0
418.849396 256.0
418.921814 120.0
418.979858 196.0
419.02121 156.0
419.096802 200.0
419.183136 25508.0
419.562073 120.0
419.688507 148.0
420.178833 5436.0
420.37793 108.0
420.59845 236.0
421.17749 816.0
421.33783 164.0
421.6297 96.0
421.898895 116.0
422.171844 140.0
422.292999 116.0
422.682281 120.0
422.80899 112.0
423.285156 100.0
426.998383 100.0
428.919067 140.0
435.127075 228.0
436.184326 632.0
437.196777 172.0
438.197784 152.0
438.642883 124.0
438.998077 160.0
450.161682 144.0
451.161163 124.0
452.164459 144.0
460.138885 148.0
462.215179 188.0
462.244385 272.0
462.926727 200.0
463.23938 212.0
464.236572 168.0
469.023163 156.0
473.14859 164.0
484.646912 204.0
484.756439 184.0
488.219971 320.0
495.383575 172.0
499.414032 220.0
501.029907 180.0
501.341797 176.0
502.592438 96.0
504.680725 192.0
504.859589 216.0
504.967834 156.0
505.333588 140.0
505.606689 212.0
505.906555 140.0
506.009552 248.0
506.048889 284.0
506.082794 140.0
506.132141 128.0
506.231323 23464.0
506.353027 108.0
506.858643 132.0
507.099548 168.0
507.23584 8880.0
507.389435 148.0
508.233521 2444.0
508.293579 204.0
508.965546 96.0
509.230377 484.0
510.238312 104.0
510.312164 188.0
510.378113 96.0
533.281738 128.0
570.648804 152.0
619.842529 144.0
729.347961 140.0
763.609436 140.0
862.667725 232.0
875.964966 156.0
934.303284 172.0
1049.677979 168.0
1081.630249 184.0
1107.693237 188.0
1114.307251 160.0
1276.645752 156.0
1308.005005 248.0
1310.842651 164.0
1349.151611 180.0
1353.55603 212.0
1391.261841 172.0
1392.613281 160.0
1398.98584 188.0
1404.358276 196.0
1435.549683 220.0
1436.070068 140.0
1440.23645 184.0
1440.380005 268.0
1459.660522 168.0
1469.081787 144.0
1477.11792 204.0
1491.456787 228.0
1498.382568 164.0
1505.23938 168.0
1511.376831 152.0
1516.67395 144.0
1522.95105 208.0
1524.730225 140.0
1525.491943 152.0
1527.824829 148.0
1534.351074 164.0
1537.908203 164.0
1539.781982 156.0
1541.86792 236.0
1557.043091 184.0
1561.766724 216.0
1562.238647 152.0
1564.953857 200.0
1566.103516 164.0
1575.703735 176.0
1581.539673 140.0
1588.092285 152.0
1600.967285 188.0
1609.52356 192.0
1613.462524 144.0
1619.439941 156.0
1637.076294 156.0
1637.680298 156.0
1638.147461 184.0
1642.782715 140.0
1643.266724 224.0
1649.493164 156.0
1669.24292 172.0
1669.519409 144.0
1673.799683 148.0
1684.148804 220.0
1689.200195 192.0
1692.566284 184.0
1720.207153 244.0
1723.58252 204.0
1728.916138 308.0
1730.050171 184.0
1736.612793 156.0
1738.520996 172.0
1741.484863 212.0
1747.095703 184.0
1754.34082 180.0
1754.765991 224.0
1759.579834 184.0
1761.341919 180.0
1765.587769 204.0
1767.670776 180.0
1773.558228 152.0
1776.384033 188.0
1777.852417 200.0
1779.657104 320.0
1779.883789 152.0
1787.68457 140.0
1788.509277 228.0
1790.209961 200.0
1792.071533 232.0
1796.050537 156.0
1814.782227 148.0
1817.207886 192.0
1824.758301 224.0
1826.510132 240.0
1833.9729 128.0
1834.378174 168.0
1841.144287 152.0
1841.279175 200.0
1842.160645 164.0
1844.091675 220.0
1851.081177 232.0
1853.222534 148.0
1855.990967 156.0
1856.196777 160.0
1859.036133 156.0
1867.532959 200.0
1872.499023 172.0
1879.956177 180.0
1884.783203 148.0
1890.974976 156.0
1891.425049 180.0
1891.572266 192.0
1893.866821 148.0
1895.556152 248.0
1896.74353 140.0
1898.685669 192.0
1914.972656 164.0
1915.390747 200.0
1916.645264 156.0
1920.917236 200.0
1921.013184 236.0
1922.22583 156.0
1925.385986 240.0
1930.682007 192.0
1932.359375 236.0
1936.125366 172.0
1942.207886 192.0
1943.093872 196.0
1943.479858 204.0
1946.051636 164.0
1947.403931 160.0
1948.431641 204.0
1957.411865 196.0
1959.657959 176.0
1961.023804 172.0
1963.033813 148.0
1967.772095 148.0
1971.835449 188.0
1974.611572 144.0
1975.310303 204.0
1976.947021 156.0
1980.160645 212.0
1989.835083 156.0
1991.051514 172.0
1994.463257 172.0
1999.675293 264.0
