>compound NCGC00160326-01!1H-(Indol-3-yl)-6,7-dimethoxy-1,2,3,4-tetrahydro-isoquinoline
>formula C19H20N2O2
>ionization [M+H]+
>parentmass 309.16
#inchi InChI=1S/C19H20N2O2/c1-22-17-9-12-7-8-20-19(14(12)10-18(17)23-2)15-11-21-16-6-4-3-5-13(15)16/h3-6,9-11,19-21H,7-8H2,1-2H3
#inchikey RSZKVGQGVIBQPS
#Ion_Source LC-ESI
#Instrument qTOF
#Compound_Source Prestwick Phytochem Lib
#PI Dorrestein
#Data_Collector VVP/LMS
#Scan -1
#Precursor_MZ 309.16
#ExactMass 308.152
#Charge 1
#CAS_Number N/A
#Pubmed_ID N/A
#Smiles COC1=C(OC)C=C2C(NCCC2=C1)C3=CNC4=C3C=CC=C4
#INCHI_AUX N/A
#Library_Class 1
#SpectrumID CCMSLIB00000078821
#IonMode Positive
#UpdateWorkflowName UPDATE-SINGLE-ANNOTATED-GOLD
#LibraryQualityString Gold
#TaskID 67c915c6594c435cadc1fe2b5358144d
##Scan# 1499
#SpectrumFile p1-H04_GH4_01_17960.mzXML
#LibraryName phytochem_lib.mgf
#MQScore -1
#Organism phytochem_lib
#TIC_Query 0
#RT_Query -1
#MZErrorPPM -1
#SharedPeaks 0
#MassDiff 0
#LibMZ -1
#SpecMZ 309.16
#SpecCharge 0
#internalFilename spec-00000.mgf

>collision 10
94.97683 144.0
94.996223 120.0
95.042542 124.0
95.083542 196.0
95.106834 220.0
95.205849 128.0
95.291321 152.0
95.328239 172.0
95.416489 268.0
95.550545 180.0
95.614113 212.0
95.68808 212.0
95.71534 104.0
95.736763 76.0
95.77961 160.0
95.900414 376.0
96.083717 76.0
96.152016 148.0
96.357048 144.0
96.413712 236.0
96.446938 176.0
96.518738 176.0
96.529755 200.0
96.554474 204.0
96.693382 176.0
96.709038 132.0
96.732529 56.0
96.763847 260.0
96.808372 168.0
96.897034 172.0
96.951897 148.0
97.044029 172.0
97.089127 124.0
97.269638 156.0
97.312828 232.0
97.407089 104.0
97.452278 36.0
97.466034 80.0
97.48175 96.0
97.631363 112.0
97.824959 136.0
97.857445 120.0
97.881073 116.0
97.912582 156.0
97.938187 128.0
98.064285 204.0
98.109627 172.0
98.243729 200.0
98.403587 204.0
98.441101 196.0
98.480598 116.0
98.53196 124.0
98.547768 224.0
98.575432 176.0
98.721718 220.0
98.785011 152.0
98.84436 52.0
98.957184 188.0
99.093849 160.0
99.153297 164.0
99.169151 128.0
99.196899 216.0
99.236549 108.0
99.395233 160.0
99.472633 100.0
99.500427 132.0
99.601707 160.0
99.689125 136.0
99.742783 204.0
99.945641 192.0
100.190529 308.0
100.236458 156.0
100.280205 112.0
100.365921 128.0
100.575401 128.0
100.667236 144.0
100.781097 140.0
100.863037 152.0
100.879028 120.0
100.945007 152.0
101.039017 172.0
101.066093 240.0
101.091034 160.0
101.13707 176.0
101.163094 200.0
101.183113 216.0
101.27179 184.0
101.361374 136.0
101.421494 180.0
101.501686 180.0
101.515724 132.0
101.870979 180.0
101.973457 76.0
102.003609 252.0
102.036354 180.0
102.166496 212.0
102.186615 120.0
102.295288 56.0
102.422478 220.0
102.476547 124.0
102.506767 84.0
102.530952 216.0
102.579323 72.0
102.764862 152.0
102.781006 160.0
102.849625 136.0
102.883942 216.0
102.926338 148.0
102.984909 136.0
103.054298 668.0
103.084969 196.0
103.191032 104.0
103.259781 56.0
103.316422 100.0
103.377121 184.0
103.403427 232.0
103.435814 100.0
103.530975 172.0
103.652519 144.0
103.80658 212.0
103.910027 52.0
103.930313 132.0
103.954308 180.0
104.054314 236.0
104.113014 112.0
104.220673 100.0
104.273506 116.0
104.468712 180.0
104.509346 160.0
104.550102 196.0
104.57859 180.0
104.621338 144.0
104.753708 164.0
104.818901 160.0
104.886162 180.0
104.912659 156.0
104.988106 188.0
105.03006 168.0
105.066254 532.0
105.163559 136.0
105.214592 188.0
105.281975 236.0
105.361633 152.0
105.377983 180.0
105.46994 120.0
105.523094 128.0
105.641983 196.0
105.711578 188.0
105.727646 180.0
105.858452 192.0
105.919792 180.0
105.948784 164.0
106.016403 184.0
106.032799 160.0
106.063454 588.0
106.1353 164.0
106.167488 172.0
106.20092 124.0
106.239899 144.0
106.297348 176.0
106.328133 212.0
106.348656 128.0
106.377388 120.0
106.422554 136.0
106.445145 160.0
106.494431 144.0
106.510864 160.0
106.539627 176.0
106.590988 196.0
106.60743 124.0
106.677315 452.0
106.821259 148.0
106.951622 204.0
107.002357 172.0
107.016769 160.0
107.049438 352.0
107.210403 212.0
107.251625 180.0
107.360893 216.0
107.379456 208.0
107.410393 108.0
107.424835 116.0
107.508194 172.0
107.57341 72.0
107.649803 96.0
107.74482 132.0
107.77581 124.0
107.900711 168.0
107.917549 188.0
108.053703 240.0
108.098389 176.0
108.123528 136.0
108.330276 144.0
108.369644 60.0
108.433884 208.0
108.49192 184.0
108.581085 144.0
108.647461 124.0
108.726311 200.0
108.803108 136.0
108.863327 132.0
108.904861 188.0
109.066933 156.0
109.160744 128.0
109.189606 132.0
109.208321 56.0
109.243683 212.0
109.287376 92.0
109.341476 220.0
109.356049 40.0
109.374779 120.0
109.412247 196.0
109.443481 124.0
109.511589 96.0
109.765144 140.0
109.791481 160.0
109.885345 152.0
109.965897 220.0
109.987602 160.0
110.056496 140.0
110.14003 136.0
110.183899 116.0
110.229866 140.0
110.263306 156.0
110.28421 152.0
110.313469 128.0
110.361557 164.0
110.380379 80.0
110.399193 148.0
110.426384 160.0
110.491226 36.0
110.507965 252.0
110.547722 144.0
110.566559 172.0
110.702637 156.0
110.752899 156.0
110.935204 156.0
111.006493 200.0
111.044144 304.0
111.232468 220.0
111.415779 124.0
111.455704 132.0
111.474609 52.0
111.506134 172.0
111.58812 228.0
111.609146 148.0
111.630173 116.0
111.651871 164.0
111.695374 196.0
111.771111 108.0
111.798462 176.0
111.926872 176.0
112.05114 228.0
112.124893 136.0
112.14386 252.0
112.19445 172.0
112.236618 164.0
112.270363 160.0
112.316765 132.0
112.428581 252.0
112.542572 92.0
112.576363 220.0
112.67775 68.0
112.717896 156.0
112.736908 144.0
112.791862 144.0
112.863747 160.0
112.882774 240.0
112.914497 228.0
112.958916 72.0
112.973724 156.0
113.013924 192.0
113.064705 236.0
113.117813 224.0
113.202309 208.0
113.257378 116.0
113.290688 204.0
113.48745 172.0
113.518059 116.0
113.681404 104.0
113.789658 136.0
113.868225 220.0
113.942574 192.0
113.976791 192.0
114.008438 92.0
114.046257 324.0
114.078583 152.0
114.11898 104.0
114.146622 48.0
114.27211 152.0
114.318634 176.0
114.372131 80.0
114.418968 200.0
114.479881 164.0
114.500999 120.0
114.544609 84.0
114.659668 56.0
114.70443 80.0
114.832359 100.0
114.851555 136.0
114.913422 176.0
115.053276 576.0
115.082039 160.0
115.124741 192.0
115.156776 200.0
115.246506 44.0
115.302063 140.0
115.323433 192.0
115.346947 244.0
115.430328 124.0
115.55011 216.0
115.567223 104.0
115.665672 212.0
115.774864 160.0
115.894821 104.0
116.001976 120.0
116.048759 200.0
116.081306 152.0
116.446144 204.0
116.489098 120.0
116.522743 340.0
116.540665 196.0
116.602982 152.0
116.635223 108.0
116.704018 184.0
116.757774 184.0
116.981544 148.0
117.01384 152.0
117.055634 1332.0
117.110741 80.0
117.211998 188.0
117.377975 184.0
117.416794 204.0
117.436203 204.0
117.509552 160.0
117.531128 156.0
117.598419 132.0
117.757797 168.0
117.809639 188.0
117.863655 136.0
118.012794 72.0
118.040962 608.0
118.064552 6380.0
118.157707 40.0
118.226944 64.0
118.259407 156.0
118.296211 164.0
118.37632 52.0
118.454285 148.0
118.58213 76.0
118.612473 132.0
118.842354 116.0
118.928711 252.0
118.976921 144.0
119.011658 148.0
119.069786 596.0
119.258224 184.0
119.307137 100.0
119.324524 132.0
119.385414 160.0
119.439781 108.0
119.52681 132.0
119.633789 184.0
119.683533 176.0
119.714012 208.0
119.792206 176.0
119.883934 80.0
119.990738 168.0
120.035866 228.0
120.053978 172.0
120.075783 96.0
120.101959 44.0
120.21759 160.0
120.361664 76.0
120.418442 164.0
120.440285 132.0
120.472221 116.0
120.532043 320.0
120.571373 124.0
120.58886 260.0
120.663185 168.0
120.724411 56.0
120.779083 184.0
120.825027 204.0
120.919113 60.0
121.034775 168.0
121.064774 316.0
121.094269 176.0
121.144646 124.0
121.168747 152.0
121.210381 132.0
121.284889 192.0
121.333122 176.0
121.416443 140.0
121.464699 216.0
121.526382 172.0
121.572205 136.0
121.600739 120.0
121.674576 200.0
121.695129 76.0
121.763206 188.0
121.802406 160.0
121.868294 176.0
121.895012 116.0
122.009308 232.0
122.057487 184.0
122.072021 352.0
122.125854 92.0
122.17205 144.0
122.200645 60.0
122.216049 200.0
122.288376 148.0
122.519951 132.0
122.678001 160.0
122.738083 148.0
122.777779 124.0
122.80645 180.0
122.846924 264.0
123.102074 164.0
123.175064 80.0
123.256813 132.0
123.31427 256.0
123.37616 216.0
123.4049 160.0
123.45797 140.0
123.49115 68.0
123.508842 176.0
123.615593 156.0
123.659302 172.0
123.679352 136.0
123.714638 168.0
123.734718 232.0
123.803207 172.0
124.024757 180.0
124.053574 160.0
124.12674 72.0
124.173309 160.0
124.219894 68.0
124.239861 76.0
124.417397 104.0
124.464027 156.0
124.577293 120.0
124.76619 156.0
124.803986 232.0
124.81955 152.0
124.953011 148.0
124.97303 172.0
125.026436 92.0
125.142189 180.0
125.329285 176.0
125.458549 64.0
125.521591 176.0
125.619118 156.0
125.674126 164.0
125.799873 184.0
125.918213 160.0
126.020973 156.0
126.246735 148.0
126.394379 172.0
126.421234 48.0
126.519714 196.0
126.573448 40.0
126.613762 208.0
126.689919 168.0
126.728004 168.0
126.844543 168.0
126.87368 172.0
126.889374 44.0
126.920769 176.0
126.958885 160.0
126.988602 224.0
127.068802 160.0
127.120407 188.0
127.203453 36.0
127.443756 84.0
127.463974 68.0
127.524658 196.0
127.682037 48.0
127.704529 120.0
127.742767 92.0
127.810265 144.0
127.859772 156.0
127.931793 60.0
127.972321 112.0
128.049683 148.0
128.093933 132.0
128.127731 60.0
128.193069 144.0
128.238144 192.0
128.456863 180.0
128.562912 200.0
128.599014 36.0
128.617081 180.0
128.714157 152.0
128.77739 144.0
128.808517 164.0
128.836121 200.0
128.92424 128.0
129.016907 128.0
129.057541 292.0
129.234024 172.0
129.310974 144.0
129.399261 164.0
129.727753 156.0
129.761765 176.0
129.80484 144.0
129.859268 64.0
129.897827 152.0
129.951447 144.0
130.011276 196.0
130.041595 156.0
130.064728 13844.0
130.102066 36.0
130.117966 48.0
130.218979 80.0
130.313278 72.0
130.363266 48.0
130.406921 196.0
130.431458 176.0
130.463272 40.0
130.508743 80.0
130.623413 144.0
130.656586 84.0
130.695267 84.0
130.792038 152.0
130.83638 164.0
130.886459 128.0
130.913788 148.0
130.98439 108.0
131.048035 2676.0
131.069153 1376.0
131.157578 168.0
131.257889 136.0
131.275284 196.0
131.292755 224.0
131.328583 144.0
131.406143 224.0
131.433533 240.0
131.481445 172.0
131.529373 208.0
131.565903 212.0
131.637817 176.0
131.692764 172.0
131.715668 208.0
131.735428 172.0
131.807404 184.0
131.974869 136.0
132.056061 1980.0
132.102936 44.0
132.187592 116.0
132.217346 80.0
132.288589 128.0
132.378357 156.0
132.608978 204.0
132.69838 28.0
132.796692 156.0
132.82222 196.0
132.840576 196.0
132.945541 188.0
132.96907 48.0
133.063507 1256.0
133.122879 48.0
133.148148 104.0
133.205566 124.0
133.228531 140.0
133.249207 140.0
133.302063 96.0
133.527359 92.0
133.702209 136.0
133.72522 160.0
133.783401 188.0
133.870255 200.0
134.059204 3528.0
134.116776 132.0
134.185944 48.0
134.229752 168.0
134.266388 180.0
134.315079 340.0
134.488129 232.0
134.506607 216.0
134.578171 152.0
134.647446 160.0
134.737534 88.0
134.760635 236.0
134.887741 148.0
134.903931 256.0
134.989471 196.0
135.040344 152.0
135.065445 380.0
135.278687 160.0
135.308777 180.0
135.347214 212.0
135.392136 160.0
135.461624 160.0
135.514908 204.0
135.551987 144.0
135.621185 160.0
135.88356 172.0
135.91835 188.0
135.957809 176.0
136.007645 144.0
136.031387 228.0
136.053055 148.0
136.206238 152.0
136.31311 184.0
136.382828 112.0
136.406082 108.0
136.592102 208.0
136.613037 112.0
136.66423 164.0
136.712341 212.0
136.719482 144.0
136.725143 176.0
136.75032 124.0
136.976181 176.0
137.001816 84.0
137.027435 208.0
137.081024 200.0
137.129974 160.0
137.197571 172.0
137.274506 180.0
137.328156 288.0
137.393463 204.0
137.449463 120.0
137.54834 276.0
137.643204 148.0
137.6689 192.0
137.800827 152.0
137.87558 152.0
138.067673 424.0
138.152725 120.0
138.260361 132.0
138.276733 192.0
138.323547 272.0
138.42189 168.0
138.464035 164.0
138.525818 236.0
138.595215 184.0
138.721786 100.0
138.74054 132.0
138.773361 116.0
138.923462 152.0
139.078323 172.0
139.176926 172.0
139.240326 40.0
139.310806 188.0
139.468811 116.0
139.555222 172.0
139.649292 152.0
139.68222 188.0
139.785736 188.0
139.840195 172.0
139.884583 164.0
139.971695 72.0
140.007019 68.0
140.054123 196.0
140.171921 244.0
140.294479 168.0
140.374649 180.0
140.485504 228.0
140.554535 168.0
140.57988 76.0
140.690628 204.0
140.709702 132.0
140.792725 228.0
140.908096 48.0
141.004974 164.0
141.139725 180.0
141.241409 196.0
141.307648 48.0
141.331314 156.0
141.370682 276.0
141.433975 244.0
141.482788 108.0
141.582245 204.0
141.598816 228.0
141.819168 148.0
141.913986 204.0
141.944809 140.0
142.056107 156.0
142.098984 132.0
142.15593 104.0
142.298355 136.0
142.62619 212.0
142.690369 144.0
142.708313 168.0
142.764084 228.0
142.802139 172.0
142.848419 104.0
142.978195 140.0
143.00676 224.0
143.047073 196.0
143.069778 312.0
143.149597 200.0
143.218597 136.0
143.368759 68.0
143.403107 200.0
143.437881 132.0
143.509399 356.0
143.628647 188.0
143.650116 168.0
143.790894 180.0
143.817139 156.0
143.845779 168.0
143.926956 76.0
143.96756 340.0
144.081619 1072.0
144.127609 172.0
144.196899 124.0
144.22081 120.0
144.311646 216.0
144.369034 176.0
144.553238 140.0
144.577164 244.0
144.593918 100.0
144.632217 264.0
144.664108 200.0
144.684875 100.0
144.781525 188.0
144.828552 164.0
144.869278 92.0
144.886047 44.0
144.924393 204.0
144.942398 124.0
144.967514 180.0
145.049805 1640.0
145.072495 1220.0
145.098175 180.0
145.164093 52.0
145.211227 116.0
145.235794 156.0
145.26152 116.0
145.318024 252.0
145.403992 100.0
145.4496 68.0
145.533112 152.0
145.539139 216.0
145.565903 188.0
145.631882 144.0
145.652679 256.0
145.677719 360.0
145.722214 140.0
145.744125 168.0
145.819489 48.0
145.849365 188.0
145.884552 180.0
145.922729 244.0
145.946899 84.0
145.980423 352.0
146.060196 98480.0
146.118332 116.0
146.158401 172.0
146.190506 132.0
146.241928 292.0
146.275284 72.0
146.32164 228.0
146.346313 200.0
146.378021 72.0
146.42601 84.0
146.455582 500.0
146.507675 64.0
146.531769 36.0
146.555862 60.0
146.573502 196.0
146.603882 108.0
146.630966 200.0
146.659485 124.0
146.684662 72.0
146.719376 152.0
146.740097 256.0
146.78978 96.0
146.818619 84.0
146.851166 84.0
146.90303 244.0
146.975418 120.0
147.062927 7960.0
147.102844 104.0
147.111771 96.0
147.144669 64.0
147.163681 84.0
147.202316 108.0
147.239502 120.0
147.285126 112.0
147.323074 64.0
147.345734 152.0
147.402817 64.0
147.424561 56.0
147.477737 60.0
147.513992 96.0
147.599121 168.0
147.654221 228.0
147.697769 44.0
147.718246 68.0
147.736465 80.0
147.785782 168.0
147.823578 48.0
147.842926 104.0
147.864716 156.0
147.944595 200.0
147.995499 160.0
148.026917 44.0
148.073151 928.0
148.1035 132.0
148.146393 140.0
148.196472 120.0
148.213425 160.0
148.253616 260.0
148.295822 128.0
148.33461 108.0
148.35643 144.0
148.391174 72.0
148.467957 32.0
148.504333 168.0
148.523346 192.0
148.569839 92.0
148.737274 68.0
148.7771 128.0
148.849701 144.0
149.082138 572.0
149.138062 56.0
149.174515 52.0
149.283936 104.0
149.490707 44.0
149.66597 64.0
149.950989 112.0
150.02655 224.0
150.066635 708.0
150.177734 100.0
150.272873 108.0
150.348526 100.0
150.390015 200.0
150.504745 188.0
150.534058 116.0
150.605438 240.0
150.634186 216.0
150.653732 68.0
150.707489 88.0
150.780792 200.0
150.834564 84.0
150.907913 156.0
150.959259 216.0
151.030182 92.0
151.078354 284.0
151.159851 148.0
151.216141 116.0
151.289566 220.0
151.573685 144.0
151.626526 212.0
151.659454 200.0
151.897308 128.0
152.046982 164.0
152.078888 220.0
152.127975 184.0
152.172165 216.0
152.236008 172.0
152.277756 200.0
152.314606 144.0
152.420242 132.0
152.464478 276.0
152.540665 224.0
152.867783 96.0
153.239594 152.0
153.291336 96.0
153.333237 128.0
153.799393 136.0
153.878387 124.0
153.917892 128.0
153.987045 32.0
154.031509 56.0
154.064697 580.0
154.159973 100.0
154.340424 48.0
154.461609 200.0
154.488831 220.0
154.528412 176.0
154.553146 68.0
154.629868 160.0
154.721451 88.0
154.778397 168.0
154.946823 164.0
154.971603 188.0
155.343979 60.0
155.383163 148.0
155.457611 128.0
155.646271 192.0
155.765472 208.0
155.981659 148.0
156.077209 256.0
156.474228 160.0
156.536484 108.0
156.666 48.0
156.708344 184.0
156.82547 208.0
156.952621 148.0
157.032425 72.0
157.094772 196.0
157.469193 116.0
157.521652 76.0
157.709061 64.0
157.79155 100.0
157.896576 152.0
157.944092 44.0
158.062988 524.0
158.141754 144.0
158.22937 168.0
158.555008 148.0
158.631714 168.0
158.707932 176.0
158.793182 164.0
158.860916 144.0
158.983856 88.0
159.003937 176.0
159.044266 664.0
159.067322 552.0
159.084473 204.0
159.126358 172.0
159.154556 224.0
159.501251 68.0
159.536438 64.0
159.556549 64.0
159.714447 132.0
159.820648 152.0
159.916275 184.0
160.023361 276.0
160.051773 1764.0
160.074921 12392.0
160.137833 48.0
160.155472 52.0
160.185699 52.0
160.207962 148.0
160.216492 124.0
160.258759 168.0
160.276398 96.0
160.334351 152.0
160.364594 172.0
160.408966 200.0
160.460388 60.0
160.490646 48.0
160.518387 80.0
160.542084 60.0
160.564041 188.0
160.599091 72.0
160.638763 44.0
160.647995 72.0
160.674484 108.0
160.697021 180.0
160.730118 208.0
160.738663 196.0
160.788315 140.0
160.818604 44.0
160.842224 232.0
160.880356 172.0
160.902206 160.0
160.941971 272.0
160.997986 228.0
161.019302 216.0
161.083405 108356.0
161.15239 156.0
161.185181 204.0
161.213684 60.0
161.248779 144.0
161.256332 92.0
161.265411 180.0
161.299118 168.0
161.318787 224.0
161.345078 84.0
161.361725 144.0
161.37941 60.0
161.424454 84.0
161.456421 96.0
161.499191 592.0
161.562073 148.0
161.596085 48.0
161.627289 68.0
161.648666 168.0
161.667786 40.0
161.692307 168.0
161.717377 148.0
161.804688 48.0
161.857285 476.0
161.893097 60.0
161.934982 156.0
161.953873 52.0
161.997818 80.0
162.005585 112.0
162.012802 152.0
162.054169 5352.0
162.086227 13568.0
162.164169 48.0
162.244308 200.0
162.270645 92.0
162.296005 76.0
162.354324 96.0
162.390701 208.0
162.423782 108.0
162.450699 80.0
162.482651 80.0
162.51413 104.0
162.565994 64.0
162.605484 132.0
162.623245 60.0
162.67543 72.0
162.719711 56.0
162.745102 36.0
162.831451 64.0
162.85791 180.0
162.894943 48.0
162.964706 52.0
162.992279 52.0
163.028076 212.0
163.059906 1008.0
163.087158 1000.0
163.165985 116.0
163.194839 84.0
163.222809 224.0
163.249527 220.0
163.26799 120.0
163.319443 128.0
163.340866 152.0
163.384216 60.0
163.41275 112.0
163.444107 76.0
163.461914 48.0
163.548447 100.0
163.578995 148.0
163.629913 100.0
163.69101 108.0
163.846298 116.0
163.876114 80.0
163.897339 80.0
163.920273 108.0
163.94516 184.0
164.067902 144.0
164.103806 204.0
164.136826 164.0
164.188538 52.0
164.2211 140.0
164.238953 80.0
164.356308 164.0
164.380356 160.0
164.423782 128.0
164.568161 328.0
164.593704 208.0
164.718842 64.0
164.790375 104.0
164.82103 72.0
165.040863 56.0
165.088104 1116.0
165.150818 112.0
165.419159 180.0
165.603867 160.0
165.657654 72.0
165.729385 52.0
165.824203 188.0
165.908798 112.0
165.978027 136.0
165.998535 52.0
166.091095 184.0
166.260208 172.0
166.303833 84.0
166.38855 152.0
166.524643 164.0
166.542618 96.0
166.856125 184.0
166.997559 112.0
167.023285 180.0
167.046432 168.0
167.553589 232.0
167.757172 84.0
168.342865 152.0
168.408615 148.0
168.459091 88.0
168.63739 120.0
168.805435 52.0
168.955444 172.0
169.002014 188.0
169.038239 108.0
169.110703 280.0
169.421432 196.0
169.473251 216.0
169.719498 112.0
169.926987 60.0
170.052353 156.0
170.248856 156.0
170.285217 112.0
170.399521 104.0
170.714035 256.0
170.812866 52.0
170.851883 52.0
171.047318 200.0
171.216309 84.0
171.286621 196.0
171.396042 148.0
171.718994 132.0
171.75322 104.0
171.894089 60.0
172.036926 224.0
172.270065 172.0
172.66214 72.0
172.764145 172.0
172.860962 60.0
173.164642 84.0
173.193451 112.0
173.221115 136.0
173.424026 248.0
173.528885 52.0
173.597061 36.0
173.699356 52.0
174.055679 372.0
174.208618 100.0
174.710724 108.0
174.802811 72.0
174.831757 128.0
174.950211 64.0
175.026566 100.0
175.073792 3208.0
175.121368 120.0
175.138107 88.0
175.239914 128.0
175.289978 48.0
175.326874 136.0
175.727676 208.0
175.756699 44.0
175.990372 120.0
176.069962 2468.0
176.150085 40.0
176.242554 192.0
176.282181 108.0
176.305969 196.0
176.422272 60.0
176.475143 76.0
176.731705 44.0
176.84285 56.0
176.96463 128.0
177.077164 5080.0
177.221542 80.0
177.269241 116.0
177.287796 104.0
177.513123 44.0
177.55101 112.0
177.583099 124.0
177.633942 36.0
178.006699 164.0
178.035721 168.0
178.079788 636.0
178.11824 184.0
178.227173 112.0
178.306885 52.0
178.349411 124.0
178.551483 112.0
178.868103 160.0
178.998566 68.0
179.070465 548.0
179.087616 176.0
179.382217 100.0
179.400879 88.0
179.427536 80.0
180.10437 356.0
180.172134 156.0
180.436722 68.0
180.578445 68.0
180.749664 72.0
181.068222 248.0
181.100357 140.0
181.322739 136.0
181.368301 96.0
181.389755 72.0
181.861847 196.0
182.141098 220.0
182.509277 136.0
182.670639 184.0
182.86438 48.0
182.982819 224.0
183.068985 192.0
183.198273 192.0
183.282852 244.0
183.324905 208.0
183.424622 168.0
183.589096 156.0
183.705078 164.0
184.580719 132.0
184.699142 188.0
184.780304 48.0
185.088867 180.0
185.216156 336.0
185.584335 140.0
185.622681 196.0
185.644379 180.0
185.67691 184.0
186.790527 168.0
186.893921 44.0
187.163391 76.0
188.114883 92.0
188.349731 132.0
188.450806 144.0
188.956223 140.0
189.118073 148.0
189.178284 124.0
190.041595 176.0
190.085007 1676.0
190.313324 52.0
190.354507 124.0
190.461624 236.0
190.486343 152.0
190.673187 136.0
190.700668 148.0
190.769379 196.0
190.915115 100.0
190.942612 264.0
191.017471 128.0
191.084534 688.0
191.217743 148.0
191.377396 104.0
191.553665 52.0
191.672119 168.0
191.818192 72.0
192.050171 204.0
192.101608 14888.0
192.16568 36.0
192.272125 76.0
192.303665 64.0
192.340744 68.0
192.372665 68.0
192.427887 60.0
192.505188 84.0
192.53833 72.0
192.591461 152.0
192.626724 132.0
192.698547 164.0
192.803558 56.0
192.822891 212.0
192.939911 120.0
193.102707 1232.0
193.168518 48.0
193.359436 64.0
193.434174 84.0
193.888412 72.0
194.069107 108.0
194.106384 192.0
194.14624 44.0
194.25441 88.0
194.465302 140.0
194.512482 224.0
194.592987 100.0
194.712402 76.0
195.0271 60.0
195.045807 176.0
195.107559 184.0
195.154236 104.0
195.435165 172.0
195.50473 48.0
195.641113 32.0
195.933533 160.0
196.033844 84.0
196.103516 120.0
196.856766 156.0
197.358459 164.0
197.446442 144.0
197.482803 40.0
197.533142 72.0
197.815781 76.0
198.263916 180.0
198.48819 116.0
198.740631 168.0
199.352783 148.0
199.442719 148.0
199.498932 28.0
199.549545 120.0
199.827988 192.0
200.03624 84.0
200.360092 156.0
200.43335 192.0
200.650375 172.0
200.802643 156.0
200.932404 84.0
201.08197 152.0
201.542267 240.0
201.824921 216.0
202.072586 320.0
202.452835 192.0
202.557922 88.0
202.886642 152.0
202.988724 120.0
203.085464 296.0
203.363205 172.0
203.49379 112.0
203.576126 76.0
203.740875 52.0
204.079666 308.0
204.465958 164.0
204.608276 64.0
204.806366 200.0
204.853195 152.0
204.913025 68.0
205.063644 232.0
205.08989 808.0
206.059967 112.0
206.095856 704.0
206.168381 140.0
206.474442 36.0
206.823502 104.0
207.075974 136.0
208.087723 160.0
208.323227 68.0
208.607712 40.0
209.128357 272.0
209.54303 108.0
209.675583 116.0
209.802414 32.0
209.862961 232.0
210.168701 108.0
210.405365 144.0
210.829971 128.0
211.064117 160.0
212.080276 128.0
212.892639 152.0
213.587265 144.0
213.665802 52.0
213.782196 116.0
213.895706 136.0
214.594894 164.0
215.009109 48.0
215.0802 456.0
215.120026 124.0
215.347778 180.0
216.079468 292.0
216.359543 72.0
216.450302 168.0
216.869247 232.0
217.087311 2716.0
217.282715 196.0
217.464645 32.0
217.585007 88.0
218.095825 4324.0
218.157883 136.0
218.232254 40.0
218.269608 28.0
218.45195 80.0
219.099106 884.0
219.456223 116.0
219.878067 60.0
219.945953 36.0
220.077118 260.0
220.10939 384.0
220.167389 132.0
220.439163 140.0
220.687469 108.0
220.808701 100.0
221.083664 268.0
221.110428 192.0
221.311768 108.0
222.087646 176.0
222.096786 144.0
222.471008 80.0
223.074051 176.0
223.1008 108.0
223.192963 92.0
223.216751 56.0
223.273254 116.0
223.305969 84.0
223.350586 40.0
223.44281 72.0
224.473389 96.0
225.186646 172.0
225.766449 136.0
225.930954 32.0
227.054214 96.0
228.081741 116.0
228.168243 144.0
228.688644 220.0
229.082077 176.0
229.707108 208.0
229.776489 124.0
229.818741 180.0
229.879089 112.0
229.966614 184.0
230.007675 212.0
230.094742 2180.0
230.211151 40.0
230.277588 48.0
230.337997 40.0
230.365189 124.0
230.425613 116.0
230.501144 56.0
230.667374 60.0
230.879028 148.0
230.927414 108.0
230.951614 100.0
230.9758 152.0
231.003036 44.0
231.080414 796.0
231.101212 820.0
231.560669 88.0
232.08136 496.0
232.115707 776.0
232.190369 80.0
232.542313 52.0
232.563553 52.0
232.636414 36.0
232.691055 104.0
232.79126 144.0
232.836807 52.0
232.876297 172.0
232.912735 100.0
232.943115 212.0
233.083405 956.0
233.119873 180.0
233.371628 48.0
233.400085 156.0
233.82489 128.0
233.891846 60.0
233.95578 120.0
234.090027 2412.0
234.235931 76.0
234.927917 64.0
235.06955 232.0
235.09584 476.0
235.284973 196.0
235.614807 120.0
235.713318 116.0
235.877625 124.0
235.987686 68.0
236.104568 284.0
236.31189 72.0
236.694489 164.0
236.83844 72.0
237.108063 128.0
237.279709 204.0
237.887146 100.0
238.154297 76.0
238.569122 52.0
239.07663 128.0
239.372162 172.0
240.019257 80.0
240.407944 104.0
240.444977 84.0
241.2388 164.0
241.381012 84.0
241.906982 124.0
242.414932 84.0
242.5513 208.0
242.687714 84.0
243.077194 192.0
243.090607 108.0
243.099106 288.0
243.454163 220.0
244.072159 128.0
244.094879 176.0
244.364929 128.0
244.744659 112.0
244.841187 92.0
245.031204 152.0
245.080566 1424.0
245.280502 184.0
245.345963 172.0
245.398972 52.0
245.529938 76.0
245.760773 76.0
245.966751 156.0
246.089523 12108.0
246.147827 120.0
246.169205 104.0
246.33522 72.0
246.394043 188.0
246.516434 80.0
246.566437 128.0
246.75087 164.0
246.803055 52.0
246.910339 76.0
246.988541 48.0
247.024506 144.0
247.05423 116.0
247.095383 2044.0
247.136368 236.0
247.251358 136.0
247.551895 84.0
247.666336 184.0
247.721024 132.0
247.865143 56.0
248.018707 96.0
248.059464 124.0
248.105804 2892.0
248.159775 124.0
248.225632 28.0
248.260712 64.0
248.342026 352.0
248.391846 44.0
248.43576 64.0
248.489105 48.0
248.689941 40.0
248.801147 140.0
248.868881 72.0
248.96936 72.0
249.000763 144.0
249.074356 208.0
249.110596 844.0
249.377792 88.0
249.465805 140.0
249.56955 44.0
249.623016 104.0
249.767685 112.0
249.915543 148.0
250.089142 240.0
250.112823 332.0
250.26178 128.0
250.948639 72.0
251.011703 172.0
251.091599 168.0
252.255661 168.0
252.325211 88.0
253.078217 96.0
253.119385 156.0
253.173218 152.0
254.39711 52.0
255.16275 56.0
255.20726 132.0
257.405884 112.0
257.731689 52.0
257.944153 228.0
258.093353 408.0
258.534332 140.0
259.037018 120.0
259.099457 360.0
259.152344 200.0
259.902649 192.0
259.953979 156.0
260.024719 104.0
260.10553 8984.0
260.217194 76.0
260.274963 72.0
260.48053 112.0
260.519073 52.0
260.817932 84.0
260.872559 180.0
261.030121 196.0
261.077759 720.0
261.113617 9964.0
261.174133 148.0
261.255249 116.0
261.277771 132.0
261.35498 104.0
261.496582 76.0
261.602814 52.0
261.640289 56.0
261.792786 32.0
261.908722 48.0
261.940918 204.0
262.085693 1272.0
262.115387 1840.0
262.218018 32.0
262.537201 68.0
262.698456 160.0
262.860962 88.0
262.888824 60.0
262.959839 68.0
263.015839 92.0
263.095459 844.0
263.108978 280.0
263.115509 480.0
263.253632 136.0
263.356964 56.0
263.621887 92.0
263.644501 40.0
263.747925 48.0
263.950165 108.0
264.022156 172.0
264.100342 512.0
264.168304 96.0
264.200653 136.0
264.472473 68.0
264.566345 100.0
264.668518 116.0
264.763855 96.0
264.925812 108.0
265.02948 124.0
265.101776 296.0
265.119568 96.0
265.124817 252.0
265.282288 116.0
265.587097 48.0
265.759033 96.0
266.116577 124.0
266.333649 64.0
267.068237 56.0
267.924377 84.0
268.468689 44.0
270.284943 104.0
272.577026 84.0
272.757782 124.0
274.084351 300.0
274.113739 104.0
274.529114 116.0
274.651123 196.0
274.746796 208.0
275.088684 164.0
275.139526 208.0
275.81012 96.0
276.005188 192.0
276.100128 5892.0
276.213531 108.0
276.345856 144.0
276.511322 76.0
276.676819 116.0
276.845703 128.0
276.981476 76.0
277.056183 116.0
277.106689 3844.0
277.190216 60.0
277.302887 68.0
277.546906 112.0
277.760468 92.0
277.879639 52.0
278.107422 324.0
278.148682 40.0
278.218414 40.0
278.537201 72.0
278.620239 40.0
278.703308 40.0
278.82959 80.0
278.942596 52.0
279.048981 128.0
279.074188 104.0
279.119324 436.0
279.654419 60.0
280.010681 188.0
280.040649 68.0
280.131256 500.0
280.760529 44.0
281.120819 116.0
281.651672 76.0
282.343536 128.0
282.878876 52.0
287.267639 144.0
288.912811 144.0
289.010925 52.0
289.088043 184.0
289.247833 100.0
289.27832 108.0
289.765961 92.0
289.87439 100.0
290.023529 36.0
290.115143 888.0
290.915649 176.0
291.114716 272.0
291.262024 48.0
291.479462 136.0
291.68338 44.0
291.839752 100.0
292.131714 3264.0
292.226013 156.0
292.319366 100.0
292.870911 124.0
293.134979 932.0
293.201385 48.0
294.139343 148.0
294.25885 44.0
294.754089 108.0
294.860046 88.0
295.26004 96.0
295.482391 72.0
302.783478 52.0
304.014191 56.0
306.81073 80.0
307.144409 476.0
307.833038 76.0
308.157898 120.0
309.858276 72.0
310.348938 44.0
310.899689 124.0
311.173492 124.0
312.087006 84.0
315.814575 132.0
315.920685 148.0
316.816345 76.0
317.727448 64.0
319.037903 40.0
320.115997 124.0
321.656219 36.0
330.179016 28.0
330.399658 116.0
332.348907 68.0
335.593353 68.0
337.73703 52.0
340.32431 96.0
342.50882 180.0
345.413849 28.0
347.391968 64.0
349.111664 76.0
349.942871 52.0
355.905212 40.0
359.020996 76.0
364.498688 44.0
373.286987 60.0
373.852478 44.0
379.996368 144.0
380.248596 64.0
385.467072 56.0
388.144531 96.0
395.583069 112.0
402.924408 108.0
403.55188 92.0
403.835815 112.0
411.733429 92.0
414.455872 48.0
418.998322 96.0
422.84079 68.0
430.194336 120.0
443.110809 56.0
445.822571 84.0
447.981049 40.0
451.184113 48.0
455.464172 52.0
460.502991 136.0
461.041321 80.0
464.080566 108.0
477.684937 124.0
479.74472 52.0
483.518646 28.0
489.894226 104.0
500.564026 60.0
511.312775 92.0
514.711792 92.0
514.87439 88.0
516.343201 84.0
524.971985 48.0
525.460022 112.0
527.149475 64.0
533.708984 76.0
534.624451 60.0
537.384583 76.0
538.797363 96.0
540.55896 36.0
551.203186 64.0
557.891418 52.0
558.784973 64.0
560.032471 76.0
563.589539 40.0
572.736145 60.0
574.490356 84.0
574.929321 60.0
579.237244 76.0
579.912842 60.0
584.253784 96.0
587.336792 76.0
590.432739 36.0
605.554565 60.0
610.772095 88.0
611.593811 72.0
614.343445 52.0
619.242004 100.0
625.070251 68.0
630.401001 124.0
632.661743 68.0
632.87207 72.0
636.18103 76.0
648.134277 100.0
660.239746 92.0
679.256165 92.0
680.262878 220.0
684.182617 40.0
687.268066 104.0
696.912781 92.0
702.767822 192.0
703.981873 176.0
713.923584 76.0
716.244141 32.0
720.282043 92.0
723.512024 60.0
731.171753 48.0
733.051208 76.0
733.644104 80.0
738.801514 200.0
742.652954 124.0
748.564453 76.0
749.001587 108.0
761.483398 36.0
765.751404 148.0
767.305359 52.0
778.754639 208.0
782.675293 100.0
804.558777 56.0
806.767639 164.0
814.599304 84.0
817.766479 184.0
820.529297 88.0
824.92511 220.0
838.724792 100.0
844.354187 88.0
852.470398 152.0
858.349792 420.0
863.126282 96.0
865.138977 136.0
865.736206 44.0
871.490662 68.0
872.495667 220.0
878.378662 140.0
906.711304 64.0
906.909119 156.0
908.43219 116.0
911.746582 156.0
911.788635 68.0
912.834656 136.0
918.574402 208.0
919.956299 56.0
923.104126 132.0
930.344604 148.0
932.452332 164.0
935.39624 180.0
935.457153 92.0
935.499756 48.0
938.405762 136.0
938.533813 164.0
938.576477 108.0
939.674377 172.0
941.54834 148.0
948.646057 188.0
956.539734 164.0
973.418457 248.0
981.994263 128.0
982.936279 200.0
983.173401 168.0
983.398071 56.0
983.454285 152.0
983.660278 248.0
983.716431 172.0
987.834534 156.0
988.366333 220.0
988.729309 116.0
989.824829 148.0
990.883362 144.0
991.108887 188.0
997.497864 216.0
1000.35376 168.0
1000.970764 180.0
1001.493469 188.0
1004.853455 144.0
1006.860779 72.0
1007.732544 232.0
1010.046326 180.0
1011.995483 148.0
1012.312134 180.0
1013.23053 168.0
1013.946594 140.0
1014.612122 132.0
1016.254822 96.0
1016.388062 184.0
1016.648193 144.0
1018.463989 144.0
1023.494446 116.0
1023.816833 160.0
1024.099487 164.0
1024.628174 144.0
1026.221558 148.0
1027.133545 204.0
1029.59082 240.0
1032.453857 180.0
1033.592529 80.0
1035.929443 160.0
1036.698242 192.0
1037.037964 76.0
1037.896973 100.0
1039.109253 144.0
1039.699585 156.0
1040.469849 148.0
1040.822998 176.0
1043.483032 208.0
1045.766724 156.0
1054.034302 200.0
1057.714355 124.0
1058.925049 252.0
1060.849609 80.0
1061.134766 228.0
1061.692505 144.0
1062.230835 144.0
1064.275146 180.0
1069.606079 172.0
1070.224609 124.0
1071.664062 156.0
1072.387329 100.0
1072.973999 116.0
1073.96521 144.0
1075.929443 40.0
1076.856689 192.0
1077.509888 48.0
1079.143921 188.0
1079.444702 196.0
1080.56311 140.0
1081.904785 148.0
1083.961426 216.0
1085.298584 152.0
1086.938477 156.0
1089.518799 144.0
1089.755249 140.0
1090.464966 196.0
1092.746826 152.0
1093.714233 108.0
1098.959961 92.0
1100.715698 168.0
1101.369507 240.0
1104.615112 160.0
1111.525269 128.0
1113.423828 184.0
1115.689697 200.0
1116.733765 132.0
1118.630127 156.0
1124.575806 200.0
1124.942993 168.0
1125.036377 148.0
1126.11145 152.0
1126.418701 128.0
1126.89978 200.0
1128.490967 168.0
1128.777954 148.0
1131.005859 40.0
1132.532471 64.0
1134.844482 124.0
1134.938354 164.0
1138.441162 128.0
1139.80481 148.0
1140.073608 176.0
1140.241577 164.0
1146.177002 148.0
1146.709473 148.0
1147.100342 148.0
1147.289185 148.0
1148.455688 100.0
1149.022339 96.0
1149.514893 220.0
1150.419312 168.0
1150.973022 136.0
1152.073853 188.0
1152.553589 156.0
1154.79126 184.0
1156.90918 60.0
1164.843384 168.0
1165.176147 128.0
1170.624512 180.0
1172.422974 184.0
1172.791016 160.0
1173.172729 176.0
1174.130737 204.0
1176.310669 196.0
1177.239258 108.0
1177.949585 144.0
1178.912964 96.0
1180.259521 232.0
1180.963989 184.0
1181.087036 128.0
1181.798584 144.0
1182.503418 120.0
1184.235596 180.0
1185.633301 124.0
1186.606689 100.0
1187.505005 108.0
1187.772461 124.0
1189.124146 220.0
1189.281738 168.0
1189.529175 220.0
1189.810547 140.0
1192.393311 108.0
1192.640747 108.0
1192.860718 140.0
1193.032593 120.0
1194.449219 48.0
1196.954346 212.0
1200.027466 184.0
1200.186035 264.0
1200.248047 148.0
1200.813599 132.0
1201.234375 132.0
1201.616211 232.0
1202.831177 164.0
1204.167847 140.0
1204.858643 180.0
1205.791504 156.0
1206.585327 176.0
1206.825928 192.0
1208.059448 148.0
1211.80481 104.0
1213.260254 120.0
1214.848389 152.0
1216.965088 164.0
1217.541504 128.0
1217.604004 52.0
1221.76062 224.0
1222.094604 252.0
1222.317261 96.0
1223.152466 148.0
1224.043579 124.0
1224.218384 212.0
1224.265625 176.0
1226.112549 152.0
1227.227905 68.0
1227.897339 152.0
1227.946167 52.0
1229.306641 184.0
1231.114624 152.0
1231.528687 128.0
1232.441895 208.0
1232.958984 32.0
1233.476196 180.0
1235.497192 80.0
1235.637085 132.0
1235.836792 200.0
1236.672729 128.0
1237.512817 104.0
1238.381226 228.0
1240.651489 132.0
1240.77771 148.0
1241.913696 168.0
1242.51001 140.0
1242.86084 200.0
1243.387085 200.0
1243.618774 52.0
1244.025879 188.0
1245.036987 172.0
1245.844727 224.0
1246.06958 128.0
1247.341553 184.0
1248.508667 200.0
1249.317505 116.0
1250.45752 104.0
1253.845093 200.0
1254.275024 164.0
1254.824341 156.0
1254.916504 132.0
1257.844238 180.0
1257.900757 132.0
1258.832764 60.0
1259.644897 44.0
1259.708496 60.0
1261.043945 148.0
1264.318481 148.0
1264.792725 164.0
1265.614014 108.0
1266.15918 144.0
1268.958252 136.0
1269.100098 160.0
1269.497192 124.0
1270.43335 180.0
1278.099487 192.0
1278.44104 188.0
1278.490845 180.0
1279.344971 56.0
1280.234985 128.0
1280.562622 144.0
1281.331909 188.0
1283.548584 156.0
1284.568481 68.0
1285.76001 96.0
1286.809326 180.0
1287.28064 88.0
1288.216309 180.0
1288.380615 116.0
1288.502075 68.0
1289.295166 216.0
1290.109985 204.0
1291.827881 152.0
1292.820923 124.0
1293.092773 108.0
1295.348267 200.0
1295.563232 164.0
1295.684937 140.0
1295.88562 148.0
1296.391235 192.0
1296.666626 76.0
1297.577026 168.0
1298.043091 172.0
1299.563721 228.0
1300.109131 88.0
1301.106812 216.0
1301.573486 232.0
1302.851929 192.0
1304.066406 204.0
1305.072754 124.0
1306.165894 112.0
1306.619141 92.0
1307.626587 220.0
1309.534546 212.0
1310.643921 116.0
1310.968262 216.0
1311.905151 180.0
1313.022827 76.0
1314.516113 156.0
1316.458008 188.0
1317.548706 172.0
1320.29541 256.0
1321.4021 220.0
1322.096802 192.0
1322.864014 192.0
1323.13916 144.0
1323.47937 176.0
1324.384644 180.0
1324.790283 172.0
1325.101807 184.0
1325.326416 128.0
1326.536743 120.0
1328.306152 144.0
1328.501953 160.0
1330.091187 128.0
1330.417847 212.0
1330.817139 128.0
1331.434326 168.0
1331.855591 180.0
1332.029907 116.0
1332.088135 116.0
1332.487671 184.0
1332.945435 184.0
1334.486328 148.0
1334.740845 92.0
1335.657227 144.0
1336.260986 172.0
1336.624756 140.0
1337.025024 216.0
1337.105103 132.0
1337.614624 168.0
1339.981445 80.0
1341.016235 136.0
1341.110962 144.0
1341.234863 92.0
1341.956543 220.0
1342.685791 100.0
1343.342285 128.0
1343.838379 168.0
1343.903931 144.0
1344.502319 148.0
1345.086304 164.0
1345.925903 124.0
1346.729126 140.0
1346.911743 140.0
1347.854248 216.0
1348.687378 220.0
1350.509155 124.0
1351.671265 136.0
1352.542114 52.0
1352.834961 160.0
1353.406006 136.0
1353.501221 144.0
1354.130981 172.0
1354.621704 152.0
1354.702271 256.0
1356.211792 176.0
1356.402344 28.0
1356.746948 132.0
1357.575439 224.0
1357.751465 156.0
1358.05957 164.0
1358.323608 184.0
1358.396973 120.0
1358.734375 188.0
1359.064575 196.0
1359.61499 152.0
1360.312256 156.0
1360.415039 80.0
1361.303345 72.0
1362.273926 152.0
1362.456543 172.0
1362.831299 188.0
1363.353027 192.0
1364.783813 148.0
1365.757202 228.0
1366.125 136.0
1367.199219 236.0
1367.30957 200.0
1367.559814 212.0
1367.920532 140.0
1369.496338 116.0
1369.989868 164.0
1370.483398 168.0
1371.367798 160.0
1371.419312 60.0
1371.817383 36.0
1372.156494 152.0
1373.483887 344.0
1373.591431 160.0
1374.096191 124.0
1374.760376 176.0
1375.026001 140.0
1375.826538 220.0
1377.108032 184.0
1377.684204 152.0
1377.868896 116.0
1378.30481 56.0
1379.317383 136.0
1380.354248 188.0
1382.20166 228.0
1382.371826 68.0
1383.904053 200.0
1384.607544 128.0
1385.214966 200.0
1385.66687 32.0
1385.748291 88.0
1386.55603 124.0
1387.126831 200.0
1387.682739 244.0
1388.075806 112.0
1390.368042 132.0
1391.140015 148.0
1391.756226 120.0
1392.617676 148.0
1392.714233 156.0
1393.709717 152.0
1393.977173 412.0
1394.541992 140.0
1395.393555 176.0
1395.671997 180.0
1395.805786 72.0
1395.865356 60.0
1395.976929 204.0
1396.48999 240.0
1396.713135 160.0
1397.085083 168.0
1397.204102 188.0
1397.427368 176.0
1398.506348 144.0
1399.578369 64.0
1400.472046 116.0
1400.576294 172.0
1401.805664 140.0
1402.774536 120.0
1403.930176 204.0
1404.705933 152.0
1405.422119 212.0
1405.489258 100.0
1405.728027 172.0
1408.169312 148.0
1409.095581 84.0
1410.077881 208.0
1410.186646 116.0
1411.614502 56.0
1412.108032 220.0
1412.646606 132.0
1412.702637 212.0
1413.207764 228.0
1413.342407 188.0
1414.203003 224.0
1414.427612 224.0
1414.682129 120.0
1414.824341 228.0
1415.131348 56.0
1415.57312 148.0
1416.09729 140.0
1416.844971 168.0
1417.453247 148.0
1417.610718 248.0
1418.22522 160.0
1420.512207 244.0
1420.969849 124.0
1421.209961 76.0
1421.57019 212.0
1421.997925 176.0
1422.118042 60.0
1422.635986 140.0
1422.71106 140.0
1423.191528 120.0
1423.589478 172.0
1425.377319 208.0
1425.677979 200.0
1425.918457 120.0
1425.971069 152.0
1427.692627 204.0
1427.775391 148.0
1429.626099 140.0
1429.754028 160.0
1430.077637 208.0
1430.476562 140.0
1431.252075 152.0
1431.959961 212.0
1432.297974 160.0
1432.615234 180.0
1433.421387 160.0
1434.657471 156.0
1435.094727 132.0
1435.645264 144.0
1435.720703 188.0
1437.033203 364.0
1437.848145 120.0
1437.953857 164.0
1438.225464 148.0
1439.282471 68.0
1439.856323 156.0
1439.962158 216.0
1440.664551 164.0
1442.773071 100.0
1442.954468 196.0
1443.007446 252.0
1443.846802 220.0
1444.217407 48.0
1444.936035 140.0
1445.109985 160.0
1445.760742 68.0
1445.942383 176.0
1446.646362 152.0
1446.812866 212.0
1446.94165 152.0
1447.630615 180.0
1448.388062 192.0
1448.569824 236.0
1449.39563 148.0
1449.901855 216.0
1449.986694 196.0
1450.509766 144.0
1451.161621 104.0
1451.646973 120.0
1451.973755 196.0
1453.308105 136.0
1453.869751 176.0
1454.013916 108.0
1454.302246 184.0
1454.810913 176.0
1454.962769 56.0
1455.577759 240.0
1456.16626 120.0
1456.618164 160.0
1456.937256 120.0
1458.233887 164.0
1459.46814 144.0
1460.084106 160.0
1460.449219 200.0
1461.088135 176.0
1461.453369 228.0
1462.396973 124.0
1463.01355 208.0
1463.295288 136.0
1463.470459 68.0
1463.53894 128.0
1464.589844 180.0
1464.993652 208.0
1465.709839 148.0
1466.205078 156.0
1467.668701 432.0
1467.783081 132.0
1467.897461 72.0
1467.981445 180.0
1468.088135 160.0
1468.700562 68.0
1469.056763 184.0
1469.827393 84.0
1470.239502 120.0
1471.407349 236.0
1472.270142 216.0
1472.80481 152.0
1473.151733 184.0
1473.990112 184.0
1474.195312 180.0
1474.722656 160.0
1475.227173 184.0
1475.318848 168.0
1475.632324 120.0
1476.504028 136.0
1479.411621 192.0
1479.51123 184.0
1480.177368 176.0
1481.303101 200.0
1482.533447 160.0
1483.249512 168.0
1483.924072 180.0
1485.803345 156.0
1486.148438 160.0
1486.30188 148.0
1486.785278 104.0
1486.908081 152.0
1487.97998 252.0
1488.243774 180.0
1488.405029 252.0
1489.510986 184.0
1489.626221 208.0
1490.322998 200.0
1490.694214 164.0
1490.901611 140.0
1491.109131 168.0
1491.954712 160.0
1492.639038 168.0
1493.592651 152.0
1495.8396 200.0
1496.319092 140.0
1497.002075 184.0
1497.094604 128.0
1497.187012 120.0
1497.556641 140.0
1497.810791 96.0
1497.872437 144.0
1498.558105 176.0
1499.336426 152.0
1499.529053 176.0
1499.968384 100.0
1500.222778 160.0
1500.577393 204.0
1500.824097 40.0
1501.317627 192.0
1502.420654 120.0
1503.848267 164.0
1504.21106 212.0
