>compound Levosimendan
>formula C14H12N6O
>ionization [M+H]+
>parentmass 281.114105
#inchi InChI=1S/C14H12N6O/c1-9-6-13(21)19-20-14(9)10-2-4-11(5-3-10)17-18-12(7-15)8-16/h2-5,9,17H,6H2,1H3,(H,19,21)/t9-/m1/s1
#inchikey WHXMKTBCFHIYNQ
#Ion_Source LC-ESI
#Instrument qTof
#Compound_Source Commercial
#PI Dorrestein
#Data_Collector Garg_Neha
#Scan -1
#Precursor_MZ 281.115
#ExactMass 280.107
#Charge 1
#CAS_Number 141505-33-1
#Pubmed_ID N/A
#Smiles C(C(C#N)=NNC1C=CC(=CC=1)C2[C@@H](CC(NN=2)=O)C)#N
#INCHI_AUX N/A
#Library_Class 1
#SpectrumID CCMSLIB00000078469
#IonMode Positive
#UpdateWorkflowName UPDATE-SINGLE-ANNOTATED-GOLD
#LibraryQualityString Gold
#TaskID 77f51c88eb8b467eb4a01dd2d0cb90d2
##Scan# 1214
#SpectrumFile Plate7_41_60_GD4_01_15769.mzXML
#LibraryName FDALibrary_2_04302014.mgf
#MQScore -1
#Organism FDALibrary_2_04302014
#TIC_Query 0
#RT_Query -1
#MZErrorPPM -1
#SharedPeaks 0
#MassDiff 0
#LibMZ -1
#SpecMZ 281.115
#SpecCharge 0
#internalFilename spec-00000.mgf

>collision 10
45.548847 192.0
46.168861 176.0
47.481796 140.0
50.298302 176.0
52.136944 116.0
53.272919 140.0
61.956745 148.0
63.349422 160.0
65.034966 200.0
73.192307 140.0
75.258568 204.0
78.396904 144.0
79.697556 172.0
79.998123 164.0
84.068344 140.0
89.069748 156.0
89.408188 160.0
89.671867 180.0
89.937813 152.0
91.064423 216.0
93.053177 176.0
94.292953 172.0
95.334686 156.0
95.72081 204.0
97.043678 144.0
98.450653 140.0
100.162346 168.0
100.59507 172.0
101.840584 160.0
103.054337 204.0
104.052299 224.0
105.040924 196.0
106.83754 208.0
107.058708 324.0
107.969963 164.0
108.064941 180.0
109.320534 144.0
111.053459 700.0
112.379967 140.0
114.032295 208.0
115.047844 160.0
116.046982 152.0
116.066284 184.0
117.05452 528.0
117.675751 236.0
118.064697 628.0
118.287575 156.0
119.03775 192.0
119.064873 384.0
120.040947 172.0
120.069359 144.0
120.095467 164.0
120.667618 204.0
121.072662 188.0
121.912056 168.0
122.084137 416.0
125.169052 140.0
126.023369 144.0
128.062592 204.0
129.064972 196.0
129.984268 236.0
130.041016 184.0
130.06427 452.0
130.775162 172.0
131.06424 348.0
131.707748 152.0
132.068192 588.0
133.040512 216.0
133.075699 528.0
134.074997 140.0
135.086853 296.0
139.588547 196.0
140.051102 148.0
140.743179 140.0
141.058258 156.0
142.06189 416.0
143.070679 536.0
143.092926 192.0
144.079117 516.0
145.056335 156.0
145.075012 1364.0
146.082794 784.0
147.082016 160.0
148.106232 176.0
148.696579 160.0
150.334473 160.0
151.775299 168.0
152.462662 168.0
153.269821 180.0
154.072327 172.0
154.581039 160.0
155.057022 264.0
156.066483 424.0
157.074615 552.0
157.107971 228.0
158.080765 1412.0
159.089417 604.0
160.047501 156.0
160.086823 2136.0
161.069702 256.0
161.105377 2156.0
161.150208 184.0
161.193161 140.0
162.110367 392.0
162.999939 152.0
165.128677 188.0
165.625229 164.0
167.060165 180.0
168.063187 200.0
169.049835 484.0
169.761948 176.0
170.032227 176.0
170.072983 584.0
171.052338 344.0
171.068542 464.0
171.131348 164.0
172.076233 192.0
173.080643 120.0
174.100159 1624.0
175.058945 156.0
175.083527 540.0
175.108414 2112.0
175.504547 176.0
175.831665 160.0
176.092178 768.0
176.994843 144.0
177.108719 172.0
179.028992 144.0
180.069107 188.0
181.073013 116.0
182.075012 172.0
183.063232 240.0
184.088394 844.0
184.724731 196.0
185.076492 316.0
185.640198 168.0
186.072815 344.0
186.101501 144.0
187.084045 576.0
187.933334 144.0
188.080292 2304.0
188.597839 184.0
189.086533 164.0
190.202103 192.0
192.086411 412.0
192.222244 140.0
194.070007 148.0
194.902725 156.0
195.064362 484.0
195.316971 200.0
196.058228 688.0
197.061142 316.0
197.083557 352.0
198.055038 144.0
198.07637 300.0
198.472855 148.0
199.098648 144.0
200.102509 148.0
201.046814 160.0
201.108917 188.0
202.04834 340.0
202.098175 628.0
202.536835 160.0
202.743668 200.0
203.104156 11112.0
204.074997 144.0
204.106476 2236.0
205.059967 280.0
205.104919 140.0
205.145493 140.0
205.355072 120.0
205.463272 100.0
205.493423 160.0
207.034164 152.0
207.056702 152.0
207.885605 156.0
208.07135 296.0
209.08107 836.0
210.081055 144.0
211.075272 204.0
211.101166 172.0
211.259644 148.0
212.086639 292.0
213.089676 124.0
214.09549 140.0
215.09346 100.0
217.01181 176.0
217.736618 168.0
220.083237 668.0
221.082809 324.0
223.090393 360.0
224.061066 152.0
224.09877 228.0
226.095749 324.0
227.099014 160.0
229.107574 1764.0
230.102692 268.0
233.820969 144.0
234.884354 200.0
235.088776 140.0
235.772858 152.0
236.092346 1612.0
237.070068 128.0
237.089493 460.0
237.245163 180.0
238.087708 116.0
239.097534 160.0
240.583099 140.0
243.397522 204.0
244.538452 148.0
244.896515 148.0
246.075302 148.0
248.32843 172.0
249.062103 124.0
253.020615 252.0
253.118073 5868.0
253.245438 144.0
254.119507 412.0
255.12561 140.0
257.111633 184.0
264.083954 760.0
264.310181 156.0
265.082855 1600.0
266.084656 628.0
267.103241 116.0
276.547424 144.0
279.193726 304.0
279.387939 180.0
280.104309 320.0
280.166992 160.0
280.193634 148.0
280.922058 184.0
280.997131 140.0
281.036652 128.0
281.114105 62608.0
281.234802 100.0
281.636627 136.0
281.793335 204.0
281.889771 132.0
282.116516 8708.0
282.16275 172.0
282.249939 148.0
282.279633 96.0
283.115631 880.0
283.809631 96.0
283.949554 108.0
284.076569 112.0
284.885742 104.0
285.832184 152.0
1332.479614 188.0
1566.090332 308.0
1572.753174 148.0
1592.079712 156.0
1629.552124 156.0
1653.963501 164.0
1659.634644 156.0
1693.930176 196.0
1709.563232 184.0
1720.022339 224.0
1720.988281 156.0
1838.372925 208.0
1865.92041 160.0
1876.5448 152.0
1932.009033 140.0
1986.976562 180.0
