>compound MLS002639146-01!5-hydroxy-2-phenylchromen-4-one
>formula C15H10O3
>ionization [M+H]+
>parentmass 239.070465
#inchi InChI=1S/C15H10O3/c16-11-7-4-8-13-15(11)12(17)9-14(18-13)10-5-2-1-3-6-10/h1-9,16H
#inchikey IYBLVRRCNVHZQJ
#Ion_Source LC-ESI
#Instrument qTof
#Compound_Source NIH Natural Product Library
#PI Dorrestein
#Data_Collector VVP/LMS
#Scan -1
#Precursor_MZ 239.071
#ExactMass 238.063
#Charge 1
#CAS_Number N/A
#Pubmed_ID N/A
#Smiles Oc1cccc2oc(cc(=O)c12)c3ccccc3
#INCHI_AUX N/A
#Library_Class 1
#SpectrumID CCMSLIB00000079818
#IonMode Positive
#UpdateWorkflowName UPDATE-SINGLE-ANNOTATED-GOLD
#LibraryQualityString Gold
#TaskID b1d8e8f6646f4e71acdff9ca3d919d08
##Scan# 2465
#SpectrumFile p1-E11_GE11_01_17931.mzXML
#LibraryName NIH_Natural_Products_Library.mgf
#MQScore -1
#Organism NIH_Natural_Products_Library
#TIC_Query 0
#RT_Query -1
#MZErrorPPM -1
#SharedPeaks 0
#MassDiff 0
#LibMZ -1
#SpecMZ 239.071
#SpecCharge 0
#internalFilename spec-00000.mgf

>collision 10
94.963509 120.0
95.013084 120.0
95.163383 120.0
95.196396 140.0
95.237175 176.0
95.329735 56.0
95.394569 248.0
95.489845 76.0
95.744797 156.0
96.039085 120.0
96.052742 260.0
96.183479 172.0
96.327972 116.0
96.402222 132.0
96.48822 216.0
96.746452 128.0
96.881577 208.0
97.232559 156.0
97.263962 160.0
97.293411 208.0
97.485893 156.0
97.633331 224.0
97.881279 160.0
97.914757 200.0
98.044785 104.0
98.101944 160.0
98.147285 60.0
98.178833 136.0
98.212364 160.0
98.364296 196.0
98.415627 40.0
98.457092 84.0
98.52623 96.0
98.63028 208.0
98.909859 180.0
98.985092 108.0
98.998955 152.0
99.038567 136.0
99.070259 276.0
99.099976 164.0
99.119789 152.0
99.282341 132.0
99.32399 120.0
99.38662 140.0
99.572083 224.0
99.750908 124.0
100.130936 204.0
100.477776 188.0
100.611488 64.0
100.649422 168.0
100.815216 92.0
100.97715 188.0
101.095184 44.0
101.223297 124.0
101.239319 172.0
101.263351 180.0
101.337471 176.0
101.377541 136.0
101.405602 192.0
101.485786 112.0
101.515862 152.0
101.622169 292.0
101.814873 140.0
101.961533 224.0
102.048332 1156.0
102.170647 176.0
102.508904 184.0
102.583473 72.0
102.597588 168.0
102.706474 136.0
102.813408 188.0
102.901375 200.0
102.936546 168.0
102.987427 188.0
103.022278 240.0
103.054329 9332.0
103.257866 60.0
103.342827 140.0
103.468857 176.0
103.644516 72.0
103.780319 112.0
103.80262 128.0
103.942581 144.0
103.968964 180.0
104.057106 1416.0
104.237015 112.0
104.50338 132.0
104.633636 44.0
104.735451 44.0
104.82917 68.0
104.886238 92.0
104.957588 280.0
105.033478 760.0
105.31881 220.0
105.396439 152.0
105.674507 144.0
105.746124 104.0
105.830055 68.0
105.88739 116.0
105.989822 124.0
106.0392 204.0
106.211227 96.0
106.556107 112.0
106.574593 136.0
106.809395 168.0
106.932411 268.0
107.012817 644.0
107.251656 100.0
107.28051 84.0
107.381546 216.0
107.395988 96.0
107.521835 204.0
107.684937 196.0
107.709724 168.0
107.755173 168.0
107.829559 96.0
107.901909 116.0
107.941193 136.0
108.022644 188.0
108.199821 92.0
108.276436 52.0
108.498146 96.0
108.664062 32.0
108.987961 256.0
109.028641 1176.0
109.100189 152.0
109.289444 192.0
109.362282 112.0
109.435143 84.0
109.455963 188.0
109.583015 144.0
109.610107 216.0
109.645531 160.0
109.710144 180.0
109.735161 164.0
109.793549 112.0
109.92289 148.0
110.028175 216.0
110.043945 148.0
110.162987 40.0
110.206863 56.0
110.344093 164.0
110.476555 212.0
110.702599 192.0
111.184761 124.0
111.373718 76.0
111.443047 180.0
111.480865 176.0
111.543922 48.0
111.720558 208.0
111.769409 220.0
111.783089 172.0
111.859016 136.0
111.996315 80.0
112.198608 136.0
112.215477 96.0
112.28717 160.0
112.320915 160.0
112.519279 176.0
112.591072 164.0
112.740479 216.0
112.791786 180.0
113.039169 132.0
113.087906 132.0
113.225525 36.0
113.250938 120.0
113.437401 128.0
113.477684 164.0
113.575798 196.0
113.607048 232.0
113.640991 184.0
113.963722 148.0
114.037086 92.0
114.05085 136.0
114.214577 168.0
114.314369 216.0
114.403961 172.0
114.587105 156.0
114.610542 200.0
114.732025 144.0
114.823715 148.0
115.009338 200.0
115.055313 1648.0
115.145981 200.0
115.186562 160.0
115.229286 156.0
115.250656 68.0
115.292343 212.0
115.316902 84.0
115.458 152.0
115.59864 232.0
115.770447 176.0
115.918007 136.0
116.003342 200.0
116.056015 404.0
116.139076 76.0
116.420227 80.0
116.682365 48.0
116.804939 104.0
117.194603 200.0
117.220459 180.0
117.302353 92.0
117.365891 144.0
117.528801 180.0
117.63887 32.0
117.71228 152.0
117.764107 156.0
117.779228 216.0
117.947762 196.0
118.112099 256.0
118.198631 128.0
118.254898 144.0
118.337158 108.0
118.599281 156.0
118.642632 164.0
118.657806 236.0
118.787926 172.0
118.829147 168.0
118.866028 136.0
118.957184 152.0
119.011238 404.0
119.061401 164.0
119.230858 96.0
119.650665 136.0
119.944183 140.0
120.012329 208.0
120.263199 176.0
120.322136 76.0
120.861984 144.0
120.886055 144.0
121.026146 356.0
121.05899 152.0
121.286041 176.0
121.378922 176.0
121.57196 172.0
121.694878 92.0
122.021774 208.0
122.055222 84.0
122.143188 108.0
122.173988 164.0
122.217987 108.0
122.23999 152.0
122.323624 148.0
122.596733 92.0
122.682693 136.0
122.737816 164.0
122.872116 188.0
123.009171 152.0
123.403702 232.0
123.510765 128.0
123.625816 176.0
123.931389 168.0
124.19519 72.0
124.290588 180.0
124.399338 184.0
124.417091 152.0
124.492584 44.0
124.590317 132.0
124.621422 140.0
125.041695 180.0
125.092888 148.0
125.511734 104.0
125.632172 92.0
125.984886 204.0
126.072487 156.0
126.347046 132.0
126.488029 108.0
126.593254 224.0
126.8666 232.0
127.041519 160.0
127.070686 152.0
127.086388 140.0
127.274559 144.0
127.353531 164.0
127.398453 136.0
127.830139 196.0
127.940422 144.0
128.019226 152.0
128.057343 232.0
128.296371 180.0
128.325668 48.0
128.379791 196.0
128.422638 184.0
128.573807 152.0
128.774734 124.0
128.878647 156.0
128.935135 176.0
129.007462 116.0
129.033997 7080.0
129.066635 284.0
129.145401 84.0
129.459976 224.0
129.56871 128.0
129.629883 208.0
129.661606 104.0
129.929169 236.0
130.034561 756.0
130.072128 164.0
130.142517 192.0
130.301498 76.0
130.358292 144.0
130.587906 72.0
130.690277 52.0
130.738068 188.0
130.922455 192.0
130.956619 116.0
131.002182 36.0
131.031799 132.0
131.109268 108.0
131.143448 176.0
131.168533 152.0
131.284805 144.0
131.407974 196.0
131.439926 176.0
131.547195 160.0
131.59996 176.0
131.864685 160.0
132.136795 72.0
132.212296 164.0
132.324463 260.0
132.35965 216.0
132.585587 196.0
132.743774 152.0
132.764404 132.0
132.812561 204.0
132.897446 220.0
133.023666 124.0
133.055817 172.0
133.110916 176.0
133.216568 76.0
133.260208 104.0
133.47168 116.0
133.536057 200.0
133.595871 144.0
133.823715 160.0
134.249985 184.0
134.41922 220.0
134.471466 208.0
134.665405 92.0
134.727768 220.0
134.834061 196.0
134.854858 188.0
135.044449 196.0
135.224915 116.0
135.39624 136.0
135.71138 220.0
135.771667 152.0
136.016022 316.0
136.050751 256.0
136.184784 136.0
136.221954 100.0
136.273056 144.0
136.307129 60.0
136.468292 164.0
136.495819 192.0
136.619461 180.0
136.796326 160.0
136.84201 172.0
136.909698 256.0
136.952332 124.0
136.988861 188.0
137.023575 34828.0
137.075806 104.0
137.096603 60.0
137.117355 144.0
137.138718 48.0
137.162033 128.0
137.215652 96.0
137.248154 136.0
137.266953 112.0
137.30426 64.0
137.327576 180.0
137.363098 152.0
137.434891 120.0
137.518906 168.0
137.600601 92.0
137.679993 172.0
137.708023 60.0
137.726028 56.0
137.794449 112.0
137.836502 136.0
137.920639 40.0
137.941666 64.0
137.97908 68.0
138.003738 216.0
138.026062 1968.0
138.077286 168.0
138.100677 100.0
138.198929 136.0
138.325302 88.0
138.344025 64.0
138.559479 120.0
138.680908 88.0
138.725861 180.0
138.756516 104.0
138.791504 84.0
138.834915 244.0
138.851547 80.0
138.911118 128.0
138.927536 116.0
138.951935 80.0
138.991547 152.0
139.029633 356.0
139.053833 15076.0
139.103531 80.0
139.131714 104.0
139.173965 72.0
139.192749 108.0
139.250595 48.0
139.272598 84.0
139.441772 136.0
139.514633 36.0
139.594574 96.0
139.754517 104.0
139.94281 40.0
140.004044 68.0
140.058044 2320.0
140.084122 196.0
140.18779 104.0
140.284424 52.0
140.384964 56.0
140.591034 100.0
140.6642 72.0
140.739746 120.0
140.777527 260.0
140.808228 128.0
140.90036 76.0
140.940521 196.0
140.973602 64.0
141.002502 140.0
141.023239 104.0
141.042145 140.0
141.069656 856.0
141.191086 48.0
141.221832 88.0
141.243118 120.0
141.394547 124.0
141.472656 168.0
142.069839 192.0
142.254944 92.0
142.345169 64.0
142.387909 104.0
142.43541 144.0
142.523315 252.0
142.822845 212.0
142.863297 136.0
143.156921 228.0
143.193832 152.0
143.542084 168.0
144.291794 140.0
144.576447 184.0
145.101013 72.0
145.120193 148.0
145.472855 220.0
145.587341 176.0
145.749039 60.0
145.934113 168.0
146.008652 176.0
146.172241 188.0
146.244431 152.0
146.763947 160.0
146.822662 184.0
146.936035 104.0
147.037369 172.0
147.071167 144.0
147.264313 132.0
147.49144 204.0
147.66069 168.0
147.970413 140.0
148.234558 160.0
148.309555 164.0
148.459869 48.0
148.532639 100.0
148.702484 148.0
148.891846 104.0
149.03273 64.0
149.249054 152.0
149.402283 84.0
149.487442 104.0
149.533676 204.0
149.660263 84.0
149.740616 76.0
149.847794 92.0
150.044815 388.0
150.228119 156.0
150.418457 44.0
150.452621 48.0
150.743271 152.0
151.055756 308.0
151.127167 128.0
151.687988 52.0
151.835098 128.0
152.062973 496.0
152.249847 84.0
152.424255 148.0
152.70697 140.0
152.903793 104.0
153.033127 552.0
153.068176 808.0
153.258392 216.0
153.319992 124.0
153.51474 144.0
153.657806 88.0
153.751572 152.0
153.92099 172.0
153.961411 76.0
154.037201 304.0
154.073715 368.0
154.225769 132.0
154.322174 156.0
154.529938 44.0
154.685852 132.0
155.034286 628.0
155.084473 608.0
155.11438 116.0
155.203629 148.0
155.256851 372.0
155.369797 144.0
155.429352 56.0
155.610535 44.0
156.040344 128.0
156.089188 304.0
156.321411 168.0
156.4832 48.0
156.861862 140.0
156.889282 220.0
157.06633 116.0
157.330841 132.0
157.387207 196.0
158.008118 92.0
158.837296 244.0
159.115845 128.0
159.221313 120.0
159.603271 80.0
159.86235 164.0
160.057465 204.0
160.194702 188.0
160.328232 220.0
160.547562 152.0
160.598007 176.0
160.64975 144.0
160.981613 128.0
161.198853 144.0
161.259506 164.0
161.621124 248.0
161.828674 136.0
162.183868 152.0
162.310089 184.0
162.774445 216.0
163.055984 860.0
163.285233 104.0
163.333557 140.0
163.463318 120.0
163.646576 144.0
163.893646 96.0
163.982834 148.0
164.06131 2352.0
164.253098 96.0
164.309219 172.0
164.646149 192.0
164.738098 148.0
164.771317 152.0
164.804535 52.0
164.822418 156.0
164.893967 152.0
164.96846 192.0
165.06958 25532.0
165.141968 76.0
165.188461 116.0
165.221268 72.0
165.251968 80.0
165.285233 68.0
165.312378 68.0
165.376892 44.0
165.413193 76.0
165.454147 28.0
165.492401 64.0
165.658676 236.0
165.705139 60.0
165.989639 160.0
166.007156 144.0
166.072357 3232.0
166.318024 64.0
166.490036 112.0
166.633881 56.0
166.800919 36.0
166.82663 140.0
167.004059 108.0
167.049316 172.0
167.076981 460.0
167.199585 104.0
167.220169 84.0
167.287094 60.0
167.356613 168.0
167.43129 104.0
167.50856 132.0
167.552353 72.0
167.639954 104.0
167.789444 92.0
168.056854 2024.0
168.357101 112.0
168.403595 68.0
168.439758 76.0
168.499161 84.0
168.876572 204.0
169.061874 828.0
169.106842 68.0
169.192261 36.0
169.218781 116.0
169.368347 152.0
170.034683 136.0
170.061829 148.0
170.089188 176.0
170.247559 144.0
170.265747 128.0
170.328079 92.0
170.4216 140.0
170.741333 244.0
171.044373 172.0
171.113434 28.0
171.201965 152.0
172.428101 92.0
172.616333 140.0
172.768021 172.0
173.955124 104.0
174.028641 172.0
174.104782 160.0
174.566422 60.0
175.011993 196.0
175.050095 244.0
175.285919 180.0
175.341263 124.0
175.459885 96.0
175.478333 208.0
175.557434 132.0
175.60228 128.0
176.063782 568.0
176.320389 220.0
176.402328 68.0
176.672058 76.0
176.781693 156.0
176.809647 136.0
176.896988 132.0
177.209488 184.0
177.390076 220.0
177.477188 152.0
177.620392 184.0
177.69812 200.0
177.896362 192.0
177.968048 40.0
178.058334 200.0
178.078323 232.0
178.252258 76.0
178.967773 200.0
179.058304 116.0
179.172852 64.0
179.24852 184.0
179.460693 188.0
179.559357 160.0
179.898224 244.0
179.984192 20.0
180.058426 192.0
180.224045 152.0
180.280151 168.0
180.43251 56.0
180.47261 128.0
181.067642 264.0
182.062622 172.0
182.161011 144.0
182.263092 88.0
182.496933 180.0
182.574921 128.0
182.722855 152.0
183.043152 140.0
183.079514 428.0
183.307129 120.0
183.800583 128.0
183.827576 84.0
183.881546 132.0
184.205551 128.0
184.705627 76.0
184.738083 160.0
185.702377 100.0
185.871384 176.0
186.049698 164.0
186.101288 144.0
186.563141 180.0
186.677338 248.0
186.93576 88.0
187.050079 180.0
187.684845 108.0
188.094681 88.0
188.225113 136.0
188.60759 176.0
188.763412 204.0
189.009598 148.0
189.055969 148.0
189.083481 204.0
189.398346 128.0
189.856049 160.0
189.89444 36.0
190.072754 136.0
190.19899 168.0
191.35083 168.0
191.877045 132.0
192.056961 368.0
192.252167 180.0
193.064835 3336.0
193.100311 68.0
193.144562 40.0
193.172226 64.0
193.496002 76.0
193.803131 36.0
193.831146 140.0
194.07135 272.0
194.108337 40.0
194.685532 140.0
195.043167 1328.0
195.082001 144.0
195.194061 96.0
195.422134 132.0
195.711609 112.0
196.050217 776.0
196.104401 180.0
196.135056 96.0
196.291183 48.0
196.589661 152.0
196.718048 152.0
196.893951 44.0
197.06105 880.0
197.444504 80.0
197.489243 124.0
197.556381 116.0
197.643112 136.0
198.018234 204.0
198.525482 176.0
198.744278 128.0
198.862137 52.0
200.052261 208.0
200.121506 132.0
200.840118 164.0
200.936035 204.0
201.099701 140.0
201.774811 180.0
202.071777 124.0
202.490723 120.0
202.907257 156.0
203.003662 192.0
203.190872 160.0
203.244766 168.0
205.004654 164.0
205.161697 140.0
205.364151 120.0
206.04068 176.0
206.072098 204.0
206.469421 172.0
206.575256 128.0
207.62355 180.0
207.979309 208.0
208.206131 176.0
208.510651 184.0
208.749268 124.0
208.841293 120.0
209.062912 136.0
209.212494 132.0
209.261429 164.0
209.69928 152.0
210.056732 128.0
210.111633 180.0
210.141663 192.0
210.784363 160.0
210.882629 144.0
211.071365 192.0
211.270096 128.0
211.487122 136.0
212.794495 184.0
213.122696 52.0
213.297073 184.0
213.462784 228.0
213.564575 192.0
215.386292 212.0
215.599579 144.0
215.690186 92.0
215.935791 156.0
217.013412 100.0
217.230423 112.0
217.852753 52.0
218.452438 208.0
218.487747 64.0
218.643692 204.0
218.764374 136.0
218.882141 156.0
219.026443 144.0
219.091248 140.0
219.515671 136.0
219.669037 140.0
219.984787 148.0
220.040421 180.0
220.05899 176.0
220.68718 80.0
221.058395 3572.0
221.142487 72.0
221.297409 140.0
221.379196 168.0
221.641678 144.0
221.90181 88.0
221.987808 32.0
222.023392 80.0
222.060944 656.0
222.10051 112.0
222.688187 52.0
223.098236 124.0
223.12796 60.0
223.345047 144.0
223.395615 200.0
223.502716 108.0
223.675323 120.0
223.708069 140.0
224.634827 152.0
225.05304 312.0
225.210922 188.0
225.249741 180.0
225.345337 132.0
225.889435 92.0
226.14975 128.0
226.224594 208.0
226.527039 176.0
226.646881 76.0
226.78772 168.0
226.943604 164.0
226.98259 116.0
227.279541 156.0
228.41214 172.0
228.676422 120.0
229.146667 200.0
229.363647 264.0
229.426956 72.0
229.509354 112.0
229.719467 88.0
229.770752 144.0
229.915588 172.0
229.939728 64.0
230.093674 124.0
230.495377 188.0
230.88533 156.0
230.997253 44.0
232.530411 92.0
232.642715 140.0
232.761124 164.0
232.967651 140.0
233.028412 176.0
233.2229 104.0
233.274567 132.0
233.356644 100.0
233.755112 128.0
233.986435 200.0
234.549988 116.0
235.089813 168.0
235.278717 176.0
235.468369 36.0
235.746384 188.0
235.829651 112.0
235.960342 76.0
236.168274 80.0
236.266159 48.0
236.406906 152.0
236.532394 88.0
237.052765 264.0
237.111267 156.0
237.261475 100.0
237.402512 128.0
237.44458 200.0
237.578094 200.0
237.641769 76.0
237.679321 200.0
237.730743 144.0
237.773712 140.0
237.810547 172.0
237.875 120.0
237.899567 116.0
237.967102 236.0
238.00087 128.0
238.05838 572.0
238.154419 64.0
238.182938 168.0
238.194092 48.0
238.205734 164.0
238.261932 188.0
238.320312 76.0
238.35936 124.0
238.408234 216.0
238.443222 224.0
238.489334 208.0
238.530472 124.0
238.551086 192.0
238.623245 184.0
238.63559 104.0
238.648071 144.0
238.679932 392.0
238.701202 276.0
238.736633 164.0
238.772186 116.0
238.818314 132.0
238.873154 252.0
238.930954 116.0
238.957458 268.0
239.070465 120332.0
239.136658 60.0
239.164459 64.0
239.185349 252.0
239.252502 40.0
239.323441 92.0
239.36261 176.0
239.383621 176.0
239.457214 224.0
239.487244 92.0
239.496902 60.0
239.510864 60.0
239.539474 208.0
239.575928 320.0
239.611053 44.0
239.653748 84.0
239.684311 92.0
239.726379 168.0
239.779556 172.0
239.826035 88.0
239.858704 248.0
239.886154 108.0
239.924957 172.0
239.966949 44.0
240.000854 104.0
240.02861 36.0
240.073029 12616.0
240.121002 300.0
240.129272 332.0
240.179718 104.0
240.228943 48.0
240.284607 128.0
240.343414 68.0
240.378723 76.0
240.422684 112.0
240.430664 84.0
240.443954 56.0
240.516052 84.0
240.557846 52.0
240.61792 84.0
240.654968 72.0
240.687546 80.0
240.726456 80.0
240.831223 152.0
240.864975 44.0
240.951462 144.0
240.997299 72.0
241.022278 216.0
241.075516 1236.0
241.161591 80.0
241.194183 120.0
241.225174 56.0
241.266693 52.0
241.29451 36.0
241.320465 68.0
241.343979 84.0
241.399643 156.0
241.427628 84.0
241.463638 92.0
241.468948 156.0
241.504227 260.0
241.526443 128.0
241.551773 232.0
241.578629 92.0
241.586014 124.0
241.633514 120.0
241.672287 84.0
241.702789 60.0
241.739914 68.0
241.778015 156.0
241.823029 168.0
241.881058 156.0
241.926834 164.0
241.962769 128.0
241.986465 136.0
242.046585 56.0
242.076172 200.0
242.129974 56.0
242.151657 56.0
242.179535 76.0
242.219803 56.0
242.300339 56.0
242.353012 112.0
242.476959 44.0
242.511063 64.0
242.563751 64.0
242.585449 76.0
242.653656 96.0
242.697052 104.0
242.728058 48.0
242.793182 80.0
242.851685 88.0
243.013428 76.0
243.041351 36.0
243.297775 92.0
243.352814 80.0
243.400375 96.0
243.463516 80.0
243.718231 36.0
243.774673 120.0
243.84874 144.0
243.892258 112.0
244.12233 80.0
244.305832 48.0
244.59523 68.0
244.816284 88.0
244.953323 64.0
246.019806 44.0
248.153442 72.0
248.33847 120.0
248.674179 80.0
249.871399 60.0
250.419128 108.0
250.976913 104.0
251.248138 68.0
251.273376 72.0
251.494278 92.0
251.53215 44.0
251.69632 44.0
251.731049 100.0
251.854218 140.0
252.032822 120.0
253.138229 84.0
253.188904 52.0
253.261734 60.0
253.356766 104.0
253.657822 64.0
254.698593 40.0
255.159378 52.0
255.280197 40.0
256.754639 44.0
257.003448 120.0
258.083038 100.0
258.214142 52.0
258.457275 108.0
259.097595 92.0
259.78363 96.0
260.361389 64.0
261.740936 68.0
264.795868 96.0
269.672913 60.0
272.510773 112.0
276.639801 80.0
280.279816 64.0
280.536438 100.0
282.122131 80.0
282.617096 64.0
283.279968 68.0
292.093872 76.0
294.455902 116.0
295.683258 120.0
296.652588 136.0
298.430939 120.0
298.747345 60.0
302.61264 92.0
314.848297 52.0
315.554993 112.0
322.08313 56.0
322.165314 108.0
323.234314 84.0
325.133575 64.0
342.28952 68.0
347.185852 104.0
349.072327 68.0
350.915436 68.0
359.505249 64.0
367.355438 88.0
376.119812 36.0
378.865356 56.0
380.975708 68.0
382.348267 140.0
383.372467 76.0
389.208771 112.0
389.322662 84.0
390.568542 72.0
393.83609 100.0
394.160034 52.0
403.636444 112.0
408.509399 48.0
415.097412 100.0
429.860138 108.0
430.417389 116.0
431.814178 116.0
433.416229 56.0
434.668457 44.0
462.554901 48.0
463.664215 96.0
464.822052 56.0
465.289886 68.0
466.127441 100.0
466.191895 112.0
477.953827 68.0
485.068207 60.0
496.141907 80.0
502.207214 40.0
532.627075 72.0
536.404846 40.0
537.96405 68.0
549.594604 88.0
558.147522 44.0
572.728638 48.0
575.714172 112.0
579.10498 72.0
612.363159 100.0
616.003357 88.0
633.218445 108.0
636.488098 68.0
657.037476 136.0
663.317261 64.0
677.390076 52.0
679.256165 236.0
692.060852 208.0
700.72699 96.0
709.293274 152.0
721.627991 200.0
737.632324 56.0
739.714905 108.0
747.356201 200.0
759.626648 152.0
770.267029 84.0
780.008423 120.0
785.041504 40.0
815.448975 180.0
822.283386 180.0
828.390015 64.0
833.507568 36.0
840.821045 168.0
841.583008 220.0
844.021301 80.0
844.536011 52.0
859.460266 144.0
867.982666 128.0
871.228271 144.0
872.456482 80.0
888.395447 164.0
892.095032 136.0
895.171021 228.0
897.602234 200.0
903.850281 116.0
913.846436 120.0
937.096191 44.0
946.594177 192.0
950.284119 104.0
970.210876 88.0
974.549072 64.0
974.959167 204.0
981.052673 32.0
983.454224 204.0
987.083862 144.0
994.846619 172.0
1018.56488 200.0
1018.730042 36.0
1020.725708 204.0
1024.678345 124.0
1025.697876 196.0
1026.380005 192.0
1028.434204 164.0
1030.829102 136.0
1035.006104 128.0
1038.614136 204.0
1040.372437 188.0
1043.674683 120.0
1050.443359 132.0
1050.791748 100.0
1061.846558 144.0
1063.325684 96.0
1063.611328 72.0
1065.468506 132.0
1072.216187 212.0
1072.581177 148.0
1073.259155 136.0
1074.361328 140.0
1074.537476 180.0
1076.227905 44.0
1078.462036 272.0
1081.529663 152.0
1087.34314 240.0
1088.406616 192.0
1088.833496 148.0
1091.001831 240.0
1091.133301 132.0
1093.086792 156.0
1102.113647 196.0
1107.121094 96.0
1108.021973 140.0
1109.599243 132.0
1109.94397 76.0
1109.990479 40.0
1110.136353 220.0
1112.073486 136.0
1114.616943 164.0
1115.879883 88.0
1116.777588 88.0
1117.053589 200.0
1117.416138 96.0
1117.529297 176.0
1119.140015 92.0
1120.691895 224.0
1120.738525 124.0
1124.446167 164.0
1127.01709 76.0
1127.284424 168.0
1129.504028 164.0
1131.612061 32.0
1135.243774 156.0
1136.377319 156.0
1137.068481 224.0
1138.390991 168.0
1145.446167 184.0
1147.649902 188.0
1149.187744 164.0
1150.476685 116.0
1151.807007 132.0
1152.766357 152.0
1154.821533 168.0
1158.808716 136.0
1163.753052 64.0
1164.900757 200.0
1168.000488 168.0
1168.701172 196.0
1173.536987 40.0
1174.068848 232.0
1178.512695 80.0
1180.105103 56.0
1184.032959 204.0
1189.456299 172.0
1189.600464 240.0
1190.527344 156.0
1193.598999 124.0
1194.444946 204.0
1195.545776 164.0
1197.707642 112.0
1198.38269 172.0
1199.623169 128.0
1200.188477 112.0
1201.071289 60.0
1203.258789 64.0
1210.041016 260.0
1210.878906 168.0
1211.765503 192.0
1211.952637 152.0
1212.33374 176.0
1215.0448 192.0
1222.688232 140.0
1225.424805 100.0
1226.32373 168.0
1228.178345 164.0
1231.940796 140.0
1234.449951 48.0
1236.422607 192.0
1241.03894 240.0
1241.249268 132.0
1245.221191 124.0
1249.291016 140.0
1249.63623 104.0
1250.050903 144.0
1250.247925 124.0
1251.172974 220.0
1251.831787 128.0
1253.092651 196.0
1256.328613 188.0
1256.773071 124.0
1257.168213 192.0
1263.541504 152.0
1263.789185 184.0
1267.88208 244.0
1268.24353 188.0
1269.257202 180.0
1269.633057 112.0
1270.43457 120.0
1273.216919 196.0
1273.962769 248.0
1275.369751 192.0
1284.398193 60.0
1285.147339 132.0
1286.39624 144.0
1287.488647 116.0
1291.304932 92.0
1292.757202 272.0
1293.086426 160.0
1293.487305 84.0
1296.237427 232.0
1297.857422 164.0
1298.481201 116.0
1299.420898 152.0
1301.243896 96.0
1301.409058 188.0
1302.88855 104.0
1303.247681 124.0
1304.792969 200.0
1306.288818 140.0
1306.533325 84.0
1307.814209 132.0
1309.390991 116.0
1310.111206 188.0
1311.011841 200.0
1311.098389 136.0
1314.264038 220.0
1315.44751 144.0
1316.465576 148.0
1316.595581 192.0
1319.738892 160.0
1322.08252 176.0
1325.232422 212.0
1326.834106 140.0
1327.638916 212.0
1331.122192 172.0
1332.545776 168.0
1335.009888 144.0
1336.071777 140.0
1336.370117 156.0
1336.741211 108.0
1337.345215 156.0
1337.527222 184.0
1337.672729 140.0
1342.59082 164.0
1342.94812 144.0
1343.575439 196.0
1344.005981 172.0
1344.786743 168.0
1344.910889 92.0
1345.078735 124.0
1345.932983 184.0
1347.240234 108.0
1347.466675 172.0
1348.328979 76.0
1348.818604 156.0
1350.749023 132.0
1351.019775 188.0
1353.098145 148.0
1353.229858 148.0
1353.537476 140.0
1354.093994 144.0
1354.189209 200.0
1354.41626 84.0
1356.724487 48.0
1357.780396 164.0
1358.792603 212.0
1359.893311 108.0
1360.891724 148.0
1360.957764 176.0
1361.099487 160.0
1361.574585 144.0
1361.787598 140.0
1362.007935 96.0
1362.338501 200.0
1363.447998 120.0
1365.168213 148.0
1365.25647 228.0
1365.9552 212.0
1366.543701 36.0
1366.683472 200.0
1367.890381 196.0
1368.265869 164.0
1368.626587 208.0
1369.061035 116.0
1370.217529 132.0
1371.131226 60.0
1371.359741 104.0
1371.949341 220.0
1372.509766 252.0
1374.272583 136.0
1374.65625 188.0
1377.40271 216.0
1378.429565 156.0
1378.762085 224.0
1379.723022 196.0
1379.989136 192.0
1381.142212 228.0
1381.808594 156.0
1384.154907 120.0
1385.902954 96.0
1387.207275 196.0
1388.097046 156.0
1388.430664 172.0
1389.046265 232.0
1389.506226 168.0
1389.684326 176.0
1390.248291 248.0
1391.138916 212.0
1391.725342 40.0
1394.117188 164.0
1395.227173 96.0
1398.423218 156.0
1399.547363 160.0
1404.428589 176.0
1405.271484 148.0
1405.711792 48.0
1405.816284 192.0
1405.987915 152.0
1406.525269 176.0
1408.033447 228.0
1409.055176 164.0
1409.998291 176.0
1410.155273 160.0
1411.014893 132.0
1412.854614 212.0
1413.415771 152.0
1413.636841 168.0
1414.111694 180.0
1414.845215 136.0
1415.668823 132.0
1417.361816 136.0
1419.640503 108.0
1419.798096 40.0
1425.075073 156.0
1428.510742 260.0
1428.856689 52.0
1430.369385 176.0
1430.625244 172.0
1432.176392 148.0
1434.904297 236.0
1434.979736 144.0
1435.997681 228.0
1439.272827 112.0
1440.556763 44.0
1441.145996 148.0
1441.198975 136.0
1442.098145 116.0
1443.103638 36.0
1443.300171 184.0
1444.230347 164.0
1446.371704 184.0
1447.840454 132.0
1448.30249 172.0
1450.780396 120.0
1456.137329 224.0
1456.555054 272.0
1456.664062 196.0
1456.718384 200.0
1460.621704 152.0
1462.790283 108.0
1463.201416 116.0
1464.827148 232.0
1465.714844 148.0
1466.476929 156.0
1466.858032 196.0
1467.071411 80.0
1467.963501 136.0
1472.091797 208.0
1472.244629 196.0
1472.916626 108.0
1473.107666 216.0
1474.437134 192.0
1474.643433 56.0
1474.819214 120.0
1475.086792 156.0
1476.04248 80.0
1477.08252 176.0
1477.916504 144.0
1478.283691 64.0
1478.520996 188.0
1480.15918 172.0
1480.610962 120.0
1481.254272 172.0
1481.989746 84.0
1483.361572 192.0
1484.925781 100.0
1485.278564 176.0
1485.493286 40.0
1486.130127 168.0
1486.774658 76.0
1487.058594 192.0
1487.672729 172.0
1488.279175 136.0
1488.432739 176.0
1489.35437 156.0
1489.561768 144.0
1489.769165 120.0
1492.136108 164.0
1492.958862 44.0
1493.95874 148.0
1495.874878 164.0
1496.575439 128.0
1497.052856 180.0
1497.322388 132.0
1498.639648 200.0
1499.055664 144.0
1499.209839 180.0
1500.551025 224.0
1503.816406 184.0
