>compound MLS001077277-01!
>formula C21H21N
>ionization [M+H]+
>parentmass 288.173462
#inchi InChI=1S/C21H21N/c1-22-14-12-18(13-15-22)21-19-8-4-2-6-16(19)10-11-17-7-3-5-9-20(17)21/h2-11H,12-15H2,1H3
#inchikey JJCFRYNCJDLXIK
#origInchi InChI=1S/C21H21N.ClH/c1-22-14-12-18(13-15-22)21-19-8-4-2-6-16(19)10-11-17-7-3-5-9-20(17)21;/h2-11H,12-15H2,1H3;1H
#Ion_Source LC-ESI
#Instrument qTof
#Compound_Source NIH Pharmacologically Active Library
#PI Dorrestein
#Data_Collector VP/LMS
#Scan -1
#Precursor_MZ 288.178
#ExactMass 287.167
#Charge 1
#CAS_Number N/A
#Pubmed_ID N/A
#Smiles CN1CCC(=C2c3ccccc3C=Cc4ccccc24)CC1.Cl
#INCHI_AUX N/A
#Library_Class 1
#SpectrumID CCMSLIB00000085883
#IonMode Positive
#UpdateWorkflowName UPDATE-SINGLE-ANNOTATED-GOLD
#LibraryQualityString Gold
#TaskID d252d724072548979f1f6f1ced849daf
##Scan# 1751
#SpectrumFile p4-G07_GG7_01_18403.mzXML
#LibraryName Pharm_Active_Library.mgf
#MQScore -1
#Organism Pharm_Active_Library
#TIC_Query 0
#RT_Query -1
#MZErrorPPM -1
#SharedPeaks 0
#MassDiff 0
#LibMZ -1
#SpecMZ 288.178
#SpecCharge 0
#internalFilename spec-00000.mgf

>collision 10
44.922306 172.0
44.965008 80.0
44.978355 204.0
45.001049 48.0
45.041565 296.0
45.05748 48.0
45.093227 128.0
45.109268 100.0
45.126648 128.0
45.141357 52.0
45.165432 132.0
45.18951 44.0
45.207733 156.0
45.209927 220.0
45.23455 112.0
45.259117 136.0
45.26849 156.0
45.334133 144.0
45.355576 80.0
45.366302 148.0
45.429333 104.0
45.445435 100.0
45.456169 152.0
45.466652 128.0
45.469074 104.0
45.474232 192.0
45.502048 44.0
45.532692 140.0
45.543438 44.0
45.591805 116.0
45.601215 124.0
45.621376 128.0
45.64827 180.0
45.665752 176.0
45.67786 44.0
45.694004 132.0
45.703423 92.0
45.713036 168.0
45.722263 188.0
45.737637 104.0
45.755917 140.0
45.824608 184.0
45.842075 108.0
45.861908 224.0
45.883911 140.0
45.90818 72.0
45.937855 184.0
45.9473 324.0
45.961395 224.0
45.983734 68.0
46.020184 124.0
46.074493 152.0
46.086372 120.0
46.132324 136.0
46.148548 128.0
46.158012 136.0
46.179653 204.0
46.208061 152.0
46.258137 188.0
46.273655 216.0
46.28648 124.0
46.316364 200.0
46.331264 176.0
46.342106 144.0
46.357853 148.0
46.375984 60.0
46.399033 196.0
46.419369 160.0
46.444489 200.0
46.46344 196.0
46.500263 160.0
46.513439 140.0
46.537605 120.0
46.554371 152.0
46.574478 184.0
46.588615 180.0
46.612022 144.0
46.624367 208.0
46.633438 196.0
46.638618 132.0
46.669228 192.0
46.694031 200.0
46.750458 196.0
46.78651 60.0
46.8283 144.0
46.857059 144.0
46.898605 156.0
46.912937 156.0
46.922482 128.0
46.93956 128.0
47.016605 148.0
47.041855 168.0
47.046829 196.0
47.085751 136.0
47.113651 168.0
47.14225 228.0
47.178253 176.0
47.19556 152.0
47.206272 144.0
47.232487 196.0
47.260029 188.0
47.274303 228.0
47.294689 184.0
47.324699 244.0
47.335136 60.0
47.346573 172.0
47.364815 204.0
47.380676 196.0
47.409485 236.0
47.420078 80.0
47.475761 196.0
47.499294 140.0
47.509647 160.0
47.522934 80.0
47.535282 108.0
47.55426 140.0
47.570969 148.0
47.581951 148.0
47.601177 144.0
47.623524 176.0
47.662991 116.0
47.696957 124.0
47.726223 36.0
47.766109 144.0
47.810925 172.0
47.826656 140.0
47.841797 116.0
47.857464 116.0
47.873737 164.0
47.935459 152.0
47.952213 180.0
47.965782 164.0
47.994305 128.0
48.02795 144.0
48.038868 112.0
48.05159 128.0
48.065044 132.0
48.092686 156.0
48.107872 32.0
48.118916 104.0
48.135487 256.0
48.152641 132.0
48.210468 332.0
48.234966 204.0
48.246025 152.0
48.257336 132.0
48.297192 196.0
48.313793 84.0
48.33593 116.0
48.402306 80.0
48.404125 152.0
48.422825 240.0
48.497971 256.0
48.540951 188.0
48.568005 160.0
48.586014 396.0
48.625042 176.0
48.635296 136.0
48.6464 120.0
48.688057 192.0
48.702789 336.0
48.711266 152.0
48.738068 132.0
48.756607 256.0
48.800617 132.0
48.841576 124.0
48.883404 140.0
48.908108 136.0
48.920269 216.0
48.941357 108.0
48.956886 160.0
48.966789 136.0
48.996864 144.0
49.010799 120.0
49.020554 156.0
49.049824 92.0
49.063763 208.0
49.073524 36.0
49.092739 236.0
49.109982 84.0
49.125126 192.0
49.137833 148.0
49.150242 60.0
49.166988 156.0
49.176758 68.0
49.19014 252.0
49.241814 148.0
49.246689 48.0
49.258869 184.0
49.275909 112.0
49.296646 176.0
49.305813 220.0
49.323425 112.0
49.363438 136.0
49.378452 180.0
49.425522 80.0
49.46751 72.0
49.505314 148.0
49.515118 128.0
49.527725 148.0
49.541492 116.0
49.550911 116.0
49.610569 236.0
49.635643 80.0
49.64872 264.0
49.684734 200.0
49.75581 224.0
49.777191 184.0
49.829346 140.0
49.863071 184.0
49.88015 188.0
49.90694 372.0
49.950008 220.0
49.96854 328.0
49.984016 200.0
50.020878 148.0
50.033283 116.0
50.068409 148.0
50.085388 144.0
50.09692 172.0
50.138931 144.0
50.161484 180.0
50.189682 132.0
50.199551 144.0
50.230167 184.0
50.250248 132.0
50.260345 152.0
50.296906 164.0
50.313847 168.0
50.331947 112.0
50.34491 208.0
50.360771 208.0
50.37812 180.0
50.394512 176.0
50.429684 56.0
50.442268 168.0
50.514626 112.0
50.54565 192.0
50.589531 152.0
50.604145 200.0
50.624245 216.0
50.673088 168.0
50.702675 132.0
50.729782 144.0
50.760857 192.0
50.765324 176.0
50.769676 204.0
50.786217 196.0
50.824806 140.0
50.860497 136.0
50.882347 172.0
50.891521 252.0
50.938389 168.0
50.954208 180.0
50.960876 184.0
50.992386 172.0
51.010864 144.0
51.027924 104.0
51.062267 160.0
51.080688 160.0
51.096195 116.0
51.110424 164.0
51.124653 196.0
51.148933 140.0
51.176773 228.0
51.202362 124.0
51.2229 132.0
51.237144 240.0
51.249969 112.0
51.271347 40.0
51.292725 248.0
51.309479 208.0
51.331184 160.0
51.342182 200.0
51.365696 256.0
51.385426 172.0
51.404957 192.0
51.478775 192.0
51.495346 104.0
51.545349 96.0
51.559643 140.0
51.576393 100.0
51.609676 152.0
51.671181 108.0
51.738365 148.0
51.764221 188.0
51.791431 136.0
51.810055 168.0
51.851959 192.0
51.873112 152.0
51.905346 184.0
51.927601 156.0
51.939354 220.0
51.963463 300.0
51.974438 136.0
51.980228 88.0
51.987221 108.0
51.99675 184.0
52.015129 112.0
52.035229 184.0
52.061584 192.0
52.084988 332.0
52.096985 120.0
52.154427 140.0
52.164585 164.0
52.201523 148.0
52.21917 104.0
52.22924 156.0
52.240749 144.0
52.264065 176.0
52.317024 184.0
52.340469 184.0
52.360222 148.0
52.373184 172.0
52.384708 180.0
52.438023 128.0
52.457111 132.0
52.496685 192.0
52.51318 152.0
52.549065 172.0
52.564938 96.0
52.605904 136.0
52.622677 144.0
52.632786 84.0
52.653004 168.0
52.664558 180.0
52.686924 224.0
52.703876 148.0
52.723797 148.0
52.747646 232.0
52.770054 156.0
52.783066 200.0
52.818298 144.0
52.835648 148.0
52.862755 232.0
52.871788 268.0
52.884342 144.0
52.910397 88.0
52.936306 112.0
52.948048 144.0
52.963982 200.0
52.980919 156.0
52.986729 108.0
53.002659 436.0
53.03788 136.0
53.054203 200.0
53.081375 108.0
53.097328 160.0
53.111217 188.0
53.125832 160.0
53.13464 372.0
53.149555 248.0
53.164066 156.0
53.175678 156.0
53.200077 208.0
53.211971 72.0
53.226639 156.0
53.267159 104.0
53.290401 252.0
53.303482 120.0
53.319466 72.0
53.33691 172.0
53.377556 188.0
53.385956 180.0
53.404186 164.0
53.428528 96.0
53.447441 136.0
53.468315 108.0
53.488194 84.0
53.511486 188.0
53.547894 120.0
53.571823 224.0
53.610165 124.0
53.641972 92.0
53.65099 208.0
53.674431 228.0
53.689266 28.0
53.715523 136.0
53.728611 256.0
53.798702 128.0
53.818024 240.0
53.847328 180.0
53.88166 140.0
53.905331 64.0
53.94389 168.0
53.993046 84.0
54.046875 176.0
54.06181 120.0
54.089619 144.0
54.130615 72.0
54.14233 120.0
54.154045 84.0
54.170158 216.0
54.181881 164.0
54.195068 152.0
54.218159 132.0
54.226791 284.0
54.311783 216.0
54.352455 132.0
54.379116 180.0
54.394527 148.0
54.420414 152.0
54.46648 56.0
54.484112 212.0
54.501743 48.0
54.523964 132.0
54.552391 112.0
54.566414 128.0
54.601707 208.0
54.611134 176.0
54.622944 128.0
54.645729 180.0
54.674469 172.0
54.685574 140.0
54.707653 148.0
54.731487 128.0
54.747646 200.0
54.753117 32.0
54.758953 196.0
54.78941 164.0
54.799786 108.0
54.837284 156.0
54.906582 132.0
54.947884 208.0
54.959328 148.0
54.979473 196.0
54.990681 92.0
55.009869 168.0
55.020203 68.0
55.079273 108.0
55.101433 116.0
55.125473 164.0
55.136013 320.0
55.160549 120.0
55.183548 180.0
55.235779 156.0
55.260155 172.0
55.283939 180.0
55.295086 172.0
55.3218 348.0
55.335125 256.0
55.357048 104.0
55.381298 200.0
55.397327 160.0
55.429535 184.0
55.455048 168.0
55.49366 208.0
55.514423 180.0
55.524803 180.0
55.538151 220.0
55.567822 124.0
55.589558 148.0
55.610489 144.0
55.637581 88.0
55.676186 180.0
55.692631 168.0
55.728218 156.0
55.752571 184.0
55.803986 348.0
55.857525 160.0
55.870914 44.0
55.905136 60.0
55.963192 156.0
55.984619 120.0
56.003403 176.0
56.027237 160.0
56.042137 200.0
56.059898 176.0
56.071796 228.0
56.082035 140.0
56.122627 176.0
56.143505 160.0
56.155437 160.0
56.194221 180.0
56.206379 192.0
56.22163 208.0
56.249443 44.0
56.267357 192.0
56.27961 176.0
56.296787 124.0
56.406296 64.0
56.430214 144.0
56.440681 164.0
56.472088 124.0
56.500511 92.0
56.513977 200.0
56.550194 200.0
56.589653 172.0
56.608055 316.0
56.632065 168.0
56.645729 116.0
56.667519 404.0
56.736698 188.0
56.748493 200.0
56.797131 124.0
56.819763 140.0
56.859512 236.0
56.953243 332.0
56.969765 44.0
56.984791 100.0
57.005829 124.0
57.033337 192.0
57.044205 96.0
57.078609 260.0
57.103382 108.0
57.122189 184.0
57.136646 168.0
57.15892 204.0
57.192326 116.0
57.246529 176.0
57.275143 108.0
57.306782 100.0
57.359993 172.0
57.379128 92.0
57.397655 168.0
57.42437 164.0
57.444832 120.0
57.474155 160.0
57.492027 204.0
57.509899 140.0
57.533016 76.0
57.549625 40.0
57.567425 168.0
57.617592 80.0
57.640259 112.0
57.65163 164.0
57.682579 40.0
57.715839 156.0
57.737011 152.0
57.752136 168.0
57.766972 268.0
57.778423 180.0
57.800018 148.0
57.82325 80.0
57.855038 196.0
57.892651 180.0
57.908039 108.0
57.956787 184.0
58.001984 164.0
58.041405 456.0
58.062634 136.0
58.100513 136.0
58.117249 108.0
58.143047 160.0
58.156704 116.0
58.16885 168.0
58.190105 84.0
58.240219 164.0
58.259968 72.0
58.281239 124.0
58.295952 176.0
58.301144 164.0
58.305775 192.0
58.321304 220.0
58.326302 80.0
58.331974 184.0
58.355721 160.0
58.389175 220.0
58.440895 116.0
58.457634 192.0
58.480167 164.0
58.517002 124.0
58.544411 96.0
58.56147 200.0
58.587059 124.0
58.614487 160.0
58.651066 112.0
58.676983 92.0
58.69833 124.0
58.745632 268.0
58.770954 216.0
58.825336 116.0
58.892269 108.0
58.909599 188.0
58.925766 120.0
58.944099 168.0
58.986614 144.0
59.011356 224.0
59.02206 200.0
59.037746 264.0
59.051117 128.0
59.078651 156.0
59.106194 112.0
59.126652 184.0
59.152107 116.0
59.198383 108.0
59.245525 72.0
59.276169 128.0
59.301086 260.0
59.321339 168.0
59.339897 140.0
59.355885 72.0
59.375401 252.0
59.392693 120.0
59.406498 128.0
59.430603 108.0
59.48494 104.0
59.499592 164.0
59.526688 144.0
59.551674 184.0
59.584587 152.0
59.686687 244.0
59.706024 144.0
59.746021 144.0
59.778332 348.0
59.796799 152.0
59.807575 132.0
59.832207 152.0
59.853764 96.0
59.915577 180.0
59.929199 152.0
59.944649 168.0
59.964733 128.0
59.980099 216.0
60.018642 80.0
60.054638 164.0
60.087616 128.0
60.107986 196.0
60.132805 148.0
60.169853 188.0
60.204338 156.0
60.222359 188.0
60.233944 160.0
60.318935 160.0
60.333622 208.0
60.373825 188.0
60.38929 204.0
60.438217 208.0
60.449631 128.0
60.472507 148.0
60.494617 192.0
60.537994 172.0
60.555897 144.0
60.576591 140.0
60.589886 248.0
60.634106 136.0
60.692833 144.0
60.734707 172.0
60.765736 148.0
60.785908 132.0
60.819351 124.0
60.841785 180.0
60.861969 136.0
60.879051 124.0
60.891476 60.0
60.933418 272.0
60.955875 124.0
61.012684 148.0
61.036644 176.0
61.099022 156.0
61.127785 64.0
61.151131 116.0
61.207359 172.0
61.264805 144.0
61.281944 116.0
61.305317 168.0
61.339607 188.0
61.39526 156.0
61.412899 104.0
61.428242 172.0
61.466599 152.0
61.483437 152.0
61.505375 196.0
61.529938 148.0
61.554142 88.0
61.578846 156.0
61.604904 196.0
61.630577 120.0
61.659592 248.0
61.679913 148.0
61.701801 384.0
61.71587 196.0
61.728382 52.0
61.747772 140.0
61.795956 144.0
61.826775 152.0
61.846085 116.0
61.877033 72.0
61.903187 188.0
61.923351 164.0
61.962402 136.0
61.977276 144.0
62.000782 148.0
62.030861 180.0
62.05798 160.0
62.075733 168.0
62.104263 56.0
62.116814 168.0
62.152901 112.0
62.187424 132.0
62.207924 200.0
62.236092 88.0
62.253365 148.0
62.284779 152.0
62.305656 180.0
62.335056 216.0
62.346058 120.0
62.363045 208.0
62.445107 208.0
62.46241 164.0
62.482861 132.0
62.494331 432.0
62.515907 160.0
62.529026 228.0
62.539513 168.0
62.567848 212.0
62.586945 156.0
62.613514 136.0
62.633991 148.0
62.656048 28.0
62.682835 152.0
62.734848 136.0
62.771202 140.0
62.783619 228.0
62.800377 216.0
62.932343 136.0
62.944454 156.0
63.012188 132.0
63.041061 324.0
63.066349 128.0
63.090714 184.0
63.131962 136.0
63.15015 108.0
63.162807 164.0
63.197613 108.0
63.226532 316.0
63.244392 412.0
63.266678 220.0
63.272861 140.0
63.330593 104.0
63.386047 140.0
63.414574 184.0
63.436764 168.0
63.451035 132.0
63.465305 68.0
63.512882 432.0
63.527161 208.0
63.541439 92.0
63.59222 120.0
63.608093 128.0
63.622379 172.0
63.693214 212.0
63.71767 96.0
63.760578 124.0
63.773293 80.0
63.794643 176.0
63.816959 188.0
63.821854 88.0
63.828999 148.0
63.834328 92.0
63.838894 140.0
63.85276 192.0
63.85675 188.0
63.877068 168.0
63.923065 164.0
63.967358 268.0
63.999199 160.0
64.019905 128.0
64.058128 156.0
64.089996 52.0
64.131432 112.0
64.153748 192.0
64.176071 152.0
64.1968 176.0
64.215935 156.0
64.253899 188.0
64.279091 192.0
64.303261 148.0
64.338814 132.0
64.374199 124.0
64.429848 48.0
64.453812 104.0
64.466599 160.0
64.503906 184.0
64.515823 160.0
64.533737 76.0
64.546494 180.0
64.57975 176.0
64.594505 112.0
64.605705 188.0
64.636108 120.0
64.648911 120.0
64.661713 124.0
64.679321 184.0
64.715675 152.0
64.727348 144.0
64.739342 280.0
64.77169 204.0
64.798958 164.0
64.816605 212.0
64.831398 164.0
64.853996 164.0
64.876617 276.0
64.914841 116.0
64.926071 116.0
64.937294 152.0
64.954941 188.0
64.975792 168.0
65.001465 232.0
65.024124 200.0
65.0448 140.0
65.065674 140.0
65.142761 60.0
65.165253 88.0
65.177597 288.0
65.210609 124.0
65.226326 44.0
65.268127 264.0
65.287422 148.0
65.306725 40.0
65.358208 72.0
65.376572 160.0
65.41259 152.0
65.430588 136.0
65.449959 184.0
65.474113 100.0
65.520828 164.0
65.535332 140.0
65.57 164.0
65.591782 300.0
65.643333 72.0
65.670685 216.0
65.693329 104.0
65.762459 176.0
65.775948 204.0
65.793388 252.0
65.817612 124.0
65.851524 48.0
65.873047 232.0
65.921715 216.0
65.987267 132.0
65.998589 152.0
66.04834 236.0
66.07048 156.0
66.098877 88.0
66.118019 160.0
66.132866 148.0
66.221924 316.0
66.242981 156.0
66.283485 140.0
66.31752 188.0
66.344353 256.0
66.366158 124.0
66.387238 200.0
66.409218 148.0
66.441307 144.0
66.454895 180.0
66.500275 440.0
66.512169 48.0
66.525154 196.0
66.54464 96.0
66.568993 152.0
66.583611 68.0
66.614471 84.0
66.633965 92.0
66.668617 112.0
66.689224 112.0
66.70385 152.0
66.747749 148.0
66.76889 160.0
66.780273 36.0
66.800575 192.0
66.827332 208.0
66.845352 124.0
66.87072 204.0
66.898323 88.0
66.917915 76.0
66.925865 172.0
66.952797 192.0
66.967461 116.0
66.99485 260.0
67.034256 152.0
67.047295 176.0
67.089912 164.0
67.107613 48.0
67.13044 112.0
67.156532 204.0
67.170662 188.0
67.183342 176.0
67.216896 168.0
67.233406 144.0
67.260399 196.0
67.36377 252.0
67.382263 160.0
67.419395 172.0
67.451584 52.0
67.494926 160.0
67.520767 208.0
67.582932 164.0
67.607475 176.0
67.628754 184.0
67.663368 164.0
67.6894 180.0
67.702431 104.0
67.780708 168.0
67.820396 176.0
67.857071 184.0
67.861572 68.0
67.867363 192.0
67.887268 168.0
67.916969 116.0
67.926888 200.0
67.94175 56.0
67.969452 176.0
68.007385 124.0
68.033653 176.0
68.053734 208.0
68.096054 140.0
68.131805 152.0
68.1782 124.0
68.189705 132.0
68.213631 304.0
68.263222 168.0
68.281906 152.0
68.308098 164.0
68.336342 144.0
68.34153 100.0
68.346504 152.0
68.361664 176.0
68.38797 148.0
68.391029 80.0
68.399002 180.0
68.416222 144.0
68.432785 216.0
68.452888 132.0
68.500702 160.0
68.514603 192.0
68.551781 156.0
68.581169 144.0
68.590576 104.0
68.602837 156.0
68.62101 116.0
68.648125 352.0
68.688698 188.0
68.706779 300.0
68.736473 136.0
68.764534 204.0
68.781036 180.0
68.835602 196.0
68.866905 160.0
68.883423 180.0
68.898293 184.0
68.920891 112.0
68.93222 216.0
68.995506 192.0
69.018501 164.0
69.027626 160.0
69.040443 76.0
69.06691 220.0
69.118195 72.0
69.159569 160.0
69.19268 160.0
69.239044 136.0
69.263893 108.0
69.312698 200.0
69.346741 96.0
69.360001 116.0
69.45784 196.0
69.479408 120.0
69.535828 156.0
69.547447 124.0
69.564041 180.0
69.615555 160.0
69.651604 132.0
69.690269 96.0
69.725166 132.0
69.744385 124.0
69.761017 324.0
69.788338 124.0
69.802551 320.0
69.834923 224.0
69.848206 88.0
69.866508 100.0
69.887245 112.0
69.906143 200.0
69.919754 148.0
69.953049 148.0
70.019653 312.0
70.031311 220.0
70.062965 72.0
70.092957 116.0
70.169052 116.0
70.18576 208.0
70.207985 220.0
70.220474 172.0
70.25135 56.0
70.311424 52.0
70.331963 180.0
70.346474 212.0
70.363167 168.0
70.393227 156.0
70.414932 176.0
70.426628 68.0
70.450012 124.0
70.476807 204.0
70.516167 148.0
70.530228 140.0
70.567009 88.0
70.590416 180.0
70.605469 180.0
70.623611 52.0
70.661507 172.0
70.674057 144.0
70.685768 196.0
70.705421 124.0
70.720917 164.0
70.739326 104.0
70.752724 116.0
70.786591 188.0
70.82679 176.0
70.844406 140.0
70.864937 328.0
70.879311 132.0
70.895103 152.0
70.907135 388.0
70.935326 76.0
70.975571 104.0
71.003693 316.0
71.027557 148.0
71.051048 156.0
71.080894 152.0
71.099709 104.0
71.143349 124.0
71.154411 160.0
71.168533 168.0
71.240753 92.0
71.25724 192.0
71.261475 156.0
71.323219 152.0
71.381065 260.0
71.437447 164.0
71.455101 220.0
71.475449 116.0
71.513168 40.0
71.53421 152.0
71.568726 160.0
71.599037 208.0
71.614197 88.0
71.636101 144.0
71.686188 192.0
71.733841 72.0
71.754333 152.0
71.777573 132.0
71.802971 180.0
71.817047 128.0
71.867668 160.0
71.907814 204.0
71.936272 140.0
71.956238 160.0
71.975105 328.0
71.997063 112.0
72.01226 148.0
72.068008 164.0
72.092781 140.0
72.113228 312.0
72.130806 128.0
72.151375 124.0
72.17691 132.0
72.221855 88.0
72.281075 184.0
72.316612 76.0
72.34539 48.0
72.372482 72.0
72.395851 80.0
72.435143 148.0
72.453781 44.0
72.484276 156.0
72.521088 172.0
72.526047 124.0
72.560555 128.0
72.599945 140.0
72.604027 88.0
72.63517 100.0
72.655167 56.0
72.665344 204.0
72.685539 152.0
72.688713 244.0
72.694923 184.0
72.735291 44.0
72.756592 120.0
72.787926 72.0
72.852463 144.0
72.870171 228.0
72.894882 172.0
72.934036 160.0
72.959534 64.0
73.007149 184.0
73.035934 160.0
73.096092 168.0
73.119568 152.0
73.153252 272.0
73.193481 164.0
73.215332 172.0
73.233513 192.0
73.262466 192.0
73.313591 124.0
73.330002 156.0
73.34256 196.0
73.37809 176.0
73.419441 256.0
73.451309 176.0
73.501495 172.0
73.522194 152.0
73.567741 148.0
73.591644 80.0
73.608719 172.0
73.622055 296.0
73.654831 132.0
73.675331 132.0
73.704376 132.0
73.716339 64.0
73.728302 228.0
73.752235 152.0
73.765907 28.0
73.783867 148.0
73.801811 156.0
73.830833 132.0
73.861732 172.0
73.88382 76.0
73.926193 124.0
73.960915 156.0
73.973694 276.0
73.989723 184.0
73.993805 152.0
74.024269 236.0
74.050674 172.0
74.070511 172.0
74.084213 92.0
74.115486 144.0
74.159058 248.0
74.197327 76.0
74.228394 160.0
74.254967 300.0
74.320824 228.0
74.344849 140.0
74.36422 196.0
74.379173 140.0
74.391418 168.0
74.41523 284.0
74.42939 208.0
74.465691 140.0
74.515381 192.0
74.535461 76.0
74.547493 252.0
74.605934 160.0
74.642136 152.0
74.667839 380.0
74.713623 172.0
74.731491 232.0
74.743538 40.0
74.781395 132.0
74.793442 128.0
74.808937 168.0
74.833038 176.0
74.850159 216.0
74.943275 176.0
74.965881 104.0
74.991531 180.0
75.030258 60.0
75.0467 196.0
75.072014 188.0
75.100159 152.0
75.153641 96.0
75.167442 112.0
75.195061 112.0
75.21244 120.0
75.224403 152.0
75.243347 160.0
75.265839 192.0
75.294312 132.0
75.319 184.0
75.378464 348.0
75.400589 92.0
75.420181 96.0
75.442078 204.0
75.454178 72.0
75.46801 112.0
75.523735 232.0
75.556221 336.0
75.568329 68.0
75.583427 188.0
75.598167 180.0
75.665253 180.0
75.735374 172.0
75.740875 84.0
75.745644 144.0
75.759766 260.0
75.766693 148.0
75.773949 196.0
75.802094 144.0
75.815956 196.0
75.84716 144.0
75.893005 216.0
75.909576 132.0
75.923447 124.0
75.935585 148.0
75.951729 92.0
76.010185 236.0
76.051842 80.0
76.11087 152.0
76.127434 164.0
76.143867 160.0
76.194237 168.0
76.268585 164.0
76.359673 264.0
76.389061 132.0
76.444946 132.0
76.45681 180.0
76.473854 172.0
76.480049 264.0
76.496849 208.0
76.533409 76.0
76.54734 208.0
76.580429 112.0
76.596107 168.0
76.634438 204.0
76.670616 152.0
76.698921 172.0
76.726814 156.0
76.766914 136.0
76.789589 204.0
76.8218 388.0
76.855057 152.0
76.877403 168.0
76.90126 188.0
76.915222 152.0
76.937912 152.0
76.95887 144.0
76.978073 228.0
77.012924 172.0
77.044449 132.0
77.062515 200.0
77.130081 180.0
77.148811 140.0
77.179031 108.0
77.201073 256.0
77.243744 140.0
77.275673 176.0
77.298859 168.0
77.328461 116.0
77.365852 144.0
77.386292 184.0
77.424522 112.0
77.453804 132.0
77.478333 184.0
77.543167 188.0
77.562447 104.0
77.609787 228.0
77.627045 180.0
77.646614 104.0
77.663361 124.0
77.679382 184.0
77.709305 152.0
77.742149 140.0
77.764908 236.0
77.806297 100.0
77.82737 132.0
77.845734 140.0
77.869514 120.0
77.929245 228.0
77.942024 160.0
77.974976 168.0
77.990753 124.0
78.019531 280.0
78.032944 168.0
78.089821 152.0
78.117363 148.0
78.139343 284.0
78.161346 108.0
78.173668 184.0
78.197578 164.0
78.217667 224.0
78.235275 152.0
78.25132 172.0
78.26873 80.0
78.281052 188.0
78.299492 188.0
78.332901 156.0
78.35717 208.0
78.384987 160.0
78.425522 228.0
78.437866 176.0
78.458511 336.0
78.478188 252.0
78.525703 148.0
78.532639 176.0
78.580147 272.0
78.598564 68.0
78.613983 164.0
78.621033 160.0
78.640717 204.0
78.658363 164.0
78.690796 184.0
78.714867 124.0
78.736916 140.0
78.753723 124.0
78.788857 148.0
78.875648 136.0
78.907463 112.0
78.946365 288.0
78.994125 148.0
79.01889 120.0
79.035957 168.0
79.066795 168.0
79.082962 176.0
79.096764 48.0
79.117432 160.0
79.142792 76.0
79.179985 120.0
79.204781 124.0
79.22406 236.0
79.243088 152.0
79.256157 88.0
79.276268 208.0
79.298691 276.0
79.319962 108.0
79.343941 156.0
79.356422 284.0
79.371376 112.0
79.383789 192.0
79.415154 176.0
79.433823 172.0
79.463615 92.0
79.486679 208.0
79.51619 176.0
79.549828 160.0
79.575432 112.0
79.58786 120.0
79.623383 188.0
79.639366 208.0
79.666008 144.0
79.678368 168.0
79.711243 228.0
79.728806 236.0
79.764069 136.0
79.79705 148.0
79.838432 80.0
79.879341 116.0
79.900124 152.0
79.932175 144.0
79.996788 124.0
80.019936 160.0
80.046234 172.0
80.073357 140.0
80.130363 128.0
80.142838 220.0
80.155312 132.0
80.169563 184.0
80.189171 180.0
80.214127 144.0
80.228386 84.0
80.240868 148.0
80.283661 168.0
80.305313 144.0
80.334427 160.0
80.356911 292.0
80.368462 164.0
80.374962 200.0
80.388359 128.0
80.412857 116.0
80.453178 132.0
80.52639 148.0
80.565254 160.0
80.583847 196.0
80.609978 132.0
80.646103 132.0
80.669342 284.0
80.742653 136.0
80.758751 160.0
80.795555 168.0
80.812424 92.0
80.837471 136.0
80.849998 252.0
80.862526 108.0
80.917374 132.0
80.941299 192.0
80.982491 48.0
81.012947 128.0
81.032654 132.0
81.063148 208.0
81.077454 132.0
81.098831 220.0
81.168877 224.0
81.194901 128.0
81.219101 144.0
81.251686 216.0
81.283684 136.0
81.311089 104.0
81.378822 172.0
81.395248 164.0
81.423714 128.0
81.438087 84.0
81.461441 152.0
81.474014 88.0
81.502762 160.0
81.517136 200.0
81.545891 72.0
81.573975 148.0
81.610146 232.0
81.656845 236.0
81.720512 160.0
81.762016 192.0
81.808517 184.0
81.820412 68.0
81.831924 172.0
81.880547 164.0
81.908119 104.0
81.939125 160.0
81.965218 172.0
82.015808 208.0
82.054192 232.0
82.07518 116.0
82.09034 324.0
82.12973 144.0
82.154945 232.0
82.188011 192.0
82.235741 136.0
82.254906 64.0
82.312599 168.0
82.341721 152.0
82.376305 204.0
82.394653 116.0
82.431412 116.0
82.438873 76.0
82.446152 152.0
82.476173 180.0
82.511833 144.0
82.516594 120.0
82.523705 200.0
82.548996 144.0
82.602859 144.0
82.616013 212.0
82.642891 164.0
82.664162 164.0
82.688477 132.0
82.705475 140.0
82.735291 144.0
82.749146 200.0
82.763634 172.0
82.799423 204.0
82.832718 160.0
82.859131 144.0
82.890434 124.0
82.933929 156.0
82.949402 180.0
82.98288 84.0
83.104408 132.0
83.120735 88.0
83.162476 184.0
83.178818 188.0
83.202415 204.0
83.215126 172.0
83.229652 132.0
83.243217 128.0
83.262337 176.0
83.278687 176.0
83.311386 148.0
83.32592 44.0
83.356812 128.0
83.391342 112.0
83.413727 164.0
83.469513 204.0
83.502251 132.0
83.518959 216.0
83.551567 180.0
83.569557 124.0
83.588394 204.0
83.627792 180.0
83.669662 124.0
83.71154 140.0
83.740242 164.0
83.76368 288.0
83.782341 144.0
83.813553 160.0
83.855469 140.0
83.877747 180.0
83.907631 184.0
83.946724 176.0
83.966064 280.0
84.014114 80.0
84.031837 224.0
84.047913 160.0
84.088501 168.0
84.109009 156.0
84.125443 88.0
84.141869 136.0
84.164879 184.0
84.207611 144.0
84.257324 112.0
84.306274 224.0
84.324547 148.0
84.342033 148.0
84.355621 108.0
84.395844 136.0
84.408646 120.0
84.450706 88.0
84.472656 460.0
84.511681 232.0
84.544685 176.0
84.618637 136.0
84.670341 124.0
84.694153 128.0
84.706978 124.0
84.752914 108.0
84.806152 128.0
84.829926 224.0
84.87468 168.0
84.901268 168.0
84.938652 116.0
84.958946 160.0
84.999428 152.0
85.020523 144.0
85.042542 80.0
85.079262 44.0
85.12149 44.0
85.169243 108.0
85.202309 136.0
85.229866 164.0
85.252213 188.0
85.285927 216.0
85.303391 140.0
85.318092 148.0
85.359062 128.0
85.37014 236.0
85.394608 180.0
85.421806 224.0
85.523376 336.0
85.553581 136.0
85.586723 152.0
85.601456 116.0
85.618027 152.0
85.644852 180.0
85.677589 120.0
85.723038 108.0
85.754471 160.0
85.783867 84.0
85.816521 180.0
85.83918 220.0
85.876678 60.0
85.892662 72.0
85.916649 44.0
85.940628 84.0
85.953545 168.0
85.979385 136.0
86.008919 108.0
86.064301 80.0
86.108627 100.0
86.123398 128.0
86.147415 64.0
86.167374 164.0
86.191757 88.0
86.216705 288.0
86.237961 52.0
86.276039 172.0
86.298965 160.0
86.313599 92.0
86.343353 128.0
86.359993 160.0
86.378494 140.0
86.413643 72.0
86.436745 252.0
86.528397 172.0
86.597664 228.0
86.613586 132.0
86.631424 172.0
86.662918 172.0
86.673409 152.0
86.73774 204.0
86.769257 144.0
86.828911 188.0
86.862617 176.0
86.92878 48.0
86.97332 116.0
86.999916 208.0
87.014168 92.0
87.092163 160.0
87.157188 308.0
87.173996 88.0
87.245102 80.0
87.293259 140.0
87.354263 136.0
87.374298 172.0
87.389404 180.0
87.438095 76.0
87.469231 108.0
87.536667 224.0
87.55529 204.0
87.609314 164.0
87.622353 108.0
87.676392 200.0
87.768524 132.0
87.808769 164.0
87.834877 140.0
87.847939 148.0
87.90464 164.0
87.941238 352.0
87.954308 140.0
88.005722 148.0
88.024338 120.0
88.068062 100.0
88.102592 108.0
88.140617 132.0
88.182045 160.0
88.215836 156.0
88.230789 192.0
88.250198 168.0
88.282959 200.0
88.298294 320.0
88.318886 124.0
88.358795 180.0
88.391296 148.0
88.471405 176.0
88.503815 100.0
88.532089 188.0
88.555115 172.0
88.582626 176.0
88.615479 136.0
88.630859 156.0
88.660576 292.0
88.677368 156.0
88.689217 104.0
88.69175 136.0
88.713806 208.0
88.777557 108.0
88.800064 120.0
88.827644 176.0
88.841942 184.0
88.868629 124.0
88.897621 164.0
88.912636 180.0
88.929527 148.0
88.950172 140.0
88.993355 116.0
89.017769 76.0
89.056396 176.0
89.104172 136.0
89.127907 152.0
89.164307 196.0
89.192368 144.0
89.235786 328.0
89.258301 124.0
89.299675 200.0
89.349281 184.0
89.367401 208.0
89.416191 108.0
89.433273 68.0
89.46151 132.0
89.485985 364.0
89.503731 188.0
89.521759 112.0
89.539558 88.0
89.551895 124.0
89.566963 152.0
89.593117 204.0
89.658012 136.0
89.704529 188.0
89.734688 168.0
89.763306 160.0
89.780266 192.0
89.800697 128.0
89.815781 84.0
89.874268 144.0
89.913643 116.0
89.920166 100.0
89.927467 148.0
89.941086 188.0
89.973274 172.0
90.002625 120.0
90.015846 200.0
90.052521 200.0
90.107086 92.0
90.12352 144.0
90.17308 252.0
90.212349 368.0
90.242599 168.0
90.257721 124.0
90.291763 212.0
90.312569 136.0
90.339157 152.0
90.367432 220.0
90.406509 172.0
90.426094 124.0
90.450706 68.0
90.469292 88.0
90.498413 176.0
90.52359 164.0
90.575844 144.0
90.590836 192.0
90.629822 104.0
90.647682 112.0
90.676788 168.0
90.695061 132.0
90.719704 164.0
90.759521 112.0
90.776588 136.0
90.803139 112.0
90.850563 140.0
90.896973 156.0
90.931511 140.0
90.95446 176.0
91.021385 128.0
91.054222 2692.0
91.079773 108.0
91.122955 316.0
91.148659 152.0
91.161964 132.0
91.186668 84.0
91.201874 120.0
91.228485 116.0
91.296944 136.0
91.317863 128.0
91.357811 88.0
91.375328 96.0
91.395859 60.0
91.411087 104.0
91.434845 132.0
91.468185 156.0
91.511971 180.0
91.537971 196.0
91.579063 208.0
91.616386 160.0
91.62368 92.0
91.656044 232.0
91.69104 200.0
91.708321 252.0
91.743225 132.0
91.758545 116.0
91.782547 260.0
91.834206 92.0
91.862648 96.0
91.891548 136.0
91.910347 168.0
91.935051 148.0
91.955132 152.0
91.976799 196.0
92.000053 184.0
92.024872 328.0
92.058105 272.0
92.090912 428.0
92.122276 68.0
92.145203 80.0
92.177689 180.0
92.198708 116.0
92.236938 156.0
92.256058 144.0
92.278015 156.0
92.336365 116.0
92.352585 128.0
92.364326 140.0
92.389923 204.0
92.42572 136.0
92.477951 180.0
92.493263 96.0
92.51432 204.0
92.55262 136.0
92.590919 196.0
92.606239 168.0
92.622551 68.0
92.648384 172.0
92.675209 164.0
92.693535 176.0
92.747131 136.0
92.769119 128.0
92.800591 212.0
92.817673 136.0
92.84774 156.0
92.897606 148.0
92.920105 116.0
92.941734 156.0
92.957474 120.0
92.975899 344.0
92.989716 152.0
93.037704 172.0
93.056816 172.0
93.126373 160.0
93.170021 156.0
93.187233 248.0
93.23748 164.0
93.280869 160.0
93.312447 76.0
93.333595 100.0
93.372055 92.0
93.405807 176.0
93.425919 124.0
93.439384 108.0
93.478142 112.0
93.518288 72.0
93.539459 104.0
93.606026 196.0
93.620331 160.0
93.64537 228.0
93.66848 136.0
93.6838 160.0
93.7164 252.0
93.728645 164.0
93.787422 160.0
93.818794 196.0
93.850609 88.0
93.87664 172.0
93.905685 304.0
93.953796 344.0
93.976326 192.0
94.014748 164.0
94.064598 5148.0
94.085976 240.0
94.111397 116.0
94.132492 164.0
94.148155 88.0
94.197044 48.0
94.227959 120.0
94.251144 116.0
94.300468 164.0
94.326515 172.0
94.381889 188.0
94.417397 104.0
94.444473 176.0
94.46962 96.0
94.51606 100.0
94.535408 260.0
94.548958 80.0
94.564438 144.0
94.593475 112.0
94.634857 120.0
94.666443 216.0
94.709663 176.0
94.725159 148.0
94.808472 136.0
94.84938 168.0
94.867592 112.0
94.884071 152.0
94.934486 120.0
94.992271 168.0
95.02372 152.0
95.045059 184.0
95.070427 932.0
95.141724 160.0
95.165405 160.0
95.181824 144.0
95.229492 156.0
95.25045 204.0
95.257767 72.0
95.281944 280.0
95.305969 208.0
95.320694 136.0
95.357735 104.0
95.375221 188.0
95.397453 248.0
95.417992 40.0
95.435493 188.0
95.45105 156.0
95.473686 144.0
95.504738 132.0
95.525833 372.0
95.541428 60.0
95.545761 196.0
95.559021 352.0
95.579437 56.0
95.599564 128.0
95.607849 220.0
95.61113 140.0
95.65226 220.0
95.674255 192.0
95.694733 224.0
95.738594 132.0
95.757843 224.0
95.781189 148.0
95.800346 208.0
95.817497 272.0
95.843346 180.0
95.861099 128.0
95.885185 156.0
95.935867 220.0
95.968735 132.0
95.984612 160.0
96.008011 104.0
96.024658 252.0
96.056358 224.0
96.08075 38356.0
96.124153 120.0
96.138504 72.0
96.173737 304.0
96.205856 316.0
96.241035 176.0
96.276688 76.0
96.293167 76.0
96.30751 276.0
96.357491 156.0
96.388908 108.0
96.436241 120.0
96.446587 32.0
96.452736 140.0
96.470779 180.0
96.494148 260.0
96.524277 220.0
96.54792 160.0
96.582245 160.0
96.657471 204.0
96.676155 256.0
96.691818 88.0
96.715096 112.0
96.73365 280.0
96.790062 152.0
96.844536 332.0
96.870003 72.0
96.886284 128.0
96.931396 156.0
96.979736 68.0
97.002052 104.0
97.015022 172.0
97.059586 148.0
97.086617 5860.0
97.177414 160.0
97.225014 144.0
97.260231 40.0
97.293327 192.0
97.342697 104.0
97.358406 156.0
97.419296 60.0
97.438942 116.0
97.454659 172.0
97.470383 88.0
97.488068 72.0
97.52523 216.0
97.541962 152.0
97.572868 168.0
97.620491 200.0
97.624397 136.0
97.647316 104.0
97.670624 188.0
97.700195 136.0
97.716164 56.0
97.768196 136.0
97.794884 244.0
97.808662 148.0
97.842133 96.0
97.880135 132.0
97.899231 220.0
97.931526 152.0
97.947395 124.0
97.993782 96.0
98.01416 172.0
98.030762 136.0
98.036003 104.0
98.043877 76.0
98.058189 188.0
98.066536 188.0
98.089783 208.0
98.120438 124.0
98.145561 92.0
98.159996 236.0
98.210976 204.0
98.256012 164.0
98.303917 188.0
98.351257 168.0
98.375343 156.0
98.415207 128.0
98.431976 272.0
98.45195 136.0
98.493034 128.0
98.546249 160.0
98.57589 92.0
98.595657 140.0
98.633118 164.0
98.662865 112.0
98.705109 392.0
98.754608 212.0
98.779541 108.0
98.840874 84.0
98.860664 136.0
98.881798 240.0
98.910149 160.0
98.929596 160.0
98.961006 168.0
98.978516 240.0
98.999245 104.0
99.029327 204.0
99.0448 188.0
99.082443 128.0
99.161705 124.0
99.181725 240.0
99.28434 100.0
99.303383 152.0
99.346123 184.0
99.407349 172.0
99.425491 152.0
99.445335 172.0
99.469154 168.0
99.514313 104.0
99.528587 240.0
99.59227 164.0
99.612701 196.0
99.635979 148.0
99.651871 148.0
99.699562 68.0
99.723541 336.0
99.739311 124.0
99.785217 224.0
99.810417 204.0
99.825256 176.0
99.880501 124.0
99.904366 132.0
99.927032 296.0
99.962074 328.0
99.97998 96.0
100.01297 188.0
100.093452 148.0
100.12677 148.0
100.143356 140.0
100.21035 152.0
100.230904 160.0
100.252823 160.0
100.322586 136.0
100.364883 260.0
100.445061 116.0
100.485298 152.0
100.567947 156.0
100.590706 180.0
100.683754 192.0
100.715714 192.0
100.742798 136.0
100.828743 168.0
100.847588 80.0
100.883072 128.0
100.914276 224.0
100.971458 176.0
100.987556 208.0
101.012535 168.0
101.053574 172.0
101.092407 284.0
101.121529 192.0
101.16507 180.0
101.20369 128.0
101.249748 132.0
101.269966 168.0
101.295815 104.0
101.386772 152.0
101.418739 164.0
101.476189 44.0
101.492233 160.0
101.524742 152.0
101.584656 144.0
101.619034 164.0
101.644684 132.0
101.672226 204.0
101.694855 132.0
101.722961 180.0
101.751579 156.0
101.773842 128.0
101.835762 136.0
101.897682 48.0
101.957642 148.0
101.976059 88.0
102.026627 208.0
102.042549 104.0
102.061401 292.0
102.092499 144.0
102.106903 204.0
102.127769 224.0
102.159164 136.0
102.181175 52.0
102.19928 176.0
102.229469 356.0
102.283813 124.0
102.35025 104.0
102.412682 176.0
102.426781 164.0
102.447311 176.0
102.483192 152.0
102.507378 196.0
102.527527 100.0
102.543648 164.0
102.573883 132.0
102.620255 212.0
102.634369 160.0
102.727783 184.0
102.747322 132.0
102.800064 144.0
102.832077 40.0
102.85862 212.0
102.88456 112.0
102.907967 196.0
102.941101 228.0
102.974464 48.0
103.004852 120.0
103.053528 1664.0
103.078468 156.0
103.118889 160.0
103.148857 116.0
103.181549 108.0
103.213905 252.0
103.237862 136.0
103.297432 120.0
103.355499 232.0
103.409714 152.0
103.432411 120.0
103.459259 152.0
103.491119 100.0
103.511368 140.0
103.600227 80.0
103.651184 184.0
103.676216 148.0
103.693703 52.0
103.788986 184.0
103.807236 104.0
103.833076 388.0
103.855911 116.0
103.892426 132.0
103.914742 240.0
103.933006 116.0
103.947212 156.0
103.979622 140.0
104.002007 140.0
104.030426 80.0
104.053497 284.0
104.093369 160.0
104.125862 248.0
104.148598 144.0
104.170547 132.0
104.190865 132.0
104.21891 372.0
104.266304 128.0
104.324997 196.0
104.360443 224.0
104.388031 92.0
104.409416 140.0
104.415146 120.0
104.421249 180.0
104.449051 220.0
104.463287 160.0
104.483635 60.0
104.516022 148.0
104.523849 136.0
104.578842 196.0
104.601669 112.0
104.643234 168.0
104.66993 68.0
104.733116 152.0
104.778847 168.0
104.801254 140.0
104.847412 68.0
104.860359 140.0
104.874626 164.0
104.933746 164.0
104.958054 152.0
104.990845 204.0
105.035309 260.0
105.069214 844.0
105.10144 168.0
105.141815 200.0
105.168922 196.0
105.22551 140.0
105.240555 152.0
105.277519 192.0
105.288429 132.0
105.327621 148.0
105.352135 152.0
105.374611 76.0
105.405258 144.0
105.440697 200.0
105.472702 148.0
105.506721 236.0
105.535812 188.0
105.573654 276.0
105.597435 164.0
105.628113 80.0
105.684158 180.0
105.715164 140.0
105.748535 160.0
105.810257 104.0
105.844009 140.0
105.86554 152.0
105.904671 136.0
105.937233 52.0
105.982307 120.0
106.027649 220.0
106.072823 168.0
106.095032 152.0
106.109383 64.0
106.127441 164.0
106.149551 204.0
106.16684 212.0
106.196541 104.0
106.224236 248.0
106.239761 196.0
106.263214 132.0
106.305107 192.0
106.36377 116.0
106.394569 120.0
106.412331 92.0
106.441788 140.0
106.51162 108.0
106.54425 136.0
106.569321 272.0
106.595856 108.0
106.618462 116.0
106.653404 148.0
106.690407 132.0
106.71508 64.0
106.750038 124.0
106.780891 168.0
106.832314 80.0
106.85083 176.0
106.885811 212.0
106.941963 112.0
106.94738 48.0
106.963905 144.0
106.986664 76.0
107.066071 128.0
107.093742 152.0
107.114342 132.0
107.141129 72.0
107.174934 240.0
107.216873 216.0
107.248283 160.0
107.287453 168.0
107.314911 244.0
107.340874 132.0
107.361687 136.0
107.398811 152.0
107.413246 224.0
107.448219 80.0
107.463104 184.0
107.491653 116.0
107.510223 84.0
107.532928 184.0
107.603111 104.0
107.633698 212.0
107.686058 116.0
107.717903 172.0
107.751823 172.0
107.797279 132.0
107.864799 152.0
107.889481 244.0
107.922684 120.0
107.955673 168.0
107.986702 200.0
108.000725 60.0
108.016373 232.0
108.057823 104.0
108.08078 1560.0
108.140594 216.0
108.161293 248.0
108.17881 148.0
108.254234 180.0
108.27932 120.0
108.29483 188.0
108.33651 256.0
108.362183 180.0
108.393265 120.0
108.447144 200.0
108.476166 124.0
108.513481 140.0
108.546181 120.0
108.563255 180.0
108.584831 188.0
108.590981 76.0
108.597382 140.0
108.613029 112.0
108.646225 184.0
108.663597 192.0
108.676308 144.0
108.707703 128.0
108.743752 128.0
108.783195 188.0
108.805794 176.0
108.830414 252.0
108.849052 208.0
108.871216 80.0
108.909859 120.0
108.924911 196.0
108.976341 124.0
108.990891 112.0
109.00959 72.0
109.05323 172.0
109.086266 216.0
109.153023 76.0
109.177979 140.0
109.194229 192.0
109.236977 88.0
109.295395 100.0
109.333626 236.0
109.381111 140.0
109.421448 168.0
109.436539 128.0
109.464073 136.0
109.483917 168.0
109.51516 128.0
109.540154 124.0
109.607491 120.0
109.623497 108.0
109.671432 160.0
109.694359 220.0
109.713127 148.0
109.743347 412.0
109.772552 104.0
109.786102 136.0
109.803902 96.0
109.819473 72.0
109.854935 120.0
109.91127 96.0
109.93631 104.0
109.959488 144.0
109.98098 120.0
110.021896 112.0
110.04277 56.0
110.095604 5724.0
110.119591 244.0
110.143013 40.0
110.167038 24.0
110.237038 176.0
110.28511 188.0
110.308098 112.0
110.326912 88.0
110.343643 236.0
110.36322 88.0
110.392593 136.0
110.458664 92.0
110.485863 124.0
110.528168 228.0
110.57711 172.0
110.583809 104.0
110.589058 152.0
110.608536 232.0
110.656265 124.0
110.670044 160.0
110.709541 172.0
110.743347 164.0
110.760101 168.0
110.808289 48.0
110.841812 180.0
110.876938 232.0
110.93602 156.0
110.992737 112.0
111.036598 192.0
111.098679 332.0
111.154259 132.0
111.173149 148.0
111.219322 120.0
111.236115 192.0
111.253731 236.0
111.277542 132.0
111.330605 192.0
111.349503 120.0
111.373734 148.0
111.423027 144.0
111.494476 92.0
111.528786 160.0
111.544922 116.0
111.582764 108.0
111.599579 184.0
111.618896 192.0
111.63533 40.0
111.65361 100.0
111.673187 128.0
111.71315 100.0
111.857117 244.0
111.888626 152.0
111.917305 84.0
111.951118 148.0
111.980042 164.0
112.006317 124.0
112.025787 300.0
112.06897 248.0
112.106155 152.0
112.124565 208.0
112.190109 136.0
112.233467 192.0
112.256577 172.0
112.281883 328.0
112.300865 136.0
112.357819 52.0
112.410484 192.0
112.438011 248.0
112.475182 124.0
112.500923 124.0
112.509949 224.0
112.564674 212.0
112.609329 228.0
112.659721 116.0
112.680511 248.0
112.716774 96.0
112.765381 112.0
112.822456 152.0
112.837257 180.0
112.873199 240.0
112.89888 168.0
112.951454 304.0
112.976837 200.0
113.000114 176.0
113.037407 96.0
113.112282 100.0
113.167328 108.0
113.18998 80.0
113.233025 160.0
113.294403 172.0
113.317711 152.0
113.347374 136.0
113.368568 128.0
113.400352 140.0
113.418793 224.0
113.442749 112.0
113.510597 80.0
113.550896 132.0
113.57785 356.0
113.625137 124.0
113.668671 288.0
113.70079 200.0
113.772148 208.0
113.800377 192.0
113.828911 132.0
113.869263 200.0
113.890503 112.0
113.910736 160.0
113.949982 184.0
113.973732 252.0
113.996735 132.0
114.070381 148.0
114.090256 176.0
114.190201 140.0
114.240433 176.0
114.300079 148.0
114.370804 164.0
114.392128 232.0
114.41468 220.0
114.437546 240.0
114.50946 192.0
114.58828 120.0
114.615982 200.0
114.658463 120.0
114.705498 216.0
114.728951 156.0
114.763382 132.0
114.804161 176.0
114.824371 112.0
114.865433 84.0
114.895683 132.0
114.914803 144.0
114.940109 108.0
114.966446 152.0
114.993675 200.0
115.053688 19736.0
115.106613 56.0
115.125832 56.0
115.168549 160.0
115.185638 100.0
115.230965 92.0
115.261063 172.0
115.317078 280.0
115.346725 156.0
115.362007 128.0
115.377968 96.0
115.397217 56.0
115.442116 96.0
115.459229 160.0
115.484894 204.0
115.523399 68.0
115.580849 136.0
115.628403 168.0
115.646652 268.0
115.682991 132.0
115.701698 140.0
115.724579 116.0
115.744415 152.0
115.785858 104.0
115.844643 140.0
115.867577 136.0
115.88134 296.0
115.908791 144.0
115.93821 204.0
115.9748 80.0
116.018105 348.0
116.0578 1928.0
116.160103 280.0
116.185387 176.0
116.230446 132.0
116.29644 208.0
116.318443 148.0
116.350647 176.0
116.380707 176.0
116.408623 176.0
116.448814 196.0
116.474739 148.0
116.480316 116.0
116.500984 196.0
116.537506 132.0
116.570847 256.0
116.614532 220.0
116.656982 196.0
116.694412 92.0
116.720215 148.0
116.737419 116.0
116.78067 72.0
116.81485 112.0
116.847054 224.0
116.888 136.0
116.913383 176.0
116.92926 184.0
116.956375 244.0
116.960381 172.0
117.032356 192.0
117.069405 11596.0
117.125877 100.0
117.167816 428.0
117.202393 56.0
117.24794 88.0
117.307999 196.0
117.32309 260.0
117.362129 188.0
117.378532 152.0
117.415688 136.0
117.431229 136.0
117.499939 172.0
117.521515 164.0
117.543098 128.0
117.558205 204.0
117.588417 120.0
117.603523 156.0
117.620895 176.0
117.709312 92.0
117.750351 116.0
117.810829 32.0
117.836754 148.0
117.850739 136.0
117.867004 244.0
117.890778 148.0
117.930183 160.0
117.971985 112.0
117.991829 144.0
118.03656 192.0
118.072327 1400.0
118.128624 180.0
118.197853 192.0
118.230911 168.0
118.262115 196.0
118.277931 168.0
118.309448 172.0
118.35804 104.0
118.377533 36.0
118.397018 120.0
118.41172 112.0
118.440338 316.0
118.527161 160.0
118.580315 80.0
118.607193 136.0
118.622368 56.0
118.716789 80.0
118.736946 104.0
118.75898 124.0
118.782837 144.0
118.821892 136.0
118.837074 128.0
118.865288 84.0
118.897835 108.0
118.936905 100.0
118.980225 176.0
118.998459 152.0
119.041122 160.0
119.074821 240.0
119.112793 180.0
119.132347 112.0
119.15625 124.0
119.188835 120.0
119.225975 312.0
119.255188 212.0
119.295341 212.0
119.336647 60.0
119.373611 132.0
119.4076 204.0
119.430161 148.0
119.460617 172.0
119.512833 104.0
119.530243 172.0
119.571869 188.0
119.623833 40.0
119.658661 212.0
119.678261 92.0
119.824196 228.0
119.874649 180.0
119.919426 200.0
119.945679 188.0
119.989838 168.0
120.005096 184.0
120.031265 48.0
120.081429 244.0
120.112465 208.0
120.15123 236.0
120.203384 204.0
120.217049 164.0
120.237221 128.0
120.283401 256.0
120.375221 188.0
120.439392 144.0
120.476265 100.0
120.504738 272.0
120.66011 152.0
120.701653 228.0
120.727898 188.0
120.786957 152.0
120.80883 184.0
120.861343 128.0
120.896355 212.0
120.953026 184.0
121.038643 140.0
121.06881 212.0
121.143013 172.0
121.170067 140.0
121.213432 172.0
121.220596 136.0
121.226456 180.0
121.280449 152.0
121.360756 180.0
121.389267 168.0
121.413391 180.0
121.429176 224.0
121.454262 372.0
121.507713 156.0
121.5494 128.0
121.566956 144.0
121.608658 88.0
121.637115 124.0
121.659309 108.0
121.69117 108.0
121.705254 252.0
121.72332 176.0
121.760155 136.0
121.837036 108.0
121.863533 68.0
121.899773 160.0
121.959213 228.0
121.988319 224.0
122.014374 160.0
122.073586 136.0
122.12281 120.0
122.149208 116.0
122.173409 100.0
122.213013 128.0
122.261421 156.0
122.303246 68.0
122.34507 104.0
122.382744 356.0
122.420944 148.0
122.451538 148.0
122.460762 52.0
122.465538 176.0
122.491516 304.0
122.525589 120.0
122.611603 136.0
122.65789 224.0
122.726715 128.0
122.754128 148.0
122.77475 136.0
122.803421 200.0
122.837936 136.0
122.858574 152.0
122.884804 168.0
122.920578 116.0
122.975525 132.0
123.028503 108.0
123.046165 96.0
123.061623 260.0
123.132286 76.0
123.203453 92.0
123.271469 276.0
123.348831 152.0
123.367905 140.0
123.412949 180.0
123.430634 144.0
123.461594 140.0
123.527954 100.0
123.561661 220.0
123.578835 144.0
123.62088 136.0
123.687279 200.0
123.727127 304.0
123.795914 184.0
123.826485 120.0
123.86187 232.0
123.899879 132.0
123.922035 172.0
123.937546 312.0
123.964134 204.0
123.986298 176.0
124.006248 172.0
124.059448 116.0
124.083832 140.0
124.105957 188.0
124.179192 196.0
124.194717 180.0
124.210243 60.0
124.301208 124.0
124.376671 128.0
124.396645 156.0
124.463257 288.0
124.479614 228.0
124.516556 172.0
124.558754 164.0
124.586403 152.0
124.614296 64.0
124.640961 172.0
124.696518 92.0
124.754646 200.0
124.766022 120.0
124.794945 116.0
124.816887 256.0
124.854378 44.0
124.884247 140.0
125.003433 124.0
125.03418 132.0
125.063522 188.0
125.083511 208.0
125.119179 128.0
125.137398 108.0
125.161484 144.0
125.25502 136.0
125.269669 140.0
125.309456 212.0
125.426605 196.0
125.451126 160.0
125.486801 40.0
125.515785 192.0
125.553696 120.0
125.573769 148.0
125.604996 64.0
125.633438 96.0
125.654076 128.0
125.693321 184.0
125.745567 156.0
125.814987 192.0
125.839813 92.0
125.869537 68.0
125.901054 100.0
125.930893 136.0
125.962166 112.0
125.986595 156.0
126.009079 172.0
126.046608 432.0
126.076859 168.0
126.090271 84.0
126.116348 148.0
126.136917 356.0
126.186935 104.0
126.192978 144.0
126.216949 180.0
126.233513 204.0
126.297462 64.0
126.328781 128.0
126.364578 148.0
126.385712 152.0
126.451859 136.0
126.469322 164.0
126.493164 88.0
126.539162 180.0
126.605736 164.0
126.662331 136.0
126.696465 204.0
126.731789 100.0
126.760918 224.0
126.832253 164.0
126.879753 160.0
126.905098 188.0
127.053192 1372.0
127.103691 56.0
127.125587 108.0
127.142159 84.0
127.17807 212.0
127.270897 104.0
127.290543 188.0
127.306053 136.0
127.334915 164.0
127.339157 140.0
127.369682 364.0
127.402634 72.0
127.431839 268.0
127.47525 164.0
127.479507 208.0
127.497841 152.0
127.528038 144.0
127.550957 68.0
127.566689 148.0
127.599373 160.0
127.625145 152.0
127.649879 136.0
127.706108 144.0
127.748848 132.0
127.766846 228.0
127.785789 124.0
127.815018 156.0
127.879364 144.0
127.908226 136.0
127.956482 108.0
127.976166 256.0
127.991928 160.0
128.021317 276.0
128.061188 12520.0
128.139755 152.0
128.160385 76.0
128.201996 224.0
128.225433 184.0
128.275803 152.0
128.296387 152.0
128.336685 44.0
128.361481 96.0
128.377274 76.0
128.393066 56.0
128.473724 168.0
128.508102 128.0
128.526031 144.0
128.55835 136.0
128.581009 52.0
128.621582 404.0
128.688675 104.0
128.754166 108.0
128.792358 132.0
128.812897 176.0
128.83548 144.0
128.876144 224.0
128.912308 88.0
128.930389 120.0
128.96228 140.0
128.981949 128.0
128.994293 132.0
129.016281 252.0
129.069183 17244.0
129.105972 60.0
129.115234 132.0
129.144119 68.0
129.159149 76.0
129.219299 132.0
129.227493 156.0
129.262833 264.0
129.304764 288.0
129.346985 132.0
129.35672 156.0
129.361786 208.0
129.492233 96.0
129.513123 116.0
129.539047 196.0
129.566238 56.0
129.583984 284.0
129.634216 72.0
129.656876 68.0
129.677277 120.0
129.697678 68.0
129.716339 260.0
129.761154 172.0
129.82312 232.0
129.888153 104.0
129.906296 180.0
129.938065 80.0
129.983444 52.0
130.033371 116.0
130.073044 1568.0
130.121902 188.0
130.168686 144.0
130.199112 216.0
130.215012 188.0
130.249084 168.0
130.305008 148.0
130.324051 96.0
130.342239 196.0
130.417236 204.0
130.452087 168.0
130.471786 56.0
130.497177 48.0
130.528641 156.0
130.59082 256.0
130.621887 172.0
130.650436 176.0
130.669495 164.0
130.69014 156.0
130.754486 116.0
130.790482 128.0
130.856247 196.0
130.872803 32.0
130.894653 156.0
130.941345 156.0
130.963333 72.0
130.986115 188.0
131.00296 212.0
131.048981 336.0
131.077011 144.0
131.083328 192.0
131.110275 144.0
131.140366 172.0
131.252335 188.0
131.32135 124.0
131.389618 112.0
131.435257 100.0
131.505997 84.0
131.551346 180.0
131.554703 156.0
131.563812 232.0
131.643417 148.0
131.752167 120.0
131.791473 144.0
131.87146 164.0
131.982132 232.0
131.986435 136.0
132.055237 128.0
132.087936 172.0
132.15274 172.0
132.198502 124.0
132.226929 124.0
132.255722 116.0
132.271744 164.0
132.306091 208.0
132.340439 224.0
132.383942 276.0
132.402267 196.0
132.471802 176.0
132.489304 104.0
132.510712 336.0
132.532837 148.0
132.609512 272.0
132.645142 160.0
132.681061 192.0
132.687271 128.0
132.758835 148.0
132.775833 144.0
132.841446 232.0
132.902115 156.0
132.938538 96.0
132.974548 184.0
133.007584 120.0
133.028244 108.0
133.053497 228.0
133.085648 100.0
133.101715 136.0
133.161423 140.0
133.196686 136.0
133.241821 112.0
133.326843 172.0
133.360413 152.0
133.416489 100.0
133.478577 160.0
133.517319 180.0
133.603607 168.0
133.671814 120.0
133.69191 136.0
133.720139 168.0
133.745453 128.0
133.7892 180.0
133.821991 116.0
133.859573 196.0
133.92276 52.0
133.970596 224.0
133.995163 112.0
134.019516 168.0
134.079437 160.0
134.114517 144.0
134.189651 160.0
134.242096 144.0
134.286301 144.0
134.295364 104.0
134.311325 252.0
134.329926 204.0
134.453064 152.0
134.50383 200.0
134.53154 96.0
134.574188 152.0
134.622101 224.0
134.643753 200.0
134.67009 108.0
134.796951 132.0
134.805939 120.0
134.814438 228.0
134.868805 120.0
134.901169 44.0
134.926605 192.0
134.980789 164.0
135.051483 136.0
135.07753 136.0
135.15155 200.0
135.197235 156.0
135.234268 112.0
135.266068 168.0
135.299942 260.0
135.369247 268.0
135.399506 88.0
135.414871 188.0
135.447296 48.0
135.477417 140.0
135.507141 116.0
135.574738 140.0
135.600235 112.0
135.637314 124.0
135.727737 92.0
135.788025 264.0
135.827469 124.0
135.864578 120.0
135.957642 152.0
135.973648 188.0
136.045609 156.0
136.073456 120.0
136.10231 172.0
136.143127 180.0
136.159378 172.0
136.194229 176.0
136.236038 140.0
136.305145 224.0
136.335953 160.0
136.352219 140.0
136.373138 32.0
136.408813 220.0
136.432434 324.0
136.463806 128.0
136.505661 116.0
136.532516 168.0
136.563797 124.0
136.591873 124.0
136.610321 116.0
136.70842 280.0
136.718323 192.0
136.74762 60.0
136.793976 92.0
136.838409 172.0
136.880325 244.0
136.924561 204.0
136.960312 104.0
136.994446 56.0
137.064346 160.0
137.148239 120.0
137.187881 40.0
137.206207 148.0
137.338867 256.0
137.372116 116.0
137.416443 116.0
137.449097 128.0
137.465439 44.0
137.495773 276.0
137.520752 148.0
137.551239 436.0
137.60408 188.0
137.649857 172.0
137.668472 128.0
137.850754 116.0
137.867111 96.0
137.916199 92.0
137.965286 136.0
138.004395 136.0
138.040878 100.0
138.128922 124.0
138.14563 140.0
138.191406 136.0
138.238571 120.0
138.274673 168.0
138.400482 104.0
138.466278 84.0
138.606613 172.0
138.625366 160.0
138.644104 140.0
138.667542 192.0
138.706192 168.0
138.755569 160.0
138.775391 188.0
138.794144 136.0
138.834579 164.0
138.906723 184.0
138.94426 148.0
139.002792 160.0
139.052826 392.0
139.115585 156.0
139.139999 160.0
139.175613 112.0
139.204803 156.0
139.237686 120.0
139.291702 44.0
139.318161 216.0
139.378632 184.0
139.43428 136.0
139.481476 148.0
139.502274 344.0
139.550232 120.0
139.592865 212.0
139.627823 164.0
139.68428 84.0
139.801926 220.0
139.818405 160.0
139.833725 164.0
139.903137 124.0
139.936096 116.0
139.955566 180.0
139.980835 136.0
140.058563 168.0
140.084473 304.0
140.115097 252.0
140.132843 148.0
140.16037 184.0
140.195221 128.0
140.306 148.0
140.353745 196.0
140.372025 224.0
140.397964 128.0
140.427582 200.0
140.456451 116.0
140.474243 132.0
140.508926 300.0
140.55838 180.0
140.592575 204.0
140.610306 88.0
140.652359 108.0
140.730698 180.0
140.753632 152.0
140.800354 168.0
140.8535 164.0
140.89122 212.0
140.896637 116.0
140.938171 184.0
140.968842 176.0
141.034744 284.0
141.069168 15088.0
141.128876 76.0
141.200974 180.0
141.243317 204.0
141.252243 188.0
141.25882 116.0
141.33345 160.0
141.388107 168.0
141.424728 56.0
141.473083 156.0
141.503174 312.0
141.552612 212.0
141.578644 236.0
141.681503 200.0
141.69809 120.0
141.726974 164.0
141.822311 180.0
141.845016 128.0
141.892426 428.0
142.020493 220.0
142.072037 1288.0
142.097565 204.0
142.106979 376.0
142.124878 152.0
142.151611 136.0
142.180359 204.0
142.203186 116.0
142.222183 140.0
142.27771 180.0
142.355133 84.0
142.386017 188.0
142.454895 188.0
142.489151 160.0
142.513611 332.0
142.537781 104.0
142.607834 288.0
142.641525 224.0
142.671768 140.0
142.722916 240.0
142.768646 172.0
142.806702 128.0
142.84407 220.0
142.902206 112.0
142.948425 92.0
142.975632 152.0
142.993423 84.0
143.040695 156.0
143.084229 548.0
143.142273 180.0
143.165024 116.0
143.199432 140.0
143.24469 68.0
143.274826 80.0
143.302567 224.0
143.341461 176.0
143.360245 156.0
143.380508 380.0
143.413879 124.0
143.465683 140.0
143.492554 120.0
143.52832 60.0
143.626099 108.0
143.719147 56.0
143.819824 136.0
143.848022 140.0
143.877243 188.0
143.957382 144.0
144.019958 176.0
144.051544 160.0
144.084534 392.0
144.132233 176.0
144.153748 104.0
144.301941 128.0
144.345566 216.0
144.40239 132.0
144.438263 140.0
144.457397 160.0
144.483719 212.0
144.507645 228.0
144.569855 144.0
144.589951 296.0
144.682724 212.0
144.706741 196.0
144.727051 184.0
144.746552 168.0
144.753632 136.0
144.806885 84.0
144.823654 252.0
144.888336 108.0
144.905106 192.0
144.966599 156.0
145.060104 408.0
145.087479 336.0
145.19249 144.0
145.21434 92.0
145.235931 84.0
145.2547 112.0
145.275497 264.0
145.312469 128.0
145.325272 152.0
145.384689 112.0
145.411865 252.0
145.4543 132.0
145.483109 168.0
145.510666 108.0
145.543121 168.0
145.603165 156.0
145.64389 172.0
145.682007 160.0
145.689056 116.0
145.744904 104.0
145.773727 44.0
145.800247 236.0
145.869873 152.0
145.980484 140.0
146.048065 160.0
146.098526 156.0
146.124802 124.0
146.148865 108.0
146.25235 164.0
146.285507 76.0
146.318649 192.0
146.343826 156.0
146.377609 156.0
146.416077 192.0
146.486633 176.0
146.507614 60.0
146.548569 152.0
146.622269 172.0
146.646301 184.0
146.687866 216.0
146.702332 40.0
146.736298 104.0
146.759293 208.0
146.875381 172.0
146.931931 48.0
146.968124 172.0
146.985016 184.0
147.006729 116.0
147.035126 132.0
147.074799 248.0
147.093628 84.0
147.197449 184.0
147.226425 116.0
147.26265 112.0
147.308548 44.0
147.367706 148.0
147.377945 72.0
147.387741 128.0
147.427765 176.0
147.453201 148.0
147.487366 132.0
147.52121 148.0
147.579941 164.0
147.627594 192.0
147.672699 124.0
147.690475 228.0
147.731613 52.0
147.748535 252.0
147.780807 216.0
147.816284 172.0
147.884445 172.0
147.947098 92.0
147.971207 164.0
147.998871 168.0
148.024719 232.0
148.055954 100.0
148.15416 168.0
148.200714 248.0
148.20723 188.0
148.217453 144.0
148.247345 536.0
148.271576 136.0
148.300674 128.0
148.332184 276.0
148.390472 184.0
148.40976 88.0
148.43158 156.0
148.475235 176.0
148.538025 144.0
148.596375 184.0
148.628067 176.0
148.659622 180.0
148.737289 152.0
148.753204 188.0
148.791824 128.0
148.84169 120.0
148.880539 184.0
148.914536 184.0
148.932831 148.0
148.952194 236.0
149.038437 196.0
149.102188 208.0
149.142227 204.0
149.151443 144.0
149.201279 132.0
149.234451 224.0
149.308426 128.0
149.344757 104.0
149.373947 132.0
149.418869 232.0
149.481003 216.0
149.519943 28.0
149.561325 84.0
149.592529 220.0
149.641663 136.0
149.661133 200.0
149.75856 136.0
149.792664 120.0
149.85318 200.0
149.889923 104.0
149.926666 200.0
149.970535 104.0
150.011978 152.0
150.033844 192.0
150.084061 128.0
150.11969 136.0
150.158279 160.0
150.177795 192.0
150.204987 136.0
150.238205 184.0
150.327469 276.0
150.387833 200.0
150.419373 208.0
150.443787 176.0
150.466324 156.0
150.631119 152.0
150.658035 212.0
150.697784 160.0
150.71489 196.0
150.766495 172.0
150.795929 148.0
150.860855 144.0
150.934891 168.0
150.975357 192.0
151.052902 204.0
151.076492 292.0
151.10997 180.0
151.145523 184.0
151.207687 120.0
151.270081 208.0
151.289658 192.0
151.331284 140.0
151.353317 160.0
151.370468 176.0
151.408936 260.0
151.480682 104.0
151.578033 208.0
151.627701 140.0
151.684082 160.0
151.737473 164.0
151.760086 148.0
151.803192 140.0
151.853271 152.0
151.880325 136.0
151.903198 328.0
151.946487 84.0
152.012222 132.0
152.021515 104.0
152.026138 192.0
152.061508 7640.0
152.130554 132.0
152.160019 264.0
152.200241 236.0
152.241043 108.0
152.276169 132.0
152.297531 164.0
152.358948 44.0
152.410782 168.0
152.457764 120.0
152.479355 108.0
152.50148 48.0
152.521149 168.0
152.590256 208.0
152.636703 28.0
152.653915 100.0
152.676041 156.0
152.710709 256.0
152.762131 152.0
152.787048 172.0
152.841812 152.0
152.867874 160.0
152.930695 248.0
152.956543 120.0
152.97377 212.0
153.003952 184.0
153.034775 332.0
153.06871 16732.0
153.118805 196.0
153.155991 92.0
153.173233 164.0
153.196777 36.0
153.233002 200.0
153.27179 36.0
153.293961 92.0
153.333405 172.0
153.434464 88.0
153.471695 208.0
153.513367 108.0
153.544067 108.0
153.577194 128.0
153.589264 88.0
153.684189 168.0
153.718124 128.0
153.739304 124.0
153.772766 144.0
153.799576 84.0
153.839066 140.0
153.890076 188.0
153.906342 164.0
153.959641 116.0
153.987228 156.0
154.014145 152.0
154.074936 4860.0
154.136932 128.0
154.149887 100.0
154.186371 180.0
154.224426 248.0
154.244507 100.0
154.289551 200.0
154.38266 52.0
154.41156 100.0
154.428101 76.0
154.477966 228.0
154.521194 136.0
154.580582 204.0
154.5979 120.0
154.615219 40.0
154.657043 192.0
154.724136 240.0
154.750046 156.0
154.761139 72.0
154.76506 152.0
154.87767 168.0
154.969345 132.0
155.001556 136.0
155.03212 116.0
155.060104 1040.0
155.081558 1276.0
155.141312 120.0
155.167892 112.0
155.231415 132.0
155.253616 148.0
155.301147 100.0
155.32634 68.0
155.35611 60.0
155.452881 112.0
155.510727 208.0
155.593933 68.0
155.648987 84.0
155.714447 196.0
155.74585 244.0
155.826035 172.0
155.940582 76.0
155.986343 72.0
156.019211 164.0
156.058929 188.0
156.093292 392.0
156.151947 168.0
156.180847 168.0
156.205719 144.0
156.225632 156.0
156.270416 168.0
156.345566 176.0
156.372437 80.0
156.408966 240.0
156.442139 184.0
156.491928 420.0
156.511856 120.0
156.546722 184.0
156.576675 136.0
156.701157 72.0
156.761749 176.0
156.838226 196.0
156.860657 68.0
156.920929 92.0
156.94043 124.0
156.967865 68.0
156.987823 112.0
157.012756 116.0
157.055161 272.0
157.087265 680.0
157.214844 124.0
157.233047 180.0
157.322174 140.0
157.360046 140.0
157.399567 180.0
157.489487 160.0
157.519073 212.0
157.549438 304.0
157.574417 148.0
157.669373 96.0
157.691223 108.0
157.72583 144.0
157.776855 228.0
157.809372 56.0
157.830887 244.0
157.884644 192.0
157.966934 44.0
157.994385 148.0
158.02948 144.0
158.072006 140.0
158.094162 688.0
158.139587 192.0
158.169876 160.0
158.18927 228.0
158.242218 160.0
158.269775 96.0
158.300583 380.0
158.342819 116.0
158.367447 104.0
158.389984 192.0
158.449829 184.0
158.585434 164.0
158.612381 208.0
158.668152 160.0
158.72583 112.0
158.797318 136.0
158.818619 148.0
158.886353 112.0
158.913284 136.0
158.934021 108.0
158.976685 124.0
159.008484 132.0
159.107208 136.0
159.136032 192.0
159.169983 64.0
159.190079 140.0
159.242813 132.0
159.271225 104.0
159.313156 400.0
159.363403 180.0
159.411148 108.0
159.474136 124.0
159.499115 180.0
159.531799 88.0
159.555954 184.0
159.644867 136.0
159.680145 116.0
159.705307 60.0
159.729462 196.0
159.770706 156.0
159.826065 196.0
159.857635 272.0
159.875046 164.0
159.906601 64.0
159.964493 136.0
160.017242 88.0
160.067719 204.0
160.102203 196.0
160.163422 180.0
160.223877 56.0
160.262634 136.0
160.28688 132.0
160.307037 192.0
160.445145 116.0
160.488525 108.0
160.522186 172.0
160.571747 116.0
160.614639 92.0
160.649689 156.0
160.654205 140.0
160.682755 112.0
160.702133 232.0
160.726959 132.0
160.743301 168.0
160.771072 124.0
160.800186 136.0
160.853378 216.0
160.884659 120.0
160.925049 172.0
160.970505 132.0
160.992645 188.0
161.00708 132.0
161.015121 96.0
161.085693 184.0
161.18187 308.0
161.185944 208.0
161.199631 160.0
161.205215 176.0
161.288498 148.0
161.377335 128.0
161.468979 148.0
161.515488 204.0
161.534042 356.0
161.570923 148.0
161.622681 64.0
161.680389 140.0
161.734039 164.0
161.769485 72.0
161.812515 160.0
161.840958 188.0
161.908752 64.0
161.975388 180.0
161.999939 132.0
162.027802 140.0
162.063568 104.0
162.102417 196.0
162.121552 92.0
162.146027 140.0
162.174713 152.0
162.207733 116.0
162.260971 164.0
162.439102 208.0
162.461334 140.0
162.487839 208.0
162.543289 164.0
162.577728 176.0
162.661804 108.0
162.710052 228.0
162.864166 180.0
162.954361 104.0
162.976746 116.0
163.020096 200.0
163.048462 152.0
163.083908 216.0
163.113983 120.0
163.162842 128.0
163.224503 136.0
163.296509 224.0
163.330124 212.0
163.396271 88.0
163.473862 252.0
163.533691 116.0
163.554047 108.0
163.576965 312.0
163.610062 172.0
163.660324 108.0
163.778122 156.0
163.811432 160.0
163.84436 184.0
163.897873 148.0
163.989609 172.0
164.03804 132.0
164.057709 460.0
164.219086 176.0
164.247147 120.0
164.281509 196.0
164.326233 140.0
164.379822 64.0
164.438522 96.0
164.45639 176.0
164.493683 204.0
164.555298 140.0
164.598312 216.0
164.638306 80.0
164.698959 88.0
164.752609 180.0
164.854813 152.0
164.875259 56.0
164.903381 152.0
164.938904 116.0
164.947021 104.0
164.959198 124.0
164.965759 208.0
164.990341 180.0
165.013306 180.0
165.042908 380.0
165.069031 17736.0
165.126053 132.0
165.154022 148.0
165.188629 188.0
165.213821 208.0
165.242615 176.0
165.267136 268.0
165.311142 156.0
165.348404 196.0
165.38681 48.0
165.425201 116.0
165.457016 300.0
165.488083 164.0
165.514816 80.0
165.578842 144.0
165.60701 144.0
165.632629 84.0
165.683731 160.0
165.709274 96.0
165.738754 232.0
165.808914 208.0
165.861755 96.0
165.895386 164.0
165.963242 124.0
165.983749 136.0
166.027344 116.0
166.073151 3568.0
166.145828 148.0
166.176132 168.0
166.194092 44.0
166.230011 148.0
166.291611 140.0
166.335251 140.0
166.43689 196.0
166.463623 152.0
166.543243 220.0
166.613556 192.0
166.66655 160.0
166.73851 128.0
166.771927 104.0
166.831055 156.0
166.895325 116.0
166.967789 160.0
167.012589 108.0
167.084442 11048.0
167.193741 108.0
167.229767 108.0
167.25975 124.0
167.266617 128.0
167.314713 100.0
167.340469 96.0
167.357483 100.0
167.400391 168.0
167.433167 124.0
167.481339 200.0
167.502365 60.0
167.539902 92.0
167.570312 220.0
167.610275 176.0
167.644424 180.0
167.687546 192.0
167.715149 188.0
167.797226 216.0
167.840347 76.0
167.929001 148.0
167.956406 172.0
168.000458 100.0
168.052292 140.0
168.085342 2236.0
168.131851 32.0
168.165405 116.0
168.201538 108.0
168.234421 196.0
168.277039 132.0
168.303619 116.0
168.322891 152.0
168.351303 128.0
168.418442 92.0
168.523621 248.0
168.548141 200.0
168.601013 84.0
168.61998 96.0
168.641327 188.0
168.692368 188.0
168.718216 52.0
168.775208 156.0
168.786392 152.0
168.813889 224.0
168.837158 164.0
168.881134 104.0
168.935455 288.0
168.975418 144.0
169.01326 112.0
169.041534 176.0
169.062775 212.0
169.097382 480.0
169.127426 132.0
169.243454 68.0
169.284622 160.0
169.29097 80.0
169.328903 176.0
169.393661 160.0
169.461029 140.0
169.525803 140.0
169.56987 156.0
169.608826 120.0
169.737228 296.0
169.795303 200.0
169.803085 80.0
169.810196 116.0
169.886215 124.0
169.92514 332.0
170.052292 168.0
170.092575 584.0
170.137955 128.0
170.17691 100.0
170.209793 128.0
170.231506 140.0
170.323288 164.0
170.350906 60.0
170.392487 108.0
170.462067 220.0
170.491226 176.0
170.571793 272.0
170.609665 200.0
170.639389 140.0
170.686127 152.0
170.743408 100.0
170.825912 100.0
170.859848 152.0
170.895874 132.0
170.925522 132.0
170.961945 100.0
171.100677 192.0
171.131454 136.0
171.149384 244.0
171.238342 148.0
171.284805 136.0
171.326492 100.0
171.355148 152.0
171.419922 144.0
171.461029 156.0
171.520203 128.0
171.545395 148.0
171.581894 176.0
171.643768 176.0
171.701431 144.0
171.793152 208.0
171.874023 144.0
171.914047 156.0
171.936661 116.0
171.960144 172.0
171.978424 52.0
171.999298 36.0
172.035843 160.0
172.057785 248.0
172.111755 448.0
172.13768 144.0
172.173248 220.0
172.195999 160.0
172.231705 132.0
172.324234 188.0
172.34877 200.0
172.438126 96.0
172.47995 204.0
172.547913 156.0
172.584518 144.0
172.657745 180.0
172.730011 172.0
172.787094 124.0
172.812088 152.0
172.843475 48.0
172.934021 148.0
173.003143 140.0
173.055511 60.0
173.121201 140.0
173.183823 84.0
173.245544 200.0
173.327927 104.0
173.346268 104.0
173.372467 112.0
173.436859 292.0
173.493042 132.0
173.542862 304.0
173.563843 120.0
173.630814 156.0
173.681396 112.0
173.826157 156.0
173.904892 116.0
173.971878 140.0
174.044037 96.0
174.120193 56.0
174.13858 156.0
174.180603 32.0
174.204346 108.0
174.239243 188.0
174.269928 128.0
174.28833 196.0
174.359283 192.0
174.398697 184.0
174.438141 160.0
174.489548 208.0
174.545929 92.0
174.57486 96.0
174.666916 144.0
174.735321 156.0
174.77478 68.0
174.907639 216.0
174.942749 152.0
174.99588 352.0
175.022217 112.0
175.056442 80.0
175.109116 184.0
175.180237 52.0
175.222397 144.0
175.256653 128.0
175.283859 248.0
175.357025 224.0
175.37648 120.0
175.401596 132.0
175.435867 60.0
175.474808 104.0
175.594086 104.0
175.689056 184.0
175.774185 176.0
175.805145 144.0
175.855301 40.0
175.881699 148.0
175.902817 192.0
175.963593 160.0
176.017349 160.0
176.057266 464.0
176.214447 180.0
176.312225 152.0
176.336014 108.0
176.370361 192.0
176.447159 176.0
176.483459 72.0
176.531647 60.0
176.573212 140.0
176.608353 112.0
176.692993 168.0
176.732437 572.0
176.777679 152.0
176.845581 176.0
176.880905 168.0
176.902069 32.0
176.974319 84.0
177.000046 104.0
177.030548 96.0
177.066818 708.0
177.160095 56.0
177.204147 140.0
177.251694 192.0
177.296738 92.0
177.381165 188.0
177.409943 204.0
177.472641 124.0
177.5327 160.0
177.557953 268.0
177.598999 124.0
177.625534 124.0
177.671265 128.0
177.691574 188.0
177.751572 300.0
177.790894 136.0
177.838882 136.0
177.86496 104.0
177.926453 172.0
178.042786 60.0
178.076752 30084.0
178.120453 148.0
178.147217 100.0
178.174637 116.0
178.200989 60.0
178.246475 196.0
178.286667 136.0
178.305267 208.0
178.323883 112.0
178.347794 60.0
178.390335 48.0
178.412933 160.0
178.449356 140.0
178.472748 232.0
178.491364 152.0
178.509598 192.0
178.555603 180.0
178.591766 176.0
178.611847 160.0
178.64563 72.0
178.699783 204.0
178.766434 168.0
178.802628 164.0
178.830673 104.0
178.85257 268.0
178.88475 136.0
178.891235 192.0
178.922409 144.0
178.965012 92.0
179.004959 100.0
179.083801 19948.0
179.147949 140.0
179.169266 228.0
179.23938 164.0
179.284042 84.0
179.324341 104.0
179.33902 72.0
179.364395 224.0
179.41124 188.0
179.452881 160.0
179.481949 152.0
179.508606 180.0
179.527283 80.0
179.548615 148.0
179.593964 72.0
179.612625 148.0
179.664871 248.0
179.703339 148.0
179.794067 208.0
179.830536 252.0
179.855453 152.0
179.878189 68.0
179.924866 144.0
179.96759 180.0
179.990402 176.0
180.049103 152.0
180.088333 2836.0
180.153137 152.0
180.175919 316.0
180.208298 68.0
180.232025 92.0
180.267883 168.0
180.309525 224.0
180.331573 148.0
180.361572 68.0
180.367401 128.0
180.414658 236.0
180.4422 144.0
180.469437 156.0
180.511658 120.0
180.656357 240.0
180.694595 128.0
180.729385 196.0
180.75882 132.0
180.797089 120.0
180.857834 128.0
180.888718 120.0
180.978317 152.0
181.008911 56.0
181.087173 788.0
181.144363 140.0
181.165802 92.0
181.232773 136.0
181.256897 188.0
181.293396 148.0
181.321213 128.0
181.3909 212.0
181.417709 80.0
181.449875 60.0
181.477402 136.0
181.529434 132.0
181.547485 164.0
181.588928 372.0
181.628876 172.0
181.693939 160.0
181.747604 152.0
181.85228 152.0
181.882156 148.0
181.927429 144.0
181.967712 92.0
181.996033 124.0
182.095612 2352.0
182.154144 180.0
182.277222 140.0
182.298111 112.0
182.338226 168.0
182.435181 108.0
182.48967 196.0
182.543137 160.0
182.56694 192.0
182.616882 120.0
182.678436 140.0
182.716904 160.0
182.755249 180.0
182.788071 212.0
182.838669 124.0
182.947281 176.0
183.000748 76.0
183.024414 128.0
183.054031 152.0
183.099686 916.0
183.130249 176.0
183.169846 112.0
183.195541 216.0
183.274933 148.0
183.347687 132.0
183.393509 228.0
183.455566 160.0
183.528305 208.0
183.572769 188.0
183.657761 152.0
183.676636 160.0
183.744827 204.0
183.95047 304.0
183.9711 140.0
184.048386 124.0
184.111588 792.0
184.184113 92.0
184.241119 176.0
184.301559 132.0
184.327316 156.0
184.440826 152.0
184.486786 104.0
184.519226 128.0
184.552917 164.0
184.63121 184.0
184.660629 208.0
184.681488 248.0
184.795105 224.0
184.843674 156.0
184.951752 136.0
184.990509 140.0
185.075729 172.0
185.11377 204.0
185.163269 100.0
185.206604 92.0
185.358322 168.0
185.453186 156.0
185.474548 172.0
185.497864 116.0
185.517609 172.0
185.548065 160.0
185.573334 176.0
185.618561 156.0
185.669479 140.0
185.789444 176.0
185.808426 108.0
185.830139 180.0
185.889832 112.0
185.957687 76.0
185.987534 324.0
186.074417 52.0
186.106995 324.0
186.13414 152.0
186.155869 180.0
186.199326 172.0
186.280807 168.0
186.340576 60.0
186.423187 144.0
186.487656 100.0
186.56073 108.0
186.589691 244.0
186.611679 140.0
186.667374 124.0
186.703506 172.0
186.737473 100.0
186.870773 128.0
186.940704 184.0
186.951675 148.0
187.001404 32.0
187.049622 196.0
187.092422 192.0
187.140244 332.0
187.167465 152.0
187.189255 136.0
187.211044 124.0
187.267639 156.0
187.373077 148.0
187.421494 172.0
187.462585 288.0
187.486206 132.0
187.518036 164.0
187.548889 116.0
187.619293 188.0
187.685196 156.0
187.717926 144.0
187.739746 204.0
187.775192 160.0
187.862488 356.0
187.902039 160.0
187.942261 236.0
188.037125 192.0
188.063644 408.0
188.094437 184.0
188.12175 140.0
188.142029 168.0
188.17749 144.0
188.203644 40.0
188.255539 192.0
188.338654 116.0
188.370102 152.0
188.421417 236.0
188.550598 60.0
188.659927 152.0
188.728287 172.0
188.758362 208.0
188.781586 124.0
188.834305 192.0
188.863144 148.0
188.87883 168.0
188.929993 148.0
188.963516 140.0
189.014084 104.0
189.031921 132.0
189.069611 15984.0
189.122787 184.0
189.15509 168.0
189.220978 120.0
189.2509 52.0
189.283768 60.0
189.346756 108.0
189.396988 164.0
189.429138 152.0
189.461807 176.0
189.512497 132.0
189.549179 36.0
189.604294 160.0
189.628952 148.0
189.683212 172.0
189.718933 164.0
189.796188 88.0
189.856522 180.0
189.936493 380.0
189.991135 156.0
190.076721 18000.0
190.154205 96.0
190.212494 184.0
190.219833 136.0
190.230789 104.0
190.24379 64.0
190.270874 160.0
190.309311 176.0
190.328522 200.0
190.359894 160.0
190.368103 68.0
190.376968 188.0
190.420013 200.0
190.441132 168.0
190.464508 172.0
190.476425 136.0
190.488541 152.0
190.505753 372.0
190.527374 244.0
190.549469 208.0
190.605759 104.0
190.625565 208.0
190.650391 96.0
190.69014 280.0
190.728592 84.0
190.776382 316.0
190.814819 144.0
190.852676 448.0
190.878113 72.0
190.903122 172.0
190.939606 364.0
190.98262 304.0
191.004364 292.0
191.037003 468.0
191.085617 219960.0
191.152985 276.0
191.169388 184.0
191.189377 168.0
191.222 36.0
191.244019 132.0
191.274292 116.0
191.281235 240.0
191.301071 224.0
191.321579 188.0
191.33374 120.0
191.338791 172.0
191.359085 132.0
191.365463 240.0
191.411728 224.0
191.432831 212.0
191.456528 172.0
191.50766 184.0
191.538666 1548.0
191.571045 148.0
191.619568 112.0
191.652283 148.0
191.679855 164.0
191.721634 68.0
191.747147 204.0
191.780685 244.0
191.806198 316.0
191.852905 112.0
191.878998 156.0
191.909485 208.0
191.948685 52.0
191.98378 40.0
192.027435 220.0
192.058868 328.0
192.088348 41484.0
192.194321 68.0
192.212433 104.0
192.238373 184.0
192.270386 52.0
192.313492 176.0
192.335144 52.0
192.362152 204.0
192.39566 172.0
192.415146 92.0
192.448761 64.0
192.483597 184.0
192.510696 56.0
192.555801 96.0
192.573639 148.0
192.606186 68.0
192.638428 128.0
192.666962 76.0
192.691818 188.0
192.735962 156.0
192.810226 80.0
192.81488 68.0
192.825607 116.0
192.866577 68.0
192.897858 80.0
192.935043 48.0
192.958725 92.0
192.996124 44.0
193.094635 3248.0
193.141006 92.0
193.208206 212.0
193.227402 236.0
193.26738 356.0
193.287964 156.0
193.335068 124.0
193.359833 120.0
193.395203 220.0
193.41362 156.0
193.435074 144.0
193.455704 168.0
193.466049 120.0
193.469955 152.0
193.491638 220.0
193.517212 88.0
193.550705 124.0
193.57605 292.0
193.587982 124.0
193.593887 228.0
193.640442 48.0
193.664734 168.0
193.694687 112.0
193.727814 184.0
193.759979 136.0
193.787415 216.0
193.829941 100.0
193.876175 140.0
193.903198 80.0
193.938034 88.0
194.003677 72.0
194.034271 192.0
194.096313 1832.0
194.147858 208.0
194.167282 92.0
194.216873 100.0
194.278229 88.0
194.386444 176.0
194.408646 76.0
194.430481 152.0
194.439178 76.0
194.452148 208.0
194.46315 96.0
194.467926 224.0
194.522446 56.0
194.55188 292.0
194.594635 168.0
194.618362 188.0
194.66127 104.0
194.68071 64.0
194.72168 80.0
194.755707 28.0
194.786255 112.0
194.841812 172.0
194.889053 52.0
195.059921 108.0
195.099777 228.0
195.154434 152.0
195.192047 104.0
195.222626 72.0
195.242096 196.0
195.267136 136.0
195.324036 104.0
195.379791 184.0
195.399643 204.0
195.422913 60.0
195.466583 104.0
195.510269 132.0
195.577866 136.0
195.6875 104.0
195.782013 176.0
195.804291 176.0
195.836731 148.0
195.848236 196.0
195.924286 156.0
195.985703 268.0
196.008224 280.0
196.055206 192.0
196.074707 252.0
196.11116 19660.0
196.185593 124.0
196.229584 104.0
196.24823 216.0
196.308334 160.0
196.354095 208.0
196.399078 112.0
196.436371 68.0
196.456268 64.0
196.523178 212.0
196.560257 120.0
196.623428 168.0
196.660263 92.0
196.681473 148.0
196.700806 84.0
196.710938 132.0
196.765442 244.0
196.81102 76.0
196.885864 80.0
196.953461 148.0
197.003738 56.0
197.038177 244.0
197.067993 428.0
197.11795 8188.0
197.182571 52.0
197.230087 64.0
197.249664 96.0
197.283966 148.0
197.330734 80.0
197.427521 144.0
197.453781 40.0
197.509445 204.0
197.554474 108.0
197.64798 124.0
197.676437 120.0
197.737625 148.0
197.76207 128.0
197.783936 44.0
197.852203 52.0
197.889603 124.0
197.965927 76.0
197.993942 36.0
198.037933 136.0
198.119965 1448.0
198.189896 84.0
198.215256 72.0
198.247284 84.0
198.294922 112.0
198.346985 40.0
198.375778 160.0
198.411453 96.0
198.464157 116.0
198.490784 232.0
198.52916 168.0
198.605698 60.0
198.645462 184.0
198.668335 88.0
198.697525 120.0
198.744156 188.0
198.795746 152.0
198.826614 124.0
198.850616 152.0
198.930069 112.0
198.978195 80.0
199.011887 92.0
199.049866 84.0
199.090515 200.0
199.127029 224.0
199.183212 96.0
199.202866 68.0
199.369385 168.0
199.412628 148.0
199.437714 168.0
199.469833 164.0
199.489517 112.0
199.545746 100.0
199.567947 40.0
199.599167 232.0
199.623718 164.0
199.662659 160.0
199.791473 176.0
199.826996 144.0
199.852325 92.0
199.893738 128.0
199.93956 184.0
199.973343 144.0
200.012741 132.0
200.060196 276.0
200.179413 204.0
200.262268 176.0
200.305603 156.0
200.471848 156.0
200.556396 64.0
200.612778 44.0
200.677612 108.0
200.70752 112.0
200.742477 108.0
200.790115 188.0
200.800018 168.0
200.838364 76.0
200.89267 64.0
200.931458 184.0
200.9879 140.0
201.007645 140.0
201.066467 1116.0
201.117722 180.0
201.177002 92.0
201.281464 88.0
201.301239 76.0
201.350906 176.0
201.38031 244.0
201.414856 88.0
201.434158 192.0
201.453751 172.0
201.473083 152.0
201.541901 224.0
201.574356 96.0
201.603989 200.0
201.647659 116.0
201.706711 140.0
201.755493 144.0
201.791 268.0
201.852142 156.0
201.892975 144.0
201.913376 140.0
201.95961 156.0
201.988037 108.0
202.017471 212.0
202.044403 212.0
202.077682 57796.0
202.141953 180.0
202.178436 208.0
202.212997 152.0
202.235703 184.0
202.263245 136.0
202.30426 168.0
202.354538 136.0
202.401855 136.0
202.439072 268.0
202.528152 220.0
202.579697 172.0
202.624573 248.0
202.677277 160.0
202.746964 180.0
202.767395 176.0
202.773285 100.0
202.785065 232.0
202.810989 116.0
202.844269 252.0
202.878632 104.0
202.901199 72.0
202.923416 208.0
202.944305 192.0
202.967575 140.0
202.998154 252.0
203.041855 288.0
203.084412 61184.0
203.161972 92.0
203.176086 108.0
203.188202 176.0
203.228943 84.0
203.265839 220.0
203.30307 100.0
203.416611 308.0
203.486725 304.0
203.515839 160.0
203.552353 132.0
203.600006 96.0
203.618484 184.0
203.66568 120.0
203.699585 52.0
203.717819 108.0
203.747971 40.0
203.766907 60.0
203.809326 212.0
203.892532 160.0
203.921875 172.0
203.943481 60.0
203.964798 288.0
203.991653 132.0
204.043549 272.0
204.092361 43884.0
204.174164 164.0
204.203796 184.0
204.245575 152.0
204.284546 96.0
204.304657 96.0
204.341492 92.0
204.384552 332.0
204.418167 132.0
204.458267 104.0
204.515656 228.0
204.552612 200.0
204.581238 116.0
204.621689 92.0
204.648285 152.0
204.691208 192.0
204.727295 232.0
204.747543 244.0
204.78653 144.0
204.826096 264.0
204.84462 124.0
204.872635 352.0
204.914871 128.0
204.953995 60.0
204.981628 140.0
205.015732 48.0
205.098526 19512.0
205.146973 132.0
205.181015 128.0
205.206833 68.0
205.263824 56.0
205.285614 104.0
205.304062 60.0
205.339798 92.0
205.380585 76.0
205.423157 52.0
205.455231 224.0
205.490997 136.0
205.5401 184.0
205.597366 156.0
205.647537 80.0
205.712265 60.0
205.759369 172.0
205.786484 120.0
205.815994 116.0
205.863663 36.0
205.887039 92.0
205.922058 100.0
205.955673 176.0
205.987747 40.0
206.010605 48.0
206.053452 68.0
206.101212 2900.0
206.15918 36.0
206.182053 116.0
206.272781 128.0
206.303635 156.0
206.330688 76.0
206.415512 60.0
206.475159 100.0
206.505127 124.0
206.574417 196.0
206.60376 92.0
206.635254 84.0
206.676773 132.0
206.733337 160.0
206.744263 144.0
206.84729 104.0
206.886749 188.0
206.907776 68.0
206.937256 248.0
206.985931 116.0
207.063248 144.0
207.112656 840.0
207.249466 92.0
207.289581 40.0
207.366959 76.0
207.473022 96.0
207.50705 92.0
207.546234 200.0
207.591324 140.0
207.614166 124.0
207.662659 92.0
207.702652 112.0
207.805725 48.0
207.850845 176.0
207.906158 76.0
207.943466 76.0
207.969299 80.0
208.045471 224.0
208.110901 340.0
208.135818 60.0
208.1875 44.0
208.227707 48.0
208.307495 212.0
208.477661 256.0
208.512146 96.0
208.586884 200.0
208.621857 48.0
208.701889 84.0
208.733521 156.0
208.753647 124.0
208.853424 136.0
208.95787 104.0
208.986649 120.0
209.283127 192.0
209.363754 48.0
209.455917 44.0
209.478973 76.0
209.504898 28.0
209.55365 172.0
209.594223 72.0
209.634552 76.0
209.683548 92.0
209.723907 152.0
209.761383 260.0
209.781555 104.0
209.902649 164.0
209.960327 124.0
210.069382 104.0
210.129745 328.0
210.237289 44.0
210.311798 108.0
210.341202 68.0
210.364304 192.0
210.433594 176.0
210.453796 52.0
210.479782 96.0
210.554871 128.0
210.589539 44.0
210.68486 48.0
210.710861 180.0
210.774429 156.0
210.894989 156.0
210.943329 112.0
211.055923 84.0
211.130005 140.0
211.196533 232.0
211.358536 132.0
211.445358 72.0
211.474304 160.0
211.551422 144.0
211.627747 48.0
211.784119 88.0
211.813095 100.0
211.885513 36.0
211.952164 116.0
211.995621 120.0
212.065781 136.0
212.147507 108.0
212.178238 60.0
212.240097 144.0
212.497284 120.0
212.572723 136.0
212.787521 188.0
212.807846 176.0
212.854309 196.0
213.02858 168.0
213.070984 456.0
213.101212 72.0
213.153519 140.0
213.217453 176.0
213.279373 144.0
213.351166 140.0
213.400589 128.0
213.48201 60.0
213.557632 168.0
213.598343 96.0
213.618713 84.0
213.848587 160.0
213.956299 56.0
214.002884 168.0
214.034668 140.0
214.072723 360.0
214.115585 132.0
214.196243 204.0
214.294159 100.0
214.329117 108.0
214.381577 132.0
214.440689 168.0
214.486496 124.0
214.51857 136.0
214.538971 148.0
214.572372 140.0
214.592026 492.0
214.624878 172.0
214.65802 160.0
214.713928 100.0
214.736267 176.0
214.786804 224.0
214.807419 196.0
214.848114 372.0
214.911804 164.0
214.947174 172.0
214.990616 164.0
214.997437 232.0
215.05159 916.0
215.085388 97904.0
215.142776 148.0
215.152313 156.0
215.19577 160.0
215.22641 100.0
215.266312 144.0
215.3022 132.0
215.323303 172.0
215.34845 272.0
215.39476 168.0
215.451111 96.0
215.477905 56.0
215.52063 228.0
215.565414 576.0
215.614609 260.0
215.641159 88.0
215.693512 244.0
215.776917 196.0
215.807526 196.0
215.850449 96.0
215.90741 168.0
215.962723 72.0
215.993179 140.0
216.018845 296.0
216.050751 180.0
216.091537 52836.0
216.168823 48.0
216.195389 184.0
216.217285 128.0
216.253281 56.0
216.287567 84.0
216.307129 236.0
216.363342 52.0
216.376053 96.0
216.39389 36.0
216.502335 156.0
216.532608 152.0
216.571442 268.0
216.597519 104.0
216.626511 48.0
216.646545 252.0
216.686005 112.0
216.711273 32.0
216.756271 212.0
216.793747 112.0
216.824829 72.0
216.849808 192.0
216.880524 188.0
216.905991 196.0
216.949463 208.0
216.991928 120.0
217.022675 180.0
217.099838 42664.0
217.155762 156.0
217.18898 96.0
217.229477 40.0
217.258224 68.0
217.307739 124.0
217.333572 56.0
217.379471 124.0
217.413177 112.0
217.442566 188.0
217.467056 144.0
217.499451 196.0
217.550186 140.0
217.576706 136.0
217.636566 136.0
217.663712 80.0
217.714722 100.0
217.741241 160.0
217.764694 108.0
217.773361 84.0
217.823837 204.0
217.876022 104.0
217.896515 156.0
217.960556 48.0
217.998749 88.0
218.050415 380.0
218.102509 5988.0
218.178986 176.0
218.21843 120.0
218.246597 124.0
218.318436 124.0
218.338211 60.0
218.374451 152.0
218.415558 84.0
218.456589 96.0
218.539825 132.0
218.589554 120.0
218.645004 172.0
218.672241 120.0
218.718277 144.0
218.747314 112.0
218.78186 204.0
218.860657 104.0
218.887161 124.0
218.906113 92.0
218.966675 64.0
218.987289 44.0
219.074478 268.0
219.105835 728.0
219.172897 108.0
219.220047 60.0
219.278992 76.0
219.329102 180.0
219.358383 112.0
219.447617 196.0
219.460876 40.0
219.470078 224.0
219.508942 36.0
219.529587 116.0
219.570877 56.0
219.606262 48.0
219.627838 180.0
219.680008 120.0
219.743301 168.0
219.765579 60.0
219.808884 248.0
219.83049 52.0
219.877716 124.0
219.966263 84.0
220.054825 76.0
220.23793 132.0
220.393631 132.0
220.524536 68.0
220.567276 176.0
220.607315 152.0
220.633926 28.0
220.7108 68.0
220.840927 48.0
221.005493 172.0
221.035004 80.0
221.072266 104.0
221.335159 52.0
221.515823 32.0
221.631378 92.0
221.738068 192.0
222.037506 84.0
222.079041 88.0
222.12056 124.0
222.188797 128.0
222.316391 92.0
222.354965 88.0
222.39653 68.0
222.500427 28.0
222.649216 152.0
223.044083 88.0
223.236374 76.0
223.359283 52.0
223.412827 132.0
223.457458 104.0
223.569336 180.0
223.612198 48.0
223.680664 84.0
223.942703 80.0
224.017166 36.0
224.138458 92.0
224.285355 36.0
224.520905 92.0
224.567322 128.0
224.661102 148.0
224.747635 96.0
225.028198 156.0
225.117783 192.0
225.222321 124.0
225.294006 60.0
225.365723 76.0
225.500198 76.0
225.562973 124.0
225.703491 92.0
226.04451 184.0
226.0793 912.0
226.177078 164.0
226.254028 88.0
226.382782 48.0
226.409744 116.0
226.451675 76.0
226.877182 120.0
226.973129 148.0
227.083069 4172.0
227.163269 192.0
227.228088 68.0
227.315109 84.0
227.369125 52.0
227.417145 116.0
227.45343 140.0
227.600281 120.0
227.64325 104.0
227.67836 84.0
227.74144 52.0
227.809631 120.0
227.867615 144.0
227.888641 196.0
227.93071 148.0
227.969772 76.0
228.052536 292.0
228.092117 13320.0
228.172577 136.0
228.196854 96.0
228.316864 204.0
228.356445 72.0
228.388321 96.0
228.459885 200.0
228.483963 72.0
228.518646 76.0
228.547134 44.0
228.613342 76.0
228.67955 60.0
228.766357 48.0
228.827072 80.0
228.879959 156.0
228.958557 128.0
229.001724 120.0
229.022812 104.0
229.100388 25848.0
229.174713 136.0
229.227692 136.0
229.251801 64.0
229.307434 208.0
229.366333 40.0
229.429642 52.0
229.475098 52.0
229.515366 148.0
229.562531 52.0
229.600815 104.0
229.670883 36.0
229.71312 80.0
229.755356 32.0
229.794571 80.0
229.816254 232.0
229.858353 148.0
229.916245 208.0
230.001602 192.0
230.022766 200.0
230.107468 18584.0
230.156784 56.0
230.213791 380.0
230.235306 32.0
230.296463 64.0
230.336273 64.0
230.371231 152.0
230.44577 92.0
230.466537 168.0
230.504166 132.0
230.533585 124.0
230.56041 180.0
230.587723 124.0
230.639099 136.0
230.673416 100.0
230.778 68.0
230.903229 76.0
230.943298 48.0
230.969772 28.0
231.015152 84.0
231.113907 8308.0
231.216049 172.0
231.266312 124.0
231.361115 100.0
231.396484 36.0
231.461212 148.0
231.480087 144.0
231.517609 160.0
231.549286 52.0
231.584244 76.0
231.614532 36.0
231.678146 60.0
231.750854 100.0
231.792603 204.0
231.826614 32.0
231.850861 100.0
231.876526 120.0
232.002426 96.0
232.059525 72.0
232.117722 1596.0
232.166168 100.0
232.196747 48.0
232.291306 200.0
232.320862 64.0
232.366364 52.0
232.387604 76.0
232.466507 132.0
232.487747 40.0
232.531219 124.0
232.553604 132.0
232.584869 60.0
232.624329 36.0
232.660767 100.0
232.712372 56.0
232.736664 88.0
232.770065 144.0
232.797409 84.0
232.823837 136.0
232.885483 76.0
232.961426 96.0
233.05864 120.0
233.117294 196.0
233.210602 96.0
233.289642 120.0
233.317001 80.0
233.449951 88.0
233.505539 72.0
233.675888 84.0
233.727615 100.0
233.842529 100.0
233.891052 80.0
233.995468 152.0
234.123367 188.0
234.242157 116.0
234.293945 56.0
234.327454 44.0
234.479828 120.0
234.568222 52.0
234.891464 120.0
235.034851 184.0
235.105042 56.0
235.132507 168.0
235.187454 84.0
235.578323 168.0
235.697479 52.0
235.746368 176.0
235.770828 268.0
235.839218 192.0
235.945053 40.0
235.987869 36.0
236.189713 48.0
236.357986 84.0
236.455902 112.0
236.942795 128.0
236.979568 52.0
237.132797 48.0
237.534485 44.0
237.67868 56.0
237.755402 84.0
237.807571 124.0
237.867813 128.0
237.958008 48.0
237.988708 32.0
238.240555 224.0
238.424927 84.0
238.612442 64.0
238.661636 124.0
238.713913 196.0
238.953827 164.0
239.081375 544.0
239.141556 76.0
239.283157 72.0
239.375534 136.0
239.440216 48.0
239.486404 80.0
239.532608 96.0
239.671265 56.0
239.769867 56.0
239.791443 144.0
240.091354 812.0
240.142944 156.0
240.183044 104.0
240.343475 72.0
240.440079 92.0
240.550247 132.0
240.809631 84.0
240.859055 80.0
240.970886 100.0
241.004257 168.0
241.033463 124.0
241.100403 6888.0
241.150574 152.0
241.211334 48.0
241.347366 116.0
241.421585 164.0
241.461792 108.0
241.492722 76.0
241.582428 116.0
241.901169 116.0
241.990952 184.0
242.025024 140.0
242.046692 92.0
242.106918 2936.0
242.15509 144.0
242.18985 144.0
242.468018 80.0
242.501663 56.0
242.957962 112.0
243.115631 4664.0
243.252777 68.0
243.320389 72.0
243.389389 244.0
243.501007 72.0
243.569519 156.0
243.647186 36.0
243.70311 144.0
243.818085 96.0
243.892685 80.0
244.013931 152.0
244.121704 1576.0
244.2565 48.0
244.334274 80.0
244.424515 60.0
244.545883 48.0
244.580124 84.0
244.698425 64.0
244.797089 64.0
244.882156 40.0
244.953796 80.0
245.047272 32.0
245.131241 5392.0
245.199966 168.0
245.237366 36.0
245.259186 72.0
245.293472 96.0
245.376175 76.0
245.405701 52.0
245.455368 56.0
245.508606 100.0
245.567871 156.0
245.587631 80.0
245.69577 140.0
245.735886 84.0
245.777206 80.0
245.882996 100.0
245.957901 60.0
246.003723 112.0
246.131775 1704.0
246.205368 172.0
246.254547 80.0
246.382614 60.0
246.461044 160.0
246.513855 236.0
246.557602 136.0
246.676849 80.0
246.929657 100.0
247.079819 136.0
247.138214 328.0
247.756058 92.0
247.859451 180.0
247.953476 200.0
247.981689 100.0
248.069458 132.0
248.129013 148.0
248.182327 60.0
248.63092 72.0
249.702286 164.0
250.004303 176.0
250.218353 208.0
250.615219 132.0
250.949326 132.0
251.741364 88.0
251.836121 44.0
252.098358 108.0
252.297485 60.0
253.047318 176.0
253.104141 188.0
253.200195 72.0
253.62706 60.0
253.931458 68.0
254.109161 428.0
254.585251 120.0
254.867981 84.0
255.108917 192.0
255.577072 108.0
255.666168 136.0
255.927216 204.0
256.107361 232.0
256.379547 48.0
256.401886 68.0
256.52301 44.0
256.861023 108.0
256.899292 212.0
257.001404 176.0
257.128143 1344.0
257.46109 64.0
257.534546 208.0
257.748596 208.0
257.790131 92.0
257.969147 92.0
258.033081 104.0
258.13028 1036.0
258.279327 88.0
258.362488 72.0
258.394501 68.0
259.025177 96.0
259.130402 360.0
259.566833 116.0
259.647003 44.0
259.740021 104.0
259.836243 132.0
260.054474 44.0
260.14035 284.0
260.24527 92.0
260.417297 208.0
260.896118 124.0
261.138763 180.0
261.362488 160.0
261.893677 144.0
261.967773 72.0
261.996765 72.0
262.283569 112.0
262.757629 136.0
262.957703 80.0
263.270874 52.0
264.370056 152.0
264.612854 176.0
264.790955 156.0
266.016632 224.0
266.880859 144.0
267.44043 84.0
267.713928 192.0
267.798615 44.0
270.127136 228.0
270.220886 88.0
270.400879 200.0
270.430328 76.0
270.554718 164.0
271.130981 276.0
271.609924 144.0
271.685394 64.0
272.141571 524.0
272.190857 220.0
272.840454 80.0
273.038727 32.0
273.150085 1028.0
273.311768 144.0
273.77594 52.0
273.822052 144.0
274.139954 148.0
274.161987 128.0
274.299835 120.0
274.685638 44.0
274.88031 100.0
274.911194 136.0
275.005737 116.0
275.121277 152.0
275.148132 172.0
275.250031 136.0
275.339203 96.0
275.712524 36.0
276.254822 60.0
276.440094 168.0
276.516235 88.0
276.626282 128.0
277.321075 128.0
278.399353 180.0
278.901062 228.0
279.000793 112.0
279.722687 44.0
280.162292 72.0
280.232269 44.0
280.632233 140.0
281.232727 112.0
282.335297 76.0
282.459045 156.0
283.078247 40.0
283.131989 168.0
283.463501 76.0
283.637787 80.0
284.026764 136.0
284.143433 136.0
284.567078 48.0
284.902924 96.0
285.349945 172.0
285.807373 128.0
286.156403 304.0
286.161255 572.0
286.218048 92.0
286.386444 84.0
286.507721 72.0
286.635742 72.0
286.716644 88.0
286.797516 56.0
286.927429 100.0
287.04364 56.0
287.154449 340.0
287.215637 40.0
287.405426 172.0
287.458557 140.0
287.531525 116.0
287.610443 108.0
287.661072 60.0
287.704956 88.0
287.755615 180.0
287.792755 80.0
287.823151 176.0
287.937958 228.0
288.000061 124.0
288.066315 108.0
288.095825 176.0
288.173462 56488.0
288.272766 80.0
288.334961 80.0
288.396637 144.0
288.450897 100.0
288.533173 180.0
288.57666 84.0
288.60849 200.0
288.636749 72.0
288.688232 144.0
288.72818 224.0
288.760834 164.0
288.801483 92.0
288.84848 72.0
288.877655 44.0
288.901337 56.0
288.927826 144.0
288.963348 108.0
288.999451 64.0
289.056061 140.0
289.081818 76.0
289.115692 156.0
289.176849 7632.0
289.239746 164.0
289.280365 52.0
289.307434 44.0
289.368378 108.0
289.412415 104.0
289.473358 92.0
289.496857 68.0
289.535065 36.0
289.585114 132.0
289.649475 84.0
289.836884 64.0
289.873108 124.0
289.900208 92.0
290.077057 88.0
290.127319 40.0
290.180023 1840.0
290.307007 56.0
290.524109 68.0
290.571594 144.0
290.64624 88.0
290.68634 88.0
290.705475 132.0
290.748047 96.0
290.792175 136.0
290.846497 60.0
290.975494 104.0
291.019623 192.0
291.060364 132.0
291.104523 60.0
291.136292 88.0
291.162262 88.0
291.213196 84.0
291.291321 128.0
291.325775 56.0
291.389862 48.0
291.481598 64.0
291.583557 72.0
291.743317 64.0
291.901642 72.0
291.940521 60.0
292.086792 116.0
292.165009 72.0
292.341949 36.0
292.525757 112.0
292.736847 72.0
292.80838 84.0
293.172913 28.0
293.207001 80.0
293.4422 116.0
293.499054 84.0
293.653656 44.0
294.001648 92.0
294.259552 80.0
294.346436 76.0
294.662018 108.0
294.729034 100.0
294.831543 260.0
295.197357 160.0
296.039215 116.0
296.48114 64.0
297.064056 64.0
297.242462 100.0
297.798645 28.0
298.107849 60.0
299.008911 36.0
300.05957 56.0
300.714996 76.0
301.367706 60.0
301.571594 144.0
302.159485 96.0
302.301361 104.0
303.572754 56.0
303.617249 120.0
304.937164 100.0
304.992767 64.0
305.058838 88.0
305.462219 80.0
305.611816 72.0
305.817139 100.0
306.754181 64.0
306.911072 64.0
307.570465 48.0
308.370331 40.0
308.569611 48.0
308.67099 84.0
309.041779 48.0
309.994232 48.0
310.232605 76.0
310.576263 88.0
311.727844 52.0
311.914124 48.0
312.009033 76.0
312.452179 80.0
313.064667 60.0
314.051514 100.0
314.993988 84.0
315.514923 80.0
317.014313 44.0
317.170258 108.0
317.567413 68.0
318.250458 84.0
318.493835 48.0
318.898895 88.0
319.52478 80.0
319.748962 48.0
319.852173 56.0
320.436249 76.0
321.730896 56.0
323.185577 72.0
323.40387 52.0
323.955353 56.0
324.095062 44.0
324.302948 96.0
324.457092 92.0
325.070435 112.0
325.163757 72.0
326.899597 80.0
328.37674 44.0
328.834961 136.0
329.672852 104.0
329.737915 84.0
330.566101 68.0
331.732391 120.0
334.136597 84.0
334.216644 132.0
335.436737 100.0
335.757629 112.0
336.396179 52.0
336.469177 52.0
336.947632 56.0
338.9198 64.0
339.52832 80.0
340.769073 40.0
341.5448 100.0
343.106232 76.0
343.814453 100.0
344.12085 64.0
345.17395 104.0
345.366272 76.0
346.521301 100.0
349.417328 152.0
349.495453 68.0
351.522614 80.0
352.564545 48.0
352.912201 48.0
353.080475 80.0
353.705322 56.0
356.834167 56.0
357.642975 40.0
358.117401 68.0
358.94278 76.0
359.319977 76.0
359.908783 88.0
364.047791 108.0
365.880585 96.0
366.234741 124.0
366.798676 108.0
368.710968 68.0
369.341858 68.0
369.816345 48.0
370.666565 32.0
370.69339 80.0
372.312317 64.0
372.880951 64.0
373.465363 96.0
374.065674 112.0
374.527771 72.0
375.499084 52.0
375.854004 100.0
377.004791 80.0
377.754913 64.0
378.590973 60.0
379.668365 80.0
381.44281 88.0
383.618927 56.0
384.559021 64.0
384.945526 76.0
385.383026 68.0
385.926331 96.0
386.004547 80.0
386.145325 48.0
387.362671 60.0
387.844666 136.0
388.503479 60.0
388.530945 36.0
389.854218 92.0
390.436066 48.0
391.790161 52.0
392.034454 68.0
392.22757 128.0
392.515381 108.0
392.594269 60.0
393.059753 80.0
393.877045 76.0
396.171478 68.0
396.322021 44.0
396.401276 116.0
396.936432 76.0
397.087158 76.0
397.174408 172.0
400.624969 76.0
401.581665 76.0
402.571442 144.0
403.030853 72.0
403.218658 44.0
406.510681 56.0
407.120911 88.0
408.632324 80.0
408.724884 128.0
410.404602 52.0
411.712067 104.0
412.204926 40.0
413.191528 88.0
413.260315 44.0
413.377655 52.0
416.042145 144.0
416.276184 112.0
416.373657 48.0
418.003876 48.0
419.005554 52.0
419.710693 112.0
420.816467 76.0
421.931885 56.0
423.076294 72.0
423.331268 68.0
424.212219 92.0
426.215118 52.0
430.866974 40.0
431.135559 76.0
431.54068 124.0
431.784668 64.0
435.145386 36.0
435.307343 60.0
435.972015 32.0
436.233887 108.0
437.215546 36.0
438.619202 108.0
439.027802 64.0
440.718475 92.0
440.827118 80.0
441.25766 80.0
443.543457 104.0
443.644073 80.0
445.625031 128.0
446.184052 60.0
448.082214 52.0
448.330811 76.0
451.814453 136.0
453.304901 76.0
454.479492 72.0
458.44278 132.0
459.159027 100.0
459.696564 28.0
459.790466 52.0
460.161835 92.0
463.159729 120.0
465.703369 72.0
465.956818 56.0
467.590912 124.0
468.409027 72.0
468.512421 76.0
468.79248 36.0
470.66037 44.0
473.303864 88.0
475.921448 76.0
476.672943 72.0
476.894592 40.0
476.929382 68.0
478.974518 80.0
479.863586 68.0
480.567108 68.0
482.046112 64.0
482.417633 68.0
484.145996 52.0
484.938995 36.0
490.226196 56.0
492.233398 52.0
492.37915 120.0
497.626709 72.0
498.959625 84.0
499.053009 36.0
499.835876 128.0
501.399017 64.0
501.965179 32.0
502.884247 40.0
503.719269 120.0
504.26886 72.0
505.422699 80.0
509.233337 100.0
510.064606 80.0
512.914062 44.0
517.327576 64.0
517.617371 104.0
520.723938 92.0
521.882751 100.0
524.350159 32.0
524.591736 44.0
525.038574 96.0
525.513 52.0
532.420837 128.0
539.840698 80.0
540.673401 116.0
542.697815 76.0
547.568054 108.0
548.574524 104.0
549.012817 52.0
549.087463 80.0
549.79657 68.0
551.122803 48.0
551.903442 88.0
558.356262 48.0
558.798462 88.0
561.875122 112.0
564.075867 36.0
566.138794 72.0
570.085876 68.0
572.264526 72.0
573.279175 88.0
577.676697 76.0
581.812561 128.0
583.715332 84.0
584.143372 80.0
585.645264 88.0
587.308228 68.0
592.47113 76.0
600.345581 100.0
601.096863 40.0
601.194458 104.0
608.699219 72.0
609.195312 104.0
613.506409 120.0
614.122803 52.0
615.672546 44.0
615.949158 40.0
618.614624 108.0
618.832458 60.0
621.80188 52.0
621.990479 60.0
624.793274 100.0
625.101807 40.0
626.919495 100.0
633.855835 124.0
635.886963 32.0
637.077026 100.0
637.147339 64.0
637.519226 84.0
640.180481 56.0
648.0 60.0
648.116577 92.0
649.952148 84.0
652.02417 124.0
653.595581 104.0
654.180847 80.0
667.417053 124.0
668.538513 68.0
677.02594 36.0
681.637817 32.0
683.379761 76.0
687.940125 96.0
689.235413 84.0
691.667419 68.0
692.060059 56.0
693.642273 84.0
699.499512 144.0
700.405273 92.0
700.51062 52.0
712.265015 200.0
712.759094 56.0
715.727295 80.0
720.132446 52.0
722.184937 132.0
722.92865 60.0
723.67804 112.0
736.74231 208.0
738.482971 68.0
746.912292 48.0
750.424988 76.0
754.547241 76.0
759.728271 216.0
762.512329 224.0
766.71167 120.0
768.702515 84.0
770.436279 60.0
772.094604 44.0
774.668457 60.0
775.000916 136.0
779.162231 128.0
780.635254 120.0
781.152527 152.0
788.73645 88.0
789.938721 172.0
790.285583 224.0
791.377075 220.0
792.912048 136.0
793.130615 184.0
795.054443 96.0
795.694397 188.0
797.694397 116.0
798.054199 144.0
802.237427 116.0
802.344543 68.0
806.782104 128.0
807.10437 72.0
808.495972 60.0
811.640076 188.0
813.716797 52.0
817.627747 140.0
817.775757 144.0
818.208374 56.0
818.578491 160.0
819.831787 72.0
820.276367 176.0
825.735168 36.0
826.993958 132.0
827.257263 208.0
827.457642 40.0
827.732483 164.0
828.425537 36.0
831.895081 144.0
832.561157 156.0
834.428711 156.0
834.75647 124.0
843.82489 112.0
845.550659 148.0
845.625854 112.0
845.979004 112.0
847.594971 72.0
849.692932 120.0
854.062561 172.0
854.527954 80.0
855.173889 180.0
855.418396 136.0
855.517395 72.0
859.183167 60.0
862.541077 96.0
862.93866 144.0
863.119934 184.0
863.851013 152.0
864.658508 64.0
864.80481 28.0
865.80603 144.0
866.022705 132.0
867.030518 88.0
867.177002 200.0
869.863586 180.0
870.239319 128.0
870.339111 92.0
874.366028 224.0
874.842834 172.0
875.614258 120.0
876.898682 124.0
877.9953 156.0
881.395691 144.0
882.240906 184.0
884.329041 128.0
886.828613 152.0
887.231689 116.0
890.560791 52.0
891.749146 112.0
891.957214 132.0
892.414978 52.0
892.539856 140.0
892.991821 76.0
893.057251 224.0
893.170288 164.0
893.25354 84.0
893.997314 192.0
894.431763 132.0
894.949768 168.0
897.297302 112.0
898.561768 168.0
898.752686 176.0
899.641968 152.0
902.94043 148.0
905.040955 188.0
905.603943 44.0
906.220947 220.0
906.832214 96.0
908.001404 144.0
908.133362 176.0
909.189331 72.0
910.846497 152.0
912.408997 116.0
912.781799 108.0
913.924683 160.0
914.225586 100.0
914.279785 56.0
914.652954 104.0
916.242798 100.0
916.333191 124.0
916.507935 60.0
917.303467 88.0
917.972717 160.0
922.377808 88.0
922.845825 144.0
923.698547 128.0
925.653503 88.0
927.240784 120.0
927.877258 176.0
929.411804 120.0
931.974243 168.0
932.721802 140.0
932.800842 184.0
933.828491 168.0
934.588928 124.0
934.744141 172.0
934.78363 216.0
934.923584 100.0
935.848877 200.0
935.988953 104.0
936.043762 304.0
936.287354 132.0
936.433533 112.0
937.012268 148.0
941.318665 140.0
941.697327 148.0
943.940247 76.0
944.453979 88.0
946.314453 112.0
948.182861 92.0
949.2005 156.0
949.427429 132.0
949.568481 164.0
951.624268 60.0
951.667236 56.0
951.833069 124.0
951.937439 52.0
952.287537 128.0
952.963257 96.0
953.164795 220.0
953.522522 136.0
954.28479 204.0
954.567627 116.0
957.238403 168.0
957.435486 108.0
957.570984 156.0
959.678589 224.0
960.227417 124.0
960.412476 140.0
960.48645 80.0
961.739075 164.0
962.523193 208.0
963.103699 52.0
964.500244 200.0
964.883484 180.0
965.007141 96.0
965.099915 144.0
966.194702 76.0
966.250366 56.0
966.714478 108.0
967.135315 140.0
967.599609 132.0
968.132141 148.0
968.58429 204.0
970.189331 64.0
970.375305 120.0
970.424927 180.0
970.976868 80.0
972.583862 172.0
975.055969 96.0
975.174011 124.0
976.33667 160.0
978.89447 152.0
979.131104 176.0
979.536011 76.0
980.657593 132.0
981.050354 168.0
981.811035 176.0
984.18866 244.0
984.46344 68.0
984.856934 80.0
985.175476 124.0
985.706604 136.0
985.831604 172.0
986.006592 200.0
986.719177 160.0
988.232849 80.0
990.135864 120.0
990.323792 140.0
990.486633 172.0
992.404419 164.0
992.89978 60.0
993.288696 124.0
993.489441 124.0
994.022766 128.0
994.116882 132.0
995.001953 84.0
996.697876 240.0
998.112183 192.0
998.923584 176.0
999.735229 204.0
1000.320618 52.0
1000.585022 120.0
1001.208435 116.0
1001.907593 112.0
1001.995789 192.0
1002.797485 148.0
1003.464355 180.0
1004.07605 220.0
1004.151733 188.0
1005.565063 168.0
1006.663574 172.0
1007.029907 120.0
1007.339417 148.0
1007.933289 188.0
1009.716064 152.0
1010.234802 136.0
1010.576416 200.0
1011.044678 236.0
1011.247253 140.0
1011.294922 128.0
1011.810608 108.0
1012.912598 92.0
1013.305359 108.0
1014.553894 148.0
1014.604614 112.0
1016.983521 152.0
1017.415161 44.0
1019.905396 176.0
1021.953247 148.0
1022.335022 108.0
1023.073425 196.0
1023.296265 176.0
1023.46814 84.0
1023.990356 84.0
1024.53186 160.0
1025.341064 156.0
1025.819214 112.0
1025.908447 52.0
1026.367432 284.0
1027.145508 140.0
1027.649536 148.0
1027.968628 152.0
1028.019653 160.0
1028.491943 148.0
1029.117676 84.0
1030.030884 116.0
1030.165039 124.0
1030.343994 136.0
1030.714478 152.0
1030.86792 144.0
1031.513428 44.0
1032.952271 124.0
1033.04187 140.0
1033.342529 72.0
1033.566528 52.0
1033.662476 120.0
1034.276855 140.0
1034.520142 48.0
1034.75061 120.0
1035.013184 168.0
1035.416626 52.0
1036.935059 88.0
1037.838989 124.0
1038.281494 52.0
1038.935791 168.0
1039.237305 164.0
1039.744263 132.0
1039.853394 180.0
1040.399048 100.0
1040.482422 188.0
1040.572388 48.0
1040.829224 104.0
1041.407227 160.0
1041.81189 156.0
1042.828613 220.0
1043.206421 256.0
1043.566528 116.0
1044.389648 48.0
1044.955811 136.0
1045.895386 136.0
1047.138062 132.0
1047.331299 80.0
1048.433105 196.0
1048.555542 120.0
1048.787598 124.0
1049.342041 176.0
1049.593506 172.0
1049.677368 112.0
1050.638428 228.0
1050.760986 148.0
1050.960938 188.0
1052.239014 104.0
1052.432739 140.0
1052.96228 164.0
1053.078491 144.0
1053.730957 84.0
1055.598999 160.0
1056.071167 160.0
1057.035156 56.0
1057.12854 208.0
1057.294067 136.0
1057.727661 108.0
1058.025513 136.0
1058.477783 200.0
1058.549927 116.0
1059.359619 192.0
1059.430786 176.0
1059.631714 112.0
1059.962158 64.0
1060.039917 88.0
1060.221313 140.0
1061.200195 120.0
1062.263794 176.0
1062.384766 68.0
1062.568726 132.0
1062.990479 144.0
1063.211182 120.0
1063.256592 200.0
1064.003052 176.0
1064.85376 180.0
1065.321533 160.0
1065.399414 136.0
1065.880249 132.0
1066.588623 148.0
1066.952759 156.0
1067.824097 148.0
1067.921631 140.0
1068.039551 156.0
1069.164429 228.0
1070.733398 252.0
1071.052612 48.0
1071.124268 100.0
1071.378296 220.0
1073.542358 204.0
1073.848877 144.0
1074.19458 132.0
1074.78833 156.0
1075.375732 168.0
1075.695557 208.0
1076.119873 124.0
1076.335327 184.0
1076.707642 32.0
1077.210571 132.0
1077.776855 188.0
1079.341309 164.0
1080.87854 168.0
1081.061768 208.0
1081.264648 236.0
1082.266235 144.0
1084.08728 76.0
1085.745972 104.0
1086.693481 256.0
1086.867798 232.0
1088.128052 160.0
1088.449707 80.0
1088.751831 48.0
1089.145874 148.0
1089.559814 140.0
1090.552124 260.0
1090.67041 52.0
1092.149902 104.0
1092.80127 164.0
1093.163086 168.0
1094.789185 100.0
1095.494019 144.0
1096.126465 212.0
1096.264893 148.0
1097.174561 92.0
1097.734985 68.0
1097.913086 96.0
1098.513306 236.0
1098.803589 96.0
1099.140137 52.0
1100.064087 164.0
1101.358398 88.0
1102.078491 140.0
1102.468384 140.0
1102.554321 148.0
1103.850098 168.0
1104.028687 92.0
1104.650391 148.0
1104.815796 144.0
1105.533325 136.0
1105.616455 128.0
1105.709106 240.0
1106.662354 196.0
1107.072876 144.0
1108.112915 140.0
1108.802124 88.0
1109.166626 152.0
1109.577637 160.0
1109.736816 60.0
1112.350708 148.0
1113.227173 84.0
1113.499512 164.0
1113.712036 100.0
1114.223511 212.0
1114.768433 272.0
1114.981079 68.0
1115.067505 48.0
1115.851929 128.0
1116.550171 180.0
1117.661133 100.0
1119.764893 132.0
1120.11792 320.0
1120.36438 148.0
1120.43103 28.0
1121.830566 100.0
1122.197266 140.0
1122.410645 176.0
1122.737305 152.0
1123.43103 124.0
1123.537842 112.0
1123.61792 80.0
1123.85144 88.0
1124.54541 120.0
1125.506836 176.0
1125.793945 128.0
1126.675659 152.0
1126.916138 148.0
1128.426758 104.0
1128.828003 128.0
1128.955078 96.0
1129.189087 128.0
1129.50354 168.0
1129.603882 156.0
1129.730957 152.0
1130.272827 120.0
1130.426758 72.0
1130.928711 124.0
1131.196533 168.0
1131.310303 120.0
1131.397339 92.0
1131.779053 88.0
1132.582642 132.0
1132.736694 156.0
1133.326294 56.0
1133.768555 100.0
1133.949585 112.0
1134.961914 156.0
1135.480957 192.0
1135.619141 200.0
1135.816284 200.0
1136.46875 208.0
1137.303223 160.0
1137.430786 48.0
1138.726807 44.0
1138.861084 148.0
1139.07605 224.0
1139.223877 120.0
1139.734497 160.0
1140.672485 120.0
1140.870361 152.0
1140.957764 104.0
1141.125854 176.0
1142.296021 144.0
1142.417114 160.0
1143.449463 184.0
1143.507202 128.0
1143.581299 172.0
1143.742798 160.0
1143.875 132.0
1143.985229 136.0
1144.086182 216.0
1144.921143 168.0
1145.15686 116.0
1145.237671 136.0
1148.351685 72.0
1148.446167 168.0
1149.525635 136.0
1150.112793 216.0
1150.977051 44.0
1151.348389 240.0
1151.530762 68.0
1151.737793 128.0
1151.888062 204.0
1151.990112 176.0
1152.118408 216.0
1152.368408 52.0
1152.618408 184.0
1152.787354 156.0
1152.902344 192.0
1153.483521 120.0
1153.598511 136.0
1154.252563 120.0
1154.863037 128.0
1156.547852 156.0
1156.622314 124.0
1156.744141 96.0
1157.299316 132.0
1158.254272 180.0
1159.013062 156.0
1159.94165 200.0
1160.328003 124.0
1160.463623 56.0
1160.666992 264.0
1160.843384 92.0
1161.046875 200.0
1162.539307 236.0
1163.672974 132.0
1164.718872 96.0
1164.990601 168.0
1165.180786 172.0
1165.282715 148.0
1165.527344 156.0
1165.635986 120.0
1165.860352 100.0
1165.941895 224.0
1166.553589 92.0
1166.709961 120.0
1166.907104 144.0
1167.253906 232.0
1167.396729 180.0
1168.716431 168.0
1168.906982 116.0
1170.935669 152.0
1171.303589 196.0
1171.419312 156.0
1172.864014 180.0
1173.048096 68.0
1173.300293 176.0
1174.609741 212.0
1174.805176 140.0
1175.715088 160.0
1175.810547 156.0
1175.960693 140.0
1176.226929 172.0
1176.479492 104.0
1176.561523 32.0
1176.718506 120.0
1177.292114 212.0
1178.022949 172.0
1178.309937 228.0
1179.560547 116.0
1179.724609 116.0
1180.081543 80.0
1180.196411 172.0
1180.613525 116.0
1181.0271 148.0
1181.099121 132.0
1181.790161 168.0
1182.224609 120.0
1182.796143 100.0
1183.088989 216.0
1183.440552 156.0
1183.699951 168.0
1183.782104 144.0
1183.891724 120.0
1184.473877 152.0
1184.583496 180.0
1184.816406 116.0
1185.021973 224.0
1185.104126 68.0
1185.337158 260.0
1185.790894 180.0
1186.461304 132.0
1186.543579 140.0
1186.990479 188.0
1187.338989 160.0
1187.496704 156.0
1188.429688 164.0
1188.539551 148.0
1188.800293 144.0
1189.067871 152.0
1189.390503 120.0
1190.118286 100.0
1190.777588 124.0
1191.011108 144.0
1192.041626 128.0
1192.103516 144.0
1192.268433 108.0
1192.419678 92.0
1192.63269 80.0
1192.990234 180.0
1193.884033 168.0
1194.172974 180.0
1194.523804 60.0
1194.661377 120.0
1194.950317 176.0
1195.191162 144.0
1195.321899 160.0
1195.459473 144.0
1195.597168 316.0
1195.88623 84.0
1196.209717 176.0
1196.375 160.0
1196.491943 124.0
1196.547119 124.0
1197.66272 208.0
1198.069092 68.0
1198.206909 112.0
1198.937378 224.0
1199.013184 56.0
1199.107056 152.0
1199.219971 48.0
1200.240234 176.0
1200.529907 28.0
1200.812744 136.0
1200.950684 160.0
1201.033447 172.0
1201.30249 200.0
1201.502563 80.0
1202.792969 400.0
1202.996582 216.0
1203.953003 192.0
1204.008301 172.0
1204.118774 120.0
1204.436523 80.0
1204.940796 152.0
1205.113525 112.0
1205.389893 124.0
1206.502808 140.0
1207.125 116.0
1207.235718 84.0
1208.134888 176.0
1209.145142 116.0
1209.228271 132.0
1210.14209 40.0
1210.550537 76.0
1211.416382 152.0
1211.575684 228.0
1211.707397 128.0
1211.790649 180.0
1212.136963 48.0
1212.483521 136.0
1212.753784 88.0
1213.176636 292.0
1213.682739 120.0
1213.745239 256.0
1214.189087 132.0
1214.661987 156.0
1214.889648 168.0
1214.952026 168.0
1215.472412 192.0
1216.097046 152.0
1216.367798 128.0
1216.832886 96.0
1218.006592 156.0
1218.402588 180.0
1218.610962 56.0
1218.888916 96.0
1219.023804 236.0
1219.20166 228.0
1219.618652 64.0
1220.237427 172.0
1221.37793 156.0
1221.739746 120.0
1222.108398 112.0
1222.477295 152.0
1224.63562 180.0
1224.80603 176.0
1225.57605 152.0
1226.084839 172.0
1226.719116 100.0
1228.120728 56.0
1228.239258 200.0
1228.455566 192.0
1228.602051 184.0
1229.327759 144.0
1229.439331 156.0
1229.78833 44.0
1230.053589 140.0
1230.179321 80.0
1230.465454 192.0
1230.682007 164.0
1231.373291 144.0
1231.70166 308.0
1231.956299 108.0
1233.064209 116.0
1233.34375 216.0
1233.623413 196.0
1233.812134 80.0
1234.37146 48.0
1236.589233 180.0
1236.645264 76.0
1237.562378 64.0
1237.891479 132.0
1238.024536 72.0
1238.682861 88.0
1238.80896 244.0
1239.327515 72.0
1239.621826 116.0
1239.878052 164.0
1239.986206 88.0
1240.294678 180.0
1240.736328 36.0
1240.855469 84.0
1241.323975 196.0
1241.528687 172.0
1242.012573 132.0
1242.279175 168.0
1242.587891 120.0
1242.721191 116.0
1242.966797 208.0
1243.036377 160.0
1243.429932 196.0
1243.970459 48.0
1244.265259 124.0
1244.777954 144.0
1244.869141 164.0
1245.108032 168.0
1245.564575 156.0
1245.789795 172.0
1245.866577 112.0
1246.513062 176.0
1247.876709 36.0
1248.073608 228.0
1248.143921 92.0
1248.25647 176.0
1248.34082 68.0
1248.600952 132.0
1248.678345 240.0
1249.023071 200.0
1249.367798 116.0
1249.726562 192.0
1250.486572 116.0
1250.578125 112.0
1250.768188 176.0
1250.834595 160.0
1251.46521 116.0
1251.760864 40.0
1252.275024 180.0
1252.641357 180.0
1252.965332 96.0
1253.014648 164.0
1253.226074 160.0
1253.324707 196.0
1254.085815 196.0
1254.852905 128.0
1254.995239 148.0
1255.164551 104.0
1255.256226 116.0
1255.460693 156.0
1256.123779 192.0
1256.596436 176.0
1257.237305 156.0
1257.379761 164.0
1257.693604 252.0
1257.909058 160.0
1258.12085 184.0
1258.650391 188.0
1259.102417 128.0
1259.286011 148.0
1259.512085 116.0
1259.632202 204.0
1259.773438 160.0
1259.900635 100.0
1259.950073 80.0
1261.229126 48.0
1261.540161 172.0
1261.594482 148.0
1262.098755 184.0
1262.272583 180.0
1262.515991 180.0
1262.75647 96.0
1263.074829 172.0
1263.286987 112.0
1263.541626 140.0
1264.879272 108.0
1264.950073 176.0
1265.753296 184.0
1265.969604 136.0
1266.32373 164.0
1266.642456 144.0
1266.692017 128.0
1267.301392 144.0
1267.882446 160.0
1267.953369 132.0
1268.03833 120.0
1268.952881 88.0
1269.137207 44.0
1269.240967 188.0
1269.475464 260.0
1269.527222 180.0
1269.661987 152.0
1269.71875 36.0
1269.995361 56.0
1270.697632 128.0
1271.094971 160.0
1271.173096 148.0
1271.669922 204.0
1271.733765 136.0
1271.868652 52.0
1271.975098 136.0
1272.046143 168.0
1272.266113 132.0
1272.408203 156.0
1273.025879 136.0
1273.973267 164.0
1274.759277 288.0
1274.908569 112.0
1275.449463 116.0
1275.548218 112.0
1275.974854 176.0
1276.522339 156.0
1276.643188 236.0
1276.714355 108.0
1276.828125 228.0
1277.141113 88.0
1278.343506 180.0
1278.528687 200.0
1278.884399 140.0
1279.275879 148.0
1279.553589 184.0
1279.617676 104.0
1280.130371 152.0
1280.564819 124.0
1280.949463 172.0
1281.027832 168.0
1281.091919 196.0
1281.355469 156.0
1281.555054 108.0
1282.246216 152.0
1282.730957 124.0
1283.422485 100.0
1283.914551 132.0
1284.021606 100.0
1284.535156 96.0
1285.084473 188.0
1285.469849 124.0
1285.55542 60.0
1285.605469 100.0
1285.69104 152.0
1285.776733 124.0
1287.175903 92.0
1287.268799 152.0
1287.518799 144.0
1287.633057 144.0
1287.740112 168.0
1287.97583 216.0
1288.140137 148.0
1288.190186 224.0
1288.240234 96.0
1289.483521 148.0
1289.62146 108.0
1290.033936 180.0
1290.562988 184.0
1290.806152 124.0
1291.077881 156.0
1291.306763 180.0
1291.764526 180.0
1292.057861 92.0
1293.188477 196.0
1293.267212 176.0
1293.338867 88.0
1293.517822 228.0
1293.76123 108.0
1293.995728 84.0
1294.448608 180.0
1294.842529 176.0
1295.042969 192.0
1295.09314 168.0
1295.193481 124.0
1295.745117 172.0
1295.824097 128.0
1295.916992 236.0
1296.167847 152.0
1297.285889 204.0
1298.36145 148.0
1298.691406 132.0
1298.863647 144.0
1299.042969 100.0
1299.674316 200.0
1299.903931 64.0
1300.06897 176.0
1300.341675 164.0
1300.406372 168.0
1300.707764 188.0
1300.865723 116.0
1301.432861 188.0
1301.562134 108.0
1301.634033 212.0
1302.165405 148.0
1302.309082 92.0
1302.388062 160.0
1302.474243 180.0
1302.8479 80.0
1303.128052 124.0
1303.235474 164.0
1303.616699 184.0
1304.197266 212.0
1304.292236 152.0
1304.414551 132.0
1305.01123 84.0
1305.270142 212.0
1305.730347 152.0
1306.075562 192.0
1306.255493 108.0
1306.384888 164.0
1307.173218 192.0
1307.349121 128.0
1307.932129 108.0
1307.989746 64.0
1308.489502 156.0
1308.544067 60.0
1308.954468 60.0
1309.134521 96.0
1309.501831 184.0
1309.821045 180.0
1310.438354 104.0
1310.510376 176.0
1311.331909 228.0
1311.892944 144.0
1312.121582 228.0
1312.809937 116.0
1313.019043 164.0
1313.148926 140.0
1313.682739 136.0
1313.841431 44.0
1314.021729 212.0
1314.461914 120.0
1315.082642 148.0
1315.323608 184.0
1315.573486 120.0
1315.753906 164.0
1316.338867 108.0
1316.403809 188.0
1316.655518 140.0
1316.913818 148.0
1317.133301 188.0
1317.725708 164.0
1317.995972 136.0
1318.542236 80.0
1318.708496 232.0
1318.80249 180.0
1318.853027 188.0
1319.142212 140.0
1319.583252 128.0
1319.641113 80.0
1320.002686 44.0
1320.458252 148.0
1320.841675 112.0
1321.130981 132.0
1321.478271 64.0
1321.910156 112.0
1322.303223 200.0
1322.708618 116.0
1322.94751 144.0
1323.396362 168.0
1323.584595 140.0
1323.714966 124.0
1323.788086 136.0
1323.910522 160.0
1324.533447 152.0
1324.888428 108.0
1325.018799 160.0
1325.14917 56.0
1325.373779 116.0
1325.83374 120.0
1326.14209 192.0
1326.38855 204.0
1326.540771 296.0
1326.63501 140.0
1326.743774 88.0
1326.924927 124.0
1326.990234 116.0
1327.258545 108.0
1327.36731 80.0
1327.94751 120.0
1328.353638 176.0
1328.665649 44.0
1328.803467 420.0
1329.304199 64.0
1329.572632 124.0
1329.710571 176.0
1330.131592 48.0
1330.255005 124.0
1330.501831 168.0
1330.697876 224.0
1330.864868 212.0
1330.952026 116.0
1331.133545 64.0
1331.198853 116.0
1331.32959 212.0
1331.59375 216.0
1332.21582 140.0
1332.390137 132.0
1332.542725 156.0
1332.608154 140.0
1333.189453 148.0
1333.531006 128.0
1333.865356 200.0
1333.996216 160.0
1334.192505 268.0
1334.374268 64.0
1334.890625 196.0
1334.992432 156.0
1335.140991 120.0
1335.421509 104.0
1335.603394 192.0
1335.828857 108.0
1336.450317 148.0
1337.218628 56.0
1337.378784 160.0
1337.89563 204.0
1338.288818 128.0
1338.365845 192.0
1339.067993 64.0
1339.228271 96.0
1339.439575 136.0
1339.811035 136.0
1339.976074 192.0
1340.08606 168.0
1340.423096 180.0
1341.647705 188.0
1341.789917 172.0
1341.932007 140.0
1343.113403 192.0
1344.650146 204.0
1344.996094 64.0
1345.112915 84.0
1345.477905 68.0
1345.806519 116.0
1345.901367 204.0
1346.083984 144.0
1346.149658 164.0
1347.515625 128.0
1348.085571 152.0
1348.187866 176.0
1348.823853 176.0
1349.357544 192.0
1349.452515 192.0
1349.525635 144.0
1350.849487 164.0
1351.310303 292.0
1351.705444 176.0
1351.983887 196.0
1352.312866 116.0
1352.605713 88.0
1352.810669 172.0
1352.861938 100.0
1353.066895 140.0
1353.242676 164.0
1353.447632 156.0
1353.579468 168.0
1354.363159 192.0
1354.568237 160.0
1354.685425 172.0
1354.98584 184.0
1355.037109 132.0
1355.315552 48.0
1355.652588 96.0
1355.751221 192.0
1355.879883 252.0
1356.019043 200.0
1356.239014 180.0
1356.334229 192.0
1356.678833 108.0
1356.781494 168.0
1357.016113 60.0
1357.150879 156.0
1357.463379 192.0
1357.771362 100.0
1357.822754 152.0
1357.888794 192.0
1358.328857 72.0
1358.563599 136.0
1358.893799 68.0
1359.627563 128.0
1360.075317 148.0
1360.603882 96.0
1361.029785 184.0
1361.235352 196.0
1361.286743 40.0
1361.352905 136.0
1361.404297 120.0
1362.234253 140.0
1363.013062 112.0
1363.071899 204.0
1363.586304 204.0
1363.708008 156.0
1363.762695 68.0
1364.341797 156.0
1364.446411 204.0
1364.60083 200.0
1364.740479 152.0
1365.216919 228.0
1365.748047 204.0
1365.936768 160.0
1366.108521 72.0
1366.763306 104.0
1366.829468 172.0
1367.057617 56.0
1367.462402 128.0
1367.62439 200.0
1368.286865 132.0
1368.390137 136.0
1368.640381 172.0
1368.839111 124.0
1369.207397 184.0
1369.281006 208.0
1369.516724 168.0
1369.671387 132.0
1369.855591 100.0
1369.988159 120.0
1370.179688 236.0
1370.400757 248.0
1370.80603 236.0
1371.056641 144.0
1371.579956 180.0
1372.147583 224.0
1372.457275 104.0
1373.032471 176.0
1373.165283 116.0
1373.30542 232.0
1373.996948 184.0
1374.382568 120.0
1374.448975 104.0
1375.268066 148.0
1375.741821 172.0
1375.818604 220.0
1376.630737 156.0
1377.040161 180.0
1377.187988 136.0
1377.586792 120.0
1377.823242 124.0
1378.177734 168.0
1378.369995 64.0
1378.732178 124.0
1379.419556 160.0
1379.744873 164.0
1380.003662 80.0
1380.447266 96.0
1380.619263 224.0
1380.720947 116.0
1380.979736 220.0
1381.112305 156.0
1381.553101 128.0
1381.800903 164.0
1382.089478 36.0
1382.216309 144.0
1382.283569 156.0
1382.478149 144.0
1382.940552 148.0
1383.05896 156.0
1383.155273 100.0
1383.421753 188.0
1383.606812 136.0
1383.947388 108.0
1384.526855 64.0
1384.560181 128.0
1384.754639 224.0
1385.132446 124.0
1385.41394 48.0
1385.576904 96.0
1385.895508 160.0
1386.191895 52.0
1386.66626 80.0
1386.858887 120.0
1387.129761 112.0
1387.911743 200.0
1388.149048 160.0
1388.215698 128.0
1388.445679 188.0
1388.727539 44.0
1388.805054 164.0
1389.053833 208.0
1389.417358 100.0
1389.743896 56.0
1389.981323 132.0
1390.241089 180.0
1390.310303 136.0
1390.386353 256.0
1390.738281 112.0
1390.901611 100.0
1391.012939 68.0
1391.205933 148.0
1391.421265 116.0
1391.762817 96.0
1391.859375 160.0
1392.193481 160.0
1392.371826 128.0
1392.490601 124.0
1392.557495 180.0
1392.691162 80.0
1392.758057 132.0
1392.839233 224.0
1393.367188 216.0
1393.575195 152.0
1393.701538 184.0
1394.080566 200.0
1394.147461 108.0
1394.378662 172.0
1394.778442 168.0
1394.950195 64.0
1395.009644 116.0
1395.061646 168.0
1395.12854 64.0
1395.195435 80.0
1395.60083 212.0
1395.730835 160.0
1396.117554 132.0
1396.206787 152.0
1396.719971 120.0
1396.779541 184.0
1396.861328 132.0
1397.68335 220.0
1398.102295 144.0
1398.185791 104.0
1398.237915 68.0
1398.453735 140.0
1398.885498 148.0
1399.376831 160.0
1399.503418 188.0
1399.667236 336.0
1400.017212 68.0
1400.374756 144.0
1400.829102 172.0
1400.911255 136.0
1401.179321 136.0
1401.562866 124.0
1401.633789 172.0
1401.820068 208.0
1401.872314 216.0
1402.036255 172.0
1402.177856 100.0
1402.267334 172.0
1403.138428 200.0
1403.228882 108.0
1403.437744 172.0
1403.817993 160.0
1403.982056 116.0
1404.116333 132.0
1404.295288 108.0
1404.377441 144.0
1404.495483 120.0
1404.683228 104.0
1404.78772 168.0
1404.877197 128.0
1405.75769 124.0
1405.977051 224.0
1406.849609 188.0
1406.950806 184.0
1407.089844 128.0
1407.29541 332.0
1407.526855 108.0
1408.057129 76.0
1408.183716 168.0
1408.208374 160.0
1408.225952 80.0
1408.352295 204.0
1408.400635 240.0
1408.542603 116.0
1408.602417 172.0
1408.744263 168.0
1408.953491 60.0
1409.125366 140.0
1409.566162 160.0
1409.887207 156.0
1410.44812 132.0
1410.730347 192.0
1411.105957 144.0
1411.203247 164.0
1411.562134 236.0
1411.681763 136.0
1411.868774 64.0
1411.973511 36.0
1412.339966 56.0
1412.758911 204.0
1412.884766 228.0
1413.028198 204.0
1413.436768 288.0
1413.50708 152.0
1413.589355 156.0
1413.769043 104.0
1413.843872 188.0
1414.075928 104.0
1414.457642 172.0
1415.206299 160.0
1416.08252 172.0
1416.337158 140.0
1416.464478 172.0
1416.539429 80.0
1416.824097 172.0
1417.296143 80.0
1417.468506 140.0
1417.595825 200.0
1417.80188 148.0
1418.217896 36.0
1418.78772 172.0
1418.922607 172.0
1419.476562 160.0
1419.747437 148.0
1419.814941 228.0
1420.0625 188.0
1420.369995 136.0
1420.715088 148.0
1420.805176 156.0
1421.397949 80.0
1421.555542 164.0
1421.720581 136.0
1421.908203 36.0
1422.005737 108.0
1422.11084 152.0
1422.501221 52.0
1422.61377 164.0
1423.131836 124.0
1423.312134 120.0
1423.552368 220.0
1424.061035 192.0
1424.288452 236.0
1424.423706 180.0
1424.619019 52.0
1424.741577 124.0
1425.496948 156.0
1425.640869 144.0
1425.716064 112.0
1426.046753 152.0
1426.129395 140.0
1426.437622 128.0
1426.843506 68.0
1426.936035 188.0
1427.031494 124.0
1427.926392 64.0
1428.340088 112.0
1428.483032 104.0
1428.829102 104.0
1428.919434 92.0
1428.972046 228.0
1429.235474 160.0
1429.737793 336.0
1430.003052 140.0
1430.507446 176.0
1431.019287 72.0
1431.40332 132.0
1431.466064 132.0
1431.584106 136.0
1431.922974 92.0
1432.495483 124.0
1432.638672 96.0
1432.706421 140.0
1433.12085 140.0
1433.196167 124.0
1433.384521 140.0
1433.474976 100.0
1434.145752 160.0
1434.471191 172.0
1434.598022 112.0
1434.809204 144.0
1435.28418 156.0
1435.434082 168.0
1435.600952 148.0
1435.683838 148.0
1436.190308 164.0
1436.51355 148.0
1436.747437 124.0
1436.898315 108.0
1437.056763 124.0
1437.117188 68.0
1437.320923 204.0
1437.788696 172.0
1437.879272 160.0
1438.171753 140.0
1438.228149 224.0
1439.011719 148.0
1439.208008 192.0
1439.419434 236.0
1439.630859 128.0
1439.819702 188.0
1440.151978 148.0
1440.439087 224.0
1440.522095 92.0
1440.620361 180.0
1440.779053 164.0
1441.035889 156.0
1441.092773 88.0
1441.617798 124.0
1442.237549 124.0
1442.305542 164.0
1442.985962 188.0
1443.141357 72.0
1443.295898 144.0
1443.92627 160.0
1443.954956 188.0
1444.374756 200.0
1444.574097 116.0
1444.880859 176.0
1444.995117 192.0
1445.065918 116.0
1445.164307 108.0
1445.2854 144.0
1445.557739 196.0
1445.777222 148.0
1445.973999 164.0
1446.314575 172.0
1446.738525 160.0
1446.859619 88.0
1447.154907 172.0
1447.404785 184.0
1447.904663 76.0
1448.116699 160.0
1448.1698 176.0
1448.450073 232.0
1448.593994 148.0
1448.794312 188.0
1449.245483 92.0
1449.739502 244.0
1450.427856 148.0
1450.503662 156.0
1450.86084 168.0
1451.314819 120.0
1451.451294 216.0
1451.542358 104.0
1451.964111 220.0
1452.149048 192.0
1452.520752 36.0
1452.664917 152.0
1453.212036 160.0
1453.681641 60.0
1454.260132 172.0
1454.319092 88.0
1454.630371 140.0
1454.721436 120.0
1455.070679 168.0
1455.13147 164.0
1456.141357 248.0
1456.31604 76.0
1456.498413 104.0
1456.564819 160.0
1456.627563 124.0
1456.756714 184.0
1457.015015 140.0
1457.098511 120.0
1457.37207 160.0
1458.276489 128.0
1458.344849 148.0
1458.495361 216.0
1458.595703 168.0
1459.546021 108.0
1459.599243 152.0
1460.253296 160.0
1460.648804 156.0
1460.84668 112.0
1460.968384 28.0
1461.219482 128.0
1461.287964 176.0
1461.630371 248.0
1461.729248 184.0
1462.239136 132.0
1462.807373 236.0
1462.924194 132.0
1463.419067 148.0
1463.637451 184.0
1463.830322 144.0
1464.035889 164.0
1464.40918 172.0
1464.49292 152.0
1464.57666 116.0
1464.765991 188.0
1465.140381 104.0
1465.734741 332.0
1465.856689 152.0
1466.108154 152.0
1466.321533 196.0
1466.555908 216.0
1467.374023 140.0
1467.42688 180.0
1467.556519 92.0
1467.65564 148.0
1467.831055 52.0
1468.090332 136.0
1468.265747 88.0
1468.86084 172.0
1469.051392 148.0
1469.390869 192.0
1469.614014 172.0
1469.692261 248.0
1470.279907 148.0
1471.088989 172.0
1471.211182 132.0
1471.783813 140.0
1471.883057 168.0
1472.012939 100.0
1472.157959 212.0
1472.303101 152.0
1472.79187 148.0
1472.990479 216.0
1473.234985 136.0
1473.792725 200.0
1473.915039 212.0
1474.205322 160.0
1474.325806 128.0
1475.030884 208.0
1475.087891 176.0
1475.191406 200.0
1475.304077 136.0
1475.673096 172.0
1475.758911 172.0
1475.82373 136.0
1475.932983 64.0
1476.177734 144.0
1476.384155 64.0
1476.590698 164.0
1476.682495 156.0
1477.019043 32.0
1477.210327 244.0
1477.485718 272.0
1477.767578 160.0
1477.960083 156.0
1478.411621 144.0
1478.602051 176.0
1478.679443 136.0
1479.192261 44.0
1479.444946 212.0
1479.659302 92.0
1479.78186 176.0
1479.896606 172.0
1480.51062 112.0
1480.585815 176.0
1480.846313 168.0
1480.945801 172.0
1481.053101 120.0
1481.206299 76.0
1481.466187 152.0
1481.484009 140.0
1481.506958 188.0
1481.977539 180.0
1482.63916 88.0
1482.723389 192.0
1482.800049 148.0
1483.03772 208.0
1483.22168 120.0
1483.55127 112.0
1484.348633 120.0
1484.693726 112.0
1484.747437 168.0
1484.824219 68.0
1485.376465 144.0
1485.821411 160.0
1485.936523 204.0
1486.036255 116.0
1486.120605 112.0
1486.235718 144.0
1486.293945 144.0
1486.719238 164.0
1486.941772 116.0
1487.041504 128.0
1487.249878 196.0
1487.371582 92.0
1487.440674 176.0
1487.916626 136.0
1488.047119 156.0
1488.469482 108.0
1488.791992 196.0
1489.068237 132.0
1489.252808 124.0
1489.383423 152.0
1489.959595 104.0
1490.236206 220.0
1490.574341 128.0
1490.681885 160.0
1490.77771 172.0
1490.912476 168.0
1491.181396 208.0
1491.803833 140.0
1492.246704 148.0
1492.403809 180.0
1492.511475 172.0
1492.60376 204.0
1492.69397 156.0
1492.888184 148.0
1492.980469 320.0
1493.534302 180.0
1493.657349 92.0
1493.816528 176.0
1494.095947 208.0
1494.172363 152.0
1494.267212 104.0
1494.449829 172.0
1494.582642 184.0
1494.734497 128.0
1495.097534 140.0
1495.407104 172.0
1495.665771 148.0
1496.004517 240.0
1496.05835 244.0
1496.374023 208.0
1496.481812 108.0
1496.666626 68.0
1497.429077 168.0
1497.5177 156.0
1497.983643 124.0
1498.091553 148.0
1498.245605 124.0
1498.374634 232.0
1498.443481 140.0
1498.718384 168.0
1498.792603 140.0
1498.993042 116.0
1499.057983 184.0
1499.378296 100.0
1499.494019 36.0
1499.61731 128.0
1499.780029 196.0
1499.890137 160.0
1500.14917 208.0
1500.326538 136.0
1500.518433 164.0
1500.688843 148.0
1500.920166 212.0
1501.060303 168.0
1501.174683 212.0
1501.406006 112.0
1501.567993 132.0
1501.783936 160.0
1501.861084 108.0
1502.077026 176.0
1502.131104 200.0
1502.231323 232.0
1502.362549 132.0
1502.709717 132.0
1503.080078 108.0
1503.419678 108.0
1503.566284 168.0
1503.674316 180.0
1503.790039 144.0
1504.091187 144.0
1504.475952 132.0
1504.608398 208.0
1504.863159 140.0
1504.971313 108.0
1505.106689 104.0
1505.153198 128.0
1505.27832 140.0
1505.411377 172.0
