>compound MLS000860012-01!
>formula C18H23NO3
>ionization [M+H]+
>parentmass 302.1750700480905
#inchi InChI=1S/C18H23NO3/c1-13(2-3-14-4-7-16(20)8-5-14)19-11-10-15-6-9-17(21)18(22)12-15/h4-9,12-13,19-22H,2-3,10-11H2,1H3
#inchikey JRWZLRBJNMZMFE
#origInchi InChI=1S/C18H23NO3.ClH/c1-13(2-3-14-4-7-16(20)8-5-14)19-11-10-15-6-9-17(21)18(22)12-15;/h4-9,12-13,19-22H,2-3,10-11H2,1H3;1H
#Ion_Source LC-ESI
#Instrument qTof
#Compound_Source NIH Pharmacologically Active Library
#PI Dorrestein
#Data_Collector VP/LMS
#Scan -1
#Precursor_MZ 302.178
#ExactMass 301.168
#Charge 1
#CAS_Number N/A
#Pubmed_ID N/A
#Smiles CC(CCc1ccc(O)cc1)NCCc2ccc(O)c(O)c2.Cl
#INCHI_AUX N/A
#Library_Class 1
#SpectrumID CCMSLIB00000084837
#IonMode Positive
#UpdateWorkflowName UPDATE-SINGLE-ANNOTATED-GOLD
#LibraryQualityString Gold
#TaskID d252d724072548979f1f6f1ced849daf
##Scan# 1320
#SpectrumFile p3-B06_GB6_01_18239.mzXML
#LibraryName Pharm_Active_Library.mgf
#MQScore -1
#Organism Pharm_Active_Library
#TIC_Query 0
#RT_Query -1
#MZErrorPPM -1
#SharedPeaks 0
#MassDiff 0
#LibMZ -1
#SpecMZ 302.178
#SpecCharge 0
#internalFilename spec-00000.mgf

>collision 10
44.9319 152.0
45.296864 172.0
46.13525 152.0
46.232639 64.0
46.887241 156.0
47.493622 184.0
48.091473 108.0
48.112179 168.0
48.23098 132.0
48.433002 60.0
49.045776 128.0
49.119682 152.0
49.777489 148.0
50.297001 168.0
50.541969 264.0
50.717106 232.0
51.107647 220.0
51.818699 40.0
52.168877 148.0
52.806217 112.0
53.206161 152.0
53.255531 140.0
53.772408 192.0
54.017883 68.0
54.0369 140.0
54.099831 256.0
54.16573 176.0
54.576656 120.0
54.6502 116.0
54.841255 152.0
55.076248 104.0
55.138306 164.0
55.300995 104.0
56.665073 144.0
56.747505 200.0
57.508701 48.0
58.221802 180.0
58.341839 72.0
59.473774 240.0
59.532116 72.0
59.65657 192.0
59.671944 176.0
59.848885 64.0
60.718903 156.0
61.135254 176.0
61.147705 96.0
61.195961 208.0
61.424164 232.0
63.558472 200.0
64.63884 200.0
65.049133 136.0
65.467171 148.0
66.323456 268.0
66.428856 196.0
66.682159 244.0
66.939201 168.0
67.47438 204.0
67.900124 144.0
68.182503 64.0
68.373276 172.0
69.056313 188.0
69.110748 256.0
69.162209 136.0
69.369263 116.0
70.063904 188.0
70.756989 152.0
70.860825 216.0
71.825386 240.0
72.236252 160.0
73.348495 176.0
73.408165 124.0
73.491753 164.0
74.078156 176.0
74.247841 192.0
74.309593 148.0
74.696129 120.0
74.71505 192.0
74.835526 192.0
75.090561 144.0
75.768158 196.0
75.925896 144.0
76.23143 96.0
77.480736 156.0
77.587639 140.0
77.810448 172.0
77.977325 140.0
78.357407 152.0
79.069023 180.0
79.290405 172.0
79.379044 196.0
79.432251 40.0
79.700325 160.0
79.801636 52.0
80.173668 184.0
80.63768 180.0
81.205238 164.0
81.311089 148.0
81.846794 244.0
82.948845 120.0
83.537201 124.0
83.86496 208.0
84.652367 72.0
84.754944 188.0
84.819092 40.0
84.960289 156.0
85.215477 168.0
85.364777 160.0
85.386436 132.0
85.728851 172.0
86.228981 168.0
86.639763 156.0
86.979118 60.0
87.762337 200.0
88.150589 76.0
88.227219 136.0
88.487267 196.0
88.522842 192.0
88.957817 232.0
89.399506 72.0
89.444138 240.0
89.819649 136.0
90.072586 204.0
90.085808 148.0
90.797493 176.0
91.015724 188.0
91.054901 1132.0
91.557678 56.0
91.58625 180.0
91.866455 172.0
91.992401 136.0
92.030586 160.0
92.055405 160.0
92.384148 164.0
93.051071 52.0
93.216255 144.0
93.420059 176.0
93.9151 28.0
94.129318 120.0
94.390182 116.0
94.508171 40.0
95.215721 164.0
98.575539 208.0
98.753464 144.0
99.042442 196.0
100.647339 120.0
100.751198 172.0
101.039078 128.0
101.135132 144.0
101.321358 160.0
101.899162 48.0
102.09256 184.0
102.255081 156.0
102.460472 92.0
102.555176 200.0
102.649933 116.0
102.78508 124.0
102.934448 68.0
102.98494 240.0
103.686996 132.0
104.18615 128.0
104.387367 196.0
104.619308 156.0
104.770004 160.0
104.971786 116.0
105.461754 148.0
105.817696 112.0
106.278854 136.0
106.525215 128.0
106.761581 172.0
107.027031 168.0
107.049362 18192.0
107.092445 256.0
107.133492 156.0
107.156784 52.0
107.181511 64.0
107.199585 176.0
107.280373 120.0
107.513992 172.0
107.563042 72.0
107.666275 40.0
108.053169 2056.0
108.092125 152.0
108.141792 40.0
108.266006 76.0
108.419312 48.0
108.59761 56.0
108.612129 36.0
108.662315 164.0
108.70134 116.0
108.817574 100.0
108.842484 192.0
109.062981 488.0
109.26857 152.0
109.343475 76.0
109.482964 120.0
109.589195 32.0
109.67672 212.0
109.776794 204.0
109.881081 100.0
109.952026 68.0
110.039703 360.0
110.067917 160.0
110.284111 84.0
110.553902 224.0
110.622971 256.0
110.912033 48.0
110.943481 132.0
111.111252 180.0
111.735214 204.0
112.977806 48.0
113.087837 248.0
113.632431 188.0
113.742783 220.0
114.495438 108.0
114.56147 208.0
114.608337 68.0
115.708275 112.0
116.454514 188.0
117.461845 144.0
117.554619 128.0
117.813713 120.0
118.140144 172.0
118.52552 232.0
119.049713 4572.0
119.232948 60.0
120.051765 372.0
120.090752 68.0
120.359177 64.0
120.429054 152.0
120.713165 76.0
121.05732 328.0
124.87252 168.0
127.38488 36.0
132.306046 260.0
132.6577 224.0
132.812454 108.0
133.322144 124.0
133.860443 204.0
134.589081 148.0
134.926407 208.0
135.35907 84.0
136.417023 128.0
136.675171 120.0
136.742661 216.0
136.777573 200.0
136.840424 232.0
136.875351 164.0
137.022095 168.0
137.060562 12924.0
137.115295 104.0
137.173569 56.0
137.229523 60.0
137.304138 88.0
137.3228 116.0
137.345612 112.0
137.374115 104.0
137.444092 144.0
137.503128 68.0
137.556686 132.0
137.68454 64.0
137.70015 112.0
137.763947 32.0
137.852737 84.0
137.941544 112.0
138.062576 1204.0
138.093536 80.0
138.143494 88.0
138.180084 52.0
138.201141 144.0
138.301773 128.0
138.339218 64.0
138.428192 60.0
138.901611 108.0
138.91803 116.0
138.988419 96.0
139.070541 172.0
139.129395 56.0
139.232544 36.0
140.366806 112.0
145.048569 188.0
145.688828 60.0
147.728256 96.0
148.176117 96.0
148.753281 52.0
149.093307 368.0
152.470764 80.0
153.628006 192.0
154.079773 188.0
154.111893 196.0
160.088684 280.0
166.122986 300.0
167.116974 156.0
168.14772 116.0
175.106461 124.0
179.097916 148.0
184.224075 100.0
187.000671 116.0
187.112274 128.0
190.075073 164.0
195.00177 148.0
196.985626 48.0
198.020538 148.0
200.121002 156.0
202.079742 104.0
202.116516 208.0
216.951889 168.0
225.114624 100.0
227.134796 208.0
238.83284 100.0
241.074173 252.0
241.117447 132.0
264.189453 132.0
291.178162 172.0
300.865204 68.0
302.172516 608.0
303.196503 184.0
303.654114 80.0
303.90387 136.0
312.692566 88.0
324.202972 164.0
352.839752 112.0
461.76413 52.0
516.577148 76.0
682.989929 44.0
691.347961 68.0
696.832642 144.0
814.623108 192.0
815.66864 56.0
845.1875 200.0
854.22052 140.0
854.912903 264.0
859.312134 56.0
880.372986 152.0
881.46582 148.0
888.481934 140.0
893.103394 228.0
895.615173 148.0
903.063965 260.0
914.674194 148.0
917.794861 180.0
926.225342 184.0
930.039246 228.0
934.682251 204.0
971.801697 164.0
973.719849 192.0
976.012878 176.0
990.861145 188.0
1002.088257 236.0
1002.415955 184.0
1002.800354 116.0
1004.597412 184.0
1024.012451 120.0
1026.721069 148.0
1027.601318 200.0
1031.509644 72.0
1033.236206 64.0
1039.746338 204.0
1045.819824 196.0
1049.749756 196.0
1053.53186 152.0
1054.785522 160.0
1061.363037 152.0
1072.39502 180.0
1078.399536 112.0
1079.275513 136.0
1082.390137 152.0
1090.314453 160.0
1091.951538 128.0
1095.571777 196.0
1096.401978 244.0
1098.280884 236.0
1106.580933 196.0
1116.893433 156.0
1118.723267 56.0
1118.896362 160.0
1120.887817 148.0
1122.354248 172.0
1128.684204 212.0
1146.129272 184.0
1149.467041 128.0
1150.0271 212.0
1158.52002 248.0
1158.90625 176.0
1165.290649 120.0
1165.902222 228.0
1170.1875 208.0
1172.932861 80.0
1181.311401 156.0
1182.235107 188.0
1188.697144 216.0
1189.973755 168.0
1191.848877 164.0
1195.940674 160.0
1196.401855 132.0
1207.490234 168.0
1209.856689 216.0
1214.443848 60.0
1222.231445 152.0
1230.260376 132.0
1233.054321 212.0
1244.605713 72.0
1245.827759 228.0
1246.741211 116.0
1255.653931 172.0
1264.994751 184.0
1266.070923 160.0
1271.004639 120.0
1271.104004 160.0
1271.43042 36.0
1275.777344 176.0
1277.498291 128.0
1278.622437 224.0
1280.658691 184.0
1281.221436 144.0
1284.521973 160.0
1287.219727 132.0
1289.93457 108.0
1290.585205 200.0
1293.71875 168.0
1296.891968 152.0
1298.060547 164.0
1301.971558 168.0
1302.704224 168.0
1305.011108 172.0
1306.751587 164.0
1308.334961 160.0
1316.699097 152.0
1317.739258 152.0
1318.288452 92.0
1323.64856 92.0
1329.665405 172.0
1332.468262 188.0
1334.35791 152.0
1336.780029 144.0
1341.040283 156.0
1345.358521 156.0
1346.336914 196.0
1349.983521 172.0
1350.173706 132.0
1350.663696 140.0
1351.570801 172.0
1354.411377 216.0
1360.923462 168.0
1363.40625 164.0
1364.391235 260.0
1364.927979 128.0
1367.274536 148.0
1371.082031 196.0
1377.471558 200.0
1377.811401 156.0
1380.930664 188.0
1382.728516 144.0
1387.713745 148.0
1390.940796 220.0
1393.012573 112.0
1401.292603 140.0
1404.714355 56.0
1418.337646 188.0
1420.512939 192.0
1424.874512 196.0
1425.317871 144.0
1427.415039 60.0
1428.257324 216.0
1430.710449 120.0
1433.919189 184.0
1435.615479 52.0
1436.135864 172.0
1438.724121 112.0
1444.104126 180.0
1448.827515 184.0
1450.161133 124.0
1451.684937 152.0
1451.738037 248.0
1452.739258 164.0
1453.194458 132.0
1453.505493 156.0
1454.567993 216.0
1455.44104 172.0
1456.534668 160.0
1459.802612 184.0
1461.011963 148.0
1461.301147 92.0
1464.269775 172.0
1465.702026 196.0
1470.254395 164.0
1471.139893 160.0
1476.343018 152.0
1480.414185 188.0
1485.250244 168.0
1487.567627 152.0
1489.548706 132.0
1490.355347 196.0
1493.407349 212.0
1493.822632 224.0
1494.999878 136.0
1499.759399 148.0
1500.661377 188.0
1500.715332 192.0
1500.923462 176.0
1501.124023 228.0
1501.764038 128.0
1502.157471 264.0
