>compound MLS001160002-01!
>formula C23H21BrN2O5
>ionization [M+H]+
>parentmass 485.069244
#inchi InChI=1S/C23H21BrN2O5/c1-13-17-6-5-16(8-19(17)31-23(29)22(13)24)30-12-21(28)25-9-14-7-15(11-25)18-3-2-4-20(27)26(18)10-14/h2-6,8,14-15H,7,9-12H2,1H3/t14-,15+/m1/s1
#inchikey KQAZJQXFNDOORW
#Ion_Source LC-ESI
#Instrument qTof
#Compound_Source NIH Natural Product Library
#PI Dorrestein
#Data_Collector VVP/LMS
#Scan -1
#Precursor_MZ 485.071
#ExactMass 484.063
#Charge 1
#CAS_Number N/A
#Pubmed_ID N/A
#Smiles Cc1c(Br)c(=O)oc2cc(OCC(=O)N3C[C@H]4C[C@@H](C3)c5cccc(=O)n5C4)ccc12
#INCHI_AUX N/A
#Library_Class 1
#SpectrumID CCMSLIB00000079359
#IonMode Positive
#UpdateWorkflowName UPDATE-SINGLE-ANNOTATED-GOLD
#LibraryQualityString Gold
#TaskID b1d8e8f6646f4e71acdff9ca3d919d08
##Scan# 1821
#SpectrumFile p1-A05_GA5_01_17878.mzXML
#LibraryName NIH_Natural_Products_Library.mgf
#MQScore -1
#Organism NIH_Natural_Products_Library
#TIC_Query 0
#RT_Query -1
#MZErrorPPM -1
#SharedPeaks 0
#MassDiff 0
#LibMZ -1
#SpecMZ 485.071
#SpecCharge 0
#internalFilename spec-00000.mgf

>collision 10
95.073219 208.0
95.211052 204.0
95.263489 200.0
95.409233 80.0
95.741951 40.0
95.971886 152.0
96.04599 112.0
96.403259 108.0
96.467751 180.0
96.585075 108.0
96.669197 204.0
96.915039 124.0
96.955109 152.0
97.327805 152.0
97.536041 184.0
97.707123 160.0
97.758278 72.0
98.195618 168.0
98.21534 244.0
98.246902 220.0
98.707077 132.0
99.08709 48.0
99.27935 200.0
99.340836 240.0
99.47776 204.0
99.507538 72.0
99.579018 152.0
99.592926 84.0
99.733994 108.0
99.755859 132.0
100.082123 124.0
100.167755 176.0
100.390976 236.0
100.444824 164.0
101.014099 56.0
101.378487 180.0
101.528831 128.0
101.91021 136.0
102.048889 188.0
102.181633 180.0
102.241997 196.0
102.544075 156.0
102.897072 224.0
103.135437 36.0
103.256744 128.0
103.442444 164.0
103.531975 128.0
103.977966 204.0
104.052284 280.0
104.325287 168.0
104.363914 212.0
104.50222 156.0
105.059753 400.0
105.077484 232.0
105.097153 128.0
105.142044 208.0
105.229813 160.0
105.395248 184.0
105.517876 120.0
105.556725 164.0
105.798149 100.0
105.961983 144.0
106.02755 220.0
106.064392 180.0
106.08699 160.0
106.402908 124.0
106.62159 64.0
106.715187 224.0
106.906479 188.0
107.042336 112.0
107.075287 192.0
107.124718 156.0
107.200951 72.0
107.574249 204.0
107.687813 116.0
107.838631 152.0
107.861366 232.0
107.877907 192.0
107.950264 80.0
108.022652 148.0
108.043289 156.0
108.077057 216.0
108.393234 148.0
108.465775 40.0
108.621284 272.0
108.652397 140.0
108.903564 48.0
108.924339 204.0
109.05249 952.0
109.084335 196.0
109.415092 168.0
109.498383 188.0
109.558784 160.0
109.74218 64.0
109.892349 44.0
110.060051 160.0
110.487762 204.0
111.066582 124.0
111.181297 80.0
111.408058 164.0
111.475288 192.0
111.584587 224.0
111.971756 160.0
112.235161 128.0
112.718987 216.0
113.143631 220.0
113.395699 212.0
113.730797 264.0
113.824112 180.0
113.953766 240.0
114.00264 64.0
114.525993 168.0
114.832901 156.0
114.891609 140.0
114.93956 92.0
115.057816 296.0
115.486443 76.0
115.579735 156.0
115.73468 144.0
116.060219 380.0
116.84642 148.0
116.913124 216.0
117.057373 364.0
117.311577 44.0
117.831657 196.0
117.879189 140.0
117.978607 272.0
118.064735 72.0
118.281448 104.0
118.303093 104.0
118.344231 144.0
118.64537 200.0
118.72776 108.0
119.414032 68.0
119.810181 124.0
120.041206 192.0
120.087006 188.0
120.132812 128.0
120.392754 200.0
120.807808 160.0
121.039368 164.0
121.051254 172.0
121.085785 252.0
121.116447 164.0
121.206261 52.0
121.829338 196.0
121.855705 116.0
122.059364 700.0
122.0821 44.0
122.143745 128.0
122.215103 128.0
122.269089 144.0
122.297699 64.0
122.321907 164.0
122.462822 76.0
122.520096 112.0
122.555344 64.0
122.869995 184.0
123.069229 344.0
123.115616 184.0
123.136536 228.0
123.263618 228.0
123.668312 100.0
123.725868 104.0
123.907463 68.0
124.081543 204.0
124.208939 172.0
124.253304 120.0
124.568535 236.0
124.704071 168.0
124.979813 140.0
125.068825 156.0
125.527946 232.0
125.601349 216.0
125.753067 208.0
125.911575 152.0
126.284805 216.0
126.3452 64.0
126.775085 128.0
127.046379 188.0
127.288773 196.0
127.387589 168.0
127.756248 188.0
127.92952 132.0
127.997063 152.0
128.193039 160.0
128.580902 48.0
129.289963 208.0
129.550888 192.0
129.580353 168.0
129.718582 124.0
130.011154 272.0
130.067902 156.0
130.140533 72.0
130.156433 120.0
130.508606 172.0
130.770218 200.0
131.057587 200.0
131.070328 188.0
131.332977 96.0
131.399124 180.0
131.716431 152.0
131.821518 112.0
131.924362 128.0
132.046036 604.0
132.079514 516.0
132.290375 88.0
132.396896 184.0
132.420883 176.0
132.611038 204.0
132.721069 36.0
132.744003 128.0
132.78299 164.0
132.812805 56.0
132.859406 88.0
132.980286 240.0
133.028488 216.0
133.053391 676.0
133.085892 212.0
133.161667 176.0
133.391434 140.0
133.412109 164.0
133.448898 156.0
133.835434 160.0
134.037338 100.0
134.06041 2604.0
134.107254 56.0
134.13031 112.0
134.319382 164.0
134.353989 172.0
134.68869 184.0
134.93132 204.0
135.000458 156.0
135.066772 616.0
135.565521 192.0
135.628098 244.0
135.658218 144.0
135.915649 148.0
136.065689 192.0
136.105988 124.0
136.145462 148.0
136.215134 172.0
136.505646 144.0
136.670792 120.0
136.791809 164.0
136.822067 44.0
136.938492 220.0
138.154572 116.0
138.332428 156.0
138.456512 112.0
138.479935 136.0
138.845535 224.0
138.983932 80.0
139.249191 140.0
139.352554 192.0
139.502945 136.0
139.785172 132.0
140.00174 208.0
140.088882 196.0
140.558044 176.0
140.777573 172.0
141.122543 132.0
141.146194 64.0
141.254974 168.0
141.510559 152.0
141.60054 220.0
141.974976 196.0
142.061737 440.0
142.85376 168.0
143.075455 344.0
143.315613 168.0
143.620743 196.0
143.723328 156.0
144.078415 104.0
144.739166 180.0
144.868484 148.0
145.046066 552.0
145.089371 240.0
145.388763 84.0
145.422363 136.0
145.482376 172.0
145.508789 140.0
145.652863 156.0
145.722534 200.0
145.780197 220.0
145.806625 160.0
145.936432 56.0
146.022995 212.0
146.060211 13608.0
146.101028 236.0
146.138458 76.0
146.427322 72.0
146.687531 56.0
146.711639 48.0
146.98175 268.0
146.998642 172.0
147.01474 156.0
147.066437 8372.0
147.160355 56.0
147.256958 164.0
147.317337 60.0
147.346558 128.0
147.575928 76.0
147.597031 132.0
147.77182 256.0
147.871033 84.0
148.000549 32.0
148.074738 3148.0
148.251251 148.0
148.282745 48.0
148.304565 108.0
148.355469 40.0
148.394257 76.0
148.445175 80.0
148.571289 124.0
148.901398 84.0
148.954834 40.0
149.0728 576.0
149.128693 36.0
149.587036 48.0
149.703903 104.0
150.071838 224.0
150.132797 192.0
150.247681 76.0
150.674652 172.0
150.72908 144.0
150.926392 88.0
151.051117 128.0
151.45253 192.0
151.619125 208.0
151.896179 136.0
152.163666 44.0
152.21637 212.0
152.301178 180.0
152.328186 212.0
152.564087 132.0
152.881378 188.0
153.174347 92.0
153.223618 136.0
153.603241 124.0
153.825317 228.0
154.062378 52.0
154.143921 192.0
154.425735 196.0
154.871231 120.0
154.987671 128.0
155.034744 204.0
155.136368 124.0
155.376907 156.0
155.786514 128.0
155.960449 156.0
156.311111 116.0
156.502762 180.0
156.542603 112.0
156.966202 136.0
157.228134 160.0
157.29657 152.0
157.397873 132.0
158.060135 680.0
158.207916 72.0
158.794235 48.0
158.992432 252.0
159.022537 220.0
159.04509 332.0
159.066666 924.0
159.145538 40.0
159.205811 132.0
159.248505 72.0
159.485306 80.0
159.517349 140.0
159.539978 60.0
159.577682 28.0
159.645569 160.0
159.678268 168.0
159.982712 128.0
160.049789 508.0
160.076309 4976.0
160.161499 32.0
160.19928 124.0
160.221954 76.0
160.393311 60.0
161.077896 1056.0
161.521973 176.0
161.711731 148.0
162.053589 28.0
162.091507 596.0
162.271545 164.0
162.9785 132.0
163.094101 480.0
163.22113 208.0
163.28978 104.0
163.984818 156.0
164.099411 168.0
164.949615 176.0
165.082565 248.0
165.192535 96.0
165.591827 136.0
165.773712 160.0
165.881348 220.0
166.060837 204.0
166.640961 140.0
167.085724 136.0
167.366257 200.0
167.507904 132.0
167.819717 48.0
167.958984 208.0
168.568253 124.0
168.700058 212.0
168.981934 96.0
169.32103 116.0
169.886063 44.0
169.966492 148.0
170.137787 96.0
170.71199 188.0
170.96431 188.0
171.195999 188.0
171.602478 40.0
171.662445 132.0
172.075485 1460.0
172.215698 36.0
172.461288 100.0
172.620758 100.0
172.649536 40.0
172.707062 120.0
172.86142 212.0
172.87973 88.0
172.968719 184.0
173.026306 196.0
173.048584 156.0
173.083008 5972.0
173.170319 180.0
173.518829 48.0
173.597488 40.0
173.883438 88.0
174.088776 1680.0
174.153854 32.0
174.291946 120.0
174.558563 52.0
174.621674 96.0
175.0522 332.0
175.092484 404.0
175.332489 60.0
175.553925 152.0
175.627777 180.0
176.116058 156.0
176.689667 192.0
176.819321 44.0
177.09996 60.0
178.389511 120.0
179.30777 148.0
180.174957 148.0
180.252426 152.0
180.44487 172.0
180.966385 284.0
181.159393 120.0
181.513168 120.0
181.695541 180.0
181.963913 136.0
182.708344 148.0
182.727173 276.0
182.874008 224.0
182.966278 480.0
183.112091 80.0
183.139023 160.0
183.192886 52.0
183.335693 36.0
183.384201 64.0
183.432709 172.0
183.772507 60.0
183.829163 128.0
183.929031 76.0
183.983017 184.0
184.523315 188.0
184.937195 140.0
184.977783 132.0
185.652405 156.0
186.045822 192.0
186.070251 264.0
186.629929 108.0
187.084946 204.0
187.302109 124.0
187.48465 96.0
187.87999 160.0
187.983673 104.0
188.069107 960.0
188.089005 176.0
188.150162 44.0
188.382278 88.0
188.404144 60.0
188.423264 104.0
188.527084 48.0
188.699295 140.0
188.791321 200.0
188.816208 180.0
188.857895 136.0
188.89241 148.0
188.940216 124.0
188.992599 164.0
189.052948 620.0
189.102203 43100.0
189.216354 72.0
189.264038 144.0
189.284805 108.0
189.319458 152.0
189.350525 104.0
189.413513 52.0
189.461731 40.0
189.490219 68.0
189.536804 56.0
189.616272 92.0
189.651901 52.0
189.689468 100.0
189.767029 100.0
189.791702 220.0
189.810898 64.0
189.841064 40.0
189.873291 96.0
189.919769 120.0
189.967224 116.0
190.016602 112.0
190.076584 408.0
190.106796 7028.0
190.167526 88.0
190.186737 28.0
190.205948 60.0
190.240189 68.0
190.300323 212.0
190.365189 40.0
190.395386 112.0
190.499756 48.0
190.527237 48.0
190.595917 88.0
190.628891 88.0
190.694839 72.0
190.716827 92.0
190.736069 160.0
190.769058 176.0
190.906525 192.0
190.961533 80.0
191.078644 760.0
191.116501 3092.0
191.247665 52.0
191.269684 172.0
191.310974 144.0
191.422699 104.0
191.430008 188.0
191.496216 160.0
191.514694 316.0
191.563614 156.0
191.583603 100.0
191.630112 140.0
191.649231 112.0
191.673447 72.0
191.759933 76.0
191.930847 72.0
191.961182 40.0
192.049438 56.0
192.082535 184.0
192.12059 340.0
192.286697 116.0
192.502029 100.0
192.526886 56.0
192.560013 40.0
192.587646 108.0
192.651169 136.0
192.68985 196.0
192.866699 96.0
193.126602 116.0
193.732788 60.0
194.101395 76.0
194.948013 52.0
195.676758 72.0
195.82991 152.0
195.874466 76.0
197.921509 172.0
198.120361 152.0
198.193207 356.0
198.737137 76.0
199.000961 104.0
199.076767 88.0
199.116089 212.0
200.086166 108.0
200.426941 64.0
202.082581 112.0
202.094681 84.0
202.103027 168.0
203.08374 132.0
203.116943 708.0
204.097595 172.0
204.108871 144.0
204.124481 348.0
204.447937 32.0
204.86647 76.0
205.296844 64.0
205.545013 136.0
205.639175 48.0
206.390472 72.0
206.476257 112.0
207.111618 120.0
207.151718 144.0
208.224426 172.0
208.379547 72.0
208.517471 128.0
208.960617 480.0
209.017838 232.0
209.492859 160.0
209.962677 72.0
210.953323 324.0
210.974045 260.0
211.059967 208.0
211.46785 64.0
212.946457 120.0
212.98024 396.0
214.054428 96.0
214.112671 212.0
214.170914 144.0
214.441879 192.0
214.660522 184.0
214.70134 148.0
215.118301 224.0
215.863571 136.0
216.043213 128.0
216.387299 136.0
217.057083 380.0
217.094727 400.0
217.134506 160.0
218.053406 268.0
218.101624 476.0
218.223892 92.0
218.470932 108.0
219.071457 128.0
220.851349 160.0
221.008133 32.0
221.712875 52.0
223.527237 44.0
223.815964 96.0
225.226532 156.0
225.716644 80.0
225.937958 100.0
225.96489 160.0
227.055191 108.0
227.961777 152.0
228.006851 172.0
228.313492 212.0
228.68956 148.0
229.174377 128.0
229.22258 52.0
231.067368 148.0
231.113739 1012.0
232.072861 124.0
232.119812 2004.0
232.227524 68.0
232.345825 84.0
233.121674 436.0
233.484848 176.0
233.566956 32.0
233.615631 48.0
234.130005 108.0
234.37674 112.0
234.419403 128.0
235.142136 60.0
236.315536 128.0
236.805298 180.0
236.956741 408.0
237.795578 176.0
237.964401 144.0
238.400558 116.0
238.440521 116.0
238.969833 664.0
239.209442 68.0
239.950348 152.0
239.974213 144.0
240.966736 568.0
241.024612 152.0
241.103165 32.0
241.505081 72.0
241.970673 288.0
242.083801 180.0
242.294418 164.0
242.97644 120.0
244.959747 104.0
245.299393 132.0
247.122223 316.0
247.971771 92.0
248.112823 164.0
248.219421 140.0
248.718231 96.0
248.941132 152.0
249.679611 152.0
250.09491 132.0
250.794128 108.0
250.964233 212.0
251.096786 96.0
251.611115 96.0
252.972443 360.0
253.638794 112.0
253.960464 140.0
254.139847 236.0
254.961014 184.0
255.964539 200.0
256.059814 88.0
256.509064 148.0
256.53775 144.0
256.95871 128.0
257.344543 192.0
257.45343 20.0
259.347412 108.0
259.850861 176.0
260.480042 120.0
260.981384 176.0
261.222565 120.0
262.092651 56.0
262.433441 136.0
262.888245 92.0
263.401581 128.0
263.811951 56.0
264.031799 56.0
264.080322 180.0
264.108185 580.0
264.666046 160.0
264.954193 300.0
265.806976 96.0
266.964386 3040.0
267.194305 56.0
267.438354 144.0
267.9729 860.0
268.060394 44.0
268.216827 60.0
268.312744 64.0
268.924347 156.0
268.9617 2044.0
269.162903 108.0
269.273926 128.0
269.309845 144.0
269.359528 188.0
269.545044 112.0
269.962433 292.0
270.182617 76.0
270.221863 84.0
270.660431 28.0
271.719055 88.0
271.902802 68.0
275.777649 144.0
276.136261 156.0
276.490234 76.0
277.056854 156.0
277.129333 112.0
278.253632 96.0
278.956299 224.0
279.766235 96.0
280.965912 184.0
281.094482 176.0
281.256226 108.0
282.914185 100.0
283.406494 112.0
285.040527 184.0
285.114471 152.0
285.356476 148.0
285.568329 52.0
287.525208 136.0
290.143707 132.0
290.554047 132.0
290.927338 120.0
290.961304 92.0
291.154816 128.0
291.348419 128.0
291.630463 128.0
291.671234 124.0
291.984039 152.0
293.09375 124.0
293.816559 200.0
293.966675 124.0
294.959106 340.0
295.063904 112.0
295.459747 44.0
296.070587 164.0
296.493805 212.0
296.959076 600.0
297.008057 132.0
297.09198 240.0
297.099335 112.0
297.112457 196.0
297.873047 120.0
297.957275 132.0
298.147919 176.0
298.897522 160.0
299.506866 136.0
302.47287 52.0
303.023499 164.0
303.144745 96.0
304.782532 232.0
307.096985 140.0
307.160278 156.0
307.296326 128.0
307.40448 128.0
307.84082 172.0
310.009705 236.0
310.433777 184.0
312.000824 84.0
312.052155 184.0
312.319702 192.0
313.072845 160.0
314.126648 132.0
314.433624 148.0
314.599518 76.0
314.712463 180.0
314.874908 152.0
316.136963 128.0
316.986816 80.0
317.224274 28.0
318.04364 68.0
318.103973 112.0
319.504089 156.0
319.989227 284.0
321.695679 156.0
321.988617 276.0
322.102203 184.0
322.990692 200.0
323.139435 56.0
324.47168 44.0
324.912811 36.0
325.56604 184.0
326.004303 180.0
326.108521 84.0
327.479279 144.0
329.062317 116.0
329.763062 88.0
330.084808 160.0
330.772186 132.0
332.091064 128.0
332.326843 76.0
333.739685 36.0
333.863342 204.0
333.968811 140.0
334.034271 32.0
335.450745 44.0
335.705963 64.0
337.041931 232.0
339.839203 60.0
340.000183 184.0
340.712982 44.0
342.224518 176.0
342.541229 116.0
345.42038 140.0
345.827393 92.0
346.523529 200.0
347.031281 120.0
347.201874 56.0
347.405853 148.0
348.081329 152.0
348.218719 188.0
349.145325 172.0
349.475159 168.0
351.464783 164.0
351.729736 164.0
353.400177 136.0
354.76712 132.0
354.80835 96.0
356.922089 160.0
357.915436 136.0
358.25061 140.0
362.936951 48.0
363.005188 140.0
363.118958 112.0
363.741211 176.0
364.702179 88.0
365.424683 116.0
365.455109 80.0
369.73645 88.0
369.9776 124.0
370.509888 76.0
372.005463 100.0
374.077362 136.0
375.017181 152.0
377.161102 200.0
377.256134 148.0
378.15329 172.0
378.796021 56.0
379.009094 116.0
379.178497 112.0
380.164215 168.0
380.762451 72.0
381.232513 132.0
382.033447 152.0
382.111237 160.0
382.157928 100.0
382.216278 100.0
382.862457 88.0
383.078583 132.0
383.591034 64.0
383.981781 172.0
384.437378 168.0
386.31665 136.0
387.177704 148.0
387.326538 48.0
387.420563 136.0
388.031891 124.0
388.141693 64.0
388.533875 156.0
390.328766 120.0
391.095886 132.0
391.343903 136.0
391.678619 156.0
391.879517 116.0
392.100189 208.0
394.488098 148.0
394.80835 196.0
394.97049 108.0
395.595703 120.0
395.817413 196.0
397.168793 208.0
397.529785 72.0
398.586029 112.0
398.888062 136.0
399.838623 80.0
400.002594 164.0
400.344208 168.0
402.114258 160.0
403.336426 148.0
403.480316 128.0
405.153107 108.0
405.369476 92.0
406.153717 1884.0
406.215393 52.0
406.415985 76.0
407.159668 652.0
407.363434 72.0
407.7612 28.0
408.010406 52.0
408.155151 164.0
408.661926 148.0
408.698151 116.0
409.495178 108.0
410.950378 72.0
412.266693 112.0
412.626434 84.0
412.670898 48.0
413.24118 84.0
413.641815 196.0
414.593567 128.0
415.274658 108.0
416.031555 180.0
416.614136 120.0
417.699463 176.0
418.012726 100.0
418.708832 124.0
419.703125 240.0
420.116455 200.0
420.943542 56.0
421.213074 140.0
422.357574 92.0
423.765747 64.0
423.872284 68.0
426.112488 96.0
428.053833 104.0
428.733521 112.0
429.347748 116.0
430.490845 148.0
430.606476 164.0
431.056732 108.0
431.916656 104.0
432.077972 92.0
432.901642 112.0
433.67218 152.0
438.139832 92.0
439.510742 132.0
439.669312 124.0
440.404114 156.0
440.688171 44.0
440.734131 164.0
441.055908 28.0
442.503296 76.0
443.064453 168.0
443.956055 52.0
444.046967 172.0
444.88446 144.0
444.976837 124.0
445.711823 176.0
445.959778 92.0
447.579346 224.0
447.992096 140.0
448.194305 160.0
450.071259 96.0
452.680145 220.0
453.120636 124.0
453.264709 52.0
453.925934 132.0
454.345825 212.0
455.054565 152.0
456.133575 228.0
456.503448 216.0
457.056427 144.0
457.098969 144.0
457.801331 132.0
459.425201 104.0
461.877106 136.0
463.405334 196.0
463.636719 168.0
464.142548 48.0
464.648621 96.0
465.056274 36.0
465.532806 164.0
467.064697 224.0
467.282166 116.0
468.039673 120.0
468.996033 88.0
469.036896 108.0
469.073608 144.0
469.867065 104.0
472.4245 80.0
474.087067 124.0
476.551666 116.0
478.434784 212.0
479.044434 84.0
479.270966 168.0
479.462708 136.0
480.312866 104.0
480.498016 120.0
481.33844 96.0
481.447601 152.0
482.067902 80.0
482.255829 84.0
482.303894 160.0
482.343231 56.0
482.443787 64.0
482.474396 200.0
482.539948 40.0
482.738831 108.0
483.047241 172.0
483.104095 68.0
483.287262 136.0
483.392853 132.0
483.546021 96.0
483.598541 136.0
483.72287 128.0
483.846619 136.0
484.04068 132.0
484.080109 68.0
484.220245 40.0
484.264038 140.0
484.513794 92.0
484.554352 328.0
484.649506 276.0
484.745911 144.0
484.804688 88.0
484.868622 84.0
484.940765 164.0
484.980835 276.0
485.069244 27388.0
485.169983 156.0
485.214874 164.0
485.260376 96.0
485.302582 80.0
485.337341 68.0
485.407806 96.0
485.456024 136.0
485.54715 180.0
485.578827 104.0
485.703308 168.0
485.800537 84.0
485.885864 52.0
485.929504 228.0
485.938507 140.0
485.954224 148.0
485.993042 136.0
486.010773 68.0
486.074463 9180.0
486.201782 96.0
486.267609 104.0
486.375885 156.0
486.431488 168.0
486.530975 120.0
486.599182 112.0
486.645111 64.0
486.702972 112.0
486.833466 148.0
486.8703 224.0
486.929138 148.0
486.965668 176.0
487.000488 264.0
487.068237 27184.0
487.210693 200.0
487.243134 132.0
487.281952 56.0
487.360443 132.0
487.444519 72.0
487.487 48.0
487.58075 72.0
487.613739 92.0
487.695343 108.0
487.743347 56.0
487.774139 68.0
487.820038 136.0
487.916748 152.0
487.945557 104.0
488.007111 132.0
488.072266 4820.0
488.411682 88.0
488.469238 48.0
488.549103 64.0
488.653625 84.0
488.684418 36.0
488.749847 60.0
488.803223 56.0
488.913239 132.0
488.956543 124.0
489.066071 468.0
489.150909 140.0
489.190521 56.0
489.245392 156.0
489.313141 56.0
489.40625 40.0
489.54715 88.0
489.644012 48.0
489.710083 192.0
489.893402 84.0
489.965576 60.0
490.037933 84.0
490.163818 88.0
490.207886 48.0
490.273987 64.0
490.353333 56.0
490.406219 76.0
490.450287 64.0
490.516388 76.0
490.556061 76.0
490.613373 136.0
490.711639 164.0
490.774902 204.0
490.899963 176.0
490.977814 92.0
491.07196 52.0
491.114471 100.0
491.19986 80.0
491.237 104.0
491.482208 32.0
491.623413 64.0
492.095703 124.0
492.135437 48.0
493.452026 124.0
494.035767 52.0
494.562317 184.0
495.509949 72.0
495.953064 64.0
497.385712 104.0
498.411591 92.0
498.624878 92.0
500.056915 116.0
500.470917 40.0
502.485413 76.0
502.882568 80.0
504.329651 76.0
504.481628 68.0
504.986877 60.0
505.881744 92.0
507.028351 64.0
509.011108 104.0
509.825409 72.0
513.551819 96.0
514.025513 80.0
515.958557 52.0
518.715393 64.0
531.734009 68.0
532.87146 108.0
538.177185 72.0
539.942322 56.0
558.952148 96.0
564.74054 44.0
585.049194 96.0
593.106384 44.0
603.905701 72.0
608.831055 140.0
610.83136 108.0
625.428162 52.0
634.193787 80.0
640.973083 200.0
652.716309 100.0
676.657104 88.0
707.260925 48.0
708.918579 108.0
710.318237 92.0
731.973938 76.0
734.997803 52.0
737.687317 108.0
738.67688 120.0
744.932251 104.0
756.55835 56.0
786.547546 64.0
795.745056 100.0
796.407654 36.0
800.490479 56.0
803.641296 20.0
823.840942 76.0
828.388611 92.0
829.053223 160.0
830.767578 84.0
831.410156 36.0
842.540039 136.0
878.401489 44.0
891.450134 56.0
897.927063 104.0
918.252136 220.0
922.496765 92.0
935.23938 88.0
936.22699 44.0
939.78064 76.0
943.45105 72.0
945.500061 80.0
946.773376 100.0
948.384644 216.0
954.249756 44.0
956.541565 56.0
962.7995 168.0
969.443359 220.0
975.687317 168.0
976.091492 84.0
977.173706 208.0
979.128174 64.0
985.590637 136.0
986.296814 196.0
1006.014343 76.0
1006.740417 172.0
1010.918884 140.0
1011.00116 72.0
1015.467407 152.0
1020.674622 200.0
1029.595825 48.0
1039.588623 112.0
1040.185547 112.0
1042.921753 164.0
1044.998779 176.0
1045.249756 228.0
1048.714355 232.0
1050.332764 132.0
1066.714844 28.0
1070.013062 132.0
1071.699829 100.0
1073.368408 140.0
1080.343628 192.0
1085.609375 72.0
1085.930786 56.0
1088.19458 68.0
1096.832031 136.0
1104.193604 76.0
1105.840942 164.0
1114.049683 164.0
1114.461548 124.0
1118.185425 104.0
1118.724487 36.0
1119.250488 184.0
1120.236084 172.0
1122.64209 136.0
1129.099731 68.0
1145.267578 48.0
1154.101074 164.0
1154.520386 100.0
1157.274292 192.0
1161.943848 56.0
1167.588379 136.0
1168.384155 160.0
1172.360474 92.0
1175.012817 72.0
1184.138062 140.0
1189.190918 104.0
1196.958984 252.0
1211.206177 268.0
1217.496582 196.0
1220.067383 84.0
1223.14209 152.0
1225.349487 56.0
1225.753662 136.0
1232.179565 48.0
1232.906128 48.0
1241.088989 108.0
1250.825806 72.0
1256.745483 104.0
1260.756104 156.0
1260.953979 132.0
1261.58313 172.0
1263.527832 120.0
1264.603394 164.0
1264.683105 56.0
1266.78418 148.0
1267.875244 128.0
1274.808472 176.0
1279.92981 164.0
1288.245605 28.0
1288.988525 220.0
1291.755371 156.0
1296.308716 184.0
1297.20459 188.0
1299.090454 180.0
1299.614136 180.0
1301.085449 56.0
1309.649536 84.0
1315.634399 112.0
1318.133301 148.0
1328.609741 104.0
1328.921631 140.0
1336.572388 200.0
1337.467529 216.0
1340.8396 172.0
1341.539307 220.0
1342.314331 172.0
1343.76355 164.0
1346.113892 212.0
1353.235474 196.0
1356.825195 144.0
1357.338501 68.0
1359.684692 132.0
1360.970459 52.0
1361.939819 124.0
1362.91687 168.0
1363.313599 168.0
1365.474976 196.0
1366.872681 136.0
1369.634521 120.0
1370.377319 40.0
1372.551636 36.0
1376.46228 160.0
1376.794556 156.0
1377.865601 188.0
1380.282471 220.0
1381.502686 168.0
1383.27124 136.0
1385.966919 236.0
1388.435425 40.0
1390.059937 176.0
1397.080933 52.0
1397.341309 92.0
1398.822266 148.0
1400.698608 204.0
1402.442139 136.0
1406.044434 112.0
1411.392822 124.0
1413.629395 60.0
1414.841797 132.0
1416.601685 252.0
1416.73645 132.0
1418.062744 120.0
1424.132324 208.0
1424.432739 136.0
1425.184082 84.0
1425.401978 128.0
1430.937622 164.0
1431.803589 212.0
1433.68689 152.0
1440.779297 128.0
1440.854858 216.0
1448.116455 132.0
1450.798706 168.0
1453.362061 188.0
1460.533447 116.0
1462.677979 112.0
1463.371826 188.0
1463.901001 20.0
1466.418823 204.0
1468.759521 252.0
1470.099609 60.0
1470.224365 180.0
1472.47644 196.0
1473.997314 212.0
1478.416382 144.0
1478.592407 164.0
1480.154053 160.0
1480.613403 52.0
1487.383301 128.0
1488.50415 176.0
1491.423462 40.0
1492.930298 168.0
1494.454102 180.0
1497.432251 156.0
1501.917969 128.0
1502.064453 220.0
