>compound Bepotastine Besilate
>formula C21H25ClN2O3
>ionization [M+H]+
>parentmass 389.163269
#inchi InChI=1S/C21H25ClN2O3/c22-17-8-6-16(7-9-17)21(19-4-1-2-12-23-19)27-18-10-14-24(15-11-18)13-3-5-20(25)26/h1-2,4,6-9,12,18,21H,3,5,10-11,13-15H2,(H,25,26)/t21-/m0/s1
#inchikey YWGDOWXRIALTES
#origInchi InChI=1S/C21H25ClN2O3.C6H6O3S/c22-17-8-6-16(7-9-17)21(19-4-1-2-12-23-19)27-18-10-14-24(15-11-18)13-3-5-20(25)26;7-10(8,9)6-4-2-1-3-5-6/h1-2,4,6-9,12,18,21H,3,5,10-11,13-15H2,(H,25,26);1-5H,(H,7,8,9)/t21-;/m0./s1
#Ion_Source LC-ESI
#Instrument qTof
#Compound_Source Commercial
#PI Dorrestein
#Data_Collector Garg_Neha
#Scan -1
#Precursor_MZ 389.163
#ExactMass 388.155
#Charge 1
#CAS_Number 190786-44-8, 125602-71-3 (free base), 210095-37-7 (H2O4S)
#Pubmed_ID N/A
#Smiles N1(CCC(CC1)O[C@H](C2C=CC=CN=2)C3C=CC(=CC=3)Cl)CCCC(=O)O.C4=CC(=CC=C4)S(O)(=O)=O
#INCHI_AUX N/A
#Library_Class 1
#SpectrumID CCMSLIB00000078552
#IonMode Positive
#UpdateWorkflowName UPDATE-SINGLE-ANNOTATED-GOLD
#LibraryQualityString Gold
#TaskID 77f51c88eb8b467eb4a01dd2d0cb90d2
##Scan# 1086
#SpectrumFile Plate9_1_20_GC4_01_15750.mzXML
#LibraryName FDALibrary_2_04302014.mgf
#MQScore -1
#Organism FDALibrary_2_04302014
#TIC_Query 0
#RT_Query -1
#MZErrorPPM -1
#SharedPeaks 0
#MassDiff 0
#LibMZ -1
#SpecMZ 389.163
#SpecCharge 0
#internalFilename spec-00000.mgf

>collision 10
45.8414 148.0
45.880489 200.0
47.237179 184.0
50.257889 140.0
50.865032 172.0
52.438461 160.0
52.625996 164.0
53.363483 200.0
55.038277 184.0
55.240753 196.0
58.502022 208.0
59.784687 180.0
61.733208 240.0
62.35717 176.0
65.118683 188.0
65.231155 168.0
65.690102 168.0
67.109184 156.0
67.649956 176.0
69.79483 176.0
70.943512 192.0
71.361549 200.0
72.345139 156.0
74.323921 164.0
74.868851 244.0
75.203323 140.0
75.550652 140.0
76.803116 160.0
77.47963 232.0
78.231262 180.0
78.516708 152.0
80.499023 140.0
81.193382 180.0
82.730377 176.0
83.940437 144.0
85.317314 164.0
87.182343 148.0
87.303185 144.0
90.363846 144.0
90.567101 184.0
91.56234 204.0
91.863495 164.0
93.831146 180.0
94.058784 188.0
94.220993 144.0
98.098877 192.0
99.543205 152.0
105.646889 164.0
105.900711 176.0
106.36821 148.0
109.053467 188.0
109.259331 180.0
109.327995 160.0
109.923996 168.0
110.06385 180.0
110.387733 144.0
111.011772 192.0
111.723808 168.0
116.50737 152.0
119.003075 160.0
120.096497 152.0
124.111946 968.0
125.11573 304.0
126.919601 188.0
127.150658 172.0
127.874344 176.0
128.392517 152.0
128.710709 140.0
129.869415 140.0
136.186386 152.0
138.146759 148.0
141.993286 192.0
142.0858 204.0
142.700928 164.0
144.066513 168.0
144.111908 148.0
145.378616 200.0
146.547256 140.0
149.02243 184.0
149.136642 188.0
149.930069 156.0
151.155975 156.0
152.067627 172.0
152.106888 156.0
154.930252 216.0
155.431305 172.0
156.74173 156.0
157.570099 208.0
157.860046 144.0
159.731064 144.0
161.41832 172.0
162.157547 272.0
162.728302 180.0
163.356018 168.0
163.758194 144.0
163.903412 168.0
165.054611 160.0
166.062424 384.0
166.769684 180.0
166.862228 176.0
166.909851 164.0
167.029373 276.0
167.073349 29056.0
167.225128 212.0
167.601807 208.0
167.673065 160.0
168.076508 2724.0
168.108185 152.0
168.142441 140.0
169.081848 348.0
170.118134 11216.0
170.444626 172.0
170.798203 236.0
171.121689 1348.0
172.123718 348.0
179.884613 152.0
183.226196 96.0
183.608841 228.0
183.630417 148.0
186.111694 2112.0
186.188492 220.0
187.112061 168.0
193.99733 148.0
195.291626 140.0
197.564713 184.0
200.287628 200.0
200.476395 208.0
201.037582 144.0
201.575546 128.0
201.653259 152.0
201.689453 168.0
201.899216 148.0
201.927505 192.0
201.993469 296.0
202.042221 40708.0
202.206146 132.0
202.978149 212.0
203.004089 108.0
203.044525 4272.0
204.009445 120.0
204.038956 11588.0
204.163467 96.0
204.41861 124.0
204.517426 152.0
204.667953 100.0
205.040558 1236.0
205.742432 108.0
206.043564 216.0
211.669601 188.0
228.611008 164.0
240.183243 180.0
244.950684 176.0
250.164627 172.0
263.092529 196.0
266.096924 140.0
301.023254 168.0
314.930847 184.0
320.685883 148.0
324.607697 160.0
328.827576 152.0
331.467529 156.0
339.131744 164.0
340.272614 144.0
344.626038 140.0
362.596924 148.0
375.442871 184.0
377.752594 144.0
379.634949 156.0
387.620026 132.0
388.43399 144.0
388.478119 128.0
388.669983 132.0
388.76593 120.0
388.932312 260.0
389.046173 280.0
389.163269 37300.0
389.244629 364.0
389.293518 152.0
389.336731 164.0
389.479156 172.0
389.513123 184.0
389.789642 160.0
389.968506 160.0
390.06369 316.0
390.112335 208.0
390.166107 9024.0
390.657379 208.0
390.768829 128.0
390.855743 124.0
391.160828 11316.0
391.255157 220.0
391.326691 108.0
391.568359 96.0
391.856415 232.0
392.164398 1924.0
392.280579 160.0
392.402008 164.0
392.492706 184.0
392.89386 168.0
392.927734 160.0
393.156525 148.0
499.992279 152.0
662.093811 176.0
1283.759155 192.0
1344.418213 256.0
1363.789917 144.0
1392.947632 156.0
1517.760376 184.0
1543.972168 212.0
1566.349243 224.0
1587.602295 212.0
1707.625488 152.0
1717.385498 172.0
1819.987305 148.0
1821.218628 168.0
1822.314575 156.0
1882.351929 144.0
