>compound MLS001142708-01!
>formula C23H28N4O3
>ionization [M+H]+
>parentmass 409.223785
#inchi InChI=1S/C23H28N4O3/c1-14(20(28)24-15-8-4-3-5-9-15)27-21(29)23(2)19-17(12-13-26(23)22(27)30)16-10-6-7-11-18(16)25-19/h6-7,10-11,14-15,25H,3-5,8-9,12-13H2,1-2H3,(H,24,28)/t14-,23-/m0/s1
#inchikey CJLYTLDVDQOMLK
#Ion_Source LC-ESI
#Instrument qTof
#Compound_Source NIH Natural Product Library
#PI Dorrestein
#Data_Collector VVP/LMS
#Scan -1
#Precursor_MZ 409.224
#ExactMass 408.216
#Charge 1
#CAS_Number N/A
#Pubmed_ID N/A
#Smiles C[C@H](N1C(=O)N2CCc3c([nH]c4ccccc34)[C@@]2(C)C1=O)C(=O)NC5CCCCC5
#INCHI_AUX N/A
#Library_Class 1
#SpectrumID CCMSLIB00000080005
#IonMode Positive
#UpdateWorkflowName UPDATE-SINGLE-ANNOTATED-GOLD
#LibraryQualityString Gold
#TaskID b1d8e8f6646f4e71acdff9ca3d919d08
##Scan# 2300
#SpectrumFile p2-H02_GH2_01_18062.mzXML
#LibraryName NIH_Natural_Products_Library.mgf
#MQScore -1
#Organism NIH_Natural_Products_Library
#TIC_Query 0
#RT_Query -1
#MZErrorPPM -1
#SharedPeaks 0
#MassDiff 0
#LibMZ -1
#SpecMZ 409.224
#SpecCharge 0
#internalFilename spec-00000.mgf

>collision 10
94.974487 148.0
95.020737 96.0
95.082832 236.0
95.100296 148.0
95.150505 204.0
95.158539 296.0
95.216789 100.0
95.343079 132.0
95.376114 252.0
95.446106 148.0
95.518066 144.0
95.550926 184.0
95.600487 192.0
95.625084 184.0
95.728195 212.0
95.876328 144.0
95.909462 80.0
95.923103 192.0
95.95311 164.0
96.005318 216.0
96.029633 208.0
96.050415 160.0
96.086922 180.0
96.123993 124.0
96.254784 140.0
96.270401 140.0
96.346581 72.0
96.387611 176.0
96.426697 160.0
96.45797 144.0
96.491402 196.0
96.512711 124.0
96.538132 120.0
96.659416 116.0
96.702477 236.0
96.735748 184.0
96.7612 80.0
96.777298 180.0
96.806236 128.0
96.853241 100.0
96.8983 192.0
96.943367 160.0
96.964928 140.0
96.994324 232.0
97.017853 124.0
97.039413 152.0
97.064903 132.0
97.094322 172.0
97.12178 132.0
97.145317 136.0
97.174698 160.0
97.217918 132.0
97.243431 196.0
97.290543 104.0
97.314362 184.0
97.486961 136.0
97.555756 148.0
97.575417 76.0
97.617813 392.0
97.659973 112.0
97.685547 76.0
97.72686 160.0
97.813454 120.0
97.83905 124.0
97.892212 96.0
97.937508 120.0
97.984787 176.0
98.053757 132.0
98.099091 164.0
98.150352 132.0
98.175987 80.0
98.195709 192.0
98.223709 208.0
98.256866 228.0
98.287552 224.0
98.3517 136.0
98.471146 188.0
98.493759 160.0
98.511536 52.0
98.527344 112.0
98.596497 212.0
98.614288 188.0
98.740822 120.0
98.760605 104.0
98.810059 140.0
98.865463 176.0
98.920883 160.0
99.006699 212.0
99.049599 176.0
99.13298 192.0
99.198219 144.0
99.296371 104.0
99.333069 48.0
99.352905 164.0
99.43029 96.0
99.460716 220.0
99.561325 152.0
99.622902 120.0
99.636803 128.0
99.672569 188.0
99.690071 184.0
99.786926 300.0
99.808899 180.0
99.835579 52.0
99.849503 68.0
99.89724 132.0
99.961723 120.0
99.978813 212.0
100.066399 168.0
100.109741 272.0
100.237701 116.0
100.267761 144.0
100.299484 204.0
100.41713 128.0
100.435074 116.0
100.455025 104.0
100.628654 160.0
100.64463 128.0
100.740494 124.0
100.767952 204.0
100.847481 200.0
100.986366 296.0
101.006363 180.0
101.130424 168.0
101.226524 40.0
101.260567 164.0
101.317551 116.0
101.649498 172.0
101.66555 256.0
101.745842 108.0
101.884415 96.0
101.926605 300.0
101.950722 188.0
101.970818 196.0
102.027107 188.0
102.055252 180.0
102.083405 164.0
102.16185 52.0
102.188232 240.0
102.200806 132.0
102.256424 176.0
102.405411 184.0
102.488007 168.0
102.639191 80.0
102.69664 264.0
102.727928 36.0
102.88736 136.0
102.996407 116.0
103.050957 236.0
103.065102 152.0
103.107536 132.0
103.122963 208.0
103.198502 228.0
103.224098 128.0
103.279396 160.0
103.368416 72.0
103.439255 156.0
103.514168 56.0
103.564796 172.0
103.612358 200.0
103.662041 144.0
103.723755 152.0
103.820168 200.0
103.838425 148.0
103.901306 124.0
103.915504 132.0
103.94136 232.0
103.966293 136.0
104.051491 132.0
104.090591 188.0
104.222107 76.0
104.24852 168.0
104.293236 144.0
104.47213 160.0
104.49456 104.0
104.5495 156.0
104.574226 136.0
104.61937 132.0
104.651054 144.0
104.702194 136.0
104.724594 128.0
104.749039 140.0
104.826462 232.0
104.852951 80.0
104.8713 172.0
104.922264 132.0
104.960999 116.0
105.021492 212.0
105.093582 156.0
105.193588 68.0
105.246674 36.0
105.270065 236.0
105.418259 100.0
105.493889 156.0
105.518417 80.0
105.534775 144.0
105.57888 212.0
105.614532 80.0
105.671112 152.0
105.706085 176.0
105.757767 232.0
105.794609 124.0
105.821228 160.0
105.91748 156.0
105.937965 128.0
106.106018 120.0
106.171631 100.0
106.265991 76.0
106.296768 176.0
106.382973 144.0
106.407608 184.0
106.446625 128.0
106.53289 180.0
106.550964 200.0
106.606857 136.0
106.629463 64.0
106.682907 196.0
106.777496 200.0
106.798065 132.0
106.837151 120.0
106.905045 116.0
107.035545 112.0
107.115059 148.0
107.241409 100.0
107.247223 132.0
107.361168 152.0
107.471725 120.0
107.512993 156.0
107.707077 156.0
107.738068 148.0
107.79425 228.0
107.83725 184.0
107.874458 140.0
108.018776 152.0
108.058517 112.0
108.093697 140.0
108.120598 160.0
108.145439 80.0
108.180626 172.0
108.267593 140.0
108.313156 116.0
108.350449 204.0
108.493446 168.0
108.514175 152.0
108.549431 120.0
108.572243 144.0
108.665588 120.0
108.696709 184.0
108.757828 176.0
108.829468 184.0
108.858627 152.0
108.873161 60.0
108.898087 84.0
108.933395 128.0
109.02021 164.0
109.072701 108.0
109.097572 132.0
109.125595 148.0
109.170349 180.0
109.247307 208.0
109.274353 184.0
109.290993 136.0
109.317451 140.0
109.337181 172.0
109.43045 172.0
109.447105 104.0
109.509583 140.0
109.532928 212.0
109.594505 220.0
109.715881 156.0
109.73465 100.0
109.768013 144.0
109.79512 180.0
109.85144 188.0
109.893166 148.0
109.910828 188.0
109.941666 148.0
110.01004 156.0
110.093559 128.0
110.118622 96.0
110.141594 124.0
110.26696 196.0
110.303848 148.0
110.375671 44.0
110.417496 48.0
110.541962 172.0
110.580688 148.0
110.691223 240.0
110.712723 124.0
110.762856 116.0
110.846657 124.0
110.911629 152.0
110.948853 164.0
111.035332 40.0
111.087776 68.0
111.131828 52.0
111.167549 172.0
111.196884 264.0
111.215775 164.0
111.289253 116.0
111.303947 176.0
111.362755 140.0
111.383759 232.0
111.39846 136.0
111.470528 148.0
111.503525 96.0
111.583405 156.0
111.652794 116.0
111.745354 96.0
111.776917 216.0
111.812691 80.0
111.853615 172.0
111.886963 196.0
111.91584 168.0
111.953743 140.0
111.970596 256.0
112.01442 84.0
112.034271 104.0
112.071709 128.0
112.130714 96.0
112.206604 160.0
112.276184 180.0
112.396431 128.0
112.434418 140.0
112.463966 208.0
112.482735 184.0
112.504074 84.0
112.532944 196.0
112.624443 120.0
112.6688 104.0
112.683594 160.0
112.712914 164.0
112.732193 152.0
112.754448 120.0
112.839996 148.0
112.866379 164.0
112.893562 168.0
112.933037 200.0
112.975464 140.0
112.990158 172.0
113.1185 192.0
113.181099 188.0
113.227234 204.0
113.244179 44.0
113.288666 144.0
113.311966 172.0
113.341629 132.0
113.362823 112.0
113.428528 100.0
113.498489 200.0
113.540901 96.0
113.596046 60.0
113.617264 148.0
113.685165 52.0
113.794823 176.0
113.850754 156.0
113.869865 168.0
113.886864 148.0
113.97821 132.0
114.022842 88.0
114.056847 44.0
114.075981 132.0
114.117233 164.0
114.192932 120.0
114.275894 184.0
114.30143 128.0
114.337608 128.0
114.365273 132.0
114.388687 168.0
114.44191 128.0
114.467468 152.0
114.588875 216.0
114.657066 124.0
114.684776 140.0
114.765785 264.0
114.825493 216.0
114.846458 172.0
114.870285 120.0
114.930023 156.0
114.947098 148.0
114.976974 44.0
115.00045 168.0
115.053055 516.0
115.090111 188.0
115.130684 160.0
115.169128 164.0
115.188354 128.0
115.318695 152.0
115.346489 116.0
115.390289 188.0
115.412766 124.0
115.455406 208.0
115.502586 84.0
115.51915 188.0
115.568909 120.0
115.659966 180.0
115.710167 220.0
115.793686 32.0
115.823669 160.0
115.838661 64.0
115.890083 296.0
116.050522 452.0
116.089432 128.0
116.183815 72.0
116.327599 176.0
116.358513 308.0
116.419922 100.0
116.454285 208.0
116.490799 132.0
116.510139 240.0
116.538071 124.0
116.568153 132.0
116.604683 92.0
116.628326 136.0
116.664871 152.0
116.727226 108.0
116.748726 168.0
116.770233 212.0
116.804649 100.0
116.854134 132.0
116.91008 168.0
116.938057 128.0
116.963882 104.0
116.996178 112.0
117.069633 1384.0
117.104355 168.0
117.134972 124.0
117.172775 128.0
117.209045 72.0
117.235344 212.0
117.274063 108.0
117.325798 196.0
117.351624 184.0
117.413544 196.0
117.441032 132.0
117.506958 104.0
117.576012 184.0
117.607285 84.0
117.633568 204.0
117.679626 224.0
117.69474 200.0
117.84594 64.0
117.87619 192.0
117.896461 168.0
117.966965 64.0
118.029671 92.0
118.064613 492.0
118.168098 48.0
118.237343 136.0
118.256821 192.0
118.360741 80.0
118.375893 64.0
118.392204 108.0
118.408379 104.0
118.429718 188.0
118.463959 152.0
118.495026 88.0
118.51886 136.0
118.629395 212.0
118.653244 60.0
118.716125 128.0
118.75219 204.0
118.783005 120.0
118.802887 228.0
118.846275 64.0
118.870148 136.0
119.024269 132.0
119.045982 152.0
119.114204 196.0
119.132866 124.0
119.148071 208.0
119.28064 160.0
119.313248 196.0
119.365433 120.0
119.3937 76.0
119.472008 72.0
119.498116 164.0
119.517693 92.0
119.535103 148.0
119.565575 256.0
119.683441 164.0
119.743484 184.0
119.79026 228.0
119.828133 216.0
119.848663 120.0
119.975082 172.0
120.121193 152.0
120.217476 152.0
120.245506 152.0
120.284851 184.0
120.386902 184.0
120.422417 120.0
120.494499 64.0
120.542572 120.0
120.5718 388.0
120.603767 96.0
120.667671 172.0
120.8312 176.0
120.846512 80.0
120.934052 132.0
120.97126 92.0
121.028946 196.0
121.0457 112.0
121.063217 200.0
121.098259 84.0
121.153023 220.0
121.1754 132.0
121.367813 176.0
121.459351 168.0
121.587189 168.0
121.727684 200.0
121.822128 88.0
122.061699 160.0
122.079292 152.0
122.096153 168.0
122.187073 180.0
122.20153 84.0
122.2817 40.0
122.369072 184.0
122.49308 176.0
122.526123 160.0
122.559174 236.0
122.581207 140.0
122.612061 116.0
122.680389 124.0
122.744331 160.0
122.777412 128.0
122.856819 184.0
122.909775 120.0
122.931839 164.0
123.057655 164.0
123.07753 40.0
123.172127 144.0
123.366959 188.0
123.391281 184.0
123.457619 176.0
123.488579 112.0
123.563789 140.0
123.641243 132.0
123.681076 152.0
123.725357 172.0
123.74749 108.0
123.798424 56.0
123.833855 168.0
124.002243 128.0
124.026627 72.0
124.090919 120.0
124.113991 180.0
124.15522 108.0
124.170746 56.0
124.216591 120.0
124.235077 144.0
124.334923 96.0
124.403732 244.0
124.554741 120.0
124.601616 120.0
124.641441 160.0
124.659164 64.0
124.703613 152.0
124.730286 200.0
124.792534 92.0
124.850349 172.0
124.868767 284.0
124.970634 164.0
124.997169 196.0
125.014977 96.0
125.170799 236.0
125.230934 104.0
125.335709 132.0
125.372116 184.0
125.433701 128.0
125.500587 116.0
125.545181 100.0
125.578125 192.0
125.636635 148.0
125.65448 104.0
125.670097 136.0
125.708038 152.0
125.772758 152.0
125.877693 148.0
125.895554 280.0
125.931122 160.0
125.984901 120.0
126.02581 232.0
126.051933 136.0
126.129646 160.0
126.168159 196.0
126.224052 168.0
126.250893 108.0
126.482262 172.0
126.503731 116.0
126.558708 144.0
126.624641 168.0
126.714249 172.0
126.791733 180.0
126.935715 164.0
126.944649 132.0
126.985489 120.0
127.053978 128.0
127.145012 196.0
127.255203 168.0
127.378296 116.0
127.420982 128.0
127.443451 156.0
127.479401 148.0
127.509056 164.0
127.528465 188.0
127.567062 216.0
127.598534 144.0
127.614273 144.0
127.635689 168.0
127.659248 152.0
127.76506 184.0
127.850471 164.0
127.88266 184.0
127.981033 128.0
128.038834 180.0
128.052643 60.0
128.102646 372.0
128.213058 184.0
128.258133 156.0
128.274948 252.0
128.395676 152.0
128.526505 176.0
128.589706 72.0
128.716125 192.0
128.749817 156.0
128.826416 168.0
128.860687 140.0
128.975937 112.0
129.052475 344.0
129.071075 304.0
129.136475 132.0
129.210846 200.0
129.294846 172.0
129.317474 108.0
129.383133 208.0
129.398972 188.0
129.430679 276.0
129.457855 216.0
129.566574 188.0
129.595566 156.0
129.650406 164.0
129.682144 192.0
129.702545 40.0
129.815903 84.0
129.952866 136.0
129.983765 108.0
130.063232 732.0
130.092712 196.0
130.206253 48.0
130.235779 48.0
130.294846 112.0
130.317566 60.0
130.369827 120.0
130.455078 204.0
130.493927 120.0
130.523376 196.0
130.663147 108.0
130.685898 128.0
130.720032 164.0
130.760727 204.0
130.788315 188.0
130.81015 164.0
130.867996 52.0
130.904419 56.0
130.925797 228.0
131.014328 96.0
131.03653 100.0
131.056519 224.0
131.060852 172.0
131.099777 148.0
131.168716 144.0
131.191513 152.0
131.223038 248.0
131.254425 200.0
131.361526 188.0
131.392197 128.0
131.440125 84.0
131.494888 100.0
131.510864 208.0
131.540543 160.0
131.571259 144.0
131.636429 160.0
131.791763 104.0
131.837463 104.0
131.869461 180.0
131.895508 224.0
131.947189 80.0
132.00206 144.0
132.052368 44.0
132.091263 184.0
132.12558 132.0
132.166763 180.0
132.207947 100.0
132.292725 204.0
132.325195 184.0
132.363617 192.0
132.391098 232.0
132.40712 72.0
132.436905 140.0
132.530823 304.0
132.555862 156.0
132.58812 120.0
132.66835 124.0
132.734833 244.0
132.786377 112.0
132.835434 144.0
132.854111 112.0
132.893112 52.0
133.000961 204.0
133.060654 156.0
133.139938 144.0
133.159393 76.0
133.182373 140.0
133.198441 168.0
133.222153 164.0
133.345566 144.0
133.368484 72.0
133.387772 236.0
133.432846 96.0
133.476532 176.0
133.593842 128.0
133.706589 168.0
133.725006 104.0
133.757217 148.0
133.807556 148.0
133.849319 152.0
133.893066 184.0
133.93222 160.0
134.001343 208.0
134.068161 104.0
134.118866 116.0
134.188034 48.0
134.238754 140.0
134.298721 112.0
134.393311 152.0
134.425903 140.0
134.457916 104.0
134.536392 116.0
134.566406 128.0
134.587189 148.0
134.605225 172.0
134.658783 48.0
134.757568 144.0
134.852859 132.0
134.952271 104.0
134.970764 116.0
135.060959 152.0
135.081787 184.0
135.111862 116.0
135.16275 160.0
135.220612 96.0
135.274384 156.0
135.302597 144.0
135.424362 232.0
135.466064 176.0
135.607407 108.0
135.636215 244.0
135.76738 180.0
135.861282 164.0
135.927444 84.0
135.955292 240.0
136.072937 500.0
136.112259 176.0
136.20372 192.0
136.240891 104.0
136.371017 32.0
136.543076 160.0
136.638443 128.0
136.680328 156.0
136.840927 168.0
137.027267 140.0
137.055862 116.0
137.087555 160.0
137.132126 120.0
137.185745 248.0
137.202057 164.0
137.230042 388.0
137.28833 164.0
137.31398 148.0
137.372299 140.0
137.444626 192.0
137.460953 204.0
137.521637 128.0
137.634766 236.0
137.671066 172.0
137.790192 136.0
137.843933 208.0
137.889694 128.0
138.206451 132.0
138.248489 184.0
138.307007 144.0
138.36319 140.0
138.379578 92.0
138.541183 116.0
138.634903 152.0
138.655991 68.0
138.672394 100.0
138.698181 152.0
138.852936 152.0
139.019501 132.0
139.047668 164.0
139.183823 428.0
139.273071 44.0
139.308304 224.0
139.364685 80.0
139.390533 132.0
139.421082 112.0
139.453995 156.0
139.500641 132.0
139.611511 104.0
139.693832 88.0
139.712662 164.0
139.870331 144.0
139.910339 100.0
139.938217 124.0
139.969208 76.0
139.988052 96.0
140.018738 400.0
140.06131 184.0
140.152939 152.0
140.211853 152.0
140.268417 44.0
140.294357 104.0
140.444336 196.0
140.471222 104.0
140.615158 180.0
140.69014 172.0
140.72467 204.0
140.76152 112.0
140.872528 144.0
140.917419 148.0
140.976486 176.0
141.009583 116.0
141.068069 144.0
141.163666 160.0
141.215271 116.0
141.239105 104.0
141.281509 124.0
141.302612 144.0
141.357224 128.0
141.383255 160.0
141.411652 100.0
141.511078 172.0
141.572647 112.0
141.880096 228.0
141.951813 156.0
142.066254 792.0
142.108368 256.0
142.136841 160.0
142.200912 168.0
142.224655 124.0
142.281631 80.0
142.31105 112.0
142.396744 184.0
142.483505 200.0
142.570663 152.0
142.67363 148.0
142.698746 92.0
142.719681 172.0
142.911469 76.0
142.940018 144.0
143.014099 156.0
143.044739 140.0
143.072968 1436.0
143.153351 176.0
143.194748 168.0
143.242004 172.0
143.314941 228.0
143.365707 152.0
143.382965 56.0
143.419907 152.0
143.464005 96.0
143.483078 152.0
143.659561 112.0
143.714432 276.0
143.738495 192.0
143.769318 160.0
143.863113 136.0
143.895828 48.0
143.928024 156.0
143.987274 152.0
144.021393 216.0
144.0504 308.0
144.081421 37864.0
144.118805 272.0
144.153259 140.0
144.163895 36.0
144.169952 148.0
144.189331 60.0
144.207794 152.0
144.237457 52.0
144.287033 76.0
144.318741 60.0
144.366745 192.0
144.41098 112.0
144.434769 156.0
144.477844 184.0
144.522049 188.0
144.538803 36.0
144.6082 108.0
144.670441 128.0
144.727188 180.0
144.763824 44.0
144.780579 268.0
144.814117 100.0
144.850052 120.0
144.93367 176.0
144.960251 132.0
144.984222 80.0
145.015381 32.0
145.083679 4264.0
145.126892 116.0
145.156113 76.0
145.183517 92.0
145.209579 44.0
145.256882 212.0
145.286346 64.0
145.305222 148.0
145.348724 52.0
145.382324 56.0
145.43512 192.0
145.48793 108.0
145.605591 204.0
145.632019 92.0
145.660843 144.0
145.706482 144.0
145.744934 100.0
145.768951 100.0
145.809814 168.0
145.838226 136.0
145.860901 156.0
145.885452 180.0
145.92395 200.0
145.982346 156.0
146.009354 96.0
146.064682 52.0
146.091263 164.0
146.151291 144.0
146.168137 108.0
146.187393 164.0
146.204239 92.0
146.266815 156.0
146.305328 100.0
146.336624 108.0
146.375153 168.0
146.399231 124.0
146.461853 160.0
146.488358 192.0
146.604004 152.0
146.671494 64.0
146.789627 184.0
146.900574 92.0
146.927109 240.0
147.158813 92.0
147.207108 208.0
147.277145 92.0
147.308121 160.0
147.344162 204.0
147.371719 164.0
147.441437 44.0
147.480103 124.0
147.511536 100.0
147.533005 204.0
147.613083 240.0
147.639679 44.0
147.685638 56.0
147.78241 156.0
147.845322 180.0
147.879196 136.0
148.014053 120.0
148.031433 164.0
148.063202 180.0
148.174637 84.0
148.269135 48.0
148.3564 148.0
148.372955 140.0
148.44368 112.0
148.532211 124.0
148.574661 160.0
148.615906 172.0
148.637741 292.0
148.737671 116.0
148.77124 104.0
148.86351 172.0
148.919357 128.0
148.958221 180.0
149.018051 180.0
149.030396 148.0
149.189087 156.0
149.225555 152.0
149.315536 56.0
149.342285 216.0
149.372971 188.0
149.420135 128.0
149.444458 84.0
149.480957 144.0
149.527206 152.0
149.619003 260.0
149.656219 160.0
149.690308 136.0
149.717102 188.0
149.734146 176.0
149.829147 176.0
149.885193 160.0
149.95343 136.0
149.97049 112.0
150.04361 188.0
150.087509 156.0
150.211121 164.0
150.236282 268.0
150.350967 80.0
150.436401 224.0
150.465683 148.0
150.521851 164.0
150.582901 136.0
150.695267 116.0
150.761246 228.0
150.810135 160.0
150.829681 144.0
150.895691 136.0
150.948441 152.0
150.981277 104.0
151.119186 192.0
151.189224 108.0
151.233932 224.0
151.274887 116.0
151.31311 196.0
151.338547 52.0
151.36058 156.0
151.473251 152.0
151.622711 140.0
151.711761 220.0
151.804123 104.0
151.8311 160.0
151.912048 56.0
151.929214 184.0
152.020004 184.0
152.101379 152.0
152.191833 152.0
152.263046 180.0
152.314636 144.0
152.373581 48.0
152.426331 228.0
152.476791 128.0
152.579483 144.0
152.727585 104.0
152.744797 204.0
152.81369 136.0
152.984543 144.0
153.08493 180.0
153.109085 136.0
153.160797 52.0
153.214996 88.0
153.253387 172.0
153.288696 224.0
153.295441 204.0
153.424484 172.0
153.491058 420.0
153.508316 56.0
153.700729 140.0
153.762421 40.0
153.785751 44.0
153.915482 144.0
153.937698 200.0
154.036499 180.0
154.067047 472.0
154.115555 68.0
154.204514 112.0
154.261368 88.0
154.293121 192.0
154.384995 144.0
154.444351 212.0
154.474045 96.0
154.503723 168.0
154.550735 360.0
154.577957 160.0
154.608826 204.0
154.627441 228.0
154.647247 72.0
154.671997 288.0
154.810654 140.0
154.852753 120.0
154.872574 144.0
154.914673 116.0
155.030197 228.0
155.074356 440.0
155.164978 132.0
155.212097 204.0
155.231934 144.0
155.35347 180.0
155.427078 72.0
155.452499 180.0
155.512283 32.0
155.560654 140.0
155.64386 80.0
155.663727 284.0
155.721329 284.0
155.79039 64.0
155.909668 180.0
156.016769 176.0
156.081116 1100.0
156.237885 180.0
156.27742 188.0
156.342392 104.0
156.459381 84.0
156.495453 220.0
156.524109 120.0
156.546524 124.0
156.621246 108.0
156.651138 360.0
156.668579 168.0
156.705948 80.0
156.966751 120.0
157.02092 160.0
157.079468 512.0
157.112335 164.0
157.167221 48.0
157.204651 64.0
157.244461 228.0
157.269547 136.0
157.2995 100.0
157.476776 196.0
157.511749 144.0
157.624176 172.0
157.659164 104.0
157.709152 144.0
157.781647 124.0
157.82666 308.0
157.894165 248.0
157.97171 148.0
158.009232 108.0
158.064682 180.0
158.091583 284.0
158.134537 112.0
158.166901 92.0
158.19693 76.0
158.279556 152.0
158.309616 148.0
158.327133 152.0
158.477448 148.0
158.572662 96.0
158.685471 156.0
158.720581 112.0
159.069321 148.0
159.095886 116.0
159.12706 104.0
159.179779 140.0
159.223877 164.0
159.280243 56.0
159.322952 188.0
159.42598 96.0
159.501373 156.0
159.569031 140.0
159.630859 148.0
159.662292 108.0
159.776581 216.0
159.803162 260.0
159.835617 156.0
159.901306 212.0
159.999466 168.0
160.032211 156.0
160.053329 184.0
160.081802 172.0
160.09256 120.0
160.095871 168.0
160.120346 364.0
160.173233 84.0
160.251328 176.0
160.304245 160.0
160.372299 152.0
160.445404 144.0
160.498352 232.0
160.589142 128.0
160.672379 148.0
160.700027 196.0
160.728745 164.0
160.84903 244.0
160.89447 96.0
160.924774 132.0
161.04599 136.0
161.124298 56.0
161.179886 148.0
161.220322 132.0
161.344177 132.0
161.371979 164.0
161.445312 112.0
161.474365 180.0
161.541428 184.0
161.62973 164.0
161.673004 212.0
161.693253 152.0
161.7388 152.0
161.779312 60.0
161.83754 128.0
161.880585 64.0
161.921341 44.0
161.981903 128.0
162.161804 152.0
162.209961 164.0
162.326584 164.0
162.344345 224.0
162.471024 144.0
162.562515 148.0
162.659805 132.0
162.702118 136.0
162.74823 172.0
162.815216 156.0
162.895111 212.0
162.984039 168.0
163.004364 184.0
163.055191 60.0
163.101501 184.0
163.123825 192.0
163.161957 252.0
163.195007 64.0
163.220428 76.0
163.289093 140.0
163.389664 188.0
163.429016 140.0
163.499725 132.0
163.535904 96.0
163.752808 144.0
163.787979 196.0
163.879684 96.0
163.961243 156.0
163.986725 316.0
164.075943 96.0
164.190689 136.0
164.21109 100.0
164.228943 160.0
164.251907 188.0
164.273544 108.0
164.458588 152.0
164.55304 96.0
164.823792 180.0
164.872345 132.0
164.897903 132.0
164.92601 84.0
164.959244 168.0
165.008331 80.0
165.04393 200.0
165.087082 148.0
165.115219 164.0
165.170532 248.0
165.214706 148.0
165.31221 152.0
165.340363 116.0
165.43251 128.0
165.486267 160.0
165.609192 136.0
165.67482 200.0
165.683075 124.0
165.691971 180.0
165.750092 148.0
165.791092 160.0
165.857742 152.0
165.962036 228.0
166.024399 124.0
166.064575 164.0
166.096207 156.0
166.119293 188.0
166.157776 148.0
166.245026 232.0
166.278381 180.0
166.314316 156.0
166.339981 168.0
166.365112 160.0
166.455521 124.0
166.514969 224.0
166.609634 112.0
166.676437 212.0
166.720123 116.0
166.745422 132.0
166.792084 184.0
166.856354 136.0
166.995575 144.0
167.072311 1940.0
167.126419 112.0
167.191299 188.0
167.210144 152.0
167.262817 208.0
167.386398 216.0
167.425018 204.0
167.47139 160.0
167.517746 76.0
167.558975 112.0
167.586548 204.0
167.649155 120.0
167.716171 196.0
167.775452 132.0
167.864944 144.0
167.899704 216.0
167.984344 120.0
168.030777 196.0
168.080688 16504.0
168.125259 144.0
168.141739 184.0
168.162384 140.0
168.224335 60.0
168.244995 204.0
168.327621 36.0
168.379471 100.0
168.530472 120.0
168.545959 136.0
168.570435 100.0
168.721481 184.0
168.769485 84.0
168.805679 184.0
168.834122 208.0
168.914307 136.0
168.963455 200.0
169.017792 52.0
169.07988 2860.0
169.173645 172.0
169.224869 56.0
169.254318 212.0
169.287018 68.0
169.385437 96.0
169.413132 168.0
169.429977 144.0
169.450195 140.0
169.524048 48.0
169.543488 80.0
169.577179 196.0
169.652344 84.0
169.774216 140.0
169.857697 108.0
169.888336 128.0
169.916962 136.0
169.9543 116.0
169.998215 184.0
170.028137 64.0
170.060074 920.0
170.094635 3052.0
170.153061 60.0
170.192001 140.0
170.211044 156.0
170.298172 204.0
170.324448 112.0
170.347839 108.0
170.370041 240.0
170.433685 92.0
170.473938 120.0
170.498535 172.0
170.576508 212.0
170.639221 164.0
170.732513 208.0
170.75853 148.0
170.849564 152.0
170.948441 52.0
171.003098 148.0
171.063141 436.0
171.093704 1444.0
171.14888 188.0
171.169708 164.0
171.209229 192.0
171.288422 220.0
171.298065 128.0
171.367249 204.0
171.419006 200.0
171.451065 68.0
171.479721 220.0
171.542282 40.0
171.569122 176.0
171.638031 204.0
171.727417 92.0
171.782196 56.0
171.912506 140.0
171.965836 128.0
172.009232 56.0
172.09816 420.0
172.215515 40.0
172.492493 152.0
172.552429 172.0
172.628448 92.0
172.721191 268.0
172.797745 216.0
172.829865 172.0
172.861267 184.0
172.960724 156.0
173.054962 56.0
173.096863 124.0
173.150177 168.0
173.217331 156.0
173.318848 140.0
173.5056 112.0
173.586884 104.0
173.63147 184.0
173.660324 184.0
173.697037 136.0
173.736389 56.0
173.775742 112.0
173.836105 128.0
173.899078 196.0
173.956833 144.0
174.032974 152.0
174.061859 180.0
174.085495 192.0
174.119629 160.0
174.153778 128.0
174.256226 100.0
174.363968 44.0
174.455963 196.0
174.47699 160.0
174.531921 180.0
174.611099 152.0
174.682114 36.0
174.821564 160.0
174.866318 124.0
174.895264 68.0
174.925156 124.0
174.958435 92.0
174.977844 196.0
175.04007 48.0
175.105896 188.0
175.126968 184.0
175.191437 216.0
175.242889 144.0
175.285049 160.0
175.329849 136.0
175.353561 68.0
175.405136 148.0
175.538101 140.0
175.567123 128.0
175.677902 132.0
175.815109 48.0
175.867172 192.0
175.894287 196.0
175.952362 204.0
175.97876 196.0
176.009399 140.0
176.14183 188.0
176.23497 128.0
176.327606 148.0
176.406754 124.0
176.552185 136.0
176.602432 132.0
176.663284 256.0
176.684448 116.0
176.72316 176.0
176.808807 168.0
176.835281 96.0
176.86174 96.0
177.023239 40.0
177.057678 168.0
177.098663 360.0
177.182175 220.0
177.211792 132.0
177.232513 156.0
177.253708 180.0
177.452499 168.0
177.505539 252.0
177.549667 212.0
177.595703 212.0
177.614273 156.0
177.656723 176.0
177.712433 56.0
177.741623 68.0
177.786728 124.0
177.861053 148.0
177.95578 148.0
177.99379 124.0
178.078781 112.0
178.105347 144.0
178.198318 176.0
178.291321 80.0
178.328537 196.0
178.351868 220.0
178.379044 144.0
178.505508 148.0
178.621017 44.0
178.663589 112.0
178.732758 68.0
178.956345 40.0
178.988297 108.0
179.035812 176.0
179.068192 128.0
179.094833 136.0
179.158768 100.0
179.207809 196.0
179.363953 100.0
179.441269 112.0
179.467926 152.0
179.523926 124.0
179.547928 140.0
179.678635 180.0
179.798706 104.0
179.910828 68.0
179.98024 84.0
180.057678 292.0
180.082352 784.0
180.11911 88.0
180.153839 96.0
180.180557 144.0
180.212616 136.0
180.282089 132.0
180.322189 124.0
180.364792 328.0
180.557968 168.0
180.608276 164.0
180.643051 244.0
180.699234 52.0
180.763382 140.0
180.90799 132.0
180.951218 160.0
181.085846 524.0
181.151672 184.0
181.19928 208.0
181.221329 216.0
181.25885 264.0
181.309692 164.0
181.40358 140.0
181.435745 136.0
181.489365 152.0
181.513504 240.0
181.591278 44.0
181.639557 104.0
181.724426 176.0
181.820236 216.0
181.961349 128.0
182.055832 208.0
182.083359 328.0
182.107285 140.0
182.13884 172.0
182.168381 324.0
182.200623 96.0
182.485519 44.0
182.531219 208.0
182.552734 108.0
182.69371 120.0
182.714127 216.0
182.7491 232.0
182.777222 204.0
182.843292 148.0
182.870209 164.0
182.929428 92.0
182.969803 156.0
183.004807 112.0
183.092163 10888.0
183.161224 48.0
183.231049 32.0
183.301102 108.0
183.336136 104.0
183.411606 156.0
183.430466 104.0
183.462814 108.0
183.498077 120.0
183.527863 116.0
183.569839 156.0
183.60936 128.0
183.619949 44.0
183.62915 140.0
183.689346 224.0
183.719025 180.0
183.821548 104.0
183.84584 136.0
183.867432 28.0
183.913315 32.0
183.979813 76.0
184.099014 6004.0
184.132263 188.0
184.186508 212.0
184.264374 160.0
184.310303 200.0
184.352432 148.0
184.375397 376.0
184.396057 120.0
184.423813 88.0
184.472473 32.0
184.511185 136.0
184.565903 200.0
184.60495 156.0
184.644882 188.0
184.680679 244.0
184.706253 120.0
184.769943 128.0
184.869736 168.0
184.916214 164.0
184.952545 140.0
184.977341 116.0
185.005951 376.0
185.065964 316.0
185.108154 60340.0
185.159012 132.0
185.192245 120.0
185.21106 204.0
185.22934 228.0
185.257645 108.0
185.299301 148.0
185.372131 204.0
185.423477 220.0
185.462601 164.0
185.498138 124.0
185.506851 196.0
185.552383 240.0
185.589172 128.0
185.652985 56.0
185.706696 240.0
185.760345 56.0
185.801605 76.0
185.905289 120.0
185.947845 152.0
185.954712 184.0
186.019287 148.0
186.046051 172.0
186.110107 9200.0
186.183167 112.0
186.206024 36.0
186.255051 160.0
186.277374 92.0
186.332474 136.0
186.380081 212.0
186.408875 136.0
186.483765 56.0
186.52182 44.0
186.611542 136.0
186.649597 172.0
186.734222 68.0
186.779236 168.0
186.804626 216.0
186.849716 160.0
186.948837 112.0
186.96788 36.0
186.992386 80.0
187.042831 220.0
187.089462 576.0
187.115326 656.0
187.186676 372.0
187.226517 128.0
187.24559 140.0
187.272812 108.0
187.345352 128.0
187.366989 144.0
187.389954 68.0
187.430832 116.0
187.472763 72.0
187.55481 112.0
187.614761 116.0
187.643921 88.0
187.678879 64.0
187.771057 160.0
187.810608 196.0
187.855301 216.0
187.954376 40.0
188.055344 40.0
188.083908 380.0
188.148163 104.0
188.20549 272.0
188.279221 56.0
188.328384 104.0
188.350235 64.0
188.401016 172.0
188.440399 48.0
188.495041 116.0
188.631699 144.0
188.686371 136.0
188.705338 128.0
188.732849 100.0
188.87233 120.0
188.943451 152.0
188.982773 172.0
189.006393 56.0
189.071152 144.0
189.110748 140.0
189.184296 80.0
189.206192 180.0
189.252731 108.0
189.283951 120.0
189.493759 48.0
189.554047 56.0
189.655457 28.0
189.723984 188.0
189.852859 124.0
189.888504 108.0
189.968048 92.0
189.987259 76.0
190.176605 140.0
190.223267 84.0
190.407227 112.0
190.491379 196.0
190.522598 152.0
190.550079 132.0
190.755127 176.0
190.832397 144.0
190.852417 272.0
191.039429 152.0
191.243057 176.0
191.289856 152.0
191.361435 100.0
191.399979 160.0
191.444046 72.0
191.474335 112.0
191.526672 136.0
191.565231 200.0
191.605957 200.0
191.683716 176.0
191.738632 164.0
191.821518 120.0
191.956619 156.0
192.178925 148.0
192.251785 108.0
192.285645 164.0
192.359055 320.0
192.583099 92.0
192.61348 292.0
192.690842 80.0
192.801361 48.0
192.862167 192.0
192.89534 164.0
192.98468 64.0
193.087173 184.0
193.133148 180.0
193.340652 108.0
193.382172 72.0
193.526123 148.0
193.615707 228.0
193.667358 200.0
193.717224 200.0
193.855759 96.0
193.961807 76.0
194.097305 1072.0
194.144058 156.0
194.255005 100.0
194.308884 96.0
194.402069 168.0
194.42981 60.0
194.662323 144.0
194.737991 144.0
194.95546 236.0
194.988052 132.0
195.021805 184.0
195.046417 128.0
195.067123 152.0
195.092224 1040.0
195.154846 132.0
195.227737 204.0
195.316147 356.0
195.341187 48.0
195.360657 172.0
195.431549 164.0
195.527603 184.0
195.560013 136.0
195.647293 120.0
195.806015 200.0
195.892365 160.0
195.916214 192.0
195.959229 132.0
196.039795 92.0
196.075531 964.0
196.111145 548.0
196.137589 144.0
196.177536 108.0
196.194733 72.0
196.225662 216.0
196.296494 96.0
196.316025 64.0
196.357849 132.0
196.444321 136.0
196.508484 128.0
196.553131 200.0
196.675323 160.0
196.765259 132.0
196.854614 220.0
196.938965 100.0
197.030579 52.0
197.076141 536.0
197.105392 988.0
197.286469 128.0
197.297302 120.0
197.360382 152.0
197.452667 32.0
197.540527 176.0
197.70726 44.0
197.735245 196.0
198.006821 136.0
198.088455 368.0
198.116135 972.0
198.180511 112.0
198.264572 172.0
198.297073 168.0
198.376694 60.0
198.469208 92.0
198.524414 176.0
198.578323 128.0
198.640289 120.0
198.678192 168.0
198.773483 288.0
198.833893 28.0
198.860352 196.0
198.977051 192.0
199.052872 88.0
199.080948 136.0
199.125885 168.0
199.153976 116.0
199.224197 128.0
199.246674 152.0
199.280396 192.0
199.330963 112.0
199.356262 88.0
199.437759 108.0
199.505234 112.0
199.561462 144.0
199.963135 188.0
200.075806 172.0
200.132645 188.0
200.246521 164.0
200.284714 100.0
200.388947 184.0
200.571426 176.0
200.61441 180.0
200.727188 84.0
200.752579 144.0
200.873077 176.0
200.918991 140.0
200.989532 168.0
201.020569 184.0
201.127808 140.0
201.246384 104.0
201.279739 108.0
201.446899 116.0
201.490616 144.0
201.574051 84.0
201.656006 108.0
201.783218 140.0
201.805832 116.0
201.893494 96.0
201.950058 88.0
201.98671 184.0
202.075836 200.0
202.244324 144.0
202.306595 140.0
202.383041 104.0
202.618134 124.0
202.665588 144.0
202.864685 88.0
202.893036 196.0
202.912872 172.0
202.9384 160.0
203.046158 160.0
203.139755 144.0
203.159622 168.0
203.375992 132.0
203.422882 172.0
203.488831 204.0
203.537811 176.0
203.639343 196.0
203.67627 80.0
203.809784 200.0
203.949051 192.0
204.0457 184.0
204.233383 52.0
204.276047 72.0
204.329483 184.0
204.382034 224.0
204.441086 144.0
204.57486 168.0
204.628952 132.0
204.779877 204.0
204.919464 192.0
204.968887 128.0
205.104706 172.0
205.187378 124.0
205.224442 204.0
205.247253 92.0
205.321396 212.0
205.432632 120.0
205.457153 124.0
205.595276 136.0
205.640945 108.0
205.666626 64.0
205.712296 84.0
205.893982 216.0
205.917892 128.0
206.080719 180.0
206.115005 152.0
206.206451 228.0
206.240753 100.0
206.372253 124.0
206.420868 152.0
206.445068 172.0
206.732681 120.0
206.813431 188.0
206.839615 92.0
206.904419 164.0
206.981644 136.0
207.039001 192.0
207.087692 108.0
207.107742 176.0
207.130661 104.0
207.167892 168.0
207.24765 148.0
207.273911 136.0
207.309219 136.0
207.437271 208.0
207.516815 188.0
207.569168 112.0
207.698227 128.0
207.784286 264.0
207.840347 148.0
207.913406 180.0
207.980881 204.0
208.008133 48.0
208.06778 156.0
208.217728 96.0
208.266556 148.0
208.309647 164.0
208.407333 228.0
208.441803 208.0
208.476288 108.0
208.499283 200.0
208.628632 212.0
208.668884 136.0
208.762375 140.0
208.801163 156.0
208.870193 120.0
208.927719 268.0
208.956497 140.0
209.019791 112.0
209.06485 288.0
209.112549 312.0
209.137787 244.0
209.209747 132.0
209.238541 148.0
209.296127 112.0
209.423569 192.0
209.457413 120.0
209.500626 52.0
209.656219 44.0
209.724533 204.0
209.759979 168.0
209.814743 76.0
209.840698 148.0
209.961807 120.0
210.025269 88.0
210.055038 272.0
210.087601 92.0
210.189056 156.0
210.220566 220.0
210.270508 44.0
210.29071 180.0
210.358459 108.0
210.385971 40.0
210.446609 124.0
210.499496 164.0
210.536362 144.0
210.577621 184.0
210.694992 160.0
210.721588 116.0
210.778076 148.0
210.834641 308.0
210.886383 156.0
210.914673 220.0
210.942917 192.0
210.964066 168.0
211.00296 136.0
211.011993 76.0
211.034134 480.0
211.087936 60976.0
211.123535 9788.0
211.167786 132.0
211.187668 156.0
211.238785 112.0
211.264221 232.0
211.307907 48.0
211.34726 220.0
211.380249 132.0
211.402771 92.0
211.429382 112.0
211.452972 156.0
211.489883 68.0
211.533646 108.0
211.564468 404.0
211.63208 44.0
211.661041 36.0
211.698685 40.0
211.744537 48.0
211.765396 116.0
211.791367 72.0
211.819946 120.0
211.881454 112.0
211.927521 60.0
211.963211 180.0
211.991272 188.0
212.091263 10788.0
212.125397 1892.0
212.170975 132.0
212.202866 152.0
212.235123 132.0
212.251694 232.0
212.295654 56.0
212.348831 144.0
212.383148 364.0
212.440689 64.0
212.510315 96.0
212.556747 76.0
212.682785 56.0
212.726898 172.0
212.766205 284.0
212.794907 148.0
212.832504 124.0
212.851669 80.0
212.891891 212.0
213.003845 56.0
213.103088 6872.0
213.188675 72.0
213.219955 64.0
213.258881 104.0
213.303268 108.0
213.346756 176.0
213.404755 160.0
213.421173 176.0
213.440216 148.0
213.489243 64.0
213.529953 100.0
213.573578 84.0
213.642868 108.0
213.674942 176.0
213.686249 220.0
213.735291 96.0
213.76683 188.0
213.797607 116.0
213.828873 124.0
213.852905 84.0
213.908218 180.0
214.059616 136.0
214.104431 1952.0
214.176102 200.0
214.219803 228.0
214.263504 200.0
214.318863 76.0
214.339264 40.0
214.380051 160.0
214.537445 44.0
214.62262 132.0
214.700729 48.0
214.741562 64.0
214.799911 152.0
214.963287 140.0
215.021652 196.0
215.074203 196.0
215.105194 116.0
215.123672 196.0
215.153015 64.0
215.179291 136.0
215.208969 72.0
215.293167 64.0
215.442139 64.0
215.562012 152.0
215.659073 216.0
215.716843 112.0
215.746078 140.0
215.787003 56.0
215.845474 168.0
215.89624 100.0
216.109894 212.0
216.214493 140.0
216.410217 92.0
216.465851 48.0
216.49324 112.0
216.541992 36.0
216.644516 184.0
216.807495 228.0
216.956207 156.0
217.084167 60.0
217.128159 196.0
217.201477 184.0
217.439148 184.0
217.492493 116.0
217.512527 160.0
217.67514 144.0
217.723923 176.0
217.876678 140.0
217.908997 180.0
217.991257 144.0
218.108826 200.0
218.202896 140.0
218.242752 120.0
218.285233 224.0
218.34111 60.0
218.401566 176.0
218.444046 108.0
218.517593 204.0
218.552902 136.0
218.612991 96.0
218.882584 232.0
218.991547 168.0
219.015106 188.0
219.082184 140.0
219.10643 104.0
219.256714 148.0
219.504349 148.0
219.607559 200.0
219.672455 128.0
219.70282 192.0
219.834732 180.0
220.035461 116.0
220.106323 144.0
220.135849 152.0
220.271713 132.0
220.452286 172.0
220.525818 104.0
220.616455 164.0
220.703201 84.0
220.919098 136.0
220.960526 240.0
221.001938 108.0
221.0345 140.0
221.069473 156.0
221.100494 452.0
221.330505 132.0
221.508194 128.0
221.570419 124.0
221.70079 144.0
221.736359 64.0
221.841064 256.0
221.96759 172.0
222.045425 160.0
222.087204 144.0
222.201904 184.0
222.258286 172.0
222.354858 148.0
222.406677 160.0
222.434891 140.0
222.528397 100.0
222.72142 44.0
222.816483 164.0
222.902649 104.0
222.941284 48.0
223.045303 44.0
223.106094 168.0
223.197021 136.0
223.323196 220.0
223.354553 152.0
223.39621 48.0
223.547089 168.0
223.601517 116.0
223.991562 152.0
224.077957 108.0
224.104874 240.0
224.13829 220.0
224.264954 160.0
224.301468 132.0
224.447556 148.0
224.504211 192.0
224.665283 160.0
225.038361 80.0
225.069534 244.0
225.098038 196.0
225.148834 368.0
225.348984 92.0
225.438629 176.0
225.638885 72.0
225.908051 136.0
225.943954 156.0
226.027725 84.0
226.08255 176.0
226.108521 100.0
226.157852 316.0
226.219284 172.0
226.398926 104.0
226.428879 112.0
226.749451 124.0
226.791412 176.0
226.913895 84.0
226.947311 108.0
226.968292 152.0
227.085251 120.0
227.168747 72.0
227.29567 204.0
227.40329 60.0
227.474335 300.0
227.496338 128.0
227.547379 76.0
227.685516 132.0
227.784637 128.0
227.903656 188.0
227.952881 168.0
228.037033 168.0
228.27153 132.0
228.46402 92.0
228.728836 172.0
228.759476 68.0
229.008865 188.0
229.03598 104.0
229.11731 160.0
229.237839 120.0
229.427734 196.0
229.448837 132.0
229.494995 180.0
229.542297 56.0
229.61261 152.0
229.675003 148.0
229.7435 212.0
229.758545 144.0
229.816788 68.0
230.015976 80.0
230.040131 64.0
230.130447 216.0
230.15184 100.0
230.281693 116.0
230.378357 136.0
230.56871 208.0
230.65033 156.0
230.698044 204.0
230.730377 300.0
230.848465 188.0
230.974136 180.0
231.076736 68.0
231.206848 200.0
231.382416 200.0
231.582275 212.0
231.67012 40.0
231.745865 184.0
231.767075 88.0
231.970139 180.0
232.030762 92.0
232.05806 176.0
232.200165 116.0
232.309769 60.0
232.39473 48.0
232.485764 188.0
232.534546 160.0
232.789337 288.0
232.950302 128.0
233.187317 164.0
233.296753 60.0
233.375565 160.0
233.4944 228.0
233.576523 80.0
233.679947 176.0
233.916656 180.0
234.133514 124.0
234.432068 200.0
234.566177 148.0
234.672882 172.0
234.727768 160.0
234.765808 152.0
234.822296 140.0
234.889404 104.0
234.922958 132.0
235.133499 116.0
235.154861 180.0
235.316666 156.0
235.370361 164.0
235.420486 236.0
235.460175 124.0
235.594589 192.0
235.634033 136.0
235.65007 148.0
235.701523 132.0
235.73819 128.0
235.796249 168.0
235.900314 136.0
235.988846 264.0
236.050003 164.0
236.127594 160.0
236.19986 108.0
236.275391 116.0
236.389557 72.0
236.499725 136.0
236.557205 144.0
236.661987 116.0
236.830414 212.0
236.968277 192.0
237.103729 772.0
237.280243 208.0
237.341171 164.0
237.369812 68.0
237.464874 148.0
237.538498 96.0
237.68576 144.0
237.80545 180.0
237.826935 124.0
238.014206 92.0
238.054123 80.0
238.095184 428.0
238.133957 2420.0
238.216919 200.0
238.259918 96.0
238.327515 44.0
238.35112 216.0
238.405212 168.0
238.48732 152.0
238.597992 104.0
238.684082 144.0
238.736725 232.0
238.810745 128.0
238.905533 172.0
238.956665 200.0
239.081207 6584.0
239.117126 1692.0
239.182083 188.0
239.256363 136.0
239.324097 188.0
239.345657 96.0
239.45343 184.0
239.485168 224.0
239.518112 36.0
239.552002 60.0
239.581863 168.0
239.797989 144.0
239.863235 172.0
240.085709 1156.0
240.118347 472.0
240.190094 136.0
240.233292 172.0
240.294983 184.0
240.368271 80.0
240.578598 152.0
240.612885 204.0
240.817978 164.0
240.850662 132.0
240.915543 68.0
240.998962 52.0
241.085419 208.0
241.113403 220.0
241.141113 136.0
241.412506 160.0
241.558548 152.0
241.58638 136.0
241.632782 148.0
241.660629 40.0
241.707047 136.0
241.812271 236.0
241.970139 184.0
242.066132 56.0
242.09288 200.0
242.140457 180.0
242.171432 168.0
242.217896 132.0
242.276749 88.0
242.348007 188.0
242.416183 36.0
242.462387 136.0
242.524658 156.0
242.55574 140.0
242.623856 216.0
242.667252 44.0
242.856415 92.0
243.098419 32.0
243.194794 148.0
243.250504 60.0
243.300171 188.0
243.362259 160.0
243.470947 172.0
243.903732 164.0
244.00853 152.0
244.036499 112.0
244.083145 88.0
244.14534 164.0
244.21376 200.0
244.247986 112.0
244.344421 188.0
244.397308 36.0
244.468887 216.0
244.528015 200.0
244.608948 184.0
244.779099 180.0
244.81308 128.0
244.886063 116.0
244.960831 132.0
245.051178 132.0
245.1353 48.0
245.235031 128.0
245.447021 148.0
245.515625 116.0
245.543701 192.0
245.606079 196.0
245.702789 124.0
245.930588 52.0
245.98053 60.0
246.039841 164.0
246.132843 160.0
246.280289 168.0
246.498993 188.0
246.537064 176.0
246.689636 116.0
246.770935 152.0
246.805328 44.0
246.924164 160.0
247.077438 152.0
247.140015 224.0
247.171295 152.0
247.196335 192.0
247.224503 96.0
247.330917 132.0
247.365341 96.0
247.413651 196.0
247.528152 124.0
247.797531 168.0
247.891525 168.0
247.918472 160.0
247.994949 172.0
248.026291 36.0
248.060776 64.0
248.195587 152.0
248.333572 176.0
248.38063 140.0
248.459045 156.0
248.523575 184.0
248.593979 124.0
248.713242 120.0
248.741486 168.0
248.922699 152.0
248.945572 112.0
249.093185 120.0
249.196869 132.0
249.385422 256.0
249.423126 40.0
249.555176 96.0
249.599197 184.0
249.655792 60.0
249.762726 112.0
249.964081 76.0
250.051666 164.0
250.140335 84.0
250.171814 120.0
250.29248 184.0
250.458374 184.0
250.533981 168.0
250.562332 184.0
250.607285 104.0
250.638153 172.0
250.7388 68.0
250.918472 128.0
251.029678 360.0
251.078735 92.0
251.153381 112.0
251.192841 128.0
251.301331 144.0
251.436371 180.0
251.618881 252.0
251.754654 104.0
251.811493 264.0
251.862839 156.0
251.993866 104.0
252.05159 208.0
252.111633 140.0
252.168518 104.0
252.238068 164.0
252.332901 168.0
252.37085 168.0
252.459381 144.0
252.513153 84.0
252.541611 112.0
252.612793 136.0
252.642838 104.0
252.72345 100.0
252.750076 76.0
252.823044 84.0
252.858978 264.0
252.900955 176.0
252.986847 188.0
253.027405 264.0
253.115311 304.0
253.187271 248.0
253.226334 180.0
253.27211 168.0
253.341797 320.0
253.386383 200.0
253.413635 156.0
253.426254 180.0
253.434616 52.0
253.488434 180.0
253.503677 172.0
253.508499 172.0
253.535156 188.0
253.545837 220.0
253.556839 228.0
253.613419 204.0
253.652496 140.0
253.663528 116.0
253.669968 176.0
253.70282 176.0
253.756363 456.0
253.765594 324.0
253.777527 444.0
253.803818 268.0
253.843338 392.0
253.87854 344.0
253.921997 460.0
253.949997 316.0
253.986526 324.0
254.035309 532.0
254.068863 776.0
254.130524 238984.0
254.209885 260.0
254.235687 208.0
254.245804 168.0
254.343277 148.0
254.375198 196.0
254.396637 248.0
254.427109 456.0
254.469177 140.0
254.479172 144.0
254.5271 236.0
254.565598 160.0
254.596832 168.0
254.654083 2452.0
254.689102 348.0
254.712723 308.0
254.727142 352.0
254.733841 244.0
254.794693 128.0
254.836411 132.0
254.847443 224.0
254.900635 216.0
254.939896 280.0
254.993347 416.0
255.047729 412.0
255.068146 116.0
255.132965 52500.0
255.220734 168.0
255.24794 76.0
255.269348 104.0
255.309464 264.0
255.367371 84.0
255.378281 96.0
255.409897 204.0
255.439835 76.0
255.447189 140.0
255.496429 204.0
255.527527 80.0
255.570297 156.0
255.575867 72.0
255.588837 64.0
255.64653 148.0
255.709381 160.0
255.730789 140.0
255.7565 76.0
255.854843 168.0
255.876678 84.0
255.891586 88.0
255.920731 80.0
255.949707 36.0
255.979279 296.0
256.034912 224.0
256.057739 224.0
256.080902 156.0
256.134064 3576.0
256.20517 84.0
256.276611 108.0
256.319702 180.0
256.344574 164.0
256.381012 184.0
256.415985 108.0
256.426239 112.0
256.459137 144.0
256.55011 128.0
256.574554 68.0
256.627838 252.0
256.638824 176.0
256.66452 208.0
256.678162 88.0
256.690277 148.0
256.751495 144.0
256.788208 92.0
256.813812 344.0
256.8414 104.0
256.879425 148.0
256.925629 208.0
256.981018 100.0
257.033203 180.0
257.041046 136.0
257.07785 132.0
257.107971 88.0
257.140747 484.0
257.173309 128.0
257.19931 104.0
257.210266 144.0
257.246216 104.0
257.286987 128.0
257.328186 64.0
257.378571 124.0
257.493225 80.0
257.537994 96.0
257.601501 116.0
257.606323 92.0
257.621063 52.0
257.631622 88.0
257.670227 52.0
257.707581 36.0
257.752106 144.0
257.783112 132.0
257.829407 344.0
257.875031 100.0
257.912659 116.0
257.937683 72.0
257.998993 68.0
258.054993 104.0
258.13678 176.0
258.209473 56.0
258.251129 148.0
258.318207 148.0
258.398193 80.0
258.487793 36.0
258.542175 88.0
258.582275 92.0
258.708618 84.0
258.775848 120.0
258.959106 212.0
259.041687 36.0
259.079956 252.0
259.269165 60.0
259.390961 40.0
259.612183 120.0
259.750122 148.0
259.811066 72.0
259.987549 44.0
260.077423 32.0
260.115936 104.0
260.144806 76.0
260.220276 40.0
260.266815 44.0
260.358093 124.0
260.427399 100.0
260.822632 88.0
260.877258 68.0
261.034821 68.0
261.173096 72.0
261.231018 56.0
261.8909 56.0
261.916656 76.0
262.068085 80.0
262.225983 48.0
262.39682 84.0
262.45752 68.0
262.658051 148.0
263.345551 52.0
263.381104 64.0
263.50061 100.0
263.769836 92.0
263.830261 32.0
263.894928 120.0
263.995178 84.0
264.030762 88.0
264.110596 368.0
264.273376 288.0
264.325867 88.0
264.435181 68.0
264.503143 36.0
264.645599 40.0
264.700623 76.0
264.933838 164.0
264.988922 116.0
265.096039 628.0
265.462158 88.0
265.527008 64.0
265.565948 96.0
265.650269 68.0
265.76709 280.0
265.789795 76.0
265.916351 92.0
265.952057 128.0
266.000763 112.0
266.039276 148.0
266.10788 304.0
266.1315 244.0
266.166321 124.0
266.221527 52.0
266.276733 96.0
266.494385 92.0
266.530121 60.0
266.741394 92.0
266.822662 108.0
266.887695 52.0
266.935669 116.0
267.096069 116.0
267.160889 148.0
267.18692 116.0
267.36084 160.0
267.473297 68.0
267.538391 52.0
267.577454 64.0
267.906403 52.0
267.974823 112.0
268.108398 120.0
268.323547 80.0
268.362671 152.0
268.450714 100.0
268.480072 116.0
268.532257 80.0
268.865021 80.0
269.175171 80.0
269.410309 60.0
269.446259 116.0
269.871155 76.0
270.152405 64.0
270.230927 32.0
270.358551 104.0
270.499298 40.0
270.630249 36.0
270.66626 192.0
270.954498 84.0
271.167511 56.0
271.200287 76.0
271.288788 124.0
271.419922 84.0
271.534698 72.0
271.652802 192.0
271.816833 112.0
271.856201 44.0
272.003906 120.0
272.450531 84.0
272.608246 116.0
272.749573 168.0
272.80545 40.0
272.969849 88.0
273.029053 36.0
273.12442 64.0
273.167175 120.0
273.272461 48.0
273.631226 128.0
274.051331 136.0
274.092346 48.0
274.280182 108.0
274.309875 72.0
274.725372 108.0
274.827637 168.0
275.303009 208.0
275.944031 120.0
276.609009 92.0
276.64209 108.0
277.158783 168.0
277.314514 140.0
277.404022 36.0
277.473633 64.0
277.583069 180.0
277.742249 168.0
277.772125 72.0
277.868317 128.0
278.658508 152.0
278.870117 148.0
279.732697 108.0
279.882538 56.0
280.032379 144.0
280.082336 96.0
280.185608 88.0
280.225586 120.0
280.252258 64.0
280.462219 96.0
280.732269 204.0
280.832306 172.0
280.869019 116.0
280.995789 76.0
281.069183 88.0
281.099213 120.0
281.222687 52.0
281.424255 168.0
281.475037 100.0
281.511536 116.0
281.586639 248.0
281.631805 220.0
281.684662 136.0
281.726929 132.0
281.777039 64.0
281.842834 172.0
281.880615 120.0
281.910706 96.0
281.936554 144.0
281.969727 300.0
282.041046 200.0
282.125366 81948.0
282.2258 176.0
282.264313 56.0
282.272644 44.0
282.310669 168.0
282.345764 176.0
282.38443 80.0
282.4086 80.0
282.472382 76.0
282.501831 80.0
282.551483 116.0
282.612915 64.0
282.66272 108.0
282.718475 104.0
282.742279 152.0
282.78299 184.0
282.81012 144.0
282.837128 80.0
282.876282 52.0
282.915466 48.0
282.938782 76.0
282.974396 36.0
283.004425 68.0
283.044983 140.0
283.128174 14596.0
283.237579 108.0
283.284515 80.0
283.32135 48.0
283.420654 84.0
283.445007 88.0
283.529266 80.0
283.562805 104.0
283.656372 84.0
283.682678 68.0
283.712219 52.0
283.741638 60.0
283.872406 48.0
283.973022 68.0
283.99649 76.0
284.0401 68.0
284.076996 172.0
284.12851 1688.0
284.177643 48.0
284.236633 76.0
284.285004 96.0
284.342072 60.0
284.446136 76.0
284.48642 64.0
284.5737 156.0
284.62973 132.0
284.693451 60.0
284.744965 52.0
284.77182 40.0
284.815491 80.0
284.844055 112.0
284.86795 84.0
284.895874 60.0
284.957733 128.0
285.004578 128.0
285.043701 112.0
285.102295 144.0
285.140381 480.0
285.189545 184.0
285.225433 60.0
285.261688 128.0
285.406982 100.0
285.497772 36.0
285.655853 44.0
285.723145 100.0
285.800537 148.0
285.93512 116.0
286.113525 108.0
286.137115 32.0
286.285248 56.0
286.322296 92.0
286.655823 52.0
286.767029 56.0
286.922089 52.0
286.959198 68.0
286.985748 64.0
287.135956 96.0
287.51239 40.0
287.677795 48.0
288.329681 96.0
288.731995 104.0
289.324158 52.0
289.621643 132.0
289.737335 56.0
289.794922 96.0
289.825439 44.0
289.873932 64.0
291.216339 60.0
291.950439 36.0
292.60376 56.0
292.644623 48.0
292.699097 68.0
293.097656 92.0
293.137573 56.0
293.210114 64.0
293.295319 84.0
293.397583 76.0
293.474365 160.0
294.121674 76.0
294.800446 68.0
294.844879 60.0
295.686218 64.0
296.124451 52.0
296.552734 100.0
296.621277 68.0
297.101379 48.0
297.324432 124.0
297.829132 100.0
298.468353 60.0
299.4216 132.0
299.759216 104.0
300.007385 84.0
300.139587 280.0
303.218567 80.0
303.506287 64.0
303.978058 96.0
304.012756 160.0
306.757019 40.0
307.119659 88.0
307.981812 64.0
308.757721 88.0
309.134735 2372.0
309.345551 52.0
309.986511 140.0
310.118469 1096.0
310.324768 80.0
311.123596 528.0
311.210724 72.0
311.249329 48.0
311.326599 64.0
311.393311 40.0
312.162964 132.0
312.243866 44.0
313.627563 148.0
314.527039 76.0
316.037415 140.0
318.567474 80.0
318.858856 64.0
319.075684 88.0
320.998413 92.0
321.094696 132.0
322.097687 144.0
322.183411 156.0
323.098633 180.0
326.139587 116.0
327.147034 240.0
329.090057 76.0
333.20816 128.0
333.491608 92.0
334.896057 148.0
335.438538 140.0
336.212036 356.0
337.21405 132.0
338.204163 132.0
341.27475 44.0
342.363983 60.0
343.38855 56.0
348.025452 56.0
348.348572 128.0
351.673767 108.0
353.265594 116.0
353.875641 100.0
356.426208 56.0
357.227051 40.0
359.487701 128.0
360.053986 68.0
362.035675 48.0
364.216522 172.0
364.307678 104.0
364.338074 52.0
365.212372 104.0
365.459656 76.0
366.076324 96.0
366.224854 108.0
367.116669 124.0
369.634094 100.0
372.175476 96.0
372.390533 140.0
372.528809 92.0
372.80545 52.0
376.056 92.0
379.196594 132.0
379.405914 64.0
380.003174 60.0
383.300446 92.0
384.595245 140.0
387.16394 80.0
387.348022 48.0
389.022491 72.0
389.191315 32.0
389.780518 32.0
390.826447 92.0
391.038971 112.0
392.985687 36.0
393.181213 128.0
393.332977 60.0
393.88974 56.0
394.229523 80.0
394.905579 40.0
395.190399 88.0
395.348694 88.0
396.568542 52.0
396.98877 52.0
397.532257 72.0
398.187317 84.0
400.458344 128.0
400.681427 88.0
401.430756 64.0
404.631348 32.0
406.61557 72.0
406.659698 60.0
408.198395 80.0
408.347198 124.0
409.223785 1392.0
409.288879 168.0
409.756104 56.0
410.08252 44.0
410.183289 72.0
410.229828 184.0
410.3284 176.0
410.441315 140.0
410.683289 56.0
411.225281 132.0
412.043701 116.0
412.124481 68.0
412.74292 60.0
412.819763 56.0
414.682068 96.0
414.770294 84.0
415.886719 84.0
416.288635 68.0
417.475281 68.0
417.873901 96.0
420.224792 100.0
421.993317 80.0
422.799164 92.0
423.372314 132.0
425.516876 48.0
429.26947 116.0
430.383606 36.0
430.895752 44.0
437.194427 88.0
440.993866 100.0
441.232147 72.0
441.8302 84.0
445.645508 72.0
446.30542 72.0
454.054504 60.0
454.096893 56.0
455.761017 44.0
456.143524 124.0
458.612335 88.0
459.06427 48.0
459.431061 56.0
460.122437 68.0
461.694916 100.0
464.260162 112.0
465.015259 52.0
466.83255 52.0
468.274261 48.0
470.786713 36.0
473.633362 104.0
473.998444 84.0
474.457886 72.0
474.934875 104.0
477.406128 72.0
482.267365 136.0
482.708923 92.0
483.181305 48.0
483.439453 72.0
483.737091 72.0
484.569183 40.0
486.147736 120.0
491.692871 68.0
493.287384 80.0
493.906464 88.0
493.999359 76.0
494.313507 60.0
501.744446 68.0
504.628632 64.0
506.629181 32.0
510.475739 100.0
511.605072 88.0
513.389343 104.0
514.156311 48.0
515.999268 76.0
516.374634 28.0
518.837952 72.0
520.167114 144.0
520.279785 88.0
524.994568 80.0
527.551453 52.0
531.871216 60.0
533.019348 84.0
533.414612 56.0
537.887451 72.0
538.91272 84.0
539.832581 88.0
540.327454 84.0
541.271729 104.0
547.536316 96.0
554.024353 84.0
554.656982 84.0
558.051208 96.0
561.46521 80.0
564.690918 92.0
573.341248 40.0
574.934082 64.0
576.247253 56.0
576.682129 48.0
576.940247 48.0
578.404053 88.0
578.743958 68.0
579.059998 36.0
581.294067 68.0
583.474731 76.0
584.699768 100.0
588.750977 88.0
589.818726 96.0
589.905762 80.0
592.383423 60.0
595.38092 100.0
596.824158 52.0
598.454163 100.0
600.861877 56.0
602.150574 100.0
602.536499 92.0
603.40155 60.0
603.631348 140.0
605.079651 156.0
606.22583 104.0
606.544434 88.0
612.662476 164.0
616.600098 112.0
617.574097 40.0
621.760681 116.0
627.989746 60.0
640.334534 100.0
641.90686 92.0
647.789978 60.0
648.215576 96.0
650.315125 128.0
663.988831 140.0
666.493958 56.0
668.525146 76.0
669.09137 52.0
669.26123 52.0
673.180176 72.0
673.929199 44.0
676.737732 84.0
679.629944 60.0
689.49292 52.0
689.853577 88.0
690.831482 112.0
691.642578 160.0
697.580566 36.0
699.090088 64.0
699.242676 112.0
707.408325 60.0
708.335022 100.0
710.174316 108.0
715.66925 84.0
716.697266 80.0
717.379456 72.0
717.475403 108.0
728.0271 92.0
730.617859 132.0
744.14563 72.0
745.112366 40.0
748.234131 40.0
765.652649 88.0
770.302307 56.0
771.56781 124.0
776.717957 84.0
779.160522 96.0
780.622314 88.0
783.867676 92.0
787.762085 120.0
792.528748 120.0
798.782898 92.0
800.888123 72.0
801.017639 104.0
803.227356 132.0
806.078491 96.0
807.056335 108.0
816.276306 120.0
825.074097 96.0
829.49353 140.0
834.585876 84.0
845.563721 92.0
847.428345 40.0
855.920227 88.0
856.694885 52.0
856.898804 112.0
866.64447 44.0
872.060974 68.0
880.970459 236.0
886.692261 96.0
887.172363 68.0
887.510315 64.0
890.578491 96.0
891.647888 20.0
893.854187 56.0
896.593506 192.0
898.549377 80.0
908.666382 60.0
911.085876 108.0
914.5495 88.0
921.27301 88.0
921.333435 96.0
922.826233 72.0
924.677307 48.0
932.792969 104.0
951.769104 184.0
954.159119 200.0
972.040527 32.0
977.832458 64.0
978.679077 52.0
992.130554 48.0
993.06488 100.0
999.227295 48.0
1000.933044 148.0
1004.210083 56.0
1005.263611 88.0
1005.825378 232.0
1018.229004 88.0
1024.698242 68.0
1025.838989 60.0
1029.373657 64.0
1030.683105 212.0
1030.766113 36.0
1038.467651 220.0
1039.077026 104.0
1042.897949 156.0
1045.509155 36.0
1049.193481 252.0
1055.501587 52.0
1057.034546 64.0
1071.67688 144.0
1084.537842 108.0
1084.904907 184.0
1086.059082 140.0
1091.457397 132.0
1093.009644 168.0
1096.35498 128.0
1097.541504 124.0
1108.75293 148.0
1117.105835 168.0
1117.478394 44.0
1117.864258 196.0
1122.333862 156.0
1125.743774 176.0
1131.748413 164.0
1134.535645 124.0
1135.709106 76.0
1135.937134 68.0
1138.21228 120.0
1138.393677 160.0
1139.159302 108.0
1149.932739 48.0
1153.546509 136.0
1155.209961 152.0
1160.397583 192.0
1165.950195 160.0
1172.572144 148.0
1173.117432 148.0
1175.688843 144.0
1176.684448 136.0
1178.37915 156.0
1179.329102 284.0
1181.927856 96.0
1182.708008 140.0
1183.19397 36.0
1189.514648 104.0
1191.959595 120.0
1192.72937 52.0
1204.719604 152.0
1210.190063 76.0
1211.20813 80.0
1212.115723 164.0
1215.735474 60.0
1217.707153 116.0
1219.48584 104.0
1223.993896 116.0
1227.645264 68.0
1228.098633 180.0
1230.08728 52.0
1230.74353 40.0
1231.169434 224.0
1245.344849 120.0
1246.307251 60.0
1246.995972 60.0
1252.117798 120.0
1259.53064 180.0
1260.166504 112.0
1261.151489 192.0
1262.456665 156.0
1263.83606 224.0
1264.954224 92.0
1266.037598 176.0
1267.227539 64.0
1269.439087 240.0
1269.758179 180.0
1270.538452 144.0
1274.379395 108.0
1274.770264 172.0
1275.089966 48.0
1277.372437 164.0
1277.678345 196.0
1279.984375 156.0
1280.874634 136.0
1285.123535 156.0
1285.451782 140.0
1293.737671 236.0
1296.192139 156.0
1298.270996 72.0
1300.028687 144.0
1300.200928 100.0
1300.638672 80.0
1301.636597 220.0
1301.701172 176.0
1304.028809 164.0
1306.524048 172.0
1308.107178 156.0
1308.48877 188.0
1308.596802 144.0
1311.651245 56.0
1311.997314 176.0
1314.168091 180.0
1316.672974 120.0
1319.71521 116.0
1320.286499 276.0
1324.665405 184.0
1326.556763 92.0
1330.793579 112.0
1334.520874 76.0
1335.960938 80.0
1338.31897 28.0
1339.367676 148.0
1340.773804 184.0
1341.473511 196.0
1341.553711 132.0
1342.428711 144.0
1344.478516 160.0
1345.9823 84.0
1347.260498 208.0
1348.115356 72.0
1348.700073 36.0
1351.310791 60.0
1352.210815 148.0
1353.484619 156.0
1354.11438 196.0
1356.759644 60.0
1358.703857 168.0
1358.819336 204.0
1360.126709 112.0
1361.433594 188.0
1364.644653 72.0
1366.373047 56.0
1367.381104 120.0
1370.923462 40.0
1374.322754 160.0
1374.396606 80.0
1375.488892 108.0
1376.862183 204.0
1378.11792 176.0
1378.57605 172.0
1383.509521 88.0
1383.568726 148.0
1384.101807 56.0
1384.309082 148.0
1384.657227 52.0
1385.797974 184.0
1386.228027 104.0
1386.783569 188.0
1387.532227 180.0
1387.813965 176.0
1389.527222 164.0
1391.345581 48.0
1391.679688 164.0
1395.379639 80.0
1398.496582 156.0
1398.95813 144.0
1399.784546 188.0
1401.326416 96.0
1401.721313 120.0
1402.429321 64.0
1405.218262 80.0
1405.404785 112.0
1406.882568 116.0
1407.173218 144.0
1408.420776 220.0
1409.8927 148.0
1410.46814 140.0
1410.595215 188.0
1411.043823 132.0
1411.140991 92.0
1411.567139 92.0
1411.731689 124.0
1412.000854 80.0
1413.040649 180.0
1414.44751 36.0
1415.016479 36.0
1416.476807 180.0
1417.12854 148.0
1417.653076 160.0
1420.059692 164.0
1423.586914 48.0
1424.075073 196.0
1425.607666 136.0
1426.036011 112.0
1426.960693 132.0
1427.013306 176.0
1428.788208 140.0
1429.894409 56.0
1432.023071 168.0
1432.476929 124.0
1433.539307 48.0
1433.885986 168.0
1434.164795 196.0
1434.67749 56.0
1434.805542 128.0
1435.069458 184.0
1436.117676 152.0
1436.396729 56.0
1439.264648 196.0
1441.001831 144.0
1443.390259 184.0
1444.040649 156.0
1445.387207 176.0
1445.74292 220.0
1446.416504 180.0
1446.499756 184.0
1447.453613 264.0
1451.045166 156.0
1453.889648 76.0
1455.050903 156.0
1455.88623 156.0
1456.858398 48.0
1457.223022 160.0
1457.291504 156.0
1457.420654 140.0
1457.518677 240.0
1458.644165 152.0
1461.313477 92.0
1463.771973 176.0
1463.977661 168.0
1464.053833 180.0
1465.645874 52.0
1467.345459 168.0
1467.719116 204.0
1468.016479 64.0
1468.100342 124.0
1469.763306 156.0
1470.831787 132.0
1473.420532 176.0
1473.702148 140.0
1474.559082 124.0
1475.109375 172.0
1475.965698 164.0
1476.623291 112.0
1478.842163 152.0
1481.024292 112.0
1481.537476 144.0
1481.851562 160.0
1482.150391 176.0
1483.437988 220.0
1483.76001 164.0
1485.063599 192.0
1486.48584 52.0
1490.145386 204.0
1490.560303 172.0
1490.929199 84.0
1491.129028 128.0
1492.966431 212.0
1494.427856 112.0
1494.658691 40.0
1495.428345 232.0
1496.521484 112.0
1499.679932 100.0
1501.491699 108.0
1502.139648 132.0
1502.337158 188.0
1502.486694 140.0
1502.772217 132.0
1503.798584 116.0
1503.952881 128.0
1504.014648 176.0
