>compound MLS000863291-01!
>formula C35H38Cl2N8O4
>ionization [M+H]+
>parentmass 705.247375
#inchi InChI=1S/C35H38Cl2N8O4/c1-3-25(2)45-34(46)44(24-40-45)29-7-5-27(6-8-29)41-14-16-42(17-15-41)28-9-11-30(12-10-28)47-19-31-20-48-35(49-31,21-43-23-38-22-39-43)32-13-4-26(36)18-33(32)37/h4-13,18,22-25,31H,3,14-17,19-21H2,1-2H3
#inchikey VHVPQPYKVGDNFY
#Ion_Source LC-ESI
#Instrument qTof
#Compound_Source NIH Pharmacologically Active Library
#PI Dorrestein
#Data_Collector VP/LMS
#Scan -1
#Precursor_MZ 705.25
#ExactMass 704.239
#Charge 1
#CAS_Number N/A
#Pubmed_ID N/A
#Smiles CCC(C)n1ncn(c2ccc(cc2)N3CCN(CC3)c4ccc(OCC5COC(Cn6cncn6)(O5)c7ccc(Cl)cc7Cl)cc4)c1=O
#INCHI_AUX N/A
#Library_Class 1
#SpectrumID CCMSLIB00000085413
#IonMode Positive
#UpdateWorkflowName UPDATE-SINGLE-ANNOTATED-GOLD
#LibraryQualityString Gold
#TaskID d252d724072548979f1f6f1ced849daf
##Scan# 2412
#SpectrumFile p4-A07_GA7_01_18324.mzXML
#LibraryName Pharm_Active_Library.mgf
#MQScore -1
#Organism Pharm_Active_Library
#TIC_Query 0
#RT_Query -1
#MZErrorPPM -1
#SharedPeaks 0
#MassDiff 0
#LibMZ -1
#SpecMZ 705.25
#SpecCharge 0
#internalFilename spec-00000.mgf

>collision 10
44.907188 132.0
44.93787 168.0
44.963223 96.0
44.988586 180.0
45.013954 124.0
45.02597 60.0
45.052689 196.0
45.063374 132.0
45.095448 200.0
45.131542 108.0
45.160961 148.0
45.185043 168.0
45.254639 176.0
45.273388 136.0
45.28812 136.0
45.367222 124.0
45.400597 132.0
45.420818 84.0
45.447651 76.0
45.471268 192.0
45.498653 156.0
45.525505 164.0
45.549683 260.0
45.592106 188.0
45.608807 164.0
45.657658 168.0
45.69891 184.0
45.733898 100.0
45.748707 140.0
45.785061 96.0
45.873989 92.0
45.892864 168.0
45.911743 120.0
45.946812 156.0
45.985947 124.0
46.003494 276.0
46.049404 128.0
46.107498 104.0
46.133183 192.0
46.192684 120.0
46.29961 128.0
46.318035 172.0
46.341602 160.0
46.371414 208.0
46.404343 228.0
46.427002 212.0
46.47448 112.0
46.505692 156.0
46.593166 144.0
46.618416 140.0
46.661915 132.0
46.685028 140.0
46.824612 248.0
46.843712 280.0
46.856537 140.0
46.871525 172.0
46.88924 136.0
46.935589 312.0
47.009121 208.0
47.059757 120.0
47.07341 164.0
47.113022 200.0
47.125317 52.0
47.156746 72.0
47.227432 224.0
47.245045 128.0
47.285313 184.0
47.323643 160.0
47.377056 44.0
47.462032 256.0
47.483971 172.0
47.505005 204.0
47.514923 156.0
47.549248 272.0
47.607487 120.0
47.630096 168.0
47.677902 172.0
47.731163 164.0
47.765549 268.0
47.820587 140.0
47.853626 60.0
47.879189 176.0
47.897694 176.0
47.954185 128.0
47.972107 128.0
47.982391 112.0
47.99968 144.0
48.016228 136.0
48.036919 96.0
48.053108 180.0
48.093666 192.0
48.142727 176.0
48.170589 192.0
48.175968 204.0
48.180126 136.0
48.190784 108.0
48.208126 48.0
48.219894 192.0
48.241299 108.0
48.26342 44.0
48.286926 176.0
48.302174 184.0
48.31321 196.0
48.397636 192.0
48.415638 148.0
48.456577 180.0
48.47155 192.0
48.504852 72.0
48.527878 132.0
48.538971 200.0
48.567299 152.0
48.577808 132.0
48.612492 144.0
48.630535 132.0
48.659687 92.0
48.677738 76.0
48.723572 216.0
48.741634 368.0
48.795845 204.0
48.831997 52.0
48.855644 180.0
48.875126 120.0
48.92662 148.0
48.946114 164.0
48.976753 68.0
49.046421 132.0
49.065369 156.0
49.128696 36.0
49.149624 200.0
49.17614 120.0
49.20406 164.0
49.250141 148.0
49.302902 220.0
49.326996 112.0
49.363579 144.0
49.487881 120.0
49.520088 220.0
49.534096 164.0
49.554153 112.0
49.640614 152.0
49.680717 116.0
49.700932 228.0
49.772518 152.0
49.829613 148.0
49.88773 116.0
49.933533 132.0
49.960857 116.0
50.025593 108.0
50.07769 192.0
50.091778 128.0
50.132729 164.0
50.145943 176.0
50.165833 152.0
50.189022 76.0
50.236973 160.0
50.249672 40.0
50.286362 100.0
50.340008 140.0
50.364017 140.0
50.499706 72.0
50.515266 144.0
50.553471 196.0
50.582348 172.0
50.644077 140.0
50.75462 140.0
50.768799 144.0
50.815609 44.0
50.834057 64.0
50.897934 156.0
50.97464 208.0
51.075584 256.0
51.085541 172.0
51.108303 124.0
51.136765 352.0
51.156433 176.0
51.190834 176.0
51.202259 108.0
51.231762 112.0
51.251358 128.0
51.28347 160.0
51.294464 180.0
51.394703 124.0
51.40612 156.0
51.466072 76.0
51.494633 128.0
51.589596 184.0
51.616009 172.0
51.647572 132.0
51.664738 160.0
51.68763 188.0
51.697647 120.0
51.723263 156.0
51.754906 128.0
51.767792 176.0
51.786411 164.0
51.942646 212.0
51.977673 68.0
52.034492 132.0
52.110615 184.0
52.133606 84.0
52.146542 188.0
52.222744 144.0
52.271656 116.0
52.361526 188.0
52.413406 164.0
52.486286 52.0
52.670879 168.0
52.688351 44.0
52.725922 96.0
52.753384 128.0
52.812672 180.0
52.83437 68.0
52.905281 168.0
52.932793 144.0
52.945824 208.0
52.958858 116.0
53.054501 72.0
53.103802 256.0
53.121208 104.0
53.17054 148.0
53.185055 84.0
53.196667 152.0
53.250393 108.0
53.26173 124.0
53.32885 172.0
53.346676 152.0
53.407368 152.0
53.430641 164.0
53.526707 128.0
53.547092 152.0
53.582054 148.0
53.638889 160.0
53.657841 136.0
53.70013 116.0
53.919128 220.0
53.951286 124.0
53.984917 376.0
54.002468 152.0
54.03904 156.0
54.080395 184.0
54.085869 224.0
54.142189 156.0
54.162571 200.0
54.176525 152.0
54.198635 144.0
54.217686 108.0
54.249931 104.0
54.264595 128.0
54.27779 172.0
54.32589 236.0
54.340862 108.0
54.354065 152.0
54.367275 156.0
54.395161 140.0
54.458302 132.0
54.477825 164.0
54.508808 84.0
54.546463 148.0
54.647938 196.0
54.708279 136.0
54.730362 52.0
54.740669 224.0
54.776016 136.0
54.793697 116.0
54.809902 116.0
54.827587 184.0
54.871807 188.0
54.911625 148.0
54.926952 240.0
54.95145 144.0
54.970634 152.0
55.094662 136.0
55.127167 68.0
55.140469 124.0
55.167072 144.0
55.195164 292.0
55.213543 224.0
55.246933 176.0
55.28688 160.0
55.300201 248.0
55.366825 128.0
55.381638 164.0
55.41571 96.0
55.440384 184.0
55.470543 156.0
55.529449 176.0
55.556553 140.0
55.566936 152.0
55.578808 96.0
55.655994 196.0
55.676712 84.0
55.687374 184.0
55.724316 60.0
55.76741 104.0
55.786736 160.0
55.801815 168.0
55.814983 180.0
55.834663 120.0
55.850677 80.0
55.905727 136.0
55.926563 216.0
55.938473 128.0
55.95187 136.0
56.041233 60.0
56.062092 156.0
56.087429 128.0
56.099358 120.0
56.130665 116.0
56.178394 112.0
56.196846 152.0
56.214203 80.0
56.244053 48.0
56.285854 164.0
56.309746 112.0
56.32618 140.0
56.340469 120.0
56.373989 140.0
56.384449 164.0
56.396042 148.0
56.52203 144.0
56.544476 156.0
56.595375 76.0
56.605858 56.0
56.655285 188.0
56.727215 168.0
56.749702 144.0
56.764698 64.0
56.778194 132.0
56.8307 96.0
56.849041 196.0
56.872719 112.0
56.883224 264.0
56.898239 120.0
56.961929 184.0
57.001564 204.0
57.045433 160.0
57.081547 184.0
57.140205 128.0
57.150738 172.0
57.171806 84.0
57.206757 164.0
57.254608 196.0
57.278706 112.0
57.310345 76.0
57.400784 84.0
57.419331 148.0
57.433964 156.0
57.495823 108.0
57.550167 88.0
57.596981 140.0
57.663464 112.0
57.698231 144.0
57.723934 152.0
57.737545 204.0
57.761745 184.0
57.791306 136.0
57.807137 68.0
57.832863 104.0
57.873325 132.0
57.884338 208.0
57.925232 148.0
57.952583 236.0
58.052544 172.0
58.119289 160.0
58.195179 132.0
58.233147 140.0
58.243778 168.0
58.336472 208.0
58.372963 232.0
58.383606 84.0
58.427719 176.0
58.515991 168.0
58.537045 116.0
58.575382 156.0
58.61652 136.0
58.642426 144.0
58.665291 156.0
58.683586 96.0
58.712559 228.0
58.72398 172.0
58.753742 144.0
58.77401 156.0
58.787312 152.0
58.8041 144.0
58.817837 100.0
58.92168 32.0
58.971481 156.0
59.025616 168.0
59.03632 228.0
59.102097 176.0
59.201252 268.0
59.212315 188.0
59.28801 196.0
59.305779 108.0
59.342567 136.0
59.457619 124.0
59.476105 176.0
59.495991 156.0
59.531307 176.0
59.638851 288.0
59.704964 172.0
59.726494 216.0
59.760342 140.0
59.791115 188.0
59.821899 236.0
59.851154 204.0
59.871941 164.0
59.93433 136.0
60.036716 124.0
60.054577 200.0
60.080803 124.0
60.113201 48.0
60.193146 208.0
60.23114 216.0
60.344898 168.0
60.395931 112.0
60.415653 160.0
60.467106 152.0
60.47794 184.0
60.494965 124.0
60.62817 168.0
60.671574 76.0
60.71809 156.0
60.755318 148.0
60.808636 212.0
60.845329 112.0
60.862408 204.0
60.891914 192.0
60.919872 128.0
60.974258 112.0
61.008453 216.0
61.039173 116.0
61.045063 88.0
61.048046 164.0
61.070656 88.0
61.218506 152.0
61.232521 124.0
61.330177 148.0
61.356461 164.0
61.372772 140.0
61.403961 200.0
61.425018 164.0
61.458561 144.0
61.491333 68.0
61.619381 156.0
61.681622 164.0
61.747559 92.0
61.786667 212.0
61.821091 176.0
61.836739 160.0
61.85239 108.0
61.871178 92.0
61.897793 112.0
61.931381 164.0
61.953701 136.0
61.966713 160.0
61.979248 232.0
61.990215 172.0
62.029869 240.0
62.087814 156.0
62.109371 72.0
62.128193 124.0
62.145454 144.0
62.170559 136.0
62.241199 116.0
62.289886 36.0
62.309532 168.0
62.344139 108.0
62.368454 124.0
62.401466 148.0
62.419468 132.0
62.45179 160.0
62.483723 252.0
62.521015 120.0
62.577682 164.0
62.606026 148.0
62.628075 84.0
62.645401 156.0
62.667458 96.0
62.716312 200.0
62.736805 164.0
62.750992 176.0
62.766762 112.0
62.809341 100.0
62.848007 132.0
62.915123 156.0
62.997192 84.0
63.03511 208.0
63.060398 140.0
63.082527 36.0
63.156845 152.0
63.174015 136.0
63.205891 128.0
63.248619 44.0
63.305618 108.0
63.337292 68.0
63.357887 60.0
63.381653 192.0
63.440292 168.0
63.541794 140.0
63.554485 236.0
63.567181 124.0
63.592918 128.0
63.667641 156.0
63.72279 208.0
63.753849 136.0
63.781586 216.0
63.878586 172.0
63.905632 32.0
63.919121 176.0
63.946251 160.0
64.025017 152.0
64.042542 88.0
64.144516 120.0
64.17321 156.0
64.222649 108.0
64.233818 208.0
64.248177 48.0
64.286469 100.0
64.302429 236.0
64.324776 192.0
64.369476 160.0
64.447746 160.0
64.500488 212.0
64.54525 56.0
64.562843 136.0
64.575638 136.0
64.655632 88.0
64.751686 152.0
64.781212 176.0
64.903801 200.0
64.946526 132.0
64.963478 152.0
65.001778 212.0
65.041901 172.0
65.057953 160.0
65.106125 104.0
65.129822 164.0
65.170181 164.0
65.186447 172.0
65.25235 176.0
65.310242 72.0
65.337585 44.0
65.363327 132.0
65.382637 108.0
65.406784 100.0
65.432541 144.0
65.445419 156.0
65.456696 164.0
65.472794 160.0
65.500175 140.0
65.524338 244.0
65.559792 168.0
65.605148 172.0
65.687164 156.0
65.849602 176.0
65.887344 104.0
65.906731 124.0
66.0765 168.0
66.089447 120.0
66.115334 188.0
66.13961 72.0
66.159035 152.0
66.180084 120.0
66.254395 204.0
66.31292 252.0
66.331245 184.0
66.426422 124.0
66.454002 136.0
66.486458 124.0
66.517296 48.0
66.540024 152.0
66.598488 60.0
66.624474 172.0
66.640724 164.0
66.6744 128.0
66.695976 156.0
66.712234 112.0
66.747955 140.0
66.769478 192.0
66.820511 308.0
66.847229 224.0
66.85862 156.0
66.925362 44.0
66.949791 108.0
66.995392 168.0
67.014946 64.0
67.036125 248.0
67.058945 136.0
67.14209 124.0
67.239983 148.0
67.270996 136.0
67.302017 132.0
67.425209 144.0
67.486649 192.0
67.499733 160.0
67.526268 176.0
67.542252 124.0
67.609337 208.0
67.632248 92.0
67.651894 168.0
67.732132 144.0
67.828812 140.0
67.84684 204.0
67.882912 104.0
67.922272 108.0
68.011024 188.0
68.056847 152.0
68.076553 124.0
68.122543 80.0
68.206345 152.0
68.224426 156.0
68.250732 128.0
68.372467 200.0
68.467957 208.0
68.491661 112.0
68.573395 120.0
68.59977 160.0
68.636917 176.0
68.67067 108.0
68.695412 104.0
68.708611 48.0
68.743263 164.0
68.769669 284.0
68.787827 204.0
68.868736 180.0
68.885254 124.0
68.900124 52.0
68.962914 108.0
68.994324 64.0
69.062927 148.0
69.096863 180.0
69.1101 180.0
69.149811 188.0
69.168022 100.0
69.205032 156.0
69.224312 204.0
69.277313 176.0
69.387909 156.0
69.41156 148.0
69.458267 124.0
69.481224 152.0
69.537643 120.0
69.554245 64.0
69.580803 152.0
69.69873 272.0
69.741936 160.0
69.78801 224.0
69.845032 232.0
69.895332 208.0
69.961517 112.0
70.034782 228.0
70.06144 172.0
70.094757 216.0
70.118088 112.0
70.146423 180.0
70.178101 180.0
70.204781 196.0
70.221458 96.0
70.243141 216.0
70.254822 108.0
70.274841 52.0
70.296532 116.0
70.313225 276.0
70.336586 200.0
70.376656 188.0
70.396896 248.0
70.413391 168.0
70.429237 124.0
70.501671 200.0
70.525337 196.0
70.541168 128.0
70.552086 184.0
70.570473 212.0
70.590202 216.0
70.614662 132.0
70.617798 188.0
70.68589 156.0
70.73275 164.0
70.756187 152.0
70.848297 160.0
70.861702 256.0
70.891861 120.0
70.917595 192.0
70.936317 140.0
70.947693 116.0
71.012238 256.0
71.039413 168.0
71.089012 128.0
71.128349 156.0
71.146812 192.0
71.16864 180.0
71.192146 68.0
71.316475 228.0
71.334602 204.0
71.378677 176.0
71.408951 196.0
71.425766 216.0
71.471977 112.0
71.555351 96.0
71.641014 212.0
71.683365 196.0
71.770462 148.0
71.809799 160.0
71.838478 92.0
71.865471 132.0
71.929604 216.0
71.958298 40.0
71.981148 120.0
71.999725 128.0
72.04612 136.0
72.091614 216.0
72.132309 88.0
72.155029 208.0
72.167809 172.0
72.230385 168.0
72.246819 184.0
72.272354 168.0
72.319763 204.0
72.337784 136.0
72.358994 200.0
72.396248 124.0
72.407036 116.0
72.436897 72.0
72.467392 136.0
72.531792 180.0
72.589432 112.0
72.631836 160.0
72.68103 196.0
72.831367 164.0
72.866104 260.0
72.910286 196.0
72.937477 180.0
73.02079 184.0
73.137482 188.0
73.177345 104.0
73.221619 176.0
73.289268 248.0
73.322144 188.0
73.341011 168.0
73.363045 88.0
73.388618 156.0
73.440308 156.0
73.475609 196.0
73.516556 144.0
73.54557 160.0
73.646309 152.0
73.678764 256.0
73.700981 40.0
73.747124 152.0
73.781311 128.0
73.816734 284.0
73.829033 44.0
73.889053 232.0
73.911293 116.0
73.936966 140.0
73.962639 156.0
74.108978 160.0
74.167633 124.0
74.180183 152.0
74.215729 180.0
74.27964 80.0
74.349991 136.0
74.386032 200.0
74.459869 136.0
74.484688 196.0
74.510986 200.0
74.582253 176.0
74.631714 228.0
74.66954 196.0
74.73835 136.0
74.779655 136.0
74.853683 164.0
74.865166 156.0
74.907074 224.0
74.97599 124.0
75.007019 196.0
75.019814 208.0
75.037872 116.0
75.057457 188.0
75.077705 128.0
75.117378 212.0
75.143257 184.0
75.253716 156.0
75.272713 148.0
75.348709 80.0
75.372734 128.0
75.393631 144.0
75.571739 44.0
75.613274 148.0
75.638275 332.0
75.651352 172.0
75.670395 196.0
75.698105 216.0
75.726616 180.0
75.741402 136.0
75.762184 104.0
75.823082 112.0
75.843636 156.0
75.923386 144.0
76.048691 144.0
76.112541 68.0
76.195908 56.0
76.26368 224.0
76.317574 192.0
76.362785 136.0
76.423676 148.0
76.523521 120.0
76.540291 240.0
76.59951 188.0
76.611702 180.0
76.632607 164.0
76.646545 168.0
76.679657 204.0
76.694885 124.0
76.733696 48.0
76.766365 136.0
76.805199 196.0
76.874985 136.0
76.934326 168.0
76.985161 144.0
77.025131 164.0
77.039108 160.0
77.061821 152.0
77.089775 204.0
77.124733 168.0
77.187668 152.0
77.20166 144.0
77.231392 164.0
77.311874 128.0
77.343376 128.0
77.403854 128.0
77.422165 284.0
77.439682 60.0
77.518517 116.0
77.536041 156.0
77.549301 152.0
77.567589 92.0
77.607712 140.0
77.700951 168.0
77.737717 184.0
77.771065 184.0
77.813194 136.0
77.848228 172.0
77.872902 100.0
77.895737 168.0
78.014267 116.0
78.038086 108.0
78.132759 236.0
78.17881 144.0
78.214005 120.0
78.24041 248.0
78.25174 184.0
78.297699 180.0
78.319099 216.0
78.356651 84.0
78.384842 292.0
78.441238 164.0
78.472977 124.0
78.584091 116.0
78.647804 192.0
78.725304 208.0
78.755325 120.0
78.779099 148.0
78.840134 104.0
78.877251 88.0
78.905533 132.0
78.990417 112.0
79.067368 112.0
79.098358 124.0
79.110748 160.0
79.209915 180.0
79.234062 184.0
79.264839 132.0
79.294495 180.0
79.365875 180.0
79.388931 148.0
79.407326 128.0
79.415863 236.0
79.433273 216.0
79.483009 116.0
79.569496 184.0
79.619064 148.0
79.643379 164.0
79.66404 200.0
79.703133 128.0
79.850517 172.0
79.902267 144.0
79.918282 140.0
79.943192 128.0
80.105209 120.0
80.162224 160.0
80.176483 200.0
80.247787 108.0
80.372643 72.0
80.390488 136.0
80.434341 140.0
80.45269 176.0
80.479736 124.0
80.504738 156.0
80.53186 232.0
80.59584 144.0
80.617279 144.0
80.670334 164.0
80.676964 112.0
80.685654 96.0
80.689308 136.0
80.703079 140.0
80.745834 132.0
80.84082 128.0
80.92495 60.0
80.973297 136.0
81.012703 156.0
81.037788 76.0
81.089752 152.0
81.105881 112.0
81.161499 176.0
81.17939 124.0
81.200912 188.0
81.247551 184.0
81.265495 88.0
81.282761 192.0
81.289001 120.0
81.294937 204.0
81.346252 100.0
81.369591 76.0
81.389343 176.0
81.406586 152.0
81.427055 192.0
81.479141 184.0
81.500702 140.0
81.536644 164.0
81.572815 96.0
81.610344 144.0
81.631569 200.0
81.722008 196.0
81.735924 172.0
81.797447 196.0
81.815453 168.0
81.833458 100.0
81.876671 116.0
81.907295 96.0
81.93792 152.0
81.967484 224.0
82.013603 108.0
82.026222 164.0
82.055061 228.0
82.128998 128.0
82.151939 212.0
82.185806 180.0
82.245216 128.0
82.27697 184.0
82.296829 140.0
82.347672 116.0
82.368637 228.0
82.426888 180.0
82.464836 100.0
82.535339 72.0
82.580551 160.0
82.614143 256.0
82.672821 100.0
82.707207 292.0
82.721687 168.0
82.826714 132.0
82.897224 148.0
82.92025 148.0
82.940735 156.0
82.962624 48.0
82.989822 160.0
83.056404 120.0
83.129288 72.0
83.174866 124.0
83.240814 408.0
83.289177 180.0
83.369202 180.0
83.414642 144.0
83.432823 160.0
83.529648 172.0
83.587624 144.0
83.647484 36.0
83.708603 164.0
83.800461 188.0
83.816856 172.0
83.832832 196.0
83.889763 164.0
83.905212 136.0
83.946281 224.0
83.979111 136.0
84.000999 136.0
84.075806 104.0
84.115959 176.0
84.320534 56.0
84.342461 160.0
84.373543 112.0
84.395477 96.0
84.415596 172.0
84.428398 160.0
84.443024 200.0
84.475952 200.0
84.503395 172.0
84.529373 160.0
84.620529 112.0
84.671799 204.0
84.78933 136.0
84.814713 124.0
84.834877 88.0
84.855042 116.0
84.944908 164.0
84.976151 132.0
84.996277 160.0
85.020134 160.0
85.067856 88.0
85.200081 160.0
85.227638 56.0
85.244171 236.0
85.2938 132.0
85.319992 192.0
85.334244 148.0
85.350792 44.0
85.370918 76.0
85.383888 104.0
85.452988 192.0
85.460266 108.0
85.465408 140.0
85.538445 216.0
85.571358 196.0
85.591835 164.0
85.683266 232.0
85.765015 152.0
85.91069 132.0
86.024948 48.0
86.051758 196.0
86.068611 220.0
86.153427 164.0
86.200569 144.0
86.23938 128.0
86.307777 56.0
86.344223 164.0
86.372505 128.0
86.431709 116.0
86.452065 92.0
86.502037 104.0
86.520546 164.0
86.589066 148.0
86.603882 144.0
86.633514 196.0
86.650192 72.0
86.798103 224.0
86.804901 180.0
86.826286 128.0
86.846687 152.0
86.86338 160.0
86.885643 172.0
86.910812 156.0
86.974716 120.0
87.002563 168.0
87.024475 60.0
87.047127 92.0
87.061478 192.0
87.091698 92.0
87.118446 140.0
87.206894 140.0
87.21991 104.0
87.236633 132.0
87.292778 184.0
87.322273 148.0
87.351929 188.0
87.363991 108.0
87.42263 184.0
87.474472 164.0
87.558533 156.0
87.612129 192.0
87.659134 132.0
87.693054 120.0
87.711319 40.0
87.750465 192.0
87.776573 168.0
87.810143 236.0
87.83252 196.0
87.855278 160.0
87.920715 148.0
87.959412 172.0
87.993011 96.0
88.015419 160.0
88.030357 136.0
88.082649 144.0
88.138695 136.0
88.176071 160.0
88.204109 96.0
88.217194 160.0
88.305077 148.0
88.363068 128.0
88.393005 140.0
88.407974 156.0
88.429512 116.0
88.499702 124.0
88.54277 140.0
88.620705 172.0
88.66642 124.0
88.707603 148.0
88.745148 188.0
88.767654 140.0
88.81266 204.0
88.837051 152.0
88.855812 116.0
88.883583 164.0
88.964661 96.0
88.986893 152.0
89.083931 132.0
89.124298 244.0
89.205116 116.0
89.235191 172.0
89.282204 108.0
89.31794 116.0
89.350601 176.0
89.427071 184.0
89.451538 348.0
89.498611 136.0
89.519318 216.0
89.645538 212.0
89.664383 68.0
89.727936 268.0
89.77668 148.0
89.84729 72.0
89.886909 116.0
89.945419 176.0
89.978828 172.0
90.024712 100.0
90.049263 136.0
90.081375 144.0
90.166405 108.0
90.266594 148.0
90.30442 216.0
90.376305 172.0
90.425941 156.0
90.452003 136.0
90.473946 208.0
90.522957 176.0
90.575089 96.0
90.604332 176.0
90.635918 148.0
90.656555 164.0
90.670769 200.0
90.719765 132.0
90.770294 76.0
90.802986 152.0
90.842369 180.0
90.967613 104.0
91.015076 188.0
91.028366 196.0
91.056992 328.0
91.073952 180.0
91.09864 200.0
91.111938 176.0
91.144241 156.0
91.157539 180.0
91.235474 196.0
91.260185 156.0
91.298218 60.0
91.351479 224.0
91.371208 172.0
91.404747 160.0
91.50914 156.0
91.545616 140.0
91.566566 152.0
91.623711 48.0
91.640854 92.0
91.715179 40.0
91.73233 240.0
91.800972 124.0
91.858192 220.0
91.88205 128.0
91.91227 184.0
91.966957 72.0
92.001312 160.0
92.022316 160.0
92.100166 204.0
92.121628 124.0
92.140556 180.0
92.18058 168.0
92.230545 208.0
92.264954 164.0
92.297455 52.0
92.310844 208.0
92.37587 92.0
92.408394 124.0
92.425613 116.0
92.448578 172.0
92.500252 196.0
92.559601 192.0
92.578751 124.0
92.643875 120.0
92.690628 220.0
92.730103 204.0
92.748955 140.0
92.785698 172.0
92.825958 164.0
92.848969 116.0
92.875824 176.0
92.938072 224.0
92.960243 208.0
93.000542 88.0
93.02166 188.0
93.069656 144.0
93.0942 204.0
93.167603 100.0
93.184898 152.0
93.221405 188.0
93.340584 76.0
93.375206 152.0
93.412666 176.0
93.429062 60.0
93.44445 40.0
93.567627 108.0
93.598434 140.0
93.654861 372.0
93.719505 252.0
93.779854 164.0
93.793449 152.0
93.84314 152.0
93.900993 168.0
93.91449 164.0
93.947334 164.0
94.04377 172.0
94.067741 328.0
94.128082 172.0
94.178925 72.0
94.244606 164.0
94.285133 136.0
94.291046 132.0
94.327713 112.0
94.443733 232.0
94.51918 208.0
94.571434 80.0
94.619827 128.0
94.670174 152.0
94.732117 236.0
94.765083 116.0
94.825157 176.0
94.896469 204.0
94.939545 180.0
94.955055 96.0
95.104454 208.0
95.158813 116.0
95.197647 156.0
95.22934 176.0
95.248146 132.0
95.318085 208.0
95.349174 124.0
95.398621 196.0
95.423042 204.0
95.440544 144.0
95.470505 216.0
95.485268 188.0
95.504593 180.0
95.541679 196.0
95.635086 136.0
95.660393 160.0
95.717857 176.0
95.740219 256.0
95.765541 92.0
95.798653 160.0
95.822029 156.0
95.888283 172.0
95.922821 156.0
96.100838 160.0
96.135963 136.0
96.163284 228.0
96.247231 112.0
96.305817 112.0
96.337074 140.0
96.372238 172.0
96.387253 140.0
96.426956 136.0
96.462135 116.0
96.506226 196.0
96.540344 148.0
96.60685 40.0
96.628365 76.0
96.689392 128.0
96.728172 260.0
96.747749 188.0
96.773201 72.0
96.812363 244.0
96.829987 172.0
96.922058 60.0
96.937737 72.0
96.961258 196.0
97.088684 152.0
97.104378 76.0
97.141647 116.0
97.171074 176.0
97.194618 92.0
97.209679 108.0
97.224052 104.0
97.246086 140.0
97.269196 176.0
97.29631 216.0
97.380539 232.0
97.409477 228.0
97.429482 244.0
97.468445 44.0
97.493103 204.0
97.544205 224.0
97.593735 224.0
97.63858 124.0
97.662178 68.0
97.681854 180.0
97.79007 108.0
97.813904 184.0
97.889053 188.0
97.931229 196.0
97.951729 184.0
98.079613 172.0
98.164391 320.0
98.195946 136.0
98.225533 136.0
98.257095 168.0
98.286972 112.0
98.371559 84.0
98.415619 164.0
98.458435 156.0
98.474236 116.0
98.504303 340.0
98.520905 204.0
98.563133 136.0
98.591896 252.0
98.628975 252.0
98.654671 164.0
98.671227 168.0
98.737091 200.0
98.753784 164.0
98.806328 160.0
98.822151 144.0
98.917145 140.0
98.982483 140.0
99.065666 144.0
99.125107 148.0
99.142799 168.0
99.155449 116.0
99.181145 188.0
99.208588 100.0
99.228172 60.0
99.260735 216.0
99.29763 148.0
99.335266 144.0
99.402725 172.0
99.631058 248.0
99.688675 244.0
99.714516 184.0
99.73439 132.0
99.75824 160.0
99.860382 228.0
99.872383 140.0
99.887497 180.0
100.034622 180.0
100.073997 140.0
100.131462 168.0
100.166512 144.0
100.188095 64.0
100.204033 276.0
100.297379 228.0
100.317627 204.0
100.349525 164.0
100.37146 120.0
100.385414 200.0
100.405357 204.0
100.434517 168.0
100.461212 172.0
100.481155 100.0
100.513084 148.0
100.531044 160.0
100.547005 56.0
100.564972 212.0
100.58493 200.0
100.642105 144.0
100.665764 140.0
100.72271 140.0
100.760666 160.0
100.778648 188.0
100.814613 72.0
100.87458 112.0
100.944557 152.0
101.010559 44.0
101.154633 156.0
101.190666 172.0
101.24073 72.0
101.300812 128.0
101.316452 224.0
101.338882 168.0
101.425056 184.0
101.515594 228.0
101.559395 76.0
101.574272 48.0
101.591492 156.0
101.611549 152.0
101.639641 72.0
101.691818 140.0
101.739998 116.0
101.768105 140.0
101.793365 152.0
101.820312 128.0
101.854462 144.0
101.976669 316.0
102.017227 176.0
102.053413 132.0
102.089615 128.0
102.125816 56.0
102.153511 208.0
102.161621 160.0
102.228416 148.0
102.256516 108.0
102.298866 112.0
102.323021 160.0
102.362938 296.0
102.419998 204.0
102.468033 188.0
102.503189 160.0
102.524452 184.0
102.550652 140.0
102.580887 108.0
102.618019 96.0
102.698509 276.0
102.797829 192.0
102.827393 172.0
102.899635 100.0
102.944687 168.0
103.003357 172.0
103.05484 796.0
103.085464 68.0
103.142059 140.0
103.226547 172.0
103.253258 292.0
103.309898 116.0
103.359924 176.0
103.377426 232.0
103.483719 176.0
103.556847 112.0
103.591286 152.0
103.674355 132.0
103.719994 208.0
103.748772 140.0
103.758812 84.0
103.783821 124.0
103.848709 160.0
103.873055 52.0
103.897392 52.0
103.933022 96.0
103.94812 116.0
103.966385 208.0
104.048859 452.0
104.121727 116.0
104.168335 180.0
104.255997 204.0
104.281181 128.0
104.329964 96.0
104.46418 36.0
104.500801 160.0
104.535393 144.0
104.577873 188.0
104.593399 216.0
104.608665 32.0
104.639206 212.0
104.700294 92.0
104.738991 208.0
104.779732 108.0
104.803673 128.0
104.871429 176.0
104.928513 112.0
104.963173 220.0
105.010078 160.0
105.069389 896.0
105.120804 236.0
105.168503 316.0
105.211426 160.0
105.252922 120.0
105.303978 120.0
105.340469 152.0
105.367302 92.0
105.385689 132.0
105.46962 180.0
105.512787 196.0
105.553299 108.0
105.580055 96.0
105.655571 188.0
105.676025 128.0
105.692398 168.0
105.726791 168.0
105.792686 108.0
105.822189 156.0
105.917595 36.0
105.96106 168.0
105.985207 184.0
106.013893 116.0
106.03746 124.0
106.065842 316.0
106.078102 376.0
106.10408 176.0
106.126633 132.0
106.154564 180.0
106.203705 192.0
106.226799 212.0
106.274315 176.0
106.311646 124.0
106.391296 116.0
106.428253 136.0
106.442627 132.0
106.461105 164.0
106.510399 128.0
106.553543 104.0
106.580254 156.0
106.623405 144.0
106.646011 140.0
106.678818 200.0
106.686867 192.0
106.718666 176.0
106.78994 148.0
106.820793 72.0
106.835197 164.0
106.859581 192.0
106.887016 340.0
106.950432 184.0
106.99366 132.0
107.051094 492.0
107.119087 220.0
107.211998 172.0
107.252144 108.0
107.294449 176.0
107.410179 196.0
107.43161 220.0
107.465416 192.0
107.471771 172.0
107.479088 360.0
107.496582 152.0
107.516602 160.0
107.549019 196.0
107.589043 196.0
107.603439 332.0
107.659058 136.0
107.684875 116.0
107.698318 84.0
107.734024 212.0
107.810471 156.0
107.837341 160.0
107.868973 144.0
107.913826 200.0
107.936569 128.0
107.996544 176.0
108.009773 152.0
108.053238 460.0
108.16349 176.0
108.271812 84.0
108.318001 120.0
108.377457 124.0
108.391968 48.0
108.449989 172.0
108.490463 176.0
108.516808 208.0
108.549507 136.0
108.584763 152.0
108.61795 136.0
108.644066 372.0
108.686409 164.0
108.842369 208.0
108.894005 196.0
108.915466 148.0
108.943169 216.0
108.997879 164.0
109.029045 128.0
109.057198 360.0
109.148331 216.0
109.172493 192.0
109.218246 112.0
109.268173 132.0
109.311874 196.0
109.37236 124.0
109.407616 148.0
109.538002 124.0
109.574226 132.0
109.588806 180.0
109.632568 120.0
109.684677 144.0
109.703438 140.0
109.739189 160.0
109.807693 332.0
109.822289 312.0
109.847321 56.0
109.871849 164.0
109.909912 112.0
109.95034 148.0
109.980865 236.0
110.067505 192.0
110.091522 140.0
110.118675 224.0
110.150002 152.0
110.200073 116.0
110.246117 176.0
110.356491 184.0
110.388268 216.0
110.440552 60.0
110.471924 172.0
110.497032 128.0
110.511681 208.0
110.568176 132.0
110.599571 168.0
110.616318 68.0
110.641441 176.0
110.694832 184.0
110.792229 104.0
110.913246 176.0
110.919228 132.0
110.955696 64.0
111.006012 164.0
111.064735 132.0
111.08152 212.0
111.11985 176.0
111.138702 172.0
111.165443 124.0
111.204834 224.0
111.301888 148.0
111.318687 92.0
111.337585 180.0
111.366989 72.0
111.444717 156.0
111.499596 140.0
111.52668 212.0
111.550568 120.0
111.567619 84.0
111.617081 52.0
111.65493 72.0
111.691803 164.0
111.743279 128.0
111.791672 140.0
111.882179 148.0
111.976936 64.0
112.004318 160.0
112.03273 180.0
112.052773 120.0
112.08033 148.0
112.12381 140.0
112.139168 52.0
112.177109 112.0
112.196083 168.0
112.360291 144.0
112.407684 160.0
112.430214 144.0
112.461143 196.0
112.47876 140.0
112.502472 120.0
112.577988 148.0
112.592773 172.0
112.64135 164.0
112.658257 80.0
112.723755 60.0
112.779724 124.0
112.797722 56.0
112.833664 192.0
112.957085 132.0
113.062111 80.0
113.155243 168.0
113.21389 184.0
113.273842 192.0
113.312225 100.0
113.342117 176.0
113.411568 156.0
113.451843 40.0
113.515457 156.0
113.611641 200.0
113.649086 124.0
113.776436 152.0
113.804031 128.0
113.867737 184.0
113.887154 144.0
113.916595 100.0
113.950584 96.0
113.999458 124.0
114.021965 108.0
114.053604 136.0
114.078094 204.0
114.141884 120.0
114.166855 164.0
114.237587 224.0
114.254608 68.0
114.278008 180.0
114.318443 120.0
114.352493 156.0
114.369522 240.0
114.397194 184.0
114.441902 168.0
114.503654 168.0
114.522827 160.0
114.539864 328.0
114.561165 76.0
114.586731 108.0
114.60804 120.0
114.633606 180.0
114.654922 140.0
114.671967 188.0
114.689018 176.0
114.744446 180.0
114.769409 164.0
114.848938 180.0
114.950523 104.0
114.965385 152.0
114.989029 164.0
115.013237 88.0
115.055283 608.0
115.104401 256.0
115.157616 220.0
115.173103 124.0
115.222176 152.0
115.25132 172.0
115.278069 124.0
115.325287 168.0
115.382797 116.0
115.404922 92.0
115.419151 148.0
115.488251 128.0
115.519669 84.0
115.571014 124.0
115.695152 136.0
115.742393 180.0
115.853622 112.0
115.881477 140.0
115.9179 148.0
115.954056 156.0
115.980057 132.0
116.003632 172.0
116.051384 248.0
116.15374 100.0
116.168129 136.0
116.207375 272.0
116.314674 136.0
116.329697 144.0
116.355461 72.0
116.409142 96.0
116.46283 168.0
116.484314 116.0
116.591743 96.0
116.621674 164.0
116.63549 204.0
116.674629 144.0
116.692772 140.0
116.735458 188.0
116.778313 180.0
116.819656 72.0
116.855385 104.0
116.892807 56.0
116.907875 72.0
116.929398 156.0
116.955765 176.0
117.000427 132.0
117.017654 164.0
117.068436 1480.0
117.138252 116.0
117.187622 96.0
117.26107 144.0
117.310646 164.0
117.463753 168.0
117.493958 144.0
117.522003 152.0
117.54142 60.0
117.604004 120.0
117.640701 140.0
117.660133 232.0
117.688202 132.0
117.707634 148.0
117.763084 148.0
117.826431 148.0
117.869644 192.0
117.907265 272.0
117.920166 180.0
117.947441 232.0
117.984192 168.0
118.003654 200.0
118.038246 64.0
118.065552 3480.0
118.105293 172.0
118.185333 220.0
118.22699 160.0
118.24482 180.0
118.313034 200.0
118.332512 196.0
118.353378 176.0
118.453789 176.0
118.497185 140.0
118.551292 96.0
118.577293 104.0
118.601135 140.0
118.620644 40.0
118.647781 172.0
118.666176 64.0
118.713875 152.0
118.751938 168.0
118.787384 112.0
118.79612 100.0
118.820381 196.0
118.83683 240.0
118.882095 140.0
118.909126 84.0
118.933006 208.0
118.980759 324.0
118.996292 52.0
119.032768 336.0
119.049965 396.0
119.073036 6988.0
119.105499 156.0
119.124092 52.0
119.155144 136.0
119.193611 124.0
119.23056 136.0
119.263161 160.0
119.347946 52.0
119.39286 116.0
119.463211 132.0
119.479393 108.0
119.498024 72.0
119.604652 124.0
119.62207 200.0
119.641663 104.0
119.659081 120.0
119.683884 132.0
119.811531 156.0
119.850746 168.0
119.88208 412.0
119.934189 180.0
119.957542 96.0
120.005501 212.0
120.043625 952.0
120.081047 4060.0
120.12632 172.0
120.212723 180.0
120.238914 168.0
120.283699 108.0
120.352425 204.0
120.375618 180.0
120.463806 180.0
120.526215 104.0
120.607101 132.0
120.683449 136.0
120.739212 192.0
120.802269 140.0
120.834023 116.0
120.879219 80.0
120.965622 168.0
120.990845 52.0
121.062035 1252.0
121.085251 732.0
121.104446 132.0
121.133194 120.0
121.184174 88.0
121.251511 88.0
121.294273 164.0
121.334808 128.0
121.352348 128.0
121.378654 120.0
121.44445 92.0
121.480339 144.0
121.50148 244.0
121.571701 120.0
121.593643 164.0
121.622177 132.0
121.652908 160.0
121.699211 132.0
121.729752 228.0
121.808823 196.0
121.912086 228.0
121.942856 168.0
121.976387 172.0
121.99781 224.0
122.059311 1372.0
122.086861 200.0
122.186935 152.0
122.21994 52.0
122.270554 88.0
122.328079 180.0
122.350639 220.0
122.409248 76.0
122.480591 132.0
122.49955 120.0
122.563309 132.0
122.569763 124.0
122.5756 116.0
122.625145 200.0
122.717606 72.0
122.753006 176.0
122.808144 104.0
122.827995 100.0
122.883148 28.0
122.933899 136.0
122.997765 320.0
123.024391 112.0
123.070755 136.0
123.117126 176.0
123.148758 152.0
123.163513 316.0
123.19294 148.0
123.267349 216.0
123.285027 212.0
123.315964 156.0
123.372627 196.0
123.422081 168.0
123.448616 144.0
123.532661 156.0
123.643295 100.0
123.674278 104.0
123.780548 112.0
123.802689 140.0
123.906479 168.0
123.928955 152.0
124.003067 140.0
124.068581 88.0
124.095184 180.0
124.183891 140.0
124.294815 68.0
124.327057 204.0
124.352509 120.0
124.421326 164.0
124.461288 120.0
124.618988 204.0
124.650101 128.0
124.686806 240.0
124.78791 160.0
124.866364 156.0
124.912445 144.0
124.930244 104.0
124.996811 148.0
125.070435 212.0
125.096939 256.0
125.11718 60.0
125.192207 196.0
125.239655 72.0
125.259087 208.0
125.306488 132.0
125.328766 168.0
125.367935 180.0
125.422371 232.0
125.45697 360.0
125.475868 208.0
125.536072 180.0
125.554588 132.0
125.587372 88.0
125.605217 72.0
125.629753 152.0
125.701149 48.0
125.730156 128.0
125.770332 140.0
125.7939 208.0
125.841774 236.0
125.878616 128.0
125.894249 128.0
125.902512 160.0
125.91993 188.0
125.942261 104.0
125.98024 112.0
126.011513 204.0
126.053856 160.0
126.166656 48.0
126.212677 28.0
126.243423 164.0
126.304367 148.0
126.322266 148.0
126.340164 168.0
126.398331 52.0
126.463234 224.0
126.554329 156.0
126.613235 128.0
126.756615 132.0
126.785744 144.0
126.832809 120.0
126.989761 36.0
127.030136 168.0
127.058792 212.0
127.104179 120.0
127.140083 144.0
127.155792 76.0
127.171501 124.0
127.198441 76.0
127.22538 200.0
127.308456 196.0
127.33316 148.0
127.36454 152.0
127.373528 148.0
127.383179 148.0
127.392036 188.0
127.429749 156.0
127.452461 188.0
127.479187 136.0
127.510643 156.0
127.59967 192.0
127.681511 180.0
127.706253 228.0
127.818741 112.0
127.845741 148.0
127.899757 196.0
127.920013 180.0
127.956039 140.0
127.987556 156.0
128.062851 976.0
128.127655 216.0
128.172256 128.0
128.190292 44.0
128.291718 104.0
128.318771 156.0
128.394501 212.0
128.398636 124.0
128.453506 196.0
128.468811 180.0
128.506027 148.0
128.688934 176.0
128.736237 208.0
128.770081 180.0
128.853668 140.0
128.8853 184.0
128.946304 160.0
128.980209 168.0
129.007339 56.0
129.023163 108.0
129.06926 1260.0
129.106827 48.0
129.12265 52.0
129.203064 140.0
129.235641 144.0
129.294769 156.0
129.325134 152.0
129.343506 180.0
129.42363 96.0
129.453064 88.0
129.535294 92.0
129.564056 212.0
129.604843 140.0
129.641098 152.0
129.731705 176.0
129.767517 88.0
129.794678 176.0
129.870071 240.0
129.930084 184.0
130.013016 136.0
130.043976 192.0
130.065308 2552.0
130.136917 324.0
130.1651 56.0
130.199173 172.0
130.235504 92.0
130.267319 104.0
130.342285 140.0
130.394562 188.0
130.419556 56.0
130.492294 96.0
130.526413 72.0
130.578888 156.0
130.589615 116.0
130.659027 168.0
130.781204 128.0
130.833939 168.0
130.882248 136.0
130.971481 212.0
131.015747 156.0
131.074036 1712.0
131.106903 136.0
131.150208 92.0
131.28244 96.0
131.334885 52.0
131.362259 156.0
131.409622 184.0
131.487762 168.0
131.506012 132.0
131.597336 180.0
131.620163 148.0
131.659927 144.0
131.697815 216.0
131.729782 216.0
131.757202 104.0
131.775482 192.0
131.796036 60.0
131.834885 156.0
131.881668 136.0
131.942322 272.0
132.01091 108.0
132.046295 196.0
132.050064 452.0
132.0802 5244.0
132.129852 200.0
132.157791 192.0
132.203079 180.0
132.241989 160.0
132.260132 176.0
132.308365 116.0
132.347946 144.0
132.383926 168.0
132.40683 260.0
132.443466 124.0
132.520508 160.0
132.631363 140.0
132.679504 88.0
132.716187 44.0
132.736359 240.0
132.778107 108.0
132.805618 148.0
132.842331 56.0
132.862976 148.0
132.897385 100.0
132.924927 96.0
132.956818 120.0
133.052658 1184.0
133.074829 484.0
133.085861 480.0
133.123383 212.0
133.148666 60.0
133.182053 68.0
133.214218 44.0
133.270477 212.0
133.315308 112.0
133.347488 56.0
133.395752 208.0
133.52774 128.0
133.556717 172.0
133.630096 116.0
133.740784 204.0
133.816757 120.0
133.846695 152.0
133.865112 136.0
133.890442 52.0
133.908875 52.0
133.934738 172.0
133.954941 176.0
134.011276 96.0
134.059891 3612.0
134.089401 280.0
134.134674 180.0
134.162537 188.0
134.237656 136.0
134.268402 148.0
134.305313 96.0
134.337601 120.0
134.362976 136.0
134.392975 216.0
134.433456 216.0
134.449234 136.0
134.492203 132.0
134.522217 152.0
134.554535 140.0
134.570694 112.0
134.59668 204.0
134.639969 160.0
134.663071 188.0
134.746231 112.0
134.797211 124.0
134.845596 120.0
134.936707 164.0
134.986618 144.0
135.014359 40.0
135.06813 2540.0
135.09726 172.0
135.146576 100.0
135.192963 140.0
135.22731 92.0
135.248047 160.0
135.276321 156.0
135.338333 156.0
135.389267 216.0
135.421692 116.0
135.454132 128.0
135.507416 188.0
135.580063 168.0
135.641815 76.0
135.67395 172.0
135.822586 220.0
135.850525 140.0
135.878357 204.0
135.931732 148.0
135.964478 144.0
136.010635 264.0
136.039108 304.0
136.075272 3072.0
136.125412 192.0
136.129562 248.0
136.156906 88.0
136.235886 164.0
136.294266 124.0
136.324173 160.0
136.382965 148.0
136.407852 128.0
136.428772 132.0
136.522171 164.0
136.581314 72.0
136.670654 132.0
136.691589 148.0
136.737091 184.0
136.794006 60.0
136.828918 196.0
136.878235 112.0
136.888046 112.0
136.894775 156.0
136.936035 108.0
136.996597 140.0
137.07605 420.0
137.099121 52.0
137.129822 160.0
137.22789 116.0
137.243652 160.0
137.269302 120.0
137.287949 104.0
137.381546 124.0
137.395721 156.0
137.425583 124.0
137.518921 212.0
137.687027 88.0
137.708038 144.0
137.738403 152.0
137.761765 52.0
137.813171 176.0
137.918335 152.0
137.95105 228.0
137.990799 188.0
138.067963 40.0
138.099731 148.0
138.198959 144.0
138.255112 220.0
138.333664 144.0
138.367477 136.0
138.500961 96.0
138.532745 188.0
138.579407 120.0
138.620621 204.0
138.64621 132.0
138.666809 148.0
138.706436 184.0
138.769653 152.0
138.810318 116.0
138.842255 200.0
138.851242 124.0
138.887711 100.0
138.911163 188.0
138.965118 192.0
139.024887 240.0
139.051208 272.0
139.087158 180.0
139.26532 164.0
139.304413 268.0
139.329346 328.0
139.363495 168.0
139.490082 240.0
139.516495 136.0
139.549957 172.0
139.616455 128.0
139.661804 192.0
139.706848 180.0
139.864243 76.0
139.898148 76.0
139.931107 124.0
139.987167 148.0
140.080246 148.0
140.100677 152.0
140.154861 168.0
140.24678 68.0
140.30806 240.0
140.489655 320.0
140.5392 172.0
140.562805 104.0
140.607635 164.0
140.671127 116.0
140.690247 336.0
140.753372 540.0
140.770523 108.0
140.813034 108.0
140.836655 124.0
140.893799 212.0
140.940598 132.0
140.973694 180.0
141.008682 168.0
141.051682 88.0
141.076614 408.0
141.135727 168.0
141.214005 184.0
141.285217 440.0
141.302353 140.0
141.326019 188.0
141.385178 280.0
141.503525 120.0
141.550888 136.0
141.575409 312.0
141.621933 140.0
141.703949 176.0
141.719055 216.0
141.742188 132.0
141.77356 232.0
141.797256 380.0
141.89682 112.0
141.933899 144.0
141.979034 352.0
142.017944 208.0
142.062332 188.0
142.115021 164.0
142.14064 156.0
142.181702 160.0
142.230713 160.0
142.302536 132.0
142.404648 232.0
142.445023 168.0
142.525803 120.0
142.627853 180.0
142.673157 140.0
142.69931 140.0
142.739731 160.0
142.858658 160.0
142.883469 216.0
142.934784 208.0
142.972305 204.0
143.000443 168.0
143.027054 140.0
143.072998 808.0
143.120728 192.0
143.175385 112.0
143.213333 52.0
143.246674 164.0
143.273056 108.0
143.294327 184.0
143.351501 176.0
143.380112 136.0
143.39679 56.0
143.449234 184.0
143.494522 172.0
143.544601 40.0
143.616135 184.0
143.651917 128.0
143.707108 204.0
143.752945 200.0
143.799377 156.0
143.845215 108.0
143.861923 196.0
143.935928 196.0
143.983704 100.0
144.015335 32.0
144.080383 5896.0
144.155701 112.0
144.177216 172.0
144.213699 148.0
144.244141 52.0
144.260864 92.0
144.313461 136.0
144.337372 360.0
144.401382 208.0
144.433044 100.0
144.550262 28.0
144.573257 156.0
144.665146 176.0
144.693878 152.0
144.744843 396.0
144.805222 176.0
144.809601 208.0
144.820297 156.0
144.899841 88.0
144.968597 144.0
145.000488 112.0
145.063156 2096.0
145.088989 3496.0
145.112915 168.0
145.141922 76.0
145.161118 144.0
145.197083 296.0
145.226898 196.0
145.248566 156.0
145.285828 144.0
145.311905 148.0
145.369812 192.0
145.391403 116.0
145.441818 320.0
145.461014 52.0
145.514236 240.0
145.539902 112.0
145.643509 100.0
145.67775 344.0
145.71077 76.0
145.74855 176.0
145.764862 460.0
145.804489 108.0
145.847351 304.0
145.939102 128.0
145.989594 76.0
146.060333 3484.0
146.096771 19720.0
146.179642 48.0
146.203354 56.0
146.220886 88.0
146.249435 188.0
146.328293 216.0
146.418777 180.0
146.468094 128.0
146.509506 96.0
146.586609 172.0
146.620346 104.0
146.647934 152.0
146.713898 192.0
146.736038 148.0
146.764984 68.0
146.791504 108.0
146.838074 216.0
146.848679 68.0
146.864212 176.0
146.924164 28.0
146.989883 192.0
147.033615 200.0
147.0681 1376.0
147.100571 3572.0
147.167374 156.0
147.204147 112.0
147.244644 212.0
147.303162 176.0
147.356308 96.0
147.37738 92.0
147.41539 152.0
147.457809 52.0
147.48439 180.0
147.517303 52.0
147.556915 92.0
147.760071 56.0
147.837509 180.0
147.856857 156.0
147.899323 152.0
147.977585 216.0
148.075928 9532.0
148.136398 224.0
148.186188 28.0
148.211945 120.0
148.262314 144.0
148.289627 152.0
148.313644 148.0
148.348557 68.0
148.375229 56.0
148.392197 56.0
148.431 52.0
148.450394 48.0
148.486771 36.0
148.515884 144.0
148.732895 136.0
148.821655 112.0
148.865356 188.0
148.932327 216.0
148.960083 172.0
149.006241 136.0
149.079987 2200.0
149.122879 180.0
149.159348 92.0
149.181213 48.0
149.200668 120.0
149.244431 140.0
149.356308 184.0
149.414688 116.0
149.486359 88.0
149.509583 116.0
149.543655 60.0
149.582596 196.0
149.604507 80.0
149.711639 188.0
149.761337 184.0
149.784714 152.0
149.827728 128.0
149.865097 68.0
149.915787 192.0
149.949661 120.0
149.97049 124.0
150.018646 168.0
150.088593 116.0
150.164948 40.0
150.182022 188.0
150.269836 96.0
150.290649 136.0
150.335724 48.0
150.360123 156.0
150.38942 220.0
150.41626 156.0
150.449677 192.0
150.562759 176.0
150.600494 116.0
150.607208 144.0
150.625793 184.0
150.656906 132.0
150.762527 120.0
150.84375 92.0
150.942566 340.0
151.018448 832.0
151.058945 144.0
151.098083 272.0
151.127441 212.0
151.151901 68.0
151.173935 140.0
151.225296 216.0
151.28653 136.0
151.32814 168.0
151.374664 40.0
151.410522 164.0
151.528976 156.0
151.573074 292.0
151.671112 188.0
151.786331 124.0
151.842209 128.0
151.885056 208.0
151.911423 144.0
151.940857 128.0
151.972763 132.0
152.005142 180.0
152.012344 208.0
152.041397 156.0
152.148346 348.0
152.308151 232.0
152.345184 144.0
152.382782 136.0
152.404892 112.0
152.444214 184.0
152.500732 212.0
152.520172 172.0
152.54007 64.0
152.680222 140.0
152.806778 284.0
152.875961 220.0
152.896713 120.0
152.93071 192.0
152.980392 168.0
153.027466 172.0
153.065338 104.0
153.111084 156.0
153.12944 152.0
153.164413 320.0
153.180862 140.0
153.222778 172.0
153.273483 184.0
153.335098 152.0
153.354813 172.0
153.404114 132.0
153.438629 152.0
153.546967 132.0
153.58165 80.0
153.658127 72.0
153.756821 120.0
153.774109 52.0
153.798782 48.0
153.827148 148.0
153.845688 144.0
153.865433 144.0
153.90741 72.0
153.930893 120.0
153.96109 200.0
153.979218 160.0
154.036301 316.0
154.06636 292.0
154.099518 196.0
154.265656 108.0
154.297791 128.0
154.335648 192.0
154.485733 132.0
154.588043 116.0
154.696091 52.0
154.802551 228.0
154.980896 172.0
155.005402 256.0
155.037888 124.0
155.071838 628.0
155.109772 192.0
155.19043 208.0
155.229721 188.0
155.268448 184.0
155.309631 192.0
155.335419 116.0
155.359024 192.0
155.409851 100.0
155.429703 168.0
155.485733 392.0
155.509109 200.0
155.533936 124.0
155.610886 100.0
155.638199 232.0
155.677933 224.0
155.713074 184.0
155.726685 76.0
155.733841 156.0
155.762375 144.0
155.829453 112.0
155.854294 172.0
155.87915 48.0
155.906479 64.0
155.9711 44.0
155.98851 152.0
156.008392 132.0
156.035736 148.0
156.080139 1760.0
156.119537 120.0
156.140869 116.0
156.172119 128.0
156.207336 108.0
156.257095 192.0
156.309341 56.0
156.335632 92.0
156.381516 144.0
156.437698 224.0
156.540848 120.0
156.578201 44.0
156.677689 140.0
156.68309 168.0
156.742615 64.0
156.878448 136.0
156.939529 128.0
156.974442 104.0
157.060974 328.0
157.0896 1140.0
157.178986 80.0
157.251358 172.0
157.346222 124.0
157.413635 160.0
157.441101 160.0
157.461075 116.0
157.516037 76.0
157.548172 176.0
157.59227 288.0
157.633453 220.0
157.665939 144.0
157.692444 212.0
157.785065 140.0
157.79187 224.0
157.84343 120.0
157.91095 192.0
157.962448 80.0
158.033539 192.0
158.068542 708.0
158.096573 2348.0
158.130417 156.0
158.153656 60.0
158.188705 136.0
158.246277 64.0
158.286346 136.0
158.328918 92.0
158.416916 148.0
158.471695 200.0
158.541855 36.0
158.621857 148.0
158.649643 172.0
158.677216 112.0
158.713745 204.0
158.783157 168.0
158.82016 196.0
158.851517 128.0
158.860931 172.0
158.898651 208.0
158.926163 140.0
158.976349 6864.0
159.019882 160.0
159.069046 1552.0
159.102905 512.0
159.136353 128.0
159.163971 240.0
159.181549 52.0
159.211685 136.0
159.231247 96.0
159.367432 40.0
159.460403 160.0
159.501022 128.0
159.578964 220.0
159.651581 188.0
159.679138 276.0
159.696747 144.0
159.724411 88.0
159.762146 124.0
159.779755 136.0
159.832916 124.0
159.877899 196.0
159.920685 120.0
159.978622 652.0
160.077789 3960.0
160.107635 368.0
160.176498 100.0
160.20018 316.0
160.240494 104.0
160.303482 268.0
160.353043 132.0
160.391693 40.0
160.43959 72.0
160.479935 224.0
160.517746 100.0
160.547745 132.0
160.593414 204.0
160.623672 136.0
160.646378 112.0
160.671616 176.0
160.701889 68.0
160.777588 144.0
160.855835 160.0
160.913895 132.0
160.938858 180.0
160.973755 5400.0
161.078583 804.0
161.10878 484.0
161.196411 240.0
161.24733 124.0
161.272614 148.0
161.361084 116.0
161.379639 188.0
161.431885 116.0
161.477402 148.0
161.520401 244.0
161.551544 72.0
161.659561 136.0
161.68486 76.0
161.768707 164.0
161.790848 152.0
161.822586 128.0
161.911102 88.0
161.932983 124.0
161.977585 440.0
162.021164 172.0
162.065689 528.0
162.090729 3384.0
162.131287 116.0
162.146591 140.0
162.177475 96.0
162.201553 140.0
162.233276 164.0
162.248108 132.0
162.280579 140.0
162.333405 76.0
162.359329 160.0
162.384125 176.0
162.410828 128.0
162.453827 124.0
162.488129 100.0
162.50589 40.0
162.606445 204.0
162.638321 204.0
162.738113 128.0
162.835892 132.0
162.861282 184.0
162.889221 52.0
162.917175 156.0
162.942581 108.0
162.971924 424.0
163.006104 160.0
163.030045 136.0
163.077057 368.0
163.096054 544.0
163.15213 128.0
163.198364 256.0
163.250656 176.0
163.300995 112.0
163.331848 124.0
163.349945 116.0
163.380661 88.0
163.397659 224.0
163.420563 100.0
163.495056 232.0
163.541611 220.0
163.585983 36.0
163.629272 184.0
163.726929 136.0
163.764236 304.0
163.79277 244.0
163.850845 88.0
163.881409 36.0
163.928726 132.0
163.980621 120.0
163.984344 112.0
163.994354 164.0
164.035721 380.0
164.070557 3376.0
164.136307 40.0
164.203461 180.0
164.240173 220.0
164.306519 196.0
164.381195 152.0
164.416306 184.0
164.47702 116.0
164.508804 188.0
164.525864 164.0
164.549652 188.0
164.603271 164.0
164.782578 100.0
164.807617 36.0
164.877869 236.0
164.922623 156.0
164.99675 176.0
165.029984 32.0
165.052994 168.0
165.074203 592.0
165.111816 196.0
165.180878 112.0
165.265305 112.0
165.421417 84.0
165.487976 68.0
165.51358 48.0
165.551987 76.0
165.66272 140.0
165.700638 140.0
165.731308 92.0
165.762329 152.0
165.858261 112.0
165.900452 88.0
165.9543 68.0
165.977371 88.0
166.000458 148.0
166.018402 136.0
166.059433 112.0
166.085083 136.0
166.245285 236.0
166.34169 168.0
166.36586 96.0
166.393036 136.0
166.421265 200.0
166.477768 116.0
166.508575 128.0
166.528137 124.0
166.55806 212.0
166.619034 196.0
166.657578 148.0
166.703827 140.0
166.757797 296.0
166.80304 192.0
166.832397 184.0
166.881409 140.0
166.930038 132.0
166.951767 164.0
166.986618 172.0
167.009766 60.0
167.041275 192.0
167.069916 116.0
167.166702 144.0
167.195007 80.0
167.231049 52.0
167.269653 128.0
167.305695 152.0
167.326294 148.0
167.357193 132.0
167.413834 136.0
167.457062 224.0
167.56839 92.0
167.661148 72.0
167.720428 144.0
167.906067 152.0
167.92894 60.0
167.960236 120.0
168.009537 140.0
168.040207 128.0
168.069962 192.0
168.091812 220.0
168.121078 212.0
168.171814 188.0
168.277649 96.0
168.344788 136.0
168.401611 112.0
168.419693 148.0
168.453262 196.0
168.485352 128.0
168.505035 212.0
168.53595 152.0
168.559204 180.0
168.579071 204.0
168.621033 164.0
168.665161 164.0
168.683258 128.0
168.722031 84.0
168.890121 160.0
168.915985 228.0
168.996185 124.0
169.029816 184.0
169.062469 220.0
169.084167 160.0
169.103607 424.0
169.169586 136.0
169.261658 156.0
169.291275 148.0
169.332703 144.0
169.411453 20.0
169.436325 148.0
169.458221 164.0
169.480377 80.0
169.521835 128.0
169.64624 136.0
169.701004 264.0
169.744766 136.0
169.796967 156.0
169.835541 56.0
169.918045 124.0
169.975632 192.0
170.060303 440.0
170.096298 848.0
170.143845 180.0
170.250793 172.0
170.301605 184.0
170.346893 244.0
170.388458 112.0
170.424835 188.0
170.484604 152.0
170.517105 124.0
170.557846 288.0
170.586472 200.0
170.694748 196.0
170.814377 136.0
170.838211 152.0
170.87204 140.0
170.911072 96.0
170.96051 168.0
170.995895 188.0
171.03598 56.0
171.068207 368.0
171.102341 836.0
171.143723 180.0
171.270325 80.0
171.302811 136.0
171.369324 116.0
171.395386 220.0
171.41362 144.0
171.444885 148.0
171.54393 172.0
171.585648 112.0
171.69516 124.0
171.772095 172.0
171.807327 144.0
171.869949 60.0
171.913239 440.0
171.948227 176.0
171.971085 312.0
172.075775 5492.0
172.111664 5680.0
172.146637 92.0
172.185806 104.0
172.217148 72.0
172.240662 100.0
172.260406 164.0
172.306305 172.0
172.332092 172.0
172.360352 76.0
172.386414 56.0
172.405258 84.0
172.423553 180.0
172.452301 152.0
172.501968 80.0
172.522888 64.0
172.55426 104.0
172.573776 120.0
172.668213 76.0
172.702087 108.0
172.721619 80.0
172.781784 204.0
172.831497 228.0
172.852432 308.0
172.962357 148.0
173.030426 80.0
173.080917 3860.0
173.114365 992.0
173.148254 180.0
173.218597 216.0
173.237305 128.0
173.280701 180.0
173.313293 80.0
173.344879 140.0
173.381424 52.0
173.412872 136.0
173.436462 168.0
173.517731 132.0
173.572891 188.0
173.614655 108.0
173.664581 124.0
173.696045 100.0
173.724915 116.0
173.772064 212.0
173.807465 172.0
173.853851 84.0
173.877838 296.0
173.908585 164.0
173.932678 160.0
173.962158 284.0
173.993591 316.0
174.026321 216.0
174.091568 48196.0
174.161407 220.0
174.198395 152.0
174.236221 68.0
174.289383 80.0
174.315659 52.0
174.347946 100.0
174.372864 120.0
174.423828 76.0
174.457581 112.0
174.477844 124.0
174.510162 48.0
174.536026 144.0
174.553986 48.0
174.601135 168.0
174.633148 120.0
174.657349 156.0
174.692596 152.0
174.709793 84.0
174.739197 52.0
174.811462 96.0
174.864456 176.0
174.868805 180.0
174.903793 80.0
174.920578 128.0
174.949524 148.0
174.967545 76.0
175.02272 64.0
175.062424 1124.0
175.095581 5152.0
175.154938 136.0
175.206879 200.0
175.215942 176.0
175.238419 52.0
175.29364 100.0
175.366379 176.0
175.412292 144.0
175.465897 148.0
175.494888 76.0
175.542358 44.0
175.58812 180.0
175.613571 172.0
175.632034 40.0
175.658401 64.0
175.699142 164.0
175.72113 92.0
175.734116 120.0
175.738388 176.0
175.811432 68.0
175.864227 108.0
175.952026 136.0
175.961044 112.0
175.980682 144.0
176.006775 60.0
176.027908 192.0
176.069824 636.0
176.104614 492.0
176.178192 124.0
176.199585 116.0
176.259354 168.0
176.300095 176.0
176.337479 164.0
176.372925 64.0
176.411011 68.0
176.430756 108.0
176.485031 132.0
176.519577 108.0
176.641068 48.0
176.713242 144.0
176.749542 84.0
176.844818 52.0
176.876572 52.0
176.966583 144.0
176.998367 112.0
177.021164 164.0
177.078293 708.0
177.203247 204.0
177.303009 144.0
177.329514 104.0
177.358658 56.0
177.414886 128.0
177.448792 252.0
177.473343 188.0
177.501831 168.0
177.541611 188.0
177.573425 60.0
177.62648 40.0
177.655655 172.0
177.71933 48.0
177.77771 56.0
177.807419 132.0
177.838745 208.0
177.865295 112.0
177.988541 160.0
178.011322 172.0
178.045639 264.0
178.087036 1956.0
178.157394 168.0
178.245636 132.0
178.296997 180.0
178.324799 68.0
178.393921 168.0
178.494949 132.0
178.558777 248.0
178.617279 36.0
178.691772 184.0
178.733185 184.0
178.771606 124.0
178.870071 184.0
178.899353 180.0
178.916672 168.0
179.086197 512.0
179.152344 44.0
179.181656 40.0
179.226944 132.0
179.261597 80.0
179.301559 68.0
179.329254 192.0
179.416183 124.0
179.434845 80.0
179.480164 80.0
179.501495 140.0
179.544174 164.0
179.626862 212.0
179.691376 192.0
179.77626 132.0
179.808289 108.0
180.010193 376.0
180.032547 188.0
180.199127 208.0
180.237366 160.0
180.281342 180.0
180.369186 124.0
180.413193 208.0
180.434723 156.0
180.473679 140.0
180.548325 264.0
180.609848 156.0
180.755615 140.0
180.785034 184.0
180.901657 220.0
180.952377 100.0
181.009247 168.0
181.06485 140.0
181.091934 220.0
181.100525 288.0
181.131805 96.0
181.169312 76.0
181.209503 216.0
181.236298 156.0
181.295242 144.0
181.354996 164.0
181.394333 148.0
181.424744 152.0
181.533295 80.0
181.569641 180.0
181.699356 208.0
181.778519 136.0
181.830292 140.0
181.866501 152.0
181.98259 116.0
182.027588 172.0
182.097122 652.0
182.137695 36.0
182.231735 60.0
182.284882 220.0
182.454803 128.0
182.487061 164.0
182.586563 116.0
182.689667 120.0
182.731812 120.0
182.761414 148.0
182.809845 164.0
182.937195 112.0
182.998276 88.0
183.053024 60.0
183.106659 248.0
183.143692 84.0
183.237976 204.0
183.278397 84.0
183.297256 88.0
183.380798 156.0
183.418533 44.0
183.475143 176.0
183.550949 168.0
183.628845 96.0
183.674698 56.0
183.73674 128.0
183.793396 208.0
183.825775 132.0
183.890549 100.0
183.965759 208.0
184.006622 84.0
184.028229 200.0
184.04982 144.0
184.077148 600.0
184.107986 164.0
184.167984 212.0
184.193527 152.0
184.257797 152.0
184.444504 180.0
184.484802 132.0
184.526642 112.0
184.586502 200.0
184.614594 72.0
184.657867 84.0
184.724213 116.0
184.749435 188.0
184.760254 160.0
184.814758 144.0
184.885117 132.0
184.936539 136.0
184.977997 376.0
185.017746 128.0
185.081253 312.0
185.112518 136.0
185.180222 80.0
185.256073 240.0
185.27774 120.0
185.321091 92.0
185.346863 212.0
185.367157 80.0
185.413681 156.0
185.462006 336.0
185.51622 120.0
185.562317 152.0
185.621964 36.0
185.642532 116.0
185.730438 120.0
185.780685 200.0
185.819962 188.0
185.887802 116.0
185.936646 100.0
185.96315 168.0
185.988892 220.0
186.018082 32.0
186.09259 1320.0
186.21553 152.0
186.292343 116.0
186.329269 176.0
186.373856 128.0
186.392883 40.0
186.413773 128.0
186.512451 124.0
186.555603 188.0
186.607605 104.0
186.686462 52.0
186.768051 132.0
186.82518 60.0
186.874146 84.0
186.89592 60.0
186.922806 268.0
186.972153 5252.0
187.020798 144.0
187.031647 128.0
187.062653 2036.0
187.097397 904.0
187.127274 132.0
187.287933 124.0
187.312454 112.0
187.336914 176.0
187.387604 184.0
187.415985 96.0
187.458221 128.0
187.521011 96.0
187.557693 44.0
187.620392 60.0
187.680618 88.0
187.740372 380.0
187.769287 132.0
187.789093 212.0
187.842743 164.0
187.863098 160.0
187.893112 148.0
187.928574 140.0
187.974823 992.0
188.025116 184.0
188.041718 196.0
188.070801 1320.0
188.106033 5808.0
188.190613 48.0
188.223373 176.0
188.251129 196.0
188.277679 72.0
188.30629 160.0
188.334381 148.0
188.368118 104.0
188.40358 220.0
188.452606 160.0
188.559616 96.0
188.589447 48.0
188.608582 84.0
188.653458 124.0
188.717941 152.0
188.739807 228.0
188.79274 124.0
188.846466 44.0
188.887497 84.0
188.92305 80.0
188.967804 4912.0
189.004425 124.0
189.076691 4360.0
189.1091 512.0
189.147278 124.0
189.209579 184.0
189.262436 48.0
189.320053 204.0
189.341934 128.0
189.364563 108.0
189.388412 124.0
189.437714 64.0
189.497574 160.0
189.541824 96.0
189.563751 72.0
189.6306 296.0
189.665833 112.0
189.700195 148.0
189.735458 124.0
189.79126 64.0
189.815933 200.0
189.837006 200.0
189.898209 44.0
189.94014 180.0
189.973114 612.0
190.018845 156.0
190.046341 72.0
190.085815 3500.0
190.115799 148.0
190.252182 144.0
190.375748 116.0
190.411453 96.0
190.473251 224.0
190.499344 116.0
190.568085 172.0
190.590012 136.0
190.666946 152.0
190.746155 160.0
190.798889 180.0
190.833206 120.0
190.85231 128.0
190.87764 168.0
190.936371 124.0
190.965881 284.0
191.024399 92.0
191.050644 140.0
191.093567 1796.0
191.136673 124.0
191.168076 144.0
191.189484 40.0
191.233521 140.0
191.266541 128.0
191.292953 128.0
191.346375 48.0
191.437012 140.0
191.462036 120.0
191.484055 140.0
191.544662 320.0
191.621796 56.0
191.655334 140.0
191.678024 156.0
191.806671 172.0
191.839508 116.0
191.86557 160.0
191.899063 120.0
191.936005 92.0
191.999359 136.0
192.028763 132.0
192.069763 88.0
192.102356 19212.0
192.167191 140.0
192.193314 100.0
192.217361 76.0
192.252457 84.0
192.259766 44.0
192.33403 88.0
192.40506 124.0
192.435425 80.0
192.486435 168.0
192.51944 56.0
192.559692 52.0
192.588455 208.0
192.654465 148.0
192.675522 120.0
192.703415 148.0
192.731674 108.0
192.852554 84.0
192.911469 116.0
192.974197 148.0
193.044632 396.0
193.105774 3656.0
193.199081 204.0
193.245758 196.0
193.34317 400.0
193.377731 132.0
193.399109 140.0
193.430664 236.0
193.451965 92.0
193.510941 120.0
193.538635 208.0
193.588165 180.0
193.624481 72.0
193.643875 96.0
193.680573 96.0
193.76091 208.0
193.787277 52.0
193.81839 228.0
193.851654 68.0
193.907501 156.0
193.955582 104.0
194.020782 168.0
194.051224 156.0
194.110428 376.0
194.145493 128.0
194.209946 136.0
194.264771 124.0
194.301865 168.0
194.334122 64.0
194.367416 48.0
194.400726 148.0
194.428467 112.0
194.511734 160.0
194.561356 128.0
194.595016 136.0
194.617233 52.0
194.683044 188.0
194.689667 212.0
194.71283 104.0
194.761642 108.0
194.811646 180.0
194.858871 168.0
194.883881 128.0
194.956787 200.0
195.02005 72.0
195.059799 132.0
195.089539 204.0
195.111786 168.0
195.134018 168.0
195.159866 68.0
195.207748 156.0
195.317566 164.0
195.350952 100.0
195.389359 124.0
195.432495 116.0
195.492889 140.0
195.534546 140.0
195.573547 140.0
195.593033 128.0
195.615311 76.0
195.657059 140.0
195.698822 36.0
195.71965 172.0
195.799072 196.0
195.855942 96.0
195.885422 144.0
195.985718 112.0
196.047028 120.0
196.077499 128.0
196.133423 44.0
196.191025 144.0
196.262314 68.0
196.356476 268.0
196.41011 140.0
196.465332 168.0
196.498734 116.0
196.522186 188.0
196.551758 184.0
196.571289 144.0
196.646637 176.0
196.719208 188.0
196.744339 108.0
196.853973 120.0
196.937012 160.0
197.051544 228.0
197.085754 132.0
197.269531 64.0
197.297485 152.0
197.426102 116.0
197.554764 92.0
197.602325 100.0
197.627502 140.0
197.655487 132.0
197.745041 172.0
197.86261 148.0
197.904602 228.0
198.093552 324.0
198.163101 124.0
198.190308 164.0
198.229538 140.0
198.309036 124.0
198.355194 148.0
198.40892 160.0
198.50145 148.0
198.537903 160.0
198.582779 308.0
198.672531 144.0
198.697784 116.0
198.745026 124.0
198.810028 148.0
198.854935 116.0
198.958786 92.0
199.009323 196.0
199.073914 180.0
199.096039 392.0
199.155411 180.0
199.213348 236.0
199.267715 64.0
199.304245 68.0
199.403946 176.0
199.433517 96.0
199.453201 64.0
199.484116 132.0
199.503799 180.0
199.523468 104.0
199.545959 112.0
199.602203 216.0
199.637146 160.0
199.675323 116.0
199.756882 180.0
199.787292 124.0
199.858871 172.0
199.920929 252.0
199.956665 224.0
200.032654 188.0
200.10701 17040.0
200.183868 96.0
200.204193 52.0
200.241089 184.0
200.281158 48.0
200.311279 68.0
200.354996 112.0
200.384689 200.0
200.407227 116.0
200.454987 156.0
200.486588 72.0
200.522766 180.0
200.541626 136.0
200.589111 148.0
200.618607 56.0
200.649231 156.0
200.734192 148.0
200.808807 228.0
200.868851 156.0
200.897781 32.0
200.948563 280.0
200.996536 64.0
201.076996 1612.0
201.109512 2932.0
201.163055 72.0
201.210205 108.0
201.233902 168.0
201.264694 100.0
201.305298 84.0
201.389191 136.0
201.476517 188.0
201.496292 188.0
201.51889 176.0
201.589539 72.0
201.614975 100.0
201.685623 72.0
201.73085 68.0
201.787399 220.0
201.826981 132.0
201.877884 196.0
201.897675 48.0
201.94989 84.0
201.987732 472.0
202.01506 168.0
202.08165 584.0
202.116257 452.0
202.168243 156.0
202.223236 56.0
202.241791 172.0
202.272202 172.0
202.327774 84.0
202.355682 168.0
202.388062 68.0
202.437469 108.0
202.525986 168.0
202.613815 76.0
202.633636 152.0
202.690994 100.0
202.735641 80.0
202.780487 180.0
202.812302 176.0
202.844925 108.0
202.922363 216.0
202.972977 144.0
202.993866 516.0
203.02684 728.0
203.051437 316.0
203.093307 43224.0
203.162018 140.0
203.187286 188.0
203.230804 152.0
203.238464 76.0
203.247681 224.0
203.296478 200.0
203.301193 152.0
203.31572 92.0
203.343979 52.0
203.375626 192.0
203.476898 172.0
203.510101 232.0
203.553345 112.0
203.589554 144.0
203.741898 132.0
203.819656 52.0
203.849487 128.0
203.966522 200.0
204.004395 144.0
204.029205 564.0
204.096298 5152.0
204.147141 96.0
204.164795 144.0
204.20343 40.0
204.268845 184.0
204.297302 76.0
204.322906 112.0
204.369629 136.0
204.394028 56.0
204.425339 40.0
204.448105 56.0
204.559906 184.0
204.610352 104.0
204.653061 148.0
204.704391 152.0
204.726318 184.0
204.766968 132.0
204.801147 120.0
204.87236 256.0
204.897125 184.0
204.930054 64.0
204.981979 328.0
205.016388 304.0
205.053741 140.0
205.105621 820.0
205.137375 192.0
205.202957 144.0
205.292572 112.0
205.332474 228.0
205.388321 80.0
205.445374 40.0
205.467087 52.0
205.516693 124.0
205.573761 176.0
205.639404 116.0
205.685074 140.0
205.72789 148.0
205.790695 48.0
205.870941 164.0
205.924469 180.0
205.975037 300.0
206.022034 176.0
206.046158 84.0
206.115967 784.0
206.187759 60.0
206.244919 144.0
206.275696 136.0
206.333542 52.0
206.444717 100.0
206.482559 104.0
206.513702 84.0
206.593689 108.0
206.611908 156.0
206.66246 124.0
206.71109 160.0
206.774063 192.0
206.796951 104.0
206.816986 116.0
206.84848 104.0
206.934357 172.0
206.961411 152.0
206.985275 164.0
207.003983 128.0
207.119003 136.0
207.150299 220.0
207.206451 112.0
207.235092 184.0
207.256851 176.0
207.280945 92.0
207.300293 172.0
207.343994 56.0
207.364044 40.0
207.404175 120.0
207.541779 244.0
207.642151 272.0
207.696655 176.0
207.751144 216.0
207.871658 124.0
207.917572 116.0
207.952011 120.0
207.972107 236.0
208.02594 280.0
208.050888 148.0
208.075409 368.0
208.120224 196.0
208.157486 188.0
208.210403 48.0
208.256363 128.0
208.293701 72.0
208.378662 132.0
208.46608 92.0
208.486206 168.0
208.586792 256.0
208.790939 132.0
208.81395 52.0
208.841278 160.0
208.940521 188.0
209.01532 192.0
209.04245 96.0
209.084534 152.0
209.105698 168.0
209.23407 116.0
209.354996 128.0
209.382431 128.0
209.452927 156.0
209.499023 44.0
209.527832 136.0
209.61441 160.0
209.833328 96.0
209.885223 76.0
209.998779 164.0
210.032303 208.0
210.05249 144.0
210.089996 104.0
210.113083 192.0
210.167282 188.0
210.339981 204.0
210.372803 124.0
210.528046 204.0
210.551834 128.0
210.572052 140.0
210.628647 212.0
210.658401 236.0
210.742477 220.0
210.780045 68.0
210.814728 120.0
210.850891 124.0
210.989471 244.0
211.118271 124.0
211.152969 132.0
211.173218 80.0
211.245529 64.0
211.314957 164.0
211.427811 184.0
211.501526 120.0
211.591827 176.0
211.649673 280.0
211.699936 40.0
211.728897 160.0
211.78392 132.0
211.832718 152.0
211.94516 144.0
211.978043 176.0
212.015701 100.0
212.041794 72.0
212.082809 132.0
212.357986 140.0
212.418732 100.0
212.440887 144.0
212.526077 152.0
212.584106 76.0
212.621826 104.0
212.650864 124.0
212.71048 156.0
212.73793 156.0
212.839554 144.0
212.967331 136.0
212.987671 128.0
213.083649 196.0
213.147568 200.0
213.220108 128.0
213.240448 332.0
213.281143 128.0
213.385788 128.0
213.513733 100.0
213.577728 84.0
213.621353 152.0
213.691177 68.0
213.713669 220.0
213.836685 120.0
213.909454 244.0
213.947296 92.0
213.982224 100.0
214.014252 124.0
214.083588 188.0
214.110352 136.0
214.152252 208.0
214.197723 176.0
214.240219 184.0
214.269073 172.0
214.293869 96.0
214.31427 152.0
214.334656 52.0
214.404602 72.0
214.432602 184.0
214.462891 168.0
214.500778 144.0
214.565704 164.0
214.596985 100.0
214.629059 116.0
214.664368 112.0
214.716553 136.0
214.776703 160.0
214.843338 140.0
214.864639 208.0
214.911987 176.0
214.95285 256.0
214.973267 112.0
214.995468 184.0
215.032608 120.0
215.092133 11352.0
215.180511 112.0
215.250595 164.0
215.291473 72.0
215.34404 260.0
215.392532 312.0
215.541992 284.0
215.583603 144.0
215.703445 184.0
215.726822 132.0
215.787216 188.0
215.823303 144.0
215.946121 204.0
215.97612 284.0
216.008835 128.0
216.098236 1748.0
216.193924 80.0
216.229919 96.0
216.273895 132.0
216.335922 136.0
216.39093 136.0
216.416519 156.0
216.464127 96.0
216.557846 148.0
216.581909 92.0
216.651855 172.0
216.762054 164.0
216.824463 220.0
216.844971 156.0
216.891006 96.0
216.917603 196.0
216.93187 68.0
216.978424 144.0
217.032593 124.0
217.107727 1804.0
217.158691 116.0
217.199753 140.0
217.222687 196.0
217.287766 68.0
217.328506 72.0
217.35231 124.0
217.375778 160.0
217.428604 136.0
217.48143 160.0
217.543076 128.0
217.595917 148.0
217.617828 96.0
217.635239 72.0
217.670715 120.0
217.722824 128.0
217.74379 124.0
217.763306 232.0
217.816177 64.0
217.853256 140.0
217.901367 48.0
217.969116 136.0
217.992462 72.0
218.048294 216.0
218.117203 11888.0
218.174255 80.0
218.213913 188.0
218.257767 92.0
218.288528 128.0
218.371704 164.0
218.402267 116.0
218.446457 136.0
218.518784 56.0
218.565857 164.0
218.601181 104.0
218.665726 60.0
218.744415 124.0
218.783661 108.0
218.83371 116.0
218.986847 104.0
219.067505 136.0
219.119888 1932.0
219.160645 76.0
219.185349 368.0
219.230927 176.0
219.284424 48.0
219.310944 48.0
219.369904 60.0
219.390533 124.0
219.421432 116.0
219.449005 96.0
219.549759 28.0
219.70903 96.0
219.759827 148.0
219.794601 64.0
219.915604 92.0
219.968735 116.0
219.99234 112.0
220.023315 420.0
220.128464 316.0
220.163589 84.0
220.228577 96.0
220.266968 104.0
220.339203 168.0
220.411743 196.0
220.449249 156.0
220.488571 100.0
220.509262 80.0
220.578598 188.0
220.623489 136.0
220.677094 144.0
220.713242 108.0
220.736893 92.0
220.794678 148.0
220.803726 80.0
220.811737 116.0
221.026779 132.0
221.130356 132.0
221.159958 204.0
221.1866 64.0
221.219086 176.0
221.275406 140.0
221.349426 108.0
221.369217 88.0
221.390884 188.0
221.417816 128.0
221.450119 132.0
221.479736 72.0
221.509354 36.0
221.550827 116.0
221.633789 104.0
221.942062 76.0
222.025726 148.0
222.052368 180.0
222.089844 1544.0
222.131866 192.0
222.158554 136.0
222.182297 148.0
222.206024 192.0
222.268631 148.0
222.334366 144.0
222.443436 108.0
222.669098 192.0
222.704742 104.0
222.790894 352.0
222.826538 232.0
222.942429 80.0
222.99295 136.0
223.096878 984.0
223.147522 104.0
223.211578 76.0
223.292648 184.0
223.334869 196.0
223.490631 124.0
223.528259 140.0
223.571396 228.0
223.668137 48.0
223.788757 152.0
224.039337 168.0
224.083786 104.0
224.105453 208.0
224.213181 60.0
224.258377 196.0
224.317505 88.0
224.430801 176.0
224.532181 88.0
224.55307 112.0
224.600784 112.0
224.624649 124.0
224.863953 168.0
224.988724 156.0
225.051422 164.0
225.099197 148.0
225.121185 120.0
225.143188 120.0
225.290344 168.0
225.371017 40.0
225.454681 236.0
225.476318 116.0
225.502502 96.0
225.571243 48.0
225.592178 152.0
225.660934 156.0
225.795502 68.0
225.863663 172.0
225.885239 136.0
225.962082 168.0
225.989944 216.0
226.022858 148.0
226.109634 116.0
226.172485 44.0
226.244339 156.0
226.295227 136.0
226.355118 116.0
226.387558 96.0
226.392044 144.0
226.498871 336.0
226.552795 128.0
226.600723 144.0
226.846466 120.0
226.906433 116.0
226.987381 36.0
227.090576 156.0
227.191345 200.0
227.227341 116.0
227.269348 180.0
227.299347 176.0
227.359375 76.0
227.46347 164.0
227.512451 136.0
227.60553 204.0
227.731659 224.0
227.7677 120.0
227.839798 68.0
227.911911 80.0
227.967285 84.0
228.012344 176.0
228.041122 124.0
228.081375 216.0
228.128296 168.0
228.17038 120.0
228.218918 224.0
228.272614 52.0
228.307678 140.0
228.374863 184.0
228.398926 204.0
228.42601 84.0
228.455673 144.0
228.479218 128.0
228.588135 144.0
228.621567 240.0
228.664917 116.0
228.699829 140.0
228.763031 192.0
228.811203 128.0
228.837524 196.0
228.988632 500.0
229.018982 184.0
229.043549 180.0
229.106873 7208.0
229.166107 148.0
229.220016 44.0
229.26001 56.0
229.320282 160.0
229.344406 112.0
229.404114 168.0
229.455933 120.0
229.525284 212.0
229.587021 160.0
229.694427 156.0
229.742447 108.0
229.808823 116.0
229.834946 152.0
229.869171 148.0
229.926498 52.0
229.950653 176.0
229.971771 132.0
230.003708 148.0
230.063126 384.0
230.105927 1568.0
230.196548 88.0
230.216324 216.0
230.278885 56.0
230.301453 128.0
230.31221 64.0
230.320297 112.0
230.364319 148.0
230.401215 188.0
230.443771 40.0
230.483658 60.0
230.506317 100.0
230.536545 104.0
230.587921 116.0
230.64682 200.0
230.682678 164.0
230.702087 60.0
230.726959 128.0
230.771698 196.0
230.805573 96.0
230.844879 176.0
230.88118 80.0
230.990814 608.0
231.127029 2136.0
231.211609 180.0
231.26329 160.0
231.384811 72.0
231.424149 120.0
231.491364 76.0
231.533966 40.0
231.564972 184.0
231.594086 240.0
231.646942 140.0
231.695404 108.0
231.716614 140.0
231.752975 176.0
231.794128 76.0
231.901474 44.0
231.937836 116.0
231.976486 364.0
232.051437 136.0
232.083084 136.0
232.124084 540.0
232.207687 52.0
232.344193 56.0
232.365433 132.0
232.386673 84.0
232.501984 116.0
232.550537 140.0
232.575851 100.0
232.649063 140.0
232.684097 52.0
232.708389 96.0
232.772156 148.0
232.81163 144.0
232.861237 144.0
232.902756 136.0
232.936157 92.0
232.961502 184.0
233.002777 112.0
233.088074 128.0
233.130997 584.0
233.166519 140.0
233.197815 180.0
233.246109 60.0
233.309952 128.0
233.376114 136.0
233.419403 144.0
233.696198 172.0
233.726624 108.0
233.836182 148.0
233.887924 104.0
233.997513 180.0
234.034439 128.0
234.064499 108.0
234.10408 204.0
234.13945 172.0
234.15979 152.0
234.233353 132.0
234.271606 68.0
234.329498 120.0
234.381287 168.0
234.408569 168.0
234.432037 184.0
234.528351 164.0
234.568695 188.0
234.646454 156.0
234.753174 116.0
234.841629 148.0
234.929398 300.0
234.975845 132.0
235.067383 144.0
235.133194 104.0
235.161987 116.0
235.196518 96.0
235.226089 172.0
235.305466 100.0
235.33905 108.0
235.4673 104.0
235.507004 84.0
235.589111 284.0
235.659485 180.0
235.748367 128.0
235.903442 196.0
235.994522 212.0
236.005905 112.0
236.017105 140.0
236.078232 424.0
236.133392 208.0
236.216156 208.0
236.262054 128.0
236.314056 172.0
236.347717 116.0
236.387985 148.0
236.531342 160.0
236.659927 200.0
236.846725 128.0
236.877365 176.0
236.999908 132.0
237.061188 180.0
237.081802 244.0
237.114334 308.0
237.232834 128.0
237.291077 112.0
237.321747 188.0
237.380005 96.0
237.407608 192.0
237.482651 188.0
237.545624 184.0
237.606979 84.0
237.699036 144.0
237.75499 176.0
237.894272 196.0
237.962814 132.0
237.996292 304.0
238.1147 140.0
238.153702 160.0
238.236328 104.0
238.316208 176.0
238.396103 68.0
238.417618 196.0
238.491379 188.0
238.530243 124.0
238.571304 228.0
238.743484 84.0
238.814865 132.0
238.983414 172.0
239.006241 128.0
239.051117 196.0
239.128052 180.0
239.158829 100.0
239.192688 84.0
239.241943 64.0
239.368179 160.0
239.435928 156.0
239.466385 140.0
239.532593 116.0
239.614594 120.0
239.638031 184.0
239.670044 208.0
239.713196 176.0
239.802719 76.0
239.86113 140.0
239.882706 164.0
239.913528 152.0
239.999695 248.0
240.134186 100.0
240.205185 152.0
240.246597 148.0
240.436478 148.0
240.528473 140.0
240.564453 176.0
240.595322 36.0
240.63237 144.0
240.660156 160.0
240.742783 116.0
240.777496 196.0
240.862793 124.0
240.996826 124.0
241.067902 112.0
241.129135 152.0
241.169891 48.0
241.231705 112.0
241.259369 152.0
241.324448 148.0
241.420319 128.0
241.46756 172.0
241.578049 208.0
241.649216 176.0
241.680908 160.0
241.71109 204.0
241.797745 120.0
241.898972 148.0
242.009964 324.0
242.037994 112.0
242.104568 1600.0
242.237427 128.0
242.259109 128.0
242.364441 260.0
242.389236 164.0
242.445145 92.0
242.497696 164.0
242.528702 192.0
242.553497 136.0
242.575195 96.0
242.606186 52.0
242.675354 116.0
242.755981 168.0
242.888382 188.0
242.913193 148.0
242.950424 56.0
243.022095 232.0
243.120697 4476.0
243.157669 96.0
243.168976 120.0
243.198669 52.0
243.273163 72.0
243.335251 48.0
243.572647 100.0
243.618942 152.0
243.67543 120.0
243.704865 152.0
243.788757 220.0
243.83226 80.0
243.875778 80.0
243.919296 44.0
243.941055 144.0
243.971695 140.0
244.012848 208.0
244.130219 6584.0
244.187943 260.0
244.219391 148.0
244.252014 224.0
244.411835 108.0
244.525818 36.0
244.55072 72.0
244.575623 68.0
244.618286 244.0
244.697037 52.0
244.733154 116.0
244.789886 180.0
244.824692 164.0
244.846497 88.0
244.88298 56.0
244.941574 160.0
245.062286 192.0
245.13765 6420.0
245.180664 140.0
245.214127 116.0
245.246429 44.0
245.265045 128.0
245.292053 108.0
245.320114 104.0
245.419876 40.0
245.464478 132.0
245.490265 132.0
245.537628 168.0
245.566437 108.0
245.654846 140.0
245.728653 184.0
245.813629 136.0
245.953339 196.0
245.99704 120.0
246.138092 1180.0
246.170486 196.0
246.217026 68.0
246.290573 152.0
246.381165 164.0
246.423172 84.0
246.462387 60.0
246.508499 172.0
246.583481 112.0
246.613037 156.0
246.668655 144.0
246.702286 212.0
246.759323 124.0
246.800247 132.0
246.824982 96.0
246.862503 132.0
246.91539 132.0
246.96228 124.0
246.990738 128.0
247.037659 160.0
247.081451 28.0
247.106491 72.0
247.140366 92.0
247.147995 164.0
247.184708 140.0
247.234787 108.0
247.266083 140.0
247.31369 132.0
247.349106 120.0
247.483963 152.0
247.556671 112.0
247.591675 120.0
247.629852 104.0
247.651184 164.0
247.690491 204.0
247.726364 76.0
247.810944 144.0
247.864212 148.0
247.889282 128.0
247.911224 204.0
247.973801 140.0
248.017776 112.0
248.082092 232.0
248.131149 196.0
248.194214 144.0
248.271729 80.0
248.334457 52.0
248.403473 204.0
248.42543 184.0
248.456802 68.0
248.57579 160.0
248.645065 196.0
248.698517 140.0
248.827133 164.0
248.849106 156.0
248.927612 152.0
249.037521 104.0
249.092438 124.0
249.135681 244.0
249.244873 40.0
249.455444 204.0
249.477448 140.0
249.562332 72.0
249.617401 132.0
249.656662 128.0
249.686356 148.0
249.722382 116.0
249.875778 200.0
249.930344 140.0
249.983841 104.0
250.005859 144.0
250.10495 140.0
250.13385 240.0
250.207306 256.0
250.347137 156.0
250.424042 344.0
250.506485 84.0
250.629364 172.0
250.701828 272.0
250.725113 176.0
250.7491 204.0
250.816559 160.0
250.849686 132.0
250.8815 104.0
250.909866 144.0
250.941391 148.0
251.064377 100.0
251.117065 136.0
251.159988 216.0
251.25119 176.0
251.361588 224.0
251.436111 120.0
251.490295 92.0
251.514389 152.0
251.526077 96.0
251.602814 124.0
251.648132 140.0
251.682877 92.0
251.73024 148.0
251.758652 148.0
251.802628 52.0
251.823807 108.0
251.859726 144.0
251.921387 100.0
251.974197 168.0
252.058258 128.0
252.114288 168.0
252.150406 96.0
252.197815 40.0
252.283157 268.0
252.336914 60.0
252.401535 284.0
252.478821 208.0
252.609802 152.0
252.63736 152.0
252.687973 104.0
252.812195 200.0
252.885941 188.0
252.931641 132.0
252.966461 160.0
253.023453 148.0
253.045609 152.0
253.131348 532.0
253.197601 180.0
253.219772 244.0
253.248276 36.0
253.283127 56.0
253.367859 96.0
253.409836 160.0
253.4785 84.0
253.523911 236.0
253.605621 128.0
253.647522 64.0
253.710922 268.0
253.737259 52.0
253.799698 152.0
253.859955 200.0
253.889648 196.0
253.955322 56.0
253.999496 160.0
254.024185 148.0
254.070557 100.0
254.118561 248.0
254.140762 272.0
254.193024 116.0
254.294067 92.0
254.329498 208.0
254.359848 128.0
254.406448 316.0
254.525146 108.0
254.596191 132.0
254.635803 152.0
254.658173 204.0
254.742294 180.0
254.7836 64.0
254.866882 192.0
254.9478 124.0
254.98378 112.0
255.01239 128.0
255.071518 208.0
255.116592 248.0
255.140671 212.0
255.204483 196.0
255.234924 100.0
255.295334 128.0
255.323959 72.0
255.388596 212.0
255.470474 132.0
255.528702 188.0
255.572083 72.0
255.608429 132.0
255.654816 156.0
255.692368 160.0
255.747116 116.0
255.806442 388.0
255.846481 112.0
255.868088 164.0
255.910904 236.0
255.950378 492.0
255.963409 268.0
256.003845 47208.0
256.06842 196.0
256.094299 120.0
256.125763 188.0
256.15152 208.0
256.242523 84.0
256.283508 96.0
256.320679 124.0
256.360596 64.0
256.370392 40.0
256.382721 92.0
256.422333 60.0
256.448578 136.0
256.483856 176.0
256.522644 60.0
256.553802 148.0
256.596436 220.0
256.645477 240.0
256.728394 36.0
256.762512 144.0
256.831726 100.0
256.86972 128.0
256.900635 48.0
256.950836 348.0
257.007599 5084.0
257.082489 56.0
257.134918 104.0
257.192963 180.0
257.229309 104.0
257.278839 140.0
257.310547 84.0
257.357025 60.0
257.410065 152.0
257.419128 204.0
257.449615 124.0
257.500732 92.0
257.539062 44.0
257.564606 148.0
257.586975 52.0
257.678986 240.0
257.740326 152.0
257.775482 108.0
257.833862 92.0
257.852325 172.0
257.898499 176.0
257.922485 152.0
257.954407 524.0
258.000916 28680.0
258.090057 144.0
258.144592 404.0
258.211853 96.0
258.237427 80.0
258.277008 380.0
258.319 156.0
258.364777 212.0
258.403748 132.0
258.449738 60.0
258.493835 68.0
258.517639 88.0
258.559357 100.0
258.623993 108.0
258.6521 128.0
258.698639 156.0
258.730072 148.0
258.755981 196.0
258.788574 172.0
258.824677 148.0
258.853485 116.0
258.898315 72.0
258.94635 108.0
259.002899 2228.0
259.048279 108.0
259.067352 180.0
259.154938 15984.0
259.238739 120.0
259.277344 72.0
259.308411 132.0
259.375549 112.0
259.407776 40.0
259.439484 256.0
259.515594 132.0
259.534515 180.0
259.607178 80.0
259.642944 68.0
259.673889 72.0
259.69635 180.0
259.73764 96.0
259.748444 84.0
259.759613 44.0
259.783691 164.0
259.85675 148.0
259.88562 100.0
259.936951 112.0
259.99704 1724.0
260.119141 256.0
260.158264 3672.0
260.24057 68.0
260.270782 72.0
260.302917 76.0
260.341431 80.0
260.394135 68.0
260.429443 136.0
260.479553 32.0
260.525696 164.0
260.53952 60.0
260.549286 204.0
260.575928 100.0
260.627319 116.0
260.671295 188.0
260.698029 156.0
260.743011 136.0
260.799133 96.0
260.829803 60.0
260.860077 148.0
260.90799 208.0
260.943298 128.0
261.003967 196.0
261.045227 152.0
261.093445 100.0
261.16626 528.0
261.206024 100.0
261.247833 144.0
261.276794 168.0
261.312012 68.0
261.354004 340.0
261.384796 92.0
261.44342 188.0
261.502045 92.0
261.600403 164.0
261.69342 84.0
261.74115 112.0
261.786285 112.0
261.859436 92.0
261.892731 200.0
261.968079 100.0
262.003418 132.0
262.026947 100.0
262.052704 128.0
262.088135 180.0
262.117157 144.0
262.166687 228.0
262.206543 76.0
262.284729 140.0
262.322052 104.0
262.345978 88.0
262.384674 48.0
262.413696 156.0
262.452393 84.0
262.501312 136.0
262.524902 180.0
262.580505 172.0
262.649261 160.0
262.794281 212.0
262.826538 124.0
262.881409 80.0
262.940887 120.0
262.997589 92.0
263.029877 172.0
263.068604 72.0
263.110565 132.0
263.156067 132.0
263.207428 88.0
263.291382 100.0
263.317657 116.0
263.404449 152.0
263.436737 88.0
263.480072 176.0
263.553955 168.0
263.614716 180.0
263.691711 168.0
263.818054 132.0
263.853638 36.0
263.940918 56.0
263.994293 148.0
264.01709 152.0
264.040588 108.0
264.079773 176.0
264.105438 196.0
264.159027 272.0
264.271423 184.0
264.299957 72.0
264.345276 268.0
264.451141 100.0
264.477966 104.0
264.527039 124.0
264.558899 56.0
264.594513 208.0
264.720795 120.0
264.853577 168.0
264.931305 40.0
265.015533 92.0
265.085602 256.0
265.09079 152.0
265.168365 408.0
265.187927 188.0
265.252563 116.0
265.324982 152.0
265.350037 136.0
265.371033 88.0
265.414215 108.0
265.860077 160.0
265.883026 148.0
265.955994 132.0
265.998199 128.0
266.088837 284.0
266.13327 60.0
266.191925 72.0
266.204651 48.0
266.2547 264.0
266.293671 120.0
266.469086 216.0
266.504852 104.0
266.537323 116.0
266.569824 84.0
266.686829 152.0
266.721558 120.0
266.752808 176.0
266.862366 48.0
266.946899 96.0
267.105804 136.0
267.142059 148.0
267.184357 44.0
267.251526 168.0
267.324249 132.0
267.356812 140.0
267.383484 100.0
267.421906 176.0
267.444672 116.0
267.578156 132.0
267.638214 108.0
267.666046 132.0
267.708405 212.0
267.780029 156.0
267.871246 128.0
267.91684 240.0
267.959198 116.0
268.009491 128.0
268.035675 144.0
268.099304 156.0
268.138428 220.0
268.239471 112.0
268.275757 148.0
268.415527 172.0
268.575104 56.0
268.658203 228.0
268.754761 56.0
268.872223 132.0
268.911407 364.0
268.968628 116.0
269.011169 456.0
269.060577 168.0
269.1138 136.0
269.146912 324.0
269.170837 164.0
269.355469 48.0
269.378326 84.0
269.436157 176.0
269.515533 164.0
269.620117 92.0
269.731232 132.0
269.878265 136.0
269.908203 64.0
270.000763 156.0
270.133087 1520.0
270.198883 128.0
270.241425 88.0
270.277405 104.0
270.336304 108.0
270.378845 56.0
270.418121 108.0
270.5065 52.0
270.558868 184.0
270.629883 192.0
270.651428 164.0
270.722595 92.0
270.74469 64.0
270.794647 108.0
270.858643 148.0
270.915833 124.0
270.951141 88.0
271.003387 288.0
271.063293 156.0
271.155029 13460.0
271.217316 196.0
271.253357 184.0
271.282501 184.0
271.345428 108.0
271.374664 68.0
271.397614 320.0
271.453369 128.0
271.508667 148.0
271.56488 52.0
271.637024 76.0
271.673126 88.0
271.725067 404.0
271.750305 84.0
271.762939 136.0
271.791229 152.0
271.879822 192.0
271.910797 176.0
271.936584 108.0
271.981781 132.0
272.035675 92.0
272.06897 76.0
272.158936 3320.0
272.211395 152.0
272.309906 108.0
272.339478 176.0
272.384644 176.0
272.470978 120.0
272.497162 48.0
272.529999 80.0
272.572815 176.0
272.642517 172.0
272.684479 120.0
272.740326 56.0
272.77478 76.0
272.836975 192.0
272.957336 52.0
273.001678 180.0
273.11557 144.0
273.17038 2008.0
273.243469 76.0
273.3974 144.0
273.454071 104.0
273.487 164.0
273.546234 96.0
273.648315 144.0
273.671356 132.0
273.704285 68.0
273.728912 60.0
273.753265 156.0
273.793182 312.0
273.841217 84.0
273.891602 128.0
273.920135 140.0
273.958313 120.0
274.015381 156.0
274.053741 164.0
274.166077 152.0
274.198059 204.0
274.233063 124.0
274.294006 68.0
274.358948 136.0
274.437714 80.0
274.458069 160.0
274.518188 208.0
274.577545 48.0
274.610535 124.0
274.6633 44.0
274.765564 96.0
274.815063 144.0
274.900848 188.0
274.954315 204.0
275.108978 384.0
275.188019 148.0
275.290405 148.0
275.330017 152.0
275.472046 100.0
275.511688 100.0
275.544739 132.0
275.584381 168.0
275.733093 36.0
275.76944 136.0
275.803772 104.0
275.844025 192.0
275.957855 92.0
276.129822 112.0
276.288605 96.0
276.39447 116.0
276.427551 332.0
276.517822 136.0
276.550018 88.0
276.64502 176.0
276.701355 140.0
276.727661 96.0
276.785065 204.0
276.838043 124.0
276.977142 144.0
277.099731 260.0
277.131226 384.0
277.184052 128.0
277.272034 80.0
277.315125 128.0
277.354187 208.0
277.431122 104.0
277.459503 136.0
277.563751 112.0
277.613495 164.0
277.686462 128.0
277.726257 92.0
277.769012 144.0
277.921265 108.0
278.000458 172.0
278.006592 112.0
278.022461 116.0
278.028809 144.0
278.091248 144.0
278.130859 580.0
278.172028 208.0
278.220703 56.0
278.496582 140.0
278.542816 152.0
278.595947 168.0
278.76889 216.0
278.852295 164.0
278.898712 180.0
278.951538 124.0
278.974792 76.0
278.998077 132.0
279.088257 5696.0
279.161011 148.0
279.184265 32.0
279.227509 116.0
279.270752 48.0
279.387177 136.0
279.425934 104.0
279.57019 84.0
279.596802 124.0
279.706635 172.0
279.743256 80.0
279.769897 140.0
279.793182 132.0
279.816498 92.0
279.873108 280.0
279.916382 72.0
280.022949 148.0
280.059753 164.0
280.094635 1680.0
280.14505 604.0
280.20755 144.0
280.25116 200.0
280.373047 192.0
280.402771 68.0
280.501282 208.0
280.712799 104.0
280.745575 184.0
280.838531 184.0
280.949615 28.0
280.982971 112.0
281.026367 152.0
281.102722 1000.0
281.148102 108.0
281.2099 152.0
281.233246 176.0
281.284943 156.0
281.310028 216.0
281.359344 156.0
281.381378 96.0
281.44577 188.0
281.563782 168.0
281.660645 148.0
281.735352 168.0
281.792542 156.0
281.821014 64.0
281.936523 160.0
282.018982 724.0
282.077393 168.0
282.109497 536.0
282.153137 108.0
282.195343 168.0
282.222107 168.0
282.268707 184.0
282.322418 52.0
282.471832 120.0
282.58667 148.0
282.655151 128.0
282.687073 100.0
282.7341 136.0
282.764038 144.0
282.827637 136.0
282.931396 204.0
282.953033 84.0
283.028259 224.0
283.068665 124.0
283.112244 176.0
283.147522 152.0
283.306488 172.0
283.387878 80.0
283.422394 148.0
283.477356 124.0
283.581238 76.0
283.638245 120.0
283.779022 156.0
283.829315 88.0
283.872925 72.0
283.903107 72.0
283.970184 104.0
284.012299 108.0
284.043488 164.0
284.137207 156.0
284.160461 120.0
284.191589 140.0
284.287018 148.0
284.341309 180.0
284.406372 108.0
284.559509 148.0
284.651428 40.0
284.692688 196.0
284.745483 92.0
284.774109 136.0
284.997223 136.0
285.010132 128.0
285.044464 68.0
285.07547 140.0
285.118378 160.0
285.169464 3416.0
285.22879 260.0
285.266296 44.0
285.404114 28.0
285.444489 56.0
285.500031 108.0
285.526489 164.0
285.562195 96.0
285.719147 180.0
285.783447 204.0
285.80957 148.0
285.874298 140.0
285.955841 68.0
286.005524 184.0
286.16684 3640.0
286.246155 100.0
286.297455 76.0
286.332489 100.0
286.421265 152.0
286.460907 108.0
286.666412 172.0
286.703491 76.0
286.750671 96.0
286.977936 192.0
287.020355 152.0
287.043243 112.0
287.104675 136.0
287.16745 460.0
287.217896 120.0
287.431885 192.0
287.469025 100.0
287.526489 144.0
287.580383 60.0
287.65802 108.0
287.680328 136.0
287.713379 176.0
287.776184 124.0
288.026093 252.0
288.137573 124.0
288.173981 108.0
288.257172 168.0
288.365143 128.0
288.414673 356.0
288.495789 92.0
288.543121 128.0
288.776459 188.0
288.80014 104.0
288.93988 152.0
289.039154 128.0
289.080719 68.0
289.118164 56.0
289.148621 156.0
289.273865 136.0
289.399109 124.0
289.466827 48.0
289.615845 156.0
289.659882 72.0
289.693756 64.0
289.839447 136.0
289.927551 128.0
290.155884 292.0
290.197083 172.0
290.290283 112.0
290.423859 124.0
290.453094 124.0
290.490387 160.0
290.661469 156.0
290.768616 156.0
291.010498 172.0
291.081787 144.0
291.126953 236.0
291.164154 104.0
291.213379 228.0
291.250763 120.0
291.294922 112.0
291.339081 64.0
291.427399 92.0
291.45459 96.0
291.519165 156.0
291.587128 144.0
291.85907 140.0
291.940704 172.0
291.988312 100.0
292.042725 112.0
292.086945 128.0
292.155731 1444.0
292.237732 136.0
292.312958 112.0
292.408478 112.0
292.490112 136.0
292.563354 200.0
292.59671 216.0
292.749359 160.0
292.825531 136.0
292.859619 156.0
292.99585 128.0
293.101105 1864.0
293.148254 452.0
293.191437 272.0
293.265076 32.0
293.329834 92.0
293.496887 96.0
293.52417 108.0
293.578735 112.0
293.609406 140.0
293.715149 64.0
293.74585 152.0
293.77655 112.0
293.829498 132.0
293.858429 48.0
293.909607 128.0
293.993134 144.0
294.023041 168.0
294.050476 156.0
294.108185 452.0
294.161255 120.0
294.237274 168.0
294.294403 240.0
294.397552 128.0
294.469482 52.0
294.520691 144.0
294.626373 120.0
294.712006 100.0
294.770111 84.0
294.794037 32.0
294.882874 92.0
294.940979 172.0
294.981995 36.0
295.046967 320.0
295.113007 228.0
295.144745 448.0
295.187134 120.0
295.33905 152.0
295.402618 208.0
295.516846 336.0
295.593719 112.0
295.696869 84.0
295.772186 228.0
295.87146 280.0
296.033081 752.0
296.148102 116.0
296.155823 92.0
296.167786 120.0
296.217316 92.0
296.251587 120.0
296.33725 32.0
296.453735 92.0
296.554077 204.0
296.588074 244.0
296.761963 100.0
296.925018 144.0
296.967987 80.0
297.044769 176.0
297.082458 184.0
297.130646 192.0
297.216492 184.0
297.269073 148.0
297.355682 112.0
297.40033 172.0
297.424347 136.0
297.455231 56.0
297.517029 56.0
297.544495 200.0
297.611328 248.0
297.648041 180.0
297.726074 172.0
297.86731 60.0
297.911957 204.0
297.953186 104.0
297.991821 136.0
298.030426 528.0
298.118103 76.0
298.164825 1900.0
298.296844 36.0
298.372101 152.0
298.399963 80.0
298.424042 32.0
298.506561 144.0
298.575043 144.0
298.609741 144.0
298.651001 128.0
298.74585 112.0
298.829895 156.0
298.855377 168.0
298.906921 128.0
298.967529 132.0
299.012268 148.0
299.076324 200.0
299.173584 8176.0
299.255493 104.0
299.322113 140.0
299.392822 144.0
299.56662 112.0
299.601074 52.0
299.63208 160.0
299.683777 128.0
299.734406 120.0
299.795532 92.0
299.922852 120.0
300.016724 136.0
300.131866 64.0
300.178436 1576.0
300.245636 88.0
300.297394 240.0
300.435364 52.0
300.4664 160.0
300.504364 108.0
300.552673 104.0
300.585205 140.0
300.632019 80.0
300.680359 96.0
300.745941 120.0
300.877106 48.0
300.929718 164.0
300.99707 128.0
301.177917 176.0
301.250061 112.0
301.27771 156.0
301.319153 128.0
301.395172 60.0
301.457367 76.0
301.53891 136.0
301.592163 156.0
301.678589 48.0
301.799591 128.0
301.868744 236.0
301.959442 124.0
301.986328 120.0
302.121002 204.0
302.152374 196.0
302.190918 140.0
302.236084 244.0
302.266541 216.0
302.403473 240.0
302.515747 136.0
302.609222 224.0
302.650757 56.0
302.685394 92.0
302.723267 120.0
302.816986 68.0
302.858551 148.0
302.980835 136.0
303.010986 120.0
303.05603 132.0
303.120056 540.0
303.163452 52.0
303.190674 144.0
303.22583 60.0
303.315948 132.0
303.371399 120.0
303.5672 128.0
303.648804 140.0
303.841827 112.0
303.908966 140.0
303.940216 36.0
304.007507 132.0
304.033905 156.0
304.11026 204.0
304.160858 148.0
304.256042 120.0
304.287292 132.0
304.349792 132.0
304.394928 156.0
304.436401 148.0
304.473328 112.0
304.599854 140.0
304.846527 172.0
304.93689 92.0
305.013519 148.0
305.102264 428.0
305.14444 320.0
305.18512 280.0
305.23584 276.0
305.382019 148.0
305.473877 64.0
305.524536 136.0
305.594116 156.0
305.755035 136.0
305.848145 108.0
305.97348 96.0
306.001343 160.0
306.135376 760.0
306.181824 500.0
306.245087 124.0
306.300812 108.0
306.349609 96.0
306.38443 140.0
306.500427 176.0
306.539612 172.0
306.656219 68.0
306.750336 116.0
306.81308 80.0
306.928162 124.0
307.046722 72.0
307.119293 2912.0
307.190155 192.0
307.30899 64.0
307.336243 128.0
307.364166 256.0
307.399048 160.0
307.54422 168.0
307.65387 164.0
307.702728 176.0
307.762085 220.0
307.78653 128.0
307.862396 188.0
307.943665 92.0
307.986908 168.0
308.021759 272.0
308.121765 692.0
308.150818 116.0
308.217499 148.0
308.265076 104.0
308.324493 76.0
308.453827 36.0
308.501007 136.0
308.604279 100.0
308.639099 184.0
308.674072 116.0
308.955658 268.0
309.051849 48.0
309.145203 160.0
309.240814 76.0
309.300323 48.0
309.380829 48.0
309.482361 56.0
309.528534 176.0
309.821106 28.0
309.904327 76.0
309.990295 192.0
310.067383 200.0
310.126953 120.0
310.166077 880.0
310.221619 132.0
310.281189 128.0
310.305756 92.0
310.330292 96.0
310.394012 208.0
310.453796 108.0
310.498596 160.0
310.547699 184.0
310.596802 192.0
310.631897 76.0
310.884521 48.0
310.993317 236.0
311.021393 196.0
311.169342 292.0
311.27417 60.0
311.301971 96.0
311.43924 96.0
311.513 164.0
311.657806 292.0
311.714966 156.0
311.765961 116.0
311.815308 112.0
311.896027 168.0
311.980377 100.0
312.029297 852.0
312.111176 200.0
312.14212 252.0
312.166718 112.0
312.222992 92.0
312.286316 164.0
312.321472 160.0
312.353119 124.0
312.377747 132.0
312.465698 108.0
312.518494 72.0
312.668549 124.0
312.712036 140.0
312.748932 124.0
312.781219 188.0
312.863403 180.0
312.940857 104.0
313.028412 416.0
313.06662 128.0
313.123962 92.0
313.15918 160.0
313.222595 72.0
313.257812 160.0
313.407623 164.0
313.504456 292.0
313.534973 108.0
313.660919 140.0
313.726501 152.0
313.789948 96.0
313.839325 156.0
313.980377 120.0
314.024475 672.0
314.079742 120.0
314.12851 140.0
314.152557 108.0
314.195526 40.0
314.227295 176.0
314.280212 184.0
314.393127 124.0
314.424896 44.0
314.573151 116.0
314.601379 192.0
314.816772 40.0
314.915649 396.0
314.979248 212.0
315.032227 276.0
315.113464 108.0
315.177063 116.0
315.237152 128.0
315.33609 188.0
315.392639 56.0
315.420929 180.0
315.650726 160.0
315.707306 116.0
315.761719 136.0
315.838165 84.0
315.905853 120.0
315.958466 104.0
315.993835 152.0
316.023834 92.0
316.124756 36.0
316.158722 140.0
316.191528 296.0
316.248627 156.0
316.616821 172.0
316.850616 128.0
316.910858 120.0
317.027771 116.0
317.134094 156.0
317.222717 120.0
317.31134 204.0
317.428131 132.0
317.509918 136.0
317.54538 152.0
317.658905 188.0
317.701477 228.0
317.76532 84.0
317.836273 120.0
317.962921 164.0
318.049225 104.0
318.158569 144.0
318.290649 112.0
318.329681 108.0
318.353851 60.0
318.418488 44.0
318.443329 148.0
318.514374 164.0
318.54715 160.0
318.695557 60.0
318.763062 156.0
318.809265 180.0
318.898132 208.0
318.923004 132.0
319.018982 108.0
319.072296 136.0
319.143005 264.0
319.182526 160.0
319.213837 252.0
319.26947 364.0
319.324768 144.0
319.353241 36.0
319.424377 208.0
319.627167 128.0
319.65564 88.0
319.684082 48.0
319.737488 156.0
319.819336 96.0
319.904755 204.0
319.929688 104.0
319.980774 148.0
320.029388 132.0
320.072113 76.0
320.102386 120.0
320.15213 2576.0
320.243042 48.0
320.282227 96.0
320.357086 160.0
320.381958 100.0
320.431854 196.0
320.524475 44.0
320.595764 100.0
320.713379 56.0
320.788208 120.0
320.861755 204.0
321.041382 124.0
321.084167 84.0
321.156311 5564.0
321.22287 176.0
321.275543 148.0
321.391113 140.0
321.426636 116.0
321.52655 124.0
321.580139 260.0
321.602661 200.0
321.679474 128.0
321.769287 136.0
321.815704 52.0
321.865692 64.0
322.008545 160.0
322.165802 11040.0
322.294312 40.0
322.390198 48.0
322.471558 180.0
322.551636 68.0
322.584839 44.0
322.639526 96.0
322.687469 236.0
322.747589 64.0
322.834076 204.0
322.859131 120.0
322.888519 144.0
322.932892 108.0
323.111298 168.0
323.166656 1148.0
323.215271 124.0
323.332001 156.0
323.35556 116.0
323.406525 120.0
323.43158 252.0
323.524658 100.0
323.603424 336.0
323.689331 160.0
323.77887 152.0
323.821838 204.0
323.864838 152.0
323.92572 76.0
323.975403 244.0
324.026031 40.0
324.054443 168.0
324.101288 84.0
324.177856 592.0
324.223114 176.0
324.344269 80.0
324.365662 284.0
324.438171 132.0
324.578003 92.0
324.65332 96.0
324.678406 104.0
324.78244 60.0
324.843414 96.0
324.875702 144.0
324.979736 72.0
325.01474 132.0
325.184296 128.0
325.2453 64.0
325.270416 88.0
325.352997 128.0
325.425323 108.0
325.48584 92.0
325.53833 104.0
325.549133 64.0
325.563232 144.0
325.873749 140.0
325.943176 164.0
326.028259 84.0
326.082184 216.0
326.119263 192.0
326.157654 60.0
326.247528 172.0
326.281128 140.0
326.384155 172.0
326.416504 104.0
326.538788 76.0
326.657471 160.0
326.772614 136.0
326.833771 108.0
326.858948 100.0
326.959717 164.0
326.988525 88.0
327.049713 36.0
327.177734 168.0
327.236908 84.0
327.319702 96.0
327.395111 124.0
327.470978 72.0
327.506989 228.0
327.574585 156.0
327.679077 140.0
327.706329 156.0
327.762756 152.0
327.820435 96.0
327.964569 136.0
328.176575 204.0
328.216949 136.0
328.267426 128.0
328.292664 220.0
328.328735 96.0
328.454956 208.0
328.567657 168.0
328.675049 60.0
328.783295 104.0
328.837433 108.0
328.907471 140.0
328.919678 56.0
328.933319 128.0
328.957184 156.0
329.050415 140.0
329.087738 296.0
329.14566 104.0
329.256226 148.0
329.285034 140.0
329.342926 108.0
329.38266 168.0
329.425995 172.0
329.514313 284.0
329.653839 132.0
329.691193 212.0
329.740356 88.0
329.827118 88.0
329.906616 196.0
329.986176 136.0
330.02066 160.0
330.181427 92.0
330.232056 112.0
330.261017 92.0
330.318878 136.0
330.405701 132.0
330.481689 128.0
330.608337 68.0
330.639191 76.0
330.691559 164.0
330.724152 124.0
330.774811 196.0
330.85083 148.0
331.028168 184.0
331.097076 112.0
331.160461 1300.0
331.234131 172.0
331.289032 88.0
331.314392 92.0
331.354248 36.0
331.421478 180.0
331.431915 100.0
331.448334 124.0
331.460846 96.0
331.622406 140.0
331.647766 56.0
331.778259 184.0
331.930542 156.0
332.013947 88.0
332.108246 72.0
332.150055 692.0
332.235229 116.0
332.409393 140.0
332.460175 160.0
332.558167 112.0
332.608978 60.0
332.638031 92.0
332.726471 164.0
332.802643 260.0
332.841339 156.0
332.93576 224.0
332.978821 184.0
333.102844 124.0
333.155853 364.0
333.168365 268.0
333.209595 164.0
333.261261 72.0
333.309906 84.0
333.390076 136.0
333.478882 100.0
333.575226 208.0
333.702484 112.0
333.735199 204.0
333.807922 188.0
333.856323 180.0
333.887939 44.0
333.93158 180.0
333.982483 104.0
334.030273 60.0
334.167114 996.0
334.288086 60.0
334.32251 140.0
334.408203 92.0
334.448242 156.0
334.480988 160.0
334.503662 136.0
334.535583 148.0
334.561066 200.0
334.60257 172.0
334.652893 232.0
334.695892 144.0
334.739563 348.0
334.785919 128.0
334.799072 88.0
334.810303 160.0
334.879089 288.0
334.925232 124.0
334.965759 308.0
334.998077 112.0
335.043579 196.0
335.051575 152.0
335.065155 176.0
335.150452 42708.0
335.274292 124.0
335.281494 92.0
335.329254 180.0
335.3526 148.0
335.377197 100.0
335.455902 164.0
335.524078 108.0
335.558167 128.0
335.601166 196.0
335.643982 196.0
335.694519 48.0
335.738373 236.0
335.774902 180.0
335.832825 72.0
335.892883 120.0
335.901489 116.0
335.917267 160.0
335.96048 204.0
336.008209 152.0
336.062347 100.0
336.148529 18180.0
336.217438 144.0
336.268311 176.0
336.295074 152.0
336.307159 96.0
336.318817 160.0
336.378265 128.0
336.433624 68.0
336.482605 280.0
336.529144 292.0
336.597931 80.0
336.648773 184.0
336.721191 136.0
336.7453 128.0
336.772736 132.0
336.812775 192.0
336.905365 92.0
336.954193 208.0
336.989807 124.0
337.037537 108.0
337.083069 148.0
337.154022 6512.0
337.249512 164.0
337.292786 164.0
337.357788 192.0
337.367279 144.0
337.481903 188.0
337.533447 172.0
337.585846 100.0
337.61145 140.0
337.637054 212.0
337.685852 104.0
337.728729 116.0
337.78598 464.0
337.841614 52.0
337.868439 132.0
337.929688 100.0
337.967346 108.0
338.025543 164.0
338.051117 196.0
338.081726 80.0
338.100616 96.0
338.115601 104.0
338.159698 10476.0
338.233765 96.0
338.292847 92.0
338.343262 88.0
338.372559 44.0
338.403625 268.0
338.464081 156.0
338.502716 204.0
338.530396 220.0
338.590515 84.0
338.63678 76.0
338.718567 172.0
338.752808 240.0
338.782715 52.0
338.874298 128.0
338.928497 76.0
338.938812 168.0
338.953522 52.0
338.980103 312.0
339.071747 100.0
339.163788 2064.0
339.260132 156.0
339.279816 112.0
339.318695 192.0
339.40799 80.0
339.442444 68.0
339.493286 180.0
339.534119 44.0
339.570435 80.0
339.633148 140.0
339.687225 124.0
339.805573 140.0
339.860626 168.0
339.906097 244.0
339.968872 64.0
340.01474 184.0
340.057709 176.0
340.150787 284.0
340.174774 348.0
340.20929 204.0
340.268005 136.0
340.416229 188.0
340.455292 40.0
340.503021 164.0
340.540741 60.0
340.597198 88.0
340.646271 36.0
340.686676 140.0
340.741791 156.0
340.767517 60.0
340.822632 100.0
340.861298 144.0
340.93573 184.0
341.025085 136.0
341.07254 92.0
341.125214 120.0
341.206696 72.0
341.252655 60.0
341.307831 116.0
341.39975 164.0
341.447571 160.0
341.513763 52.0
341.543182 132.0
341.635162 160.0
341.660339 80.0
341.727112 68.0
341.793976 168.0
341.833832 172.0
341.878571 52.0
341.92215 132.0
341.947906 48.0
341.992096 36.0
342.059357 176.0
342.159698 128.0
342.187195 64.0
342.259674 228.0
342.338165 40.0
342.371307 52.0
342.531555 84.0
342.560547 180.0
342.632812 144.0
342.680725 56.0
342.77652 36.0
342.823944 184.0
342.88681 160.0
343.010406 192.0
343.104553 160.0
343.136475 152.0
343.31665 200.0
343.543427 112.0
343.631439 116.0
343.66394 140.0
343.729706 188.0
343.857056 108.0
343.94809 180.0
344.001007 132.0
344.041626 88.0
344.172394 172.0
344.322235 148.0
344.359863 152.0
344.392426 136.0
344.466309 156.0
344.554962 168.0
344.681732 192.0
344.736023 152.0
344.848053 216.0
345.003571 192.0
345.036285 100.0
345.139008 196.0
345.187012 136.0
345.227661 96.0
345.353424 80.0
345.41629 148.0
345.512482 72.0
345.597595 112.0
345.648651 120.0
345.734497 68.0
345.815918 216.0
345.875153 88.0
345.940277 100.0
345.982483 144.0
346.078766 144.0
346.164886 1664.0
346.208374 148.0
346.267609 140.0
346.365051 104.0
346.40332 120.0
346.432007 104.0
346.571381 112.0
346.607452 164.0
346.622528 120.0
346.666321 180.0
346.85675 144.0
346.933838 156.0
346.975372 152.0
347.089905 144.0
347.172546 2936.0
347.249786 88.0
347.279449 44.0
347.320251 196.0
347.42865 72.0
347.464935 156.0
347.546539 148.0
347.596161 152.0
347.624481 224.0
347.690521 40.0
347.75708 252.0
347.82489 148.0
347.881561 148.0
347.924683 100.0
347.934387 88.0
347.946411 144.0
347.97229 232.0
348.020538 172.0
348.052948 168.0
348.065643 108.0
348.076447 200.0
348.181702 39984.0
348.274323 268.0
348.304718 128.0
348.361908 196.0
348.399323 184.0
348.422394 172.0
348.460846 108.0
348.512146 76.0
348.551666 196.0
348.592133 48.0
348.623077 84.0
348.668976 336.0
348.708893 60.0
348.743958 92.0
348.781219 132.0
348.826965 168.0
348.879303 168.0
348.923706 56.0
348.955078 176.0
348.971283 124.0
349.055603 248.0
349.178986 8828.0
349.299927 96.0
349.332123 248.0
349.41629 208.0
349.491058 204.0
349.576202 124.0
349.638672 52.0
349.690094 132.0
349.72995 76.0
349.765228 96.0
349.800964 100.0
349.838348 200.0
349.884338 132.0
349.961182 120.0
349.988678 120.0
350.022125 64.0
350.06308 172.0
350.103607 68.0
350.178314 1412.0
350.281769 136.0
350.380371 128.0
350.459167 140.0
350.532043 148.0
350.568237 116.0
350.654633 112.0
350.711334 56.0
350.756073 172.0
350.910339 104.0
350.971039 96.0
351.021698 160.0
351.179474 368.0
351.229614 88.0
351.25946 96.0
351.299377 204.0
351.339447 192.0
351.422485 132.0
351.496368 136.0
351.508331 68.0
351.524017 184.0
351.598999 56.0
351.641418 132.0
351.707245 136.0
351.796967 104.0
351.845337 32.0
351.929962 188.0
351.964813 44.0
351.990967 156.0
352.028412 144.0
352.088074 40.0
352.114197 220.0
352.196899 200.0
352.285187 108.0
352.426697 80.0
352.495453 152.0
352.576263 200.0
352.642242 96.0
352.652679 112.0
352.667969 180.0
352.684174 124.0
352.790527 108.0
352.901215 100.0
352.932587 52.0
353.138367 144.0
353.195007 192.0
353.231781 56.0
353.334747 176.0
353.470215 132.0
353.549805 76.0
353.58902 96.0
353.716644 96.0
353.890442 84.0
354.010284 104.0
354.067139 288.0
354.094727 124.0
354.149902 128.0
354.252289 188.0
354.287445 140.0
354.354889 132.0
354.430328 180.0
354.478546 148.0
354.512268 136.0
354.596497 100.0
354.693817 136.0
354.827118 108.0
354.890869 196.0
354.917114 40.0
355.010864 124.0
355.067108 220.0
355.108368 112.0
355.2659 148.0
355.367188 128.0
355.451416 192.0
355.494781 148.0
355.522278 224.0
355.920898 116.0
355.949585 100.0
356.188416 308.0
356.328369 160.0
356.546295 88.0
356.71167 44.0
356.751099 164.0
356.907166 208.0
356.959808 136.0
357.057587 196.0
357.086914 96.0
357.169189 156.0
357.198029 156.0
357.26825 48.0
357.319794 180.0
357.366058 56.0
357.445068 240.0
357.527863 92.0
357.565491 136.0
357.591858 56.0
357.71228 120.0
357.749359 160.0
357.806396 112.0
357.987152 124.0
358.017273 120.0
358.054932 128.0
358.167084 2704.0
358.265869 144.0
358.333679 216.0
358.442963 176.0
358.526794 112.0
358.597473 36.0
358.728241 148.0
358.755768 116.0
359.05365 172.0
359.106445 164.0
359.166565 568.0
359.40448 132.0
359.434662 108.0
359.559204 176.0
359.627136 196.0
359.676208 88.0
359.705353 100.0
359.763031 200.0
359.834747 108.0
359.896393 196.0
359.955597 116.0
360.05899 176.0
360.120026 148.0
360.166748 460.0
360.246399 108.0
360.337067 180.0
360.397522 68.0
360.510895 156.0
360.600891 152.0
360.608429 124.0
360.623199 128.0
360.677917 84.0
360.767914 196.0
360.798157 136.0
360.885101 32.0
360.936554 172.0
361.036377 56.0
361.084961 108.0
361.102173 40.0
361.110779 124.0
361.156799 372.0
361.186646 320.0
361.216125 168.0
361.270874 92.0
361.395721 188.0
361.456268 80.0
361.513031 72.0
361.569794 192.0
361.706055 116.0
361.743896 64.0
361.7742 100.0
361.812042 164.0
361.83786 132.0
361.868835 136.0
361.963501 136.0
361.99588 116.0
362.022369 140.0
362.073334 164.0
362.130127 148.0
362.197327 692.0
362.242279 132.0
362.378357 136.0
362.411652 152.0
362.493835 136.0
362.543091 212.0
362.573395 128.0
362.683319 160.0
362.746338 160.0
362.812195 120.0
362.929749 40.0
362.975433 160.0
363.053101 140.0
363.181488 2316.0
363.231293 248.0
363.354523 180.0
363.40387 104.0
363.479736 56.0
363.506317 60.0
363.574615 64.0
363.608765 140.0
363.698242 188.0
363.80545 140.0
363.893463 108.0
363.984589 240.0
364.01358 108.0
364.02124 68.0
364.072235 164.0
364.175537 8780.0
364.252045 192.0
364.260803 148.0
364.401611 116.0
364.605286 112.0
364.649414 184.0
364.706421 96.0
364.736816 48.0
364.85498 152.0
364.947754 116.0
365.000488 148.0
365.08197 180.0
365.11618 192.0
365.180023 3412.0
365.253967 172.0
365.303406 72.0
365.362457 248.0
365.512665 176.0
365.543121 28.0
365.591858 188.0
365.702942 128.0
365.765045 244.0
365.787811 108.0
365.817139 56.0
365.858276 124.0
365.998871 152.0
366.095093 140.0
366.154327 116.0
366.18634 236.0
366.255066 28.0
366.399261 136.0
366.463348 136.0
366.529358 84.0
366.71991 176.0
366.798981 80.0
366.937195 168.0
366.970337 144.0
367.051575 104.0
367.146912 92.0
367.204926 240.0
367.242249 60.0
367.282867 80.0
367.394836 124.0
367.47876 108.0
367.555389 100.0
367.61615 148.0
367.749725 60.0
367.845154 68.0
367.883301 152.0
368.005493 136.0
368.055115 84.0
368.097137 224.0
368.123871 124.0
368.149597 76.0
368.207886 148.0
368.268982 144.0
368.303345 120.0
368.410309 196.0
368.589081 192.0
368.635742 172.0
368.666321 100.0
368.693054 192.0
368.753662 84.0
368.834473 200.0
369.117401 56.0
369.147217 340.0
369.239777 56.0
369.350677 52.0
369.396606 140.0
369.595551 116.0
369.656769 136.0
369.691193 40.0
369.737122 140.0
369.863434 140.0
370.099335 180.0
370.418671 112.0
370.48761 136.0
370.629364 120.0
370.694519 144.0
370.732849 88.0
370.893799 88.0
371.011536 208.0
371.130646 164.0
371.258057 108.0
371.323242 140.0
371.373108 40.0
371.403778 128.0
371.476654 80.0
371.610931 144.0
371.674561 156.0
371.870544 184.0
371.930969 132.0
372.018433 160.0
372.094269 168.0
372.152924 152.0
372.374847 168.0
372.470886 148.0
372.560883 112.0
372.720612 96.0
372.850006 148.0
373.00296 180.0
373.043427 220.0
373.078033 176.0
373.157196 88.0
373.186707 224.0
373.293335 132.0
373.354889 136.0
373.416412 88.0
373.551025 100.0
373.624146 120.0
373.70108 164.0
373.727997 132.0
373.785736 132.0
373.939667 100.0
373.974609 100.0
374.047424 88.0
374.074371 180.0
374.157776 1164.0
374.243774 196.0
374.324646 164.0
374.413208 120.0
374.440186 72.0
374.490234 152.0
374.536469 144.0
374.563416 88.0
374.594238 112.0
374.696075 220.0
374.776367 104.0
374.847015 136.0
374.924377 388.0
375.007141 132.0
375.04892 36.0
375.164154 524.0
375.194824 404.0
375.200836 228.0
375.281097 72.0
375.319611 112.0
375.355682 36.0
375.394714 116.0
375.472229 112.0
375.487823 128.0
375.537415 284.0
375.606964 116.0
375.708038 156.0
375.793701 256.0
375.847229 200.0
375.921661 208.0
376.02301 276.0
376.090912 140.0
376.176361 51300.0
376.293823 144.0
376.334747 164.0
376.350739 36.0
376.365753 136.0
376.433319 120.0
376.443298 68.0
376.476135 96.0
376.520599 84.0
376.583252 76.0
376.631348 148.0
376.679993 296.0
376.744904 72.0
376.806335 108.0
376.87262 132.0
376.907684 44.0
376.931091 196.0
376.986481 136.0
377.03299 64.0
377.061615 120.0
377.097778 180.0
377.179474 11236.0
377.218689 6036.0
377.376801 40.0
377.395569 56.0
377.405273 48.0
377.459442 128.0
377.488922 204.0
377.554291 40.0
377.605377 184.0
377.7164 44.0
377.745911 144.0
377.833862 236.0
377.858063 168.0
377.915009 132.0
377.946198 76.0
378.069458 60.0
378.183441 1856.0
378.225403 3684.0
378.271576 124.0
378.338776 140.0
378.371002 148.0
378.387512 68.0
378.401794 164.0
378.506622 48.0
378.542786 136.0
378.597137 64.0
378.647034 124.0
378.703186 112.0
378.737732 136.0
378.80484 128.0
378.882324 112.0
378.991577 144.0
379.015625 100.0
379.070251 100.0
379.136963 196.0
379.23761 868.0
379.277588 168.0
379.320221 204.0
379.368469 144.0
379.39682 260.0
379.440796 160.0
379.501038 200.0
379.564484 116.0
379.591614 48.0
379.630402 160.0
379.713928 180.0
379.759857 64.0
379.872375 100.0
379.917419 152.0
379.967865 76.0
379.995026 68.0
380.062683 100.0
380.103668 148.0
380.193024 140.0
380.22934 244.0
380.309357 60.0
380.386993 56.0
380.477051 80.0
380.581818 136.0
380.602783 48.0
380.610565 116.0
380.684296 104.0
380.716156 128.0
380.767944 204.0
380.828125 124.0
380.875336 128.0
380.926758 60.0
380.958923 184.0
381.012482 60.0
381.108582 60.0
381.155975 128.0
381.283875 48.0
381.374573 112.0
381.420258 76.0
381.486328 68.0
381.51355 108.0
381.604828 116.0
381.678864 120.0
381.793488 60.0
381.836273 28.0
381.909149 168.0
382.04245 60.0
382.105011 148.0
382.240173 164.0
382.396545 84.0
382.578094 172.0
382.605011 72.0
382.653442 112.0
382.692383 164.0
382.746887 56.0
382.805298 108.0
382.902679 212.0
382.938538 76.0
383.085724 128.0
383.181549 196.0
383.210388 144.0
383.237671 216.0
383.292236 56.0
383.329071 96.0
383.366272 60.0
383.510468 76.0
383.627411 176.0
383.710693 112.0
383.793488 176.0
383.915253 156.0
383.946747 120.0
384.076477 124.0
384.161652 120.0
384.224091 120.0
384.380157 36.0
384.446381 128.0
384.502838 64.0
384.540161 180.0
384.586243 168.0
384.66922 128.0
384.825134 96.0
384.889954 132.0
385.024261 124.0
385.09848 116.0
385.188324 120.0
385.239105 140.0
385.282074 80.0
385.399292 112.0
385.496979 116.0
385.641571 80.0
385.747101 136.0
385.805756 100.0
385.880035 132.0
385.962158 84.0
386.126404 148.0
386.220245 36.0
386.273163 124.0
386.314148 32.0
386.350281 184.0
386.462799 96.0
386.670197 160.0
386.735352 180.0
386.791534 144.0
386.97052 172.0
386.981476 124.0
387.042114 32.0
387.171326 52.0
387.264069 100.0
387.363251 124.0
387.394592 128.0
387.457275 200.0
387.500366 188.0
387.580231 300.0
387.621002 168.0
387.653168 132.0
387.73941 172.0
387.809937 172.0
387.87265 220.0
387.95694 80.0
388.02713 40.0
388.066467 156.0
388.127502 80.0
388.158875 132.0
388.215424 372.0
388.280426 76.0
388.44516 136.0
388.484406 108.0
388.551086 164.0
388.596436 148.0
388.675446 144.0
388.765167 120.0
388.838257 132.0
388.872864 240.0
388.904266 112.0
388.939575 80.0
388.988922 84.0
389.088745 100.0
389.19101 464.0
389.217468 224.0
389.284332 104.0
389.355774 168.0
389.38327 80.0
389.422546 84.0
389.461823 100.0
389.556091 32.0
389.65094 164.0
389.717163 248.0
389.789246 232.0
389.844635 116.0
389.92276 140.0
389.952271 92.0
389.975006 196.0
390.036469 164.0
390.07373 44.0
390.119293 188.0
390.19046 1424.0
390.27182 108.0
390.3349 180.0
390.377533 160.0
390.440155 208.0
390.501495 132.0
390.557312 152.0
390.613525 144.0
390.643738 176.0
390.688263 132.0
390.842316 244.0
390.883423 140.0
390.952637 156.0
391.023712 68.0
391.057526 100.0
391.118439 280.0
391.188873 448.0
391.238098 380.0
391.294556 164.0
391.344269 148.0
391.370728 180.0
391.396729 272.0
391.461853 156.0
391.509094 148.0
391.542419 172.0
391.637482 144.0
391.673523 496.0
391.733398 156.0
391.740967 148.0
391.801239 340.0
391.864655 220.0
391.912018 316.0
391.958069 540.0
391.989319 240.0
392.041779 180.0
392.06131 156.0
392.076599 356.0
392.208252 191524.0
392.360626 192.0
392.374268 188.0
392.38681 136.0
392.447968 252.0
392.482239 144.0
392.542358 100.0
392.576263 100.0
392.648071 128.0
392.688477 88.0
392.746643 196.0
392.786682 320.0
392.853973 304.0
392.911163 364.0
392.947601 196.0
392.989105 156.0
393.020874 236.0
393.050659 236.0
393.087402 172.0
393.095245 108.0
393.135132 172.0
393.211273 48828.0
393.331024 416.0
393.347473 400.0
393.418396 148.0
393.433838 124.0
393.457275 188.0
393.513245 100.0
393.562469 128.0
393.593445 172.0
393.630615 164.0
393.692078 140.0
393.749451 176.0
393.779083 196.0
393.82843 184.0
393.90976 140.0
393.923706 132.0
393.939789 136.0
393.951904 60.0
393.96701 156.0
393.997345 240.0
394.024933 300.0
394.08609 116.0
394.113556 152.0
394.190857 15704.0
394.216034 14332.0
394.352386 124.0
394.396454 120.0
394.446838 108.0
394.493469 88.0
394.566315 140.0
394.642029 192.0
394.672363 116.0
394.72998 96.0
394.765137 52.0
394.777039 100.0
394.802246 164.0
394.854828 40.0
394.912964 68.0
394.954559 156.0
395.010864 132.0
395.043396 156.0
395.058838 96.0
395.07251 200.0
395.135315 96.0
395.193085 2788.0
395.221924 4008.0
395.331604 152.0
395.359802 100.0
395.422089 276.0
395.458466 104.0
395.489594 164.0
395.535736 236.0
395.570801 136.0
395.635406 212.0
395.684296 96.0
395.723419 244.0
395.805756 264.0
395.833679 244.0
395.86438 124.0
395.901428 76.0
395.916718 188.0
395.930573 164.0
395.960266 264.0
396.027924 116.0
396.072052 96.0
396.126343 104.0
396.214783 312.0
396.227997 504.0
396.272034 176.0
396.314362 52.0
396.354309 80.0
396.389648 212.0
396.463898 188.0
396.552032 132.0
396.598419 260.0
396.649048 136.0
396.718384 68.0
396.767822 72.0
396.800079 132.0
396.849457 40.0
396.896088 84.0
396.954651 172.0
397.055664 76.0
397.094635 100.0
397.15686 156.0
397.217529 108.0
397.265869 92.0
397.363525 144.0
397.40625 84.0
397.434265 108.0
397.482452 116.0
397.601166 204.0
397.641357 228.0
397.682526 40.0
397.756226 152.0
397.78363 132.0
397.832428 100.0
397.896881 140.0
397.924683 68.0
397.964386 96.0
398.012024 52.0
398.079529 100.0
398.200195 104.0
398.256775 108.0
398.319427 180.0
398.367645 96.0
398.377106 52.0
398.391876 144.0
398.448944 44.0
398.504791 112.0
398.552246 68.0
398.59079 116.0
398.641693 72.0
398.709625 156.0
398.75174 136.0
398.810547 100.0
398.850281 88.0
398.88208 116.0
398.914337 108.0
398.949677 112.0
398.987518 100.0
399.052826 260.0
399.088837 84.0
399.156433 64.0
399.210358 120.0
399.259827 116.0
399.36322 128.0
399.418915 60.0
399.476196 80.0
399.51001 80.0
399.663147 72.0
399.713318 64.0
399.766846 88.0
399.828735 136.0
399.90036 92.0
399.99588 72.0
400.042633 196.0
400.123291 120.0
400.207031 120.0
400.370148 68.0
400.425903 60.0
400.505585 92.0
400.533447 48.0
400.676849 52.0
400.759949 140.0
400.840668 72.0
400.979706 80.0
401.047455 80.0
401.103271 136.0
401.140991 192.0
401.194946 168.0
401.225311 176.0
401.298615 84.0
401.553833 140.0
401.669495 144.0
401.721344 104.0
401.82309 104.0
401.879822 128.0
402.012604 116.0
402.090851 140.0
402.14032 108.0
402.221527 824.0
402.261841 144.0
402.299042 272.0
402.411774 112.0
402.539551 76.0
402.609039 84.0
402.671631 56.0
402.827118 80.0
402.899017 56.0
402.934967 120.0
402.965271 144.0
403.030884 84.0
403.106781 80.0
403.236542 1180.0
403.414978 148.0
403.449799 96.0
403.52002 116.0
403.570465 80.0
403.616669 116.0
403.673645 144.0
403.722412 96.0
403.86795 104.0
403.893616 204.0
403.97641 88.0
404.031555 180.0
404.064514 100.0
404.089905 244.0
404.11969 128.0
404.244019 39440.0
404.39032 204.0
404.459595 196.0
404.494629 80.0
404.544556 200.0
404.574554 136.0
404.584015 96.0
404.612091 124.0
404.644989 100.0
404.688141 124.0
404.753876 252.0
404.881561 180.0
404.922394 148.0
404.964874 60.0
404.998077 104.0
405.025848 160.0
405.081116 276.0
405.148895 52.0
405.163116 56.0
405.24649 12816.0
405.343597 196.0
405.402802 72.0
405.443146 44.0
405.477356 112.0
405.523926 144.0
405.533722 164.0
405.592896 44.0
405.623749 128.0
405.633148 164.0
405.679077 76.0
405.715973 380.0
405.766449 84.0
405.83847 204.0
405.888214 176.0
405.939514 96.0
405.997101 124.0
406.082184 320.0
406.125458 128.0
406.16156 172.0
406.227478 1644.0
406.332428 88.0
406.430359 96.0
406.457275 208.0
406.574005 60.0
406.597168 112.0
406.660095 128.0
406.734314 140.0
406.809509 84.0
406.903961 68.0
406.952148 32.0
406.984253 44.0
407.040466 156.0
407.092682 108.0
407.157593 168.0
407.23233 376.0
407.349731 88.0
407.389893 84.0
407.430908 96.0
407.462219 284.0
407.522491 168.0
407.550598 32.0
407.582581 192.0
407.628845 80.0
407.735474 100.0
407.786896 120.0
407.820312 116.0
407.876129 76.0
407.939178 104.0
408.004761 32.0
408.0672 236.0
408.169617 76.0
408.222229 160.0
408.306335 48.0
408.350586 200.0
408.378754 72.0
408.518494 124.0
408.575836 40.0
408.653198 140.0
408.791046 132.0
408.950073 68.0
408.978271 176.0
409.02655 72.0
409.107056 132.0
409.264099 80.0
409.364746 72.0
409.392944 100.0
409.469452 160.0
409.533905 36.0
409.646698 72.0
409.711151 148.0
409.771576 52.0
409.851593 84.0
409.868744 68.0
409.969025 100.0
410.057678 120.0
410.158447 92.0
410.214874 108.0
410.331787 100.0
410.37616 144.0
410.42453 80.0
410.456787 52.0
410.505676 64.0
410.542877 164.0
410.61084 80.0
410.710876 116.0
410.783478 40.0
410.864441 112.0
411.009399 204.0
411.047546 132.0
411.158722 80.0
411.193817 224.0
411.227325 60.0
411.279785 92.0
411.392822 44.0
411.433197 100.0
411.476349 64.0
411.703735 128.0
411.768341 60.0
411.82489 48.0
412.338013 168.0
412.463318 148.0
412.616913 116.0
412.689697 112.0
412.754395 96.0
413.010803 100.0
413.14267 216.0
413.239777 56.0
413.462311 100.0
413.492676 96.0
413.636353 104.0
413.687012 180.0
413.790192 96.0
414.07135 84.0
414.224762 3532.0
414.563873 100.0
414.668793 36.0
414.900269 132.0
414.92865 72.0
415.115173 76.0
415.229034 952.0
415.29361 180.0
415.386902 124.0
415.46167 132.0
415.5289 52.0
415.557312 96.0
415.646576 232.0
415.723663 104.0
415.988831 176.0
416.170197 152.0
416.226837 220.0
416.361053 116.0
416.576324 48.0
416.667206 140.0
416.832275 120.0
416.90799 140.0
416.954193 196.0
417.038574 116.0
417.151855 196.0
417.218414 100.0
417.246857 84.0
417.315979 188.0
417.348511 76.0
417.771484 188.0
417.897614 52.0
417.928528 84.0
417.987122 52.0
418.068512 48.0
418.219635 728.0
418.280151 116.0
418.32901 140.0
418.399323 88.0
418.870575 56.0
418.976501 60.0
419.017242 192.0
419.066132 128.0
419.115021 96.0
419.234528 744.0
419.347321 72.0
419.388062 204.0
419.46405 144.0
419.514435 100.0
419.591888 88.0
419.620453 152.0
419.68161 132.0
419.824066 204.0
419.912048 152.0
419.967072 80.0
420.054718 148.0
420.138397 128.0
420.237549 19048.0
420.340271 144.0
420.464813 220.0
420.533173 128.0
420.628082 104.0
420.731232 120.0
420.828125 148.0
420.865143 120.0
421.003723 100.0
421.073151 128.0
421.145905 176.0
421.240387 3864.0
421.338654 112.0
421.375427 52.0
421.405182 140.0
421.514343 64.0
421.681885 76.0
421.784088 28.0
421.869934 148.0
421.899841 208.0
421.972137 112.0
422.057983 132.0
422.135681 144.0
422.241791 564.0
422.287018 196.0
422.451935 88.0
422.547394 144.0
422.608582 112.0
422.700195 148.0
422.777954 120.0
422.835236 52.0
422.892548 68.0
422.94577 32.0
422.990784 40.0
423.035797 44.0
423.134064 40.0
423.16272 80.0
423.2742 196.0
423.578918 172.0
423.621582 92.0
423.662384 96.0
423.753784 76.0
423.785278 72.0
423.875427 44.0
423.986084 176.0
424.014771 112.0
424.101501 48.0
424.166412 28.0
424.195099 32.0
424.256592 172.0
424.375488 48.0
424.412384 108.0
424.457489 184.0
424.523102 84.0
424.642059 84.0
424.793823 120.0
424.847137 164.0
424.917755 132.0
424.974335 56.0
425.093323 132.0
425.329224 56.0
425.511993 72.0
425.568115 72.0
425.606415 64.0
425.66391 96.0
425.740509 92.0
425.815857 60.0
425.926758 176.0
426.081909 188.0
426.114624 120.0
426.455444 108.0
426.543121 196.0
426.629456 88.0
426.691132 112.0
426.781586 64.0
426.818573 156.0
426.933716 72.0
426.987732 120.0
427.061218 32.0
427.122925 168.0
427.184601 92.0
427.279236 140.0
427.39444 116.0
427.534363 196.0
427.748383 136.0
427.908936 40.0
428.0448 156.0
428.081879 140.0
428.242493 180.0
428.42276 152.0
428.510254 84.0
428.559692 72.0
428.617371 84.0
428.711578 112.0
428.757477 152.0
428.864655 136.0
428.947083 68.0
429.08725 144.0
429.194458 124.0
429.276917 72.0
429.366425 160.0
429.483826 96.0
429.604492 124.0
429.749298 200.0
429.820251 112.0
429.903107 136.0
429.953491 148.0
430.009552 96.0
430.222443 1080.0
430.310394 172.0
430.378662 36.0
430.436646 180.0
430.473633 80.0
430.519073 132.0
430.572754 84.0
430.618195 84.0
430.700775 204.0
430.752716 112.0
430.816467 136.0
430.85495 164.0
430.915619 116.0
430.98584 160.0
431.072632 224.0
431.112885 156.0
431.219635 336.0
431.270386 152.0
431.302795 220.0
431.339691 84.0
431.41153 68.0
431.448761 136.0
431.476562 88.0
431.523834 240.0
431.585175 192.0
431.640564 152.0
431.671326 72.0
431.683624 100.0
431.74588 232.0
431.755676 124.0
431.799927 168.0
431.854309 356.0
431.899475 168.0
431.927795 132.0
431.994812 152.0
432.040588 176.0
432.060089 160.0
432.096802 500.0
432.104706 368.0
432.119781 212.0
432.139221 192.0
432.149811 308.0
432.166016 104.0
432.239044 86196.0
432.328094 128.0
432.38446 56.0
432.457153 72.0
432.527222 108.0
432.56897 64.0
432.621429 116.0
432.675964 52.0
432.72226 44.0
432.787354 176.0
432.908905 136.0
432.966217 76.0
433.007233 188.0
433.038422 292.0
433.086121 180.0
433.092896 252.0
433.128845 112.0
433.241455 19848.0
433.35788 208.0
433.435272 96.0
433.501434 68.0
433.573639 80.0
433.641846 232.0
433.71463 160.0
433.750122 60.0
433.806915 76.0
433.851776 152.0
433.876831 56.0
433.918121 52.0
433.953766 76.0
434.021301 232.0
434.087402 104.0
434.104889 56.0
434.162354 124.0
434.245605 2824.0
434.330933 52.0
434.361511 128.0
434.442932 60.0
434.530029 76.0
434.582031 32.0
434.637909 104.0
434.683563 32.0
434.741669 76.0
434.783173 52.0
434.855621 104.0
434.941315 76.0
435.007294 72.0
435.071167 104.0
435.120331 104.0
435.191956 192.0
435.258453 260.0
435.300507 212.0
435.382507 160.0
435.434967 56.0
435.474701 64.0
435.524719 96.0
435.557831 48.0
435.622101 80.0
435.687134 248.0
435.738434 72.0
435.779755 104.0
435.81192 92.0
435.879303 92.0
435.914001 116.0
435.968811 56.0
435.998901 92.0
436.029907 160.0
436.11145 152.0
436.144531 196.0
436.178833 124.0
436.197327 100.0
436.206207 124.0
436.243011 152.0
436.34726 96.0
436.436462 52.0
436.603394 140.0
436.760712 108.0
436.798279 160.0
436.863098 152.0
437.025635 80.0
437.042786 52.0
437.097839 64.0
437.148468 72.0
437.229004 52.0
437.426636 52.0
437.489075 92.0
437.522369 68.0
437.626465 180.0
437.72641 124.0
437.803436 72.0
437.902893 196.0
438.12207 92.0
438.159576 136.0
438.188751 100.0
438.224976 80.0
438.338745 72.0
438.388733 64.0
438.426239 136.0
438.513763 64.0
438.601288 212.0
438.943176 204.0
439.039093 40.0
439.154968 244.0
439.297668 68.0
439.418671 112.0
439.840149 48.0
440.119873 72.0
440.203369 48.0
440.311951 88.0
440.399658 68.0
440.550049 128.0
440.592285 144.0
440.758148 148.0
440.917755 44.0
441.026428 160.0
441.097473 56.0
441.193634 184.0
441.24295 180.0
441.277252 168.0
441.323242 100.0
441.615967 100.0
441.825104 120.0
442.063629 136.0
442.113831 148.0
442.398468 108.0
442.450714 148.0
442.61618 136.0
442.65387 40.0
442.942841 64.0
443.014038 64.0
443.094421 108.0
443.135559 56.0
443.17746 72.0
443.236115 104.0
443.307709 192.0
443.449829 132.0
443.64267 92.0
443.705536 100.0
443.952942 64.0
444.015839 108.0
444.137482 100.0
444.31366 116.0
444.523438 100.0
444.607025 96.0
444.649353 132.0
444.796265 84.0
444.876007 52.0
445.043945 124.0
445.384125 124.0
445.417725 96.0
445.738007 136.0
445.917725 152.0
445.954956 112.0
446.107391 144.0
446.460052 144.0
446.64093 88.0
446.682983 100.0
446.716644 36.0
446.863892 144.0
446.912964 84.0
447.002747 92.0
447.101166 1036.0
447.216248 76.0
447.281616 120.0
447.322601 48.0
447.436249 80.0
447.475769 84.0
447.64679 88.0
447.67627 136.0
447.8302 172.0
447.91214 88.0
447.954254 68.0
448.034302 176.0
448.097351 164.0
448.145111 80.0
448.231598 1288.0
448.293854 172.0
448.356445 192.0
448.401855 176.0
448.453003 164.0
448.554932 124.0
448.585693 52.0
448.707092 156.0
448.754974 176.0
448.792938 112.0
448.84668 128.0
448.935028 80.0
449.024872 48.0
449.097504 1084.0
449.149933 184.0
449.182831 168.0
449.236725 444.0
449.30484 284.0
449.346771 244.0
449.39682 108.0
449.438263 128.0
449.474884 116.0
449.526886 52.0
449.565002 132.0
449.635468 176.0
449.667419 312.0
449.717163 96.0
449.748627 188.0
449.782043 140.0
449.838074 128.0
449.890442 144.0
449.924408 184.0
449.99292 420.0
450.073151 468.0
450.090729 132.0
450.106049 428.0
450.142914 284.0
450.176941 528.0
450.24942 103644.0
450.348083 204.0
450.365509 188.0
450.471344 124.0
450.515747 192.0
450.548401 76.0
450.587616 112.0
450.621155 184.0
450.651031 160.0
450.707916 60.0
450.779846 76.0
450.840942 108.0
450.889832 76.0
450.944244 172.0
450.985962 116.0
451.021973 96.0
451.072601 200.0
451.095337 332.0
451.161194 132.0
451.25177 22064.0
451.406281 228.0
451.525116 28.0
451.59668 108.0
451.641785 84.0
451.727539 128.0
451.772949 128.0
451.817169 120.0
451.873779 68.0
451.905823 136.0
451.948608 104.0
452.044586 88.0
452.170593 64.0
452.255432 2272.0
452.362213 76.0
452.401001 52.0
452.430634 48.0
452.489563 52.0
452.50119 108.0
452.56015 88.0
452.631897 88.0
452.665558 264.0
452.770477 100.0
452.815948 40.0
452.880371 76.0
452.926086 136.0
453.125885 144.0
453.173492 88.0
453.254425 304.0
453.35199 72.0
453.472382 64.0
453.544006 72.0
453.587097 68.0
453.62384 80.0
453.678009 104.0
453.739349 92.0
453.777863 96.0
453.839417 72.0
453.883881 72.0
453.931976 104.0
453.989258 80.0
454.022522 184.0
454.065643 120.0
454.136108 92.0
454.291046 44.0
454.324982 32.0
454.371643 68.0
454.409821 80.0
454.464966 44.0
454.52417 84.0
454.583344 152.0
454.638947 56.0
454.68988 100.0
454.79599 96.0
454.842682 112.0
454.872406 28.0
454.912842 76.0
454.944 60.0
454.972168 120.0
455.073181 180.0
455.11438 96.0
455.330963 232.0
455.403168 32.0
455.437134 148.0
455.468048 84.0
455.533783 96.0
455.59433 36.0
455.682251 120.0
455.730255 56.0
455.867065 48.0
455.973419 184.0
456.128693 48.0
456.248779 72.0
456.308289 64.0
456.401855 64.0
456.465637 44.0
456.742065 88.0
456.780365 48.0
456.83139 44.0
456.890961 104.0
456.92926 80.0
457.422913 44.0
457.776276 56.0
457.908295 64.0
458.33432 84.0
458.509033 104.0
458.72641 100.0
458.828705 64.0
458.922516 132.0
458.981293 168.0
459.054688 148.0
459.095978 412.0
459.180023 156.0
459.376984 92.0
459.39032 52.0
459.455627 60.0
459.592163 60.0
459.845581 104.0
460.023224 32.0
460.105774 172.0
460.386139 68.0
460.736389 100.0
460.89447 136.0
461.022675 60.0
461.107544 136.0
461.236389 112.0
461.531372 172.0
461.847107 72.0
461.941925 56.0
462.014648 136.0
462.104523 124.0
462.220032 76.0
462.322723 72.0
462.425446 92.0
462.536743 68.0
462.648041 52.0
462.780762 56.0
462.851288 136.0
462.89209 108.0
463.778931 48.0
464.263397 140.0
464.31485 72.0
464.396332 108.0
464.43924 100.0
464.739532 32.0
465.185883 48.0
465.223755 240.0
465.306091 108.0
465.641022 124.0
465.731201 132.0
465.894226 160.0
465.997559 52.0
466.23526 128.0
467.029297 52.0
467.076599 100.0
467.197052 148.0
467.245209 300.0
467.304596 40.0
467.442291 96.0
467.493927 100.0
467.541168 148.0
467.623535 104.0
467.661774 156.0
467.745605 84.0
467.976044 44.0
468.122437 40.0
468.256805 180.0
468.406708 152.0
468.53595 64.0
468.600555 144.0
469.040131 36.0
469.264313 92.0
469.423859 84.0
470.227997 60.0
470.459351 156.0
470.554352 104.0
470.61911 92.0
470.893799 72.0
471.314514 52.0
471.383667 72.0
471.444153 80.0
471.621338 80.0
472.006134 124.0
472.131531 84.0
472.481903 164.0
472.607361 152.0
472.819397 140.0
473.10614 240.0
473.174347 152.0
473.324707 188.0
473.607391 64.0
474.104065 232.0
474.270721 180.0
474.344025 116.0
474.374359 120.0
474.409058 56.0
474.96283 144.0
475.109253 312.0
475.250427 120.0
475.341553 64.0
475.428345 124.0
475.536835 52.0
476.103577 104.0
476.157715 256.0
476.325928 120.0
476.918274 72.0
477.031067 164.0
477.113739 200.0
477.213654 96.0
477.258759 108.0
477.318024 88.0
477.378876 52.0
477.565887 136.0
477.818207 140.0
477.957428 212.0
478.179382 56.0
478.462311 124.0
478.6539 64.0
478.688721 104.0
478.871643 92.0
479.485962 112.0
479.708252 76.0
480.027802 68.0
480.388519 32.0
480.488861 100.0
481.326904 104.0
481.536499 124.0
481.667542 188.0
482.095734 144.0
482.650879 100.0
482.976776 124.0
483.032654 68.0
483.127594 124.0
483.897858 140.0
484.077393 92.0
484.467224 64.0
484.750824 88.0
485.120178 144.0
485.400787 116.0
485.444611 120.0
485.542419 80.0
486.137726 124.0
486.168457 224.0
486.207947 88.0
486.712769 132.0
486.840118 228.0
486.980682 132.0
487.318909 168.0
487.459534 152.0
487.49469 160.0
487.92984 60.0
488.136505 136.0
488.211243 148.0
488.387177 84.0
488.725922 56.0
489.394958 48.0
489.998352 72.0
490.186462 168.0
490.536011 140.0
490.580078 112.0
490.765259 104.0
490.919586 96.0
491.029846 72.0
491.223907 132.0
491.28125 212.0
491.479797 32.0
491.656311 88.0
491.934387 148.0
492.00061 64.0
492.39801 160.0
492.654205 80.0
492.776611 124.0
492.932556 156.0
493.01651 112.0
493.356873 124.0
493.772522 148.0
493.838837 112.0
493.949432 64.0
494.321075 84.0
494.405151 148.0
494.502533 88.0
494.537933 112.0
495.131195 52.0
495.476715 56.0
495.6362 164.0
496.137054 280.0
496.465149 28.0
496.544983 120.0
496.624817 100.0
496.899872 40.0
497.729858 128.0
497.840881 104.0
498.018524 52.0
498.385132 84.0
499.116211 124.0
499.578766 92.0
499.761169 40.0
500.001465 68.0
500.544586 80.0
500.78952 208.0
500.838531 160.0
500.94989 132.0
501.551453 72.0
501.698547 36.0
501.912567 56.0
502.064178 80.0
502.34964 56.0
502.443329 88.0
503.045776 68.0
503.166321 64.0
503.210968 108.0
503.304718 56.0
503.988129 96.0
504.180298 144.0
505.061066 72.0
505.674042 100.0
505.718811 104.0
506.117249 96.0
506.184418 72.0
506.251587 80.0
506.300842 96.0
506.50238 124.0
506.739838 128.0
506.851837 124.0
506.883209 68.0
507.389679 80.0
507.734955 52.0
507.909882 80.0
508.291229 84.0
508.591919 136.0
508.654755 184.0
508.870239 52.0
508.906158 124.0
509.076782 140.0
509.121704 108.0
509.52597 104.0
509.660736 180.0
509.78656 144.0
509.994049 96.0
510.06073 108.0
511.05011 72.0
511.153595 88.0
511.261627 84.0
511.648712 72.0
511.846832 104.0
512.022461 160.0
512.270203 144.0
512.729797 80.0
512.792847 92.0
512.928101 68.0
513.785522 148.0
514.033081 108.0
514.312866 68.0
514.669495 96.0
514.710144 180.0
514.804993 48.0
514.850159 72.0
514.890808 156.0
515.283813 140.0
515.428345 108.0
515.482605 52.0
515.794434 36.0
516.323425 160.0
516.409363 104.0
516.67627 104.0
516.920593 76.0
517.685608 148.0
517.835083 96.0
518.161255 156.0
518.21106 96.0
518.464844 40.0
518.677856 80.0
518.990662 136.0
519.036011 124.0
519.289978 52.0
519.412415 100.0
519.680115 196.0
520.192932 48.0
520.360901 44.0
520.445984 60.0
520.587952 88.0
521.046692 124.0
521.128479 152.0
521.287537 92.0
521.410217 72.0
521.455688 184.0
521.773865 64.0
521.996643 120.0
522.402283 152.0
522.456055 144.0
522.51239 128.0
522.833679 100.0
522.879211 108.0
522.933838 88.0
523.197815 48.0
523.266113 176.0
523.543884 204.0
523.648621 96.0
524.14978 164.0
524.514343 120.0
524.555359 148.0
524.755981 40.0
524.828918 100.0
525.344299 76.0
525.531372 100.0
525.663696 160.0
525.796021 72.0
526.133789 92.0
526.190979 228.0
526.54303 192.0
526.695496 144.0
526.923889 108.0
526.978699 64.0
527.060059 120.0
527.106689 64.0
527.742004 124.0
528.629395 96.0
529.091675 64.0
529.265686 48.0
529.540466 104.0
529.971069 56.0
530.016907 80.0
530.062683 132.0
530.213928 188.0
530.424805 164.0
530.525635 112.0
530.580627 212.0
531.274536 184.0
531.330139 160.0
531.520874 140.0
531.837585 152.0
531.947693 52.0
532.099243 160.0
532.154297 112.0
532.388489 64.0
532.484924 88.0
532.783508 56.0
532.843262 120.0
533.128113 56.0
533.20166 88.0
533.551025 136.0
533.900452 172.0
534.162598 80.0
534.286865 120.0
534.322327 172.0
534.613525 124.0
534.71936 112.0
534.751587 36.0
535.036194 344.0
535.115234 180.0
535.179688 104.0
535.276428 36.0
535.331665 108.0
535.373108 96.0
535.76001 44.0
536.050293 132.0
536.276123 120.0
536.419006 88.0
536.764771 96.0
536.815002 112.0
536.94928 100.0
537.183899 156.0
537.410583 92.0
537.6828 168.0
537.830505 104.0
537.968994 56.0
538.204468 128.0
538.55542 80.0
538.680176 100.0
539.169922 76.0
539.456482 144.0
539.821899 112.0
539.915649 152.0
539.992859 132.0
540.446228 44.0
540.694092 128.0
540.872009 76.0
540.904419 136.0
541.473877 140.0
541.747192 96.0
541.798157 148.0
541.983459 88.0
542.261536 68.0
542.425903 112.0
542.562805 204.0
542.998718 112.0
543.432434 152.0
543.866333 48.0
543.973083 124.0
544.070557 104.0
544.367737 100.0
545.141235 172.0
545.514465 172.0
545.919861 88.0
546.268677 104.0
546.380371 64.0
546.573792 152.0
546.654846 116.0
546.864319 188.0
547.450928 84.0
547.641846 84.0
547.912048 108.0
548.070435 104.0
548.11615 84.0
548.191589 124.0
548.23822 148.0
548.33606 120.0
548.662354 112.0
548.844177 56.0
549.361877 68.0
549.408569 28.0
549.641846 96.0
549.707153 52.0
549.795837 108.0
549.991821 124.0
550.127197 72.0
550.220581 148.0
550.636169 120.0
550.748291 32.0
550.893066 56.0
551.084656 68.0
551.126648 88.0
551.210815 108.0
551.682861 172.0
551.729614 96.0
551.841797 68.0
552.010132 40.0
552.119568 128.0
552.370239 72.0
552.594788 140.0
552.749207 96.0
552.992554 52.0
553.118958 40.0
553.191284 168.0
553.240662 160.0
553.582458 108.0
553.690186 156.0
554.135193 72.0
554.248413 96.0
554.285095 116.0
554.439758 116.0
554.533508 104.0
554.683472 104.0
554.824097 72.0
555.039795 108.0
555.663635 92.0
555.789368 120.0
556.250244 88.0
556.705688 116.0
556.94397 108.0
556.996826 216.0
557.23175 104.0
557.372681 164.0
558.011963 88.0
558.552734 100.0
558.590393 84.0
559.107971 132.0
559.178528 128.0
559.235046 76.0
559.2854 260.0
559.531555 176.0
559.785828 124.0
559.818787 112.0
560.270996 88.0
560.355225 164.0
560.430847 116.0
560.487732 88.0
560.57251 112.0
561.166443 84.0
561.279602 128.0
561.774841 120.0
561.859741 96.0
562.190063 132.0
562.586487 120.0
562.79895 116.0
563.011475 80.0
563.123047 268.0
563.167297 124.0
563.332642 92.0
563.648438 232.0
563.715332 100.0
563.800415 88.0
564.074585 128.0
564.48114 128.0
564.641968 148.0
564.832397 76.0
565.129211 124.0
565.233276 96.0
565.678162 172.0
565.730225 112.0
566.473694 84.0
566.516357 140.0
566.800598 52.0
566.975647 116.0
567.094421 84.0
567.288818 228.0
567.58429 124.0
567.696533 72.0
568.351135 196.0
568.939697 108.0
569.217102 120.0
569.5 108.0
569.899048 120.0
569.937073 96.0
569.970337 72.0
570.421814 136.0
571.001953 120.0
571.582275 88.0
571.74884 104.0
571.801208 36.0
572.158203 160.0
572.310547 152.0
572.529602 124.0
572.582031 96.0
573.005981 152.0
573.153687 68.0
573.248962 88.0
573.296875 72.0
573.6922 120.0
573.949707 100.0
574.083191 88.0
574.126099 108.0
574.388428 80.0
574.469543 140.0
574.622192 152.0
574.693359 132.0
575.008728 116.0
575.128052 240.0
575.290344 152.0
576.006653 52.0
576.3172 32.0
576.446167 188.0
576.484436 168.0
576.599121 68.0
576.905029 156.0
577.312927 260.0
577.60321 92.0
577.68927 48.0
577.898132 80.0
577.952454 140.0
578.691223 104.0
578.721069 88.0
578.7901 140.0
578.957703 100.0
579.158875 140.0
579.216309 128.0
579.312134 80.0
579.431885 124.0
579.532532 88.0
579.644775 120.0
579.769348 160.0
579.966919 148.0
580.156189 164.0
580.45282 124.0
581.177917 124.0
581.445862 72.0
581.489075 104.0
581.522644 80.0
581.66272 112.0
581.91626 32.0
582.151184 268.0
582.28125 104.0
582.434937 72.0
582.468567 192.0
583.093201 184.0
583.124084 76.0
583.535278 168.0
583.602722 64.0
583.71167 104.0
584.189453 100.0
584.458923 88.0
584.940186 84.0
585.070129 124.0
585.243469 52.0
586.009277 120.0
586.120117 124.0
586.500854 120.0
586.891357 92.0
586.973328 112.0
587.098694 132.0
587.159668 112.0
587.635193 144.0
587.798157 64.0
587.904358 80.0
587.996033 232.0
588.660706 160.0
588.739502 128.0
589.367493 52.0
589.570435 108.0
590.133728 228.0
590.237183 160.0
590.600281 92.0
590.784058 56.0
591.166321 116.0
591.384094 108.0
591.766541 64.0
592.071594 96.0
592.151367 128.0
592.503357 120.0
592.560852 136.0
592.633545 32.0
592.82251 96.0
592.875793 124.0
592.907715 108.0
593.452637 64.0
593.606873 80.0
593.86969 116.0
594.078308 144.0
594.131653 144.0
594.25293 128.0
594.461609 68.0
594.684814 164.0
594.861267 136.0
594.976929 116.0
595.107178 88.0
595.223694 92.0
595.631653 100.0
595.903748 40.0
596.059204 136.0
596.234131 124.0
596.282776 128.0
596.379944 92.0
596.622986 76.0
596.695923 60.0
597.026611 176.0
597.45459 124.0
597.546509 176.0
598.038574 144.0
598.131897 132.0
598.61792 96.0
598.695801 80.0
598.895508 104.0
599.046509 188.0
599.821289 168.0
600.079712 100.0
600.362488 136.0
600.664917 116.0
600.738098 128.0
600.796631 156.0
600.952759 88.0
601.802002 108.0
601.841064 60.0
602.094971 124.0
602.19165 136.0
602.203186 188.0
602.397827 148.0
602.449951 180.0
602.596558 92.0
602.949951 120.0
603.111267 152.0
603.228577 40.0
603.46814 100.0
604.162598 68.0
604.280029 136.0
604.505127 144.0
604.642151 52.0
605.043518 96.0
605.441589 92.0
605.64093 40.0
605.770996 104.0
605.910339 152.0
605.969177 156.0
606.086731 60.0
606.177429 124.0
606.326843 48.0
606.792542 64.0
607.243652 76.0
607.390808 80.0
607.915771 48.0
608.15625 120.0
608.239746 44.0
608.539185 148.0
608.882935 96.0
609.044983 212.0
609.133423 124.0
609.251343 84.0
609.310303 84.0
609.629639 104.0
609.74762 68.0
609.973694 96.0
610.076965 100.0
610.212891 172.0
610.28833 72.0
610.47522 132.0
610.607971 160.0
610.676819 116.0
610.834229 88.0
610.917847 168.0
610.991638 128.0
611.715088 164.0
612.06958 92.0
612.128662 92.0
612.237 48.0
612.355164 56.0
612.399536 60.0
612.911865 152.0
612.956177 108.0
613.069519 112.0
613.13855 160.0
613.251892 136.0
613.325806 144.0
613.365295 136.0
614.213623 92.0
614.247925 132.0
614.350281 180.0
614.603149 116.0
614.642639 172.0
614.706787 132.0
614.973267 60.0
615.067017 80.0
615.126282 80.0
615.36322 172.0
615.407654 156.0
615.590393 108.0
615.684204 100.0
615.886719 96.0
616.365906 72.0
616.978821 144.0
617.013428 156.0
617.092529 64.0
617.201294 112.0
617.245789 120.0
617.344666 76.0
617.562317 88.0
617.638184 192.0
617.676086 108.0
617.898682 96.0
618.081726 132.0
618.348999 72.0
618.815552 124.0
619.621582 100.0
619.720703 72.0
619.79364 116.0
620.022949 28.0
620.151794 56.0
620.227905 80.0
620.721924 80.0
620.758728 140.0
621.143494 204.0
621.258362 132.0
621.341919 112.0
621.624756 104.0
621.932495 80.0
622.121765 92.0
622.185608 108.0
622.220398 124.0
622.483521 92.0
622.631653 116.0
622.707031 76.0
622.950439 64.0
622.990173 60.0
623.258423 36.0
623.492004 60.0
623.566528 56.0
623.800171 96.0
624.021057 176.0
624.068604 200.0
624.141479 156.0
624.205139 88.0
624.605713 84.0
624.889282 68.0
625.924622 84.0
625.97937 52.0
626.148682 64.0
626.26825 80.0
626.417664 68.0
626.577087 116.0
627.893066 128.0
627.997803 80.0
628.090149 216.0
628.247192 188.0
628.282104 108.0
628.327026 116.0
628.391846 200.0
628.551514 44.0
628.631348 88.0
628.890869 128.0
628.950806 104.0
629.524963 128.0
629.624817 96.0
629.844604 116.0
629.894531 84.0
630.71405 204.0
630.903992 160.0
631.17395 68.0
631.229004 132.0
631.343994 108.0
631.624084 56.0
631.733704 92.0
631.854187 68.0
632.004272 84.0
632.244507 108.0
632.467712 164.0
632.549805 120.0
632.748718 104.0
632.845154 92.0
632.884766 120.0
632.894165 108.0
633.012268 76.0
633.060486 108.0
633.159729 148.0
633.302307 72.0
633.376038 160.0
633.476196 100.0
633.576416 44.0
633.77179 108.0
633.826904 76.0
633.912109 76.0
634.192749 168.0
634.298035 44.0
634.47345 32.0
634.809448 152.0
634.889648 132.0
635.145447 140.0
635.235718 48.0
635.446472 72.0
635.521729 48.0
636.048645 104.0
636.153198 136.0
636.210693 392.0
636.294617 132.0
636.359924 184.0
636.435791 108.0
636.863892 128.0
637.222839 104.0
637.32428 188.0
637.389587 112.0
637.651306 164.0
637.912292 56.0
638.190735 216.0
638.208435 404.0
638.405029 124.0
638.500549 104.0
638.545837 88.0
638.651428 88.0
638.706787 108.0
639.205566 232.0
639.270264 48.0
639.326721 132.0
639.572266 132.0
640.126038 48.0
640.236816 156.0
640.500427 168.0
640.554138 84.0
640.680115 124.0
640.780884 68.0
640.91687 140.0
641.304932 140.0
641.476318 96.0
641.677979 100.0
641.809082 60.0
641.859497 100.0
642.020874 116.0
642.197388 112.0
642.268005 28.0
642.651428 132.0
642.691772 96.0
642.797729 80.0
642.863342 68.0
642.964233 164.0
643.355225 96.0
643.388245 176.0
643.423584 84.0
643.489258 84.0
643.539734 72.0
643.696228 164.0
644.039673 88.0
644.403381 72.0
644.724792 128.0
644.824158 124.0
645.003906 160.0
645.323303 112.0
645.832947 144.0
646.355103 128.0
646.461365 84.0
646.506958 100.0
646.894714 136.0
647.185242 68.0
647.407166 92.0
647.625854 164.0
647.701782 168.0
647.904419 120.0
648.031128 184.0
648.137512 104.0
648.188171 40.0
648.335144 44.0
648.446655 124.0
648.522644 52.0
648.598694 72.0
648.887634 32.0
649.008118 196.0
649.184998 2112.0
649.317139 200.0
649.486023 152.0
649.911499 120.0
649.981384 96.0
650.044128 64.0
650.181519 868.0
650.66333 116.0
650.82074 96.0
650.897705 128.0
651.054321 64.0
651.182983 808.0
651.253174 140.0
651.38324 96.0
651.486084 120.0
651.806152 60.0
651.867126 92.0
651.973877 44.0
652.180725 500.0
652.295715 136.0
652.333923 128.0
652.599121 144.0
652.920898 128.0
653.122925 44.0
653.192932 236.0
653.371277 84.0
653.631653 224.0
653.830139 76.0
654.17627 128.0
654.544067 96.0
654.700684 132.0
655.266113 56.0
655.362915 60.0
655.470459 120.0
655.515747 104.0
655.585327 116.0
655.864563 88.0
655.903076 60.0
656.035645 96.0
656.106995 120.0
656.178406 76.0
656.560852 68.0
656.678101 144.0
657.014771 120.0
657.157654 100.0
657.249512 112.0
657.331116 132.0
657.902161 132.0
658.260193 88.0
658.352112 92.0
658.392944 148.0
658.511536 200.0
658.791382 48.0
658.944641 52.0
659.016174 92.0
659.215454 48.0
659.363647 152.0
659.578308 72.0
659.859497 92.0
660.028198 112.0
660.125366 124.0
660.21228 68.0
660.365723 80.0
660.565247 152.0
660.826111 120.0
660.933594 116.0
661.102417 88.0
661.2099 108.0
661.348083 128.0
661.604065 84.0
661.813965 40.0
661.947083 276.0
661.989502 112.0
662.16217 124.0
662.220398 88.0
662.276489 176.0
662.387573 52.0
662.431213 184.0
662.47467 192.0
663.242981 308.0
663.345825 120.0
664.197021 156.0
664.984436 124.0
665.221619 260.0
665.426758 128.0
665.716187 52.0
665.854858 124.0
666.245239 100.0
666.502136 144.0
666.707703 132.0
666.908142 156.0
667.11377 136.0
667.170288 156.0
667.211426 104.0
667.303955 108.0
667.468506 108.0
667.694763 48.0
667.993103 144.0
668.284607 132.0
668.528198 132.0
668.761292 112.0
669.213684 120.0
669.377563 100.0
669.995667 172.0
670.258423 192.0
670.366638 152.0
670.47998 60.0
670.52124 112.0
670.737732 72.0
670.954224 60.0
671.02124 124.0
671.0625 40.0
671.273926 60.0
671.330627 80.0
671.820618 180.0
671.985718 108.0
672.496582 92.0
672.705505 76.0
672.785645 44.0
673.162598 172.0
673.567627 124.0
673.622253 48.0
673.808228 168.0
673.994263 96.0
674.197876 80.0
674.268127 52.0
674.330139 80.0
675.048767 56.0
675.285217 188.0
675.814331 100.0
675.886719 96.0
676.533691 112.0
676.859863 124.0
676.994507 120.0
677.279358 80.0
677.37262 80.0
677.528015 96.0
677.921814 88.0
678.007324 112.0
678.217224 108.0
678.284607 144.0
678.586304 148.0
678.67865 108.0
678.771973 100.0
678.844543 64.0
679.000122 160.0
679.202393 124.0
679.394348 132.0
679.524048 64.0
679.591492 44.0
679.627808 172.0
679.6745 104.0
679.77832 112.0
680.22467 112.0
680.281738 88.0
680.42511 128.0
680.637817 104.0
681.247681 112.0
681.445068 108.0
681.600952 80.0
681.74646 56.0
682.177856 40.0
682.354614 92.0
682.390991 72.0
682.812195 200.0
683.358398 96.0
683.410461 124.0
683.56134 152.0
685.022278 180.0
685.191101 148.0
685.498474 108.0
685.618347 36.0
685.70697 132.0
685.999329 128.0
686.202148 60.0
686.296021 56.0
686.62854 152.0
686.765381 92.0
686.953125 108.0
687.067932 116.0
687.200623 156.0
687.354858 68.0
687.41748 64.0
687.485352 96.0
687.80896 100.0
687.94989 104.0
688.077942 136.0
688.173767 140.0
688.231995 132.0
688.982117 156.0
689.209473 252.0
689.569153 108.0
689.814819 248.0
689.851379 92.0
689.940247 116.0
690.031738 96.0
690.216614 156.0
690.306274 72.0
690.392151 152.0
690.489563 92.0
690.557312 156.0
690.714233 140.0
690.87085 124.0
690.885803 224.0
690.975769 64.0
691.194153 128.0
691.225891 204.0
691.315918 116.0
691.383911 88.0
691.786987 164.0
691.886414 68.0
692.137756 156.0
692.199951 232.0
692.247742 120.0
692.294861 84.0
692.352478 96.0
692.420532 72.0
692.764343 100.0
692.871033 180.0
692.918152 124.0
692.991516 72.0
693.209961 152.0
693.34259 44.0
693.526062 36.0
693.578491 120.0
693.627563 152.0
693.858948 200.0
693.919189 76.0
694.355896 72.0
694.501282 116.0
694.56427 124.0
694.674377 56.0
694.765747 144.0
694.831787 92.0
695.068359 92.0
695.141357 72.0
695.201477 88.0
695.283081 180.0
695.319763 72.0
695.361755 68.0
695.423645 56.0
695.444824 44.0
695.687195 96.0
695.965454 92.0
696.180786 68.0
696.238525 84.0
696.321167 164.0
696.459106 84.0
696.57489 100.0
696.818848 120.0
696.908386 100.0
696.978943 136.0
697.0896 88.0
697.189453 44.0
697.236755 92.0
697.283997 68.0
697.487305 124.0
697.729004 164.0
697.835999 140.0
697.922363 160.0
698.067322 116.0
698.419739 44.0
698.467041 48.0
698.603821 132.0
698.656433 116.0
698.924744 92.0
699.031006 76.0
699.134521 60.0
699.193115 60.0
699.256287 124.0
699.356323 68.0
699.51947 176.0
699.558289 96.0
699.635315 100.0
699.668701 80.0
699.70813 172.0
699.824829 64.0
699.985229 60.0
700.05127 108.0
700.098633 180.0
700.138367 56.0
700.273499 72.0
700.372498 84.0
700.414673 132.0
700.48584 180.0
700.539856 104.0
700.558716 80.0
700.574768 132.0
700.693848 60.0
700.767639 72.0
700.820312 44.0
700.899353 52.0
700.952026 80.0
701.098145 104.0
701.160217 120.0
701.218872 88.0
701.294617 36.0
701.358276 104.0
701.415833 156.0
701.522705 172.0
701.647156 148.0
701.720642 108.0
701.729248 88.0
701.77655 104.0
701.814941 96.0
701.869202 72.0
701.976685 128.0
702.040405 136.0
702.120361 84.0
702.19873 116.0
702.248901 44.0
702.307556 72.0
702.402771 120.0
702.481018 116.0
702.539062 104.0
702.609253 144.0
702.684814 108.0
702.739502 152.0
702.780701 200.0
702.799255 152.0
702.881531 108.0
702.982239 128.0
703.028259 128.0
703.077271 116.0
703.117004 164.0
703.131714 88.0
703.16803 152.0
703.222412 552.0
703.302429 136.0
703.375977 224.0
703.432861 140.0
703.483826 116.0
703.552307 68.0
703.648376 236.0
703.777893 148.0
703.875732 284.0
703.926147 152.0
703.985229 72.0
704.086792 176.0
704.148193 84.0
704.205261 508.0
704.293518 188.0
704.347046 156.0
704.402405 196.0
704.455994 396.0
704.495605 148.0
704.528381 72.0
704.587708 164.0
704.650391 272.0
704.771362 308.0
704.855835 440.0
704.934326 140.0
704.950745 412.0
705.05249 404.0
705.1026 384.0
705.155334 664.0
705.247375 156816.0
705.412292 268.0
705.496399 84.0
705.572327 188.0
705.653503 228.0
705.732422 280.0
705.827271 348.0
705.937439 544.0
706.04126 384.0
706.064026 256.0
706.087158 252.0
706.112854 236.0
706.249084 54896.0
706.395386 296.0
706.449585 76.0
706.500916 316.0
706.54187 108.0
706.592896 408.0
706.687683 304.0
706.73877 80.0
706.802917 296.0
706.826416 172.0
706.846069 260.0
706.897949 380.0
706.943726 152.0
706.993103 236.0
707.066833 240.0
707.137207 464.0
707.244629 108908.0
707.385925 264.0
707.457703 476.0
707.533325 216.0
707.588013 196.0
707.640381 296.0
707.677002 328.0
707.740479 212.0
707.793762 180.0
707.85968 140.0
707.900879 384.0
708.037598 180.0
708.246521 28760.0
708.387085 152.0
708.402283 208.0
708.448486 160.0
708.494263 204.0
708.531799 120.0
708.584717 292.0
708.607056 168.0
708.615417 120.0
708.670105 96.0
708.740356 260.0
708.82251 156.0
708.877747 208.0
708.928528 256.0
709.004578 196.0
709.011658 220.0
709.051086 180.0
709.109741 244.0
709.131104 192.0
709.146729 124.0
709.242249 10552.0
709.380432 124.0
709.416748 80.0
709.475708 144.0
709.525146 224.0
709.580933 180.0
709.657104 156.0
709.723267 220.0
709.7854 100.0
709.877319 196.0
709.952454 288.0
710.082275 128.0
710.100586 328.0
710.245361 1816.0
710.324524 268.0
710.334045 156.0
710.40918 116.0
710.576172 212.0
710.658386 116.0
710.727661 184.0
710.795837 176.0
710.86792 172.0
710.925354 332.0
711.004395 124.0
711.114929 40.0
711.122986 92.0
711.225098 176.0
711.300232 144.0
711.348694 152.0
711.361755 100.0
711.407715 80.0
711.46814 72.0
711.578735 140.0
711.631042 84.0
711.64624 72.0
711.736084 108.0
711.80603 244.0
711.872192 84.0
711.913391 128.0
711.985474 216.0
712.049866 136.0
712.145752 92.0
712.183594 204.0
712.234375 160.0
712.293274 92.0
712.35144 112.0
712.447388 104.0
712.568115 336.0
712.649231 96.0
712.706909 168.0
712.796326 64.0
712.856384 96.0
712.951538 180.0
712.999939 148.0
713.043396 96.0
713.124207 148.0
713.185608 124.0
713.25946 36.0
713.320862 100.0
713.369141 52.0
713.498352 72.0
713.544189 60.0
713.584167 92.0
713.679199 92.0
713.731567 32.0
713.74884 44.0
713.764221 72.0
713.831299 80.0
713.88678 120.0
713.93396 124.0
713.997986 80.0
714.089905 32.0
714.187866 80.0
714.225586 116.0
714.249084 72.0
714.336548 92.0
714.384399 80.0
714.523743 64.0
714.570618 76.0
714.658691 88.0
714.730225 68.0
714.819336 92.0
714.863281 52.0
714.905884 80.0
715.118713 80.0
715.278442 44.0
715.342957 96.0
715.406189 152.0
715.459412 48.0
715.530334 68.0
715.57959 84.0
715.765198 64.0
715.864075 60.0
715.959961 156.0
716.045349 112.0
716.140991 52.0
716.24823 64.0
716.359436 40.0
716.449951 56.0
716.502441 80.0
716.514709 76.0
716.797058 56.0
716.966797 64.0
717.049011 76.0
717.511047 40.0
717.547852 80.0
717.611816 120.0
717.803772 60.0
717.849609 60.0
718.003418 52.0
718.161072 44.0
718.23175 132.0
718.248962 68.0
718.271301 76.0
718.555847 36.0
718.635864 68.0
718.715881 84.0
718.875977 40.0
718.982727 60.0
719.281616 48.0
719.351013 68.0
719.404419 92.0
719.778137 80.0
719.90094 100.0
719.981079 68.0
720.071838 52.0
720.114563 124.0
720.451111 80.0
720.488525 60.0
721.001465 268.0
721.276428 108.0
721.953064 64.0
722.00116 48.0
722.127075 104.0
722.183044 92.0
722.22583 56.0
722.407715 36.0
722.669861 60.0
722.744751 64.0
722.932068 64.0
723.210327 36.0
723.365601 36.0
723.435181 76.0
723.56366 52.0
723.69751 48.0
723.938477 84.0
724.372314 76.0
724.529419 48.0
724.709534 76.0
724.728577 72.0
724.78363 88.0
724.988464 44.0
725.106384 48.0
725.367432 152.0
725.459595 76.0
725.513733 60.0
725.562012 84.0
725.744263 76.0
725.781799 60.0
726.125 76.0
726.184021 60.0
726.489746 112.0
726.548767 80.0
726.93512 68.0
726.98877 124.0
727.181946 48.0
727.259583 112.0
727.309021 84.0
727.783203 144.0
727.858398 92.0
727.955017 32.0
728.008728 108.0
728.148376 40.0
728.282654 36.0
728.566406 144.0
728.782288 76.0
728.889709 96.0
729.088562 72.0
729.169189 148.0
729.348877 84.0
729.469299 48.0
729.566956 92.0
729.781982 96.0
729.884155 96.0
729.95166 68.0
730.395081 104.0
730.470398 52.0
731.307312 76.0
731.358215 36.0
731.455139 88.0
731.896606 152.0
732.171204 80.0
732.214294 72.0
732.59137 72.0
733.097839 124.0
733.302612 92.0
733.901001 52.0
733.944153 52.0
734.025024 124.0
734.310852 72.0
734.537415 40.0
735.319763 92.0
735.542664 108.0
735.810974 88.0
736.097168 36.0
736.226746 96.0
736.799316 84.0
737.361267 40.0
737.739624 104.0
738.064392 80.0
738.226257 96.0
738.377686 84.0
738.761719 88.0
738.988953 60.0
739.151306 116.0
739.189148 84.0
739.322083 76.0
739.519287 88.0
739.595093 92.0
739.795349 92.0
740.374695 72.0
740.808044 76.0
740.965149 60.0
741.089722 52.0
741.149353 100.0
741.349854 80.0
742.070801 68.0
742.233459 64.0
743.522095 204.0
743.633057 60.0
744.409424 108.0
744.740723 68.0
745.870911 60.0
746.468933 112.0
746.648438 40.0
748.621643 96.0
748.7276 88.0
748.814514 68.0
750.362122 96.0
751.251038 72.0
752.244202 80.0
752.762878 48.0
754.156067 112.0
755.181641 112.0
757.115906 32.0
757.455505 56.0
757.849976 84.0
758.677551 60.0
759.653687 76.0
759.76886 112.0
761.662781 72.0
762.16272 60.0
763.465515 108.0
765.573242 48.0
765.810059 124.0
766.063477 76.0
767.661865 100.0
768.858948 72.0
770.117737 68.0
770.637024 96.0
771.759094 52.0
776.268921 44.0
777.237122 76.0
777.364807 124.0
778.391724 56.0
779.486023 72.0
780.486572 44.0
782.28363 48.0
782.500732 56.0
782.662231 48.0
783.436401 120.0
783.636963 52.0
784.311279 56.0
785.208923 72.0
785.973206 100.0
786.313599 32.0
786.810425 84.0
787.301758 176.0
787.832397 72.0
789.643494 112.0
789.917542 88.0
790.745667 72.0
791.092712 48.0
792.207092 76.0
792.425598 40.0
793.333496 124.0
793.613831 116.0
793.995117 60.0
794.045593 60.0
795.543823 84.0
797.200745 40.0
798.70752 48.0
799.174438 36.0
799.270081 40.0
800.142517 92.0
801.635132 40.0
802.300232 108.0
802.954346 96.0
803.258911 36.0
803.845642 116.0
804.884338 80.0
804.97467 64.0
806.347473 48.0
807.048401 92.0
807.38208 56.0
808.626709 64.0
809.107849 96.0
810.727844 96.0
811.26062 52.0
812.065857 88.0
812.559387 104.0
814.461121 56.0
815.688477 80.0
815.978394 84.0
817.963806 104.0
818.459106 144.0
820.162537 100.0
821.251587 44.0
823.814575 92.0
825.071838 108.0
825.65509 100.0
826.026855 84.0
826.593262 84.0
827.835449 44.0
832.30249 64.0
833.439758 56.0
835.49231 64.0
837.910339 104.0
838.192688 88.0
838.261841 44.0
840.631897 64.0
840.897339 40.0
841.509277 88.0
841.618958 52.0
842.132935 104.0
842.358215 68.0
842.77417 80.0
843.00531 96.0
843.912842 88.0
844.196167 80.0
847.61731 176.0
847.785339 112.0
848.254822 132.0
848.909973 56.0
849.310181 36.0
849.89032 104.0
850.749268 180.0
850.911865 56.0
851.509949 100.0
852.259338 52.0
853.078796 172.0
853.753235 92.0
854.684021 100.0
855.487183 52.0
856.191711 64.0
856.855774 40.0
858.651123 84.0
859.32196 120.0
860.249878 80.0
860.927185 128.0
861.172485 68.0
862.305969 72.0
863.3349 64.0
863.568848 68.0
863.644897 36.0
864.493225 56.0
865.096069 92.0
865.552734 68.0
867.206665 112.0
868.219116 60.0
869.286804 56.0
869.509766 64.0
869.738708 36.0
872.223389 92.0
873.022949 60.0
873.46405 56.0
873.658203 168.0
874.01123 76.0
874.558533 96.0
875.123657 96.0
875.559448 172.0
875.853943 164.0
876.177917 96.0
876.720032 92.0
881.056885 132.0
881.22229 120.0
881.529236 136.0
882.00238 140.0
883.557678 84.0
884.682068 120.0
885.984924 172.0
886.16864 72.0
886.245667 72.0
887.496277 216.0
888.154541 204.0
888.546082 48.0
889.833984 88.0
889.875549 144.0
892.697998 88.0
893.376038 56.0
893.483154 84.0
894.191223 120.0
895.09613 48.0
895.596375 108.0
896.633057 88.0
897.67041 52.0
898.827637 144.0
898.905212 128.0
900.087097 76.0
900.296143 64.0
900.726135 32.0
900.905396 56.0
901.598511 236.0
902.016846 116.0
903.236694 112.0
904.78064 72.0
904.846497 36.0
906.068298 56.0
906.206055 72.0
907.09906 52.0
907.896484 60.0
908.376282 88.0
909.282349 244.0
909.546448 112.0
909.888611 72.0
912.375854 104.0
913.83728 148.0
916.968628 120.0
917.372498 64.0
918.28302 76.0
918.433777 96.0
921.736145 100.0
921.814697 84.0
923.253479 60.0
926.043518 116.0
926.146484 112.0
926.688354 116.0
927.940247 100.0
928.073669 48.0
929.153259 60.0
929.729675 96.0
929.881409 48.0
929.96637 60.0
932.772644 196.0
933.672485 60.0
934.262512 48.0
934.743164 36.0
934.907471 40.0
934.974426 272.0
935.497864 116.0
935.936279 132.0
936.593994 156.0
936.764526 140.0
938.074707 124.0
938.58075 72.0
939.166199 188.0
939.788452 160.0
939.965393 68.0
941.509888 52.0
942.157349 140.0
944.529236 96.0
944.639343 100.0
945.177734 168.0
945.336792 92.0
948.09259 56.0
949.171509 68.0
950.214233 172.0
950.330811 64.0
950.379883 60.0
951.668823 56.0
953.247437 204.0
953.480957 76.0
955.583984 204.0
955.768616 52.0
956.525574 100.0
957.1474 80.0
957.559998 68.0
957.775574 84.0
958.385498 100.0
958.93396 100.0
959.044922 32.0
959.618225 64.0
961.363831 104.0
961.641602 60.0
963.438477 104.0
963.80304 144.0
964.489014 52.0
964.760986 104.0
965.348389 184.0
965.85553 44.0
966.307129 68.0
969.328735 68.0
969.84314 88.0
970.828918 72.0
970.89093 36.0
971.492615 76.0
972.013794 52.0
973.590515 60.0
973.990784 108.0
974.267578 104.0
974.963501 96.0
975.336426 88.0
976.076233 72.0
976.847473 76.0
978.14801 72.0
978.558899 148.0
979.044556 76.0
979.654968 100.0
980.290527 40.0
980.390198 80.0
980.701843 148.0
981.168945 64.0
981.531006 56.0
983.165405 196.0
983.215332 56.0
983.633484 124.0
984.132935 184.0
984.370239 64.0
984.438904 208.0
984.713684 56.0
986.078552 100.0
986.532043 60.0
987.307373 56.0
987.907837 48.0
988.414612 152.0
988.508484 72.0
989.503662 80.0
991.00061 36.0
991.207397 104.0
992.931335 36.0
993.909973 60.0
994.098206 168.0
994.757202 124.0
995.071106 80.0
997.848145 148.0
998.816589 84.0
999.131104 152.0
1000.307922 88.0
1000.5849 164.0
1001.164185 112.0
1003.022888 188.0
1004.447937 88.0
1004.536255 64.0
1004.681335 68.0
1004.738159 108.0
1004.794922 148.0
1006.928528 112.0
1007.844482 172.0
1008.495422 92.0
1011.082214 56.0
1011.816467 132.0
1012.120361 124.0
1012.259705 44.0
1013.596252 140.0
1014.318787 52.0
1015.904114 92.0
1015.967529 68.0
1016.138855 104.0
1016.614746 116.0
1017.941467 80.0
1018.284424 88.0
1018.384705 96.0
1019.523315 44.0
1024.600952 40.0
1025.168091 152.0
1027.623047 40.0
1027.686768 96.0
1028.044189 168.0
1028.229248 136.0
1029.652954 140.0
1029.748779 100.0
1030.227783 68.0
1032.023682 52.0
1032.708008 68.0
1033.379639 36.0
1033.533203 40.0
1033.641968 172.0
1033.936401 112.0
1034.281982 76.0
1035.146362 52.0
1035.203979 264.0
1035.248779 104.0
1035.716309 112.0
1037.081055 92.0
1040.646851 128.0
1041.996704 172.0
1042.048096 48.0
1042.157349 120.0
1042.562134 96.0
1043.738525 64.0
1044.761108 84.0
1048.882446 72.0
1049.082275 120.0
1049.365967 92.0
1050.47522 120.0
1051.094604 52.0
1052.359741 92.0
1053.270264 88.0
1054.711304 196.0
1058.114014 88.0
1060.141357 72.0
1060.893311 96.0
1061.236816 64.0
1061.347046 132.0
1062.644287 216.0
1062.890869 116.0
1062.97522 88.0
1063.598267 92.0
1064.455322 116.0
1065.307617 124.0
1065.91687 48.0
1066.22229 56.0
1067.119385 44.0
1067.24292 64.0
1068.348511 84.0
1068.491699 144.0
1068.810425 68.0
1069.721558 56.0
1069.968994 52.0
1070.37915 36.0
1070.574585 104.0
1071.714478 88.0
1072.066406 116.0
1072.809448 144.0
1073.709229 48.0
1073.852783 76.0
1074.511597 28.0
1074.589844 124.0
1075.438232 44.0
1079.061523 104.0
1079.177002 156.0
1079.227173 104.0
1081.588013 116.0
1081.952271 96.0
1082.346069 80.0
1082.551392 108.0
1084.510254 108.0
1084.706909 124.0
1085.015015 156.0
1085.110962 108.0
1086.122559 76.0
1086.202026 168.0
1087.120483 120.0
1089.585815 192.0
1089.720825 80.0
1091.022095 100.0
1091.068115 60.0
1091.442871 108.0
1091.515259 60.0
1091.830811 92.0
1091.936035 108.0
1091.995239 56.0
1092.317627 168.0
1092.501831 136.0
1093.442749 60.0
1095.754028 188.0
1096.854614 80.0
1097.256714 160.0
1097.362183 52.0
1098.641602 244.0
1099.030884 128.0
1099.644653 72.0
1100.47644 44.0
1103.019897 144.0
1103.753784 176.0
1104.177002 136.0
1104.223267 48.0
1104.527466 160.0
1105.599365 100.0
1106.393677 116.0
1106.817383 220.0
1107.539307 68.0
1108.466797 72.0
1108.605957 52.0
1108.72522 48.0
1109.95166 120.0
1110.203613 96.0
1110.581665 136.0
1111.736084 164.0
1112.107666 136.0
1112.363892 96.0
1115.17627 168.0
1115.309204 168.0
1116.991577 56.0
1117.404053 44.0
1118.728394 160.0
1118.794922 60.0
1119.394165 80.0
1119.687256 172.0
1120.033569 56.0
1120.859619 48.0
1121.012939 160.0
1122.292725 128.0
1122.372803 64.0
1122.526123 104.0
1122.66626 60.0
1123.199829 52.0
1124.721191 64.0
1124.941406 132.0
1125.882935 96.0
1126.183472 168.0
1126.724487 32.0
1127.914062 92.0
1128.20813 176.0
1129.050659 104.0
1129.184448 44.0
1129.371704 52.0
1129.472046 36.0
1130.314941 144.0
1130.408691 144.0
1130.502319 160.0
1130.823608 128.0
1131.312256 128.0
1131.37915 44.0
1131.613525 188.0
1131.94165 80.0
1132.303223 160.0
1132.724609 96.0
1133.502441 72.0
1133.602905 140.0
1133.710083 128.0
1134.279785 112.0
1134.440674 96.0
1138.009888 120.0
1138.80896 76.0
1138.950073 60.0
1139.198608 76.0
1140.683716 36.0
1141.591431 168.0
1141.658569 212.0
1142.149658 168.0
1143.004028 112.0
1144.316528 40.0
1145.710693 212.0
1146.384399 64.0
1146.842773 256.0
1147.220215 144.0
1147.948364 112.0
1148.197876 196.0
1148.717285 72.0
1150.370605 56.0
1150.566406 84.0
1151.700806 172.0
1153.092651 124.0
1153.275146 104.0
1153.971436 92.0
1154.816772 176.0
1155.506836 116.0
1155.574463 136.0
1158.121704 216.0
1158.90564 76.0
1159.129272 92.0
1160.03064 220.0
1161.407227 96.0
1161.719238 96.0
1162.03125 88.0
1162.166992 132.0
1162.601318 208.0
1162.913452 140.0
1163.381836 84.0
1164.047241 108.0
1165.813477 72.0
1166.228027 100.0
1166.506714 148.0
1167.091431 208.0
1168.220459 68.0
1168.356445 48.0
1168.832764 88.0
1169.554077 108.0
1170.119141 52.0
1170.343872 72.0
1171.3927 108.0
1171.631104 124.0
1172.005859 192.0
1172.360107 76.0
1174.855713 60.0
1175.374268 44.0
1175.449341 56.0
1175.845093 84.0
1177.811523 156.0
1178.754395 160.0
1179.403564 196.0
1179.745361 80.0
1180.080444 176.0
1181.065186 200.0
1182.282959 88.0
1182.570435 88.0
1182.755249 164.0
1183.967163 204.0
1184.30957 164.0
1186.74646 216.0
1187.537842 212.0
1187.771118 124.0
1188.621826 40.0
1188.724731 48.0
1188.930664 92.0
1189.081543 68.0
1189.273804 56.0
1190.008301 188.0
1190.482056 80.0
1191.111572 156.0
1191.182617 124.0
1191.285767 112.0
1191.519287 200.0
1191.71167 40.0
1191.869751 88.0
1192.742554 160.0
1193.766968 116.0
1194.13147 52.0
1194.567017 148.0
1195.046387 36.0
1196.65686 88.0
1197.214722 76.0
1197.917236 120.0
1198.089478 64.0
1199.901978 104.0
1200.881226 212.0
1200.957031 220.0
1202.827026 88.0
1202.95813 196.0
1204.021484 212.0
1204.332275 228.0
1205.043823 56.0
1205.237305 60.0
1206.36377 180.0
1206.640381 304.0
1206.737183 188.0
1207.324951 192.0
1209.338257 256.0
1210.245117 84.0
1210.902954 76.0
1211.886719 160.0
1212.219238 152.0
1213.099487 80.0
1213.182739 120.0
1213.231201 104.0
1213.778931 100.0
1214.389282 52.0
1215.062134 92.0
1216.186279 192.0
1216.970703 124.0
1217.436035 52.0
1218.088867 64.0
1218.186157 68.0
1218.463989 112.0
1218.575195 132.0
1219.374268 140.0
1219.777466 176.0
1219.909546 180.0
1220.465698 96.0
1220.514404 180.0
1220.723022 164.0
1222.754395 108.0
1223.903076 76.0
1225.477173 124.0
1225.867432 80.0
1226.431885 92.0
1227.038452 96.0
1227.087158 124.0
1227.512573 208.0
1229.500732 180.0
1231.211182 36.0
1231.35083 168.0
1233.356079 208.0
1233.614746 76.0
1233.69165 152.0
1233.782471 124.0
1234.313843 92.0
1236.034668 140.0
1236.230591 168.0
1236.531494 48.0
1236.88855 148.0
1237.000488 156.0
1237.063477 84.0
1237.189575 120.0
1237.483521 64.0
1237.847656 92.0
1238.835205 196.0
1239.283569 132.0
1240.362915 56.0
1240.524048 220.0
1242.038696 148.0
1244.62146 144.0
1244.965454 144.0
1245.056763 56.0
1245.569458 68.0
1246.405518 180.0
1246.623413 108.0
1246.952271 96.0
1247.314209 56.0
1248.310547 40.0
1249.126343 184.0
1250.202881 56.0
1251.448853 152.0
1251.533325 100.0
1251.85022 224.0
1252.230469 96.0
1252.568604 92.0
1252.716553 80.0
1252.836304 260.0
1254.266724 116.0
1254.717896 120.0
1256.135376 48.0
1256.544556 208.0
1256.756226 76.0
1257.306641 140.0
1257.384277 116.0
1257.871338 140.0
1259.495361 104.0
1262.16687 32.0
1262.739624 152.0
1262.836426 124.0
1262.965942 92.0
1263.921021 108.0
1264.098022 176.0
1265.782715 128.0
1266.05188 144.0
1266.788452 204.0
1267.085938 152.0
1268.460815 64.0
1268.588379 80.0
1269.063477 112.0
1269.113037 128.0
1269.588135 160.0
1269.935669 172.0
1270.276123 148.0
1270.978516 92.0
1271.404297 68.0
1271.524902 136.0
1272.077148 212.0
1273.171997 60.0
1273.612427 160.0
1274.059937 92.0
1274.290161 108.0
1274.739624 256.0
1275.026245 68.0
1275.701538 80.0
1276.344482 172.0
1276.640015 108.0
1277.351318 112.0
1277.678589 120.0
1279.33667 148.0
1279.792358 140.0
1280.240967 136.0
1280.319336 168.0
1280.867798 156.0
1280.974609 208.0
1281.694214 176.0
1281.858032 164.0
1282.014893 116.0
1282.157349 152.0
1283.711548 128.0
1284.995361 72.0
1286.465576 168.0
1286.82251 144.0
1287.29895 204.0
1287.922363 140.0
1288.508057 208.0
1288.82251 188.0
1289.101196 248.0
1289.737183 52.0
1290.616577 228.0
1290.838257 156.0
1291.41748 212.0
1291.753662 112.0
1292.719604 120.0
1292.984375 96.0
1294.000854 136.0
1294.201294 160.0
1294.494873 116.0
1294.545044 144.0
1295.161011 52.0
1295.540649 132.0
1295.640869 56.0
1295.698242 124.0
1296.626221 72.0
1296.859131 176.0
1297.640503 60.0
1297.999023 80.0
1298.056396 128.0
1298.479492 76.0
1299.096313 196.0
1300.782715 136.0
1301.234985 112.0
1301.457642 188.0
1302.635376 88.0
1302.879639 112.0
1302.944336 72.0
1303.662842 136.0
1304.453491 48.0
1305.00708 208.0
1305.891602 76.0
1306.356689 128.0
1306.553345 148.0
1306.761963 112.0
1307.013306 60.0
1307.172119 120.0
1308.237305 144.0
1308.294922 72.0
1309.375 52.0
1309.605469 108.0
1309.9729 92.0
1310.911621 148.0
1311.003174 192.0
1311.500488 172.0
1312.32959 100.0
1312.538696 148.0
1312.978516 32.0
1313.562744 120.0
1315.583374 228.0
1315.706055 76.0
1316.117554 136.0
1316.74585 132.0
1317.302002 84.0
1317.721069 40.0
1318.03894 144.0
1318.147339 164.0
1318.725586 124.0
1320.779053 116.0
1320.905273 208.0
1321.205811 144.0
1321.755737 144.0
1321.878662 164.0
1322.269531 128.0
1322.884766 136.0
1323.118652 120.0
1323.217773 96.0
1324.115723 68.0
1324.503662 64.0
1324.854492 124.0
1324.992188 44.0
1325.245728 96.0
1325.796509 116.0
1325.948608 172.0
1326.332764 136.0
1327.39856 112.0
1327.485596 72.0
1327.66687 168.0
1327.877197 164.0
1328.479248 88.0
1330.540283 88.0
1330.627441 56.0
1330.961426 168.0
1331.324463 72.0
1331.644043 176.0
1332.472168 44.0
1333.08252 36.0
1334.158203 156.0
1334.318115 64.0
1334.827148 32.0
1334.899902 108.0
1335.518066 120.0
1335.699951 132.0
1336.014648 196.0
1336.361938 168.0
1337.395264 144.0
1337.737427 188.0
1338.305298 76.0
1338.683105 176.0
1339.587036 168.0
1340.986084 128.0
1341.204712 140.0
1341.379761 204.0
1342.480591 136.0
1342.670288 176.0
1343.749878 216.0
1344.793335 64.0
1345.282471 204.0
1345.610962 168.0
1346.297363 148.0
1346.414185 156.0
1346.516479 160.0
1346.772095 60.0
1346.925415 148.0
1347.188477 136.0
1348.386841 196.0
1350.027466 116.0
1351.377686 176.0
1351.65564 112.0
1352.227173 204.0
1352.446045 172.0
1352.738892 80.0
1354.210693 164.0
1354.503662 72.0
1354.950562 128.0
1355.184937 272.0
1356.078979 116.0
1356.434082 144.0
1357.061279 184.0
1357.845947 124.0
1358.806885 112.0
1359.547974 176.0
1359.937012 168.0
1360.113159 172.0
1360.186523 216.0
1361.81665 152.0
1361.904785 232.0
1362.103149 88.0
1362.212646 248.0
1362.543823 216.0
1362.80835 124.0
1363.352173 68.0
1363.491821 136.0
1363.825806 116.0
1364.065063 108.0
1364.285645 132.0
1364.59436 144.0
1364.756226 96.0
1366.109375 196.0
1366.668579 40.0
1367.796997 72.0
1367.967529 104.0
1368.34668 128.0
1368.398193 252.0
1368.692749 216.0
1370.055298 164.0
1370.129028 52.0
1371.521729 184.0
1371.580688 152.0
1371.691284 124.0
1372.104126 76.0
1373.615845 188.0
1374.073242 136.0
1374.575073 128.0
1374.951416 152.0
1375.158081 184.0
1376.211548 112.0
1376.309692 196.0
1376.723145 176.0
1377.516357 172.0
1377.727783 140.0
1377.868164 136.0
1378.052856 144.0
1378.215332 128.0
1378.887817 120.0
1379.534912 124.0
1380.129761 128.0
1381.364868 136.0
1381.47583 48.0
1381.734741 156.0
1381.875366 72.0
1382.015869 52.0
1383.407349 84.0
1383.555298 84.0
1384.606812 192.0
1384.880859 156.0
1385.517944 180.0
1385.755005 140.0
1385.836548 116.0
1386.607178 136.0
1387.157227 208.0
1387.500122 148.0
1387.926758 200.0
1388.549683 84.0
1388.668335 44.0
1389.758789 64.0
1391.042725 84.0
1391.978271 116.0
1392.193604 84.0
1392.550049 160.0
1392.824829 172.0
1393.12207 124.0
1394.244019 228.0
1394.652832 204.0
1395.582031 100.0
1395.879517 152.0
1397.381958 64.0
1397.657227 180.0
1397.776367 80.0
1397.895386 220.0
1398.714111 144.0
1398.915039 220.0
1399.197998 168.0
1399.465942 56.0
1399.801025 168.0
1400.285156 56.0
1400.709717 144.0
1400.769287 180.0
1401.664673 112.0
1403.057129 128.0
1403.26123 208.0
1403.459717 180.0
1403.795288 136.0
1405.040894 116.0
1405.757202 136.0
1405.876587 72.0
1406.137817 52.0
1407.690674 136.0
1407.772827 168.0
1407.839966 68.0
1408.295532 64.0
1409.22937 188.0
1409.304077 192.0
1409.744995 152.0
1409.886963 156.0
1409.969116 172.0
1410.133545 40.0
1411.105347 160.0
1411.202637 180.0
1411.307251 40.0
1411.38208 124.0
1411.957886 128.0
1413.094849 168.0
1413.611206 140.0
1413.858154 120.0
1414.599121 160.0
1414.936035 88.0
1415.662354 156.0
1416.883179 132.0
1416.973145 128.0
1417.542603 148.0
1417.827393 180.0
1417.90979 64.0
1418.127197 160.0
1418.471924 72.0
1418.651855 160.0
1419.574097 116.0
1420.061523 184.0
1420.549072 44.0
1420.624146 192.0
1420.856689 144.0
1421.134277 168.0
1421.364868 176.0
1421.486938 120.0
1422.636963 132.0
1422.900024 160.0
1423.070801 120.0
1423.363647 208.0
1423.746582 136.0
1424.129639 132.0
1424.587891 116.0
1424.90332 180.0
1425.557129 80.0
1427.346191 196.0
1427.646973 208.0
1427.969971 220.0
1428.203491 80.0
1428.414185 116.0
1429.42981 108.0
1429.776001 76.0
1429.866333 180.0
1430.282104 80.0
1431.424683 92.0
1431.710815 160.0
1431.86145 140.0
1431.989502 148.0
1432.658936 172.0
1432.727661 196.0
1433.435913 156.0
1433.594116 80.0
1435.041382 224.0
1435.448608 116.0
1435.750244 172.0
1436.006714 176.0
1436.828857 60.0
1436.919434 112.0
1437.206177 140.0
1438.134399 28.0
1440.097534 176.0
1440.565796 136.0
1441.486328 200.0
1442.15271 104.0
1442.689331 152.0
1443.195923 152.0
1443.314697 224.0
1443.846191 180.0
1443.929443 188.0
1444.216797 212.0
1444.307617 80.0
1444.504272 212.0
1444.890137 68.0
1444.942993 196.0
1445.518066 152.0
1445.903076 152.0
1446.085693 164.0
1446.252197 60.0
1446.57019 72.0
1446.89563 88.0
1446.956177 128.0
1449.016235 40.0
1449.182983 140.0
1450.27417 144.0
1450.577393 100.0
1451.34314 52.0
1451.631348 120.0
1451.760254 152.0
1451.934692 104.0
1452.177368 136.0
1452.662842 36.0
1453.193848 148.0
1453.246948 168.0
1453.451782 120.0
1453.997314 160.0
1454.344727 172.0
1454.499146 188.0
1454.567505 136.0
1454.688965 48.0
1454.749634 192.0
1455.577271 164.0
1455.994873 156.0
1457.544556 236.0
1457.848633 184.0
1458.722656 208.0
1459.171143 112.0
1459.346069 96.0
1459.718628 124.0
1459.977173 96.0
1460.098877 168.0
1460.441162 116.0
1460.532349 64.0
1460.714966 152.0
1461.087769 152.0
1461.171387 104.0
1461.255127 96.0
1461.825806 140.0
1462.952271 60.0
1463.150146 88.0
1463.21106 72.0
1463.527832 188.0
1463.622192 184.0
1464.041016 220.0
1464.47522 180.0
1464.696045 76.0
1465.03125 40.0
1465.206421 140.0
1465.541748 68.0
1466.280884 156.0
1466.440918 64.0
1466.677246 92.0
1467.393799 176.0
1468.331787 60.0
1468.392822 172.0
1468.911499 156.0
1469.147949 176.0
1469.536987 156.0
1469.804077 104.0
1469.888062 200.0
1471.271606 148.0
1471.633667 224.0
1472.101807 184.0
1472.621094 168.0
1472.750977 56.0
1473.20166 64.0
1474.783325 152.0
1475.356689 84.0
1475.56311 60.0
1475.876587 192.0
1476.060059 52.0
1476.468262 204.0
1476.993164 216.0
1477.314453 88.0
1477.949463 128.0
1478.37793 128.0
1478.462158 84.0
1478.76062 144.0
1479.472534 140.0
1480.666992 176.0
1481.233887 156.0
1481.754761 68.0
1481.92334 152.0
1482.107178 68.0
1482.444336 160.0
1482.589966 128.0
1482.796875 104.0
1483.111206 84.0
1483.969727 148.0
1484.270996 208.0
1484.452881 112.0
1484.682861 84.0
1485.035645 200.0
1485.787476 176.0
1485.948608 68.0
1486.140381 156.0
1486.408936 44.0
1487.406616 184.0
1489.019043 184.0
1489.333984 28.0
1489.977661 244.0
1491.810547 112.0
1492.323364 160.0
1492.769409 236.0
1493.046265 268.0
1493.792358 112.0
1494.215454 144.0
1494.423218 192.0
1495.084961 76.0
1495.21875 124.0
1495.362061 116.0
1495.583984 156.0
1497.101929 96.0
1497.294434 108.0
1497.795166 108.0
1498.018555 44.0
1499.274414 80.0
1500.068359 108.0
1500.530884 124.0
1501.286499 176.0
1501.433105 172.0
1501.841797 108.0
1502.173462 92.0
1502.258423 208.0
1502.636353 132.0
1502.945068 128.0
1503.099365 152.0
1503.5802 192.0
