>compound Propranolol HCl
>formula C16H21NO2
>ionization [M+H]+
>parentmass 260.16450536409053
#inchi InChI=1S/C16H21NO2/c1-12(2)17-10-14(18)11-19-16-9-5-7-13-6-3-4-8-15(13)16/h3-9,12,14,17-18H,10-11H2,1-2H3
#inchikey AQHHHDLHHXJYJD
#origInchi InChI=1S/C16H21NO2.ClH/c1-12(2)17-10-14(18)11-19-16-9-5-7-13-6-3-4-8-15(13)16;/h3-9,12,14,17-18H,10-11H2,1-2H3;1H
#Ion_Source LC-ESI
#Instrument qTof
#Compound_Source Commercial
#PI Dorrestein
#Data_Collector Garg_Neha
#Scan -1
#Precursor_MZ 260.165
#ExactMass 259.157
#Charge 1
#CAS_Number 318-98-9
#Pubmed_ID N/A
#Smiles C1(=CC=C2C(=C1)C(=CC=C2)OCC(CNC(C)C)O).Cl
#INCHI_AUX N/A
#Library_Class 1
#SpectrumID CCMSLIB00000078648
#IonMode Positive
#UpdateWorkflowName UPDATE-SINGLE-ANNOTATED-GOLD
#LibraryQualityString Gold
#TaskID 77f51c88eb8b467eb4a01dd2d0cb90d2
##Scan# 1102
#SpectrumFile Plate10_41_64_GC3_01_15747.mzXML
#LibraryName FDALibrary_2_04302014.mgf
#MQScore -1
#Organism FDALibrary_2_04302014
#TIC_Query 0
#RT_Query -1
#MZErrorPPM -1
#SharedPeaks 0
#MassDiff 0
#LibMZ -1
#SpecMZ 260.165
#SpecCharge 0
#internalFilename spec-00000.mgf

>collision 10
45.40435 156.0
45.78603 144.0
45.84935 216.0
46.823463 144.0
46.948845 180.0
47.302723 168.0
47.441082 164.0
47.642818 168.0
47.802998 204.0
48.018604 188.0
48.135906 256.0
48.56216 140.0
49.149235 172.0
49.602367 148.0
49.905613 192.0
50.428616 164.0
50.957191 148.0
51.157402 184.0
52.1059 208.0
52.216583 144.0
53.232555 148.0
54.267109 192.0
54.47551 168.0
55.679329 288.0
56.538063 180.0
56.65036 184.0
57.215027 188.0
57.932369 176.0
58.10368 156.0
58.193226 228.0
58.434887 220.0
59.038937 148.0
59.274681 172.0
59.32526 188.0
59.381996 140.0
59.869183 248.0
60.644768 140.0
61.06012 208.0
61.442501 156.0
61.878544 180.0
61.981922 168.0
62.024235 152.0
62.481213 164.0
62.823074 140.0
63.252899 160.0
63.566708 180.0
64.744804 144.0
64.832565 128.0
65.187569 172.0
65.287239 212.0
65.327454 236.0
66.153694 156.0
66.684105 144.0
66.840225 204.0
67.443649 140.0
67.731636 176.0
68.112183 144.0
68.907875 196.0
69.759712 176.0
69.927711 148.0
70.882965 164.0
70.949738 196.0
71.280663 160.0
71.472351 168.0
71.615448 160.0
72.539734 176.0
74.43013 176.0
74.450859 256.0
74.748131 160.0
75.431107 148.0
76.184929 156.0
76.28846 152.0
76.325706 224.0
76.543213 220.0
76.916306 140.0
77.034134 132.0
77.293808 168.0
77.360313 156.0
77.947868 144.0
79.688332 204.0
81.465973 212.0
81.68708 160.0
81.993172 176.0
83.49585 148.0
83.675995 176.0
83.759758 140.0
84.092377 152.0
85.456841 232.0
87.156075 152.0
87.288048 188.0
87.47596 144.0
87.856117 172.0
87.910233 208.0
88.250191 216.0
88.560844 140.0
89.034187 188.0
90.141167 168.0
90.233017 188.0
90.296181 164.0
90.88343 216.0
91.230988 156.0
91.300346 268.0
92.306328 184.0
92.81115 188.0
93.353348 216.0
93.830872 140.0
94.290283 176.0
94.818634 140.0
94.898598 168.0
94.967926 216.0
95.167809 160.0
95.313484 200.0
96.209412 164.0
96.748978 152.0
98.023689 152.0
98.096619 3460.0
98.295815 148.0
98.601913 232.0
99.102211 340.0
99.382126 172.0
99.677261 120.0
99.837021 184.0
100.113457 292.0
100.670021 184.0
100.815849 140.0
101.500465 144.0
102.042587 164.0
102.372437 168.0
103.057137 368.0
103.939209 164.0
104.059227 184.0
104.514244 148.0
104.813568 144.0
104.962372 148.0
105.826675 172.0
106.486992 156.0
107.51226 244.0
107.553543 140.0
108.110817 224.0
108.668976 156.0
109.904892 232.0
110.082321 192.0
110.938065 152.0
111.666245 192.0
112.117226 172.0
112.556 148.0
113.83075 144.0
114.135674 136.0
114.971786 148.0
115.053833 704.0
115.279305 156.0
115.462494 116.0
115.555138 204.0
116.006195 200.0
116.061058 248.0
116.07798 444.0
116.107193 16348.0
116.315735 100.0
116.586533 140.0
116.713448 192.0
116.825195 208.0
117.069855 236.0
117.109184 820.0
117.148102 180.0
118.110847 268.0
119.040619 204.0
119.527542 152.0
119.832375 216.0
119.886848 208.0
120.176857 180.0
120.207405 344.0
120.281616 172.0
120.344925 140.0
120.377731 152.0
120.644234 148.0
120.987701 164.0
121.325073 148.0
121.588295 200.0
122.155174 172.0
122.428093 144.0
122.917473 152.0
123.619492 292.0
123.693214 164.0
124.28051 140.0
125.965828 260.0
126.048492 292.0
126.230476 116.0
126.5811 160.0
126.618393 180.0
126.910255 160.0
127.055984 156.0
127.714226 152.0
128.06163 1344.0
128.900253 156.0
129.070099 4936.0
129.113449 184.0
129.231125 108.0
129.295822 180.0
129.621918 212.0
129.821396 144.0
130.073608 340.0
130.561737 216.0
130.991913 176.0
131.075546 164.0
131.094437 144.0
131.322418 180.0
132.041855 180.0
132.071701 184.0
132.101074 1108.0
132.305008 160.0
132.708237 184.0
133.564835 164.0
134.013748 148.0
134.47113 176.0
134.819061 164.0
135.036392 216.0
135.932938 140.0
136.113647 132.0
136.353271 176.0
137.100327 192.0
138.410828 160.0
139.055496 152.0
139.151749 168.0
139.426575 224.0
140.06041 212.0
140.56636 172.0
140.937073 156.0
141.069595 1380.0
141.298828 148.0
141.374542 140.0
141.83638 156.0
142.069504 308.0
142.116226 204.0
142.781357 360.0
143.048538 884.0
143.083542 292.0
144.058228 380.0
144.180786 164.0
144.515564 160.0
144.549057 168.0
144.812408 188.0
144.932175 172.0
144.958542 144.0
145.064819 2088.0
145.308609 168.0
145.694351 208.0
146.067673 280.0
146.915695 148.0
147.316422 172.0
147.548431 152.0
149.138641 148.0
149.447495 140.0
149.995438 184.0
150.039322 232.0
150.110031 228.0
150.261261 180.0
150.310059 148.0
150.429642 156.0
150.578583 144.0
150.728317 204.0
150.774033 172.0
151.048065 160.0
151.518921 144.0
152.058914 296.0
152.31517 144.0
152.339722 176.0
152.606522 112.0
153.070877 2716.0
153.136688 152.0
153.577881 156.0
153.935013 192.0
154.039459 216.0
154.078064 912.0
154.304718 96.0
154.610611 172.0
154.915161 152.0
155.047745 652.0
155.085312 15196.0
155.952377 236.0
155.989151 136.0
156.056732 384.0
156.08873 1432.0
156.231689 172.0
157.000534 204.0
157.064514 9700.0
158.067398 1064.0
159.240448 140.0
159.322235 108.0
159.348465 152.0
159.891617 144.0
160.397873 144.0
160.556717 140.0
161.367279 176.0
161.617676 180.0
161.801422 192.0
161.921448 140.0
162.154541 148.0
162.664352 200.0
163.047882 140.0
163.230927 144.0
163.976822 216.0
164.875183 168.0
164.928848 148.0
164.97998 176.0
165.069733 3936.0
165.102707 152.0
165.187119 152.0
165.446548 148.0
166.072006 436.0
167.081268 356.0
167.775253 144.0
168.056747 1332.0
168.245209 144.0
168.335571 148.0
169.063019 328.0
169.099014 128.0
169.23024 152.0
169.819 180.0
170.000092 144.0
170.089996 112.0
171.050095 140.0
171.077728 1012.0
171.393875 188.0
171.560669 212.0
171.604996 148.0
172.08139 164.0
173.034134 172.0
174.826904 212.0
174.966415 164.0
175.055923 140.0
176.179535 172.0
176.449097 184.0
177.155701 168.0
178.148132 144.0
178.286011 196.0
180.462677 240.0
180.659042 160.0
180.752686 192.0
180.771423 284.0
180.865097 204.0
181.06369 312.0
181.961517 184.0
182.070923 436.0
182.128006 148.0
182.203232 140.0
182.96431 164.0
183.030685 172.0
183.080887 20984.0
183.235519 160.0
183.296906 132.0
183.358658 108.0
183.898453 96.0
183.975266 164.0
184.083344 1424.0
184.92952 124.0
185.087982 252.0
185.902405 140.0
185.965515 156.0
186.380325 144.0
187.296585 120.0
187.954163 168.0
189.29631 172.0
189.814209 152.0
190.250458 188.0
190.269669 160.0
190.519577 160.0
190.835648 160.0
190.978638 164.0
191.402451 196.0
191.664124 224.0
191.801926 180.0
192.883957 180.0
193.074738 180.0
193.199203 180.0
193.705795 184.0
194.027267 152.0
194.346207 212.0
194.476639 196.0
194.637665 156.0
194.893204 188.0
195.958832 272.0
196.35466 168.0
196.478806 152.0
196.502502 164.0
196.608536 164.0
196.912857 156.0
197.08046 144.0
197.471832 176.0
198.564117 164.0
199.087036 220.0
199.111389 344.0
199.909775 180.0
200.10759 440.0
200.194107 140.0
201.090225 296.0
201.327774 152.0
203.139206 188.0
204.099152 160.0
204.366516 160.0
204.876144 152.0
206.225845 140.0
206.566116 204.0
207.02977 148.0
207.34491 224.0
207.407959 248.0
208.199829 164.0
208.622208 200.0
208.951981 152.0
209.188919 176.0
209.839996 196.0
210.376602 140.0
210.948578 240.0
211.538696 180.0
212.724319 152.0
213.791 224.0
214.111237 196.0
214.335541 188.0
214.533722 184.0
214.84285 164.0
215.298187 160.0
215.625397 148.0
215.911896 148.0
216.110825 196.0
217.884598 168.0
218.118118 7100.0
219.028931 160.0
219.119797 552.0
220.11969 208.0
220.170349 152.0
220.312134 188.0
220.43811 156.0
221.083847 144.0
221.134155 260.0
222.586777 152.0
222.96405 172.0
223.297043 164.0
225.055222 184.0
225.128281 572.0
226.127808 172.0
226.652466 164.0
228.878235 224.0
229.299973 140.0
229.891068 172.0
230.032928 204.0
230.301666 144.0
230.374161 196.0
230.507095 176.0
230.69751 180.0
230.897079 176.0
231.720428 168.0
232.833664 176.0
233.325912 208.0
235.065079 160.0
235.507767 196.0
236.114853 172.0
236.204666 160.0
237.739655 232.0
238.172852 124.0
238.664261 168.0
239.794037 156.0
240.667053 156.0
240.886322 140.0
241.519989 152.0
242.153656 1792.0
242.743317 140.0
243.161331 380.0
243.388733 188.0
243.485001 140.0
244.209152 156.0
244.784897 176.0
245.398727 160.0
245.851028 136.0
246.550568 236.0
247.868011 160.0
248.012177 188.0
248.275528 180.0
248.388443 200.0
249.566132 164.0
250.242599 156.0
250.862762 136.0
251.907745 148.0
252.571548 160.0
252.637985 232.0
252.739227 168.0
254.003296 212.0
254.31424 188.0
255.353195 180.0
256.601471 148.0
257.258636 208.0
257.648254 160.0
257.99942 104.0
258.1362 224.0
258.279999 116.0
258.317535 200.0
258.491302 160.0
258.593994 164.0
258.687073 124.0
258.737915 172.0
258.953339 260.0
259.027008 152.0
259.06546 176.0
259.108704 180.0
259.168732 136.0
259.209961 132.0
259.239441 184.0
259.263672 112.0
259.314636 120.0
259.415741 132.0
259.470795 148.0
259.507263 304.0
259.542999 152.0
259.575165 124.0
259.706543 120.0
259.765991 136.0
259.85965 128.0
259.888 128.0
259.940033 356.0
259.979462 288.0
259.998901 224.0
260.044281 252.0
260.166901 190984.0
260.256317 140.0
260.319916 196.0
260.351593 120.0
260.385468 116.0
260.414795 216.0
260.44342 272.0
260.469238 340.0
260.520203 352.0
260.547852 380.0
260.598236 244.0
260.636322 160.0
260.658478 100.0
260.694305 4784.0
260.722412 276.0
260.765533 128.0
260.786652 232.0
260.820129 192.0
260.855835 96.0
260.888428 160.0
260.940033 156.0
261.019012 212.0
261.054199 184.0
261.075989 284.0
261.128815 340.0
261.168823 55936.0
261.250336 200.0
261.27771 108.0
261.348572 124.0
261.38916 280.0
261.41684 120.0
261.473236 292.0
261.523529 176.0
261.572784 140.0
261.626007 116.0
261.65567 100.0
261.699707 108.0
261.808929 184.0
261.906647 144.0
262.02478 148.0
262.088531 160.0
262.171661 5744.0
262.238434 152.0
262.453491 188.0
262.628876 144.0
262.71524 104.0
262.775208 124.0
262.801849 96.0
262.822388 284.0
262.861816 140.0
262.896973 276.0
262.943665 200.0
263.005463 164.0
263.032776 444.0
263.102936 116.0
263.126953 180.0
263.174896 580.0
263.245575 124.0
263.291199 128.0
264.021088 148.0
264.166351 128.0
264.713104 112.0
265.162903 116.0
272.637573 184.0
272.868225 100.0
273.487457 140.0
277.875977 152.0
277.939026 160.0
286.912842 160.0
303.569275 148.0
337.761353 184.0
352.655762 156.0
434.690826 160.0
598.410461 176.0
920.653442 140.0
988.518799 144.0
1331.52832 152.0
1332.138428 176.0
1339.623901 168.0
1340.827271 128.0
1345.910645 232.0
1408.452026 244.0
1418.313965 156.0
1427.616211 160.0
1473.146973 144.0
1501.400635 208.0
1529.790405 220.0
1532.453857 208.0
1536.601685 140.0
1540.989502 204.0
1554.457153 208.0
1569.670532 184.0
1588.303467 164.0
1595.12439 168.0
1601.163452 216.0
1608.323242 188.0
1621.416138 180.0
1628.082886 168.0
1639.724121 176.0
1686.769287 160.0
1688.723511 156.0
1696.469727 212.0
1710.739014 140.0
1711.47168 160.0
1717.207275 156.0
1719.459595 164.0
1728.947144 228.0
1732.35022 172.0
1738.236816 172.0
1738.38623 256.0
1746.029053 144.0
1750.206543 168.0
1756.473633 160.0
1765.861938 208.0
1784.099731 160.0
1788.162598 152.0
1804.459839 192.0
1814.93335 152.0
1819.090454 232.0
1826.125977 224.0
1836.824219 260.0
1842.876953 152.0
1845.509521 176.0
1846.997559 180.0
1851.465332 236.0
1854.601074 160.0
1869.071777 168.0
1872.127563 148.0
1876.435913 264.0
1877.332642 160.0
1880.654297 232.0
1891.614624 160.0
1892.497681 148.0
1903.570557 164.0
1908.471313 148.0
1925.813354 140.0
1940.129517 148.0
1941.032104 172.0
1941.154907 236.0
1951.032593 164.0
1964.559326 140.0
1967.074341 204.0
1971.923462 192.0
1976.177002 148.0
1986.231934 160.0
1988.405762 152.0
1992.259399 148.0
1993.378906 184.0
2001.704956 164.0
