>compound Oxfendazole
>formula C15H13N3O3S
>ionization [M+H]+
>parentmass 316.076813
#inchi InChI=1S/C15H13N3O3S/c1-21-15(19)18-14-16-12-8-7-11(9-13(12)17-14)22(20)10-5-3-2-4-6-10/h2-9H,1H3,(H2,16,17,18,19)
#inchikey BEZZFPOZAYTVHN
#Ion_Source LC-ESI
#Instrument qTof
#Compound_Source Commercial
#PI Dorrestein
#Data_Collector Garg_Neha
#Scan -1
#Precursor_MZ 316.075
#ExactMass 315.068
#Charge 1
#CAS_Number 53716-50-0
#Pubmed_ID N/A
#Smiles S(C1=CC2=C(C=C1)N=C(N2)NC(OC)=O)(C3=CC=CC=C3)=O
#INCHI_AUX N/A
#Library_Class 1
#SpectrumID CCMSLIB00000078305
#IonMode Positive
#UpdateWorkflowName UPDATE-SINGLE-ANNOTATED-GOLD
#LibraryQualityString Gold
#TaskID 77f51c88eb8b467eb4a01dd2d0cb90d2
##Scan# 1099
#SpectrumFile Plate5_1_20_GH6_01_16508.mzXML
#LibraryName FDALibrary_2_04302014.mgf
#MQScore -1
#Organism FDALibrary_2_04302014
#TIC_Query 0
#RT_Query -1
#MZErrorPPM -1
#SharedPeaks 0
#MassDiff 0
#LibMZ -1
#SpecMZ 316.075
#SpecCharge 0
#internalFilename spec-00000.mgf

>collision 10
44.888557 164.0
44.920567 172.0
44.945915 172.0
44.971272 280.0
44.985954 200.0
45.066742 284.0
45.156986 156.0
45.199795 160.0
45.20916 216.0
45.249535 124.0
45.266724 216.0
45.315601 220.0
45.391453 128.0
45.407436 168.0
45.473175 156.0
45.536743 196.0
45.572548 164.0
45.594879 188.0
45.615555 192.0
45.662571 124.0
45.779697 192.0
45.82819 148.0
45.953579 184.0
45.963024 180.0
46.034569 140.0
46.068138 192.0
46.131847 148.0
46.16024 176.0
46.241409 188.0
46.319942 160.0
46.344326 296.0
46.398636 224.0
46.413452 140.0
46.519276 220.0
46.546429 168.0
46.579025 148.0
46.610626 168.0
46.638813 144.0
46.652813 176.0
46.738087 164.0
46.808941 308.0
46.823849 164.0
46.833382 188.0
46.865211 208.0
46.919231 236.0
46.978447 184.0
47.010017 208.0
47.045681 168.0
47.139408 256.0
47.181351 304.0
47.227844 208.0
47.243198 124.0
47.272755 184.0
47.326996 336.0
47.37431 144.0
47.438717 184.0
47.472755 160.0
47.523746 148.0
47.539043 164.0
47.628784 352.0
47.67754 184.0
47.68716 156.0
47.802681 156.0
47.915588 156.0
47.963818 152.0
48.063438 192.0
48.104446 156.0
48.135353 276.0
48.224689 144.0
48.234367 160.0
48.249573 172.0
48.263584 148.0
48.286907 180.0
48.309036 168.0
48.356083 184.0
48.39069 160.0
48.415615 176.0
48.484882 168.0
48.523693 164.0
48.684376 140.0
48.689217 112.0
48.719501 264.0
48.755501 188.0
48.784164 180.0
48.927982 176.0
48.945644 128.0
48.979504 168.0
48.999077 164.0
49.109608 188.0
49.127014 200.0
49.14959 192.0
49.317169 148.0
49.419254 216.0
49.442631 144.0
49.466839 140.0
49.480839 200.0
49.576576 216.0
49.59132 184.0
49.61533 196.0
49.633556 148.0
49.650181 156.0
49.696217 224.0
49.711445 228.0
49.741585 204.0
49.757992 212.0
49.794941 252.0
49.807579 168.0
49.839893 152.0
49.877647 176.0
49.938297 152.0
49.992733 196.0
50.074181 132.0
50.105659 200.0
50.16077 164.0
50.185413 160.0
50.210117 140.0
50.317322 160.0
50.338539 188.0
50.3908 152.0
50.459145 180.0
50.606205 200.0
50.663845 152.0
50.717693 184.0
50.752346 180.0
50.784332 180.0
50.81554 264.0
50.833988 148.0
50.883667 180.0
50.897289 128.0
51.006664 140.0
51.06982 160.0
51.082623 188.0
51.110737 168.0
51.152348 172.0
51.190937 168.0
51.308338 112.0
51.324734 180.0
51.371799 164.0
51.384842 168.0
51.416031 172.0
51.454571 144.0
51.478844 144.0
51.490269 148.0
51.56599 184.0
51.580284 184.0
51.615139 176.0
51.656071 160.0
51.669796 168.0
51.724384 248.0
51.759113 160.0
51.922234 116.0
51.945427 180.0
52.023415 116.0
52.088974 160.0
52.107578 164.0
52.287392 168.0
52.346348 172.0
52.386745 232.0
52.444382 176.0
52.464321 144.0
52.484745 248.0
52.58284 268.0
52.61171 164.0
52.670918 156.0
52.749237 256.0
52.783642 140.0
52.808228 196.0
52.833572 156.0
52.859741 112.0
52.874779 196.0
53.076603 212.0
53.169861 184.0
53.22028 224.0
53.242027 164.0
53.279331 196.0
53.313709 188.0
53.34182 216.0
53.512432 144.0
53.58485 168.0
53.638771 144.0
53.65189 192.0
53.66647 172.0
53.702221 124.0
53.721889 152.0
53.760555 160.0
53.799385 192.0
53.860565 160.0
53.89819 180.0
53.92485 140.0
53.99461 140.0
54.025745 180.0
54.117947 192.0
54.191181 172.0
54.243938 140.0
54.262997 180.0
54.278606 168.0
54.296722 196.0
54.31139 152.0
54.389954 204.0
54.425858 144.0
54.507412 152.0
54.522812 176.0
54.538979 164.0
54.639565 188.0
54.665459 176.0
54.696365 168.0
54.7155 168.0
54.755257 148.0
54.802395 144.0
54.818649 128.0
54.830395 144.0
54.853977 156.0
54.883461 204.0
55.011818 152.0
55.051682 268.0
55.069405 216.0
55.109909 172.0
55.199409 128.0
55.229076 140.0
55.290749 308.0
55.317814 172.0
55.360752 232.0
55.372601 172.0
55.411114 156.0
55.431858 148.0
55.508102 248.0
55.554916 168.0
55.672173 160.0
55.698906 152.0
55.796986 164.0
55.859444 160.0
55.872833 356.0
55.887112 308.0
55.949802 128.0
55.96064 184.0
56.005318 140.0
56.06044 140.0
56.126884 156.0
56.221497 228.0
56.274384 140.0
56.358875 216.0
56.394741 176.0
56.51107 152.0
56.559937 160.0
56.603905 192.0
56.636971 184.0
56.687115 192.0
56.699295 188.0
56.94244 144.0
56.971645 188.0
57.024239 176.0
57.06007 148.0
57.08287 180.0
57.112946 144.0
57.129494 168.0
57.140045 164.0
57.234848 148.0
57.252918 160.0
57.269482 152.0
57.29509 240.0
57.310158 192.0
57.326855 196.0
57.38401 140.0
57.44886 192.0
57.501801 140.0
57.53717 176.0
57.572628 168.0
57.597534 116.0
57.652695 148.0
57.682922 176.0
57.738865 176.0
57.775089 152.0
57.8251 200.0
57.852882 124.0
57.964424 192.0
58.017471 216.0
58.106949 196.0
58.123642 328.0
58.140331 144.0
58.173195 160.0
58.229904 184.0
58.25325 184.0
58.304348 196.0
58.389484 220.0
58.428322 128.0
58.573009 148.0
58.60965 140.0
58.705799 176.0
58.848675 212.0
58.904659 184.0
58.928154 180.0
58.984119 144.0
59.007713 156.0
59.052803 184.0
59.121597 140.0
59.150852 148.0
59.166161 220.0
59.186062 208.0
59.203419 132.0
59.22588 176.0
59.300957 192.0
59.331615 140.0
59.345413 184.0
59.394485 164.0
59.417496 196.0
59.435909 176.0
59.529545 180.0
59.550621 372.0
59.570824 196.0
59.74934 144.0
59.777035 168.0
59.864422 224.0
59.883263 216.0
59.915607 172.0
59.937366 164.0
60.014248 140.0
60.048172 208.0
60.095993 156.0
60.155052 224.0
60.275105 156.0
60.324562 176.0
60.367851 208.0
60.41983 152.0
60.490078 176.0
60.548721 160.0
60.655018 208.0
60.705437 212.0
60.717842 164.0
60.736454 224.0
60.775238 180.0
60.902924 160.0
60.990284 152.0
61.040207 116.0
61.139755 104.0
61.180882 180.0
61.265942 176.0
61.281387 124.0
61.338062 172.0
61.42955 144.0
61.442661 168.0
61.464096 224.0
61.555676 388.0
61.573818 224.0
61.587109 188.0
61.626926 152.0
61.649761 176.0
61.73201 212.0
61.844299 192.0
61.908489 172.0
61.952343 216.0
62.011887 304.0
62.113804 196.0
62.207317 108.0
62.223656 144.0
62.242496 192.0
62.392956 136.0
62.406693 152.0
62.437355 408.0
62.451511 248.0
62.539619 204.0
62.567955 404.0
62.586689 160.0
62.632912 160.0
62.659298 228.0
62.681358 332.0
62.692387 284.0
62.71603 160.0
62.778305 152.0
62.800385 168.0
62.843765 184.0
62.875324 196.0
63.091721 188.0
63.128742 180.0
63.159718 192.0
63.219837 148.0
63.357037 172.0
63.399059 116.0
63.433655 208.0
63.485977 156.0
63.546253 220.0
63.604801 188.0
63.67989 152.0
63.735195 152.0
63.746319 320.0
63.762211 160.0
63.814667 172.0
63.828979 196.0
63.867146 240.0
63.906918 148.0
63.921238 196.0
63.932377 156.0
64.010376 144.0
64.093208 124.0
64.148987 140.0
64.222336 140.0
64.248329 136.0
64.260628 164.0
64.397911 164.0
64.410316 200.0
64.444237 156.0
64.480011 192.0
64.535339 156.0
64.562523 184.0
64.591309 236.0
64.738556 152.0
64.794617 200.0
64.855583 180.0
64.868332 216.0
64.956482 136.0
65.009476 144.0
65.069168 148.0
65.136314 248.0
65.168442 172.0
65.261665 168.0
65.292213 188.0
65.329208 184.0
65.362 220.0
65.383919 144.0
65.445091 144.0
65.52562 148.0
65.54451 188.0
65.701935 164.0
65.741684 180.0
65.856308 176.0
65.890236 236.0
65.90477 196.0
65.924164 180.0
66.035713 180.0
66.055122 156.0
66.13858 188.0
66.289886 196.0
66.377419 184.0
66.396446 164.0
66.529228 176.0
66.554283 180.0
66.570518 220.0
66.677559 192.0
66.698425 408.0
66.76857 152.0
66.789925 128.0
66.854309 148.0
66.890625 104.0
66.942734 184.0
66.98037 184.0
67.034134 196.0
67.079773 160.0
67.254303 152.0
67.273582 232.0
67.299934 168.0
67.326141 244.0
67.355133 176.0
67.432793 156.0
67.479301 196.0
67.496468 120.0
67.532425 164.0
67.58387 156.0
67.630241 152.0
67.690811 196.0
67.795654 164.0
67.926819 172.0
67.997368 156.0
68.021988 240.0
68.082741 172.0
68.102448 220.0
68.187881 144.0
68.22126 144.0
68.334236 160.0
68.449455 256.0
68.465919 156.0
68.480179 164.0
68.681931 124.0
68.770927 152.0
68.798988 152.0
68.817688 180.0
68.839226 184.0
68.954254 176.0
68.997688 116.0
69.028084 144.0
69.091057 180.0
69.10804 180.0
69.167877 180.0
69.260033 300.0
69.411156 148.0
69.437691 144.0
69.488464 184.0
69.53392 148.0
69.558815 192.0
69.613289 136.0
69.653122 116.0
69.669304 124.0
69.919907 160.0
69.95063 152.0
70.009384 180.0
70.065361 172.0
70.081535 216.0
70.146011 140.0
70.171463 192.0
70.196022 180.0
70.219658 176.0
70.257736 164.0
70.299492 152.0
70.31105 160.0
70.392929 176.0
70.423187 132.0
70.453056 316.0
70.465912 144.0
70.49984 148.0
70.51413 152.0
70.571724 208.0
70.621887 184.0
70.652 308.0
70.683044 224.0
70.762459 164.0
70.7808 140.0
70.846954 184.0
70.907852 140.0
70.935005 156.0
71.02388 348.0
71.042725 188.0
71.08622 380.0
71.126274 156.0
71.143021 304.0
71.240417 164.0
71.268982 184.0
71.314308 148.0
71.354698 172.0
71.369827 268.0
71.405144 176.0
71.458969 168.0
71.4758 160.0
71.635742 148.0
71.655602 172.0
71.687973 188.0
71.752937 140.0
71.819473 140.0
71.870079 160.0
71.922401 192.0
71.976418 192.0
72.003441 148.0
72.027084 160.0
72.155518 208.0
72.202866 148.0
72.233307 160.0
72.275604 160.0
72.290512 148.0
72.307755 168.0
72.367004 152.0
72.453377 156.0
72.480972 252.0
72.535645 120.0
72.572861 264.0
72.699234 184.0
72.818069 148.0
72.883324 272.0
72.952309 176.0
72.976112 140.0
73.038223 216.0
73.06955 200.0
73.175171 240.0
73.309731 152.0
73.400078 192.0
73.413719 164.0
73.440186 180.0
73.660881 172.0
73.70562 152.0
73.851784 140.0
73.877556 192.0
73.9245 184.0
73.951881 156.0
73.974129 212.0
73.992966 180.0
74.112854 216.0
74.133415 144.0
74.217033 172.0
74.301331 172.0
74.344345 160.0
74.437042 192.0
74.473404 140.0
74.636368 160.0
74.6828 180.0
74.694839 204.0
74.730965 232.0
74.756775 168.0
74.77227 152.0
74.786034 156.0
74.802094 164.0
74.841125 140.0
74.959373 376.0
75.08065 156.0
75.262306 220.0
75.362015 164.0
75.439789 156.0
75.489929 204.0
75.626602 152.0
75.638718 180.0
75.661507 144.0
75.709702 192.0
75.730484 160.0
75.744347 148.0
75.950615 152.0
76.046043 180.0
76.217407 236.0
76.348343 176.0
76.383125 168.0
76.433578 160.0
76.536705 160.0
76.560654 184.0
76.614647 160.0
76.677376 160.0
76.721619 136.0
76.826843 156.0
76.876335 232.0
76.959976 232.0
77.016411 152.0
77.045555 148.0
77.100937 172.0
77.152153 340.0
77.232292 140.0
77.437378 144.0
77.519714 180.0
77.546898 212.0
77.628532 156.0
77.643105 128.0
77.687561 120.0
77.719612 208.0
77.784546 184.0
77.932068 140.0
78.216965 172.0
78.360367 176.0
78.42411 112.0
78.460304 116.0
78.51825 140.0
78.592339 188.0
78.660286 180.0
78.689415 200.0
78.811279 176.0
78.83744 184.0
78.882942 196.0
78.940315 148.0
78.958 160.0
78.991608 156.0
79.18808 160.0
79.204018 164.0
79.250076 144.0
79.288582 132.0
79.313881 252.0
79.37957 152.0
79.446068 160.0
79.542702 188.0
79.603065 180.0
79.629402 96.0
79.709595 152.0
79.73246 176.0
79.760567 116.0
79.942589 152.0
80.001694 312.0
80.054649 152.0
80.079674 248.0
80.195488 160.0
80.217812 144.0
80.234703 156.0
80.249939 248.0
80.335304 224.0
80.415863 192.0
80.459969 208.0
80.545204 212.0
80.566063 124.0
80.608711 352.0
80.761482 204.0
80.80661 240.0
80.847359 160.0
80.949402 156.0
80.963722 204.0
80.994171 184.0
81.065834 148.0
81.102257 160.0
81.125496 208.0
81.245506 172.0
81.372559 188.0
81.431351 216.0
81.456619 168.0
81.488266 160.0
81.535149 232.0
81.575562 236.0
81.619492 128.0
81.636688 140.0
81.648521 188.0
81.679184 172.0
81.793213 232.0
81.89225 212.0
81.919266 160.0
81.936295 188.0
81.958939 180.0
81.983894 124.0
82.000351 232.0
82.054428 208.0
82.130783 164.0
82.296539 188.0
82.368469 180.0
82.399139 156.0
82.416245 192.0
82.429855 156.0
82.511238 160.0
82.558205 148.0
82.613739 136.0
82.621132 96.0
82.65287 132.0
82.695793 152.0
82.740219 168.0
82.785164 144.0
82.829689 164.0
82.865532 168.0
82.930382 156.0
82.947472 148.0
82.964058 244.0
82.996414 232.0
83.021805 148.0
83.059891 148.0
83.111717 204.0
83.142021 180.0
83.17421 320.0
83.272888 120.0
83.307869 224.0
83.332199 164.0
83.382538 120.0
83.635895 164.0
83.695969 148.0
83.717346 244.0
83.794693 196.0
83.814796 208.0
83.844254 168.0
83.892731 224.0
83.960068 168.0
83.98938 160.0
84.008904 176.0
84.113457 176.0
84.206581 144.0
84.331863 216.0
84.385658 156.0
84.450577 160.0
84.48156 128.0
84.511017 188.0
84.559433 168.0
84.596046 140.0
84.638153 164.0
84.665565 200.0
84.698654 220.0
84.75074 180.0
84.773705 220.0
84.819527 144.0
84.837852 180.0
84.891029 148.0
84.911011 196.0
84.958893 164.0
84.979988 144.0
85.062317 188.0
85.184685 152.0
85.205124 96.0
85.23613 176.0
85.305618 188.0
85.41729 216.0
85.460449 204.0
85.497131 180.0
85.543266 200.0
85.610451 188.0
85.700813 216.0
85.734398 156.0
85.784111 156.0
85.807335 200.0
85.908134 224.0
85.952415 184.0
86.000717 236.0
86.022903 176.0
86.074242 196.0
86.125954 176.0
86.144424 144.0
86.238663 172.0
86.271889 160.0
86.298973 128.0
86.423553 196.0
86.463104 204.0
86.48703 240.0
86.537933 200.0
86.561455 116.0
86.686157 140.0
86.788368 272.0
86.935013 252.0
86.957283 156.0
87.016685 148.0
87.066826 160.0
87.103966 148.0
87.211739 140.0
87.335037 180.0
87.349335 152.0
87.380959 188.0
87.40329 152.0
87.421898 148.0
87.474007 216.0
87.500069 144.0
87.550346 260.0
87.710579 168.0
87.740372 164.0
87.773964 148.0
87.787018 200.0
87.902672 196.0
88.02961 156.0
88.053886 192.0
88.09063 196.0
88.153915 140.0
88.241852 196.0
88.263184 144.0
88.380371 112.0
88.463333 208.0
88.510178 168.0
88.546059 140.0
88.575722 192.0
88.59446 348.0
88.632584 172.0
88.76799 204.0
88.831841 216.0
88.847542 168.0
88.875687 148.0
88.952629 140.0
88.988808 148.0
89.058784 172.0
89.139511 232.0
89.258865 220.0
89.304001 196.0
89.373604 160.0
89.477119 208.0
89.503479 172.0
89.582581 236.0
89.637222 240.0
89.674911 148.0
89.778603 200.0
89.822983 188.0
89.921982 144.0
89.938972 220.0
90.020767 160.0
90.042168 208.0
90.082481 292.0
90.185677 180.0
90.260132 196.0
90.303627 164.0
90.390305 176.0
90.444511 96.0
90.536415 176.0
90.647415 228.0
90.67189 176.0
90.729019 160.0
90.807426 164.0
90.835876 184.0
90.868675 184.0
90.904564 216.0
90.943703 144.0
90.979782 168.0
91.018478 188.0
91.038956 216.0
91.096764 136.0
91.138496 140.0
91.164337 204.0
91.335449 228.0
91.445801 296.0
91.487419 140.0
91.501259 152.0
91.514488 160.0
91.533379 208.0
91.579079 196.0
91.662903 404.0
91.760109 140.0
91.791458 168.0
91.878357 184.0
91.920334 172.0
91.933685 164.0
91.971863 236.0
92.055862 164.0
92.122711 180.0
92.183853 144.0
92.215645 132.0
92.298737 156.0
92.350174 236.0
92.383072 204.0
92.440498 208.0
92.492622 208.0
92.529846 184.0
92.561661 132.0
92.580833 192.0
92.635574 236.0
92.713936 140.0
92.781586 184.0
92.827042 172.0
92.871147 156.0
92.886475 172.0
92.917191 156.0
92.96463 116.0
92.986267 180.0
93.022308 144.0
93.036896 180.0
93.051529 148.0
93.076492 176.0
93.13118 172.0
93.268608 176.0
93.287827 176.0
93.333969 280.0
93.353203 204.0
93.378906 120.0
93.395515 156.0
93.471939 176.0
93.582176 244.0
93.639946 168.0
93.668304 400.0
93.746315 132.0
93.769035 192.0
93.844215 160.0
93.907799 144.0
93.961861 148.0
94.024445 184.0
94.095024 144.0
94.145233 180.0
94.176132 284.0
94.22068 188.0
94.340378 168.0
94.381897 160.0
94.460274 144.0
94.492371 256.0
94.516373 168.0
94.658432 300.0
94.744072 152.0
94.781654 208.0
94.873817 212.0
94.925095 236.0
95.041473 188.0
95.072525 200.0
95.095497 124.0
95.14875 172.0
95.206474 204.0
95.237549 156.0
95.284172 252.0
95.437294 184.0
95.472717 160.0
95.533012 148.0
95.628746 180.0
95.65995 260.0
95.675072 148.0
95.710121 164.0
95.754089 200.0
95.802406 176.0
95.83429 144.0
95.918571 148.0
95.951149 180.0
95.988762 160.0
96.00663 172.0
96.060486 160.0
96.097992 160.0
96.120186 128.0
96.240173 104.0
96.287224 212.0
96.341133 140.0
96.39122 180.0
96.418587 200.0
96.510109 320.0
96.54335 184.0
96.64003 152.0
96.686157 152.0
96.737053 148.0
96.807533 184.0
96.871704 156.0
96.88588 200.0
96.901199 132.0
96.917229 144.0
96.938782 152.0
96.976021 180.0
97.010345 288.0
97.083847 196.0
97.16819 176.0
97.200378 100.0
97.222115 108.0
97.237457 200.0
97.309502 152.0
97.362518 140.0
97.405418 252.0
97.468597 172.0
97.502029 372.0
97.562798 112.0
97.587334 156.0
97.61602 144.0
97.646751 200.0
97.661255 156.0
97.69194 180.0
97.714371 204.0
97.77462 252.0
97.931183 200.0
98.033348 188.0
98.095924 112.0
98.181198 192.0
98.262077 248.0
98.317993 140.0
98.3489 152.0
98.463417 208.0
98.509384 160.0
98.550331 160.0
98.581947 140.0
98.599731 144.0
98.621475 180.0
98.644287 140.0
98.690552 144.0
98.793503 180.0
98.956322 148.0
99.056236 100.0
99.118202 204.0
99.173698 192.0
99.435699 176.0
99.479164 160.0
99.496666 172.0
99.508888 148.0
99.566528 332.0
99.673714 176.0
99.737396 184.0
99.751312 148.0
99.805283 108.0
99.834816 160.0
99.880562 208.0
99.9048 216.0
99.991982 176.0
100.009895 184.0
100.073067 252.0
100.133339 152.0
100.198074 124.0
100.264824 180.0
100.328613 432.0
100.342567 196.0
100.383141 148.0
100.42067 168.0
100.437759 176.0
100.48217 224.0
100.605904 316.0
100.724762 244.0
100.776993 136.0
100.819626 336.0
100.8536 144.0
100.896912 168.0
100.917572 212.0
101.057579 240.0
101.11161 148.0
101.141632 164.0
101.215706 232.0
101.254837 296.0
101.296463 216.0
101.330467 200.0
101.347626 144.0
101.374344 164.0
101.462479 200.0
101.473808 176.0
101.508141 140.0
101.530319 144.0
101.678772 184.0
101.694832 148.0
101.939842 176.0
101.998131 228.0
102.028282 176.0
102.069641 144.0
102.086517 168.0
102.098427 192.0
102.215332 140.0
102.23452 224.0
102.255455 128.0
102.319992 168.0
102.342003 184.0
102.382027 124.0
102.504288 136.0
102.545891 144.0
102.585915 196.0
102.637726 360.0
102.658501 308.0
102.730026 276.0
102.749268 224.0
102.804123 148.0
102.811523 168.0
102.885513 236.0
102.9244 212.0
103.014717 156.0
103.039986 276.0
103.095581 148.0
103.115463 204.0
103.147087 184.0
103.244141 172.0
103.387772 192.0
103.425438 196.0
103.484932 252.0
103.505676 164.0
103.52858 296.0
103.758446 156.0
103.838951 180.0
103.904465 176.0
103.934563 204.0
103.962502 152.0
103.995781 192.0
104.03611 1656.0
104.060738 204.0
104.111229 148.0
104.139473 176.0
104.174049 156.0
104.23745 208.0
104.316711 280.0
104.359406 236.0
104.473602 160.0
104.530266 176.0
104.556305 136.0
104.627968 192.0
104.753693 132.0
104.784782 156.0
104.80481 212.0
104.844894 132.0
104.917839 152.0
104.99881 188.0
105.019211 152.0
105.040154 312.0
105.094688 192.0
105.123253 224.0
105.162498 140.0
105.186523 144.0
105.314407 356.0
105.335587 188.0
105.493095 152.0
105.544121 116.0
105.644264 140.0
105.703598 144.0
105.769089 180.0
105.803886 152.0
105.836647 192.0
105.857124 240.0
105.904221 168.0
105.936996 168.0
106.055305 168.0
106.074295 156.0
106.117348 176.0
106.140739 136.0
106.200348 176.0
106.219879 156.0
106.391609 140.0
106.416893 192.0
106.468231 288.0
106.492874 176.0
106.525742 148.0
106.553535 180.0
106.603813 248.0
106.632584 208.0
106.778557 160.0
106.833649 148.0
106.847122 140.0
106.903732 184.0
106.928787 180.0
107.001717 112.0
107.034027 168.0
107.124352 340.0
107.175079 116.0
107.240929 164.0
107.277054 156.0
107.362793 152.0
107.408127 156.0
107.470703 144.0
107.489281 168.0
107.708878 152.0
107.776291 168.0
107.801086 452.0
107.840355 160.0
107.871361 220.0
107.94677 168.0
107.962334 432.0
108.009903 200.0
108.033264 240.0
108.10714 148.0
108.123695 148.0
108.168404 216.0
108.205696 156.0
108.301582 160.0
108.392952 196.0
108.42453 172.0
108.612663 172.0
108.708099 160.0
108.731445 240.0
108.843025 144.0
109.115211 252.0
109.15863 148.0
109.185905 160.0
109.204971 168.0
109.225426 156.0
109.25663 156.0
109.287834 232.0
109.325287 228.0
109.339859 180.0
109.464996 212.0
109.491119 128.0
109.554321 144.0
109.575157 188.0
109.626434 184.0
109.701401 180.0
109.816704 172.0
109.867027 140.0
109.907066 168.0
109.963478 196.0
110.043411 124.0
110.157196 172.0
110.244949 140.0
110.322861 116.0
110.369125 148.0
110.377068 196.0
110.556175 160.0
110.634972 208.0
110.680046 184.0
110.736183 188.0
110.778481 164.0
110.793144 200.0
110.826668 188.0
110.858101 172.0
110.957809 140.0
111.057266 200.0
111.073013 116.0
111.149574 188.0
111.222488 156.0
111.294403 144.0
111.321701 180.0
111.358276 96.0
111.375565 228.0
111.524071 208.0
111.554916 384.0
111.580139 260.0
111.604523 124.0
111.621521 276.0
111.735771 180.0
111.772308 132.0
111.788376 180.0
111.817841 168.0
111.8452 168.0
111.882317 120.0
111.938896 180.0
111.968437 240.0
112.075996 148.0
112.120262 140.0
112.142181 144.0
112.198044 108.0
112.289764 144.0
112.319298 156.0
112.370125 172.0
112.406853 120.0
112.473015 216.0
112.519066 244.0
112.583115 160.0
112.606583 108.0
112.63131 200.0
112.70388 136.0
112.720428 200.0
112.801262 96.0
112.827019 152.0
112.856865 160.0
112.887169 136.0
112.94445 112.0
113.046074 208.0
113.082855 124.0
113.103218 176.0
113.23661 156.0
113.30439 248.0
113.34465 204.0
113.373283 160.0
113.406105 224.0
113.425186 140.0
113.566025 132.0
113.700912 228.0
113.721085 172.0
113.806282 156.0
113.832527 216.0
113.919037 164.0
114.014366 184.0
114.036476 152.0
114.17823 108.0
114.261879 160.0
114.284584 184.0
114.312347 196.0
114.362732 264.0
114.397591 140.0
114.502647 108.0
114.580513 152.0
114.618301 188.0
114.726143 224.0
114.769844 144.0
114.792282 180.0
114.986366 148.0
115.067482 172.0
115.090965 144.0
115.160103 192.0
115.189209 156.0
115.224762 180.0
115.246887 168.0
115.337166 116.0
115.392105 144.0
115.434883 164.0
115.464928 340.0
115.544075 168.0
115.580048 108.0
115.692108 140.0
115.790794 168.0
115.861794 148.0
115.899483 164.0
115.922188 148.0
115.9552 180.0
115.993782 184.0
116.026611 144.0
116.09343 268.0
116.133385 188.0
116.396446 140.0
116.448662 216.0
116.474434 144.0
116.491005 168.0
116.528313 152.0
116.570297 252.0
116.605499 140.0
116.661385 180.0
116.706535 204.0
116.763718 128.0
117.139107 208.0
117.167831 180.0
117.243126 160.0
117.266991 148.0
117.345238 320.0
117.446548 140.0
117.51638 152.0
117.560165 260.0
117.576805 148.0
117.699715 132.0
117.745193 208.0
117.980721 140.0
118.010811 148.0
118.053322 404.0
118.080902 168.0
118.127769 160.0
118.164543 156.0
118.200424 188.0
118.247856 168.0
118.373535 144.0
118.403931 156.0
118.432976 168.0
118.477119 180.0
118.502296 156.0
118.597153 140.0
118.680023 200.0
118.697372 168.0
118.725563 168.0
118.900497 208.0
118.92881 176.0
119.056358 564.0
119.105377 176.0
119.198799 236.0
119.222046 140.0
119.247269 264.0
119.318336 156.0
119.383568 152.0
119.420227 332.0
119.437943 156.0
119.453171 188.0
119.468399 168.0
119.576614 408.0
119.645126 192.0
119.679504 236.0
119.747238 196.0
119.820251 264.0
119.871773 200.0
119.968224 208.0
120.031769 204.0
120.051956 156.0
120.088745 136.0
120.141663 148.0
120.23101 148.0
120.331177 180.0
120.381699 144.0
120.449898 200.0
120.47818 140.0
120.58062 196.0
120.63945 156.0
120.693153 164.0
120.745262 276.0
120.769707 168.0
120.792587 144.0
120.822502 176.0
120.843849 136.0
120.989212 164.0
121.029877 184.0
121.03833 208.0
121.092392 168.0
121.107719 164.0
121.142769 172.0
121.16716 152.0
121.360786 176.0
121.478165 192.0
121.624001 208.0
121.67128 156.0
121.719589 168.0
121.79586 148.0
121.816223 184.0
121.872131 152.0
121.971382 208.0
122.148148 144.0
122.178947 192.0
122.244949 176.0
122.290894 316.0
122.315384 152.0
122.371178 196.0
122.422691 124.0
122.465111 152.0
122.498146 144.0
122.568008 180.0
122.647636 152.0
122.683029 148.0
122.709709 156.0
122.745049 140.0
122.822174 164.0
122.840981 184.0
122.894981 268.0
122.96328 168.0
123.027397 148.0
123.051682 208.0
123.075966 160.0
123.145561 172.0
123.164307 152.0
123.214996 160.0
123.276978 212.0
123.305763 180.0
123.392403 220.0
123.506912 152.0
123.568848 168.0
123.613106 184.0
123.745682 192.0
123.949684 120.0
123.982925 192.0
124.0364 156.0
124.067871 148.0
124.111496 144.0
124.249825 184.0
124.379929 172.0
124.530914 140.0
124.57312 168.0
124.59713 188.0
124.638779 252.0
124.663391 212.0
124.694138 336.0
124.717552 144.0
124.755341 172.0
124.918617 132.0
125.004173 1140.0
125.042274 144.0
125.062309 168.0
125.096535 148.0
125.114578 348.0
125.14064 232.0
125.158035 248.0
125.218163 200.0
125.242661 220.0
125.260475 168.0
125.325821 316.0
125.423141 236.0
125.50563 148.0
125.756592 112.0
125.796425 140.0
125.909531 236.0
125.943726 176.0
126.010101 160.0
126.06144 180.0
126.102905 144.0
126.197754 236.0
126.237259 196.0
126.290154 172.0
126.354347 204.0
126.372246 156.0
126.394623 164.0
126.511002 172.0
126.661034 160.0
126.692398 196.0
126.722908 164.0
126.777374 168.0
126.83799 144.0
126.898521 152.0
127.01519 144.0
127.03875 216.0
127.066788 240.0
127.1558 108.0
127.207794 120.0
127.225281 264.0
127.316307 148.0
127.336761 148.0
127.365356 284.0
127.434998 144.0
127.466454 180.0
127.506332 220.0
127.548248 172.0
127.581078 144.0
127.603561 176.0
127.625595 140.0
127.662384 148.0
127.700256 164.0
127.716942 204.0
127.741768 152.0
127.802757 120.0
128.055862 200.0
128.278931 172.0
128.32402 168.0
128.417725 152.0
128.459335 160.0
128.520248 152.0
128.663239 180.0
128.686157 192.0
128.741455 188.0
128.766296 144.0
128.881516 204.0
128.935165 168.0
128.987198 164.0
129.045502 136.0
129.172562 260.0
129.231277 156.0
129.280334 160.0
129.322556 140.0
129.363617 172.0
129.41983 184.0
129.498154 240.0
129.571579 224.0
129.616898 164.0
129.648621 164.0
129.714005 108.0
129.766495 172.0
130.0522 152.0
130.13858 152.0
130.268036 184.0
130.310287 120.0
130.420273 192.0
130.486206 216.0
130.549866 140.0
130.583984 176.0
130.616806 120.0
130.730713 144.0
130.806305 152.0
130.902588 224.0
130.963409 192.0
130.977844 220.0
130.996872 180.0
131.046478 6328.0
131.14119 156.0
131.177765 108.0
131.215118 180.0
131.286148 140.0
131.316666 160.0
131.394913 168.0
131.424377 184.0
131.467926 172.0
131.584335 152.0
131.615494 108.0
131.640182 152.0
131.67244 176.0
131.71907 212.0
131.74147 184.0
131.767899 216.0
131.858444 160.0
131.953674 280.0
132.053802 660.0
132.240387 280.0
132.289948 176.0
132.362076 104.0
132.401764 120.0
132.464783 196.0
132.488205 248.0
132.516815 168.0
132.545609 392.0
132.616013 140.0
132.636002 128.0
132.718552 148.0
132.76503 188.0
132.801727 168.0
132.87973 224.0
132.923386 148.0
132.973801 172.0
133.010757 172.0
133.032791 132.0
133.060791 292.0
133.187897 148.0
133.247635 144.0
133.283829 196.0
133.446259 376.0
133.464264 128.0
133.5298 140.0
133.578094 140.0
133.625244 164.0
133.654022 256.0
133.670135 188.0
133.686234 156.0
133.732269 176.0
133.758316 176.0
133.777222 188.0
133.868103 240.0
133.932587 140.0
133.959854 124.0
134.01062 196.0
134.04187 348.0
134.068207 272.0
134.090393 300.0
134.13855 228.0
134.174545 172.0
134.409607 188.0
134.435181 180.0
134.550598 144.0
134.596771 224.0
134.647568 148.0
134.707626 184.0
134.756134 192.0
134.790146 228.0
134.823105 192.0
134.869064 180.0
134.994308 104.0
135.019165 172.0
135.042206 1944.0
135.107559 440.0
135.219925 212.0
135.27417 184.0
135.387619 140.0
135.497162 216.0
135.540512 196.0
135.63501 160.0
135.672714 100.0
135.709869 120.0
135.73613 152.0
135.831345 224.0
135.872055 156.0
135.934769 164.0
135.974167 144.0
136.022949 152.0
136.048981 692.0
136.091354 164.0
136.125061 200.0
136.163223 180.0
136.235031 196.0
136.2621 176.0
136.292297 188.0
136.350723 172.0
136.394562 168.0
136.413147 172.0
136.443634 140.0
136.508484 188.0
136.696899 148.0
136.720047 168.0
136.743027 180.0
136.772659 124.0
136.817673 148.0
136.906403 248.0
137.008896 144.0
137.029709 352.0
137.146484 176.0
137.174347 232.0
137.208221 212.0
137.258224 148.0
137.305664 176.0
137.379227 140.0
137.42247 128.0
137.44873 160.0
137.502014 200.0
137.647964 168.0
137.677292 280.0
137.722702 180.0
137.747009 168.0
137.794205 144.0
137.836609 132.0
137.961044 160.0
138.136429 180.0
138.157486 148.0
138.180878 192.0
138.213638 148.0
138.283829 164.0
138.315567 184.0
138.37001 128.0
138.546051 196.0
138.60173 112.0
138.630447 224.0
138.663574 148.0
138.702026 300.0
138.757019 184.0
138.778122 176.0
138.849701 212.0
138.911789 204.0
138.961929 212.0
139.113297 192.0
139.212494 168.0
139.238922 304.0
139.27034 176.0
139.38147 176.0
139.458893 216.0
139.498901 184.0
139.591599 252.0
139.62149 152.0
139.663452 196.0
139.822327 212.0
139.844788 168.0
139.955704 152.0
140.000015 176.0
140.066071 172.0
140.087967 120.0
140.214462 140.0
140.281509 184.0
140.356613 132.0
140.491074 176.0
140.5634 304.0
140.589355 260.0
140.638931 196.0
140.683777 144.0
140.886871 188.0
141.00029 232.0
141.037247 132.0
141.101929 204.0
141.179962 144.0
141.271545 172.0
141.346405 260.0
141.381042 200.0
141.406113 168.0
141.459152 140.0
141.519989 160.0
141.647308 168.0
141.674637 168.0
141.698334 168.0
141.752823 200.0
141.77179 160.0
141.831039 224.0
141.868958 208.0
142.018356 312.0
142.227158 196.0
142.243774 148.0
142.428253 144.0
142.489563 224.0
142.514206 172.0
142.640076 244.0
142.690384 200.0
142.740311 192.0
142.759811 180.0
142.795013 168.0
142.847336 144.0
142.875885 140.0
142.894913 148.0
143.029694 196.0
143.070221 152.0
143.116272 148.0
143.168365 168.0
143.218597 132.0
143.227295 128.0
143.260132 272.0
143.28537 164.0
143.481964 268.0
143.549942 144.0
143.610641 160.0
143.654877 172.0
143.683029 180.0
143.703186 376.0
143.794083 396.0
143.814758 156.0
143.861496 188.0
143.915009 156.0
143.94606 156.0
144.036804 160.0
144.055161 176.0
144.11441 180.0
144.150116 212.0
144.180161 172.0
144.212021 188.0
144.347504 152.0
144.396164 104.0
144.467087 148.0
144.611847 192.0
144.735641 168.0
144.82135 164.0
144.867386 168.0
144.919571 176.0
145.013672 296.0
145.099319 164.0
145.125412 164.0
145.248001 152.0
145.32933 196.0
145.459167 164.0
145.492966 144.0
145.521576 160.0
145.557114 164.0
145.672882 168.0
145.688934 180.0
145.759506 140.0
145.783401 144.0
145.864487 136.0
145.893967 192.0
145.990143 244.0
146.03508 380.0
146.071289 1172.0
146.138489 184.0
146.155014 104.0
146.230713 160.0
146.249969 152.0
146.408875 120.0
146.509781 116.0
146.597748 188.0
146.667694 156.0
146.775162 264.0
146.851715 220.0
146.931931 300.0
146.9729 192.0
147.041397 2056.0
147.073181 380.0
147.132233 188.0
147.242081 140.0
147.296616 120.0
147.347183 236.0
147.372299 264.0
147.389908 172.0
147.462723 172.0
147.516052 164.0
147.542938 192.0
147.613052 156.0
147.65416 220.0
147.673508 156.0
147.710983 172.0
147.768585 264.0
147.863541 148.0
147.920197 168.0
148.048157 456.0
148.281204 180.0
148.317566 208.0
148.397232 176.0
148.432648 180.0
148.490799 276.0
148.543732 236.0
148.590027 236.0
148.632355 180.0
148.661026 140.0
148.695938 144.0
148.727554 156.0
148.849747 188.0
148.961441 148.0
149.007584 200.0
149.072357 288.0
149.198746 160.0
149.217697 176.0
149.271683 140.0
149.361664 244.0
149.378693 196.0
149.43222 140.0
149.555496 152.0
149.591721 156.0
149.619614 144.0
149.658569 152.0
149.698318 192.0
149.782776 148.0
149.865265 316.0
149.977448 192.0
150.028625 332.0
150.07103 188.0
150.104477 308.0
150.123459 216.0
150.148376 140.0
150.207947 136.0
150.230103 180.0
150.277985 204.0
150.314255 180.0
150.353912 144.0
150.381393 188.0
150.479767 188.0
150.50087 188.0
150.549911 232.0
150.595001 144.0
150.66478 148.0
150.712128 140.0
150.853943 140.0
150.919067 216.0
151.03418 152.0
151.071655 196.0
151.159912 112.0
151.213577 156.0
151.338425 204.0
151.470459 148.0
151.673019 164.0
151.700363 168.0
151.840759 160.0
151.940964 152.0
152.056259 172.0
152.104919 260.0
152.15506 208.0
152.175812 148.0
152.23468 148.0
152.289276 148.0
152.425018 140.0
152.474426 236.0
152.687988 152.0
152.861252 268.0
152.883286 224.0
152.93602 204.0
153.017792 160.0
153.038574 156.0
153.116287 196.0
153.17244 176.0
153.241913 180.0
153.288727 280.0
153.310913 140.0
153.343979 284.0
153.399643 208.0
153.431686 204.0
153.653641 144.0
153.76947 132.0
153.813629 168.0
153.837906 204.0
153.879623 156.0
153.91597 112.0
153.951355 216.0
154.009109 184.0
154.084412 240.0
154.130157 184.0
154.285873 248.0
154.330368 152.0
154.347687 188.0
154.589233 176.0
154.608566 396.0
154.703613 148.0
154.760895 200.0
154.874817 148.0
154.915024 432.0
154.95636 168.0
155.03833 208.0
155.060638 440.0
155.112686 164.0
155.162262 144.0
155.31601 144.0
155.333374 188.0
155.378021 296.0
155.41098 128.0
155.443741 140.0
155.467651 168.0
155.549255 188.0
155.588593 196.0
155.651123 136.0
155.708237 144.0
155.772751 144.0
155.863541 168.0
155.971527 260.0
156.024811 168.0
156.050354 104.0
156.129303 140.0
156.205276 148.0
156.225174 172.0
156.257507 208.0
156.27887 380.0
156.3302 168.0
156.45195 156.0
156.559433 148.0
156.578613 172.0
156.615982 184.0
156.660629 316.0
156.743027 140.0
156.76796 164.0
156.857681 160.0
156.921265 172.0
156.990906 164.0
157.042191 152.0
157.11702 172.0
157.138351 152.0
157.166916 148.0
157.214584 164.0
157.24678 144.0
157.292038 152.0
157.342224 196.0
157.389008 172.0
157.439011 180.0
157.479584 260.0
157.536179 204.0
157.540985 184.0
157.792099 220.0
157.920593 216.0
157.946945 156.0
157.973953 208.0
158.010986 164.0
158.03923 616.0
158.127762 172.0
158.169067 140.0
158.193115 124.0
158.219254 168.0
158.259201 168.0
158.29425 212.0
158.366882 168.0
158.39682 164.0
158.433578 248.0
158.457199 140.0
158.475418 232.0
158.5504 176.0
158.628693 304.0
158.655045 100.0
158.691772 356.0
158.714233 164.0
158.743774 272.0
158.803329 244.0
158.822021 280.0
158.853088 216.0
158.881439 384.0
158.900314 412.0
158.918243 284.0
158.967194 168.0
159.013336 512.0
159.042618 176168.0
159.127731 124.0
159.181717 140.0
159.228363 132.0
159.245346 328.0
159.282883 188.0
159.316757 164.0
159.401764 188.0
159.424957 232.0
159.45459 684.0
159.479813 228.0
159.521576 244.0
159.589386 312.0
159.616806 116.0
159.710495 228.0
159.808884 172.0
159.932083 136.0
159.990799 192.0
160.012085 188.0
160.04512 16252.0
160.201492 140.0
160.234833 112.0
160.259476 144.0
160.337601 152.0
160.529175 204.0
160.691025 168.0
160.756058 160.0
160.773499 408.0
160.825256 160.0
160.888214 364.0
160.969803 196.0
161.046021 876.0
161.094772 148.0
161.119934 200.0
161.165527 132.0
161.232773 100.0
161.270126 160.0
161.295441 424.0
161.478119 188.0
161.631012 160.0
161.667511 200.0
161.725723 184.0
161.773804 156.0
161.866379 160.0
161.969208 168.0
162.001175 112.0
162.023026 340.0
162.068344 172.0
162.12587 164.0
162.172592 156.0
162.250671 172.0
162.273163 148.0
162.311432 200.0
162.3591 140.0
162.379395 164.0
162.425049 152.0
162.506226 168.0
162.549362 160.0
162.567123 180.0
162.593369 164.0
162.623978 160.0
162.682953 188.0
162.735123 172.0
162.79306 184.0
162.892105 164.0
162.932434 128.0
162.984146 212.0
163.036926 272.0
163.064697 108.0
163.095383 220.0
163.168076 108.0
163.279724 176.0
163.385849 136.0
163.627045 180.0
163.658951 180.0
163.732742 184.0
163.756912 172.0
163.796448 184.0
163.851105 172.0
164.031845 116.0
164.131531 272.0
164.149384 180.0
164.251389 220.0
164.274353 148.0
164.320267 184.0
164.384949 164.0
164.421539 148.0
164.602829 120.0
164.659775 192.0
164.715958 172.0
164.767059 184.0
164.820709 200.0
164.930603 144.0
164.962677 176.0
165.011826 248.0
165.318069 172.0
165.348099 236.0
165.549744 140.0
165.567673 164.0
165.680374 160.0
165.823868 172.0
165.89563 208.0
165.971313 124.0
165.994446 156.0
166.023834 148.0
166.072861 104.0
166.105911 180.0
166.247025 140.0
166.3237 124.0
166.372787 160.0
166.513031 236.0
166.54483 148.0
166.588501 240.0
166.651505 196.0
166.855774 140.0
166.889191 172.0
166.94577 176.0
166.994629 184.0
167.053574 164.0
167.070465 740.0
167.21846 192.0
167.259079 128.0
167.387436 172.0
167.416702 144.0
167.478516 220.0
167.551132 124.0
167.663239 160.0
167.706573 240.0
167.756836 312.0
167.841629 168.0
167.945038 168.0
167.999207 212.0
168.063049 188.0
168.107574 200.0
168.149887 100.0
168.230133 132.0
168.300064 152.0
168.349228 196.0
168.443207 152.0
168.471268 148.0
168.551712 232.0
168.593063 184.0
168.630051 180.0
168.724884 140.0
168.748154 200.0
168.802124 200.0
168.87561 152.0
168.967514 152.0
169.087021 172.0
169.218842 112.0
169.267471 136.0
169.356277 152.0
169.472855 176.0
169.505753 172.0
169.535126 136.0
169.627167 96.0
169.685379 176.0
169.753769 192.0
169.809845 148.0
169.872314 136.0
170.013962 172.0
170.071899 148.0
170.092377 128.0
170.109421 168.0
170.134201 204.0
170.173141 156.0
170.225082 204.0
170.256241 252.0
170.335846 184.0
170.357529 152.0
170.437515 148.0
170.574402 272.0
170.661148 228.0
170.71727 208.0
170.825455 148.0
170.856674 204.0
170.996109 196.0
171.025818 332.0
171.114319 192.0
171.155807 124.0
171.269806 180.0
171.329178 112.0
171.42688 188.0
171.454147 112.0
171.521362 176.0
171.584579 152.0
171.764114 184.0
171.859726 152.0
172.024155 316.0
172.07605 132.0
172.102341 160.0
172.165726 144.0
172.211548 192.0
172.347992 160.0
172.39856 184.0
172.473434 148.0
172.674759 184.0
172.793579 152.0
172.860504 164.0
173.053833 232.0
173.12587 204.0
173.234894 260.0
173.287048 216.0
173.32547 152.0
173.37178 180.0
173.541534 144.0
173.582001 240.0
173.628067 160.0
173.730362 156.0
173.782822 168.0
173.803818 176.0
173.840561 152.0
173.865585 208.0
173.902542 144.0
173.92717 140.0
173.953415 204.0
173.990158 140.0
174.028732 4192.0
174.079437 168.0
174.134415 144.0
174.187119 168.0
174.260681 184.0
174.339508 144.0
174.378922 144.0
174.415314 104.0
174.515625 176.0
174.599762 200.0
174.797058 164.0
174.839172 200.0
174.892426 248.0
174.941559 160.0
174.949722 140.0
174.988449 176.0
175.036835 25320.0
175.092636 144.0
175.154358 100.0
175.193588 156.0
175.271027 204.0
175.365829 156.0
175.441864 344.0
175.476624 140.0
175.495071 200.0
175.682327 140.0
175.706604 188.0
175.729248 132.0
175.80278 104.0
175.906631 184.0
175.967346 180.0
175.996399 220.0
176.039261 2388.0
176.096344 160.0
176.122406 140.0
176.161057 128.0
176.253265 160.0
176.279877 136.0
176.434967 232.0
176.465836 140.0
176.522217 164.0
176.604202 140.0
176.623856 196.0
176.746719 152.0
176.823257 96.0
176.946472 164.0
176.997513 164.0
177.041031 272.0
177.064728 208.0
177.085754 212.0
177.224991 120.0
177.269028 164.0
177.291382 124.0
177.335068 232.0
177.457672 220.0
177.565628 152.0
177.630295 116.0
177.664551 164.0
177.757599 132.0
177.785599 144.0
177.951355 176.0
177.994904 184.0
178.168381 180.0
178.311157 128.0
178.354187 148.0
178.414001 108.0
178.636047 164.0
178.692581 160.0
178.763153 160.0
178.825806 156.0
178.956467 180.0
179.063065 328.0
179.109863 184.0
179.176453 240.0
179.229752 292.0
179.250351 196.0
179.344345 148.0
179.628632 284.0
179.674347 228.0
179.732452 164.0
179.757706 204.0
179.85112 144.0
179.94722 152.0
180.017868 288.0
180.070297 132.0
180.102112 300.0
180.147522 144.0
180.194077 168.0
180.328323 152.0
180.494965 244.0
180.529724 152.0
180.620651 188.0
180.837387 156.0
180.903992 224.0
180.963196 200.0
181.02478 144.0
181.062271 144.0
181.182816 216.0
181.306061 140.0
181.393723 188.0
181.427826 140.0
181.528564 172.0
181.579437 120.0
181.666565 256.0
181.708649 176.0
181.756577 144.0
181.850494 272.0
181.870361 260.0
181.941772 140.0
182.000259 168.0
182.057465 164.0
182.094345 156.0
182.279404 204.0
182.379623 148.0
182.419937 172.0
182.441452 280.0
182.474991 252.0
182.63237 224.0
182.774948 140.0
182.810089 196.0
182.852631 152.0
182.883789 180.0
182.969467 132.0
183.006424 164.0
183.077408 232.0
183.13472 200.0
183.204987 160.0
183.291946 160.0
183.340439 236.0
183.3647 188.0
183.454865 160.0
183.51976 208.0
183.58577 176.0
183.612732 176.0
183.635284 220.0
183.69635 184.0
183.931107 144.0
184.022888 232.0
184.126404 144.0
184.151733 180.0
184.23085 144.0
184.295685 156.0
184.40863 116.0
184.460541 208.0
184.484863 152.0
184.63533 192.0
184.722839 180.0
184.743896 100.0
184.939301 144.0
185.017181 192.0
185.080078 156.0
185.237152 164.0
185.261536 156.0
185.303696 128.0
185.348862 240.0
185.445801 204.0
185.489777 148.0
185.513565 180.0
185.672287 240.0
185.700867 152.0
185.776611 140.0
185.854004 104.0
185.933975 248.0
185.969254 216.0
186.062622 192.0
186.132141 368.0
186.23317 120.0
186.316833 376.0
186.346725 168.0
186.38205 228.0
186.403778 180.0
186.507782 180.0
186.686493 176.0
186.778961 156.0
186.86058 208.0
186.934814 184.0
186.980301 160.0
186.999252 220.0
187.029297 156.0
187.073166 172.0
187.167068 112.0
187.309753 140.0
187.389175 180.0
187.421448 144.0
187.563171 176.0
187.620407 312.0
187.666656 112.0
187.737656 152.0
187.826721 152.0
187.9095 144.0
188.104614 248.0
188.145798 164.0
188.2491 160.0
188.286194 264.0
188.42276 252.0
188.578522 144.0
188.609924 296.0
188.700409 176.0
188.717499 196.0
188.74556 116.0
188.781021 224.0
188.835007 184.0
188.895706 168.0
188.928528 232.0
188.999664 176.0
189.031326 144.0
189.141968 164.0
189.179962 196.0
189.210022 168.0
189.24231 160.0
189.441193 140.0
189.470825 176.0
189.571823 156.0
189.606232 188.0
189.71582 156.0
189.743423 168.0
189.796738 160.0
189.835129 368.0
189.90094 148.0
189.977753 140.0
190.004944 304.0
190.057816 460.0
190.119232 204.0
190.216217 140.0
190.246674 312.0
190.346069 160.0
190.417603 160.0
190.487823 152.0
190.524841 184.0
190.560837 224.0
190.590591 224.0
190.622086 288.0
190.649277 196.0
190.695251 196.0
190.750671 160.0
190.785965 524.0
190.822159 176.0
190.866211 288.0
190.933395 368.0
190.941055 316.0
190.952438 468.0
191.032867 186400.0
191.068268 65760.0
191.227478 176.0
191.249908 244.0
191.3237 164.0
191.381989 140.0
191.403366 260.0
191.450653 368.0
191.484543 1196.0
191.528778 300.0
191.55809 176.0
191.582092 156.0
191.627075 124.0
191.679367 200.0
191.764908 148.0
191.800217 116.0
191.841965 256.0
191.932281 152.0
191.969833 212.0
192.03447 15696.0
192.070114 4296.0
192.108871 288.0
192.128616 312.0
192.199646 176.0
192.302979 168.0
192.368896 148.0
192.416641 180.0
192.550552 96.0
192.578339 240.0
192.607803 128.0
192.679688 104.0
192.776413 112.0
192.863007 112.0
192.912384 164.0
192.980652 124.0
193.036926 1756.0
193.070084 644.0
193.101379 232.0
193.142776 404.0
193.212097 100.0
193.245316 252.0
193.30896 240.0
193.351959 144.0
193.385086 180.0
193.424789 176.0
193.446503 156.0
193.486557 172.0
193.528427 204.0
193.586319 100.0
193.628571 176.0
193.65802 180.0
193.745987 108.0
193.825684 116.0
194.006104 96.0
194.039062 212.0
194.146866 168.0
194.16803 268.0
194.203766 236.0
194.24939 140.0
194.381226 196.0
194.40979 136.0
194.475571 148.0
194.607239 176.0
194.677521 184.0
194.726227 116.0
194.836563 144.0
194.8992 152.0
195.044571 276.0
195.085754 156.0
195.136169 208.0
195.25676 352.0
195.320267 228.0
195.602539 144.0
195.726578 236.0
195.769318 312.0
196.019562 156.0
196.069214 168.0
196.147705 100.0
196.246063 116.0
196.289444 152.0
196.361954 200.0
196.398209 164.0
196.465164 160.0
196.707932 164.0
196.74144 208.0
196.842239 220.0
196.998489 384.0
197.020706 140.0
197.183472 208.0
197.230286 144.0
197.25264 144.0
197.329208 144.0
197.368881 160.0
197.607803 180.0
197.764511 140.0
197.786911 156.0
197.896652 160.0
197.927521 176.0
197.954605 156.0
198.036926 528.0
198.091263 116.0
198.176163 128.0
198.215225 188.0
198.251831 180.0
198.386368 144.0
198.517456 180.0
198.549805 172.0
198.669601 200.0
198.739273 168.0
198.78096 168.0
198.860413 164.0
198.978302 172.0
199.046692 300.0
199.228241 228.0
199.349762 160.0
199.43338 184.0
199.562683 272.0
199.728607 144.0
199.806274 184.0
199.948074 148.0
199.993103 160.0
200.063019 148.0
200.088806 144.0
200.112091 192.0
200.325363 156.0
200.380096 188.0
200.440811 156.0
200.554077 144.0
200.632538 144.0
200.67688 208.0
200.988632 308.0
201.022812 196.0
201.244247 400.0
201.30687 156.0
201.33519 152.0
201.433975 156.0
201.453751 148.0
201.551834 128.0
201.661148 100.0
201.733505 168.0
201.83812 248.0
201.954056 168.0
202.031555 148.0
202.130096 160.0
202.438004 144.0
202.463501 176.0
202.510391 216.0
202.661789 164.0
202.709396 144.0
202.746826 200.0
202.846985 264.0
202.928162 228.0
203.035965 296.0
203.196014 196.0
203.331009 148.0
203.376419 172.0
203.446136 172.0
203.484299 140.0
203.507004 160.0
203.566635 188.0
203.622086 244.0
203.688751 140.0
203.748413 152.0
203.873428 284.0
204.016891 152.0
204.116486 152.0
204.191467 208.0
204.298813 244.0
204.419434 164.0
204.584503 188.0
204.635757 204.0
204.687012 144.0
204.739746 352.0
204.867004 200.0
204.985123 152.0
205.151413 168.0
205.206177 180.0
205.34816 140.0
205.386215 116.0
205.432571 152.0
205.466888 96.0
205.490784 160.0
205.527878 160.0
205.562119 220.0
205.619125 192.0
205.74826 164.0
205.823257 240.0
205.880905 192.0
205.911789 140.0
205.998337 728.0
206.056 912.0
206.200546 208.0
206.270416 196.0
206.418564 156.0
206.489441 184.0
206.551834 144.0
206.575333 168.0
206.603897 200.0
206.800339 208.0
206.824631 180.0
206.834 136.0
206.898621 152.0
206.93924 348.0
207.009476 64380.0
207.062195 8228.0
207.135117 168.0
207.174911 152.0
207.234558 236.0
207.372391 112.0
207.435852 196.0
207.457687 264.0
207.504257 180.0
207.550125 184.0
207.710724 148.0
207.733673 172.0
207.828354 152.0
207.848434 180.0
207.927689 104.0
207.95813 160.0
208.01088 5208.0
208.069443 920.0
208.254196 108.0
208.345139 108.0
208.444 216.0
208.503174 184.0
208.679214 180.0
208.700165 152.0
208.856094 296.0
209.005936 2408.0
209.066284 104.0
209.102005 236.0
209.139557 152.0
209.209 116.0
209.2453 200.0
209.288483 156.0
209.35759 256.0
209.429047 124.0
209.495651 196.0
209.564804 112.0
209.615829 212.0
209.655396 188.0
209.827866 164.0
209.895538 112.0
209.941208 192.0
210.008759 440.0
210.072388 144.0
210.093811 184.0
210.180084 184.0
210.414154 132.0
210.462494 180.0
210.682602 348.0
210.880295 104.0
210.921707 128.0
211.002472 200.0
211.025421 188.0
211.072906 164.0
211.190262 196.0
211.222076 184.0
211.453537 224.0
211.478378 240.0
211.534592 244.0
211.628098 316.0
212.076035 112.0
212.140533 200.0
212.234238 152.0
212.293686 208.0
212.322006 120.0
212.415497 220.0
212.474884 196.0
212.51413 256.0
212.717285 160.0
212.989288 496.0
213.028 148.0
213.12677 132.0
213.222031 108.0
213.410339 172.0
213.456253 148.0
213.483261 200.0
213.530289 184.0
213.612534 96.0
213.694901 220.0
213.71701 220.0
213.740784 400.0
213.849121 212.0
213.938202 248.0
214.037201 176.0
214.23233 204.0
214.284775 152.0
214.351883 200.0
214.412979 204.0
214.494598 164.0
214.57077 120.0
214.666611 152.0
214.765671 128.0
214.885361 152.0
214.911224 148.0
215.101318 148.0
215.168457 160.0
215.232697 164.0
215.27066 160.0
215.333191 116.0
215.427643 208.0
215.814743 160.0
215.83754 164.0
215.871872 200.0
216.036423 144.0
216.062653 132.0
216.299789 200.0
216.34462 152.0
216.37883 172.0
216.460678 172.0
216.503952 180.0
216.784714 184.0
216.806473 164.0
217.158295 160.0
217.199356 144.0
217.343109 188.0
217.515213 212.0
217.577896 168.0
217.59845 148.0
217.633682 208.0
217.814682 152.0
217.877457 216.0
217.942093 160.0
218.359528 180.0
218.398544 180.0
218.430115 196.0
218.536026 148.0
218.580154 200.0
218.600754 140.0
218.671387 148.0
218.74791 192.0
218.915344 180.0
219.00322 108.0
219.241501 220.0
219.275009 184.0
219.444427 112.0
219.581604 164.0
219.746765 132.0
219.786469 204.0
219.909637 216.0
219.947617 156.0
220.219681 340.0
220.283005 200.0
220.414246 160.0
220.618179 236.0
220.653656 140.0
220.679001 156.0
220.703918 144.0
220.858871 120.0
220.976028 188.0
221.055908 192.0
221.095657 140.0
221.121017 240.0
221.185303 156.0
221.225067 264.0
221.271988 196.0
221.339203 108.0
221.443542 208.0
221.72757 348.0
221.763641 168.0
221.834854 268.0
221.950485 192.0
222.040421 184.0
222.081985 116.0
222.10437 148.0
222.184906 96.0
222.324249 176.0
222.362823 236.0
222.462448 128.0
222.498886 148.0
222.54248 176.0
222.57309 164.0
222.609222 140.0
222.697876 132.0
222.721725 164.0
222.856186 140.0
222.887802 188.0
222.974045 404.0
223.004898 160.0
223.058334 102504.0
223.151855 236.0
223.268005 152.0
223.414703 208.0
223.443542 120.0
223.542892 232.0
223.627762 172.0
223.690643 96.0
223.737015 144.0
223.789886 236.0
223.863083 240.0
224.060944 8016.0
224.142273 140.0
224.190811 196.0
224.228745 148.0
224.249344 132.0
224.27504 100.0
224.28064 184.0
224.320602 116.0
224.38768 180.0
224.486313 112.0
224.540619 188.0
224.910812 276.0
224.969772 140.0
225.028458 120.0
225.062057 1400.0
225.270004 120.0
225.30246 140.0
225.476791 112.0
225.521805 208.0
225.677216 116.0
225.737808 344.0
225.762985 204.0
225.798798 100.0
225.96138 164.0
226.01091 108.0
226.068726 152.0
226.155167 164.0
226.291397 156.0
226.354584 232.0
226.468384 152.0
226.604034 284.0
226.779388 284.0
226.934448 152.0
227.049957 168.0
227.1474 172.0
227.38356 148.0
227.456131 180.0
227.562317 296.0
227.698059 164.0
227.896317 168.0
227.965424 172.0
228.067612 184.0
228.240921 136.0
228.353241 152.0
228.375778 112.0
228.604584 144.0
228.774506 296.0
228.804611 184.0
228.912994 188.0
229.027451 148.0
229.083282 172.0
229.156982 140.0
229.352859 208.0
229.439331 164.0
229.5159 152.0
229.603104 148.0
229.675934 136.0
229.817276 144.0
230.084778 216.0
230.525116 160.0
230.568665 116.0
230.90271 124.0
230.963379 148.0
231.047638 188.0
231.074158 172.0
231.251328 196.0
231.343506 140.0
231.41011 204.0
231.447449 168.0
231.585617 96.0
231.967529 140.0
232.039764 116.0
232.158539 144.0
232.237396 176.0
232.288956 192.0
232.411301 148.0
232.508179 184.0
232.612732 148.0
232.653107 212.0
232.97197 224.0
233.000671 216.0
233.208984 140.0
233.260666 140.0
233.324509 156.0
233.473495 184.0
233.494781 144.0
233.54953 172.0
233.75032 152.0
233.771622 140.0
233.857971 172.0
233.943451 200.0
233.96785 136.0
234.063751 308.0
234.250824 284.0
234.438522 148.0
234.564789 112.0
234.967682 156.0
234.999588 252.0
235.074005 576.0
235.15419 132.0
235.204056 152.0
235.362015 140.0
235.426926 184.0
235.487427 148.0
235.524658 204.0
235.555206 180.0
235.628525 140.0
235.685959 160.0
235.814926 196.0
235.888535 140.0
235.938309 208.0
235.987442 256.0
236.024429 100.0
236.081726 508.0
236.166382 164.0
236.425278 192.0
236.501526 148.0
236.52301 168.0
236.86441 256.0
237.043808 164.0
237.082993 248.0
237.140167 324.0
237.413025 148.0
237.497681 176.0
237.532639 184.0
237.572525 192.0
237.600128 176.0
237.705627 188.0
237.751678 196.0
237.851761 156.0
237.899246 128.0
238.045273 908.0
238.094696 208.0
238.154541 132.0
238.360352 136.0
238.389038 188.0
238.440964 144.0
238.516663 236.0
238.552124 196.0
238.699707 172.0
238.738525 180.0
238.798111 200.0
238.875015 212.0
238.979172 112.0
239.034866 24128.0
239.089447 236.0
239.12944 128.0
239.382843 176.0
239.493073 116.0
239.604599 332.0
239.630966 144.0
239.74794 108.0
239.822906 180.0
239.940613 148.0
239.989502 104.0
240.037521 2752.0
240.325623 112.0
240.367706 112.0
240.422806 136.0
240.626511 208.0
240.702621 168.0
240.786469 216.0
240.866318 172.0
240.931961 144.0
241.031937 928.0
241.106995 172.0
241.191055 252.0
241.319534 188.0
241.375046 164.0
241.54126 124.0
241.674179 100.0
241.775299 152.0
242.041168 280.0
242.109024 240.0
242.147873 140.0
242.270706 148.0
242.308685 216.0
242.352219 156.0
242.382675 176.0
242.51947 232.0
242.551392 216.0
242.611603 188.0
242.865875 288.0
242.887543 136.0
243.107864 176.0
243.458664 152.0
243.539413 140.0
243.68541 180.0
243.892349 156.0
243.986877 184.0
244.042313 140.0
244.173447 232.0
244.475204 168.0
244.663284 152.0
244.895508 148.0
245.03569 156.0
245.116699 164.0
245.182587 164.0
245.228882 148.0
245.294342 152.0
245.471802 152.0
245.712219 308.0
245.77774 140.0
245.799576 140.0
245.918335 144.0
245.97435 232.0
246.136688 232.0
246.36499 220.0
246.395935 184.0
246.467789 176.0
246.615509 164.0
246.666718 180.0
246.720947 152.0
246.744263 124.0
246.852264 204.0
246.912079 128.0
247.026611 172.0
247.089981 164.0
247.133789 196.0
247.235504 132.0
247.679962 120.0
247.969894 156.0
248.157974 188.0
248.256943 184.0
248.451111 100.0
248.568863 240.0
248.801132 140.0
248.977753 176.0
249.000336 208.0
249.057236 136.0
249.338242 184.0
249.401108 152.0
249.642776 152.0
249.772141 140.0
249.929977 184.0
249.967194 180.0
250.241028 160.0
250.288269 288.0
250.367615 160.0
250.458328 152.0
250.49118 132.0
250.526321 120.0
250.559967 164.0
250.596939 152.0
250.647354 144.0
250.686096 188.0
250.910507 132.0
251.069763 140.0
251.151764 148.0
251.183304 184.0
251.404495 148.0
251.603302 168.0
251.741928 196.0
252.002625 180.0
252.028549 136.0
252.087372 192.0
252.165268 172.0
252.234802 156.0
252.282227 140.0
252.354126 172.0
252.537979 172.0
252.645752 200.0
252.762955 180.0
252.834244 148.0
253.263824 172.0
253.380371 200.0
253.475418 168.0
253.523666 136.0
253.587448 264.0
253.677261 152.0
253.771225 196.0
254.008041 180.0
254.072601 432.0
254.115906 140.0
254.235947 144.0
254.268219 176.0
254.369781 160.0
254.410355 144.0
254.506577 296.0
254.552277 192.0
254.611923 184.0
254.656631 204.0
254.77681 252.0
254.93512 164.0
255.020767 148.0
255.131912 140.0
255.243469 152.0
255.284027 156.0
255.340881 104.0
255.504272 260.0
255.844803 196.0
255.87027 204.0
256.067688 148.0
256.212555 168.0
256.548828 156.0
256.573151 136.0
257.07077 260.0
257.282562 152.0
257.333649 192.0
257.587646 188.0
257.823975 152.0
258.108032 200.0
258.148438 288.0
258.394745 180.0
258.452332 176.0
258.557922 216.0
258.666748 148.0
258.719025 144.0
258.8172 144.0
258.887665 248.0
258.964539 316.0
259.004211 160.0
259.041412 140.0
259.062897 124.0
259.134308 184.0
259.202667 156.0
259.288116 156.0
259.386322 132.0
259.650391 140.0
259.887756 164.0
260.022552 176.0
260.186951 172.0
260.232544 180.0
260.304718 204.0
260.443146 160.0
260.517029 200.0
260.552368 148.0
260.77951 240.0
260.875061 124.0
261.072327 120.0
261.282135 332.0
261.415283 160.0
261.459106 160.0
261.603943 160.0
262.128937 180.0
262.154602 124.0
262.448059 204.0
262.470612 196.0
262.525879 320.0
262.64798 140.0
262.738312 156.0
262.771973 140.0
262.969696 164.0
263.015839 152.0
263.341949 264.0
263.402039 148.0
263.425934 148.0
264.010925 144.0
264.056091 232.0
264.3862 164.0
264.450928 236.0
264.570709 180.0
264.700195 144.0
264.772125 236.0
264.953583 228.0
264.97876 160.0
265.032776 432.0
265.176422 148.0
265.237 180.0
265.280151 184.0
265.380646 196.0
265.435547 120.0
265.529816 176.0
265.557373 96.0
265.611847 192.0
265.672546 176.0
265.818542 188.0
265.938416 136.0
266.036377 7360.0
266.194305 168.0
266.446869 116.0
266.490265 160.0
266.539398 188.0
266.620636 140.0
266.661316 172.0
266.72464 176.0
266.822174 160.0
266.887909 168.0
266.966003 184.0
267.044647 10032.0
267.098022 172.0
267.183167 192.0
267.256989 112.0
267.303558 216.0
267.371002 164.0
267.489044 240.0
267.531372 148.0
267.603943 144.0
267.684418 156.0
267.760986 208.0
267.849976 200.0
267.886322 156.0
267.921356 160.0
268.043945 1108.0
268.103943 148.0
268.251312 216.0
268.48941 148.0
268.867462 132.0
268.880615 220.0
268.908936 96.0
269.040649 1108.0
269.223602 116.0
269.292175 200.0
269.393921 136.0
269.4599 232.0
269.599274 140.0
269.654846 156.0
269.701355 136.0
269.769226 156.0
269.878143 168.0
269.943878 96.0
270.042175 184.0
270.154816 128.0
270.624664 168.0
270.665955 96.0
270.79126 228.0
270.852356 236.0
270.926056 104.0
271.222626 200.0
271.324829 180.0
271.373413 184.0
271.478333 148.0
271.516571 200.0
271.730896 192.0
271.770172 120.0
271.827698 216.0
272.005249 180.0
272.045441 232.0
272.082062 160.0
272.133087 104.0
272.206024 212.0
272.315033 140.0
272.678162 180.0
272.722626 156.0
272.76535 168.0
272.836365 180.0
273.076324 180.0
273.255341 216.0
273.377106 276.0
273.400146 164.0
273.423157 248.0
273.508759 144.0
273.765533 164.0
273.857758 144.0
273.887665 132.0
273.959869 148.0
274.00882 124.0
274.120178 176.0
274.183929 168.0
274.286102 148.0
274.470734 156.0
274.534241 136.0
274.620728 140.0
274.688385 148.0
274.730042 188.0
274.883484 248.0
274.944855 160.0
275.102753 120.0
275.142914 240.0
275.242828 164.0
275.345215 144.0
275.47403 168.0
275.510376 156.0
275.635925 140.0
275.776154 176.0
276.08075 256.0
276.169647 168.0
276.287262 176.0
276.360046 160.0
276.485779 168.0
276.783722 168.0
276.86319 144.0
277.038361 140.0
277.118256 160.0
277.257416 156.0
277.399933 204.0
277.515961 236.0
277.559082 164.0
277.728638 156.0
277.801178 228.0
277.827728 180.0
277.8974 196.0
277.968445 204.0
278.893219 124.0
279.019287 200.0
279.179565 184.0
279.259399 180.0
279.603729 120.0
279.75 216.0
280.029785 140.0
280.231415 140.0
280.294708 144.0
280.401367 148.0
280.42804 200.0
280.544678 168.0
280.644287 164.0
280.691376 100.0
280.844788 212.0
280.898926 124.0
280.981567 176.0
281.051636 196.0
281.084991 168.0
281.227997 208.0
281.385406 176.0
281.408752 148.0
281.543549 152.0
281.598785 168.0
281.65921 148.0
281.689301 148.0
281.832306 164.0
281.947906 200.0
281.996704 168.0
282.063538 184.0
282.115906 128.0
282.247406 352.0
282.369354 136.0
282.518311 156.0
282.575195 176.0
282.647003 192.0
282.711334 228.0
282.782654 264.0
282.886993 148.0
282.933289 160.0
282.963135 180.0
283.053925 144.0
283.174377 152.0
283.219147 120.0
283.254761 256.0
283.459595 204.0
283.497589 152.0
283.557861 152.0
283.59137 96.0
283.640106 140.0
283.786346 228.0
283.826263 292.0
283.878235 256.0
283.921204 100.0
283.974243 208.0
284.049072 124620.0
284.144745 100.0
284.187042 136.0
284.212921 196.0
284.236053 228.0
284.267395 136.0
284.368805 160.0
284.47995 164.0
284.533905 176.0
284.56839 108.0
284.596222 136.0
284.739929 172.0
284.834198 164.0
284.880585 144.0
284.950439 148.0
284.984802 296.0
285.050781 15012.0
285.119263 236.0
285.183044 276.0
285.242279 144.0
285.319397 148.0
285.438934 120.0
285.526886 152.0
285.567444 400.0
285.628387 176.0
285.661591 168.0
285.847046 96.0
286.046021 5428.0
286.156586 236.0
286.241882 152.0
286.275208 140.0
286.668457 152.0
286.803528 164.0
286.841217 156.0
286.873413 224.0
287.002686 216.0
287.045929 200.0
287.141724 260.0
287.308899 224.0
287.494476 148.0
287.800415 132.0
287.838806 168.0
287.957001 200.0
287.987396 184.0
288.053253 152.0
288.197815 140.0
288.440155 144.0
288.934998 196.0
289.021851 148.0
289.185211 132.0
289.336609 152.0
289.382965 180.0
289.600739 152.0
289.828522 148.0
289.901001 216.0
289.937744 128.0
290.213928 168.0
290.309052 168.0
290.549072 100.0
290.641479 212.0
290.678802 156.0
290.770447 184.0
290.885834 184.0
291.079346 108.0
291.191406 188.0
291.27182 108.0
291.429199 160.0
291.597015 168.0
291.653503 164.0
291.68573 216.0
291.724884 240.0
292.03772 216.0
292.085022 172.0
292.139771 184.0
292.22821 160.0
292.316162 236.0
292.490265 168.0
292.643433 140.0
292.686005 160.0
293.007874 164.0
293.11087 140.0
293.153839 172.0
293.239594 172.0
293.26828 156.0
293.328186 212.0
293.396393 188.0
293.483398 160.0
293.714722 156.0
293.829498 152.0
293.873138 176.0
293.962555 156.0
294.006927 188.0
294.095673 144.0
294.143463 204.0
294.413177 288.0
294.516693 148.0
294.736694 176.0
294.86911 168.0
295.008606 196.0
295.147858 140.0
295.261963 184.0
295.387268 316.0
295.548828 140.0
295.828705 176.0
295.99646 144.0
296.078644 176.0
296.476044 148.0
296.518585 140.0
296.712952 140.0
296.770447 140.0
296.825684 188.0
296.90152 184.0
296.957947 148.0
297.117218 140.0
297.153961 192.0
297.319672 156.0
297.571106 176.0
297.656097 164.0
297.903595 176.0
298.016754 164.0
298.06427 760.0
298.398254 184.0
298.444061 136.0
298.576904 160.0
298.75592 152.0
298.790314 176.0
298.996765 236.0
299.07077 4024.0
299.117981 164.0
299.185364 168.0
299.422516 168.0
299.460205 144.0
299.54422 296.0
299.593262 120.0
299.923248 140.0
299.961853 144.0
300.005981 148.0
300.069977 1092.0
300.141357 224.0
300.195618 164.0
300.264587 348.0
300.292175 144.0
300.388763 168.0
301.070709 160.0
301.202637 164.0
301.358856 144.0
301.543457 184.0
301.892761 184.0
301.976166 132.0
302.464813 164.0
302.496643 148.0
302.533752 200.0
302.712158 136.0
302.801331 180.0
303.161652 144.0
303.234985 172.0
303.286407 208.0
303.424286 192.0
303.605377 140.0
303.757965 212.0
303.811554 172.0
304.037506 160.0
304.20755 180.0
304.305298 124.0
304.415222 196.0
304.556946 180.0
304.976746 212.0
305.001068 156.0
305.147614 208.0
305.498322 208.0
305.611053 116.0
306.135284 152.0
306.24411 144.0
306.363861 120.0
306.398987 168.0
306.462708 144.0
306.591644 156.0
306.710144 180.0
306.97226 168.0
307.118073 164.0
307.187836 200.0
307.295349 172.0
307.714813 172.0
308.154877 208.0
308.468384 152.0
308.770081 148.0
308.840057 148.0
309.112915 252.0
309.364929 148.0
309.482391 160.0
309.553986 176.0
309.675568 352.0
309.813171 188.0
309.848206 144.0
309.936462 168.0
310.169647 148.0
310.414673 104.0
310.467072 144.0
310.502319 128.0
310.841675 128.0
311.223053 148.0
311.360016 152.0
311.435577 148.0
311.582947 280.0
311.770569 232.0
311.914703 224.0
311.956909 172.0
312.026581 200.0
312.058228 160.0
312.262024 152.0
312.372284 140.0
312.44046 168.0
312.650238 156.0
312.820038 192.0
313.255035 108.0
313.410522 176.0
313.46106 456.0
313.555328 144.0
313.644501 120.0
313.777374 176.0
313.819702 284.0
313.898254 116.0
313.973541 196.0
314.148804 188.0
314.197083 236.0
314.348663 108.0
314.402863 124.0
314.470551 156.0
314.514648 252.0
314.540833 216.0
314.754333 188.0
314.788452 420.0
314.83609 260.0
314.877991 228.0
314.901367 352.0
314.962891 388.0
315.009644 296.0
315.035553 448.0
315.071228 312.0
315.100983 628.0
315.141327 392.0
315.19223 252.0
315.258148 140.0
315.325836 352.0
315.349609 288.0
315.418854 268.0
315.467682 328.0
315.513824 296.0
315.526794 480.0
315.573944 384.0
315.606537 416.0
315.656433 604.0
315.682892 496.0
315.72113 400.0
315.731262 532.0
315.77359 924.0
315.817566 884.0
315.875885 584.0
315.906921 700.0
315.95459 1532.0
315.994537 960.0
316.028656 988.0
316.076813 229504.0
316.197388 164.0
316.325775 136.0
316.406433 1304.0
316.45343 572.0
316.507019 436.0
316.563141 232.0
316.611786 660.0
316.662231 14812.0
316.701935 856.0
316.750519 236.0
316.784302 260.0
316.794434 296.0
316.834778 212.0
316.888275 204.0
316.923584 160.0
316.963837 388.0
316.996307 400.0
317.078461 109012.0
317.170715 136.0
317.214722 124.0
317.265106 208.0
317.336456 220.0
317.392242 140.0
317.43219 188.0
317.509369 148.0
317.592285 228.0
317.661438 200.0
317.700195 164.0
317.755524 120.0
317.84726 216.0
317.874512 168.0
317.913574 264.0
317.950775 232.0
317.981201 200.0
318.01712 196.0
318.073425 35056.0
318.212585 136.0
318.30777 140.0
318.383026 220.0
318.619293 220.0
318.665222 184.0
318.778595 116.0
318.835632 156.0
318.894867 320.0
318.961884 244.0
319.01001 264.0
319.073975 3052.0
319.161377 356.0
319.199463 196.0
319.249268 504.0
319.279022 412.0
319.331635 332.0
319.451294 156.0
319.592346 184.0
319.629578 112.0
319.75235 208.0
319.787872 144.0
319.819214 132.0
319.876068 108.0
320.071381 204.0
320.137543 144.0
320.215302 100.0
320.26062 100.0
320.317566 208.0
320.449249 100.0
320.492432 172.0
320.687592 128.0
320.784058 96.0
321.028107 124.0
321.146851 160.0
321.497467 116.0
321.529938 124.0
321.5755 128.0
321.820709 156.0
321.929321 96.0
322.074646 112.0
322.290558 152.0
322.36908 100.0
322.928192 100.0
323.038666 116.0
324.064941 96.0
324.509155 136.0
325.457458 168.0
325.905121 104.0
330.846558 112.0
334.074951 136.0
334.223969 144.0
334.434204 100.0
334.633484 104.0
337.579773 172.0
356.825409 208.0
357.09964 128.0
358.123657 152.0
364.597046 156.0
404.799164 188.0
409.183746 140.0
420.652588 140.0
435.252014 140.0
438.019714 104.0
444.993164 148.0
482.636688 152.0
492.666199 144.0
569.473572 168.0
626.807312 156.0
635.868835 144.0
642.475586 152.0
667.686523 96.0
776.582581 128.0
821.311523 144.0
900.100403 140.0
907.053223 104.0
1045.795288 160.0
1083.125 164.0
1091.637207 172.0
1136.710327 228.0
1175.007568 160.0
1194.662476 208.0
1214.473389 196.0
1225.234009 196.0
1231.784302 220.0
1234.733887 140.0
1238.807495 184.0
1256.445679 144.0
1259.509277 180.0
1262.244385 160.0
1280.389771 172.0
1285.693848 180.0
1290.637085 176.0
1319.519043 188.0
1321.023193 204.0
1323.889404 204.0
1327.47644 212.0
1329.297119 156.0
1338.601685 164.0
1338.929321 172.0
1344.309326 192.0
1349.897583 176.0
1370.737549 188.0
1373.782471 204.0
1375.531372 196.0
1376.697876 180.0
1376.904663 152.0
1382.389893 140.0
1383.973999 212.0
1386.596313 152.0
1393.720215 160.0
1394.069458 196.0
1396.797974 188.0
1398.256348 172.0
1401.77124 180.0
1402.084229 180.0
1405.61145 196.0
1408.048584 208.0
1409.247803 140.0
1410.129517 148.0
1419.389771 204.0
1421.685181 212.0
1425.454834 140.0
1426.574707 220.0
1431.058594 140.0
1431.570557 208.0
1435.843506 164.0
1436.016968 168.0
1443.954712 148.0
1446.731567 216.0
1449.268677 204.0
1453.438965 180.0
1456.39209 188.0
1463.753784 152.0
1466.282837 204.0
1468.396851 112.0
1470.07312 140.0
1476.906616 152.0
1480.423584 212.0
1483.434692 152.0
1488.022217 232.0
1488.513672 176.0
1488.674927 212.0
1490.700073 140.0
1491.640503 204.0
1494.627686 172.0
1496.456299 140.0
1499.005859 196.0
1500.354736 200.0
1500.416382 156.0
1502.922974 156.0
1509.148315 224.0
1514.433716 220.0
1516.223389 168.0
1517.530273 168.0
1518.67334 164.0
1519.557739 164.0
1519.961182 160.0
1521.164062 148.0
1522.887817 148.0
1524.729126 208.0
1525.389893 176.0
1526.71936 148.0
1538.554932 196.0
1542.92981 244.0
1547.733643 156.0
1547.906006 168.0
1548.407104 176.0
1549.127686 180.0
1549.730957 192.0
1550.663452 212.0
1552.309814 172.0
1553.321533 148.0
1561.002563 184.0
1561.293457 224.0
1562.984741 144.0
1566.37793 184.0
1567.465088 172.0
1569.072998 184.0
1574.628052 164.0
1580.636108 236.0
1583.945312 152.0
1584.198853 208.0
1586.045044 216.0
1590.113892 160.0
1590.264648 148.0
1592.257446 144.0
1594.688599 204.0
1596.008179 160.0
1597.391968 180.0
1598.521729 144.0
1600.129517 196.0
1600.79834 176.0
1602.789795 160.0
1602.845581 152.0
1603.594604 188.0
1607.494385 180.0
1607.789673 180.0
1609.146606 156.0
1609.442017 216.0
1609.88916 148.0
1610.272461 220.0
1610.592041 312.0
1611.856934 192.0
1612.410034 176.0
1613.732544 236.0
1618.156982 184.0
1619.90271 180.0
1620.663818 156.0
1620.832031 172.0
1622.242676 156.0
1622.86792 140.0
1623.292969 204.0
1625.290283 208.0
1628.461182 156.0
1629.039551 212.0
1629.248413 180.0
1634.804199 212.0
1636.035767 192.0
1637.026001 140.0
1637.420654 192.0
1637.799194 272.0
1639.539429 160.0
1639.869873 140.0
1644.943359 152.0
1646.340088 208.0
1649.765869 168.0
1657.162964 168.0
1662.628174 200.0
1663.09082 152.0
1665.575439 192.0
1666.696533 232.0
1667.287842 204.0
1668.297607 208.0
1672.120483 148.0
1674.51416 144.0
1675.198242 144.0
1676.681152 188.0
1680.562622 184.0
1684.399658 204.0
1684.603882 164.0
1685.584229 168.0
1685.92749 208.0
1686.15625 176.0
1686.466797 176.0
1686.981812 188.0
1688.531128 420.0
1688.846191 184.0
1689.304199 220.0
1695.715454 200.0
1698.929688 252.0
1700.127563 192.0
1702.762817 140.0
1705.030396 176.0
1707.060913 148.0
1709.512207 148.0
1710.713867 168.0
1712.055908 144.0
1712.162964 156.0
1713.003174 148.0
1713.95874 144.0
1715.450562 148.0
1717.891357 144.0
1718.856689 168.0
1719.071289 148.0
1719.137207 216.0
1722.241455 140.0
1723.571533 196.0
1725.166626 192.0
1728.425171 156.0
1728.507935 204.0
1728.929932 220.0
1734.014893 188.0
1734.769165 144.0
1740.626587 144.0
1741.141479 168.0
1743.401123 160.0
1744.032715 148.0
1744.247803 156.0
1744.381836 160.0
1745.404419 144.0
1746.21936 184.0
1747.359009 200.0
1747.926636 148.0
1748.673706 152.0
1748.756958 156.0
1749.639282 204.0
1749.864136 204.0
1750.172119 180.0
1750.30542 140.0
1750.763428 152.0
1750.821655 148.0
1752.424194 188.0
1753.154297 220.0
1753.729248 168.0
1756.172241 152.0
1756.964722 160.0
1759.568481 152.0
1761.689697 164.0
1762.859375 180.0
1764.572876 156.0
1765.180664 180.0
1767.13208 144.0
1767.450073 184.0
1770.895386 244.0
1772.613159 180.0
1772.809204 184.0
1776.917725 192.0
1778.931885 152.0
1779.716553 200.0
1782.563965 192.0
1782.711426 176.0
1783.512329 184.0
1784.022583 180.0
1784.392456 140.0
1785.140747 148.0
1785.418335 180.0
1787.462402 208.0
1788.102051 244.0
1789.398315 140.0
1789.962402 164.0
1791.503662 168.0
1791.680664 200.0
1793.087769 204.0
1793.627197 172.0
1793.955933 148.0
1794.259399 156.0
1794.824341 140.0
1795.962769 184.0
1796.139893 144.0
1796.713501 168.0
1797.25354 164.0
1797.599487 164.0
1798.30835 176.0
1799.709717 152.0
1802.091553 180.0
1806.335327 168.0
1806.849243 188.0
1809.508789 208.0
1809.991455 156.0
1812.210571 196.0
1813.75293 160.0
1816.665894 176.0
1817.04834 204.0
1818.51123 156.0
1823.148193 160.0
1823.758911 188.0
1825.052246 184.0
1828.684692 164.0
1829.85083 140.0
1831.017456 160.0
1831.290039 192.0
1832.261108 148.0
1836.369141 128.0
1837.905151 144.0
1838.741455 228.0
1839.885254 152.0
1841.669922 184.0
1842.416138 236.0
1845.575317 208.0
1846.327881 168.0
1847.215576 140.0
1847.422607 188.0
1849.596191 164.0
1850.263794 188.0
1850.42981 176.0
1852.027832 140.0
1852.85022 176.0
1853.158569 156.0
1853.347168 208.0
1854.958252 144.0
1856.36438 204.0
1858.242798 204.0
1859.152344 160.0
1859.976318 164.0
1860.311035 172.0
1860.551392 188.0
1861.710571 188.0
1863.623779 196.0
1864.459595 152.0
1865.207275 140.0
1865.79187 164.0
1867.494385 180.0
1869.387085 152.0
1869.714111 148.0
1870.27356 160.0
1870.781372 156.0
1870.893311 176.0
1872.281372 136.0
1873.347656 188.0
1879.287598 156.0
1882.52478 192.0
1884.986328 188.0
1886.014771 144.0
1887.155884 188.0
1889.335327 172.0
1893.71521 164.0
1895.614136 172.0
1895.837769 196.0
1896.315674 144.0
1897.181274 160.0
1897.736084 180.0
1897.857544 172.0
1898.741943 208.0
1898.950195 172.0
1900.338013 204.0
1900.433472 148.0
1900.650391 160.0
1901.021851 188.0
1901.249146 176.0
1901.388794 132.0
1903.141479 148.0
1903.401978 180.0
1903.532227 152.0
1903.949097 152.0
1904.661255 184.0
1904.791504 164.0
1905.469116 208.0
1905.903564 164.0
1908.171997 172.0
1908.876343 140.0
1909.806885 192.0
1910.250488 144.0
1910.702881 200.0
1911.285767 240.0
1911.877441 152.0
1911.990601 168.0
1916.144043 236.0
1916.327026 164.0
1916.623291 192.0
1916.841064 276.0
1917.905273 140.0
1918.270386 276.0
1920.493896 236.0
1924.778809 144.0
1925.014526 188.0
1925.992676 180.0
1926.053833 208.0
1929.872803 236.0
1930.161377 192.0
1930.729736 196.0
1930.834717 140.0
1931.683105 156.0
1932.076782 148.0
1934.535767 176.0
1936.071533 204.0
1937.092773 180.0
1937.644653 168.0
1938.564697 156.0
1938.652344 180.0
1938.906494 160.0
1939.59668 172.0
1940.77356 176.0
1941.840088 188.0
1942.439819 196.0
1943.492676 148.0
1944.326294 160.0
1944.677368 176.0
1945.713135 148.0
1947.109253 220.0
1949.226318 172.0
1950.597412 188.0
1952.716431 148.0
1952.892334 172.0
1954.255737 300.0
1955.047729 172.0
1955.179688 148.0
1956.36792 192.0
1956.482422 156.0
1957.195557 144.0
1957.996948 144.0
1958.463623 144.0
1958.789551 144.0
1961.546631 172.0
1961.67981 184.0
1962.067749 156.0
1962.349854 140.0
1963.372681 220.0
1966.125122 180.0
1968.455688 164.0
1969.730835 260.0
1969.895264 140.0
1971.043823 180.0
1971.414917 148.0
1973.394897 172.0
1973.799072 216.0
1973.934326 156.0
1974.155396 168.0
1974.270264 144.0
1976.490601 168.0
1976.959595 216.0
1977.163086 176.0
1978.19873 204.0
1978.27832 140.0
1978.995483 200.0
1979.85437 156.0
1981.189575 156.0
1981.39563 164.0
1981.466431 280.0
1982.058228 224.0
1982.139893 152.0
1985.366577 228.0
1985.898682 156.0
1985.996216 200.0
1988.437744 168.0
1992.067627 180.0
1992.565063 224.0
1992.64502 180.0
1992.891357 132.0
1994.040161 172.0
1994.39563 184.0
1994.564575 144.0
1995.844727 144.0
1998.014893 184.0
1998.850952 160.0
1999.572021 172.0
2001.103027 144.0
2002.16272 140.0
2002.447632 188.0
2002.51001 172.0
