>compound MLS001075905-01!
>formula C19H18FN3O2S
>ionization [M+H]+
>parentmass 372.119476
#inchi InChI=1S/C19H18FN3O2S/c20-15-6-4-13(5-7-15)18(25)21-19(26)22-9-12-8-14(11-22)16-2-1-3-17(24)23(16)10-12/h1-7,12,14H,8-11H2,(H,21,25,26)/t12-,14-/m1/s1
#inchikey JGOUIELVSPTAER
#Ion_Source LC-ESI
#Instrument qTof
#Compound_Source NIH Natural Product Library
#PI Dorrestein
#Data_Collector VVP/LMS
#Scan -1
#Precursor_MZ 372.118
#ExactMass 371.11
#Charge 1
#CAS_Number N/A
#Pubmed_ID N/A
#Smiles Fc1ccc(cc1)C(=O)NC(=S)N2C[C@H]3C[C@H](C2)c4cccc(=O)n4C3
#INCHI_AUX N/A
#Library_Class 1
#SpectrumID CCMSLIB00000079719
#IonMode Positive
#UpdateWorkflowName UPDATE-SINGLE-ANNOTATED-GOLD
#LibraryQualityString Gold
#TaskID b1d8e8f6646f4e71acdff9ca3d919d08
##Scan# 1740
#SpectrumFile p1-B10_GB10_01_17894.mzXML
#LibraryName NIH_Natural_Products_Library.mgf
#MQScore -1
#Organism NIH_Natural_Products_Library
#TIC_Query 0
#RT_Query -1
#MZErrorPPM -1
#SharedPeaks 0
#MassDiff 0
#LibMZ -1
#SpecMZ 372.118
#SpecCharge 0
#internalFilename spec-00000.mgf

>collision 10
95.002716 216.0
95.03035 1756.0
95.058983 40.0
95.246681 176.0
95.282265 132.0
95.676338 120.0
95.887421 220.0
96.033646 100.0
96.079498 316.0
96.124519 188.0
96.451485 224.0
96.531639 60.0
96.666611 144.0
96.901573 92.0
96.936844 148.0
97.009361 128.0
97.068176 176.0
97.172134 104.0
97.258476 100.0
97.89743 84.0
98.017586 184.0
98.049118 128.0
98.113419 200.0
98.143738 128.0
98.287727 164.0
98.465385 176.0
98.574043 136.0
98.587875 184.0
99.023109 220.0
99.149902 192.0
99.187561 168.0
99.201439 120.0
99.362068 132.0
99.74334 184.0
100.003906 192.0
100.181122 164.0
100.508087 180.0
100.645805 176.0
100.863564 176.0
100.987534 192.0
101.329834 172.0
101.534286 72.0
101.811234 48.0
101.939796 148.0
102.022202 152.0
102.060402 168.0
102.217293 56.0
102.56369 128.0
102.637344 176.0
102.662476 160.0
102.79158 196.0
102.959129 188.0
103.05172 336.0
103.302727 140.0
103.464622 232.0
103.505112 172.0
104.05455 288.0
104.162201 112.0
104.282082 144.0
104.3573 136.0
104.41423 80.0
104.444 176.0
104.46508 212.0
104.705261 172.0
104.982056 136.0
105.06324 236.0
105.127251 200.0
105.143829 128.0
105.294647 208.0
105.376358 144.0
105.400871 184.0
105.460136 104.0
105.474449 168.0
106.064613 208.0
106.291588 136.0
106.457855 216.0
106.525635 84.0
106.864845 184.0
106.961563 72.0
107.144836 140.0
107.303528 188.0
107.567581 168.0
107.646034 136.0
107.780304 104.0
108.045998 176.0
108.463242 124.0
108.66024 240.0
108.975815 172.0
109.057289 232.0
109.121307 212.0
109.420891 68.0
109.770935 72.0
109.810555 160.0
109.9086 96.0
109.967033 92.0
110.05471 88.0
110.200386 80.0
110.441315 44.0
110.731262 172.0
111.218658 92.0
111.237549 152.0
111.449661 44.0
111.466469 160.0
111.701935 160.0
111.725075 136.0
111.773468 124.0
111.823975 152.0
111.89344 132.0
111.946075 208.0
112.021896 168.0
112.126038 204.0
112.40139 76.0
112.456261 44.0
112.538582 192.0
112.561813 196.0
113.039955 732.0
113.090324 148.0
113.153831 136.0
113.189827 100.0
113.302078 156.0
113.395309 176.0
113.787735 156.0
113.866302 232.0
113.887543 148.0
113.910545 188.0
114.047653 308.0
114.119171 176.0
114.165947 148.0
114.185089 224.0
114.237556 168.0
114.380836 156.0
114.538399 68.0
114.702477 240.0
114.81974 92.0
115.052315 136.0
115.377037 108.0
115.402695 168.0
115.556679 188.0
115.978546 116.0
116.056076 192.0
116.173035 228.0
116.405472 216.0
116.613853 76.0
116.884819 140.0
116.957985 92.0
117.062737 384.0
117.115166 168.0
117.218575 212.0
117.410431 188.0
117.563599 92.0
117.764374 148.0
117.878555 164.0
117.963165 188.0
118.06472 208.0
118.248672 128.0
118.463028 164.0
118.562698 48.0
118.725288 164.0
118.879311 208.0
118.994347 40.0
119.068176 168.0
119.176788 160.0
119.322411 168.0
119.346321 124.0
119.496399 200.0
119.668335 168.0
120.08078 500.0
120.208893 160.0
120.409729 88.0
120.483994 144.0
121.046097 208.0
121.113991 220.0
121.223526 124.0
121.385742 172.0
121.480049 164.0
121.495407 212.0
121.605118 220.0
121.800529 208.0
121.857643 92.0
122.059433 208.0
122.076019 200.0
122.110435 116.0
122.264435 88.0
122.379936 176.0
122.476868 156.0
122.717262 188.0
122.752289 192.0
122.954224 168.0
122.982918 100.0
123.024307 14576.0
123.069016 64.0
123.084465 56.0
123.144096 124.0
123.175682 132.0
123.198029 112.0
123.230247 64.0
123.26339 44.0
123.332565 132.0
123.340378 172.0
123.422539 188.0
123.526482 172.0
123.579575 96.0
123.761063 104.0
124.027252 1464.0
124.057938 60.0
124.144409 160.0
124.177673 180.0
124.239777 32.0
124.348503 64.0
124.511436 216.0
124.574982 96.0
124.634972 88.0
124.739052 144.0
124.78611 216.0
124.830574 148.0
124.857262 136.0
124.879501 100.0
124.903969 84.0
125.012985 44.0
125.032166 168.0
125.075302 152.0
125.407173 176.0
125.514175 136.0
125.723862 144.0
125.860031 212.0
126.492714 144.0
126.553154 60.0
126.981857 168.0
127.308815 88.0
127.49929 208.0
127.537971 116.0
127.767334 108.0
127.902351 140.0
127.920364 60.0
127.978897 144.0
128.048843 196.0
128.12529 160.0
128.346161 216.0
128.628159 224.0
128.741043 52.0
128.817841 176.0
129.070908 376.0
129.132019 168.0
129.150116 132.0
129.193085 52.0
129.460175 120.0
129.476013 188.0
130.065536 504.0
130.092743 172.0
130.574722 160.0
130.592346 156.0
130.644958 200.0
130.663147 132.0
130.842941 124.0
130.897583 124.0
131.047913 156.0
131.074738 336.0
131.170975 140.0
131.198334 152.0
131.22113 92.0
131.348831 120.0
131.659241 148.0
131.730042 44.0
132.043686 1084.0
132.07901 72.0
132.082718 180.0
132.239929 80.0
132.310898 60.0
132.370422 168.0
132.634933 140.0
132.787506 148.0
133.054062 2428.0
133.262665 120.0
133.299438 248.0
133.586823 100.0
133.683456 164.0
133.828461 64.0
134.057785 1448.0
134.100296 120.0
134.395462 60.0
134.774124 204.0
135.058472 148.0
135.092621 188.0
135.755569 92.0
136.078094 136.0
136.17099 188.0
136.212799 160.0
136.261581 156.0
136.315018 108.0
136.566101 140.0
136.982742 160.0
137.031662 152.0
137.208786 48.0
137.34404 68.0
137.442017 160.0
137.624069 136.0
137.990891 124.0
138.009598 188.0
138.083481 160.0
138.149918 176.0
138.941727 212.0
138.99855 352.0
139.028549 112.0
139.242188 160.0
139.505341 68.0
139.528854 220.0
139.575867 48.0
139.592331 200.0
139.677002 148.0
139.742874 180.0
139.808746 124.0
139.893219 176.0
139.959396 144.0
140.169037 168.0
140.43071 160.0
140.465622 100.0
140.713882 196.0
140.855576 176.0
140.902817 60.0
140.998398 184.0
141.039871 32.0
141.056427 220.0
141.456177 72.0
142.063293 708.0
142.205185 52.0
142.226547 200.0
142.328629 224.0
142.345245 204.0
142.425995 56.0
142.687393 132.0
142.982346 160.0
143.071823 128.0
143.330017 168.0
143.410629 140.0
143.535004 132.0
143.72821 88.0
143.827103 180.0
143.864243 248.0
144.021851 156.0
144.062454 96.0
144.081284 340.0
144.275131 68.0
144.311005 212.0
144.425781 44.0
144.667465 188.0
144.733521 68.0
144.756042 152.0
144.787186 204.0
144.806335 160.0
144.847061 196.0
144.97644 156.0
145.055161 292.0
145.139435 156.0
145.169037 128.0
145.458511 140.0
145.744293 148.0
145.785141 156.0
145.953415 156.0
146.059738 2208.0
146.098297 548.0
146.1362 176.0
146.360046 132.0
146.972275 140.0
147.006058 268.0
147.022949 144.0
147.062805 316.0
147.097061 136.0
147.201584 168.0
147.336838 140.0
147.451614 132.0
147.527756 112.0
147.677658 108.0
147.740555 156.0
147.764755 112.0
147.868805 112.0
147.895416 140.0
147.932617 284.0
148.045242 216.0
148.076218 27176.0
148.147247 56.0
148.197556 68.0
148.22963 76.0
148.271393 76.0
148.37262 40.0
148.459106 96.0
148.466431 64.0
148.477905 76.0
148.557571 96.0
148.595749 56.0
148.612732 76.0
148.634567 48.0
148.653976 80.0
148.789902 108.0
149.079651 2540.0
149.140915 80.0
149.205322 72.0
149.270981 60.0
149.339066 36.0
149.431503 112.0
149.635941 108.0
149.682205 208.0
149.750397 52.0
149.823471 192.0
149.852707 208.0
149.894119 196.0
149.974548 240.0
150.01355 44.0
150.05011 68.0
150.083298 652.0
150.11351 44.0
150.315979 124.0
150.965744 68.0
151.039124 120.0
151.078262 192.0
152.576645 196.0
152.748795 212.0
153.199265 224.0
153.391479 164.0
153.601059 148.0
153.966354 244.0
154.066528 264.0
154.159042 136.0
154.623962 152.0
155.047455 172.0
155.072586 176.0
155.359863 196.0
155.456635 100.0
155.896164 128.0
156.078796 480.0
156.124863 140.0
156.170364 204.0
156.226852 104.0
156.338806 172.0
156.550415 184.0
156.667801 92.0
157.052414 208.0
157.083817 184.0
157.54808 204.0
157.588058 152.0
157.772995 172.0
157.98056 88.0
158.06134 1504.0
158.128189 40.0
158.578995 128.0
159.067795 728.0
159.214005 184.0
159.261444 160.0
159.351883 88.0
159.502655 60.0
159.648483 104.0
159.723938 88.0
159.86795 164.0
159.98172 200.0
160.038498 216.0
160.07576 8312.0
160.139236 212.0
160.177017 36.0
160.439087 204.0
160.678665 72.0
160.835129 72.0
160.885605 76.0
161.081009 780.0
161.173523 84.0
161.231644 200.0
161.494583 136.0
161.550232 48.0
161.641312 124.0
161.861526 152.0
161.927368 164.0
162.08902 1300.0
162.294815 164.0
162.315094 172.0
162.45459 72.0
162.761673 92.0
162.914062 124.0
163.076675 164.0
163.145309 148.0
163.351288 152.0
163.812027 116.0
163.936874 172.0
164.107651 164.0
164.380569 132.0
164.429062 104.0
164.58223 276.0
164.605209 96.0
164.630737 36.0
164.763565 140.0
164.824875 128.0
164.983337 252.0
165.146988 136.0
165.361908 84.0
165.653793 128.0
165.779343 208.0
166.117767 176.0
166.31279 212.0
166.775116 156.0
167.117126 216.0
167.444046 168.0
167.505859 84.0
168.07045 164.0
168.806625 136.0
168.847519 152.0
169.291595 148.0
169.368225 256.0
169.82959 156.0
170.644974 136.0
171.063828 184.0
171.170563 132.0
171.285156 104.0
171.368881 144.0
171.62587 76.0
171.827377 196.0
171.989166 148.0
172.075165 764.0
172.388748 120.0
172.57695 96.0
172.728622 36.0
172.843735 120.0
173.08049 128.0
173.101288 152.0
173.108856 212.0
173.246933 52.0
173.847351 124.0
173.884094 40.0
174.020584 144.0
174.038971 140.0
174.091583 5904.0
174.241196 88.0
174.443558 96.0
174.490875 128.0
174.59079 80.0
174.72493 156.0
174.753433 48.0
174.890717 64.0
175.017075 144.0
175.0513 196.0
175.095901 1040.0
175.140854 120.0
175.441238 200.0
175.459702 76.0
175.565552 168.0
176.040176 100.0
176.174866 84.0
176.484085 44.0
177.055649 388.0
177.411209 104.0
179.184738 220.0
179.367172 60.0
179.492462 196.0
180.042175 208.0
180.774643 124.0
181.087875 224.0
181.827835 220.0
182.005234 160.0
182.577362 216.0
183.009415 192.0
183.069839 176.0
183.565659 244.0
184.724304 180.0
184.967834 128.0
185.260284 208.0
185.330719 160.0
185.569229 112.0
186.04129 128.0
186.136307 188.0
186.28569 168.0
186.508499 80.0
187.08168 364.0
187.21315 148.0
187.237656 72.0
187.308472 36.0
187.692734 160.0
187.856369 96.0
188.055557 200.0
188.222092 48.0
188.585419 192.0
188.713898 212.0
188.73851 172.0
189.031189 184.0
189.099991 140.0
189.266586 204.0
189.515839 164.0
189.666565 164.0
189.918823 192.0
189.959961 148.0
190.035202 196.0
190.132812 100.0
190.281036 236.0
190.360672 92.0
190.415588 120.0
190.444916 76.0
190.588654 96.0
190.635361 116.0
190.695831 128.0
190.739807 76.0
190.825027 80.0
190.877258 132.0
190.922577 176.0
191.000534 212.0
191.047256 164.0
191.076248 144.0
191.11853 62792.0
191.181641 172.0
191.201355 88.0
191.262421 36.0
191.293274 76.0
191.31781 204.0
191.335403 80.0
191.375839 80.0
191.402542 116.0
191.449753 92.0
191.486938 100.0
191.572769 176.0
191.614899 220.0
191.661743 208.0
191.683777 48.0
191.747162 60.0
191.769211 60.0
191.802292 96.0
191.82254 120.0
191.843628 104.0
191.896011 108.0
191.918839 116.0
191.971283 80.0
192.008911 68.0
192.039413 228.0
192.121704 5968.0
192.182861 32.0
192.220169 84.0
192.251846 80.0
192.445053 28.0
192.525131 60.0
192.599701 60.0
192.674286 40.0
192.693634 48.0
192.784805 44.0
192.837326 44.0
192.950653 40.0
192.989365 68.0
193.039124 32.0
193.086136 128.0
193.124298 808.0
193.147339 164.0
193.185303 80.0
193.218918 100.0
193.236893 64.0
193.254181 128.0
193.29361 40.0
193.341858 68.0
193.368332 80.0
193.390472 88.0
193.42923 84.0
193.459091 132.0
193.492889 120.0
193.535904 112.0
193.584869 148.0
193.64064 72.0
193.805862 200.0
194.427567 80.0
194.896286 120.0
194.996323 32.0
195.867203 160.0
196.117966 64.0
197.240021 76.0
197.651123 184.0
198.05986 96.0
198.968414 180.0
199.080154 316.0
199.187454 40.0
199.280167 68.0
199.465637 68.0
199.83403 132.0
199.949402 92.0
199.9888 68.0
200.075989 160.0
200.085114 284.0
200.094315 200.0
200.814331 76.0
200.848175 208.0
200.879196 52.0
201.113403 212.0
201.183975 36.0
201.514389 72.0
201.740479 40.0
202.280777 116.0
202.597931 100.0
202.634766 88.0
203.269882 160.0
204.048065 356.0
204.867737 76.0
205.8974 148.0
207.069977 136.0
208.265976 32.0
208.57341 192.0
211.058472 220.0
212.97113 124.0
213.0728 156.0
216.040543 140.0
216.111603 2236.0
216.14418 152.0
217.115387 320.0
217.626053 32.0
218.066696 52.0
218.09314 72.0
220.052109 128.0
222.46489 120.0
229.730865 136.0
229.911896 76.0
230.47052 232.0
231.051331 116.0
231.09639 64.0
231.296127 120.0
231.804916 120.0
232.202042 56.0
232.663269 80.0
232.860626 168.0
232.884933 176.0
232.909225 224.0
233.030746 124.0
233.074524 8188.0
233.134048 92.0
233.213074 96.0
233.325546 108.0
233.431961 168.0
233.626617 60.0
234.075729 1532.0
234.442596 72.0
234.942642 60.0
235.009766 72.0
235.07428 376.0
235.147079 40.0
235.186752 40.0
235.437103 76.0
235.971832 84.0
236.072739 176.0
237.871185 68.0
238.162888 216.0
239.063675 140.0
242.367706 108.0
246.834427 72.0
250.865692 132.0
250.928741 64.0
253.701294 68.0
261.379425 104.0
268.079254 160.0
270.132904 104.0
272.069611 200.0
276.072876 200.0
278.286316 112.0
280.608612 64.0
282.98407 144.0
290.245117 40.0
295.035461 216.0
295.880463 76.0
297.117645 136.0
298.746002 40.0
312.991913 92.0
318.246124 104.0
318.498291 140.0
326.072876 56.0
329.152924 96.0
331.953644 60.0
333.954681 124.0
334.001984 60.0
334.074707 48.0
335.134155 124.0
338.121155 84.0
346.246399 64.0
355.089081 128.0
355.116638 164.0
356.090179 132.0
371.089691 72.0
372.041138 180.0
372.119476 204.0
373.143707 140.0
396.349762 56.0
400.867706 120.0
407.092102 72.0
409.432587 60.0
410.996613 164.0
415.163055 116.0
418.833038 64.0
429.457214 60.0
441.965851 156.0
450.462402 48.0
453.23349 52.0
460.448151 76.0
469.939117 100.0
473.249847 48.0
498.268555 96.0
517.967224 60.0
521.929138 80.0
539.70636 56.0
541.821472 60.0
561.708374 92.0
605.889099 44.0
624.330017 44.0
643.425903 204.0
664.127014 108.0
670.651672 76.0
688.56189 40.0
700.742065 88.0
701.395508 56.0
717.670776 136.0
729.760498 48.0
730.314392 20.0
747.654358 224.0
766.299316 172.0
787.892151 68.0
805.373413 92.0
805.638916 72.0
806.978333 204.0
824.611755 80.0
825.217712 156.0
832.799072 156.0
876.703857 88.0
884.156616 184.0
888.476074 80.0
899.085144 188.0
925.214111 116.0
936.892273 120.0
937.190796 64.0
947.607971 172.0
967.760498 164.0
999.286316 140.0
1023.846558 176.0
1027.805054 76.0
1028.302856 128.0
1028.762451 64.0
1029.573364 248.0
1031.061768 112.0
1031.45166 208.0
1033.741333 224.0
1035.501831 160.0
1040.098877 192.0
1041.427979 92.0
1045.851562 88.0
1046.546875 140.0
1048.511475 196.0
1049.188354 72.0
1054.397217 108.0
1055.858276 148.0
1071.90564 108.0
1079.870117 144.0
1082.880737 120.0
1096.836304 172.0
1101.613647 184.0
1105.726318 180.0
1107.030518 148.0
1107.143066 112.0
1111.338989 132.0
1119.694702 244.0
1125.696533 104.0
1127.224731 88.0
1127.907837 200.0
1128.529663 240.0
1133.811035 200.0
1133.891479 192.0
1134.13269 124.0
1134.83667 120.0
1134.930542 168.0
1143.872314 276.0
1144.821655 204.0
1146.532715 180.0
1160.464111 68.0
1160.986206 252.0
1167.451172 160.0
1171.623535 204.0
1179.894775 132.0
1183.938599 48.0
1186.727417 192.0
1192.088257 108.0
1195.38208 172.0
1200.334717 180.0
1205.007446 136.0
1205.366821 168.0
1206.044067 228.0
1206.327393 104.0
1210.755615 84.0
1213.541138 96.0
1219.518066 40.0
1222.306763 184.0
1226.367554 176.0
1227.781982 160.0
1232.235352 96.0
1235.155151 136.0
1236.619751 156.0
1237.480713 128.0
1242.828491 168.0
1243.719849 156.0
1252.882324 176.0
1256.999756 60.0
1257.521973 84.0
1259.428345 224.0
1259.703857 176.0
1260.162964 144.0
1261.816772 172.0
1268.180542 180.0
1270.293579 32.0
1271.428833 172.0
1271.634644 124.0
1277.062744 60.0
1277.325928 144.0
1277.78833 232.0
1278.435791 68.0
1279.289917 116.0
1280.464722 176.0
1280.699707 56.0
1281.383545 152.0
1281.83252 176.0
1282.994263 260.0
1290.025757 124.0
1295.82251 172.0
1297.865234 180.0
1300.282715 132.0
1304.865479 124.0
1305.980103 156.0
1306.54834 196.0
1308.333008 144.0
1313.413208 100.0
1316.567139 184.0
1321.084595 180.0
1322.647583 136.0
1326.450317 212.0
1328.328369 116.0
1333.963257 184.0
1334.098755 256.0
1338.255493 188.0
1339.94519 144.0
1344.860107 176.0
1345.093628 132.0
1345.268799 208.0
1346.546631 76.0
1350.442139 100.0
1355.229614 120.0
1356.21167 188.0
1356.446167 228.0
1357.655884 92.0
1357.86853 192.0
1358.257324 160.0
1359.687988 132.0
1364.374268 184.0
1364.756592 196.0
1365.183105 168.0
1366.580566 156.0
1367.353271 208.0
1368.420654 160.0
1369.26001 176.0
1369.996582 108.0
1376.095581 204.0
1376.147339 68.0
1379.434814 120.0
1380.100098 180.0
1381.704224 188.0
1387.941284 188.0
1389.172363 220.0
1393.864502 192.0
1394.221191 164.0
1394.570435 184.0
1398.140381 136.0
1401.409302 144.0
1401.849609 192.0
1404.570068 136.0
1407.734497 164.0
1408.421631 112.0
1409.900879 176.0
1410.274536 236.0
1421.305542 108.0
1423.204468 160.0
1423.459839 144.0
1424.556274 184.0
1426.773193 172.0
1429.044434 80.0
1432.618774 192.0
1432.647095 148.0
1434.655151 188.0
1439.438477 216.0
1440.02002 204.0
1441.18335 204.0
1443.072876 192.0
1443.79126 156.0
1445.137573 172.0
1445.349487 152.0
1445.985107 156.0
1450.719116 172.0
1451.265015 144.0
1452.258423 196.0
1456.174683 152.0
1458.150024 164.0
1460.438477 152.0
1460.796021 164.0
1461.359009 112.0
1465.676025 152.0
1469.541748 108.0
1470.1521 156.0
1470.70166 232.0
1474.190796 132.0
1474.25293 92.0
1474.390503 188.0
1474.512817 208.0
1475.070801 200.0
1475.361206 56.0
1475.582886 112.0
1475.796997 204.0
1477.28064 148.0
1478.589111 192.0
1480.594849 160.0
1481.062012 40.0
1481.452637 40.0
1481.927612 340.0
1485.32373 176.0
1485.990234 192.0
1486.00708 168.0
1486.030884 204.0
1486.436157 244.0
1489.622314 124.0
1489.768188 140.0
1492.06604 200.0
1497.128906 108.0
1503.828491 112.0
