>compound Maprotiline hydrochloride
>formula C20H23N
>ionization [M+H]+
>parentmass 278.192108
#inchi InChI=1S/C20H23N/c1-21-14-6-12-20-13-11-15(16-7-2-4-9-18(16)20)17-8-3-5-10-19(17)20/h2-5,7-10,15,21H,6,11-14H2,1H3
#inchikey QSLMDECMDJKHMQ
#Ion_Source LC-ESI
#Instrument qTof
#Compound_Source Commercial
#PI Dorrestein
#Data_Collector Garg_Neha
#Scan -1
#Precursor_MZ 278.19
#ExactMass 277.183
#Charge 1
#CAS_Number N/A
#Pubmed_ID N/A
#Smiles CNCCCC1(CCC2c3ccccc31)c4ccccc24
#INCHI_AUX N/A
#Library_Class 1
#SpectrumID CCMSLIB00000079196
#IonMode Positive
#UpdateWorkflowName UPDATE-SINGLE-ANNOTATED-GOLD
#LibraryQualityString Gold
#TaskID 278b19f5865741e282cec7349aa7e7a1
##Scan# 1168
#SpectrumFile NCP003592_E2_F11_BE2_01_15736.mzXML
#LibraryName NIHcollectionI_05062014.mgf
#MQScore -1
#Organism NIHcollectionI_05062014
#TIC_Query 0
#RT_Query -1
#MZErrorPPM -1
#SharedPeaks 0
#MassDiff 0
#LibMZ -1
#SpecMZ 278.19
#SpecCharge 0
#internalFilename spec-00000.mgf

>collision 10
45.964512 224.0
46.406818 156.0
46.439362 148.0
46.513992 164.0
46.678383 180.0
46.750481 176.0
48.125389 232.0
48.325802 140.0
48.925365 160.0
49.12883 236.0
49.262848 140.0
49.318741 176.0
49.343903 172.0
50.187737 148.0
50.265316 144.0
50.365555 168.0
50.395222 188.0
50.43055 168.0
50.876759 204.0
51.720657 144.0
52.185463 152.0
52.199841 144.0
52.451794 208.0
52.482067 192.0
52.98214 160.0
53.0952 148.0
53.622952 184.0
53.777554 140.0
53.898766 156.0
54.659794 148.0
56.979401 184.0
57.28479 156.0
57.529934 200.0
57.587978 184.0
59.137333 152.0
59.201633 144.0
59.249119 164.0
60.179752 212.0
60.584812 144.0
60.747581 164.0
60.845352 148.0
61.531933 148.0
61.789806 148.0
61.952621 148.0
62.112514 144.0
62.558792 172.0
62.747406 160.0
65.154282 204.0
65.371346 172.0
66.205956 196.0
67.570801 148.0
67.999329 144.0
68.817467 192.0
68.881874 164.0
69.09948 172.0
69.355118 140.0
69.396561 168.0
69.836632 196.0
70.02137 184.0
70.153008 224.0
70.391594 164.0
70.612183 288.0
70.72261 204.0
71.289482 164.0
71.432388 160.0
72.54184 140.0
73.362915 140.0
73.779465 152.0
74.084076 152.0
74.588585 188.0
74.850082 176.0
75.122398 148.0
75.798409 216.0
75.848663 140.0
76.674179 196.0
77.290688 152.0
77.325691 148.0
77.434235 148.0
78.855827 240.0
79.15657 144.0
79.395805 188.0
79.878914 144.0
80.071144 204.0
80.267174 152.0
80.417023 148.0
80.887115 172.0
81.709023 140.0
81.750404 156.0
82.401329 188.0
82.559448 160.0
82.799286 152.0
83.024002 232.0
83.942352 228.0
84.119324 160.0
85.025337 148.0
85.356003 184.0
85.936211 196.0
86.916862 160.0
87.212143 204.0
88.168251 216.0
88.544289 156.0
88.984947 144.0
89.097633 156.0
89.952591 184.0
90.343002 140.0
90.737679 176.0
91.055435 1944.0
91.686188 176.0
91.712868 164.0
92.062004 232.0
92.444336 172.0
93.875481 228.0
93.917915 156.0
94.795029 128.0
94.822769 188.0
94.886734 184.0
94.958481 184.0
96.016487 184.0
96.575066 176.0
97.062706 180.0
97.388481 236.0
98.242775 148.0
98.371048 220.0
98.805809 152.0
99.469673 160.0
99.491508 204.0
99.54512 144.0
100.325058 196.0
100.942001 164.0
101.146072 192.0
101.164085 196.0
102.129265 184.0
102.834457 216.0
104.152565 192.0
104.874886 140.0
105.071404 812.0
105.734734 152.0
105.808426 152.0
106.07679 236.0
106.480995 180.0
107.739548 176.0
107.878006 220.0
108.760437 172.0
108.984474 168.0
109.815331 160.0
110.303917 232.0
110.578873 184.0
111.280159 264.0
111.968956 196.0
113.33239 144.0
113.608002 192.0
114.421951 204.0
114.464531 196.0
114.892937 192.0
114.924942 144.0
115.054268 1348.0
115.25589 176.0
115.283669 156.0
115.651527 288.0
115.683632 184.0
116.060699 328.0
116.64727 164.0
117.070419 9168.0
117.146027 140.0
117.808296 140.0
118.074005 724.0
118.212608 160.0
118.938644 168.0
119.084183 484.0
119.394905 148.0
119.666901 176.0
119.684319 152.0
119.730049 180.0
119.865112 140.0
120.100563 152.0
122.441345 168.0
123.100723 364.0
123.27523 140.0
123.943497 272.0
124.076477 148.0
125.04274 164.0
125.501633 148.0
125.820679 244.0
126.108833 220.0
126.332436 180.0
126.840759 192.0
126.860931 152.0
127.060768 180.0
127.763702 120.0
127.889709 160.0
128.062912 1072.0
129.06868 1424.0
130.041428 168.0
130.527588 168.0
131.084976 4052.0
131.304138 160.0
131.964066 164.0
132.090179 464.0
132.542389 140.0
132.689835 152.0
133.045425 208.0
133.106628 152.0
133.350937 200.0
133.500366 160.0
133.980194 128.0
134.564911 168.0
134.837479 204.0
134.950745 144.0
135.242233 176.0
137.739502 172.0
138.326431 172.0
140.691315 140.0
140.856613 180.0
140.993652 184.0
141.036194 196.0
141.069656 8080.0
141.296326 252.0
141.563782 196.0
142.072464 836.0
142.149292 148.0
142.187271 144.0
143.085052 2320.0
143.135773 180.0
143.621948 140.0
144.088547 728.0
144.221252 168.0
144.395798 204.0
145.032669 160.0
145.087799 144.0
146.106049 176.0
146.70903 156.0
146.819016 188.0
146.934799 164.0
148.095108 180.0
148.160507 196.0
149.517838 196.0
149.697983 176.0
150.058609 176.0
150.507553 168.0
151.054993 140.0
151.145508 248.0
151.451523 144.0
152.118484 196.0
152.966553 164.0
153.070267 296.0
153.161072 192.0
153.44693 140.0
153.700974 192.0
153.755264 180.0
154.07901 552.0
154.620255 164.0
154.904984 176.0
155.085739 1112.0
155.232147 152.0
155.269333 216.0
156.014236 208.0
156.089569 276.0
156.282837 156.0
156.511841 164.0
156.885544 144.0
157.684296 164.0
159.099258 180.0
160.526138 148.0
161.04097 180.0
163.571487 208.0
163.61731 176.0
164.438095 156.0
165.068069 608.0
166.066864 212.0
166.599213 176.0
167.086121 184.0
167.404266 152.0
167.577911 176.0
168.092529 528.0
168.769272 176.0
169.101227 7928.0
169.844009 196.0
170.017838 188.0
170.105148 704.0
170.212524 156.0
171.110687 336.0
171.491074 116.0
172.11055 164.0
173.793747 140.0
174.127136 232.0
174.91066 192.0
174.936981 188.0
175.537689 140.0
176.062836 228.0
176.432755 156.0
176.646957 192.0
177.459976 192.0
178.051224 172.0
178.077774 18752.0
178.47525 168.0
179.083069 3880.0
179.463989 128.0
180.088272 672.0
180.714706 200.0
180.885391 108.0
181.341324 152.0
181.606766 164.0
182.057648 184.0
183.907227 140.0
184.074615 192.0
184.707016 180.0
185.665817 140.0
186.534653 164.0
189.044861 232.0
189.068222 380.0
190.076263 904.0
190.947754 168.0
191.032455 136.0
191.086166 34512.0
191.15657 164.0
191.217377 208.0
191.532639 104.0
191.790253 140.0
191.983246 208.0
192.030136 208.0
192.089233 4620.0
192.375824 184.0
192.410934 184.0
192.863968 180.0
193.100967 5084.0
193.392883 124.0
193.46524 108.0
193.577072 156.0
194.10202 600.0
194.341537 216.0
195.107681 148.0
195.203842 140.0
199.175262 164.0
199.788071 236.0
200.153946 140.0
201.061661 248.0
202.075226 144.0
202.976791 184.0
203.082916 1892.0
203.464798 144.0
203.952057 136.0
204.093231 5008.0
205.059479 116.0
205.100159 3552.0
205.893646 172.0
206.105576 1332.0
207.110443 208.0
207.767593 208.0
208.998154 216.0
209.216873 196.0
209.495926 196.0
209.778625 152.0
209.942963 160.0
210.398849 176.0
211.115417 172.0
213.9384 148.0
214.16713 252.0
215.697571 160.0
217.098526 1160.0
217.827866 168.0
218.110077 1520.0
218.171677 156.0
218.36084 148.0
218.733536 212.0
218.910187 156.0
219.03299 144.0
219.117279 45164.0
219.212158 200.0
219.41777 104.0
219.721878 104.0
220.076614 208.0
220.119614 6044.0
220.534271 144.0
220.866913 200.0
221.123199 824.0
221.219757 148.0
221.614899 120.0
221.718246 148.0
221.741974 108.0
222.123734 172.0
223.08197 144.0
224.952713 140.0
225.024368 156.0
225.911957 148.0
227.089127 160.0
227.184875 152.0
228.594238 184.0
229.101379 128.0
229.531052 240.0
231.119858 192.0
231.45282 140.0
232.064865 180.0
232.125397 444.0
233.119415 208.0
236.191315 164.0
236.310623 172.0
236.604431 172.0
238.755356 188.0
241.695145 156.0
241.803452 140.0
244.534637 164.0
244.624893 184.0
245.020401 148.0
246.233795 152.0
247.148422 2984.0
247.772766 156.0
248.153854 768.0
248.192749 152.0
248.268005 164.0
248.415421 176.0
249.154526 276.0
249.703217 172.0
249.860489 172.0
250.075516 144.0
250.102478 160.0
250.159821 43056.0
250.241882 140.0
250.289291 156.0
250.358795 268.0
250.413742 200.0
250.485794 176.0
250.519333 100.0
250.64447 184.0
250.790115 124.0
250.929947 168.0
251.028839 128.0
251.119812 200.0
251.162796 6548.0
251.241714 196.0
251.474655 104.0
252.164307 624.0
252.353531 128.0
252.514297 116.0
252.780533 156.0
252.847656 112.0
253.580261 156.0
255.539536 152.0
258.663788 232.0
260.083771 144.0
260.302094 172.0
260.459442 180.0
261.475464 164.0
262.058289 148.0
263.180725 168.0
263.31311 192.0
264.066162 228.0
264.11792 172.0
265.704315 180.0
265.867462 156.0
267.525085 188.0
268.766815 180.0
269.060577 176.0
270.309113 160.0
271.524475 156.0
274.775726 232.0
274.969055 140.0
275.011963 280.0
275.470947 160.0
276.007294 96.0
276.529022 152.0
276.593079 124.0
276.656006 208.0
277.062134 144.0
277.151581 200.0
277.226776 328.0
277.306396 168.0
277.358093 184.0
277.411896 184.0
277.532745 144.0
277.631439 152.0
277.676666 152.0
277.795593 208.0
277.994598 172.0
278.047028 260.0
278.092804 136.0
278.132904 212.0
278.192108 187100.0
278.274353 152.0
278.397095 180.0
278.490723 256.0
278.507111 148.0
278.561432 200.0
278.58371 368.0
278.698029 224.0
278.737396 1736.0
278.787048 236.0
278.853577 168.0
278.936951 236.0
279.013336 160.0
279.063385 156.0
279.11969 236.0
279.194489 36912.0
279.332428 136.0
279.401917 152.0
279.448303 196.0
279.486725 152.0
279.521393 156.0
279.563324 152.0
279.819641 100.0
280.198578 3112.0
280.339813 136.0
280.516266 176.0
280.561432 108.0
280.727112 132.0
280.82074 116.0
280.908569 128.0
281.002686 280.0
281.043701 200.0
281.101654 112.0
281.150665 208.0
281.200958 352.0
281.264923 108.0
281.354492 116.0
281.424622 116.0
281.942108 152.0
281.996887 140.0
282.029297 244.0
287.278717 144.0
288.183502 160.0
323.744537 200.0
362.142365 140.0
423.027405 160.0
659.286926 164.0
815.747742 156.0
1140.935059 144.0
1199.606934 160.0
1254.668945 144.0
1283.84668 172.0
1300.573975 160.0
1437.942139 192.0
1443.252686 148.0
1447.058472 176.0
1452.082397 168.0
1458.680542 192.0
1483.091309 148.0
1483.152588 140.0
1523.580933 152.0
1523.970215 208.0
1525.119507 168.0
1547.672974 144.0
1565.222168 164.0
1589.092407 180.0
1631.6698 148.0
1645.091187 188.0
1681.89563 160.0
1709.293091 176.0
1718.777222 192.0
1755.741943 196.0
1757.610474 184.0
1764.843872 188.0
1767.754761 152.0
1769.746948 196.0
1770.735107 184.0
1776.12439 160.0
1782.580566 196.0
1789.67981 164.0
1798.818481 160.0
1830.621216 176.0
1833.568726 204.0
1837.056152 176.0
1838.438354 184.0
1849.369141 176.0
1856.797363 172.0
1857.166138 156.0
1861.431396 276.0
1867.498779 204.0
1869.184937 160.0
1873.541504 140.0
1884.239136 152.0
1892.905762 152.0
1897.688721 196.0
1898.182861 144.0
1908.176636 144.0
1908.489746 168.0
1920.568481 176.0
1932.842773 148.0
1937.649658 288.0
1941.734375 168.0
1944.340088 140.0
1958.705322 136.0
1965.424438 144.0
1969.776855 196.0
1984.751221 172.0
1987.004028 156.0
1996.161377 144.0
1996.63269 152.0
1999.728882 188.0
