>compound MLS001140967-01!4-[[[2-(4-butyl-8-methyl-2-oxochromen-7-yl)oxyacetyl]amino]methyl]cyclohexane-1-carboxylic acid
>formula C24H31NO6
>ionization [M+H]+
>parentmass 430.223
#inchi InChI=1S/C24H31NO6/c1-3-4-5-18-12-22(27)31-23-15(2)20(11-10-19(18)23)30-14-21(26)25-13-16-6-8-17(9-7-16)24(28)29/h10-12,16-17H,3-9,13-14H2,1-2H3,(H,25,26)(H,28,29)/t16-,17-
#inchikey KQUTXXWSXHOINZ
#Ion_Source LC-ESI
#Instrument qTof
#Compound_Source NIH Natural Product Library
#PI Dorrestein
#Data_Collector VVP/LMS
#Scan -1
#Precursor_MZ 430.223
#ExactMass 429.215
#Charge 1
#CAS_Number N/A
#Pubmed_ID N/A
#Smiles CCCCc1cc(=O)oc2c(C)c(OCC(=O)NC[C@H]3CC[C@@H](CC3)C(=O)O)ccc12
#INCHI_AUX N/A
#Library_Class 1
#SpectrumID CCMSLIB00000079557
#IonMode Positive
#UpdateWorkflowName UPDATE-SINGLE-ANNOTATED-GOLD
#LibraryQualityString Gold
#TaskID b1d8e8f6646f4e71acdff9ca3d919d08
##Scan# 2192
#SpectrumFile p1-B08_GB8_01_17892.mzXML
#LibraryName NIH_Natural_Products_Library.mgf
#MQScore -1
#Organism NIH_Natural_Products_Library
#TIC_Query 0
#RT_Query -1
#MZErrorPPM -1
#SharedPeaks 0
#MassDiff 0
#LibMZ -1
#SpecMZ 430.223
#SpecCharge 0
#internalFilename spec-00000.mgf

>collision 10
94.973846 112.0
95.016518 124.0
95.085922 5372.0
95.129074 56.0
95.286377 164.0
95.379654 40.0
95.418533 180.0
95.455475 28.0
95.472977 80.0
95.509926 144.0
95.836983 100.0
95.860367 68.0
95.891541 96.0
95.971466 140.0
96.043846 160.0
96.082062 500.0
96.123611 68.0
96.230965 176.0
96.469299 160.0
96.482986 236.0
96.545555 200.0
96.576851 100.0
96.615967 88.0
96.750999 128.0
96.784286 188.0
96.893967 116.0
97.115471 164.0
97.146858 180.0
97.343124 172.0
97.368652 244.0
97.736244 44.0
97.785446 184.0
97.856308 148.0
97.994171 48.0
98.009933 52.0
98.061172 236.0
98.374794 156.0
98.396339 236.0
98.5802 120.0
98.60984 140.0
98.930275 188.0
99.199684 100.0
99.298828 140.0
99.417854 208.0
99.477402 124.0
99.735626 184.0
99.89669 188.0
100.051697 228.0
100.292938 112.0
100.614098 144.0
100.662018 40.0
100.819832 208.0
100.843811 160.0
101.37014 200.0
101.500435 156.0
101.737183 164.0
101.837814 136.0
101.859673 224.0
101.87574 132.0
101.909897 56.0
101.944054 168.0
101.994301 120.0
102.047707 168.0
102.155167 136.0
102.203445 232.0
102.306091 224.0
102.529663 88.0
102.590134 112.0
102.729271 148.0
102.90081 148.0
103.057541 160.0
103.16748 180.0
103.18972 64.0
103.252403 168.0
103.323204 116.0
103.357597 248.0
103.481064 40.0
103.750511 168.0
103.833641 160.0
103.890434 244.0
103.951721 156.0
104.028427 68.0
104.048729 76.0
104.168541 68.0
104.185135 120.0
104.36161 140.0
104.375839 92.0
104.707542 68.0
104.731979 92.0
104.754387 140.0
105.052002 192.0
105.06881 984.0
105.249969 132.0
105.456299 136.0
105.617821 128.0
105.689423 116.0
105.720116 200.0
105.773331 40.0
105.867508 160.0
105.994987 172.0
106.041649 128.0
106.073387 236.0
106.105194 140.0
106.367767 164.0
106.552589 156.0
106.71701 72.0
106.788979 148.0
106.81366 144.0
106.846222 116.0
106.879494 56.0
107.011223 104.0
107.037987 68.0
107.052399 88.0
107.085815 532.0
107.747498 160.0
108.028648 76.0
108.053467 164.0
108.070023 200.0
108.084503 128.0
108.101059 144.0
108.204552 124.0
108.332947 124.0
108.453125 136.0
108.57338 192.0
108.836914 224.0
108.951141 212.0
109.062393 328.0
109.065811 176.0
109.07605 184.0
109.113243 220.0
109.163147 48.0
109.206818 164.0
109.252579 144.0
109.350372 124.0
109.384735 204.0
109.542976 176.0
110.060608 996.0
110.101845 436.0
110.596405 152.0
110.663391 160.0
110.719933 128.0
110.816284 152.0
110.845619 76.0
111.042679 180.0
111.067978 248.0
111.077431 224.0
111.104477 840.0
111.134972 164.0
111.22731 180.0
111.565514 76.0
111.65593 248.0
111.746376 136.0
111.780045 80.0
112.079041 172.0
112.112259 1484.0
112.144371 68.0
112.232857 164.0
112.310936 140.0
112.451859 192.0
112.467072 252.0
112.743744 172.0
112.786011 136.0
112.946709 52.0
113.114716 128.0
113.253624 124.0
113.30658 172.0
113.437965 188.0
114.096054 72.0
114.225769 84.0
114.264061 76.0
114.419418 116.0
114.510979 200.0
114.770966 168.0
114.798683 96.0
114.887177 220.0
114.958672 44.0
115.054909 680.0
115.144402 180.0
115.217026 148.0
115.443588 88.0
115.606163 124.0
115.833115 176.0
115.978813 148.0
116.055077 188.0
116.259773 132.0
116.319862 144.0
116.577591 212.0
116.652817 140.0
116.753868 152.0
117.069618 332.0
117.264107 212.0
117.302902 180.0
117.423645 184.0
117.652367 112.0
117.805695 220.0
117.931015 144.0
118.078033 104.0
118.188354 148.0
118.532639 96.0
118.677864 184.0
118.70388 224.0
118.74942 100.0
118.812325 264.0
118.901291 320.0
119.051086 312.0
119.08609 448.0
119.27269 208.0
119.327034 196.0
119.430916 176.0
119.514084 132.0
119.73394 120.0
119.936562 96.0
119.967079 208.0
120.078278 92.0
120.148079 188.0
120.305206 164.0
120.477722 144.0
120.525787 112.0
120.560753 236.0
120.621948 208.0
120.805634 124.0
120.836258 228.0
121.063965 1292.0
121.104683 232.0
121.158081 164.0
121.179993 80.0
121.309288 52.0
121.366287 152.0
121.388214 120.0
121.443047 192.0
121.622963 164.0
121.996384 176.0
122.069405 180.0
122.216309 116.0
122.325333 156.0
122.573013 92.0
122.714081 192.0
122.766998 108.0
123.04496 1700.0
123.102425 124.0
123.254837 120.0
123.469261 164.0
123.59314 116.0
123.632965 132.0
123.719292 204.0
123.874298 92.0
123.900887 128.0
123.923042 72.0
124.00946 180.0
124.049973 464.0
124.07679 204.0
124.111977 572.0
124.262253 68.0
124.297752 148.0
124.353233 72.0
124.481995 44.0
124.670815 140.0
124.857552 132.0
124.973366 128.0
124.981766 124.0
124.989792 224.0
125.053337 112.0
125.073364 192.0
125.12426 172.0
125.144608 120.0
125.396324 52.0
125.456505 176.0
125.69738 164.0
125.936249 192.0
125.965286 84.0
125.989861 200.0
126.130638 164.0
126.354263 232.0
126.506439 168.0
126.961273 76.0
127.048752 40.0
127.165428 156.0
127.524788 144.0
127.837387 168.0
127.947678 96.0
127.970184 376.0
128.059067 136.0
128.65329 160.0
128.750381 112.0
128.924332 184.0
129.03508 168.0
129.070038 512.0
129.082825 276.0
129.118744 164.0
129.161728 96.0
129.385757 44.0
129.440094 208.0
129.505768 136.0
129.884293 160.0
130.0 120.0
130.077164 160.0
130.095322 116.0
130.208847 160.0
130.340607 208.0
130.904724 176.0
131.016327 176.0
131.049301 164.0
131.087128 644.0
131.157608 60.0
131.237396 64.0
131.276169 140.0
132.055847 344.0
132.33638 72.0
132.542526 80.0
132.740646 176.0
132.893326 176.0
132.989716 64.0
133.064346 1132.0
133.100494 468.0
133.176468 164.0
133.204407 136.0
133.246597 152.0
133.311234 44.0
133.44455 52.0
133.62854 112.0
133.676865 40.0
134.071609 208.0
134.089081 188.0
134.151306 188.0
134.520401 64.0
134.760574 184.0
134.850693 152.0
134.915421 136.0
135.081619 528.0
135.118927 116.0
135.665466 148.0
136.090027 196.0
136.117889 128.0
136.615265 108.0
136.76651 152.0
136.962097 232.0
137.060654 768.0
137.083237 52.0
137.157822 156.0
137.471039 120.0
137.610382 200.0
137.68277 224.0
137.99588 208.0
138.086975 356.0
138.159592 160.0
138.204041 128.0
138.435776 36.0
138.695831 112.0
138.719269 124.0
138.874023 56.0
139.073456 176.0
139.27774 208.0
139.43515 76.0
139.569138 108.0
140.04216 160.0
140.072769 144.0
140.108902 612.0
140.164658 60.0
140.230637 68.0
140.440475 156.0
140.659912 244.0
140.80394 84.0
140.922043 228.0
141.06575 104.0
141.112259 176.0
141.279037 184.0
141.430481 44.0
141.71228 160.0
141.833145 88.0
142.041794 132.0
142.07576 304.0
142.207886 132.0
142.236374 108.0
142.385956 192.0
142.523727 136.0
142.564133 128.0
143.042175 156.0
143.084091 336.0
143.127884 112.0
143.177887 56.0
143.642654 188.0
143.816849 132.0
144.000687 180.0
144.094559 284.0
144.129684 180.0
144.246796 148.0
144.50293 148.0
144.526596 68.0
144.611557 136.0
144.660614 184.0
144.698929 200.0
145.064636 2056.0
145.10199 864.0
145.418045 48.0
145.482849 216.0
145.571686 176.0
145.605316 176.0
145.737427 112.0
146.070755 776.0
146.10527 160.0
146.235214 80.0
146.480804 204.0
146.649475 120.0
146.767593 136.0
146.820648 192.0
146.977448 164.0
147.038589 188.0
147.080109 1016.0
147.115005 320.0
147.194687 140.0
147.264709 172.0
147.929657 52.0
148.007126 136.0
148.053131 216.0
148.084076 332.0
148.123367 136.0
148.17424 132.0
148.285706 168.0
148.665039 216.0
148.83638 64.0
149.003967 196.0
149.058502 872.0
149.089005 188.0
149.135178 132.0
149.186234 88.0
149.339417 80.0
149.409958 160.0
149.538925 128.0
149.972458 124.0
150.059479 172.0
150.096786 176.0
150.135803 136.0
150.155319 132.0
150.330963 176.0
150.467651 168.0
150.504272 100.0
150.594635 112.0
150.882965 132.0
150.917191 156.0
150.970993 212.0
151.000061 144.0
151.037888 332.0
151.078613 132.0
151.232773 200.0
151.249908 216.0
151.279282 56.0
151.328232 156.0
151.369858 176.0
151.401703 156.0
151.676102 132.0
151.769257 108.0
151.977051 256.0
152.056274 40.0
152.10463 688.0
152.242844 144.0
152.306702 196.0
152.388611 140.0
152.44429 168.0
152.476837 184.0
152.572098 132.0
152.599136 140.0
152.655685 220.0
152.744232 156.0
152.773743 140.0
152.79834 68.0
153.056778 184.0
153.114929 1812.0
153.524963 144.0
153.677902 168.0
153.782181 124.0
153.830917 120.0
153.895096 148.0
154.03093 212.0
154.063034 168.0
154.120987 564.0
155.052765 224.0
155.174225 208.0
155.434662 224.0
155.772308 272.0
155.802109 184.0
155.834412 232.0
155.884109 164.0
155.917496 100.0
155.978546 120.0
156.008377 188.0
156.095398 320.0
156.150101 200.0
156.578171 180.0
156.61055 188.0
156.672821 176.0
156.740082 104.0
157.060074 184.0
157.09938 628.0
157.139023 112.0
157.203888 184.0
157.363647 120.0
157.505981 80.0
157.998444 100.0
158.076767 624.0
158.106033 160.0
158.13356 152.0
158.496674 204.0
158.875259 76.0
159.020782 156.0
159.078964 852.0
159.115707 1216.0
159.259308 164.0
159.356186 156.0
159.379898 56.0
159.440201 152.0
159.719269 228.0
159.736877 96.0
159.814865 84.0
159.925598 136.0
160.003632 132.0
160.052002 188.0
160.088715 284.0
160.114426 144.0
160.22525 196.0
160.278168 128.0
160.686615 124.0
161.060959 1364.0
161.092712 644.0
161.131058 276.0
161.398865 36.0
161.758102 148.0
162.024002 144.0
162.067368 2804.0
162.135498 160.0
162.193787 96.0
162.287582 100.0
162.394089 100.0
162.546295 140.0
162.655701 148.0
162.769669 96.0
162.80777 80.0
162.843323 88.0
162.929688 112.0
163.073395 1816.0
163.111954 152.0
163.415268 132.0
163.751282 180.0
164.08075 268.0
164.117996 184.0
164.347794 160.0
164.403931 160.0
164.503464 56.0
164.65155 68.0
164.679657 208.0
164.947937 124.0
165.065536 232.0
165.354614 248.0
165.936081 208.0
166.081253 360.0
166.313171 180.0
166.361938 124.0
166.749802 244.0
166.820328 108.0
166.898895 152.0
167.006897 172.0
167.081497 60.0
167.279648 84.0
167.341431 160.0
167.380066 148.0
167.431564 144.0
168.096649 144.0
168.716522 156.0
169.101746 332.0
169.309052 52.0
169.355667 208.0
169.972672 192.0
170.070755 208.0
170.112473 692.0
170.214066 148.0
170.250427 164.0
170.323135 204.0
170.523209 128.0
170.614182 160.0
170.926285 136.0
170.95491 40.0
171.038193 132.0
171.087646 132.0
171.117447 544.0
171.611313 120.0
171.720825 248.0
171.872131 136.0
171.921341 196.0
172.044388 148.0
172.086792 604.0
172.124268 108.0
172.514603 64.0
172.535522 160.0
172.653183 116.0
172.757812 176.0
172.778732 92.0
173.058929 516.0
173.095764 156.0
173.116379 204.0
173.187088 68.0
173.284012 164.0
173.388824 148.0
173.716568 308.0
173.926727 184.0
173.968491 180.0
174.065704 156.0
174.085281 116.0
174.1082 176.0
174.273132 80.0
174.425552 164.0
174.696411 132.0
174.780594 116.0
174.835861 80.0
175.076843 1380.0
175.110489 316.0
175.135986 80.0
175.254532 144.0
175.301971 84.0
175.415298 148.0
175.555038 96.0
175.829391 204.0
175.882172 216.0
175.946152 132.0
176.045959 188.0
176.078461 160.0
176.192657 156.0
176.250854 172.0
176.296829 228.0
176.3629 180.0
176.394608 172.0
176.571762 128.0
176.838974 72.0
176.899857 116.0
176.918381 180.0
176.961716 404.0
177.055145 6196.0
177.088348 84.0
177.124649 132.0
177.350159 84.0
177.442932 160.0
177.961655 164.0
178.0578 748.0
178.135208 204.0
178.583908 148.0
178.765686 196.0
178.901428 152.0
179.02478 180.0
179.061188 152.0
179.474228 76.0
179.540894 80.0
179.866379 176.0
179.988815 144.0
180.071976 200.0
180.102707 1328.0
180.31459 104.0
180.55571 180.0
180.790024 144.0
180.815216 172.0
181.103424 152.0
181.517075 204.0
181.822891 160.0
182.06987 132.0
182.464859 108.0
182.690765 124.0
182.911423 152.0
182.986786 164.0
183.16452 136.0
183.283066 188.0
183.306305 172.0
183.460938 56.0
183.611221 152.0
183.730621 148.0
183.843948 180.0
183.895218 148.0
184.088791 216.0
184.375946 208.0
184.502991 32.0
184.881653 196.0
184.922256 144.0
185.05275 228.0
185.095337 568.0
185.336258 172.0
185.577805 212.0
185.669998 160.0
185.765793 164.0
185.900589 112.0
185.933151 344.0
186.033585 64.0
186.103653 236.0
186.131317 164.0
186.20192 104.0
186.326874 148.0
186.424683 144.0
186.593201 116.0
186.639435 148.0
186.805328 168.0
186.903381 188.0
186.995789 100.0
187.074051 272.0
187.112274 3136.0
187.194519 48.0
187.262604 80.0
187.300735 220.0
187.360672 84.0
187.38118 188.0
187.417877 64.0
187.554138 44.0
187.66864 232.0
187.706802 72.0
188.084152 1372.0
188.116577 196.0
188.222519 136.0
188.402786 48.0
188.457428 48.0
188.533936 80.0
188.585861 148.0
188.77449 100.0
188.875687 40.0
189.005936 204.0
189.053909 1292.0
189.089828 692.0
189.126877 1432.0
189.291672 72.0
189.321793 64.0
189.442307 80.0
189.466965 120.0
189.628632 80.0
189.664261 64.0
189.70813 160.0
189.77446 184.0
189.817795 216.0
189.950394 92.0
190.001556 204.0
190.062958 4460.0
190.122528 492.0
190.193649 64.0
190.387329 124.0
190.560638 180.0
190.590576 156.0
190.701767 60.0
190.721008 120.0
190.781479 28.0
190.836472 252.0
191.02623 152.0
191.069244 1652.0
191.106445 788.0
191.144531 120.0
191.455582 164.0
191.527191 140.0
191.644638 144.0
191.670456 68.0
191.948853 176.0
191.973663 28.0
192.079468 136.0
192.107819 356.0
192.150192 60.0
192.205383 152.0
192.313004 120.0
192.854355 116.0
193.185104 52.0
193.249802 176.0
193.283005 144.0
193.335571 100.0
193.371552 224.0
193.432449 64.0
193.737061 180.0
193.803543 116.0
193.942108 140.0
194.00032 224.0
194.019714 112.0
194.227692 132.0
194.707855 128.0
194.816177 120.0
194.979248 44.0
195.063492 208.0
195.185822 236.0
195.355469 168.0
195.466766 184.0
195.62262 68.0
195.990234 160.0
196.012527 100.0
196.071045 144.0
196.207626 220.0
196.542313 64.0
196.690216 208.0
196.846558 232.0
196.899628 92.0
197.050461 124.0
197.111923 112.0
197.539688 116.0
197.696365 136.0
197.878296 128.0
197.940994 204.0
197.962296 220.0
198.107361 324.0
198.222809 92.0
198.3125 156.0
198.379761 60.0
198.587265 176.0
198.91835 120.0
198.94252 184.0
199.02504 200.0
199.112289 664.0
199.353683 80.0
199.761353 136.0
199.913284 100.0
200.113129 100.0
200.34407 180.0
200.673798 148.0
200.831726 100.0
200.899414 132.0
201.102585 224.0
201.125168 132.0
201.319962 128.0
201.356674 108.0
201.407516 104.0
201.610931 168.0
201.746613 188.0
201.769226 184.0
202.095978 804.0
202.289734 224.0
202.349197 96.0
203.071243 604.0
203.104858 388.0
203.318604 204.0
203.477554 128.0
203.576935 148.0
203.696213 44.0
203.835434 120.0
203.920685 148.0
204.010269 216.0
204.078934 276.0
204.116837 196.0
204.136749 100.0
204.278946 64.0
204.36145 100.0
204.503738 104.0
204.640381 192.0
204.694473 128.0
204.782761 160.0
204.916641 148.0
205.007828 104.0
205.064819 196.0
205.119202 376.0
205.156036 68.0
205.18454 192.0
205.270081 188.0
205.618103 108.0
205.638077 168.0
205.712296 132.0
205.900742 220.0
206.123032 244.0
206.212158 64.0
206.366516 128.0
206.397964 156.0
206.65538 104.0
206.938736 124.0
206.958771 220.0
207.030365 148.0
207.236603 116.0
207.328293 196.0
207.543289 224.0
208.281113 180.0
208.775162 104.0
209.082977 124.0
209.114639 56.0
209.843414 120.0
210.180878 60.0
210.371353 160.0
210.798813 140.0
210.89418 124.0
211.061859 112.0
211.2267 128.0
211.342422 120.0
211.568161 196.0
212.08667 180.0
212.237411 144.0
212.779968 112.0
212.916443 136.0
213.358093 184.0
213.550018 152.0
213.797302 132.0
213.913727 208.0
214.105408 120.0
214.382645 56.0
214.408859 128.0
214.607086 268.0
214.860825 188.0
214.898743 132.0
215.065079 152.0
215.103134 340.0
215.167252 160.0
215.693069 152.0
216.070297 132.0
216.115936 380.0
216.292709 120.0
216.392227 104.0
216.619431 220.0
216.784729 120.0
216.845352 152.0
216.998703 96.0
217.048264 660.0
217.122299 9140.0
217.294922 32.0
217.406418 48.0
217.450439 148.0
217.520889 32.0
217.623627 236.0
217.676483 120.0
217.746964 184.0
217.993729 100.0
218.020187 72.0
218.045242 144.0
218.090622 124.0
218.123138 1072.0
218.320038 56.0
218.434738 72.0
218.467102 180.0
218.635696 184.0
218.696609 72.0
218.728989 172.0
219.061737 168.0
219.102982 44.0
219.132248 164.0
219.24736 84.0
219.46843 132.0
219.527405 228.0
219.586395 52.0
219.701431 160.0
219.736832 64.0
219.775177 160.0
219.843048 100.0
219.905029 128.0
220.091003 84.0
220.294785 88.0
220.545944 88.0
220.930359 128.0
221.106201 196.0
221.297333 72.0
221.486786 164.0
221.892838 108.0
221.975861 208.0
222.411972 308.0
222.542587 184.0
222.596039 56.0
222.830688 176.0
223.130859 156.0
223.249786 128.0
223.324142 168.0
223.779434 164.0
224.232208 132.0
224.613846 144.0
225.375122 120.0
225.665039 80.0
225.748764 72.0
226.2155 124.0
226.808594 204.0
227.06044 152.0
227.105377 196.0
227.552551 124.0
227.931 84.0
228.048203 104.0
228.092697 164.0
228.481201 144.0
228.562439 192.0
228.833313 120.0
229.119431 44.0
229.176666 224.0
229.205917 204.0
229.36351 212.0
229.568527 156.0
229.728058 184.0
229.815872 72.0
229.84906 136.0
229.999954 196.0
230.057617 116.0
230.101181 60.0
230.129761 144.0
230.347198 184.0
230.761215 112.0
230.963821 164.0
231.067673 148.0
231.101074 784.0
231.22403 116.0
231.575226 96.0
231.76947 132.0
231.802429 28.0
231.947906 84.0
231.987061 148.0
232.10881 2320.0
232.149017 156.0
232.251114 44.0
232.278641 212.0
232.399765 96.0
232.454071 192.0
232.499908 116.0
232.527222 148.0
232.548462 112.0
232.633453 132.0
232.712387 212.0
232.74881 68.0
232.79332 136.0
232.922836 160.0
232.963242 172.0
232.981384 160.0
233.06076 160.0
233.117508 65700.0
233.213608 36.0
233.261414 160.0
233.329132 44.0
233.359406 100.0
233.399048 88.0
233.420334 56.0
233.45575 56.0
233.494019 176.0
233.515717 88.0
233.554047 156.0
233.582916 88.0
233.616745 192.0
233.657578 160.0
233.69931 156.0
233.728088 108.0
233.76712 36.0
233.794495 56.0
233.843201 52.0
233.901031 180.0
233.932404 208.0
233.982269 128.0
234.032364 156.0
234.054611 80.0
234.119919 10732.0
234.280212 84.0
234.33902 68.0
234.400482 32.0
234.429443 80.0
234.506592 44.0
234.54068 52.0
234.572861 100.0
234.652649 108.0
234.694077 100.0
234.755768 124.0
234.798172 88.0
234.900482 68.0
234.943192 64.0
234.963898 56.0
235.031662 104.0
235.11969 1000.0
235.239197 72.0
235.260559 116.0
235.315521 136.0
235.388794 68.0
235.509857 112.0
235.559494 208.0
235.588867 120.0
235.635712 124.0
235.682022 124.0
235.718689 92.0
235.748352 68.0
235.788986 128.0
235.813431 72.0
235.969955 176.0
236.120422 204.0
236.155869 60.0
236.241501 40.0
236.357773 40.0
236.44957 96.0
236.47406 64.0
236.495483 68.0
236.64241 64.0
237.028351 64.0
237.111084 112.0
237.18158 56.0
237.356323 88.0
237.402863 136.0
237.425873 112.0
237.478989 108.0
237.761246 92.0
238.630539 212.0
238.919632 92.0
239.652359 88.0
240.133255 140.0
240.426331 44.0
240.664017 120.0
240.790619 132.0
241.402512 124.0
241.50766 144.0
241.649963 52.0
242.021378 128.0
242.380676 72.0
242.430252 196.0
242.613113 56.0
242.85498 108.0
242.876694 164.0
243.105881 220.0
243.218002 44.0
243.407379 148.0
243.528503 92.0
243.644882 180.0
243.836075 120.0
244.000824 88.0
244.402039 84.0
244.464264 176.0
244.540024 128.0
244.6483 124.0
244.720795 120.0
244.744415 156.0
244.772446 132.0
244.838562 68.0
244.892807 184.0
244.921921 76.0
244.946838 128.0
244.98111 40.0
245.019684 168.0
245.04953 108.0
245.117188 33920.0
245.213547 60.0
245.258438 32.0
245.289612 80.0
245.355072 64.0
245.398956 104.0
245.439255 72.0
245.467896 64.0
245.520325 64.0
245.609375 136.0
245.640671 48.0
245.78566 68.0
245.844757 40.0
245.917206 56.0
245.982086 180.0
246.049622 76.0
246.078873 224.0
246.120026 5732.0
246.289047 52.0
246.472412 72.0
246.572403 68.0
246.616165 56.0
246.72995 80.0
246.94133 96.0
246.969467 76.0
246.994492 36.0
247.0289 36.0
247.082077 144.0
247.12114 1172.0
247.232269 36.0
247.326172 56.0
247.376251 80.0
247.470169 44.0
247.560974 32.0
247.773956 112.0
247.949432 236.0
247.983902 44.0
248.034058 32.0
248.065399 144.0
248.10318 672.0
248.128845 96.0
248.362961 116.0
248.444839 116.0
248.64566 32.0
248.758652 60.0
248.874817 124.0
248.921906 92.0
248.965866 76.0
249.126984 68.0
249.251724 48.0
249.874268 144.0
250.07251 152.0
251.04599 160.0
251.127991 144.0
251.803391 120.0
252.030838 64.0
252.08139 100.0
252.457565 132.0
254.098297 128.0
254.441055 92.0
254.53949 140.0
255.082748 188.0
255.442078 72.0
255.919449 80.0
257.116211 128.0
258.018768 52.0
258.383331 52.0
259.078033 144.0
260.264679 136.0
260.618011 132.0
261.370392 164.0
261.650391 84.0
263.128784 160.0
263.227051 100.0
263.860321 120.0
264.733948 188.0
265.080566 44.0
265.21991 136.0
266.053558 156.0
266.1185 68.0
266.618744 60.0
268.842957 100.0
269.551575 132.0
269.904602 160.0
271.089539 156.0
271.12561 152.0
271.148529 176.0
272.125244 80.0
272.240967 112.0
272.796173 180.0
272.888275 84.0
272.921173 96.0
272.990204 56.0
273.065857 224.0
273.111664 8352.0
273.190857 52.0
273.212982 44.0
273.258179 128.0
273.365234 92.0
273.437622 52.0
273.664764 48.0
274.115875 632.0
274.851318 80.0
275.125793 252.0
275.888367 92.0
276.000793 132.0
276.123444 168.0
276.169434 96.0
276.2323 96.0
276.87439 92.0
277.199036 64.0
277.613403 116.0
278.340088 148.0
281.21637 128.0
281.576965 60.0
281.607025 84.0
283.477112 56.0
284.244995 60.0
285.484528 60.0
286.541443 112.0
286.895294 68.0
287.04364 148.0
287.839966 76.0
288.039246 164.0
288.109772 164.0
288.268494 144.0
288.941803 124.0
288.995941 60.0
289.131317 148.0
289.557861 140.0
289.645935 112.0
289.720459 288.0
289.835663 64.0
289.883087 72.0
290.026733 176.0
290.072876 208.0
290.138306 21780.0
290.214417 72.0
290.26239 76.0
290.350922 36.0
290.468994 64.0
290.500153 132.0
290.525818 56.0
290.631927 56.0
290.693542 80.0
290.747833 52.0
290.951477 36.0
290.982056 44.0
291.026184 164.0
291.097473 180.0
291.140778 3532.0
291.199371 44.0
291.277496 52.0
291.321655 72.0
291.376007 160.0
291.511902 36.0
291.546326 32.0
291.637665 92.0
291.692047 64.0
291.79599 84.0
291.868835 44.0
291.974243 76.0
292.091187 72.0
292.14386 488.0
292.259979 88.0
292.438141 124.0
292.491394 128.0
292.539032 60.0
292.773987 32.0
292.882965 60.0
292.998779 72.0
293.053284 144.0
293.141876 80.0
293.189606 112.0
293.827209 120.0
293.898865 292.0
293.943207 140.0
294.144592 124.0
294.513336 108.0
294.550903 40.0
295.337067 84.0
298.148407 116.0
299.383423 92.0
299.528076 116.0
300.551971 124.0
302.138367 1852.0
302.279663 32.0
302.331573 108.0
303.017151 92.0
303.144226 480.0
304.045532 104.0
304.151123 80.0
304.82489 52.0
307.167938 96.0
312.028625 40.0
313.144073 68.0
313.182831 136.0
313.714905 152.0
313.940552 180.0
316.155518 156.0
316.208588 96.0
317.891937 40.0
318.335663 152.0
319.120911 84.0
320.733551 48.0
324.383087 108.0
325.41629 112.0
327.044708 108.0
327.206696 120.0
328.157837 168.0
329.197021 172.0
331.084717 48.0
331.744141 132.0
332.284485 44.0
335.211456 88.0
337.190063 148.0
337.386749 172.0
339.191437 56.0
340.347046 68.0
341.250916 100.0
342.619965 44.0
342.793152 180.0
342.855804 80.0
343.87738 96.0
350.191406 80.0
350.42981 104.0
351.574554 108.0
351.608154 184.0
353.37558 192.0
353.738586 104.0
354.959961 176.0
355.189453 192.0
355.973114 48.0
357.220886 124.0
357.288605 80.0
358.195831 152.0
360.519928 68.0
360.553955 72.0
365.377075 176.0
369.168396 80.0
370.312683 92.0
372.456726 224.0
373.140747 192.0
374.726379 80.0
376.454407 92.0
376.55481 104.0
376.964294 160.0
378.751678 88.0
380.236633 84.0
381.755615 72.0
382.012299 124.0
382.148468 48.0
382.179596 104.0
382.603821 140.0
382.685577 48.0
383.008789 96.0
383.324341 184.0
384.127014 160.0
384.215424 8440.0
384.396698 32.0
384.498138 36.0
384.619019 124.0
384.648865 72.0
385.070526 132.0
385.218048 2432.0
385.271271 184.0
385.302521 128.0
385.462708 68.0
385.6073 68.0
385.71283 32.0
386.22229 492.0
386.281311 136.0
386.348938 48.0
387.056824 52.0
387.387604 128.0
387.422882 76.0
387.469879 64.0
387.613281 60.0
387.681458 84.0
387.916626 52.0
388.606842 160.0
388.897247 60.0
388.932556 112.0
389.093506 64.0
389.148468 84.0
390.551361 72.0
391.133698 124.0
391.342346 48.0
391.377777 124.0
391.970032 100.0
399.463226 52.0
402.188721 96.0
403.371063 108.0
409.195953 76.0
410.574036 36.0
411.582855 88.0
412.206146 180.0
413.199524 132.0
413.693268 100.0
416.791779 92.0
417.942474 100.0
419.221069 84.0
425.130188 100.0
428.176453 108.0
429.283905 196.0
434.612701 72.0
446.838013 36.0
464.674072 64.0
465.339325 32.0
468.771729 72.0
470.073975 84.0
479.628296 104.0
481.814514 56.0
483.655487 124.0
485.517517 64.0
485.596466 164.0
489.917267 96.0
495.909027 96.0
501.491425 44.0
502.900818 96.0
513.931335 140.0
514.617371 52.0
516.610413 44.0
520.471802 40.0
520.653442 72.0
523.668701 44.0
531.008728 56.0
545.014771 100.0
546.39093 48.0
547.335754 36.0
558.652527 76.0
568.560669 92.0
568.593933 64.0
568.783752 80.0
573.888306 72.0
576.640259 40.0
584.839417 72.0
606.277588 68.0
614.020569 36.0
626.606201 88.0
636.328735 72.0
640.744446 52.0
651.967285 176.0
654.469971 140.0
666.125244 88.0
678.121765 32.0
681.74939 112.0
697.396912 56.0
699.321899 40.0
699.432434 84.0
705.741882 184.0
725.638855 72.0
733.023987 92.0
737.357361 68.0
742.261902 76.0
745.046204 144.0
755.327209 136.0
784.90802 52.0
789.86731 156.0
797.779541 44.0
799.714539 40.0
803.715637 192.0
817.450928 60.0
826.483643 132.0
851.647705 80.0
873.950134 92.0
875.468811 96.0
877.519348 52.0
900.890381 144.0
906.071106 72.0
909.711243 84.0
922.772095 152.0
937.942566 132.0
953.832886 80.0
958.898376 200.0
970.253357 136.0
978.224731 148.0
989.7547 92.0
1022.467468 68.0
1026.863403 156.0
1028.924438 200.0
1029.863159 96.0
1043.93042 152.0
1047.798706 200.0
1049.906494 64.0
1051.164917 232.0
1052.203613 168.0
1064.73291 188.0
1072.827148 60.0
1074.013916 172.0
1076.056396 200.0
1077.93103 96.0
1084.796509 68.0
1086.422852 196.0
1092.815186 56.0
1094.269653 172.0
1110.160889 156.0
1116.143799 236.0
1127.556274 212.0
1130.371704 204.0
1135.664062 60.0
1137.341553 64.0
1145.484375 196.0
1159.043457 224.0
1176.488647 64.0
1179.090942 56.0
1187.621704 84.0
1188.595825 132.0
1193.369507 228.0
1193.93335 132.0
1201.606689 176.0
1202.489868 72.0
1212.136963 240.0
1213.530151 196.0
1215.493042 208.0
1221.759888 136.0
1229.556885 132.0
1230.038452 184.0
1236.629639 156.0
1244.902222 96.0
1249.098022 184.0
1254.442627 84.0
1269.757568 196.0
1273.994995 108.0
1274.179688 204.0
1281.443604 192.0
1282.298706 152.0
1286.785522 112.0
1288.805908 168.0
1292.474731 120.0
1293.541138 160.0
1293.784546 52.0
1296.656738 204.0
1296.936279 140.0
1300.651733 220.0
1300.938843 204.0
1302.468384 156.0
1302.920898 132.0
1308.141724 200.0
1308.616943 64.0
1318.383545 188.0
1322.571045 180.0
1330.40686 188.0
1339.853638 164.0
1342.659912 216.0
1343.250732 160.0
1343.345459 224.0
1347.565186 140.0
1347.945068 196.0
1348.493164 140.0
1349.677368 184.0
1350.606201 216.0
1355.899658 168.0
1357.248413 212.0
1361.636719 200.0
1363.568848 92.0
1364.78186 260.0
1367.209229 56.0
1369.896729 124.0
1371.318726 164.0
1371.650391 168.0
1375.582031 148.0
1383.143921 192.0
1386.276611 60.0
1388.1521 216.0
1389.865601 156.0
1390.578003 124.0
1390.934204 220.0
1392.188965 132.0
1394.774414 176.0
1402.314209 196.0
1408.081299 60.0
1409.425903 84.0
1410.098511 112.0
1412.184448 140.0
1417.125 236.0
1417.702026 196.0
1418.196655 164.0
1423.260376 216.0
1424.657349 208.0
1425.889526 76.0
1428.393311 240.0
1429.130615 136.0
1430.560425 44.0
1436.69458 188.0
1437.479248 76.0
1442.645264 264.0
1443.015747 200.0
1445.072876 132.0
1446.980103 148.0
1447.761353 116.0
1450.38147 168.0
1452.982422 172.0
1455.198486 160.0
1456.778198 192.0
1457.02124 172.0
1457.180786 120.0
1459.050415 188.0
1459.286011 140.0
1460.358276 76.0
1463.272705 144.0
1466.929321 168.0
1475.746948 160.0
1476.618652 208.0
1478.53894 76.0
1478.90625 168.0
1479.105347 152.0
1481.187988 128.0
1482.344849 72.0
1490.647583 184.0
1492.976807 192.0
1493.853638 192.0
1497.117065 200.0
1497.348022 100.0
1498.40332 144.0
1498.518921 132.0
1501.94165 108.0
1502.211548 216.0
1502.882812 180.0
