>compound MLS000517276-01!
>formula C8H8O4
>ionization [M+H]+
>parentmass 169.05
#inchi InChI=1S/C8H8O4/c1-12-5-2-3-6(8(10)11)7(9)4-5/h2-4,9H,1H3,(H,10,11)
#inchikey MRIXVKKOHPQOFK
#Ion_Source LC-ESI
#Instrument qTof
#Compound_Source NIH Natural Product Library
#PI Dorrestein
#Data_Collector VVP/LMS
#Scan -1
#Precursor_MZ 169.05
#ExactMass 168.042
#Charge 1
#CAS_Number N/A
#Pubmed_ID N/A
#Smiles COc1ccc(C(=O)O)c(O)c1
#INCHI_AUX N/A
#Library_Class 3
#SpectrumID CCMSLIB00000079368
#IonMode Positive
#UpdateWorkflowName UPDATE-SINGLE-ANNOTATED-BRONZE
#LibraryQualityString Bronze
#TaskID b1d8e8f6646f4e71acdff9ca3d919d08
##Scan# 1736
#SpectrumFile p1-C05_GC5_01_17901.mzXML
#LibraryName NIH_Natural_Products_Library.mgf
#MQScore -1
#Organism NIH_Natural_Products_Library
#TIC_Query 0
#RT_Query -1
#MZErrorPPM -1
#SharedPeaks 0
#MassDiff 0
#LibMZ -1
#SpecMZ 169.05
#SpecCharge 0
#internalFilename spec-00000.mgf

>collision 10
95.049858 180.0
96.054504 216.0
108.019714 680.0
108.162224 40.0
109.025017 200.0
109.436874 48.0
110.03315 160.0
119.423874 144.0
123.041756 152.0
123.06163 184.0
124.057167 204.0
136.014587 108.0
141.675537 60.0
150.219894 28.0
151.038086 1752.0
151.461639 44.0
152.035339 132.0
152.054977 52.0
152.639633 112.0
153.139206 180.0
153.400391 112.0
159.753128 140.0
182.385345 88.0
220.901855 140.0
265.308411 40.0
384.251007 20.0
876.945923 140.0
927.498108 192.0
1021.046387 84.0
1085.101929 128.0
1148.352661 132.0
1356.459717 172.0
1374.935547 176.0
1419.249023 200.0
1451.946045 156.0
