>compound Loperamide hydrochloride
>formula C29H33ClN2O2
>ionization [M+H]+
>parentmass 477.228577
#inchi InChI=1S/C29H33ClN2O2/c1-31(2)27(33)29(24-9-5-3-6-10-24,25-11-7-4-8-12-25)19-22-32-20-17-28(34,18-21-32)23-13-15-26(30)16-14-23/h3-16,34H,17-22H2,1-2H3
#inchikey RDOIQAHITMMDAJ
#origInchi InChI=1S/C29H33ClN2O2.ClH/c1-31(2)27(33)29(24-9-5-3-6-10-24,25-11-7-4-8-12-25)19-22-32-20-17-28(34,18-21-32)23-13-15-26(30)16-14-23;/h3-16,34H,17-22H2,1-2H3;1H
#Ion_Source LC-ESI
#Instrument qTof
#Compound_Source Commercial
#PI Dorrestein
#Data_Collector Garg_Neha
#Scan -1
#Precursor_MZ 477.23
#ExactMass 476.223
#Charge 1
#CAS_Number 34552-83-5
#Pubmed_ID N/A
#Smiles C1(=C(C=CC(=C1)C2(CCN(CC2)CCC(C(=O)N(C)C)(C3=CC=CC=C3)C4=CC=CC=C4)O)Cl).Cl
#INCHI_AUX N/A
#Library_Class 1
#SpectrumID CCMSLIB00000078483
#IonMode Positive
#UpdateWorkflowName UPDATE-SINGLE-ANNOTATED-GOLD
#LibraryQualityString Gold
#TaskID 77f51c88eb8b467eb4a01dd2d0cb90d2
##Scan# 1355
#SpectrumFile Plate7_61_80_GD5_01_15771.mzXML
#LibraryName FDALibrary_2_04302014.mgf
#MQScore -1
#Organism FDALibrary_2_04302014
#TIC_Query 0
#RT_Query -1
#MZErrorPPM -1
#SharedPeaks 0
#MassDiff 0
#LibMZ -1
#SpecMZ 477.23
#SpecCharge 0
#internalFilename spec-00000.mgf

>collision 10
47.547935 144.0
49.009701 160.0
52.5681 144.0
53.565643 140.0
58.012836 180.0
61.764565 160.0
62.689342 148.0
64.482765 208.0
75.644562 144.0
84.879242 208.0
93.022224 168.0
93.416176 152.0
94.187248 188.0
95.377014 216.0
104.318626 260.0
107.474823 232.0
108.167183 152.0
123.299652 148.0
125.785156 148.0
127.694237 148.0
128.126434 148.0
129.354965 140.0
132.313538 144.0
138.882462 172.0
142.007767 144.0
147.041992 168.0
152.999802 144.0
154.176407 196.0
160.126984 172.0
161.715118 176.0
163.914459 172.0
167.087128 180.0
170.149582 140.0
172.703415 168.0
176.924423 160.0
178.747879 212.0
179.080658 152.0
183.063202 144.0
184.53923 160.0
189.112305 176.0
192.7453 144.0
193.102615 456.0
194.102692 164.0
195.077011 160.0
195.106796 140.0
198.115295 140.0
201.861633 180.0
202.45874 152.0
204.076218 140.0
207.009628 148.0
207.078369 164.0
207.319031 212.0
207.838058 148.0
210.126541 9064.0
211.127518 1804.0
211.505508 144.0
212.129684 140.0
212.401138 144.0
212.657608 156.0
217.720306 168.0
224.083038 196.0
224.60498 160.0
234.047653 144.0
236.104462 208.0
237.105591 148.0
238.078125 180.0
238.123276 2012.0
239.121597 584.0
240.451797 152.0
240.621582 212.0
244.259888 140.0
244.406113 212.0
245.298431 204.0
248.700165 152.0
249.718185 164.0
250.889603 152.0
252.221771 140.0
252.541122 200.0
262.957703 180.0
265.753693 160.0
265.947601 144.0
265.966156 176.0
266.152985 59160.0
266.258636 176.0
266.3573 224.0
266.404785 104.0
266.479584 128.0
266.723999 144.0
266.921265 160.0
266.993774 224.0
267.155518 9188.0
267.664978 144.0
267.829956 104.0
268.158295 536.0
268.801392 108.0
268.95459 144.0
268.99115 100.0
269.022827 104.0
269.167084 112.0
291.29425 140.0
301.785278 144.0
305.412811 204.0
334.022614 296.0
346.93866 156.0
352.869476 220.0
353.714966 176.0
358.771423 144.0
361.214752 176.0
365.132935 164.0
371.109314 172.0
386.534332 140.0
387.572021 140.0
388.17569 164.0
390.036682 168.0
400.037079 216.0
432.185303 176.0
433.181366 132.0
434.169189 176.0
434.47818 148.0
437.253937 156.0
438.324219 140.0
439.520966 140.0
445.697296 204.0
455.014984 160.0
469.784607 192.0
473.501984 144.0
475.192596 168.0
475.613525 160.0
475.952179 196.0
476.125885 148.0
476.182343 164.0
476.810822 160.0
476.899261 164.0
477.041962 164.0
477.147034 144.0
477.228577 28312.0
477.519684 184.0
477.936951 144.0
477.994354 192.0
478.159241 104.0
478.230743 12092.0
478.356445 112.0
479.07489 192.0
479.159027 188.0
479.227478 11572.0
479.472687 132.0
479.736938 112.0
479.940186 140.0
479.994629 200.0
480.079681 112.0
480.228973 2148.0
480.791351 204.0
481.072784 116.0
481.231445 424.0
482.066193 124.0
482.716614 108.0
483.066162 144.0
701.059998 140.0
840.850647 140.0
1184.465698 140.0
1987.254639 152.0
