>compound Octocrylene
>formula C24H27NO2
>ionization [M+H]+
>parentmass 362.212
#inchi InChI=1S/C24H27NO2/c1-3-5-12-19(4-2)18-27-24(26)22(17-25)23(20-13-8-6-9-14-20)21-15-10-7-11-16-21/h6-11,13-16,19H,3-5,12,18H2,1-2H3
#inchikey FMJSMJQBSVNSBF
#Ion_Source ESI
#Instrument Q-TOF
#Compound_Source Cosmetic _raw meterial
#PI Dorrestein
#Data_Collector Amina
#Scan -1
#Precursor_MZ 362.212
#ExactMass 361.204
#Charge 1
#CAS_Number N/A
#Pubmed_ID N/A
#Smiles CCCCC(CC)COC(=O)C(=C(C1=CC=CC=C1)C2=CC=CC=C2)C#N
#INCHI_AUX N/A
#Library_Class 2
#SpectrumID CCMSLIB00000077208
#IonMode Positive
#UpdateWorkflowName UPDATE-SINGLE-ANNOTATED-SILVER
#LibraryQualityString Silver
#TaskID 9bb88c04c6204bd4ae13def29ea30c87
##Scan# 2928
#SpectrumFile Octocrylene.mzXML
#LibraryName gnps_library.mgf
#MQScore -1
#Organism Standards_Silver
#TIC_Query 0
#RT_Query -1
#MZErrorPPM -1
#SharedPeaks 0
#MassDiff 0
#LibMZ -1
#SpecMZ 362.212
#SpecCharge 0
#internalFilename spec-00000.mgf

>collision 10
77.662811 188.0
82.842125 168.0
89.175743 176.0
104.04924 192.0
105.032814 340.0
106.699097 156.0
117.008514 216.0
118.848846 208.0
128.047119 176.0
129.032181 188.0
130.033386 192.0
132.311646 156.0
139.22699 112.0
146.761505 120.0
147.03746 152.0
150.473877 144.0
151.053513 240.0
151.669373 128.0
153.068863 164.0
153.778427 180.0
162.897995 220.0
163.912506 176.0
165.066772 196.0
176.060867 760.0
177.067627 1380.0
178.080856 584.0
179.062057 212.0
180.433899 112.0
182.098434 248.0
183.07254 208.0
183.115601 156.0
184.102051 120.0
188.048508 168.0
189.060379 136.0
190.062683 188.0
191.070404 164.0
193.066483 148.0
195.075104 80.0
199.051178 168.0
201.055252 1204.0
201.85321 84.0
202.065887 1352.0
202.818008 76.0
203.010681 152.0
203.073425 10368.0
203.1745 156.0
203.719803 176.0
203.783493 64.0
203.904388 88.0
204.023697 176.0
204.080994 13832.0
204.398895 184.0
204.549805 92.0
205.08255 1788.0
205.215851 100.0
205.372604 136.0
205.452423 172.0
205.8004 80.0
206.003036 96.0
206.095581 204.0
206.162949 88.0
206.365768 84.0
206.400055 140.0
206.537247 92.0
206.577271 96.0
207.078339 356.0
207.106644 144.0
207.822723 92.0
209.100693 176.0
209.500687 80.0
220.077576 264.0
221.080231 148.0
221.986145 172.0
229.788345 140.0
230.814651 136.0
231.0746 124.0
231.265121 92.0
231.646408 140.0
231.934097 168.0
232.077286 19212.0
232.184525 68.0
232.224991 76.0
232.340195 80.0
232.379608 88.0
232.412964 124.0
232.451294 92.0
232.57518 556.0
232.623474 116.0
232.664459 92.0
232.694244 164.0
232.783051 152.0
232.892319 60.0
233.080063 5124.0
233.159653 84.0
233.301743 112.0
233.624435 96.0
233.715652 88.0
234.086166 284.0
234.546539 132.0
234.653961 152.0
234.814835 76.0
234.991486 84.0
235.087524 212.0
240.138824 92.0
244.336639 108.0
245.619278 88.0
249.075974 104.0
249.435394 208.0
249.984009 116.0
250.086975 12020.0
250.204193 116.0
250.330063 92.0
250.37413 84.0
250.433929 108.0
250.616013 148.0
251.09079 1632.0
251.498978 88.0
251.532532 88.0
251.726151 88.0
252.098877 360.0
252.784454 108.0
253.009033 100.0
253.053329 88.0
253.671951 80.0
259.783264 132.0
260.450531 100.0
263.260406 108.0
318.965515 120.0
338.462311 108.0
340.690826 84.0
361.227814 192.0
372.239563 84.0
390.856354 128.0
397.129852 76.0
435.48761 112.0
443.422424 120.0
449.212891 120.0
480.580078 88.0
497.327972 88.0
565.044128 96.0
569.070129 88.0
580.423828 148.0
607.407471 120.0
791.803223 128.0
845.456421 144.0
925.457214 84.0
979.782654 192.0
1153.689575 228.0
1245.525391 180.0
1332.71106 80.0
1352.147217 204.0
1358.576538 224.0
1407.7677 112.0
1409.260742 200.0
1589.822266 168.0
1634.416504 160.0
1635.510376 156.0
1690.22522 180.0
1717.450317 92.0
1860.689209 180.0
1865.196289 204.0
1877.423096 216.0
1921.581787 112.0
1926.904175 180.0
1938.665527 92.0
1988.817871 204.0
1992.962524 200.0
