>compound MLS001049120-01!6,7-dimethoxy-3H-2-benzofuran-1-one
>formula C10H10O4
>ionization [M+H]+
>parentmass 195.066
#inchi InChI=1S/C10H10O4/c1-12-7-4-3-6-5-14-10(11)8(6)9(7)13-2/h3-4H,5H2,1-2H3
#inchikey ORFFGRQMMWVHIB
#Ion_Source LC-ESI
#Instrument qTof
#Compound_Source NIH Natural Product Library
#PI Dorrestein
#Data_Collector VVP/LMS
#Scan -1
#Precursor_MZ 195.066
#ExactMass 194.058
#Charge 1
#CAS_Number N/A
#Pubmed_ID N/A
#Smiles COc1ccc2COC(=O)c2c1OC
#INCHI_AUX N/A
#Library_Class 3
#SpectrumID CCMSLIB00000079831
#IonMode Positive
#UpdateWorkflowName UPDATE-SINGLE-ANNOTATED-BRONZE
#LibraryQualityString Bronze
#TaskID b1d8e8f6646f4e71acdff9ca3d919d08
##Scan# 1584
#SpectrumFile p1-F11_GF11_01_17943.mzXML
#LibraryName NIH_Natural_Products_Library.mgf
#MQScore -1
#Organism NIH_Natural_Products_Library
#TIC_Query 0
#RT_Query -1
#MZErrorPPM -1
#SharedPeaks 0
#MassDiff 0
#LibMZ -1
#SpecMZ 195.066
#SpecCharge 0
#internalFilename spec-00000.mgf

>collision 10
95.046562 160.0
95.328125 164.0
95.489479 180.0
96.056793 208.0
96.79113 200.0
98.678062 152.0
99.832092 164.0
100.152512 160.0
100.790909 224.0
100.846863 276.0
101.561668 112.0
102.409866 224.0
102.518661 228.0
103.049347 132.0
103.168587 160.0
103.188805 132.0
104.023621 492.0
104.987877 164.0
105.032646 1452.0
105.285828 164.0
105.486061 184.0
106.040939 888.0
106.157616 244.0
106.262222 200.0
107.047523 348.0
108.019585 696.0
108.050743 120.0
108.195404 88.0
108.417038 196.0
108.537262 164.0
109.029724 224.0
109.055695 160.0
109.191406 64.0
109.564003 52.0
111.674026 180.0
111.690857 244.0
112.004486 136.0
112.295357 156.0
112.607719 104.0
113.049568 240.0
113.146935 144.0
114.020859 200.0
114.065491 120.0
114.239861 140.0
114.269646 120.0
117.190079 132.0
117.828705 228.0
119.026459 172.0
119.050346 180.0
119.69619 140.0
120.023972 216.0
120.054665 188.0
120.221542 144.0
121.030006 428.0
121.063187 100.0
122.03965 352.0
122.184814 64.0
124.048683 124.0
124.148453 152.0
126.036125 124.0
126.826111 160.0
127.519653 84.0
129.000565 252.0
129.247086 156.0
129.437225 204.0
130.083374 180.0
131.229965 168.0
131.855438 48.0
132.02034 636.0
132.042908 204.0
132.979965 132.0
133.026443 1080.0
133.453186 64.0
134.036285 896.0
134.063187 208.0
134.084366 124.0
134.275284 36.0
134.653778 188.0
134.914886 216.0
135.000427 220.0
135.044144 840.0
135.070724 164.0
135.943268 56.0
136.015945 640.0
136.045303 196.0
136.075577 60.0
137.022736 540.0
137.052444 152.0
137.196945 124.0
139.074249 216.0
143.871323 152.0
144.145996 88.0
144.882919 212.0
145.83316 76.0
147.373047 224.0
149.024719 396.0
149.059509 516.0
149.450989 80.0
150.030136 484.0
150.113525 32.0
150.347717 184.0
150.784866 216.0
151.036911 2936.0
151.210419 64.0
151.315689 80.0
151.592468 84.0
151.99707 184.0
152.040619 308.0
152.569336 68.0
152.74147 40.0
153.04303 164.0
153.132828 88.0
153.416199 56.0
154.030655 168.0
155.035156 164.0
158.95282 108.0
160.010086 348.0
160.906006 224.0
161.018387 152.0
161.568146 132.0
161.633926 128.0
161.785782 152.0
161.88707 56.0
161.950378 172.0
161.968109 188.0
162.031174 3920.0
162.168274 88.0
162.196167 168.0
162.325455 168.0
162.490326 64.0
162.601974 44.0
162.711121 132.0
162.858414 120.0
163.03688 1108.0
163.308289 44.0
164.01358 116.0
165.017654 568.0
165.058975 360.0
165.078217 200.0
165.669449 52.0
166.020599 76.0
166.06163 160.0
167.0737 200.0
172.417892 116.0
173.24472 160.0
174.964859 180.0
175.03595 144.0
175.855835 108.0
176.177979 60.0
177.019058 144.0
177.050842 152.0
177.517242 204.0
179.002686 160.0
179.033188 2356.0
179.266403 40.0
179.583664 64.0
179.701035 148.0
180.040787 3532.0
180.074753 84.0
180.125504 96.0
180.339264 44.0
180.440842 52.0
180.727036 48.0
181.041168 280.0
189.32753 20.0
191.282425 100.0
192.968002 156.0
194.028732 152.0
195.061295 452.0
195.417023 88.0
195.478241 60.0
196.065842 152.0
232.822678 60.0
236.900711 52.0
241.911057 44.0
264.385864 92.0
504.975769 20.0
694.063416 92.0
780.694092 244.0
804.281738 80.0
826.096741 108.0
885.103027 124.0
889.252747 52.0
894.078613 148.0
900.828064 48.0
955.140747 160.0
1004.371277 160.0
1078.251221 156.0
1094.11853 212.0
1094.236938 204.0
1098.395264 148.0
1116.802734 200.0
1150.138062 164.0
1161.152954 184.0
1166.163574 208.0
1166.584961 160.0
1186.539307 196.0
1186.6427 156.0
1202.692017 172.0
1209.188843 192.0
1214.489136 188.0
1224.253906 152.0
1225.25 152.0
1225.828247 128.0
1234.973877 160.0
1242.609497 192.0
1245.319092 188.0
1255.086914 112.0
1256.617432 160.0
1284.519409 192.0
1293.880981 88.0
1301.926025 208.0
1302.270752 120.0
1305.79248 148.0
1308.462158 168.0
1315.043457 180.0
1324.877563 164.0
1331.173218 128.0
1336.435913 148.0
1345.655884 204.0
1352.534912 180.0
1359.372803 200.0
1371.227661 96.0
1382.971069 172.0
1384.688843 180.0
1385.799927 144.0
1394.236938 152.0
1412.878052 172.0
1430.528564 252.0
1436.745605 132.0
1449.318848 188.0
1452.715332 220.0
1453.974976 180.0
1454.088745 208.0
1460.257935 124.0
1482.619629 212.0
1488.810669 176.0
1492.191528 152.0
1495.22229 132.0
