>compound MLS000053094-01!THIABENDAZOLE148-79-8
>formula C10H7N3S
>ionization [M+H]+
>parentmass 202.044281
#inchi InChI=1S/C10H7N3S/c1-2-4-8-7(3-1)12-10(13-8)9-5-14-6-11-9/h1-6H,(H,12,13)
#inchikey WJCNZQLZVWNLKY
#Ion_Source LC-ESI
#Instrument qTof
#Compound_Source NIH Pharmacologically Active Library
#PI Dorrestein
#Data_Collector VP/LMS
#Scan -1
#Precursor_MZ 202.043
#ExactMass 201.036
#Charge 1
#CAS_Number N/A
#Pubmed_ID N/A
#Smiles c1nc(cs1)c2nc3ccccc3[nH]2
#INCHI_AUX N/A
#Library_Class 1
#SpectrumID CCMSLIB00000085978
#IonMode Positive
#UpdateWorkflowName UPDATE-SINGLE-ANNOTATED-GOLD
#LibraryQualityString Gold
#TaskID d252d724072548979f1f6f1ced849daf
##Scan# 1189
#SpectrumFile p4-H11_GH11_01_18419.mzXML
#LibraryName Pharm_Active_Library.mgf
#MQScore -1
#Organism Pharm_Active_Library
#TIC_Query 0
#RT_Query -1
#MZErrorPPM -1
#SharedPeaks 0
#MassDiff 0
#LibMZ -1
#SpecMZ 202.043
#SpecCharge 0
#internalFilename spec-00000.mgf

>collision 10
44.889313 140.0
44.915985 132.0
45.016087 152.0
45.139313 188.0
45.252762 188.0
45.283562 140.0
45.309013 180.0
45.393456 176.0
45.463215 136.0
45.475296 196.0
45.504829 152.0
45.608269 96.0
45.692337 144.0
45.718555 172.0
45.768364 56.0
45.796646 132.0
45.869408 196.0
45.880196 192.0
45.935486 132.0
46.009048 172.0
46.021858 184.0
46.061024 240.0
46.112946 188.0
46.131294 220.0
46.155632 132.0
46.17186 120.0
46.223267 92.0
46.243565 140.0
46.273346 152.0
46.354733 144.0
46.427822 160.0
46.493011 176.0
46.551319 224.0
46.570332 120.0
46.586632 208.0
46.600445 168.0
46.681335 136.0
46.704895 124.0
46.71714 188.0
46.743141 144.0
46.775654 168.0
46.812416 140.0
46.824673 56.0
46.838295 220.0
46.888706 180.0
46.929604 136.0
46.950058 116.0
46.974609 124.0
47.003262 204.0
47.029217 212.0
47.040112 192.0
47.060589 156.0
47.079708 128.0
47.108391 124.0
47.125748 136.0
47.137081 212.0
47.149384 44.0
47.191689 152.0
47.246468 144.0
47.2971 100.0
47.402557 240.0
47.413521 104.0
47.495758 184.0
47.563023 152.0
47.622066 188.0
47.664654 180.0
47.73476 104.0
47.758141 164.0
47.787998 176.0
47.842083 140.0
47.85585 36.0
47.908184 120.0
47.947021 152.0
48.004669 72.0
48.050186 36.0
48.123337 140.0
48.196545 48.0
48.243534 108.0
48.2864 232.0
48.305763 172.0
48.374958 208.0
48.399876 72.0
48.424805 104.0
48.550926 164.0
48.603207 192.0
48.650829 120.0
48.791183 144.0
48.812004 164.0
48.823128 116.0
48.88562 152.0
48.966476 164.0
49.062626 216.0
49.129566 140.0
49.168636 132.0
49.264984 148.0
49.306904 156.0
49.33905 64.0
49.355831 320.0
49.551987 140.0
49.5686 128.0
49.578407 124.0
49.589581 140.0
49.640091 84.0
49.672352 104.0
49.741108 148.0
49.808044 192.0
49.836609 208.0
49.913918 128.0
49.930794 176.0
49.988476 136.0
50.002548 160.0
50.168762 216.0
50.180038 204.0
50.250561 240.0
50.281605 200.0
50.294308 208.0
50.331017 124.0
50.390339 208.0
50.407295 116.0
50.483231 184.0
50.545872 168.0
50.637894 116.0
50.647808 80.0
50.687477 44.0
50.730782 184.0
50.761189 140.0
50.829281 176.0
50.931438 188.0
51.029556 68.0
51.040932 84.0
51.174683 172.0
51.214558 92.0
51.23735 144.0
51.285801 116.0
51.322868 148.0
51.398468 212.0
51.409885 52.0
51.448421 204.0
51.482693 160.0
51.494118 144.0
51.506973 140.0
51.536976 180.0
51.549835 220.0
51.58707 152.0
51.602722 120.0
51.62989 216.0
51.68568 360.0
51.711441 208.0
51.742935 240.0
51.794487 60.0
51.810711 200.0
51.846069 112.0
51.860401 168.0
51.871277 184.0
51.950741 164.0
51.996841 156.0
52.039722 216.0
52.067005 140.0
52.1101 100.0
52.121368 176.0
52.148899 240.0
52.162212 168.0
52.176838 176.0
52.239491 176.0
52.416584 128.0
52.478565 192.0
52.552124 136.0
52.625736 184.0
52.641621 172.0
52.660393 172.0
52.682568 160.0
52.72541 100.0
52.806374 116.0
52.927937 100.0
52.97718 176.0
53.010506 152.0
53.039494 116.0
53.049641 240.0
53.094589 176.0
53.170029 168.0
53.210754 148.0
53.231003 216.0
53.293465 88.0
53.342876 188.0
53.376316 160.0
53.419949 152.0
53.438862 136.0
53.500301 168.0
53.524742 188.0
53.548042 232.0
53.572048 152.0
53.81686 272.0
53.873325 216.0
53.914318 148.0
53.975636 216.0
53.990261 148.0
54.035606 148.0
54.048775 112.0
54.067799 132.0
54.140999 228.0
54.166176 212.0
54.189339 208.0
54.294277 184.0
54.315414 152.0
54.368237 172.0
54.429893 132.0
54.462692 204.0
54.493053 36.0
54.521862 152.0
54.60183 248.0
54.613598 152.0
54.672447 192.0
54.776253 72.0
54.803505 140.0
54.822662 172.0
54.835781 160.0
54.911121 156.0
54.976036 152.0
55.024746 96.0
55.040989 172.0
55.099808 160.0
55.168049 220.0
55.184315 172.0
55.203983 148.0
55.219803 128.0
55.24791 124.0
55.384098 224.0
55.458183 140.0
55.484867 180.0
55.498211 152.0
55.591663 120.0
55.60799 116.0
55.618378 136.0
55.6451 204.0
55.658463 196.0
55.729759 256.0
55.749584 188.0
55.801105 96.0
55.847202 132.0
55.859104 140.0
55.871006 164.0
55.983959 176.0
56.027325 152.0
56.07674 148.0
56.092762 180.0
56.268261 196.0
56.318214 128.0
56.349583 140.0
56.447594 128.0
56.502083 136.0
56.540989 172.0
56.605362 188.0
56.655586 180.0
56.677261 40.0
56.692711 168.0
56.728218 60.0
56.827202 140.0
56.848209 84.0
56.936787 168.0
56.953308 120.0
56.983353 156.0
57.016411 28.0
57.044262 176.0
57.127678 152.0
57.183353 112.0
57.199909 184.0
57.237549 124.0
57.300812 156.0
57.335468 140.0
57.365616 128.0
57.416126 156.0
57.493824 68.0
57.504387 188.0
57.524193 232.0
57.575348 220.0
57.64484 256.0
57.656929 164.0
57.673553 160.0
57.731922 160.0
57.758232 152.0
57.802105 60.0
57.817238 156.0
57.883663 228.0
57.912624 132.0
57.92474 48.0
57.99733 124.0
58.015667 124.0
58.055088 232.0
58.118801 160.0
58.165848 244.0
58.182545 240.0
58.281269 164.0
58.361832 80.0
58.415062 132.0
58.431793 200.0
58.530731 48.0
58.57629 204.0
58.5947 156.0
58.683102 196.0
58.721226 200.0
58.738823 156.0
58.779198 240.0
58.824291 252.0
58.837406 176.0
58.873844 212.0
58.908863 164.0
58.970093 164.0
58.985378 200.0
59.009842 148.0
59.063366 188.0
59.087841 176.0
59.13681 168.0
59.193455 120.0
59.254723 140.0
59.27158 48.0
59.303761 172.0
59.346619 280.0
59.386559 180.0
59.440575 400.0
59.49551 124.0
59.542625 152.0
59.638371 140.0
59.730629 168.0
59.753704 164.0
59.801155 120.0
59.846054 152.0
59.879932 228.0
59.899956 164.0
59.977001 140.0
59.987793 200.0
60.014004 148.0
60.081863 136.0
60.171379 240.0
60.189907 156.0
60.206894 208.0
60.223885 184.0
60.247055 176.0
60.260185 136.0
60.271774 132.0
60.30233 176.0
60.403187 108.0
60.454247 156.0
60.472816 212.0
60.549339 208.0
60.623047 176.0
60.655594 176.0
60.706757 144.0
60.784321 136.0
60.804497 132.0
60.866592 172.0
60.879017 108.0
60.941151 192.0
60.952026 144.0
61.045296 140.0
61.090401 164.0
61.180416 152.0
61.260197 172.0
61.302155 180.0
61.325272 48.0
61.334366 120.0
61.440926 132.0
61.534569 196.0
61.5658 124.0
61.59235 144.0
61.653286 152.0
61.665787 164.0
61.737705 192.0
61.81749 196.0
61.866009 208.0
61.970943 172.0
62.039902 188.0
62.085938 156.0
62.102627 264.0
62.137138 116.0
62.152828 220.0
62.228168 120.0
62.305126 120.0
62.342838 168.0
62.367985 88.0
62.382133 168.0
62.45866 192.0
62.481209 48.0
62.570919 208.0
62.583515 192.0
62.629185 140.0
62.731609 164.0
62.760838 208.0
62.782066 160.0
62.797836 204.0
62.84473 364.0
62.864098 152.0
62.922501 168.0
62.954082 168.0
62.969875 116.0
62.98251 144.0
63.044128 160.0
63.067837 180.0
63.165874 180.0
63.233913 84.0
63.390697 192.0
63.455685 124.0
63.493744 116.0
63.573067 140.0
63.61454 92.0
63.760338 200.0
63.773178 200.0
63.903938 268.0
63.929039 132.0
63.956097 156.0
63.992714 124.0
64.008049 232.0
64.042046 180.0
64.06916 172.0
64.09465 152.0
64.116302 164.0
64.15522 340.0
64.20784 212.0
64.238144 212.0
64.254097 88.0
64.273247 92.0
64.364784 172.0
64.408943 176.0
64.464867 220.0
64.484047 172.0
64.504822 164.0
64.522408 64.0
64.640167 148.0
64.659973 140.0
64.690384 204.0
64.725273 188.0
64.75325 216.0
64.774529 264.0
64.796089 136.0
64.823326 288.0
64.850311 196.0
64.870819 248.0
64.908287 152.0
65.057503 152.0
65.094727 196.0
65.107277 164.0
65.173134 176.0
65.195633 160.0
65.21653 132.0
65.24868 156.0
65.332306 104.0
65.361877 148.0
65.417603 180.0
65.48362 156.0
65.506172 180.0
65.541611 128.0
65.727051 180.0
65.74157 136.0
65.756096 96.0
65.806137 136.0
65.835205 112.0
65.85054 172.0
65.875587 124.0
65.962845 92.0
66.038849 64.0
66.051491 176.0
66.198608 224.0
66.217369 188.0
66.28006 236.0
66.471405 120.0
66.529198 204.0
66.601288 192.0
66.757317 136.0
66.946091 228.0
67.003098 224.0
67.05687 192.0
67.069908 76.0
67.142296 232.0
67.182426 188.0
67.231377 136.0
67.290146 156.0
67.414284 168.0
67.451874 180.0
67.49929 208.0
67.513611 224.0
67.528725 172.0
67.58271 160.0
67.666183 124.0
67.730057 168.0
67.769371 112.0
67.901833 184.0
67.962852 188.0
68.033424 184.0
68.079399 156.0
68.167824 160.0
68.210403 208.0
68.271675 144.0
68.306221 44.0
68.325958 152.0
68.344055 124.0
68.403305 228.0
68.444466 208.0
68.505402 56.0
68.637131 104.0
68.651154 168.0
68.685997 144.0
68.764282 92.0
68.792343 92.0
68.813805 172.0
68.846832 140.0
68.87326 144.0
68.934387 136.0
68.967445 300.0
68.988625 152.0
69.031921 128.0
69.046806 184.0
69.093124 156.0
69.140244 144.0
69.199043 220.0
69.235474 148.0
69.261978 116.0
69.302582 196.0
69.339851 92.0
69.392899 156.0
69.434349 140.0
69.461349 232.0
69.495728 144.0
69.553818 196.0
69.575333 212.0
69.606941 136.0
69.701622 140.0
69.758133 64.0
69.798035 188.0
69.859573 152.0
69.897842 216.0
69.939453 152.0
69.962753 112.0
70.037689 172.0
70.109337 180.0
70.169342 92.0
70.232712 100.0
70.322815 124.0
70.365913 156.0
70.419609 152.0
70.456398 180.0
70.488152 80.0
70.600151 188.0
70.638618 104.0
70.668732 192.0
70.695511 176.0
70.759117 208.0
70.823311 204.0
70.871338 208.0
70.919937 176.0
70.945076 324.0
70.998734 188.0
71.033958 84.0
71.136322 176.0
71.294205 132.0
71.339592 204.0
71.416939 124.0
71.472855 188.0
71.495117 112.0
71.506119 192.0
71.548195 168.0
71.573944 124.0
71.587227 148.0
71.638878 204.0
71.746994 160.0
71.770599 32.0
71.826256 176.0
71.863365 180.0
71.890366 184.0
71.912308 132.0
71.988281 164.0
72.04657 204.0
72.133583 148.0
72.27565 160.0
72.38398 200.0
72.544945 152.0
72.556808 120.0
72.600899 160.0
72.621246 144.0
72.641602 52.0
72.653481 140.0
72.668747 164.0
72.719658 220.0
72.740028 52.0
72.763794 200.0
72.826622 140.0
72.913277 144.0
72.92466 196.0
72.938766 208.0
72.969368 236.0
73.142891 156.0
73.183754 120.0
73.217812 228.0
73.280838 220.0
73.29406 168.0
73.364349 104.0
73.571243 248.0
73.591263 80.0
73.627121 88.0
73.67495 192.0
73.724495 248.0
73.741592 180.0
73.81852 112.0
73.840866 188.0
73.893784 160.0
73.9319 144.0
73.97422 128.0
73.99305 144.0
74.071823 160.0
74.09581 144.0
74.157501 56.0
74.219215 208.0
74.251411 164.0
74.356453 116.0
74.371902 160.0
74.474922 108.0
74.511353 156.0
74.578018 168.0
74.605324 176.0
74.610283 188.0
74.679466 232.0
74.698387 160.0
74.760323 252.0
74.812614 232.0
74.836067 252.0
74.849838 144.0
74.875671 136.0
74.92218 96.0
74.94458 152.0
74.972153 220.0
74.994179 128.0
75.070412 116.0
75.092834 208.0
75.110085 180.0
75.229561 220.0
75.396698 164.0
75.531563 164.0
75.545403 52.0
75.560966 80.0
75.614616 176.0
75.642143 168.0
75.76873 200.0
75.824173 116.0
75.900452 68.0
75.964622 168.0
75.989532 180.0
76.131248 108.0
76.165985 108.0
76.23027 112.0
76.252861 104.0
76.285889 184.0
76.336311 176.0
76.364136 36.0
76.386749 112.0
76.419807 148.0
76.438423 160.0
76.462944 132.0
76.522491 184.0
76.592949 140.0
76.656616 164.0
76.687988 156.0
76.749008 216.0
76.797646 188.0
76.811165 152.0
76.839699 276.0
76.876343 136.0
76.902527 88.0
76.972908 200.0
76.99855 216.0
77.028244 104.0
77.109077 168.0
77.164337 188.0
77.192535 88.0
77.238731 232.0
77.276497 244.0
77.580658 196.0
77.597015 224.0
77.737335 216.0
77.999031 56.0
78.013092 160.0
78.025398 96.0
78.095741 160.0
78.115944 184.0
78.211868 180.0
78.296387 200.0
78.456039 224.0
78.516411 128.0
78.617241 224.0
78.661369 368.0
78.679024 272.0
78.719635 64.0
78.742592 144.0
78.754951 180.0
78.769089 144.0
78.793816 148.0
78.894554 92.0
78.956444 152.0
78.982971 152.0
79.028969 204.0
79.057579 332.0
79.070755 144.0
79.119232 84.0
79.159958 108.0
79.186523 200.0
79.290276 164.0
79.400978 168.0
79.427582 164.0
79.558899 124.0
79.592636 116.0
79.637032 256.0
79.654793 120.0
79.669533 228.0
79.693878 208.0
79.708092 204.0
79.738304 224.0
79.770302 156.0
79.818306 148.0
79.83609 176.0
79.93927 224.0
80.054977 160.0
80.117317 176.0
80.136322 132.0
80.170776 100.0
80.275955 124.0
80.301704 192.0
80.513306 184.0
80.593689 144.0
80.629875 160.0
80.658028 128.0
80.702721 220.0
80.736702 212.0
80.811829 60.0
80.963982 148.0
81.001511 256.0
81.039917 144.0
81.058929 116.0
81.095543 160.0
81.178955 184.0
81.218491 144.0
81.254372 172.0
81.27903 248.0
81.318321 156.0
81.384171 176.0
81.401558 148.0
81.604599 148.0
81.618988 156.0
81.662148 160.0
81.71611 124.0
81.741302 320.0
81.818703 56.0
81.926758 192.0
81.961746 176.0
82.076347 196.0
82.088974 96.0
82.121437 176.0
82.208038 84.0
82.226082 128.0
82.325378 68.0
82.460876 124.0
82.544037 144.0
82.616997 200.0
82.668854 152.0
82.750313 160.0
82.83905 224.0
82.871567 224.0
82.898842 176.0
82.950645 192.0
83.018486 168.0
83.036629 40.0
83.052948 184.0
83.103745 148.0
83.122002 176.0
83.172707 156.0
83.285286 208.0
83.322395 196.0
83.346176 216.0
83.394302 144.0
83.410667 208.0
83.425209 160.0
83.477936 56.0
83.510674 192.0
83.523407 164.0
83.539772 216.0
83.623482 152.0
83.70784 188.0
83.761864 284.0
83.796227 212.0
83.852966 80.0
83.909477 52.0
83.924065 56.0
84.119934 240.0
84.14666 164.0
84.172218 120.0
84.20327 124.0
84.228836 196.0
84.247108 180.0
84.351448 180.0
84.412407 264.0
84.475616 88.0
84.488426 136.0
84.574432 68.0
84.60984 232.0
84.630173 104.0
84.656815 116.0
84.702682 196.0
84.73558 116.0
84.753906 68.0
84.787712 208.0
84.814384 148.0
84.831711 168.0
84.858383 208.0
84.884781 20.0
84.897827 156.0
84.91375 164.0
84.952362 164.0
84.966591 220.0
84.988609 112.0
85.028976 52.0
85.060181 132.0
85.106079 256.0
85.13913 84.0
85.278763 180.0
85.298981 140.0
85.396439 188.0
85.42955 148.0
85.516457 148.0
85.56205 100.0
85.694664 224.0
85.727829 176.0
85.75547 184.0
85.796028 144.0
85.936195 156.0
85.967567 160.0
86.069786 160.0
86.154053 56.0
86.233513 204.0
86.28157 152.0
86.305611 148.0
86.470253 152.0
86.529488 72.0
86.562813 136.0
86.575783 204.0
86.717491 188.0
86.755508 164.0
86.838104 140.0
86.92244 160.0
86.972549 168.0
87.00782 156.0
87.039139 92.0
87.124817 164.0
87.139679 132.0
87.182419 184.0
87.212158 188.0
87.264206 168.0
87.298676 188.0
87.351616 400.0
87.49305 104.0
87.578712 116.0
87.606651 80.0
87.655098 192.0
87.703598 156.0
87.802368 244.0
87.927368 80.0
87.94529 168.0
87.95723 220.0
88.084213 160.0
88.101212 196.0
88.134651 180.0
88.177635 212.0
88.244156 164.0
88.312256 112.0
88.385216 228.0
88.435196 164.0
88.484413 160.0
88.519989 144.0
88.533096 144.0
88.611771 172.0
88.656746 36.0
88.74485 52.0
88.801102 140.0
88.904289 136.0
88.940643 164.0
88.968109 184.0
88.994392 136.0
89.041344 200.0
89.054489 144.0
89.140907 92.0
89.159706 72.0
89.199173 152.0
89.231133 208.0
89.280022 224.0
89.326942 152.0
89.353386 80.0
89.411713 196.0
89.466301 168.0
89.500191 160.0
89.752686 152.0
89.903595 184.0
89.946877 168.0
90.035751 176.0
90.105637 144.0
90.143433 128.0
90.166107 160.0
90.194458 168.0
90.256851 188.0
90.482002 72.0
90.555855 156.0
90.589951 136.0
90.612686 112.0
90.828804 84.0
90.843979 40.0
90.933159 112.0
90.961632 184.0
91.028084 124.0
91.195267 248.0
91.208572 104.0
91.229485 136.0
91.256096 168.0
91.311249 144.0
91.345482 176.0
91.401909 364.0
91.436813 116.0
91.455849 100.0
91.530388 208.0
91.586113 164.0
91.63295 112.0
91.665344 148.0
91.812134 144.0
91.825485 160.0
91.848373 152.0
91.892723 144.0
92.049973 2832.0
92.096512 84.0
92.14045 48.0
92.157204 172.0
92.17675 84.0
92.302917 168.0
92.325592 256.0
92.394722 196.0
92.423424 172.0
92.458458 196.0
92.547836 100.0
92.572731 220.0
92.589966 192.0
92.608337 216.0
92.645515 176.0
92.660843 224.0
92.683838 112.0
92.72216 148.0
92.768166 60.0
92.850616 112.0
92.948456 132.0
93.058372 588.0
93.086662 116.0
93.169258 132.0
93.217293 212.0
93.25647 196.0
93.306831 192.0
93.336472 160.0
93.392242 96.0
93.433708 108.0
93.471123 164.0
93.490364 72.0
93.598167 56.0
93.642456 128.0
93.68676 140.0
93.736862 176.0
93.753868 228.0
93.788895 172.0
93.81089 188.0
93.875656 76.0
93.896866 192.0
93.995255 128.0
94.138107 112.0
94.213432 124.0
94.244949 244.0
94.27903 156.0
94.319717 172.0
94.377342 144.0
94.448654 200.0
94.463531 216.0
94.526657 204.0
94.602142 172.0
94.629517 200.0
94.671844 164.0
94.693153 156.0
94.778389 156.0
94.797768 208.0
94.860519 184.0
94.883057 88.0
94.937347 144.0
95.036209 120.0
95.057617 88.0
95.073097 172.0
95.199333 180.0
95.226524 172.0
95.253716 168.0
95.267311 228.0
95.439957 140.0
95.462776 216.0
95.481125 212.0
95.62899 128.0
95.724388 152.0
95.749825 128.0
95.790611 192.0
95.813988 156.0
95.923119 164.0
95.940659 148.0
96.020607 48.0
96.09864 92.0
96.120102 128.0
96.159134 212.0
96.200127 260.0
96.243073 140.0
96.319244 228.0
96.407166 176.0
96.467758 128.0
96.483398 208.0
96.553787 56.0
96.588997 220.0
96.6073 212.0
96.686775 164.0
96.863045 132.0
96.906143 112.0
96.955132 212.0
97.002174 104.0
97.039421 128.0
97.070793 144.0
97.086479 112.0
97.121788 140.0
97.212036 192.0
97.473213 60.0
97.573456 280.0
97.665878 144.0
97.711121 56.0
97.758347 156.0
97.783615 172.0
97.896149 112.0
97.947357 224.0
97.96312 108.0
97.98085 68.0
98.016312 44.0
98.085289 128.0
98.246994 228.0
98.360107 204.0
98.40094 200.0
98.428581 244.0
98.489799 152.0
98.541168 224.0
98.624168 156.0
98.691383 156.0
98.730934 228.0
98.754662 144.0
98.796204 104.0
98.821877 180.0
98.829659 176.0
98.857544 132.0
98.879356 200.0
98.938698 176.0
99.03437 152.0
99.053551 148.0
99.091965 144.0
99.140732 112.0
99.17244 200.0
99.265625 160.0
99.372734 152.0
99.541451 140.0
99.595078 168.0
99.616928 156.0
99.702362 168.0
99.76001 176.0
99.798027 192.0
99.823631 176.0
99.873352 208.0
100.010643 176.0
100.169945 164.0
100.209793 212.0
100.281532 160.0
100.327377 576.0
100.366913 164.0
100.429077 92.0
100.464981 136.0
100.558769 116.0
100.614418 200.0
100.688545 132.0
100.748466 164.0
100.770996 72.0
100.785522 132.0
100.830391 184.0
100.886406 164.0
101.004341 116.0
101.17244 156.0
101.250534 212.0
101.302612 224.0
101.378746 128.0
101.517502 148.0
101.533112 36.0
101.575233 132.0
101.731758 264.0
101.861572 280.0
102.033203 164.0
102.053215 248.0
102.208092 132.0
102.238281 120.0
102.264442 152.0
102.332886 252.0
102.346985 96.0
102.367119 56.0
102.409409 92.0
102.498055 192.0
102.540375 156.0
102.763084 280.0
102.80365 132.0
102.899437 184.0
102.928909 148.0
103.039131 192.0
103.056984 156.0
103.079208 200.0
103.201981 152.0
103.392662 164.0
103.408852 180.0
103.425049 176.0
103.5364 112.0
103.723969 272.0
103.755241 144.0
103.820129 216.0
103.856636 144.0
103.876923 116.0
104.002731 224.0
104.026253 176.0
104.050072 8404.0
104.081902 100.0
104.10244 36.0
104.128616 36.0
104.163757 252.0
104.193619 72.0
104.216423 88.0
104.266403 180.0
104.295219 128.0
104.315552 76.0
104.386711 68.0
104.437553 212.0
104.453827 180.0
104.472137 140.0
104.541313 132.0
104.557594 152.0
104.600342 112.0
104.626801 156.0
104.679741 80.0
104.712326 60.0
104.740845 88.0
104.78566 256.0
104.836601 224.0
104.862503 248.0
104.896194 152.0
105.022133 92.0
105.052315 576.0
105.126183 156.0
105.161171 180.0
105.222359 136.0
105.267044 168.0
105.352829 104.0
105.386604 172.0
105.553123 152.0
105.596069 196.0
105.679947 140.0
105.759758 104.0
105.798653 156.0
105.864174 148.0
105.905136 136.0
106.009621 108.0
106.032166 64.0
106.074646 204.0
106.140816 144.0
106.208496 100.0
106.350838 172.0
106.442459 144.0
106.52903 132.0
106.571861 128.0
106.596519 188.0
106.643791 156.0
106.74247 144.0
106.772362 160.0
106.810341 40.0
106.863831 192.0
106.952324 200.0
106.994354 652.0
107.018204 180.0
107.061447 208.0
107.114792 80.0
107.168556 188.0
107.20565 72.0
107.461342 80.0
107.490227 128.0
107.63266 28.0
107.661568 44.0
107.702881 220.0
107.760719 96.0
107.804115 144.0
107.839249 188.0
108.029488 208.0
108.106041 128.0
108.257217 160.0
108.325516 208.0
108.342087 172.0
108.364876 180.0
108.424004 180.0
108.453987 116.0
108.487152 116.0
108.58461 156.0
108.725685 76.0
108.784912 244.0
108.822411 164.0
108.881393 80.0
108.937477 248.0
108.976952 120.0
109.010201 128.0
109.064163 120.0
109.093338 160.0
109.186768 140.0
109.309647 128.0
109.38665 164.0
109.490135 80.0
109.517838 164.0
109.546997 192.0
109.571999 156.0
109.740875 152.0
109.830498 196.0
109.907684 48.0
109.926468 132.0
109.977074 208.0
109.993256 140.0
110.038223 152.0
110.085121 156.0
110.118385 168.0
110.27433 176.0
110.28167 100.0
110.288727 184.0
110.373489 132.0
110.450874 140.0
110.522003 172.0
110.560608 196.0
110.592072 224.0
110.65596 48.0
110.676895 160.0
110.69574 160.0
110.725777 164.0
110.754387 180.0
110.777428 172.0
110.802567 52.0
110.81723 96.0
110.867523 144.0
110.932152 168.0
110.96814 184.0
110.999489 412.0
111.064606 184.0
111.089783 172.0
111.128006 144.0
111.177902 64.0
111.196793 148.0
111.295456 140.0
111.317368 212.0
111.383667 164.0
111.484512 124.0
111.696869 216.0
111.768402 172.0
111.869423 108.0
111.917847 232.0
111.989449 156.0
112.004196 148.0
112.020424 148.0
112.061073 144.0
112.075821 168.0
112.10643 84.0
112.12159 156.0
112.176987 136.0
112.21283 244.0
112.227585 188.0
112.244453 128.0
112.2714 216.0
112.321899 200.0
112.400551 188.0
112.514526 212.0
112.567314 112.0
112.584206 204.0
112.670815 176.0
112.746193 172.0
112.816635 156.0
112.865532 156.0
112.940529 88.0
112.958611 172.0
113.034485 140.0
113.102211 152.0
113.140312 108.0
113.165718 180.0
113.19236 124.0
113.352119 100.0
113.502617 148.0
113.538673 92.0
113.746605 172.0
113.816666 80.0
113.841705 212.0
113.869759 176.0
113.895241 172.0
113.965347 148.0
113.995232 132.0
114.034004 184.0
114.090744 56.0
114.143906 148.0
114.237488 152.0
114.297058 156.0
114.350258 132.0
114.518463 164.0
114.644165 172.0
114.680397 76.0
114.718765 196.0
114.784859 148.0
114.893639 116.0
114.929909 128.0
115.003967 188.0
115.041351 328.0
115.070778 60.0
115.092987 184.0
115.145515 152.0
115.18396 204.0
115.213867 148.0
115.354912 124.0
115.4105 216.0
115.483208 204.0
115.572716 100.0
115.596596 236.0
115.677933 160.0
115.699341 160.0
115.776421 136.0
115.847107 176.0
115.862106 148.0
116.048485 512.0
116.090981 308.0
116.153648 120.0
116.187973 180.0
116.230888 216.0
116.263077 152.0
116.280243 144.0
116.310295 188.0
116.381142 128.0
116.406906 100.0
116.522896 104.0
116.67334 156.0
116.724693 176.0
116.791611 168.0
116.955139 120.0
117.034462 204.0
117.057091 744.0
117.079414 200.0
117.09169 248.0
117.135704 192.0
117.204964 132.0
117.284698 164.0
117.320419 204.0
117.362312 204.0
117.390343 100.0
117.467987 148.0
117.518494 196.0
117.567238 108.0
117.662216 196.0
117.689926 96.0
117.698669 136.0
117.704041 216.0
117.739952 308.0
117.858765 232.0
117.997093 108.0
118.053719 1800.0
118.098732 108.0
118.120361 28.0
118.148483 128.0
118.206902 184.0
118.239365 296.0
118.332443 204.0
118.357689 152.0
118.377914 164.0
118.421234 168.0
118.436394 52.0
118.503548 168.0
118.609741 160.0
118.67823 176.0
118.739838 208.0
118.833389 156.0
118.856979 124.0
118.90255 148.0
118.954643 180.0
118.982864 84.0
119.002411 168.0
119.058197 1588.0
119.112137 192.0
119.128372 176.0
119.165306 236.0
119.217064 176.0
119.291359 208.0
119.371803 176.0
119.52356 188.0
119.641602 140.0
119.71196 140.0
119.783577 184.0
119.863762 180.0
119.907349 108.0
119.974922 140.0
120.018532 196.0
120.042511 212.0
120.064224 88.0
120.145027 212.0
120.172218 88.0
120.195213 180.0
120.217033 164.0
120.459389 212.0
120.584427 196.0
120.610161 104.0
120.776344 68.0
120.914467 156.0
120.933884 116.0
121.012634 440.0
121.130951 148.0
121.172577 220.0
121.236122 148.0
121.391769 144.0
121.441025 148.0
121.45034 68.0
121.458595 128.0
121.584824 120.0
121.705559 108.0
121.753868 180.0
121.810982 80.0
121.832947 404.0
121.986488 152.0
122.005524 156.0
122.07692 156.0
122.125305 120.0
122.199409 244.0
122.25071 128.0
122.448853 112.0
122.52375 164.0
122.556793 120.0
122.594254 64.0
122.689034 120.0
122.725273 128.0
122.744156 144.0
122.786369 200.0
122.827965 212.0
122.861053 184.0
122.902977 140.0
122.989929 48.0
123.033195 52.0
123.098488 356.0
123.114891 136.0
123.229759 164.0
123.386681 140.0
123.576439 160.0
123.666115 352.0
123.703033 168.0
123.720741 216.0
123.755074 160.0
123.780525 168.0
123.952988 168.0
123.975464 144.0
124.00428 152.0
124.022011 160.0
124.056969 192.0
124.110687 96.0
124.15683 208.0
124.25042 200.0
124.319206 408.0
124.402977 172.0
124.524872 188.0
124.650085 180.0
124.696754 68.0
124.795471 176.0
124.839035 96.0
124.88797 168.0
124.96138 128.0
124.976952 116.0
124.992531 136.0
125.014778 176.0
125.057068 168.0
125.166153 160.0
125.239647 144.0
125.288658 96.0
125.337669 244.0
125.481407 164.0
125.511536 72.0
125.536064 72.0
125.585129 96.0
125.619545 252.0
125.638672 196.0
125.670906 160.0
125.741653 132.0
125.821671 164.0
125.841766 116.0
125.897591 236.0
125.962364 212.0
125.977997 216.0
126.024918 176.0
126.107605 196.0
126.156776 144.0
126.230499 132.0
126.263428 156.0
126.31472 128.0
126.389381 36.0
126.539345 68.0
126.579651 156.0
126.6446 52.0
126.720764 80.0
126.857475 168.0
126.989769 140.0
127.009956 108.0
127.054825 168.0
127.125038 192.0
127.184975 108.0
127.30397 28.0
127.368317 200.0
127.44268 160.0
127.459305 280.0
127.536392 204.0
127.607315 76.0
127.645546 136.0
127.689621 180.0
127.708511 168.0
127.830002 148.0
127.85701 152.0
127.875008 108.0
128.05513 204.0
128.122711 156.0
128.14299 180.0
128.188049 176.0
128.241547 244.0
128.291733 116.0
128.370651 292.0
128.386429 156.0
128.415039 148.0
128.449585 148.0
128.513306 92.0
128.652679 128.0
128.695999 176.0
128.763321 152.0
128.921478 164.0
128.937286 180.0
128.977982 112.0
129.022064 272.0
129.045456 1468.0
129.100067 132.0
129.133987 172.0
129.152084 132.0
129.224472 196.0
129.321777 116.0
129.36705 132.0
129.396484 148.0
129.425919 212.0
129.459885 32.0
129.487061 232.0
129.611664 140.0
129.641129 272.0
129.656982 120.0
129.709122 148.0
129.827011 56.0
129.922287 228.0
129.974472 52.0
130.007721 196.0
130.046249 388.0
130.080093 156.0
130.172195 192.0
130.317322 164.0
130.355469 188.0
130.449142 88.0
130.517349 148.0
130.620697 168.0
130.649261 140.0
130.703873 128.0
130.747421 192.0
130.792633 192.0
130.848206 260.0
130.874588 192.0
130.914108 380.0
130.940628 124.0
130.962494 176.0
130.970642 156.0
130.98317 124.0
130.989838 160.0
131.017807 172.0
131.025635 152.0
131.061722 89044.0
131.10733 260.0
131.134766 56.0
131.153656 64.0
131.168472 180.0
131.189606 144.0
131.216599 160.0
131.234589 208.0
131.283279 384.0
131.322357 80.0
131.355469 36.0
131.373718 52.0
131.392807 76.0
131.410217 40.0
131.436234 972.0
131.478668 72.0
131.506058 56.0
131.555359 248.0
131.614182 168.0
131.658249 200.0
131.682922 96.0
131.711563 28.0
131.739029 212.0
131.758148 224.0
131.800659 60.0
131.821899 192.0
131.864655 56.0
131.883026 52.0
131.917221 164.0
131.965286 128.0
131.985641 312.0
132.008682 172.0
132.026978 92.0
132.064316 11596.0
132.129913 52.0
132.16423 100.0
132.207703 44.0
132.262009 96.0
132.297836 120.0
132.329025 48.0
132.369034 76.0
132.393143 132.0
132.4104 180.0
132.475876 228.0
132.500793 52.0
132.519119 76.0
132.594742 56.0
132.61438 92.0
132.680634 120.0
132.720825 96.0
132.745483 64.0
132.761261 124.0
132.796509 144.0
132.828613 88.0
132.848297 132.0
132.872208 272.0
132.9095 140.0
132.996811 812.0
133.022476 124.0
133.04248 208.0
133.066391 480.0
133.099503 152.0
133.114822 172.0
133.14537 140.0
133.188293 128.0
133.223465 128.0
133.242401 136.0
133.310776 104.0
133.386627 108.0
133.412872 172.0
133.498825 100.0
133.529175 132.0
133.574524 96.0
133.694824 196.0
133.76532 128.0
133.823334 256.0
133.862869 188.0
133.91124 212.0
133.941177 36.0
133.966522 148.0
134.0065 8272.0
134.048279 468.0
134.072784 132.0
134.101654 136.0
134.168671 156.0
134.256943 232.0
134.309998 152.0
134.326141 48.0
134.413818 128.0
134.43689 184.0
134.487656 56.0
134.649277 60.0
134.716263 120.0
134.785583 40.0
134.864151 36.0
134.917328 264.0
134.931717 164.0
135.009842 1024.0
135.049973 132.0
135.086136 48.0
135.331467 176.0
135.491272 148.0
135.68364 152.0
135.715164 120.0
135.767105 76.0
135.82045 300.0
135.852936 152.0
135.890045 80.0
135.920212 88.0
135.946899 160.0
136.004135 304.0
136.026978 128.0
136.057159 80.0
136.117523 132.0
136.247589 152.0
136.324265 56.0
136.474792 116.0
136.490677 212.0
136.600952 80.0
136.716614 124.0
136.733582 76.0
136.778503 132.0
136.891876 188.0
136.931473 96.0
137.057266 260.0
137.075912 236.0
137.099213 80.0
137.185455 68.0
137.250732 68.0
137.704803 160.0
137.764206 68.0
137.838974 132.0
137.878693 232.0
137.908356 104.0
137.917786 72.0
138.126541 144.0
138.192047 36.0
138.224808 164.0
138.259903 160.0
138.458908 108.0
138.529175 116.0
138.567062 188.0
138.80809 72.0
138.876099 184.0
138.937088 132.0
138.991043 148.0
139.027893 120.0
139.081375 140.0
139.138916 56.0
139.188217 136.0
139.232849 40.0
139.249283 200.0
139.43959 60.0
139.511337 172.0
139.531265 132.0
139.568893 64.0
139.848846 120.0
140.029694 168.0
140.136139 144.0
140.204483 132.0
140.225693 60.0
140.409592 192.0
140.444962 112.0
140.496857 216.0
140.565598 184.0
140.666779 52.0
140.917114 60.0
140.936005 176.0
141.051819 148.0
141.081177 172.0
141.106186 140.0
141.22229 128.0
141.285934 64.0
141.373474 280.0
141.406616 72.0
141.46579 128.0
141.539185 168.0
141.641022 64.0
141.677628 80.0
141.747635 172.0
141.787918 136.0
141.939636 148.0
141.998932 168.0
142.052979 2288.0
142.08432 152.0
142.112793 192.0
142.133591 176.0
142.1745 116.0
142.226715 272.0
142.244446 140.0
142.345413 116.0
142.428543 60.0
142.449921 48.0
142.48822 192.0
142.523575 36.0
142.588242 152.0
142.682816 76.0
142.734955 108.0
142.792206 72.0
142.842148 116.0
142.896866 72.0
142.932556 156.0
142.987961 200.0
143.061157 18508.0
143.132507 156.0
143.250229 112.0
143.27684 140.0
143.323074 144.0
143.382645 108.0
143.546066 152.0
143.580521 192.0
143.640152 128.0
143.666397 52.0
143.685486 128.0
143.757904 192.0
143.814346 140.0
143.879791 84.0
143.93132 196.0
143.988632 128.0
144.062454 2024.0
144.091354 192.0
144.119431 176.0
144.194107 56.0
144.394928 120.0
144.418854 100.0
144.504974 84.0
144.567062 148.0
144.773071 140.0
144.789825 48.0
144.835342 152.0
144.935959 148.0
145.040619 172.0
145.060684 268.0
145.084549 204.0
145.108536 36.0
145.175674 80.0
145.221237 116.0
145.262024 96.0
145.358368 152.0
145.379578 64.0
145.600449 140.0
145.780624 140.0
145.992188 108.0
146.047501 188.0
146.066742 60.0
146.087082 132.0
146.118774 76.0
146.138916 152.0
146.22554 168.0
146.29776 156.0
146.485596 180.0
146.675964 216.0
146.702682 92.0
146.767578 196.0
146.810974 132.0
146.936417 148.0
146.970184 152.0
147.007187 228.0
147.052185 188.0
147.095688 120.0
147.170532 176.0
147.250214 136.0
147.361343 152.0
147.390335 100.0
147.494263 112.0
147.782043 80.0
147.989517 184.0
148.023224 1100.0
148.060425 148.0
148.154892 184.0
148.234848 120.0
148.280899 204.0
148.503952 224.0
148.608261 184.0
148.766022 136.0
148.965149 196.0
148.982162 156.0
149.017136 688.0
149.264099 100.0
149.356506 140.0
149.395432 160.0
149.490326 68.0
149.526825 156.0
149.682632 140.0
149.709427 120.0
149.736206 376.0
149.855576 172.0
149.987167 128.0
150.025131 192.0
150.177368 112.0
150.218826 92.0
150.323746 148.0
150.594742 196.0
150.615463 140.0
150.677795 180.0
150.721771 108.0
150.773087 132.0
150.91243 176.0
151.015137 228.0
151.034897 332.0
151.196182 60.0
151.308792 164.0
151.419952 192.0
151.806198 112.0
151.85524 116.0
151.911652 204.0
151.959351 136.0
152.016312 316.0
152.041702 148.0
152.080978 148.0
152.392853 156.0
152.459198 116.0
152.690857 140.0
152.828049 128.0
152.92157 140.0
152.97818 156.0
153.025589 188.0
153.148087 156.0
153.206589 208.0
153.347672 124.0
153.687988 156.0
153.818787 152.0
153.905197 76.0
153.959518 196.0
154.008163 248.0
154.190063 164.0
154.209061 272.0
154.263443 232.0
154.361481 268.0
154.438995 236.0
154.599823 148.0
154.75824 156.0
154.80777 148.0
154.86969 104.0
154.971252 160.0
154.996033 188.0
155.045593 204.0
155.147217 148.0
155.266235 92.0
155.588821 184.0
155.625519 164.0
155.646378 156.0
155.732849 96.0
155.782532 124.0
155.832214 240.0
155.854568 136.0
155.986298 152.0
156.0569 744.0
156.192688 408.0
156.279755 32.0
156.353638 128.0
156.49382 140.0
156.538635 172.0
156.755356 120.0
156.977219 152.0
157.002151 252.0
157.033508 160.0
157.063278 2396.0
157.154327 168.0
157.428909 188.0
157.513824 172.0
157.638748 40.0
157.791214 180.0
158.071396 6652.0
158.181488 156.0
158.246582 216.0
158.276627 60.0
158.319611 196.0
158.380646 156.0
158.403946 224.0
158.474503 36.0
158.556931 184.0
158.705093 180.0
158.761765 160.0
158.981033 180.0
159.073883 540.0
159.1241 160.0
159.152847 216.0
159.222046 208.0
159.294876 76.0
159.350143 220.0
159.39093 104.0
159.465744 180.0
159.679459 60.0
159.827881 132.0
159.962708 160.0
160.007797 212.0
160.080673 184.0
160.152634 120.0
160.27356 176.0
160.446594 104.0
160.64418 164.0
160.68454 160.0
160.841003 244.0
160.896545 188.0
161.018661 936.0
161.048065 100.0
161.399902 216.0
161.467621 180.0
161.664948 156.0
161.778854 188.0
161.847214 136.0
161.890259 152.0
162.022339 424.0
162.184158 160.0
162.343887 260.0
162.374313 120.0
162.51384 140.0
162.704193 56.0
162.742279 124.0
163.026779 192.0
163.291168 156.0
163.494705 212.0
163.553253 136.0
163.665268 168.0
163.69072 52.0
163.815521 164.0
163.912338 176.0
164.022736 256.0
164.164719 128.0
164.190216 140.0
164.247955 200.0
164.2948 240.0
164.481155 156.0
164.66748 132.0
164.703232 152.0
164.866745 184.0
165.050812 144.0
165.380829 40.0
165.472992 264.0
165.618958 136.0
165.798309 148.0
165.852127 188.0
165.89537 156.0
165.995697 136.0
166.057251 208.0
166.111115 28.0
166.159851 184.0
166.313828 212.0
166.352325 144.0
166.537216 80.0
166.606567 164.0
166.835297 56.0
166.881577 136.0
166.984802 264.0
167.041016 136.0
167.071899 236.0
167.096237 168.0
167.207062 248.0
167.463165 164.0
167.549438 112.0
167.568787 112.0
167.701202 164.0
167.720825 228.0
167.805893 156.0
168.001907 180.0
168.053955 1180.0
168.169632 172.0
168.187698 140.0
168.208344 84.0
168.28064 188.0
168.321945 148.0
168.590607 136.0
168.696579 72.0
168.768967 188.0
168.915314 116.0
169.030228 112.0
169.062363 1612.0
169.131165 124.0
169.211411 160.0
169.252838 116.0
169.327942 44.0
169.346069 160.0
169.40564 128.0
169.537796 136.0
169.633682 152.0
169.809845 180.0
169.814453 168.0
169.82518 132.0
169.950089 76.0
170.022751 56.0
170.071213 4116.0
170.099655 244.0
170.15773 48.0
170.178513 156.0
170.205582 140.0
170.221909 56.0
170.294556 140.0
170.3629 132.0
170.43045 144.0
170.586395 160.0
170.682587 124.0
170.862061 220.0
171.074173 316.0
171.124924 120.0
171.171783 168.0
171.244705 52.0
171.466171 136.0
171.544373 136.0
171.831238 168.0
172.058304 168.0
172.076569 60.0
172.097458 224.0
172.23848 152.0
172.319473 44.0
172.36911 112.0
172.486725 176.0
172.507645 172.0
172.761307 96.0
172.781647 124.0
172.850266 52.0
172.988983 200.0
173.020386 192.0
173.114655 136.0
173.206329 164.0
173.48671 116.0
173.562744 192.0
173.583725 180.0
173.670273 144.0
173.701752 196.0
173.801453 72.0
173.838181 136.0
173.871338 152.0
173.94841 172.0
173.977051 320.0
174.02504 1380.0
174.166367 164.0
174.23204 124.0
174.284378 148.0
174.350281 164.0
174.393539 236.0
174.434387 100.0
174.470139 120.0
174.489594 108.0
174.556641 128.0
174.60202 280.0
174.663162 92.0
174.69838 144.0
174.714828 156.0
174.747452 184.0
174.817307 224.0
174.873413 168.0
174.901535 128.0
174.946198 180.0
174.95369 196.0
174.980774 324.0
175.03363 137328.0
175.110733 164.0
175.138062 72.0
175.187378 28.0
175.225647 48.0
175.256134 152.0
175.285446 100.0
175.315567 76.0
175.338226 84.0
175.373764 68.0
175.397202 152.0
175.435669 236.0
175.466324 1088.0
175.507278 172.0
175.517242 108.0
175.545471 40.0
175.584625 80.0
175.627975 132.0
175.651367 132.0
175.67926 204.0
175.703079 148.0
175.738022 28.0
175.757919 52.0
175.7827 60.0
175.833374 140.0
175.854523 28.0
175.872971 88.0
175.906128 116.0
175.947235 256.0
175.967651 152.0
176.003204 188.0
176.035995 15204.0
176.072235 224.0
176.092453 108.0
176.118851 188.0
176.157028 128.0
176.17894 64.0
176.22023 140.0
176.258194 100.0
176.275543 72.0
176.301178 60.0
176.317688 148.0
176.407013 52.0
176.431885 28.0
176.474945 68.0
176.554276 68.0
176.586014 76.0
176.613434 96.0
176.702408 48.0
176.737747 108.0
176.758896 80.0
176.800308 64.0
176.821472 72.0
176.840012 44.0
176.897308 136.0
176.935303 88.0
176.988251 80.0
177.029007 6568.0
177.115372 148.0
177.158005 124.0
177.184647 80.0
177.237274 332.0
177.273483 168.0
177.298981 148.0
177.323471 284.0
177.37204 88.0
177.412796 332.0
177.436035 128.0
177.455383 212.0
177.542908 104.0
177.597794 108.0
177.677368 92.0
177.799591 68.0
177.852524 136.0
177.887024 56.0
177.916229 84.0
177.9534 48.0
178.030014 556.0
178.059616 104.0
178.100479 176.0
178.128677 72.0
178.351883 108.0
178.447586 144.0
178.809357 84.0
179.017014 84.0
179.126221 36.0
179.196777 116.0
179.315399 52.0
179.371368 100.0
179.427353 72.0
179.502014 80.0
179.566025 112.0
179.643372 40.0
179.78479 72.0
179.896896 44.0
179.935867 180.0
179.993011 60.0
180.041077 164.0
180.166611 52.0
180.318924 176.0
180.383072 72.0
180.634445 100.0
180.66922 72.0
180.703995 108.0
180.824417 112.0
180.94487 60.0
181.569229 116.0
181.593369 200.0
181.663101 88.0
182.084518 112.0
182.148987 192.0
182.197342 152.0
182.273911 168.0
182.57634 48.0
182.600021 180.0
182.953049 96.0
183.178391 100.0
183.219666 172.0
184.063889 156.0
184.185425 116.0
184.217834 56.0
184.261063 136.0
184.350357 80.0
184.439423 92.0
184.758987 92.0
184.828857 160.0
184.896515 100.0
185.01886 180.0
185.169968 44.0
185.318481 92.0
185.333893 156.0
185.58728 40.0
185.652374 148.0
185.722885 72.0
185.77713 148.0
185.853104 52.0
185.945374 160.0
186.010513 200.0
186.434219 76.0
186.551102 80.0
186.6353 144.0
187.02182 176.0
187.108795 40.0
187.293976 136.0
187.599182 64.0
188.035599 112.0
188.237625 176.0
188.5354 128.0
188.822464 60.0
188.899048 208.0
188.989334 196.0
189.016693 32.0
189.090576 80.0
189.660278 168.0
189.898834 136.0
189.981125 44.0
190.250061 140.0
190.335175 44.0
190.587891 128.0
190.717056 180.0
191.115814 108.0
191.192871 164.0
191.369034 168.0
191.413101 208.0
191.465424 60.0
191.589371 288.0
191.707855 52.0
191.76297 44.0
192.121445 196.0
192.160065 116.0
192.220764 188.0
193.157364 212.0
193.224487 184.0
193.265274 52.0
193.40918 108.0
193.539291 32.0
194.406937 184.0
194.529068 168.0
195.218109 184.0
195.624344 124.0
195.872177 176.0
195.930679 176.0
196.173126 156.0
196.226105 152.0
196.293015 108.0
196.722687 140.0
196.923737 136.0
197.138855 104.0
197.281403 96.0
197.527496 40.0
197.555466 148.0
197.79892 148.0
197.947311 100.0
198.378784 224.0
198.510574 240.0
198.891754 152.0
199.195404 112.0
199.319016 168.0
199.577621 112.0
199.698547 36.0
200.018997 108.0
200.21077 84.0
200.399506 140.0
200.622147 124.0
200.664444 164.0
200.899277 164.0
200.991623 164.0
201.027512 252.0
201.115799 192.0
201.186371 52.0
201.338852 336.0
201.367096 88.0
201.42923 132.0
201.494217 176.0
201.587448 224.0
201.683548 180.0
201.713684 224.0
201.737259 288.0
201.77446 124.0
201.782181 144.0
201.795166 108.0
201.803543 196.0
201.854477 312.0
201.904083 80.0
201.933121 60.0
201.939102 156.0
201.96434 196.0
201.997086 376.0
202.044281 93716.0
202.127563 40.0
202.154022 92.0
202.19249 128.0
202.214874 152.0
202.242264 68.0
202.251007 52.0
202.299026 200.0
202.323318 124.0
202.356827 64.0
202.384048 120.0
202.41803 52.0
202.444901 116.0
202.477966 72.0
202.51004 248.0
202.559738 148.0
202.58847 152.0
202.659897 68.0
202.71991 44.0
202.776077 116.0
202.800308 88.0
202.844101 52.0
202.87529 236.0
202.924133 364.0
202.948822 76.0
202.970413 80.0
202.980057 80.0
202.990082 156.0
203.046478 11280.0
203.092178 124.0
203.144699 92.0
203.168167 44.0
203.181381 56.0
203.202606 68.0
203.230911 72.0
203.269531 88.0
203.319122 92.0
203.367447 108.0
203.405762 100.0
203.428482 88.0
203.447571 44.0
203.533524 36.0
203.621567 52.0
203.712448 64.0
203.755066 116.0
203.863037 56.0
203.921875 80.0
203.998047 112.0
204.040146 3528.0
204.100082 152.0
204.181442 48.0
204.246658 56.0
204.303757 108.0
204.323303 116.0
204.37822 228.0
204.404358 112.0
204.442459 156.0
204.4711 140.0
204.493073 68.0
204.52243 104.0
204.574112 84.0
204.63623 152.0
204.664612 112.0
204.681656 140.0
204.727875 128.0
204.776291 108.0
204.833252 48.0
204.867432 44.0
204.950058 68.0
205.042648 128.0
205.14386 76.0
205.260757 116.0
205.314941 52.0
205.353928 96.0
205.444901 112.0
205.494553 120.0
205.550415 96.0
205.571701 92.0
205.620209 84.0
205.726929 124.0
205.868591 64.0
206.154266 80.0
206.185699 48.0
206.242859 76.0
206.297165 64.0
206.422974 128.0
206.503052 60.0
206.783447 88.0
207.356262 52.0
207.38205 116.0
208.708359 40.0
209.447998 100.0
209.468155 96.0
210.162964 48.0
210.246643 76.0
210.717316 68.0
211.865891 100.0
212.369751 88.0
213.377945 56.0
213.846283 48.0
214.516235 100.0
216.356689 60.0
216.421112 52.0
216.514816 128.0
217.288666 76.0
218.1521 108.0
218.758102 116.0
219.698181 112.0
221.098755 96.0
225.17186 80.0
227.480453 72.0
227.669617 68.0
228.108292 148.0
232.205734 76.0
232.37561 96.0
234.093002 76.0
237.150284 120.0
244.835266 96.0
247.683762 104.0
247.768341 92.0
248.370224 76.0
248.495712 56.0
252.594376 44.0
252.682953 160.0
253.027924 76.0
253.335129 52.0
253.899323 52.0
255.109085 64.0
255.49707 52.0
256.497009 168.0
263.044189 88.0
263.716064 72.0
264.699554 40.0
266.704559 80.0
268.094299 80.0
270.59967 96.0
271.363068 96.0
272.377136 100.0
272.531555 88.0
277.691376 96.0
281.598846 132.0
281.872772 72.0
283.566162 56.0
284.659851 88.0
289.868286 104.0
290.207275 64.0
292.289429 80.0
292.394928 68.0
293.761292 76.0
294.983795 60.0
296.860077 100.0
297.240845 112.0
300.140625 108.0
300.347534 92.0
306.839447 48.0
308.267059 60.0
308.473267 52.0
314.582245 80.0
318.044189 28.0
318.587524 100.0
321.917816 96.0
322.221405 76.0
322.353638 132.0
325.394653 64.0
326.55896 52.0
326.66687 60.0
328.348969 152.0
330.502014 72.0
333.134155 28.0
341.928223 92.0
344.16217 84.0
348.432648 96.0
356.928528 128.0
357.13913 60.0
360.672241 76.0
363.148529 56.0
364.979004 88.0
365.736084 88.0
370.034607 48.0
371.41803 92.0
372.76947 52.0
373.496094 52.0
373.900085 120.0
376.062286 84.0
377.603882 88.0
378.273285 76.0
381.699158 76.0
382.605713 76.0
388.769867 92.0
389.417664 116.0
392.71994 56.0
394.856689 48.0
395.154297 84.0
397.328461 48.0
399.139618 72.0
406.240967 72.0
406.871033 104.0
412.450409 60.0
415.118469 56.0
419.656403 52.0
420.455933 60.0
426.84668 68.0
427.78064 100.0
429.197937 40.0
429.569122 100.0
430.250031 60.0
436.203064 72.0
445.854156 116.0
453.493408 76.0
460.838562 56.0
464.280182 156.0
469.514099 92.0
480.903198 40.0
494.205933 128.0
498.422729 68.0
504.090881 84.0
512.270264 60.0
514.683167 84.0
515.871399 104.0
519.752808 48.0
526.147705 84.0
540.576111 64.0
545.50177 76.0
550.683289 40.0
559.35791 120.0
564.817505 60.0
565.598267 108.0
579.102051 132.0
579.561951 124.0
584.685791 108.0
598.599304 40.0
603.161011 80.0
605.764343 80.0
606.90625 124.0
608.039429 108.0
608.1474 80.0
621.29834 40.0
623.910645 56.0
623.955383 104.0
638.1297 48.0
639.744629 84.0
648.478394 164.0
664.398621 64.0
666.945618 192.0
686.725342 124.0
687.794983 64.0
711.437012 196.0
711.968018 252.0
722.243958 204.0
733.159302 76.0
733.994873 140.0
750.228149 164.0
758.312744 88.0
758.756775 96.0
759.551941 112.0
760.484741 240.0
760.704285 36.0
765.597839 48.0
778.62207 220.0
781.579529 200.0
785.105713 196.0
787.176086 188.0
789.154175 144.0
789.523193 160.0
802.793701 148.0
808.68634 208.0
809.303406 156.0
810.997253 148.0
821.226196 184.0
824.469116 144.0
829.517395 76.0
835.236755 220.0
836.013489 80.0
839.175903 208.0
842.77179 172.0
849.232422 168.0
865.972168 204.0
867.865051 140.0
871.780334 104.0
874.132629 176.0
877.124512 120.0
878.858398 192.0
882.674255 152.0
883.774475 228.0
885.526733 168.0
889.024658 48.0
891.578308 144.0
892.1073 188.0
896.607239 204.0
896.857544 120.0
901.614441 172.0
905.179871 216.0
907.390869 124.0
907.870544 224.0
908.026489 120.0
913.0354 112.0
913.889587 224.0
921.631653 168.0
923.517822 228.0
924.873169 256.0
937.920654 164.0
941.819702 92.0
944.845703 68.0
945.347412 136.0
950.175842 248.0
953.17218 112.0
953.663818 164.0
957.712463 144.0
959.166687 204.0
964.333008 192.0
975.838562 144.0
977.119812 140.0
978.576233 96.0
980.027466 100.0
981.305176 140.0
982.128357 148.0
982.852051 76.0
984.31897 112.0
987.862732 44.0
988.457153 208.0
989.546265 176.0
995.540833 136.0
997.09259 160.0
997.645752 176.0
998.519775 132.0
1003.563904 56.0
1004.598206 84.0
1004.80011 88.0
1008.601746 200.0
1010.809021 184.0
1011.315308 136.0
1013.817017 192.0
1018.308777 184.0
1020.882751 96.0
1022.587769 160.0
1025.613281 124.0
1028.189941 180.0
1031.428223 88.0
1032.591919 164.0
1033.564331 232.0
1034.863647 256.0
1035.139038 160.0
1036.388062 156.0
1037.0802 140.0
1037.246948 164.0
1038.445923 156.0
1041.135132 56.0
1041.372681 128.0
1041.815918 144.0
1042.105103 188.0
1042.162842 224.0
1049.294312 180.0
1050.010132 164.0
1051.564941 140.0
1053.560303 128.0
1054.523071 172.0
1055.744995 256.0
1057.265381 204.0
1057.621338 160.0
1057.776855 152.0
1058.929199 176.0
1059.440918 132.0
1059.751953 136.0
1060.69165 180.0
1061.223267 196.0
1063.383423 248.0
1063.539185 172.0
1064.779297 140.0
1069.779663 120.0
1070.476318 248.0
1073.545654 72.0
1074.94165 68.0
1075.705322 44.0
1078.376831 92.0
1078.821411 124.0
1079.848022 164.0
1081.889526 100.0
1082.072876 160.0
1083.310669 208.0
1083.50061 28.0
1083.880615 220.0
1085.106323 76.0
1085.716187 64.0
1085.939209 164.0
1086.024414 148.0
1086.234375 192.0
1087.415405 148.0
1088.538086 172.0
1089.680908 216.0
1092.711914 156.0
1093.376587 132.0
1095.714111 64.0
1095.89209 156.0
1099.017334 224.0
1100.951538 88.0
1101.433716 96.0
1101.889526 128.0
1102.325562 192.0
1104.196533 172.0
1104.401489 208.0
1107.174683 128.0
1108.281006 192.0
1109.162476 148.0
1112.313232 200.0
1114.604614 204.0
1114.671021 168.0
1116.751953 76.0
1118.12915 168.0
1118.694946 192.0
1124.067017 192.0
1124.567505 148.0
1125.722534 156.0
1126.851318 56.0
1127.058472 40.0
1127.472778 76.0
1128.248169 176.0
1129.418457 144.0
1129.946899 124.0
1130.636108 152.0
1130.743164 124.0
1131.559937 132.0
1132.209473 172.0
1132.658203 224.0
1133.381714 156.0
1134.869751 188.0
1136.123901 172.0
1140.193115 116.0
1141.066895 184.0
1141.335938 140.0
1141.483765 48.0
1142.089111 180.0
1142.5802 84.0
1142.681152 48.0
1143.421265 64.0
1144.134888 124.0
1145.171875 300.0
1145.266113 188.0
1146.243042 220.0
1150.742065 176.0
1151.903687 72.0
1153.329468 156.0
1154.296143 92.0
1154.789917 160.0
1156.454346 224.0
1157.442749 240.0
1158.235107 212.0
1158.783813 148.0
1159.285278 136.0
1159.549561 152.0
1160.966553 96.0
1161.014038 192.0
1161.984009 172.0
1162.06543 200.0
1162.995117 188.0
1163.137695 224.0
1163.6604 172.0
1164.400635 72.0
1169.064331 112.0
1170.289673 192.0
1170.664185 188.0
1170.827637 136.0
1172.271851 156.0
1172.694458 56.0
1174.323975 68.0
1174.767334 236.0
1174.869629 92.0
1174.978882 196.0
1175.606567 116.0
1177.088623 180.0
1177.962158 228.0
1181.475952 200.0
1182.700928 120.0
1184.447021 244.0
1185.63916 168.0
1186.75647 240.0
1187.209106 152.0
1187.565796 180.0
1187.79895 148.0
1188.354614 112.0
1189.658691 160.0
1190.022461 204.0
1190.098022 224.0
1192.7677 40.0
1193.292969 200.0
1193.815552 204.0
1195.507935 204.0
1196.0448 164.0
1196.891602 196.0
1199.723267 80.0
1201.254272 156.0
1201.35083 168.0
1202.951782 116.0
1204.546997 40.0
1204.678223 180.0
1205.258667 168.0
1206.094849 176.0
1206.314209 220.0
1208.037964 128.0
1211.069824 156.0
1211.457764 76.0
1211.617065 184.0
1211.831909 124.0
1212.573364 172.0
1213.356689 132.0
1214.500854 56.0
1214.889404 140.0
1219.131836 44.0
1219.423706 128.0
1219.597412 108.0
1219.820801 116.0
1219.945068 256.0
1220.591675 176.0
1220.828125 204.0
1221.043701 136.0
1221.154907 100.0
1222.059326 216.0
1222.268066 144.0
1223.063354 152.0
1225.854248 164.0
1227.757446 40.0
1227.961182 208.0
1228.078247 92.0
1228.175903 128.0
1228.245605 176.0
1228.350342 168.0
1228.552612 168.0
1229.068848 120.0
1229.292236 196.0
1229.627197 224.0
1230.681274 132.0
1231.023438 232.0
1231.177124 176.0
1231.679932 88.0
1231.967041 116.0
1233.33606 248.0
1233.748413 168.0
1234.377686 136.0
1234.531616 164.0
1235.244995 100.0
1235.482788 180.0
1236.210449 200.0
1236.742432 196.0
1236.952393 160.0
1239.396606 104.0
1239.704956 116.0
1240.097412 204.0
1240.903564 164.0
1241.19104 216.0
1242.102783 172.0
1242.727173 152.0
1244.155273 180.0
1244.538086 216.0
1245.549438 156.0
1246.504883 204.0
1248.606934 136.0
1249.224609 172.0
1249.626831 160.0
1249.894287 184.0
1251.759644 168.0
1251.851196 80.0
1252.950073 252.0
1254.518799 212.0
1255.022217 120.0
1255.353638 112.0
1256.291748 44.0
1257.187744 144.0
1257.505371 180.0
1257.879517 152.0
1258.211304 152.0
1258.27478 236.0
1258.484497 224.0
1258.550171 120.0
1258.832642 72.0
1260.259521 152.0
1260.414917 192.0
1260.874268 164.0
1261.574097 212.0
1261.637695 152.0
1262.196289 48.0
1262.266968 204.0
1262.578125 176.0
1263.002563 100.0
1263.674561 100.0
1263.80188 208.0
1264.141602 204.0
1265.394409 212.0
1266.400024 108.0
1267.292603 132.0
1268.143066 148.0
1268.412354 240.0
1268.497437 148.0
1268.979492 136.0
1271.008179 88.0
1271.355835 92.0
1271.916504 168.0
1272.023071 144.0
1272.307007 184.0
1272.441895 160.0
1272.885742 176.0
1274.814331 84.0
1275.304688 88.0
1275.795166 164.0
1277.281494 148.0
1277.640625 128.0
1278.960693 204.0
1279.145752 176.0
1279.537354 148.0
1280.320679 116.0
1280.505859 172.0
1281.275146 48.0
1282.372559 124.0
1283.306396 172.0
1283.734253 172.0
1285.988647 132.0
1286.109985 120.0
1286.359863 212.0
1287.516602 44.0
1287.866577 128.0
1287.924072 160.0
1288.173706 176.0
1289.938721 28.0
1290.024536 180.0
1290.532104 176.0
1290.811035 124.0
1290.868286 220.0
1291.211548 148.0
1291.519043 152.0
1291.725342 148.0
1291.869507 140.0
1293.286377 104.0
1293.486816 44.0
1294.818604 200.0
1295.255493 196.0
1296.315918 188.0
1297.247681 148.0
1297.641968 160.0
1297.864258 140.0
1298.251465 56.0
1300.181274 112.0
1301.617065 216.0
1302.3927 180.0
1302.543579 180.0
1303.362549 76.0
1303.549438 180.0
1304.066895 128.0
1304.462158 192.0
1305.159546 196.0
1305.24585 148.0
1305.310547 132.0
1305.461548 156.0
1305.936279 80.0
1306.051392 160.0
1306.943481 172.0
1307.411133 152.0
1307.519165 120.0
1307.943726 116.0
1308.05896 160.0
1308.296509 124.0
1308.584473 112.0
1308.757324 132.0
1309.484619 156.0
1309.578247 132.0
1310.212158 148.0
1310.47876 212.0
1311.848145 196.0
1312.230225 140.0
1312.496948 136.0
1312.727783 236.0
1312.857544 176.0
1314.228149 112.0
1314.668335 128.0
1314.754883 116.0
1316.213135 68.0
1316.34314 80.0
1316.437012 148.0
1316.848633 192.0
1317.087036 116.0
1317.650513 156.0
1317.70105 164.0
1317.87439 44.0
1318.69104 64.0
1318.756104 188.0
1319.197021 160.0
1319.65979 100.0
1320.361206 148.0
1320.925293 124.0
1321.446289 72.0
1321.632202 204.0
1321.873169 76.0
1322.068604 172.0
1323.378784 68.0
1325.109863 124.0
1325.622803 196.0
1326.189575 144.0
1327.494507 200.0
1328.096558 176.0
1328.256104 224.0
1328.529175 200.0
1328.727661 108.0
1329.874268 124.0
1330.527588 140.0
1330.730835 160.0
1331.82019 180.0
1333.627563 144.0
1333.920166 208.0
1334.181885 300.0
1334.315186 220.0
1334.67627 32.0
1334.923462 104.0
1335.585327 144.0
1336.443726 40.0
1336.516602 160.0
1336.858521 168.0
1337.062378 116.0
1337.418945 236.0
1338.80957 56.0
1339.246582 212.0
1339.581421 124.0
1339.814819 88.0
1340.365112 152.0
1341.221191 148.0
1342.074219 184.0
1342.25647 68.0
1342.387695 172.0
1342.61377 120.0
1342.942017 148.0
1343.861206 236.0
1344.103882 156.0
1344.948608 44.0
1345.569092 176.0
1345.737061 152.0
1345.853882 48.0
1347.2854 176.0
1347.336548 228.0
1348.206055 144.0
1348.541992 132.0
1349.163574 204.0
1350.231079 96.0
1350.560303 68.0
1350.999146 160.0
1351.357666 208.0
1351.760132 144.0
1352.221191 60.0
1352.565186 192.0
1353.348511 208.0
1353.473022 164.0
1354.32251 124.0
1354.447021 184.0
1356.440186 200.0
1356.498901 132.0
1356.792114 204.0
1356.909424 80.0
1357.143799 108.0
1358.214722 172.0
1358.398071 80.0
1359.655518 192.0
1359.784912 140.0
1361.627808 120.0
1361.745239 236.0
1362.560669 196.0
1362.773682 60.0
1362.847168 196.0
1363.119019 152.0
1363.258667 84.0
1364.228882 180.0
1366.015869 140.0
1366.575073 116.0
1366.656006 220.0
1367.590576 172.0
1368.665405 136.0
1370.204834 180.0
1370.617432 140.0
1371.361572 168.0
1371.582886 144.0
1371.951416 168.0
1372.120972 56.0
1372.688721 152.0
1372.851074 128.0
1373.160767 248.0
1373.72876 164.0
1373.807617 172.0
1375.256226 164.0
1375.677002 236.0
1375.876221 144.0
1376.333984 116.0
1376.762329 164.0
1376.858398 152.0
1377.641357 152.0
1377.774292 184.0
1377.862915 176.0
1377.995972 192.0
1378.047607 164.0
1378.276733 176.0
1378.326416 160.0
1378.564941 160.0
1378.771851 112.0
1379.28186 216.0
1380.210815 196.0
1380.590454 136.0
1381.581665 212.0
1382.30188 172.0
1383.069092 148.0
1383.180664 196.0
1383.365112 128.0
1384.142578 140.0
1384.609131 156.0
1385.490601 104.0
1387.128296 160.0
1387.773315 124.0
1388.351685 108.0
1388.678101 196.0
1388.982178 96.0
1389.182495 64.0
1389.58313 188.0
1389.777954 164.0
1392.322144 108.0
1393.6073 160.0
1393.859985 148.0
1394.365356 228.0
1394.647705 172.0
1394.797241 152.0
1396.127319 168.0
1396.387573 200.0
1397.049561 112.0
1397.124023 116.0
1397.845703 132.0
1397.994507 160.0
1398.299683 172.0
1398.547485 192.0
1398.716553 108.0
1398.828125 188.0
1398.99939 152.0
1399.758789 144.0
1400.525879 68.0
1400.600464 172.0
1402.448364 264.0
1402.739014 104.0
1402.865723 108.0
1402.977539 140.0
1404.028931 112.0
1404.2229 160.0
1405.170288 140.0
1406.394043 128.0
1407.349731 200.0
1407.685669 184.0
1407.991943 96.0
1408.976929 236.0
1409.314087 172.0
1409.822266 144.0
1409.956787 164.0
1410.240356 128.0
1410.487427 176.0
1410.786499 112.0
1411.339722 144.0
1412.398315 232.0
1412.671021 160.0
1412.985229 136.0
1413.942993 64.0
1415.268066 184.0
1415.694824 176.0
1416.893311 80.0
1417.148071 204.0
1417.30542 76.0
1417.417847 148.0
1417.844971 140.0
1418.961914 184.0
1419.389282 176.0
1419.809204 192.0
1420.064209 160.0
1420.506714 228.0
1420.581787 140.0
1421.249512 56.0
1421.669678 136.0
1421.729736 180.0
1422.983398 168.0
1423.171021 132.0
1423.463867 148.0
1423.531494 56.0
1423.918213 288.0
1424.132324 112.0
1424.327637 160.0
1424.455322 48.0
1424.590576 284.0
1424.650635 184.0
1425.890503 160.0
1426.499268 212.0
1426.942871 196.0
1427.356445 176.0
1428.251343 216.0
1428.830566 196.0
1429.349731 152.0
1430.237793 96.0
1430.373291 88.0
1430.697021 172.0
1430.960571 96.0
1431.15625 176.0
1431.269287 64.0
1431.630737 216.0
1431.728638 172.0
1433.190063 220.0
1433.67981 144.0
1433.921021 200.0
1434.026489 120.0
1434.742676 124.0
1435.021606 128.0
1435.14978 148.0
1435.323242 156.0
1436.26123 140.0
1436.688354 104.0
1436.914673 84.0
1437.216553 144.0
1437.699463 164.0
1438.348511 124.0
1438.416504 96.0
1438.523682 224.0
1439.458374 148.0
1439.843506 168.0
1440.274048 152.0
1440.455322 140.0
1441.082397 160.0
1441.690308 188.0
1443.145874 140.0
1444.832397 428.0
1446.096191 160.0
1446.174316 224.0
1446.464966 228.0
1447.867798 164.0
1448.019287 184.0
1450.3302 160.0
1450.587891 88.0
1451.164062 60.0
1451.445923 224.0
1451.702515 204.0
1451.922363 232.0
1452.658203 76.0
1452.764404 168.0
1452.946411 196.0
1453.553467 36.0
1453.978394 240.0
1454.160522 156.0
1455.071533 212.0
1455.139771 188.0
1455.322021 156.0
1455.982666 136.0
1456.818237 128.0
1457.258911 204.0
1458.368408 108.0
1459.236938 196.0
1459.501099 184.0
1460.428955 148.0
1460.672363 140.0
1461.08313 228.0
1461.136475 192.0
1461.42627 192.0
1461.813599 136.0
1462.194092 196.0
1462.346313 200.0
1462.757324 76.0
1463.099976 168.0
1464.082275 172.0
1464.143188 120.0
1464.280273 156.0
1464.836304 132.0
1465.590576 196.0
1465.659058 68.0
1466.032471 196.0
1466.863281 220.0
1466.924316 168.0
1468.990845 152.0
1469.097656 140.0
1470.539795 192.0
1470.639038 188.0
1470.997803 156.0
1471.417725 168.0
1471.990356 132.0
1472.074341 132.0
1472.173584 124.0
1472.708252 208.0
1473.319336 156.0
1473.670776 196.0
1473.731934 200.0
1474.534302 144.0
1474.725464 160.0
1474.855347 120.0
1475.344604 172.0
1475.67334 216.0
1475.765137 156.0
1476.652222 136.0
1477.042236 92.0
1477.922729 172.0
1478.098022 68.0
1478.220459 228.0
1478.411865 188.0
1479.502686 176.0
1479.759033 120.0
1479.912109 148.0
1480.356323 168.0
1480.762207 180.0
1480.892334 52.0
1481.566528 140.0
1481.742676 236.0
1481.803955 152.0
1482.049194 176.0
1482.700562 232.0
1482.800171 96.0
1483.263184 128.0
1484.502075 180.0
1484.586426 260.0
1485.232178 132.0
1485.483887 180.0
1485.68335 180.0
1486.257324 256.0
1486.627075 92.0
1486.729248 124.0
1487.089233 200.0
1487.179688 64.0
1487.409912 48.0
1487.463745 168.0
1487.955078 56.0
1488.323608 112.0
1488.710693 184.0
1490.097778 128.0
1490.328369 212.0
1490.574219 88.0
1490.989258 176.0
1491.089111 136.0
1491.665649 52.0
1491.765503 192.0
1492.019165 196.0
1493.072632 200.0
1493.357178 120.0
1493.976562 136.0
1494.067139 164.0
1494.403442 120.0
1495.411621 168.0
1495.711792 312.0
1496.951294 136.0
1497.320923 204.0
1497.613647 224.0
1497.721436 196.0
1498.636597 208.0
1498.784668 168.0
1499.555298 72.0
1499.647827 152.0
1500.256714 140.0
1500.358276 140.0
1500.588257 92.0
1501.035522 212.0
1501.160889 204.0
1501.259155 252.0
1501.397949 176.0
1501.459595 228.0
1501.521362 144.0
1501.752686 152.0
1501.930176 124.0
1502.084351 152.0
1503.002441 80.0
1503.781982 176.0
1504.075195 136.0
1504.77771 212.0
1504.870361 212.0
1505.063477 160.0
