>compound MLS001157806-01!4-[[2-(8-methyl-2-oxo-4-phenylchromen-7-yl)oxypropanoylamino]methyl]cyclohexane-1-carboxylic acid
>formula C27H29NO6
>ionization [M+H]+
>parentmass 464.207
#inchi InChI=1S/C27H29NO6/c1-16-23(33-17(2)26(30)28-15-18-8-10-20(11-9-18)27(31)32)13-12-21-22(14-24(29)34-25(16)21)19-6-4-3-5-7-19/h3-7,12-14,17-18,20H,8-11,15H2,1-2H3,(H,28,30)(H,31,32)/t17?,18-,20-
#inchikey HVDQBOGXNAWROE
#Ion_Source LC-ESI
#Instrument qTof
#Compound_Source NIH Natural Product Library
#PI Dorrestein
#Data_Collector VVP/LMS
#Scan -1
#Precursor_MZ 464.207
#ExactMass 463.199
#Charge 1
#CAS_Number N/A
#Pubmed_ID N/A
#Smiles CC(Oc1ccc2c(cc(=O)oc2c1C)c3ccccc3)C(=O)NC[C@H]4CC[C@@H](CC4)C(=O)O
#INCHI_AUX N/A
#Library_Class 1
#SpectrumID CCMSLIB00000080540
#IonMode Positive
#UpdateWorkflowName UPDATE-SINGLE-ANNOTATED-GOLD
#LibraryQualityString Gold
#TaskID b1d8e8f6646f4e71acdff9ca3d919d08
##Scan# 2153
#SpectrumFile p2-D10_GD10_01_18022.mzXML
#LibraryName NIH_Natural_Products_Library.mgf
#MQScore -1
#Organism NIH_Natural_Products_Library
#TIC_Query 0
#RT_Query -1
#MZErrorPPM -1
#SharedPeaks 0
#MassDiff 0
#LibMZ -1
#SpecMZ 464.207
#SpecCharge 0
#internalFilename spec-00000.mgf

>collision 10
95.120926 504.0
95.544571 172.0
96.119446 228.0
97.289772 200.0
97.677284 112.0
98.446075 120.0
99.869339 244.0
100.110191 160.0
100.988487 112.0
101.637688 144.0
102.526672 200.0
102.776764 216.0
103.069603 256.0
103.370949 52.0
104.104912 192.0
104.595215 156.0
104.804787 172.0
104.865936 148.0
105.102539 148.0
106.316231 128.0
106.429153 128.0
107.054382 148.0
108.451256 120.0
109.14061 184.0
109.515266 144.0
110.093079 68.0
110.136948 304.0
111.116829 208.0
111.148308 200.0
111.898804 108.0
112.153847 396.0
112.248634 92.0
112.263397 76.0
113.324715 224.0
113.58976 112.0
113.840248 216.0
113.959221 148.0
114.802307 188.0
114.926048 132.0
115.019966 196.0
118.589096 176.0
118.647629 136.0
119.309898 172.0
120.849953 160.0
120.955017 116.0
121.115738 124.0
121.156517 128.0
121.698334 200.0
121.764229 184.0
123.0924 180.0
123.634102 220.0
124.121536 288.0
124.214699 124.0
124.629929 136.0
124.672157 152.0
124.992432 172.0
125.125999 176.0
126.0317 104.0
126.4701 180.0
126.752327 108.0
126.929443 212.0
127.066292 104.0
128.702881 160.0
129.078033 192.0
130.72522 156.0
131.132935 172.0
131.721725 228.0
131.865707 212.0
132.868851 192.0
133.986374 88.0
134.865723 140.0
135.72049 128.0
135.810577 176.0
136.45163 128.0
136.560944 64.0
137.017273 176.0
137.161774 140.0
138.144058 348.0
138.179596 776.0
139.183273 212.0
139.272751 44.0
139.540695 92.0
139.631119 80.0
139.674759 116.0
139.830078 204.0
139.978424 140.0
140.084427 132.0
140.131546 120.0
140.160599 1312.0
140.20697 140.0
141.007172 128.0
141.129089 192.0
141.158981 156.0
141.343033 148.0
141.565582 112.0
141.707733 64.0
142.719025 68.0
143.402374 160.0
144.620712 164.0
144.73085 176.0
144.900925 88.0
145.426193 172.0
146.110031 128.0
146.88942 244.0
147.307098 132.0
148.9133 168.0
149.850021 172.0
149.881699 172.0
150.362198 160.0
150.965729 128.0
151.012192 144.0
151.093262 556.0
152.119934 148.0
152.164749 272.0
152.931244 156.0
153.138092 176.0
153.192291 84.0
153.47084 108.0
153.527557 120.0
153.954575 96.0
154.317871 148.0
154.374756 132.0
155.142456 196.0
155.64122 60.0
155.738098 200.0
156.474304 124.0
156.79071 200.0
158.289856 168.0
158.725937 200.0
159.132492 120.0
159.37616 208.0
159.615005 108.0
161.077026 208.0
161.125031 68.0
161.478989 140.0
161.547287 124.0
161.623199 136.0
163.129959 172.0
164.487946 208.0
165.001511 80.0
165.116592 156.0
165.134506 144.0
166.144241 604.0
166.187393 344.0
166.328735 128.0
166.575287 248.0
166.883728 40.0
167.148712 180.0
167.194077 1500.0
167.26712 40.0
167.764389 56.0
167.81337 160.0
167.880432 168.0
168.197113 300.0
168.432846 112.0
169.124954 272.0
169.161133 220.0
169.21138 80.0
170.134491 160.0
170.711411 192.0
171.21376 184.0
171.891663 144.0
174.745605 172.0
174.771912 100.0
176.552811 156.0
177.053085 48.0
177.697327 144.0
178.144852 208.0
178.499619 88.0
178.704468 116.0
178.92009 116.0
179.137619 48.0
179.158081 260.0
181.075363 192.0
181.13649 212.0
181.153656 124.0
181.163589 172.0
181.276321 112.0
182.142426 616.0
183.151932 144.0
183.712723 164.0
184.160889 108.0
184.203415 572.0
184.433838 64.0
185.169907 180.0
185.205124 308.0
187.621338 72.0
187.781738 108.0
189.131409 160.0
189.449936 100.0
189.474594 172.0
189.80629 116.0
190.147873 172.0
191.157089 676.0
191.229584 196.0
191.849472 96.0
192.160797 136.0
193.081177 64.0
193.10054 144.0
193.712357 44.0
194.144257 1020.0
194.18837 964.0
194.212631 240.0
195.08902 212.0
195.155334 216.0
195.191849 316.0
196.144241 144.0
196.269714 56.0
197.096085 120.0
197.135986 468.0
197.17337 280.0
197.259598 40.0
197.585449 68.0
198.176315 140.0
198.622131 220.0
199.706528 84.0
199.830338 172.0
199.976685 164.0
201.121231 176.0
202.450272 48.0
202.830002 264.0
203.153076 136.0
203.181702 68.0
204.762421 84.0
204.939072 172.0
205.177139 328.0
205.903427 216.0
206.086273 52.0
206.129761 168.0
206.181076 120.0
207.157059 700.0
207.202301 184.0
208.091553 132.0
208.16394 392.0
208.197815 56.0
208.252396 156.0
208.375931 60.0
208.657639 72.0
208.732407 144.0
208.818695 36.0
209.025864 72.0
209.173828 428.0
209.449158 164.0
210.054581 116.0
210.177383 144.0
210.611786 168.0
211.146576 164.0
211.198654 76.0
211.861649 44.0
212.157303 80.0
213.208878 284.0
213.315781 140.0
215.098846 196.0
215.163071 136.0
215.183517 128.0
215.762085 48.0
216.991943 112.0
217.972458 180.0
218.407639 160.0
219.151215 172.0
219.653839 88.0
222.314178 48.0
223.1371 164.0
223.156525 176.0
223.199814 184.0
223.220367 220.0
224.16626 332.0
224.199051 484.0
224.307251 52.0
224.492142 56.0
224.575653 64.0
225.250366 152.0
226.171494 188.0
226.464981 108.0
227.929245 144.0
228.71431 96.0
230.080124 116.0
230.651154 180.0
233.066986 192.0
233.188004 280.0
234.820755 132.0
235.162537 244.0
235.196121 72.0
235.251068 104.0
235.969131 72.0
236.171448 120.0
236.415802 64.0
237.18161 188.0
238.194397 192.0
238.231262 44.0
239.144791 312.0
240.152374 128.0
240.451706 120.0
243.812561 200.0
245.045013 248.0
245.097992 124.0
245.671753 144.0
245.746643 196.0
247.243698 184.0
250.179001 176.0
251.164154 512.0
251.201675 704.0
251.288544 196.0
251.313797 160.0
252.173691 160.0
252.206406 292.0
252.296188 128.0
252.356277 60.0
252.697922 80.0
252.742218 116.0
252.793304 172.0
252.909988 164.0
253.055634 152.0
253.090469 144.0
253.118042 192.0
253.182251 15312.0
253.248291 208.0
253.345108 164.0
253.372391 176.0
253.432602 116.0
253.453918 80.0
253.505493 76.0
253.594604 72.0
253.653717 100.0
253.711563 156.0
253.752777 32.0
253.78891 80.0
253.909317 112.0
253.946243 56.0
254.019211 116.0
254.076324 52.0
254.186646 3000.0
254.269928 48.0
254.337128 116.0
254.377853 36.0
254.542984 48.0
254.689102 32.0
254.762177 60.0
254.816193 36.0
254.876572 60.0
255.070465 64.0
255.188171 584.0
255.560303 76.0
255.850677 164.0
256.007751 88.0
256.050629 136.0
256.200348 188.0
256.705627 112.0
256.755066 76.0
256.911377 96.0
257.077332 56.0
258.016571 96.0
258.134888 156.0
259.60498 44.0
261.027832 60.0
261.190613 92.0
261.855042 92.0
262.65451 152.0
263.843079 132.0
264.053314 60.0
264.179474 140.0
264.577606 144.0
265.147797 76.0
265.172913 308.0
265.202881 200.0
265.261261 36.0
265.9328 56.0
266.63446 124.0
268.464386 184.0
270.569 60.0
271.650635 188.0
275.274994 180.0
276.078156 128.0
276.961975 124.0
278.009857 120.0
278.072906 192.0
278.930023 204.0
279.096252 228.0
279.207886 6396.0
279.362366 28.0
279.422272 72.0
279.888336 68.0
279.944946 56.0
280.071533 132.0
280.210693 2012.0
280.264771 64.0
280.561462 40.0
280.618134 44.0
281.214752 192.0
281.783142 64.0
282.137482 124.0
282.291321 52.0
291.122162 116.0
293.197723 104.0
305.030121 132.0
307.215118 808.0
308.221893 500.0
308.251068 208.0
310.192322 112.0
322.21347 156.0
323.731323 176.0
324.246613 780.0
325.194305 68.0
325.252808 276.0
341.195801 196.0
344.805115 76.0
346.670624 204.0
349.214172 144.0
361.136353 84.0
375.511871 172.0
376.318512 184.0
379.716675 116.0
379.852478 108.0
382.292847 28.0
387.157898 64.0
387.702515 176.0
387.867157 140.0
393.335724 136.0
401.255402 136.0
404.321472 172.0
405.216797 52.0
405.328888 144.0
409.394958 36.0
411.225616 136.0
413.716034 52.0
415.479218 48.0
418.251099 144.0
418.365356 588.0
418.597229 60.0
419.285797 148.0
419.359344 172.0
419.807709 48.0
420.191193 80.0
420.2565 196.0
421.244629 32.0
428.713348 68.0
435.877716 40.0
445.199097 80.0
447.100037 192.0
447.364838 124.0
448.30426 172.0
453.906311 36.0
463.357483 124.0
463.468903 160.0
464.523743 120.0
467.428589 56.0
470.683594 72.0
471.305695 100.0
474.309662 88.0
478.302216 124.0
487.774139 32.0
498.631592 60.0
499.40979 48.0
506.906921 88.0
517.398865 96.0
523.279297 40.0
530.356628 188.0
537.361572 72.0
606.198181 80.0
607.218018 68.0
611.320862 124.0
614.825317 120.0
618.537781 160.0
658.512573 132.0
674.743347 72.0
679.685364 92.0
685.661438 52.0
689.905762 36.0
726.900269 64.0
730.312317 100.0
804.815125 64.0
837.263123 176.0
882.699219 108.0
923.252991 160.0
949.236389 188.0
973.753174 260.0
984.735352 152.0
989.739014 176.0
995.578003 72.0
1001.220032 156.0
1009.393555 196.0
1060.363525 108.0
1066.0625 148.0
1087.540039 136.0
1087.763184 28.0
1098.167847 112.0
1111.805542 140.0
1111.865356 208.0
1135.205078 188.0
1146.568237 188.0
1206.609863 112.0
1233.39917 160.0
1259.754883 196.0
1301.88562 164.0
1302.410034 184.0
1306.752686 108.0
1342.979858 176.0
1358.203613 148.0
1364.321533 48.0
1382.661499 108.0
1395.511353 164.0
1399.306396 140.0
1402.689087 72.0
1422.838257 240.0
1436.152222 252.0
1437.895386 188.0
1444.084106 196.0
1444.326172 152.0
1454.73938 132.0
1465.319702 160.0
1480.583862 208.0
1488.61438 244.0
1489.513062 196.0
1489.758911 172.0
1499.733032 176.0
