>compound MLS001076345-01!
>formula C25H32ClFO5
>ionization [M+H]+
>parentmass 467.1995064760905
#inchi InChI=1S/C25H32ClFO5/c1-5-21(31)32-25(20(30)13-26)14(2)10-18-17-7-6-15-11-16(28)8-9-22(15,3)24(17,27)19(29)12-23(18,25)4/h8-9,11,14,17-19,29H,5-7,10,12-13H2,1-4H3/t14-,17-,18-,19-,22-,23-,24-,25-/m0/s1
#inchikey CBGUOGMQLZIXBE
#Ion_Source LC-ESI
#Instrument qTof
#Compound_Source NIH Pharmacologically Active Library
#PI Dorrestein
#Data_Collector VP/LMS
#Scan -1
#Precursor_MZ 467.192
#ExactMass 466.192
#Charge 1
#CAS_Number N/A
#Pubmed_ID N/A
#Smiles CCC(=O)O[C@@]1([C@@H](C)C[C@H]2[C@@H]3CCC4=CC(=O)C=C[C@]4(C)[C@@]3(F)[C@@H](O)C[C@@]21C)C(=O)CCl
#INCHI_AUX N/A
#Library_Class 1
#SpectrumID CCMSLIB00000085299
#IonMode Positive
#UpdateWorkflowName UPDATE-SINGLE-ANNOTATED-GOLD
#LibraryQualityString Gold
#TaskID d252d724072548979f1f6f1ced849daf
##Scan# 2400
#SpectrumFile p3-H02_GH2_01_18307.mzXML
#LibraryName Pharm_Active_Library.mgf
#MQScore -1
#Organism Pharm_Active_Library
#TIC_Query 0
#RT_Query -1
#MZErrorPPM -1
#SharedPeaks 0
#MassDiff 0
#LibMZ -1
#SpecMZ 467.192
#SpecCharge 0
#internalFilename spec-00000.mgf

>collision 10
45.081432 144.0
45.122871 188.0
45.162991 180.0
45.260693 168.0
45.299538 48.0
45.385315 164.0
45.413479 128.0
45.433601 204.0
45.453506 100.0
45.559807 68.0
45.597431 92.0
45.705021 172.0
45.785797 180.0
46.186684 272.0
46.22998 208.0
46.311218 204.0
46.513268 148.0
46.623291 128.0
46.661354 136.0
46.723919 116.0
46.774273 92.0
46.901218 84.0
46.926865 128.0
47.072872 44.0
47.116585 100.0
47.301212 144.0
47.55069 172.0
47.591877 160.0
47.637199 156.0
47.734791 216.0
47.747169 100.0
47.758171 116.0
47.821468 32.0
47.876541 188.0
47.916492 100.0
47.96059 136.0
47.974377 100.0
48.033676 32.0
48.203506 212.0
48.230965 148.0
48.31551 88.0
48.33073 192.0
48.407166 168.0
48.481678 128.0
48.632862 180.0
48.677181 152.0
48.703403 220.0
48.732857 112.0
48.899738 132.0
48.94429 128.0
48.998615 52.0
49.013943 128.0
49.073879 196.0
49.093403 100.0
49.244141 148.0
49.288197 220.0
49.370281 192.0
49.509888 172.0
49.523895 56.0
49.651443 252.0
49.696335 136.0
49.707561 128.0
49.803032 128.0
49.984402 68.0
50.036484 56.0
50.143547 156.0
50.233795 176.0
50.304356 176.0
50.451286 56.0
50.461182 164.0
50.614002 204.0
50.742947 40.0
50.791168 132.0
50.811028 220.0
50.844532 184.0
51.008438 132.0
51.072426 176.0
51.224747 156.0
51.27747 148.0
51.507202 136.0
51.635849 144.0
51.718842 96.0
51.748905 156.0
51.770386 164.0
51.83485 108.0
51.851402 224.0
51.883587 120.0
51.907963 152.0
52.160664 208.0
52.223934 140.0
52.284367 104.0
52.419743 172.0
52.429832 192.0
52.447128 224.0
52.509132 156.0
52.522114 244.0
52.620251 108.0
52.859753 64.0
52.889153 80.0
52.915211 36.0
53.04995 140.0
53.278961 176.0
53.31205 184.0
53.331573 240.0
53.551292 180.0
53.564552 196.0
53.59063 44.0
53.605202 88.0
53.644554 148.0
53.708717 172.0
53.825481 224.0
53.91898 220.0
53.945293 224.0
53.956989 172.0
53.992085 164.0
54.011097 128.0
54.072556 176.0
54.103294 236.0
54.166267 168.0
54.226349 164.0
54.284992 196.0
54.304058 132.0
54.32753 136.0
54.353943 128.0
54.383293 156.0
54.396507 208.0
54.430634 196.0
54.665485 196.0
54.700813 112.0
54.731731 168.0
54.774445 52.0
54.815697 172.0
54.853516 164.0
55.017776 132.0
55.062077 228.0
55.075371 188.0
55.143341 128.0
55.329739 208.0
55.427498 104.0
55.504581 124.0
55.535728 156.0
55.595078 88.0
55.608433 120.0
55.751019 128.0
55.968212 60.0
56.153011 124.0
56.167263 160.0
56.324669 140.0
56.424801 100.0
56.442741 140.0
56.477802 76.0
56.522678 196.0
56.548965 152.0
56.592209 208.0
56.671768 216.0
56.69125 116.0
56.805206 192.0
57.150772 140.0
57.168831 176.0
57.331482 108.0
57.378788 136.0
57.402336 172.0
57.430992 88.0
57.507137 204.0
57.595528 168.0
57.720974 184.0
57.74971 152.0
57.770889 220.0
57.792072 164.0
57.845043 168.0
57.863213 140.0
57.902584 84.0
57.966213 116.0
58.089031 116.0
58.181606 204.0
58.224125 116.0
58.239315 92.0
58.286411 208.0
58.38979 116.0
58.443035 220.0
58.602921 40.0
58.62273 228.0
58.666931 48.0
58.788601 220.0
58.802696 128.0
58.857658 160.0
58.987526 164.0
59.068577 148.0
59.103863 192.0
59.149685 148.0
59.207867 128.0
59.218491 124.0
59.292133 204.0
59.319725 148.0
59.358059 136.0
59.425552 104.0
59.436295 104.0
59.603672 224.0
59.646709 176.0
59.677456 124.0
59.717442 204.0
59.809769 180.0
59.820541 168.0
59.869816 212.0
59.880596 172.0
60.192966 200.0
60.36676 232.0
60.449749 124.0
60.583462 176.0
60.653198 144.0
60.756481 180.0
60.924778 188.0
61.108242 172.0
61.246799 200.0
61.363686 112.0
61.404232 44.0
61.57436 120.0
61.660294 72.0
61.674358 108.0
61.689991 156.0
61.865211 160.0
61.876171 108.0
61.902946 160.0
62.023434 80.0
62.106541 148.0
62.175579 132.0
62.195984 188.0
62.239944 192.0
62.3232 160.0
62.337341 116.0
62.584316 148.0
62.776569 140.0
62.890167 128.0
63.119255 176.0
63.305992 124.0
63.331333 140.0
63.367771 124.0
63.508865 176.0
63.643768 212.0
63.745434 180.0
63.764027 160.0
63.902859 144.0
63.934685 188.0
64.006325 136.0
64.041359 40.0
64.100311 100.0
64.205528 124.0
64.248604 56.0
64.334785 172.0
64.395462 200.0
64.505722 252.0
64.646477 124.0
64.665688 164.0
64.766563 144.0
64.869118 152.0
64.881943 220.0
64.950905 268.0
65.055214 188.0
65.113022 200.0
65.410492 336.0
65.46846 140.0
65.505508 136.0
65.560295 48.0
65.69735 124.0
65.710258 124.0
65.724785 172.0
65.865242 164.0
65.904022 164.0
66.002625 184.0
66.031731 196.0
66.078644 108.0
66.102921 148.0
66.148239 136.0
66.222725 120.0
66.396156 132.0
66.444817 152.0
66.46846 344.0
66.638031 140.0
66.670532 144.0
66.813629 156.0
66.844543 200.0
67.018784 148.0
67.043228 132.0
67.367943 132.0
67.473312 212.0
67.783546 140.0
67.806488 120.0
67.847466 96.0
67.907364 76.0
68.062416 124.0
68.126472 64.0
68.182343 276.0
68.195488 72.0
68.238235 140.0
68.342583 244.0
68.486732 204.0
68.51474 124.0
68.58725 228.0
68.641663 48.0
68.670181 232.0
68.722488 256.0
68.813271 152.0
68.845215 128.0
68.897507 92.0
69.00824 164.0
69.127342 228.0
69.271393 132.0
69.294586 160.0
69.331497 176.0
69.362541 152.0
69.501854 200.0
69.689491 144.0
69.717743 140.0
69.792549 108.0
69.848389 244.0
69.870728 84.0
70.098969 268.0
70.152184 124.0
70.200539 180.0
70.342361 140.0
70.43959 164.0
70.497704 156.0
70.716805 208.0
70.810562 124.0
71.028473 156.0
71.060349 168.0
71.147621 112.0
71.340828 140.0
71.372772 196.0
71.404732 212.0
71.466972 104.0
71.482117 160.0
71.522072 200.0
71.542717 152.0
71.56881 152.0
71.603333 204.0
71.633652 152.0
71.662292 140.0
71.753311 140.0
71.780289 136.0
71.923706 180.0
72.016579 100.0
72.126411 220.0
72.185585 56.0
72.207573 144.0
72.398819 92.0
72.482101 176.0
72.505562 172.0
72.659874 164.0
72.69381 108.0
72.720184 156.0
72.78038 144.0
72.942543 176.0
72.968849 144.0
73.011612 184.0
73.081253 112.0
73.169762 84.0
73.220848 188.0
73.34864 200.0
73.485077 188.0
73.52774 180.0
73.599442 96.0
73.825012 60.0
73.866066 124.0
73.913971 176.0
73.984146 52.0
74.009834 140.0
74.189735 128.0
74.230888 148.0
74.323517 136.0
74.401619 156.0
74.496933 180.0
74.514114 132.0
74.57254 184.0
74.72216 88.0
74.744522 156.0
74.789276 176.0
74.854698 152.0
74.875366 120.0
75.02356 140.0
75.123581 116.0
75.144287 260.0
75.408173 164.0
75.519989 84.0
75.609138 212.0
75.692238 128.0
75.723412 92.0
75.778847 144.0
76.000793 148.0
76.103203 72.0
76.162254 172.0
76.174416 96.0
76.303017 156.0
76.389977 60.0
76.459579 148.0
76.731331 244.0
76.757484 128.0
76.794113 124.0
76.808067 176.0
76.862152 64.0
76.916252 172.0
76.933716 156.0
77.043739 96.0
77.073441 144.0
77.146851 192.0
77.293777 196.0
77.484634 164.0
77.802086 192.0
78.007629 120.0
78.047867 424.0
78.208168 120.0
78.285637 160.0
78.387817 172.0
78.412178 92.0
78.498878 40.0
78.51651 144.0
78.590607 216.0
78.721237 64.0
78.80426 92.0
78.844902 132.0
78.950981 132.0
79.069519 148.0
79.124397 112.0
79.241295 128.0
79.260788 204.0
79.292686 164.0
79.306862 156.0
79.399063 184.0
79.430992 196.0
79.517937 140.0
79.77906 104.0
79.924911 52.0
80.140541 208.0
80.409653 160.0
80.638275 192.0
80.743767 160.0
80.869011 100.0
81.003311 124.0
81.094757 128.0
81.216629 180.0
81.290192 172.0
81.390053 188.0
81.480522 96.0
81.550613 116.0
81.715202 184.0
81.748451 172.0
81.842056 292.0
81.870872 72.0
81.932114 184.0
82.024025 136.0
82.130417 48.0
82.310394 208.0
82.33799 176.0
82.413864 144.0
82.489769 192.0
82.589226 144.0
82.665222 160.0
82.811501 196.0
82.855347 192.0
82.942337 188.0
82.994911 184.0
83.130966 212.0
83.23336 180.0
83.298004 160.0
83.352516 144.0
83.407799 172.0
83.556168 200.0
83.736382 152.0
83.952148 204.0
84.101059 136.0
84.24897 180.0
84.270897 108.0
84.316582 84.0
84.486641 60.0
84.548859 240.0
84.753967 224.0
84.768623 136.0
84.867615 200.0
85.040062 172.0
85.05658 200.0
85.205338 208.0
85.22187 172.0
85.24025 168.0
85.315613 160.0
85.394684 220.0
85.621071 60.0
85.770317 116.0
86.271194 124.0
86.327919 56.0
86.45002 68.0
86.559242 100.0
86.842804 56.0
86.924431 112.0
86.982079 140.0
87.134254 120.0
87.199295 192.0
87.307137 176.0
87.435509 160.0
87.631042 164.0
87.730835 212.0
87.802544 168.0
87.867828 148.0
87.908882 120.0
87.963013 164.0
88.000351 168.0
88.082527 60.0
88.213341 152.0
88.271301 164.0
88.29187 136.0
88.312447 144.0
88.35173 192.0
88.553902 112.0
88.730057 180.0
88.754433 168.0
88.806946 144.0
88.985222 112.0
89.225716 140.0
89.241798 128.0
89.393127 148.0
89.496666 160.0
89.526794 208.0
89.573883 152.0
89.59272 48.0
89.622864 84.0
89.636055 144.0
89.673752 168.0
89.745392 52.0
89.822716 128.0
89.943489 100.0
90.279808 228.0
90.476601 172.0
90.493019 160.0
90.545013 152.0
90.660339 140.0
90.700142 132.0
90.762703 124.0
90.821503 204.0
90.984703 160.0
91.015083 136.0
91.053955 1424.0
91.153755 148.0
91.395256 52.0
91.452568 176.0
91.496132 168.0
91.686623 128.0
92.05674 376.0
92.381676 188.0
92.442902 200.0
92.467781 184.0
92.5103 76.0
92.555847 264.0
92.803032 156.0
92.843307 184.0
92.883583 128.0
92.937302 184.0
92.991035 164.0
93.015991 176.0
93.068611 208.0
93.085114 56.0
93.190765 128.0
93.244568 132.0
93.298393 200.0
93.444565 72.0
93.471504 156.0
93.554268 160.0
93.573524 220.0
93.698715 232.0
93.783508 208.0
93.903053 248.0
94.047768 208.0
94.07093 156.0
94.123062 176.0
94.153961 84.0
94.227371 104.0
94.345261 184.0
94.39167 224.0
94.501923 144.0
94.654846 164.0
94.697456 112.0
94.815643 116.0
94.895119 184.0
95.003731 168.0
95.044479 184.0
95.084213 812.0
95.125999 36.0
95.189583 112.0
95.2192 200.0
95.242508 184.0
95.314392 164.0
95.415466 64.0
95.557449 60.0
95.571075 160.0
95.787178 140.0
95.993782 196.0
96.03669 152.0
96.110825 140.0
96.370529 160.0
96.423294 132.0
96.481934 132.0
96.591454 192.0
96.605141 116.0
96.755836 284.0
96.826332 188.0
96.849838 96.0
96.871391 156.0
96.96936 164.0
97.059753 372.0
97.081116 172.0
97.261627 152.0
97.332306 160.0
97.38533 108.0
97.411522 208.0
97.442299 28.0
97.664452 148.0
97.720779 196.0
97.792351 52.0
97.825813 108.0
97.873062 140.0
97.902603 252.0
97.973518 184.0
97.995186 48.0
98.150909 180.0
98.194298 152.0
98.35807 104.0
98.634621 144.0
98.682068 156.0
98.715691 128.0
98.99868 32.0
99.085838 176.0
99.212685 112.0
99.246391 144.0
99.371353 164.0
99.597672 216.0
99.677147 136.0
99.69503 100.0
99.71888 48.0
99.800385 108.0
100.05706 200.0
100.110825 48.0
100.186516 192.0
100.333992 144.0
100.435699 72.0
100.475601 132.0
100.663231 160.0
100.695183 252.0
100.82505 140.0
100.895012 104.0
100.985268 180.0
101.007004 192.0
101.063026 184.0
101.077034 172.0
101.167099 200.0
101.253204 160.0
101.45359 140.0
101.471634 112.0
101.559868 180.0
101.652161 148.0
101.784653 332.0
101.816406 128.0
101.925262 116.0
101.993599 92.0
102.112236 172.0
102.148438 156.0
102.315475 52.0
102.424225 60.0
102.462502 196.0
102.486679 188.0
102.625763 160.0
102.739899 200.0
102.762924 220.0
102.79924 100.0
102.839607 144.0
102.987007 196.0
103.013268 172.0
103.053612 540.0
103.088028 52.0
103.134514 172.0
103.237633 156.0
103.263924 164.0
103.306404 224.0
103.324608 156.0
103.354286 168.0
103.389366 164.0
103.409599 148.0
103.446037 152.0
103.58577 116.0
103.68911 200.0
103.743843 164.0
104.025833 204.0
104.06221 224.0
104.156792 180.0
104.160133 208.0
104.241127 160.0
104.279747 156.0
104.350891 400.0
104.409866 136.0
104.430206 164.0
104.572639 184.0
104.603172 56.0
104.737633 132.0
104.953606 152.0
104.995071 144.0
105.028793 204.0
105.068527 1756.0
105.102509 112.0
105.220894 148.0
105.269905 132.0
105.331177 180.0
105.396553 80.0
105.466042 136.0
105.603043 184.0
105.69101 152.0
105.838394 216.0
105.897324 232.0
105.967606 48.0
105.996124 200.0
106.07135 576.0
106.141663 132.0
106.186783 160.0
106.223709 116.0
106.361191 80.0
106.389931 168.0
106.416626 148.0
106.435104 112.0
106.484459 132.0
106.513153 108.0
106.541908 220.0
106.961433 160.0
107.021141 108.0
107.04438 384.0
107.085121 2260.0
107.117943 136.0
107.167389 136.0
107.181808 40.0
107.309608 232.0
107.348785 220.0
107.487 176.0
107.52002 200.0
107.600525 192.0
107.740974 168.0
107.769897 192.0
107.873238 48.0
107.931129 176.0
107.945602 88.0
107.960075 224.0
108.022133 148.0
108.056313 324.0
108.091972 452.0
108.220818 152.0
108.287086 108.0
108.349236 140.0
108.403107 172.0
108.500526 52.0
108.585548 196.0
108.616661 168.0
108.664375 144.0
108.836662 104.0
108.907272 184.0
108.922997 84.0
108.948814 180.0
108.996605 252.0
109.063599 396.0
109.102318 1172.0
109.125481 184.0
109.175385 136.0
109.200348 120.0
109.242844 204.0
109.264832 60.0
109.337669 144.0
109.402191 156.0
109.458412 156.0
109.572975 44.0
109.73555 180.0
109.789764 120.0
110.038467 176.0
110.061058 112.0
110.09977 212.0
110.315956 136.0
110.341843 136.0
110.370316 232.0
110.41214 128.0
110.546036 96.0
110.805687 44.0
110.883217 124.0
110.977554 176.0
111.069832 144.0
111.092911 184.0
111.19783 156.0
111.533905 160.0
111.752625 172.0
111.879623 188.0
111.946289 176.0
112.0495 136.0
112.249748 276.0
112.306694 152.0
112.401634 188.0
112.445953 168.0
112.464943 136.0
112.521004 180.0
112.589516 124.0
112.87693 200.0
112.990028 196.0
113.016541 200.0
113.293907 76.0
113.435898 132.0
113.470161 148.0
113.522827 196.0
113.650108 220.0
113.771088 128.0
113.841156 172.0
113.866646 148.0
113.898506 112.0
113.960114 116.0
114.042999 144.0
114.057877 168.0
114.17907 144.0
114.193962 44.0
114.411018 208.0
114.430176 124.0
114.466103 156.0
114.592049 172.0
114.66024 260.0
114.747643 188.0
114.773232 148.0
114.938072 188.0
115.027122 172.0
115.054161 956.0
115.172325 116.0
115.189415 152.0
115.32618 48.0
115.390602 176.0
115.407417 172.0
115.448044 152.0
115.578537 128.0
115.717667 96.0
115.786194 216.0
115.835457 212.0
115.901878 164.0
115.942451 176.0
115.978775 236.0
115.986984 208.0
116.036911 172.0
116.060806 780.0
116.182755 228.0
116.260002 96.0
116.416908 168.0
116.622986 40.0
116.724297 192.0
116.745537 148.0
116.906883 148.0
117.029587 252.0
117.069183 996.0
117.094193 140.0
117.191132 44.0
117.2407 104.0
117.296738 152.0
117.32692 124.0
117.39592 176.0
117.453346 192.0
117.544769 160.0
117.633263 56.0
117.777946 128.0
118.043785 156.0
118.074066 312.0
118.115158 96.0
118.162018 364.0
118.253647 168.0
118.307762 80.0
118.476685 236.0
118.504852 48.0
118.563095 128.0
118.61203 184.0
118.691269 96.0
118.715118 164.0
118.986359 144.0
119.022728 160.0
119.042816 176.0
119.084114 2492.0
119.116425 144.0
119.125114 176.0
119.135406 140.0
119.173149 184.0
119.306107 172.0
119.80629 140.0
119.854225 156.0
119.963203 48.0
120.046059 168.0
120.088501 400.0
120.369026 124.0
120.484795 56.0
120.558815 140.0
120.733986 136.0
120.76461 132.0
120.779922 120.0
120.814919 136.0
120.832771 176.0
120.863052 156.0
120.898071 108.0
120.92749 208.0
120.972488 104.0
121.023834 168.0
121.064713 5684.0
121.100525 2644.0
121.209038 116.0
121.301094 60.0
121.34494 128.0
121.382217 184.0
121.479042 192.0
121.724548 176.0
121.797028 164.0
121.838768 236.0
122.066711 964.0
122.103516 472.0
122.172943 148.0
122.70813 164.0
122.743408 40.0
122.837257 248.0
122.860313 136.0
122.970032 72.0
123.055267 160.0
123.080589 140.0
123.109741 208.0
123.131821 80.0
123.171585 40.0
123.214226 172.0
123.235649 144.0
123.286476 156.0
123.496521 164.0
123.598289 108.0
123.868401 212.0
123.890556 72.0
123.914925 112.0
124.030167 96.0
124.185379 200.0
124.24971 156.0
124.331818 40.0
124.462791 100.0
124.674591 200.0
124.69606 40.0
124.713844 136.0
124.782761 152.0
124.814888 196.0
124.905075 88.0
124.95179 140.0
125.011871 136.0
125.034126 156.0
125.059586 184.0
125.087547 180.0
125.105362 164.0
125.183289 64.0
125.305801 188.0
125.328087 192.0
125.406082 144.0
125.430603 164.0
125.50029 140.0
125.562157 132.0
125.687088 140.0
125.722794 172.0
125.952774 196.0
126.111572 176.0
126.162834 136.0
126.35965 52.0
126.393211 128.0
126.49617 148.0
126.854034 208.0
126.926346 128.0
126.977928 152.0
126.993629 124.0
127.031761 188.0
127.053307 252.0
127.143951 156.0
127.368484 136.0
127.649429 224.0
127.849648 148.0
127.964455 164.0
128.038773 120.0
128.061874 1908.0
128.164917 184.0
128.392609 128.0
128.412903 140.0
128.437714 132.0
128.48735 164.0
128.568588 176.0
128.627274 64.0
128.728867 156.0
128.886993 44.0
128.977402 216.0
129.009888 196.0
129.069733 1292.0
129.146988 48.0
129.165085 60.0
129.235229 28.0
129.312607 204.0
129.382339 176.0
129.522751 116.0
129.538605 52.0
129.801514 128.0
129.935349 204.0
129.967117 164.0
130.028381 76.0
130.044281 164.0
130.076874 480.0
130.275894 216.0
130.446335 160.0
130.594147 128.0
130.612335 244.0
130.635086 164.0
130.696518 176.0
130.730652 184.0
130.817139 192.0
130.960602 120.0
131.006165 196.0
131.048172 320.0
131.083649 1520.0
131.129211 192.0
131.167969 240.0
131.252319 48.0
131.281967 204.0
131.448502 180.0
131.498718 208.0
131.699646 96.0
131.951019 160.0
132.031052 124.0
132.05603 644.0
132.090103 436.0
132.140854 60.0
132.193497 244.0
132.264435 76.0
132.319382 56.0
132.548279 56.0
132.589691 248.0
133.016327 156.0
133.045456 416.0
133.064041 1204.0
133.101059 1412.0
133.12883 156.0
133.154236 192.0
133.211517 208.0
133.229324 176.0
133.237564 132.0
133.246902 220.0
133.268951 116.0
133.351685 112.0
133.554031 112.0
133.57933 72.0
133.634552 64.0
133.650665 200.0
133.735809 192.0
133.756531 172.0
133.823288 104.0
133.896988 156.0
133.98912 172.0
134.009857 60.0
134.044556 148.0
134.06517 84.0
134.102859 332.0
134.159668 124.0
134.196564 100.0
134.212708 120.0
134.378769 244.0
134.420303 92.0
134.494171 64.0
134.556503 208.0
134.584198 160.0
134.665039 100.0
134.81752 172.0
134.965469 68.0
134.999847 152.0
135.039474 212.0
135.079742 3572.0
135.114151 412.0
135.148209 184.0
135.262726 136.0
135.291702 60.0
135.354218 68.0
135.42601 332.0
135.572815 188.0
135.673965 76.0
136.031235 176.0
136.082886 360.0
136.233276 160.0
136.319244 224.0
136.51918 176.0
136.570343 144.0
136.658752 40.0
136.789078 160.0
137.003326 120.0
137.051468 176.0
137.079636 284.0
137.15947 60.0
137.852661 64.0
137.908752 132.0
137.964859 164.0
138.027985 176.0
138.104019 168.0
138.259598 76.0
138.531204 208.0
138.699936 188.0
138.803085 148.0
138.835922 188.0
138.871109 248.0
139.029678 544.0
139.075241 136.0
139.094025 76.0
139.444016 84.0
139.479263 164.0
139.615646 184.0
139.667389 136.0
139.735611 144.0
139.815613 216.0
139.907425 164.0
139.968643 196.0
140.013382 160.0
140.161804 196.0
140.277283 148.0
140.534363 128.0
140.567398 172.0
140.588638 112.0
140.765686 176.0
140.791672 104.0
140.808197 156.0
141.036163 284.0
141.068848 1356.0
141.14212 176.0
141.198181 60.0
141.290436 164.0
141.466766 220.0
141.52002 140.0
141.595795 120.0
141.685806 128.0
141.85408 164.0
141.911545 84.0
142.076782 1168.0
142.444977 56.0
142.563766 156.0
142.699265 224.0
142.749207 208.0
142.865753 84.0
142.884781 160.0
142.946655 212.0
142.965683 36.0
143.024368 300.0
143.084457 2340.0
143.163284 32.0
143.188583 168.0
143.401535 160.0
143.444443 124.0
143.532654 180.0
143.551743 228.0
143.575592 68.0
143.606598 192.0
143.64476 172.0
143.677399 128.0
143.922348 208.0
143.962204 148.0
144.032715 144.0
144.057007 440.0
144.09375 324.0
144.17244 40.0
144.234589 40.0
144.301529 184.0
144.569443 48.0
144.859161 60.0
144.971771 52.0
145.026123 160.0
145.064102 2828.0
145.098999 1792.0
145.175552 64.0
145.209122 40.0
145.233109 192.0
145.32428 128.0
145.444275 100.0
145.499481 44.0
145.638779 224.0
145.744476 56.0
145.939178 148.0
145.968033 140.0
146.02095 44.0
146.068481 1220.0
146.091873 236.0
146.105362 372.0
146.155991 100.0
146.174072 204.0
146.204437 92.0
146.223969 224.0
146.292862 148.0
146.438858 120.0
146.447418 148.0
146.726517 172.0
146.791611 144.0
146.832611 212.0
146.913223 248.0
146.93634 136.0
146.97995 168.0
147.020798 184.0
147.079453 13232.0
147.117645 392.0
147.143906 60.0
147.29364 68.0
147.325043 68.0
147.385437 128.0
147.419464 52.0
147.47728 68.0
147.573975 136.0
147.605423 56.0
147.748123 168.0
147.777161 124.0
147.827972 116.0
147.917526 280.0
148.000809 332.0
148.044189 180.0
148.083481 1380.0
148.116089 180.0
148.133057 148.0
148.169388 128.0
148.27359 132.0
148.317215 132.0
148.372971 184.0
148.433594 240.0
148.479675 44.0
148.644638 136.0
148.715027 112.0
148.875259 36.0
148.91655 100.0
149.09288 956.0
149.230042 136.0
149.251389 144.0
149.349213 84.0
149.379669 192.0
149.486588 216.0
149.509796 92.0
149.692383 112.0
149.772751 80.0
149.916504 176.0
149.992065 172.0
150.023758 40.0
150.098511 168.0
150.24324 184.0
150.296921 120.0
150.560577 148.0
150.71936 184.0
150.888016 88.0
151.049881 172.0
151.070221 128.0
151.106506 176.0
151.144852 144.0
151.213364 188.0
151.370056 140.0
151.57338 228.0
151.762512 228.0
151.88475 152.0
152.05896 148.0
152.092499 216.0
152.21608 32.0
152.277481 164.0
152.309402 88.0
152.530563 164.0
152.725601 152.0
152.867523 192.0
152.887207 276.0
153.070129 628.0
153.113708 76.0
153.287186 152.0
153.557358 364.0
153.606689 100.0
153.631363 152.0
153.68071 200.0
153.767075 200.0
153.79422 200.0
153.811508 84.0
153.999161 168.0
154.072006 172.0
154.167175 64.0
154.285828 136.0
154.515839 140.0
154.741058 60.0
154.834625 208.0
154.894608 52.0
154.92186 168.0
155.045746 332.0
155.064896 300.0
155.084305 1124.0
155.112671 148.0
155.137466 404.0
155.192017 220.0
155.302795 208.0
155.539337 164.0
155.621262 136.0
155.668442 140.0
155.911911 120.0
155.971573 148.0
156.00885 120.0
156.041061 260.0
156.050964 248.0
156.057358 180.0
156.093628 732.0
156.41684 72.0
156.708221 96.0
156.837814 120.0
156.875198 104.0
156.992264 144.0
157.042587 376.0
157.065063 940.0
157.100952 1276.0
157.259354 44.0
157.439117 132.0
157.643982 136.0
157.8255 240.0
157.925034 144.0
157.976532 200.0
158.026566 152.0
158.071259 2436.0
158.108078 132.0
158.149185 44.0
158.184235 108.0
158.211197 156.0
158.335831 176.0
158.364532 124.0
158.464737 84.0
158.58252 48.0
158.69783 96.0
158.745483 176.0
158.825745 152.0
158.913544 52.0
158.943665 124.0
159.080566 6984.0
159.116821 276.0
159.13945 56.0
159.254974 44.0
159.287903 108.0
159.335358 136.0
159.366714 116.0
159.413788 168.0
159.443405 140.0
159.513794 136.0
159.574127 120.0
159.647049 132.0
159.679749 184.0
159.757721 112.0
159.787918 132.0
159.928848 28.0
160.027023 68.0
160.083908 1576.0
160.124268 336.0
160.180649 136.0
160.276398 60.0
160.437698 80.0
160.672256 164.0
160.851425 132.0
160.939789 172.0
161.024429 172.0
161.058212 820.0
161.095093 3936.0
161.1409 200.0
161.194931 52.0
161.249405 144.0
161.351639 56.0
161.496567 104.0
161.751358 40.0
161.784271 200.0
161.956467 104.0
162.060211 160.0
162.0672 152.0
162.101028 824.0
162.143219 176.0
162.18959 172.0
162.235214 48.0
162.25296 108.0
162.275787 160.0
162.478683 168.0
162.524353 108.0
162.750259 184.0
162.882339 52.0
163.022079 48.0
163.039871 132.0
163.074097 792.0
163.105576 228.0
163.24324 188.0
163.263596 64.0
163.299194 136.0
163.444214 36.0
163.462021 268.0
163.814926 260.0
163.859253 32.0
163.905106 32.0
163.939041 64.0
164.078537 228.0
164.259506 68.0
164.747101 140.0
164.772644 204.0
164.994995 164.0
165.044937 204.0
165.067688 1344.0
165.095932 236.0
165.118286 224.0
165.181686 176.0
165.286591 184.0
165.3992 156.0
165.492325 148.0
165.570755 148.0
165.591232 208.0
165.72702 240.0
166.074219 420.0
166.252701 184.0
166.314301 136.0
166.527252 176.0
166.571091 204.0
166.655869 184.0
166.915497 96.0
166.94635 200.0
167.060867 1544.0
167.084869 804.0
167.372147 156.0
167.445648 60.0
167.463669 140.0
167.59581 176.0
167.989532 64.0
168.038239 168.0
168.056396 224.0
168.087051 328.0
168.21405 168.0
168.276001 164.0
168.322479 80.0
168.399963 120.0
168.438705 116.0
168.459381 92.0
168.511047 72.0
168.534302 68.0
168.653183 168.0
168.740707 248.0
168.870377 80.0
168.891068 136.0
168.999725 60.0
169.063263 1596.0
169.100479 1016.0
169.223083 96.0
169.328506 164.0
169.439896 52.0
169.516983 120.0
169.559097 112.0
169.618713 136.0
169.691299 144.0
169.817719 192.0
169.903976 112.0
170.035995 164.0
170.0737 476.0
170.106918 572.0
170.18042 128.0
170.358307 96.0
170.41806 116.0
170.44664 148.0
170.472626 92.0
170.609512 212.0
170.706604 64.0
170.878281 160.0
170.919907 104.0
171.079956 9740.0
171.112488 736.0
171.148972 140.0
171.167206 48.0
171.195847 44.0
171.245331 44.0
171.297424 80.0
171.318268 64.0
171.357346 48.0
171.386017 52.0
171.40686 60.0
171.431274 108.0
171.508499 148.0
171.547607 32.0
171.576279 32.0
171.602356 184.0
171.653656 244.0
171.756226 144.0
171.795349 48.0
171.844925 52.0
171.868408 36.0
171.891891 84.0
172.057892 336.0
172.083115 1232.0
172.128281 252.0
172.312286 256.0
172.351486 68.0
172.424652 44.0
172.458633 60.0
172.499451 176.0
172.557968 136.0
172.934998 164.0
173.002151 144.0
173.058502 576.0
173.094177 4388.0
173.159851 48.0
173.178192 108.0
173.19545 140.0
173.257584 156.0
173.35762 140.0
173.379929 132.0
173.41925 92.0
173.446533 88.0
173.516235 88.0
173.592285 52.0
173.618515 40.0
173.64473 76.0
173.665726 152.0
173.731293 80.0
173.757538 76.0
173.852005 80.0
173.896622 32.0
174.066772 64.0
174.098572 844.0
174.182831 44.0
174.214355 160.0
174.369385 40.0
174.466644 304.0
174.500824 104.0
174.545532 108.0
174.771744 36.0
174.913864 160.0
175.090118 388.0
175.10762 720.0
175.150864 96.0
175.337936 68.0
175.374832 124.0
175.411743 104.0
175.576935 172.0
175.601593 108.0
175.780991 100.0
175.860168 28.0
176.021225 108.0
176.074036 196.0
176.118942 140.0
176.159882 152.0
176.203476 112.0
176.35939 188.0
176.391113 128.0
176.462494 32.0
176.84079 168.0
176.867264 276.0
176.888428 68.0
177.087341 452.0
177.126053 192.0
177.402359 96.0
177.468643 168.0
177.523788 156.0
177.659607 148.0
177.765747 124.0
177.972794 36.0
178.077103 436.0
178.112396 160.0
178.498932 140.0
178.600006 176.0
178.658524 152.0
178.69046 160.0
178.804886 104.0
178.844803 112.0
178.868759 44.0
178.956619 168.0
178.993896 192.0
179.028519 100.0
179.057632 116.0
179.083313 1048.0
179.11171 204.0
179.132401 76.0
179.286942 88.0
179.332245 88.0
179.366898 48.0
179.396225 132.0
179.481537 176.0
179.582886 188.0
179.871063 120.0
179.908447 136.0
179.956497 48.0
179.977859 48.0
180.063309 160.0
180.092117 464.0
180.159485 28.0
180.188873 160.0
180.378616 48.0
180.450485 152.0
180.956482 136.0
181.064941 528.0
181.097153 328.0
181.141281 92.0
181.181458 112.0
181.267212 80.0
181.462875 76.0
181.540649 72.0
181.739151 152.0
181.885117 128.0
182.044022 328.0
182.070175 436.0
182.101578 144.0
182.225143 208.0
182.319199 188.0
182.464355 176.0
182.577286 124.0
183.079239 760.0
183.118713 452.0
183.242188 216.0
183.342422 100.0
183.382324 68.0
183.487457 224.0
183.519806 216.0
183.682022 188.0
183.862411 176.0
183.881302 116.0
183.97847 60.0
184.027069 124.0
184.064514 312.0
184.083557 832.0
184.123093 144.0
184.280975 48.0
184.337723 84.0
184.413391 76.0
184.675659 164.0
184.786575 228.0
184.981445 104.0
185.005798 60.0
185.094696 5464.0
185.19989 184.0
185.211258 124.0
185.217224 148.0
185.249817 80.0
185.292068 92.0
185.34166 92.0
185.436508 36.0
185.6073 32.0
185.7108 164.0
185.753052 212.0
185.771194 160.0
185.99678 304.0
186.100204 1388.0
186.180405 108.0
186.283127 64.0
186.380936 164.0
186.427124 60.0
186.568466 88.0
186.611267 168.0
186.943832 128.0
187.006439 200.0
187.07402 3572.0
187.111145 904.0
187.147995 84.0
187.210632 112.0
187.34137 108.0
187.376785 88.0
187.395859 140.0
187.595535 200.0
187.671158 188.0
187.852844 188.0
187.894821 80.0
187.91391 76.0
187.946655 124.0
188.075821 352.0
188.109207 300.0
188.342529 144.0
188.585709 92.0
188.943954 240.0
188.998672 172.0
189.020569 172.0
189.082169 316.0
189.087112 444.0
189.113846 332.0
189.201218 232.0
189.255966 160.0
189.32991 112.0
189.362778 140.0
189.518936 192.0
189.598404 76.0
189.705307 88.0
189.820465 80.0
189.88353 152.0
190.034409 92.0
190.078537 540.0
190.119675 172.0
190.363815 176.0
190.525879 156.0
190.561584 96.0
190.594559 216.0
190.924454 100.0
190.965698 196.0
191.08461 1276.0
191.11702 204.0
191.147278 180.0
191.172043 124.0
191.264389 196.0
191.81105 140.0
191.846878 84.0
192.088272 440.0
192.169571 48.0
192.205444 112.0
192.683121 112.0
192.98439 100.0
193.034164 192.0
193.073639 380.0
193.099365 1708.0
193.133728 204.0
193.197357 48.0
193.22226 56.0
193.269302 52.0
193.321014 64.0
193.518417 48.0
193.540558 192.0
193.706741 228.0
194.000488 72.0
194.070236 456.0
194.10968 432.0
194.258392 172.0
194.319824 140.0
194.585876 48.0
194.771957 176.0
194.80806 136.0
195.077591 1216.0
195.113861 572.0
195.224991 64.0
195.316788 176.0
195.425278 160.0
195.656296 132.0
195.750961 92.0
195.801086 176.0
195.826157 96.0
196.054626 224.0
196.087921 1508.0
196.115067 244.0
196.238602 80.0
196.321014 188.0
196.399323 140.0
196.4422 120.0
196.503571 40.0
196.617981 152.0
196.669693 152.0
197.011703 232.0
197.096573 2268.0
197.481323 136.0
197.526077 220.0
197.875916 56.0
197.943115 60.0
198.035538 192.0
198.066345 344.0
198.101212 1740.0
198.175598 116.0
198.214828 84.0
198.31012 152.0
198.371796 168.0
198.694305 44.0
198.761642 152.0
198.924759 176.0
198.946899 76.0
199.008667 136.0
199.075104 1052.0
199.110886 1280.0
199.171555 52.0
199.210052 68.0
199.238968 180.0
199.281113 44.0
199.407578 188.0
199.618423 68.0
199.657806 76.0
199.818146 180.0
199.941956 92.0
200.034851 44.0
200.079788 428.0
200.110001 444.0
200.147461 104.0
200.246033 36.0
200.276642 180.0
200.505234 40.0
200.534286 224.0
200.623627 32.0
200.694122 120.0
200.758972 144.0
200.908463 176.0
201.012863 124.0
201.038269 52.0
201.086655 276.0
201.12175 332.0
201.170929 56.0
201.258453 48.0
201.354477 108.0
201.534424 160.0
201.693527 136.0
202.082687 232.0
202.112106 164.0
202.137573 212.0
202.307404 156.0
202.332886 152.0
202.820145 164.0
203.079391 388.0
203.31366 168.0
203.415848 136.0
204.040848 120.0
204.093735 904.0
204.840546 196.0
204.968765 92.0
205.036423 316.0
205.056808 204.0
205.100311 1900.0
205.148331 40.0
205.521957 168.0
205.687485 68.0
205.790268 128.0
206.013031 96.0
206.038742 148.0
206.072021 280.0
206.104111 472.0
206.111862 704.0
206.178757 156.0
206.261658 172.0
206.547607 300.0
206.642014 164.0
207.07225 972.0
207.118027 488.0
207.770859 148.0
208.00618 64.0
208.046371 164.0
208.086334 2496.0
208.119354 144.0
208.125366 264.0
208.201431 116.0
208.301971 188.0
208.360641 180.0
208.428375 136.0
208.45137 116.0
208.531845 72.0
208.66568 108.0
208.715836 96.0
208.997726 148.0
209.043762 192.0
209.093781 3340.0
209.134171 308.0
209.17041 44.0
209.299973 236.0
209.397888 44.0
209.697525 88.0
210.069504 232.0
210.100845 1616.0
210.147125 152.0
210.236862 132.0
210.363861 56.0
210.557327 124.0
210.92717 84.0
210.967651 132.0
211.03125 132.0
211.073166 724.0
211.109955 2292.0
211.233704 56.0
211.287552 188.0
211.36969 168.0
211.482559 72.0
211.52887 168.0
211.589661 124.0
211.792374 52.0
211.916946 64.0
212.088791 176.0
212.116837 796.0
212.496841 48.0
212.556747 180.0
212.576035 180.0
212.717407 152.0
212.752243 28.0
212.775467 188.0
212.829468 88.0
212.882904 196.0
212.984558 136.0
213.061691 444.0
213.090317 392.0
213.125961 3876.0
213.420502 40.0
213.446671 172.0
213.563004 60.0
213.679367 136.0
213.746292 84.0
213.766663 48.0
213.970413 152.0
214.066513 156.0
214.09169 204.0
214.127533 928.0
214.177185 48.0
214.247101 84.0
214.655167 164.0
214.742661 160.0
215.084778 1272.0
215.117172 104.0
215.141098 160.0
215.516281 80.0
215.536743 140.0
215.852448 192.0
215.986984 144.0
216.033783 156.0
216.093903 508.0
216.143341 100.0
216.247406 288.0
216.276672 172.0
216.449402 100.0
216.554688 160.0
216.957382 236.0
217.045944 212.0
217.097717 472.0
217.302383 96.0
217.425629 232.0
217.590012 164.0
217.651672 52.0
217.954224 72.0
218.059845 192.0
218.103256 332.0
218.374634 116.0
218.501129 140.0
218.595276 244.0
218.904388 160.0
218.992737 44.0
219.077682 716.0
219.109375 600.0
219.18718 148.0
219.522186 96.0
220.086746 652.0
220.124634 628.0
220.193176 176.0
220.500732 208.0
220.562515 176.0
220.610489 176.0
220.695557 40.0
220.84935 52.0
220.926254 104.0
220.993546 124.0
221.041656 168.0
221.094971 3044.0
221.177795 28.0
221.24884 124.0
221.568695 120.0
221.663513 128.0
221.719833 64.0
221.79097 176.0
221.998505 40.0
222.101196 2348.0
222.215042 64.0
222.283295 140.0
222.434662 144.0
222.660324 36.0
222.7099 104.0
222.89502 52.0
222.987152 188.0
223.028259 168.0
223.040054 140.0
223.051773 140.0
223.109207 2624.0
223.163788 228.0
223.761383 132.0
223.835022 56.0
224.079834 240.0
224.11586 1512.0
224.40416 80.0
224.445892 216.0
224.827744 104.0
224.90535 164.0
224.97998 64.0
225.054871 140.0
225.093491 208.0
225.12854 844.0
225.168091 188.0
225.266663 56.0
225.610352 196.0
225.816681 52.0
226.079025 268.0
226.089111 300.0
226.130188 444.0
226.358368 216.0
226.397308 84.0
226.421265 156.0
226.445221 124.0
226.547073 132.0
226.86174 204.0
227.014664 112.0
227.102005 460.0
227.138046 508.0
227.191299 180.0
227.260635 64.0
227.362671 44.0
227.638855 148.0
227.725952 100.0
227.759003 156.0
227.837097 72.0
228.102524 224.0
228.124756 140.0
228.132446 132.0
228.492523 40.0
228.549683 148.0
228.748322 160.0
228.910919 172.0
229.034393 132.0
229.098251 700.0
229.495499 160.0
229.588989 152.0
229.643265 140.0
229.706619 180.0
230.017441 144.0
230.056686 108.0
230.108963 1992.0
230.189529 84.0
230.286179 108.0
230.482544 124.0
230.633652 100.0
230.67598 144.0
231.0056 176.0
231.078705 244.0
231.115387 1132.0
231.145599 252.0
231.23558 96.0
231.277954 152.0
231.317307 108.0
231.880707 32.0
232.0867 924.0
232.123398 372.0
232.271851 72.0
232.305222 64.0
232.408371 176.0
233.039948 168.0
233.093552 1636.0
233.133102 336.0
233.353012 56.0
233.407745 68.0
233.705841 76.0
233.766693 64.0
233.90062 40.0
234.034576 132.0
234.067551 180.0
234.102097 1744.0
234.168579 160.0
234.2173 160.0
234.314789 148.0
234.454971 104.0
234.613464 44.0
234.683594 148.0
234.912338 116.0
235.044876 188.0
235.109833 2960.0
235.148346 1744.0
235.238861 64.0
235.617554 180.0
235.687836 48.0
236.118713 1204.0
236.15004 620.0
236.369736 32.0
236.412582 196.0
236.458496 104.0
236.730972 188.0
237.028122 156.0
237.088318 312.0
237.125336 1796.0
237.199753 172.0
237.353043 76.0
237.484924 164.0
237.537064 184.0
237.77948 52.0
237.816299 40.0
238.13681 764.0
238.212433 60.0
238.356827 168.0
238.535095 176.0
238.716492 196.0
238.824142 40.0
238.959503 232.0
239.108414 316.0
239.142731 820.0
239.187241 164.0
239.390442 120.0
239.6492 168.0
240.019089 60.0
240.0746 104.0
240.110733 172.0
240.144043 140.0
240.840042 168.0
240.911087 88.0
240.991409 204.0
241.105377 196.0
241.123505 236.0
241.157761 320.0
241.38089 160.0
241.770691 160.0
242.005951 168.0
242.103165 424.0
242.19487 144.0
242.452026 124.0
242.510925 32.0
242.548111 32.0
242.889221 68.0
243.114136 972.0
243.208817 64.0
243.632034 256.0
243.730576 32.0
243.758545 148.0
244.122009 416.0
244.200012 136.0
244.308899 120.0
244.577316 124.0
245.09436 536.0
245.128433 888.0
245.205688 68.0
245.235855 112.0
245.386505 176.0
245.529938 120.0
245.619583 112.0
245.685913 108.0
245.913712 132.0
246.041702 156.0
246.102631 1052.0
246.138641 624.0
246.488358 88.0
246.547729 32.0
246.585236 188.0
246.779053 60.0
246.922897 120.0
247.001099 128.0
247.056763 192.0
247.108612 1972.0
247.145599 564.0
247.267059 76.0
247.371964 148.0
247.426712 48.0
247.451752 92.0
247.473679 116.0
247.539429 96.0
247.564484 116.0
247.667847 108.0
247.952972 96.0
247.981186 100.0
248.009384 192.0
248.060944 188.0
248.118866 4984.0
248.156555 320.0
248.216309 60.0
248.266479 112.0
248.467239 84.0
248.551956 60.0
249.039764 288.0
249.124939 3944.0
249.159683 536.0
249.28363 76.0
249.396774 116.0
249.497375 144.0
249.557114 96.0
249.591705 104.0
249.616852 124.0
249.940857 56.0
250.025833 116.0
250.133484 1536.0
250.169434 272.0
250.280823 56.0
250.302872 56.0
250.435135 84.0
250.460342 48.0
250.59581 44.0
250.702942 40.0
250.81543 128.0
250.854233 128.0
250.942261 100.0
251.005585 376.0
251.04657 140.0
251.102081 344.0
251.140778 1108.0
251.440933 172.0
251.750336 128.0
251.791382 52.0
251.927216 156.0
251.965134 104.0
252.056763 212.0
252.112015 288.0
252.148193 540.0
252.193619 172.0
252.224258 108.0
252.575256 92.0
252.954987 60.0
253.059937 188.0
253.09993 464.0
253.158936 2692.0
253.603043 96.0
253.680435 60.0
253.753357 56.0
253.915085 60.0
253.997559 52.0
254.114716 196.0
254.120941 148.0
254.132996 264.0
254.160141 428.0
254.427811 76.0
254.505356 164.0
254.597443 88.0
255.020004 88.0
255.064514 320.0
255.115173 332.0
255.178406 152.0
255.446106 140.0
255.536102 96.0
255.875748 88.0
255.993561 216.0
256.085907 104.0
256.127838 200.0
256.16806 208.0
256.503448 116.0
256.643616 176.0
256.994476 136.0
257.064697 360.0
257.086823 96.0
257.092804 296.0
257.106873 228.0
257.130157 304.0
257.176392 76.0
257.716125 64.0
257.738495 108.0
257.863129 208.0
257.971802 44.0
258.048523 172.0
258.10202 716.0
258.133514 356.0
258.585968 156.0
258.799469 156.0
258.832458 52.0
259.10965 1336.0
259.146637 920.0
259.184845 212.0
259.370728 56.0
259.770264 184.0
259.935181 160.0
259.967285 120.0
260.044312 164.0
260.117737 1476.0
260.155304 820.0
260.427765 104.0
260.477783 52.0
260.651306 224.0
260.68985 92.0
260.805573 200.0
260.950226 148.0
261.008118 136.0
261.076721 388.0
261.126831 2088.0
261.162231 2060.0
261.239685 48.0
261.299133 64.0
261.398285 136.0
261.564697 92.0
261.835175 48.0
262.028442 32.0
262.057434 128.0
262.132996 2384.0
262.206024 76.0
262.268677 148.0
262.370087 116.0
262.519531 92.0
262.563568 68.0
262.618378 156.0
262.70224 92.0
262.76355 60.0
262.876495 64.0
263.024139 212.0
263.103882 1136.0
263.142029 17784.0
263.261322 96.0
263.292938 76.0
263.346161 76.0
263.406006 100.0
263.44574 152.0
263.477081 48.0
263.535217 52.0
263.606323 64.0
263.641876 56.0
263.676331 132.0
263.726227 40.0
263.903717 88.0
263.942505 80.0
263.981689 72.0
264.020111 80.0
264.146332 4432.0
264.227142 32.0
264.249786 36.0
264.346863 44.0
264.41806 52.0
264.550781 88.0
264.612305 72.0
264.644684 68.0
264.683533 84.0
264.758026 72.0
264.796875 112.0
264.874634 68.0
264.97641 144.0
265.017181 80.0
265.112701 432.0
265.155518 348.0
265.320129 176.0
265.342773 72.0
265.457001 128.0
265.503418 68.0
265.548828 96.0
265.639648 160.0
265.691559 48.0
265.78241 116.0
265.830994 132.0
265.850952 160.0
265.883026 76.0
265.912231 80.0
265.957672 108.0
266.061951 64.0
266.091675 128.0
266.126495 120.0
266.168243 224.0
266.269379 56.0
266.428528 68.0
266.454529 84.0
266.505127 56.0
266.594238 180.0
266.620239 88.0
266.717773 144.0
266.870575 68.0
266.893311 140.0
266.940887 76.0
266.974609 108.0
267.089081 128.0
267.115112 124.0
267.171051 312.0
267.203705 132.0
267.322723 100.0
267.550568 208.0
268.00238 128.0
268.134064 156.0
268.34552 64.0
268.608337 76.0
269.134552 364.0
269.198029 192.0
269.236389 76.0
269.912842 204.0
270.079651 120.0
270.13324 304.0
270.311951 88.0
270.463318 80.0
271.012695 100.0
271.109589 872.0
271.150116 488.0
271.337189 140.0
271.39621 164.0
271.999878 168.0
272.117584 656.0
272.288818 76.0
272.377502 64.0
272.600922 44.0
272.949371 144.0
273.074341 148.0
273.127319 2368.0
273.429688 44.0
273.5383 88.0
273.614166 92.0
273.701141 104.0
273.893951 48.0
273.946655 40.0
274.015839 44.0
274.130402 1780.0
274.169434 208.0
274.365204 52.0
274.539948 72.0
274.599304 236.0
274.694977 208.0
274.727966 112.0
274.787354 72.0
274.906128 140.0
274.932556 56.0
275.104034 568.0
275.14093 1132.0
275.229645 76.0
275.421204 84.0
275.731781 148.0
275.84613 156.0
275.887146 192.0
276.108887 624.0
276.150452 1904.0
276.479248 148.0
276.799805 164.0
276.866577 196.0
277.065338 152.0
277.122681 1136.0
277.158295 5612.0
277.199188 176.0
277.270782 36.0
277.513092 204.0
277.565826 80.0
277.648743 28.0
277.997101 104.0
278.053497 96.0
278.079895 164.0
278.164215 9120.0
278.249359 164.0
278.309113 80.0
278.443085 108.0
278.571503 80.0
278.624664 68.0
278.687775 52.0
278.727661 64.0
278.83432 52.0
279.026794 164.0
279.06134 188.0
279.171112 3452.0
279.339417 68.0
279.379333 188.0
279.434753 108.0
279.462524 40.0
279.495789 52.0
279.546173 140.0
279.572327 52.0
279.665527 72.0
279.885254 212.0
279.926422 88.0
279.948517 132.0
280.025116 48.0
280.075073 136.0
280.110077 136.0
280.175934 1804.0
280.284973 48.0
280.311646 68.0
280.501617 40.0
280.80838 28.0
280.975189 228.0
281.047333 172.0
281.157471 952.0
281.298889 48.0
281.619446 36.0
281.759766 76.0
281.806549 96.0
281.94165 296.0
282.003723 84.0
282.063873 72.0
282.097321 192.0
282.154236 792.0
282.977203 56.0
283.054199 124.0
283.084351 112.0
283.120605 136.0
283.145874 252.0
283.404449 100.0
283.704224 100.0
283.832306 80.0
284.105957 164.0
284.140442 320.0
284.203979 192.0
284.858673 52.0
285.087341 144.0
285.130554 672.0
285.155426 300.0
286.008698 56.0
286.072662 144.0
286.13501 1564.0
286.170288 180.0
286.200592 164.0
286.274689 68.0
286.426239 56.0
286.972229 76.0
287.140564 1216.0
287.616577 124.0
287.768494 128.0
287.97113 36.0
288.079224 100.0
288.10553 148.0
288.148346 1708.0
288.342773 44.0
288.789093 64.0
289.113892 320.0
289.148621 552.0
289.706451 124.0
289.873962 104.0
289.997864 44.0
290.128387 296.0
290.170776 216.0
290.499725 76.0
290.621887 100.0
290.716888 60.0
290.978271 164.0
291.005432 56.0
291.134949 2292.0
291.173645 3520.0
291.49118 68.0
291.946716 68.0
292.079346 196.0
292.138428 792.0
292.175293 512.0
292.229034 32.0
292.412811 28.0
292.794342 68.0
293.063263 128.0
293.140717 272.0
293.179901 220.0
293.445007 156.0
293.854279 156.0
294.065857 32.0
294.158844 168.0
294.328735 84.0
294.605408 144.0
295.039429 156.0
295.090698 164.0
295.167175 208.0
295.812592 68.0
296.127625 216.0
296.175964 668.0
296.257782 116.0
296.597046 96.0
297.023468 56.0
297.045593 104.0
297.079834 152.0
297.100677 116.0
297.176392 128.0
297.324188 56.0
297.835785 152.0
297.92511 100.0
298.102142 140.0
298.167023 108.0
298.495667 76.0
298.61142 116.0
299.08902 208.0
299.142273 124.0
299.183807 124.0
299.211365 92.0
299.335327 156.0
299.555756 40.0
299.793488 68.0
300.096832 108.0
300.44519 180.0
300.717804 180.0
300.928375 64.0
301.056152 136.0
301.096771 140.0
301.157074 2740.0
301.28067 32.0
301.308319 68.0
301.788727 92.0
302.058502 92.0
302.093079 140.0
302.1633 848.0
302.629547 100.0
302.657257 76.0
303.097168 164.0
303.157806 120.0
303.811401 44.0
304.100952 172.0
304.145355 336.0
304.734955 100.0
304.960815 124.0
305.065125 100.0
305.145508 528.0
305.204193 164.0
305.256348 44.0
305.45459 68.0
305.712067 76.0
305.962677 52.0
306.077576 164.0
306.160583 1624.0
306.40152 40.0
306.596649 88.0
306.729095 60.0
306.811859 76.0
307.082916 120.0
307.163025 288.0
308.041199 116.0
308.069153 88.0
308.098755 148.0
308.16275 304.0
308.397614 48.0
308.803223 68.0
308.841705 76.0
309.069092 148.0
309.105804 156.0
309.141571 192.0
309.187988 316.0
310.116241 292.0
310.144287 76.0
310.179718 140.0
310.351105 68.0
311.122009 112.0
311.154602 40.0
311.193237 104.0
311.32666 44.0
311.997803 152.0
312.085693 112.0
312.131897 180.0
312.191193 124.0
312.542969 64.0
312.694305 204.0
313.098999 152.0
313.134766 468.0
313.282349 40.0
314.098175 132.0
314.146851 144.0
314.88382 236.0
315.094177 524.0
315.198242 140.0
315.541077 92.0
316.137115 184.0
316.181366 180.0
316.234436 36.0
316.432678 100.0
316.652252 40.0
317.102203 96.0
317.197937 152.0
317.54187 48.0
318.081207 68.0
318.109619 128.0
318.152222 48.0
318.315552 96.0
319.167236 424.0
320.166962 216.0
320.795471 160.0
321.020111 212.0
321.102142 104.0
321.134247 160.0
321.179321 172.0
322.062286 104.0
322.11084 316.0
323.116882 236.0
324.113922 156.0
324.164764 136.0
325.134308 108.0
325.191742 204.0
325.231232 172.0
326.111237 156.0
326.175934 132.0
326.895264 68.0
327.151184 768.0
327.478516 44.0
327.72348 60.0
328.029846 28.0
328.154755 272.0
329.139923 256.0
329.149597 288.0
330.15271 312.0
330.760803 148.0
331.127167 348.0
333.147888 124.0
334.143127 176.0
335.173553 108.0
335.199066 140.0
336.070587 136.0
336.884766 176.0
337.135437 684.0
337.202667 172.0
337.272095 36.0
338.128815 132.0
338.179108 116.0
338.508728 68.0
338.962982 136.0
339.126587 472.0
339.171875 64.0
339.527557 40.0
339.589905 44.0
340.114868 224.0
340.184357 144.0
340.312836 88.0
341.104462 160.0
341.532959 116.0
342.108368 400.0
344.681488 84.0
345.165375 556.0
346.1586 188.0
346.30191 88.0
349.157196 232.0
349.184509 188.0
350.127502 120.0
350.317444 44.0
352.672089 264.0
353.143219 128.0
353.461212 64.0
354.258728 144.0
355.141785 576.0
355.188416 36.0
355.469788 44.0
356.05545 148.0
356.14978 544.0
356.665222 28.0
356.765625 40.0
357.081512 120.0
357.141418 724.0
357.608246 52.0
358.082672 52.0
358.142761 188.0
358.70816 52.0
358.987183 68.0
359.23233 140.0
359.636108 72.0
361.170227 68.0
361.438843 76.0
362.173309 144.0
364.035553 140.0
366.97699 72.0
367.049438 28.0
367.73996 68.0
368.152313 48.0
369.157379 196.0
370.213623 108.0
370.485596 116.0
372.415131 32.0
373.152679 172.0
374.110962 164.0
374.145599 128.0
375.134644 148.0
376.15799 96.0
378.187378 124.0
379.237061 32.0
382.811432 120.0
385.79245 88.0
387.1698 136.0
389.975098 56.0
391.336243 36.0
393.153503 136.0
393.587738 76.0
394.164459 116.0
395.180695 136.0
396.146698 92.0
406.164612 108.0
409.17868 160.0
413.077209 124.0
414.50238 116.0
419.725922 28.0
420.399017 64.0
421.636475 68.0
421.922607 44.0
425.183228 112.0
425.281738 84.0
425.630707 80.0
427.225464 132.0
428.621246 68.0
428.728394 92.0
436.182861 108.0
439.593994 80.0
440.278656 48.0
443.08548 56.0
443.416534 136.0
445.199585 68.0
446.37207 112.0
448.118927 192.0
451.047791 128.0
452.680939 84.0
454.23526 304.0
455.242371 96.0
456.283417 84.0
459.895905 64.0
460.06665 132.0
461.493683 76.0
465.362823 180.0
465.410065 76.0
466.256348 48.0
468.300049 68.0
470.256653 280.0
471.29834 56.0
484.236603 116.0
484.98587 108.0
494.628357 80.0
496.387299 76.0
496.418335 116.0
498.069397 44.0
500.034729 80.0
501.754181 72.0
502.914062 96.0
515.616272 76.0
519.03418 60.0
523.237122 84.0
523.300903 68.0
525.634705 40.0
528.920837 56.0
531.354309 72.0
533.287598 52.0
537.25708 40.0
541.231995 108.0
549.720276 108.0
549.967651 88.0
551.560486 96.0
552.856079 96.0
554.326599 64.0
565.271667 84.0
572.962952 120.0
578.507629 88.0
581.844421 52.0
585.311157 100.0
587.750244 84.0
605.568359 56.0
612.972168 80.0
619.320801 64.0
627.376099 176.0
639.493774 64.0
641.060059 20.0
647.846008 116.0
658.278198 80.0
687.410767 52.0
688.32428 256.0
688.606323 76.0
700.661133 72.0
704.924561 88.0
708.151855 76.0
754.036377 92.0
757.231628 64.0
766.350952 76.0
767.133545 72.0
769.925598 104.0
775.164551 172.0
775.336365 124.0
775.940613 124.0
778.420898 192.0
779.259644 116.0
783.237427 80.0
786.332031 92.0
790.842651 140.0
792.001709 112.0
793.42511 60.0
797.017334 48.0
800.251587 164.0
801.468262 88.0
806.688965 132.0
817.448608 92.0
821.163147 60.0
826.436096 136.0
832.070312 200.0
865.018494 268.0
871.181946 216.0
871.364075 228.0
879.63269 108.0
892.762817 160.0
897.28241 152.0
910.909546 140.0
914.342896 156.0
916.408447 80.0
919.954773 204.0
922.619019 40.0
925.838135 160.0
931.922546 240.0
934.616211 192.0
939.606384 68.0
943.594666 112.0
950.375061 64.0
968.054565 168.0
969.82196 76.0
970.055908 180.0
976.818542 184.0
983.548584 72.0
987.603882 184.0
994.979797 144.0
1001.721558 164.0
1003.133179 148.0
1010.130188 72.0
1010.838806 96.0
1013.10553 164.0
1021.148254 172.0
1026.689209 188.0
1026.784912 96.0
1031.31189 176.0
1040.934937 100.0
1041.088989 72.0
1042.104004 112.0
1043.865234 204.0
1053.69519 32.0
1054.140991 140.0
1055.446777 204.0
1057.601196 100.0
1058.624146 184.0
1061.819214 184.0
1062.416016 196.0
1063.668457 196.0
1068.484131 168.0
1071.172729 36.0
1079.625366 92.0
1079.769287 80.0
1082.950317 72.0
1084.503174 192.0
1086.273682 140.0
1087.303833 48.0
1089.096313 168.0
1092.27124 52.0
1099.928467 92.0
1101.460449 156.0
1104.904785 188.0
1106.062866 224.0
1107.698486 64.0
1109.109985 148.0
1109.209351 64.0
1111.139282 140.0
1111.68335 104.0
1115.901367 172.0
1116.958862 168.0
1118.123291 120.0
1119.980957 168.0
1120.933716 144.0
1122.213501 156.0
1123.894409 220.0
1124.134644 188.0
1126.03064 148.0
1126.224365 176.0
1127.126465 180.0
1127.513916 224.0
1127.975098 48.0
1131.62793 108.0
1139.542603 224.0
1139.616455 200.0
1140.624634 168.0
1141.639893 200.0
1143.140015 172.0
1145.429321 172.0
1146.116455 160.0
1148.442383 68.0
1148.732422 56.0
1149.346436 196.0
1154.487183 36.0
1157.728882 144.0
1158.162354 136.0
1158.311401 176.0
1160.541138 80.0
1162.698364 232.0
1173.616943 148.0
1174.032959 144.0
1175.178955 56.0
1176.557617 204.0
1179.050903 84.0
1179.337891 124.0
1181.977905 64.0
1182.600586 220.0
1187.286255 160.0
1187.650635 148.0
1192.009277 136.0
1192.711304 128.0
1192.876343 164.0
1194.127808 180.0
1203.099731 104.0
1203.237793 208.0
1205.026733 188.0
1205.565674 168.0
1207.90271 136.0
1208.096436 172.0
1208.356689 296.0
1210.532837 176.0
1211.433228 160.0
1211.786621 180.0
1212.236938 168.0
1215.794678 88.0
1216.252808 132.0
1216.301392 180.0
1219.385376 168.0
1219.913696 108.0
1222.264526 132.0
1222.793457 144.0
1224.86145 80.0
1226.568726 68.0
1226.659302 208.0
1226.729126 220.0
1229.135376 44.0
1231.145874 148.0
1232.235596 144.0
1233.053223 112.0
1235.171875 120.0
1238.300659 216.0
1240.683228 156.0
1243.215454 144.0
1246.804199 152.0
1251.193604 176.0
1251.376587 108.0
1254.610474 100.0
1256.126709 184.0
1256.93811 192.0
1259.840088 172.0
1260.447754 112.0
1264.160278 196.0
1268.551758 148.0
1268.970093 152.0
1269.870728 164.0
1272.006592 72.0
1273.78894 112.0
1277.314819 156.0
1278.282471 180.0
1279.877075 200.0
1280.418213 44.0
1280.496582 28.0
1284.431152 196.0
1285.922485 152.0
1286.507812 148.0
1291.28833 168.0
1293.127197 140.0
1298.995728 244.0
1303.964722 216.0
1304.906372 120.0
1306.575073 204.0
1307.100342 176.0
1307.273071 152.0
1311.421509 192.0
1312.517334 156.0
1312.683228 180.0
1313.483765 64.0
1315.22998 316.0
1322.921631 200.0
1327.109375 156.0
1328.770264 164.0
1329.002441 176.0
1329.503174 176.0
1330.54126 124.0
1333.723145 188.0
1341.738281 140.0
1345.532104 76.0
1349.060791 172.0
1349.791992 132.0
1350.779419 208.0
1351.028076 120.0
1351.101318 188.0
1352.081787 120.0
1354.073242 220.0
1354.86438 184.0
1356.278809 160.0
1356.52063 244.0
1357.818481 180.0
1359.476562 68.0
1360.548218 164.0
1361.047485 196.0
1361.679077 236.0
1363.861328 216.0
1364.339233 120.0
1365.898315 132.0
1366.133667 172.0
1367.178467 256.0
1367.634888 188.0
1368.238525 168.0
1368.901245 200.0
1369.814453 192.0
1370.831299 112.0
1372.836548 184.0
1374.024048 144.0
1376.046387 152.0
1376.607544 180.0
1377.457031 224.0
1378.986572 76.0
1382.588501 200.0
1383.765503 96.0
1384.313354 188.0
1386.943604 168.0
1387.106689 140.0
1390.44458 148.0
1391.261108 76.0
1391.810547 180.0
1392.64978 188.0
1392.954346 200.0
1394.150513 192.0
1395.109375 220.0
1399.789551 120.0
1403.791382 136.0
1405.656372 64.0
1405.850342 136.0
1406.75354 164.0
1408.523315 116.0
1408.687744 156.0
1409.2854 180.0
1410.578369 124.0
1412.118774 172.0
1413.248413 204.0
1414.932495 156.0
1415.494019 116.0
1416.625 136.0
1416.729858 104.0
1418.183716 156.0
1419.413208 180.0
1420.498901 180.0
1421.483643 144.0
1422.369263 64.0
1423.675781 84.0
1424.494507 136.0
1426.034912 112.0
1432.167236 156.0
1432.468506 132.0
1432.573975 176.0
1433.365112 136.0
1433.937866 144.0
1437.437256 68.0
1438.752197 196.0
1438.901611 124.0
1441.114624 148.0
1441.25061 120.0
1441.386719 152.0
1441.968628 160.0
1443.495728 84.0
1445.704712 176.0
1447.521606 140.0
1448.203247 80.0
1449.741333 64.0
1449.991455 104.0
1451.439331 192.0
1455.863647 200.0
1456.220581 204.0
1457.588135 288.0
1457.930054 80.0
1458.173218 192.0
1459.283203 144.0
1459.720459 160.0
1460.063477 200.0
1461.100952 80.0
1461.785767 124.0
1462.508789 164.0
1464.633301 100.0
1465.943726 148.0
1466.332397 160.0
1467.102295 184.0
1467.369141 176.0
1470.405273 124.0
1471.244995 160.0
1471.45874 164.0
1471.596191 156.0
1476.035645 188.0
1476.462891 144.0
1476.517456 64.0
1479.06543 208.0
1479.532471 136.0
1480.167969 152.0
1480.236816 152.0
1480.305786 152.0
1480.613525 224.0
1481.132935 68.0
1481.332153 200.0
1482.036987 100.0
1482.787964 144.0
1483.34082 144.0
1484.658691 108.0
1486.684082 36.0
1487.689575 116.0
1487.958252 224.0
1489.985962 108.0
1496.708496 112.0
1497.054932 156.0
1497.131958 180.0
1497.27832 168.0
1497.494019 156.0
1497.569214 176.0
1497.77124 40.0
1498.410645 120.0
1498.657227 112.0
1501.432495 152.0
1501.787231 184.0
1501.9646 192.0
1502.44519 188.0
