>compound NCGC00160324-01!2-(2-Methoxy-phenyl)-5-oxo-tetrahydro-furan-3-carboyl-lupinine
>formula C22H29NO5
>ionization [M+H]+
>parentmass 388.211945
#inchi InChI=1S/C22H29NO5/c1-26-19-10-3-2-8-16(19)21-17(13-20(24)28-21)22(25)27-14-15-7-6-12-23-11-5-4-9-18(15)23/h2-3,8,10,15,17-18,21H,4-7,9,11-14H2,1H3/t15-,17?,18?,21?/m0/s1
#inchikey RLQUGMOZSOFTJC
#Ion_Source LC-ESI
#Instrument qTOF
#Compound_Source Prestwick Phytochem Lib
#PI Dorrestein
#Data_Collector VVP/LMS
#Scan -1
#Precursor_MZ 388.212
#ExactMass 387.205
#Charge 1
#CAS_Number N/A
#Pubmed_ID N/A
#Smiles COC1=C(C=CC=C1)C2OC(=O)CC2C(=O)OC[C@@H]3CCCN4CCCCC34
#INCHI_AUX N/A
#Library_Class 1
#SpectrumID CCMSLIB00000078701
#IonMode Positive
#UpdateWorkflowName UPDATE-SINGLE-ANNOTATED-GOLD
#LibraryQualityString Gold
#TaskID 67c915c6594c435cadc1fe2b5358144d
##Scan# 1651
#SpectrumFile p1-D02_GD2_01_17910.mzXML
#LibraryName phytochem_lib.mgf
#MQScore -1
#Organism phytochem_lib
#TIC_Query 0
#RT_Query -1
#MZErrorPPM -1
#SharedPeaks 0
#MassDiff 0
#LibMZ -1
#SpecMZ 388.212
#SpecCharge 0
#internalFilename spec-00000.mgf

>collision 10
94.978188 64.0
95.067429 120.0
95.085114 176.0
95.102364 56.0
95.127594 140.0
95.203316 248.0
95.230507 108.0
95.335411 104.0
95.368454 184.0
95.453995 184.0
95.624664 180.0
95.726418 132.0
95.820595 180.0
95.836403 120.0
96.081177 1708.0
96.133827 252.0
96.245827 232.0
96.30172 92.0
96.319298 76.0
96.368134 168.0
96.426582 180.0
96.508858 176.0
96.5597 156.0
96.686867 108.0
96.8004 44.0
96.845444 180.0
96.872871 176.0
97.045326 72.0
97.089378 704.0
97.219902 164.0
97.296448 136.0
97.44178 192.0
97.467323 132.0
97.64817 156.0
97.72686 188.0
97.764244 68.0
97.78196 164.0
97.876442 140.0
97.900078 148.0
97.960777 180.0
98.014328 52.0
98.05571 140.0
98.096931 10136.0
98.194504 60.0
98.225273 136.0
98.25486 144.0
98.319977 104.0
98.594475 156.0
98.782303 124.0
98.821869 144.0
98.891129 220.0
98.918846 164.0
99.005959 68.0
99.056061 216.0
99.078987 184.0
99.098572 616.0
99.219948 208.0
99.253654 96.0
99.343719 108.0
99.412346 48.0
99.678429 68.0
99.702278 108.0
99.835472 80.0
99.963089 128.0
99.985748 128.0
100.020493 168.0
100.078224 168.0
100.106102 124.0
100.167847 184.0
100.213661 144.0
100.259491 76.0
100.301346 120.0
100.39904 52.0
100.417946 208.0
100.500771 160.0
100.556816 216.0
100.612869 192.0
100.662453 200.0
100.729164 188.0
100.768311 180.0
100.91021 136.0
101.316475 120.0
101.619202 160.0
101.781776 168.0
101.797523 128.0
101.819153 224.0
102.047234 180.0
102.155586 188.0
102.409203 180.0
102.528069 188.0
102.689117 168.0
102.786186 176.0
102.800308 100.0
102.872971 200.0
102.943634 160.0
103.059692 228.0
103.178009 160.0
103.370369 152.0
103.388367 124.0
103.406578 152.0
103.463257 36.0
103.546272 156.0
103.627792 180.0
103.832031 176.0
104.004486 172.0
104.074821 160.0
104.09787 140.0
104.154739 120.0
104.229904 176.0
104.742577 148.0
104.785355 156.0
104.817955 140.0
104.844444 108.0
104.866859 124.0
104.974907 196.0
105.050369 176.0
105.071083 500.0
105.154854 212.0
105.20546 160.0
105.468964 152.0
105.544601 164.0
105.714378 52.0
106.058441 168.0
106.085091 156.0
106.130196 152.0
106.255302 284.0
106.294289 84.0
106.462608 144.0
106.483147 184.0
106.50985 184.0
106.686569 192.0
106.724144 72.0
106.787323 160.0
106.873718 168.0
106.921043 84.0
106.966324 180.0
106.986916 140.0
107.050331 992.0
107.084839 824.0
107.141228 180.0
107.211418 96.0
107.300049 132.0
107.413467 236.0
107.436157 148.0
107.52076 184.0
107.543457 248.0
107.601257 84.0
107.708641 168.0
107.836739 168.0
108.060066 120.0
108.083237 588.0
108.132492 180.0
108.184235 140.0
108.31469 160.0
108.463882 64.0
108.648438 236.0
108.725204 88.0
108.793701 168.0
108.816536 64.0
108.997238 176.0
109.061661 172.0
109.09935 448.0
109.150711 148.0
109.304977 108.0
109.352837 96.0
109.467339 104.0
109.498573 56.0
109.588142 172.0
109.694427 200.0
109.988541 144.0
110.067871 152.0
110.096985 2964.0
110.191101 60.0
110.21199 48.0
110.251694 92.0
110.266327 140.0
110.343666 64.0
110.379211 136.0
110.546555 44.0
110.569572 84.0
110.64492 48.0
110.66832 160.0
110.716118 160.0
110.795761 164.0
110.831322 148.0
110.908859 112.0
110.96756 116.0
111.018036 268.0
111.045143 144.0
111.078705 104.0
111.102959 740.0
111.156326 44.0
111.180939 128.0
111.215088 180.0
111.303261 180.0
111.326363 168.0
111.397766 176.0
111.490211 164.0
111.544861 100.0
111.601578 188.0
111.626854 132.0
111.721497 180.0
111.755157 60.0
111.796417 204.0
111.84565 48.0
111.921432 44.0
111.946701 168.0
111.973343 148.0
111.99514 208.0
112.059692 180.0
112.102585 64.0
112.189003 160.0
112.277557 64.0
112.689171 172.0
112.758896 200.0
112.919579 68.0
113.095184 116.0
113.179863 208.0
113.245506 176.0
113.359909 140.0
113.393814 176.0
113.434082 108.0
113.499802 236.0
113.548576 44.0
113.896652 160.0
113.934891 172.0
114.085777 120.0
114.204849 80.0
114.298454 196.0
114.349525 116.0
114.368683 100.0
114.394226 136.0
114.421028 144.0
114.434669 268.0
114.617844 176.0
114.688171 140.0
114.741463 180.0
114.762779 100.0
114.781975 200.0
114.912079 116.0
114.941948 164.0
115.003838 144.0
115.054054 2064.0
115.097771 132.0
115.279335 132.0
115.343445 136.0
115.450348 68.0
115.510231 132.0
115.561577 248.0
115.880585 180.0
115.925575 48.0
116.065857 172.0
116.069481 268.0
116.116371 204.0
116.206467 128.0
116.245087 184.0
116.266548 152.0
116.346626 160.0
116.384605 136.0
116.399635 128.0
116.453323 204.0
116.53215 184.0
116.93277 204.0
117.07048 1012.0
117.113617 36.0
117.180397 72.0
117.262283 168.0
117.277367 32.0
117.30323 144.0
117.475746 108.0
117.490845 180.0
117.56852 136.0
117.60817 168.0
117.639748 112.0
117.704514 132.0
117.745544 104.0
117.806129 156.0
117.929184 196.0
117.970253 84.0
118.039436 188.0
118.073624 188.0
118.115128 140.0
118.138924 188.0
118.177864 184.0
118.206772 156.0
118.244949 48.0
118.402794 136.0
118.650002 168.0
118.749748 152.0
118.767097 132.0
118.856041 60.0
119.018829 212.0
119.048035 484.0
119.061981 324.0
119.088272 552.0
119.229538 308.0
119.275932 220.0
119.357475 164.0
119.451309 116.0
119.550446 240.0
119.625389 164.0
119.647163 260.0
119.697235 128.0
119.858421 152.0
119.881187 188.0
119.932518 212.0
120.083755 196.0
120.144836 220.0
120.226944 164.0
120.357918 64.0
120.475853 228.0
120.904404 176.0
120.967873 124.0
121.018227 132.0
121.064545 1384.0
121.086105 156.0
121.167152 60.0
121.207634 168.0
121.239464 76.0
121.283295 172.0
121.340286 144.0
121.357826 136.0
121.441154 116.0
121.524513 132.0
121.629852 204.0
121.686928 148.0
121.915367 100.0
121.957764 48.0
122.06337 304.0
122.095673 1392.0
122.186028 164.0
122.287033 140.0
122.339859 116.0
122.434532 208.0
122.475418 128.0
122.50061 204.0
122.599754 168.0
122.716583 184.0
122.732018 116.0
122.907547 172.0
123.104202 304.0
123.126785 40.0
123.21978 116.0
123.25071 104.0
123.467552 212.0
123.695229 116.0
123.763863 156.0
123.817001 124.0
123.85466 92.0
124.067635 176.0
124.087334 140.0
124.112373 7616.0
124.142143 184.0
124.193779 164.0
124.224831 56.0
124.354286 140.0
124.457855 100.0
124.522255 148.0
124.595558 172.0
124.626656 36.0
124.803482 100.0
124.828926 88.0
125.08255 68.0
125.114342 488.0
125.231735 132.0
125.24955 136.0
125.271828 192.0
125.583885 124.0
125.715508 136.0
125.865067 172.0
125.89856 160.0
126.063866 156.0
126.080406 120.0
126.115273 140.0
126.155502 220.0
126.173386 112.0
126.22258 84.0
126.243126 148.0
126.376907 212.0
126.484329 160.0
126.504471 160.0
126.52462 60.0
126.645538 152.0
126.679138 196.0
126.775482 140.0
126.877586 216.0
126.965233 248.0
126.983971 40.0
127.049019 156.0
127.143257 196.0
127.412697 204.0
127.444153 244.0
127.547523 284.0
127.57225 160.0
127.677925 160.0
127.835396 120.0
128.060959 656.0
128.112335 40.0
128.128098 208.0
128.222733 164.0
128.333191 204.0
128.36702 196.0
128.511368 188.0
128.606812 256.0
128.723541 156.0
128.741608 168.0
128.994644 144.0
129.012741 180.0
129.047287 196.0
129.070938 260.0
129.204956 136.0
129.277359 140.0
129.343323 164.0
129.44487 32.0
129.818771 168.0
129.939102 148.0
130.042725 216.0
130.140976 184.0
130.17276 128.0
130.201797 188.0
130.292068 184.0
130.55452 164.0
130.611389 148.0
130.770645 152.0
130.8526 136.0
130.904968 124.0
130.966461 152.0
131.047134 388.0
131.246765 216.0
131.292358 136.0
131.363068 108.0
131.443451 204.0
131.527359 220.0
131.568451 148.0
131.584427 124.0
131.684906 152.0
131.90654 216.0
131.961395 140.0
131.982468 148.0
132.055038 680.0
132.095871 184.0
132.114624 184.0
132.201569 76.0
132.226746 128.0
132.42363 104.0
132.68486 144.0
132.771988 164.0
132.838501 156.0
133.033554 168.0
133.062668 408.0
133.101181 216.0
133.375809 240.0
133.447067 176.0
133.521439 148.0
133.574081 164.0
133.725418 104.0
133.775162 52.0
133.858932 192.0
134.095139 836.0
134.242599 40.0
134.342224 208.0
134.550629 192.0
134.659149 160.0
134.728455 180.0
134.839355 104.0
134.938751 164.0
135.003311 156.0
135.045547 492.0
135.082718 476.0
135.105972 120.0
135.149216 76.0
135.18161 160.0
135.207077 80.0
135.394592 204.0
135.508087 232.0
135.598465 144.0
135.674957 260.0
135.790894 180.0
135.825684 208.0
136.022919 92.0
136.112549 2016.0
136.164536 120.0
136.18544 92.0
136.211639 172.0
136.252808 68.0
136.271393 100.0
136.350403 68.0
136.380615 184.0
136.401535 80.0
136.475922 164.0
136.506149 144.0
136.653732 192.0
136.764389 176.0
136.792313 140.0
136.836548 120.0
136.910706 156.0
137.034515 152.0
137.060852 996.0
137.122192 2008.0
137.186401 112.0
137.234955 52.0
137.265823 132.0
137.349213 160.0
137.426208 40.0
137.531219 48.0
137.721375 172.0
137.839264 216.0
137.970367 160.0
138.035828 196.0
138.064682 524.0
138.089615 64.0
138.125885 352.0
138.208923 104.0
138.330612 104.0
138.567139 84.0
138.583542 112.0
138.611282 204.0
138.684311 268.0
138.705399 100.0
138.857803 148.0
138.930511 60.0
138.956314 96.0
139.134476 136.0
139.289658 128.0
139.341339 164.0
139.531708 128.0
139.566971 120.0
139.729568 120.0
139.797501 64.0
139.894806 196.0
139.912827 196.0
140.103424 124.0
140.266098 140.0
140.303894 200.0
140.325104 192.0
140.417068 188.0
140.476028 220.0
140.509827 392.0
140.530289 156.0
140.625916 192.0
140.768692 136.0
140.837173 132.0
140.938766 152.0
140.969482 84.0
140.993103 188.0
141.029312 228.0
141.309967 160.0
141.411713 164.0
141.504028 96.0
141.752731 132.0
141.989792 144.0
142.077545 172.0
142.14566 180.0
142.20636 240.0
142.580917 128.0
142.735443 128.0
142.863861 160.0
142.897171 148.0
142.913834 136.0
142.980453 376.0
143.028061 32.0
143.046463 196.0
143.230453 156.0
143.251892 140.0
143.268555 160.0
143.549805 128.0
143.623734 172.0
143.640427 196.0
143.726318 128.0
143.986099 188.0
144.054932 500.0
144.072845 188.0
144.127441 264.0
144.261276 136.0
144.337784 188.0
144.388 68.0
144.4478 136.0
144.598541 132.0
144.711044 76.0
144.768509 168.0
144.885864 184.0
144.960144 152.0
144.976913 96.0
145.015259 208.0
145.039795 200.0
145.065216 9532.0
145.128143 44.0
145.154297 36.0
145.173492 108.0
145.267029 80.0
145.315002 72.0
145.470993 180.0
145.604004 180.0
145.742371 76.0
145.768799 204.0
145.886566 92.0
146.00679 28.0
146.035767 444.0
146.06813 1352.0
146.192032 116.0
146.37738 156.0
146.420731 132.0
146.456848 152.0
146.507431 164.0
146.533936 292.0
146.598999 192.0
146.644775 112.0
146.7388 148.0
146.755676 132.0
146.774963 232.0
146.866592 72.0
146.889694 180.0
146.922073 160.0
146.976639 200.0
147.020096 180.0
147.048431 164.0
147.080933 10788.0
147.158585 84.0
147.192398 76.0
147.218948 132.0
147.27095 128.0
147.371017 84.0
147.395294 88.0
147.444153 144.0
147.490479 156.0
147.620087 140.0
147.77005 180.0
147.857162 200.0
147.8741 168.0
147.893463 68.0
147.922516 132.0
148.083954 1436.0
148.112442 1036.0
148.131348 164.0
148.159653 276.0
148.205856 160.0
148.276138 36.0
148.398407 56.0
148.427505 168.0
148.552551 88.0
148.673859 144.0
148.877777 128.0
148.953064 60.0
148.970062 144.0
149.023514 236.0
149.116135 220.0
149.402771 176.0
149.43927 216.0
149.466034 176.0
149.504959 76.0
149.558502 336.0
149.580414 216.0
149.728928 128.0
149.745987 56.0
149.833664 220.0
149.906769 180.0
149.960388 80.0
149.985886 180.0
150.018875 220.0
150.08226 152.0
150.127884 14472.0
150.17514 212.0
150.232574 144.0
150.257339 92.0
150.336273 152.0
150.367676 48.0
150.457993 52.0
150.492172 48.0
150.619156 184.0
150.71199 48.0
150.804855 60.0
151.108063 176.0
151.13208 2652.0
151.163223 256.0
151.215729 96.0
151.323441 128.0
151.343033 164.0
151.374863 112.0
151.403305 200.0
151.426849 52.0
151.475266 200.0
151.553665 128.0
151.610718 196.0
151.628555 128.0
151.671295 92.0
151.693878 76.0
151.749222 96.0
151.763397 176.0
151.790237 140.0
151.81839 108.0
151.835556 88.0
151.855179 92.0
151.880936 224.0
151.91803 148.0
151.945938 176.0
151.982742 188.0
152.009735 72.0
152.03801 160.0
152.072891 272.0
152.144455 87792.0
152.224518 80.0
152.250458 64.0
152.292419 72.0
152.33963 88.0
152.359146 64.0
152.383713 64.0
152.389694 48.0
152.487289 64.0
152.516876 104.0
152.546402 344.0
152.587524 188.0
152.613968 92.0
152.655777 52.0
152.677902 88.0
152.695831 124.0
152.729553 48.0
152.783524 328.0
152.80336 68.0
152.826767 108.0
152.923935 84.0
152.949326 112.0
152.98909 68.0
153.106506 176.0
153.146957 9984.0
153.18985 184.0
153.231735 68.0
153.290665 196.0
153.324127 80.0
153.357407 88.0
153.411804 56.0
153.469284 64.0
153.522583 64.0
153.586029 128.0
153.688873 180.0
153.707596 52.0
153.724869 96.0
153.834274 96.0
153.919159 56.0
153.939621 64.0
153.96431 108.0
154.009552 128.0
154.066315 108.0
154.112518 64.0
154.15033 452.0
154.210541 48.0
154.238556 112.0
154.275635 52.0
154.320938 208.0
154.352692 104.0
154.379837 140.0
154.411636 72.0
154.432648 104.0
154.456146 132.0
154.582321 40.0
154.604599 56.0
154.802628 64.0
154.822449 52.0
154.899216 108.0
155.129669 40.0
155.181732 184.0
155.362778 44.0
155.417358 104.0
155.511658 96.0
155.556335 216.0
155.665573 44.0
155.845428 156.0
156.005951 44.0
156.060638 156.0
156.147675 44.0
156.359146 44.0
156.722702 96.0
156.785004 124.0
156.914612 104.0
157.011856 44.0
157.066528 316.0
157.129089 192.0
157.213928 88.0
157.643448 48.0
157.788406 148.0
158.070251 284.0
158.336395 140.0
158.404022 224.0
158.476669 64.0
158.867767 112.0
158.958084 180.0
159.044266 404.0
159.254471 128.0
159.475418 172.0
159.493011 100.0
159.533234 272.0
159.714279 40.0
159.774643 280.0
159.814911 160.0
159.950806 148.0
159.981003 188.0
160.016251 132.0
160.052231 8564.0
160.114456 48.0
160.185181 100.0
160.363876 68.0
160.989532 136.0
161.058334 1016.0
161.1436 48.0
161.469681 156.0
161.539444 124.0
161.654022 92.0
161.760651 116.0
161.861923 176.0
162.031616 128.0
162.062561 408.0
162.139938 176.0
162.252106 72.0
162.338303 76.0
162.39917 104.0
162.594528 176.0
162.655441 124.0
162.955093 88.0
163.013535 80.0
163.075424 1388.0
163.125366 124.0
163.163498 44.0
163.237228 100.0
163.277924 196.0
163.366943 56.0
163.412735 188.0
163.466171 144.0
163.624588 148.0
163.797134 116.0
163.929611 40.0
164.079987 76.0
164.261047 68.0
164.585159 76.0
165.016953 108.0
165.126907 80.0
165.281113 272.0
165.382751 144.0
165.723343 44.0
165.930359 140.0
166.121231 176.0
166.297348 124.0
166.520447 184.0
166.564789 220.0
166.63414 100.0
166.703522 128.0
166.783188 88.0
166.865448 172.0
166.892288 164.0
167.051315 160.0
167.132812 136.0
167.423813 96.0
167.789688 136.0
168.05275 168.0
168.138397 6324.0
168.194046 192.0
168.238571 56.0
168.263641 96.0
168.408997 108.0
168.429657 76.0
168.925949 128.0
169.143921 784.0
169.568069 136.0
169.708054 96.0
169.7677 176.0
169.923325 100.0
170.001617 228.0
170.076431 148.0
170.099792 192.0
170.154739 14968.0
170.198441 128.0
170.284134 84.0
170.312698 72.0
170.385437 84.0
170.421814 116.0
170.494568 44.0
170.598526 100.0
170.67392 112.0
170.793549 68.0
170.824768 56.0
170.848175 112.0
170.921021 72.0
170.945236 140.0
171.027725 52.0
171.055969 176.0
171.129242 160.0
171.158112 592.0
171.228195 88.0
171.295914 60.0
171.329788 52.0
171.449646 52.0
171.525223 72.0
171.543472 152.0
171.613861 48.0
171.903122 120.0
172.057373 220.0
172.101761 108.0
172.15921 212.0
172.211441 52.0
172.300247 116.0
172.334213 76.0
172.373505 108.0
172.423065 68.0
172.640045 204.0
172.830994 176.0
172.865005 192.0
172.95137 108.0
173.060593 892.0
173.288712 204.0
173.643051 48.0
173.74144 140.0
174.071121 132.0
174.141708 112.0
174.512222 156.0
174.714737 96.0
174.735779 136.0
174.785767 172.0
174.804184 140.0
174.94368 156.0
175.075317 9968.0
175.138535 160.0
175.191223 92.0
175.212296 56.0
175.315048 84.0
175.454742 88.0
175.575485 76.0
175.692093 60.0
175.892639 36.0
175.948074 96.0
176.077698 1220.0
176.12764 92.0
176.183121 84.0
176.434326 68.0
176.561081 104.0
176.698303 196.0
176.833588 120.0
176.862701 124.0
177.053314 100.0
177.090149 252.0
177.124832 132.0
177.19371 152.0
177.336792 88.0
177.363297 80.0
177.415329 128.0
177.442825 80.0
177.46669 148.0
177.609894 144.0
177.628464 144.0
177.904434 60.0
177.952209 76.0
178.024323 128.0
178.082336 148.0
178.12056 1656.0
178.218781 132.0
178.504883 68.0
178.840088 56.0
178.888 60.0
178.978516 68.0
179.031769 52.0
179.127655 148.0
179.354141 244.0
179.567429 84.0
180.125275 128.0
180.159988 80.0
180.282898 96.0
181.163162 196.0
181.423096 232.0
182.061676 148.0
182.169113 36.0
182.36795 88.0
182.45665 188.0
182.790161 176.0
182.841293 100.0
183.514709 100.0
184.132645 48.0
184.44606 144.0
184.616379 160.0
184.813843 140.0
185.008698 152.0
185.072708 168.0
185.607452 108.0
185.80545 96.0
185.905838 132.0
186.008972 148.0
186.027969 164.0
186.315826 88.0
186.337555 124.0
186.75618 172.0
187.543045 192.0
187.818436 120.0
187.856613 128.0
188.050354 88.0
188.233246 80.0
188.92746 48.0
189.321594 168.0
189.60376 120.0
190.01506 196.0
190.240097 204.0
190.61087 88.0
190.907745 136.0
191.028763 132.0
191.070221 5776.0
191.207596 52.0
191.353485 132.0
191.397537 80.0
191.766678 260.0
191.802505 148.0
192.017563 140.0
192.076111 716.0
192.125137 60.0
192.547455 120.0
192.818192 80.0
193.083145 124.0
193.224655 64.0
193.268936 92.0
193.340881 140.0
193.501419 120.0
193.869812 124.0
194.011169 168.0
194.110977 116.0
194.502151 176.0
194.749268 28.0
194.821487 44.0
194.990982 152.0
195.778275 188.0
196.112595 156.0
196.138351 164.0
196.185059 108.0
196.377457 72.0
196.505783 172.0
196.888184 140.0
198.118866 136.0
198.144089 156.0
198.222534 96.0
198.357056 172.0
198.533157 124.0
198.595398 52.0
198.713211 124.0
199.08934 132.0
199.817322 56.0
199.974915 112.0
199.994614 196.0
200.076248 100.0
200.166336 140.0
200.529739 252.0
200.566376 124.0
200.622757 68.0
200.935791 112.0
201.0289 120.0
201.061279 148.0
201.390259 176.0
201.966858 140.0
202.031921 124.0
202.377197 96.0
202.538605 272.0
202.725586 224.0
202.898483 168.0
203.069794 752.0
203.116837 156.0
203.221802 44.0
203.644775 172.0
203.894775 204.0
203.917511 104.0
203.937408 188.0
204.06958 608.0
204.130722 164.0
204.235947 148.0
204.472092 164.0
204.728317 92.0
204.810898 160.0
205.131027 5240.0
205.209854 140.0
205.614914 60.0
205.727905 116.0
205.763336 140.0
206.132278 848.0
206.778076 164.0
207.07869 100.0
207.133118 148.0
207.239105 72.0
207.359467 208.0
207.379517 76.0
207.5802 152.0
207.769501 92.0
207.826874 68.0
208.088058 52.0
208.792038 56.0
209.802689 36.0
209.900711 136.0
210.39119 156.0
210.630859 156.0
211.486725 48.0
211.654617 64.0
212.283417 176.0
212.933456 176.0
214.14296 1448.0
214.367645 116.0
214.880814 32.0
215.145767 204.0
215.172668 116.0
215.211197 100.0
215.818344 92.0
216.766708 228.0
216.866348 40.0
216.892731 64.0
217.048111 128.0
217.203537 156.0
217.276871 176.0
217.728897 84.0
218.190216 212.0
218.3284 188.0
219.063004 848.0
219.170273 40.0
219.273422 108.0
220.072296 112.0
220.179123 104.0
221.175491 156.0
221.23468 180.0
221.403458 68.0
221.55748 160.0
221.61969 176.0
221.942764 80.0
222.085022 132.0
222.150223 632.0
222.393677 120.0
222.539139 60.0
222.850983 44.0
223.088745 48.0
223.147934 140.0
224.16333 1104.0
224.429016 168.0
224.571579 68.0
224.795334 72.0
225.166153 300.0
225.398514 120.0
225.571838 56.0
225.682465 92.0
225.772171 236.0
225.957611 156.0
226.083282 136.0
226.769104 56.0
227.209885 148.0
228.19194 64.0
228.953217 148.0
229.08876 120.0
230.842285 208.0
232.472015 128.0
234.010025 164.0
234.732147 156.0
235.418732 68.0
235.510345 248.0
235.941208 196.0
236.130783 144.0
237.699249 96.0
237.74527 108.0
238.22731 116.0
238.885147 152.0
239.491531 104.0
240.11409 140.0
240.527527 80.0
240.561493 48.0
241.151443 160.0
241.735931 48.0
241.791641 144.0
242.017609 188.0
242.039291 148.0
242.101212 156.0
243.558884 184.0
244.046768 244.0
244.616089 160.0
245.058304 112.0
245.550812 96.0
246.384216 128.0
246.65921 152.0
246.831161 164.0
246.956253 120.0
247.369278 132.0
247.575912 48.0
248.06781 128.0
248.133652 124.0
248.199493 124.0
248.403336 144.0
249.137894 160.0
249.628204 204.0
249.942749 120.0
250.059189 152.0
250.210281 96.0
251.307037 176.0
251.518478 112.0
251.641586 96.0
252.156479 140.0
252.184921 96.0
252.365112 164.0
252.48526 164.0
252.656067 128.0
252.963028 148.0
253.276505 84.0
253.48877 168.0
254.180023 116.0
256.010986 140.0
256.084229 32.0
256.638702 80.0
256.836426 160.0
257.027832 96.0
257.184204 76.0
257.653625 124.0
258.219391 104.0
258.872223 64.0
258.904266 224.0
258.936279 140.0
259.330353 140.0
259.820953 108.0
260.225342 72.0
261.70752 84.0
262.061798 124.0
262.919525 64.0
263.300446 152.0
263.329529 160.0
263.798035 60.0
264.176392 48.0
264.66507 164.0
264.807556 32.0
264.982483 104.0
265.841705 48.0
266.139557 316.0
266.189056 108.0
267.063232 92.0
267.151062 132.0
267.431305 160.0
267.531799 252.0
268.046387 152.0
268.14743 180.0
269.746735 72.0
269.792511 196.0
270.122803 176.0
270.211121 176.0
270.819977 60.0
270.95755 128.0
271.069733 168.0
271.357391 180.0
271.563965 204.0
272.000366 212.0
272.125092 36.0
272.611237 76.0
272.926788 124.0
274.744781 96.0
275.390533 108.0
275.609772 108.0
276.082458 172.0
276.625061 48.0
277.642242 268.0
277.705261 180.0
278.047241 152.0
279.29953 88.0
280.251617 132.0
280.49823 104.0
280.684937 76.0
282.32785 100.0
283.38559 176.0
283.868256 232.0
284.19696 156.0
284.381531 72.0
284.455383 44.0
285.365784 120.0
286.590881 132.0
288.189941 168.0
288.223938 208.0
288.267883 148.0
288.362488 108.0
288.416565 188.0
288.944092 108.0
289.194 160.0
289.502563 88.0
292.252045 120.0
292.551514 124.0
292.636627 136.0
292.861389 116.0
292.888641 104.0
293.144135 236.0
293.532745 180.0
293.737366 136.0
294.368744 152.0
294.450714 200.0
294.782074 76.0
294.870911 128.0
294.963196 120.0
295.654083 172.0
299.371887 136.0
299.678467 84.0
299.750824 100.0
300.661194 180.0
301.434723 132.0
301.94635 228.0
302.018951 184.0
302.067383 56.0
302.236908 120.0
302.455322 156.0
302.517242 72.0
303.002075 188.0
303.144135 28.0
303.317413 152.0
303.657349 88.0
305.38681 144.0
305.578125 52.0
305.835632 124.0
306.309174 120.0
306.349091 236.0
306.8284 60.0
307.505096 44.0
308.40271 160.0
310.28595 152.0
310.331543 104.0
310.587524 188.0
310.696289 76.0
312.046967 176.0
312.741364 108.0
312.78009 136.0
313.988556 136.0
314.176422 280.0
314.475433 48.0
314.507202 136.0
314.623688 180.0
315.16983 124.0
315.673035 128.0
315.697784 120.0
315.825104 152.0
316.001984 124.0
316.178925 116.0
317.273407 192.0
317.425842 176.0
317.883453 224.0
318.614838 176.0
320.226196 164.0
320.34729 84.0
320.721436 96.0
323.446747 128.0
324.453339 136.0
326.162018 108.0
327.183624 32.0
327.374451 192.0
327.677002 184.0
327.759888 108.0
328.184967 256.0
328.578308 128.0
328.751495 168.0
329.19046 136.0
329.358032 68.0
329.563934 164.0
329.860291 176.0
330.205383 516.0
330.381012 204.0
330.764587 92.0
331.204742 128.0
331.234589 244.0
331.343994 168.0
331.369354 124.0
331.771606 120.0
332.105225 80.0
332.199524 92.0
332.45636 96.0
333.219635 112.0
333.575775 44.0
334.470581 96.0
335.395752 116.0
335.428558 132.0
336.070404 96.0
336.201752 164.0
336.238251 160.0
336.771271 112.0
337.023346 124.0
337.4729 172.0
338.230164 144.0
338.318024 80.0
338.684174 164.0
339.736206 132.0
340.734741 180.0
341.216187 96.0
341.54715 144.0
342.194824 128.0
342.353149 132.0
342.445221 148.0
342.721497 196.0
342.865204 60.0
342.949982 52.0
343.10849 108.0
343.19696 184.0
343.239655 128.0
343.35553 76.0
343.432983 156.0
343.466156 152.0
343.52887 116.0
343.613708 44.0
343.75238 84.0
344.030731 104.0
344.086121 204.0
344.115662 136.0
344.221985 13036.0
344.326141 196.0
344.372955 84.0
344.397491 68.0
344.446594 52.0
344.518188 52.0
344.580994 172.0
344.636414 88.0
344.708374 76.0
344.791626 152.0
344.835968 168.0
344.891418 116.0
345.065155 52.0
345.124298 44.0
345.222778 2404.0
345.475647 44.0
345.524902 128.0
345.564423 152.0
345.616241 104.0
345.645844 88.0
345.690247 44.0
345.830872 36.0
345.912292 124.0
345.993744 72.0
346.224731 520.0
346.338104 144.0
346.415894 124.0
346.482574 116.0
346.571503 80.0
346.612244 140.0
346.678955 48.0
347.03479 40.0
347.20166 64.0
347.227631 104.0
347.321564 120.0
347.372284 324.0
347.52066 88.0
347.559631 136.0
347.687653 76.0
347.743317 156.0
348.270538 152.0
348.341095 48.0
348.731232 48.0
349.288971 36.0
349.352203 116.0
349.512177 136.0
349.638702 44.0
350.033295 168.0
350.096588 108.0
350.375946 204.0
351.468353 136.0
351.598938 136.0
352.293427 176.0
352.779236 160.0
353.796753 104.0
354.276062 132.0
354.901947 148.0
355.194458 140.0
355.307007 56.0
355.483337 188.0
355.535889 236.0
355.648468 192.0
355.757324 176.0
355.918762 92.0
356.091522 200.0
356.185394 148.0
357.452362 100.0
358.220398 52.0
359.959045 104.0
360.213593 200.0
360.642822 84.0
361.218994 204.0
362.394897 176.0
363.460327 172.0
363.858856 124.0
363.923401 108.0
364.21579 84.0
364.322174 128.0
364.838989 168.0
366.959503 104.0
367.703339 152.0
367.947632 140.0
368.13089 116.0
369.334747 56.0
370.205658 144.0
371.077118 104.0
372.143707 56.0
372.182098 100.0
373.042694 160.0
373.173401 92.0
374.189087 144.0
374.843872 152.0
375.032684 120.0
375.113647 132.0
378.141815 64.0
378.269531 76.0
378.331451 188.0
378.656708 112.0
379.602295 60.0
381.449127 144.0
381.695221 100.0
381.967468 104.0
382.243683 180.0
382.356537 136.0
382.469421 112.0
382.706879 32.0
383.061279 140.0
383.404144 144.0
383.435303 104.0
383.571716 152.0
384.070801 196.0
384.238556 48.0
384.414124 32.0
384.74588 76.0
385.163727 128.0
385.407593 112.0
385.534882 144.0
385.688324 180.0
385.906219 64.0
386.092865 76.0
386.156464 156.0
386.297455 100.0
386.348145 96.0
386.445953 48.0
386.496796 112.0
386.555511 144.0
386.641602 68.0
386.676819 104.0
386.822449 116.0
386.903015 192.0
386.941681 72.0
386.958313 48.0
386.97052 116.0
387.064362 136.0
387.169098 156.0
387.283661 104.0
387.453857 224.0
387.530457 172.0
387.561798 180.0
387.624512 144.0
387.666656 100.0
387.763367 192.0
387.918427 132.0
387.959015 224.0
388.034912 48.0
388.078308 164.0
388.113617 168.0
388.211945 69492.0
388.307678 176.0
388.338501 156.0
388.384125 156.0
388.459015 44.0
388.485962 44.0
388.497498 24.0
388.543121 92.0
388.592896 152.0
388.622375 208.0
388.654327 200.0
388.689453 200.0
388.717957 56.0
388.754852 76.0
388.782196 196.0
388.837341 100.0
388.897064 240.0
388.920868 192.0
388.979187 152.0
389.039612 64.0
389.088623 204.0
389.141327 72.0
389.214996 13868.0
389.385864 56.0
389.41629 200.0
389.452972 60.0
389.512115 56.0
389.542206 60.0
389.574402 60.0
389.625336 104.0
389.651428 112.0
389.68573 48.0
389.781158 64.0
389.814301 168.0
389.855957 116.0
389.896606 60.0
389.955536 84.0
389.987 76.0
390.026886 80.0
390.063782 196.0
390.12851 56.0
390.219543 2644.0
390.28183 60.0
390.322815 76.0
390.379181 64.0
390.463379 84.0
390.661346 80.0
390.693268 104.0
390.899384 32.0
390.930847 56.0
390.983429 112.0
391.021362 84.0
391.052856 52.0
391.09613 28.0
391.166992 68.0
391.224854 552.0
391.344147 132.0
391.424866 128.0
391.474091 56.0
391.506927 100.0
391.568604 76.0
391.624847 72.0
391.703766 88.0
391.76593 156.0
391.798126 144.0
391.840668 60.0
391.896973 136.0
391.938904 80.0
391.985809 88.0
392.057098 48.0
392.210815 80.0
392.299347 52.0
392.352722 56.0
392.497345 120.0
392.640564 64.0
392.683929 108.0
392.766754 92.0
392.889038 64.0
392.940033 52.0
393.915405 164.0
394.223572 64.0
394.409332 36.0
395.176514 36.0
395.216064 60.0
395.714752 92.0
396.681366 36.0
396.709137 64.0
396.816162 28.0
397.038208 52.0
397.54599 108.0
397.672974 48.0
398.387726 68.0
399.222382 92.0
401.428467 32.0
402.246338 88.0
402.961151 108.0
403.029083 56.0
404.724976 100.0
404.929199 108.0
405.213593 116.0
405.269684 116.0
406.15564 108.0
406.781616 40.0
406.89801 72.0
407.114838 56.0
407.432159 108.0
408.199829 52.0
410.071777 56.0
410.506226 52.0
411.265625 48.0
411.78241 100.0
411.980316 116.0
414.136292 128.0
420.548126 36.0
424.229462 60.0
424.770752 152.0
424.934845 128.0
450.148163 32.0
450.549408 92.0
457.700134 56.0
462.969482 40.0
466.788635 84.0
480.645691 52.0
490.099091 68.0
492.60495 68.0
495.174744 60.0
499.42218 52.0
505.977325 36.0
508.083618 64.0
509.466309 40.0
511.967072 80.0
515.322998 96.0
521.290405 96.0
529.181335 128.0
531.362854 112.0
535.624268 80.0
536.453674 88.0
537.569824 116.0
544.12384 92.0
556.965759 104.0
564.686035 60.0
567.290222 40.0
570.646606 76.0
572.349915 68.0
576.590698 80.0
577.140381 44.0
585.610291 68.0
593.084778 84.0
610.932617 60.0
611.213013 112.0
613.074402 76.0
615.575378 56.0
619.269592 20.0
621.113403 116.0
629.459351 120.0
634.843689 52.0
643.54364 96.0
643.578979 100.0
650.870117 88.0
651.042786 60.0
661.571533 36.0
663.256836 100.0
666.818787 56.0
671.333679 64.0
674.038513 84.0
680.097656 80.0
680.881592 68.0
681.057678 120.0
682.827576 36.0
686.439331 56.0
698.884827 88.0
703.501465 120.0
709.261902 76.0
711.134216 60.0
723.200989 68.0
728.385864 36.0
744.980286 252.0
751.180481 176.0
755.928223 52.0
758.244629 60.0
781.086548 120.0
781.559448 100.0
781.971252 224.0
787.044006 140.0
791.377197 100.0
796.890442 60.0
801.69574 76.0
818.616516 48.0
820.861694 236.0
824.606567 104.0
825.212524 136.0
831.720154 64.0
833.707275 116.0
841.333191 60.0
847.40564 180.0
850.542908 124.0
856.508667 132.0
857.708984 48.0
871.478882 76.0
874.257935 52.0
878.714722 96.0
882.30542 152.0
887.995789 220.0
895.180603 104.0
906.979797 224.0
908.910889 136.0
910.862 164.0
911.991577 208.0
912.117859 116.0
916.920776 84.0
917.041321 204.0
925.365356 44.0
925.571167 128.0
926.376709 96.0
927.782593 188.0
931.824402 132.0
934.402161 220.0
935.546265 216.0
937.27594 124.0
938.952271 204.0
941.008606 144.0
944.742615 92.0
944.932312 144.0
947.760925 144.0
948.104065 104.0
948.526978 136.0
951.717041 176.0
952.232849 40.0
952.951538 172.0
960.20282 104.0
965.093445 148.0
966.169556 180.0
966.534607 128.0
968.342224 284.0
969.556458 168.0
971.093994 168.0
973.93042 176.0
977.386841 132.0
980.905518 260.0
983.687561 120.0
984.705322 196.0
991.775269 164.0
996.437744 96.0
998.524597 144.0
1001.054443 204.0
1006.379822 236.0
1009.415405 208.0
1009.484924 140.0
1011.667725 140.0
1012.376831 440.0
1019.557983 212.0
1022.311584 88.0
1022.515198 120.0
1024.839478 152.0
1027.676636 152.0
1028.187134 116.0
1029.368164 28.0
1032.352295 128.0
1035.110229 196.0
1036.04541 148.0
1036.724487 48.0
1041.542725 204.0
1042.024536 212.0
1042.641357 120.0
1045.869995 116.0
1046.30127 92.0
1046.996704 160.0
1048.233521 168.0
1052.716675 116.0
1052.826416 156.0
1053.020142 152.0
1054.460938 204.0
1055.074951 76.0
1060.4021 80.0
1060.875244 96.0
1064.151489 212.0
1068.356201 224.0
1069.488403 128.0
1071.656982 180.0
1074.780029 216.0
1075.099854 172.0
1076.052734 112.0
1076.163818 112.0
1076.287842 204.0
1081.111938 124.0
1082.322876 120.0
1084.70752 160.0
1088.900146 136.0
1093.002075 164.0
1094.134888 184.0
1095.003296 264.0
1097.876709 136.0
1098.635132 164.0
1100.694336 112.0
1101.130249 208.0
1102.603394 180.0
1103.422119 120.0
1104.223145 192.0
1106.380249 44.0
1106.936401 84.0
1107.883545 184.0
1108.221436 132.0
1109.904907 112.0
1110.492554 148.0
1111.032349 160.0
1115.149292 188.0
1117.18396 204.0
1117.649658 132.0
1118.621216 172.0
1119.207153 168.0
1124.900513 92.0
1125.014038 124.0
1126.122437 204.0
1127.084351 204.0
1127.338257 80.0
1127.632324 64.0
1128.949341 164.0
1129.457642 128.0
1129.571289 368.0
1130.407593 236.0
1132.985352 172.0
1133.501221 64.0
1133.82959 184.0
1134.908813 196.0
1135.384888 172.0
1135.981812 116.0
1139.217407 272.0
1139.465942 44.0
1140.097534 76.0
1140.500854 108.0
1142.067383 144.0
1143.439941 156.0
1143.649658 128.0
1146.17395 152.0
1146.470459 56.0
1147.737671 136.0
1148.12207 100.0
1148.62793 156.0
1150.956177 164.0
1152.536743 160.0
1152.766479 140.0
1153.253052 164.0
1153.442261 188.0
1154.963623 200.0
1156.24231 216.0
1159.79126 212.0
1161.357544 172.0
1162.755127 224.0
1166.089722 244.0
1166.53833 96.0
1166.749023 152.0
1170.300415 128.0
1170.770264 156.0
1171.94873 192.0
1172.582397 204.0
1173.359497 104.0
1176.879883 180.0
1177.460327 76.0
1177.747192 156.0
1179.544189 164.0
1180.111694 48.0
1181.212646 56.0
1181.801025 168.0
1182.081543 268.0
1183.203979 208.0
1183.847656 172.0
1184.183228 128.0
1184.306519 32.0
1184.375 188.0
1184.648926 176.0
1185.491821 196.0
1185.876099 220.0
1185.978271 84.0
1188.700928 48.0
1188.9823 144.0
1190.918335 120.0
1192.615356 176.0
1193.144653 184.0
1196.401978 172.0
1198.285645 136.0
1199.429565 176.0
1199.594971 40.0
1199.682129 160.0
1200.360229 188.0
1201.539673 132.0
1203.147705 200.0
1204.604736 164.0
1205.537476 68.0
1206.131226 240.0
1206.276978 252.0
1209.244263 72.0
1210.74646 124.0
1211.484131 184.0
1211.757812 72.0
1211.827148 192.0
1214.079834 96.0
1216.404053 236.0
1216.570679 168.0
1217.615479 180.0
1218.299683 144.0
1218.383179 80.0
1219.376831 172.0
1220.377808 160.0
1221.970459 228.0
1224.358032 176.0
1225.765137 164.0
1226.050903 76.0
1226.650269 144.0
1229.251709 268.0
1229.384277 200.0
1229.50293 104.0
1234.043213 224.0
1234.113159 204.0
1235.029175 172.0
1235.392944 188.0
1235.805664 92.0
1236.547485 188.0
1238.171631 144.0
1238.234741 68.0
1238.76001 160.0
1239.418579 128.0
1240.301514 148.0
1240.687134 168.0
1241.388184 160.0
1241.444336 124.0
1241.563599 136.0
1242.966553 168.0
1244.124512 124.0
1244.658081 144.0
1247.735474 52.0
1247.812744 224.0
1248.058838 156.0
1248.839478 188.0
1249.72583 36.0
1250.47168 64.0
1250.781372 176.0
1251.27417 192.0
1251.816284 144.0
1252.421997 92.0
1255.064697 144.0
1256.178955 140.0
1256.630371 140.0
1257.56189 48.0
1258.599609 172.0
1259.277588 168.0
1261.298218 56.0
1261.602173 112.0
1261.90625 68.0
1261.984009 112.0
1264.396118 204.0
1264.473877 180.0
1264.70752 208.0
1265.436646 96.0
1266.505859 112.0
1267.157593 56.0
1269.865479 184.0
1270.198853 156.0
1271.759766 92.0
1272.143066 140.0
1272.56189 148.0
1273.37146 156.0
1273.570312 180.0
1275.979248 204.0
1276.476929 156.0
1278.838745 156.0
1279.443848 60.0
1280.049072 200.0
1280.711304 172.0
1281.131592 152.0
1281.815552 184.0
1285.131104 120.0
1285.53064 216.0
1285.980225 200.0
1286.444214 236.0
1288.329468 76.0
1290.552124 60.0
1291.202881 188.0
1292.912598 80.0
1294.129517 180.0
1294.222534 192.0
1295.461548 188.0
1295.769653 124.0
1295.89856 200.0
1296.851685 156.0
1297.891113 180.0
1298.321289 184.0
1298.507812 84.0
1298.608154 156.0
1299.562256 136.0
1300.148804 76.0
1300.688965 144.0
1301.055054 120.0
1301.28479 56.0
1302.067505 132.0
1302.84314 128.0
1303.223999 160.0
1303.353271 144.0
1303.410767 128.0
1303.525757 168.0
1304.071899 120.0
1304.797974 200.0
1305.143066 156.0
1305.286865 168.0
1306.272095 140.0
1307.1427 52.0
1307.934326 68.0
1309.518311 100.0
1309.979248 172.0
1310.173706 152.0
1311.124878 168.0
1311.943481 192.0
1312.307007 140.0
1312.797363 156.0
1313.792603 116.0
1314.434814 36.0
1314.932739 228.0
1315.539062 36.0
1317.091431 152.0
1317.813843 160.0
1319.123047 128.0
1319.606323 80.0
1319.721924 204.0
1320.88623 180.0
1321.139404 224.0
1322.861694 36.0
1324.693726 196.0
1325.026978 176.0
1325.889282 196.0
1326.795288 192.0
1327.875732 196.0
1328.303589 188.0
1328.361694 84.0
1331.14856 76.0
1332.187134 116.0
1332.877319 116.0
1333.793091 152.0
1334.614502 168.0
1335.145386 200.0
1336.520142 164.0
1336.753052 180.0
1336.971313 192.0
1337.8302 160.0
1339.155396 208.0
1340.299072 168.0
1341.851562 160.0
1342.704712 148.0
1344.025024 164.0
1345.411743 224.0
1346.755249 156.0
1347.829102 172.0
1349.919678 176.0
1351.411865 160.0
1351.609375 88.0
1352.048462 156.0
1352.099609 136.0
1352.436279 192.0
1353.885986 208.0
1354.003052 244.0
1354.698975 176.0
1355.629395 188.0
1355.92981 244.0
1357.058716 188.0
1357.711304 156.0
1358.356689 164.0
1358.782227 152.0
1359.339844 192.0
1361.285034 196.0
1361.475952 164.0
1363.621216 160.0
1364.201904 108.0
1364.569458 108.0
1364.775269 172.0
1364.944458 184.0
1365.973999 176.0
1366.628784 160.0
1367.261597 192.0
1367.585449 48.0
1367.695801 188.0
1368.72644 196.0
1369.065186 52.0
1369.153564 56.0
1369.801758 164.0
1369.919556 168.0
1370.258423 104.0
1371.217407 144.0
1371.326904 88.0
1371.68811 168.0
1372.019775 240.0
1372.233643 72.0
1374.593872 204.0
1375.361328 160.0
1375.745239 180.0
1377.502686 84.0
1378.041992 180.0
1378.359741 208.0
1379.268677 192.0
1380.5625 112.0
1380.891602 184.0
1381.094971 212.0
1381.723755 168.0
1382.530273 112.0
1383.06311 180.0
1383.981079 216.0
1384.440186 168.0
1385.966187 148.0
1386.255127 204.0
1386.410767 72.0
1387.166748 92.0
1387.38916 52.0
1388.130493 232.0
1388.575439 96.0
1388.797974 144.0
1388.864746 132.0
1389.228149 176.0
1389.762329 144.0
1390.059204 84.0
1390.816162 120.0
1391.023926 196.0
1393.303711 208.0
1393.363159 140.0
1394.5 180.0
1396.552124 96.0
1396.679443 160.0
1396.90918 200.0
1397.459595 200.0
1398.434448 120.0
1398.575928 156.0
1399.357544 232.0
1399.573364 124.0
1400.184082 148.0
1400.280884 212.0
1401.055542 144.0
1402.329712 184.0
1403.171997 240.0
1403.634277 152.0
1404.402344 216.0
1404.693237 72.0
1405.2229 192.0
1405.901978 112.0
1407.103638 176.0
1410.226074 188.0
1410.547485 184.0
1413.262085 200.0
1413.845825 180.0
1413.898193 128.0
1415.642456 60.0
1416.301514 168.0
1416.353882 80.0
1416.735962 256.0
1417.17041 236.0
1419.958984 84.0
1421.016602 196.0
1421.226685 44.0
1421.639404 172.0
1422.795288 172.0
1422.983032 196.0
1423.253296 108.0
1423.320801 88.0
1423.501099 236.0
1424.612671 248.0
1424.928101 148.0
1429.559814 52.0
1429.642578 184.0
1430.425293 164.0
1431.681885 180.0
1431.750488 236.0
1432.23999 160.0
1433.746826 232.0
1434.839722 76.0
1434.998047 172.0
1435.767212 180.0
1436.114136 80.0
1436.649048 244.0
1437.328613 156.0
1437.841797 196.0
1437.962524 192.0
1439.170288 176.0
1439.578125 172.0
1440.34082 204.0
1441.020752 156.0
1441.76123 184.0
1441.836792 96.0
1442.033325 128.0
1445.421265 52.0
1445.686035 128.0
1445.828979 148.0
1446.208252 92.0
1446.63208 104.0
1446.798706 212.0
1447.889038 84.0
1448.888794 244.0
1449.487305 164.0
1449.714722 148.0
1450.010254 152.0
1450.211914 196.0
1450.813721 144.0
1450.980469 132.0
1453.149536 164.0
1453.855225 204.0
1454.682495 152.0
1454.963379 164.0
1455.38855 52.0
1456.01123 188.0
1456.246582 140.0
1457.166504 196.0
1457.40979 172.0
1458.366333 224.0
1458.434814 192.0
1458.488037 244.0
1459.133423 232.0
1459.803223 132.0
1459.985718 36.0
1460.19104 128.0
1460.784302 212.0
1460.920776 128.0
1461.849487 168.0
1462.450684 220.0
1462.81604 180.0
1463.41748 132.0
1463.904785 176.0
1464.171265 232.0
1466.327271 168.0
1466.670288 160.0
1468.378174 148.0
1470.338745 160.0
1472.484009 196.0
1472.789551 172.0
1472.888916 224.0
1473.721558 140.0
1474.180054 204.0
1474.913696 148.0
1475.624634 156.0
1475.869263 80.0
1476.045166 68.0
1476.136841 88.0
1478.97522 176.0
1480.245972 256.0
1480.353149 76.0
1481.371826 144.0
1482.1073 196.0
1482.229858 156.0
1482.444458 176.0
1483.762817 172.0
1483.977417 164.0
1484.084839 152.0
1484.161499 32.0
1485.587891 156.0
1486.147949 160.0
1486.992065 216.0
1487.076538 188.0
1487.575439 60.0
1487.736572 196.0
1488.112793 76.0
1488.235596 196.0
1489.502808 168.0
1489.633301 264.0
1489.86377 116.0
1490.37085 156.0
1491.515869 212.0
1492.915161 248.0
1494.391968 116.0
1494.976807 120.0
1495.846436 172.0
1497.47876 224.0
1497.879272 164.0
1498.252563 188.0
1498.965576 168.0
1500.237305 128.0
1500.661255 200.0
1502.589355 228.0
1503.924316 204.0
1504.217651 116.0
