>compound MLS000850648-01!4-hydroxy-3-phenyl-1H-quinolin-2-one
>formula C15H11NO2
>ionization [M+H]+
>parentmass 238.086426
#inchi InChI=1S/C15H11NO2/c17-14-11-8-4-5-9-12(11)16-15(18)13(14)10-6-2-1-3-7-10/h1-9H,(H2,16,17,18)
#inchikey WNISVGSZMGXKHE
#Ion_Source LC-ESI
#Instrument qTof
#Compound_Source NIH Natural Product Library
#PI Dorrestein
#Data_Collector VVP/LMS
#Scan -1
#Precursor_MZ 238.087
#ExactMass 237.079
#Charge 1
#CAS_Number N/A
#Pubmed_ID N/A
#Smiles Oc1nc2ccccc2c(O)c1c3ccccc3
#INCHI_AUX N/A
#Library_Class 1
#SpectrumID CCMSLIB00000079995
#IonMode Positive
#UpdateWorkflowName UPDATE-SINGLE-ANNOTATED-GOLD
#LibraryQualityString Gold
#TaskID b1d8e8f6646f4e71acdff9ca3d919d08
##Scan# 1707
#SpectrumFile p2-G02_GG2_01_18050.mzXML
#LibraryName NIH_Natural_Products_Library.mgf
#MQScore -1
#Organism NIH_Natural_Products_Library
#TIC_Query 0
#RT_Query -1
#MZErrorPPM -1
#SharedPeaks 0
#MassDiff 0
#LibMZ -1
#SpecMZ 238.087
#SpecCharge 0
#internalFilename spec-00000.mgf

>collision 10
95.00264 180.0
95.177315 168.0
95.398804 52.0
95.58358 136.0
95.653641 184.0
95.848404 148.0
95.971207 192.0
96.008255 128.0
96.053116 192.0
96.140915 176.0
96.338127 144.0
96.447556 76.0
96.465149 180.0
96.506203 128.0
96.705742 52.0
96.975502 160.0
97.009315 164.0
97.325233 156.0
97.338982 140.0
97.409683 256.0
97.450943 172.0
97.488274 156.0
97.539375 164.0
97.659325 140.0
97.846268 112.0
97.948677 204.0
97.998138 188.0
98.139839 184.0
98.197029 180.0
98.23056 140.0
98.406204 220.0
98.516808 128.0
98.57608 56.0
98.724342 112.0
98.771812 172.0
98.82325 112.0
98.95388 212.0
99.191612 180.0
99.34034 128.0
99.429626 172.0
99.685814 184.0
99.853241 240.0
99.884636 220.0
99.908508 136.0
100.246994 192.0
100.286858 104.0
100.372581 208.0
100.386543 96.0
100.470314 184.0
100.721848 180.0
100.755806 200.0
100.807755 172.0
100.843727 120.0
100.925697 176.0
101.085716 164.0
101.263901 216.0
101.2948 192.0
101.632767 136.0
101.751183 176.0
101.92392 44.0
101.945053 120.0
102.006317 176.0
102.042381 248.0
102.074677 136.0
102.096802 124.0
102.233604 112.0
102.350357 128.0
102.459122 156.0
102.517555 60.0
102.644554 148.0
102.680855 216.0
102.755493 40.0
102.854378 60.0
102.911125 72.0
102.971481 212.0
102.989662 56.0
103.012718 252.0
103.034103 248.0
103.068855 100.0
103.284775 152.0
103.30703 120.0
103.404152 132.0
103.43219 188.0
103.487152 168.0
103.519547 120.0
103.677567 136.0
103.693779 136.0
103.795143 204.0
103.878296 144.0
103.995987 48.0
104.049995 728.0
104.093437 192.0
104.132027 240.0
104.369789 192.0
104.404358 192.0
104.516243 200.0
104.538628 148.0
104.587471 192.0
104.620049 208.0
104.646515 180.0
104.67585 236.0
104.779823 88.0
104.927673 168.0
105.03199 412.0
105.054047 220.0
105.105125 180.0
105.174515 76.0
105.354218 272.0
105.405296 212.0
105.482964 112.0
105.614372 136.0
105.714081 148.0
105.859428 136.0
105.908577 72.0
105.935211 196.0
105.96389 172.0
106.086853 192.0
106.115562 132.0
106.129913 128.0
106.175026 100.0
106.333 208.0
106.382263 52.0
106.620529 188.0
106.731537 104.0
106.891991 120.0
106.920799 168.0
106.97226 192.0
107.016357 360.0
107.054802 216.0
107.153488 172.0
107.233856 112.0
107.285385 48.0
107.318375 184.0
107.369926 252.0
107.464821 116.0
107.516403 180.0
107.71669 148.0
107.799332 184.0
107.929558 160.0
107.972984 160.0
108.174744 136.0
108.229591 160.0
108.362152 112.0
108.474861 204.0
108.490646 208.0
108.554924 172.0
108.627518 164.0
108.760323 112.0
108.799767 100.0
108.874512 84.0
108.891129 56.0
108.916054 220.0
109.136345 128.0
109.180016 192.0
109.242416 148.0
109.344376 152.0
109.363106 108.0
109.413063 88.0
109.435966 156.0
109.510941 160.0
109.563011 148.0
109.648445 104.0
109.7089 152.0
109.758934 120.0
109.8069 160.0
109.940422 148.0
109.99469 52.0
110.15966 164.0
110.222336 148.0
110.341057 180.0
110.425125 156.0
110.464867 212.0
110.542282 140.0
110.682533 144.0
110.734886 280.0
110.917175 156.0
111.07235 156.0
111.152077 104.0
111.276253 172.0
111.361588 180.0
111.399818 188.0
111.467056 156.0
111.763542 128.0
111.847725 132.0
111.92141 116.0
112.23748 156.0
112.267006 164.0
112.294418 100.0
112.410454 156.0
112.556107 144.0
112.754684 112.0
112.816391 208.0
113.008446 164.0
113.112144 112.0
113.198952 88.0
113.215889 164.0
113.317566 176.0
113.372665 108.0
113.584686 176.0
113.656822 184.0
113.762939 112.0
113.820267 156.0
113.866982 128.0
113.975327 160.0
114.01358 204.0
114.028458 44.0
114.090103 160.0
114.178284 192.0
114.260239 160.0
114.387451 108.0
114.558289 156.0
114.701065 136.0
114.846062 60.0
114.863121 168.0
115.023163 108.0
115.054337 1052.0
115.20681 160.0
115.273315 160.0
115.343582 164.0
115.409851 168.0
115.433372 124.0
115.576691 172.0
115.78006 76.0
115.945023 156.0
116.000755 120.0
116.051857 560.0
116.213074 172.0
116.267578 236.0
116.288185 116.0
116.305351 172.0
116.367607 156.0
116.427734 144.0
116.451363 196.0
116.807381 196.0
116.853348 92.0
116.916595 188.0
116.932167 256.0
116.99324 192.0
117.034149 484.0
117.057739 176.0
117.114098 164.0
117.249573 188.0
117.325012 148.0
117.385384 188.0
117.400482 132.0
117.432831 124.0
117.456558 188.0
117.488914 192.0
117.665886 140.0
117.76738 136.0
117.832191 160.0
117.927269 160.0
117.954445 268.0
118.03537 152.0
118.111061 160.0
118.142067 120.0
118.294998 140.0
118.314484 188.0
118.364281 180.0
118.598885 208.0
118.765221 160.0
118.780403 148.0
118.798843 216.0
118.947487 172.0
118.971367 112.0
119.138588 216.0
119.162491 176.0
119.199425 176.0
119.253761 140.0
119.273323 184.0
119.329842 184.0
119.347237 176.0
119.36898 160.0
119.391212 180.0
119.438576 188.0
119.478958 148.0
119.50602 240.0
119.667084 180.0
119.904526 48.0
119.967735 216.0
120.01458 136.0
120.044647 5780.0
120.140022 168.0
120.157478 180.0
120.181473 128.0
120.257858 132.0
120.279686 200.0
120.332077 184.0
120.375748 64.0
120.476219 52.0
120.546135 184.0
120.58548 268.0
120.605148 188.0
120.679474 136.0
120.787682 92.0
120.922295 152.0
121.04583 372.0
121.19165 80.0
121.244247 128.0
121.271324 236.0
121.356041 160.0
121.533707 172.0
121.557846 204.0
121.617104 164.0
121.759819 216.0
121.786171 64.0
121.939972 136.0
121.957558 156.0
121.977341 224.0
121.994926 128.0
122.010315 116.0
122.267677 136.0
122.30069 160.0
122.457016 152.0
122.708237 140.0
122.75013 148.0
122.805267 144.0
122.885658 160.0
123.048004 140.0
123.065666 208.0
123.082169 220.0
123.271095 196.0
123.428047 124.0
123.545265 128.0
123.616074 104.0
123.680252 168.0
123.815315 224.0
123.932724 168.0
123.949097 184.0
124.081223 212.0
124.179901 136.0
124.269745 204.0
124.340752 116.0
124.405128 200.0
124.431763 176.0
124.580566 148.0
124.647217 184.0
124.833946 232.0
124.865082 172.0
124.882874 180.0
124.929588 68.0
124.94516 188.0
125.025269 84.0
125.044197 196.0
125.089813 160.0
125.223412 132.0
125.261284 116.0
125.301384 156.0
125.348175 208.0
125.477448 116.0
125.522041 144.0
125.546577 136.0
125.664803 128.0
125.704964 108.0
125.747803 164.0
125.933533 252.0
126.071205 220.0
126.223213 192.0
126.254524 128.0
126.382027 164.0
126.494659 172.0
126.518555 160.0
126.731323 132.0
126.924095 148.0
126.946518 160.0
127.15097 120.0
127.183289 180.0
127.39991 148.0
127.51226 212.0
127.550476 176.0
127.595436 104.0
127.63591 132.0
127.67189 188.0
127.749245 204.0
127.85862 152.0
127.917137 136.0
127.964417 180.0
127.991432 132.0
128.024048 232.0
128.062637 480.0
128.227982 160.0
128.246002 188.0
128.439926 56.0
128.457962 136.0
128.491806 40.0
128.545959 208.0
128.609161 232.0
128.652039 128.0
128.798828 104.0
128.918579 172.0
128.966034 132.0
129.069061 240.0
129.085861 116.0
129.321152 72.0
129.390671 124.0
129.431946 132.0
129.470566 164.0
129.518539 200.0
129.552872 120.0
129.64502 48.0
129.708481 208.0
129.767426 140.0
129.926178 164.0
129.960541 196.0
129.991974 136.0
130.028214 352.0
130.078232 220.0
130.09639 176.0
130.287155 164.0
130.303055 156.0
130.523529 200.0
130.541718 56.0
130.58493 132.0
130.700958 192.0
130.764679 148.0
130.796539 120.0
130.851181 212.0
130.928085 196.0
130.978714 200.0
131.019714 184.0
131.036575 180.0
131.056168 44.0
131.118546 108.0
131.202042 176.0
131.380676 240.0
131.430756 132.0
131.477448 140.0
131.512268 128.0
131.544235 144.0
131.605835 236.0
131.713211 136.0
131.928009 108.0
132.007538 144.0
132.044159 3096.0
132.094955 164.0
132.112671 196.0
132.138428 176.0
132.191055 92.0
132.257416 188.0
132.300919 48.0
132.326096 144.0
132.344421 228.0
132.380661 164.0
132.403946 124.0
132.426849 160.0
132.504745 116.0
132.529953 116.0
132.617035 96.0
132.883041 152.0
132.973404 212.0
133.045059 164.0
133.169998 212.0
133.310135 192.0
133.367599 188.0
133.388275 140.0
133.425064 140.0
133.464157 68.0
133.669159 192.0
133.705688 164.0
133.733307 180.0
133.781647 108.0
133.90181 196.0
133.949753 76.0
134.048828 184.0
134.099716 196.0
134.24939 96.0
134.283981 196.0
134.348572 152.0
134.514725 96.0
134.535507 132.0
134.600143 212.0
134.650955 124.0
134.70639 116.0
134.741043 152.0
134.783096 176.0
134.938248 196.0
134.98143 164.0
135.04155 176.0
135.060059 164.0
135.117889 156.0
135.286835 192.0
135.308517 176.0
135.407242 128.0
135.472107 188.0
135.564789 92.0
135.615768 180.0
135.687637 108.0
135.703857 148.0
135.754883 176.0
135.805893 180.0
136.077408 248.0
136.109924 140.0
136.181915 136.0
136.2005 172.0
136.307373 60.0
136.374756 116.0
136.393356 104.0
136.441559 180.0
136.502625 44.0
136.660797 120.0
136.677094 196.0
136.693375 204.0
136.809753 136.0
136.888916 112.0
136.933167 260.0
136.993729 120.0
137.072952 156.0
137.140533 96.0
137.217468 44.0
137.320068 168.0
137.352722 204.0
137.385376 44.0
137.488052 248.0
137.878067 244.0
138.013641 76.0
138.09082 156.0
138.121231 164.0
138.156311 200.0
138.248703 200.0
138.460022 176.0
138.488724 100.0
138.650375 176.0
138.687881 140.0
138.748825 176.0
138.816833 104.0
138.898911 168.0
138.999802 212.0
139.029327 144.0
139.052872 2224.0
139.166458 216.0
139.293274 144.0
139.312073 100.0
139.505692 196.0
139.565903 40.0
139.707016 144.0
139.862335 140.0
139.895279 124.0
139.932953 184.0
139.968277 160.0
140.0513 320.0
140.121368 40.0
140.166733 160.0
140.239197 152.0
140.255692 72.0
140.347641 180.0
140.677948 152.0
140.710999 192.0
140.845612 112.0
141.058075 196.0
141.098465 92.0
141.323151 132.0
141.443848 80.0
141.510132 52.0
141.584091 192.0
141.656967 176.0
141.687775 208.0
141.706909 152.0
141.735153 172.0
141.844177 224.0
141.920883 204.0
141.950867 116.0
142.073486 216.0
142.121658 172.0
142.178604 80.0
142.328156 204.0
142.354279 184.0
142.49205 144.0
142.603745 84.0
142.641769 76.0
142.663162 164.0
142.779678 148.0
142.922409 180.0
143.129501 168.0
143.215225 128.0
143.300995 160.0
143.339111 60.0
143.591812 204.0
143.978455 160.0
144.07399 108.0
144.107437 316.0
144.193466 36.0
144.535446 236.0
144.5522 196.0
144.633575 48.0
144.849838 176.0
144.896988 196.0
144.983261 132.0
145.028122 936.0
145.062347 96.0
145.134277 108.0
145.374161 188.0
145.57341 72.0
145.609421 160.0
145.758377 236.0
145.897781 64.0
146.024277 1468.0
146.061295 132.0
146.116638 180.0
146.13588 60.0
146.24176 120.0
146.283859 148.0
146.34288 184.0
146.48497 140.0
146.653641 168.0
146.733185 204.0
146.902008 156.0
147.024185 208.0
147.063675 236.0
147.087814 288.0
147.12886 136.0
147.396957 64.0
147.467041 184.0
147.590332 160.0
147.626602 228.0
147.837067 180.0
147.960526 180.0
147.984879 196.0
148.149414 244.0
148.176071 132.0
148.209991 64.0
148.256027 100.0
148.418442 312.0
148.513031 152.0
148.624619 152.0
148.661026 200.0
148.749054 344.0
148.80423 84.0
148.986389 156.0
149.010681 192.0
149.040573 172.0
149.086197 252.0
149.465363 128.0
149.511597 148.0
149.664581 152.0
149.713669 160.0
149.959732 28.0
150.041901 136.0
150.186493 128.0
150.227966 76.0
150.274323 136.0
150.406097 188.0
150.440277 96.0
150.579453 124.0
150.596558 164.0
150.657623 48.0
150.7798 84.0
150.899582 160.0
151.053925 168.0
151.080551 132.0
151.131943 132.0
151.313049 148.0
151.349777 28.0
151.638855 120.0
151.665817 144.0
151.77124 168.0
151.96991 144.0
152.063461 1972.0
152.12207 40.0
152.188095 112.0
152.225189 32.0
152.266953 156.0
152.291504 176.0
152.320984 164.0
152.384857 212.0
152.406967 172.0
152.436462 104.0
152.455933 208.0
152.507736 184.0
152.623276 192.0
152.692123 120.0
152.719193 216.0
152.771744 76.0
152.817581 324.0
152.918488 108.0
153.059052 364.0
153.108063 188.0
153.282959 104.0
153.33226 52.0
153.371689 168.0
153.413589 208.0
153.44072 76.0
153.475235 180.0
153.507294 172.0
153.823105 156.0
153.843781 180.0
153.978653 200.0
154.015701 208.0
154.070053 200.0
154.124405 160.0
154.161469 76.0
154.191132 108.0
154.210907 40.0
154.265289 100.0
154.334503 184.0
154.760086 176.0
154.906219 144.0
154.92543 228.0
155.129242 88.0
155.411972 124.0
155.478973 200.0
155.518692 112.0
155.588196 224.0
155.605576 136.0
155.655228 236.0
155.893707 132.0
156.032913 156.0
156.182114 124.0
156.602768 160.0
156.665924 180.0
156.683304 96.0
156.762375 180.0
156.939194 124.0
156.991562 244.0
157.011505 116.0
157.143723 160.0
157.168671 136.0
157.198608 212.0
157.375839 152.0
157.430771 180.0
157.468246 192.0
157.49321 72.0
157.538177 60.0
157.58815 136.0
157.644745 92.0
157.748093 152.0
157.840607 164.0
157.953156 176.0
158.063232 96.0
158.155823 36.0
158.200882 204.0
158.236755 160.0
158.308548 208.0
158.483902 156.0
158.529007 212.0
158.61673 176.0
158.654327 120.0
158.724533 132.0
158.802124 204.0
158.824844 148.0
158.942764 172.0
159.040634 184.0
159.33194 228.0
159.497803 108.0
159.636078 100.0
159.927917 216.0
160.076462 124.0
160.209946 112.0
160.41156 92.0
160.542664 196.0
160.613281 164.0
160.699066 172.0
160.764664 116.0
160.784851 116.0
160.825241 160.0
160.964096 152.0
160.986816 148.0
161.039856 168.0
161.067642 180.0
161.145966 124.0
161.277374 68.0
161.545532 164.0
161.641556 100.0
161.818741 164.0
161.897232 140.0
162.006149 136.0
162.036545 72.0
162.104965 132.0
162.145508 132.0
162.231689 112.0
162.27887 152.0
162.368622 72.0
162.43338 196.0
162.524124 188.0
163.052979 2104.0
163.088715 136.0
163.107483 156.0
163.173584 136.0
163.193924 116.0
163.26004 88.0
163.285461 28.0
163.356689 80.0
163.382126 168.0
163.478821 128.0
163.560257 40.0
163.649368 112.0
163.729218 212.0
163.797073 116.0
163.914276 124.0
163.96524 204.0
164.003464 260.0
164.027176 212.0
164.061966 3452.0
164.113098 88.0
164.14624 152.0
164.18959 156.0
164.21254 168.0
164.286514 128.0
164.373276 60.0
164.403885 176.0
164.447098 232.0
164.498337 228.0
164.531021 104.0
164.545349 144.0
164.569809 44.0
164.611069 156.0
164.680496 192.0
164.731018 132.0
164.771591 160.0
164.807358 160.0
164.862274 292.0
164.88913 136.0
164.910492 148.0
164.940247 464.0
164.977386 348.0
164.99382 220.0
165.040329 368.0
165.070816 111268.0
165.125275 308.0
165.143829 152.0
165.168289 168.0
165.192307 56.0
165.229584 160.0
165.249252 92.0
165.274048 120.0
165.300873 48.0
165.327744 92.0
165.34967 60.0
165.372894 112.0
165.426285 68.0
165.433716 128.0
165.450897 112.0
165.460068 76.0
165.491669 1280.0
165.524719 56.0
165.551346 128.0
165.568008 148.0
165.59938 60.0
165.63829 96.0
165.705429 28.0
165.759109 80.0
165.772583 96.0
165.79512 64.0
165.83783 156.0
165.862183 192.0
165.908142 212.0
165.935455 176.0
165.951691 212.0
166.007904 28.0
166.034927 200.0
166.073471 20312.0
166.128448 48.0
166.154099 24.0
166.192093 124.0
166.215683 32.0
166.243912 76.0
166.283691 88.0
166.292068 44.0
166.356201 80.0
166.379944 36.0
166.421753 100.0
166.460083 132.0
166.487793 76.0
166.514832 120.0
166.549438 144.0
166.600815 168.0
166.644485 76.0
166.662476 68.0
166.711304 60.0
166.737 36.0
166.785828 64.0
166.806396 88.0
166.839813 264.0
166.935638 104.0
166.967209 88.0
167.006958 72.0
167.045547 44.0
167.076324 1748.0
167.129761 60.0
167.157211 80.0
167.176682 140.0
167.209579 96.0
167.234024 288.0
167.309006 96.0
167.335175 244.0
167.35939 76.0
167.368301 128.0
167.393005 68.0
167.42038 108.0
167.457382 52.0
167.475418 132.0
167.495209 176.0
167.502289 120.0
167.510818 108.0
167.614532 72.0
167.905838 76.0
168.057358 2164.0
168.103134 152.0
168.169006 96.0
168.201202 80.0
168.312546 80.0
168.339401 56.0
168.367813 76.0
168.388474 336.0
168.419464 56.0
168.589981 196.0
168.721817 164.0
168.745087 32.0
168.866623 72.0
169.024429 100.0
169.060898 420.0
169.089127 128.0
169.1586 200.0
169.210785 64.0
169.231506 128.0
169.264236 112.0
169.353226 60.0
169.415085 104.0
169.478363 116.0
169.744553 48.0
169.775681 116.0
169.840515 140.0
169.923523 100.0
169.962448 48.0
169.985809 192.0
170.058472 60.0
170.076645 28.0
170.118179 164.0
170.180481 88.0
170.349289 52.0
170.590973 112.0
170.874451 64.0
170.962921 92.0
171.054016 140.0
171.100876 152.0
171.335266 56.0
171.361313 108.0
171.634995 168.0
171.854095 236.0
172.055069 84.0
172.303177 84.0
172.324081 180.0
172.543625 148.0
172.690063 100.0
172.771149 176.0
172.834229 188.0
173.00145 184.0
173.079987 48.0
173.318359 48.0
173.535904 92.0
173.588348 136.0
173.784286 100.0
173.858551 140.0
173.876923 64.0
174.147354 180.0
174.289215 104.0
174.307617 64.0
174.499496 200.0
174.520523 64.0
174.796722 172.0
174.836197 180.0
174.909897 172.0
175.057327 140.0
175.268066 120.0
175.428833 120.0
175.463104 32.0
175.858795 144.0
176.062347 388.0
176.088501 244.0
176.265503 48.0
176.424088 180.0
176.683258 96.0
176.786453 92.0
176.804977 124.0
176.836746 192.0
176.905563 108.0
177.004623 164.0
177.05687 1532.0
177.130646 168.0
177.302872 48.0
177.430115 196.0
177.514954 132.0
177.569565 108.0
177.608948 100.0
177.642273 64.0
177.670593 124.0
177.796158 128.0
178.061905 660.0
178.566635 152.0
178.630478 180.0
178.654419 124.0
178.68634 216.0
179.005753 52.0
179.061676 112.0
179.162888 208.0
179.363159 108.0
179.384079 148.0
179.469391 200.0
179.541397 176.0
179.642761 84.0
179.752151 168.0
180.078568 428.0
180.115234 208.0
180.176682 164.0
180.331665 44.0
180.553574 136.0
180.773285 64.0
180.813095 168.0
181.032623 156.0
181.060974 244.0
181.080338 184.0
181.090775 84.0
181.097702 200.0
181.123688 152.0
181.193329 160.0
181.330002 56.0
181.549835 60.0
181.63298 80.0
181.957703 176.0
182.014084 48.0
182.055222 112.0
182.094803 476.0
182.210159 64.0
182.297928 48.0
182.460098 88.0
182.519257 60.0
182.704834 184.0
182.745193 176.0
183.057434 120.0
183.081284 284.0
183.200195 116.0
183.232513 184.0
183.356476 96.0
183.485855 172.0
183.804138 116.0
183.949875 116.0
184.077682 268.0
184.149689 116.0
184.695679 220.0
184.928375 64.0
184.982513 112.0
185.632767 148.0
185.673447 48.0
185.917618 240.0
186.043793 180.0
186.121201 72.0
186.140213 48.0
186.463501 88.0
186.542328 80.0
186.797943 132.0
186.939423 100.0
187.015625 176.0
187.053741 156.0
187.211655 236.0
187.274292 224.0
187.39415 124.0
187.544037 56.0
187.666718 212.0
187.995209 200.0
188.045898 232.0
188.068115 172.0
188.089996 236.0
188.141449 176.0
188.183853 184.0
188.239746 76.0
188.417282 168.0
188.450058 60.0
188.605835 92.0
188.686661 212.0
188.879272 196.0
189.051895 172.0
189.246002 136.0
189.377441 108.0
189.429489 88.0
189.461319 84.0
189.536346 96.0
189.624039 48.0
189.980057 248.0
190.064957 7500.0
190.101746 192.0
190.153381 192.0
190.227295 112.0
190.367508 176.0
190.433426 100.0
190.491104 184.0
190.53067 120.0
190.601013 152.0
190.659485 72.0
190.790649 148.0
190.831894 100.0
190.855743 136.0
190.89328 160.0
191.016205 168.0
191.073502 16128.0
191.125519 228.0
191.169266 80.0
191.208008 132.0
191.247299 72.0
191.283081 72.0
191.382187 60.0
191.408417 144.0
191.456787 228.0
191.518723 104.0
191.609055 196.0
191.63559 64.0
191.654877 100.0
191.745819 40.0
191.800949 84.0
191.853317 164.0
191.88089 176.0
191.916733 44.0
191.958405 72.0
191.968536 104.0
191.976837 100.0
192.020767 236.0
192.080856 26036.0
192.14566 36.0
192.181519 32.0
192.220154 172.0
192.256027 44.0
192.290573 172.0
192.346161 128.0
192.404922 68.0
192.471344 240.0
192.576294 76.0
192.628769 56.0
192.664688 64.0
192.747574 48.0
192.813904 80.0
192.887329 184.0
192.91893 48.0
192.990814 180.0
193.027374 164.0
193.082962 3492.0
193.214844 92.0
193.256348 72.0
193.306152 164.0
193.466064 176.0
193.602371 88.0
193.685455 60.0
193.744858 72.0
193.790726 52.0
193.854462 100.0
193.882172 60.0
193.948685 124.0
194.039368 164.0
194.067184 432.0
194.089767 364.0
194.148315 72.0
194.242004 180.0
194.502747 128.0
194.567947 140.0
194.667816 140.0
194.745026 96.0
194.883926 68.0
195.068237 164.0
195.149841 72.0
195.295364 72.0
195.323181 64.0
195.387161 152.0
195.484558 96.0
195.520737 124.0
195.852051 80.0
196.008072 264.0
196.051605 624.0
196.080902 180.0
196.136276 128.0
196.166931 72.0
196.239426 64.0
196.479279 176.0
196.504395 88.0
196.719284 136.0
197.055756 280.0
197.163391 52.0
197.283585 48.0
197.46814 76.0
197.745132 68.0
198.058716 524.0
199.061005 76.0
199.102081 80.0
199.144211 148.0
199.43924 136.0
199.681046 60.0
199.827316 196.0
200.249573 136.0
200.632812 160.0
200.841476 72.0
200.912003 256.0
201.063629 264.0
201.163162 208.0
201.637695 140.0
201.702713 116.0
202.065475 428.0
202.192032 104.0
202.327896 204.0
202.568619 96.0
202.886017 140.0
203.010773 148.0
203.039124 152.0
203.070328 124.0
203.305801 124.0
203.467606 148.0
203.657867 116.0
203.888 192.0
204.004532 148.0
204.060593 200.0
204.195053 84.0
204.331589 96.0
204.399872 96.0
204.730087 120.0
204.903854 200.0
204.938034 180.0
205.060577 176.0
205.628143 144.0
205.992126 140.0
206.064056 148.0
206.216507 164.0
206.848648 148.0
207.017578 116.0
207.295456 140.0
207.427292 136.0
207.455963 112.0
207.587845 76.0
207.665283 52.0
207.906281 44.0
208.078506 108.0
208.285278 160.0
208.308258 96.0
208.736496 128.0
208.779633 180.0
209.085129 192.0
209.421448 136.0
209.692276 204.0
210.093018 156.0
210.358582 152.0
210.442001 164.0
210.549149 92.0
211.049088 180.0
211.177658 144.0
211.407776 48.0
212.488586 188.0
212.619171 200.0
212.746887 108.0
212.77301 176.0
212.92981 224.0
213.014053 188.0
213.112823 100.0
213.173843 156.0
213.429565 140.0
213.496536 192.0
213.764175 100.0
213.848572 148.0
213.921341 184.0
214.26207 168.0
214.95311 140.0
215.367676 136.0
215.80603 136.0
216.013672 128.0
216.080963 36.0
216.279953 136.0
216.599121 120.0
216.648926 160.0
216.886292 120.0
217.393677 192.0
217.607956 84.0
217.928101 128.0
218.013321 152.0
218.063522 200.0
218.157349 164.0
218.286713 140.0
218.61618 220.0
218.719193 120.0
218.80162 116.0
218.951797 104.0
219.032242 332.0
219.068695 7928.0
219.16684 36.0
219.228729 188.0
219.288971 164.0
219.318298 92.0
219.357574 28.0
219.420319 124.0
219.455704 124.0
219.483444 224.0
219.556107 168.0
219.582504 236.0
219.65625 184.0
219.716782 92.0
219.747696 192.0
219.824417 216.0
219.900452 136.0
219.939514 44.0
219.988937 216.0
220.07634 55892.0
220.138229 124.0
220.176025 104.0
220.204147 40.0
220.238419 192.0
220.262848 40.0
220.286758 156.0
220.333801 132.0
220.358124 48.0
220.366364 104.0
220.397278 112.0
220.422272 148.0
220.456375 44.0
220.494797 224.0
220.521393 64.0
220.549667 64.0
220.583466 68.0
220.625717 128.0
220.668533 68.0
220.701721 52.0
220.760864 68.0
220.834808 52.0
220.858475 80.0
220.879181 64.0
220.938339 48.0
221.078308 6856.0
221.169159 148.0
221.264832 100.0
221.287567 124.0
221.311264 132.0
221.385284 52.0
221.415756 140.0
221.513931 92.0
221.604492 88.0
221.637085 60.0
221.681534 116.0
221.788223 56.0
221.865295 52.0
221.972046 156.0
222.048309 100.0
222.079773 456.0
222.182632 128.0
222.221191 204.0
222.281113 100.0
222.377304 112.0
222.4319 136.0
222.466995 152.0
222.523254 52.0
222.613876 104.0
222.666473 108.0
222.694717 164.0
222.743698 76.0
222.779343 96.0
222.865509 52.0
222.892242 96.0
223.064621 136.0
223.248962 144.0
223.290604 68.0
223.314392 152.0
223.692291 44.0
223.754807 64.0
223.809402 108.0
223.862 52.0
223.924545 88.0
224.072159 264.0
224.189697 64.0
224.228439 108.0
224.604126 64.0
224.965195 60.0
225.077805 120.0
225.24292 112.0
225.843719 60.0
226.044174 76.0
226.673019 144.0
226.76593 92.0
227.08374 148.0
227.308746 248.0
227.840195 276.0
227.999435 124.0
228.059555 204.0
229.010361 100.0
229.649338 36.0
230.407028 112.0
230.863449 232.0
231.072159 140.0
231.50502 104.0
231.765533 92.0
232.056503 96.0
232.162628 172.0
232.802963 84.0
233.200958 128.0
233.286072 160.0
233.547577 60.0
234.576797 104.0
234.82074 40.0
234.860382 128.0
235.25708 76.0
235.29538 44.0
235.538025 248.0
235.868042 104.0
236.076019 172.0
236.871719 200.0
236.928497 120.0
237.081223 128.0
237.398895 144.0
237.472504 120.0
237.708725 124.0
237.799103 116.0
237.862183 104.0
237.952713 164.0
238.011078 88.0
238.086426 24588.0
238.14592 128.0
238.239899 44.0
238.270615 52.0
238.332077 40.0
238.357681 96.0
238.421188 68.0
238.461136 52.0
238.494949 48.0
238.544128 52.0
238.636368 40.0
238.716309 128.0
238.774734 52.0
238.959305 184.0
239.089935 2788.0
239.143951 108.0
239.273239 52.0
239.319427 128.0
239.435837 148.0
239.464157 72.0
239.559647 60.0
239.596619 44.0
239.735275 72.0
240.009628 172.0
240.097244 576.0
240.265625 68.0
240.441498 104.0
240.669937 80.0
240.703903 96.0
240.805817 60.0
240.879944 40.0
241.572403 124.0
241.796478 124.0
241.891129 140.0
241.980911 112.0
242.805176 64.0
242.935455 56.0
244.025543 56.0
244.597977 48.0
244.837723 60.0
248.95961 100.0
249.786224 60.0
252.717087 48.0
254.809677 44.0
260.843384 96.0
262.727264 64.0
263.495636 84.0
264.058105 120.0
264.171295 48.0
265.016296 84.0
269.013367 92.0
272.33374 52.0
274.677368 100.0
276.256378 84.0
276.507843 92.0
277.057526 68.0
278.178436 96.0
278.261414 52.0
278.676575 108.0
286.478699 116.0
290.274323 112.0
293.037781 84.0
293.627502 84.0
307.201324 72.0
312.438751 100.0
312.90332 84.0
314.239075 92.0
315.270172 84.0
319.037994 72.0
324.661774 72.0
326.543701 32.0
335.094177 68.0
337.371521 28.0
339.264221 52.0
341.073975 52.0
341.357056 76.0
343.482147 112.0
348.509705 104.0
353.641174 104.0
355.076141 104.0
360.123352 140.0
363.401672 60.0
364.404022 68.0
365.799744 108.0
371.428467 72.0
373.371948 56.0
377.015137 48.0
380.373199 96.0
386.190735 108.0
392.367798 96.0
396.118134 92.0
400.626953 76.0
402.729156 120.0
409.217712 120.0
409.680847 36.0
410.527283 44.0
412.570374 108.0
413.492615 80.0
416.671722 64.0
420.548462 28.0
420.899536 64.0
421.340668 52.0
423.451385 92.0
424.709717 60.0
424.873779 28.0
425.403168 80.0
426.48761 44.0
433.495514 44.0
436.796234 56.0
437.990875 80.0
442.609924 128.0
442.886353 76.0
454.106598 52.0
454.471436 88.0
456.225494 80.0
460.414001 84.0
474.840637 44.0
482.710083 84.0
488.033325 52.0
500.533661 112.0
501.790161 76.0
505.112732 84.0
529.401001 52.0
530.532776 44.0
536.352417 112.0
539.514526 112.0
541.096802 108.0
550.209167 56.0
554.573608 52.0
555.201843 108.0
560.217102 64.0
566.869629 28.0
572.241821 72.0
575.106873 92.0
580.402771 84.0
592.374634 40.0
596.703491 56.0
612.752014 100.0
619.966248 56.0
625.623657 112.0
627.053223 60.0
632.187195 100.0
636.367676 132.0
645.285583 116.0
663.866455 92.0
684.396973 136.0
692.439026 172.0
705.13446 60.0
706.503967 56.0
716.729797 172.0
740.13916 92.0
756.07843 140.0
769.352844 44.0
774.562012 20.0
793.571594 72.0
796.34375 40.0
800.19574 52.0
821.944397 72.0
827.213867 60.0
828.192993 116.0
828.565369 104.0
830.078552 80.0
838.517822 184.0
848.257202 128.0
852.802124 72.0
853.534668 76.0
853.621887 96.0
862.927917 148.0
863.214417 96.0
870.010986 56.0
873.125183 44.0
886.241943 36.0
895.693848 84.0
899.426575 152.0
904.058533 96.0
928.633545 208.0
937.972961 188.0
947.432678 172.0
953.38446 200.0
979.450989 220.0
983.722473 156.0
991.785461 204.0
993.867493 36.0
994.438599 56.0
1004.625977 216.0
1009.546265 96.0
1012.115417 132.0
1012.976746 152.0
1024.729614 236.0
1024.984497 160.0
1025.723755 84.0
1031.941772 48.0
1033.11853 152.0
1035.089844 168.0
1035.973633 80.0
1039.243408 276.0
1041.920654 164.0
1048.026367 84.0
1049.495972 68.0
1050.689087 52.0
1051.611938 132.0
1057.228149 64.0
1060.245972 180.0
1062.145752 140.0
1065.677246 248.0
1066.64563 236.0
1068.668091 180.0
1076.411743 216.0
1077.332642 56.0
1084.799316 60.0
1087.836548 40.0
1102.200806 176.0
1107.58606 176.0
1109.666992 184.0
1121.166504 224.0
1128.609497 244.0
1128.997314 212.0
1131.037964 212.0
1132.490967 140.0
1132.705322 200.0
1145.043823 240.0
1145.939819 144.0
1149.405518 96.0
1153.58606 148.0
1154.992554 140.0
1157.408569 192.0
1159.386597 120.0
1167.900513 144.0
1172.537109 188.0
1174.248291 192.0
1176.220215 40.0
1180.893799 204.0
1181.427368 152.0
1181.7146 60.0
1182.679565 108.0
1183.30249 160.0
1187.455078 212.0
1190.385498 100.0
1191.134033 188.0
1192.37085 44.0
1192.577026 92.0
1198.743408 88.0
1199.067261 168.0
1200.011719 108.0
1203.192261 200.0
1204.07605 208.0
1205.893066 68.0
1206.971558 104.0
1208.597046 128.0
1208.970703 124.0
1209.205933 180.0
1214.554932 192.0
1215.616333 156.0
1217.081055 144.0
1221.494141 80.0
1222.412476 124.0
1223.929932 68.0
1224.898071 180.0
1226.667969 228.0
1227.448853 132.0
1232.09021 124.0
1235.494873 68.0
1237.076416 120.0
1238.736084 160.0
1242.479492 152.0
1246.081177 156.0
1246.439453 140.0
1251.567261 140.0
1252.081299 160.0
1252.348877 40.0
1252.658813 188.0
1252.947632 40.0
1254.399414 172.0
1254.455811 200.0
1257.150024 132.0
1257.262939 36.0
1259.331543 172.0
1259.995605 188.0
1265.037842 64.0
1266.730225 64.0
1269.06897 208.0
1273.688965 168.0
1274.044067 156.0
1275.088623 176.0
1275.259155 140.0
1275.806519 144.0
1278.224731 152.0
1281.920532 116.0
1282.72583 148.0
1283.175049 72.0
1284.151978 116.0
1285.6073 56.0
1285.75 148.0
1286.078369 176.0
1286.535156 36.0
1288.206177 136.0
1291.365601 132.0
1293.78418 132.0
1296.677979 144.0
1298.283936 204.0
1300.393188 156.0
1302.7052 240.0
1302.784302 144.0
1303.265625 188.0
1303.74707 92.0
1304.056152 196.0
1305.652222 196.0
1306.335449 176.0
1309.646606 192.0
1309.913086 180.0
1313.560547 144.0
1313.935669 160.0
1314.722168 172.0
1315.342896 132.0
1315.848267 172.0
1319.388306 208.0
1321.76062 212.0
1321.833008 68.0
1321.963257 100.0
1324.178467 172.0
1324.736206 144.0
1324.946289 60.0
1326.837891 176.0
1329.129761 184.0
1331.590698 156.0
1332.251709 168.0
1332.556885 96.0
1332.68042 176.0
1339.198486 80.0
1339.824951 180.0
1339.941528 56.0
1341.049072 124.0
1346.703613 124.0
1347.689819 236.0
1348.391357 248.0
1350.621338 140.0
1350.994507 168.0
1352.589722 220.0
1353.036255 132.0
1353.709839 68.0
1355.460571 208.0
1356.897217 140.0
1357.65979 96.0
1358.44458 200.0
1358.715942 92.0
1359.053467 160.0
1359.141602 140.0
1359.574463 172.0
1360.491943 28.0
1361.049927 132.0
1361.314331 168.0
1362.019409 120.0
1363.937134 160.0
1364.091553 144.0
1367.394043 228.0
1367.747314 244.0
1369.293579 52.0
1370.980591 116.0
1371.444946 164.0
1372.265015 196.0
1375.22876 236.0
1375.405884 164.0
1376.003784 152.0
1376.823486 132.0
1379.727295 148.0
1381.228516 164.0
1383.115356 140.0
1384.618286 52.0
1385.529419 116.0
1385.751709 68.0
1386.477905 164.0
1388.138428 192.0
1388.813232 80.0
1389.903809 184.0
1390.089355 168.0
1390.415894 160.0
1390.65332 168.0
1392.234741 136.0
1392.301514 192.0
1393.95813 104.0
1394.820312 220.0
1395.206787 152.0
1397.579346 36.0
1398.107666 192.0
1399.298706 108.0
1401.838623 232.0
1402.598755 164.0
1404.947754 140.0
1405.84314 156.0
1405.940186 180.0
1406.902954 128.0
1409.240601 100.0
1410.309204 152.0
1411.692383 232.0
1412.55249 124.0
1413.884277 48.0
1414.737549 184.0
1415.306519 196.0
1417.636108 136.0
1419.442749 216.0
1419.592651 120.0
1420.612793 140.0
1421.760742 68.0
1422.226074 188.0
1427.785767 140.0
1427.951294 156.0
1428.831421 180.0
1428.914062 140.0
1430.012817 136.0
1430.133179 132.0
1430.343994 140.0
1430.419189 144.0
1430.998901 176.0
1431.9552 140.0
1432.22644 148.0
1433.831177 244.0
1433.966797 160.0
1436.123169 164.0
1437.028442 88.0
1437.088745 208.0
1438.077393 160.0
1438.195312 104.0
1439.66272 68.0
1441.105469 96.0
1441.294434 100.0
1441.732666 160.0
1441.951904 160.0
1443.478882 140.0
1444.80249 144.0
1446.709595 144.0
1448.07251 140.0
1448.451294 156.0
1448.723999 140.0
1449.951416 128.0
1450.04248 128.0
1451.323486 160.0
1452.104614 124.0
1452.529419 204.0
1454.411133 160.0
1454.684448 140.0
1455.625854 196.0
1456.415649 212.0
1457.152588 184.0
1457.426147 136.0
1458.398804 200.0
1459.166626 160.0
1460.223511 124.0
1460.520142 120.0
1462.542969 124.0
1463.122681 96.0
1463.30542 156.0
1463.868896 124.0
1466.110352 228.0
1466.672485 84.0
1467.030762 228.0
1470.5625 148.0
1471.005127 128.0
1472.119873 132.0
1472.746094 120.0
1473.448853 104.0
1474.23584 124.0
1474.488037 136.0
1474.572144 156.0
1475.634644 136.0
1477.187134 140.0
1478.763306 188.0
1479.199707 144.0
1479.865723 120.0
1480.455322 236.0
1480.60083 160.0
1483.136841 124.0
1484.118042 152.0
1485.207031 108.0
1486.342529 204.0
1486.423096 204.0
1486.864258 164.0
1487.447632 148.0
1490.68103 128.0
1492.648804 124.0
1493.437378 232.0
1493.865234 180.0
1493.932007 176.0
1494.033325 144.0
1495.056641 144.0
1496.842529 136.0
1498.059448 132.0
1499.315308 160.0
1499.392456 152.0
1501.219482 168.0
1501.697632 192.0
1501.821045 196.0
1502.623291 260.0
