>compound Doxycycline HCl
>formula C22H24N2O8
>ionization [M+H]+
>parentmass 445.162109
#inchi InChI=1S/C22H24N2O8/c1-7-8-5-4-6-9(25)11(8)16(26)12-10(7)17(27)14-15(24(2)3)18(28)13(21(23)31)20(30)22(14,32)19(12)29/h4-7,10,14-15,17,25,27-29,32H,1-3H3,(H2,23,31)/t7-,10-,14-,15-,17-,22+/m1/s1
#inchikey JBIWCJUYHHGXTC
#origInchi InChI=1S/C22H24N2O8.ClH/c1-7-8-5-4-6-9(25)11(8)16(26)12-10(7)17(27)14-15(24(2)3)18(28)13(21(23)31)20(30)22(14,32)19(12)29;/h4-7,10,14-15,17,25,27-29,32H,1-3H3,(H2,23,31);1H/t7-,10-,14-,15-,17-,22+;/m1./s1
#Ion_Source LC-ESI
#Instrument qTof
#Compound_Source Commercial
#PI Dorrestein
#Data_Collector Garg_Neha
#Scan -1
#Precursor_MZ 445.161
#ExactMass 444.153
#Charge 1
#CAS_Number 10592-13-9, 564-25-0(free base)
#Pubmed_ID N/A
#Smiles Cl.C1=CC(=C2C(=C1)[C@H]([C@@]3(C(C2=O)=C([C@]4([C@@]([C@@H]3O)([C@H](C(=C(C4=O)C(N)=O)O)N(C)C)[H])O)O)[H])C)O
#INCHI_AUX N/A
#Library_Class 1
#SpectrumID CCMSLIB00000078614
#IonMode Positive
#UpdateWorkflowName UPDATE-SINGLE-ANNOTATED-GOLD
#LibraryQualityString Gold
#TaskID 77f51c88eb8b467eb4a01dd2d0cb90d2
##Scan# 1076
#SpectrumFile Plate9_81_88_Plate8_81_88_GC8_01_15759.mzXML
#LibraryName FDALibrary_2_04302014.mgf
#MQScore -1
#Organism FDALibrary_2_04302014
#TIC_Query 0
#RT_Query -1
#MZErrorPPM -1
#SharedPeaks 0
#MassDiff 0
#LibMZ -1
#SpecMZ 445.161
#SpecCharge 0
#internalFilename spec-00000.mgf

>collision 10
45.555195 176.0
47.532143 208.0
49.113518 192.0
50.739197 164.0
51.815243 232.0
51.909843 160.0
52.126602 140.0
52.577354 140.0
53.24332 180.0
53.358116 192.0
53.627422 208.0
53.644913 168.0
53.713451 192.0
53.849197 172.0
54.602535 196.0
55.026924 144.0
55.097816 140.0
58.804321 188.0
60.788132 156.0
62.582649 248.0
62.921631 144.0
63.621391 168.0
64.055534 168.0
65.392555 156.0
65.43763 148.0
66.704369 180.0
67.01358 164.0
67.893021 172.0
68.039055 176.0
69.382629 188.0
70.600853 144.0
72.012627 204.0
72.157951 160.0
72.891876 168.0
73.135078 248.0
75.58242 168.0
76.36483 164.0
76.387436 180.0
76.427452 184.0
76.655563 144.0
76.756668 176.0
77.95578 144.0
78.233681 144.0
78.249527 140.0
79.185432 220.0
80.286346 188.0
81.774368 148.0
82.64238 164.0
83.019157 144.0
84.340088 200.0
85.347443 208.0
90.042053 184.0
91.574532 180.0
91.639305 212.0
92.217514 144.0
92.293983 236.0
92.743874 184.0
93.990089 264.0
96.870399 236.0
97.008659 140.0
98.059464 2452.0
99.06218 372.0
100.078819 324.0
100.767036 180.0
101.077957 216.0
104.941124 140.0
105.051254 160.0
105.071655 188.0
105.537331 180.0
105.960999 204.0
106.231613 188.0
106.332153 296.0
107.012573 160.0
108.800957 204.0
109.447563 152.0
111.008507 164.0
112.753731 156.0
115.146011 164.0
116.235664 144.0
116.817909 236.0
116.895363 188.0
117.068832 296.0
117.62384 152.0
118.761993 236.0
119.124496 228.0
119.840263 152.0
120.062607 140.0
121.04599 144.0
121.164268 148.0
121.556747 144.0
122.035591 152.0
122.81517 156.0
123.04467 140.0
124.037209 596.0
126.055321 2120.0
126.99691 332.0
127.055161 444.0
127.517807 180.0
128.064545 148.0
129.073318 152.0
129.111771 164.0
129.838745 164.0
130.065628 152.0
130.158707 212.0
131.049057 172.0
131.164291 176.0
131.597748 148.0
132.290314 120.0
133.061768 144.0
133.166397 180.0
133.842499 152.0
133.996826 144.0
134.058762 136.0
135.042542 160.0
135.063354 184.0
135.144318 144.0
135.449921 144.0
135.875275 148.0
136.031952 156.0
136.074417 236.0
137.020813 340.0
137.043625 164.0
138.017929 152.0
138.054352 164.0
138.089432 168.0
138.454529 228.0
139.035736 260.0
139.059418 184.0
140.051636 160.0
140.07283 160.0
141.047379 184.0
141.063919 144.0
141.085205 208.0
141.54184 208.0
141.942291 168.0
142.086975 148.0
143.416275 144.0
144.061646 164.0
145.062622 536.0
145.663147 160.0
146.005386 120.0
146.062698 164.0
146.377457 208.0
147.006439 176.0
147.082047 300.0
149.027588 380.0
149.05867 344.0
150.026382 196.0
150.055328 220.0
151.005554 152.0
152.035507 480.0
152.06778 244.0
153.016174 420.0
153.303482 144.0
154.01651 224.0
154.049667 7732.0
154.085678 144.0
154.112473 104.0
154.226532 164.0
154.283829 224.0
155.053665 928.0
155.087891 140.0
155.909393 200.0
156.070984 204.0
156.184555 156.0
156.369492 240.0
156.63591 188.0
157.029739 172.0
157.063522 232.0
158.065323 124.0
159.0439 164.0
159.079346 344.0
159.317612 268.0
159.66449 156.0
159.933701 140.0
161.023224 384.0
161.061401 284.0
161.096161 148.0
161.257874 148.0
162.067322 204.0
162.191849 156.0
163.001556 96.0
163.034027 172.0
163.527878 148.0
164.039856 152.0
164.069107 312.0
164.948608 152.0
165.018295 1080.0
165.058548 192.0
165.076447 148.0
166.033981 176.0
166.054108 196.0
166.082291 188.0
167.037674 404.0
167.08223 144.0
168.06514 264.0
168.087601 160.0
169.068268 248.0
169.089767 140.0
169.669998 228.0
170.046097 168.0
170.080383 332.0
170.406982 104.0
170.731995 200.0
170.797028 140.0
170.872208 200.0
171.080383 300.0
172.063446 148.0
173.023087 324.0
173.059265 1156.0
173.096436 164.0
173.326813 200.0
173.968201 220.0
174.064728 724.0
174.47905 148.0
175.037735 212.0
175.075134 2344.0
175.646362 176.0
176.072586 432.0
176.382355 152.0
176.509262 156.0
176.626999 108.0
177.080536 180.0
178.048981 352.0
178.075485 160.0
178.101776 124.0
178.999146 200.0
179.032913 140.0
179.091507 140.0
180.065552 584.0
181.009033 160.0
181.035812 148.0
181.068039 264.0
181.856186 164.0
182.04306 488.0
182.078445 1104.0
182.111267 312.0
182.543945 184.0
183.04715 248.0
183.078613 480.0
183.8181 152.0
183.882874 192.0
184.063751 264.0
185.057983 516.0
185.093674 424.0
186.325363 204.0
186.947617 124.0
187.040741 132.0
187.075745 1236.0
188.076523 844.0
188.100937 168.0
188.281128 140.0
188.360336 176.0
188.702957 152.0
188.8797 156.0
189.022049 152.0
189.056366 144.0
189.083221 168.0
190.020401 152.0
190.049911 268.0
190.546463 244.0
190.995743 404.0
191.03363 368.0
191.085327 152.0
191.162369 152.0
191.881271 160.0
192.066849 892.0
192.631912 184.0
193.011063 564.0
193.070786 220.0
193.581116 188.0
194.662079 184.0
195.051254 136.0
195.080261 964.0
195.115417 152.0
195.162231 252.0
195.415344 140.0
195.47377 144.0
196.057129 368.0
196.08432 236.0
196.998138 184.0
197.061584 412.0
197.093109 784.0
197.594345 180.0
197.717468 172.0
198.076965 280.0
199.07431 408.0
199.512634 140.0
200.07515 268.0
200.984314 212.0
201.022003 168.0
201.054688 8992.0
201.090042 404.0
201.618195 168.0
202.022186 160.0
202.056702 964.0
203.068924 420.0
204.067825 292.0
204.354599 188.0
205.080032 168.0
205.791092 184.0
206.044525 296.0
207.08223 128.0
207.421768 140.0
207.969635 144.0
208.060791 736.0
208.963928 160.0
209.038742 192.0
209.065216 160.0
209.571442 164.0
210.002304 252.0
210.076218 1116.0
210.734207 156.0
211.074677 776.0
211.900192 208.0
212.078583 340.0
212.831238 216.0
213.059265 244.0
213.091522 1388.0
213.441422 160.0
213.511215 148.0
214.054825 272.0
214.094955 172.0
215.000702 196.0
215.069717 324.0
215.105545 168.0
215.931885 160.0
216.078995 124.0
217.014389 268.0
217.081985 168.0
217.749725 184.0
217.775436 148.0
217.903 104.0
218.022232 204.0
218.042801 160.0
218.06337 176.0
219.02417 368.0
219.073502 372.0
219.741867 180.0
220.079132 164.0
221.009399 172.0
221.062271 152.0
221.093872 160.0
221.281708 220.0
221.800125 184.0
221.927612 144.0
222.068573 112.0
222.153 140.0
223.019684 184.0
223.074921 1008.0
223.74292 192.0
223.97818 180.0
224.030304 96.0
224.07814 268.0
224.124161 180.0
224.708557 148.0
224.86969 144.0
224.96521 244.0
225.053894 352.0
225.091431 1024.0
225.357895 132.0
225.861679 140.0
226.064514 1344.0
226.095871 264.0
226.130951 196.0
227.071396 1240.0
227.335724 264.0
228.078918 360.0
228.15271 140.0
229.060165 120.0
229.083679 324.0
230.041656 136.0
230.089523 176.0
230.1259 120.0
230.427216 160.0
230.545975 280.0
230.691055 204.0
231.06514 1084.0
232.062653 392.0
232.57518 144.0
232.827179 172.0
233.069382 120.0
234.0634 148.0
234.089218 152.0
235.070724 888.0
235.916824 144.0
236.053177 1064.0
236.084732 136.0
236.966553 240.0
237.051407 168.0
237.092606 380.0
238.06073 420.0
238.949921 144.0
239.070099 2384.0
240.038055 304.0
240.076401 1372.0
241.08577 4400.0
241.118607 256.0
241.194962 196.0
241.349533 220.0
241.655746 176.0
241.861862 192.0
242.056137 648.0
242.088593 1004.0
243.062729 492.0
243.099289 544.0
243.612 168.0
243.984909 140.0
244.066391 188.0
244.099533 208.0
246.084793 160.0
246.156616 172.0
246.181595 176.0
246.497101 192.0
247.025574 124.0
247.073502 448.0
247.096664 276.0
247.834579 148.0
248.754181 176.0
249.053909 176.0
249.090973 504.0
249.484055 156.0
250.073471 508.0
250.116348 200.0
251.069656 1576.0
251.102356 208.0
251.203476 180.0
251.399094 152.0
252.04071 1012.0
252.134918 144.0
252.179169 140.0
252.419434 180.0
253.04599 700.0
253.083969 2572.0
253.164474 128.0
253.670029 148.0
254.053619 684.0
254.086365 144.0
254.126709 156.0
255.063507 1368.0
255.588303 216.0
255.799744 212.0
256.074554 320.0
256.102966 172.0
256.190033 148.0
257.079742 1708.0
258.08252 212.0
258.641754 192.0
259.070679 108.0
259.093353 308.0
259.308716 216.0
260.049011 132.0
260.338531 140.0
261.055542 352.0
261.087311 192.0
261.560272 216.0
262.068054 112.0
262.410767 208.0
263.023712 188.0
263.067902 1048.0
263.429352 160.0
263.656738 148.0
263.868317 176.0
264.074463 508.0
264.588318 160.0
264.866821 228.0
265.084961 1368.0
265.151947 212.0
265.55722 184.0
266.062408 140.0
266.088623 240.0
266.141357 144.0
266.168884 108.0
266.618866 140.0
266.953705 148.0
267.064972 17276.0
267.529602 140.0
268.036285 604.0
268.067444 3112.0
268.129517 296.0
269.080017 5336.0
269.134888 116.0
269.210297 144.0
270.084625 1100.0
271.096375 516.0
271.138947 200.0
272.053253 428.0
272.101074 176.0
273.056244 172.0
273.902161 152.0
275.072021 948.0
275.12558 184.0
275.581329 184.0
276.072205 240.0
277.007233 144.0
277.053711 256.0
277.088226 628.0
278.00296 112.0
278.055298 1584.0
278.194397 148.0
278.812195 152.0
279.062531 1420.0
280.07016 396.0
280.436371 164.0
280.733063 172.0
280.796448 152.0
281.043304 144.0
281.08197 856.0
281.620819 156.0
281.797882 148.0
281.98703 120.0
282.019867 176.0
282.081512 428.0
283.058014 1384.0
283.089661 580.0
283.155853 96.0
283.33017 172.0
284.065918 204.0
284.100372 280.0
284.601318 220.0
285.075928 1984.0
285.912323 140.0
286.07724 436.0
286.136475 168.0
286.499786 144.0
286.902618 156.0
287.090698 380.0
287.141998 148.0
287.91626 192.0
288.092957 188.0
288.627899 140.0
289.086029 168.0
289.131927 140.0
290.05661 248.0
290.08371 156.0
290.113892 148.0
290.419403 208.0
290.775635 140.0
291.063324 1460.0
291.096375 176.0
291.713013 132.0
292.070862 492.0
292.137177 228.0
292.720184 152.0
292.808746 156.0
293.080414 6680.0
293.173279 156.0
293.466431 188.0
293.817719 140.0
294.084137 1388.0
295.051422 512.0
295.095215 376.0
295.143707 144.0
295.943573 196.0
296.062927 192.0
296.127228 2172.0
296.21756 140.0
296.327179 212.0
296.460815 196.0
296.755585 156.0
296.982178 104.0
297.037781 128.0
297.07254 1280.0
297.131714 484.0
298.085052 312.0
298.153656 212.0
299.090302 240.0
299.415283 204.0
300.259644 216.0
300.646027 160.0
300.735779 144.0
301.049957 168.0
301.120972 176.0
301.592377 156.0
301.827576 124.0
301.969238 188.0
302.679291 112.0
302.990387 192.0
303.066833 2400.0
303.115112 216.0
303.142853 180.0
303.201752 152.0
304.001007 112.0
304.037323 180.0
304.067657 988.0
304.127808 160.0
305.048218 152.0
305.084869 620.0
306.049927 1408.0
306.101929 264.0
306.135345 128.0
307.059814 484.0
307.105469 576.0
307.325958 164.0
307.801666 156.0
308.060974 300.0
308.096619 104.0
308.136353 344.0
309.073883 1764.0
309.133148 200.0
309.188507 160.0
309.664642 192.0
309.958923 148.0
310.081421 556.0
310.110504 392.0
310.142975 164.0
310.22879 144.0
310.494476 124.0
311.089783 1152.0
312.087646 216.0
312.118774 152.0
312.567902 196.0
312.645325 180.0
313.081207 184.0
313.128479 204.0
313.663208 156.0
313.874756 160.0
314.138367 876.0
315.08139 152.0
315.14032 132.0
316.2948 204.0
317.145081 156.0
318.052917 260.0
318.108337 428.0
319.060883 1724.0
319.970245 120.0
320.064453 676.0
320.124176 192.0
320.439117 168.0
320.891754 164.0
321.075867 14624.0
321.171906 180.0
321.267456 104.0
321.586426 152.0
321.811371 204.0
322.0784 3628.0
322.380219 152.0
322.492188 108.0
322.781891 112.0
323.083191 860.0
323.417389 168.0
324.082123 308.0
324.118195 340.0
324.230408 168.0
324.291351 152.0
325.079315 180.0
325.126068 208.0
326.103882 308.0
326.149628 132.0
327.079895 240.0
328.498383 192.0
329.045563 140.0
330.116333 132.0
330.156219 156.0
330.45285 180.0
330.521606 168.0
331.059509 280.0
331.109985 156.0
331.411011 132.0
331.981445 160.0
332.062195 368.0
332.143829 392.0
332.333282 144.0
333.087982 160.0
333.15744 224.0
333.989868 144.0
334.045197 1984.0
334.100006 248.0
334.553894 184.0
334.841553 176.0
335.051361 512.0
335.158478 160.0
335.610107 164.0
335.796448 148.0
336.054626 164.0
336.121338 1152.0
336.70285 100.0
337.070343 2936.0
337.128265 436.0
337.823669 180.0
337.977356 152.0
338.074127 820.0
338.136871 388.0
338.548401 208.0
338.812103 168.0
338.92569 192.0
339.041046 164.0
339.086334 8620.0
339.137909 260.0
339.229156 140.0
339.740387 136.0
339.964661 120.0
340.089386 1972.0
341.092102 300.0
341.149811 200.0
341.602112 144.0
342.138428 204.0
344.447906 144.0
344.809998 152.0
345.612457 164.0
345.852997 140.0
345.901123 156.0
346.071411 144.0
346.10495 516.0
347.054016 1128.0
348.059692 372.0
348.120544 236.0
348.185974 132.0
348.495209 184.0
349.071045 3108.0
349.570557 124.0
349.642456 168.0
350.074921 1216.0
350.22699 176.0
351.042145 196.0
351.087891 156.0
351.117767 144.0
352.065857 304.0
353.108398 160.0
354.132965 596.0
354.328705 152.0
355.080322 228.0
356.08786 252.0
356.155701 140.0
356.722992 168.0
356.989929 152.0
357.17453 140.0
357.448853 192.0
357.565521 144.0
358.122742 144.0
359.096985 156.0
359.332825 148.0
359.566772 152.0
359.600739 144.0
359.887634 176.0
360.129333 176.0
360.541138 200.0
361.675781 140.0
362.052734 132.0
362.087158 220.0
362.304382 148.0
362.747772 152.0
363.047302 208.0
364.117279 1504.0
364.204865 184.0
364.520203 144.0
365.063782 812.0
365.118622 104.0
365.55072 244.0
366.068665 372.0
366.131927 344.0
366.220764 204.0
366.344696 184.0
366.689392 144.0
367.080139 3496.0
367.347229 116.0
367.654297 152.0
367.766815 132.0
367.883301 176.0
368.083618 1228.0
368.459961 168.0
369.0867 176.0
369.576385 152.0
370.104614 144.0
370.836304 148.0
370.920624 172.0
372.30954 148.0
372.970367 208.0
373.262543 192.0
374.09668 284.0
374.586517 160.0
374.925568 180.0
375.10672 144.0
375.766174 144.0
375.804749 168.0
376.967896 176.0
377.090485 344.0
378.099701 148.0
378.522064 144.0
379.096222 188.0
380.146423 124.0
381.104919 160.0
381.731232 148.0
381.824554 156.0
382.129272 1924.0
382.222961 172.0
382.268036 192.0
382.552155 196.0
382.622253 160.0
382.661407 132.0
383.074799 344.0
383.139252 364.0
383.642944 240.0
383.872986 144.0
384.086975 204.0
384.138367 428.0
384.553253 152.0
385.293732 180.0
385.879974 144.0
387.312256 176.0
387.378845 160.0
387.78244 140.0
387.950989 152.0
389.299713 176.0
390.098297 176.0
390.644897 152.0
390.916382 160.0
391.573822 156.0
391.707764 192.0
391.799774 132.0
392.111694 2584.0
392.795715 200.0
393.115875 692.0
393.620575 140.0
394.12204 156.0
394.335602 148.0
395.09964 128.0
395.439087 156.0
395.638885 152.0
396.373688 260.0
397.622864 228.0
398.940125 164.0
400.100372 100.0
400.138428 336.0
400.28241 192.0
400.991516 148.0
401.137024 208.0
401.457977 144.0
403.506348 148.0
403.895844 112.0
404.706024 124.0
405.451752 140.0
407.586609 188.0
408.2901 140.0
408.945892 160.0
409.136292 120.0
409.739166 164.0
409.831848 148.0
409.980957 156.0
410.122345 8328.0
410.208618 148.0
410.234375 288.0
410.312347 172.0
410.479736 272.0
410.811554 156.0
411.126312 2092.0
411.272827 152.0
411.36438 172.0
412.131042 468.0
412.84079 116.0
413.152588 136.0
413.814758 148.0
415.907959 124.0
416.875214 148.0
419.367493 148.0
419.591705 164.0
420.627869 140.0
421.477356 228.0
421.943298 164.0
422.065948 152.0
422.254059 140.0
423.026947 148.0
423.279358 96.0
423.563995 96.0
423.648743 104.0
423.969452 152.0
424.087891 116.0
424.129303 204.0
424.651062 268.0
424.695129 172.0
424.86145 132.0
425.069733 152.0
425.153015 200.0
425.229034 124.0
425.327026 140.0
425.55722 112.0
425.634949 148.0
425.684937 116.0
425.795105 216.0
425.837891 104.0
425.894348 120.0
426.019592 128.0
426.113434 340.0
426.187897 128.0
426.306549 184.0
426.528198 144.0
426.569489 220.0
426.72525 244.0
426.813843 104.0
426.879089 300.0
426.95993 168.0
427.154022 792.0
427.222778 168.0
427.549927 148.0
427.647491 264.0
427.712433 148.0
427.824677 268.0
427.872253 256.0
427.903442 292.0
427.939606 316.0
428.072723 340.0
428.136108 196384.0
428.243988 200.0
428.334717 132.0
428.395416 128.0
428.465485 144.0
428.497162 172.0
428.572815 188.0
428.673279 144.0
428.751953 156.0
428.815704 3244.0
428.852203 220.0
428.904541 116.0
428.951813 252.0
428.99884 136.0
429.062012 160.0
429.13855 82552.0
429.27121 256.0
429.324097 196.0
429.402405 96.0
429.501312 228.0
429.574036 192.0
429.621765 96.0
429.738556 184.0
429.766724 156.0
429.814514 188.0
429.859344 184.0
429.90567 124.0
429.948761 100.0
430.071014 256.0
430.140533 10916.0
430.501099 148.0
430.711243 128.0
430.826569 168.0
430.893921 108.0
430.982483 176.0
431.050629 136.0
431.14151 1648.0
431.280731 124.0
431.400879 224.0
431.501984 96.0
431.574921 96.0
431.62027 112.0
431.670959 164.0
431.702911 116.0
431.75589 152.0
431.809723 180.0
431.8862 108.0
431.946167 128.0
432.113281 112.0
432.142548 196.0
432.286865 132.0
432.330719 124.0
432.496246 100.0
432.558746 96.0
432.706177 216.0
432.951782 168.0
433.002258 160.0
433.099579 160.0
434.149994 96.0
434.295868 96.0
435.418091 144.0
437.855225 164.0
438.184296 164.0
441.670044 148.0
442.012299 104.0
442.175934 440.0
442.312805 144.0
442.733185 156.0
442.868927 160.0
443.156525 244.0
443.22525 200.0
443.350098 144.0
443.382477 144.0
443.746429 112.0
443.79184 136.0
443.858887 148.0
443.950409 212.0
444.005615 168.0
444.065704 112.0
444.165222 4472.0
444.332153 224.0
444.49176 104.0
444.525909 112.0
444.565094 156.0
444.625671 224.0
444.740082 276.0
444.802063 116.0
444.926636 280.0
444.958527 312.0
445.081085 348.0
445.162109 129824.0
445.310608 156.0
445.551758 232.0
445.645508 112.0
445.70224 200.0
445.743195 168.0
445.851929 468.0
445.99472 408.0
446.035095 120.0
446.105072 160.0
446.164093 38872.0
446.542969 200.0
446.816711 320.0
447.16568 6180.0
447.292267 156.0
447.348419 116.0
447.61499 136.0
447.859161 100.0
448.165833 1308.0
448.233612 140.0
448.341827 116.0
448.3862 128.0
448.537994 256.0
448.619751 144.0
448.702118 196.0
448.754639 108.0
448.839722 140.0
449.069794 136.0
449.161194 104.0
449.223541 112.0
449.286926 176.0
449.382904 120.0
449.537598 136.0
449.587372 104.0
449.705841 108.0
450.047241 260.0
450.137268 108.0
451.205292 104.0
460.055298 140.0
460.171661 140.0
537.534424 144.0
540.385315 140.0
554.734253 156.0
571.64801 148.0
578.760376 140.0
621.56897 144.0
626.25708 148.0
668.938477 164.0
874.279175 160.0
1085.830444 152.0
1242.636353 108.0
1325.616333 160.0
1457.605713 180.0
1563.213013 188.0
1577.702148 248.0
1620.216431 144.0
1627.884399 152.0
1750.043091 184.0
1762.562988 156.0
1792.941162 176.0
1795.689697 252.0
1870.581787 204.0
1881.279785 152.0
1916.256592 224.0
1928.316406 172.0
1932.356445 144.0
1932.487671 152.0
1948.248779 196.0
1979.474365 208.0
1979.562866 220.0
1997.728271 176.0
