>compound MLS001158633-01!N-(3-imidazol-1-ylpropyl)-2-[4-(4-methoxyphenyl)-2-oxochromen-7-yl]oxyacetamide
>formula C24H23N3O5
>ionization [M+H]+
>parentmass 434.169312
#inchi InChI=1S/C24H23N3O5/c1-30-18-5-3-17(4-6-18)21-14-24(29)32-22-13-19(7-8-20(21)22)31-15-23(28)26-9-2-11-27-12-10-25-16-27/h3-8,10,12-14,16H,2,9,11,15H2,1H3,(H,26,28)
#inchikey OAIUGWIDKWVXDU
#Ion_Source LC-ESI
#Instrument qTof
#Compound_Source NIH Natural Product Library
#PI Dorrestein
#Data_Collector VVP/LMS
#Scan -1
#Precursor_MZ 434.172
#ExactMass 433.164
#Charge 1
#CAS_Number N/A
#Pubmed_ID N/A
#Smiles COc1ccc(cc1)c2cc(=O)oc3cc(OCC(=O)NCCCn4ccnc4)ccc23
#INCHI_AUX N/A
#Library_Class 1
#SpectrumID CCMSLIB00000079630
#IonMode Positive
#UpdateWorkflowName UPDATE-SINGLE-ANNOTATED-GOLD
#LibraryQualityString Gold
#TaskID b1d8e8f6646f4e71acdff9ca3d919d08
##Scan# 1736
#SpectrumFile p1-A09_GA9_01_17881.mzXML
#LibraryName NIH_Natural_Products_Library.mgf
#MQScore -1
#Organism NIH_Natural_Products_Library
#TIC_Query 0
#RT_Query -1
#MZErrorPPM -1
#SharedPeaks 0
#MassDiff 0
#LibMZ -1
#SpecMZ 434.172
#SpecCharge 0
#internalFilename spec-00000.mgf

>collision 10
94.964943 132.0
95.060623 2020.0
95.098816 68.0
95.133751 176.0
95.153168 88.0
95.174522 52.0
95.199768 136.0
95.225014 176.0
95.258034 192.0
95.296883 180.0
95.312431 200.0
95.346779 260.0
95.376556 196.0
95.536011 128.0
95.594376 164.0
95.625519 192.0
95.661652 120.0
95.677727 92.0
95.70533 236.0
95.730644 144.0
95.755959 76.0
95.791016 60.0
95.820236 48.0
95.842033 108.0
95.882591 152.0
95.923523 164.0
95.939117 152.0
95.986694 184.0
96.001511 144.0
96.067856 220.0
96.110741 76.0
96.188805 116.0
96.216133 200.0
96.233704 176.0
96.251862 160.0
96.294243 160.0
96.325005 208.0
96.32795 156.0
96.337044 92.0
96.366516 196.0
96.444679 108.0
96.470093 168.0
96.4916 84.0
96.553596 320.0
96.628502 164.0
96.665672 156.0
96.683289 148.0
96.696983 172.0
96.714165 180.0
96.746597 184.0
96.783119 168.0
96.798782 36.0
96.827728 200.0
96.859497 108.0
96.900635 96.0
96.965294 88.0
97.059387 144.0
97.09861 188.0
97.141762 52.0
97.171188 72.0
97.232018 152.0
97.24575 32.0
97.259491 160.0
97.285011 152.0
97.346977 192.0
97.369438 60.0
97.455872 148.0
97.50975 172.0
97.683922 152.0
97.705559 172.0
97.721298 112.0
97.744904 136.0
97.780327 104.0
97.811821 228.0
97.834503 160.0
97.840973 84.0
97.848076 144.0
97.876785 144.0
97.911751 148.0
97.924568 152.0
97.949654 92.0
97.96344 68.0
97.992996 108.0
98.028458 92.0
98.059875 748.0
98.105324 156.0
98.124367 388.0
98.150673 64.0
98.166344 156.0
98.190689 180.0
98.213966 168.0
98.369659 172.0
98.393349 204.0
98.416245 288.0
98.499985 204.0
98.531593 84.0
98.574562 208.0
98.610634 140.0
98.63237 60.0
98.650162 152.0
98.712784 172.0
98.747047 152.0
98.76342 172.0
98.796883 136.0
98.823471 200.0
98.838043 212.0
98.873665 36.0
98.899872 148.0
98.941765 128.0
98.946068 168.0
98.969452 176.0
98.990219 300.0
99.006699 360.0
99.023529 488.0
99.029526 304.0
99.038414 456.0
99.068588 89384.0
99.103683 340.0
99.135681 152.0
99.166382 120.0
99.197456 176.0
99.226883 96.0
99.24897 52.0
99.253754 64.0
99.269531 116.0
99.274765 148.0
99.285728 112.0
99.305313 96.0
99.354538 104.0
99.394646 404.0
99.414978 104.0
99.437027 228.0
99.452316 124.0
99.473648 104.0
99.537346 60.0
99.549957 108.0
99.569519 116.0
99.629105 52.0
99.679916 84.0
99.703735 200.0
99.729813 88.0
99.746033 224.0
99.758034 164.0
99.785919 212.0
99.808601 64.0
99.83979 124.0
99.865646 68.0
99.886421 36.0
99.953178 128.0
99.985016 152.0
100.00248 88.0
100.027809 108.0
100.07093 6160.0
100.094994 204.0
100.154846 160.0
100.186119 120.0
100.202492 160.0
100.218933 196.0
100.243546 252.0
100.256996 140.0
100.273796 40.0
100.31366 48.0
100.355522 100.0
100.368126 76.0
100.403702 124.0
100.448502 244.0
100.483162 88.0
100.541031 72.0
100.573792 184.0
100.594917 88.0
100.608894 92.0
100.641815 172.0
100.664352 108.0
100.672211 84.0
100.678131 168.0
100.71273 140.0
100.741402 124.0
100.761314 112.0
100.782646 132.0
100.806763 180.0
100.824677 132.0
100.851921 252.0
100.883682 72.0
100.895851 112.0
100.91256 128.0
100.941284 200.0
100.963066 108.0
100.988731 88.0
101.018555 48.0
101.072014 444.0
101.1306 160.0
101.158623 156.0
101.231537 212.0
101.378937 356.0
101.398979 84.0
101.473145 148.0
101.559372 200.0
101.625572 44.0
101.648384 196.0
101.696747 200.0
101.745987 32.0
101.782127 196.0
101.848404 228.0
101.878532 72.0
101.905678 148.0
101.985031 324.0
102.007141 148.0
102.037292 96.0
102.073486 164.0
102.116341 116.0
102.22435 128.0
102.319427 100.0
102.381363 244.0
102.421646 188.0
102.447235 148.0
102.469994 160.0
102.508278 76.0
102.556641 88.0
102.584862 160.0
102.728035 132.0
102.745567 116.0
102.750328 80.0
102.75695 120.0
102.85112 56.0
102.86525 96.0
102.885437 76.0
102.923798 164.0
102.976303 140.0
103.083374 128.0
103.15007 76.0
103.179405 172.0
103.21476 64.0
103.245094 160.0
103.336113 144.0
103.356346 88.0
103.425156 156.0
103.522331 184.0
103.542587 140.0
103.564865 96.0
103.587143 56.0
103.670212 92.0
103.706688 144.0
103.722908 152.0
103.799942 132.0
103.830688 124.0
103.858757 80.0
103.917587 136.0
103.948021 140.0
103.998756 72.0
104.057976 116.0
104.104324 120.0
104.151039 116.0
104.177444 192.0
104.211983 60.0
104.2323 180.0
104.256683 220.0
104.2892 112.0
104.352219 96.0
104.366447 116.0
104.392296 124.0
104.459854 172.0
104.492233 128.0
104.510857 132.0
104.536903 120.0
104.632484 116.0
104.677765 120.0
104.714424 184.0
104.772018 116.0
104.830544 44.0
104.861115 144.0
104.989548 160.0
105.010429 168.0
105.067055 68.0
105.132347 168.0
105.193153 232.0
105.224922 132.0
105.352859 212.0
105.369202 140.0
105.383507 108.0
105.450935 220.0
105.524529 164.0
105.569511 104.0
105.589958 144.0
105.655418 112.0
105.792526 216.0
105.817093 52.0
105.835007 112.0
105.850822 160.0
105.907196 92.0
105.962502 88.0
106.005318 192.0
106.071114 76.0
106.120316 172.0
106.157219 88.0
106.185928 120.0
106.223228 108.0
106.387016 172.0
106.454765 200.0
106.563629 84.0
106.66433 260.0
106.699272 128.0
106.811028 128.0
107.006546 180.0
107.046173 260.0
107.069839 212.0
107.11702 32.0
107.176758 252.0
107.217972 128.0
107.236519 128.0
107.283516 100.0
107.331352 208.0
107.351868 156.0
107.407654 104.0
107.476944 116.0
107.498428 108.0
107.512878 32.0
107.572731 136.0
107.757217 204.0
107.808937 180.0
107.837112 108.0
107.875328 152.0
107.909462 152.0
108.019066 208.0
108.052788 120.0
108.068718 116.0
108.083199 40.0
108.112175 80.0
108.190529 112.0
108.208763 108.0
108.234299 212.0
108.261223 184.0
108.279861 128.0
108.296425 168.0
108.315071 128.0
108.337852 176.0
108.352356 104.0
108.381721 160.0
108.429527 164.0
108.524376 160.0
108.551331 160.0
108.601105 124.0
108.644661 264.0
108.669556 56.0
108.690308 184.0
108.717285 108.0
108.735115 176.0
108.796822 124.0
108.814606 112.0
108.858444 132.0
108.933212 180.0
108.974068 200.0
108.997612 236.0
109.012161 96.0
109.028786 120.0
109.059959 232.0
109.076279 700.0
109.114006 164.0
109.138954 180.0
109.217979 152.0
109.24543 164.0
109.274147 148.0
109.373657 264.0
109.421913 96.0
109.521866 172.0
109.601158 132.0
109.692726 172.0
109.947182 128.0
109.995186 168.0
110.075912 168.0
110.173431 156.0
110.254166 120.0
110.304329 56.0
110.321053 136.0
110.385864 144.0
110.513458 148.0
110.552383 152.0
110.651588 48.0
110.785622 168.0
110.833809 152.0
110.861046 32.0
110.913445 96.0
110.938599 144.0
110.970039 148.0
111.022461 148.0
111.043434 196.0
111.064407 144.0
111.083282 136.0
111.112656 128.0
111.144455 152.0
111.282654 156.0
111.306725 240.0
111.334068 164.0
111.358246 132.0
111.419167 128.0
111.467491 212.0
111.482201 104.0
111.650375 116.0
111.702957 128.0
111.717682 324.0
111.772385 256.0
111.966049 180.0
112.040192 220.0
112.094551 172.0
112.147232 32.0
112.166733 176.0
112.334892 136.0
112.37709 148.0
112.462868 200.0
112.497383 152.0
112.581833 64.0
112.621964 128.0
112.746613 180.0
112.780426 36.0
112.86499 208.0
112.888245 180.0
112.919968 224.0
112.942154 180.0
113.002464 132.0
113.191963 204.0
113.250137 128.0
113.284027 48.0
113.300972 112.0
113.334877 52.0
113.366661 172.0
113.411163 120.0
113.449318 156.0
113.614731 124.0
113.638062 52.0
113.701721 108.0
113.763275 236.0
113.786629 192.0
113.809982 48.0
113.844398 172.0
113.875816 196.0
113.899178 104.0
113.935287 100.0
113.979904 132.0
114.063118 104.0
114.173347 72.0
114.213753 104.0
114.283958 208.0
114.321274 260.0
114.345665 108.0
114.424423 196.0
114.469139 112.0
114.562851 48.0
114.59481 164.0
114.610916 148.0
114.628899 132.0
114.667336 132.0
114.697098 196.0
114.712013 168.0
114.733337 96.0
114.775978 132.0
114.903946 144.0
114.953018 172.0
115.006058 192.0
115.052925 376.0
115.113113 68.0
115.13987 144.0
115.179321 120.0
115.233459 152.0
115.273323 160.0
115.301102 120.0
115.370651 164.0
115.395157 164.0
115.410118 164.0
115.444336 64.0
115.534164 184.0
115.649712 192.0
115.752533 148.0
115.814583 228.0
115.882492 284.0
115.949425 256.0
115.967972 196.0
115.981705 244.0
115.998856 156.0
116.045433 192.0
116.181129 164.0
116.299149 120.0
116.337784 124.0
116.480843 232.0
116.515251 188.0
116.556847 128.0
116.610573 152.0
116.638977 92.0
116.65786 136.0
116.763214 152.0
116.78257 48.0
116.844955 136.0
116.905663 168.0
116.939629 160.0
116.986984 136.0
117.023582 176.0
117.045235 144.0
117.114029 96.0
117.167946 136.0
117.257912 220.0
117.316017 124.0
117.355385 88.0
117.402817 164.0
117.430855 152.0
117.446373 144.0
117.482628 164.0
117.571091 140.0
117.601303 188.0
117.702766 104.0
117.720039 176.0
117.754593 116.0
117.886375 124.0
117.92527 128.0
117.948067 168.0
117.966949 156.0
118.020386 136.0
118.048065 240.0
118.062576 108.0
118.132843 68.0
118.147987 132.0
118.19838 244.0
118.228043 168.0
118.277824 128.0
118.397377 200.0
118.477005 212.0
118.553253 140.0
118.648247 152.0
118.691612 144.0
118.809128 172.0
118.835556 152.0
118.895515 120.0
118.986679 148.0
119.027931 152.0
119.053993 140.0
119.082947 96.0
119.159142 156.0
119.20388 148.0
119.223434 140.0
119.340813 228.0
119.390831 68.0
119.417839 204.0
119.480064 144.0
119.514008 140.0
119.580101 168.0
119.656288 324.0
119.721603 140.0
119.804375 160.0
119.8218 144.0
119.839233 152.0
119.867554 72.0
119.887169 80.0
119.985367 152.0
120.100822 160.0
120.179359 176.0
120.373619 120.0
120.419479 84.0
120.441322 156.0
120.528709 44.0
120.568039 204.0
120.599136 300.0
120.644539 128.0
120.720825 160.0
120.773552 316.0
120.788864 216.0
120.804176 200.0
120.891693 228.0
120.939842 112.0
121.075142 280.0
121.147858 184.0
121.230095 180.0
121.255524 116.0
121.327766 168.0
121.417458 132.0
121.439384 100.0
121.454742 176.0
121.511772 136.0
121.661003 104.0
121.747665 264.0
121.970734 192.0
122.022858 152.0
122.074821 160.0
122.162956 272.0
122.329277 144.0
122.359505 108.0
122.513908 176.0
122.553909 100.0
122.635445 104.0
122.653076 212.0
122.681732 196.0
122.737938 212.0
122.763313 152.0
122.874901 176.0
122.90332 144.0
123.056778 148.0
123.114189 120.0
123.157501 124.0
123.199532 212.0
123.368279 184.0
123.423546 220.0
123.447868 60.0
123.538551 148.0
123.582794 84.0
123.629265 164.0
123.651398 116.0
123.728867 176.0
123.788651 36.0
123.813004 124.0
123.835152 124.0
123.906036 140.0
124.061165 116.0
124.083084 208.0
124.140984 192.0
124.158722 180.0
124.200859 80.0
124.218605 148.0
124.266121 236.0
124.392479 168.0
124.45607 152.0
124.489975 140.0
124.611542 56.0
124.639267 196.0
124.682648 80.0
124.96949 160.0
125.011772 168.0
125.029572 60.0
125.054054 144.0
125.085037 152.0
125.111931 104.0
125.221031 136.0
125.292313 156.0
125.316818 148.0
125.336868 44.0
125.39035 140.0
125.461678 128.0
125.486206 160.0
125.557556 108.0
125.573166 128.0
125.639694 204.0
125.753883 144.0
125.769508 160.0
125.829781 72.0
125.856575 180.0
125.910927 232.0
125.989021 132.0
126.006363 120.0
126.039726 132.0
126.265503 164.0
126.307999 248.0
126.37735 200.0
126.437767 60.0
126.471336 180.0
126.51387 184.0
126.556404 140.0
126.60791 124.0
126.693024 124.0
126.726624 148.0
126.759239 140.0
126.829361 156.0
126.882553 236.0
127.001213 120.0
127.069649 136.0
127.093933 204.0
127.177361 180.0
127.228989 48.0
127.408653 124.0
127.469421 80.0
127.48954 136.0
127.532234 104.0
127.590683 160.0
127.68512 228.0
127.725601 184.0
127.759346 188.0
127.79084 92.0
127.824593 128.0
127.928123 128.0
128.016907 176.0
128.108276 140.0
128.22995 128.0
128.43512 176.0
128.457672 68.0
128.631424 32.0
128.68335 140.0
128.780441 232.0
128.893585 148.0
128.954361 168.0
129.07196 112.0
129.110413 192.0
129.175995 68.0
129.268768 208.0
129.318542 196.0
129.338913 192.0
129.366089 92.0
129.431076 152.0
129.569901 152.0
129.601608 284.0
129.65303 180.0
129.70813 128.0
129.739868 108.0
129.778397 156.0
129.803345 144.0
129.865646 112.0
129.918823 144.0
129.964386 228.0
129.984818 208.0
130.04155 128.0
130.072266 168.0
130.191376 92.0
130.220901 124.0
130.404938 184.0
130.42569 92.0
130.475403 132.0
130.495865 104.0
130.536789 140.0
130.580002 156.0
130.675537 172.0
130.741516 220.0
130.757446 168.0
130.837112 124.0
130.971466 92.0
130.991974 80.0
131.025635 144.0
131.045731 152.0
131.07399 136.0
131.103607 248.0
131.153748 152.0
131.206177 44.0
131.238098 156.0
131.28598 124.0
131.445663 172.0
131.527817 152.0
131.660233 140.0
131.721909 160.0
131.760742 204.0
131.780457 152.0
131.789871 96.0
131.798004 128.0
131.912781 132.0
131.968719 44.0
131.997177 72.0
132.053329 44.0
132.076202 164.0
132.124237 148.0
132.165421 168.0
132.197449 128.0
132.230713 112.0
132.314178 112.0
132.394318 208.0
132.43399 136.0
132.483643 108.0
132.569595 144.0
132.662399 132.0
132.689896 136.0
132.843552 52.0
132.873367 228.0
132.91008 204.0
132.972046 144.0
133.001877 264.0
133.043396 144.0
133.067932 312.0
133.095139 128.0
133.121262 164.0
133.144226 136.0
133.162598 104.0
133.241531 212.0
133.32341 76.0
133.353287 92.0
133.380875 220.0
133.407578 348.0
133.44754 120.0
133.470078 160.0
133.509628 252.0
133.599319 172.0
133.625732 180.0
133.675247 184.0
133.753494 164.0
133.904755 208.0
133.960739 220.0
133.986084 164.0
134.064041 72.0
134.094376 88.0
134.119736 152.0
134.156616 116.0
134.172745 172.0
134.200409 136.0
134.235001 164.0
134.306488 156.0
134.438004 200.0
134.503723 152.0
134.631912 292.0
134.711761 132.0
134.735855 160.0
134.772476 136.0
134.792496 132.0
134.86644 148.0
134.905731 168.0
134.925354 108.0
134.990097 144.0
135.044235 6044.0
135.13118 52.0
135.235321 56.0
135.251511 132.0
135.293182 104.0
135.383484 104.0
135.436752 124.0
135.487717 136.0
135.513199 104.0
135.55722 116.0
135.624435 104.0
135.656876 108.0
135.710205 140.0
135.772812 52.0
135.830795 188.0
135.865311 164.0
135.911987 132.0
135.958405 88.0
136.046082 772.0
136.08374 140.0
136.123215 136.0
136.151077 160.0
136.181274 248.0
136.202179 44.0
136.257935 176.0
136.290451 244.0
136.33461 120.0
136.490356 56.0
136.548492 164.0
136.608963 88.0
136.699692 60.0
136.720642 112.0
136.920578 172.0
136.958115 168.0
137.022308 288.0
137.040604 184.0
137.132858 72.0
137.170822 152.0
137.226105 112.0
137.263412 192.0
137.282059 176.0
137.527023 260.0
137.5457 152.0
137.578384 100.0
137.627411 188.0
137.87735 148.0
137.93811 100.0
137.972122 184.0
138.080734 148.0
138.155594 268.0
138.2211 216.0
138.254532 168.0
138.333435 128.0
138.420059 152.0
138.555908 136.0
138.612137 140.0
138.715256 380.0
138.751648 120.0
138.802002 364.0
138.881729 76.0
139.029541 156.0
139.048904 216.0
139.090561 44.0
139.123428 80.0
139.273712 172.0
139.299545 108.0
139.321045 132.0
139.348877 52.0
139.452271 124.0
139.508682 116.0
139.598236 176.0
139.647476 144.0
139.797974 116.0
139.887421 152.0
140.002029 164.0
140.059219 268.0
140.086685 160.0
140.162964 132.0
140.198303 148.0
140.219528 116.0
140.245743 156.0
140.323242 144.0
140.353882 124.0
140.393967 124.0
140.434067 172.0
140.471176 104.0
140.474869 148.0
140.540222 496.0
140.603928 64.0
140.851837 328.0
141.011444 148.0
141.070526 176.0
141.180359 140.0
141.241852 128.0
141.322281 172.0
141.348312 148.0
141.3909 124.0
141.420166 184.0
141.442032 192.0
141.577927 200.0
141.664749 216.0
141.792084 256.0
141.885956 248.0
141.93811 212.0
142.002136 204.0
142.067291 176.0
142.097015 108.0
142.115997 188.0
142.165833 148.0
142.187195 72.0
142.265518 188.0
142.315063 180.0
142.514877 44.0
142.57666 192.0
142.593307 160.0
142.624207 140.0
142.771606 156.0
142.825363 152.0
142.869125 216.0
142.919083 68.0
142.945602 196.0
143.00795 116.0
143.049973 76.0
143.116638 132.0
143.180923 188.0
143.25238 192.0
143.296402 308.0
143.345306 184.0
143.369125 156.0
143.402496 216.0
143.531219 208.0
143.555069 156.0
143.576538 128.0
143.651932 144.0
143.722046 44.0
143.76738 152.0
143.798904 132.0
143.851349 160.0
143.886719 68.0
143.924927 128.0
143.958679 172.0
144.19725 84.0
144.264221 304.0
144.286819 76.0
144.323944 100.0
144.364594 192.0
144.407639 152.0
144.445908 72.0
144.512894 208.0
144.587067 152.0
144.622971 192.0
144.757034 132.0
144.790558 148.0
144.809723 44.0
144.860016 60.0
144.907928 84.0
144.929504 180.0
144.952011 204.0
144.998169 200.0
145.022156 144.0
145.063583 160.0
145.092468 188.0
145.162003 108.0
145.209961 184.0
145.375504 136.0
145.47757 136.0
145.500305 92.0
145.572342 204.0
145.656403 132.0
145.721252 136.0
145.745285 136.0
145.875061 296.0
145.950333 168.0
146.092758 136.0
146.214188 196.0
146.269547 164.0
146.298431 124.0
146.404373 172.0
146.551315 176.0
146.57782 128.0
146.736893 172.0
146.775467 216.0
146.799576 128.0
146.847809 104.0
146.909256 160.0
147.079437 160.0
147.132553 240.0
147.159103 192.0
147.20546 200.0
147.266769 68.0
147.296753 164.0
147.407837 176.0
147.432053 204.0
147.482803 104.0
147.502136 92.0
147.533569 176.0
147.552902 68.0
147.57225 120.0
147.632706 128.0
147.702835 244.0
147.835907 160.0
147.884308 60.0
147.949661 204.0
148.046677 148.0
148.08284 324.0
148.11232 204.0
148.133698 232.0
148.172455 316.0
148.299072 180.0
148.351791 280.0
148.393005 100.0
148.537399 176.0
148.645432 164.0
148.681656 92.0
148.715637 188.0
148.761749 200.0
148.812729 116.0
148.880722 132.0
148.917145 64.0
148.946289 196.0
149.022156 1500.0
149.065338 108.0
149.092529 148.0
149.128632 172.0
149.160126 196.0
149.182007 176.0
149.253647 188.0
149.354645 88.0
149.430054 148.0
149.448044 396.0
149.495758 168.0
149.6418 172.0
149.746506 172.0
149.841507 156.0
149.860321 144.0
149.909729 160.0
149.955414 204.0
150.026718 456.0
150.046219 104.0
150.163269 184.0
150.20961 160.0
150.226685 140.0
150.312073 184.0
150.346237 212.0
150.426682 96.0
150.492691 144.0
150.535431 188.0
150.553741 152.0
150.633118 112.0
150.766266 84.0
150.788269 196.0
150.846924 144.0
150.908035 108.0
150.932281 144.0
151.051163 312.0
151.120819 136.0
151.216263 212.0
151.252975 124.0
151.376236 308.0
151.632614 124.0
151.684082 104.0
151.711044 212.0
151.745361 124.0
151.816132 144.0
151.857086 164.0
151.86441 80.0
151.936661 128.0
151.963638 164.0
152.061417 1020.0
152.096741 152.0
152.12561 124.0
152.164886 128.0
152.206635 56.0
152.253296 224.0
152.324524 68.0
152.366272 216.0
152.393295 188.0
152.422791 164.0
152.498962 180.0
152.528458 128.0
152.608704 148.0
152.656311 140.0
152.76944 108.0
152.796509 116.0
152.926926 156.0
153.003235 128.0
153.068924 328.0
153.116501 208.0
153.168213 160.0
153.212555 28.0
153.239655 116.0
153.306183 168.0
153.328369 128.0
153.525589 48.0
153.586349 244.0
153.611908 204.0
153.678329 220.0
153.684998 332.0
153.745132 156.0
153.796967 208.0
153.917938 232.0
153.962387 96.0
153.999634 196.0
154.074356 512.0
154.134262 76.0
154.202026 156.0
154.273209 128.0
154.352814 216.0
154.417114 176.0
154.488846 112.0
154.515472 168.0
154.535843 204.0
154.580383 152.0
154.637299 136.0
154.704132 228.0
154.736313 72.0
154.773453 120.0
154.814987 156.0
154.879944 212.0
154.988953 144.0
155.021515 128.0
155.078156 156.0
155.167404 132.0
155.194672 88.0
155.261627 140.0
155.286423 64.0
155.333542 124.0
155.474976 116.0
155.537018 144.0
155.591629 56.0
155.668594 108.0
155.767944 148.0
155.828064 176.0
155.869797 148.0
155.922699 224.0
156.005081 168.0
156.073624 140.0
156.103455 132.0
156.13031 156.0
156.197968 96.0
156.221603 192.0
156.244019 196.0
156.339783 116.0
156.424408 184.0
156.52417 156.0
156.58873 236.0
156.675919 44.0
156.733215 172.0
156.793015 132.0
156.835388 148.0
156.856079 252.0
156.877197 128.0
156.937592 136.0
156.987 64.0
157.008072 184.0
157.028458 192.0
157.066986 272.0
157.0755 256.0
157.117172 352.0
157.144608 92.0
157.170914 120.0
157.296844 188.0
157.36673 104.0
157.514084 220.0
157.627274 168.0
157.797333 228.0
157.828384 104.0
157.929001 156.0
157.946503 140.0
157.979019 172.0
158.006546 224.0
158.059082 104.0
158.076599 144.0
158.106628 116.0
158.228378 144.0
158.33194 92.0
158.364502 168.0
158.394547 148.0
158.434631 116.0
158.482239 132.0
158.518829 264.0
158.568848 248.0
158.592499 192.0
158.610046 160.0
158.634323 548.0
158.703125 156.0
158.735397 148.0
158.780533 88.0
158.873337 104.0
158.993774 100.0
159.044739 392.0
159.080399 124.0
159.092834 184.0
159.103149 152.0
159.197113 176.0
159.232269 136.0
159.268723 128.0
159.312653 124.0
159.408127 184.0
159.496918 204.0
159.649445 96.0
159.785339 132.0
159.864746 212.0
159.909149 172.0
160.01059 188.0
160.035324 172.0
160.082916 124.0
160.208206 136.0
160.278748 140.0
160.462738 124.0
160.490479 212.0
160.576202 196.0
160.593857 120.0
160.631699 204.0
160.687195 212.0
160.737656 156.0
160.832001 156.0
160.841293 60.0
160.850281 160.0
160.866379 204.0
160.889679 172.0
160.936905 132.0
160.995132 152.0
161.020386 140.0
161.038071 232.0
161.059906 204.0
161.121429 88.0
161.202286 88.0
161.232605 212.0
161.25029 128.0
161.320053 168.0
161.361511 160.0
161.396912 348.0
161.416077 104.0
161.507935 124.0
161.62709 144.0
161.70047 148.0
161.753632 128.0
161.789062 228.0
161.81691 140.0
161.838577 136.0
161.920731 160.0
162.055695 156.0
162.214645 164.0
162.237457 208.0
162.420029 140.0
162.617935 296.0
162.643311 116.0
162.739777 180.0
162.843903 48.0
162.871841 40.0
162.930252 120.0
162.948044 116.0
162.971893 156.0
163.034439 120.0
163.052231 204.0
163.1539 160.0
163.184402 224.0
163.219864 156.0
163.260681 144.0
163.291199 248.0
163.329346 216.0
163.367508 176.0
163.509995 136.0
163.619446 88.0
163.65509 184.0
163.770081 152.0
163.802795 244.0
163.897064 112.0
163.948029 156.0
163.9888 204.0
164.100952 152.0
164.167252 116.0
164.223358 64.0
164.317749 128.0
164.34581 132.0
164.57785 136.0
164.703201 176.0
164.723648 140.0
164.846634 224.0
164.907608 164.0
164.938477 156.0
165.006073 192.0
165.070099 1804.0
165.209335 120.0
165.237473 140.0
165.298874 248.0
165.352615 88.0
165.562546 52.0
165.583038 60.0
165.621445 64.0
165.649628 60.0
165.767075 152.0
166.046906 128.0
166.077194 232.0
166.190552 228.0
166.21109 84.0
166.277039 296.0
166.326569 164.0
166.431824 76.0
166.511429 108.0
166.569412 160.0
166.645004 164.0
166.680969 124.0
166.706665 64.0
166.803055 184.0
166.827469 168.0
166.848038 84.0
166.881454 132.0
166.904602 204.0
166.966309 216.0
167.007462 84.0
167.035751 164.0
167.053757 136.0
167.085617 328.0
167.105682 540.0
167.146378 152.0
167.169418 84.0
167.205566 84.0
167.228729 52.0
167.275055 168.0
167.309509 272.0
167.406372 116.0
167.424393 184.0
167.444992 148.0
167.504242 148.0
167.530624 180.0
167.554398 204.0
167.581512 336.0
167.605469 148.0
167.645935 188.0
167.666977 144.0
167.730988 124.0
167.839264 180.0
167.901154 184.0
167.944992 124.0
167.979309 172.0
168.051468 44.0
168.070435 204.0
168.079147 160.0
168.088257 204.0
168.111984 400.0
168.151398 36.0
168.177917 116.0
168.249481 88.0
168.280472 160.0
168.311447 112.0
168.41217 80.0
168.437988 160.0
168.468994 156.0
168.532379 172.0
168.598175 124.0
168.634354 116.0
168.657623 164.0
168.701569 144.0
168.727417 180.0
168.761032 220.0
168.840927 164.0
168.931717 156.0
169.048874 132.0
169.11319 348.0
169.147812 188.0
169.20343 52.0
169.301834 120.0
169.327728 148.0
169.435791 524.0
169.625687 64.0
169.713837 196.0
169.742355 72.0
169.786438 112.0
169.862778 104.0
169.882401 92.0
169.96283 108.0
170.01062 232.0
170.067978 272.0
170.2276 68.0
170.255981 180.0
170.292511 64.0
170.331482 200.0
170.390533 136.0
170.44838 136.0
170.485687 72.0
170.515945 128.0
170.606918 168.0
170.645309 172.0
170.74733 148.0
170.819977 296.0
170.877396 244.0
170.971252 168.0
171.012711 212.0
171.07637 656.0
171.152939 184.0
171.196579 204.0
171.286102 132.0
171.353821 168.0
171.424179 232.0
171.479462 132.0
171.531036 140.0
171.622284 328.0
171.645737 148.0
171.679642 60.0
171.753159 128.0
171.830933 60.0
171.854401 204.0
171.883102 112.0
171.963318 152.0
172.000549 176.0
172.05275 144.0
172.077515 116.0
172.104156 140.0
172.25383 156.0
172.285172 232.0
172.38707 156.0
172.431503 136.0
172.488998 104.0
172.585724 180.0
172.62233 100.0
172.656326 152.0
172.703415 64.0
172.73996 164.0
172.800201 192.0
172.927917 208.0
172.932785 168.0
172.995087 136.0
173.024063 268.0
173.051453 128.0
173.08287 32.0
173.110168 240.0
173.153564 48.0
173.234772 140.0
173.308121 184.0
173.4077 220.0
173.475845 56.0
173.604324 196.0
173.625305 156.0
173.643661 40.0
173.722351 184.0
173.787933 72.0
174.06868 188.0
174.107513 160.0
174.171204 212.0
174.207977 176.0
174.236877 124.0
174.310455 148.0
174.332214 168.0
174.384033 200.0
174.485092 144.0
174.681152 40.0
174.700729 156.0
174.745773 212.0
174.815323 100.0
174.899536 216.0
174.941391 116.0
174.989044 192.0
175.019058 140.0
175.049774 244.0
175.090683 220.0
175.181808 124.0
175.233978 108.0
175.284042 144.0
175.350266 156.0
175.398468 192.0
175.421158 164.0
175.457352 148.0
175.534454 132.0
175.587204 120.0
175.610931 228.0
175.632034 52.0
175.67688 84.0
175.844986 168.0
175.93045 308.0
175.990936 84.0
176.033356 496.0
176.085999 128.0
176.112411 188.0
176.146744 172.0
176.360764 244.0
176.401703 156.0
176.438019 180.0
176.561707 232.0
176.676971 288.0
176.723053 100.0
176.744217 132.0
176.772812 124.0
176.802444 92.0
176.858017 48.0
176.892426 120.0
177.017578 472.0
177.03746 136.0
177.06778 704.0
177.151932 132.0
177.292358 324.0
177.310913 132.0
177.363922 180.0
177.504425 132.0
177.536255 176.0
177.557465 156.0
177.589294 144.0
177.639679 240.0
177.759079 216.0
177.796234 192.0
177.979385 68.0
178.000626 160.0
178.080948 252.0
178.165298 168.0
178.207809 212.0
178.247665 152.0
178.287521 128.0
178.424408 248.0
178.473587 88.0
178.574646 116.0
178.665085 152.0
178.760864 256.0
178.835388 132.0
178.984467 172.0
179.010666 128.0
179.019669 108.0
179.025177 152.0
179.053696 140.0
179.087158 276.0
179.181549 140.0
179.245224 160.0
179.40007 160.0
179.447617 120.0
179.623154 208.0
179.677429 180.0
179.704102 116.0
179.746796 156.0
179.808167 96.0
179.886063 152.0
179.941635 180.0
179.981186 152.0
180.013794 148.0
180.057022 652.0
180.077423 192.0
180.128571 132.0
180.187332 164.0
180.240768 120.0
180.282043 60.0
180.307571 184.0
180.339645 192.0
180.361038 172.0
180.438553 296.0
180.561554 140.0
180.596329 124.0
180.705994 136.0
180.735428 132.0
180.815704 180.0
180.834442 144.0
180.884293 224.0
180.920105 164.0
181.003098 44.0
181.06102 476.0
181.145035 184.0
181.212006 156.0
181.244156 116.0
181.265594 92.0
181.311966 144.0
181.384583 212.0
181.445175 156.0
181.50148 136.0
181.52829 40.0
181.563156 156.0
181.675812 208.0
181.69458 172.0
181.737518 104.0
181.890472 124.0
181.955719 240.0
182.072037 1176.0
182.22644 148.0
182.270065 212.0
182.331543 92.0
182.382019 84.0
182.442841 188.0
182.494705 148.0
182.529877 188.0
182.551392 140.0
182.578278 200.0
182.599792 104.0
182.643707 160.0
182.732834 140.0
182.882294 148.0
182.917282 156.0
182.953079 148.0
183.0793 544.0
183.150772 140.0
183.157776 204.0
183.240555 184.0
183.280853 64.0
183.378784 220.0
183.434814 164.0
183.518036 112.0
183.539612 156.0
183.577362 184.0
183.603699 172.0
183.836334 136.0
183.984772 104.0
184.014465 68.0
184.045624 292.0
184.090073 228.0
184.122482 124.0
184.188477 212.0
184.249847 156.0
184.311569 132.0
184.422379 132.0
184.460205 80.0
184.523285 156.0
184.589981 124.0
184.608917 76.0
184.641357 120.0
184.66571 168.0
184.768494 164.0
184.826218 108.0
184.865906 104.0
184.957916 152.0
185.060577 316.0
185.096359 704.0
185.133896 104.0
185.163681 100.0
185.212433 192.0
185.374985 104.0
185.496948 168.0
185.609253 212.0
185.643356 148.0
185.697586 224.0
185.732849 108.0
185.751846 60.0
185.784393 216.0
185.863068 204.0
185.958054 148.0
185.981308 140.0
186.065384 176.0
186.095047 392.0
186.129074 80.0
186.160477 148.0
186.218689 124.0
186.254639 152.0
186.319199 140.0
186.380096 124.0
186.609467 188.0
186.637009 132.0
186.672531 200.0
186.694275 144.0
186.811234 208.0
186.865646 176.0
186.903732 236.0
186.935242 248.0
186.963593 192.0
187.020752 48.0
187.047974 124.0
187.075531 164.0
187.203156 208.0
187.289703 144.0
187.36377 124.0
187.370941 120.0
187.399277 108.0
187.421066 212.0
187.546432 208.0
187.639114 104.0
187.660919 388.0
187.709213 124.0
187.868179 156.0
187.890015 116.0
187.988235 192.0
188.021378 104.0
188.041138 268.0
188.081757 164.0
188.119247 140.0
188.143814 112.0
188.169754 388.0
188.242599 88.0
188.270935 100.0
188.484451 276.0
188.515259 108.0
188.580856 272.0
188.640991 160.0
188.69342 92.0
188.779343 200.0
188.832382 108.0
188.870682 108.0
188.903442 184.0
188.939056 172.0
188.973557 92.0
189.070312 136.0
189.097763 144.0
189.204514 84.0
189.223679 92.0
189.355118 116.0
189.390717 168.0
189.454926 192.0
189.516739 136.0
189.577026 204.0
189.608231 164.0
189.637314 324.0
189.705841 156.0
189.807281 140.0
189.872971 152.0
189.911484 152.0
189.941666 168.0
189.971909 152.0
190.071686 192.0
190.098038 104.0
190.142517 384.0
190.184525 160.0
190.205078 156.0
190.224289 72.0
190.303894 164.0
190.38353 184.0
190.410995 132.0
190.52243 112.0
190.559326 140.0
190.582794 140.0
190.626846 252.0
190.680237 140.0
190.781937 144.0
190.834167 112.0
190.9048 132.0
190.946655 128.0
191.036499 300.0
191.073441 40.0
191.18074 192.0
191.200012 164.0
191.242752 180.0
191.300797 240.0
191.323868 200.0
191.348648 180.0
191.5056 92.0
191.567169 156.0
191.613037 124.0
191.708771 156.0
191.805939 156.0
191.842422 136.0
191.868301 180.0
191.932755 136.0
191.965836 172.0
192.057831 292.0
192.08168 128.0
192.147873 192.0
192.203064 104.0
192.244446 64.0
192.31897 188.0
192.338287 196.0
192.382446 128.0
192.401779 132.0
192.422211 100.0
192.498413 64.0
192.661362 152.0
192.741486 116.0
192.811142 156.0
192.859421 232.0
192.899017 140.0
192.923889 156.0
192.944168 180.0
193.006836 76.0
193.067535 424.0
193.101273 160.0
193.161713 108.0
193.264069 144.0
193.297272 124.0
193.333252 124.0
193.380295 220.0
193.402435 248.0
193.521469 176.0
193.634933 160.0
193.665466 156.0
193.68486 140.0
193.768906 124.0
193.802368 240.0
193.818909 164.0
193.850296 168.0
193.878799 140.0
193.914825 92.0
193.939774 148.0
193.964706 184.0
194.072281 1376.0
194.104385 200.0
194.144928 180.0
194.164337 40.0
194.214264 152.0
194.239227 160.0
194.289154 160.0
194.319672 204.0
194.396683 148.0
194.480621 176.0
194.52713 196.0
194.555573 236.0
194.606445 304.0
194.713837 196.0
194.792618 120.0
194.864624 120.0
194.913849 48.0
195.037338 428.0
195.079803 10112.0
195.124649 128.0
195.143234 188.0
195.176727 120.0
195.23204 316.0
195.278015 144.0
195.311386 204.0
195.364243 100.0
195.419891 164.0
195.449173 160.0
195.47554 120.0
195.511703 64.0
195.561798 44.0
195.615158 72.0
195.650879 100.0
195.670364 88.0
195.810822 100.0
195.840225 144.0
195.990662 172.0
196.052094 164.0
196.081741 1364.0
196.126511 168.0
196.19133 44.0
196.300064 52.0
196.533691 116.0
196.573425 120.0
196.609695 168.0
196.654358 112.0
196.676682 140.0
196.715759 140.0
196.7854 148.0
196.829758 168.0
196.936356 220.0
196.986633 120.0
197.057632 320.0
197.09491 2836.0
197.171036 228.0
197.226929 76.0
197.260468 76.0
197.319183 172.0
197.398422 176.0
197.452103 148.0
197.500946 112.0
197.596771 160.0
197.652008 184.0
197.697769 68.0
197.719162 188.0
197.766739 180.0
197.801987 176.0
197.814331 220.0
197.842316 100.0
197.866196 208.0
197.926315 220.0
198.041138 164.0
198.062561 172.0
198.073135 112.0
198.098068 876.0
198.173828 296.0
198.217621 156.0
198.254059 168.0
198.279266 96.0
198.368958 112.0
198.455872 32.0
198.492325 84.0
198.527817 176.0
198.562424 192.0
198.588898 248.0
198.61853 224.0
198.711517 184.0
198.836319 140.0
198.879471 124.0
198.910339 148.0
199.075607 1700.0
199.179901 136.0
199.244507 48.0
199.295074 112.0
199.317566 144.0
199.393433 108.0
199.431259 156.0
199.490524 184.0
199.539597 132.0
199.626755 148.0
199.649261 216.0
199.716751 108.0
199.857407 148.0
199.927765 132.0
200.029083 156.0
200.07663 444.0
200.124802 132.0
200.150146 156.0
200.172668 172.0
200.226166 224.0
200.257156 64.0
200.293335 132.0
200.345947 336.0
200.378281 164.0
200.406586 84.0
200.431808 124.0
200.524811 64.0
200.662933 140.0
200.719925 204.0
200.758789 104.0
200.942139 216.0
200.967529 144.0
201.021133 104.0
201.052536 96.0
201.088181 288.0
201.119919 160.0
201.148148 128.0
201.172928 144.0
201.246948 144.0
201.299774 164.0
201.342957 232.0
201.58873 124.0
201.610397 180.0
201.848145 212.0
201.942108 152.0
202.085114 168.0
202.162766 108.0
202.222198 100.0
202.242676 156.0
202.270325 128.0
202.318436 144.0
202.358078 140.0
202.468506 124.0
202.542145 128.0
202.581039 164.0
202.644135 112.0
202.666794 84.0
202.697968 104.0
202.73764 180.0
202.844299 160.0
202.865173 180.0
202.913376 152.0
202.94455 128.0
202.980377 120.0
203.092026 140.0
203.121887 128.0
203.20549 128.0
203.225342 68.0
203.312195 356.0
203.344528 72.0
203.389938 156.0
203.415482 192.0
203.446716 184.0
203.523361 68.0
203.580154 84.0
203.701538 152.0
203.767624 84.0
203.832977 164.0
203.881287 124.0
203.940964 96.0
203.980103 108.0
204.026245 108.0
204.086243 156.0
204.194 192.0
204.242844 228.0
204.354675 144.0
204.381744 96.0
204.432968 132.0
204.506958 316.0
204.546814 64.0
204.615128 120.0
204.666382 156.0
204.694855 132.0
204.760345 156.0
204.905624 152.0
204.925568 156.0
204.962601 136.0
205.023788 180.0
205.058609 244.0
205.068253 168.0
205.078247 164.0
205.131882 192.0
205.176361 124.0
205.344162 156.0
205.398788 208.0
205.430161 136.0
205.487228 108.0
205.5186 120.0
205.561401 160.0
205.60144 152.0
205.650589 140.0
205.721237 168.0
205.764053 316.0
205.782516 148.0
205.889694 112.0
206.048691 120.0
206.072021 316.0
206.172516 140.0
206.269028 192.0
206.372604 116.0
206.552765 120.0
206.573929 168.0
206.624283 216.0
206.683823 128.0
206.750183 128.0
206.821732 108.0
206.841766 176.0
206.86467 64.0
206.967728 228.0
207.004959 196.0
207.048584 188.0
207.082031 408.0
207.255463 88.0
207.301178 156.0
207.354446 156.0
207.42038 248.0
207.492844 184.0
207.615829 140.0
207.692764 204.0
207.784561 188.0
207.821869 144.0
207.853424 120.0
208.053802 612.0
208.079147 324.0
208.108871 180.0
208.188431 136.0
208.196091 140.0
208.260101 224.0
208.50528 180.0
208.592468 180.0
208.626907 228.0
208.815781 108.0
208.850296 68.0
208.879059 52.0
209.028656 116.0
209.062439 124.0
209.094955 1096.0
209.122101 68.0
209.145782 132.0
209.166794 216.0
209.197205 196.0
209.333206 120.0
209.388489 144.0
209.420181 252.0
209.457626 180.0
209.514069 176.0
209.541153 116.0
209.578613 112.0
209.690994 132.0
209.711166 164.0
209.851791 164.0
209.941818 96.0
210.028336 108.0
210.066299 2104.0
210.155258 92.0
210.21875 40.0
210.272995 140.0
210.296661 52.0
210.328415 92.0
210.348618 108.0
210.391922 148.0
210.417908 164.0
210.634476 108.0
210.692261 268.0
210.712921 264.0
210.776047 156.0
210.816498 184.0
210.865631 92.0
211.024612 128.0
211.074432 6156.0
211.123062 176.0
211.172089 108.0
211.195221 128.0
211.215469 96.0
211.268265 80.0
211.319611 68.0
211.417999 172.0
211.444046 88.0
211.533768 88.0
211.565613 100.0
211.603241 276.0
211.632202 120.0
211.753815 132.0
211.834366 292.0
211.892853 160.0
211.935226 128.0
211.982681 84.0
212.012268 344.0
212.033264 132.0
212.080368 1600.0
212.135544 172.0
212.173813 144.0
212.180176 200.0
212.204559 80.0
212.228241 156.0
212.284149 152.0
212.376953 160.0
212.420456 144.0
212.454422 204.0
212.530701 192.0
212.565521 100.0
212.594543 224.0
212.637421 72.0
212.689178 136.0
212.745468 52.0
212.809341 144.0
212.905167 160.0
212.998093 240.0
213.091263 2360.0
213.198563 96.0
213.23053 52.0
213.279953 80.0
213.346802 108.0
213.367157 152.0
213.404205 140.0
213.440063 152.0
213.492188 120.0
213.553253 92.0
213.649246 100.0
213.685074 164.0
213.752716 128.0
213.815094 52.0
213.978104 72.0
214.096832 340.0
214.174652 96.0
214.20816 108.0
214.243118 48.0
214.280518 248.0
214.331421 180.0
214.356735 128.0
214.43251 160.0
214.514114 136.0
214.59787 204.0
214.656982 364.0
214.703644 116.0
214.80864 156.0
214.950989 192.0
215.00412 164.0
215.031372 236.0
215.088577 132.0
215.116196 100.0
215.253098 220.0
215.371033 160.0
215.46254 72.0
215.522232 204.0
215.564804 116.0
215.596939 204.0
215.632019 176.0
215.670013 224.0
215.756592 116.0
215.818756 168.0
215.921448 116.0
215.968246 48.0
216.054199 124.0
216.137909 188.0
216.175949 52.0
216.223007 152.0
216.263748 88.0
216.304733 132.0
216.369125 228.0
216.395477 160.0
216.735229 184.0
216.83194 152.0
216.934525 124.0
216.993149 148.0
217.047394 136.0
217.054031 212.0
217.094238 244.0
217.216019 160.0
217.251221 96.0
217.383255 180.0
217.474228 132.0
217.498795 152.0
217.726715 108.0
217.753143 184.0
217.832458 188.0
217.999924 176.0
218.058701 232.0
218.177078 304.0
218.208603 156.0
218.230972 184.0
218.27623 104.0
218.39975 148.0
218.420334 148.0
218.519211 164.0
218.53801 192.0
218.732239 104.0
218.841156 36.0
218.882385 164.0
218.958954 176.0
219.011963 240.0
219.083206 192.0
219.194611 80.0
219.218185 52.0
219.274185 160.0
219.306595 108.0
219.37735 48.0
219.48053 64.0
219.51886 128.0
219.58374 148.0
219.654526 68.0
219.714951 124.0
219.769577 184.0
219.801331 216.0
219.840393 108.0
219.889221 96.0
219.987976 156.0
220.046234 544.0
220.085205 192.0
220.15036 148.0
220.212372 120.0
220.266571 172.0
220.321671 176.0
220.367325 88.0
220.487625 204.0
220.540329 116.0
220.565811 84.0
220.611267 196.0
220.729538 128.0
220.76123 236.0
220.888199 264.0
220.94249 108.0
221.057129 824.0
221.081909 416.0
221.188095 152.0
221.320206 160.0
221.339386 196.0
221.365311 144.0
221.462997 156.0
221.49791 140.0
221.57872 132.0
221.650101 104.0
221.710892 132.0
221.744919 96.0
221.783447 120.0
221.833847 48.0
221.947235 144.0
222.066574 780.0
222.130371 132.0
222.151138 184.0
222.198608 160.0
222.26091 52.0
222.376648 172.0
222.412262 184.0
222.444916 52.0
222.47757 156.0
222.519119 112.0
222.569595 192.0
222.614136 144.0
222.762634 228.0
222.811661 200.0
222.869598 208.0
222.90947 104.0
222.940903 196.0
223.04274 120.0
223.074081 3576.0
223.18042 104.0
223.241928 168.0
223.324417 72.0
223.421402 184.0
223.467209 48.0
223.553497 132.0
223.684448 276.0
223.752914 156.0
223.791626 84.0
223.81752 160.0
223.880951 132.0
223.911667 192.0
223.973282 148.0
223.997101 144.0
224.035828 164.0
224.080048 940.0
224.178848 116.0
224.238449 116.0
224.259308 144.0
224.306595 120.0
224.357681 68.0
224.396439 96.0
224.476425 140.0
224.545532 208.0
224.620087 104.0
224.742401 132.0
224.781189 120.0
224.824783 284.0
224.867737 96.0
224.924438 128.0
224.945343 132.0
224.968185 180.0
225.051331 648.0
225.09082 8520.0
225.148361 140.0
225.261551 192.0
225.30368 184.0
225.330566 88.0
225.41214 372.0
225.46521 136.0
225.530792 148.0
225.585312 148.0
225.629425 76.0
225.659332 108.0
225.729462 132.0
225.771164 60.0
225.880615 48.0
225.958405 132.0
225.987747 84.0
226.09198 1372.0
226.188828 124.0
226.257675 116.0
226.299591 248.0
226.333023 192.0
226.359467 88.0
226.383423 64.0
226.414581 124.0
226.441238 92.0
226.466187 176.0
226.508011 80.0
226.593094 208.0
226.614059 152.0
226.676987 128.0
226.715164 216.0
226.771851 236.0
226.830048 172.0
226.862808 168.0
226.891922 124.0
226.95874 168.0
227.006058 212.0
227.069809 17224.0
227.204681 128.0
227.273682 128.0
227.330917 180.0
227.355133 140.0
227.374954 176.0
227.402725 64.0
227.450745 204.0
227.610336 100.0
227.662033 92.0
227.694153 160.0
227.728546 84.0
227.785446 196.0
227.812805 140.0
227.84111 156.0
227.883179 160.0
227.931244 168.0
228.015839 80.0
228.073334 2448.0
228.138626 140.0
228.17659 184.0
228.217346 132.0
228.252869 36.0
228.279938 96.0
228.309402 100.0
228.331055 152.0
228.388199 120.0
228.421295 168.0
228.502518 80.0
228.525681 176.0
228.631897 92.0
228.676453 164.0
228.731216 52.0
228.815506 128.0
228.938965 56.0
229.016373 68.0
229.044373 136.0
229.071335 368.0
229.075089 140.0
229.231155 176.0
229.276367 88.0
229.306503 132.0
229.37883 196.0
229.415009 80.0
229.463455 228.0
229.513351 148.0
229.556839 180.0
229.598938 96.0
229.647186 128.0
229.67131 168.0
229.731644 108.0
229.764832 104.0
229.834213 60.0
229.870071 136.0
229.953659 352.0
230.120956 72.0
230.151077 184.0
230.287033 92.0
230.441086 124.0
230.46225 104.0
230.507568 84.0
230.608185 68.0
230.815887 156.0
230.885437 176.0
231.097168 164.0
231.160721 108.0
231.275711 36.0
231.414963 68.0
231.496719 128.0
231.672394 144.0
231.754181 192.0
231.820847 60.0
231.854187 48.0
231.893585 52.0
231.929947 132.0
231.983322 184.0
232.084564 220.0
232.123978 108.0
232.20694 112.0
232.263489 116.0
232.318085 108.0
232.417953 144.0
232.598114 156.0
232.627609 124.0
232.730835 152.0
232.779419 320.0
232.806747 160.0
232.852295 104.0
232.900894 204.0
232.949493 140.0
233.016327 160.0
233.061554 140.0
233.072479 124.0
233.089081 200.0
233.195602 140.0
233.402328 144.0
233.50267 120.0
233.542206 284.0
233.657806 112.0
233.71257 68.0
233.744614 144.0
233.77951 144.0
233.901245 188.0
233.986481 176.0
234.078979 244.0
234.101883 144.0
234.129593 52.0
234.251419 92.0
234.321091 152.0
234.355728 136.0
234.415939 88.0
234.455566 124.0
234.482986 56.0
234.513474 196.0
234.553085 40.0
234.693329 104.0
234.812256 204.0
234.833603 148.0
234.891556 160.0
235.074249 5232.0
235.141739 112.0
235.175308 68.0
235.255936 116.0
235.330505 172.0
235.526443 168.0
235.560043 148.0
235.596695 36.0
235.694458 164.0
235.728073 124.0
235.780029 172.0
235.822815 152.0
235.929794 60.0
235.996033 124.0
236.046143 808.0
236.083069 920.0
236.106674 304.0
236.156067 112.0
236.26619 160.0
236.331619 204.0
236.373276 112.0
236.419174 124.0
236.502548 300.0
236.525131 252.0
236.58139 104.0
236.645691 192.0
236.737549 196.0
236.844742 176.0
236.878433 80.0
236.939697 48.0
237.010162 128.0
237.053665 444.0
237.090332 1952.0
237.202286 132.0
237.282944 196.0
237.341202 104.0
237.396393 124.0
237.463852 132.0
237.523407 208.0
237.562012 164.0
237.644836 124.0
237.671906 180.0
237.707825 124.0
237.77066 208.0
237.816132 176.0
237.837433 116.0
237.845673 208.0
237.902634 96.0
237.950134 144.0
237.979385 156.0
238.016235 336.0
238.063141 1160.0
238.09375 820.0
238.217392 176.0
238.279022 128.0
238.298798 164.0
238.338745 168.0
238.371078 292.0
238.483185 144.0
238.556839 112.0
238.615356 56.0
238.639954 56.0
238.667633 140.0
238.704529 100.0
238.74852 156.0
238.777252 228.0
238.812256 132.0
239.026871 96.0
239.069626 10116.0
239.161667 204.0
239.202927 152.0
239.2491 60.0
239.353775 72.0
239.442825 60.0
239.49437 228.0
239.55397 84.0
239.584778 64.0
239.667953 60.0
239.714172 60.0
239.763489 56.0
239.834366 96.0
239.859024 220.0
239.896011 116.0
239.957672 152.0
240.013168 52.0
240.07605 6284.0
240.174942 48.0
240.250656 212.0
240.315445 40.0
240.367889 156.0
240.411087 84.0
240.451218 84.0
240.509857 48.0
240.534546 124.0
240.577759 92.0
240.641785 152.0
240.688904 104.0
240.719788 72.0
240.747574 204.0
240.772278 192.0
240.846405 140.0
240.942169 168.0
240.973053 120.0
241.003952 104.0
241.045319 104.0
241.078842 1400.0
241.17392 140.0
241.204834 164.0
241.343948 124.0
241.425568 160.0
241.461456 104.0
241.492386 140.0
241.514038 96.0
241.659424 104.0
241.684174 216.0
241.704742 68.0
241.762833 76.0
241.776627 32.0
241.789261 104.0
241.796356 112.0
241.863663 92.0
241.993011 220.0
242.005066 172.0
242.040131 164.0
242.082611 244.0
242.120636 108.0
242.179489 44.0
242.269318 104.0
242.409927 156.0
242.520309 36.0
242.689911 180.0
242.762695 108.0
242.796722 152.0
242.817551 192.0
242.858261 96.0
242.879974 76.0
242.910995 184.0
242.933914 156.0
243.016464 96.0
243.075775 140.0
243.121964 132.0
243.192627 156.0
243.212753 160.0
243.239899 200.0
243.277161 188.0
243.407547 56.0
243.429291 136.0
243.469666 56.0
243.513138 88.0
243.624954 176.0
243.656021 176.0
243.817596 224.0
244.003632 132.0
244.021667 320.0
244.053848 168.0
244.08493 80.0
244.116028 204.0
244.17511 156.0
244.199997 112.0
244.335159 80.0
244.564026 136.0
244.601379 148.0
244.648071 140.0
244.682312 352.0
244.778824 164.0
244.850449 152.0
244.906509 36.0
245.065384 104.0
245.096542 344.0
245.196259 152.0
245.299118 164.0
245.355225 108.0
245.467468 188.0
245.494141 224.0
245.520477 100.0
245.545425 132.0
245.595337 124.0
245.813721 220.0
245.877548 88.0
245.941254 212.0
246.050919 172.0
246.097687 180.0
246.108536 176.0
246.137024 180.0
246.416321 176.0
246.628815 136.0
246.666321 112.0
246.744476 224.0
246.769485 120.0
246.860168 204.0
246.922714 116.0
246.963364 168.0
247.010284 120.0
247.063461 288.0
247.145874 176.0
247.238678 152.0
247.287628 172.0
247.323181 192.0
247.356567 180.0
247.392044 56.0
247.667404 128.0
247.802307 80.0
247.827362 168.0
247.877502 108.0
247.962112 196.0
247.999725 216.0
248.020401 208.0
248.096359 140.0
248.140778 104.0
248.206619 168.0
248.229553 128.0
248.266205 116.0
248.372833 216.0
248.49205 132.0
248.697556 132.0
248.733551 196.0
248.77449 72.0
248.842056 172.0
249.056 292.0
249.06369 600.0
249.086823 248.0
249.119919 108.0
249.154465 264.0
249.211014 144.0
249.283295 92.0
249.431 136.0
249.471863 72.0
249.544983 172.0
249.588196 136.0
249.610199 48.0
249.644791 152.0
249.724838 300.0
249.808334 60.0
249.899567 124.0
249.968796 36.0
250.003403 32.0
250.059555 500.0
250.086426 424.0
250.148178 180.0
250.196655 220.0
250.22374 176.0
250.26152 224.0
250.315491 144.0
250.378128 136.0
250.415817 172.0
250.453613 276.0
250.478821 92.0
250.526062 164.0
250.560715 124.0
250.633179 172.0
250.667847 32.0
250.696198 144.0
250.72142 184.0
250.774994 172.0
250.822266 120.0
250.973083 172.0
251.014587 80.0
251.068832 11968.0
251.127899 180.0
251.155655 124.0
251.201874 160.0
251.225891 96.0
251.282684 96.0
251.311066 124.0
251.366394 60.0
251.381256 208.0
251.454483 64.0
251.519348 160.0
251.563828 132.0
251.591949 156.0
251.671341 56.0
251.724655 144.0
251.765457 188.0
251.811478 48.0
251.863525 228.0
251.92868 172.0
252.074493 2976.0
252.115082 264.0
252.12616 412.0
252.202438 136.0
252.233215 48.0
252.268463 52.0
252.315399 72.0
252.426651 180.0
252.476654 60.0
252.541397 204.0
252.618927 188.0
252.703201 184.0
252.820343 156.0
252.842377 192.0
252.872116 136.0
252.900604 160.0
252.929092 144.0
252.980927 116.0
253.085464 20244.0
253.169708 252.0
253.197235 248.0
253.255219 88.0
253.280548 164.0
253.335983 168.0
253.43895 44.0
253.505493 32.0
253.530838 112.0
253.610077 104.0
253.685532 176.0
253.74382 116.0
253.771744 72.0
253.806625 120.0
253.833847 180.0
253.879547 164.0
253.903229 132.0
253.982819 164.0
254.088913 2980.0
254.186066 172.0
254.231674 60.0
254.317368 172.0
254.342758 72.0
254.364975 92.0
254.390366 72.0
254.435913 104.0
254.482437 116.0
254.518311 216.0
254.555466 60.0
254.59111 164.0
254.660263 184.0
254.701553 108.0
254.733322 52.0
254.815918 48.0
254.849411 96.0
254.887131 232.0
254.897339 96.0
254.907013 292.0
254.938431 136.0
254.968445 92.0
254.990692 68.0
255.089249 484.0
255.165787 272.0
255.18959 188.0
255.276794 124.0
255.302231 52.0
255.343582 152.0
255.493073 80.0
255.545746 208.0
255.620346 72.0
255.687164 52.0
255.771317 136.0
255.814484 120.0
255.849686 132.0
255.931641 100.0
256.008698 164.0
256.089539 144.0
256.198792 88.0
256.253296 96.0
256.298553 120.0
256.397339 84.0
256.451538 76.0
256.480225 148.0
256.528015 76.0
256.625336 208.0
256.687439 52.0
256.734344 152.0
256.770355 72.0
256.818634 176.0
256.853638 176.0
256.901123 32.0
256.928894 164.0
256.948975 216.0
257.099152 132.0
257.130859 216.0
257.373474 136.0
257.438995 108.0
257.459534 160.0
257.485229 216.0
257.590637 112.0
257.772736 124.0
257.798309 144.0
257.878204 124.0
257.935028 128.0
257.943512 100.0
258.050812 144.0
258.095581 72.0
258.121155 132.0
258.152039 140.0
258.201111 376.0
258.24826 208.0
258.290649 80.0
258.332916 152.0
258.399414 112.0
258.434601 156.0
258.485809 188.0
258.585022 108.0
258.607422 196.0
258.865479 164.0
258.930237 280.0
258.972412 188.0
259.127625 132.0
259.215881 184.0
259.263947 204.0
259.286377 368.0
259.37204 188.0
259.433838 40.0
259.465881 112.0
259.642242 112.0
259.708435 72.0
259.744873 160.0
259.84433 108.0
259.89566 104.0
259.940582 240.0
259.989838 148.0
260.052887 200.0
260.078064 152.0
260.277618 144.0
260.312927 224.0
260.418915 260.0
260.441376 40.0
260.499207 196.0
260.618073 148.0
260.640564 80.0
260.685547 152.0
260.717682 76.0
260.750244 152.0
260.804474 136.0
260.952332 120.0
261.019867 216.0
261.097046 96.0
261.187073 160.0
261.396423 120.0
261.460571 196.0
261.547455 152.0
261.578369 260.0
261.769592 152.0
261.817902 140.0
261.933838 120.0
261.958557 144.0
261.970612 96.0
261.980499 184.0
262.090027 340.0
262.345245 120.0
262.350708 188.0
262.377106 100.0
262.443024 176.0
262.501068 176.0
262.578461 168.0
262.707489 116.0
262.775238 140.0
262.826843 140.0
262.869598 144.0
262.897858 180.0
263.068909 1396.0
263.195587 164.0
263.233551 160.0
263.265869 188.0
263.297821 192.0
263.396484 132.0
263.472565 92.0
263.517792 140.0
263.580109 140.0
263.685822 136.0
263.766632 72.0
263.844208 76.0
263.8927 116.0
263.925049 148.0
264.034973 72.0
264.074493 1184.0
264.306427 144.0
264.349213 124.0
264.498535 88.0
264.530029 60.0
264.555908 148.0
264.585052 64.0
264.620667 64.0
264.659515 168.0
264.700287 168.0
264.776093 56.0
264.834381 236.0
264.967194 196.0
265.08252 1212.0
265.201385 192.0
265.26532 124.0
265.472839 108.0
265.507965 168.0
265.609039 52.0
265.670685 244.0
265.716095 116.0
265.855621 196.0
266.056396 892.0
266.120819 236.0
266.157501 92.0
266.202454 228.0
266.254913 84.0
266.369476 88.0
266.384064 204.0
266.395111 244.0
266.547272 96.0
266.605774 84.0
266.644775 44.0
266.732513 140.0
266.763855 100.0
266.830048 144.0
266.947113 116.0
267.00238 228.0
267.061584 928.0
267.110687 108.0
267.147308 136.0
267.187775 140.0
267.249603 92.0
267.272369 128.0
267.37326 152.0
267.451355 176.0
267.52948 148.0
267.75415 164.0
267.866394 144.0
267.930054 168.0
268.018005 156.0
268.072723 6436.0
268.141846 48.0
268.226593 56.0
268.268951 152.0
268.330902 212.0
268.445923 232.0
268.470276 196.0
268.498474 152.0
268.565094 156.0
268.595032 80.0
268.633209 80.0
268.683105 132.0
268.7388 164.0
268.77121 172.0
268.818695 140.0
268.875641 80.0
268.898468 180.0
268.95874 156.0
268.994049 172.0
269.077637 4444.0
269.175964 136.0
269.215149 124.0
269.358856 156.0
269.381165 176.0
269.463379 160.0
269.502594 140.0
269.601318 224.0
269.775269 140.0
269.868652 60.0
269.907898 172.0
269.976562 48.0
270.005981 76.0
270.081879 852.0
270.119415 136.0
270.12442 172.0
270.156433 76.0
270.257874 48.0
270.320038 232.0
270.346222 152.0
270.435486 128.0
270.562225 196.0
270.647369 116.0
270.740936 124.0
270.82724 120.0
271.079742 220.0
271.119843 164.0
271.20755 80.0
271.296295 100.0
271.325562 116.0
271.407501 84.0
271.463257 156.0
271.618011 156.0
271.653473 184.0
271.686279 160.0
271.728088 108.0
271.810974 100.0
271.917511 220.0
271.959351 112.0
272.001312 88.0
272.052582 104.0
272.106354 28.0
272.260681 28.0
272.467621 124.0
272.539886 256.0
272.562897 184.0
272.659424 140.0
272.729797 180.0
272.80484 200.0
272.878418 68.0
272.97049 68.0
273.003357 160.0
273.032959 28.0
273.111908 40.0
273.148071 168.0
273.289551 140.0
273.395599 172.0
273.460663 68.0
273.58902 120.0
273.700958 52.0
273.933868 184.0
273.957855 124.0
274.013855 152.0
274.226929 128.0
274.254425 168.0
274.306732 152.0
274.452209 60.0
274.564331 120.0
274.613373 128.0
274.838104 84.0
274.864502 104.0
274.894196 128.0
274.917297 124.0
275.045319 132.0
275.098785 380.0
275.16156 140.0
275.216125 160.0
275.238525 156.0
275.287018 160.0
275.386108 120.0
275.415253 136.0
275.554565 120.0
275.643768 164.0
275.739624 112.0
275.796173 144.0
275.842072 140.0
276.013733 164.0
276.093353 88.0
276.457245 116.0
276.513489 96.0
276.536682 208.0
276.582153 156.0
276.6492 196.0
276.808136 92.0
276.831299 156.0
276.924042 68.0
276.963776 64.0
276.997589 96.0
277.0466 168.0
277.076263 540.0
277.101074 148.0
277.250244 164.0
277.290436 224.0
277.332001 180.0
277.366913 120.0
277.649841 188.0
277.678772 200.0
277.732758 136.0
277.785828 196.0
277.826202 160.0
277.941742 40.0
278.029633 140.0
278.098785 304.0
278.170746 168.0
278.270325 136.0
278.446075 360.0
278.496918 140.0
278.541595 100.0
278.575867 164.0
278.622375 116.0
278.688812 92.0
278.756134 184.0
278.767334 192.0
278.801147 128.0
278.928101 144.0
278.988068 144.0
279.014526 176.0
279.09198 460.0
279.126251 160.0
279.184082 160.0
279.233978 64.0
279.257874 108.0
279.350403 92.0
279.423584 112.0
279.460175 124.0
279.486786 132.0
279.569977 164.0
279.593292 160.0
279.625458 60.0
279.653198 136.0
279.675018 104.0
279.707672 196.0
279.733063 148.0
279.799774 252.0
279.831451 124.0
279.934418 92.0
279.971985 132.0
280.098907 1136.0
280.132538 200.0
280.156738 216.0
280.215729 424.0
280.239349 204.0
280.281769 188.0
280.317627 132.0
280.373566 268.0
280.38385 124.0
280.428986 320.0
280.454071 216.0
280.468597 132.0
280.478027 300.0
280.499756 120.0
280.528687 76.0
280.535614 220.0
280.561981 192.0
280.602051 96.0
280.640015 324.0
280.670441 196.0
280.707031 284.0
280.731476 352.0
280.737335 132.0
280.781586 164.0
280.816498 260.0
280.855743 340.0
280.878082 404.0
280.905853 404.0
280.909637 360.0
280.9711 420.0
281.081116 259452.0
281.202362 248.0
281.251373 76.0
281.292145 236.0
281.317474 340.0
281.332031 192.0
281.371979 240.0
281.402039 300.0
281.476044 168.0
281.506073 240.0
281.582886 208.0
281.588165 128.0
281.631317 2032.0
281.671936 164.0
281.726624 208.0
281.759979 236.0
281.798798 232.0
281.841522 180.0
281.880524 76.0
281.913635 552.0
281.958344 164.0
281.985931 140.0
282.036987 268.0
282.084412 54132.0
282.165741 204.0
282.190186 112.0
282.203766 120.0
282.214233 88.0
282.256653 196.0
282.293884 124.0
282.334137 152.0
282.3815 224.0
282.426361 148.0
282.459381 68.0
282.504089 100.0
282.522827 108.0
282.562286 92.0
282.586731 308.0
282.639465 84.0
282.685944 88.0
282.700745 204.0
282.739014 88.0
282.838898 160.0
282.889191 92.0
282.932465 68.0
282.976105 100.0
283.002747 140.0
283.020691 100.0
283.033844 116.0
283.085541 6276.0
283.146942 232.0
283.174652 120.0
283.25708 216.0
283.309509 108.0
283.351837 108.0
283.468475 216.0
283.533447 156.0
283.565338 96.0
283.614319 208.0
283.6521 392.0
283.715088 188.0
283.740723 108.0
283.760406 252.0
283.803223 152.0
283.845978 60.0
283.908234 280.0
283.945496 148.0
283.985809 168.0
284.032837 192.0
284.084869 572.0
284.187927 176.0
284.214722 108.0
284.255981 160.0
284.298279 92.0
284.323059 112.0
284.37558 60.0
284.41571 160.0
284.451202 104.0
284.553711 100.0
284.581543 68.0
284.624237 80.0
284.674774 156.0
284.758881 40.0
284.854645 72.0
284.916412 32.0
285.031555 132.0
285.07132 432.0
285.105438 156.0
285.134827 92.0
285.189545 184.0
285.25354 104.0
285.324066 108.0
285.387909 164.0
285.417206 136.0
285.471008 48.0
285.511017 160.0
285.590057 80.0
285.615601 88.0
285.672791 220.0
285.746796 144.0
285.7771 128.0
285.814087 132.0
285.837646 96.0
285.881409 148.0
285.934601 188.0
285.976379 68.0
286.08551 76.0
286.101868 108.0
286.164124 40.0
286.24707 108.0
286.312286 72.0
286.394104 124.0
286.433533 172.0
286.472778 88.0
286.561554 140.0
286.60199 56.0
286.629883 72.0
286.666016 84.0
286.733398 52.0
286.780579 56.0
286.848999 136.0
286.922028 180.0
286.999725 36.0
287.03006 56.0
287.124481 72.0
287.154846 40.0
287.249268 44.0
287.299194 80.0
287.425629 132.0
287.512451 60.0
287.612488 100.0
287.624542 128.0
287.809479 64.0
288.005371 128.0
288.049255 156.0
288.076294 112.0
288.236633 52.0
288.292542 188.0
288.373627 116.0
288.439148 104.0
288.460724 168.0
288.513 156.0
288.546692 148.0
288.599579 96.0
288.664368 32.0
288.765808 120.0
288.819946 200.0
288.850372 120.0
288.934937 44.0
289.036438 68.0
289.107513 148.0
289.144745 48.0
289.210175 144.0
289.224854 48.0
289.231476 128.0
289.361359 36.0
289.385071 56.0
289.422302 132.0
289.611969 132.0
289.710205 224.0
289.754242 144.0
289.883118 112.0
290.049042 136.0
290.086334 160.0
290.133789 156.0
290.357574 100.0
290.408447 172.0
290.612 64.0
290.832581 88.0
290.897064 176.0
291.009094 60.0
291.063324 1808.0
291.148315 48.0
291.182281 120.0
291.209442 44.0
291.330872 176.0
291.372498 116.0
291.429077 208.0
291.51178 36.0
291.580383 128.0
291.606934 104.0
291.878906 96.0
291.916321 100.0
292.095123 1132.0
292.129791 156.0
292.27005 120.0
292.30069 112.0
292.382355 108.0
292.46405 236.0
292.634247 148.0
292.661469 116.0
292.692139 108.0
292.768738 152.0
292.801086 168.0
292.862488 104.0
292.905975 196.0
292.961914 76.0
293.015686 104.0
293.082062 3088.0
293.264435 128.0
293.336029 152.0
293.373505 76.0
293.634979 76.0
293.659943 96.0
293.738403 40.0
293.796387 144.0
293.837311 88.0
293.881683 64.0
293.915802 64.0
294.081482 628.0
294.180023 180.0
294.301483 28.0
294.369781 104.0
294.417572 72.0
294.489288 84.0
294.52005 144.0
294.595184 116.0
294.776581 44.0
294.875122 52.0
294.964233 168.0
295.05368 364.0
295.09903 716.0
295.158356 184.0
295.254395 92.0
295.412201 48.0
295.456665 36.0
295.521667 72.0
295.572998 208.0
295.708527 152.0
295.860474 116.0
295.954376 176.0
296.024811 28.0
296.056824 252.0
296.068726 88.0
296.082642 324.0
296.093781 280.0
296.106262 112.0
296.180206 96.0
296.250854 136.0
296.278259 100.0
296.377625 152.0
296.466736 56.0
296.507843 108.0
296.590088 160.0
296.720367 104.0
296.809509 156.0
297.066711 148.0
297.107544 432.0
297.14563 36.0
297.190216 72.0
297.330933 204.0
297.404816 160.0
297.523132 152.0
297.840546 156.0
297.866516 120.0
297.89743 156.0
297.928375 192.0
297.976929 120.0
298.021118 120.0
298.072662 148.0
298.168884 48.0
298.272003 56.0
298.427856 280.0
298.485138 56.0
298.574554 136.0
298.619263 72.0
298.656372 116.0
298.701813 92.0
298.753418 76.0
298.994263 96.0
299.094574 412.0
299.262756 168.0
299.300629 80.0
299.403931 96.0
299.558929 160.0
299.584808 192.0
299.648499 60.0
299.734924 132.0
299.803528 108.0
299.904694 172.0
300.084595 312.0
300.165497 152.0
300.217224 108.0
300.365509 132.0
300.5242 116.0
300.748505 148.0
300.848633 168.0
301.02124 92.0
301.229645 200.0
301.283752 208.0
301.366669 232.0
301.405914 112.0
301.43576 76.0
301.567078 196.0
301.591278 60.0
301.681152 92.0
301.705353 56.0
301.753754 40.0
302.006195 132.0
302.068756 128.0
302.317535 60.0
302.435211 100.0
302.549438 144.0
302.587524 44.0
302.698334 44.0
302.722565 160.0
302.774506 136.0
302.857056 168.0
303.100555 200.0
303.131317 208.0
303.231812 84.0
303.32193 112.0
303.4086 124.0
303.450195 192.0
303.488342 76.0
303.733429 140.0
303.762299 96.0
303.835144 128.0
304.032928 64.0
304.109283 188.0
304.133575 192.0
304.157867 40.0
304.233826 100.0
304.327972 116.0
304.404938 168.0
304.562286 144.0
304.696136 160.0
304.758667 92.0
304.828156 148.0
305.069366 112.0
305.103699 284.0
305.168793 100.0
305.293945 196.0
305.436554 108.0
305.492218 216.0
305.547882 168.0
305.653717 152.0
305.687042 236.0
305.778442 148.0
305.808838 100.0
305.968689 108.0
306.07077 200.0
306.097778 32.0
306.170929 60.0
306.254517 52.0
306.333038 96.0
306.362488 56.0
306.587982 140.0
306.791107 144.0
306.819 104.0
306.91803 120.0
306.965454 180.0
306.993347 120.0
307.086151 664.0
307.153778 60.0
307.178192 120.0
307.255524 144.0
307.321228 140.0
307.356384 152.0
307.389893 128.0
307.430573 176.0
307.467773 100.0
307.502686 124.0
307.544556 188.0
307.575989 180.0
307.62265 192.0
307.795929 48.0
307.827332 280.0
307.934631 216.0
308.000366 200.0
308.03302 304.0
308.091705 42540.0
308.174835 116.0
308.229034 148.0
308.261139 220.0
308.289093 148.0
308.31662 84.0
308.369629 88.0
308.46048 160.0
308.519135 44.0
308.547089 68.0
308.571564 128.0
308.603851 120.0
308.635986 152.0
308.715546 44.0
308.744843 136.0
308.783417 212.0
308.798645 124.0
308.805542 88.0
308.837341 64.0
308.865326 40.0
308.893127 132.0
308.968414 144.0
308.997101 136.0
309.076172 61764.0
309.14978 400.0
309.175201 204.0
309.211121 204.0
309.274994 172.0
309.308685 84.0
309.353027 44.0
309.422241 132.0
309.466125 212.0
309.508545 100.0
309.514923 64.0
309.56897 228.0
309.617218 84.0
309.626556 80.0
309.648773 200.0
309.690277 120.0
309.710083 108.0
309.734283 124.0
309.784027 156.0
309.833008 144.0
309.893524 28.0
309.910736 92.0
309.948853 372.0
310.011108 160.0
310.079712 13724.0
310.18161 220.0
310.242065 140.0
310.268799 116.0
310.302429 252.0
310.341827 76.0
310.350159 52.0
310.399353 144.0
310.457764 128.0
310.486359 112.0
310.538422 180.0
310.591644 184.0
310.616669 100.0
310.693268 196.0
310.701691 56.0
310.756714 204.0
310.793793 116.0
310.858246 76.0
310.921936 48.0
310.990723 132.0
311.014679 168.0
311.080109 2420.0
311.155792 88.0
311.199219 140.0
311.223816 128.0
311.259552 100.0
311.290863 128.0
311.355438 124.0
311.404205 96.0
311.469635 52.0
311.519989 72.0
311.569977 92.0
311.612 72.0
311.665161 188.0
311.715546 100.0
311.740143 64.0
311.787598 64.0
311.845581 156.0
311.870178 116.0
311.901825 152.0
311.944 44.0
311.978271 128.0
311.998627 116.0
312.047546 112.0
312.087891 196.0
312.143951 96.0
312.202667 120.0
312.309418 208.0
312.392487 192.0
312.405884 104.0
312.571136 112.0
312.629852 68.0
312.730347 108.0
312.88327 72.0
312.946625 112.0
312.973389 120.0
313.055786 200.0
313.080444 64.0
313.133148 124.0
313.237457 116.0
313.27063 76.0
313.393951 92.0
313.43457 196.0
313.489075 64.0
313.548981 52.0
313.600708 300.0
313.742859 148.0
313.802765 112.0
314.007294 100.0
314.042572 172.0
314.113098 124.0
314.169556 160.0
314.240112 64.0
314.275391 116.0
314.51889 64.0
314.628326 44.0
314.82251 196.0
314.921387 104.0
314.999115 56.0
315.239349 196.0
315.274689 204.0
315.416046 188.0
315.875732 216.0
316.147522 112.0
316.264954 152.0
316.615448 196.0
316.70047 116.0
316.863403 96.0
316.934265 132.0
317.015747 84.0
317.13797 136.0
317.643616 152.0
317.838409 76.0
317.969727 140.0
318.015869 176.0
318.168488 48.0
318.285645 72.0
318.431244 136.0
318.491638 68.0
318.534241 148.0
318.669434 80.0
318.726105 32.0
318.765167 144.0
318.843353 88.0
319.070862 104.0
319.095734 104.0
319.220184 76.0
319.50473 176.0
319.575867 88.0
319.60434 96.0
319.661255 156.0
319.841187 144.0
319.956696 88.0
319.992279 136.0
320.091492 1544.0
320.127716 260.0
320.354858 172.0
320.451721 140.0
320.487335 52.0
320.515137 176.0
320.556244 84.0
320.669098 140.0
320.883759 180.0
321.039856 116.0
321.097382 604.0
321.36087 116.0
321.510742 56.0
321.621368 144.0
321.814148 132.0
321.842712 88.0
321.88913 60.0
321.914124 100.0
321.967682 60.0
322.046265 144.0
322.105804 2048.0
322.176483 44.0
322.224884 124.0
322.489288 40.0
322.650146 124.0
322.678741 148.0
322.72525 84.0
322.957672 124.0
323.014923 116.0
323.05069 84.0
323.107178 460.0
323.361969 56.0
323.465759 164.0
323.493378 152.0
323.807068 124.0
323.870392 140.0
323.927704 124.0
324.09198 192.0
324.116852 220.0
324.28598 136.0
324.386353 108.0
324.425781 80.0
324.515411 160.0
324.595459 160.0
324.662415 68.0
324.687531 92.0
324.737732 64.0
324.791534 44.0
324.960144 128.0
325.049835 116.0
325.085999 340.0
325.161102 136.0
325.196899 152.0
325.609558 48.0
325.707642 88.0
325.854126 168.0
325.997833 28.0
326.1008 828.0
326.148773 52.0
326.200775 112.0
326.270996 100.0
326.307587 68.0
326.57663 108.0
326.609009 112.0
326.828461 132.0
326.906525 92.0
327.085205 400.0
327.17395 236.0
327.249573 164.0
327.570068 212.0
328.020508 164.0
328.092041 128.0
328.155762 256.0
328.399109 168.0
328.482056 144.0
329.066681 176.0
329.138885 68.0
329.20697 168.0
329.424194 144.0
329.814453 116.0
329.841614 140.0
329.906219 236.0
330.070099 140.0
330.143433 60.0
330.374939 136.0
330.425568 180.0
330.718689 148.0
331.008301 80.0
331.087952 40.0
331.13504 168.0
331.178497 240.0
331.247314 192.0
331.28717 148.0
331.439331 120.0
331.544434 128.0
331.693024 152.0
332.411102 168.0
332.480042 184.0
332.665161 92.0
332.944733 196.0
333.057312 204.0
333.096405 172.0
333.109711 132.0
333.289276 160.0
333.391571 164.0
333.449707 120.0
333.620544 148.0
333.769623 64.0
334.108765 176.0
334.44989 152.0
334.489929 116.0
334.832184 36.0
335.123596 148.0
335.305786 180.0
335.466156 52.0
335.597412 176.0
336.122314 180.0
336.308777 196.0
336.428284 108.0
336.449585 188.0
336.498596 128.0
336.67749 208.0
337.34613 64.0
337.389984 88.0
337.448486 164.0
337.485046 176.0
337.630157 140.0
337.766632 124.0
337.84137 124.0
337.86908 80.0
338.100433 5216.0
338.209381 48.0
338.286255 56.0
338.406891 132.0
338.415283 176.0
338.597473 120.0
338.791595 120.0
338.967468 48.0
339.056946 224.0
339.103394 756.0
339.201996 112.0
339.246002 64.0
339.330322 140.0
339.403656 104.0
339.513641 192.0
339.649353 68.0
339.71402 76.0
339.812408 204.0
340.060303 64.0
340.108246 484.0
340.229126 112.0
340.342957 68.0
340.456787 208.0
340.484222 200.0
340.710236 124.0
340.794189 112.0
341.004181 220.0
341.140167 60.0
341.20636 236.0
341.283569 68.0
341.515106 108.0
341.523438 104.0
341.53595 132.0
341.636627 168.0
341.827942 60.0
342.034027 108.0
342.117493 184.0
342.170227 52.0
342.225464 144.0
342.329834 184.0
342.468506 148.0
342.54953 136.0
342.892181 40.0
343.006439 160.0
343.268219 132.0
343.430481 108.0
343.533752 96.0
343.589081 112.0
343.810486 92.0
343.865845 144.0
344.095062 164.0
344.220245 44.0
344.312286 160.0
344.615448 72.0
344.844666 124.0
345.458344 140.0
345.550842 160.0
345.591522 64.0
345.658142 124.0
345.713654 184.0
345.780243 156.0
345.920898 108.0
346.035675 128.0
346.4245 72.0
346.702393 76.0
346.739471 144.0
346.961853 160.0
347.019012 164.0
347.034912 68.0
347.041656 144.0
347.184326 92.0
347.455078 72.0
347.599792 32.0
347.674011 136.0
347.92981 148.0
348.12027 2448.0
348.158905 188.0
348.219757 48.0
348.256897 64.0
348.327454 52.0
348.412903 124.0
348.438904 88.0
348.613525 264.0
348.686737 128.0
348.869995 188.0
349.118683 540.0
349.275299 152.0
349.3125 256.0
349.487366 84.0
349.811127 128.0
350.106323 152.0
350.153687 40.0
350.24353 160.0
350.275696 84.0
350.38089 64.0
350.447937 84.0
350.564117 116.0
350.891449 72.0
351.106659 388.0
351.312866 72.0
351.402405 132.0
352.01828 80.0
352.055603 20.0
352.113159 308.0
352.16391 216.0
352.803497 124.0
352.890167 276.0
353.111359 116.0
353.165283 140.0
353.277802 180.0
353.78299 48.0
354.000153 140.0
354.393463 112.0
354.933197 148.0
355.01944 132.0
355.120697 128.0
355.164062 212.0
355.266968 44.0
355.304474 76.0
355.563385 140.0
355.679749 128.0
355.826141 168.0
355.882446 176.0
356.329407 176.0
356.442108 68.0
356.607452 152.0
357.061005 164.0
357.145111 160.0
357.600372 180.0
357.686951 72.0
358.519287 84.0
358.617279 176.0
359.084778 36.0
359.775299 120.0
360.060516 216.0
360.568481 40.0
360.670532 48.0
360.704956 188.0
360.799072 180.0
360.961639 112.0
361.008331 116.0
361.173431 144.0
361.218811 48.0
361.302032 120.0
361.404175 40.0
361.612305 52.0
361.757996 180.0
361.831848 104.0
362.142365 152.0
362.229492 56.0
362.309021 96.0
362.365845 148.0
362.460571 108.0
362.601776 156.0
362.695557 164.0
362.737244 104.0
362.778931 104.0
362.866119 92.0
362.896454 84.0
362.94574 116.0
362.97229 144.0
363.169495 128.0
363.268372 96.0
363.332611 76.0
363.400879 76.0
363.431244 128.0
363.586823 128.0
363.620972 48.0
363.647552 52.0
363.677185 84.0
363.81076 48.0
363.860107 64.0
363.966431 76.0
364.087952 112.0
364.150391 84.0
364.209473 96.0
364.247467 144.0
364.397858 116.0
364.456116 56.0
364.531586 112.0
364.568481 68.0
364.599731 188.0
364.669922 64.0
364.777527 128.0
364.800873 240.0
364.843475 128.0
364.88147 152.0
364.923035 184.0
364.988007 116.0
365.069122 244.0
365.096344 252.0
365.14444 168.0
365.172028 120.0
365.197754 160.0
365.235321 156.0
365.291687 192.0
365.355011 180.0
365.397766 200.0
365.432526 136.0
365.497986 220.0
365.53772 236.0
365.589783 136.0
365.647491 192.0
365.684998 212.0
365.721588 204.0
365.7612 148.0
365.825745 396.0
365.854462 148.0
365.880981 224.0
365.929993 224.0
365.970825 516.0
366.004456 344.0
366.034027 524.0
366.134186 190884.0
366.26532 136.0
366.294037 104.0
366.336823 32.0
366.395844 264.0
366.433197 48.0
366.471252 608.0
366.498383 244.0
366.538971 212.0
366.584198 60.0
366.598389 108.0
366.631226 160.0
366.686127 140.0
366.69104 100.0
366.71701 160.0
366.762939 1684.0
366.79837 144.0
366.853088 180.0
366.888855 140.0
366.938568 176.0
367.001129 124.0
367.045319 136.0
367.073486 468.0
367.136719 57544.0
367.239502 148.0
367.270935 140.0
367.318207 160.0
367.345947 148.0
367.438049 116.0
367.476685 56.0
367.519104 116.0
367.536377 72.0
367.577545 216.0
367.655762 152.0
367.719116 124.0
367.730774 100.0
367.766785 272.0
367.899292 60.0
367.925995 60.0
367.96286 204.0
367.998413 264.0
368.018158 132.0
368.068237 260.0
368.137115 6948.0
368.187561 76.0
368.245941 208.0
368.270721 192.0
368.323151 136.0
368.379395 116.0
368.425964 96.0
368.475189 72.0
368.525604 148.0
368.605835 56.0
368.646179 164.0
368.719696 96.0
368.760132 128.0
368.806183 68.0
368.880615 116.0
368.897583 48.0
368.972504 116.0
369.001129 216.0
369.014313 208.0
369.024109 276.0
369.062134 132.0
369.092285 132.0
369.140015 584.0
369.212769 128.0
369.241516 244.0
369.261169 164.0
369.296783 76.0
369.304871 84.0
369.332672 236.0
369.372467 228.0
369.408875 100.0
369.440735 136.0
369.472992 100.0
369.486664 192.0
369.522095 264.0
369.55304 272.0
369.583008 144.0
369.621826 496.0
369.686523 104.0
369.69632 128.0
369.72467 112.0
369.763031 136.0
369.796936 184.0
369.892975 108.0
369.969086 144.0
370.016052 80.0
370.075562 84.0
370.117798 156.0
370.153625 88.0
370.229462 92.0
370.305756 64.0
370.405334 200.0
370.460266 92.0
370.546783 196.0
370.615051 136.0
370.681183 64.0
370.781189 44.0
370.812347 48.0
370.875244 56.0
370.921234 60.0
370.974915 40.0
371.107391 76.0
371.162781 32.0
371.216461 48.0
371.260193 88.0
371.454254 76.0
371.520233 140.0
371.616943 68.0
371.713928 104.0
371.720642 92.0
371.826416 44.0
371.857117 148.0
371.903168 64.0
371.941559 44.0
372.062958 64.0
372.079376 40.0
372.156799 116.0
372.313965 48.0
372.427582 116.0
372.882538 52.0
372.932495 112.0
373.070892 44.0
373.501556 72.0
373.886292 52.0
373.958405 68.0
374.071045 64.0
374.124939 72.0
374.225037 52.0
375.007019 48.0
375.037842 84.0
375.120941 36.0
375.253723 32.0
375.442657 104.0
375.492798 88.0
375.593079 56.0
376.144867 96.0
376.693176 64.0
377.435211 32.0
377.558929 48.0
377.760071 64.0
377.876129 36.0
378.255371 76.0
378.565094 76.0
378.762604 112.0
378.843964 120.0
379.138428 76.0
379.460144 36.0
379.584229 60.0
379.731567 60.0
379.828552 84.0
379.863464 156.0
380.492126 116.0
380.569763 52.0
380.697906 32.0
381.323364 40.0
381.443848 44.0
381.552704 56.0
381.583801 180.0
381.644012 116.0
381.727661 104.0
381.764221 80.0
382.06604 72.0
382.151642 48.0
382.241119 120.0
382.55249 96.0
382.723785 60.0
382.751038 96.0
382.943451 128.0
383.058716 104.0
383.350922 52.0
383.385986 120.0
384.22818 140.0
384.516937 68.0
384.813599 52.0
384.894684 136.0
385.00882 108.0
385.07132 44.0
385.122101 124.0
385.434631 60.0
385.494843 92.0
385.688629 96.0
385.766815 84.0
385.884094 52.0
386.028778 36.0
386.257874 100.0
386.353394 88.0
386.862122 64.0
386.932587 104.0
387.061798 88.0
387.206696 44.0
387.453461 64.0
387.504395 80.0
387.755157 92.0
387.8414 72.0
388.523682 48.0
388.621765 84.0
388.821899 96.0
389.010284 160.0
389.450073 40.0
389.890106 64.0
390.302856 92.0
390.491608 104.0
391.180176 204.0
391.342804 64.0
391.645844 120.0
391.959961 108.0
392.547272 80.0
392.618256 120.0
393.762756 112.0
394.217041 56.0
394.602478 64.0
395.075012 152.0
395.395508 100.0
395.652802 88.0
396.005219 40.0
397.166504 100.0
397.495789 40.0
398.01181 112.0
398.337463 56.0
399.701111 84.0
400.895874 88.0
401.533539 92.0
402.243744 172.0
404.786438 88.0
405.191742 104.0
405.663849 188.0
406.530182 196.0
406.74942 140.0
408.09671 72.0
409.174927 236.0
409.227264 92.0
411.355835 96.0
411.424469 88.0
412.401978 68.0
412.604095 116.0
416.0354 120.0
416.173431 132.0
416.831451 124.0
417.059021 136.0
417.087494 36.0
417.17691 116.0
417.725891 76.0
417.790955 36.0
418.906372 116.0
420.153778 108.0
420.431244 96.0
421.627777 120.0
422.286011 116.0
424.239136 100.0
425.56015 76.0
426.492676 80.0
426.541992 56.0
427.241058 72.0
427.623718 108.0
428.270111 88.0
428.30307 96.0
428.529633 164.0
429.745911 76.0
430.546692 36.0
430.777985 92.0
431.195312 116.0
431.381317 112.0
431.682159 192.0
431.852692 88.0
431.960205 76.0
432.194031 100.0
432.278778 160.0
432.35144 100.0
432.522949 96.0
432.585052 152.0
433.01358 104.0
433.222778 40.0
433.268341 136.0
433.305634 48.0
433.414886 232.0
433.652588 212.0
433.931427 120.0
433.981171 56.0
434.047516 156.0
434.076538 120.0
434.169312 12596.0
434.2948 64.0
434.343445 136.0
434.369232 112.0
434.404175 44.0
434.473389 76.0
434.482056 52.0
434.498291 64.0
434.549377 168.0
434.584167 84.0
434.616821 188.0
434.679016 148.0
434.761017 64.0
434.814941 104.0
434.908081 96.0
435.018341 52.0
435.049286 48.0
435.101929 60.0
435.173584 3636.0
435.25592 116.0
435.384674 120.0
435.425232 96.0
435.487549 60.0
435.533234 28.0
435.624603 68.0
435.670288 140.0
435.815704 56.0
435.887482 44.0
435.927887 60.0
436.011017 112.0
436.069183 68.0
436.125458 112.0
436.171173 608.0
436.259125 52.0
436.376801 40.0
436.434998 48.0
436.505707 76.0
436.6138 52.0
436.680359 120.0
436.738586 104.0
436.904968 52.0
437.017303 52.0
437.054749 56.0
437.178925 228.0
437.205872 152.0
437.306305 44.0
437.413818 132.0
437.699921 108.0
437.756042 108.0
437.837341 80.0
437.891479 88.0
438.008087 100.0
438.095581 48.0
438.399719 56.0
438.470551 44.0
438.591431 96.0
438.88324 40.0
439.492218 64.0
439.617371 76.0
439.890839 100.0
439.951294 68.0
441.028992 60.0
441.568329 160.0
442.991425 52.0
443.548737 92.0
443.691254 76.0
444.353882 44.0
444.609833 68.0
444.66861 100.0
444.819702 28.0
445.420166 40.0
446.748474 128.0
446.836823 60.0
447.045013 100.0
447.800781 88.0
447.927124 92.0
447.986115 44.0
448.163055 84.0
448.23468 76.0
448.833221 80.0
450.052612 84.0
450.508728 60.0
450.56366 36.0
451.113007 56.0
451.235626 76.0
451.861542 76.0
452.060394 108.0
452.843597 40.0
453.339264 92.0
453.898804 52.0
455.129303 60.0
456.233917 84.0
457.088776 112.0
457.284546 80.0
459.142029 84.0
460.840942 64.0
461.670166 56.0
461.700104 100.0
461.832703 60.0
461.901123 96.0
462.033752 88.0
462.085083 32.0
462.294739 116.0
462.358246 124.0
463.476562 44.0
463.506561 108.0
464.042328 96.0
465.093323 100.0
465.307953 80.0
466.44632 124.0
466.596802 88.0
466.949371 68.0
473.102386 152.0
473.197632 88.0
473.344849 72.0
473.899261 92.0
474.271942 92.0
474.970032 52.0
475.160889 36.0
475.429901 96.0
475.742401 80.0
477.784882 108.0
477.906708 64.0
478.585693 80.0
478.960205 128.0
479.792511 84.0
481.437439 112.0
481.633972 68.0
481.939789 92.0
483.846649 48.0
483.964844 108.0
484.44223 104.0
485.112671 48.0
487.012634 68.0
487.605743 136.0
487.645294 52.0
488.375153 48.0
489.603058 88.0
489.9422 112.0
490.550323 84.0
492.244507 60.0
492.332825 60.0
492.443237 104.0
492.875153 140.0
493.839874 132.0
494.115601 84.0
494.897491 80.0
495.349213 64.0
497.708557 132.0
498.099365 52.0
499.201569 60.0
501.574524 120.0
501.784027 132.0
502.408386 92.0
502.488678 80.0
504.645844 60.0
505.106476 108.0
506.33728 44.0
506.373138 36.0
506.5849 72.0
506.740448 72.0
508.709167 68.0
509.180634 84.0
509.2435 36.0
510.263519 44.0
510.357941 88.0
510.834656 60.0
510.992096 104.0
511.172089 108.0
512.166992 88.0
512.513916 84.0
512.74823 120.0
512.788757 72.0
513.541687 56.0
516.029846 72.0
516.106689 80.0
516.450378 100.0
517.581726 52.0
518.338196 36.0
519.398499 68.0
519.444397 100.0
522.21051 112.0
522.565369 96.0
522.75647 100.0
522.993103 68.0
523.789917 96.0
523.840027 60.0
525.786926 104.0
525.891846 56.0
526.800537 100.0
527.170593 60.0
527.248291 112.0
527.714539 44.0
528.116943 104.0
528.533264 72.0
528.853577 96.0
530.640076 56.0
531.259216 56.0
531.731812 88.0
532.843018 48.0
533.109497 60.0
534.433777 72.0
536.616943 44.0
536.930481 68.0
537.211853 48.0
537.364075 100.0
539.073608 60.0
539.289673 80.0
539.377502 104.0
539.417969 84.0
540.575317 96.0
540.954834 44.0
541.098328 60.0
542.381531 64.0
542.92395 148.0
543.350708 48.0
544.316101 92.0
545.537964 104.0
547.804199 84.0
551.453003 108.0
552.243103 112.0
554.120239 88.0
555.193604 72.0
555.723633 72.0
556.488708 80.0
556.770447 116.0
556.958313 32.0
557.108582 136.0
557.489197 96.0
557.677185 80.0
557.929382 76.0
562.136963 60.0
564.078064 48.0
565.194153 92.0
568.734192 100.0
569.655334 92.0
570.063965 116.0
570.691406 64.0
570.933899 100.0
571.30011 44.0
571.471375 36.0
571.818787 152.0
572.980591 68.0
573.25116 132.0
573.490479 72.0
574.472717 84.0
575.15509 68.0
577.137268 52.0
577.96991 116.0
578.730896 128.0
579.760803 124.0
579.837463 40.0
583.374878 64.0
584.149109 60.0
588.427368 92.0
588.53949 72.0
588.61676 36.0
590.066223 136.0
591.488464 32.0
591.919312 48.0
593.193481 116.0
593.586182 72.0
594.168213 92.0
594.702026 112.0
595.770264 72.0
597.385803 60.0
597.549561 60.0
597.87561 84.0
598.605774 68.0
599.151306 76.0
599.409485 20.0
603.245544 28.0
606.392822 68.0
607.73645 80.0
609.23877 88.0
610.187256 56.0
610.590454 68.0
611.07251 100.0
613.347595 80.0
613.712402 84.0
614.565674 104.0
615.330688 92.0
618.959778 72.0
619.762146 56.0
620.485779 64.0
621.175049 100.0
621.393372 92.0
621.552124 56.0
622.972046 72.0
623.538452 96.0
624.657166 76.0
625.921265 72.0
627.376099 60.0
627.799866 36.0
628.573059 72.0
630.345703 76.0
630.540588 52.0
631.445496 92.0
632.72644 56.0
633.803284 96.0
634.174133 84.0
635.864258 92.0
644.576294 72.0
646.19928 48.0
652.106812 60.0
652.813477 84.0
654.52832 64.0
656.194397 100.0
656.597229 48.0
659.170044 124.0
661.087646 44.0
661.507324 80.0
661.90155 64.0
662.598083 88.0
665.588257 92.0
666.43573 104.0
666.600159 72.0
666.738892 40.0
670.377197 156.0
673.896179 84.0
673.989197 112.0
678.756348 88.0
679.430603 108.0
679.544739 104.0
680.006592 104.0
684.097229 92.0
688.466431 72.0
690.394775 84.0
696.4953 52.0
703.562012 76.0
704.502014 64.0
710.038452 88.0
714.505554 92.0
715.543335 56.0
721.138977 96.0
721.374146 56.0
721.561279 48.0
721.940918 88.0
725.908936 64.0
726.10199 68.0
727.303772 68.0
727.905029 128.0
729.640503 40.0
731.982727 40.0
732.810425 124.0
736.667664 104.0
741.938538 44.0
742.464478 72.0
744.124817 92.0
745.015503 96.0
746.287231 80.0
746.782043 56.0
748.594299 76.0
749.149841 116.0
753.464966 76.0
753.721741 76.0
754.022278 124.0
754.924316 116.0
756.516479 48.0
756.61499 108.0
759.925232 56.0
760.572754 56.0
761.74231 92.0
762.731384 88.0
765.878723 40.0
766.060486 40.0
767.427185 44.0
768.960754 92.0
770.943359 184.0
771.717163 52.0
773.531738 80.0
773.714417 96.0
774.245972 48.0
774.971619 44.0
776.218689 44.0
777.566711 68.0
778.760376 64.0
779.049255 92.0
782.00177 48.0
783.382629 80.0
784.313232 228.0
784.915283 80.0
785.807678 188.0
786.427124 176.0
791.536743 64.0
791.598328 56.0
793.41925 48.0
795.41626 44.0
796.084351 68.0
796.646057 152.0
796.949402 88.0
801.444946 176.0
801.613953 144.0
805.043701 64.0
805.907898 180.0
807.275818 120.0
807.35498 76.0
807.569885 68.0
807.858398 76.0
808.961853 44.0
809.312866 120.0
810.139709 112.0
811.222046 64.0
814.144043 100.0
814.325745 104.0
816.132812 72.0
816.701477 72.0
816.997314 68.0
818.499817 188.0
821.28656 124.0
821.93689 36.0
824.558044 100.0
827.790161 52.0
828.494629 52.0
828.83844 184.0
831.481995 148.0
832.595703 48.0
833.078186 204.0
833.67572 88.0
834.497681 88.0
835.659485 88.0
836.309692 108.0
836.562988 140.0
839.362976 28.0
839.645569 96.0
840.144714 44.0
840.258362 84.0
841.451599 160.0
843.363647 64.0
844.15094 112.0
844.219299 72.0
844.566284 52.0
845.318359 80.0
845.983948 196.0
846.979919 212.0
851.440002 192.0
852.741394 60.0
853.75293 200.0
859.426453 116.0
861.557434 164.0
862.235229 104.0
862.428101 64.0
864.235046 76.0
865.130493 96.0
865.786255 180.0
867.766785 140.0
868.939758 256.0
871.135315 152.0
872.098999 44.0
873.574829 124.0
876.394836 140.0
876.536255 88.0
877.950989 140.0
878.163269 92.0
880.459045 168.0
882.178406 68.0
882.326233 40.0
882.521301 200.0
882.816956 48.0
883.479431 92.0
888.170837 92.0
889.968994 156.0
891.133118 136.0
891.941284 144.0
895.02887 112.0
895.27301 136.0
895.398071 176.0
896.136719 44.0
898.30072 212.0
898.354431 48.0
898.807861 180.0
899.159912 204.0
903.599609 160.0
905.628845 172.0
906.126038 32.0
907.642456 136.0
907.90625 80.0
908.044189 172.0
908.602051 52.0
908.722046 208.0
910.162537 56.0
910.961304 136.0
911.207581 144.0
911.267639 36.0
911.604126 40.0
911.814453 88.0
911.92865 68.0
913.401733 232.0
913.997375 152.0
914.906128 160.0
915.592529 180.0
915.688904 148.0
918.364868 48.0
919.348267 96.0
919.939758 160.0
920.803162 228.0
920.97229 188.0
921.515991 156.0
922.083984 52.0
923.474548 160.0
926.240601 188.0
927.161499 40.0
927.549377 120.0
928.404236 188.0
929.32019 144.0
929.75708 132.0
930.406555 136.0
930.546204 48.0
931.238403 84.0
931.748657 228.0
932.064636 144.0
932.210449 112.0
937.791077 176.0
938.040955 180.0
938.22998 56.0
940.273315 92.0
940.853149 168.0
943.088867 20.0
945.131348 48.0
945.272095 164.0
947.329224 180.0
947.451782 124.0
948.088989 216.0
949.247559 68.0
949.597107 164.0
950.627747 172.0
950.750488 48.0
952.346741 228.0
953.243652 40.0
953.975037 72.0
954.380798 76.0
954.755859 148.0
955.11261 164.0
955.272522 140.0
956.509338 148.0
957.519104 48.0
958.726562 204.0
959.910156 168.0
960.329468 60.0
960.853821 168.0
961.390625 132.0
961.902893 156.0
962.168335 76.0
964.163391 172.0
964.336487 160.0
965.065918 132.0
966.711243 136.0
966.946411 124.0
968.413696 60.0
970.787292 180.0
971.978271 48.0
972.140381 140.0
972.307129 164.0
973.449402 88.0
973.505249 108.0
974.008362 156.0
974.997131 136.0
975.28833 152.0
975.978333 40.0
976.587769 164.0
976.780579 68.0
978.765869 212.0
979.108337 144.0
979.201782 136.0
982.430481 164.0
983.612732 140.0
984.896118 164.0
985.270935 76.0
985.55835 84.0
986.108215 164.0
986.658325 180.0
987.033447 60.0
987.346069 292.0
988.002869 160.0
988.641052 204.0
989.429688 132.0
990.713501 48.0
991.058044 200.0
991.108215 132.0
991.515503 192.0
992.09845 156.0
992.825745 184.0
993.302429 84.0
993.390198 156.0
993.603516 148.0
994.055237 192.0
994.902588 236.0
994.971619 132.0
995.737671 64.0
996.478882 132.0
996.598267 52.0
997.214111 160.0
997.616394 80.0
997.880432 76.0
998.672729 188.0
999.087891 160.0
999.314392 128.0
999.540894 140.0
999.937317 168.0
1000.717896 216.0
1001.064209 164.0
1001.215332 60.0
1001.517639 152.0
1002.57605 100.0
1005.407593 96.0
1005.653748 172.0
1005.704224 120.0
1006.013489 48.0
1006.240784 140.0
1007.529114 236.0
1009.602295 188.0
1010.715576 164.0
1010.797852 192.0
1011.664917 192.0
1011.886475 196.0
1012.171387 92.0
1012.222046 176.0
1013.058105 316.0
1013.31781 164.0
1013.476196 172.0
1014.674072 208.0
1014.819885 188.0
1016.342102 152.0
1016.66571 208.0
1016.74823 196.0
1016.900513 176.0
1017.83844 160.0
1017.986145 124.0
1018.494202 196.0
1019.669556 144.0
1020.044556 32.0
1020.947388 84.0
1021.863342 140.0
1022.092407 224.0
1023.225281 116.0
1024.002197 124.0
1024.065796 140.0
1025.155273 148.0
1025.448364 112.0
1025.658691 180.0
1026.984985 92.0
1027.106079 144.0
1027.654785 72.0
1030.005005 184.0
1030.432007 152.0
1032.471069 208.0
1032.662842 216.0
1033.085083 136.0
1033.545654 68.0
1033.820801 140.0
1034.928223 92.0
1035.049805 32.0
1035.293213 200.0
1035.619751 212.0
1035.959351 120.0
1036.330933 220.0
1036.574341 124.0
1038.766968 180.0
1039.825684 156.0
1040.782104 248.0
1041.206543 236.0
1041.411499 100.0
1042.140869 156.0
1043.088623 128.0
1043.242798 184.0
1044.052856 76.0
1045.500366 140.0
1045.641968 148.0
1047.322266 52.0
1049.319946 228.0
1049.410278 112.0
1049.984131 180.0
1050.422729 172.0
1050.73877 244.0
1051.048462 84.0
1051.40979 120.0
1051.622803 148.0
1052.371582 204.0
1052.733276 188.0
1054.44519 148.0
1054.600342 108.0
1054.923462 228.0
1055.388916 76.0
1055.563599 96.0
1055.828613 192.0
1056.488403 192.0
1057.083618 164.0
1057.187134 140.0
1059.155396 52.0
1059.466309 204.0
1059.602295 108.0
1060.950317 208.0
1061.896973 144.0
1063.493042 144.0
1063.616333 56.0
1063.953857 172.0
1064.486328 160.0
1065.129272 68.0
1065.304688 196.0
1065.454102 120.0
1066.285767 256.0
1066.415771 124.0
1066.558716 68.0
1066.792725 128.0
1068.509521 172.0
1068.737305 184.0
1068.789307 104.0
1069.928345 36.0
1070.937622 116.0
1071.791016 176.0
1072.09729 280.0
1072.364502 44.0
1072.905518 104.0
1073.583618 172.0
1075.188354 256.0
1075.645264 108.0
1077.245117 288.0
1077.447632 124.0
1078.290527 72.0
1079.624146 112.0
1080.114624 184.0
1081.442871 244.0
1081.5 184.0
1082.922607 176.0
1083.977295 228.0
1084.06897 148.0
1084.23938 100.0
1085.163696 60.0
1086.245728 72.0
1086.429321 112.0
1087.216675 160.0
1087.407104 184.0
1087.544922 112.0
1087.756958 152.0
1087.971558 208.0
1088.27356 184.0
1088.391724 116.0
1088.706909 156.0
1088.818604 44.0
1089.69873 140.0
1090.204712 200.0
1090.835693 84.0
1091.348389 156.0
1091.618042 148.0
1092.368774 108.0
1093.321777 88.0
1094.25647 80.0
1095.1521 52.0
1095.5802 168.0
1096.463135 212.0
1098.005737 156.0
1099.048096 120.0
1099.800415 68.0
1100.447266 224.0
1100.552979 104.0
1100.856689 116.0
1102.025757 148.0
1102.296753 120.0
1102.356201 60.0
1102.508179 108.0
1102.772461 188.0
1103.182373 252.0
1103.42688 160.0
1103.637207 220.0
1104.180664 72.0
1105.57666 92.0
1106.119263 168.0
1106.251709 164.0
1106.787964 112.0
1108.775269 48.0
1109.602661 204.0
1109.935303 152.0
1110.70459 136.0
1110.83728 200.0
1110.983154 176.0
1111.089355 144.0
1111.149048 180.0
1111.2146 140.0
1111.387939 144.0
1112.021362 260.0
1112.131104 116.0
1112.901245 196.0
1114.422119 180.0
1114.481934 144.0
1114.973633 192.0
1115.618408 136.0
1116.150269 244.0
1116.27002 244.0
1116.755493 160.0
1117.440552 52.0
1118.312378 188.0
1119.377441 188.0
1119.930176 212.0
1120.196655 220.0
1120.576416 88.0
1120.902832 160.0
1121.322754 96.0
1121.695923 192.0
1121.889282 172.0
1122.449341 120.0
1123.24292 164.0
1124.584106 96.0
1126.320068 204.0
1127.008179 128.0
1127.088257 84.0
1127.482544 172.0
1127.937012 140.0
1128.986694 228.0
1130.150635 144.0
1130.900146 196.0
1131.147705 176.0
1131.378296 196.0
1131.7771 132.0
1131.904297 36.0
1132.172119 128.0
1132.259155 48.0
1133.444824 136.0
1134.275879 156.0
1134.463623 136.0
1134.765259 120.0
1135.254761 164.0
1135.717529 164.0
1137.173462 188.0
1137.723877 56.0
1137.85144 52.0
1138.153564 40.0
1138.368408 212.0
1138.885498 100.0
1140.054443 232.0
1140.202271 64.0
1140.746704 144.0
1141.459351 140.0
1142.064697 144.0
1142.12085 160.0
1142.205933 208.0
1142.468262 180.0
1142.697021 224.0
1142.932495 204.0
1143.618896 208.0
1143.711914 172.0
1143.86792 44.0
1144.285278 136.0
1145.416626 140.0
1145.982544 220.0
1146.467651 228.0
1146.663086 160.0
1147.674194 72.0
1147.795654 164.0
1148.719604 160.0
1150.177124 120.0
1150.56189 64.0
1150.784668 100.0
1151.02771 164.0
1151.500366 176.0
1151.655762 128.0
1151.706909 152.0
1152.209595 100.0
1152.797485 108.0
1154.64978 220.0
1154.798584 196.0
1155.299072 156.0
1155.468262 68.0
1155.698242 124.0
1156.253174 52.0
1156.523804 44.0
1156.882568 144.0
1156.990967 56.0
1157.275269 188.0
1157.640869 88.0
1157.776367 108.0
1160.039307 152.0
1160.235962 160.0
1160.290161 184.0
1160.757935 140.0
1160.988525 120.0
1161.117432 80.0
1161.696533 164.0
1162.447021 176.0
1162.575928 48.0
1164.275146 200.0
1164.653442 64.0
1164.768921 140.0
1164.850342 128.0
1165.264771 136.0
1165.747192 96.0
1168.500977 148.0
1169.256226 220.0
1169.87561 204.0
1170.359009 208.0
1170.549683 124.0
1170.828857 172.0
1171.073975 180.0
1171.312378 120.0
1171.496338 164.0
1171.993652 208.0
1173.084106 204.0
1173.765381 180.0
1174.099976 204.0
1174.181763 172.0
1174.352295 140.0
1175.245972 164.0
1175.853271 144.0
1177.273193 128.0
1177.531616 204.0
1178.065552 196.0
1178.201904 176.0
1178.735107 144.0
1179.145142 76.0
1179.500488 160.0
1179.671387 104.0
1179.829102 60.0
1180.211426 148.0
1180.341431 168.0
1181.079956 160.0
1181.264648 144.0
1181.387817 208.0
1181.983032 164.0
1182.366211 136.0
1182.715332 128.0
1182.947998 172.0
1185.297119 92.0
1185.379395 168.0
1185.571167 156.0
1186.02356 176.0
1186.160645 224.0
1186.427979 68.0
1187.88855 196.0
1188.560913 192.0
1189.013794 132.0
1189.370728 156.0
1189.55603 184.0
1189.748291 64.0
1189.981689 128.0
1190.050415 188.0
1190.514404 180.0
1191.788086 160.0
1193.582031 196.0
1194.015259 172.0
1194.427856 156.0
1196.822754 68.0
1196.891602 188.0
1197.222168 188.0
1198.014282 132.0
1198.427612 224.0
1198.537842 192.0
1199.179321 224.0
1199.42688 96.0
1199.654297 144.0
1199.902466 144.0
1200.25415 100.0
1201.061035 40.0
1201.737061 208.0
1202.578857 136.0
1202.703125 108.0
1204.581299 100.0
1204.926636 44.0
1205.410278 208.0
1205.693604 148.0
1206.087646 60.0
1206.22583 180.0
1206.30188 192.0
1206.730469 152.0
1207.366699 148.0
1208.286621 172.0
1208.895508 184.0
1208.957764 152.0
1209.476807 168.0
1210.466797 136.0
1212.538086 148.0
1212.702271 224.0
1212.829224 164.0
1213.591797 128.0
1214.382324 136.0
1214.826172 124.0
1215.214722 184.0
1215.4021 104.0
1215.540771 192.0
1215.714355 132.0
1215.957153 168.0
1216.477783 36.0
1217.130371 148.0
1217.255371 108.0
1217.310913 180.0
1217.935913 268.0
1218.005371 160.0
1218.116577 148.0
1218.540283 160.0
1218.852905 160.0
1218.971069 160.0
1219.909302 120.0
1220.708862 176.0
1221.035767 180.0
1221.160889 84.0
1221.209595 96.0
1221.35022 224.0
1221.508667 108.0
1221.828613 116.0
1222.32959 180.0
1222.628784 172.0
1223.018555 84.0
1223.192627 176.0
1224.098755 112.0
1224.501587 160.0
1224.578125 192.0
1225.132202 128.0
1226.738159 172.0
1227.156494 84.0
1227.28894 180.0
1227.623657 104.0
1228.069946 160.0
1228.439697 152.0
1228.620972 48.0
1229.165283 104.0
1229.276855 140.0
1230.24707 184.0
1230.442505 156.0
1230.847412 212.0
1231.301392 204.0
1231.657593 140.0
1232.174438 180.0
1233.299561 268.0
1234.278198 196.0
1234.383057 156.0
1235.08252 148.0
1236.621704 248.0
1237.328735 140.0
1237.545776 112.0
1238.000854 172.0
1238.126953 156.0
1238.764282 100.0
1238.820312 204.0
1238.904419 88.0
1239.086548 168.0
1240.186768 60.0
1240.656372 172.0
1240.824585 176.0
1241.504761 120.0
1241.77124 124.0
1242.241211 148.0
1242.332397 88.0
1243.216431 204.0
1243.72168 36.0
1244.802856 196.0
1245.048706 88.0
1245.891479 80.0
1246.938477 152.0
1248.365601 160.0
1248.766479 160.0
1248.984497 88.0
1249.040771 140.0
1249.575317 268.0
1250.097046 200.0
1250.250854 152.0
1250.757568 144.0
1251.060303 128.0
1251.975586 180.0
1252.222046 56.0
1252.80127 188.0
1253.010986 92.0
1253.144897 100.0
1253.370361 140.0
1253.941162 184.0
1254.371094 92.0
1254.868042 164.0
1255.442749 164.0
1255.562622 96.0
1257.128662 204.0
1257.779907 220.0
1258.370972 188.0
1258.512207 200.0
1259.393677 212.0
1260.002441 124.0
1260.43335 104.0
1260.595947 112.0
1260.723145 140.0
1262.073242 52.0
1262.737915 384.0
1263.091553 136.0
1264.166626 168.0
1264.365112 164.0
1264.464233 84.0
1264.818115 128.0
1264.874756 220.0
1265.483521 152.0
1266.057007 136.0
1266.942383 160.0
1267.452515 112.0
1267.913086 168.0
1268.331299 152.0
1268.813354 80.0
1269.408936 264.0
1270.806274 156.0
1270.877197 172.0
1271.693237 208.0
1271.771362 184.0
1273.780762 136.0
1273.915649 72.0
1274.318115 136.0
1274.953003 140.0
1275.358154 100.0
1275.784668 60.0
1277.313477 100.0
1277.370361 144.0
1278.081787 200.0
1278.359375 68.0
1278.708008 164.0
1279.305908 208.0
1279.918213 148.0
1280.395264 128.0
1280.552002 184.0
1281.057739 184.0
1281.299927 100.0
1281.663208 164.0
1282.019531 60.0
1282.611084 144.0
1283.13855 112.0
1284.438232 188.0
1284.964355 128.0
1285.363892 76.0
1285.849121 68.0
1285.956177 60.0
1286.056152 132.0
1286.463013 204.0
1286.534424 136.0
1286.855591 232.0
1287.67688 88.0
1288.133911 184.0
1288.369629 56.0
1288.512573 116.0
1288.712646 188.0
1289.00647 152.0
1289.061768 156.0
1289.284302 152.0
1289.999023 44.0
1290.227783 168.0
1290.477905 120.0
1290.7854 48.0
1290.856934 136.0
1291.014282 32.0
1291.407593 84.0
1291.50769 156.0
1292.251709 220.0
1292.452026 156.0
1292.766846 68.0
1293.146118 80.0
1293.840454 104.0
1293.890625 156.0
1294.620972 148.0
1295.387329 44.0
1295.723999 84.0
1295.809937 176.0
1296.118042 252.0
1296.505005 136.0
1296.834595 180.0
1297.157227 224.0
1297.537109 208.0
1297.759399 160.0
1298.333008 156.0
1298.767822 184.0
1299.021606 176.0
1299.394653 64.0
1299.746216 60.0
1299.85376 176.0
1300.880127 256.0
1301.361084 168.0
1303.832153 152.0
1304.371094 164.0
1304.651489 212.0
1307.554443 116.0
1308.089966 116.0
1308.658691 48.0
1308.997192 168.0
1309.076294 188.0
1309.558838 148.0
1310.358398 128.0
1311.01416 168.0
1312.513428 200.0
1313.140869 180.0
1313.508667 156.0
1313.782837 192.0
1314.518677 136.0
1314.626953 128.0
1315.464233 116.0
1316.338135 148.0
1316.966064 164.0
1317.283936 248.0
1317.64502 144.0
1317.92688 172.0
1318.078613 120.0
1319.046997 124.0
1319.213257 68.0
1319.748291 232.0
1319.849487 180.0
1320.102539 160.0
1321.151245 72.0
1321.37561 164.0
1321.968872 208.0
1322.374146 172.0
1323.561401 140.0
1324.198608 156.0
1324.263794 120.0
1324.785278 80.0
1324.872192 152.0
1325.053345 68.0
1325.249023 220.0
1325.306885 120.0
1325.488037 116.0
1325.596802 116.0
1326.901367 124.0
1327.053711 180.0
1327.355835 200.0
1327.807739 192.0
1327.891846 156.0
1328.598389 160.0
1328.736206 156.0
1328.786987 160.0
1329.062744 156.0
1329.425537 44.0
1329.708618 172.0
1330.732056 192.0
1330.826904 176.0
1331.335449 172.0
1331.68335 196.0
1332.090088 112.0
1332.714844 144.0
1333.688599 200.0
1334.073853 56.0
1334.590088 124.0
1334.648193 208.0
1335.564575 108.0
1335.979126 96.0
1336.35022 96.0
1339.742798 56.0
1340.019653 132.0
1340.602539 144.0
1341.017944 52.0
1341.294922 160.0
1341.411499 168.0
1341.768677 180.0
1342.417603 140.0
1342.541626 168.0
1342.760376 44.0
1343.132324 196.0
1344.226685 188.0
1344.343506 156.0
1344.467529 148.0
1344.795898 148.0
1345.06604 156.0
1345.182739 168.0
1345.452881 220.0
1345.518555 148.0
1345.993164 72.0
1346.067749 188.0
1346.299805 148.0
1346.789185 56.0
1347.242065 84.0
1350.619141 188.0
1351.072632 140.0
1351.49707 104.0
1352.397095 160.0
1352.924194 140.0
1353.026611 60.0
1354.308105 76.0
1354.615723 160.0
1354.901489 188.0
1355.209106 176.0
1355.2677 152.0
1356.191162 68.0
1356.30835 240.0
1356.858154 176.0
1358.398193 124.0
1358.691528 184.0
1358.750244 72.0
1359.008057 244.0
1359.157959 200.0
1359.286377 128.0
1360.849243 124.0
1361.032837 148.0
1361.363281 176.0
1361.531616 256.0
1361.840576 144.0
1362.178467 212.0
1362.501709 96.0
1362.729492 92.0
1362.979248 264.0
1363.243774 84.0
1363.897949 64.0
1364.067017 172.0
1365.031982 180.0
1365.103638 72.0
1365.2948 128.0
1365.493408 68.0
1366.000854 76.0
1366.06897 180.0
1366.354004 76.0
1366.79541 256.0
1367.02356 212.0
1367.914062 116.0
1368.495605 192.0
1369.062622 148.0
1369.261475 140.0
1369.865479 156.0
1369.939087 184.0
1370.391846 164.0
1370.793701 136.0
1372.039307 160.0
1372.444824 156.0
1373.15271 36.0
1374.141235 164.0
1374.635498 68.0
1375.1521 144.0
1375.971436 160.0
1376.111816 200.0
1377.241577 188.0
1377.802979 172.0
1378.697021 200.0
1378.852295 160.0
1379.081299 156.0
1379.351562 144.0
1379.739258 120.0
1380.241943 204.0
1380.626465 52.0
1382.120728 112.0
1382.401855 168.0
1382.638672 188.0
1383.112427 132.0
1383.696533 232.0
1384.319092 176.0
1386.435547 132.0
1387.809082 200.0
1387.972168 216.0
1388.424561 144.0
1388.750854 120.0
1388.839844 224.0
1389.819092 176.0
1389.989746 196.0
1391.485474 156.0
1391.875122 124.0
1391.979126 160.0
1392.031128 136.0
1392.127563 204.0
1392.179565 172.0
1393.665161 212.0
1394.036743 80.0
1394.356323 264.0
1394.48999 144.0
1394.913696 132.0
1395.634888 236.0
1396.05127 180.0
1396.252075 160.0
1396.876831 180.0
1397.003296 156.0
1397.278564 176.0
1397.7323 156.0
1397.877563 164.0
1398.022583 132.0
1398.372314 76.0
1399.17627 156.0
1399.816528 60.0
1400.322998 64.0
1400.92627 204.0
1401.060425 136.0
1401.194458 116.0
1401.373291 72.0
1401.507446 92.0
1401.619141 184.0
1401.894897 244.0
1402.051392 168.0
1403.705322 152.0
1404.429688 32.0
1404.757812 160.0
1405.197998 76.0
1405.944214 88.0
1406.638306 80.0
1408.041992 120.0
1408.168945 176.0
1408.639526 60.0
1408.788818 172.0
1408.998047 164.0
1409.680664 124.0
1409.827393 196.0
1411.090576 180.0
1411.232666 168.0
1411.471924 148.0
1411.711182 172.0
1411.786011 136.0
1411.942993 168.0
1412.331909 116.0
1413.805786 120.0
1414.030396 104.0
1414.741455 188.0
1414.965942 72.0
1415.040894 196.0
1415.115723 152.0
1415.190552 152.0
1415.630737 92.0
1415.946899 216.0
1416.613525 168.0
1417.302734 204.0
1417.789795 100.0
1418.37439 48.0
1418.891724 136.0
1419.191528 64.0
1419.858032 160.0
1419.956421 148.0
1420.49646 192.0
1420.759033 160.0
1421.179199 216.0
1422.417358 140.0
1422.593018 120.0
1422.927856 100.0
1423.73877 164.0
1424.046753 128.0
1424.30957 132.0
1424.797852 128.0
1425.196045 112.0
1426.278198 136.0
1426.398438 192.0
1426.473633 132.0
1427.05249 168.0
1427.149536 124.0
1427.571289 152.0
1427.63147 188.0
1427.842041 128.0
1428.699585 124.0
1428.782349 172.0
1429.188599 172.0
1429.391724 148.0
1429.506226 188.0
1429.569336 216.0
1429.835693 212.0
1429.888428 180.0
1429.956177 152.0
1430.422119 196.0
1430.573364 108.0
1431.107788 136.0
1431.393921 196.0
1431.813843 80.0
1433.910034 160.0
1433.99292 196.0
1435.97583 184.0
1436.435913 84.0
1436.488647 44.0
1437.092163 200.0
1438.050537 168.0
1438.110962 112.0
1438.292114 60.0
1439.235718 156.0
1440.65564 168.0
1441.192017 164.0
1441.539551 112.0
1441.690674 160.0
1442.37085 184.0
1443.210083 200.0
1443.746948 232.0
1444.306641 128.0
1444.397339 196.0
1444.730225 180.0
1444.957153 188.0
1445.267334 156.0
1445.411133 156.0
1446.220825 48.0
1446.856689 212.0
1447.076294 40.0
1447.787964 64.0
1447.860474 168.0
1448.022827 180.0
1448.318115 144.0
1449.098389 184.0
1450.015259 400.0
1450.409424 152.0
1450.629272 196.0
1451.129639 136.0
1451.228149 152.0
1452.130493 64.0
1452.229126 156.0
1452.760132 160.0
1452.896606 208.0
1452.987671 172.0
1455.568237 144.0
1455.689697 116.0
1456.160522 220.0
1457.717896 92.0
1458.219482 176.0
1458.318237 172.0
1459.169556 212.0
1459.359741 188.0
1459.800659 264.0
1459.929932 52.0
1461.253418 208.0
1461.542603 144.0
1461.611084 168.0
1462.105713 152.0
1462.600342 140.0
1462.950562 184.0
1463.47583 116.0
1463.75 100.0
1464.549561 124.0
1464.93811 160.0
1465.417969 168.0
1465.585571 220.0
1466.11145 168.0
1466.172363 196.0
1466.904053 124.0
1467.330933 72.0
1467.437744 152.0
1468.407959 120.0
1469.931885 116.0
1470.488892 112.0
1471.618652 116.0
1471.786621 108.0
1471.840088 160.0
1472.412842 200.0
1472.651611 292.0
1472.771729 168.0
1473.054443 132.0
1473.128662 232.0
1474.223389 80.0
1474.544312 224.0
1475.591553 184.0
1476.272095 88.0
1476.646729 96.0
1477.13623 136.0
1477.40271 180.0
1477.817139 120.0
1477.970215 140.0
1478.123169 72.0
1478.505859 28.0
1478.833862 156.0
1479.462524 72.0
1480.044434 176.0
1480.557495 248.0
1480.94043 164.0
1481.101196 52.0
1481.537842 160.0
1481.614502 236.0
1481.683472 188.0
1482.472656 212.0
1482.687134 156.0
1483.062744 128.0
1483.285034 168.0
1483.338623 212.0
1483.721924 136.0
1483.780151 192.0
1483.921265 176.0
1484.542358 124.0
1485.201904 180.0
1485.263306 180.0
1486.114746 192.0
1488.578735 132.0
1488.724609 136.0
1489.05481 60.0
1490.222412 128.0
1490.921631 260.0
1491.574951 160.0
1491.782471 128.0
1491.905518 224.0
1492.505127 152.0
1492.728149 172.0
1493.212646 192.0
1493.358765 212.0
1493.651001 96.0
1493.843262 144.0
1493.927979 164.0
1494.104858 176.0
1494.774292 208.0
1494.905029 112.0
1495.212891 156.0
1495.474854 204.0
1495.543823 68.0
1495.651611 200.0
1495.997925 168.0
1496.666748 160.0
1496.829468 60.0
1496.898804 76.0
1497.083618 172.0
1497.86145 148.0
1497.961548 140.0
1498.315918 196.0
1499.144897 196.0
1499.517944 136.0
1499.827026 204.0
1501.090576 44.0
1501.368286 132.0
1501.630493 176.0
1501.684448 248.0
1501.923584 168.0
1502.413086 128.0
1503.080688 160.0
1503.165649 168.0
1503.684937 224.0
