>compound Idebenone
>formula C19H30O5
>ionization [M+H]+
>parentmass 339.217072
#inchi InChI=1S/C19H30O5/c1-14-15(12-10-8-6-4-5-7-9-11-13-20)17(22)19(24-3)18(23-2)16(14)21/h20H,4-13H2,1-3H3
#inchikey JGPMMRGNQUBGND
#Ion_Source LC-ESI
#Instrument qTof
#Compound_Source Commercial
#PI Dorrestein
#Data_Collector Garg_Neha
#Scan -1
#Precursor_MZ 339.217
#ExactMass 338.209
#Charge 1
#CAS_Number 58186-27-9
#Pubmed_ID N/A
#Smiles C1(C(=C(C(C(=C1C)CCCCCCCCCCO)=O)OC)OC)=O
#INCHI_AUX N/A
#Library_Class 1
#SpectrumID CCMSLIB00000078528
#IonMode Positive
#UpdateWorkflowName UPDATE-SINGLE-ANNOTATED-GOLD
#LibraryQualityString Gold
#TaskID 77f51c88eb8b467eb4a01dd2d0cb90d2
##Scan# 2196
#SpectrumFile Plate8_61_80_GD1_01_15765.mzXML
#LibraryName FDALibrary_2_04302014.mgf
#MQScore -1
#Organism FDALibrary_2_04302014
#TIC_Query 0
#RT_Query -1
#MZErrorPPM -1
#SharedPeaks 0
#MassDiff 0
#LibMZ -1
#SpecMZ 339.217
#SpecCharge 0
#internalFilename spec-00000.mgf

>collision 10
46.069626 204.0
47.512768 208.0
47.608852 144.0
47.90871 140.0
48.472439 172.0
48.624992 144.0
48.641647 188.0
48.699966 172.0
50.767426 148.0
50.795795 248.0
51.664799 148.0
51.792202 144.0
52.089573 144.0
52.466179 264.0
53.243221 144.0
53.46566 176.0
54.448132 208.0
54.768063 108.0
55.676918 196.0
55.989235 184.0
58.090637 272.0
58.294094 164.0
60.376041 160.0
60.750591 168.0
60.985367 200.0
61.793167 248.0
62.801716 200.0
62.883762 156.0
63.123901 176.0
63.142876 140.0
64.042824 180.0
64.87056 184.0
65.463844 176.0
65.8069 240.0
66.33918 184.0
66.496521 140.0
66.545219 180.0
66.649178 160.0
67.457565 164.0
67.714462 196.0
68.167259 176.0
68.196838 188.0
68.64135 208.0
69.46833 236.0
69.546326 148.0
69.980217 180.0
70.005196 196.0
70.529076 148.0
70.868805 172.0
71.690521 160.0
72.686562 192.0
73.48288 152.0
73.650177 160.0
75.705521 160.0
75.799065 196.0
76.304161 184.0
77.258148 160.0
77.526047 172.0
77.934914 144.0
78.510544 160.0
79.570473 144.0
80.673264 144.0
81.558807 156.0
82.16568 148.0
82.402199 196.0
82.528717 156.0
83.791985 156.0
83.94725 196.0
84.661461 176.0
84.802536 192.0
85.16951 200.0
85.245781 140.0
85.824677 144.0
87.051529 184.0
88.010521 148.0
89.369469 144.0
89.910294 152.0
91.017738 152.0
91.057091 172.0
91.914299 192.0
92.847847 156.0
93.065796 184.0
94.034935 260.0
94.07547 176.0
94.663254 160.0
94.680679 144.0
94.802734 184.0
94.849251 176.0
95.084206 676.0
96.138763 200.0
97.063324 320.0
97.095871 164.0
97.258286 164.0
97.877579 168.0
98.520561 196.0
98.745903 204.0
98.890335 140.0
99.08638 168.0
99.812836 168.0
99.838692 168.0
100.119301 300.0
100.474106 192.0
101.135559 196.0
101.600464 164.0
102.164993 156.0
102.922821 152.0
103.053406 352.0
103.070274 248.0
103.703712 164.0
103.979553 156.0
104.007965 244.0
104.060753 148.0
104.396027 168.0
105.069069 332.0
105.086563 184.0
105.121254 208.0
105.69693 212.0
106.256874 188.0
107.049942 208.0
107.082741 160.0
108.026566 144.0
108.053802 280.0
108.395103 168.0
109.063385 300.0
109.08625 176.0
109.101486 344.0
109.8964 180.0
110.002838 144.0
110.103065 140.0
110.30365 212.0
110.353821 140.0
110.575562 152.0
110.891823 156.0
111.044968 388.0
111.079254 360.0
111.525696 164.0
111.576149 152.0
112.046257 292.0
112.281563 156.0
112.765053 196.0
113.001892 220.0
113.092056 320.0
113.17334 156.0
113.758492 252.0
113.953873 160.0
114.213234 216.0
114.85865 160.0
115.037903 156.0
115.05394 172.0
115.109573 168.0
116.367409 184.0
116.769249 196.0
117.06765 472.0
117.240746 160.0
117.546967 164.0
117.950844 204.0
118.069763 152.0
118.424713 168.0
118.81707 152.0
119.051804 220.0
119.084717 312.0
119.336159 176.0
119.440956 256.0
119.632042 240.0
120.067833 152.0
121.029358 144.0
121.062408 956.0
121.454521 196.0
121.48304 156.0
121.566414 144.0
122.031586 156.0
122.069954 212.0
122.111259 200.0
122.423721 168.0
122.483238 148.0
122.91095 224.0
123.040016 180.0
123.079964 676.0
123.806244 188.0
124.051643 372.0
124.084488 148.0
124.378273 180.0
125.058411 296.0
125.292259 156.0
125.923538 152.0
126.151459 140.0
127.049484 228.0
127.075447 376.0
127.108284 192.0
127.431046 164.0
127.476097 208.0
128.073456 168.0
128.464523 192.0
128.875427 172.0
129.065292 260.0
129.125397 180.0
129.624405 164.0
131.048019 324.0
131.083588 512.0
131.65361 140.0
131.911804 148.0
131.942978 144.0
132.087875 164.0
132.758957 168.0
132.850708 176.0
133.066986 364.0
133.286942 256.0
133.402954 152.0
133.565125 196.0
133.592728 156.0
134.067047 164.0
134.461426 260.0
134.775482 176.0
134.865616 152.0
135.044922 184.0
135.078644 308.0
135.117477 324.0
135.504318 176.0
135.522858 200.0
136.051239 1228.0
136.084213 172.0
136.125961 148.0
136.634018 152.0
137.058289 988.0
137.093216 228.0
137.131134 1912.0
137.722794 132.0
137.782043 188.0
138.06543 284.0
138.135635 192.0
138.170135 140.0
138.256714 144.0
139.037003 284.0
139.072968 1012.0
139.109894 152.0
139.441086 244.0
139.89035 156.0
140.046646 360.0
140.075073 168.0
141.017014 340.0
141.069183 188.0
142.059753 152.0
142.667694 152.0
142.941223 168.0
143.048325 140.0
143.080261 132.0
143.106979 344.0
143.245972 168.0
143.832581 152.0
144.245834 164.0
144.537613 152.0
145.064743 624.0
145.099899 1764.0
145.868698 284.0
145.955261 152.0
146.073105 160.0
146.860779 144.0
147.043823 768.0
147.079178 916.0
147.114761 640.0
147.609451 184.0
147.751053 132.0
148.050644 296.0
148.08519 192.0
148.173416 188.0
149.026917 144.0
149.059448 712.0
149.098007 312.0
149.132889 156.0
149.966812 144.0
150.031174 196.0
150.058212 124.0
150.242371 180.0
150.37413 192.0
150.398544 180.0
150.44249 140.0
150.459915 312.0
150.853546 196.0
151.074448 4844.0
151.147552 1056.0
151.175751 176.0
151.422409 168.0
152.043243 192.0
152.077255 160.0
152.107117 180.0
152.15567 164.0
152.390167 140.0
152.532074 196.0
152.557999 140.0
153.05249 1268.0
153.084976 316.0
153.12999 324.0
154.062103 7436.0
154.136429 212.0
154.693008 208.0
154.88121 200.0
155.03627 308.0
155.067276 1592.0
155.324905 156.0
156.039536 336.0
156.086426 148.0
156.71463 164.0
156.754501 172.0
157.048721 320.0
157.09317 144.0
157.118851 352.0
157.780365 216.0
158.072998 200.0
158.11055 160.0
158.178116 188.0
159.042633 268.0
159.07782 1088.0
159.118027 324.0
159.422165 228.0
160.051041 376.0
160.086472 288.0
160.115509 180.0
160.837631 292.0
161.058273 1260.0
161.093658 1044.0
161.124603 136.0
161.3909 200.0
161.671677 152.0
161.959885 144.0
162.028717 272.0
162.073151 264.0
162.096954 240.0
162.485062 224.0
163.038925 396.0
163.0755 752.0
163.115158 536.0
163.137741 180.0
163.75354 204.0
164.047394 1176.0
164.076355 156.0
164.112854 148.0
164.342651 168.0
164.711319 184.0
165.05188 892.0
165.090118 524.0
165.895905 140.0
165.920471 192.0
166.060425 1436.0
166.094864 332.0
167.031952 640.0
167.069901 4192.0
167.105179 264.0
167.792145 160.0
168.040421 272.0
168.076675 320.0
168.907379 212.0
169.051285 188.0
169.085648 5552.0
169.316711 156.0
169.466965 212.0
170.056808 456.0
170.08783 900.0
170.175049 200.0
170.681732 204.0
170.827377 176.0
171.063889 1516.0
171.121872 136.0
171.405365 148.0
172.065369 296.0
172.093887 440.0
173.057968 1400.0
173.093628 576.0
173.134735 168.0
173.349564 140.0
173.616959 148.0
174.057236 180.0
174.104248 524.0
175.035461 464.0
175.07283 404.0
175.11409 284.0
175.287796 112.0
175.497131 208.0
176.045868 572.0
176.081451 176.0
176.111038 172.0
176.315475 212.0
177.053497 1852.0
177.089981 1948.0
177.124969 268.0
177.163437 140.0
178.061203 324.0
178.093445 448.0
178.133118 180.0
178.167664 144.0
179.028076 144.0
179.069107 964.0
179.10466 552.0
179.136002 200.0
179.375931 108.0
180.041275 140.0
180.075684 256.0
180.11232 180.0
180.724533 196.0
180.992203 240.0
181.050125 976.0
181.084534 5712.0
182.05603 5208.0
182.09111 952.0
182.126633 148.0
182.876801 184.0
183.063919 6976.0
183.105606 280.0
183.871353 196.0
183.970032 152.0
184.065018 516.0
184.122421 156.0
184.868576 144.0
185.081558 1100.0
185.125763 144.0
185.483398 148.0
186.083939 440.0
186.102936 240.0
186.237732 148.0
186.262177 184.0
186.321945 156.0
186.941895 144.0
187.074326 924.0
187.1064 420.0
187.152435 176.0
188.03746 192.0
188.108093 144.0
189.056351 148.0
189.093948 444.0
189.123871 124.0
189.711502 160.0
189.991226 144.0
190.062271 932.0
190.092514 272.0
191.069016 3500.0
191.10611 1212.0
191.146851 196.0
191.696548 116.0
192.07338 764.0
192.109543 456.0
192.661667 184.0
193.048874 276.0
193.084747 2016.0
193.341873 156.0
193.868057 188.0
193.99556 156.0
194.054855 664.0
194.090027 324.0
195.067551 516.0
195.102463 800.0
195.142639 156.0
195.551102 244.0
195.885223 172.0
195.915878 208.0
196.071548 752.0
196.098068 312.0
196.67572 124.0
196.777649 180.0
196.796097 164.0
196.910355 184.0
196.973145 220.0
197.015045 140.0
197.080917 101720.0
197.259369 140.0
197.357224 100.0
197.40097 108.0
197.540924 832.0
197.883636 252.0
198.082825 10924.0
198.125748 164.0
198.285416 156.0
198.393005 220.0
198.739822 104.0
199.086136 1292.0
199.244598 136.0
199.411758 128.0
199.529266 140.0
199.596283 160.0
199.659698 112.0
199.950882 152.0
200.090027 196.0
200.323868 176.0
200.560547 100.0
201.090881 928.0
201.125488 520.0
201.162857 900.0
201.388809 144.0
202.005035 188.0
202.095413 148.0
202.126984 192.0
202.167175 144.0
202.330475 140.0
202.681686 204.0
202.80246 136.0
203.065979 272.0
203.100357 212.0
203.140991 172.0
203.67749 168.0
204.072678 136.0
205.086426 1576.0
205.115585 328.0
205.157898 280.0
205.196136 160.0
205.442429 180.0
205.844864 160.0
206.093292 352.0
206.121628 144.0
206.191971 104.0
206.333466 168.0
206.396362 152.0
206.902786 176.0
207.065491 192.0
207.100494 3160.0
208.070435 660.0
208.106049 536.0
209.079697 3116.0
209.116379 812.0
209.531738 100.0
210.085175 452.0
210.124573 144.0
210.153427 140.0
211.011246 144.0
211.095856 1672.0
211.148331 316.0
212.151596 148.0
212.273697 140.0
212.612762 100.0
212.897614 224.0
213.10376 248.0
213.179413 172.0
214.384201 200.0
215.102829 948.0
215.14563 244.0
216.10997 688.0
216.150925 168.0
217.079529 392.0
217.120255 140.0
217.575409 160.0
218.093918 196.0
218.165085 156.0
218.610046 156.0
219.099411 1532.0
219.135651 300.0
219.173065 164.0
220.101334 592.0
220.172516 196.0
221.05545 180.0
221.087357 336.0
221.115799 1536.0
221.15152 352.0
222.086075 216.0
222.121292 108.0
222.206116 208.0
222.274353 140.0
222.856339 140.0
223.095505 6152.0
223.135452 452.0
224.09964 320.0
224.583893 224.0
225.11145 904.0
226.117203 160.0
226.148666 160.0
226.205536 164.0
227.11348 208.0
227.152481 176.0
227.368515 192.0
228.131058 156.0
229.121323 412.0
229.159195 2044.0
229.471176 148.0
229.893463 260.0
230.16037 632.0
231.103912 208.0
231.143021 208.0
231.173569 180.0
232.098297 324.0
233.116882 1640.0
233.14856 96.0
233.191162 1168.0
234.058624 152.0
234.118698 192.0
234.193558 568.0
234.375412 172.0
234.733871 100.0
235.087296 176.0
235.130508 152.0
235.168182 184.0
235.194977 332.0
235.449203 144.0
236.094711 204.0
237.112106 1056.0
237.150497 256.0
237.18634 156.0
238.117233 304.0
239.138794 1348.0
240.132538 124.0
240.152527 404.0
241.15387 264.0
243.132385 132.0
243.174179 436.0
244.134064 164.0
244.185593 228.0
245.111969 176.0
245.187439 160.0
246.161392 164.0
246.52211 148.0
246.625244 172.0
246.659622 160.0
247.025497 188.0
247.133179 440.0
247.172318 588.0
247.216354 220.0
247.988647 176.0
248.137451 180.0
248.170364 272.0
249.14888 156.0
251.058456 200.0
251.121674 660.0
253.145386 484.0
254.679199 152.0
254.828506 148.0
255.60434 152.0
257.151215 3212.0
258.155762 440.0
258.7771 184.0
259.164612 264.0
260.052979 196.0
260.176575 120.0
261.147888 584.0
261.184387 10148.0
261.254761 148.0
261.566925 156.0
262.186127 1224.0
262.469025 188.0
263.161438 172.0
263.185272 468.0
264.135498 180.0
264.172363 132.0
264.19696 196.0
265.137604 152.0
265.178894 368.0
265.836487 156.0
266.144867 148.0
266.215881 192.0
266.28775 160.0
271.168793 1768.0
272.171509 536.0
272.389374 144.0
272.856018 160.0
273.152008 144.0
273.180054 192.0
274.050751 148.0
274.160828 176.0
274.274872 148.0
275.163177 1252.0
275.195801 688.0
276.16568 260.0
277.803223 168.0
278.183807 236.0
278.603302 192.0
279.193939 796.0
279.837189 184.0
280.198853 140.0
281.197266 288.0
282.082428 160.0
282.687805 200.0
287.11557 228.0
287.900635 160.0
288.581116 148.0
289.111755 160.0
289.179077 23832.0
289.279785 184.0
289.692291 136.0
289.786041 164.0
290.133484 164.0
290.185028 6136.0
291.187317 824.0
291.98233 188.0
292.089081 148.0
292.195343 252.0
292.327209 212.0
292.501801 144.0
292.552734 152.0
293.030792 168.0
293.174377 1004.0
293.210144 10256.0
294.033325 140.0
294.17218 108.0
294.213074 1460.0
295.175323 160.0
295.220581 340.0
295.711456 152.0
296.098328 152.0
297.204315 140.0
297.548828 144.0
299.161194 156.0
301.437592 164.0
303.194824 2056.0
304.128571 164.0
304.197388 432.0
304.302155 148.0
304.663361 212.0
305.200745 172.0
305.522034 152.0
305.904846 172.0
306.171692 396.0
306.984955 216.0
307.016327 204.0
307.190094 11172.0
307.337799 184.0
308.193817 1888.0
309.194489 256.0
309.409882 144.0
310.195465 112.0
312.093933 152.0
312.297913 164.0
316.826935 152.0
318.949036 160.0
319.655396 104.0
320.002045 144.0
320.064941 148.0
320.529205 228.0
320.714539 380.0
320.80777 128.0
321.060364 148.0
321.10968 256.0
321.148315 312.0
321.205811 63244.0
321.461609 108.0
321.514282 172.0
321.607178 112.0
321.750488 100.0
321.791351 220.0
321.926117 124.0
322.029205 96.0
322.078918 148.0
322.208771 11320.0
322.311066 100.0
322.358032 176.0
322.507629 100.0
322.72226 124.0
323.210693 1440.0
323.975555 124.0
324.030151 196.0
324.152771 116.0
324.186981 124.0
324.207245 256.0
324.272247 132.0
324.311249 140.0
324.33609 188.0
324.821716 104.0
325.295288 116.0
330.392487 144.0
330.94986 156.0
333.856506 168.0
336.454498 160.0
336.892731 176.0
337.143036 96.0
338.072632 144.0
338.201843 168.0
338.319 140.0
338.898315 136.0
338.99527 144.0
339.019196 140.0
339.119659 120.0
339.217072 41580.0
339.438263 112.0
339.608093 136.0
340.219116 4840.0
340.342834 148.0
340.626343 100.0
341.12619 108.0
341.219421 880.0
342.041321 180.0
342.218903 152.0
342.299042 164.0
342.362091 100.0
342.541382 116.0
369.911072 144.0
458.17514 172.0
1228.082275 164.0
1250.419067 188.0
1297.337646 172.0
1356.458862 156.0
1393.061523 140.0
1422.213989 144.0
1425.488525 148.0
1572.812866 220.0
1655.481689 156.0
1698.623047 144.0
1702.06189 160.0
1717.47644 208.0
1729.722412 140.0
1738.483154 184.0
1754.403198 212.0
1761.914185 204.0
1770.12793 164.0
1825.648682 152.0
1826.022949 204.0
1826.125 160.0
1843.030029 168.0
1848.939087 192.0
1881.508789 156.0
1884.903198 184.0
1893.840088 176.0
1913.596558 156.0
1927.02832 144.0
1931.854248 172.0
1934.996094 176.0
1940.603516 140.0
1944.358032 156.0
1964.596069 160.0
1976.143311 140.0
1992.998779 168.0
