>compound MLS001140473-01!2-[4-(4-methoxyphenyl)-2-oxochromen-7-yl]oxy-N-(pyridin-2-ylmethyl)acetamide
>formula C24H20N2O5
>ionization [M+H]+
>parentmass 417.145844
#inchi InChI=1S/C24H20N2O5/c1-29-18-7-5-16(6-8-18)21-13-24(28)31-22-12-19(9-10-20(21)22)30-15-23(27)26-14-17-4-2-3-11-25-17/h2-13H,14-15H2,1H3,(H,26,27)
#inchikey ZEMPAUQCGGAMBQ
#Ion_Source LC-ESI
#Instrument qTof
#Compound_Source NIH Natural Product Library
#PI Dorrestein
#Data_Collector VVP/LMS
#Scan -1
#Precursor_MZ 417.145
#ExactMass 416.137
#Charge 1
#CAS_Number N/A
#Pubmed_ID N/A
#Smiles COc1ccc(cc1)c2cc(=O)oc3cc(OCC(=O)NCc4ccccn4)ccc23
#INCHI_AUX N/A
#Library_Class 1
#SpectrumID CCMSLIB00000080308
#IonMode Positive
#UpdateWorkflowName UPDATE-SINGLE-ANNOTATED-GOLD
#LibraryQualityString Gold
#TaskID b1d8e8f6646f4e71acdff9ca3d919d08
##Scan# 1840
#SpectrumFile p2-A07_GA7_01_17984.mzXML
#LibraryName NIH_Natural_Products_Library.mgf
#MQScore -1
#Organism NIH_Natural_Products_Library
#TIC_Query 0
#RT_Query -1
#MZErrorPPM -1
#SharedPeaks 0
#MassDiff 0
#LibMZ -1
#SpecMZ 417.145
#SpecCharge 0
#internalFilename spec-00000.mgf

>collision 10
94.957397 244.0
94.982613 172.0
95.010612 176.0
95.04081 168.0
95.275345 196.0
95.300995 144.0
95.341805 128.0
95.359299 164.0
95.392342 160.0
95.405952 140.0
95.466225 124.0
95.653008 160.0
95.671898 136.0
95.789314 48.0
95.851662 152.0
95.876999 212.0
95.960068 156.0
96.040771 160.0
96.091492 192.0
96.177361 120.0
96.218353 116.0
96.257401 184.0
96.310135 72.0
96.351158 220.0
96.370697 180.0
96.495438 156.0
96.546623 200.0
96.577919 156.0
96.646393 180.0
96.808861 60.0
96.938202 180.0
97.003914 232.0
97.073418 148.0
97.116562 172.0
97.248024 180.0
97.279434 280.0
97.375648 236.0
97.495491 228.0
97.521042 104.0
97.593781 80.0
97.61541 172.0
97.705887 216.0
97.749527 200.0
97.827904 108.0
97.922417 104.0
97.949989 184.0
98.036682 188.0
98.063576 224.0
98.107643 144.0
98.156799 120.0
98.192429 132.0
98.243721 112.0
98.261475 232.0
98.281822 204.0
98.324615 120.0
98.35817 164.0
98.39782 188.0
98.437225 192.0
98.470718 180.0
98.526031 192.0
98.549736 128.0
98.609024 164.0
98.662392 192.0
98.752747 208.0
98.802811 56.0
98.816658 140.0
98.968323 224.0
99.13459 164.0
99.181038 60.0
99.212761 108.0
99.353561 160.0
99.45874 120.0
99.492218 88.0
99.613625 80.0
99.637466 144.0
99.741905 144.0
99.763809 140.0
99.878006 68.0
99.955597 84.0
99.993408 180.0
100.094933 180.0
100.128792 132.0
100.226402 76.0
100.276222 228.0
100.365936 52.0
100.387932 236.0
100.487602 144.0
100.501572 196.0
100.56144 156.0
100.609344 136.0
100.635521 216.0
100.67524 152.0
100.689217 36.0
100.723175 180.0
100.765121 188.0
100.833069 188.0
100.879036 172.0
101.046936 168.0
101.095055 124.0
101.245201 140.0
101.283257 92.0
101.315308 160.0
101.443565 160.0
101.565887 88.0
101.625618 192.0
101.662186 56.0
101.784637 156.0
101.804718 68.0
101.8228 96.0
101.848907 196.0
101.97348 164.0
102.029762 68.0
102.053894 108.0
102.224869 152.0
102.383911 76.0
102.400024 192.0
102.417053 148.0
102.440308 248.0
102.466499 176.0
102.559196 288.0
102.625725 192.0
102.639793 172.0
102.740685 132.0
102.885986 184.0
102.928391 128.0
102.946228 168.0
103.259819 144.0
103.441925 120.0
103.456093 156.0
103.591774 196.0
103.738731 224.0
103.820816 112.0
103.839066 168.0
103.900253 196.0
103.999352 172.0
104.048569 628.0
104.20446 124.0
104.360458 80.0
104.383331 208.0
104.401634 196.0
104.4179 92.0
104.495201 152.0
104.521652 44.0
104.566429 144.0
104.605103 172.0
104.792465 164.0
104.831177 220.0
104.99427 196.0
105.043724 1864.0
105.05938 344.0
105.112587 196.0
105.164795 192.0
105.181984 228.0
105.22448 220.0
105.298363 156.0
105.382118 220.0
105.406639 164.0
105.420944 144.0
105.553757 412.0
105.57222 244.0
105.637672 132.0
105.67041 88.0
105.813896 164.0
105.840294 112.0
105.946472 176.0
105.989143 144.0
106.008263 140.0
106.064919 456.0
106.116905 200.0
106.133308 44.0
106.186623 168.0
106.213287 92.0
106.278015 160.0
106.344612 108.0
106.363083 72.0
106.467796 200.0
106.546913 108.0
106.615715 132.0
106.655838 236.0
106.682755 128.0
106.741112 128.0
106.780136 156.0
106.796638 96.0
106.811035 124.0
106.839836 116.0
106.891068 356.0
106.92215 192.0
106.948647 192.0
106.974426 160.0
107.015533 360.0
107.037788 348.0
107.061249 54556.0
107.109238 156.0
107.133652 112.0
107.175133 80.0
107.206345 76.0
107.24826 192.0
107.268181 92.0
107.284676 76.0
107.339348 136.0
107.362297 124.0
107.399818 252.0
107.424904 76.0
107.447601 112.0
107.48185 120.0
107.571419 48.0
107.606514 64.0
107.64624 220.0
107.665596 244.0
107.680855 124.0
107.712952 52.0
107.730431 80.0
107.754852 112.0
107.823418 112.0
107.862686 148.0
107.882942 200.0
107.947456 172.0
108.009499 60.0
108.064293 3836.0
108.102135 88.0
108.121231 40.0
108.160553 148.0
108.191605 148.0
108.216454 116.0
108.264076 84.0
108.280647 212.0
108.315453 124.0
108.411163 76.0
108.442253 96.0
108.460907 76.0
108.497658 176.0
108.537613 136.0
108.593605 252.0
108.653763 72.0
108.670364 144.0
108.705635 148.0
108.76519 136.0
108.794891 172.0
108.850037 184.0
108.891281 180.0
108.906021 108.0
108.944359 164.0
109.002426 92.0
109.021294 188.0
109.039993 196.0
109.076584 10888.0
109.18969 44.0
109.255211 72.0
109.291618 100.0
109.308266 100.0
109.362381 256.0
109.379654 80.0
109.40609 60.0
109.487297 140.0
109.608917 116.0
109.624794 172.0
109.774887 72.0
109.804085 224.0
109.827026 48.0
109.864578 72.0
109.91674 44.0
109.975174 148.0
109.989784 148.0
110.060692 1180.0
110.078865 996.0
110.188179 92.0
110.206978 80.0
110.221603 96.0
110.298935 40.0
110.32402 128.0
110.344925 108.0
110.374199 184.0
110.462036 172.0
110.516434 112.0
110.558807 192.0
110.602242 32.0
110.759285 116.0
110.8368 156.0
110.872421 96.0
110.933212 96.0
111.01017 244.0
111.042244 212.0
111.065643 212.0
111.085899 156.0
111.132446 44.0
111.325569 140.0
111.411682 96.0
111.451607 200.0
111.62397 60.0
111.663925 44.0
111.687065 44.0
111.821724 248.0
111.861717 72.0
111.985954 220.0
112.103935 116.0
112.125008 232.0
112.150299 268.0
112.344299 164.0
112.373688 176.0
112.405487 100.0
112.420258 228.0
112.454025 96.0
112.637726 140.0
112.66008 184.0
112.683258 164.0
112.728577 76.0
112.798325 120.0
112.830032 184.0
112.910385 128.0
113.24691 244.0
113.285789 180.0
113.509697 72.0
113.598778 168.0
113.649696 188.0
113.715485 76.0
113.730339 156.0
113.871536 128.0
113.932076 204.0
114.021324 120.0
114.129738 68.0
114.176521 132.0
114.257355 212.0
114.278625 68.0
114.455292 184.0
114.506401 192.0
114.553688 132.0
114.732277 144.0
114.858093 104.0
114.962639 104.0
115.001053 128.0
115.028801 28.0
115.055115 160.0
115.278694 108.0
115.311165 308.0
115.385567 80.0
115.411224 152.0
115.441162 108.0
115.4711 168.0
115.505325 228.0
115.548111 152.0
115.770721 176.0
115.924965 220.0
116.120056 156.0
116.240196 144.0
116.274529 196.0
116.422668 72.0
116.536514 168.0
116.572952 188.0
116.631073 36.0
116.781586 132.0
116.871941 160.0
117.05352 132.0
117.100128 116.0
117.132439 176.0
117.272499 116.0
117.442833 184.0
117.619774 152.0
117.669678 172.0
117.727722 140.0
117.777397 140.0
117.803055 128.0
117.833565 180.0
117.969719 112.0
118.028091 108.0
118.065712 208.0
118.19249 156.0
118.257408 248.0
118.274727 96.0
118.296371 240.0
118.318024 68.0
118.372154 68.0
118.473953 168.0
118.525955 112.0
118.554123 40.0
118.61264 56.0
118.64299 184.0
118.734062 160.0
118.797714 244.0
118.870735 220.0
118.931503 164.0
118.966232 108.0
119.002487 120.0
119.036903 19600.0
119.059273 1564.0
119.123314 204.0
119.156624 132.0
119.196625 104.0
119.250381 128.0
119.279045 96.0
119.30265 140.0
119.346443 40.0
119.396461 88.0
119.413857 144.0
119.433434 248.0
119.46389 64.0
119.50087 48.0
119.566154 144.0
119.607513 132.0
119.627098 156.0
119.653229 124.0
119.746552 84.0
119.781715 160.0
119.807854 120.0
119.879753 128.0
119.97348 200.0
120.001823 156.0
120.042686 4452.0
120.085739 108.0
120.106499 92.0
120.168571 112.0
120.204681 124.0
120.224922 144.0
120.241776 92.0
120.261421 176.0
120.315994 152.0
120.420807 160.0
120.457939 84.0
120.486343 156.0
120.582489 116.0
120.672112 28.0
120.722404 216.0
120.757401 108.0
120.785835 132.0
120.849281 112.0
120.865089 68.0
120.913597 92.0
120.970421 124.0
121.03154 104.0
121.049187 844.0
121.076378 27188.0
121.104866 144.0
121.132217 116.0
121.179893 36.0
121.232483 40.0
121.28508 124.0
121.334938 108.0
121.410057 92.0
121.433762 120.0
121.473663 80.0
121.508766 112.0
121.530708 32.0
121.595284 112.0
121.703293 140.0
121.754616 116.0
121.785362 140.0
121.813919 172.0
121.833687 36.0
121.991318 204.0
122.040283 120.0
122.07959 1360.0
122.13485 72.0
122.198647 200.0
122.282272 32.0
122.313087 88.0
122.41436 56.0
122.454399 112.0
122.487045 128.0
122.612633 132.0
122.628059 152.0
122.66774 64.0
122.685371 196.0
122.718445 152.0
122.747108 68.0
122.773567 160.0
122.793419 196.0
122.852974 80.0
122.912544 72.0
122.932411 156.0
122.952271 116.0
123.016281 40.0
123.086517 128.0
123.135513 116.0
123.155396 64.0
123.227058 136.0
123.279114 172.0
123.358253 184.0
123.400688 176.0
123.449341 64.0
123.511261 204.0
123.542236 76.0
123.586487 120.0
123.666153 84.0
123.94519 128.0
124.000595 68.0
124.067093 172.0
124.091484 188.0
124.204582 76.0
124.271133 144.0
124.371002 184.0
124.490891 192.0
124.550858 44.0
124.670837 172.0
124.799767 216.0
124.830894 112.0
124.855354 124.0
125.182495 112.0
125.198082 176.0
125.418655 124.0
125.52121 144.0
125.550201 104.0
125.609932 128.0
125.641655 144.0
125.768852 136.0
125.887177 96.0
125.936142 52.0
125.954185 148.0
126.012268 224.0
126.086006 184.0
126.267097 228.0
126.291702 160.0
126.452797 160.0
126.50428 192.0
126.640877 192.0
126.661629 240.0
126.883858 176.0
126.943428 148.0
126.965858 176.0
127.133514 132.0
127.309219 104.0
127.347404 72.0
127.376602 132.0
127.408051 160.0
127.554123 92.0
127.583344 52.0
127.610329 216.0
127.696899 224.0
127.737083 264.0
127.781258 328.0
127.891525 132.0
127.934296 116.0
127.968071 132.0
127.995087 152.0
128.055527 172.0
128.098694 152.0
128.240646 156.0
128.290237 156.0
128.414261 68.0
128.468399 212.0
128.651184 144.0
128.838638 156.0
128.922241 156.0
128.980179 220.0
129.091782 112.0
129.184525 256.0
129.232025 192.0
129.487823 232.0
129.573914 168.0
129.607895 80.0
129.623764 148.0
129.660019 128.0
129.698547 108.0
129.764572 196.0
130.034241 108.0
130.063217 140.0
130.104599 144.0
130.174988 160.0
130.243134 72.0
130.288559 212.0
130.326111 196.0
130.504471 168.0
130.570419 84.0
130.631897 164.0
130.688705 136.0
130.750153 208.0
130.834366 92.0
130.904953 208.0
130.930008 152.0
131.002853 180.0
131.060837 9820.0
131.15918 164.0
131.19194 172.0
131.210281 60.0
131.251328 56.0
131.360794 188.0
131.573029 128.0
131.616409 64.0
131.636963 192.0
131.705475 72.0
131.730606 164.0
131.758026 152.0
131.783157 240.0
131.810242 136.0
131.841888 164.0
131.886078 104.0
131.907074 188.0
131.961426 180.0
131.990295 256.0
132.045517 436.0
132.068832 21064.0
132.127411 168.0
132.143463 88.0
132.178726 44.0
132.216278 68.0
132.245102 84.0
132.265701 116.0
132.284012 80.0
132.311478 40.0
132.366425 96.0
132.50386 176.0
132.63678 100.0
132.679184 104.0
132.746826 116.0
132.832748 52.0
132.89592 60.0
132.91658 84.0
132.934372 148.0
133.003784 64.0
133.026749 180.0
133.0728 2084.0
133.148438 300.0
133.180588 176.0
133.203568 164.0
133.470169 184.0
133.557556 116.0
133.765427 164.0
133.84523 48.0
134.038727 64.0
134.069061 172.0
134.084808 224.0
134.153961 204.0
134.230042 124.0
134.566925 200.0
134.606186 188.0
134.624664 124.0
134.71936 96.0
134.784973 236.0
134.807159 176.0
134.841827 188.0
134.992096 64.0
135.044052 1180.0
135.1008 60.0
135.297516 156.0
135.47583 120.0
135.69368 128.0
135.793396 148.0
135.95813 172.0
135.990616 48.0
136.043671 196.0
136.120621 240.0
136.136887 120.0
136.185654 224.0
136.291153 352.0
136.359909 124.0
136.385483 176.0
136.434296 156.0
136.908966 120.0
136.950897 156.0
136.969528 172.0
137.022369 548.0
137.052826 212.0
137.083694 140.0
137.146622 56.0
137.216553 164.0
137.41713 160.0
137.522141 100.0
137.772003 220.0
137.933243 96.0
137.996368 168.0
138.031433 148.0
138.139023 176.0
138.213898 40.0
138.356659 164.0
138.522934 48.0
138.569794 172.0
138.785416 176.0
138.876877 160.0
138.940216 276.0
139.003571 148.0
139.056137 160.0
139.144409 144.0
139.181976 72.0
139.33934 128.0
139.388687 188.0
139.541458 224.0
139.581436 144.0
139.880234 124.0
139.960281 220.0
139.995605 44.0
140.067169 300.0
140.096878 168.0
140.113373 116.0
140.174637 88.0
140.266556 172.0
140.882462 236.0
140.972244 84.0
141.069244 336.0
141.157578 140.0
141.589706 176.0
141.670242 132.0
141.757904 56.0
141.859833 164.0
142.044434 156.0
142.28685 132.0
142.481598 152.0
142.585739 140.0
142.64473 180.0
142.823914 224.0
142.928589 260.0
142.973816 160.0
143.021408 108.0
143.319107 136.0
143.423767 148.0
143.457336 40.0
143.731613 56.0
143.805588 188.0
143.975098 180.0
144.037201 168.0
144.061096 212.0
144.132767 176.0
144.187729 204.0
144.211639 152.0
144.326385 140.0
144.359863 132.0
144.434006 196.0
144.843323 160.0
144.972702 120.0
145.046997 120.0
145.063782 184.0
145.224442 200.0
145.284409 144.0
145.382782 140.0
145.40918 152.0
145.767014 152.0
145.853531 256.0
146.146942 232.0
146.414139 160.0
146.647842 76.0
146.739441 176.0
146.773209 64.0
147.027512 176.0
147.055237 1548.0
147.217224 140.0
147.487808 140.0
147.524078 200.0
147.570007 176.0
147.804626 132.0
148.024902 112.0
148.066193 336.0
148.088623 156.0
148.192047 116.0
148.274429 240.0
148.398056 160.0
148.429581 152.0
148.606659 144.0
148.667313 168.0
148.710999 172.0
148.867188 296.0
148.93924 164.0
148.961105 148.0
149.023636 608.0
149.041656 236.0
149.071487 49804.0
149.138489 44.0
149.165222 132.0
149.194397 128.0
149.233292 116.0
149.261917 164.0
149.271698 156.0
149.351608 68.0
149.377579 148.0
149.405563 188.0
149.459503 68.0
149.476532 188.0
149.564148 184.0
149.58606 60.0
149.603104 76.0
149.649353 196.0
149.68959 92.0
149.743408 276.0
149.7789 188.0
149.885056 172.0
149.917313 116.0
149.941681 68.0
149.961182 92.0
149.995758 172.0
150.025024 204.0
150.047073 184.0
150.077621 13172.0
150.115005 140.0
150.13916 148.0
150.171906 80.0
150.226959 120.0
150.253403 132.0
150.322113 212.0
150.366043 80.0
150.388016 40.0
150.422714 204.0
150.471008 80.0
150.519836 60.0
150.594818 80.0
150.607513 40.0
150.611801 116.0
150.629745 52.0
150.649292 88.0
150.729919 196.0
150.751907 76.0
150.886597 196.0
150.945023 144.0
150.996384 56.0
151.023285 52.0
151.055161 128.0
151.0802 1396.0
151.1138 56.0
151.137665 120.0
151.179871 68.0
151.241058 108.0
151.294907 44.0
151.322891 216.0
151.348038 184.0
151.37326 76.0
151.598633 56.0
151.784714 44.0
151.838882 56.0
151.87323 192.0
151.959091 68.0
152.017975 164.0
152.062775 3076.0
152.133331 104.0
152.170166 96.0
152.221725 104.0
152.246292 96.0
152.311111 112.0
152.330383 132.0
152.386307 196.0
152.494431 68.0
152.862305 136.0
153.061798 208.0
153.116898 268.0
153.198181 32.0
153.220352 128.0
153.301666 168.0
153.346024 28.0
153.415039 36.0
153.469284 68.0
153.609863 80.0
153.740631 152.0
153.769012 176.0
154.074203 536.0
154.103622 128.0
154.197525 112.0
154.227173 144.0
154.319839 224.0
154.410141 136.0
154.467026 220.0
154.518982 124.0
154.726883 144.0
155.082687 152.0
155.130692 96.0
155.616959 184.0
155.634338 140.0
155.693924 144.0
155.85788 96.0
155.994583 212.0
156.061707 144.0
156.086563 164.0
156.357727 160.0
156.42244 124.0
156.491638 136.0
156.771133 96.0
156.838425 140.0
157.063995 144.0
157.442215 160.0
157.497162 180.0
157.789551 220.0
158.071777 168.0
158.14978 164.0
158.193024 72.0
158.211517 60.0
158.322525 88.0
158.432739 80.0
158.944214 152.0
159.014481 140.0
159.044296 204.0
159.08226 136.0
159.142517 132.0
159.177673 64.0
159.335907 164.0
159.408768 52.0
159.433899 216.0
159.572159 176.0
159.627472 152.0
159.702927 200.0
159.745682 180.0
159.868973 72.0
160.040146 176.0
160.342438 140.0
160.370163 224.0
160.402924 136.0
160.430664 144.0
160.523941 192.0
160.571869 200.0
160.910004 180.0
161.024338 188.0
161.0448 84.0
161.081726 56.0
161.230804 196.0
161.309158 152.0
161.379944 56.0
161.519043 144.0
161.691086 56.0
161.754364 100.0
162.020279 140.0
162.03801 112.0
162.501984 80.0
162.598404 148.0
162.997116 28.0
163.014908 180.0
163.1064 120.0
163.419205 76.0
163.487915 96.0
164.064651 180.0
164.203796 68.0
164.41301 132.0
164.451294 144.0
164.612137 76.0
164.678528 228.0
164.724503 168.0
164.914551 172.0
165.036301 196.0
165.069519 2308.0
165.105347 152.0
165.294647 152.0
165.404709 152.0
165.591614 140.0
165.619797 72.0
166.076538 976.0
166.281296 44.0
166.301834 100.0
166.358307 160.0
166.430191 84.0
166.535492 76.0
166.558609 48.0
166.689636 72.0
166.769302 116.0
166.856583 172.0
167.043274 132.0
167.087952 904.0
167.134476 184.0
167.474304 124.0
167.564468 68.0
167.739716 80.0
167.909882 120.0
168.056656 500.0
168.134338 72.0
168.170471 156.0
168.196289 144.0
168.420929 60.0
168.971558 180.0
169.001541 224.0
169.060059 132.0
169.137177 124.0
169.168243 132.0
169.300293 180.0
169.447479 136.0
169.543823 104.0
169.650085 128.0
169.694168 112.0
169.945755 196.0
169.966507 232.0
169.989868 172.0
170.039169 184.0
170.069977 376.0
170.137253 168.0
170.41571 160.0
170.782257 224.0
170.805664 264.0
170.920135 160.0
171.045502 120.0
171.075195 624.0
171.349762 184.0
171.56868 140.0
171.87645 148.0
172.082306 216.0
172.42746 112.0
172.54509 128.0
172.701996 176.0
172.819717 160.0
172.838028 68.0
173.055634 144.0
173.374863 116.0
173.471832 120.0
173.978149 196.0
174.117599 180.0
174.248657 152.0
174.272293 124.0
174.477295 156.0
174.548294 164.0
174.645599 212.0
174.842926 108.0
175.037735 184.0
175.056168 132.0
175.079865 204.0
175.348587 108.0
175.461945 200.0
175.50676 152.0
175.54895 136.0
175.754715 148.0
176.039795 108.0
176.062256 136.0
176.095261 100.0
176.30925 44.0
176.393829 148.0
176.679443 152.0
176.907028 164.0
177.007645 148.0
177.034119 156.0
177.069519 828.0
177.38121 180.0
177.757828 56.0
178.078079 612.0
178.124222 44.0
178.233139 176.0
178.280975 120.0
178.506943 88.0
178.529602 144.0
178.655884 108.0
178.839493 132.0
178.967285 144.0
179.025864 52.0
179.047012 140.0
179.082245 204.0
179.111084 196.0
179.330841 68.0
179.409149 132.0
179.689575 144.0
179.804321 120.0
179.863037 72.0
179.95015 212.0
180.025909 188.0
180.056274 2020.0
180.170135 104.0
180.196854 88.0
180.268997 56.0
180.341171 64.0
180.608551 68.0
181.059967 516.0
181.18895 216.0
181.251068 52.0
181.291275 168.0
181.460144 36.0
181.564713 64.0
181.725662 160.0
181.849106 92.0
181.900116 40.0
182.007507 144.0
182.071991 1724.0
182.139099 32.0
182.259995 64.0
182.602692 328.0
182.652512 176.0
182.978134 100.0
183.042755 116.0
183.076218 388.0
183.172028 40.0
183.560135 132.0
183.956741 196.0
184.035034 168.0
184.05394 128.0
184.078644 164.0
184.207001 184.0
184.383514 208.0
184.540298 144.0
184.591675 76.0
184.675522 184.0
184.69986 48.0
184.79184 128.0
184.82431 200.0
185.060303 424.0
185.094009 724.0
185.135605 68.0
185.306259 136.0
185.528503 152.0
185.677643 148.0
185.862106 72.0
185.916382 176.0
185.996323 176.0
186.06662 228.0
186.554672 132.0
186.651489 236.0
186.848389 148.0
186.979004 140.0
187.079422 188.0
187.526443 200.0
187.605484 252.0
188.033737 252.0
188.159302 136.0
188.377777 44.0
188.473404 124.0
188.560852 172.0
188.615524 160.0
188.659256 216.0
188.683853 100.0
188.708466 60.0
189.009338 212.0
189.066803 140.0
189.165344 140.0
189.381668 148.0
189.436447 216.0
189.559738 52.0
189.721451 48.0
189.811935 80.0
189.916153 140.0
190.04509 160.0
190.21286 152.0
190.245438 164.0
190.396454 40.0
190.721954 188.0
191.050644 132.0
191.526871 144.0
191.568192 192.0
191.791397 52.0
191.896149 296.0
191.915451 108.0
192.000946 152.0
192.056305 588.0
192.092575 140.0
192.30719 44.0
192.42865 180.0
192.475586 96.0
192.525299 100.0
192.619202 108.0
192.928711 116.0
193.031006 272.0
193.062103 272.0
193.33255 68.0
193.578918 84.0
193.620468 76.0
193.794983 160.0
194.072067 1252.0
194.141479 160.0
194.191406 88.0
194.249863 108.0
194.296814 100.0
194.338425 40.0
194.485504 132.0
194.510498 140.0
194.599335 56.0
194.649307 152.0
194.710403 76.0
194.733521 200.0
194.767654 144.0
194.822937 180.0
194.933029 180.0
194.99379 100.0
195.016022 116.0
195.080963 31460.0
195.154526 92.0
195.205078 128.0
195.255127 148.0
195.305008 180.0
195.356415 156.0
195.387192 84.0
195.412582 100.0
195.463211 176.0
195.505524 40.0
195.543594 140.0
195.664078 112.0
195.775558 152.0
195.809357 88.0
195.837204 68.0
196.026276 60.0
196.083527 4408.0
196.291092 48.0
196.399857 48.0
196.435562 180.0
196.508759 64.0
196.594131 208.0
196.642609 60.0
196.720764 48.0
196.759842 140.0
196.832443 52.0
196.877945 68.0
196.938568 72.0
196.966507 32.0
197.022369 80.0
197.061279 316.0
197.095306 1752.0
197.248734 76.0
197.27388 64.0
197.300247 200.0
197.327011 104.0
197.353256 164.0
197.426086 148.0
197.477844 264.0
197.525558 124.0
197.547943 88.0
197.613754 92.0
197.648163 180.0
197.681915 68.0
197.881485 200.0
197.903381 136.0
197.962173 48.0
198.064667 656.0
198.0923 432.0
198.127441 32.0
198.161057 136.0
198.267532 168.0
198.317993 76.0
198.351624 140.0
198.452545 60.0
198.508636 96.0
198.595566 168.0
198.674118 152.0
198.856506 72.0
198.923874 120.0
199.07547 1320.0
199.107773 148.0
199.162552 172.0
199.305832 128.0
199.581299 108.0
199.606598 120.0
199.637527 108.0
199.831619 148.0
199.992035 168.0
200.079758 508.0
200.614563 224.0
201.000961 152.0
201.048935 136.0
201.356659 120.0
201.410324 104.0
201.475296 100.0
201.647659 184.0
201.723984 96.0
201.879486 116.0
202.312393 44.0
202.448303 124.0
203.077484 136.0
203.335678 180.0
203.372574 148.0
203.531555 116.0
203.994644 64.0
204.327393 100.0
204.760056 96.0
204.828415 44.0
205.066284 444.0
205.369995 128.0
205.535461 164.0
205.633911 20.0
205.823761 256.0
205.892303 124.0
206.072266 176.0
206.096283 196.0
206.298035 216.0
206.375778 188.0
206.724213 104.0
207.081421 892.0
207.173737 64.0
207.193787 200.0
207.26828 136.0
207.431641 148.0
207.457443 100.0
207.83316 132.0
207.922119 120.0
208.051971 2268.0
208.108704 76.0
208.148911 100.0
208.177628 96.0
208.203476 108.0
208.749481 132.0
208.846924 164.0
208.896179 40.0
209.051682 776.0
209.098648 536.0
209.198334 224.0
209.296219 168.0
209.598663 48.0
209.745651 172.0
210.069382 1144.0
210.099213 560.0
210.12117 168.0
210.261932 128.0
210.282135 100.0
210.322556 88.0
210.406265 156.0
210.507324 96.0
210.570862 204.0
210.663055 144.0
210.781754 100.0
210.914688 192.0
210.986969 116.0
211.074905 3604.0
211.224091 116.0
211.435318 144.0
211.512115 180.0
211.664001 160.0
211.753784 52.0
211.805923 144.0
211.834885 44.0
212.049744 216.0
212.079346 368.0
212.31604 192.0
212.354416 136.0
212.452362 96.0
212.983582 232.0
213.061523 240.0
213.091278 2272.0
213.218933 152.0
213.448593 112.0
213.486389 48.0
213.5242 72.0
213.571808 120.0
213.599823 120.0
213.992706 300.0
214.062592 216.0
214.092468 164.0
214.196564 64.0
214.406342 156.0
214.46463 184.0
214.581238 72.0
214.797043 84.0
214.907898 48.0
215.083008 108.0
215.465561 116.0
215.537048 156.0
215.60289 132.0
215.719818 164.0
215.880615 48.0
216.044418 160.0
216.369263 36.0
216.711945 120.0
216.887772 124.0
217.057816 164.0
217.283661 220.0
217.333542 160.0
217.606506 124.0
217.70047 124.0
218.114731 200.0
218.211746 188.0
218.34996 204.0
218.382309 36.0
218.49704 196.0
218.676529 216.0
219.085831 104.0
219.398071 148.0
219.510269 104.0
219.876083 120.0
220.05098 420.0
220.079315 184.0
220.262863 96.0
220.463776 92.0
220.638168 140.0
220.824463 124.0
221.060272 712.0
221.096649 52.0
221.872711 132.0
222.067947 432.0
222.07251 392.0
222.08461 240.0
222.353256 112.0
222.510574 132.0
222.590744 116.0
222.685776 52.0
222.777863 96.0
222.846191 304.0
222.999939 196.0
223.076157 7048.0
223.185043 44.0
223.226669 36.0
223.316879 128.0
223.36348 96.0
223.384308 56.0
223.521164 72.0
223.601517 64.0
223.896255 144.0
223.917099 48.0
223.967728 72.0
224.080399 1556.0
224.247818 72.0
224.331268 116.0
224.599655 100.0
224.991196 172.0
225.052612 564.0
225.091263 2896.0
225.253372 92.0
225.436356 148.0
225.507355 72.0
225.647842 160.0
225.695679 92.0
225.917007 192.0
225.955444 52.0
226.00676 140.0
226.062943 636.0
226.097687 792.0
226.216263 168.0
226.24321 116.0
226.35997 104.0
226.437836 180.0
226.521713 136.0
226.659531 44.0
226.977264 120.0
227.024506 180.0
227.036804 136.0
227.07164 2300.0
227.145218 28.0
227.205215 112.0
227.310226 44.0
227.538345 48.0
227.664459 148.0
227.721527 112.0
227.847687 132.0
227.979889 32.0
228.037003 100.0
228.06929 652.0
228.262466 48.0
228.376755 40.0
228.415863 68.0
228.542221 228.0
229.005814 196.0
229.096191 120.0
229.406586 176.0
229.494019 88.0
229.729263 172.0
230.076309 136.0
230.804459 164.0
231.12207 68.0
231.261276 280.0
231.712479 100.0
231.970078 136.0
232.042831 28.0
232.07518 60.0
232.136826 148.0
232.579788 68.0
232.986694 128.0
233.080887 148.0
234.065689 160.0
234.227859 204.0
234.587433 120.0
234.639267 40.0
235.077438 532.0
235.237198 100.0
235.382996 80.0
235.432617 196.0
235.469269 92.0
235.738098 76.0
236.045547 2008.0
236.07489 216.0
236.098511 112.0
236.102859 164.0
236.233414 96.0
236.392517 48.0
236.435364 80.0
236.548615 52.0
236.591476 36.0
236.628204 136.0
236.701691 120.0
236.808884 36.0
236.833389 88.0
236.903839 64.0
236.971237 196.0
237.056366 284.0
237.091507 776.0
237.289993 60.0
237.91893 172.0
238.063141 1752.0
238.616333 180.0
238.766998 76.0
238.956284 164.0
239.000793 144.0
239.072052 2088.0
239.104889 184.0
239.419449 128.0
239.496445 60.0
239.55806 52.0
239.690536 32.0
239.91861 148.0
239.972214 140.0
240.077988 3540.0
240.128296 236.0
240.159134 140.0
240.211578 56.0
240.655991 60.0
241.054459 136.0
241.083786 684.0
241.385223 140.0
241.855469 140.0
241.898804 64.0
242.007172 184.0
242.103851 144.0
242.654724 92.0
242.753937 56.0
243.352814 240.0
243.411804 104.0
243.545349 124.0
243.648468 144.0
243.790802 128.0
243.977295 172.0
244.089218 44.0
244.114105 132.0
244.403397 72.0
245.116455 140.0
245.278519 240.0
245.484299 180.0
245.690155 80.0
245.977249 76.0
246.080276 128.0
246.780151 48.0
247.097122 280.0
247.265015 180.0
247.352661 96.0
247.546768 160.0
247.609406 180.0
248.104202 172.0
248.446335 108.0
248.584381 44.0
248.684814 112.0
249.075211 120.0
249.121277 140.0
249.300385 124.0
249.878952 44.0
249.951309 124.0
250.065094 416.0
250.087051 280.0
250.111816 48.0
250.196823 180.0
250.259781 80.0
250.28183 212.0
250.625153 172.0
250.710236 104.0
250.738602 40.0
250.817398 52.0
250.915131 184.0
250.937195 192.0
251.070831 8984.0
251.147095 168.0
251.287292 96.0
251.384964 184.0
251.391602 140.0
251.506775 148.0
251.591843 52.0
251.732346 44.0
251.953445 48.0
252.073959 2336.0
252.139877 64.0
252.190445 48.0
252.278961 36.0
252.329544 56.0
252.497131 168.0
252.579376 180.0
252.616043 168.0
252.645798 140.0
252.718567 132.0
252.848312 100.0
253.016083 212.0
253.041 212.0
253.086319 6832.0
253.152237 88.0
253.187073 144.0
253.209229 72.0
253.270676 60.0
253.472168 68.0
253.626144 168.0
253.706711 36.0
253.744766 48.0
253.782806 116.0
253.853622 96.0
253.898178 52.0
253.947708 148.0
253.988953 104.0
254.056183 276.0
254.090118 1252.0
254.172958 36.0
254.270676 96.0
254.322113 60.0
254.70314 92.0
255.057404 180.0
255.069717 88.0
255.091095 232.0
255.16394 88.0
255.246613 44.0
255.951324 64.0
255.978485 76.0
256.019348 92.0
256.198273 32.0
256.236481 64.0
256.712555 68.0
256.870911 80.0
256.941071 140.0
256.966614 100.0
257.12616 136.0
257.177216 200.0
257.318359 56.0
257.560394 128.0
257.662598 200.0
257.889496 200.0
258.289185 132.0
258.324371 96.0
258.884491 120.0
259.006195 80.0
259.063843 172.0
259.098389 208.0
259.286011 192.0
259.429169 56.0
260.109497 628.0
260.170258 52.0
260.456055 156.0
261.00882 184.0
261.082794 128.0
261.110596 180.0
261.555756 232.0
261.645874 40.0
262.125214 364.0
262.664215 116.0
263.072174 172.0
263.122467 132.0
263.891418 176.0
263.985199 140.0
264.070435 620.0
264.150146 116.0
264.266602 60.0
264.30545 172.0
264.473724 144.0
264.810455 44.0
265.040039 148.0
265.051514 128.0
265.057831 200.0
265.092133 424.0
265.183044 36.0
265.701904 140.0
265.737579 56.0
265.890106 152.0
266.060242 596.0
266.565582 208.0
266.897125 140.0
266.923157 184.0
267.059753 120.0
267.105286 116.0
267.27771 244.0
267.394867 64.0
267.420898 52.0
267.766022 212.0
267.831146 160.0
267.899567 188.0
268.068542 608.0
268.411255 100.0
268.447144 152.0
268.538452 120.0
268.619995 168.0
268.809235 308.0
268.845123 112.0
268.943054 216.0
268.985474 172.0
269.081116 7692.0
269.17157 36.0
269.416534 200.0
269.498199 112.0
269.547241 28.0
269.627258 180.0
269.753143 180.0
269.91333 188.0
270.084778 1180.0
270.15863 136.0
270.502228 36.0
271.049194 184.0
271.0979 264.0
271.137665 176.0
271.334503 80.0
271.458954 144.0
271.59668 48.0
271.793518 124.0
271.859161 96.0
271.908386 68.0
272.109467 296.0
272.230103 136.0
272.256378 44.0
272.354919 52.0
272.423889 44.0
272.453949 108.0
272.854401 48.0
273.113983 352.0
273.209595 56.0
273.568298 148.0
273.604523 184.0
274.078796 112.0
274.12558 1984.0
274.29303 80.0
274.471069 84.0
274.790985 140.0
275.129028 512.0
276.029633 172.0
276.069305 92.0
276.126587 140.0
276.592072 144.0
276.707947 144.0
276.996063 52.0
277.088684 108.0
277.099976 172.0
277.622467 144.0
277.712036 128.0
277.907745 160.0
278.053345 96.0
278.083862 268.0
278.110199 164.0
278.707947 44.0
278.744507 132.0
278.835724 108.0
278.920654 56.0
279.023712 124.0
279.083191 856.0
279.342957 124.0
279.462738 76.0
279.615814 48.0
280.02533 144.0
280.074982 344.0
280.086914 448.0
280.341827 92.0
280.478485 56.0
280.661835 136.0
280.721863 132.0
280.895294 64.0
280.93866 140.0
280.999207 132.0
281.0354 224.0
281.080963 12468.0
281.135529 56.0
281.21228 36.0
281.325775 264.0
281.379181 44.0
281.466003 72.0
281.826752 116.0
281.997162 64.0
282.023895 36.0
282.084259 1968.0
282.237854 96.0
282.42514 36.0
282.492035 116.0
282.706177 44.0
282.789856 80.0
282.967285 156.0
283.017487 156.0
283.095032 268.0
283.177032 132.0
283.221771 72.0
283.268677 76.0
283.325623 76.0
283.351532 104.0
283.48645 72.0
283.845154 80.0
283.912201 160.0
283.962524 72.0
284.067139 324.0
284.104065 180.0
284.228058 76.0
284.438568 64.0
284.492676 88.0
284.85202 80.0
285.107086 184.0
285.120728 152.0
285.332581 96.0
285.884216 52.0
286.085266 196.0
286.124481 472.0
286.197266 64.0
286.264618 52.0
286.860962 100.0
286.947266 156.0
287.12738 384.0
287.690826 68.0
287.792114 124.0
287.917053 152.0
288.10379 460.0
288.17041 36.0
289.059692 160.0
289.111145 312.0
289.391418 176.0
289.77652 108.0
289.953735 88.0
290.123474 152.0
290.713379 100.0
291.078949 180.0
291.178497 40.0
292.0979 140.0
292.123444 148.0
292.249298 64.0
293.080383 1192.0
293.400482 72.0
293.502777 48.0
293.8302 40.0
294.080719 436.0
294.127106 120.0
294.615417 64.0
294.974243 104.0
295.093903 144.0
295.244354 72.0
295.682281 92.0
296.106812 108.0
296.435699 88.0
296.552216 56.0
297.092865 96.0
297.292999 208.0
297.365082 180.0
298.045044 180.0
298.08728 316.0
298.134491 124.0
298.471252 100.0
298.536591 124.0
298.663849 60.0
298.698242 152.0
299.025116 48.0
299.049225 124.0
299.092773 808.0
300.100189 276.0
300.265442 48.0
300.308716 68.0
300.386169 52.0
300.503448 52.0
300.631134 128.0
301.100647 76.0
301.522125 32.0
301.771027 184.0
302.114441 392.0
302.158386 188.0
302.525238 152.0
302.771057 132.0
303.08371 144.0
303.127289 1416.0
303.457184 180.0
303.897675 136.0
303.946228 172.0
304.098938 128.0
304.123322 144.0
304.418335 228.0
304.553772 172.0
304.612823 228.0
305.054169 116.0
305.11673 136.0
305.398407 96.0
306.268585 148.0
306.505493 184.0
306.82962 188.0
307.086731 1496.0
307.248138 148.0
307.349304 84.0
307.607574 160.0
307.726288 112.0
307.967224 68.0
308.08786 360.0
308.687164 120.0
308.739624 104.0
308.959991 60.0
309.077057 1376.0
309.947357 128.0
310.085724 168.0
310.834503 80.0
311.092926 120.0
311.743988 156.0
312.00058 88.0
312.094482 176.0
312.19046 200.0
312.436676 232.0
312.999817 60.0
313.109314 380.0
313.302734 92.0
313.387268 40.0
313.566986 128.0
313.598724 160.0
313.65863 68.0
313.683319 60.0
313.746765 64.0
314.064148 128.0
314.118256 3940.0
314.194672 100.0
314.286407 196.0
314.71347 188.0
314.73819 40.0
314.886536 148.0
314.939514 64.0
315.010162 84.0
315.124969 716.0
315.635712 36.0
315.713501 144.0
316.098816 440.0
316.129089 344.0
316.492004 96.0
316.569916 160.0
316.7966 244.0
316.956024 84.0
316.980835 52.0
317.104034 384.0
318.094482 144.0
318.137085 192.0
318.197449 124.0
318.616516 92.0
319.110535 184.0
319.352356 40.0
319.444855 52.0
320.053436 136.0
320.094604 600.0
320.505798 64.0
320.99057 136.0
321.0979 268.0
321.432892 76.0
321.62207 144.0
321.654175 76.0
321.925537 184.0
322.099121 168.0
323.285675 84.0
323.60614 48.0
323.89621 52.0
324.03949 52.0
324.089661 104.0
324.233002 68.0
324.383545 108.0
324.40863 88.0
325.131989 144.0
325.711243 72.0
326.077728 124.0
326.11853 124.0
326.448029 244.0
326.473206 60.0
326.886902 124.0
327.002045 136.0
327.088898 660.0
327.133209 156.0
327.880829 144.0
328.096497 1036.0
328.54068 48.0
328.887115 72.0
328.934052 140.0
329.104858 392.0
330.115387 572.0
330.151642 340.0
330.223999 152.0
330.654541 88.0
330.7052 96.0
331.076385 144.0
331.120178 972.0
331.382385 116.0
332.122925 444.0
332.767883 48.0
333.022064 72.0
333.131042 80.0
334.058044 132.0
334.552948 220.0
335.952362 128.0
336.35376 116.0
336.521698 136.0
336.985535 124.0
338.089844 216.0
338.661011 188.0
339.087952 236.0
339.10495 152.0
339.225311 52.0
339.595642 152.0
340.099213 332.0
341.096008 140.0
341.211395 140.0
341.799896 248.0
342.031738 104.0
342.057526 80.0
342.111084 4252.0
342.193726 224.0
342.315247 84.0
342.458862 40.0
342.882568 188.0
343.114502 1484.0
343.229095 84.0
343.273346 76.0
343.535217 48.0
343.922668 44.0
344.092285 240.0
344.112488 244.0
344.158936 104.0
344.398987 32.0
344.480255 108.0
344.535645 84.0
345.089661 200.0
345.122894 144.0
345.322937 140.0
345.578247 72.0
345.852112 124.0
345.959442 172.0
346.085327 40.0
346.11496 140.0
347.026459 148.0
347.093201 68.0
347.579132 124.0
347.81665 40.0
348.548279 128.0
349.227631 152.0
349.649017 116.0
350.371399 136.0
350.859619 68.0
351.075897 48.0
354.11908 456.0
354.391541 164.0
354.605133 124.0
355.113068 264.0
355.295105 36.0
356.004517 72.0
356.093689 156.0
356.129242 132.0
356.485352 168.0
357.037994 64.0
357.090149 124.0
357.131104 132.0
357.3013 124.0
357.865845 116.0
358.105408 740.0
358.185944 124.0
358.272583 188.0
358.340393 80.0
358.551422 108.0
358.596649 180.0
358.717255 68.0
358.92627 128.0
359.048798 160.0
359.116821 10864.0
359.218811 96.0
359.261627 236.0
359.302734 132.0
359.373474 64.0
359.4263 40.0
359.465607 136.0
359.505554 88.0
359.607452 28.0
359.664062 100.0
359.704407 140.0
359.822632 84.0
359.966095 56.0
360.118164 3636.0
360.275818 132.0
360.351379 172.0
360.376465 112.0
360.449615 52.0
360.540314 48.0
360.63858 100.0
360.869171 76.0
360.907318 48.0
360.952362 64.0
360.986389 40.0
361.122559 372.0
361.292755 104.0
361.550079 64.0
361.743103 44.0
362.120361 216.0
362.398285 100.0
362.44754 104.0
362.50061 88.0
362.680237 200.0
362.856903 88.0
362.921356 44.0
363.213379 188.0
363.31958 68.0
363.349945 64.0
363.425812 96.0
363.520691 72.0
364.116699 44.0
364.321808 180.0
366.113342 164.0
366.589539 32.0
367.088776 248.0
367.10495 96.0
367.271973 92.0
367.355896 136.0
367.809998 88.0
367.947418 84.0
368.104858 152.0
368.23764 144.0
368.852783 48.0
369.441711 36.0
369.87793 52.0
370.054047 56.0
370.099976 168.0
370.130615 112.0
370.456177 64.0
370.659241 72.0
370.755035 84.0
370.86618 132.0
371.141418 316.0
371.46051 28.0
371.533417 148.0
372.078583 156.0
372.123749 804.0
372.197388 44.0
372.54306 60.0
372.696747 80.0
372.736908 88.0
373.133209 308.0
373.381012 44.0
373.407928 60.0
373.707977 44.0
373.734924 144.0
374.131348 288.0
374.173676 52.0
374.967194 116.0
375.115692 144.0
375.830994 128.0
376.13974 92.0
376.425446 48.0
379.044281 68.0
379.889496 168.0
380.502655 180.0
381.108551 148.0
381.135742 100.0
382.108948 800.0
382.321808 64.0
382.929138 116.0
383.109161 420.0
384.109955 236.0
385.105499 104.0
385.132843 176.0
385.246124 100.0
385.605621 108.0
385.773682 80.0
386.082581 48.0
386.111267 156.0
386.137329 176.0
386.677246 100.0
387.550507 56.0
388.161987 156.0
388.412994 172.0
388.978058 120.0
389.155487 160.0
389.508179 40.0
389.759613 176.0
389.818542 176.0
389.924652 168.0
391.254181 116.0
391.470734 128.0
393.339569 144.0
393.809448 144.0
393.935852 92.0
395.106018 108.0
396.159058 96.0
397.257172 76.0
397.41983 88.0
398.003296 108.0
398.249512 100.0
398.63092 76.0
398.746155 168.0
398.97583 164.0
399.008514 208.0
399.072144 112.0
399.134399 10324.0
399.243134 120.0
399.549408 44.0
399.859772 64.0
400.136353 2300.0
400.211761 88.0
400.516724 104.0
400.648193 36.0
400.763733 92.0
400.803589 136.0
401.070587 40.0
401.141235 344.0
401.301819 64.0
401.337708 48.0
401.588928 48.0
401.712585 52.0
401.812317 100.0
401.888123 56.0
402.109955 172.0
402.150116 108.0
402.355103 104.0
402.538757 80.0
402.686523 56.0
402.862274 124.0
403.126831 132.0
403.465729 84.0
403.605682 128.0
404.108032 188.0
404.237701 92.0
404.329742 76.0
406.943329 132.0
407.128052 108.0
407.401184 80.0
409.778839 160.0
411.464691 116.0
413.226837 108.0
413.57486 80.0
414.210571 88.0
414.733307 40.0
414.854889 44.0
415.057617 112.0
415.296906 64.0
415.446991 88.0
416.100372 164.0
416.226257 28.0
416.418427 112.0
416.490234 100.0
416.54303 136.0
416.612091 160.0
416.762421 156.0
416.892456 100.0
416.981842 112.0
417.023438 296.0
417.077148 208.0
417.145844 23056.0
417.25885 256.0
417.347717 80.0
417.41684 56.0
417.53302 84.0
417.576324 272.0
417.681213 72.0
417.77655 108.0
417.818451 280.0
417.88678 180.0
417.981354 236.0
418.055511 140.0
418.146973 5092.0
418.238647 112.0
418.434052 36.0
418.52771 88.0
418.682434 68.0
418.841278 36.0
418.983856 48.0
419.065338 156.0
419.151794 1136.0
419.247711 64.0
419.721588 32.0
420.148346 324.0
420.288574 76.0
420.390564 100.0
420.557892 132.0
420.586487 56.0
420.67627 96.0
420.794678 84.0
420.860016 72.0
421.147644 176.0
421.28476 100.0
421.325592 56.0
421.390961 148.0
421.542145 72.0
421.615723 84.0
421.840515 76.0
422.64621 64.0
422.854919 64.0
423.227448 60.0
423.28476 48.0
423.428101 68.0
425.18692 56.0
425.934174 48.0
426.205322 88.0
428.249939 56.0
428.291107 56.0
430.56369 68.0
430.638031 60.0
430.856964 132.0
431.17514 108.0
431.261932 80.0
433.56723 88.0
440.06897 44.0
444.451294 84.0
445.400116 80.0
446.543365 64.0
449.644257 136.0
450.264862 88.0
458.065094 72.0
459.062408 112.0
468.324036 56.0
468.68158 104.0
470.506012 140.0
474.685699 56.0
477.430237 80.0
483.538055 108.0
484.610931 64.0
490.799652 72.0
498.515228 56.0
500.419006 60.0
507.935883 52.0
509.215088 76.0
517.145935 160.0
518.495605 104.0
523.533813 44.0
524.098694 120.0
527.229065 52.0
539.783752 40.0
541.120972 124.0
542.260498 108.0
543.461548 60.0
543.715515 72.0
544.812622 128.0
556.789124 64.0
560.133301 104.0
570.596619 92.0
573.753052 136.0
577.913025 64.0
581.766296 84.0
623.828613 164.0
628.929382 68.0
646.196777 40.0
647.482483 76.0
649.286682 108.0
655.667053 44.0
675.253906 92.0
680.736938 76.0
683.101746 184.0
688.846252 148.0
694.646362 40.0
712.931519 160.0
723.352783 100.0
732.917847 36.0
734.494141 188.0
734.875122 56.0
744.792786 240.0
746.352539 128.0
747.881226 152.0
748.376587 64.0
754.848022 156.0
760.463379 64.0
773.538025 208.0
774.230103 132.0
782.431396 80.0
782.876831 148.0
784.648743 188.0
790.608704 164.0
790.748596 164.0
792.081177 172.0
792.69751 152.0
794.867615 176.0
797.428406 196.0
798.738525 176.0
804.94928 132.0
809.393799 156.0
813.174988 56.0
816.737488 200.0
818.046265 152.0
822.875 48.0
825.068848 128.0
826.544434 180.0
828.462463 156.0
830.227844 160.0
832.282166 76.0
837.083557 88.0
837.849609 144.0
844.499451 160.0
846.901489 208.0
849.011108 168.0
850.177185 136.0
852.715088 164.0
855.518738 188.0
857.266113 180.0
860.439148 204.0
861.712341 152.0
864.975586 108.0
869.494568 80.0
870.046326 184.0
875.544067 204.0
879.541504 176.0
880.397644 76.0
881.998718 68.0
882.974304 120.0
884.932983 80.0
885.009949 132.0
886.941223 124.0
887.753479 156.0
892.194763 120.0
898.483704 200.0
899.020691 76.0
899.898193 228.0
901.194275 68.0
901.863525 180.0
903.454163 168.0
904.5672 156.0
904.974304 136.0
906.291992 140.0
909.650513 268.0
911.554382 140.0
911.704651 140.0
917.04895 40.0
918.465881 48.0
921.103699 176.0
922.590271 80.0
924.465271 164.0
926.942017 168.0
929.197571 200.0
930.186768 68.0
931.61377 168.0
931.698853 64.0
934.477234 104.0
934.702393 168.0
936.16333 108.0
938.667847 220.0
941.481079 76.0
941.969666 128.0
943.27124 208.0
945.173279 168.0
945.381348 104.0
945.67511 184.0
945.864807 48.0
946.96698 96.0
948.363892 124.0
949.209961 208.0
950.731262 172.0
951.529236 188.0
952.137146 144.0
954.570679 48.0
956.207092 140.0
956.742615 188.0
957.179749 160.0
957.78949 176.0
959.329956 148.0
960.698975 208.0
960.902588 144.0
962.748169 168.0
963.019958 136.0
966.067322 168.0
967.150208 200.0
967.651611 204.0
970.297058 72.0
971.016357 148.0
972.865479 136.0
973.126221 96.0
973.567078 224.0
973.945923 136.0
976.931396 72.0
977.483398 48.0
982.205811 164.0
983.316467 140.0
984.084229 168.0
984.140442 172.0
984.958557 184.0
986.577026 80.0
987.865234 132.0
987.915283 192.0
989.32959 144.0
990.237549 140.0
990.738647 172.0
991.221069 180.0
991.296265 96.0
992.261536 152.0
993.014038 200.0
993.440552 128.0
993.760498 108.0
994.193481 172.0
994.739563 164.0
998.446594 120.0
999.918762 156.0
1000.315308 164.0
1001.158997 172.0
1002.28656 160.0
1003.112183 124.0
1003.761536 168.0
1004.966309 200.0
1005.717285 168.0
1007.220032 132.0
1010.975586 172.0
1011.311035 168.0
1011.855408 60.0
1011.944031 156.0
1012.963623 104.0
1013.109375 164.0
1013.489502 112.0
1013.685913 84.0
1014.662048 124.0
1015.061462 188.0
1016.958313 132.0
1017.821716 124.0
1017.967773 40.0
1018.075745 160.0
1019.52417 160.0
1020.674744 132.0
1020.859131 196.0
1021.463379 52.0
1021.526978 64.0
1022.004089 124.0
1023.277039 176.0
1023.410767 176.0
1023.754639 180.0
1024.378784 108.0
1024.493408 44.0
1025.468384 144.0
1027.413208 212.0
1027.528076 80.0
1028.108765 92.0
1028.881104 180.0
1029.532349 204.0
1030.977783 196.0
1032.203491 216.0
1032.491211 172.0
1033.329224 168.0
1033.411133 100.0
1034.500366 236.0
1034.634766 100.0
1036.088501 208.0
1036.588257 228.0
1036.761353 80.0
1037.479126 128.0
1037.61377 180.0
1037.908691 148.0
1038.877197 132.0
1040.006592 216.0
1040.751221 132.0
1040.879639 120.0
1040.9375 176.0
1041.020874 72.0
1041.10437 132.0
1041.200684 124.0
1041.573242 224.0
1041.628418 184.0
1044.169922 180.0
1046.042236 120.0
1046.132446 76.0
1046.196777 64.0
1046.995239 224.0
1047.124023 196.0
1048.889282 168.0
1050.017822 44.0
1050.79834 240.0
1050.901489 132.0
1052.244019 208.0
1052.495728 52.0
1052.547485 96.0
1052.863892 176.0
1052.915527 152.0
1057.635376 160.0
1058.140259 132.0
1058.256836 152.0
1058.599976 148.0
1058.846069 152.0
1059.163452 64.0
1059.396606 184.0
1059.552124 164.0
1059.843628 240.0
1059.898926 132.0
1061.457642 96.0
1061.567871 208.0
1064.864746 48.0
1065.195923 220.0
1065.891113 108.0
1067.64624 76.0
1067.737305 36.0
1068.680542 168.0
1070.236206 104.0
1070.477051 232.0
1070.965576 148.0
1071.555298 156.0
1071.988403 180.0
1073.520264 208.0
1074.159424 240.0
1074.31604 168.0
1074.446533 52.0
1074.498657 164.0
1074.70752 160.0
1075.242554 156.0
1076.371948 168.0
1078.619385 140.0
1078.710815 160.0
1079.835449 124.0
1081.418823 148.0
1081.988281 196.0
1082.178223 144.0
1083.173584 68.0
1083.80249 48.0
1085.047852 172.0
1087.323975 160.0
1088.209839 188.0
1088.814209 148.0
1088.886475 20.0
1089.326538 136.0
1089.582764 184.0
1090.658813 192.0
1090.930054 228.0
1091.035156 228.0
1091.547974 184.0
1091.922852 56.0
1092.652954 176.0
1093.468994 92.0
1094.081177 76.0
1094.153564 192.0
1095.628784 140.0
1096.33374 176.0
1099.129761 120.0
1099.499268 232.0
1100.251709 188.0
1100.595093 244.0
1100.700684 184.0
1102.253052 160.0
1102.305908 164.0
1102.401489 148.0
1102.887451 40.0
1103.429565 132.0
1105.182251 228.0
1105.903564 196.0
1106.022705 120.0
1106.102051 212.0
1106.327148 176.0
1106.386719 76.0
1106.625122 132.0
1106.803833 288.0
1108.320679 88.0
1108.552612 168.0
1110.15686 164.0
1111.098755 136.0
1111.284546 184.0
1111.881714 196.0
1113.209473 72.0
1113.421997 228.0
1113.488403 176.0
1113.999756 132.0
1114.345215 136.0
1114.876831 188.0
1115.109497 48.0
1115.156006 156.0
1116.512207 164.0
1116.931274 124.0
1117.003662 176.0
1117.656372 124.0
1117.862671 88.0
1118.088989 164.0
1118.821167 20.0
1118.887695 172.0
1119.247192 204.0
1119.73999 212.0
1119.873291 216.0
1120.23291 156.0
1122.479004 112.0
1122.819092 172.0
1124.200073 112.0
1125.067749 156.0
1125.277588 168.0
1126.40332 168.0
1127.412109 148.0
1127.625977 136.0
1127.672852 176.0
1127.853271 148.0
1128.702271 168.0
1129.658691 204.0
1129.718872 184.0
1130.073486 124.0
1131.037109 156.0
1132.074829 124.0
1132.958984 136.0
1134.634399 128.0
1134.701538 152.0
1135.110474 128.0
1136.17688 100.0
1136.364746 152.0
1137.095947 100.0
1137.619751 168.0
1137.967163 188.0
1138.640381 200.0
1139.842896 140.0
1140.185547 96.0
1141.489746 172.0
1141.59729 192.0
1141.71167 176.0
1143.097412 208.0
1143.682983 48.0
1144.039673 168.0
1144.221436 140.0
1144.9823 160.0
1145.157471 196.0
1146.181396 200.0
1146.747559 212.0
1147.509277 196.0
1147.751953 192.0
1147.832886 184.0
1148.493774 76.0
1148.750122 164.0
1149.296631 164.0
1149.458496 192.0
1149.741943 160.0
1151.341919 164.0
1152.172729 156.0
1152.551147 152.0
1153.30127 164.0
1153.355347 80.0
1153.693359 96.0
1154.572388 164.0
1154.626465 180.0
1154.794922 196.0
1154.869873 188.0
1155.444946 140.0
1155.49231 120.0
1155.73584 40.0
1155.905029 160.0
1155.972656 136.0
1156.026855 236.0
1156.304321 172.0
1156.459961 172.0
1157.279053 152.0
1157.813965 188.0
1157.908813 152.0
1158.118774 216.0
1158.328735 144.0
1158.376221 144.0
1158.762329 172.0
1159.833008 136.0
1160.348267 176.0
1161.060181 160.0
1161.647827 172.0
1161.792725 148.0
1162.050537 220.0
1162.437256 112.0
1163.957886 196.0
1164.657349 80.0
1164.813599 152.0
1165.01062 168.0
1165.819092 112.0
1166.630859 136.0
1168.396118 156.0
1168.907349 144.0
1170.683105 128.0
1170.846558 172.0
1170.901001 60.0
1171.166626 208.0
1171.772949 204.0
1173.435913 140.0
1173.817749 192.0
1174.33606 36.0
1174.411011 168.0
1174.833984 192.0
1174.881714 140.0
1174.977173 216.0
1175.332031 180.0
1175.529907 160.0
1175.577637 144.0
1175.666382 32.0
1176.191895 120.0
1176.408569 152.0
1176.560547 88.0
1176.63562 168.0
1176.860962 156.0
1177.318481 148.0
1178.90332 112.0
1179.819214 132.0
1180.892822 48.0
1181.070557 184.0
1181.35791 208.0
1181.617798 152.0
1181.905273 220.0
1182.110474 184.0
1182.548462 136.0
1183.650635 164.0
1184.184814 212.0
1186.350098 124.0
1186.905396 240.0
1186.953491 192.0
1187.001465 212.0
1187.316895 144.0
1187.481445 116.0
1187.803833 120.0
1187.88623 132.0
1188.236206 156.0
1188.489868 152.0
1189.141846 208.0
1189.244751 96.0
1189.471313 128.0
1189.74585 200.0
1189.924438 144.0
1191.174194 192.0
1191.414673 104.0
1193.009033 156.0
1194.005981 116.0
1194.212402 176.0
1194.446167 148.0
1195.457642 68.0
1196.180298 96.0
1196.269775 92.0
1197.39209 216.0
1198.080933 140.0
1198.728516 180.0
1198.935303 172.0
1199.328125 116.0
1200.182983 196.0
1200.376099 92.0
1200.493286 152.0
1201.481079 212.0
1201.533569 184.0
1202.342163 164.0
1202.590576 136.0
1203.412109 204.0
1203.653687 176.0
1203.729614 164.0
1203.86084 156.0
1204.834717 144.0
1204.896973 180.0
1205.007446 116.0
1205.809082 128.0
1205.91272 48.0
1207.101807 128.0
1208.014771 140.0
1208.416016 164.0
1208.554443 248.0
1208.623535 32.0
1208.817383 180.0
1208.934937 152.0
1209.253296 108.0
1209.460938 92.0
1210.762573 192.0
1210.887207 216.0
1211.046509 160.0
1211.136597 116.0
1213.000488 188.0
1213.153076 168.0
1213.638306 144.0
1214.082153 184.0
1214.311035 232.0
1214.630005 156.0
1214.734131 152.0
1214.872803 172.0
1215.150391 168.0
1216.579956 204.0
1216.871582 164.0
1217.774292 88.0
1218.00354 80.0
1218.197998 152.0
1218.329956 156.0
1219.629517 168.0
1219.970093 156.0
1221.281372 212.0
1221.513794 156.0
1221.625122 264.0
1221.687744 140.0
1222.021729 204.0
1222.592285 184.0
1223.518066 116.0
1224.430176 156.0
1225.280029 232.0
1225.349609 188.0
1225.57959 120.0
1227.949707 56.0
1228.096191 60.0
1228.326416 48.0
1228.549805 128.0
1229.959229 144.0
1230.685181 184.0
1230.852783 128.0
1230.978516 136.0
1231.509277 248.0
1231.614014 200.0
1231.865479 148.0
1232.312622 160.0
1232.613037 184.0
1233.067261 148.0
1233.165161 200.0
1233.696411 172.0
1235.941406 116.0
1237.033203 72.0
1237.236206 208.0
1237.439209 164.0
1237.6073 224.0
1237.789307 112.0
1238.223511 224.0
1239.057007 152.0
1239.918945 212.0
1240.150269 132.0
1240.500732 120.0
1240.654907 248.0
1240.816162 128.0
1241.103638 116.0
1242.401123 56.0
1242.927368 152.0
1243.144897 140.0
1243.299194 92.0
1243.502808 128.0
1243.650146 164.0
1244.155518 172.0
1244.5979 172.0
1244.871704 88.0
1245.560059 100.0
1246.410156 120.0
1246.592773 172.0
1246.866821 124.0
1247.633057 124.0
1247.822876 180.0
1248.272827 232.0
1248.448608 104.0
1250.425537 176.0
1250.721191 196.0
1251.734985 144.0
1252.225342 176.0
1252.791382 212.0
1252.882935 108.0
1252.995728 164.0
1253.122559 192.0
1253.24231 96.0
1253.601685 40.0
1254.167236 148.0
1254.25708 220.0
1254.489746 152.0
1254.771729 144.0
1254.90564 140.0
1255.110107 160.0
1255.469727 164.0
1255.646118 44.0
1256.019897 172.0
1256.076294 168.0
1256.824097 144.0
1258.263916 160.0
1259.436157 108.0
1259.528076 164.0
1259.591553 160.0
1260.481812 188.0
1260.55249 192.0
1261.287476 100.0
1261.336914 132.0
1262.057983 156.0
1262.899536 144.0
1263.104736 160.0
1263.522095 140.0
1264.151855 132.0
1264.470215 208.0
1264.569336 184.0
1265.12146 108.0
1265.567505 172.0
1265.702026 148.0
1266.60144 164.0
1266.764404 160.0
1266.955688 104.0
1267.239014 60.0
1267.295654 176.0
1267.883789 184.0
1268.103516 168.0
1268.500488 168.0
1268.791138 124.0
1269.202393 132.0
1269.422119 88.0
1269.521484 216.0
1269.797974 64.0
1270.110107 156.0
1270.322876 52.0
1270.706055 188.0
1270.911743 132.0
1271.479492 56.0
1271.720703 144.0
1271.876953 176.0
1271.952515 188.0
1272.778564 52.0
1273.35376 180.0
1273.438965 164.0
1273.83667 188.0
1274.483276 152.0
1274.703491 124.0
1275.0802 148.0
1275.33606 188.0
1275.527954 128.0
1275.584839 76.0
1275.673096 324.0
1276.153564 60.0
1276.501953 128.0
1277.234497 160.0
1277.540405 196.0
1278.258911 152.0
1278.527344 140.0
1278.643188 48.0
1279.034668 180.0
1279.760864 124.0
1279.967285 36.0
1280.55127 172.0
1280.72937 232.0
1280.829102 136.0
1280.893188 164.0
1281.719604 100.0
1282.631836 48.0
1282.831421 84.0
1282.931152 156.0
1282.981079 288.0
1283.416016 136.0
1283.872437 128.0
1284.157593 232.0
1284.300293 144.0
1284.79248 148.0
1285.016724 160.0
1285.434692 80.0
1285.927002 148.0
1286.390991 212.0
1287.069214 116.0
1287.766968 136.0
1288.390503 168.0
1289.076416 140.0
1289.389526 104.0
1289.4552 156.0
1290.598999 132.0
1290.699097 152.0
1291.335571 184.0
1292.422852 88.0
1292.644775 152.0
1292.830811 172.0
1293.532227 120.0
1293.882935 184.0
1294.669678 164.0
1294.885498 244.0
1295.279419 180.0
1295.458496 184.0
1295.57312 132.0
1295.90979 128.0
1296.117554 116.0
1296.253784 180.0
1296.368408 44.0
1296.440063 108.0
1297.300171 220.0
1297.47937 188.0
1297.615601 192.0
1298.15332 140.0
1298.748657 128.0
1299.32251 180.0
1299.468628 160.0
1299.523438 172.0
1299.630981 136.0
1299.846313 164.0
1300.047974 148.0
1300.305542 116.0
1301.583374 196.0
1301.69104 180.0
1302.409302 124.0
1302.890503 168.0
1302.991089 160.0
1303.407837 184.0
1303.530029 176.0
1303.932373 132.0
1305.22644 152.0
1305.449341 104.0
1305.708252 264.0
1305.772949 116.0
1306.794434 232.0
1307.132568 184.0
1307.545654 356.0
1307.614746 132.0
1307.859497 240.0
1308.111328 116.0
1308.248169 228.0
1308.730469 148.0
1309.011353 248.0
1309.099121 244.0
1309.882812 152.0
1310.689697 132.0
1310.819458 208.0
1311.482422 108.0
1312.441284 196.0
1313.797119 144.0
1314.056885 152.0
1314.731567 232.0
1314.922729 96.0
1314.973267 64.0
1315.319702 244.0
1315.39917 184.0
1315.738403 136.0
1316.446045 208.0
1316.503784 196.0
1316.561523 124.0
1316.655396 120.0
1316.922729 208.0
1317.157471 20.0
1317.912354 144.0
1318.302612 72.0
1318.692871 204.0
1318.779541 100.0
1319.494263 184.0
1319.734253 200.0
1319.986816 72.0
1321.404541 160.0
1321.665039 220.0
1321.896606 136.0
1322.207764 132.0
1322.974976 232.0
1323.452759 116.0
1323.539673 232.0
1323.952393 184.0
1324.19873 224.0
1324.444946 184.0
1324.850586 208.0
1325.089722 136.0
1325.53894 132.0
1326.183838 140.0
1326.431396 196.0
1326.662354 160.0
1327.670166 144.0
1327.887695 44.0
1328.591309 152.0
1328.649414 184.0
1328.990356 160.0
1329.201782 152.0
1329.592651 36.0
1330.195068 148.0
1330.289429 104.0
1330.470947 88.0
1330.797607 96.0
1331.436646 168.0
1331.603638 120.0
1332.0177 52.0
1332.540771 116.0
1332.634277 152.0
1333.296509 156.0
1333.834351 144.0
1334.030518 180.0
1334.503052 124.0
1335.055786 104.0
1335.327148 208.0
1335.717651 84.0
1336.088623 256.0
1336.750732 208.0
1337.280029 232.0
1337.616821 180.0
1337.733276 184.0
1338.927368 164.0
1339.429932 152.0
1340.479004 128.0
1340.610229 120.0
1340.974609 176.0
1342.019775 188.0
1342.079956 192.0
1342.170166 160.0
1342.228516 176.0
1342.447266 156.0
1343.519409 128.0
1343.614258 44.0
1344.953735 160.0
1345.205078 176.0
1345.292725 204.0
1345.41687 112.0
1346.234619 212.0
1346.35144 120.0
1347.220581 156.0
1347.622437 172.0
1347.914673 140.0
1348.338623 100.0
1348.609009 120.0
1348.747925 140.0
1348.813599 200.0
1349.113403 176.0
1349.742188 236.0
1350.641724 140.0
1350.941528 184.0
1351.124512 180.0
1351.33667 236.0
1352.82959 232.0
1352.91748 184.0
1353.774048 208.0
1354.03772 100.0
1354.330688 156.0
1354.389282 176.0
1354.462524 156.0
1355.18042 204.0
1355.64209 208.0
1356.301758 196.0
1356.433594 208.0
1356.55481 236.0
1356.800171 108.0
1357.166748 64.0
1358.618896 140.0
1359.139893 48.0
1359.359985 168.0
1359.440674 152.0
1359.917725 164.0
1359.998413 196.0
1360.155762 300.0
1360.820679 148.0
1360.952759 220.0
1361.253906 168.0
1362.113159 188.0
1362.7229 116.0
1362.840454 184.0
1363.062012 184.0
1363.251953 100.0
1363.413574 164.0
1363.509155 56.0
1363.782715 88.0
1364.420654 160.0
1364.60437 144.0
1365.141235 164.0
1365.464722 180.0
1365.678101 148.0
1365.766357 128.0
1366.568237 80.0
1366.796265 184.0
1367.068481 188.0
1367.127441 156.0
1367.274536 184.0
1367.745605 144.0
1368.238892 184.0
1368.378784 212.0
1368.643799 140.0
1368.776367 56.0
1368.864746 128.0
1369.107666 212.0
1369.159302 164.0
1370.853638 156.0
1371.155762 144.0
1371.266357 128.0
1371.362183 160.0
1371.789673 236.0
1371.907593 192.0
1372.165649 172.0
1372.246704 140.0
1372.29834 124.0
1372.453125 208.0
1372.593262 144.0
1372.725952 216.0
1372.829224 156.0
1373.30127 200.0
1373.677368 120.0
1373.729004 144.0
1374.142212 144.0
1374.363525 160.0
1374.584839 48.0
1374.990723 204.0
1375.551758 196.0
1375.736328 120.0
1375.847046 168.0
1375.989502 172.0
1376.186646 168.0
1376.341675 152.0
1376.917725 164.0
1376.976807 152.0
1377.205688 152.0
1377.307983 184.0
1377.730225 116.0
1377.848389 160.0
1377.937012 140.0
1378.675903 184.0
1379.012939 144.0
1379.496338 144.0
1379.81958 192.0
1379.991699 140.0
1380.043457 148.0
1380.206055 156.0
1380.657227 144.0
1381.160156 176.0
1381.359863 164.0
1382.440063 128.0
1382.669434 176.0
1382.884033 128.0
1383.032104 120.0
1383.357788 120.0
1383.683594 148.0
1383.809448 176.0
1384.127808 40.0
1384.979492 92.0
1385.179443 132.0
1385.349854 176.0
1385.794312 76.0
1385.905518 100.0
1386.224121 192.0
1386.854004 184.0
1387.758423 192.0
1387.906738 176.0
1388.329346 176.0
1388.581543 212.0
1389.486572 160.0
1390.295288 88.0
1391.527466 160.0
1391.690796 236.0
1391.980347 160.0
1393.168701 76.0
1393.636841 176.0
1393.986084 196.0
1394.164429 120.0
1394.216431 176.0
1395.413208 148.0
1395.658569 176.0
1396.156738 168.0
1396.893066 144.0
1397.815674 148.0
1397.875122 132.0
1398.120728 112.0
1398.373779 180.0
1398.5896 76.0
1398.716187 152.0
1399.892456 136.0
1400.771362 216.0
1401.300293 140.0
1401.411987 156.0
1401.508911 148.0
1401.575928 184.0
1401.874023 112.0
1402.127319 128.0
1402.567139 48.0
1402.947266 64.0
1403.073975 192.0
1403.81958 128.0
1403.983643 244.0
1404.098755 328.0
1404.31189 176.0
1404.56543 164.0
1405.751709 72.0
1406.371094 52.0
1407.050415 112.0
1407.304321 132.0
1407.737305 212.0
1408.073364 184.0
1408.91748 108.0
1409.374634 144.0
1409.518433 140.0
1409.597412 148.0
1409.657104 56.0
1409.993408 60.0
1410.658691 168.0
1410.875488 164.0
1412.498169 144.0
1412.595459 144.0
1413.096802 208.0
1413.33606 104.0
1413.553101 144.0
1413.612915 224.0
1413.837402 152.0
1413.994629 180.0
1414.466187 48.0
1414.844971 124.0
1415.926147 180.0
1416.001099 164.0
1416.353027 172.0
1416.427979 124.0
1416.967407 72.0
1418.128906 192.0
1418.241333 216.0
1418.406128 164.0
1418.596191 168.0
1419.268311 172.0
1419.380737 188.0
1419.448242 152.0
1419.695923 176.0
1419.943237 60.0
1420.063232 160.0
1420.280762 136.0
1420.61084 228.0
1420.770508 68.0
1421.240967 152.0
1421.533691 124.0
1421.811279 136.0
1421.878784 164.0
1421.961426 204.0
1422.479248 184.0
1422.929688 164.0
1423.185059 180.0
1424.589478 116.0
1424.709595 196.0
1425.115356 172.0
1425.288086 180.0
1425.896851 116.0
1426.302734 108.0
1426.608032 136.0
1426.753662 124.0
1426.956665 120.0
1427.317627 180.0
1427.43042 156.0
1427.580811 248.0
1428.28772 180.0
1430.040894 184.0
1430.492554 156.0
1431.990845 160.0
1432.051147 236.0
1432.239502 176.0
1432.640625 184.0
1433.158569 132.0
1433.39209 112.0
1433.487915 168.0
1433.912109 268.0
1434.138184 156.0
1434.492432 120.0
1434.575439 140.0
1434.899536 160.0
1435.148315 144.0
1435.578125 124.0
1435.9552 172.0
1436.317261 208.0
1436.64917 132.0
1436.724609 144.0
1436.822754 204.0
1437.011353 176.0
1438.241333 184.0
1438.44519 148.0
1438.535767 176.0
1438.716919 152.0
1440.008179 116.0
1440.866211 256.0
1440.997681 204.0
1441.254639 200.0
1441.519043 144.0
1441.61731 184.0
1441.836426 288.0
1441.964966 140.0
1442.32019 240.0
1442.422607 132.0
1443.431519 184.0
1444.293701 132.0
1444.452515 40.0
1444.508911 112.0
1444.929077 64.0
1445.184692 148.0
1445.572266 176.0
1445.905273 136.0
1446.412354 156.0
1447.442017 112.0
1447.987183 136.0
1448.085693 192.0
1448.676514 168.0
1449.085571 160.0
1449.267456 248.0
1450.593628 132.0
1450.821045 88.0
1451.177368 216.0
1451.488281 68.0
1452.201172 168.0
1452.82312 64.0
1453.081055 152.0
1453.999268 104.0
1454.135864 168.0
1454.302856 156.0
1454.689941 160.0
1455.008789 124.0
1455.647827 196.0
1456.160522 100.0
1456.383179 52.0
1457.066895 128.0
1458.237061 184.0
1458.898438 196.0
1459.058716 144.0
1459.704346 160.0
1459.765137 192.0
1460.259521 168.0
1460.335571 152.0
1461.210327 152.0
1461.332031 212.0
1461.484253 96.0
1461.66687 132.0
1461.917969 60.0
1461.978882 120.0
1462.679077 120.0
1462.73999 176.0
1463.105347 160.0
1463.493652 188.0
1463.548218 148.0
1463.904785 40.0
1464.300781 192.0
1464.835938 108.0
1464.994019 140.0
1465.443481 240.0
1465.824463 72.0
1466.053101 176.0
1466.971924 232.0
1467.234497 44.0
1467.669067 204.0
1468.164673 216.0
1468.294312 176.0
1468.912231 188.0
1469.133423 152.0
1469.388062 124.0
1469.480713 168.0
1469.568237 128.0
1469.873413 208.0
1469.942139 180.0
1470.308472 156.0
1470.850342 128.0
1471.102295 200.0
1471.201538 160.0
1472.003174 180.0
1472.362061 136.0
1472.980713 200.0
1473.691162 148.0
1475.089722 72.0
1475.622314 460.0
1476.068359 160.0
1476.160156 212.0
1476.955444 168.0
1477.193237 156.0
1477.845459 132.0
1478.103027 244.0
1478.210205 120.0
1478.317261 200.0
1478.553711 176.0
1479.082642 248.0
1480.077881 200.0
1480.223389 80.0
1480.445435 168.0
1480.521973 148.0
1480.77478 360.0
1482.031128 84.0
1482.299194 168.0
1482.797363 92.0
1482.896973 56.0
1483.211304 152.0
1483.287964 176.0
1483.740234 192.0
1484.545288 52.0
1484.621948 140.0
1484.698608 208.0
1484.951782 164.0
1485.174194 104.0
1485.450317 120.0
1485.619019 200.0
1485.787842 196.0
1485.902954 120.0
1486.232788 140.0
1486.493774 152.0
1487.714111 136.0
1487.982788 64.0
1488.289917 104.0
1488.635376 84.0
1489.242188 44.0
1489.90271 376.0
1490.025635 80.0
1490.279175 200.0
1490.655762 140.0
1490.840088 176.0
1491.09375 208.0
1491.147583 188.0
1491.362793 160.0
1492.615845 132.0
1493.008057 200.0
1493.441772 160.0
1493.684814 180.0
1493.884888 84.0
1494.508057 164.0
1494.586182 184.0
1494.769653 196.0
1495.250732 172.0
1495.847168 156.0
1496.108887 156.0
1496.740234 264.0
1496.840332 120.0
1497.494873 172.0
1497.556519 64.0
1497.633545 148.0
1497.687378 168.0
1497.810669 212.0
1498.373047 160.0
1498.600098 212.0
1498.812134 168.0
1500.284302 136.0
1500.716064 80.0
1500.846313 200.0
1501.309692 136.0
1501.654907 152.0
1502.5979 176.0
1503.014526 140.0
1503.608765 76.0
1503.83252 140.0
1504.25708 172.0
