>compound 9_10-alpha-Epoxy-eremanthin
>formula C15H18O3
>ionization [M+H]+
>parentmass 247.1328708880905
#inchi InChI=1S/C15H18O3/c1-7-4-5-10-12(7)13-9(8(2)14(16)17-13)6-11-15(10,3)18-11/h9-13H,1-2,4-6H2,3H3/t9-,10+,11+,12-,13-,15-/m0/s1
#inchikey JFFHVIUZNPTGGR
#Ion_Source DI-ESI
#Instrument qTof
#Compound_Source Isolated
#PI Norberto Lopes
#Data_Collector Denise Silva
#Scan -1
#Precursor_MZ 247.126
#ExactMass 246.126
#Charge 1
#CAS_Number 38963-61-0
#Pubmed_ID  
#Smiles [H][C@@]1(CCC2=C)[C@@]2([H])[C@@H](OC(C3=C)=O)[C@H]3C[C@@H]4[C@]1(O4)C
#INCHI_AUX  
#Library_Class 3
#SpectrumID CCMSLIB00000081305
#IonMode Positive
#UpdateWorkflowName UPDATE-SINGLE-ANNOTATED-BRONZE
#LibraryQualityString Bronze
#TaskID 976c2f5608244bd389c498202a2456f0
##Scan# 1
#SpectrumFile gnps_9_10_a_Epoxy_eremanthin_pos_MplusH.mgf
#LibraryName gnps_library.mgf
#MQScore -1
#Organism gnps_library
#TIC_Query 0
#RT_Query -1
#MZErrorPPM -1
#SharedPeaks 0
#MassDiff 0
#LibMZ -1
#SpecMZ 247.126
#SpecCharge 0
#internalFilename spec-00000.mgf

>collision 10
128.058975 137.0
129.064697 183.0
131.080215 269.0
141.06662 101.0
142.070465 111.0
143.08284 469.0
145.09346 226.0
155.080887 432.0
157.096893 692.0
159.111633 583.0
168.089111 562.0
169.095886 273.0
173.128006 414.0
183.110962 4527.0
184.114655 502.0
185.128464 331.0
187.106827 819.0
188.11058 110.0
191.671875 176.0
193.095932 222.0
201.121597 2427.0
202.124023 221.0
205.116928 330.0
211.106445 959.0
212.113068 110.0
219.132324 245.0
229.114624 2880.0
230.119583 250.0
247.125702 3668.0
254.421066 233.0
765.778625 157.0
