>compound LETROZOLE
>formula C17H11N5
>ionization [M+H]+
>parentmass 286.108612
#inchi InChI=1S/C17H11N5/c18-9-13-1-5-15(6-2-13)17(22-12-20-11-21-22)16-7-3-14(10-19)4-8-16/h1-8,11-12,17H
#inchikey HPJKCIUCZWXJDR
#Ion_Source LC-ESI
#Instrument qTof
#Compound_Source Commercial
#PI Dorrestein
#Data_Collector Garg_Neha
#Scan -1
#Precursor_MZ 286.109
#ExactMass 285.101
#Charge 1
#CAS_Number N/A
#Pubmed_ID N/A
#Smiles N#Cc1ccc(cc1)C(c2ccc(C#N)cc2)n3cncn3
#INCHI_AUX N/A
#Library_Class 1
#SpectrumID CCMSLIB00000078988
#IonMode Positive
#UpdateWorkflowName UPDATE-SINGLE-ANNOTATED-GOLD
#LibraryQualityString Gold
#TaskID 278b19f5865741e282cec7349aa7e7a1
##Scan# 1257
#SpectrumFile NCP003352_C2_D11_BC5_01_15719.mzXML
#LibraryName NIHcollectionI_05062014.mgf
#MQScore -1
#Organism NIHcollectionI_05062014
#TIC_Query 0
#RT_Query -1
#MZErrorPPM -1
#SharedPeaks 0
#MassDiff 0
#LibMZ -1
#SpecMZ 286.109
#SpecCharge 0
#internalFilename spec-00000.mgf

>collision 10
45.462643 152.0
45.755665 164.0
46.209145 184.0
48.169655 152.0
48.562759 188.0
49.041206 188.0
49.903397 164.0
50.821484 188.0
51.68639 156.0
52.384144 176.0
52.663979 156.0
52.727551 212.0
53.067726 164.0
53.477386 164.0
53.995327 164.0
54.316093 140.0
55.196014 112.0
55.494965 164.0
55.550121 140.0
55.865711 140.0
56.637459 164.0
57.609211 204.0
58.084534 200.0
58.26366 172.0
58.426331 212.0
58.634941 152.0
58.735569 148.0
59.175694 156.0
60.128754 204.0
60.522949 208.0
60.660835 184.0
62.211468 152.0
63.679981 192.0
64.190834 176.0
64.521339 156.0
65.245987 204.0
66.257889 156.0
67.055733 200.0
68.499283 164.0
68.53553 152.0
68.928238 176.0
69.600746 176.0
70.311569 212.0
70.595825 180.0
70.839928 164.0
71.086395 172.0
71.732239 276.0
72.518219 220.0
72.852501 172.0
73.022476 144.0
73.91127 208.0
74.331078 140.0
75.193253 144.0
75.662384 180.0
75.859184 144.0
76.14183 200.0
77.082726 144.0
77.450119 224.0
78.813538 196.0
79.096497 148.0
81.961212 212.0
82.074768 140.0
82.594887 156.0
82.906296 140.0
83.55452 200.0
83.803947 168.0
85.503296 164.0
85.842262 176.0
86.015015 164.0
86.537018 148.0
86.789009 200.0
87.366608 172.0
88.329178 216.0
88.351624 168.0
89.268814 184.0
89.677338 152.0
90.200096 184.0
90.794807 140.0
91.24662 324.0
91.311272 140.0
91.772102 168.0
91.983864 148.0
92.281334 236.0
93.086655 176.0
93.182693 168.0
93.322998 208.0
93.696373 140.0
95.145172 128.0
95.376068 164.0
95.924995 168.0
96.213707 188.0
96.487221 148.0
96.577171 200.0
96.770905 144.0
96.876663 192.0
97.043243 144.0
99.225815 144.0
99.305138 148.0
99.326012 160.0
99.519455 156.0
100.41095 300.0
102.370926 172.0
102.54821 176.0
102.757927 184.0
103.002197 140.0
103.980141 244.0
106.555107 200.0
106.661964 156.0
107.003456 244.0
107.483696 144.0
107.704597 160.0
108.393517 160.0
108.542763 160.0
109.113739 200.0
109.382103 156.0
110.347984 140.0
110.841949 144.0
111.156487 172.0
111.202652 144.0
111.850029 176.0
111.995316 216.0
113.461845 192.0
114.044106 148.0
114.143394 184.0
114.302933 204.0
115.174881 160.0
115.305214 176.0
115.897972 192.0
116.70932 184.0
116.752327 208.0
116.816849 160.0
117.402695 192.0
118.795609 140.0
118.973557 148.0
119.242897 148.0
119.654015 248.0
119.828247 228.0
119.865288 160.0
119.998245 148.0
120.078934 148.0
120.952904 228.0
121.180656 152.0
121.610466 160.0
122.100403 236.0
122.430511 152.0
123.153908 216.0
124.644859 152.0
125.154228 144.0
125.697815 152.0
126.547478 168.0
127.763893 180.0
128.399094 160.0
128.997421 144.0
129.047165 152.0
130.716583 196.0
131.281525 176.0
132.158676 156.0
132.518143 144.0
133.215561 164.0
134.110657 156.0
134.634384 168.0
134.867722 156.0
136.865158 156.0
137.559906 204.0
138.043549 172.0
138.162827 208.0
138.891357 196.0
139.050903 152.0
139.382019 180.0
140.046661 268.0
140.132584 140.0
140.604202 252.0
143.2789 240.0
144.006439 200.0
145.032883 152.0
145.964371 144.0
146.763779 144.0
147.391357 152.0
147.855652 156.0
148.042053 144.0
149.240753 156.0
149.559448 176.0
149.873596 156.0
150.466263 168.0
151.846359 172.0
151.934662 184.0
152.047531 160.0
153.056076 240.0
154.0345 172.0
154.101196 152.0
155.011749 232.0
155.15799 204.0
155.475479 184.0
155.554916 252.0
157.944565 152.0
158.710892 168.0
159.195175 196.0
160.322189 156.0
161.139725 140.0
161.870712 144.0
161.944153 184.0
162.050552 212.0
162.09108 244.0
163.054413 992.0
163.274048 204.0
164.055817 432.0
164.27562 140.0
164.619598 168.0
164.938965 140.0
164.974747 160.0
165.043381 184.0
165.522263 196.0
165.970673 164.0
166.066055 288.0
166.119431 156.0
166.191254 196.0
167.494659 172.0
168.064392 152.0
168.201172 148.0
169.48909 152.0
170.906799 140.0
171.226974 172.0
171.299911 152.0
172.009186 180.0
172.241577 156.0
172.727768 176.0
173.563202 192.0
174.035492 164.0
174.776703 172.0
175.416672 168.0
176.052902 144.0
176.742462 172.0
176.7901 144.0
177.05751 3120.0
177.193054 196.0
178.030746 160.0
178.059189 604.0
178.142303 208.0
178.689941 144.0
179.094574 248.0
179.45433 176.0
179.584991 156.0
180.514374 180.0
181.419327 144.0
182.004211 240.0
182.135803 196.0
182.729614 192.0
183.451645 156.0
183.513657 176.0
183.856232 152.0
183.996582 180.0
184.269363 168.0
185.912964 236.0
186.899353 168.0
187.234177 152.0
187.340408 164.0
188.049454 636.0
188.584686 156.0
188.748703 172.0
188.975723 176.0
189.056107 388.0
189.266083 144.0
189.344238 148.0
189.421967 408.0
189.449356 152.0
189.731339 156.0
189.791946 224.0
189.882431 144.0
189.97699 120.0
190.066193 98516.0
190.142838 168.0
190.22702 232.0
190.271072 120.0
190.44812 212.0
190.825485 140.0
191.036789 196.0
191.068878 12856.0
191.130615 120.0
192.071014 904.0
192.136246 112.0
192.231125 96.0
192.313385 216.0
192.422943 164.0
192.567596 108.0
193.051025 440.0
194.059998 344.0
194.34584 144.0
194.442963 160.0
194.767807 196.0
195.995667 152.0
196.22879 140.0
196.721329 172.0
197.292465 156.0
199.951569 164.0
201.107117 140.0
202.005661 192.0
202.055145 512.0
202.150131 188.0
203.060669 396.0
203.260757 180.0
203.979279 148.0
204.260788 172.0
204.462799 144.0
204.701935 156.0
206.176773 152.0
206.293961 164.0
206.557037 148.0
206.61998 140.0
207.066513 144.0
207.464798 168.0
208.076965 3000.0
208.532593 176.0
209.082581 296.0
209.231583 160.0
209.917328 196.0
210.81221 180.0
211.30954 188.0
213.054672 164.0
213.147797 176.0
213.901047 140.0
214.851044 176.0
214.997849 164.0
215.060577 20608.0
215.239975 184.0
215.370636 140.0
215.60437 168.0
216.066925 8012.0
216.323883 148.0
216.389877 220.0
216.535202 232.0
216.584824 176.0
216.646988 272.0
216.725937 192.0
216.804123 184.0
216.855713 240.0
216.965118 148.0
217.008545 148.0
217.077484 193936.0
217.260559 132.0
217.292374 184.0
217.334976 192.0
217.381668 164.0
217.433304 168.0
217.528351 216.0
217.559052 1420.0
217.618454 228.0
217.704498 140.0
217.828354 164.0
217.889313 124.0
217.985535 200.0
218.044388 144.0
218.079727 32064.0
218.156036 160.0
218.262207 124.0
218.303314 116.0
218.338974 168.0
218.408386 104.0
218.600235 148.0
218.75882 160.0
218.815765 244.0
219.082672 1712.0
219.156433 116.0
219.286911 128.0
219.381485 152.0
219.406921 156.0
219.473145 200.0
219.519073 180.0
219.552719 232.0
219.597977 120.0
219.62616 112.0
219.701706 212.0
219.753525 120.0
219.825562 244.0
219.888245 168.0
220.075241 188.0
220.214188 148.0
220.461182 104.0
220.627167 108.0
220.935272 168.0
221.046692 128.0
221.08519 180.0
223.143494 124.0
227.854935 156.0
229.046188 156.0
229.214905 168.0
230.890305 160.0
233.075943 140.0
233.36058 284.0
234.082153 156.0
235.087082 2300.0
236.091812 376.0
253.099136 152.0
256.084259 240.0
262.078033 176.0
269.881012 168.0
281.549622 140.0
285.117279 160.0
285.275482 176.0
286.108612 2248.0
287.112854 412.0
347.941589 140.0
732.332397 152.0
1385.080444 236.0
1487.903198 148.0
1569.93689 164.0
1603.296509 184.0
1629.69519 156.0
1686.40686 144.0
1731.825195 148.0
1770.762817 140.0
1867.510132 192.0
1887.931763 164.0
1888.417114 184.0
1889.100464 144.0
1889.515625 208.0
1952.953003 196.0
1969.11731 192.0
1970.318726 204.0
1974.128174 140.0
1977.985718 148.0
1990.912598 164.0
