>compound Zonisamide
>formula C8H8N2O3S 
>ionization [M+H]+
>parentmass 213.033
#inchi InChI=1S/C8H8N2O3S/c9-14(11,12)5-7-6-3-1-2-4-8(6)13-10-7/h1-4H,5H2,(H2,9,11,12)
#inchikey UBQNRHZMVUUOMG
#Ion_Source LC-ESI
#Instrument qTof
#Compound_Source Isolated
#PI Sirenas
#Data_Collector Ed Esquenazi 
#Scan -1
#Precursor_MZ 213.033
#ExactMass 0.0
#Charge 1
#CAS_Number N/A
#Pubmed_ID N/A
#Smiles N/A
#INCHI_AUX N/A
#Library_Class 3
#SpectrumID CCMSLIB00000006068
#IonMode Positive
#UpdateWorkflowName UPDATE-SINGLE-ANNOTATED-BRONZE
#LibraryQualityString Bronze
#TaskID d19310cd93df49b68e9fcbec27720eb5
##Scan# 3
#SpectrumFile Zonisamide.mgf
#LibraryName fda_library.mgf
#MQScore -1
#Organism fda_library
#TIC_Query 0
#RT_Query -1
#MZErrorPPM -1
#SharedPeaks 0
#MassDiff 0
#LibMZ -1
#SpecMZ 213.033
#SpecCharge 0
#internalFilename spec-00000.mgf

>collision 10
101.45359 7.291667
101.523682 3.125
101.529572 3.094697
101.565651 9.920635
101.586693 4.0
101.674316 10.20119
101.828773 5.680555
101.867287 5.120098
101.890327 2.347222
102.033852 3188.168945
102.084381 26.00926
102.124428 11.82353
102.169579 6.070402
102.18013 5.724359
102.203766 19.61232
102.248596 2.336539
102.261047 14.99194
102.275101 13.64477
102.334923 9.396825
102.438179 11.66786
102.496765 6.160715
102.514481 15.15686
102.618813 18.29167
103.040512 15.86012
103.648529 13.22685
103.821945 23.47695
103.837158 14.84058
103.858421 19.04986
104.049065 1530.855957
104.077522 3.002778
104.116417 17.57209
104.128738 5.458333
104.343979 16.476191
104.492928 7.843137
104.524254 3.816667
105.032356 671.485474
105.076958 2.00463
105.113411 6.818182
105.158188 17.97543
105.59803 9.00463
119.913765 11.77885
120.042122 98.313087
130.037735 193.183395
130.371735 4.335784
130.407349 3.020833
132.043152 463.392792
132.197342 5.391026
132.28537 7.880051
964.135193 2.669444
996.904663 2.020833
