>compound MLS002153330-01!SNC80156727-74-1
>formula C28H39N3O2
>ionization [M+H]+
>parentmass 450.3115039400906
#inchi InChI=1S/C28H39N3O2/c1-7-17-30-19-22(5)31(20-21(30)4)27(25-11-10-12-26(18-25)33-6)23-13-15-24(16-14-23)28(32)29(8-2)9-3/h7,10-16,18,21-22,27H,1,8-9,17,19-20H2,2-6H3/t21-,22+,27?/m0/s1
#inchikey KQWVAUSXZDRQPZ
#Ion_Source LC-ESI
#Instrument qTof
#Compound_Source NIH Pharmacologically Active Library
#PI Dorrestein
#Data_Collector VP/LMS
#Scan -1
#Precursor_MZ 450.316
#ExactMass 449.304
#Charge 1
#CAS_Number N/A
#Pubmed_ID N/A
#Smiles CCN(CC)C(=O)c1ccc(cc1)C(N2C[C@H](C)N(CC=C)C[C@H]2C)c3cccc(OC)c3
#INCHI_AUX N/A
#Library_Class 1
#SpectrumID CCMSLIB00000085438
#IonMode Positive
#UpdateWorkflowName UPDATE-SINGLE-ANNOTATED-GOLD
#LibraryQualityString Gold
#TaskID d252d724072548979f1f6f1ced849daf
##Scan# 1815
#SpectrumFile p4-A10_GA10_01_18334.mzXML
#LibraryName Pharm_Active_Library.mgf
#MQScore -1
#Organism Pharm_Active_Library
#TIC_Query 0
#RT_Query -1
#MZErrorPPM -1
#SharedPeaks 0
#MassDiff 0
#LibMZ -1
#SpecMZ 450.316
#SpecCharge 0
#internalFilename spec-00000.mgf

>collision 10
44.889591 132.0
44.898926 168.0
44.909458 196.0
44.925602 180.0
44.941612 128.0
44.954956 124.0
44.980312 120.0
44.993664 192.0
45.031017 148.0
45.039642 148.0
45.068233 168.0
45.135246 128.0
45.180763 172.0
45.203506 108.0
45.238922 148.0
45.25705 128.0
45.269867 112.0
45.278183 292.0
45.294701 176.0
45.306736 204.0
45.312439 180.0
45.330723 132.0
45.362888 132.0
45.373611 152.0
45.394924 192.0
45.458115 88.0
45.490326 160.0
45.510464 148.0
45.525234 100.0
45.58036 136.0
45.596436 356.0
45.642139 172.0
45.668983 204.0
45.697289 220.0
45.717472 124.0
45.737659 128.0
45.763783 200.0
45.77401 124.0
45.806332 116.0
45.822498 128.0
45.844055 128.0
45.879101 144.0
45.891235 248.0
45.915508 152.0
45.928921 148.0
45.964901 140.0
45.987686 208.0
46.008003 200.0
46.057701 136.0
46.110764 128.0
46.15588 208.0
46.211334 168.0
46.226803 132.0
46.260056 252.0
46.356411 196.0
46.371593 196.0
46.387554 100.0
46.403893 300.0
46.475544 128.0
46.494541 80.0
46.576004 76.0
46.599098 124.0
46.611126 188.0
46.635788 144.0
46.665695 160.0
46.705132 216.0
46.732029 176.0
46.745949 188.0
46.764153 148.0
46.77861 148.0
46.801754 112.0
46.823544 304.0
46.856236 148.0
46.96529 52.0
46.986469 156.0
47.002937 160.0
47.047848 144.0
47.074471 252.0
47.089493 32.0
47.108616 96.0
47.118179 104.0
47.128605 308.0
47.142773 168.0
47.159172 100.0
47.186512 148.0
47.215714 268.0
47.23164 112.0
47.260166 320.0
47.285133 252.0
47.317856 84.0
47.405518 160.0
47.435669 188.0
47.445881 156.0
47.466076 112.0
47.496529 52.0
47.51667 188.0
47.541279 64.0
47.567513 176.0
47.60717 180.0
47.619205 152.0
47.651127 180.0
47.685478 204.0
47.707474 76.0
47.736347 120.0
47.745972 140.0
47.781734 100.0
47.822044 192.0
47.881893 168.0
47.906982 176.0
47.93457 100.0
47.957077 164.0
47.97316 180.0
47.991081 144.0
48.014526 80.0
48.024773 164.0
48.040733 192.0
48.055725 244.0
48.081352 148.0
48.090408 164.0
48.111328 180.0
48.126301 112.0
48.140179 156.0
48.159443 112.0
48.175053 212.0
48.191216 140.0
48.271385 84.0
48.283245 160.0
48.341488 260.0
48.364632 168.0
48.409763 136.0
48.448547 132.0
48.467155 168.0
48.498432 156.0
48.527454 184.0
48.544182 132.0
48.574696 116.0
48.592731 208.0
48.614433 168.0
48.638855 168.0
48.652405 192.0
48.663422 120.0
48.68573 132.0
48.739906 48.0
48.773815 220.0
48.803844 104.0
48.834438 132.0
48.846954 148.0
48.859127 224.0
48.877563 156.0
48.898895 352.0
48.924 176.0
48.976406 140.0
48.988945 128.0
49.037712 112.0
49.063908 192.0
49.10603 204.0
49.139507 160.0
49.168812 184.0
49.230236 104.0
49.264496 156.0
49.285553 200.0
49.298691 148.0
49.313732 204.0
49.338837 224.0
49.37418 72.0
49.385368 108.0
49.401833 140.0
49.430138 280.0
49.444168 148.0
49.499016 212.0
49.528393 240.0
49.571568 100.0
49.598663 84.0
49.626232 156.0
49.637451 64.0
49.65007 132.0
49.680931 108.0
49.700573 188.0
49.756714 152.0
49.769348 176.0
49.797436 168.0
49.812885 148.0
49.838268 184.0
49.871902 176.0
49.952446 156.0
49.968372 232.0
49.998482 144.0
50.018185 164.0
50.030624 148.0
50.046341 164.0
50.091408 208.0
50.109722 172.0
50.122402 140.0
50.142132 124.0
50.167252 224.0
50.188503 152.0
50.206982 196.0
50.228138 176.0
50.259174 112.0
50.269051 140.0
50.278931 164.0
50.321278 160.0
50.343868 28.0
50.408852 296.0
50.493671 112.0
50.521961 92.0
50.537907 148.0
50.578312 112.0
50.595551 132.0
50.60688 128.0
50.643612 132.0
50.655029 148.0
50.682114 136.0
50.711708 128.0
50.73864 132.0
50.772724 156.0
50.79612 180.0
50.825375 180.0
50.854958 120.0
50.869152 116.0
50.883678 172.0
50.921253 196.0
50.961464 104.0
50.978516 100.0
50.998413 116.0
51.040863 384.0
51.112183 288.0
51.138496 112.0
51.181927 348.0
51.206139 52.0
51.228928 256.0
51.248871 76.0
51.261696 96.0
51.277374 84.0
51.300179 104.0
51.334682 124.0
51.357216 92.0
51.430401 208.0
51.459961 276.0
51.511375 172.0
51.555668 52.0
51.588539 156.0
51.604267 152.0
51.618565 172.0
51.640015 208.0
51.652889 172.0
51.771545 208.0
51.804626 164.0
51.929581 184.0
51.946541 88.0
51.956585 288.0
51.978104 292.0
52.003937 200.0
52.04126 92.0
52.055618 148.0
52.080193 144.0
52.108765 184.0
52.12888 112.0
52.160648 192.0
52.174873 168.0
52.186375 144.0
52.206509 144.0
52.223766 124.0
52.27124 144.0
52.289898 116.0
52.308659 196.0
52.346092 172.0
52.370335 152.0
52.428204 100.0
52.451042 156.0
52.491634 136.0
52.514011 116.0
52.54137 132.0
52.585777 208.0
52.607056 96.0
52.644596 120.0
52.67926 124.0
52.703819 144.0
52.719715 116.0
52.767414 208.0
52.781906 172.0
52.847668 172.0
52.867218 164.0
52.930325 148.0
52.964222 168.0
52.975174 228.0
52.996094 52.0
53.012032 96.0
53.026524 56.0
53.042469 92.0
53.055515 88.0
53.075813 184.0
53.101433 156.0
53.135281 52.0
53.174458 352.0
53.190426 124.0
53.209297 132.0
53.238335 148.0
53.254311 144.0
53.29063 56.0
53.305115 132.0
53.33046 156.0
53.354576 144.0
53.38802 100.0
53.41003 148.0
53.452026 148.0
53.473854 32.0
53.501511 68.0
53.514614 136.0
53.542282 176.0
53.563354 296.0
53.57481 132.0
53.612209 96.0
53.624908 168.0
53.686352 144.0
53.711349 180.0
53.723019 144.0
53.737339 152.0
53.747822 116.0
53.783794 208.0
53.837284 168.0
53.855854 236.0
53.87632 196.0
53.89822 128.0
53.928909 204.0
53.942062 188.0
53.956642 152.0
53.961185 148.0
54.022491 368.0
54.056141 92.0
54.102345 148.0
54.139584 76.0
54.18924 160.0
54.208435 60.0
54.230812 148.0
54.268532 148.0
54.312527 132.0
54.363876 140.0
54.38736 244.0
54.404972 132.0
54.421124 184.0
54.472523 116.0
54.516602 88.0
54.554817 252.0
54.571667 104.0
54.598927 120.0
54.618046 172.0
54.638641 136.0
54.663654 232.0
54.688522 156.0
54.709282 68.0
54.719585 180.0
54.762936 256.0
54.818272 224.0
54.840813 176.0
54.860474 152.0
54.887554 156.0
54.902302 64.0
54.914013 136.0
54.970158 124.0
55.002628 160.0
55.026249 180.0
55.045441 120.0
55.067593 164.0
55.077934 152.0
55.091228 124.0
55.120777 48.0
55.142944 96.0
55.162159 232.0
55.173985 92.0
55.207993 196.0
55.230179 108.0
55.247929 256.0
55.258286 192.0
55.277519 48.0
55.304157 68.0
55.327843 136.0
55.343937 184.0
55.38715 136.0
55.438984 116.0
55.46059 200.0
55.507122 296.0
55.532333 60.0
55.552395 124.0
55.576195 260.0
55.61451 124.0
55.646595 124.0
55.674809 156.0
55.739735 164.0
55.756516 180.0
55.786243 84.0
55.805569 120.0
55.821926 76.0
55.842747 136.0
55.880424 188.0
55.936783 140.0
55.952534 200.0
55.981152 108.0
56.010483 380.0
56.024345 132.0
56.042934 360.0
56.078732 108.0
56.109291 192.0
56.131657 172.0
56.173416 120.0
56.202541 188.0
56.218174 196.0
56.246578 148.0
56.29879 60.0
56.32119 156.0
56.345093 180.0
56.368221 164.0
56.385761 148.0
56.442242 208.0
56.454479 196.0
56.481125 200.0
56.491596 188.0
56.510521 160.0
56.536484 128.0
56.566418 148.0
56.581387 204.0
56.603848 284.0
56.641289 144.0
56.664612 204.0
56.681095 196.0
56.699722 260.0
56.719208 196.0
56.729698 304.0
56.741692 156.0
56.752731 148.0
56.772449 172.0
56.81218 188.0
56.828346 144.0
56.840683 120.0
56.878887 132.0
56.921307 124.0
56.933754 128.0
56.950275 164.0
56.982445 152.0
56.999851 164.0
57.011875 332.0
57.025398 144.0
57.108604 188.0
57.187725 180.0
57.209915 200.0
57.222786 220.0
57.257092 188.0
57.321869 124.0
57.362564 196.0
57.374622 156.0
57.44532 168.0
57.462093 120.0
57.472656 76.0
57.484726 244.0
57.52058 192.0
57.600132 192.0
57.614574 100.0
57.67934 196.0
57.703709 220.0
57.79298 116.0
57.812649 88.0
57.835957 160.0
57.864113 140.0
57.900867 44.0
57.912067 240.0
57.980995 124.0
58.018642 196.0
58.034309 180.0
58.080814 128.0
58.102055 156.0
58.124813 144.0
58.167305 172.0
58.185524 204.0
58.217411 76.0
58.231079 148.0
58.247498 148.0
58.294884 132.0
58.329842 148.0
58.344742 204.0
58.359394 148.0
58.391476 260.0
58.413475 220.0
58.42548 148.0
58.451508 204.0
58.465824 140.0
58.51347 192.0
58.527615 136.0
58.583965 52.0
58.640347 172.0
58.67474 256.0
58.757141 168.0
58.791328 156.0
58.835594 180.0
58.848354 156.0
58.881401 156.0
58.902782 152.0
58.928753 200.0
58.983768 200.0
58.999622 156.0
59.015873 112.0
59.038811 152.0
59.052574 168.0
59.095409 136.0
59.11224 184.0
59.142849 68.0
59.183659 328.0
59.200294 180.0
59.282215 116.0
59.302235 128.0
59.315933 188.0
59.328197 84.0
59.361927 164.0
59.430954 228.0
59.444763 176.0
59.467785 92.0
59.481422 140.0
59.507698 88.0
59.552231 160.0
59.572197 76.0
59.585522 184.0
59.666431 200.0
59.686192 188.0
59.710533 140.0
59.752064 160.0
59.778954 160.0
59.783566 76.0
59.789558 120.0
59.802845 172.0
59.815159 176.0
59.838249 160.0
59.84903 144.0
59.910633 112.0
59.941498 240.0
59.976894 116.0
60.037022 140.0
60.052444 300.0
60.16972 124.0
60.202145 140.0
60.225571 120.0
60.228836 200.0
60.274151 152.0
60.290203 160.0
60.311672 176.0
60.342758 108.0
60.379868 184.0
60.42823 288.0
60.495914 252.0
60.529091 140.0
60.560291 152.0
60.582634 104.0
60.632511 176.0
60.667557 160.0
60.694225 152.0
60.711781 212.0
60.738335 136.0
60.7509 140.0
60.768673 156.0
60.860249 60.0
60.877331 188.0
60.897518 120.0
60.913052 68.0
60.950336 108.0
60.97831 124.0
60.992298 184.0
61.038937 68.0
61.068062 176.0
61.102707 160.0
61.149391 112.0
61.163399 48.0
61.216331 148.0
61.251579 192.0
61.277081 72.0
61.297688 176.0
61.311359 148.0
61.33168 156.0
61.355003 96.0
61.367477 156.0
61.390865 148.0
61.40958 192.0
61.420498 112.0
61.445457 108.0
61.46574 140.0
61.522709 320.0
61.534256 156.0
61.559399 68.0
61.585949 268.0
61.626568 172.0
61.651569 212.0
61.716473 196.0
61.754753 192.0
61.784473 192.0
61.797729 156.0
61.807941 236.0
61.834545 148.0
61.859589 220.0
61.896477 192.0
61.902336 276.0
61.915955 104.0
61.94519 132.0
61.992718 108.0
62.064999 144.0
62.105068 188.0
62.116577 68.0
62.139977 144.0
62.168354 128.0
62.182476 144.0
62.201313 152.0
62.231297 80.0
62.248539 100.0
62.330093 100.0
62.360607 168.0
62.372528 148.0
62.402397 132.0
62.422176 124.0
62.462154 228.0
62.493618 184.0
62.52037 208.0
62.537682 48.0
62.551846 120.0
62.57431 208.0
62.595928 160.0
62.668385 92.0
62.68462 136.0
62.710934 100.0
62.726696 80.0
62.740314 232.0
62.781879 148.0
62.798027 168.0
62.816578 44.0
62.871799 132.0
62.886005 80.0
62.914417 120.0
62.931068 160.0
62.952312 208.0
62.97044 100.0
63.022839 216.0
63.039192 112.0
63.074287 196.0
63.094513 152.0
63.105583 104.0
63.132755 180.0
63.195736 156.0
63.240044 192.0
63.286942 96.0
63.305611 164.0
63.342964 152.0
63.355637 132.0
63.376232 156.0
63.388908 168.0
63.433285 144.0
63.458652 132.0
63.488449 96.0
63.525665 156.0
63.545883 108.0
63.558472 120.0
63.570213 196.0
63.65699 100.0
63.68399 76.0
63.709404 48.0
63.739594 92.0
63.753895 40.0
63.774788 136.0
63.79681 104.0
63.83939 312.0
63.95977 180.0
63.973743 144.0
63.991165 144.0
64.013191 160.0
64.043449 44.0
64.069389 168.0
64.102394 96.0
64.118332 124.0
64.150803 156.0
64.191666 200.0
64.2108 104.0
64.225159 180.0
64.237465 156.0
64.270103 184.0
64.287376 128.0
64.301743 236.0
64.334885 172.0
64.373581 116.0
64.395935 108.0
64.45591 200.0
64.48381 84.0
64.504616 232.0
64.565079 144.0
64.568108 120.0
64.577003 132.0
64.593689 128.0
64.613335 84.0
64.637329 152.0
64.654938 152.0
64.66774 140.0
64.694946 144.0
64.768608 116.0
64.783737 144.0
64.802254 120.0
64.813469 160.0
64.824684 184.0
64.860817 184.0
64.888802 128.0
64.927284 128.0
64.948135 120.0
64.96257 100.0
65.00589 140.0
65.031563 204.0
65.057251 104.0
65.097221 116.0
65.124687 188.0
65.145569 116.0
65.158424 132.0
65.184128 172.0
65.233955 184.0
65.247559 268.0
65.274902 216.0
65.29258 216.0
65.325615 152.0
65.428604 108.0
65.43988 160.0
65.460808 180.0
65.477516 204.0
65.618713 224.0
65.629997 316.0
65.678383 68.0
65.692902 176.0
65.720322 192.0
65.740959 132.0
65.761902 336.0
65.788109 136.0
65.826408 216.0
65.842117 108.0
65.880157 188.0
65.891464 164.0
65.914085 168.0
65.927017 128.0
65.938324 112.0
65.959335 212.0
65.987015 196.0
66.032722 296.0
66.073616 180.0
66.090187 176.0
66.121078 184.0
66.193924 92.0
66.210121 152.0
66.253853 108.0
66.284393 160.0
66.323082 192.0
66.334198 324.0
66.3592 124.0
66.40136 164.0
66.42569 72.0
66.446777 136.0
66.471115 112.0
66.487343 160.0
66.524673 112.0
66.609886 188.0
66.685486 164.0
66.704193 304.0
66.739128 192.0
66.764175 168.0
66.784271 100.0
66.8237 132.0
66.929497 172.0
66.953926 176.0
67.061455 160.0
67.082642 128.0
67.13372 244.0
67.209854 152.0
67.232697 132.0
67.276772 120.0
67.289238 308.0
67.364952 204.0
67.387825 108.0
67.418755 220.0
67.432907 188.0
67.488419 156.0
67.508446 216.0
67.536583 216.0
67.55294 64.0
67.614418 196.0
67.632301 152.0
67.651123 128.0
67.667496 228.0
67.681641 288.0
67.706795 156.0
67.744469 156.0
67.767403 80.0
67.782867 160.0
67.82148 132.0
67.842499 192.0
67.871063 280.0
67.911659 220.0
67.932762 272.0
68.01667 180.0
68.036369 152.0
68.047867 136.0
68.080704 116.0
68.111908 120.0
68.144768 44.0
68.169083 140.0
68.195534 152.0
68.258179 180.0
68.290466 180.0
68.327911 384.0
68.401932 160.0
68.415558 244.0
68.461494 196.0
68.486931 152.0
68.535042 80.0
68.556267 188.0
68.578217 140.0
68.627007 156.0
68.650909 252.0
68.702873 148.0
68.720825 132.0
68.747917 120.0
68.773254 172.0
68.805191 132.0
68.820053 156.0
68.881683 176.0
68.893486 104.0
68.905937 136.0
68.95047 84.0
69.022644 164.0
69.058014 272.0
69.074081 168.0
69.125336 180.0
69.148132 224.0
69.160599 232.0
69.177155 184.0
69.192055 144.0
69.206955 356.0
69.25663 156.0
69.26915 140.0
69.279823 168.0
69.29805 212.0
69.311302 196.0
69.359879 188.0
69.443924 88.0
69.46476 192.0
69.538498 172.0
69.554222 84.0
69.60231 188.0
69.619446 200.0
69.633911 204.0
69.654823 132.0
69.67466 200.0
69.702904 108.0
69.744606 172.0
69.777695 96.0
69.79599 60.0
69.819267 80.0
69.847542 40.0
69.862511 152.0
69.88913 120.0
69.94738 84.0
69.95903 164.0
69.988998 128.0
70.028969 108.0
70.045624 224.0
70.067284 132.0
70.083939 132.0
70.122269 112.0
70.145607 204.0
70.16394 140.0
70.200623 208.0
70.213966 176.0
70.254105 184.0
70.286224 164.0
70.298386 132.0
70.309975 184.0
70.335556 160.0
70.346626 212.0
70.382507 64.0
70.395866 144.0
70.43428 160.0
70.450981 100.0
70.467293 220.0
70.480911 184.0
70.501106 296.0
70.516151 88.0
70.556091 188.0
70.572983 196.0
70.675011 172.0
70.71183 112.0
70.753677 60.0
70.775444 180.0
70.812286 124.0
70.853386 196.0
70.899399 104.0
70.911133 60.0
70.949684 92.0
70.963097 160.0
70.986572 116.0
71.00502 228.0
71.036888 52.0
71.156357 192.0
71.191299 64.0
71.24128 116.0
71.247643 88.0
71.265213 108.0
71.280334 144.0
71.320663 120.0
71.361008 328.0
71.384552 280.0
71.401367 236.0
71.426346 160.0
71.455193 272.0
71.483253 148.0
71.505676 188.0
71.551125 136.0
71.56459 176.0
71.630447 148.0
71.680817 180.0
71.812309 120.0
71.839302 176.0
71.851112 192.0
71.891602 176.0
71.906792 48.0
71.94899 276.0
71.967567 172.0
71.987823 108.0
71.999649 108.0
72.046745 476.0
72.0513 248.0
72.080734 40.0
72.099319 196.0
72.118774 188.0
72.144958 344.0
72.156792 112.0
72.188919 196.0
72.209213 192.0
72.252922 152.0
72.273499 156.0
72.285339 132.0
72.321625 136.0
72.347473 180.0
72.381828 124.0
72.397064 196.0
72.429245 128.0
72.448776 144.0
72.462639 180.0
72.503792 156.0
72.538773 188.0
72.566513 124.0
72.590248 348.0
72.603424 120.0
72.695305 168.0
72.739548 160.0
72.754829 200.0
72.78199 180.0
72.797272 136.0
72.885605 156.0
72.95359 164.0
73.007889 180.0
73.014603 172.0
73.043716 144.0
73.062424 164.0
73.093048 108.0
73.133896 104.0
73.150917 180.0
73.276939 116.0
73.295677 96.0
73.309067 140.0
73.329704 124.0
73.343399 160.0
73.406479 124.0
73.430313 180.0
73.48365 180.0
73.533043 168.0
73.551491 144.0
73.572121 144.0
73.601006 152.0
73.613647 188.0
73.631744 168.0
73.645401 160.0
73.659073 164.0
73.679565 176.0
73.693237 144.0
73.718864 140.0
73.739372 100.0
73.754761 144.0
73.829811 144.0
73.852219 120.0
73.881294 128.0
73.909225 172.0
73.925781 148.0
73.956589 228.0
73.982712 92.0
74.049042 68.0
74.153648 148.0
74.187836 48.0
74.21698 324.0
74.273575 84.0
74.289207 176.0
74.327477 192.0
74.378906 212.0
74.446922 224.0
74.462372 156.0
74.493591 184.0
74.517342 432.0
74.532806 216.0
74.584366 132.0
74.619278 156.0
74.677269 232.0
74.744743 140.0
74.781181 112.0
74.797653 200.0
74.82692 120.0
74.844872 160.0
74.876076 204.0
74.904411 288.0
74.928535 132.0
74.978096 152.0
74.993477 116.0
75.034126 148.0
75.053421 244.0
75.078156 184.0
75.093681 144.0
75.138863 124.0
75.169922 64.0
75.210533 180.0
75.224472 264.0
75.23896 104.0
75.254501 140.0
75.271767 172.0
75.297668 140.0
75.318398 140.0
75.339211 156.0
75.354675 32.0
75.380592 132.0
75.435898 360.0
75.456642 68.0
75.49987 124.0
75.513702 128.0
75.54657 132.0
75.59417 156.0
75.678047 164.0
75.708839 144.0
75.735245 124.0
75.749107 160.0
75.76123 76.0
75.782669 128.0
75.805725 192.0
75.813904 80.0
75.820915 144.0
75.851341 60.0
75.916199 180.0
75.931099 180.0
75.957756 136.0
76.02478 332.0
76.036926 224.0
76.059494 100.0
76.089005 80.0
76.113312 132.0
76.146461 176.0
76.177567 120.0
76.234901 152.0
76.24881 124.0
76.285561 164.0
76.314941 176.0
76.337463 128.0
76.408783 96.0
76.422699 104.0
76.456703 160.0
76.476646 92.0
76.49057 132.0
76.50798 192.0
76.542801 192.0
76.563156 168.0
76.605309 144.0
76.611816 128.0
76.643066 220.0
76.657768 204.0
76.676933 164.0
76.694366 140.0
76.713539 152.0
76.760612 132.0
76.791672 168.0
76.807701 184.0
76.832375 84.0
76.889709 200.0
76.912399 164.0
76.938583 64.0
76.956535 220.0
76.982231 144.0
76.999695 180.0
77.014343 124.0
77.062576 140.0
77.07933 184.0
77.095779 140.0
77.113258 76.0
77.155205 136.0
77.174438 156.0
77.218155 96.0
77.233902 72.0
77.29863 160.0
77.34063 160.0
77.39315 168.0
77.416801 196.0
77.433563 204.0
77.470207 96.0
77.484222 104.0
77.504143 152.0
77.521019 132.0
77.535042 212.0
77.593544 244.0
77.640228 108.0
77.654259 112.0
77.670044 212.0
77.68232 160.0
77.698952 164.0
77.717621 132.0
77.760384 172.0
77.813942 196.0
77.847305 184.0
77.861351 104.0
77.884186 84.0
77.896484 204.0
77.912292 92.0
77.93689 164.0
77.95108 180.0
77.973793 168.0
78.007187 120.0
78.035316 120.0
78.052895 148.0
78.084938 172.0
78.116776 236.0
78.132042 204.0
78.17955 188.0
78.193871 116.0
78.223549 100.0
78.27813 120.0
78.298668 200.0
78.37149 172.0
78.396156 116.0
78.41938 180.0
78.440659 192.0
78.46666 176.0
78.514374 132.0
78.528381 152.0
78.546021 120.0
78.579353 116.0
78.670776 200.0
78.69249 152.0
78.717209 148.0
78.752533 196.0
78.768425 156.0
78.784325 108.0
78.812592 168.0
78.828499 176.0
78.844398 172.0
78.861458 164.0
78.922989 96.0
78.95472 148.0
78.976311 236.0
79.051308 256.0
79.078522 164.0
79.095551 88.0
79.127419 160.0
79.140091 188.0
79.167549 356.0
79.184952 212.0
79.215302 148.0
79.243172 156.0
79.321899 148.0
79.347107 92.0
79.371925 144.0
79.389778 180.0
79.436684 156.0
79.535141 220.0
79.553307 104.0
79.575974 156.0
79.593643 172.0
79.628487 156.0
79.647003 176.0
79.700302 88.0
79.729286 192.0
79.801613 92.0
79.870964 144.0
79.885201 164.0
79.914436 140.0
79.949249 168.0
79.974548 204.0
79.990189 152.0
80.031136 284.0
80.047157 88.0
80.059624 140.0
80.102371 200.0
80.118492 164.0
80.173447 156.0
80.228889 168.0
80.3853 144.0
80.431778 240.0
80.487221 116.0
80.547806 168.0
80.65374 144.0
80.674438 204.0
80.688652 164.0
80.741348 148.0
80.770584 172.0
80.791428 124.0
80.850471 80.0
80.871948 124.0
80.888779 144.0
80.914909 80.0
80.971588 156.0
81.00087 188.0
81.057671 108.0
81.152756 172.0
81.17292 112.0
81.210587 148.0
81.251472 180.0
81.265167 188.0
81.296387 168.0
81.354134 196.0
81.369347 152.0
81.401009 184.0
81.44706 144.0
81.472656 148.0
81.519371 92.0
81.5942 140.0
81.616234 144.0
81.675789 44.0
81.75135 232.0
81.77475 244.0
81.795258 312.0
81.836838 148.0
81.866562 140.0
81.910706 124.0
81.935005 160.0
81.964592 88.0
82.008888 132.0
82.043137 132.0
82.073441 124.0
82.09903 164.0
82.117065 172.0
82.14328 168.0
82.193954 148.0
82.230263 260.0
82.261414 136.0
82.283081 136.0
82.306801 204.0
82.353508 124.0
82.369759 112.0
82.382408 240.0
82.423294 184.0
82.444832 204.0
82.487213 228.0
82.538277 164.0
82.564964 52.0
82.584854 96.0
82.602943 204.0
82.621262 188.0
82.653603 256.0
82.738266 180.0
82.756035 108.0
82.798416 88.0
82.816528 120.0
82.847076 148.0
82.876312 188.0
82.899872 132.0
82.92643 84.0
82.945175 176.0
82.963615 180.0
82.985062 212.0
83.016548 316.0
83.068481 120.0
83.082993 164.0
83.112656 172.0
83.118675 192.0
83.133621 40.0
83.140572 148.0
83.179176 220.0
83.200958 32.0
83.242714 84.0
83.275406 100.0
83.309555 240.0
83.354347 184.0
83.411682 152.0
83.429855 204.0
83.455315 108.0
83.506226 200.0
83.533516 124.0
83.549881 116.0
83.573662 232.0
83.630524 204.0
83.659073 144.0
83.6791 140.0
83.697304 108.0
83.722801 44.0
83.737373 120.0
83.757179 192.0
83.784729 160.0
83.819351 172.0
83.848503 64.0
83.863083 220.0
83.875847 180.0
83.888603 196.0
83.926888 244.0
84.014435 252.0
84.065521 168.0
84.081947 140.0
84.109322 128.0
84.127579 96.0
84.158615 88.0
84.19696 392.0
84.222527 88.0
84.238708 196.0
84.243713 168.0
84.297432 168.0
84.348557 148.0
84.388176 124.0
84.463806 136.0
84.496735 248.0
84.51503 124.0
84.533325 136.0
84.560448 176.0
84.579994 104.0
84.597389 140.0
84.634003 128.0
84.652313 176.0
84.690773 100.0
84.736572 200.0
84.774094 276.0
84.810829 184.0
84.830032 260.0
84.856674 240.0
84.874374 152.0
84.894203 188.0
84.910713 124.0
84.929054 64.0
84.945557 284.0
84.969406 164.0
85.011612 112.0
85.04348 164.0
85.046776 196.0
85.117157 88.0
85.176849 172.0
85.195213 208.0
85.221535 172.0
85.234924 300.0
85.255852 136.0
85.356956 160.0
85.384537 124.0
85.401093 80.0
85.422523 232.0
85.45076 108.0
85.476517 200.0
85.496758 140.0
85.513321 144.0
85.540932 248.0
85.558441 168.0
85.6101 240.0
85.634842 116.0
85.647736 72.0
85.694939 128.0
85.723267 120.0
85.744736 160.0
85.773026 132.0
85.802521 188.0
85.863373 136.0
85.882553 220.0
85.913902 264.0
85.93531 292.0
85.95192 128.0
85.998055 168.0
86.044205 120.0
86.062668 160.0
86.103294 148.0
86.125458 128.0
86.179031 188.0
86.192833 204.0
86.225227 108.0
86.267952 204.0
86.297318 144.0
86.330605 68.0
86.353935 188.0
86.386086 180.0
86.412102 132.0
86.450844 40.0
86.547104 208.0
86.562531 60.0
86.574875 104.0
86.593262 164.0
86.640778 180.0
86.665642 176.0
86.689728 308.0
86.713821 168.0
86.745331 120.0
86.761314 232.0
86.786118 160.0
86.830627 140.0
86.858444 132.0
86.919289 156.0
86.934509 192.0
86.947502 184.0
86.967918 180.0
86.97979 128.0
87.011559 220.0
87.033081 180.0
87.051353 136.0
87.079826 204.0
87.14991 100.0
87.168488 136.0
87.200081 168.0
87.218666 72.0
87.272583 136.0
87.302696 124.0
87.358902 208.0
87.38121 276.0
87.455574 152.0
87.472572 180.0
87.521912 120.0
87.546112 120.0
87.609444 88.0
87.648567 176.0
87.682114 208.0
87.711761 176.0
87.738029 140.0
87.779053 240.0
87.807022 76.0
87.834999 224.0
87.874176 312.0
87.928291 160.0
87.979828 148.0
88.051506 180.0
88.07579 180.0
88.101944 116.0
88.12838 240.0
88.163597 124.0
88.176682 116.0
88.354317 144.0
88.431038 164.0
88.444984 184.0
88.457542 224.0
88.473389 128.0
88.577087 120.0
88.618065 168.0
88.652031 164.0
88.702629 96.0
88.76825 128.0
88.788879 204.0
88.839043 172.0
88.857903 216.0
88.90519 52.0
88.935219 76.0
88.970886 124.0
88.993416 228.0
89.044121 128.0
89.078117 160.0
89.109863 136.0
89.160599 272.0
89.180962 132.0
89.232094 108.0
89.262108 116.0
89.317627 176.0
89.331696 168.0
89.361801 152.0
89.418686 208.0
89.437073 108.0
89.4506 172.0
89.46843 160.0
89.52179 136.0
89.574532 104.0
89.597939 196.0
89.619743 120.0
89.640472 148.0
89.699539 164.0
89.757339 232.0
89.795052 136.0
89.821457 80.0
89.84787 136.0
89.872398 216.0
89.915802 136.0
89.936562 92.0
90.005829 156.0
90.023407 88.0
90.044182 84.0
90.07251 148.0
90.120758 200.0
90.14241 68.0
90.168793 100.0
90.187775 284.0
90.222412 148.0
90.303108 72.0
90.340004 176.0
90.3731 188.0
90.410942 156.0
90.454475 108.0
90.479088 128.0
90.507484 192.0
90.524529 268.0
90.541573 152.0
90.556717 144.0
90.575439 136.0
90.598396 180.0
90.647652 180.0
90.720795 176.0
90.755699 164.0
90.768974 152.0
90.808792 208.0
90.880882 60.0
90.900291 208.0
90.915886 224.0
90.981468 236.0
91.006149 168.0
91.058167 376.0
91.089714 160.0
91.106812 76.0
91.161911 272.0
91.194214 192.0
91.209793 124.0
91.303879 136.0
91.361084 148.0
91.392303 192.0
91.419106 112.0
91.450981 172.0
91.497986 156.0
91.523323 140.0
91.589973 152.0
91.694771 184.0
91.743217 344.0
91.777313 304.0
91.811066 224.0
91.826317 192.0
91.878128 208.0
91.898804 140.0
91.934837 136.0
91.954147 116.0
91.9897 204.0
92.017822 216.0
92.052719 208.0
92.103073 280.0
92.133217 164.0
92.15847 172.0
92.175667 116.0
92.192871 100.0
92.217712 164.0
92.277115 164.0
92.294182 200.0
92.327499 216.0
92.347725 164.0
92.363029 92.0
92.391891 128.0
92.445297 152.0
92.462517 160.0
92.483574 148.0
92.500801 128.0
92.548103 192.0
92.57164 216.0
92.600365 116.0
92.621429 76.0
92.63765 160.0
92.663948 208.0
92.757477 116.0
92.772812 160.0
92.80349 160.0
92.868004 220.0
92.87133 128.0
92.881989 120.0
92.976128 60.0
93.008759 64.0
93.027954 100.0
93.049072 212.0
93.068329 272.0
93.084259 228.0
93.102837 168.0
93.137405 228.0
93.220634 216.0
93.23539 172.0
93.276695 180.0
93.304588 168.0
93.318047 148.0
93.344963 140.0
93.385246 144.0
93.433441 136.0
93.45845 220.0
93.496613 164.0
93.548286 124.0
93.598961 300.0
93.616295 168.0
93.633629 228.0
93.66037 176.0
93.704895 88.0
93.737656 108.0
93.769196 120.0
93.785835 80.0
93.805107 96.0
93.836487 144.0
93.859093 32.0
93.882233 172.0
93.906822 176.0
93.976746 144.0
94.040131 180.0
94.063965 292.0
94.149155 240.0
94.177513 108.0
94.232407 144.0
94.260582 148.0
94.320496 64.0
94.359161 128.0
94.379074 160.0
94.436508 132.0
94.482674 88.0
94.510612 144.0
94.559761 204.0
94.576462 172.0
94.614227 192.0
94.651321 168.0
94.666809 128.0
94.709419 160.0
94.726852 168.0
94.750099 168.0
94.782784 184.0
94.815979 68.0
94.845055 84.0
94.860558 224.0
94.874695 220.0
94.912903 208.0
94.932297 144.0
94.95903 168.0
94.994362 64.0
95.033325 140.0
95.056252 204.0
95.088707 160.0
95.126312 164.0
95.186501 152.0
95.252785 252.0
95.271957 112.0
95.295273 364.0
95.318588 144.0
95.374947 152.0
95.396332 208.0
95.419823 140.0
95.450768 108.0
95.505219 176.0
95.53051 220.0
95.544128 152.0
95.567474 132.0
95.635582 144.0
95.666725 220.0
95.68148 176.0
95.752403 96.0
95.775772 148.0
95.861496 188.0
95.923859 64.0
95.964798 324.0
96.0233 268.0
96.047218 336.0
96.083694 380.0
96.118889 132.0
96.157143 272.0
96.183495 116.0
96.239456 104.0
96.271149 216.0
96.32193 308.0
96.352829 132.0
96.387154 200.0
96.423859 168.0
96.45871 188.0
96.480217 124.0
96.519318 200.0
96.54409 168.0
96.570168 160.0
96.591682 160.0
96.605377 160.0
96.63472 116.0
96.653328 212.0
96.687553 160.0
96.734528 112.0
96.761932 220.0
96.788933 152.0
96.816757 104.0
96.899025 100.0
96.912743 188.0
96.961731 124.0
96.983292 88.0
96.997009 136.0
97.026421 176.0
97.042099 156.0
97.076149 88.0
97.108643 180.0
97.159775 188.0
97.199013 196.0
97.262344 192.0
97.304832 180.0
97.32251 96.0
97.381493 164.0
97.426765 200.0
97.540222 172.0
97.650848 112.0
97.676414 132.0
97.71257 180.0
97.729538 248.0
97.776764 116.0
97.798805 80.0
97.838112 144.0
97.866989 148.0
97.898819 160.0
97.916542 132.0
97.942146 120.0
97.965782 196.0
98.005188 68.0
98.02095 192.0
98.070221 172.0
98.09198 208.0
98.115555 196.0
98.14119 44.0
98.181152 120.0
98.206261 120.0
98.298988 176.0
98.332535 220.0
98.352272 84.0
98.419395 164.0
98.459084 160.0
98.478638 180.0
98.492462 156.0
98.536552 328.0
98.548401 152.0
98.591248 216.0
98.609039 216.0
98.622871 112.0
98.654495 168.0
98.668335 100.0
98.682175 168.0
98.736328 124.0
98.763702 176.0
98.789742 172.0
98.840408 116.0
98.856102 176.0
98.888489 108.0
98.930283 88.0
98.955208 32.0
98.984581 144.0
99.000748 224.0
99.020554 140.0
99.072189 176.0
99.175095 136.0
99.192932 44.0
99.208794 120.0
99.227165 180.0
99.244392 184.0
99.293045 228.0
99.317856 208.0
99.355545 196.0
99.378754 160.0
99.409119 168.0
99.458733 164.0
99.495537 148.0
99.514313 136.0
99.540131 140.0
99.57576 140.0
99.603683 164.0
99.623543 184.0
99.637451 116.0
99.665268 180.0
99.683151 220.0
99.752716 116.0
99.80838 96.0
99.858276 132.0
99.90583 64.0
99.943634 268.0
99.98542 132.0
100.01033 124.0
100.022469 124.0
100.028679 180.0
100.04866 140.0
100.054291 60.0
100.077026 30172.0
100.10891 208.0
100.12677 80.0
100.145592 64.0
100.170677 180.0
100.238754 112.0
100.254829 128.0
100.280182 152.0
100.314064 56.0
100.33799 80.0
100.419334 124.0
100.434975 132.0
100.463631 56.0
100.495026 184.0
100.517494 84.0
100.549217 172.0
100.575371 112.0
100.599327 216.0
100.621284 152.0
100.640739 140.0
100.667206 144.0
100.714317 136.0
100.776367 160.0
100.803047 136.0
100.835159 116.0
100.850365 136.0
100.884842 160.0
100.932976 116.0
100.974968 108.0
101.042976 36.0
101.080231 1836.0
101.099007 176.0
101.151039 36.0
101.226593 192.0
101.2621 132.0
101.294212 104.0
101.363533 164.0
101.419952 240.0
101.444778 252.0
101.460037 208.0
101.474449 156.0
101.493622 160.0
101.521698 168.0
101.577858 124.0
101.601929 60.0
101.623993 148.0
101.675217 152.0
101.713333 124.0
101.766281 112.0
101.785339 160.0
101.842812 140.0
101.870537 164.0
101.891998 164.0
101.946587 220.0
101.994438 284.0
102.015823 116.0
102.0317 132.0
102.04731 388.0
102.082176 152.0
102.099594 92.0
102.122185 164.0
102.146324 212.0
102.170464 156.0
102.200012 140.0
102.273094 112.0
102.299255 188.0
102.387848 84.0
102.403961 136.0
102.430145 44.0
102.498642 152.0
102.565155 208.0
102.605469 104.0
102.686127 108.0
102.724449 220.0
102.749603 136.0
102.771446 144.0
102.80909 164.0
102.89975 148.0
102.962616 100.0
102.978775 128.0
103.015137 52.0
103.093933 160.0
103.109131 184.0
103.127083 148.0
103.161766 180.0
103.184891 72.0
103.253639 108.0
103.277908 56.0
103.3134 196.0
103.379066 120.0
103.404236 192.0
103.438774 112.0
103.4823 240.0
103.496468 212.0
103.526848 108.0
103.581528 104.0
103.597733 144.0
103.634201 80.0
103.662338 172.0
103.695297 132.0
103.714134 156.0
103.729454 104.0
103.749725 136.0
103.769997 112.0
103.82032 224.0
103.839653 80.0
103.843849 220.0
103.874969 168.0
103.893707 380.0
103.924141 204.0
103.938339 148.0
103.972839 112.0
103.989075 160.0
104.041855 84.0
104.077171 344.0
104.1054 216.0
104.122368 180.0
104.15963 172.0
104.17588 76.0
104.197342 192.0
104.253929 156.0
104.305931 164.0
104.326263 172.0
104.348625 128.0
104.440193 144.0
104.458168 180.0
104.486923 108.0
104.517441 152.0
104.533722 120.0
104.556618 176.0
104.590446 96.0
104.611893 132.0
104.686394 84.0
104.714905 192.0
104.764046 128.0
104.792313 140.0
104.81472 36.0
104.871788 212.0
104.898285 160.0
104.934982 144.0
104.951286 196.0
104.965561 328.0
105.026688 140.0
105.047142 124.0
105.069305 208.0
105.147118 128.0
105.178894 136.0
105.223701 68.0
105.249191 116.0
105.275734 52.0
105.294533 196.0
105.365097 180.0
105.3983 268.0
105.427429 124.0
105.471924 156.0
105.525017 152.0
105.572731 216.0
105.592499 124.0
105.632858 120.0
105.664825 112.0
105.679794 148.0
105.689056 160.0
105.754616 152.0
105.846252 108.0
105.876968 116.0
105.905647 192.0
105.926125 76.0
105.944565 192.0
105.960953 176.0
105.991684 196.0
106.032219 144.0
106.073662 160.0
106.114662 152.0
106.227547 96.0
106.261513 192.0
106.288216 156.0
106.31707 124.0
106.424591 144.0
106.50251 140.0
106.529213 144.0
106.588799 204.0
106.638115 84.0
106.671005 160.0
106.687447 172.0
106.718475 176.0
106.753242 208.0
106.784096 156.0
106.799316 160.0
106.825577 196.0
106.860207 232.0
106.905472 112.0
106.919876 92.0
106.975449 132.0
107.050667 156.0
107.07016 108.0
107.098091 392.0
107.166168 172.0
107.17466 44.0
107.185417 204.0
107.192757 196.0
107.216667 176.0
107.272087 32.0
107.368988 152.0
107.430954 100.0
107.455627 128.0
107.511162 140.0
107.558403 164.0
107.603508 92.0
107.665146 208.0
107.686821 144.0
107.730118 100.0
107.743668 200.0
107.792183 108.0
107.828331 164.0
107.883118 180.0
107.920334 276.0
107.990646 60.0
108.03669 260.0
108.066475 176.0
108.108566 172.0
108.21479 176.0
108.252136 124.0
108.331009 140.0
108.367401 164.0
108.388115 216.0
108.404694 120.0
108.500038 128.0
108.519699 116.0
108.566391 128.0
108.595421 116.0
108.612015 56.0
108.635094 128.0
108.66803 108.0
108.718269 148.0
108.734428 180.0
108.798225 180.0
108.821617 104.0
108.855598 164.0
108.88427 160.0
108.910912 200.0
109.024544 184.0
109.0709 104.0
109.127747 128.0
109.147827 144.0
109.1707 144.0
109.187332 184.0
109.230537 228.0
109.26638 112.0
109.366264 180.0
109.397484 172.0
109.42247 144.0
109.455696 188.0
109.463181 160.0
109.514091 68.0
109.539085 200.0
109.559921 148.0
109.583336 216.0
109.599503 76.0
109.664108 120.0
109.703712 136.0
109.737068 156.0
109.789192 176.0
109.867569 160.0
109.884148 192.0
109.91227 196.0
109.969498 208.0
110.05471 396.0
110.09903 188.0
110.145279 144.0
110.162804 116.0
110.212807 180.0
110.294701 164.0
110.36129 140.0
110.364235 136.0
110.419899 88.0
110.461731 68.0
110.505661 156.0
110.524574 172.0
110.548416 212.0
110.660538 136.0
110.675194 120.0
110.725967 164.0
110.760216 188.0
110.840668 96.0
110.855339 156.0
110.870667 256.0
110.906532 124.0
110.96212 140.0
111.010925 292.0
111.065804 332.0
111.092712 2068.0
111.133331 180.0
111.153107 100.0
111.186272 124.0
111.260437 152.0
111.281136 160.0
111.29567 152.0
111.324989 160.0
111.388245 100.0
111.440765 192.0
111.491554 116.0
111.600502 220.0
111.617317 140.0
111.655174 344.0
111.697235 172.0
111.745621 148.0
111.770874 56.0
111.78981 188.0
111.812958 160.0
111.834007 276.0
111.85482 144.0
111.95401 120.0
111.981895 148.0
112.017197 124.0
112.078049 276.0
112.097061 132.0
112.123375 152.0
112.140266 156.0
112.163002 168.0
112.268478 196.0
112.324593 212.0
112.357689 224.0
112.381912 120.0
112.403015 180.0
112.421898 164.0
112.464119 176.0
112.479691 136.0
112.535141 200.0
112.540573 188.0
112.549149 172.0
112.55674 116.0
112.561867 328.0
112.603561 108.0
112.654251 64.0
112.679604 184.0
112.759903 136.0
112.77681 60.0
112.863487 48.0
112.899429 172.0
112.926926 72.0
112.972839 232.0
113.007309 144.0
113.038971 104.0
113.081978 196.0
113.13736 132.0
113.168167 148.0
113.223221 140.0
113.242287 88.0
113.274979 156.0
113.321281 192.0
113.367836 312.0
113.39695 224.0
113.436905 136.0
113.475594 160.0
113.541115 180.0
113.566566 160.0
113.587776 180.0
113.630203 188.0
113.675819 136.0
113.721451 92.0
113.757538 84.0
113.785133 136.0
113.816978 176.0
113.853081 96.0
113.868935 228.0
113.891769 160.0
113.915733 184.0
113.976288 180.0
113.995407 144.0
114.018486 140.0
114.038445 196.0
114.076172 124.0
114.11657 144.0
114.14846 152.0
114.189224 120.0
114.243103 196.0
114.263313 144.0
114.288849 176.0
114.33992 168.0
114.37397 196.0
114.396172 160.0
114.423737 244.0
114.478294 188.0
114.503853 164.0
114.535797 48.0
114.635933 124.0
114.659966 136.0
114.68708 128.0
114.710091 172.0
114.736107 112.0
114.755295 224.0
114.782089 172.0
114.798256 164.0
114.893921 112.0
114.938728 236.0
114.953667 136.0
114.980049 176.0
115.019905 108.0
115.053207 816.0
115.075333 160.0
115.103088 200.0
115.127548 132.0
115.144913 280.0
115.16288 208.0
115.248337 168.0
115.270744 204.0
115.293205 360.0
115.359207 168.0
115.454063 148.0
115.483482 176.0
115.511292 140.0
115.53627 196.0
115.564774 140.0
115.599007 152.0
115.62204 220.0
115.708168 164.0
115.742424 188.0
115.785896 240.0
115.840942 144.0
115.855942 52.0
115.890221 192.0
115.9095 156.0
115.94593 156.0
116.008087 136.0
116.033813 156.0
116.066681 232.0
116.087418 148.0
116.115295 88.0
116.17939 132.0
116.220413 196.0
116.254745 184.0
116.299812 76.0
116.325569 148.0
116.340599 192.0
116.377403 112.0
116.439369 56.0
116.501656 248.0
116.515724 212.0
116.529694 152.0
116.552414 140.0
116.586555 180.0
116.641335 104.0
116.675728 156.0
116.701256 188.0
116.731583 164.0
116.763893 124.0
116.798302 168.0
116.861809 152.0
116.895477 180.0
116.943573 116.0
116.966141 128.0
117.002731 188.0
117.032875 212.0
117.070984 2160.0
117.110405 60.0
117.143219 204.0
117.208298 344.0
117.23967 156.0
117.261963 208.0
117.371162 140.0
117.422913 196.0
117.457428 188.0
117.491943 120.0
117.518028 176.0
117.550194 124.0
117.580406 88.0
117.642883 268.0
117.718353 120.0
117.725937 204.0
117.761765 120.0
117.904358 148.0
117.980003 196.0
118.016762 112.0
118.049194 164.0
118.071686 344.0
118.105423 180.0
118.205215 188.0
118.247116 156.0
118.25293 160.0
118.295845 240.0
118.336975 136.0
118.440475 212.0
118.469086 224.0
118.497246 64.0
118.520233 164.0
118.544914 124.0
118.594307 172.0
118.62944 128.0
118.648956 152.0
118.670631 60.0
118.685814 200.0
118.789909 92.0
118.828957 112.0
118.859337 232.0
118.900566 164.0
118.915756 68.0
118.94062 156.0
118.958603 152.0
118.998657 128.0
119.035156 112.0
119.068604 200.0
119.086967 184.0
119.150276 116.0
119.18721 76.0
119.213287 56.0
119.256752 136.0
119.315063 208.0
119.363274 132.0
119.385025 136.0
119.445923 108.0
119.4655 292.0
119.498962 188.0
119.545998 52.0
119.585175 108.0
119.662514 152.0
119.691566 124.0
119.72451 64.0
119.739754 64.0
119.776779 144.0
119.802917 128.0
119.839958 364.0
119.87809 200.0
119.928596 192.0
119.944023 244.0
119.959824 116.0
120.042671 120.0
120.06884 88.0
120.096611 256.0
120.115837 156.0
120.184456 72.0
120.215439 140.0
120.252106 180.0
120.286507 184.0
120.301407 252.0
120.322533 136.0
120.351311 224.0
120.385277 120.0
120.415123 96.0
120.444244 156.0
120.481377 180.0
120.554054 168.0
120.573151 208.0
120.603745 112.0
120.634346 188.0
120.673698 140.0
120.748047 128.0
120.813972 220.0
120.83773 132.0
120.871162 124.0
120.920486 132.0
120.938393 180.0
120.95372 120.0
120.987091 196.0
121.015015 184.0
121.065811 8084.0
121.115746 116.0
121.147926 168.0
121.227486 36.0
121.251396 184.0
121.286659 128.0
121.337074 40.0
121.363121 164.0
121.394081 220.0
121.418365 164.0
121.44014 76.0
121.45549 96.0
121.557976 112.0
121.615662 180.0
121.650322 188.0
121.698586 88.0
121.723434 156.0
121.79908 192.0
121.824265 160.0
121.911804 152.0
122.00531 236.0
122.065361 804.0
122.091248 120.0
122.128395 268.0
122.180405 216.0
122.220001 156.0
122.249786 192.0
122.303635 52.0
122.332245 212.0
122.347656 40.0
122.374077 148.0
122.402702 92.0
122.451454 196.0
122.468765 116.0
122.504013 104.0
122.543663 92.0
122.561295 196.0
122.627968 140.0
122.652252 204.0
122.750854 164.0
122.775116 72.0
122.810402 116.0
122.836868 132.0
122.876579 156.0
122.895844 108.0
122.92733 104.0
123.022232 184.0
123.076675 188.0
123.101715 140.0
123.122749 124.0
123.139259 104.0
123.176811 188.0
123.212151 172.0
123.234245 152.0
123.2696 92.0
123.28949 44.0
123.322639 144.0
123.374077 120.0
123.395592 108.0
123.411064 40.0
123.433174 148.0
123.458389 220.0
123.506157 84.0
123.543808 180.0
123.56102 144.0
123.62252 208.0
123.631981 124.0
123.639687 192.0
123.667679 96.0
123.700882 164.0
123.767296 128.0
123.798294 140.0
123.844803 212.0
123.863693 144.0
123.872086 76.0
123.879242 168.0
123.895752 184.0
123.91259 120.0
123.945381 180.0
123.954781 212.0
123.999893 52.0
124.076584 912.0
124.121819 132.0
124.156578 160.0
124.19632 180.0
124.219406 128.0
124.274864 200.0
124.297813 152.0
124.328667 132.0
124.354759 140.0
124.385826 152.0
124.405807 396.0
124.421349 116.0
124.494621 112.0
124.511528 176.0
124.520447 108.0
124.523949 136.0
124.55014 128.0
124.610123 208.0
124.650116 124.0
124.733337 144.0
124.76944 216.0
124.80349 124.0
124.836845 132.0
124.859085 112.0
124.874649 136.0
124.915085 152.0
124.950401 216.0
124.972527 168.0
125.021484 80.0
125.043739 160.0
125.084808 244.0
125.106064 164.0
125.132004 196.0
125.155045 72.0
125.18399 104.0
125.199577 100.0
125.21962 324.0
125.257484 160.0
125.276466 184.0
125.296867 124.0
125.32209 32.0
125.33992 156.0
125.355515 380.0
125.375572 152.0
125.421364 184.0
125.4422 152.0
125.450897 136.0
125.47142 164.0
125.511551 88.0
125.549461 196.0
125.595665 232.0
125.629059 180.0
125.674377 112.0
125.729248 176.0
125.78373 92.0
125.841255 140.0
125.873032 160.0
125.904289 152.0
125.946724 140.0
125.969643 108.0
125.991402 180.0
126.017128 348.0
126.042793 140.0
126.104469 100.0
126.120941 132.0
126.12841 128.0
126.132759 172.0
126.151978 164.0
126.181366 128.0
126.205963 136.0
126.241737 172.0
126.276756 176.0
126.30883 132.0
126.339516 184.0
126.378181 176.0
126.398323 216.0
126.437538 148.0
126.459732 132.0
126.49456 216.0
126.514702 44.0
126.536453 252.0
126.595306 108.0
126.615463 192.0
126.678177 136.0
126.700577 124.0
126.728004 200.0
126.79245 40.0
126.814857 180.0
126.844002 76.0
126.867043 128.0
126.926598 76.0
126.98526 124.0
127.006287 160.0
127.023384 128.0
127.043579 144.0
127.05928 168.0
127.108643 60.0
127.131081 140.0
127.151276 140.0
127.178207 152.0
127.21637 192.0
127.247803 84.0
127.268883 184.0
127.296707 200.0
127.332024 168.0
127.360085 140.0
127.391525 132.0
127.44368 132.0
127.506119 228.0
127.548828 224.0
127.658989 156.0
127.709381 196.0
127.766953 344.0
127.816452 96.0
127.897377 196.0
127.928978 152.0
127.955994 140.0
127.984818 200.0
128.028046 132.0
128.06282 648.0
128.093369 220.0
128.133911 124.0
128.165451 116.0
128.190247 28.0
128.2556 128.0
128.292709 156.0
128.336761 128.0
128.372833 116.0
128.405991 184.0
128.445007 248.0
128.484329 152.0
128.599304 320.0
128.616501 44.0
128.643372 172.0
128.651886 124.0
128.659317 136.0
128.687744 164.0
128.740662 204.0
128.806168 152.0
128.857285 160.0
128.88298 168.0
128.910095 60.0
128.986938 128.0
129.070145 388.0
129.104507 180.0
129.147476 112.0
129.186646 164.0
129.203369 180.0
129.242493 108.0
129.25972 268.0
129.285477 144.0
129.33075 152.0
129.35112 124.0
129.380554 156.0
129.432617 144.0
129.458801 168.0
129.505096 140.0
129.525986 160.0
129.554916 180.0
129.602509 276.0
129.653366 152.0
129.736221 132.0
129.772491 72.0
129.788361 168.0
129.829178 48.0
129.849594 148.0
129.881348 208.0
129.954102 168.0
129.972092 128.0
129.997055 88.0
130.022018 136.0
130.046127 276.0
130.062866 100.0
130.08902 156.0
130.117355 204.0
130.144531 156.0
130.171844 88.0
130.190002 132.0
130.229202 204.0
130.287674 76.0
130.328568 120.0
130.360565 100.0
130.41832 148.0
130.467209 72.0
130.533142 208.0
130.567261 100.0
130.6082 128.0
130.628662 188.0
130.654465 188.0
130.683258 176.0
130.733322 144.0
130.760635 136.0
130.806152 68.0
130.835297 160.0
130.894943 124.0
130.940491 120.0
131.017944 116.0
131.04953 192.0
131.090012 160.0
131.134155 228.0
131.156937 164.0
131.210678 84.0
131.275497 140.0
131.305145 180.0
131.32338 140.0
131.343369 244.0
131.375854 48.0
131.391815 108.0
131.439728 128.0
131.494507 100.0
131.575714 152.0
131.583038 196.0
131.613205 172.0
131.633759 100.0
131.654312 208.0
131.679428 92.0
131.702271 200.0
131.784515 112.0
131.818787 208.0
131.848495 208.0
131.894211 140.0
131.98378 136.0
132.012527 132.0
132.083984 180.0
132.10817 308.0
132.157196 148.0
132.197754 116.0
132.228806 220.0
132.264755 256.0
132.301376 124.0
132.326569 176.0
132.349457 144.0
132.388382 228.0
132.436478 116.0
132.454803 88.0
132.47084 112.0
132.518387 148.0
132.573944 64.0
132.594574 52.0
132.667435 188.0
132.716064 92.0
132.738068 208.0
132.781815 164.0
132.820251 212.0
132.844391 192.0
132.940857 124.0
132.978546 188.0
133.007416 104.0
133.023682 228.0
133.065033 396.0
133.135056 148.0
133.141312 88.0
133.174057 164.0
133.243942 180.0
133.260025 48.0
133.320831 140.0
133.34964 148.0
133.402512 160.0
133.425507 172.0
133.448868 208.0
133.519775 28.0
133.577271 60.0
133.595673 116.0
133.646286 176.0
133.667007 96.0
133.70842 100.0
133.738342 200.0
133.763062 152.0
133.77977 124.0
133.795898 156.0
133.830429 248.0
133.851151 176.0
133.899506 92.0
133.936356 72.0
133.993958 148.0
134.048065 188.0
134.07991 156.0
134.114883 308.0
134.143738 68.0
134.217514 128.0
134.273697 132.0
134.335144 112.0
134.362991 220.0
134.390503 172.0
134.456619 160.0
134.493286 120.0
134.526672 268.0
134.556686 300.0
134.61441 92.0
134.67215 152.0
134.70108 220.0
134.725266 124.0
134.785339 240.0
134.808563 164.0
134.868591 136.0
134.888992 156.0
134.91272 172.0
134.935577 124.0
134.967941 224.0
135.079224 136.0
135.116577 168.0
135.159927 144.0
135.176132 148.0
135.224731 100.0
135.287216 180.0
135.352219 116.0
135.382095 184.0
135.422195 320.0
135.448425 176.0
135.469467 308.0
135.495941 188.0
135.519745 200.0
135.537354 88.0
135.569794 152.0
135.592972 124.0
135.776917 204.0
135.849274 208.0
135.91066 160.0
135.932693 316.0
135.987244 104.0
136.003494 128.0
136.033661 176.0
136.061523 184.0
136.078445 220.0
136.096344 116.0
136.118591 276.0
136.165237 156.0
136.212738 180.0
136.26358 72.0
136.307724 136.0
136.365814 108.0
136.419617 140.0
136.465775 104.0
136.501694 180.0
136.533203 192.0
136.561111 188.0
136.582443 144.0
136.633224 192.0
136.683914 148.0
136.714035 148.0
136.764282 268.0
136.814758 80.0
136.924194 96.0
136.966736 148.0
136.992188 272.0
137.075607 128.0
137.105911 164.0
137.166504 344.0
137.201477 220.0
137.230606 144.0
137.235931 72.0
137.247452 128.0
137.250946 164.0
137.273743 196.0
137.297882 220.0
137.374832 164.0
137.4207 84.0
137.479782 212.0
137.496368 84.0
137.514999 176.0
137.556595 188.0
137.61441 140.0
137.639145 180.0
137.675125 192.0
137.703156 184.0
137.740524 104.0
137.775101 144.0
137.849045 88.0
137.883041 76.0
137.948486 140.0
137.992905 108.0
138.035004 152.0
138.090714 1628.0
138.113815 408.0
138.137909 116.0
138.165543 320.0
138.194611 232.0
138.219269 180.0
138.228546 140.0
138.258575 392.0
138.316147 344.0
138.363373 184.0
138.404709 156.0
138.449203 172.0
138.531174 128.0
138.573349 76.0
138.622543 196.0
138.649887 176.0
138.692856 148.0
138.720993 180.0
138.767868 160.0
138.80304 288.0
138.819855 312.0
138.871048 176.0
138.892166 132.0
138.924149 204.0
138.988144 420.0
139.029541 160.0
139.055099 372.0
139.072021 176.0
139.094101 464.0
139.118881 104.0
139.158752 232.0
139.192841 164.0
139.34758 100.0
139.382828 208.0
139.423843 132.0
139.428055 176.0
139.455673 176.0
139.514511 148.0
139.539993 156.0
139.562546 168.0
139.578964 368.0
139.60614 104.0
139.639069 236.0
139.676697 84.0
139.709625 144.0
139.882507 300.0
139.916229 172.0
139.943802 168.0
139.99678 124.0
140.02739 172.0
140.067078 392.0
140.131042 128.0
140.154602 160.0
140.184296 152.0
140.222946 88.0
140.241791 152.0
140.272446 140.0
140.31488 304.0
140.338455 148.0
140.38797 124.0
140.42334 132.0
140.524063 160.0
140.552536 172.0
140.593201 176.0
140.659164 152.0
140.668411 144.0
140.704147 156.0
140.752182 156.0
140.795181 140.0
140.869446 260.0
140.935608 148.0
140.960632 208.0
140.989944 112.0
141.070831 1260.0
141.136505 148.0
141.180084 108.0
141.197998 152.0
141.214554 192.0
141.233475 128.0
141.261856 136.0
141.306808 252.0
141.358856 140.0
141.382523 132.0
141.446426 96.0
141.472458 176.0
141.504379 140.0
141.524551 164.0
141.580399 152.0
141.638229 104.0
141.665314 164.0
141.686035 308.0
141.70929 156.0
141.7659 144.0
141.792236 92.0
141.892975 112.0
141.937088 168.0
141.967667 104.0
141.998795 128.0
142.021698 168.0
142.068954 436.0
142.100494 96.0
142.162659 240.0
142.185913 228.0
142.282303 204.0
142.385345 80.0
142.468475 148.0
142.50386 184.0
142.520737 260.0
142.54213 64.0
142.573013 80.0
142.596786 152.0
142.613419 204.0
142.656998 288.0
142.673691 224.0
142.70137 156.0
142.732788 168.0
142.763199 68.0
142.812592 192.0
142.851669 144.0
142.943054 244.0
143.022522 144.0
143.058426 144.0
143.085342 348.0
143.117752 152.0
143.155533 152.0
143.175919 140.0
143.213013 236.0
143.234436 388.0
143.251114 140.0
143.277328 168.0
143.310684 192.0
143.339417 188.0
143.360992 176.0
143.413666 224.0
143.431442 220.0
143.441559 148.0
143.444824 208.0
143.484665 132.0
143.565735 216.0
143.582428 132.0
143.622971 52.0
143.665909 56.0
143.692154 184.0
143.716003 136.0
143.742249 136.0
143.821014 196.0
143.84726 104.0
143.863983 148.0
143.940384 88.0
143.961868 112.0
144.062286 196.0
144.083679 136.0
144.144623 124.0
144.181656 168.0
144.200775 140.0
144.23587 140.0
144.272476 144.0
144.298782 104.0
144.390656 216.0
144.408783 144.0
144.427917 116.0
144.470963 148.0
144.518814 160.0
144.540344 192.0
144.557098 88.0
144.593002 64.0
144.652832 116.0
144.676773 264.0
144.724655 124.0
144.770157 168.0
144.806076 112.0
144.868347 152.0
144.899399 156.0
144.92897 184.0
144.957001 156.0
145.064926 176.0
145.136276 168.0
145.175522 180.0
145.21637 296.0
145.279617 136.0
145.283844 200.0
145.326263 208.0
145.403046 100.0
145.419846 152.0
145.490372 208.0
145.532669 128.0
145.586792 184.0
145.608551 180.0
145.726135 132.0
145.775284 136.0
145.794495 124.0
145.895447 96.0
145.929321 188.0
145.950745 148.0
145.978882 132.0
146.039734 120.0
146.062332 1076.0
146.094788 132.0
146.164825 108.0
146.190796 156.0
146.239426 144.0
146.321274 176.0
146.35498 160.0
146.42189 168.0
146.465759 140.0
146.550079 172.0
146.58902 100.0
146.644058 100.0
146.665741 188.0
146.692261 52.0
146.71637 216.0
146.754944 144.0
146.815887 204.0
146.843719 152.0
146.909302 128.0
146.934875 208.0
147.016464 212.0
147.067154 396.0
147.09993 92.0
147.136139 176.0
147.196655 184.0
147.27861 124.0
147.32692 100.0
147.358902 152.0
147.383835 108.0
147.409073 184.0
147.430298 148.0
147.454987 112.0
147.498489 96.0
147.529312 204.0
147.561356 148.0
147.578278 92.0
147.612122 124.0
147.648392 204.0
147.706009 200.0
147.742737 112.0
147.80806 208.0
147.926331 188.0
147.977478 176.0
148.006546 108.0
148.035599 264.0
148.072403 180.0
148.150101 204.0
148.185776 144.0
148.258469 60.0
148.292389 116.0
148.309357 132.0
148.333603 164.0
148.362686 164.0
148.393036 100.0
148.439865 168.0
148.486359 76.0
148.508179 208.0
148.593079 108.0
148.639191 116.0
148.661026 196.0
148.692566 36.0
148.762955 168.0
148.822327 124.0
148.829208 56.0
148.839951 140.0
148.895264 220.0
148.932938 148.0
148.986374 148.0
149.018585 156.0
149.057373 180.0
149.086685 256.0
149.113647 168.0
149.166199 152.0
149.18808 44.0
149.218567 148.0
149.241562 148.0
149.265549 108.0
149.303513 260.0
149.329117 200.0
149.353439 204.0
149.377548 368.0
149.436142 60.0
149.496185 136.0
149.550522 172.0
149.604843 224.0
149.62944 132.0
149.701462 140.0
149.725098 328.0
149.751663 136.0
149.802475 160.0
149.814606 88.0
149.824097 200.0
149.831512 112.0
149.854614 168.0
149.904953 104.0
149.937759 120.0
149.971878 316.0
150.013901 184.0
150.040131 156.0
150.09201 2560.0
150.120605 196.0
150.137665 168.0
150.174255 104.0
150.205963 116.0
150.26207 236.0
150.310867 120.0
150.371155 164.0
150.377518 116.0
150.386292 84.0
150.440216 172.0
150.486603 164.0
150.530563 52.0
150.569626 112.0
150.598282 284.0
150.648193 384.0
150.665756 188.0
150.811508 128.0
150.834808 168.0
150.885117 144.0
150.958191 44.0
151.016525 160.0
151.053619 340.0
151.097168 240.0
151.166122 152.0
151.219955 128.0
151.293396 80.0
151.33754 128.0
151.371735 308.0
151.409775 128.0
151.418854 168.0
151.461014 168.0
151.567703 40.0
151.599548 140.0
151.624069 108.0
151.64122 136.0
151.657639 132.0
151.716644 136.0
151.744171 116.0
151.793213 168.0
151.852066 100.0
151.869232 104.0
151.891312 104.0
151.986984 144.0
152.008331 144.0
152.062424 7028.0
152.104599 348.0
152.144073 164.0
152.168213 172.0
152.220184 92.0
152.311874 108.0
152.35527 144.0
152.39212 300.0
152.468292 412.0
152.517441 260.0
152.534653 64.0
152.554611 132.0
152.576447 40.0
152.603485 192.0
152.637451 108.0
152.662506 84.0
152.686676 188.0
152.731369 60.0
152.78688 136.0
152.843658 56.0
152.861755 108.0
152.883896 124.0
152.903595 96.0
152.947342 220.0
153.00943 136.0
153.030319 140.0
153.069305 6588.0
153.140533 1688.0
153.221237 108.0
153.248337 68.0
153.266495 108.0
153.286484 232.0
153.371231 152.0
153.452606 132.0
153.488556 144.0
153.552979 164.0
153.583603 200.0
153.619843 104.0
153.678207 160.0
153.79332 220.0
153.833832 204.0
153.841278 160.0
153.892792 192.0
153.913651 108.0
153.963684 100.0
154.033813 332.0
154.078842 6976.0
154.1315 64.0
154.154373 188.0
154.184723 180.0
154.201996 112.0
154.232986 80.0
154.25029 164.0
154.277481 60.0
154.307999 232.0
154.373978 144.0
154.406052 84.0
154.444443 128.0
154.464859 144.0
154.484009 232.0
154.507462 112.0
154.527267 148.0
154.547058 96.0
154.564377 48.0
154.589905 188.0
154.605118 112.0
154.656601 136.0
154.706589 52.0
154.776794 152.0
154.817505 156.0
154.848328 228.0
154.920898 68.0
154.972916 144.0
154.995224 120.0
155.012558 36.0
155.046875 340.0
155.082092 1336.0
155.118576 228.0
155.146408 128.0
155.206406 100.0
155.27211 224.0
155.307587 148.0
155.386963 324.0
155.416733 32.0
155.447754 112.0
155.519058 208.0
155.587509 164.0
155.649948 180.0
155.676651 180.0
155.697235 52.0
155.749405 140.0
155.816467 44.0
155.898468 200.0
155.920837 144.0
155.945679 168.0
155.980484 136.0
156.030197 192.0
156.054169 544.0
156.076508 236.0
156.107819 112.0
156.152039 264.0
156.221695 156.0
156.256516 236.0
156.301743 112.0
156.335022 152.0
156.356079 140.0
156.377609 124.0
156.418274 132.0
156.451401 232.0
156.540268 152.0
156.564514 120.0
156.595062 216.0
156.634903 108.0
156.676544 236.0
156.728104 176.0
156.743698 60.0
156.799347 212.0
156.839233 68.0
156.876617 180.0
156.903976 140.0
156.931473 156.0
156.958893 64.0
156.986938 340.0
157.069 476.0
157.105148 356.0
157.129639 44.0
157.165924 124.0
157.196518 168.0
157.318161 160.0
157.363098 148.0
157.385574 96.0
157.434158 196.0
157.472977 128.0
157.497955 172.0
157.525421 220.0
157.544693 156.0
157.667847 108.0
157.767822 152.0
157.874069 212.0
157.912857 160.0
157.976624 164.0
158.042725 140.0
158.075806 616.0
158.091904 168.0
158.160217 224.0
158.240662 48.0
158.274338 160.0
158.377335 208.0
158.39502 144.0
158.531219 152.0
158.553772 136.0
158.576324 132.0
158.623947 104.0
158.717026 196.0
158.761856 236.0
158.791412 168.0
158.817032 120.0
158.848633 140.0
158.898682 188.0
158.927399 96.0
158.955261 120.0
158.988846 164.0
159.021301 268.0
159.081512 3108.0
159.236176 168.0
159.344177 120.0
159.361771 132.0
159.379364 112.0
159.421677 148.0
159.449722 108.0
159.482391 108.0
159.540207 72.0
159.572891 60.0
159.590485 120.0
159.630722 116.0
159.696106 88.0
159.716232 148.0
159.748932 188.0
159.804276 112.0
159.847061 120.0
159.889832 160.0
159.92482 120.0
159.947723 220.0
159.96727 272.0
159.993195 124.0
160.028275 140.0
160.050934 184.0
160.081177 1020.0
160.110641 320.0
160.151672 180.0
160.168976 152.0
160.204575 84.0
160.262512 124.0
160.373001 180.0
160.422501 192.0
160.441452 180.0
160.512054 316.0
160.567535 112.0
160.643204 128.0
160.706802 208.0
160.731506 40.0
160.766663 124.0
160.804688 188.0
160.877884 152.0
160.920807 168.0
160.93924 132.0
160.978882 116.0
161.053299 272.0
161.081146 196.0
161.117386 124.0
161.160782 164.0
161.196121 148.0
161.247528 156.0
161.351456 216.0
161.390747 208.0
161.464081 64.0
161.484314 124.0
161.502029 156.0
161.547562 120.0
161.620361 180.0
161.651291 168.0
161.819977 112.0
161.861389 112.0
161.889236 84.0
161.919632 136.0
161.944962 120.0
162.059799 180.0
162.102036 212.0
162.128357 176.0
162.185669 132.0
162.21608 164.0
162.238892 112.0
162.259171 120.0
162.309891 212.0
162.333969 188.0
162.383514 216.0
162.411331 280.0
162.449371 108.0
162.472214 72.0
162.502731 244.0
162.530563 76.0
162.571167 156.0
162.606689 148.0
162.630157 148.0
162.735901 40.0
162.803223 116.0
162.861176 160.0
162.916473 40.0
162.945786 104.0
162.967484 216.0
163.051315 404.0
163.101974 96.0
163.122299 152.0
163.152802 164.0
163.198578 156.0
163.239258 128.0
163.308182 160.0
163.333282 152.0
163.358795 404.0
163.407135 108.0
163.478653 184.0
163.514008 148.0
163.547089 120.0
163.579514 164.0
163.633636 168.0
163.656555 48.0
163.682022 236.0
163.706635 120.0
163.728378 176.0
163.750778 100.0
163.808624 152.0
163.85318 160.0
163.880692 104.0
163.898529 148.0
163.918915 200.0
164.01709 184.0
164.065506 728.0
164.111786 264.0
164.135574 180.0
164.223251 180.0
164.241379 132.0
164.28096 64.0
164.311737 124.0
164.345322 156.0
164.423843 120.0
164.458862 188.0
164.479919 264.0
164.545578 228.0
164.592316 192.0
164.625778 160.0
164.6521 360.0
164.686783 160.0
164.748108 140.0
164.775482 124.0
164.803833 168.0
164.824463 148.0
164.848267 120.0
164.888641 144.0
164.909531 188.0
164.972595 180.0
164.993591 368.0
165.021027 168.0
165.07074 31136.0
165.163376 80.0
165.230118 124.0
165.256882 96.0
165.281311 232.0
165.335175 172.0
165.428345 136.0
165.453781 132.0
165.485031 220.0
165.520447 172.0
165.548996 252.0
165.576843 176.0
165.606232 160.0
165.640106 160.0
165.659958 160.0
165.694672 52.0
165.72113 172.0
165.758026 232.0
165.769974 144.0
165.815109 144.0
165.840744 164.0
165.879181 48.0
165.897125 48.0
165.922104 124.0
165.950882 160.0
165.986862 192.0
166.018204 180.0
166.077118 17196.0
166.156311 64.0
166.194809 120.0
166.203186 224.0
166.211472 156.0
166.27565 208.0
166.296509 228.0
166.381729 152.0
166.411453 192.0
166.507812 44.0
166.537491 108.0
166.561737 144.0
166.584869 84.0
166.607986 160.0
166.658508 132.0
166.685059 76.0
166.715897 36.0
166.736877 192.0
166.759583 264.0
166.861771 260.0
166.879547 192.0
166.90506 224.0
166.920563 208.0
166.959732 108.0
166.988602 156.0
167.008987 116.0
167.051682 904.0
167.085098 10060.0
167.163773 224.0
167.189087 32.0
167.227051 88.0
167.257416 152.0
167.287994 144.0
167.308884 120.0
167.338379 116.0
167.376999 68.0
167.400177 152.0
167.479111 68.0
167.50946 120.0
167.566925 140.0
167.606247 48.0
167.64296 32.0
167.659302 268.0
167.686127 48.0
167.710434 68.0
167.761078 52.0
167.793365 80.0
167.824554 200.0
167.869171 124.0
167.897705 120.0
167.918167 140.0
167.954269 148.0
167.977493 64.0
168.004868 328.0
168.058014 1224.0
168.08812 860.0
168.14003 96.0
168.205475 148.0
168.260651 176.0
168.279266 192.0
168.295959 148.0
168.359482 152.0
168.382721 108.0
168.42662 124.0
168.449875 48.0
168.528793 176.0
168.55368 236.0
168.594559 92.0
168.612656 88.0
168.67749 188.0
168.762573 132.0
168.77977 184.0
168.815262 224.0
168.82608 180.0
168.837051 196.0
168.88591 212.0
168.895309 124.0
168.929565 232.0
168.960815 148.0
168.99794 240.0
169.026062 148.0
169.041809 80.0
169.064941 1012.0
169.101944 11912.0
169.150269 144.0
169.159943 248.0
169.198441 188.0
169.234329 208.0
169.28009 48.0
169.308472 108.0
169.324966 276.0
169.353348 160.0
169.391052 104.0
169.434937 236.0
169.463989 44.0
169.499756 184.0
169.520126 156.0
169.566071 92.0
169.63504 88.0
169.655334 168.0
169.772369 128.0
169.792068 136.0
169.904953 144.0
169.932129 172.0
169.951431 56.0
169.989243 176.0
170.011871 256.0
170.042831 108.0
170.069366 392.0
170.105103 1380.0
170.133102 164.0
170.159073 116.0
170.191376 108.0
170.208405 184.0
170.24968 152.0
170.28891 120.0
170.308563 164.0
170.374619 236.0
170.436264 116.0
170.501938 128.0
170.534058 156.0
170.574722 148.0
170.605484 172.0
170.631531 140.0
170.708923 136.0
170.756882 200.0
170.813721 144.0
170.835297 136.0
170.923218 232.0
170.959641 216.0
171.014297 408.0
171.035126 152.0
171.080582 2640.0
171.108536 120.0
171.149658 124.0
171.198563 196.0
171.32309 204.0
171.469971 140.0
171.497833 136.0
171.530029 48.0
171.57695 60.0
171.605621 260.0
171.642136 52.0
171.670822 124.0
171.690063 240.0
171.734436 172.0
171.788177 92.0
171.832535 72.0
171.973083 144.0
172.030869 112.0
172.08432 312.0
172.156189 112.0
172.204071 156.0
172.2621 204.0
172.345398 176.0
172.380173 140.0
172.448792 68.0
172.498459 68.0
172.537811 156.0
172.593033 348.0
172.633423 292.0
172.689896 148.0
172.779892 168.0
172.880325 200.0
172.918381 180.0
172.953598 64.0
173.025513 312.0
173.05307 216.0
173.083145 340.0
173.141846 200.0
173.265213 140.0
173.298492 200.0
173.344986 152.0
173.367401 120.0
173.385742 112.0
173.415482 128.0
173.45932 112.0
173.503235 136.0
173.558762 128.0
173.595474 192.0
173.640045 208.0
173.68988 80.0
173.708252 172.0
173.779083 148.0
173.800964 216.0
173.839432 116.0
173.88559 204.0
173.896133 112.0
173.907593 160.0
173.952286 128.0
174.036301 152.0
174.088669 588.0
174.143967 228.0
174.172852 92.0
174.207001 224.0
174.251663 136.0
174.27269 188.0
174.348892 136.0
174.435623 40.0
174.467163 260.0
174.593384 68.0
174.638794 180.0
174.738052 164.0
174.814072 152.0
174.820496 216.0
174.873657 228.0
174.977295 128.0
175.017044 128.0
175.042099 156.0
175.098694 2608.0
175.153625 172.0
175.172424 148.0
175.238281 196.0
175.290985 144.0
175.441208 108.0
175.459671 48.0
175.491302 164.0
175.526459 120.0
175.59697 112.0
175.66008 120.0
175.691742 136.0
175.712845 128.0
175.743317 196.0
175.805191 180.0
175.859695 272.0
175.8871 132.0
175.945511 148.0
175.988449 160.0
176.017624 160.0
176.064575 448.0
176.103348 180.0
176.163254 176.0
176.194016 124.0
176.251465 136.0
176.295563 116.0
176.328094 160.0
176.358932 144.0
176.373291 200.0
176.39946 144.0
176.47612 176.0
176.49501 280.0
176.518433 140.0
176.560745 208.0
176.616287 112.0
176.654419 96.0
176.698288 172.0
176.745819 212.0
176.778275 296.0
176.933838 124.0
176.979828 204.0
177.001877 344.0
177.07103 1524.0
177.09906 172.0
177.132446 140.0
177.18277 92.0
177.214569 152.0
177.264908 60.0
177.283463 116.0
177.336472 312.0
177.435715 100.0
177.484924 384.0
177.515152 116.0
177.545914 124.0
177.580765 172.0
177.649353 108.0
177.670578 116.0
177.720978 192.0
177.755478 92.0
177.782486 180.0
177.846008 144.0
177.984833 148.0
178.010315 220.0
178.078003 1724.0
178.109726 120.0
178.164352 200.0
178.206863 92.0
178.237717 124.0
178.26001 104.0
178.325119 176.0
178.414169 188.0
178.475311 148.0
178.509888 140.0
178.533813 192.0
178.561859 88.0
178.587006 108.0
178.616272 48.0
178.636276 168.0
178.678757 180.0
178.759933 156.0
178.782593 148.0
178.851746 88.0
178.919632 216.0
178.940933 200.0
178.968933 332.0
179.021545 188.0
179.042465 148.0
179.085297 4792.0
179.154709 140.0
179.208221 92.0
179.232697 44.0
179.305862 56.0
179.350281 96.0
179.410217 160.0
179.457794 100.0
179.490036 132.0
179.548462 80.0
179.596466 52.0
179.628479 104.0
179.671158 164.0
179.697845 144.0
179.716522 340.0
179.764542 124.0
179.884644 212.0
179.99144 88.0
180.056946 3256.0
180.091583 2024.0
180.162369 176.0
180.194427 72.0
180.226501 184.0
180.278702 208.0
180.306732 160.0
180.333389 176.0
180.353333 188.0
180.373474 140.0
180.405563 128.0
180.469727 160.0
180.533981 124.0
180.56691 152.0
180.593323 164.0
180.686356 44.0
180.709641 216.0
180.748322 200.0
180.771713 328.0
180.802994 176.0
180.836212 184.0
180.903854 220.0
180.937927 188.0
180.968262 172.0
180.99147 128.0
181.033218 68.0
181.064743 12956.0
181.096619 300.0
181.157394 168.0
181.164093 188.0
181.20575 104.0
181.238129 164.0
181.31778 148.0
181.342407 132.0
181.3853 128.0
181.404053 44.0
181.451813 172.0
181.524384 124.0
181.587494 124.0
181.626617 164.0
181.648071 148.0
181.685638 148.0
181.731247 76.0
181.754837 176.0
181.790604 128.0
181.830536 224.0
181.872757 180.0
181.89476 144.0
181.938736 140.0
181.970108 144.0
182.073914 38044.0
182.110626 524.0
182.180206 168.0
182.211823 144.0
182.236954 148.0
182.256149 244.0
182.284378 44.0
182.330841 152.0
182.361282 252.0
182.44957 180.0
182.480591 112.0
182.515427 236.0
182.538391 116.0
182.586884 120.0
182.606964 156.0
182.679367 48.0
182.774963 124.0
182.81189 236.0
182.861893 160.0
182.994827 288.0
183.077469 6592.0
183.145706 188.0
183.202148 68.0
183.219971 224.0
183.274582 268.0
183.302643 96.0
183.320618 136.0
183.347336 140.0
183.367065 112.0
183.409317 52.0
183.428192 140.0
183.480759 184.0
183.53334 128.0
183.565689 84.0
183.635284 144.0
183.677933 84.0
183.719421 120.0
183.740265 188.0
183.758591 188.0
183.783844 128.0
183.792816 160.0
183.90831 148.0
183.943405 136.0
183.996994 108.0
184.006195 92.0
184.011719 132.0
184.050995 1300.0
184.08371 1204.0
184.138687 148.0
184.178314 116.0
184.239243 76.0
184.331985 196.0
184.362045 108.0
184.383652 112.0
184.406723 64.0
184.436234 80.0
184.494781 108.0
184.518707 80.0
184.551483 232.0
184.583694 68.0
184.614609 180.0
184.641922 68.0
184.646835 104.0
184.808197 144.0
184.939453 144.0
185.004425 224.0
185.057404 852.0
185.093674 792.0
185.115585 128.0
185.168228 116.0
185.208862 276.0
185.232819 152.0
185.319931 216.0
185.355148 88.0
185.430634 136.0
185.450806 176.0
185.547592 184.0
185.566498 144.0
185.590973 156.0
185.618088 164.0
185.647919 140.0
185.683167 284.0
185.731995 236.0
185.767258 132.0
185.794388 108.0
185.8405 116.0
185.873062 224.0
185.917984 152.0
186.003326 284.0
186.034927 200.0
186.065842 140.0
186.100449 204.0
186.141785 148.0
186.225983 168.0
186.302032 164.0
186.369965 128.0
186.469238 168.0
186.560196 124.0
186.628174 148.0
186.684952 236.0
186.707062 196.0
186.72879 304.0
186.786987 212.0
186.924164 176.0
186.98996 92.0
187.014465 112.0
187.090805 88.0
187.109741 196.0
187.18869 152.0
187.223923 180.0
187.24588 140.0
187.311249 60.0
187.392975 264.0
187.422943 28.0
187.461334 140.0
187.553757 204.0
187.648758 180.0
187.683151 156.0
187.728241 212.0
187.74617 144.0
187.79097 88.0
187.837341 152.0
187.894623 88.0
187.949188 140.0
188.041977 128.0
188.063812 60.0
188.105637 532.0
188.155884 208.0
188.379456 248.0
188.427826 172.0
188.444641 96.0
188.530823 176.0
188.552689 76.0
188.60907 128.0
188.68663 108.0
188.817886 164.0
188.853439 108.0
188.880783 212.0
188.907166 168.0
188.980637 232.0
189.075043 72.0
189.114182 228.0
189.228851 128.0
189.250244 156.0
189.318695 68.0
189.420029 136.0
189.510437 116.0
189.532349 156.0
189.5625 200.0
189.606339 120.0
189.639236 204.0
189.669388 168.0
189.8284 168.0
189.861298 96.0
189.919418 84.0
189.992966 28.0
190.04509 132.0
190.077225 268.0
190.11644 140.0
190.142502 40.0
190.205795 128.0
190.239944 48.0
190.289764 160.0
190.374481 148.0
190.412216 192.0
190.466187 216.0
190.522797 144.0
190.616211 116.0
190.643692 96.0
190.669708 112.0
190.704163 172.0
190.731644 136.0
190.77562 72.0
190.926849 40.0
191.034119 104.0
191.084122 1072.0
191.141418 36.0
191.182693 52.0
191.223969 84.0
191.314804 180.0
191.35611 188.0
191.378128 88.0
191.468567 204.0
191.491028 116.0
191.531174 112.0
191.642548 112.0
191.700409 152.0
191.731995 164.0
191.770844 136.0
191.791351 108.0
191.900116 140.0
191.923676 144.0
192.020203 192.0
192.057831 468.0
192.093033 832.0
192.142746 92.0
192.199509 64.0
192.240906 60.0
192.284149 232.0
192.320938 104.0
192.343018 156.0
192.376144 164.0
192.454407 160.0
192.483963 144.0
192.511429 160.0
192.541809 208.0
192.567657 192.0
192.599808 232.0
192.622864 188.0
192.713074 172.0
192.740707 172.0
192.82637 192.0
192.851242 128.0
192.898224 184.0
192.955093 148.0
192.990387 180.0
193.076553 2832.0
193.100723 3492.0
193.199646 104.0
193.230087 144.0
193.257751 136.0
193.277863 104.0
193.390579 60.0
193.418259 128.0
193.448578 164.0
193.453964 156.0
193.490234 260.0
193.51239 64.0
193.544113 208.0
193.618988 160.0
193.653076 104.0
193.672028 240.0
193.714554 68.0
193.745026 104.0
193.794891 156.0
193.825363 180.0
193.963943 148.0
194.008148 76.0
194.075409 1544.0
194.107147 1472.0
194.196701 148.0
194.215164 164.0
194.240372 104.0
194.304657 176.0
194.310959 204.0
194.358429 168.0
194.418793 172.0
194.45488 380.0
194.557571 108.0
194.591888 156.0
194.630783 152.0
194.696411 120.0
194.726593 124.0
194.768127 92.0
194.779938 144.0
194.82695 116.0
194.857437 148.0
194.945496 192.0
195.009033 248.0
195.026871 208.0
195.081207 41900.0
195.11203 1176.0
195.177032 144.0
195.233627 192.0
195.255966 152.0
195.28212 184.0
195.344009 172.0
195.36174 128.0
195.388702 112.0
195.399002 52.0
195.407043 152.0
195.449677 228.0
195.476135 164.0
195.502319 84.0
195.537323 164.0
195.557343 172.0
195.588882 128.0
195.625168 104.0
195.652527 264.0
195.693649 44.0
195.744781 80.0
195.771271 128.0
195.811615 48.0
195.865814 168.0
195.911896 140.0
195.937988 100.0
196.014984 392.0
196.088974 47360.0
196.143188 124.0
196.174271 132.0
196.213516 156.0
196.235428 152.0
196.280411 108.0
196.312241 240.0
196.333069 144.0
196.344894 104.0
196.38298 64.0
196.41626 60.0
196.445877 116.0
196.478226 108.0
196.524124 316.0
196.547836 444.0
196.576508 216.0
196.64502 60.0
196.683609 64.0
196.727127 284.0
196.773483 204.0
196.822754 180.0
196.860443 136.0
196.879745 224.0
196.926529 256.0
196.95137 168.0
197.004883 352.0
197.09697 101672.0
197.168732 192.0
197.210541 84.0
197.249603 68.0
197.288391 96.0
197.308441 244.0
197.332306 104.0
197.361618 72.0
197.410431 148.0
197.459106 112.0
197.471802 108.0
197.501266 264.0
197.524918 168.0
197.532333 132.0
197.555878 552.0
197.608368 176.0
197.62265 92.0
197.628082 84.0
197.664932 112.0
197.692108 88.0
197.700409 100.0
197.734421 84.0
197.778412 92.0
197.812576 136.0
197.850784 156.0
197.890671 136.0
197.961609 60.0
197.999588 56.0
198.028992 284.0
198.06871 1052.0
198.099945 16160.0
198.170776 256.0
198.192276 100.0
198.215149 64.0
198.256119 124.0
198.298096 196.0
198.330887 96.0
198.38678 52.0
198.393463 32.0
198.405762 52.0
198.443481 92.0
198.481125 288.0
198.512466 36.0
198.55751 220.0
198.589752 52.0
198.645966 156.0
198.687927 124.0
198.727798 132.0
198.765686 56.0
198.822617 52.0
198.864365 128.0
198.888565 64.0
198.972916 112.0
199.031937 120.0
199.076187 24336.0
199.164917 52.0
199.187836 96.0
199.217102 88.0
199.24379 28.0
199.293442 156.0
199.329834 180.0
199.362152 116.0
199.3992 284.0
199.446808 180.0
199.479843 184.0
199.515366 208.0
199.571686 124.0
199.597351 256.0
199.622696 104.0
199.66745 220.0
199.677795 256.0
199.688599 180.0
199.732925 92.0
199.766678 28.0
199.807083 276.0
199.856705 36.0
199.896103 100.0
199.956207 136.0
199.975845 224.0
200.045258 208.0
200.078934 3792.0
200.107407 268.0
200.149429 88.0
200.211899 88.0
200.245178 272.0
200.304321 72.0
200.32811 232.0
200.349014 88.0
200.402725 164.0
200.413162 152.0
200.425049 108.0
200.435822 136.0
200.488693 128.0
200.68428 252.0
200.761826 160.0
200.817322 132.0
200.865265 64.0
200.887833 144.0
201.037369 72.0
201.081787 976.0
201.136978 192.0
201.173615 176.0
201.210785 92.0
201.249069 188.0
201.287415 124.0
201.341507 208.0
201.384628 52.0
201.418518 140.0
201.480667 112.0
201.542892 148.0
201.579559 224.0
201.599335 28.0
201.638901 140.0
201.689774 112.0
201.709564 128.0
201.79155 104.0
201.814163 80.0
201.865067 148.0
201.896164 192.0
201.927277 68.0
202.06488 280.0
202.096741 132.0
202.128128 156.0
202.1604 168.0
202.19545 132.0
202.249817 176.0
202.269638 324.0
202.346069 160.0
202.394196 68.0
202.442337 104.0
202.518799 92.0
202.654999 160.0
202.680283 284.0
202.750031 176.0
202.786865 164.0
202.819504 216.0
202.884506 212.0
202.916138 168.0
203.031784 148.0
203.051636 76.0
203.091034 144.0
203.122543 184.0
203.317123 116.0
203.338181 152.0
203.409134 152.0
203.446045 156.0
203.534058 128.0
203.664688 160.0
203.761276 220.0
203.928925 100.0
203.957352 36.0
203.999985 128.0
204.028412 108.0
204.092453 128.0
204.139313 148.0
204.15921 100.0
204.27298 192.0
204.341263 108.0
204.364014 152.0
204.401001 56.0
204.472153 40.0
204.498962 104.0
204.594543 224.0
204.693787 56.0
204.739761 180.0
204.762543 40.0
204.858078 184.0
204.899261 120.0
204.924911 132.0
204.990448 104.0
205.062744 172.0
205.085114 92.0
205.147202 84.0
205.16716 84.0
205.224182 56.0
205.304016 168.0
205.339966 112.0
205.384003 180.0
205.480865 224.0
205.501785 88.0
205.648041 196.0
205.689194 100.0
205.74913 84.0
205.84906 212.0
205.971878 120.0
206.005905 184.0
206.030533 112.0
206.064651 92.0
206.094666 204.0
206.120605 208.0
206.192001 176.0
206.300491 64.0
206.3573 124.0
206.386261 76.0
206.420578 72.0
206.48349 188.0
206.519852 56.0
206.542114 168.0
206.572159 120.0
206.615067 204.0
206.662766 120.0
206.727097 104.0
206.751175 224.0
206.833496 240.0
206.85112 156.0
206.904785 136.0
206.972824 156.0
207.010056 112.0
207.09082 2248.0
207.173309 120.0
207.276688 48.0
207.330902 164.0
207.442673 68.0
207.522949 80.0
207.600464 132.0
207.620438 184.0
207.683533 56.0
207.842773 144.0
207.862457 164.0
207.927414 188.0
207.958984 148.0
207.996292 96.0
208.051895 3180.0
208.088394 2804.0
208.164536 100.0
208.231735 76.0
208.251846 72.0
208.368683 160.0
208.415588 64.0
208.461563 96.0
208.516769 152.0
208.57077 44.0
208.602386 92.0
208.628265 92.0
208.680008 116.0
208.754776 116.0
208.817078 92.0
208.862656 180.0
208.893661 124.0
208.991257 56.0
209.062103 1604.0
209.095291 1812.0
209.169067 44.0
209.197845 136.0
209.236221 284.0
209.332413 204.0
209.379242 236.0
209.428864 88.0
209.456177 96.0
209.520172 92.0
209.542892 64.0
209.668579 148.0
209.745163 84.0
209.804123 184.0
209.834518 140.0
209.854706 104.0
209.906799 124.0
209.981583 140.0
210.067429 788.0
210.104904 5744.0
210.157547 172.0
210.206604 136.0
210.243637 72.0
210.27858 68.0
210.32782 36.0
210.362457 104.0
210.397095 96.0
210.469269 128.0
210.513275 100.0
210.558792 284.0
210.602112 116.0
210.659882 124.0
210.700333 32.0
210.732117 104.0
210.752335 152.0
210.798569 104.0
210.858383 220.0
210.893936 148.0
211.038483 164.0
211.074051 984.0
211.106125 1964.0
211.136795 144.0
211.175919 160.0
211.226456 140.0
211.270477 164.0
211.301849 64.0
211.336395 128.0
211.430939 184.0
211.454498 152.0
211.565918 104.0
211.66925 52.0
211.706909 124.0
211.751205 296.0
211.807022 120.0
211.851715 76.0
212.05278 224.0
212.082779 1656.0
212.123001 448.0
212.173401 164.0
212.208191 144.0
212.269073 184.0
212.348328 172.0
212.392456 236.0
212.42569 352.0
212.502121 232.0
212.527237 88.0
212.576553 92.0
212.718781 196.0
212.779739 128.0
212.829102 92.0
212.915741 100.0
212.945251 100.0
212.99173 124.0
213.09111 7912.0
213.151505 172.0
213.234146 156.0
213.296829 172.0
213.388092 356.0
213.436371 40.0
213.50325 28.0
213.557053 136.0
213.583862 196.0
213.631226 76.0
213.651596 52.0
213.683594 76.0
213.709778 172.0
213.782532 84.0
213.820358 128.0
213.878571 164.0
213.95134 112.0
214.009567 32.0
214.094666 1276.0
214.16391 120.0
214.230911 104.0
214.254211 88.0
214.303741 52.0
214.3358 160.0
214.423218 124.0
214.461105 128.0
214.519409 100.0
214.550797 120.0
214.5952 96.0
214.659348 92.0
214.691422 116.0
214.793503 152.0
214.837265 56.0
214.860596 128.0
214.915207 140.0
214.948318 124.0
214.983002 160.0
215.06778 172.0
215.097107 168.0
215.163971 156.0
215.190384 160.0
215.260468 156.0
215.479523 192.0
215.511673 92.0
215.540894 124.0
215.614426 120.0
215.695786 84.0
215.751328 192.0
215.821487 112.0
215.844879 44.0
215.903366 104.0
215.970642 188.0
215.994034 104.0
216.078873 164.0
216.119827 192.0
216.198837 112.0
216.225174 48.0
216.259552 140.0
216.377396 192.0
216.456436 176.0
216.520874 144.0
216.541367 112.0
216.585083 212.0
216.640961 152.0
216.66893 124.0
216.722137 192.0
216.766937 140.0
216.789215 180.0
216.863647 224.0
216.912079 100.0
217.03772 148.0
217.10405 132.0
217.130447 140.0
217.155792 112.0
217.265381 136.0
217.315033 240.0
217.394485 124.0
217.415024 100.0
217.485458 80.0
217.535355 136.0
217.570587 188.0
217.736755 108.0
217.764389 68.0
217.808441 112.0
217.82901 80.0
218.014099 140.0
218.100281 112.0
218.130386 160.0
218.586273 196.0
218.693481 152.0
218.767654 180.0
218.846558 160.0
218.905212 100.0
218.953018 92.0
219.029144 128.0
219.086029 332.0
219.129501 176.0
219.225418 252.0
219.285477 136.0
219.362106 208.0
219.397491 228.0
219.482986 132.0
219.527222 128.0
219.727783 68.0
219.763199 112.0
219.792694 140.0
219.841919 152.0
219.937302 112.0
219.972733 132.0
219.999298 132.0
220.060089 176.0
220.090302 160.0
220.120239 108.0
220.176453 220.0
220.256195 56.0
220.324142 164.0
220.381561 160.0
220.468918 96.0
220.496643 136.0
220.519165 72.0
220.578278 48.0
220.687668 144.0
220.723145 184.0
220.743835 116.0
220.841431 104.0
220.865097 176.0
220.950882 148.0
220.986389 48.0
221.053741 508.0
221.083984 396.0
221.107971 396.0
221.137299 68.0
221.257828 212.0
221.317291 144.0
221.357925 136.0
221.462997 208.0
221.540009 248.0
221.668365 184.0
221.770096 196.0
221.861435 164.0
221.973022 160.0
222.014236 104.0
222.039764 80.0
222.07132 372.0
222.095505 688.0
222.125732 348.0
222.156158 260.0
222.202118 188.0
222.324921 176.0
222.397888 168.0
222.465225 40.0
222.557266 68.0
222.579605 236.0
222.601196 136.0
222.662674 184.0
222.702942 156.0
222.770004 184.0
222.779388 116.0
222.789734 160.0
222.827286 188.0
222.837448 144.0
222.873276 204.0
222.942047 112.0
223.039627 236.0
223.076935 115000.0
223.16922 204.0
223.212402 288.0
223.234161 40.0
223.287506 204.0
223.313538 192.0
223.344009 144.0
223.390289 348.0
223.415894 112.0
223.487595 268.0
223.52597 40.0
223.567276 528.0
223.592773 152.0
223.61853 228.0
223.651337 176.0
223.7108 32.0
223.744568 144.0
223.779587 116.0
223.840744 76.0
223.888 348.0
223.908966 124.0
223.960419 144.0
223.987656 280.0
224.019516 292.0
224.083542 86812.0
224.173416 412.0
224.227676 60.0
224.253571 196.0
224.294403 52.0
224.318192 236.0
224.348572 240.0
224.386261 76.0
224.406601 144.0
224.46022 72.0
224.485229 168.0
224.512375 128.0
224.574951 388.0
224.622635 40.0
224.658432 32.0
224.68869 144.0
224.728333 56.0
224.737686 64.0
224.750992 168.0
224.771347 52.0
224.779968 60.0
224.821365 232.0
224.855362 236.0
224.886826 204.0
224.944916 40.0
224.982224 388.0
225.010056 156.0
225.042206 68.0
225.087387 21468.0
225.127289 12916.0
225.195724 60.0
225.208023 144.0
225.217697 112.0
225.236542 124.0
225.275604 88.0
225.283096 136.0
225.310562 176.0
225.341034 168.0
225.374969 152.0
225.397079 100.0
225.418716 164.0
225.448959 100.0
225.495453 168.0
225.540939 116.0
225.565857 220.0
225.643005 104.0
225.685394 140.0
225.739883 100.0
225.783005 72.0
225.833359 212.0
225.86705 120.0
225.87738 72.0
225.910309 64.0
225.930069 184.0
225.958542 64.0
225.995316 84.0
226.002563 40.0
226.015884 80.0
226.090637 1696.0
226.129898 2668.0
226.235016 148.0
226.258972 28.0
226.315292 104.0
226.345123 104.0
226.376251 124.0
226.387177 92.0
226.424942 72.0
226.445908 108.0
226.465454 76.0
226.532394 96.0
226.563339 156.0
226.589691 108.0
226.625473 68.0
226.679489 148.0
226.731232 156.0
226.754501 56.0
226.790466 56.0
226.814438 116.0
226.856781 128.0
226.905075 120.0
226.960846 24.0
226.988525 116.0
227.021317 56.0
227.07132 1240.0
227.129578 408.0
227.177277 32.0
227.213272 204.0
227.235687 68.0
227.272675 60.0
227.290421 168.0
227.317902 140.0
227.357605 156.0
227.384308 156.0
227.428513 88.0
227.462341 96.0
227.510376 120.0
227.544296 144.0
227.587662 92.0
227.635132 220.0
227.693115 144.0
227.738785 184.0
227.797882 160.0
227.834778 240.0
227.883667 68.0
227.921585 576.0
227.976105 152.0
228.01416 348.0
228.042786 416.0
228.079208 62104.0
228.158173 76.0
228.21701 40.0
228.262222 100.0
228.297836 192.0
228.336685 124.0
228.376404 208.0
228.411133 48.0
228.4617 116.0
228.54425 32.0
228.576248 200.0
228.600662 144.0
228.631516 192.0
228.66301 60.0
228.706757 72.0
228.733841 52.0
228.754913 184.0
228.774979 60.0
228.781403 40.0
228.799759 152.0
228.859238 80.0
228.908463 88.0
228.941589 48.0
228.99617 132.0
229.082199 11408.0
229.195724 76.0
229.25679 76.0
229.300095 52.0
229.324203 40.0
229.356079 104.0
229.4086 108.0
229.429703 44.0
229.47493 100.0
229.524338 116.0
229.562241 168.0
229.613632 68.0
229.643799 96.0
229.707565 172.0
229.773499 48.0
229.818756 48.0
230.082687 968.0
230.238342 72.0
230.278 276.0
230.310837 44.0
230.41066 84.0
230.453186 92.0
230.540451 56.0
230.573685 56.0
230.628662 168.0
230.640564 32.0
230.651703 172.0
230.727844 264.0
230.767151 100.0
230.783432 80.0
230.805145 92.0
230.885071 140.0
230.917618 204.0
230.960693 168.0
231.00383 196.0
231.084595 144.0
231.106186 164.0
231.154312 164.0
231.26326 180.0
231.287476 220.0
231.456207 76.0
231.54483 44.0
231.572083 208.0
231.708481 136.0
231.828735 156.0
231.868988 92.0
231.929611 160.0
232.002365 72.0
232.281342 68.0
232.399658 148.0
232.466415 56.0
232.502823 104.0
232.724426 112.0
232.776047 68.0
232.830704 44.0
232.861069 92.0
232.931458 136.0
233.012955 136.0
233.0858 152.0
233.11322 184.0
233.292542 92.0
233.335098 60.0
233.362473 68.0
233.50235 92.0
233.572296 92.0
233.68222 120.0
233.751801 232.0
233.776505 100.0
234.016022 200.0
234.096146 228.0
234.205414 100.0
234.229782 188.0
234.278519 144.0
234.391251 76.0
234.456665 172.0
234.540588 72.0
234.589355 168.0
234.644226 44.0
234.668625 80.0
234.904877 260.0
235.071518 140.0
235.106003 376.0
235.137054 136.0
235.161758 176.0
235.253326 128.0
235.413132 116.0
235.480331 96.0
235.60556 92.0
235.718613 340.0
235.764984 92.0
235.83168 144.0
235.859192 60.0
235.923386 68.0
235.97142 124.0
235.999817 84.0
236.081055 624.0
236.10527 216.0
236.144241 156.0
236.46785 88.0
236.511826 120.0
236.543564 152.0
236.57193 108.0
236.620911 176.0
236.65152 32.0
236.69133 64.0
236.784409 128.0
236.847519 172.0
236.88121 124.0
236.99762 28.0
237.105499 400.0
237.147308 228.0
237.187637 40.0
237.291855 52.0
237.346191 72.0
237.502594 172.0
237.614136 124.0
237.662979 180.0
237.957626 64.0
237.988327 36.0
238.091019 360.0
238.122253 1024.0
238.172577 128.0
238.200226 48.0
238.639694 136.0
238.667358 164.0
238.688889 56.0
238.811905 72.0
238.867264 104.0
238.922638 36.0
239.008789 132.0
239.060135 168.0
239.088593 384.0
239.100021 172.0
239.116486 328.0
239.142044 244.0
239.267319 148.0
239.418198 56.0
239.519836 168.0
239.600281 176.0
239.665924 152.0
239.723175 96.0
239.747818 44.0
239.935837 76.0
240.082977 128.0
240.093231 92.0
240.100204 132.0
240.132126 580.0
240.399872 208.0
240.426285 96.0
240.481827 36.0
240.559555 156.0
240.640289 216.0
240.696472 76.0
240.775131 132.0
240.87706 112.0
240.979004 116.0
241.1026 124.0
241.129059 112.0
241.414841 172.0
241.521667 132.0
241.69014 56.0
241.727264 168.0
241.813919 100.0
242.008942 140.0
242.042999 36.0
242.077057 196.0
242.120422 136.0
242.147369 108.0
242.269089 72.0
242.325562 160.0
242.393021 212.0
242.415558 176.0
242.498383 252.0
242.526291 108.0
242.697876 172.0
242.780518 136.0
242.972824 188.0
243.088593 128.0
243.118652 136.0
243.168304 168.0
243.388718 252.0
243.560562 180.0
243.590576 68.0
243.842255 76.0
243.904419 64.0
243.95105 152.0
244.034988 156.0
244.078522 144.0
244.115829 76.0
244.174927 64.0
244.439346 152.0
244.650986 112.0
244.747498 152.0
244.934875 120.0
245.208542 152.0
245.373749 80.0
245.520309 148.0
245.610748 96.0
245.766739 184.0
245.807297 64.0
245.857224 128.0
245.890656 100.0
246.131927 148.0
246.228729 136.0
246.269333 236.0
246.306808 132.0
246.400528 140.0
246.456772 116.0
246.669281 56.0
246.719299 76.0
246.819351 60.0
246.919418 60.0
247.016373 172.0
247.063431 96.0
247.128998 96.0
247.172806 152.0
247.260422 176.0
247.338669 148.0
247.373108 144.0
247.504593 160.0
247.579758 160.0
247.824081 88.0
247.916748 168.0
247.922134 96.0
247.935349 196.0
248.008972 116.0
248.102493 216.0
248.138687 204.0
248.240967 188.0
248.275467 144.0
248.306824 192.0
248.341324 96.0
248.457382 148.0
248.517212 120.0
248.661346 68.0
248.724121 204.0
248.758652 64.0
248.793182 52.0
248.821442 80.0
249.0224 136.0
249.11705 156.0
249.289444 112.0
249.459152 188.0
249.490601 200.0
249.879654 124.0
249.981247 44.0
250.06369 124.0
250.085114 328.0
250.12326 480.0
250.21022 140.0
250.252655 232.0
250.361938 112.0
250.453491 124.0
250.529099 176.0
250.611008 176.0
250.806396 92.0
250.880051 144.0
250.937485 96.0
251.106522 4360.0
251.222626 180.0
251.27626 56.0
251.503464 96.0
251.544495 140.0
251.566589 164.0
251.62027 128.0
251.654999 140.0
251.719177 208.0
251.758301 132.0
251.828674 144.0
251.891586 144.0
251.983856 88.0
252.040329 48.0
252.105087 1184.0
252.13826 6132.0
252.236267 60.0
252.353241 48.0
252.448105 44.0
252.571442 104.0
252.732788 84.0
252.804123 96.0
252.932159 164.0
253.017639 112.0
253.143707 2636.0
253.207001 176.0
253.228104 60.0
253.255127 44.0
253.319977 136.0
253.37233 140.0
253.464218 116.0
253.53186 92.0
253.586075 124.0
253.720947 72.0
253.797028 108.0
253.860992 212.0
253.89534 152.0
253.930222 80.0
253.980026 188.0
254.063446 120.0
254.13826 920.0
254.211029 132.0
254.393478 212.0
254.437927 92.0
254.53952 80.0
254.615738 28.0
254.660202 164.0
254.857162 184.0
254.904816 156.0
254.965195 104.0
254.991684 152.0
255.020706 164.0
255.054184 84.0
255.124649 144.0
255.149017 348.0
255.267197 52.0
255.472519 208.0
255.537552 48.0
255.602951 152.0
255.75914 76.0
255.93541 184.0
256.005798 148.0
256.050049 80.0
256.094635 120.0
256.16153 156.0
256.196564 144.0
256.227875 136.0
256.236908 60.0
256.403687 100.0
256.700165 220.0
256.83728 100.0
256.9617 48.0
257.073364 56.0
257.261688 68.0
257.338318 112.0
257.446869 144.0
257.523529 216.0
257.648102 140.0
257.747131 48.0
257.977264 36.0
258.063568 188.0
258.114746 128.0
258.14212 124.0
258.341827 172.0
258.517792 112.0
258.610596 100.0
258.709839 120.0
258.756165 168.0
258.914734 144.0
259.122955 100.0
259.225494 176.0
259.257538 80.0
259.469086 192.0
259.75769 48.0
259.911682 196.0
259.963043 116.0
260.030426 48.0
260.097839 72.0
260.158813 180.0
260.213409 140.0
260.296875 152.0
260.335419 68.0
260.370728 88.0
260.402863 128.0
260.441406 216.0
260.57309 120.0
260.598816 104.0
260.647003 120.0
260.73056 124.0
260.785187 212.0
260.92984 88.0
260.978058 84.0
261.10025 176.0
261.122772 152.0
261.158142 104.0
261.193542 112.0
261.2836 160.0
261.335083 160.0
261.357605 136.0
261.425171 124.0
261.489532 184.0
261.647278 176.0
261.679474 124.0
261.930664 212.0
261.972534 160.0
262.069183 48.0
262.201294 116.0
262.346344 148.0
262.423706 72.0
262.544983 132.0
262.688171 92.0
262.981781 88.0
263.059265 64.0
263.094757 80.0
263.125885 120.0
263.236847 44.0
263.356323 88.0
263.540466 144.0
263.598633 52.0
263.727905 160.0
263.753754 104.0
263.828094 124.0
263.975555 144.0
264.015625 132.0
264.138092 2144.0
264.293823 108.0
264.337708 120.0
264.368256 164.0
264.423279 80.0
264.458862 188.0
264.506409 228.0
264.568909 180.0
264.675751 108.0
264.753479 204.0
264.808533 44.0
264.853882 80.0
264.919891 220.0
264.95105 168.0
265.046936 128.0
265.14502 1432.0
265.252441 40.0
265.40155 212.0
265.44046 132.0
265.51181 120.0
265.534515 164.0
265.690216 184.0
265.743103 196.0
266.00174 168.0
266.118164 2044.0
266.148315 620.0
266.232269 168.0
266.336182 68.0
266.384918 76.0
266.421387 88.0
266.553864 112.0
266.758606 140.0
266.784637 72.0
266.86264 136.0
266.887543 144.0
266.927673 68.0
266.955414 68.0
267.05127 136.0
267.077271 100.0
267.123596 3868.0
267.212311 180.0
267.236694 200.0
267.262695 248.0
267.415649 64.0
267.461212 72.0
267.672852 48.0
267.72821 96.0
267.813385 180.0
267.868256 144.0
267.891052 188.0
267.998566 208.0
268.053955 112.0
268.086456 140.0
268.131165 1648.0
268.169769 8272.0
268.264862 192.0
268.366882 64.0
268.39386 184.0
268.508606 92.0
268.60791 140.0
268.690613 152.0
268.755005 148.0
268.966339 196.0
269.006287 120.0
269.084656 64.0
269.136932 612.0
269.173828 1904.0
269.254456 52.0
269.296906 92.0
269.41449 52.0
269.489624 300.0
269.564789 88.0
269.975586 164.0
270.055176 156.0
270.120605 52.0
270.177399 368.0
270.424896 152.0
270.532898 132.0
270.588562 48.0
270.627838 184.0
270.821045 132.0
270.857086 132.0
270.904694 212.0
270.952087 112.0
270.988129 180.0
271.094574 164.0
271.1315 48.0
271.180115 204.0
271.260132 108.0
271.28952 132.0
271.328979 36.0
271.515625 108.0
271.658417 148.0
271.729095 108.0
271.820953 116.0
272.063843 80.0
272.129486 156.0
272.247711 144.0
272.484192 112.0
272.67807 136.0
272.70108 208.0
272.964081 80.0
272.987091 96.0
273.029846 68.0
273.102203 72.0
273.237061 124.0
273.279846 144.0
273.312744 184.0
273.385132 56.0
273.45755 80.0
273.588013 100.0
273.65506 100.0
273.704437 64.0
273.760986 188.0
273.832855 132.0
274.201874 124.0
274.2612 68.0
274.432617 80.0
274.455688 240.0
274.626282 104.0
274.709625 96.0
274.868011 124.0
274.927399 56.0
274.986816 124.0
275.01651 100.0
275.287231 272.0
275.316956 92.0
275.359894 204.0
275.416016 96.0
275.573639 148.0
275.746429 200.0
275.855499 128.0
275.924927 184.0
276.159698 232.0
276.308563 68.0
276.374725 120.0
276.497162 180.0
276.530273 152.0
276.579926 208.0
276.626251 152.0
276.758667 92.0
276.80835 108.0
277.060059 48.0
277.176025 172.0
277.235687 112.0
277.345032 48.0
277.398071 148.0
277.50061 172.0
277.983521 152.0
278.011658 140.0
278.071411 180.0
278.156433 776.0
278.184265 120.0
278.479767 100.0
278.546204 192.0
278.725616 168.0
278.855225 124.0
278.951599 124.0
278.984863 44.0
279.06131 100.0
279.104553 72.0
279.160583 232.0
279.297424 48.0
279.450439 188.0
279.59021 64.0
279.749969 316.0
279.843201 68.0
279.903107 128.0
280.052979 108.0
280.132812 5248.0
280.222992 100.0
280.322845 124.0
280.382812 72.0
280.426575 236.0
280.456146 160.0
280.57132 104.0
280.604431 116.0
280.709503 52.0
280.732849 56.0
280.799561 164.0
280.829041 172.0
280.866272 200.0
280.970886 152.0
281.032959 140.0
281.087311 124.0
281.141418 10444.0
281.215912 76.0
281.308044 56.0
281.355957 68.0
281.397919 52.0
281.42691 124.0
281.470306 140.0
281.521698 56.0
281.593872 144.0
281.757538 112.0
281.942444 168.0
282.004822 76.0
282.054413 172.0
282.145538 2664.0
282.184387 56.0
282.238831 56.0
282.309052 44.0
282.335815 64.0
282.42276 60.0
282.536499 44.0
282.660309 100.0
282.687073 120.0
282.84436 72.0
283.066711 168.0
283.088776 156.0
283.141388 340.0
283.204712 116.0
283.380188 120.0
283.403625 212.0
283.534058 152.0
283.623749 176.0
283.651611 32.0
283.85614 80.0
283.896362 48.0
284.067444 212.0
284.208344 96.0
284.439911 144.0
284.520477 236.0
284.668213 224.0
284.728638 68.0
284.839478 144.0
284.920105 100.0
285.041046 140.0
285.165405 56.0
285.237061 152.0
285.515045 44.0
285.548676 144.0
285.600555 152.0
285.686584 160.0
285.861542 80.0
286.033203 156.0
286.144287 192.0
286.265503 128.0
286.443787 60.0
286.511383 48.0
286.565277 144.0
286.598969 132.0
286.636047 80.0
286.791046 200.0
286.828125 100.0
287.12146 52.0
287.175415 208.0
287.229401 108.0
287.327209 148.0
287.560059 136.0
287.593811 64.0
287.654572 128.0
287.803101 176.0
287.830109 200.0
287.968567 136.0
288.042877 104.0
288.133728 112.0
288.552124 176.0
288.674896 64.0
288.769592 188.0
288.8237 148.0
288.945465 176.0
289.074066 188.0
289.145111 144.0
289.243286 148.0
289.317749 148.0
289.598785 192.0
289.791901 212.0
289.930817 112.0
289.968109 72.0
290.090118 92.0
290.154541 220.0
290.307098 100.0
290.361359 128.0
290.432587 88.0
290.541138 92.0
290.585236 128.0
290.683655 48.0
290.71759 96.0
290.810333 108.0
290.914429 244.0
290.972137 76.0
291.06723 152.0
291.145325 216.0
291.182678 128.0
291.220032 240.0
291.304871 184.0
291.355927 72.0
291.550873 180.0
291.644745 56.0
291.787537 136.0
291.886108 136.0
291.926941 132.0
291.972015 172.0
292.277283 72.0
292.338531 192.0
292.53595 112.0
292.631256 104.0
292.712982 240.0
292.859436 148.0
292.917328 176.0
292.950226 240.0
292.988861 176.0
293.03656 72.0
293.223969 108.0
293.254669 92.0
293.380768 132.0
293.472839 60.0
293.520569 436.0
293.56488 168.0
293.61264 200.0
293.75589 80.0
293.783173 176.0
293.807068 348.0
293.847992 148.0
293.902588 168.0
293.985413 160.0
294.056152 76.0
294.108337 96.0
294.144318 396.0
294.274628 72.0
294.327759 100.0
294.351959 160.0
294.377045 96.0
294.455597 152.0
294.567413 240.0
294.612732 36.0
294.689087 180.0
294.756714 140.0
294.809814 120.0
294.841644 76.0
294.868195 176.0
294.909576 96.0
294.957855 188.0
295.000488 128.0
295.033051 148.0
295.062897 116.0
295.096191 236.0
295.156219 2716.0
295.202789 216.0
295.256348 208.0
295.30545 108.0
295.333923 316.0
295.412994 256.0
295.442902 116.0
295.455688 132.0
295.494751 136.0
295.533997 292.0
295.602936 284.0
295.643433 416.0
295.684998 88.0
295.712921 200.0
295.745789 192.0
295.795593 316.0
295.830902 180.0
295.864471 296.0
295.889221 156.0
295.905029 160.0
295.914825 136.0
295.947083 232.0
295.986084 528.0
296.006592 224.0
296.052948 584.0
296.093811 560.0
296.165802 229184.0
296.245361 144.0
296.284668 240.0
296.332275 492.0
296.375061 132.0
296.409851 108.0
296.487244 524.0
296.571106 200.0
296.63681 164.0
296.683594 72.0
296.730194 2028.0
296.777405 92.0
296.822144 272.0
296.848755 152.0
296.901855 112.0
296.934235 140.0
296.96106 132.0
296.987915 224.0
297.04718 272.0
297.077667 272.0
297.107086 424.0
297.168457 54076.0
297.300537 84.0
297.331238 176.0
297.354492 248.0
297.385925 100.0
297.408356 76.0
297.444336 84.0
297.478638 88.0
297.522308 148.0
297.577606 128.0
297.630981 148.0
297.69162 208.0
297.736206 172.0
297.79361 116.0
297.824158 264.0
297.86319 52.0
297.898468 52.0
297.936218 156.0
297.982697 48.0
298.019684 112.0
298.049103 68.0
298.074097 44.0
298.11377 64.0
298.170807 4796.0
298.269073 92.0
298.330811 152.0
298.388245 108.0
298.431061 268.0
298.509277 64.0
298.538513 128.0
298.562836 108.0
298.615601 96.0
298.664307 84.0
298.677917 156.0
298.767487 144.0
298.79364 100.0
298.806488 128.0
298.839417 136.0
298.893677 96.0
298.92807 188.0
298.958557 76.0
299.007629 60.0
299.012848 204.0
299.078583 288.0
299.118561 184.0
299.174194 508.0
299.231537 184.0
299.269989 100.0
299.278687 92.0
299.303436 160.0
299.34317 116.0
299.451141 164.0
299.505615 64.0
299.540802 116.0
299.580109 56.0
299.611115 56.0
299.645569 60.0
299.70932 64.0
299.747498 156.0
299.790283 116.0
299.834686 100.0
299.894379 100.0
299.933655 160.0
300.008179 36.0
300.041901 96.0
300.069489 44.0
300.097076 64.0
300.151733 140.0
300.210846 104.0
300.234863 56.0
300.257629 64.0
300.299927 116.0
300.351257 84.0
300.403992 128.0
300.477264 136.0
300.568481 112.0
300.613159 32.0
300.622986 60.0
300.812866 68.0
300.869873 124.0
301.001068 64.0
301.087402 48.0
301.113464 96.0
301.159943 56.0
301.262604 52.0
301.313812 88.0
301.377563 64.0
301.448853 76.0
301.469574 128.0
301.503571 56.0
301.619476 88.0
301.667877 84.0
301.778503 48.0
301.871857 100.0
301.951416 36.0
302.034424 44.0
302.17395 72.0
302.221222 68.0
302.428864 60.0
302.650421 68.0
302.719666 32.0
302.8284 112.0
302.972504 112.0
303.049561 84.0
303.790649 72.0
303.81839 32.0
303.891235 116.0
304.095978 56.0
304.370239 100.0
304.825287 44.0
305.304993 64.0
305.423248 64.0
305.579803 28.0
305.666779 68.0
305.764221 68.0
305.997437 72.0
306.795227 144.0
306.857971 160.0
307.136963 44.0
307.286957 128.0
307.520752 92.0
307.597565 100.0
307.635956 56.0
308.100403 92.0
308.402649 92.0
308.502289 100.0
308.530273 116.0
308.656128 124.0
308.768036 76.0
308.796021 88.0
308.911438 100.0
308.949921 56.0
309.43988 72.0
309.541412 80.0
310.273682 52.0
310.35083 44.0
310.452515 68.0
310.529663 52.0
310.575256 156.0
310.648926 104.0
310.873474 116.0
310.996307 44.0
311.034912 68.0
311.096649 116.0
311.298218 60.0
311.386017 48.0
311.459778 80.0
311.589752 56.0
311.807617 92.0
311.976349 44.0
312.078735 92.0
312.707977 56.0
312.986084 60.0
313.067078 52.0
313.137512 116.0
313.262604 92.0
313.30658 100.0
313.391144 112.0
313.454559 40.0
313.480286 120.0
313.780243 108.0
314.117371 96.0
314.261993 52.0
314.862091 96.0
314.960999 64.0
315.116425 92.0
315.384979 56.0
316.240936 76.0
316.378998 40.0
316.917328 64.0
316.954224 100.0
317.615692 52.0
317.707916 100.0
317.803711 104.0
317.949219 44.0
318.463989 32.0
318.659393 72.0
318.908142 32.0
319.12854 32.0
319.270752 80.0
320.110596 52.0
320.691284 48.0
321.195404 156.0
321.698395 104.0
322.193573 96.0
322.400787 136.0
322.636688 92.0
322.844086 72.0
322.993866 64.0
323.173157 120.0
323.219696 236.0
323.584778 120.0
324.286865 40.0
324.74939 48.0
325.603546 60.0
326.581146 88.0
327.045288 80.0
327.15329 108.0
327.859222 68.0
328.125977 88.0
328.154816 68.0
328.201691 120.0
329.750336 104.0
330.31076 72.0
331.14325 52.0
332.520966 116.0
332.727875 136.0
333.39621 132.0
333.72699 64.0
334.997131 120.0
335.376068 52.0
335.784424 100.0
335.853729 40.0
335.988678 68.0
336.16748 64.0
336.660278 120.0
337.138855 192.0
338.020142 152.0
338.221436 64.0
338.554596 52.0
339.049164 60.0
339.133453 100.0
340.435852 64.0
340.722351 88.0
341.218506 32.0
341.244232 164.0
342.867523 80.0
342.967041 116.0
343.236176 112.0
343.568115 60.0
344.103241 96.0
344.132782 132.0
345.15625 56.0
345.389252 48.0
346.103485 108.0
346.299774 112.0
346.966766 84.0
347.137329 72.0
347.419189 56.0
347.68634 36.0
347.968445 76.0
349.005066 84.0
349.983612 96.0
350.49765 92.0
354.469696 172.0
354.85202 100.0
355.125763 48.0
355.35083 28.0
355.429626 68.0
356.131653 100.0
356.984741 72.0
357.669495 56.0
358.23056 44.0
358.290833 60.0
358.336029 108.0
358.569641 76.0
358.829742 84.0
358.988098 92.0
359.056 48.0
359.44455 84.0
359.697418 40.0
360.600128 72.0
360.690826 96.0
362.295319 52.0
362.496124 116.0
362.533997 48.0
363.489594 80.0
363.736298 64.0
363.9375 116.0
364.218536 84.0
366.409668 128.0
367.248291 48.0
367.786285 116.0
369.49823 32.0
370.17572 136.0
370.999481 60.0
372.98407 40.0
373.018677 56.0
373.97644 76.0
374.230499 116.0
379.115021 84.0
379.450195 92.0
381.6633 140.0
381.865509 92.0
382.830658 64.0
384.144135 84.0
384.538208 92.0
384.846619 84.0
385.280121 96.0
385.784241 84.0
386.179169 88.0
386.218292 84.0
386.74649 48.0
389.196655 52.0
389.283051 88.0
390.403015 32.0
390.595734 92.0
390.674408 92.0
391.026703 60.0
391.563965 64.0
392.83316 80.0
393.922638 72.0
394.653778 80.0
397.835114 68.0
399.201904 80.0
400.38382 68.0
402.972626 96.0
405.677979 132.0
406.949738 124.0
408.171204 52.0
411.652771 76.0
412.185974 56.0
412.816559 44.0
413.289825 68.0
414.84906 44.0
414.982849 60.0
415.688629 52.0
416.53714 56.0
416.594025 44.0
417.532928 124.0
417.781067 28.0
418.257172 48.0
420.68103 68.0
420.964264 52.0
422.564423 124.0
422.943024 48.0
423.004425 48.0
423.55722 92.0
423.864471 64.0
426.367676 52.0
426.462219 60.0
427.009033 60.0
427.885498 100.0
428.132568 164.0
430.342743 40.0
431.971008 120.0
432.277191 100.0
434.448242 52.0
434.726227 40.0
435.386292 64.0
437.186371 40.0
438.31485 76.0
438.394012 72.0
440.889557 44.0
441.14035 88.0
441.215576 52.0
441.412109 52.0
441.77597 100.0
445.099518 32.0
445.385101 136.0
445.460724 56.0
445.561523 36.0
445.611938 88.0
445.645569 112.0
447.289886 108.0
447.487732 44.0
447.904663 76.0
448.477264 80.0
448.566223 88.0
449.232483 48.0
449.802155 60.0
450.135681 116.0
450.925659 48.0
451.234222 132.0
451.902466 44.0
452.287567 84.0
452.749054 60.0
455.013306 100.0
455.42099 72.0
455.807556 96.0
456.394135 60.0
456.640778 96.0
457.168335 132.0
457.538818 84.0
459.025604 104.0
459.908722 48.0
460.660248 100.0
460.767029 48.0
462.952728 72.0
466.776184 80.0
467.848694 96.0
467.9422 128.0
469.114014 72.0
470.252747 92.0
471.505219 44.0
474.461578 60.0
474.769409 48.0
475.975769 60.0
476.492645 68.0
479.669434 68.0
481.737823 144.0
482.646851 64.0
482.738678 72.0
483.766876 36.0
483.871948 112.0
486.713074 96.0
488.902191 56.0
488.941803 92.0
489.884033 128.0
490.761047 124.0
491.674164 112.0
491.94342 56.0
494.476105 32.0
498.160767 52.0
498.907318 100.0
499.169647 88.0
500.402161 76.0
501.079102 60.0
501.694122 112.0
502.206909 48.0
503.215424 76.0
503.568207 60.0
504.278595 64.0
505.370544 108.0
507.846985 84.0
508.726471 84.0
508.897064 116.0
509.516846 60.0
513.306641 80.0
513.405823 68.0
513.789246 84.0
515.911743 96.0
516.065491 112.0
516.526733 44.0
517.151123 120.0
518.219849 120.0
521.705322 92.0
522.178223 92.0
522.357666 44.0
524.705444 64.0
525.065674 28.0
526.361694 48.0
527.453552 72.0
528.313232 68.0
529.201111 72.0
530.717712 112.0
531.231323 104.0
531.359802 68.0
535.239014 36.0
536.612061 36.0
538.670288 108.0
538.813477 60.0
540.019958 84.0
541.024048 28.0
541.431519 68.0
542.701172 76.0
546.291199 56.0
546.993835 92.0
548.078918 76.0
548.153503 84.0
553.403625 52.0
554.438843 108.0
556.610779 88.0
560.284058 40.0
560.675171 80.0
564.149048 36.0
564.295654 52.0
564.749573 96.0
564.938782 92.0
565.781189 48.0
566.26178 136.0
569.636536 96.0
578.831787 96.0
580.758362 60.0
580.868652 88.0
581.684387 72.0
583.038818 44.0
585.039734 68.0
587.434753 100.0
590.410034 92.0
590.603516 96.0
590.736755 72.0
592.631897 28.0
593.887451 120.0
594.023254 68.0
594.144531 56.0
595.425964 48.0
600.307068 96.0
600.941162 84.0
602.635376 100.0
604.615784 100.0
605.202454 108.0
606.285767 80.0
608.34082 52.0
609.190369 116.0
609.549072 96.0
611.850891 64.0
614.39386 72.0
621.414124 76.0
621.771423 40.0
623.435059 128.0
625.300049 52.0
626.335632 28.0
627.940552 48.0
628.81366 72.0
630.261841 100.0
634.029907 52.0
635.694824 76.0
636.422668 44.0
644.158264 48.0
645.694763 56.0
648.677063 124.0
654.097046 40.0
656.761902 68.0
657.353699 52.0
658.451294 48.0
661.647095 60.0
662.036255 68.0
664.409424 76.0
664.583862 108.0
670.244934 40.0
674.021973 40.0
677.301941 92.0
681.374146 80.0
682.231628 44.0
686.302917 80.0
688.484131 104.0
689.309509 80.0
690.569397 64.0
693.302246 68.0
695.662537 64.0
696.555237 104.0
699.363037 76.0
703.807129 76.0
705.370911 136.0
707.545105 100.0
709.425781 96.0
710.497009 52.0
712.078796 120.0
712.822571 76.0
717.309143 84.0
718.279602 64.0
719.704529 68.0
720.452209 56.0
721.633362 64.0
726.056335 88.0
731.569092 96.0
734.414246 56.0
736.108826 48.0
736.735352 84.0
740.835876 72.0
743.177979 104.0
745.039246 92.0
745.779175 76.0
750.259155 112.0
761.020691 56.0
761.322693 52.0
762.437866 68.0
765.028503 124.0
766.113403 44.0
766.89032 64.0
768.886841 100.0
779.069458 28.0
779.213928 80.0
781.821716 76.0
783.202454 72.0
783.269287 20.0
786.542419 72.0
789.419678 72.0
792.134155 132.0
792.375061 44.0
796.874634 108.0
798.487915 120.0
805.251038 40.0
812.04834 80.0
813.1604 44.0
816.483948 184.0
825.225464 176.0
827.473999 116.0
836.164673 88.0
838.509705 112.0
842.49585 116.0
842.796265 112.0
843.270142 100.0
844.414856 76.0
849.007446 60.0
849.488831 128.0
852.089661 176.0
853.333374 88.0
853.624084 112.0
853.874146 76.0
854.595459 148.0
854.758423 56.0
865.188293 88.0
866.002258 164.0
866.259949 48.0
867.226807 36.0
868.106201 160.0
869.343933 84.0
871.111206 36.0
873.138977 188.0
873.450745 148.0
874.350891 124.0
875.834595 76.0
876.20575 84.0
877.571228 220.0
878.900146 64.0
879.230652 84.0
881.143738 164.0
881.817383 88.0
885.118408 84.0
885.461853 92.0
887.103149 40.0
893.844116 224.0
895.183411 44.0
897.811462 60.0
900.090881 180.0
900.425415 124.0
902.217957 88.0
903.946533 176.0
904.359436 76.0
904.895996 140.0
908.266113 100.0
910.56488 32.0
910.787109 108.0
912.553833 108.0
912.770325 68.0
917.569031 148.0
921.129517 60.0
926.071228 64.0
927.816406 52.0
927.883057 148.0
928.774475 140.0
928.895813 136.0
929.011047 160.0
931.269104 52.0
931.74292 72.0
932.666565 88.0
932.788147 176.0
936.420654 120.0
938.254761 148.0
939.77948 72.0
939.846619 220.0
940.517944 168.0
940.676636 44.0
942.985474 68.0
943.071045 132.0
943.174927 80.0
944.416138 176.0
947.109314 136.0
949.383118 52.0
949.671326 176.0
955.119446 168.0
956.22699 48.0
956.817871 192.0
959.676636 64.0
959.923279 48.0
960.459839 128.0
961.786438 56.0
963.126343 160.0
963.75647 200.0
964.226074 160.0
970.168213 136.0
973.854065 160.0
974.835693 132.0
977.926575 184.0
978.281372 40.0
979.545471 64.0
979.707397 56.0
980.592224 144.0
980.72937 68.0
982.15094 116.0
982.572083 180.0
983.005676 188.0
983.742126 160.0
985.018005 64.0
985.284668 28.0
985.765747 132.0
985.88446 156.0
988.022888 160.0
990.952881 180.0
991.216064 168.0
992.200073 72.0
992.281555 152.0
992.933716 164.0
995.232605 140.0
1000.971252 152.0
1004.487976 156.0
1004.847595 68.0
1005.06842 180.0
1005.226135 84.0
1006.974854 44.0
1010.217468 116.0
1010.818481 168.0
1011.109619 104.0
1015.125977 64.0
1015.534912 168.0
1019.995544 204.0
1020.059143 168.0
1021.318115 172.0
1024.405396 72.0
1024.895874 140.0
1025.373779 112.0
1026.208862 60.0
1027.96936 76.0
1028.454346 84.0
1030.127319 44.0
1035.493774 188.0
1036.36499 100.0
1036.614868 48.0
1039.282349 164.0
1044.769043 112.0
1046.294312 132.0
1048.136353 112.0
1049.341675 128.0
1050.483154 196.0
1051.096069 92.0
1053.614014 240.0
1054.512207 112.0
1054.990601 148.0
1055.896973 200.0
1056.109253 112.0
1056.717285 164.0
1060.407471 220.0
1061.497437 72.0
1066.743408 200.0
1068.466675 36.0
1068.870117 168.0
1069.299561 92.0
1069.625 196.0
1072.386719 92.0
1073.475464 168.0
1074.147217 132.0
1074.369019 188.0
1074.577759 92.0
1079.633545 164.0
1081.105469 64.0
1083.049927 48.0
1084.661865 112.0
1085.442017 160.0
1085.494507 68.0
1087.777588 164.0
1087.968018 56.0
1089.40625 116.0
1091.68689 108.0
1092.693237 200.0
1092.798584 236.0
1094.351807 144.0
1095.484619 104.0
1095.76123 228.0
1100.146851 96.0
1100.239258 72.0
1101.817627 92.0
1101.863892 120.0
1102.154663 120.0
1102.900146 104.0
1105.990356 204.0
1106.35437 196.0
1108.738892 148.0
1109.434814 172.0
1109.839233 116.0
1109.952026 96.0
1111.225464 216.0
1111.510742 136.0
1115.289551 188.0
1115.508911 196.0
1115.708374 164.0
1116.705811 80.0
1116.918701 100.0
1118.003174 108.0
1119.396729 192.0
1120.440063 216.0
1122.346313 140.0
1122.439697 196.0
1123.353394 76.0
1123.726929 76.0
1124.145996 256.0
1125.509033 172.0
1126.490723 72.0
1126.62439 216.0
1126.751343 144.0
1127.894043 176.0
1128.622681 168.0
1130.468872 36.0
1130.857056 144.0
1133.542603 176.0
1133.904419 148.0
1134.018433 120.0
1135.58728 172.0
1136.976074 116.0
1138.379028 64.0
1139.164917 152.0
1139.661987 72.0
1140.152588 152.0
1142.828857 180.0
1146.903198 44.0
1147.314331 88.0
1148.204346 196.0
1149.155518 164.0
1150.390503 140.0
1151.572144 172.0
1151.822144 100.0
1154.261841 216.0
1155.012573 136.0
1155.932617 176.0
1159.603149 76.0
1160.55896 184.0
1160.836914 136.0
1163.089111 172.0
1163.924438 96.0
1164.338623 160.0
1165.017944 136.0
1166.145874 40.0
1166.431396 84.0
1166.478882 176.0
1168.144897 140.0
1169.478638 144.0
1169.601074 208.0
1171.453247 184.0
1172.086914 204.0
1172.959229 156.0
1173.961426 136.0
1174.875366 164.0
1176.240234 164.0
1177.196045 40.0
1177.701416 168.0
1178.042969 108.0
1179.382202 132.0
1181.447388 208.0
1184.74707 224.0
1185.041626 240.0
1185.329346 200.0
1186.055908 40.0
1186.761963 92.0
1187.001953 88.0
1187.271362 204.0
1187.584839 156.0
1187.941528 120.0
1188.401245 196.0
1188.682495 108.0
1189.066895 56.0
1191.02356 204.0
1191.916748 116.0
1192.246582 224.0
1192.418335 40.0
1196.373535 48.0
1196.690186 148.0
1196.937988 76.0
1197.668091 156.0
1197.964233 92.0
1198.191528 192.0
1200.05249 232.0
1200.155884 152.0
1201.280029 184.0
1203.235352 192.0
1203.688721 52.0
1204.082275 56.0
1204.572754 192.0
1205.740356 164.0
1205.878662 72.0
1205.9823 104.0
1208.036011 132.0
1209.426758 164.0
1209.613647 160.0
1209.828247 132.0
1211.365112 164.0
1211.47644 112.0
1213.427734 136.0
1216.53186 180.0
1217.767822 192.0
1218.552734 116.0
1218.691772 108.0
1219.435303 220.0
1219.622925 80.0
1220.846558 220.0
1221.688232 92.0
1222.704102 64.0
1223.316528 208.0
1226.262939 40.0
1227.999023 192.0
1228.389526 156.0
1228.522095 152.0
1230.811279 60.0
1231.006836 124.0
1232.3479 144.0
1232.739258 460.0
1233.060669 84.0
1233.87854 264.0
1234.179199 60.0
1234.32605 212.0
1234.82959 264.0
1235.584961 44.0
1236.494629 80.0
1237.110596 132.0
1237.487305 228.0
1237.579712 132.0
1238.483032 68.0
1238.539062 164.0
1241.686035 168.0
1242.429565 100.0
1246.34729 92.0
1246.529907 164.0
1246.916504 168.0
1247.83728 196.0
1248.350586 104.0
1248.60376 84.0
1249.166504 80.0
1249.426758 204.0
1249.50415 96.0
1249.92627 168.0
1250.510376 272.0
1251.26355 104.0
1252.686157 84.0
1253.454102 136.0
1253.714844 144.0
1255.152832 156.0
1255.385498 60.0
1256.027344 132.0
1256.323608 124.0
1256.429443 76.0
1256.775146 176.0
1257.530273 172.0
1258.137329 76.0
1258.504395 68.0
1259.048096 60.0
1260.828369 136.0
1261.097046 132.0
1261.761475 64.0
1262.12915 92.0
1263.7771 152.0
1264.576782 128.0
1264.909424 144.0
1266.006836 160.0
1266.063599 140.0
1267.685791 132.0
1268.66394 188.0
1268.756104 164.0
1269.124756 160.0
1269.209839 168.0
1270.685059 152.0
1271.217285 188.0
1272.920898 88.0
1273.695068 188.0
1274.72522 136.0
1276.011719 156.0
1277.128174 172.0
1277.796875 104.0
1277.910645 196.0
1279.333984 164.0
1279.56189 120.0
1280.238281 92.0
1280.815186 56.0
1281.249756 124.0
1282.062012 176.0
1282.696289 156.0
1283.829956 124.0
1284.364868 188.0
1285.107422 172.0
1285.534912 164.0
1285.741821 260.0
1287.105347 124.0
1287.405273 136.0
1290.985474 140.0
1292.05835 156.0
1292.108398 80.0
1292.709473 116.0
1292.859741 80.0
1292.974243 108.0
1293.353638 96.0
1293.661377 164.0
1293.790283 68.0
1293.940552 60.0
1295.036255 104.0
1296.289917 220.0
1296.35437 80.0
1296.590942 128.0
1297.766479 192.0
1298.34729 328.0
1298.411865 72.0
1299.686768 52.0
1299.990112 52.0
1300.212646 204.0
1300.8125 216.0
1302.517334 144.0
1302.682617 40.0
1302.898071 132.0
1303.487183 132.0
1303.832153 164.0
1304.090942 152.0
1304.57251 148.0
1304.824097 140.0
1305.140503 148.0
1305.370605 148.0
1306.068237 112.0
1306.168823 180.0
1306.327148 136.0
1306.665283 72.0
1307.403564 224.0
1308.78125 164.0
1309.105347 132.0
1309.544678 164.0
1309.77478 184.0
1310.865967 188.0
1311.172852 68.0
1311.345825 168.0
1311.403442 164.0
1312.045044 204.0
1312.167603 204.0
1312.25415 72.0
1312.809326 40.0
1313.083374 136.0
1314.17981 144.0
1314.923096 176.0
1315.356201 120.0
1315.41394 220.0
1316.47522 140.0
1317.081909 112.0
1317.837402 216.0
1317.963257 184.0
1318.093384 132.0
1319.17749 224.0
1319.495605 116.0
1319.546143 80.0
1319.777466 112.0
1320.30542 164.0
1320.717651 132.0
1321.006958 132.0
1321.079346 40.0
1321.325317 144.0
1321.60022 212.0
1321.701538 176.0
1321.802856 120.0
1322.354492 156.0
1322.410767 100.0
1323.699341 112.0
1323.873169 200.0
1323.989014 168.0
1324.133911 136.0
1324.677124 124.0
1325.234985 156.0
1325.401611 152.0
1325.655151 140.0
1325.713135 132.0
1327.126709 260.0
1327.561768 164.0
1327.771973 128.0
1328.976196 196.0
1329.063232 76.0
1329.440552 128.0
1331.197388 100.0
1331.473267 28.0
1331.576782 176.0
1332.846313 84.0
1332.933472 128.0
1333.900024 120.0
1334.780029 236.0
1335.492432 144.0
1335.587036 80.0
1336.56189 60.0
1336.627319 188.0
1337.158569 160.0
1337.515259 128.0
1337.755493 92.0
1338.097656 216.0
1338.665527 164.0
1339.444824 128.0
1339.532227 180.0
1339.648804 144.0
1340.034912 116.0
1340.861938 152.0
1342.199707 164.0
1342.36731 256.0
1343.140381 40.0
1343.300903 40.0
1343.388428 196.0
1343.439575 32.0
1344.293213 216.0
1344.928101 148.0
1345.220093 160.0
1345.278442 140.0
1345.402588 240.0
1345.48291 108.0
1346.26416 204.0
1346.410278 212.0
1347.929688 104.0
1349.391479 72.0
1350.488403 188.0
1350.949219 136.0
1351.644287 40.0
1352.07605 188.0
1352.449341 136.0
1352.734741 76.0
1353.693848 156.0
1353.884277 104.0
1355.473877 128.0
1355.85498 112.0
1356.280029 172.0
1356.338745 96.0
1356.456055 168.0
1357.174438 128.0
1357.255127 136.0
1357.453125 120.0
1357.687744 120.0
1357.835449 116.0
1358.113159 184.0
1358.179199 136.0
1358.964111 152.0
1359.888672 164.0
1359.954834 120.0
1360.233765 224.0
1361.86377 276.0
1361.966553 152.0
1362.032715 68.0
1362.084106 128.0
1362.627808 152.0
1363.119995 136.0
1363.671265 156.0
1364.442993 116.0
1366.230103 212.0
1366.737793 144.0
1367.665039 128.0
1368.150879 136.0
1369.609985 156.0
1369.925659 92.0
1370.308716 108.0
1370.713989 184.0
1370.831909 92.0
1371.244629 140.0
1371.731079 148.0
1372.531006 140.0
1372.718994 120.0
1373.485962 116.0
1374.314697 224.0
1375.227295 144.0
1375.935913 208.0
1376.401123 196.0
1376.467529 168.0
1376.622681 112.0
1377.006714 100.0
1377.168579 168.0
1377.494141 148.0
1379.21582 112.0
1379.444946 212.0
1380.768433 128.0
1381.582153 180.0
1381.744873 156.0
1382.298828 136.0
1382.73645 204.0
1383.136108 136.0
1383.380371 196.0
1384.054077 196.0
1384.246582 152.0
1384.824341 88.0
1385.29834 204.0
1385.728027 156.0
1385.86145 224.0
1385.97998 132.0
1386.80249 100.0
1387.528931 208.0
1387.833008 88.0
1388.092529 84.0
1388.225952 196.0
1388.49292 116.0
1389.271729 188.0
1389.41272 156.0
1389.924683 212.0
1390.110107 124.0
1391.030518 164.0
1391.58728 132.0
1391.676392 236.0
1391.958496 184.0
1392.277832 164.0
1392.515503 128.0
1393.096191 112.0
1393.704102 224.0
1393.77832 168.0
1394.402588 108.0
1394.789062 208.0
1394.989746 132.0
1395.525024 148.0
1396.052979 172.0
1396.603394 276.0
1397.198486 136.0
1398.91748 68.0
1399.006836 152.0
1399.06958 176.0
1399.527954 44.0
1400.116333 136.0
1400.592896 188.0
1400.741943 140.0
1401.852051 108.0
1402.135254 132.0
1402.700684 152.0
1403.417358 192.0
1404.40918 160.0
1405.140259 156.0
1405.379028 128.0
1406.722412 100.0
1406.799316 212.0
1406.885132 212.0
1407.005981 176.0
1407.356934 208.0
1407.61084 108.0
1408.096191 120.0
1408.357666 160.0
1409.112061 140.0
1410.150757 144.0
1411.39917 216.0
1412.22937 48.0
1412.438721 176.0
1412.782837 56.0
1412.984863 172.0
1413.358887 116.0
1414.062378 220.0
1414.234497 100.0
1415.237671 184.0
1415.477295 136.0
1415.537231 240.0
1416.008911 52.0
1416.13623 168.0
1416.817993 188.0
1417.050171 224.0
1417.64209 128.0
1417.904419 64.0
1418.481567 180.0
1418.668945 180.0
1418.811401 156.0
1419.358765 148.0
1419.553711 56.0
1419.606201 88.0
1419.673706 116.0
1419.943604 140.0
1420.228638 132.0
1420.296143 144.0
1420.888794 236.0
1421.224365 224.0
1421.458984 124.0
1421.907715 116.0
1422.126953 136.0
1422.254517 80.0
1422.682373 172.0
1423.418213 80.0
1424.529785 108.0
1425.423828 124.0
1426.055054 168.0
1426.116577 132.0
1426.370728 184.0
1427.265381 128.0
1427.468384 200.0
1428.513916 76.0
1428.679321 164.0
1429.266235 116.0
1429.710205 88.0
1431.321167 188.0
1431.998901 132.0
1432.872681 104.0
1433.400146 156.0
1433.550781 160.0
1435.465454 196.0
1435.736938 120.0
1436.174438 176.0
1436.559082 172.0
1436.619507 100.0
1436.921265 96.0
1438.59021 128.0
1439.034546 180.0
1439.306274 136.0
1439.99353 128.0
1440.046387 172.0
1440.242798 32.0
1440.612915 172.0
1440.764038 76.0
1440.877319 176.0
1441.081299 132.0
1441.164429 164.0
1441.695923 200.0
1441.821777 136.0
1442.18457 108.0
1442.305542 164.0
1442.388672 92.0
1442.827148 164.0
1443.840332 124.0
1443.968872 196.0
1444.347046 64.0
1444.55896 196.0
1444.982544 360.0
1445.080933 160.0
1445.186768 116.0
1445.27002 108.0
1445.391113 96.0
1445.739258 112.0
1446.026855 184.0
1446.289551 72.0
1447.677124 152.0
1449.517944 176.0
1449.805908 152.0
1450.040894 116.0
1450.450073 84.0
1450.601685 140.0
1450.783691 120.0
1451.056641 104.0
1451.223389 168.0
1451.280762 136.0
1452.002075 152.0
1452.133423 168.0
1452.20166 184.0
1452.634033 164.0
1453.893433 80.0
1454.371582 300.0
1454.857422 88.0
1455.237061 188.0
1455.715454 140.0
1455.927979 208.0
1456.69519 200.0
1456.930664 64.0
1457.052246 156.0
1457.523315 108.0
1457.69043 100.0
1458.336426 140.0
1458.450439 104.0
1459.30188 148.0
1460.670776 148.0
1460.876099 208.0
1461.028198 140.0
1461.09668 72.0
1461.865234 116.0
1461.941284 120.0
1462.291382 164.0
1462.397949 112.0
1462.630737 180.0
1463.166748 96.0
1463.555054 56.0
1463.874878 124.0
1464.027222 76.0
1464.377441 168.0
1464.693848 156.0
1464.849731 152.0
1465.527832 148.0
1466.35083 188.0
1466.472778 124.0
1466.579468 96.0
1466.97583 208.0
1467.219727 324.0
1467.860229 228.0
1468.851685 52.0
1468.920288 212.0
1469.286499 132.0
1469.637451 176.0
1469.782471 208.0
1469.927368 48.0
1470.560791 108.0
1470.71521 172.0
1470.988281 168.0
1471.079834 196.0
1471.316528 148.0
1471.965454 168.0
1472.286255 204.0
1472.645142 216.0
1474.027954 180.0
1474.410034 160.0
1475.0979 180.0
1475.159058 160.0
1475.253906 196.0
1476.627197 172.0
1476.680664 228.0
1476.893066 176.0
1477.522095 172.0
1477.774536 176.0
1478.493896 128.0
1478.686279 172.0
1479.044922 200.0
1479.536011 132.0
1480.277588 144.0
1480.813599 148.0
1481.051025 104.0
1481.365112 124.0
1481.817139 96.0
1482.225952 168.0
1482.567993 48.0
1482.682983 168.0
1482.882202 224.0
1483.379395 204.0
1483.610474 156.0
1483.809692 76.0
1483.963135 152.0
1484.116455 88.0
1484.377197 156.0
1484.515137 172.0
1484.745239 184.0
1484.94458 100.0
1485.573608 136.0
1486.072266 152.0
1486.164307 308.0
1486.440552 152.0
1487.169678 112.0
1487.376831 212.0
1487.568848 136.0
1487.69165 152.0
1488.113892 84.0
1489.182739 140.0
1489.342529 156.0
1489.534546 132.0
1489.864868 148.0
1490.525635 112.0
1490.610229 140.0
1490.86377 124.0
1491.009766 132.0
1491.117432 240.0
1491.265625 140.0
1491.52478 168.0
1492.139771 120.0
1492.193604 172.0
1492.370361 128.0
1492.462646 176.0
1492.715942 132.0
1493.031738 176.0
1493.963379 148.0
1494.716309 80.0
1495.062622 140.0
1495.358398 84.0
1495.570557 208.0
1495.662964 184.0
1495.801514 128.0
1496.271118 288.0
1496.348145 204.0
1496.401978 152.0
1496.602173 144.0
1497.310669 156.0
1497.541626 128.0
1498.211792 80.0
1498.312012 176.0
1498.620117 144.0
1498.681763 196.0
1499.182617 240.0
1499.668213 100.0
1499.729858 136.0
1500.732056 184.0
1500.909424 104.0
1501.009644 228.0
1501.395142 140.0
1501.449219 164.0
1501.711426 156.0
1501.973633 144.0
1502.0354 152.0
1502.097046 192.0
1503.238892 200.0
1503.439575 148.0
1503.732788 136.0
1504.358032 156.0
1504.543335 164.0
1504.975708 120.0
