>compound Chrysin
>formula C15H10O4
>ionization [M+H]+
>parentmass 255.06518525209054
#inchi InChI=1S/C15H10O4/c16-10-6-11(17)15-12(18)8-13(19-14(15)7-10)9-4-2-1-3-5-9/h1-8,16-17H
#inchikey RTIXKCRFFJGDFG
#Ion_Source DI-ESI
#Instrument qTof
#Compound_Source Isolated
#PI Norberto Lopes
#Data_Collector Denise Silva
#Scan -1
#Precursor_MZ 255.059
#ExactMass 254.058
#Charge 1
#CAS_Number 480-40-0
#Pubmed_ID  
#Smiles O=C1C2=C(O)C=C(O)C=C2OC(C3=CC=CC=C3)=C1
#INCHI_AUX  
#Library_Class 3
#SpectrumID CCMSLIB00000078873
#IonMode Positive
#UpdateWorkflowName UPDATE-SINGLE-ANNOTATED-BRONZE
#LibraryQualityString Bronze
#TaskID 0cef2b490beb4260815ac44ffd63c1ff
##Scan# 1
#SpectrumFile gnps_chrysin_pos_MSMS_255.mgf
#LibraryName gnps_library.mgf
#MQScore -1
#Organism gnps_library
#TIC_Query 0
#RT_Query -1
#MZErrorPPM -1
#SharedPeaks 0
#MassDiff 0
#LibMZ -1
#SpecMZ 255.059
#SpecCharge 0
#internalFilename spec-00000.mgf

>collision 10
115.051117 580.0
125.020943 755.0
127.0513 291.0
128.057816 507.0
129.030273 9477.0
132.728958 404.0
139.049637 2625.0
141.065643 717.0
145.054855 1000.0
147.040253 5151.0
148.043427 261.0
151.048065 332.0
152.057114 8561.0
153.013901 44122.0
154.016464 1779.0
155.055527 580.0
157.062393 413.0
163.05043 263.0
165.064789 359.0
167.045166 533.0
169.059601 1168.0
171.028046 4912.0
179.055267 486.0
181.060745 3304.0
186.062012 751.0
187.069016 1260.0
199.071472 402.0
209.05481 3538.0
210.058838 354.0
211.035553 289.0
213.047943 1785.0
226.056778 251.0
227.062836 376.0
231.057373 555.0
237.048218 1291.0
255.058517 50045.0
