>compound TFMPP
>formula C11H13F3N2
>ionization [M+H]+
>parentmass 231.11
#inchi InChI=1S/C11H13F3N2/c12-11(13,14)9-2-1-3-10(8-9)16-6-4-15-5-7-16/h1-3,8,15H,4-7H2
#inchikey KKIMDKMETPPURN
#Ion_Source LC-ESI
#Instrument qTof
#Compound_Source Commercial
#PI Dorrestein
#Data_Collector Garg_Neha
#Scan -1
#Precursor_MZ 231.11
#ExactMass 230.103
#Charge 1
#CAS_Number N/A
#Pubmed_ID N/A
#Smiles FC(F)(F)c1cccc(c1)N2CCNCC2
#INCHI_AUX N/A
#Library_Class 1
#SpectrumID CCMSLIB00000079198
#IonMode Positive
#UpdateWorkflowName UPDATE-SINGLE-ANNOTATED-GOLD
#LibraryQualityString Gold
#TaskID 278b19f5865741e282cec7349aa7e7a1
##Scan# 1057
#SpectrumFile NCP003592_E2_F11_BE2_01_15736.mzXML
#LibraryName NIHcollectionI_05062014.mgf
#MQScore -1
#Organism NIHcollectionI_05062014
#TIC_Query 0
#RT_Query -1
#MZErrorPPM -1
#SharedPeaks 0
#MassDiff 0
#LibMZ -1
#SpecMZ 231.11
#SpecCharge 0
#internalFilename spec-00000.mgf

>collision 10
44.974121 140.0
44.988804 144.0
45.075623 140.0
45.153156 176.0
45.510952 188.0
45.872982 128.0
45.933537 168.0
45.959171 156.0
46.041515 148.0
46.301178 140.0
46.544422 172.0
46.576511 196.0
46.735569 168.0
46.919437 144.0
46.957619 172.0
47.219849 160.0
47.278675 144.0
47.460865 144.0
47.774006 356.0
47.836128 140.0
48.164116 160.0
48.383991 176.0
48.451851 168.0
48.855843 156.0
48.939346 196.0
49.007599 212.0
49.092628 176.0
49.160984 160.0
49.181919 192.0
49.29755 136.0
49.384518 168.0
49.595943 168.0
49.964695 216.0
50.182407 136.0
50.930779 172.0
50.981926 144.0
51.332119 152.0
51.369202 148.0
51.637733 148.0
51.720722 172.0
51.891193 212.0
51.929913 148.0
52.161087 156.0
52.825855 188.0
52.977856 168.0
53.073513 220.0
53.25927 148.0
53.31012 156.0
53.462814 156.0
53.574932 216.0
53.652168 172.0
53.92075 216.0
54.137268 192.0
54.536125 292.0
54.895355 152.0
54.976685 180.0
55.133224 160.0
55.18792 144.0
55.230808 152.0
55.676926 172.0
56.019024 224.0
56.535709 160.0
56.649426 140.0
57.086189 160.0
57.171936 180.0
57.452194 144.0
57.633366 156.0
58.045219 224.0
58.083 140.0
58.584641 232.0
58.730976 148.0
58.918739 152.0
59.336548 144.0
59.439926 200.0
59.462757 144.0
59.609756 220.0
59.682003 220.0
59.715836 164.0
59.783527 144.0
59.809692 152.0
60.093246 164.0
60.159607 176.0
60.600376 148.0
60.618969 144.0
61.058304 148.0
61.402493 176.0
61.464893 148.0
61.624809 124.0
62.434566 144.0
62.583118 208.0
62.788914 184.0
63.153614 136.0
63.329445 156.0
63.416588 140.0
63.715096 152.0
63.993237 176.0
64.52932 208.0
64.953697 180.0
64.987389 144.0
65.109383 160.0
65.198883 136.0
65.260437 172.0
65.356941 180.0
65.716766 124.0
65.74852 144.0
66.017303 192.0
66.142891 188.0
66.363213 172.0
66.382118 164.0
66.501099 188.0
66.606644 160.0
66.650383 104.0
67.153542 192.0
67.586449 148.0
67.904251 332.0
68.020752 148.0
68.153778 160.0
68.438332 168.0
68.556931 140.0
68.685532 164.0
68.733376 152.0
68.819206 140.0
69.118378 148.0
69.180954 148.0
69.222664 172.0
69.459816 172.0
69.487862 172.0
69.545944 176.0
69.572502 148.0
69.612839 136.0
69.949608 184.0
70.001472 144.0
70.224792 172.0
70.281509 184.0
70.299866 156.0
70.341591 216.0
70.376648 224.0
70.466843 140.0
70.542046 160.0
70.653404 180.0
70.770172 144.0
71.232445 172.0
71.255959 140.0
71.439636 188.0
71.531761 160.0
71.762558 188.0
71.8452 160.0
71.971817 176.0
72.037651 152.0
72.211746 192.0
72.547012 140.0
73.109222 144.0
73.207954 324.0
73.417564 172.0
73.528458 196.0
73.688972 144.0
73.750168 168.0
73.830849 140.0
73.846237 212.0
74.001961 200.0
74.240143 168.0
74.303604 172.0
74.332771 176.0
74.831238 148.0
75.12249 168.0
75.733505 116.0
76.043022 144.0
76.102043 184.0
76.135033 188.0
76.270554 288.0
76.749306 140.0
76.911545 196.0
77.021553 212.0
77.107162 176.0
77.41507 144.0
77.460602 180.0
77.497391 212.0
78.074913 168.0
78.300179 148.0
78.4711 140.0
79.334976 176.0
79.40477 180.0
79.562698 156.0
79.787529 396.0
80.008919 160.0
80.090836 152.0
80.122902 148.0
80.253006 228.0
80.783424 212.0
80.833519 192.0
80.899742 140.0
80.955246 164.0
81.229469 160.0
81.410744 172.0
81.483215 224.0
81.518631 136.0
81.785126 184.0
81.892731 144.0
82.173943 188.0
82.316536 312.0
82.437569 160.0
82.4701 204.0
82.521606 260.0
82.909897 156.0
83.096664 156.0
83.300148 184.0
83.704536 192.0
84.035477 172.0
84.153763 144.0
84.210724 188.0
84.446495 140.0
84.724731 192.0
84.801689 140.0
84.890617 164.0
85.018105 156.0
85.3414 168.0
85.503273 148.0
85.54377 212.0
85.633995 196.0
85.845932 180.0
86.091583 136.0
86.396339 148.0
86.633301 172.0
87.106331 208.0
87.463058 128.0
87.739044 196.0
87.858406 140.0
88.239388 200.0
88.355339 156.0
88.430191 200.0
89.014969 256.0
89.078957 160.0
89.389175 164.0
89.735748 256.0
89.771576 164.0
90.030113 176.0
90.135895 144.0
90.151016 204.0
90.372253 156.0
90.525574 148.0
90.643021 164.0
90.758842 192.0
90.876884 140.0
90.982521 192.0
91.053673 180.0
91.271309 144.0
91.385437 164.0
91.613892 208.0
91.850266 180.0
92.107956 160.0
92.214958 152.0
92.251488 216.0
92.356445 172.0
92.388962 168.0
92.827438 176.0
92.990639 140.0
93.078941 176.0
93.69442 160.0
94.516914 144.0
94.677582 188.0
95.127411 160.0
95.224495 144.0
95.471313 256.0
95.538628 180.0
95.623055 172.0
95.869263 172.0
96.725853 180.0
97.116104 212.0
97.636238 204.0
98.56076 220.0
98.888397 148.0
98.928627 144.0
99.483688 144.0
99.850708 180.0
99.869179 188.0
100.004478 144.0
100.311226 252.0
100.708305 176.0
100.75824 172.0
100.897499 188.0
100.936127 164.0
101.024689 368.0
101.044006 192.0
101.08815 172.0
101.238289 164.0
101.566978 180.0
101.591049 164.0
101.621147 200.0
101.87812 172.0
102.048286 148.0
102.089478 204.0
102.221931 172.0
102.278625 140.0
102.316597 116.0
103.055099 268.0
103.112389 116.0
103.151695 140.0
103.445564 160.0
103.491577 140.0
103.572578 180.0
103.621201 168.0
103.814034 204.0
103.89476 124.0
104.048653 424.0
104.164879 192.0
104.50235 200.0
104.653397 224.0
104.736679 152.0
104.989296 152.0
105.056496 140.0
105.183014 140.0
105.536438 272.0
105.808556 140.0
105.849503 164.0
105.935524 140.0
106.027725 156.0
106.51548 132.0
106.561241 152.0
106.747742 188.0
107.03019 140.0
107.046661 164.0
107.100212 168.0
107.201164 156.0
107.224068 172.0
107.698364 148.0
107.912117 156.0
108.033234 152.0
108.205002 140.0
108.221779 196.0
108.347908 152.0
108.366554 176.0
108.592506 148.0
108.984848 180.0
109.051346 196.0
109.142822 196.0
109.207283 224.0
109.24057 144.0
109.575737 196.0
109.759155 156.0
109.798775 144.0
110.074242 200.0
110.245529 184.0
110.429512 144.0
110.678535 156.0
110.904793 140.0
110.927849 168.0
111.219414 160.0
111.479836 148.0
111.608063 164.0
111.738464 156.0
112.071121 192.0
112.448593 148.0
112.625946 264.0
112.676643 176.0
112.740036 140.0
112.828812 156.0
113.095345 224.0
113.220535 132.0
113.494827 128.0
113.58522 204.0
113.671791 188.0
114.303131 164.0
114.60099 152.0
114.989967 204.0
115.136406 160.0
115.155632 176.0
115.360756 156.0
115.382133 172.0
115.613144 144.0
115.831528 148.0
115.985809 140.0
116.063263 156.0
116.38913 212.0
116.616844 176.0
116.965294 176.0
116.986816 160.0
117.014809 172.0
117.052666 564.0
117.269234 176.0
117.320724 172.0
117.497566 144.0
117.624519 164.0
117.938858 112.0
118.037346 196.0
118.06546 5072.0
118.138016 148.0
118.159966 132.0
118.236557 228.0
118.440079 152.0
118.799911 176.0
119.072769 7760.0
119.126701 140.0
119.497284 148.0
119.536446 172.0
119.643745 148.0
119.846329 140.0
120.075714 636.0
120.166153 172.0
120.270897 176.0
120.734077 140.0
120.780006 208.0
120.878456 144.0
121.031464 152.0
121.045433 1012.0
121.564339 148.0
121.643356 156.0
121.660912 144.0
121.915199 188.0
121.966248 312.0
122.047989 464.0
122.247765 188.0
122.917656 152.0
122.948547 216.0
123.053383 160.0
123.209099 144.0
123.315163 144.0
123.476555 156.0
123.503098 156.0
123.983536 140.0
124.171982 156.0
124.481186 288.0
124.740395 140.0
124.793747 180.0
124.822655 168.0
125.018005 340.0
125.655678 164.0
125.671295 180.0
125.912376 152.0
126.068756 160.0
126.093338 200.0
126.173813 156.0
126.453423 156.0
126.879021 180.0
127.006836 152.0
127.036346 2416.0
127.078331 216.0
127.185715 144.0
127.323708 196.0
127.617668 160.0
128.049637 596.0
128.089172 172.0
128.369736 144.0
128.39679 200.0
128.536652 348.0
128.62468 188.0
128.66983 212.0
128.789505 148.0
128.848236 168.0
128.900208 176.0
129.008698 144.0
129.054321 312.0
129.409958 120.0
129.48613 168.0
129.676132 148.0
129.975784 172.0
130.067245 500.0
130.180069 216.0
130.350449 168.0
130.484543 216.0
130.607346 172.0
130.729019 192.0
131.023987 140.0
131.069489 212.0
131.637482 164.0
131.724258 148.0
131.93222 140.0
131.972549 180.0
132.068176 224.0
132.678528 192.0
132.76796 156.0
132.852814 164.0
132.940002 176.0
133.046188 568.0
133.500534 148.0
133.633942 200.0
133.944717 188.0
133.976974 240.0
134.507355 192.0
134.793732 196.0
134.837646 144.0
134.923065 168.0
134.97403 160.0
134.990219 184.0
135.052124 196.0
135.073486 324.0
135.473953 148.0
135.615295 160.0
136.232529 216.0
136.255753 152.0
136.38356 192.0
136.453308 160.0
136.678909 144.0
136.732437 140.0
136.799942 168.0
137.006592 108.0
137.293884 160.0
138.17215 156.0
138.279785 196.0
138.333618 172.0
138.453033 140.0
138.48114 172.0
138.783432 148.0
139.298431 128.0
139.377274 188.0
139.466583 140.0
140.029999 900.0
140.245667 192.0
141.019821 160.0
141.05159 4448.0
141.836411 160.0
142.048737 480.0
142.251526 156.0
142.643478 220.0
142.669617 156.0
143.054993 164.0
143.071671 176.0
143.180252 152.0
143.262177 172.0
143.45282 148.0
143.676987 192.0
143.87587 180.0
144.077255 452.0
144.208344 116.0
144.274017 196.0
144.549072 148.0
144.675919 256.0
144.790405 128.0
144.992096 180.0
145.026596 2632.0
145.066406 184.0
145.08696 512.0
145.219864 184.0
145.253433 148.0
145.378204 144.0
145.53183 144.0
145.625473 164.0
145.865753 176.0
146.032547 316.0
146.058594 320.0
146.375793 140.0
146.706863 176.0
146.780624 192.0
146.978409 164.0
147.040543 140.0
147.092438 152.0
147.178757 296.0
147.925797 160.0
148.022995 160.0
148.055786 8048.0
148.292572 132.0
148.502472 144.0
148.640762 360.0
149.011932 192.0
149.058395 1212.0
149.100449 336.0
149.153198 156.0
149.33313 232.0
149.389069 180.0
149.474228 152.0
149.866241 168.0
150.160233 240.0
150.183151 232.0
150.556564 176.0
150.677841 148.0
151.035324 1104.0
151.25827 196.0
151.343948 132.0
151.601151 144.0
151.667328 216.0
151.686935 164.0
152.27832 184.0
152.553268 248.0
152.676407 152.0
153.039017 144.0
153.220383 180.0
153.570419 148.0
154.014694 144.0
154.045563 528.0
154.195053 160.0
154.333481 192.0
155.016663 144.0
155.058746 224.0
155.515152 220.0
156.016922 268.0
156.126328 156.0
156.253174 180.0
156.275574 156.0
156.379501 136.0
156.464722 160.0
157.16008 140.0
157.182541 168.0
157.23494 164.0
157.739471 196.0
157.764465 216.0
158.01329 148.0
158.073761 176.0
158.169708 144.0
158.743439 140.0
158.898956 148.0
159.042618 708.0
159.200165 144.0
159.592148 208.0
159.765686 180.0
159.911636 140.0
160.037643 2388.0
161.045166 1408.0
161.174423 96.0
161.278244 120.0
161.895981 188.0
162.052872 1132.0
162.311569 176.0
162.341995 168.0
162.585541 168.0
162.626144 152.0
163.050278 148.0
163.162125 164.0
163.187546 236.0
163.253662 156.0
163.460892 164.0
164.139816 172.0
164.712509 132.0
165.04628 192.0
165.263702 144.0
165.353256 200.0
165.69017 156.0
165.732452 160.0
165.898834 204.0
166.047241 5656.0
166.199341 168.0
166.237396 212.0
166.779297 192.0
166.889832 140.0
167.054184 588.0
167.166351 124.0
167.195618 128.0
167.283463 160.0
167.306625 200.0
167.708466 140.0
167.834793 180.0
167.870895 200.0
167.894104 240.0
168.062775 10056.0
168.123703 164.0
168.363785 144.0
168.389603 156.0
168.867752 140.0
168.945343 152.0
169.02037 176.0
169.067459 260.0
169.120102 164.0
169.17308 172.0
169.227448 200.0
169.388 140.0
169.855011 184.0
170.076279 200.0
170.347794 192.0
170.579468 176.0
171.040863 576.0
171.084732 176.0
171.139572 156.0
171.474442 176.0
171.564011 176.0
171.667358 240.0
171.79776 140.0
171.925613 200.0
172.036621 4136.0
172.374771 196.0
172.71463 200.0
173.039688 700.0
173.250076 132.0
173.505463 168.0
173.810425 160.0
174.052719 6888.0
174.105026 96.0
174.122772 172.0
174.270905 148.0
174.366425 144.0
174.521515 144.0
174.797714 224.0
174.945099 176.0
175.055908 300.0
175.300659 140.0
175.493088 228.0
175.580093 292.0
176.066589 224.0
176.573105 144.0
177.118347 156.0
177.327652 204.0
177.531464 160.0
178.291046 208.0
178.559555 176.0
178.817627 140.0
179.052872 192.0
179.163773 184.0
179.307663 144.0
179.435608 156.0
179.613159 188.0
180.060074 160.0
180.211136 220.0
180.682816 200.0
180.808578 184.0
180.840698 184.0
181.261154 168.0
181.802826 264.0
182.044434 156.0
182.089249 128.0
182.442093 156.0
182.555008 156.0
182.686798 148.0
182.735229 144.0
182.867081 144.0
182.929001 168.0
183.032578 168.0
183.281799 164.0
183.337372 212.0
183.723969 268.0
183.851486 124.0
183.915558 184.0
184.523361 148.0
184.585541 164.0
184.612579 144.0
184.791107 192.0
184.83609 140.0
184.99408 144.0
185.044678 452.0
185.262177 144.0
186.053436 7596.0
186.116486 144.0
186.156769 96.0
186.521286 140.0
187.058167 1304.0
187.130295 180.0
187.184616 132.0
187.397568 144.0
187.451859 104.0
187.503845 240.0
187.5513 212.0
187.650436 164.0
187.689209 360.0
187.726837 280.0
187.771484 164.0
187.859573 344.0
187.91832 144.0
187.941879 180.0
187.972519 276.0
188.015564 432.0
188.069366 171912.0
188.169632 96.0
188.208847 108.0
188.238525 180.0
188.269745 212.0
188.324387 132.0
188.384216 380.0
188.467239 148.0
188.517838 464.0
188.66156 140.0
188.732773 116.0
188.882324 120.0
189.071991 13680.0
189.150543 120.0
189.189545 192.0
189.347748 140.0
189.463882 136.0
189.503403 112.0
189.610962 176.0
189.909515 148.0
189.950775 128.0
189.992096 164.0
190.074036 656.0
190.108704 104.0
190.215469 176.0
190.239609 156.0
190.290207 160.0
190.469833 116.0
190.490067 140.0
190.594543 132.0
190.673279 104.0
190.761017 164.0
190.994751 156.0
191.819061 252.0
191.867004 136.0
192.400116 180.0
192.576843 180.0
192.866959 144.0
192.938828 144.0
193.137939 184.0
193.467224 148.0
193.547516 232.0
193.747726 152.0
194.075592 440.0
194.290298 156.0
194.367981 172.0
194.702118 164.0
194.895538 144.0
195.078964 164.0
195.92218 232.0
196.080139 168.0
196.593063 104.0
196.75563 200.0
196.962677 144.0
197.286819 176.0
198.052414 416.0
198.105072 116.0
198.185211 180.0
198.504745 164.0
198.90033 152.0
199.053879 364.0
199.22644 152.0
199.672989 276.0
199.755676 100.0
199.810822 152.0
200.068481 3060.0
200.14856 168.0
200.334976 128.0
200.480957 192.0
200.521423 268.0
200.55423 160.0
201.019577 180.0
201.062988 1156.0
201.874252 108.0
202.082733 956.0
202.130096 184.0
202.287827 256.0
202.868179 112.0
203.090378 172.0
203.197449 96.0
203.981354 144.0
204.358505 152.0
204.46843 236.0
204.724655 168.0
205.685471 180.0
205.836777 192.0
206.142426 156.0
206.256744 168.0
206.476898 152.0
206.594162 148.0
207.361557 140.0
208.633148 152.0
208.728027 140.0
209.11319 180.0
209.147064 224.0
209.747177 172.0
209.845184 156.0
210.171112 184.0
210.38179 168.0
210.869949 152.0
211.04628 212.0
211.104111 1292.0
211.749466 176.0
211.861771 172.0
212.064148 600.0
212.103073 368.0
212.265305 156.0
212.950195 160.0
213.074142 208.0
213.496567 140.0
213.828217 140.0
214.083664 2760.0
214.378632 172.0
214.454407 164.0
215.09053 604.0
215.721222 184.0
215.922958 144.0
215.958069 168.0
216.019485 160.0
216.118958 160.0
217.155975 224.0
217.267441 216.0
217.430557 156.0
217.6203 172.0
217.969147 172.0
218.699341 180.0
219.700363 228.0
219.868546 204.0
221.092041 172.0
221.133469 236.0
221.222275 156.0
221.595413 176.0
222.180923 144.0
222.218033 140.0
222.256607 160.0
222.526703 176.0
223.071167 176.0
223.162506 200.0
224.025574 196.0
224.33252 164.0
224.365311 212.0
224.705292 248.0
225.215759 172.0
225.42189 184.0
225.666992 140.0
225.993011 176.0
226.100739 172.0
226.807571 148.0
226.973953 264.0
227.017426 144.0
227.078491 336.0
227.137405 148.0
227.362427 140.0
227.590561 140.0
227.710678 200.0
227.878906 144.0
228.161407 184.0
228.317764 164.0
228.516296 156.0
228.705872 160.0
228.806519 204.0
228.988892 292.0
229.057755 172.0
229.094772 10468.0
229.139175 588.0
229.175232 168.0
229.232605 268.0
229.266205 164.0
229.352478 196.0
229.387436 156.0
229.446915 176.0
229.472153 140.0
229.529831 216.0
229.56752 156.0
229.614487 216.0
229.647156 136.0
229.722504 156.0
229.747208 132.0
229.799774 140.0
230.013931 108.0
230.097244 1032.0
230.122437 292.0
230.157394 108.0
230.253662 120.0
230.279755 156.0
230.301971 212.0
230.371704 272.0
230.416519 140.0
230.467392 176.0
230.510422 248.0
230.586075 176.0
230.670486 176.0
230.726883 416.0
230.775513 208.0
230.829498 264.0
230.870346 200.0
230.901901 240.0
230.974274 536.0
231.000717 200.0
231.065643 636.0
231.076813 788.0
231.113205 228932.0
231.217911 240.0
231.315018 412.0
231.34993 236.0
231.393723 1204.0
231.464966 360.0
231.484055 576.0
231.518906 120.0
231.576508 1640.0
231.611862 10464.0
231.653137 420.0
231.708237 200.0
231.768112 116.0
231.853287 200.0
231.912399 412.0
231.950806 384.0
232.024216 136.0
232.066055 248.0
232.114975 64864.0
232.22403 128.0
232.266464 128.0
232.29805 128.0
232.381485 140.0
232.613663 392.0
232.809067 216.0
232.872742 148.0
232.967896 280.0
233.074493 192.0
233.116653 3288.0
233.165939 132.0
233.201584 120.0
233.239304 108.0
233.281021 204.0
233.317566 196.0
233.364838 204.0
233.424774 292.0
233.515915 172.0
233.551132 256.0
233.590973 188.0
233.63765 280.0
233.660187 292.0
233.706848 176.0
233.750198 260.0
233.782837 284.0
233.812561 480.0
233.937546 352.0
234.074188 100.0
234.109528 180.0
234.576111 144.0
234.641373 124.0
234.828156 96.0
234.971024 172.0
235.026627 144.0
235.163254 100.0
235.341385 96.0
235.597092 108.0
237.876923 148.0
238.908417 136.0
239.175888 116.0
241.699234 140.0
242.32518 144.0
249.76474 112.0
267.001556 152.0
272.133636 128.0
273.153931 172.0
359.992035 124.0
380.283203 140.0
525.392883 140.0
631.390198 176.0
633.056702 148.0
805.961121 148.0
1171.416504 168.0
1291.862061 184.0
1341.503784 192.0
1357.002441 192.0
1361.390381 172.0
1449.294556 208.0
1480.633667 140.0
1510.041138 148.0
1534.829224 256.0
1544.638306 164.0
1563.083008 208.0
1589.610107 160.0
1592.436279 148.0
1612.849487 200.0
1616.2323 156.0
1629.276855 140.0
1630.080322 160.0
1632.089844 168.0
1636.313965 148.0
1640.95459 172.0
1653.653076 180.0
1659.66394 184.0
1705.249146 192.0
1708.521729 184.0
1711.171753 188.0
1713.733276 180.0
1716.35437 148.0
1716.947998 188.0
1722.709229 256.0
1729.282837 152.0
1729.34082 240.0
1742.168457 180.0
1745.052368 216.0
1752.734741 208.0
1763.642212 164.0
1782.927246 240.0
1787.678589 156.0
1793.321167 176.0
1802.612915 172.0
1806.88269 172.0
1810.598633 152.0
1831.185425 152.0
1832.744385 140.0
1833.161987 140.0
1834.431885 204.0
1838.841675 196.0
1840.830811 156.0
1856.002075 156.0
1862.644653 152.0
1864.139526 168.0
1870.701904 200.0
1873.347534 168.0
1873.621338 216.0
1879.216675 212.0
1882.332642 176.0
1890.423706 196.0
1893.245728 196.0
1895.862061 176.0
1905.927856 144.0
1909.031128 168.0
1911.849731 160.0
1912.102051 160.0
1916.186035 200.0
1928.114258 144.0
1930.133545 144.0
1931.559082 144.0
1937.047485 164.0
1948.891113 152.0
1951.677368 236.0
1952.697388 180.0
1952.978882 172.0
1960.753052 148.0
1962.304565 156.0
1967.67749 148.0
1975.224365 140.0
1979.543335 140.0
1980.827515 220.0
1983.122437 152.0
2001.974731 152.0
