>compound Aphidicolin
>formula C20H34O4
>ionization [M+Na]+
>parentmass 361.2349302680905
#inchi InChI=1S/C20H34O4/c1-17(11-21)15-4-3-13-9-14-10-19(13,7-8-20(14,24)12-22)18(15,2)6-5-16(17)23/h13-16,21-24H,3-12H2,1-2H3/t13-,14+,15-,16+,17-,18-,19-,20-/m0/s1
#inchikey NOFOAYPPHIUXJR
#Ion_Source DI-ESI
#Instrument qTof
#Compound_Source Isolated
#PI Norberto Lopes
#Data_Collector Monica Pupo
#Scan -1
#Precursor_MZ 361.204
#ExactMass 338.246
#Charge 1
#CAS_Number 38966-21-1
#Pubmed_ID N/A
#Smiles OC[C@@]1(O)CC[C@]23[C@](CC[C@]4([H])[C@]2(C)CC[C@@H](O)[C@@]4(C)CO)([H])C[C@@]1(C3)[H]
#INCHI_AUX N/A
#Library_Class 3
#SpectrumID CCMSLIB00000081680
#IonMode Positive
#UpdateWorkflowName UPDATE-SINGLE-ANNOTATED-BRONZE
#LibraryQualityString Bronze
#TaskID 52bd5f0db6314c93924d5ce5c86348eb
##Scan# 1
#SpectrumFile gnps_Aphidicolin_pos_MplusNa.mgf
#LibraryName gnps_library.mgf
#MQScore -1
#Organism batch_27_05_V02
#TIC_Query 0
#RT_Query -1
#MZErrorPPM -1
#SharedPeaks 0
#MassDiff 0
#LibMZ -1
#SpecMZ 361.204
#SpecCharge 0
#internalFilename spec-00000.mgf

>collision 10
117.059189 155.0
119.073593 120.0
121.090118 102.0
131.071426 309.0
133.087524 236.0
135.103622 233.0
143.072906 222.0
145.087036 406.0
147.102127 316.0
149.119522 189.0
157.084686 358.0
159.103439 471.0
161.116592 471.0
163.132782 127.0
169.083496 153.0
171.099243 421.0
173.115631 353.0
175.129822 222.0
183.101837 111.0
185.114487 318.0
187.129776 329.0
189.140884 168.0
197.114273 250.0
199.131683 304.0
201.145294 164.0
203.124451 202.0
211.130096 263.0
213.142654 117.0
215.159729 196.0
225.142502 244.0
227.158218 440.0
229.166412 125.0
239.158768 326.0
241.172836 117.0
245.166458 150.0
255.184418 234.0
257.198334 340.0
267.184998 1635.0
285.195587 2076.0
303.203461 392.0
361.204224 5930.0
