>compound MLS001140887-01!4-[[2-(4,7-dimethyl-2-oxochromen-5-yl)oxypropanoylamino]methyl]cyclohexane-1-carboxylic acid
>formula C22H27NO6
>ionization [M+H]+
>parentmass 402.192
#inchi InChI=1S/C22H27NO6/c1-12-8-17(20-13(2)10-19(24)29-18(20)9-12)28-14(3)21(25)23-11-15-4-6-16(7-5-15)22(26)27/h8-10,14-16H,4-7,11H2,1-3H3,(H,23,25)(H,26,27)/t14?,15-,16-
#inchikey XWURMJXPBINAQM
#Ion_Source LC-ESI
#Instrument qTof
#Compound_Source NIH Natural Product Library
#PI Dorrestein
#Data_Collector VVP/LMS
#Scan -1
#Precursor_MZ 402.192
#ExactMass 401.184
#Charge 1
#CAS_Number N/A
#Pubmed_ID N/A
#Smiles CC(Oc1cc(C)cc2oc(=O)cc(C)c12)C(=O)NC[C@H]3CC[C@@H](CC3)C(=O)O
#INCHI_AUX N/A
#Library_Class 1
#SpectrumID CCMSLIB00000080454
#IonMode Positive
#UpdateWorkflowName UPDATE-SINGLE-ANNOTATED-GOLD
#LibraryQualityString Gold
#TaskID b1d8e8f6646f4e71acdff9ca3d919d08
##Scan# 1922
#SpectrumFile p2-B09_GB9_01_17997.mzXML
#LibraryName NIH_Natural_Products_Library.mgf
#MQScore -1
#Organism NIH_Natural_Products_Library
#TIC_Query 0
#RT_Query -1
#MZErrorPPM -1
#SharedPeaks 0
#MassDiff 0
#LibMZ -1
#SpecMZ 402.192
#SpecCharge 0
#internalFilename spec-00000.mgf

>collision 10
95.012436 176.0
95.086174 3188.0
95.121414 204.0
95.181602 200.0
95.197029 172.0
95.496117 52.0
96.082069 204.0
96.105865 132.0
96.293266 172.0
96.332336 156.0
96.680367 204.0
96.731255 124.0
96.838943 176.0
97.783318 120.0
97.995995 112.0
98.216789 184.0
98.684822 176.0
98.999443 216.0
99.09848 116.0
99.118294 208.0
99.326462 244.0
99.378044 60.0
99.542793 144.0
99.650055 168.0
99.978149 196.0
100.113518 44.0
100.378555 156.0
100.428413 172.0
101.037674 164.0
101.135727 192.0
101.161751 160.0
101.193787 184.0
101.426163 220.0
101.440201 172.0
101.492325 40.0
101.562515 156.0
101.954018 196.0
102.227516 40.0
102.467125 200.0
102.549744 180.0
102.694916 176.0
102.791748 112.0
102.809769 112.0
103.052467 472.0
103.076469 224.0
103.501251 156.0
103.898506 116.0
103.939079 56.0
104.059532 336.0
104.524292 216.0
104.554817 136.0
105.070747 612.0
105.562584 196.0
106.215919 168.0
106.495071 156.0
107.029762 148.0
107.049881 280.0
107.085922 340.0
107.594688 200.0
107.675217 220.0
107.770241 92.0
107.875641 176.0
108.054993 204.0
108.086601 208.0
108.235634 128.0
108.98027 164.0
109.027542 348.0
109.060577 252.0
109.084183 100.0
109.101479 348.0
109.148636 164.0
109.165268 176.0
109.251366 192.0
109.840073 68.0
110.044586 152.0
110.096359 1080.0
110.238846 172.0
110.925339 164.0
111.078415 132.0
111.105598 1184.0
111.403786 180.0
111.450005 232.0
111.479424 104.0
111.801178 60.0
112.060181 188.0
112.081245 156.0
112.112015 880.0
112.209816 216.0
112.226311 180.0
112.750191 72.0
112.883377 168.0
112.984901 188.0
113.109756 200.0
113.173264 72.0
113.989914 204.0
114.253563 92.0
114.547333 212.0
114.589943 56.0
115.027122 80.0
115.054573 832.0
115.589211 216.0
115.646988 200.0
116.051872 128.0
116.066208 228.0
116.39518 160.0
116.558434 208.0
116.614304 72.0
116.844391 196.0
116.92186 232.0
117.044563 64.0
117.069832 876.0
117.154404 76.0
117.851265 156.0
118.04364 224.0
118.078239 236.0
118.173424 120.0
118.303276 160.0
118.350906 56.0
118.45269 164.0
118.558861 124.0
118.864624 88.0
119.049133 176.0
119.086525 1352.0
119.112122 192.0
119.168602 80.0
119.705864 40.0
119.997841 180.0
120.067619 220.0
120.08725 160.0
121.029121 140.0
121.066818 396.0
121.101395 296.0
121.265717 92.0
121.373138 108.0
121.416992 84.0
121.625427 160.0
122.067017 160.0
122.096771 224.0
122.209991 88.0
122.339844 160.0
122.39415 168.0
122.575508 56.0
123.082314 160.0
123.115967 160.0
123.26619 108.0
123.372276 76.0
123.584175 232.0
124.031944 152.0
124.074799 388.0
124.393509 140.0
124.475655 228.0
124.797844 156.0
124.929062 104.0
124.944633 164.0
124.989136 208.0
125.087059 116.0
125.140488 192.0
125.965637 176.0
126.059479 124.0
126.838333 124.0
126.912308 144.0
127.363388 216.0
127.628578 172.0
128.063843 524.0
128.509247 124.0
128.683044 240.0
129.071152 736.0
129.239059 148.0
130.074371 200.0
130.150238 180.0
130.350128 112.0
130.757187 136.0
130.882401 120.0
131.050613 396.0
131.080719 144.0
131.427155 164.0
131.945618 140.0
132.032516 156.0
132.057983 2104.0
132.078262 140.0
132.217819 136.0
132.421585 204.0
132.47197 104.0
132.547577 100.0
132.724075 116.0
132.939697 192.0
133.064346 456.0
133.102982 648.0
133.226715 36.0
133.327805 228.0
133.640533 176.0
133.658951 148.0
133.997406 124.0
134.101105 144.0
134.186401 56.0
134.562469 188.0
134.694092 96.0
134.81424 136.0
135.08075 672.0
135.17897 144.0
135.209702 36.0
135.561707 68.0
135.610367 196.0
135.779617 116.0
135.821365 168.0
136.048782 124.0
136.082169 156.0
136.118423 120.0
136.960327 144.0
137.097778 224.0
137.505219 216.0
137.578262 104.0
137.615616 240.0
137.638977 180.0
137.765091 68.0
137.926331 208.0
138.090118 356.0
138.128021 2468.0
138.167191 44.0
138.333344 52.0
138.530045 144.0
138.605026 84.0
138.637833 52.0
138.811295 192.0
138.837097 108.0
139.010696 172.0
139.127914 644.0
139.15007 232.0
139.182053 60.0
139.198486 160.0
139.250153 104.0
139.36525 188.0
139.475708 160.0
139.687332 236.0
140.058273 164.0
140.108749 2760.0
140.154663 184.0
140.290176 132.0
140.471756 40.0
141.064468 52.0
141.082153 160.0
141.111649 608.0
141.720032 212.0
141.779266 64.0
142.068344 92.0
142.113617 180.0
142.37236 136.0
142.569534 240.0
142.68364 196.0
142.726425 84.0
143.00238 164.0
143.088409 204.0
143.867661 128.0
144.264221 108.0
144.469879 216.0
144.579941 184.0
144.599091 40.0
144.7547 124.0
144.797806 80.0
145.06604 544.0
145.10289 172.0
145.305984 56.0
145.858307 164.0
146.07103 420.0
146.443008 200.0
146.498398 164.0
147.042847 156.0
147.081482 1200.0
147.623199 184.0
148.055878 216.0
148.083496 216.0
148.269516 160.0
148.528946 156.0
148.621124 240.0
148.662384 336.0
149.061844 224.0
149.093201 196.0
149.293991 184.0
149.571365 176.0
150.101135 156.0
150.156113 200.0
150.720032 52.0
150.766464 144.0
151.162613 124.0
151.221359 80.0
151.348648 152.0
151.36824 136.0
151.451508 144.0
151.551956 180.0
152.049744 224.0
152.107056 776.0
152.133652 172.0
152.221588 104.0
152.273163 96.0
152.700806 104.0
152.877945 132.0
153.001007 176.0
153.077332 200.0
153.111816 360.0
153.987335 92.0
154.385239 160.0
154.746506 132.0
154.984283 176.0
155.062576 172.0
155.862656 96.0
155.984436 108.0
156.243057 216.0
156.94043 172.0
157.065109 112.0
157.959366 64.0
158.069641 160.0
158.111984 104.0
158.868698 124.0
158.976578 128.0
159.079483 124.0
159.416046 228.0
159.680023 60.0
160.05246 272.0
160.342148 80.0
160.412735 48.0
160.69519 148.0
160.86496 180.0
161.059341 424.0
161.095703 884.0
161.149643 68.0
161.506088 88.0
161.592102 40.0
161.916107 32.0
162.067322 616.0
162.09668 216.0
162.702164 180.0
163.0746 308.0
163.164536 36.0
163.27388 112.0
163.627563 176.0
163.670853 224.0
164.336105 180.0
164.877457 64.0
165.568192 188.0
165.768021 84.0
165.811584 104.0
166.084457 204.0
166.124115 1664.0
166.311722 188.0
166.786896 112.0
167.069763 144.0
167.100632 164.0
167.130722 4112.0
167.208374 156.0
167.215652 136.0
167.628479 160.0
167.690323 48.0
167.730789 160.0
167.785706 84.0
168.13591 400.0
168.39209 104.0
168.57811 188.0
169.149185 164.0
169.242889 96.0
169.279144 88.0
169.527832 88.0
169.587433 68.0
169.662613 112.0
169.69371 168.0
169.78447 52.0
169.981628 120.0
170.277573 96.0
170.524399 224.0
171.080002 148.0
171.159149 68.0
171.497818 32.0
171.596878 200.0
171.870743 152.0
172.058655 120.0
172.076935 208.0
172.231003 168.0
172.345947 136.0
173.09613 496.0
173.256439 100.0
173.293106 208.0
173.476562 168.0
173.943497 116.0
174.070724 432.0
174.190323 148.0
175.077332 592.0
175.448212 148.0
175.648621 184.0
175.719849 180.0
177.051422 224.0
177.099762 164.0
177.184525 84.0
177.651108 112.0
178.073151 204.0
178.482407 152.0
178.719131 152.0
178.804291 104.0
179.025253 64.0
179.118469 152.0
179.52092 52.0
179.704956 144.0
180.61058 212.0
180.827301 84.0
182.122314 136.0
182.167969 112.0
182.313065 104.0
182.538879 184.0
182.762131 32.0
183.403076 188.0
183.772522 164.0
184.031631 52.0
184.09436 172.0
184.133774 2648.0
184.166656 212.0
184.250397 152.0
184.296326 96.0
184.401718 52.0
184.442261 92.0
184.531479 140.0
184.847946 128.0
185.137512 200.0
185.197174 168.0
185.281143 112.0
185.424759 160.0
186.111084 124.0
186.156494 436.0
186.238724 128.0
186.662674 168.0
186.711624 196.0
186.744263 148.0
187.59108 176.0
188.0466 152.0
188.109375 204.0
188.888168 44.0
188.967499 140.0
189.091766 3136.0
189.175491 36.0
189.224777 56.0
189.619217 132.0
189.682266 168.0
189.819702 188.0
189.841278 56.0
190.063934 2036.0
190.096725 636.0
190.170502 72.0
190.524734 52.0
190.604401 124.0
190.631882 196.0
190.675858 136.0
190.739075 184.0
190.770279 260.0
190.818481 376.0
190.852783 232.0
190.896347 156.0
190.945282 64.0
190.972794 120.0
190.992035 216.0
191.032349 184.0
191.071884 44112.0
191.171509 140.0
191.192886 40.0
191.229126 160.0
191.270142 128.0
191.297485 56.0
191.32225 56.0
191.365631 164.0
191.384506 92.0
191.411194 68.0
191.446152 120.0
191.484711 36.0
191.503998 92.0
191.525284 44.0
191.549332 104.0
191.583405 164.0
191.622452 40.0
191.647247 52.0
191.732666 100.0
191.784409 88.0
191.866028 68.0
191.994949 88.0
192.074417 3788.0
192.121445 40.0
192.182144 32.0
192.220779 60.0
192.333923 128.0
192.378098 64.0
192.499573 76.0
192.576904 92.0
192.61557 84.0
192.687393 104.0
192.775818 40.0
192.973526 84.0
193.027374 56.0
193.078583 568.0
193.135223 104.0
193.254181 184.0
193.276321 76.0
193.301224 84.0
193.333206 100.0
193.395325 132.0
193.433228 132.0
193.49498 116.0
193.802399 140.0
193.885529 96.0
194.082657 256.0
194.117584 832.0
194.147552 248.0
194.265396 180.0
194.481827 100.0
194.551224 56.0
194.909515 72.0
195.120743 148.0
195.156891 144.0
195.312622 88.0
195.471207 48.0
195.824753 48.0
196.513306 100.0
197.496628 144.0
198.073242 72.0
199.073074 332.0
199.125046 228.0
199.158752 116.0
199.608414 124.0
200.0811 152.0
200.286667 132.0
200.506439 60.0
200.825027 60.0
201.304794 68.0
201.5336 72.0
202.069351 184.0
202.342484 68.0
202.682373 120.0
202.940308 140.0
203.078278 128.0
203.646912 68.0
206.008286 68.0
206.534241 132.0
207.817657 48.0
208.981308 184.0
209.401581 160.0
211.376205 92.0
211.793442 172.0
212.123428 144.0
212.738403 112.0
213.127579 168.0
214.142853 164.0
216.101608 144.0
216.367935 68.0
216.446991 64.0
216.5495 332.0
216.663727 148.0
216.886444 112.0
217.041824 152.0
217.087311 9428.0
217.185944 84.0
217.299927 52.0
217.352737 72.0
217.473068 300.0
217.566986 36.0
217.822479 116.0
218.09079 948.0
218.292725 60.0
218.728149 60.0
219.095703 320.0
219.267151 100.0
219.500031 48.0
219.609146 124.0
219.718292 88.0
219.786148 164.0
220.329407 60.0
220.814178 112.0
221.592697 168.0
221.634186 72.0
225.978317 120.0
227.074524 220.0
227.185669 76.0
228.080521 116.0
230.473389 32.0
233.492661 76.0
234.780884 48.0
240.058655 176.0
244.837311 192.0
245.021088 220.0
245.081024 2424.0
245.279739 88.0
245.791199 52.0
246.087952 324.0
247.056564 172.0
247.097046 136.0
248.287537 52.0
248.959122 112.0
254.11058 220.0
256.667816 48.0
258.283813 76.0
262.049438 136.0
262.10907 1976.0
263.108978 252.0
263.191223 52.0
263.5336 60.0
263.911774 52.0
264.102295 148.0
268.079651 68.0
272.109436 172.0
274.104919 368.0
274.132324 356.0
275.78244 52.0
276.880859 72.0
280.849274 168.0
281.894226 112.0
286.905396 164.0
287.036865 132.0
289.046722 192.0
293.684021 60.0
294.332428 40.0
295.450043 160.0
296.162048 148.0
318.517151 44.0
319.822083 68.0
338.170135 112.0
339.07843 108.0
339.217712 156.0
348.837738 20.0
353.350189 136.0
354.477203 124.0
355.542206 80.0
356.109131 104.0
356.187439 2560.0
356.435944 40.0
356.571228 100.0
357.191864 1100.0
357.447449 96.0
357.541534 180.0
358.189117 88.0
358.890106 72.0
360.558594 108.0
360.653076 40.0
376.911255 92.0
377.494934 120.0
403.692261 56.0
442.77655 80.0
448.684479 84.0
471.894501 56.0
478.423828 92.0
493.109772 100.0
496.514313 148.0
501.043732 88.0
571.452759 72.0
596.767273 108.0
597.530823 88.0
651.762695 76.0
671.832764 36.0
720.366394 84.0
813.505615 64.0
833.256775 20.0
853.180908 124.0
854.297424 88.0
872.514221 172.0
889.385193 148.0
895.128113 220.0
924.743225 176.0
979.044556 124.0
982.117126 156.0
1002.06427 180.0
1016.137756 92.0
1021.314941 56.0
1022.421997 188.0
1030.430664 180.0
1031.670532 164.0
1073.484619 60.0
1075.50708 44.0
1086.434937 168.0
1087.425659 192.0
1087.81958 148.0
1096.073364 240.0
1096.930054 96.0
1099.482544 180.0
1105.939697 176.0
1106.158081 240.0
1106.959229 84.0
1109.304565 168.0
1111.63916 56.0
1122.241699 212.0
1124.196045 148.0
1126.299072 84.0
1128.270386 160.0
1136.320312 72.0
1137.286621 88.0
1137.474609 116.0
1142.480835 80.0
1150.068237 132.0
1151.330811 144.0
1153.053467 92.0
1153.506348 196.0
1155.453857 200.0
1160.791138 120.0
1161.889893 240.0
1162.64978 192.0
1164.774902 76.0
1170.5625 188.0
1172.824341 60.0
1185.920044 124.0
1192.440186 164.0
1196.581177 164.0
1200.460327 164.0
1213.195923 80.0
1224.34082 44.0
1227.399902 180.0
1242.11438 196.0
1243.012329 144.0
1244.191528 160.0
1259.789917 84.0
1261.987915 128.0
1264.845825 208.0
1270.089233 232.0
1272.07605 136.0
1272.608521 180.0
1275.421631 188.0
1278.387329 236.0
1284.542969 176.0
1285.891479 132.0
1286.855225 140.0
1288.362061 116.0
1289.190918 208.0
1290.02002 116.0
1296.124756 40.0
1298.217896 124.0
1298.81311 148.0
1299.422852 192.0
1303.055664 220.0
1308.593506 208.0
1316.250732 120.0
1319.024902 156.0
1322.829712 120.0
1324.0896 240.0
1325.625366 156.0
1325.937012 200.0
1330.297119 136.0
1335.942383 140.0
1337.42688 180.0
1341.782959 108.0
1346.313232 172.0
1350.80957 228.0
1351.189331 116.0
1366.633179 200.0
1366.780396 172.0
1378.800171 140.0
1379.213989 64.0
1381.114258 144.0
1383.585815 60.0
1384.948242 168.0
1391.325439 212.0
1394.259277 180.0
1396.802124 140.0
1400.628052 188.0
1404.377075 92.0
1404.966431 148.0
1411.748291 172.0
1414.097412 184.0
1417.841919 180.0
1423.107788 148.0
1429.286011 152.0
1430.21167 184.0
1432.463135 132.0
1432.523315 92.0
1440.398438 56.0
1440.859253 196.0
1441.100952 188.0
1446.538452 104.0
1449.954346 72.0
1450.287842 152.0
1451.804077 168.0
1452.828003 172.0
1458.644775 152.0
1463.475586 184.0
1467.29248 124.0
1470.694702 156.0
1475.155518 200.0
1477.304199 96.0
1481.146851 180.0
1481.866943 108.0
1488.086914 196.0
1492.128052 180.0
1492.643188 140.0
1493.843018 116.0
1495.535767 160.0
1501.722656 112.0
1503.682251 128.0
