>compound Atazanavir sulfate
>formula C38H52N6O7
>ionization [M+Na]+
>parentmass 727.378357
#inchi InChI=1S/C38H52N6O7/c1-37(2,3)31(41-35(48)50-7)33(46)40-29(22-25-14-10-9-11-15-25)30(45)24-44(43-34(47)32(38(4,5)6)42-36(49)51-8)23-26-17-19-27(20-18-26)28-16-12-13-21-39-28/h9-21,29-32,45H,22-24H2,1-8H3,(H,40,46)(H,41,48)(H,42,49)(H,43,47)/t29-,30-,31+,32+/m0/s1
#inchikey AXRYRYVKAWYZBR
#origInchi InChI=1S/C38H52N6O7.H2O4S/c1-37(2,3)31(41-35(48)50-7)33(46)40-29(22-25-14-10-9-11-15-25)30(45)24-44(43-34(47)32(38(4,5)6)42-36(49)51-8)23-26-17-19-27(20-18-26)28-16-12-13-21-39-28;1-5(2,3)4/h9-21,29-32,45H,22-24H2,1-8H3,(H,40,46)(H,41,48)(H,42,49)(H,43,47);(H2,1,2,3,4)/t29-,30-,31+,32+;/m0./s1
#Ion_Source LC-ESI
#Instrument qTof
#Compound_Source Commercial
#PI Dorrestein
#Data_Collector Garg_Neha
#Scan -1
#Precursor_MZ 727.379
#ExactMass 704.39
#Charge 1
#CAS_Number 229975-97-7
#Pubmed_ID N/A
#Smiles O(C(N[C@H](C(N[C@H]([C@H](CN(NC([C@@H](NC(OC)=O)C(C)(C)C)=O)CC1=CC=C(C=C1)C2=NC=CC=C2)O)CC3=CC=CC=C3)=O)C(C)(C)C)=O)C.S(=O)(=O)(O)O
#INCHI_AUX N/A
#Library_Class 1
#SpectrumID CCMSLIB00000078155
#IonMode Positive
#UpdateWorkflowName UPDATE-SINGLE-ANNOTATED-GOLD
#LibraryQualityString Gold
#TaskID 77f51c88eb8b467eb4a01dd2d0cb90d2
##Scan# 1324
#SpectrumFile Plate2_61_88_GG8_01_16496.mzXML
#LibraryName FDALibrary_2_04302014.mgf
#MQScore -1
#Organism FDALibrary_2_04302014
#TIC_Query 0
#RT_Query -1
#MZErrorPPM -1
#SharedPeaks 0
#MassDiff 0
#LibMZ -1
#SpecMZ 727.379
#SpecCharge 0
#internalFilename spec-00000.mgf

>collision 10
47.999805 172.0
52.363892 252.0
56.400967 148.0
57.311924 180.0
57.44912 176.0
57.993488 140.0
63.456192 164.0
65.998894 180.0
66.314575 188.0
67.712502 192.0
69.302185 164.0
71.801376 140.0
72.665771 152.0
75.179489 176.0
76.646538 152.0
80.501144 140.0
82.823067 148.0
88.88015 152.0
89.867989 168.0
94.486221 200.0
98.048004 176.0
100.818535 172.0
103.97644 184.0
105.436684 176.0
107.323212 272.0
107.515053 160.0
107.877495 152.0
108.077126 176.0
109.903549 160.0
113.978096 164.0
114.748596 164.0
115.194626 192.0
115.73571 148.0
118.375786 96.0
120.03154 160.0
123.550224 184.0
128.885147 176.0
128.912262 240.0
133.591064 168.0
136.049942 204.0
138.9673 168.0
141.363708 260.0
143.122665 168.0
145.737991 208.0
150.726257 180.0
150.838669 196.0
154.038239 280.0
154.782547 220.0
155.245941 156.0
159.930542 180.0
163.105011 224.0
164.355469 156.0
164.480515 140.0
166.082825 648.0
167.094894 260.0
168.07869 164.0
169.091721 156.0
171.514801 132.0
173.91362 168.0
176.542984 152.0
178.702194 192.0
180.139145 140.0
181.305725 160.0
183.05188 156.0
189.714249 192.0
190.548553 148.0
192.473831 160.0
195.069824 144.0
195.818314 164.0
196.780365 144.0
196.914413 228.0
198.310547 184.0
198.400253 164.0
202.89978 176.0
205.074402 172.0
206.421906 140.0
207.031448 248.0
207.699249 196.0
210.086838 144.0
210.376846 184.0
210.976303 144.0
211.002319 196.0
211.105408 4572.0
212.109741 296.0
213.115219 152.0
213.501831 152.0
213.532822 116.0
214.777512 164.0
216.680588 180.0
220.919983 208.0
221.088638 240.0
221.932861 232.0
223.831573 200.0
224.102448 192.0
225.107849 292.0
225.708481 140.0
225.762299 196.0
229.115082 260.0
230.439545 208.0
232.799179 164.0
235.105026 500.0
237.116592 356.0
237.139603 204.0
237.707916 196.0
237.793854 192.0
238.073227 196.0
238.115906 4636.0
238.159225 176.0
238.896957 144.0
239.11911 1024.0
239.220078 160.0
240.116272 352.0
242.531479 168.0
243.1642 148.0
247.124924 140.0
250.103104 140.0
250.56601 180.0
251.064041 168.0
251.969955 176.0
252.28598 140.0
253.073776 224.0
253.115921 10836.0
254.11734 1412.0
254.452957 168.0
254.945312 144.0
255.120239 120.0
258.097382 240.0
259.090149 152.0
261.64978 164.0
263.429932 160.0
264.341675 200.0
267.52243 140.0
268.123718 1208.0
269.133636 224.0
270.028412 152.0
270.345764 164.0
271.223511 184.0
274.128845 156.0
274.352966 288.0
275.851715 164.0
275.950897 160.0
277.105988 164.0
279.140686 168.0
280.105835 156.0
282.077972 140.0
289.412262 156.0
292.396179 176.0
295.398804 164.0
295.515106 252.0
295.819702 208.0
296.138153 164.0
298.128021 168.0
299.140076 960.0
306.02182 148.0
308.159851 152.0
311.133484 512.0
313.151703 664.0
314.054016 176.0
314.157471 392.0
315.162933 332.0
315.208435 172.0
316.168457 144.0
319.868744 144.0
320.076447 184.0
324.111572 180.0
325.15918 432.0
325.298706 192.0
326.167999 180.0
326.862122 140.0
327.177551 212.0
327.229248 152.0
327.931702 180.0
328.407623 156.0
328.613251 144.0
329.145844 620.0
330.011017 176.0
330.155273 192.0
335.136047 156.0
338.150452 124.0
339.170685 160.0
340.160706 480.0
341.741364 180.0
342.29718 196.0
342.621307 152.0
342.718262 156.0
343.061615 116.0
343.162476 24772.0
343.430145 132.0
343.900055 272.0
344.166443 6220.0
345.171783 732.0
345.777405 100.0
345.893158 172.0
346.026428 140.0
346.163116 188.0
346.48996 104.0
347.14447 256.0
347.252991 156.0
347.436218 184.0
348.310852 196.0
348.771606 156.0
350.66983 148.0
352.172852 384.0
353.168884 140.0
355.172363 228.0
356.154755 168.0
357.178009 616.0
358.175537 556.0
358.254059 204.0
359.190582 164.0
360.08725 168.0
360.193024 164.0
361.13797 216.0
365.675781 148.0
367.115875 168.0
368.577911 172.0
369.327209 140.0
369.369293 144.0
370.175323 280.0
371.183807 284.0
372.188721 3020.0
372.508759 140.0
373.18985 904.0
373.59668 152.0
373.842926 152.0
374.202423 424.0
376.157959 156.0
378.560303 144.0
378.711334 152.0
380.172974 260.0
381.169617 120.0
381.229248 156.0
383.095795 116.0
383.15921 176.0
383.190369 160.0
384.172821 164.0
387.197449 396.0
388.210419 288.0
389.225372 120.0
391.170898 148.0
393.158234 140.0
393.203369 128.0
397.17804 152.0
397.936005 140.0
405.178833 140.0
415.196198 696.0
416.064026 192.0
416.200684 408.0
421.922455 192.0
424.202667 148.0
427.850647 148.0
430.778625 148.0
433.472076 176.0
436.215485 156.0
438.55896 144.0
441.514923 156.0
444.74942 176.0
447.932495 168.0
449.281494 164.0
454.404877 196.0
461.954071 148.0
464.39563 148.0
465.24762 160.0
468.83252 148.0
470.187408 416.0
471.231689 144.0
473.29071 332.0
474.872284 160.0
474.946014 152.0
476.122223 180.0
476.365448 216.0
476.799957 152.0
479.899323 168.0
483.201233 152.0
487.471954 148.0
487.986206 216.0
490.151794 148.0
491.234741 616.0
491.770294 200.0
492.242859 192.0
493.19931 120.0
494.249481 188.0
496.260376 164.0
497.28479 188.0
498.288696 180.0
500.298889 168.0
502.143646 180.0
502.233063 420.0
503.2276 380.0
504.233093 148.0
507.465088 160.0
508.218597 148.0
509.250702 3652.0
510.253204 540.0
511.251312 152.0
512.255859 204.0
513.950989 140.0
514.659668 140.0
517.471985 148.0
518.065247 172.0
518.300842 156.0
520.042297 164.0
520.164856 148.0
520.591614 156.0
521.232117 144.0
521.745728 148.0
523.266479 1412.0
524.267029 524.0
524.659363 144.0
525.284973 156.0
527.281982 144.0
528.296997 140.0
528.587341 176.0
528.770386 148.0
529.420471 152.0
532.295776 156.0
534.305237 104.0
535.22345 144.0
535.312378 200.0
536.229126 140.0
538.270752 324.0
539.288879 212.0
539.47406 156.0
540.054199 140.0
540.267212 160.0
540.500854 152.0
540.667419 188.0
540.732239 172.0
540.886353 120.0
540.943481 144.0
541.070862 132.0
541.278259 16868.0
542.104248 136.0
542.140137 164.0
542.279785 6532.0
542.420105 132.0
542.637451 104.0
542.691711 108.0
543.133118 136.0
543.280029 1536.0
544.280823 364.0
545.281616 172.0
545.539368 112.0
545.928223 152.0
546.36084 140.0
546.607422 148.0
556.294128 256.0
557.281921 160.0
558.293457 336.0
558.495361 160.0
559.290283 892.0
559.667175 140.0
559.83197 144.0
560.298828 324.0
561.302734 196.0
566.286499 152.0
567.291199 156.0
567.558044 160.0
575.919678 168.0
576.585022 124.0
576.932678 180.0
577.669128 148.0
584.214172 140.0
589.743408 148.0
592.598572 148.0
592.646973 148.0
596.257385 152.0
603.027039 152.0
610.42981 156.0
612.969849 152.0
615.579346 148.0
617.046875 152.0
625.03241 152.0
625.903503 200.0
628.869751 152.0
629.418884 152.0
630.123169 140.0
633.6604 156.0
636.614807 140.0
643.159912 180.0
644.675049 228.0
645.311951 140.0
646.252686 140.0
650.286499 152.0
660.717407 148.0
660.896667 104.0
663.322937 148.0
664.031616 204.0
664.32843 120.0
665.268188 144.0
666.408386 140.0
667.914612 176.0
675.021545 140.0
676.547913 184.0
677.35553 148.0
678.511353 144.0
679.896301 140.0
686.706604 180.0
690.179382 164.0
691.864075 140.0
694.122314 192.0
694.200989 152.0
695.349182 1504.0
696.354614 404.0
697.354431 264.0
698.176392 160.0
698.347656 176.0
702.379333 192.0
703.213013 212.0
705.398438 156.0
707.129456 156.0
709.363403 336.0
709.425293 160.0
710.372559 264.0
711.359253 152.0
713.159973 228.0
717.319031 112.0
717.365112 204.0
719.27478 140.0
719.803345 148.0
720.850342 224.0
721.6521 232.0
722.743225 152.0
724.322144 144.0
724.335876 132.0
724.354797 208.0
724.612244 116.0
725.049622 120.0
725.372009 184.0
725.616455 280.0
725.691895 100.0
725.786804 224.0
725.859863 96.0
725.945801 172.0
726.112793 168.0
726.249207 192.0
726.335938 204.0
726.434631 224.0
726.477539 188.0
726.52832 152.0
726.593445 112.0
726.670776 108.0
726.810547 144.0
726.890625 180.0
727.016907 204.0
727.104553 368.0
727.172546 520.0
727.214233 288.0
727.378357 71724.0
727.560425 204.0
727.654968 216.0
727.70813 204.0
727.81311 164.0
727.887512 196.0
727.998901 128.0
728.074829 100.0
728.142395 300.0
728.245239 292.0
728.301208 352.0
728.381531 27072.0
728.527771 356.0
728.608948 124.0
728.728088 208.0
728.769226 252.0
728.789856 160.0
728.844604 172.0
728.928955 188.0
729.103027 96.0
729.197327 116.0
729.274109 192.0
729.382874 6876.0
729.51001 164.0
729.800476 160.0
729.882507 104.0
730.266357 128.0
730.382935 1508.0
730.629028 100.0
730.698059 96.0
730.831482 112.0
731.075439 168.0
731.178894 108.0
731.385559 252.0
731.487488 132.0
731.75415 152.0
732.107544 128.0
732.389709 132.0
732.824341 120.0
732.964539 124.0
733.19043 112.0
733.250549 96.0
733.530884 108.0
734.624756 124.0
735.248047 152.0
739.19574 104.0
739.820862 160.0
741.025757 100.0
749.232361 168.0
757.355286 180.0
789.026611 148.0
1005.36499 96.0
1026.822632 148.0
1034.3302 140.0
1311.88501 144.0
1460.754761 156.0
1939.478516 212.0
1984.065674 176.0
