>compound MLS001157899-01!N-cyclopropyl-3-(3,5-dimethyl-7-oxofuro[3,2-g]chromen-6-yl)propanamide
>formula C19H19NO4
>ionization [M+H]+
>parentmass 326.139
#inchi InChI=1S/C19H19NO4/c1-10-9-23-16-8-17-15(7-14(10)16)11(2)13(19(22)24-17)5-6-18(21)20-12-3-4-12/h7-9,12H,3-6H2,1-2H3,(H,20,21)
#inchikey LKBNGEQSWWXHSY
#Ion_Source LC-ESI
#Instrument qTof
#Compound_Source NIH Natural Product Library
#PI Dorrestein
#Data_Collector VVP/LMS
#Scan -1
#Precursor_MZ 326.139
#ExactMass 325.131
#Charge 1
#CAS_Number N/A
#Pubmed_ID N/A
#Smiles Cc1coc2cc3oc(=O)c(CCC(=O)NC4CC4)c(C)c3cc12
#INCHI_AUX N/A
#Library_Class 1
#SpectrumID CCMSLIB00000080310
#IonMode Positive
#UpdateWorkflowName UPDATE-SINGLE-ANNOTATED-GOLD
#LibraryQualityString Gold
#TaskID b1d8e8f6646f4e71acdff9ca3d919d08
##Scan# 2027
#SpectrumFile p2-A07_GA7_01_17984.mzXML
#LibraryName NIH_Natural_Products_Library.mgf
#MQScore -1
#Organism NIH_Natural_Products_Library
#TIC_Query 0
#RT_Query -1
#MZErrorPPM -1
#SharedPeaks 0
#MassDiff 0
#LibMZ -1
#SpecMZ 326.139
#SpecCharge 0
#internalFilename spec-00000.mgf

>collision 10
94.967033 48.0
95.062103 168.0
95.172745 92.0
95.194107 144.0
95.256256 172.0
95.293167 176.0
95.320374 132.0
95.351463 208.0
95.436996 176.0
95.452553 108.0
95.508957 152.0
95.526466 160.0
95.571213 128.0
95.629593 180.0
95.668526 124.0
95.711357 160.0
95.773674 76.0
95.923721 156.0
95.958809 144.0
96.009506 220.0
96.08168 156.0
96.103142 72.0
96.118752 116.0
96.16169 160.0
96.187057 144.0
96.245628 104.0
96.304214 200.0
96.467339 192.0
96.536789 136.0
96.583771 128.0
96.62677 116.0
96.832306 268.0
96.918503 116.0
97.030548 168.0
97.108658 132.0
97.134163 188.0
97.1577 108.0
97.34613 132.0
97.369698 96.0
97.395226 212.0
97.515083 112.0
97.626053 172.0
97.644852 220.0
97.674355 148.0
97.69796 168.0
97.753052 108.0
97.84359 176.0
97.912514 232.0
97.932205 160.0
97.983421 152.0
97.999184 148.0
98.024803 148.0
98.050423 132.0
98.125328 208.0
98.218018 220.0
98.231819 132.0
98.304825 172.0
98.478561 128.0
98.493675 220.0
98.529922 80.0
98.571411 332.0
98.672974 180.0
98.707245 168.0
98.759232 28.0
98.821495 128.0
98.877945 180.0
98.988808 156.0
99.054161 152.0
99.097748 164.0
99.161163 104.0
99.27095 204.0
99.379295 120.0
99.407074 244.0
99.460663 232.0
99.486473 128.0
99.593704 220.0
99.675156 188.0
99.704964 120.0
99.806351 108.0
99.88192 188.0
99.973442 128.0
99.988358 176.0
100.007278 112.0
100.070984 168.0
100.09687 236.0
100.132713 40.0
100.194466 56.0
100.300079 164.0
100.353912 180.0
100.411743 152.0
100.617271 104.0
100.685928 208.0
100.783333 140.0
100.81102 176.0
100.852989 176.0
100.922966 112.0
101.060974 184.0
101.171051 152.0
101.213097 156.0
101.229118 28.0
101.257156 104.0
101.307274 200.0
101.387383 180.0
101.527718 172.0
101.5578 220.0
101.666138 144.0
101.69223 208.0
101.830772 152.0
101.983467 136.0
102.110138 176.0
102.170486 200.0
102.213104 176.0
102.287201 200.0
102.333504 144.0
102.502701 184.0
102.530914 140.0
102.577278 156.0
102.624481 328.0
102.659943 164.0
102.681488 156.0
102.796791 148.0
102.865738 96.0
102.900063 104.0
102.925423 336.0
102.959091 204.0
102.974777 164.0
103.021233 124.0
103.055191 816.0
103.122269 168.0
103.170784 132.0
103.264938 192.0
103.364952 212.0
103.399353 164.0
103.43174 196.0
103.449043 256.0
103.513397 184.0
103.674789 88.0
103.719376 120.0
103.786278 140.0
103.847115 240.0
103.912033 160.0
103.978996 148.0
104.017563 148.0
104.052803 200.0
104.081985 180.0
104.20237 160.0
104.281616 96.0
104.344635 232.0
104.364967 176.0
104.38327 172.0
104.44632 56.0
104.462593 100.0
104.55619 292.0
104.576538 112.0
104.684441 56.0
104.712952 116.0
104.745544 92.0
104.761841 136.0
104.783493 172.0
104.800552 72.0
104.905472 208.0
105.018051 220.0
105.07177 152.0
105.102325 120.0
105.165588 144.0
105.284325 180.0
105.396362 80.0
105.484238 84.0
105.516953 164.0
105.584427 192.0
105.676483 164.0
105.73378 48.0
105.987709 168.0
106.018448 156.0
106.03894 76.0
106.067635 164.0
106.153748 216.0
106.17836 220.0
106.266563 148.0
106.28093 128.0
106.356865 176.0
106.395866 148.0
106.416397 156.0
106.443092 36.0
106.467735 172.0
106.502647 104.0
106.576607 136.0
106.75116 196.0
106.835182 208.0
106.893272 164.0
106.922081 180.0
107.014175 184.0
107.101212 168.0
107.350586 144.0
107.49086 140.0
107.523689 172.0
107.897766 48.0
107.920509 104.0
107.988754 96.0
108.053818 164.0
108.079773 208.0
108.119095 200.0
108.193611 172.0
108.241234 116.0
108.33651 176.0
108.373802 108.0
108.41317 148.0
108.5811 100.0
108.686897 104.0
108.734627 200.0
108.786522 396.0
108.830116 92.0
108.956528 148.0
109.012917 164.0
109.031616 208.0
109.060715 84.0
109.092079 224.0
109.121185 276.0
109.20002 180.0
109.266586 152.0
109.335258 188.0
109.401863 60.0
109.445587 180.0
109.470573 176.0
109.539307 156.0
109.557381 148.0
109.572639 188.0
109.608055 128.0
109.668495 160.0
109.776909 56.0
109.851997 232.0
109.881203 120.0
110.022812 220.0
110.043999 104.0
110.236168 228.0
110.259155 276.0
110.298866 160.0
110.441055 52.0
110.577057 96.0
110.641945 148.0
110.696388 200.0
110.792732 168.0
110.866074 160.0
110.960396 96.0
110.977173 156.0
110.993942 100.0
111.019112 72.0
111.084396 188.0
111.117699 208.0
111.220528 152.0
111.296791 208.0
111.361206 28.0
111.377907 168.0
111.430527 52.0
111.474655 56.0
111.520889 140.0
111.607079 112.0
111.790092 152.0
111.81955 196.0
111.923508 136.0
111.985886 228.0
112.013268 132.0
112.044868 160.0
112.139694 128.0
112.179741 36.0
112.221603 56.0
112.310478 180.0
112.373764 48.0
112.399086 72.0
112.418083 44.0
112.462723 132.0
112.515175 124.0
112.54792 236.0
112.643341 180.0
112.721504 384.0
112.736961 68.0
112.770775 88.0
112.798256 116.0
112.819397 144.0
112.890488 128.0
112.914551 104.0
113.033211 176.0
113.064453 196.0
113.090057 172.0
113.136726 132.0
113.310387 252.0
113.385231 176.0
113.465103 136.0
113.528717 172.0
113.632652 164.0
113.732399 204.0
113.753723 164.0
113.900146 168.0
113.919258 196.0
114.042503 248.0
114.057388 156.0
114.267921 128.0
114.304092 248.0
114.346657 160.0
114.41877 164.0
114.440323 180.0
114.521248 172.0
114.561714 96.0
114.634163 112.0
114.659729 184.0
114.779114 172.0
114.79966 208.0
114.843094 200.0
114.88958 192.0
114.898499 152.0
114.912689 256.0
115.028732 140.0
115.055504 4192.0
115.197433 44.0
115.302132 184.0
115.317093 116.0
115.413292 184.0
115.511673 228.0
115.539482 60.0
115.659325 196.0
115.783501 188.0
115.798492 80.0
115.828484 156.0
115.905609 188.0
116.032066 160.0
116.051735 156.0
116.147484 200.0
116.218666 160.0
116.283051 224.0
116.390388 176.0
116.435486 148.0
116.555786 160.0
116.585869 200.0
116.645775 156.0
116.666634 184.0
116.753555 192.0
116.790115 208.0
116.819534 100.0
116.889267 184.0
117.069176 492.0
117.225014 36.0
117.270271 200.0
117.291824 172.0
117.362968 192.0
117.412567 56.0
117.546318 140.0
117.57653 200.0
117.697418 152.0
117.77301 220.0
117.788132 168.0
117.829178 144.0
117.848618 188.0
117.906967 180.0
117.980461 148.0
118.004242 184.0
118.076508 176.0
118.159966 76.0
118.301743 156.0
118.350426 248.0
118.441391 76.0
118.521545 96.0
118.749176 132.0
118.7752 224.0
118.868492 344.0
118.974846 140.0
119.120346 44.0
119.23333 152.0
119.282722 168.0
119.324631 236.0
119.359421 324.0
119.481224 172.0
119.50515 140.0
119.53997 168.0
119.648796 112.0
119.705414 136.0
119.916733 144.0
120.041 176.0
120.058449 168.0
120.176239 192.0
120.213333 148.0
120.269791 212.0
120.344307 216.0
120.458961 128.0
120.497192 148.0
120.650482 144.0
120.722336 172.0
120.814201 116.0
120.892967 160.0
120.9123 144.0
121.041824 204.0
121.157501 212.0
121.302544 132.0
121.390244 240.0
121.436302 148.0
121.504303 108.0
121.530632 176.0
121.547089 132.0
121.572327 176.0
121.730446 136.0
121.818237 140.0
121.844604 160.0
121.884148 204.0
121.899529 172.0
121.970963 216.0
122.095184 136.0
122.136978 52.0
122.160484 204.0
122.211777 204.0
122.229378 144.0
122.255783 144.0
122.2976 196.0
122.315208 220.0
122.365845 144.0
122.445122 168.0
122.464943 96.0
122.743912 180.0
122.819817 48.0
122.941162 72.0
122.972061 164.0
123.038284 140.0
123.0979 132.0
123.195084 120.0
123.358612 140.0
123.473442 184.0
123.606323 128.0
123.621811 188.0
123.668289 192.0
123.759056 200.0
123.858711 92.0
123.904663 124.0
124.134155 172.0
124.209885 188.0
124.239998 128.0
124.262184 148.0
124.289703 160.0
124.345711 144.0
124.384247 148.0
124.632385 192.0
124.708542 92.0
124.790794 92.0
124.817474 196.0
124.853058 100.0
124.888641 204.0
125.033264 220.0
125.211372 148.0
125.271507 168.0
125.342804 56.0
125.472084 156.0
125.518906 156.0
125.605888 100.0
125.724136 120.0
125.891571 136.0
125.967514 148.0
126.014427 132.0
126.051132 280.0
126.068054 208.0
126.11364 220.0
126.25808 140.0
126.31382 144.0
126.399017 164.0
126.441536 208.0
126.495255 148.0
126.6408 152.0
126.708 196.0
126.811081 64.0
126.84919 136.0
126.932144 140.0
126.968025 124.0
127.012878 228.0
127.054268 528.0
127.082428 180.0
127.107109 156.0
127.134041 48.0
127.14975 136.0
127.174438 184.0
127.19239 244.0
127.215508 148.0
127.279953 124.0
127.32711 108.0
127.342834 104.0
127.43943 180.0
127.464149 172.0
127.596756 208.0
127.694954 144.0
127.722694 200.0
127.77964 216.0
127.819435 208.0
127.882446 344.0
127.925217 124.0
127.967995 56.0
128.026535 120.0
128.062805 12044.0
128.090103 288.0
128.15213 136.0
128.168457 40.0
128.199997 128.0
128.256348 44.0
128.296921 184.0
128.314957 112.0
128.388275 172.0
128.531494 208.0
128.562958 152.0
128.66835 224.0
128.764008 160.0
128.872452 48.0
128.937973 172.0
128.985443 208.0
129.06929 3140.0
129.136932 184.0
129.184433 164.0
129.250473 148.0
129.291565 164.0
129.312531 164.0
129.34024 188.0
129.383591 188.0
129.622787 172.0
129.696198 136.0
129.75061 84.0
129.927505 188.0
129.952469 280.0
130.031891 152.0
130.070007 380.0
130.106796 132.0
130.136307 212.0
130.159012 40.0
130.252411 32.0
130.374832 40.0
130.411194 140.0
130.547607 204.0
130.593079 212.0
130.713669 172.0
130.775116 92.0
130.911713 104.0
130.964096 68.0
130.991425 192.0
131.047272 376.0
131.067749 72.0
131.074677 156.0
131.210205 108.0
131.415878 200.0
131.436005 180.0
131.525482 152.0
131.636887 128.0
131.675705 124.0
131.719101 136.0
132.000992 176.0
132.029953 144.0
132.057404 152.0
132.075699 156.0
132.194672 164.0
132.233566 104.0
132.277069 52.0
132.430481 132.0
132.446518 44.0
132.501495 140.0
132.517532 288.0
132.558777 180.0
132.577103 188.0
132.60231 132.0
132.689423 96.0
132.783447 132.0
132.863724 160.0
132.965546 224.0
132.992233 172.0
133.024368 108.0
133.178223 116.0
133.451691 132.0
133.536774 92.0
133.575882 84.0
133.635696 236.0
133.697815 76.0
133.840546 160.0
133.9534 80.0
134.042572 148.0
134.080124 196.0
134.186157 152.0
134.206909 128.0
134.412201 160.0
134.432968 168.0
134.472198 184.0
134.492981 80.0
134.513748 56.0
134.647675 200.0
134.756241 232.0
134.850983 172.0
134.922653 264.0
135.010513 64.0
135.070648 136.0
135.091232 244.0
135.195587 136.0
135.211792 176.0
135.276596 108.0
135.359955 272.0
135.42247 200.0
135.730698 236.0
135.814194 168.0
135.960358 208.0
136.020706 152.0
136.099442 132.0
136.179733 180.0
136.204147 244.0
136.479553 40.0
136.510941 128.0
136.566757 184.0
136.601654 180.0
136.618637 184.0
136.648178 84.0
136.738937 216.0
136.764542 184.0
136.829712 68.0
136.892578 116.0
137.006714 152.0
137.02536 72.0
137.097595 124.0
137.130219 168.0
137.193146 144.0
137.249115 256.0
137.379715 52.0
137.43338 108.0
137.451126 212.0
137.60376 92.0
137.631775 188.0
137.68782 84.0
137.74855 176.0
137.876602 160.0
137.914459 136.0
137.956543 216.0
138.002197 288.0
138.073456 128.0
138.131927 124.0
138.183395 172.0
138.221893 168.0
138.344879 172.0
138.365952 48.0
138.426819 136.0
138.529877 260.0
138.63063 148.0
138.825989 136.0
138.853348 200.0
139.061234 132.0
139.296967 136.0
139.508469 36.0
139.581345 52.0
139.602509 160.0
139.714676 156.0
140.057922 144.0
140.182709 204.0
140.207535 188.0
140.255844 244.0
140.306549 88.0
140.341904 124.0
140.360779 184.0
140.403214 220.0
140.735947 188.0
140.842224 304.0
140.876984 160.0
140.896561 160.0
140.998154 172.0
141.071304 1232.0
141.206772 120.0
141.225143 184.0
141.262985 108.0
141.322128 116.0
141.650314 244.0
141.670364 164.0
141.73465 164.0
141.787918 184.0
141.862106 148.0
141.885818 72.0
141.945099 128.0
142.077682 1936.0
142.141983 176.0
142.175201 84.0
142.255096 140.0
142.345764 184.0
142.474564 52.0
142.550415 172.0
142.605087 116.0
142.636353 260.0
142.685898 140.0
142.745346 88.0
142.791077 176.0
142.816696 224.0
142.938034 80.0
143.047012 216.0
143.085632 9184.0
143.128464 192.0
143.159409 44.0
143.176086 28.0
143.255829 168.0
143.297577 140.0
143.423874 44.0
143.550232 144.0
143.640869 176.0
143.673035 116.0
143.745407 196.0
143.788803 176.0
143.889053 48.0
143.96785 100.0
144.018005 80.0
144.057983 520.0
144.087769 732.0
144.218246 144.0
144.268921 164.0
144.323898 136.0
144.379822 52.0
144.41478 92.0
144.433914 152.0
144.486542 152.0
144.694763 172.0
144.718704 56.0
144.792938 112.0
144.821686 240.0
144.912704 76.0
144.964432 84.0
144.996582 188.0
145.067841 528.0
145.102051 148.0
145.118835 84.0
145.228287 156.0
145.279526 192.0
145.373108 108.0
145.442703 128.0
145.553131 28.0
145.673233 184.0
145.778946 212.0
145.807785 80.0
145.834213 200.0
145.851044 180.0
145.942398 152.0
145.972412 208.0
146.067947 156.0
146.173325 176.0
146.214233 76.0
146.34903 56.0
146.452591 68.0
146.5345 124.0
146.623657 176.0
146.650162 208.0
146.709656 188.0
146.81749 96.0
146.838226 108.0
146.85994 60.0
146.927475 48.0
146.978149 216.0
147.031372 144.0
147.052963 92.0
147.161591 192.0
147.205048 144.0
147.313736 156.0
147.374146 56.0
147.659393 172.0
147.741638 96.0
147.828735 128.0
148.05127 208.0
148.143494 180.0
148.259796 68.0
148.351913 248.0
148.380997 284.0
148.434341 196.0
148.604141 168.0
148.69635 68.0
148.75972 220.0
148.778885 184.0
148.879288 204.0
148.936722 204.0
148.997452 140.0
149.148117 188.0
149.177292 88.0
149.2332 124.0
149.347504 124.0
149.413193 148.0
149.598145 144.0
149.680923 56.0
149.96109 164.0
150.009842 120.0
150.042358 100.0
150.075668 124.0
150.095169 72.0
150.148819 48.0
150.324463 180.0
150.378159 196.0
150.442001 156.0
150.512421 172.0
150.702942 144.0
150.80484 172.0
150.849579 96.0
150.893219 236.0
150.993423 184.0
151.05452 432.0
151.106369 136.0
151.134125 188.0
151.1651 156.0
151.236069 136.0
151.38623 160.0
151.418335 116.0
151.500534 56.0
151.58139 168.0
151.598541 172.0
151.676056 216.0
151.708847 140.0
151.782394 136.0
151.799561 112.0
151.865784 124.0
151.944351 128.0
151.971268 100.0
152.022797 40.0
152.063126 1284.0
152.091522 72.0
152.214264 116.0
152.248657 116.0
152.278122 160.0
152.484497 124.0
152.533661 128.0
152.568085 204.0
152.585281 92.0
152.654129 224.0
152.67627 124.0
152.707993 204.0
152.836166 136.0
152.890305 192.0
152.971527 212.0
153.015839 148.0
153.070389 7300.0
153.131577 156.0
153.205475 224.0
153.262146 176.0
153.365646 60.0
153.405792 140.0
153.469193 64.0
153.498779 36.0
153.593674 92.0
153.612228 56.0
153.629501 104.0
153.737976 184.0
153.780029 244.0
153.824448 108.0
153.856552 184.0
153.93309 244.0
153.963959 160.0
154.019531 108.0
154.077957 5396.0
154.17485 88.0
154.194382 156.0
154.289368 244.0
154.39769 68.0
154.508987 112.0
154.556 76.0
154.617874 144.0
154.692123 104.0
154.768875 128.0
154.796112 52.0
154.877838 188.0
154.919952 108.0
154.987976 204.0
155.022491 168.0
155.060669 876.0
155.084198 3992.0
155.14299 128.0
155.160339 56.0
155.223953 196.0
155.3255 200.0
155.400925 128.0
155.418289 180.0
155.457993 156.0
155.500183 244.0
155.61438 100.0
155.759598 160.0
155.845367 208.0
155.91246 184.0
156.056641 624.0
156.087753 480.0
156.348999 60.0
156.524429 112.0
156.575165 64.0
156.6091 72.0
156.666397 176.0
156.903152 156.0
156.967972 64.0
157.063721 1340.0
157.100342 1516.0
157.152557 168.0
157.279831 148.0
157.310608 116.0
157.424637 224.0
157.564514 244.0
157.594498 180.0
157.616989 148.0
157.685806 236.0
157.741501 112.0
157.909485 144.0
158.022049 108.0
158.067566 148.0
158.102066 552.0
158.164703 188.0
158.349976 248.0
158.40509 164.0
158.442657 184.0
158.542175 240.0
158.616898 132.0
158.661514 196.0
158.999329 48.0
159.029449 192.0
159.052032 160.0
159.074799 188.0
159.100861 184.0
159.170044 144.0
159.250397 128.0
159.280548 164.0
159.312881 144.0
159.348373 112.0
159.454941 160.0
159.770752 152.0
159.85881 124.0
159.899078 148.0
159.977112 52.0
160.022415 96.0
160.055161 72.0
160.241547 108.0
160.294464 156.0
160.417953 92.0
160.541504 172.0
160.566727 208.0
160.588699 272.0
160.74411 288.0
160.884659 220.0
160.985657 120.0
161.013443 136.0
161.049835 196.0
161.069 140.0
161.202911 96.0
161.258514 136.0
161.458237 132.0
161.498703 112.0
161.758377 168.0
161.8125 208.0
161.951782 148.0
162.070847 180.0
162.116455 148.0
162.177292 188.0
162.286301 184.0
162.380127 120.0
162.512039 240.0
162.658066 192.0
162.749863 188.0
162.831894 124.0
162.92334 176.0
163.515503 204.0
163.62001 256.0
163.829071 140.0
163.8927 96.0
163.987335 240.0
164.01503 172.0
164.083862 168.0
164.114456 180.0
164.241959 128.0
164.486923 140.0
164.553299 68.0
164.609482 136.0
164.710861 172.0
164.849609 136.0
164.962067 172.0
165.020859 124.0
165.069519 856.0
165.160919 248.0
165.235703 208.0
165.476288 164.0
165.581268 160.0
165.91951 164.0
166.045166 172.0
166.077408 308.0
166.13237 244.0
166.160599 116.0
166.252975 160.0
166.324829 108.0
166.375626 168.0
166.39415 224.0
166.460907 72.0
166.494293 92.0
166.671539 124.0
166.874603 140.0
166.915741 64.0
167.043381 156.0
167.085526 704.0
167.177795 240.0
167.448456 148.0
167.662292 184.0
167.731873 132.0
167.786011 176.0
167.894318 240.0
167.961365 204.0
167.979172 196.0
168.056976 1432.0
168.09024 152.0
168.17038 184.0
168.381546 192.0
168.446655 216.0
168.467331 152.0
168.635284 112.0
168.741272 60.0
168.822983 100.0
168.888672 88.0
169.001419 204.0
169.064682 1944.0
169.100922 836.0
169.11731 188.0
169.175903 192.0
169.269119 180.0
169.289841 156.0
169.372711 116.0
169.450424 104.0
169.517807 128.0
169.624069 188.0
169.652573 60.0
169.725174 92.0
169.875595 84.0
169.961212 208.0
169.994949 152.0
170.073013 2620.0
170.11145 140.0
170.173355 296.0
170.197418 100.0
170.285721 144.0
170.350662 324.0
170.397415 140.0
170.475372 148.0
170.550735 116.0
170.58609 160.0
170.607925 192.0
170.761353 196.0
170.965637 100.0
171.014816 268.0
171.047562 312.0
171.080292 7848.0
171.122253 192.0
171.188156 36.0
171.232437 48.0
171.255875 32.0
171.289734 60.0
171.33522 260.0
171.448669 36.0
171.477341 60.0
171.517487 80.0
171.565964 96.0
171.615509 120.0
171.727631 116.0
171.792847 140.0
171.847641 100.0
171.889389 116.0
172.051422 148.0
172.081985 580.0
172.133713 80.0
172.138824 180.0
172.288864 80.0
172.353424 152.0
172.429962 68.0
172.455383 188.0
172.495316 72.0
172.518845 228.0
172.7202 88.0
172.751587 40.0
172.882416 100.0
172.932129 152.0
173.062073 384.0
173.090607 280.0
173.146423 112.0
173.178253 132.0
173.207062 100.0
173.263077 148.0
173.326385 132.0
173.390472 104.0
173.440277 140.0
173.487457 128.0
173.505814 80.0
173.67627 156.0
173.699875 192.0
173.739227 84.0
173.831055 144.0
173.894043 160.0
173.949158 248.0
173.980667 136.0
174.06871 128.0
174.098816 64.0
174.172363 176.0
174.211761 144.0
174.322327 148.0
174.356277 124.0
174.459747 132.0
174.602951 116.0
174.637604 156.0
174.66391 128.0
174.740204 176.0
174.858612 132.0
174.898087 100.0
175.016556 140.0
175.034988 300.0
175.193024 124.0
175.256256 128.0
175.324768 144.0
175.546219 76.0
175.604233 152.0
175.810013 132.0
175.96048 132.0
176.01857 236.0
176.047607 160.0
176.096725 228.0
176.158539 76.0
176.28801 180.0
176.409592 44.0
176.51799 136.0
176.549728 108.0
176.695206 196.0
176.726959 160.0
176.74971 200.0
176.771896 204.0
176.838104 228.0
176.909576 160.0
176.943985 196.0
177.002243 148.0
177.088867 96.0
177.203552 52.0
177.30159 136.0
177.341339 164.0
177.384644 168.0
177.434128 164.0
177.529587 224.0
177.550797 72.0
177.598541 124.0
177.802841 152.0
177.874496 40.0
178.073639 236.0
178.105515 148.0
178.235687 88.0
178.376297 164.0
178.62146 124.0
178.672852 212.0
178.698349 144.0
178.72496 164.0
179.033737 156.0
179.052383 152.0
179.083862 372.0
179.172821 228.0
179.193573 148.0
179.254349 84.0
179.454758 148.0
179.5401 172.0
179.873611 164.0
179.926361 132.0
180.09079 168.0
180.234161 168.0
180.306305 136.0
180.335709 216.0
180.415909 200.0
180.629837 112.0
180.718124 148.0
180.825165 204.0
180.961685 136.0
181.066605 844.0
181.433228 152.0
181.543152 52.0
181.663849 200.0
181.728241 40.0
181.803375 144.0
181.913422 152.0
181.978058 248.0
182.002029 204.0
182.031555 152.0
182.072449 1920.0
182.233017 152.0
182.335129 148.0
182.418457 40.0
182.450714 80.0
182.56633 88.0
182.65509 208.0
182.811142 200.0
182.924179 140.0
183.077011 1284.0
183.124603 152.0
183.217712 148.0
183.390182 164.0
183.414856 232.0
183.592392 124.0
183.664551 164.0
183.76503 144.0
183.856598 128.0
184.007935 80.0
184.052917 1448.0
184.090439 108.0
184.12944 228.0
184.251007 208.0
184.294235 136.0
184.429352 108.0
184.496933 164.0
184.648956 200.0
184.672699 48.0
184.756561 52.0
184.995987 220.0
185.059708 1128.0
185.096588 2216.0
185.157166 240.0
185.178833 60.0
185.303436 148.0
185.447067 208.0
185.479599 168.0
185.506699 184.0
185.544662 128.0
185.814285 156.0
185.948837 136.0
186.058273 312.0
186.103302 332.0
186.228485 72.0
186.285522 144.0
186.318344 228.0
186.399643 128.0
186.524796 164.0
186.592621 192.0
186.647003 52.0
186.837387 88.0
186.908142 92.0
186.959839 108.0
187.038483 156.0
187.195221 224.0
187.335587 264.0
187.398254 132.0
187.417328 108.0
187.463638 136.0
187.496353 192.0
187.638092 76.0
187.691193 152.0
187.758072 204.0
187.796249 108.0
188.041809 188.0
188.058929 148.0
188.088211 160.0
188.134628 128.0
188.161926 228.0
188.309387 112.0
188.385864 164.0
188.456894 200.0
188.475616 160.0
188.49556 160.0
188.659149 204.0
188.749374 88.0
188.820465 124.0
188.908005 84.0
188.927155 88.0
188.946304 168.0
188.968185 136.0
189.039322 48.0
189.107742 124.0
189.140594 116.0
189.162491 96.0
189.184387 140.0
189.5103 116.0
189.894089 64.0
190.020279 120.0
190.333176 128.0
190.363388 120.0
190.388107 48.0
190.563904 108.0
190.607941 148.0
190.869003 96.0
191.411087 108.0
191.697571 128.0
191.879501 80.0
191.962219 196.0
192.014618 144.0
192.094604 124.0
192.14978 196.0
192.293274 268.0
192.367798 64.0
192.492035 116.0
192.613571 144.0
192.718262 200.0
192.815262 212.0
192.947952 148.0
193.011536 128.0
193.055939 208.0
193.111099 64.0
193.205627 232.0
193.343491 40.0
193.390549 108.0
193.481903 144.0
193.681274 132.0
194.011047 240.0
194.094223 236.0
194.210693 152.0
194.441971 216.0
194.585327 84.0
194.838058 144.0
194.865845 156.0
194.904739 316.0
195.021469 128.0
195.081345 660.0
195.291168 160.0
195.366272 100.0
195.644577 172.0
195.803284 52.0
195.822784 116.0
195.897995 200.0
196.088364 340.0
196.420563 144.0
196.537872 184.0
196.578308 164.0
196.712265 180.0
196.779282 152.0
196.932861 148.0
197.002701 108.0
197.027847 84.0
197.059235 188.0
197.093582 156.0
197.321289 208.0
197.413574 108.0
197.447128 28.0
197.472305 160.0
197.533829 84.0
197.589783 76.0
197.827667 120.0
197.959259 92.0
197.995667 112.0
198.018066 192.0
198.067703 2916.0
198.104904 168.0
198.155334 192.0
198.207108 100.0
198.275833 128.0
198.306732 160.0
198.362717 112.0
198.41098 184.0
198.438828 212.0
198.533752 128.0
198.561798 220.0
198.682404 112.0
198.712738 148.0
198.739929 120.0
198.765625 176.0
198.856384 236.0
198.919006 208.0
198.957855 224.0
199.020889 340.0
199.076859 44240.0
199.121796 160.0
199.16861 100.0
199.197174 164.0
199.230667 244.0
199.262589 160.0
199.28476 44.0
199.328415 52.0
199.388397 180.0
199.420441 136.0
199.454666 64.0
199.494385 156.0
199.532272 204.0
199.583984 204.0
199.603668 92.0
199.651718 92.0
199.696472 112.0
199.745804 212.0
199.7668 44.0
199.800552 76.0
199.868073 100.0
199.947815 132.0
200.000351 72.0
200.078476 7368.0
200.160828 56.0
200.197433 108.0
200.22171 84.0
200.253754 108.0
200.298828 56.0
200.340073 244.0
200.388504 164.0
200.410217 200.0
200.512054 136.0
200.589066 72.0
200.636993 72.0
200.726318 200.0
200.844818 92.0
200.865417 188.0
200.887985 60.0
200.921829 68.0
201.012131 84.0
201.052231 272.0
201.081772 672.0
201.133484 156.0
201.170181 68.0
201.21376 128.0
201.228897 100.0
201.233749 208.0
201.254883 252.0
201.314178 44.0
201.358307 120.0
201.400848 180.0
201.467697 68.0
201.490723 88.0
201.560913 148.0
201.581879 168.0
201.622116 84.0
201.661682 120.0
201.680222 64.0
201.691727 76.0
201.699326 112.0
201.77475 88.0
201.853912 144.0
201.998169 108.0
202.057571 168.0
202.0802 168.0
202.15094 76.0
202.230194 96.0
202.362701 208.0
202.510147 100.0
202.561295 172.0
202.606812 80.0
202.669144 128.0
202.68898 76.0
202.711639 76.0
202.734314 160.0
202.75415 92.0
202.788162 112.0
202.943893 60.0
203.051834 48.0
203.122742 112.0
203.304337 128.0
203.324203 100.0
203.401459 156.0
203.500198 128.0
203.522903 204.0
203.700745 156.0
203.733078 184.0
203.877991 60.0
204.031479 212.0
204.290283 128.0
204.381317 180.0
204.446777 140.0
204.515915 136.0
204.63179 164.0
205.093292 196.0
205.250092 120.0
205.429779 140.0
205.503952 160.0
205.540115 248.0
205.566727 132.0
205.598114 96.0
205.817932 108.0
205.872177 124.0
206.066422 116.0
206.097855 160.0
206.180725 76.0
206.209305 52.0
206.367081 104.0
206.529175 188.0
206.606766 184.0
206.638245 164.0
206.721222 184.0
206.87291 176.0
207.199387 256.0
207.339798 140.0
207.412857 148.0
207.603546 140.0
207.649429 72.0
207.778519 148.0
207.884689 140.0
208.23494 92.0
208.292389 56.0
208.381439 176.0
208.608475 196.0
208.65448 204.0
208.749359 168.0
208.8414 184.0
208.913879 100.0
209.008255 120.0
209.031265 112.0
209.091705 52.0
209.273056 136.0
209.343628 284.0
209.440094 120.0
209.710938 200.0
209.8349 164.0
210.013687 184.0
210.097336 132.0
210.16658 128.0
210.26181 172.0
210.359955 76.0
210.423462 240.0
210.530304 84.0
210.657394 208.0
210.764923 200.0
210.862549 140.0
210.975281 144.0
211.024429 216.0
211.077347 144.0
211.139603 164.0
211.244217 172.0
211.481491 52.0
211.504654 156.0
211.655197 152.0
211.689941 52.0
211.860825 76.0
211.968033 116.0
211.999908 80.0
212.04628 172.0
212.079758 240.0
212.112946 120.0
212.385513 152.0
212.884705 96.0
212.957321 204.0
213.012512 192.0
213.05484 188.0
213.092163 5096.0
213.210587 140.0
213.268204 80.0
213.295135 152.0
213.358322 68.0
213.425201 172.0
213.471725 104.0
213.492081 84.0
213.608414 176.0
213.716064 132.0
213.771347 176.0
214.065369 168.0
214.091995 844.0
214.138168 176.0
214.219727 212.0
214.275787 232.0
214.444107 64.0
214.500763 164.0
214.595688 184.0
214.721741 88.0
214.828598 172.0
215.042007 116.0
215.103256 188.0
215.231766 140.0
215.293091 224.0
215.336899 128.0
215.421616 152.0
215.566223 176.0
215.59108 144.0
215.804459 184.0
215.846191 176.0
215.912659 56.0
216.225708 136.0
216.2901 168.0
216.369141 252.0
216.401337 256.0
216.431564 124.0
216.741104 120.0
216.76651 132.0
216.799713 204.0
216.908157 188.0
216.952133 172.0
217.128067 40.0
217.148605 124.0
217.20726 144.0
217.236588 188.0
217.368622 120.0
217.608536 228.0
217.700348 52.0
217.829575 124.0
218.044067 156.0
218.076401 116.0
218.317474 96.0
218.473373 232.0
218.594009 64.0
218.702896 220.0
218.741165 136.0
218.808868 140.0
218.841263 204.0
218.876587 180.0
219.01207 204.0
219.070984 168.0
219.589767 176.0
219.754959 248.0
219.78447 208.0
219.867096 180.0
220.206619 144.0
220.247971 140.0
220.330673 200.0
220.442963 92.0
220.472504 192.0
220.655777 128.0
220.90419 144.0
220.975204 136.0
221.018021 164.0
221.105392 164.0
221.250443 116.0
221.451797 196.0
221.564758 152.0
221.745117 168.0
221.964493 136.0
222.089066 160.0
222.219589 156.0
222.382797 68.0
222.427322 140.0
222.655945 228.0
222.81041 188.0
222.902512 48.0
223.190857 104.0
223.735321 128.0
223.803802 80.0
223.87825 128.0
224.056961 152.0
224.104645 180.0
224.129852 356.0
224.238739 160.0
224.331146 156.0
224.366913 132.0
224.407211 132.0
224.450394 144.0
224.495132 172.0
224.609833 128.0
224.636826 212.0
224.694046 180.0
224.83522 156.0
224.897903 148.0
224.994064 204.0
225.089813 280.0
225.136749 68.0
225.173996 152.0
225.235306 124.0
225.312973 48.0
225.483307 116.0
225.540085 56.0
225.572968 40.0
225.596893 208.0
225.635757 148.0
225.695557 68.0
225.743393 52.0
225.797226 176.0
225.818161 192.0
225.871994 184.0
225.912033 156.0
225.933502 136.0
226.012619 124.0
226.093414 144.0
226.137726 84.0
226.192184 180.0
226.246063 168.0
226.266754 136.0
226.298187 128.0
226.317917 160.0
226.3983 128.0
226.434708 40.0
226.472214 176.0
226.498611 168.0
226.520218 160.0
226.54689 168.0
226.568481 128.0
226.597824 88.0
226.641083 168.0
226.68779 160.0
226.724213 184.0
226.774139 364.0
226.815796 344.0
226.840973 124.0
226.871048 352.0
226.875626 240.0
226.924545 156.0
226.975906 244.0
227.009903 696.0
227.071716 221456.0
227.171021 224.0
227.221985 220.0
227.270706 100.0
227.296463 100.0
227.326385 192.0
227.358459 316.0
227.392502 52.0
227.399353 204.0
227.421219 144.0
227.452225 256.0
227.475784 164.0
227.502472 92.0
227.526367 208.0
227.564865 988.0
227.610535 96.0
227.6418 136.0
227.675369 96.0
227.72879 112.0
227.809769 148.0
227.869003 196.0
227.912048 172.0
227.988876 156.0
228.07515 27332.0
228.180008 172.0
228.232269 100.0
228.263412 132.0
228.292587 160.0
228.318268 140.0
228.357239 76.0
228.393661 92.0
228.432266 48.0
228.45575 64.0
228.487061 96.0
228.505096 84.0
228.529556 52.0
228.563782 112.0
228.629883 276.0
228.674484 68.0
228.70459 100.0
228.735687 72.0
228.74231 60.0
228.768051 52.0
228.86113 120.0
228.884613 60.0
228.948456 40.0
229.021179 164.0
229.077087 2452.0
229.138611 88.0
229.16806 88.0
229.215286 104.0
229.243683 160.0
229.283279 60.0
229.311569 96.0
229.334503 80.0
229.373291 184.0
229.40271 80.0
229.447617 104.0
229.488983 172.0
229.54158 176.0
229.573578 112.0
229.600739 128.0
229.622665 96.0
229.654709 112.0
229.701126 204.0
229.751862 92.0
229.772766 132.0
229.809113 148.0
229.83905 224.0
229.898193 120.0
229.934296 40.0
230.016739 116.0
230.081009 180.0
230.109375 136.0
230.148636 160.0
230.184875 72.0
230.245956 244.0
230.273651 84.0
230.311707 80.0
230.357025 48.0
230.420471 68.0
230.453705 96.0
230.500412 148.0
230.541336 84.0
230.597855 108.0
230.651306 72.0
230.74765 92.0
230.7892 80.0
230.845169 132.0
230.885971 48.0
231.028137 128.0
231.146133 244.0
231.285355 184.0
231.336807 48.0
231.358002 32.0
231.412491 72.0
231.44722 120.0
231.597229 52.0
231.633575 88.0
231.772934 72.0
231.821426 112.0
231.875977 180.0
231.939621 44.0
232.087845 72.0
232.124557 52.0
232.187561 164.0
232.358109 64.0
232.467346 32.0
232.579636 96.0
232.637314 92.0
232.96225 196.0
233.013733 144.0
233.171921 72.0
233.497223 56.0
233.865372 108.0
234.054123 140.0
234.178986 172.0
234.718399 32.0
234.794632 116.0
234.836563 176.0
234.986816 204.0
235.12413 84.0
235.224854 156.0
235.650879 96.0
235.741013 64.0
236.242462 168.0
236.288345 80.0
236.579086 76.0
236.785538 132.0
236.946594 168.0
237.078354 152.0
237.259186 124.0
237.415573 212.0
237.513718 116.0
237.547455 148.0
237.621094 108.0
237.694733 176.0
237.940277 160.0
237.967911 148.0
238.079346 168.0
238.305756 64.0
238.397949 64.0
238.889893 64.0
238.923737 152.0
238.948349 84.0
238.972961 32.0
239.069489 272.0
239.10347 184.0
239.162018 152.0
239.219818 76.0
239.394669 108.0
239.422379 80.0
239.595749 112.0
239.816742 80.0
239.853729 92.0
239.921555 116.0
239.983582 68.0
240.095169 92.0
240.180588 144.0
240.236115 152.0
240.277435 172.0
240.318939 104.0
240.385345 240.0
240.427414 44.0
240.51384 104.0
240.611237 116.0
240.637314 60.0
240.691711 156.0
240.720688 88.0
240.748489 160.0
240.796616 148.0
240.844223 104.0
240.884308 156.0
240.90126 156.0
240.936905 176.0
240.993393 360.0
241.019562 388.0
241.087051 61216.0
241.144516 128.0
241.179764 88.0
241.214142 56.0
241.24852 48.0
241.286133 68.0
241.30777 64.0
241.356934 140.0
241.393204 76.0
241.416 128.0
241.463287 68.0
241.487305 72.0
241.524246 88.0
241.573746 52.0
241.603485 52.0
241.685394 92.0
241.747803 180.0
241.822052 64.0
241.853638 124.0
241.963669 76.0
242.016312 208.0
242.089386 7064.0
242.146378 124.0
242.18248 88.0
242.226913 136.0
242.310547 88.0
242.35051 116.0
242.386795 112.0
242.415909 60.0
242.52951 80.0
242.589478 80.0
242.642166 120.0
242.690277 116.0
242.725891 88.0
242.753799 88.0
242.790237 128.0
242.936798 88.0
242.99173 272.0
243.095352 928.0
243.120651 204.0
243.147797 60.0
243.209869 116.0
243.240906 56.0
243.271942 84.0
243.302994 100.0
243.336487 76.0
243.365082 88.0
243.407578 140.0
243.462097 100.0
243.531601 84.0
243.579376 84.0
243.619766 120.0
243.646011 112.0
243.694321 40.0
243.804871 104.0
243.816437 148.0
243.868347 104.0
243.902542 72.0
243.930511 68.0
244.003189 164.0
244.095291 220.0
244.160599 64.0
244.201035 72.0
244.228302 104.0
244.512161 48.0
244.661575 148.0
244.748978 56.0
244.826599 68.0
244.873306 60.0
244.985443 172.0
245.086548 64.0
245.371902 56.0
245.568344 48.0
245.718079 76.0
245.817932 84.0
246.142578 64.0
246.767487 112.0
248.268341 160.0
248.570801 164.0
248.647003 48.0
248.891861 68.0
249.391373 168.0
250.06131 104.0
250.417099 80.0
251.063171 176.0
251.732193 120.0
252.62825 40.0
253.032318 180.0
253.12674 96.0
253.9095 64.0
254.182327 100.0
255.116104 160.0
257.010834 328.0
257.761505 44.0
257.982025 176.0
258.69223 108.0
258.833099 72.0
259.955048 120.0
260.751495 36.0
261.169464 120.0
263.261169 40.0
263.658508 60.0
265.030579 172.0
266.071716 144.0
266.093079 184.0
267.091064 172.0
268.093567 368.0
268.792755 120.0
268.851501 204.0
268.897186 92.0
268.955933 36.0
269.081482 10928.0
269.181213 32.0
269.23999 80.0
269.344513 28.0
269.646423 100.0
269.831421 84.0
270.085907 1880.0
271.029358 92.0
271.088562 128.0
271.645721 92.0
271.742828 140.0
271.950897 68.0
272.131439 72.0
272.834534 40.0
273.17984 52.0
273.239044 88.0
273.904022 44.0
274.470886 52.0
275.371826 44.0
275.712128 104.0
275.996399 140.0
277.014282 144.0
277.042267 104.0
280.125092 116.0
281.054474 136.0
281.489197 116.0
281.960236 108.0
282.050476 80.0
282.073883 168.0
285.56778 36.0
286.059052 156.0
286.217285 84.0
289.354004 104.0
291.929382 152.0
292.453308 80.0
294.232758 76.0
295.873779 56.0
297.045776 112.0
297.09726 72.0
297.605194 56.0
298.055176 180.0
298.815033 56.0
299.055542 176.0
300.513611 44.0
305.1409 120.0
307.366577 100.0
308.096283 48.0
308.127747 148.0
308.606567 56.0
310.827301 80.0
311.53299 168.0
315.883087 108.0
316.92749 84.0
317.023163 112.0
317.72879 72.0
317.884888 52.0
318.062347 104.0
320.405853 96.0
320.587555 192.0
321.768219 64.0
322.078918 124.0
325.043518 116.0
325.592529 72.0
326.24649 80.0
326.757172 92.0
328.014008 88.0
328.302429 104.0
329.508057 76.0
329.941742 128.0
331.059814 100.0
333.050934 160.0
335.682251 76.0
336.605469 80.0
338.042084 236.0
338.118927 92.0
339.775177 32.0
340.289001 108.0
343.933533 92.0
345.163788 48.0
346.34436 80.0
349.146576 104.0
350.490417 96.0
351.881653 40.0
352.550293 56.0
355.403687 120.0
356.094421 152.0
356.782074 48.0
357.556946 124.0
357.677399 108.0
358.894257 104.0
360.15094 120.0
360.313385 88.0
362.064728 128.0
364.08609 116.0
365.066589 64.0
366.894226 44.0
369.211975 48.0
369.850922 104.0
371.003967 60.0
376.48703 56.0
377.646454 48.0
388.200989 64.0
388.251953 72.0
388.534363 92.0
392.061432 48.0
392.763245 68.0
396.408447 48.0
398.034821 52.0
402.658325 76.0
402.706268 60.0
403.109772 128.0
403.253632 52.0
405.48291 92.0
407.043457 104.0
407.871094 60.0
416.916565 60.0
420.010895 76.0
425.896973 140.0
426.118805 52.0
428.336182 60.0
431.480774 100.0
435.745453 64.0
438.462708 68.0
438.60025 64.0
438.637756 76.0
445.105865 116.0
448.690674 48.0
450.75885 76.0
451.94281 60.0
452.895325 68.0
453.2724 40.0
453.416473 128.0
454.175415 88.0
454.256012 40.0
456.800537 144.0
459.109039 80.0
463.237915 20.0
465.519653 48.0
466.899139 152.0
467.807037 92.0
468.33667 84.0
468.793335 80.0
472.152039 96.0
479.842255 64.0
480.151855 120.0
482.549164 100.0
484.194489 72.0
486.215576 68.0
488.539978 96.0
488.702759 76.0
496.308777 48.0
497.308655 120.0
497.799713 76.0
499.5242 68.0
501.590363 96.0
507.034363 116.0
525.603088 36.0
537.284668 48.0
539.533752 80.0
542.482666 64.0
546.025452 88.0
553.496765 48.0
555.169678 152.0
561.419617 112.0
561.627136 48.0
563.227295 28.0
564.664124 36.0
573.523926 32.0
585.025269 44.0
587.034485 48.0
593.252319 40.0
596.188782 88.0
601.370789 64.0
602.420593 108.0
602.948303 96.0
606.89386 108.0
608.999146 40.0
613.427673 80.0
616.191284 100.0
622.988403 96.0
623.853088 68.0
625.773438 52.0
633.749939 92.0
639.71637 44.0
648.541016 72.0
650.194458 104.0
654.459412 52.0
658.978394 40.0
661.484314 96.0
668.531311 128.0
670.596497 124.0
689.833496 108.0
691.884216 40.0
698.075562 124.0
720.112122 120.0
720.683716 172.0
723.871704 104.0
725.516602 92.0
739.51123 72.0
755.585999 128.0
757.129578 196.0
759.014648 72.0
766.269897 96.0
777.517151 124.0
789.757812 108.0
792.052734 132.0
793.924683 44.0
794.210693 56.0
801.519165 52.0
808.278198 44.0
811.410339 160.0
813.957947 228.0
819.743042 224.0
830.020874 100.0
834.189087 76.0
836.881531 196.0
866.128601 208.0
868.842712 196.0
870.826782 60.0
874.171936 216.0
876.268066 180.0
878.024658 76.0
901.827148 44.0
904.75824 228.0
926.844482 212.0
935.608704 176.0
938.746582 48.0
940.766113 168.0
945.864258 208.0
946.035645 180.0
946.715271 136.0
955.664978 160.0
982.560791 188.0
991.884827 188.0
994.669922 80.0
999.911865 128.0
1000.497253 68.0
1005.072937 116.0
1012.000427 180.0
1016.703857 204.0
1025.684448 176.0
1030.700684 84.0
1038.542969 88.0
1046.466553 56.0
1046.942993 164.0
1052.172363 124.0
1053.199097 84.0
1053.302368 112.0
1066.429932 40.0
1067.001953 76.0
1072.554688 132.0
1078.997803 172.0
1082.085815 112.0
1085.053711 160.0
1092.441895 204.0
1094.067261 124.0
1095.983887 40.0
1096.043213 60.0
1096.787842 44.0
1100.858521 104.0
1103.838745 52.0
1105.69104 208.0
1117.515991 196.0
1119.166626 140.0
1124.993652 120.0
1125.701294 180.0
1128.106567 196.0
1128.253662 192.0
1130.748657 140.0
1132.630127 44.0
1132.75061 156.0
1135.458496 64.0
1138.431519 108.0
1147.009644 180.0
1148.398682 156.0
1149.58606 108.0
1152.259888 168.0
1155.187134 160.0
1159.107178 176.0
1167.143921 104.0
1168.844482 128.0
1169.70874 132.0
1170.444092 112.0
1174.26709 160.0
1175.187988 172.0
1177.229004 164.0
1177.570435 204.0
1179.688599 132.0
1181.364014 152.0
1181.952393 224.0
1183.519897 208.0
1184.307373 36.0
1200.616699 220.0
1201.451294 260.0
1205.248535 176.0
1206.091675 188.0
1208.546753 72.0
1209.446411 196.0
1212.299805 144.0
1213.956543 232.0
1215.149658 68.0
1221.617432 116.0
1222.484009 176.0
1222.730713 172.0
1228.360474 152.0
1229.469849 184.0
1241.691895 152.0
1242.765259 212.0
1242.842407 148.0
1257.910278 192.0
1258.263184 92.0
1266.267822 132.0
1267.266602 48.0
1269.017212 208.0
1273.146973 104.0
1276.266479 96.0
1278.799072 140.0
1281.690308 152.0
1284.784546 124.0
1286.440186 60.0
1286.86145 132.0
1287.197021 160.0
1290.498169 184.0
1291.871216 100.0
1292.1073 128.0
1297.457031 204.0
1297.94458 156.0
1298.504028 180.0
1305.520508 232.0
1308.254517 148.0
1308.736938 152.0
1312.671143 124.0
1313.486206 132.0
1313.774658 208.0
1313.947876 88.0
1314.849854 184.0
1316.264771 188.0
1316.373047 200.0
1317.51416 184.0
1318.323486 76.0
1319.776367 216.0
1321.642456 232.0
1324.10376 168.0
1326.799194 64.0
1331.624634 96.0
1331.70459 256.0
1338.307617 184.0
1339.064941 160.0
1339.378174 152.0
1339.786011 152.0
1342.986084 148.0
1343.737427 172.0
1346.825317 148.0
1348.184326 136.0
1349.529297 52.0
1351.29187 156.0
1352.645752 180.0
1355.11377 144.0
1356.000366 148.0
1357.554565 80.0
1362.278809 188.0
1363.015991 136.0
1363.405396 160.0
1363.875854 172.0
1367.987671 224.0
1368.480957 176.0
1369.453003 156.0
1370.263306 152.0
1370.5802 220.0
1373.602783 168.0
1377.980591 152.0
1379.887329 180.0
1381.100098 92.0
1381.884277 116.0
1383.727173 128.0
1384.356445 188.0
1385.452637 152.0
1387.713135 152.0
1391.27417 176.0
1393.14563 76.0
1393.762329 204.0
1394.141235 192.0
1395.776611 196.0
1396.096436 220.0
1396.215332 40.0
1397.32373 292.0
1398.008301 180.0
1402.618408 200.0
1404.892822 120.0
1406.489746 228.0
1406.69873 196.0
1411.70459 136.0
1412.407593 216.0
1412.826538 264.0
1413.372681 152.0
1417.753296 212.0
1418.75769 236.0
1419.035034 144.0
1419.769897 152.0
1419.889893 148.0
1420.940063 180.0
1421.36499 180.0
1421.885498 132.0
1422.410889 152.0
1422.478394 184.0
1423.582153 40.0
1423.702271 212.0
1424.348145 160.0
1424.648682 100.0
1425.069336 176.0
1425.61792 188.0
1425.677979 232.0
1428.83606 164.0
1429.21228 144.0
1430.687378 196.0
1431.62207 152.0
1432.457031 160.0
1436.271118 176.0
1436.550293 156.0
1436.678467 136.0
1436.852051 56.0
1437.4104 132.0
1438.421631 172.0
1438.919922 64.0
1438.987915 176.0
1439.977051 104.0
1440.90625 192.0
1441.389771 176.0
1442.349609 208.0
1444.2323 176.0
1444.375977 164.0
1444.610474 120.0
1445.737915 144.0
1446.139038 220.0
1447.319946 180.0
1448.387817 124.0
1448.539307 160.0
1449.940918 40.0
1450.160767 208.0
1450.539795 120.0
1450.661011 248.0
1451.176514 128.0
1451.275146 192.0
1452.147217 148.0
1454.339844 124.0
1454.506836 164.0
1455.759644 248.0
1455.881104 88.0
1456.655762 100.0
1457.704224 172.0
1459.490601 144.0
1459.756714 188.0
1459.8479 184.0
1460.585693 224.0
1461.9552 120.0
1465.534058 116.0
1466.273193 80.0
1466.852417 176.0
1467.0354 140.0
1468.552856 136.0
1470.773071 160.0
1471.284546 100.0
1471.345703 112.0
1472.345947 164.0
1473.102051 308.0
1474.118286 112.0
1476.69458 52.0
1478.071533 84.0
1478.216919 208.0
1478.645508 160.0
1483.218018 44.0
1483.785278 64.0
1483.84668 128.0
1484.697754 192.0
1484.782104 156.0
1485.21167 144.0
1485.395752 204.0
1485.599487 136.0
1486.285645 160.0
1486.423828 132.0
1489.333374 152.0
1490.432007 156.0
1491.046753 128.0
1491.953735 188.0
1493.014771 196.0
1493.068604 72.0
1493.968628 84.0
1494.907227 156.0
1495.784668 116.0
1496.385132 144.0
1497.239868 164.0
1497.339966 48.0
1497.51709 164.0
1497.571045 164.0
1497.624878 108.0
1497.794312 84.0
1498.218018 188.0
1498.37207 148.0
1499.212036 184.0
1502.512085 140.0
1503.052246 140.0
